# vtk DataFile Version 2.0
Wound Healing Simulation
ASCII
DATASET UNSTRUCTURED_GRID
POINTS 3012 float
69.9759 18.75 4
67.2507 60.3285 4
69.976 18.75 2
73.0099 25.446 4
71.1327 20.9142 4
68.6801 16.6661 4
67.8267 19.9163 3.99191
67.2507 60.3286 2
71.1327 54.0858 4
68.6801 58.3339 4
65.6939 62.2254 4
65.3132 59.0094 3.99291
74.6784 42.3946 4
73.7221 47.2057 4
69.9759 18.75 0
73.0099 25.446 2
68.6801 16.6661 2
71.1327 20.9142 2
67.8267 19.916 2
74.6792 32.6053 4
73.7222 27.7943 4
72.1454 23.1494 4
70.6165 26.2143 3.99008
68.8873 21.9489 3.9913
67.2507 14.6715 4
66.638 17.9624 3.99252
65.8045 21.0098 3.98735
67.2507 60.3285 0
71.1327 54.0858 2
68.6801 58.3339 2
65.694 62.2255 2
65.3132 59.0097 2
72.1454 51.8506 4
69.9759 56.25 4
68.8382 53.1222 3.9913
64.0165 64.0165 4
66.6117 57.1429 3.99259
63.8866 60.7728 3.99329
63.5048 57.7896 3.98829
60.3285 67.2507 4
74.6792 42.3947 2
73.7222 47.2057 2
74.9194 39.9526 4
74.2788 44.8158 4
72.1712 42.0884 3.98952
73.0099 49.554 4
71.2521 46.6036 3.99011
73.0099 25.446 0
71.1327 20.9142 0
68.6801 16.6661 0
67.8267 19.9163 0.00808915
74.6792 32.6053 2
73.7222 27.7943 2
67.2508 14.6715 2
72.1455 23.1494 2
70.6165 26.214 2
66.638 17.9621 2
68.8873 21.9486 2
65.8044 21.0097 2
74.9197 35.0474 4
74.2794 30.1841 4
72.1876 32.9396 3.98969
71.2807 28.4258 3.98966
69.8176 24.0516 3.99069
68.356 26.942 3.98613
66.7709 22.92 3.98707
65.694 12.7746 4
65.3246 16.095 3.99296
64.7198 19.1773 3.98783
63.9007 22.0135 3.98569
71.1327 54.0858 0
65.6939 62.2254 0
68.6801 58.3339 0
65.3132 59.0094 0.00708756
72.1455 51.8506 2
69.9759 56.25 2
68.8382 53.1225 2
64.0165 64.0165 2
66.6117 57.1432 2
63.8866 60.7731 2
63.5049 57.7899 2
62.2254 65.694 4
58.8937 65.4182 3.99352
69.7712 50.9969 3.99072
67.7851 55.1769 3.99206
66.6584 52.2228 3.98712
62.3367 62.433 3.99349
64.6669 56.0486 3.98806
62.2056 59.4218 3.98883
61.8319 56.7053 3.98646
58.3339 68.6801 4
60.3285 67.2508 2
73.7221 47.2057 0
74.6784 42.3946 0
74.9197 39.9526 2
74.2794 44.8159 2
72.1712 42.0885 2
73.0099 49.554 2
71.2521 46.6038 2
75 37.5 4
72.4084 39.8033 3.98919
71.7855 44.3571 3.98989
69.8144 41.7934 3.98574
70.5778 48.8203 3.99035
68.9227 46.0226 3.98622
74.6792 32.6053 0
73.7222 27.7943 0
67.2507 14.6715 0
72.1454 23.1494 0
70.6165 26.2143 0.00992396
68.8873 21.9489 0.00870275
66.638 17.9624 0.00748155
65.8045 21.0098 0.0126538
74.9197 35.0474 2
74.2794 30.1841 2
72.1876 32.9396 2
71.2807 28.4256 2
65.694 12.7745 2
65.3246 16.0948 2
69.8176 24.0513 2
68.356 26.9419 2
64.7198 19.1771 2
66.7708 22.9198 2
63.9007 22.0135 2
72.4161 35.2218 3.98936
71.8065 30.6716 3.98968
69.8497 33.2639 3.98551
68.9754 29.0304 3.98561
67.6202 24.9007 3.9867
66.2111 27.6209 3.9844
64.0165 10.9835 4
64.7718 23.8108 3.98548
63.8907 14.3203 3.99318
63.5174 17.4284 3.98844
62.9186 20.2965 3.98597
62.1127 22.916 3.98489
60.6841 11.0927 3.99332
57.6123 11.4361 3.98904
72.1454 51.8506 0
69.9759 56.25 0
68.8382 53.1222 0.00869804
64.0165 64.0165 0
63.8866 60.7728 0.00671272
66.6117 57.1429 0.00741493
63.5048 57.7896 0.0117103
62.2255 65.694 2
58.8937 65.4185 2
69.7712 50.9972 2
67.7851 55.1772 2
66.6584 52.2229 2
62.3367 62.4333 2
64.6669 56.0489 2
62.2056 59.4221 2
61.832 56.7055 2
60.6687 63.9818 3.9935
57.0242 66.7383 3.99356
57.5575 63.7013 3.98931
67.5172 50.1883 3.98675
65.7097 54.1888 3.98765
64.554 51.4053 3.9853
60.7743 60.9531 3.98928
62.8316 55.0915 3.98653
60.6645 58.1826 3.98654
60.3404 55.8148 3.98563
56.25 69.9759 4
58.3339 68.6801 2
60.3285 67.2507 0
58.921 9.65156 3.99336
62.2254 9.30607 4
73.0099 49.554 0
74.2788 44.8158 0
71.2521 46.6036 0.00989252
72.1712 42.0884 0.0104764
74.9194 39.9526 0
75 37.5 2
72.4084 39.8033 2
71.7855 44.3573 2
69.8144 41.7934 2
70.5778 48.8206 2
68.9227 46.0226 2
72.4917 37.5113 3.98921
70.0511 39.6589 3.98534
69.4408 43.9133 3.98604
67.6159 41.5035 3.98406
68.2761 48.1168 3.98648
66.7284 45.4517 3.98465
74.9197 35.0474 0
74.2794 30.1841 0
72.1876 32.9396 0.0103123
71.2807 28.4258 0.0103435
65.694 12.7746 0
65.3246 16.095 0.00704428
69.8176 24.0516 0.00930838
68.356 26.942 0.0138712
66.7709 22.92 0.0129319
64.7198 19.1773 0.0121664
63.9007 22.0135 0.0143095
72.4161 35.2218 2
71.8065 30.6715 2
69.8497 33.2638 2
68.9754 29.0303 2
64.0165 10.9835 2
63.8907 14.3201 2
63.5174 17.4281 2
67.6202 24.9006 2
66.211 27.6207 2
62.9186 20.2964 2
64.7717 23.8107 2
62.1126 22.916 2
60.6841 11.0925 2
57.6123 11.4358 2
70.0677 35.3893 3.98547
69.4766 31.1433 3.98554
67.6729 33.5847 3.98371
66.7889 29.6116 3.98383
65.5402 25.6827 3.98504
64.1702 28.2376 3.98374
62.3421 12.6494 3.99328
62.8789 24.6126 3.98484
62.2011 15.7672 3.98885
61.8222 18.6605 3.98648
61.2344 21.3127 3.98483
60.4514 23.6961 3.98471
59.2466 12.7655 3.98905
55.8739 10.2242 3.98912
56.4062 13.0978 3.98634
69.7712 50.9969 0.00928045
62.2254 65.694 0
58.8937 65.4182 0.00648286
67.7851 55.1769 0.0079406
66.6584 52.2228 0.0128835
62.3367 62.433 0.00650881
62.2056 59.4218 0.0111687
64.6669 56.0486 0.0119401
61.8319 56.7053 0.0135448
60.6687 63.9821 2
57.0242 66.7386 2
57.5575 63.7016 2
67.5172 50.1884 2
65.7098 54.189 2
64.554 51.4054 2
60.7744 60.9535 2
62.8317 55.0916 2
60.6646 58.1828 2
60.3405 55.8148 2
55.0697 67.9347 3.9936
59.2197 62.3787 3.98933
55.8035 64.917 3.98934
56.3278 62.1029 3.98667
65.3494 49.4257 3.98501
63.7204 53.3146 3.98601
62.4656 50.6774 3.98436
59.3368 59.577 3.98685
61.093 54.3377 3.98576
59.2981 57.0404 3.98524
59.257 55.2148 3.98573
48.102 68.5814 3.98966
50.9478 69.9334 3.99369
54.0858 71.1327 4
56.25 69.976 2
58.3339 68.6801 0
57.058 8.332 3.99343
60.3285 7.74928 4
58.921 9.65134 2
62.2255 9.30602 2
70.5778 48.8203 0.00964629
71.7855 44.3571 0.0101074
68.9227 46.0226 0.0137761
69.8144 41.7934 0.0142586
72.4084 39.8033 0.0108066
75 37.5 0
72.4917 37.5113 2
70.0511 39.6589 2
69.4408 43.9134 2
67.6159 41.5036 2
68.2761 48.1169 2
66.7283 45.4518 2
70.1392 37.5209 3.98532
67.8526 39.515 3.98385
67.2423 43.4789 3.98433
65.5828 41.2177 3.98352
66.0871 47.4326 3.98489
64.6791 44.8638 3.9841
72.4161 35.2218 0.0106424
71.8065 30.6716 0.0103214
69.8497 33.2639 0.0144932
68.9754 29.0304 0.0143852
64.0165 10.9835 0
63.8907 14.3203 0.00682133
63.5174 17.4284 0.011564
67.6202 24.9007 0.0133023
66.2111 27.6209 0.0156
64.7718 23.8108 0.0145207
62.9186 20.2965 0.0140276
62.1127 22.916 0.0151068
60.6841 11.0927 0.00668448
57.6123 11.4361 0.0109584
70.0677 35.3893 2
69.4766 31.1433 2
67.6729 33.5845 2
66.7889 29.6115 2
62.3421 12.6491 2
62.2011 15.7669 2
61.8222 18.6603 2
65.5401 25.6826 2
64.1701 28.2375 2
61.2344 21.3127 2
62.8788 24.6126 2
60.4512 23.6962 2
59.2466 12.7652 2
56.4063 13.0976 2
55.8739 10.2239 2
67.8883 35.544 3.98393
67.2825 31.6136 3.98376
65.7228 33.9198 3.9831
64.6873 30.1778 3.98287
63.5615 26.3928 3.98441
62.2884 28.7564 3.98398
60.7761 14.208 3.98902
61.0737 25.309 3.98471
60.6177 17.1053 3.98678
60.2348 19.7876 3.98535
59.6829 22.2257 3.98407
59.0089 24.286 3.98507
54.0369 9.12859 3.98928
57.9119 14.3142 3.98657
54.7871 11.9994 3.98621
55.3143 14.6282 3.98518
67.5172 50.1883 0.0132485
57.0242 66.7383 0.00644084
60.6687 63.9818 0.00650029
57.5575 63.7013 0.0106861
65.7097 54.1888 0.0123479
64.554 51.4053 0.0146996
60.7743 60.9531 0.0107154
60.6645 58.1826 0.0134598
62.8316 55.0915 0.0134656
60.3404 55.8148 0.0143685
55.0697 67.9349 2
59.2197 62.379 2
55.8035 64.9173 2
56.3278 62.1031 2
65.3494 49.4258 2
63.7204 53.3147 2
62.4655 50.6775 2
59.3369 59.5773 2
61.0931 54.3378 2
59.2982 57.0405 2
59.257 55.2148 2
53.0417 69.002 3.99365
53.9655 66.018 3.98939
57.8827 60.8866 3.9868
54.6836 63.2164 3.98666
55.2132 60.6311 3.98532
63.2201 48.6837 3.98434
61.762 52.6027 3.98508
60.305 50.0492 3.98379
58.0235 58.2847 3.98556
59.346 53.9796 3.98514
58.1386 55.8445 3.98412
50.1083 67.8599 3.98956
47.4623 66.5847 3.98687
46.056 69.1604 3.98972
48.102 68.5818 2
48.8021 70.7244 3.99371
50.9478 69.9337 2
51.8506 72.1454 4
54.0858 71.1327 2
56.25 69.9759 0
55.1023 7.13702 3.99348
58.3339 6.31992 4
57.058 8.33176 2
60.3286 7.74926 2
58.921 9.65156 0.0066437
62.2254 9.30607 0
68.2761 48.1168 0.0135231
69.4408 43.9133 0.0139582
66.7284 45.4517 0.0153515
67.6159 41.5035 0.0159402
70.0511 39.6589 0.0146551
72.4917 37.5113 0.0107875
70.1391 37.5209 2
67.8526 39.5151 2
67.2423 43.479 2
65.5827 41.2179 2
66.087 47.4328 2
64.679 44.8639 2
67.9487 37.5215 3.98371
65.8142 39.3741 3.9836
65.2029 43.0371 3.98361
63.7904 40.939 3.98354
63.9923 46.7358 3.98432
62.8421 44.2346 3.98426
70.0677 35.3893 0.014533
69.4766 31.1433 0.0144638
67.6729 33.5847 0.0162937
66.7889 29.6116 0.0161729
62.3421 12.6494 0.00672439
62.2011 15.7672 0.0111543
61.8222 18.6605 0.0135202
65.5402 25.6827 0.0149594
64.1702 28.2376 0.016261
62.8789 24.6126 0.0151563
61.2344 21.3127 0.0151739
60.4514 23.6961 0.0152908
59.2466 12.7655 0.0109483
56.4062 13.0978 0.013663
55.8739 10.2242 0.0108833
67.8883 35.5439 2
67.2824 31.6135 2
65.7227 33.9196 2
64.6872 30.1776 2
60.7762 14.2077 2
60.6177 17.1051 2
60.2349 19.7876 2
63.5614 26.3926 2
62.2882 28.7563 2
59.6828 22.2258 2
61.0735 25.309 2
59.0086 24.2862 2
57.9119 14.314 2
55.3144 14.6281 2
54.0369 9.12824 2
54.7872 11.9991 2
65.9022 35.6628 3.98323
65.2111 32.1434 3.98276
64.3152 34.2419 3.98215
62.6272 30.6184 3.98294
61.6818 27.0468 3.98433
60.8871 29.1169 3.98492
59.3132 15.649 3.98674
59.3656 25.7644 3.98551
59.1308 18.3294 3.9859
58.7562 20.8221 3.98434
58.3112 23.057 3.98356
58.0017 24.6292 3.98603
52.1116 8.14782 3.98943
53.0579 11.0072 3.98634
56.6788 15.722 3.98565
53.8106 13.6662 3.9847
54.3784 15.979 3.98479
55.0697 67.9347 0.00639568
65.3494 49.4257 0.014985
55.8035 64.917 0.0106624
59.2197 62.3787 0.0106665
56.3278 62.1029 0.0133271
63.7204 53.3146 0.0139902
62.4656 50.6774 0.0156425
59.3368 59.577 0.0131499
59.2981 57.0404 0.0147628
61.093 54.3377 0.014243
59.257 55.2148 0.0142692
53.0417 69.0023 2
53.9655 66.0183 2
57.8827 60.8869 2
54.6836 63.2167 2
55.2133 60.6313 2
63.22 48.6837 2
61.7621 52.6028 2
60.3049 50.0491 2
58.0236 58.2848 2
59.3461 53.9796 2
58.1387 55.8445 2
52.0691 67.0036 3.98947
52.9525 64.225 3.98664
56.6515 59.508 3.98566
53.6817 61.633 3.98522
54.2626 59.338 3.98462
61.0285 47.9078 3.98402
59.7357 52.137 3.98471
58.0637 49.6514 3.98452
56.7843 57.0151 3.98417
57.1394 54.1575 3.98373
50.1083 67.8602 2
49.3359 65.9253 3.9867
47.4624 66.585 2
46.8916 64.7403 3.98518
45.5576 67.1018 3.98701
43.9733 69.5929 3.98974
46.056 69.1608 2
46.609 71.3687 3.99374
48.102 68.5814 0.0103426
48.8022 70.7247 2
49.554 73.0099 4
50.9478 69.9334 0.00631294
51.8506 72.1455 2
54.0858 71.1327 0
53.0635 6.06886 3.99357
55.1024 7.13676 2
56.25 5.02411 4
58.3339 6.3199 2
57.058 8.332 0.00657271
60.3285 7.74928 0
66.0871 47.4326 0.0151097
67.2423 43.4789 0.0156746
64.6791 44.8638 0.015896
65.5828 41.2177 0.0164774
67.8526 39.515 0.0161456
70.1392 37.5209 0.0146812
67.9487 37.5215 2
65.8141 39.3742 2
65.2028 43.0372 2
63.7903 40.9391 2
63.9922 46.7359 2
62.8419 44.2347 2
65.9168 37.5016 3.98336
63.935 39.2717 3.98367
63.3639 42.5639 3.98343
62.4727 40.708 3.98283
62.003 45.9421 3.98449
61.4934 43.7034 3.9851
67.8883 35.544 0.0160693
67.2825 31.6136 0.0162437
65.7228 33.9198 0.0168992
64.6873 30.1778 0.0171308
60.7761 14.208 0.01098
60.6177 17.1053 0.0132216
60.2348 19.7876 0.0146533
63.5615 26.3928 0.0155862
62.2884 28.7564 0.0160162
61.0737 25.309 0.0152919
59.6829 22.2257 0.0159253
59.0089 24.286 0.0149303
57.9119 14.3142 0.0134275
55.3143 14.6282 0.0148199
54.0369 9.12859 0.0107172
54.7871 11.9994 0.0137901
65.9022 35.6627 2
65.211 32.1433 2
64.3151 34.2418 2
62.627 30.6182 2
59.3132 15.6488 2
59.1309 18.3293 2
58.7562 20.8221 2
61.6817 27.0468 2
60.8869 29.1168 2
58.311 23.0572 2
59.3654 25.7645 2
58.0014 24.6294 2
56.6789 15.7219 2
54.3785 15.979 2
53.8107 13.666 2
52.1116 8.14744 2
53.058 11.0069 2
64.124 35.6279 3.98259
62.9651 33.0343 3.98202
60.6549 30.5913 3.98346
59.6118 27.8817 3.98499
57.9431 16.9603 3.98592
57.7782 25.6909 3.98667
57.7246 19.4473 3.98513
57.391 21.8062 3.98311
57.2171 23.9107 3.9837
50.1118 7.28028 3.98966
51.2322 10.1166 3.98656
52.1726 12.7854 3.98443
55.5402 16.9502 3.98517
52.9791 15.2473 3.98396
53.7606 16.9605 3.98459
53.0417 69.002 0.00634569
53.9655 66.018 0.0106092
63.2201 48.6837 0.0156602
54.6836 63.2164 0.0133394
57.8827 60.8866 0.0131971
55.2132 60.6311 0.0146798
61.762 52.6027 0.0149242
60.305 50.0492 0.0162101
58.0235 58.2847 0.0144359
58.1386 55.8445 0.0158812
59.346 53.9796 0.0148569
52.0691 67.0039 2
52.9525 64.2253 2
56.6516 59.5082 2
53.6817 61.6333 2
54.2627 59.3383 2
61.0283 47.9077 2
59.7357 52.137 2
58.0635 49.6511 2
56.7845 57.0152 2
57.1395 54.1574 2
51.1668 65.1328 3.98661
52.0458 62.5459 3.98496
55.4846 58.271 3.98495
52.8358 60.1474 3.98454
53.6431 58.4889 3.98445
58.3534 46.88 3.98569
57.5902 51.822 3.98384
56.2896 49.5901 3.98558
55.4823 55.8238 3.98309
55.3793 53.4177 3.98205
50.1083 67.8599 0.0104378
49.336 65.9257 2
48.6173 64.1269 3.98502
47.4623 66.5847 0.0131339
45.5576 67.1022 2
46.8916 64.7406 2
46.3811 63.0575 3.98397
45.1319 65.2017 3.98526
43.6309 67.4727 3.98717
41.8608 69.8806 3.98974
43.9733 69.5932 2
44.3766 71.8635 3.99376
46.056 69.1604 0.0102775
46.609 71.369 2
47.2057 73.7222 4
48.8021 70.7244 0.00628513
49.554 73.0099 2
51.8506 72.1454 0
50.9533 5.12946 3.99372
53.0635 6.06858 2
54.0858 3.86728 4
55.1023 7.13702 0.00651622
56.25 5.02406 2
58.3339 6.31992 0
63.9923 46.7358 0.0156759
65.2029 43.0371 0.0163945
62.8421 44.2346 0.0157387
63.7904 40.939 0.0164628
65.8142 39.3741 0.0164024
67.9487 37.5215 0.016294
65.9168 37.5016 2
63.9349 39.2718 2
63.3638 42.564 2
62.4725 40.7082 2
62.0028 45.9421 2
61.4932 43.7034 2
63.9951 37.4572 3.98387
62.2028 39.361 3.9834
61.2642 41.9743 3.98347
60.2954 44.795 3.98594
65.9022 35.6628 0.0167733
65.2111 32.1434 0.0172434
64.3152 34.2419 0.017853
62.6272 30.6184 0.0170643
59.3132 15.649 0.0132584
59.1308 18.3294 0.0141024
58.7562 20.8221 0.0156641
61.6818 27.0468 0.0156701
60.8871 29.1169 0.0150777
59.3656 25.7644 0.0144915
58.3112 23.057 0.0164434
58.0017 24.6292 0.0139697
56.6788 15.722 0.0143511
54.3784 15.979 0.0152127
53.8106 13.6662 0.0152968
52.1116 8.14782 0.0105693
53.0579 11.0072 0.0136619
64.124 35.6278 2
62.9649 33.0342 2
60.6547 30.5912 2
57.9431 16.9602 2
57.7247 19.4473 2
57.3909 21.8064 2
59.6116 27.8817 2
57.2168 23.911 2
57.7779 25.691 2
50.1119 7.2799 2
55.5403 16.9502 2
53.7607 16.9604 2
52.9792 15.2472 2
52.1727 12.7852 2
51.2323 10.1163 2
62.2326 35.3532 3.98257
60.3371 32.7303 3.98166
58.6709 30.0497 3.98441
57.339 27.3476 3.98619
56.6409 18.1312 3.98541
56.3309 25.0654 3.98507
56.37 20.4915 3.98405
56.1343 22.8338 3.98186
48.0557 6.52382 3.98989
49.3241 9.32519 3.98672
50.4333 11.9848 3.98463
51.3788 14.4858 3.98312
54.4184 17.899 3.98455
52.3631 17.0184 3.98353
52.0691 67.0036 0.010535
52.9525 64.225 0.0133608
61.0285 47.9078 0.01598
53.6817 61.633 0.0147831
56.6515 59.508 0.0143371
54.2626 59.338 0.015381
59.7357 52.137 0.0152912
58.0637 49.6514 0.0154812
56.7843 57.0151 0.0158259
57.1394 54.1575 0.0162705
51.1669 65.1332 2
52.0459 62.5462 2
55.4847 58.2712 2
52.8359 60.1477 2
53.6432 58.4891 2
58.3531 46.8798 2
57.5902 51.8218 2
56.2894 49.5897 2
55.4824 55.8238 2
55.3794 53.4175 2
50.3455 63.3858 3.98488
51.2445 60.9431 3.98369
54.2242 57.2861 3.98399
52.3148 58.6483 3.98389
56.7835 44.2117 3.98703
55.5464 47.93 3.98545
55.1032 51.4259 3.98203
54.0194 54.5765 3.98136
49.3359 65.9253 0.0132984
48.6173 64.1272 2
47.9614 62.4787 3.9839
45.5576 67.1018 0.0129923
46.8916 64.7403 0.014823
43.6309 67.4731 2
46.3811 63.0577 2
45.1319 65.2021 2
45.9867 61.5897 3.98308
44.7664 63.4585 3.98403
43.3559 65.5115 3.98533
41.6633 67.692 3.98718
39.7027 70.028 3.98972
41.8608 69.881 2
42.1111 72.2084 3.99378
43.9733 69.5929 0.010258
44.3766 71.8638 2
44.8159 74.2794 4
46.609 71.3687 0.00625904
47.2057 73.7222 2
49.554 73.0099 0
48.7839 4.3207 3.99383
50.9533 5.12919 2
51.8506 2.85458 4
53.0635 6.06886 0.00642556
54.0858 3.86728 2
56.25 5.02411 0
62.003 45.9421 0.0155068
63.3639 42.5639 0.0165668
61.4934 43.7034 0.0148971
62.4727 40.708 0.017166
63.935 39.2717 0.0163326
65.9168 37.5016 0.0166411
63.995 37.4572 2
62.2026 39.3611 2
61.264 41.9744 2
60.2951 44.7949 2
62.0426 37.4447 3.98446
60.3054 39.8566 3.98277
59.0523 42.9412 3.98557
64.124 35.6279 0.0174141
62.9651 33.0343 0.0179822
60.6549 30.5913 0.0165385
57.9431 16.9603 0.0140822
57.7246 19.4473 0.0148658
57.391 21.8062 0.0168922
59.6118 27.8817 0.015012
57.7782 25.6909 0.0133278
57.2171 23.9107 0.0163002
55.5402 16.9502 0.0148294
53.7606 16.9605 0.0154137
52.9791 15.2473 0.0160365
50.1118 7.28028 0.0103409
52.1726 12.7854 0.0155688
51.2322 10.1166 0.0134446
62.2325 35.3532 2
60.3368 32.7301 2
58.6706 30.0496 2
56.641 18.1311 2
56.37 20.4915 2
56.1341 22.8341 2
57.3387 27.3476 2
56.3305 25.0657 2
48.0558 6.52342 2
49.3242 9.32479 2
54.4184 17.899 2
52.3632 17.0184 2
51.3789 14.4857 2
50.4334 11.9845 2
59.9506 35.1117 3.98289
58.0527 32.249 3.98228
56.6036 29.3082 3.98561
55.4977 26.5629 3.98738
55.3484 19.1651 3.98474
54.9633 24.02 3.98163
55.0187 21.5317 3.98269
45.9618 5.87916 3.9901
43.3736 7.46878 3.98783
47.3547 8.61928 3.98718
48.5999 11.2873 3.98445
49.7146 13.7341 3.9835
50.6345 16.1201 3.98217
53.1287 18.6397 3.98402
51.3055 18.033 3.98352
51.1668 65.1328 0.0133895
52.0458 62.5459 0.0150415
58.3534 46.88 0.0143101
52.8358 60.1474 0.0154569
55.4846 58.271 0.015046
53.6431 58.4889 0.0155458
57.5902 51.822 0.0161581
56.2896 49.5901 0.0144222
55.4823 55.8238 0.0169087
55.3793 53.4177 0.0179483
50.3456 63.3861 2
51.2445 60.9433 2
54.2244 57.2863 2
52.3148 58.6486 2
56.7831 44.2117 2
55.5461 47.9296 2
55.1032 51.4255 2
54.0195 54.5764 2
49.5914 61.7493 3.98367
55.7263 41.7287 3.98368
50.5679 59.3367 3.98251
52.1904 56.508 3.98265
54.2608 45.5937 3.98672
53.3935 49.3639 3.98264
52.6925 52.8851 3.97972
48.6173 64.1269 0.0149822
47.9614 62.479 2
47.3288 61.0129 3.98312
43.6309 67.4727 0.0128311
45.1319 65.2017 0.0147434
46.3811 63.0575 0.0160286
41.6633 67.6924 2
43.3559 65.5119 2
45.9866 61.5899 2
44.7664 63.4588 2
45.7655 60.6335 3.98232
44.4824 61.839 3.98302
43.1456 63.7311 3.98402
41.5455 65.6495 3.9852
39.6326 67.7721 3.98714
37.5263 70.0533 3.98969
39.7027 70.0284 2
39.818 72.4056 3.99377
41.8608 69.8806 0.0102588
42.1111 72.2087 2
42.3947 74.6792 4
44.3766 71.8635 0.00624383
44.8159 74.2794 2
47.2057 73.7222 0
43.8514 5.35621 3.99035
46.57 3.6454 3.99399
48.7839 4.32042 2
49.554 1.99015 4
50.9533 5.12946 0.00627898
51.8506 2.85453 2
54.0858 3.86728 0
60.2954 44.795 0.0140638
61.2642 41.9743 0.0165314
62.2028 39.361 0.0166001
63.9951 37.4572 0.0161257
62.0425 37.4447 2
60.3052 39.8567 2
59.052 42.9413 2
59.8283 37.5669 3.98536
58.0747 40.6747 3.98383
55.2152 39.7336 3.98633
62.2326 35.3532 0.0174283
60.3371 32.7303 0.0183391
58.6709 30.0497 0.0155891
56.6409 18.1312 0.0145887
56.37 20.4915 0.0159459
56.1343 22.8338 0.0181398
57.339 27.3476 0.0138125
56.3309 25.0654 0.0149313
54.4184 17.899 0.0154489
52.3631 17.0184 0.0164703
51.3788 14.4858 0.0168805
48.0557 6.52382 0.0101093
49.3241 9.32519 0.0132845
50.4333 11.9848 0.0153661
59.9506 35.1117 2
45.9618 5.87875 2
43.3736 7.46837 2
58.0523 32.2487 2
56.6032 29.3081 2
55.3486 19.165 2
55.0187 21.5319 2
54.963 24.0205 2
55.4972 26.5632 2
47.3548 8.61886 2
48.6 11.2869 2
53.1288 18.6397 2
51.3056 18.0331 2
50.6346 16.1201 2
49.7147 13.7338 2
57.4721 34.7495 3.98178
55.7988 31.4907 3.98402
54.5788 28.368 3.9893
53.8172 25.46 3.98339
53.9767 20.1127 3.98406
53.6044 22.6763 3.98077
41.3987 7.07409 3.9881
45.3595 7.99083 3.98757
42.8654 9.41033 3.98579
46.6663 10.648 3.98508
47.7455 13.0959 3.98319
48.9319 15.3923 3.98191
50.0075 17.6888 3.9815
51.6575 19.3104 3.98387
50.3455 63.3858 0.0151175
51.2445 60.9431 0.0163061
56.7835 44.2117 0.0129656
55.5464 47.93 0.0145512
52.3148 58.6483 0.0161092
54.2242 57.2861 0.0160067
55.1032 51.4259 0.0179699
54.0194 54.5765 0.0186351
49.5914 61.7496 2
55.7258 41.7289 2
50.5679 59.3369 2
52.1907 56.5084 2
54.2602 45.5935 2
53.3933 49.3631 2
52.6927 52.8848 2
48.8489 60.2064 3.98286
52.6412 42.6652 3.98741
49.7913 57.6365 3.98207
50.6087 54.442 3.98067
51.8986 47.3002 3.98306
51.2563 50.9785 3.97775
48.3502 43.7339 3.97528
47.9614 62.4787 0.0160987
47.3287 61.0131 2
46.6182 59.7988 3.9825
41.6633 67.692 0.0128163
43.3559 65.5115 0.0146697
44.7664 63.4585 0.0159659
45.9867 61.5897 0.0169163
39.6326 67.7725 2
41.5455 65.6499 2
45.7655 60.6337 2
43.1456 63.7315 2
44.4824 61.8392 2
44.6226 60.2953 3.98197
42.9496 62.0876 3.98272
41.599 63.8245 3.98386
39.6472 65.618 3.98501
37.5635 67.7548 3.98711
31.6981 65.1372 3.98515
33.3929 67.4925 3.98714
35.3337 69.9635 3.98968
37.5263 70.0537 2
37.5097 72.4602 3.99374
39.7027 70.028 0.0102793
39.818 72.4059 2
39.9526 74.9197 4
42.1111 72.2084 0.00621619
42.3947 74.6792 2
44.8159 74.2794 0
41.7361 4.9655 3.99047
43.8513 5.35582 2
44.3254 3.10873 3.99418
46.57 3.64512 2
47.2057 1.27793 4
48.7839 4.3207 0.00616545
49.554 1.99013 2
51.8506 2.85458 0
59.0523 42.9412 0.0144324
60.3054 39.8566 0.0172347
62.0426 37.4447 0.0155359
59.8283 37.5669 2
58.0744 40.6748 2
55.215 39.7338 2
56.9208 37.9015 3.98492
49.8113 41.2992 3.98498
53.2659 39.3182 3.99126
39.4421 6.7975 3.98818
59.9506 35.1117 0.0171085
58.0527 32.249 0.01772
56.6036 29.3082 0.014385
55.3484 19.1651 0.0152605
55.0187 21.5317 0.0173084
54.9633 24.02 0.0183736
55.4977 26.5629 0.0126185
53.1287 18.6397 0.0159831
51.3055 18.033 0.016484
50.6345 16.1201 0.0178295
45.9618 5.87916 0.00989793
49.7146 13.7341 0.0165047
47.3547 8.61928 0.012817
48.5999 11.2873 0.0155476
43.3736 7.46878 0.012173
57.4719 34.7495 2
41.3987 7.0737 2
45.3596 7.99038 2
42.8654 9.40991 2
55.7983 31.4904 2
54.5782 28.3681 2
53.9769 20.1127 2
53.6042 22.6766 2
53.8166 25.4606 2
46.6663 10.6476 2
47.7456 13.0955 2
51.6576 19.3105 2
50.0076 17.6888 2
48.932 15.392 2
54.9822 33.952 3.98125
53.5812 30.4507 3.9892
52.6544 27.1619 3.98658
52.1788 24.0499 3.9814
52.4037 21.0497 3.98279
41.0134 9.04327 3.98634
44.7236 9.9906 3.9856
42.4681 10.8969 3.9847
46.0051 12.7237 3.98289
47.6817 14.5778 3.98277
48.1138 16.9809 3.97967
49.8204 19.5836 3.98204
49.5914 61.7493 0.0163273
50.5679 59.3367 0.0174947
55.7263 41.7287 0.0163244
54.2608 45.5937 0.0132835
53.3935 49.3639 0.017355
52.1904 56.508 0.0173503
52.6925 52.8851 0.0202812
48.8489 60.2066 2
52.6404 42.6656 2
49.7914 57.6367 2
50.609 54.4424 2
51.8979 47.2992 2
51.2564 50.9779 2
48.3483 43.7329 2
47.987 58.7478 3.9822
50.2284 45.2907 3.98226
48.604 55.9258 3.98159
49.1553 52.6176 3.97965
49.7366 49.0755 3.97806
46.2017 39.9134 3.92805
46.6051 42.7847 4.00096
46.6448 45.7282 3.97407
44.0594 41.2565 3.98711
42.0915 41.9934 3.99733
47.3288 61.0129 0.0168839
46.6182 59.7989 2
45.4679 58.794 3.98138
39.6326 67.7721 0.0128583
41.5455 65.6495 0.0148046
43.1456 63.7311 0.015979
44.4824 61.839 0.0169836
45.7655 60.6335 0.01768
41.599 63.8249 2
37.5635 67.7552 2
39.6472 65.6184 2
44.6226 60.2955 2
42.9496 62.0879 2
41.7526 62.4986 3.98285
42.48 59.9861 3.98172
39.8927 63.5594 3.98343
37.6422 65.5174 3.985
35.4639 67.6643 3.98711
33.5761 65.3508 3.98515
31.9604 63.3087 3.98366
29.8843 64.7279 3.98501
31.6981 65.1375 2
31.3777 67.2022 3.98705
33.3928 67.493 2
33.1567 69.7568 3.98969
35.3337 69.9639 2
35.1952 72.3746 3.99372
37.5263 70.0533 0.0103138
37.5097 72.4605 2
37.5 75 4
39.818 72.4056 0.00623077
39.9526 74.9197 2
42.3947 74.6792 0
39.6237 4.71263 3.99061
41.7361 4.96513 2
42.0619 2.71643 3.99426
43.8514 5.35621 0.00964807
44.3254 3.10846 2
44.8158 0.721173 4
46.57 3.6454 0.00601073
47.2057 1.27779 2
49.554 1.99015 0
58.0747 40.6747 0.0161704
59.8283 37.5669 0.0146411
55.2152 39.7336 0.0136677
49.8108 41.2991 2
56.9207 37.9015 2
53.2658 39.3185 2
54.1176 36.6239 3.98463
47.7345 40.4671 4.0062
50.7644 38.4838 3.99013
37.5159 6.66863 3.98841
39.4421 6.79711 2
39.211 8.68577 3.98641
35.9413 8.48522 3.98686
57.4721 34.7495 0.0182211
55.7988 31.4907 0.0159763
54.5788 28.368 0.0107036
53.9767 20.1127 0.0159364
53.6044 22.6763 0.0192327
53.8172 25.46 0.0166071
51.6575 19.3104 0.0161323
50.0075 17.6888 0.0185025
48.9319 15.3923 0.0180877
45.3595 7.99083 0.0124316
47.7455 13.0959 0.0168077
46.6663 10.648 0.014919
41.3987 7.07409 0.0118973
42.8654 9.41033 0.0142061
54.982 33.9521 2
41.0134 9.04285 2
44.7236 9.99015 2
42.4682 10.8965 2
53.5805 30.4501 2
52.6537 27.1625 2
52.4038 21.0498 2
52.1785 24.0505 2
46.0052 12.7232 2
47.6818 14.5774 2
49.8205 19.5838 2
48.1139 16.9806 2
52.5323 32.842 3.98341
51.4333 29.1194 3.99139
50.8457 25.6868 3.97891
49.9535 22.1557 3.9823
40.5691 11.6001 3.98405
43.8579 11.9124 3.98357
45.8023 15.4146 3.98146
47.5058 19.217 3.9778
46.5251 37.5087 3.93201
48.8489 60.2064 0.0171449
49.7913 57.6365 0.017932
52.6412 42.6652 0.012595
51.8986 47.3002 0.016942
51.2563 50.9785 0.0222536
50.6087 54.442 0.0193252
48.3502 43.7339 0.0247242
47.987 58.748 2
50.227 45.2901 2
48.604 55.9261 2
49.1556 52.6183 2
49.7363 49.0745 2
46.198 39.9164 2
46.6081 42.7889 2
46.6432 45.7242 2
44.0605 41.2542 2
42.0948 41.9961 2
46.8398 57.3491 3.98264
44.8154 39.5118 3.97788
42.4582 40.8696 3.99293
48.19 47.2694 3.98193
47.1803 54.2571 3.98205
47.6307 50.78 3.97707
44.9107 47.3448 3.97284
45.2781 42.0325 3.92945
45.0815 44.6712 3.99937
42.8546 42.7461 3.98576
40.9379 42.3437 3.99655
46.6182 59.7988 0.0174952
45.4678 58.7941 2
43.876 57.7164 3.98109
37.5635 67.7548 0.0128892
39.6472 65.618 0.0149885
41.599 63.8245 0.0161368
42.9496 62.0876 0.0172796
44.6226 60.2953 0.0180291
35.4639 67.6647 2
41.7526 62.4989 2
39.8927 63.5597 2
37.6422 65.5178 2
42.48 59.9863 2
40.6222 61.656 3.98271
40.4439 58.2146 3.981
37.8364 63.2208 3.98317
35.5733 65.4398 3.98506
33.5761 65.3512 2
31.9604 63.309 2
33.6297 63.3485 3.98362
30.3794 62.867 3.98359
32.1236 62.014 3.98286
26.8686 61.5102 3.98294
28.0632 64.1556 3.98483
29.8843 64.7282 2
29.4074 66.7656 3.98689
31.6981 65.1372 0.0148529
31.3777 67.2025 2
31.0141 69.4218 3.98968
33.3929 67.4925 0.0128608
33.1566 69.7572 2
32.8923 72.1489 3.99371
35.3337 69.9635 0.0103217
35.1952 72.3749 2
35.0474 74.9194 4
37.5097 72.4602 0.00626231
37.5 75 2
39.9526 74.9197 0
35.6205 6.71951 3.98836
37.523 4.61225 3.99062
39.6237 4.71227 2
39.7885 2.47291 3.99439
41.7361 4.9655 0.00953139
42.0619 2.71617 2
42.3946 0.32156 4
44.3254 3.10873 0.00582491
44.8159 0.72056 2
47.2057 1.27793 0
49.8113 41.2992 0.0150163
56.9208 37.9015 0.0150813
53.2659 39.3182 0.00874001
47.7339 40.4639 2
50.7644 38.4841 2
54.1173 36.6241 2
51.5434 35.5654 3.97561
48.402 37.7668 4.00815
46.1803 35.1075 3.93396
44.0501 33.7608 3.98252
42.0866 33.0241 3.9938
37.4577 8.52711 3.98679
37.5159 6.66824 2
39.4421 6.7975 0.0118185
39.211 8.68536 2
38.976 10.1181 3.98578
35.8978 9.76451 3.9859
34.1497 8.81446 3.98666
35.9413 8.48483 2
54.9822 33.952 0.0187459
53.5812 30.4507 0.0108
52.6544 27.1619 0.0134213
52.4037 21.0497 0.0172103
52.1788 24.0499 0.0185995
49.8204 19.5836 0.0179621
48.1138 16.9809 0.0203283
47.6817 14.5778 0.0172303
44.7236 9.9906 0.0143976
46.0051 12.7237 0.0171127
41.0134 9.04327 0.0136616
42.4681 10.8969 0.0153031
52.5321 32.8415 2
40.5691 11.5997 2
43.8579 11.912 2
51.4324 29.1198 2
50.845 25.6877 2
49.9536 22.156 2
45.8024 15.4142 2
47.5059 19.2168 2
50.1468 31.3705 3.98538
49.3695 27.4417 3.98025
49.4427 24.368 3.98005
47.1942 21.904 3.97719
38.3014 12.7249 3.98297
42.1004 14.2975 3.9819
44.8008 18.4535 3.97898
45.0858 37.5124 3.97762
46.5235 37.5102 2
47.987 58.7478 0.0177953
48.604 55.9258 0.0184144
50.2284 45.2907 0.0177449
49.7366 49.0755 0.021935
49.1553 52.6176 0.0203508
46.2017 39.9134 0.0719516
46.6051 42.7847 -0.000956408
46.6448 45.7282 0.025928
44.0594 41.2565 0.0128948
42.0915 41.9934 0.00266969
46.8398 57.3493 2
44.814 39.5085 2
42.4583 40.8709 2
48.1889 47.2682 2
47.1805 54.2572 2
47.6308 50.7795 2
44.9108 47.3359 2
45.2772 42.0356 2
45.0886 44.6759 2
42.8609 42.7408 2
40.9405 42.3444 2
45.4009 55.9334 3.98048
42.7889 39.2673 3.98477
40.8921 40.8131 3.95817
46.1624 48.9492 3.98078
45.5692 52.5529 3.98412
43.5383 48.4797 3.95043
43.468 46.2188 4.01522
43.8182 43.8329 3.9295
41.3162 43.8941 3.98618
39.306 42.6592 3.97263
45.4679 58.794 0.0186235
43.8759 57.7164 2
42.1069 56.3392 3.98116
35.4639 67.6643 0.0128924
37.6422 65.5174 0.0149952
39.8927 63.5594 0.0165662
41.7526 62.4986 0.0171503
42.48 59.9861 0.0182774
35.5733 65.4402 2
40.6222 61.6563 2
37.8364 63.2211 2
40.4438 58.2146 2
38.9252 56.5054 3.98017
38.2497 60.3379 3.98178
35.6071 63.2148 3.98343
33.5761 65.3508 0.0148454
31.9604 63.3087 0.0163428
33.6297 63.3489 2
30.3794 62.8673 2
32.1236 62.0142 2
28.6817 62.212 3.98337
33.3461 61.526 3.98206
31.0666 61.2303 3.98228
27.5668 59.6065 3.98278
23.788 59.1027 3.98516
25.0331 60.8855 3.98398
26.8686 61.5105 2
26.2296 63.4879 3.98456
28.0631 64.156 2
27.4641 66.1894 3.98674
29.8843 64.7279 0.0149872
29.4074 66.766 2
28.9067 68.9472 3.98961
31.3777 67.2022 0.0129533
31.0141 69.4221 2
30.6148 71.78 3.9937
33.1567 69.7568 0.010308
32.8923 72.1492 2
32.6054 74.6784 4
35.1952 72.3746 0.00628064
35.0474 74.9197 2
37.5 75 0
33.7231 6.97389 3.9882
35.4344 4.68253 3.99062
35.6204 6.71913 2
37.5141 2.38561 3.99438
37.523 4.61189 2
39.6237 4.71263 0.00939209
39.7885 2.47265 2
39.9526 0.0806499 4
42.0619 2.71643 0.00574119
42.3947 0.320817 2
44.8158 0.721173 0
44.803 35.5139 3.97819
42.4479 34.1518 3.99431
47.7345 40.4671 -0.00619522
50.7644 38.4838 0.0098698
54.1176 36.6239 0.015371
48.4026 37.7661 2
51.543 35.565 2
46.177 35.1073 2
44.052 33.7632 2
42.0877 33.0244 2
48.5655 34.2378 4.00281
45.2703 32.9849 3.92852
42.8562 32.2668 3.98546
40.9344 32.6759 3.99188
37.3099 10.6208 3.98504
37.4576 8.52671 2
37.5159 6.66863 0.0115862
39.211 8.68577 0.0135887
38.976 10.1178 2
34.7529 10.3701 3.98513
35.8978 9.76412 2
32.3763 9.36093 3.98611
34.1496 8.81406 2
35.9413 8.48522 0.0131442
52.5323 32.842 0.0165882
51.4333 29.1194 0.00861475
50.8457 25.6868 0.0210884
49.9535 22.1557 0.0176989
47.5058 19.217 0.0222015
45.8023 15.4146 0.0185402
43.8579 11.9124 0.0164323
40.5691 11.6001 0.0159452
50.1461 31.3714 2
38.3015 12.7246 2
42.1005 14.2972 2
49.3685 27.4428 2
49.4424 24.3685 2
47.1942 21.9043 2
44.8008 18.4531 2
47.9273 29.5685 3.974
47.1457 25.0888 3.9797
44.2931 21.3093 3.97687
36.581 12.9211 3.98323
38.6799 14.7961 3.98222
41.7494 17.8288 3.98048
42.913 37.5037 3.98611
45.0865 37.5123 2
46.5251 37.5087 0.0679904
46.8398 57.3491 0.0173569
47.1803 54.2571 0.0179539
48.19 47.2694 0.0180749
47.6307 50.78 0.0229346
44.8154 39.5118 0.0221164
45.2781 42.0325 0.0705483
45.0815 44.6712 0.00063224
44.9107 47.3448 0.0271598
42.8546 42.7461 0.0142428
42.4582 40.8696 0.00707435
40.9379 42.3437 0.00345069
45.401 55.9334 2
42.7876 39.2676 2
40.8918 40.8153 2
46.1624 48.9468 2
45.5696 52.5525 2
43.5385 48.4771 2
43.4801 46.2263 2
43.8186 43.8358 2
41.3174 43.8868 2
39.3066 42.6629 2
43.742 54.4409 3.98274
40.9723 39.1888 3.95081
39.2332 40.8862 3.95239
43.7543 50.5327 3.99219
42.0448 47.742 4.02559
41.9703 45.2179 3.91881
39.5247 44.6608 3.98892
37.5027 42.7858 3.95513
43.876 57.7164 0.0189057
42.1068 56.3391 2
40.4209 54.9422 3.97942
35.5733 65.4398 0.0149428
37.8364 63.2208 0.0168318
40.6222 61.656 0.0172935
40.4439 58.2146 0.0190045
35.6071 63.2151 2
38.2498 60.3381 2
38.9251 56.5053 2
38 55.258 3.97997
36.9338 57.6363 3.98002
35.3635 60.924 3.98207
33.6297 63.3485 0.016376
30.3794 62.867 0.0164109
32.1236 62.014 0.0171448
33.3461 61.5262 2
28.6817 62.2123 2
31.0666 61.2306 2
29.4023 60.2994 3.98184
32.3557 59.7557 3.98204
28.0187 58.3852 3.98403
27.5668 59.6067 2
25.3754 58.6115 3.98349
22.75 58.2646 3.98348
23.3979 60.3682 3.98479
23.7879 59.1029 2
25.0331 60.8858 2
24.4316 62.7817 3.98507
26.8686 61.5102 0.0170576
26.2295 63.4882 2
25.5482 65.4995 3.98655
28.0632 64.1556 0.0151676
27.4641 66.1897 2
26.8366 68.3356 3.98953
29.4074 66.7656 0.0131097
28.9066 68.9476 2
28.3701 71.2652 3.99367
31.0141 69.4218 0.010324
30.6148 71.7802 2
30.1842 74.2788 4
32.8923 72.1489 0.0062886
32.6053 74.6792 2
35.0474 74.9194 0
31.7875 7.41331 3.98793
33.3465 4.9215 3.99054
33.723 6.97349 2
35.2444 2.46172 3.99436
35.4344 4.68217 2
35.6205 6.71951 0.0116406
37.5 0 4
37.5141 2.38535 2
37.523 4.61225 0.00937695
39.7885 2.47291 0.00561299
39.9526 0.0802889 2
42.3946 0.32156 0
42.7786 35.7448 3.98809
44.8018 35.5155 2
40.8832 34.2097 3.95748
42.4486 34.1505 2
48.402 37.7668 -0.00814736
51.5434 35.5654 0.0243874
46.1803 35.1075 0.0660397
44.0501 33.7608 0.017477
42.0866 33.0241 0.00620185
48.5649 34.2377 2
45.2674 32.9827 2
42.8579 32.2709 2
40.9347 32.6726 2
46.5265 31.4741 4.00268
43.8266 31.1824 3.92707
41.3192 31.1202 3.9828
39.2998 32.3804 3.97143
35.6914 11.7654 3.98383
37.3099 10.6205 2
37.4577 8.52711 0.0132101
38.976 10.1181 0.0142164
33.0968 11.2066 3.98447
34.7529 10.3697 2
35.8978 9.76451 0.0141008
30.481 10.0088 3.98565
32.3763 9.36053 2
34.1497 8.81446 0.0133407
50.1468 31.3705 0.014621
49.3695 27.4417 0.0197464
49.4427 24.368 0.0199548
47.1942 21.904 0.0228061
44.8008 18.4535 0.0210238
42.1004 14.2975 0.0181035
38.3014 12.7249 0.0170302
36.581 12.9208 2
47.9259 29.5701 2
38.68 14.796 2
41.7494 17.8287 2
47.1453 25.0888 2
44.2931 21.3094 2
45.6657 27.7805 3.97486
43.8262 24.0238 3.97974
41.3439 20.7082 3.97915
35.7703 14.7466 3.98218
38.6804 17.5837 3.98103
41.0131 37.4969 3.94675
42.9135 37.5034 2
45.0858 37.5124 0.0223762
45.4009 55.9334 0.0195236
45.5692 52.5529 0.0158802
46.1624 48.9492 0.0192175
42.7889 39.2673 0.0152319
43.8182 43.8329 0.070504
43.468 46.2188 -0.0152206
43.5383 48.4797 0.0495718
41.3162 43.8941 0.0138232
40.8921 40.8131 0.0418267
39.306 42.6592 0.027367
43.7422 54.441 2
40.9711 39.1897 2
39.2329 40.8898 2
43.7541 50.5343 2
42.0446 47.7418 2
41.9743 45.219 2
37.5031 42.791 2
39.5257 44.6645 2
41.8901 53.007 3.98049
39.2298 39.1838 3.9454
37.5058 40.9306 3.95229
35.7002 42.6782 3.97657
40.9987 49.7556 4.00447
39.8539 46.0939 3.94573
37.4953 44.96 3.96523
42.1069 56.3392 0.0188396
40.4208 54.9422 2
38.7307 53.872 3.98174
35.6071 63.2148 0.01657
38.2497 60.3379 0.0182203
38.9252 56.5054 0.0198258
35.3635 60.9242 2
36.9338 57.6363 2
38 55.2574 2
36.3191 55.3902 3.9798
34.4866 58.5316 3.98078
33.3461 61.526 0.0179428
28.6817 62.212 0.0166285
31.0666 61.2303 0.0177187
32.3557 59.7559 2
29.4023 60.2996 2
30.2946 57.8265 3.98157
28.0187 58.3854 2
26.9364 56.839 3.98223
27.5668 59.6065 0.0172245
25.3753 58.6117 2
23.8281 56.8308 3.98236
21.3242 57.4282 3.98464
21.9892 59.6439 3.98534
22.7498 58.2648 2
22.7346 62.035 3.98536
23.3979 60.3684 2
23.788 59.1027 0.0148422
25.0331 60.8855 0.0160152
24.4316 62.782 2
23.6819 64.7185 3.98663
26.2296 63.4879 0.0154428
25.5481 65.4999 2
24.8091 67.5971 3.98946
27.4641 66.1894 0.0132616
26.8366 68.336 2
26.1654 70.6061 3.99364
28.9067 68.9472 0.0103879
28.37 71.2655 2
27.7943 73.7221 4
30.6148 71.78 0.00630049
30.1841 74.2794 2
32.6054 74.6784 0
29.81 7.98626 3.98756
31.2517 5.32833 3.99038
31.7874 7.41291 2
32.9803 2.69974 3.9943
33.3465 4.92112 2
33.7231 6.97389 0.0117976
35.0474 0.080333 4
35.2444 2.46146 2
35.4344 4.68253 0.00937595
37.5 0 2
37.5141 2.38561 0.00561944
39.9526 0.0806499 0
40.966 35.8153 3.95109
42.7775 35.7442 2
44.803 35.5139 0.0218091
28.5421 10.6843 3.98503
39.2251 34.1573 3.95672
40.8829 34.2069 2
42.4479 34.1518 0.00569329
48.5655 34.2378 -0.00280734
45.2703 32.9849 0.0714811
42.8562 32.2668 0.0145373
40.9344 32.6759 0.00812496
46.5287 31.4733 2
43.8231 31.1811 2
41.324 31.1211 2
39.3004 32.3744 2
44.5463 29.6509 4.00114
41.9759 29.8028 3.9268
39.5251 30.3689 3.98155
37.4952 32.2663 3.94928
34.091 12.9231 3.98314
35.6914 11.765 2
37.3099 10.6208 0.0149595
31.1849 11.9748 3.98398
33.0967 11.2062 2
34.7529 10.3701 0.0148724
30.481 10.0084 2
32.3763 9.36093 0.0138945
47.9273 29.5685 0.025999
47.1457 25.0888 0.0202987
36.581 12.9211 0.0167727
44.2931 21.3093 0.0231302
41.7494 17.8288 0.0195244
38.6799 14.7961 0.0177835
35.7704 14.7462 2
45.6645 27.782 2
38.6805 17.5839 2
41.3438 20.7082 2
43.8259 24.0267 2
33.6061 15.8643 3.98172
43.1349 26.4668 3.98085
40.9289 23.2827 3.98136
38.4224 20.315 3.97867
35.8467 17.4976 3.98093
39.2352 37.504 3.94299
41.0129 37.4965 2
42.913 37.5037 0.0138918
43.742 54.4409 0.0172588
43.7543 50.5327 0.0078138
40.9723 39.1888 0.049193
41.9703 45.2179 0.0811878
42.0448 47.742 -0.0255874
39.5247 44.6608 0.0110764
39.2332 40.8862 0.0476058
37.5027 42.7858 0.0448695
41.89 53.0073 2
39.2292 39.1856 2
37.5057 40.9343 2
40.9986 49.7534 2
35.7006 42.6827 2
39.8543 46.0961 2
37.4952 44.9659 2
39.8277 51.9211 3.98004
37.5045 39.2001 3.94618
35.7813 40.9099 3.95072
34.0661 42.3722 3.99202
35.4618 44.6683 3.98464
38.7703 48.8667 4.0349
37.4936 46.4015 3.94031
40.4209 54.9422 0.0205816
38.7309 53.8709 2
36.7179 53.2134 3.98282
35.3635 60.924 0.0179256
36.9338 57.6363 0.0199756
38 55.258 0.020035
34.4866 58.5318 2
36.3192 55.39 2
33.2226 55.5081 3.97919
32.3557 59.7557 0.0179624
29.4023 60.2994 0.0181604
30.2946 57.8266 2
28.6737 55.3195 3.9793
28.0187 58.3852 0.0159731
26.9362 56.8393 2
25.2915 55.1687 3.98118
21.7898 55.3801 3.98278
25.3754 58.6115 0.0165121
23.8279 56.8309 2
20.207 57.0607 3.98535
20.6388 58.8053 3.98556
21.3241 57.4283 2
21.1637 61.1879 3.98609
21.9891 59.6441 2
22.75 58.2646 0.0165196
21.8948 63.8479 3.98684
22.7346 62.0353 2
23.3979 60.3682 0.015205
24.4316 62.7817 0.0149304
23.6818 64.7188 2
22.8376 66.7414 3.98943
25.5482 65.4995 0.01345
24.8091 67.5975 2
24.0099 69.8074 3.99363
26.8366 68.3356 0.0104669
26.1654 70.6063 2
25.446 73.0099 4
28.3701 71.2652 0.00633064
27.7943 73.7222 2
30.1842 74.2788 0
27.8201 8.64571 3.98714
29.1537 5.87378 3.99013
29.81 7.98585 2
30.7256 3.09674 3.99419
31.2517 5.32794 2
31.7875 7.41331 0.0120697
32.6053 0.320823 4
32.9803 2.69947 2
33.3465 4.9215 0.00945535
35.0474 0.0802903 2
35.2444 2.46172 0.00563676
37.5 0 0
39.2262 35.8361 3.94786
40.9649 35.8136 2
42.7786 35.7448 0.0119115
28.5421 10.6839 2
26.6212 11.3794 3.98501
29.2239 12.6321 3.9838
37.4983 34.1279 3.9564
39.2248 34.1528 2
40.8832 34.2097 0.0425217
46.5265 31.4741 -0.00267817
43.8266 31.1824 0.0729333
41.3192 31.1202 0.0172037
39.2998 32.3804 0.0285741
44.5538 29.6472 2
41.9762 29.8011 2
39.5279 30.3629 2
37.4961 32.259 2
42.4213 28.3484 4.0142
39.8553 28.9265 3.93844
37.4908 30.0806 3.95596
35.6936 32.3787 3.97126
31.9127 14.4694 3.98261
34.091 12.9227 2
35.6914 11.7654 0.016167
31.1848 11.9745 2
33.0968 11.2066 0.015532
30.481 10.0088 0.0143529
45.6657 27.7805 0.0251358
43.8262 24.0238 0.0202566
35.7703 14.7466 0.0178193
41.3439 20.7082 0.0208511
38.6804 17.5837 0.0189714
33.6061 15.864 2
35.8468 17.4974 2
43.1342 26.469 2
38.4225 20.3158 2
40.9289 23.2837 2
33.548 17.3749 3.98081
40.4938 25.6109 3.97722
38.0843 22.852 3.98064
35.5826 20.0677 3.98021
37.502 37.5196 3.94533
39.2352 37.5037 2
41.0131 37.4969 0.0532519
41.8901 53.007 0.0195064
40.9987 49.7556 -0.00447213
39.2298 39.1838 0.0546049
39.8539 46.0939 0.0542724
37.4953 44.96 0.0347658
37.5058 40.9306 0.0477097
35.7002 42.6782 0.0234345
39.8284 51.9195 2
37.5047 39.2018 2
35.7813 40.9136 2
38.7684 48.8683 2
34.0654 42.373 2
35.4605 44.6734 2
37.4903 46.4063 2
37.6605 51.0441 3.97504
35.784 39.2113 3.94329
34.1288 40.8445 3.95522
32.9128 42.02 3.99639
33.673 43.922 3.98833
35.1503 46.1125 3.93361
36.8859 48.4941 4.0364
38.7307 53.872 0.0182572
36.7181 53.2131 2
34.3472 52.484 3.98105
34.4866 58.5316 0.0192175
36.3191 55.3902 0.0201954
33.2226 55.508 2
30.4969 53.4196 3.9789
30.2946 57.8265 0.0184328
28.6735 55.3198 2
26.8522 53.4694 3.97904
26.9364 56.839 0.0177704
25.2912 55.1688 2
23.5407 53.5184 3.98039
20.4346 53.268 3.9822
19.9158 55.8664 3.98466
21.7896 55.3801 2
23.8281 56.8308 0.0176386
19.4293 57.9208 3.98542
20.2069 57.0608 2
19.7022 60.2246 3.98604
20.6386 58.8055 2
21.3242 57.4282 0.0153647
20.2064 62.8713 3.98723
21.1637 61.1881 2
21.9892 59.6439 0.0146567
20.9389 65.7714 3.98952
21.8947 63.8482 2
22.7346 62.035 0.0146409
23.6819 64.7185 0.0133686
22.8375 66.7417 2
21.9126 68.8748 3.99362
24.8091 67.5971 0.0105437
24.0098 69.8076 2
23.1494 72.1454 4
26.1654 70.6061 0.00635851
25.446 73.0099 2
27.7943 73.7221 0
25.8595 9.37371 3.98684
27.0687 6.53755 3.98986
27.82 8.64531 2
28.4879 3.64251 3.99403
29.1537 5.87339 2
29.81 7.98626 0.0124386
30.1841 0.720592 4
30.7256 3.09647 2
31.2517 5.32833 0.00962115
32.6053 0.320817 2
32.9803 2.69974 0.00569622
35.0474 0.080333 0
37.4993 35.8449 3.94761
39.2256 35.8337 2
40.966 35.8153 0.0489109
24.776 12.0619 3.98514
23.7497 14.3457 3.98462
28.5421 10.6843 0.0149733
26.6211 11.3791 2
29.2239 12.6318 2
27.2901 13.3648 3.98381
29.7787 14.1916 3.98352
35.776 34.1529 3.95481
37.4985 34.1229 2
39.2251 34.1573 0.0432845
37.4952 32.2663 0.0507161
44.5463 29.6509 -0.00114199
41.9759 29.8028 0.0732035
39.5251 30.3689 0.0184501
42.4241 28.3411 2
39.8545 28.9208 2
37.4923 30.0719 2
35.6945 32.3733 2
40.078 27.5151 4.02417
37.4904 28.6323 3.9361
35.4578 30.3686 3.98082
34.0657 32.6799 3.99167
30.9242 16.8275 3.98261
31.9127 14.4691 2
34.091 12.9231 0.0168583
31.1849 11.9748 0.0160176
43.1349 26.4668 0.0191502
40.9289 23.2827 0.0186357
33.6061 15.8643 0.0182813
35.8467 17.4976 0.0190733
38.4224 20.315 0.021326
33.5481 17.3747 2
35.5828 20.0677 2
40.493 25.6118 2
38.0846 22.8536 2
32.8596 19.7861 3.97818
37.7864 25.1669 3.97961
35.2049 22.6292 3.97931
35.7717 37.5279 3.94051
37.5025 37.5191 2
39.2352 37.504 0.0570115
39.8277 51.9211 0.0199642
38.7703 48.8667 -0.034903
37.5045 39.2001 0.0538157
37.4936 46.4015 0.0596909
35.4618 44.6683 0.0153573
35.7813 40.9099 0.0492796
34.0661 42.3722 0.00798361
37.6607 51.0466 2
35.785 39.2131 2
34.1287 40.8461 2
36.8844 48.4957 2
32.911 42.0212 2
33.672 43.9179 2
35.1488 46.117 2
35.4057 50.2197 3.97967
34.0501 39.2231 3.94892
32.5534 40.8944 3.9928
32.141 42.7745 3.98619
33.0305 45.2419 3.92311
34.2516 47.5345 4.02744
36.7179 53.2134 0.0171832
34.3472 52.4841 2
31.9593 51.2488 3.97993
33.2226 55.5081 0.020815
30.4967 53.4198 2
28.3837 51.664 3.97859
28.6737 55.3195 0.0206993
26.8519 53.4696 2
25.0319 51.8141 3.97811
25.2915 55.1687 0.0188151
23.5405 53.5183 2
21.9183 51.8575 3.98156
19.1586 51.6811 3.98261
18.897 54.3465 3.98344
20.4346 53.2677 2
18.4347 56.7551 3.98558
19.9156 55.8664 2
21.7898 55.3801 0.01722
18.3627 59.1352 3.98583
19.4292 57.9209 2
20.207 57.0607 0.0146513
18.6163 61.7813 3.98718
19.7021 60.2248 2
20.6388 58.8053 0.0144425
19.1274 64.6836 3.98971
20.2063 62.8716 2
21.1637 61.1879 0.0139108
19.8867 67.8119 3.99365
20.9389 65.7717 2
21.8948 63.8479 0.0131567
22.8376 66.7414 0.010574
21.9125 68.8751 2
20.9142 71.1327 4
24.0099 69.8074 0.0063683
23.1494 72.1455 2
25.446 73.0099 0
23.0953 12.776 3.98521
23.9722 10.16 3.98669
25.0228 7.30745 3.98959
25.8594 9.37338 2
26.2797 4.32657 3.99384
27.0687 6.53716 2
27.8201 8.64571 0.0128605
27.7943 1.27781 4
28.4878 3.64224 2
29.1537 5.87378 0.00987171
30.1841 0.720551 2
30.7256 3.09674 0.0058104
32.6053 0.320823 0
35.7742 35.8467 3.94397
37.4996 35.8421 2
39.2262 35.8361 0.0521382
24.776 12.0617 2
23.7497 14.3455 2
22.4779 15.021 3.98482
25.3561 13.8959 3.98435
24.0224 15.6071 3.98436
26.6212 11.3794 0.0149943
29.2239 12.6321 0.0162012
27.29 13.3646 2
29.7787 14.1913 2
28.3548 15.966 3.98333
34.1272 34.2144 3.95498
35.7766 34.1488 2
37.4983 34.1279 0.0435962
35.6936 32.3787 0.0287433
37.4908 30.0806 0.0440441
42.4213 28.3484 -0.0141955
39.8553 28.9265 0.0615614
40.078 27.5145 2
37.4923 28.6222 2
35.4576 30.3642 2
34.0663 32.6769 2
37.6005 27.1817 4.02509
35.1185 28.9256 3.93835
33.6669 31.126 3.98304
32.9161 33.039 3.99203
30.2041 19.3309 3.98393
30.9243 16.8273 2
31.9127 14.4694 0.017394
40.4938 25.6109 0.0227837
38.0843 22.852 0.0193614
33.548 17.3749 0.0191875
35.5826 20.0677 0.019794
32.8599 19.786 2
35.2056 22.6295 2
37.7861 25.1718 2
32.3058 22.4061 3.97863
34.9319 25.1553 3.97427
34.0002 37.5305 3.9456
35.7726 37.5277 2
37.502 37.5196 0.0546659
37.6605 51.0441 0.0249561
36.8859 48.4941 -0.0363972
35.784 39.2113 0.0567115
35.1503 46.1125 0.0663905
33.673 43.922 0.0116652
34.1288 40.8445 0.0447844
32.9128 42.02 0.0036101
35.4056 50.2181 2
34.0516 39.2239 2
32.5526 40.8961 2
34.2491 47.5407 2
32.138 42.7688 2
33.0274 45.2443 2
33.1565 49.1962 3.97948
32.2252 39.2969 3.9859
30.9439 41.2794 3.98266
31.1784 43.8588 3.92771
32.1642 46.4798 4.00782
34.3472 52.484 0.0189471
31.9592 51.2489 2
29.7801 49.7634 3.97985
30.4969 53.4196 0.0211029
28.3835 51.664 2
26.4347 50.0537 3.97653
26.8522 53.4694 0.0209578
25.0317 51.8136 2
23.2757 50.255 3.98232
23.5407 53.5184 0.0196133
21.9183 51.8569 2
20.4099 50.3669 3.98327
17.9427 50.3738 3.98425
17.8018 52.832 3.98337
19.1589 51.6806 2
17.4193 55.3739 3.98467
18.8969 54.3464 2
20.4346 53.268 0.0177983
17.1265 57.8999 3.98614
18.4346 56.7551 2
19.9158 55.8664 0.0153354
17.1327 60.5672 3.98691
18.3626 59.1354 2
19.4293 57.9208 0.0145782
17.4073 63.4779 3.98975
18.6163 61.7815 2
19.7022 60.2246 0.0139587
17.9428 66.6209 3.99371
19.1274 64.6839 2
20.2064 62.8713 0.0127654
18.75 69.9759 4
19.8866 67.8121 2
20.9389 65.7714 0.0104755
21.9126 68.8748 0.00638265
20.9142 71.1327 2
23.1494 72.1454 0
21.5858 13.5951 3.98534
22.1903 11.0187 3.98659
23.0953 12.7758 2
23.041 8.17249 3.98945
23.9722 10.1597 2
24.1174 5.14114 3.99365
25.0227 7.3071 2
25.8595 9.37371 0.0131598
25.446 1.99014 4
26.2797 4.3263 2
27.0687 6.53755 0.010144
27.7943 1.27778 2
28.4879 3.64251 0.00596935
30.1841 0.720592 0
34.0385 35.8371 3.94621
35.7753 35.8444 2
37.4993 35.8449 0.0523868
21.3024 15.8149 3.98485
24.776 12.0619 0.0148598
23.7497 14.3457 0.0153838
25.3561 13.8957 2
22.4779 15.0208 2
24.0224 15.607 2
23.2612 16.2376 3.98423
25.3778 16.0758 3.98401
27.2901 13.3648 0.0161852
29.7787 14.1916 0.0164841
28.3549 15.9658 2
27.4355 18.7869 3.98377
32.5597 34.1714 3.99634
34.1277 34.2116 2
35.776 34.1529 0.0451911
34.0657 32.6799 0.00832587
35.4578 30.3686 0.0191785
37.4904 28.6323 0.0639027
40.078 27.5151 -0.0241748
37.5997 27.1711 2
32.9158 33.0397 2
35.1242 28.9215 2
33.6637 31.1278 2
35.011 27.3192 4.02059
33.0022 29.8126 3.92683
32.1422 32.2824 3.98936
29.5655 21.9265 3.98566
30.2043 19.3308 2
30.9242 16.8275 0.0173908
37.7864 25.1669 0.0203899
35.2049 22.6292 0.0206914
32.8596 19.7861 0.0218225
32.3066 22.4063 2
34.9321 25.1561 2
31.6149 25.5906 3.97766
32.0938 37.5328 3.98526
34.0013 37.5299 2
35.7717 37.5279 0.0594881
35.4057 50.2197 0.0203305
34.2516 47.5345 -0.0274372
34.0501 39.2231 0.0510818
33.0305 45.2419 0.07689
32.141 42.7745 0.0138095
32.5534 40.8944 0.0072041
33.1566 49.1892 2
32.2267 39.2975 2
30.9417 41.2771 2
32.1566 46.4869 2
31.1782 43.8593 2
31.0217 47.9171 3.97613
30.1907 39.5264 3.97805
29.7256 42.0526 3.92741
30.2581 45.0751 4.00152
31.9593 51.2488 0.0200681
29.7803 49.7645 2
27.764 48.2426 3.97998
28.3837 51.664 0.0214104
26.4347 50.0521 2
24.5564 48.5349 3.9846
25.0319 51.8141 0.0218919
23.2759 50.254 2
21.5764 48.8478 3.98554
21.9183 51.8575 0.0184403
20.4103 50.366 2
18.9755 49.1396 3.98596
16.849 49.3711 3.98588
16.7385 51.4462 3.98406
17.943 50.3735 2
16.3667 53.9052 3.98425
17.8019 52.8317 2
19.1586 51.6811 0.0173903
15.9653 56.5037 3.98578
17.4192 55.3739 2
18.897 54.3465 0.0165587
15.745 59.2305 3.98696
17.1264 57.9001 2
18.4347 56.7551 0.0144159
15.7872 62.1503 3.98953
17.1327 60.5674 2
18.3627 59.1352 0.0141718
16.0892 65.3041 3.99376
17.4072 63.4782 2
18.6163 61.7813 0.0128183
16.6661 68.6801 4
17.9428 66.6212 2
19.1274 64.6836 0.0102944
18.75 69.9759 2
19.8867 67.8119 0.00635057
20.9142 71.1327 0
20.2172 14.5822 3.98533
21.5858 13.5948 2
20.5295 11.9876 3.98658
21.1442 9.14178 3.98936
22.1903 11.0184 2
23.0953 12.776 0.0147927
22.0165 6.07997 3.99355
23.041 8.17213 2
23.9722 10.16 0.0133133
23.1494 2.85457 4
24.1174 5.14088 2
25.0228 7.30745 0.0104097
25.446 1.99012 2
26.2797 4.32657 0.00616105
27.7943 1.27781 0
32.2206 35.7684 3.98728
34.0402 35.8352 2
35.7742 35.8467 0.0560254
21.3024 15.8148 2
20.2985 16.9463 3.9853
22.0938 16.6202 3.9846
25.3561 13.8959 0.0156451
22.4779 15.021 0.015179
24.0224 15.6071 0.0156386
25.3778 16.0756 2
23.2612 16.2375 2
24.1997 18.4359 3.98368
27.0022 21.4456 3.98276
28.3548 15.966 0.0166657
27.4356 18.7867 2
30.9559 33.7865 3.98311
32.5589 34.1702 2
34.1272 34.2144 0.0450196
32.9161 33.039 0.00796719
33.6669 31.126 0.0169582
35.1185 28.9256 0.0616475
37.6005 27.1817 -0.0250862
35.0114 27.3141 2
32.1419 32.2872 2
33.0053 29.8128 2
32.4153 28.052 4.01494
31.1661 31.208 3.93357
28.7368 24.3943 3.98581
29.5661 21.9264 2
30.2041 19.3309 0.0160707
34.9319 25.1553 0.0257292
32.3058 22.4061 0.0213718
31.6146 25.5894 2
29.5238 27.213 3.9925
29.9137 37.5303 3.97753
32.0944 37.533 2
34.0002 37.5305 0.0544006
33.1565 49.1962 0.0205171
32.1642 46.4798 -0.00781633
32.2252 39.2969 0.0141037
31.1784 43.8588 0.0722895
30.9439 41.2794 0.0173421
31.0228 47.9098 2
30.1923 39.5254 2
29.7275 42.0559 2
30.249 45.0808 2
29.0226 46.4793 3.97411
28.8093 39.9272 3.93232
28.4498 43.2934 4.00371
29.7801 49.7634 0.0201516
27.7646 48.2404 2
25.8116 46.7222 3.98883
26.4347 50.0537 0.0234739
24.557 48.5336 2
22.7003 47.1446 3.99091
23.2757 50.255 0.0176796
21.5771 48.8465 2
19.9117 47.6687 3.98878
20.4099 50.3669 0.0167328
18.9759 49.1392 2
17.618 48.2196 3.98697
16.1001 48.7194 3.98655
16.8493 49.3709 2
15.8142 50.2065 3.98518
15.3528 52.4495 3.98441
16.7387 51.4459 2
17.9427 50.3738 0.0157518
14.8539 55.0061 3.9852
16.3667 53.9051 2
17.8018 52.832 0.0166293
14.4529 57.761 3.98683
15.9652 56.5038 2
17.4193 55.3739 0.0153333
14.2647 60.7066 3.98927
15.7449 59.2307 2
17.1265 57.8999 0.0138605
14.3332 63.8638 3.99367
15.7872 62.1506 2
17.1327 60.5672 0.0130907
14.6715 67.2507 4
16.0892 65.3043 2
17.4073 63.4779 0.0102498
16.6661 68.6801 2
17.9428 66.6209 0.00628788
18.75 69.9759 0
18.9301 15.7666 3.98554
20.2172 14.5819 2
18.9788 13.0969 3.98654
21.5858 13.5951 0.0146647
20.5295 11.9873 2
19.3437 10.2289 3.9893
19.9913 7.1444 3.99352
21.1442 9.14142 2
22.1903 11.0187 0.0134144
20.9142 3.86727 4
22.0165 6.07971 2
23.041 8.17249 0.0105494
23.1494 2.85451 2
24.1174 5.14114 0.00635045
25.446 1.99014 0
30.1917 35.5343 3.98029
32.2221 35.7679 2
34.0385 35.8371 0.0537918
21.3024 15.8149 0.0151502
22.0939 16.6201 2
20.2986 16.9461 2
19.2358 18.3902 3.98524
21.7772 17.8339 3.98469
25.3778 16.0758 0.0159892
23.2612 16.2376 0.0157742
24.1998 18.4358 2
22.2678 19.8726 3.98451
24.5773 21.3033 3.98372
26.3694 23.705 3.98676
27.0027 21.4454 2
27.4355 18.7869 0.0162257
29.7357 33.0124 3.932
30.954 33.7899 2
32.5597 34.1714 0.00366447
32.1422 32.2824 0.01064
33.0022 29.8126 0.0731652
35.011 27.3192 -0.0205913
32.4146 28.0488 2
31.169 31.2103 2
29.9242 29.49 4.00583
27.7742 26.5233 3.97603
28.7367 24.394 2
29.5655 21.9265 0.0143435
31.6149 25.5906 0.0223442
29.5233 27.2123 2
28.4724 37.528 3.93411
29.914 37.5312 2
32.0938 37.5328 0.0147441
31.0217 47.9171 0.0238681
30.2581 45.0751 -0.00152359
30.1907 39.5264 0.0219524
29.7256 42.0526 0.0725892
29.0244 46.476 2
28.8129 39.9275 2
28.4459 43.2956 2
27.0851 44.8473 3.97449
26.5558 40.6774 4.00527
27.764 48.2426 0.0200163
25.8129 46.7205 2
23.8373 45.2749 3.99091
24.5564 48.5349 0.0154014
22.7013 47.1427 2
20.8299 45.9504 3.99108
21.5764 48.8478 0.0144619
19.9123 47.6684 2
18.2558 46.7789 3.98805
18.9755 49.1396 0.0140417
17.6184 48.2193 2
16.2867 47.7485 3.98637
16.1004 48.7192 2
15.1591 49.0486 3.98577
16.849 49.3711 0.0141238
15.8144 50.2063 2
14.4644 51.0163 3.98491
13.8133 53.4622 3.98501
15.3529 52.4493 2
16.7385 51.4462 0.0159361
13.2462 56.1898 3.98639
14.8538 55.006 2
16.3667 53.9052 0.0157505
12.8466 59.1414 3.98891
14.4528 57.7612 2
15.9653 56.5037 0.0142223
12.6783 62.3068 3.9935
14.2647 60.7069 2
15.745 59.2305 0.0130411
12.7746 65.6939 4
14.3332 63.864 2
15.7872 62.1503 0.0104697
14.6714 67.2507 2
16.0892 65.3041 0.00624306
16.6661 68.6801 0
17.6633 17.1395 3.98555
18.9301 15.7664 2
17.5096 14.3589 3.98654
20.2172 14.5822 0.0146668
18.9788 13.0966 2
17.6391 11.4466 3.98923
20.5295 11.9876 0.0134223
19.3437 10.2285 2
18.0515 8.33689 3.9935
18.75 5.0241 4
19.9912 7.14415 2
21.1442 9.14178 0.010643
20.9142 3.86727 2
22.0165 6.07997 0.00645014
23.1494 2.85457 0
28.8013 35.1304 3.93122
30.1931 35.5381 2
32.2206 35.7684 0.0127197
22.0938 16.6202 0.0154028
20.2985 16.9463 0.0147037
21.7773 17.8337 2
19.2358 18.39 2
17.9684 19.919 3.98533
20.8673 19.3579 3.9849
24.1997 18.4359 0.0163175
22.2679 19.8724 2
24.5777 21.303 2
22.3388 21.6942 3.98477
24.6569 23.1473 3.9855
25.3715 25.9302 3.98038
26.3694 23.7044 2
27.0022 21.4456 0.0172436
28.1086 32.2655 4.00436
29.7384 33.0113 2
30.9559 33.7865 0.0168869
31.1661 31.208 0.0664331
32.4153 28.052 -0.0149365
29.9227 29.4879 2
26.8756 29.1308 3.96389
27.7735 26.5225 2
28.7368 24.3943 0.0141871
29.5238 27.213 0.0074989
26.6707 37.368 4.00567
28.4748 37.5265 2
29.9137 37.5303 0.0224713
29.0226 46.4793 0.0258887
28.4498 43.2934 -0.00370831
28.8093 39.9272 0.0676787
27.087 44.8456 2
26.5564 40.6772 2
25.0523 43.2318 3.987
23.8083 39.4496 3.97426
25.8116 46.7222 0.0111726
23.8385 45.2755 2
21.7942 44.0009 3.99032
22.7003 47.1446 0.00908931
20.8309 45.9505 2
18.9073 45.0098 3.98674
19.9117 47.6687 0.0112152
18.2564 46.7788 2
16.5712 46.2454 3.98562
17.618 48.2196 0.0130324
16.2871 47.7485 2
14.8857 47.7008 3.98548
16.1001 48.7194 0.0134468
15.1594 49.0486 2
13.7605 49.5749 3.9852
15.8142 50.2065 0.0148166
14.4645 51.0162 2
12.8782 51.8998 3.98509
12.132 54.5483 3.98606
13.8133 53.4621 2
15.3528 52.4495 0.0155902
11.5303 57.4741 3.98833
13.2461 56.1899 2
14.8539 55.0061 0.0148038
11.1329 60.6336 3.9933
12.8466 59.1417 2
14.4529 57.761 0.0131728
10.9835 64.0165 4
12.6783 62.3071 2
14.2647 60.7066 0.0107282
12.7745 65.694 2
14.3332 63.8638 0.00632881
14.6715 67.2507 0
16.3937 18.6305 3.98573
17.6633 17.1393 2
16.0998 15.7659 3.98652
18.9301 15.7666 0.0144599
17.5096 14.3586 2
16.0205 12.7984 3.98908
18.9788 13.0969 0.0134556
17.6392 11.4462 2
16.2027 9.65948 3.99346
19.3437 10.2289 0.0106996
18.0515 8.33664 2
16.6661 6.31991 4
18.75 5.02404 2
19.9913 7.1444 0.00648365
20.9142 3.86727 0
27.1826 34.7365 4.0047
28.8033 35.1289 2
30.1917 35.5343 0.019707
16.6643 21.3507 3.98456
21.7772 17.8339 0.015315
19.2358 18.3902 0.0147594
20.8673 19.3577 2
17.9684 19.9188 2
19.7062 21.547 3.9858
22.2678 19.8726 0.0154899
24.5773 21.3033 0.0162845
22.339 21.6939 2
24.6569 23.147 2
22.7903 24.5764 3.98269
24.4268 28.513 3.9757
25.371 25.9299 2
26.3694 23.705 0.0132357
25.954 31.7143 3.97471
28.1079 32.2638 2
29.7357 33.0124 0.0679984
29.9242 29.49 -0.00582918
26.8749 29.1318 2
27.7742 26.5233 0.023971
24.489 36.8808 3.98206
26.6703 37.3687 2
28.4724 37.528 0.0658888
27.0851 44.8473 0.0255108
26.5558 40.6774 -0.00527224
25.0529 43.2323 2
23.8087 39.4512 2
22.8355 41.8402 3.98324
21.5693 38.5113 3.98355
23.8373 45.2749 0.00909118
21.795 44.0024 2
19.6495 42.9223 3.98495
20.8299 45.9504 0.00892344
18.9079 45.01 2
16.8939 44.409 3.98446
18.2558 46.7789 0.0119516
16.5717 46.2455 2
14.8024 46.1181 3.9845
16.2867 47.7485 0.0136294
14.886 47.7008 2
13.2652 48.0347 3.98485
15.1591 49.0486 0.0142281
13.7607 49.5749 2
12.0957 50.2762 3.98514
14.4644 51.0163 0.0150856
12.8783 51.8998 2
11.1263 52.8561 3.98587
10.3198 55.7259 3.98777
12.132 54.5484 2
13.8133 53.4622 0.0149915
9.69955 58.8571 3.99296
11.5302 57.4744 2
13.2462 56.1898 0.013606
9.30605 62.2254 4
11.1329 60.6339 2
12.8466 59.1414 0.0110857
10.9835 64.0165 2
12.6783 62.3068 0.00650386
12.7746 65.6939 0
15.1358 20.1622 3.98533
16.3938 18.6302 2
14.7444 17.2864 3.98638
17.6633 17.1395 0.0144492
16.0999 15.7656 2
14.4826 14.2784 3.98887
17.5096 14.3589 0.0134594
16.0205 12.798 2
14.4453 11.1101 3.99336
17.6391 11.4466 0.0107698
16.2027 9.65922 2
14.6715 7.74927 4
18.0515 8.33689 0.00650203
16.6661 6.31988 2
18.75 5.0241 0
25.1298 34.2885 3.98445
27.1821 34.7359 2
28.8013 35.1304 0.068776
17.8324 22.2954 3.98627
15.5046 22.8924 3.98373
16.6643 21.3505 2
20.8673 19.3579 0.0151006
17.9684 19.919 0.0146743
19.7063 21.5467 2
19.6195 24.3526 3.98466
22.3388 21.6942 0.0152311
24.6569 23.1473 0.0145003
22.79 24.576 2
21.8172 27.8007 3.97647
23.5848 31.1723 3.98208
24.4264 28.5132 2
25.3715 25.9302 0.0196212
25.9538 31.716 2
28.1086 32.2655 -0.00436497
26.8756 29.1308 0.0361093
22.2752 36.2697 3.98971
24.489 36.8821 2
26.6707 37.368 -0.00567074
25.0523 43.2318 0.0130013
23.8083 39.4496 0.0257436
22.8357 41.8415 2
21.5696 38.5116 2
20.5617 40.6535 3.98146
19.9369 37.7874 3.98571
21.7942 44.0009 0.00967846
19.6502 42.9227 2
17.2827 42.1233 3.98301
18.9073 45.0098 0.0132597
16.8944 44.4092 2
14.7996 44.2238 3.98305
16.5712 46.2454 0.0143833
14.8028 46.1181 2
12.9346 46.3186 3.98398
14.8857 47.7008 0.0145152
13.2654 48.0348 2
11.4654 48.5709 3.98481
13.7605 49.5749 0.0147988
12.0958 50.2763 2
10.2509 51.0981 3.98571
12.8782 51.8998 0.0149087
11.1263 52.8562 2
9.22783 53.903 3.98743
8.38317 56.9909 3.9925
10.3198 55.7261 2
12.132 54.5483 0.0139428
7.74927 60.3285 4
9.69954 58.8574 2
11.5303 57.4741 0.0116693
9.306 62.2255 2
11.1329 60.6336 0.00670212
10.9835 64.0165 0
13.9449 21.7272 3.98489
15.1358 20.1619 2
13.4437 18.8816 3.98621
16.3937 18.6305 0.0142677
14.7445 17.2861 2
13.0275 15.8694 3.98854
16.0998 15.7659 0.0134835
14.4826 14.278 2
12.7824 12.6829 3.99321
16.0205 12.7984 0.010916
14.4453 11.1099 2
12.7746 9.30605 4
16.2027 9.65948 0.00654166
14.6715 7.74924 2
16.6661 6.31991 0
22.8721 33.7881 3.98879
25.1299 34.29 2
27.1826 34.7365 -0.00469995
17.5918 24.0138 3.98483
17.8324 22.2951 2
14.2839 24.4248 3.98258
15.5045 22.8921 2
16.6643 21.3507 0.0154367
18.9637 27.1758 3.97862
19.7062 21.547 0.014196
19.6193 24.3523 2
21.0431 30.6441 3.97982
22.7903 24.5764 0.0173058
21.8169 27.8008 2
23.5846 31.173 2
24.4268 28.513 0.0242975
25.954 31.7143 0.0252865
20.0492 35.9174 3.98788
22.2751 36.2701 2
24.489 36.8808 0.0179435
22.8355 41.8402 0.0167627
21.5693 38.5113 0.0164499
20.562 40.6537 2
19.937 37.7878 2
17.9431 39.0111 3.98407
19.6495 42.9223 0.0150462
17.2831 42.1236 2
14.7427 41.9353 3.98241
16.8939 44.409 0.0155384
14.8 44.224 2
12.672 44.4112 3.98292
14.8024 46.1181 0.0155003
12.9349 46.3188 2
10.9654 46.7521 3.98407
13.2652 48.0347 0.0151454
11.4655 48.571 2
9.51304 49.256 3.98537
12.0957 50.2762 0.014859
10.2509 51.0982 2
8.26007 52.0145 3.98726
11.1263 52.8561 0.0141345
9.22784 53.9031 2
7.19211 55.0417 3.99199
6.31991 58.3339 4
8.38317 56.9911 2
10.3198 55.7259 0.0122313
7.74924 60.3285 2
9.69955 58.8571 0.00703618
9.30605 62.2254 0
13.2042 25.3403 3.98507
12.8096 23.2568 3.98424
13.9449 21.7269 2
12.2272 20.5296 3.98605
15.1358 20.1622 0.0146667
13.4437 18.8813 2
11.6566 17.5492 3.98823
14.7444 17.2864 0.0136198
13.0276 15.869 2
11.2197 14.367 3.993
14.4826 14.2784 0.0111276
12.7824 12.6826 2
10.9835 10.9835 4
14.4453 11.1101 0.00664262
12.7745 9.306 2
14.6715 7.74927 0
20.4428 33.38 3.98582
22.8721 33.7888 2
25.1298 34.2885 0.015553
15.8587 26.3756 3.98099
17.5916 24.0134 2
17.8324 22.2954 0.013727
14.2838 24.4246 2
15.5046 22.8924 0.0162697
18.2954 30.1515 3.97912
18.9635 27.1757 2
19.6195 24.3526 0.0153379
21.0429 30.6446 2
21.8172 27.8007 0.0235333
23.5848 31.1723 0.0179249
17.5624 35.9602 3.9883
20.049 35.9179 2
22.2752 36.2697 0.0102912
20.5617 40.6535 0.018542
19.9369 37.7874 0.014289
17.9432 39.0114 2
14.2429 39.1846 3.98474
17.2827 42.1233 0.0169931
14.743 41.9355 2
12.3567 42.2914 3.98314
14.7996 44.2238 0.0169517
12.6723 44.4113 2
10.5408 44.818 3.98342
12.9346 46.3186 0.0160172
10.9656 46.7523 2
8.89455 47.3331 3.98474
11.4654 48.5709 0.0151907
9.51311 49.2562 2
7.42641 50.0464 3.98701
10.2509 51.0981 0.0142923
8.26009 52.0147 2
6.1325 53.0164 3.99146
9.22783 53.903 0.012568
7.19213 55.0419 2
5.0241 56.25 4
6.31988 58.3339 2
8.38317 56.9909 0.00750357
7.74927 60.3285 0
13.4371 26.7934 3.98204
11.9217 24.7675 3.9835
13.2041 25.3401 2
11.1285 22.2148 3.98556
12.8095 23.2565 2
13.9449 21.7272 0.0151088
12.2271 20.5292 2
10.3857 19.3037 3.98796
13.4437 18.8816 0.0137888
11.6566 17.5488 2
9.76054 16.1494 3.99278
13.0275 15.8694 0.0114572
11.2197 14.3667 2
9.30607 12.7746 4
12.7824 12.6829 0.00678844
10.9835 10.9835 2
12.7746 9.30605 0
17.7513 33.0974 3.98413
20.4427 33.3807 2
22.8721 33.7881 0.0112121
15.4394 29.6176 3.98034
15.8586 26.3755 2
17.5918 24.0138 0.0151739
14.2839 24.4248 0.0174184
18.2953 30.1518 2
18.9637 27.1758 0.0213811
21.0431 30.6441 0.020181
14.8302 36.016 3.98678
17.5622 35.9606 2
20.0492 35.9174 0.0121151
12.5451 37.833 3.98425
17.9431 39.0111 0.0159251
14.2429 39.1849 2
11.8673 40.1513 3.98491
14.7427 41.9353 0.0175867
12.3569 42.2916 2
10.1387 42.7901 3.98302
12.672 44.4112 0.0170834
10.541 44.8182 2
8.37151 45.3328 3.98431
10.9654 46.7521 0.0159297
8.89464 47.3332 2
6.71728 48.0102 3.98653
9.51304 49.256 0.0146306
7.42643 50.0465 2
5.20894 50.919 3.99091
8.26007 52.0145 0.0127446
6.13253 53.0167 2
3.86727 54.0858 4
7.19211 55.0417 0.00800876
5.02404 56.25 2
6.31991 58.3339 0
12.8895 29.0161 3.98041
11.35 26.4698 3.98285
13.4369 26.7932 2
10.1867 23.9505 3.98449
11.9216 24.7672 2
13.2042 25.3403 0.0149263
9.2369 21.1233 3.98745
11.1284 22.2144 2
12.8096 23.2568 0.0157602
12.2272 20.5296 0.0139475
10.3857 19.3032 2
8.41638 18.0193 3.99252
11.6566 17.5492 0.0117744
9.76058 16.149 2
7.74928 14.6715 4
11.2197 14.367 0.00700432
9.30602 12.7745 2
10.9835 10.9835 0
14.425 32.8499 3.98341
17.7512 33.0978 2
20.4428 33.38 0.0141847
15.4393 29.6176 2
15.8587 26.3756 0.0190099
18.2954 30.1515 0.0208789
12.8313 36.2078 3.985
14.83 36.0163 2
17.5624 35.9602 0.0116987
12.5451 37.8333 2
11.2251 38.3155 3.98376
14.2429 39.1846 0.0152587
11.8674 40.1516 2
9.72267 40.7633 3.98438
12.3567 42.2914 0.0168591
10.1388 42.7903 2
7.91996 43.2794 3.98388
10.5408 44.818 0.0165846
8.37164 45.333 2
6.12306 45.914 3.98615
8.89455 47.3331 0.015261
6.7173 48.0104 2
4.42018 48.7587 3.99041
7.42641 50.0464 0.0129876
5.20896 50.9193 2
2.85457 51.8506 4
6.1325 53.0164 0.00854277
3.86727 54.0858 2
5.0241 56.25 0
12.0277 31.2429 3.98366
10.7612 28.4006 3.98157
12.8894 29.0161 2
9.40077 25.7834 3.9838
11.3498 26.4697 2
13.4371 26.7934 0.0179562
8.22342 23.0103 3.98651
10.1866 23.9502 2
11.9217 24.7675 0.0164982
7.19837 19.9688 3.99195
9.23687 21.1229 2
11.1285 22.2148 0.0144383
10.3857 19.3037 0.012041
8.41641 18.0189 2
6.31992 16.6661 4
9.76054 16.1494 0.00721944
7.74926 14.6714 2
9.30607 12.7746 0
12.0402 34.2877 3.98264
14.425 32.8501 2
17.7513 33.0974 0.0158706
15.4394 29.6176 0.0196572
10.7902 36.6117 3.984
12.8312 36.208 2
14.8302 36.016 0.0132212
12.5451 37.833 0.0157528
11.2251 38.3158 2
9.31705 38.8291 3.98446
11.8673 40.1513 0.0150868
9.72273 40.7635 2
7.53063 41.2183 3.98446
10.1387 42.7901 0.0169817
7.92004 43.2796 2
5.6346 43.7754 3.98587
8.37151 45.3328 0.0156915
6.12311 45.9141 2
3.76559 46.5435 3.99009
6.71728 48.0102 0.0134667
4.4202 48.759 2
1.99014 49.554 4
5.20894 50.919 0.00909082
2.85451 51.8506 2
3.86727 54.0858 0
10.8909 32.9093 3.98339
10.0727 30.3705 3.98293
12.0277 31.2429 2
8.70826 27.72 3.9829
10.761 28.4005 2
12.8895 29.0161 0.0195884
7.3485 24.9714 3.98588
9.40064 25.7832 2
11.35 26.4698 0.0171537
6.1151 21.9929 3.99097
8.22336 23.0099 2
10.1867 23.9505 0.0155142
5.02411 18.75 4
7.19839 19.9684 2
9.2369 21.1233 0.0125482
8.41638 18.0193 0.00748221
6.3199 16.6661 2
7.74928 14.6715 0
10.4043 34.9963 3.98332
12.0401 34.2879 2
14.425 32.8499 0.0165933
8.9911 36.9863 3.98374
10.79 36.6119 2
12.8313 36.2078 0.0149973
11.2251 38.3155 0.0162444
9.317 38.8293 2
7.2107 39.1864 3.98486
9.72267 40.7633 0.0156185
7.53066 41.2185 2
5.24976 41.6192 3.98579
7.91996 43.2794 0.0161247
5.63462 43.7756 2
3.24304 44.2875 3.99002
6.12306 45.914 0.0138501
3.76562 46.5438 2
1.27781 47.2057 4
4.42018 48.7587 0.00958992
1.99012 49.554 2
2.85457 51.8506 0
10.0595 33.875 3.98285
9.36508 32.1455 3.98376
10.8908 32.9093 2
8.0568 29.686 3.98324
10.0726 30.3705 2
12.0277 31.2429 0.0163372
6.59191 26.9993 3.98514
8.70814 27.7198 2
10.7612 28.4006 0.0184326
5.17008 24.087 3.99017
7.34841 24.9711 2
9.40077 25.7834 0.0162025
3.86728 20.9142 4
6.11511 21.9925 2
8.22342 23.0103 0.0134887
5.02406 18.75 2
7.19837 19.9688 0.00804654
6.31992 16.6661 0
8.81873 35.277 3.98371
10.4041 34.9964 2
12.0402 34.2877 0.0173639
6.99594 37.207 3.98419
8.99101 36.9865 2
10.7902 36.6117 0.0160002
9.31705 38.8291 0.0155433
7.21064 39.1867 2
4.97721 39.4706 3.98608
7.53063 41.2183 0.0155423
5.24976 41.6195 2
2.85345 42.0066 3.98965
5.6346 43.7754 0.0141297
3.24304 44.2878 2
0.720592 44.8159 4
3.76559 46.5435 0.00990546
1.27778 47.2057 2
1.99014 49.554 0
8.86157 33.6919 3.98358
10.0594 33.875 2
7.49342 31.6019 3.98408
9.36497 32.1455 2
10.8909 32.9093 0.0166142
5.93678 29.0622 3.98495
8.05671 29.6859 2
10.0727 30.3705 0.0170716
4.35745 26.241 3.98961
6.59181 26.9991 2
8.70826 27.72 0.0170987
2.85458 23.1494 4
5.17007 24.0867 2
7.3485 24.9714 0.0141247
3.86728 20.9142 2
6.1151 21.9929 0.00902538
5.02411 18.75 0
6.94694 35.3042 3.98408
8.81864 35.2771 2
10.4043 34.9963 0.0166778
4.8281 37.3407 3.98566
6.99588 37.2072 2
8.9911 36.9863 0.016258
7.2107 39.1864 0.0151406
4.97715 39.4709 2
2.60133 39.7167 3.98961
5.24976 41.6192 0.0142062
2.85344 42.0069 2
0.320823 42.3947 4
3.24304 44.2875 0.00998425
0.720551 44.8159 2
1.27781 47.2057 0
7.10711 33.4562 3.98409
8.86147 33.6919 2
10.0595 33.875 0.0171493
5.40704 31.128 3.98545
7.4933 31.6018 2
9.36508 32.1455 0.016244
3.67898 28.4381 3.98945
5.93669 29.0621 2
8.0568 29.686 0.0167571
1.99015 25.446 4
4.35742 26.2407 2
6.59191 26.9993 0.0148606
2.85453 23.1494 2
5.17008 24.087 0.00983258
3.86728 20.9142 0
4.84283 35.2502 3.98548
6.94687 35.3043 2
8.81873 35.277 0.0162898
2.49293 37.4293 3.98927
4.82807 37.3409 2
6.99594 37.207 0.015807
4.97721 39.4706 0.0139184
2.60129 39.7169 2
0.080333 39.9526 4
2.85345 42.0066 0.0103513
0.320817 42.3947 2
0.720592 44.8159 0
5.03626 33.1867 3.98556
7.10701 33.4562 2
8.86157 33.6919 0.0164238
3.14302 30.6618 3.98968
5.40693 31.1279 2
7.49342 31.6019 0.0159193
1.27793 27.7943 4
3.67894 28.4379 2
5.93678 29.0622 0.0150549
1.99013 25.446 2
4.35745 26.241 0.0103888
2.85458 23.1494 0
2.54523 35.1577 3.98919
4.84278 35.2504 2
6.94694 35.3042 0.0159152
0 37.5 4
2.49292 37.4294 2
4.8281 37.3407 0.0143397
2.60133 39.7167 0.0103865
0.0802903 39.9526 2
0.320823 42.3947 0
2.76289 32.9027 3.98954
5.03617 33.1867 2
7.10711 33.4562 0.0159117
0.721173 30.1842 4
3.14296 30.6617 2
5.40704 31.128 0.0145547
1.27779 27.7943 2
3.67898 28.4381 0.0105469
1.99015 25.446 0
0.0806499 35.0474 4
2.5452 35.1578 2
4.84283 35.2502 0.0145161
0 37.5 2
2.49293 37.4293 0.0107252
0.080333 39.9526 0
0.32156 32.6054 4
2.76284 32.9027 2
5.03626 33.1867 0.0144377
0.72056 30.1841 2
3.14302 30.6618 0.0103197
1.27793 27.7943 0
0.0802889 35.0474 2
2.54523 35.1577 0.0108098
0 37.5 0
0.320817 32.6053 2
2.76289 32.9027 0.0104594
0.721173 30.1842 0
0.0806499 35.0474 0
0.32156 32.6054 0
CELLS 1910 17190
8 18 6 25 56 2 0 5 16
8 57 23 6 18 17 4 0 2
8 78 36 9 29 31 11 1 7
8 31 11 1 7 79 37 10 30
8 110 57 18 50 48 17 2 14
8 50 18 56 111 14 2 16 49
8 116 62 22 55 52 20 3 15
8 56 25 67 118 16 5 24 53
8 119 63 23 57 54 21 4 17
8 55 22 63 119 15 3 21 54
8 58 26 68 121 18 6 25 56
8 122 65 26 58 57 23 6 18
8 73 31 7 27 142 79 30 71
8 143 78 29 72 73 31 7 27
8 83 147 76 34 32 74 28 8
8 84 148 78 36 33 75 29 9
8 76 34 8 28 148 84 33 75
8 37 79 150 86 10 30 77 35
8 151 87 36 78 80 38 11 31
8 80 38 11 31 152 88 37 79
8 175 100 42 94 96 44 12 40
8 44 96 176 101 12 40 95 43
8 101 176 98 46 43 95 41 13
8 46 98 178 103 13 41 97 45
8 178 103 45 97 147 83 32 74
8 189 116 55 109 106 52 15 47
8 111 56 118 191 49 16 53 107
8 192 119 57 110 108 54 17 48
8 109 55 119 192 47 15 54 108
8 194 122 58 112 110 57 18 50
8 112 58 121 195 50 18 56 111
8 115 61 19 51 197 124 59 113
8 115 61 125 198 51 19 60 114
8 198 125 62 116 114 60 20 52
8 200 127 64 120 116 62 22 55
8 118 67 132 202 53 24 66 117
8 121 68 133 203 56 25 67 118
8 120 64 128 204 55 22 63 119
8 204 128 65 122 119 63 23 57
8 206 134 68 121 123 69 26 58
8 123 69 26 58 207 131 65 122
8 226 147 74 138 140 76 28 70
8 229 148 75 139 143 78 29 72
8 140 76 28 70 229 148 75 139
8 142 79 30 71 231 150 77 141
8 144 80 31 73 232 152 79 142
8 233 151 78 143 144 80 31 73
8 150 86 35 77 235 154 81 145
8 235 154 81 145 146 82 39 91
8 146 82 39 91 236 155 90 165
8 238 157 83 147 149 85 34 76
8 239 158 84 148 151 87 36 78
8 149 85 34 76 239 158 84 148
8 152 88 37 79 241 160 86 150
8 242 161 87 151 153 89 38 80
8 153 89 38 80 243 162 88 152
8 171 98 41 92 265 178 97 169
8 265 178 97 169 226 147 74 138
8 172 96 40 93 266 176 95 170
8 266 176 95 170 171 98 41 92
8 269 175 94 173 172 96 40 93
8 271 180 99 174 175 100 42 94
8 197 124 59 113 271 180 99 174
8 272 181 100 175 177 102 44 96
8 273 182 101 176 179 104 46 98
8 177 102 44 96 273 182 101 176
8 179 104 46 98 275 184 103 178
8 275 184 103 178 238 157 83 147
8 188 115 51 105 283 197 113 186
8 188 115 198 284 105 51 114 187
8 284 198 116 189 187 114 52 106
8 286 200 120 193 189 116 55 109
8 191 118 202 288 107 53 117 190
8 195 121 203 289 111 56 118 191
8 193 120 204 290 109 55 119 192
8 290 204 122 194 192 119 57 110
8 196 123 58 112 292 207 122 194
8 293 206 121 195 196 123 58 112
8 199 126 61 115 297 211 124 197
8 298 212 127 200 198 125 62 116
8 199 126 212 298 115 61 125 198
8 205 129 64 120 300 214 127 200
8 301 217 130 201 202 132 66 117
8 209 136 168 264 301 217 130 201
8 302 219 132 202 203 133 67 118
8 303 220 133 203 206 134 68 121
8 205 129 215 304 120 64 128 204
8 304 215 131 207 204 128 65 122
8 306 221 134 206 208 135 69 123
8 208 135 69 123 307 218 131 207
8 210 137 167 263 309 223 136 209
8 328 238 147 226 230 149 76 140
8 228 146 91 166 329 236 165 260
8 231 150 77 141 330 235 145 227
8 330 235 145 227 228 146 91 166
8 332 239 148 229 233 151 78 143
8 230 149 76 140 332 239 148 229
8 232 152 79 142 334 241 150 231
8 234 153 80 144 335 243 152 232
8 336 242 151 233 234 153 80 144
8 236 155 90 165 338 245 164 259
8 241 160 86 150 339 246 154 235
8 339 246 154 235 237 156 82 146
8 237 156 82 146 340 247 155 236
8 342 249 157 238 240 159 85 149
8 343 250 158 239 242 161 87 151
8 240 159 85 149 343 250 158 239
8 243 162 88 152 345 252 160 241
8 244 163 253 346 153 89 161 242
8 244 163 89 153 347 254 162 243
8 311 224 261 371 210 137 167 263
8 263 167 262 372 209 136 168 264
8 267 179 98 171 375 275 178 265
8 375 275 178 265 328 238 147 226
8 376 273 176 266 267 179 98 171
8 268 177 96 172 376 273 176 266
8 379 272 175 269 268 177 96 172
8 380 271 174 270 269 175 94 173
8 283 197 113 186 380 271 174 270
8 381 277 180 271 272 181 100 175
8 297 211 124 197 381 277 180 271
8 382 278 181 272 274 183 102 177
8 274 183 102 177 383 279 182 273
8 383 279 182 273 276 185 104 179
8 385 281 184 275 342 249 157 238
8 276 185 104 179 385 281 184 275
8 285 199 115 188 393 297 197 283
8 394 298 200 286 284 198 116 189
8 285 199 298 394 188 115 198 284
8 291 205 120 193 396 300 200 286
8 397 301 201 287 288 202 117 190
8 295 209 264 374 397 301 201 287
8 398 302 202 288 289 203 118 191
8 399 303 203 289 293 206 121 195
8 291 205 304 400 193 120 204 290
8 400 304 207 292 290 204 122 194
8 294 208 123 196 402 307 207 292
8 403 306 206 293 294 208 123 196
8 296 210 263 373 405 309 209 295
8 408 312 213 299 297 211 126 199
8 299 213 313 409 199 126 212 298
8 409 313 214 300 298 212 127 200
8 305 216 129 205 411 315 214 300
8 412 318 217 301 302 219 132 202
8 309 223 136 209 412 318 217 301
8 413 320 219 302 303 220 133 203
8 306 221 321 414 206 134 220 303
8 307 218 131 207 415 316 215 304
8 305 216 316 415 205 129 215 304
8 417 322 221 306 308 222 135 208
8 308 222 135 208 418 319 218 307
8 310 225 137 210 420 325 223 309
8 423 326 224 311 310 225 137 210
8 329 236 165 260 441 338 259 368
8 442 342 238 328 333 240 149 230
8 331 237 146 228 443 340 236 329
8 334 241 150 231 444 339 235 330
8 444 339 235 330 331 237 146 228
8 446 343 239 332 336 242 151 233
8 333 240 149 230 446 343 239 332
8 335 243 152 232 448 345 241 334
8 337 244 153 234 449 347 243 335
8 337 244 346 450 234 153 242 336
8 338 245 164 259 452 349 258 367
8 340 247 155 236 453 350 245 338
8 345 252 160 241 454 351 246 339
8 454 351 246 339 341 248 156 237
8 341 248 156 237 455 352 247 340
8 240 159 251 344 342 249 354 457
8 242 161 253 346 343 250 355 458
8 343 250 355 458 240 159 251 344
8 347 254 162 243 460 357 252 345
8 348 255 358 461 244 163 253 346
8 348 255 163 244 462 359 254 347
8 473 360 257 365 363 256 364 482
8 452 349 258 367 365 257 366 485
8 422 324 369 488 311 224 261 371
8 371 261 370 490 263 167 262 372
8 407 311 371 491 296 210 263 373
8 373 263 372 492 295 209 264 374
8 493 385 275 375 442 342 238 328
8 377 276 179 267 493 385 275 375
8 378 274 177 268 494 383 273 376
8 494 383 273 376 377 276 179 267
8 497 382 272 379 378 274 177 268
8 498 381 271 380 379 272 175 269
8 393 297 197 283 498 381 271 380
8 499 387 277 381 382 278 181 272
8 408 312 211 297 499 387 277 381
8 500 388 278 382 384 280 183 274
8 501 389 279 383 386 282 185 276
8 384 280 183 274 501 389 279 383
8 386 282 185 276 503 391 281 385
8 503 391 281 385 457 354 249 342
8 511 408 299 395 393 297 199 285
8 395 299 409 512 285 199 298 394
8 512 409 300 396 394 298 200 286
8 401 305 205 291 514 411 300 396
8 515 412 301 397 398 302 202 288
8 405 309 209 295 515 412 301 397
8 516 413 302 398 399 303 203 289
8 403 306 414 517 293 206 303 399
8 402 307 207 292 518 415 304 400
8 401 305 415 518 291 205 304 400
8 404 308 208 294 520 418 307 402
8 521 417 306 403 404 308 208 294
8 406 310 210 296 523 420 309 405
8 526 423 311 407 406 310 210 296
8 410 314 213 299 527 424 312 408
8 528 425 315 411 409 313 214 300
8 410 314 425 528 299 213 313 409
8 416 317 216 305 530 427 315 411
8 531 430 318 412 413 320 219 302
8 420 325 223 309 531 430 318 412
8 532 432 320 413 414 321 220 303
8 417 322 433 533 306 221 321 414
8 418 319 218 307 534 428 316 415
8 416 317 428 534 305 216 316 415
8 419 323 434 536 308 222 322 417
8 419 323 222 308 537 431 319 418
8 421 327 225 310 539 438 325 420
8 421 327 439 541 310 225 326 423
8 543 437 324 422 423 326 224 311
8 441 338 259 368 559 452 367 486
8 443 340 236 329 560 453 338 441
8 333 240 344 447 442 342 457 561
8 445 341 237 331 562 455 340 443
8 448 345 241 334 563 454 339 444
8 563 454 339 444 445 341 237 331
8 336 242 346 450 446 343 458 565
8 446 343 458 565 333 240 344 447
8 449 347 243 335 567 460 345 448
8 451 348 244 337 568 462 347 449
8 451 348 461 569 337 244 346 450
8 570 463 349 452 473 360 257 365
8 453 350 245 338 570 463 349 452
8 455 352 247 340 571 464 350 453
8 460 357 252 345 572 465 351 454
8 572 465 351 454 456 353 248 341
8 456 353 248 341 573 466 352 455
8 344 251 356 459 457 354 468 575
8 458 355 469 576 344 251 356 459
8 346 253 358 461 458 355 469 576
8 462 359 254 347 578 471 357 460
8 348 255 359 462 461 358 472 579
8 591 474 360 473 475 361 256 363
8 475 361 256 363 594 477 362 479
8 363 256 364 482 479 362 480 603
8 590 473 365 484 481 363 482 605
8 482 364 257 365 606 483 366 485
8 559 452 367 486 484 365 485 607
8 542 436 487 609 422 324 369 488
8 525 422 488 611 407 311 371 491
8 488 369 489 612 371 261 370 490
8 491 371 490 613 373 263 372 492
8 495 386 276 377 614 503 385 493
8 614 503 385 493 561 457 342 442
8 615 501 383 494 495 386 276 377
8 496 384 274 378 615 501 383 494
8 618 500 382 497 496 384 274 378
8 619 499 381 498 497 382 272 379
8 511 408 297 393 619 499 381 498
8 620 505 387 499 500 388 278 382
8 527 424 312 408 620 505 387 499
8 502 390 506 621 384 280 388 500
8 622 507 389 501 504 392 282 386
8 502 390 280 384 622 507 389 501
8 504 392 282 386 624 509 391 503
8 624 509 391 503 575 468 354 457
8 513 410 299 395 630 527 408 511
8 631 528 411 514 512 409 300 396
8 513 410 528 631 395 299 409 512
8 519 416 305 401 633 530 411 514
8 634 531 412 515 516 413 302 398
8 523 420 309 405 634 531 412 515
8 635 532 413 516 517 414 303 399
8 521 417 533 636 403 306 414 517
8 520 418 307 402 637 534 415 518
8 519 416 534 637 401 305 415 518
8 522 419 308 404 639 537 418 520
8 522 419 536 640 404 308 417 521
8 524 421 310 406 642 539 420 523
8 524 421 541 644 406 310 423 526
8 646 543 422 525 526 423 311 407
8 529 426 314 410 647 544 424 527
8 528 425 545 648 411 315 427 530
8 529 426 545 648 410 314 425 528
8 535 429 317 416 649 546 427 530
8 650 548 430 531 532 432 320 413
8 539 438 325 420 650 548 430 531
8 533 433 550 651 414 321 432 532
8 536 434 551 652 417 322 433 533
8 537 431 319 418 653 547 428 534
8 535 429 547 653 416 317 428 534
8 538 435 552 654 419 323 434 536
8 538 435 323 419 655 549 431 537
8 540 440 327 421 657 556 438 539
8 540 440 557 659 421 327 439 541
8 541 439 555 660 423 326 437 543
8 661 554 436 542 543 437 324 422
8 676 570 452 559 590 473 365 484
8 560 453 338 441 676 570 452 559
8 562 455 340 443 677 571 453 560
8 447 344 459 566 561 457 575 678
8 564 456 341 445 679 573 455 562
8 567 460 345 448 680 572 454 563
8 680 572 454 563 564 456 341 445
8 565 458 576 682 447 344 459 566
8 450 346 461 569 565 458 576 682
8 568 462 347 449 684 578 460 567
8 451 348 462 568 569 461 579 685
8 686 580 463 570 591 474 360 473
8 571 464 350 453 686 580 463 570
8 573 466 352 455 687 581 464 571
8 572 465 582 688 460 357 471 578
8 574 467 582 688 456 353 465 572
8 574 467 353 456 689 583 466 573
8 459 356 470 577 575 468 585 691
8 576 469 586 692 459 356 470 577
8 461 358 472 579 576 469 586 692
8 462 359 471 578 579 472 588 694
8 704 591 473 590 593 475 363 481
8 595 476 592 705 475 361 474 591
8 593 475 363 481 707 594 479 602
8 594 477 362 479 709 598 478 600
8 595 476 361 475 711 597 477 594
8 479 362 480 603 600 478 601 720
8 481 363 482 605 602 479 603 722
8 603 480 364 482 723 604 483 606
8 605 482 365 484 724 606 485 607
8 656 553 608 726 542 436 487 609
8 645 542 609 728 525 422 488 611
8 609 487 610 729 488 369 489 612
8 611 488 612 730 491 371 490 613
8 616 504 386 495 731 624 503 614
8 731 624 503 614 678 575 457 561
8 732 622 501 615 616 504 386 495
8 617 502 384 496 732 622 501 615
8 617 502 621 735 496 384 500 618
8 736 620 499 619 618 500 382 497
8 630 527 408 511 736 620 499 619
8 621 506 626 737 500 388 505 620
8 647 544 424 527 737 626 505 620
8 623 508 627 738 502 390 506 621
8 623 508 390 502 739 628 507 622
8 625 510 628 739 504 392 507 622
8 740 629 509 624 691 585 468 575
8 625 510 392 504 740 629 509 624
8 632 529 410 513 744 647 527 630
8 631 528 648 745 514 411 530 633
8 632 529 648 745 513 410 528 631
8 638 535 416 519 746 649 530 633
8 747 650 531 634 635 532 413 516
8 642 539 420 523 747 650 531 634
8 636 533 651 748 517 414 532 635
8 640 536 652 749 521 417 533 636
8 639 537 418 520 750 653 534 637
8 638 535 653 750 519 416 534 637
8 641 538 419 522 751 655 537 639
8 641 538 654 752 522 419 536 640
8 643 540 421 524 753 657 539 642
8 643 540 659 755 524 421 541 644
8 644 541 660 757 526 423 543 646
8 758 661 542 645 646 543 422 525
8 529 426 544 647 648 545 662 759
8 530 427 545 648 649 546 663 760
8 535 429 546 649 653 547 664 761
8 762 666 548 650 651 550 432 532
8 657 556 438 539 762 666 548 650
8 652 551 668 763 533 433 550 651
8 654 552 669 764 536 434 551 652
8 655 549 431 537 765 665 547 653
8 538 435 549 655 654 552 667 766
8 661 554 671 768 542 436 553 656
8 658 558 440 540 769 674 556 657
8 658 558 675 770 540 440 557 659
8 659 557 673 771 541 439 555 660
8 660 555 672 772 543 437 554 661
8 788 686 570 676 704 591 473 590
8 677 571 453 560 788 686 570 676
8 679 573 455 562 789 687 571 677
8 566 459 577 683 678 575 691 790
8 681 574 456 564 791 689 573 679
8 680 572 688 792 567 460 578 684
8 681 574 688 792 564 456 572 680
8 682 576 692 794 566 459 577 683
8 569 461 579 685 682 576 692 794
8 568 462 578 684 685 579 694 796
8 687 581 464 571 798 696 580 686
8 798 696 580 686 705 592 474 591
8 689 583 466 573 799 697 581 687
8 688 582 698 800 578 471 588 694
8 690 584 698 800 574 467 582 688
8 690 584 467 574 801 699 583 689
8 693 587 701 803 577 470 585 691
8 693 587 470 577 804 702 586 692
8 695 589 702 804 579 472 586 692
8 695 589 472 579 805 703 588 694
8 708 595 705 813 593 475 591 704
8 710 596 706 814 595 476 592 705
8 707 594 479 602 816 709 600 719
8 708 595 475 593 817 711 594 707
8 709 598 478 600 819 715 599 717
8 711 597 477 594 820 714 598 709
8 710 596 476 595 822 713 597 711
8 600 478 601 720 717 599 718 832
8 602 479 603 722 719 600 720 834
8 720 601 480 603 835 721 604 723
8 722 603 482 605 836 723 606 724
8 767 670 725 839 656 553 608 726
8 756 656 726 841 645 542 609 728
8 726 608 727 842 609 487 610 729
8 728 609 729 843 611 488 612 730
8 844 740 624 731 790 691 575 678
8 733 625 504 616 844 740 624 731
8 734 623 502 617 845 739 622 732
8 733 625 739 845 616 504 622 732
8 734 623 738 846 617 502 621 735
8 735 621 737 847 618 500 620 736
8 744 647 527 630 847 737 620 736
8 621 506 627 738 737 626 741 848
8 647 544 626 737 759 662 741 848
8 623 508 628 739 738 627 742 849
8 740 629 585 691 850 743 700 802
8 625 510 629 740 739 628 743 850
8 632 529 647 744 745 648 759 854
8 633 530 648 745 746 649 760 855
8 638 535 649 746 750 653 761 856
8 857 762 650 747 748 651 532 635
8 753 657 539 642 857 762 650 747
8 749 652 763 858 636 533 651 748
8 752 654 764 859 640 536 652 749
8 751 655 537 639 860 765 653 750
8 641 538 655 751 752 654 766 861
8 754 658 540 643 862 769 657 753
8 754 658 770 863 643 540 659 755
8 755 659 771 864 644 541 660 757
8 758 661 768 866 645 542 656 756
8 757 660 772 867 646 543 661 758
8 759 662 773 868 648 545 663 760
8 649 546 663 760 761 664 774 871
8 765 665 547 653 872 775 664 761
8 873 777 666 762 763 668 550 651
8 769 674 556 657 873 777 666 762
8 764 669 779 874 652 551 668 763
8 654 552 667 766 764 669 778 875
8 655 549 665 765 766 667 776 876
8 768 671 782 877 656 553 670 767
8 772 672 783 878 661 554 671 768
8 658 558 674 769 770 675 786 879
8 659 557 675 770 771 673 785 881
8 882 784 672 772 771 673 555 660
8 789 687 571 677 897 798 686 788
8 897 798 686 788 813 705 591 704
8 791 689 573 679 898 799 687 789
8 795 693 803 900 683 577 691 790
8 793 690 574 681 901 801 689 791
8 792 688 800 902 684 578 694 796
8 793 690 800 902 681 574 688 792
8 795 693 577 683 903 804 692 794
8 797 695 804 903 685 579 692 794
8 797 695 579 685 904 805 694 796
8 905 806 697 799 798 696 581 687
8 814 706 806 905 705 592 696 798
8 689 583 697 799 801 699 808 907
8 800 698 809 908 694 588 703 805
8 690 584 699 801 800 698 809 908
8 803 701 810 909 691 585 700 802
8 693 587 702 804 803 701 811 910
8 695 589 703 805 804 702 812 911
8 818 710 814 919 708 595 705 813
8 821 712 815 920 710 596 706 814
8 816 709 600 719 922 819 717 831
8 817 711 594 707 923 820 709 816
8 818 710 595 708 924 822 711 817
8 819 715 599 717 926 827 716 829
8 820 714 598 709 927 826 715 819
8 929 825 713 822 820 714 597 711
8 821 712 596 710 930 824 713 822
8 717 599 718 832 829 716 830 942
8 719 600 720 834 831 717 832 944
8 832 718 601 720 945 833 721 835
8 834 720 603 722 946 835 723 836
8 869 780 838 950 767 670 725 839
8 865 767 839 952 756 656 726 841
8 839 725 840 953 726 608 727 842
8 841 726 842 954 728 609 729 843
8 844 740 691 790 955 850 802 899
8 733 625 740 844 845 739 850 955
8 734 623 739 845 846 738 849 956
8 735 621 738 846 847 737 848 957
8 744 647 737 847 854 759 848 957
8 738 627 742 849 848 741 851 958
8 848 741 851 958 759 662 773 868
8 850 743 700 802 959 852 807 906
8 849 742 628 739 959 852 743 850
8 854 759 868 965 745 648 760 855
8 746 649 760 855 856 761 871 966
8 860 765 653 750 967 872 761 856
8 968 873 762 857 858 763 651 748
8 862 769 657 753 968 873 762 857
8 859 764 874 969 749 652 763 858
8 752 654 766 861 859 764 875 970
8 751 655 765 860 861 766 876 971
8 754 658 769 862 863 770 879 972
8 755 659 770 863 864 771 881 974
8 976 882 772 867 864 771 660 757
8 866 768 877 977 756 656 767 865
8 867 772 878 978 758 661 768 866
8 760 663 773 868 871 774 883 980
8 870 781 837 948 982 890 780 869
8 982 890 780 869 877 782 670 767
8 761 664 774 871 872 775 884 984
8 876 776 665 765 985 885 775 872
8 873 777 668 763 986 887 779 874
8 769 674 777 873 879 786 887 986
8 764 669 778 875 874 779 888 987
8 766 667 776 876 875 778 886 988
8 878 783 892 989 768 671 782 877
8 878 783 672 772 990 893 784 882
8 880 787 675 770 991 896 786 879
8 880 787 895 992 770 675 785 881
8 881 785 894 993 771 673 784 882
8 1006 905 799 898 897 798 687 789
8 919 814 905 1006 813 705 798 897
8 791 689 799 898 901 801 907 1007
8 900 803 909 1009 790 691 802 899
8 795 693 804 903 900 803 910 1010
8 902 800 908 1011 796 694 805 904
8 793 690 801 901 902 800 908 1011
8 797 695 805 904 903 804 911 1012
8 799 697 806 905 907 808 912 1013
8 920 815 912 1013 814 706 806 905
8 802 700 810 909 906 807 913 1014
8 801 699 808 907 908 809 914 1015
8 805 703 809 908 911 812 915 1016
8 803 701 811 910 909 810 916 1017
8 911 812 917 1018 804 702 811 910
8 925 821 920 1030 818 710 814 919
8 928 823 921 1031 821 712 815 920
8 922 819 717 831 1033 926 829 941
8 923 820 709 816 1034 927 819 922
8 1035 929 822 924 923 820 711 817
8 925 821 710 818 1036 930 822 924
8 1038 933 825 929 927 826 714 820
8 926 827 716 829 1039 935 828 939
8 927 826 715 819 1040 934 827 926
8 928 823 712 821 1041 931 824 930
8 1042 932 824 930 929 825 713 822
8 829 716 830 942 939 828 940 1058
8 831 717 832 944 941 829 942 1060
8 942 830 718 832 1061 943 833 945
8 944 832 720 834 1062 945 835 946
8 981 889 947 1064 870 781 837 948
8 948 837 949 1067 869 780 838 950
8 975 869 950 1069 865 767 839 952
8 950 838 951 1070 839 725 840 953
8 952 839 953 1071 841 726 842 954
8 955 850 802 899 1072 959 906 1008
8 956 849 739 845 1072 959 850 955
8 846 738 849 956 957 848 958 1073
8 957 848 958 1073 854 759 868 965
8 849 742 852 959 958 851 961 1076
8 960 853 961 1076 906 807 852 959
8 958 851 961 1076 868 773 883 980
8 960 853 807 906 1077 963 913 1014
8 855 760 868 965 966 871 980 1085
8 856 761 871 966 967 872 984 1086
8 971 876 765 860 1087 985 872 967
8 968 873 763 858 1088 986 874 969
8 862 769 873 968 972 879 986 1088
8 859 764 875 970 969 874 987 1089
8 861 766 876 971 970 875 988 1090
8 973 880 770 863 1091 991 879 972
8 973 880 992 1092 863 770 881 974
8 974 881 993 1093 864 771 882 976
8 979 870 948 1066 1094 982 869 975
8 1094 982 869 975 977 877 767 865
8 978 878 772 867 1095 990 882 976
8 978 878 989 1096 866 768 877 977
8 871 774 883 980 984 884 994 1099
8 983 891 999 1100 870 781 889 981
8 1101 1000 890 982 989 892 782 877
8 983 891 781 870 1101 1000 890 982
8 872 775 884 984 985 885 995 1103
8 876 776 885 985 988 886 996 1104
8 986 887 779 874 1105 998 888 987
8 879 786 887 986 991 896 998 1105
8 875 778 886 988 987 888 997 1106
8 990 893 1002 1107 878 783 892 989
8 1108 1003 893 990 993 894 784 882
8 880 787 896 991 992 895 1005 1109
8 993 894 785 881 1110 1004 895 992
8 898 799 905 1006 1007 907 1013 1120
8 1030 920 1013 1120 919 814 905 1006
8 901 801 907 1007 1011 908 1015 1121
8 899 802 909 1009 1008 906 1014 1122
8 900 803 910 1010 1009 909 1017 1123
8 1012 911 1018 1124 903 804 910 1010
8 904 805 908 1011 1012 911 1016 1125
8 1013 912 1020 1127 907 808 914 1015
8 1031 921 1020 1127 920 815 912 1013
8 1019 918 962 1075 1128 1021 913 1014
8 1128 1021 913 1014 1017 916 810 909
8 1015 914 1022 1129 908 809 915 1016
8 1016 915 1023 1130 911 812 917 1018
8 1018 917 1024 1131 910 811 916 1017
8 1037 928 1031 1148 925 821 920 1030
8 928 823 931 1041 1031 921 1032 1149
8 1033 926 829 941 1151 1039 939 1057
8 1034 927 819 922 1152 1040 926 1033
8 1153 1038 929 1035 1034 927 820 923
8 1154 1042 930 1036 1035 929 822 924
8 1037 928 821 925 1155 1041 930 1036
8 1039 935 828 939 1156 1047 938 1055
8 1157 1043 932 1042 1038 933 825 929
8 1038 933 826 927 1158 1045 934 1040
8 1040 934 827 926 1159 1046 935 1039
8 930 824 932 1042 1041 931 1044 1160
8 1051 936 1048 1165 1175 1052 937 1053
8 1156 1047 938 1055 1053 937 1054 1178
8 939 828 940 1058 1055 938 1056 1181
8 941 829 942 1060 1057 939 1058 1183
8 942 830 943 1061 1058 940 1059 1184
8 1060 942 832 944 1185 1061 945 1062
8 1082 964 1063 1188 981 889 947 1064
8 1097 981 1064 1190 979 870 948 1066
8 1064 947 1065 1191 948 837 949 1067
8 1066 948 1067 1193 975 869 950 1069
8 1067 949 1068 1194 950 838 951 1070
8 1069 950 1070 1195 952 839 953 1071
8 956 849 959 1072 1073 958 1076 1197
8 1074 960 1076 1197 1008 906 959 1072
8 1073 958 1076 1197 965 868 980 1085
8 1074 960 906 1008 1198 1077 1014 1122
8 1133 1026 1079 1199 1019 918 962 1075
8 1077 963 913 1014 1200 1080 962 1075
8 960 853 963 1077 1076 961 1078 1201
8 980 883 961 1076 1099 994 1078 1201
8 1210 1083 964 1082 1100 999 889 981
8 966 871 980 1085 1086 984 1099 1215
8 967 872 984 1086 1087 985 1103 1216
8 971 876 985 1087 1090 988 1104 1217
8 1088 986 874 969 1218 1105 987 1089
8 972 879 986 1088 1091 991 1105 1218
8 970 875 988 1090 1089 987 1106 1219
8 973 880 991 1091 1092 992 1109 1220
8 1093 993 881 974 1221 1110 992 1092
8 1222 1108 990 1095 1093 993 882 976
8 1223 1101 982 1094 1096 989 877 977
8 1098 983 870 979 1223 1101 982 1094
8 1095 990 1107 1224 978 878 989 1096
8 1098 983 1100 1225 979 870 981 1097
8 984 884 994 1099 1103 995 1111 1227
8 1102 1001 1115 1228 983 891 999 1100
8 1101 1000 892 989 1229 1116 1002 1107
8 1102 1001 891 983 1229 1116 1000 1101
8 985 885 995 1103 1104 996 1112 1230
8 988 886 996 1104 1106 997 1113 1231
8 1105 998 888 987 1232 1114 997 1106
8 991 896 998 1105 1109 1005 1114 1232
8 1108 1003 1117 1233 990 893 1002 1107
8 1108 1003 894 993 1233 1117 1004 1110
8 992 895 1005 1109 1110 1004 1118 1234
8 1120 1013 1127 1244 1007 907 1015 1121
8 1148 1031 1127 1244 1030 920 1013 1120
8 1121 1015 1129 1245 1011 908 1016 1125
8 1126 1019 1075 1196 1246 1128 1014 1122
8 1246 1128 1014 1122 1123 1017 909 1009
8 1124 1018 1131 1247 1010 910 1017 1123
8 1125 1016 1130 1248 1012 911 1018 1124
8 1127 1020 1137 1254 1015 914 1022 1129
8 1031 921 1032 1149 1127 1020 1137 1254
8 1134 1027 918 1019 1257 1140 1021 1128
8 1257 1140 1021 1128 1131 1024 916 1017
8 1129 1022 1141 1258 1016 915 1023 1130
8 1130 1023 1142 1259 1018 917 1024 1131
8 1261 1144 1025 1132 1133 1026 1079 1199
8 1255 1138 1025 1132 1135 1028 1144 1261
8 1133 1026 918 1019 1262 1145 1027 1134
8 1136 1029 1139 1256 1263 1146 1028 1135
8 1037 928 1041 1155 1148 1031 1149 1275
8 1041 931 1044 1160 1149 1032 1150 1276
8 1151 1039 939 1057 1278 1156 1055 1180
8 1152 1040 926 1033 1279 1159 1039 1151
8 1153 1038 927 1034 1280 1158 1040 1152
8 1281 1157 1042 1154 1153 1038 929 1035
8 1036 930 1042 1154 1155 1041 1160 1282
8 1283 1164 1046 1159 1156 1047 935 1039
8 1165 1048 1164 1283 1053 937 1047 1156
8 1157 1043 933 1038 1284 1161 1045 1158
8 1157 1043 1161 1284 1042 932 1044 1160
8 1040 934 1046 1159 1158 1045 1163 1285
8 1166 1049 1167 1292 1051 936 1048 1165
8 1166 1049 936 1051 1293 1168 1050 1172
8 1051 936 1052 1175 1172 1050 1173 1306
8 1174 1051 1165 1290 1308 1175 1053 1177
8 1053 937 1054 1178 1175 1052 1176 1309
8 1278 1156 1055 1180 1177 1053 1178 1311
8 1055 938 1056 1181 1178 1054 1179 1312
8 1057 939 1058 1183 1180 1055 1181 1314
8 1058 940 1059 1184 1181 1056 1182 1315
8 1060 942 1061 1185 1183 1058 1184 1316
8 1208 1081 1187 1321 1082 964 1063 1188
8 1209 1082 1188 1322 1097 981 1064 1190
8 1188 1063 1189 1323 1064 947 1065 1191
8 1190 1064 1191 1325 1066 948 1067 1193
8 1191 1065 1192 1326 1067 949 1068 1194
8 1067 1193 1069 950 1194 1327 1195 1070
8 1250 1133 1199 1330 1126 1019 1075 1196
8 1198 1077 1014 1122 1331 1200 1075 1196
8 1074 960 1077 1198 1197 1076 1201 1332
8 1085 980 1076 1197 1215 1099 1201 1332
8 1199 1079 1203 1333 1075 962 1080 1200
8 1132 1025 1119 1243 1199 1079 1203 1333
8 1201 1078 963 1077 1334 1202 1080 1200
8 1099 994 1078 1201 1227 1111 1202 1334
8 1343 1207 1081 1208 1210 1083 964 1082
8 1214 1084 1186 1319 1343 1207 1081 1208
8 1345 1210 1082 1209 1225 1100 981 1097
8 1346 1211 1083 1210 1228 1115 999 1100
8 1086 984 1099 1215 1216 1103 1227 1352
8 1087 985 1103 1216 1217 1104 1230 1353
8 1090 988 1104 1217 1219 1106 1231 1354
8 1218 1105 987 1089 1355 1232 1106 1219
8 1091 991 1105 1218 1220 1109 1232 1355
8 1092 992 1109 1220 1221 1110 1234 1356
8 1222 1108 1233 1357 1095 990 1107 1224
8 1222 1108 993 1093 1357 1233 1110 1221
8 1223 1101 989 1096 1358 1229 1107 1224
8 1226 1102 983 1098 1358 1229 1101 1223
8 1226 1102 1228 1359 1098 983 1100 1225
8 1103 995 1111 1227 1230 1112 1235 1360
8 1107 1002 1117 1233 1229 1116 1240 1362
8 1102 1001 1116 1229 1228 1115 1240 1362
8 1104 996 1112 1230 1231 1113 1236 1363
8 1364 1237 1114 1232 1231 1113 997 1106
8 1109 1005 1114 1232 1234 1118 1238 1365
8 1110 1004 1118 1234 1233 1117 1241 1366
8 1242 1374 1255 1138 1119 1243 1132 1025
8 1244 1127 1254 1376 1121 1015 1129 1245
8 1148 1031 1149 1275 1244 1127 1254 1376
8 1245 1129 1258 1377 1125 1016 1130 1248
8 1251 1134 1019 1126 1378 1257 1128 1246
8 1378 1257 1128 1246 1247 1131 1017 1123
8 1248 1130 1259 1379 1124 1018 1131 1247
8 1261 1381 1250 1133 1132 1249 1330 1199
8 1255 1380 1252 1135 1132 1249 1381 1261
8 1250 1133 1019 1126 1382 1262 1134 1251
8 1253 1136 1256 1385 1384 1263 1135 1252
8 1254 1137 1265 1387 1129 1022 1141 1258
8 1149 1032 1150 1276 1254 1137 1265 1387
8 1028 1135 1255 1138 1139 1256 1388 1266
8 1136 1029 1147 1264 1256 1139 1267 1389
8 1390 1268 1140 1257 1259 1142 1024 1131
8 1260 1143 1027 1134 1390 1268 1140 1257
8 1258 1141 1269 1391 1130 1023 1142 1259
8 1262 1145 1027 1134 1393 1271 1143 1260
8 1261 1144 1026 1133 1394 1272 1145 1262
8 1135 1028 1144 1261 1263 1146 1272 1394
8 1136 1029 1146 1263 1264 1147 1273 1395
8 1155 1041 1160 1282 1275 1149 1276 1405
8 1276 1150 1044 1160 1406 1277 1162 1286
8 1408 1283 1159 1279 1278 1156 1039 1151
8 1290 1165 1283 1408 1177 1053 1156 1278
8 1152 1040 1159 1279 1280 1158 1285 1409
8 1281 1157 1038 1153 1410 1284 1158 1280
8 1281 1157 1284 1410 1154 1042 1160 1282
8 1159 1046 1164 1283 1285 1163 1289 1412
8 1292 1167 1289 1412 1165 1048 1164 1283
8 1158 1045 1163 1285 1284 1161 1288 1413
8 1284 1161 1288 1413 1160 1044 1162 1286
8 1291 1166 1292 1418 1174 1051 1165 1290
8 1291 1166 1051 1174 1419 1293 1172 1305
8 1294 1169 1296 1421 1166 1049 1167 1292
8 1293 1168 1050 1172 1422 1295 1171 1303
8 1294 1169 1049 1166 1423 1297 1168 1293
8 1422 1295 1171 1303 1301 1170 1302 1435
8 1172 1050 1173 1306 1303 1171 1304 1438
8 1174 1051 1175 1308 1305 1172 1306 1440
8 1175 1052 1176 1309 1306 1173 1307 1441
8 1177 1053 1178 1311 1308 1175 1309 1443
8 1178 1054 1179 1312 1309 1176 1310 1444
8 1180 1055 1181 1314 1311 1178 1312 1446
8 1056 1181 1312 1179 1182 1315 1447 1313
8 1183 1058 1184 1316 1314 1181 1315 1448
8 1319 1186 1084 1214 1451 1317 1213 1350
8 1319 1186 1318 1453 1208 1081 1187 1321
8 1321 1187 1320 1456 1188 1063 1189 1323
8 1344 1208 1321 1457 1209 1082 1188 1322
8 1322 1188 1323 1458 1190 1064 1191 1325
8 1323 1189 1324 1459 1191 1065 1192 1326
8 1191 1325 1193 1067 1326 1460 1327 1194
8 1242 1374 1243 1119 1328 1462 1335 1204
8 1330 1199 1333 1465 1196 1075 1200 1331
8 1132 1249 1330 1199 1243 1375 1465 1333
8 1332 1201 1077 1198 1466 1334 1200 1331
8 1215 1099 1201 1332 1352 1227 1334 1466
8 1119 1243 1333 1203 1204 1335 1470 1338
8 1333 1203 1338 1470 1200 1080 1202 1334
8 1227 1111 1202 1334 1360 1235 1338 1470
8 1328 1462 1335 1204 1205 1336 1471 1339
8 1337 1206 1340 1472 1464 1329 1205 1336
8 1346 1211 1342 1479 1210 1083 1207 1343
8 1346 1211 1115 1228 1479 1342 1239 1361
8 1348 1212 1084 1214 1479 1342 1207 1343
8 1480 1343 1208 1344 1345 1210 1082 1209
8 1351 1214 1319 1454 1480 1343 1208 1344
8 1481 1346 1210 1345 1359 1228 1100 1225
8 1348 1212 1347 1483 1214 1084 1213 1350
8 1216 1103 1227 1352 1353 1230 1360 1488
8 1217 1104 1230 1353 1354 1231 1363 1489
8 1490 1364 1232 1355 1354 1231 1106 1219
8 1220 1109 1232 1355 1356 1234 1365 1491
8 1221 1110 1234 1356 1357 1233 1366 1492
8 1224 1107 1233 1357 1358 1229 1362 1493
8 1226 1102 1229 1358 1359 1228 1362 1493
8 1230 1112 1235 1360 1363 1236 1367 1496
8 1361 1239 1115 1228 1497 1371 1240 1362
8 1366 1241 1372 1498 1233 1117 1240 1362
8 1364 1237 1113 1231 1499 1368 1236 1363
8 1364 1237 1368 1499 1232 1114 1238 1365
8 1234 1118 1238 1365 1366 1241 1369 1500
8 1507 1373 1242 1374 1388 1266 1138 1255
8 1508 1374 1243 1375 1380 1255 1132 1249
8 1376 1254 1387 1509 1245 1129 1258 1377
8 1275 1149 1276 1405 1376 1254 1387 1509
8 1377 1258 1391 1510 1248 1130 1259 1379
8 1511 1390 1257 1378 1379 1259 1131 1247
8 1383 1260 1134 1251 1511 1390 1257 1378
8 1252 1135 1256 1385 1380 1255 1388 1512
8 1261 1381 1513 1394 1133 1250 1382 1262
8 1135 1252 1384 1263 1261 1381 1513 1394
8 1382 1262 1134 1251 1514 1393 1260 1383
8 1253 1136 1263 1384 1386 1264 1395 1516
8 1253 1136 1264 1386 1385 1256 1389 1517
8 1387 1265 1397 1519 1258 1141 1269 1391
8 1276 1150 1277 1406 1387 1265 1397 1519
8 1256 1139 1267 1389 1388 1266 1398 1520
8 1264 1147 1274 1396 1389 1267 1399 1521
8 1392 1270 1143 1260 1522 1400 1268 1390
8 1390 1268 1142 1259 1522 1400 1269 1391
8 1392 1270 1401 1523 1260 1143 1271 1393
8 1272 1394 1524 1402 1145 1262 1393 1271
8 1395 1273 1146 1263 1524 1402 1272 1394
8 1273 1395 1264 1147 1403 1526 1396 1274
8 1405 1276 1160 1282 1534 1406 1286 1411
8 1414 1287 1407 1535 1286 1162 1277 1406
8 1279 1159 1283 1408 1409 1285 1412 1537
8 1418 1292 1412 1537 1290 1165 1283 1408
8 1280 1158 1285 1409 1410 1284 1413 1538
8 1410 1284 1413 1538 1282 1160 1286 1411
8 1285 1163 1289 1412 1413 1288 1417 1540
8 1421 1296 1417 1540 1292 1167 1289 1412
8 1414 1287 1162 1286 1541 1416 1288 1413
8 1420 1294 1421 1545 1291 1166 1292 1418
8 1419 1293 1172 1305 1546 1422 1303 1437
8 1420 1294 1166 1291 1547 1423 1293 1419
8 1294 1169 1297 1423 1421 1296 1425 1548
8 1423 1297 1168 1293 1549 1424 1295 1422
8 1301 1170 1298 1427 1422 1295 1424 1549
8 1432 1300 1428 1554 1301 1170 1298 1427
8 1431 1299 1428 1554 1560 1430 1300 1432
8 1563 1433 1300 1432 1435 1302 1170 1301
8 1546 1422 1303 1437 1434 1301 1435 1565
8 1303 1171 1304 1438 1435 1302 1436 1566
8 1305 1172 1306 1440 1437 1303 1438 1568
8 1306 1173 1307 1441 1438 1304 1439 1569
8 1308 1175 1309 1443 1440 1306 1441 1571
8 1309 1176 1310 1444 1441 1307 1442 1572
8 1311 1178 1312 1446 1443 1309 1444 1574
8 1179 1312 1444 1310 1313 1447 1575 1445
8 1314 1181 1315 1448 1446 1312 1447 1576
8 1350 1213 1349 1486 1451 1317 1449 1579
8 1451 1317 1450 1581 1319 1186 1318 1453
8 1454 1319 1214 1351 1582 1451 1350 1487
8 1453 1318 1452 1584 1321 1187 1320 1456
8 1454 1319 1453 1585 1344 1208 1321 1457
8 1456 1320 1455 1586 1323 1189 1324 1459
8 1457 1321 1456 1587 1322 1188 1323 1458
8 1458 1323 1459 1588 1325 1191 1326 1460
8 1205 1336 1464 1329 1328 1462 1590 1461
8 1507 1373 1461 1590 1374 1242 1328 1462
8 1508 1374 1462 1591 1375 1243 1335 1467
8 1337 1206 1329 1464 1473 1341 1463 1594
8 1375 1243 1335 1467 1465 1333 1470 1596
8 1465 1333 1470 1596 1331 1200 1334 1466
8 1352 1227 1334 1466 1488 1360 1470 1596
8 1591 1462 1336 1468 1467 1335 1471 1597
8 1469 1337 1472 1598 1595 1464 1336 1468
8 1471 1339 1474 1600 1335 1204 1338 1470
8 1600 1474 1367 1496 1470 1338 1235 1360
8 1336 1205 1340 1472 1471 1339 1475 1601
8 1337 1206 1341 1473 1472 1340 1476 1602
8 1495 1370 1478 1609 1361 1239 1342 1479
8 1348 1212 1342 1479 1483 1347 1478 1609
8 1481 1346 1479 1610 1345 1210 1343 1480
8 1481 1346 1228 1359 1610 1479 1361 1494
8 1484 1348 1214 1351 1610 1479 1343 1480
8 1483 1347 1482 1612 1350 1213 1349 1486
8 1484 1348 1483 1613 1351 1214 1350 1487
8 1353 1230 1360 1488 1489 1363 1496 1616
8 1490 1364 1231 1354 1617 1499 1363 1489
8 1490 1364 1499 1617 1355 1232 1365 1491
8 1356 1234 1365 1491 1492 1366 1500 1619
8 1492 1366 1498 1620 1357 1233 1362 1493
8 1494 1361 1228 1359 1621 1497 1362 1493
8 1495 1370 1239 1361 1622 1504 1371 1497
8 1363 1236 1367 1496 1499 1368 1501 1623
8 1497 1371 1240 1362 1624 1505 1372 1498
8 1625 1503 1372 1498 1500 1369 1241 1366
8 1365 1238 1368 1499 1500 1369 1502 1626
8 1520 1398 1506 1633 1388 1266 1373 1507
8 1634 1507 1374 1508 1512 1388 1255 1380
8 1509 1387 1519 1635 1377 1258 1391 1510
8 1405 1276 1406 1534 1509 1387 1519 1635
8 1515 1392 1260 1383 1636 1522 1390 1511
8 1511 1390 1259 1379 1636 1522 1391 1510
8 1385 1256 1389 1517 1512 1388 1520 1637
8 1513 1394 1262 1382 1638 1524 1393 1514
8 1395 1516 1638 1524 1263 1384 1513 1394
8 1515 1392 1523 1639 1383 1260 1393 1514
8 1516 1395 1526 1640 1386 1264 1396 1518
8 1386 1264 1396 1518 1517 1389 1521 1641
8 1519 1397 1527 1643 1391 1269 1400 1522
8 1535 1407 1527 1643 1406 1277 1397 1519
8 1389 1267 1399 1521 1520 1398 1528 1644
8 1645 1529 1399 1521 1525 1404 1274 1396
8 1392 1270 1400 1522 1523 1401 1531 1646
8 1524 1402 1271 1393 1648 1532 1401 1523
8 1403 1526 1648 1532 1273 1395 1524 1402
8 1525 1404 1274 1396 1649 1533 1403 1526
8 1539 1414 1535 1657 1411 1286 1406 1534
8 1542 1415 1536 1658 1414 1287 1407 1535
8 1409 1285 1412 1537 1538 1413 1540 1660
8 1545 1421 1540 1660 1418 1292 1412 1537
8 1539 1414 1286 1411 1661 1541 1413 1538
8 1540 1417 1544 1663 1413 1288 1416 1541
8 1421 1296 1425 1548 1540 1417 1544 1663
8 1542 1415 1287 1414 1664 1543 1416 1541
8 1420 1294 1423 1547 1545 1421 1548 1666
8 1547 1423 1293 1419 1667 1549 1422 1546
8 1434 1301 1427 1553 1546 1422 1549 1667
8 1423 1297 1424 1549 1548 1425 1550 1668
8 1551 1426 1550 1668 1427 1298 1424 1549
8 1551 1426 1298 1427 1671 1552 1428 1554
8 1562 1432 1554 1674 1434 1301 1427 1553
8 1431 1299 1429 1558 1554 1428 1555 1675
8 1431 1299 1430 1560 1558 1429 1557 1680
8 1560 1430 1300 1432 1683 1559 1433 1563
8 1561 1431 1554 1674 1684 1560 1432 1562
8 1685 1563 1432 1562 1565 1435 1301 1434
8 1435 1302 1436 1566 1563 1433 1564 1686
8 1437 1303 1438 1568 1565 1435 1566 1688
8 1438 1304 1439 1569 1566 1436 1567 1689
8 1440 1306 1441 1571 1568 1438 1569 1691
8 1441 1307 1442 1572 1569 1439 1570 1692
8 1443 1309 1444 1574 1571 1441 1572 1694
8 1310 1444 1572 1442 1445 1575 1695 1573
8 1446 1312 1447 1576 1574 1444 1575 1696
8 1486 1349 1485 1614 1579 1449 1577 1699
8 1451 1317 1449 1579 1581 1450 1578 1701
8 1487 1350 1486 1615 1582 1451 1579 1702
8 1581 1450 1580 1704 1453 1318 1452 1584
8 1582 1451 1581 1705 1454 1319 1453 1585
8 1584 1452 1583 1706 1456 1320 1455 1586
8 1585 1453 1584 1707 1457 1321 1456 1587
8 1587 1456 1586 1708 1458 1323 1459 1588
8 1633 1506 1589 1710 1507 1373 1461 1590
8 1464 1329 1461 1590 1594 1463 1589 1710
8 1468 1336 1462 1591 1595 1464 1590 1711
8 1634 1507 1590 1711 1508 1374 1462 1591
8 1473 1341 1463 1594 1603 1477 1593 1716
8 1469 1337 1464 1595 1599 1473 1594 1717
8 1471 1597 1467 1335 1600 1718 1596 1470
8 1718 1600 1496 1616 1596 1470 1360 1488
8 1336 1468 1597 1471 1472 1598 1719 1601
8 1469 1337 1473 1599 1598 1472 1602 1720
8 1722 1604 1501 1623 1600 1474 1367 1496
8 1475 1601 1471 1339 1604 1722 1600 1474
8 1602 1476 1605 1723 1472 1340 1475 1601
8 1476 1602 1724 1606 1341 1473 1603 1477
8 1483 1347 1478 1609 1612 1482 1608 1731
8 1495 1370 1504 1622 1609 1478 1608 1731
8 1618 1495 1609 1732 1494 1361 1479 1610
8 1484 1348 1479 1610 1613 1483 1609 1732
8 1486 1349 1482 1612 1614 1485 1611 1733
8 1613 1483 1612 1734 1487 1350 1486 1615
8 1489 1363 1496 1616 1617 1499 1623 1736
8 1491 1365 1499 1617 1619 1500 1626 1737
8 1618 1495 1361 1494 1738 1622 1497 1621
8 1739 1625 1498 1620 1619 1500 1366 1492
8 1621 1497 1362 1493 1740 1624 1498 1620
8 1742 1631 1504 1622 1624 1505 1371 1497
8 1743 1628 1502 1626 1623 1501 1368 1499
8 1744 1630 1505 1624 1625 1503 1372 1498
8 1745 1629 1503 1625 1626 1502 1369 1500
8 1520 1398 1528 1644 1633 1506 1632 1751
8 1637 1520 1633 1752 1512 1388 1507 1634
8 1635 1519 1643 1753 1510 1391 1522 1636
8 1657 1535 1643 1753 1534 1406 1519 1635
8 1515 1392 1522 1636 1639 1523 1646 1754
8 1517 1389 1521 1641 1637 1520 1644 1755
8 1524 1638 1756 1648 1393 1514 1639 1523
8 1640 1526 1395 1516 1756 1648 1524 1638
8 1642 1525 1396 1518 1757 1649 1526 1640
8 1758 1645 1521 1641 1642 1525 1396 1518
8 1646 1531 1400 1522 1760 1650 1527 1643
8 1535 1407 1536 1658 1643 1527 1650 1760
8 1521 1399 1529 1645 1644 1528 1651 1761
8 1647 1530 1652 1762 1525 1404 1529 1645
8 1401 1523 1648 1532 1531 1646 1763 1655
8 1525 1404 1533 1649 1647 1530 1654 1765
8 1533 1649 1766 1656 1403 1526 1648 1532
8 1662 1542 1658 1774 1539 1414 1535 1657
8 1542 1415 1543 1664 1658 1536 1659 1775
8 1660 1540 1663 1777 1538 1413 1541 1661
8 1545 1421 1548 1666 1660 1540 1663 1777
8 1662 1542 1414 1539 1778 1664 1541 1661
8 1664 1543 1416 1541 1779 1665 1544 1663
8 1548 1425 1550 1668 1663 1544 1665 1779
8 1547 1423 1549 1667 1666 1548 1668 1781
8 1670 1551 1668 1781 1553 1427 1549 1667
8 1551 1426 1552 1671 1668 1550 1669 1782
8 1670 1551 1427 1553 1784 1671 1554 1674
8 1675 1555 1672 1785 1554 1428 1552 1671
8 1678 1556 1673 1789 1558 1429 1555 1675
8 1561 1431 1558 1681 1674 1554 1675 1790
8 1794 1677 1556 1678 1680 1557 1429 1558
8 1560 1430 1559 1683 1680 1557 1679 1797
8 1561 1431 1560 1684 1681 1558 1680 1798
8 1563 1433 1564 1686 1683 1559 1682 1800
8 1684 1560 1432 1562 1801 1683 1563 1685
8 1565 1435 1566 1688 1685 1563 1686 1802
8 1566 1436 1567 1689 1686 1564 1687 1803
8 1568 1438 1569 1691 1688 1566 1689 1805
8 1569 1439 1570 1692 1689 1567 1690 1806
8 1571 1441 1572 1694 1691 1569 1692 1808
8 1442 1572 1692 1570 1573 1695 1809 1693
8 1574 1444 1575 1696 1694 1572 1695 1810
8 1614 1485 1592 1712 1699 1577 1697 1813
8 1579 1449 1577 1699 1701 1578 1698 1815
8 1615 1486 1614 1735 1702 1579 1699 1816
8 1701 1578 1700 1818 1581 1450 1580 1704
8 1582 1451 1579 1702 1705 1581 1701 1819
8 1704 1580 1703 1820 1584 1452 1583 1706
8 1705 1581 1704 1821 1585 1453 1584 1707
8 1707 1584 1706 1822 1587 1456 1586 1708
8 1710 1589 1506 1633 1824 1709 1632 1751
8 1594 1463 1589 1710 1716 1593 1709 1824
8 1752 1633 1710 1825 1634 1507 1590 1711
8 1595 1464 1590 1711 1717 1594 1710 1825
8 1830 1714 1592 1712 1733 1611 1485 1614
8 1603 1477 1593 1716 1725 1607 1715 1834
8 1599 1473 1594 1717 1721 1603 1716 1835
8 1837 1722 1623 1736 1718 1600 1496 1616
8 1719 1601 1722 1837 1597 1471 1600 1718
8 1602 1720 1598 1472 1723 1838 1719 1601
8 1720 1602 1473 1599 1839 1724 1603 1721
8 1723 1605 1726 1840 1601 1475 1604 1722
8 1840 1726 1628 1743 1722 1604 1501 1623
8 1724 1606 1727 1841 1602 1476 1605 1723
8 1725 1607 1728 1842 1603 1477 1606 1724
8 1612 1482 1608 1731 1733 1611 1730 1849
8 1741 1627 1730 1849 1622 1504 1608 1731
8 1613 1483 1609 1732 1734 1612 1731 1850
8 1618 1495 1622 1738 1732 1609 1731 1850
8 1615 1486 1612 1734 1735 1614 1733 1851
8 1852 1743 1626 1737 1736 1623 1499 1617
8 1853 1745 1625 1739 1737 1626 1500 1619
8 1855 1742 1622 1738 1740 1624 1497 1621
8 1856 1744 1624 1740 1739 1625 1498 1620
8 1741 1627 1504 1622 1857 1746 1631 1742
8 1742 1631 1505 1624 1858 1749 1630 1744
8 1859 1747 1629 1745 1743 1628 1502 1626
8 1860 1748 1630 1744 1745 1629 1503 1625
8 1644 1528 1651 1761 1751 1632 1750 1865
8 1637 1520 1644 1755 1752 1633 1751 1866
8 1754 1646 1522 1636 1867 1760 1643 1753
8 1657 1535 1658 1774 1753 1643 1760 1867
8 1639 1523 1646 1754 1756 1648 1763 1868
8 1641 1521 1645 1758 1755 1644 1761 1869
8 1757 1649 1526 1640 1870 1766 1648 1756
8 1642 1525 1649 1757 1759 1647 1765 1871
8 1759 1647 1762 1872 1642 1525 1645 1758
8 1760 1650 1767 1874 1646 1531 1655 1763
8 1658 1536 1659 1775 1760 1650 1767 1874
8 1762 1652 1768 1875 1645 1529 1651 1761
8 1764 1653 1769 1876 1647 1530 1652 1762
8 1656 1766 1877 1773 1532 1648 1763 1655
8 1771 1879 1765 1654 1653 1764 1647 1530
8 1533 1649 1765 1654 1656 1766 1880 1772
8 1662 1542 1664 1778 1774 1658 1775 1887
8 1664 1543 1665 1779 1775 1659 1776 1888
8 1778 1664 1541 1661 1890 1779 1663 1777
8 1666 1548 1668 1781 1777 1663 1779 1890
8 1782 1669 1780 1891 1668 1550 1665 1779
8 1670 1551 1671 1784 1781 1668 1782 1893
8 1671 1552 1672 1785 1782 1669 1783 1894
8 1790 1675 1785 1896 1674 1554 1671 1784
8 1675 1555 1673 1789 1785 1672 1786 1897
8 1792 1676 1788 1903 1678 1556 1673 1789
8 1795 1678 1789 1904 1681 1558 1675 1790
8 1792 1676 1556 1678 1906 1791 1677 1794
8 1680 1557 1679 1797 1794 1677 1793 1909
8 1910 1794 1678 1795 1798 1680 1558 1681
8 1683 1559 1682 1800 1797 1679 1796 1912
8 1684 1560 1683 1801 1798 1680 1797 1913
8 1686 1564 1687 1803 1800 1682 1799 1915
8 1685 1563 1686 1802 1801 1683 1800 1916
8 1688 1566 1689 1805 1802 1686 1803 1917
8 1689 1567 1690 1806 1803 1687 1804 1918
8 1691 1569 1692 1808 1805 1689 1806 1920
8 1692 1570 1693 1809 1806 1690 1807 1921
8 1694 1572 1695 1810 1808 1692 1809 1922
8 1829 1713 1811 1926 1712 1592 1697 1813
8 1813 1697 1812 1928 1699 1577 1698 1815
8 1735 1614 1712 1828 1816 1699 1813 1929
8 1815 1698 1814 1931 1701 1578 1700 1818
8 1702 1579 1699 1816 1819 1701 1815 1932
8 1818 1700 1817 1933 1704 1580 1703 1820
8 1819 1701 1818 1934 1705 1581 1704 1821
8 1821 1704 1820 1935 1707 1584 1706 1822
8 1824 1709 1632 1751 1937 1823 1750 1865
8 1716 1593 1709 1824 1834 1715 1823 1937
8 1825 1710 1633 1752 1938 1824 1751 1866
8 1717 1594 1710 1825 1835 1716 1824 1938
8 1945 1830 1712 1828 1851 1733 1614 1735
8 1830 1714 1831 1946 1712 1592 1713 1829
8 1947 1832 1714 1830 1849 1730 1611 1733
8 1843 1729 1607 1725 1950 1833 1715 1834
8 1721 1603 1716 1835 1836 1725 1834 1951
8 1836 1725 1842 1953 1721 1603 1724 1839
8 1723 1838 1719 1601 1840 1954 1837 1722
8 1954 1840 1743 1852 1837 1722 1623 1736
8 1724 1839 1720 1602 1841 1955 1838 1723
8 1841 1727 1844 1956 1723 1605 1726 1840
8 1956 1844 1747 1859 1840 1726 1628 1743
8 1728 1842 1724 1606 1845 1957 1841 1727
8 1725 1607 1729 1843 1842 1728 1846 1958
8 1741 1627 1746 1857 1849 1730 1848 1965
8 1734 1612 1731 1850 1851 1733 1849 1966
8 1854 1741 1849 1966 1738 1622 1731 1850
8 1967 1859 1745 1853 1852 1743 1626 1737
8 1968 1860 1744 1856 1853 1745 1625 1739
8 1854 1741 1622 1738 1969 1857 1742 1855
8 1855 1742 1624 1740 1970 1858 1744 1856
8 1857 1746 1631 1742 1971 1861 1749 1858
8 1858 1749 1630 1744 1972 1863 1748 1860
8 1859 1747 1862 1973 1745 1629 1748 1860
8 1875 1768 1864 1977 1761 1651 1750 1865
8 1755 1644 1761 1869 1866 1751 1865 1978
8 1867 1760 1874 1979 1754 1646 1763 1868
8 1774 1658 1775 1887 1867 1760 1874 1979
8 1870 1766 1648 1756 1980 1877 1763 1868
8 1872 1762 1875 1981 1758 1645 1761 1869
8 1757 1649 1766 1870 1871 1765 1880 1982
8 1983 1879 1764 1873 1871 1765 1647 1759
8 1873 1764 1876 1984 1759 1647 1762 1872
8 1877 1773 1655 1763 1986 1881 1767 1874
8 1775 1659 1776 1888 1874 1767 1881 1986
8 1876 1769 1882 1987 1762 1652 1768 1875
8 1878 1770 1883 1988 1764 1653 1769 1876
8 1880 1772 1656 1766 1989 1886 1773 1877
8 1878 1770 1653 1764 1990 1884 1771 1879
8 1765 1654 1772 1880 1879 1771 1885 1991
8 1778 1664 1779 1890 1887 1775 1888 1997
8 1998 1889 1776 1888 1891 1780 1665 1779
8 1893 1782 1891 2000 1781 1668 1779 1890
8 1894 1783 1892 2001 1782 1669 1780 1891
8 1784 1671 1785 1896 1893 1782 1894 2003
8 1897 1786 1895 2004 1785 1672 1783 1894
8 1790 1675 1789 1904 1896 1785 1897 2006
8 1901 1787 1898 2007 1789 1673 1786 1897
8 1903 1788 1900 2013 1789 1673 1787 1901
8 1792 1676 1791 1906 1903 1788 1902 2016
8 1907 1792 1903 2017 1795 1678 1789 1904
8 1906 1791 1677 1794 2019 1905 1793 1909
8 1907 1792 1678 1795 2020 1906 1794 1910
8 1797 1679 1796 1912 1909 1793 1908 2022
8 1798 1680 1797 1913 1910 1794 1909 2023
8 1800 1682 1799 1915 1912 1796 1911 2025
8 1801 1683 1800 1916 1913 1797 1912 2026
8 1803 1687 1804 1918 1915 1799 1914 2028
8 1802 1686 1803 1917 1916 1800 1915 2029
8 1805 1689 1806 1920 1917 1803 1918 2030
8 1806 1690 1807 1921 1918 1804 1919 2031
8 1808 1692 1809 1922 1920 1806 1921 2032
8 1939 1826 1924 2037 1829 1713 1811 1926
8 1926 1811 1925 2039 1813 1697 1812 1928
8 1944 1829 1926 2040 1828 1712 1813 1929
8 1928 1812 1927 2042 1815 1698 1814 1931
8 1929 1813 1928 2043 1816 1699 1815 1932
8 1931 1814 1930 2044 1818 1700 1817 1933
8 1932 1815 1931 2045 1819 1701 1818 1934
8 1934 1818 1933 2046 1821 1704 1820 1935
8 2048 1936 1823 1937 1977 1864 1750 1865
8 1950 1833 1715 1834 2048 1936 1823 1937
8 1938 1824 1751 1866 2049 1937 1865 1978
8 1835 1716 1824 1938 1951 1834 1937 2049
8 1939 1826 1713 1829 2053 1942 1831 1946
8 1940 1827 1923 2035 2053 1942 1826 1939
8 1945 1830 1946 2058 1828 1712 1829 1944
8 2059 1947 1830 1945 1966 1849 1733 1851
8 1947 1832 1730 1849 2060 1948 1848 1965
8 1947 1832 1948 2060 1830 1714 1831 1946
8 1959 1847 1729 1843 2063 1949 1833 1950
8 1952 1843 1725 1836 2064 1950 1834 1951
8 1836 1725 1843 1952 1953 1842 1958 2066
8 1953 1842 1957 2067 1839 1724 1841 1955
8 1841 1955 1838 1723 1956 2068 1954 1840
8 2068 1956 1859 1967 1954 1840 1743 1852
8 1956 1844 1960 2069 1859 1747 1862 1973
8 1845 1957 1841 1727 1960 2069 1956 1844
8 1728 1842 1957 1845 1846 1958 2071 1961
8 1962 2072 1959 1847 1846 1958 1843 1729
8 1971 1861 1964 2077 1857 1746 1848 1965
8 1854 1741 1857 1969 1966 1849 1965 2078
8 1967 1859 1973 2079 1853 1745 1860 1968
8 1970 1858 1744 1856 2080 1972 1860 1968
8 1969 1857 1742 1855 2081 1971 1858 1970
8 1971 1861 1749 1858 2082 1974 1863 1972
8 1973 1862 1975 2083 1860 1748 1863 1972
8 1987 1882 1976 2086 1875 1768 1864 1977
8 1981 1875 1977 2087 1869 1761 1865 1978
8 1980 1877 1763 1868 2088 1986 1874 1979
8 1887 1775 1888 1997 1979 1874 1986 2088
8 1880 1982 2089 1989 1766 1870 1980 1877
8 1984 1876 1987 2090 1872 1762 1875 1981
8 1765 1871 1983 1879 1880 1982 2091 1991
8 1985 1878 1764 1873 2092 1990 1879 1983
8 1985 1878 1988 2093 1873 1764 1876 1984
8 2094 1992 1881 1986 1998 1889 1776 1888
8 1986 1881 1992 2094 1877 1773 1886 1989
8 1988 1883 1993 2095 1876 1769 1882 1987
8 1878 1770 1884 1990 1988 1883 1994 2096
8 1991 1885 1772 1880 2097 1996 1886 1989
8 1879 1771 1885 1991 1990 1884 1995 2098
8 2103 1998 1888 1997 2000 1891 1779 1890
8 2104 1999 1889 1998 2001 1892 1780 1891
8 2003 1894 2001 2106 1893 1782 1891 2000
8 2004 1895 2002 2107 1894 1783 1892 2001
8 2006 1897 2004 2109 1896 1785 1894 2003
8 2007 1898 2005 2110 1897 1786 1895 2004
8 2014 1901 2007 2112 1904 1789 1897 2006
8 2011 1899 2008 2113 1901 1787 1898 2007
8 2119 2010 1899 2011 2013 1900 1787 1901
8 2016 1902 2012 2122 1903 1788 1900 2013
8 2017 1903 2013 2123 1904 1789 1901 2014
8 1906 1791 1905 2019 2016 1902 2015 2125
8 1907 1792 1906 2020 2017 1903 2016 2126
8 1909 1793 1908 2022 2019 1905 2018 2128
8 2020 1906 1794 1910 2129 2019 1909 2023
8 1912 1796 1911 2025 2022 1908 2021 2131
8 1913 1797 1912 2026 2023 1909 2022 2132
8 1915 1799 1914 2028 2025 1911 2024 2134
8 1916 1800 1915 2029 2026 1912 2025 2135
8 1918 1804 1919 2031 2028 1914 2027 2136
8 1917 1803 1918 2030 2029 1915 2028 2137
8 1920 1806 1921 2032 2030 1918 2031 2138
8 1940 1827 1941 2054 2035 1923 2033 2140
8 2035 1923 2034 2143 1939 1826 1924 2037
8 2037 1924 2036 2146 1926 1811 1925 2039
8 2051 1939 2037 2147 1944 1829 1926 2040
8 2039 1925 2038 2149 1928 1812 1927 2042
8 2040 1926 2039 2150 1929 1813 1928 2043
8 2042 1927 2041 2151 1931 1814 1930 2044
8 2043 1928 2042 2152 1932 1815 1931 2045
8 2045 1931 2044 2153 1934 1818 1933 2046
8 2155 2047 1936 2048 2086 1976 1864 1977
8 2063 1949 1833 1950 2155 2047 1936 2048
8 2156 2048 1937 2049 2087 1977 1865 1978
8 2064 1950 1834 1951 2156 2048 1937 2049
8 2051 1939 1829 1944 2160 2053 1946 2058
8 2052 1940 2035 2144 2160 2053 1939 2051
8 2053 1942 1831 1946 2163 2057 1948 2060
8 2055 1943 1827 1940 2163 2057 1942 2053
8 2055 1943 2056 2164 1940 1827 1941 2054
8 2059 1947 1849 1966 2167 2060 1965 2078
8 2059 1947 2060 2167 1945 1830 1946 2058
8 2077 1964 2061 2168 1965 1848 1948 2060
8 2070 1963 1847 1959 2170 2062 1949 2063
8 2065 1959 1843 1952 2171 2063 1950 2064
8 2173 2072 1958 2066 2065 1959 1843 1952
8 1953 1842 1958 2066 2067 1957 2071 2174
8 2068 1956 2069 2175 1967 1859 1973 2079
8 2067 1957 2069 2175 1955 1841 1956 2068
8 1845 1957 2069 1960 1961 2071 2176 2073
8 2069 1960 2073 2176 1973 1862 1975 2083
8 2070 1963 2075 2177 1959 1847 1962 2072
8 1846 1958 2071 1961 1962 2072 2178 2074
8 2077 1964 1861 1971 2182 2076 1974 2082
8 2081 1971 2077 2183 1969 1857 1965 2078
8 2079 1973 2083 2184 1968 1860 1972 2080
8 2081 1971 1858 1970 2185 2082 1972 2080
8 2083 1975 2084 2186 1972 1863 1974 2082
8 2086 1976 1882 1987 2189 2085 1993 2095
8 2090 1987 2086 2190 1981 1875 1977 2087
8 2191 2094 1986 2088 2103 1998 1888 1997
8 2088 1986 2094 2191 1980 1877 1989 2089
8 1991 2091 2192 2097 1880 1982 2089 1989
8 2093 1988 2095 2193 1984 1876 1987 2090
8 1879 1983 2092 1990 1991 2091 2194 2098
8 1985 1878 1990 2092 2093 1988 2096 2195
8 2097 1996 1886 1989 2196 2099 1992 2094
8 2196 2099 1992 2094 2104 1999 1889 1998
8 1994 2096 1988 1883 2100 2197 2095 1993
8 2096 1994 1884 1990 2198 2101 1995 2098
8 1995 2098 2199 2102 1885 1991 2097 1996
8 2203 2104 1998 2103 2106 2001 1891 2000
8 2107 2002 2105 2204 2001 1892 1999 2104
8 2109 2004 2107 2206 2003 1894 2001 2106
8 2110 2005 2108 2207 2004 1895 2002 2107
8 2112 2007 2110 2209 2006 1897 2004 2109
8 2113 2008 2111 2210 2007 1898 2005 2110
8 2120 2011 2113 2212 2014 1901 2007 2112
8 2117 2009 2114 2213 2011 1899 2008 2113
8 2219 2116 2009 2117 2119 2010 1899 2011
8 2222 2118 2010 2119 2122 2012 1900 2013
8 2223 2119 2011 2120 2123 2013 1901 2014
8 2016 1902 2015 2125 2122 2012 2121 2225
8 2126 2016 2122 2226 2017 1903 2013 2123
8 2019 1905 2018 2128 2125 2015 2124 2228
8 2020 1906 2019 2129 2126 2016 2125 2229
8 2022 1908 2021 2131 2128 2018 2127 2231
8 2023 1909 2022 2132 2129 2019 2128 2232
8 2025 1911 2024 2134 2131 2021 2130 2234
8 2026 1912 2025 2135 2132 2022 2131 2235
8 1914 2028 2134 2024 2027 2136 2236 2133
8 2029 1915 2028 2137 2135 2025 2134 2237
8 2030 1918 2031 2138 2137 2028 2136 2238
8 2157 2050 2139 2240 2054 1941 2033 2140
8 2052 1940 2054 2161 2144 2035 2140 2242
8 2140 2033 2141 2243 2035 1923 2034 2143
8 2143 2034 2142 2246 2037 1924 2036 2146
8 2144 2035 2143 2247 2051 1939 2037 2147
8 2146 2036 2145 2249 2039 1925 2038 2149
8 2147 2037 2146 2250 2040 1926 2039 2150
8 2149 2038 2148 2251 2042 1927 2041 2151
8 2150 2039 2149 2252 2043 1928 2042 2152
8 2152 2042 2151 2253 2045 1931 2044 2153
8 2255 2154 2047 2155 2189 2085 1976 2086
8 2170 2062 1949 2063 2255 2154 2047 2155
8 2256 2155 2048 2156 2190 2086 1977 2087
8 2171 2063 1950 2064 2256 2155 2048 2156
8 2258 2159 2050 2157 2164 2056 1941 2054
8 2160 2053 1946 2058 2262 2163 2060 2167
8 2162 2055 1940 2052 2262 2163 2053 2160
8 2162 2055 2164 2263 2052 1940 2054 2161
8 2163 2057 1948 2060 2264 2165 2061 2168
8 2055 1943 2057 2163 2164 2056 2165 2264
8 2182 2076 2166 2268 2077 1964 2061 2168
8 2183 2077 2168 2269 2078 1965 2060 2167
8 2070 1963 2062 2170 2177 2075 2169 2271
8 2172 2070 1959 2065 2272 2170 2063 2171
8 2172 2070 2177 2273 2065 1959 2072 2173
8 2066 1958 2072 2173 2174 2071 2178 2274
8 2067 1957 2071 2174 2175 2069 2176 2275
8 2175 2069 2176 2275 2079 1973 2083 2184
8 2071 1961 2074 2178 2176 2073 2179 2276
8 2176 2073 2179 2276 2083 1975 2084 2186
8 2072 1962 2075 2177 2178 2074 2180 2277
8 2182 2076 1974 2082 2280 2181 2084 2186
8 2183 2077 1971 2081 2281 2182 2082 2185
8 2184 2083 2186 2282 2080 1972 2082 2185
8 2189 2085 1993 2095 2285 2188 2100 2197
8 2190 2086 1987 2090 2286 2189 2095 2193
8 2192 2097 1989 2089 2287 2196 2094 2191
8 2287 2196 2094 2191 2203 2104 1998 2103
8 2194 2098 1991 2091 2288 2199 2097 2192
8 2195 2096 2197 2289 2093 1988 2095 2193
8 2096 2195 2290 2198 1990 2092 2194 2098
8 2097 1996 2099 2196 2199 2102 2200 2291
8 2196 2099 1999 2104 2291 2200 2105 2204
8 2100 2197 2292 2201 1994 2096 2198 2101
8 1995 2098 2198 2101 2102 2199 2293 2202
8 2206 2107 2204 2296 2106 2001 2104 2203
8 2207 2108 2205 2297 2107 2002 2105 2204
8 2209 2110 2207 2299 2109 2004 2107 2206
8 2210 2111 2208 2300 2110 2005 2108 2207
8 2212 2113 2210 2302 2112 2007 2110 2209
8 2213 2114 2211 2303 2113 2008 2111 2210
8 2220 2117 2213 2305 2120 2011 2113 2212
8 2216 2115 2214 2306 2117 2009 2114 2213
8 2216 2115 2009 2117 2311 2217 2116 2219
8 2219 2116 2010 2119 2314 2218 2118 2222
8 2315 2219 2117 2220 2223 2119 2011 2120
8 2122 2012 2121 2225 2222 2118 2221 2317
8 2318 2222 2119 2223 2226 2122 2013 2123
8 2125 2015 2124 2228 2225 2121 2224 2320
8 2126 2016 2125 2229 2226 2122 2225 2321
8 2128 2018 2127 2231 2228 2124 2227 2323
8 2129 2019 2128 2232 2229 2125 2228 2324
8 2131 2021 2130 2234 2231 2127 2230 2326
8 2132 2022 2131 2235 2232 2128 2231 2327
8 2134 2024 2133 2236 2234 2130 2233 2328
8 2135 2025 2134 2237 2235 2131 2234 2329
8 2137 2028 2136 2238 2237 2134 2236 2330
8 2157 2050 2158 2259 2240 2139 2239 2332
8 2257 2157 2240 2334 2161 2054 2140 2242
8 2240 2139 2241 2335 2140 2033 2141 2243
8 2242 2140 2243 2337 2144 2035 2143 2247
8 2243 2141 2244 2338 2143 2034 2142 2246
8 2246 2142 2245 2341 2146 2036 2145 2249
8 2247 2143 2246 2342 2147 2037 2146 2250
8 2249 2145 2248 2343 2149 2038 2148 2251
8 2250 2146 2249 2344 2150 2039 2149 2252
8 2252 2149 2251 2345 2152 2042 2151 2253
8 2169 2271 2347 2254 2062 2170 2255 2154
8 2189 2085 2188 2285 2255 2154 2254 2347
8 2348 2255 2155 2256 2286 2189 2086 2190
8 2272 2170 2063 2171 2348 2255 2155 2256
8 2349 2258 2157 2257 2263 2164 2054 2161
8 2258 2159 2261 2351 2157 2050 2158 2259
8 2258 2159 2056 2164 2351 2261 2165 2264
8 2262 2163 2060 2167 2355 2264 2168 2269
8 2162 2055 2163 2262 2263 2164 2264 2355
8 2357 2266 2165 2264 2268 2166 2061 2168
8 2268 2166 2076 2182 2361 2267 2181 2280
8 2281 2182 2268 2362 2183 2077 2168 2269
8 2271 2169 2270 2364 2177 2075 2180 2277
8 2172 2070 2170 2272 2273 2177 2271 2365
8 2072 2173 2274 2178 2177 2273 2366 2277
8 2071 2174 2275 2176 2178 2274 2367 2276
8 2275 2176 2276 2367 2184 2083 2186 2282
8 2283 2187 2084 2186 2368 2278 2179 2276
8 2178 2074 2180 2277 2276 2179 2278 2368
8 2283 2187 2279 2370 2186 2084 2181 2280
8 2281 2182 2082 2185 2371 2280 2186 2282
8 2188 2285 2374 2284 2100 2197 2292 2201
8 2286 2189 2095 2193 2375 2285 2197 2289
8 2192 2097 2196 2287 2288 2199 2291 2376
8 2287 2196 2104 2203 2376 2291 2204 2296
8 2194 2098 2199 2288 2290 2198 2293 2377
8 2289 2197 2096 2195 2378 2292 2198 2290
8 2291 2200 2105 2204 2379 2294 2205 2297
8 2199 2102 2200 2291 2293 2202 2294 2379
8 2198 2101 2202 2293 2292 2201 2295 2380
8 2299 2207 2297 2383 2206 2107 2204 2296
8 2300 2208 2298 2384 2207 2108 2205 2297
8 2302 2210 2300 2386 2209 2110 2207 2299
8 2303 2211 2301 2387 2210 2111 2208 2300
8 2305 2213 2303 2389 2212 2113 2210 2302
8 2306 2214 2304 2390 2213 2114 2211 2303
8 2310 2216 2306 2392 2220 2117 2213 2305
8 2308 2215 2307 2393 2216 2115 2214 2306
8 2308 2215 2115 2216 2396 2309 2217 2311
8 2310 2216 2117 2220 2398 2311 2219 2315
8 2311 2217 2116 2219 2399 2312 2218 2314
8 2314 2218 2118 2222 2402 2313 2221 2317
8 2315 2219 2119 2223 2403 2314 2222 2318
8 2225 2121 2224 2320 2317 2221 2316 2405
8 2226 2122 2225 2321 2318 2222 2317 2406
8 2228 2124 2227 2323 2320 2224 2319 2408
8 2229 2125 2228 2324 2321 2225 2320 2409
8 2231 2127 2230 2326 2323 2227 2322 2411
8 2232 2128 2231 2327 2324 2228 2323 2412
8 2234 2130 2233 2328 2326 2230 2325 2413
8 2235 2131 2234 2329 2327 2231 2326 2414
8 2237 2134 2236 2330 2329 2234 2328 2415
8 2259 2158 2260 2352 2332 2239 2331 2417
8 2257 2157 2259 2350 2334 2240 2332 2419
8 2240 2139 2239 2332 2335 2241 2333 2420
8 2334 2240 2335 2422 2242 2140 2243 2337
8 2335 2241 2336 2423 2243 2141 2244 2338
8 2337 2243 2338 2425 2247 2143 2246 2342
8 2338 2244 2339 2426 2246 2142 2245 2341
8 2341 2245 2340 2428 2249 2145 2248 2343
8 2342 2246 2341 2429 2250 2146 2249 2344
8 2344 2249 2343 2430 2252 2149 2251 2345
8 2188 2285 2347 2254 2284 2374 2432 2346
8 2347 2254 2346 2432 2271 2169 2270 2364
8 2365 2271 2170 2272 2433 2347 2255 2348
8 2286 2189 2285 2375 2348 2255 2347 2433
8 2349 2258 2351 2435 2257 2157 2259 2350
8 2349 2258 2164 2263 2435 2351 2264 2355
8 2259 2158 2261 2351 2352 2260 2354 2437
8 2356 2265 2354 2437 2264 2165 2261 2351
8 2441 2357 2264 2355 2362 2268 2168 2269
8 2356 2265 2165 2264 2442 2358 2266 2357
8 2443 2359 2266 2357 2361 2267 2166 2268
8 2370 2279 2360 2446 2280 2181 2267 2361
8 2362 2268 2182 2281 2447 2361 2280 2371
8 2180 2277 2368 2278 2270 2364 2449 2363
8 2271 2365 2273 2177 2364 2450 2366 2277
8 2372 2283 2186 2282 2451 2368 2276 2367
8 2178 2274 2367 2276 2277 2366 2451 2368
8 2283 2187 2278 2368 2370 2279 2369 2452
8 2372 2283 2370 2453 2282 2186 2280 2371
8 2284 2374 2455 2373 2201 2292 2380 2295
8 2375 2285 2197 2289 2456 2374 2292 2378
8 2376 2291 2204 2296 2457 2379 2297 2383
8 2288 2199 2291 2376 2377 2293 2379 2457
8 2198 2290 2378 2292 2293 2377 2458 2380
8 2293 2202 2294 2379 2380 2295 2381 2459
8 2384 2298 2381 2459 2297 2205 2294 2379
8 2386 2300 2384 2463 2299 2207 2297 2383
8 2387 2301 2385 2464 2300 2208 2298 2384
8 2389 2303 2387 2466 2302 2210 2300 2386
8 2390 2304 2388 2467 2303 2211 2301 2387
8 2392 2306 2390 2469 2305 2213 2303 2389
8 2393 2307 2391 2470 2306 2214 2304 2390
8 2395 2308 2393 2472 2310 2216 2306 2392
8 2308 2215 2309 2396 2393 2307 2394 2473
8 2395 2308 2216 2310 2475 2396 2311 2398
8 2396 2309 2217 2311 2476 2397 2312 2399
8 2398 2311 2219 2315 2478 2399 2314 2403
8 2399 2312 2218 2314 2479 2400 2313 2402
8 2317 2221 2316 2405 2402 2313 2401 2482
8 2403 2314 2222 2318 2483 2402 2317 2406
8 2320 2224 2319 2408 2405 2316 2404 2485
8 2321 2225 2320 2409 2406 2317 2405 2486
8 2323 2227 2322 2411 2408 2319 2407 2488
8 2324 2228 2323 2412 2409 2320 2408 2489
8 2326 2230 2325 2413 2411 2322 2410 2490
8 2327 2231 2326 2414 2412 2323 2411 2491
8 2329 2234 2328 2415 2414 2326 2413 2492
8 2417 2331 2260 2352 2494 2416 2353 2438
8 2350 2259 2352 2436 2419 2332 2417 2496
8 2332 2239 2331 2417 2420 2333 2418 2497
8 2334 2240 2332 2419 2422 2335 2420 2499
8 2420 2333 2421 2500 2335 2241 2336 2423
8 2422 2335 2423 2502 2337 2243 2338 2425
8 2423 2336 2424 2503 2338 2244 2339 2426
8 2425 2338 2426 2505 2342 2246 2341 2429
8 2426 2339 2427 2506 2341 2245 2340 2428
8 2429 2341 2428 2507 2344 2249 2343 2430
8 2432 2346 2284 2374 2509 2431 2373 2455
8 2432 2346 2431 2509 2364 2270 2363 2449
8 2375 2285 2374 2456 2433 2347 2432 2510
8 2347 2433 2365 2271 2432 2510 2450 2364
8 2350 2259 2351 2435 2436 2352 2437 2514
8 2440 2356 2437 2514 2355 2264 2351 2435
8 2352 2260 2354 2437 2438 2353 2439 2516
8 2356 2265 2358 2442 2437 2354 2439 2516
8 2440 2356 2264 2355 2518 2442 2357 2441
8 2519 2443 2357 2441 2447 2361 2268 2362
8 2443 2359 2444 2520 2357 2266 2358 2442
8 2443 2359 2267 2361 2520 2444 2360 2446
8 2446 2360 2279 2370 2523 2445 2369 2452
8 2453 2370 2446 2524 2371 2280 2361 2447
8 2449 2363 2448 2525 2368 2278 2369 2452
8 2366 2277 2364 2450 2451 2368 2449 2526
8 2372 2283 2368 2451 2453 2370 2452 2527
8 2455 2373 2295 2380 2529 2454 2382 2460
8 2456 2374 2292 2378 2530 2455 2380 2458
8 2377 2293 2379 2457 2458 2380 2459 2531
8 2463 2384 2459 2531 2383 2297 2379 2457
8 2533 2461 2382 2460 2459 2381 2295 2380
8 2464 2385 2461 2533 2384 2298 2381 2459
8 2466 2387 2464 2537 2386 2300 2384 2463
8 2467 2388 2465 2538 2387 2301 2385 2464
8 2469 2390 2467 2540 2389 2303 2387 2466
8 2470 2391 2468 2541 2390 2304 2388 2467
8 2472 2393 2470 2543 2392 2306 2390 2469
8 2393 2307 2394 2473 2470 2391 2471 2544
8 2395 2308 2396 2475 2472 2393 2473 2546
8 2396 2309 2397 2476 2473 2394 2474 2547
8 2475 2396 2311 2398 2549 2476 2399 2478
8 2476 2397 2312 2399 2550 2477 2400 2479
8 2478 2399 2314 2403 2552 2479 2402 2483
8 2479 2400 2313 2402 2553 2480 2401 2482
8 2405 2316 2404 2485 2482 2401 2481 2556
8 2406 2317 2405 2486 2483 2402 2482 2557
8 2408 2319 2407 2488 2485 2404 2484 2559
8 2409 2320 2408 2489 2486 2405 2485 2560
8 2411 2322 2410 2490 2488 2407 2487 2561
8 2412 2323 2411 2491 2489 2408 2488 2562
8 2414 2326 2413 2492 2491 2411 2490 2563
8 2513 2434 2493 2565 2438 2353 2416 2494
8 2496 2417 2352 2436 2567 2494 2438 2515
8 2494 2416 2495 2568 2417 2331 2418 2497
8 2419 2332 2417 2496 2499 2420 2497 2570
8 2497 2418 2498 2571 2420 2333 2421 2500
8 2499 2420 2500 2573 2422 2335 2423 2502
8 2500 2421 2501 2574 2423 2336 2424 2503
8 2502 2423 2503 2576 2425 2338 2426 2505
8 2503 2424 2504 2577 2426 2339 2427 2506
8 2505 2426 2506 2578 2429 2341 2428 2507
8 2509 2431 2373 2455 2580 2508 2454 2529
8 2509 2431 2508 2580 2449 2363 2448 2525
8 2432 2510 2581 2509 2374 2456 2530 2455
8 2432 2510 2450 2364 2509 2581 2526 2449
8 2583 2511 2434 2513 2516 2439 2353 2438
8 2436 2352 2437 2514 2515 2438 2516 2588
8 2440 2356 2442 2518 2514 2437 2516 2588
8 2442 2358 2444 2520 2516 2439 2517 2589
8 2519 2443 2520 2591 2441 2357 2442 2518
8 2519 2443 2361 2447 2591 2520 2446 2524
8 2446 2360 2445 2523 2520 2444 2521 2592
8 2525 2448 2522 2593 2452 2369 2445 2523
8 2524 2446 2370 2453 2594 2523 2452 2527
8 2526 2449 2525 2595 2451 2368 2452 2527
8 2534 2462 2528 2597 2460 2382 2454 2529
8 2530 2455 2380 2458 2598 2529 2460 2532
8 2599 2533 2460 2532 2531 2459 2380 2458
8 2537 2464 2533 2599 2463 2384 2459 2531
8 2534 2462 2382 2460 2601 2535 2461 2533
8 2538 2465 2535 2601 2464 2385 2461 2533
8 2540 2467 2538 2604 2466 2387 2464 2537
8 2541 2468 2539 2605 2467 2388 2465 2538
8 2543 2470 2541 2607 2469 2390 2467 2540
8 2470 2391 2471 2544 2541 2468 2542 2608
8 2472 2393 2473 2546 2543 2470 2544 2610
8 2473 2394 2474 2547 2544 2471 2545 2611
8 2475 2396 2476 2549 2546 2473 2547 2613
8 2476 2397 2477 2550 2547 2474 2548 2614
8 2549 2476 2399 2478 2616 2550 2479 2552
8 2479 2400 2480 2553 2550 2477 2551 2617
8 2552 2479 2402 2483 2619 2553 2482 2557
8 2482 2401 2481 2556 2553 2480 2554 2620
8 2485 2404 2484 2559 2556 2481 2555 2623
8 2486 2405 2485 2560 2557 2482 2556 2624
8 2488 2407 2487 2561 2559 2484 2558 2625
8 2489 2408 2488 2562 2560 2485 2559 2626
8 2491 2411 2490 2563 2562 2488 2561 2627
8 2513 2434 2512 2585 2565 2493 2564 2630
8 2586 2513 2565 2632 2515 2438 2494 2567
8 2565 2493 2566 2633 2494 2416 2495 2568
8 2567 2494 2568 2635 2496 2417 2497 2570
8 2568 2495 2569 2636 2497 2418 2498 2571
8 2570 2497 2571 2638 2499 2420 2500 2573
8 2571 2498 2572 2639 2500 2421 2501 2574
8 2573 2500 2574 2641 2502 2423 2503 2576
8 2574 2501 2575 2642 2503 2424 2504 2577
8 2576 2503 2577 2643 2505 2426 2506 2578
8 2597 2528 2579 2645 2529 2454 2508 2580
8 2580 2508 2579 2645 2525 2448 2522 2593
8 2581 2509 2455 2530 2646 2580 2529 2598
8 2581 2509 2580 2646 2526 2449 2525 2595
8 2583 2511 2582 2648 2513 2434 2512 2585
8 2583 2511 2439 2516 2648 2582 2517 2589
8 2649 2583 2513 2586 2588 2516 2438 2515
8 2589 2517 2444 2520 2653 2587 2521 2592
8 2518 2442 2520 2591 2588 2516 2589 2654
8 2593 2522 2590 2655 2523 2445 2521 2592
8 2524 2446 2523 2594 2591 2520 2592 2656
8 2595 2525 2593 2657 2527 2452 2523 2594
8 2602 2536 2596 2659 2534 2462 2528 2597
8 2600 2534 2597 2660 2532 2460 2529 2598
8 2600 2534 2460 2532 2661 2601 2533 2599
8 2604 2538 2601 2661 2537 2464 2533 2599
8 2602 2536 2462 2534 2663 2603 2535 2601
8 2601 2535 2465 2538 2663 2603 2539 2605
8 2607 2541 2605 2665 2540 2467 2538 2604
8 2608 2542 2606 2666 2541 2468 2539 2605
8 2543 2470 2544 2610 2607 2541 2608 2668
8 2544 2471 2545 2611 2608 2542 2609 2669
8 2546 2473 2547 2613 2610 2544 2611 2671
8 2547 2474 2548 2614 2611 2545 2612 2672
8 2549 2476 2550 2616 2613 2547 2614 2674
8 2550 2477 2551 2617 2614 2548 2615 2675
8 2552 2479 2553 2619 2616 2550 2617 2677
8 2553 2480 2554 2620 2617 2551 2618 2678
8 2557 2482 2556 2624 2619 2553 2620 2680
8 2556 2481 2555 2623 2620 2554 2621 2681
8 2559 2484 2558 2625 2623 2555 2622 2683
8 2560 2485 2559 2626 2624 2556 2623 2684
8 2562 2488 2561 2627 2626 2559 2625 2685
8 2690 2629 2564 2630 2650 2584 2512 2585
8 2586 2513 2585 2651 2632 2565 2630 2691
8 2630 2564 2631 2692 2565 2493 2566 2633
8 2632 2565 2633 2694 2567 2494 2568 2635
8 2633 2566 2634 2695 2568 2495 2569 2636
8 2635 2568 2636 2697 2570 2497 2571 2638
8 2636 2569 2637 2698 2571 2498 2572 2639
8 2638 2571 2639 2700 2573 2500 2574 2641
8 2639 2572 2640 2701 2574 2501 2575 2642
8 2641 2574 2642 2702 2576 2503 2577 2643
8 2597 2528 2596 2659 2645 2579 2644 2704
8 2645 2579 2644 2704 2593 2522 2590 2655
8 2660 2597 2645 2705 2598 2529 2580 2646
8 2646 2580 2645 2705 2595 2525 2593 2657
8 2650 2584 2512 2585 2707 2647 2582 2648
8 2648 2582 2517 2589 2707 2647 2587 2653
8 2649 2583 2648 2708 2586 2513 2585 2651
8 2649 2583 2516 2588 2708 2648 2589 2654
8 2655 2590 2652 2710 2592 2521 2587 2653
8 2654 2589 2520 2591 2711 2653 2592 2656
8 2657 2593 2655 2712 2594 2523 2592 2656
8 2602 2536 2603 2663 2659 2596 2658 2714
8 2662 2602 2659 2715 2600 2534 2597 2660
8 2662 2602 2534 2600 2717 2663 2601 2661
8 2661 2601 2538 2604 2717 2663 2605 2665
8 2666 2606 2664 2718 2605 2539 2603 2663
8 2668 2608 2666 2720 2607 2541 2605 2665
8 2608 2542 2609 2669 2666 2606 2667 2721
8 2610 2544 2611 2671 2668 2608 2669 2723
8 2611 2545 2612 2672 2669 2609 2670 2724
8 2613 2547 2614 2674 2671 2611 2672 2726
8 2614 2548 2615 2675 2672 2612 2673 2727
8 2616 2550 2617 2677 2674 2614 2675 2729
8 2617 2551 2618 2678 2675 2615 2676 2730
8 2619 2553 2620 2680 2677 2617 2678 2732
8 2620 2554 2621 2681 2678 2618 2679 2733
8 2624 2556 2623 2684 2680 2620 2681 2735
8 2681 2621 2555 2623 2736 2682 2622 2683
8 2626 2559 2625 2685 2684 2623 2683 2737
8 2688 2628 2584 2650 2740 2686 2647 2707
8 2688 2628 2687 2742 2650 2584 2629 2690
8 2690 2629 2689 2745 2630 2564 2631 2692
8 2746 2690 2630 2691 2709 2650 2585 2651
8 2691 2630 2692 2747 2632 2565 2633 2694
8 2692 2631 2693 2748 2633 2566 2634 2695
8 2694 2633 2695 2750 2635 2568 2636 2697
8 2695 2634 2696 2751 2636 2569 2637 2698
8 2697 2636 2698 2753 2638 2571 2639 2700
8 2698 2637 2699 2754 2639 2572 2640 2701
8 2700 2639 2701 2755 2641 2574 2642 2702
8 2659 2596 2658 2714 2704 2644 2703 2757
8 2704 2644 2703 2757 2655 2590 2652 2710
8 2660 2597 2659 2715 2705 2645 2704 2758
8 2705 2645 2704 2758 2657 2593 2655 2712
8 2759 2706 2647 2707 2710 2652 2587 2653
8 2709 2650 2585 2651 2760 2707 2648 2708
8 2708 2648 2589 2654 2760 2707 2653 2711
8 2712 2655 2710 2761 2656 2592 2653 2711
8 2763 2713 2658 2714 2718 2664 2603 2663
8 2662 2602 2663 2717 2715 2659 2714 2764
8 2720 2666 2718 2767 2665 2605 2663 2717
8 2768 2719 2664 2718 2721 2667 2606 2666
8 2668 2608 2669 2723 2720 2666 2721 2770
8 2669 2609 2670 2724 2721 2667 2722 2771
8 2671 2611 2672 2726 2723 2669 2724 2773
8 2672 2612 2673 2727 2724 2670 2725 2774
8 2674 2614 2675 2729 2726 2672 2727 2776
8 2675 2615 2676 2730 2727 2673 2728 2777
8 2677 2617 2678 2732 2729 2675 2730 2779
8 2678 2618 2679 2733 2730 2676 2731 2780
8 2680 2620 2681 2735 2732 2678 2733 2782
8 2733 2679 2621 2681 2783 2734 2682 2736
8 2735 2681 2623 2684 2784 2736 2683 2737
8 2740 2686 2647 2707 2787 2738 2706 2759
8 2688 2628 2686 2740 2742 2687 2739 2789
8 2743 2688 2650 2709 2790 2740 2707 2760
8 2742 2687 2741 2792 2690 2629 2689 2745
8 2743 2688 2742 2793 2709 2650 2690 2746
8 2745 2689 2744 2795 2692 2631 2693 2748
8 2746 2690 2745 2796 2691 2630 2692 2747
8 2747 2692 2748 2797 2694 2633 2695 2750
8 2748 2693 2749 2798 2695 2634 2696 2751
8 2750 2695 2751 2800 2697 2636 2698 2753
8 2751 2696 2752 2801 2698 2637 2699 2754
8 2753 2698 2754 2802 2700 2639 2701 2755
8 2763 2713 2756 2804 2714 2658 2703 2757
8 2759 2706 2652 2710 2804 2756 2703 2757
8 2715 2659 2714 2764 2758 2704 2757 2805
8 2758 2704 2757 2805 2712 2655 2710 2761
8 2806 2759 2707 2760 2761 2710 2653 2711
8 2765 2716 2762 2808 2718 2664 2713 2763
8 2809 2763 2714 2764 2767 2718 2663 2717
8 2765 2716 2664 2718 2811 2766 2719 2768
8 2813 2768 2718 2767 2770 2721 2666 2720
8 2814 2769 2719 2768 2771 2722 2667 2721
8 2723 2669 2724 2773 2770 2721 2771 2816
8 2724 2670 2725 2774 2771 2722 2772 2817
8 2726 2672 2727 2776 2773 2724 2774 2819
8 2727 2673 2728 2777 2774 2725 2775 2820
8 2729 2675 2730 2779 2776 2727 2777 2822
8 2730 2676 2731 2780 2777 2728 2778 2823
8 2732 2678 2733 2782 2779 2730 2780 2825
8 2780 2731 2679 2733 2826 2781 2734 2783
8 2782 2733 2681 2735 2827 2783 2736 2784
8 2830 2785 2738 2787 2804 2756 2706 2759
8 2789 2739 2686 2740 2832 2786 2738 2787
8 2790 2740 2707 2760 2833 2787 2759 2806
8 2742 2687 2739 2789 2792 2741 2788 2835
8 2743 2688 2740 2790 2793 2742 2789 2836
8 2792 2741 2791 2838 2745 2689 2744 2795
8 2793 2742 2792 2839 2746 2690 2745 2796
8 2795 2744 2794 2841 2748 2693 2749 2798
8 2796 2745 2795 2842 2747 2692 2748 2797
8 2797 2748 2798 2843 2750 2695 2751 2800
8 2798 2749 2799 2844 2751 2696 2752 2801
8 2800 2751 2801 2845 2753 2698 2754 2802
8 2808 2762 2803 2847 2763 2713 2756 2804
8 2809 2763 2804 2848 2764 2714 2757 2805
8 2806 2759 2710 2761 2848 2804 2757 2805
8 2765 2716 2766 2811 2808 2762 2807 2850
8 2810 2765 2808 2851 2767 2718 2763 2809
8 2810 2765 2718 2767 2852 2811 2768 2813
8 2811 2766 2719 2768 2853 2812 2769 2814
8 2855 2814 2768 2813 2816 2771 2721 2770
8 2856 2815 2769 2814 2817 2772 2722 2771
8 2773 2724 2774 2819 2816 2771 2817 2858
8 2774 2725 2775 2820 2817 2772 2818 2859
8 2776 2727 2777 2822 2819 2774 2820 2861
8 2777 2728 2778 2823 2820 2775 2821 2862
8 2779 2730 2780 2825 2822 2777 2823 2864
8 2823 2778 2731 2780 2865 2824 2781 2826
8 2825 2780 2733 2782 2866 2826 2783 2827
8 2869 2828 2785 2830 2847 2803 2756 2804
8 2871 2829 2786 2832 2830 2785 2738 2787
8 2872 2830 2787 2833 2848 2804 2759 2806
8 2789 2739 2786 2832 2835 2788 2831 2874
8 2836 2789 2740 2790 2875 2832 2787 2833
8 2792 2741 2788 2835 2838 2791 2834 2877
8 2793 2742 2789 2836 2839 2792 2835 2878
8 2838 2791 2837 2880 2795 2744 2794 2841
8 2839 2792 2838 2881 2796 2745 2795 2842
8 2841 2794 2840 2882 2798 2749 2799 2844
8 2842 2795 2841 2883 2797 2748 2798 2843
8 2843 2798 2844 2884 2800 2751 2801 2845
8 2886 2846 2803 2847 2850 2807 2762 2808
8 2851 2808 2847 2887 2809 2763 2804 2848
8 2850 2807 2766 2811 2889 2849 2812 2853
8 2810 2765 2811 2852 2851 2808 2850 2890
8 2852 2811 2768 2813 2891 2853 2814 2855
8 2853 2812 2769 2814 2892 2854 2815 2856
8 2894 2856 2814 2855 2858 2817 2771 2816
8 2817 2772 2818 2859 2856 2815 2857 2895
8 2819 2774 2820 2861 2858 2817 2859 2897
8 2820 2775 2821 2862 2859 2818 2860 2898
8 2822 2777 2823 2864 2861 2820 2862 2900
8 2823 2778 2824 2865 2862 2821 2863 2901
8 2864 2823 2780 2825 2902 2865 2826 2866
8 2904 2867 2828 2869 2886 2846 2803 2847
8 2869 2828 2868 2906 2830 2785 2829 2871
8 2907 2869 2830 2872 2887 2847 2804 2848
8 2871 2829 2870 2909 2832 2786 2831 2874
8 2910 2871 2832 2875 2872 2830 2787 2833
8 2835 2788 2831 2874 2877 2834 2873 2912
8 2836 2789 2832 2875 2878 2835 2874 2913
8 2877 2834 2876 2915 2838 2791 2837 2880
8 2839 2792 2835 2878 2881 2838 2877 2916
8 2880 2837 2879 2917 2841 2794 2840 2882
8 2881 2838 2880 2918 2842 2795 2841 2883
8 2883 2841 2882 2919 2843 2798 2844 2884
8 2921 2885 2846 2886 2889 2849 2807 2850
8 2922 2886 2847 2887 2890 2850 2808 2851
8 2889 2849 2812 2853 2924 2888 2854 2892
8 2890 2850 2811 2852 2925 2889 2853 2891
8 2891 2853 2814 2855 2926 2892 2856 2894
8 2892 2854 2815 2856 2927 2893 2857 2895
8 2858 2817 2859 2897 2894 2856 2895 2929
8 2859 2818 2860 2898 2895 2857 2896 2930
8 2861 2820 2862 2900 2897 2859 2898 2932
8 2862 2821 2863 2901 2898 2860 2899 2933
8 2864 2823 2865 2902 2900 2862 2901 2934
8 2904 2867 2846 2886 2936 2903 2885 2921
8 2904 2867 2903 2936 2869 2828 2868 2906
8 2937 2904 2869 2907 2922 2886 2847 2887
8 2906 2868 2905 2939 2871 2829 2870 2909
8 2907 2869 2906 2940 2872 2830 2871 2910
8 2909 2870 2908 2942 2874 2831 2873 2912
8 2910 2871 2909 2943 2875 2832 2874 2913
8 2912 2873 2911 2945 2877 2834 2876 2915
8 2878 2835 2874 2913 2916 2877 2912 2946
8 2915 2876 2914 2947 2880 2837 2879 2917
8 2916 2877 2915 2948 2881 2838 2880 2918
8 2918 2880 2917 2949 2883 2841 2882 2919
8 2921 2885 2849 2889 2951 2920 2888 2924
8 2952 2921 2886 2922 2925 2889 2850 2890
8 2924 2888 2854 2892 2954 2923 2893 2927
8 2925 2889 2853 2891 2955 2924 2892 2926
8 2926 2892 2856 2894 2956 2927 2895 2929
8 2895 2857 2896 2930 2927 2893 2928 2957
8 2897 2859 2898 2932 2929 2895 2930 2959
8 2898 2860 2899 2933 2930 2896 2931 2960
8 2900 2862 2901 2934 2932 2898 2933 2961
8 2936 2903 2885 2921 2963 2935 2920 2951
8 2936 2903 2935 2963 2906 2868 2905 2939
8 2937 2904 2886 2922 2964 2936 2921 2952
8 2937 2904 2936 2964 2907 2869 2906 2940
8 2939 2905 2938 2966 2909 2870 2908 2942
8 2940 2906 2939 2967 2910 2871 2909 2943
8 2942 2908 2941 2969 2912 2873 2911 2945
8 2943 2909 2942 2970 2913 2874 2912 2946
8 2945 2911 2944 2971 2915 2876 2914 2947
8 2946 2912 2945 2972 2916 2877 2915 2948
8 2948 2915 2947 2973 2918 2880 2917 2949
8 2951 2920 2888 2924 2975 2950 2923 2954
8 2952 2921 2889 2925 2976 2951 2924 2955
8 2927 2893 2928 2957 2954 2923 2953 2978
8 2955 2924 2892 2926 2979 2954 2927 2956
8 2929 2895 2930 2959 2956 2927 2957 2980
8 2930 2896 2931 2960 2957 2928 2958 2981
8 2932 2898 2933 2961 2959 2930 2960 2982
8 2951 2920 2950 2975 2963 2935 2962 2984
8 2963 2935 2962 2984 2939 2905 2938 2966
8 2964 2936 2921 2952 2985 2963 2951 2976
8 2964 2936 2963 2985 2940 2906 2939 2967
8 2966 2938 2965 2987 2942 2908 2941 2969
8 2967 2939 2966 2988 2943 2909 2942 2970
8 2969 2941 2968 2989 2945 2911 2944 2971
8 2970 2942 2969 2990 2946 2912 2945 2972
8 2972 2945 2971 2991 2948 2915 2947 2973
8 2954 2923 2953 2978 2975 2950 2974 2993
8 2976 2951 2924 2955 2994 2975 2954 2979
8 2957 2928 2958 2981 2978 2953 2977 2995
8 2956 2927 2957 2980 2979 2954 2978 2996
8 2959 2930 2960 2982 2980 2957 2981 2997
8 2984 2962 2983 2999 2966 2938 2965 2987
8 2975 2950 2974 2993 2984 2962 2983 2999
8 2976 2951 2975 2994 2985 2963 2984 3000
8 2985 2963 2984 3000 2967 2939 2966 2988
8 2987 2965 2986 3001 2969 2941 2968 2989
8 2988 2966 2987 3002 2970 2942 2969 2990
8 2990 2969 2989 3003 2972 2945 2971 2991
8 2978 2953 2977 2995 2993 2974 2992 3004
8 2979 2954 2978 2996 2994 2975 2993 3005
8 2980 2957 2981 2997 2996 2978 2995 3006
8 2974 2993 2999 2983 2992 3004 3007 2998
8 2983 2999 2987 2965 2998 3007 3001 2986
8 3000 2984 2999 3008 2988 2966 2987 3002
8 2994 2975 2993 3005 3000 2984 2999 3008
8 3002 2987 3001 3009 2990 2969 2989 3003
8 2996 2978 2995 3006 3005 2993 3004 3010
8 3005 2993 3004 3010 3008 2999 3007 3011
8 3008 2999 3007 3011 3002 2987 3001 3009

CELL_TYPES 1910
12
12
12
12
12
12
12
12
12
12
12
12
12
12
12
12
12
12
12
12
12
12
12
12
12
12
12
12
12
12
12
12
12
12
12
12
12
12
12
12
12
12
12
12
12
12
12
12
12
12
12
12
12
12
12
12
12
12
12
12
12
12
12
12
12
12
12
12
12
12
12
12
12
12
12
12
12
12
12
12
12
12
12
12
12
12
12
12
12
12
12
12
12
12
12
12
12
12
12
12
12
12
12
12
12
12
12
12
12
12
12
12
12
12
12
12
12
12
12
12
12
12
12
12
12
12
12
12
12
12
12
12
12
12
12
12
12
12
12
12
12
12
12
12
12
12
12
12
12
12
12
12
12
12
12
12
12
12
12
12
12
12
12
12
12
12
12
12
12
12
12
12
12
12
12
12
12
12
12
12
12
12
12
12
12
12
12
12
12
12
12
12
12
12
12
12
12
12
12
12
12
12
12
12
12
12
12
12
12
12
12
12
12
12
12
12
12
12
12
12
12
12
12
12
12
12
12
12
12
12
12
12
12
12
12
12
12
12
12
12
12
12
12
12
12
12
12
12
12
12
12
12
12
12
12
12
12
12
12
12
12
12
12
12
12
12
12
12
12
12
12
12
12
12
12
12
12
12
12
12
12
12
12
12
12
12
12
12
12
12
12
12
12
12
12
12
12
12
12
12
12
12
12
12
12
12
12
12
12
12
12
12
12
12
12
12
12
12
12
12
12
12
12
12
12
12
12
12
12
12
12
12
12
12
12
12
12
12
12
12
12
12
12
12
12
12
12
12
12
12
12
12
12
12
12
12
12
12
12
12
12
12
12
12
12
12
12
12
12
12
12
12
12
12
12
12
12
12
12
12
12
12
12
12
12
12
12
12
12
12
12
12
12
12
12
12
12
12
12
12
12
12
12
12
12
12
12
12
12
12
12
12
12
12
12
12
12
12
12
12
12
12
12
12
12
12
12
12
12
12
12
12
12
12
12
12
12
12
12
12
12
12
12
12
12
12
12
12
12
12
12
12
12
12
12
12
12
12
12
12
12
12
12
12
12
12
12
12
12
12
12
12
12
12
12
12
12
12
12
12
12
12
12
12
12
12
12
12
12
12
12
12
12
12
12
12
12
12
12
12
12
12
12
12
12
12
12
12
12
12
12
12
12
12
12
12
12
12
12
12
12
12
12
12
12
12
12
12
12
12
12
12
12
12
12
12
12
12
12
12
12
12
12
12
12
12
12
12
12
12
12
12
12
12
12
12
12
12
12
12
12
12
12
12
12
12
12
12
12
12
12
12
12
12
12
12
12
12
12
12
12
12
12
12
12
12
12
12
12
12
12
12
12
12
12
12
12
12
12
12
12
12
12
12
12
12
12
12
12
12
12
12
12
12
12
12
12
12
12
12
12
12
12
12
12
12
12
12
12
12
12
12
12
12
12
12
12
12
12
12
12
12
12
12
12
12
12
12
12
12
12
12
12
12
12
12
12
12
12
12
12
12
12
12
12
12
12
12
12
12
12
12
12
12
12
12
12
12
12
12
12
12
12
12
12
12
12
12
12
12
12
12
12
12
12
12
12
12
12
12
12
12
12
12
12
12
12
12
12
12
12
12
12
12
12
12
12
12
12
12
12
12
12
12
12
12
12
12
12
12
12
12
12
12
12
12
12
12
12
12
12
12
12
12
12
12
12
12
12
12
12
12
12
12
12
12
12
12
12
12
12
12
12
12
12
12
12
12
12
12
12
12
12
12
12
12
12
12
12
12
12
12
12
12
12
12
12
12
12
12
12
12
12
12
12
12
12
12
12
12
12
12
12
12
12
12
12
12
12
12
12
12
12
12
12
12
12
12
12
12
12
12
12
12
12
12
12
12
12
12
12
12
12
12
12
12
12
12
12
12
12
12
12
12
12
12
12
12
12
12
12
12
12
12
12
12
12
12
12
12
12
12
12
12
12
12
12
12
12
12
12
12
12
12
12
12
12
12
12
12
12
12
12
12
12
12
12
12
12
12
12
12
12
12
12
12
12
12
12
12
12
12
12
12
12
12
12
12
12
12
12
12
12
12
12
12
12
12
12
12
12
12
12
12
12
12
12
12
12
12
12
12
12
12
12
12
12
12
12
12
12
12
12
12
12
12
12
12
12
12
12
12
12
12
12
12
12
12
12
12
12
12
12
12
12
12
12
12
12
12
12
12
12
12
12
12
12
12
12
12
12
12
12
12
12
12
12
12
12
12
12
12
12
12
12
12
12
12
12
12
12
12
12
12
12
12
12
12
12
12
12
12
12
12
12
12
12
12
12
12
12
12
12
12
12
12
12
12
12
12
12
12
12
12
12
12
12
12
12
12
12
12
12
12
12
12
12
12
12
12
12
12
12
12
12
12
12
12
12
12
12
12
12
12
12
12
12
12
12
12
12
12
12
12
12
12
12
12
12
12
12
12
12
12
12
12
12
12
12
12
12
12
12
12
12
12
12
12
12
12
12
12
12
12
12
12
12
12
12
12
12
12
12
12
12
12
12
12
12
12
12
12
12
12
12
12
12
12
12
12
12
12
12
12
12
12
12
12
12
12
12
12
12
12
12
12
12
12
12
12
12
12
12
12
12
12
12
12
12
12
12
12
12
12
12
12
12
12
12
12
12
12
12
12
12
12
12
12
12
12
12
12
12
12
12
12
12
12
12
12
12
12
12
12
12
12
12
12
12
12
12
12
12
12
12
12
12
12
12
12
12
12
12
12
12
12
12
12
12
12
12
12
12
12
12
12
12
12
12
12
12
12
12
12
12
12
12
12
12
12
12
12
12
12
12
12
12
12
12
12
12
12
12
12
12
12
12
12
12
12
12
12
12
12
12
12
12
12
12
12
12
12
12
12
12
12
12
12
12
12
12
12
12
12
12
12
12
12
12
12
12
12
12
12
12
12
12
12
12
12
12
12
12
12
12
12
12
12
12
12
12
12
12
12
12
12
12
12
12
12
12
12
12
12
12
12
12
12
12
12
12
12
12
12
12
12
12
12
12
12
12
12
12
12
12
12
12
12
12
12
12
12
12
12
12
12
12
12
12
12
12
12
12
12
12
12
12
12
12
12
12
12
12
12
12
12
12
12
12
12
12
12
12
12
12
12
12
12
12
12
12
12
12
12
12
12
12
12
12
12
12
12
12
12
12
12
12
12
12
12
12
12
12
12
12
12
12
12
12
12
12
12
12
12
12
12
12
12
12
12
12
12
12
12
12
12
12
12
12
12
12
12
12
12
12
12
12
12
12
12
12
12
12
12
12
12
12
12
12
12
12
12
12
12
12
12
12
12
12
12
12
12
12
12
12
12
12
12
12
12
12
12
12
12
12
12
12
12
12
12
12
12
12
12
12
12
12
12
12
12
12
12
12
12
12
12
12
12
12
12
12
12
12
12
12
12
12
12
12
12
12
12
12
12
12
12
12
12
12
12
12
12
12
12
12
12
12
12
12
12
12
12
12
12
12
12
12
12
12
12
12
12
12
12
12
12
12
12
12
12
12
12
12
12
12
12
12
12
12
12
12
12
12
12
12
12
12
12
12
12
12
12
12
12
12
12
12
12
12
12
12
12
12
12
12
12
12
12
12
12
12
12
12
12
12
12
12
12
12
12
12
12
12
12
12
12
12
12
12
12
12
12
12
12
12
12
12
12
12
12
12
12
12
12
12
12
12
12
12
12
12
12
12
12
12
12
12
12
12
12
12
12
12
12
12
12
12
12
12
12
12
12
12
12
12
12
12
12
12
12
12
12
12
12
12
12
12
12
12
12
12
12
12
12
12
12
12
12
12
12
12
12
12
12
12
12
12
12
12
12
12
12
12
12
12
12
12
12
12
12
12
12
12
12
12
12
12
12
12
12
12
12
12
12
12
12
12
12
12
12
12
12
12
12
12
12
12
12
12
12
12
12
12
12
12
12
12
12
12
12
12
12
12
12
12
12
12
12
12
12
12
12
12
12
12
12
12
12
12
12
12
12
12
12
12
12
12
12
12
12
12
12
12
12
12
12
12
12
12
12
12
12
12
12
12
12
12
12
12
12
12
12
12
12
12
12
12
12
12
12
12
12
12
12
12
12
12
12
12
12
12
12
12
12
12
12
12
12
12
12
12
12
12
12
12
12
12
12
12
12
12
12
12
12
12
12
12
12
12
12
12
12
12
12
12
12
12
12
12
12
12
12
12
12
12
12
12
12
12
12
12
12
12
12
12
12
12
12
12
12
12
12
12
12
12
12
12
12
12
12
12
12
12
12
12
12
12
12
12
12
12
12
12
12
12
12
12
12
12
12

POINT_DATA 3012
SCALARS Jp_lamdaP float 4
LOOKUP_TABLE default
1 1 1 1
1 1 1 1
1 1 1 1
1 1 1 1
1 1 1 1
1 1 1 1
0.999997 1 1 0.999997
1 1 1 1
1 1 1 1
1 1 1 1
1 1 1 1
1 1 1 1
1 1 1 1
1 1 1 1
1 1 1 1
1 1 1 1
1 1 1 1
1 1 1 1
0.999997 1 1 0.999997
1 1 1 1
1 1 1 1
1 1 1 1
0.999991 1 1 0.999991
0.999995 1 1 0.999995
1 1 1 1
0.999998 1 1 0.999998
0.999982 1 1 0.999982
1 1 1 1
1 1 1 1
1 1 1 1
1 1 1 1
1 1 1 1
1 1 1 1
1 1 1 1
1 1 1 1
1 1 1 1
1 1 1 1
1 1 1 1
0.999991 1 1 0.999991
1 1 1 1
1 1 1 1
1 1 1 1
1 1 1 1
1 1 1 1
0.999994 1 1 0.999994
1 1 1 1
0.999998 1 1 0.999998
1 1 1 1
1 1 1 1
1 1 1 1
0.999997 1 1 0.999997
1 1 1 1
1 1 1 1
1 1 1 1
1 1 1 1
0.999991 1 1 0.999991
0.999999 1 1 0.999999
0.999996 1 1 0.999996
0.999981 1 1 0.999981
1 1 1 1
1 1 1 1
0.999994 1 1 0.999994
0.999988 1 1 0.999988
0.999993 1 1 0.999993
0.999962 1 1 0.999962
0.999972 1 1 0.999972
1 1 1 1
0.999999 1 1 0.999999
0.999988 1 1 0.999988
0.999942 1 1 0.999942
1 1 1 1
1 1 1 1
1 1 1 1
1 1 1 1
1 1 1 1
1 1 1 1
1 1 1 1
1 1 1 1
1 1 1 1
1 1 1 1
0.999991 1 1 0.999991
1 1 1 1
1 1 1 1
1 1 1 1
1 1 1 1
0.999968 1 1 0.999968
1 1 1 1
0.999986 1 1 0.999986
0.999994 1 1 0.999994
0.999958 1 1 0.999958
1 1 1 1
1 1 1 1
1 1 1 1
1 1 1 1
1 1 1 1
1 1 1 1
0.999995 1 1 0.999995
1 1 1 1
0.999998 1 1 0.999998
1 1 1 1
0.999993 1 1 0.999993
0.999996 1 1 0.999996
0.999947 1 1 0.999947
0.999999 1 1 0.999999
0.999953 1 1 0.999953
1 1 1 1
1 1 1 1
1 1 1 1
1 1 1 1
0.999991 1 1 0.999991
0.999996 1 1 0.999996
0.999999 1 1 0.999999
0.99998 1 1 0.99998
1 1 1 1
1 1 1 1
0.99999 1 1 0.99999
0.999988 1 1 0.999988
1 1 1 1
1 1 1 1
0.999994 1 1 0.999994
0.99996 1 1 0.99996
0.999987 1 1 0.999987
0.999974 1 1 0.999974
0.999942 1 1 0.999942
0.999994 1 1 0.999994
0.999986 1 1 0.999986
0.999948 1 1 0.999948
0.999953 1 1 0.999953
0.999965 1 1 0.999965
0.999925 1 1 0.999925
1 1 1 1
0.999938 1 1 0.999938
1 1 1 1
0.999992 1 1 0.999992
0.999947 1 1 0.999947
0.999925 1 1 0.999925
1 1 1 1
0.999996 1 1 0.999996
1 1 1 1
1 1 1 1
1 1 1 1
1 1 1 1
1 1 1 1
1 1 1 1
0.999991 1 1 0.999991
1 1 1 1
1 1 1 1
1 1 1 1
1 1 1 1
0.999968 1 1 0.999968
1 1 1 1
0.999986 1 1 0.999986
0.999994 1 1 0.999994
0.999956 1 1 0.999956
1 1 1 1
1 1 1 1
0.999997 1 1 0.999997
0.999961 1 1 0.999961
0.999977 1 1 0.999977
0.999931 1 1 0.999931
0.999996 1 1 0.999996
0.999949 1 1 0.999949
0.999962 1 1 0.999962
0.99994 1 1 0.99994
1 1 1 1
1 1 1 1
1 1 1 1
1 1 1 1
1 1 1 1
1 1 1 1
1 1 1 1
0.999999 1 1 0.999999
0.999995 1 1 0.999995
1 1 1 1
1 1 1 1
0.999994 1 1 0.999994
0.999997 1 1 0.999997
0.999947 1 1 0.999947
0.999999 1 1 0.999999
0.999952 1 1 0.999952
0.999993 1 1 0.999993
0.999948 1 1 0.999948
0.999949 1 1 0.999949
0.999921 1 1 0.999921
0.999956 1 1 0.999956
0.999922 1 1 0.999922
1 1 1 1
1 1 1 1
0.999985 1 1 0.999985
0.999988 1 1 0.999988
1 1 1 1
1 1 1 1
0.999994 1 1 0.999994
0.999957 1 1 0.999957
0.999976 1 1 0.999976
0.999986 1 1 0.999986
0.999943 1 1 0.999943
0.999994 1 1 0.999994
0.999986 1 1 0.999986
0.999943 1 1 0.999943
0.999954 1 1 0.999954
1 1 1 1
1 1 1 1
0.999992 1 1 0.999992
0.999966 1 1 0.999966
0.999922 1 1 0.999922
0.999946 1 1 0.999946
0.99994 1 1 0.99994
0.999925 1 1 0.999925
1 1 1 1
0.999996 1 1 0.999996
0.999946 1 1 0.999946
0.999949 1 1 0.999949
0.999917 1 1 0.999917
0.999912 1 1 0.999912
0.999934 1 1 0.999934
0.999908 1 1 0.999908
1 1 1 1
0.999922 1 1 0.999922
0.999995 1 1 0.999995
0.999952 1 1 0.999952
0.99993 1 1 0.99993
0.999919 1 1 0.999919
0.999996 1 1 0.999996
0.999997 1 1 0.999997
0.999965 1 1 0.999965
1 1 1 1
1 1 1 1
1 1 1 1
1 1 1 1
0.999968 1 1 0.999968
1 1 1 1
0.999995 1 1 0.999995
0.999987 1 1 0.999987
0.999955 1 1 0.999955
1 1 1 1
1 1 1 1
0.999997 1 1 0.999997
0.999961 1 1 0.999961
0.999978 1 1 0.999978
0.999931 1 1 0.999931
0.999997 1 1 0.999997
0.99995 1 1 0.99995
0.999962 1 1 0.999962
0.999938 1 1 0.999938
1 1 1 1
0.999997 1 1 0.999997
0.999997 1 1 0.999997
0.999969 1 1 0.999969
0.999926 1 1 0.999926
0.999941 1 1 0.999941
0.999914 1 1 0.999914
0.999966 1 1 0.999966
0.999931 1 1 0.999931
0.999937 1 1 0.999937
0.999927 1 1 0.999927
0.999998 1 1 0.999998
1 1 1 1
1 1 1 1
1 1 1 1
1 1 1 1
1 1 1 1
1 1 1 1
1 1 1 1
1 1 1 1
1 1 1 1
0.999997 1 1 0.999997
0.999952 1 1 0.999952
0.999947 1 1 0.999947
0.999994 1 1 0.999994
1 1 1 1
0.999993 1 1 0.999993
0.999948 1 1 0.999948
0.999949 1 1 0.999949
0.999921 1 1 0.999921
0.999956 1 1 0.999956
0.999922 1 1 0.999922
0.999948 1 1 0.999948
0.999925 1 1 0.999925
0.99992 1 1 0.99992
0.999911 1 1 0.999911
0.999925 1 1 0.999925
0.999912 1 1 0.999912
0.999993 1 1 0.999993
0.999986 1 1 0.999986
0.999938 1 1 0.999938
0.999956 1 1 0.999956
1 1 1 1
1 1 1 1
0.999991 1 1 0.999991
0.999966 1 1 0.999966
0.999918 1 1 0.999918
0.999942 1 1 0.999942
0.999946 1 1 0.999946
0.999925 1 1 0.999925
1 1 1 1
0.999996 1 1 0.999996
0.999944 1 1 0.999944
0.999948 1 1 0.999948
0.999917 1 1 0.999917
0.999916 1 1 0.999916
1 1 1 1
0.999994 1 1 0.999994
0.999955 1 1 0.999955
0.999934 1 1 0.999934
0.999907 1 1 0.999907
0.999928 1 1 0.999928
0.999922 1 1 0.999922
0.999919 1 1 0.999919
0.999996 1 1 0.999996
0.999964 1 1 0.999964
0.999997 1 1 0.999997
0.999923 1 1 0.999923
0.999914 1 1 0.999914
0.999904 1 1 0.999904
0.9999 1 1 0.9999
0.999917 1 1 0.999917
0.999906 1 1 0.999906
0.999996 1 1 0.999996
0.999918 1 1 0.999918
0.999962 1 1 0.999962
0.999931 1 1 0.999931
0.999918 1 1 0.999918
0.999924 1 1 0.999924
0.999997 1 1 0.999997
0.999966 1 1 0.999966
0.999961 1 1 0.999961
0.999945 1 1 0.999945
0.99996 1 1 0.99996
1 1 1 1
1 1 1 1
0.999997 1 1 0.999997
0.999979 1 1 0.999979
0.999931 1 1 0.999931
0.999997 1 1 0.999997
0.999961 1 1 0.999961
0.999951 1 1 0.999951
0.999936 1 1 0.999936
1 1 1 1
0.999997 1 1 0.999997
0.999997 1 1 0.999997
0.999969 1 1 0.999969
0.999926 1 1 0.999926
0.999941 1 1 0.999941
0.999914 1 1 0.999914
0.999966 1 1 0.999966
0.999933 1 1 0.999933
0.999936 1 1 0.999936
0.999929 1 1 0.999929
1 1 1 1
0.999998 1 1 0.999998
0.999969 1 1 0.999969
0.99997 1 1 0.99997
0.999942 1 1 0.999942
0.999913 1 1 0.999913
0.999922 1 1 0.999922
0.999909 1 1 0.999909
0.999939 1 1 0.999939
0.999923 1 1 0.999923
0.999915 1 1 0.999915
0.999998 1 1 0.999998
0.999974 1 1 0.999974
0.999999 1 1 0.999999
0.999998 1 1 0.999998
1 1 1 1
1 1 1 1
1 1 1 1
1 1 1 1
1 1 1 1
1 1 1 1
1 1 1 1
1 1 1 1
1 1 1 1
1 1 1 1
1 1 1 1
0.999956 1 1 0.999956
0.999948 1 1 0.999948
0.999922 1 1 0.999922
0.999921 1 1 0.999921
0.999948 1 1 0.999948
0.999993 1 1 0.999993
0.999948 1 1 0.999948
0.999925 1 1 0.999925
0.99992 1 1 0.99992
0.999912 1 1 0.999912
0.999925 1 1 0.999925
0.999912 1 1 0.999912
0.999925 1 1 0.999925
0.999918 1 1 0.999918
0.999909 1 1 0.999909
0.999907 1 1 0.999907
0.999915 1 1 0.999915
0.999913 1 1 0.999913
0.999942 1 1 0.999942
0.999948 1 1 0.999948
0.999917 1 1 0.999917
0.999919 1 1 0.999919
1 1 1 1
0.999994 1 1 0.999994
0.999957 1 1 0.999957
0.999935 1 1 0.999935
0.999907 1 1 0.999907
0.999922 1 1 0.999922
0.999925 1 1 0.999925
0.999919 1 1 0.999919
0.999996 1 1 0.999996
0.999962 1 1 0.999962
0.999996 1 1 0.999996
0.999922 1 1 0.999922
0.999913 1 1 0.999913
0.999902 1 1 0.999902
0.999901 1 1 0.999901
0.999996 1 1 0.999996
0.999962 1 1 0.999962
0.999933 1 1 0.999933
0.999919 1 1 0.999919
0.999907 1 1 0.999907
0.999916 1 1 0.999916
0.999918 1 1 0.999918
0.999925 1 1 0.999925
0.999966 1 1 0.999966
0.999942 1 1 0.999942
0.999997 1 1 0.999997
0.999961 1 1 0.999961
0.999909 1 1 0.999909
0.999898 1 1 0.999898
0.999894 1 1 0.999894
0.999898 1 1 0.999898
0.999916 1 1 0.999916
0.99991 1 1 0.99991
0.999965 1 1 0.999965
0.999925 1 1 0.999925
0.999937 1 1 0.999937
0.999918 1 1 0.999918
0.999913 1 1 0.999913
0.999928 1 1 0.999928
0.999997 1 1 0.999997
0.999962 1 1 0.999962
0.999943 1 1 0.999943
0.999939 1 1 0.999939
0.999931 1 1 0.999931
1 1 1 1
0.999926 1 1 0.999926
0.999997 1 1 0.999997
0.999997 1 1 0.999997
0.999969 1 1 0.999969
0.999941 1 1 0.999941
0.999913 1 1 0.999913
0.999966 1 1 0.999966
0.999936 1 1 0.999936
0.999935 1 1 0.999935
0.999931 1 1 0.999931
1 1 1 1
0.999998 1 1 0.999998
0.999969 1 1 0.999969
0.99997 1 1 0.99997
0.999941 1 1 0.999941
0.999913 1 1 0.999913
0.999922 1 1 0.999922
0.999908 1 1 0.999908
0.999939 1 1 0.999939
0.999924 1 1 0.999924
0.999916 1 1 0.999916
0.999998 1 1 0.999998
0.999971 1 1 0.999971
0.99994 1 1 0.99994
0.999942 1 1 0.999942
0.999929 1 1 0.999929
0.999913 1 1 0.999913
0.999914 1 1 0.999914
0.99992 1 1 0.99992
0.999918 1 1 0.999918
0.999905 1 1 0.999905
0.999998 1 1 0.999998
0.999968 1 1 0.999968
0.999972 1 1 0.999972
0.999949 1 1 0.999949
0.999975 1 1 0.999975
0.999999 1 1 0.999999
0.999999 1 1 0.999999
1 1 1 1
0.999998 1 1 0.999998
1 1 1 1
1 1 1 1
1 1 1 1
1 1 1 1
1 1 1 1
1 1 1 1
1 1 1 1
1 1 1 1
1 1 1 1
1 1 1 1
1 1 1 1
0.999924 1 1 0.999924
0.99992 1 1 0.99992
0.999913 1 1 0.999913
0.999912 1 1 0.999912
0.999925 1 1 0.999925
0.999948 1 1 0.999948
0.999925 1 1 0.999925
0.999919 1 1 0.999919
0.999909 1 1 0.999909
0.999906 1 1 0.999906
0.999915 1 1 0.999915
0.999913 1 1 0.999913
0.999918 1 1 0.999918
0.999916 1 1 0.999916
0.999905 1 1 0.999905
0.999901 1 1 0.999901
0.999917 1 1 0.999917
0.999915 1 1 0.999915
0.99992 1 1 0.99992
0.999913 1 1 0.999913
0.9999 1 1 0.9999
0.999902 1 1 0.999902
0.999996 1 1 0.999996
0.999962 1 1 0.999962
0.999935 1 1 0.999935
0.99992 1 1 0.99992
0.999907 1 1 0.999907
0.999918 1 1 0.999918
0.999915 1 1 0.999915
0.999926 1 1 0.999926
0.999966 1 1 0.999966
0.99994 1 1 0.99994
0.999997 1 1 0.999997
0.999961 1 1 0.999961
0.999909 1 1 0.999909
0.999898 1 1 0.999898
0.999893 1 1 0.999893
0.999898 1 1 0.999898
0.999965 1 1 0.999965
0.999939 1 1 0.999939
0.999917 1 1 0.999917
0.999915 1 1 0.999915
0.999911 1 1 0.999911
0.999912 1 1 0.999912
0.999925 1 1 0.999925
0.99993 1 1 0.99993
0.999943 1 1 0.999943
0.999929 1 1 0.999929
0.999939 1 1 0.999939
0.999995 1 1 0.999995
0.999962 1 1 0.999962
0.999903 1 1 0.999903
0.999889 1 1 0.999889
0.999902 1 1 0.999902
0.99992 1 1 0.99992
0.999943 1 1 0.999943
0.999936 1 1 0.999936
0.999924 1 1 0.999924
0.999904 1 1 0.999904
0.999911 1 1 0.999911
0.999993 1 1 0.999993
0.999968 1 1 0.999968
0.999937 1 1 0.999937
0.999931 1 1 0.999931
0.999921 1 1 0.999921
0.999921 1 1 0.999921
1 1 1 1
0.999998 1 1 0.999998
0.999913 1 1 0.999913
0.99997 1 1 0.99997
0.999969 1 1 0.999969
0.99994 1 1 0.99994
0.999922 1 1 0.999922
0.999908 1 1 0.999908
0.999939 1 1 0.999939
0.999917 1 1 0.999917
0.999925 1 1 0.999925
0.999998 1 1 0.999998
0.99997 1 1 0.99997
0.999942 1 1 0.999942
0.999942 1 1 0.999942
0.999928 1 1 0.999928
0.999913 1 1 0.999913
0.999914 1 1 0.999914
0.999921 1 1 0.999921
0.999917 1 1 0.999917
0.999904 1 1 0.999904
0.999971 1 1 0.999971
0.999938 1 1 0.999938
0.999923 1 1 0.999923
0.999923 1 1 0.999923
0.999918 1 1 0.999918
0.999934 1 1 0.999934
0.999907 1 1 0.999907
0.999921 1 1 0.999921
0.999905 1 1 0.999905
0.999888 1 1 0.999888
0.999998 1 1 0.999998
0.99997 1 1 0.99997
0.999939 1 1 0.999939
0.999969 1 1 0.999969
0.999975 1 1 0.999975
0.999945 1 1 0.999945
0.999927 1 1 0.999927
0.999943 1 1 0.999943
0.999975 1 1 0.999975
0.999999 1 1 0.999999
0.999999 1 1 0.999999
1 1 1 1
0.999999 1 1 0.999999
1 1 1 1
1 1 1 1
1 1 1 1
1 1 1 1
1 1 1 1
1 1 1 1
1 1 1 1
1 1 1 1
1 1 1 1
1 1 1 1
1 1 1 1
0.999915 1 1 0.999915
0.999909 1 1 0.999909
0.999912 1 1 0.999912
0.999904 1 1 0.999904
0.99992 1 1 0.99992
0.999925 1 1 0.999925
0.999918 1 1 0.999918
0.999916 1 1 0.999916
0.999904 1 1 0.999904
0.999897 1 1 0.999897
0.999917 1 1 0.999917
0.999914 1 1 0.999914
0.999922 1 1 0.999922
0.999911 1 1 0.999911
0.999899 1 1 0.999899
0.999931 1 1 0.999931
0.999909 1 1 0.999909
0.999898 1 1 0.999898
0.999891 1 1 0.999891
0.999899 1 1 0.999899
0.999965 1 1 0.999965
0.999941 1 1 0.999941
0.999917 1 1 0.999917
0.999915 1 1 0.999915
0.999912 1 1 0.999912
0.999925 1 1 0.999925
0.999911 1 1 0.999911
0.999933 1 1 0.999933
0.999943 1 1 0.999943
0.999928 1 1 0.999928
0.999939 1 1 0.999939
0.999993 1 1 0.999993
0.999962 1 1 0.999962
0.9999 1 1 0.9999
0.999891 1 1 0.999891
0.999903 1 1 0.999903
0.999943 1 1 0.999943
0.999926 1 1 0.999926
0.999904 1 1 0.999904
0.999919 1 1 0.999919
0.999914 1 1 0.999914
0.999936 1 1 0.999936
0.999993 1 1 0.999993
0.999931 1 1 0.999931
0.999921 1 1 0.999921
0.999922 1 1 0.999922
0.999938 1 1 0.999938
0.999966 1 1 0.999966
0.999898 1 1 0.999898
0.999889 1 1 0.999889
0.999912 1 1 0.999912
0.999933 1 1 0.999933
0.99993 1 1 0.99993
0.999925 1 1 0.999925
0.999908 1 1 0.999908
0.999896 1 1 0.999896
0.999994 1 1 0.999994
0.999968 1 1 0.999968
0.999941 1 1 0.999941
0.999915 1 1 0.999915
0.999919 1 1 0.999919
0.999911 1 1 0.999911
0.999998 1 1 0.999998
0.99997 1 1 0.99997
0.999913 1 1 0.999913
0.999942 1 1 0.999942
0.999943 1 1 0.999943
0.999926 1 1 0.999926
0.999913 1 1 0.999913
0.999922 1 1 0.999922
0.999916 1 1 0.999916
0.999902 1 1 0.999902
0.999971 1 1 0.999971
0.999939 1 1 0.999939
0.999925 1 1 0.999925
0.999925 1 1 0.999925
0.999919 1 1 0.999919
0.999935 1 1 0.999935
0.999908 1 1 0.999908
0.999926 1 1 0.999926
0.999903 1 1 0.999903
0.999885 1 1 0.999885
0.999938 1 1 0.999938
0.999917 1 1 0.999917
0.99991 1 1 0.99991
0.999911 1 1 0.999911
0.999938 1 1 0.999938
0.999939 1 1 0.999939
0.999892 1 1 0.999892
0.999881 1 1 0.999881
0.999972 1 1 0.999972
0.999941 1 1 0.999941
0.999923 1 1 0.999923
0.999975 1 1 0.999975
0.999942 1 1 0.999942
0.999975 1 1 0.999975
0.999925 1 1 0.999925
0.999944 1 1 0.999944
0.999912 1 1 0.999912
0.999923 1 1 0.999923
0.999943 1 1 0.999943
0.999974 1 1 0.999974
0.999999 1 1 0.999999
0.999999 1 1 0.999999
1 1 1 1
0.999999 1 1 0.999999
1 1 1 1
1 1 1 1
1 1 1 1
1 1 1 1
1 1 1 1
1 1 1 1
1 1 1 1
1 1 1 1
1 1 1 1
1 1 1 1
1 1 1 1
0.999918 1 1 0.999918
0.999904 1 1 0.999904
0.999913 1 1 0.999913
0.999894 1 1 0.999894
0.999917 1 1 0.999917
0.999919 1 1 0.999919
0.99992 1 1 0.99992
0.999911 1 1 0.999911
0.999901 1 1 0.999901
0.99993 1 1 0.99993
0.999917 1 1 0.999917
0.999907 1 1 0.999907
0.999918 1 1 0.999918
0.999898 1 1 0.999898
0.999892 1 1 0.999892
0.999903 1 1 0.999903
0.999943 1 1 0.999943
0.999928 1 1 0.999928
0.999903 1 1 0.999903
0.999918 1 1 0.999918
0.999935 1 1 0.999935
0.999917 1 1 0.999917
0.999931 1 1 0.999931
0.999922 1 1 0.999922
0.999924 1 1 0.999924
0.999993 1 1 0.999993
0.999939 1 1 0.999939
0.999963 1 1 0.999963
0.999901 1 1 0.999901
0.999888 1 1 0.999888
0.99991 1 1 0.99991
0.99993 1 1 0.99993
0.99991 1 1 0.99991
0.999897 1 1 0.999897
0.999935 1 1 0.999935
0.999925 1 1 0.999925
0.999997 1 1 0.999997
0.999968 1 1 0.999968
0.999919 1 1 0.999919
0.999911 1 1 0.999911
0.999916 1 1 0.999916
0.999939 1 1 0.999939
0.999906 1 1 0.999906
0.99989 1 1 0.99989
0.999936 1 1 0.999936
0.999943 1 1 0.999943
0.999916 1 1 0.999916
0.9999 1 1 0.9999
0.999898 1 1 0.999898
1 1 1 1
0.999977 1 1 0.999977
0.999968 1 1 0.999968
0.999936 1 1 0.999936
0.999915 1 1 0.999915
0.999903 1 1 0.999903
0.999912 1 1 0.999912
0.999903 1 1 0.999903
0.999971 1 1 0.999971
0.999941 1 1 0.999941
0.999937 1 1 0.999937
0.999926 1 1 0.999926
0.999928 1 1 0.999928
0.999919 1 1 0.999919
0.999908 1 1 0.999908
0.999932 1 1 0.999932
0.999902 1 1 0.999902
0.999882 1 1 0.999882
0.999937 1 1 0.999937
0.999919 1 1 0.999919
0.999912 1 1 0.999912
0.999912 1 1 0.999912
0.999936 1 1 0.999936
0.999938 1 1 0.999938
0.999894 1 1 0.999894
0.99988 1 1 0.99988
0.99992 1 1 0.99992
0.999928 1 1 0.999928
0.999905 1 1 0.999905
0.999896 1 1 0.999896
0.999955 1 1 0.999955
0.999891 1 1 0.999891
0.999871 1 1 0.999871
0.999943 1 1 0.999943
0.999923 1 1 0.999923
0.99991 1 1 0.99991
0.999975 1 1 0.999975
0.999945 1 1 0.999945
0.999922 1 1 0.999922
0.999974 1 1 0.999974
0.999943 1 1 0.999943
0.99991 1 1 0.99991
0.999925 1 1 0.999925
0.999902 1 1 0.999902
0.999907 1 1 0.999907
0.999926 1 1 0.999926
0.999944 1 1 0.999944
0.999973 1 1 0.999973
0.999998 1 1 0.999998
0.999999 1 1 0.999999
1 1 1 1
0.999999 1 1 0.999999
1 1 1 1
1 1 1 1
1 1 1 1
1 1 1 1
1 1 1 1
1 1 1 1
1 1 1 1
1 1 1 1
1 1 1 1
1 1 1 1
1 1 1 1
1 1 1 1
0.999928 1 1 0.999928
0.999904 1 1 0.999904
0.99991 1 1 0.99991
0.999917 1 1 0.999917
0.99992 1 1 0.99992
0.999906 1 1 0.999906
0.999922 1 1 0.999922
0.999916 1 1 0.999916
0.999912 1 1 0.999912
0.999949 1 1 0.999949
0.999905 1 1 0.999905
0.999888 1 1 0.999888
0.999909 1 1 0.999909
0.99993 1 1 0.99993
0.999912 1 1 0.999912
0.999899 1 1 0.999899
0.999937 1 1 0.999937
0.999924 1 1 0.999924
0.999919 1 1 0.999919
0.999912 1 1 0.999912
0.999917 1 1 0.999917
0.999999 1 1 0.999999
0.999968 1 1 0.999968
0.999938 1 1 0.999938
0.999903 1 1 0.999903
0.999999 1 1 0.999999
0.999975 1 1 0.999975
0.999891 1 1 0.999891
0.999931 1 1 0.999931
0.999916 1 1 0.999916
0.999896 1 1 0.999896
0.9999 1 1 0.9999
0.999943 1 1 0.999943
0.999972 1 1 0.999972
0.999936 1 1 0.999936
0.999912 1 1 0.999912
0.999904 1 1 0.999904
0.999901 1 1 0.999901
0.999916 1 1 0.999916
0.999884 1 1 0.999884
0.999912 1 1 0.999912
0.999964 1 1 0.999964
0.999919 1 1 0.999919
0.999907 1 1 0.999907
0.999887 1 1 0.999887
0.999976 1 1 0.999976
0.999975 1 1 0.999975
0.99995 1 1 0.99995
0.999933 1 1 0.999933
0.999916 1 1 0.999916
0.999892 1 1 0.999892
0.999889 1 1 0.999889
0.999903 1 1 0.999903
0.999937 1 1 0.999937
0.999921 1 1 0.999921
0.999935 1 1 0.999935
0.999936 1 1 0.999936
0.999913 1 1 0.999913
0.999913 1 1 0.999913
0.999896 1 1 0.999896
0.99988 1 1 0.99988
0.99992 1 1 0.99992
0.999939 1 1 0.999939
0.999904 1 1 0.999904
0.999894 1 1 0.999894
0.999953 1 1 0.999953
0.999893 1 1 0.999893
0.999869 1 1 0.999869
0.999905 1 1 0.999905
0.999959 1 1 0.999959
0.999894 1 1 0.999894
0.999874 1 1 0.999874
0.999896 1 1 0.999896
1.00024 1 1.00038 0.999857
0.984078 1.00149 0.982751 0.999857
0.999923 1 1 0.999923
0.99991 1 1 0.99991
0.999901 1 1 0.999901
0.999974 1 1 0.999974
0.999943 1 1 0.999943
0.999928 1 1 0.999928
0.999908 1 1 0.999908
0.999973 1 1 0.999973
0.999943 1 1 0.999943
0.999902 1 1 0.999902
0.999926 1 1 0.999926
0.999909 1 1 0.999909
0.999897 1 1 0.999897
0.999911 1 1 0.999911
0.999926 1 1 0.999926
0.999939 1 1 0.999939
0.999968 1 1 0.999968
0.999946 1 1 0.999946
0.999968 1 1 0.999968
0.999998 1 1 0.999998
0.999998 1 1 0.999998
1 1 1 1
0.999999 1 1 0.999999
1 1 1 1
1 1 1 1
1 1 1 1
1 1 1 1
1 1 1 1
1 1 1 1
1 1 1 1
1 1 1 1
1 1 1 1
1 1 1 1
1 1 1 1
1 1 1 1
1 1 1 1
0.999926 1 1 0.999926
0.999905 1 1 0.999905
0.999922 1 1 0.999922
0.999917 1 1 0.999917
0.999912 1 1 0.999912
0.999962 1 1 0.999962
0.999915 1 1 0.999915
0.996585 1 0.9966 0.999984
0.999995 1 0.999996 0.999999
0.999984 1 1 0.999984
0.9999 1 1 0.9999
0.999892 1 1 0.999892
0.999927 1 1 0.999927
0.999917 1 1 0.999917
0.999895 1 1 0.999895
0.999901 1 1 0.999901
0.999942 1 1 0.999942
0.999913 1 1 0.999913
0.999904 1 1 0.999904
0.999899 1 1 0.999899
0.999999 1 1 0.999999
0.999916 1 1 0.999916
0.999977 1 1 0.999977
0.999936 1 1 0.999936
0.999973 1 1 0.999973
0.99988 1 1 0.99988
0.999979 1 1 0.999979
0.999975 1 1 0.999975
0.999947 1 1 0.999947
0.999913 1 1 0.999913
0.999958 1 1 0.999958
0.999907 1 1 0.999907
0.999887 1 1 0.999887
0.999919 1 1 0.999919
0.999935 1 1 0.999935
0.999915 1 1 0.999915
0.999903 1 1 0.999903
0.999891 1 1 0.999891
0.999894 1 1 0.999894
0.999914 1 1.00004 0.999869
0.998742 1 0.998782 0.999959
0.999941 1 1 0.999941
0.999892 1 1 0.999892
0.999898 1 1 0.999898
0.999947 1 1 0.999947
0.999938 1 1 0.999938
0.999926 1 1 0.999926
0.999909 1 1 0.999909
0.999897 1 1 0.999897
0.999878 1 1 0.999878
0.999943 1 1.00006 0.999885
0.99992 1 1 0.99992
0.999904 1 1 0.999904
0.999949 1 1 0.999949
0.99995 1 1 0.99995
0.999894 1 1 0.999894
0.999892 1 1 0.999892
0.999868 1 1 0.999868
0.999906 1 1 0.999906
0.999965 1 1 0.999965
0.999893 1 1 0.999893
0.999873 1 1 0.999873
0.999903 1 1 0.999903
1.00058 1 1.00073 0.999855
0.987583 1.00318 0.984585 0.999868
0.999896 1 1 0.999896
0.999877 1 1 0.999877
0.999884 1 1 0.999884
1.00149 1 1.00164 0.99985
1.00037 1 1.00054 0.999838
0.97125 0.971661 1.00001 0.999571
0.988799 1.00154 0.987363 0.999914
0.982749 1.00458 0.978448 0.999813
0.97553 0.980913 0.994532 0.999981
0.984241 1.00161 0.982657 1
0.99991 1 1 0.99991
0.999901 1 1 0.999901
0.999895 1 1 0.999895
0.999973 1 1 0.999973
0.999941 1 1 0.999941
0.999926 1 1 0.999926
0.999911 1 1 0.999911
0.999901 1 1 0.999901
0.999923 1 1 0.999923
0.99997 1 1 0.99997
0.99994 1 1 0.99994
0.999898 1 1 0.999898
0.99991 1 1 0.99991
0.999911 1 1 0.999911
0.999898 1 1 0.999898
0.999918 1 1 0.999918
0.999937 1 1 0.999937
0.999967 1 1 0.999967
0.999943 1 1 0.999943
0.999924 1 1 0.999924
0.999941 1 1 0.999941
0.999942 1 1 0.999942
0.999972 1 1 0.999972
0.999968 1 1 0.999968
0.999998 1 1 0.999998
0.999998 1 1 0.999998
1 1 1 1
0.999998 1 1 0.999998
1 1 1 1
1 1 1 1
1 1 1 1
1 1 1 1
1 1 1 1
1 1 1 1
1 1 1 1
1 1 1 1
1 1 1 1
1 1 1 1
1 1 1 1
1 1 1 1
1 1 1 1
1 1 1 1
0.999912 1 1 0.999912
0.999917 1 1 0.999917
0.999976 1 1 0.999976
0.996222 1 0.996238 0.999984
0.999915 1 1 0.999915
0.999984 1 1 0.999985
0.999938 1 1.00004 0.9999
0.988635 0.991314 0.99746 0.999836
0.999998 1 1 0.999999
0.999986 1 1 0.999986
0.999984 1 1 0.999984
0.999954 1 1 0.999954
0.999961 1 1 0.999961
0.999876 1 1 0.999876
0.999913 1 1 0.999913
0.999952 1 1 0.999952
0.999908 1 1 0.999908
0.999887 1 1 0.999887
0.99992 1 1 0.99992
0.999903 1 1 0.999903
0.999894 1 1 0.999894
0.999896 1 1 0.999896
0.999975 1 1 0.999975
0.999914 1 1 0.999914
0.999938 1 1 0.999938
0.999982 1 1 0.999982
0.999943 1 1 0.999943
0.999907 1 1.00003 0.999872
0.999951 1 1 0.999951
0.99994 1 1 0.99994
0.999927 1 1 0.999927
0.99932 1 0.999362 0.999958
0.999941 1 1 0.999941
0.999898 1 1 0.999898
0.999894 1 1 0.999894
0.99991 1 1 0.99991
0.999899 1 1 0.999899
0.999907 1 1.00002 0.999885
0.999879 1 1 0.999879
0.999943 1 1.00003 0.999912
0.998799 1 0.998827 0.999972
0.99989 1 1 0.99989
0.999888 1 1 0.999888
0.999919 1 1 0.999919
0.999913 1 1 0.999913
0.999882 1 1 0.999882
1.00006 1 1.0002 0.999861
0.971477 0.973753 0.998058 0.999603
0.999907 1 1 0.999907
0.999893 1 1 0.999893
0.99997 1 1 0.99997
0.99991 1 1 0.99991
1.00095 1 1.00109 0.999853
0.999873 1 1 0.999873
0.991508 1.00494 0.986756 0.999879
0.999897 1 1 0.999897
0.999879 1 1 0.999879
0.999885 1 1 0.999885
1.0012 1 1.00135 0.99985
1.00015 1 1.0003 0.999845
0.972177 0.971536 1.00105 0.999614
0.987 1.00011 0.987119 0.999772
0.984697 1.00579 0.979214 0.999812
0.976423 0.98202 0.99439 0.99991
0.985222 1.00164 0.983611 1
0.999894 1 1 0.999894
0.97719 0.979546 0.997734 0.99986
0.993943 1.00048 0.993469 1
0.999821 1 1 0.999821
1.00111 1 1.00123 0.999875
1.00508 1 1.00526 0.999824
0.996904 1.00533 0.99183 0.999783
0.982426 0.978269 1.00478 0.999472
0.986478 1.00527 0.981554 0.999744
0.97314 0.985386 0.987598 0.999974
0.994439 1.00163 0.992823 0.999999
0.999902 1 1 0.999902
0.999895 1 1 0.999895
0.999891 1 1 0.999891
0.999972 1 1 0.999972
0.999942 1 1 0.999942
0.999921 1 1 0.999921
0.999909 1 1 0.999909
0.999899 1 1 0.999899
0.999967 1 1 0.999967
0.999911 1 1 0.999911
0.99992 1 1 0.99992
0.999939 1 1 0.999939
0.999897 1 1 0.999897
0.999903 1 1 0.999903
0.999891 1 1 0.999891
0.999916 1 1 0.999916
0.999941 1 1 0.999941
0.999942 1 1 0.999942
0.999921 1 1 0.999921
0.99992 1 1 0.99992
0.999919 1 1 0.999919
0.999908 1 1 0.999908
0.999915 1 1 0.999915
0.999938 1 1 0.999938
0.999941 1 1 0.999941
0.999971 1 1 0.999971
0.999939 1 1 0.999939
0.99997 1 1 0.99997
0.999998 1 1 0.999998
0.999968 1 1 0.999968
0.999998 1 1 0.999998
1 1 1 1
0.999998 1 1 0.999998
1 1 1 1
1 1 1 1
1 1 1 1
1 1 1 1
1 1 1 1
0.999986 1 1 0.999986
1 1 1 1
1 1 1 1
1 1 1 1
1 1 1 1
1 1 1 1
1 1 1 1
1 1 1 1
1 1 1 1
1 1 1 1
0.99563 1 0.995646 0.999985
0.999916 1 1 0.999916
0.99997 1 1 0.99997
0.99025 0.991741 0.998581 0.999915
1.00012 1 1.00012 0.999996
0.999924 1 1.00003 0.99989
1.00148 1 1.00159 0.999885
0.996729 0.995265 1.00163 0.999845
0.974666 0.975094 1.00011 0.999447
0.974565 0.98076 0.993849 0.999833
0.988696 1.00061 0.988093 1
0.999956 1 1 0.999956
0.999986 1 1 0.999986
0.999984 1 1 0.999984
0.999954 1 1 0.999954
0.999935 1 1 0.999935
0.999942 1 1 0.999942
0.999958 1 1 0.999958
0.99996 1 1 0.99996
0.999902 1 1.00003 0.999876
0.999868 1 0.999912 0.999956
0.999941 1 1 0.999941
0.999898 1 1 0.999898
0.999895 1 1 0.999895
0.999885 1 1 0.999885
0.99988 1 1 0.99988
0.999901 1 1 0.999901
0.999943 1 1 0.999943
0.999911 1 1 0.999911
0.999955 1 1 0.999955
0.999929 1 1 0.999929
0.999642 1 0.99973 0.999911
0.99992 1 1 0.99992
0.999914 1 1 0.999914
0.998573 1 0.998603 0.999971
0.999894 1 1 0.999894
0.999894 1 1.00001 0.999883
0.999883 1 1 0.999883
1.00009 1 1.00023 0.999862
0.989058 1.00041 0.988702 0.999952
1.00118 1 1.00127 0.999909
0.99987 1 1 0.99987
1.00087 1 1.00102 0.999851
0.999899 1 1 0.999899
0.99989 1 1 0.99989
0.999989 1 1.00013 0.999859
0.974826 0.980813 0.993909 0.999987
0.974123 0.974636 0.999862 0.999611
0.999898 1 1 0.999898
0.999886 1 1 0.999886
0.999881 1 1 0.999881
0.999853 1 1 0.999853
1.00086 1 1.00101 0.999851
0.972485 0.973168 0.999863 0.999435
0.989555 0.99933 0.990279 0.999938
0.986745 1.00695 0.980121 0.99981
0.973871 0.981576 0.99232 0.999829
0.986035 1.00158 0.984476 1
0.999894 1 1 0.999894
0.975573 0.980324 0.995168 0.999985
0.994181 1.00077 0.993418 1
0.99982 1 1 0.99982
1.00048 1 1.0006 0.999876
1.00458 1 1.00475 0.999831
0.996091 1.00397 0.992373 0.999779
0.980061 0.977719 1.00302 0.99938
0.981847 1.00263 0.979346 0.999928
0.973889 0.985695 0.988217 0.999804
0.991478 1.00172 0.989778 1
0.99989 1 1 0.99989
0.998574 0.999588 0.998986 0.999999
0.999415 0.999763 0.999651 1
1.00747 1 1.00766 0.999813
1.00406 1 1.00419 0.999872
1.00244 1.00181 1.00075 0.999878
0.991617 1.00129 0.99039 0.999945
0.985794 0.982538 1.00391 0.999406
0.982277 0.995174 0.987262 0.999776
0.999461 1.00102 0.998444 0.999999
0.999895 1 1 0.999895
0.999891 1 1 0.999891
0.999888 1 1 0.999888
0.999967 1 1 0.999967
0.999941 1 1 0.999941
0.999923 1 1 0.999923
0.999911 1 1 0.999911
0.999895 1 1 0.999895
0.999941 1 1 0.999941
0.999904 1 1 0.999904
0.999916 1 1 0.999916
0.999891 1 1 0.999891
0.999886 1 1 0.999886
0.999897 1 1 0.999897
0.999917 1 1 0.999917
0.999942 1 1 0.999942
0.999919 1 1 0.999919
0.999919 1 1 0.999919
0.999919 1 1 0.999919
0.999909 1 1 0.999909
0.999916 1 1 0.999916
0.999904 1 1 0.999904
0.999902 1 1 0.999902
0.999907 1 1 0.999907
0.999919 1 1 0.999919
0.999919 1 1 0.999919
0.999915 1 1 0.999915
0.999937 1 1 0.999937
0.999938 1 1 0.999938
0.99997 1 1 0.99997
0.999941 1 1 0.999941
0.999971 1 1 0.999971
0.999998 1 1 0.999998
0.999968 1 1 0.999968
0.999998 1 1 0.999998
1 1 1 1
0.999998 1 1 0.999998
1 1 1 1
1 1 1 1
1 1 1 1
1 1 1 1
1 1 1 1
0.999987 1 1 0.999987
1 1 1 1
0.999986 1 1 0.999986
1 1 1 1
1 1 1 1
1 1 1 1
1 1 1 1
1 1 1 1
1 1 1 1
1 1 1 1
1 1 1 1
0.975853 0.979795 0.995988 0.999989
0.997455 1.00039 0.997065 1
0.991582 0.991911 0.999696 0.999971
1.00019 1 1.0002 0.999993
0.999909 1 1.00003 0.99988
0.996323 0.994388 1.00195 0.999992
1.00068 1 1.0008 0.999889
0.977521 0.97668 1.00129 0.999573
0.975248 0.98037 0.994791 0.999984
0.989303 1.001 0.988317 1
1.00333 0.998102 1.00531 0.999929
0.981574 0.979497 1.00261 0.999509
0.97437 0.98511 0.989124 0.999974
0.991644 1.00226 0.989409 0.999999
0.999928 1 1 0.999928
0.999958 1 1 0.999958
0.999986 1 1 0.999986
0.999953 1 1 0.999953
0.999937 1 1 0.999937
0.999935 1 1 0.999935
0.999943 1 1 0.999943
0.999949 1 1 0.999949
0.999955 1 1 0.999955
0.999958 1 1 0.999958
0.999346 1 0.999436 0.99991
0.998366 1 0.998396 0.999969
0.999898 1 1 0.999898
0.99989 1 1.00001 0.999879
1.00011 1 1.00025 0.999863
0.999883 1 1 0.999883
0.999916 1 1 0.999916
0.999921 1 1 0.999921
0.991976 1.00015 0.991878 0.999946
0.999898 1 1 0.999898
0.999888 1 1 0.999888
0.999992 1 1.00008 0.999914
0.999867 1 1 0.999867
1.00047 1 1.00062 0.999849
1.00008 1 1.00022 0.999856
0.981685 1.00319 0.978648 0.999912
1.00377 1 1.00392 0.99985
1.00083 1 1.00099 0.999833
0.999897 1 1 0.999897
0.999882 1 1 0.999882
0.999866 1 1 0.999866
0.997349 0.999383 0.997965 1
0.975829 0.980085 0.995786 0.999871
0.972128 0.974362 0.998115 0.999591
0.999894 1 1 0.999894
0.999877 1 1 0.999877
0.999819 1 1 0.999819
1.00418 1 1.00434 0.999839
0.974853 0.980683 0.994197 0.999856
0.977561 0.977017 1.00092 0.99964
0.98211 1.00372 0.978704 0.999762
0.996024 1.00275 0.993519 0.999775
0.97435 0.985038 0.989176 0.999973
0.993646 1.00112 0.99253 1
0.989483 1.00212 0.987387 0.999999
0.99989 1 1 0.99989
0.998077 0.999833 0.998244 1
0.999463 0.99968 0.999783 1
1.00787 1 1.00805 0.999812
1.00416 1 1.00429 0.999871
1.00554 1.00147 1.00427 0.999792
0.988692 1.00118 0.987767 0.999754
0.984094 0.982302 1.00243 0.9994
0.986961 0.994223 0.992735 0.999961
0.997475 1.00111 0.996376 0.999997
0.999891 1 1 0.999891
0.999231 0.999228 1 1
0.999417 0.998982 1.00043 1
1.00588 1 1.00597 0.999917
1.00054 0.997839 1.00275 0.999959
0.992732 0.988335 1.005 0.999448
0.986109 1.00246 0.98375 0.999942
0.999057 0.99915 0.999915 0.999992
0.999891 1 1 0.999891
0.999889 1 1 0.999889
0.999884 1 1 0.999884
0.999941 1 1 0.999941
0.999916 1 1 0.999916
0.999906 1 1 0.999906
0.99989 1 1 0.99989
0.999917 1 1 0.999917
0.999897 1 1 0.999897
0.999886 1 1 0.999886
0.99989 1 1 0.99989
0.999883 1 1 0.999883
0.9999 1 1 0.9999
0.999919 1 1 0.999919
0.999919 1 1 0.999919
0.99991 1 1 0.99991
0.999905 1 1 0.999905
0.999916 1 1 0.999916
0.999903 1 1 0.999903
0.9999 1 1 0.9999
0.999895 1 1 0.999895
0.999899 1 1 0.999899
0.999907 1 1 0.999907
0.99991 1 1 0.99991
0.999915 1 1 0.999915
0.999933 1 1 0.999933
0.999922 1 1 0.999922
0.999921 1 1 0.999921
0.999937 1 1 0.999937
0.999916 1 1 0.999916
0.999937 1 1 0.999937
0.999969 1 1 0.999969
0.999938 1 1 0.999938
0.99997 1 1 0.99997
0.999998 1 1 0.999998
0.999971 1 1 0.999971
0.999998 1 1 0.999998
1 1 1 1
0.999998 1 1 0.999998
1 1 1 1
1 1 1 1
1 1 1 1
1 1 1 1
1 1 1 1
0.999979 1 1 0.999979
1 1 1 1
0.999983 1 1 0.999983
1 1 1 1
1 1 1 1
0.999986 1 1 0.999986
1 1 1 1
1 1 1 1
1 1 1 1
1 1 1 1
1 1 1 1
1 1 1 1
0.998832 0.999681 0.99915 1
0.974759 0.978738 0.996008 0.999926
0.999774 1.00007 0.999704 1
0.99696 1.00029 0.996668 1
0.993376 0.992911 1.00061 0.999862
0.999936 1 1.00004 0.999893
0.97769 0.976236 1.00178 0.999709
0.974805 0.980551 0.9943 0.999839
0.990029 1.00133 0.988714 1
0.999957 0.998951 1.00112 0.999889
0.981416 0.977903 1.00412 0.999477
0.975636 0.985377 0.990305 0.999808
0.991444 1.00184 0.989622 1
0.996597 1.0018 0.994872 0.99993
0.985899 0.981975 1.00461 0.999389
0.98541 0.994428 0.990967 0.999964
0.999091 1.00014 0.998954 0.999999
0.999914 1 1 0.999914
0.999931 1 1 0.999931
0.99996 1 1 0.99996
0.99994 1 1 0.99994
0.999922 1 1 0.999922
0.999936 1 1 0.999936
0.999944 1 1 0.999944
0.999947 1 1 0.999947
0.999951 1 1 0.999951
0.999953 1 1 0.999953
0.995021 1 0.99508 0.99994
0.998831 1 0.998911 0.99992
0.999865 1 1 0.999865
1.00015 1 1.00031 0.999846
1.00018 1 1.00032 0.999854
0.999886 1 1 0.999886
0.999896 1 1 0.999896
0.999897 1 1 0.999897
0.984095 1.00186 0.982356 0.999908
0.999883 1 1 0.999883
0.999892 1 1.00003 0.999865
1.00351 1 1.00366 0.999853
1.00093 1 1.00109 0.999833
0.99016 1.00318 0.987147 0.999868
1.00753 1 1.00769 0.999838
1.00001 1 1.00017 0.99984
0.999885 1 1 0.999885
0.999865 1 1 0.999865
0.999003 0.999002 1 1
0.998205 0.999393 0.998812 1
0.976086 0.980813 0.995193 0.999987
0.99989 1 1 0.99989
1.00415 1 1.00428 0.999871
1.00815 1 1.00834 0.999812
0.999042 1.00007 0.998975 1
0.985443 0.982277 1.00385 0.999371
0.986102 1.00161 0.984569 0.999945
1.00694 1.0008 1.00644 0.999704
0.979228 0.991035 0.988291 0.999792
0.999511 0.999591 0.999919 1
0.998423 1.00039 0.998034 0.999995
0.999893 1 1 0.999893
0.999219 0.999215 1 1
0.99925 0.998789 1.00046 1
1.00608 0.999985 1.0062 0.99989
1.00029 0.998147 1.00224 0.999911
0.995447 0.990992 1.0051 0.999397
0.999982 0.99976 1.00023 0.999995
0.992542 1.00004 0.992609 0.99989
0.999898 1 1 0.999898
1.00001 0.999994 1.00002 1
0.998899 0.998394 1.0005 1
0.998199 1.00009 0.998107 1
1.00302 0.99868 1.00439 0.999951
1.00033 0.991278 1.00957 0.999562
0.984425 1.00183 0.982716 0.999905
0.999889 1 1 0.999889
0.999884 1 1 0.999884
1.00052 1 1.00063 0.999891
0.999917 1 1 0.999917
0.999897 1 1 0.999897
0.999886 1 1 0.999886
0.999901 1 1 0.999901
0.999883 1 1 0.999883
0.99989 1 1 0.99989
0.999886 1 1 0.999886
0.999886 1 1 0.999886
0.999906 1 1 0.999906
0.999916 1 1 0.999916
0.999904 1 1 0.999904
0.999895 1 1 0.999895
0.9999 1 1 0.9999
0.999891 1 1 0.999891
0.999904 1 1 0.999904
0.999887 1 1 0.999887
0.999906 1 1 0.999906
0.99991 1 1 0.99991
0.999898 1 1 0.999898
0.999917 1 1 0.999917
0.999934 1 1 0.999934
0.999914 1 1 0.999914
0.999945 1 1 0.999945
0.999932 1 1 0.999932
0.999925 1 1 0.999925
0.999923 1 1 0.999923
0.999938 1 1 0.999938
0.999969 1 1 0.999969
0.999937 1 1 0.999937
0.999969 1 1 0.999969
0.999998 1 1 0.999998
0.99997 1 1 0.99997
0.999998 1 1 0.999998
1 1 1 1
0.999998 1 1 0.999998
1 1 1 1
1 1 1 1
1 1 1 1
1 1 1 1
1 1 1 1
0.999971 1 1 0.999971
0.999997 1 1 0.999997
0.999979 1 1 0.999979
1 1 1 1
0.999999 1 1 0.999999
0.99998 1 1 0.99998
1 1 1 1
1 1 1 1
1 1 1 1
1 1 1 1
1 1 1 1
1 1 1 1
0.999528 0.999466 1.00006 1
0.997375 0.999614 0.997761 1
0.976474 0.979074 0.997472 0.999872
0.999938 1 1 0.999938
0.999686 0.999416 1.00027 1
0.999775 0.999896 0.999879 1
0.995272 1.0002 0.995071 1
0.996951 0.999391 0.997724 0.999834
0.9833 0.977849 1.00612 0.999461
0.977143 0.985242 0.991805 0.999974
0.993016 1.00206 0.990972 0.999998
0.994006 1.00311 0.991141 0.999778
0.986711 0.982698 1.00467 0.999414
0.984385 0.993688 0.990764 0.999874
0.998323 1.00107 0.997262 0.999997
0.984057 1.00023 0.984068 0.999763
0.992772 0.98897 1.00459 0.999253
0.994706 0.99881 0.996079 0.999811
0.999681 0.999609 1.00008 0.999989
0.999899 1 1 0.999899
0.999912 1 1 0.999912
0.999934 1 1 0.999934
0.999919 1 1 0.999919
0.999924 1 1 0.999924
0.999938 1 1 0.999938
0.999948 1 1 0.999948
0.999954 1 1 0.999954
0.986537 1.00057 0.986068 0.999904
1.00323 1 1.00337 0.999855
0.999897 1 1 0.999897
1.00099 1 1.00115 0.999833
0.999899 1 1.00003 0.999864
0.999884 1 1 0.999884
0.999885 1 1 0.999885
0.988297 1.00254 0.985922 0.999864
0.999864 1 1 0.999864
1.0003 1 1.00046 0.999839
1.00783 1 1.00799 0.999838
0.999881 1 1 0.999881
1.00257 1.00053 1.00218 0.999867
1.00604 1 1.00619 0.999843
0.99985 1 1 0.99985
0.999864 1 1 0.999864
0.999867 0.999867 1 1
0.999081 0.99908 1 1
0.998892 0.999403 0.999488 1
0.999895 1 1 0.999895
1.00655 0.999979 1.00671 0.999863
0.999212 0.999209 1 1
0.993722 0.987122 1.00731 0.999376
1.00061 0.999608 1.00122 0.999786
0.990345 0.999066 0.99142 0.99985
0.999107 0.99856 1.00055 1
1.00096 1.00036 1.0006 0.999998
0.9999 1 1 0.9999
1.00002 1 1.00002 1
0.999244 0.998844 1.0004 1
1.00072 0.99783 1.00293 0.999964
0.997398 1.00094 0.996461 0.999999
0.998042 0.994266 1.00419 0.999608
0.985239 0.999195 0.986205 0.999825
1.00064 1 1.00073 0.999915
1.00016 1.00017 0.999989 1
0.999699 0.999342 1.00036 1
0.990571 1.00213 0.988469 1
0.990514 0.995427 0.995238 0.999826
1.00314 0.996823 1.00633 1.00002
0.998116 0.992119 1.00641 0.999637
0.999883 1 1 0.999883
1.00028 1 1.0004 0.999889
1.00276 1 1.00287 0.999889
0.999901 1 1 0.999901
0.999882 1 1 0.999882
0.999889 1 1 0.999889
0.999886 1 1 0.999886
0.999888 1 1 0.999888
1.00058 1 1.00071 0.999873
0.999895 1 1 0.999895
0.999899 1 1 0.999899
0.999927 1 1.00004 0.99989
1.00012 1 1.00025 0.999876
0.999909 1 1 0.999909
0.99989 1 1 0.99989
0.999878 1 1 0.999878
0.999897 1 1 0.999897
0.99991 1 1 0.99991
0.999897 1 1 0.999897
0.999923 1 1 0.999923
0.999932 1 1 0.999932
0.999919 1 1 0.999919
0.999948 1 1 0.999948
0.999934 1 1 0.999934
0.999914 1 1 0.999914
0.999971 1 1 0.999971
0.999944 1 1 0.999944
0.99993 1 1 0.99993
0.999939 1 1 0.999939
0.999969 1 1 0.999969
0.999998 1 1 0.999998
0.999969 1 1 0.999969
0.999998 1 1 0.999998
1 1 1 1
0.999998 1 1 0.999998
1 1 1 1
1 1 1 1
1 1 1 1
1 1 1 1
1 1 1 1
0.999967 1 1 0.999967
0.999995 1 1 0.999995
0.999972 1 1 0.999972
1 1 1 1
0.999997 1 1 0.999997
0.999979 1 1 0.999979
1 1 1 1
1 1 1 1
0.999997 1 1 0.999997
1 1 1 1
1 1 1 1
1 1 1 1
0.999878 0.999885 0.999993 1
0.999456 0.999417 1.00004 1
0.997419 0.999566 0.997853 1
0.99994 1 1 0.99994
0.999936 1 1 0.999936
0.999921 1 1 0.999921
0.998792 0.998475 1.00032 1
0.999537 0.999293 1.00024 1
0.999828 0.999716 1.00011 1
0.995733 1.00486 0.990995 0.999925
0.986617 0.982373 1.00491 0.999416
0.982891 0.994432 0.988605 0.999787
0.999879 1.00075 0.999135 0.999998
0.985023 0.999462 0.985624 0.999929
0.995116 0.989313 1.00644 0.999429
0.996955 1.00316 0.993894 0.999922
1.00021 0.999983 1.00024 0.999993
0.991258 0.998293 0.992994 0.999959
0.994792 0.992907 1.00241 0.999488
0.987195 1.00271 0.98465 0.999878
1.00001 1.00108 0.998932 0.999998
0.999897 1 1 0.999897
0.9999 1 1 0.9999
0.99991 1 1 0.99991
0.999918 1 1 0.999918
0.999927 1 1 0.999927
0.999949 1 1 0.999949
0.986305 1.00168 0.984784 0.999861
1.00808 1 1.00824 0.999838
0.999884 1 1 0.999884
1.00056 1 1.00072 0.999839
0.999864 1 1 0.999864
0.99988 1 1 0.99988
0.999863 1 1 0.999863
0.999622 1.00078 0.998985 0.999862
0.99985 1 1 0.99985
1.0062 1 1.00636 0.99984
0.999862 1 1 0.999862
1.00947 1 1.00959 0.999878
1.00028 1 1.00044 0.999843
0.999847 1 1 0.999847
1.00014 1.00015 0.999984 1
0.999945 0.999946 0.999999 1
0.999161 0.999159 1 1
0.999901 1 1 0.999901
1.00179 0.997249 1.00458 0.999975
1.00003 1.00001 1.00002 1
0.999633 0.996454 1.00342 0.999773
0.983022 1.00182 0.981322 0.999917
0.999557 0.999318 1.00024 1
0.999497 1.00076 0.998744 0.999998
1.00029 1 1.00037 0.999917
1.00015 1.00017 0.999985 1
0.999537 0.999206 1.00033 1
1.00598 0.997135 1.00894 0.999926
0.990685 1.00185 0.988857 1
0.992327 1.00166 0.990744 0.999943
0.989927 0.991352 0.998944 0.999619
1.00049 1 1.00054 0.999951
0.999861 0.99987 0.99999 1
0.9997 1.00013 0.999574 1
0.987141 1.00065 0.986503 1
0.983419 0.992449 0.990934 0.999967
0.998981 0.991491 1.00802 0.999535
1.00258 0.995662 1.00703 0.999917
0.999996 1 1.00011 0.999886
1.00306 1 1.00318 0.999889
1.00464 1 1.00477 0.999875
0.999886 1 1 0.999886
0.999889 1 1 0.999889
1.00044 1 1.00056 0.999874
1.00271 1 1.00286 0.999847
0.99996 1 1.00007 0.999888
1.00023 1 1.00036 0.999873
1.00028 1 1.00042 0.999857
0.999892 1 1 0.999892
0.999878 1 1 0.999878
0.999874 1 1 0.999874
0.999889 1 1 0.999889
0.999912 1 1 0.999912
0.999895 1 1 0.999895
0.999896 1 1 0.999896
0.999934 1 1 0.999934
0.999924 1 1 0.999924
0.999946 1 1 0.999946
0.999934 1 1 0.999934
0.99992 1 1 0.99992
0.999974 1 1 0.999974
0.999949 1 1 0.999949
0.999933 1 1 0.999933
0.999998 1 1 0.999998
0.999972 1 1 0.999972
0.999943 1 1 0.999943
0.999969 1 1 0.999969
0.999998 1 1 0.999998
1 1 1 1
0.999998 1 1 0.999998
1 1 1 1
1 1 1 1
1 1 1 1
1 1 1 1
1 1 1 1
0.99997 1 1 0.99997
0.999998 1 1 0.999998
0.999969 1 1 0.999969
1 1 1 1
0.999997 1 1 0.999997
0.999974 1 1 0.999974
1 1 1 1
1 1 1 1
0.999997 1 1 0.999997
1 1 1 1
1 1 1 1
1 1 1 1
1.00016 1.00017 0.999993 1
0.999889 0.999895 0.999994 1
0.999353 0.999349 1 1
0.999939 1 1 0.999939
0.999931 1 1 0.999931
0.999941 1 1 0.999941
0.999936 1 1 0.999936
0.999918 1 1 0.999918
0.99992 1 1 0.99992
0.999907 1 1 0.999907
0.999395 0.999015 1.00038 1
0.999159 0.99895 1.00021 1
0.999388 0.999171 1.00022 1
1.00077 1.00041 1.00036 0.999997
0.990178 1.00325 0.987221 0.999747
0.997104 0.990661 1.00693 0.999579
0.985557 1.00092 0.984867 0.999781
0.993415 0.997751 0.995793 0.999861
0.996218 0.995092 1.00161 0.99952
0.989666 1.00095 0.98894 0.999787
0.998742 1.0016 0.997154 0.999994
1.00245 0.997394 1.00511 0.999964
0.994522 0.995136 0.999828 0.999556
0.989265 1.00331 0.986082 0.999921
0.995705 1.00144 0.994279 0.999999
0.99989 1 1 0.99989
0.999897 1 1 0.999897
0.9999 1 1 0.9999
0.999918 1 1 0.999918
0.996137 1.0011 0.99518 0.999858
1.00642 1 1.00658 0.999836
0.999878 1 1 0.999878
0.999862 1 1 0.999862
0.999849 1 1 0.999849
0.999866 1 1 0.999866
0.999847 1 1 0.999847
1.0062 0.999456 1.00687 0.999883
1.00028 1 1.00044 0.999846
0.99985 1 1 0.99985
1.01015 0.998462 1.01178 0.999923
1.00235 1 1.00253 0.999818
0.999871 0.999871 1 1
1.00008 1.00009 0.999991 1
1.00002 1.00002 0.999998 1
0.999982 1 1.00006 0.99992
1.00434 0.996823 1.00754 1.00001
1.00015 1.00017 0.99998 1
0.997445 0.9907 1.00719 0.999617
0.980621 0.999307 0.981499 0.999798
0.999379 0.99907 1.00031 1
0.991968 1.00213 0.989862 0.999999
1.00126 1 1.00131 0.999946
0.999875 0.999884 0.999991 1
0.999773 0.999928 0.999845 1
1.0084 0.997729 1.01067 1.00003
0.987803 1.00105 0.986766 1
0.982177 0.991862 0.990357 0.999878
0.998019 0.991769 1.00672 0.999582
0.995967 1 0.996012 0.999954
0.999547 0.99945 1.0001 1
0.996732 1.00048 0.996255 1
0.972452 0.983723 0.988567 0.999975
0.992591 0.986524 1.00673 0.99942
0.998728 0.999231 0.999668 0.999829
1.00347 1 1.00358 0.999889
1.00449 1 1.00462 0.999874
1.00921 1 1.00937 0.999848
1.00029 1 1.00041 0.999875
1.00237 1 1.00252 0.99985
1.0033 1 1.00348 0.999826
1.00035 1 1.00048 0.99987
1.00038 1 1.00052 0.999854
1.00006 1 1.00021 0.999852
0.999877 1 1 0.999877
0.999873 1 1 0.999873
0.999878 1 1 0.999878
0.999894 1 1 0.999894
0.999903 1 1 0.999903
0.999888 1 1 0.999888
0.999926 1 1 0.999926
0.999914 1 1 0.999914
0.999893 1 1 0.999893
0.999945 1 1 0.999945
0.999932 1 1 0.999932
0.999925 1 1 0.999925
0.999973 1 1 0.999973
0.999948 1 1 0.999948
0.999936 1 1 0.999936
0.999998 1 1 0.999998
0.999974 1 1 0.999974
0.999949 1 1 0.999949
1 1 1 1
0.999998 1 1 0.999998
0.999972 1 1 0.999972
0.999998 1 1 0.999998
1 1 1 1
1 1 1 1
1 1 1 1
1 1 1 1
1 1 1 1
0.999944 1 1 0.999944
0.99997 1 1 0.99997
0.999998 1 1 0.999998
0.99997 1 1 0.99997
1 1 1 1
0.999999 1 1 0.999999
0.999971 1 1 0.999971
1 1 1 1
1 1 1 1
0.999999 1 1 0.999999
1 1 1 1
1 1 1 1
1 1 1 1
1.00002 1.00002 0.999999 1
1.00016 1.00017 0.99999 1
0.9999 0.999905 0.999994 1
0.999941 1 1 0.999941
0.99993 1 1 0.99993
0.999931 1 1 0.999931
0.999925 1 1 0.999925
0.999923 1 1 0.999923
0.999936 1 1 0.999936
0.999916 1 1 0.999916
0.99992 1 1 0.99992
0.999908 1 1 0.999908
0.99991 1 1 0.99991
0.999622 0.999667 0.999955 1
0.999208 0.998837 1.00037 1
0.999523 0.999396 1.00013 1
0.999626 1.0008 0.998838 0.999992
0.986622 1.00238 0.984382 0.999893
0.997243 0.997821 0.999635 0.999785
0.995634 0.992904 1.00319 0.999556
1.00536 0.996936 1.0086 0.999849
0.987406 0.993909 0.993905 0.999549
0.995619 1.00105 0.994708 0.999864
0.993251 1.0016 0.991664 1
1.0138 0.995213 1.0188 0.999881
0.996421 0.991943 1.00498 0.999535
0.983227 0.99497 0.988409 0.999786
0.988828 1.0012 0.987645 1
0.999903 1 1 0.999903
0.999893 1 1 0.999893
0.999896 1 1 0.999896
1.00355 0.998918 1.00475 0.999889
1.00025 1 1.00041 0.999848
0.999869 1 1 0.999869
0.999846 1 1 0.999846
0.999884 1 1.00003 0.999851
1.0025 1 1.00268 0.999818
1.00988 0.999031 1.01094 0.999923
1.00085 1 1.00101 0.999839
1.00508 0.99969 1.00552 0.999871
0.99901 0.999009 1 1
0.999948 0.999948 0.999999 1
1.00003 1.00003 0.999995 1
1.002 1 1.00206 0.999943
1.008 0.997793 1.01032 0.999911
0.999889 0.999898 0.999991 1
0.996489 0.988414 1.00873 0.999441
0.981241 0.992468 0.988899 0.999786
0.999876 0.999723 1.00015 1
0.988549 1.0014 0.987172 1
0.995639 1 0.995685 0.999953
0.999455 0.999394 1.00006 1
0.996312 1.00037 0.99594 1
0.998074 0.997042 1.00112 0.999919
0.974149 0.984378 0.989801 0.999805
0.994742 0.987429 1.00811 0.999303
0.993098 1 0.993184 0.999913
0.998675 0.99968 0.998995 1
0.974316 0.981126 0.993228 0.999829
0.984832 0.981053 1.00448 0.999377
0.982179 1.0005 0.98176 0.999929
1.00422 1 1.00435 0.999873
1.00937 1 1.00952 0.999849
1.00962 1 1.00979 0.999824
1.00206 1 1.00221 0.999854
1.00335 1 1.00353 0.999828
1.00132 1 1.00148 0.99984
1.00051 1 1.00066 0.999851
1.00008 1 1.00022 0.999854
0.999883 1 1 0.999883
0.999871 1 1 0.999871
0.99988 1 1 0.99988
0.999903 1 1 0.999903
0.99991 1 1 0.99991
0.999899 1 1 0.999899
0.999894 1 1 0.999894
0.999917 1 1 0.999917
0.9999 1 1 0.9999
0.999886 1 1 0.999886
0.999943 1 1 0.999943
0.999928 1 1 0.999928
0.999916 1 1 0.999916
0.99997 1 1 0.99997
0.999944 1 1 0.999944
0.999931 1 1 0.999931
0.999999 1 1 0.999999
0.999973 1 1 0.999973
0.999949 1 1 0.999949
1 1 1 1
0.999998 1 1 0.999998
0.999974 1 1 0.999974
1 1 1 1
1 1 1 1
0.999998 1 1 0.999998
1 1 1 1
1 1 1 1
1 1 1 1
0.999943 1 1 0.999943
0.99997 1 1 0.99997
0.999943 1 1 0.999943
0.999998 1 1 0.999998
0.99997 1 1 0.99997
1 1 1 1
0.999998 1 1 0.999998
0.99997 1 1 0.99997
1 1 1 1
1 1 1 1
0.999999 1 1 0.999999
1 1 1 1
1 1 1 1
1 1 1 1
0.999379 0.999378 1 1
1.00003 1.00002 1 1
1.00015 1.00016 0.999989 1
0.999934 1 1 0.999934
0.999942 1 1 0.999942
0.999929 1 1 0.999929
0.999927 1 1 0.999927
0.999932 1 1 0.999932
0.999923 1 1 0.999923
0.999922 1 1 0.999922
0.999917 1 1 0.999917
0.99992 1 1 0.99992
0.999909 1 1 0.999909
0.99991 1 1 0.99991
0.99991 1 1 0.99991
0.995524 1.00023 0.995292 1
0.999643 0.999609 1.00003 1
0.999014 0.998667 1.00035 1
0.99251 1.00233 0.990207 0.999998
0.99464 1.00066 0.994174 0.999808
0.994003 0.994635 0.999808 0.999556
1.00645 0.996181 1.01031 0.999996
1.01685 0.995529 1.02141 1
0.98989 1.00112 0.988781 1
0.995139 0.994829 1.00085 0.999461
0.985159 0.99333 0.991812 0.999962
1.00736 0.997659 1.00976 0.999962
0.994482 0.988399 1.00673 0.999428
0.975107 0.984475 0.990502 0.999982
0.999915 1 1 0.999915
0.999903 1 1 0.999903
0.999895 1 1 0.999895
1.00948 0.99951 1.01005 0.999922
1.00263 1 1.00281 0.999818
0.999902 1 1.00005 0.999852
1.00088 1 1.00104 0.999841
1.00487 0.999809 1.0052 0.999871
1.00086 1 1.00097 0.99989
0.996749 0.999098 0.997649 0.999999
0.999207 0.999205 1 1
1.00002 1.00002 0.999998 1
0.995163 1 0.99521 0.999952
0.997479 0.998217 0.999291 0.999969
0.999328 0.999322 1 1
0.998689 0.988829 1.01036 0.999616
0.97543 0.98418 0.991135 0.999974
0.994641 1.00028 0.994366 1
0.993036 1.00015 0.992969 0.999917
0.997041 0.999607 0.997434 1
0.974449 0.980251 0.994097 0.999984
0.982141 1.00064 0.981758 0.999753
0.986 0.981983 1.00469 0.999404
0.982777 1.00313 0.979866 0.999844
0.97604 0.980427 0.995536 0.999989
0.981081 0.979038 1.00259 0.999498
0.98024 1.00353 0.977026 0.999759
1.00953 1 1.00968 0.999849
1.00968 1 1.00986 0.999822
1.00291 1 1.00305 0.999857
1.0034 1 1.00357 0.99983
1.00107 1 1.00123 0.999842
0.999907 1 1 0.999907
1.00006 1 1.00021 0.999855
0.999886 1 1 0.999886
0.999931 1 1 0.999931
0.999881 1 1 0.999881
0.999904 1 1 0.999904
0.99993 1 1 0.99993
0.999926 1 1 0.999926
0.999909 1 1 0.999909
0.999911 1 1 0.999911
0.999911 1 1 0.999911
0.999901 1 1 0.999901
0.999895 1 1 0.999895
0.999937 1 1 0.999937
0.999917 1 1 0.999917
0.999898 1 1 0.999898
0.999966 1 1 0.999966
0.999943 1 1 0.999943
0.99993 1 1 0.99993
0.999998 1 1 0.999998
0.99997 1 1 0.99997
0.999944 1 1 0.999944
1 1 1 1
0.999998 1 1 0.999998
0.999973 1 1 0.999973
1 1 1 1
1 1 1 1
0.999999 1 1 0.999999
1 1 1 1
1 1 1 1
1 1 1 1
0.999948 1 1 0.999948
0.999944 1 1 0.999944
0.99997 1 1 0.99997
0.999997 1 1 0.999997
0.99997 1 1 0.99997
0.999942 1 1 0.999942
1 1 1 1
0.999998 1 1 0.999998
0.99997 1 1 0.99997
1 1 1 1
1 1 1 1
0.999998 1 1 0.999998
1 1 1 1
1 1 1 1
1 1 1 1
0.998233 0.999396 0.998836 1
0.999316 0.999315 1 1
1.00003 1.00003 1.00001 1
0.999932 1 1 0.999932
0.999933 1 1 0.999933
0.999925 1 1 0.999925
0.999929 1 1 0.999929
0.999934 1 1 0.999934
0.999923 1 1 0.999923
0.999918 1 1 0.999918
0.999923 1 1 0.999923
0.999914 1 1 0.999914
0.999917 1 1 0.999917
0.99991 1 1 0.99991
0.999909 1 1 0.999909
0.977813 0.981765 0.995991 0.999984
0.996144 1.00047 0.995672 1
0.999662 0.999543 1.00012 1
0.990954 1.00105 0.989918 1
0.979383 0.991205 0.988267 0.999804
0.999755 0.996694 1.00345 0.999623
1.01688 0.995543 1.02156 0.999878
1.00834 0.997704 1.01083 0.999826
0.97515 0.984633 0.990544 0.999823
0.996371 0.99049 1.0064 0.999537
1.00495 0.99882 1.00637 0.999776
0.987848 0.984315 1.00413 0.999464
1.0005 1 1.0006 0.999902
0.999916 1 1 0.999916
0.999903 1 1 0.999903
1.00483 1 1.00496 0.999871
1.00094 1 1.00109 0.999843
1.0008 1 1.0009 0.999894
0.999666 1 0.999777 0.999889
0.974611 0.981479 0.993015 0.999988
0.997903 0.999302 0.9986 1
0.999416 0.999415 1 1
0.993028 1.00018 0.992924 0.99992
0.981291 0.999932 0.98141 0.999947
0.996971 0.99955 0.99742 1
0.985665 0.98162 1.00472 0.999404
0.973813 0.980283 0.993564 0.999835
0.982406 1.00283 0.979786 0.999848
0.974729 0.979218 0.995491 0.999925
0.981719 0.977991 1.00435 0.999465
0.979156 1.00291 0.976384 0.999931
0.977628 1.00581 0.972136 0.999842
0.974445 0.974742 1.00026 0.999438
0.993565 1.00191 0.991735 0.999935
1.00999 1 1.01017 0.999819
1.00254 1 1.00268 0.999857
0.999464 1 0.999528 0.999936
1.00081 1 1.00097 0.999844
0.999863 1 0.999954 0.999909
0.999783 1 0.99981 0.999973
0.999888 1 1 0.999888
0.999931 1 1 0.999931
0.999958 1 1 0.999958
0.999905 1 1 0.999905
0.99993 1 1 0.99993
0.99994 1 1 0.99994
0.99993 1 1 0.99993
0.999927 1 1 0.999927
0.999923 1 1 0.999923
0.999915 1 1 0.999915
0.999909 1 1 0.999909
0.999912 1 1 0.999912
0.999927 1 1 0.999927
0.999913 1 1 0.999913
0.999903 1 1 0.999903
0.999961 1 1 0.999961
0.999937 1 1 0.999937
0.999917 1 1 0.999917
0.999997 1 1 0.999997
0.999966 1 1 0.999966
0.999943 1 1 0.999943
1 1 1 1
0.999998 1 1 0.999998
0.99997 1 1 0.99997
1 1 1 1
1 1 1 1
0.999998 1 1 0.999998
1 1 1 1
1 1 1 1
1 1 1 1
0.999945 1 1 0.999945
0.999945 1 1 0.999945
0.999969 1 1 0.999969
0.999945 1 1 0.999945
0.99997 1 1 0.99997
0.999997 1 1 0.999997
1 1 1 1
0.999997 1 1 0.999997
0.99997 1 1 0.99997
1 1 1 1
1 1 1 1
0.999998 1 1 0.999998
1 1 1 1
1 1 1 1
1 1 1 1
0.978068 0.980833 0.997315 0.999866
0.997723 0.999606 0.998116 1
0.999252 0.99925 1 1
0.999931 1 1 0.999931
0.999926 1 1 0.999926
0.999934 1 1 0.999934
0.999932 1 1 0.999932
0.999925 1 1 0.999925
0.999919 1 1 0.999919
0.999923 1 1 0.999923
0.999914 1 1 0.999914
0.999919 1 1 0.999919
0.999911 1 1 0.999911
0.999915 1 1 0.999915
0.999915 1 1 0.999915
0.999908 1 1 0.999908
0.98204 0.98181 1.00086 0.999371
0.978123 0.982231 0.9959 0.999917
0.995759 1.00074 0.995024 1
0.975899 0.984814 0.990967 0.99998
0.993808 0.987902 1.00673 0.999253
1.00861 0.99821 1.01046 0.99996
1.00508 0.998749 1.00649 0.999855
0.986943 0.983725 1.00381 0.999465
1.00092 0.999271 1.00182 0.999825
1.00042 1 1.00058 0.999843
1.0009 1 1.001 0.999899
0.999916 1 1 0.999916
1.00074 1 1.00084 0.999898
0.999761 1 0.999838 0.999923
0.972059 0.974497 0.997893 0.999605
0.976075 0.980944 0.995161 0.999875
0.998881 0.999492 0.999389 1
0.981849 1.00278 0.97927 0.999852
0.982094 1.0062 0.976295 0.999744
0.976667 0.979727 0.997005 0.999871
0.983491 0.97775 1.00642 0.999451
0.977425 1.00494 0.972781 0.999837
0.977085 0.976067 1.00148 0.999568
0.990146 1.00335 0.987061 0.999778
0.975388 1.00412 0.971486 0.999901
1.00339 0.997064 1.00641 0.999936
1.002 1 1.00214 0.999857
0.99844 1 0.998503 0.999937
0.997795 1 0.997807 0.999988
0.999719 1 0.999808 0.999911
0.999615 1 0.999642 0.999973
0.999613 1 0.999633 0.999981
0.999932 1 1 0.999932
0.999956 1 1 0.999956
0.99995 1 1 0.99995
0.999929 1 1 0.999929
0.999939 1 1 0.999939
0.999932 1 1 0.999932
0.999931 1 1 0.999931
0.999924 1 1 0.999924
0.999929 1 1 0.999929
0.999922 1 1 0.999922
0.999921 1 1 0.999921
0.999923 1 1 0.999923
0.999914 1 1 0.999914
0.999909 1 1 0.999909
0.999953 1 1 0.999953
0.999928 1 1 0.999928
0.999915 1 1 0.999915
0.999995 1 1 0.999995
0.999961 1 1 0.999961
0.999937 1 1 0.999937
1 1 1 1
0.999997 1 1 0.999997
0.999966 1 1 0.999966
1 1 1 1
1 1 1 1
0.999997 1 1 0.999997
1 1 1 1
1 1 1 1
1 1 1 1
0.99994 1 1 0.99994
0.999945 1 1 0.999945
0.999964 1 1 0.999964
0.999943 1 1 0.999943
0.999967 1 1 0.999967
0.999997 1 1 0.999997
0.99997 1 1 0.99997
0.999997 1 1 0.999997
1 1 1 1
1 1 1 1
1 1 1 1
0.999998 1 1 0.999998
1 1 1 1
1 1 1 1
1 1 1 1
0.977611 0.97772 1.00031 0.999581
0.97714 0.982381 0.994678 0.999987
0.998633 0.999823 0.99881 1
0.999926 1 1 0.999926
0.999934 1 1 0.999934
0.999925 1 1 0.999925
0.999933 1 1 0.999933
0.99993 1 1 0.99993
0.999925 1 1 0.999925
0.999914 1 1 0.999914
0.999919 1 1 0.999919
0.999912 1 1 0.999912
0.999916 1 1 0.999916
0.999913 1 1 0.999913
0.999859 1 1 0.999859
0.999914 1 1 0.999914
0.999913 1 1 0.999913
0.994158 0.996622 0.997549 0.999979
0.979354 0.979727 1.0001 0.999522
0.97527 0.981013 0.994303 0.999842
0.987538 0.984447 1.00371 0.999432
1.00533 0.998894 1.00649 0.99995
1.00101 0.999073 1.00201 0.999937
0.999369 1 0.999546 0.999823
1.00084 1 1.00099 0.999847
1.00128 1 1.00139 0.999896
0.99985 1 0.999893 0.999957
0.996947 0.994672 1.00245 0.999841
0.975263 0.975293 1.00035 0.999618
0.976065 0.981479 0.994495 0.999989
0.977176 1.00386 0.973585 0.999833
0.991189 1.00514 0.986194 0.999929
0.977868 0.975528 1.00269 0.999708
0.978201 1.00266 0.975701 0.999898
0.998994 0.997849 1.00126 0.999893
0.985332 1.00038 0.985007 0.999949
1.00236 1 1.00249 0.999876
0.997513 1 0.997575 0.999938
0.997547 1 0.99756 0.999987
0.998277 1 0.998311 0.999966
0.999589 1 0.999617 0.999972
0.999738 1 0.999759 0.999979
0.999947 1 1 0.999947
0.999955 1 1 0.999955
0.999948 1 1 0.999948
0.999926 1 1 0.999926
0.999937 1 1 0.999937
0.999932 1 1 0.999932
0.999919 1 1 0.999919
0.999933 1 1 0.999933
0.999925 1 1 0.999925
0.99992 1 1 0.99992
0.999922 1 1 0.999922
0.99992 1 1 0.99992
0.999926 1 1 0.999926
0.999943 1 1 0.999943
0.999925 1 1 0.999925
0.999914 1 1 0.999914
0.999991 1 1 0.999991
0.999953 1 1 0.999953
0.99993 1 1 0.99993
1 1 1 1
0.999994 1 1 0.999994
0.999961 1 1 0.999961
1 1 1 1
1 1 1 1
0.999996 1 1 0.999996
1 1 1 1
1 1 1 1
1 1 1 1
0.999939 1 1 0.999939
0.999942 1 1 0.999942
0.99996 1 1 0.99996
0.999945 1 1 0.999945
0.999963 1 1 0.999963
0.999996 1 1 0.999996
0.999965 1 1 0.999965
0.999997 1 1 0.999997
1 1 1 1
0.999997 1 1 0.999997
1 1 1 1
1 1 1 1
1 1 1 1
1 1 1 1
1 1 1 1
0.991979 0.993395 0.998582 0.999993
0.973922 0.97541 0.998896 0.999579
0.976115 0.982428 0.99371 0.999864
0.999926 1 1 0.999926
0.999926 1 1 0.999926
0.999933 1 1 0.999933
0.999925 1 1 0.999925
0.99993 1 1 0.99993
0.999927 1 1 0.999927
0.999919 1 1 0.999919
0.999913 1 1 0.999913
0.999917 1 1 0.999917
0.999919 1 1 0.999919
0.999888 1 1 0.999888
0.999808 1 1 0.999808
0.999864 1 1 0.999864
0.999913 1 1 0.999913
0.997612 1 0.99777 0.999843
0.995201 0.998385 0.996917 0.999893
0.980418 0.980041 1.00072 0.999668
1.00068 0.999631 1.00126 0.999786
0.999644 1.00011 0.999746 0.999785
1.00128 1 1.00143 0.99985
0.999991 1 1.00002 0.999971
0.998161 0.994228 1.00397 0.999981
0.97287 0.975286 0.997922 0.999601
0.981026 1.00119 0.979961 0.999894
0.995498 0.998134 0.997524 0.999834
0.988885 1.0001 0.988839 0.999944
1.0013 1 1.00141 0.999891
0.9999 1 1 0.9999
0.999885 1 1 0.999885
0.997158 1 0.997172 0.999986
0.998951 1 0.998987 0.999964
0.99992 1 1 0.99992
0.999821 1 0.999844 0.999978
0.999947 1 1 0.999947
0.999916 1 1 0.999916
0.999947 1 1 0.999947
0.999927 1 1 0.999927
0.999907 1 1 0.999907
0.999932 1 1 0.999932
0.999919 1 1 0.999919
0.999913 1 1 0.999913
0.999926 1 1 0.999926
0.99992 1 1 0.99992
0.999922 1 1 0.999922
0.99992 1 1 0.99992
0.999925 1 1 0.999925
0.999941 1 1 0.999941
0.999984 1 1 0.999984
0.999945 1 1 0.999945
0.999927 1 1 0.999927
1 1 1 1
0.99999 1 1 0.99999
0.999953 1 1 0.999953
1 1 1 1
1 1 1 1
0.999994 1 1 0.999994
1 1 1 1
1 1 1 1
1 1 1 1
0.999934 1 1 0.999934
0.999939 1 1 0.999939
0.999959 1 1 0.999959
0.999945 1 1 0.999945
0.999962 1 1 0.999962
0.999995 1 1 0.999995
0.999963 1 1 0.999963
0.999996 1 1 0.999996
1 1 1 1
0.999997 1 1 0.999997
1 1 1 1
1 1 1 1
1 1 1 1
1 1 1 1
1 1 1 1
0.998169 1 0.998211 0.999957
0.992423 0.994554 0.998008 0.999849
0.975865 0.976581 0.999659 0.999607
0.999924 1 1 0.999924
0.999914 1 1 0.999914
0.999926 1 1 0.999926
0.999925 1 1 0.999925
0.999929 1 1 0.999929
0.999926 1 1 0.999926
0.999892 1 1 0.999892
0.999918 1 1 0.999918
0.999925 1 1 0.999925
0.999886 1 1 0.999886
0.999833 1 1 0.999833
0.999882 1 1 0.999882
0.999813 1 1 0.999813
0.99987 1 1 0.99987
0.998039 1.00009 0.998105 0.999847
0.994484 0.998219 0.996435 0.999823
0.999922 1.00017 1 0.999748
0.999979 1 1 0.999979
1.00113 1 1.00116 0.999973
0.996416 0.993594 1.00298 0.999861
0.992746 1 0.992807 0.999939
1.00025 1 1.00034 0.999906
0.999528 1 0.999624 0.999904
0.999893 1 1 0.999893
0.999887 1 1 0.999887
0.999944 1 1 0.999944
0.999669 1 0.999706 0.999963
0.999922 1 1 0.999922
0.999897 1 1 0.999897
0.999946 1 1 0.999946
0.999916 1 1 0.999916
0.999898 1 1 0.999898
0.999929 1 1 0.999929
0.999907 1 1 0.999907
0.999903 1 1 0.999903
0.999919 1 1 0.999919
0.999913 1 1 0.999913
0.999916 1 1 0.999916
0.99992 1 1 0.99992
0.999922 1 1 0.999922
0.999937 1 1 0.999937
0.999924 1 1 0.999924
0.99994 1 1 0.99994
0.999978 1 1 0.999978
1 1 1 1
0.999984 1 1 0.999984
0.999947 1 1 0.999947
1 1 1 1
1 1 1 1
0.999989 1 1 0.999989
1 1 1 1
1 1 1 1
1 1 1 1
0.999924 1 1 0.999924
0.999933 1 1 0.999933
0.999954 1 1 0.999954
0.999939 1 1 0.999939
0.999959 1 1 0.999959
0.999993 1 1 0.999993
0.999963 1 1 0.999963
0.999995 1 1 0.999995
1 1 1 1
0.999997 1 1 0.999997
1 1 1 1
1 1 1 1
1 1 1 1
1 1 1 1
1 1 1 1
0.999969 1 1 0.999969
0.998287 1 0.998327 0.99996
0.991725 0.9934 0.998319 0.999995
0.999904 1 1 0.999904
0.999928 1 1 0.999928
0.999892 1 1 0.999892
0.999913 1 1 0.999913
0.999926 1 1 0.999926
0.999856 1 1 0.999856
0.999925 1 1 0.999925
0.999893 1 1 0.999893
0.999864 1 1 0.999864
0.999885 1 1 0.999885
0.999826 1 1 0.999826
0.999879 1 1 0.999879
0.999819 1 1 0.999819
0.998455 1.00023 0.998376 0.999852
0.999981 1 1 0.999981
0.999977 1 1 0.999977
1.00222 1 1.00224 0.999974
0.999164 1 0.999257 0.999907
0.999902 1 1 0.999902
0.999885 1 1 0.999885
0.999945 1 1 0.999945
0.999932 1 1 0.999932
0.999923 1 1 0.999923
0.999899 1 1 0.999899
0.999899 1 1 0.999899
0.999915 1 1 0.999915
0.999897 1 1 0.999897
0.999896 1 1 0.999896
0.999908 1 1 0.999908
0.999903 1 1 0.999903
0.999907 1 1 0.999907
0.999913 1 1 0.999913
0.999916 1 1 0.999916
0.99993 1 1 0.99993
0.999922 1 1 0.999922
0.999937 1 1 0.999937
0.999971 1 1 0.999971
0.999939 1 1 0.999939
0.999978 1 1 0.999978
1 1 1 1
1 1 1 1
1 1 1 1
0.999984 1 1 0.999984
1 1 1 1
1 1 1 1
1 1 1 1
0.999894 1 1 0.999894
0.999913 1 1 0.999913
0.999923 1 1 0.999923
0.999948 1 1 0.999948
0.999932 1 1 0.999932
0.999954 1 1 0.999954
0.99999 1 1 0.99999
0.999959 1 1 0.999959
0.999993 1 1 0.999993
1 1 1 1
0.999995 1 1 0.999995
1 1 1 1
1 1 1 1
1 1 1 1
1 1 1 1
1 1 1 1
0.99994 1 1 0.99994
0.999966 1 1 0.999966
0.998415 1 0.998452 0.999963
0.999872 1 1 0.999872
0.999909 1 1 0.999909
0.999931 1 1 0.999931
0.999894 1 1 0.999894
0.999912 1 1 0.999912
0.999855 1 1 0.999855
0.999854 1 1 0.999854
0.999893 1 1 0.999893
0.999861 1 1 0.999861
0.999819 1 1 0.999819
0.999876 1 1 0.999876
0.999973 1 1 0.999973
0.99998 1 1 0.99998
0.999975 1 1 0.999975
0.999882 1 1 0.999882
0.999946 1 1 0.999946
0.999931 1 1 0.999931
0.999931 1 1 0.999931
0.999901 1 1 0.999901
0.999897 1 1 0.999897
0.999906 1 1 0.999906
0.999896 1 1 0.999896
0.999896 1 1 0.999896
0.9999 1 1 0.9999
0.999903 1 1 0.999903
0.999907 1 1 0.999907
0.999921 1 1 0.999921
0.999916 1 1 0.999916
0.99993 1 1 0.99993
0.999964 1 1 0.999964
0.999937 1 1 0.999937
0.999971 1 1 0.999971
1 1 1 1
0.999977 1 1 0.999977
1 1 1 1
1 1 1 1
1 1 1 1
1 1 1 1
1 1 1 1
0.999876 1 1 0.999876
0.99991 1 1 0.99991
0.9999 1 1 0.9999
0.999938 1 1 0.999938
0.999913 1 1 0.999913
0.999921 1 1 0.999921
0.999948 1 1 0.999948
0.999985 1 1 0.999985
0.999954 1 1 0.999954
0.99999 1 1 0.99999
1 1 1 1
0.999993 1 1 0.999993
1 1 1 1
1 1 1 1
1 1 1 1
1 1 1 1
1 1 1 1
0.999919 1 1 0.999919
0.999941 1 1 0.999941
0.999963 1 1 0.999963
0.999866 1 1 0.999866
0.999872 1 1 0.999872
0.999914 1 1 0.999914
0.999897 1 1 0.999897
0.999856 1 1 0.999856
0.999851 1 1 0.999851
0.999859 1 1 0.999859
0.999958 1 1 0.999958
0.999966 1 1 0.999966
0.999979 1 1 0.999979
0.999935 1 1 0.999935
0.999929 1 1 0.999929
0.99993 1 1 0.99993
0.999924 1 1 0.999924
0.999894 1 1 0.999894
0.999906 1 1 0.999906
0.999905 1 1 0.999905
0.999896 1 1 0.999896
0.999901 1 1 0.999901
0.999914 1 1 0.999914
0.999907 1 1 0.999907
0.999921 1 1 0.999921
0.999955 1 1 0.999955
0.99993 1 1 0.99993
0.999964 1 1 0.999964
1 1 1 1
0.999971 1 1 0.999971
1 1 1 1
1 1 1 1
1 1 1 1
1 1 1 1
1 1 1 1
0.999869 1 1 0.999869
0.999889 1 1 0.999889
0.999879 1 1 0.999879
0.999932 1 1 0.999932
0.999909 1 1 0.999909
0.999907 1 1 0.999907
0.999976 1 1 0.999976
0.999938 1 1 0.999938
0.999913 1 1 0.999913
0.999948 1 1 0.999948
0.999985 1 1 0.999985
1 1 1 1
0.99999 1 1 0.99999
1 1 1 1
1 1 1 1
1 1 1 1
1 1 1 1
1 1 1 1
0.999909 1 1 0.999909
0.999914 1 1 0.999914
0.999941 1 1 0.999941
0.999861 1 1 0.999861
0.999872 1 1 0.999872
0.999857 1 1 0.999857
0.999938 1 1 0.999938
0.99996 1 1 0.99996
0.99996 1 1 0.99996
0.999932 1 1 0.999932
0.999927 1 1 0.999927
0.99993 1 1 0.99993
0.999924 1 1 0.999924
0.99992 1 1 0.99992
0.999907 1 1 0.999907
0.999906 1 1 0.999906
0.999914 1 1 0.999914
0.999901 1 1 0.999901
0.999914 1 1 0.999914
0.999947 1 1 0.999947
0.999921 1 1 0.999921
0.999955 1 1 0.999955
1 1 1 1
0.999964 1 1 0.999964
1 1 1 1
1 1 1 1
1 1 1 1
1 1 1 1
1 1 1 1
0.999906 1 1 0.999906
0.999876 1 1 0.999876
0.999868 1 1 0.999868
0.999913 1 1 0.999913
0.99989 1 1 0.99989
0.999882 1 1 0.999882
0.999966 1 1 0.999966
0.999928 1 1 0.999928
0.999907 1 1 0.999907
1 1 1 1
0.999977 1 1 0.999977
0.999938 1 1 0.999938
0.999986 1 1 0.999986
1 1 1 1
1 1 1 1
1 1 1 1
1 1 1 1
1 1 1 1
0.999903 1 1 0.999903
0.999907 1 1 0.999907
0.99991 1 1 0.99991
0.999856 1 1 0.999856
0.999925 1 1 0.999925
0.99994 1 1 0.99994
0.999963 1 1 0.999963
0.999929 1 1 0.999929
0.999928 1 1 0.999928
0.999931 1 1 0.999931
0.999924 1 1 0.999924
0.99992 1 1 0.99992
0.999922 1 1 0.999922
0.999906 1 1 0.999906
0.999915 1 1 0.999915
0.999944 1 1 0.999944
0.999914 1 1 0.999914
0.999948 1 1 0.999948
0.999998 1 1 0.999998
0.999955 1 1 0.999955
0.999999 1 1 0.999999
1 1 1 1
1 1 1 1
1 1 1 1
1 1 1 1
0.999906 1 1 0.999906
0.999898 1 1 0.999898
0.999905 1 1 0.999905
0.999895 1 1 0.999895
0.99988 1 1 0.99988
0.999867 1 1 0.999867
0.999947 1 1 0.999947
0.999912 1 1 0.999912
0.999892 1 1 0.999892
1 1 1 1
0.999962 1 1 0.999962
0.999923 1 1 0.999923
1 1 1 1
1 1 1 1
0.999978 1 1 0.999978
1 1 1 1
1 1 1 1
1 1 1 1
0.999909 1 1 0.999909
0.999909 1 1 0.999909
0.999906 1 1 0.999906
0.999933 1 1 0.999933
0.999925 1 1 0.999925
0.999942 1 1 0.999942
0.99993 1 1 0.99993
0.999931 1 1 0.999931
0.999939 1 1 0.999939
0.99992 1 1 0.99992
0.999924 1 1 0.999924
0.999945 1 1 0.999945
0.999915 1 1 0.999915
0.999944 1 1 0.999944
0.999996 1 1 0.999996
0.999948 1 1 0.999948
0.999998 1 1 0.999998
1 1 1 1
0.999999 1 1 0.999999
1 1 1 1
1 1 1 1
0.999905 1 1 0.999905
0.999909 1 1 0.999909
0.999905 1 1 0.999905
0.999905 1 1 0.999905
0.999899 1 1 0.999899
0.999904 1 1 0.999904
0.999933 1 1 0.999933
0.999899 1 1 0.999899
0.999884 1 1 0.999884
0.999998 1 1 0.999998
0.999945 1 1 0.999945
0.999912 1 1 0.999912
1 1 1 1
1 1 1 1
0.999959 1 1 0.999959
1 1 1 1
1 1 1 1
1 1 1 1
0.99992 1 1 0.99992
0.99991 1 1 0.99991
0.999914 1 1 0.999914
0.99994 1 1 0.99994
0.999932 1 1 0.999932
0.999926 1 1 0.999926
0.999931 1 1 0.999931
0.999939 1 1 0.999939
0.999955 1 1 0.999955
0.999926 1 1 0.999926
0.999946 1 1 0.999946
0.999995 1 1 0.999995
0.999945 1 1 0.999945
0.999996 1 1 0.999996
1 1 1 1
0.999997 1 1 0.999997
1 1 1 1
1 1 1 1
0.999914 1 1 0.999914
0.999901 1 1 0.999901
0.999917 1 1 0.999917
0.99991 1 1 0.99991
0.999904 1 1 0.999904
0.999938 1 1 0.999938
0.999904 1 1 0.999904
0.999901 1 1 0.999901
0.999996 1 1 0.999996
0.999935 1 1 0.999935
0.999902 1 1 0.999902
1 1 1 1
0.999999 1 1 0.999999
0.999943 1 1 0.999943
1 1 1 1
1 1 1 1
1 1 1 1
0.999932 1 1 0.999932
0.99992 1 1 0.99992
0.99991 1 1 0.99991
0.999956 1 1 0.999956
0.999941 1 1 0.999941
0.99993 1 1 0.99993
0.999939 1 1 0.999939
0.999954 1 1 0.999954
0.999996 1 1 0.999996
0.999947 1 1 0.999947
0.999995 1 1 0.999995
1 1 1 1
0.999995 1 1 0.999995
1 1 1 1
1 1 1 1
0.999924 1 1 0.999924
0.999912 1 1 0.999912
0.999897 1 1 0.999897
0.999944 1 1 0.999944
0.999917 1 1 0.999917
0.999911 1 1 0.999911
0.999995 1 1 0.999995
0.999937 1 1 0.999937
0.999904 1 1 0.999904
1 1 1 1
0.999997 1 1 0.999997
0.999937 1 1 0.999937
1 1 1 1
0.999999 1 1 0.999999
1 1 1 1
0.999955 1 1 0.999955
0.999931 1 1 0.999931
0.99992 1 1 0.99992
0.999996 1 1 0.999996
0.999956 1 1 0.999956
0.999941 1 1 0.999941
0.999953 1 1 0.999953
0.999996 1 1 0.999996
1 1 1 1
0.999996 1 1 0.999996
1 1 1 1
1 1 1 1
0.999951 1 1 0.999951
0.999924 1 1 0.999924
0.99991 1 1 0.99991
0.999996 1 1 0.999996
0.999944 1 1 0.999944
0.999917 1 1 0.999917
1 1 1 1
0.999995 1 1 0.999995
0.999937 1 1 0.999937
1 1 1 1
0.999997 1 1 0.999997
1 1 1 1
0.999995 1 1 0.999995
0.999954 1 1 0.999954
0.99993 1 1 0.99993
1 1 1 1
0.999996 1 1 0.999996
0.999956 1 1 0.999956
0.999996 1 1 0.999996
1 1 1 1
1 1 1 1
0.999996 1 1 0.999996
0.999951 1 1 0.999951
0.999924 1 1 0.999924
1 1 1 1
0.999995 1 1 0.999995
0.999944 1 1 0.999944
1 1 1 1
0.999995 1 1 0.999995
1 1 1 1
1 1 1 1
0.999995 1 1 0.999995
0.999952 1 1 0.999952
1 1 1 1
0.999995 1 1 0.999995
1 1 1 1
1 1 1 1
0.999996 1 1 0.999996
0.999951 1 1 0.999951
1 1 1 1
0.999995 1 1 0.999995
1 1 1 1
1 1 1 1
0.999995 1 1 0.999995
1 1 1 1
1 1 1 1
0.999996 1 1 0.999996
1 1 1 1
1 1 1 1
1 1 1 1

VECTORS lamdaE float
0.9993 0.99815 0.997947
0.999434 0.997503 0.999234
0.999297 0.99812 0.997971
0.999025 0.999247 0.997492
0.999219 0.998501 0.997793
0.999363 0.997842 0.998099
0.99951 0.999218 0.996395
0.999447 0.997497 0.999245
0.999194 0.998377 0.999082
0.99937 0.997723 0.999213
0.999514 0.997271 0.998308
0.999595 0.998654 0.996587
0.998641 1.00022 0.997364
0.998827 0.999593 0.997533
0.999293 0.99809 0.997995
0.99902 0.999229 0.997515
0.999361 0.997815 0.99812
0.999217 0.998466 0.997817
0.999509 0.999238 0.996398
0.998695 0.999884 0.99889
0.998934 0.999555 0.997402
0.999119 0.998881 0.99764
0.999514 0.999871 0.995791
0.999504 0.999442 0.996205
0.999437 0.997566 0.998214
0.999517 0.998978 0.996598
0.999986 1.00053 0.994217
0.99946 0.997492 0.999256
0.999198 0.998439 0.998444
0.999376 0.997753 0.998664
0.999508 0.997268 0.999276
0.999592 0.998626 0.996593
0.999068 0.998902 0.997678
0.999279 0.998101 0.997996
0.999516 0.999428 0.996533
0.999581 0.997035 0.999309
0.999549 0.998893 0.996957
0.999641 0.998418 0.996722
0.999911 1.00028 0.99434
0.999702 0.996777 0.999309
0.998635 0.999993 0.998872
0.99881 0.999558 0.998228
0.998621 1.00013 0.998842
0.998702 0.999919 0.997477
0.999334 1.0006 0.995094
0.998952 0.999109 0.99898
0.999395 1.00013 0.996068
0.999014 0.999209 0.997539
0.999214 0.998429 0.997842
0.999359 0.997789 0.99814
0.999508 0.999257 0.996401
0.998691 0.999965 0.998146
0.998926 0.99955 0.997416
0.999436 0.997539 0.998228
0.999117 0.99885 0.997665
0.999515 0.99988 0.995796
0.999519 0.99899 0.996604
0.999504 0.999457 0.996207
1.00001 1.00053 0.994188
0.998659 1.00003 0.99887
0.998814 0.999818 0.997401
0.999392 1.00034 0.995884
0.999526 1.00002 0.99564
0.999498 0.999669 0.996006
1.00035 1.0005 0.993508
1.00008 1.00049 0.99391
0.999544 0.997321 0.998281
0.999563 0.998675 0.996796
0.999878 1.0005 0.994461
1.00042 1.00068 0.99295
0.999217 0.998366 0.999097
0.999526 0.997266 0.999289
0.999389 0.997742 0.999217
0.999588 0.998598 0.996599
0.999072 0.998786 0.999005
0.999277 0.998061 0.999138
0.999504 0.999474 0.995923
0.999589 0.997055 0.998831
0.99955 0.99888 0.996436
0.999641 0.998387 0.996982
0.999896 1.00032 0.994334
0.999642 0.996899 0.999307
0.999819 0.997898 0.99688
0.999497 0.999753 0.995621
0.999518 0.99921 0.996151
1.00009 1.0005 0.993742
0.999707 0.998167 0.997308
0.999947 1.00037 0.994177
0.999889 1.00014 0.994529
1.00013 1.00085 0.993343
0.99975 0.996675 0.999313
0.999711 0.996791 0.99931
0.998858 0.999411 0.99895
0.998648 0.999945 0.99889
0.99862 1.00011 0.998848
0.998692 0.99987 0.998182
0.999326 1.00055 0.995493
0.99896 0.99919 0.998277
0.9994 1.00016 0.995732
0.998629 1.00013 0.998847
0.999347 1.00066 0.995006
0.999347 1.00032 0.995974
1.00032 1.00074 0.993027
0.999465 0.999889 0.996184
1.00027 1.00058 0.993286
0.998696 1.00005 0.997389
0.998917 0.999545 0.99743
0.999435 0.997511 0.998243
0.999115 0.998816 0.99769
0.999515 0.99989 0.9958
0.999504 0.999474 0.996209
0.99952 0.999001 0.99661
1.00003 1.00053 0.99416
0.998654 1.00004 0.998861
0.998807 0.99981 0.997409
0.999402 1.00037 0.995361
0.999526 1.00003 0.99564
0.999526 0.997294 0.998777
0.999564 0.998673 0.996954
0.9995 0.999679 0.996009
1.00036 1.0005 0.99343
0.999905 1.0005 0.994425
1.0001 1.0005 0.993951
1.00041 1.00068 0.992956
0.999373 1.00055 0.995058
0.99947 1.00016 0.995624
1.00045 1.00057 0.993098
1.00046 1.00046 0.993196
1.00021 1.00049 0.993668
1.00086 1.00045 0.992417
0.999609 0.997104 0.999284
1.00054 1.00051 0.992852
0.999651 0.998391 0.99672
0.999836 1.00038 0.994378
1.00026 1.00089 0.993066
1.00063 1.00067 0.992526
0.999784 0.998041 0.996784
1.00001 0.999803 0.994616
0.999114 0.998725 0.999029
0.999305 0.998031 0.999166
0.999472 0.999496 0.995913
0.999598 0.997074 0.999304
0.99964 0.998354 0.996751
0.999536 0.998862 0.996426
0.999881 1.00035 0.994328
0.999654 0.996912 0.999308
0.99982 0.997886 0.996881
0.999483 0.999728 0.995988
0.999506 0.999184 0.99647
1.00008 1.00051 0.99374
0.999714 0.998149 0.996847
0.999929 1.00041 0.994174
0.999877 1.00016 0.994527
1.00013 1.00084 0.993308
0.999773 0.998001 0.996871
0.999854 0.997811 0.996896
0.999995 0.999701 0.994749
1.00018 1.00049 0.99355
0.999993 1.00047 0.993977
1.00052 1.00058 0.992819
0.999921 0.999916 0.994692
1.00023 1.0007 0.993228
1.00006 1.00096 0.993399
1.00024 1.00111 0.992939
0.99979 0.996587 0.999319
0.999756 0.996689 0.999315
0.99972 0.996805 0.999312
0.999824 0.997941 0.996805
0.999674 0.996963 0.999289
0.99899 0.99908 0.998982
0.998734 0.999708 0.998924
0.999372 1.00023 0.995377
0.999308 1.00062 0.995126
0.998618 1.00009 0.998855
0.998628 1.00013 0.998843
0.999339 1.00067 0.995009
0.999346 1.00038 0.995631
1.00032 1.00074 0.993026
0.999456 0.999975 0.995499
1.00027 1.00058 0.993287
0.999359 1.00064 0.994993
1.00037 1.00077 0.99289
1.00029 1.00066 0.993171
1.00076 1.00072 0.99218
1.00024 1.00052 0.993407
1.00075 1.00051 0.992443
0.998648 1.00006 0.998852
0.998799 0.999803 0.997417
0.999409 1.00039 0.994843
0.999525 1.00004 0.995641
0.999506 0.997264 0.999277
0.999564 0.998671 0.997112
0.999501 0.99969 0.996013
1.00036 1.00049 0.993352
1.00012 1.00051 0.993993
0.999932 1.0005 0.994389
1.0004 1.00068 0.992962
0.999375 1.00055 0.995057
0.999474 1.00016 0.99562
1.00046 1.00056 0.992954
1.00047 1.00047 0.993241
0.999592 0.997099 0.999282
0.999646 0.99841 0.996957
0.999859 1.00035 0.994522
1.00021 1.00049 0.993667
1.00085 1.00043 0.992331
1.00024 1.00089 0.993049
1.00055 1.00051 0.992894
1.00063 1.00067 0.992534
0.999781 0.998056 0.996784
1.00001 0.999804 0.994619
1.00041 1.00067 0.992895
1.00049 1.00048 0.993115
1.00095 1.00054 0.992138
1.00097 1.00038 0.992048
1.00066 1.00046 0.992734
1.00108 1.00037 0.991986
0.999721 0.998189 0.996761
1.00077 1.00043 0.992478
0.999865 1.00018 0.994518
1.00008 1.00095 0.993226
1.00048 1.00105 0.992616
1.00074 1.00057 0.992429
0.999975 0.999864 0.994615
1.00002 0.999746 0.994647
1.00013 1.00089 0.993303
0.99946 0.999771 0.995665
0.999666 0.996924 0.999308
0.999821 0.997874 0.996881
0.999488 0.999177 0.996197
1.00008 1.00052 0.993737
0.999709 0.998131 0.996845
0.999864 1.00019 0.994525
0.999912 1.00044 0.99417
1.00014 1.00084 0.993274
0.999774 0.997989 0.996871
0.999855 0.9978 0.996896
0.999995 0.999699 0.994748
1.00019 1.00049 0.993546
0.999978 1.0005 0.993976
1.00052 1.00059 0.992818
0.999914 0.999922 0.994692
1.00024 1.0007 0.993258
1.00006 1.00097 0.993391
1.00023 1.0011 0.992897
0.999883 0.99773 0.996916
0.999967 0.99976 0.994749
1.00002 0.999651 0.994756
1.00012 1.00076 0.993454
1.00065 1.00047 0.992658
1.00035 1.00068 0.993077
1.00071 1.00064 0.992376
1.00008 1.00084 0.993476
1.00038 1.00085 0.99284
1.00014 1.00141 0.992802
1.00031 1.00118 0.992614
1.00006 0.99942 0.994892
0.999938 0.997577 0.996955
0.999825 0.996502 0.999324
0.999793 0.996597 0.99932
0.999761 0.996702 0.999317
0.999852 0.997857 0.996834
0.99972 0.99685 0.999296
0.999822 0.997954 0.996804
0.999662 0.99695 0.999288
0.999424 1.00001 0.995495
0.999323 1.00045 0.995264
1.00028 1.00059 0.993288
1.00033 1.00074 0.993024
0.999332 1.00068 0.995012
0.998626 1.00013 0.998841
0.99936 1.00064 0.994991
1.00037 1.00077 0.99289
1.00029 1.00066 0.993172
1.00077 1.00073 0.992175
1.00024 1.00052 0.993405
1.00074 1.00051 0.992445
1.00041 1.00075 0.992855
1.00078 1.0008 0.992075
1.00077 1.0006 0.992304
1.00097 1.00064 0.991894
1.00071 1.00045 0.992562
1.00095 1.00041 0.992136
0.99938 1.00054 0.995056
0.999478 1.00016 0.995617
1.00046 1.00055 0.99281
1.00048 1.00047 0.993287
0.999577 0.997093 0.99928
0.999642 0.998429 0.997193
0.999883 1.00031 0.994665
1.00022 1.00049 0.993665
1.00084 1.00042 0.992246
1.00057 1.00051 0.992936
1.00021 1.0009 0.993032
1.00062 1.00067 0.992543
0.999779 0.99807 0.996783
1 0.999805 0.994623
1.00041 1.00067 0.992842
1.00049 1.00047 0.993116
1.00093 1.00052 0.992119
1.00097 1.0004 0.992141
0.999721 0.998204 0.996759
0.999879 1.00017 0.994518
1.00008 1.00095 0.993283
1.00068 1.00046 0.992742
1.00107 1.00033 0.991966
1.00045 1.00104 0.992555
1.00077 1.00043 0.99248
1.00074 1.00055 0.992421
0.999976 0.999863 0.994618
1.00014 1.00087 0.993261
1.00002 0.999751 0.994648
1.00086 1.0007 0.992152
1.00102 1.00039 0.992071
1.00115 1.00049 0.991682
1.00122 1.00032 0.991689
1.00086 1.00033 0.992336
1.00119 1.0001 0.991998
0.999921 0.999987 0.994599
1.00087 1.00028 0.992427
1.00007 1.00087 0.993447
1.00022 1.00123 0.992683
1.00057 1.00115 0.992249
1.0008 1.00038 0.992597
1.00003 0.999672 0.994712
1.00013 1.00082 0.993387
1.00013 1.00097 0.993132
1.0002 1.00137 0.992802
1.00019 1.0005 0.993543
0.999856 0.997788 0.996897
0.999774 0.997977 0.996872
0.999995 0.999697 0.994746
0.999964 1.00052 0.993975
1.00052 1.00059 0.992817
0.999906 0.999928 0.994692
1.00005 1.00098 0.993383
1.00024 1.0007 0.993288
1.00023 1.00109 0.992854
0.999884 0.99772 0.996917
0.999965 0.99976 0.994748
1.00002 0.99965 0.994755
1.00012 1.00078 0.99345
1.00066 1.00047 0.992654
1.00035 1.00068 0.99308
1.00071 1.00065 0.992374
1.00007 1.00086 0.993476
1.00038 1.00086 0.992883
1.00014 1.00142 0.992788
1.00029 1.00114 0.992701
0.999912 0.997651 0.996938
1.00003 0.999597 0.994778
1.00012 1.00073 0.993493
1.00012 1.0008 0.993426
1.00017 1.00137 0.992758
1.00085 1.00044 0.992289
1.00051 1.00081 0.992632
1.00078 1.00069 0.992203
1.00014 1.0014 0.992815
1.00044 1.001 0.992588
1.00021 1.00169 0.99223
1.00005 0.999482 0.994849
1.00011 1.00071 0.993525
1.00007 0.999363 0.994925
1.00006 0.999416 0.994894
0.999961 0.997489 0.997426
0.999936 0.997571 0.997185
0.999868 0.996451 0.998418
0.999828 0.996509 0.999326
0.999797 0.996607 0.999322
0.999876 0.997776 0.996869
0.999755 0.996748 0.999303
0.999851 0.99787 0.996832
0.999713 0.996836 0.999294
0.999819 0.997968 0.996803
0.99965 0.996938 0.999287
1.00025 1.00053 0.993403
1.0003 1.00066 0.993172
1.00074 1.00051 0.992447
1.00078 1.00073 0.99217
1.00038 1.00077 0.992891
0.999358 1.00064 0.994991
1.00041 1.00074 0.992855
1.00078 1.0008 0.992073
1.00077 1.00061 0.992304
1.00097 1.00063 0.991893
1.00071 1.00046 0.99256
1.00094 1.00042 0.99214
1.00081 1.0008 0.992031
1.0009 1.00074 0.991888
1.00098 1.00051 0.991974
1.00109 1.00049 0.991825
1.0009 1.00038 0.992259
1.00106 1.00012 0.992239
1.00041 1.00067 0.99279
1.0005 1.00046 0.993117
1.00092 1.00051 0.9921
1.00098 1.00041 0.992235
0.999721 0.99822 0.996757
0.999893 1.00015 0.994519
1.00008 1.00095 0.99334
1.00069 1.00046 0.992749
1.00106 1.0003 0.991946
1.00077 1.00042 0.992482
1.00043 1.00104 0.992494
1.00073 1.00053 0.992412
0.999977 0.999863 0.994622
1.00015 1.00085 0.993218
1.00002 0.999756 0.994649
1.00084 1.0007 0.992105
1.00102 1.00039 0.992069
1.00116 1.00049 0.991628
1.00123 1.00032 0.991709
0.999928 0.999979 0.994602
1.00008 1.00086 0.993447
1.00022 1.00125 0.992739
1.00087 1.00036 0.992358
1.00118 1.00003 0.992031
1.00054 1.00118 0.992191
1.00087 1.00027 0.99243
1.00079 1.0003 0.992636
1.00013 1.0008 0.993392
1.00021 1.00134 0.992745
1.00002 0.999678 0.99471
1.00013 1.00097 0.993128
1.00103 1.00071 0.9917
1.00133 1.00031 0.991554
1.00124 1.00052 0.991377
1.00134 1.00006 0.991653
1.00097 1.0001 0.992372
1.0013 0.999677 0.992206
1.00009 1.00081 0.99346
1.00091 0.999879 0.99273
1.00016 1.00115 0.992901
1.0003 1.00162 0.99226
1.00061 1.00124 0.992023
1.00088 1.00014 0.992683
1.00002 0.999612 0.994778
1.00011 1.00098 0.993127
1.00022 1.00115 0.99288
1.00016 1.00166 0.992529
1.00027 1.00149 0.992511
0.999885 0.997709 0.996918
1.00066 1.00048 0.99265
1.00002 0.999648 0.994755
0.999962 0.99976 0.994746
1.00011 1.00079 0.993447
1.00034 1.00068 0.993084
1.00071 1.00065 0.992372
1.00006 1.00087 0.993475
1.00015 1.00143 0.992773
1.00039 1.00087 0.992926
1.00027 1.0011 0.992787
0.999912 0.997644 0.996939
1.00003 0.999594 0.994777
1.00011 1.00075 0.993491
1.00011 1.00081 0.993423
1.00017 1.00136 0.992744
1.00086 1.00044 0.992281
1.00051 1.00081 0.992633
1.00078 1.0007 0.992183
1.00013 1.0014 0.992819
1.00044 1.001 0.992617
1.00024 1.00166 0.992277
1.00005 0.99954 0.994809
1.00012 1.00081 0.993411
1.00018 1.00127 0.992798
1.00015 1.00148 0.992688
1.0002 1.00168 0.992459
1.00094 1.00031 0.992224
1.00057 1.00093 0.992389
1.00072 1.00057 0.992338
1.00017 1.00188 0.992268
1.00041 1.0017 0.991967
1.00006 0.999477 0.99485
1.00012 1.00078 0.99333
1.00011 1.00072 0.993461
1.00009 1.00162 0.99279
1.0001 1.00068 0.993581
1.00009 0.999321 0.994944
1.00007 0.999364 0.994927
0.99999 0.997416 0.997438
1.00006 0.999413 0.994896
0.999961 0.9975 0.997427
0.999908 0.99637 0.998427
0.999934 0.997566 0.997414
0.999864 0.996422 0.998875
0.99983 0.996515 0.999327
0.999901 0.997681 0.996917
0.999877 0.997785 0.996866
0.99979 0.99664 0.999311
0.999752 0.996737 0.999301
0.99985 0.997882 0.99683
0.999706 0.996822 0.999292
1.00071 1.00046 0.992558
1.00077 1.00061 0.992305
1.00094 1.00043 0.992143
1.00097 1.00063 0.991891
1.00079 1.00081 0.992071
1.00041 1.00074 0.992856
1.00081 1.0008 0.992035
1.0009 1.00075 0.991884
1.00098 1.00051 0.991976
1.00109 1.00049 0.991809
1.0009 1.00038 0.992255
1.00107 1.0001 0.99224
1.00093 1.00079 0.991823
1.0009 1.00074 0.991893
1.00111 1.00023 0.991935
1.00114 1.00052 0.991765
1.00102 1.00006 0.992307
1.00117 0.9998 0.992403
1.00083 1.00069 0.992058
1.00102 1.0004 0.992066
1.00117 1.00048 0.991573
1.00123 1.00031 0.991729
0.999935 0.999972 0.994604
1.00009 1.00085 0.993447
1.00021 1.00126 0.992796
1.00089 1.00039 0.992381
1.00117 0.99997 0.992064
1.00088 1.00026 0.992433
1.00052 1.00122 0.992133
1.00078 1.00023 0.992674
1.00014 1.00078 0.993398
1.00021 1.00132 0.992687
1.00002 0.999684 0.994709
1.00014 1.00096 0.993125
1.00102 1.00071 0.991713
1.00132 1.00031 0.991569
1.00127 1.00054 0.991322
1.00135 1.00007 0.991663
1.0001 1.00079 0.993463
1.00016 1.00115 0.992944
1.00029 1.00165 0.992256
1.00099 1.00015 0.992346
1.00125 0.999644 0.992301
1.0006 1.00129 0.991995
1.00091 0.999887 0.992734
1.00085 0.999984 0.992794
1.00022 1.00115 0.992882
1.00028 1.00146 0.992482
1.00016 1.00167 0.992516
1.00002 0.999609 0.994683
1.00012 1.00097 0.993136
1.00109 1.00073 0.991549
1.00146 1.0003 0.991206
1.00144 0.999667 0.991892
1.00113 0.999537 0.992615
1.0002 1.00107 0.992997
1.00107 0.999288 0.993098
1.00013 1.00152 0.992546
1.00035 1.00205 0.991741
1.00073 1.00116 0.991873
1.00004 0.999513 0.994671
1.0001 1.00092 0.993411
1.00012 1.00184 0.992406
1.00029 1.00127 0.992637
1.00025 1.00199 0.99204
1.00033 1.00154 0.992256
0.999912 0.997637 0.99694
1.00003 0.999592 0.994776
1.00087 1.00044 0.992272
1.00011 1.00082 0.993419
1.0001 1.00076 0.993489
1.00017 1.00135 0.992729
1.0005 1.00082 0.992634
1.00078 1.00071 0.992164
1.00013 1.0014 0.992824
1.00026 1.00163 0.992324
1.00044 1.001 0.992646
1.00005 0.999537 0.994809
1.00012 1.00081 0.993407
1.00018 1.00126 0.99284
1.00015 1.00149 0.992681
1.00019 1.00168 0.99242
1.00094 1.00034 0.992213
1.00058 1.00092 0.992373
1.00075 1.00055 0.992367
1.00016 1.00188 0.992237
1.00042 1.00176 0.991904
1.00013 1.0008 0.993409
1.00015 1.00158 0.992507
1.00021 1.00168 0.992373
1.00019 1.00181 0.992217
1.00026 1.00181 0.992179
1.00108 0.999445 0.992796
1.0006 1.00135 0.991968
1.0008 1.0003 0.992215
1.00027 1.00222 0.991863
1.00042 1.00214 0.991258
1.00006 0.999471 0.994852
1.00012 1.00079 0.993384
1.0001 1.00167 0.992518
1.00011 1.00073 0.993397
1.0001 1.00068 0.993581
1.00009 1.00163 0.992689
1.00009 1.00222 0.992164
1.00008 1.0016 0.992624
1.00008 1.00066 0.993631
1.0001 0.9993 0.994947
1.00009 0.999326 0.994945
1.00002 0.997349 0.997446
1.00007 0.999364 0.994929
0.999989 0.997427 0.997439
0.999945 0.996285 0.998434
0.999961 0.99751 0.99743
0.999906 0.996337 0.998428
0.999859 0.996392 0.999333
0.999934 0.997554 0.996978
0.999904 0.997687 0.996914
0.999827 0.996512 0.999323
0.999878 0.997794 0.996864
0.999787 0.996636 0.999309
0.999749 0.996726 0.999298
1.0009 1.00039 0.99225
1.00098 1.00052 0.991977
1.00107 1.00008 0.992242
1.0011 1.00049 0.991794
1.0009 1.00076 0.99188
1.0008 1.0008 0.992038
1.00092 1.0008 0.991812
1.00091 1.00073 0.991896
1.00113 1.00024 0.991904
1.00112 1.00054 0.991702
1.00101 1.0001 0.992309
1.00115 0.999711 0.992468
1.00087 1.00077 0.99194
1.00088 1.00076 0.991908
1.00116 1.00018 0.99193
1.00115 0.999319 0.992866
1.00101 1.00071 0.991726
1.00131 1.00031 0.991584
1.0013 1.00056 0.991267
1.00136 1.00009 0.991673
1.00011 1.00077 0.993467
1.00016 1.00115 0.992988
1.00028 1.00168 0.992252
1.001 1.00019 0.99232
1.00119 0.999609 0.992396
1.00091 0.999895 0.992738
1.0006 1.00134 0.991966
1.00083 0.999835 0.992905
1.00023 1.00115 0.992883
1.00028 1.00144 0.992454
1.00016 1.00167 0.992504
1.00002 0.999606 0.994588
1.00012 1.00097 0.993145
1.00112 1.00071 0.991495
1.00144 1.00031 0.991267
1.00141 0.999707 0.991924
1.00021 1.00107 0.992995
1.00016 1.00151 0.992608
1.00033 1.0021 0.991726
1.00114 0.999579 0.992571
1.00071 1.00105 0.992011
1.00103 0.999317 0.993067
1.00003 0.999499 0.994687
1.00028 1.00128 0.992633
1.00033 1.00151 0.992287
1.00024 1.00197 0.99208
1.00012 1.00186 0.992436
1.0001 1.00091 0.993314
1.00123 1.00064 0.991425
1.00152 1.00017 0.991245
1.00144 0.999169 0.992315
1.00136 0.998648 0.993112
1.00024 1.00129 0.992706
1.001 1.00005 0.992426
1.00016 1.00205 0.991996
1.00042 1.00241 0.991347
1.00004 0.99934 0.994819
1.00009 1.00085 0.993494
1.0001 1.00186 0.992541
1.00017 1.00242 0.991723
1.00032 1.00145 0.99234
1.00033 1.00194 0.991874
1.00005 0.999534 0.994808
1.00012 1.00082 0.993404
1.00094 1.00038 0.992202
1.00015 1.00151 0.992675
1.00017 1.00125 0.992881
1.00019 1.00168 0.992381
1.00059 1.00092 0.992357
1.00077 1.00052 0.992395
1.00015 1.00187 0.992207
1.00042 1.00183 0.991841
1.00012 1.00081 0.993408
1.00015 1.00159 0.992547
1.0002 1.00167 0.992431
1.00018 1.00182 0.992265
1.00023 1.0018 0.992215
1.0011 0.999464 0.992851
1.00062 1.00129 0.991998
1.00077 1.00037 0.992387
1.00025 1.00223 0.991811
1.00043 1.00225 0.991229
1.00013 1.00167 0.992464
1.00018 1.00216 0.991899
1.00025 1.00204 0.99197
1.00024 1.00201 0.991891
1.00155 0.998483 0.993005
1.00122 0.99907 0.992804
1.00068 1.00183 0.991257
1.00026 1.00294 0.990877
1.00012 1.00079 0.993437
1.0001 1.00168 0.992572
1.0001 1.00226 0.99206
1.0001 1.00068 0.993582
1.00009 1.00163 0.992588
1.00008 1.00067 0.993631
1.00009 1.00222 0.992092
1.00008 1.00161 0.992664
1.00012 1.0026 0.991693
1.00009 1.00221 0.99202
1.00008 1.00158 0.992637
1.00007 1.00068 0.993643
1.0001 0.9993 0.994938
1.00009 0.999307 0.994947
1.00004 0.997288 0.997452
1.00008 0.999332 0.994946
1.00002 0.99736 0.997447
0.99998 0.996205 0.998439
0.999988 0.997438 0.99744
0.999943 0.996251 0.998434
0.999904 0.996304 0.998428
0.99997 0.997418 0.997042
0.999937 0.997562 0.996974
0.999869 0.996375 0.999338
0.999906 0.997694 0.996911
0.999824 0.99652 0.999319
0.999785 0.996633 0.999306
1.001 1.00013 0.992312
1.00115 1.00025 0.991874
1.00113 0.999629 0.992532
1.00111 1.00056 0.991638
1.00092 1.00071 0.991899
1.00091 1.00082 0.9918
1.00089 1.00077 0.991892
1.0009 1.00075 0.991893
1.00115 1.00014 0.991988
1.00115 0.999296 0.992831
1.00087 1.00077 0.991928
1.00088 1.0007 0.992009
1.00127 0.999373 0.992513
1.00114 1.00069 0.991441
1.00142 1.00032 0.991328
1.00139 0.999745 0.991956
1.00021 1.00107 0.992993
1.0002 1.0015 0.992671
1.00031 1.00215 0.991711
1.00116 0.999621 0.992527
1.00099 0.999343 0.993037
1.00069 1.00094 0.992148
1.00028 1.0013 0.992628
1.00033 1.00147 0.992317
1.00024 1.00194 0.99212
1.00003 0.999483 0.994703
1.00013 1.00189 0.992466
1.00011 1.0009 0.993217
1.00116 1.00064 0.991514
1.00155 1.00011 0.991216
1.00145 0.999252 0.992245
1.00025 1.00129 0.9927
1.00016 1.00202 0.99206
1.0004 1.00236 0.991395
1.00132 0.998682 0.993169
1.001 1 0.992416
1.00005 0.999327 0.994922
1.00009 1.00086 0.993494
1.00032 1.00147 0.992328
1.00033 1.00194 0.991885
1.00016 1.0024 0.991772
1.00011 1.00186 0.992489
1.00115 1.00045 0.991712
1.00162 0.999807 0.991428
1.00156 0.998043 0.993232
1.00143 0.998507 0.993253
1.00023 1.00165 0.992304
1.00059 1.00208 0.991297
1.00024 1.00259 0.991543
1.00007 0.99918 0.995128
1.00009 1.00034 0.993945
1.00007 1.00066 0.993527
1.00008 1.00191 0.99245
1.00012 1.00249 0.991735
1.00022 1.00269 0.99138
1.00031 1.00172 0.992076
1.00029 1.00245 0.991606
1.00012 1.00081 0.993408
1.00015 1.0016 0.992587
1.00112 0.999483 0.992907
1.00018 1.00182 0.992314
1.0002 1.00166 0.992489
1.0002 1.00178 0.99225
1.00064 1.00124 0.992028
1.00073 1.00043 0.99256
1.00023 1.00224 0.991759
1.00045 1.00234 0.9912
1.00013 1.00167 0.992461
1.00018 1.00213 0.991969
1.00024 1.00201 0.992023
1.00025 1.00202 0.991934
1.00153 0.998411 0.993034
1.00115 0.999319 0.992755
1.0007 1.00182 0.991332
1.0003 1.00288 0.990873
1.00012 1.0023 0.991977
1.00139 0.999003 0.992616
1.00021 1.00259 0.991545
1.00024 1.00258 0.99144
1.00187 0.997549 0.993196
1.00107 1.00125 0.990985
1.00041 1.00344 0.990455
1.0001 1.00169 0.992626
1.00009 1.00226 0.99206
1.0001 1.00265 0.991652
1.00008 1.00067 0.99363
1.00008 1.00162 0.992703
1.00009 1.00222 0.992019
1.00007 1.00068 0.993641
1.00008 1.00159 0.992638
1.00012 1.00261 0.991634
1.00009 1.00222 0.9921
1.00019 1.00282 0.991339
1.00015 1.00262 0.991524
1.0001 1.00221 0.992083
1.00008 1.00164 0.992673
1.00006 1.00071 0.993626
1.0001 0.99931 0.994926
1.0001 0.999304 0.994938
1.00006 0.99725 0.997448
1.00009 0.999313 0.994947
1.00004 0.997301 0.997452
1.00001 0.996133 0.998445
1.00002 0.99737 0.997448
0.999978 0.996172 0.998439
0.999941 0.996218 0.998434
1.00009 0.999029 0.995232
1 0.997279 0.997114
0.999973 0.997426 0.997038
0.99991 0.996243 0.999352
0.99994 0.997571 0.99697
0.999864 0.996387 0.999333
0.999821 0.996527 0.999315
1.00115 0.999272 0.992795
1.00113 1.0001 0.992047
1.00093 1.00074 0.991877
1.00092 1.00078 0.991845
1.00085 1.00077 0.991997
1.00089 1.00076 0.991948
1.00123 0.999321 0.99263
1.00081 1.00077 0.992089
1.00103 1.00015 0.99221
1.00109 0.999162 0.993225
1.0011 1.00063 0.991603
1.00159 1.00006 0.991187
1.00146 0.999333 0.992174
1.00025 1.0013 0.992695
1.00016 1.00199 0.992125
1.00039 1.00231 0.991443
1.00129 0.998714 0.993225
1.001 0.999963 0.992406
1.00032 1.00148 0.992316
1.00033 1.00194 0.991896
1.00015 1.00237 0.991822
1.00005 0.999316 0.995025
1.00008 1.00087 0.993494
1.00011 1.00185 0.992437
1.00116 1.00045 0.991658
1.00007 0.999181 0.995126
1.00009 1.00034 0.993885
1.00163 0.999757 0.991456
1.00154 0.998219 0.993063
1.00023 1.00162 0.992324
1.00024 1.0026 0.991467
1.00059 1.00193 0.991334
1.0014 0.998496 0.993219
1.00007 1.00065 0.993697
1.00008 1.00193 0.992441
1.00032 1.00173 0.992104
1.00029 1.00228 0.991675
1.00023 1.00273 0.991281
1.00012 1.00248 0.991759
1.00122 1.00056 0.991464
1.00165 0.99878 0.992418
1.00182 0.996751 0.994143
1.001 1.00057 0.991972
1.00021 1.00205 0.991968
1.00032 1.00313 0.990935
1.0001 1.00019 0.993953
1.00008 1.00049 0.993824
1.00007 1.00136 0.993128
1.00004 1.00182 0.992459
1.0001 1.00252 0.991821
1.00017 1.00309 0.990953
1.00018 1.00339 0.990828
1.0002 1.00228 0.991766
1.00013 1.00168 0.992458
1.00019 1.0021 0.99204
1.00151 0.998341 0.993063
1.00108 0.999568 0.992706
1.00026 1.00204 0.991977
1.00023 1.00198 0.992077
1.00073 1.00181 0.991408
1.00034 1.00283 0.99087
1.00012 1.00229 0.991973
1.00134 0.998843 0.992815
1.00021 1.00254 0.991536
1.00025 1.00256 0.991344
1.00181 0.997643 0.993151
1.00113 1.00124 0.991001
1.00039 1.00347 0.99041
1.00011 1.0028 0.991525
1.00193 0.997265 0.992987
1.00026 1.00285 0.991253
1.0003 1.00356 0.9906
1.00185 0.999406 0.991139
1.00049 1.00343 0.989938
1.00394 0.996448 0.99034
1.00009 1.00227 0.992061
1.00009 1.00267 0.991653
1.00013 1.00293 0.991359
1.00007 1.00069 0.993639
1.00008 1.00159 0.99264
1.00009 1.00223 0.99218
1.00013 1.00261 0.991575
1.00006 1.00071 0.993625
1.00008 1.00164 0.992627
1.00019 1.00279 0.991317
1.0001 1.00222 0.992084
1.00014 1.00263 0.991595
1.00026 1.00288 0.991076
1.00015 1.00269 0.991578
1.00011 1.00228 0.992077
1.00008 1.0017 0.992502
1.00007 1.00072 0.993464
1.00006 1.00172 0.992771
1.00007 1.0007 0.993479
1.0001 0.999317 0.994921
1.0001 0.999311 0.994926
1.00008 0.997257 0.996988
1.0001 0.999307 0.994938
1.00006 0.997266 0.997222
1.00001 0.996055 0.999341
1.00004 0.997314 0.997453
1.00001 0.996101 0.998445
0.999977 0.996139 0.998439
1.00011 0.998915 0.995311
1.00009 0.999031 0.99523
1.00003 0.997152 0.997184
1 0.997288 0.997326
0.999947 0.996117 0.99937
0.999977 0.997434 0.997035
0.999905 0.996257 0.999348
0.99986 0.9964 0.999329
1.0012 0.99927 0.992746
1.00089 1.00081 0.991887
1.00083 1.00078 0.992066
1.00081 1.00076 0.992098
1.00099 1.00019 0.992239
1.00092 0.999423 0.99322
1.00088 1.0004 0.992361
1.00297 0.99576 0.995289
1.00073 0.997961 0.99464
1.00011 1.00009 0.994161
1.00117 1.00044 0.991604
1.00165 0.99971 0.991484
1.00151 0.998381 0.992895
1.00023 1.00159 0.992344
1.00023 1.00262 0.991391
1.00059 1.00178 0.991371
1.00137 0.998487 0.993186
1.00033 1.00174 0.992131
1.00029 1.00212 0.991744
1.00023 1.00277 0.991182
1.00007 0.999182 0.995123
1.00012 1.00247 0.991783
1.00007 1.00065 0.993867
1.00007 1.00194 0.992432
1.00009 1.00033 0.993825
1.00129 1.0005 0.991349
1.0001 1.00017 0.994025
1.00008 1.00049 0.993822
1.00007 1.00137 0.993006
1.00163 0.998795 0.992443
1.00179 0.996897 0.993908
1.00023 1.00201 0.991987
1.00026 1.00306 0.990906
1.00097 1.00046 0.992017
1.00004 1.0018 0.992545
1.00011 1.00253 0.991793
1.00021 1.0023 0.991755
1.00019 1.0032 0.990964
1.00016 1.0031 0.991021
1.00146 1.00031 0.991152
1.00205 0.996424 0.993982
1.00174 0.998314 0.992774
1.00048 1.0028 0.990994
1.00007 1.00269 0.99154
1.00007 1.00112 0.993071
1.00006 1.00157 0.992691
1.00004 1.00213 0.99234
1.00007 1.00266 0.991738
1.00014 1.00292 0.99123
1.00011 1.0039 0.99043
1.00008 1.00355 0.990809
1.00012 1.00228 0.991968
1.00022 1.0025 0.991527
1.00127 0.998682 0.993013
1.00174 0.997738 0.993105
1.00118 1.00125 0.991017
1.00027 1.00254 0.991249
1.00037 1.00348 0.990365
1.00011 1.00277 0.991555
1.00189 0.997146 0.993117
1.00024 1.0028 0.991228
1.00021 1.00353 0.990596
1.00194 0.999142 0.991308
1.00049 1.00359 0.989904
1.00405 0.996449 0.991214
1.00011 1.00309 0.991233
1.00244 0.998154 0.990679
1.00014 1.00339 0.990919
0.999945 1.00461 0.990014
1.0009 1.00238 0.989829
0.995504 1.00362 0.977045
1.00007 0.999144 0.993617
1.00377 0.997705 0.989707
0.996412 0.997314 0.990747
1.00402 0.987799 0.995122
1.00008 1.00268 0.991654
1.00013 1.00292 0.991357
1.00022 1.00305 0.991006
1.00006 1.00071 0.993624
1.00008 1.00165 0.992581
1.00009 1.00222 0.992085
1.00013 1.00263 0.991666
1.0002 1.00276 0.991295
1.00011 1.00228 0.991993
1.00007 1.00072 0.993538
1.00008 1.00171 0.992557
1.00024 1.00288 0.991129
1.00015 1.00267 0.991553
1.00014 1.00268 0.991612
1.00019 1.00304 0.991103
1.00011 1.00239 0.991811
1.00008 1.00175 0.992456
1.00007 1.00071 0.993471
1.00007 1.00169 0.992687
1.00008 1.00241 0.99203
1.00007 1.00176 0.992583
1.00006 1.00172 0.992652
1.00008 1.00073 0.993577
1.00007 1.0007 0.993479
1.0001 0.999322 0.994921
1.0001 0.999313 0.994921
1.00008 0.997281 0.99698
1.0001 0.999311 0.994926
1.00008 0.997259 0.996987
1.00002 0.996041 0.999339
1.00007 0.997283 0.996997
1.00002 0.996054 0.998891
1.00001 0.996068 0.998445
1.00012 0.998841 0.995365
1.00011 0.998916 0.99531
1.00005 0.997058 0.997239
1.00009 0.999033 0.995229
1.00003 0.997149 0.997396
0.999977 0.996014 0.999386
1.00001 0.997307 0.997096
0.99994 0.996157 0.999361
0.9999 0.99627 0.999344
1.00095 1.00023 0.992267
1.00081 1.00075 0.992107
1.00077 0.999679 0.993213
1.00278 0.995774 0.995277
1.00085 1.00041 0.992336
1.00072 0.998356 0.994235
1.00095 0.999934 0.992095
0.998946 0.999657 0.990648
1.00098 0.998116 0.996697
1.00011 1.00002 0.994222
1.00011 1.00009 0.994159
1.00009 1.00099 0.993306
1.00008 1.00083 0.993472
1.00136 1.00045 0.991233
1.00161 0.998813 0.992467
1.00175 0.997068 0.993673
1.00026 1.00198 0.992007
1.0002 1.00299 0.990878
1.00094 1.00035 0.992063
1.00021 1.00231 0.991743
1.0002 1.00302 0.9911
1.00015 1.00311 0.991089
1.00008 1.00049 0.99382
1.00012 1.00255 0.991765
1.00004 1.00178 0.992631
1.0001 1.00016 0.994098
1.00007 1.00138 0.992883
1.00151 1.00018 0.991273
1.00007 1.00113 0.993194
1.00005 1.00154 0.992774
1.00004 1.00205 0.99236
1.00199 0.996537 0.993959
1.00168 0.998176 0.992797
1.00011 1.00273 0.991535
1.00044 1.00269 0.991025
1.00006 1.00268 0.991752
1.00015 1.00285 0.9913
1.00009 1.00349 0.990822
1.0001 1.00392 0.990449
1.00181 0.99844 0.992189
1.00249 0.996055 0.993602
1.0011 1.0017 0.990676
1.00009 1.00335 0.990991
1.00004 1.00219 0.992167
1.00006 1.00241 0.991916
1.00007 1.00353 0.990809
1.00008 1.00474 0.989708
0.995385 1.00219 0.976064
1.00011 1.00273 0.991586
1.00023 1.00276 0.991202
1.00184 0.997043 0.993248
1.00205 0.998876 0.991478
1.00049 1.00375 0.989871
1.00013 1.00353 0.990593
1.00413 0.996406 0.992086
1.0001 1.00307 0.991259
1.00256 0.998128 0.990696
1.00011 1.00335 0.990928
0.999948 1.00456 0.990045
1.00095 1.00224 0.98998
0.99523 1.00269 0.977959
0.999968 0.999304 0.989628
1.00381 0.997525 0.989748
0.997147 0.997551 0.988263
1.00293 0.988828 0.996203
1 1.0034 0.991101
0.997735 0.998578 0.984695
1.0048 0.991795 0.993264
1.00168 1.00105 0.989732
0.999962 1.00376 0.990704
0.999846 1.00524 0.989886
1.00339 0.999126 0.988826
0.995554 1.00301 0.976915
1.00017 0.998897 0.990984
0.996581 0.998068 0.990516
1.01072 0.985197 0.991099
1.00012 1.0029 0.991356
1.00022 1.00307 0.991014
1.00034 1.0031 0.990718
1.00006 1.00072 0.993612
1.00007 1.00172 0.992612
1.00011 1.00228 0.99191
1.00015 1.00265 0.991529
1.00022 1.00288 0.991181
1.00007 1.00072 0.993469
1.00015 1.00264 0.991586
1.00011 1.00239 0.991899
1.00008 1.00174 0.99253
1.0002 1.00303 0.991045
1.00013 1.0029 0.991338
1.0001 1.00354 0.990737
1.0001 1.00254 0.991749
1.00007 1.00172 0.992644
1.00007 1.00169 0.992685
1.00008 1.0024 0.991941
1.00009 1.00242 0.991898
1.00008 1.00246 0.991873
1.00009 1.00286 0.991474
1.00011 1.00248 0.991774
1.00007 1.00184 0.992491
1.00007 1.00176 0.992583
1.00009 1.00076 0.993519
1.00006 1.00172 0.992533
1.00008 1.00073 0.993512
1.00009 0.999344 0.994909
1.00007 1.0007 0.99348
1.0001 0.999318 0.99492
1.00006 0.997305 0.997429
1.0001 0.99931 0.994922
1.00007 0.997275 0.997206
1.00004 0.996045 0.99843
1.00008 0.997261 0.996987
1.00002 0.996039 0.999339
1.00003 0.996052 0.998442
1.00011 1.00003 0.994219
1.00012 0.998802 0.99539
1.00012 0.998842 0.995364
1.00006 0.997002 0.997277
1.00011 0.998915 0.995309
1.00005 0.997056 0.99724
0.999998 0.995941 0.999398
1.00002 0.997156 0.997597
0.999982 0.996047 0.998957
0.999958 0.996185 0.998497
1.00267 0.995697 0.995265
1.0008 1.00043 0.992312
1.0007 0.998726 0.993832
0.998936 0.999484 0.993373
1.00081 0.998333 0.996702
1.00105 0.999994 0.991919
1.00112 1.00104 0.993014
0.99769 1.00142 0.991475
0.995011 1.00395 0.97287
0.996275 0.999205 0.985148
1.00214 0.991834 0.994189
1.00008 1.00088 0.993309
1.00011 1.00003 0.994219
1.00011 1.0001 0.994157
1.00008 1.001 0.993275
1.00007 1.00169 0.992716
1.0001 1.0014 0.992921
1.00008 1.00096 0.993385
1.00008 1.00085 0.993421
1.00156 1.00005 0.991393
1.00195 0.996657 0.993937
1.00161 0.99803 0.992819
1.00014 1.00277 0.99153
1.0004 1.00259 0.991055
1.00009 1.00342 0.990835
1.00008 1.00394 0.990468
1.00015 1.00277 0.99137
1.00005 1.00152 0.992857
1.00006 1.0027 0.991767
1.00007 1.00115 0.993316
1.00004 1.00198 0.99238
1.00187 0.998541 0.992107
1.00005 1.00216 0.992207
1.00005 1.00244 0.991948
1.00244 0.995979 0.993595
1.00096 1.00144 0.990816
1.00014 1.0035 0.990775
1.00007 1.00356 0.990788
1.00008 1.00458 0.989748
1.00311 0.9957 0.992394
1.00156 1.00083 0.991034
1.00026 1.00325 0.990202
1.00015 1.00469 0.989586
1.00004 1.00265 0.991703
1.00005 1.00321 0.991206
1.00006 1.00465 0.989857
0.998299 0.997334 0.986811
0.995519 1.00325 0.977879
1.00009 1.00305 0.991286
1.00009 1.00329 0.990937
1.0027 0.998153 0.990712
1.00102 1.00217 0.990132
0.999941 1.00451 0.990077
0.995653 1.00324 0.971698
0.999978 0.999371 0.995495
1.00387 0.997316 0.989783
0.996795 0.998132 0.986365
1.00158 0.989827 0.997284
1.00004 1.00334 0.991091
0.99818 0.997655 0.987118
1.00423 0.992374 0.994153
1.00169 1.00106 0.989706
0.999948 1.0039 0.990731
0.999739 1.00512 0.990097
1.00322 0.9996 0.988605
0.994913 1.00316 0.974038
1.00002 0.999395 0.995742
0.996413 0.997992 0.986889
1.01014 0.984342 0.992557
1.00024 1.00313 0.990784
1.00604 0.994844 0.990691
1.01577 0.989962 0.983688
1.00002 1.00427 0.989805
0.999733 1.00399 0.991323
1.00197 0.999375 0.994942
1 0.997163 1.00031
0.994914 1.00317 0.975776
0.997219 0.997784 0.986339
1.01588 0.985914 0.985067
1.00022 1.00309 0.991023
1.00032 1.00313 0.990698
1.00015 1.00359 0.990553
1.00007 1.00072 0.993467
1.00008 1.00174 0.992604
1.0001 1.00238 0.991987
1.00015 1.00259 0.991559
1.0002 1.00302 0.990987
1.00007 1.00172 0.992641
1.00013 1.00285 0.99138
1.0001 1.00254 0.991754
1.00011 1.00358 0.990672
1.00006 1.00401 0.990286
1.00009 1.00331 0.991035
1.0001 1.00248 0.991827
1.00007 1.00169 0.992683
1.00009 1.0024 0.991851
1.00009 1.00242 0.991893
1.00008 1.00247 0.991867
1.0001 1.00281 0.991482
1.00006 1.00259 0.991754
1.00012 1.00297 0.991325
1.00007 1.00301 0.99125
1.00015 1.00259 0.991587
1.0001 1.00202 0.992142
1.00015 1.00212 0.992005
1.00012 1.00246 0.991784
1.0001 1.00182 0.992456
1.00007 1.00185 0.992488
1.0001 1.00082 0.993443
1.00006 1.00177 0.992583
1.00009 1.00077 0.993518
1.00009 0.999389 0.994879
1.00008 1.00073 0.993447
1.0001 0.999343 0.994907
1.00004 0.997347 0.997424
1.0001 0.999313 0.99492
1.00006 0.9973 0.997202
1.00003 0.996044 0.998428
1.00008 0.997267 0.996979
1.00002 0.996045 0.999337
1.00002 0.996037 0.999338
1.00011 1.00008 0.99433
1.00012 0.998818 0.995379
1.00011 1.00002 0.994219
1.00007 0.996985 0.997288
1.00012 0.998806 0.995388
1.00012 0.998843 0.995362
1.00006 0.997006 0.997276
1.00001 0.9959 0.999405
1.00004 0.997056 0.997651
1.00001 0.995949 0.998979
0.999996 0.996055 0.998544
0.996934 0.998393 0.988361
1.00448 0.993644 0.991373
0.998889 0.999539 0.995752
1.00063 0.99865 0.996705
1.00116 1.00007 0.991741
0.997609 1.00181 0.997122
1.0012 1.00062 0.992913
0.995102 1.00359 0.976969
0.996365 0.999175 0.989267
1.00191 0.991532 0.995055
0.999217 1.00172 0.995559
0.995121 1.00424 0.977253
0.996569 0.998798 0.989883
1.00865 0.98848 0.991543
1.00006 1.00176 0.992544
1.00008 1.00088 0.993367
1.00011 1.00003 0.994216
1.00007 1.00101 0.993245
1.00006 1.0016 0.992778
1.00008 1.00165 0.992711
1.0001 1.00135 0.992943
1.00007 1.00124 0.993101
1.00008 1.00098 0.993317
1.00008 1.00087 0.99337
1.00192 0.998601 0.992026
1.00241 0.995885 0.993587
1.00082 1.00117 0.990957
1.00018 1.00365 0.990559
1.00009 1.00443 0.989788
1.00006 1.00359 0.990767
1.00005 1.00247 0.991979
1.00005 1.00212 0.992246
1.00296 0.995849 0.992127
1.00003 1.00268 0.991675
1.00005 1.00323 0.991135
1.00149 1.00052 0.991101
1.00028 1.00345 0.990196
1.00016 1.00483 0.989365
1.00007 1.00468 0.989734
1.0036 0.996605 0.99033
0.999947 1.00482 0.989835
1.00005 1.00523 0.989137
1.00006 1.00266 0.991658
1.00005 1.00324 0.991158
1.00009 1.00395 0.990443
1.00578 0.996726 0.987141
0.998309 0.998078 0.983915
0.995334 1.00233 0.975581
1.00007 1.00328 0.99108
0.999949 1.00403 0.990758
1.00169 1.00109 0.989681
0.999618 1.00501 0.990307
0.997817 0.99822 0.984239
0.995035 1.0025 0.980912
1.00008 0.998774 0.99117
1.00306 0.999837 0.988425
0.996242 0.997729 0.991297
1.00466 0.993205 0.994
1.00861 0.987148 0.992357
1.00022 1.00333 0.990763
1.0056 0.99538 0.989811
1.01596 0.989603 0.9838
1.00001 1.00433 0.989824
0.999631 1.00392 0.991315
1.0028 1.00122 0.9896
1.00036 0.99792 0.993481
0.99493 1.00365 0.976652
0.998431 0.997379 0.990363
1.014 0.986362 0.986383
1.00003 1.00306 0.991325
1.01606 0.995997 0.979937
1.02135 0.987516 0.97845
0.998539 1.00364 0.993502
0.998851 0.998108 1.00287
0.995306 1.00236 0.978338
1.0013 0.996196 0.987834
1.01589 0.988094 0.982154
1.0003 1.00314 0.990677
1.00019 1.00353 0.990586
1.00025 1.00394 0.990401
1.00007 1.00172 0.992637
1.0001 1.00254 0.991759
1.00013 1.0028 0.991422
1.00011 1.00362 0.990608
1.0001 1.00248 0.991826
1.0001 1.0033 0.991043
1.00003 1.00411 0.990254
0.999842 1.00433 0.99036
1.0001 1.00397 0.9903
1.00014 1.00312 0.991199
1.0001 1.00243 0.991888
1.00008 1.00248 0.991862
1.0001 1.00276 0.991491
1.00012 1.00294 0.991353
1.00006 1.0026 0.991761
1.00009 1.00299 0.991276
1.0001 1.00307 0.991208
1.00005 1.00341 0.990968
1.00014 1.00294 0.991294
1.00015 1.00262 0.991576
1.00014 1.00233 0.991787
1.00022 1.00198 0.992058
1.00016 1.00165 0.992577
1.00009 1.00195 0.99228
1.00016 1.00212 0.992051
1.00013 1.00163 0.992517
1.00012 1.00245 0.991795
1.0001 1.00182 0.992462
1.00011 1.00085 0.993389
1.00007 1.00186 0.992486
1.0001 1.00082 0.993441
1.00008 0.999443 0.99484
1.00009 1.00077 0.993517
1.00009 0.999389 0.994877
1.00002 0.997409 0.997413
1.0001 0.999341 0.994906
1.00004 0.997345 0.997195
1.00001 0.996096 0.998424
1.00007 0.997291 0.996975
1.00002 0.996058 0.998882
1.00001 0.996047 0.999336
1.0001 1.00025 0.994066
1.00012 0.998864 0.995348
1.00011 1.00009 0.994191
1.00006 0.997004 0.997276
1.00012 0.998817 0.99538
1.00011 1.00002 0.994219
1.00001 0.995891 0.999406
1.00007 0.996985 0.997287
1.00012 0.998809 0.995387
1.00006 0.99701 0.997274
1.00001 0.995903 0.999403
0.999996 0.99595 0.999394
1.0049 0.996366 0.98907
0.997339 0.998832 0.986193
1.0145 0.991959 0.98384
1.00382 0.993318 0.992068
0.997579 1.00188 0.991763
1.0013 1.00019 0.992808
0.995046 1.00347 0.981347
0.996325 0.999781 0.985455
1.00159 0.991347 0.995921
0.999294 1.00135 0.993586
0.994798 1.00404 0.975611
0.997107 0.998132 0.985955
1.00878 0.987477 0.992505
1.00015 0.999713 0.996171
0.994669 1.00367 0.97521
0.998691 0.997339 0.989788
1.01559 0.987989 0.984007
1.00008 1.00222 0.992134
1.00007 1.00173 0.992622
1.00009 1.00088 0.993425
1.00006 1.00152 0.99284
1.00009 1.00197 0.992301
1.00009 1.00162 0.992759
1.00009 1.00131 0.992965
1.00008 1.00143 0.992987
1.00008 1.00122 0.993171
1.00008 1.00099 0.99325
1.00278 0.996052 0.991859
1.00142 1.00022 0.99117
1.00032 1.00367 0.99019
1.00016 1.00498 0.989145
1.00009 1.00471 0.989611
1.00005 1.00325 0.991064
1.00003 1.00271 0.991646
1.00006 1.00268 0.99167
1.00334 0.996833 0.990262
1.00003 1.00324 0.991211
1.00008 1.00405 0.990382
0.999982 1.00498 0.989758
1.0001 1.00517 0.989145
1.00262 0.998935 0.989991
0.999443 1.00562 0.990005
1.00015 1.00464 0.989597
1.00007 1.00311 0.991217
1.00013 1.00367 0.990568
1.01515 0.999193 0.978452
1.00576 0.996627 0.987471
0.998316 0.9971 0.987438
1.00019 1.00355 0.990743
0.999522 1.00388 0.991307
1.00003 1.00426 0.989841
1.0058 0.995904 0.988806
0.994626 1.0033 0.975104
1.00003 0.997475 0.999232
1.00369 1.0034 0.984226
0.997959 0.998303 0.986122
1.01615 0.989241 0.983912
1.01413 0.986559 0.985609
1.00005 1.00298 0.991363
1.01612 0.996462 0.978795
1.02151 0.987322 0.978169
0.998847 1.00334 0.992821
0.999189 0.99816 0.999644
0.99531 1.00293 0.975852
1.0166 0.98909 0.981344
1.00013 0.996909 0.987621
0.999998 1.00228 0.992069
1.02061 0.993372 0.973626
1.02325 0.986559 0.976816
1.01606 0.985186 0.985847
0.99713 1.00081 0.998391
0.994865 0.999817 0.982833
1.00133 0.999451 0.982866
1.00024 1.00347 0.990618
1.00023 1.00393 0.990309
0.999816 1.00441 0.990502
1.00009 1.00248 0.991825
1.00011 1.00328 0.991052
1 1.00424 0.990222
1.00013 1.00309 0.991223
1.00009 1.00406 0.990286
0.999897 1.00434 0.990286
0.999874 1.00447 0.990332
1.00007 1.00378 0.990561
1.00012 1.0029 0.991382
1.00006 1.00261 0.991769
1.0001 1.00297 0.991302
1.00007 1.00336 0.990982
1.0001 1.00306 0.991188
1 1.00366 0.990855
1.0001 1.00277 0.991518
1.00011 1.00329 0.990894
1.00016 1.00264 0.991564
1.00018 1.00237 0.991792
1.00029 1.00234 0.991467
1.00017 1.00188 0.992267
1.00013 1.00155 0.992682
1.00019 1.00199 0.992059
1.00015 1.00133 0.992848
1.00016 1.00166 0.992542
1.00008 1.00188 0.992419
1.00016 1.00211 0.992098
1.00013 1.00163 0.992548
1.00013 1.00079 0.993417
1.0001 1.00182 0.992467
1.00011 1.00085 0.993392
1.00007 0.999495 0.994806
1.0001 1.00083 0.993439
1.00008 0.999445 0.994838
0.999986 0.997467 0.9974
1.00009 0.999389 0.994875
1.00002 0.997409 0.997182
0.999975 0.996167 0.998416
1.00005 0.997339 0.996967
0.999999 0.996108 0.998879
1 0.996078 0.999335
1.0001 1.00043 0.993704
1.0001 0.998975 0.995096
1.0001 1.00025 0.994062
1.00006 0.997055 0.997246
1.00011 0.99887 0.995259
1.0001 1.00009 0.994052
1.00001 0.995904 0.999402
1.00006 0.997001 0.997277
1.00012 0.998817 0.995381
1.00001 0.99589 0.999406
1.00007 0.996986 0.997287
1.00001 0.995906 0.999402
1.01432 0.997451 0.979886
1.00476 0.996605 0.988582
0.997453 0.998785 0.984976
1.00012 1.00157 0.992648
1.01969 0.989225 0.979029
1.01476 0.991726 0.983976
1.00381 0.993484 0.991522
0.999356 1.00075 0.99137
0.994966 1.00447 0.97686
0.997432 0.997775 0.99032
1.00823 0.989989 0.991926
1.00022 0.999576 0.990851
0.995099 1.0031 0.97671
0.99923 0.996633 0.987513
1.01451 0.989061 0.985214
1.00008 0.997696 0.991516
0.994694 1.0022 0.972616
1.00051 0.99867 0.981954
1.01536 0.99157 0.979676
1.00013 1.00254 0.991649
1.00008 1.00225 0.992079
1.00008 1.0017 0.9927
1.0001 1.0021 0.992145
1.0001 1.00194 0.992381
1.00009 1.00158 0.992808
1.00008 1.00141 0.99302
1.00008 1.0012 0.993241
1.00311 0.997086 0.990192
1.00001 1.00511 0.989681
1.00006 1.0027 0.991682
1.00014 1.00512 0.989152
1.00008 1.00415 0.99032
1.00002 1.00324 0.991265
1.00008 1.0031 0.991225
1.00253 0.999224 0.989908
1.00013 1.00368 0.990526
1.00017 1.00456 0.989606
0.999469 1.00565 0.990002
1.00013 1.00313 0.991068
1.00145 1.00067 0.991443
0.999614 1.00513 0.990296
1.00023 1.00419 0.989954
1.00015 1.0036 0.990618
1.01996 0.996325 0.972646
1.01511 0.998736 0.978432
1.00573 0.996618 0.9878
1.00007 1.00285 0.991402
0.999144 1.00301 0.99214
1.01621 0.996899 0.977653
0.994702 1.00259 0.977283
0.999962 0.999709 0.993364
1.00019 0.995588 0.986618
1.02159 0.987062 0.977888
1.01735 0.989987 0.980535
1.00006 1.00251 0.99195
1.02053 0.993336 0.973592
1.02304 0.986964 0.976169
0.997326 1.00082 0.999096
1.01476 0.986919 0.986832
0.994911 0.998139 0.98307
1.00053 0.999255 0.982329
0.999294 1.00161 0.993773
1.0221 0.991216 0.973434
1.02135 0.988296 0.977225
1.00844 0.987742 0.992526
1.00053 0.997705 0.983597
0.998211 0.996534 1.00504
0.995555 0.998109 0.97989
1.00019 1.00392 0.990216
0.999907 1.00428 0.990434
0.999238 1.00521 0.990219
1.00013 1.00306 0.991247
1.00008 1.00415 0.990273
0.999957 1.00428 0.990211
1.00007 1.00376 0.990572
0.999865 1.00443 0.990348
0.999784 1.00483 0.990141
1.00009 1.00331 0.990996
1.00009 1.00305 0.991168
1.00002 1.00369 0.990806
0.999863 1.00436 0.990332
1.00005 1.00259 0.991742
1.00007 1.00328 0.990974
1.00022 1.00339 0.990677
1.00037 1.00217 0.991604
1.00021 1.0024 0.991796
1.0003 1.00241 0.991415
1.00017 1.00169 0.992545
1.00004 1.00164 0.992722
1.00017 1.00182 0.992328
1.00012 1.00123 0.993027
1.00014 1.00156 0.992673
1.00016 1.00199 0.992059
1.00014 1.00066 0.993532
1.00016 1.00133 0.992816
1.00016 1.00167 0.992507
1.00013 1.00163 0.99258
1.00013 1.00078 0.993423
1.00006 0.999516 0.994802
1.00011 1.00084 0.993394
1.00007 0.999495 0.994805
0.999965 0.997538 0.996932
1.00008 0.999447 0.994836
0.999995 0.997473 0.99694
0.999924 0.996248 0.999328
1.00003 0.997404 0.996954
0.99997 0.996179 0.998874
0.999982 0.996132 0.999332
1.00011 1.0006 0.993504
1.00008 0.999148 0.994949
1.0001 1.00044 0.993778
1.00004 0.997143 0.997192
1.0001 0.998988 0.995081
1.00011 1.00025 0.994057
0.999997 0.995943 0.999394
1.00006 0.997048 0.997248
1.00011 0.998877 0.99517
1.00001 0.995904 0.999403
1.00006 0.996998 0.997277
1.00001 0.995889 0.999406
1.01937 0.994566 0.974519
1.01441 0.997067 0.979929
1.00503 0.996173 0.988416
1.00012 1.00156 0.992694
1.00018 1.00152 0.99253
1.00013 1.00214 0.992142
1.02149 0.988143 0.977738
1.01987 0.989723 0.97873
1.01501 0.991564 0.984113
1.00034 0.999449 0.995868
0.994967 1.00394 0.975349
0.998045 0.998888 0.985074
1.01503 0.990045 0.984798
1.00002 0.998641 0.996335
0.99531 1.00158 0.977623
1.00048 0.998421 0.986044
1.01596 0.992294 0.979293
0.999051 0.995052 1.00047
0.994611 0.999437 0.981148
1.00221 1.00152 0.979075
1.01481 0.988512 0.984261
1.00015 1.00268 0.991507
1.00012 1.00254 0.991655
1.00008 1.00229 0.992023
1.00011 1.00213 0.992134
1.0001 1.00191 0.992462
1.00009 1.00138 0.993053
1.00244 0.999474 0.989824
0.999494 1.00568 0.989999
1.00008 1.00309 0.991232
1.00018 1.00448 0.989615
1.00014 1.00368 0.990483
1.00012 1.00319 0.991042
1.00016 1.00358 0.990571
1.00152 0.999971 0.991286
1.00025 1.0041 0.98994
0.999573 1.00522 0.990194
1.00014 1.00365 0.990421
0.99993 1.00365 0.992042
0.999917 1.00422 0.990089
1.00018 1.00398 0.99016
1.02154 0.993354 0.972314
1.01985 0.995709 0.972555
1.01505 0.99822 0.978411
1.00012 1.00272 0.991833
0.997478 0.999498 1.00014
1.02044 0.993301 0.973557
0.995085 0.99901 0.991618
1.00321 0.998402 0.983462
1.02285 0.987456 0.975521
1.01549 0.987395 0.986477
0.9996 1.00167 0.993471
1.02197 0.991495 0.97314
1.02156 0.988695 0.976965
0.997809 0.996493 0.998981
1.00887 0.986766 0.993315
0.999141 0.999199 0.987832
0.994486 0.998579 0.983788
1.00029 1.00123 0.996103
1.02028 0.994613 0.972962
1.0158 0.991063 0.982575
1.00206 0.991382 0.994428
0.998004 0.997175 0.991052
0.994886 1.00027 0.981406
0.998327 0.994088 0.998648
1.00002 1.00417 0.990366
0.999332 1.0052 0.990217
0.999006 1.0058 0.990243
1.00008 1.00373 0.990584
0.999855 1.00442 0.990363
0.999773 1.00486 0.990121
0.99965 1.00539 0.989749
1.00003 1.00372 0.990757
0.999915 1.00448 0.990256
1.00002 1.00472 0.989836
1.00002 1.00327 0.991053
1.00023 1.00343 0.990654
1.00042 1.00312 0.990701
1.00044 1.00228 0.991429
1.00023 1.0017 0.992221
1.00036 1.00222 0.991524
1.00031 1.00248 0.991362
1.00015 1.00142 0.992846
1.00015 1.0016 0.992602
1.00003 1.00132 0.993048
1.00005 1.00162 0.992772
1.00017 1.00175 0.992389
1.0001 1.0006 0.993654
1.00013 1.00121 0.99303
1.00014 1.00157 0.992664
1.00005 0.999493 0.994847
1.00014 1.00064 0.993538
1.00016 1.00132 0.992784
1.00013 1.00076 0.993428
1.00006 0.999512 0.994804
0.999935 0.9976 0.99693
1.00007 0.999495 0.994805
0.999966 0.997542 0.996931
0.999896 0.996362 0.999325
0.999998 0.997474 0.99694
0.999934 0.996262 0.998869
0.999954 0.996202 0.999329
1.00013 1.00066 0.99352
1.00007 0.999299 0.994996
1.00011 1.00061 0.993561
1.00002 0.997266 0.997117
1.00008 0.999151 0.995032
1.00011 1.00045 0.993852
0.999978 0.996014 0.99938
1.00004 0.997133 0.997195
1.0001 0.999002 0.995065
1 0.995941 0.999396
1.00006 0.997041 0.997249
1.00001 0.995903 0.999404
1.02098 0.99168 0.974648
1.01938 0.994668 0.974522
1.01453 0.99676 0.979971
1.00019 1.00142 0.992606
1.00022 1.00166 0.992415
1.00012 1.00155 0.992739
1.00017 1.00152 0.992533
1.00013 1.00215 0.992076
1.00019 1.00203 0.9921
1.00016 1.00243 0.991756
1.01966 0.990135 0.978545
1.02126 0.988667 0.977315
1.02005 0.990213 0.978432
1.0166 0.992969 0.978911
1.00019 0.998814 0.991429
0.994616 1.00156 0.981835
1.00062 0.998112 0.982662
0.999123 0.996633 0.997049
0.995459 0.998898 0.978165
1.00124 1.00032 0.979486
1.01343 0.988574 0.985058
0.997341 0.997008 1.00079
0.996121 0.99832 0.976936
1.00263 0.99754 0.98506
1.00968 0.988839 0.989326
1.00015 1.00286 0.991327
1.00015 1.00272 0.991495
1.00012 1.00255 0.991662
1.00011 1.00215 0.992124
1.00156 0.999489 0.991129
0.999515 1.00531 0.990092
1.00012 1.00325 0.991016
1.00016 1.00357 0.990524
1.00027 1.00398 0.989927
1.00013 1.00365 0.990526
1.0002 1.00395 0.990147
0.999445 1.00317 0.993526
0.999912 1.00424 0.990104
1.00015 1.00434 0.98992
0.997927 1.00578 0.995408
1.00008 1.00475 0.989414
1.01973 0.997548 0.971661
1.02143 0.993008 0.972404
1.01975 0.995124 0.972464
0.999953 1.00176 0.993167
0.997406 0.996184 1.00455
1.02179 0.991774 0.972845
0.995459 0.998505 0.979031
0.99989 0.998471 0.984233
1.02177 0.989108 0.976704
1.0081 0.988955 0.993083
0.999945 1.00118 0.995849
1.02029 0.994776 0.972942
1.01605 0.990909 0.982749
0.998444 0.994054 1.00551
1.00155 0.991245 0.995573
0.998516 0.996864 0.988553
0.994523 1.00048 0.980778
1.00026 1.00015 0.996822
1.01516 0.99743 0.97858
1.00518 0.993061 0.990737
0.995913 0.999017 0.990446
0.994523 1.00349 0.977678
0.999054 0.994082 0.995575
0.999422 1.0052 0.990214
0.999043 1.00582 0.990203
0.99922 1.00575 0.989895
0.999761 1.00489 0.9901
0.999625 1.00539 0.989786
0.999949 1.0053 0.98935
0.999971 1.00459 0.99018
1.00005 1.00476 0.989737
1.0004 1.0039 0.989861
1.00024 1.00348 0.990632
1.00044 1.0031 0.990632
1.00051 1.00257 0.990969
1.00062 1.00165 0.991601
1.00043 1.0018 0.991946
1.00043 1.00228 0.991387
1.00018 1.00135 0.992667
1.00023 1.0017 0.992277
1.00035 1.00227 0.991445
1.00011 1.00124 0.993048
1.00014 1.00143 0.992816
1.00013 1.00152 0.99266
1.00004 1.00071 0.993666
1.00003 1.0013 0.993074
1.00006 1.0016 0.992823
1.00001 0.99949 0.994914
1.00011 1.00058 0.993657
1.00014 1.00119 0.993033
0.999911 0.997664 0.996939
1.00005 0.999491 0.994851
1.00014 1.00063 0.993543
1.00006 0.999508 0.994806
0.999935 0.997603 0.99693
0.999861 0.99645 0.999324
0.999967 0.997546 0.99693
0.999892 0.996361 0.999325
0.999922 0.996279 0.999326
1.00019 1.00138 0.992702
1.00016 1.0007 0.993445
1.00006 0.999429 0.994881
1.00013 1.00067 0.993516
0.99999 0.997409 0.99703
1.00007 0.999301 0.994998
1.00011 1.00062 0.993618
0.99995 0.996117 0.999362
1.00002 0.997255 0.997121
1.00008 0.999155 0.995115
0.999981 0.996008 0.999384
1.00004 0.997123 0.997198
1 0.995938 0.999399
1.01951 0.995547 0.973206
1.021 0.991991 0.974204
1.0194 0.99478 0.974525
1.00019 1.00143 0.992636
1.00022 1.00166 0.992381
1.00021 1.00159 0.992439
1.00022 1.00175 0.992254
1.00024 1.00182 0.992225
1.00017 1.00153 0.992536
1.00014 1.00217 0.992011
1.00019 1.00202 0.992102
1.00016 1.00239 0.991779
1.00018 1.00231 0.991862
1.01421 0.994087 0.982145
1.01976 0.990102 0.978211
1.02107 0.98918 0.976893
1.01346 0.988647 0.984243
1.0039 0.999847 0.980328
0.998766 0.996223 0.99491
0.994668 0.998237 0.981784
0.996814 0.99761 0.996226
0.994596 0.999199 0.981082
1.00124 0.997608 0.984789
1.00919 0.987967 0.990737
0.9954 1.00076 0.99541
0.994694 0.999742 0.980858
0.997817 0.998273 0.985742
1.00317 0.990581 0.99463
1.00004 1.0026 0.991799
1.00014 1.00282 0.991405
1.00015 1.00276 0.991482
0.999021 1.00247 0.995015
0.999907 1.00433 0.99012
1.00011 1.00366 0.990632
1.00023 1.00392 0.990134
1.00011 1.0044 0.989955
0.999987 1.00479 0.989402
0.997844 1.00561 0.995401
0.999749 1.00503 0.989606
0.998644 1.00551 0.993956
1.01504 1.00028 0.977725
1.01961 0.996879 0.971645
1.02136 0.992676 0.972494
0.999552 1.00113 0.995617
0.998546 0.994218 0.998275
1.02029 0.994944 0.972922
0.994664 1.00029 0.975196
0.997368 0.999059 0.986301
1.0163 0.990652 0.982923
1.00111 0.991293 0.996717
1.00039 1.0002 0.996855
1.01525 0.997092 0.9786
1.00437 0.992752 0.991578
0.99899 0.993475 0.999221
0.996732 0.998494 0.986474
0.994953 1.00359 0.973232
1.00083 0.999167 0.995406
1.00548 0.99636 0.988171
0.996522 0.999035 0.985105
0.994534 1.00402 0.975118
1.00009 0.996834 0.995502
0.999081 1.00582 0.990163
0.999199 1.00583 0.989916
0.999998 1.00521 0.989731
0.999598 1.00538 0.989824
0.999898 1.00529 0.989411
1.00063 1.00343 0.989826
1.00008 1.00479 0.989637
1.00041 1.00376 0.989903
1.00075 1.00197 0.991154
1.00045 1.00308 0.990564
1.00051 1.00244 0.991026
1.00077 1.00106 0.991895
1.00087 1.00057 0.992153
1.00056 1.00152 0.991832
1.00064 1.00156 0.991629
1.00032 1.00147 0.992403
1.00039 1.00184 0.991863
1.00042 1.00229 0.991345
1.00016 1.00109 0.993062
1.00018 1.00134 0.992722
1.00024 1.0017 0.992333
1.00002 1.00081 0.9936
1.00009 1.00124 0.993042
1.00012 1.00144 0.992785
0.999959 0.999583 0.994924
1.00005 1.0007 0.993666
1.00004 1.00129 0.993099
0.999863 0.997696 0.997424
1.00001 0.999493 0.994916
1.00012 1.00057 0.993661
0.999837 0.996526 0.99841
0.999902 0.997657 0.997173
1.00004 0.999488 0.994855
0.999936 0.997607 0.99693
0.999857 0.996444 0.999324
0.999888 0.99636 0.999324
1.00019 1.00135 0.992711
1.00016 1.00073 0.993409
1.00019 1.00139 0.992683
1.00005 0.999515 0.994803
1.00015 1.00071 0.993442
0.999959 0.997544 0.996953
1.00006 0.999429 0.994882
1.00014 1.00068 0.993512
0.999918 0.996241 0.999341
0.999987 0.997399 0.997035
1.00007 0.999302 0.995001
0.999955 0.996106 0.999367
1.00001 0.997244 0.997125
0.999985 0.996001 0.999389
1.01497 0.999813 0.976126
1.01943 0.995516 0.973219
1.02097 0.992305 0.973759
1.00021 1.00153 0.992549
1.00018 1.00144 0.992666
1.00022 1.00166 0.992348
1.00021 1.00176 0.992296
1.00021 1.0016 0.992473
1.00024 1.00178 0.992234
1.00023 1.00178 0.992221
1.00021 1.00196 0.992065
1.00019 1.00201 0.992105
1.00016 1.00234 0.991802
1.00018 1.00228 0.991855
1.00025 1.00227 0.991881
1.00388 0.993648 0.993394
1.01431 0.99397 0.982317
1.01987 0.990082 0.977877
1.00804 0.990804 0.99061
1.00074 0.996359 0.983693
0.996047 0.998309 0.976944
0.996029 0.997625 1.00456
0.995251 1.00077 1.00186
1.00208 0.991633 0.995154
0.995214 0.999352 0.976682
0.998275 0.997799 0.989348
0.996088 1.00088 1.00021
0.994781 1.00214 0.978482
0.995635 0.998521 0.991329
0.999925 1.00243 0.992254
1.0001 1.0025 0.99181
1.00014 1.00278 0.991482
0.997778 1.00538 0.995396
0.999917 1.00484 0.989391
1.00006 1.00446 0.989989
0.9998 1.0051 0.989663
0.998674 1.00542 0.993896
0.999322 1.00303 0.993516
1.00579 0.9963 0.989875
1.01477 1.00041 0.976138
1.0195 0.996245 0.97163
1.0005 1.00026 0.996889
0.999176 0.994608 1.0012
1.01536 0.996799 0.978621
0.994639 1.00207 0.981813
0.99729 0.997783 0.990812
1.00431 0.99294 0.99126
1.00111 0.999079 0.995627
1.00532 0.996471 0.987836
0.996551 0.998963 0.989193
1.00032 0.996707 0.991528
0.994883 1.00369 0.976498
1.0029 0.998559 0.990313
0.997346 0.99776 0.988106
0.995214 1.00421 0.977043
1.00022 0.998371 0.99094
0.999193 1.00592 0.989938
0.99977 1.0052 0.989669
1.00073 1.00226 0.990723
0.999851 1.00529 0.989471
1.00067 1.00321 0.989868
1.00144 0.999629 0.992192
1.00041 1.00361 0.989945
1.00075 1.0017 0.991239
1.00109 0.99941 0.992921
1.00051 1.00231 0.991082
1.00079 1.00092 0.991928
1.00106 0.999426 0.992895
1.00093 0.999767 0.992831
1.00078 1.00079 0.99216
1.00086 1.00051 0.99221
1.00044 1.00127 0.992217
1.00055 1.00149 0.991896
1.00065 1.00146 0.991657
1.00021 1.00112 0.992935
1.00029 1.00147 0.992394
1.00036 1.00189 0.99178
1.00005 1.00081 0.99356
1.00017 1.00109 0.993057
1.00018 1.00133 0.992777
0.999915 0.999754 0.994846
1.00003 1.00079 0.993604
1.00007 1.00124 0.993037
0.99982 0.997777 0.99698
0.999961 0.999594 0.994922
1.00006 1.00069 0.993665
0.999771 0.996576 0.999335
0.999866 0.997693 0.996974
1.00001 0.999497 0.994917
0.999822 0.996529 0.999325
0.999903 0.997653 0.996948
0.999852 0.996438 0.999324
1.00017 1.00135 0.992853
1.00018 1.00136 0.992732
1.00014 1.00078 0.993394
1.00004 0.999584 0.994759
1.00015 1.00074 0.993406
1.00019 1.0014 0.992663
0.999931 0.997645 0.996904
1.00006 0.99951 0.994804
1.00015 1.00071 0.993439
0.999883 0.996367 0.999324
0.999957 0.997534 0.996956
1.00006 0.999427 0.994883
0.999922 0.996229 0.999347
0.999984 0.997389 0.997039
0.999959 0.996094 0.999373
1.00545 0.995115 0.991316
1.01499 0.999862 0.97615
1.01934 0.995489 0.973232
1.00021 1.00154 0.99252
1.00018 1.00151 0.992654
1.00025 1.00161 0.992369
1.00021 1.00178 0.992337
1.00021 1.00161 0.992506
1.00024 1.00174 0.992242
1.00022 1.00195 0.992085
1.00024 1.00177 0.992241
1.00016 1.00211 0.992048
1.00023 1.00196 0.992141
1.00018 1.00226 0.991849
1.00021 1.00225 0.991881
0.99588 0.998154 0.990772
1.00327 0.993547 0.994339
1.01441 0.993853 0.982489
1.00108 0.992667 0.995678
0.998036 0.998534 0.985987
0.994871 0.999755 0.983981
0.995115 1.00093 0.995627
0.996138 1.00115 0.994132
0.996069 0.998401 0.987078
0.995138 1.00171 0.980243
0.997552 0.999881 0.9924
0.994914 1.00238 0.977491
0.999756 1.00383 0.991837
0.999962 1.00224 0.99228
1.00017 1.0024 0.991822
0.998672 1.00524 0.993842
0.999849 1.00514 0.989721
0.999882 1.00273 0.993624
1.00064 1.00053 0.994002
0.998504 0.996885 0.986942
1.00572 0.996598 0.988727
1.0145 1.00046 0.97455
1.00131 0.998974 0.99583
1.00004 0.996656 0.998381
1.00562 0.996047 0.987639
0.994916 1.00384 0.975393
0.996541 0.999815 0.985376
1.00272 0.998717 0.991404
0.997823 0.998386 0.985876
0.994888 1.00385 0.97542
1.00022 0.998575 0.99599
1.00331 0.997797 0.98952
0.99518 1.00346 0.972662
1.00011 0.999437 0.996678
0.999516 1.00519 0.989606
1.00059 1.00257 0.990664
1.00195 0.997465 0.992973
1.00071 1.00301 0.98991
1.00141 0.999343 0.992217
1.00172 0.996532 0.994596
1.00075 1.00146 0.991325
1.00112 0.999223 0.992936
1.00138 0.997667 0.993992
1.00081 1.00078 0.991961
1.00106 0.999406 0.992889
1.00109 0.998819 0.993392
1.00095 0.999476 0.993107
1.00093 0.9997 0.992894
1.00084 1.0001 0.992704
1.00068 1.00078 0.992354
1.00076 1.00081 0.992172
1.00085 1.00045 0.992268
1.00034 1.00103 0.992665
1.00045 1.00129 0.992278
1.00054 1.00147 0.99196
1.00007 1.00084 0.993472
1.00022 1.00112 0.992929
1.00025 1.00148 0.992385
0.99989 0.999929 0.994725
1.00006 1.00079 0.993564
1.00017 1.0011 0.993052
0.999764 0.997924 0.996944
0.999918 0.999758 0.994847
1.00004 1.00078 0.993609
0.999731 0.996715 0.999333
0.999821 0.997788 0.996979
0.999963 0.999605 0.99492
0.999778 0.996584 0.998878
0.999867 0.997703 0.996974
0.999813 0.996509 0.999327
1.00014 1.00133 0.992904
1.00017 1.00134 0.992797
1.00011 1.00084 0.993386
1.00018 1.00137 0.992753
1.00014 1.00079 0.993392
1.00002 0.99966 0.994729
0.999901 0.997725 0.996881
1.00005 0.999575 0.994759
1.00015 1.00075 0.993404
0.999847 0.996472 0.999315
0.99993 0.997637 0.996906
1.00006 0.999506 0.994805
0.999887 0.996358 0.999329
0.999955 0.997525 0.996959
0.999927 0.996215 0.999353
0.997712 0.998026 0.985175
1.00518 0.995246 0.991604
1.01498 0.999911 0.976175
1.00022 1.00154 0.992491
1.00024 1.00162 0.99237
1.00017 1.0015 0.992674
1.00014 1.00153 0.992715
1.00019 1.00168 0.992432
1.00023 1.00194 0.992106
1.00024 1.00175 0.992262
1.00016 1.00209 0.992051
1.0001 1.00181 0.992334
1.00012 1.00221 0.99198
1.00007 1.00228 0.992323
1.0002 1.00208 0.992052
1.00017 1.00222 0.99188
0.995533 1.00245 0.973103
0.996392 0.998943 0.988447
1.00331 0.993774 0.993865
0.996136 0.997979 0.991341
0.99477 1.00261 0.972745
0.996241 1.00101 1.00011
0.998096 0.99994 0.995089
0.994959 1.00162 0.978761
1.00021 0.998195 0.993437
1.00048 1.00398 0.98982
0.999656 1.00365 0.991717
0.999999 1.00204 0.992306
1.00043 1.00242 0.993722
1.00059 0.999028 0.99459
0.99567 1.00123 0.976335
0.998454 0.997363 0.984267
1.00565 0.996985 0.987579
1.00252 0.99884 0.992513
1.0004 0.99877 0.990927
0.997928 0.998146 0.984569
0.99507 1.00424 0.976825
1.00332 0.998094 0.989429
0.99537 1.00314 0.976862
1.00015 0.999278 0.991164
1.00379 0.995702 0.990786
0.999193 1.00174 0.995929
1.00047 1.0029 0.990603
1.00191 0.997659 0.992963
1.00238 0.995057 0.994684
1.00136 0.999041 0.992242
1.00162 0.99652 0.994558
1.00169 0.996073 0.994901
1.00116 0.999007 0.992951
1.00136 0.997729 0.993933
1.0013 0.997954 0.99384
1.00106 0.99939 0.992884
1.0011 0.998884 0.993351
1.00105 0.999104 0.993223
1.00093 0.999415 0.993172
1.0009 0.999831 0.99287
1.00093 0.999631 0.992957
1.00085 1.00009 0.992692
1.00079 1.00031 0.992591
1.00053 1.00074 0.992581
1.00067 1.00081 0.99234
1.00074 1.00084 0.992185
1.00017 1.00083 0.993295
1.00033 1.00105 0.992703
1.00045 1.00131 0.992339
0.999872 1.00014 0.994555
1.00008 1.00083 0.993472
1.00022 1.00112 0.992923
0.999709 0.998109 0.996868
0.999899 0.999918 0.994727
1.00007 1.00077 0.993568
0.999668 0.996852 0.999328
0.999767 0.997938 0.99694
0.999921 0.999762 0.994847
0.999719 0.996704 0.999332
0.999822 0.997799 0.996978
0.999765 0.996585 0.999332
1.0001 1.00139 0.992867
1.00013 1.00133 0.992907
1.00007 1.00093 0.993313
1.00017 1.00134 0.992742
1.00011 1.00086 0.993344
0.999989 0.999771 0.994692
1.00013 1.00079 0.99339
1.00003 0.99965 0.994729
0.999869 0.997805 0.996866
0.999809 0.996562 0.999311
0.999902 0.997714 0.996882
1.00005 0.999566 0.99476
0.999851 0.996474 0.999317
0.999929 0.997628 0.996907
0.999891 0.99635 0.999334
0.995532 1.00284 0.977937
0.997767 0.997835 0.987878
1.00543 0.994976 0.991932
1.00023 1.00163 0.992371
1.00016 1.00149 0.992694
1.00019 1.00168 0.992445
1.00014 1.00152 0.99272
1.00009 1.00166 0.992694
1.00011 1.00167 0.992536
1.00015 1.00207 0.992054
1.00012 1.00185 0.992333
1.00007 1.00227 0.992026
1.00007 1.0018 0.992366
1.00038 1.00206 0.992228
1.00066 1.00286 0.990359
1.00008 1.00212 0.992233
1.00016 1.00219 0.991964
0.999721 0.999635 0.996674
0.994762 1.0028 0.977502
0.996218 0.998599 0.986015
0.994756 1.00252 0.977116
0.998307 0.999349 0.998534
1.00016 0.998459 0.996265
1.00326 0.999096 0.989859
1.00035 1.00326 0.990062
0.99954 1.00349 0.991596
1.00053 0.997632 0.99518
0.997749 1.00272 0.990667
0.995775 1.00227 0.978218
0.99835 0.996648 0.987689
1.0033 0.998417 0.98934
1.00027 0.999256 0.996211
0.995257 1.00289 0.98122
1.00355 0.995924 0.990742
0.999234 1.00137 0.993799
1.00301 0.9954 0.992885
1.00114 1.00141 0.992121
1.00184 0.997816 0.992953
1.00235 0.995028 0.994701
1.00186 0.996406 0.994366
1.00154 0.996539 0.994521
1.00165 0.996294 0.994838
1.00151 0.997731 0.993655
1.00134 0.997814 0.993875
1.00127 0.998093 0.993788
1.00125 0.998956 0.993004
1.00111 0.998951 0.99331
1.00102 0.999166 0.993236
1.00096 0.999769 0.992751
1.00091 0.999361 0.993237
1.00089 0.999762 0.992916
1.00085 1.00015 0.992648
1.00086 1.00009 0.992681
1.00079 1.00032 0.992579
1.00068 1.00043 0.992699
1.00032 1.00066 0.993063
1.00052 1.00077 0.992617
1.00066 1.00083 0.992325
0.999886 1.00035 0.994318
1.00017 1.00083 0.993297
1.00033 1.00108 0.992741
0.999648 0.99833 0.99676
0.999889 1.00011 0.994556
1.00009 1.00082 0.993472
0.9996 0.997032 0.999313
0.999712 0.998125 0.996863
0.999907 0.999907 0.99473
0.999655 0.99685 0.999324
0.99977 0.997952 0.996937
0.999708 0.996694 0.999331
1.00008 1.00146 0.992868
1.00011 1.00139 0.992909
1.00002 1.00106 0.993296
1.00013 1.00134 0.99291
1.00006 1.00096 0.993311
0.999944 0.999924 0.994631
1.0001 1.00088 0.993302
0.999989 0.999763 0.994691
0.999828 0.997915 0.996841
1.00003 0.99964 0.994728
0.99987 0.997793 0.996867
0.999765 0.996653 0.999307
0.999815 0.996572 0.999312
0.999902 0.997704 0.996883
0.999856 0.996475 0.99932
0.998848 1.00012 0.995583
0.995214 1.00222 0.976233
0.99753 0.998258 0.984721
1.00016 1.00164 0.992583
1.00019 1.00168 0.992459
1.00013 1.00152 0.992724
1.00013 1.0017 0.992537
1.00007 1.00168 0.992683
1.00003 1.00159 0.992746
1.00014 1.0019 0.992331
1.00002 1.00234 0.992072
1.00012 1.00184 0.99239
1.00018 1.00199 0.992402
1.0006 1.00194 0.991389
1.00208 1.00171 0.988625
1.00055 1.00275 0.99056
1.00009 1.00197 0.992144
1.00349 0.997465 0.989275
0.99956 0.999642 0.994329
0.994847 1.0024 0.981646
1.00019 0.998794 0.991041
1.00325 0.99987 0.988273
1.00025 1.00243 0.990309
1.00089 1.00106 0.994648
0.997781 1.0028 0.995836
0.99562 1.0011 0.976204
1.00339 0.996178 0.990694
0.999247 1.00087 0.991471
1.00282 0.995674 0.992655
1.00116 1.00104 0.992519
1.00182 0.998265 0.991922
1.00094 1.0005 0.991151
1.00233 0.994999 0.994718
1.00183 0.996451 0.994358
1.00145 0.998827 0.992832
1.00161 0.996517 0.994776
1.0015 0.997866 0.993623
1.00142 0.999132 0.992509
1.00126 0.998233 0.993736
1.0012 0.999011 0.993062
1.00114 0.999831 0.992319
1.00099 0.999224 0.993248
1.00096 0.999775 0.992753
1.00091 1.00016 0.992479
1.00088 0.999692 0.992962
1.00085 1.00009 0.992667
1.00075 1.00031 0.992636
1.00079 1.00032 0.992567
1.00068 1.00043 0.992665
1.00048 1.00048 0.993024
0.999952 1.00046 0.994079
1.00031 1.00068 0.993108
1.00051 1.00079 0.992654
0.999592 0.998587 0.996603
0.999906 1.00031 0.994319
1.00017 1.00083 0.9933
0.999528 0.997243 0.999291
0.999653 0.998352 0.996753
0.999906 1.00009 0.994556
0.999586 0.997036 0.999307
0.999715 0.998141 0.996858
0.999643 0.996849 0.99932
1.00011 1.00146 0.992761
1.00008 1.00145 0.99287
1.00001 1.00115 0.993303
1.00012 1.00138 0.992951
1.00002 1.00108 0.993324
0.999898 1.00012 0.994533
1.00005 1.00098 0.99331
0.999942 0.999921 0.994629
0.999775 0.998074 0.996794
0.99999 0.999754 0.99469
0.999829 0.997901 0.996843
0.99971 0.996771 0.9993
0.999872 0.99778 0.996868
0.999773 0.996666 0.999308
0.99982 0.996582 0.999313
1.00227 0.996885 0.992729
0.99878 1.00074 0.991357
0.995603 1.00211 0.978016
1.00013 1.00147 0.992667
1.00044 1.00146 0.992222
1.00008 1.00165 0.992603
1.00014 1.00171 0.992538
1.00006 1.0017 0.992671
1.00007 1.00161 0.992729
1.00067 1.00151 0.991622
1.00017 1.00188 0.992415
0.999972 1.00191 0.992575
1.00057 1.00195 0.991345
1.0017 1.0013 0.989625
1.0024 0.998934 0.990784
1.00207 1.00158 0.988829
1.00043 1.00266 0.990762
1.00348 0.99751 0.989375
0.999373 0.999982 0.991868
1.00329 1.0007 0.986681
1.00056 0.999719 0.993369
1.00081 1.00056 0.994697
0.997815 1.00227 0.990766
1.0026 0.995935 0.992423
1.00121 1.00065 0.992912
1.00189 0.998292 0.992018
1.00106 1.0006 0.991431
1.00133 1.00028 0.991561
1.00081 1.00025 0.992796
1.0018 0.996455 0.994349
1.00142 0.998758 0.992887
1.00143 0.999839 0.991805
1.00148 0.99796 0.993592
1.00139 0.999171 0.992512
1.00132 0.999856 0.991889
1.00114 0.999058 0.993121
1.00114 0.999834 0.99232
1.00106 1.00021 0.992103
1.00095 0.999781 0.992755
1.00091 1.00015 0.992478
1.00082 1.00035 0.992471
1.00084 1.00003 0.992686
1.00075 1.00029 0.992637
1.00056 1.00039 0.992944
1.00067 1.00042 0.992631
1.00046 1.00047 0.993004
1.00004 1.00045 0.993906
0.999564 0.998841 0.996428
0.999968 1.00042 0.994083
1.0003 1.0007 0.993152
0.999458 0.997476 0.999259
0.999599 0.998614 0.996594
0.999925 1.00028 0.99432
0.999515 0.997249 0.999282
0.999658 0.998373 0.996746
0.999573 0.997038 0.999301
1.00021 1.00145 0.992459
1.00011 1.00145 0.992722
1.00007 1.00114 0.993211
1.00008 1.00143 0.992873
1.00001 1.00115 0.9933
0.999865 1.00032 0.994401
1.00001 1.00109 0.993351
0.999891 1.00013 0.994532
0.999708 0.998287 0.996721
0.99994 0.999919 0.994628
0.999774 0.998059 0.996797
0.99964 0.996931 0.999288
0.99983 0.997887 0.996845
0.999721 0.99678 0.999302
0.999781 0.99668 0.999309
1.00163 0.998117 0.993234
1.00232 0.997336 0.993351
0.998658 1.00141 0.997237
1.00074 1.00122 0.991965
1.00007 1.00146 0.992816
1.00072 1.00124 0.991506
1.00044 1.00147 0.992191
1.00001 1.00167 0.992623
1.00157 1.0009 0.990444
1.00011 1.00163 0.992713
1.00068 1.00144 0.99166
1.00224 0.999273 0.990509
1.00054 1.00197 0.9913
1.00186 1.00128 0.989403
1.00245 0.998848 0.990702
1.00206 1.00142 0.989033
1.00342 0.997578 0.989476
1.00074 0.999495 0.993635
1.00049 0.999553 0.99341
1.00072 1.00006 0.99475
1.00195 0.998336 0.992114
1.00117 1.0007 0.99171
1.00143 1.00016 0.991515
1.00082 1.00017 0.992816
1.00092 1.0002 0.992464
1.00138 0.998728 0.992942
1.00144 0.999745 0.991856
1.00134 1.00009 0.991706
1.00136 0.999217 0.992515
1.00132 0.999909 0.991861
1.00124 1.00023 0.991744
1.00114 0.999838 0.99232
1.00107 1.00021 0.992095
1.00094 1.00039 0.992173
1.00091 1.00015 0.992476
1.00082 1.00035 0.992469
1.00063 1.00041 0.992777
1.00075 1.00027 0.992637
1.00056 1.00039 0.992945
1.00011 1.00042 0.993782
1.00044 1.00047 0.992985
1.00005 1.00042 0.993912
0.999542 0.999072 0.996781
0.999408 0.997763 0.998113
0.999567 0.998864 0.996681
0.999983 1.00038 0.994087
0.999448 0.997485 0.999246
0.999605 0.998641 0.996585
0.999502 0.997255 0.999274
1.00096 1.00078 0.991655
1.00038 1.00141 0.992131
1.00025 1.00144 0.992417
1.00014 1.00112 0.993076
1.00011 1.00143 0.992683
1.00006 1.00114 0.993212
0.999856 1.00048 0.994263
0.999996 1.00116 0.993297
0.999852 1.00034 0.9944
0.999632 0.998539 0.996626
0.999884 1.00013 0.99453
0.999705 0.998271 0.996725
0.999556 0.997138 0.999269
0.999774 0.998043 0.9968
0.999655 0.996933 0.999292
0.999733 0.996791 0.999305
1.00161 0.998704 0.992548
1.00158 0.998148 0.993068
1.00237 0.997847 0.993972
1.00143 1.00072 0.990883
1.00062 1.00122 0.99214
1.00001 1.00144 0.992965
1.00083 1.00118 0.991594
1.00043 1.00147 0.99216
1.00204 0.999881 0.990405
1.00159 1.00094 0.990347
1.00069 1.00137 0.991698
1.00231 0.999272 0.990454
1.00203 1.00125 0.989181
1.0025 0.998765 0.990619
1.00048 0.999922 0.993398
1.00068 0.999564 0.993602
1.00042 0.999385 0.993449
1.00155 1.00005 0.991469
1.00082 1.0001 0.992835
1.00094 1.00017 0.992456
1.00085 1.00035 0.992395
1.00144 0.999643 0.991908
1.00139 1.00003 0.991661
1.00125 1.00011 0.991828
1.00133 0.999959 0.991833
1.00124 1.00023 0.991736
1.00108 1.00041 0.99187
1.00108 1.00021 0.992088
1.00095 1.00039 0.992166
1.00073 1.00045 0.992533
1.00082 1.00034 0.992467
1.00063 1.0004 0.992774
1.00018 1.00042 0.993634
1.00055 1.00038 0.992946
1.00011 1.0004 0.993787
0.999518 0.99933 0.996598
1.00005 1.00039 0.993917
0.999546 0.9991 0.996753
0.999338 0.998056 0.99797
0.999397 0.997739 0.998657
0.999571 0.998888 0.996932
0.999438 0.997494 0.999234
1.00143 1.00046 0.991089
1.0007 1.00107 0.992079
1.00089 1.00068 0.991919
1.00025 1.00116 0.992808
1.00043 1.00143 0.992137
1.00029 1.00143 0.992376
1.00013 1.00113 0.993079
0.99986 1.00064 0.994104
1.00005 1.00114 0.993214
0.999838 1.00051 0.994261
0.999556 0.998804 0.996521
0.99984 1.00035 0.994399
0.999628 0.998521 0.996631
0.999462 0.997382 0.999247
0.999703 0.998254 0.996729
0.999574 0.99713 0.999275
0.999671 0.996935 0.999296
1.00143 0.999582 0.992014
1.00158 0.998705 0.99256
1.00153 0.998172 0.992902
1.00182 0.999927 0.990665
1.00143 1.00071 0.990896
1.0005 1.00122 0.992315
1.00094 1.00112 0.991681
1.00208 0.999892 0.990395
1.0016 1.00098 0.990251
1.00239 0.999272 0.990398
1.00058 1.0003 0.992937
1.00059 0.999984 0.993222
1.00064 0.99963 0.99357
1.00073 1.00067 0.992354
1.00096 1.00015 0.992449
1.00086 1.00037 0.992371
1.00098 1.00029 0.992211
1.00143 0.999975 0.991616
1.00124 1.00011 0.991833
1.0011 1.00039 0.991848
1.00124 1.00023 0.991728
1.00108 1.00041 0.99187
1.00083 1.00048 0.992297
1.00095 1.00039 0.99216
1.00073 1.00045 0.992529
1.00026 1.00046 0.993437
1.00064 1.0004 0.992772
1.00018 1.00042 0.993635
0.999487 0.999591 0.996411
1.00012 1.00039 0.993792
0.999524 0.99934 0.996569
0.999251 0.998397 0.997835
0.99955 0.999126 0.996725
0.999334 0.998027 0.997991
0.999385 0.997714 0.999206
1.00175 1.00019 0.990799
1.00119 1.0006 0.991477
1.00138 1.00051 0.99119
1.0005 1.001 0.992607
1.00069 1.00104 0.992057
1.00083 1.00058 0.992182
0.999919 1.00079 0.993831
1.00025 1.00117 0.992808
1.00047 1.00145 0.992143
1.00012 1.00113 0.993081
0.99984 1.00067 0.994102
0.999493 0.999085 0.996373
0.99982 1.00054 0.99426
0.999548 0.998787 0.996525
0.999363 0.997648 0.999221
0.999623 0.998503 0.996636
0.999482 0.997367 0.999254
0.999593 0.997122 0.999281
1.00141 0.999861 0.991771
1.00152 0.999548 0.991894
1.00155 0.998705 0.992571
1.00195 0.999878 0.990563
1.00143 1.0007 0.990909
1.00212 0.999901 0.990385
1.00065 1.00071 0.992407
1.00054 1.00038 0.992974
1.0007 1.00005 0.993046
1.00074 1.0007 0.992306
1.00077 1.00083 0.992106
1.00086 1.00039 0.992346
1.00097 1.00029 0.99221
1.00098 1.00042 0.992146
1.00124 1.00012 0.991839
1.0011 1.00038 0.991862
1.00085 1.00054 0.992199
1.00108 1.00041 0.99187
1.00083 1.00048 0.992294
1.00033 1.00049 0.993255
1.00074 1.00045 0.992525
1.00026 1.00046 0.993435
0.999451 0.999841 0.996217
1.00018 1.00042 0.993635
0.9995 0.999591 0.996381
0.99914 0.998781 0.997699
0.999532 0.99935 0.99654
0.999249 0.99836 0.997857
0.999329 0.998 0.998012
1.0016 0.99961 0.991685
1.00152 1.00033 0.991061
1.00178 1.00015 0.990764
1.00086 1.00068 0.992116
1.00118 1.00062 0.991532
1.00133 1.00055 0.991292
1.00008 1.00076 0.993502
1.00049 1.00099 0.9925
1.00068 1.00102 0.992034
0.999479 0.999386 0.996104
0.999901 1.00081 0.993831
1.00024 1.00118 0.992807
0.999819 1.0007 0.9941
0.999478 0.999072 0.996378
0.999271 0.997939 0.999181
0.999541 0.99877 0.99653
0.999384 0.997628 0.999229
0.999503 0.997351 0.999261
1.00111 1.00057 0.991678
1.00145 0.99984 0.991722
1.00161 0.999512 0.991773
1.00207 0.999833 0.99046
1.00075 1.00094 0.991994
1.00064 1.00072 0.992452
1.00049 1.00045 0.993011
1.00074 1.00073 0.992259
1.00076 1.00082 0.992132
1.00073 1.00076 0.992238
1.00097 1.00029 0.992208
1.00096 1.00042 0.992151
1.00079 1.00057 0.992295
1.00109 1.00037 0.991875
1.00085 1.00053 0.992208
1.00035 1.00058 0.993129
1.00083 1.00048 0.992291
1.00033 1.0005 0.993251
0.99943 1.0001 0.995391
1.00026 1.00046 0.993434
0.999474 0.999865 0.995851
0.999009 0.999015 0.998977
0.999512 0.999592 0.996351
0.999138 0.998746 0.997721
0.999245 0.998321 0.997879
1.00132 1.00017 0.991714
1.00149 0.999882 0.991566
1.00154 0.999669 0.991667
1.0011 1.00044 0.991622
1.0015 1.0003 0.991165
1.00181 1.00011 0.990729
1.00032 1.00059 0.993002
1.00086 1.00069 0.992111
1.00116 1.00065 0.991588
0.999535 0.999627 0.995735
1.00007 1.00077 0.993409
1.00048 1.00098 0.992394
0.999204 0.998266 0.999106
0.999452 0.999381 0.996115
0.999882 1.00084 0.99383
0.999464 0.999058 0.996384
0.999287 0.997914 0.999194
0.999404 0.997609 0.999237
1.00088 1.00083 0.991836
1.00106 1.00052 0.991786
1.00148 0.999819 0.991674
1.00075 1.00092 0.992033
1.00076 1.00096 0.99199
1.00063 1.00073 0.992497
1.00074 1.00082 0.992158
1.00074 1.00074 0.992243
1.00059 1.00078 0.992541
1.00094 1.00042 0.992155
1.00077 1.00059 0.992357
1.00032 1.00068 0.993017
1.00084 1.00053 0.992218
1.00035 1.00058 0.993134
0.999378 1.0003 0.995294
1.00033 1.0005 0.993248
0.99945 1.00008 0.995386
0.998919 0.999302 0.998954
0.999495 0.999887 0.995488
0.999 0.999087 0.998291
0.999135 0.998709 0.997743
1.0011 1.00062 0.991755
1.00126 1.00008 0.991839
1.00129 1.00015 0.991703
1.00115 1.00024 0.991854
1.00145 0.9999 0.991602
1.00149 0.999727 0.991649
1.00054 1.00046 0.99267
1.00113 1.00046 0.991731
1.00148 1.00027 0.991269
0.999617 0.999781 0.995388
1.00035 1.0006 0.992954
1.00086 1.00069 0.992107
0.999158 0.998607 0.999012
0.999501 0.999639 0.995747
1.00007 1.00078 0.993315
0.99921 0.998233 0.99913
0.999425 0.999376 0.996126
0.999304 0.997889 0.999207
1.00083 1.00083 0.991938
1.00091 1.00081 0.991826
1.00102 1.00048 0.991894
1.00065 1.0009 0.992308
1.00076 1.00094 0.99203
1.00077 1.00098 0.991986
1.00075 1.00072 0.992248
1.0006 1.00076 0.992545
1.00022 1.00081 0.993049
1.00076 1.0006 0.992419
1.00031 1.00068 0.993063
0.999318 1.00052 0.995206
1.00034 1.00058 0.993138
0.999394 1.00028 0.995292
0.998794 0.999597 0.998931
0.999471 1.00006 0.995382
0.998888 0.999337 0.998947
0.998994 0.999162 0.997598
1.00103 1.00055 0.991926
1.00109 1.00062 0.991695
1.00101 1.00032 0.992078
1.00125 1.00007 0.991851
1.00127 1.00013 0.991691
1.00061 1.00039 0.992771
1.00117 1.00024 0.991841
1.00141 0.999917 0.991639
0.999659 0.999895 0.995158
1.00056 1.00047 0.99272
1.00115 1.00047 0.99184
0.99911 0.998926 0.998933
0.999584 0.999805 0.995398
1.00037 1.0006 0.992905
0.99916 0.99857 0.999041
0.999467 0.999653 0.995759
0.999218 0.998199 0.999155
1.00072 1.00082 0.992244
1.00084 1.00082 0.991949
1.00094 1.00079 0.991816
1.00027 1.00089 0.992886
1.00064 1.00091 0.992309
1.00076 1.00096 0.992027
1.0006 1.00074 0.992549
1.00023 1.00081 0.993058
0.999262 1.00071 0.995133
1.00031 1.00069 0.993108
0.999326 1.0005 0.995208
0.998686 0.999854 0.998907
0.99941 1.00026 0.99529
0.998769 0.999627 0.998923
0.998859 0.999372 0.99894
1.00084 1.00062 0.992169
1.00103 1.00054 0.991891
1.00109 1.00062 0.991635
1.00051 1.00048 0.992882
1.00101 1.00032 0.992078
1.00124 1.00007 0.991863
0.999619 1.00001 0.995097
1.00062 1.00039 0.992763
1.00118 1.00024 0.991827
0.99904 0.999206 0.998887
0.999636 0.999917 0.995165
1.00058 1.00047 0.992769
0.999116 0.998892 0.998955
0.999551 0.999829 0.995408
0.999163 0.998532 0.999069
1.00032 1.00084 0.992932
1.00072 1.00083 0.992193
1.00085 1.00081 0.991961
0.999258 1.0008 0.99505
1.00026 1.00089 0.992907
1.00064 1.00091 0.99231
1.00023 1.0008 0.993066
0.999268 1.0007 0.995132
0.998599 1.00005 0.998884
0.999334 1.00049 0.995209
0.998664 0.99988 0.998899
0.998743 0.999656 0.998915
1.00038 1.0007 0.992944
1.00084 1.00062 0.992153
1.00104 1.00053 0.991856
0.999499 1.00014 0.995868
1.00052 1.00049 0.992876
1.00102 1.00032 0.992077
0.998922 0.999453 0.998881
0.999611 1.00003 0.995094
1.00063 1.0004 0.992755
0.999055 0.999178 0.998899
0.999613 0.999939 0.995171
0.999122 0.998858 0.998978
0.999308 1.00073 0.994999
1.00032 1.00085 0.992885
1.00071 1.00084 0.992143
0.99856 1.00016 0.998863
0.999265 1.00079 0.995045
1.00025 1.0009 0.992929
0.999276 1.00069 0.995131
0.99859 1.00007 0.998877
0.998644 0.999905 0.998891
0.999374 1.0004 0.995835
1.00039 1.0007 0.99294
1.00083 1.00061 0.992137
0.99879 0.999672 0.998904
0.999506 1.00023 0.995126
1.00053 1.0005 0.992871
0.998953 0.999429 0.99888
0.999603 1.00004 0.995092
0.999069 0.99915 0.998911
0.998593 1.00036 0.997297
0.999314 1.00067 0.995403
1.00032 1.00085 0.992839
0.998569 1.00016 0.998856
0.999269 1.00079 0.995041
0.998576 1.00009 0.998872
0.998663 1.00009 0.997386
0.999386 1.00047 0.995473
1.00039 1.0007 0.992937
0.998807 0.99976 0.998144
0.999494 1.00025 0.995117
0.998986 0.999406 0.99888
0.998599 1.00011 0.998845
0.999307 1.00074 0.995019
0.998578 1.00016 0.998848
0.998659 1.00005 0.998118
0.999372 1.00053 0.995091
0.99885 0.999653 0.998883
0.998621 1.00008 0.998856
0.99871 0.999895 0.998881

TENSORS stress float
0.00118446 2.51364e-05 1.47121e-05
2.51364e-05 0.000157389 -4.51383e-06
1.47121e-05 -4.51383e-06 0.000155259
0.00254711 -3.1699e-05 1.23937e-05
-3.1699e-05 0.000809971 2.9418e-06
1.23937e-05 2.9418e-06 0.000821365
0.00116565 2.61769e-05 5.40033e-06
2.61769e-05 0.00014827 -1.75511e-06
5.40033e-06 -1.75511e-06 0.000146454
0.00125187 2.51572e-05 1.80173e-05
2.51572e-05 0.000223428 -3.35153e-06
1.80173e-05 -3.35153e-06 0.000210394
0.00121528 2.5708e-05 1.57597e-05
2.5708e-05 0.000182365 -4.20306e-06
1.57597e-05 -4.20306e-06 0.00017664
0.00115559 2.43134e-05 1.36948e-05
2.43134e-05 0.000135262 -4.71824e-06
1.36948e-05 -4.71824e-06 0.000136443
0.00115095 2.24794e-05 4.7518e-06
2.24794e-05 0.000128906 -1.89388e-06
4.7518e-06 -1.89388e-06 0.000108037
0.00259701 -3.19673e-05 1.82982e-07
-3.19673e-05 0.000833239 -9.20082e-08
1.82982e-07 -9.20082e-08 0.00084473
0.00284441 -3.92204e-05 6.11824e-06
-3.92204e-05 0.000983707 9.60699e-07
6.11824e-06 9.60699e-07 0.000987713
0.00263781 -3.54436e-05 5.54682e-06
-3.54436e-05 0.000861874 1.105e-06
5.54682e-06 1.105e-06 0.000871372
0.00110385 -2.26319e-05 1.03732e-05
-2.26319e-05 9.19701e-05 3.07194e-06
1.03732e-05 3.07194e-06 9.88546e-05
0.0008769 -1.95883e-05 4.79499e-06
-1.95883e-05 -1.78849e-05 2.40057e-06
4.79499e-06 2.40057e-06 -3.26771e-05
0.00127182 -1.99113e-05 1.83027e-05
-1.99113e-05 0.000276072 6.11576e-07
1.83027e-05 6.11576e-07 0.000255994
0.00119272 -2.73202e-05 4.9294e-06
-2.73202e-05 0.000215276 5.44378e-07
4.9294e-06 5.44378e-07 0.000200021
0.00114625 2.7284e-05 -4.1162e-06
2.7284e-05 0.000138953 1.0201e-06
-4.1162e-06 1.0201e-06 0.000137439
0.00124385 2.67063e-05 6.70642e-06
2.67063e-05 0.000219932 -1.34445e-06
6.70642e-06 -1.34445e-06 0.000207079
0.00114077 2.53177e-05 5.04631e-06
2.53177e-05 0.000128008 -1.79468e-06
5.04631e-06 -1.79468e-06 0.000129461
0.00119388 2.68451e-05 5.77701e-06
2.68451e-05 0.000171891 -1.652e-06
5.77701e-06 -1.652e-06 0.000166501
0.00118001 2.23492e-05 -1.74569e-06
2.23492e-05 0.000143365 2.68873e-07
-1.74569e-06 2.68873e-07 0.000122454
0.00319317 4.1961e-05 1.88251e-05
4.1961e-05 0.00121151 -7.72671e-07
1.88251e-05 -7.72671e-07 0.00120446
0.00128153 2.43577e-05 1.92855e-05
2.43577e-05 0.000248551 -2.60821e-06
1.92855e-05 -2.60821e-06 0.000232831
0.00123133 2.56979e-05 1.67893e-05
2.56979e-05 0.000202094 -3.84408e-06
1.67893e-05 -3.84408e-06 0.000192614
0.00123845 1.51322e-05 5.01188e-06
1.51322e-05 0.000175743 -1.2512e-06
5.01188e-06 -1.2512e-06 0.000145804
0.00118225 1.99006e-05 4.86863e-06
1.99006e-05 0.0001463 -1.60742e-06
4.86863e-06 -1.60742e-06 0.000122499
0.00115404 2.34214e-05 1.30232e-05
2.34214e-05 0.000125761 -4.8559e-06
1.30232e-05 -4.8559e-06 0.000129783
0.00111857 2.14028e-05 4.7352e-06
2.14028e-05 0.000110634 -2.13955e-06
4.7352e-06 -2.13955e-06 9.3015e-05
0.00139673 1.94536e-06 1.67906e-06
1.94536e-06 0.000214484 -5.73319e-07
1.67906e-06 -5.73319e-07 0.000168596
0.00264801 -3.22752e-05 -1.21807e-05
-3.22752e-05 0.000857013 -2.97324e-06
-1.21807e-05 -2.97324e-06 0.000868599
0.00201481 -3.24416e-05 -4.83928e-06
-3.24416e-05 0.000576431 -8.23289e-07
-4.83928e-06 -8.23289e-07 0.000575601
0.00189534 -2.99752e-05 -4.33726e-06
-2.99752e-05 0.000496826 -9.09154e-07
-4.33726e-06 -9.09154e-07 0.000502424
0.00250027 -2.98341e-05 1.30405e-07
-2.98341e-05 0.000778648 -6.98868e-08
1.30405e-07 -6.98868e-08 0.000792035
0.000833184 -1.93231e-05 1.0057e-07
-1.93231e-05 -3.92043e-05 -5.25948e-08
1.0057e-07 -5.25948e-08 -5.37695e-05
0.00115676 -2.5452e-05 1.34207e-05
-2.5452e-05 0.00017036 2.0519e-06
1.34207e-05 2.0519e-06 0.000161069
0.00111863 -2.53328e-05 1.18988e-05
-2.53328e-05 0.000126627 2.57886e-06
1.18988e-05 2.57886e-06 0.000125246
0.00168432 -1.99741e-05 8.18718e-06
-1.99741e-05 0.000391301 1.73339e-06
8.18718e-06 1.73339e-06 0.000370586
0.00243874 -2.91113e-05 4.96607e-06
-2.91113e-05 0.000740253 1.32289e-06
4.96607e-06 1.32289e-06 0.000755464
0.00162405 -2.46367e-05 7.67557e-06
-2.46367e-05 0.000355117 2.10999e-06
7.67557e-06 2.10999e-06 0.000341128
0.000875629 -1.86785e-05 5.76633e-06
-1.86785e-05 -2.4553e-05 3.71129e-06
5.76633e-06 3.71129e-06 -3.66768e-05
0.000977176 -8.45245e-07 2.53812e-06
-8.45245e-07 1.38802e-05 1.20438e-06
2.53812e-06 1.20438e-06 -2.93789e-05
0.00244705 -2.33944e-05 1.10433e-05
-2.33944e-05 0.000731344 3.62066e-06
1.10433e-05 3.62066e-06 0.000748646
0.00313474 -4.05678e-05 5.73568e-07
-4.05678e-05 0.00118924 -1.38762e-07
5.73568e-07 -1.38762e-07 0.00118143
0.00210415 -3.30574e-05 -5.66905e-06
-3.30574e-05 0.000663845 -5.11592e-07
-5.66905e-06 -5.11592e-07 0.000653956
0.00324435 -3.26432e-05 2.06902e-05
-3.26432e-05 0.00124565 1.72549e-07
2.06902e-05 1.72549e-07 0.0012371
0.00118919 -2.6409e-05 5.06223e-06
-2.6409e-05 0.000227473 4.10927e-07
5.06223e-06 4.10927e-07 0.000209671
0.00071612 -1.70883e-05 7.29462e-06
-1.70883e-05 -5.92713e-05 1.12301e-06
7.29462e-06 1.12301e-06 -9.87954e-05
0.00300311 -4.18134e-05 6.73029e-06
-4.18134e-05 0.00108873 7.0853e-07
6.73029e-06 7.0853e-07 0.00108709
0.00164245 -1.78452e-05 1.07153e-05
-1.78452e-05 0.000386485 1.566e-06
1.07153e-05 1.566e-06 0.000357567
0.00123356 2.8415e-05 -4.9485e-06
2.8415e-05 0.000215332 7.30695e-07
-4.9485e-06 7.30695e-07 0.000202659
0.00116749 2.80165e-05 -4.38563e-06
2.80165e-05 0.000159053 9.20665e-07
-4.38563e-06 9.20665e-07 0.000154006
0.00112709 2.63935e-05 -3.83931e-06
2.63935e-05 0.000121343 1.07094e-06
-3.83931e-06 1.07094e-06 0.000123057
0.00120956 2.27191e-05 -8.3282e-06
2.27191e-05 0.00015806 2.48101e-06
-8.3282e-06 2.48101e-06 0.000137091
0.00220509 3.43662e-05 -5.11838e-06
3.43662e-05 0.000727585 -2.28621e-07
-5.11838e-06 -2.28621e-07 0.000714471
0.00126954 2.61201e-05 7.2064e-06
2.61201e-05 0.000243489 -1.09542e-06
7.2064e-06 -1.09542e-06 0.000227773
0.00113176 2.43602e-05 4.77942e-06
2.43602e-05 0.000114764 -1.83743e-06
4.77942e-06 -1.83743e-06 0.00011902
0.0012166 2.70236e-05 6.19646e-06
2.70236e-05 0.000194918 -1.5094e-06
6.19646e-06 -1.5094e-06 0.000185741
0.00125996 1.51128e-05 -2.36785e-06
1.51128e-05 0.000186229 2.71069e-07
-2.36785e-06 2.71069e-07 0.000156343
0.00114951 2.15829e-05 -1.53293e-06
2.15829e-05 0.000125721 2.24333e-07
-1.53293e-06 2.24333e-07 0.000108114
0.00120628 2.03869e-05 -1.93525e-06
2.03869e-05 0.000158163 3.26708e-07
-1.93525e-06 3.26708e-07 0.000134331
0.00142264 1.24769e-06 -9.1412e-07
1.24769e-06 0.000225389 5.48344e-07
-9.1412e-07 5.48344e-07 0.000179243
0.00326003 4.35999e-05 1.88123e-05
4.35999e-05 0.00124901 -3.8359e-07
1.88123e-05 -3.8359e-07 0.00124088
0.00128524 2.32269e-05 2.00792e-05
2.32269e-05 0.000263313 -1.90294e-06
2.00792e-05 -1.90294e-06 0.000245916
0.00167163 2.61787e-05 4.23627e-06
2.61787e-05 0.000402921 -3.71329e-07
4.23627e-06 -3.71329e-07 0.00037084
0.00127542 1.35906e-05 5.24141e-06
1.35906e-05 0.000193837 -9.24465e-07
5.24141e-06 -9.24465e-07 0.000161671
0.00120577 1.7497e-05 4.87527e-06
1.7497e-05 0.000159833 -1.42123e-06
4.87527e-06 -1.42123e-06 0.000132951
0.00149658 -7.62017e-06 1.46883e-06
-7.62017e-06 0.000229212 -4.27006e-07
1.46883e-06 -4.27006e-07 0.000177588
0.00120183 6.22371e-07 1.9982e-06
6.22371e-07 0.000109416 -6.7061e-07
1.9982e-06 -6.7061e-07 6.10623e-05
0.00123449 2.24727e-05 1.29209e-05
2.24727e-05 0.000153646 -5.05006e-06
1.29209e-05 -5.05006e-06 0.000159944
0.00111024 2.05684e-05 4.60987e-06
2.05684e-05 0.000100139 -2.20443e-06
4.60987e-06 -2.20443e-06 8.61321e-05
0.00137075 3.70835e-06 1.65023e-06
3.70835e-06 0.000211426 -7.17743e-07
1.65023e-06 -7.17743e-07 0.000167785
0.00113293 -2.00287e-05 1.20484e-06
-2.00287e-05 4.64644e-05 -5.89108e-07
1.20484e-06 -5.89108e-07 -1.15207e-05
0.00292484 -3.81029e-05 -1.37416e-05
-3.81029e-05 0.00102086 -2.43443e-06
-1.37416e-05 -2.43443e-06 0.00102519
0.00257317 -3.01356e-05 -1.17716e-05
-3.01356e-05 0.000812745 -3.12807e-06
-1.17716e-05 -3.12807e-06 0.000826211
0.00273235 -3.43261e-05 -1.27282e-05
-3.43261e-05 0.000906526 -2.79338e-06
-1.27282e-05 -2.79338e-06 0.000916039
0.000789573 -1.90776e-05 -4.61576e-06
-1.90776e-05 -6.04687e-05 -2.58968e-06
-4.61576e-06 -2.58968e-06 -7.48073e-05
0.00294647 -3.84662e-05 1.75997e-07
-3.84662e-05 0.0010476 -1.16433e-07
1.75997e-07 -1.16433e-07 0.00104849
0.00272816 -3.56193e-05 1.51084e-07
-3.56193e-05 0.000916842 -8.4279e-08
1.51084e-07 -8.4279e-08 0.000923597
0.000815302 -1.61357e-05 1.14377e-07
-1.61357e-05 -3.37069e-05 -7.74243e-08
1.14377e-07 -7.74243e-08 -5.91094e-05
0.00179286 -2.50214e-05 -3.95191e-06
-2.50214e-05 0.000422171 -1.04065e-06
-3.95191e-06 -1.04065e-06 0.000434101
0.000842588 -2.03829e-05 1.67256e-08
-2.03829e-05 -2.88435e-05 -2.96531e-08
1.67256e-08 -2.96531e-08 -4.63601e-05
0.0012107 -2.01165e-05 2.05517e-06
-2.01165e-05 0.000139831 4.90069e-07
2.05517e-06 4.90069e-07 0.000129693
0.000973506 -1.95071e-06 9.22476e-08
-1.95071e-06 1.36699e-05 -1.12587e-07
9.22476e-08 -1.12587e-07 -2.98466e-05
0.00242887 -2.5544e-05 1.12588e-05
-2.5544e-05 0.000728819 3.4195e-06
1.12588e-05 3.4195e-06 0.000745179
0.000909917 -1.49589e-05 3.83704e-06
-1.49589e-05 -2.80311e-05 2.93697e-06
3.83704e-06 2.93697e-06 -3.52516e-05
0.00075826 -1.02497e-05 6.79751e-06
-1.02497e-05 -5.92244e-05 2.44836e-06
6.79751e-06 2.44836e-06 -8.87744e-05
0.000805794 -1.83336e-05 6.21547e-06
-1.83336e-05 -4.15037e-05 3.10443e-06
6.21547e-06 3.10443e-06 -6.33862e-05
0.000987862 6.21418e-06 2.34021e-06
6.21418e-06 4.60305e-06 1.00239e-06
2.34021e-06 1.00239e-06 -4.53201e-05
0.00157486 -2.0498e-05 7.16286e-06
-2.0498e-05 0.000311061 2.60503e-06
7.16286e-06 2.60503e-06 0.000304751
0.000981046 2.84523e-06 2.4666e-06
2.84523e-06 1.32749e-05 1.13733e-06
2.4666e-06 1.13733e-06 -3.20177e-05
0.000983177 -5.3157e-06 2.39233e-06
-5.3157e-06 1.77649e-05 1.54221e-06
2.39233e-06 1.54221e-06 -2.29761e-05
0.00103905 1.52257e-05 1.20687e-06
1.52257e-05 2.83547e-05 3.5739e-07
1.20687e-06 3.5739e-07 -2.72167e-05
0.00245706 -2.12304e-05 1.06656e-05
-2.12304e-05 0.000731171 3.78417e-06
1.06656e-05 3.78417e-06 0.000749277
0.00249645 -2.34637e-05 1.8381e-07
-2.34637e-05 0.000754919 -6.39224e-08
1.8381e-07 -6.39224e-08 0.000772115
0.00310335 -4.09001e-05 -1.60395e-05
-4.09001e-05 0.0011485 -1.54204e-06
-1.60395e-05 -1.54204e-06 0.00114486
0.00313382 -4.14347e-05 -1.75834e-05
-4.14347e-05 0.00118696 -8.0061e-07
-1.75834e-05 -8.0061e-07 0.00117951
0.00322494 -3.69247e-05 1.30981e-06
-3.69247e-05 0.00123586 -1.75046e-07
1.30981e-06 -1.75046e-07 0.00122738
0.00212299 -3.27992e-05 -6.00332e-06
-3.27992e-05 0.0006862 -3.81735e-07
-6.00332e-06 -3.81735e-07 0.000673971
0.00120024 -1.71405e-05 3.50035e-06
-1.71405e-05 0.000178658 3.51814e-08
3.50035e-06 3.51814e-08 0.000142562
0.00211759 -3.34551e-05 -5.39657e-06
-3.34551e-05 0.000653891 -6.36403e-07
-5.39657e-06 -6.36403e-07 0.000646773
0.00122102 -1.61155e-05 2.83566e-06
-1.61155e-05 0.000179622 1.65358e-07
2.83566e-06 1.65358e-07 0.000147924
0.00328095 9.776e-07 1.8695e-05
9.776e-07 0.00126273 4.70168e-08
1.8695e-05 4.70168e-08 0.00125416
0.000722772 -1.38493e-05 5.28501e-06
-1.38493e-05 -5.69571e-05 2.51851e-07
5.28501e-06 2.51851e-07 -9.74825e-05
0.00164024 -2.95015e-05 1.11106e-05
-2.95015e-05 0.000391691 1.25833e-06
1.11106e-05 1.25833e-06 0.000360392
0.00103499 -1.06663e-05 2.26649e-06
-1.06663e-05 6.80024e-06 4.34566e-07
2.26649e-06 4.34566e-07 -5.07082e-05
0.00168834 -1.60744e-05 8.63389e-06
-1.60744e-05 0.000400906 1.17359e-06
8.63389e-06 1.17359e-06 0.000374473
0.00103218 3.05486e-06 2.21556e-06
3.05486e-06 9.13071e-06 5.56525e-07
2.21556e-06 5.56525e-07 -4.50581e-05
0.00123636 2.14098e-05 -1.7982e-05
2.14098e-05 0.000252517 5.70137e-07
-1.7982e-05 5.70137e-07 0.000233629
0.00125861 2.8104e-05 -5.23766e-06
2.8104e-05 0.000238985 6.00538e-07
-5.23766e-06 6.00538e-07 0.00022325
0.00111014 2.53387e-05 -3.63433e-06
2.53387e-05 0.000104078 1.1091e-06
-3.63433e-06 1.1091e-06 0.000108566
0.00119642 2.84172e-05 -4.64608e-06
2.84172e-05 0.000185112 8.18563e-07
-4.64608e-06 8.18563e-07 0.00017625
0.001283 1.49277e-05 -9.85281e-06
1.49277e-05 0.000197442 1.80435e-06
-9.85281e-06 1.80435e-06 0.000167611
0.00123466 2.07952e-05 -8.79522e-06
2.07952e-05 0.000172127 2.24895e-06
-8.79522e-06 2.24895e-06 0.000148255
0.00117976 2.17155e-05 -7.83879e-06
2.17155e-05 0.00014045 2.60764e-06
-7.83879e-06 2.60764e-06 0.000122861
0.0014505 -3.69183e-08 -3.45214e-06
-3.69183e-08 0.000237141 1.69773e-06
-3.45214e-06 1.69773e-06 0.000190759
0.00325189 4.25169e-05 -1.12422e-06
4.25169e-05 0.0012458 -1.65181e-07
-1.12422e-06 -1.65181e-07 0.00123759
0.00126385 2.52463e-05 7.55247e-06
2.52463e-05 0.000253565 -7.43314e-07
7.55247e-06 -7.43314e-07 0.000236112
0.000978879 1.91986e-05 -4.48218e-06
1.91986e-05 6.21686e-05 2.41569e-07
-4.48218e-06 2.41569e-07 2.58861e-05
0.00128703 1.3282e-05 -2.58213e-06
1.3282e-05 0.000199528 2.14062e-07
-2.58213e-06 2.14062e-07 0.000167388
0.0018632 2.61574e-05 7.34637e-06
2.61574e-05 0.000464116 -1.86328e-06
7.34637e-06 -1.86328e-06 0.000473945
0.00134235 2.18517e-05 -1.18867e-06
2.18517e-05 0.000213881 2.72246e-07
-1.18867e-06 2.72246e-07 0.000201228
0.00122918 1.77597e-05 -2.15085e-06
1.77597e-05 0.000171196 3.22829e-07
-2.15085e-06 3.22829e-07 0.00014435
0.0013863 -7.34975e-06 -9.46124e-07
-7.34975e-06 0.00017461 3.62164e-07
-9.46124e-07 3.62164e-07 0.000122266
0.00140111 2.55884e-06 -9.80216e-07
2.55884e-06 0.000223868 6.26153e-07
-9.80216e-07 6.26153e-07 0.000179935
0.00132993 -1.02983e-06 -4.8164e-07
-1.02983e-06 0.000170891 2.7614e-07
-4.8164e-07 2.7614e-07 0.000122937
0.00111966 -1.9511e-05 1.71173e-08
-1.9511e-05 4.0605e-05 -4.6966e-08
1.71173e-08 -4.6966e-08 -1.733e-05
0.000714213 1.09857e-05 5.36111e-06
1.09857e-05 -6.41923e-05 -5.9531e-07
5.36111e-06 -5.9531e-07 -0.000103515
0.00127886 1.463e-05 5.27588e-06
1.463e-05 0.000201683 -6.25063e-07
5.27588e-06 -6.25063e-07 0.000168443
0.00132091 1.53041e-05 2.07277e-06
1.53041e-05 0.000133826 -1.14106e-07
2.07277e-06 -1.14106e-07 7.78289e-05
0.00132929 -6.30873e-06 2.03935e-06
-6.30873e-06 0.000136464 -4.45564e-07
2.03935e-06 -4.45564e-07 8.22804e-05
0.00124243 -3.41878e-06 1.90926e-06
-3.41878e-06 0.000117966 -6.79354e-07
1.90926e-06 -6.79354e-07 6.75864e-05
0.00142011 -2.04074e-05 5.90712e-07
-2.04074e-05 0.000144909 -2.89803e-07
5.90712e-07 -2.89803e-07 8.37749e-05
0.00259266 2.78674e-05 1.1714e-05
2.78674e-05 0.00081361 -3.34421e-06
1.1714e-05 -3.34421e-06 0.000828256
0.00115105 -1.91714e-05 1.07284e-06
-1.91714e-05 4.23774e-05 -4.13268e-07
1.07284e-06 -4.13268e-07 -1.53966e-05
0.000862696 1.85164e-05 4.39429e-06
1.85164e-05 -3.20252e-05 -2.54654e-06
4.39429e-06 -2.54654e-06 -4.39866e-05
0.000942575 4.64356e-06 2.28474e-06
4.64356e-06 4.40825e-06 -1.45291e-06
2.28474e-06 -1.45291e-06 -3.91278e-05
0.0011388 -1.99224e-05 1.16033e-06
-1.99224e-05 6.47064e-05 -8.98416e-07
1.16033e-06 -8.98416e-07 6.41872e-06
0.00119632 -2.71029e-05 8.38487e-07
-2.71029e-05 5.74197e-05 -2.13384e-07
8.38487e-07 -2.13384e-07 -4.55897e-06
0.000867157 1.56077e-05 3.97192e-06
1.56077e-05 -4.47428e-05 -2.93527e-06
3.97192e-06 -2.93527e-06 -5.36927e-05
0.000983481 4.44589e-06 2.36013e-06
4.44589e-06 4.68045e-06 -1.93593e-06
2.36013e-06 -1.93593e-06 -3.30521e-05
0.00302741 -3.94707e-05 -1.46749e-05
-3.94707e-05 0.00108295 -2.20312e-06
-1.46749e-05 -2.20312e-06 0.00108438
0.00281591 -3.63115e-05 -1.30988e-05
-3.63115e-05 0.000957105 -2.60592e-06
-1.30988e-05 -2.60592e-06 0.000964224
0.000732049 -1.8747e-05 -4.63436e-06
-1.8747e-05 -7.12709e-05 -2.13814e-06
-4.63436e-06 -2.13814e-06 -9.69736e-05
0.00254483 -2.79425e-05 -1.16541e-05
-2.79425e-05 0.000790901 -3.3131e-06
-1.16541e-05 -3.3131e-06 0.000805904
0.000818827 -1.8506e-05 -4.3511e-06
-1.8506e-05 -5.27876e-05 -2.66102e-06
-4.3511e-06 -2.66102e-06 -6.42793e-05
0.000756208 -1.96751e-05 -4.88636e-06
-1.96751e-05 -7.00007e-05 -2.36516e-06
-4.88636e-06 -2.36516e-06 -8.74809e-05
0.000969844 -3.00518e-06 -2.45333e-06
-3.00518e-06 1.34875e-05 -1.53782e-06
-2.45333e-06 -1.53782e-06 -3.02869e-05
0.00248792 -2.5642e-05 1.74821e-07
-2.5642e-05 0.000756783 -6.95777e-08
1.74821e-07 -6.95777e-08 0.00077304
0.000895768 -1.48809e-05 8.83725e-08
-1.48809e-05 -3.5147e-05 -3.85532e-08
8.83725e-08 -3.85532e-08 -4.22771e-05
0.00121913 -1.43236e-05 2.59082e-06
-1.43236e-05 0.000168071 2.79678e-07
2.59082e-06 2.79678e-07 0.00014135
0.00119874 -2.268e-05 2.25267e-06
-2.268e-05 0.000152387 4.38288e-07
2.25267e-06 4.38288e-07 0.000132876
0.000987013 6.58271e-06 -1.47629e-08
6.58271e-06 4.56216e-06 -1.02117e-07
-1.47629e-08 -1.02117e-07 -4.54266e-05
0.000894625 -1.76926e-05 9.29287e-09
-1.76926e-05 -2.39791e-05 -2.72827e-08
9.29287e-09 -2.72827e-08 -3.32928e-05
0.000974699 1.95191e-06 -7.32265e-08
1.95191e-06 1.1975e-05 -2.58501e-08
-7.32265e-08 -2.58501e-08 -3.35586e-05
0.000970486 -7.00668e-06 7.45793e-08
-7.00668e-06 1.28526e-05 -5.89799e-09
7.45793e-08 -5.89799e-09 -2.80456e-05
0.000994105 1.52609e-05 -3.66043e-08
1.52609e-05 5.78659e-06 -1.28848e-07
-3.66043e-08 -1.28848e-07 -5.00714e-05
0.000903129 -1.63311e-05 4.17329e-06
-1.63311e-05 -2.64191e-05 2.75889e-06
4.17329e-06 2.75889e-06 -3.44749e-05
0.000916437 -1.36199e-05 3.46333e-06
-1.36199e-05 -2.87346e-05 3.093e-06
3.46333e-06 3.093e-06 -3.51899e-05
0.000991152 -7.57157e-06 2.36927e-06
-7.57157e-06 8.84992e-06 1.71146e-06
2.36927e-06 1.71146e-06 -2.71438e-05
0.000996379 5.78919e-06 2.27713e-06
5.78919e-06 -3.47008e-07 7.96073e-07
2.27713e-06 7.96073e-07 -5.17653e-05
0.000986117 5.17092e-06 2.34017e-06
5.17092e-06 1.22958e-05 1.17671e-06
2.34017e-06 1.17671e-06 -3.54508e-05
0.00113724 2.06297e-05 1.1503e-06
2.06297e-05 3.82313e-05 6.7137e-07
1.1503e-06 6.7137e-07 -2.04069e-05
0.000987783 -8.648e-06 2.34893e-06
-8.648e-06 1.55336e-05 1.61515e-06
2.34893e-06 1.61515e-06 -2.23786e-05
0.000986079 1.81611e-05 1.02098e-06
1.81611e-05 -8.49948e-06 4.36374e-07
1.02098e-06 4.36374e-07 -6.42589e-05
0.00106623 1.05283e-05 1.22703e-06
1.05283e-05 4.86362e-05 7.00303e-07
1.22703e-06 7.00303e-07 -7.11212e-06
0.00119358 2.74273e-05 8.6333e-08
2.74273e-05 9.52673e-05 -1.16477e-07
8.6333e-08 -1.16477e-07 3.42681e-05
0.00245938 -1.90836e-05 1.01275e-05
-1.90836e-05 0.00072812 3.91207e-06
1.01275e-05 3.91207e-06 0.000746944
0.00249697 -2.12885e-05 1.93984e-07
-2.12885e-05 0.000750363 -5.74996e-08
1.93984e-07 -5.74996e-08 0.000768369
0.00254703 -2.3552e-05 -1.10981e-05
-2.3552e-05 0.000779078 -3.68263e-06
-1.10981e-05 -3.68263e-06 0.000796161
0.000878716 1.42837e-05 3.59178e-06
1.42837e-05 -4.35525e-05 -3.10844e-06
3.59178e-06 -3.10844e-06 -5.16022e-05
0.00259968 2.56473e-05 1.15466e-05
2.56473e-05 0.000810161 -3.54792e-06
1.15466e-05 -3.54792e-06 0.00082591
0.00308443 -4.03786e-05 -1.5429e-05
-4.03786e-05 0.00112469 -1.89491e-06
-1.5429e-05 -1.89491e-06 0.00112344
0.00310792 -4.11446e-05 -1.67155e-05
-4.11446e-05 0.00116433 -1.17053e-06
-1.67155e-05 -1.17053e-06 0.0011586
0.000713532 -8.55188e-06 -5.03903e-06
-8.55188e-06 -6.64491e-05 -1.22281e-06
-5.03903e-06 -1.22281e-06 -0.000101109
0.00070774 -7.01455e-06 -5.18657e-06
-7.01455e-06 -6.11348e-05 -8.83555e-07
-5.18657e-06 -8.83555e-07 -0.000100235
0.00320248 -4.18751e-05 -1.83181e-05
-4.18751e-05 0.00122495 -3.94816e-07
-1.83181e-05 -3.94816e-07 0.00121637
0.00326797 4.1915e-06 -3.02677e-07
4.1915e-06 0.00125685 -2.27794e-08
-3.02677e-07 -2.27794e-08 0.00124816
0.000713129 -8.65735e-06 3.68233e-08
-8.65735e-06 -6.10566e-05 -1.6965e-07
3.68233e-08 -1.6965e-07 -0.000101491
0.00121155 -1.66875e-05 3.07515e-06
-1.66875e-05 0.000181264 1.30028e-07
3.07515e-06 1.30028e-07 0.000147394
0.00105087 -8.81655e-06 4.08528e-08
-8.81655e-06 1.4063e-05 -1.88237e-08
4.08528e-08 -1.88237e-08 -4.34175e-05
0.000775996 -1.00998e-05 2.24139e-08
-1.00998e-05 -4.52382e-05 -9.34385e-08
2.24139e-08 -9.34385e-08 -7.72416e-05
0.0010393 2.99264e-06 -3.39809e-08
2.99264e-06 1.25415e-05 -4.2837e-08
-3.39809e-08 -4.2837e-08 -4.16618e-05
0.000705136 -4.99233e-06 5.37954e-06
-4.99233e-06 -6.69445e-05 -1.81874e-07
5.37954e-06 -1.81874e-07 -0.000107347
0.00105071 -8.7528e-06 2.24298e-06
-8.7528e-06 9.6148e-06 1.20858e-07
2.24298e-06 1.20858e-07 -4.92455e-05
0.00103778 -2.79839e-06 2.21661e-06
-2.79839e-06 1.05325e-05 5.0333e-07
2.21661e-06 5.0333e-07 -4.51702e-05
0.00118125 -1.15358e-05 1.07315e-06
-1.15358e-05 3.74255e-05 1.36401e-07
1.07315e-06 1.36401e-07 -2.74837e-05
0.00101328 4.44886e-06 2.21195e-06
4.44886e-06 2.67129e-06 6.69202e-07
2.21195e-06 6.69202e-07 -5.01158e-05
0.00119664 4.52604e-06 1.00293e-06
4.52604e-06 4.5422e-05 3.24905e-07
1.00293e-06 3.24905e-07 -1.57284e-05
0.00324082 4.06482e-05 -2.07596e-05
4.06482e-05 0.00124129 1.07333e-07
-2.07596e-05 1.07333e-07 0.00123302
0.00124168 2.74967e-05 -5.33148e-06
2.74967e-05 0.000243496 4.11714e-07
-5.33148e-06 4.11714e-07 0.000225965
0.000275522 1.35521e-05 -7.29159e-06
1.35521e-05 -0.00028352 1.02285e-06
-7.29159e-06 1.02285e-06 -0.000324084
0.00129776 1.27806e-05 -1.04987e-05
1.27806e-05 0.000204762 1.45793e-06
-1.04987e-05 1.45793e-06 0.000172661
0.00248975 3.10972e-05 -5.05391e-06
3.10972e-05 0.000773659 1.2427e-06
-5.05391e-06 1.2427e-06 0.000786957
0.00157253 2.32446e-05 -7.64758e-06
2.32446e-05 0.000326673 2.6531e-06
-7.64758e-06 2.6531e-06 0.000315375
0.00125687 1.78405e-05 -9.25067e-06
1.78405e-05 0.000184618 2.02355e-06
-9.25067e-06 2.02355e-06 0.000157803
0.00127366 -6.99311e-06 -3.31881e-06
-6.99311e-06 0.000118885 1.18248e-06
-3.31881e-06 1.18248e-06 6.58243e-05
0.00145752 -2.62353e-06 -2.9326e-06
-2.62353e-06 0.000232086 1.15214e-06
-2.9326e-06 1.15214e-06 0.000184535
0.00143328 1.4615e-06 -3.54123e-06
1.4615e-06 0.000237175 2.02615e-06
-3.54123e-06 2.02615e-06 0.000192948
0.00110647 -1.90456e-05 -1.06699e-06
-1.90456e-05 3.47726e-05 4.48293e-07
-1.06699e-06 4.48293e-07 -2.31137e-05
0.000714277 1.39781e-05 -8.25231e-08
1.39781e-05 -6.43519e-05 -1.28778e-07
-8.25231e-08 -1.28778e-07 -0.000103755
0.00128441 1.40478e-05 -2.74679e-06
1.40478e-05 0.000203918 1.82202e-07
-2.74679e-06 1.82202e-07 0.000170747
0.0011 1.53785e-05 -4.23706e-07
1.53785e-05 2.52862e-05 5.04681e-08
-4.23706e-07 5.04681e-08 -3.19981e-05
0.00142529 -7.42151e-06 -4.60278e-07
-7.42151e-06 0.000182953 8.69719e-08
-4.60278e-07 8.69719e-08 0.000129218
0.00252965 2.77296e-05 -1.55124e-07
2.77296e-05 0.000784118 -7.1436e-08
-1.55124e-07 -7.1436e-08 0.000798801
0.00122403 2.04828e-05 3.67154e-07
2.04828e-05 0.000146034 -5.13827e-08
3.67154e-07 -5.13827e-08 0.000135539
0.00117672 4.60949e-06 8.86803e-08
4.60949e-06 0.000116846 1.1844e-08
8.86803e-08 1.1844e-08 7.47221e-05
0.00125473 -3.8954e-06 -4.76068e-07
-3.8954e-06 0.000123543 1.88449e-07
-4.76068e-07 1.88449e-07 7.31853e-05
0.00124575 -1.91139e-05 -4.65675e-07
-1.91139e-05 5.99588e-05 2.52667e-07
-4.65675e-07 2.52667e-07 -1.95713e-06
0.0010291 -1.83865e-05 -4.56897e-08
-1.83865e-05 1.3405e-05 -1.09978e-07
-4.56897e-08 -1.09978e-07 -4.51106e-05
0.00125006 -1.95145e-05 1.84721e-08
-1.95145e-05 8.99948e-05 5.02043e-08
1.84721e-08 5.02043e-08 3.26475e-05
0.00118623 -2.69155e-05 8.62456e-08
-2.69155e-05 5.29555e-05 -1.08836e-10
8.62456e-08 -1.08836e-10 -8.92903e-06
0.000880597 1.57101e-05 -6.19454e-08
1.57101e-05 -3.78285e-05 -4.73357e-08
-6.19454e-08 -4.73357e-08 -4.68888e-05
0.000984872 4.88571e-06 -9.94224e-08
4.88571e-06 5.51807e-06 -5.092e-08
-9.94224e-08 -5.092e-08 -3.21897e-05
0.00104201 1.15047e-05 2.35324e-06
1.15047e-05 1.05082e-06 -2.4166e-07
2.35324e-06 -2.4166e-07 -5.72693e-05
0.00132532 2.66211e-06 2.08395e-06
2.66211e-06 0.000131883 -2.56409e-07
2.08395e-06 -2.56409e-07 7.68416e-05
0.00144501 1.45468e-05 8.08014e-07
1.45468e-05 0.000148805 1.08975e-07
8.08014e-07 1.08975e-07 8.46411e-05
0.00114899 -1.29298e-05 1.53459e-06
-1.29298e-05 3.9713e-07 -5.50312e-07
1.53459e-06 -5.50312e-07 -6.37239e-05
0.0012735 -1.95328e-05 7.20628e-07
-1.95328e-05 9.1169e-05 -4.58622e-07
7.20628e-07 -4.58622e-07 3.2735e-05
0.00138571 -2.07293e-05 5.53817e-08
-2.07293e-05 0.000106551 -1.91696e-07
5.53817e-08 -1.91696e-07 4.19372e-05
0.000849139 1.70442e-05 4.22532e-06
1.70442e-05 -4.66754e-05 -2.72589e-06
4.22532e-06 -2.72589e-06 -5.68814e-05
0.00121227 -2.49857e-05 4.95855e-07
-2.49857e-05 5.07533e-05 -1.48753e-07
4.95855e-07 -1.48753e-07 -1.00609e-05
0.000946946 7.48965e-06 2.38695e-06
7.48965e-06 2.55553e-06 -1.43623e-06
2.38695e-06 -1.43623e-06 -3.85359e-05
0.000871384 -1.45349e-05 1.2793e-06
-1.45349e-05 -4.9271e-05 -1.13859e-06
1.2793e-06 -1.13859e-06 -0.000106602
0.0014028 -3.12615e-05 5.211e-07
-3.12615e-05 0.00017517 -4.64831e-07
5.211e-07 -4.64831e-07 0.000111734
0.0012612 -2.97223e-05 3.65668e-07
-2.97223e-05 7.79013e-05 4.58323e-07
3.65668e-07 4.58323e-07 1.56396e-05
0.000970163 5.7416e-06 2.55263e-06
5.7416e-06 1.53255e-06 -1.71913e-06
2.55263e-06 -1.71913e-06 -3.66348e-05
0.000988965 4.05715e-06 2.04064e-06
4.05715e-06 5.6974e-06 -2.0544e-06
2.04064e-06 -2.0544e-06 -3.13944e-05
0.0010631 -1.06515e-05 1.3852e-06
-1.06515e-05 3.96554e-05 -9.66598e-07
1.3852e-06 -9.66598e-07 -1.63447e-05
0.000733791 -1.23514e-05 -4.94906e-06
-1.23514e-05 -6.7595e-05 -1.8182e-06
-4.94906e-06 -1.8182e-06 -9.69395e-05
0.002547 -2.57504e-05 -1.14685e-05
-2.57504e-05 0.000784756 -3.5119e-06
-1.14685e-05 -3.5119e-06 0.000800911
0.000881906 -1.48046e-05 -3.61786e-06
-1.48046e-05 -4.21355e-05 -3.04716e-06
-3.61786e-06 -3.04716e-06 -4.9174e-05
0.000730658 -2.07415e-05 -4.76204e-06
-2.07415e-05 -7.57449e-05 -2.25229e-06
-4.76204e-06 -2.25229e-06 -9.71552e-05
0.00098522 7.36263e-06 -2.25346e-06
7.36263e-06 3.99533e-06 -1.14862e-06
-2.25346e-06 -1.14862e-06 -4.60377e-05
0.000849148 -1.74757e-05 -4.22673e-06
-1.74757e-05 -4.59262e-05 -2.70252e-06
-4.22673e-06 -2.70252e-06 -5.51302e-05
0.000958211 -8.53943e-06 -2.2872e-06
-8.53943e-06 8.17267e-06 -1.69824e-06
-2.2872e-06 -1.69824e-06 -3.28801e-05
0.000968034 9.7236e-07 -2.48188e-06
9.7236e-07 1.05392e-05 -1.17236e-06
-2.48188e-06 -1.17236e-06 -3.52351e-05
0.000948063 1.52739e-05 -1.24013e-06
1.52739e-05 -1.73451e-05 -6.04207e-07
-1.24013e-06 -6.04207e-07 -7.34846e-05
0.00088683 -1.6243e-05 6.61123e-08
-1.6243e-05 -3.45124e-05 -4.72314e-08
6.61123e-08 -4.72314e-08 -4.24774e-05
0.000903785 -1.3559e-05 9.22663e-08
-1.3559e-05 -3.51188e-05 -2.75946e-08
9.22663e-08 -2.75946e-08 -4.14833e-05
0.000986029 -7.24724e-06 7.7671e-08
-7.24724e-06 6.34037e-06 -4.15038e-08
7.7671e-08 -4.15038e-08 -2.96572e-05
0.0010067 6.62536e-06 -2.71586e-08
6.62536e-06 4.36849e-06 -6.57045e-08
-2.71586e-08 -6.57045e-08 -4.70808e-05
0.000975239 4.87237e-06 -8.04643e-08
4.87237e-06 8.42961e-06 -3.72089e-08
-8.04643e-08 -3.72089e-08 -3.94512e-05
0.00113966 2.09125e-05 6.94069e-08
2.09125e-05 3.94253e-05 3.01943e-08
6.94069e-08 3.01943e-08 -1.92455e-05
0.000972698 -9.55836e-06 -6.29093e-08
-9.55836e-06 8.887e-06 4.86277e-08
-6.29093e-08 4.86277e-08 -2.90777e-05
0.00104455 1.92357e-05 -4.57267e-08
1.92357e-05 1.98636e-05 -5.60182e-08
-4.57267e-08 -5.60182e-08 -3.56178e-05
0.00105981 1.12787e-05 5.56039e-08
1.12787e-05 4.57057e-05 -1.32354e-07
5.56039e-08 -1.32354e-07 -1.01215e-05
0.00110694 2.66833e-05 -4.52396e-07
2.66833e-05 5.29983e-05 9.78342e-08
-4.52396e-07 9.78342e-08 -8.3762e-06
0.00092206 -1.23203e-05 3.08555e-06
-1.23203e-05 -2.93232e-05 3.20347e-06
3.08555e-06 3.20347e-06 -3.50215e-05
0.000987714 -8.743e-06 2.46968e-06
-8.743e-06 1.02195e-05 1.5714e-06
2.46968e-06 1.5714e-06 -2.61896e-05
0.000996703 -6.54872e-06 2.15801e-06
-6.54872e-06 9.21834e-06 1.86545e-06
2.15801e-06 1.86545e-06 -2.63708e-05
0.00105685 3.8632e-06 1.38884e-06
3.8632e-06 3.68089e-05 8.25974e-07
1.38884e-06 8.25974e-07 -1.69292e-05
0.00114397 1.5476e-05 1.28487e-06
1.5476e-05 2.87886e-05 4.33213e-07
1.28487e-06 4.33213e-07 -3.04108e-05
0.00111912 2.17883e-05 1.07468e-06
2.17883e-05 4.56389e-05 7.63414e-07
1.07468e-06 7.63414e-07 -1.13673e-05
0.00119246 2.47121e-05 6.39252e-07
2.47121e-05 4.75194e-05 6.78136e-07
6.39252e-07 6.78136e-07 -1.55918e-05
0.00107447 7.29869e-06 1.20093e-06
7.29869e-06 5.01111e-05 9.54416e-07
1.20093e-06 9.54416e-07 -4.19084e-06
0.001104 2.69285e-05 2.43165e-07
2.69285e-05 3.67517e-05 3.87352e-07
2.43165e-07 3.87352e-07 -2.36333e-05
0.00111197 2.59399e-05 7.47301e-07
2.59399e-05 6.63986e-05 3.99986e-08
7.47301e-07 3.99986e-08 2.36027e-06
0.00106838 2.89375e-05 2.79564e-07
2.89375e-05 2.67476e-05 -1.38285e-08
2.79564e-07 -1.38285e-08 -3.78117e-05
0.00100457 -3.95617e-06 1.20088e-06
-3.95617e-06 7.08332e-06 2.07186e-06
1.20088e-06 2.07186e-06 -2.58446e-05
0.000928074 -9.7673e-06 2.33996e-06
-9.7673e-06 -3.25986e-05 3.33144e-06
2.33996e-06 3.33144e-06 -3.68633e-05
0.00245483 -1.69481e-05 9.43376e-06
-1.69481e-05 0.000722115 4.01528e-06
9.43376e-06 4.01528e-06 0.000741622
0.00248858 -1.91288e-05 2.13065e-07
-1.91288e-05 0.000742204 -5.12805e-08
2.13065e-07 -5.12805e-08 0.000760953
0.00253625 -2.13583e-05 -1.05669e-05
-2.13583e-05 0.000769262 -3.82154e-06
-1.05669e-05 -3.82154e-06 0.000787167
0.000886835 1.31366e-05 3.17955e-06
1.31366e-05 -4.27225e-05 -3.18312e-06
3.17955e-06 -3.18312e-06 -4.99413e-05
0.00259043 2.34254e-05 1.11446e-05
2.34254e-05 0.000800664 -3.70714e-06
1.11446e-05 -3.70714e-06 0.000817311
0.000889824 1.43565e-05 -1.00029e-07
1.43565e-05 -3.77715e-05 -4.03876e-08
-1.00029e-07 -4.03876e-08 -4.59275e-05
0.00254058 2.55463e-05 -1.65822e-07
2.55463e-05 0.000782133 -6.79177e-08
-1.65822e-07 -6.79177e-08 0.00079798
0.000723653 -9.39041e-06 -5.05019e-06
-9.39041e-06 -6.76795e-05 -1.49307e-06
-5.05019e-06 -1.49307e-06 -9.9938e-05
0.000710258 -7.59542e-06 -5.05185e-06
-7.59542e-06 -6.21937e-05 -1.01284e-06
-5.05185e-06 -1.01284e-06 -9.91412e-05
0.00104468 3.09554e-06 -2.19794e-06
3.09554e-06 1.51257e-05 -6.42547e-07
-2.19794e-06 -6.42547e-07 -3.90889e-05
0.00107115 -8.61128e-06 -2.21885e-06
-8.61128e-06 2.34221e-05 -4.94391e-07
-2.21885e-06 -4.94391e-07 -3.40542e-05
0.000703923 -3.01114e-06 -5.34975e-06
-3.01114e-06 -6.49973e-05 -5.88377e-07
-5.34975e-06 -5.88377e-07 -0.000105341
0.00325954 8.25556e-06 -1.95586e-05
8.25556e-06 0.0012529 4.92284e-08
-1.95586e-05 4.92284e-08 0.00124408
0.000707887 1.85441e-06 -2.0373e-10
1.85441e-06 -6.58519e-05 -1.33837e-07
-2.0373e-10 -1.33837e-07 -0.000106185
0.00106349 -5.8255e-06 -1.31527e-08
-5.8255e-06 1.5476e-05 -1.22126e-07
-1.31527e-08 -1.22126e-07 -4.33301e-05
0.00104593 -3.86014e-06 -2.24291e-08
-3.86014e-06 1.43078e-05 -1.32586e-08
-2.24291e-08 -1.32586e-08 -4.14165e-05
0.00120581 -1.27852e-05 1.29024e-08
-1.27852e-05 4.87597e-05 -3.67637e-08
1.29024e-08 -3.67637e-08 -1.62201e-05
0.00102488 5.23961e-06 -2.88397e-08
5.23961e-06 8.0734e-06 -3.26339e-08
-2.88397e-08 -3.26339e-08 -4.4735e-05
0.00119711 6.4489e-06 -1.17682e-08
6.4489e-06 4.59103e-05 1.74529e-08
-1.17682e-08 1.74529e-08 -1.52598e-05
0.00106764 1.32684e-06 2.32306e-06
1.32684e-06 1.44454e-05 -1.69319e-07
2.32306e-06 -1.69319e-07 -4.44886e-05
0.00119713 -4.40933e-06 9.26476e-07
-4.40933e-06 4.37461e-05 7.25224e-08
9.26476e-07 7.25224e-08 -2.25151e-05
0.00119827 -2.57581e-06 1.09679e-06
-2.57581e-06 4.47862e-05 2.4886e-07
1.09679e-06 2.4886e-07 -1.82237e-05
0.00128823 -1.75365e-05 5.89322e-07
-1.75365e-05 7.06549e-05 -2.09063e-07
5.89322e-07 -2.09063e-07 3.58661e-06
0.00117677 1.11602e-05 9.92428e-07
1.11602e-05 3.89326e-05 2.8554e-07
9.92428e-07 2.8554e-07 -2.08912e-05
0.00125499 5.85492e-06 3.75646e-07
5.85492e-06 5.45867e-05 3.07829e-07
3.75646e-07 3.07829e-07 -8.72084e-06
0.000718878 1.61953e-05 -5.29794e-06
1.61953e-05 -6.2493e-05 3.30218e-07
-5.29794e-06 3.30218e-07 -0.000101952
0.0012902 1.43168e-05 -1.0913e-05
1.43168e-05 0.000206272 1.00526e-06
-1.0913e-05 1.00526e-06 0.000173171
0.000879849 1.50125e-05 -2.93491e-06
1.50125e-05 -8.30161e-05 3.45843e-07
-2.93491e-06 3.45843e-07 -0.00014156
0.00152308 -8.42556e-06 -2.92269e-06
-8.42556e-06 0.000230303 6.82477e-07
-2.92269e-06 6.82477e-07 0.000177013
0.00246696 2.75764e-05 -1.14336e-05
2.75764e-05 0.000754759 3.24028e-06
-1.14336e-05 3.24028e-06 0.000769483
0.00158532 2.17972e-05 -7.2606e-06
2.17972e-05 0.00032402 2.40848e-06
-7.2606e-06 2.40848e-06 0.000315024
0.00141121 4.43151e-06 -2.71777e-06
4.43151e-06 0.000229518 1.37483e-06
-2.71777e-06 1.37483e-06 0.000188803
0.00126538 -4.25745e-06 -2.80427e-06
-4.25745e-06 0.000128323 1.01807e-06
-2.80427e-06 1.01807e-06 7.79871e-05
0.0010715 -1.78454e-05 -1.59855e-06
-1.78454e-05 -2.49393e-05 8.56215e-07
-1.59855e-06 8.56215e-07 -8.76389e-05
0.00134731 -1.98909e-05 -1.00762e-06
-1.98909e-05 0.000136771 4.34886e-07
-1.00762e-06 4.34886e-07 7.9852e-05
0.000913849 -1.67033e-05 -1.13489e-06
-1.67033e-05 -4.04631e-05 7.09336e-07
-1.13489e-06 7.09336e-07 -9.92068e-05
0.00117492 -2.67129e-05 -5.9918e-07
-2.67129e-05 4.79269e-05 1.81835e-07
-5.9918e-07 1.81835e-07 -1.38637e-05
0.000894608 1.5811e-05 -4.1357e-06
1.5811e-05 -3.0658e-05 2.80747e-06
-4.1357e-06 2.80747e-06 -3.98268e-05
0.000986189 5.34689e-06 -2.39726e-06
5.34689e-06 6.31163e-06 1.76028e-06
-2.39726e-06 1.76028e-06 -3.13701e-05
0.000964433 1.40276e-05 4.8258e-08
1.40276e-05 -3.70004e-05 2.21273e-08
4.8258e-08 2.21273e-08 -9.58762e-05
0.0013192 1.35705e-06 -4.527e-07
1.35705e-06 0.000128519 7.82575e-08
-4.527e-07 7.82575e-08 7.35693e-05
0.00134769 1.59317e-05 -4.91978e-07
1.59317e-05 0.000102106 3.68357e-08
-4.91978e-07 3.68357e-08 3.78111e-05
0.00131493 -1.42306e-05 2.56899e-07
-1.42306e-05 8.16688e-05 -2.26496e-07
2.56899e-07 -2.26496e-07 1.84333e-05
0.000870037 1.71725e-05 -2.49142e-08
1.71725e-05 -3.63224e-05 -4.37089e-08
-2.49142e-08 -4.37089e-08 -4.66515e-05
0.000967516 6.39869e-06 1.00721e-08
6.39869e-06 1.11681e-05 1.66718e-08
1.00721e-08 1.66718e-08 -2.97895e-05
0.000955804 -1.49808e-05 3.4659e-07
-1.49808e-05 -7.73062e-06 -2.61348e-07
3.4659e-07 -2.61348e-07 -6.45316e-05
0.00133301 -1.99356e-05 -2.6626e-07
-1.99356e-05 0.00011902 8.0865e-08
-2.6626e-07 8.0865e-08 6.0698e-05
0.00127971 -1.91449e-05 -1.7947e-07
-1.91449e-05 5.48856e-05 3.09861e-07
-1.7947e-07 3.09861e-07 -9.73271e-06
0.00122092 -2.92096e-05 -3.22487e-07
-2.92096e-05 8.83101e-05 9.75504e-08
-3.22487e-07 9.75504e-08 2.4253e-05
0.00121194 -2.48852e-05 6.00196e-08
-2.48852e-05 5.0523e-05 8.24139e-08
6.00196e-08 8.24139e-08 -1.02488e-05
0.00119937 -2.89135e-05 2.6556e-07
-2.89135e-05 4.79896e-05 2.51269e-07
2.6556e-07 2.51269e-07 -1.42528e-05
0.000978194 5.99902e-06 -2.17337e-08
5.99902e-06 5.3546e-06 -4.04674e-08
-2.17337e-08 -4.04674e-08 -3.2772e-05
0.00099811 -9.9873e-06 -9.49728e-09
-9.9873e-06 6.7875e-06 -7.72627e-08
-9.49728e-09 -7.72627e-08 -4.94835e-05
0.000989181 4.46853e-06 -1.20992e-07
4.46853e-06 6.08405e-06 -2.50716e-08
-1.20992e-07 -2.50716e-08 -3.10303e-05
0.00141351 1.93851e-05 8.08919e-07
1.93851e-05 0.000142629 8.04509e-08
8.08919e-07 8.04509e-08 7.75828e-05
0.00134878 2.94259e-06 1.30526e-06
2.94259e-06 9.4131e-05 2.8673e-08
1.30526e-06 2.8673e-08 3.02773e-05
0.00134834 1.84274e-05 9.31274e-07
1.84274e-05 8.21921e-05 2.08129e-07
9.31274e-07 2.08129e-07 1.40377e-05
0.00133843 -9.14445e-06 4.75572e-07
-9.14445e-06 6.90684e-05 -5.48635e-07
4.75572e-07 -5.48635e-07 2.20905e-06
0.00115092 -2.2723e-05 3.55921e-07
-2.2723e-05 1.13289e-05 -4.51561e-07
3.55921e-07 -4.51561e-07 -5.01259e-05
0.00136405 -1.80614e-05 -4.82476e-07
-1.80614e-05 8.31201e-05 2.37169e-08
-4.82476e-07 2.37169e-08 2.04104e-05
0.00095543 7.53816e-06 2.51428e-06
7.53816e-06 1.61512e-07 -1.53049e-06
2.51428e-06 -1.53049e-06 -3.89678e-05
0.00122334 -2.62996e-05 -7.8686e-08
-2.62996e-05 4.57e-05 3.91863e-08
-7.8686e-08 3.91863e-08 -1.46445e-05
0.00104228 -1.26625e-05 1.03879e-06
-1.26625e-05 3.54289e-05 -5.98043e-07
1.03879e-06 -5.98043e-07 -1.93582e-05
0.000949006 -2.63895e-05 9.68141e-07
-2.63895e-05 -2.24121e-05 -1.22458e-06
9.68141e-07 -1.22458e-06 -8.6667e-05
0.00128906 -3.27476e-05 9.64499e-07
-3.27476e-05 0.000111279 8.80053e-08
9.64499e-07 8.80053e-08 4.37995e-05
0.00142142 -3.21977e-05 -3.81444e-07
-3.21977e-05 0.000148923 1.20076e-06
-3.81444e-07 1.20076e-06 8.94807e-05
0.000994885 3.91386e-06 1.74967e-06
3.91386e-06 7.54457e-06 -2.02824e-06
1.74967e-06 -2.02824e-06 -2.85281e-05
0.00105865 -1.00414e-05 1.44247e-06
-1.00414e-05 3.78299e-05 -7.46828e-07
1.44247e-06 -7.46828e-07 -1.70486e-05
0.000907232 -8.55605e-06 1.65964e-06
-8.55605e-06 -3.57535e-05 -1.55097e-06
1.65964e-06 -1.55097e-06 -9.38087e-05
0.00125787 -2.67019e-05 4.42323e-07
-2.67019e-05 0.000131918 8.03424e-08
4.42323e-07 8.03424e-08 6.83299e-05
0.00101787 7.62572e-06 -2.34697e-06
7.62572e-06 9.469e-06 -9.28756e-07
-2.34697e-06 -9.28756e-07 -4.20133e-05
0.00089119 -1.34982e-05 -3.24139e-06
-1.34982e-05 -4.14864e-05 -3.17625e-06
-3.24139e-06 -3.17625e-06 -4.77587e-05
0.000870468 -1.61517e-05 -3.97042e-06
-1.61517e-05 -4.26428e-05 -2.86919e-06
-3.97042e-06 -2.86919e-06 -5.05161e-05
0.000980957 -6.83852e-06 -2.30579e-06
-6.83852e-06 3.85317e-06 -1.81538e-06
-2.30579e-06 -1.81538e-06 -3.21465e-05
0.000965541 4.21136e-06 -2.23738e-06
4.21136e-06 5.12303e-06 -1.16602e-06
-2.23738e-06 -1.16602e-06 -4.29029e-05
0.00114044 2.11179e-05 -1.12556e-06
2.11179e-05 3.98774e-05 -6.55964e-07
-1.12556e-06 -6.55964e-07 -1.8827e-05
0.000957335 -1.06679e-05 -2.4748e-06
-1.06679e-05 2.15654e-06 -1.5986e-06
-2.4748e-06 -1.5986e-06 -3.58759e-05
0.00105489 1.19117e-05 -1.15358e-06
1.19117e-05 4.35018e-05 -9.34555e-07
-1.15358e-06 -9.34555e-07 -1.24166e-05
0.00110919 2.03468e-05 -1.01151e-06
2.03468e-05 5.10832e-05 -4.96646e-07
-1.01151e-06 -4.96646e-07 -4.11646e-06
0.00102012 2.59322e-05 -1.25214e-06
2.59322e-05 1.06669e-05 -2.37389e-07
-1.25214e-06 -2.37389e-07 -5.10865e-05
0.000911279 -1.22656e-05 9.21322e-08
-1.22656e-05 -3.47766e-05 -2.12703e-08
9.21322e-08 -2.12703e-08 -4.03904e-05
0.000979632 -8.55254e-06 3.21363e-08
-8.55254e-06 6.45169e-06 -2.47026e-08
3.21363e-08 -2.47026e-08 -2.99767e-05
0.000992088 -6.23725e-06 7.85827e-08
-6.23725e-06 6.99357e-06 -2.76575e-08
7.85827e-08 -2.76575e-08 -2.8598e-05
0.00105423 3.38318e-06 5.68553e-08
3.38318e-06 3.59743e-05 -5.4719e-08
5.68553e-08 -5.4719e-08 -1.78598e-05
0.00116715 1.59668e-05 2.06577e-07
1.59668e-05 3.9482e-05 7.98575e-08
2.06577e-07 7.98575e-08 -1.97732e-05
0.00110787 2.20083e-05 3.99493e-08
2.20083e-05 4.05709e-05 8.88314e-09
3.99493e-08 8.88314e-09 -1.64158e-05
0.00119579 2.47306e-05 -8.59977e-10
2.47306e-05 4.90712e-05 1.83517e-07
-8.59977e-10 1.83517e-07 -1.4073e-05
0.00105944 6.95149e-06 -7.28324e-08
6.95149e-06 4.37068e-05 2.10268e-08
-7.28324e-08 2.10268e-08 -1.06399e-05
0.00119581 2.78928e-05 -2.63119e-07
2.78928e-05 8.14515e-05 -2.77957e-07
-2.63119e-07 -2.77957e-07 2.14362e-05
0.00111868 2.64601e-05 1.18672e-07
2.64601e-05 6.92978e-05 -2.27243e-07
1.18672e-07 -2.27243e-07 5.06523e-06
0.00106938 2.8726e-05 -8.26452e-07
2.8726e-05 2.89296e-05 -5.80754e-08
-8.26452e-07 -5.80754e-08 -3.45933e-05
0.000928283 -1.10326e-05 2.71535e-06
-1.10326e-05 -2.94896e-05 3.27779e-06
2.71535e-06 3.27779e-06 -3.44424e-05
0.00100041 -5.40232e-06 1.93638e-06
-5.40232e-06 9.14722e-06 1.96131e-06
1.93638e-06 1.96131e-06 -2.58946e-05
0.0010657 6.12794e-06 1.39904e-06
6.12794e-06 4.1243e-05 7.9243e-07
1.39904e-06 7.9243e-07 -1.20865e-05
0.00105506 2.6573e-06 1.26798e-06
2.6573e-06 3.64113e-05 1.00886e-06
1.26798e-06 1.00886e-06 -1.77201e-05
0.00108607 1.71786e-05 8.90659e-07
1.71786e-05 5.0316e-05 2.00373e-07
8.90659e-07 2.00373e-07 -1.35243e-05
0.00119386 1.57361e-05 8.11574e-07
1.57361e-05 3.44943e-05 1.53946e-07
8.11574e-07 1.53946e-07 -2.78714e-05
0.00116557 2.77358e-05 5.49726e-07
2.77358e-05 5.42076e-05 7.53281e-07
5.49726e-07 7.53281e-07 -7.78515e-06
0.00123669 2.5719e-05 -6.48316e-08
2.5719e-05 6.20762e-05 5.87913e-07
-6.48316e-08 5.87913e-07 -2.85106e-06
0.00112496 2.36572e-05 1.18825e-06
2.36572e-05 7.24875e-05 1.1147e-06
1.18825e-06 1.1147e-06 8.72886e-06
0.00116343 3.04127e-05 7.79145e-07
3.04127e-05 5.98903e-05 4.86461e-07
7.79145e-07 4.86461e-07 -3.7245e-06
0.000925668 2.82095e-05 9.515e-07
2.82095e-05 -3.06023e-05 -1.4709e-07
9.515e-07 -1.4709e-07 -0.000101825
0.00100461 -3.97338e-06 1.49679e-06
-3.97338e-06 8.37328e-06 2.07695e-06
1.49679e-06 2.07695e-06 -2.53159e-05
0.00106251 6.21489e-06 7.06398e-07
6.21489e-06 4.00125e-05 1.2546e-06
7.06398e-07 1.2546e-06 -1.27468e-05
0.00100547 -3.54522e-06 9.40575e-07
-3.54522e-06 6.07808e-06 2.04093e-06
9.40575e-07 2.04093e-06 -2.62012e-05
0.00100532 -4.06143e-06 7.28644e-08
-4.06143e-06 7.34991e-06 4.86839e-09
7.28644e-08 4.86839e-09 -2.55449e-05
0.00156415 -1.00715e-05 1.89603e-06
-1.00715e-05 0.000277321 2.07808e-06
1.89603e-06 2.07808e-06 0.000276839
0.00124919 -1.05407e-05 3.76822e-07
-1.05407e-05 0.000125466 -2.704e-09
3.76822e-07 -2.704e-09 0.000122763
0.00119131 -1.16401e-05 8.67617e-06
-1.16401e-05 9.64658e-05 6.67842e-06
8.67617e-06 6.67842e-06 0.000110368
0.002476 -1.69835e-05 2.48847e-07
-1.69835e-05 0.0007323 -4.4872e-08
2.48847e-07 -4.4872e-08 0.000751757
0.0025185 -1.91837e-05 -9.89226e-06
-1.91837e-05 0.000756654 -3.93505e-06
-9.89226e-06 -3.93505e-06 0.000775323
0.000895797 1.21174e-05 2.77798e-06
1.21174e-05 -4.11474e-05 -3.21766e-06
2.77798e-06 -3.21766e-06 -4.75115e-05
0.00256509 2.12348e-05 1.05664e-05
2.12348e-05 0.00078428 -3.82646e-06
1.05664e-05 -3.82646e-06 0.000801755
0.000898791 1.31858e-05 -9.91767e-08
1.31858e-05 -3.6669e-05 -2.40123e-08
-9.91767e-08 -2.40123e-08 -4.39916e-05
0.00254528 2.33437e-05 -1.79282e-07
2.33437e-05 0.000778983 -6.36672e-08
-1.79282e-07 -6.36672e-08 0.000795736
0.000901326 1.44339e-05 -3.81838e-06
1.44339e-05 -3.1822e-05 2.99399e-06
-3.81838e-06 2.99399e-06 -4.0082e-05
0.00248307 2.54566e-05 -1.1314e-05
2.54566e-05 0.000754884 3.45461e-06
-1.1314e-05 3.45461e-06 0.000770821
0.0010384 5.94755e-06 -2.28603e-06
5.94755e-06 1.43697e-05 -7.53656e-07
-2.28603e-06 -7.53656e-07 -3.84578e-05
0.00105244 -3.56673e-06 -2.15735e-06
-3.56673e-06 1.72735e-05 -5.30755e-07
-2.15735e-06 -5.30755e-07 -3.84514e-05
0.00119694 4.42942e-06 -9.96024e-07
4.42942e-06 4.61737e-05 -2.9808e-07
-9.96024e-07 -2.9808e-07 -1.50393e-05
0.00122893 -1.37171e-05 -1.1296e-06
-1.37171e-05 5.94185e-05 -2.17251e-07
-1.1296e-06 -2.17251e-07 -5.62603e-06
0.00107412 -3.97011e-06 -2.31797e-06
-3.97011e-06 2.03835e-05 -3.73866e-07
-2.31797e-06 -3.73866e-07 -3.83926e-05
0.000703296 6.98861e-06 -5.3246e-06
6.98861e-06 -6.79268e-05 -7.84098e-08
-5.3246e-06 -7.84098e-08 -0.000108306
0.00106811 1.71566e-06 3.55797e-08
1.71566e-06 1.46198e-05 -9.71418e-08
3.55797e-08 -9.71418e-08 -4.43013e-05
0.00121141 -3.74634e-06 -3.99048e-08
-3.74634e-06 5.04888e-05 -3.01173e-08
-3.99048e-08 -3.01173e-08 -1.58088e-05
0.00120285 -6.1902e-06 3.76387e-08
-6.1902e-06 4.71074e-05 -3.41752e-08
3.76387e-08 -3.41752e-08 -1.59424e-05
0.00128756 -1.82007e-05 -3.65565e-08
-1.82007e-05 6.99858e-05 -5.50336e-08
-3.65565e-08 -5.50336e-08 2.92134e-06
0.00118332 1.1258e-05 -4.81072e-08
1.1258e-05 4.20682e-05 1.62683e-08
-4.81072e-08 1.62683e-08 -1.77982e-05
0.00125866 5.00367e-06 -3.48964e-10
5.00367e-06 5.67953e-05 9.07792e-08
-3.48964e-10 9.07792e-08 -6.52329e-06
0.00122334 7.23177e-06 1.20223e-06
7.23177e-06 5.38073e-05 -1.37999e-07
1.20223e-06 -1.37999e-07 -1.27924e-05
0.00124121 -7.93394e-06 2.93891e-07
-7.93394e-06 5.35709e-05 -6.96509e-08
2.93891e-07 -6.96509e-08 -1.41273e-05
0.00125564 -4.70692e-06 5.67089e-07
-4.70692e-06 5.24875e-05 9.00362e-09
5.67089e-07 9.00362e-09 -1.29442e-05
0.00135777 -2.08128e-05 9.18528e-07
-2.08128e-05 9.24247e-05 -2.67552e-07
9.18528e-07 -2.67552e-07 2.55785e-05
0.00123785 8.51149e-06 3.0378e-07
8.51149e-06 5.00822e-05 8.12032e-08
3.0378e-07 8.12032e-08 -1.19085e-05
0.00133723 -2.34235e-06 -5.97603e-07
-2.34235e-06 8.18747e-05 5.28655e-07
-5.97603e-07 5.28655e-07 2.14189e-05
0.0008858 1.43712e-05 -2.38679e-06
1.43712e-05 -7.55208e-05 1.70496e-07
-2.38679e-06 1.70496e-07 -0.000134945
0.00131343 -2.2909e-06 -2.99302e-06
-2.2909e-06 0.000125279 4.26132e-07
-2.99302e-06 4.26132e-07 7.04591e-05
0.00125726 2.06423e-05 -1.78915e-06
2.06423e-05 5.87618e-05 -4.25421e-08
-1.78915e-06 -4.25421e-08 -5.74563e-06
0.00148062 -1.54918e-05 -1.072e-06
-1.54918e-05 0.000162831 1.18022e-07
-1.072e-06 1.18022e-07 0.000100481
0.000890625 1.72937e-05 -4.35035e-06
1.72937e-05 -2.61219e-05 2.61932e-06
-4.35035e-06 2.61932e-06 -3.65731e-05
0.000987546 5.35602e-06 -2.33905e-06
5.35602e-06 1.95634e-05 1.39159e-06
-2.33905e-06 1.39159e-06 -2.1266e-05
0.00104907 -1.55727e-05 -6.95876e-07
-1.55727e-05 3.78929e-05 5.96979e-07
-6.95876e-07 5.96979e-07 -1.83771e-05
0.00139319 -2.03212e-05 -1.21103e-06
-2.03212e-05 0.000147221 5.69604e-07
-1.21103e-06 5.69604e-07 8.90069e-05
0.00117411 -1.7566e-05 -4.65479e-07
-1.7566e-05 3.40328e-06 7.67589e-07
-4.65479e-07 7.67589e-07 -6.12203e-05
0.00121082 -2.47788e-05 -3.87837e-07
-2.47788e-05 4.99265e-05 3.14248e-07
-3.87837e-07 3.14248e-07 -1.08032e-05
0.00104136 -2.71966e-05 -1.10034e-06
-2.71966e-05 2.5266e-06 6.89225e-07
-1.10034e-06 6.89225e-07 -6.21515e-05
0.0011358 -2.80774e-05 -6.52382e-08
-2.80774e-05 1.72287e-05 -1.87397e-07
-6.52382e-08 -1.87397e-07 -4.49895e-05
0.000986047 6.23107e-06 -2.47165e-06
6.23107e-06 9.10116e-06 1.56986e-06
-2.47165e-06 1.56986e-06 -2.89865e-05
0.000933355 -9.32408e-06 -1.47936e-06
-9.32408e-06 -2.59663e-05 8.16482e-07
-1.47936e-06 8.16482e-07 -8.25089e-05
0.000989735 4.85014e-06 -2.13677e-06
4.85014e-06 6.62425e-06 1.93532e-06
-2.13677e-06 1.93532e-06 -3.05116e-05
0.00129686 1.93149e-05 -4.48554e-07
1.93149e-05 8.64872e-05 1.01155e-07
-4.48554e-07 1.01155e-07 2.09517e-05
0.00134939 -2.7161e-06 -1.88451e-07
-2.7161e-06 9.42227e-05 2.67519e-08
-1.88451e-07 2.67519e-08 3.04522e-05
0.00128917 2.06053e-05 -3.17418e-07
2.06053e-05 5.21906e-05 -1.13679e-07
-3.17418e-07 -1.13679e-07 -1.65103e-05
0.00138268 -7.94572e-06 -1.45954e-08
-7.94572e-06 9.02848e-05 -2.58844e-07
-1.45954e-08 -2.58844e-07 2.36538e-05
0.000971121 7.1766e-06 1.15572e-08
7.1766e-06 7.13096e-06 -1.78438e-08
1.15572e-08 -1.78438e-08 -3.19143e-05
0.00106154 -1.25201e-05 6.94545e-08
-1.25201e-05 4.38923e-05 2.01783e-08
6.94545e-08 2.01783e-08 -1.08442e-05
0.00103893 -2.71878e-05 1.76048e-07
-2.71878e-05 2.21745e-05 -2.84961e-07
1.76048e-07 -2.84961e-07 -4.15914e-05
0.00126558 -2.3602e-05 -1.81166e-08
-2.3602e-05 6.66435e-05 -1.11093e-07
-1.81166e-08 -1.11093e-07 5.29769e-06
0.00129073 -1.77654e-05 1.71528e-07
-1.77654e-05 4.75371e-05 4.77436e-07
1.71528e-07 4.77436e-07 -1.45235e-05
0.00118458 -3.18196e-05 6.17227e-08
-3.18196e-05 6.23834e-05 1.07013e-07
6.17227e-08 1.07013e-07 -5.93062e-06
0.00123071 -2.59036e-05 4.70603e-08
-2.59036e-05 4.88599e-05 1.27065e-07
4.70603e-08 1.27065e-07 -1.13891e-05
0.00132536 -3.09789e-05 4.42629e-07
-3.09789e-05 0.000102463 3.72989e-07
4.42629e-07 3.72989e-07 4.37932e-05
0.00106302 -1.03745e-05 5.9085e-08
-1.03745e-05 3.91312e-05 -5.61594e-08
5.9085e-08 -5.61594e-08 -1.55759e-05
0.00114804 -2.54926e-05 -3.41261e-07
-2.54926e-05 7.7546e-05 1.92987e-07
-3.41261e-07 1.92987e-07 1.35206e-05
0.000991569 3.8406e-06 -7.79682e-08
3.8406e-06 6.237e-06 1.49025e-09
-7.79682e-08 1.49025e-09 -2.98834e-05
0.000912748 -8.42333e-06 3.8176e-07
-8.42333e-06 -3.35232e-05 -3.63946e-07
3.8176e-07 -3.63946e-07 -9.15744e-05
0.0013113 2.13223e-05 1.12119e-06
2.13223e-05 7.64716e-05 2.75699e-07
1.12119e-06 2.75699e-07 7.09237e-06
0.00148238 4.97296e-06 7.1235e-07
4.97296e-06 0.000129463 8.03511e-08
7.1235e-07 8.03511e-08 6.15335e-05
0.00122836 2.16756e-05 4.65304e-07
2.16756e-05 1.47724e-05 3.39019e-07
4.65304e-07 3.39019e-07 -5.65439e-05
0.00129461 -4.12347e-06 -2.43502e-07
-4.12347e-06 3.4473e-05 -9.70185e-07
-2.43502e-07 -9.70185e-07 -3.11116e-05
0.00122245 -2.31196e-05 -4.79418e-07
-2.31196e-05 3.42066e-05 -2.35774e-08
-4.79418e-07 -2.35774e-08 -2.54206e-05
0.00139054 -1.61678e-05 6.51525e-08
-1.61678e-05 8.31468e-05 -1.17681e-07
6.51525e-08 -1.17681e-07 2.50771e-05
0.00104959 -9.95397e-06 1.23573e-06
-9.95397e-06 3.63576e-05 -5.93128e-07
1.23573e-06 -5.93128e-07 -1.7871e-05
0.0012106 -2.57518e-05 -1.02452e-06
-2.57518e-05 3.25171e-05 4.26275e-07
-1.02452e-06 4.26275e-07 -2.25343e-05
0.00094657 -2.5334e-05 6.56129e-07
-2.5334e-05 -1.8073e-05 -8.13864e-07
6.56129e-07 -8.13864e-07 -7.98496e-05
0.00113845 -3.15111e-05 9.84996e-07
-3.15111e-05 6.56716e-05 -1.06821e-06
9.84996e-07 -1.06821e-06 -4.7539e-06
0.00123385 -3.4634e-05 1.23065e-06
-3.4634e-05 7.99237e-05 1.26874e-06
1.23065e-06 1.26874e-06 9.78931e-06
0.00145518 -3.27816e-05 2.06952e-07
-3.27816e-05 0.000155695 6.27481e-07
2.06952e-07 6.27481e-07 9.85732e-05
0.000996338 5.45191e-06 1.28187e-06
5.45191e-06 8.11485e-06 -2.02128e-06
1.28187e-06 -2.02128e-06 -2.7031e-05
0.000875323 -8.202e-06 1.47635e-06
-8.202e-06 -5.00905e-05 -1.84806e-06
1.47635e-06 -1.84806e-06 -0.000108282
0.00110861 -2.53551e-05 7.73504e-07
-2.53551e-05 5.56481e-05 -4.82625e-08
7.73504e-07 -4.82625e-08 -6.05042e-06
0.00115459 -2.48345e-05 9.26012e-07
-2.48345e-05 8.66806e-05 -2.30134e-07
9.26012e-07 -2.30134e-07 1.88977e-05
0.00123328 -2.99913e-05 4.54962e-07
-2.99913e-05 0.000114181 1.87892e-07
4.54962e-07 1.87892e-07 4.70213e-05
0.000900939 -1.22096e-05 -2.87298e-06
-1.22096e-05 -4.00215e-05 -3.26741e-06
-2.87298e-06 -3.26741e-06 -4.55508e-05
0.00118662 1.64316e-05 -9.12161e-07
1.64316e-05 4.84826e-05 -2.97923e-07
-9.12161e-07 -2.97923e-07 -1.08338e-05
0.000986963 -5.95421e-06 -2.08986e-06
-5.95421e-06 4.5119e-06 -1.94491e-06
-2.08986e-06 -1.94491e-06 -3.10801e-05
0.000970707 -8.48457e-06 -2.49018e-06
-8.48457e-06 2.29313e-06 -1.66149e-06
-2.49018e-06 -1.66149e-06 -3.41578e-05
0.00105202 2.91148e-06 -1.28955e-06
2.91148e-06 3.53347e-05 -9.74127e-07
-1.28955e-06 -9.74127e-07 -1.85961e-05
0.00109706 2.2269e-05 -1.03756e-06
2.2269e-05 3.57095e-05 -7.71045e-07
-1.03756e-06 -7.71045e-07 -2.12593e-05
0.00119899 2.47305e-05 -5.75864e-07
2.47305e-05 5.05725e-05 -2.96823e-07
-5.75864e-07 -2.96823e-07 -1.26058e-05
0.00104397 6.7708e-06 -1.22451e-06
6.7708e-06 3.70963e-05 -8.16363e-07
-1.22451e-06 -8.16363e-07 -1.72834e-05
0.00112784 2.69694e-05 -9.32593e-07
2.69694e-05 7.33464e-05 -7.78718e-07
-9.32593e-07 -7.78718e-07 8.91976e-06
0.00128612 2.88668e-05 -9.50692e-07
2.88668e-05 0.000125429 -6.99542e-07
-9.50692e-07 -6.99542e-07 6.57854e-05
0.00107297 2.85381e-05 -1.84393e-06
2.85381e-05 3.22951e-05 2.23055e-07
-1.84393e-06 2.23055e-07 -3.01889e-05
0.0009195 -1.09929e-05 9.63681e-08
-1.09929e-05 -3.38469e-05 -1.68867e-08
9.63681e-08 -1.68867e-08 -3.87369e-05
0.000997019 -5.00834e-06 5.77904e-08
-5.00834e-06 7.41759e-06 -1.74854e-08
5.77904e-08 -1.74854e-08 -2.7621e-05
0.00105926 5.14562e-06 -2.66162e-08
5.14562e-06 3.88959e-05 -2.14502e-08
-2.66162e-08 -2.14502e-08 -1.45283e-05
0.00105364 2.34118e-06 1.76151e-08
2.34118e-06 3.60844e-05 -2.35447e-08
1.76151e-08 -2.35447e-08 -1.81384e-05
0.00104929 1.6344e-05 6.21151e-08
1.6344e-05 3.22537e-05 -9.65567e-08
6.21151e-08 -9.65567e-08 -3.16689e-05
0.00122125 1.63173e-05 3.12924e-07
1.63173e-05 4.67952e-05 9.37604e-08
3.12924e-07 9.37604e-08 -1.56337e-05
0.00116046 2.7856e-05 7.32337e-08
2.7856e-05 5.20668e-05 4.1029e-09
7.32337e-08 4.1029e-09 -9.95246e-06
0.00121448 2.64331e-05 2.95423e-07
2.64331e-05 5.15398e-05 3.12074e-07
2.95423e-07 3.12074e-07 -1.36756e-05
0.00111161 2.42752e-05 3.46611e-07
2.42752e-05 6.65652e-05 3.27574e-07
3.46611e-07 3.27574e-07 2.81024e-06
0.00121188 3.06271e-05 1.19259e-07
3.06271e-05 8.3703e-05 -2.30529e-07
1.19259e-07 -2.30529e-07 2.03724e-05
0.00103422 2.94087e-05 -5.54288e-07
2.94087e-05 1.99243e-05 -3.49749e-07
-5.54288e-07 -3.49749e-07 -5.06041e-05
0.0010028 -4.24163e-06 1.76549e-06
-4.24163e-06 8.72663e-06 2.03201e-06
1.76549e-06 2.03201e-06 -2.56778e-05
0.00105787 3.69334e-06 1.21536e-06
3.69334e-06 3.74659e-05 1.11036e-06
1.21536e-06 1.11036e-06 -1.68282e-05
0.00105556 2.06873e-05 7.28236e-07
2.06873e-05 3.34993e-05 2.87217e-07
7.28236e-07 2.87217e-07 -2.95984e-05
0.00108943 1.37669e-05 7.42996e-07
1.37669e-05 5.42284e-05 3.69834e-07
7.42996e-07 3.69834e-07 -1.07661e-05
0.00118862 2.58424e-05 1.91757e-07
2.58424e-05 0.000100206 -2.34686e-07
1.91757e-07 -2.34686e-07 3.1589e-05
0.00120827 1.40156e-05 -3.96546e-07
1.40156e-05 3.1134e-05 -5.75123e-07
-3.96546e-07 -5.75123e-07 -3.08741e-05
0.00118785 3.12887e-05 6.08636e-07
3.12887e-05 5.92288e-05 6.75312e-07
6.08636e-07 6.75312e-07 -5.78191e-06
0.00107634 2.9786e-05 -3.0768e-07
2.9786e-05 -1.29411e-05 -1.23742e-07
-3.0768e-07 -1.23742e-07 -7.60512e-05
0.00111718 3.01569e-05 7.08238e-07
3.01569e-05 6.85286e-05 1.26596e-06
7.08238e-07 1.26596e-06 -3.27652e-06
0.00119613 3.33488e-05 1.57306e-06
3.33488e-05 8.2638e-05 2.12873e-07
1.57306e-06 2.12873e-07 9.12215e-06
0.00100271 -4.17241e-06 9.21433e-08
-4.17241e-06 7.30394e-06 5.13772e-10
9.21433e-08 5.13772e-10 -2.63439e-05
0.000892059 4.21382e-06 1.13741e-06
4.21382e-06 -4.39336e-05 1.73511e-06
1.13741e-06 1.73511e-06 -9.88948e-05
0.000971813 4.99364e-06 -1.48283e-08
4.99364e-06 -4.17398e-06 2.55177e-08
-1.48283e-08 2.55177e-08 -5.7609e-05
0.00125663 1.6417e-05 2.95801e-07
1.6417e-05 0.000143122 2.91926e-07
2.95801e-07 2.91926e-07 7.82349e-05
0.00106248 5.81921e-06 5.55335e-07
5.81921e-06 4.08457e-05 1.22824e-06
5.55335e-07 1.22824e-06 -1.12243e-05
0.00100815 -2.85461e-06 7.03326e-07
-2.85461e-06 5.98614e-06 2.00415e-06
7.03326e-07 2.00415e-06 -2.58525e-05
0.00100964 -3.60963e-06 6.43387e-08
-3.60963e-06 8.1209e-06 3.50988e-09
6.43387e-08 3.50988e-09 -2.41491e-05
0.00156443 -8.4293e-06 1.53251e-06
-8.4293e-06 0.000274305 2.07837e-06
1.53251e-06 2.07837e-06 0.000274455
0.00100644 -4.15767e-06 -1.03905e-06
-4.15767e-06 7.80386e-06 -2.0545e-06
-1.03905e-06 -2.0545e-06 -2.506e-05
0.00158211 -9.66708e-06 -1.42152e-06
-9.66708e-06 0.000286236 -1.29146e-06
-1.42152e-06 -1.29146e-06 0.000285694
0.0012117 -1.00157e-05 7.61248e-06
-1.00157e-05 0.000102241 6.75039e-06
7.61248e-06 6.75039e-06 0.000116816
0.00157184 -1.0813e-05 -4.41323e-06
-1.0813e-05 0.000284277 -3.283e-06
-4.41323e-06 -3.283e-06 0.000283152
0.00180533 -1.32737e-05 5.56356e-06
-1.32737e-05 0.000398578 2.45768e-06
5.56356e-06 2.45768e-06 0.000415711
0.00249638 -1.70221e-05 -9.06927e-06
-1.70221e-05 0.000742114 -4.03104e-06
-9.06927e-06 -4.03104e-06 0.000761524
0.00090573 1.12876e-05 2.29835e-06
1.12876e-05 -3.93196e-05 -3.2354e-06
2.29835e-06 -3.2354e-06 -4.46372e-05
0.000908314 1.21503e-05 -1.03938e-07
1.21503e-05 -3.50317e-05 -1.60289e-08
-1.03938e-07 -1.60289e-08 -4.14752e-05
0.00252671 1.9079e-05 9.80671e-06
1.9079e-05 0.000761563 -3.90944e-06
9.80671e-06 -3.90944e-06 0.000779921
0.00253459 2.11743e-05 -1.87348e-07
2.11743e-05 0.000769512 -5.63904e-08
-1.87348e-07 -5.63904e-08 0.000787067
0.00091094 1.32388e-05 -3.42364e-06
1.32388e-05 -3.05384e-05 3.13048e-06
-3.42364e-06 3.13048e-06 -3.79631e-05
0.00250034 2.3287e-05 -1.11176e-05
2.3287e-05 0.000757435 3.6523e-06
-1.11176e-05 3.6523e-06 0.000774286
0.00119066 1.14846e-05 -1.06571e-06
1.14846e-05 4.55752e-05 -2.64481e-07
-1.06571e-06 -2.64481e-07 -1.43354e-05
0.00120789 -6.28551e-06 -1.03613e-06
-6.28551e-06 4.95781e-05 -3.21155e-07
-1.03613e-06 -3.21155e-07 -1.34934e-05
0.00126078 5.11157e-06 -2.84971e-07
5.11157e-06 5.82431e-05 -1.2346e-07
-2.84971e-07 -1.2346e-07 -5.07311e-06
0.00128158 -1.88797e-05 -5.96386e-07
-1.88797e-05 6.68385e-05 9.9367e-08
-5.96386e-07 9.9367e-08 -2.24446e-07
0.00122933 -1.32304e-06 -1.05552e-06
-1.32304e-06 5.89416e-05 -1.32773e-07
-1.05552e-06 -1.32773e-07 -7.40777e-06
0.00106755 5.23343e-06 -2.27431e-06
5.23343e-06 1.42952e-05 -1.2076e-08
-2.27431e-06 -1.2076e-08 -4.45923e-05
0.00122295 1.097e-05 5.5863e-08
1.097e-05 5.38952e-05 -1.09169e-07
5.5863e-08 -1.09169e-07 -1.27144e-05
0.00124694 -1.43239e-05 -1.60397e-08
-1.43239e-05 5.6515e-05 -4.74623e-09
-1.60397e-08 -4.74623e-09 -1.13109e-05
0.00126642 -6.0131e-06 6.04025e-08
-6.0131e-06 5.77303e-05 -1.23952e-07
6.04025e-08 -1.23952e-07 -7.70326e-06
0.0013582 -2.1245e-05 2.38249e-08
-2.1245e-05 9.18906e-05 -1.78324e-07
2.38249e-08 -1.78324e-07 2.488e-05
0.00124059 9.07177e-06 -4.75149e-08
9.07177e-06 5.14843e-05 6.0185e-08
-4.75149e-08 6.0185e-08 -1.05928e-05
0.00131781 -2.52153e-06 -6.70987e-09
-2.52153e-06 7.20737e-05 4.11286e-07
-6.70987e-09 4.11286e-07 1.17313e-05
0.0013134 3.18696e-06 6.72043e-07
3.18696e-06 8.65566e-05 1.25553e-07
6.72043e-07 1.25553e-07 1.79576e-05
0.00121561 -7.0504e-06 4.62704e-07
-7.0504e-06 4.17228e-05 -4.66483e-07
4.62704e-07 -4.66483e-07 -2.60506e-05
0.0012022 -1.07433e-05 4.14993e-07
-1.07433e-05 1.21437e-05 6.57002e-07
4.14993e-07 6.57002e-07 -5.20146e-05
0.00149212 -2.50316e-05 5.69973e-07
-2.50316e-05 0.000153142 -2.22757e-07
5.69973e-07 -2.22757e-07 8.54949e-05
0.00121712 4.99045e-06 -5.60175e-07
4.99045e-06 2.66476e-05 -1.53021e-07
-5.60175e-07 -1.53021e-07 -3.29197e-05
0.00146309 -8.5811e-06 -3.03345e-07
-8.5811e-06 0.000130988 2.43382e-07
-3.03345e-07 2.43382e-07 7.40633e-05
0.00117286 1.87664e-05 -1.61661e-06
1.87664e-05 2.6919e-05 5.00144e-08
-1.61661e-06 5.00144e-08 -3.90991e-05
0.00134864 -5.01701e-06 -1.68382e-06
-5.01701e-06 9.37876e-05 1.34181e-07
-1.68382e-06 1.34181e-07 3.00283e-05
0.00123358 2.09093e-05 -1.2487e-06
2.09093e-05 2.38331e-05 -3.19468e-07
-1.2487e-06 -3.19468e-07 -4.5386e-05
0.00142471 -7.18642e-06 -6.40598e-07
-7.18642e-06 0.00011043 5.99423e-08
-6.40598e-07 5.99423e-08 4.4043e-05
0.000985642 6.76641e-06 -2.41318e-06
6.76641e-06 1.35685e-05 1.41716e-06
-2.41318e-06 1.41716e-06 -2.53965e-05
0.00108023 -1.25942e-05 -1.07449e-06
-1.25942e-05 5.20904e-05 7.53917e-07
-1.07449e-06 7.53917e-07 -2.60162e-06
0.00112125 -2.78744e-05 -4.45658e-07
-2.78744e-05 6.32671e-05 6.3413e-07
-4.45658e-07 6.3413e-07 -1.53264e-08
0.00138048 -2.44261e-05 -2.93001e-07
-2.44261e-05 0.000122076 2.39654e-07
-2.93001e-07 2.39654e-07 6.08403e-05
0.00121945 -1.74466e-05 4.04665e-07
-1.74466e-05 1.29161e-05 6.69815e-07
4.04665e-07 6.69815e-07 -4.84944e-05
0.00123915 -2.55265e-05 2.017e-07
-2.55265e-05 5.25233e-05 1.92621e-07
2.017e-07 1.92621e-07 -7.63072e-06
0.00108165 -3.09163e-05 -9.81937e-07
-3.09163e-05 1.42489e-05 3.7079e-07
-9.81937e-07 3.7079e-07 -5.49053e-05
0.00122714 -2.97587e-05 5.48221e-07
-2.97587e-05 5.49661e-05 -1.4358e-06
5.48221e-07 -1.4358e-06 -2.92581e-06
0.00106634 -1.0695e-05 -1.34986e-06
-1.0695e-05 3.99181e-05 6.4577e-07
-1.34986e-06 6.4577e-07 -1.46142e-05
0.00103835 -2.42893e-05 -1.32141e-06
-2.42893e-05 2.32482e-05 3.3409e-07
-1.32141e-06 3.3409e-07 -4.12155e-05
0.000988899 4.3535e-06 -1.84208e-06
4.3535e-06 5.23994e-06 2.009e-06
-1.84208e-06 2.009e-06 -3.09291e-05
0.000918424 -8.36523e-06 -9.55402e-07
-8.36523e-06 -3.11845e-05 8.17812e-07
-9.55402e-07 8.17812e-07 -8.92423e-05
0.00130275 2.15905e-05 -3.98268e-08
2.15905e-05 7.30102e-05 -2.7312e-08
-3.98268e-08 -2.7312e-08 3.74328e-06
0.00146036 6.7573e-06 -1.54605e-07
6.7573e-06 0.000119933 8.03334e-08
-1.54605e-07 8.03334e-08 5.2115e-05
0.00128848 2.23871e-05 -4.31734e-07
2.23871e-05 4.13343e-05 -1.82325e-07
-4.31734e-07 -1.82325e-07 -3.06058e-05
0.00134581 -4.76248e-06 -1.2697e-07
-4.76248e-06 5.91303e-05 -1.48676e-07
-1.2697e-07 -1.48676e-07 -6.39033e-06
0.00106078 -1.04113e-05 6.93613e-08
-1.04113e-05 4.08255e-05 -3.61335e-08
6.93613e-08 -3.61335e-08 -1.32818e-05
0.00101158 -2.54208e-05 2.22233e-07
-2.54208e-05 1.37126e-05 -1.26253e-07
2.22233e-07 -1.26253e-07 -4.76015e-05
0.00114766 -3.15962e-05 -3.46969e-09
-3.15962e-05 7.10746e-05 -1.03915e-07
-3.46969e-09 -1.03915e-07 4.6033e-07
0.00129437 -2.34139e-05 -2.34843e-07
-2.34139e-05 6.84678e-05 -5.04251e-08
-2.34843e-07 -5.04251e-08 8.39143e-06
0.00131737 -1.65294e-05 3.18118e-07
-1.65294e-05 5.17956e-05 4.18547e-07
3.18118e-07 4.18547e-07 -5.26747e-06
0.00124421 -3.46639e-05 -3.31946e-08
-3.46639e-05 8.61012e-05 3.65228e-07
-3.31946e-08 3.65228e-07 1.5378e-05
0.00122994 -2.55825e-05 1.56479e-08
-2.55825e-05 4.20233e-05 3.09904e-07
1.56479e-08 3.09904e-07 -1.3027e-05
0.00129226 -3.12924e-05 3.53872e-07
-3.12924e-05 7.75122e-05 -1.32379e-06
3.53872e-07 -1.32379e-06 2.22968e-05
0.00111571 -2.52634e-05 7.30666e-08
-2.52634e-05 5.89874e-05 -1.92245e-08
7.30666e-08 -1.92245e-08 -2.68588e-06
0.00117067 -2.93222e-05 -1.53848e-07
-2.93222e-05 8.2671e-05 7.84111e-08
-1.53848e-07 7.84111e-08 1.53798e-05
0.00115212 -2.51179e-05 -4.77389e-08
-2.51179e-05 8.54426e-05 2.16782e-07
-4.77389e-08 2.16782e-07 1.74798e-05
0.000851602 6.36728e-06 -2.24204e-07
6.36728e-06 -6.29529e-05 -1.59364e-08
-2.24204e-07 -1.59364e-08 -9.89761e-05
0.000892396 -7.77227e-06 3.4237e-07
-7.77227e-06 -4.21742e-05 -4.48036e-07
3.4237e-07 -4.48036e-07 -0.000100216
0.001332 2.59602e-05 5.21213e-07
2.59602e-05 8.04709e-05 6.36961e-07
5.21213e-07 6.36961e-07 9.39372e-06
0.00138028 1.7691e-05 4.77722e-07
1.7691e-05 6.67942e-05 3.88815e-07
4.77722e-07 3.88815e-07 -4.53485e-06
0.00135896 -5.66313e-06 -2.86192e-09
-5.66313e-06 5.44002e-05 -1.37447e-06
-2.86192e-09 -1.37447e-06 -6.35506e-06
0.00123831 -1.92625e-05 -4.82017e-07
-1.92625e-05 2.32472e-05 -4.0866e-07
-4.82017e-07 -4.0866e-07 -3.03886e-05
0.00110374 -2.59454e-05 6.06201e-07
-2.59454e-05 5.46194e-05 -1.34021e-07
6.06201e-07 -1.34021e-07 -5.63858e-06
0.00139427 -2.85828e-05 -2.68848e-07
-2.85828e-05 0.000102561 3.76671e-07
-2.68848e-07 3.76671e-07 5.47611e-05
0.000880458 -2.7039e-05 5.95576e-07
-2.7039e-05 -4.62219e-05 -1.29717e-06
5.95576e-07 -1.29717e-06 -0.000113544
0.00118879 -3.48352e-05 1.45253e-06
-3.48352e-05 8.70122e-05 -8.83397e-07
1.45253e-06 -8.83397e-07 9.3086e-06
0.0012864 -3.6349e-05 1.40928e-06
-3.6349e-05 9.33293e-05 1.41375e-06
1.40928e-06 1.41375e-06 2.23617e-05
0.000727226 8.45807e-06 1.07508e-06
8.45807e-06 -0.000125674 -2.68491e-06
1.07508e-06 -2.68491e-06 -0.000161295
0.00114449 -4.88341e-06 9.3731e-07
-4.88341e-06 8.32693e-05 -1.17167e-06
9.3731e-07 -1.17167e-06 2.80478e-05
0.00110998 -2.38329e-05 7.79026e-07
-2.38329e-05 6.98999e-05 -6.10668e-07
7.79026e-07 -6.10668e-07 -1.03426e-07
0.00113769 -2.87016e-05 5.4971e-07
-2.87016e-05 6.45934e-05 9.35943e-10
5.4971e-07 9.35943e-10 -1.81164e-07
0.00120602 -3.0323e-05 6.80951e-07
-3.0323e-05 0.00010591 7.59674e-08
6.80951e-07 7.59674e-08 3.15256e-05
0.00111955 -2.9869e-05 1.93135e-07
-2.9869e-05 5.32176e-05 4.6013e-09
1.93135e-07 4.6013e-09 -1.66993e-05
0.000910747 -1.09537e-05 -2.49833e-06
-1.09537e-05 -3.81915e-05 -3.31788e-06
-2.49833e-06 -3.31788e-06 -4.30185e-05
0.000994208 -4.95665e-06 -1.91183e-06
-4.95665e-06 5.95762e-06 -2.04278e-06
-1.91183e-06 -2.04278e-06 -2.90773e-05
0.00124948 1.69852e-05 -2.94913e-07
1.69852e-05 5.94618e-05 -5.85626e-09
-2.94913e-07 -5.85626e-09 -3.02854e-06
0.00105129 1.97853e-06 -1.25107e-06
1.97853e-06 3.53099e-05 -1.11012e-06
-1.25107e-06 -1.11012e-06 -1.90031e-05
0.00105062 4.15565e-06 -1.36964e-06
4.15565e-06 3.55015e-05 -8.08075e-07
-1.36964e-06 -8.08075e-07 -1.80131e-05
0.00101233 1.53914e-05 -6.43053e-07
1.53914e-05 1.4107e-05 -2.9781e-07
-6.43053e-07 -2.9781e-07 -4.98904e-05
0.00115495 2.79181e-05 -4.98882e-07
2.79181e-05 4.97348e-05 -7.76388e-07
-4.98882e-07 -7.76388e-07 -1.23087e-05
0.00119126 2.70575e-05 9.40841e-08
2.70575e-05 4.05048e-05 -8.46706e-08
9.40841e-08 -8.46706e-08 -2.49927e-05
0.00109097 2.48077e-05 -4.17511e-07
2.48077e-05 5.71201e-05 -3.96447e-07
-4.17511e-07 -3.96447e-07 -6.61718e-06
0.00113644 3.0514e-05 -1.12195e-06
3.0514e-05 6.74794e-05 -3.34846e-07
-1.12195e-06 -3.34846e-07 -2.35292e-06
0.00125758 3.08176e-05 -1.16749e-06
3.08176e-05 0.000106276 -6.02154e-07
-1.16749e-06 -6.02154e-07 4.32247e-05
0.00100058 -4.28203e-06 8.94044e-08
-4.28203e-06 7.55262e-06 -1.26761e-08
8.94044e-08 -1.26761e-08 -2.68372e-05
0.00105775 3.61556e-06 -2.16929e-08
3.61556e-06 3.75846e-05 -3.26519e-08
-2.16929e-08 -3.26519e-08 -1.67892e-05
0.00107768 2.1338e-05 -8.75153e-08
2.1338e-05 4.491e-05 -1.07564e-07
-8.75153e-08 -1.07564e-07 -1.77451e-05
0.00109562 1.48297e-05 -6.81465e-08
1.48297e-05 5.75134e-05 -1.87188e-08
-6.81465e-08 -1.87188e-08 -7.6632e-06
0.00112197 2.54466e-05 -2.79438e-07
2.54466e-05 6.78388e-05 -7.4557e-08
-2.79438e-07 -7.4557e-08 -1.19449e-06
0.00123628 1.52739e-05 -2.79224e-07
1.52739e-05 4.52618e-05 -2.5843e-07
-2.79224e-07 -2.5843e-07 -1.70637e-05
0.00118338 3.11126e-05 3.98203e-07
3.11126e-05 5.61833e-05 -1.09413e-08
3.98203e-07 -1.09413e-08 -8.93487e-06
0.0011484 2.96432e-05 1.01627e-07
2.96432e-05 2.03195e-05 3.19044e-07
1.01627e-07 3.19044e-07 -4.2319e-05
0.00103416 2.9242e-05 3.30311e-07
2.9242e-05 2.88189e-05 4.84776e-07
3.30311e-07 4.84776e-07 -4.33226e-05
0.00121464 3.36834e-05 7.31693e-09
3.36834e-05 9.16302e-05 -9.12041e-08
7.31693e-09 -9.12041e-08 1.71503e-05
0.00106417 5.45243e-06 1.19766e-06
5.45243e-06 4.0071e-05 1.22571e-06
1.19766e-06 1.22571e-06 -1.42082e-05
0.000958147 1.55201e-05 1.18524e-06
1.55201e-05 -9.10972e-06 8.05673e-07
1.18524e-06 8.05673e-07 -7.65009e-05
0.00111696 2.97823e-05 1.33289e-07
2.97823e-05 6.35922e-05 2.58635e-07
1.33289e-07 2.58635e-07 -6.07782e-06
0.00101214 2.42517e-05 5.3205e-07
2.42517e-05 1.47393e-05 -4.16766e-08
5.3205e-07 -4.16766e-08 -5.6966e-05
0.00117352 2.90953e-05 -4.20155e-08
2.90953e-05 8.79985e-05 -2.42579e-07
-4.20155e-08 -2.42579e-07 1.5877e-05
0.0012334 1.76088e-05 -4.53499e-07
1.76088e-05 2.31344e-05 -4.99926e-07
-4.53499e-07 -4.99926e-07 -2.80922e-05
0.00127255 3.58628e-05 7.79939e-07
3.58628e-05 9.99336e-05 -2.73313e-08
7.79939e-07 -2.73313e-08 2.85475e-05
0.000754668 3.02788e-05 6.19486e-07
3.02788e-05 -0.000180199 1.49992e-07
6.19486e-07 1.49992e-07 -0.000243024
0.00135525 3.47479e-05 1.47137e-06
3.47479e-05 0.000177219 1.6809e-06
1.47137e-06 1.6809e-06 9.9834e-05
0.000821068 3.23974e-05 5.49197e-07
3.23974e-05 -9.94292e-05 4.77573e-07
5.49197e-07 4.77573e-07 -0.000182522
0.00100102 -4.23545e-06 -1.31434e-06
-4.23545e-06 6.32901e-06 -2.09552e-06
-1.31434e-06 -2.09552e-06 -2.72767e-05
0.00097527 4.50277e-06 3.18397e-07
4.50277e-06 -2.8396e-06 4.34172e-07
3.18397e-07 4.34172e-07 -5.73197e-05
0.00096882 1.49049e-05 7.61989e-07
1.49049e-05 8.58624e-07 1.06759e-06
7.61989e-07 1.06759e-06 -6.69433e-05
0.000880901 2.32187e-06 -6.38943e-07
2.32187e-06 -4.84525e-05 -1.29871e-06
-6.38943e-07 -1.29871e-06 -0.00010256
0.00105759 6.85849e-06 6.02988e-08
6.85849e-06 3.85861e-05 2.62294e-08
6.02988e-08 2.62294e-08 -1.34989e-05
0.00110932 1.43419e-05 -2.07521e-07
1.43419e-05 7.08021e-05 -4.48993e-07
-2.07521e-07 -4.48993e-07 4.9527e-06
0.00121541 2.1909e-05 2.25431e-07
2.1909e-05 0.000126352 2.07036e-07
2.25431e-07 2.07036e-07 5.21397e-05
0.000952162 8.56497e-06 4.38212e-07
8.56497e-06 -5.96665e-06 1.13716e-06
4.38212e-07 1.13716e-06 -7.22462e-05
0.00105124 3.86454e-06 4.07731e-07
3.86454e-06 3.6789e-05 1.19627e-06
4.07731e-07 1.19627e-06 -1.47024e-05
0.00101374 -1.77682e-06 4.76314e-07
-1.77682e-06 7.67671e-06 1.9586e-06
4.76314e-07 1.9586e-06 -2.39786e-05
0.00101552 -2.92848e-06 5.83639e-08
-2.92848e-06 9.7124e-06 1.41061e-09
5.83639e-08 1.41061e-09 -2.21553e-05
0.00156423 -6.68146e-06 1.16612e-06
-6.68146e-06 0.000271161 2.07929e-06
1.16612e-06 2.07929e-06 0.000271878
0.00101379 -3.67787e-06 -7.92973e-07
-3.67787e-06 1.01668e-05 -1.99426e-06
-7.92973e-07 -1.99426e-06 -2.20952e-05
0.00158017 -8.06413e-06 -1.19816e-06
-8.06413e-06 0.000282182 -1.29889e-06
-1.19816e-06 -1.29889e-06 0.00028226
0.00121481 -8.35372e-06 6.34424e-06
-8.35372e-06 9.96996e-05 6.80787e-06
6.34424e-06 6.80787e-06 0.000114971
0.00159961 -9.3518e-06 -4.2887e-06
-9.3518e-06 0.000294932 -4.61973e-06
-4.2887e-06 -4.61973e-06 0.000294327
0.00115727 -1.03236e-05 2.50346e-06
-1.03236e-05 7.54624e-05 2.5634e-06
2.50346e-06 2.5634e-06 9.0261e-05
0.00241584 -1.59181e-05 -3.29994e-06
-1.59181e-05 0.000698992 -1.67969e-06
-3.29994e-06 -1.67969e-06 0.000719324
0.000914386 1.02946e-05 1.92232e-06
1.02946e-05 -3.90811e-05 -3.21586e-06
1.92232e-06 -3.21586e-06 -4.30327e-05
0.000920351 1.1289e-05 -1.41917e-07
1.1289e-05 -3.23716e-05 -2.73032e-09
-1.41917e-07 -2.73032e-09 -3.77501e-05
0.00247452 1.69799e-05 8.74011e-06
1.69799e-05 0.000731636 -3.95149e-06
8.74011e-06 -3.95149e-06 0.000751047
0.000920898 1.21817e-05 -3.03063e-06
1.21817e-05 -2.88858e-05 3.18815e-06
-3.03063e-06 3.18815e-06 -3.54085e-05
0.00250996 1.90353e-05 -2.12733e-07
1.90353e-05 0.000753532 -5.05473e-08
-2.12733e-07 -5.05473e-08 0.000771908
0.00250352 2.11277e-05 -1.07329e-05
2.11277e-05 0.000754504 3.8062e-06
-1.07329e-05 3.8062e-06 0.000772135
0.00124344 9.58793e-06 -4.94051e-07
9.58793e-06 5.29482e-05 -9.45231e-09
-4.94051e-07 -9.45231e-09 -9.21611e-06
0.00128092 -8.16565e-06 -3.83343e-07
-8.16565e-06 6.47457e-05 -2.52258e-07
-3.83343e-07 -2.52258e-07 -7.00444e-07
0.00129555 -2.68011e-06 7.4858e-07
-2.68011e-06 6.07968e-05 -8.97723e-08
7.4858e-07 -8.97723e-08 5.87952e-07
0.00135701 -2.17586e-05 -7.01932e-07
-2.17586e-05 9.06578e-05 3.15884e-07
-7.01932e-07 3.15884e-07 2.3474e-05
0.00125267 -1.81039e-05 -3.74471e-07
-1.81039e-05 5.94501e-05 1.32858e-07
-3.74471e-07 1.32858e-07 -8.49977e-06
0.00122022 1.3427e-05 -9.64861e-07
1.3427e-05 5.28886e-05 -6.88591e-08
-9.64861e-07 -6.88591e-08 -1.37274e-05
0.00128085 6.3756e-06 2.41558e-08
6.3756e-06 7.15177e-05 6.99231e-08
2.41558e-08 6.99231e-08 2.76592e-06
0.00123454 -1.02206e-05 2.21281e-07
-1.02206e-05 5.00312e-05 3.07483e-08
2.21281e-07 3.07483e-08 -1.76199e-05
0.00123397 -1.16419e-05 1.25849e-09
-1.16419e-05 2.58876e-05 5.66579e-09
1.25849e-09 5.66579e-09 -3.85804e-05
0.00137974 -2.45246e-05 -3.72684e-07
-2.45246e-05 9.95396e-05 1.15961e-08
-3.72684e-07 1.15961e-08 3.10748e-05
0.00123761 4.95597e-06 -2.23261e-07
4.95597e-06 3.78602e-05 1.41362e-07
-2.23261e-07 1.41362e-07 -2.18765e-05
0.00135199 -7.54905e-06 9.9541e-07
-7.54905e-06 7.80408e-05 -4.12425e-07
9.9541e-07 -4.12425e-07 2.2202e-05
0.00123904 1.1896e-05 -8.91211e-09
1.1896e-05 5.61223e-05 3.55964e-07
-8.91211e-09 3.55964e-07 -1.14695e-05
0.00122282 -1.71686e-05 5.37827e-07
-1.71686e-05 4.68798e-05 -6.69586e-07
5.37827e-07 -6.69586e-07 -2.1007e-05
0.0012994 -1.86738e-05 -2.47879e-07
-1.86738e-05 5.3705e-05 8.1127e-07
-2.47879e-07 8.1127e-07 -1.0273e-05
0.00136035 2.54398e-06 -7.2299e-07
2.54398e-06 7.88986e-05 5.12702e-08
-7.2299e-07 5.12702e-08 2.93064e-05
0.00129412 2.18328e-05 -6.80222e-07
2.18328e-05 6.95116e-05 -3.34421e-07
-6.80222e-07 -3.34421e-07 3.581e-07
0.00143855 6.89896e-06 -1.27951e-06
6.89896e-06 0.000110434 6.60656e-08
-1.27951e-06 6.60656e-08 4.27578e-05
0.00133005 2.29108e-05 -1.43548e-06
2.29108e-05 5.92883e-05 -5.20636e-07
-1.43548e-06 -5.20636e-07 -1.32855e-05
0.00139675 -5.02634e-06 -3.78245e-08
-5.02634e-06 8.36779e-05 3.83388e-07
-3.78245e-08 3.83388e-07 1.82112e-05
0.00107043 -1.05908e-05 -1.1875e-06
-1.05908e-05 4.45659e-05 5.90469e-07
-1.1875e-06 5.90469e-07 -9.40832e-06
0.001086 -2.56095e-05 -2.05488e-07
-2.56095e-05 4.98398e-05 4.18568e-07
-2.05488e-07 4.18568e-07 -1.10055e-05
0.00115568 -3.16709e-05 -7.29502e-07
-3.16709e-05 7.59381e-05 1.21431e-06
-7.29502e-07 1.21431e-06 5.13307e-06
0.0013649 -2.36868e-05 5.6421e-08
-2.36868e-05 0.000102046 1.51855e-07
5.6421e-08 1.51855e-07 4.15255e-05
0.00123953 -1.69339e-05 5.69682e-07
-1.69339e-05 1.82174e-05 1.11902e-06
5.69682e-07 1.11902e-06 -3.78341e-05
0.00124874 -2.53834e-05 8.16702e-07
-2.53834e-05 5.12851e-05 2.28254e-07
8.16702e-07 2.28254e-07 -3.76384e-06
0.00125543 -3.46915e-05 -1.09821e-06
-3.46915e-05 9.2644e-05 -2.16744e-07
-1.09821e-06 -2.16744e-07 2.13367e-05
0.0011453 -2.99246e-05 -7.78595e-07
-2.99246e-05 7.01471e-06 -3.61008e-06
-7.78595e-07 -3.61008e-06 -4.63311e-05
0.00112281 -2.52936e-05 -7.22371e-07
-2.52936e-05 6.23157e-05 9.43261e-08
-7.22371e-07 9.43261e-08 6.64845e-07
0.00110877 -2.86636e-05 -1.07084e-06
-2.86636e-05 5.14579e-05 -2.93822e-08
-1.07084e-06 -2.93822e-08 -1.59608e-05
0.00114943 -2.52687e-05 -1.05422e-06
-2.52687e-05 8.40982e-05 6.5349e-07
-1.05422e-06 6.5349e-07 1.59614e-05
0.000707475 5.47191e-06 -1.56461e-06
5.47191e-06 -0.000133737 2.00352e-06
-1.56461e-06 2.00352e-06 -0.000170622
0.000910931 -7.24658e-06 -7.01848e-07
-7.24658e-06 -3.35617e-05 9.17704e-07
-7.01848e-07 9.17704e-07 -9.14478e-05
0.00129951 2.52389e-05 2.20423e-07
2.52389e-05 6.21558e-05 -3.69953e-07
2.20423e-07 -3.69953e-07 -9.31072e-06
0.00141965 1.73242e-05 -2.18374e-07
1.73242e-05 8.81124e-05 3.24553e-07
-2.18374e-07 3.24553e-07 1.73257e-05
0.00139582 -5.42607e-06 -2.53625e-07
-5.42607e-06 7.48259e-05 1.81625e-07
-2.53625e-07 1.81625e-07 1.41203e-05
0.00112012 -2.55716e-05 5.68179e-08
-2.55716e-05 6.21036e-05 4.37295e-08
5.68179e-08 4.37295e-08 1.85847e-06
0.00106011 -2.90326e-05 2.85632e-07
-2.90326e-05 3.89117e-05 -2.35756e-07
2.85632e-07 -2.35756e-07 -2.76766e-05
0.00116868 -3.45741e-05 -5.21129e-08
-3.45741e-05 7.94916e-05 -2.08083e-08
-5.21129e-08 -2.08083e-08 1.34628e-06
0.00128239 -1.93788e-05 6.09325e-08
-1.93788e-05 4.37838e-05 -2.05995e-07
6.09325e-08 -2.05995e-07 -1.04891e-05
0.00125932 -3.5141e-05 -9.0863e-08
-3.5141e-05 8.14325e-05 -5.18083e-07
-9.0863e-08 -5.18083e-07 1.23794e-05
0.0012729 -2.90228e-05 -3.31765e-07
-2.90228e-05 4.66611e-05 -4.55917e-07
-3.31765e-07 -4.55917e-07 -1.68639e-06
0.000717131 8.00586e-06 1.35274e-07
8.00586e-06 -0.000130352 -6.55183e-07
1.35274e-07 -6.55183e-07 -0.00016574
0.00114637 -2.88357e-05 1.21271e-08
-2.88357e-05 6.90652e-05 1.69242e-08
1.21271e-08 1.69242e-08 4.17445e-06
0.00111679 -2.9809e-05 -7.09165e-07
-2.9809e-05 5.12881e-05 6.01564e-08
-7.09165e-07 6.01564e-08 -1.81158e-05
0.00120808 -3.0176e-05 -3.96054e-07
-3.0176e-05 0.000107207 1.83837e-07
-3.96054e-07 1.83837e-07 3.33557e-05
0.00119514 -2.48209e-05 -1.19169e-07
-2.48209e-05 0.000111504 1.22007e-07
-1.19169e-07 1.22007e-07 4.1718e-05
0.00101596 -6.38446e-06 5.62664e-08
-6.38446e-06 1.93883e-05 2.06296e-07
5.62664e-08 2.06296e-07 -3.66519e-05
0.00145046 2.70877e-05 2.35216e-07
2.70877e-05 0.00012533 1.67362e-06
2.35216e-07 1.67362e-06 5.37082e-05
0.00142511 1.78013e-05 4.3331e-07
1.78013e-05 8.20326e-05 -1.56492e-08
4.3331e-07 -1.56492e-08 1.19255e-05
0.00127403 -8.83668e-06 -1.85102e-07
-8.83668e-06 8.04142e-06 -1.69079e-06
-1.85102e-07 -1.69079e-06 -4.56489e-05
0.00140751 -2.38375e-05 -3.3327e-07
-2.38375e-05 7.69283e-05 -5.45279e-07
-3.3327e-07 -5.45279e-07 3.37337e-05
0.00112905 -2.89822e-05 5.35999e-07
-2.89822e-05 6.41482e-05 -2.43245e-07
5.35999e-07 -2.43245e-07 -1.41905e-07
0.0013257 -3.53609e-05 1.46181e-06
-3.53609e-05 7.90405e-05 1.7758e-06
1.46181e-06 1.7758e-06 2.01891e-05
0.000952685 -3.04975e-05 6.04233e-07
-3.04975e-05 -1.06302e-05 -1.6008e-06
6.04233e-07 -1.6008e-06 -8.61608e-05
0.00134691 -3.86968e-05 1.22788e-06
-3.86968e-05 0.000159942 2.66491e-08
1.22788e-06 2.66491e-08 7.66472e-05
0.000719485 6.67109e-06 8.53161e-07
6.67109e-06 -0.000131571 -2.51763e-06
8.53161e-07 -2.51763e-06 -0.000164823
0.00115761 -3.11511e-06 8.2665e-07
-3.11511e-06 8.93058e-05 -1.23434e-06
8.2665e-07 -1.23434e-06 3.52558e-05
0.00126915 -2.36954e-05 -1.49429e-08
-2.36954e-05 0.000150087 3.00764e-08
-1.49429e-08 3.00764e-08 8.13746e-05
0.00111216 -2.82862e-05 8.5246e-07
-2.82862e-05 6.95287e-05 -8.98951e-07
8.5246e-07 -8.98951e-07 -1.01968e-05
0.00108853 -2.98839e-05 3.07994e-07
-2.98839e-05 3.79369e-05 -2.17061e-07
3.07994e-07 -2.17061e-07 -3.07378e-05
0.00114924 -3.12387e-05 9.13106e-07
-3.12387e-05 6.98569e-05 2.45582e-07
9.13106e-07 2.45582e-07 -5.8914e-06
0.00099863 -4.12381e-06 -1.63598e-06
-4.12381e-06 6.49547e-06 -2.10221e-06
-1.63598e-06 -2.10221e-06 -2.78782e-05
0.00105836 3.57608e-06 -1.25471e-06
3.57608e-06 3.80683e-05 -1.20512e-06
-1.25471e-06 -1.20512e-06 -1.63868e-05
0.0012654 1.65995e-05 -2.44053e-08
1.65995e-05 5.99613e-05 6.01524e-08
-2.44053e-08 6.01524e-08 -2.68978e-06
0.00110193 1.52044e-05 -9.41433e-07
1.52044e-05 6.08503e-05 -4.70464e-07
-9.41433e-07 -4.70464e-07 -4.48809e-06
0.00110454 2.20909e-05 -6.8247e-07
2.20909e-05 5.86443e-05 -3.43715e-07
-6.8247e-07 -3.43715e-07 -3.5816e-06
0.00105958 2.51817e-05 -6.61753e-07
2.51817e-05 3.75703e-05 -2.00784e-07
-6.61753e-07 -2.00784e-07 -3.18957e-05
0.00118105 3.09675e-05 -4.70891e-07
3.09675e-05 5.41259e-05 -8.11012e-07
-4.70891e-07 -8.11012e-07 -1.10992e-05
0.00122242 2.95861e-05 6.8241e-08
2.95861e-05 5.43822e-05 2.00164e-07
6.8241e-08 2.00164e-07 -7.77291e-06
0.000953375 2.83662e-05 -3.5019e-07
2.83662e-05 -9.7962e-06 -3.75849e-07
-3.5019e-07 -3.75849e-07 -8.22802e-05
0.00124477 3.41616e-05 -9.67628e-07
3.41616e-05 0.000106282 -4.83221e-07
-9.67628e-07 -4.83221e-07 3.08122e-05
0.00106074 5.30531e-06 4.8118e-08
5.30531e-06 3.87237e-05 -3.81185e-08
4.8118e-08 -3.81185e-08 -1.5609e-05
0.00104108 1.68931e-05 3.58502e-07
1.68931e-05 3.15728e-05 2.56804e-07
3.58502e-07 2.56804e-07 -3.55097e-05
0.001166 3.02757e-05 -1.49643e-07
3.02757e-05 8.81853e-05 -3.34583e-07
-1.49643e-07 -3.34583e-07 1.9136e-05
0.00107031 2.42172e-05 -3.04558e-07
2.42172e-05 4.40587e-05 1.49391e-08
-3.04558e-07 1.49391e-08 -2.71766e-05
0.00112956 2.86844e-05 -5.91164e-07
2.86844e-05 6.85951e-05 -3.41333e-07
-5.91164e-07 -3.41333e-07 -3.16318e-06
0.0014039 1.75932e-05 -3.57054e-07
1.75932e-05 0.000105109 -3.96272e-07
-3.57054e-07 -3.96272e-07 5.4334e-05
0.00131581 3.62502e-05 4.87446e-07
3.62502e-05 0.000118582 -4.92362e-08
4.87446e-07 -4.92362e-08 4.78157e-05
0.000986568 3.16064e-05 -5.0951e-07
3.16064e-05 -6.2503e-05 7.50766e-07
-5.0951e-07 7.50766e-07 -0.000124008
0.00124409 3.35862e-05 6.78361e-07
3.35862e-05 0.000124499 5.80449e-07
6.78361e-07 5.80449e-07 4.64595e-05
0.00100178 3.41842e-05 -1.0511e-06
3.41842e-05 -1.1968e-05 -1.62652e-07
-1.0511e-06 -1.62652e-07 -9.58266e-05
0.000971859 1.8335e-05 1.05115e-06
1.8335e-05 -3.65779e-08 1.0643e-06
1.05115e-06 1.0643e-06 -6.84204e-05
0.00101839 2.77741e-05 7.41277e-07
2.77741e-05 2.12068e-05 1.29775e-07
7.41277e-07 1.29775e-07 -5.55437e-05
0.00116616 3.17666e-05 2.42633e-07
3.17666e-05 8.61664e-05 5.01664e-07
2.42633e-07 5.01664e-07 1.07161e-05
0.000996155 2.87807e-05 9.55609e-07
2.87807e-05 3.25083e-06 -5.16275e-08
9.55609e-07 -5.16275e-08 -7.28401e-05
0.00162917 9.8356e-06 1.19965e-07
9.8356e-06 0.000165434 -1.00188e-09
1.19965e-07 -1.00188e-09 0.000122792
0.00115727 2.99856e-05 1.70181e-06
2.99856e-05 -3.21876e-05 -6.08407e-08
1.70181e-06 -6.08407e-08 -8.10652e-05
0.00122689 3.94598e-05 1.60575e-06
3.94598e-05 7.19113e-05 -5.12236e-07
1.60575e-06 -5.12236e-07 -9.05422e-06
0.000956699 3.34549e-05 8.80999e-07
3.34549e-05 -1.37421e-05 1.18352e-06
8.80999e-07 1.18352e-06 -0.00010485
0.00105924 4.97203e-06 -5.23056e-07
4.97203e-06 3.86087e-05 -8.63264e-07
-5.23056e-07 -8.63264e-07 -1.53901e-05
0.00106145 1.58515e-05 2.07733e-07
1.58515e-05 4.63615e-05 3.32045e-07
2.07733e-07 3.32045e-07 -2.09441e-05
0.00114078 2.46195e-05 3.92198e-07
2.46195e-05 8.93331e-05 4.28231e-07
3.92198e-07 4.28231e-07 1.37707e-05
0.00105418 7.32599e-06 -4.69293e-07
7.32599e-06 3.70405e-05 -1.2686e-06
-4.69293e-07 -1.2686e-06 -1.50535e-05
0.000962029 1.2563e-05 -5.98927e-07
1.2563e-05 -1.48235e-06 -1.22798e-06
-5.98927e-07 -1.22798e-06 -6.83053e-05
0.00105292 4.15299e-06 7.6754e-08
4.15299e-06 3.76193e-05 3.17967e-08
7.6754e-08 3.17967e-08 -1.38845e-05
0.00111743 1.96245e-05 -1.18318e-07
1.96245e-05 7.80277e-05 -3.51231e-07
-1.18318e-07 -3.51231e-07 3.08907e-06
0.00102242 1.05798e-05 1.68632e-07
1.05798e-05 2.86642e-05 3.38858e-07
1.68632e-07 3.38858e-07 -3.73132e-05
0.00119536 2.37292e-05 3.99384e-07
2.37292e-05 0.000115317 3.56574e-07
3.99384e-07 3.56574e-07 3.45362e-05
0.000993305 4.78479e-06 4.53365e-07
4.78479e-06 1.70107e-05 9.36175e-07
4.53365e-07 9.36175e-07 -5.83742e-05
0.000950699 1.80979e-05 5.4508e-07
1.80979e-05 -6.62879e-06 1.18467e-06
5.4508e-07 1.18467e-06 -7.29172e-05
0.00104254 -6.93913e-07 2.71832e-07
-6.93913e-07 3.3989e-05 1.18012e-06
2.71832e-07 1.18012e-06 -1.74624e-05
0.00101821 -3.2297e-07 2.65471e-07
-3.2297e-07 9.38434e-06 1.92653e-06
2.65471e-07 1.92653e-06 -2.23423e-05
0.00102062 -1.90117e-06 5.73464e-08
-1.90117e-06 1.11983e-05 5.1916e-09
5.73464e-08 5.1916e-09 -2.0505e-05
0.00156241 -4.76999e-06 7.89758e-07
-4.76999e-06 0.000267554 2.0769e-06
7.89758e-07 2.0769e-06 0.00026877
0.00102244 -2.93901e-06 -5.7176e-07
-2.93901e-06 1.32215e-05 -1.95883e-06
-5.7176e-07 -1.95883e-06 -1.86738e-05
0.00157921 -6.35623e-06 -9.33958e-07
-6.35623e-06 0.000278675 -1.3007e-06
-9.33958e-07 -1.3007e-06 0.000279313
0.00121714 -6.60208e-06 4.9188e-06
-6.60208e-06 9.70112e-05 6.83005e-06
4.9188e-06 6.83005e-06 0.000112922
0.00159534 -7.80007e-06 -3.38841e-06
-7.80007e-06 0.000289794 -4.64987e-06
-3.38841e-06 -4.64987e-06 0.000289796
0.00116047 -8.59147e-06 1.95405e-06
-8.59147e-06 7.29358e-05 2.58588e-06
1.95405e-06 2.58588e-06 8.84413e-05
0.00110302 -1.04516e-05 -1.72249e-06
-1.04516e-05 4.87548e-05 -1.62971e-06
-1.72249e-06 -1.62971e-06 6.37867e-05
0.000922367 8.9455e-06 1.60774e-06
8.9455e-06 -3.95466e-05 -3.20967e-06
1.60774e-06 -3.20967e-06 -4.20307e-05
0.000932262 1.02993e-05 -9.27701e-08
1.02993e-05 -3.05779e-05 9.05548e-09
-9.27701e-08 9.05548e-09 -3.46036e-05
0.00242782 1.4772e-05 7.69626e-06
1.4772e-05 0.000703888 -3.98077e-06
7.69626e-06 -3.98077e-06 0.00072443
0.000934872 1.1292e-05 -2.60425e-06
1.1292e-05 -2.54489e-05 3.20738e-06
-2.60425e-06 3.20738e-06 -3.08917e-05
0.00247075 1.69242e-05 -2.90727e-07
1.69242e-05 0.000730123 -4.30946e-08
-2.90727e-07 -4.30946e-08 0.000749458
0.00249242 1.90039e-05 -1.01539e-05
1.90039e-05 0.000745131 3.91143e-06
-1.01539e-05 3.91143e-06 0.000763526
0.00125643 4.99046e-06 4.10669e-07
4.99046e-06 4.82977e-05 4.83285e-07
4.10669e-07 4.83285e-07 -1.16096e-05
0.00127073 -1.26335e-05 -2.20085e-07
-1.26335e-05 4.20275e-05 -2.55543e-07
-2.20085e-07 -2.55543e-07 -2.27598e-05
0.00125444 -6.64204e-06 1.85848e-06
-6.64204e-06 3.1666e-05 -1.56489e-06
1.85848e-06 -1.56489e-06 -2.31204e-05
0.00127288 -2.40316e-05 -1.12608e-06
-2.40316e-05 4.84813e-05 1.77939e-07
-1.12608e-06 1.77939e-07 -2.07964e-05
0.00124788 -1.22948e-05 -2.71254e-07
-1.22948e-05 5.5805e-05 4.26671e-07
-2.71254e-07 4.26671e-07 -1.17676e-05
0.00125105 5.6303e-06 -3.01977e-07
5.6303e-06 5.77889e-05 -1.41146e-07
-3.01977e-07 -1.41146e-07 -1.11339e-05
0.00125157 1.39996e-05 2.19949e-07
1.39996e-05 5.99524e-05 -5.56425e-08
2.19949e-07 -5.56425e-08 -8.06511e-06
0.00126019 -2.07524e-05 -2.5859e-07
-2.07524e-05 6.28998e-05 4.17442e-07
-2.5859e-07 4.17442e-07 -5.08016e-06
0.00127348 -1.78631e-05 3.21542e-07
-1.78631e-05 4.23658e-05 -8.28484e-08
3.21542e-07 -8.28484e-08 -2.08483e-05
0.00127964 1.24235e-06 2.67591e-07
1.24235e-06 3.89765e-05 -1.18941e-07
2.67591e-07 -1.18941e-07 -1.08553e-05
0.00121424 7.18536e-06 1.65832e-07
7.18536e-06 4.38748e-05 -2.04072e-07
1.65832e-07 -2.04072e-07 -2.39172e-05
0.00128388 -2.69568e-05 3.53403e-07
-2.69568e-05 7.59885e-05 -2.29995e-07
3.53403e-07 -2.29995e-07 9.17734e-06
0.00130656 -8.32764e-06 -8.23403e-07
-8.32764e-06 4.16194e-05 1.12827e-06
-8.23403e-07 1.12827e-06 -1.16579e-05
0.00127563 2.46526e-05 -7.59485e-07
2.46526e-05 4.78043e-05 -1.36173e-06
-7.59485e-07 -1.36173e-06 -2.40461e-05
0.00145781 1.70509e-05 -6.21841e-07
1.70509e-05 0.000108896 3.27429e-07
-6.21841e-07 3.27429e-07 3.86486e-05
0.00143206 -5.27931e-06 1.70002e-07
-5.27931e-06 9.48662e-05 1.09053e-06
1.70002e-07 1.09053e-06 3.42263e-05
0.00113366 -2.50624e-05 -5.6551e-07
-2.50624e-05 6.82481e-05 2.8712e-07
-5.6551e-07 2.8712e-07 8.02218e-06
0.00124251 -3.1057e-05 -1.93009e-07
-3.1057e-05 0.000125316 6.47029e-07
-1.93009e-07 6.47029e-07 5.94627e-05
0.00114694 -3.43007e-05 -1.08071e-06
-3.43007e-05 7.12302e-05 1.41226e-06
-1.08071e-06 1.41226e-06 -7.36061e-06
0.00133072 -1.95049e-05 3.55442e-07
-1.95049e-05 6.63116e-05 3.43248e-07
3.55442e-07 3.43248e-07 1.14001e-05
0.00114864 -2.94036e-05 -4.28931e-07
-2.94036e-05 -1.06886e-05 -7.20052e-07
-4.28931e-07 -7.20052e-07 -5.95704e-05
0.00123305 -3.40074e-05 -1.67852e-06
-3.40074e-05 6.98839e-05 -2.18913e-06
-1.67852e-06 -2.18913e-06 2.75449e-06
0.00115521 -2.89709e-05 -5.87614e-07
-2.89709e-05 7.36158e-05 9.43616e-08
-5.87614e-07 9.43616e-08 8.60823e-06
0.0011116 -2.97139e-05 -1.64416e-06
-2.97139e-05 4.82631e-05 2.34603e-07
-1.64416e-06 2.34603e-07 -2.06322e-05
0.0012106 -3.00341e-05 -1.34506e-06
-3.00341e-05 0.000108743 1.81452e-07
-1.34506e-06 1.81452e-07 3.54237e-05
0.000706113 9.01304e-06 -8.12668e-07
9.01304e-06 -0.000135497 1.3269e-06
-8.12668e-07 1.3269e-06 -0.000170666
0.00128433 -2.60818e-05 -8.28045e-07
-2.60818e-05 0.000155086 1.02277e-06
-8.28045e-07 1.02277e-06 8.55015e-05
0.000888533 -7.7521e-06 -7.80548e-07
-7.7521e-06 -4.39296e-05 1.52283e-06
-7.80548e-07 1.52283e-06 -0.000100846
0.00136611 2.6422e-05 -4.88803e-08
2.6422e-05 8.99827e-05 3.81584e-07
-4.88803e-08 3.81584e-07 1.91566e-05
0.00140552 1.67046e-05 2.32854e-07
1.67046e-05 6.89649e-05 2.21729e-07
2.32854e-07 2.21729e-07 -1.05872e-06
0.00131202 -8.52228e-06 -1.78872e-07
-8.52228e-06 2.67236e-05 -2.13593e-07
-1.78872e-07 -2.13593e-07 -2.81243e-05
0.00114756 -2.92296e-05 6.31275e-08
-2.92296e-05 7.27632e-05 1.42695e-07
6.31275e-08 1.42695e-07 8.39443e-06
0.00100922 -3.10563e-05 -6.06876e-08
-3.10563e-05 1.67884e-05 6.81851e-08
-6.06876e-08 6.81851e-08 -5.79395e-05
0.00131261 -3.78644e-05 -5.68613e-07
-3.78644e-05 0.000143929 7.42453e-07
-5.68613e-07 7.42453e-07 6.13499e-05
0.00143112 -2.45968e-05 1.84805e-07
-2.45968e-05 9.19303e-05 1.37509e-07
1.84805e-07 1.37509e-07 4.89817e-05
0.00124431 -3.46397e-05 -1.01045e-07
-3.46397e-05 3.89395e-05 -6.15569e-07
-1.01045e-07 -6.15569e-07 -1.97737e-05
0.000859052 7.11158e-06 1.42479e-07
7.11158e-06 -6.33431e-05 -6.09521e-07
1.42479e-07 -6.09521e-07 -9.55731e-05
0.00114746 -3.76878e-07 4.95394e-09
-3.76878e-07 8.5128e-05 1.10594e-07
4.95394e-09 1.10594e-07 3.09967e-05
0.00108481 -2.98467e-05 -3.18539e-07
-2.98467e-05 3.64597e-05 1.25821e-07
-3.18539e-07 1.25821e-07 -3.24151e-05
0.00116721 -3.14859e-05 1.29155e-08
-3.14859e-05 7.86341e-05 5.70868e-08
1.29155e-08 5.70868e-08 2.9814e-06
0.00112192 -2.82019e-05 1.67547e-07
-2.82019e-05 7.51521e-05 -1.88792e-07
1.67547e-07 -1.88792e-07 -3.99783e-06
0.00121383 -2.46072e-05 -5.70114e-07
-2.46072e-05 0.000122214 7.67613e-07
-5.70114e-07 7.67613e-07 5.29623e-05
0.00135129 2.72919e-05 7.19071e-07
2.72919e-05 8.22235e-05 1.67159e-06
7.19071e-07 1.67159e-06 1.43316e-05
0.00148389 1.26129e-05 2.68236e-07
1.26129e-05 9.88128e-05 -8.29355e-07
2.68236e-07 -8.29355e-07 3.28291e-05
0.00135569 -1.5895e-05 -1.20493e-06
-1.5895e-05 2.74302e-05 -1.39718e-06
-1.20493e-06 -1.39718e-06 -1.03875e-05
0.00162956 -3.43071e-05 1.80095e-07
-3.43071e-05 0.000176934 2.84194e-07
1.80095e-07 2.84194e-07 0.000135776
0.00103401 -3.0039e-05 2.63995e-07
-3.0039e-05 2.03971e-05 -4.34807e-07
2.63995e-07 -4.34807e-07 -4.98353e-05
0.0013412 -3.95362e-05 1.73237e-06
-3.95362e-05 0.000138148 2.13233e-06
1.73237e-06 2.13233e-06 5.64684e-05
0.00135898 -3.79116e-05 9.14027e-07
-3.79116e-05 0.000183103 -1.87152e-06
9.14027e-07 -1.87152e-06 0.000100543
0.00100896 5.96607e-06 6.70027e-07
5.96607e-06 7.28723e-06 -1.84143e-06
6.70027e-07 -1.84143e-06 -2.21994e-05
0.00106391 -7.03378e-06 2.89663e-07
-7.03378e-06 4.02086e-05 -1.21059e-06
2.89663e-07 -1.21059e-06 -6.69964e-06
0.000837261 4.66563e-06 2.20791e-07
4.66563e-06 -6.66604e-05 -1.77309e-06
2.20791e-07 -1.77309e-06 -0.000119354
0.00116171 -1.95023e-05 9.27808e-08
-1.95023e-05 9.88297e-05 -3.12772e-07
9.27808e-08 -3.12772e-07 2.90069e-05
0.00107954 -2.67726e-05 6.85647e-07
-2.67726e-05 5.8613e-05 -7.94628e-07
6.85647e-07 -7.94628e-07 -2.1437e-05
0.00119182 -3.07509e-05 1.46593e-06
-3.07509e-05 0.000104906 6.10097e-08
1.46593e-06 6.10097e-08 2.04147e-05
0.00105059 -3.10694e-05 6.36875e-07
-3.10694e-05 2.1905e-05 -2.50509e-07
6.36875e-07 -2.50509e-07 -5.08363e-05
0.00138106 -3.55267e-05 3.0268e-07
-3.55267e-05 0.000190023 1.52714e-07
3.0268e-07 1.52714e-07 0.000108963
0.00105682 5.22731e-06 -1.04018e-06
5.22731e-06 3.71336e-05 -1.27709e-06
-1.04018e-06 -1.27709e-06 -1.72512e-05
0.00112447 1.89964e-05 -5.8582e-07
1.89964e-05 7.24715e-05 -3.79422e-07
-5.8582e-07 -3.79422e-07 5.67529e-06
0.00157599 1.75797e-05 2.28529e-07
1.75797e-05 0.000187797 -8.36808e-10
2.28529e-07 -8.36808e-10 0.000137475
0.00113572 2.52638e-05 -1.00066e-06
2.52638e-05 7.66992e-05 3.85025e-08
-1.00066e-06 3.85025e-08 5.9029e-06
0.00121649 3.07871e-05 -7.73081e-07
3.07871e-05 0.000113363 -9.37588e-07
-7.73081e-07 -9.37588e-07 4.49461e-05
0.00106711 2.78246e-05 -8.67127e-07
2.78246e-05 4.0392e-05 -4.37526e-07
-8.67127e-07 -4.37526e-07 -3.09721e-05
0.00134851 3.65259e-05 -1.31187e-07
3.65259e-05 0.000132116 -1.95005e-07
-1.31187e-07 -1.95005e-07 6.19891e-05
0.00121206 3.29138e-05 -7.11901e-07
3.29138e-05 5.20718e-05 1.60804e-06
-7.11901e-07 1.60804e-06 -8.09895e-06
0.00112621 3.23259e-05 -4.66401e-08
3.23259e-05 6.8501e-05 -3.11712e-07
-4.66401e-08 -3.11712e-07 -1.01769e-05
0.00115222 3.56077e-05 -2.35344e-06
3.56077e-05 6.09208e-05 -7.04772e-07
-2.35344e-06 -7.04772e-07 -2.3658e-05
0.000975886 1.79326e-05 3.04441e-07
1.79326e-05 1.96586e-06 3.23744e-07
3.04441e-07 3.23744e-07 -6.64674e-05
0.00109114 2.84766e-05 -3.12136e-07
2.84766e-05 5.6279e-05 -4.08122e-07
-3.12136e-07 -4.08122e-07 -1.95915e-05
0.00118025 3.18286e-05 -1.9573e-07
3.18286e-05 9.36292e-05 -4.43246e-07
-1.9573e-07 -4.43246e-07 1.88318e-05
0.00110657 2.94501e-05 -2.5661e-08
2.94501e-05 5.65944e-05 -1.9485e-07
-2.5661e-08 -1.9485e-07 -1.90666e-05
0.00150805 9.24408e-06 9.99285e-08
9.24408e-06 0.000107304 -8.81257e-07
9.99285e-08 -8.81257e-07 6.53289e-05
0.00121867 2.96087e-05 1.97751e-07
2.96087e-05 6.92924e-06 1.60012e-07
1.97751e-07 1.60012e-07 -4.40303e-05
0.00138287 4.09245e-05 -2.6493e-07
4.09245e-05 0.000146099 -1.31161e-07
-2.6493e-07 -1.31161e-07 6.60623e-05
0.000984459 3.41544e-05 1.4768e-07
3.41544e-05 -4.13945e-06 1.48351e-07
1.4768e-07 1.48351e-07 -9.49434e-05
0.00116639 2.79655e-05 2.15945e-07
2.79655e-05 9.99134e-05 1.77789e-07
2.15945e-07 1.77789e-07 2.32212e-05
0.00134206 -8.40235e-06 -3.67452e-07
-8.40235e-06 4.27107e-05 5.8107e-07
-3.67452e-07 5.8107e-07 -7.06702e-06
0.00125909 3.21658e-05 9.5101e-07
3.21658e-05 0.000138074 5.03328e-07
9.5101e-07 5.03328e-07 5.56704e-05
0.00117919 3.37996e-05 7.04107e-07
3.37996e-05 9.53768e-05 6.13566e-07
7.04107e-07 6.13566e-07 1.18992e-05
0.00150851 2.91532e-05 2.88332e-06
2.91532e-05 6.97738e-05 -1.20923e-06
2.88332e-06 -1.20923e-06 3.53785e-05
0.00122808 4.27587e-05 3.5742e-06
4.27587e-05 3.04216e-05 -9.66134e-07
3.5742e-06 -9.66134e-07 -4.9685e-05
0.00153583 4.35145e-05 9.75691e-07
4.35145e-05 0.000258421 1.64719e-06
9.75691e-07 1.64719e-06 0.000161053
0.0011535 1.64953e-05 -3.72919e-07
1.64953e-05 9.15578e-05 -4.19085e-07
-3.72919e-07 -4.19085e-07 2.47597e-05
0.00113424 2.44917e-05 -5.34355e-08
2.44917e-05 8.65565e-05 -6.48968e-08
-5.34355e-08 -6.48968e-08 1.09762e-05
0.00114484 2.75729e-05 5.15132e-07
2.75729e-05 9.30509e-05 3.37042e-07
5.15132e-07 3.37042e-07 1.1348e-05
0.00105357 6.26203e-06 -3.56034e-07
6.26203e-06 3.79744e-05 -1.23014e-06
-3.56034e-07 -1.23014e-06 -1.35671e-05
0.00109111 1.33883e-05 -8.98557e-08
1.33883e-05 6.24701e-05 -4.21823e-07
-8.98557e-08 -4.21823e-07 -3.17967e-06
0.00101968 1.68582e-05 -4.85857e-07
1.68582e-05 2.97899e-05 -9.71045e-07
-4.85857e-07 -9.71045e-07 -4.58629e-05
0.00104764 -1.9047e-06 1.0446e-07
-1.9047e-06 3.65382e-05 1.3319e-08
1.0446e-07 1.3319e-08 -1.50121e-05
0.000953058 1.1459e-05 4.54025e-08
1.1459e-05 -5.42901e-06 3.61701e-07
4.54025e-08 3.61701e-07 -7.16029e-05
0.0011265 2.02464e-05 -2.6542e-11
2.02464e-05 8.12397e-05 -3.52441e-07
-2.6542e-11 -3.52441e-07 -1.63943e-07
0.00111753 1.21168e-05 1.44569e-07
1.21168e-05 7.82256e-05 3.12574e-07
1.44569e-07 3.12574e-07 3.51982e-06
0.00119846 2.84193e-05 2.58597e-07
2.84193e-05 0.000112225 1.11556e-07
2.58597e-07 1.11556e-07 2.67578e-05
0.00106035 6.58027e-06 4.31884e-07
6.58027e-06 4.64582e-05 7.7394e-07
4.31884e-07 7.7394e-07 -3.57801e-05
0.00113016 1.9913e-05 3.36885e-07
1.9913e-05 8.32473e-05 7.35047e-07
3.36885e-07 7.35047e-07 8.31013e-06
0.00107313 1.02139e-05 4.44528e-07
1.02139e-05 5.4192e-05 8.32099e-07
4.44528e-07 8.32099e-07 -1.19457e-05
0.00104816 -4.02314e-06 1.0578e-07
-4.02314e-06 3.74948e-05 1.18933e-06
1.0578e-07 1.18933e-06 -1.43422e-05
0.00101879 9.37557e-07 8.86514e-08
9.37557e-07 9.62291e-06 1.89814e-06
8.86514e-08 1.89814e-06 -2.22679e-05
0.00102112 -7.52393e-07 4.13572e-08
-7.52393e-07 1.08924e-05 9.16516e-09
4.13572e-08 9.16516e-09 -2.08573e-05
0.00155692 -2.63336e-06 4.34369e-07
-2.63336e-06 0.000262874 2.06958e-06
4.34369e-07 2.06958e-06 0.00026435
0.00102698 -1.9914e-06 -3.51875e-07
-1.9914e-06 1.4458e-05 -1.93892e-06
-3.51875e-07 -1.93892e-06 -1.72908e-05
0.00157873 -4.49773e-06 -6.54219e-07
-4.49773e-06 0.000275758 -1.29257e-06
-6.54219e-07 -1.29257e-06 0.000276872
0.00121537 -4.71877e-06 3.38463e-06
-4.71877e-06 9.28038e-05 6.80111e-06
3.38463e-06 6.80111e-06 0.000109303
0.00159392 -6.14357e-06 -2.41011e-06
-6.14357e-06 0.000286074 -4.66663e-06
-2.41011e-06 -4.66663e-06 0.000286628
0.00116361 -6.7558e-06 1.34404e-06
-6.7558e-06 7.05995e-05 2.59326e-06
1.34404e-06 2.59326e-06 8.67509e-05
0.00110675 -8.62456e-06 -1.36554e-06
-8.62456e-06 4.64451e-05 -1.64246e-06
-1.36554e-06 -1.64246e-06 6.2194e-05
0.00101413 4.6992e-06 5.111e-07
4.6992e-06 6.55264e-06 -1.83976e-06
5.111e-07 -1.83976e-06 -2.10755e-05
0.000931001 7.48959e-06 1.23731e-06
7.48959e-06 -3.94298e-05 -3.20494e-06
1.23731e-06 -3.20494e-06 -4.0376e-05
0.000941054 8.95675e-06 -8.01232e-08
8.95675e-06 -3.06388e-05 5.52885e-09
-8.01232e-08 5.52885e-09 -3.31991e-05
0.00238849 1.24069e-05 6.69276e-06
1.24069e-05 0.000679782 -3.99364e-06
6.69276e-06 -3.99364e-06 0.00070143
0.000949959 1.03058e-05 -2.1324e-06
1.03058e-05 -2.21412e-05 3.21966e-06
-2.1324e-06 3.21966e-06 -2.62426e-05
0.00242468 1.47668e-05 -2.94614e-07
1.47668e-05 0.000702861 -3.467e-08
-2.94614e-07 -3.467e-08 0.000723293
0.0024649 1.68889e-05 -9.36198e-06
1.68889e-05 0.000727577 3.98967e-06
-9.36198e-06 3.98967e-06 0.000746846
0.00119924 -2.48792e-08 9.31207e-07
-2.48792e-08 -8.52594e-07 -1.3209e-07
9.31207e-07 -1.3209e-07 -5.09178e-05
0.00124052 -1.70027e-05 9.76149e-08
-1.70027e-05 2.77444e-05 -9.62908e-07
9.76149e-08 -9.62908e-07 -3.47067e-05
0.00129623 -2.13969e-05 -6.71485e-07
-2.13969e-05 7.81567e-05 1.16435e-06
-6.71485e-07 1.16435e-06 1.01848e-05
0.0012699 1.63404e-05 -8.16311e-08
1.63404e-05 6.64043e-05 -7.03137e-07
-8.16311e-08 -7.03137e-07 -1.97858e-06
0.00125935 6.99235e-06 1.32268e-07
6.99235e-06 6.78079e-05 -3.44808e-07
1.32268e-07 -3.44808e-07 6.93069e-07
0.00128807 -2.72218e-05 -2.3697e-08
-2.72218e-05 7.79544e-05 3.19986e-07
-2.3697e-08 3.19986e-07 1.02372e-05
0.00129145 -8.04269e-06 -5.72586e-07
-8.04269e-06 3.70374e-05 2.66792e-07
-5.72586e-07 2.66792e-07 -1.48547e-05
0.00128172 7.12412e-07 8.13051e-07
7.12412e-07 8.1735e-05 -1.14354e-06
8.13051e-07 -1.14354e-06 1.52078e-05
0.00127032 -2.16495e-05 -5.2255e-07
-2.16495e-05 5.00632e-05 7.73202e-07
-5.2255e-07 7.73202e-07 -1.12933e-05
0.00126821 -2.00636e-05 -5.88757e-07
-2.00636e-05 4.79973e-05 -7.88493e-07
-5.88757e-07 -7.88493e-07 2.30733e-06
0.00128666 2.58012e-05 -5.26056e-08
2.58012e-05 5.69073e-05 -6.06387e-07
-5.26056e-08 -6.06387e-07 -1.31219e-05
0.00139862 1.54196e-05 -3.9929e-07
1.54196e-05 6.19786e-05 3.00341e-07
-3.9929e-07 3.00341e-07 -7.97723e-06
0.00134691 -8.24934e-06 -3.72047e-08
-8.24934e-06 4.39108e-05 9.13025e-07
-3.72047e-08 9.13025e-07 -1.20886e-05
0.00116338 -2.94454e-05 -4.57185e-07
-2.94454e-05 8.01358e-05 5.58261e-07
-4.57185e-07 5.58261e-07 1.56871e-05
0.00106206 -3.15638e-05 -4.87226e-07
-3.15638e-05 4.23861e-05 1.67333e-06
-4.87226e-07 1.67333e-06 -3.15279e-05
0.00126951 -3.69036e-05 -1.29813e-06
-3.69036e-05 0.000123672 1.16443e-06
-1.29813e-06 1.16443e-06 4.1825e-05
0.00144303 -2.5397e-05 2.07941e-06
-2.5397e-05 0.000101424 4.47338e-07
2.07941e-06 4.47338e-07 5.87283e-05
0.00117362 -3.39931e-05 -2.31305e-06
-3.39931e-05 4.00309e-06 -2.26831e-06
-2.31305e-06 -2.26831e-06 -5.45991e-05
0.00108053 -2.98025e-05 -9.46838e-07
-2.98025e-05 3.47081e-05 1.99598e-07
-9.46838e-07 1.99598e-07 -3.43653e-05
0.00118494 -3.17329e-05 -1.11139e-06
-3.17329e-05 8.72405e-05 -1.15042e-07
-1.11139e-06 -1.15042e-07 1.16891e-05
0.00112334 -2.79914e-05 -4.25596e-07
-2.79914e-05 7.68102e-05 2.82517e-07
-4.25596e-07 2.82517e-07 -1.7564e-06
0.00099894 7.57169e-06 -7.25253e-07
7.57169e-06 5.06751e-06 1.25278e-06
-7.25253e-07 1.25278e-06 -2.61454e-05
0.00113655 2.41613e-06 -5.46471e-07
2.41613e-06 8.06461e-05 1.51923e-06
-5.46471e-07 1.51923e-06 2.63918e-05
0.00115136 -2.42344e-05 -1.27682e-06
-2.42344e-05 9.08547e-05 1.5776e-06
-1.27682e-06 1.5776e-06 2.11144e-05
0.00128561 2.64949e-05 1.04782e-07
2.64949e-05 4.94246e-05 3.01598e-07
1.04782e-07 3.01598e-07 -1.89934e-05
0.00101263 5.93144e-06 -5.13479e-08
5.93144e-06 8.92879e-06 -1.04709e-09
-5.13479e-08 -1.04709e-09 -2.05687e-05
0.000956537 3.37831e-08 -2.90092e-07
3.37831e-08 -1.21894e-05 -9.49399e-10
-2.90092e-07 -9.49399e-10 -5.96396e-05
0.00148813 1.23476e-05 1.78572e-07
1.23476e-05 9.94536e-05 4.83496e-07
1.78572e-07 4.83496e-07 3.40546e-05
0.00127598 -1.64984e-05 -2.00072e-07
-1.64984e-05 -7.61732e-06 -3.549e-07
-2.00072e-07 -3.549e-07 -4.82133e-05
0.00102049 -2.9799e-05 -1.46917e-07
-2.9799e-05 1.35641e-05 4.31701e-07
-1.46917e-07 4.31701e-07 -5.63114e-05
0.00124987 -3.68431e-05 -1.85085e-07
-3.68431e-05 0.000130154 1.61139e-07
-1.85085e-07 1.61139e-07 4.67238e-05
0.00117716 -3.7277e-05 5.69854e-07
-3.7277e-05 5.68539e-05 7.13913e-07
5.69854e-07 7.13913e-07 -2.37205e-05
0.00146889 -3.41518e-05 2.17953e-08
-3.41518e-05 0.000100754 -9.40997e-07
2.17953e-08 -9.40997e-07 5.9391e-05
0.00108658 7.91755e-07 2.33982e-07
7.91755e-07 5.54091e-05 -5.00174e-07
2.33982e-07 -5.00174e-07 4.39379e-06
0.00115233 -1.64283e-05 -3.38059e-07
-1.64283e-05 9.48732e-05 5.05889e-07
-3.38059e-07 5.05889e-07 2.48219e-05
0.00114379 -3.20721e-05 3.35977e-07
-3.20721e-05 6.645e-05 2.13831e-07
3.35977e-07 2.13831e-07 -6.02455e-06
0.00123173 -3.38441e-05 -7.66104e-07
-3.38441e-05 0.000115756 -3.55127e-07
-7.66104e-07 -3.55127e-07 3.61815e-05
0.00112402 -2.99617e-05 2.79113e-07
-2.99617e-05 7.12652e-05 2.36085e-07
2.79113e-07 2.36085e-07 -1.44311e-05
0.00110726 -2.70824e-05 3.18906e-07
-2.70824e-05 7.18651e-05 -3.66538e-07
3.18906e-07 -3.66538e-07 -7.85766e-06
0.00138469 2.86828e-05 1.13151e-06
2.86828e-05 9.11231e-05 1.25629e-06
1.13151e-06 1.25629e-06 2.01095e-05
0.0015165 4.35105e-06 -5.41132e-07
4.35105e-06 0.000104407 -1.75047e-06
-5.41132e-07 -1.75047e-06 5.4313e-05
0.00161431 -2.96736e-05 -2.40104e-06
-2.96736e-05 0.000118557 -3.4444e-07
-2.40104e-06 -3.4444e-07 9.7847e-05
0.00142934 -4.20279e-05 2.1788e-06
-4.20279e-05 0.000131943 2.52749e-06
2.1788e-06 2.52749e-06 6.58063e-05
0.00105177 -3.23744e-05 3.01626e-07
-3.23744e-05 3.3539e-05 -1.14533e-06
3.01626e-07 -1.14533e-06 -4.21871e-05
0.00150559 -4.34709e-05 6.61073e-07
-4.34709e-05 0.000250102 -1.1309e-06
6.61073e-07 -1.1309e-06 0.000158941
0.000860191 1.74851e-06 1.7256e-07
1.74851e-06 -6.1127e-05 -1.63747e-06
1.7256e-07 -1.63747e-06 -0.000107144
0.00105126 -6.18542e-06 5.2847e-07
-6.18542e-06 3.641e-05 -1.17563e-06
5.2847e-07 -1.17563e-06 -1.24582e-05
0.00129471 -1.57961e-06 -1.50632e-07
-1.57961e-06 0.000162106 -3.28363e-07
-1.50632e-07 -3.28363e-07 0.000101707
0.000909333 -1.52276e-06 1.10702e-07
-1.52276e-06 -2.16201e-05 -9.80256e-07
1.10702e-07 -9.80256e-07 -9.11125e-05
0.00121368 -2.56124e-05 3.80064e-07
-2.56124e-05 0.000125584 -1.46427e-07
3.80064e-07 -1.46427e-07 4.63699e-05
0.000975933 -2.6784e-05 1.87917e-07
-2.6784e-05 5.96887e-06 -6.14693e-07
1.87917e-07 -6.14693e-07 -8.48434e-05
0.00127224 -3.33783e-05 1.6873e-06
-3.33783e-05 0.000151501 -9.53122e-09
1.6873e-06 -9.53122e-09 5.80692e-05
0.00107323 -3.43147e-05 3.12783e-07
-3.43147e-05 4.57688e-05 -4.2732e-07
3.12783e-07 -4.2732e-07 -3.31406e-05
0.00098236 1.79442e-05 -4.38819e-07
1.79442e-05 5.16428e-06 -4.49478e-07
-4.38819e-07 -4.49478e-07 -6.33413e-05
0.00115945 2.81664e-05 -1.4543e-06
2.81664e-05 8.92566e-05 -6.56584e-07
-1.4543e-06 -6.56584e-07 1.43047e-05
0.00138683 8.62844e-06 -1.11273e-06
8.62844e-06 4.92053e-05 -1.32595e-06
-1.11273e-06 -1.32595e-06 7.88302e-06
0.00128756 2.92707e-05 -1.05031e-06
2.92707e-05 4.94869e-05 7.78877e-07
-1.05031e-06 7.78877e-07 -3.53699e-06
0.00122494 3.04578e-05 -1.07042e-06
3.04578e-05 0.000113704 -2.21625e-07
-1.07042e-06 -2.21625e-07 3.84555e-05
0.00120422 3.19327e-05 -7.98771e-07
3.19327e-05 0.000105863 -1.17522e-06
-7.98771e-07 -1.17522e-06 3.17036e-05
0.00154584 4.24126e-05 -1.20632e-06
4.24126e-05 0.000223841 5.38759e-08
-1.20632e-06 5.38759e-08 0.000144711
0.00103043 3.50665e-05 -9.8449e-07
3.50665e-05 1.44642e-05 -1.1066e-06
-9.8449e-07 -1.1066e-06 -7.60848e-05
0.00114108 2.81073e-05 -3.09385e-07
2.81073e-05 8.75402e-05 -3.26358e-07
-3.09385e-07 -3.26358e-07 1.08346e-05
0.00117448 -7.48482e-06 3.63998e-07
-7.48482e-06 -3.33416e-05 5.84613e-07
3.63998e-07 5.84613e-07 -8.03079e-05
0.00117867 3.13598e-05 2.33873e-07
3.13598e-05 9.8202e-05 3.24599e-07
2.33873e-07 3.24599e-07 1.59184e-05
0.00105633 3.23642e-05 2.87997e-07
3.23642e-05 3.40561e-05 -7.51056e-08
2.87997e-07 -7.51056e-08 -5.03611e-05
0.00139997 2.64994e-05 5.25247e-07
2.64994e-05 2.30856e-05 -3.4024e-07
5.25247e-07 -3.4024e-07 -1.2467e-05
0.00143202 4.57733e-05 7.11199e-07
4.57733e-05 0.000124147 -6.09846e-07
7.11199e-07 -6.09846e-07 4.4511e-05
0.0014545 4.28852e-05 2.32648e-07
4.28852e-05 0.000220549 5.20605e-07
2.32648e-07 5.20605e-07 0.00012248
0.00121304 2.95977e-05 3.15708e-07
2.95977e-05 0.000126148 3.51198e-07
3.15708e-07 3.51198e-07 4.24484e-05
0.00139442 1.80065e-05 2.38219e-06
1.80065e-05 -1.58307e-05 -2.38585e-06
2.38219e-06 -2.38585e-06 -4.99129e-05
0.00136378 3.43633e-05 4.78563e-07
3.43633e-05 0.000185892 1.04106e-07
4.78563e-07 1.04106e-07 9.93823e-05
0.00157273 4.12984e-05 -1.82309e-07
4.12984e-05 0.000287664 1.11577e-06
-1.82309e-07 1.11577e-06 0.000191197
0.00115401 5.04214e-05 4.49233e-06
5.04214e-05 -9.10256e-05 -7.51453e-07
4.49233e-06 -7.51453e-07 -0.000157626
0.00103626 4.43675e-05 3.02591e-07
4.43675e-05 6.51262e-06 1.24e-06
3.02591e-07 1.24e-06 -9.91214e-05
0.00220879 -6.10196e-05 -6.03929e-06
-6.10196e-05 7.91928e-05 -8.17419e-06
-6.03929e-06 -8.17419e-06 0.000125906
0.00112867 2.4573e-05 -4.14135e-07
2.4573e-05 8.42358e-05 -5.85449e-07
-4.14135e-07 -5.85449e-07 8.62959e-06
0.00112988 2.73245e-05 -2.56547e-08
2.73245e-05 8.68278e-05 -2.39468e-08
-2.56547e-08 -2.39468e-08 5.05595e-06
0.00123749 2.90183e-05 4.77418e-07
2.90183e-05 0.000136656 1.20076e-07
4.77418e-07 1.20076e-07 5.07414e-05
0.0010523 -3.55278e-06 -1.17897e-08
-3.55278e-06 3.88368e-05 -1.21916e-06
-1.17897e-08 -1.21916e-06 -1.27833e-05
0.000957181 4.45427e-06 -2.36438e-07
4.45427e-06 -3.36187e-06 -4.32203e-07
-2.36438e-07 -4.32203e-07 -6.94227e-05
0.0012427 1.90094e-05 -1.98651e-07
1.90094e-05 0.000139905 -2.86513e-07
-1.98651e-07 -2.86513e-07 6.58672e-05
0.00105853 1.80191e-05 -6.33968e-07
1.80191e-05 4.75748e-05 -9.90693e-07
-6.33968e-07 -9.90693e-07 -3.44782e-05
0.00104798 -7.54021e-06 1.47394e-08
-7.54021e-06 3.74982e-05 1.20367e-08
1.47394e-08 1.20367e-08 -1.44338e-05
0.0010155 1.11118e-05 1.31315e-07
1.11118e-05 2.57797e-05 -9.62034e-09
1.31315e-07 -9.62034e-09 -4.08177e-05
0.00114763 2.76634e-05 -4.82319e-07
2.76634e-05 8.64638e-05 -6.34773e-07
-4.82319e-07 -6.34773e-07 9.17446e-07
0.00112724 1.41195e-05 2.24733e-08
1.41195e-05 8.20017e-05 1.43295e-08
2.24733e-08 1.43295e-08 7.14586e-06
0.00114158 8.80257e-06 3.39983e-08
8.80257e-06 8.73478e-05 -1.552e-08
3.39983e-08 -1.552e-08 5.71456e-06
0.00113604 1.75725e-05 2.91277e-07
1.75725e-05 7.4864e-05 8.331e-07
2.91277e-07 8.331e-07 -1.31973e-05
0.00123731 2.14565e-05 1.1811e-07
2.14565e-05 0.000134065 1.76723e-07
1.1811e-07 1.76723e-07 5.18389e-05
0.00123801 2.36882e-05 1.98474e-07
2.36882e-05 0.000136244 3.26185e-07
1.98474e-07 3.26185e-07 6.08707e-05
0.000916675 6.40413e-06 1.19394e-07
6.40413e-06 -2.24776e-05 8.74475e-07
1.19394e-07 8.74475e-07 -9.0565e-05
0.000838667 1.29514e-07 -1.71673e-08
1.29514e-07 -6.53757e-05 1.66834e-06
-1.71673e-08 1.66834e-06 -0.000118951
0.00128069 -7.68963e-07 6.14177e-08
-7.68963e-07 0.000157977 4.13695e-07
6.14177e-08 4.13695e-07 9.23168e-05
0.000843833 -2.583e-06 -3.30421e-07
-2.583e-06 -6.36809e-05 1.62623e-06
-3.30421e-07 1.62623e-06 -0.000116902
0.00102116 1.30347e-06 -1.10579e-07
1.30347e-06 1.08255e-05 1.87103e-06
-1.10579e-07 1.87103e-06 -2.11473e-05
0.00101938 1.71251e-07 3.87636e-08
1.71251e-07 9.90929e-06 7.5379e-09
3.87636e-08 7.5379e-09 -2.1981e-05
0.000959263 -3.33559e-07 1.01733e-07
-3.33559e-07 -3.29314e-05 3.34221e-06
1.01733e-07 3.34221e-06 -3.45593e-05
0.00102438 -1.05597e-06 -1.42342e-07
-1.05597e-06 1.25704e-05 -1.90766e-06
-1.42342e-07 -1.90766e-06 -1.92028e-05
0.00126876 -2.34419e-06 -3.72177e-07
-2.34419e-06 0.000120761 -1.30905e-06
-3.72177e-07 -1.30905e-06 0.000120617
0.00240487 -3.08893e-06 1.78234e-06
-3.08893e-06 0.00067755 4.20884e-06
1.78234e-06 4.20884e-06 0.000700563
0.00159519 -4.34192e-06 -1.41051e-06
-4.34192e-06 0.000284036 -4.6476e-06
-1.41051e-06 -4.6476e-06 0.000285043
0.00116403 -4.79087e-06 7.05235e-07
-4.79087e-06 6.7451e-05 2.58358e-06
7.05235e-07 2.58358e-06 8.41955e-05
0.00111081 -6.68278e-06 -9.87356e-07
-6.68278e-06 4.45186e-05 -1.64764e-06
-9.87356e-07 -1.64764e-06 6.09192e-05
0.00101831 3.30503e-06 3.45555e-07
3.30503e-06 6.1129e-06 -1.9018e-06
3.45555e-07 -1.9018e-06 -2.01161e-05
0.00101822 4.66082e-06 -4.00243e-08
4.66082e-06 8.44134e-06 1.26056e-09
-4.00243e-08 1.26056e-09 -1.92041e-05
0.000941514 5.79633e-06 9.38342e-07
5.79633e-06 -3.79615e-05 -3.20061e-06
9.38342e-07 -3.20061e-06 -3.74596e-05
0.00124558 7.92256e-06 -2.83804e-07
7.92256e-06 0.000115588 3.65012e-08
-2.83804e-07 3.65012e-08 0.000115977
0.00234689 9.99502e-06 5.46827e-06
9.99502e-06 0.000655027 -3.98163e-06
5.46827e-06 -3.98163e-06 0.00067776
0.000959296 8.96475e-06 -1.79299e-06
8.96475e-06 -2.19639e-05 3.2013e-06
-1.79299e-06 3.2013e-06 -2.45968e-05
0.00238552 1.24555e-05 -3.20356e-07
1.24555e-05 0.000678884 -3.09954e-08
-3.20356e-07 -3.09954e-08 0.00070041
0.00242329 1.47456e-05 -8.30363e-06
1.47456e-05 0.000702676 4.02964e-06
-8.30363e-06 4.02964e-06 0.000722993
0.00128355 -7.87571e-06 -2.13539e-07
-7.87571e-06 3.58045e-05 -9.15874e-07
-2.13539e-07 -9.15874e-07 -1.47035e-05
0.0012895 -2.68973e-05 1.50064e-07
-2.68973e-05 7.84993e-05 1.04109e-06
1.50064e-07 1.04109e-06 9.91492e-06
0.00130555 3.83042e-06 -1.66155e-07
3.83042e-06 9.23637e-05 -4.73902e-07
-1.66155e-07 -4.73902e-07 2.58307e-05
0.00127541 -4.85241e-08 -3.24427e-07
-4.85241e-08 7.88219e-05 -1.00682e-06
-3.24427e-07 -1.00682e-06 1.24442e-05
0.00123353 -2.11856e-05 -5.69042e-08
-2.11856e-05 3.63643e-05 3.62988e-07
-5.69042e-08 3.62988e-07 -2.50296e-05
0.00121694 -2.16766e-05 1.24266e-06
-2.16766e-05 3.45945e-05 5.16727e-07
1.24266e-06 5.16727e-07 -1.28825e-05
0.00137277 -1.65767e-06 -9.38276e-07
-1.65767e-06 0.000116167 4.59288e-07
-9.38276e-07 4.59288e-07 5.45087e-05
0.00170156 -4.88803e-05 -9.2716e-06
-4.88803e-05 0.0002257 -8.00312e-06
-9.2716e-06 -8.00312e-06 0.000219179
0.00100281 2.12298e-06 -1.51088e-06
2.12298e-06 -8.79947e-05 -1.05801e-06
-1.51088e-06 -1.05801e-06 -0.0001128
0.00105279 -3.60842e-06 -6.53202e-08
-3.60842e-06 3.16304e-05 -1.14423e-06
-6.53202e-08 -1.14423e-06 -1.17478e-05
0.00121063 2.56263e-05 -7.66629e-07
2.56263e-05 1.22761e-05 -8.25612e-07
-7.66629e-07 -8.25612e-07 -5.66671e-05
0.00149517 1.19949e-05 2.39886e-07
1.19949e-05 0.000101576 8.90765e-07
2.39886e-07 8.90765e-07 3.67402e-05
0.00118208 -1.70626e-05 1.19528e-06
-1.70626e-05 -4.98251e-05 1.20321e-06
1.19528e-06 1.20321e-06 -9.31039e-05
0.00101278 -2.96356e-05 -5.30034e-07
-2.96356e-05 9.58405e-06 1.04205e-06
-5.30034e-07 1.04205e-06 -5.99508e-05
0.00113986 -3.5765e-05 -7.029e-07
-3.5765e-05 7.67807e-05 2.29282e-06
-7.029e-07 2.29282e-06 -7.52135e-06
0.00101454 -3.50957e-05 -1.22803e-06
-3.50957e-05 -2.37654e-05 -3.22422e-07
-1.22803e-06 -3.22422e-07 -0.000103227
0.00132015 -3.39374e-05 -8.26964e-07
-3.39374e-05 3.02763e-05 -2.61234e-06
-8.26964e-07 -2.61234e-06 -1.1324e-05
0.00123856 -3.30914e-05 -9.82238e-08
-3.30914e-05 0.000111795 1.7674e-07
-9.82238e-08 1.7674e-07 3.95793e-05
0.00108994 -3.22528e-05 -2.46879e-06
-3.22528e-05 4.52352e-05 -9.01785e-07
-2.46879e-06 -9.01785e-07 -3.28765e-05
0.00105524 -2.91848e-05 -1.09787e-06
-2.91848e-05 3.70812e-05 4.93342e-07
-1.09787e-06 4.93342e-07 -4.98113e-05
0.00101607 5.88313e-06 -7.7467e-07
5.88313e-06 1.04644e-05 1.85021e-06
-7.7467e-07 1.85021e-06 -1.90449e-05
0.00114298 -2.75144e-05 -4.4113e-08
-2.75144e-05 8.89056e-05 2.97584e-07
-4.4113e-08 2.97584e-07 9.505e-06
0.00133434 -2.86473e-06 -2.5414e-07
-2.86473e-06 0.000176727 6.99381e-07
-2.5414e-07 6.99381e-07 0.000127399
0.00114587 -1.32853e-05 -6.41274e-07
-1.32853e-05 9.21512e-05 1.29141e-06
-6.41274e-07 1.29141e-06 2.19758e-05
0.000848637 4.69259e-06 -3.47825e-07
4.69259e-06 -6.48762e-05 1.17029e-06
-3.47825e-07 1.17029e-06 -0.000112868
0.00136637 2.8131e-05 2.89111e-07
2.8131e-05 7.51373e-05 -1.63486e-09
2.89111e-07 -1.63486e-09 3.37728e-06
0.000958462 7.26531e-07 8.93265e-08
7.26531e-07 -1.33719e-05 -4.69301e-07
8.93265e-08 -4.69301e-07 -5.85965e-05
0.00105056 -4.68895e-06 -8.64354e-09
-4.68895e-06 3.60823e-05 2.12755e-08
-8.64354e-09 2.12755e-08 -1.27761e-05
0.00112536 1.22861e-06 -2.24768e-07
1.22861e-06 7.92026e-05 4.95236e-07
-2.24768e-07 4.95236e-07 1.75249e-05
0.00152889 4.38973e-06 5.48616e-07
4.38973e-06 0.000111516 7.74827e-07
5.48616e-07 7.74827e-07 6.15201e-05
0.00139629 -3.02725e-05 -5.3877e-07
-3.02725e-05 1.49514e-05 -1.26211e-06
-5.3877e-07 -1.26211e-06 -8.87155e-06
0.00110808 -3.29947e-05 -1.78945e-08
-3.29947e-05 5.85874e-05 2.12647e-07
-1.78945e-08 2.12647e-07 -1.67042e-05
0.00117054 -3.98535e-05 4.70167e-07
-3.98535e-05 9.12781e-05 -1.29023e-07
4.70167e-07 -1.29023e-07 -9.39364e-08
0.00123067 -3.99123e-05 1.13196e-08
-3.99123e-05 3.67458e-05 7.08769e-07
1.13196e-08 7.08769e-07 -2.83023e-05
0.00100041 -2.28724e-06 -3.49098e-08
-2.28724e-06 2.28001e-05 3.55735e-08
-3.49098e-08 3.55735e-08 -4.55853e-05
0.00121965 -2.51919e-05 2.10278e-07
-2.51919e-05 0.000127674 4.33624e-08
2.10278e-07 4.33624e-08 4.81477e-05
0.00111208 -3.46415e-05 -3.88952e-07
-3.46415e-05 6.42146e-05 1.7731e-08
-3.88952e-07 1.7731e-08 -1.4879e-05
0.00122953 -3.26477e-05 -6.82509e-08
-3.26477e-05 0.000128862 -6.90935e-08
-6.82509e-08 -6.90935e-08 3.76426e-05
0.00107086 -2.78412e-05 -6.92949e-07
-2.78412e-05 5.32688e-05 6.16968e-07
-6.92949e-07 6.16968e-07 -3.6897e-05
0.00131418 2.84452e-05 3.59715e-07
2.84452e-05 3.29601e-05 1.19453e-07
3.59715e-07 1.19453e-07 -3.98994e-05
0.0016495 -1.06556e-05 -1.76152e-06
-1.06556e-05 0.00010171 -2.9225e-06
-1.76152e-06 -2.9225e-06 9.20494e-05
0.00168353 -4.64192e-05 1.5909e-06
-4.64192e-05 0.000167496 2.59154e-06
1.5909e-06 2.59154e-06 0.00012377
0.00162876 -4.84962e-05 1.59424e-06
-4.84962e-05 0.000292137 -8.15108e-07
1.59424e-06 -8.15108e-07 0.000203471
0.000948756 -3.58006e-05 3.49233e-07
-3.58006e-05 -1.77203e-06 -1.66782e-06
3.49233e-07 -1.66782e-06 -8.52923e-05
0.000848544 1.41252e-05 -3.6332e-08
1.41252e-05 -5.79392e-05 -1.11899e-06
-3.6332e-08 -1.11899e-06 -0.000117744
0.000917467 2.1448e-06 2.52981e-07
2.1448e-06 -2.05575e-05 -8.45632e-07
2.52981e-07 -8.45632e-07 -8.63283e-05
0.00118465 1.31085e-05 2.83162e-08
1.31085e-05 0.00011524 9.27447e-08
2.83162e-08 9.27447e-08 4.29168e-05
0.00117333 -2.36421e-05 5.23187e-07
-2.36421e-05 0.000109664 -6.13862e-07
5.23187e-07 -6.13862e-07 2.88897e-05
0.00105895 -2.64555e-05 -1.43491e-07
-2.64555e-05 4.83288e-05 2.73028e-08
-1.43491e-07 2.73028e-08 -3.88738e-05
0.00124621 -3.07185e-05 1.83041e-06
-3.07185e-05 0.000147227 -1.33832e-06
1.83041e-06 -1.33832e-06 4.72911e-05
0.00117779 -3.6758e-05 1.84519e-06
-3.6758e-05 0.000114862 -1.20265e-07
1.84519e-06 -1.20265e-07 1.96418e-05
0.00111177 2.78007e-05 -7.46736e-07
2.78007e-05 7.33266e-05 -8.6303e-07
-7.46736e-07 -8.6303e-07 -3.38065e-06
0.00109889 3.05765e-05 -4.68121e-07
3.05765e-05 5.86811e-05 6.9579e-08
-4.68121e-07 6.9579e-08 -2.34883e-05
0.000983253 -6.49567e-06 7.94055e-07
-6.49567e-06 -0.00012023 1.15608e-06
7.94055e-07 1.15608e-06 -0.000164386
0.00123598 2.38071e-05 -7.733e-09
2.38071e-05 -4.89289e-05 6.54616e-08
-7.733e-09 6.54616e-08 -8.56653e-05
0.00164126 4.8942e-05 -1.85755e-06
4.8942e-05 0.000220672 -1.00115e-07
-1.85755e-06 -1.00115e-07 0.00014147
0.000924065 3.08393e-05 -2.50633e-07
3.08393e-05 -3.19267e-05 -7.97417e-07
-2.50633e-07 -7.97417e-07 -0.000117254
0.00135558 4.20471e-05 -7.65183e-07
4.20471e-05 0.000173639 -3.66957e-07
-7.65183e-07 -3.66957e-07 7.49328e-05
0.00120833 2.95645e-05 2.9305e-08
2.95645e-05 0.000123671 4.45812e-08
2.9305e-08 4.45812e-08 4.04317e-05
0.0012358 1.78197e-05 -1.39861e-06
1.78197e-05 -8.84217e-05 7.06082e-08
-1.39861e-06 7.06082e-08 -0.000120567
0.00121072 3.25969e-05 -6.35692e-08
3.25969e-05 0.000112073 -4.44521e-08
-6.35692e-08 -4.44521e-08 2.5447e-05
0.00126542 3.72496e-05 -6.98512e-08
3.72496e-05 0.000144628 1.44254e-07
-6.98512e-08 1.44254e-07 4.79614e-05
0.00132898 5.0417e-05 1.78849e-06
5.0417e-05 -1.68309e-05 -1.15832e-06
1.78849e-06 -1.15832e-06 -7.99625e-05
0.00122068 4.74918e-05 -7.11282e-07
4.74918e-05 9.98461e-05 1.00675e-06
-7.11282e-07 1.00675e-06 -9.52323e-06
0.00207533 -4.83424e-05 -1.59528e-06
-4.83424e-05 0.000125027 4.87923e-07
-1.59528e-06 4.87923e-07 0.000146408
0.00122239 2.99136e-05 -1.14725e-07
2.99136e-05 0.000131908 -2.26988e-07
-1.14725e-07 -2.26988e-07 4.3863e-05
0.00105978 6.0367e-05 8.65257e-06
6.0367e-05 -0.000232196 3.09524e-06
8.65257e-06 3.09524e-06 -0.000295945
0.00128355 3.39296e-05 -7.6837e-07
3.39296e-05 0.000160262 -6.24416e-08
-7.6837e-07 -6.24416e-08 6.76187e-05
0.00115175 4.20596e-05 -1.05546e-06
4.20596e-05 0.00012848 1.33944e-06
-1.05546e-06 1.33944e-06 8.66907e-06
0.000600814 6.22684e-05 1.23343e-06
6.22684e-05 -0.000251937 -6.41381e-07
1.23343e-06 -6.41381e-07 -0.000356192
0.00509331 -1.78188e-06 1.10283e-06
-1.78188e-06 0.00167339 -1.91496e-06
1.10283e-06 -1.91496e-06 0.00130933
0.00106516 -6.80627e-05 3.78869e-05
-6.80627e-05 0.000132552 1.22275e-05
3.78869e-05 1.22275e-05 -4.85628e-05
0.00255361 3.38372e-06 -9.3645e-06
3.38372e-06 0.000252353 -4.81812e-06
-9.3645e-06 -4.81812e-06 0.000311647
-0.00272831 -5.71911e-05 -4.86819e-05
-5.71911e-05 -0.00141772 -1.28994e-05
-4.86819e-05 -1.28994e-05 -0.00142202
0.000921166 -6.54863e-05 -1.91267e-06
-6.54863e-05 -3.98542e-05 6.18632e-07
-1.91267e-06 6.18632e-07 0.000192147
0.00111702 2.71038e-05 -3.9914e-07
2.71038e-05 8.15535e-05 -4.63857e-07
-3.9914e-07 -4.63857e-07 -2.832e-07
0.00119285 2.83674e-05 -6.46501e-08
2.83674e-05 0.000115263 -8.13643e-08
-6.46501e-08 -8.13643e-08 2.93914e-05
0.00116845 2.56415e-05 5.16342e-07
2.56415e-05 9.51441e-05 4.36208e-07
5.16342e-07 4.36208e-07 5.3531e-06
0.00104804 -1.09611e-05 1.11209e-07
-1.09611e-05 3.76184e-05 -1.17821e-06
1.11209e-07 -1.17821e-06 -1.44085e-05
0.000957774 1.36696e-05 -2.51725e-07
1.36696e-05 -2.65115e-06 -8.6759e-07
-2.51725e-07 -8.6759e-07 -6.9717e-05
0.00112371 8.24249e-06 -2.5733e-07
8.24249e-06 8.03702e-05 -6.91288e-07
-2.5733e-07 -6.91288e-07 5.66557e-06
0.00122445 1.33445e-05 -4.56998e-07
1.33445e-05 0.000128924 -6.83783e-07
-4.56998e-07 -6.83783e-07 4.79355e-05
0.00109778 2.53043e-05 -1.24377e-06
2.53043e-05 6.11753e-05 -1.16776e-06
-1.24377e-06 -1.16776e-06 -2.43884e-05
0.00112161 2.05413e-05 -1.80051e-07
2.05413e-05 7.8728e-05 -3.74448e-07
-1.80051e-07 -3.74448e-07 2.57621e-06
0.000944848 -7.43952e-07 -9.87837e-09
-7.43952e-07 -1.3205e-05 4.94461e-07
-9.87837e-09 4.94461e-07 -6.60546e-05
0.000998759 4.02311e-06 3.91918e-08
4.02311e-06 1.81411e-05 -2.13661e-09
3.91918e-08 -2.13661e-09 -4.94578e-05
0.00115858 1.9516e-05 6.94383e-08
1.9516e-05 8.7473e-05 1.47068e-07
6.94383e-08 1.47068e-07 -4.35409e-08
0.00118368 2.04382e-05 -2.16542e-07
2.04382e-05 0.000107377 -4.30536e-07
-2.16542e-07 -4.30536e-07 2.49997e-05
0.00127078 2.87068e-05 -8.05891e-08
2.87068e-05 0.000150935 -1.30457e-07
-8.05891e-08 -1.30457e-07 6.88563e-05
0.00120353 2.29076e-05 1.2083e-07
2.29076e-05 0.000115261 5.5654e-07
1.2083e-07 5.5654e-07 2.65419e-05
0.00102215 2.12456e-05 3.62145e-07
2.12456e-05 3.03532e-05 1.08006e-06
3.62145e-07 1.08006e-06 -4.82141e-05
0.000914008 -2.19033e-06 3.15077e-08
-2.19033e-06 -2.34004e-05 4.74447e-07
3.15077e-08 4.74447e-07 -9.22483e-05
0.000838685 -9.00962e-06 -4.13084e-07
-9.00962e-06 -6.56396e-05 1.60595e-06
-4.13084e-07 1.60595e-06 -0.000119111
0.00113555 1.33126e-06 -5.99902e-08
1.33126e-06 8.6004e-05 7.57365e-07
-5.99902e-08 7.57365e-07 1.96668e-05
0.00126683 4.46679e-06 -7.21288e-08
4.46679e-06 0.000153141 3.16487e-07
-7.21288e-08 3.16487e-07 7.68236e-05
0.00107725 -1.07601e-05 -2.47718e-07
-1.07601e-05 5.81507e-05 8.68056e-07
-2.47718e-07 8.68056e-07 -9.60637e-06
0.00110764 -3.76566e-06 1.91912e-07
-3.76566e-06 7.29288e-05 -4.62787e-07
1.91912e-07 -4.62787e-07 6.13622e-06
0.00104901 -7.72939e-06 -3.30998e-07
-7.72939e-06 3.65735e-05 1.20753e-06
-3.30998e-07 1.20753e-06 -1.58524e-05
0.000849872 -2.01931e-07 -3.15002e-08
-2.01931e-07 -6.0719e-05 4.6255e-07
-3.15002e-08 4.6255e-07 -0.000113989
0.00102204 1.40149e-06 -3.595e-07
1.40149e-06 1.15178e-05 1.86835e-06
-3.595e-07 1.86835e-06 -2.04982e-05
0.00101902 3.72449e-07 4.22155e-08
3.72449e-07 9.69142e-06 6.62669e-09
4.22155e-08 6.62669e-09 -2.22573e-05
0.00098306 1.49659e-06 -4.08041e-07
1.49659e-06 -2.10722e-05 4.64798e-06
-4.08041e-07 4.64798e-06 -2.29435e-05
0.00101968 -1.14208e-06 1.06588e-07
-1.14208e-06 1.00589e-05 -1.88371e-06
1.06588e-07 -1.88371e-06 -2.18308e-05
0.000961537 -3.39639e-07 8.96221e-08
-3.39639e-07 -3.1811e-05 2.73745e-09
8.96221e-08 2.73745e-09 -3.34542e-05
0.00241186 -7.07167e-07 4.81202e-08
-7.07167e-07 0.000680005 4.21262e-06
4.81202e-08 4.21262e-06 0.000703108
0.000980005 -2.17683e-06 -4.05251e-07
-2.17683e-06 -2.16587e-05 -4.67015e-06
-4.05251e-07 -4.67015e-06 -2.34264e-05
0.00178144 -2.80505e-06 -5.49439e-08
-2.80505e-06 0.000369805 4.13581e-08
-5.49439e-08 4.13581e-08 0.000389858
0.0011131 -4.63041e-06 -5.9912e-07
-4.63041e-06 4.22742e-05 -1.6412e-06
-5.9912e-07 -1.6412e-06 5.92701e-05
0.00102136 1.76135e-06 1.45621e-07
1.76135e-06 6.08355e-06 -1.89799e-06
1.45621e-07 -1.89799e-06 -1.92112e-05
0.00102127 3.24581e-06 -4.1332e-08
3.24581e-06 7.45836e-06 -1.02171e-08
-4.1332e-08 -1.02171e-08 -1.87751e-05
0.000949517 3.98535e-06 5.63963e-07
3.98535e-06 -3.66193e-05 -3.23159e-06
5.63963e-07 -3.23159e-06 -3.50276e-05
0.00102297 4.63984e-06 -5.97658e-07
4.63984e-06 1.0667e-05 1.85789e-06
-5.97658e-07 1.85789e-06 -1.70002e-05
0.00123722 6.09947e-06 -2.84015e-08
6.09947e-06 0.000107736 -6.08153e-07
-2.84015e-08 -6.08153e-07 0.000109664
0.00231512 7.50179e-06 4.19779e-06
7.50179e-06 0.000635919 -3.99291e-06
4.19779e-06 -3.99291e-06 0.00065954
0.000954178 7.50332e-06 -1.45865e-06
7.50332e-06 -2.80958e-05 3.1883e-06
-1.45865e-06 3.1883e-06 -2.93537e-05
0.00237167 9.81776e-06 -1.97581e-06
9.81776e-06 0.000668167 1.17537e-06
-1.97581e-06 1.17537e-06 0.000690549
0.00238289 1.24845e-05 -7.2224e-06
1.24845e-05 0.000678167 4.04004e-06
-7.2224e-06 4.04004e-06 0.00069957
0.00120861 -2.07324e-05 -4.3232e-07
-2.07324e-05 2.80526e-05 3.15914e-07
-4.3232e-07 3.15914e-07 -3.33568e-05
0.00126988 -1.37339e-06 -6.29229e-07
-1.37339e-06 7.63118e-05 -1.03775e-06
-6.29229e-07 -1.03775e-06 1.0057e-05
0.0012331 -2.32309e-05 5.46563e-06
-2.32309e-05 5.18009e-05 2.17854e-06
5.46563e-06 2.17854e-06 2.61752e-06
0.0011719 -4.39357e-05 -3.58887e-06
-4.39357e-05 -3.08298e-05 -2.80129e-06
-3.58887e-06 -2.80129e-06 -2.37916e-05
0.00120681 -2.4196e-06 -5.03826e-07
-2.4196e-06 4.0432e-05 -6.5071e-07
-5.03826e-07 -6.5071e-07 -2.16342e-05
0.00107377 2.38857e-06 -9.79292e-08
2.38857e-06 -5.51616e-05 -7.10629e-07
-9.79292e-08 -7.10629e-07 -8.66214e-05
0.00105864 2.14506e-05 -1.72157e-06
2.14506e-05 -7.62141e-05 2.8761e-06
-1.72157e-06 2.8761e-06 -0.000138949
0.00163101 -5.81058e-05 0.000105251
-5.81058e-05 0.0001639 2.99284e-05
0.000105251 2.99284e-05 2.1919e-05
0.000879938 -3.65626e-06 -8.03929e-06
-3.65626e-06 4.42314e-05 1.08706e-06
-8.03929e-06 1.08706e-06 3.16867e-05
0.00105336 -1.29636e-07 -6.25947e-09
-1.29636e-07 3.11402e-05 -1.0767e-06
-6.25947e-09 -1.0767e-06 -1.12618e-05
0.00105924 -5.15581e-06 -1.51827e-07
-5.15581e-06 3.48647e-05 3.8706e-09
-1.51827e-07 3.8706e-09 -8.58576e-06
0.00106349 1.5595e-05 -2.94306e-07
1.5595e-05 4.51942e-05 -6.23774e-07
-2.94306e-07 -6.23774e-07 -1.16104e-05
0.00106723 -4.74663e-06 -1.43464e-07
-4.74663e-06 4.61782e-05 -3.44579e-07
-1.43464e-07 -3.44579e-07 -8.08724e-06
0.00135499 2.76884e-05 -7.32493e-07
2.76884e-05 6.23193e-05 -3.9423e-07
-7.32493e-07 -3.9423e-07 -1.01822e-05
0.00154436 4.37422e-06 2.38696e-06
4.37422e-06 0.000120234 1.90949e-06
2.38696e-06 1.90949e-06 7.02853e-05
0.00120973 -3.09889e-05 -5.22019e-07
-3.09889e-05 -7.29211e-05 -1.4721e-06
-5.22019e-07 -1.4721e-06 -0.000100055
0.00116301 -3.3602e-05 -3.97301e-07
-3.3602e-05 8.29585e-05 1.55012e-06
-3.97301e-07 1.55012e-06 8.10548e-06
0.000828758 -3.61526e-05 -1.2362e-07
-3.61526e-05 -7.07113e-05 1.02251e-06
-1.2362e-07 1.02251e-06 -0.000162287
0.00104474 -3.79968e-05 -1.57119e-06
-3.79968e-05 -5.24118e-05 -1.66881e-06
-1.57119e-06 -1.66881e-06 -0.000116369
0.00114458 -3.48994e-05 -1.23348e-06
-3.48994e-05 7.95038e-05 3.87925e-07
-1.23348e-06 3.87925e-07 2.4481e-07
0.00118354 -3.187e-05 -1.73446e-06
-3.187e-05 0.000104522 -1.0451e-07
-1.73446e-06 -1.0451e-07 1.55391e-05
0.00116884 -2.89059e-05 -8.3141e-07
-2.89059e-05 0.000102124 1.7004e-06
-8.3141e-07 1.7004e-06 1.25904e-05
0.00105251 -8.31347e-07 -4.12784e-07
-8.31347e-07 3.70464e-05 1.16642e-06
-4.12784e-07 1.16642e-06 -1.1805e-05
0.00122463 -2.63612e-05 -4.55036e-07
-2.63612e-05 0.000129376 4.80601e-07
-4.55036e-07 4.80601e-07 4.94914e-05
0.00109134 -4.80357e-06 -1.98387e-07
-4.80357e-06 6.72419e-05 1.0582e-06
-1.98387e-07 1.0582e-06 -8.52075e-08
0.00105534 1.33111e-06 -1.1963e-07
1.33111e-06 3.376e-05 6.61944e-07
-1.1963e-07 6.61944e-07 -1.06983e-05
0.00095456 4.16366e-06 -2.42221e-07
4.16366e-06 -4.40371e-06 1.5023e-06
-2.42221e-07 1.5023e-06 -6.7354e-05
0.00140804 2.81503e-05 1.9061e-07
2.81503e-05 7.57474e-05 1.04291e-06
1.9061e-07 1.04291e-06 5.12492e-06
0.00105616 1.64683e-05 -6.74463e-08
1.64683e-05 4.38729e-05 -4.67664e-07
-6.74463e-08 -4.67664e-07 -1.47791e-05
0.000998817 -4.14713e-06 2.42653e-07
-4.14713e-06 1.93735e-05 1.90913e-08
2.42653e-07 1.90913e-08 -4.54616e-05
0.0010972 8.70244e-06 1.06497e-07
8.70244e-06 7.17228e-05 9.385e-07
1.06497e-07 9.385e-07 1.78819e-07
0.0015598 -1.19297e-05 -8.89156e-07
-1.19297e-05 7.06821e-05 6.26673e-08
-8.89156e-07 6.26673e-08 5.54287e-05
0.00132112 -4.32649e-05 -7.12255e-07
-4.32649e-05 -5.4403e-06 -8.1122e-07
-7.12255e-07 -8.1122e-07 -4.81715e-05
0.0011078 -3.73783e-05 1.70158e-07
-3.73783e-05 7.33912e-05 -2.26231e-07
1.70158e-07 -2.26231e-07 -1.02519e-05
0.00139516 -4.61473e-05 2.56638e-07
-4.61473e-05 0.000180638 3.83067e-07
2.56638e-07 3.83067e-07 9.26771e-05
0.0012123 -2.30584e-05 -4.97151e-08
-2.30584e-05 0.000129203 1.87507e-08
-4.97151e-08 1.87507e-08 4.85267e-05
0.00107022 -2.67482e-05 -3.91318e-07
-2.67482e-05 5.28809e-05 9.31438e-07
-3.91318e-07 9.31438e-07 -3.32505e-05
0.00112033 -3.60897e-05 -4.18897e-07
-3.60897e-05 8.56959e-05 -1.98488e-07
-4.18897e-07 -1.98488e-07 -8.90838e-06
0.00125034 -3.05574e-05 6.08313e-07
-3.05574e-05 0.000151137 -3.4021e-07
6.08313e-07 -3.4021e-07 5.127e-05
0.00120986 2.65824e-05 -7.73662e-07
2.65824e-05 -6.61273e-05 -2.41019e-06
-7.73662e-07 -2.41019e-06 -0.000116596
0.00187702 -4.61555e-05 2.1792e-06
-4.61555e-05 0.000167283 -1.70662e-06
2.1792e-06 -1.70662e-06 0.000156405
0.00156299 -5.4692e-05 4.01659e-06
-5.4692e-05 0.000189918 1.67076e-06
4.01659e-06 1.67076e-06 0.000104467
0.00119456 -4.6135e-05 1.29749e-06
-4.6135e-05 0.000118405 -1.34818e-06
1.29749e-06 -1.34818e-06 2.60816e-05
0.00102844 1.25085e-05 -3.02443e-07
1.25085e-05 3.83289e-05 -6.53067e-07
-3.02443e-07 -6.53067e-07 -3.57484e-05
0.00103649 -1.8356e-05 1.16522e-07
-1.8356e-05 4.23186e-05 -1.34761e-06
1.16522e-07 -1.34761e-06 -3.5459e-05
0.0011027 -2.63858e-05 6.65928e-08
-2.63858e-05 7.92021e-05 -1.11563e-06
6.65928e-08 -1.11563e-06 -1.51926e-05
0.00131358 -3.27966e-05 2.31717e-06
-3.27966e-05 0.000188557 8.9873e-08
2.31717e-06 8.9873e-08 7.58354e-05
0.00141264 2.49787e-05 1.01295e-05
2.49787e-05 -0.000284958 -1.51034e-06
1.01295e-05 -1.51034e-06 -0.000580868
0.00119718 2.9447e-05 -2.29064e-07
2.9447e-05 0.000118151 -3.50407e-07
-2.29064e-07 -3.50407e-07 3.53762e-05
0.0010599 3.08494e-05 -3.19058e-08
3.08494e-05 3.9341e-05 1.37007e-07
-3.19058e-08 1.37007e-07 -4.74064e-05
0.00114541 1.77458e-05 -2.81521e-06
1.77458e-05 -0.000129715 1.84179e-06
-2.81521e-06 1.84179e-06 -0.000160053
0.00154024 5.04473e-05 -2.7055e-06
5.04473e-05 7.40419e-05 -7.98912e-07
-2.7055e-06 -7.98912e-07 1.43891e-05
0.00140803 5.07091e-05 -1.80972e-06
5.07091e-05 0.000195033 5.85589e-07
-1.80972e-06 5.85589e-07 8.17212e-05
0.000992552 3.36265e-05 4.96693e-07
3.36265e-05 1.89092e-05 -2.9947e-07
4.96693e-07 -2.9947e-07 -7.80735e-05
0.00197367 -3.53563e-05 3.8511e-06
-3.53563e-05 0.00017598 7.92362e-06
3.8511e-06 7.92362e-06 0.000172707
0.00119663 2.95673e-05 3.01863e-08
2.95673e-05 0.000120151 -1.37922e-07
3.01863e-08 -1.37922e-07 3.24474e-05
0.00144346 6.12672e-05 2.09056e-06
6.12672e-05 -5.67659e-05 1.99202e-07
2.09056e-06 1.99202e-07 -0.000119599
0.00115464 3.21882e-05 9.45848e-08
3.21882e-05 9.93617e-05 1.07677e-07
9.45848e-08 1.07677e-07 6.89221e-06
0.00114405 4.12782e-05 -2.60754e-07
4.12782e-05 0.000122572 3.31712e-08
-2.60754e-07 3.31712e-08 5.05226e-06
0.00076888 6.21676e-05 -6.76708e-07
6.21676e-05 -0.000177572 -3.43326e-07
-6.76708e-07 -3.43326e-07 -0.000276845
0.000864771 2.66334e-06 -1.36129e-05
2.66334e-06 -0.000208535 -6.04924e-06
-1.36129e-05 -6.04924e-06 -0.000574915
0.00179063 -5.50211e-05 6.60785e-06
-5.50211e-05 0.00023315 -2.17022e-06
6.60785e-06 -2.17022e-06 -5.61897e-05
0.00244197 1.08235e-05 -2.51392e-06
1.08235e-05 0.000202828 -7.0033e-07
-2.51392e-06 -7.0033e-07 0.000254108
-0.0005146 -6.26553e-05 -1.03625e-05
-6.26553e-05 -0.000494631 -2.10482e-06
-1.03625e-05 -2.10482e-06 -0.000546282
0.000583502 -6.5968e-05 -2.1637e-06
-6.5968e-05 -0.000179432 -9.25385e-07
-2.1637e-06 -9.25385e-07 2.46685e-05
0.00113084 2.83658e-05 9.34656e-07
2.83658e-05 9.85821e-05 1.50446e-09
9.34656e-07 1.50446e-09 7.64041e-06
0.000496996 1.82406e-05 -6.81134e-05
1.82406e-05 3.5197e-06 -9.42664e-06
-6.81134e-05 -9.42664e-06 -0.000132356
0.00178666 -3.46817e-05 6.54973e-06
-3.46817e-05 0.000696817 5.68615e-06
6.54973e-06 5.68615e-06 0.000773313
0.00154512 8.48164e-05 7.69145e-06
8.48164e-05 8.86987e-05 7.06779e-06
7.69145e-06 7.06779e-06 -4.04245e-06
0.000955628 2.71229e-05 -5.99896e-08
2.71229e-05 2.43532e-05 -5.06626e-07
-5.99896e-08 -5.06626e-07 -8.07594e-05
0.00158469 4.47314e-05 -2.99438e-06
4.47314e-05 0.000373887 9.82735e-07
-2.99438e-06 9.82735e-07 0.000222266
0.00211256 4.10042e-06 -2.36046e-05
4.10042e-06 0.000175987 -2.44131e-05
-2.36046e-05 -2.44131e-05 0.000116905
0.00550616 -4.21992e-05 -4.9429e-05
-4.21992e-05 0.00163099 -1.93279e-05
-4.9429e-05 -1.93279e-05 0.0011388
0.00123641 8.95817e-06 3.14268e-05
8.95817e-06 0.000239482 2.08911e-05
3.14268e-05 2.08911e-05 -0.000205071
4.90607e-05 -0.000114649 -4.84756e-05
-0.000114649 -0.000116808 -2.87854e-05
-4.84756e-05 -2.87854e-05 -6.21441e-05
-0.000961777 -3.53046e-05 4.06679e-06
-3.53046e-05 -0.00104269 1.61957e-06
4.06679e-06 1.61957e-06 -0.000948512
0.00113778 2.75681e-05 -7.24556e-07
2.75681e-05 8.89664e-05 -6.12784e-07
-7.24556e-07 -6.12784e-07 3.14011e-06
0.00120317 2.64667e-05 -3.54593e-07
2.64667e-05 0.000112433 1.0997e-07
-3.54593e-07 1.0997e-07 2.26335e-05
0.00122125 2.60112e-05 -9.0292e-08
2.60112e-05 0.00010991 1.60352e-07
-9.0292e-08 1.60352e-07 1.71741e-05
0.00105055 -1.66846e-06 3.0277e-08
-1.66846e-06 3.87817e-05 -6.55393e-07
3.0277e-08 -6.55393e-07 -1.33711e-05
0.00107952 -2.03906e-07 6.3621e-08
-2.03906e-07 5.81115e-05 -8.81111e-07
6.3621e-08 -8.81111e-07 -8.97606e-06
0.0010032 1.66545e-05 -5.31242e-07
1.66545e-05 2.02504e-05 -9.37976e-07
-5.31242e-07 -9.37976e-07 -5.66573e-05
0.00112784 2.04997e-05 -5.07408e-07
2.04997e-05 7.97467e-05 -9.95009e-07
-5.07408e-07 -9.95009e-07 -2.86897e-06
0.00117631 1.8971e-05 -4.85614e-07
1.8971e-05 9.79129e-05 -6.41344e-07
-4.85614e-07 -6.41344e-07 1.08985e-05
0.000843649 -2.46464e-06 4.47253e-08
-2.46464e-06 -6.32455e-05 4.85595e-07
4.47253e-08 4.85595e-07 -0.000116753
0.00116899 2.42628e-05 -2.27701e-07
2.42628e-05 0.000100554 -5.68168e-07
-2.27701e-07 -5.68168e-07 1.85063e-05
0.00113119 1.22286e-05 1.68727e-08
1.22286e-05 8.41096e-05 3.67488e-07
1.68727e-08 3.67488e-07 6.5426e-06
0.00101494 1.62683e-06 1.25524e-07
1.62683e-06 2.62073e-05 -4.00801e-07
1.25524e-07 -4.00801e-07 -4.18912e-05
0.001125 2.22985e-05 4.13128e-08
2.22985e-05 7.60581e-05 2.43446e-07
4.13128e-08 2.43446e-07 -1.32027e-05
0.00112645 2.15584e-05 1.19089e-07
2.15584e-05 8.26867e-05 3.52536e-07
1.19089e-07 3.52536e-07 -3.08676e-06
0.00112826 2.06992e-05 4.44063e-07
2.06992e-05 8.85461e-05 7.49347e-07
4.44063e-07 7.49347e-07 -6.22577e-06
0.00111346 -9.14538e-06 -2.64475e-07
-9.14538e-06 7.65956e-05 7.41359e-07
-2.64475e-07 7.41359e-07 -3.04858e-06
0.00112793 -9.02611e-06 -1.34144e-07
-9.02611e-06 8.19234e-05 3.16282e-07
-1.34144e-07 3.16282e-07 1.50959e-05
0.00113448 -4.30586e-06 -1.15879e-08
-4.30586e-06 8.54179e-05 -7.91381e-08
-1.15879e-08 -7.91381e-08 1.91107e-05
0.00114386 -5.45581e-06 -7.55248e-08
-5.45581e-06 9.24365e-05 -3.72623e-07
-7.55248e-08 -3.72623e-07 1.5202e-05
0.00112786 3.82068e-06 -1.81817e-07
3.82068e-06 8.43562e-05 8.69699e-07
-1.81817e-07 8.69699e-07 6.41554e-06
0.00110893 -1.43468e-05 -2.31321e-07
-1.43468e-05 7.62747e-05 6.99958e-07
-2.31321e-07 6.99958e-07 -1.96567e-06
0.00117077 -1.29401e-05 -8.50042e-08
-1.29401e-05 0.000106978 -5.89684e-08
-8.50042e-08 -5.89684e-08 2.2816e-05
0.00108765 -2.5609e-05 -1.00743e-06
-2.5609e-05 6.31357e-05 4.68672e-07
-1.00743e-06 4.68672e-07 -1.63693e-05
0.00107559 -1.55331e-05 -3.3565e-07
-1.55331e-05 5.73796e-05 8.414e-07
-3.3565e-07 8.414e-07 -1.1645e-05
0.00108051 -1.33049e-05 1.95197e-08
-1.33049e-05 5.97953e-05 6.74513e-09
1.95197e-08 6.74513e-09 -7.9602e-06
0.00105306 -9.37184e-06 -5.05152e-07
-9.37184e-06 3.80161e-05 1.2229e-06
-5.05152e-07 1.2229e-06 -1.52024e-05
0.000935518 -7.8854e-06 4.41576e-07
-7.8854e-06 -1.1715e-05 -1.3586e-06
4.41576e-07 -1.3586e-06 -7.96176e-05
0.000956342 -6.38378e-06 7.61148e-08
-6.38378e-06 -8.90348e-06 -2.15211e-08
7.61148e-08 -2.15211e-08 -6.19589e-05
0.00101928 2.35226e-06 -5.47903e-07
2.35226e-06 1.08505e-05 1.89566e-06
-5.47903e-07 1.89566e-06 -2.14165e-05
0.000857867 -8.46206e-07 1.62425e-07
-8.46206e-07 -5.68827e-05 -6.51751e-07
1.62425e-07 -6.51751e-07 -0.000110154
0.00101962 1.21986e-06 4.62899e-08
1.21986e-06 1.01696e-05 3.5334e-09
4.62899e-08 3.5334e-09 -2.18201e-05
0.00160362 3.55834e-06 -1.65288e-06
3.55834e-06 0.000286455 4.5764e-06
-1.65288e-06 4.5764e-06 0.000287371
0.00101703 -2.07345e-07 2.86658e-07
-2.07345e-07 8.63543e-06 -1.86581e-06
2.86658e-07 -1.86581e-06 -2.329e-05
0.00128373 1.63229e-06 -4.37158e-07
1.63229e-06 0.000127413 6.42227e-07
-4.37158e-07 6.42227e-07 0.000127086
0.0011709 1.23296e-06 -1.12412e-06
1.23296e-06 6.72357e-05 4.11228e-06
-1.12412e-06 4.11228e-06 8.43081e-05
0.000963808 -3.46382e-07 8.28347e-08
-3.46382e-07 -3.0694e-05 -3.32783e-06
8.28347e-08 -3.32783e-06 -3.23523e-05
0.00240769 -6.01057e-07 5.82352e-07
-6.01057e-07 0.000677939 4.97206e-10
5.82352e-07 4.97206e-10 0.000701055
0.00115877 -2.2402e-06 -5.44983e-07
-2.2402e-06 6.24693e-05 -4.11901e-06
-5.44983e-07 -4.11901e-06 7.95704e-05
0.00106605 3.81536e-06 5.24239e-09
3.81536e-06 3.73057e-05 -6.31938e-07
5.24239e-09 -6.31938e-07 -5.1958e-06
0.00102066 1.68811e-07 -1.87537e-08
1.68811e-07 4.84163e-06 -1.89981e-06
-1.87537e-08 -1.89981e-06 -1.99951e-05
0.00102362 1.70289e-06 -4.71103e-08
1.70289e-06 7.1266e-06 -7.49509e-09
-4.71103e-08 -7.49509e-09 -1.8183e-05
0.000954718 2.04109e-06 2.88241e-07
2.04109e-06 -3.54754e-05 -3.23801e-06
2.88241e-07 -3.23801e-06 -3.31905e-05
0.00102327 3.18273e-06 -4.36848e-07
3.18273e-06 8.32528e-06 1.89515e-06
-4.36848e-07 1.89515e-06 -1.79086e-05
0.000950767 3.97667e-06 2.35899e-08
3.97667e-06 -3.61655e-05 -6.29252e-07
2.35899e-08 -6.29252e-07 -3.4541e-05
0.00229162 5.0195e-06 2.7029e-06
5.0195e-06 0.000621939 -3.99377e-06
2.7029e-06 -3.99377e-06 0.000646204
0.00151967 6.68237e-06 -1.10433e-06
6.68237e-06 0.000247363 1.96704e-06
-1.10433e-06 1.96704e-06 0.000250558
0.00174955 6.9185e-06 1.02116e-08
6.9185e-06 0.000357535 1.21179e-06
1.02116e-08 1.21179e-06 0.000378098
0.00120443 8.37105e-06 -6.09908e-06
8.37105e-06 9.25559e-05 6.52469e-06
-6.09908e-06 6.52469e-06 0.000109044
0.000734249 -4.00524e-05 -2.8004e-07
-4.00524e-05 -0.000247222 2.30181e-06
-2.8004e-07 2.30181e-06 -0.000227681
0.000996964 -3.41818e-06 -1.13734e-08
-3.41818e-06 -5.53488e-05 -7.64212e-07
-1.13734e-08 -7.64212e-07 -0.000117866
0.00107114 2.63136e-06 -9.29914e-07
2.63136e-06 -5.74117e-05 -3.20868e-06
-9.29914e-07 -3.20868e-06 -9.53137e-05
0.000804682 -5.99082e-05 3.67891e-05
-5.99082e-05 -3.5402e-05 4.98122e-06
3.67891e-05 4.98122e-06 -0.000149658
0.000802513 -8.93062e-06 -2.59987e-06
-8.93062e-06 7.76044e-06 -7.64159e-08
-2.59987e-06 -7.64159e-08 2.87975e-06
0.00108926 2.39839e-05 -9.23407e-07
2.39839e-05 -6.37411e-05 -1.32563e-06
-9.23407e-07 -1.32563e-06 -0.000128402
0.00121987 3.94063e-05 -2.53035e-06
3.94063e-05 0.000156753 5.00911e-06
-2.53035e-06 5.00911e-06 0.000104257
0.000384465 -6.01585e-06 8.48995e-05
-6.01585e-06 -0.00031462 7.44564e-06
8.48995e-05 7.44564e-06 -0.000476493
0.00543008 -1.62428e-05 -1.19586e-05
-1.62428e-05 0.00150982 5.64628e-06
-1.19586e-05 5.64628e-06 0.00106095
0.00204882 8.22203e-05 -2.05197e-05
8.22203e-05 0.000791569 1.18907e-05
-2.05197e-05 1.18907e-05 0.000699245
0.000843797 4.62452e-05 -1.11887e-06
4.62452e-05 3.59549e-05 -9.35267e-07
-1.11887e-06 -9.35267e-07 0.00018522
0.000887114 2.91761e-07 2.02134e-07
2.91761e-07 -4.17078e-05 -1.2115e-06
2.02134e-07 -1.2115e-06 -9.78396e-05
0.0010572 -8.09031e-07 5.7062e-08
-8.09031e-07 3.31033e-05 1.61055e-08
5.7062e-08 1.61055e-08 -9.36448e-06
0.00106496 -6.46651e-06 -3.47679e-07
-6.46651e-06 3.77493e-05 1.13915e-06
-3.47679e-07 1.13915e-06 -5.77701e-06
0.00100395 1.56863e-05 -4.7849e-08
1.56863e-05 1.66976e-05 -7.36787e-09
-4.7849e-08 -7.36787e-09 -4.04038e-05
0.00118095 2.58738e-05 6.32171e-08
2.58738e-05 0.000108291 7.0421e-08
6.32171e-08 7.0421e-08 4.19137e-05
0.00114665 1.93148e-05 9.2464e-08
1.93148e-05 8.69542e-05 1.46689e-08
9.2464e-08 1.46689e-08 2.43269e-05
0.0011075 7.07794e-07 1.44927e-07
7.07794e-07 6.74065e-05 -1.44419e-06
1.44927e-07 -1.44419e-06 1.15198e-05
0.00101351 -8.36958e-06 -2.31529e-08
-8.36958e-06 2.00724e-05 4.36457e-07
-2.31529e-08 4.36457e-07 -3.47535e-05
0.00151158 2.78581e-05 1.64709e-07
2.78581e-05 0.000123253 1.18538e-06
1.64709e-07 1.18538e-06 5.48479e-05
0.00149109 -1.33424e-05 1.84788e-06
-1.33424e-05 4.94809e-05 1.13525e-06
1.84788e-06 1.13525e-06 2.87898e-05
0.000946681 -4.00901e-05 -4.66499e-06
-4.00901e-05 -0.000184363 -3.13152e-06
-4.66499e-06 -3.13152e-06 -0.00022604
0.00126908 -3.89764e-05 8.4557e-08
-3.89764e-05 0.000149592 1.22508e-06
8.4557e-08 1.22508e-06 6.58219e-05
0.00115299 -4.36967e-05 -7.37136e-07
-4.36967e-05 6.52284e-05 7.91246e-07
-7.37136e-07 7.91246e-07 -2.2043e-05
0.00106685 -3.54865e-05 -2.78065e-06
-3.54865e-05 5.85715e-05 3.49064e-07
-2.78065e-06 3.49064e-07 -3.5533e-05
0.00124773 -3.03233e-05 -6.743e-08
-3.03233e-05 0.000151775 6.44113e-07
-6.743e-08 6.44113e-07 5.19814e-05
0.0010789 -2.70188e-05 -6.03377e-07
-2.70188e-05 5.62089e-05 1.34529e-06
-6.03377e-07 1.34529e-06 -2.88487e-05
0.00108216 -8.40487e-06 -1.84782e-07
-8.40487e-06 6.02469e-05 1.00661e-06
-1.84782e-07 1.00661e-06 -3.68334e-06
0.00125357 -2.10561e-05 -1.17463e-07
-2.10561e-05 0.000149755 6.21231e-07
-1.17463e-07 6.21231e-07 6.92135e-05
0.00126351 1.75856e-05 1.28519e-08
1.75856e-05 0.000145487 4.11276e-07
1.28519e-08 4.11276e-07 8.80296e-05
0.001013 3.95077e-06 1.23289e-07
3.95077e-06 2.98387e-05 1.67686e-06
1.23289e-07 1.67686e-06 -4.09469e-05
0.00164588 3.02927e-05 1.31238e-06
3.02927e-05 0.000128687 -7.87451e-07
1.31238e-06 -7.87451e-07 7.96364e-05
0.0010547 1.0581e-05 -1.33983e-07
1.0581e-05 5.07178e-05 2.34823e-07
-1.33983e-07 2.34823e-07 -2.29077e-05
0.00111241 -1.89953e-05 8.41898e-08
-1.89953e-05 8.00509e-05 -3.92953e-07
8.41898e-08 -3.92953e-07 2.43703e-06
0.00152278 -4.39021e-05 -3.27396e-06
-4.39021e-05 -1.6972e-07 -1.42011e-06
-3.27396e-06 -1.42011e-06 -7.01454e-06
0.000879324 -4.86638e-05 1.72852e-06
-4.86638e-05 -0.000129606 1.04178e-06
1.72852e-06 1.04178e-06 -0.00021256
0.00125933 -4.73541e-05 -4.03352e-07
-4.73541e-05 0.00014631 -1.15211e-07
-4.03352e-07 -1.15211e-07 5.10657e-05
0.00111436 -2.58672e-05 -1.15566e-07
-2.58672e-05 8.52515e-05 -4.35441e-07
-1.15566e-07 -4.35441e-07 -9.48297e-06
0.0011607 -3.09418e-05 9.88512e-07
-3.09418e-05 0.000112782 3.44448e-07
9.88512e-07 3.44448e-07 7.95121e-07
0.00221478 -2.40412e-06 -5.31748e-06
-2.40412e-06 0.000172911 6.69874e-06
-5.31748e-06 6.69874e-06 0.00022264
0.00215778 -8.24697e-05 7.53335e-06
-8.24697e-05 0.00043581 1.55945e-06
7.53335e-06 1.55945e-06 0.000351966
0.000316785 -4.89948e-05 1.13886e-06
-4.89948e-05 -0.000323677 -1.20823e-06
1.13886e-06 -1.20823e-06 -0.000424155
0.0012615 -4.15844e-05 1.87485e-06
-4.15844e-05 0.000162496 1.49587e-08
1.87485e-06 1.49587e-08 4.20509e-05
0.00102517 -1.74765e-05 -2.10447e-07
-1.74765e-05 3.87975e-05 -1.03829e-06
-2.10447e-07 -1.03829e-06 -4.22454e-05
0.0011511 -1.63714e-05 -1.18187e-07
-1.63714e-05 0.000102993 -9.64659e-07
-1.18187e-07 -9.64659e-07 1.43812e-05
0.0013388 -2.24091e-05 -5.11204e-07
-2.24091e-05 0.000201627 -1.1714e-06
-5.11204e-07 -1.1714e-06 9.16454e-05
-0.00151426 5.13991e-06 -5.99156e-05
5.13991e-06 -0.000703768 -7.82708e-07
-5.99156e-05 -7.82708e-07 -0.000666504
0.00505801 5.01751e-06 -2.32671e-05
5.01751e-06 0.00155773 -5.78277e-08
-2.32671e-05 -5.78277e-08 0.00123706
0.00117929 2.93388e-05 -4.43175e-08
2.93388e-05 0.000112225 -1.91356e-07
-4.43175e-08 -1.91356e-07 2.48753e-05
0.00100665 3.01896e-05 3.82021e-07
3.01896e-05 2.90533e-05 -4.52043e-07
3.82021e-07 -4.52043e-07 -6.31925e-05
0.00192994 6.23645e-05 -6.83604e-06
6.23645e-05 0.00016836 -3.89417e-07
-6.83604e-06 -3.89417e-07 0.000106191
0.00111654 6.35595e-05 -1.82717e-06
6.35595e-05 -1.76929e-05 -3.41836e-07
-1.82717e-06 -3.41836e-07 -0.000111522
0.00108381 3.96842e-05 5.01638e-07
3.96842e-05 9.18024e-05 -1.43847e-06
5.01638e-07 -1.43847e-06 -2.3225e-05
0.00540399 4.44007e-05 -8.48679e-06
4.44007e-05 0.00145066 -2.58096e-06
-8.48679e-06 -2.58096e-06 0.000994736
0.000132054 -6.54393e-05 -2.7563e-05
-6.54393e-05 -0.000107469 -9.28611e-06
-2.7563e-05 -9.28611e-06 -0.000316986
0.00231757 1.8067e-05 1.30719e-05
1.8067e-05 0.000148861 5.33244e-06
1.30719e-05 5.33244e-06 0.000187691
0.0026686 -0.000100685 2.20475e-05
-0.000100685 0.00110826 1.03546e-05
2.20475e-05 1.03546e-05 0.0010382
-3.83582e-05 -6.68158e-05 6.52756e-06
-6.68158e-05 -0.000501065 2.4791e-06
6.52756e-06 2.4791e-06 -0.000316193
0.00113616 2.84948e-05 3.07939e-07
2.84948e-05 9.7828e-05 -2.01302e-07
3.07939e-07 -2.01302e-07 7.08393e-06
-0.00117386 1.25282e-06 -1.39096e-05
1.25282e-06 -0.000455208 -1.08752e-06
-1.39096e-05 -1.08752e-06 -0.000467301
0.0012431 -3.25702e-05 -3.36168e-07
-3.25702e-05 0.000413375 -2.68565e-07
-3.36168e-07 -2.68565e-07 0.000480893
0.00154053 8.58766e-05 2.03158e-06
8.58766e-05 8.63232e-05 2.03123e-06
2.03158e-06 2.03123e-06 -6.44541e-06
0.00116593 2.71985e-05 6.78516e-08
2.71985e-05 0.000125953 -9.77899e-07
6.78516e-08 -9.77899e-07 2.47214e-05
0.00134393 4.33784e-05 3.01254e-07
4.33784e-05 0.000265019 3.59651e-08
3.01254e-07 3.59651e-08 0.000117572
0.00199914 7.75478e-06 -2.2161e-05
7.75478e-06 0.000139578 -2.02335e-05
-2.2161e-05 -2.02335e-05 7.77011e-05
0.00373565 9.65898e-06 9.68905e-06
9.65898e-06 0.00072808 6.80113e-06
9.68905e-06 6.80113e-06 0.000152098
-5.53557e-06 -1.44294e-05 -7.07886e-06
-1.44294e-05 -9.2041e-05 -1.15254e-05
-7.07886e-06 -1.15254e-05 -0.000308937
0.00176588 -0.000152266 2.18804e-07
-0.000152266 0.000328992 3.02383e-06
2.18804e-07 3.02383e-06 0.000286853
-0.000691575 -4.23079e-05 -8.8525e-07
-4.23079e-05 -0.000917985 -8.35586e-06
-8.8525e-07 -8.35586e-06 -0.000784962
0.00101614 1.82802e-05 -4.46083e-07
1.82802e-05 1.85774e-05 -3.27003e-07
-4.46083e-07 -3.27003e-07 -7.36283e-05
0.000280068 -6.88771e-06 9.65933e-06
-6.88771e-06 -7.75268e-05 2.81724e-06
9.65933e-06 2.81724e-06 -8.00624e-05
0.000567132 -9.00093e-06 8.91535e-06
-9.00093e-06 4.11546e-07 1.57701e-05
8.91535e-06 1.57701e-05 -2.33907e-05
0.00122133 3.61431e-05 1.12372e-05
3.61431e-05 0.00016717 8.59744e-06
1.12372e-05 8.59744e-06 -1.61464e-05
0.00147811 1.73511e-05 -4.27331e-06
1.73511e-05 0.000322792 -1.57147e-06
-4.27331e-06 -1.57147e-06 0.000200818
0.00192562 -2.99234e-05 -6.62573e-06
-2.99234e-05 0.000506694 -4.02197e-06
-6.62573e-06 -4.02197e-06 0.000486992
7.40087e-05 5.80995e-05 -2.68835e-05
5.80995e-05 5.07882e-05 -8.59606e-06
-2.68835e-05 -8.59606e-06 -0.000150426
0.00329965 -6.76553e-05 3.8865e-05
-6.76553e-05 0.000352109 2.08066e-05
3.8865e-05 2.08066e-05 -0.000226671
0.00222425 -0.000173289 -2.14219e-05
-0.000173289 0.000397396 -2.52228e-05
-2.14219e-05 -2.52228e-05 0.000343097
-0.000180326 -1.64052e-05 4.23867e-06
-1.64052e-05 -0.000539637 2.88494e-06
4.23867e-06 2.88494e-06 -0.000530984
0.00124343 2.7705e-05 -6.25386e-07
2.7705e-05 0.000132526 3.70636e-07
-6.25386e-07 3.70636e-07 4.2684e-05
0.00116106 2.44797e-05 2.14072e-07
2.44797e-05 8.23248e-05 1.94111e-07
2.14072e-07 1.94111e-07 -1.07438e-05
0.00107782 2.46898e-05 1.12651e-06
2.46898e-05 6.00537e-05 5.82477e-07
1.12651e-06 5.82477e-07 -3.69577e-05
0.000849286 3.46472e-06 1.37657e-07
3.46472e-06 -6.0523e-05 -6.3604e-07
1.37657e-07 -6.3604e-07 -0.000114077
0.00111562 4.9614e-06 3.82267e-08
4.9614e-06 7.57195e-05 -1.28746e-06
3.82267e-08 -1.28746e-06 8.35325e-06
0.00123962 2.99248e-06 -8.25991e-08
2.99248e-06 0.000137611 -5.56032e-08
-8.25991e-08 -5.56032e-08 6.10319e-05
0.00107486 2.04593e-05 -1.13347e-07
2.04593e-05 5.37831e-05 -1.12398e-06
-1.13347e-07 -1.12398e-06 -2.82441e-05
0.00104644 2.23753e-05 -1.3571e-07
2.23753e-05 3.68063e-05 -2.40675e-07
-1.3571e-07 -2.40675e-07 -5.30148e-05
0.00112235 3.28553e-06 1.69767e-07
3.28553e-06 7.93487e-05 -4.85445e-07
1.69767e-07 -4.85445e-07 1.23951e-05
0.00111701 2.02789e-05 4.17321e-08
2.02789e-05 7.77135e-05 5.15711e-08
4.17321e-08 5.15711e-08 -7.35554e-06
0.00113058 1.39556e-07 -6.80746e-08
1.39556e-07 8.50016e-05 1.56799e-07
-6.80746e-08 1.56799e-07 5.27771e-06
0.00111296 2.13413e-05 7.87972e-08
2.13413e-05 8.09933e-05 1.99805e-07
7.87972e-08 1.99805e-07 -1.46924e-05
0.00102709 1.75443e-05 3.42785e-08
1.75443e-05 4.54442e-05 3.31924e-07
3.42785e-08 3.31924e-07 -5.61524e-05
0.00118433 1.3417e-05 1.20463e-07
1.3417e-05 0.000116066 9.31135e-07
1.20463e-07 9.31135e-07 2.54741e-05
0.00114846 5.22286e-06 4.49071e-08
5.22286e-06 9.33495e-05 6.1034e-07
4.49071e-08 6.1034e-07 1.46817e-05
0.00113147 -6.49466e-06 9.92677e-08
-6.49466e-06 8.39944e-05 -9.15723e-07
9.92677e-08 -9.15723e-07 1.76812e-05
0.00102215 -1.59913e-05 4.20851e-07
-1.59913e-05 3.23341e-05 -1.21699e-06
4.20851e-07 -1.21699e-06 -4.58387e-05
0.00113386 1.96137e-06 1.38093e-07
1.96137e-06 8.68143e-05 1.60263e-08
1.38093e-07 1.60263e-08 8.96377e-06
0.00111351 -1.51554e-05 -1.89668e-08
-1.51554e-05 7.85508e-05 2.72202e-08
-1.89668e-08 2.72202e-08 1.98809e-07
0.00111713 -1.76131e-05 2.67525e-07
-1.76131e-05 8.03639e-05 -5.849e-07
2.67525e-07 -5.849e-07 -3.54649e-06
0.0010767 -2.09247e-05 -5.15115e-07
-2.09247e-05 6.28149e-05 1.07742e-06
-5.15115e-07 1.07742e-06 -1.73628e-05
0.0012012 -4.76528e-06 -3.41969e-07
-4.76528e-06 0.000120072 1.39542e-07
-3.41969e-07 1.39542e-07 3.39343e-05
0.000990866 -2.45045e-05 -3.94644e-08
-2.45045e-05 2.1803e-05 3.42745e-07
-3.94644e-08 3.42745e-07 -6.56398e-05
0.0011325 -2.79612e-05 -3.6596e-07
-2.79612e-05 8.14689e-05 -9.45703e-07
-3.6596e-07 -9.45703e-07 -5.03693e-07
0.000926071 -2.83432e-05 5.30855e-08
-2.83432e-05 -1.80617e-05 1.55717e-07
5.30855e-08 1.55717e-07 -9.19382e-05
0.00102333 -2.70986e-05 -8.59094e-07
-2.70986e-05 2.62506e-05 -3.06859e-07
-8.59094e-07 -3.06859e-07 -4.92722e-05
0.00110699 -2.541e-05 -3.70201e-07
-2.541e-05 7.19023e-05 1.95179e-07
-3.70201e-07 1.95179e-07 -7.40906e-06
0.00108797 -2.08305e-05 -1.00114e-06
-2.08305e-05 6.07893e-05 1.15479e-06
-1.00114e-06 1.15479e-06 -8.51559e-06
0.00108494 -1.72842e-05 -1.38437e-08
-1.72842e-05 6.19816e-05 -1.31778e-08
-1.38437e-08 -1.31778e-08 -7.12595e-06
0.00105102 -9.33683e-06 -6.52788e-07
-9.33683e-06 3.656e-05 1.23414e-06
-6.52788e-07 1.23414e-06 -1.76662e-05
0.00108383 -1.53689e-05 4.38952e-07
-1.53689e-05 6.15366e-05 -8.18254e-07
4.38952e-07 -8.18254e-07 -6.2694e-06
0.00105558 -8.35167e-06 9.4291e-08
-8.35167e-06 3.92086e-05 -1.3988e-08
9.4291e-08 -1.3988e-08 -1.4006e-05
0.00101451 2.83775e-06 -7.61349e-07
2.83775e-06 9.61769e-06 1.92544e-06
-7.61349e-07 1.92544e-06 -2.32014e-05
0.000861262 -5.04594e-06 3.75503e-07
-5.04594e-06 -5.55395e-05 -1.18762e-06
3.75503e-07 -1.18762e-06 -0.000109224
0.00101769 2.21021e-06 5.15596e-08
2.21021e-06 9.96747e-06 -1.05107e-09
5.15596e-08 -1.05107e-09 -2.23e-05
0.00160165 5.47383e-06 -2.55722e-06
5.47383e-06 0.000287435 4.55553e-06
-2.55722e-06 4.55553e-06 0.000288003
0.00101676 1.07181e-06 4.72187e-07
1.07181e-06 8.59569e-06 -1.88866e-06
4.72187e-07 -1.88866e-06 -2.33662e-05
0.00128119 3.58922e-06 -6.95759e-07
3.58922e-06 0.000127305 6.39475e-07
-6.95759e-07 6.39475e-07 0.000126759
0.00112081 3.83798e-06 -6.37888e-07
3.83798e-06 4.38377e-05 1.62159e-06
-6.37888e-07 1.62159e-06 6.09007e-05
0.000962716 1.54264e-06 4.18331e-07
1.54264e-06 -3.11808e-05 -3.30969e-06
4.18331e-07 -3.30969e-06 -3.29437e-05
0.00241543 1.94593e-06 5.40448e-07
1.94593e-06 0.00068171 4.92329e-09
5.40448e-07 4.92329e-09 0.00070477
0.00240422 -4.93878e-07 7.20767e-07
-4.93878e-07 0.000676213 -4.20269e-06
7.20767e-07 -4.20269e-06 0.000699339
0.00130694 5.59685e-06 -3.16277e-07
5.59685e-06 0.000156111 -9.23587e-07
-3.16277e-07 -9.23587e-07 0.000114216
0.00102441 -1.05851e-06 -2.47294e-07
-1.05851e-06 6.89167e-06 -1.89936e-06
-2.47294e-07 -1.89936e-06 -1.81298e-05
0.00105911 2.23793e-06 5.40227e-08
2.23793e-06 3.39314e-05 4.23721e-07
5.40227e-08 4.23721e-07 -8.53664e-06
0.000959048 9.0846e-08 -7.0598e-08
9.0846e-08 -3.38342e-05 -3.24348e-06
-7.0598e-08 -3.24348e-06 -3.13499e-05
0.00102404 1.00622e-07 -3.09378e-08
1.00622e-07 6.52641e-06 1.11057e-09
-3.09378e-08 1.11057e-09 -1.83456e-05
0.00102584 1.64441e-06 -2.44739e-07
1.64441e-06 8.14099e-06 1.91366e-06
-2.44739e-07 1.91366e-06 -1.71822e-05
0.000959887 2.07535e-06 -5.57799e-08
2.07535e-06 -3.2928e-05 2.39275e-09
-5.57799e-08 2.39275e-09 -3.06801e-05
0.00227739 2.50772e-06 1.21774e-06
2.50772e-06 0.000613601 -4.01769e-06
1.21774e-06 -4.01769e-06 0.000638239
0.00151644 4.59444e-06 -7.85056e-07
4.59444e-06 0.000243164 1.98286e-06
-7.85056e-07 1.98286e-06 0.000247478
0.0017168 4.73317e-06 6.83536e-07
4.73317e-06 0.000338432 2.27739e-08
6.83536e-07 2.27739e-08 0.0003599
0.00120162 6.27344e-06 -4.92604e-06
6.27344e-06 8.67458e-05 6.43035e-06
-4.92604e-06 6.43035e-06 0.000104564
-0.00373474 1.60693e-05 -3.28941e-05
1.60693e-05 -0.00188096 1.07171e-05
-3.28941e-05 1.07171e-05 -0.00189094
-0.00108932 2.29577e-05 -1.07887e-06
2.29577e-05 -0.000950098 -2.23841e-07
-1.07887e-06 -2.23841e-07 -0.000930502
0.00018824 -4.67563e-05 -3.64191e-05
-4.67563e-05 -0.000172055 -8.22613e-06
-3.64191e-05 -8.22613e-06 -0.000268985
0.000811661 -1.3761e-05 1.93616e-06
-1.3761e-05 1.7093e-05 6.38027e-08
1.93616e-06 6.38027e-08 1.88233e-05
0.00116569 2.71437e-05 -5.08813e-06
2.71437e-05 -2.92283e-05 -2.3457e-06
-5.08813e-06 -2.3457e-06 -9.5882e-05
0.000412959 -1.71249e-05 1.44679e-05
-1.71249e-05 3.93798e-05 1.06339e-07
1.44679e-05 1.06339e-07 -2.0645e-05
0.00125876 4.20064e-05 1.42911e-06
4.20064e-05 0.000141888 2.18227e-06
1.42911e-06 2.18227e-06 8.62286e-05
0.00314737 -1.94694e-06 -1.47952e-05
-1.94694e-06 0.000651461 4.34423e-07
-1.47952e-05 4.34423e-07 0.000253632
-0.00140616 4.21958e-05 1.09427e-05
4.21958e-05 -0.000666832 -3.96649e-06
1.09427e-05 -3.96649e-06 -0.000694451
0.000440723 4.96266e-05 -1.15886e-07
4.96266e-05 -0.00018188 1.90169e-06
-1.15886e-07 1.90169e-06 -4.27815e-05
0.000853829 2.78518e-05 1.6336e-05
2.78518e-05 0.000237109 -1.06338e-05
1.6336e-05 -1.06338e-05 0.000106299
0.00464683 4.03533e-05 -1.88566e-05
4.03533e-05 0.00135473 1.59166e-05
-1.88566e-05 1.59166e-05 0.000917139
0.000373632 9.65965e-05 -3.62067e-05
9.65965e-05 2.46284e-05 3.49571e-05
-3.62067e-05 3.49571e-05 7.2834e-05
0.00128957 3.05597e-05 3.72577e-06
3.05597e-05 0.000299972 -3.78399e-06
3.72577e-06 -3.78399e-06 0.000413251
0.000997705 1.08958e-05 -1.97514e-07
1.08958e-05 1.97704e-05 -1.13836e-06
-1.97514e-07 -1.13836e-06 -4.85851e-05
0.000985511 2.68401e-06 4.95813e-08
2.68401e-06 6.17272e-06 -3.96593e-07
4.95813e-08 -3.96593e-07 -4.93457e-05
0.00106328 -2.12626e-06 1.78464e-08
-2.12626e-06 3.61786e-05 1.12543e-06
1.78464e-08 1.12543e-06 -6.366e-06
0.000943835 1.55636e-05 -4.34833e-08
1.55636e-05 -1.19999e-05 7.87204e-07
-4.34833e-08 7.87204e-07 -6.94102e-05
0.00112224 2.50446e-05 4.14482e-07
2.50446e-05 7.95866e-05 8.97879e-07
4.14482e-07 8.97879e-07 1.42605e-05
0.00116534 1.35591e-05 -3.76142e-08
1.35591e-05 9.90409e-05 -5.51306e-07
-3.76142e-08 -5.51306e-07 3.28972e-05
0.0010993 7.5889e-06 2.94655e-07
7.5889e-06 6.39046e-05 9.36972e-07
2.94655e-07 9.36972e-07 1.7214e-06
0.00109983 1.00428e-06 1.64609e-07
1.00428e-06 6.5432e-05 -4.43166e-07
1.64609e-07 -4.43166e-07 5.32901e-06
0.0010336 -1.21817e-06 2.4714e-08
-1.21817e-06 3.10904e-05 -4.87487e-07
2.4714e-08 -4.87487e-07 -2.55233e-05
0.000957418 -1.1651e-05 -2.03771e-07
-1.1651e-05 -7.23256e-06 1.2518e-06
-2.03771e-07 1.2518e-06 -6.26006e-05
0.00199381 3.35925e-05 2.41738e-06
3.35925e-05 0.00028047 3.50465e-06
2.41738e-06 3.50465e-06 0.000233129
0.00118579 -4.17656e-05 -7.40666e-06
-4.17656e-05 -0.000160784 -1.76121e-06
-7.40666e-06 -1.76121e-06 -0.000163599
0.000157332 -4.23946e-05 -1.91226e-06
-4.23946e-05 -0.00046739 3.37906e-07
-1.91226e-06 3.37906e-07 -0.000547748
0.00130856 -4.83182e-05 -1.63827e-06
-4.83182e-05 0.000166917 1.40329e-06
-1.63827e-06 1.40329e-06 6.8814e-05
0.00100363 -2.90149e-05 -2.93854e-07
-2.90149e-05 3.49849e-05 7.11902e-07
-2.93854e-07 7.11902e-07 -7.62273e-05
0.00112504 -2.57208e-05 -1.06475e-07
-2.57208e-05 9.09114e-05 4.23732e-07
-1.06475e-07 4.23732e-07 -4.18108e-06
0.00118304 -2.14889e-05 1.04726e-07
-2.14889e-05 0.00011523 2.72426e-07
1.04726e-07 2.72426e-07 3.78209e-05
0.00107641 9.56859e-06 3.54019e-07
9.56859e-06 6.08585e-05 1.03106e-06
3.54019e-07 1.03106e-06 -1.229e-05
0.00191208 -1.30168e-05 -2.93991e-06
-1.30168e-05 3.45534e-05 -1.91819e-07
-2.93991e-06 -1.91819e-07 6.50421e-05
0.00100627 -8.34407e-06 -1.13501e-08
-8.34407e-06 3.03086e-05 -1.89485e-07
-1.13501e-08 -1.89485e-07 -5.11444e-05
0.00107113 -1.86827e-05 1.26759e-07
-1.86827e-05 6.40339e-05 -4.67557e-07
1.26759e-07 -4.67557e-07 -2.55077e-05
0.00151796 -7.35949e-05 2.04966e-06
-7.35949e-05 0.000122349 1.23845e-06
2.04966e-06 1.23845e-06 5.15088e-05
0.000746932 -5.29786e-05 -1.05699e-06
-5.29786e-05 -0.00011805 4.10834e-07
-1.05699e-06 4.10834e-07 -0.000219199
0.00119669 -4.0213e-05 1.02382e-06
-4.0213e-05 0.000126351 3.95906e-08
1.02382e-06 3.95906e-08 5.91288e-06
0.001262 -2.0965e-05 -2.10341e-07
-2.0965e-05 0.000163187 -3.09602e-07
-2.10341e-07 -3.09602e-07 5.10952e-05
0.00244291 -4.8834e-05 -2.79272e-06
-4.8834e-05 0.000149772 8.20049e-06
-2.79272e-06 8.20049e-06 0.000236086
0.00105302 -6.56238e-05 1.54954e-06
-6.56238e-05 9.88399e-05 -1.88131e-06
1.54954e-06 -1.88131e-06 -4.1982e-05
0.00114967 -1.63701e-05 -1.12963e-06
-1.63701e-05 0.000116733 -5.57556e-08
-1.12963e-06 -5.57556e-08 -1.02975e-05
0.00102187 9.8717e-06 -2.52146e-08
9.8717e-06 3.59149e-05 1.00981e-07
-2.52146e-08 1.00981e-07 -4.56266e-05
0.00112268 -1.88338e-05 -2.04907e-07
-1.88338e-05 8.90421e-05 -7.08704e-07
-2.04907e-07 -7.08704e-07 -3.23444e-07
0.00125893 -1.15069e-05 -3.16124e-07
-1.15069e-05 0.000154744 -8.56708e-07
-3.16124e-07 -8.56708e-07 5.52677e-05
0.000825936 1.55937e-06 1.28221e-05
1.55937e-06 0.000192617 2.78025e-07
1.28221e-05 2.78025e-07 0.000179429
0.00151936 8.07636e-06 1.18874e-06
8.07636e-06 0.000488002 -2.71886e-06
1.18874e-06 -2.71886e-06 0.000410803
0.000810625 6.60065e-05 -5.69194e-05
6.60065e-05 -0.000590954 7.79276e-06
-5.69194e-05 7.79276e-06 -0.000905487
0.00114796 2.87064e-05 -1.61077e-07
2.87064e-05 9.9991e-05 -4.246e-07
-1.61077e-07 -4.246e-07 9.45767e-06
0.00139862 2.7549e-05 1.40819e-06
2.7549e-05 0.000236957 -3.42806e-07
1.40819e-06 -3.42806e-07 0.00013971
0.00153914 8.69349e-05 -2.60636e-06
8.69349e-05 8.57671e-05 -2.52208e-06
-2.60636e-06 -2.52208e-06 -7.08856e-06
0.00105894 4.22106e-05 3.04798e-06
4.22106e-05 0.000136487 -1.32612e-06
3.04798e-06 -1.32612e-06 -7.90844e-06
0.00279439 -4.79927e-05 1.77096e-05
-4.79927e-05 0.00113318 5.74861e-06
1.77096e-05 5.74861e-06 0.00107067
0.000723791 -6.69702e-05 5.55863e-05
-6.69702e-05 -0.000332557 3.68968e-05
5.55863e-05 3.68968e-05 -0.000645042
0.00134313 5.54692e-06 -7.25183e-05
5.54692e-06 6.6251e-05 -5.72969e-05
-7.25183e-05 -5.72969e-05 -0.000226629
0.00160364 7.7922e-06 6.2811e-06
7.7922e-06 -2.40691e-05 -2.96564e-06
6.2811e-06 -2.96564e-06 -9.21589e-05
-0.00180263 -0.000108697 4.21913e-05
-0.000108697 -0.00121732 3.41953e-05
4.21913e-05 3.41953e-05 -0.00116907
0.00317393 -2.96939e-05 -2.55638e-06
-2.96939e-05 0.00157899 -3.61568e-06
-2.55638e-06 -3.61568e-06 0.0016404
0.00128485 -5.19801e-05 -1.10072e-05
-5.19801e-05 0.000255477 -1.48966e-05
-1.10072e-05 -1.48966e-05 0.000396337
0.0012173 2.10955e-05 -7.95574e-08
2.10955e-05 0.000120231 3.68892e-07
-7.95574e-08 3.68892e-07 2.69101e-05
0.000751192 -9.19986e-06 4.29385e-06
-9.19986e-06 0.000175879 1.36294e-06
4.29385e-06 1.36294e-06 0.000176492
0.000549282 -8.62345e-06 2.36701e-06
-8.62345e-06 -1.23358e-05 4.50551e-06
2.36701e-06 4.50551e-06 -3.43522e-05
0.00125601 4.35201e-05 2.62393e-06
4.35201e-05 0.000190559 4.02903e-06
2.62393e-06 4.02903e-06 5.36068e-06
0.00102679 1.24226e-05 -7.84645e-08
1.24226e-05 0.000113782 -7.9144e-07
-7.84645e-08 -7.9144e-07 -1.13137e-05
0.00200009 -2.20359e-05 5.60399e-06
-2.20359e-05 0.000384573 1.27883e-05
5.60399e-06 1.27883e-05 0.00025709
0.00205291 8.47362e-05 -1.36286e-05
8.47362e-05 0.000563035 -3.79636e-05
-1.36286e-05 -3.79636e-05 0.000191567
0.00506764 -0.000106833 7.04769e-06
-0.000106833 0.00125713 3.99258e-06
7.04769e-06 3.99258e-06 0.000756353
-0.000247615 -0.00013403 7.1198e-06
-0.00013403 -0.000457907 1.46044e-05
7.1198e-06 1.46044e-05 -0.000523345
0.000820816 -2.43307e-05 -2.08738e-06
-2.43307e-05 2.23299e-05 -1.86548e-06
-2.08738e-06 -1.86548e-06 5.60372e-05
0.00106178 1.9783e-05 3.86943e-07
1.9783e-05 5.85703e-05 -9.64303e-07
3.86943e-07 -9.64303e-07 -2.83483e-05
0.001878 -1.17321e-07 1.09912e-05
-1.17321e-07 0.00085705 3.62672e-06
1.09912e-05 3.62672e-06 0.00079942
0.000999215 1.90197e-06 5.92293e-06
1.90197e-06 0.000177075 3.8649e-06
5.92293e-06 3.8649e-06 0.000139575
0.000381724 -5.74241e-06 2.53281e-06
-5.74241e-06 -9.55823e-05 7.31056e-06
2.53281e-06 7.31056e-06 -0.000212244
0.000447606 5.53956e-05 5.71891e-06
5.53956e-05 0.000281257 2.44611e-05
5.71891e-06 2.44611e-05 0.000191742
0.00565973 -8.73147e-05 -1.88542e-05
-8.73147e-05 0.00139093 -2.22125e-05
-1.88542e-05 -2.22125e-05 0.000810888
-0.000855348 -0.000113909 -1.42261e-05
-0.000113909 -0.001396 -3.82946e-05
-1.42261e-05 -3.82946e-05 -0.00115123
0.000769927 -1.15562e-05 -7.22201e-07
-1.15562e-05 7.84401e-06 -1.1889e-06
-7.22201e-07 -1.1889e-06 -1.09954e-05
0.00109067 2.37453e-05 -2.29495e-07
2.37453e-05 4.97887e-05 -5.25446e-07
-2.29495e-07 -5.25446e-07 -4.36382e-05
0.00117131 2.33596e-05 3.09826e-07
2.33596e-05 0.000101364 2.4945e-07
3.09826e-07 2.4945e-07 5.1744e-06
0.00172804 2.36593e-05 -6.28288e-08
2.36593e-05 0.000369849 -2.27628e-07
-6.28288e-08 -2.27628e-07 0.000270465
0.00111921 1.64062e-05 -7.08884e-09
1.64062e-05 7.78925e-05 -1.28841e-06
-7.08884e-09 -1.28841e-06 1.08185e-05
0.00114949 8.54677e-06 -8.01487e-08
8.54677e-06 9.41662e-05 -4.30099e-07
-8.01487e-08 -4.30099e-07 1.44111e-05
0.00110768 1.84936e-05 1.1655e-08
1.84936e-05 7.27813e-05 -4.67518e-07
1.1655e-08 -4.67518e-07 -1.15697e-05
0.00109359 2.08635e-05 -2.97183e-07
2.08635e-05 7.13554e-05 -5.42882e-07
-2.97183e-07 -5.42882e-07 -2.51798e-05
0.00113599 1.37806e-05 6.33306e-08
1.37806e-05 8.77269e-05 2.3357e-08
6.33306e-08 2.3357e-08 8.92626e-06
0.00121126 1.80303e-05 7.95383e-08
1.80303e-05 0.000128393 3.18534e-07
7.95383e-08 3.18534e-07 3.78871e-05
0.00103236 1.76795e-05 -9.1805e-08
1.76795e-05 5.09788e-05 -3.59792e-07
-9.1805e-08 -3.59792e-07 -5.14128e-05
0.000928634 1.39116e-05 -1.58793e-07
1.39116e-05 1.76432e-05 4.36061e-07
-1.58793e-07 4.36061e-07 -8.49279e-05
0.00111042 6.0485e-06 2.21706e-07
6.0485e-06 8.22658e-05 8.87599e-07
2.21706e-07 8.87599e-07 -1.88275e-05
0.00129063 1.30442e-05 4.11315e-08
1.30442e-05 0.000162895 5.01208e-07
4.11315e-08 5.01208e-07 7.49748e-05
0.00114041 -1.09051e-06 2.42969e-07
-1.09051e-06 8.95183e-05 -8.03507e-07
2.42969e-07 -8.03507e-07 1.17526e-05
0.00111766 -1.50596e-05 2.84111e-07
-1.50596e-05 8.05853e-05 -7.695e-07
2.84111e-07 -7.695e-07 2.14778e-06
0.00106292 -2.22441e-05 7.13861e-07
-2.22441e-05 5.35203e-05 -1.40435e-06
7.13861e-07 -1.40435e-06 -3.01264e-05
0.0011988 -4.60593e-06 -2.94009e-08
-4.60593e-06 0.000118456 -3.76252e-07
-2.94009e-08 -3.76252e-07 3.28e-05
0.00110172 -1.80954e-05 -6.23624e-08
-1.80954e-05 7.51277e-05 2.05135e-07
-6.23624e-08 2.05135e-07 -4.99983e-06
0.00104849 -2.33059e-05 5.99367e-08
-2.33059e-05 4.85213e-05 -2.04158e-07
5.99367e-08 -2.04158e-07 -3.84462e-05
0.00111789 -2.60622e-05 -1.05108e-06
-2.60622e-05 8.17396e-05 -3.3572e-08
-1.05108e-06 -3.3572e-08 -6.33767e-06
0.00111052 -2.5971e-05 1.47045e-08
-2.5971e-05 8.45129e-05 2.33132e-07
1.47045e-08 2.33132e-07 -7.68837e-06
0.00118467 -3.11287e-05 2.51184e-08
-3.11287e-05 0.000110103 -5.07936e-08
2.51184e-08 -5.07936e-08 2.33864e-05
0.0011495 -2.82509e-05 -4.3689e-07
-2.82509e-05 8.98101e-05 -1.09194e-07
-4.3689e-07 -1.09194e-07 7.61092e-06
0.000978864 -2.97889e-05 -2.82037e-07
-2.97889e-05 6.03502e-06 4.64054e-07
-2.82037e-07 4.64054e-07 -7.28662e-05
0.00114008 -3.22879e-05 -1.07105e-06
-3.22879e-05 7.52462e-05 1.22861e-06
-1.07105e-06 1.22861e-06 8.99548e-07
0.00121483 -2.86786e-05 -3.18481e-07
-2.86786e-05 0.000116183 -5.12892e-07
-3.18481e-07 -5.12892e-07 4.8722e-05
0.000990189 -2.91456e-05 5.15525e-07
-2.91456e-05 1.39846e-05 -7.95771e-07
5.15525e-07 -7.95771e-07 -5.81853e-05
0.00110978 -2.79373e-05 3.91909e-07
-2.79373e-05 6.78678e-05 -1.55939e-07
3.91909e-07 -1.55939e-07 -7.14026e-06
0.000980124 -2.05997e-05 -1.03472e-06
-2.05997e-05 4.13586e-06 4.59876e-07
-1.03472e-06 4.59876e-07 -6.35949e-05
0.00112633 -2.53068e-05 1.73531e-07
-2.53068e-05 8.06957e-05 5.4651e-08
1.73531e-07 5.4651e-08 1.57203e-06
0.00108855 -2.05729e-05 -1.97729e-07
-2.05729e-05 6.11046e-05 3.81864e-07
-1.97729e-07 3.81864e-07 -8.12571e-06
0.00105898 -8.64595e-06 -8.17285e-07
-8.64595e-06 3.94919e-05 1.27699e-06
-8.17285e-07 1.27699e-06 -1.53856e-05
0.00109332 -1.84252e-05 4.10661e-07
-1.84252e-05 6.60524e-05 -8.68653e-07
4.10661e-07 -8.68653e-07 -3.09913e-06
0.00105676 -9.46204e-06 2.31838e-08
-9.46204e-06 3.92854e-05 -1.73163e-08
2.31838e-08 -1.73163e-08 -1.4971e-05
0.0010091 3.26646e-06 -1.01548e-06
3.26646e-06 8.13447e-06 1.94782e-06
-1.01548e-06 1.94782e-06 -2.5359e-05
0.00105808 -7.50556e-06 6.03297e-07
-7.50556e-06 4.03898e-05 -1.20533e-06
6.03297e-07 -1.20533e-06 -1.28227e-05
0.00101329 2.75604e-06 6.92487e-08
2.75604e-06 8.97032e-06 -2.2625e-09
6.92487e-08 -2.2625e-09 -2.38606e-05
0.00160155 7.2641e-06 -3.426e-06
7.2641e-06 0.000290035 4.5256e-06
-3.426e-06 4.5256e-06 0.000290066
0.00101582 2.06077e-06 6.75286e-07
2.06077e-06 8.94846e-06 -1.93209e-06
6.75286e-07 -1.93209e-06 -2.33179e-05
0.00127859 5.41166e-06 -9.40564e-07
5.41166e-06 0.000128076 6.35014e-07
-9.40564e-07 6.35014e-07 0.000127143
0.00111855 6.00571e-06 -1.00167e-06
6.00571e-06 4.5278e-05 1.618e-06
-1.00167e-06 1.618e-06 6.19014e-05
0.000960974 3.37563e-06 7.72415e-07
3.37563e-06 -3.09679e-05 -3.29756e-06
7.72415e-07 -3.29756e-06 -3.29457e-05
0.00177597 4.34955e-06 1.482e-06
4.34955e-06 0.00036704 -1.26932e-06
1.482e-06 -1.26932e-06 0.000387001
0.00240996 2.13622e-06 2.20682e-06
2.13622e-06 0.000679271 -4.18796e-06
2.20682e-06 -4.18796e-06 0.000702315
0.0011257 -2.86386e-06 -7.91286e-08
-2.86386e-06 6.924e-05 -1.02376e-06
-7.91286e-08 -1.02376e-06 2.39166e-05
0.00102339 -2.41215e-06 -4.21274e-07
-2.41215e-06 7.45016e-06 -1.87268e-06
-4.21274e-07 -1.87268e-06 -1.81341e-05
0.00109322 5.55779e-07 1.00705e-07
5.55779e-07 5.16358e-05 1.35041e-07
1.00705e-07 1.35041e-07 8.45575e-06
0.000962217 -1.72314e-06 -4.52737e-07
-1.72314e-06 -3.19127e-05 -3.22923e-06
-4.52737e-07 -3.22923e-06 -2.96518e-05
0.00102293 -1.10726e-06 -6.0365e-08
-1.10726e-06 6.2332e-06 7.04663e-09
-6.0365e-08 7.04663e-09 -1.87799e-05
0.00105111 1.79115e-06 3.45247e-08
1.79115e-06 3.00435e-05 1.52866e-06
3.45247e-08 1.52866e-06 -1.23923e-05
0.00227548 4.68227e-08 -4.72463e-07
4.68227e-08 0.000612291 -4.03465e-06
-4.72463e-07 -4.03465e-06 0.000637001
0.000959274 1.20255e-07 -9.90877e-08
1.20255e-07 -3.37244e-05 -5.64448e-09
-9.90877e-08 -5.64448e-09 -3.12424e-05
0.00102698 3.01149e-08 -5.35269e-08
3.01149e-08 7.98142e-06 1.92648e-06
-5.35269e-08 1.92648e-06 -1.69233e-05
0.000965217 2.10875e-06 -4.04227e-07
2.10875e-06 -3.03042e-05 3.22193e-06
-4.04227e-07 3.22193e-06 -2.80938e-05
0.00227529 2.58296e-06 -5.32904e-07
2.58296e-06 0.000612706 -5.24613e-09
-5.32904e-07 -5.24613e-09 0.000637311
0.00229225 4.97474e-06 -3.62946e-06
4.97474e-06 0.00062248 4.00406e-06
-3.62946e-06 4.00406e-06 0.000646661
-0.00123069 9.0573e-06 8.46711e-06
9.0573e-06 -0.000984828 -1.39645e-06
8.46711e-06 -1.39645e-06 -0.00100139
-0.00057703 1.41351e-05 1.97555e-05
1.41351e-05 -0.000281528 -4.64685e-06
1.97555e-05 -4.64685e-06 -0.000339305
0.000707558 -2.72413e-06 1.49508e-05
-2.72413e-06 0.000117697 -5.42754e-06
1.49508e-05 -5.42754e-06 8.63197e-05
-0.0012741 2.68498e-05 -7.43005e-06
2.68498e-05 -0.00107737 1.58485e-06
-7.43005e-06 1.58485e-06 -0.00104283
0.00129442 5.83523e-06 -4.4688e-05
5.83523e-06 0.000103551 -3.30206e-06
-4.4688e-05 -3.30206e-06 -1.08332e-05
0.0011794 4.30791e-05 3.98234e-06
4.30791e-05 7.59586e-05 -1.27583e-06
3.98234e-06 -1.27583e-06 1.74955e-05
0.000924881 -4.94224e-05 -1.55599e-05
-4.94224e-05 -0.000105109 -1.192e-06
-1.55599e-05 -1.192e-06 -0.000422521
0.00257285 4.01973e-05 6.63137e-05
4.01973e-05 0.00117077 -2.46535e-05
6.63137e-05 -2.46535e-05 0.00106929
2.55357e-05 5.25082e-05 2.30741e-06
5.25082e-05 -0.000407378 -2.64524e-06
2.30741e-06 -2.64524e-06 -0.000275668
0.00109838 2.76145e-05 -3.92644e-06
2.76145e-05 0.000156497 2.37632e-06
-3.92644e-06 2.37632e-06 1.87313e-05
0.00233552 -3.31001e-05 5.8689e-06
-3.31001e-05 0.000224827 -5.27235e-06
5.8689e-06 -5.27235e-06 -0.000368224
0.00216939 0.000135687 1.69435e-06
0.000135687 0.000586652 4.46796e-06
1.69435e-06 4.46796e-06 0.000529353
0.000854847 2.20537e-05 -2.13352e-06
2.20537e-05 4.78484e-05 -1.74158e-06
-2.13352e-06 -1.74158e-06 0.000171988
0.000925456 6.52886e-06 5.76227e-06
6.52886e-06 0.000328921 -1.16926e-06
5.76227e-06 -1.16926e-06 0.000110935
0.00279216 3.83079e-05 4.63564e-05
3.83079e-05 0.000179078 -2.07386e-05
4.63564e-05 -2.07386e-05 -0.000468731
-0.00113364 0.000131932 -2.7618e-05
0.000131932 -0.00103246 4.49103e-05
-2.7618e-05 4.49103e-05 -0.0010502
0.00011468 -2.97701e-06 1.02583e-05
-2.97701e-06 -0.00033813 7.38275e-07
1.02583e-05 7.38275e-07 -0.000344166
0.00114565 -2.30814e-06 2.31127e-07
-2.30814e-06 9.23956e-05 -7.70453e-07
2.31127e-07 -7.70453e-07 1.77373e-05
0.00109724 1.34639e-05 -3.41602e-07
1.34639e-05 6.76157e-05 -2.26255e-07
-3.41602e-07 -2.26255e-07 1.82611e-07
0.00108703 4.70427e-06 1.94565e-07
4.70427e-06 5.55639e-05 4.07245e-07
1.94565e-07 4.07245e-07 6.45566e-07
0.00107237 2.43565e-05 5.8667e-07
2.43565e-05 5.5123e-05 1.52162e-06
5.8667e-07 1.52162e-06 -9.16526e-06
0.00106763 7.06491e-06 -8.05916e-08
7.06491e-06 5.17009e-05 -3.46724e-07
-8.05916e-08 -3.46724e-07 -1.99789e-05
0.00119497 1.05823e-05 9.64741e-08
1.05823e-05 0.000113008 4.32305e-07
9.64741e-08 4.32305e-07 4.75615e-05
0.00105417 -1.40302e-06 -2.42411e-07
-1.40302e-06 4.18351e-05 1.86206e-06
-2.42411e-07 1.86206e-06 -1.9849e-05
0.00122734 1.48189e-05 -2.32425e-07
1.48189e-05 0.000128848 -7.44544e-07
-2.32425e-07 -7.44544e-07 6.65734e-05
0.00118048 7.66409e-06 2.94905e-08
7.66409e-06 0.000104777 4.64716e-07
2.94905e-08 4.64716e-07 4.53868e-05
0.000959242 -4.08756e-06 -1.82463e-07
-4.08756e-06 -5.42778e-06 4.24012e-07
-1.82463e-07 4.24012e-07 -6.27682e-05
0.00158066 -2.34704e-05 -5.07434e-06
-2.34704e-05 -0.000113192 3.35394e-07
-5.07434e-06 3.35394e-07 -0.000102985
0.000877856 -6.47466e-05 -4.81336e-06
-6.47466e-05 -0.000190459 1.95416e-06
-4.81336e-06 1.95416e-06 -0.000248309
0.00124362 -5.76235e-05 -1.14435e-06
-5.76235e-05 0.000118978 2.64485e-06
-1.14435e-06 2.64485e-06 1.70963e-05
0.00115034 -3.91178e-05 -6.99408e-07
-3.91178e-05 9.96199e-05 6.48947e-08
-6.99408e-07 6.48947e-08 -2.1375e-05
0.00117851 -1.97015e-05 4.17193e-07
-1.97015e-05 0.00012142 4.11986e-07
4.17193e-07 4.11986e-07 7.17273e-06
0.000996521 -2.13993e-05 2.27309e-07
-2.13993e-05 2.76808e-05 5.19208e-08
2.27309e-07 5.19208e-08 -6.28047e-05
0.000993227 -1.55204e-06 2.91836e-08
-1.55204e-06 2.46168e-05 4.6207e-07
2.91836e-08 4.6207e-07 -5.72794e-05
0.00106907 -8.48251e-06 -4.17576e-08
-8.48251e-06 5.93147e-05 7.1892e-07
-4.17576e-08 7.1892e-07 -2.23112e-05
0.00188434 -5.57311e-05 8.78069e-07
-5.57311e-05 -8.17354e-05 3.77062e-07
8.78069e-07 3.77062e-07 -1.44352e-05
0.00115808 -1.10245e-05 1.3686e-07
-1.10245e-05 0.000107435 -2.44439e-07
1.3686e-07 -2.44439e-07 1.86906e-05
0.00130315 -1.3994e-05 1.65834e-07
-1.3994e-05 0.000177644 1.16523e-07
1.65834e-07 1.16523e-07 7.68534e-05
0.00135612 -6.66667e-05 4.19428e-07
-6.66667e-05 0.000239535 -1.20858e-06
4.19428e-07 -1.20858e-06 9.96654e-05
0.00121141 -1.82151e-05 -3.40865e-07
-1.82151e-05 0.000143502 1.29882e-07
-3.40865e-07 1.29882e-07 1.62737e-05
0.00180315 -6.95443e-05 -1.35598e-05
-6.95443e-05 4.6695e-05 8.07584e-06
-1.35598e-05 8.07584e-06 2.72867e-05
0.000940452 -1.84098e-05 -4.19111e-07
-1.84098e-05 0.000126362 -2.43589e-06
-4.19111e-07 -2.43589e-06 -4.72849e-05
0.00126018 -9.78746e-06 -3.62886e-07
-9.78746e-06 0.000153263 -4.06881e-07
-3.62886e-07 -4.06881e-07 4.05794e-05
0.00110391 1.05565e-05 -1.59683e-07
1.05565e-05 7.65187e-05 -2.32097e-07
-1.59683e-07 -2.32097e-07 -1.1448e-05
0.00117898 4.60184e-06 -1.83757e-07
4.60184e-06 0.000110515 -1.14725e-06
-1.83757e-07 -1.14725e-06 1.33348e-05
0.00182442 1.69514e-07 4.63301e-06
1.69514e-07 0.000858844 8.72211e-07
4.63301e-06 8.72211e-07 0.000786004
-0.000256226 2.37807e-06 5.65703e-06
2.37807e-06 -0.000428995 -2.85236e-07
5.65703e-06 -2.85236e-07 -0.00044932
-0.00361471 3.30746e-06 5.96137e-05
3.30746e-06 -0.00191435 5.63124e-07
5.96137e-05 5.63124e-07 -0.00188863
0.00144037 2.38799e-05 4.74494e-08
2.38799e-05 0.000233001 9.72046e-07
4.74494e-08 9.72046e-07 0.000138483
0.000616206 9.60585e-06 1.79098e-06
9.60585e-06 -7.51438e-05 -1.26677e-06
1.79098e-06 -1.26677e-06 -0.000202742
0.00115002 5.02026e-05 1.93414e-06
5.02026e-05 0.000140086 -7.51995e-06
1.93414e-06 -7.51995e-06 -4.32389e-05
-0.000599436 -6.35525e-06 -2.93306e-06
-6.35525e-06 -0.000611715 -9.83974e-07
-2.93306e-06 -9.83974e-07 -0.000627049
0.00211649 -6.41642e-05 -5.02654e-07
-6.41642e-05 -0.000163698 1.83701e-05
-5.02654e-07 1.83701e-05 -0.000785743
0.000124692 4.7033e-05 -7.0566e-06
4.7033e-05 3.39844e-05 -2.95748e-05
-7.0566e-06 -2.95748e-05 -0.000176911
0.00284553 -2.19597e-05 5.80888e-05
-2.19597e-05 0.000597467 1.34137e-05
5.80888e-05 1.34137e-05 0.000374729
0.0035139 -0.000180106 4.78651e-05
-0.000180106 0.00116345 5.4686e-05
4.78651e-05 5.4686e-05 0.00104973
0.000522453 -8.65326e-06 -1.21462e-05
-8.65326e-06 -2.99517e-05 -6.90195e-06
-1.21462e-05 -6.90195e-06 -4.99255e-05
0.000411185 -2.06866e-05 -9.40715e-06
-2.06866e-05 -0.000211625 -6.33964e-06
-9.40715e-06 -6.33964e-06 -0.000196413
0.00104603 2.31107e-05 5.96427e-07
2.31107e-05 4.92046e-05 8.58038e-07
5.96427e-07 8.58038e-07 -3.69872e-05
0.0013758 5.84522e-07 1.36055e-06
5.84522e-07 0.000548939 1.0403e-06
1.36055e-06 1.0403e-06 0.000485366
0.000830755 1.52884e-06 2.94619e-07
1.52884e-06 6.78779e-05 -4.03387e-07
2.94619e-07 -4.03387e-07 2.98689e-05
4.13499e-06 -2.9561e-06 8.94092e-06
-2.9561e-06 -0.000304661 1.81891e-06
8.94092e-06 1.81891e-06 -0.000442126
0.000985685 5.5421e-05 -1.9347e-05
5.5421e-05 0.000395185 -4.51444e-06
-1.9347e-05 -4.51444e-06 0.000197725
0.0049549 -1.77918e-05 1.30961e-05
-1.77918e-05 0.000757568 9.41522e-06
1.30961e-05 9.41522e-06 0.000151811
0.000748088 -9.54789e-06 -1.4989e-06
-9.54789e-06 2.56657e-05 1.46186e-06
-1.4989e-06 1.46186e-06 -1.98238e-06
0.00156997 -0.000147078 3.59225e-06
-0.000147078 -8.57115e-05 1.35909e-05
3.59225e-06 1.35909e-05 -3.05212e-05
0.000966549 1.09792e-05 1.77702e-07
1.09792e-05 6.15025e-06 -6.16238e-06
1.77702e-07 -6.16238e-06 -6.97446e-05
0.000873246 4.61445e-06 1.73234e-06
4.61445e-06 0.000136772 1.95144e-06
1.73234e-06 1.95144e-06 5.64105e-05
0.00123043 -8.93282e-06 2.63912e-07
-8.93282e-06 0.000282582 3.33204e-06
2.63912e-07 3.33204e-06 0.000242426
3.29615e-05 -5.29285e-06 -1.02487e-05
-5.29285e-06 -0.000422 3.33647e-06
-1.02487e-05 3.33647e-06 -0.000400199
-0.00121179 2.36008e-05 -7.46302e-06
2.36008e-05 -0.000757398 -4.17668e-07
-7.46302e-06 -4.17668e-07 -0.000819551
0.00684871 -4.38961e-05 -1.0221e-05
-4.38961e-05 0.00191241 1.11442e-05
-1.0221e-05 1.11442e-05 0.00129598
0.000262227 -8.95517e-06 7.45808e-06
-8.95517e-06 -0.00109093 -5.09522e-05
7.45808e-06 -5.09522e-05 -0.000749206
0.00127678 2.37968e-05 1.80951e-08
2.37968e-05 0.00014847 4.60053e-07
1.80951e-08 4.60053e-07 5.3044e-05
0.00148019 2.03778e-05 -6.80915e-07
2.03778e-05 0.00025106 -3.9015e-07
-6.80915e-07 -3.9015e-07 0.000150634
0.00119931 2.1186e-05 -4.74913e-07
2.1186e-05 0.000155422 6.99833e-07
-4.74913e-07 6.99833e-07 4.92369e-05
0.00112107 2.2751e-05 -4.02637e-08
2.2751e-05 8.0973e-05 -5.84823e-07
-4.02637e-08 -5.84823e-07 2.0403e-06
0.00122966 2.37221e-05 1.18283e-08
2.37221e-05 0.000136739 -2.27194e-07
1.18283e-08 -2.27194e-07 4.6292e-05
0.00109652 1.77096e-05 -4.78328e-07
1.77096e-05 8.54575e-05 -9.05105e-07
-4.78328e-07 -9.05105e-07 -1.78371e-05
0.00126112 1.24485e-05 -6.79786e-08
1.24485e-05 0.00014889 -1.70768e-07
-6.79786e-08 -1.70768e-07 6.12796e-05
0.00119063 4.42153e-06 9.10923e-08
4.42153e-06 0.000123221 2.30533e-07
9.10923e-08 2.30533e-07 2.1583e-05
0.000999146 1.59841e-05 2.24854e-07
1.59841e-05 4.77764e-05 4.77902e-07
2.24854e-07 4.77902e-07 -5.54806e-05
0.0010585 1.27439e-05 -5.77392e-08
1.27439e-05 8.59013e-05 3.02384e-08
-5.77392e-08 3.02384e-08 -1.72996e-05
0.0011284 -1.70717e-05 -5.90903e-07
-1.70717e-05 9.26589e-05 7.55122e-07
-5.90903e-07 7.55122e-07 -5.0225e-06
0.00119933 -4.13766e-06 -1.18978e-07
-4.13766e-06 0.00011828 -9.03918e-07
-1.18978e-07 -9.03918e-07 3.30966e-05
0.00112613 -1.55528e-05 9.34083e-08
-1.55528e-05 8.71762e-05 -3.25608e-07
9.34083e-08 -3.25608e-07 7.09223e-06
0.00110475 -2.23694e-05 1.26811e-07
-2.23694e-05 7.45997e-05 -4.77002e-07
1.26811e-07 -4.77002e-07 -1.19003e-05
0.0011159 -2.49696e-05 1.67281e-07
-2.49696e-05 8.51232e-05 -1.47026e-07
1.67281e-07 -1.47026e-07 -6.62723e-06
0.00105539 -2.40947e-05 -4.03356e-07
-2.40947e-05 5.15721e-05 2.4634e-07
-4.03356e-07 2.4634e-07 -3.66475e-05
0.00115541 -2.95297e-05 -6.42875e-07
-2.95297e-05 0.000112485 1.09627e-06
-6.42875e-07 1.09627e-06 1.78012e-05
0.00111748 -3.03586e-05 4.29047e-07
-3.03586e-05 8.01623e-05 -5.3878e-07
4.29047e-07 -5.3878e-07 -3.57299e-06
0.00101479 -3.27007e-05 1.38029e-07
-3.27007e-05 3.10704e-05 1.03389e-06
1.38029e-07 1.03389e-06 -6.16548e-05
0.00117568 -2.85901e-05 6.85308e-07
-2.85901e-05 0.000102364 8.0796e-08
6.85308e-07 8.0796e-08 1.99515e-05
0.00116574 -3.1993e-05 6.42036e-08
-3.1993e-05 9.43826e-05 6.34729e-07
6.42036e-08 6.34729e-07 1.54247e-05
0.00102609 -3.36769e-05 -3.33551e-07
-3.36769e-05 1.45439e-05 1.38071e-06
-3.33551e-07 1.38071e-06 -6.75634e-05
0.00112436 -3.1135e-05 -8.914e-07
-3.1135e-05 7.20628e-05 4.61621e-07
-8.914e-07 4.61621e-07 1.79098e-07
0.00112453 -2.76573e-05 -1.11298e-06
-2.76573e-05 7.39127e-05 4.04121e-07
-1.11298e-06 4.04121e-07 7.9234e-06
0.00105027 -3.11406e-05 -4.70334e-07
-3.11406e-05 3.41491e-05 5.1788e-08
-4.70334e-07 5.1788e-08 -4.0301e-05
0.00110804 -2.18874e-05 -8.32056e-07
-2.18874e-05 6.27498e-05 2.92494e-07
-8.32056e-07 2.92494e-07 -1.57481e-07
0.00117897 -2.86373e-05 -3.33915e-08
-2.86373e-05 9.86195e-05 -1.80402e-07
-3.33915e-08 -1.80402e-07 3.07433e-05
0.00105876 -2.99401e-05 5.63208e-07
-2.99401e-05 4.81878e-05 -1.29577e-06
5.63208e-07 -1.29577e-06 -2.22829e-05
0.00120018 -2.88027e-05 1.37974e-06
-2.88027e-05 0.000111297 -2.93027e-07
1.37974e-06 -2.93027e-07 3.68086e-05
0.00102806 -2.13069e-05 5.55789e-08
-2.13069e-05 2.75211e-05 -1.63243e-08
5.55789e-08 -1.63243e-08 -3.9885e-05
0.00106512 -8.60101e-06 -1.148e-06
-8.60101e-06 4.05288e-05 1.1856e-06
-1.148e-06 1.1856e-06 -1.37223e-05
0.00108694 -1.95133e-05 5.81057e-07
-1.95133e-05 6.03865e-05 -3.82305e-07
5.81057e-07 -3.82305e-07 -8.76364e-06
0.00105829 -8.58459e-06 9.234e-08
-8.58459e-06 3.89428e-05 2.96647e-08
9.234e-08 2.96647e-08 -1.58608e-05
0.00100652 3.89372e-06 -1.26853e-06
3.89372e-06 8.06785e-06 1.98628e-06
-1.26853e-06 1.98628e-06 -2.60505e-05
0.00106342 -9.53831e-06 7.17797e-07
-9.53831e-06 4.24699e-05 -1.24541e-06
7.17797e-07 -1.24541e-06 -1.18283e-05
0.00100906 3.18013e-06 6.33258e-08
3.18013e-06 8.10316e-06 -3.07785e-09
6.33258e-08 -3.07785e-09 -2.54161e-05
0.00157438 8.95096e-06 -3.66252e-06
8.95096e-06 0.000279874 3.20714e-06
-3.66252e-06 3.20714e-06 0.000279384
0.00101224 2.65015e-06 9.19343e-07
2.65015e-06 8.40743e-06 -1.94364e-06
9.19343e-07 -1.94364e-06 -2.44365e-05
0.00127667 7.09783e-06 -1.153e-06
7.09783e-06 0.000129883 6.31237e-07
-1.153e-06 6.31237e-07 0.000128384
0.00111311 8.06726e-06 -1.35432e-06
8.06726e-06 4.60222e-05 1.60269e-06
-1.35432e-06 1.60269e-06 6.20356e-05
0.000959339 5.11334e-06 1.1314e-06
5.11334e-06 -2.96749e-05 -3.28945e-06
1.1314e-06 -3.28945e-06 -3.2063e-05
0.00178108 6.73147e-06 1.97413e-06
6.73147e-06 0.000371828 -1.25472e-06
1.97413e-06 -1.25472e-06 0.00039138
0.00241567 4.73013e-06 3.66622e-06
4.73013e-06 0.00068341 -4.16832e-06
3.66622e-06 -4.16832e-06 0.000706208
0.000861921 -1.34657e-06 -2.80106e-07
-1.34657e-06 -5.85866e-05 -1.66876e-06
-2.80106e-07 -1.66876e-06 -0.000108357
0.000762949 -3.85619e-06 -5.75846e-07
-3.85619e-06 -0.000117959 -2.44965e-06
-5.75846e-07 -2.44965e-06 -0.000146455
0.00113182 -2.63418e-06 3.21837e-08
-2.63418e-06 7.207e-05 1.17297e-07
3.21837e-08 1.17297e-07 2.66702e-05
0.000966065 -3.56521e-06 -7.81592e-07
-3.56521e-06 -2.88897e-05 -3.19841e-06
-7.81592e-07 -3.19841e-06 -2.7219e-05
0.000892988 -2.43297e-06 -7.77198e-09
-2.43297e-06 -5.62447e-05 1.38629e-09
-7.77198e-09 1.38629e-09 -8.26563e-05
0.000879458 -4.06535e-06 1.07591e-07
-4.06535e-06 -5.28349e-05 1.24133e-06
1.07591e-07 1.24133e-06 -9.73174e-05
0.00227726 -2.39632e-06 -2.13672e-06
-2.39632e-06 0.000613631 -4.02929e-06
-2.13672e-06 -4.02929e-06 0.000638216
0.000958142 -1.69235e-06 -9.74617e-08
-1.69235e-06 -3.39293e-05 6.37647e-10
-9.74617e-08 6.37647e-10 -3.16409e-05
0.00102157 -1.15584e-06 1.18197e-07
-1.15584e-06 5.6258e-06 1.87723e-06
1.18197e-07 1.87723e-06 -1.93787e-05
0.00227497 9.72107e-08 -6.23478e-07
9.72107e-08 0.000612035 9.07701e-10
-6.23478e-07 9.07701e-10 0.000636753
0.000959464 1.4933e-07 -1.32529e-07
1.4933e-07 -3.36306e-05 3.24553e-06
-1.32529e-07 3.24553e-06 -3.11512e-05
0.00227354 2.65521e-06 -1.97905e-06
2.65521e-06 0.000611994 4.02348e-06
-1.97905e-06 4.02348e-06 0.000636563
0.000980181 -5.22797e-06 8.67719e-06
-5.22797e-06 0.00033202 -1.72e-06
8.67719e-06 -1.72e-06 0.000267271
0.000788772 1.13367e-05 4.50427e-07
1.13367e-05 0.000177823 7.07314e-07
4.50427e-07 7.07314e-07 0.000173914
0.000734785 -4.22012e-06 8.54823e-05
-4.22012e-06 0.000119187 -1.36096e-05
8.54823e-05 -1.36096e-05 -5.6081e-06
0.00107884 1.40897e-05 -5.13253e-07
1.40897e-05 5.26948e-05 -7.2416e-07
-5.13253e-07 -7.2416e-07 -1.35395e-05
0.000595762 -1.90744e-05 2.45091e-06
-1.90744e-05 -3.145e-05 -6.3491e-06
2.45091e-06 -6.3491e-06 -7.19039e-05
0.000851273 -2.88786e-06 4.4258e-06
-2.88786e-06 0.000203659 -3.48704e-07
4.4258e-06 -3.48704e-07 0.000175153
0.000687001 3.1775e-05 -1.20537e-05
3.1775e-05 3.99019e-05 9.4279e-06
-1.20537e-05 9.4279e-06 9.65937e-05
0.000877417 1.81019e-05 -3.23241e-05
1.81019e-05 -0.00013248 8.65053e-06
-3.23241e-05 8.65053e-06 -0.000312666
0.00483771 4.11279e-05 -3.38067e-06
4.11279e-05 0.00155874 -3.55949e-06
-3.38067e-06 -3.55949e-06 0.00100182
-0.000781085 9.6399e-05 4.37371e-05
9.6399e-05 -0.000574128 -2.95208e-05
4.37371e-05 -2.95208e-05 -0.000572171
0.00240232 1.89314e-05 -6.49516e-06
1.89314e-05 0.00102209 2.64485e-06
-6.49516e-06 2.64485e-06 0.00111621
0.00189842 -2.37482e-05 -2.17484e-05
-2.37482e-05 0.000439094 8.19951e-06
-2.17484e-05 8.19951e-06 8.52703e-05
0.00463981 7.87853e-05 1.76468e-05
7.87853e-05 0.00108603 -2.34202e-05
1.76468e-05 -2.34202e-05 0.00053153
7.07738e-05 0.000142055 -4.78981e-06
0.000142055 -0.00067821 1.15882e-05
-4.78981e-06 1.15882e-05 -0.000700255
0.00154744 1.92375e-06 1.30116e-06
1.92375e-06 0.0005184 -3.91688e-06
1.30116e-06 -3.91688e-06 0.000530286
0.000623307 -7.27135e-05 2.69297e-05
-7.27135e-05 -0.000199657 -3.74756e-05
2.69297e-05 -3.74756e-05 -0.000582738
0.00630671 9.45717e-05 2.207e-05
9.45717e-05 0.00120772 -3.40964e-05
2.207e-05 -3.40964e-05 0.000505806
0.0012476 0.000138878 9.55619e-06
0.000138878 -0.0005848 5.3994e-05
9.55619e-06 5.3994e-05 -0.000592036
0.000855562 2.79506e-06 1.78328e-06
2.79506e-06 8.94847e-05 7.10848e-06
1.78328e-06 7.10848e-06 4.13223e-05
0.00105742 -5.32026e-07 -1.2363e-07
-5.32026e-07 4.61727e-05 -8.50587e-07
-1.2363e-07 -8.50587e-07 -3.46928e-05
0.00112071 -6.80031e-06 9.37481e-08
-6.80031e-06 8.03406e-05 -1.34765e-08
9.37481e-08 -1.34765e-08 4.90325e-06
0.00119103 1.58822e-05 -2.69734e-08
1.58822e-05 0.000112744 7.81195e-07
-2.69734e-08 7.81195e-07 4.62136e-05
0.00106788 1.4935e-05 -2.8479e-07
1.4935e-05 5.14223e-05 -1.14199e-06
-2.8479e-07 -1.14199e-06 -2.22931e-05
0.00114688 1.50072e-05 -7.68787e-08
1.50072e-05 9.0101e-05 3.83474e-07
-7.68787e-08 3.83474e-07 1.93988e-05
0.00122536 4.91874e-06 2.47024e-07
4.91874e-06 0.00012743 1.45916e-06
2.47024e-07 1.45916e-06 6.26494e-05
0.00125753 1.44134e-05 -1.34455e-07
1.44134e-05 0.000143048 4.46228e-08
-1.34455e-07 4.46228e-08 8.12263e-05
0.00126232 1.46457e-05 2.51316e-07
1.46457e-05 0.000144604 1.37505e-06
2.51316e-07 1.37505e-06 8.59737e-05
0.00145558 -6.3993e-05 -3.6278e-07
-6.3993e-05 -0.000252988 -4.17205e-06
-3.6278e-07 -4.17205e-06 -0.00020454
0.00161375 -6.73079e-05 -1.77747e-06
-6.73079e-05 0.000358259 1.19958e-06
-1.77747e-06 1.19958e-06 0.000219545
0.0011235 -2.55301e-05 5.49744e-08
-2.55301e-05 8.62725e-05 1.02757e-06
5.49744e-08 1.02757e-06 4.55854e-06
0.00128408 -2.02083e-05 3.16923e-07
-2.02083e-05 0.000175074 3.4816e-07
3.16923e-07 3.4816e-07 4.79264e-05
0.0013447 -1.58553e-05 3.62123e-07
-1.58553e-05 0.000199005 7.07473e-07
3.62123e-07 7.07473e-07 9.70714e-05
0.00119574 -2.4947e-06 1.43309e-07
-2.4947e-06 0.000126967 2.59706e-07
1.43309e-07 2.59706e-07 3.88493e-05
0.00111798 9.74713e-06 -4.08746e-08
9.74713e-06 8.31218e-05 2.61765e-08
-4.08746e-08 2.61765e-08 -4.7907e-06
0.00175938 -6.28952e-05 1.41526e-07
-6.28952e-05 2.78229e-05 -6.32275e-07
1.41526e-07 -6.32275e-07 2.23598e-05
0.00112943 7.87594e-07 -4.45063e-08
7.87594e-07 8.57784e-05 2.55751e-07
-4.45063e-08 2.55751e-07 -1.18783e-05
0.00120637 -1.18951e-05 4.61545e-07
-1.18951e-05 0.000127124 -1.2055e-08
4.61545e-07 -1.2055e-08 1.26818e-05
0.00107758 -2.15324e-05 -2.03695e-07
-2.15324e-05 0.000190254 4.79035e-07
-2.03695e-07 4.79035e-07 1.65005e-05
0.00107798 1.72614e-05 -1.26546e-07
1.72614e-05 5.93298e-05 1.89591e-07
-1.26546e-07 1.89591e-07 -3.02343e-05
0.00240117 -5.49442e-05 -1.43324e-05
-5.49442e-05 0.000589129 1.61489e-05
-1.43324e-05 1.61489e-05 0.000467801
0.00122253 1.06305e-05 -3.96096e-08
1.06305e-05 0.000232951 -2.91331e-06
-3.96096e-08 -2.91331e-06 7.84809e-05
0.00136539 -3.27863e-06 -3.9055e-07
-3.27863e-06 0.000195105 -1.27769e-06
-3.9055e-07 -1.27769e-06 8.9561e-05
0.00120681 1.58581e-05 -1.74253e-07
1.58581e-05 0.000121224 -4.29221e-07
-1.74253e-07 -4.29221e-07 2.49776e-05
0.00140925 -1.17499e-06 1.45179e-06
-1.17499e-06 0.000496416 1.48318e-08
1.45179e-06 1.48318e-08 0.00040428
0.00152232 7.00847e-07 -4.64212e-06
7.00847e-07 0.000667008 3.35228e-07
-4.64212e-06 3.35228e-07 0.000594073
-0.00129552 3.04852e-06 -3.99588e-07
3.04852e-06 -0.00102437 4.59554e-07
-3.99588e-07 4.59554e-07 -0.00105062
0.00097863 2.36101e-05 -2.31737e-07
2.36101e-05 1.36825e-05 1.56176e-06
-2.31737e-07 1.56176e-06 -7.14578e-05
-0.00044906 -1.15976e-05 -2.48179e-06
-1.15976e-05 -0.000541158 2.46538e-06
-2.48179e-06 2.46538e-06 -0.000704825
0.000887579 1.35249e-06 -1.08663e-05
1.35249e-06 0.000248775 -1.69698e-06
-1.08663e-05 -1.69698e-06 0.000179292
0.00345646 -0.000120814 1.15097e-05
-0.000120814 0.000514262 9.4249e-06
1.15097e-05 9.4249e-06 -0.000178764
0.00399413 9.13418e-05 -1.32345e-05
9.13418e-05 0.00139402 -5.04309e-05
-1.32345e-05 -5.04309e-05 0.0011019
0.00211849 -0.000162314 -1.21428e-06
-0.000162314 -0.000250834 6.90745e-05
-1.21428e-06 6.90745e-05 -7.52189e-05
0.000543837 1.40644e-06 -5.31813e-06
1.40644e-06 -0.000114665 -5.10241e-06
-5.31813e-06 -5.10241e-06 -0.000152897
0.000700173 -7.67169e-06 1.34274e-06
-7.67169e-06 2.65755e-05 -3.92591e-07
1.34274e-06 -3.92591e-07 -9.85919e-06
0.00127075 1.31381e-05 -5.42727e-07
1.31381e-05 0.000154563 -8.89638e-07
-5.42727e-07 -8.89638e-07 7.6468e-05
0.000738905 4.42948e-06 2.82893e-07
4.42948e-06 5.46068e-05 7.81288e-07
2.82893e-07 7.81288e-07 -2.6249e-05
0.000893004 -9.71943e-06 -1.60096e-06
-9.71943e-06 7.69333e-05 -1.37772e-09
-1.60096e-06 -1.37772e-09 3.15988e-05
0.000336535 1.01829e-05 3.33131e-06
1.01829e-05 -2.45401e-05 -4.00023e-06
3.33131e-06 -4.00023e-06 -6.1813e-05
0.00149191 -6.74983e-07 -1.23011e-06
-6.74983e-07 0.000459782 3.2677e-06
-1.23011e-06 3.2677e-06 0.000495666
0.00327219 5.49641e-07 6.27555e-06
5.49641e-07 -5.52414e-06 1.20811e-05
6.27555e-06 1.20811e-05 -0.00039302
0.00314798 -2.71936e-06 3.90523e-06
-2.71936e-06 6.26452e-05 1.82077e-06
3.90523e-06 1.82077e-06 0.000466587
-2.89808e-05 1.19501e-05 -5.69868e-08
1.19501e-05 -0.000403778 -5.76899e-06
-5.69868e-08 -5.76899e-06 -0.000469118
0.00104421 -4.7846e-06 1.04265e-06
-4.7846e-06 0.000202586 1.50268e-06
1.04265e-06 1.50268e-06 0.000127889
0.000661343 -1.70942e-05 -3.57263e-06
-1.70942e-05 -2.97736e-05 8.99039e-06
-3.57263e-06 8.99039e-06 -7.53478e-05
0.00124994 3.19425e-05 -5.38129e-06
3.19425e-05 0.000259347 7.38704e-06
-5.38129e-06 7.38704e-06 0.000394302
0.00179869 0.000153046 -3.41823e-06
0.000153046 -0.00017688 -5.48312e-05
-3.41823e-06 -5.48312e-05 -0.000155523
0.00162189 6.09916e-06 9.4952e-06
6.09916e-06 0.000814142 -1.08284e-05
9.4952e-06 -1.08284e-05 0.000730595
0.0042745 -4.24604e-05 2.79838e-05
-4.24604e-05 0.000773528 2.40532e-05
2.79838e-05 2.40532e-05 -4.59554e-05
0.00119302 1.60236e-05 -6.82454e-07
1.60236e-05 0.000113921 -8.04559e-08
-6.82454e-07 -8.04559e-08 1.24244e-05
0.00112197 1.97375e-05 2.34731e-08
1.97375e-05 0.000111221 -6.58713e-07
2.34731e-08 -6.58713e-07 6.75853e-06
0.000697567 1.19603e-05 -5.07428e-07
1.19603e-05 -3.79832e-05 -1.129e-06
-5.07428e-07 -1.129e-06 -0.000177417
0.00122941 1.16148e-05 -8.31119e-08
1.16148e-05 0.000133802 -5.27397e-07
-8.31119e-08 -5.27397e-07 4.65057e-05
0.00126254 4.66952e-06 -8.08612e-10
4.66952e-06 0.000159851 -5.51232e-07
-8.08612e-10 -5.51232e-07 5.77034e-05
0.00098848 1.70257e-05 -3.51273e-08
1.70257e-05 3.75219e-05 8.36297e-07
-3.51273e-08 8.36297e-07 -6.62056e-05
0.00111057 -1.73414e-05 -1.74543e-07
-1.73414e-05 8.38527e-05 2.97338e-07
-1.74543e-07 2.97338e-07 -1.36372e-05
0.00101129 7.20436e-06 -1.35591e-07
7.20436e-06 6.31241e-05 5.73319e-07
-1.35591e-07 5.73319e-07 -3.98032e-05
0.00106274 -1.93967e-05 2.41041e-07
-1.93967e-05 0.000102105 3.76145e-07
2.41041e-07 3.76145e-07 -1.08172e-05
0.00112127 -2.49503e-05 3.37174e-07
-2.49503e-05 8.57991e-05 -5.07582e-07
3.37174e-07 -5.07582e-07 -5.54366e-06
0.000993295 -2.21035e-05 6.94628e-08
-2.21035e-05 2.16568e-05 1.02088e-07
6.94628e-08 1.02088e-07 -6.67121e-05
0.0011877 -3.02844e-05 1.85668e-07
-3.02844e-05 0.000126719 4.45797e-07
1.85668e-07 4.45797e-07 3.11477e-05
0.000979993 -3.30761e-05 -9.76202e-07
-3.30761e-05 4.3849e-05 1.62968e-06
-9.76202e-07 1.62968e-06 -6.18997e-05
0.00103421 -2.93798e-05 5.56554e-07
-2.93798e-05 4.27301e-05 -7.2369e-08
5.56554e-07 -7.2369e-08 -3.80296e-05
0.000969964 -3.18554e-05 7.47304e-07
-3.18554e-05 1.31527e-05 -5.30272e-07
7.47304e-07 -5.30272e-07 -7.87548e-05
0.00120225 -3.86631e-05 -2.45583e-07
-3.86631e-05 0.000112476 1.24404e-06
-2.45583e-07 1.24404e-06 1.72276e-05
0.00121146 -3.60467e-05 -1.41164e-06
-3.60467e-05 9.71384e-05 1.45577e-06
-1.41164e-06 1.45577e-06 1.74265e-05
0.00134496 -3.41315e-05 4.50206e-07
-3.41315e-05 0.000179126 -6.5675e-08
4.50206e-07 -6.5675e-08 0.000100114
0.00109471 -3.46686e-05 -1.41881e-07
-3.46686e-05 4.73382e-05 -6.831e-08
-1.41881e-07 -6.831e-08 -3.55943e-05
0.00125668 -3.16688e-05 2.48834e-08
-3.16688e-05 0.000135649 2.1515e-07
2.48834e-08 2.1515e-07 6.75142e-05
0.00101037 -2.45379e-05 -6.41368e-07
-2.45379e-05 2.72277e-05 2.53357e-07
-6.41368e-07 2.53357e-07 -3.8965e-05
0.00112132 -3.0956e-05 4.3703e-07
-3.0956e-05 7.01132e-05 2.6201e-08
4.3703e-07 2.6201e-08 -8.41003e-07
0.00110051 -1.84248e-05 -9.88903e-07
-1.84248e-05 6.16802e-05 1.23109e-07
-9.88903e-07 1.23109e-07 1.05016e-06
0.00113701 -2.77715e-05 -5.81124e-07
-2.77715e-05 7.96614e-05 3.72099e-07
-5.81124e-07 3.72099e-07 1.35528e-05
0.000957487 -2.99673e-05 1.21994e-07
-2.99673e-05 -8.39125e-06 -6.35817e-07
1.21994e-07 -6.35817e-07 -8.29382e-05
0.00106631 -7.79237e-06 -1.34071e-06
-7.79237e-06 3.9354e-05 1.00471e-06
-1.34071e-06 1.00471e-06 -1.31032e-05
0.00106591 -2.15807e-05 4.73854e-08
-2.15807e-05 4.17927e-05 8.92965e-08
4.73854e-08 8.92965e-08 -2.14167e-05
0.00113913 -2.85716e-05 1.34266e-06
-2.85716e-05 7.92052e-05 -3.4114e-07
1.34266e-06 -3.4114e-07 1.09106e-05
0.00107482 -2.1937e-05 1.01326e-06
-2.1937e-05 5.04153e-05 -4.91875e-07
1.01326e-06 -4.91875e-07 -1.66711e-05
0.00105927 -8.09114e-06 6.05481e-08
-8.09114e-06 3.73368e-05 3.88182e-08
6.05481e-08 3.88182e-08 -1.67693e-05
0.00100636 4.42774e-06 -1.5883e-06
4.42774e-06 8.88309e-06 1.98517e-06
-1.5883e-06 1.98517e-06 -2.54218e-05
0.00105837 -8.61797e-06 9.78332e-07
-8.61797e-06 3.87552e-05 -1.1365e-06
9.78332e-07 -1.1365e-06 -1.59742e-05
0.00100506 4.07289e-06 8.18803e-08
4.07289e-06 7.38487e-06 7.32941e-09
8.18803e-08 7.32941e-09 -2.67409e-05
0.00092328 9.53952e-06 -2.03336e-06
9.53952e-06 -3.77458e-05 3.24265e-06
-2.03336e-06 3.24265e-06 -4.18898e-05
0.00100952 3.05978e-06 1.16027e-06
3.05978e-06 8.31378e-06 -1.96474e-06
1.16027e-06 -1.96474e-06 -2.52331e-05
0.000936752 8.16273e-06 9.91788e-08
8.16273e-06 -3.4496e-05 1.78799e-08
9.91788e-08 1.78799e-08 -3.80836e-05
0.00240633 1.29932e-05 -2.78145e-06
1.29932e-05 0.00068721 1.66027e-06
-2.78145e-06 1.66027e-06 0.00070862
0.000954998 6.694e-06 1.51537e-06
6.694e-06 -2.8991e-05 -3.27035e-06
1.51537e-06 -3.27035e-06 -3.19603e-05
0.00178675 9.03004e-06 2.42516e-06
9.03004e-06 0.000377766 -1.24173e-06
2.42516e-06 -1.24173e-06 0.000396737
0.00242435 7.27013e-06 5.03532e-06
7.27013e-06 0.000689986 -4.14452e-06
5.03532e-06 -4.14452e-06 0.000712359
0.000847604 -2.21446e-07 -5.3086e-07
-2.21446e-07 -6.58257e-05 -1.74316e-06
-5.3086e-07 -1.74316e-06 -0.000118331
0.000747244 -5.03873e-06 -7.47475e-07
-5.03873e-06 -0.000122816 -2.48594e-06
-7.47475e-07 -2.48594e-06 -0.000153668
0.00100384 -2.296e-06 -6.4296e-08
-2.296e-06 1.05907e-05 -5.13056e-07
-6.4296e-08 -5.13056e-07 -3.85545e-05
0.000967981 -5.40068e-06 -1.07851e-06
-5.40068e-06 -2.58726e-05 -3.17725e-06
-1.07851e-06 -3.17725e-06 -2.52407e-05
0.000755245 -3.88218e-06 -9.69871e-08
-3.88218e-06 -0.000121507 -5.95282e-07
-9.69871e-08 -5.95282e-07 -0.000150227
0.00113828 -1.76495e-06 2.15479e-07
-1.76495e-06 7.50714e-05 1.25211e-06
2.15479e-07 1.25211e-06 2.95841e-05
0.0022856 -4.87797e-06 -3.5909e-06
-4.87797e-06 0.000619072 -4.0151e-06
-3.5909e-06 -4.0151e-06 0.000643304
0.000957207 -3.54475e-06 -7.86003e-08
-3.54475e-06 -3.32528e-05 -5.40921e-10
-7.86003e-08 -5.40921e-10 -3.15188e-05
0.000762966 -2.44329e-06 3.13788e-07
-2.44329e-06 -0.000119754 1.86546e-06
3.13788e-07 1.86546e-06 -0.000146993
0.00228197 -2.34212e-06 -5.98178e-07
-2.34212e-06 0.000615834 7.5759e-09
-5.98178e-07 7.5759e-09 0.000640428
0.000954332 -1.6606e-06 2.52559e-07
-1.6606e-06 -3.58146e-05 3.24807e-06
2.52559e-07 3.24807e-06 -3.34999e-05
0.00227386 1.49057e-07 -4.67089e-07
1.49057e-07 0.000611487 4.01419e-06
-4.67089e-07 4.01419e-06 0.000636217
0.000859429 -1.59407e-05 1.63141e-06
-1.59407e-05 0.000157152 -1.06991e-06
1.63141e-06 -1.06991e-06 7.79738e-05
0.000837157 -5.47965e-06 -1.8048e-07
-5.47965e-06 0.000240086 6.193e-07
-1.8048e-07 6.193e-07 0.000176757
0.000645032 9.82888e-06 -7.87614e-06
9.82888e-06 8.42885e-05 2.23213e-06
-7.87614e-06 2.23213e-06 7.97482e-05
0.00112343 1.92237e-05 -2.50899e-07
1.92237e-05 7.45047e-05 6.20997e-08
-2.50899e-07 6.20997e-08 8.81008e-06
0.000998383 2.1868e-05 -6.62102e-07
2.1868e-05 7.89981e-06 -6.78388e-07
-6.62102e-07 -6.78388e-07 -5.9109e-05
0.00119888 2.13521e-05 1.48966e-08
2.13521e-05 0.000113571 1.67634e-07
1.48966e-08 1.67634e-07 3.96003e-05
0.000921707 -9.71244e-07 -2.59801e-06
-9.71244e-07 0.000134438 9.46792e-07
-2.59801e-06 9.46792e-07 9.2303e-05
0.000871507 -1.924e-05 1.67529e-07
-1.924e-05 0.000141206 2.37561e-07
1.67529e-07 2.37561e-07 9.89879e-05
0.00104276 -3.1207e-06 -5.66833e-06
-3.1207e-06 0.00032116 5.96403e-06
-5.66833e-06 5.96403e-06 0.000295059
0.000366015 1.06078e-05 -2.04333e-05
1.06078e-05 9.42689e-05 1.18541e-05
-2.04333e-05 1.18541e-05 -0.000153791
0.00368233 2.01691e-05 -5.93108e-06
2.01691e-05 0.000636241 -1.3533e-05
-5.93108e-06 -1.3533e-05 -1.42576e-05
0.00304133 0.000178604 1.70396e-05
0.000178604 0.000859818 -2.37819e-05
1.70396e-05 -2.37819e-05 0.000774102
0.00148597 -3.74391e-06 -6.27733e-06
-3.74391e-06 0.000536724 -1.32057e-06
-6.27733e-06 -1.32057e-06 0.000526451
0.000236621 -3.76735e-05 -1.35842e-05
-3.76735e-05 3.26877e-05 9.68529e-06
-1.35842e-05 9.68529e-06 -0.000209563
0.00592939 6.90439e-05 2.65482e-05
6.90439e-05 0.00132797 -4.41766e-05
2.65482e-05 -4.41766e-05 0.00069857
0.000492951 0.000111179 4.72631e-06
0.000111179 -0.000513606 9.41134e-06
4.72631e-06 9.41134e-06 -0.00049479
0.000807737 4.61535e-06 3.48286e-06
4.61535e-06 9.09125e-05 -6.41947e-07
3.48286e-06 -6.41947e-07 3.98184e-05
-0.000808367 -7.591e-05 2.20679e-05
-7.591e-05 -0.000612795 -3.87735e-05
2.20679e-05 -3.87735e-05 -0.000763174
0.00657369 0.000100777 2.01293e-05
0.000100777 0.00123378 -3.41115e-05
2.01293e-05 -3.41115e-05 0.00093777
0.000975059 6.68977e-06 -6.503e-06
6.68977e-06 -0.000790831 5.15785e-05
-6.503e-06 5.15785e-05 -0.000567873
-0.000195509 8.74551e-06 -4.30736e-06
8.74551e-06 -0.000511637 2.64438e-06
-4.30736e-06 2.64438e-06 -0.000519715
0.00112116 1.87842e-05 -5.57451e-07
1.87842e-05 7.66147e-05 -3.28076e-07
-5.57451e-07 -3.28076e-07 -6.43219e-06
0.00106952 -8.75401e-07 1.06845e-08
-8.75401e-07 5.25293e-05 -2.92276e-07
1.06845e-08 -2.92276e-07 -2.83651e-05
0.00108967 -1.094e-05 1.45129e-07
-1.094e-05 6.52229e-05 8.57194e-07
1.45129e-07 8.57194e-07 -1.09453e-05
0.00109308 1.58949e-05 -2.42024e-07
1.58949e-05 6.37215e-05 -7.04252e-07
-2.42024e-07 -7.04252e-07 -1.02294e-05
0.00122692 2.24745e-05 3.5737e-07
2.24745e-05 0.000128983 1.21972e-06
3.5737e-07 1.21972e-06 5.92018e-05
0.00128619 1.41829e-05 -1.75265e-08
1.41829e-05 0.000156499 9.50529e-07
-1.75265e-08 9.50529e-07 9.51316e-05
0.00166219 -5.39613e-05 9.34052e-06
-5.39613e-05 -2.00016e-05 -7.83163e-06
9.34052e-06 -7.83163e-06 -9.2694e-06
0.00121335 -1.60599e-05 -3.63276e-07
-1.60599e-05 0.000253086 3.36247e-06
-3.63276e-07 3.36247e-06 7.96913e-05
0.00112827 8.86475e-06 1.24974e-07
8.86475e-06 8.7841e-05 5.2605e-07
1.24974e-07 5.2605e-07 -1.35217e-08
0.0011515 -1.36586e-05 1.18434e-06
-1.36586e-05 0.000100603 5.18791e-07
1.18434e-06 5.18791e-07 -1.54257e-05
0.00109668 -1.0304e-06 4.48659e-07
-1.0304e-06 6.9206e-05 1.23438e-06
4.48659e-07 1.23438e-06 -2.90059e-05
0.00111965 1.68095e-05 2.10722e-07
1.68095e-05 8.0356e-05 4.22051e-07
2.10722e-07 4.22051e-07 -9.74449e-06
0.00114104 1.43976e-05 1.36951e-07
1.43976e-05 8.8047e-05 2.64299e-07
1.36951e-07 2.64299e-07 -8.60026e-06
0.00134278 -4.70096e-05 3.41177e-06
-4.70096e-05 4.16755e-05 1.13481e-06
3.41177e-06 1.13481e-06 -5.2993e-05
0.00122303 -6.491e-06 -1.59776e-08
-6.491e-06 0.00012482 -5.82535e-07
-1.59776e-08 -5.82535e-07 1.94892e-05
0.0012508 1.40236e-05 -2.57369e-08
1.40236e-05 0.000243462 -2.31946e-07
-2.57369e-08 -2.31946e-07 8.5285e-05
0.000980075 1.48496e-05 -8.19763e-07
1.48496e-05 1.11414e-05 -9.63228e-07
-8.19763e-07 -9.63228e-07 -8.76453e-05
0.00234314 -2.21246e-05 -8.90111e-06
-2.21246e-05 0.000768754 1.66527e-05
-8.90111e-06 1.66527e-05 0.00061736
0.00101518 4.52388e-06 -4.83849e-07
4.52388e-06 3.39606e-05 -3.87605e-06
-4.83849e-07 -3.87605e-06 -7.59878e-05
0.00109967 1.08965e-07 -5.15737e-07
1.08965e-07 7.25759e-05 -8.66548e-07
-5.15737e-07 -8.66548e-07 -2.99856e-05
0.00115101 -1.35022e-07 8.45424e-07
-1.35022e-07 0.000286789 -3.74298e-07
8.45424e-07 -3.74298e-07 0.000199827
0.000893129 -1.86056e-06 6.50444e-07
-1.86056e-06 0.000171668 4.16945e-07
6.50444e-07 4.16945e-07 7.91549e-05
0.00115836 1.12524e-06 -1.44389e-05
1.12524e-06 0.000436578 1.55132e-06
-1.44389e-05 1.55132e-06 0.000363672
0.00151107 2.34681e-05 -2.17855e-07
2.34681e-05 0.000272618 3.86446e-06
-2.17855e-07 3.86446e-06 0.000192229
0.00115865 -1.52488e-06 4.82732e-06
-1.52488e-06 0.000333899 -1.6745e-06
4.82732e-06 -1.6745e-06 0.000300502
0.000598263 4.19543e-06 -1.40695e-06
4.19543e-06 -3.13384e-05 -3.74274e-07
-1.40695e-06 -3.74274e-07 -0.000112718
0.00331307 -3.70259e-05 -1.88795e-06
-3.70259e-05 0.000379041 -1.14334e-05
-1.88795e-06 -1.14334e-05 0.000320442
0.000285036 -1.22538e-06 -5.42297e-07
-1.22538e-06 -0.00105594 5.13859e-05
-5.42297e-07 5.13859e-05 -0.00069409
0.000630764 -1.06509e-05 -6.91223e-07
-1.06509e-05 -8.19655e-05 -4.2184e-07
-6.91223e-07 -4.2184e-07 -0.000132632
0.0013732 -5.48379e-06 6.52599e-06
-5.48379e-06 0.000439425 -2.93943e-06
6.52599e-06 -2.93943e-06 0.000451316
0.000894437 3.09069e-06 3.28029e-06
3.09069e-06 2.73862e-06 1.83278e-06
3.28029e-06 1.83278e-06 -6.15301e-05
0.000920961 -5.79802e-06 4.54622e-07
-5.79802e-06 0.000127717 1.55718e-06
4.54622e-07 1.55718e-06 5.06036e-05
0.000930496 -1.80609e-05 -1.01362e-06
-1.80609e-05 0.000137793 1.11645e-08
-1.01362e-06 1.11645e-08 9.09921e-05
0.000702749 5.3124e-05 -5.13376e-06
5.3124e-05 0.000144847 -4.74083e-07
-5.13376e-06 -4.74083e-07 -0.000186422
0.00102471 2.46879e-05 1.69621e-06
2.46879e-05 0.000147067 4.82534e-07
1.69621e-06 4.82534e-07 0.000279534
-0.00042042 0.000118011 -2.19696e-06
0.000118011 -0.000817319 -1.11121e-05
-2.19696e-06 -1.11121e-05 -0.000731323
0.00623407 -1.42754e-05 8.56528e-06
-1.42754e-05 0.000988868 -2.4702e-05
8.56528e-06 -2.4702e-05 0.00113163
0.00164075 -7.273e-06 3.38385e-06
-7.273e-06 0.000601227 -1.15429e-05
3.38385e-06 -1.15429e-05 0.000481821
0.000891313 -1.25074e-05 -2.7932e-06
-1.25074e-05 0.000158221 1.20692e-06
-2.7932e-06 1.20692e-06 7.07533e-05
0.000731975 1.36046e-06 -1.57889e-05
1.36046e-06 0.000103029 7.53419e-06
-1.57889e-05 7.53419e-06 6.94123e-05
0.000655455 4.87713e-05 1.45461e-06
4.87713e-05 -0.000105391 2.44387e-06
1.45461e-06 2.44387e-06 6.85466e-05
-0.00158296 0.000137065 2.8155e-05
0.000137065 -0.00113226 -4.54324e-05
2.8155e-05 -4.54324e-05 -0.00115744
0.00811159 0.000103528 -9.67665e-06
0.000103528 0.00222712 -5.50316e-06
-9.67665e-06 -5.50316e-06 0.00180347
-0.000524786 -2.89577e-05 -1.94876e-05
-2.89577e-05 -0.000174181 6.8593e-05
-1.94876e-05 6.8593e-05 -0.00079723
0.00111524 1.86243e-05 1.13231e-06
1.86243e-05 9.96717e-05 -1.8454e-06
1.13231e-06 -1.8454e-06 -2.46665e-06
0.000920468 1.19775e-05 1.02631e-06
1.19775e-05 6.58619e-05 -1.76434e-06
1.02631e-06 -1.76434e-06 -7.35207e-05
0.000951353 8.73119e-08 4.98583e-07
8.73119e-08 0.000121332 1.1157e-06
4.98583e-07 1.1157e-06 -3.72774e-05
0.00109286 -1.83343e-05 1.42788e-07
-1.83343e-05 7.4889e-05 -5.58303e-07
1.42788e-07 -5.58303e-07 -2.23509e-05
0.000995046 5.82794e-06 -6.5889e-08
5.82794e-06 5.56636e-05 1.10624e-06
-6.5889e-08 1.10624e-06 -4.71014e-05
0.00104571 -1.59196e-05 -1.99138e-07
-1.59196e-05 9.3413e-05 4.12222e-07
-1.99138e-07 4.12222e-07 -1.86274e-05
0.000903469 -3.07072e-05 6.78616e-07
-3.07072e-05 5.51511e-05 -5.65979e-07
6.78616e-07 -5.65979e-07 -8.30704e-05
0.00122296 -3.10602e-05 4.68181e-07
-3.10602e-05 0.000142308 -2.76532e-07
4.68181e-07 -2.76532e-07 4.58757e-05
0.0012105 -3.67433e-05 -3.80544e-07
-3.67433e-05 0.00015298 4.65964e-07
-3.80544e-07 4.65964e-07 4.53517e-05
0.0012941 -4.41995e-05 -3.69406e-07
-4.41995e-05 0.000184793 1.78154e-06
-3.69406e-07 1.78154e-06 7.10836e-05
0.000931514 -3.10893e-05 5.75373e-07
-3.10893e-05 -1.87126e-06 -1.47214e-06
5.75373e-07 -1.47214e-06 -9.29506e-05
0.0012529 -3.90374e-05 -1.68802e-07
-3.90374e-05 0.000136741 -6.38017e-08
-1.68802e-07 -6.38017e-08 4.11125e-05
0.00147558 -4.40627e-05 -1.63414e-06
-4.40627e-05 0.000225845 1.01516e-06
-1.63414e-06 1.01516e-06 0.000132366
0.00136114 -3.85872e-05 -1.15757e-06
-3.85872e-05 0.000163707 1.24941e-06
-1.15757e-06 1.24941e-06 8.18241e-05
0.000973664 -3.00368e-05 -4.58975e-07
-3.00368e-05 -8.60718e-06 1.29439e-06
-4.58975e-07 1.29439e-06 -7.99899e-05
0.00113938 -3.53962e-05 -1.27049e-07
-3.53962e-05 6.30666e-05 1.95371e-07
-1.27049e-07 1.95371e-07 -1.77672e-05
0.00116092 -3.56136e-05 2.55363e-07
-3.56136e-05 7.91084e-05 -8.18357e-07
2.55363e-07 -8.18357e-07 -4.66183e-06
0.00123385 -2.91231e-05 6.28117e-08
-2.91231e-05 0.00012527 1.10966e-08
6.28117e-08 1.10966e-08 6.14957e-05
0.00113985 -3.01585e-05 6.53719e-07
-3.01585e-05 7.99691e-05 -5.27606e-07
6.53719e-07 -5.27606e-07 1.27905e-05
0.000975394 -1.3715e-05 -4.75334e-07
-1.3715e-05 8.96732e-06 5.62636e-07
-4.75334e-07 5.62636e-07 -5.19971e-05
0.00108974 -2.52512e-05 1.45945e-07
-2.52512e-05 6.50588e-05 -1.06993e-07
1.45945e-07 -1.06993e-07 -5.04755e-07
0.00111727 -3.07604e-05 1.98733e-06
-3.07604e-05 6.76672e-05 -1.09218e-06
1.98733e-06 -1.09218e-06 -2.35607e-06
0.00105041 -3.35844e-06 -1.47354e-06
-3.35844e-06 3.43483e-05 8.45669e-07
-1.47354e-06 8.45669e-07 -1.66954e-05
0.00110952 -1.88456e-05 -2.52914e-07
-1.88456e-05 6.5173e-05 -4.38781e-08
-2.52914e-07 -4.38781e-08 4.66232e-06
0.00115429 -2.79437e-05 3.35705e-07
-2.79437e-05 8.77611e-05 -1.0807e-07
3.35705e-07 -1.0807e-07 2.15195e-05
0.000999853 5.82036e-06 -1.94342e-06
5.82036e-06 6.70468e-06 1.86709e-06
-1.94342e-06 1.86709e-06 -2.71096e-05
0.00106249 -7.64229e-06 7.82022e-08
-7.64229e-06 3.707e-05 7.06362e-08
7.82022e-08 7.06362e-08 -1.52248e-05
0.00102856 -2.15122e-05 1.17082e-06
-2.15122e-05 2.30749e-05 -1.78818e-07
1.17082e-06 -1.78818e-07 -4.0443e-05
0.00105368 -7.76771e-06 1.22836e-06
-7.76771e-06 3.42616e-05 -1.04401e-06
1.22836e-06 -1.04401e-06 -1.96935e-05
0.00100057 4.79023e-06 1.13446e-07
4.79023e-06 6.10268e-06 3.03727e-08
1.13446e-07 3.03727e-08 -2.8164e-05
0.00091581 1.08562e-05 -2.39675e-06
1.08562e-05 -3.82103e-05 3.21349e-06
-2.39675e-06 3.21349e-06 -4.28392e-05
0.00100329 3.91368e-06 1.40744e-06
3.91368e-06 6.54249e-06 -1.95542e-06
1.40744e-06 -1.95542e-06 -2.75859e-05
0.000931559 9.56554e-06 8.71718e-08
9.56554e-06 -3.37792e-05 1.6713e-08
8.71718e-08 1.6713e-08 -3.79543e-05
0.00247876 1.44101e-05 -7.90159e-06
1.44101e-05 0.000726227 3.99761e-06
-7.90159e-06 3.99761e-06 0.000746781
0.000948237 8.15998e-06 1.89036e-06
8.15998e-06 -2.91315e-05 -3.24803e-06
1.89036e-06 -3.24803e-06 -3.27308e-05
0.00178627 1.12773e-05 2.81187e-06
1.12773e-05 0.000381482 -1.21916e-06
2.81187e-06 -1.21916e-06 0.000399772
0.00243394 9.73247e-06 6.29661e-06
9.73247e-06 0.000697739 -4.10557e-06
6.29661e-06 -4.10557e-06 0.000719557
0.0010406 8.57923e-06 -8.01089e-07
8.57923e-06 2.73584e-05 -1.14928e-06
-8.01089e-07 -1.14928e-06 -2.53001e-05
0.00100151 -6.54403e-06 -9.19668e-07
-6.54403e-06 4.21448e-06 -1.90143e-06
-9.19668e-07 -1.90143e-06 -2.71113e-05
0.000949632 3.81608e-06 -3.55955e-07
3.81608e-06 -1.5477e-05 -5.16538e-07
-3.55955e-07 -5.16538e-07 -6.75541e-05
0.000965918 -7.11396e-06 -1.38793e-06
-7.11396e-06 -2.38298e-05 -3.17405e-06
-1.38793e-06 -3.17405e-06 -2.46393e-05
0.000879244 -5.20211e-06 -1.70164e-07
-5.20211e-06 -5.81215e-05 -6.00429e-07
-1.70164e-07 -6.00429e-07 -8.82501e-05
0.00114567 -3.38488e-06 1.76712e-07
-3.38488e-06 7.97391e-05 6.78294e-07
1.76712e-07 6.78294e-07 3.12213e-05
0.00230705 -7.3697e-06 -4.87497e-06
-7.3697e-06 0.000631924 -4.00631e-06
-4.87497e-06 -4.00631e-06 0.000655522
0.000954689 -5.39254e-06 -7.30926e-08
-5.39254e-06 -3.23636e-05 -5.60078e-09
-7.30926e-08 -5.60078e-09 -3.16422e-05
0.000746903 -3.89638e-06 3.61069e-07
-3.89638e-06 -0.00012534 1.26086e-06
3.61069e-07 1.26086e-06 -0.000154285
0.00229345 -4.81535e-06 -5.1274e-07
-4.81535e-06 0.000622686 1.3939e-08
-5.1274e-07 1.3939e-08 0.00064695
0.000948417 -3.52265e-06 6.16733e-07
-3.52265e-06 -3.75841e-05 3.22481e-06
6.16733e-07 3.22481e-06 -3.5787e-05
0.00228732 -2.289e-06 1.24997e-06
-2.289e-06 0.000618355 4.02804e-06
1.24997e-06 4.02804e-06 0.000642955
0.000902633 -3.37354e-06 4.7834e-07
-3.37354e-06 0.000139266 -2.02774e-06
4.7834e-07 -2.02774e-06 6.90787e-05
0.000932024 -1.58647e-05 4.54906e-07
-1.58647e-05 0.00020245 -1.03666e-07
4.54906e-07 -1.03666e-07 0.000123853
0.000761621 -5.70024e-06 -9.41527e-06
-5.70024e-06 0.000190138 2.71128e-06
-9.41527e-06 2.71128e-06 0.000128287
0.00101384 2.11984e-05 -6.41297e-07
2.11984e-05 1.33892e-05 -4.7565e-07
-6.41297e-07 -4.7565e-07 -5.22859e-05
0.00117466 2.66259e-05 -2.34166e-07
2.66259e-05 9.13333e-05 8.85139e-08
-2.34166e-07 8.85139e-08 2.24228e-05
0.00116943 2.32203e-05 4.26063e-07
2.32203e-05 9.70946e-05 9.10143e-07
4.26063e-07 9.10143e-07 3.1881e-05
0.000994685 2.16533e-05 2.57112e-08
2.16533e-05 6.52937e-06 3.43511e-08
2.57112e-08 3.43511e-08 -6.04742e-05
0.00113509 2.147e-05 1.67576e-07
2.147e-05 8.21874e-05 3.52509e-07
1.67576e-07 3.52509e-07 7.45223e-06
0.00115779 2.67324e-05 -3.7772e-07
2.67324e-05 8.80336e-05 -1.47663e-07
-3.7772e-07 -1.47663e-07 1.40398e-05
0.00114999 2.66404e-05 -1.06301e-08
2.66404e-05 8.91746e-05 2.53284e-07
-1.06301e-08 2.53284e-07 9.68724e-06
0.000901608 1.41291e-05 -5.57681e-06
1.41291e-05 0.000161294 -4.11247e-06
-5.57681e-06 -4.11247e-06 0.000115375
0.000770776 -1.65088e-06 4.52613e-07
-1.65088e-06 4.63042e-05 5.77493e-07
4.52613e-07 5.77493e-07 -6.33799e-08
0.00114115 -1.94923e-05 -1.83119e-06
-1.94923e-05 0.000309474 -1.28784e-06
-1.83119e-06 -1.28784e-06 0.000265451
0.000766328 5.89993e-06 4.31514e-07
5.89993e-06 9.57394e-05 -4.00065e-06
4.31514e-07 -4.00065e-06 4.1634e-05
0.00253525 -6.93938e-05 -6.0872e-05
-6.93938e-05 0.000776409 5.98733e-05
-6.0872e-05 5.98733e-05 0.000354036
0.000916084 8.09616e-05 3.75522e-05
8.09616e-05 -0.00061896 -5.25668e-05
3.75522e-05 -5.25668e-05 -0.00116786
0.00515122 0.00013753 3.44807e-06
0.00013753 0.00122203 -2.7128e-05
3.44807e-06 -2.7128e-05 0.00135158
0.00120924 -9.26641e-05 -3.215e-05
-9.26641e-05 0.000168797 2.96693e-05
-3.215e-05 2.96693e-05 -7.5593e-05
0.00389984 2.73306e-05 1.22785e-05
2.73306e-05 -2.44488e-05 -4.28147e-05
1.22785e-05 -4.28147e-05 -0.000470847
0.00349974 1.6765e-05 -5.99904e-06
1.6765e-05 0.000125104 -7.24363e-07
-5.99904e-06 -7.24363e-07 0.000418138
0.000795754 1.46016e-06 3.26707e-06
1.46016e-06 3.30838e-05 3.23507e-06
3.26707e-06 3.23507e-06 4.53036e-05
0.000887176 -7.16118e-05 1.73465e-05
-7.16118e-05 0.000187969 -1.37813e-05
1.73465e-05 -1.37813e-05 6.15572e-05
0.00383892 -6.24651e-05 -1.35762e-05
-6.24651e-05 -5.92652e-05 -0.000106541
-1.35762e-05 -0.000106541 -0.000596402
0.000256024 -7.65549e-05 6.57469e-06
-7.65549e-05 -0.000792313 4.27685e-05
6.57469e-06 4.27685e-05 -0.000655485
-0.000918426 -1.91833e-05 -5.42716e-06
-1.91833e-05 -0.000963285 5.03318e-07
-5.42716e-06 5.03318e-07 -0.0009038
0.00112795 2.71909e-05 -2.39167e-06
2.71909e-05 8.10842e-05 -1.20292e-07
-2.39167e-06 -1.20292e-07 -4.89224e-06
0.00116576 1.68793e-05 -8.31784e-09
1.68793e-05 9.86646e-05 -1.04534e-07
-8.31784e-09 -1.04534e-07 1.53011e-05
0.00108246 -5.48055e-07 2.45449e-08
-5.48055e-07 5.92652e-05 1.31584e-07
2.45449e-08 1.31584e-07 -2.16453e-05
0.0011174 1.54804e-05 -6.76637e-08
1.54804e-05 7.55053e-05 -1.24288e-07
-6.76637e-08 -1.24288e-07 1.38062e-06
0.000518673 -4.22992e-05 1.18882e-05
-4.22992e-05 -0.000393709 -1.01034e-05
1.18882e-05 -1.01034e-05 -0.000457881
0.00121726 9.37269e-06 4.24664e-07
9.37269e-06 0.000227376 2.50646e-06
4.24664e-07 2.50646e-06 6.45319e-05
0.00115578 1.93631e-05 6.14606e-07
1.93631e-05 9.88625e-05 9.54975e-07
6.14606e-07 9.54975e-07 8.18265e-06
0.00107266 1.0875e-05 -2.47853e-07
1.0875e-05 5.3793e-05 7.3016e-07
-2.47853e-07 7.3016e-07 -4.32112e-05
0.00106513 -5.87804e-06 1.32417e-07
-5.87804e-06 4.66098e-05 8.80795e-07
1.32417e-07 8.80795e-07 -5.8353e-05
0.00108713 1.8358e-05 -6.79967e-07
1.8358e-05 6.49874e-05 -1.4307e-07
-6.79967e-07 -1.4307e-07 -3.27149e-05
0.00111237 6.83029e-07 -1.33689e-07
6.83029e-07 7.64383e-05 -1.25404e-07
-1.33689e-07 -1.25404e-07 -2.60392e-05
0.000929866 -1.10621e-05 9.74464e-06
-1.10621e-05 0.000171195 -2.82829e-06
9.74464e-06 -2.82829e-06 4.81523e-05
0.0010176 6.59833e-08 6.05268e-07
6.59833e-08 3.78597e-05 -6.3621e-07
6.05268e-07 -6.3621e-07 -7.1697e-05
0.00117159 1.32393e-05 -6.05431e-07
1.32393e-05 0.000113778 -6.7259e-07
-6.05431e-07 -6.7259e-07 6.76241e-06
0.0007701 1.54231e-05 1.02781e-05
1.54231e-05 0.00030199 1.84652e-05
1.02781e-05 1.84652e-05 0.000221275
0.0013146 -7.99293e-06 1.13353e-06
-7.99293e-06 0.000184879 -3.44841e-06
1.13353e-06 -3.44841e-06 4.87768e-05
0.0013238 1.29942e-06 -1.31631e-06
1.29942e-06 0.000451132 3.72218e-08
-1.31631e-06 3.72218e-08 0.000350168
0.000878166 -1.47633e-06 3.98788e-07
-1.47633e-06 0.000116379 -2.10616e-07
3.98788e-07 -2.10616e-07 3.03844e-05
0.000402354 -2.44159e-06 -4.41846e-08
-2.44159e-06 -0.00013714 5.78878e-07
-4.41846e-08 5.78878e-07 -0.00023007
0.00200771 -4.49878e-06 -4.08193e-06
-4.49878e-06 0.000499555 8.7639e-06
-4.08193e-06 8.7639e-06 0.000435579
-0.000637439 1.17775e-05 3.32648e-06
1.17775e-05 -0.000345081 1.60615e-05
3.32648e-06 1.60615e-05 -0.000379477
0.000745903 -6.71849e-06 5.03853e-07
-6.71849e-06 2.13434e-05 2.18505e-07
5.03853e-07 2.18505e-07 -5.82586e-05
0.00349308 7.35618e-05 -2.01832e-06
7.35618e-05 0.000473684 -6.61423e-05
-2.01832e-06 -6.61423e-05 -0.000392992
0.00545938 0.00014565 -5.02102e-06
0.00014565 0.00143922 2.54602e-05
-5.02102e-06 2.54602e-05 0.00164989
0.00120401 -1.89764e-05 1.43037e-06
-1.89764e-05 0.000307958 -2.40142e-06
1.43037e-06 -2.40142e-06 0.0002598
0.00236197 2.00671e-05 6.1097e-06
2.00671e-05 0.000986867 -6.5295e-06
6.1097e-06 -6.5295e-06 0.00109713
0.000871599 -2.094e-06 -5.95007e-06
-2.094e-06 0.00019315 -9.88777e-07
-5.95007e-06 -9.88777e-07 9.99972e-05
0.000980048 -1.2256e-05 -1.35113e-06
-1.2256e-05 0.000213778 1.5867e-07
-1.35113e-06 1.5867e-07 0.000126815
0.000935329 1.66223e-07 -4.14126e-06
1.66223e-07 0.000227322 5.77618e-07
-4.14126e-06 5.77618e-07 0.000196348
0.000522417 -1.49619e-05 2.31471e-06
-1.49619e-05 0.000346549 1.12577e-05
2.31471e-06 1.12577e-05 0.000106142
0.000244299 5.2058e-05 2.19382e-07
5.2058e-05 -0.000323146 -3.68555e-06
2.19382e-07 -3.68555e-06 -0.000158552
-0.000224404 0.000145867 4.13033e-06
0.000145867 -0.000695927 -1.06454e-05
4.13033e-06 -1.06454e-05 -0.00072933
0.00180351 3.36231e-05 1.11413e-05
3.36231e-05 -0.000352968 -2.30472e-05
1.11413e-05 -2.30472e-05 -0.000960448
0.000354846 -8.76797e-06 3.72953e-06
-8.76797e-06 1.64484e-05 -2.08144e-05
3.72953e-06 -2.08144e-05 -9.9563e-05
0.00103603 -3.41197e-06 -9.46624e-06
-3.41197e-06 0.00035047 2.2449e-06
-9.46624e-06 2.2449e-06 0.000279794
-0.00112252 2.46865e-05 7.63056e-07
2.46865e-05 -0.000994588 1.80148e-06
7.63056e-07 1.80148e-06 -0.000967129
1.22595e-05 0.000106367 4.14626e-05
0.000106367 -0.000118639 -3.26106e-05
4.14626e-05 -3.26106e-05 -5.83352e-05
0.00591085 0.000145263 1.78597e-05
0.000145263 0.00155626 -4.07234e-05
1.78597e-05 -4.07234e-05 0.000979471
0.00169709 -8.25288e-05 -3.6864e-05
-8.25288e-05 0.000242774 9.21563e-05
-3.6864e-05 9.21563e-05 -0.000256646
0.00113017 1.23202e-05 -1.87456e-07
1.23202e-05 0.000164779 -3.35589e-06
-1.87456e-07 -3.35589e-06 2.43172e-05
0.0010454 6.66439e-07 -1.01975e-07
6.66439e-07 0.000161308 -5.01575e-07
-1.01975e-07 -5.01575e-07 4.89666e-06
0.000835013 -2.80711e-05 7.50208e-07
-2.80711e-05 9.35889e-05 3.77677e-06
7.50208e-07 3.77677e-06 -0.000108752
0.00102949 -1.63805e-05 -3.703e-07
-1.63805e-05 8.53837e-05 1.23332e-07
-3.703e-07 1.23332e-07 -2.5781e-05
0.000869515 -3.00942e-05 1.93073e-07
-3.00942e-05 3.78702e-05 -1.05567e-07
1.93073e-07 -1.05567e-07 -9.68147e-05
0.00120553 -5.33105e-05 1.35973e-06
-5.33105e-05 0.000170281 7.20619e-07
1.35973e-06 7.20619e-07 2.54725e-05
0.00145385 -4.06145e-05 -1.77854e-07
-4.06145e-05 0.000268096 -5.57855e-07
-1.77854e-07 -5.57855e-07 0.000158587
0.00131122 -4.46663e-05 -3.83106e-07
-4.46663e-05 0.000190839 6.68797e-07
-3.83106e-07 6.68797e-07 7.53331e-05
0.00135228 -5.00634e-05 -2.0548e-06
-5.00634e-05 0.000170177 -3.66558e-07
-2.0548e-06 -3.66558e-07 6.26157e-05
0.00132285 -3.96742e-05 3.40092e-07
-3.96742e-05 0.000170364 -1.18863e-06
3.40092e-07 -1.18863e-06 7.43274e-05
0.00139687 -4.32681e-05 -3.61463e-07
-4.32681e-05 0.000185759 -2.88771e-08
-3.61463e-07 -2.88771e-08 9.16664e-05
0.00133347 -4.15659e-05 -7.96544e-07
-4.15659e-05 0.000144903 -1.50718e-07
-7.96544e-07 -1.50718e-07 5.69844e-05
0.00126678 -3.57056e-05 -1.02915e-06
-3.57056e-05 9.69609e-05 -4.32933e-07
-1.02915e-06 -4.32933e-07 2.03601e-05
0.00136725 -3.58247e-05 -1.15013e-06
-3.58247e-05 0.000166056 1.55171e-06
-1.15013e-06 1.55171e-06 9.17601e-05
0.0012813 -3.77363e-05 -1.27754e-07
-3.77363e-05 0.000125531 6.7129e-09
-1.27754e-07 6.7129e-09 4.31369e-05
0.000950223 -2.78543e-05 -2.32926e-07
-2.78543e-05 -1.71466e-05 3.78507e-07
-2.32926e-07 3.78507e-07 -8.23391e-05
0.00107435 -3.10689e-05 4.40873e-07
-3.10689e-05 4.02716e-05 -1.17066e-07
4.40873e-07 -1.17066e-07 -3.05345e-05
0.00108085 -3.49279e-05 7.03664e-07
-3.49279e-05 3.52726e-05 -1.13636e-06
7.03664e-07 -1.13636e-06 -4.66767e-05
0.00112406 -2.05913e-05 -2.5782e-07
-2.05913e-05 7.42465e-05 3.55017e-07
-2.5782e-07 3.55017e-07 1.36149e-05
0.00115687 -2.82333e-05 7.30132e-08
-2.82333e-05 8.8713e-05 -1.56958e-07
7.30132e-08 -1.56958e-07 2.45824e-05
0.00102684 -2.87056e-05 1.17231e-06
-2.87056e-05 2.61616e-05 -8.98503e-07
1.17231e-06 -8.98503e-07 -4.00697e-05
0.00102508 1.87937e-06 -9.86906e-07
1.87937e-06 2.86022e-05 9.29669e-07
-9.86906e-07 9.29669e-07 -2.30374e-05
0.0010173 -1.31823e-05 -1.45489e-07
-1.31823e-05 2.86858e-05 1.2358e-07
-1.45489e-07 1.2358e-07 -3.19284e-05
0.00116632 -2.59124e-05 5.7326e-07
-2.59124e-05 0.000101498 -3.88409e-07
5.7326e-07 -3.88409e-07 3.65758e-05
0.000982536 9.43727e-06 -2.15019e-06
9.43727e-06 1.46704e-06 1.70929e-06
-2.15019e-06 1.70929e-06 -3.1861e-05
0.00105822 -3.62093e-06 -1.70441e-07
-3.62093e-06 3.74105e-05 -3.10313e-08
-1.70441e-07 -3.10313e-08 -1.35074e-05
0.00111625 -1.91559e-05 5.22352e-07
-1.91559e-05 6.75511e-05 -2.66357e-07
5.22352e-07 -2.66357e-07 7.16962e-06
0.000948075 1.21936e-05 -3.74403e-06
1.21936e-05 -1.9709e-05 4.2983e-06
-3.74403e-06 4.2983e-06 -2.47588e-05
0.000996094 6.80047e-06 8.61784e-08
6.80047e-06 5.034e-06 4.84901e-08
8.61784e-08 4.84901e-08 -2.87506e-05
0.00105792 -7.46735e-06 1.46098e-06
-7.46735e-06 3.44236e-05 -8.38543e-07
1.46098e-06 -8.38543e-07 -1.77137e-05
0.000995918 5.33927e-06 1.74379e-06
5.33927e-06 3.86681e-06 -1.89171e-06
1.74379e-06 -1.89171e-06 -3.03642e-05
0.000922251 1.08973e-05 1.12861e-07
1.08973e-05 -3.50424e-05 2.91761e-08
1.12861e-07 2.91761e-08 -3.96953e-05
0.00249447 1.6713e-05 -8.76573e-06
1.6713e-05 0.0007378 3.9129e-06
-8.76573e-06 3.9129e-06 0.000757665
0.000939796 9.5923e-06 2.2343e-06
9.5923e-06 -2.98316e-05 -3.21935e-06
2.2343e-06 -3.21935e-06 -3.4038e-05
0.00246344 1.44287e-05 2.74267e-07
1.44287e-05 0.000719073 3.49754e-08
2.74267e-07 3.49754e-08 0.000739639
0.00244174 1.2122e-05 7.37659e-06
1.2122e-05 0.000705061 -4.04524e-06
7.37659e-06 -4.04524e-06 0.00072627
0.00109261 2.07671e-05 -6.65259e-07
2.07671e-05 5.18654e-05 -3.48342e-07
-6.65259e-07 -3.48342e-07 -1.26092e-05
0.00105563 6.55459e-06 -9.05673e-07
6.55459e-06 3.27498e-05 -1.10044e-06
-9.05673e-07 -1.10044e-06 -2.07031e-05
0.000988669 -6.47473e-06 -1.28691e-06
-6.47473e-06 -1.87231e-07 -1.9131e-06
-1.28691e-06 -1.9131e-06 -3.3312e-05
0.00105495 8.77415e-06 -4.71414e-08
8.77415e-06 3.43309e-05 8.82837e-09
-4.71414e-08 8.82837e-09 -1.84293e-05
0.000958383 -8.59833e-06 -1.74715e-06
-8.59833e-06 -2.38205e-05 -3.19105e-06
-1.74715e-06 -3.19105e-06 -2.63007e-05
0.00100448 -6.38571e-06 -7.78481e-08
-6.38571e-06 5.7577e-06 1.11057e-10
-7.78481e-08 1.11057e-10 -2.55621e-05
0.0010528 9.01985e-06 1.95243e-07
9.01985e-06 3.5339e-05 7.73402e-07
1.95243e-07 7.73402e-07 -1.62586e-05
0.00234407 -9.81921e-06 -6.08063e-06
-9.81921e-06 0.000653351 -4.01156e-06
-6.08063e-06 -4.01156e-06 0.000676043
0.000949355 -7.11348e-06 -8.24634e-08
-7.11348e-06 -3.18497e-05 -1.20807e-08
-8.24634e-08 -1.20807e-08 -3.25588e-05
0.00101138 -5.39192e-06 4.97627e-07
-5.39192e-06 6.63558e-06 1.25988e-06
4.97627e-07 1.25988e-06 -2.27701e-05
0.00231474 -7.31434e-06 -4.43067e-07
-7.31434e-06 0.000635329 2.00356e-08
-4.43067e-07 2.00356e-08 0.000658999
0.00094125 -5.38257e-06 9.2066e-07
-5.38257e-06 -3.89285e-05 3.19946e-06
9.2066e-07 3.19946e-06 -3.81165e-05
0.0023012 -4.74948e-06 2.88397e-06
-4.74948e-06 0.000626249 4.0101e-06
2.88397e-06 4.0101e-06 0.000650547
0.00081279 7.21607e-06 -2.76834e-07
7.21607e-06 0.000128893 -2.9392e-06
-2.76834e-07 -2.9392e-06 3.97753e-05
0.000858944 -4.57508e-06 -2.38788e-08
-4.57508e-06 0.000111578 -2.0937e-06
-2.38788e-08 -2.0937e-06 3.81695e-05
0.00101081 -1.57752e-05 -6.85667e-07
-1.57752e-05 0.000251689 1.5111e-06
-6.85667e-07 1.5111e-06 0.000173622
0.00105699 2.11751e-05 7.70506e-08
2.11751e-05 3.52363e-05 4.09054e-08
7.70506e-08 4.09054e-08 -3.0205e-05
0.0011282 2.59983e-05 2.50402e-07
2.59983e-05 6.84729e-05 1.31816e-07
2.50402e-07 1.31816e-07 -7.67513e-07
0.00107268 2.21571e-05 -5.44659e-07
2.21571e-05 4.16947e-05 -2.57635e-07
-5.44659e-07 -2.57635e-07 -2.6534e-05
0.00106428 2.55895e-05 -7.55855e-07
2.55895e-05 3.77817e-05 -2.91489e-07
-7.55855e-07 -2.91489e-07 -3.31947e-05
0.00118118 2.73229e-05 -1.42844e-08
2.73229e-05 9.37613e-05 1.55382e-07
-1.42844e-08 1.55382e-07 2.21643e-05
0.000991032 2.14362e-05 7.28932e-07
2.14362e-05 5.19555e-06 6.71759e-07
7.28932e-07 6.71759e-07 -6.18052e-05
0.00107089 2.22357e-05 3.98153e-07
2.22357e-05 5.06407e-05 6.73626e-07
3.98153e-07 6.73626e-07 -2.48869e-05
0.00115105 2.66887e-05 7.20119e-09
2.66887e-05 8.45061e-05 7.03841e-09
7.20119e-09 7.03841e-09 1.0597e-05
0.00111439 2.57571e-05 3.1105e-07
2.57571e-05 7.14056e-05 3.05614e-07
3.1105e-07 3.05614e-07 -7.59815e-06
0.00120193 2.78232e-05 -3.4793e-07
2.78232e-05 0.000111385 2.43212e-07
-3.4793e-07 2.43212e-07 3.3615e-05
0.000525218 -8.45337e-06 -8.50987e-06
-8.45337e-06 2.04097e-05 -1.34532e-05
-8.50987e-06 -1.34532e-05 -2.34935e-05
0.000733452 1.33011e-05 -2.09918e-06
1.33011e-05 5.45399e-05 -9.08993e-07
-2.09918e-06 -9.08993e-07 7.01289e-06
0.000654678 -2.28971e-06 -6.42484e-07
-2.28971e-06 -2.09124e-05 -2.17878e-06
-6.42484e-07 -2.17878e-06 -7.1384e-05
0.000187636 4.82313e-06 1.19308e-05
4.82313e-06 -0.000325688 3.70647e-06
1.19308e-05 3.70647e-06 -0.000332459
0.000792733 1.33675e-05 -1.6086e-06
1.33675e-05 -0.000872821 -5.06942e-05
-1.6086e-06 -5.06942e-05 -0.000630953
0.000952103 -0.000107201 -4.19912e-05
-0.000107201 -8.92931e-05 0.000103573
-4.19912e-05 0.000103573 -0.000450423
0.00632755 8.82386e-05 1.32026e-06
8.82386e-05 0.00124353 -3.28225e-05
1.32026e-06 -3.28225e-05 0.000898833
0.00064463 -9.09741e-05 -1.15703e-05
-9.09741e-05 -9.92067e-05 2.07563e-05
-1.15703e-05 2.07563e-05 -0.00044397
0.00662368 -3.36125e-06 -1.09991e-05
-3.36125e-06 0.000778471 3.88124e-06
-1.09991e-05 3.88124e-06 0.000973398
0.00214565 -0.000119547 2.63287e-06
-0.000119547 0.000132494 -1.44741e-05
2.63287e-06 -1.44741e-05 0.000108984
-0.000614242 -2.26669e-05 -2.59061e-07
-2.26669e-05 -0.000810623 6.30902e-06
-2.59061e-07 6.30902e-06 -0.000719896
0.000691434 -3.71158e-05 5.52727e-06
-3.71158e-05 0.000139122 -4.86213e-05
5.52727e-06 -4.86213e-05 -0.000300108
0.0065278 -0.000122266 -5.48608e-06
-0.000122266 0.00150198 3.69026e-05
-5.48608e-06 3.69026e-05 0.00104269
0.00314889 -0.000164948 8.66021e-06
-0.000164948 0.00085627 2.30771e-05
8.66021e-06 2.30771e-05 0.000820591
0.00134757 -5.4543e-05 -1.33132e-06
-5.4543e-05 0.000328078 -5.64987e-07
-1.33132e-06 -5.64987e-07 0.000481353
0.00108844 3.10537e-05 -1.06841e-06
3.10537e-05 6.94852e-05 5.64614e-07
-1.06841e-06 5.64614e-07 -1.07541e-05
0.00116492 2.74948e-05 -4.46646e-07
2.74948e-05 9.95834e-05 3.04269e-09
-4.46646e-07 3.04269e-09 1.45932e-05
0.00121236 1.42334e-05 3.25414e-07
1.42334e-05 0.000121681 3.95039e-08
3.25414e-07 3.95039e-08 3.80019e-05
-0.000376031 2.13065e-07 -1.31178e-06
2.13065e-07 -0.000387212 -1.34678e-05
-1.31178e-06 -1.34678e-05 -0.000488755
0.0011208 -7.75075e-06 -4.0006e-08
-7.75075e-06 9.08327e-05 3.26364e-06
-4.0006e-08 3.26364e-06 -1.8333e-05
0.00119682 1.99042e-05 7.67816e-07
1.99042e-05 0.000120118 7.79864e-07
7.67816e-07 7.79864e-07 2.35238e-05
0.00112468 1.75296e-06 3.45229e-07
1.75296e-06 8.02336e-05 5.49343e-07
3.45229e-07 5.49343e-07 -2.21741e-05
0.001176 1.26081e-05 7.3182e-07
1.26081e-05 0.000119725 3.64963e-08
7.3182e-07 3.64963e-08 1.25098e-05
0.00107996 -3.7967e-06 -2.44933e-07
-3.7967e-06 8.16506e-05 -8.55805e-07
-2.44933e-07 -8.55805e-07 -5.79903e-05
0.000348065 3.84799e-06 -5.95385e-06
3.84799e-06 0.000109551 8.1748e-06
-5.95385e-06 8.1748e-06 2.24405e-05
0.000963378 2.63769e-05 -3.3352e-06
2.63769e-05 3.44047e-05 -5.43592e-07
-3.3352e-06 -5.43592e-07 -9.05758e-05
0.00064061 1.65627e-05 -4.2409e-06
1.65627e-05 0.000181694 2.08966e-05
-4.2409e-06 2.08966e-05 7.69753e-05
0.00195878 -2.11456e-06 -1.15966e-05
-2.11456e-06 0.000946245 6.36155e-08
-1.15966e-05 6.36155e-08 0.000867689
0.000815189 1.2834e-06 -9.09667e-07
1.2834e-06 0.00013105 -4.93338e-07
-9.09667e-07 -4.93338e-07 3.01949e-05
0.000648342 -2.83382e-06 1.28852e-07
-2.83382e-06 -2.74841e-05 -3.05755e-07
1.28852e-07 -3.05755e-07 -0.000112668
-0.000199333 1.1602e-05 7.40333e-06
1.1602e-05 -0.000349387 1.72121e-05
7.40333e-06 1.72121e-05 -0.000415874
0.0011983 2.31759e-05 4.8542e-06
2.31759e-05 0.000550972 -3.66357e-05
4.8542e-06 -3.66357e-05 -0.000183611
0.00107215 -1.20166e-05 5.75808e-08
-1.20166e-05 0.000271489 -1.17335e-06
5.75808e-08 -1.17335e-06 0.000184989
0.00749645 9.98312e-05 1.59575e-05
9.98312e-05 0.00199086 -2.53856e-05
1.59575e-05 -2.53856e-05 0.00113666
0.00299066 0.000183694 -1.72795e-05
0.000183694 0.00100215 2.27287e-05
-1.72795e-05 2.27287e-05 0.000872341
0.00108334 -1.00694e-06 7.08644e-06
-1.00694e-06 0.000317242 -9.48256e-06
7.08644e-06 -9.48256e-06 0.000289378
1.03354e-05 5.48353e-05 -2.83991e-06
5.48353e-05 -0.000423446 9.41823e-07
-2.83991e-06 9.41823e-07 -0.000275164
0.000645851 4.76555e-07 2.38971e-06
4.76555e-07 0.000162635 2.17537e-07
2.38971e-06 2.17537e-07 4.27417e-05
0.000904427 -3.53106e-06 5.04823e-07
-3.53106e-06 0.000265703 -3.56966e-07
5.04823e-07 -3.56966e-07 0.000196239
-0.00134866 2.87081e-05 8.06474e-06
2.87081e-05 -0.00114641 -1.72815e-06
8.06474e-06 -1.72815e-06 -0.00110248
0.000590167 -4.82726e-05 -1.79409e-06
-4.82726e-05 5.97276e-05 3.57699e-05
-1.79409e-06 3.57699e-05 -0.000351678
0.00217409 0.000150559 -1.47476e-06
0.000150559 0.000674241 -4.58964e-06
-1.47476e-06 -4.58964e-06 0.000609518
0.00549366 7.41481e-05 1.28991e-05
7.41481e-05 0.00117714 -1.25646e-05
1.28991e-05 -1.25646e-05 0.000314704
0.000243093 -1.26833e-05 8.30782e-06
-1.26833e-05 -0.000193249 -1.02251e-05
8.30782e-06 -1.02251e-05 -0.000292492
-0.00120848 8.42391e-06 -9.05949e-06
8.42391e-06 -0.000983451 1.36484e-06
-9.05949e-06 1.36484e-06 -0.00100118
0.00233973 9.90578e-05 2.26719e-05
9.90578e-05 0.000902364 -1.23002e-05
2.26719e-05 -1.23002e-05 0.000817043
0.0028679 7.69217e-05 -4.40466e-05
7.69217e-05 0.000246759 2.00606e-05
-4.40466e-05 2.00606e-05 -0.000404403
0.000289403 -2.45188e-05 -8.40024e-06
-2.45188e-05 -0.000265331 4.34889e-05
-8.40024e-06 4.34889e-05 -0.000458158
0.001145 1.47446e-06 5.18526e-07
1.47446e-06 0.000200629 -5.62455e-07
5.18526e-07 -5.62455e-07 4.83997e-05
0.000918998 -2.635e-05 -2.15568e-07
-2.635e-05 0.0001355 1.47908e-07
-2.15568e-07 1.47908e-07 -6.64235e-05
0.00181565 -7.98174e-05 -4.08329e-07
-7.98174e-05 0.000495847 1.83825e-06
-4.08329e-07 1.83825e-06 0.000310712
0.000823813 -2.91517e-05 -2.11455e-07
-2.91517e-05 1.51013e-05 -7.57125e-08
-2.11455e-07 -7.57125e-08 -0.000116242
0.00108738 -4.94806e-05 5.87183e-07
-4.94806e-05 0.000119839 -2.64085e-07
5.87183e-07 -2.64085e-07 -2.50405e-05
0.00133673 -6.37549e-05 -2.49725e-06
-6.37549e-05 0.000143611 -2.12729e-06
-2.49725e-06 -2.12729e-06 2.78804e-05
0.00130546 -4.49105e-05 -1.39104e-07
-4.49105e-05 0.000185873 -6.96681e-07
-1.39104e-07 -6.96681e-07 6.84218e-05
0.00122071 -4.8431e-05 -6.20574e-07
-4.8431e-05 0.000104828 -9.90924e-07
-6.20574e-07 -9.90924e-07 -1.77339e-06
0.00151229 -4.84006e-05 -1.39621e-06
-4.84006e-05 0.000203787 -1.35613e-06
-1.39621e-06 -1.35613e-06 0.000121233
0.0013106 -4.23489e-05 5.23833e-07
-4.23489e-05 0.000141767 -1.24701e-06
5.23833e-07 -1.24701e-06 4.70907e-05
0.0012294 -3.99717e-05 4.30932e-07
-3.99717e-05 9.31347e-05 -5.01676e-07
4.30932e-07 -5.01676e-07 6.38922e-06
0.00130914 -3.61543e-05 -9.46513e-07
-3.61543e-05 9.92389e-05 -1.54849e-06
-9.46513e-07 -1.54849e-06 2.90632e-05
0.00127382 -3.17959e-05 -6.4616e-07
-3.17959e-05 7.02904e-05 -8.53158e-07
-6.4616e-07 -8.53158e-07 5.55535e-06
0.00119126 -3.36177e-05 -8.68021e-07
-3.36177e-05 6.58255e-05 4.44949e-07
-8.68021e-07 4.44949e-07 -7.90283e-06
0.00121045 -3.4738e-05 8.85468e-08
-3.4738e-05 6.766e-05 -5.08846e-07
8.85468e-08 -5.08846e-07 -8.1612e-06
0.00120501 -3.16644e-05 -6.19505e-07
-3.16644e-05 9.47472e-05 1.20315e-06
-6.19505e-07 1.20315e-06 2.65874e-05
0.00120245 -3.41754e-05 -2.59707e-07
-3.41754e-05 8.84816e-05 2.14847e-07
-2.59707e-07 2.14847e-07 1.30585e-05
0.00119147 -3.67485e-05 5.42936e-07
-3.67485e-05 8.26865e-05 -9.30213e-07
5.42936e-07 -9.30213e-07 -2.20609e-07
0.00108496 -2.50292e-05 -4.81859e-07
-2.50292e-05 4.94054e-05 1.51943e-07
-4.81859e-07 1.51943e-07 -1.03779e-05
0.00101546 -2.84978e-05 -7.11663e-08
-2.84978e-05 1.47475e-05 -3.36141e-07
-7.11663e-08 -3.36141e-07 -4.98367e-05
0.00117634 -3.21145e-05 1.09103e-06
-3.21145e-05 8.97301e-05 -1.47911e-06
1.09103e-06 -1.47911e-06 1.95035e-05
0.00103031 2.53673e-07 -8.60497e-07
2.53673e-07 3.32195e-05 9.41972e-07
-8.60497e-07 9.41972e-07 -1.97149e-05
0.00106157 -1.892e-05 1.32964e-07
-1.892e-05 4.4984e-05 1.42928e-07
1.32964e-07 1.42928e-07 -1.57046e-05
0.00107774 -2.73488e-05 5.08424e-07
-2.73488e-05 5.1113e-05 -2.75317e-07
5.08424e-07 -2.75317e-07 -1.33703e-05
0.000959746 1.35629e-05 -2.00876e-06
1.35629e-05 -3.92237e-06 1.66525e-06
-2.00876e-06 1.66525e-06 -3.78709e-05
0.00104439 5.91334e-07 -6.33878e-08
5.91334e-07 3.69751e-05 -2.92857e-08
-6.33878e-08 -2.92857e-08 -1.46002e-05
0.00105945 -1.3033e-05 1.23929e-07
-1.3033e-05 4.85193e-05 -2.22958e-07
1.23929e-07 -2.22958e-07 -1.17469e-05
0.00154936 1.54057e-05 -5.8206e-06
1.54057e-05 0.000280715 2.90158e-06
-5.8206e-06 2.90158e-06 0.00027867
0.000987734 1.02213e-05 -2.93081e-08
1.02213e-05 4.0822e-06 1.6673e-08
-2.93081e-08 1.6673e-08 -2.92559e-05
0.00106381 -3.79995e-06 1.1028e-06
-3.79995e-06 3.94057e-05 -8.55765e-07
1.1028e-06 -8.55765e-07 -1.13723e-05
0.00119123 1.42934e-05 -8.13533e-06
1.42934e-05 9.97795e-05 3.75218e-06
-8.13533e-06 3.75218e-06 0.000113014
0.00125204 1.31012e-05 -1.7129e-06
1.31012e-05 0.000130541 5.97454e-07
-1.7129e-06 5.97454e-07 0.000127112
0.000991325 7.34446e-06 1.97959e-06
7.34446e-06 2.84432e-06 -1.74161e-06
1.97959e-06 -1.74161e-06 -3.0894e-05
0.000928712 1.09408e-05 2.64116e-06
1.09408e-05 -3.18711e-05 -3.14781e-06
2.64116e-06 -3.14781e-06 -3.65474e-05
0.00247117 1.67006e-05 2.50538e-07
1.67006e-05 0.000726704 4.1992e-08
2.50538e-07 4.1992e-08 0.000746628
0.00244769 1.44415e-05 8.28737e-06
1.44415e-05 0.00071171 -3.97332e-06
8.28737e-06 -3.97332e-06 0.000732289
0.00104726 1.63346e-05 -7.84516e-07
1.63346e-05 2.98783e-05 -3.99217e-07
-7.84516e-07 -3.99217e-07 -3.4306e-05
0.00106354 3.40451e-06 -1.08181e-06
3.40451e-06 3.64654e-05 -9.92179e-07
-1.08181e-06 -9.92179e-07 -1.74596e-05
0.0010737 1.91996e-05 -1.59469e-08
1.91996e-05 4.28194e-05 4.75696e-08
-1.59469e-08 4.75696e-08 -2.18757e-05
0.000986954 -7.30952e-06 -1.5651e-06
-7.30952e-06 -1.90765e-08 -1.89255e-06
-1.5651e-06 -1.89255e-06 -3.43478e-05
0.00105968 6.6661e-06 -1.68415e-08
6.6661e-06 3.49512e-05 1.50739e-09
-1.68415e-08 1.50739e-09 -1.86011e-05
0.000944675 -9.80742e-06 -2.19334e-06
-9.80742e-06 -2.67102e-05 -3.18356e-06
-2.19334e-06 -3.18356e-06 -3.07424e-05
0.000996809 -6.76152e-06 -1.40429e-07
-6.76152e-06 3.61314e-06 1.03282e-08
-1.40429e-07 1.03282e-08 -2.95059e-05
0.0010685 8.99393e-06 7.58302e-07
8.99393e-06 4.09003e-05 1.29502e-06
7.58302e-07 1.29502e-06 -1.19582e-05
0.00239324 -1.21879e-05 -7.24908e-06
-1.21879e-05 0.000681392 -4.02234e-06
-7.24908e-06 -4.02234e-06 0.000702997
0.000940646 -8.59779e-06 -9.96591e-08
-8.59779e-06 -3.23149e-05 -1.36519e-08
-9.96591e-08 -1.36519e-08 -3.47037e-05
0.00100755 -6.34583e-06 7.90836e-07
-6.34583e-06 7.34897e-06 1.88622e-06
7.90836e-07 1.88622e-06 -2.39667e-05
0.00234964 -9.78588e-06 -3.93474e-07
-9.78588e-06 0.000655611 2.58762e-08
-3.93474e-07 2.58762e-08 0.000678415
0.000932498 -7.11184e-06 1.20888e-06
-7.11184e-06 -4.00133e-05 3.18965e-06
1.20888e-06 3.18965e-06 -4.0621e-05
0.00232243 -7.2495e-06 4.27861e-06
-7.2495e-06 0.000638723 3.98257e-06
4.27861e-06 3.98257e-06 0.000662467
0.000515781 -6.88119e-06 -1.28415e-05
-6.88119e-06 4.55981e-05 -3.61521e-06
-1.28415e-05 -3.61521e-06 -3.99003e-05
0.00071075 6.90706e-06 -3.15558e-07
6.90706e-06 6.70934e-05 -1.22068e-06
-3.15558e-07 -1.22068e-06 -2.23284e-05
0.0007766 -5.68929e-06 -1.03654e-06
-5.68929e-06 6.04397e-05 -3.67894e-07
-1.03654e-06 -3.67894e-07 -1.62506e-05
0.00113944 2.26204e-05 -3.13074e-07
2.26204e-05 7.44143e-05 2.75945e-07
-3.13074e-07 2.75945e-07 7.56627e-06
0.00110005 2.07734e-05 6.70113e-07
2.07734e-05 5.7009e-05 5.24132e-07
6.70113e-07 5.24132e-07 -8.18678e-06
0.0010798 2.53474e-05 6.26522e-07
2.53474e-05 4.46994e-05 2.01707e-07
6.26522e-07 2.01707e-07 -2.487e-05
0.00113416 2.64131e-05 -2.01073e-07
2.64131e-05 7.25988e-05 -1.72547e-07
-2.01073e-07 -1.72547e-07 1.94597e-06
0.00113815 2.33562e-05 -2.06126e-07
2.33562e-05 7.3786e-05 -1.50722e-07
-2.06126e-07 -1.50722e-07 5.84265e-06
0.00114011 2.67139e-05 3.00231e-07
2.67139e-05 7.34078e-05 1.98972e-07
3.00231e-07 1.98972e-07 2.08115e-06
0.00111448 2.6959e-05 -4.5962e-07
2.6959e-05 6.10339e-05 -1.23361e-07
-4.5962e-07 -1.23361e-07 -1.04563e-05
0.0010829 2.6537e-05 -3.6815e-07
2.6537e-05 4.85074e-05 -6.22007e-09
-3.6815e-07 -6.22007e-09 -2.54861e-05
0.00114433 2.66417e-05 4.30299e-07
2.66417e-05 8.10063e-05 1.50156e-07
4.30299e-07 1.50156e-07 7.18019e-06
0.00107978 2.54787e-05 7.21723e-07
2.54787e-05 5.41188e-05 1.68704e-07
7.21723e-07 1.68704e-07 -2.44256e-05
0.00116378 2.73404e-05 -1.52596e-07
2.73404e-05 9.24709e-05 -2.82666e-08
-1.52596e-07 -2.82666e-08 1.47407e-05
0.00139256 3.04244e-05 3.94974e-07
3.04244e-05 0.000198395 2.96323e-07
3.94974e-07 2.96323e-07 0.000121127
0.00199287 -3.65324e-05 -6.832e-06
-3.65324e-05 0.000870103 -3.22036e-06
-6.832e-06 -3.22036e-06 0.000922073
0.000600812 -8.38241e-06 -2.23177e-06
-8.38241e-06 6.85469e-05 -3.36026e-06
-2.23177e-06 -3.36026e-06 2.57679e-05
0.000594232 1.23822e-05 2.12774e-06
1.23822e-05 -3.43498e-05 2.72472e-06
2.12774e-06 2.72472e-06 -8.35549e-05
0.00181871 -3.23649e-05 1.29169e-05
-3.23649e-05 0.000664807 1.22694e-05
1.29169e-05 1.22694e-05 0.000743348
0.00117675 -0.000111 4.20722e-06
-0.000111 -0.000738911 -7.47795e-05
4.20722e-06 -7.47795e-05 -0.000675154
0.00359714 2.3551e-05 -2.83607e-06
2.3551e-05 -0.000154149 0.000105107
-2.83607e-06 0.000105107 -0.000685593
-0.000107665 -6.0514e-05 -3.36771e-05
-6.0514e-05 -4.47723e-05 3.57181e-05
-3.36771e-05 3.57181e-05 -0.000145527
0.000779831 -8.41223e-06 -8.99767e-06
-8.41223e-06 0.000437419 -6.85515e-06
-8.99767e-06 -6.85515e-06 0.000229741
0.000682642 -5.49744e-05 2.75164e-06
-5.49744e-05 -2.52748e-05 3.56831e-07
2.75164e-06 3.56831e-07 0.000106221
0.00585084 -5.3967e-05 1.2071e-05
-5.3967e-05 0.000713959 4.39159e-05
1.2071e-05 4.39159e-05 0.000280143
-0.00107355 -0.000121324 -5.23355e-06
-0.000121324 -0.000914156 -1.26316e-05
-5.23355e-06 -1.26316e-05 -0.000923577
0.000783748 5.07752e-05 -2.96165e-05
5.07752e-05 0.000281929 -3.63352e-05
-2.96165e-05 -3.63352e-05 0.000138618
0.00515854 -0.000145726 1.25925e-05
-0.000145726 0.0011651 3.28128e-05
1.25925e-05 3.28128e-05 0.000558887
1.0455e-06 -0.000101233 3.88915e-05
-0.000101233 -0.000145292 2.28916e-05
3.88915e-05 2.28916e-05 -9.26788e-05
0.00115334 4.03893e-05 -2.62575e-06
4.03893e-05 0.00010681 4.37635e-07
-2.62575e-06 4.37635e-07 3.18679e-05
0.00116977 3.08868e-05 1.84049e-06
3.08868e-05 0.000102871 2.19783e-07
1.84049e-06 2.19783e-07 2.33307e-05
0.00120746 2.78682e-05 3.63982e-07
2.78682e-05 0.000120646 -2.98458e-07
3.63982e-07 -2.98458e-07 3.66426e-05
-0.000105084 -1.859e-06 2.59587e-06
-1.859e-06 -0.000104315 -2.80459e-06
2.59587e-06 -2.80459e-06 -0.000194952
0.000904956 -7.29694e-08 7.05017e-07
-7.29694e-08 5.28873e-06 1.4574e-06
7.05017e-07 1.4574e-06 -0.000137293
0.00118628 1.19277e-05 3.27867e-06
1.19277e-05 0.00012876 9.80527e-07
3.27867e-06 9.80527e-07 2.14135e-05
0.0012443 2.85474e-05 1.89485e-07
2.85474e-05 0.000169123 7.82898e-08
1.89485e-07 7.82898e-08 4.55197e-05
0.000589633 1.61976e-05 4.26026e-06
1.61976e-05 0.000159645 8.52898e-06
4.26026e-06 8.52898e-06 4.42986e-05
-0.000677927 5.13669e-05 -6.20388e-06
5.13669e-05 -0.000592366 1.06668e-05
-6.20388e-06 1.06668e-05 -0.000676347
0.00246261 -2.71127e-06 -1.15388e-05
-2.71127e-06 0.00120366 -3.84621e-07
-1.15388e-05 -3.84621e-07 0.00120868
0.000705562 -6.20814e-07 -9.55816e-07
-6.20814e-07 0.000170602 -6.47067e-07
-9.55816e-07 -6.47067e-07 8.22683e-05
0.000326338 1.35394e-06 1.9563e-07
1.35394e-06 -0.000176472 -7.41606e-07
1.9563e-07 -7.41606e-07 -0.000277229
0.00115035 -3.04231e-06 -1.17179e-05
-3.04231e-06 0.000408961 1.91558e-05
-1.17179e-05 1.91558e-05 0.00027512
0.00162419 -3.84595e-05 1.11632e-06
-3.84595e-05 0.000566617 -3.29781e-05
1.11632e-06 -3.29781e-05 0.000332088
0.000817093 -3.75769e-06 1.09044e-05
-3.75769e-06 0.000208433 -2.63314e-06
1.09044e-05 -2.63314e-06 0.000140259
0.00125904 8.31466e-05 -2.62142e-05
8.31466e-05 -0.0002497 3.79051e-05
-2.62142e-05 3.79051e-05 -0.000945527
-0.000784455 0.000107337 -4.63353e-05
0.000107337 -0.000503226 2.72789e-05
-4.63353e-05 2.72789e-05 -0.000500528
0.000715846 3.38646e-05 1.21703e-05
3.38646e-05 3.47945e-05 -1.07286e-05
1.21703e-05 -1.07286e-05 0.000103363
0.00131007 -1.24846e-05 2.98594e-06
-1.24846e-05 0.000320811 1.00419e-06
2.98594e-06 1.00419e-06 0.000201311
0.000816439 1.08208e-05 -2.43792e-07
1.08208e-05 0.000180849 -7.6758e-07
-2.43792e-07 -7.6758e-07 0.000178153
-0.00155086 5.13747e-05 -1.15892e-05
5.13747e-05 -0.000719115 4.26849e-06
-1.15892e-05 4.26849e-06 -0.000739894
0.00220439 -6.85831e-05 -1.44576e-05
-6.85831e-05 0.000490103 3.58014e-05
-1.44576e-05 3.58014e-05 -2.71007e-06
0.00454575 0.00011408 -5.75393e-06
0.00011408 0.00110209 7.62153e-06
-5.75393e-06 7.62153e-06 0.000525466
0.00189124 -3.72457e-05 1.55879e-05
-3.72457e-05 4.25308e-05 -8.88048e-06
1.55879e-05 -8.88048e-06 9.54756e-05
-0.00378469 2.33326e-05 3.2855e-05
2.33326e-05 -0.00197081 -1.23115e-05
3.2855e-05 -1.23115e-05 -0.00196761
0.00485149 7.1427e-05 1.82365e-05
7.1427e-05 0.00145001 -1.53598e-05
1.82365e-05 -1.53598e-05 0.000997966
0.000929035 -2.84946e-05 -2.66333e-05
-2.84946e-05 3.90768e-06 3.14637e-05
-2.66333e-05 3.14637e-05 -0.000443475
0.00110128 -2.38384e-05 -7.49116e-07
-2.38384e-05 0.000221889 -2.32058e-06
-7.49116e-07 -2.32058e-06 2.21005e-05
0.00116049 -6.78465e-05 2.26104e-07
-6.78465e-05 0.000201626 1.04315e-06
2.26104e-07 1.04315e-06 2.54707e-06
0.00116272 -9.22248e-05 -4.71852e-06
-9.22248e-05 4.34336e-05 1.38464e-06
-4.71852e-06 1.38464e-06 -6.80122e-05
0.000993295 -4.61728e-05 -5.56899e-07
-4.61728e-05 8.02265e-05 -3.50123e-07
-5.56899e-07 -3.50123e-07 -6.45366e-05
0.00120584 -6.19992e-05 -1.43672e-06
-6.19992e-05 7.26137e-05 -1.55978e-06
-1.43672e-06 -1.55978e-06 -3.93025e-05
0.00182076 -6.0978e-05 -2.72354e-06
-6.0978e-05 0.00026833 -2.63267e-06
-2.72354e-06 -2.63267e-06 0.00021
0.00105097 -4.62474e-05 8.29339e-07
-4.62474e-05 2.1089e-05 -1.69731e-06
8.29339e-07 -1.69731e-06 -8.43673e-05
0.00122691 -4.46114e-05 7.87758e-07
-4.46114e-05 6.29124e-05 -5.97003e-07
7.87758e-07 -5.97003e-07 -1.7525e-05
0.00140962 -3.68399e-05 -8.11034e-07
-3.68399e-05 0.000105958 -2.43204e-06
-8.11034e-07 -2.43204e-06 5.5773e-05
0.00111226 -3.82014e-05 1.28789e-06
-3.82014e-05 3.5275e-05 -5.38267e-07
1.28789e-06 -5.38267e-07 -5.02973e-05
0.00121017 -3.47437e-05 -5.55988e-08
-3.47437e-05 4.80523e-05 -4.79268e-07
-5.55988e-08 -4.79268e-07 -2.10082e-05
0.00127846 -2.92517e-05 -1.74531e-07
-2.92517e-05 4.67256e-05 -1.6492e-06
-1.74531e-07 -1.6492e-06 -3.85843e-06
0.00126013 -2.66977e-05 -3.04642e-07
-2.66977e-05 5.35862e-05 -7.26533e-07
-3.04642e-07 -7.26533e-07 1.70609e-07
0.00129547 -3.20675e-05 -9.05406e-07
-3.20675e-05 9.19157e-05 -3.56084e-07
-9.05406e-07 -3.56084e-07 2.58476e-05
0.00123182 -3.06048e-05 3.01089e-07
-3.06048e-05 5.05151e-05 3.50817e-07
3.01089e-07 3.50817e-07 -1.33381e-05
0.00102731 -2.97181e-05 -9.45546e-07
-2.97181e-05 -5.09051e-06 7.41043e-07
-9.45546e-07 7.41043e-07 -7.38449e-05
0.00122839 -3.37607e-05 4.60409e-07
-3.37607e-05 8.46484e-05 -3.30409e-07
4.60409e-07 -3.30409e-07 1.1672e-05
0.00114102 -3.36052e-05 9.43295e-07
-3.36052e-05 3.20349e-05 -3.44897e-07
9.43295e-07 -3.44897e-07 -4.29769e-05
0.00110191 -2.75709e-05 -4.44609e-07
-2.75709e-05 5.3188e-05 7.37703e-07
-4.44609e-07 7.37703e-07 -8.00733e-06
0.001083 -3.03061e-05 9.90267e-08
-3.03061e-05 3.83735e-05 -8.62602e-08
9.90267e-08 -8.62602e-08 -2.99861e-05
0.00103639 -3.2515e-05 6.06377e-07
-3.2515e-05 1.03141e-05 -1.09974e-06
6.06377e-07 -1.09974e-06 -6.62366e-05
0.0010382 -6.14166e-06 -1.0283e-06
-6.14166e-06 3.51854e-05 6.618e-07
-1.0283e-06 6.618e-07 -1.81595e-05
0.00110604 -2.4691e-05 -9.3321e-08
-2.4691e-05 5.90699e-05 -1.22199e-07
-9.3321e-08 -1.22199e-07 -7.45274e-07
0.00108591 -2.92134e-05 1.94504e-07
-2.92134e-05 4.91936e-05 -9.4788e-07
1.94504e-07 -9.4788e-07 -1.47965e-05
0.000955304 1.51457e-05 -1.96882e-06
1.51457e-05 -7.20161e-07 1.70401e-06
-1.96882e-06 1.70401e-06 -3.64561e-05
0.00104147 -1.05128e-06 9.64556e-08
-1.05128e-06 3.77087e-05 1.03809e-07
9.64556e-08 1.03809e-07 -1.50839e-05
0.000999797 -1.70287e-05 5.88094e-07
-1.70287e-05 1.60809e-05 -1.53582e-07
5.88094e-07 -1.53582e-07 -4.46694e-05
0.000881977 1.52547e-05 -3.43663e-06
1.52547e-05 -4.27802e-05 2.81451e-06
-3.43663e-06 2.81451e-06 -4.84133e-05
0.000980019 1.39279e-05 -3.08855e-08
1.39279e-05 5.92056e-06 -1.53201e-08
-3.08855e-08 -1.53201e-08 -2.81146e-05
0.0010655 -5.65814e-07 9.0057e-07
-5.65814e-07 4.62543e-05 -9.52973e-07
9.0057e-07 -9.52973e-07 -5.26525e-06
0.00240898 2.23996e-05 -4.22546e-06
2.23996e-05 0.000704946 1.473e-06
-4.22546e-06 1.473e-06 0.000723827
0.000896054 1.37218e-05 7.22989e-08
1.37218e-05 -4.07777e-05 4.10713e-08
7.22989e-08 4.10713e-08 -4.58224e-05
0.000994293 1.16326e-05 1.9807e-06
1.16326e-05 7.38536e-06 -1.67517e-06
1.9807e-06 -1.67517e-06 -2.59814e-05
0.00248802 1.89665e-05 1.86805e-07
1.89665e-05 0.00073871 4.71914e-08
1.86805e-07 4.71914e-08 0.000757989
0.000918253 1.22978e-05 3.02386e-06
1.22978e-05 -3.36504e-05 -3.01449e-06
3.02386e-06 -3.01449e-06 -3.85698e-05
0.00244709 1.67023e-05 9.06837e-06
1.67023e-05 0.000715249 -3.86819e-06
9.06837e-06 -3.86819e-06 0.00073523
0.00118851 1.49668e-05 -3.91612e-07
1.49668e-05 0.000100801 1.51027e-07
-3.91612e-07 1.51027e-07 3.80599e-05
0.00107938 1.51151e-05 -1.21185e-07
1.51151e-05 4.61114e-05 -1.04158e-07
-1.21185e-07 -1.04158e-07 -1.78768e-05
0.00106476 6.83661e-07 -1.14587e-06
6.83661e-07 3.86479e-05 -8.95017e-07
-1.14587e-06 -8.95017e-07 -1.56842e-05
0.000990692 -8.08034e-06 -1.84092e-06
-8.08034e-06 3.23487e-06 -1.82273e-06
-1.84092e-06 -1.82273e-06 -3.19173e-05
0.00105936 4.15284e-06 -4.54534e-08
4.15284e-06 3.48473e-05 2.32778e-08
-4.54534e-08 2.32778e-08 -1.91861e-05
0.00105495 1.79645e-05 6.33919e-07
1.79645e-05 3.38598e-05 4.36975e-07
6.33919e-07 4.36975e-07 -3.10655e-05
0.00092976 -1.0875e-05 -2.63805e-06
-1.0875e-05 -3.06126e-05 -3.13417e-06
-2.63805e-06 -3.13417e-06 -3.57531e-05
0.000991702 -6.106e-06 -1.05369e-07
-6.106e-06 1.95588e-06 6.18854e-09
-1.05369e-07 6.18854e-09 -3.23238e-05
0.00106321 7.07634e-06 9.1307e-07
7.07634e-06 3.68995e-05 1.20501e-06
9.1307e-07 1.20501e-06 -1.67577e-05
0.00244183 -1.44662e-05 -8.33835e-06
-1.44662e-05 0.000709369 -3.99267e-06
-8.33835e-06 -3.99267e-06 0.000729899
0.000928542 -9.78496e-06 -1.22905e-07
-9.78496e-06 -3.44979e-05 9.60288e-10
-1.22905e-07 9.60288e-10 -3.84457e-05
0.00100375 -6.00589e-06 1.09189e-06
-6.00589e-06 6.79513e-06 1.93569e-06
1.09189e-06 1.93569e-06 -2.62984e-05
0.00239806 -1.21813e-05 -3.50406e-07
-1.21813e-05 0.000683259 3.24831e-08
-3.50406e-07 3.24831e-08 0.000704988
0.000922029 -8.59662e-06 1.53226e-06
-8.59662e-06 -4.12422e-05 3.20701e-06
1.53226e-06 3.20701e-06 -4.35364e-05
0.00235508 -9.74007e-06 5.49949e-06
-9.74007e-06 0.000657801 3.96076e-06
5.49949e-06 3.96076e-06 0.00068072
0.000150451 -1.45155e-05 -7.15701e-06
-1.45155e-05 -0.000147435 -3.74527e-06
-7.15701e-06 -3.74527e-06 -0.00014602
0.000544491 -3.81803e-06 3.77247e-08
-3.81803e-06 6.53929e-05 -1.44502e-06
3.77247e-08 -1.44502e-06 -1.99259e-05
0.000597897 6.61313e-06 1.08595e-06
6.61313e-06 -1.20993e-06 4.35901e-07
1.08595e-06 4.35901e-07 -9.09856e-05
0.00111922 2.24687e-05 1.11405e-07
2.24687e-05 6.40169e-05 1.24477e-07
1.11405e-07 1.24477e-07 -3.1274e-06
0.00117827 2.48858e-05 -2.9578e-07
2.48858e-05 9.5685e-05 3.02037e-07
-2.9578e-07 3.02037e-07 2.98498e-05
0.00112088 2.76558e-05 -1.76149e-07
2.76558e-05 6.22877e-05 2.49959e-07
-1.76149e-07 2.49959e-07 -6.90662e-06
0.00120427 2.72407e-05 2.33721e-07
2.72407e-05 0.000107528 -1.22687e-07
2.33721e-07 -1.22687e-07 3.71975e-05
0.00120629 2.45648e-05 2.84315e-07
2.45648e-05 0.000107169 -3.25461e-08
2.84315e-07 -3.25461e-08 3.95071e-05
0.00110179 2.61423e-05 5.67568e-07
2.61423e-05 5.43342e-05 3.41015e-07
5.67568e-07 3.41015e-07 -1.67218e-05
0.00111919 2.69005e-05 -9.75203e-08
2.69005e-05 6.5692e-05 9.32557e-09
-9.75203e-08 9.32557e-09 -8.03404e-06
0.00113448 2.71997e-05 3.41263e-08
2.71997e-05 7.04754e-05 2.35382e-08
3.41263e-08 2.35382e-08 -7.36206e-07
0.00112746 2.82188e-05 -6.00839e-07
2.82188e-05 7.5452e-05 6.89371e-08
-6.00839e-07 6.89371e-08 4.12955e-07
0.00122753 2.99004e-05 -3.29792e-07
2.99004e-05 0.000118092 1.33439e-06
-3.29792e-07 1.33439e-06 4.47798e-05
0.00111948 2.67777e-05 1.28032e-07
2.67777e-05 7.06946e-05 -2.71578e-07
1.28032e-07 -2.71578e-07 -6.99752e-06
0.00122299 2.85165e-05 3.83498e-08
2.85165e-05 0.000118904 -1.725e-07
3.83498e-08 -1.725e-07 4.16389e-05
-0.00285588 -6.08259e-05 4.26791e-05
-6.08259e-05 -0.00146455 1.52929e-05
4.26791e-05 1.52929e-05 -0.00148912
0.00102998 -3.55363e-05 2.9578e-07
-3.55363e-05 0.00031847 -1.86011e-07
2.9578e-07 -1.86011e-07 0.000366991
0.000667798 -7.9004e-06 1.31607e-05
-7.9004e-06 0.000112438 6.25519e-06
1.31607e-05 6.25519e-06 7.10475e-05
9.23679e-05 -5.43745e-05 1.32957e-06
-5.43745e-05 -0.000331548 -8.65686e-07
1.32957e-06 -8.65686e-07 -0.000222507
0.00408913 -0.000169386 -2.35666e-05
-0.000169386 0.00134491 -5.20491e-05
-2.35666e-05 -5.20491e-05 0.00129576
0.00225386 -7.18636e-05 1.98601e-05
-7.18636e-05 -0.00044457 3.18109e-05
1.98601e-05 3.18109e-05 -0.000740682
0.000235131 3.62403e-06 1.09451e-06
3.62403e-06 -2.23081e-05 3.87038e-05
1.09451e-06 3.87038e-05 -0.000494953
0.00120385 6.54943e-05 -1.36524e-05
6.54943e-05 0.000224896 -3.27169e-05
-1.36524e-05 -3.27169e-05 -0.000150353
0.00175337 -0.000135153 7.08611e-07
-0.000135153 0.000354306 -4.68427e-06
7.08611e-07 -4.68427e-06 0.000322362
0.00413287 -6.32453e-05 2.28877e-05
-6.32453e-05 0.000650708 4.08876e-05
2.28877e-05 4.08876e-05 0.000103389
0.000275796 8.29015e-05 -4.69749e-05
8.29015e-05 -0.000415658 -8.1518e-05
-4.69749e-05 -8.1518e-05 -0.000761671
0.00347704 -3.10819e-06 1.50646e-06
-3.10819e-06 0.000445344 1.56486e-05
1.50646e-06 1.56486e-05 -0.000110234
0.00200423 5.86662e-05 2.57959e-06
5.86662e-05 0.000549123 -1.27493e-06
2.57959e-06 -1.27493e-06 0.000459366
0.000985295 3.64271e-05 -1.13492e-07
3.64271e-05 2.3177e-05 -1.26433e-07
-1.13492e-07 -1.26433e-07 -5.05273e-05
0.00126479 3.08965e-05 2.61238e-06
3.08965e-05 0.000142719 -6.08438e-07
2.61238e-06 -6.08438e-07 6.38789e-05
0.000303643 1.4935e-05 -2.54323e-07
1.4935e-05 2.99669e-05 -3.71371e-06
-2.54323e-07 -3.71371e-06 -9.51475e-05
0.00152395 3.066e-05 3.1111e-06
3.066e-05 0.00030206 4.20909e-07
3.1111e-06 4.20909e-07 0.000179532
0.000971141 6.6368e-05 2.56737e-06
6.6368e-05 0.000148959 2.6761e-06
2.56737e-06 2.6761e-06 6.97435e-05
-0.000747389 5.93702e-05 4.2707e-06
5.93702e-05 -0.000697686 4.17576e-06
4.2707e-06 4.17576e-06 -0.000758875
-0.00136376 3.63762e-06 5.6541e-05
3.63762e-06 -0.000690713 -2.23606e-06
5.6541e-05 -2.23606e-06 -0.000630129
0.000587414 -2.04068e-06 -6.20453e-06
-2.04068e-06 9.24257e-05 4.00174e-07
-6.20453e-06 4.00174e-07 8.05417e-05
-0.000606354 8.76867e-07 1.21901e-05
8.76867e-07 -0.000642029 -1.95765e-06
1.21901e-05 -1.95765e-06 -0.000740146
0.00176489 -1.95139e-06 -1.1696e-05
-1.95139e-06 0.000538678 1.00153e-05
-1.1696e-05 1.00153e-05 0.000420657
0.000261566 -4.47265e-05 -1.71751e-05
-4.47265e-05 0.000133836 3.07581e-06
-1.71751e-05 3.07581e-06 -0.000237691
0.000690287 9.2818e-06 8.95426e-06
9.2818e-06 9.68956e-05 -2.33478e-06
8.95426e-06 -2.33478e-06 9.41789e-05
0.00369075 6.10754e-05 3.92569e-05
6.10754e-05 0.000612959 -2.93552e-05
3.92569e-05 -2.93552e-05 -2.64401e-05
0.00284128 5.17186e-05 -6.96859e-05
5.17186e-05 0.00130904 2.47399e-05
-6.96859e-05 2.47399e-05 0.0012114
0.0015618 -4.12113e-05 -9.23149e-08
-4.12113e-05 7.63099e-05 2.421e-07
-9.23149e-08 2.421e-07 3.81986e-05
-0.000380741 2.19324e-05 -2.12813e-05
2.19324e-05 -0.000243416 4.81212e-06
-2.12813e-05 4.81212e-06 -0.000291282
0.00234044 -4.42733e-06 -8.51421e-06
-4.42733e-06 0.00020963 6.08295e-06
-8.51421e-06 6.08295e-06 -0.000400818
8.1861e-05 6.29339e-06 4.12546e-06
6.29339e-06 2.17847e-05 2.1276e-06
4.12546e-06 2.1276e-06 -0.000293741
0.00158945 -4.14019e-05 1.15743e-05
-4.14019e-05 -0.000239024 -5.77906e-06
1.15743e-05 -5.77906e-06 -0.00014641
0.00517435 1.10795e-05 8.28805e-06
1.10795e-05 0.00137804 -5.38166e-06
8.28805e-06 -5.38166e-06 0.000920604
0.00104461 2.72097e-05 -4.97451e-06
2.72097e-05 0.000435746 -8.51967e-07
-4.97451e-06 -8.51967e-07 0.000185803
0.000370422 -5.43851e-05 1.69195e-06
-5.43851e-05 -0.000149406 -4.62812e-06
1.69195e-06 -4.62812e-06 -0.000367603
0.00109737 -8.95275e-05 -7.12045e-08
-8.95275e-05 2.46188e-05 -3.98113e-07
-7.12045e-08 -3.98113e-07 -8.73747e-05
0.00125983 -8.00241e-05 -1.22808e-05
-8.00241e-05 -7.52292e-05 4.46196e-06
-1.22808e-05 4.46196e-06 -0.000107667
0.00108032 -6.01472e-05 -2.46209e-07
-6.01472e-05 5.13559e-06 -1.06089e-06
-2.46209e-07 -1.06089e-06 -0.000103061
0.00132405 -5.62289e-05 -9.42097e-08
-5.62289e-05 2.68519e-05 5.11397e-07
-9.42097e-08 5.11397e-07 -2.90869e-05
0.00166303 -3.90576e-05 -9.59919e-07
-3.90576e-05 0.00014514 -1.33127e-07
-9.59919e-07 -1.33127e-07 0.000131178
0.000989818 -4.13623e-05 2.62134e-06
-4.13623e-05 -5.40624e-05 7.0197e-07
2.62134e-06 7.0197e-07 -0.000132523
0.00125672 -3.54093e-05 -3.88699e-08
-3.54093e-05 2.67802e-05 -4.21104e-08
-3.88699e-08 -4.21104e-08 -2.20368e-05
0.00132705 -2.71704e-05 8.44453e-07
-2.71704e-05 2.66679e-05 -7.71463e-07
8.44453e-07 -7.71463e-07 -2.17448e-06
0.00110145 -3.33276e-05 1.02134e-06
-3.33276e-05 -7.65997e-06 6.37167e-07
1.02134e-06 6.37167e-07 -7.55918e-05
0.00124026 -2.8857e-05 2.17985e-07
-2.8857e-05 2.78736e-05 3.41076e-07
2.17985e-07 3.41076e-07 -2.26285e-05
0.00121036 -2.34102e-05 5.54843e-07
-2.34102e-05 6.74674e-06 -2.02985e-07
5.54843e-07 -2.02985e-07 -3.53488e-05
0.00131847 -2.31774e-05 -6.75163e-08
-2.31774e-05 7.81942e-05 -1.05319e-07
-6.75163e-08 -1.05319e-07 2.92365e-05
0.00126329 -2.6254e-05 -2.55696e-07
-2.6254e-05 5.44241e-05 8.55675e-07
-2.55696e-07 8.55675e-07 2.01208e-06
0.00126617 -2.73514e-05 -2.50583e-07
-2.73514e-05 6.78438e-05 -1.17905e-06
-2.50583e-07 -1.17905e-06 1.11241e-05
0.00125628 -2.99538e-05 -8.863e-07
-2.99538e-05 8.26284e-05 -4.87354e-08
-8.863e-07 -4.87354e-08 1.83335e-05
0.00129219 -3.1819e-05 3.78156e-07
-3.1819e-05 9.21887e-05 -5.30406e-08
3.78156e-07 -5.30406e-08 2.60791e-05
0.00119304 -2.94849e-05 1.22006e-06
-2.94849e-05 3.23649e-05 1.428e-06
1.22006e-06 1.428e-06 -3.06233e-05
0.000985854 -2.69793e-05 -1.12185e-06
-2.69793e-05 -1.65169e-05 1.10401e-06
-1.12185e-06 1.10401e-06 -7.96773e-05
0.00116035 -3.10253e-05 7.60889e-08
-3.10253e-05 5.99487e-05 -3.91316e-08
7.60889e-08 -3.91316e-08 -8.28948e-06
0.00125361 -3.37639e-05 1.35177e-06
-3.37639e-05 9.76892e-05 -9.25117e-07
1.35177e-06 -9.25117e-07 2.54919e-05
0.00104333 -1.26669e-05 -8.79362e-07
-1.26669e-05 3.52891e-05 7.03111e-07
-8.79362e-07 7.03111e-07 -1.90877e-05
0.00111853 -2.73257e-05 4.1514e-08
-2.73257e-05 6.07095e-05 -5.03902e-08
4.1514e-08 -5.03902e-08 -5.23093e-07
0.000975578 -2.91228e-05 5.12277e-07
-2.91228e-05 -1.1283e-05 -1.31663e-06
5.12277e-07 -1.31663e-06 -7.98321e-05
0.000956379 1.25293e-05 -2.14082e-06
1.25293e-05 3.21924e-06 1.58625e-06
-2.14082e-06 1.58625e-06 -3.45824e-05
0.00105003 -6.65906e-06 -3.3239e-08
-6.65906e-06 3.99669e-05 3.21656e-08
-3.3239e-08 3.21656e-08 -1.3274e-05
0.00112462 -2.42708e-05 4.98495e-07
-2.42708e-05 6.75545e-05 -5.39e-07
4.98495e-07 -5.39e-07 7.71031e-06
0.000868493 1.67321e-05 -3.63348e-06
1.67321e-05 -4.3163e-05 2.72591e-06
-3.63348e-06 2.72591e-06 -5.015e-05
0.000973104 1.42974e-05 8.76669e-08
1.42974e-05 7.67347e-06 1.89534e-08
8.76669e-08 1.89534e-08 -2.8049e-05
0.00105215 -2.08261e-06 1.06401e-06
-2.08261e-06 4.1992e-05 -7.25292e-07
1.06401e-06 -7.25292e-07 -1.06702e-05
0.00248057 2.35504e-05 -1.03921e-05
2.35504e-05 0.000744741 3.46947e-06
-1.03921e-05 3.46947e-06 0.000762628
0.000899882 1.53506e-05 1.71141e-08
1.53506e-05 -3.40137e-05 2.35485e-08
1.71141e-08 2.35485e-08 -3.97414e-05
0.000998697 1.40206e-05 1.9039e-06
1.40206e-05 1.4984e-05 -1.70647e-06
1.9039e-06 -1.70647e-06 -1.91267e-05
0.00177303 1.94478e-05 3.71543e-06
1.94478e-05 0.000391673 -1.06208e-06
3.71543e-06 -1.06208e-06 0.000407521
0.000914575 1.38072e-05 3.34338e-06
1.38072e-05 -3.17532e-05 -2.87067e-06
3.34338e-06 -2.87067e-06 -3.68776e-05
0.00243174 1.89498e-05 9.62957e-06
1.89498e-05 0.000711816 -3.71997e-06
9.62957e-06 -3.71997e-06 0.000731268
0.00114706 1.31895e-05 -4.32976e-07
1.31895e-05 8.28844e-05 2.74209e-07
-4.32976e-07 2.74209e-07 2.0704e-05
0.00110653 1.23444e-05 1.97291e-07
1.23444e-05 6.03807e-05 3.12504e-07
1.97291e-07 3.12504e-07 -2.83333e-06
0.00105041 -1.90186e-06 -1.21924e-06
-1.90186e-06 3.48859e-05 -7.50621e-07
-1.21924e-06 -7.50621e-07 -1.99582e-05
0.00111077 1.38665e-05 4.4164e-07
1.38665e-05 6.19898e-05 1.54598e-07
4.4164e-07 1.54598e-07 -1.79986e-06
0.00105479 8.57469e-07 2.25245e-08
8.57469e-07 3.43426e-05 2.67008e-08
2.25245e-08 2.67008e-08 -2.00753e-05
0.0009936 -9.44925e-06 -2.04739e-06
-9.44925e-06 7.04786e-06 -1.72304e-06
-2.04739e-06 -1.72304e-06 -2.88627e-05
0.000919466 -1.20674e-05 -3.04181e-06
-1.20674e-05 -3.23617e-05 -3.04716e-06
-3.04181e-06 -3.04716e-06 -3.82676e-05
0.000989887 -6.80226e-06 -1.07217e-07
-6.80226e-06 2.43525e-06 1.43667e-08
-1.07217e-07 1.43667e-08 -3.26475e-05
0.00105556 4.55538e-06 1.02711e-06
4.55538e-06 3.34129e-05 1.10095e-06
1.02711e-06 1.10095e-06 -2.07212e-05
0.00246902 -1.66904e-05 -9.20332e-06
-1.66904e-05 0.000726737 -3.90873e-06
-9.20332e-06 -3.90873e-06 0.0007464
0.000916896 -1.08398e-05 -1.08491e-07
-1.08398e-05 -3.6888e-05 1.66364e-08
-1.08491e-07 1.66364e-08 -4.19565e-05
0.000998294 -5.17541e-06 1.47979e-06
-5.17541e-06 4.83343e-06 1.9149e-06
1.47979e-06 1.9149e-06 -2.94049e-05
0.00244872 -1.44697e-05 -3.11768e-07
-1.44697e-05 0.000712295 3.92553e-08
-3.11768e-07 3.92553e-08 0.000732918
0.000912973 -9.76439e-06 1.92404e-06
-9.76439e-06 -4.19961e-05 3.21965e-06
1.92404e-06 3.21965e-06 -4.58623e-05
0.00240147 -1.21657e-05 6.64575e-06
-1.21657e-05 0.00068444 3.95216e-06
6.64575e-06 3.95216e-06 0.000706301
0.000449233 1.66015e-05 6.83101e-05
1.66015e-05 -8.86578e-05 6.78537e-06
6.83101e-05 6.78537e-06 -0.000209035
0.00140784 -1.68556e-05 -2.71421e-07
-1.68556e-05 0.000588835 -1.15194e-06
-2.71421e-07 -1.15194e-06 0.000598202
0.000551235 -8.81345e-07 1.17833e-05
-8.81345e-07 7.16967e-05 4.67747e-07
1.17833e-05 4.67747e-07 -1.34214e-05
0.00109645 2.21698e-05 7.14401e-07
2.21698e-05 5.23488e-05 4.53505e-08
7.14401e-07 4.53505e-08 -1.5077e-05
0.00111069 2.7434e-05 5.32298e-07
2.7434e-05 5.7885e-05 9.73428e-08
5.32298e-07 9.73428e-08 -1.13368e-05
0.00115603 2.50671e-05 7.27186e-08
2.50671e-05 8.58051e-05 2.89671e-08
7.27186e-08 2.89671e-08 2.01778e-05
0.00115182 2.74347e-05 -7.29633e-08
2.74347e-05 8.70997e-05 2.40938e-07
-7.29633e-08 2.40938e-07 2.15376e-05
0.00113851 2.826e-05 -6.36661e-07
2.826e-05 7.60816e-05 2.61177e-07
-6.36661e-07 2.61177e-07 7.04919e-06
0.00115597 2.72689e-05 3.10222e-07
2.72689e-05 8.30733e-05 2.6961e-08
3.10222e-07 2.6961e-08 9.61867e-06
0.0011514 2.73944e-05 6.17688e-07
2.73944e-05 7.84702e-05 3.70755e-08
6.17688e-07 3.70755e-08 7.53862e-06
0.00108012 2.7735e-05 -1.90567e-07
2.7735e-05 5.27796e-05 -5.99239e-08
-1.90567e-07 -5.99239e-08 -2.21585e-05
0.000880108 2.69106e-05 -3.50781e-07
2.69106e-05 -4.12933e-05 4.69964e-07
-3.50781e-07 4.69964e-07 -0.00011224
0.00104204 3.16184e-05 -5.23851e-07
3.16184e-05 3.7377e-05 9.6808e-07
-5.23851e-07 9.6808e-07 -3.91217e-05
0.00152059 4.31088e-05 5.17629e-08
4.31088e-05 0.000273728 -6.7803e-08
5.17629e-08 -6.7803e-08 0.000199987
0.00119002 3.00116e-05 -4.02913e-07
3.00116e-05 0.00010288 9.95922e-08
-4.02913e-07 9.95922e-08 2.80235e-05
0.00105742 2.66781e-05 2.16168e-07
2.66781e-05 4.14376e-05 -3.20489e-07
2.16168e-07 -3.20489e-07 -3.5844e-05
0.00684482 -1.10945e-05 -1.39875e-05
-1.10945e-05 0.00174165 -3.22089e-06
-1.39875e-05 -3.22089e-06 0.00126725
4.16894e-05 -7.08054e-05 1.00536e-05
-7.08054e-05 -0.000247217 2.83454e-06
1.00536e-05 2.83454e-06 -0.000316109
0.00199938 -3.5609e-05 2.80907e-06
-3.5609e-05 0.000877654 4.24912e-06
2.80907e-06 4.24912e-06 0.000928698
-0.00175134 -9.86387e-05 -3.02896e-05
-9.86387e-05 -0.00116672 -3.30222e-05
-3.02896e-05 -3.30222e-05 -0.00112249
0.00618816 -0.00012839 3.52083e-05
-0.00012839 0.00132686 5.27863e-05
3.52083e-05 5.27863e-05 0.000526349
0.00106786 4.60425e-05 1.08824e-05
4.60425e-05 0.000447129 -6.20285e-06
1.08824e-05 -6.20285e-06 0.00028741
0.00128431 8.46348e-05 -1.97277e-05
8.46348e-05 0.000182902 -2.2879e-05
-1.97277e-05 -2.2879e-05 -4.64351e-05
0.0043359 -8.38171e-05 1.09658e-05
-8.38171e-05 0.000938123 1.42593e-05
1.09658e-05 1.42593e-05 0.000477148
0.00100162 5.41771e-05 -4.34462e-05
5.41771e-05 -5.34199e-05 -3.65191e-05
-4.34462e-05 -3.65191e-05 -0.000270145
0.00165752 6.46674e-05 1.1454e-05
6.46674e-05 0.000308794 -5.10764e-07
1.1454e-05 -5.10764e-07 0.000197539
0.00117277 5.0267e-05 -1.93505e-06
5.0267e-05 0.00016047 -2.23356e-06
-1.93505e-06 -2.23356e-06 6.53985e-05
0.000793394 3.20946e-05 2.18204e-06
3.20946e-05 -7.18654e-05 -5.25067e-07
2.18204e-06 -5.25067e-07 -0.000144302
0.00226044 7.8391e-05 -7.19366e-06
7.8391e-05 0.000732485 -9.00617e-06
-7.19366e-06 -9.00617e-06 0.000658245
1.48109e-05 7.19661e-05 -3.45287e-06
7.19661e-05 -0.000456828 -1.74231e-06
-3.45287e-06 -1.74231e-06 -0.000495646
0.00149048 6.21604e-05 -1.20378e-05
6.21604e-05 -0.000331627 -1.44141e-06
-1.20378e-05 -1.44141e-06 -0.000610214
0.00153482 1.2684e-05 3.25767e-07
1.2684e-05 0.000419166 3.54344e-06
3.25767e-07 3.54344e-06 0.000365554
-0.00124177 -1.63729e-06 1.6434e-06
-1.63729e-06 -0.00099046 2.79326e-07
1.6434e-06 2.79326e-07 -0.00101797
0.00133978 -4.7983e-05 -1.54974e-05
-4.7983e-05 0.000154913 5.11337e-06
-1.54974e-05 5.11337e-06 2.59711e-05
0.00202941 -2.33052e-05 2.54632e-05
-2.33052e-05 0.000640682 -2.10631e-05
2.54632e-05 -2.10631e-05 0.000118308
0.000536616 4.33833e-06 -8.6532e-05
4.33833e-06 -3.14162e-05 1.6415e-05
-8.6532e-05 1.6415e-05 -0.000148838
0.00498153 6.84416e-05 -3.81946e-07
6.84416e-05 0.00159521 4.10906e-06
-3.81946e-07 4.10906e-06 0.00103629
0.00187709 -4.17556e-05 1.39378e-06
-4.17556e-05 -9.83506e-05 -8.68574e-07
1.39378e-06 -8.68574e-07 -5.37748e-06
0.00342024 3.55424e-05 1.49313e-05
3.55424e-05 0.000753714 7.71839e-08
1.49313e-05 7.71839e-08 0.000351525
0.00163322 9.31679e-06 2.39724e-05
9.31679e-06 0.000364972 -9.01698e-06
2.39724e-05 -9.01698e-06 -2.90505e-05
0.00234921 -1.90178e-05 -8.90087e-07
-1.90178e-05 3.56279e-05 -7.44101e-06
-8.90087e-07 -7.44101e-06 0.000176795
0.00102833 3.90025e-05 -1.77646e-05
3.90025e-05 0.000371268 1.17556e-05
-1.77646e-05 1.17556e-05 0.000225641
0.00116464 -8.76382e-05 7.36263e-06
-8.76382e-05 6.72373e-05 -3.90138e-06
7.36263e-06 -3.90138e-06 -4.44177e-05
0.00142032 -7.86785e-05 -2.3479e-06
-7.86785e-05 -1.55351e-06 1.26247e-06
-2.3479e-06 1.26247e-06 -2.49633e-05
0.00169787 -3.54337e-05 -2.95748e-06
-3.54337e-05 7.22789e-05 2.05949e-06
-2.95748e-06 2.05949e-06 8.64513e-05
0.000750245 -5.07023e-05 4.75932e-06
-5.07023e-05 -0.000251665 2.01628e-06
4.75932e-06 2.01628e-06 -0.000304145
0.00129088 -3.71528e-05 6.97345e-07
-3.71528e-05 -2.98714e-05 1.09847e-06
6.97345e-07 1.09847e-06 -4.23797e-05
0.00132598 -1.95067e-05 1.87663e-06
-1.95067e-05 -1.89234e-05 1.79917e-06
1.87663e-06 1.79917e-06 -2.53494e-05
0.00108864 -3.40264e-05 1.38221e-06
-3.40264e-05 -6.08663e-05 2.00683e-06
1.38221e-06 2.00683e-06 -0.000108086
0.00128762 -2.71364e-05 3.78716e-07
-2.71364e-05 9.17413e-06 1.22714e-06
3.78716e-07 1.22714e-06 -2.05494e-05
0.00126205 -1.8179e-05 1.61666e-06
-1.8179e-05 5.86187e-06 1.16794e-06
1.61666e-06 1.16794e-06 -2.61697e-05
0.0012185 -2.8586e-05 1.05909e-06
-2.8586e-05 1.67819e-05 2.02421e-06
1.05909e-06 2.02421e-06 -3.36608e-05
0.00127326 -2.42573e-05 1.52037e-07
-2.42573e-05 3.72216e-05 7.03346e-07
1.52037e-07 7.03346e-07 -5.6351e-06
0.00124972 -1.9711e-05 3.77103e-07
-1.9711e-05 3.26267e-05 4.18903e-07
3.77103e-07 4.18903e-07 -1.27898e-05
0.00124805 -2.31956e-05 -6.58046e-07
-2.31956e-05 4.53999e-05 5.03782e-07
-6.58046e-07 5.03782e-07 -2.64594e-06
0.00132395 -2.40984e-05 4.5018e-07
-2.40984e-05 8.86734e-05 -5.50894e-07
4.5018e-07 -5.50894e-07 3.5252e-05
0.00126676 -2.58358e-05 5.64149e-07
-2.58358e-05 5.53126e-05 1.89527e-06
5.64149e-07 1.89527e-06 3.9165e-06
0.00127392 -2.72769e-05 3.34811e-08
-2.72769e-05 7.07212e-05 -2.72543e-07
3.34811e-08 -2.72543e-07 1.39336e-05
0.00126799 -2.66903e-05 -2.99432e-07
-2.66903e-05 7.50164e-05 -4.52899e-07
-2.99432e-07 -4.52899e-07 1.59275e-05
0.0010568 -2.61836e-05 -1.15493e-06
-2.61836e-05 -1.6211e-06 5.4758e-07
-1.15493e-06 5.4758e-07 -6.36277e-05
0.00125015 -2.99229e-05 3.43495e-08
-2.99229e-05 8.03608e-05 -1.35563e-07
3.43495e-08 -1.35563e-07 1.57774e-05
0.00129838 -3.16798e-05 1.11009e-06
-3.16798e-05 9.71027e-05 2.94336e-07
1.11009e-06 2.94336e-07 3.09247e-05
0.00107358 -1.82125e-05 -9.78825e-07
-1.82125e-05 4.12858e-05 8.86736e-07
-9.78825e-07 8.86736e-07 -1.4659e-05
0.00105365 -2.76762e-05 -2.29628e-07
-2.76762e-05 1.76018e-05 2.58917e-07
-2.29628e-07 2.58917e-07 -4.53181e-05
0.00127505 -3.21033e-05 8.41086e-07
-3.21033e-05 0.000116471 -8.54694e-07
8.41086e-07 -8.54694e-07 4.87446e-05
0.000953854 9.28012e-06 -2.19054e-06
9.28012e-06 5.0416e-06 1.50009e-06
-2.19054e-06 1.50009e-06 -3.54508e-05
0.00106021 -1.27274e-05 -4.5971e-08
-1.27274e-05 4.25884e-05 -4.64864e-09
-4.5971e-08 -4.64864e-09 -1.17451e-05
0.00113643 -2.70743e-05 5.44133e-07
-2.70743e-05 6.8834e-05 -8.53031e-07
5.44133e-07 -8.53031e-07 7.56387e-06
0.000850855 1.78273e-05 -3.90965e-06
1.78273e-05 -4.52691e-05 2.62349e-06
-3.90965e-06 2.62349e-06 -5.416e-05
0.000970653 1.17198e-05 5.66968e-08
1.17198e-05 9.31833e-06 8.35676e-09
5.66968e-08 8.35676e-09 -2.83692e-05
0.00105954 -7.58264e-06 1.07649e-06
-7.58264e-06 4.36232e-05 -6.89447e-07
1.07649e-06 -6.89447e-07 -9.49144e-06
0.00247598 2.58407e-05 -1.05776e-05
2.58407e-05 0.000749151 3.29767e-06
-1.05776e-05 3.29767e-06 0.000765958
0.00089146 1.68197e-05 4.52654e-08
1.68197e-05 -3.20373e-05 1.83115e-08
4.52654e-08 1.83115e-08 -3.91486e-05
0.000990547 1.38281e-05 2.08517e-06
1.38281e-05 1.592e-05 -1.58947e-06
2.08517e-06 -1.58947e-06 -1.98037e-05
0.00242745 2.3497e-05 1.46069e-07
2.3497e-05 0.000719607 5.35075e-08
1.46069e-07 5.35075e-08 0.000737582
0.000917415 1.54397e-05 3.56582e-06
1.54397e-05 -2.54553e-05 -2.77876e-06
3.56582e-06 -2.77876e-06 -3.12722e-05
0.0024003 2.11963e-05 9.97521e-06
2.11963e-05 0.000701226 -3.54627e-06
9.97521e-06 -3.54627e-06 0.000720122
0.00106955 1.7111e-05 -4.21474e-07
1.7111e-05 4.84879e-05 7.42394e-08
-4.21474e-07 7.42394e-08 -1.45943e-05
0.00113552 1.36666e-05 1.25031e-07
1.36666e-05 7.78892e-05 1.35408e-07
1.25031e-07 1.35408e-07 1.56898e-05
0.000937956 -4.16403e-06 -1.39982e-06
-4.16403e-06 -1.57402e-05 -7.46113e-07
-1.39982e-06 -7.46113e-07 -7.19156e-05
0.00102468 9.95649e-06 8.5695e-07
9.95649e-06 2.00172e-05 4.18014e-07
8.5695e-07 4.18014e-07 -4.36749e-05
0.000993065 -2.82128e-06 7.29735e-09
-2.82128e-06 7.37314e-06 6.86377e-08
7.29735e-09 6.86377e-08 -4.79836e-05
0.000991327 -1.11081e-05 -2.13952e-06
-1.11081e-05 9.97039e-06 -1.58601e-06
-2.13952e-06 -1.58601e-06 -2.69932e-05
0.00104457 9.99965e-07 1.1892e-06
9.99965e-07 2.99328e-05 9.68413e-07
1.1892e-06 9.68413e-07 -2.45734e-05
0.000986267 -8.75401e-06 -5.30152e-08
-8.75401e-06 3.16384e-06 2.29646e-08
-5.30152e-08 2.29646e-08 -3.26809e-05
0.000912884 -1.34589e-05 -3.38577e-06
-1.34589e-05 -3.20109e-05 -2.92616e-06
-3.38577e-06 -2.92616e-06 -3.86284e-05
0.00247365 -1.89178e-05 -9.81282e-06
-1.89178e-05 0.000733092 -3.78525e-06
-9.81282e-06 -3.78525e-06 0.00075204
0.000907664 -1.20044e-05 -9.24354e-08
-1.20044e-05 -3.82569e-05 2.85848e-08
-9.24354e-08 2.85848e-08 -4.40793e-05
0.000988764 -6.18849e-06 1.78766e-06
-6.18849e-06 1.48474e-06 1.87761e-06
1.78766e-06 1.87761e-06 -3.35324e-05
0.00248848 -1.66975e-05 -2.51135e-07
-1.66975e-05 0.000735909 4.48216e-08
-2.51135e-07 4.48216e-08 0.000755567
0.000904318 -1.08051e-05 2.38032e-06
-1.08051e-05 -4.3016e-05 3.17861e-06
2.38032e-06 3.17861e-06 -4.80149e-05
0.00245772 -1.44847e-05 7.77299e-06
-1.44847e-05 0.000716258 3.94934e-06
7.77299e-06 3.94934e-06 0.000736962
0.00535677 3.85959e-05 4.27483e-06
3.85959e-05 0.00152739 1.61474e-06
4.27483e-06 1.61474e-06 0.00118613
-0.000985123 -2.32498e-06 1.37529e-05
-2.32498e-06 -0.000419579 9.21818e-07
1.37529e-05 9.21818e-07 -0.00041808
0.000593582 -1.47205e-05 7.39259e-06
-1.47205e-05 0.00012606 1.67808e-06
7.39259e-06 1.67808e-06 0.000128698
0.00110623 2.72867e-05 1.01559e-06
2.72867e-05 5.62565e-05 -1.70014e-07
1.01559e-06 -1.70014e-07 -1.30057e-05
0.00113742 2.52831e-05 4.6088e-07
2.52831e-05 7.76405e-05 -1.291e-07
4.6088e-07 -1.291e-07 1.2218e-05
0.00116648 2.86256e-05 -2.90419e-09
2.86256e-05 8.96963e-05 2.05517e-09
-2.90419e-09 2.05517e-09 2.07888e-05
0.00114919 2.77373e-05 -1.9043e-08
2.77373e-05 8.58291e-05 -6.10089e-08
-1.9043e-08 -6.10089e-08 2.03269e-05
0.00115764 2.83763e-05 6.02069e-07
2.83763e-05 9.51759e-05 4.48823e-07
6.02069e-07 4.48823e-07 2.85975e-05
0.00103373 2.78598e-05 -5.68734e-07
2.78598e-05 3.18123e-05 4.74338e-07
-5.68734e-07 4.74338e-07 -3.63665e-05
0.0010233 2.71276e-05 4.23467e-07
2.71276e-05 2.55576e-05 -1.4064e-07
4.23467e-07 -1.4064e-07 -4.9266e-05
0.00100806 2.81562e-05 4.97148e-07
2.81562e-05 1.98089e-05 -1.328e-07
4.97148e-07 -1.328e-07 -5.13128e-05
0.00102681 3.15197e-05 5.42033e-07
3.15197e-05 3.50034e-05 -8.9234e-09
5.42033e-07 -8.9234e-09 -4.14091e-05
0.000839673 3.10547e-05 6.10611e-08
3.10547e-05 -5.98264e-05 1.94816e-07
6.10611e-08 1.94816e-07 -0.000130644
0.00205203 4.83315e-05 5.75357e-07
4.83315e-05 0.000503984 7.17131e-07
5.75357e-07 7.17131e-07 0.000431073
0.00144276 5.61246e-05 4.01507e-07
5.61246e-05 0.000177141 -2.85151e-06
4.01507e-07 -2.85151e-06 8.10304e-05
0.00116259 3.87997e-05 -1.63596e-08
3.87997e-05 9.73849e-05 3.6412e-07
-1.63596e-08 3.6412e-07 2.3519e-05
0.00112436 2.98366e-05 -3.47819e-07
2.98366e-05 7.41051e-05 -1.7206e-06
-3.47819e-07 -1.7206e-06 -2.24416e-06
0.000548668 -8.10663e-06 -2.69293e-05
-8.10663e-06 3.55622e-05 -9.98814e-06
-2.69293e-05 -9.98814e-06 -3.31973e-05
0.00320234 -1.67723e-05 -1.9122e-05
-1.67723e-05 0.00045706 -2.63939e-06
-1.9122e-05 -2.63939e-06 9.26499e-05
0.00187503 -8.2119e-05 -2.05999e-05
-8.2119e-05 0.000749358 -7.94928e-06
-2.05999e-05 -7.94928e-06 0.000665821
0.00333077 -2.83245e-05 3.79786e-05
-2.83245e-05 0.000297348 7.6629e-06
3.79786e-05 7.6629e-06 -0.000253686
0.00202196 8.38732e-05 1.71608e-05
8.38732e-05 0.00068851 2.8174e-05
1.71608e-05 2.8174e-05 0.000562341
0.000654975 4.23145e-05 -8.07166e-06
4.23145e-05 -3.93913e-05 -2.37795e-06
-8.07166e-06 -2.37795e-06 -0.000136094
0.00139178 1.71643e-05 1.77418e-05
1.71643e-05 -1.5869e-05 6.84995e-06
1.77418e-05 6.84995e-06 -9.28197e-05
0.000731563 6.14242e-05 7.44084e-07
6.14242e-05 -0.0001423 2.57197e-06
7.44084e-07 2.57197e-06 -0.000252881
0.000304896 4.13222e-05 4.70778e-07
4.13222e-05 -0.000244896 5.37727e-07
4.70778e-07 5.37727e-07 -0.000345219
0.00112493 8.75148e-05 -1.88641e-05
8.75148e-05 -5.50829e-05 -2.02468e-05
-1.88641e-05 -2.02468e-05 -7.32618e-05
0.00114995 2.02547e-05 -8.43785e-05
2.02547e-05 8.24172e-05 -5.61026e-06
-8.43785e-05 -5.61026e-06 -0.000103069
0.00497927 5.01625e-05 1.79548e-05
5.01625e-05 0.00145375 -1.40808e-06
1.79548e-05 -1.40808e-06 0.00114333
-0.00358255 1.43988e-06 -5.67993e-05
1.43988e-06 -0.00197067 2.69836e-06
-5.67993e-05 2.69836e-06 -0.00192256
0.00213915 -4.06188e-05 -6.46576e-06
-4.06188e-05 3.16664e-05 4.86559e-06
-6.46576e-06 4.86559e-06 0.000124721
0.000385635 3.76273e-05 2.23391e-05
3.76273e-05 0.000154638 -1.05059e-05
2.23391e-05 -1.05059e-05 -0.000134694
0.000690067 -3.13733e-05 1.87051e-05
-3.13733e-05 -0.000206368 6.31716e-07
1.87051e-05 6.31716e-07 -0.000543272
0.00185966 -2.93388e-05 -2.8273e-06
-2.93388e-05 -0.000162761 1.9324e-06
-2.8273e-06 1.9324e-06 -4.13517e-05
0.000976093 5.5046e-05 4.54068e-06
5.5046e-05 0.000150835 -2.76572e-06
4.54068e-06 -2.76572e-06 -2.3782e-07
0.00210756 1.83061e-05 6.21139e-06
1.83061e-05 0.000105661 -9.39405e-06
6.21139e-06 -9.39405e-06 0.000186056
0.000841801 4.8208e-05 3.27444e-06
4.8208e-05 -5.46028e-05 -3.83179e-06
3.27444e-06 -3.83179e-06 -0.000112175
0.0014509 -7.6463e-05 5.9295e-06
-7.6463e-05 1.14867e-05 -7.51477e-08
5.9295e-06 -7.51477e-08 -3.42814e-06
0.00149825 -3.40864e-05 2.66362e-06
-3.40864e-05 -2.16975e-05 -2.03961e-07
2.66362e-06 -2.03961e-07 -2.95377e-06
0.00159689 6.32708e-06 1.17272e-06
6.32708e-06 8.89643e-05 2.24411e-06
1.17272e-06 2.24411e-06 8.68611e-05
0.000995735 -3.60542e-05 3.58919e-06
-3.60542e-05 -0.000166964 1.59825e-06
3.58919e-06 1.59825e-06 -0.000179421
0.00141752 -2.01877e-05 1.13491e-06
-2.01877e-05 3.2459e-05 6.98882e-07
1.13491e-06 6.98882e-07 2.30432e-05
0.00134191 -4.66018e-06 1.36155e-06
-4.66018e-06 2.34055e-05 1.49004e-06
1.36155e-06 1.49004e-06 -8.4467e-06
0.00125198 -2.70401e-05 9.32787e-07
-2.70401e-05 -5.30775e-06 2.11619e-06
9.32787e-07 2.11619e-06 -3.6115e-05
0.0013151 -1.8652e-05 1.72963e-07
-1.8652e-05 3.51502e-05 5.26238e-07
1.72963e-07 5.26238e-07 1.694e-06
0.00134189 -1.21656e-05 4.17608e-07
-1.21656e-05 5.8106e-05 8.34299e-07
4.17608e-07 8.34299e-07 1.19591e-05
0.00133513 -2.50663e-05 -9.75086e-08
-2.50663e-05 6.73937e-05 1.2339e-06
-9.75086e-08 1.2339e-06 2.375e-05
0.00125827 -2.07159e-05 -2.787e-07
-2.07159e-05 4.01674e-05 -8.61511e-09
-2.787e-07 -8.61511e-09 -5.57939e-06
0.00125773 -2.08003e-05 7.79906e-07
-2.08003e-05 4.99302e-05 3.76197e-07
7.79906e-07 3.76197e-07 -4.11474e-06
0.00119114 -2.32684e-05 -6.13199e-07
-2.32684e-05 1.91742e-05 8.1416e-07
-6.13199e-07 8.1416e-07 -2.79976e-05
0.00125348 -2.32674e-05 -3.83801e-07
-2.32674e-05 5.46326e-05 -2.96272e-07
-3.83801e-07 -2.96272e-07 2.03782e-06
0.00131128 -2.43226e-05 1.02646e-07
-2.43226e-05 8.94821e-05 -2.35312e-07
1.02646e-07 -2.35312e-07 3.20485e-05
0.00128256 -2.71982e-05 4.08109e-07
-2.71982e-05 7.40086e-05 6.90873e-07
4.08109e-07 6.90873e-07 1.71532e-05
0.00126385 -2.65986e-05 8.59055e-08
-2.65986e-05 7.28346e-05 -2.20587e-07
8.59055e-08 -2.20587e-07 1.36066e-05
0.00125428 -2.51499e-05 -5.30397e-07
-2.51499e-05 7.97811e-05 -2.32154e-09
-5.30397e-07 -2.32154e-09 2.09425e-05
0.000956113 -1.87335e-05 -1.5401e-06
-1.87335e-05 -3.12115e-05 9.16596e-07
-1.5401e-06 9.16596e-07 -8.82337e-05
0.00112532 -2.69551e-05 -2.085e-07
-2.69551e-05 3.30501e-05 1.07771e-07
-2.085e-07 1.07771e-07 -2.8785e-05
0.00124337 -2.98885e-05 8.69753e-07
-2.98885e-05 7.77523e-05 -3.2497e-07
8.69753e-07 -3.2497e-07 1.28857e-05
0.000967916 4.30166e-06 -2.14688e-06
4.30166e-06 1.20859e-05 1.53791e-06
-2.14688e-06 1.53791e-06 -3.1764e-05
0.00107527 -1.73338e-05 1.99357e-08
-1.73338e-05 4.2211e-05 6.83757e-08
1.99357e-08 6.83757e-08 -1.37083e-05
0.00112919 -2.84739e-05 4.99298e-07
-2.84739e-05 5.53228e-05 -5.62035e-07
4.99298e-07 -5.62035e-07 -7.35698e-06
0.000823811 1.86412e-05 -4.17337e-06
1.86412e-05 -5.12548e-05 2.50425e-06
-4.17337e-06 2.50425e-06 -6.25197e-05
0.000973151 7.67891e-06 1.11861e-08
7.67891e-06 1.27231e-05 -2.73346e-08
1.11861e-08 -2.73346e-08 -2.75982e-05
0.00107704 -1.27046e-05 9.96268e-07
-1.27046e-05 4.98716e-05 -8.49135e-07
9.96268e-07 -8.49135e-07 -4.42522e-06
0.00250006 2.80437e-05 -1.08789e-05
2.80437e-05 0.000768459 3.14567e-06
-1.08789e-05 3.14567e-06 0.00078381
0.000877805 1.79278e-05 6.33267e-08
1.79278e-05 -3.22457e-05 2.76499e-08
6.33267e-08 2.76499e-08 -4.12789e-05
0.000984861 1.08651e-05 2.18844e-06
1.08651e-05 1.54185e-05 -1.44628e-06
2.18844e-06 -1.44628e-06 -2.21554e-05
0.00242672 2.57266e-05 1.53925e-07
2.57266e-05 0.00072611 5.92622e-08
1.53925e-07 5.92622e-08 0.000742916
0.000914865 1.69101e-05 3.81459e-06
1.69101e-05 -2.06976e-05 -2.67544e-06
3.81459e-06 -2.67544e-06 -2.79344e-05
0.00237541 2.34243e-05 1.02351e-05
2.34243e-05 0.000695014 -3.39558e-06
1.02351e-05 -3.39558e-06 0.00071307
0.00111091 2.15506e-05 -5.12866e-07
2.15506e-05 7.10985e-05 -1.96549e-07
-5.12866e-07 -1.96549e-07 7.49405e-06
0.00114476 1.82485e-05 5.23213e-08
1.82485e-05 8.48814e-05 5.25142e-08
5.23213e-08 5.25142e-08 2.22345e-05
0.000952084 -1.29408e-06 -1.20114e-06
-1.29408e-06 -3.67555e-06 -5.83932e-07
-1.20114e-06 -5.83932e-07 -6.08254e-05
0.00112337 1.41427e-05 5.92036e-07
1.41427e-05 7.25942e-05 1.1781e-07
5.92036e-07 1.1781e-07 1.03776e-05
0.000941656 -4.14721e-06 -1.84772e-07
-4.14721e-06 -1.29163e-05 -1.41706e-07
-1.84772e-07 -1.41706e-07 -6.92518e-05
0.000984762 -1.20167e-05 -2.20908e-06
-1.20167e-05 1.19211e-05 -1.41647e-06
-2.20908e-06 -1.41647e-06 -2.65587e-05
0.000935735 -3.71947e-06 1.19299e-06
-3.71947e-06 -2.01175e-05 8.49294e-07
1.19299e-06 8.49294e-07 -7.59898e-05
0.000979764 -1.09962e-05 -9.4894e-09
-1.09962e-05 4.19906e-06 2.39801e-08
-9.4894e-09 2.39801e-08 -3.2726e-05
0.000908138 -1.50476e-05 -3.64698e-06
-1.50476e-05 -2.97415e-05 -2.78584e-06
-3.64698e-06 -2.78584e-06 -3.73639e-05
0.000979305 -8.09736e-06 2.05376e-06
-8.09736e-06 -5.39627e-07 1.8e-06
2.05376e-06 1.8e-06 -3.63229e-05
0.000900356 -1.33716e-05 -6.98275e-08
-1.33716e-05 -3.83445e-05 3.46063e-08
-6.98275e-08 3.46063e-08 -4.48636e-05
0.00246239 -2.11743e-05 -1.02027e-05
-2.11743e-05 0.000732221 -3.63394e-06
-1.02027e-05 -3.63394e-06 0.000750443
0.0025067 -1.89287e-05 -2.07228e-07
-1.89287e-05 0.000748908 5.07881e-08
-2.07228e-07 5.07881e-08 0.00076778
0.000895918 -1.19428e-05 2.80483e-06
-1.19428e-05 -4.41341e-05 3.10069e-06
2.80483e-06 3.10069e-06 -4.98718e-05
0.00250667 -1.6718e-05 8.83665e-06
-1.6718e-05 0.000744458 3.91772e-06
8.83665e-06 3.91772e-06 0.000764115
0.000260001 -1.90348e-05 -3.75123e-05
-1.90348e-05 -0.000165621 -6.08992e-06
-3.75123e-05 -6.08992e-06 -0.000233182
0.00163453 3.4746e-05 -1.37234e-05
3.4746e-05 -0.000219697 -4.44124e-06
-1.37234e-05 -4.44124e-06 -0.000542409
0.00279621 -5.74366e-05 -1.95346e-05
-5.74366e-05 0.00105146 -3.77531e-06
-1.95346e-05 -3.77531e-06 0.00100603
0.00119831 3.06991e-05 1.218e-06
3.06991e-05 0.000108018 4.17116e-07
1.218e-06 4.17116e-07 4.05062e-05
0.00118754 2.89049e-05 5.60945e-07
2.89049e-05 0.000100152 -2.81019e-07
5.60945e-07 -2.81019e-07 3.13609e-05
0.0011416 2.78961e-05 3.27522e-07
2.78961e-05 8.21868e-05 -2.08999e-07
3.27522e-07 -2.08999e-07 1.67558e-05
0.00110986 2.87831e-05 1.16667e-08
2.87831e-05 6.81901e-05 -7.27282e-09
1.16667e-08 -7.27282e-09 -8.54252e-08
0.00112572 2.84687e-05 -1.75291e-07
2.84687e-05 8.08537e-05 -1.88347e-07
-1.75291e-07 -1.88347e-07 1.40189e-05
0.000950212 2.95209e-05 -6.39059e-07
2.95209e-05 -2.35012e-06 5.83747e-07
-6.39059e-07 5.83747e-07 -6.83487e-05
0.00116151 2.97119e-05 1.09422e-06
2.97119e-05 9.30694e-05 -7.07277e-07
1.09422e-06 -7.07277e-07 2.17425e-05
0.00103681 3.1761e-05 2.9861e-07
3.1761e-05 4.49255e-05 -1.65263e-06
2.9861e-07 -1.65263e-06 -3.14602e-05
0.00109548 3.38005e-05 -5.82871e-08
3.38005e-05 6.12945e-05 -3.0078e-08
-5.82871e-08 -3.0078e-08 -9.3762e-06
0.00152373 4.25465e-05 6.6211e-08
4.25465e-05 0.000264693 -4.81192e-08
6.6211e-08 -4.81192e-08 0.000193452
0.00130311 4.65704e-05 3.70539e-07
4.65704e-05 0.000116244 -2.08105e-06
3.70539e-07 -2.08105e-06 3.56107e-05
0.00158179 5.27232e-05 -6.30248e-06
5.27232e-05 0.000113751 -9.62394e-07
-6.30248e-06 -9.62394e-07 8.243e-06
0.00118587 5.21259e-05 2.03844e-06
5.21259e-05 6.33169e-05 1.94095e-06
2.03844e-06 1.94095e-06 -3.03767e-05
0.000854293 3.50033e-05 -7.03848e-07
3.50033e-05 -5.55463e-05 1.19683e-06
-7.03848e-07 1.19683e-06 -0.000129573
0.00169621 -3.86035e-05 6.91567e-06
-3.86035e-05 -6.00464e-05 6.97972e-06
6.91567e-06 6.97972e-06 -0.000120483
0.000743367 1.08131e-05 2.6581e-06
1.08131e-05 -9.36172e-05 1.0156e-06
2.6581e-06 1.0156e-06 -0.000207093
0.000579092 -2.26057e-05 -2.84252e-05
-2.26057e-05 -0.000487299 -1.85035e-05
-2.84252e-05 -1.85035e-05 -0.000778693
0.0028061 8.32458e-05 1.38161e-05
8.32458e-05 0.000525342 2.67456e-05
1.38161e-05 2.67456e-05 0.000340262
0.0017097 2.73608e-05 7.43997e-06
2.73608e-05 6.81425e-05 1.38072e-06
7.43997e-06 1.38072e-06 -3.0114e-05
-0.00026132 5.76017e-05 4.46838e-07
5.76017e-05 -0.000629325 7.68447e-06
4.46838e-07 7.68447e-06 -0.000738743
0.00174656 -1.08585e-06 7.91575e-06
-1.08585e-06 0.000505243 -4.00758e-06
7.91575e-06 -4.00758e-06 0.000458045
0.000247922 7.28064e-06 -1.53257e-05
7.28064e-06 -1.45368e-05 -3.8438e-07
-1.53257e-05 -3.8438e-07 -0.000109093
0.00101024 0.000101823 5.65849e-05
0.000101823 -0.000599488 -5.9577e-06
5.65849e-05 -5.9577e-06 -0.000884943
0.00166158 -4.20678e-05 1.0852e-06
-4.20678e-05 -0.000225322 5.19222e-06
1.0852e-06 5.19222e-06 -0.000124285
0.000703058 3.89933e-05 3.48552e-05
3.89933e-05 -0.000147876 -1.09189e-05
3.48552e-05 -1.09189e-05 -0.000357301
0.00196252 5.61852e-06 3.38476e-06
5.61852e-06 4.91993e-05 4.10567e-07
3.38476e-06 4.10567e-07 0.000108382
0.00101476 5.18108e-05 9.37627e-07
5.18108e-05 3.18057e-05 -2.64533e-06
9.37627e-07 -2.64533e-06 -2.83565e-05
0.00115203 4.47074e-05 -2.29785e-06
4.47074e-05 -0.000127578 9.54238e-07
-2.29785e-06 9.54238e-07 -0.000180495
0.000380388 3.22226e-05 -1.77552e-06
3.22226e-05 -0.00039916 -4.07849e-06
-1.77552e-06 -4.07849e-06 -0.000474799
0.00133806 -3.24476e-05 4.76311e-06
-3.24476e-05 -9.77961e-05 2.5111e-07
4.76311e-06 2.5111e-07 -7.3747e-05
0.00149264 4.61656e-06 8.8128e-07
4.61656e-06 4.95906e-05 3.88146e-07
8.8128e-07 3.88146e-07 4.12582e-05
0.0015484 1.98339e-05 1.64304e-07
1.98339e-05 0.000138789 6.68834e-07
1.64304e-07 6.68834e-07 9.18072e-05
0.00155719 -2.06282e-05 -7.48362e-07
-2.06282e-05 0.000106025 6.42337e-07
-7.48362e-07 6.42337e-07 9.37857e-05
0.00146013 -4.90989e-06 -4.2959e-07
-4.90989e-06 8.34934e-05 -1.28626e-07
-4.2959e-07 -1.28626e-07 5.03572e-05
0.00141845 1.85892e-06 6.59334e-07
1.85892e-06 8.1039e-05 1.06393e-06
6.59334e-07 1.06393e-06 2.94221e-05
0.00139092 -1.92055e-05 -1.39904e-06
-1.92055e-05 7.50024e-05 3.98748e-08
-1.39904e-06 3.98748e-08 4.01244e-05
0.00134089 -1.33338e-05 -7.34952e-07
-1.33338e-05 6.29638e-05 -4.99398e-07
-7.34952e-07 -4.99398e-07 1.69299e-05
0.00127946 -1.46122e-05 3.28741e-07
-1.46122e-05 4.43849e-05 9.94966e-07
3.28741e-07 9.94966e-07 -1.37726e-05
0.00126374 -2.16673e-05 -1.21783e-06
-2.16673e-05 4.61488e-05 -6.40241e-07
-1.21783e-06 -6.40241e-07 9.26841e-08
0.00125311 -2.05169e-05 6.02395e-08
-2.05169e-05 4.81732e-05 -2.55457e-07
6.02395e-08 -2.55457e-07 -5.88357e-06
0.00125457 -2.22217e-05 1.67487e-07
-2.22217e-05 5.6559e-05 2.82467e-07
1.67487e-07 2.82467e-07 -2.45033e-06
0.00117994 -2.24789e-05 -7.992e-07
-2.24789e-05 1.91033e-05 3.02144e-07
-7.992e-07 3.02144e-07 -3.2658e-05
0.00123881 -2.32266e-05 -9.42382e-08
-2.32266e-05 5.39269e-05 -2.07193e-07
-9.42382e-08 -2.07193e-07 -2.9955e-06
0.00120186 -2.23914e-05 -4.79871e-07
-2.23914e-05 4.66599e-05 3.76078e-08
-4.79871e-07 3.76078e-08 -1.19074e-05
0.00126054 -2.65125e-05 5.50528e-07
-2.65125e-05 7.10469e-05 1.18137e-07
5.50528e-07 1.18137e-07 1.1679e-05
0.0011833 -2.44996e-05 1.18281e-07
-2.44996e-05 4.52652e-05 -1.38677e-07
1.18281e-07 -1.38677e-07 -1.38868e-05
0.00114452 -1.96768e-05 -1.15581e-06
-1.96768e-05 4.5309e-05 5.15828e-07
-1.15581e-06 5.15828e-07 -1.07967e-05
0.000988552 -1.00369e-06 -2.31674e-06
-1.00369e-06 1.69642e-05 1.42632e-06
-2.31674e-06 1.42632e-06 -2.96629e-05
0.00102569 -1.8936e-05 -3.40761e-07
-1.8936e-05 3.92013e-06 2.37752e-07
-3.40761e-07 2.37752e-07 -5.27917e-05
0.00118697 -2.76426e-05 6.60519e-07
-2.76426e-05 6.45107e-05 -3.88971e-07
6.60519e-07 -3.88971e-07 2.84837e-06
0.000792354 1.92602e-05 -4.35115e-06
1.92602e-05 -5.95857e-05 2.47337e-06
-4.35115e-06 2.47337e-06 -7.38296e-05
0.000977653 2.30224e-06 6.02537e-08
2.30224e-06 1.48512e-05 2.02868e-08
6.02537e-08 2.02868e-08 -2.87833e-05
0.00107929 -1.65711e-05 1.08598e-06
-1.65711e-05 4.42083e-05 -8.07007e-07
1.08598e-06 -8.07007e-07 -1.16852e-05
0.00254704 3.01781e-05 -1.12458e-05
3.01781e-05 0.000799583 2.99007e-06
-1.12458e-05 2.99007e-06 0.000813219
0.000860617 1.88022e-05 1.84282e-08
1.88022e-05 -3.35018e-05 7.0397e-09
1.84282e-08 7.0397e-09 -4.49605e-05
0.000990848 5.89642e-06 2.20057e-06
5.89642e-06 1.9685e-05 -1.45322e-06
2.20057e-06 -1.45322e-06 -2.04713e-05
0.00245375 2.78803e-05 1.65974e-07
2.78803e-05 0.00074697 6.82368e-08
1.65974e-07 6.82368e-08 0.00076227
0.000904352 1.80222e-05 4.11986e-06
1.80222e-05 -1.94145e-05 -2.54146e-06
4.11986e-06 -2.54146e-06 -2.85894e-05
0.00237892 2.5601e-05 1.05649e-05
2.5601e-05 0.000703752 -3.26144e-06
1.05649e-05 -3.26144e-06 0.000720556
0.00104575 2.53285e-05 -4.24799e-07
2.53285e-05 3.63029e-05 -2.9442e-07
-4.24799e-07 -2.9442e-07 -2.84389e-05
0.00109056 2.16103e-05 -7.45182e-08
2.16103e-05 6.10839e-05 -1.32496e-07
-7.45182e-08 -1.32496e-07 -2.42101e-06
0.00106631 5.53247e-06 -9.58385e-07
5.53247e-06 5.35756e-05 -3.38569e-07
-9.58385e-07 -3.38569e-07 -4.01289e-06
0.00122204 1.95362e-05 4.29545e-07
1.95362e-05 0.000122263 -1.08324e-07
4.29545e-07 -1.08324e-07 6.00439e-05
0.000997166 -9.76699e-07 -1.89081e-07
-9.76699e-07 1.89548e-05 -1.24799e-07
-1.89081e-07 -1.24799e-07 -3.7985e-05
0.000980493 -1.13799e-05 -2.21245e-06
-1.13799e-05 1.54133e-05 -1.27562e-06
-2.21245e-06 -1.27562e-06 -2.51302e-05
0.000945231 -4.3184e-06 9.10554e-07
-4.3184e-06 -1.01379e-05 4.2322e-07
9.10554e-07 4.2322e-07 -6.66406e-05
0.000971184 -1.24464e-05 -1.53482e-08
-1.24464e-05 5.4766e-06 2.46591e-08
-1.53482e-08 2.46591e-08 -3.3021e-05
0.000901775 -1.66742e-05 -3.88721e-06
-1.66742e-05 -2.67267e-05 -2.62309e-06
-3.88721e-06 -2.62309e-06 -3.58577e-05
0.000968037 -1.1034e-05 2.17059e-06
-1.1034e-05 -1.63937e-06 1.68257e-06
2.17059e-06 1.68257e-06 -3.85316e-05
0.000892725 -1.49408e-05 -4.07226e-08
-1.49408e-05 -3.74733e-05 3.1072e-08
-4.07226e-08 3.1072e-08 -4.49797e-05
0.00244793 -2.34429e-05 -1.04669e-05
-2.34429e-05 0.000731014 -3.47314e-06
-1.04669e-05 -3.47314e-06 0.000748292
0.000887902 -1.32837e-05 3.19063e-06
-1.32837e-05 -4.46601e-05 3.00077e-06
3.19063e-06 3.00077e-06 -5.10786e-05
0.00250864 -2.12013e-05 -1.79197e-07
-2.12013e-05 0.000754303 5.61587e-08
-1.79197e-07 5.61587e-08 0.000772423
0.00253964 -1.89553e-05 9.67485e-06
-1.89553e-05 0.000764682 3.83025e-06
9.67485e-06 3.83025e-06 0.000783475
0.00122129 -5.49827e-05 8.51059e-06
-5.49827e-05 -0.000138902 7.29256e-07
8.51059e-06 7.29256e-07 -0.000164812
0.00115595 5.01333e-06 -6.77773e-06
5.01333e-06 2.7701e-05 5.86907e-06
-6.77773e-06 5.86907e-06 -0.000121228
0.00441964 4.20639e-05 -4.7741e-05
4.20639e-05 0.00114185 -1.65412e-05
-4.7741e-05 -1.65412e-05 0.000818878
0.00097732 2.94814e-05 5.89376e-07
2.94814e-05 1.22204e-06 4.5559e-07
5.89376e-07 4.5559e-07 -6.47567e-05
0.00130482 3.45718e-05 8.06368e-07
3.45718e-05 0.000132387 -5.44074e-07
8.06368e-07 -5.44074e-07 6.26552e-05
0.0010097 2.91037e-05 2.52378e-07
2.91037e-05 2.24361e-05 -7.94743e-08
2.52378e-07 -7.94743e-08 -4.51212e-05
0.00118408 2.96929e-05 4.1025e-07
2.96929e-05 0.000103441 -5.67723e-07
4.1025e-07 -5.67723e-07 3.5096e-05
0.00110112 2.86635e-05 -1.26315e-07
2.86635e-05 6.99512e-05 -2.71447e-07
-1.26315e-07 -2.71447e-07 2.85754e-06
0.00109036 3.14233e-05 1.30264e-07
3.14233e-05 6.25177e-05 3.26375e-07
1.30264e-07 3.26375e-07 -3.67367e-06
0.00124876 4.14339e-05 -5.87837e-07
4.14339e-05 8.14515e-05 -1.12307e-06
-5.87837e-07 -1.12307e-06 5.46134e-06
0.00133493 3.63643e-05 8.16877e-07
3.63643e-05 0.000174732 -1.53378e-07
8.16877e-07 -1.53378e-07 0.000104212
0.000999908 3.68077e-05 -2.71933e-06
3.68077e-05 2.74091e-05 -7.90459e-07
-2.71933e-06 -7.90459e-07 -4.21506e-05
0.00118732 4.54498e-05 1.83315e-07
4.54498e-05 6.18764e-05 5.79283e-10
1.83315e-07 5.79283e-10 -1.95241e-05
0.00121522 4.39094e-05 -8.50752e-08
4.39094e-05 -3.05375e-05 -1.23861e-06
-8.50752e-08 -1.23861e-06 -0.000124121
0.00166172 8.37205e-06 -3.67823e-06
8.37205e-06 0.000107008 3.16033e-06
-3.67823e-06 3.16033e-06 4.03929e-05
0.00167076 5.12442e-05 -2.07729e-06
5.12442e-05 0.000156475 8.55302e-07
-2.07729e-06 8.55302e-07 5.39441e-05
0.000921677 4.81905e-05 9.60566e-07
4.81905e-05 -5.33754e-05 5.68537e-06
9.60566e-07 5.68537e-06 -0.000144674
0.00191507 -3.35899e-05 1.07436e-06
-3.35899e-05 4.74898e-05 -1.75565e-07
1.07436e-06 -1.75565e-07 -1.35263e-05
0.00125694 5.15072e-06 6.14996e-05
5.15072e-06 -8.66733e-06 1.76348e-05
6.14996e-05 1.76348e-05 -0.000173225
0.00217402 3.8014e-05 -6.65828e-06
3.8014e-05 0.000225163 -1.92962e-07
-6.65828e-06 -1.92962e-07 0.000104751
0.00143643 9.32706e-06 -7.67644e-07
9.32706e-06 0.00013829 -3.1878e-06
-7.67644e-07 -3.1878e-06 8.99459e-05
0.000996146 -7.90358e-06 3.10195e-06
-7.90358e-06 0.000124911 -6.49263e-07
3.10195e-06 -6.49263e-07 8.94764e-05
0.00087214 3.59427e-05 3.74123e-05
3.59427e-05 -0.000113616 1.88526e-06
3.74123e-05 1.88526e-06 -0.000243096
0.0016338 -7.89789e-06 6.6571e-06
-7.89789e-06 -9.14383e-05 -6.81787e-07
6.6571e-06 -6.81787e-07 -5.43159e-05
0.00102387 5.37944e-05 -4.5282e-06
5.37944e-05 4.52191e-05 3.55502e-07
-4.5282e-06 3.55502e-07 -1.63127e-05
0.00152179 4.69273e-05 -2.01348e-06
4.69273e-05 4.55405e-05 1.67168e-06
-2.01348e-06 1.67168e-06 -2.80866e-06
0.00112154 3.88809e-05 3.65616e-07
3.88809e-05 -3.69112e-05 1.32677e-06
3.65616e-07 1.32677e-06 -0.000109585
0.00132794 3.53158e-05 -1.52772e-06
3.53158e-05 5.72271e-05 -1.37965e-06
-1.52772e-06 -1.37965e-06 -1.12593e-05
0.00135427 3.21925e-05 -7.87931e-07
3.21925e-05 0.000123013 -2.00532e-06
-7.87931e-07 -2.00532e-06 6.61955e-05
0.00131923 2.68486e-06 9.82054e-08
2.68486e-06 -2.37271e-05 -1.32371e-06
9.82054e-08 -1.32371e-06 -3.80811e-05
0.001444 1.83737e-05 -6.87879e-07
1.83737e-05 8.90409e-05 -1.41612e-06
-6.87879e-07 -1.41612e-06 4.2976e-05
0.00148356 2.40423e-05 -2.65332e-07
2.40423e-05 0.000115624 3.66353e-07
-2.65332e-07 3.66353e-07 5.26343e-05
0.00149653 -5.10782e-06 -3.10656e-06
-5.10782e-06 0.000103807 -1.18745e-06
-3.10656e-06 -1.18745e-06 6.96791e-05
0.00138788 1.89665e-06 -2.17001e-07
1.89665e-06 6.90096e-05 -2.21159e-07
-2.17001e-07 -2.21159e-07 1.71231e-05
0.0012511 1.44705e-06 -1.91014e-08
1.44705e-06 1.40082e-05 9.59048e-07
-1.91014e-08 9.59048e-07 -4.81737e-05
0.00132508 -1.4374e-05 -2.19708e-06
-1.4374e-05 6.05956e-05 -1.34207e-06
-2.19708e-06 -1.34207e-06 1.4724e-05
0.00128751 -1.413e-05 1.23699e-07
-1.413e-05 4.83065e-05 -9.74057e-08
1.23699e-07 -9.74057e-08 -9.85678e-06
0.00127511 -1.72539e-05 -7.03379e-08
-1.72539e-05 5.25703e-05 6.85668e-07
-7.03379e-08 6.85668e-07 -1.00477e-05
0.00124966 -2.02114e-05 -6.34158e-07
-2.02114e-05 4.69579e-05 -8.85215e-07
-6.34158e-07 -8.85215e-07 -7.10898e-06
0.00125311 -2.18357e-05 1.15943e-08
-2.18357e-05 5.56e-05 -1.77264e-07
1.15943e-08 -1.77264e-07 -3.38142e-06
0.00123044 -2.20122e-05 -3.92656e-07
-2.20122e-05 5.50858e-05 2.93445e-07
-3.92656e-07 2.93445e-07 -5.2397e-06
0.00116573 -2.21945e-05 -9.31733e-08
-2.21945e-05 1.80822e-05 -2.89357e-08
-9.31733e-08 -2.89357e-08 -3.83303e-05
0.00116747 -2.19766e-05 -1.01905e-07
-2.19766e-05 2.98295e-05 -9.96992e-08
-1.01905e-07 -9.96992e-08 -2.86315e-05
0.00116346 -1.85536e-05 -1.12888e-06
-1.85536e-05 4.61332e-05 3.87333e-07
-1.12888e-06 3.87333e-07 -1.00668e-05
0.00111436 -2.38843e-05 8.99849e-07
-2.38843e-05 1.17442e-05 -2.72357e-07
8.99849e-07 -2.72357e-07 -4.77275e-05
0.00105892 -1.84463e-05 -1.95281e-08
-1.84463e-05 4.70586e-06 2.34915e-08
-1.95281e-08 2.34915e-08 -5.15857e-05
0.00100097 -2.70561e-06 -2.39043e-06
-2.70561e-06 1.50703e-05 1.14964e-06
-2.39043e-06 1.14964e-06 -3.30433e-05
0.000817329 2.01507e-05 -4.59436e-06
2.01507e-05 -4.27855e-05 2.41534e-06
-4.59436e-06 2.41534e-06 -6.01095e-05
0.000983943 -2.12138e-06 2.72746e-08
-2.12138e-06 1.30444e-05 8.50218e-08
2.72746e-08 8.50218e-08 -3.33277e-05
0.00110061 -1.92214e-05 8.10934e-07
-1.92214e-05 4.15215e-05 -4.60086e-07
8.10934e-07 -4.60086e-07 -1.48783e-05
0.00262166 3.23181e-05 -1.16039e-05
3.23181e-05 0.000844164 2.84185e-06
-1.16039e-05 2.84185e-06 0.000855872
0.000839793 1.95238e-05 3.92961e-08
1.95238e-05 -3.67179e-05 -8.92031e-10
3.92961e-08 -8.92031e-10 -5.12002e-05
0.000989084 4.93056e-07 2.28731e-06
4.93056e-07 1.84433e-05 -1.41757e-06
2.28731e-06 -1.41757e-06 -2.49759e-05
0.00250422 2.99968e-05 1.43757e-07
2.99968e-05 0.000779748 7.07751e-08
1.43757e-07 7.07751e-08 0.000793297
0.00089614 1.89468e-05 4.32154e-06
1.89468e-05 -1.63535e-05 -2.47331e-06
4.32154e-06 -2.47331e-06 -2.80049e-05
0.0024074 2.77211e-05 1.09346e-05
2.77211e-05 0.000725434 -3.10627e-06
1.09346e-05 -3.10627e-06 0.000740688
0.000902559 2.72031e-05 -4.52673e-07
2.72031e-05 -4.34751e-05 -5.38224e-07
-4.52673e-07 -5.38224e-07 -0.000111085
0.000959517 2.47832e-05 -4.23147e-08
2.47832e-05 -5.68416e-06 -8.68963e-08
-4.23147e-08 -8.68963e-08 -7.07793e-05
0.00109411 1.28088e-05 -1.02749e-06
1.28088e-05 6.21485e-05 -2.86042e-07
-1.02749e-06 -2.86042e-07 3.70427e-06
0.00106953 2.16051e-05 2.11422e-07
2.16051e-05 5.07538e-05 -1.64668e-07
2.11422e-07 -1.64668e-07 -1.26504e-05
0.00104009 4.76511e-06 3.66939e-09
4.76511e-06 4.15584e-05 2.11989e-08
3.66939e-09 2.11989e-08 -1.60635e-05
0.000982184 -9.31609e-06 -2.25704e-06
-9.31609e-06 2.06165e-05 -1.11646e-06
-2.25704e-06 -1.11646e-06 -2.23147e-05
0.00104209 -4.66808e-07 8.38594e-07
-4.66808e-07 4.14995e-05 2.7813e-07
8.38594e-07 2.7813e-07 -1.52215e-05
0.000963959 -1.21781e-05 -4.4052e-09
-1.21781e-05 8.03874e-06 7.83447e-09
-4.4052e-09 7.83447e-09 -3.2585e-05
0.000893519 -1.81806e-05 -4.09092e-06
-1.81806e-05 -2.29762e-05 -2.46448e-06
-4.09092e-06 -2.46448e-06 -3.41855e-05
0.000957305 -1.28265e-05 2.21747e-06
-1.28265e-05 -1.09814e-06 1.54215e-06
2.21747e-06 1.54215e-06 -3.96142e-05
0.000882413 -1.65514e-05 -3.81501e-08
-1.65514e-05 -3.62919e-05 3.07532e-08
-3.81501e-08 3.07532e-08 -4.52945e-05
0.00244164 -2.56667e-05 -1.07175e-05
-2.56667e-05 0.000735469 -3.30249e-06
-1.07175e-05 -3.30249e-06 0.000751456
0.000877395 -1.48331e-05 3.50653e-06
-1.48331e-05 -4.51893e-05 2.86845e-06
3.50653e-06 2.86845e-06 -5.25764e-05
0.00250281 -2.35128e-05 -1.5828e-07
-2.35128e-05 0.000756961 5.99836e-08
-1.5828e-07 5.99836e-08 0.00077417
0.00255451 -2.12366e-05 1.02609e-05
-2.12366e-05 0.000776231 3.69997e-06
1.02609e-05 3.69997e-06 0.000794247
0.00157749 -1.88492e-05 4.37291e-07
-1.88492e-05 0.000132697 4.74313e-08
4.37291e-07 4.74313e-08 9.44691e-05
0.0012584 -5.11712e-05 -6.4428e-07
-5.11712e-05 -3.19296e-05 -2.27161e-06
-6.4428e-07 -2.27161e-06 -5.69506e-05
-0.000393408 -3.0702e-06 3.0581e-05
-3.0702e-06 -0.000226984 8.43509e-06
3.0581e-05 8.43509e-06 -0.00029275
0.00153857 3.81117e-05 8.26876e-07
3.81117e-05 0.000216767 -8.54417e-07
8.26876e-07 -8.54417e-07 0.000146208
0.000985585 3.00401e-05 -3.34814e-07
3.00401e-05 1.05848e-05 9.91388e-08
-3.34814e-07 9.91388e-08 -5.39878e-05
0.000828527 3.17588e-05 -1.11056e-06
3.17588e-05 -0.000129508 3.83659e-08
-1.11056e-06 3.83659e-08 -0.000204894
0.00125775 3.41418e-05 7.00041e-08
3.41418e-05 0.000109853 4.3398e-08
7.00041e-08 4.3398e-08 3.97435e-05
0.000822544 2.74999e-05 -4.09582e-07
2.74999e-05 -6.22891e-05 3.62332e-07
-4.09582e-07 3.62332e-07 -0.000129912
0.00150473 4.17697e-05 -9.35033e-07
4.17697e-05 0.000118078 -2.88687e-06
-9.35033e-07 -2.88687e-06 3.50431e-05
0.0012342 3.33427e-05 -3.71814e-10
3.33427e-05 0.000129173 -3.64439e-07
-3.71814e-10 -3.64439e-07 6.27836e-05
0.00123313 4.09665e-05 4.74845e-08
4.09665e-05 7.26003e-05 9.00382e-07
4.74845e-08 9.00382e-07 -2.6241e-06
0.00137839 6.66051e-06 5.6474e-07
6.66051e-06 -1.97083e-05 3.22841e-06
5.6474e-07 3.22841e-06 -9.15357e-05
0.00106114 4.41567e-05 4.28413e-07
4.41567e-05 2.4232e-06 1.79649e-06
4.28413e-07 1.79649e-06 -7.97184e-05
0.00145323 4.65846e-05 -3.30591e-07
4.65846e-05 6.71945e-05 -4.98493e-07
-3.30591e-07 -4.98493e-07 -2.83298e-05
0.00155774 7.68401e-06 4.63419e-08
7.68401e-06 5.13253e-05 2.45679e-07
4.63419e-08 2.45679e-07 -1.56925e-05
0.00171477 4.92475e-05 7.64046e-07
4.92475e-05 0.00017787 1.64558e-06
7.64046e-07 1.64558e-06 7.83274e-05
0.00200933 -2.87345e-05 -1.15072e-05
-2.87345e-05 9.73657e-05 -9.31137e-06
-1.15072e-05 -9.31137e-06 3.61609e-05
0.00145226 -3.40146e-06 -5.35859e-08
-3.40146e-06 0.000160709 -1.74555e-06
-5.35859e-08 -1.74555e-06 0.000116333
0.000974406 8.02274e-06 1.46761e-06
8.02274e-06 -7.93861e-05 5.24948e-07
1.46761e-06 5.24948e-07 -0.00012689
0.000191882 -1.32784e-05 -2.51255e-06
-1.32784e-05 -0.000278072 2.12219e-06
-2.51255e-06 2.12219e-06 -0.000302793
0.0018813 4.90391e-05 -3.23868e-06
4.90391e-05 0.000214094 -2.73275e-06
-3.23868e-06 -2.73275e-06 0.000170088
0.00183325 4.50473e-05 7.08213e-06
4.50473e-05 0.000312325 5.51473e-06
7.08213e-06 5.51473e-06 0.000242587
0.00144306 3.67085e-05 -1.47905e-06
3.67085e-05 0.000101441 -1.21055e-06
-1.47905e-06 -1.21055e-06 3.33401e-05
0.00139441 3.18517e-05 7.59994e-07
3.18517e-05 0.000136674 1.89922e-06
7.59994e-07 1.89922e-06 8.0534e-05
0.0013423 3.08298e-05 -1.73435e-06
3.08298e-05 9.6595e-05 -2.8997e-06
-1.73435e-06 -2.8997e-06 3.69852e-05
0.00138699 1.69293e-05 -2.22282e-06
1.69293e-05 6.31498e-05 -1.9667e-06
-2.22282e-06 -1.9667e-06 1.7706e-05
0.00142989 2.28176e-05 -1.68806e-08
2.28176e-05 8.83594e-05 -3.41238e-07
-1.68806e-08 -3.41238e-07 2.64404e-05
0.0014301 2.37615e-05 -1.30628e-06
2.37615e-05 0.00010004 -8.89685e-07
-1.30628e-06 -8.89685e-07 3.44932e-05
0.00136828 1.8292e-06 -1.14765e-06
1.8292e-06 6.23922e-05 -1.32638e-06
-1.14765e-06 -1.32638e-06 1.019e-05
0.00131261 2.07469e-06 2.10267e-07
2.07469e-06 4.38457e-05 1.55905e-07
2.10267e-07 1.55905e-07 -1.88842e-05
0.00132906 8.38208e-07 -4.79356e-07
8.38208e-07 6.2891e-05 4.89854e-07
-4.79356e-07 4.89854e-07 -2.97548e-06
0.00129437 -1.35782e-05 -3.83945e-07
-1.35782e-05 5.16798e-05 -1.16073e-06
-3.83945e-07 -1.16073e-06 -6.49016e-06
0.0012848 -1.66981e-05 8.86905e-08
-1.66981e-05 5.65528e-05 -5.1099e-08
8.86905e-08 -5.1099e-08 -6.0968e-06
0.00124804 -1.87809e-05 -5.43707e-07
-1.87809e-05 5.21746e-05 5.02726e-07
-5.43707e-07 5.02726e-07 -1.0974e-05
0.00125211 -2.1492e-05 -1.06917e-07
-2.1492e-05 5.48509e-05 -6.31927e-07
-1.06917e-07 -6.31927e-07 -4.10321e-06
0.00122909 -2.1794e-05 -1.16049e-08
-2.1794e-05 5.41408e-05 -1.10623e-07
-1.16049e-08 -1.10623e-07 -6.16418e-06
0.00116945 -1.8283e-05 -1.06247e-06
-1.8283e-05 4.28033e-05 4.25582e-07
-1.06247e-06 4.25582e-07 -1.50185e-05
0.00113173 -2.15095e-05 4.41531e-07
-2.15095e-05 1.23346e-05 -2.5218e-07
4.41531e-07 -2.5218e-07 -4.60142e-05
0.00114935 -1.79934e-05 -1.07346e-08
-1.79934e-05 3.95594e-05 -3.43196e-08
-1.07346e-08 -3.43196e-08 -1.66177e-05
0.00100379 -3.46249e-06 -2.29528e-06
-3.46249e-06 9.3442e-06 8.91254e-07
-2.29528e-06 8.91254e-07 -3.96061e-05
0.000969313 -1.71425e-05 1.09951e-06
-1.71425e-05 -3.7762e-05 -4.28061e-07
1.09951e-06 -4.28061e-07 -9.42383e-05
0.000987742 -3.33785e-06 -6.12808e-08
-3.33785e-06 7.76971e-06 9.84585e-08
-6.12808e-08 9.84585e-08 -4.01346e-05
0.00160481 2.61631e-05 -4.18195e-06
2.61631e-05 0.000347713 1.30062e-06
-4.18195e-06 1.30062e-06 0.000331056
0.00120362 2.48101e-05 -1.34904e-05
2.48101e-05 0.000154094 4.53754e-06
-1.34904e-05 4.53754e-06 0.000155913
0.00123401 2.2824e-05 -3.2666e-07
2.2824e-05 0.000161675 4.81326e-08
-3.2666e-07 4.81326e-08 0.000145925
0.000980256 -3.23094e-06 2.40845e-06
-3.23094e-06 9.56224e-06 -1.23086e-06
2.40845e-06 -1.23086e-06 -3.65547e-05
0.00258453 3.20837e-05 1.42852e-07
3.20837e-05 0.000826906 7.74047e-08
1.42852e-07 7.74047e-08 0.000838482
0.000887045 1.97964e-05 4.47245e-06
1.97964e-05 -1.39328e-05 -2.41964e-06
4.47245e-06 -2.41964e-06 -2.86539e-05
0.00245994 2.97818e-05 1.13641e-05
2.97818e-05 0.000759204 -2.97252e-06
1.13641e-05 -2.97252e-06 0.000772671
0.00112665 3.28367e-05 2.81744e-09
3.28367e-05 -7.96434e-06 5.6241e-08
2.81744e-09 5.6241e-08 -7.88799e-05
0.000914851 2.92267e-05 2.40351e-07
2.92267e-05 -5.35004e-05 -5.05291e-08
2.40351e-07 -5.05291e-08 -0.000123998
0.000947391 2.79888e-05 -4.34394e-08
2.79888e-05 -2.48664e-05 -2.79769e-08
-4.34394e-08 -2.79769e-08 -9.28032e-05
0.00111198 1.81933e-05 -1.00183e-06
1.81933e-05 6.38754e-05 -4.31565e-07
-1.00183e-06 -4.31565e-07 4.25906e-06
0.000871528 2.42053e-05 2.59825e-07
2.42053e-05 -4.8546e-05 2.18571e-07
2.59825e-07 2.18571e-07 -0.000113987
0.00105972 1.17668e-05 -2.79066e-08
1.17668e-05 4.63696e-05 2.80731e-08
-2.79066e-08 2.80731e-08 -1.20449e-05
0.000988752 -6.15396e-06 -2.31194e-06
-6.15396e-06 2.57448e-05 -9.36685e-07
-2.31194e-06 -9.36685e-07 -1.93744e-05
0.00101455 3.98312e-06 9.38122e-07
3.98312e-06 2.98605e-05 3.45557e-07
9.38122e-07 3.45557e-07 -2.77945e-05
0.000961326 -1.03312e-05 -3.84438e-08
-1.03312e-05 1.16899e-05 2.06723e-08
-3.84438e-08 2.06723e-08 -3.13717e-05
0.000883681 -1.94668e-05 -4.31496e-06
-1.94668e-05 -1.89284e-05 -2.27833e-06
-4.31496e-06 -2.27833e-06 -3.26302e-05
0.000947402 -1.28906e-05 2.24672e-06
-1.28906e-05 6.62913e-07 1.37651e-06
2.24672e-06 1.37651e-06 -4.00404e-05
0.000867994 -1.80212e-05 -2.33379e-08
-1.80212e-05 -3.53936e-05 2.18555e-08
-2.33379e-08 2.18555e-08 -4.64606e-05
0.00245157 -2.77885e-05 -1.10266e-05
-2.77885e-05 0.000749492 -3.13436e-06
-1.10266e-05 -3.13436e-06 0.000763814
0.000862961 -1.64281e-05 3.75045e-06
-1.64281e-05 -4.59183e-05 2.71737e-06
3.75045e-06 2.71737e-06 -5.47896e-05
0.00249968 -2.57938e-05 -1.56976e-07
-2.57938e-05 0.000762541 6.44853e-08
-1.56976e-07 6.44853e-08 0.000778528
0.002558 -2.35736e-05 1.06236e-05
-2.35736e-05 0.000783083 3.54046e-06
1.06236e-05 3.54046e-06 0.00080022
0.00151002 -2.71045e-05 1.43938e-06
-2.71045e-05 9.917e-05 1.29566e-06
1.43938e-06 1.29566e-06 5.03236e-05
0.00148431 -1.87605e-05 2.2016e-06
-1.87605e-05 7.83329e-05 -1.24543e-06
2.2016e-06 -1.24543e-06 3.8178e-05
0.00153411 -4.84555e-05 -8.81678e-06
-4.84555e-05 0.000183803 -5.99592e-06
-8.81678e-06 -5.99592e-06 0.000159239
0.00140826 3.66046e-05 -1.00196e-06
3.66046e-05 8.49981e-05 -1.50307e-06
-1.00196e-06 -1.50307e-06 7.3933e-06
0.00139931 3.65878e-05 -5.12876e-08
3.65878e-05 0.00016027 2.52791e-07
-5.12876e-08 2.52791e-07 9.12095e-05
0.000978628 3.04726e-05 -1.61792e-06
3.04726e-05 1.27487e-05 -2.89701e-07
-1.61792e-06 -2.89701e-07 -5.04094e-05
0.00122165 3.52729e-05 3.85446e-07
3.52729e-05 5.27049e-05 5.67577e-07
3.85446e-07 5.67577e-07 -2.12145e-05
0.00120722 3.3682e-05 -7.21077e-07
3.3682e-05 8.55569e-05 6.53692e-07
-7.21077e-07 6.53692e-07 1.50868e-05
0.00143972 8.35174e-06 -3.1608e-07
8.35174e-06 3.65695e-05 1.27258e-06
-3.1608e-07 1.27258e-06 -4.01031e-05
0.00147595 4.18571e-05 -9.12856e-07
4.18571e-05 0.000102908 -1.08259e-06
-9.12856e-07 -1.08259e-06 1.86345e-05
0.00120982 4.04586e-05 6.25799e-07
4.04586e-05 6.02716e-05 2.89604e-06
6.25799e-07 2.89604e-06 -1.42009e-05
0.00153522 7.15492e-06 7.59196e-08
7.15492e-06 4.98878e-05 6.29172e-07
7.59196e-08 6.29172e-07 -2.23336e-05
0.00168539 4.92245e-05 -4.69511e-07
4.92245e-05 0.000162189 5.22997e-07
-4.69511e-07 5.22997e-07 6.4736e-05
0.00149362 7.38367e-06 4.53939e-06
7.38367e-06 1.39715e-05 -2.41658e-06
4.53939e-06 -2.41658e-06 -5.34321e-05
0.00089049 2.97889e-08 -5.71663e-08
2.97889e-08 -8.55778e-05 -6.52021e-07
-5.71663e-08 -6.52021e-07 -0.000135114
0.00127002 -1.97081e-06 -5.35791e-07
-1.97081e-06 8.03586e-05 -5.00287e-07
-5.35791e-07 -5.00287e-07 3.51795e-05
0.000509036 6.69967e-06 3.8631e-06
6.69967e-06 -0.000298822 4.57989e-06
3.8631e-06 4.57989e-06 -0.000345471
0.00158549 3.83347e-05 2.39748e-06
3.83347e-05 0.000158403 -1.13877e-06
2.39748e-06 -1.13877e-06 9.07338e-05
0.00141842 3.15424e-05 3.04595e-06
3.15424e-05 0.000143084 5.14368e-06
3.04595e-06 5.14368e-06 8.75601e-05
0.00136238 3.09417e-05 -8.27056e-07
3.09417e-05 0.000104163 -2.28121e-07
-8.27056e-07 -2.28121e-07 4.46452e-05
0.00124607 2.68863e-05 -2.509e-07
2.68863e-05 5.79652e-05 -1.45922e-06
-2.509e-07 -1.45922e-06 -3.09975e-06
0.00136871 2.14606e-05 7.23121e-08
2.14606e-05 5.73329e-05 -1.93747e-07
7.23121e-08 -1.93747e-07 -3.47782e-06
0.00141094 2.25213e-05 -3.57268e-07
2.25213e-05 8.6165e-05 -1.37715e-07
-3.57268e-07 -1.37715e-07 2.06208e-05
0.00131488 1.85771e-05 -1.31664e-06
1.85771e-05 5.35983e-05 -1.62854e-06
-1.31664e-06 -1.62854e-06 -1.08191e-05
0.00137116 2.56797e-06 -3.70971e-08
2.56797e-06 7.22202e-05 -4.25566e-07
-3.70971e-08 -4.25566e-07 8.95307e-06
0.00132319 4.54598e-07 2.6306e-08
4.54598e-07 5.98694e-05 3.2057e-07
2.6306e-08 3.2057e-07 -6.06437e-06
0.00128495 -5.15577e-06 -8.30007e-07
-5.15577e-06 5.67863e-05 3.15706e-07
-8.30007e-07 3.15706e-07 -9.01357e-06
0.00129404 -1.6059e-05 2.93554e-07
-1.6059e-05 6.03289e-05 -7.77408e-07
2.93554e-07 -7.77408e-07 -2.35091e-06
0.00125646 -1.85999e-05 4.88201e-08
-1.85999e-05 5.56291e-05 1.92257e-08
4.88201e-08 1.92257e-08 -7.54891e-06
0.00118651 -1.71675e-05 -1.16494e-06
-1.71675e-05 4.23749e-05 5.00947e-07
-1.16494e-06 5.00947e-07 -1.78751e-05
0.00122813 -2.16149e-05 4.16699e-07
-2.16149e-05 5.33814e-05 -5.15611e-07
4.16699e-07 -5.15611e-07 -6.90446e-06
0.00116679 -1.7941e-05 8.09334e-09
-1.7941e-05 4.12435e-05 -6.84385e-08
8.09334e-09 -6.84385e-08 -1.65692e-05
0.00101063 -5.91146e-06 -2.20781e-06
-5.91146e-06 6.40091e-06 7.74417e-07
-2.20781e-06 7.74417e-07 -4.38348e-05
0.00113473 -1.74531e-05 1.02048e-06
-1.74531e-05 3.27589e-05 -4.10636e-07
1.02048e-06 -4.10636e-07 -2.33977e-05
0.000992636 -3.65256e-06 -8.31435e-08
-3.65256e-06 3.76961e-06 6.0005e-08
-8.31435e-08 6.0005e-08 -4.50834e-05
0.00163853 2.70096e-05 -4.11794e-06
2.70096e-05 0.000368289 1.09705e-06
-4.11794e-06 1.09705e-06 0.000348476
0.000975714 -4.03029e-06 2.42041e-06
-4.03029e-06 1.01612e-06 -9.98241e-07
2.42041e-06 -9.98241e-07 -4.66787e-05
0.00161594 2.60245e-05 2.64503e-06
2.60245e-05 0.000352987 -8.19651e-07
2.64503e-06 -8.19651e-07 0.000335979
0.00120225 2.55919e-05 -1.45209e-05
2.55919e-05 0.000161867 4.3822e-06
-1.45209e-05 4.3822e-06 0.000160554
0.00193361 2.94416e-05 -7.87881e-06
2.94416e-05 0.000513479 1.66041e-06
-7.87881e-06 1.66041e-06 0.000519182
0.00164996 2.48054e-05 7.56136e-06
2.48054e-05 0.000365732 -2.1444e-06
7.56136e-06 -2.1444e-06 0.000351596
0.00254704 3.18156e-05 1.19775e-05
3.18156e-05 0.000809482 -2.86547e-06
1.19775e-05 -2.86547e-06 0.000820926
0.00134235 3.25689e-05 -8.29493e-07
3.25689e-05 5.16193e-05 -1.48581e-06
-8.29493e-07 -1.48581e-06 -2.24102e-05
0.00133723 3.31133e-05 1.01482e-06
3.31133e-05 0.000122354 -4.51943e-08
1.01482e-06 -4.51943e-08 5.37723e-05
0.00115696 3.31585e-05 6.9269e-07
3.31585e-05 1.24777e-05 4.92291e-07
6.9269e-07 4.92291e-07 -5.53994e-05
0.00111445 2.27118e-05 -8.67887e-07
2.27118e-05 5.55021e-05 -7.70521e-07
-8.67887e-07 -7.70521e-07 -6.86276e-06
0.00110018 3.14998e-05 -1.78438e-07
3.14998e-05 3.32047e-05 8.97374e-08
-1.78438e-07 8.97374e-08 -3.72299e-05
0.000992078 2.87765e-05 4.36344e-07
2.87765e-05 -6.28645e-06 5.89672e-07
4.36344e-07 5.89672e-07 -7.45556e-05
0.00108919 1.77975e-05 7.57725e-09
1.77975e-05 5.37199e-05 -5.01044e-08
7.57725e-09 -5.01044e-08 -5.90648e-06
0.000993452 -1.67573e-06 -2.22765e-06
-1.67573e-06 2.873e-05 -9.33806e-07
-2.22765e-06 -9.33806e-07 -1.87431e-05
0.00102573 1.07117e-05 7.99592e-07
1.07117e-05 3.07651e-05 2.3483e-07
7.99592e-07 2.3483e-07 -2.76176e-05
0.000966794 -7.21757e-06 -4.51419e-08
-7.21757e-06 1.68101e-05 3.2692e-08
-4.51419e-08 3.2692e-08 -2.84983e-05
0.000872981 -2.05546e-05 -4.47682e-06
-2.05546e-05 -1.51094e-05 -2.07702e-06
-4.47682e-06 -2.07702e-06 -3.14555e-05
0.00094087 -1.12586e-05 2.22871e-06
-1.12586e-05 2.96311e-06 1.23449e-06
2.22871e-06 1.23449e-06 -4.02293e-05
0.000850613 -1.92433e-05 -3.76619e-08
-1.92433e-05 -3.48628e-05 2.94727e-08
-3.76619e-08 2.94727e-08 -4.84132e-05
0.00247811 -2.9763e-05 -1.14177e-05
-2.9763e-05 0.00077282 -2.95219e-06
-1.14177e-05 -2.95219e-06 0.000785199
0.00084223 -1.78588e-05 3.9773e-06
-1.78588e-05 -4.79349e-05 2.54591e-06
3.9773e-06 2.54591e-06 -5.88577e-05
0.00250786 -2.79799e-05 -1.48354e-07
-2.79799e-05 0.00077535 6.73198e-08
-1.48354e-07 6.73198e-08 0.000789752
0.00255841 -2.59106e-05 1.08455e-05
-2.59106e-05 0.000789954 3.36615e-06
1.08455e-05 3.36615e-06 0.000805939
0.00141769 -2.28277e-05 -7.22822e-07
-2.28277e-05 8.05296e-05 2.65275e-06
-7.22822e-07 2.65275e-06 2.10472e-05
0.00142773 -2.62261e-05 2.73562e-07
-2.62261e-05 6.17979e-05 -7.97988e-07
2.73562e-07 -7.97988e-07 1.30474e-05
0.00140591 -1.89662e-05 3.9441e-06
-1.89662e-05 2.99964e-05 -1.2245e-06
3.9441e-06 -1.2245e-06 -1.20479e-05
0.00119478 1.2154e-05 -7.58235e-07
1.2154e-05 -6.19048e-05 7.09468e-07
-7.58235e-07 7.09468e-07 -0.000136393
0.00142288 3.63607e-05 1.05006e-07
3.63607e-05 9.20936e-05 -5.39653e-07
1.05006e-07 -5.39653e-07 1.46376e-05
0.0012771 3.5218e-05 -8.2773e-07
3.5218e-05 0.000111842 1.1345e-06
-8.2773e-07 1.1345e-06 4.42713e-05
0.00161475 3.87866e-05 3.33239e-07
3.87866e-05 0.000234946 3.64206e-07
3.33239e-07 3.64206e-07 0.00016249
0.00157857 9.71008e-06 1.2542e-09
9.71008e-06 0.000100634 -3.22325e-09
1.2542e-09 -3.22325e-09 2.39304e-05
0.0014494 4.19405e-05 -1.76676e-08
4.19405e-05 8.88576e-05 5.85524e-07
-1.76676e-08 5.85524e-07 3.33924e-06
0.00168687 7.66453e-06 -3.63099e-07
7.66453e-06 0.000117172 -1.92956e-06
-3.63099e-07 -1.92956e-06 4.45465e-05
0.00109937 5.8175e-07 1.25299e-06
5.8175e-07 1.0699e-05 -3.46511e-08
1.25299e-06 -3.46511e-08 -4.51778e-05
0.00108054 1.08594e-06 -8.24196e-08
1.08594e-06 -2.31722e-06 -1.07291e-07
-8.24196e-08 -1.07291e-07 -5.37107e-05
0.00109807 -1.26029e-07 -8.10759e-07
-1.26029e-07 4.68646e-06 1.3196e-06
-8.10759e-07 1.3196e-06 -4.12756e-05
0.00126542 2.7611e-05 3.83369e-07
2.7611e-05 8.11636e-05 -6.25038e-07
3.83369e-07 -6.25038e-07 1.7806e-05
0.00140221 3.12852e-05 1.37935e-06
3.12852e-05 0.000121001 1.78943e-06
1.37935e-06 1.78943e-06 6.15689e-05
0.00124994 2.7088e-05 3.51173e-07
2.7088e-05 5.96157e-05 4.80463e-08
3.51173e-07 4.80463e-08 -1.80182e-06
0.00128568 2.49553e-05 -1.62246e-07
2.49553e-05 6.51337e-05 -4.86885e-07
-1.62246e-07 -4.86885e-07 2.94013e-06
0.00140857 2.14642e-05 5.38476e-07
2.14642e-05 8.02744e-05 6.59963e-07
5.38476e-07 6.59963e-07 1.47124e-05
0.00131816 1.83824e-05 -5.32815e-07
1.83824e-05 5.56059e-05 -4.18879e-07
-5.32815e-07 -4.18879e-07 -8.78223e-06
0.00130233 1.59814e-05 -1.30437e-06
1.59814e-05 6.30329e-05 -1.02433e-06
-1.30437e-06 -1.02433e-06 -2.95834e-06
0.00131827 6.3143e-07 9.97435e-07
6.3143e-07 5.73026e-05 1.12716e-07
9.97435e-07 1.12716e-07 -8.70715e-06
0.00128102 -3.9533e-06 2.27452e-08
-3.9533e-06 5.49942e-05 9.37353e-08
2.27452e-08 9.37353e-08 -1.08399e-05
0.00121134 -1.11544e-05 -1.36193e-06
-1.11544e-05 4.4923e-05 2.87262e-07
-1.36193e-06 2.87262e-07 -1.74949e-05
0.00126503 -1.83562e-05 7.32044e-07
-1.83562e-05 5.91549e-05 -4.71331e-07
7.32044e-07 -4.71331e-07 -4.05068e-06
0.0011893 -1.68784e-05 2.97642e-08
-1.68784e-05 4.32864e-05 5.49156e-08
2.97642e-08 5.49156e-08 -1.69665e-05
0.00103146 -7.4969e-06 -2.25504e-06
-7.4969e-06 9.27631e-06 7.44088e-07
-2.25504e-06 7.44088e-07 -4.287e-05
0.00116374 -1.75317e-05 1.05766e-06
-1.75317e-05 3.95036e-05 -5.43309e-07
1.05766e-06 -5.43309e-07 -1.82993e-05
0.00100411 -5.30335e-06 -4.37913e-08
-5.30335e-06 3.357e-06 3.6494e-09
-4.37913e-08 3.6494e-09 -4.68891e-05
0.00165378 2.33217e-05 -4.03277e-06
2.33217e-05 0.000380177 8.86816e-07
-4.03277e-06 8.86816e-07 0.000357282
0.00098033 -3.82125e-06 2.3396e-06
-3.82125e-06 -2.39412e-06 -8.42069e-07
2.3396e-06 -8.42069e-07 -5.11403e-05
0.0016321 2.45551e-05 2.80268e-06
2.45551e-05 0.000364458 -7.67752e-07
2.80268e-06 -7.67752e-07 0.00034447
0.0012273 2.6388e-05 -1.53992e-05
2.6388e-05 0.000184487 4.04888e-06
-1.53992e-05 4.04888e-06 0.000179778
0.00162736 2.46734e-05 9.27896e-06
2.46734e-05 0.000358297 -2.88622e-06
9.27896e-06 -2.88622e-06 0.000340982
0.00117767 2.65671e-05 -5.31266e-06
2.65671e-05 0.00015003 1.6999e-06
-5.31266e-06 1.6999e-06 0.000149
0.00266358 3.5567e-05 5.421e-06
3.5567e-05 0.000872997 -1.092e-06
5.421e-06 -1.092e-06 0.000882502
0.00154333 1.6071e-05 -8.88071e-07
1.6071e-05 0.000117939 -2.3175e-07
-8.88071e-07 -2.3175e-07 4.34884e-05
0.00135537 3.12552e-05 1.19178e-09
3.12552e-05 8.16354e-05 -1.34571e-06
1.19178e-09 -1.34571e-06 1.04539e-05
0.00139274 3.32557e-05 -7.48978e-07
3.32557e-05 8.1434e-05 7.2837e-07
-7.48978e-07 7.2837e-07 8.09001e-06
0.0013731 2.74216e-05 -5.01779e-07
2.74216e-05 0.000158351 -2.34968e-07
-5.01779e-07 -2.34968e-07 9.52516e-05
0.00123146 3.24887e-05 4.03761e-07
3.24887e-05 7.11429e-05 -4.22429e-07
4.03761e-07 -4.22429e-07 2.44165e-06
0.00118475 3.34361e-05 1.09383e-06
3.34361e-05 3.1625e-05 7.93107e-07
1.09383e-06 7.93107e-07 -3.32065e-05
0.00100064 4.57245e-06 -2.14112e-06
4.57245e-06 2.78751e-05 -1.16197e-06
-2.14112e-06 -1.16197e-06 -2.29626e-05
0.00111472 2.29954e-05 -1.95586e-08
2.29954e-05 5.5926e-05 -1.13505e-07
-1.95586e-08 -1.13505e-07 -6.4859e-06
0.00128769 3.38018e-05 7.47908e-07
3.38018e-05 0.00012094 7.08128e-07
7.47908e-07 7.08128e-07 5.05667e-05
0.00106474 1.74899e-05 8.54322e-07
1.74899e-05 4.27558e-05 2.47346e-07
8.54322e-07 2.47346e-07 -1.68789e-05
0.000973639 -3.06538e-06 1.91045e-08
-3.06538e-06 2.10994e-05 -1.43222e-08
1.91045e-08 -1.43222e-08 -2.65935e-05
0.000868983 -2.16333e-05 -4.40661e-06
-2.16333e-05 -9.11528e-06 -2.00056e-06
-4.40661e-06 -2.00056e-06 -2.85356e-05
0.000945019 -8.30169e-06 2.2527e-06
-8.30169e-06 7.97334e-06 1.04814e-06
2.2527e-06 1.04814e-06 -3.75263e-05
0.000831569 -2.02141e-05 -3.50026e-08
-2.02141e-05 -3.48806e-05 2.43971e-08
-3.50026e-08 2.43971e-08 -5.10885e-05
0.00251739 -3.15674e-05 -1.18924e-05
-3.15674e-05 0.000802987 -2.76711e-06
-1.18924e-05 -2.76711e-06 0.000813269
0.000817753 -1.90217e-05 4.17215e-06
-1.90217e-05 -5.07015e-05 2.37744e-06
4.17215e-06 2.37744e-06 -6.40998e-05
0.00253003 -3.00104e-05 -1.50087e-07
-3.00104e-05 0.000796329 7.30323e-08
-1.50087e-07 7.30323e-08 0.000808848
0.00256452 -2.81507e-05 1.1066e-05
-2.81507e-05 0.00080139 3.18646e-06
1.1066e-05 3.18646e-06 0.000815872
0.00140579 -1.76585e-05 7.93184e-08
-1.76585e-05 7.99161e-05 1.39195e-06
7.93184e-08 1.39195e-06 1.67139e-05
0.00147085 -2.26484e-05 -9.32396e-08
-2.26484e-05 9.81488e-05 6.57704e-07
-9.32396e-08 6.57704e-07 3.78568e-05
0.00134555 -2.53537e-05 -8.57663e-07
-2.53537e-05 2.44616e-05 -2.84127e-06
-8.57663e-07 -2.84127e-06 -2.41925e-05
0.00136403 1.18961e-05 -1.01236e-08
1.18961e-05 9.0536e-06 -1.83163e-07
-1.01236e-08 -1.83163e-07 -6.59386e-05
0.00143064 3.60724e-05 3.11106e-07
3.60724e-05 9.58267e-05 4.04643e-07
3.11106e-07 4.04643e-07 1.85345e-05
0.00170977 1.11334e-05 6.20456e-07
1.11334e-05 0.000161032 -1.31934e-06
6.20456e-07 -1.31934e-06 8.43151e-05
0.00115696 -1.11261e-06 5.49314e-07
-1.11261e-06 3.4833e-05 1.73438e-07
5.49314e-07 1.73438e-07 -2.83543e-05
0.00112097 8.5631e-07 5.10619e-07
8.5631e-07 2.59896e-05 -6.61065e-08
5.10619e-07 -6.61065e-08 -3.00248e-05
0.00126071 1.89159e-06 2.98516e-07
1.89159e-06 7.64788e-05 6.03811e-07
2.98516e-07 6.03811e-07 2.32097e-05
0.00126191 2.34299e-05 -4.60251e-07
2.34299e-05 7.90134e-05 1.42556e-07
-4.60251e-07 1.42556e-07 1.51332e-05
0.00126104 2.18982e-05 3.91679e-07
2.18982e-05 7.60853e-05 -2.56185e-07
3.91679e-07 -2.56185e-07 9.6482e-06
0.00124651 2.72847e-05 5.35111e-07
2.72847e-05 5.79726e-05 1.14144e-06
5.35111e-07 1.14144e-06 -3.81321e-06
0.00126238 2.46498e-05 2.53186e-07
2.46498e-05 5.45247e-05 4.34943e-07
2.53186e-07 4.34943e-07 -7.70909e-06
0.00137744 2.49154e-05 -5.69659e-08
2.49154e-05 0.000111862 -4.31748e-07
-5.69659e-08 -4.31748e-07 4.82704e-05
0.00131862 1.75924e-05 7.3024e-07
1.75924e-05 5.63275e-05 7.33019e-07
7.3024e-07 7.33019e-07 -8.02578e-06
0.00128645 1.43833e-05 -3.61613e-07
1.43833e-05 5.56637e-05 -2.28845e-07
-3.61613e-07 -2.28845e-07 -1.01241e-05
0.00122153 8.7584e-06 -1.78702e-06
8.7584e-06 4.80202e-05 -1.73111e-07
-1.78702e-06 -1.73111e-07 -1.57112e-05
0.00127605 -4.21596e-06 7.81508e-07
-4.21596e-06 5.26538e-05 -1.05539e-07
7.81508e-07 -1.05539e-07 -1.31818e-05
0.00121259 -1.0373e-05 1.26179e-08
-1.0373e-05 4.52674e-05 1.82673e-08
1.26179e-08 1.82673e-08 -1.71585e-05
0.00104388 -5.85825e-06 -2.39365e-06
-5.85825e-06 8.84862e-06 5.16452e-07
-2.39365e-06 5.16452e-07 -4.50905e-05
0.00119304 -1.6549e-05 1.28157e-06
-1.6549e-05 4.46432e-05 -3.94749e-07
1.28157e-06 -3.94749e-07 -1.56111e-05
0.00102348 -6.90658e-06 5.85641e-09
-6.90658e-06 5.63845e-06 6.05549e-08
5.85641e-09 6.05549e-08 -4.65558e-05
0.00161853 1.78345e-05 -4.01064e-06
1.78345e-05 0.000367915 7.00128e-07
-4.01064e-06 7.00128e-07 0.000341917
0.000997359 -4.78478e-06 2.28398e-06
-4.78478e-06 1.74803e-07 -8.1006e-07
2.28398e-06 -8.1006e-07 -5.00781e-05
0.00164813 2.09784e-05 2.95254e-06
2.09784e-05 0.000376176 -6.89478e-07
2.95254e-06 -6.89478e-07 0.000353123
0.00123664 2.65702e-05 -1.6247e-05
2.65702e-05 0.000202008 3.62278e-06
-1.6247e-05 3.62278e-06 0.000193636
0.00162852 2.3309e-05 9.58547e-06
2.3309e-05 0.000362054 -2.57397e-06
9.58547e-06 -2.57397e-06 0.000341836
0.00119687 2.74043e-05 -5.61237e-06
2.74043e-05 0.00016962 1.59408e-06
-5.61237e-06 1.59408e-06 0.000165249
0.00115401 2.76028e-05 4.05752e-06
2.76028e-05 0.00013873 -9.91683e-07
4.05752e-06 -9.91683e-07 0.000137967
0.0015007 -9.86352e-06 -5.77579e-08
-9.86352e-06 0.000107493 9.35925e-07
-5.77579e-08 9.35925e-07 4.5349e-05
0.00139995 1.83568e-05 -1.00651e-06
1.83568e-05 7.09114e-05 -1.74298e-07
-1.00651e-06 -1.74298e-07 -2.11963e-06
0.00152996 1.56114e-05 -4.2558e-07
1.56114e-05 0.000108274 -4.58343e-07
-4.2558e-07 -4.58343e-07 3.36928e-05
0.00133132 2.75712e-05 -8.6502e-07
2.75712e-05 0.000102459 -6.63857e-07
-8.6502e-07 -6.63857e-07 3.67685e-05
0.00141644 3.16719e-05 4.0493e-07
3.16719e-05 0.000113443 4.33803e-07
4.0493e-07 4.33803e-07 4.26758e-05
0.00144449 3.39777e-05 1.14304e-06
3.39777e-05 0.000111963 1.59371e-06
1.14304e-06 1.59371e-06 3.9299e-05
0.00097805 9.75627e-06 -2.32066e-06
9.75627e-06 2.20179e-06 -9.84454e-07
-2.32066e-06 -9.84454e-07 -5.13773e-05
0.0011626 2.59311e-05 5.01272e-07
2.59311e-05 5.59862e-05 4.44882e-07
5.01272e-07 4.44882e-07 -8.14591e-06
0.00112557 3.18901e-05 5.8012e-07
3.18901e-05 1.99169e-05 9.96488e-07
5.8012e-07 9.96488e-07 -4.89091e-05
0.000872661 -1.87468e-05 -4.52523e-06
-1.87468e-05 -3.90372e-06 -2.07908e-06
-4.52523e-06 -2.07908e-06 -2.73241e-05
0.000979185 3.17188e-06 7.85203e-09
3.17188e-06 1.9176e-05 -5.30813e-08
7.85203e-09 -5.30813e-08 -3.1797e-05
0.00111487 2.32044e-05 8.76107e-07
2.32044e-05 5.631e-05 5.63337e-07
8.76107e-07 5.63337e-07 -6.14763e-06
0.000953328 -4.50045e-06 2.21534e-06
-4.50045e-06 1.32571e-05 9.07723e-07
2.21534e-06 9.07723e-07 -3.46582e-05
0.000811711 -2.10774e-05 -5.17532e-09
-2.10774e-05 -3.59817e-05 -3.27994e-08
-5.17532e-09 -3.27994e-08 -5.52788e-05
0.00259085 -3.32393e-05 -1.26251e-05
-3.32393e-05 0.000849488 -2.65689e-06
-1.26251e-05 -2.65689e-06 0.000857428
0.000790607 -1.98826e-05 4.38773e-06
-1.98826e-05 -5.4433e-05 2.1829e-06
4.38773e-06 2.1829e-06 -7.05037e-05
0.00256477 -3.18679e-05 -1.47544e-07
-3.18679e-05 0.000824237 7.62924e-08
-1.47544e-07 7.62924e-08 0.000834691
0.00258317 -3.0248e-05 1.13279e-05
-3.0248e-05 0.000820413 3.00384e-06
1.13279e-05 3.00384e-06 0.000833073
0.00133482 -2.2953e-05 7.68462e-07
-2.2953e-05 7.84846e-05 -4.42665e-07
7.68462e-07 -4.42665e-07 9.70984e-06
0.00141096 -1.72809e-05 -1.88813e-07
-1.72809e-05 7.90177e-05 3.57107e-07
-1.88813e-07 3.57107e-07 1.54719e-05
0.00152543 -2.24934e-05 -1.58213e-07
-2.24934e-05 0.000116295 -1.54602e-06
-1.58213e-07 -1.54602e-06 5.52027e-05
0.00154216 1.16262e-05 9.16352e-07
1.16262e-05 8.43099e-05 -5.69036e-07
9.16352e-07 -5.69036e-07 8.79155e-06
0.00118656 -2.06221e-06 1.11309e-07
-2.06221e-06 4.20182e-05 8.48904e-08
1.11309e-07 8.48904e-08 -2.60715e-05
0.00119977 -2.17032e-06 -2.70482e-07
-2.17032e-06 5.68526e-05 -5.22858e-08
-2.70482e-07 -5.22858e-08 -5.92789e-06
0.0011435 1.1232e-06 -6.65162e-07
1.1232e-06 4.15414e-05 1.86803e-07
-6.65162e-07 1.86803e-07 -1.45856e-05
0.00123985 2.07218e-05 -1.14466e-06
2.07218e-05 6.81046e-05 1.12028e-06
-1.14466e-06 1.12028e-06 3.64572e-06
0.00124189 2.43211e-05 2.11958e-07
2.43211e-05 6.83353e-05 1.15875e-07
2.11958e-07 1.15875e-07 2.06298e-06
0.00124051 2.40228e-05 -5.2092e-07
2.40228e-05 6.91025e-05 -3.14696e-07
-5.2092e-07 -3.14696e-07 4.2219e-06
0.00123847 2.43179e-05 8.25007e-07
2.43179e-05 4.34913e-05 1.4993e-06
8.25007e-07 1.4993e-06 -1.87654e-05
0.0013233 2.46272e-05 2.58394e-07
2.46272e-05 8.69088e-05 3.36075e-07
2.58394e-07 3.36075e-07 2.33397e-05
0.00121893 2.42438e-05 -1.1233e-06
2.42438e-05 5.28562e-05 -6.44639e-07
-1.1233e-06 -6.44639e-07 -1.04591e-05
0.00126783 1.42225e-05 5.28918e-07
1.42225e-05 4.70891e-05 5.80754e-07
5.28918e-07 5.80754e-07 -1.85294e-05
0.0012101 1.01124e-05 -2.04891e-07
1.01124e-05 4.29345e-05 1.05446e-07
-2.04891e-07 1.05446e-07 -2.06891e-05
0.00105769 7.94198e-06 -2.48413e-06
7.94198e-06 1.43844e-05 2.54453e-07
-2.48413e-06 2.54453e-07 -4.13661e-05
0.00121156 -7.36926e-06 1.34727e-06
-7.36926e-06 4.45933e-05 -2.48627e-07
1.34727e-06 -2.48627e-07 -1.78471e-05
0.00104416 -5.83461e-06 1.73447e-08
-5.83461e-06 9.03642e-06 4.90762e-08
1.73447e-08 4.90762e-08 -4.49674e-05
0.000715063 7.78816e-06 -4.99913e-06
7.78816e-06 -7.18608e-05 1.06321e-06
-4.99913e-06 1.06321e-06 -0.000105538
0.00101732 -6.34753e-06 2.35539e-06
-6.34753e-06 2.84016e-06 -6.2635e-07
2.35539e-06 -6.2635e-07 -4.9403e-05
0.00118827 1.32008e-05 3.58304e-06
1.32008e-05 0.000154745 -5.87793e-07
3.58304e-06 -5.87793e-07 0.000126009
0.00304324 4.07381e-05 -1.52327e-05
4.07381e-05 0.00110229 1.89766e-06
-1.52327e-05 1.89766e-06 0.00110142
0.00164363 1.88349e-05 9.95433e-06
1.88349e-05 0.000372751 -2.26122e-06
9.95433e-06 -2.26122e-06 0.000349535
0.0012121 2.77345e-05 -5.95099e-06
2.77345e-05 0.000189989 1.44838e-06
-5.95099e-06 1.44838e-06 0.000181926
0.00116342 2.84462e-05 4.28165e-06
2.84462e-05 0.000153349 -8.89118e-07
4.28165e-06 -8.89118e-07 0.000149319
0.0014683 -1.84089e-05 6.24282e-07
-1.84089e-05 0.000122137 -6.17895e-07
6.24282e-07 -6.17895e-07 5.64501e-05
0.00136197 -3.6527e-06 -5.71348e-07
-3.6527e-06 5.23852e-05 7.99291e-07
-5.71348e-07 7.99291e-07 -1.27519e-05
0.00138356 -9.50391e-06 1.66168e-07
-9.50391e-06 5.57147e-05 1.1705e-08
1.66168e-07 1.1705e-08 -7.06697e-06
0.00103651 1.91153e-05 -1.52514e-06
1.91153e-05 -6.69928e-05 -4.77414e-07
-1.52514e-06 -4.77414e-07 -0.00013573
0.00143541 1.82899e-05 1.10807e-07
1.82899e-05 9.02277e-05 -4.34628e-09
1.10807e-07 -4.34628e-09 1.84019e-05
0.00151616 1.51754e-05 5.56058e-07
1.51754e-05 9.83927e-05 -6.60562e-07
5.56058e-07 -6.60562e-07 2.36846e-05
0.000773266 1.17636e-05 -3.03451e-06
1.17636e-05 -0.000122019 -1.3516e-06
-3.03451e-06 -1.3516e-06 -0.000179116
0.00133562 2.77279e-05 3.00968e-07
2.77279e-05 0.000104354 1.72167e-08
3.00968e-07 1.72167e-08 3.86048e-05
0.00147931 3.21465e-05 8.22315e-07
3.21465e-05 0.000146029 1.27875e-06
8.22315e-07 1.27875e-06 7.56823e-05
0.000864752 -1.22105e-05 -5.03099e-06
-1.22105e-05 -1.13152e-05 -1.93422e-06
-5.03099e-06 -1.93422e-06 -3.91188e-05
0.000853912 8.61962e-06 -5.31208e-08
8.61962e-06 -5.86768e-05 9.07054e-08
-5.31208e-08 9.07054e-08 -0.000113196
0.000952865 2.43995e-05 1.47503e-06
2.43995e-05 -4.59913e-05 1.25176e-06
1.47503e-06 1.25176e-06 -0.000111159
0.00274805 -3.49169e-05 -1.39507e-05
-3.49169e-05 0.00093497 -2.63487e-06
-1.39507e-05 -2.63487e-06 0.000940129
0.000796883 -2.02277e-05 -5.62704e-08
-2.02277e-05 -3.85761e-05 -8.23021e-08
-5.62704e-08 -8.23021e-08 -6.1949e-05
0.000957524 1.62662e-06 2.02286e-06
1.62662e-06 1.03855e-05 1.01699e-06
2.02286e-06 1.01699e-06 -4.07198e-05
0.000753548 -2.05131e-05 4.51611e-06
-2.05131e-05 -6.32564e-05 2.04146e-06
4.51611e-06 2.04146e-06 -8.24304e-05
0.00262666 -3.36179e-05 -1.31443e-07
-3.36179e-05 0.000865402 7.42755e-08
-1.31443e-07 7.42755e-08 0.000873577
0.00261362 -3.21574e-05 1.16935e-05
-3.21574e-05 0.00084615 2.81613e-06
1.16935e-05 2.81613e-06 0.000856778
0.00121136 -2.26192e-05 2.63808e-09
-2.26192e-05 4.105e-05 1.69506e-07
2.63808e-09 1.69506e-07 -2.79709e-05
0.00128026 -2.23127e-05 -2.70719e-07
-2.23127e-05 5.57299e-05 -6.49349e-07
-2.70719e-07 -6.49349e-07 -1.18023e-05
0.0014143 -1.68416e-05 -1.06443e-07
-1.68416e-05 7.7321e-05 -8.55355e-07
-1.06443e-07 -8.55355e-07 1.34286e-05
0.00123994 1.12725e-05 1.74321e-08
1.12725e-05 6.74399e-05 -1.35686e-08
1.74321e-08 -1.35686e-08 6.43283e-08
0.00124958 1.07904e-07 -1.2434e-07
1.07904e-07 7.19175e-05 7.80484e-08
-1.2434e-07 7.80484e-08 3.70807e-06
0.00124607 -4.38214e-06 -1.29765e-06
-4.38214e-06 8.04654e-05 5.55282e-08
-1.29765e-06 5.55282e-08 1.81501e-05
0.00123128 2.51269e-05 -1.43106e-07
2.51269e-05 6.45315e-05 7.23809e-08
-1.43106e-07 7.23809e-08 -1.50252e-06
0.0012366 2.42523e-05 1.19247e-07
2.42523e-05 6.65853e-05 2.25392e-07
1.19247e-07 2.25392e-07 1.85291e-06
0.00125719 2.04253e-05 -6.14161e-07
2.04253e-05 9.0797e-05 -2.16802e-07
-6.14161e-07 -2.16802e-07 2.86095e-05
0.0012737 2.43723e-05 9.42774e-07
2.43723e-05 6.40957e-05 1.47412e-06
9.42774e-07 1.47412e-06 5.45294e-07
0.0012744 2.52938e-05 3.13124e-08
2.52938e-05 8.1851e-05 4.21575e-08
3.13124e-08 4.21575e-08 1.90116e-05
0.000914008 2.06134e-05 -2.77708e-06
2.06134e-05 -5.20826e-05 -1.76621e-07
-2.77708e-06 -1.76621e-07 -0.000109721
0.00119359 9.09939e-06 1.23098e-06
9.09939e-06 3.54656e-05 4.02147e-07
1.23098e-06 4.02147e-07 -2.80503e-05
0.00104575 8.47221e-06 -2.57074e-08
8.47221e-06 8.99112e-06 8.66177e-08
-2.57074e-08 8.66177e-08 -4.67421e-05
0.000708754 9.13134e-06 -5.03924e-06
9.13134e-06 -6.88737e-05 7.22119e-07
-5.03924e-06 7.22119e-07 -0.000104671
0.00104284 -5.49086e-06 2.46442e-06
-5.49086e-06 8.46462e-06 -4.07186e-07
2.46442e-06 -4.07186e-07 -4.56014e-05
0.000745771 9.57701e-06 -7.23636e-09
9.57701e-06 -5.88335e-05 1.14167e-07
-7.23636e-09 1.14167e-07 -9.24481e-05
0.00314517 4.22482e-05 -1.58872e-05
4.22482e-05 0.00116253 1.4954e-06
-1.58872e-05 1.4954e-06 0.00115958
0.000753751 9.40191e-06 6.85304e-06
9.40191e-06 -6.03417e-05 -1.97017e-06
6.85304e-06 -1.97017e-06 -9.1859e-05
0.00211075 3.45155e-05 3.56793e-06
3.45155e-05 0.000646128 2.47551e-07
3.56793e-06 2.47551e-07 0.000639796
0.00118409 2.89508e-05 4.50293e-06
2.89508e-05 0.000176307 -7.67006e-07
4.50293e-06 -7.67006e-07 0.000168561
0.00148603 -2.55693e-05 1.1266e-07
-2.55693e-05 0.000154416 -1.20489e-07
1.1266e-07 -1.20489e-07 8.6101e-05
0.00133498 -1.45643e-05 -2.93248e-07
-1.45643e-05 6.15646e-05 -2.28646e-07
-2.93248e-07 -2.28646e-07 -2.38467e-06
0.00133987 -1.76314e-05 -3.6657e-07
-1.76314e-05 6.12647e-05 1.08513e-08
-3.6657e-07 1.08513e-08 -4.48478e-06
0.00122142 2.65749e-06 -1.24375e-06
2.65749e-06 1.83327e-05 5.47146e-07
-1.24375e-06 5.47146e-07 -4.65851e-05
0.0013141 -4.08753e-06 3.79304e-07
-4.08753e-06 3.27908e-05 -2.43492e-07
3.79304e-07 -2.43492e-07 -3.21454e-05
0.00126523 -9.18318e-06 4.42782e-07
-9.18318e-06 3.32699e-06 -5.6952e-07
4.42782e-07 -5.6952e-07 -6.00864e-05
0.000799854 1.13524e-05 -3.21772e-06
1.13524e-05 -0.000130482 -1.06784e-06
-3.21772e-06 -1.06784e-06 -0.00018969
0.00129595 2.13831e-05 -4.03011e-07
2.13831e-05 5.82106e-05 3.10995e-08
-4.03011e-07 3.10995e-08 -9.42895e-06
0.00146926 1.81749e-05 1.13649e-06
1.81749e-05 0.0001088 -4.24619e-07
1.13649e-06 -4.24619e-07 3.81777e-05
0.000842591 -5.36423e-06 -5.51261e-06
-5.36423e-06 -2.85938e-05 -1.74123e-06
-5.51261e-06 -1.74123e-06 -6.01342e-05
0.000799291 1.2639e-05 -6.66025e-07
1.2639e-05 -0.000111779 -3.75604e-07
-6.66025e-07 -3.75604e-07 -0.000169344
0.00134027 2.79279e-05 1.43312e-06
2.79279e-05 0.000106419 8.27404e-07
1.43312e-06 8.27404e-07 4.06103e-05
0.00296792 -3.66546e-05 -1.56215e-05
-3.66546e-05 0.00104922 -2.50218e-06
-1.56215e-05 -2.50218e-06 0.00105143
0.000792041 -1.38819e-05 -2.453e-07
-1.38819e-05 -4.37225e-05 3.15243e-08
-2.453e-07 3.15243e-08 -7.15541e-05
0.000729162 7.62412e-06 2.02933e-06
7.62412e-06 -0.000119893 1.2119e-06
2.02933e-06 1.2119e-06 -0.000175347
0.0027571 -3.53965e-05 -1.27052e-07
-3.53965e-05 0.000938586 8.12811e-08
-1.27052e-07 8.12811e-08 0.000944102
0.000719652 -2.10527e-05 4.45847e-06
-2.10527e-05 -7.39178e-05 2.08384e-06
4.45847e-06 2.08384e-06 -9.72408e-05
0.00266274 -3.39355e-05 1.21162e-05
-3.39355e-05 0.000881383 2.6325e-06
1.21162e-05 2.6325e-06 0.000889802
0.00121249 -8.7907e-06 -2.6328e-07
-8.7907e-06 4.62145e-05 1.18616e-07
-2.6328e-07 1.18616e-07 -2.16217e-05
0.00126487 -2.19559e-05 4.28717e-07
-2.19559e-05 6.4453e-05 -3.46964e-07
4.28717e-07 -3.46964e-07 -4.47281e-06
0.00122989 -2.17371e-05 -9.27465e-07
-2.17371e-05 3.4966e-05 -9.80676e-07
-9.27465e-07 -9.80676e-07 -3.13284e-05
0.00126372 2.64548e-06 -5.90263e-07
2.64548e-06 8.91722e-05 2.42034e-08
-5.90263e-07 2.42034e-08 2.44221e-05
0.00127676 1.1662e-05 -5.06145e-09
1.1662e-05 8.52507e-05 -1.02727e-07
-5.06145e-09 -1.02727e-07 1.77355e-05
0.00130926 3.88036e-06 -4.39896e-08
3.88036e-06 0.000100395 3.03831e-07
-4.39896e-08 3.03831e-07 3.19724e-05
0.00123273 2.41992e-05 3.62836e-07
2.41992e-05 6.40889e-05 9.61618e-08
3.62836e-07 9.61618e-08 -4.86364e-07
0.00125042 2.03283e-05 2.46981e-07
2.03283e-05 8.66515e-05 3.37856e-09
2.46981e-07 3.37856e-09 2.46468e-05
0.000866331 1.55092e-05 -2.45226e-06
1.55092e-05 -6.65928e-05 -1.11147e-07
-2.45226e-06 -1.11147e-07 -0.00012461
0.00133489 2.63983e-05 1.2214e-06
2.63983e-05 0.000113132 7.93932e-07
1.2214e-06 7.93932e-07 5.07761e-05
0.000986764 2.20768e-05 -4.27691e-07
2.20768e-05 -1.62642e-05 7.27151e-08
-4.27691e-07 7.27151e-08 -7.3515e-05
0.000712601 1.48615e-05 -5.18168e-06
1.48615e-05 -5.99099e-05 5.63466e-07
-5.18168e-06 5.63466e-07 -9.79952e-05
0.00103362 8.61043e-06 2.32672e-06
8.61043e-06 3.50407e-06 -5.18606e-08
2.32672e-06 -5.18606e-08 -5.22065e-05
0.000726468 1.29494e-05 3.50119e-08
1.29494e-05 -6.16714e-05 2.70635e-08
3.50119e-08 2.70635e-08 -9.74682e-05
0.00314671 4.2554e-05 -1.66861e-05
4.2554e-05 0.00117699 1.09653e-06
-1.66861e-05 1.09653e-06 0.00117198
0.00077651 1.10146e-05 5.03353e-06
1.10146e-05 -4.58055e-05 -8.19095e-07
5.03353e-06 -8.19095e-07 -7.93494e-05
0.00308637 4.13037e-05 1.60916e-07
4.13037e-05 0.00113691 1.2814e-07
1.60916e-07 1.2814e-07 0.00113372
0.00118525 2.60155e-05 1.39516e-05
2.60155e-05 0.00019308 -1.63562e-06
1.39516e-05 -1.63562e-06 0.000181411
0.0014164 -2.08512e-05 -5.03963e-07
-2.08512e-05 0.000126433 -1.00993e-08
-5.03963e-07 -1.00993e-08 6.02515e-05
0.00138928 -2.5083e-05 3.06688e-07
-2.5083e-05 0.00010731 2.08234e-08
3.06688e-07 2.08234e-08 3.83275e-05
0.00123152 -1.4151e-05 -8.62036e-07
-1.4151e-05 3.63619e-05 3.2475e-08
-8.62036e-07 3.2475e-08 -2.69777e-05
0.00131167 -1.48478e-05 1.71204e-07
-1.48478e-05 5.11e-05 -2.63721e-07
1.71204e-07 -2.63721e-07 -1.27345e-05
0.00121305 -1.68636e-05 9.6586e-09
-1.68636e-05 1.20443e-06 6.20221e-07
9.6586e-09 6.20221e-07 -6.46145e-05
0.00106246 2.64743e-06 -2.6372e-06
2.64743e-06 -8.34065e-06 -1.16475e-07
-2.6372e-06 -1.16475e-07 -6.5897e-05
0.00125911 2.77709e-06 2.52545e-08
2.77709e-06 3.50998e-05 1.4946e-07
2.52545e-08 1.4946e-07 -2.99158e-05
0.0012645 -4.47142e-06 3.97969e-07
-4.47142e-06 1.24093e-05 -1.1247e-06
3.97969e-07 -1.1247e-06 -5.23304e-05
0.000807096 -2.39355e-06 -5.7673e-06
-2.39355e-06 -4.9074e-05 -1.43264e-06
-5.7673e-06 -1.43264e-06 -8.32393e-05
0.00095135 1.30425e-05 -7.98259e-07
1.30425e-05 -5.80568e-05 -2.08694e-07
-7.98259e-07 -2.08694e-07 -0.000116757
0.00155443 2.35529e-05 1.10149e-06
2.35529e-05 0.000182942 3.7362e-07
1.10149e-06 3.7362e-07 0.000116407
0.00317006 -3.82357e-05 -1.72143e-05
-3.82357e-05 0.0011548 -2.24634e-06
-1.72143e-05 -2.24634e-06 0.00115436
0.000788195 -6.24104e-06 -1.47151e-07
-6.24104e-06 -5.20856e-05 6.90559e-08
-1.47151e-07 6.90559e-08 -8.37063e-05
0.000826248 1.35741e-05 1.77176e-06
1.35741e-05 -0.000101127 7.19402e-07
1.77176e-06 7.19402e-07 -0.000159158
0.00296243 -3.71919e-05 -1.73614e-07
-3.71919e-05 0.00104611 1.20086e-07
-1.73614e-07 1.20086e-07 0.00104872
0.000720088 -1.62404e-05 4.47327e-06
-1.62404e-05 -7.56614e-05 2.1767e-06
4.47327e-06 2.1767e-06 -0.00010355
0.0027675 -3.57495e-05 1.2715e-05
-3.57495e-05 0.000942769 2.50548e-06
1.2715e-05 2.50548e-06 0.000948655
0.0012972 -4.31013e-06 -5.70615e-07
-4.31013e-06 9.79871e-05 -8.52758e-08
-5.70615e-07 -8.52758e-08 3.31422e-05
0.00124976 -1.10866e-05 -2.4757e-09
-1.10866e-05 6.35407e-05 -2.05275e-08
-2.4757e-09 -2.05275e-08 -4.08277e-06
0.00131885 -2.16192e-05 3.63949e-07
-2.16192e-05 8.81777e-05 -5.70214e-07
3.63949e-07 -5.70214e-07 1.93255e-05
0.000894656 -5.2036e-06 -2.43008e-06
-5.2036e-06 -5.69898e-05 1.35101e-07
-2.43008e-06 1.35101e-07 -0.00011681
0.00126731 7.69492e-06 2.63532e-07
7.69492e-06 9.11321e-05 4.3161e-08
2.63532e-07 4.3161e-08 2.64016e-05
0.00131486 1.24036e-05 3.02809e-07
1.24036e-05 0.00010365 -1.47516e-08
3.02809e-07 -1.47516e-08 3.60007e-05
0.00124452 2.01978e-05 1.03266e-06
2.01978e-05 8.29591e-05 2.82053e-07
1.03266e-06 2.82053e-07 2.11282e-05
0.000883556 1.51277e-05 -4.01522e-07
1.51277e-05 -5.86236e-05 -2.83447e-08
-4.01522e-07 -2.83447e-08 -0.000116508
0.000705415 1.67034e-05 -5.22308e-06
1.67034e-05 -5.72463e-05 1.87444e-07
-5.22308e-06 1.87444e-07 -9.7124e-05
0.00105659 2.36495e-05 1.94914e-06
2.36495e-05 1.82517e-05 3.20196e-07
1.94914e-06 3.20196e-07 -3.86257e-05
0.000715924 1.94205e-05 1.22732e-07
1.94205e-05 -5.90114e-05 1.43946e-07
1.22732e-07 1.43946e-07 -9.71095e-05
0.00314397 4.28534e-05 -1.74863e-05
4.28534e-05 0.00118776 7.21971e-07
-1.74863e-05 7.21971e-07 0.00118094
0.000746678 1.84635e-05 4.97228e-06
1.84635e-05 -5.32606e-05 -6.38283e-07
4.97228e-06 -6.38283e-07 -8.90851e-05
0.00309846 4.16509e-05 2.25071e-07
4.16509e-05 0.00115603 1.0966e-07
2.25071e-07 1.0966e-07 0.00115081
0.00303496 4.03282e-05 1.66893e-05
4.03282e-05 0.00111473 -1.26441e-06
1.66893e-05 -1.26441e-06 0.00111131
0.00127168 -1.79161e-05 -9.0787e-07
-1.79161e-05 7.3832e-05 -1.157e-07
-9.0787e-07 -1.157e-07 9.38996e-06
0.00135962 -2.1421e-05 6.13358e-08
-2.1421e-05 9.82154e-05 2.94435e-07
6.13358e-08 2.94435e-07 3.16908e-05
0.00128962 -2.45122e-05 1.50971e-07
-2.45122e-05 5.87291e-05 2.77338e-07
1.50971e-07 2.77338e-07 -1.09046e-05
0.00105956 -1.19145e-05 -2.34269e-06
-1.19145e-05 -2.38792e-07 -2.69222e-07
-2.34269e-06 -2.69222e-07 -5.74746e-05
0.0012389 -1.44777e-05 1.86619e-07
-1.44777e-05 3.98987e-05 -1.92792e-07
1.86619e-07 -1.92792e-07 -2.34684e-05
0.00128929 -1.51252e-05 5.82581e-08
-1.51252e-05 4.10302e-05 -4.81937e-07
5.82581e-08 -4.81937e-07 -2.26841e-05
0.000757693 -5.89431e-06 -5.67833e-06
-5.89431e-06 -6.88117e-05 -1.00179e-06
-5.67833e-06 -1.00179e-06 -0.000104279
0.0010911 2.43572e-06 2.39824e-09
2.43572e-06 4.73875e-06 1.96944e-07
2.39824e-09 1.96944e-07 -5.29211e-05
0.00129676 2.84857e-06 1.32624e-06
2.84857e-06 5.18539e-05 -2.15152e-07
1.32624e-06 -2.15152e-07 -1.3261e-05
0.0032888 -3.94823e-05 -1.83937e-05
-3.94823e-05 0.00122138 -1.87073e-06
-1.83937e-05 -1.87073e-06 0.00121879
0.000774743 -2.58609e-06 -6.17453e-08
-2.58609e-06 -6.26124e-05 1.45582e-07
-6.17453e-08 1.45582e-07 -9.68605e-05
0.00110326 1.48103e-05 2.01202e-06
1.48103e-05 1.45809e-05 6.94382e-07
2.01202e-06 6.94382e-07 -4.3617e-05
0.00317259 -3.88697e-05 -1.56807e-07
-3.88697e-05 0.00115526 1.37139e-07
-1.56807e-07 1.37139e-07 0.00115515
0.000733791 -7.37982e-06 5.10737e-06
-7.37982e-06 -7.55529e-05 1.98026e-06
5.10737e-06 1.98026e-06 -0.000107248
0.0029566 -3.76863e-05 1.38655e-05
-3.76863e-05 0.00104276 2.43461e-06
1.38655e-05 2.43461e-06 0.00104579
0.00105852 -8.3244e-06 -2.09472e-06
-8.3244e-06 1.84884e-05 -1.961e-07
-2.09472e-06 -1.961e-07 -4.05056e-05
0.00121748 -8.32809e-06 1.96549e-07
-8.32809e-06 5.95105e-05 -1.60964e-09
1.96549e-07 -1.60964e-09 -5.90125e-06
0.00128219 -1.43526e-05 6.78083e-07
-1.43526e-05 7.85018e-05 1.68049e-08
6.78083e-07 1.68049e-08 1.10892e-05
0.000698166 4.93209e-06 -5.16915e-06
4.93209e-06 -6.0393e-05 8.68668e-08
-5.16915e-06 8.68668e-08 -0.000101216
0.000895102 7.93074e-08 -3.50325e-07
7.93074e-08 -5.57763e-05 1.73135e-07
-3.50325e-07 1.73135e-07 -0.000115355
0.00127271 1.23809e-05 1.02753e-06
1.23809e-05 9.3984e-05 -6.5379e-08
1.02753e-06 -6.5379e-08 2.92585e-05
0.000902258 1.51099e-05 1.66672e-06
1.51099e-05 -5.00111e-05 1.95682e-07
1.66672e-06 1.95682e-07 -0.000107763
0.000706387 1.68792e-05 2.41737e-08
1.68792e-05 -5.73997e-05 1.69118e-08
2.41737e-08 1.69118e-08 -9.72317e-05
0.00312607 4.28664e-05 -1.79172e-05
4.28664e-05 0.00118887 3.09212e-07
-1.79172e-05 3.09212e-07 0.00118065
0.000717902 2.25175e-05 5.18858e-06
2.25175e-05 -5.879e-05 -2.38219e-07
5.18858e-06 -2.38219e-07 -9.68788e-05
0.0031002 4.18399e-05 4.48362e-07
4.18399e-05 0.00116869 1.46554e-07
4.48362e-07 1.46554e-07 0.0011617
0.00304725 4.04826e-05 1.78488e-05
4.04826e-05 0.00113366 -9.01406e-07
1.78488e-05 -9.01406e-07 0.00112825
0.0010537 -1.59146e-05 -2.27375e-06
-1.59146e-05 1.01921e-05 -4.19777e-07
-2.27375e-06 -4.19777e-07 -4.78923e-05
0.00122628 -1.89919e-05 -1.98762e-08
-1.89919e-05 5.20255e-05 4.27222e-08
-1.98762e-08 4.27222e-08 -1.261e-05
0.00130579 -2.21006e-05 4.70701e-07
-2.21006e-05 7.15043e-05 2.18191e-07
4.70701e-07 2.18191e-07 4.6186e-06
0.00170141 -2.09128e-05 -9.97021e-06
-2.09128e-05 0.000406124 -7.69586e-07
-9.97021e-06 -7.69586e-07 0.00037546
0.00108137 -1.19659e-05 1.50023e-07
-1.19659e-05 9.91556e-06 -4.93248e-08
1.50023e-07 -4.93248e-08 -4.74093e-05
0.00124772 -1.50089e-05 1.04168e-06
-1.50089e-05 4.41212e-05 -4.30112e-07
1.04168e-06 -4.30112e-07 -1.92806e-05
0.00326838 -4.02404e-05 -1.87885e-05
-4.02404e-05 0.00122402 -1.40541e-06
-1.87885e-05 -1.40541e-06 0.00121976
0.000754705 -4.86764e-06 3.34031e-08
-4.86764e-06 -6.94012e-05 1.84012e-07
3.34031e-08 1.84012e-07 -0.000104982
0.00112062 2.16521e-06 2.833e-06
2.16521e-06 1.82329e-05 5.74312e-07
2.833e-06 5.74312e-07 -3.95352e-05
0.00331458 -4.01781e-05 -1.54536e-07
-4.01781e-05 0.00123237 1.52662e-07
-1.54536e-07 1.52662e-07 0.00123
0.000743496 -2.60426e-06 5.53641e-06
-2.60426e-06 -7.56607e-05 1.7439e-06
5.53641e-06 1.7439e-06 -0.000109988
0.00317261 -3.94392e-05 1.55932e-05
-3.94392e-05 0.00115451 2.29701e-06
1.55932e-05 2.29701e-06 0.00115473
0.000688327 -7.1906e-06 -7.54364e-06
-7.1906e-06 -7.00518e-05 -6.93114e-07
-7.54364e-06 -6.93114e-07 -0.000110997
0.00099425 -9.79117e-06 9.13915e-08
-9.79117e-06 -1.31347e-05 1.17558e-07
9.13915e-08 1.17558e-07 -7.25647e-05
0.00113643 -1.17206e-05 1.09054e-06
-1.17206e-05 2.03194e-05 1.67478e-07
1.09054e-06 1.67478e-07 -4.56173e-05
0.00312878 -4.1547e-06 -1.70118e-05
-4.1547e-06 0.00119497 -5.75931e-08
-1.70118e-05 -5.75931e-08 0.00118597
0.000709513 5.88995e-06 7.95042e-08
5.88995e-06 -5.54292e-05 1.57101e-07
7.95042e-08 1.57101e-07 -9.63058e-05
0.000893171 5.39721e-06 1.64371e-06
5.39721e-06 -5.57569e-05 1.82318e-07
1.64371e-06 1.82318e-07 -0.000115072
0.000711502 1.72241e-05 5.11364e-06
1.72241e-05 -5.56862e-05 -1.49964e-07
5.11364e-06 -1.49964e-07 -9.54687e-05
0.00311362 4.23516e-05 9.75538e-07
4.23516e-05 0.00118395 1.38892e-07
9.75538e-07 1.38892e-07 0.0011756
0.00306219 4.10008e-05 1.87935e-05
4.10008e-05 0.0011523 -4.64104e-07
1.87935e-05 -4.64104e-07 0.00114515
0.00164123 -2.53608e-05 -1.23318e-05
-2.53608e-05 0.000389888 -1.07218e-06
-1.23318e-05 -1.07218e-06 0.000357149
0.00106908 -1.50615e-05 3.69955e-08
-1.50615e-05 1.71654e-05 1.59727e-08
3.69955e-08 1.59727e-08 -4.09228e-05
0.00117996 -1.99571e-05 7.66766e-07
-1.99571e-05 2.97767e-05 1.81942e-07
7.66766e-07 1.81942e-07 -3.50477e-05
0.0032026 -4.48732e-05 -7.76453e-06
-4.48732e-05 0.00120566 -4.4767e-07
-7.76453e-06 -4.4767e-07 0.00119977
0.000761565 -1.27362e-05 3.23414e-08
-1.27362e-05 -5.50718e-05 5.1548e-08
3.23414e-08 5.1548e-08 -9.18308e-05
0.00110315 -1.16682e-05 2.57536e-06
-1.16682e-05 2.0025e-05 1.73951e-07
2.57536e-06 1.73951e-07 -3.73756e-05
0.0033338 -4.09502e-05 -1.81413e-07
-4.09502e-05 0.00125291 1.56649e-07
-1.81413e-07 1.56649e-07 0.00124878
0.00075171 -3.41329e-06 5.81392e-06
-3.41329e-06 -7.00228e-05 1.36584e-06
5.81392e-06 1.36584e-06 -0.000105711
0.00333679 -4.08783e-05 1.71729e-05
-4.08783e-05 0.00124173 2.04142e-06
1.71729e-05 2.04142e-06 0.0012396
0.0012238 -1.54288e-05 -1.75888e-05
-1.54288e-05 0.000257969 -3.20435e-07
-1.75888e-05 -3.20435e-07 0.0002366
0.00121196 -1.11085e-05 -3.67061e-06
-1.11085e-05 0.000186024 1.61539e-07
-3.67061e-06 1.61539e-07 0.000148601
0.000931415 -9.47219e-06 2.18888e-06
-9.47219e-06 -4.40286e-05 4.35922e-07
2.18888e-06 4.35922e-07 -0.000103869
0.00314153 2.1544e-06 6.6331e-07
2.1544e-06 0.0012005 2.17396e-08
6.6331e-07 2.17396e-08 0.00119156
0.000713292 5.96896e-06 5.22356e-06
5.96896e-06 -5.39119e-05 2.14643e-07
5.22356e-06 2.14643e-07 -9.48382e-05
0.00308764 4.12466e-05 1.81516e-05
4.12466e-05 0.00117288 -9.08353e-08
1.81516e-05 -9.08353e-08 0.0011644
0.00118309 -2.61491e-05 -5.21055e-06
-2.61491e-05 0.000229482 -4.14663e-07
-5.21055e-06 -4.14663e-07 0.000209865
0.00124603 -1.88344e-05 -3.50146e-06
-1.88344e-05 0.000195091 -3.39062e-08
-3.50146e-06 -3.39062e-08 0.00015936
0.00108556 -1.54738e-05 2.20572e-06
-1.54738e-05 2.47034e-05 4.3855e-07
2.20572e-06 4.3855e-07 -3.3434e-05
0.00227319 -3.40322e-05 6.51877e-06
-3.40322e-05 0.000748462 3.66827e-07
6.51877e-06 3.66827e-07 0.000736676
0.00074495 -9.00936e-06 5.69938e-06
-9.00936e-06 -6.19941e-05 9.97802e-07
5.69938e-06 9.97802e-07 -9.88693e-05
0.003403 -4.18414e-05 1.8451e-05
-4.18414e-05 0.0012836 1.66948e-06
1.8451e-05 1.66948e-06 0.00127959
0.00315948 -4.12184e-05 -9.59267e-07
-4.12184e-05 0.00120605 1.79112e-07
-9.59267e-07 1.79112e-07 0.00119729
0.000724054 -6.86476e-06 5.46668e-06
-6.86476e-06 -5.24644e-05 7.83316e-07
5.46668e-06 7.83316e-07 -9.31604e-05
0.00316151 5.54146e-06 1.85902e-05
5.54146e-06 0.00120935 -2.36098e-08
1.85902e-05 -2.36098e-08 0.00120032
0.00219212 -3.35113e-05 6.60902e-06
-3.35113e-05 0.0007247 2.21529e-07
6.60902e-06 2.21529e-07 0.000710835
0.000732844 -1.17164e-05 5.4548e-06
-1.17164e-05 -5.51255e-05 9.92516e-07
5.4548e-06 9.92516e-07 -9.40307e-05
0.00333884 -4.22023e-05 1.89312e-05
-4.22023e-05 0.00126646 1.23519e-06
1.89312e-05 1.23519e-06 0.00126086
0.00319924 -4.26124e-05 1.8525e-05
-4.26124e-05 0.00122301 4.45221e-07
1.8525e-05 4.45221e-07 0.00121446
0.00324334 -4.25318e-05 1.87099e-05
-4.25318e-05 0.0012346 8.49171e-07
1.87099e-05 8.49171e-07 0.00122741
