# vtk DataFile Version 2.0
Wound Healing Simulation
ASCII
DATASET UNSTRUCTURED_GRID
POINTS 3012 float
69.9759 18.75 4
67.2507 60.3285 4
69.976 18.75 2
73.0099 25.446 4
71.1327 20.9142 4
68.6801 16.6661 4
67.8262 19.9261 3.98398
67.2507 60.3286 2
71.1327 54.0858 4
68.6801 58.3339 4
65.6939 62.2254 4
65.313 59.0021 3.98482
74.6784 42.3946 4
73.7221 47.2057 4
69.9759 18.75 0
73.0099 25.446 2
68.6801 16.6661 2
71.1327 20.9142 2
67.8267 19.9288 2
74.6792 32.6053 4
73.7222 27.7943 4
72.1454 23.1494 4
70.6148 26.2211 3.98404
68.8865 21.9583 3.98449
67.2507 14.6715 4
66.6378 17.9714 3.98399
65.7983 21.025 3.97589
67.2507 60.3285 0
71.1327 54.0858 2
68.6801 58.3339 2
65.694 62.2255 2
65.3142 58.9996 2
72.1454 51.8506 4
69.9759 56.25 4
68.8369 53.113 3.98347
64.0165 64.0165 4
66.6114 57.1343 3.98436
63.8866 60.7669 3.98671
63.5019 57.7731 3.97803
60.3285 67.2507 4
74.6792 42.3947 2
73.7222 47.2057 2
74.9194 39.9526 4
74.2788 44.8158 4
72.1685 42.0857 3.98244
73.0099 49.554 4
71.2498 46.5983 3.98294
73.0099 25.446 0
71.1327 20.9142 0
68.6801 16.6661 0
67.8262 19.9261 0.0160206
74.6792 32.6053 2
73.7222 27.7943 2
67.2508 14.6715 2
72.1455 23.1494 2
70.6149 26.2217 2
66.6387 17.9742 2
68.8867 21.9604 2
65.7979 21.0252 2
74.9197 35.0474 4
74.2794 30.1841 4
72.1852 32.9432 3.98274
71.2788 28.4314 3.98343
69.8163 24.06 3.98442
68.3482 26.951 3.97448
66.7638 22.933 3.97537
65.694 12.7746 4
65.3247 16.1024 3.98562
64.7151 19.1943 3.97666
63.8874 22.0355 3.97183
71.1327 54.0858 0
65.6939 62.2254 0
68.6801 58.3339 0
65.313 59.0021 0.0151754
72.1455 51.8506 2
69.9759 56.25 2
68.8372 53.1108 2
64.0165 64.0165 2
66.6123 57.1313 2
63.8879 60.7653 2
63.5018 57.7739 2
62.2254 65.694 4
58.8952 65.4146 3.99205
69.7694 50.9888 3.98346
67.7843 55.1674 3.98362
66.6502 52.2095 3.97405
62.337 62.4282 3.98902
64.6622 56.0325 3.9772
62.2042 59.4063 3.97942
61.824 56.6824 3.97386
58.3339 68.6801 4
60.3285 67.2508 2
73.7221 47.2057 0
74.6784 42.3946 0
74.9197 39.9526 2
74.2794 44.8159 2
72.1683 42.0856 2
73.0099 49.554 2
71.2498 46.5978 2
75 37.5 4
72.4057 39.8023 3.98251
71.783 44.3531 3.98279
69.8047 41.7898 3.9728
70.5756 48.8136 3.98313
68.9133 46.0154 3.97337
74.6792 32.6053 0
73.7222 27.7943 0
67.2507 14.6715 0
72.1454 23.1494 0
70.6148 26.2211 0.0159606
68.8865 21.9583 0.0155114
66.6378 17.9714 0.0160064
65.7983 21.025 0.0241107
74.9197 35.0474 2
74.2794 30.1841 2
72.1849 32.9434 2
71.2788 28.4316 2
65.694 12.7745 2
65.3258 16.1044 2
69.8164 24.0612 2
68.3481 26.9512 2
64.7149 19.1939 2
66.7635 22.9333 2
63.887 22.0353 2
72.4135 35.2241 3.98249
71.8043 30.6762 3.98297
69.8407 33.2679 3.97334
68.9673 29.0376 3.97401
67.6125 24.9117 3.97475
66.1954 27.6338 3.97081
64.0165 10.9835 4
64.7572 23.8297 3.97161
63.8911 14.326 3.98757
63.5151 17.445 3.97906
62.9072 20.3206 3.9718
62.0915 22.9442 3.97028
60.6846 11.0968 3.98986
57.6128 11.4451 3.98346
72.1454 51.8506 0
69.9759 56.25 0
68.8369 53.113 0.0165265
64.0165 64.0165 0
63.8866 60.7669 0.0132946
66.6114 57.1343 0.0156363
63.5019 57.7731 0.0219682
62.2255 65.694 2
58.8958 65.4144 2
69.7696 50.9876 2
67.7848 55.1646 2
66.6499 52.209 2
62.3381 62.4272 2
64.6621 56.0328 2
62.2042 59.4074 2
61.824 56.6834 2
60.6695 63.9776 3.99075
57.026 66.7354 3.99272
57.5588 63.6938 3.98562
67.5083 50.1771 3.97348
65.7028 54.1736 3.97495
64.5373 51.3854 3.97016
60.7741 60.9401 3.98159
62.8208 55.0685 3.97315
60.6593 58.1613 3.97472
60.3274 55.7856 3.97323
56.25 69.9759 4
58.3339 68.6801 2
60.3285 67.2507 0
58.9218 9.65517 3.99081
62.2254 9.30607 4
73.0099 49.554 0
74.2788 44.8158 0
71.2498 46.5983 0.017058
72.1685 42.0857 0.0175593
74.9194 39.9526 0
75 37.5 2
72.4056 39.8024 2
71.7829 44.3526 2
69.8045 41.7896 2
70.5757 48.813 2
68.9133 46.015 2
72.4891 37.5121 3.98228
70.0417 39.6573 3.97264
69.4313 43.9079 3.97318
67.5976 41.4976 3.9695
68.2668 48.1076 3.97327
66.7104 45.4403 3.96972
74.9197 35.0474 0
74.2794 30.1841 0
72.1852 32.9432 0.0172591
71.2788 28.4314 0.0165732
65.694 12.7746 0
65.3247 16.1024 0.0143835
69.8163 24.06 0.0155837
68.3482 26.951 0.0255243
66.7638 22.933 0.0246272
64.7151 19.1943 0.0233354
63.8874 22.0355 0.0281699
72.4135 35.2241 2
71.8043 30.6765 2
69.8404 33.2681 2
68.9673 29.0378 2
64.0165 10.9835 2
63.8922 14.3274 2
63.5152 17.4441 2
67.6123 24.912 2
66.1953 27.6338 2
62.907 20.32 2
64.7569 23.8297 2
62.0912 22.9441 2
60.6854 11.0976 2
57.6129 11.4443 2
70.0584 35.3916 3.97281
69.4678 31.149 3.97337
67.6557 33.5903 3.96986
66.7728 29.622 3.97017
65.5247 25.6987 3.9711
64.1464 28.255 3.9701
62.3424 12.654 3.98883
62.8562 24.6374 3.97039
62.2008 15.7821 3.98131
61.8148 18.6836 3.97392
61.2153 21.3437 3.96898
60.4223 23.7292 3.97018
59.2469 12.7766 3.98207
55.8746 10.2316 3.98507
56.4055 13.1113 3.98
69.7694 50.9888 0.0165415
62.2254 65.694 0
58.8952 65.4146 0.00795139
67.7843 55.1674 0.0163753
66.6502 52.2095 0.0259472
62.337 62.4282 0.0109825
62.2042 59.4063 0.020578
64.6622 56.0325 0.0228023
61.824 56.6824 0.026144
60.6704 63.9771 2
57.0264 66.7354 2
57.5589 63.6949 2
67.5081 50.1766 2
65.7024 54.1734 2
64.537 51.3854 2
60.7743 60.9413 2
62.8207 55.0693 2
60.6593 58.1625 2
60.3276 55.7862 2
55.0715 67.9324 3.99298
59.2201 62.3682 3.98286
55.8057 64.9118 3.98802
56.3276 62.0928 3.98156
65.3317 49.4088 3.9695
63.7055 53.2921 3.97032
62.4398 50.6516 3.96842
59.3343 59.5595 3.9784
61.0753 54.3087 3.97227
59.2889 57.0119 3.97204
59.2402 55.1808 3.97578
48.1038 68.5795 3.98902
50.9491 69.932 3.99316
54.0858 71.1327 4
56.25 69.976 2
58.3339 68.6801 0
57.0591 8.33523 3.99135
60.3285 7.74928 4
58.9225 9.6556 2
62.2255 9.30602 2
70.5756 48.8136 0.0168651
71.783 44.3531 0.0172145
68.9133 46.0154 0.026629
69.8047 41.7898 0.0271988
72.4057 39.8023 0.0174927
75 37.5 0
72.4888 37.5122 2
70.0417 39.6572 2
69.4312 43.9076 2
67.5973 41.4974 2
68.2668 48.1072 2
66.7104 45.4402 2
70.1297 37.5213 3.9727
67.8347 39.5122 3.96951
67.2242 43.4702 3.96964
65.552 41.2094 3.9698
66.0689 47.4185 3.96946
64.6523 44.8482 3.9693
72.4135 35.2241 0.0175143
71.8043 30.6762 0.0170341
69.8407 33.2679 0.0266644
68.9673 29.0376 0.0259856
64.0165 10.9835 0
63.8911 14.326 0.0124253
63.5151 17.445 0.0209384
67.6125 24.9117 0.0252542
66.1954 27.6338 0.0291855
64.7572 23.8297 0.0283874
62.9072 20.3206 0.0281952
62.0915 22.9442 0.0297198
60.6846 11.0968 0.0101414
57.6128 11.4451 0.0165371
70.0583 35.3917 2
69.4678 31.1492 2
67.6555 33.5903 2
66.7729 29.6219 2
62.3434 12.6551 2
62.2007 15.7812 2
61.8148 18.6825 2
65.5244 25.6988 2
64.1463 28.255 2
61.2153 21.3433 2
62.8559 24.6374 2
60.4221 23.7294 2
59.247 12.776 2
56.4054 13.1103 2
55.8748 10.2308 2
67.8706 35.5471 3.96964
67.2654 31.6217 3.96977
65.6963 33.9269 3.9699
64.6627 30.1916 3.96946
63.5377 26.414 3.97009
62.2541 28.7782 3.97143
60.7765 14.221 3.98191
61.0425 25.3386 3.9705
60.6143 17.1253 3.97782
60.2208 19.8177 3.97005
59.6556 22.2622 3.96863
58.9723 24.3232 3.97062
54.0377 9.13469 3.9861
57.911 14.3298 3.98028
54.7869 12.0104 3.98138
55.3125 14.645 3.97865
67.5083 50.1771 0.0265161
57.026 66.7354 0.00728104
60.6695 63.9776 0.00924663
57.5588 63.6938 0.014381
65.7028 54.1736 0.0250482
64.5373 51.3854 0.0298411
60.7741 60.9401 0.0184051
60.6593 58.1613 0.0252751
62.8208 55.0685 0.0268526
60.3274 55.7856 0.0267692
55.0719 67.9324 2
59.2202 62.3694 2
55.8057 64.9127 2
56.3277 62.0941 2
65.3315 49.4087 2
63.7052 53.2923 2
62.4396 50.6516 2
59.3343 59.5607 2
61.0756 54.3091 2
59.2892 57.0124 2
59.2406 55.1811 2
53.0433 69.0002 3.99311
53.9681 66.0141 3.98877
57.8813 60.8724 3.97992
54.6847 63.2104 3.98387
55.2118 60.6188 3.97941
63.1922 48.6608 3.9684
61.7379 52.5744 3.96797
60.2637 50.0162 3.96779
58.0183 58.2622 3.97421
59.3228 53.9446 3.97215
58.124 55.807 3.96992
50.1105 67.8574 3.98901
47.464 66.5827 3.9865
46.0572 69.1588 3.98899
48.1037 68.58 2
48.8032 70.7233 3.99325
50.9494 69.9321 2
51.8506 72.1454 4
54.0858 71.1327 2
56.25 69.9759 0
55.1035 7.13992 3.99169
58.3339 6.31992 4
57.0597 8.33544 2
60.3286 7.74926 2
58.9218 9.65517 0.00918747
62.2254 9.30607 0
68.2668 48.1076 0.0267254
69.4313 43.9079 0.026825
66.7104 45.4403 0.0302804
67.5976 41.4976 0.0305039
70.0417 39.6573 0.0273601
72.4891 37.5121 0.0177241
70.1296 37.5213 2
67.8346 39.5121 2
67.2241 43.47 2
65.5517 41.2093 2
66.0689 47.4184 2
64.6522 44.8481 2
67.9309 37.5217 3.96954
65.7817 39.3698 3.96995
65.1755 43.025 3.96955
63.7335 40.9287 3.97186
63.9631 46.7164 3.96876
62.7996 44.215 3.97183
70.0584 35.3916 0.0271914
69.4678 31.149 0.0266318
67.6557 33.5903 0.030138
66.7728 29.622 0.0298286
62.3424 12.654 0.0111686
62.2008 15.7821 0.0186897
61.8148 18.6836 0.0260799
65.5247 25.6987 0.0288979
64.1464 28.255 0.0299042
62.8562 24.6374 0.029613
61.2153 21.3437 0.0310163
60.4223 23.7292 0.0298202
59.2469 12.7766 0.0179273
56.4055 13.1113 0.0199954
55.8746 10.2316 0.0149285
67.8706 35.5471 2
67.2654 31.6217 2
65.6961 33.9268 2
64.6627 30.1915 2
60.7764 14.2203 2
60.6142 17.1241 2
60.221 19.8167 2
63.5375 26.4139 2
62.2538 28.7783 2
59.6558 22.2622 2
61.0423 25.3388 2
58.9721 24.3235 2
57.9106 14.3289 2
55.3121 14.6441 2
54.0378 9.13393 2
54.7868 12.0093 2
65.8715 35.6664 3.96988
65.1831 32.1539 3.96945
64.2701 34.2496 3.97136
62.5825 30.6363 3.97122
61.6458 27.0731 3.97061
60.8367 29.1416 3.97416
59.3118 15.6664 3.97975
59.3177 25.7996 3.97252
59.1233 18.3548 3.97518
58.7343 20.859 3.9667
58.2757 23.0968 3.96855
57.9544 24.6686 3.97174
52.1124 8.15288 3.9869
53.058 11.0162 3.98261
56.6768 15.7408 3.97953
53.8093 13.68 3.97949
54.3757 15.9983 3.97891
55.0715 67.9324 0.00702342
65.3317 49.4088 0.0304975
55.8057 64.9118 0.0119769
59.2201 62.3682 0.0171378
56.3276 62.0928 0.0184362
63.7055 53.2921 0.0296806
62.4398 50.6516 0.0315754
59.3343 59.5595 0.0216028
59.2889 57.0119 0.0279568
61.0753 54.3087 0.0277319
59.2402 55.1808 0.024217
53.0436 69.0003 2
53.968 66.0148 2
57.8813 60.8736 2
54.6846 63.2115 2
55.2118 60.6203 2
63.1921 48.6608 2
61.7377 52.5744 2
60.2638 50.0161 2
58.0185 58.2635 2
59.3233 53.9447 2
58.1244 55.8071 2
52.0716 67.0006 3.98899
52.9542 64.2212 3.98563
56.6485 59.4903 3.97774
53.6817 61.6256 3.98158
54.2598 59.3234 3.97713
60.9754 47.8772 3.96887
59.7011 52.1026 3.96729
58.002 49.6102 3.97071
56.7752 56.9828 3.97188
57.113 54.1136 3.96955
50.1104 67.858 2
49.3378 65.923 3.98649
47.4638 66.5832 2
46.8933 64.7385 3.98506
45.559 67.0998 3.9864
43.974 69.5911 3.98893
46.0573 69.1593 2
46.6097 71.3677 3.99324
48.1038 68.5795 0.0109807
48.8035 70.7235 2
49.554 73.0099 4
50.9491 69.932 0.00684412
51.8506 72.1455 2
54.0858 71.1327 0
53.0647 6.07141 3.99195
55.104 7.13993 2
56.25 5.02411 4
58.3339 6.3199 2
57.0591 8.33523 0.00864548
60.3285 7.74928 0
66.0689 47.4185 0.0305397
67.2242 43.4702 0.0303585
64.6523 44.8482 0.0307016
65.552 41.2094 0.0302022
67.8347 39.5122 0.0304868
70.1297 37.5213 0.027296
67.9308 37.5217 2
65.7814 39.3697 2
65.1754 43.0249 2
63.7334 40.9286 2
63.9629 46.7163 2
62.7992 44.2149 2
65.8847 37.5014 3.96984
63.8682 39.266 3.97148
63.3121 42.549 3.9717
62.3922 40.6967 3.97378
61.9565 45.9169 3.9709
61.4259 43.6812 3.97448
67.8706 35.5471 0.0303645
67.2654 31.6217 0.0302345
65.6963 33.9269 0.030097
64.6627 30.1916 0.030543
60.7765 14.221 0.0180893
60.6143 17.1253 0.0221813
60.2208 19.8177 0.0299455
63.5377 26.414 0.0299097
62.2541 28.7782 0.0285651
61.0425 25.3386 0.0295025
59.6556 22.2622 0.0313651
58.9723 24.3232 0.029377
57.911 14.3298 0.0197229
55.3125 14.645 0.0213486
54.0377 9.13469 0.0138955
54.7869 12.0104 0.0186244
65.8713 35.6663 2
65.1831 32.1539 2
64.2701 34.2495 2
62.5823 30.6364 2
59.3114 15.6654 2
59.1235 18.3536 2
58.7348 20.8587 2
61.6454 27.0732 2
60.8368 29.1417 2
58.2759 23.0972 2
59.3181 25.7999 2
57.9542 24.6691 2
56.6763 15.7398 2
54.3751 15.9975 2
53.8091 13.6789 2
52.1124 8.15223 2
53.058 11.0153 2
64.0661 35.6321 3.97113
62.904 33.0467 3.97161
60.5887 30.6132 3.97417
59.5524 27.9129 3.97375
57.9395 16.9818 3.97835
57.7175 25.7303 3.97396
57.7113 19.478 3.97113
57.3593 21.8486 3.9653
57.1701 23.9518 3.96916
50.1125 7.2845 3.98754
51.2326 10.1241 3.9837
52.1718 12.7967 3.98107
55.5368 16.9714 3.97905
52.9768 15.264 3.97728
53.7568 16.981 3.98006
53.0433 69.0002 0.00689307
53.9681 66.0141 0.0112272
63.1922 48.6608 0.0316007
54.6847 63.2104 0.0161321
57.8813 60.8724 0.0200751
55.2118 60.6188 0.0205903
61.7379 52.5744 0.032029
60.2637 50.0162 0.0322082
58.0183 58.2622 0.0257901
58.124 55.807 0.0300775
59.3228 53.9446 0.0278472
52.0716 67.0012 2
52.954 64.222 2
56.6484 59.4917 2
53.6816 61.6269 2
54.26 59.3248 2
60.9748 47.8769 2
59.7013 52.1025 2
58.0006 49.6098 2
56.775 56.9873 2
57.1137 54.1136 2
51.1688 65.1301 3.98628
52.0469 62.5419 3.98366
55.4799 58.2509 3.97767
52.8344 60.138 3.97938
53.6387 58.473 3.97992
58.2697 46.8427 3.97358
57.5467 51.779 3.96806
56.2127 49.5457 3.97178
55.4666 55.7814 3.96893
55.3433 53.3704 3.97027
50.1105 67.8574 0.0109898
49.3376 65.9237 2
48.619 64.1251 3.98516
47.464 66.5827 0.0135034
45.5589 67.1003 2
46.893 64.739 2
46.3828 63.0561 3.98436
45.1335 65.1995 3.98502
43.632 67.4703 3.98639
41.861 69.8786 3.98876
43.9741 69.5916 2
44.377 71.8626 3.99312
46.0572 69.1588 0.0110069
46.61 71.368 2
47.2057 73.7222 4
48.8032 70.7233 0.0067483
49.554 73.0099 2
51.8506 72.1454 0
50.9544 5.13163 3.99227
53.0651 6.0713 2
54.0858 3.86728 4
55.1035 7.13992 0.00830977
56.25 5.02406 2
58.3339 6.31992 0
63.9631 46.7164 0.0312395
65.1755 43.025 0.0304454
62.7996 44.215 0.0281669
63.7335 40.9287 0.028144
65.7817 39.3698 0.0300475
67.9309 37.5217 0.0304575
65.8844 37.5013 2
63.8678 39.2659 2
63.3119 42.5488 2
62.3921 40.6966 2
61.9558 45.9167 2
61.4253 43.681 2
63.9313 37.4566 3.9714
62.1045 39.3542 3.97278
61.1755 41.9564 3.97455
60.2271 44.7673 3.97468
65.8715 35.6664 0.0301197
65.1831 32.1539 0.0305458
64.2701 34.2496 0.0286397
62.5825 30.6363 0.0287801
59.3118 15.6664 0.0202549
59.1233 18.3548 0.0248237
58.7343 20.859 0.0333003
61.6458 27.0731 0.0293889
60.8367 29.1416 0.0258405
59.3177 25.7996 0.0274825
58.2757 23.0968 0.0314469
57.9544 24.6686 0.0282582
56.6768 15.7408 0.0204732
54.3757 15.9983 0.0210878
53.8093 13.68 0.0205127
52.1124 8.15288 0.0131016
53.058 11.0162 0.0173867
64.0659 35.632 2
62.9036 33.0467 2
60.5888 30.6132 2
57.9392 16.9806 2
57.7118 19.4765 2
57.36 21.8489 2
59.5525 27.9131 2
57.1692 23.9525 2
57.7183 25.7307 2
50.1125 7.28398 2
55.5363 16.9704 2
53.7563 16.9801 2
52.9764 15.2628 2
52.1717 12.7957 2
51.2325 10.1233 2
62.139 35.3597 3.97238
60.2402 32.7465 3.97395
58.5816 30.079 3.97569
57.2553 27.3865 3.97519
56.6345 18.1563 3.97793
56.2654 25.1075 3.97166
56.349 20.5283 3.96812
56.0886 22.878 3.96615
48.0564 6.52728 3.98823
49.3245 9.3315 3.98423
50.4331 11.994 3.98193
51.377 14.4987 3.97955
54.4125 17.9212 3.97981
52.3591 17.0389 3.97651
52.0716 67.0006 0.0110085
52.9542 64.2212 0.0143675
60.9754 47.8772 0.0311295
53.6817 61.6256 0.0184192
56.6485 59.4903 0.0222601
54.2598 59.3234 0.0228702
59.7011 52.1026 0.0327069
58.002 49.6102 0.0292859
56.7752 56.9828 0.0281229
57.113 54.1136 0.0304455
51.1686 65.1308 2
52.0467 62.5429 2
55.48 58.2519 2
52.8345 60.1393 2
53.6387 58.4742 2
58.2693 46.8424 2
57.5469 51.7787 2
56.2117 49.5451 2
55.4673 55.7822 2
55.3443 53.3707 2
50.3471 63.3835 3.98463
51.2445 60.9386 3.98115
54.2162 57.2675 3.97777
52.3115 58.6355 3.97701
56.6448 44.1744 3.97685
55.4465 47.886 3.97442
55.0488 51.3796 3.96817
53.9928 54.5274 3.96756
49.3378 65.923 0.01351
48.6188 64.1258 2
47.963 62.4775 3.98425
45.559 67.0998 0.0136043
46.8933 64.7385 0.014935
43.6319 67.471 2
46.3827 63.0567 2
45.1332 65.2002 2
45.9885 61.5888 3.98393
44.768 63.4566 3.98427
43.3574 65.5089 3.98492
41.6639 67.6891 3.98613
39.7025 70.0256 3.98882
41.8611 69.8791 2
42.1113 72.2074 3.99301
43.974 69.5911 0.0110728
44.3773 71.8629 2
44.8159 74.2794 4
46.6097 71.3677 0.00676017
47.2057 73.7222 2
49.554 73.0099 0
48.7849 4.32248 3.99265
50.9548 5.13148 2
51.8506 2.85458 4
53.0647 6.07141 0.0080523
54.0858 3.86728 2
56.25 5.02411 0
61.9565 45.9169 0.0290999
63.3121 42.549 0.0282984
61.4259 43.6812 0.025518
62.3922 40.6967 0.0262238
63.8682 39.266 0.0285248
65.8847 37.5014 0.0301576
63.9307 37.4565 2
62.1039 39.3541 2
61.1752 41.9563 2
60.2262 44.767 2
61.9419 37.4442 3.97299
60.1855 39.8457 3.97518
58.9345 42.9136 3.9762
64.0661 35.6321 0.0288689
62.904 33.0467 0.028386
60.5887 30.6132 0.0258253
57.9395 16.9818 0.021655
57.7113 19.478 0.0288696
57.3593 21.8486 0.0347006
59.5524 27.9129 0.0262517
57.7175 25.7303 0.0260374
57.1701 23.9518 0.0308372
55.5368 16.9714 0.0209541
53.7568 16.981 0.0199415
52.9768 15.264 0.0227218
50.1125 7.2845 0.012464
52.1718 12.7967 0.0189292
51.2326 10.1241 0.0163031
62.1385 35.3597 2
60.2395 32.7465 2
58.5809 30.0793 2
56.6343 18.1549 2
56.3494 20.5253 2
56.0892 22.8787 2
57.2567 27.3868 2
56.2657 25.1084 2
48.0564 6.52671 2
49.3244 9.33099 2
54.4122 17.9204 2
52.3586 17.038 2
51.3766 14.4975 2
50.4329 11.9933 2
59.8202 35.12 3.97397
57.9307 32.2731 3.97691
56.4978 29.3459 3.97651
55.4054 26.6069 3.97508
55.3372 19.1903 3.97668
54.9007 24.0661 3.96868
54.9861 21.5723 3.96752
45.9623 5.8822 3.9888
43.3737 7.47329 3.98608
47.355 8.62466 3.98484
48.6 11.295 3.98239
49.7134 13.7446 3.98093
50.632 16.1342 3.9786
53.1205 18.6626 3.97584
51.2975 18.0526 3.98287
51.1688 65.1301 0.0137186
52.0469 62.5419 0.0163444
58.2697 46.8427 0.0264209
52.8344 60.138 0.0206219
55.4799 58.2509 0.0223253
53.6387 58.473 0.0200821
57.5467 51.779 0.0319421
56.2127 49.5457 0.0282174
55.4666 55.7814 0.0310748
55.3433 53.3704 0.029732
50.3468 63.3842 2
51.2445 60.9396 2
54.2164 57.2688 2
52.3116 58.6366 2
56.6437 44.174 2
55.4447 47.8853 2
55.0494 51.3792 2
53.9937 54.529 2
49.5925 61.7476 3.98335
55.5296 41.6941 3.97737
50.5664 59.3304 3.97741
52.1795 56.4885 3.97182
54.101 45.5502 3.9771
53.2814 49.3152 3.97131
52.6449 52.8338 3.96593
48.619 64.1251 0.0148412
47.9628 62.4781 2
47.3302 61.012 3.9835
43.632 67.4703 0.0136117
45.1335 65.1995 0.0149829
46.3828 63.0561 0.0156392
41.6639 67.6897 2
43.3571 65.5097 2
45.9884 61.5896 2
44.7679 63.4574 2
45.7671 60.6331 3.98271
44.4844 61.8378 3.9835
43.1472 63.7288 3.9838
41.5467 65.6465 3.98435
39.6329 67.7688 3.98587
37.5259 70.0508 3.98872
39.7026 70.0263 2
39.8179 72.4045 3.99286
41.861 69.8786 0.0112362
42.1115 72.2077 2
42.3947 74.6792 4
44.377 71.8626 0.00687715
44.8159 74.2794 2
47.2057 73.7222 0
43.8517 5.35897 3.9891
46.5709 3.64696 3.99287
48.7852 4.32226 2
49.554 1.99015 4
50.9544 5.13163 0.00772668
51.8506 2.85453 2
54.0858 3.86728 0
60.2271 44.7673 0.0253161
61.1755 41.9564 0.0254506
62.1045 39.3542 0.0272172
63.9313 37.4566 0.0286011
61.9414 37.4442 2
60.1848 39.8456 2
58.9339 42.9133 2
59.6758 37.5658 3.97426
57.9137 40.6526 3.97736
54.9739 39.7126 3.97757
62.139 35.3597 0.0276154
60.2402 32.7465 0.0260462
58.5816 30.079 0.0243129
56.6345 18.1563 0.0220667
56.349 20.5283 0.0318834
56.0886 22.878 0.0338473
57.2553 27.3865 0.024814
56.2654 25.1075 0.0283359
54.4125 17.9212 0.0201916
52.3591 17.0389 0.0234914
51.377 14.4987 0.0204547
48.0564 6.52728 0.0117657
49.3245 9.3315 0.0157708
50.4331 11.994 0.0180666
59.8196 35.1199 2
45.9623 5.88172 2
43.3737 7.4728 2
57.9317 32.2734 2
56.4976 29.3464 2
55.3373 19.1892 2
54.9871 21.5714 2
54.9008 24.0675 2
55.4005 26.6084 2
47.355 8.62403 2
48.5997 11.2946 2
53.1205 18.6617 2
51.2972 18.0516 2
50.6316 16.1332 2
49.713 13.7438 2
57.2965 34.762 3.97772
55.6602 31.5265 3.97792
54.4335 28.4156 3.9787
53.7383 25.5079 3.97394
53.9606 20.1416 3.97569
53.5565 22.7249 3.96303
41.3988 7.07828 3.98674
45.3597 7.99539 3.98576
42.8656 9.4166 3.98377
46.6664 10.6552 3.98264
47.745 13.1044 3.98176
48.93 15.4039 3.97926
50.0029 17.7033 3.97969
51.6429 19.3267 3.98488
50.3471 63.3835 0.015372
51.2445 60.9386 0.0188518
56.6448 44.1744 0.023151
55.4465 47.886 0.0255777
52.3115 58.6355 0.0229878
54.2162 57.2675 0.0222331
55.0488 51.3796 0.031825
53.9928 54.5274 0.0324364
49.5923 61.7482 2
55.5294 41.6937 2
50.5665 59.3317 2
52.1799 56.4894 2
54.103 45.5495 2
53.2844 49.3146 2
52.6466 52.8331 2
48.8494 60.2044 3.98167
52.3942 42.6236 3.97829
49.7869 57.6256 3.97746
50.5779 54.419 3.9696
51.7233 47.2519 3.97619
51.172 50.9304 3.96712
48.0293 43.7832 3.99191
47.963 62.4775 0.0157498
47.33 61.0126 2
46.6193 59.7983 3.98299
41.6639 67.6891 0.0138659
43.3574 65.5089 0.0150814
44.768 63.4566 0.0157334
45.9885 61.5888 0.0160743
39.6329 67.7696 2
41.5465 65.6469 2
45.7669 60.6339 2
43.1471 63.7295 2
44.4843 61.8387 2
44.6241 60.2953 3.98302
42.9513 62.0857 3.98286
41.6006 63.8219 3.98377
39.648 65.6144 3.98376
37.5634 67.7511 3.98568
31.6965 65.1331 3.98427
33.3919 67.4885 3.98564
35.3332 69.9608 3.98873
37.526 70.0515 2
37.5095 72.4591 3.99277
39.7025 70.0256 0.0111833
39.8181 72.4049 2
39.9526 74.9197 4
42.1113 72.2074 0.00698547
42.3947 74.6792 2
44.8159 74.2794 0
41.7363 4.96805 3.98949
43.8517 5.35845 2
44.3261 3.11005 3.99318
46.5711 3.64673 2
47.2057 1.27793 4
48.7849 4.32248 0.00734944
49.554 1.99013 2
51.8506 2.85458 0
58.9345 42.9136 0.0237985
60.1855 39.8457 0.0248226
61.9419 37.4442 0.0270147
59.6757 37.5658 2
57.9125 40.6524 2
54.9747 39.7117 2
56.7039 37.8934 3.97807
49.427 41.3228 3.98855
52.9939 39.3039 3.98028
39.4423 6.80163 3.9868
59.8202 35.12 0.0260313
57.9307 32.2731 0.0230872
56.4978 29.3459 0.0234919
55.3372 19.1903 0.0233206
54.9861 21.5723 0.0324849
54.9007 24.0661 0.0313181
55.4054 26.6069 0.024916
53.1205 18.6626 0.0241562
51.2975 18.0526 0.0171263
50.632 16.1342 0.021398
45.9623 5.8822 0.0111984
49.7134 13.7446 0.0190741
47.355 8.62466 0.0151647
48.6 11.295 0.0176137
43.3737 7.47329 0.0139171
57.2955 34.7622 2
41.3989 7.07775 2
45.3597 7.99493 2
42.8655 9.4161 2
55.6598 31.5267 2
54.4296 28.4176 2
53.9611 20.141 2
53.5571 22.7225 2
53.7366 25.5092 2
46.6662 10.6545 2
47.7445 13.1039 2
51.6428 19.3256 2
50.0026 17.7023 2
48.9296 15.4032 2
54.761 33.9752 3.97735
53.3938 30.4983 3.97684
52.5322 27.2154 3.97576
52.1076 24.1135 3.97249
52.3757 21.0614 3.97953
41.0136 9.04899 3.98405
44.7239 9.99691 3.98338
42.4686 10.9044 3.9832
46.0049 12.7328 3.98049
47.6805 14.5877 3.97999
48.1105 16.9926 3.97802
49.8133 19.6304 3.97632
49.5925 61.7476 0.0166488
50.5664 59.3304 0.0225921
55.5296 41.6941 0.0226267
54.101 45.5502 0.0228977
53.2814 49.3152 0.0286905
52.1795 56.4885 0.0281795
52.6449 52.8338 0.0340686
48.8492 60.2049 2
52.3979 42.6222 2
49.7872 57.6273 2
50.5788 54.4199 2
51.7254 47.2506 2
51.1744 50.9292 2
48.0333 43.7942 2
47.9865 58.745 3.97971
49.9742 45.2602 3.9781
48.5903 55.9164 3.97801
49.102 52.5814 3.97203
49.6089 49.0318 3.97197
45.8305 39.8656 3.89355
46.2717 42.6642 3.93569
46.3831 45.8289 3.9921
43.6686 41.1615 3.85012
41.9452 42.0207 3.77079
47.3302 61.012 0.0164996
46.6191 59.799 2
45.4686 58.795 3.98283
39.6329 67.7688 0.0141337
41.5467 65.6465 0.0156522
43.1472 63.7288 0.0162031
44.4844 61.8378 0.0164978
45.7671 60.6331 0.0172937
41.6005 63.8224 2
37.5634 67.7519 2
39.6478 65.6151 2
44.624 60.2961 2
42.9512 62.0864 2
41.7542 62.4965 3.98304
42.4816 59.9861 3.98376
39.8941 63.5564 3.98301
37.6424 65.5134 3.98364
35.4634 67.6604 3.98559
33.575 65.3463 3.98376
31.959 63.3052 3.98358
29.8825 64.7242 3.98486
31.6966 65.1338 2
31.3764 67.1984 3.98584
33.3919 67.4893 2
33.1559 69.7541 3.98861
35.3332 69.9615 2
35.1947 72.3734 3.99273
37.5259 70.0508 0.0112788
37.5095 72.4595 2
37.5 75 4
39.8179 72.4045 0.00714219
39.9526 74.9197 2
42.3947 74.6792 0
39.624 4.71512 3.98972
41.7364 4.96756 2
42.0624 2.7176 3.9933
43.8517 5.35897 0.0109018
44.3263 3.10975 2
44.8158 0.721173 4
46.5709 3.64696 0.00712942
47.2057 1.27779 2
49.554 1.99015 0
57.9137 40.6526 0.0226385
59.6758 37.5658 0.025742
54.9739 39.7126 0.0224341
49.442 41.3256 2
56.7025 37.8933 2
52.9963 39.3069 2
53.8422 36.6302 3.97729
47.3534 40.4 3.94084
50.3667 38.5121 3.99001
37.5161 6.67261 3.98713
39.4423 6.80107 2
39.211 8.6914 3.98463
35.9417 8.49114 3.98501
57.2965 34.762 0.0222818
55.6602 31.5265 0.0220804
54.4335 28.4156 0.0213039
53.9606 20.1416 0.0243093
53.5565 22.7249 0.036973
53.7383 25.5079 0.0260575
51.6429 19.3267 0.0151166
50.0029 17.7033 0.020314
48.93 15.4039 0.0207425
45.3597 7.99539 0.0142418
47.745 13.1044 0.0182414
46.6664 10.6552 0.0173595
41.3988 7.07828 0.0132622
42.8656 9.4166 0.0162316
54.7642 33.9744 2
41.0135 9.04851 2
44.7236 9.99654 2
42.4683 10.9039 2
53.3901 30.4978 2
52.5365 27.2168 2
52.3765 21.0597 2
52.1089 24.1148 2
46.0044 12.732 2
47.68 14.5871 2
49.8133 19.6292 2
48.1101 16.992 2
52.3262 32.8875 3.98003
51.2279 29.1675 3.97838
50.7327 25.7464 3.97288
49.9255 22.2138 3.97773
40.57 11.6085 3.98139
43.858 11.9206 3.98091
45.8013 15.4262 3.98011
47.5011 19.2436 3.97667
46.1655 37.4918 3.90008
48.8494 60.2044 0.0183323
49.7869 57.6256 0.0225436
52.3942 42.6236 0.0217084
51.7233 47.2519 0.0238125
51.172 50.9304 0.0328819
50.5779 54.419 0.030398
48.0293 43.7832 0.00809154
47.9863 58.7459 2
49.98 45.2633 2
48.5906 55.919 2
49.1029 52.5832 2
49.6122 49.031 2
45.8565 39.8766 2
46.2895 42.6779 2
46.3833 45.8229 2
43.6912 41.1775 2
41.9549 42.0287 2
46.8366 57.347 3.98271
44.4153 39.4403 3.84934
42.2902 40.8836 3.80372
47.9878 47.226 3.97627
47.153 54.239 3.97604
47.544 50.7365 3.96611
44.7198 47.4114 3.98923
44.9344 41.9568 3.89558
44.8437 44.5637 3.94538
42.5254 42.6776 3.85775
40.846 42.3657 3.802
46.6193 59.7983 0.0170147
45.4683 58.7958 2
43.8758 57.72 3.98502
37.5634 67.7511 0.0143158
39.648 65.6144 0.0162381
41.6006 63.8219 0.0162296
42.9513 62.0857 0.0171399
44.6241 60.2953 0.0169763
35.4633 67.6612 2
41.7541 62.497 2
39.8939 63.557 2
37.6423 65.5142 2
42.4816 59.9868 2
40.6237 61.6542 3.98271
40.4448 58.2174 3.98386
37.8372 63.2175 3.9823
35.5729 65.4354 3.98357
33.5751 65.347 2
31.9588 63.3059 2
33.6287 63.3447 3.983
30.3778 62.8639 3.98387
32.1226 62.0115 3.98407
26.8676 61.5072 3.98335
28.0613 64.152 3.98463
29.8826 64.7249 2
29.4057 66.7621 3.98602
31.6965 65.1331 0.0157349
31.3764 67.1991 2
31.0131 69.419 3.98859
33.3919 67.4885 0.014363
33.1559 69.7548 2
32.8916 72.1476 3.99277
35.3332 69.9608 0.0112715
35.1947 72.3738 2
35.0474 74.9194 4
37.5095 72.4591 0.00722964
37.5 75 2
39.9526 74.9197 0
35.6207 6.72372 3.98679
37.5232 4.61466 3.98983
39.624 4.71461 2
39.7887 2.47397 3.99343
41.7363 4.96805 0.0105081
42.0625 2.71729 2
42.3946 0.32156 4
44.3261 3.11005 0.0068164
44.8159 0.72056 2
47.2057 1.27793 0
49.427 41.3228 0.0114537
56.7039 37.8934 0.0219298
52.9939 39.3039 0.0197215
47.3691 40.4127 2
50.3808 38.5112 2
53.8478 36.6314 2
51.1645 35.5801 3.97877
48.0097 37.7407 3.95588
45.832 35.135 3.89426
43.6763 33.8358 3.84706
41.9519 32.986 3.76721
37.4579 8.53273 3.98499
37.5161 6.67192 2
39.4423 6.80163 0.0132032
39.211 8.69076 2
38.9768 10.1254 3.98394
35.8986 9.77164 3.98345
34.1503 8.82075 3.98461
35.9415 8.49039 2
54.761 33.9752 0.0226544
53.3938 30.4983 0.0231599
52.5322 27.2154 0.0242381
52.3757 21.0614 0.0204717
52.1076 24.1135 0.0275075
49.8133 19.6304 0.0236755
48.1105 16.9926 0.0219787
47.6805 14.5877 0.0200065
44.7239 9.99691 0.0166225
46.0049 12.7328 0.0195099
41.0136 9.04899 0.0159453
42.4686 10.9044 0.0168043
52.3281 32.8874 2
40.5697 11.6083 2
43.8575 11.9202 2
51.2399 29.1669 2
50.7343 25.7491 2
49.9266 22.2128 2
45.8008 15.4255 2
47.5009 19.2419 2
49.8553 31.4193 3.97133
49.2108 27.5094 3.97664
49.367 24.428 3.98257
47.178 21.9791 3.97432
38.3027 12.7347 3.98059
42.1011 14.3091 3.97933
44.7987 18.4671 3.97784
44.7073 37.4974 3.8505
46.1977 37.4971 2
47.9865 58.745 0.0202871
48.5903 55.9164 0.0219917
49.9742 45.2602 0.0219
49.6089 49.0318 0.0280271
49.102 52.5814 0.0279665
45.8305 39.8656 0.106453
46.2717 42.6642 0.0643128
46.3831 45.8289 0.00790108
43.6686 41.1615 0.149878
41.9452 42.0207 0.229206
46.8361 57.3483 2
44.4313 39.4521 2
42.2858 40.8851 2
47.9891 47.2276 2
47.1537 54.2438 2
47.546 50.738 2
44.7236 47.3885 2
44.9524 41.9714 2
44.8596 44.5797 2
42.5523 42.6994 2
40.8445 42.3676 2
45.3927 55.9372 3.98782
42.6142 39.2756 3.81679
40.7476 40.8042 3.8748
46.03 48.9053 3.98513
45.5146 52.5317 3.98257
43.3899 48.4407 4.00407
43.3229 46.1164 3.93886
43.5731 43.7599 3.88785
41.067 43.8402 3.85247
39.2883 42.7193 3.81515
45.4686 58.795 0.017174
43.8756 57.7205 2
42.1056 56.3455 3.98772
35.4634 67.6604 0.0144111
37.6424 65.5134 0.01636
39.8941 63.5564 0.0169935
41.7542 62.4965 0.0169638
42.4816 59.9861 0.0162436
35.5729 65.4363 2
40.6235 61.6549 2
37.837 63.2182 2
40.4446 58.2188 2
38.9241 56.5126 3.99013
38.2506 60.3368 3.98251
35.607 63.2109 3.98212
33.575 65.3463 0.0162382
31.959 63.3052 0.0164204
33.6286 63.3454 2
30.3777 62.8645 2
32.1225 62.0122 2
28.6803 62.2088 3.98383
33.3454 61.5239 3.98327
31.0657 61.2289 3.9837
27.567 59.6043 3.98213
23.7908 59.0902 3.98049
25.0332 60.8797 3.98215
26.8676 61.5078 2
26.2279 63.4845 3.98466
28.0615 64.1527 2
27.4621 66.1859 3.98605
29.8825 64.7242 0.0151444
29.4058 66.7628 2
28.9052 68.9445 3.9886
31.3764 67.1984 0.0141638
31.013 69.4197 2
30.6139 71.7786 3.99282
33.1559 69.7541 0.0113892
32.8915 72.148 2
32.6054 74.6784 4
35.1947 72.3734 0.00727284
35.0474 74.9197 2
37.5 75 0
33.7234 6.97837 3.98631
35.4347 4.68493 3.98963
35.6207 6.72306 2
37.5141 2.38664 3.99342
37.5232 4.61415 2
39.624 4.71512 0.0102819
39.7888 2.47366 2
39.9526 0.0806499 4
42.0624 2.7176 0.00670057
42.3947 0.320817 2
44.8158 0.721173 0
44.4328 35.5553 3.84387
42.3004 34.1157 3.79999
47.3534 40.4 0.0591593
50.3667 38.5121 0.00999147
53.8422 36.6302 0.0227068
48.0237 37.75 2
51.1744 35.5798 2
45.8514 35.1179 2
43.7007 33.8188 2
41.9617 32.9774 2
48.1875 34.3082 3.97768
44.9402 33.0393 3.88837
42.5333 32.3298 3.85419
40.8537 32.6417 3.79985
37.311 10.6287 3.98255
37.4578 8.53181 2
37.5161 6.67261 0.0128707
39.211 8.6914 0.0153739
38.9767 10.1246 2
34.7539 10.3778 3.98277
35.8986 9.7709 2
32.377 9.36755 3.98398
34.1501 8.82014 2
35.9417 8.49114 0.0149946
52.3262 32.8875 0.0199691
51.2279 29.1675 0.0216218
50.7327 25.7464 0.0271155
49.9255 22.2138 0.0222693
47.5011 19.2436 0.0233293
45.8013 15.4262 0.0198907
43.858 11.9206 0.0190884
40.57 11.6085 0.018615
49.8629 31.4141 2
38.3023 12.7341 2
42.1007 14.3091 2
49.2132 27.5128 2
49.3687 24.4272 2
47.1787 21.9785 2
44.7984 18.4675 2
47.6906 29.5276 3.991
47.0636 25.1699 3.98275
44.2843 21.3418 3.97588
36.5824 12.9307 3.98133
38.6814 14.8081 3.97917
41.7489 17.8447 3.97831
42.744 37.4904 3.81899
44.7209 37.4981 2
46.1655 37.4918 0.0999214
46.8366 57.347 0.0172935
47.153 54.239 0.0239566
47.9878 47.226 0.0237302
47.544 50.7365 0.033892
44.4153 39.4403 0.150661
44.9344 41.9568 0.104419
44.8437 44.5637 0.0546217
44.7198 47.4114 0.0107686
42.5254 42.6776 0.14225
42.2902 40.8836 0.196283
40.846 42.3657 0.198003
45.3929 55.9376 2
42.6127 39.2739 2
40.7423 40.7989 2
46.0308 48.907 2
45.5167 52.5373 2
43.3926 48.4585 2
43.3474 46.1407 2
43.5915 43.7782 2
41.0871 43.8626 2
39.28 42.7134 2
43.729 54.4501 3.99744
40.8501 39.1723 3.90394
39.1632 40.8936 3.90389
43.6594 50.4944 4.00076
41.9175 47.666 3.97294
41.8448 45.1854 3.89378
39.3546 44.5742 3.865
37.4948 42.8359 3.82948
43.8758 57.72 0.0149789
42.1051 56.3468 2
40.4157 54.9558 3.99213
35.5729 65.4354 0.0164319
37.8372 63.2175 0.0177017
40.6237 61.6542 0.0172897
40.4448 58.2174 0.0161442
35.6068 63.2117 2
38.2502 60.3378 2
38.9241 56.5147 2
37.9978 55.2688 3.99149
36.9338 57.6392 3.9833
35.3635 60.922 3.98279
33.6287 63.3447 0.0169954
30.3778 62.8639 0.0161283
32.1226 62.0115 0.0159305
33.3452 61.5247 2
28.6802 62.2094 2
31.0657 61.2294 2
29.402 60.298 3.98324
32.3559 59.7566 3.98579
28.0216 58.3842 3.98568
27.567 59.6048 2
25.3776 58.6025 3.97979
22.7554 58.2469 3.97472
23.3992 60.3588 3.98027
23.7907 59.091 2
25.0333 60.8804 2
24.4305 62.7769 3.98402
26.8676 61.5072 0.0166487
26.2281 63.4851 2
25.5461 65.496 3.98611
28.0613 64.152 0.0153688
27.4622 66.1866 2
26.8347 68.3329 3.98865
29.4057 66.7621 0.013978
28.9052 68.9451 2
28.3689 71.2637 3.9929
31.0131 69.419 0.0114058
30.6137 71.7789 2
30.1842 74.2788 4
32.8916 72.1476 0.00722908
32.6053 74.6792 2
35.0474 74.9194 0
31.7877 7.4183 3.98588
33.3467 4.92412 3.9894
33.7233 6.97773 2
35.2443 2.46274 3.99344
35.4347 4.68441 2
35.6207 6.72372 0.0132121
37.5 0 4
37.5142 2.38633 2
37.5232 4.61466 0.0101727
39.7887 2.47397 0.0065722
39.9526 0.0802889 2
42.3946 0.32156 0
42.6196 35.7134 3.81777
44.4431 35.545 2
40.7565 34.1988 3.87338
42.2948 34.1155 2
48.0097 37.7407 0.044124
51.1645 35.5801 0.0212316
45.832 35.135 0.105737
43.6763 33.8358 0.152944
41.9519 32.986 0.232787
48.2009 34.2898 2
44.9596 33.0269 2
42.5564 32.3103 2
40.8527 32.6393 2
46.208 31.5605 3.95297
43.5776 31.2474 3.88434
41.0802 31.1708 3.85306
39.2941 32.2875 3.81394
35.6927 11.7741 3.98151
37.311 10.6278 2
37.4579 8.53273 0.0150104
38.9768 10.1254 0.0160604
33.0978 11.2147 3.98174
34.7539 10.3771 2
35.8986 9.77164 0.0165523
30.4817 10.0156 3.98347
32.3768 9.3669 2
34.1503 8.82075 0.0153858
49.8553 31.4193 0.0286697
49.2108 27.5094 0.023357
49.367 24.428 0.0174274
47.178 21.9791 0.0256822
44.7987 18.4671 0.0221619
42.1011 14.3091 0.0206693
38.3027 12.7347 0.0194098
36.5822 12.9302 2
47.6932 29.5124 2
38.6809 14.8077 2
41.7487 17.8444 2
47.0663 25.1693 2
44.285 21.3346 2
45.4858 27.6542 4.00138
43.7794 24.0682 4.00037
41.3392 20.7252 3.97946
35.7724 14.7572 3.98028
38.681 17.6006 3.97638
40.8961 37.483 3.91528
42.7482 37.4916 2
44.7073 37.4974 0.149498
45.3927 55.9372 0.0121763
45.5146 52.5317 0.0174317
46.03 48.9053 0.0148728
42.6142 39.2756 0.18321
43.5731 43.7599 0.112152
43.3229 46.1164 0.0611437
43.3899 48.4407 -0.00407171
41.067 43.8402 0.14753
40.7476 40.8042 0.125198
39.2883 42.7193 0.184846
43.7294 54.4518 2
40.8439 39.1686 2
39.1562 40.8853 2
43.6617 50.5084 2
41.914 47.6784 2
41.8681 45.2026 2
37.4952 42.8267 2
39.3762 44.5859 2
41.8702 53.0271 3.99469
39.1782 39.1733 3.93703
37.4948 40.939 3.92295
35.708 42.7183 3.81533
40.8934 49.7206 4.00156
39.804 46.0859 3.87484
37.4936 44.7976 3.85552
42.1056 56.3455 0.012277
40.4158 54.9566 2
38.7261 53.8852 3.99601
35.607 63.2109 0.0178782
38.2506 60.3368 0.0174904
38.9241 56.5126 0.00987149
35.3631 60.9227 2
36.9337 57.6404 2
37.9979 55.2701 2
36.3189 55.3974 3.99096
34.487 58.5342 3.98578
33.3454 61.5239 0.016734
28.6803 62.2088 0.0161659
31.0657 61.2289 0.0162996
32.3558 59.7572 2
29.402 60.2986 2
30.2977 57.8302 3.9861
28.0214 58.3848 2
26.9455 56.8343 3.97968
27.567 59.6043 0.0178709
25.3775 58.6032 2
23.8392 56.8058 3.97275
21.333 57.4021 3.97406
21.9921 59.6294 3.97942
22.7552 58.2481 2
22.7345 62.028 3.98273
23.3992 60.3597 2
23.7908 59.0902 0.0195142
25.0332 60.8797 0.0178453
24.4307 62.7776 2
23.68 64.7143 3.98581
26.2279 63.4845 0.015335
25.5462 65.4966 2
24.8068 67.594 3.98865
27.4621 66.1859 0.0139538
26.8347 68.3335 2
26.1641 70.6045 3.99299
28.9052 68.9445 0.0113982
28.3687 71.264 2
27.7943 73.7221 4
30.6139 71.7786 0.0071813
30.1841 74.2794 2
32.6054 74.6784 0
29.8102 7.99159 3.98534
31.2519 5.33126 3.98892
31.7876 7.41759 2
32.9799 2.70093 3.99328
33.3466 4.92355 2
33.7234 6.97837 0.0136904
35.0474 0.080333 4
35.2442 2.46242 2
35.4347 4.68493 0.010367
37.5 0 2
37.5141 2.38664 0.00657928
39.9526 0.0806499 0
40.8521 35.8062 3.90591
42.6174 35.716 2
44.4328 35.5553 0.15613
28.5424 10.6909 3.9832
39.1689 34.1121 3.90336
40.7487 34.2041 2
42.3004 34.1157 0.200009
48.1875 34.3082 0.0223234
44.9402 33.0393 0.111626
42.5333 32.3298 0.145807
40.8537 32.6417 0.20015
46.2288 31.5525 2
43.5901 31.2319 2
41.1004 31.1486 2
39.2886 32.2929 2
44.3605 29.7537 3.94352
41.8658 29.8274 3.89686
39.3764 30.4319 3.86655
37.5015 32.1734 3.83052
34.0926 12.9325 3.98082
35.6927 11.7734 2
37.311 10.6287 0.0174517
31.1856 11.9828 3.98212
33.0978 11.2139 2
34.7539 10.3778 0.0172314
30.4815 10.0147 2
32.377 9.36755 0.0160151
47.6906 29.5276 0.00899719
47.0636 25.1699 0.0172539
36.5824 12.9307 0.0186676
44.2843 21.3418 0.0241167
41.7489 17.8447 0.0216875
38.6814 14.8081 0.020831
35.7717 14.7568 2
45.4879 27.6532 2
38.6801 17.5995 2
41.339 20.7223 2
43.781 24.0642 2
33.6077 15.8738 3.98013
43.0177 26.4898 3.99753
40.9059 23.2943 4.00229
38.4192 20.3378 3.97691
35.848 17.509 3.97992
39.1946 37.4846 3.94531
40.8893 37.4827 2
42.744 37.4904 0.181013
43.729 54.4501 0.00255921
43.6594 50.4944 -0.000764855
40.8501 39.1723 0.0960561
41.8448 45.1854 0.106216
41.9175 47.666 0.027061
39.3546 44.5742 0.135003
39.1632 40.8936 0.0961114
37.4948 42.8359 0.170522
41.8726 53.0287 2
39.1689 39.1713 2
37.495 40.9297 2
40.9007 49.727 2
35.7128 42.7134 2
39.8288 46.1085 2
37.4917 44.8053 2
39.8059 51.938 3.9954
37.4928 39.1865 3.95841
35.825 40.9027 3.90324
34.1445 42.3634 3.80099
35.6141 44.5746 3.86344
38.689 48.7395 3.98386
37.4829 46.4024 3.87897
40.4157 54.9558 0.00786668
38.7268 53.8856 2
36.7192 53.2315 4.0066
35.3635 60.922 0.0172064
36.9338 57.6392 0.0167001
37.9978 55.2688 0.00850855
34.4867 58.5347 2
36.3189 55.3994 2
33.2278 55.5193 3.98996
32.3559 59.7566 0.0142121
29.402 60.298 0.0167555
30.2975 57.8311 2
28.6929 55.324 3.97919
28.0216 58.3842 0.0143159
26.945 56.8347 2
25.3133 55.1434 3.9745
21.8111 55.3484 3.96942
25.3776 58.6025 0.0202134
23.8388 56.8077 2
20.218 57.0301 3.97814
20.6439 58.7856 3.97725
21.3327 57.4039 2
21.165 61.1766 3.98102
21.992 59.6305 2
22.7554 58.2469 0.0252761
21.8934 63.8421 3.98512
22.7346 62.0289 2
23.3992 60.3588 0.0197344
24.4305 62.7769 0.0159846
23.6801 64.715 2
22.835 66.7376 3.98865
25.5461 65.496 0.0138915
24.8069 67.5946 2
24.0083 69.8056 3.99302
26.8347 68.3329 0.0113535
26.1638 70.6047 2
25.446 73.0099 4
28.3689 71.2637 0.00710356
27.7943 73.7222 2
30.1842 74.2788 0
27.82 8.65126 3.98508
29.1538 5.87703 3.98843
29.81 7.99078 2
30.725 3.09813 3.99305
31.2517 5.33071 2
31.7877 7.4183 0.0141239
32.6053 0.320823 4
32.9798 2.70059 2
33.3467 4.92412 0.0106045
35.0474 0.0802903 2
35.2443 2.46274 0.00655774
37.5 0 0
39.1882 35.8083 3.93588
40.8449 35.8098 2
42.6196 35.7134 0.182232
28.5423 10.6902 2
26.6211 11.386 3.98339
29.2244 12.6392 3.98277
37.4994 34.0695 3.92309
39.16 34.121 2
40.7565 34.1988 0.126619
46.208 31.5605 0.0470256
43.5776 31.2474 0.115663
41.0802 31.1708 0.146939
39.2941 32.2875 0.186057
44.3778 29.7386 2
41.8843 29.8081 2
39.3919 30.4166 2
37.5037 32.1826 2
42.3503 28.3952 3.92847
39.8593 28.9176 3.8927
37.5212 30.2003 3.85397
35.7148 32.2855 3.8142
31.9141 14.4775 3.98137
34.0925 12.9318 2
35.6927 11.7741 0.0184922
31.1856 11.9819 2
33.0978 11.2147 0.0182569
30.4817 10.0156 0.0165273
45.4858 27.6542 -0.00137754
43.7794 24.0682 -0.000370872
35.7724 14.7572 0.0197158
41.3392 20.7252 0.0205405
38.681 17.6006 0.0236177
33.6069 15.8734 2
35.8466 17.5091 2
43.0224 26.4894 2
38.4192 20.3355 2
40.9047 23.2865 2
33.5497 17.3835 3.9821
40.3992 25.6347 4.00544
38.0732 22.8739 3.9942
35.583 20.0788 3.98281
37.4947 37.4948 3.96807
39.1848 37.485 2
40.8961 37.483 0.0847191
41.8702 53.0271 0.00531364
40.8934 49.7206 -0.00156074
39.1782 39.1733 0.0629739
39.804 46.0859 0.125163
37.4936 44.7976 0.144481
37.4948 40.939 0.0770532
35.708 42.7183 0.184666
39.8113 51.9396 2
37.4939 39.1827 2
35.8335 40.8946 2
38.6888 48.7714 2
34.1455 42.3652 2
35.6012 44.5916 2
37.4843 46.4241 2
37.644 51.0262 4.0083
35.8115 39.1897 3.93757
34.2443 40.8131 3.87458
33.0393 42.0198 3.76841
33.9093 43.8299 3.85173
35.1466 46.07 3.88615
36.857 48.3805 3.95772
38.7261 53.8852 0.00399373
36.7194 53.2346 2
34.362 52.4882 3.9937
34.487 58.5342 0.0142231
36.3189 55.3974 0.00904156
33.2271 55.52 2
30.5221 53.3825 3.98033
30.2977 57.8302 0.0138976
28.6923 55.3252 2
26.8885 53.4359 3.97423
26.9455 56.8343 0.0203235
25.3128 55.1464 2
23.5805 53.477 3.96737
20.4755 53.2162 3.96338
19.9326 55.8319 3.97259
21.8101 55.3499 2
23.8392 56.8058 0.0272489
19.4367 57.8915 3.97648
20.2175 57.0317 2
19.7049 60.2086 3.97884
20.6437 58.7868 2
21.333 57.4021 0.0259426
20.206 62.8628 3.98341
21.165 61.1777 2
21.9921 59.6294 0.0205844
20.9364 65.7666 3.98841
21.8935 63.843 2
22.7345 62.028 0.0172735
23.68 64.7143 0.0141926
22.8351 66.7383 2
21.9107 68.8726 3.99297
24.8068 67.594 0.0113519
24.008 69.8058 2
23.1494 72.1454 4
26.1641 70.6045 0.00700626
25.446 73.0099 2
27.7943 73.7221 0
25.8591 9.37947 3.98475
27.0685 6.54115 3.9879
27.8198 8.6505 2
28.4871 3.64413 3.9928
29.1536 5.8764 2
29.8102 7.99159 0.0146605
30.1841 0.720592 4
30.7249 3.09782 2
31.2519 5.33126 0.011084
32.6053 0.320817 2
32.9799 2.70093 0.00671718
35.0474 0.080333 0
37.497 35.8091 3.95979
39.1762 35.8111 2
40.8521 35.8062 0.0940933
24.7759 12.0689 3.98361
23.7505 14.3543 3.98275
28.5424 10.6909 0.0167986
26.6211 11.3854 2
29.2244 12.6384 2
27.2905 13.3716 3.98309
29.7795 14.1986 3.98226
35.8329 34.1058 3.9048
37.4988 34.0784 2
39.1689 34.1121 0.0966379
37.5015 32.1734 0.169475
44.3605 29.7537 0.056485
41.8658 29.8274 0.103142
39.3764 30.4319 0.133454
42.3685 28.3753 2
39.8739 28.8917 2
37.5204 30.1941 2
35.7219 32.2903 2
40.046 27.5453 3.92357
37.5308 28.5981 3.88911
35.6427 30.4363 3.86723
34.1599 32.6382 3.80024
30.9254 16.834 3.98202
31.9138 14.4768 2
34.0926 12.9325 0.0191814
31.1856 11.9828 0.0178753
43.0177 26.4898 0.00247277
40.9059 23.2943 -0.00228587
33.6077 15.8738 0.0198736
35.848 17.509 0.0200787
38.4192 20.3378 0.0230909
33.5485 17.3835 2
35.5828 20.079 2
40.4001 25.6274 2
38.0698 22.8715 2
32.8622 19.7901 3.98279
37.798 25.1866 4.01178
35.1988 22.6366 3.99052
35.8005 37.5005 3.948
37.4953 37.4941 2
39.1946 37.4846 0.0546923
39.8059 51.938 0.00460138
38.689 48.7395 0.0161356
37.4928 39.1865 0.0415914
37.4829 46.4024 0.121029
35.6141 44.5746 0.136562
35.825 40.9027 0.0967581
34.1445 42.3634 0.199009
37.6502 51.0387 2
35.8235 39.1864 2
34.2507 40.808 2
36.849 48.3994 2
33.0302 42.0279 2
33.8939 43.8487 2
35.1317 46.0878 2
35.4729 50.1553 4.00536
34.1507 39.1887 3.90763
32.6903 40.8882 3.80209
32.4581 42.6764 3.85834
33.1372 45.1759 3.89427
34.2665 47.443 3.93398
36.7192 53.2315 -0.00660355
34.3624 52.4925 2
32.0121 51.1915 4.00196
33.2278 55.5193 0.010039
30.5215 53.3872 2
28.4365 51.5968 3.9785
28.6929 55.324 0.0208072
26.8875 53.4379 2
25.09 51.7432 3.9642
25.3133 55.1434 0.0254955
23.5794 53.4789 2
21.9786 51.7982 3.96355
19.2115 51.6316 3.96677
18.9259 54.304 3.96566
20.4744 53.2157 2
18.4464 56.7232 3.97648
19.9318 55.8335 2
21.8111 55.3484 0.0305765
18.3677 59.1127 3.97592
19.4363 57.8926 2
20.218 57.0301 0.0218613
18.6174 61.7689 3.98124
19.7049 60.2098 2
20.6439 58.7856 0.0227485
19.1255 64.6772 3.9875
20.2061 62.8639 2
21.165 61.1766 0.018979
19.8848 67.8092 3.99286
20.9365 65.7674 2
21.8934 63.8421 0.0148763
22.835 66.7376 0.0113474
21.9104 68.8728 2
20.9142 71.1327 4
24.0083 69.8056 0.00697771
23.1494 72.1455 2
25.446 73.0099 0
23.0953 12.7837 3.98326
23.9715 10.1661 3.98459
25.0222 7.31144 3.98748
25.859 9.37883 2
26.2788 4.32842 3.99252
27.0682 6.54056 2
27.82 8.65126 0.0149198
27.7943 1.27781 4
28.4869 3.64382 2
29.1538 5.87703 0.0115679
30.1841 0.720551 2
30.725 3.09813 0.00695208
32.6053 0.320823 0
35.8121 35.8141 3.93938
37.4967 35.8121 2
39.1882 35.8083 0.0641249
24.7761 12.0685 2
23.7509 14.3539 2
22.4793 15.031 3.98216
25.3566 13.9034 3.98262
24.0239 15.6168 3.98166
26.6211 11.386 0.0166103
29.2244 12.6392 0.0172338
27.2907 13.3711 2
29.7795 14.198 2
28.3555 15.9724 3.9827
34.2541 34.1955 3.87396
35.8408 34.1136 2
37.4994 34.0695 0.0769124
35.7148 32.2855 0.185796
37.5212 30.2003 0.146034
42.3503 28.3952 0.0715301
39.8593 28.9176 0.1073
40.0586 27.5296 2
37.5347 28.5736 2
35.6273 30.4144 2
34.1582 32.6368 2
37.6181 27.2388 3.93639
35.1899 28.9157 3.88969
33.9227 31.168 3.85173
33.063 32.9805 3.76917
30.2073 19.3368 3.98547
30.9248 16.834 2
31.9141 14.4775 0.01863
40.3992 25.6347 -0.00543661
38.0732 22.8739 0.00580266
33.5497 17.3835 0.0179026
35.583 20.0788 0.0171889
32.8615 19.7911 2
35.1969 22.6361 2
37.7862 25.1843 2
32.3102 22.4063 3.99094
34.9905 25.1764 4.00621
34.0999 37.5021 3.91664
35.8116 37.4998 2
37.4947 37.4948 0.0319284
37.644 51.0262 -0.00830029
36.857 48.3805 0.0422826
35.8115 39.1897 0.0624279
35.1466 46.07 0.113848
33.9093 43.8299 0.148272
34.2443 40.8131 0.125415
33.0393 42.0198 0.231592
35.47 50.1694 2
34.1612 39.1854 2
32.6938 40.8884 2
34.2623 47.477 2
32.4407 42.6926 2
33.1215 45.1945 2
33.257 49.1447 4.0043
32.3708 39.2851 3.81958
31.3054 41.1644 3.84847
31.4174 43.7579 3.89038
32.2603 46.3617 3.93242
34.362 52.4882 0.00630416
32.0103 51.1993 2
29.8746 49.711 3.98997
30.5221 53.3825 0.019665
28.4346 51.5967 2
26.5256 49.9819 3.97041
26.8885 53.4359 0.0257738
25.0882 51.742 2
23.3598 50.1897 3.97143
23.5805 53.477 0.0326347
21.9774 51.7972 2
20.4767 50.3134 3.96934
17.9979 50.3287 3.9692
17.8417 52.788 3.96538
19.2107 51.6311 2
17.4389 55.3376 3.96858
18.9249 54.304 2
20.4755 53.2162 0.0366179
17.1345 57.8739 3.97582
18.4457 56.7243 2
19.9326 55.8319 0.0274133
17.1355 60.5503 3.97826
18.3675 59.114 2
19.4367 57.8915 0.0235242
17.4063 63.4691 3.9852
18.6174 61.7702 2
19.7049 60.2086 0.0211641
17.941 66.6176 3.9926
19.1255 64.6781 2
20.206 62.8628 0.0165862
18.75 69.9759 4
19.8845 67.8093 2
20.9364 65.7666 0.0115859
21.9107 68.8726 0.00702504
20.9142 71.1327 2
23.1494 72.1454 0
21.5863 13.604 3.98269
22.1896 11.0254 3.98423
23.0956 12.7835 2
23.0401 8.17694 3.98722
23.9716 10.1657 2
24.1164 5.14323 3.99227
25.0219 7.31091 2
25.8591 9.37947 0.0152471
25.446 1.99014 4
26.2785 4.32818 2
27.0685 6.54115 0.0121041
27.7943 1.27778 2
28.4871 3.64413 0.00719629
30.1841 0.720592 0
34.1452 35.8163 3.90537
35.8224 35.8162 2
37.497 35.8091 0.0402075
21.3046 15.8268 3.982
24.7759 12.0689 0.0163895
23.7505 14.3543 0.0172543
25.3569 13.9032 2
22.4798 15.0309 2
24.0244 15.6166 2
23.2633 16.2488 3.98134
25.3793 16.085 3.98243
27.2905 13.3716 0.0169092
29.7795 14.1986 0.0177442
28.3557 15.9724 2
27.4391 18.7947 3.98434
32.7114 34.1118 3.80053
34.2632 34.201 2
35.8329 34.1058 0.0951978
34.1599 32.6382 0.199758
35.6427 30.4363 0.13277
37.5308 28.5981 0.11089
40.046 27.5453 0.0764303
37.6196 27.2085 2
33.0499 32.9731 2
35.1764 28.8959 2
33.907 31.1449 2
35.0711 27.3646 3.93972
33.1605 29.83 3.89001
32.4706 32.3176 3.85082
29.5776 21.9303 3.99665
30.2071 19.3385 2
30.9254 16.834 0.0179785
37.798 25.1866 -0.0117824
35.1988 22.6366 0.00947671
32.8622 19.7901 0.0172054
32.3076 22.4063 2
35.0045 25.171 2
31.7167 25.6251 4.00152
32.2442 37.5036 3.82101
34.1085 37.5029 2
35.8005 37.5005 0.0520026
35.4729 50.1553 -0.00536391
34.2665 47.443 0.0660234
34.1507 39.1887 0.0923723
33.1372 45.1759 0.105733
32.4581 42.6764 0.141662
32.6903 40.8882 0.19791
33.2516 49.1369 2
32.3734 39.2822 2
31.2836 41.1768 2
32.2383 46.3856 2
31.4008 43.7718 2
31.1722 47.9727 3.99448
30.5575 39.4441 3.84543
30.0479 41.9623 3.88891
30.4525 44.9476 3.94271
32.0121 51.1915 -0.00196191
29.8714 49.7101 2
27.9026 48.1786 3.97387
28.4365 51.5968 0.0214968
26.5236 49.9808 2
24.6777 48.467 3.9748
25.09 51.7432 0.0358002
23.3591 50.1886 2
21.6902 48.7873 3.97137
21.9786 51.7982 0.0364473
20.4762 50.3126 2
19.0529 49.0909 3.97247
16.904 49.3297 3.97207
16.7806 51.4048 3.96747
17.9979 50.3281 2
16.3944 53.866 3.96602
17.8408 52.7877 2
19.2115 51.6316 0.0332306
15.9775 56.4743 3.97172
17.4382 55.3384 2
18.9259 54.304 0.0343353
15.7493 59.2103 3.97704
17.1341 57.8752 2
18.4464 56.7232 0.0235153
15.7873 62.1383 3.98204
17.1355 60.5518 2
18.3677 59.1127 0.024079
16.0879 65.3002 3.9919
17.4062 63.4702 2
18.6174 61.7689 0.018757
16.6661 68.6801 4
17.9406 66.6177 2
19.1255 64.6772 0.0125001
18.75 69.9759 2
19.8848 67.8092 0.00713558
20.9142 71.1327 0
20.2185 14.593 3.98186
21.5866 13.604 2
20.5289 11.9953 3.98365
21.1429 9.14678 3.98707
22.1898 11.0251 2
23.0953 12.7837 0.0167388
22.0154 6.08227 3.99213
23.0398 8.17651 2
23.9715 10.1661 0.0154149
23.1494 2.85457 4
24.116 5.14306 2
25.0222 7.31144 0.012524
25.446 1.99012 2
26.2788 4.32842 0.00748031
27.7943 1.27781 0
32.3766 35.7165 3.81581
34.154 35.8207 2
35.8121 35.8141 0.0606152
21.3051 15.8265 2
20.3026 16.9609 3.98216
22.0965 16.6329 3.98002
25.3566 13.9034 0.0173786
22.4793 15.031 0.0178364
24.0239 15.6168 0.0183416
25.3798 16.0848 2
23.2638 16.2486 2
24.2034 18.4493 3.97941
27.0164 21.454 3.98948
28.3555 15.9724 0.0172995
27.4395 18.7948 2
31.3393 33.8406 3.84984
32.7158 34.1127 2
34.2541 34.1955 0.126044
33.063 32.9805 0.230831
33.9227 31.168 0.148274
35.1899 28.9157 0.110305
37.6181 27.2388 0.0636091
35.0547 27.3334 2
32.4465 32.3047 2
33.1446 29.8019 2
32.5741 28.0965 3.95624
31.4194 31.2497 3.89179
28.8211 24.3997 3.98257
29.5744 21.9335 2
30.2073 19.3368 0.0145258
34.9905 25.1764 -0.00620638
32.3102 22.4063 0.00906026
31.7245 25.6106 2
29.6811 27.3114 3.96779
30.2725 37.4955 3.85074
32.2437 37.5015 2
34.0999 37.5021 0.0833556
33.257 49.1447 -0.00429752
32.2603 46.3617 0.067581
32.3708 39.2851 0.180416
31.4174 43.7579 0.109622
31.3054 41.1644 0.151533
31.1694 47.9752 2
30.5386 39.4555 2
30.0299 41.9752 2
30.4282 44.964 2
29.2263 46.5731 4.00057
29.1474 39.8559 3.8926
28.764 43.1701 3.94772
29.8746 49.711 0.0100262
27.8994 48.1749 2
25.9948 46.6527 3.9753
26.5256 49.9819 0.0295853
24.6763 48.4653 2
22.8544 47.0747 3.97572
23.3598 50.1897 0.0285732
21.6893 48.7864 2
20.0133 47.6168 3.97699
20.4767 50.3134 0.0306629
19.0538 49.0901 2
17.6873 48.1769 3.97533
16.1509 48.6814 3.97383
16.9046 49.3292 2
15.8565 50.168 3.96958
15.3834 52.4126 3.96803
16.78 51.4046 2
17.9979 50.3287 0.0308049
14.8721 54.9731 3.96829
16.3939 53.8663 2
17.8417 52.788 0.0346166
14.4595 57.7385 3.97522
15.977 56.4753 2
17.4389 55.3376 0.0314195
14.2658 60.6919 3.98057
15.7493 59.2117 2
17.1345 57.8739 0.0241798
14.3326 63.8592 3.99029
15.7871 62.1395 2
17.1355 60.5503 0.0217431
14.6715 67.2507 4
16.0873 65.3 2
17.4063 63.4691 0.014797
16.6661 68.6801 2
17.941 66.6176 0.00740227
18.75 69.9759 0
18.9326 15.7804 3.98115
20.2188 14.5929 2
18.9788 13.1063 3.98274
21.5863 13.604 0.017309
20.5293 11.9952 2
19.3422 10.2347 3.98676
19.99 7.14693 3.99208
21.1428 9.14646 2
22.1896 11.0254 0.015775
20.9142 3.86727 4
22.0149 6.08225 2
23.0401 8.17694 0.0127797
23.1494 2.85451 2
24.1164 5.14323 0.00773208
25.446 1.99014 0
30.5767 35.5654 3.84916
32.3814 35.7185 2
34.1452 35.8163 0.0946258
21.3046 15.8268 0.0180013
22.0969 16.6327 2
20.3029 16.9603 2
19.244 18.4087 3.97897
21.7813 17.8501 3.98059
25.3793 16.085 0.0175655
23.2633 16.2488 0.0186555
24.2039 18.4492 2
22.2801 19.8942 3.97638
24.5952 21.3231 3.98289
26.4332 23.7197 3.97115
27.0155 21.4542 2
27.4391 18.7947 0.0156584
30.0737 33.0425 3.89193
31.3095 33.8147 2
32.7114 34.1118 0.199472
32.4706 32.3176 0.14918
33.1605 29.83 0.109992
35.0711 27.3646 0.0602845
32.5661 28.0838 2
31.4181 31.2351 2
30.1631 29.5435 3.9607
27.9215 26.5401 3.97813
28.8232 24.4082 2
29.5776 21.9303 0.0033529
31.7167 25.6251 -0.00151523
29.6785 27.2734 2
28.8123 37.514 3.90028
30.2652 37.4995 2
32.2442 37.5036 0.178986
31.1722 47.9727 0.00551552
30.4525 44.9476 0.0572911
30.5575 39.4441 0.154573
30.0479 41.9623 0.11109
29.2233 46.5881 2
29.1267 39.8726 2
28.7407 43.185 2
27.3485 44.8643 3.98576
26.9177 40.5853 3.96817
27.9026 48.1786 0.0261307
25.9906 46.6552 2
24.0749 45.2115 3.9786
24.6777 48.467 0.0251984
22.8534 47.0732 2
20.9836 45.8915 3.97888
21.6902 48.7873 0.028629
20.0148 47.616 2
18.3494 46.7354 3.97734
19.0529 49.0909 0.0275299
17.6876 48.1764 2
16.3475 47.7113 3.97492
16.1513 48.681 2
15.1999 49.0134 3.97184
16.904 49.3297 0.0279253
15.8569 50.1677 2
14.4948 50.9827 3.96901
13.8348 53.4305 3.96899
15.3835 52.4125 2
16.7806 51.4048 0.0325313
13.2566 56.1648 3.9717
14.8717 54.9737 2
16.3944 53.866 0.033978
12.8486 59.1252 3.97952
14.4593 57.7397 2
15.9775 56.4743 0.0282783
12.6783 62.3015 3.98809
14.2656 60.693 2
15.7493 59.2103 0.0229617
12.7746 65.6939 4
14.3317 63.8588 2
15.7873 62.1383 0.0179554
14.6714 67.2507 2
16.0879 65.3002 0.0080961
16.6661 68.6801 0
17.6678 17.1565 3.97894
18.9329 15.78 2
17.5106 14.371 3.98149
20.2185 14.593 0.0181375
18.9792 13.106 2
17.6379 11.4536 3.98587
20.5289 11.9953 0.0163534
19.3423 10.2344 2
18.0502 8.33974 3.99203
18.75 5.0241 4
19.9895 7.14711 2
21.1429 9.14678 0.0129327
20.9142 3.86727 2
22.0154 6.08227 0.00787122
23.1494 2.85457 0
29.1676 35.1264 3.89624
30.559 35.5516 2
32.3766 35.7165 0.184188
22.0965 16.6329 0.0199833
20.3026 16.9609 0.0178356
21.7816 17.8497 2
19.2443 18.408 2
17.983 19.942 3.97565
20.8776 19.3802 3.97884
24.2034 18.4493 0.0205945
22.2805 19.8938 2
24.5951 21.3239 2
22.3634 21.7209 3.97876
24.7078 23.1685 3.97264
25.503 25.9492 3.96827
26.4364 23.7199 2
27.0164 21.454 0.0105209
28.4456 32.3359 3.9421
30.0511 33.0334 2
31.3393 33.8406 0.150157
31.4194 31.2497 0.108213
32.5741 28.0965 0.0437573
30.1436 29.5312 2
27.0842 29.1318 4.00217
27.9183 26.5393 2
28.8211 24.3997 0.0174327
29.6811 27.3114 0.0322093
27.0421 37.3717 3.95194
28.7843 37.5044 2
30.2725 37.4955 0.149257
29.2263 46.5731 -0.000573576
28.764 43.1701 0.0522755
29.1474 39.8559 0.107404
27.3443 44.8784 2
26.9051 40.6022 2
25.3651 43.1698 3.9743
24.1663 39.4325 3.97966
25.9948 46.6527 0.0246958
24.0669 45.211 2
21.971 43.9479 3.97869
22.8544 47.0747 0.0242819
20.9845 45.8906 2
19.027 44.9663 3.97793
20.0133 47.6168 0.023008
18.3506 46.7349 2
16.6499 46.2101 3.97541
17.6873 48.1769 0.0246654
16.3479 47.711 2
14.9351 47.6679 3.97273
16.1509 48.6814 0.0261743
15.2004 49.0131 2
13.7916 49.5444 3.97001
15.8565 50.168 0.0304164
14.4951 50.9826 2
12.9006 51.8716 3.96967
12.1453 54.5235 3.97092
13.8349 53.4305 2
15.3834 52.4126 0.0319681
11.5343 57.4567 3.97701
13.2564 56.1657 2
14.8721 54.9731 0.0317101
11.1331 60.6274 3.98651
12.8485 59.1261 2
14.4595 57.7385 0.0247783
10.9835 64.0165 4
12.6773 62.3005 2
14.2658 60.6919 0.019427
12.7745 65.694 2
14.3326 63.8592 0.00970639
14.6715 67.2507 0
16.402 18.6516 3.97695
17.6679 17.1559 2
16.1019 15.7805 3.98064
18.9326 15.7804 0.0188512
17.5109 14.3704 2
16.0197 12.8074 3.98392
18.9788 13.1063 0.0172558
17.6381 11.4532 2
16.2014 9.6627 3.99186
19.3422 10.2347 0.0132436
18.0497 8.3401 2
16.6661 6.31991 4
18.75 5.02404 2
19.99 7.14693 0.00792099
20.9142 3.86727 0
27.5629 34.7785 3.9428
29.1421 35.1133 2
30.5767 35.5654 0.150839
16.6879 21.381 3.96999
21.7813 17.8501 0.0194095
19.244 18.4087 0.0210339
20.878 19.3796 2
17.9833 19.9412 2
19.7296 21.5756 3.97895
22.2801 19.8942 0.0236183
24.5952 21.3231 0.0171137
22.3637 21.7207 2
24.7091 23.168 2
22.8659 24.6026 3.97072
24.6264 28.5292 3.97348
25.5008 25.9475 2
26.4332 23.7197 0.0288481
26.2882 31.7042 3.98996
28.4227 32.3204 2
30.0737 33.0425 0.108065
30.1631 29.5435 0.0393032
27.0935 29.1281 2
27.9215 26.5401 0.0218656
24.8678 36.8564 3.98866
27.0228 37.3681 2
28.8123 37.514 0.0997235
27.3485 44.8643 0.0142392
26.9177 40.5853 0.0318341
25.3533 43.1753 2
24.1554 39.4325 2
23.0658 41.7927 3.98068
21.8845 38.5075 3.97749
24.0749 45.2115 0.0213974
21.9709 43.9478 2
19.8125 42.8818 3.97811
20.9836 45.8915 0.0211245
19.0271 44.966 2
16.994 44.3773 3.97617
18.3494 46.7354 0.0226572
16.6503 46.2098 2
14.8636 46.0882 3.97295
16.3475 47.7113 0.0250807
14.9354 47.6677 2
13.2992 48.0071 3.97036
15.1999 49.0134 0.028162
13.792 49.5443 2
12.1188 50.2512 3.96992
14.4948 50.9827 0.0309892
12.901 51.8715 2
11.1406 52.8341 3.97144
10.3258 55.7087 3.97547
12.1455 54.5238 2
13.8348 53.4305 0.0310126
9.7 58.8494 3.98451
11.5341 57.4573 2
13.2566 56.1648 0.0283042
9.30605 62.2254 4
11.1318 60.6259 2
12.8486 59.1252 0.0204792
10.9835 64.0165 2
12.6783 62.3015 0.0119085
12.7746 65.6939 0
15.1503 20.1882 3.97147
16.4022 18.6508 2
14.7484 17.304 3.97818
17.6678 17.1565 0.0210607
16.1021 15.7796 2
14.4825 14.2899 3.98242
17.5106 14.371 0.0185139
16.0199 12.8068 2
14.4443 11.1137 3.99123
17.6379 11.4536 0.0141257
16.2009 9.66318 2
14.6715 7.74927 4
18.0502 8.33974 0.0079696
16.6661 6.31988 2
18.75 5.0241 0
25.5175 34.2672 3.98979
27.5424 34.7711 2
29.1676 35.1264 0.103758
17.8654 22.326 3.98378
15.5361 22.9218 3.97072
16.6881 21.3801 2
20.8776 19.3802 0.0211613
17.983 19.942 0.0243479
19.73 21.5748 2
19.6847 24.3818 3.96909
22.3634 21.7209 0.0212429
24.7078 23.1685 0.0273588
22.8657 24.6018 2
21.9944 27.8267 3.97089
23.8493 31.1903 3.97506
24.6318 28.5284 2
25.503 25.9492 0.031731
26.2788 31.6937 2
28.4456 32.3359 0.0579024
27.0842 29.1318 -0.00217317
22.6169 36.28 3.97946
24.8491 36.8544 2
27.0421 37.3717 0.0480592
25.3651 43.1698 0.0257011
24.1663 39.4325 0.0203401
23.0611 41.7912 2
21.879 38.5075 2
20.8068 40.6371 3.97684
20.2129 37.7872 3.97729
21.971 43.9479 0.0213128
19.8134 42.8824 2
17.4231 42.0981 3.97687
19.027 44.9663 0.0220703
16.9947 44.3771 2
14.8781 44.1981 3.97324
16.6499 46.2101 0.0245943
14.8639 46.088 2
12.9735 46.2941 3.97046
14.9351 47.6679 0.0272731
13.2995 48.007 2
11.4897 48.5488 3.96972
13.7916 49.5444 0.0299908
12.1192 50.2512 2
10.2659 51.0791 3.97137
12.9006 51.8716 0.0303341
11.141 52.8341 2
9.2347 53.8879 3.97536
8.38386 56.9818 3.98326
10.3259 55.7087 2
12.1453 54.5235 0.0290831
7.74927 60.3285 4
9.69877 58.8471 2
11.5343 57.4567 0.0229922
9.306 62.2255 2
11.1331 60.6274 0.0134941
10.9835 64.0165 0
13.9651 21.7559 3.96911
15.1505 20.1873 2
13.4511 18.9025 3.97462
16.402 18.6516 0.0230455
14.7487 17.3028 2
13.0282 15.8832 3.98126
16.1019 15.7805 0.0193608
14.4826 14.2889 2
12.7819 12.6871 3.9897
16.0197 12.8074 0.0160838
14.4438 11.1143 2
12.7746 9.30605 4
16.2014 9.6627 0.00813889
14.6715 7.74924 2
16.6661 6.31991 0
23.1871 33.8036 3.97822
25.4972 34.2638 2
27.5629 34.7785 0.0571993
17.6459 24.0418 3.96925
17.8656 22.3252 2
14.3208 24.4503 3.96982
15.5366 22.9214 2
16.6879 21.381 0.0300091
19.0971 27.205 3.97036
19.7296 21.5756 0.0210496
19.6842 24.3813 2
21.2659 30.6667 3.97273
22.8659 24.6026 0.0292782
21.996 27.8266 2
23.8394 31.1902 2
24.6264 28.5292 0.0265196
26.2882 31.7042 0.0100361
20.3437 35.9262 3.97642
22.6142 36.2792 2
24.8678 36.8564 0.0113376
23.0658 41.7927 0.0193207
21.8845 38.5075 0.0225096
20.8035 40.6376 2
20.2123 37.7875 2
18.1619 39 3.977
19.8125 42.8818 0.0218888
17.4232 42.098 2
14.8552 41.916 3.97332
16.994 44.3773 0.0238267
14.8785 44.198 2
12.7204 44.39 3.97048
14.8636 46.0882 0.0270538
12.9736 46.294 2
10.9906 46.733 3.9694
13.2992 48.0071 0.0296446
11.4898 48.5488 2
9.52901 49.2396 3.97088
12.1188 50.2512 0.0300767
10.2663 51.079 2
8.26747 52.0017 3.97521
11.1406 52.8341 0.0285597
9.23505 53.8875 2
7.1929 55.0321 3.9836
6.31991 58.3339 4
8.38298 56.9789 2
10.3258 55.7087 0.0245312
7.74924 60.3285 2
9.7 58.8494 0.0154858
9.30605 62.2254 0
13.2335 25.3625 3.9709
12.8329 23.2831 3.97019
13.9656 21.7555 2
12.2387 20.5524 3.9718
15.1503 20.1882 0.0285312
13.4514 18.9012 2
11.6588 17.5648 3.97925
14.7484 17.304 0.0218237
13.0283 15.882 2
11.2195 14.3723 3.98774
14.4825 14.2899 0.0175785
12.7812 12.6878 2
10.9835 10.9835 4
14.4443 11.1137 0.00876787
12.7745 9.306 2
14.6715 7.74927 0
20.7055 33.3982 3.97499
23.193 33.8042 2
25.5175 34.2672 0.010212
15.9361 26.4013 3.97004
17.6456 24.0412 2
17.8654 22.326 0.0162212
14.3211 24.45 2
15.5361 22.9218 0.0292816
18.4524 30.1746 3.97314
19.0961 27.2048 2
19.6847 24.3818 0.0309084
21.2723 30.6668 2
21.9944 27.8267 0.0291117
23.8493 31.1903 0.0249358
17.7859 35.9638 3.97715
20.3424 35.9266 2
22.6169 36.28 0.0205448
20.8068 40.6371 0.0231583
20.2129 37.7872 0.0227055
18.1638 39.0001 2
14.3808 39.1746 3.97416
17.4231 42.0981 0.0231348
14.8556 41.9159 2
12.423 42.2746 3.97085
14.8781 44.1981 0.0267623
12.7205 44.39 2
10.568 44.8017 3.96887
12.9735 46.2941 0.0295422
10.9907 46.733 2
8.91118 47.3191 3.97028
11.4897 48.5488 0.0302796
9.52922 49.2395 2
7.43442 50.0353 3.97463
10.2659 51.0791 0.0286265
8.26779 52.0012 2
6.13348 53.007 3.98424
9.2347 53.8879 0.024638
7.19236 55.0293 2
5.0241 56.25 4
6.31988 58.3339 2
8.38386 56.9818 0.0167393
7.74927 60.3285 0
13.4783 26.8145 3.97033
11.9431 24.788 3.9711
13.2336 25.3623 2
11.1431 22.2372 3.97055
12.8335 23.2828 2
13.9651 21.7559 0.0308928
12.2393 20.5516 2
10.3902 19.3202 3.977
13.4511 18.9025 0.02538
11.6589 17.5637 2
9.76051 16.1562 3.98584
13.0282 15.8832 0.0187444
11.2185 14.3734 2
9.30607 12.7746 4
12.7819 12.6871 0.0102974
10.9835 10.9835 2
12.7746 9.30605 0
17.9516 33.112 3.97561
20.7039 33.3982 2
23.1871 33.8036 0.0217772
15.5401 29.6379 3.9721
15.9355 26.4011 2
17.6459 24.0418 0.0307505
14.3208 24.4503 0.0301847
18.4529 30.1746 2
19.0971 27.205 0.0296447
21.2659 30.6667 0.0272683
14.9863 36.018 3.97472
17.7855 35.9639 2
20.3437 35.9262 0.0235757
12.6478 37.8284 3.97367
18.1619 39 0.0229957
14.3815 39.1746 2
11.9445 40.1389 3.97173
14.8552 41.916 0.0266836
12.423 42.2745 2
10.1715 42.7769 3.96878
12.7204 44.39 0.0295243
10.568 44.8017 2
8.38937 45.321 3.96941
10.9906 46.733 0.0306033
8.91124 47.3191 2
6.7257 48.0007 3.9741
9.52901 49.2396 0.0291244
7.4346 50.0349 2
5.21034 50.9104 3.98421
8.26747 52.0017 0.0247937
6.13319 53.005 2
3.86727 54.0858 4
7.1929 55.0321 0.0163982
5.02404 56.25 2
6.31991 58.3339 0
12.9424 29.0331 3.96991
11.3732 26.4871 3.96948
13.4777 26.8142 2
10.2008 23.9682 3.9721
11.9435 24.7878 2
13.2335 25.3625 0.0291047
9.2436 21.1393 3.97488
11.1438 22.2368 2
12.8329 23.2831 0.0298108
12.2387 20.5524 0.028198
10.3907 19.3196 2
8.41662 18.0278 3.98423
11.6588 17.5648 0.0207497
9.75946 16.158 2
7.74928 14.6715 4
11.2195 14.3723 0.0122587
9.30602 12.7745 2
10.9835 10.9835 0
14.5462 32.8631 3.97369
17.9516 33.1121 2
20.7055 33.3982 0.0250131
15.5401 29.6378 2
15.9361 26.4013 0.0299596
18.4524 30.1746 0.0268552
12.9415 36.2086 3.97272
14.9869 36.018 2
17.7859 35.9638 0.0228493
12.6484 37.8283 2
11.2966 38.3088 3.9721
14.3808 39.1746 0.0258368
11.945 40.1388 2
9.76257 40.7533 3.96931
12.423 42.2746 0.0291519
10.1716 42.7768 2
7.93885 43.2697 3.96892
10.568 44.8017 0.031129
8.3894 45.3209 2
6.13215 45.9058 3.97334
8.91118 47.3191 0.0297239
6.72573 48.0004 2
4.42195 48.7512 3.98382
7.43442 50.0353 0.0253715
5.21018 50.9092 2
2.85457 51.8506 4
6.13348 53.007 0.0157644
3.86727 54.0858 2
5.0241 56.25 0
12.0891 31.2565 3.97105
10.7867 28.4145 3.96904
12.9424 29.033 2
9.41572 25.7979 3.97048
11.3734 26.4869 2
13.4783 26.8145 0.0296686
8.2303 23.0234 3.97504
10.2014 23.968 2
11.9431 24.788 0.0288974
7.19907 19.9785 3.98323
9.24434 21.1392 2
11.1431 22.2372 0.0294489
10.3902 19.3202 0.0229956
8.4159 18.0304 2
6.31992 16.6661 4
9.76051 16.1562 0.0141586
7.74926 14.6714 2
9.30607 12.7746 0
12.1221 34.2946 3.97288
14.5464 32.8631 2
17.9516 33.112 0.024385
15.5401 29.6379 0.0278976
10.8583 36.6105 3.97173
12.9421 36.2086 2
14.9863 36.018 0.0252796
12.6478 37.8284 0.0263271
11.2971 38.3087 2
9.35718 38.8227 3.9698
11.9445 40.1389 0.028271
9.76296 40.7532 2
7.5504 41.2109 3.96885
10.1715 42.7769 0.0312155
7.93894 43.2696 2
5.64443 43.7686 3.9728
8.38937 45.321 0.0305941
6.13217 45.9055 2
3.7677 46.5371 3.98313
6.7257 48.0007 0.0258992
4.42188 48.7507 2
1.99014 49.554 4
5.21034 50.9104 0.0157868
2.85451 51.8506 2
3.86727 54.0858 0
10.9395 32.919 3.97199
10.1029 30.3818 3.96913
12.0896 31.2565 2
8.72388 27.7314 3.96984
10.7867 28.4143 2
12.9424 29.0331 0.0300864
7.35577 24.9822 3.97435
9.41598 25.7977 2
11.3732 26.4871 0.0305205
6.11595 22.0023 3.98391
8.23088 23.0235 2
10.2008 23.9682 0.0279036
5.02411 18.75 4
7.1988 19.981 2
9.2436 21.1393 0.0251195
8.41662 18.0278 0.015773
6.3199 16.6661 2
7.74928 14.6715 0
10.464 34.9997 3.97149
12.1228 34.2945 2
14.5462 32.8631 0.0263067
9.02625 36.9844 3.97
10.8591 36.6105 2
12.9415 36.2086 0.0272806
11.2966 38.3088 0.0279042
9.35754 38.8226 2
7.23086 39.1817 3.96921
9.76257 40.7533 0.0306931
7.5506 41.2108 2
5.26004 41.6142 3.97211
7.93885 43.2697 0.0310817
5.64451 43.7684 2
3.24556 44.282 3.9826
6.13215 45.9058 0.0266623
3.76773 46.5368 2
1.27781 47.2057 4
4.42195 48.7512 0.016181
1.99012 49.554 2
2.85457 51.8506 0
10.1025 33.8812 3.97158
9.39319 32.1541 3.96968
10.9398 32.9189 2
8.07283 29.695 3.96958
10.1031 30.3817 2
12.0891 31.2565 0.0289527
6.59976 27.0082 3.97363
8.72392 27.7313 2
10.7867 28.4145 0.0309573
5.17127 24.0952 3.98414
7.35607 24.9822 2
9.41572 25.7979 0.0295191
3.86728 20.9142 4
6.11587 22.004 2
8.2303 23.0234 0.0249649
5.02406 18.75 2
7.19907 19.9785 0.0167705
6.31992 16.6661 0
8.85045 35.279 3.97017
10.4644 34.9996 2
12.1221 34.2946 0.0271198
7.0145 37.2056 3.9694
9.02625 36.9843 2
10.8583 36.6105 0.028273
9.35718 38.8227 0.0302029
7.23098 39.1816 2
4.98795 39.4674 3.97201
7.5504 41.2109 0.031154
5.26024 41.6139 2
2.8562 42.0023 3.98215
5.64443 43.7686 0.0272007
3.24567 44.2819 2
0.720592 44.8159 4
3.7677 46.5371 0.0168663
1.27778 47.2057 2
1.99014 49.554 0
8.88798 33.6974 3.97016
10.1028 33.8811 2
7.51041 31.6088 3.96974
9.39338 32.154 2
10.9395 32.919 0.0280082
5.94494 29.0691 3.97344
8.07277 29.6949 2
10.1029 30.3818 0.0308717
4.35911 26.2476 3.9835
6.59983 27.0082 2
8.72388 27.7314 0.0301615
2.85458 23.1494 4
5.17125 24.096 2
7.35577 24.9822 0.0256476
3.86728 20.9142 2
6.11595 22.0023 0.0160852
5.02411 18.75 0
6.9646 35.3057 3.96956
8.85082 35.279 2
10.464 34.9997 0.0285123
4.838 37.3397 3.97248
7.01458 37.2055 2
9.02625 36.9844 0.0299962
7.23086 39.1817 0.0307889
4.98807 39.4673 2
2.60439 39.714 3.98176
5.26004 41.6142 0.0278864
2.85642 42.0025 2
0.320823 42.3947 4
3.24556 44.282 0.0173979
0.720551 44.8159 2
1.27781 47.2057 0
7.12426 33.4605 3.96993
8.88811 33.6973 2
10.1025 33.8812 0.0284184
5.41592 31.1331 3.97324
7.51045 31.6087 2
9.39319 32.1541 0.0303236
3.6809 28.4434 3.98303
5.94487 29.0691 2
8.07283 29.695 0.0304245
1.99015 25.446 4
4.35911 26.2479 2
6.59976 27.0082 0.0263704
2.85453 23.1494 2
5.17127 24.0952 0.0158637
3.86728 20.9142 0
4.85223 35.2513 3.97269
6.96482 35.3057 2
8.85045 35.279 0.0298298
2.49575 37.4286 3.98224
4.83806 37.3397 2
7.0145 37.2056 0.0306027
4.98795 39.4674 0.0279943
2.60455 39.7144 2
0.080333 39.9526 4
2.8562 42.0023 0.0178526
0.320817 42.3947 2
0.720592 44.8159 0
5.04541 33.1898 3.97312
7.12441 33.4605 2
8.88798 33.6974 0.0298386
3.14528 30.6661 3.98258
5.41594 31.1332 2
7.51041 31.6088 0.0302614
1.27793 27.7943 4
3.6809 28.4436 2
5.94494 29.0691 0.026556
1.99013 25.446 2
4.35911 26.2476 0.0165049
2.85458 23.1494 0
2.54786 35.1591 3.98236
4.85245 35.2515 2
6.9646 35.3057 0.0304399
0 37.5 4
2.49587 37.4289 2
4.838 37.3397 0.0275159
2.60439 39.714 0.0182421
0.0802903 39.9526 2
0.320823 42.3947 0
2.76537 32.9057 3.98257
5.04557 33.19 2
7.12426 33.4605 0.0300709
0.721173 30.1842 4
3.14538 30.6665 2
5.41592 31.1331 0.0267632
1.27779 27.7943 2
3.6809 28.4434 0.0169695
1.99015 25.446 0
0.0806499 35.0474 4
2.5481 35.1594 2
4.85223 35.2513 0.027314
0 37.5 2
2.49575 37.4286 0.0177649
0.080333 39.9526 0
0.32156 32.6054 4
2.76552 32.9062 2
5.04541 33.1898 0.0268785
0.72056 30.1841 2
3.14528 30.6661 0.0174209
1.27793 27.7943 0
0.0802889 35.0474 2
2.54786 35.1591 0.0176408
0 37.5 0
0.320817 32.6053 2
2.76537 32.9057 0.0174293
0.721173 30.1842 0
0.0806499 35.0474 0
0.32156 32.6054 0
CELLS 1910 17190
8 18 6 25 56 2 0 5 16
8 57 23 6 18 17 4 0 2
8 78 36 9 29 31 11 1 7
8 31 11 1 7 79 37 10 30
8 110 57 18 50 48 17 2 14
8 50 18 56 111 14 2 16 49
8 116 62 22 55 52 20 3 15
8 56 25 67 118 16 5 24 53
8 119 63 23 57 54 21 4 17
8 55 22 63 119 15 3 21 54
8 58 26 68 121 18 6 25 56
8 122 65 26 58 57 23 6 18
8 73 31 7 27 142 79 30 71
8 143 78 29 72 73 31 7 27
8 83 147 76 34 32 74 28 8
8 84 148 78 36 33 75 29 9
8 76 34 8 28 148 84 33 75
8 37 79 150 86 10 30 77 35
8 151 87 36 78 80 38 11 31
8 80 38 11 31 152 88 37 79
8 175 100 42 94 96 44 12 40
8 44 96 176 101 12 40 95 43
8 101 176 98 46 43 95 41 13
8 46 98 178 103 13 41 97 45
8 178 103 45 97 147 83 32 74
8 189 116 55 109 106 52 15 47
8 111 56 118 191 49 16 53 107
8 192 119 57 110 108 54 17 48
8 109 55 119 192 47 15 54 108
8 194 122 58 112 110 57 18 50
8 112 58 121 195 50 18 56 111
8 115 61 19 51 197 124 59 113
8 115 61 125 198 51 19 60 114
8 198 125 62 116 114 60 20 52
8 200 127 64 120 116 62 22 55
8 118 67 132 202 53 24 66 117
8 121 68 133 203 56 25 67 118
8 120 64 128 204 55 22 63 119
8 204 128 65 122 119 63 23 57
8 206 134 68 121 123 69 26 58
8 123 69 26 58 207 131 65 122
8 226 147 74 138 140 76 28 70
8 229 148 75 139 143 78 29 72
8 140 76 28 70 229 148 75 139
8 142 79 30 71 231 150 77 141
8 144 80 31 73 232 152 79 142
8 233 151 78 143 144 80 31 73
8 150 86 35 77 235 154 81 145
8 235 154 81 145 146 82 39 91
8 146 82 39 91 236 155 90 165
8 238 157 83 147 149 85 34 76
8 239 158 84 148 151 87 36 78
8 149 85 34 76 239 158 84 148
8 152 88 37 79 241 160 86 150
8 242 161 87 151 153 89 38 80
8 153 89 38 80 243 162 88 152
8 171 98 41 92 265 178 97 169
8 265 178 97 169 226 147 74 138
8 172 96 40 93 266 176 95 170
8 266 176 95 170 171 98 41 92
8 269 175 94 173 172 96 40 93
8 271 180 99 174 175 100 42 94
8 197 124 59 113 271 180 99 174
8 272 181 100 175 177 102 44 96
8 273 182 101 176 179 104 46 98
8 177 102 44 96 273 182 101 176
8 179 104 46 98 275 184 103 178
8 275 184 103 178 238 157 83 147
8 188 115 51 105 283 197 113 186
8 188 115 198 284 105 51 114 187
8 284 198 116 189 187 114 52 106
8 286 200 120 193 189 116 55 109
8 191 118 202 288 107 53 117 190
8 195 121 203 289 111 56 118 191
8 193 120 204 290 109 55 119 192
8 290 204 122 194 192 119 57 110
8 196 123 58 112 292 207 122 194
8 293 206 121 195 196 123 58 112
8 199 126 61 115 297 211 124 197
8 298 212 127 200 198 125 62 116
8 199 126 212 298 115 61 125 198
8 205 129 64 120 300 214 127 200
8 301 217 130 201 202 132 66 117
8 209 136 168 264 301 217 130 201
8 302 219 132 202 203 133 67 118
8 303 220 133 203 206 134 68 121
8 205 129 215 304 120 64 128 204
8 304 215 131 207 204 128 65 122
8 306 221 134 206 208 135 69 123
8 208 135 69 123 307 218 131 207
8 210 137 167 263 309 223 136 209
8 328 238 147 226 230 149 76 140
8 228 146 91 166 329 236 165 260
8 231 150 77 141 330 235 145 227
8 330 235 145 227 228 146 91 166
8 332 239 148 229 233 151 78 143
8 230 149 76 140 332 239 148 229
8 232 152 79 142 334 241 150 231
8 234 153 80 144 335 243 152 232
8 336 242 151 233 234 153 80 144
8 236 155 90 165 338 245 164 259
8 241 160 86 150 339 246 154 235
8 339 246 154 235 237 156 82 146
8 237 156 82 146 340 247 155 236
8 342 249 157 238 240 159 85 149
8 343 250 158 239 242 161 87 151
8 240 159 85 149 343 250 158 239
8 243 162 88 152 345 252 160 241
8 244 163 253 346 153 89 161 242
8 244 163 89 153 347 254 162 243
8 311 224 261 371 210 137 167 263
8 263 167 262 372 209 136 168 264
8 267 179 98 171 375 275 178 265
8 375 275 178 265 328 238 147 226
8 376 273 176 266 267 179 98 171
8 268 177 96 172 376 273 176 266
8 379 272 175 269 268 177 96 172
8 380 271 174 270 269 175 94 173
8 283 197 113 186 380 271 174 270
8 381 277 180 271 272 181 100 175
8 297 211 124 197 381 277 180 271
8 382 278 181 272 274 183 102 177
8 274 183 102 177 383 279 182 273
8 383 279 182 273 276 185 104 179
8 385 281 184 275 342 249 157 238
8 276 185 104 179 385 281 184 275
8 285 199 115 188 393 297 197 283
8 394 298 200 286 284 198 116 189
8 285 199 298 394 188 115 198 284
8 291 205 120 193 396 300 200 286
8 397 301 201 287 288 202 117 190
8 295 209 264 374 397 301 201 287
8 398 302 202 288 289 203 118 191
8 399 303 203 289 293 206 121 195
8 291 205 304 400 193 120 204 290
8 400 304 207 292 290 204 122 194
8 294 208 123 196 402 307 207 292
8 403 306 206 293 294 208 123 196
8 296 210 263 373 405 309 209 295
8 408 312 213 299 297 211 126 199
8 299 213 313 409 199 126 212 298
8 409 313 214 300 298 212 127 200
8 305 216 129 205 411 315 214 300
8 412 318 217 301 302 219 132 202
8 309 223 136 209 412 318 217 301
8 413 320 219 302 303 220 133 203
8 306 221 321 414 206 134 220 303
8 307 218 131 207 415 316 215 304
8 305 216 316 415 205 129 215 304
8 417 322 221 306 308 222 135 208
8 308 222 135 208 418 319 218 307
8 310 225 137 210 420 325 223 309
8 423 326 224 311 310 225 137 210
8 329 236 165 260 441 338 259 368
8 442 342 238 328 333 240 149 230
8 331 237 146 228 443 340 236 329
8 334 241 150 231 444 339 235 330
8 444 339 235 330 331 237 146 228
8 446 343 239 332 336 242 151 233
8 333 240 149 230 446 343 239 332
8 335 243 152 232 448 345 241 334
8 337 244 153 234 449 347 243 335
8 337 244 346 450 234 153 242 336
8 338 245 164 259 452 349 258 367
8 340 247 155 236 453 350 245 338
8 345 252 160 241 454 351 246 339
8 454 351 246 339 341 248 156 237
8 341 248 156 237 455 352 247 340
8 240 159 251 344 342 249 354 457
8 242 161 253 346 343 250 355 458
8 343 250 355 458 240 159 251 344
8 347 254 162 243 460 357 252 345
8 348 255 358 461 244 163 253 346
8 348 255 163 244 462 359 254 347
8 473 360 257 365 363 256 364 482
8 452 349 258 367 365 257 366 485
8 422 324 369 488 311 224 261 371
8 371 261 370 490 263 167 262 372
8 407 311 371 491 296 210 263 373
8 373 263 372 492 295 209 264 374
8 493 385 275 375 442 342 238 328
8 377 276 179 267 493 385 275 375
8 378 274 177 268 494 383 273 376
8 494 383 273 376 377 276 179 267
8 497 382 272 379 378 274 177 268
8 498 381 271 380 379 272 175 269
8 393 297 197 283 498 381 271 380
8 499 387 277 381 382 278 181 272
8 408 312 211 297 499 387 277 381
8 500 388 278 382 384 280 183 274
8 501 389 279 383 386 282 185 276
8 384 280 183 274 501 389 279 383
8 386 282 185 276 503 391 281 385
8 503 391 281 385 457 354 249 342
8 511 408 299 395 393 297 199 285
8 395 299 409 512 285 199 298 394
8 512 409 300 396 394 298 200 286
8 401 305 205 291 514 411 300 396
8 515 412 301 397 398 302 202 288
8 405 309 209 295 515 412 301 397
8 516 413 302 398 399 303 203 289
8 403 306 414 517 293 206 303 399
8 402 307 207 292 518 415 304 400
8 401 305 415 518 291 205 304 400
8 404 308 208 294 520 418 307 402
8 521 417 306 403 404 308 208 294
8 406 310 210 296 523 420 309 405
8 526 423 311 407 406 310 210 296
8 410 314 213 299 527 424 312 408
8 528 425 315 411 409 313 214 300
8 410 314 425 528 299 213 313 409
8 416 317 216 305 530 427 315 411
8 531 430 318 412 413 320 219 302
8 420 325 223 309 531 430 318 412
8 532 432 320 413 414 321 220 303
8 417 322 433 533 306 221 321 414
8 418 319 218 307 534 428 316 415
8 416 317 428 534 305 216 316 415
8 419 323 434 536 308 222 322 417
8 419 323 222 308 537 431 319 418
8 421 327 225 310 539 438 325 420
8 421 327 439 541 310 225 326 423
8 543 437 324 422 423 326 224 311
8 441 338 259 368 559 452 367 486
8 443 340 236 329 560 453 338 441
8 333 240 344 447 442 342 457 561
8 445 341 237 331 562 455 340 443
8 448 345 241 334 563 454 339 444
8 563 454 339 444 445 341 237 331
8 336 242 346 450 446 343 458 565
8 446 343 458 565 333 240 344 447
8 449 347 243 335 567 460 345 448
8 451 348 244 337 568 462 347 449
8 451 348 461 569 337 244 346 450
8 570 463 349 452 473 360 257 365
8 453 350 245 338 570 463 349 452
8 455 352 247 340 571 464 350 453
8 460 357 252 345 572 465 351 454
8 572 465 351 454 456 353 248 341
8 456 353 248 341 573 466 352 455
8 344 251 356 459 457 354 468 575
8 458 355 469 576 344 251 356 459
8 346 253 358 461 458 355 469 576
8 462 359 254 347 578 471 357 460
8 348 255 359 462 461 358 472 579
8 591 474 360 473 475 361 256 363
8 475 361 256 363 594 477 362 479
8 363 256 364 482 479 362 480 603
8 590 473 365 484 481 363 482 605
8 482 364 257 365 606 483 366 485
8 559 452 367 486 484 365 485 607
8 542 436 487 609 422 324 369 488
8 525 422 488 611 407 311 371 491
8 488 369 489 612 371 261 370 490
8 491 371 490 613 373 263 372 492
8 495 386 276 377 614 503 385 493
8 614 503 385 493 561 457 342 442
8 615 501 383 494 495 386 276 377
8 496 384 274 378 615 501 383 494
8 618 500 382 497 496 384 274 378
8 619 499 381 498 497 382 272 379
8 511 408 297 393 619 499 381 498
8 620 505 387 499 500 388 278 382
8 527 424 312 408 620 505 387 499
8 502 390 506 621 384 280 388 500
8 622 507 389 501 504 392 282 386
8 502 390 280 384 622 507 389 501
8 504 392 282 386 624 509 391 503
8 624 509 391 503 575 468 354 457
8 513 410 299 395 630 527 408 511
8 631 528 411 514 512 409 300 396
8 513 410 528 631 395 299 409 512
8 519 416 305 401 633 530 411 514
8 634 531 412 515 516 413 302 398
8 523 420 309 405 634 531 412 515
8 635 532 413 516 517 414 303 399
8 521 417 533 636 403 306 414 517
8 520 418 307 402 637 534 415 518
8 519 416 534 637 401 305 415 518
8 522 419 308 404 639 537 418 520
8 522 419 536 640 404 308 417 521
8 524 421 310 406 642 539 420 523
8 524 421 541 644 406 310 423 526
8 646 543 422 525 526 423 311 407
8 529 426 314 410 647 544 424 527
8 528 425 545 648 411 315 427 530
8 529 426 545 648 410 314 425 528
8 535 429 317 416 649 546 427 530
8 650 548 430 531 532 432 320 413
8 539 438 325 420 650 548 430 531
8 533 433 550 651 414 321 432 532
8 536 434 551 652 417 322 433 533
8 537 431 319 418 653 547 428 534
8 535 429 547 653 416 317 428 534
8 538 435 552 654 419 323 434 536
8 538 435 323 419 655 549 431 537
8 540 440 327 421 657 556 438 539
8 540 440 557 659 421 327 439 541
8 541 439 555 660 423 326 437 543
8 661 554 436 542 543 437 324 422
8 676 570 452 559 590 473 365 484
8 560 453 338 441 676 570 452 559
8 562 455 340 443 677 571 453 560
8 447 344 459 566 561 457 575 678
8 564 456 341 445 679 573 455 562
8 567 460 345 448 680 572 454 563
8 680 572 454 563 564 456 341 445
8 565 458 576 682 447 344 459 566
8 450 346 461 569 565 458 576 682
8 568 462 347 449 684 578 460 567
8 451 348 462 568 569 461 579 685
8 686 580 463 570 591 474 360 473
8 571 464 350 453 686 580 463 570
8 573 466 352 455 687 581 464 571
8 572 465 582 688 460 357 471 578
8 574 467 582 688 456 353 465 572
8 574 467 353 456 689 583 466 573
8 459 356 470 577 575 468 585 691
8 576 469 586 692 459 356 470 577
8 461 358 472 579 576 469 586 692
8 462 359 471 578 579 472 588 694
8 704 591 473 590 593 475 363 481
8 595 476 592 705 475 361 474 591
8 593 475 363 481 707 594 479 602
8 594 477 362 479 709 598 478 600
8 595 476 361 475 711 597 477 594
8 479 362 480 603 600 478 601 720
8 481 363 482 605 602 479 603 722
8 603 480 364 482 723 604 483 606
8 605 482 365 484 724 606 485 607
8 656 553 608 726 542 436 487 609
8 645 542 609 728 525 422 488 611
8 609 487 610 729 488 369 489 612
8 611 488 612 730 491 371 490 613
8 616 504 386 495 731 624 503 614
8 731 624 503 614 678 575 457 561
8 732 622 501 615 616 504 386 495
8 617 502 384 496 732 622 501 615
8 617 502 621 735 496 384 500 618
8 736 620 499 619 618 500 382 497
8 630 527 408 511 736 620 499 619
8 621 506 626 737 500 388 505 620
8 647 544 424 527 737 626 505 620
8 623 508 627 738 502 390 506 621
8 623 508 390 502 739 628 507 622
8 625 510 628 739 504 392 507 622
8 740 629 509 624 691 585 468 575
8 625 510 392 504 740 629 509 624
8 632 529 410 513 744 647 527 630
8 631 528 648 745 514 411 530 633
8 632 529 648 745 513 410 528 631
8 638 535 416 519 746 649 530 633
8 747 650 531 634 635 532 413 516
8 642 539 420 523 747 650 531 634
8 636 533 651 748 517 414 532 635
8 640 536 652 749 521 417 533 636
8 639 537 418 520 750 653 534 637
8 638 535 653 750 519 416 534 637
8 641 538 419 522 751 655 537 639
8 641 538 654 752 522 419 536 640
8 643 540 421 524 753 657 539 642
8 643 540 659 755 524 421 541 644
8 644 541 660 757 526 423 543 646
8 758 661 542 645 646 543 422 525
8 529 426 544 647 648 545 662 759
8 530 427 545 648 649 546 663 760
8 535 429 546 649 653 547 664 761
8 762 666 548 650 651 550 432 532
8 657 556 438 539 762 666 548 650
8 652 551 668 763 533 433 550 651
8 654 552 669 764 536 434 551 652
8 655 549 431 537 765 665 547 653
8 538 435 549 655 654 552 667 766
8 661 554 671 768 542 436 553 656
8 658 558 440 540 769 674 556 657
8 658 558 675 770 540 440 557 659
8 659 557 673 771 541 439 555 660
8 660 555 672 772 543 437 554 661
8 788 686 570 676 704 591 473 590
8 677 571 453 560 788 686 570 676
8 679 573 455 562 789 687 571 677
8 566 459 577 683 678 575 691 790
8 681 574 456 564 791 689 573 679
8 680 572 688 792 567 460 578 684
8 681 574 688 792 564 456 572 680
8 682 576 692 794 566 459 577 683
8 569 461 579 685 682 576 692 794
8 568 462 578 684 685 579 694 796
8 687 581 464 571 798 696 580 686
8 798 696 580 686 705 592 474 591
8 689 583 466 573 799 697 581 687
8 688 582 698 800 578 471 588 694
8 690 584 698 800 574 467 582 688
8 690 584 467 574 801 699 583 689
8 693 587 701 803 577 470 585 691
8 693 587 470 577 804 702 586 692
8 695 589 702 804 579 472 586 692
8 695 589 472 579 805 703 588 694
8 708 595 705 813 593 475 591 704
8 710 596 706 814 595 476 592 705
8 707 594 479 602 816 709 600 719
8 708 595 475 593 817 711 594 707
8 709 598 478 600 819 715 599 717
8 711 597 477 594 820 714 598 709
8 710 596 476 595 822 713 597 711
8 600 478 601 720 717 599 718 832
8 602 479 603 722 719 600 720 834
8 720 601 480 603 835 721 604 723
8 722 603 482 605 836 723 606 724
8 767 670 725 839 656 553 608 726
8 756 656 726 841 645 542 609 728
8 726 608 727 842 609 487 610 729
8 728 609 729 843 611 488 612 730
8 844 740 624 731 790 691 575 678
8 733 625 504 616 844 740 624 731
8 734 623 502 617 845 739 622 732
8 733 625 739 845 616 504 622 732
8 734 623 738 846 617 502 621 735
8 735 621 737 847 618 500 620 736
8 744 647 527 630 847 737 620 736
8 621 506 627 738 737 626 741 848
8 647 544 626 737 759 662 741 848
8 623 508 628 739 738 627 742 849
8 740 629 585 691 850 743 700 802
8 625 510 629 740 739 628 743 850
8 632 529 647 744 745 648 759 854
8 633 530 648 745 746 649 760 855
8 638 535 649 746 750 653 761 856
8 857 762 650 747 748 651 532 635
8 753 657 539 642 857 762 650 747
8 749 652 763 858 636 533 651 748
8 752 654 764 859 640 536 652 749
8 751 655 537 639 860 765 653 750
8 641 538 655 751 752 654 766 861
8 754 658 540 643 862 769 657 753
8 754 658 770 863 643 540 659 755
8 755 659 771 864 644 541 660 757
8 758 661 768 866 645 542 656 756
8 757 660 772 867 646 543 661 758
8 759 662 773 868 648 545 663 760
8 649 546 663 760 761 664 774 871
8 765 665 547 653 872 775 664 761
8 873 777 666 762 763 668 550 651
8 769 674 556 657 873 777 666 762
8 764 669 779 874 652 551 668 763
8 654 552 667 766 764 669 778 875
8 655 549 665 765 766 667 776 876
8 768 671 782 877 656 553 670 767
8 772 672 783 878 661 554 671 768
8 658 558 674 769 770 675 786 879
8 659 557 675 770 771 673 785 881
8 882 784 672 772 771 673 555 660
8 789 687 571 677 897 798 686 788
8 897 798 686 788 813 705 591 704
8 791 689 573 679 898 799 687 789
8 795 693 803 900 683 577 691 790
8 793 690 574 681 901 801 689 791
8 792 688 800 902 684 578 694 796
8 793 690 800 902 681 574 688 792
8 795 693 577 683 903 804 692 794
8 797 695 804 903 685 579 692 794
8 797 695 579 685 904 805 694 796
8 905 806 697 799 798 696 581 687
8 814 706 806 905 705 592 696 798
8 689 583 697 799 801 699 808 907
8 800 698 809 908 694 588 703 805
8 690 584 699 801 800 698 809 908
8 803 701 810 909 691 585 700 802
8 693 587 702 804 803 701 811 910
8 695 589 703 805 804 702 812 911
8 818 710 814 919 708 595 705 813
8 821 712 815 920 710 596 706 814
8 816 709 600 719 922 819 717 831
8 817 711 594 707 923 820 709 816
8 818 710 595 708 924 822 711 817
8 819 715 599 717 926 827 716 829
8 820 714 598 709 927 826 715 819
8 929 825 713 822 820 714 597 711
8 821 712 596 710 930 824 713 822
8 717 599 718 832 829 716 830 942
8 719 600 720 834 831 717 832 944
8 832 718 601 720 945 833 721 835
8 834 720 603 722 946 835 723 836
8 869 780 838 950 767 670 725 839
8 865 767 839 952 756 656 726 841
8 839 725 840 953 726 608 727 842
8 841 726 842 954 728 609 729 843
8 844 740 691 790 955 850 802 899
8 733 625 740 844 845 739 850 955
8 734 623 739 845 846 738 849 956
8 735 621 738 846 847 737 848 957
8 744 647 737 847 854 759 848 957
8 738 627 742 849 848 741 851 958
8 848 741 851 958 759 662 773 868
8 850 743 700 802 959 852 807 906
8 849 742 628 739 959 852 743 850
8 854 759 868 965 745 648 760 855
8 746 649 760 855 856 761 871 966
8 860 765 653 750 967 872 761 856
8 968 873 762 857 858 763 651 748
8 862 769 657 753 968 873 762 857
8 859 764 874 969 749 652 763 858
8 752 654 766 861 859 764 875 970
8 751 655 765 860 861 766 876 971
8 754 658 769 862 863 770 879 972
8 755 659 770 863 864 771 881 974
8 976 882 772 867 864 771 660 757
8 866 768 877 977 756 656 767 865
8 867 772 878 978 758 661 768 866
8 760 663 773 868 871 774 883 980
8 870 781 837 948 982 890 780 869
8 982 890 780 869 877 782 670 767
8 761 664 774 871 872 775 884 984
8 876 776 665 765 985 885 775 872
8 873 777 668 763 986 887 779 874
8 769 674 777 873 879 786 887 986
8 764 669 778 875 874 779 888 987
8 766 667 776 876 875 778 886 988
8 878 783 892 989 768 671 782 877
8 878 783 672 772 990 893 784 882
8 880 787 675 770 991 896 786 879
8 880 787 895 992 770 675 785 881
8 881 785 894 993 771 673 784 882
8 1006 905 799 898 897 798 687 789
8 919 814 905 1006 813 705 798 897
8 791 689 799 898 901 801 907 1007
8 900 803 909 1009 790 691 802 899
8 795 693 804 903 900 803 910 1010
8 902 800 908 1011 796 694 805 904
8 793 690 801 901 902 800 908 1011
8 797 695 805 904 903 804 911 1012
8 799 697 806 905 907 808 912 1013
8 920 815 912 1013 814 706 806 905
8 802 700 810 909 906 807 913 1014
8 801 699 808 907 908 809 914 1015
8 805 703 809 908 911 812 915 1016
8 803 701 811 910 909 810 916 1017
8 911 812 917 1018 804 702 811 910
8 925 821 920 1030 818 710 814 919
8 928 823 921 1031 821 712 815 920
8 922 819 717 831 1033 926 829 941
8 923 820 709 816 1034 927 819 922
8 1035 929 822 924 923 820 711 817
8 925 821 710 818 1036 930 822 924
8 1038 933 825 929 927 826 714 820
8 926 827 716 829 1039 935 828 939
8 927 826 715 819 1040 934 827 926
8 928 823 712 821 1041 931 824 930
8 1042 932 824 930 929 825 713 822
8 829 716 830 942 939 828 940 1058
8 831 717 832 944 941 829 942 1060
8 942 830 718 832 1061 943 833 945
8 944 832 720 834 1062 945 835 946
8 981 889 947 1064 870 781 837 948
8 948 837 949 1067 869 780 838 950
8 975 869 950 1069 865 767 839 952
8 950 838 951 1070 839 725 840 953
8 952 839 953 1071 841 726 842 954
8 955 850 802 899 1072 959 906 1008
8 956 849 739 845 1072 959 850 955
8 846 738 849 956 957 848 958 1073
8 957 848 958 1073 854 759 868 965
8 849 742 852 959 958 851 961 1076
8 960 853 961 1076 906 807 852 959
8 958 851 961 1076 868 773 883 980
8 960 853 807 906 1077 963 913 1014
8 855 760 868 965 966 871 980 1085
8 856 761 871 966 967 872 984 1086
8 971 876 765 860 1087 985 872 967
8 968 873 763 858 1088 986 874 969
8 862 769 873 968 972 879 986 1088
8 859 764 875 970 969 874 987 1089
8 861 766 876 971 970 875 988 1090
8 973 880 770 863 1091 991 879 972
8 973 880 992 1092 863 770 881 974
8 974 881 993 1093 864 771 882 976
8 979 870 948 1066 1094 982 869 975
8 1094 982 869 975 977 877 767 865
8 978 878 772 867 1095 990 882 976
8 978 878 989 1096 866 768 877 977
8 871 774 883 980 984 884 994 1099
8 983 891 999 1100 870 781 889 981
8 1101 1000 890 982 989 892 782 877
8 983 891 781 870 1101 1000 890 982
8 872 775 884 984 985 885 995 1103
8 876 776 885 985 988 886 996 1104
8 986 887 779 874 1105 998 888 987
8 879 786 887 986 991 896 998 1105
8 875 778 886 988 987 888 997 1106
8 990 893 1002 1107 878 783 892 989
8 1108 1003 893 990 993 894 784 882
8 880 787 896 991 992 895 1005 1109
8 993 894 785 881 1110 1004 895 992
8 898 799 905 1006 1007 907 1013 1120
8 1030 920 1013 1120 919 814 905 1006
8 901 801 907 1007 1011 908 1015 1121
8 899 802 909 1009 1008 906 1014 1122
8 900 803 910 1010 1009 909 1017 1123
8 1012 911 1018 1124 903 804 910 1010
8 904 805 908 1011 1012 911 1016 1125
8 1013 912 1020 1127 907 808 914 1015
8 1031 921 1020 1127 920 815 912 1013
8 1019 918 962 1075 1128 1021 913 1014
8 1128 1021 913 1014 1017 916 810 909
8 1015 914 1022 1129 908 809 915 1016
8 1016 915 1023 1130 911 812 917 1018
8 1018 917 1024 1131 910 811 916 1017
8 1037 928 1031 1148 925 821 920 1030
8 928 823 931 1041 1031 921 1032 1149
8 1033 926 829 941 1151 1039 939 1057
8 1034 927 819 922 1152 1040 926 1033
8 1153 1038 929 1035 1034 927 820 923
8 1154 1042 930 1036 1035 929 822 924
8 1037 928 821 925 1155 1041 930 1036
8 1039 935 828 939 1156 1047 938 1055
8 1157 1043 932 1042 1038 933 825 929
8 1038 933 826 927 1158 1045 934 1040
8 1040 934 827 926 1159 1046 935 1039
8 930 824 932 1042 1041 931 1044 1160
8 1051 936 1048 1165 1175 1052 937 1053
8 1156 1047 938 1055 1053 937 1054 1178
8 939 828 940 1058 1055 938 1056 1181
8 941 829 942 1060 1057 939 1058 1183
8 942 830 943 1061 1058 940 1059 1184
8 1060 942 832 944 1185 1061 945 1062
8 1082 964 1063 1188 981 889 947 1064
8 1097 981 1064 1190 979 870 948 1066
8 1064 947 1065 1191 948 837 949 1067
8 1066 948 1067 1193 975 869 950 1069
8 1067 949 1068 1194 950 838 951 1070
8 1069 950 1070 1195 952 839 953 1071
8 956 849 959 1072 1073 958 1076 1197
8 1074 960 1076 1197 1008 906 959 1072
8 1073 958 1076 1197 965 868 980 1085
8 1074 960 906 1008 1198 1077 1014 1122
8 1133 1026 1079 1199 1019 918 962 1075
8 1077 963 913 1014 1200 1080 962 1075
8 960 853 963 1077 1076 961 1078 1201
8 980 883 961 1076 1099 994 1078 1201
8 1210 1083 964 1082 1100 999 889 981
8 966 871 980 1085 1086 984 1099 1215
8 967 872 984 1086 1087 985 1103 1216
8 971 876 985 1087 1090 988 1104 1217
8 1088 986 874 969 1218 1105 987 1089
8 972 879 986 1088 1091 991 1105 1218
8 970 875 988 1090 1089 987 1106 1219
8 973 880 991 1091 1092 992 1109 1220
8 1093 993 881 974 1221 1110 992 1092
8 1222 1108 990 1095 1093 993 882 976
8 1223 1101 982 1094 1096 989 877 977
8 1098 983 870 979 1223 1101 982 1094
8 1095 990 1107 1224 978 878 989 1096
8 1098 983 1100 1225 979 870 981 1097
8 984 884 994 1099 1103 995 1111 1227
8 1102 1001 1115 1228 983 891 999 1100
8 1101 1000 892 989 1229 1116 1002 1107
8 1102 1001 891 983 1229 1116 1000 1101
8 985 885 995 1103 1104 996 1112 1230
8 988 886 996 1104 1106 997 1113 1231
8 1105 998 888 987 1232 1114 997 1106
8 991 896 998 1105 1109 1005 1114 1232
8 1108 1003 1117 1233 990 893 1002 1107
8 1108 1003 894 993 1233 1117 1004 1110
8 992 895 1005 1109 1110 1004 1118 1234
8 1120 1013 1127 1244 1007 907 1015 1121
8 1148 1031 1127 1244 1030 920 1013 1120
8 1121 1015 1129 1245 1011 908 1016 1125
8 1126 1019 1075 1196 1246 1128 1014 1122
8 1246 1128 1014 1122 1123 1017 909 1009
8 1124 1018 1131 1247 1010 910 1017 1123
8 1125 1016 1130 1248 1012 911 1018 1124
8 1127 1020 1137 1254 1015 914 1022 1129
8 1031 921 1032 1149 1127 1020 1137 1254
8 1134 1027 918 1019 1257 1140 1021 1128
8 1257 1140 1021 1128 1131 1024 916 1017
8 1129 1022 1141 1258 1016 915 1023 1130
8 1130 1023 1142 1259 1018 917 1024 1131
8 1261 1144 1025 1132 1133 1026 1079 1199
8 1255 1138 1025 1132 1135 1028 1144 1261
8 1133 1026 918 1019 1262 1145 1027 1134
8 1136 1029 1139 1256 1263 1146 1028 1135
8 1037 928 1041 1155 1148 1031 1149 1275
8 1041 931 1044 1160 1149 1032 1150 1276
8 1151 1039 939 1057 1278 1156 1055 1180
8 1152 1040 926 1033 1279 1159 1039 1151
8 1153 1038 927 1034 1280 1158 1040 1152
8 1281 1157 1042 1154 1153 1038 929 1035
8 1036 930 1042 1154 1155 1041 1160 1282
8 1283 1164 1046 1159 1156 1047 935 1039
8 1165 1048 1164 1283 1053 937 1047 1156
8 1157 1043 933 1038 1284 1161 1045 1158
8 1157 1043 1161 1284 1042 932 1044 1160
8 1040 934 1046 1159 1158 1045 1163 1285
8 1166 1049 1167 1292 1051 936 1048 1165
8 1166 1049 936 1051 1293 1168 1050 1172
8 1051 936 1052 1175 1172 1050 1173 1306
8 1174 1051 1165 1290 1308 1175 1053 1177
8 1053 937 1054 1178 1175 1052 1176 1309
8 1278 1156 1055 1180 1177 1053 1178 1311
8 1055 938 1056 1181 1178 1054 1179 1312
8 1057 939 1058 1183 1180 1055 1181 1314
8 1058 940 1059 1184 1181 1056 1182 1315
8 1060 942 1061 1185 1183 1058 1184 1316
8 1208 1081 1187 1321 1082 964 1063 1188
8 1209 1082 1188 1322 1097 981 1064 1190
8 1188 1063 1189 1323 1064 947 1065 1191
8 1190 1064 1191 1325 1066 948 1067 1193
8 1191 1065 1192 1326 1067 949 1068 1194
8 1067 1193 1069 950 1194 1327 1195 1070
8 1250 1133 1199 1330 1126 1019 1075 1196
8 1198 1077 1014 1122 1331 1200 1075 1196
8 1074 960 1077 1198 1197 1076 1201 1332
8 1085 980 1076 1197 1215 1099 1201 1332
8 1199 1079 1203 1333 1075 962 1080 1200
8 1132 1025 1119 1243 1199 1079 1203 1333
8 1201 1078 963 1077 1334 1202 1080 1200
8 1099 994 1078 1201 1227 1111 1202 1334
8 1343 1207 1081 1208 1210 1083 964 1082
8 1214 1084 1186 1319 1343 1207 1081 1208
8 1345 1210 1082 1209 1225 1100 981 1097
8 1346 1211 1083 1210 1228 1115 999 1100
8 1086 984 1099 1215 1216 1103 1227 1352
8 1087 985 1103 1216 1217 1104 1230 1353
8 1090 988 1104 1217 1219 1106 1231 1354
8 1218 1105 987 1089 1355 1232 1106 1219
8 1091 991 1105 1218 1220 1109 1232 1355
8 1092 992 1109 1220 1221 1110 1234 1356
8 1222 1108 1233 1357 1095 990 1107 1224
8 1222 1108 993 1093 1357 1233 1110 1221
8 1223 1101 989 1096 1358 1229 1107 1224
8 1226 1102 983 1098 1358 1229 1101 1223
8 1226 1102 1228 1359 1098 983 1100 1225
8 1103 995 1111 1227 1230 1112 1235 1360
8 1107 1002 1117 1233 1229 1116 1240 1362
8 1102 1001 1116 1229 1228 1115 1240 1362
8 1104 996 1112 1230 1231 1113 1236 1363
8 1364 1237 1114 1232 1231 1113 997 1106
8 1109 1005 1114 1232 1234 1118 1238 1365
8 1110 1004 1118 1234 1233 1117 1241 1366
8 1242 1374 1255 1138 1119 1243 1132 1025
8 1244 1127 1254 1376 1121 1015 1129 1245
8 1148 1031 1149 1275 1244 1127 1254 1376
8 1245 1129 1258 1377 1125 1016 1130 1248
8 1251 1134 1019 1126 1378 1257 1128 1246
8 1378 1257 1128 1246 1247 1131 1017 1123
8 1248 1130 1259 1379 1124 1018 1131 1247
8 1261 1381 1250 1133 1132 1249 1330 1199
8 1255 1380 1252 1135 1132 1249 1381 1261
8 1250 1133 1019 1126 1382 1262 1134 1251
8 1253 1136 1256 1385 1384 1263 1135 1252
8 1254 1137 1265 1387 1129 1022 1141 1258
8 1149 1032 1150 1276 1254 1137 1265 1387
8 1028 1135 1255 1138 1139 1256 1388 1266
8 1136 1029 1147 1264 1256 1139 1267 1389
8 1390 1268 1140 1257 1259 1142 1024 1131
8 1260 1143 1027 1134 1390 1268 1140 1257
8 1258 1141 1269 1391 1130 1023 1142 1259
8 1262 1145 1027 1134 1393 1271 1143 1260
8 1261 1144 1026 1133 1394 1272 1145 1262
8 1135 1028 1144 1261 1263 1146 1272 1394
8 1136 1029 1146 1263 1264 1147 1273 1395
8 1155 1041 1160 1282 1275 1149 1276 1405
8 1276 1150 1044 1160 1406 1277 1162 1286
8 1408 1283 1159 1279 1278 1156 1039 1151
8 1290 1165 1283 1408 1177 1053 1156 1278
8 1152 1040 1159 1279 1280 1158 1285 1409
8 1281 1157 1038 1153 1410 1284 1158 1280
8 1281 1157 1284 1410 1154 1042 1160 1282
8 1159 1046 1164 1283 1285 1163 1289 1412
8 1292 1167 1289 1412 1165 1048 1164 1283
8 1158 1045 1163 1285 1284 1161 1288 1413
8 1284 1161 1288 1413 1160 1044 1162 1286
8 1291 1166 1292 1418 1174 1051 1165 1290
8 1291 1166 1051 1174 1419 1293 1172 1305
8 1294 1169 1296 1421 1166 1049 1167 1292
8 1293 1168 1050 1172 1422 1295 1171 1303
8 1294 1169 1049 1166 1423 1297 1168 1293
8 1422 1295 1171 1303 1301 1170 1302 1435
8 1172 1050 1173 1306 1303 1171 1304 1438
8 1174 1051 1175 1308 1305 1172 1306 1440
8 1175 1052 1176 1309 1306 1173 1307 1441
8 1177 1053 1178 1311 1308 1175 1309 1443
8 1178 1054 1179 1312 1309 1176 1310 1444
8 1180 1055 1181 1314 1311 1178 1312 1446
8 1056 1181 1312 1179 1182 1315 1447 1313
8 1183 1058 1184 1316 1314 1181 1315 1448
8 1319 1186 1084 1214 1451 1317 1213 1350
8 1319 1186 1318 1453 1208 1081 1187 1321
8 1321 1187 1320 1456 1188 1063 1189 1323
8 1344 1208 1321 1457 1209 1082 1188 1322
8 1322 1188 1323 1458 1190 1064 1191 1325
8 1323 1189 1324 1459 1191 1065 1192 1326
8 1191 1325 1193 1067 1326 1460 1327 1194
8 1242 1374 1243 1119 1328 1462 1335 1204
8 1330 1199 1333 1465 1196 1075 1200 1331
8 1132 1249 1330 1199 1243 1375 1465 1333
8 1332 1201 1077 1198 1466 1334 1200 1331
8 1215 1099 1201 1332 1352 1227 1334 1466
8 1119 1243 1333 1203 1204 1335 1470 1338
8 1333 1203 1338 1470 1200 1080 1202 1334
8 1227 1111 1202 1334 1360 1235 1338 1470
8 1328 1462 1335 1204 1205 1336 1471 1339
8 1337 1206 1340 1472 1464 1329 1205 1336
8 1346 1211 1342 1479 1210 1083 1207 1343
8 1346 1211 1115 1228 1479 1342 1239 1361
8 1348 1212 1084 1214 1479 1342 1207 1343
8 1480 1343 1208 1344 1345 1210 1082 1209
8 1351 1214 1319 1454 1480 1343 1208 1344
8 1481 1346 1210 1345 1359 1228 1100 1225
8 1348 1212 1347 1483 1214 1084 1213 1350
8 1216 1103 1227 1352 1353 1230 1360 1488
8 1217 1104 1230 1353 1354 1231 1363 1489
8 1490 1364 1232 1355 1354 1231 1106 1219
8 1220 1109 1232 1355 1356 1234 1365 1491
8 1221 1110 1234 1356 1357 1233 1366 1492
8 1224 1107 1233 1357 1358 1229 1362 1493
8 1226 1102 1229 1358 1359 1228 1362 1493
8 1230 1112 1235 1360 1363 1236 1367 1496
8 1361 1239 1115 1228 1497 1371 1240 1362
8 1366 1241 1372 1498 1233 1117 1240 1362
8 1364 1237 1113 1231 1499 1368 1236 1363
8 1364 1237 1368 1499 1232 1114 1238 1365
8 1234 1118 1238 1365 1366 1241 1369 1500
8 1507 1373 1242 1374 1388 1266 1138 1255
8 1508 1374 1243 1375 1380 1255 1132 1249
8 1376 1254 1387 1509 1245 1129 1258 1377
8 1275 1149 1276 1405 1376 1254 1387 1509
8 1377 1258 1391 1510 1248 1130 1259 1379
8 1511 1390 1257 1378 1379 1259 1131 1247
8 1383 1260 1134 1251 1511 1390 1257 1378
8 1252 1135 1256 1385 1380 1255 1388 1512
8 1261 1381 1513 1394 1133 1250 1382 1262
8 1135 1252 1384 1263 1261 1381 1513 1394
8 1382 1262 1134 1251 1514 1393 1260 1383
8 1253 1136 1263 1384 1386 1264 1395 1516
8 1253 1136 1264 1386 1385 1256 1389 1517
8 1387 1265 1397 1519 1258 1141 1269 1391
8 1276 1150 1277 1406 1387 1265 1397 1519
8 1256 1139 1267 1389 1388 1266 1398 1520
8 1264 1147 1274 1396 1389 1267 1399 1521
8 1392 1270 1143 1260 1522 1400 1268 1390
8 1390 1268 1142 1259 1522 1400 1269 1391
8 1392 1270 1401 1523 1260 1143 1271 1393
8 1272 1394 1524 1402 1145 1262 1393 1271
8 1395 1273 1146 1263 1524 1402 1272 1394
8 1273 1395 1264 1147 1403 1526 1396 1274
8 1405 1276 1160 1282 1534 1406 1286 1411
8 1414 1287 1407 1535 1286 1162 1277 1406
8 1279 1159 1283 1408 1409 1285 1412 1537
8 1418 1292 1412 1537 1290 1165 1283 1408
8 1280 1158 1285 1409 1410 1284 1413 1538
8 1410 1284 1413 1538 1282 1160 1286 1411
8 1285 1163 1289 1412 1413 1288 1417 1540
8 1421 1296 1417 1540 1292 1167 1289 1412
8 1414 1287 1162 1286 1541 1416 1288 1413
8 1420 1294 1421 1545 1291 1166 1292 1418
8 1419 1293 1172 1305 1546 1422 1303 1437
8 1420 1294 1166 1291 1547 1423 1293 1419
8 1294 1169 1297 1423 1421 1296 1425 1548
8 1423 1297 1168 1293 1549 1424 1295 1422
8 1301 1170 1298 1427 1422 1295 1424 1549
8 1432 1300 1428 1554 1301 1170 1298 1427
8 1431 1299 1428 1554 1560 1430 1300 1432
8 1563 1433 1300 1432 1435 1302 1170 1301
8 1546 1422 1303 1437 1434 1301 1435 1565
8 1303 1171 1304 1438 1435 1302 1436 1566
8 1305 1172 1306 1440 1437 1303 1438 1568
8 1306 1173 1307 1441 1438 1304 1439 1569
8 1308 1175 1309 1443 1440 1306 1441 1571
8 1309 1176 1310 1444 1441 1307 1442 1572
8 1311 1178 1312 1446 1443 1309 1444 1574
8 1179 1312 1444 1310 1313 1447 1575 1445
8 1314 1181 1315 1448 1446 1312 1447 1576
8 1350 1213 1349 1486 1451 1317 1449 1579
8 1451 1317 1450 1581 1319 1186 1318 1453
8 1454 1319 1214 1351 1582 1451 1350 1487
8 1453 1318 1452 1584 1321 1187 1320 1456
8 1454 1319 1453 1585 1344 1208 1321 1457
8 1456 1320 1455 1586 1323 1189 1324 1459
8 1457 1321 1456 1587 1322 1188 1323 1458
8 1458 1323 1459 1588 1325 1191 1326 1460
8 1205 1336 1464 1329 1328 1462 1590 1461
8 1507 1373 1461 1590 1374 1242 1328 1462
8 1508 1374 1462 1591 1375 1243 1335 1467
8 1337 1206 1329 1464 1473 1341 1463 1594
8 1375 1243 1335 1467 1465 1333 1470 1596
8 1465 1333 1470 1596 1331 1200 1334 1466
8 1352 1227 1334 1466 1488 1360 1470 1596
8 1591 1462 1336 1468 1467 1335 1471 1597
8 1469 1337 1472 1598 1595 1464 1336 1468
8 1471 1339 1474 1600 1335 1204 1338 1470
8 1600 1474 1367 1496 1470 1338 1235 1360
8 1336 1205 1340 1472 1471 1339 1475 1601
8 1337 1206 1341 1473 1472 1340 1476 1602
8 1495 1370 1478 1609 1361 1239 1342 1479
8 1348 1212 1342 1479 1483 1347 1478 1609
8 1481 1346 1479 1610 1345 1210 1343 1480
8 1481 1346 1228 1359 1610 1479 1361 1494
8 1484 1348 1214 1351 1610 1479 1343 1480
8 1483 1347 1482 1612 1350 1213 1349 1486
8 1484 1348 1483 1613 1351 1214 1350 1487
8 1353 1230 1360 1488 1489 1363 1496 1616
8 1490 1364 1231 1354 1617 1499 1363 1489
8 1490 1364 1499 1617 1355 1232 1365 1491
8 1356 1234 1365 1491 1492 1366 1500 1619
8 1492 1366 1498 1620 1357 1233 1362 1493
8 1494 1361 1228 1359 1621 1497 1362 1493
8 1495 1370 1239 1361 1622 1504 1371 1497
8 1363 1236 1367 1496 1499 1368 1501 1623
8 1497 1371 1240 1362 1624 1505 1372 1498
8 1625 1503 1372 1498 1500 1369 1241 1366
8 1365 1238 1368 1499 1500 1369 1502 1626
8 1520 1398 1506 1633 1388 1266 1373 1507
8 1634 1507 1374 1508 1512 1388 1255 1380
8 1509 1387 1519 1635 1377 1258 1391 1510
8 1405 1276 1406 1534 1509 1387 1519 1635
8 1515 1392 1260 1383 1636 1522 1390 1511
8 1511 1390 1259 1379 1636 1522 1391 1510
8 1385 1256 1389 1517 1512 1388 1520 1637
8 1513 1394 1262 1382 1638 1524 1393 1514
8 1395 1516 1638 1524 1263 1384 1513 1394
8 1515 1392 1523 1639 1383 1260 1393 1514
8 1516 1395 1526 1640 1386 1264 1396 1518
8 1386 1264 1396 1518 1517 1389 1521 1641
8 1519 1397 1527 1643 1391 1269 1400 1522
8 1535 1407 1527 1643 1406 1277 1397 1519
8 1389 1267 1399 1521 1520 1398 1528 1644
8 1645 1529 1399 1521 1525 1404 1274 1396
8 1392 1270 1400 1522 1523 1401 1531 1646
8 1524 1402 1271 1393 1648 1532 1401 1523
8 1403 1526 1648 1532 1273 1395 1524 1402
8 1525 1404 1274 1396 1649 1533 1403 1526
8 1539 1414 1535 1657 1411 1286 1406 1534
8 1542 1415 1536 1658 1414 1287 1407 1535
8 1409 1285 1412 1537 1538 1413 1540 1660
8 1545 1421 1540 1660 1418 1292 1412 1537
8 1539 1414 1286 1411 1661 1541 1413 1538
8 1540 1417 1544 1663 1413 1288 1416 1541
8 1421 1296 1425 1548 1540 1417 1544 1663
8 1542 1415 1287 1414 1664 1543 1416 1541
8 1420 1294 1423 1547 1545 1421 1548 1666
8 1547 1423 1293 1419 1667 1549 1422 1546
8 1434 1301 1427 1553 1546 1422 1549 1667
8 1423 1297 1424 1549 1548 1425 1550 1668
8 1551 1426 1550 1668 1427 1298 1424 1549
8 1551 1426 1298 1427 1671 1552 1428 1554
8 1562 1432 1554 1674 1434 1301 1427 1553
8 1431 1299 1429 1558 1554 1428 1555 1675
8 1431 1299 1430 1560 1558 1429 1557 1680
8 1560 1430 1300 1432 1683 1559 1433 1563
8 1561 1431 1554 1674 1684 1560 1432 1562
8 1685 1563 1432 1562 1565 1435 1301 1434
8 1435 1302 1436 1566 1563 1433 1564 1686
8 1437 1303 1438 1568 1565 1435 1566 1688
8 1438 1304 1439 1569 1566 1436 1567 1689
8 1440 1306 1441 1571 1568 1438 1569 1691
8 1441 1307 1442 1572 1569 1439 1570 1692
8 1443 1309 1444 1574 1571 1441 1572 1694
8 1310 1444 1572 1442 1445 1575 1695 1573
8 1446 1312 1447 1576 1574 1444 1575 1696
8 1486 1349 1485 1614 1579 1449 1577 1699
8 1451 1317 1449 1579 1581 1450 1578 1701
8 1487 1350 1486 1615 1582 1451 1579 1702
8 1581 1450 1580 1704 1453 1318 1452 1584
8 1582 1451 1581 1705 1454 1319 1453 1585
8 1584 1452 1583 1706 1456 1320 1455 1586
8 1585 1453 1584 1707 1457 1321 1456 1587
8 1587 1456 1586 1708 1458 1323 1459 1588
8 1633 1506 1589 1710 1507 1373 1461 1590
8 1464 1329 1461 1590 1594 1463 1589 1710
8 1468 1336 1462 1591 1595 1464 1590 1711
8 1634 1507 1590 1711 1508 1374 1462 1591
8 1473 1341 1463 1594 1603 1477 1593 1716
8 1469 1337 1464 1595 1599 1473 1594 1717
8 1471 1597 1467 1335 1600 1718 1596 1470
8 1718 1600 1496 1616 1596 1470 1360 1488
8 1336 1468 1597 1471 1472 1598 1719 1601
8 1469 1337 1473 1599 1598 1472 1602 1720
8 1722 1604 1501 1623 1600 1474 1367 1496
8 1475 1601 1471 1339 1604 1722 1600 1474
8 1602 1476 1605 1723 1472 1340 1475 1601
8 1476 1602 1724 1606 1341 1473 1603 1477
8 1483 1347 1478 1609 1612 1482 1608 1731
8 1495 1370 1504 1622 1609 1478 1608 1731
8 1618 1495 1609 1732 1494 1361 1479 1610
8 1484 1348 1479 1610 1613 1483 1609 1732
8 1486 1349 1482 1612 1614 1485 1611 1733
8 1613 1483 1612 1734 1487 1350 1486 1615
8 1489 1363 1496 1616 1617 1499 1623 1736
8 1491 1365 1499 1617 1619 1500 1626 1737
8 1618 1495 1361 1494 1738 1622 1497 1621
8 1739 1625 1498 1620 1619 1500 1366 1492
8 1621 1497 1362 1493 1740 1624 1498 1620
8 1742 1631 1504 1622 1624 1505 1371 1497
8 1743 1628 1502 1626 1623 1501 1368 1499
8 1744 1630 1505 1624 1625 1503 1372 1498
8 1745 1629 1503 1625 1626 1502 1369 1500
8 1520 1398 1528 1644 1633 1506 1632 1751
8 1637 1520 1633 1752 1512 1388 1507 1634
8 1635 1519 1643 1753 1510 1391 1522 1636
8 1657 1535 1643 1753 1534 1406 1519 1635
8 1515 1392 1522 1636 1639 1523 1646 1754
8 1517 1389 1521 1641 1637 1520 1644 1755
8 1524 1638 1756 1648 1393 1514 1639 1523
8 1640 1526 1395 1516 1756 1648 1524 1638
8 1642 1525 1396 1518 1757 1649 1526 1640
8 1758 1645 1521 1641 1642 1525 1396 1518
8 1646 1531 1400 1522 1760 1650 1527 1643
8 1535 1407 1536 1658 1643 1527 1650 1760
8 1521 1399 1529 1645 1644 1528 1651 1761
8 1647 1530 1652 1762 1525 1404 1529 1645
8 1401 1523 1648 1532 1531 1646 1763 1655
8 1525 1404 1533 1649 1647 1530 1654 1765
8 1533 1649 1766 1656 1403 1526 1648 1532
8 1662 1542 1658 1774 1539 1414 1535 1657
8 1542 1415 1543 1664 1658 1536 1659 1775
8 1660 1540 1663 1777 1538 1413 1541 1661
8 1545 1421 1548 1666 1660 1540 1663 1777
8 1662 1542 1414 1539 1778 1664 1541 1661
8 1664 1543 1416 1541 1779 1665 1544 1663
8 1548 1425 1550 1668 1663 1544 1665 1779
8 1547 1423 1549 1667 1666 1548 1668 1781
8 1670 1551 1668 1781 1553 1427 1549 1667
8 1551 1426 1552 1671 1668 1550 1669 1782
8 1670 1551 1427 1553 1784 1671 1554 1674
8 1675 1555 1672 1785 1554 1428 1552 1671
8 1678 1556 1673 1789 1558 1429 1555 1675
8 1561 1431 1558 1681 1674 1554 1675 1790
8 1794 1677 1556 1678 1680 1557 1429 1558
8 1560 1430 1559 1683 1680 1557 1679 1797
8 1561 1431 1560 1684 1681 1558 1680 1798
8 1563 1433 1564 1686 1683 1559 1682 1800
8 1684 1560 1432 1562 1801 1683 1563 1685
8 1565 1435 1566 1688 1685 1563 1686 1802
8 1566 1436 1567 1689 1686 1564 1687 1803
8 1568 1438 1569 1691 1688 1566 1689 1805
8 1569 1439 1570 1692 1689 1567 1690 1806
8 1571 1441 1572 1694 1691 1569 1692 1808
8 1442 1572 1692 1570 1573 1695 1809 1693
8 1574 1444 1575 1696 1694 1572 1695 1810
8 1614 1485 1592 1712 1699 1577 1697 1813
8 1579 1449 1577 1699 1701 1578 1698 1815
8 1615 1486 1614 1735 1702 1579 1699 1816
8 1701 1578 1700 1818 1581 1450 1580 1704
8 1582 1451 1579 1702 1705 1581 1701 1819
8 1704 1580 1703 1820 1584 1452 1583 1706
8 1705 1581 1704 1821 1585 1453 1584 1707
8 1707 1584 1706 1822 1587 1456 1586 1708
8 1710 1589 1506 1633 1824 1709 1632 1751
8 1594 1463 1589 1710 1716 1593 1709 1824
8 1752 1633 1710 1825 1634 1507 1590 1711
8 1595 1464 1590 1711 1717 1594 1710 1825
8 1830 1714 1592 1712 1733 1611 1485 1614
8 1603 1477 1593 1716 1725 1607 1715 1834
8 1599 1473 1594 1717 1721 1603 1716 1835
8 1837 1722 1623 1736 1718 1600 1496 1616
8 1719 1601 1722 1837 1597 1471 1600 1718
8 1602 1720 1598 1472 1723 1838 1719 1601
8 1720 1602 1473 1599 1839 1724 1603 1721
8 1723 1605 1726 1840 1601 1475 1604 1722
8 1840 1726 1628 1743 1722 1604 1501 1623
8 1724 1606 1727 1841 1602 1476 1605 1723
8 1725 1607 1728 1842 1603 1477 1606 1724
8 1612 1482 1608 1731 1733 1611 1730 1849
8 1741 1627 1730 1849 1622 1504 1608 1731
8 1613 1483 1609 1732 1734 1612 1731 1850
8 1618 1495 1622 1738 1732 1609 1731 1850
8 1615 1486 1612 1734 1735 1614 1733 1851
8 1852 1743 1626 1737 1736 1623 1499 1617
8 1853 1745 1625 1739 1737 1626 1500 1619
8 1855 1742 1622 1738 1740 1624 1497 1621
8 1856 1744 1624 1740 1739 1625 1498 1620
8 1741 1627 1504 1622 1857 1746 1631 1742
8 1742 1631 1505 1624 1858 1749 1630 1744
8 1859 1747 1629 1745 1743 1628 1502 1626
8 1860 1748 1630 1744 1745 1629 1503 1625
8 1644 1528 1651 1761 1751 1632 1750 1865
8 1637 1520 1644 1755 1752 1633 1751 1866
8 1754 1646 1522 1636 1867 1760 1643 1753
8 1657 1535 1658 1774 1753 1643 1760 1867
8 1639 1523 1646 1754 1756 1648 1763 1868
8 1641 1521 1645 1758 1755 1644 1761 1869
8 1757 1649 1526 1640 1870 1766 1648 1756
8 1642 1525 1649 1757 1759 1647 1765 1871
8 1759 1647 1762 1872 1642 1525 1645 1758
8 1760 1650 1767 1874 1646 1531 1655 1763
8 1658 1536 1659 1775 1760 1650 1767 1874
8 1762 1652 1768 1875 1645 1529 1651 1761
8 1764 1653 1769 1876 1647 1530 1652 1762
8 1656 1766 1877 1773 1532 1648 1763 1655
8 1771 1879 1765 1654 1653 1764 1647 1530
8 1533 1649 1765 1654 1656 1766 1880 1772
8 1662 1542 1664 1778 1774 1658 1775 1887
8 1664 1543 1665 1779 1775 1659 1776 1888
8 1778 1664 1541 1661 1890 1779 1663 1777
8 1666 1548 1668 1781 1777 1663 1779 1890
8 1782 1669 1780 1891 1668 1550 1665 1779
8 1670 1551 1671 1784 1781 1668 1782 1893
8 1671 1552 1672 1785 1782 1669 1783 1894
8 1790 1675 1785 1896 1674 1554 1671 1784
8 1675 1555 1673 1789 1785 1672 1786 1897
8 1792 1676 1788 1903 1678 1556 1673 1789
8 1795 1678 1789 1904 1681 1558 1675 1790
8 1792 1676 1556 1678 1906 1791 1677 1794
8 1680 1557 1679 1797 1794 1677 1793 1909
8 1910 1794 1678 1795 1798 1680 1558 1681
8 1683 1559 1682 1800 1797 1679 1796 1912
8 1684 1560 1683 1801 1798 1680 1797 1913
8 1686 1564 1687 1803 1800 1682 1799 1915
8 1685 1563 1686 1802 1801 1683 1800 1916
8 1688 1566 1689 1805 1802 1686 1803 1917
8 1689 1567 1690 1806 1803 1687 1804 1918
8 1691 1569 1692 1808 1805 1689 1806 1920
8 1692 1570 1693 1809 1806 1690 1807 1921
8 1694 1572 1695 1810 1808 1692 1809 1922
8 1829 1713 1811 1926 1712 1592 1697 1813
8 1813 1697 1812 1928 1699 1577 1698 1815
8 1735 1614 1712 1828 1816 1699 1813 1929
8 1815 1698 1814 1931 1701 1578 1700 1818
8 1702 1579 1699 1816 1819 1701 1815 1932
8 1818 1700 1817 1933 1704 1580 1703 1820
8 1819 1701 1818 1934 1705 1581 1704 1821
8 1821 1704 1820 1935 1707 1584 1706 1822
8 1824 1709 1632 1751 1937 1823 1750 1865
8 1716 1593 1709 1824 1834 1715 1823 1937
8 1825 1710 1633 1752 1938 1824 1751 1866
8 1717 1594 1710 1825 1835 1716 1824 1938
8 1945 1830 1712 1828 1851 1733 1614 1735
8 1830 1714 1831 1946 1712 1592 1713 1829
8 1947 1832 1714 1830 1849 1730 1611 1733
8 1843 1729 1607 1725 1950 1833 1715 1834
8 1721 1603 1716 1835 1836 1725 1834 1951
8 1836 1725 1842 1953 1721 1603 1724 1839
8 1723 1838 1719 1601 1840 1954 1837 1722
8 1954 1840 1743 1852 1837 1722 1623 1736
8 1724 1839 1720 1602 1841 1955 1838 1723
8 1841 1727 1844 1956 1723 1605 1726 1840
8 1956 1844 1747 1859 1840 1726 1628 1743
8 1728 1842 1724 1606 1845 1957 1841 1727
8 1725 1607 1729 1843 1842 1728 1846 1958
8 1741 1627 1746 1857 1849 1730 1848 1965
8 1734 1612 1731 1850 1851 1733 1849 1966
8 1854 1741 1849 1966 1738 1622 1731 1850
8 1967 1859 1745 1853 1852 1743 1626 1737
8 1968 1860 1744 1856 1853 1745 1625 1739
8 1854 1741 1622 1738 1969 1857 1742 1855
8 1855 1742 1624 1740 1970 1858 1744 1856
8 1857 1746 1631 1742 1971 1861 1749 1858
8 1858 1749 1630 1744 1972 1863 1748 1860
8 1859 1747 1862 1973 1745 1629 1748 1860
8 1875 1768 1864 1977 1761 1651 1750 1865
8 1755 1644 1761 1869 1866 1751 1865 1978
8 1867 1760 1874 1979 1754 1646 1763 1868
8 1774 1658 1775 1887 1867 1760 1874 1979
8 1870 1766 1648 1756 1980 1877 1763 1868
8 1872 1762 1875 1981 1758 1645 1761 1869
8 1757 1649 1766 1870 1871 1765 1880 1982
8 1983 1879 1764 1873 1871 1765 1647 1759
8 1873 1764 1876 1984 1759 1647 1762 1872
8 1877 1773 1655 1763 1986 1881 1767 1874
8 1775 1659 1776 1888 1874 1767 1881 1986
8 1876 1769 1882 1987 1762 1652 1768 1875
8 1878 1770 1883 1988 1764 1653 1769 1876
8 1880 1772 1656 1766 1989 1886 1773 1877
8 1878 1770 1653 1764 1990 1884 1771 1879
8 1765 1654 1772 1880 1879 1771 1885 1991
8 1778 1664 1779 1890 1887 1775 1888 1997
8 1998 1889 1776 1888 1891 1780 1665 1779
8 1893 1782 1891 2000 1781 1668 1779 1890
8 1894 1783 1892 2001 1782 1669 1780 1891
8 1784 1671 1785 1896 1893 1782 1894 2003
8 1897 1786 1895 2004 1785 1672 1783 1894
8 1790 1675 1789 1904 1896 1785 1897 2006
8 1901 1787 1898 2007 1789 1673 1786 1897
8 1903 1788 1900 2013 1789 1673 1787 1901
8 1792 1676 1791 1906 1903 1788 1902 2016
8 1907 1792 1903 2017 1795 1678 1789 1904
8 1906 1791 1677 1794 2019 1905 1793 1909
8 1907 1792 1678 1795 2020 1906 1794 1910
8 1797 1679 1796 1912 1909 1793 1908 2022
8 1798 1680 1797 1913 1910 1794 1909 2023
8 1800 1682 1799 1915 1912 1796 1911 2025
8 1801 1683 1800 1916 1913 1797 1912 2026
8 1803 1687 1804 1918 1915 1799 1914 2028
8 1802 1686 1803 1917 1916 1800 1915 2029
8 1805 1689 1806 1920 1917 1803 1918 2030
8 1806 1690 1807 1921 1918 1804 1919 2031
8 1808 1692 1809 1922 1920 1806 1921 2032
8 1939 1826 1924 2037 1829 1713 1811 1926
8 1926 1811 1925 2039 1813 1697 1812 1928
8 1944 1829 1926 2040 1828 1712 1813 1929
8 1928 1812 1927 2042 1815 1698 1814 1931
8 1929 1813 1928 2043 1816 1699 1815 1932
8 1931 1814 1930 2044 1818 1700 1817 1933
8 1932 1815 1931 2045 1819 1701 1818 1934
8 1934 1818 1933 2046 1821 1704 1820 1935
8 2048 1936 1823 1937 1977 1864 1750 1865
8 1950 1833 1715 1834 2048 1936 1823 1937
8 1938 1824 1751 1866 2049 1937 1865 1978
8 1835 1716 1824 1938 1951 1834 1937 2049
8 1939 1826 1713 1829 2053 1942 1831 1946
8 1940 1827 1923 2035 2053 1942 1826 1939
8 1945 1830 1946 2058 1828 1712 1829 1944
8 2059 1947 1830 1945 1966 1849 1733 1851
8 1947 1832 1730 1849 2060 1948 1848 1965
8 1947 1832 1948 2060 1830 1714 1831 1946
8 1959 1847 1729 1843 2063 1949 1833 1950
8 1952 1843 1725 1836 2064 1950 1834 1951
8 1836 1725 1843 1952 1953 1842 1958 2066
8 1953 1842 1957 2067 1839 1724 1841 1955
8 1841 1955 1838 1723 1956 2068 1954 1840
8 2068 1956 1859 1967 1954 1840 1743 1852
8 1956 1844 1960 2069 1859 1747 1862 1973
8 1845 1957 1841 1727 1960 2069 1956 1844
8 1728 1842 1957 1845 1846 1958 2071 1961
8 1962 2072 1959 1847 1846 1958 1843 1729
8 1971 1861 1964 2077 1857 1746 1848 1965
8 1854 1741 1857 1969 1966 1849 1965 2078
8 1967 1859 1973 2079 1853 1745 1860 1968
8 1970 1858 1744 1856 2080 1972 1860 1968
8 1969 1857 1742 1855 2081 1971 1858 1970
8 1971 1861 1749 1858 2082 1974 1863 1972
8 1973 1862 1975 2083 1860 1748 1863 1972
8 1987 1882 1976 2086 1875 1768 1864 1977
8 1981 1875 1977 2087 1869 1761 1865 1978
8 1980 1877 1763 1868 2088 1986 1874 1979
8 1887 1775 1888 1997 1979 1874 1986 2088
8 1880 1982 2089 1989 1766 1870 1980 1877
8 1984 1876 1987 2090 1872 1762 1875 1981
8 1765 1871 1983 1879 1880 1982 2091 1991
8 1985 1878 1764 1873 2092 1990 1879 1983
8 1985 1878 1988 2093 1873 1764 1876 1984
8 2094 1992 1881 1986 1998 1889 1776 1888
8 1986 1881 1992 2094 1877 1773 1886 1989
8 1988 1883 1993 2095 1876 1769 1882 1987
8 1878 1770 1884 1990 1988 1883 1994 2096
8 1991 1885 1772 1880 2097 1996 1886 1989
8 1879 1771 1885 1991 1990 1884 1995 2098
8 2103 1998 1888 1997 2000 1891 1779 1890
8 2104 1999 1889 1998 2001 1892 1780 1891
8 2003 1894 2001 2106 1893 1782 1891 2000
8 2004 1895 2002 2107 1894 1783 1892 2001
8 2006 1897 2004 2109 1896 1785 1894 2003
8 2007 1898 2005 2110 1897 1786 1895 2004
8 2014 1901 2007 2112 1904 1789 1897 2006
8 2011 1899 2008 2113 1901 1787 1898 2007
8 2119 2010 1899 2011 2013 1900 1787 1901
8 2016 1902 2012 2122 1903 1788 1900 2013
8 2017 1903 2013 2123 1904 1789 1901 2014
8 1906 1791 1905 2019 2016 1902 2015 2125
8 1907 1792 1906 2020 2017 1903 2016 2126
8 1909 1793 1908 2022 2019 1905 2018 2128
8 2020 1906 1794 1910 2129 2019 1909 2023
8 1912 1796 1911 2025 2022 1908 2021 2131
8 1913 1797 1912 2026 2023 1909 2022 2132
8 1915 1799 1914 2028 2025 1911 2024 2134
8 1916 1800 1915 2029 2026 1912 2025 2135
8 1918 1804 1919 2031 2028 1914 2027 2136
8 1917 1803 1918 2030 2029 1915 2028 2137
8 1920 1806 1921 2032 2030 1918 2031 2138
8 1940 1827 1941 2054 2035 1923 2033 2140
8 2035 1923 2034 2143 1939 1826 1924 2037
8 2037 1924 2036 2146 1926 1811 1925 2039
8 2051 1939 2037 2147 1944 1829 1926 2040
8 2039 1925 2038 2149 1928 1812 1927 2042
8 2040 1926 2039 2150 1929 1813 1928 2043
8 2042 1927 2041 2151 1931 1814 1930 2044
8 2043 1928 2042 2152 1932 1815 1931 2045
8 2045 1931 2044 2153 1934 1818 1933 2046
8 2155 2047 1936 2048 2086 1976 1864 1977
8 2063 1949 1833 1950 2155 2047 1936 2048
8 2156 2048 1937 2049 2087 1977 1865 1978
8 2064 1950 1834 1951 2156 2048 1937 2049
8 2051 1939 1829 1944 2160 2053 1946 2058
8 2052 1940 2035 2144 2160 2053 1939 2051
8 2053 1942 1831 1946 2163 2057 1948 2060
8 2055 1943 1827 1940 2163 2057 1942 2053
8 2055 1943 2056 2164 1940 1827 1941 2054
8 2059 1947 1849 1966 2167 2060 1965 2078
8 2059 1947 2060 2167 1945 1830 1946 2058
8 2077 1964 2061 2168 1965 1848 1948 2060
8 2070 1963 1847 1959 2170 2062 1949 2063
8 2065 1959 1843 1952 2171 2063 1950 2064
8 2173 2072 1958 2066 2065 1959 1843 1952
8 1953 1842 1958 2066 2067 1957 2071 2174
8 2068 1956 2069 2175 1967 1859 1973 2079
8 2067 1957 2069 2175 1955 1841 1956 2068
8 1845 1957 2069 1960 1961 2071 2176 2073
8 2069 1960 2073 2176 1973 1862 1975 2083
8 2070 1963 2075 2177 1959 1847 1962 2072
8 1846 1958 2071 1961 1962 2072 2178 2074
8 2077 1964 1861 1971 2182 2076 1974 2082
8 2081 1971 2077 2183 1969 1857 1965 2078
8 2079 1973 2083 2184 1968 1860 1972 2080
8 2081 1971 1858 1970 2185 2082 1972 2080
8 2083 1975 2084 2186 1972 1863 1974 2082
8 2086 1976 1882 1987 2189 2085 1993 2095
8 2090 1987 2086 2190 1981 1875 1977 2087
8 2191 2094 1986 2088 2103 1998 1888 1997
8 2088 1986 2094 2191 1980 1877 1989 2089
8 1991 2091 2192 2097 1880 1982 2089 1989
8 2093 1988 2095 2193 1984 1876 1987 2090
8 1879 1983 2092 1990 1991 2091 2194 2098
8 1985 1878 1990 2092 2093 1988 2096 2195
8 2097 1996 1886 1989 2196 2099 1992 2094
8 2196 2099 1992 2094 2104 1999 1889 1998
8 1994 2096 1988 1883 2100 2197 2095 1993
8 2096 1994 1884 1990 2198 2101 1995 2098
8 1995 2098 2199 2102 1885 1991 2097 1996
8 2203 2104 1998 2103 2106 2001 1891 2000
8 2107 2002 2105 2204 2001 1892 1999 2104
8 2109 2004 2107 2206 2003 1894 2001 2106
8 2110 2005 2108 2207 2004 1895 2002 2107
8 2112 2007 2110 2209 2006 1897 2004 2109
8 2113 2008 2111 2210 2007 1898 2005 2110
8 2120 2011 2113 2212 2014 1901 2007 2112
8 2117 2009 2114 2213 2011 1899 2008 2113
8 2219 2116 2009 2117 2119 2010 1899 2011
8 2222 2118 2010 2119 2122 2012 1900 2013
8 2223 2119 2011 2120 2123 2013 1901 2014
8 2016 1902 2015 2125 2122 2012 2121 2225
8 2126 2016 2122 2226 2017 1903 2013 2123
8 2019 1905 2018 2128 2125 2015 2124 2228
8 2020 1906 2019 2129 2126 2016 2125 2229
8 2022 1908 2021 2131 2128 2018 2127 2231
8 2023 1909 2022 2132 2129 2019 2128 2232
8 2025 1911 2024 2134 2131 2021 2130 2234
8 2026 1912 2025 2135 2132 2022 2131 2235
8 1914 2028 2134 2024 2027 2136 2236 2133
8 2029 1915 2028 2137 2135 2025 2134 2237
8 2030 1918 2031 2138 2137 2028 2136 2238
8 2157 2050 2139 2240 2054 1941 2033 2140
8 2052 1940 2054 2161 2144 2035 2140 2242
8 2140 2033 2141 2243 2035 1923 2034 2143
8 2143 2034 2142 2246 2037 1924 2036 2146
8 2144 2035 2143 2247 2051 1939 2037 2147
8 2146 2036 2145 2249 2039 1925 2038 2149
8 2147 2037 2146 2250 2040 1926 2039 2150
8 2149 2038 2148 2251 2042 1927 2041 2151
8 2150 2039 2149 2252 2043 1928 2042 2152
8 2152 2042 2151 2253 2045 1931 2044 2153
8 2255 2154 2047 2155 2189 2085 1976 2086
8 2170 2062 1949 2063 2255 2154 2047 2155
8 2256 2155 2048 2156 2190 2086 1977 2087
8 2171 2063 1950 2064 2256 2155 2048 2156
8 2258 2159 2050 2157 2164 2056 1941 2054
8 2160 2053 1946 2058 2262 2163 2060 2167
8 2162 2055 1940 2052 2262 2163 2053 2160
8 2162 2055 2164 2263 2052 1940 2054 2161
8 2163 2057 1948 2060 2264 2165 2061 2168
8 2055 1943 2057 2163 2164 2056 2165 2264
8 2182 2076 2166 2268 2077 1964 2061 2168
8 2183 2077 2168 2269 2078 1965 2060 2167
8 2070 1963 2062 2170 2177 2075 2169 2271
8 2172 2070 1959 2065 2272 2170 2063 2171
8 2172 2070 2177 2273 2065 1959 2072 2173
8 2066 1958 2072 2173 2174 2071 2178 2274
8 2067 1957 2071 2174 2175 2069 2176 2275
8 2175 2069 2176 2275 2079 1973 2083 2184
8 2071 1961 2074 2178 2176 2073 2179 2276
8 2176 2073 2179 2276 2083 1975 2084 2186
8 2072 1962 2075 2177 2178 2074 2180 2277
8 2182 2076 1974 2082 2280 2181 2084 2186
8 2183 2077 1971 2081 2281 2182 2082 2185
8 2184 2083 2186 2282 2080 1972 2082 2185
8 2189 2085 1993 2095 2285 2188 2100 2197
8 2190 2086 1987 2090 2286 2189 2095 2193
8 2192 2097 1989 2089 2287 2196 2094 2191
8 2287 2196 2094 2191 2203 2104 1998 2103
8 2194 2098 1991 2091 2288 2199 2097 2192
8 2195 2096 2197 2289 2093 1988 2095 2193
8 2096 2195 2290 2198 1990 2092 2194 2098
8 2097 1996 2099 2196 2199 2102 2200 2291
8 2196 2099 1999 2104 2291 2200 2105 2204
8 2100 2197 2292 2201 1994 2096 2198 2101
8 1995 2098 2198 2101 2102 2199 2293 2202
8 2206 2107 2204 2296 2106 2001 2104 2203
8 2207 2108 2205 2297 2107 2002 2105 2204
8 2209 2110 2207 2299 2109 2004 2107 2206
8 2210 2111 2208 2300 2110 2005 2108 2207
8 2212 2113 2210 2302 2112 2007 2110 2209
8 2213 2114 2211 2303 2113 2008 2111 2210
8 2220 2117 2213 2305 2120 2011 2113 2212
8 2216 2115 2214 2306 2117 2009 2114 2213
8 2216 2115 2009 2117 2311 2217 2116 2219
8 2219 2116 2010 2119 2314 2218 2118 2222
8 2315 2219 2117 2220 2223 2119 2011 2120
8 2122 2012 2121 2225 2222 2118 2221 2317
8 2318 2222 2119 2223 2226 2122 2013 2123
8 2125 2015 2124 2228 2225 2121 2224 2320
8 2126 2016 2125 2229 2226 2122 2225 2321
8 2128 2018 2127 2231 2228 2124 2227 2323
8 2129 2019 2128 2232 2229 2125 2228 2324
8 2131 2021 2130 2234 2231 2127 2230 2326
8 2132 2022 2131 2235 2232 2128 2231 2327
8 2134 2024 2133 2236 2234 2130 2233 2328
8 2135 2025 2134 2237 2235 2131 2234 2329
8 2137 2028 2136 2238 2237 2134 2236 2330
8 2157 2050 2158 2259 2240 2139 2239 2332
8 2257 2157 2240 2334 2161 2054 2140 2242
8 2240 2139 2241 2335 2140 2033 2141 2243
8 2242 2140 2243 2337 2144 2035 2143 2247
8 2243 2141 2244 2338 2143 2034 2142 2246
8 2246 2142 2245 2341 2146 2036 2145 2249
8 2247 2143 2246 2342 2147 2037 2146 2250
8 2249 2145 2248 2343 2149 2038 2148 2251
8 2250 2146 2249 2344 2150 2039 2149 2252
8 2252 2149 2251 2345 2152 2042 2151 2253
8 2169 2271 2347 2254 2062 2170 2255 2154
8 2189 2085 2188 2285 2255 2154 2254 2347
8 2348 2255 2155 2256 2286 2189 2086 2190
8 2272 2170 2063 2171 2348 2255 2155 2256
8 2349 2258 2157 2257 2263 2164 2054 2161
8 2258 2159 2261 2351 2157 2050 2158 2259
8 2258 2159 2056 2164 2351 2261 2165 2264
8 2262 2163 2060 2167 2355 2264 2168 2269
8 2162 2055 2163 2262 2263 2164 2264 2355
8 2357 2266 2165 2264 2268 2166 2061 2168
8 2268 2166 2076 2182 2361 2267 2181 2280
8 2281 2182 2268 2362 2183 2077 2168 2269
8 2271 2169 2270 2364 2177 2075 2180 2277
8 2172 2070 2170 2272 2273 2177 2271 2365
8 2072 2173 2274 2178 2177 2273 2366 2277
8 2071 2174 2275 2176 2178 2274 2367 2276
8 2275 2176 2276 2367 2184 2083 2186 2282
8 2283 2187 2084 2186 2368 2278 2179 2276
8 2178 2074 2180 2277 2276 2179 2278 2368
8 2283 2187 2279 2370 2186 2084 2181 2280
8 2281 2182 2082 2185 2371 2280 2186 2282
8 2188 2285 2374 2284 2100 2197 2292 2201
8 2286 2189 2095 2193 2375 2285 2197 2289
8 2192 2097 2196 2287 2288 2199 2291 2376
8 2287 2196 2104 2203 2376 2291 2204 2296
8 2194 2098 2199 2288 2290 2198 2293 2377
8 2289 2197 2096 2195 2378 2292 2198 2290
8 2291 2200 2105 2204 2379 2294 2205 2297
8 2199 2102 2200 2291 2293 2202 2294 2379
8 2198 2101 2202 2293 2292 2201 2295 2380
8 2299 2207 2297 2383 2206 2107 2204 2296
8 2300 2208 2298 2384 2207 2108 2205 2297
8 2302 2210 2300 2386 2209 2110 2207 2299
8 2303 2211 2301 2387 2210 2111 2208 2300
8 2305 2213 2303 2389 2212 2113 2210 2302
8 2306 2214 2304 2390 2213 2114 2211 2303
8 2310 2216 2306 2392 2220 2117 2213 2305
8 2308 2215 2307 2393 2216 2115 2214 2306
8 2308 2215 2115 2216 2396 2309 2217 2311
8 2310 2216 2117 2220 2398 2311 2219 2315
8 2311 2217 2116 2219 2399 2312 2218 2314
8 2314 2218 2118 2222 2402 2313 2221 2317
8 2315 2219 2119 2223 2403 2314 2222 2318
8 2225 2121 2224 2320 2317 2221 2316 2405
8 2226 2122 2225 2321 2318 2222 2317 2406
8 2228 2124 2227 2323 2320 2224 2319 2408
8 2229 2125 2228 2324 2321 2225 2320 2409
8 2231 2127 2230 2326 2323 2227 2322 2411
8 2232 2128 2231 2327 2324 2228 2323 2412
8 2234 2130 2233 2328 2326 2230 2325 2413
8 2235 2131 2234 2329 2327 2231 2326 2414
8 2237 2134 2236 2330 2329 2234 2328 2415
8 2259 2158 2260 2352 2332 2239 2331 2417
8 2257 2157 2259 2350 2334 2240 2332 2419
8 2240 2139 2239 2332 2335 2241 2333 2420
8 2334 2240 2335 2422 2242 2140 2243 2337
8 2335 2241 2336 2423 2243 2141 2244 2338
8 2337 2243 2338 2425 2247 2143 2246 2342
8 2338 2244 2339 2426 2246 2142 2245 2341
8 2341 2245 2340 2428 2249 2145 2248 2343
8 2342 2246 2341 2429 2250 2146 2249 2344
8 2344 2249 2343 2430 2252 2149 2251 2345
8 2188 2285 2347 2254 2284 2374 2432 2346
8 2347 2254 2346 2432 2271 2169 2270 2364
8 2365 2271 2170 2272 2433 2347 2255 2348
8 2286 2189 2285 2375 2348 2255 2347 2433
8 2349 2258 2351 2435 2257 2157 2259 2350
8 2349 2258 2164 2263 2435 2351 2264 2355
8 2259 2158 2261 2351 2352 2260 2354 2437
8 2356 2265 2354 2437 2264 2165 2261 2351
8 2441 2357 2264 2355 2362 2268 2168 2269
8 2356 2265 2165 2264 2442 2358 2266 2357
8 2443 2359 2266 2357 2361 2267 2166 2268
8 2370 2279 2360 2446 2280 2181 2267 2361
8 2362 2268 2182 2281 2447 2361 2280 2371
8 2180 2277 2368 2278 2270 2364 2449 2363
8 2271 2365 2273 2177 2364 2450 2366 2277
8 2372 2283 2186 2282 2451 2368 2276 2367
8 2178 2274 2367 2276 2277 2366 2451 2368
8 2283 2187 2278 2368 2370 2279 2369 2452
8 2372 2283 2370 2453 2282 2186 2280 2371
8 2284 2374 2455 2373 2201 2292 2380 2295
8 2375 2285 2197 2289 2456 2374 2292 2378
8 2376 2291 2204 2296 2457 2379 2297 2383
8 2288 2199 2291 2376 2377 2293 2379 2457
8 2198 2290 2378 2292 2293 2377 2458 2380
8 2293 2202 2294 2379 2380 2295 2381 2459
8 2384 2298 2381 2459 2297 2205 2294 2379
8 2386 2300 2384 2463 2299 2207 2297 2383
8 2387 2301 2385 2464 2300 2208 2298 2384
8 2389 2303 2387 2466 2302 2210 2300 2386
8 2390 2304 2388 2467 2303 2211 2301 2387
8 2392 2306 2390 2469 2305 2213 2303 2389
8 2393 2307 2391 2470 2306 2214 2304 2390
8 2395 2308 2393 2472 2310 2216 2306 2392
8 2308 2215 2309 2396 2393 2307 2394 2473
8 2395 2308 2216 2310 2475 2396 2311 2398
8 2396 2309 2217 2311 2476 2397 2312 2399
8 2398 2311 2219 2315 2478 2399 2314 2403
8 2399 2312 2218 2314 2479 2400 2313 2402
8 2317 2221 2316 2405 2402 2313 2401 2482
8 2403 2314 2222 2318 2483 2402 2317 2406
8 2320 2224 2319 2408 2405 2316 2404 2485
8 2321 2225 2320 2409 2406 2317 2405 2486
8 2323 2227 2322 2411 2408 2319 2407 2488
8 2324 2228 2323 2412 2409 2320 2408 2489
8 2326 2230 2325 2413 2411 2322 2410 2490
8 2327 2231 2326 2414 2412 2323 2411 2491
8 2329 2234 2328 2415 2414 2326 2413 2492
8 2417 2331 2260 2352 2494 2416 2353 2438
8 2350 2259 2352 2436 2419 2332 2417 2496
8 2332 2239 2331 2417 2420 2333 2418 2497
8 2334 2240 2332 2419 2422 2335 2420 2499
8 2420 2333 2421 2500 2335 2241 2336 2423
8 2422 2335 2423 2502 2337 2243 2338 2425
8 2423 2336 2424 2503 2338 2244 2339 2426
8 2425 2338 2426 2505 2342 2246 2341 2429
8 2426 2339 2427 2506 2341 2245 2340 2428
8 2429 2341 2428 2507 2344 2249 2343 2430
8 2432 2346 2284 2374 2509 2431 2373 2455
8 2432 2346 2431 2509 2364 2270 2363 2449
8 2375 2285 2374 2456 2433 2347 2432 2510
8 2347 2433 2365 2271 2432 2510 2450 2364
8 2350 2259 2351 2435 2436 2352 2437 2514
8 2440 2356 2437 2514 2355 2264 2351 2435
8 2352 2260 2354 2437 2438 2353 2439 2516
8 2356 2265 2358 2442 2437 2354 2439 2516
8 2440 2356 2264 2355 2518 2442 2357 2441
8 2519 2443 2357 2441 2447 2361 2268 2362
8 2443 2359 2444 2520 2357 2266 2358 2442
8 2443 2359 2267 2361 2520 2444 2360 2446
8 2446 2360 2279 2370 2523 2445 2369 2452
8 2453 2370 2446 2524 2371 2280 2361 2447
8 2449 2363 2448 2525 2368 2278 2369 2452
8 2366 2277 2364 2450 2451 2368 2449 2526
8 2372 2283 2368 2451 2453 2370 2452 2527
8 2455 2373 2295 2380 2529 2454 2382 2460
8 2456 2374 2292 2378 2530 2455 2380 2458
8 2377 2293 2379 2457 2458 2380 2459 2531
8 2463 2384 2459 2531 2383 2297 2379 2457
8 2533 2461 2382 2460 2459 2381 2295 2380
8 2464 2385 2461 2533 2384 2298 2381 2459
8 2466 2387 2464 2537 2386 2300 2384 2463
8 2467 2388 2465 2538 2387 2301 2385 2464
8 2469 2390 2467 2540 2389 2303 2387 2466
8 2470 2391 2468 2541 2390 2304 2388 2467
8 2472 2393 2470 2543 2392 2306 2390 2469
8 2393 2307 2394 2473 2470 2391 2471 2544
8 2395 2308 2396 2475 2472 2393 2473 2546
8 2396 2309 2397 2476 2473 2394 2474 2547
8 2475 2396 2311 2398 2549 2476 2399 2478
8 2476 2397 2312 2399 2550 2477 2400 2479
8 2478 2399 2314 2403 2552 2479 2402 2483
8 2479 2400 2313 2402 2553 2480 2401 2482
8 2405 2316 2404 2485 2482 2401 2481 2556
8 2406 2317 2405 2486 2483 2402 2482 2557
8 2408 2319 2407 2488 2485 2404 2484 2559
8 2409 2320 2408 2489 2486 2405 2485 2560
8 2411 2322 2410 2490 2488 2407 2487 2561
8 2412 2323 2411 2491 2489 2408 2488 2562
8 2414 2326 2413 2492 2491 2411 2490 2563
8 2513 2434 2493 2565 2438 2353 2416 2494
8 2496 2417 2352 2436 2567 2494 2438 2515
8 2494 2416 2495 2568 2417 2331 2418 2497
8 2419 2332 2417 2496 2499 2420 2497 2570
8 2497 2418 2498 2571 2420 2333 2421 2500
8 2499 2420 2500 2573 2422 2335 2423 2502
8 2500 2421 2501 2574 2423 2336 2424 2503
8 2502 2423 2503 2576 2425 2338 2426 2505
8 2503 2424 2504 2577 2426 2339 2427 2506
8 2505 2426 2506 2578 2429 2341 2428 2507
8 2509 2431 2373 2455 2580 2508 2454 2529
8 2509 2431 2508 2580 2449 2363 2448 2525
8 2432 2510 2581 2509 2374 2456 2530 2455
8 2432 2510 2450 2364 2509 2581 2526 2449
8 2583 2511 2434 2513 2516 2439 2353 2438
8 2436 2352 2437 2514 2515 2438 2516 2588
8 2440 2356 2442 2518 2514 2437 2516 2588
8 2442 2358 2444 2520 2516 2439 2517 2589
8 2519 2443 2520 2591 2441 2357 2442 2518
8 2519 2443 2361 2447 2591 2520 2446 2524
8 2446 2360 2445 2523 2520 2444 2521 2592
8 2525 2448 2522 2593 2452 2369 2445 2523
8 2524 2446 2370 2453 2594 2523 2452 2527
8 2526 2449 2525 2595 2451 2368 2452 2527
8 2534 2462 2528 2597 2460 2382 2454 2529
8 2530 2455 2380 2458 2598 2529 2460 2532
8 2599 2533 2460 2532 2531 2459 2380 2458
8 2537 2464 2533 2599 2463 2384 2459 2531
8 2534 2462 2382 2460 2601 2535 2461 2533
8 2538 2465 2535 2601 2464 2385 2461 2533
8 2540 2467 2538 2604 2466 2387 2464 2537
8 2541 2468 2539 2605 2467 2388 2465 2538
8 2543 2470 2541 2607 2469 2390 2467 2540
8 2470 2391 2471 2544 2541 2468 2542 2608
8 2472 2393 2473 2546 2543 2470 2544 2610
8 2473 2394 2474 2547 2544 2471 2545 2611
8 2475 2396 2476 2549 2546 2473 2547 2613
8 2476 2397 2477 2550 2547 2474 2548 2614
8 2549 2476 2399 2478 2616 2550 2479 2552
8 2479 2400 2480 2553 2550 2477 2551 2617
8 2552 2479 2402 2483 2619 2553 2482 2557
8 2482 2401 2481 2556 2553 2480 2554 2620
8 2485 2404 2484 2559 2556 2481 2555 2623
8 2486 2405 2485 2560 2557 2482 2556 2624
8 2488 2407 2487 2561 2559 2484 2558 2625
8 2489 2408 2488 2562 2560 2485 2559 2626
8 2491 2411 2490 2563 2562 2488 2561 2627
8 2513 2434 2512 2585 2565 2493 2564 2630
8 2586 2513 2565 2632 2515 2438 2494 2567
8 2565 2493 2566 2633 2494 2416 2495 2568
8 2567 2494 2568 2635 2496 2417 2497 2570
8 2568 2495 2569 2636 2497 2418 2498 2571
8 2570 2497 2571 2638 2499 2420 2500 2573
8 2571 2498 2572 2639 2500 2421 2501 2574
8 2573 2500 2574 2641 2502 2423 2503 2576
8 2574 2501 2575 2642 2503 2424 2504 2577
8 2576 2503 2577 2643 2505 2426 2506 2578
8 2597 2528 2579 2645 2529 2454 2508 2580
8 2580 2508 2579 2645 2525 2448 2522 2593
8 2581 2509 2455 2530 2646 2580 2529 2598
8 2581 2509 2580 2646 2526 2449 2525 2595
8 2583 2511 2582 2648 2513 2434 2512 2585
8 2583 2511 2439 2516 2648 2582 2517 2589
8 2649 2583 2513 2586 2588 2516 2438 2515
8 2589 2517 2444 2520 2653 2587 2521 2592
8 2518 2442 2520 2591 2588 2516 2589 2654
8 2593 2522 2590 2655 2523 2445 2521 2592
8 2524 2446 2523 2594 2591 2520 2592 2656
8 2595 2525 2593 2657 2527 2452 2523 2594
8 2602 2536 2596 2659 2534 2462 2528 2597
8 2600 2534 2597 2660 2532 2460 2529 2598
8 2600 2534 2460 2532 2661 2601 2533 2599
8 2604 2538 2601 2661 2537 2464 2533 2599
8 2602 2536 2462 2534 2663 2603 2535 2601
8 2601 2535 2465 2538 2663 2603 2539 2605
8 2607 2541 2605 2665 2540 2467 2538 2604
8 2608 2542 2606 2666 2541 2468 2539 2605
8 2543 2470 2544 2610 2607 2541 2608 2668
8 2544 2471 2545 2611 2608 2542 2609 2669
8 2546 2473 2547 2613 2610 2544 2611 2671
8 2547 2474 2548 2614 2611 2545 2612 2672
8 2549 2476 2550 2616 2613 2547 2614 2674
8 2550 2477 2551 2617 2614 2548 2615 2675
8 2552 2479 2553 2619 2616 2550 2617 2677
8 2553 2480 2554 2620 2617 2551 2618 2678
8 2557 2482 2556 2624 2619 2553 2620 2680
8 2556 2481 2555 2623 2620 2554 2621 2681
8 2559 2484 2558 2625 2623 2555 2622 2683
8 2560 2485 2559 2626 2624 2556 2623 2684
8 2562 2488 2561 2627 2626 2559 2625 2685
8 2690 2629 2564 2630 2650 2584 2512 2585
8 2586 2513 2585 2651 2632 2565 2630 2691
8 2630 2564 2631 2692 2565 2493 2566 2633
8 2632 2565 2633 2694 2567 2494 2568 2635
8 2633 2566 2634 2695 2568 2495 2569 2636
8 2635 2568 2636 2697 2570 2497 2571 2638
8 2636 2569 2637 2698 2571 2498 2572 2639
8 2638 2571 2639 2700 2573 2500 2574 2641
8 2639 2572 2640 2701 2574 2501 2575 2642
8 2641 2574 2642 2702 2576 2503 2577 2643
8 2597 2528 2596 2659 2645 2579 2644 2704
8 2645 2579 2644 2704 2593 2522 2590 2655
8 2660 2597 2645 2705 2598 2529 2580 2646
8 2646 2580 2645 2705 2595 2525 2593 2657
8 2650 2584 2512 2585 2707 2647 2582 2648
8 2648 2582 2517 2589 2707 2647 2587 2653
8 2649 2583 2648 2708 2586 2513 2585 2651
8 2649 2583 2516 2588 2708 2648 2589 2654
8 2655 2590 2652 2710 2592 2521 2587 2653
8 2654 2589 2520 2591 2711 2653 2592 2656
8 2657 2593 2655 2712 2594 2523 2592 2656
8 2602 2536 2603 2663 2659 2596 2658 2714
8 2662 2602 2659 2715 2600 2534 2597 2660
8 2662 2602 2534 2600 2717 2663 2601 2661
8 2661 2601 2538 2604 2717 2663 2605 2665
8 2666 2606 2664 2718 2605 2539 2603 2663
8 2668 2608 2666 2720 2607 2541 2605 2665
8 2608 2542 2609 2669 2666 2606 2667 2721
8 2610 2544 2611 2671 2668 2608 2669 2723
8 2611 2545 2612 2672 2669 2609 2670 2724
8 2613 2547 2614 2674 2671 2611 2672 2726
8 2614 2548 2615 2675 2672 2612 2673 2727
8 2616 2550 2617 2677 2674 2614 2675 2729
8 2617 2551 2618 2678 2675 2615 2676 2730
8 2619 2553 2620 2680 2677 2617 2678 2732
8 2620 2554 2621 2681 2678 2618 2679 2733
8 2624 2556 2623 2684 2680 2620 2681 2735
8 2681 2621 2555 2623 2736 2682 2622 2683
8 2626 2559 2625 2685 2684 2623 2683 2737
8 2688 2628 2584 2650 2740 2686 2647 2707
8 2688 2628 2687 2742 2650 2584 2629 2690
8 2690 2629 2689 2745 2630 2564 2631 2692
8 2746 2690 2630 2691 2709 2650 2585 2651
8 2691 2630 2692 2747 2632 2565 2633 2694
8 2692 2631 2693 2748 2633 2566 2634 2695
8 2694 2633 2695 2750 2635 2568 2636 2697
8 2695 2634 2696 2751 2636 2569 2637 2698
8 2697 2636 2698 2753 2638 2571 2639 2700
8 2698 2637 2699 2754 2639 2572 2640 2701
8 2700 2639 2701 2755 2641 2574 2642 2702
8 2659 2596 2658 2714 2704 2644 2703 2757
8 2704 2644 2703 2757 2655 2590 2652 2710
8 2660 2597 2659 2715 2705 2645 2704 2758
8 2705 2645 2704 2758 2657 2593 2655 2712
8 2759 2706 2647 2707 2710 2652 2587 2653
8 2709 2650 2585 2651 2760 2707 2648 2708
8 2708 2648 2589 2654 2760 2707 2653 2711
8 2712 2655 2710 2761 2656 2592 2653 2711
8 2763 2713 2658 2714 2718 2664 2603 2663
8 2662 2602 2663 2717 2715 2659 2714 2764
8 2720 2666 2718 2767 2665 2605 2663 2717
8 2768 2719 2664 2718 2721 2667 2606 2666
8 2668 2608 2669 2723 2720 2666 2721 2770
8 2669 2609 2670 2724 2721 2667 2722 2771
8 2671 2611 2672 2726 2723 2669 2724 2773
8 2672 2612 2673 2727 2724 2670 2725 2774
8 2674 2614 2675 2729 2726 2672 2727 2776
8 2675 2615 2676 2730 2727 2673 2728 2777
8 2677 2617 2678 2732 2729 2675 2730 2779
8 2678 2618 2679 2733 2730 2676 2731 2780
8 2680 2620 2681 2735 2732 2678 2733 2782
8 2733 2679 2621 2681 2783 2734 2682 2736
8 2735 2681 2623 2684 2784 2736 2683 2737
8 2740 2686 2647 2707 2787 2738 2706 2759
8 2688 2628 2686 2740 2742 2687 2739 2789
8 2743 2688 2650 2709 2790 2740 2707 2760
8 2742 2687 2741 2792 2690 2629 2689 2745
8 2743 2688 2742 2793 2709 2650 2690 2746
8 2745 2689 2744 2795 2692 2631 2693 2748
8 2746 2690 2745 2796 2691 2630 2692 2747
8 2747 2692 2748 2797 2694 2633 2695 2750
8 2748 2693 2749 2798 2695 2634 2696 2751
8 2750 2695 2751 2800 2697 2636 2698 2753
8 2751 2696 2752 2801 2698 2637 2699 2754
8 2753 2698 2754 2802 2700 2639 2701 2755
8 2763 2713 2756 2804 2714 2658 2703 2757
8 2759 2706 2652 2710 2804 2756 2703 2757
8 2715 2659 2714 2764 2758 2704 2757 2805
8 2758 2704 2757 2805 2712 2655 2710 2761
8 2806 2759 2707 2760 2761 2710 2653 2711
8 2765 2716 2762 2808 2718 2664 2713 2763
8 2809 2763 2714 2764 2767 2718 2663 2717
8 2765 2716 2664 2718 2811 2766 2719 2768
8 2813 2768 2718 2767 2770 2721 2666 2720
8 2814 2769 2719 2768 2771 2722 2667 2721
8 2723 2669 2724 2773 2770 2721 2771 2816
8 2724 2670 2725 2774 2771 2722 2772 2817
8 2726 2672 2727 2776 2773 2724 2774 2819
8 2727 2673 2728 2777 2774 2725 2775 2820
8 2729 2675 2730 2779 2776 2727 2777 2822
8 2730 2676 2731 2780 2777 2728 2778 2823
8 2732 2678 2733 2782 2779 2730 2780 2825
8 2780 2731 2679 2733 2826 2781 2734 2783
8 2782 2733 2681 2735 2827 2783 2736 2784
8 2830 2785 2738 2787 2804 2756 2706 2759
8 2789 2739 2686 2740 2832 2786 2738 2787
8 2790 2740 2707 2760 2833 2787 2759 2806
8 2742 2687 2739 2789 2792 2741 2788 2835
8 2743 2688 2740 2790 2793 2742 2789 2836
8 2792 2741 2791 2838 2745 2689 2744 2795
8 2793 2742 2792 2839 2746 2690 2745 2796
8 2795 2744 2794 2841 2748 2693 2749 2798
8 2796 2745 2795 2842 2747 2692 2748 2797
8 2797 2748 2798 2843 2750 2695 2751 2800
8 2798 2749 2799 2844 2751 2696 2752 2801
8 2800 2751 2801 2845 2753 2698 2754 2802
8 2808 2762 2803 2847 2763 2713 2756 2804
8 2809 2763 2804 2848 2764 2714 2757 2805
8 2806 2759 2710 2761 2848 2804 2757 2805
8 2765 2716 2766 2811 2808 2762 2807 2850
8 2810 2765 2808 2851 2767 2718 2763 2809
8 2810 2765 2718 2767 2852 2811 2768 2813
8 2811 2766 2719 2768 2853 2812 2769 2814
8 2855 2814 2768 2813 2816 2771 2721 2770
8 2856 2815 2769 2814 2817 2772 2722 2771
8 2773 2724 2774 2819 2816 2771 2817 2858
8 2774 2725 2775 2820 2817 2772 2818 2859
8 2776 2727 2777 2822 2819 2774 2820 2861
8 2777 2728 2778 2823 2820 2775 2821 2862
8 2779 2730 2780 2825 2822 2777 2823 2864
8 2823 2778 2731 2780 2865 2824 2781 2826
8 2825 2780 2733 2782 2866 2826 2783 2827
8 2869 2828 2785 2830 2847 2803 2756 2804
8 2871 2829 2786 2832 2830 2785 2738 2787
8 2872 2830 2787 2833 2848 2804 2759 2806
8 2789 2739 2786 2832 2835 2788 2831 2874
8 2836 2789 2740 2790 2875 2832 2787 2833
8 2792 2741 2788 2835 2838 2791 2834 2877
8 2793 2742 2789 2836 2839 2792 2835 2878
8 2838 2791 2837 2880 2795 2744 2794 2841
8 2839 2792 2838 2881 2796 2745 2795 2842
8 2841 2794 2840 2882 2798 2749 2799 2844
8 2842 2795 2841 2883 2797 2748 2798 2843
8 2843 2798 2844 2884 2800 2751 2801 2845
8 2886 2846 2803 2847 2850 2807 2762 2808
8 2851 2808 2847 2887 2809 2763 2804 2848
8 2850 2807 2766 2811 2889 2849 2812 2853
8 2810 2765 2811 2852 2851 2808 2850 2890
8 2852 2811 2768 2813 2891 2853 2814 2855
8 2853 2812 2769 2814 2892 2854 2815 2856
8 2894 2856 2814 2855 2858 2817 2771 2816
8 2817 2772 2818 2859 2856 2815 2857 2895
8 2819 2774 2820 2861 2858 2817 2859 2897
8 2820 2775 2821 2862 2859 2818 2860 2898
8 2822 2777 2823 2864 2861 2820 2862 2900
8 2823 2778 2824 2865 2862 2821 2863 2901
8 2864 2823 2780 2825 2902 2865 2826 2866
8 2904 2867 2828 2869 2886 2846 2803 2847
8 2869 2828 2868 2906 2830 2785 2829 2871
8 2907 2869 2830 2872 2887 2847 2804 2848
8 2871 2829 2870 2909 2832 2786 2831 2874
8 2910 2871 2832 2875 2872 2830 2787 2833
8 2835 2788 2831 2874 2877 2834 2873 2912
8 2836 2789 2832 2875 2878 2835 2874 2913
8 2877 2834 2876 2915 2838 2791 2837 2880
8 2839 2792 2835 2878 2881 2838 2877 2916
8 2880 2837 2879 2917 2841 2794 2840 2882
8 2881 2838 2880 2918 2842 2795 2841 2883
8 2883 2841 2882 2919 2843 2798 2844 2884
8 2921 2885 2846 2886 2889 2849 2807 2850
8 2922 2886 2847 2887 2890 2850 2808 2851
8 2889 2849 2812 2853 2924 2888 2854 2892
8 2890 2850 2811 2852 2925 2889 2853 2891
8 2891 2853 2814 2855 2926 2892 2856 2894
8 2892 2854 2815 2856 2927 2893 2857 2895
8 2858 2817 2859 2897 2894 2856 2895 2929
8 2859 2818 2860 2898 2895 2857 2896 2930
8 2861 2820 2862 2900 2897 2859 2898 2932
8 2862 2821 2863 2901 2898 2860 2899 2933
8 2864 2823 2865 2902 2900 2862 2901 2934
8 2904 2867 2846 2886 2936 2903 2885 2921
8 2904 2867 2903 2936 2869 2828 2868 2906
8 2937 2904 2869 2907 2922 2886 2847 2887
8 2906 2868 2905 2939 2871 2829 2870 2909
8 2907 2869 2906 2940 2872 2830 2871 2910
8 2909 2870 2908 2942 2874 2831 2873 2912
8 2910 2871 2909 2943 2875 2832 2874 2913
8 2912 2873 2911 2945 2877 2834 2876 2915
8 2878 2835 2874 2913 2916 2877 2912 2946
8 2915 2876 2914 2947 2880 2837 2879 2917
8 2916 2877 2915 2948 2881 2838 2880 2918
8 2918 2880 2917 2949 2883 2841 2882 2919
8 2921 2885 2849 2889 2951 2920 2888 2924
8 2952 2921 2886 2922 2925 2889 2850 2890
8 2924 2888 2854 2892 2954 2923 2893 2927
8 2925 2889 2853 2891 2955 2924 2892 2926
8 2926 2892 2856 2894 2956 2927 2895 2929
8 2895 2857 2896 2930 2927 2893 2928 2957
8 2897 2859 2898 2932 2929 2895 2930 2959
8 2898 2860 2899 2933 2930 2896 2931 2960
8 2900 2862 2901 2934 2932 2898 2933 2961
8 2936 2903 2885 2921 2963 2935 2920 2951
8 2936 2903 2935 2963 2906 2868 2905 2939
8 2937 2904 2886 2922 2964 2936 2921 2952
8 2937 2904 2936 2964 2907 2869 2906 2940
8 2939 2905 2938 2966 2909 2870 2908 2942
8 2940 2906 2939 2967 2910 2871 2909 2943
8 2942 2908 2941 2969 2912 2873 2911 2945
8 2943 2909 2942 2970 2913 2874 2912 2946
8 2945 2911 2944 2971 2915 2876 2914 2947
8 2946 2912 2945 2972 2916 2877 2915 2948
8 2948 2915 2947 2973 2918 2880 2917 2949
8 2951 2920 2888 2924 2975 2950 2923 2954
8 2952 2921 2889 2925 2976 2951 2924 2955
8 2927 2893 2928 2957 2954 2923 2953 2978
8 2955 2924 2892 2926 2979 2954 2927 2956
8 2929 2895 2930 2959 2956 2927 2957 2980
8 2930 2896 2931 2960 2957 2928 2958 2981
8 2932 2898 2933 2961 2959 2930 2960 2982
8 2951 2920 2950 2975 2963 2935 2962 2984
8 2963 2935 2962 2984 2939 2905 2938 2966
8 2964 2936 2921 2952 2985 2963 2951 2976
8 2964 2936 2963 2985 2940 2906 2939 2967
8 2966 2938 2965 2987 2942 2908 2941 2969
8 2967 2939 2966 2988 2943 2909 2942 2970
8 2969 2941 2968 2989 2945 2911 2944 2971
8 2970 2942 2969 2990 2946 2912 2945 2972
8 2972 2945 2971 2991 2948 2915 2947 2973
8 2954 2923 2953 2978 2975 2950 2974 2993
8 2976 2951 2924 2955 2994 2975 2954 2979
8 2957 2928 2958 2981 2978 2953 2977 2995
8 2956 2927 2957 2980 2979 2954 2978 2996
8 2959 2930 2960 2982 2980 2957 2981 2997
8 2984 2962 2983 2999 2966 2938 2965 2987
8 2975 2950 2974 2993 2984 2962 2983 2999
8 2976 2951 2975 2994 2985 2963 2984 3000
8 2985 2963 2984 3000 2967 2939 2966 2988
8 2987 2965 2986 3001 2969 2941 2968 2989
8 2988 2966 2987 3002 2970 2942 2969 2990
8 2990 2969 2989 3003 2972 2945 2971 2991
8 2978 2953 2977 2995 2993 2974 2992 3004
8 2979 2954 2978 2996 2994 2975 2993 3005
8 2980 2957 2981 2997 2996 2978 2995 3006
8 2974 2993 2999 2983 2992 3004 3007 2998
8 2983 2999 2987 2965 2998 3007 3001 2986
8 3000 2984 2999 3008 2988 2966 2987 3002
8 2994 2975 2993 3005 3000 2984 2999 3008
8 3002 2987 3001 3009 2990 2969 2989 3003
8 2996 2978 2995 3006 3005 2993 3004 3010
8 3005 2993 3004 3010 3008 2999 3007 3011
8 3008 2999 3007 3011 3002 2987 3001 3009

CELL_TYPES 1910
12
12
12
12
12
12
12
12
12
12
12
12
12
12
12
12
12
12
12
12
12
12
12
12
12
12
12
12
12
12
12
12
12
12
12
12
12
12
12
12
12
12
12
12
12
12
12
12
12
12
12
12
12
12
12
12
12
12
12
12
12
12
12
12
12
12
12
12
12
12
12
12
12
12
12
12
12
12
12
12
12
12
12
12
12
12
12
12
12
12
12
12
12
12
12
12
12
12
12
12
12
12
12
12
12
12
12
12
12
12
12
12
12
12
12
12
12
12
12
12
12
12
12
12
12
12
12
12
12
12
12
12
12
12
12
12
12
12
12
12
12
12
12
12
12
12
12
12
12
12
12
12
12
12
12
12
12
12
12
12
12
12
12
12
12
12
12
12
12
12
12
12
12
12
12
12
12
12
12
12
12
12
12
12
12
12
12
12
12
12
12
12
12
12
12
12
12
12
12
12
12
12
12
12
12
12
12
12
12
12
12
12
12
12
12
12
12
12
12
12
12
12
12
12
12
12
12
12
12
12
12
12
12
12
12
12
12
12
12
12
12
12
12
12
12
12
12
12
12
12
12
12
12
12
12
12
12
12
12
12
12
12
12
12
12
12
12
12
12
12
12
12
12
12
12
12
12
12
12
12
12
12
12
12
12
12
12
12
12
12
12
12
12
12
12
12
12
12
12
12
12
12
12
12
12
12
12
12
12
12
12
12
12
12
12
12
12
12
12
12
12
12
12
12
12
12
12
12
12
12
12
12
12
12
12
12
12
12
12
12
12
12
12
12
12
12
12
12
12
12
12
12
12
12
12
12
12
12
12
12
12
12
12
12
12
12
12
12
12
12
12
12
12
12
12
12
12
12
12
12
12
12
12
12
12
12
12
12
12
12
12
12
12
12
12
12
12
12
12
12
12
12
12
12
12
12
12
12
12
12
12
12
12
12
12
12
12
12
12
12
12
12
12
12
12
12
12
12
12
12
12
12
12
12
12
12
12
12
12
12
12
12
12
12
12
12
12
12
12
12
12
12
12
12
12
12
12
12
12
12
12
12
12
12
12
12
12
12
12
12
12
12
12
12
12
12
12
12
12
12
12
12
12
12
12
12
12
12
12
12
12
12
12
12
12
12
12
12
12
12
12
12
12
12
12
12
12
12
12
12
12
12
12
12
12
12
12
12
12
12
12
12
12
12
12
12
12
12
12
12
12
12
12
12
12
12
12
12
12
12
12
12
12
12
12
12
12
12
12
12
12
12
12
12
12
12
12
12
12
12
12
12
12
12
12
12
12
12
12
12
12
12
12
12
12
12
12
12
12
12
12
12
12
12
12
12
12
12
12
12
12
12
12
12
12
12
12
12
12
12
12
12
12
12
12
12
12
12
12
12
12
12
12
12
12
12
12
12
12
12
12
12
12
12
12
12
12
12
12
12
12
12
12
12
12
12
12
12
12
12
12
12
12
12
12
12
12
12
12
12
12
12
12
12
12
12
12
12
12
12
12
12
12
12
12
12
12
12
12
12
12
12
12
12
12
12
12
12
12
12
12
12
12
12
12
12
12
12
12
12
12
12
12
12
12
12
12
12
12
12
12
12
12
12
12
12
12
12
12
12
12
12
12
12
12
12
12
12
12
12
12
12
12
12
12
12
12
12
12
12
12
12
12
12
12
12
12
12
12
12
12
12
12
12
12
12
12
12
12
12
12
12
12
12
12
12
12
12
12
12
12
12
12
12
12
12
12
12
12
12
12
12
12
12
12
12
12
12
12
12
12
12
12
12
12
12
12
12
12
12
12
12
12
12
12
12
12
12
12
12
12
12
12
12
12
12
12
12
12
12
12
12
12
12
12
12
12
12
12
12
12
12
12
12
12
12
12
12
12
12
12
12
12
12
12
12
12
12
12
12
12
12
12
12
12
12
12
12
12
12
12
12
12
12
12
12
12
12
12
12
12
12
12
12
12
12
12
12
12
12
12
12
12
12
12
12
12
12
12
12
12
12
12
12
12
12
12
12
12
12
12
12
12
12
12
12
12
12
12
12
12
12
12
12
12
12
12
12
12
12
12
12
12
12
12
12
12
12
12
12
12
12
12
12
12
12
12
12
12
12
12
12
12
12
12
12
12
12
12
12
12
12
12
12
12
12
12
12
12
12
12
12
12
12
12
12
12
12
12
12
12
12
12
12
12
12
12
12
12
12
12
12
12
12
12
12
12
12
12
12
12
12
12
12
12
12
12
12
12
12
12
12
12
12
12
12
12
12
12
12
12
12
12
12
12
12
12
12
12
12
12
12
12
12
12
12
12
12
12
12
12
12
12
12
12
12
12
12
12
12
12
12
12
12
12
12
12
12
12
12
12
12
12
12
12
12
12
12
12
12
12
12
12
12
12
12
12
12
12
12
12
12
12
12
12
12
12
12
12
12
12
12
12
12
12
12
12
12
12
12
12
12
12
12
12
12
12
12
12
12
12
12
12
12
12
12
12
12
12
12
12
12
12
12
12
12
12
12
12
12
12
12
12
12
12
12
12
12
12
12
12
12
12
12
12
12
12
12
12
12
12
12
12
12
12
12
12
12
12
12
12
12
12
12
12
12
12
12
12
12
12
12
12
12
12
12
12
12
12
12
12
12
12
12
12
12
12
12
12
12
12
12
12
12
12
12
12
12
12
12
12
12
12
12
12
12
12
12
12
12
12
12
12
12
12
12
12
12
12
12
12
12
12
12
12
12
12
12
12
12
12
12
12
12
12
12
12
12
12
12
12
12
12
12
12
12
12
12
12
12
12
12
12
12
12
12
12
12
12
12
12
12
12
12
12
12
12
12
12
12
12
12
12
12
12
12
12
12
12
12
12
12
12
12
12
12
12
12
12
12
12
12
12
12
12
12
12
12
12
12
12
12
12
12
12
12
12
12
12
12
12
12
12
12
12
12
12
12
12
12
12
12
12
12
12
12
12
12
12
12
12
12
12
12
12
12
12
12
12
12
12
12
12
12
12
12
12
12
12
12
12
12
12
12
12
12
12
12
12
12
12
12
12
12
12
12
12
12
12
12
12
12
12
12
12
12
12
12
12
12
12
12
12
12
12
12
12
12
12
12
12
12
12
12
12
12
12
12
12
12
12
12
12
12
12
12
12
12
12
12
12
12
12
12
12
12
12
12
12
12
12
12
12
12
12
12
12
12
12
12
12
12
12
12
12
12
12
12
12
12
12
12
12
12
12
12
12
12
12
12
12
12
12
12
12
12
12
12
12
12
12
12
12
12
12
12
12
12
12
12
12
12
12
12
12
12
12
12
12
12
12
12
12
12
12
12
12
12
12
12
12
12
12
12
12
12
12
12
12
12
12
12
12
12
12
12
12
12
12
12
12
12
12
12
12
12
12
12
12
12
12
12
12
12
12
12
12
12
12
12
12
12
12
12
12
12
12
12
12
12
12
12
12
12
12
12
12
12
12
12
12
12
12
12
12
12
12
12
12
12
12
12
12
12
12
12
12
12
12
12
12
12
12
12
12
12
12
12
12
12
12
12
12
12
12
12
12
12
12
12
12
12
12
12
12
12
12
12
12
12
12
12
12
12
12
12
12
12
12
12
12
12
12
12
12
12
12
12
12
12
12
12
12
12
12
12
12
12
12
12
12
12
12
12
12
12
12
12
12
12
12
12
12
12
12
12
12
12
12
12
12
12
12
12
12
12
12
12
12
12
12
12
12
12
12
12
12
12
12
12
12
12
12
12
12
12
12
12
12
12
12
12
12
12
12
12
12
12
12
12
12
12
12
12
12
12
12
12
12
12
12
12
12
12
12
12
12
12
12
12
12
12
12
12
12
12
12
12
12
12
12
12
12
12
12
12
12
12
12
12
12
12
12
12
12
12
12
12
12
12
12
12
12
12
12
12
12
12
12
12
12
12
12
12
12
12
12
12
12
12
12
12
12
12
12
12
12
12
12
12
12
12
12
12
12
12
12
12
12
12
12
12
12
12
12
12
12
12
12
12
12
12
12
12
12
12
12
12
12
12
12
12
12
12
12
12
12
12
12
12
12
12
12
12
12
12
12
12
12
12
12
12
12
12
12
12
12
12
12
12
12
12
12
12
12
12
12
12
12
12
12
12
12
12
12
12
12
12
12
12
12
12
12
12
12
12
12
12
12
12
12
12
12
12
12
12
12
12
12
12
12
12
12
12
12
12
12
12
12
12
12
12
12
12
12
12
12
12
12
12
12
12
12
12
12
12
12
12
12
12
12
12
12
12
12
12
12
12
12
12
12
12
12
12
12
12
12
12
12
12
12
12
12
12
12
12
12
12
12
12

POINT_DATA 3012
SCALARS Jp_lamdaP float 4
LOOKUP_TABLE default
0.999968 1 1 0.999968
1 1 1 1
0.999971 1 1 0.999971
0.999942 1 1 0.999942
0.999963 1 1 0.999963
0.999977 1 1 0.999977
0.999707 1 1 0.999707
1 1 1 1
1 1 1 1
1 1 1 1
1 1 1 1
0.999859 1 1 0.999859
0.999906 1 1 0.999906
0.999937 1 1 0.999937
0.999972 1 1 0.999972
0.999948 1 1 0.999948
0.99998 1 1 0.99998
0.999966 1 1 0.999966
0.999711 1 1 0.999711
1 1 1 1
0.999933 1 1 0.999933
0.999953 1 1 0.999953
0.999593 1 1 0.999593
0.99967 1 1 0.99967
0.999991 1 1 0.999991
0.999757 1 1 0.999757
0.999278 1 1 0.999278
1 1 1 1
0.999976 1 1 0.999976
0.999989 1 1 0.999989
1 1 1 1
0.999866 1 1 0.999866
0.999948 1 1 0.999948
0.99997 1 1 0.99997
0.999745 1 1 0.999745
1 1 1 1
0.99983 1 1 0.99983
0.999905 1 1 0.999905
0.999371 1 1 0.999371
1 1 1 1
1 1 1 1
0.999967 1 1 0.999967
1 1 1 1
0.999927 1 1 0.999927
0.999546 1 1 0.999546
1 1 1 1
0.999676 1 1 0.999676
0.999953 1 1 0.999953
0.999968 1 1 0.999968
0.999982 1 1 0.999982
0.999715 1 1 0.999715
0.999954 1 1 0.999954
0.999939 1 1 0.999939
0.999994 1 1 0.999994
0.999958 1 1 0.999958
0.999595 1 1 0.999595
0.99976 1 1 0.99976
0.999673 1 1 0.999673
0.999264 1 1 0.999264
1 1 1 1
0.999919 1 1 0.999919
0.999624 1 1 0.999624
0.99957 1 1 0.99957
0.99963 1 1 0.99963
0.999005 1 1 0.999005
0.99914 1 1 0.99914
1 1 1 1
0.999836 1 1 0.999836
0.999387 1 1 0.999387
0.998817 1 1 0.998817
1 1 1 1
1 1 1 1
1 1 1 1
0.999873 1 1 0.999873
1 1 1 1
1 1 1 1
0.999727 1 1 0.999727
1 1 1 1
0.999826 1 1 0.999826
0.999918 1 1 0.999918
0.999369 1 1 0.999369
1 1 1 1
0.999999 1 1 0.999999
0.999681 1 1 0.999681
0.999765 1 1 0.999765
0.999036 1 1 0.999036
0.999955 1 1 0.999955
0.999298 1 1 0.999298
0.999442 1 1 0.999442
0.999054 1 1 0.999054
1 1 1 1
1 1 1 1
1 1 1 1
1 1 1 1
1 1 1 1
0.99996 1 1 0.99996
0.999585 1 1 0.999585
0.99997 1 1 0.99997
0.999664 1 1 0.999664
1 1 1 1
0.999516 1 1 0.999516
0.999645 1 1 0.999645
0.998725 1 1 0.998725
0.999698 1 1 0.999698
0.998833 1 1 0.998833
0.999917 1 1 0.999917
0.999945 1 1 0.999945
0.999996 1 1 0.999996
0.999962 1 1 0.999962
0.999596 1 1 0.999596
0.999677 1 1 0.999677
0.999764 1 1 0.999764
0.999249 1 1 0.999249
1 1 1 1
0.999927 1 1 0.999927
0.999539 1 1 0.999539
0.999571 1 1 0.999571
1 1 1 1
0.999865 1 1 0.999865
0.999632 1 1 0.999632
0.998979 1 1 0.998979
0.999369 1 1 0.999369
0.999158 1 1 0.999158
0.998819 1 1 0.998819
0.999533 1 1 0.999533
0.999547 1 1 0.999547
0.998818 1 1 0.998818
0.998919 1 1 0.998919
0.999034 1 1 0.999034
0.998576 1 1 0.998576
1 1 1 1
0.998737 1 1 0.998737
0.999948 1 1 0.999948
0.99944 1 1 0.99944
0.998904 1 1 0.998904
0.998631 1 1 0.998628
0.99999 1 1 0.99999
0.999669 1 1 0.999669
1 1 1 1
1 1 1 1
0.999734 1 1 0.999734
1 1 1 1
0.999932 1 1 0.999932
0.99983 1 1 0.99983
0.999367 1 1 0.999367
1 1 1 1
1 1 1 1
0.999703 1 1 0.999703
0.999785 1 1 0.999785
0.999039 1 1 0.999039
0.999967 1 1 0.999967
0.9993 1 1 0.9993
0.999441 1 1 0.999441
0.999042 1 1 0.999042
0.999988 1 1 0.999988
1 1 1 1
0.999738 1 1 0.999738
0.998933 1 1 0.998933
0.999175 1 1 0.999175
0.99869 1.00003 1 0.998657
0.999535 1 1 0.999535
0.998966 1 1 0.998966
0.999106 1 1 0.999106
0.998925 1 1 0.998925
1 1 1 1
1 1 1 1
1 1 1 1
0.999998 1 1 0.999998
1 1 1 1
1 1 1 1
1 1 1 1
0.999648 1 1 0.999648
0.999565 1 1 0.999565
1 1 1 1
1 1 1 1
0.999518 1 1 0.999518
0.999633 1 1 0.999633
0.998726 1 1 0.998726
0.999668 1 1 0.999668
0.998833 1 1 0.998833
0.999505 1 1 0.999505
0.998665 1 1 0.998665
0.998789 1 1 0.998789
0.999404 1.00103 1 0.998372
0.998872 1 1 0.998872
0.998606 1.00012 1 0.998483
1 1 1 1
0.999934 1 1 0.999934
0.99945 1 1 0.99945
0.999572 1 1 0.999572
1 1 1 1
0.999895 1 1 0.999895
0.999636 1 1 0.999636
0.998952 1 1 0.998952
0.999176 1 1 0.999176
0.999352 1 1 0.999352
0.998821 1 1 0.998821
0.99953 1 1 0.99953
0.999548 1 1 0.999548
0.998763 1 1 0.998763
0.99894 1 1 0.99894
1 1 1 1
0.999937 1 1 0.999937
0.999463 1 1 0.999463
0.999035 1 1 0.999035
0.998545 1 1 0.998545
0.9989 1 1 0.9989
0.998754 1 1 0.998754
0.998642 1.00001 1 0.998631
0.999985 1 1 0.999985
0.999669 1 1 0.999669
0.998679 1 1 0.998679
0.998878 1 1 0.998878
0.998887 1.00044 1 0.998445
0.998469 1 1 0.998466
0.998666 1 1 0.998666
0.999381 1.00095 1 0.998427
0.999973 1 1 0.999973
0.998692 1.00013 1 0.998565
0.999505 1 1 0.999505
0.999041 1 1 0.999041
0.998711 1 1 0.998711
0.999021 1.00045 1 0.998574
0.999586 1 1 0.999586
0.999769 1 1 0.999769
0.999312 1 1 0.999312
0.999694 1 1 0.999694
1 1 1 1
1 1 1 1
0.999786 1 1 0.999786
0.999041 1 1 0.999041
0.999978 1 1 0.999978
0.999441 1 1 0.999441
0.999302 1 1 0.999302
0.999031 1 1 0.999031
0.999992 1 1 0.999992
1 1 1 1
0.999739 1 1 0.999739
0.998934 1 1 0.998934
0.99918 1 1 0.99918
0.998675 1.00002 1 0.998656
0.999536 1 1 0.999536
0.998976 1 1 0.998976
0.999104 1 1 0.999104
0.998914 1 1 0.998914
1 1 1 1
0.99963 1 1 0.99963
0.999843 1 1 0.999843
0.999392 1 1 0.999392
0.998743 1.00018 1 0.998561
0.998822 1 1 0.998822
1.00038 1.00191 1 0.998472
0.999208 1 1 0.999208
0.998856 1.00002 1 0.998835
0.999464 1 1.00057 0.998891
0.998818 1 1 0.998818
0.999964 1 1 0.999964
1 1 1 1
1 1 1 1
1 1 1 1
1 1 1 1
1 1 1 1
1 1 1 1
0.999996 1 1 0.999996
1 1 1 1
0.99967 1 1 0.99967
0.999614 1 1 0.999614
0.998833 1 1 0.998833
0.998726 1 1 0.998726
0.99952 1 1 0.99952
1 1 1 1
0.999504 1 1 0.999504
0.998665 1 1 0.998665
0.998789 1 1 0.998789
0.999224 1.00085 1 0.998372
0.998872 1 1 0.998872
0.998643 1.00016 1 0.998483
0.998651 1 1 0.998651
0.999718 1.00141 1 0.998312
0.998852 1.00042 1 0.998435
1.00387 1.00559 1 0.99829
0.998732 1.00021 1 0.998518
1.00141 1.00304 1 0.998376
0.999527 1 1 0.999527
0.999548 1 1 0.999548
0.998708 1 1 0.998708
0.99896 1 1 0.99896
1 1 1 1
0.999927 1 1 0.999927
0.999486 1 1 0.999486
0.999036 1 1 0.999036
0.998513 1 1 0.998513
0.998771 1 1 0.998771
0.998896 1 1 0.998896
0.998654 1.00002 1 0.998634
0.999981 1 1 0.999981
0.999669 1 1 0.999669
0.998661 1 1 0.998661
0.998877 1 1 0.998877
0.999005 1.00057 1 0.998432
0.998522 1.00002 1 0.998499
0.999966 1 1 0.999966
0.999504 1 1 0.999504
0.999067 1 1 0.999067
0.998667 1 1 0.998667
0.99968 1.00126 1 0.998421
0.998685 1 1 0.998685
0.998832 1.00027 1 0.998566
0.999343 1.00077 1 0.998574
0.999587 1 1 0.999587
0.999309 1 1 0.999309
0.999767 1 1 0.999767
0.999256 1.00088 1 0.998382
0.998952 1.00048 1 0.998469
1.00342 1.00514 1 0.998287
1.00038 1.00203 1 0.998355
0.999143 1.00065 1 0.998495
1.00319 1.00476 1 0.998432
0.999543 1 1 0.999543
1.00039 1.00186 1 0.998533
0.99921 1 1 0.99921
0.998803 1 1 0.998803
0.998703 1.00014 1 0.99856
1.00193 1.0033 1 0.99863
0.999844 1 1 0.999844
0.999294 1 1 0.999294
0.99936 1 1 0.99936
0.999181 1 1 0.999181
0.998935 1 1 0.998935
1 1 1 1
0.999996 1 1 0.999996
0.99974 1 1 0.99974
0.999184 1 1 0.999184
0.998655 1 1 0.998655
0.999537 1 1 0.999537
0.999102 1 1 0.999102
0.998985 1 1 0.998985
0.998903 1 1 0.998903
1 1 1 1
0.99963 1 1 0.99963
0.999847 1 1 0.999847
0.99939 1 1 0.99939
0.998699 1.00014 1 0.998559
0.998825 1 1 0.998825
0.99996 1.00149 1 0.998472
0.99921 1 1 0.99921
0.998867 1.00002 1 0.998847
0.999417 1 1.00053 0.998883
0.998867 1 1 0.998867
1 1 1 1
0.999907 1 1 0.999907
0.999307 1 1 0.999307
0.999493 1 1 0.999493
0.999197 1 1 0.999197
1.00092 1.00252 1 0.998406
0.999225 1.00058 1 0.998649
1.00162 1.0032 1 0.998417
0.99975 1 1.00078 0.998969
0.998771 1.00001 1 0.998766
0.999261 1 1.00058 0.998681
0.999953 1 1 0.999953
0.999721 1 1 0.999721
0.999972 1 1 0.999972
0.999967 1 1 0.999967
1 1 1 1
1 1 1 1
1 1 1 1
1 1 1 1
1 1 1 1
1 1 1 1
1 1 1 1
1 1 1 1
1 1 1 1
0.999994 1 1 0.999994
1 1 1 1
0.998872 1 1 0.998872
0.998789 1 1 0.998789
0.998677 1.00019 1 0.998483
0.999037 1.00067 1 0.998371
0.998666 1 1 0.998666
0.999503 1 1 0.999503
0.998651 1 1 0.998651
0.999646 1.00134 1 0.998312
0.998724 1.00029 1 0.998435
1.00392 1.00564 1 0.998288
0.998753 1.00024 1 0.998516
1.00104 1.00267 1 0.998377
0.999647 1.00135 1 0.998297
1.00606 1.00783 1 0.998239
1.00255 1.00423 1 0.998333
1.00936 1.01108 1 0.998306
1.00081 1.00241 1 0.998397
1.00582 1.00739 1 0.998437
0.998643 1 1 0.998643
0.998876 1 1 0.998876
0.999113 1.00069 1 0.99842
0.998574 1.00004 1 0.998533
0.99996 1 1 0.99996
0.999504 1 1 0.999504
0.999093 1 1 0.999093
0.998667 1 1 0.998667
0.999985 1.00157 1 0.998414
0.998959 1.00039 1 0.998567
0.998659 1 1 0.998659
0.99969 1.00112 1 0.998575
0.999589 1 1 0.999589
0.999307 1 1 0.999307
0.999765 1 1 0.999765
0.999381 1.00103 1 0.998354
0.998926 1.00046 1 0.998469
1.00355 1.00528 1 0.998278
1.00098 1.00262 1 0.99836
0.999544 1 1 0.999544
0.999207 1 1 0.999207
0.998846 1 1.00001 0.998835
0.999278 1.00077 1 0.998505
1.00298 1.00455 1 0.998443
0.998674 1.00013 1 0.99854
1.00066 1.00213 1 0.998534
1.00161 1.00298 1 0.99864
0.999297 1 1 0.999297
0.999166 1 1 0.999166
0.99984 1 1 0.99984
0.999373 1 1 0.999373
1.0045 1.00628 1 0.998229
1.00279 1.00448 1 0.998321
1.00998 1.01175 1 0.99825
1.00504 1.00669 1 0.998367
1.00221 1.00372 1 0.998493
1.00689 1.00842 1 0.998486
0.999278 1 1 0.999278
1.00346 1.00483 1 0.998638
0.999008 1 1 0.999008
0.998791 1 1.00018 0.998616
0.999888 1.00141 1 0.998477
1.00381 1.00517 1 0.998645
0.999884 1 1 0.999884
0.999451 1 1 0.999451
0.999172 1 1 0.999172
0.9992 1 1 0.9992
0.999119 1 1 0.999119
1 1 1 1
0.998649 1.00009 1 0.998557
0.999851 1 1 0.999851
0.99963 1 1 0.99963
0.999388 1 1 0.999388
0.998827 1 1 0.998827
0.999571 1.0011 1 0.998471
0.999213 1 1 0.999213
0.999416 1 1.00054 0.998875
0.998859 1 1 0.998859
0.998915 1 1 0.998915
1 1 1 1
0.999912 1 1 0.999912
0.999307 1 1 0.999307
0.999493 1 1 0.999493
0.999183 1 1 0.999183
1.0009 1.0025 1 0.998402
0.999074 1.00042 1 0.99865
1.00171 1.00331 1 0.998411
0.999602 1 1.00063 0.998971
0.998782 1.00001 1 0.998776
0.999456 1 1.00076 0.998698
0.999936 1 1 0.999936
0.999587 1 1 0.999587
0.999233 1 1.00015 0.999087
0.999276 1 1 0.999276
0.999076 1 1 0.999076
1.00369 1.00532 1 0.998384
0.999928 1.00135 1 0.998581
1.00241 1.0039 1 0.99852
1.00175 1 1.00298 0.998771
0.998579 1 1 0.998579
0.999956 1 1 0.999956
0.999665 1 1 0.999665
0.999706 1 1 0.999706
0.999554 1 1 0.999554
0.999729 1 1 0.999729
0.999975 1 1 0.999975
0.999973 1 1 0.999973
1 1 1 1
0.999969 1 1 0.999969
1 1 1 1
1 1 1 1
1 1 1 1
1 1 1 1
1 1 1 1
1 1 1 1
1 1 1 1
1 1 1 1
1 1 1 1
0.999999 1 1 0.999999
1 1 1 1
0.998788 1.00027 1 0.998515
0.998594 1.00016 1 0.998435
1.00068 1.00231 1 0.998377
1.00397 1.00569 1 0.998285
0.999583 1.00127 1 0.998313
0.99865 1 1 0.99865
0.999692 1.0014 1 0.998297
1.00616 1.00794 1 0.998231
1.00223 1.0039 1 0.998333
1.00939 1.01109 1 0.998311
1.00099 1.0026 1 0.998394
1.00574 1.00732 1 0.99844
1.00566 1.00746 1 0.998207
1.01196 1.01374 1 0.998249
1.0072 1.00884 1 0.998373
1.01018 1.01186 1 0.998339
1.00551 1.00709 1 0.998425
1.00868 1.0102 1 0.998504
0.999514 1.00119 1 0.998326
0.998896 1.00043 1 0.998468
1.00369 1.00543 1 0.99827
1.00157 1.00321 1 0.998366
0.999546 1 1 0.999546
0.999203 1 1 0.999203
0.998976 1 1.00011 0.998867
0.999424 1.00091 1 0.998515
1.00277 1.00432 1 0.998453
1.0009 1.00237 1 0.998535
0.998646 1.00013 1 0.99852
1.00133 1.00268 1 0.99865
0.9993 1 1 0.9993
0.999151 1 1 0.999151
0.999837 1 1 0.999837
0.999386 1 1 0.999386
1.00463 1.00641 1 0.99823
1.003 1.00469 1 0.998319
1.0096 1.01136 1 0.998255
1.00457 1.00622 1 0.998365
0.999277 1 1 0.999277
0.999039 1 1 0.999035
0.998963 1 1.00035 0.998612
1.00208 1.0036 1 0.998485
1.00676 1.00826 1 0.998518
1.00004 1.00157 1 0.998467
1.00343 1.0048 1 0.998639
1.00374 1.00508 1 0.998675
0.999172 1 1 0.999172
0.999115 1 1 0.999115
0.999198 1 1 0.999198
0.999859 1 1 0.999859
0.999462 1 1 0.999462
1.01165 1.01345 1 0.998222
1.00933 1.01108 1 0.998268
1.00805 1.00963 1 0.998436
1.00613 1.00757 1 0.998572
0.999153 1 1 0.999153
1.00567 1.00696 1 0.99872
0.999101 1 1.00023 0.998868
0.99947 1.00056 1.00051 0.998401
1.00212 1.00371 1 0.998412
0.999869 1 1 0.999869
0.99957 1 1 0.99957
0.999293 1 1 0.999293
0.999135 1 1 0.999135
0.999074 1 1 0.999074
0.999073 1 1 0.999073
1 1 1 1
0.999916 1 1 0.999916
1.00085 1.00246 1 0.998399
0.999493 1 1 0.999493
0.999307 1 1 0.999307
0.999169 1 1 0.999169
0.998943 1.00029 1 0.998651
1.00167 1.00327 1 0.998406
0.999576 1 1.0006 0.998974
0.999352 1 1.00064 0.998715
0.998801 1.00001 1 0.998787
0.999941 1 1 0.999941
0.999588 1 1 0.999588
0.999253 1 1.00016 0.999096
0.999275 1 1 0.999275
0.999062 1 1 0.999062
1.00373 1.00536 1 0.998381
0.999646 1.00107 1 0.998576
1.00237 1.00384 1 0.998538
1.00116 1 1.00241 0.998759
0.998609 1 1.00006 0.998549
0.999652 1 1 0.999652
0.999338 1 1 0.999338
1.00039 1 1.00145 0.998941
0.999082 1 1 0.999082
0.998973 1 1 0.998973
1.00713 1.00853 1 0.998618
0.999826 1.00134 1 0.998488
1.00314 1.00459 1 0.998556
1.00266 1 1.00402 0.998644
0.998349 1 1 0.998349
0.99996 1 1 0.99996
0.999678 1 1 0.999678
0.99947 1 1 0.99947
0.99969 1 1 0.99969
0.999729 1 1 0.999729
0.99953 1 1 0.99953
0.999409 1 1 0.999409
0.999522 1 1 0.999522
0.999735 1 1 0.999735
0.999974 1 1 0.999974
0.999975 1 1 0.999975
1 1 1 1
0.999974 1 1 0.999974
1 1 1 1
1 1 1 1
1 1 1 1
1 1 1 1
1 1 1 1
1 1 1 1
1 1 1 1
1 1 1 1
1 1 1 1
1 1 1 1
1 1 1 1
1.00117 1.00278 1 0.998392
1.0019 1.00357 1 0.998333
1.00567 1.00724 1 0.998443
1.00942 1.01112 1 0.998317
1.00625 1.00804 1 0.998224
0.999735 1.00144 1 0.998297
1.00569 1.0075 1 0.998202
1.01194 1.01372 1 0.998247
1.0076 1.00926 1 0.99836
1.01046 1.01214 1 0.998338
1.00489 1.00648 1 0.998425
1.00867 1.01016 1 0.998524
1.01164 1.01345 1 0.998218
1.01218 1.0139 1 0.998307
1.01076 1.01235 1 0.998427
1.00862 1.01004 1 0.998594
1.00475 1.00653 1 0.998231
1.00319 1.00489 1 0.998317
1.00921 1.01097 1 0.998259
1.00412 1.00576 1 0.998364
0.999276 1 1 0.999276
0.999062 1 1 0.999062
0.999146 1 1.00054 0.998608
1.00194 1.00347 1 0.998478
1.00667 1.00813 1 0.998551
1.00343 1.0048 1 0.998641
1.00013 1.00167 1 0.998458
1.00359 1.00489 1 0.998704
0.999173 1 1 0.999173
0.999111 1 1 0.999111
0.999195 1 1 0.999195
0.999834 1 1 0.999834
0.999474 1 1 0.999474
1.0113 1.0131 1 0.998226
1.00922 1.01097 1 0.998275
1.00789 1.00947 1 0.99844
0.99915 1 1 0.99915
0.999147 1 1.00025 0.998897
0.999692 1.00054 1.00076 0.998395
1.0063 1.00775 1 0.998563
1.00224 1.00379 1 0.998453
1.00499 1.00628 1 0.998718
0.999871 1 1 0.999871
0.999133 1 1 0.999133
0.999089 1 1 0.999089
0.999069 1 1 0.999069
0.999301 1 1 0.999301
0.999551 1 1 0.999551
1.01229 1.01406 1 0.998246
1.00988 1.01156 1 0.998334
1.00853 1.01003 1 0.998508
1.00824 1.00957 1 0.998681
0.999073 1 1 0.999073
1.00308 1.00455 1 0.998538
1.00022 1 1.00164 0.998586
1.00076 1.00145 1.00104 0.998264
0.999902 1 1 0.999902
0.99963 1 1 0.99963
0.999373 1 1 0.999373
0.999111 1 1 0.999111
0.999069 1 1 0.999069
0.999008 1 1 0.999008
0.999945 1 1 0.999945
0.999589 1 1 0.999589
1.00385 1.00548 1 0.998378
0.999274 1 1 0.999274
0.999105 1 1 0.999105
0.999049 1 1 0.999049
0.999412 1.00084 1 0.99857
1.00245 1.0039 1 0.998556
1.00059 1 1.00184 0.998747
0.998798 1.00001 1.00027 0.998518
0.999653 1 1 0.999653
0.999347 1 1 0.999347
1.00029 1 1.00134 0.998958
0.999088 1 1 0.999088
0.998989 1 1 0.998989
1.00719 1.00857 1 0.998627
0.999795 1.00131 1 0.998486
1.00323 1.00461 1 0.998632
1.00291 1 1.00428 0.998629
0.998343 1 1.00003 0.998314
0.999425 1 1 0.999425
0.999136 1 1 0.999136
1.00233 1 1.0035 0.998831
0.998902 1 1 0.998902
1.01386 1.01519 1 0.998693
1.00854 1.00996 0.999872 0.998721
1.00138 1.00307 1 0.998315
1.00251 1 1.00418 0.998337
0.999691 1 1 0.999691
0.99948 1 1 0.99948
0.99935 1 1 0.99935
0.999729 1 1 0.999729
0.999506 1 1 0.999506
0.999735 1 1 0.999735
0.999391 1 1 0.999391
0.999531 1 1 0.999531
0.99929 1 1 0.99929
0.99939 1 1 0.99939
0.999527 1 1 0.999527
0.999734 1 1 0.999734
0.99997 1 1 0.99997
0.999973 1 1 0.999973
1 1 1 1
0.999975 1 1 0.999975
1 1 1 1
1 1 1 1
1 1 1 1
1 1 1 1
1 1 1 1
1 1 1 1
1 1 1 1
1 1 1 1
1 1 1 1
1 1 1 1
1 1 1 1
1.00428 1.00586 1 0.998426
1.008 1.00967 1 0.998348
1.00865 1.01012 1 0.998545
1.01071 1.0124 1 0.998337
1.01191 1.01368 1 0.998246
1.00573 1.00755 1 0.998197
1.01152 1.01333 1 0.998223
1.01165 1.01336 1 0.998305
1.01047 1.01206 1 0.998431
1.00954 1.01097 1 0.998589
1.01308 1.01484 1 0.998273
1.01306 1.01467 1 0.998419
1.0129 1.01438 1 0.998544
1.01095 1.01275 1 0.998229
1.00912 1.01086 1 0.998282
1.00769 1.00926 1 0.998444
0.999147 1 1 0.999147
0.999081 1 1.00015 0.998926
0.999773 1.00054 1.00085 0.998388
1.0064 1.00786 1 0.998554
1.00446 1.00575 1 0.998716
1.0025 1.00401 1 0.998494
0.999131 1 1 0.999131
0.999104 1 1 0.999104
0.999063 1 1 0.999063
0.999874 1 1 0.999874
0.999309 1 1 0.999309
0.999532 1 1 0.999532
1.01291 1.01468 1 0.998248
1.00973 1.01141 1 0.998335
1.00842 1.00994 1 0.998495
0.999067 1 1 0.999067
1.00001 1 1.00138 0.99864
1.00072 1.00155 1.0009 0.998273
1.00855 1.00986 1 0.998698
1.00338 1.00486 1 0.998531
0.999923 1 1 0.999923
0.999631 1 1 0.999631
0.999072 1 1 0.999072
0.999033 1 1 0.999033
0.999112 1 1 0.999112
0.999358 1 1 0.999358
1.01361 1.01529 1 0.99834
1.00976 1.01179 0.999566 0.998427
1.01062 1.01235 0.999615 0.998671
1.00734 1.0086 1 0.998742
0.999803 1 1.00087 0.998931
1.00131 1.00168 1.0014 0.998237
1.00107 1 1.00264 0.998432
0.999967 1 1 0.999967
0.999748 1 1 0.999748
0.999636 1 1 0.999636
0.9994 1 1 0.9994
0.999187 1 1 0.999187
0.998984 1 1 0.998984
0.999096 1 1 0.999096
1.00237 1 1.00329 0.999082
0.999654 1 1 0.999654
0.999355 1 1 0.999355
1.00712 1.00849 1 0.998636
0.999093 1 1 0.999093
1.00041 1 1.00144 0.998975
0.999005 1 1 0.999005
0.999705 1.00122 1 0.998484
1.00322 1.00451 1 0.998708
1.00316 1 1.00455 0.998614
0.998279 1 1 0.998279
0.999416 1 1 0.999416
0.999145 1 1 0.999145
1.00271 1 1.00386 0.998845
0.998923 1 1 0.998919
1.01345 1.01478 0.999996 0.998689
1.00788 1.00923 0.999949 0.998709
1.00182 1.00348 1 0.998351
1.00203 1.00002 1.0037 0.998313
0.999282 1 1 0.999282
1.01422 1.0169 0.998717 0.998644
0.999238 1 1.00025 0.998986
1.00126 1 1.00259 0.998679
1.01475 1.01628 0.999714 0.998779
1.00593 1.00758 1 0.998369
1.00291 1.0015 1.00323 0.998181
0.999491 1 1 0.999491
0.999349 1 1 0.999349
0.999235 1 1 0.999235
0.999735 1 1 0.999735
0.999539 1 1 0.999539
0.999373 1 1 0.999373
0.999733 1 1 0.999733
0.999527 1 1 0.999527
0.999275 1 1 0.999275
0.999408 1 1 0.999408
0.999199 1 1 0.999199
0.999273 1 1 0.999273
0.999417 1 1 0.999417
0.999538 1 1 0.999538
0.999725 1 1 0.999725
0.999967 1 1 0.999967
0.999969 1 1 0.999969
1 1 1 1
0.999972 1 1 0.999972
1 1 1 1
1 1 1 1
1 1 1 1
1 1 1 1
1 1 1 1
0.99998 1 1 0.99998
1 1 1 1
1 1 1 1
1 1 1 1
1 1 1 1
1 1 1 1
1 1 1 1
1.01048 1.01192 1 0.998583
1.01019 1.01177 1 0.998436
1.01112 1.01284 1 0.998303
1.01141 1.0132 1 0.998228
1.01278 1.01453 1 0.998282
1.0134 1.01502 1 0.998407
1.01333 1.01479 1 0.998557
1.01419 1.01583 1 0.998386
1.01617 1.01786 0.999817 0.998518
1.00864 1.01405 0.995967 0.998688
1.01351 1.01529 1 0.998251
1.00962 1.01131 1 0.998336
1.00841 1.00994 1 0.998483
0.999104 1 1.00004 0.99906
0.99994 1 1.00125 0.998693
1.0006 1.00154 1.00078 0.998282
1.00891 1.01021 1 0.998715
1.00337 1.00485 1 0.998524
0.999075 1 1 0.999075
0.999057 1 1 0.999057
0.999114 1 1 0.999114
0.999944 1 1 0.999944
0.999631 1 1 0.999631
0.999344 1 1 0.999344
1.01322 1.0149 1 0.998354
0.999963 1 1 0.999963
0.999735 1 1 0.999735
1.00951 1.01142 0.999688 0.998425
1.01179 1.01336 0.999812 0.998641
0.999796 1 1.00083 0.998967
1.00169 1 1.0033 0.998399
1.00086 1.00178 1.00084 0.998245
1.00683 1.0081 1 0.998737
0.999675 1 1 0.999675
0.999398 1 1 0.999398
0.999062 1 1 0.999062
1.0008 1 1.00165 0.999148
0.998963 1 1 0.998963
0.99919 1 1 0.99919
1.01487 1.01678 0.999632 0.998492
1.01339 1.01543 0.999453 0.998542
1.01064 1.01322 0.998579 0.998865
1.0022 1.00369 1 0.998514
1.00126 1 1.00234 0.99892
1.00404 1.00036 1.00547 0.99822
0.999752 1 1 0.999752
0.999709 1 1 0.999709
0.999562 1 1 0.999562
0.999402 1 1 0.999402
0.999253 1 1 0.999253
0.999025 1 1 0.999025
1.00331 1 1.00443 0.998886
0.999167 1 1 0.999167
0.999407 1 1 0.999407
0.999154 1 1 0.999154
1.01318 1.01452 0.999999 0.998685
1.00747 1.00879 1 0.998698
0.998935 1 1 0.998935
1.00294 1 1.00409 0.998859
1.00237 1.00395 1.00004 0.998387
1.00166 1.00009 1.00329 0.998289
0.999279 1 1 0.999279
1.0142 1.01712 0.99846 0.998662
0.999132 1 1.00014 0.998992
1.00127 1 1.00261 0.998658
1.01454 1.01608 0.999727 0.99876
1.00657 1.0082 1 0.99839
1.003 1.00133 1.00348 0.998189
0.999167 1 1.00006 0.999104
1.01806 1.02281 0.996508 0.998842
0.999086 1 1.00024 0.998851
1.00222 1 1.00377 0.998459
1.00706 1.01135 0.997225 0.998527
1.00197 1.00155 1.00221 0.998203
1.006 1.00858 0.998499 0.998939
0.999349 1 1 0.999349
0.999234 1 1 0.999234
0.999144 1 1 0.999144
0.999733 1 1 0.999733
0.999527 1 1 0.999527
0.999426 1 1 0.999426
0.99926 1 1 0.99926
0.999724 1 1 0.999724
0.999528 1 1 0.999528
0.999192 1 1 0.999192
0.999416 1 1 0.999416
0.999289 1 1 0.999289
0.999183 1 1 0.999183
0.999327 1 1 0.999327
0.999421 1 1 0.999421
0.9995 1 1 0.9995
0.999684 1 1 0.999684
0.999561 1 1 0.999561
0.999686 1 1 0.999686
0.999964 1 1 0.999964
0.999966 1 1 0.999966
1 1 1 1
0.999968 1 1 0.999968
1 1 1 1
1 1 1 1
1 1 1 1
1 1 1 1
1 1 1 1
0.999987 1 1 0.999987
0.999978 1 1 0.999978
1 1 1 1
1 1 1 1
1 1 1 1
1 1 1 1
1 1 1 1
1 1 1 1
1.01368 1.01513 1 0.998571
1.01378 1.01541 1 0.998396
1.01252 1.01425 1 0.998291
1.01455 1.01619 1 0.998384
1.01538 1.01712 0.999774 0.998518
1.00983 1.01454 0.996661 0.998693
1.01463 1.01727 0.998818 0.998583
1.00856 1.01596 0.994059 0.998654
1.01761 1.02371 0.995106 0.998927
0.999802 1 1 0.999802
1.01287 1.01453 1 0.998368
1.00911 1.01091 0.999789 0.998424
1.0127 1.01417 0.999935 0.998612
0.999813 1 1.00081 0.999002
1.00238 1 1.00402 0.998366
1.00072 1.00202 1.00045 0.998252
1.00632 1.00759 1 0.998732
0.999028 1 1 0.999028
0.999215 1 1 0.999215
0.998942 1 1 0.998942
0.99996 1 1 0.99996
0.999194 1 1 0.999194
0.999713 1 1 0.999713
0.999397 1 1 0.999397
0.999721 1 1 0.999721
1.01507 1.01717 0.999432 0.998497
0.99977 1 1 0.99977
0.999708 1 1 0.999708
0.999533 1 1 0.999533
1.01374 1.01599 0.999239 0.998546
1.00975 1.01217 0.998792 0.998825
1.00054 1 1.00161 0.998935
1.0039 1.00016 1.00553 0.998218
1.00239 1.00373 1.00015 0.998519
0.999422 1 1 0.999422
0.999243 1 1 0.999243
1.00015 1 1.00103 0.999122
1.00274 1 1.00382 0.998917
0.999041 1 1 0.999041
1.01258 1.01658 0.997501 0.998556
1.01258 1.01677 0.997205 0.998664
1.00587 1.00831 0.998928 0.998657
1.00405 1.00237 1.00329 0.998396
1.00363 1 1.00478 0.998855
0.999534 1 1 0.999534
0.99946 1 1 0.99946
0.999381 1 1 0.999381
0.999258 1 1 0.999258
0.999122 1 1 0.999122
1.00118 1 1.00225 0.998928
1.0058 1 1.00698 0.998827
0.999276 1 1 0.999276
0.999071 1 1.00007 0.998998
1.01419 1.01724 0.998317 0.998681
1.01418 1.01576 0.999702 0.998742
1.00694 1.00854 1 0.998412
1.00125 1 1.00261 0.998638
1.00288 1.00109 1.0036 0.998198
0.999185 1 1.00006 0.999127
1.01793 1.02319 0.996013 0.998846
0.999128 1 1.00027 0.998861
1.0025 1 1.00404 0.998469
1.00794 1.01156 0.99784 0.998572
1.00244 1.00155 1.00269 0.998194
1.00667 1.00927 0.998677 0.998744
0.999041 1 1.00004 0.999002
1.00321 1.01414 0.990398 0.998818
1.00057 1 1.00176 0.998815
1.00474 1 1.00636 0.998388
1.00229 1.00288 1.00104 0.998366
0.960104 0.972489 0.995059 0.992167
0.992643 0.991927 1.00422 0.99652
0.983845 1.00311 0.981703 0.999074
0.906173 0.930073 0.980448 0.993732
0.892214 0.940734 0.954317 0.993824
0.999233 1 1 0.999233
0.999154 1 1 0.999154
0.999149 1 1 0.999149
0.999723 1 1 0.999723
0.999519 1 1 0.999519
0.999416 1 1 0.999416
0.999304 1 1 0.999304
0.999186 1 1 0.999186
0.999406 1 1 0.999406
0.9997 1 1 0.9997
0.999512 1 1 0.999512
0.99919 1 1 0.99919
0.999324 1 1 0.999324
0.999333 1 1 0.999333
0.999258 1 1 0.999258
0.99937 1 1 0.99937
0.99948 1 1 0.99948
0.999682 1 1 0.999682
0.999526 1 1 0.999526
0.999424 1 1 0.999424
0.999533 1 1 0.999533
0.999539 1 1 0.999539
0.999719 1 1 0.999719
0.999686 1 1 0.999686
0.999963 1 1 0.999963
0.999964 1 1 0.999964
1 1 1 1
0.999965 1 1 0.999965
1 1 1 1
1 1 1 1
1 1 1 1
1 1 1 1
1 1 1 1
0.99999 1 1 0.99999
0.999985 1 1 0.999985
1 1 1 1
0.999975 1 1 0.999975
1 1 1 1
1 1 1 1
1 1 1 1
1 1 1 1
1 1 1 1
1.01466 1.01644 0.999738 0.998518
1.01482 1.01647 1 0.998383
1.01086 1.01497 0.99725 0.998697
1.00895 1.01572 0.994651 0.99868
1.01421 1.0169 0.998766 0.998583
1.01898 1.02466 0.995573 0.99888
1.02141 1.02448 0.998442 0.998554
0.974617 0.984914 0.993654 0.995865
1.01505 1.01935 0.996893 0.998881
0.999812 1 1 0.999812
0.999802 1 1 0.999802
0.999594 1 1 0.999594
0.999617 1 1 0.999617
1.01536 1.01759 0.999309 0.998501
1.01432 1.01664 0.999174 0.998549
1.00906 1.01118 0.999111 0.998784
0.999721 1 1.00077 0.998949
1.00357 1 1.00536 0.998216
1.00266 1.00401 1.00013 0.998523
1.00113 1 1.00206 0.999076
1.00212 1 1.00318 0.998948
0.999057 1 1 0.999057
0.999707 1 1 0.999707
0.999233 1 1 0.999233
0.999442 1 1 0.999442
0.999787 1 1 0.999787
0.999504 1 1 0.999504
1.0112 1.01464 0.998034 0.998572
0.999564 1 1 0.999564
0.999476 1 1 0.999476
0.999379 1 1 0.999379
1.01428 1.01795 0.997713 0.998676
1.00458 1.00734 0.998602 0.998653
1.0035 1 1.00466 0.998851
1.00376 1.00253 1.00285 0.998382
0.999262 1 1 0.999262
0.99913 1 1 0.99913
1.00502 1 1.0062 0.998827
1.00198 1 1.00308 0.998908
1.01787 1.02151 0.997852 0.998576
1.0008 1.01317 0.989119 0.998661
1.00373 1.00464 1.00073 0.998376
1.0018 1 1.00306 0.998734
0.999325 1 1 0.999325
0.999304 1 1 0.999304
0.999235 1 1.00017 0.999069
1.00893 1 1.01023 0.998709
0.949862 0.969962 0.987251 0.991923
0.999149 1 1 0.999149
0.999215 1 1.00034 0.998872
1.01729 1.0234 0.995177 0.998849
1.00891 1.01175 0.99857 0.998618
1.00312 1.00164 1.0033 0.998185
1.00292 1 1.00445 0.99848
1.0069 1.00976 0.998623 0.998546
0.9992 1 1.00018 0.999019
1.00245 1.01372 0.990061 0.998806
1.00015 1 1.00133 0.998822
1.00449 1 1.00611 0.99839
1.00245 1.00384 1.00023 0.99838
0.957869 0.972048 0.993051 0.992308
0.988135 0.990571 1.00217 0.99538
0.986203 1.00259 0.984522 0.999125
0.911073 0.931645 0.984442 0.993373
0.880551 0.931909 0.951219 0.993345
0.999547 1 1.00047 0.999075
0.920131 0.93937 0.986357 0.993068
0.920517 0.944489 0.980211 0.994295
0.979602 1.00449 0.976382 0.998811
1.00446 1 1.00562 0.99884
1.00913 1.00047 1.01013 0.998536
0.986299 1.00033 0.986717 0.999245
0.966008 0.972865 1.00115 0.991814
0.98533 0.984254 1.00607 0.995053
0.894535 0.932232 0.965726 0.993618
0.92703 0.967808 0.962522 0.995161
0.999163 1 1 0.999163
0.999147 1 1 0.999147
0.999242 1 1 0.999242
0.999715 1 1 0.999715
0.999524 1 1 0.999524
0.99939 1 1 0.99939
0.999321 1 1 0.999321
0.999196 1 1 0.999196
0.999682 1 1 0.999682
0.999333 1 1 0.999333
0.999387 1 1 0.999387
0.999498 1 1 0.999498
0.999249 1 1 0.999249
0.999286 1 1 0.999286
0.999456 1 1.0002 0.999259
0.999373 1 1 0.999373
0.999511 1 1 0.999511
0.999525 1 1 0.999525
0.999409 1 1 0.999409
0.999393 1 1 0.999393
0.999399 1 1 0.999399
0.99934 1 1 0.99934
0.999303 1 1 0.999303
0.999512 1 1 0.999512
0.999533 1 1 0.999533
0.999718 1 1 0.999718
0.999516 1 1 0.999516
0.999706 1 1 0.999706
0.999963 1 1 0.999963
0.999685 1 1 0.999685
0.999963 1 1 0.999963
1 1 1 1
0.999964 1 1 0.999964
1 1 1 1
1 1 1 1
1 1 1 1
1 1 1 1
1 1 1 1
0.999805 1 1 0.999805
0.999991 1 1 0.999991
0.999989 1 1 0.999989
1 1 1 1
0.999984 1 1 0.999984
1 1 1 1
1 1 1 1
1 1 1 1
1 1 1 1
1 1 1 1
1.01025 1.01579 0.995828 0.998706
1.01376 1.01663 0.9986 0.998583
1.02094 1.02579 0.996438 0.998833
0.976857 0.984285 0.995924 0.996515
1.01432 1.01907 0.996415 0.998924
1.02213 1.02588 0.997803 0.998539
1.0187 1.02288 0.997236 0.998672
0.979677 0.986526 0.996321 0.996724
0.959217 0.972896 0.994733 0.99116
0.891995 0.925624 0.970936 0.992516
0.883032 0.926777 0.958852 0.993687
0.999585 1 1 0.999585
0.999811 1 1 0.999811
0.999802 1 1 0.999802
0.999585 1 1 0.999585
0.999454 1 1 0.999454
0.999485 1 1 0.999485
0.999596 1 1 0.999596
0.999604 1 1 0.999604
1.00953 1.01257 0.9984 0.998588
1.01604 1.01945 0.997967 0.998687
1.00341 1.00643 0.998355 0.998649
1.00351 1 1.00467 0.998847
1.00355 1.00246 1.00272 0.998367
1.0043 1 1.00548 0.998828
1.0029 1 1.00402 0.998889
0.999139 1 1 0.999139
0.999493 1 1 0.999493
0.999266 1 1 0.999266
0.999594 1 1 0.999594
0.999377 1 1 0.999377
1.01833 1.02224 0.997619 0.998553
0.999341 1 1 0.999341
0.999305 1 1 0.999305
1.00197 1.01172 0.991705 0.998649
1.00361 1.00514 1.00003 0.998445
1.00341 1 1.00472 0.99869
0.999496 1 1.00043 0.999062
1.00793 1 1.00922 0.998713
1.01483 1.02126 0.995193 0.998505
0.98742 1.00387 0.984972 0.998623
0.999633 1 1.00103 0.998603
1.00686 1 1.00813 0.998736
0.999242 1 1 0.999242
0.999139 1 1 0.999139
1.0027 1 1.00382 0.998883
0.910104 0.94009 0.974566 0.993368
0.956088 0.971449 0.991634 0.99249
0.999322 1 1.00029 0.999035
0.999846 1 1.00102 0.998829
1.00255 1.0137 0.990194 0.998794
1.00268 1.00492 0.999375 0.998394
1.00409 1 1.00571 0.998393
0.959138 0.972945 0.994697 0.991064
0.988891 0.992081 1.00067 0.996119
0.989021 1.0023 0.987569 0.999174
0.906222 0.933233 0.977944 0.992957
0.868469 0.92214 0.948566 0.992865
0.999384 1 1.00031 0.999074
0.914998 0.942301 0.977383 0.993495
0.920105 0.94184 0.982667 0.994155
0.98232 1.00523 0.978386 0.9988
1.0039 1 1.00505 0.998852
1.00847 1.00028 1.00961 0.998591
0.979674 0.997723 0.982635 0.999262
0.966428 0.974251 1.00067 0.99131
0.985183 0.985649 1.0034 0.996145
0.896588 0.929774 0.971454 0.992644
0.925873 0.967925 0.961486 0.994871
1.00046 1 1.00131 0.99915
0.938111 0.947002 0.995418 0.99517
0.986027 0.98796 1.00105 0.996998
0.987376 1.00055 0.987693 0.999128
1.0095 1.00001 1.01037 0.999132
1.00255 0.995593 1.0074 0.999594
0.97788 0.983045 0.997549 0.997189
0.967959 0.96949 1.00708 0.991405
0.919007 0.954301 0.970123 0.992673
0.94868 0.985326 0.96651 0.996169
0.999146 1 1 0.999146
0.99922 1 1 0.99922
0.999767 1 1.00042 0.999346
0.999681 1 1 0.999681
0.999515 1 1 0.999515
0.999403 1 1 0.999403
0.999334 1 1 0.999334
0.999241 1 1 0.999241
0.999511 1 1 0.999511
0.999297 1 1 0.999297
0.999373 1 1 0.999373
0.999511 1 1.00024 0.999266
0.999889 1 1.00055 0.999334
0.999374 1 1.00009 0.999288
0.999374 1 1 0.999374
0.999524 1 1 0.999524
0.999394 1 1 0.999394
0.999393 1 1 0.999393
0.999398 1 1 0.999398
0.999339 1 1 0.999339
0.999366 1 1 0.999366
0.999322 1 1 0.999322
0.999306 1 1 0.999306
0.999161 1 1 0.999161
0.999668 1 1.00065 0.999016
0.99922 1 1 0.99922
0.999301 1 1 0.999301
0.999472 1 1 0.999472
0.999511 1 1 0.999511
0.999708 1 1 0.999708
0.999533 1 1 0.999533
0.999717 1 1 0.999717
0.999962 1 1 0.999962
0.999693 1 1 0.999693
0.999963 1 1 0.999963
1 1 1 1
0.999963 1 1 0.999963
1 1 1 1
1 1 1 1
1 1 1 1
1 1 1 1
1 1 1 1
0.999821 1 1 0.999821
0.999988 1 1 0.999988
0.999805 1 1 0.999805
1 1 1 1
0.999991 1 1 0.999991
0.999988 1 1 0.999988
1 1 1 1
1 1 1 1
1 1 1 1
1 1 1 1
1 1 1 1
0.913386 0.936953 0.981075 0.993652
0.927015 0.945829 0.985287 0.994745
0.979707 0.985009 0.99764 0.99697
1.01398 1.01871 0.996386 0.998967
1.02285 1.02717 0.997272 0.998524
0.979067 0.984946 0.996249 0.997774
1.01961 1.02274 0.998246 0.998684
0.960955 0.973715 0.994561 0.992293
0.904067 0.929685 0.978797 0.993509
0.873819 0.923512 0.952669 0.993201
0.997743 1.00014 0.999159 0.998443
0.964425 0.972223 0.999797 0.99218
0.88898 0.929168 0.963015 0.993492
0.925267 0.964793 0.96433 0.994506
0.999404 1 1 0.999404
0.999597 1 1 0.999597
0.999811 1 1 0.999811
0.999576 1 1 0.999576
0.999471 1 1 0.999471
0.99943 1 1 0.99943
0.999485 1 1 0.999485
0.999518 1 1 0.999518
0.99958 1 1 0.99958
0.999591 1 1 0.999591
1.01885 1.02292 0.99749 0.99853
1.00221 1.00957 0.994065 0.998637
1.00342 1.00565 0.999271 0.998514
1.00483 1 1.00619 0.998646
1.00653 1 1.00782 0.998718
0.999709 1 1.00066 0.999054
0.999306 1 1 0.999306
0.999357 1 1 0.999357
1.01378 1.02138 0.994064 0.998488
0.999236 1 1 0.999236
0.999122 1 1 0.999122
0.989006 1.00362 0.986842 0.998575
0.999996 1 1.00133 0.998665
1.00605 1 1.00737 0.998686
1.00327 1 1.0044 0.998869
1.00507 1.00894 0.99749 0.998667
0.994274 1 0.995267 0.999002
1.00727 1 1.00847 0.998807
0.999225 1 1 0.999225
0.999114 1 1 0.999114
0.999008 1 1.00004 0.998969
0.938933 0.949889 0.992875 0.99556
0.91529 0.939812 0.980915 0.992856
0.953242 0.972502 0.988201 0.991899
0.999074 1 1 0.999074
1.00329 1 1.00443 0.998865
0.98501 1.00578 0.980537 0.99879
1.00776 1 1.00913 0.998645
0.912322 0.940829 0.976747 0.992786
0.965776 0.973423 0.999397 0.992743
0.983684 0.986992 1.00155 0.995111
0.977032 0.995704 0.981948 0.999286
0.899592 0.929381 0.974255 0.993526
0.921619 0.944755 0.98137 0.99403
0.921489 0.96631 0.958788 0.994607
1.00082 1 1.00167 0.99915
0.936897 0.948795 0.992234 0.995188
0.987332 0.98884 1.00149 0.996989
0.989931 1.00024 0.990527 0.999163
1.00929 0.999929 1.01025 0.999125
1.00225 0.996855 1.00619 0.999229
0.978509 0.982088 1.00066 0.995703
0.964641 0.970314 1.00271 0.991468
0.922042 0.957482 0.968959 0.993836
0.941788 0.979174 0.965766 0.995913
1.00137 1 1.00188 0.999495
0.986427 0.988656 0.999953 0.997792
0.992398 0.9897 1.00451 0.998225
1.00989 0.999172 1.01102 0.999715
0.989647 0.985317 1.00591 0.998494
0.969253 0.971074 1.00704 0.991144
0.950518 0.971929 0.983716 0.99416
0.950727 0.99116 0.963277 0.995773
0.999199 1 1 0.999199
0.99971 1 1.00036 0.999354
1.00075 1 1.0013 0.999451
0.99951 1 1 0.99951
0.999372 1 1 0.999372
0.999308 1 1 0.999308
0.999555 1 1.00028 0.999273
0.999374 1 1 0.999374
0.999316 1 1.00003 0.999285
1.00028 1 1.00093 0.999353
1.00031 1 1.00086 0.999456
0.999523 1 1.00021 0.999311
0.999303 1 1 0.999303
0.999393 1 1 0.999393
0.999397 1 1 0.999397
0.999338 1 1 0.999338
0.999325 1 1 0.999325
0.999365 1 1 0.999365
0.99931 1 1 0.99931
0.99926 1 1 0.99926
0.999304 1 1 0.999304
0.999146 1 1 0.999146
0.999172 1 1 0.999172
0.999707 1 1.00066 0.999047
0.99995 1 1.00112 0.998835
0.999186 1 1 0.999186
0.999517 1 1.00045 0.999064
0.999243 1 1 0.999243
0.999386 1 1 0.999386
0.999299 1 1 0.999299
0.999471 1 1 0.999471
0.999685 1 1 0.999685
0.99951 1 1 0.99951
0.999708 1 1 0.999708
0.99996 1 1 0.99996
0.999717 1 1 0.999717
0.999962 1 1 0.999962
1 1 1 1
0.999962 1 1 0.999962
1 1 1 1
1 1 1 1
1 1 1 1
1 1 1 1
1 1 1 1
0.999752 1 1 0.999752
0.999986 1 1 0.999986
0.99979 1 1 0.99979
1 1 1 1
0.999989 1 1 0.999989
0.999805 1 1 0.999805
1 1 1 1
1 1 1 1
0.999991 1 1 0.999991
1 1 1 1
1 1 1 1
1 1 1 1
0.942146 0.95066 0.995378 0.995645
0.913712 0.938526 0.98034 0.993084
0.987029 0.990353 0.999751 0.996893
0.91957 0.940588 0.983056 0.994505
0.974943 0.983685 0.99469 0.996404
1.0197 1.02262 0.998443 0.998695
0.960728 0.974204 0.99268 0.993438
0.903812 0.932458 0.976454 0.992653
0.865423 0.92099 0.946562 0.992715
0.995194 0.999137 0.998131 0.997919
0.96599 0.972049 1.00222 0.991565
0.89431 0.933244 0.965541 0.99248
0.92236 0.963392 0.962868 0.99433
0.992019 0.995639 0.998586 0.997776
0.969494 0.969677 1.00866 0.991223
0.921772 0.958336 0.967915 0.993731
0.946941 0.986241 0.964259 0.995741
0.999303 1 1 0.999303
0.999422 1 1 0.999422
0.999609 1 1 0.999609
0.999488 1 1 0.999488
0.999329 1 1 0.999329
0.999442 1 1 0.999442
0.999485 1 1 0.999485
0.999501 1 1 0.999501
0.999536 1 1 0.999536
0.999563 1 1 0.999563
1.01318 1.02213 0.99276 0.998471
0.991566 1.00375 0.989315 0.998528
1.00032 1 1.00159 0.998726
1.00568 1 1.00705 0.998636
1.00405 1 1.0052 0.998856
0.999105 1 1 0.999105
0.99923 1 1 0.99923
0.999226 1 1 0.999226
0.999779 1.00788 0.993265 0.998687
0.999124 1 1 0.999124
0.999454 1 1.00049 0.998964
0.992507 1 0.99355 0.99895
1.00605 1 1.00726 0.998801
0.981901 0.999704 0.983077 0.9991
1.00976 1 1.01046 0.999306
1.0005 1 1.00154 0.998968
0.999146 1 1 0.999146
0.999049 1 1.00007 0.998975
0.984456 0.986469 0.999768 0.998191
0.941515 0.949932 0.995393 0.995727
0.913185 0.939011 0.978647 0.993716
1.00125 1 1.00211 0.999149
1.00915 0.999824 1.01022 0.999118
0.991016 1 0.991814 0.999196
0.943137 0.95158 0.995543 0.995565
0.970905 0.97019 1.00966 0.99116
0.980224 0.983278 1.00011 0.996785
0.995673 0.996501 1.00033 0.998837
0.920978 0.954858 0.971649 0.992662
0.98783 0.988838 1.00201 0.99698
0.936697 0.974848 0.964752 0.99597
1.00148 0.999908 1.00208 0.999495
0.985545 0.987367 1.00009 0.998059
0.995027 0.991952 1.00487 0.998236
1.00973 0.999328 1.01083 0.999586
0.988745 0.985348 1.0054 0.998062
0.971898 0.973897 1.00713 0.990885
0.951609 0.994224 0.960851 0.996135
0.935877 0.963726 0.977409 0.993547
1.00307 0.999109 1.00426 0.999711
0.991786 0.992073 1.00033 0.999379
1.00319 0.999638 1.00511 0.998446
0.949236 0.987329 0.965522 0.99575
1.00055 0.987023 1.01417 0.999551
0.977853 0.975792 1.01065 0.991552
0.927548 0.948269 0.98402 0.994033
0.99963 1 1.00027 0.999363
1.0005 1 1.00109 0.999413
1.00312 1 1.00355 0.999566
0.999374 1 1 0.999374
0.999283 1 1 0.999283
1.00075 1 1.00138 0.999371
0.999306 1 1 0.999306
0.999638 1 1.00033 0.999313
1.00069 1 1.00126 0.999429
0.99985 1 1.00035 0.999496
0.999295 1 1 0.999295
0.999328 1 1 0.999328
0.999363 1 1 0.999363
0.999314 1 1 0.999314
0.999301 1 1 0.999301
0.999268 1 1 0.999268
0.999559 1 1.00029 0.999268
0.999188 1 1 0.999188
1.00137 1 1.0025 0.998868
0.999183 1 1 0.999183
0.999564 1 1.00053 0.999036
0.999663 1 1.00097 0.998699
0.999837 1 1.00102 0.998817
0.999156 1 1.00005 0.999102
0.999797 1 1.00096 0.998843
0.999329 1 1 0.999329
0.999167 1 1 0.999167
0.999346 1 1.00024 0.999111
0.999266 1 1 0.999266
0.999405 1 1 0.999405
0.999643 1 1 0.999643
0.99947 1 1 0.99947
0.999684 1 1 0.999684
0.999955 1 1 0.999955
0.999707 1 1 0.999707
0.999959 1 1 0.999959
1 1 1 1
0.999961 1 1 0.999961
1 1 1 1
1 1 1 1
1 1 1 1
1 1 1 1
1 1 1 1
0.99966 1 1 0.99966
0.999937 1 1 0.999937
0.999751 1 1 0.999751
1 1 1 1
0.999968 1 1 0.999968
0.999758 1 1 0.999758
1 1 1 1
1 1 1 1
0.99999 1 1 0.99999
1 1 1 1
1 1 1 1
1 1 1 1
0.984614 0.986901 0.999662 0.998021
0.934503 0.949397 0.98898 0.995281
0.914629 0.936718 0.983464 0.992837
0.999445 1 1 0.999445
0.989706 0.987049 1.00424 0.998459
0.988333 0.990318 1.00111 0.996886
0.91302 0.939613 0.977298 0.99427
0.993882 0.998995 0.997536 0.997339
0.970193 0.974108 1.00395 0.992062
0.899535 0.939354 0.964003 0.993369
0.916949 0.960235 0.960522 0.99417
0.994174 0.99753 1.00033 0.996306
0.963786 0.967296 1.00483 0.991584
0.926369 0.959085 0.972341 0.993363
0.946125 0.985635 0.964273 0.995479
0.983476 0.986117 1.00194 0.995387
0.973901 0.967802 1.01629 0.990176
0.936038 0.96519 0.976463 0.993173
0.949179 0.99044 0.962416 0.995766
0.999213 1 1 0.999213
0.999294 1 1 0.999294
0.99944 1 1 0.99944
0.999322 1 1 0.999322
0.999351 1 1 0.999351
0.999454 1 1 0.999454
0.999506 1 1 0.999506
0.999554 1 1 0.999554
0.994009 1.0064 0.988969 0.998705
0.990319 1 0.991412 0.998898
0.999228 1 1 0.999228
1.00469 1 1.0059 0.998796
1.00004 1 1.00109 0.998958
0.999135 1 1 0.999135
0.99915 1 1 0.99915
0.987099 1.0017 0.986303 0.999108
0.999034 1 1.00003 0.999001
1.00121 1 1.00225 0.998965
1.00524 1 1.00593 0.999315
0.999171 1 1 0.999171
0.979859 0.993089 0.98716 0.999512
1.01234 0.999268 1.01363 0.999454
0.999104 1 1.00004 0.999069
0.999109 1 1 0.999109
0.991764 0.992894 0.99935 0.999512
0.984211 0.986219 0.999741 0.998222
0.945013 0.950272 0.99856 0.9959
1.00142 0.999859 1.00207 0.999497
1.01057 0.999561 1.01156 0.999459
0.984563 0.986219 0.999995 0.998326
0.976102 0.971972 1.01298 0.991384
0.986991 0.982615 1.008 0.996482
0.939979 0.966557 0.97941 0.992948
0.997268 0.993781 1.00527 0.998248
0.954264 0.998841 0.958731 0.996496
1.00341 0.99926 1.00448 0.999678
0.990416 0.991072 0.999948 0.99939
1.00206 0.998508 1.00484 0.998727
1.00774 0.992858 1.01506 0.999928
0.947093 0.986467 0.964449 0.995477
0.974373 0.973232 1.00974 0.991518
0.935534 0.960861 0.980572 0.992932
1.00731 0.996272 1.01131 0.999771
1.0009 1.0002 1.00111 0.999583
0.990178 0.988625 1.00311 0.998466
0.925971 0.966461 0.963371 0.994534
0.935539 0.967162 0.974065 0.993059
0.98968 0.984025 1.00612 0.999628
0.979216 0.969644 1.01933 0.990721
1.00027 1 1.00089 0.999376
1.0022 0.999977 1.00268 0.99955
1.00715 0.995015 1.01262 0.999582
0.999309 1 1 0.999309
0.999682 1 1.00037 0.999316
1.00094 1 1.00154 0.999403
0.99929 1 1 0.99929
0.99993 1 1.00043 0.999497
1.00475 0.999467 1.00594 0.999353
0.999298 1 1 0.999298
0.999276 1 1 0.999276
1.00004 1 1.0008 0.999243
1.00594 1 1.007 0.998954
0.99923 1 1 0.99923
1.00084 1 1.00192 0.998919
1.0027 1 1.00413 0.998577
1.00037 1 1.00188 0.998497
0.999408 1 1.00038 0.999025
0.999729 1 1.00107 0.998662
0.999405 1 1.00051 0.998892
0.999935 1 1.00092 0.999016
0.999754 1 1.00091 0.998848
0.99927 1 1 0.99927
0.999209 1 1.00011 0.999098
0.999706 1 1.00086 0.998851
0.99958 1 1 0.99958
0.999322 1 1 0.999322
0.999148 1 1 0.999148
0.999425 1 1 0.999425
0.999641 1 1 0.999641
0.999943 1 1 0.999943
0.999683 1 1 0.999683
0.999953 1 1 0.999953
1 1 1 1
0.999958 1 1 0.999958
1 1 1 1
1 1 1 1
1 1 1 1
1 1 1 1
1 1 1 1
0.999624 1 1 0.999624
0.999907 1 1 0.999907
0.999679 1 1 0.999679
1 1 1 1
0.999936 1 1 0.999936
0.999749 1 1 0.999749
1 1 1 1
1 1 1 1
0.99995 1 1 0.99995
1 1 1 1
1 1 1 1
1 1 1 1
0.989061 0.989671 1.00002 0.999368
0.98436 0.986595 0.999705 0.998028
0.934713 0.950142 0.988395 0.995311
0.999453 1 1 0.999453
0.999416 1 1 0.999416
0.99934 1 1 0.99934
1.00282 0.998284 1.00611 0.998445
0.990501 0.987851 1.00421 0.998475
0.989396 0.990313 1.0022 0.99688
1.00014 0.998021 1.00466 0.997472
0.965511 0.968299 1.00588 0.991294
0.921709 0.954698 0.972536 0.99271
0.948371 0.987828 0.964357 0.99554
0.978906 0.981183 1.00102 0.996663
0.969394 0.967496 1.01086 0.991198
0.934624 0.960192 0.979084 0.994167
0.951478 0.994031 0.960909 0.996131
0.970233 0.97588 0.997958 0.996248
0.981183 0.972431 1.01782 0.991334
0.928011 0.947378 0.985417 0.994054
0.947558 0.983973 0.966725 0.996139
0.999203 1 1 0.999203
0.999211 1 1 0.999211
0.999284 1 1 0.999284
0.99932 1 1 0.99932
0.999373 1 1 0.999373
0.99951 1 1 0.99951
0.992949 1.00365 0.990219 0.999115
1.00085 1 1.00153 0.999324
0.999153 1 1 0.999153
1.00157 1 1.00261 0.998963
0.999077 1 1.00005 0.999026
0.999158 1 1 0.999158
0.999116 1 1 0.999116
0.989755 0.995965 0.994259 0.999504
0.999179 1 1.00006 0.999116
1.00875 0.996771 1.01255 0.99948
0.999192 1 1 0.999192
1.00532 0.988092 1.01769 0.999749
0.994002 0.993961 1.00044 0.999605
0.999211 1 1 0.999211
1.00371 1.00447 0.999502 0.999746
0.991617 0.992725 0.999306 0.999577
0.984146 0.986013 0.999855 0.998252
1.0037 0.999441 1.00462 0.999644
1.00283 0.994157 1.00892 0.999802
0.989296 0.990295 0.99959 0.9994
0.980026 0.973993 1.01226 0.994005
0.940725 0.959944 0.985605 0.994292
1.00088 0.997442 1.00444 0.999007
0.949015 0.98865 0.9642 0.995551
1.00708 0.997376 1.00994 0.999788
1.00107 1.00041 1.00102 0.999635
0.991395 0.98944 1.0035 0.998483
0.988373 0.980428 1.01032 0.99781
0.92333 0.965075 0.962164 0.994367
0.932359 0.962939 0.974043 0.994045
0.989849 0.975439 1.02359 0.991382
1.01282 0.98753 1.02574 0.999876
0.989623 0.990297 0.999943 0.999377
0.988003 0.991708 0.999341 0.996921
0.88239 0.926908 0.957956 0.993752
0.922457 0.958487 0.968455 0.993757
0.982548 0.974418 1.0172 0.991297
0.962833 0.974632 0.990748 0.997119
1.00109 0.999889 1.00167 0.999534
1.00968 0.996459 1.01369 0.999586
1.01906 0.999423 1.02012 0.999529
0.999286 1 1 0.999286
1.00005 1 1.00055 0.999497
1.00415 0.999769 1.005 0.999382
1.01483 1 1.01574 0.999099
1.00048 1 1.00126 0.999218
1.00603 1 1.00714 0.998898
1.01201 1 1.01355 0.998486
1.00041 1 1.00145 0.99897
1.0035 1 1.00495 0.998566
1.0033 1 1.00504 0.998267
1.00043 1.00027 1.00191 0.99825
0.999799 1 1.00108 0.998723
1.00036 1 1.00188 0.998476
0.999819 1 1.0012 0.998624
0.999846 1 1.00084 0.999008
0.999409 1 1.00047 0.998935
0.999637 1 1.00049 0.999149
0.999941 1 1.0009 0.999038
0.999616 1 1.00074 0.998879
0.999495 1 1 0.999495
0.999271 1 1 0.999271
0.999247 1 1.00015 0.999095
0.999917 1 1 0.999917
0.999579 1 1 0.999579
0.999315 1 1 0.999315
0.99964 1 1 0.99964
0.999939 1 1 0.999939
1 1 1 1
0.99995 1 1 0.99995
1 1 1 1
1 1 1 1
1 1 1 1
1 1 1 1
1 1 1 1
0.999622 1 1 0.999622
0.999928 1 1 0.999928
0.999637 1 1 0.999637
1 1 1 1
0.99993 1 1 0.99993
0.999697 1 1 0.999697
1 1 1 1
1 1 1 1
0.999934 1 1 0.999934
1 1 1 1
1 1 1 1
1 1 1 1
1.00185 1.00013 1.00214 0.999581
0.991181 0.990948 1.00086 0.99938
0.984457 0.986217 1.00018 0.998038
0.999398 1 1 0.999398
0.999311 1 1 0.999311
0.99946 1 1 0.99946
0.999413 1 1 0.999413
0.999326 1 1 0.999326
0.999323 1 1 0.999323
0.999256 1 1 0.999256
0.992267 0.989022 1.00508 0.998213
1.00071 0.996655 1.00535 0.998726
0.991522 0.988636 1.00443 0.998492
0.955167 0.998661 0.959812 0.996496
0.973478 0.977877 1.00001 0.995494
0.975468 0.971586 1.01183 0.99226
0.936727 0.955853 0.98696 0.992938
0.970134 0.976385 0.997925 0.995663
0.973598 0.968938 1.01384 0.991091
0.93715 0.961126 0.981792 0.993138
0.941745 0.979271 0.965668 0.99587
0.96198 0.972207 0.992523 0.996935
0.971123 0.970948 1.00936 0.990904
0.953569 0.974415 0.984356 0.994158
0.925216 0.96674 0.961772 0.995087
0.999234 1 1 0.999234
0.999202 1 1 0.999202
0.999209 1 1 0.999209
0.999318 1 1 0.999318
0.99848 0.998803 1.00018 0.999497
1.00561 0.994569 1.0116 0.999505
0.999146 1 1 0.999146
0.999122 1 1 0.999122
0.999256 1 1.00009 0.999164
0.999188 1 1 0.999188
0.999199 1 1 0.999199
1.00072 0.986599 1.01483 0.999491
0.995216 0.995105 1.00044 0.999675
0.999234 1 1 0.999234
1.00674 0.983282 1.02432 0.999553
1.00156 0.997148 1.00505 0.999378
0.992123 0.992843 0.999753 0.999522
1.00236 1.00311 0.999468 0.999784
0.991508 0.992525 0.999332 0.999643
1.00703 0.998484 1.00876 0.999805
0.989787 0.98042 1.00996 0.999597
1.00106 1.00046 1.00091 0.999687
0.977685 0.969222 1.01803 0.990863
0.935706 0.958377 0.98341 0.992816
0.99271 0.990278 1.00396 0.998499
0.918723 0.961765 0.960809 0.994211
1.01645 0.988295 1.02863 0.999867
0.991182 0.991314 1.00048 0.999388
0.989217 0.991674 1.00061 0.996914
0.966512 0.977047 0.990394 0.998812
0.874623 0.924298 0.952667 0.993271
0.923864 0.957665 0.971161 0.993351
0.985117 0.973756 1.02025 0.99159
1.0013 0.985868 1.01598 0.99967
0.986271 0.988168 1.00004 0.998044
0.928267 0.946833 0.985502 0.994814
0.891082 0.929358 0.965029 0.99356
0.976214 0.969379 1.01581 0.991376
0.957114 0.972746 0.987834 0.996047
1.0129 0.998463 1.01487 0.99959
1.01853 0.99802 1.02103 0.999522
1.01307 1 1.01368 0.999397
1.00357 1 1.00416 0.999412
1.0149 0.999897 1.01588 0.999143
1.00942 1 1.01082 0.998617
1.00622 1 1.00738 0.998842
1.01147 1 1.01304 0.998449
1.00585 1.00011 1.00756 0.998186
1.00423 1 1.00568 0.998555
1.00341 1 1.00519 0.998234
1.0025 1.00115 1.00324 0.998119
0.999513 1.00129 1 0.99823
0.999188 1 1.00077 0.998424
1.00052 1.00013 1.00218 0.998213
0.999014 1 1.00013 0.998888
0.999493 1 1.00074 0.998751
1.00034 1 1.00189 0.998454
0.9995 1 1.00045 0.99905
0.999924 1 1.00092 0.999
0.999403 1 1.00043 0.998977
0.999377 1 1 0.999377
0.999496 1 1.00033 0.999171
0.999962 1 1.0009 0.999061
0.999854 1 1 0.999854
0.999495 1 1 0.999495
0.999273 1 1 0.999273
1 1 1 1
0.999912 1 1 0.999912
0.999579 1 1 0.999579
0.999936 1 1 0.999936
1 1 1 1
1 1 1 1
1 1 1 1
1 1 1 1
1 1 1 1
0.999395 1 1 0.999395
0.999592 1 1 0.999592
0.99991 1 1 0.99991
0.999622 1 1 0.999622
1 1 1 1
0.999931 1 1 0.999931
0.999649 1 1 0.999649
1 1 1 1
1 1 1 1
0.999952 1 1 0.999952
1 1 1 1
1 1 1 1
1 1 1 1
0.992237 0.9914 1.00146 0.999388
1.00181 1.00019 1.002 0.999634
0.992902 0.992241 1.00128 0.999391
0.999406 1 1 0.999406
0.999299 1 1 0.999299
0.999249 1 1 0.999249
0.999299 1 1 0.999299
0.999238 1 1 0.999238
0.999411 1 1 0.999411
0.999311 1 1 0.999311
0.999324 1 1 0.999324
0.99925 1 1 0.99925
0.999271 1 1 0.999271
0.984403 0.986483 1.00094 0.996952
0.994349 0.990792 1.00537 0.998227
0.99834 0.994947 1.00441 0.999006
0.93778 0.97613 0.964634 0.995934
0.938596 0.957133 0.986202 0.994353
0.961877 0.970572 0.996004 0.995017
0.977575 0.97522 1.01127 0.99124
0.963604 0.972903 0.994934 0.995485
0.983285 0.977684 1.01468 0.991181
0.939285 0.966447 0.97811 0.993645
0.924725 0.967107 0.961189 0.994785
0.979386 0.977745 1.00553 0.996166
0.974142 0.974819 1.00792 0.991455
0.918683 0.954551 0.969579 0.99262
0.890268 0.939957 0.953154 0.993688
0.999424 1 1 0.999424
0.999235 1 1 0.999235
0.999201 1 1 0.999201
0.996659 0.984751 1.01287 0.999231
0.9954 0.995247 1.00041 0.999748
0.999183 1 1 0.999183
0.999186 1 1 0.999186
0.999276 1 1.00003 0.999243
1.00233 0.997909 1.00506 0.999372
1.00491 0.982966 1.02276 0.999571
1.00374 1 1.00435 0.999388
1.00441 0.990613 1.01462 0.999317
0.985285 0.987106 1 0.998155
0.992113 0.992808 0.999712 0.999588
1.00101 1.00178 0.999408 0.999822
1.01923 0.988429 1.03131 0.999855
0.96752 0.978621 0.992011 0.996619
0.99249 0.992346 1.00075 0.999399
0.977303 0.973436 1.01432 0.989796
0.920871 0.953703 0.97264 0.992736
0.990238 0.991683 1.00164 0.996908
0.86769 0.922467 0.94745 0.99279
1.00102 0.985554 1.01598 0.999717
0.986194 0.988127 0.999993 0.998051
0.920735 0.941657 0.983116 0.994574
0.957031 0.973787 0.985883 0.996865
0.895847 0.933515 0.966845 0.992557
0.967084 0.967232 1.00927 0.990663
0.981671 0.986381 0.996002 0.999219
0.943011 0.951273 0.995587 0.995708
0.89402 0.926396 0.972256 0.99259
0.973599 0.971724 1.01077 0.991255
0.972425 0.978295 0.997012 0.996979
1.01747 0.996534 1.0215 0.999515
1.01528 0.999926 1.01598 0.999386
0.993298 1 0.994269 0.999023
1.01488 0.999851 1.01586 0.999186
1.00951 1 1.01085 0.998674
1.00219 1.00109 1.00272 0.998387
1.01081 1 1.01242 0.998411
1.00489 1.00016 1.00654 0.998194
0.999482 1.00118 1.00003 0.998271
1.00339 1 1.0052 0.9982
1.00257 1.00195 1.00249 0.998131
1.00261 1.00431 1 0.998307
1.00184 1.00344 1 0.998402
0.999103 1.00078 1.00002 0.998306
0.999675 1.00144 1 0.99824
0.998641 1 1 0.998641
0.99946 1 1.00107 0.998387
1.00061 1 1.00244 0.998175
0.999018 1 1 0.999018
0.998946 1 1.00002 0.998922
0.999097 1 1.00032 0.99878
0.999257 1 1 0.999257
0.999657 1 1.0006 0.99906
1.00001 1 1.00102 0.998993
0.999743 1 1 0.999743
0.999377 1 1 0.999377
0.999366 1 1.00017 0.999192
1 1 1 1
0.99985 1 1 0.99985
0.999496 1 1 0.999496
1 1 1 1
1 1 1 1
0.999908 1 1 0.999908
1 1 1 1
1 1 1 1
1 1 1 1
0.999337 1 1 0.999337
0.999554 1 1 0.999554
0.999386 1 1 0.999386
0.999896 1 1 0.999896
0.999592 1 1 0.999592
1 1 1 1
0.999913 1 1 0.999913
0.999621 1 1 0.999621
1 1 1 1
1 1 1 1
0.999935 1 1 0.999935
1 1 1 1
1 1 1 1
1 1 1 1
0.987131 0.988789 1 0.998323
0.991181 0.990642 1.00115 0.999399
1.00169 1.00012 1.00188 0.999686
0.999241 1 1 0.999241
0.999413 1 1 0.999413
0.999288 1 1 0.999288
0.999311 1 1 0.999311
0.99926 1 1 0.99926
0.999234 1 1 0.999234
0.999182 1 1 0.999182
0.99922 1 1 0.99922
0.999324 1 1 0.999324
0.999245 1 1 0.999245
0.999266 1 1 0.999266
0.99929 1 1 0.99929
0.920006 0.943603 0.98067 0.994211
0.985778 0.987433 1.00139 0.996942
0.995859 0.991985 1.00567 0.998241
0.920805 0.966062 0.958419 0.994505
0.945092 0.970768 0.980237 0.993179
0.971501 0.970958 1.0097 0.990944
0.966152 0.972088 0.997354 0.996529
0.97957 0.977253 1.0049 0.997484
0.879453 0.93122 0.95085 0.993226
0.978409 0.973358 1.01478 0.990552
0.919237 0.955692 0.967956 0.993696
0.97725 0.981022 0.998446 0.997705
0.971314 0.968633 1.01101 0.991849
0.890758 0.929771 0.964404 0.993401
1.00006 1 1.00041 0.999652
0.999426 1 1 0.999426
0.999236 1 1 0.999236
1.00551 0.985469 1.02076 0.999584
1.00382 0.999326 1.00513 0.999365
0.999303 1 1.00005 0.999252
1.00403 1 1.00465 0.999392
1.00319 0.99086 1.0131 0.999349
1.00563 0.996782 1.00939 0.999495
0.93915 0.949895 0.993629 0.995028
0.985573 0.98708 0.999986 0.998488
0.992185 0.992791 0.999735 0.999654
1.00034 0.984858 1.01596 0.999766
0.957055 0.975684 0.983395 0.997469
0.986284 0.988037 1.00017 0.99806
0.973074 0.969897 1.01106 0.992303
0.902453 0.940573 0.965805 0.993442
0.913124 0.940075 0.976859 0.994341
0.980997 0.987067 0.994578 0.999268
0.935095 0.949841 0.989081 0.995344
0.905941 0.929628 0.9808 0.993598
0.971926 0.975323 1.00097 0.995551
0.965758 0.969775 1.00433 0.991569
0.971131 0.993201 0.97836 0.999406
0.913939 0.937966 0.98054 0.993722
0.967041 0.973182 1.00175 0.991957
0.984477 0.988419 1.00068 0.995339
1.01821 0.999793 1.01906 0.999375
0.989722 1 0.990637 0.999075
0.981803 1.00134 0.981634 0.998832
1.0099 1 1.01118 0.99873
1.00241 1.00129 1.00274 0.998384
1.00046 1.00245 0.999428 0.998584
1.00401 1.00021 1.00561 0.998202
0.999423 1.00077 1.00037 0.998286
1.00582 1.00724 1 0.998589
1.00271 1.00272 1.00185 0.998143
1.0025 1.0042 1 0.998312
1.00564 1.00704 1 0.99861
1.00442 1.0058 1 0.998624
1.00032 1.00192 1 0.998404
1.002 1.00359 1 0.99842
0.998805 1.00032 1 0.998485
0.99916 1.00083 1 0.998334
0.999831 1.00158 1 0.99825
0.998892 1 1 0.998892
0.998783 1 1.00014 0.998645
0.999826 1 1.00148 0.99835
0.999181 1 1 0.999181
0.999015 1 1 0.999015
0.998956 1 1 0.998956
0.999609 1 1 0.999609
0.999259 1 1 0.999259
0.999804 1 1.00073 0.99907
1 1 1 1
0.99974 1 1 0.99974
0.999378 1 1 0.999378
1 1 1 1
1 1 1 1
0.999847 1 1 0.999847
1 1 1 1
1 1 1 1
1 1 1 1
0.999322 1 1 0.999322
0.999339 1 1 0.999339
0.999503 1 1 0.999503
0.999878 1 1 0.999878
0.999554 1 1 0.999554
0.999376 1 1 0.999376
1 1 1 1
0.999898 1 1 0.999898
0.999591 1 1 0.999591
1 1 1 1
1 1 1 1
0.999916 1 1 0.999916
1 1 1 1
1 1 1 1
1 1 1 1
0.938305 0.947634 0.994934 0.995197
0.986196 0.987839 1 0.998336
0.990327 0.990077 1.00084 0.999409
0.99923 1 1 0.99923
0.999202 1 1 0.999202
0.999178 1 1 0.999178
0.999322 1 1 0.999322
0.999272 1 1 0.999272
0.999229 1 1 0.999229
0.999219 1 1 0.999219
0.999181 1 1 0.999181
0.999117 1 1 0.999117
0.999271 1 1 0.999271
0.999261 1 1 0.999261
0.99929 1 1 0.99929
0.903555 0.928616 0.979321 0.993558
0.917993 0.940313 0.982084 0.994072
0.987077 0.988241 1.00189 0.996934
0.868553 0.922213 0.948678 0.992764
0.917734 0.952855 0.970325 0.992598
0.985131 0.979699 1.01303 0.99261
0.983594 0.975956 1.01185 0.996023
0.974221 0.978044 0.999755 0.996335
0.893294 0.928508 0.969371 0.992474
0.969085 0.968051 1.00908 0.992058
0.977252 0.979451 1.00108 0.996675
0.970061 0.973113 1.00538 0.991534
1.00744 1 1.00819 0.999262
0.999895 1 1.00027 0.999628
0.999429 1 1 0.999429
0.999387 0.988563 1.01158 0.99938
1.00433 1 1.00494 0.999395
1.00635 0.997782 1.00918 0.999412
1.00058 1.00067 1.00105 0.998867
0.910379 0.941132 0.973724 0.993427
0.941761 0.949886 0.995966 0.995462
0.986012 0.987258 0.999918 0.99882
0.979449 0.987631 0.992383 0.999328
0.971453 0.974893 0.99996 0.996512
0.93574 0.950535 0.989011 0.995373
0.96935 0.969961 1.00811 0.991327
0.906439 0.933856 0.977759 0.99272
0.974546 0.993701 0.981516 0.999193
0.914809 0.939254 0.980713 0.993128
0.969146 0.973578 1.004 0.99148
0.98633 0.985652 1.00415 0.996557
0.98861 0.999996 0.989421 0.999185
0.959119 0.97371 0.993924 0.991038
0.990483 0.993053 1.00018 0.997234
0.986086 1 0.986946 0.999128
0.982466 1.00134 0.982321 0.998813
0.982697 1.00356 0.98041 0.998778
1.00232 1.00147 1.00247 0.998381
1.00018 1.00296 0.998648 0.998579
1.00606 1.00995 0.997227 0.99892
0.999408 1.00039 1.00071 0.998301
1.00604 1.00747 1 0.998586
1.01087 1.01202 1 0.998859
1.00244 1.00413 1 0.998317
1.00515 1.00655 1 0.99861
1.00651 1.00773 1 0.998796
1.00457 1.00584 1 0.998741
1.00427 1.00563 1 0.998649
1.00241 1.00383 1 0.998587
0.999427 1.00094 1 0.998492
1.00053 1.00212 1 0.998407
1.00211 1.00368 1 0.998439
0.998688 1 1 0.998688
0.99881 1.0003 1 0.998514
0.999263 1.0009 1 0.998361
0.999094 1 1 0.999094
0.998887 1 1 0.998887
0.998822 1 1.00017 0.99865
0.999507 1 1 0.999507
0.999182 1 1 0.999182
0.999012 1 1 0.999012
0.999992 1 1 0.999992
0.999609 1 1 0.999609
0.999262 1 1 0.999262
1 1 1 1
0.999999 1 1 0.999999
0.999738 1 1 0.999738
1 1 1 1
1 1 1 1
1 1 1 1
0.999265 1 1 0.999265
0.99931 1 1 0.99931
0.99945 1 1 0.99945
0.999342 1 1 0.999342
0.999503 1 1 0.999503
0.999841 1 1 0.999841
1 1 1 1
0.999879 1 1 0.999879
0.999554 1 1 0.999554
1 1 1 1
1 1 1 1
0.9999 1 1 0.9999
1 1 1 1
1 1 1 1
1 1 1 1
0.919853 0.938541 0.986926 0.993072
0.937254 0.948836 0.992834 0.994924
0.984943 0.986571 1 0.99835
0.99922 1 1 0.99922
0.999162 1 1 0.999162
0.999217 1 1 0.999217
0.999136 1 1 0.999136
0.999137 1 1 0.999137
0.999217 1 1 0.999217
0.999179 1 1 0.999179
0.999125 1 1 0.999125
0.999072 1 1 0.999072
0.999137 1 1 0.999137
0.999021 1 1.00026 0.998764
0.999288 1 1 0.999288
0.99929 1 1 0.99929
0.966467 0.978087 0.99732 0.990775
0.907963 0.929763 0.983221 0.993218
0.91917 0.94228 0.98142 0.993942
0.894055 0.928233 0.969632 0.993346
0.973985 0.968797 1.01521 0.990288
0.9764 0.976766 1.00183 0.997797
0.980347 0.982204 1.00065 0.997463
0.969155 0.973842 1.00325 0.991962
0.987627 0.996416 0.99465 0.99651
1.0052 1.00132 1.00534 0.99854
1.0059 1 1.00666 0.999246
0.999604 1 1 0.999604
1.00657 0.9992 1.00804 0.999337
0.999881 1.00101 1.00004 0.998826
0.950491 0.972057 0.985792 0.991907
0.915409 0.940734 0.979993 0.992945
0.945307 0.950115 0.999036 0.9959
0.978278 0.994787 0.984416 0.998973
0.984399 0.983263 1.0058 0.995381
0.915311 0.938065 0.982763 0.992858
0.972518 0.974497 1.00611 0.991908
0.986965 1.00109 0.986711 0.99917
0.961189 0.974613 0.994057 0.992123
0.992039 0.994955 1.00112 0.995957
1.00179 1.00608 0.996984 0.998745
0.993657 0.996936 0.998588 0.99812
0.982729 1.00139 0.982548 0.998795
0.985262 1.00307 0.983487 0.998738
1.00384 1.01702 0.988221 0.998808
1.00007 1.00339 0.998123 0.998575
1.00459 1.0085 0.997201 0.998912
1.0119 1.01614 0.996844 0.998983
1.00619 1.00762 1 0.998582
1.01123 1.01243 0.999975 0.998846
1.00956 1.0107 0.999987 0.998881
1.00472 1.00612 1 0.998609
1.00663 1.00786 1 0.998784
1.00547 1.0067 1 0.998774
1.0047 1.00594 1 0.998769
1.0028 1.00415 1 0.998659
1.0042 1.00553 1 0.998674
1.00231 1.00373 1 0.998582
1.00012 1.00156 1 0.998563
0.99872 1.00012 1 0.9986
0.999373 1.00089 1 0.998486
1.00068 1.00228 1 0.99841
0.99896 1 1 0.99896
0.998708 1 1 0.998708
0.998806 1.00026 1 0.998543
0.999429 1 1 0.999429
0.999091 1 1 0.999091
0.998882 1 1 0.998882
0.999965 1 1 0.999965
0.999508 1 1 0.999508
0.999182 1 1 0.999182
1 1 1 1
0.999985 1 1 0.999985
0.999609 1 1 0.999609
1 1 1 1
0.999997 1 1 0.999997
1 1 1 1
0.999164 1 1 0.999164
0.999265 1 1 0.999265
0.999362 1 1 0.999362
0.999297 1 1 0.999297
0.999434 1 1 0.999434
0.999767 1 1 0.999767
0.999503 1 1 0.999503
0.999842 1 1 0.999842
1 1 1 1
1 1 1 1
1 1 1 1
0.999881 1 1 0.999881
1 1 1 1
1 1 1 1
1 1 1 1
0.964109 0.976042 0.995684 0.992055
0.914329 0.941043 0.977901 0.993569
0.94264 0.951342 0.995825 0.995007
0.999146 1 1 0.999146
0.999233 1 1 0.999233
0.999145 1 1 0.999145
0.99914 1 1 0.99914
0.999016 1 1 0.999016
0.99912 1 1 0.99912
0.999133 1 1 0.999133
0.999031 1 1 0.999031
0.999115 1 1 0.999115
0.998955 1 1 0.998955
1.00058 1.00177 1 0.998816
0.999255 1.00085 1.00011 0.998288
0.99936 1.0005 1.00006 0.998805
0.999305 1 1 0.999305
0.984845 0.993136 0.994936 0.996699
0.965456 0.975878 0.997655 0.991646
0.902755 0.931097 0.976684 0.992707
0.973929 0.974308 1.00833 0.991349
0.977486 0.98319 0.996047 0.998143
0.991544 0.996818 0.996821 0.997881
0.996274 1.00479 0.992802 0.998716
1.00236 1.00067 1.00306 0.998636
1.00485 1 1.00563 0.999229
0.997828 1.00112 0.997932 0.998777
0.980589 0.986386 0.997619 0.996497
0.95775 0.972916 0.991897 0.992454
0.912476 0.939728 0.977068 0.993789
0.98695 1.00235 0.985469 0.999152
0.997713 0.995537 1.00526 0.99694
0.960866 0.974831 0.992375 0.993249
0.995822 1.00471 0.992392 0.998757
0.991909 0.996605 0.997667 0.997616
1.0109 1.01981 0.992694 0.998559
1.00846 1.01451 0.995494 0.998537
0.987926 1.00258 0.986668 0.998698
1.00545 1.0168 0.990022 0.998803
1.01315 1.01947 0.994998 0.998795
1.00324 1.0073 0.997063 0.998904
1.01207 1.01579 0.997358 0.998974
1.01077 1.01326 0.998756 0.998786
1.01162 1.01286 0.999945 0.998833
1.00899 1.01016 0.999973 0.998869
1.00698 1.00831 1 0.998682
1.00668 1.00791 1 0.998773
1.00511 1.00634 1 0.998781
1.00396 1.00535 1 0.998616
1.00481 1.00602 1 0.998797
1.00263 1.00396 1 0.998676
0.999992 1.00142 1 0.998576
1.00222 1.00365 1 0.998578
1.00005 1.0015 1 0.998558
0.998676 1.00005 1 0.998623
0.998817 1 1 0.998817
0.998722 1.0001 1 0.998619
0.999344 1.00087 1 0.99848
0.999327 1 1 0.999327
0.998959 1 1 0.998959
0.998729 1 1 0.998729
0.999919 1 1 0.999919
0.999428 1 1 0.999428
0.999088 1 1 0.999088
1 1 1 1
0.999954 1 1 0.999954
0.99951 1 1 0.99951
1 1 1 1
0.999978 1 1 0.999978
1 1 1 1
0.999054 1 1 0.999054
0.999174 1 1 0.999174
0.99928 1 1 0.99928
0.999266 1 1 0.999266
0.999351 1 1 0.999351
0.999667 1 1 0.999667
0.999418 1 1 0.999418
0.999768 1 1 0.999768
1 1 1 1
0.999844 1 1 0.999844
1 1 1 1
1 1 1 1
1 1 1 1
1 1 1 1
1 1 1 1
0.977587 0.986272 0.994369 0.996808
0.958348 0.973748 0.992334 0.991788
0.911724 0.940232 0.97671 0.992803
0.99885 1 1 0.99885
0.999153 1 1 0.999153
0.999144 1 1 0.999144
0.999113 1 1 0.999113
0.999008 1 1 0.999008
0.99912 1 1 0.99912
0.998989 1 1 0.998989
0.999092 1 1 0.999092
0.99899 1 1 0.99899
0.999914 1.00109 1 0.998825
1.00074 1.00234 1 0.998403
1.00381 1.0058 0.999965 0.998058
0.999815 1.00142 1.00013 0.998266
0.999824 1.00098 1 0.998846
1.00073 1.00646 0.995261 0.999048
0.986038 0.994705 0.995145 0.996122
0.969462 0.977656 0.998949 0.992662
0.990647 0.99621 0.997631 0.996778
1.0012 1.00655 0.99584 0.998835
1.00113 1.0002 1.0022 0.998733
1.00455 1.00668 0.999177 0.998707
0.980197 0.985314 0.997323 0.997477
0.955237 0.973117 0.989587 0.991955
0.989243 1.00292 0.987584 0.998766
0.991201 0.996224 0.997906 0.997045
1.01063 1.02017 0.992072 0.998558
1.00812 1.01258 0.996965 0.998628
1.01809 1.02392 0.995767 0.998529
1.01331 1.01626 0.998622 0.998471
1.00701 1.01636 0.991993 0.998797
1.01444 1.0206 0.995148 0.998804
1.00873 1.01241 0.997717 0.998647
1.01215 1.01534 0.997896 0.998964
1.01192 1.01406 0.999099 0.998784
1.00776 1.00935 0.99987 0.998548
1.00848 1.00967 0.999963 0.998857
1.00682 1.00813 1 0.998702
1.00594 1.00747 1 0.998488
1.00479 1.00601 1 0.998788
1.00367 1.00506 1 0.998616
1.00119 1.00268 1 0.998512
1.00247 1.00378 1 0.998693
1.00017 1.00159 1 0.998583
0.998704 1.00013 1 0.998578
0.999972 1.00142 1 0.998553
0.998678 1.00007 1 0.99861
0.998773 1 1 0.998773
0.99922 1 1 0.99922
0.998837 1 1 0.998837
0.998725 1.00009 1 0.998638
0.99986 1 1 0.99986
0.999326 1 1 0.999326
0.998958 1 1 0.998958
1 1 1 1
0.999909 1 1 0.999909
0.999428 1 1 0.999428
1 1 1 1
0.999943 1 1 0.999943
1 1 1 1
0.99889 1 1 0.99889
0.999056 1 1 0.999056
0.999192 1 1 0.999192
0.999184 1 1 0.999184
0.999286 1 1 0.999286
0.999571 1 1 0.999571
0.999341 1 1 0.999341
0.999666 1 1 0.999666
0.999995 1 1 0.999995
0.999769 1 1 0.999769
1 1 1 1
1 1 1 1
1 1 1 1
1 1 1 1
1 1 1 1
1.00587 1.01004 0.996778 0.999086
0.977631 0.987336 0.994471 0.995675
0.962059 0.972934 0.996607 0.99219
0.998908 1 1 0.998908
0.999563 1.00099 1 0.998577
0.998874 1 1 0.998874
0.999106 1 1 0.999106
0.998999 1 1 0.998999
0.999085 1 1 0.999085
1.00135 1.00282 1 0.998532
0.999026 1 1 0.999026
0.999098 1.00026 1 0.998834
1.00084 1.0024 1 0.998437
1.00445 1.0064 1 0.998059
1.01071 1.01305 0.999326 0.998367
1.00273 1.00472 0.999957 0.998061
1.0003 1.00206 1 0.998243
1.00371 1.00906 0.995587 0.999104
0.984656 0.993791 0.995368 0.995418
1.00394 1.00773 0.997286 0.998956
1.0121 1.01362 0.999615 0.998884
1.00312 1.00539 0.998974 0.998762
0.977065 0.98512 0.995609 0.996197
1.01022 1.02076 0.991104 0.998557
1.00706 1.01056 0.99781 0.99872
1.01725 1.02405 0.99479 0.998565
1.01514 1.01771 0.99898 0.998491
1.0101 1.01479 0.996848 0.998529
1.01751 1.01911 0.999802 0.998629
1.01555 1.02185 0.995015 0.998814
1.00861 1.01246 0.997541 0.998652
1.00935 1.01209 0.998832 0.998458
1.01299 1.01478 0.999451 0.998781
1.00777 1.00929 0.999945 0.998552
1.00805 1.00968 1 0.998394
1.00662 1.00791 1 0.998721
1.00572 1.00725 1 0.998486
1.00353 1.00513 1 0.998402
1.00338 1.00477 1 0.998617
1.00144 1.00294 1 0.998511
0.998934 1.00043 1 0.998509
1.00034 1.00176 1 0.998589
0.998756 1.00018 1 0.99858
0.998718 1 1 0.998718
0.998681 1.00008 1 0.998596
0.998765 1 1 0.998765
0.999141 1 1 0.999141
0.999801 1 1 0.999801
0.99922 1 1 0.99922
0.998857 1 1 0.998857
1 1 1 1
0.99985 1 1 0.99985
0.999325 1 1 0.999325
1 1 1 1
0.999899 1 1 0.999899
1 1 1 1
0.998686 1.00002 1 0.998663
0.998868 1 1 0.998868
0.999048 1 1 0.999048
0.999059 1 1 0.999059
0.999194 1 1 0.999194
0.999484 1 1 0.999484
0.999293 1 1 0.999293
0.99957 1 1 0.99957
0.99997 1 1 0.99997
0.999666 1 1 0.999666
0.999997 1 1 0.999997
1 1 1 1
1 1 1 1
1 1 1 1
1 1 1 1
1.01084 1.01328 0.998869 0.99872
1.00478 1.00926 0.996599 0.998954
0.976844 0.986214 0.994055 0.996423
1.00198 1.00345 1 0.998538
0.999037 1 1 0.999037
1.00335 1.00496 1 0.998399
0.999484 1.00092 1 0.998564
0.998898 1 1 0.998898
1.00882 1.01068 1 0.998163
0.99905 1 1 0.99905
1.00133 1.00284 1 0.998493
1.01109 1.01292 1 0.998196
1.00093 1.00247 1 0.998471
1.00504 1.00702 1 0.998036
1.0089 1.01108 0.999476 0.998369
1.00121 1.00315 1 0.998063
1.00601 1.01099 0.995904 0.999162
1.01715 1.01844 1 0.998731
1.01197 1.01357 0.99954 0.998881
1.00215 1.00409 0.999254 0.998815
1.01675 1.02436 0.993966 0.998602
1.01687 1.01912 0.999286 0.998512
1.01091 1.01533 0.997105 0.998538
1.018 1.01973 0.999667 0.998638
1.01648 1.01816 0.999813 0.998537
1.0085 1.01249 0.9974 0.998657
1.00951 1.01183 0.999239 0.998464
1.0106 1.01225 1 0.998367
1.00779 1.00926 0.999993 0.998557
1.00762 1.00925 1 0.998384
1.00628 1.00799 1 0.998309
1.00552 1.00704 1 0.998484
1.00357 1.00518 1 0.9984
0.999556 1.00114 1 0.998413
1.00169 1.00318 1 0.998511
0.99911 1.0006 1 0.998509
0.998636 1 1 0.998636
0.998808 1.00023 1 0.998581
0.99872 1 1 0.99872
0.999071 1 1 0.999071
0.998758 1 1 0.998758
0.99914 1 1 0.99914
0.999782 1 1 0.999782
0.999964 1 1 0.999964
0.999802 1 1 0.999802
0.999219 1 1 0.999219
1 1 1 1
0.99984 1 1 0.99984
1 1 1 1
1.00433 1.0059 1 0.998441
0.999177 1.00062 1 0.998555
0.998653 1.00001 1 0.998641
0.998906 1 1 0.998906
0.998845 1 1 0.998845
0.999053 1 1 0.999053
0.999394 1 1 0.999394
0.999197 1 1 0.999197
0.999485 1 1 0.999485
0.999927 1 1 0.999927
0.99957 1 1 0.99957
0.999979 1 1 0.999979
1 1 1 1
0.999999 1 1 0.999999
1 1 1 1
1 1 1 1
1.01565 1.01715 1 0.998519
1.01439 1.01656 0.99908 0.998788
1.00511 1.00962 0.996708 0.998821
1.009 1.01077 1 0.998248
1.00121 1.0026 1 0.998613
0.999164 1 1 0.999164
1.00372 1.00531 1 0.998423
0.999396 1.00085 1 0.99855
1.01516 1.01703 1 0.998164
1.00842 1.01031 1 0.998132
1.00137 1.00293 1 0.998454
1.01163 1.01347 1 0.998188
1.00641 1.00841 1 0.998013
1.0091 1.01123 0.999527 0.998373
1.0191 1.02051 1 0.998619
1.01751 1.01881 1 0.998726
1.01233 1.01386 0.999614 0.998879
1.01171 1.01589 0.997333 0.998547
1.01879 1.02058 0.999596 0.998647
1.01659 1.01862 0.999457 0.998551
1.01571 1.01732 1 0.998412
1.00974 1.01163 0.999664 0.998469
1.01012 1.01177 1 0.998362
1.00942 1.01115 1 0.998283
1.00719 1.00883 1 0.998374
1.00623 1.00793 1 0.998309
1.00098 1.00266 1 0.998329
1.00361 1.00522 1 0.998399
0.999892 1.00148 1 0.998412
0.998546 1 1 0.998546
0.999287 1.00078 1 0.998508
0.998636 1 1 0.998636
0.998988 1 1 0.998988
0.998721 1 1 0.998721
0.999069 1 1 0.999069
0.999766 1 1 0.999766
0.999139 1 1 0.999139
0.999777 1 1 0.999777
0.99996 1 1 0.99996
0.999982 1 1 0.999982
0.999803 1 1 0.999803
1 1 1 1
1.00702 1.00877 1 0.998269
0.999555 1.00101 1 0.99855
1.00387 1.00534 1 0.998529
0.998771 1 1 0.998771
0.999315 1.00076 1 0.998552
0.998619 1 1 0.998619
0.998907 1 1 0.998907
0.999284 1 1 0.999284
0.999057 1 1 0.999057
0.999396 1 1 0.999396
0.999876 1 1 0.999876
0.999486 1 1 0.999486
0.99994 1 1 0.99994
1 1 1 1
0.999987 1 1 0.999987
1 1 1 1
1 1 1 1
1.01739 1.01903 1 0.998396
1.01493 1.01644 1 0.998517
1.01608 1.018 0.999256 0.998854
1.0135 1.01535 1 0.998177
1.00865 1.01042 1 0.998251
1.00045 1.00177 1 0.998688
1.00408 1.00564 1 0.998448
1.01479 1.01667 1 0.998157
1.00785 1.00977 1 0.998101
1.01046 1.0123 1 0.998181
1.01693 1.01849 1 0.99847
1.01873 1.02017 1 0.998587
1.01746 1.01878 0.99998 0.998722
1.0157 1.01737 1 0.998358
1.01659 1.01898 0.999094 0.998565
1.01564 1.01725 1 0.998411
1.01251 1.01421 1 0.998318
1.00964 1.0113 1 0.998358
1.00951 1.01125 1 0.998285
1.00351 1.00524 1 0.998277
1.00616 1.00786 1 0.998309
1.00139 1.00307 1 0.998329
0.998567 1.0001 1 0.998468
1.00022 1.00182 1 0.998411
0.998547 1 1 0.998545
0.998905 1 1 0.998905
0.998636 1 1 0.998636
0.998986 1 1 0.998986
0.999748 1 1 0.999748
0.999067 1 1 0.999067
0.999761 1 1 0.999761
0.99996 1 1 0.99996
0.999772 1 1 0.999772
0.999962 1 1 0.999962
1 1 1 1
1.0085 1.01035 1 0.998171
1.00121 1.00285 1 0.998363
1.00714 1.00886 1 0.998299
0.998709 1 1 0.998709
0.999559 1.00101 1 0.998547
1.00341 1.0048 1 0.998616
0.999145 1 1 0.999145
0.998768 1 1 0.998768
0.999469 1.00092 1 0.998549
0.998907 1 1 0.998907
0.999285 1 1 0.999285
0.999818 1 1 0.999818
0.999397 1 1 0.999397
0.999887 1 1 0.999887
1 1 1 1
0.999952 1 1 0.999952
1 1 1 1
1 1 1 1
1.01555 1.01726 1 0.998319
1.01748 1.01913 1 0.998378
1.01552 1.01703 1 0.998515
1.01324 1.01509 1 0.998178
1.00832 1.01008 1 0.998254
1.01478 1.01666 1 0.99815
1.01487 1.01654 1 0.998358
1.01703 1.01859 1 0.998465
1.01837 1.01984 1 0.998556
1.01602 1.01769 1 0.998365
1.01304 1.01477 1 0.998292
1.01551 1.01713 1 0.998411
1.01254 1.01426 1 0.998309
1.00583 1.00756 1 0.998275
1.00961 1.01134 1 0.998287
1.00363 1.00536 1 0.99828
0.999092 1.00069 1 0.9984
1.00181 1.00349 1 0.99833
0.998703 1.00024 1 0.998468
0.998842 1 1 0.998842
0.998549 1 1 0.998545
0.998903 1 1 0.998903
0.999722 1 1 0.999722
0.998984 1 1 0.998984
0.999741 1 1 0.999741
0.999953 1 1 0.999953
0.999757 1 1 0.999757
0.999962 1 1 0.999962
0.999962 1 1 0.999962
1.0109 1.01265 1 0.998273
1.00252 1.00429 1 0.998233
1.00867 1.01052 1 0.998169
0.998606 1.00005 1 0.998556
1.00094 1.00256 1 0.998375
1.00721 1.00889 1 0.99833
0.999024 1 1 0.999024
0.998674 1 1 0.998674
0.999562 1.00102 1 0.998544
0.999756 1 1 0.999756
0.999147 1 1 0.999147
0.998765 1 1 0.998765
0.999287 1 1 0.999287
0.999826 1 1 0.999826
1 1 1 1
0.999898 1 1 0.999898
1 1 1 1
1 1 1 1
1.01363 1.01536 1 0.998297
1.01534 1.01705 1 0.998317
1.01731 1.01898 1 0.99836
1.01294 1.01479 1 0.998179
1.01324 1.015 1 0.998266
1.01539 1.01705 1 0.998365
1.01717 1.01874 1 0.998461
1.01632 1.01798 1 0.998373
1.01294 1.01467 1 0.998296
1.00655 1.00829 1 0.998274
1.01259 1.01432 1 0.998299
1.00573 1.00747 1 0.998276
1.00008 1.00173 1 0.998348
1.00374 1.00547 1 0.998282
0.999402 1.001 1 0.998401
0.998782 1 1 0.998782
0.998837 1.00037 1 0.998467
0.998841 1 1 0.998841
0.999665 1 1 0.999665
0.998902 1 1 0.998902
0.999704 1 1 0.999704
1 1 1 1
0.999735 1 1 0.999735
0.999958 1 1 0.999958
0.999963 1 1 0.999963
1.01071 1.01243 1 0.998299
1.00354 1.00529 1 0.998264
1.01078 1.01253 1 0.998274
0.999052 1.00066 1 0.998395
1.00237 1.00412 1 0.998251
1.00888 1.01074 1 0.998167
0.998863 1 1 0.998863
0.998589 1.00003 1 0.998554
1.00069 1.00231 1 0.998387
0.999709 1 1 0.999709
0.998993 1 1 0.998993
0.99864 1 1 0.998639
1 1 1 1
0.999766 1 1 0.999766
0.999149 1 1 0.999149
0.999835 1 1 0.999835
1 1 1 1
1 1 1 1
1.01244 1.01419 1 0.99827
1.01406 1.01578 1 0.998306
1.01513 1.01685 1 0.998314
1.00706 1.00885 1 0.998229
1.01265 1.01441 1 0.998266
1.0159 1.01756 1 0.998371
1.01286 1.01459 1 0.9983
1.00658 1.00832 1 0.998274
1.00077 1.00241 1 0.998367
1.00564 1.00737 1 0.998278
1.0003 1.00192 1 0.998378
0.998667 1 1 0.998667
0.999721 1.00132 1 0.998403
0.998782 1 1 0.998782
0.999624 1 1 0.999624
0.998839 1 1 0.998839
0.999663 1 1 0.999663
1 1 1 1
0.999684 1 1 0.999684
0.999974 1 1 0.999974
0.999961 1 1 0.999961
1.00905 1.01077 1 0.998294
1.00382 1.00553 1 0.9983
1.01066 1.01238 1 0.998299
0.999391 1.00099 1 0.998401
1.00381 1.00555 1 0.998264
1.01067 1.01242 1 0.998276
0.99877 1 1 0.99877
0.998989 1.00056 1 0.998432
1.0022 1.00393 1 0.998269
0.99968 1 1 0.99968
0.998851 1 1 0.998851
0.998572 1.00002 1 0.998552
1 1 1 1
0.999718 1 1 0.999718
0.998963 1 1 0.998963
1 1 1 1
0.999776 1 1 0.999776
1 1 1 1
1.00679 1.00855 1 0.998254
1.01207 1.01383 1 0.998269
1.01453 1.01625 1 0.998314
1.00036 1.00202 1 0.998336
1.00705 1.00883 1 0.998236
1.01212 1.01388 1 0.998266
1.00663 1.00837 1 0.998274
1.00077 1.00241 1 0.998367
0.998616 1 1 0.998616
1.00051 1.00211 1 0.998407
0.998696 1 1 0.998696
0.999563 1 1 0.999563
0.998782 1 1 0.998782
0.999621 1 1 0.999621
1 1 1 1
0.999661 1 1 0.999661
1 1 1 1
0.999954 1 1 0.999954
1.00394 1.00564 1 0.998313
1.00913 1.01085 1 0.998294
0.999147 1.00075 1 0.998402
1.00378 1.00549 1 0.9983
1.0106 1.01232 1 0.9983
0.998776 1 1 0.998776
0.999348 1.00095 1 0.998399
1.00406 1.0058 1 0.998265
0.999652 1 1 0.999652
0.998791 1 1 0.998791
0.998913 1.00044 1 0.99847
1 1 1 1
0.999685 1 1 0.999685
0.998838 1 1 0.998838
1 1 1 1
0.999726 1 1 0.999726
1 1 1 1
0.999911 1.00155 1 0.998366
1.00666 1.00842 1 0.998255
1.01163 1.01339 1 0.998268
0.998598 1 1 0.998598
1.00036 1.00203 1 0.998336
1.00699 1.00877 1 0.998243
1.00077 1.0024 1 0.998366
0.99862 1 1 0.99862
0.99951 1 1 0.99951
0.998725 1 1 0.998725
0.999559 1 1 0.999559
1 1 1 1
0.999618 1 1 0.999618
1 1 1 1
1 1 1 1
0.999051 1.00066 1 0.998388
1.00375 1.00545 1 0.998308
1.0092 1.01093 1 0.998295
0.998751 1 1 0.998751
0.999272 1.00087 1 0.9984
1.00372 1.00543 1 0.998299
0.99962 1 1 0.99962
0.998775 1 1 0.998775
0.999323 1.00093 1 0.998396
1 1 1 1
0.999655 1 1 0.999655
0.998812 1 1 0.998812
1 1 1 1
0.99969 1 1 0.99969
1 1 1 1
0.998663 1 1 0.998663
0.999893 1.00156 1 0.998337
1.00655 1.00831 1 0.998255
0.999492 1 1 0.999492
0.998599 1 1 0.998599
1.00036 1.00203 1 0.998336
0.998626 1 1 0.998626
0.999508 1 1 0.999508
1 1 1 1
0.999556 1 1 0.999556
1 1 1 1
1 1 1 1
0.99871 1 1 0.99871
0.99907 1.00069 1 0.998377
1.00358 1.00529 1 0.998304
0.999632 1 1 0.999632
0.998749 1 1 0.998749
0.999401 1.001 1 0.998398
1 1 1 1
0.999621 1 1 0.999621
0.998774 1 1 0.998774
1 1 1 1
0.999658 1 1 0.999658
1 1 1 1
0.999492 1 1 0.999492
0.998641 1 1 0.998641
0.999877 1.00157 1 0.998308
1 1 1 1
0.999491 1 1 0.999491
0.9986 1 1 0.9986
0.999506 1 1 0.999506
1 1 1 1
1 1 1 1
0.999586 1 1 0.999586
0.99871 1 1 0.99871
0.999081 1.00072 1 0.998367
1 1 1 1
0.999584 1 1 0.999584
0.998747 1 1 0.998747
1 1 1 1
0.999622 1 1 0.999622
1 1 1 1
0.999878 1 1 0.999878
0.999535 1 1 0.999535
0.998619 1 1 0.998619
1 1 1 1
0.999491 1 1 0.999491
1 1 1 1
0.999896 1 1 0.999896
0.999567 1 1 0.999567
0.99871 1 1 0.99871
0.999953 1 1 0.999953
0.999582 1 1 0.999582
1 1 1 1
1 1 1 1
0.999505 1 1 0.999505
1 1 1 1
0.999944 1 1 0.999944
0.999541 1 1 0.999541
1 1 1 1
1 1 1 1
1 1 1 1

VECTORS lamdaE float
0.999565 1.00024 0.995823
0.9995 0.999952 0.998215
0.999366 1.00043 0.995937
0.999858 0.999917 0.995747
0.999657 1.00007 0.995897
0.999485 1.00021 0.995867
1.00066 1.00062 0.993263
0.999479 0.999827 0.998269
0.999499 1.00029 0.99824
0.999188 1.0004 0.998351
0.999526 0.999547 0.996538
1.00033 1.00096 0.993121
0.999939 1.00001 0.995456
0.999652 0.999939 0.995795
0.999181 1.00067 0.99603
0.999706 0.999893 0.995896
0.999322 1.00042 0.995974
0.999476 1.00017 0.996017
1.00077 1.00051 0.99322
0.999912 1 0.997915
0.999914 0.999966 0.995586
0.999779 0.999932 0.995861
1.00111 0.999923 0.993175
1.00087 1.00021 0.99332
0.999458 0.999803 0.996236
1.00032 1.00106 0.993354
1.00286 1.00059 0.989497
0.999443 0.999715 0.998337
0.999605 1.00016 0.996977
0.999328 1.00032 0.997122
0.999479 0.999368 0.998447
1.00022 1.00108 0.993134
0.999848 0.999886 0.99568
0.999586 1.00044 0.995759
1.0012 1.0002 0.993446
0.999343 0.998766 0.998829
1.00069 1.00081 0.993764
1.00007 1.00086 0.993652
1.00153 1.00208 0.989853
0.999427 0.998071 0.999062
0.999938 1.00001 0.997886
0.99977 0.999981 0.996871
0.999949 1 0.997869
0.999657 1.00002 0.995766
1.00141 1.00005 0.991988
0.999687 0.999965 0.998188
1.00141 1.00003 0.993231
0.999553 0.999841 0.996046
0.999308 1.00028 0.996122
0.999129 1.00071 0.996088
1.00087 1.00038 0.993188
0.999835 1.00001 0.996789
0.999754 0.999953 0.99575
0.999323 0.999954 0.996341
0.999619 0.999948 0.995995
1.00118 0.999883 0.99312
1.00042 1.00099 0.993336
1.00097 1.00012 0.993273
1.00286 1.00063 0.989479
0.999916 1 0.997898
0.999957 1.00001 0.995472
1.00129 1.00001 0.993367
1.00118 0.999976 0.992996
1.00104 0.999964 0.993272
1.00341 0.999837 0.98921
1.00316 1.00003 0.98921
0.999548 0.999073 0.996772
0.999732 1.00123 0.994062
1.00214 1.00148 0.989841
1.00398 1.00031 0.987156
0.99972 1.00017 0.998044
0.999444 0.999162 0.998577
0.999446 1.00012 0.998189
1.00013 1.00116 0.993145
0.999867 1 0.998017
0.999617 1.00032 0.99807
1.0011 1.00016 0.992365
0.999398 0.998843 0.997955
1.0005 1.0009 0.992771
0.999972 1.00088 0.994235
1.00154 1.00204 0.98985
0.999464 0.998403 0.998885
0.999588 0.999398 0.996
1.00132 0.999922 0.992274
1.00095 1.0005 0.99243
1.00341 1.00017 0.988281
0.999786 1.00043 0.995426
1.00225 1.00135 0.989262
1.00086 1.00268 0.990514
1.0023 1.00232 0.988118
0.999443 0.997745 0.999173
0.999393 0.998009 0.999106
0.999895 0.999969 0.99797
0.999925 1 0.997905
0.999954 1 0.997875
0.999785 0.999997 0.996838
1.00142 1.00004 0.992595
0.999779 0.999954 0.996906
1.00137 1.00005 0.9927
0.999961 1 0.997869
1.00139 0.999995 0.992041
1.00143 1.00009 0.993173
1.00373 0.999869 0.988011
1.00138 0.999942 0.993343
1.00365 0.999925 0.98811
0.999917 1.00002 0.995503
0.999589 0.999922 0.995919
0.999178 1.0001 0.996471
0.999463 0.999954 0.996124
1.00125 0.999872 0.993065
1.00106 1.00002 0.993234
1.00053 1.00084 0.993314
1.00286 1.00067 0.98946
0.999947 1 0.997881
0.999787 1 0.995642
1.00138 0.999993 0.992395
1.00124 0.999951 0.992938
0.999444 0.999171 0.997665
0.999939 1.00112 0.994199
1.00111 0.999914 0.993222
1.00343 0.999819 0.989073
1.00219 1.00155 0.989759
1.00316 1.0001 0.989315
1.00394 1.00033 0.987175
1.00138 1.00002 0.992065
1.00125 0.999989 0.992842
1.00368 0.999768 0.988523
1.00349 0.999832 0.988803
1.00335 0.999801 0.989081
1.00455 0.999515 0.987169
0.999505 0.998602 0.998777
1.00425 0.99979 0.98718
0.999714 1.00087 0.994201
1.00103 1.00234 0.990351
1.00333 1.00157 0.987191
1.00469 0.999737 0.986417
0.999735 0.999972 0.995082
1.00017 1.00204 0.992301
0.999841 1.00003 0.998024
0.99954 1.00026 0.998103
1.00111 1.00015 0.992371
0.999426 0.99866 0.998819
0.999828 1.00104 0.993816
1.00042 1.00097 0.992777
1.00154 1.00201 0.989846
0.999419 0.998344 0.998952
0.999594 0.999322 0.996039
1.00133 0.999955 0.992839
1.0009 1.00051 0.993024
1.00341 1.00017 0.988284
0.999714 1.00043 0.994724
1.00224 1.00133 0.989278
1.00082 1.00268 0.990518
1.00231 1.00231 0.988058
0.999611 0.999951 0.995401
0.999672 0.998853 0.996409
1.00003 1.00145 0.993147
1.0036 0.999969 0.988136
1.00291 1.00072 0.988653
1.00452 0.999942 0.98648
1.00046 1.00257 0.991347
1.0032 1.00129 0.987413
1.00146 1.00347 0.988702
1.00254 1.00238 0.987697
0.999519 0.99745 0.999224
0.999435 0.997691 0.999192
0.999367 0.997947 0.999143
0.999745 0.999565 0.995489
0.999524 0.998303 0.998903
0.999892 0.99997 0.997997
0.999895 0.999986 0.99794
1.00131 1.00006 0.992156
1.00136 1.00005 0.992051
0.999933 1 0.997885
0.999948 1 0.99787
1.00139 1 0.992039
1.00137 1.00008 0.992643
1.00373 0.999869 0.988009
1.00131 0.999952 0.992231
1.00365 0.999928 0.988106
1.00139 0.999995 0.992036
1.00376 0.999808 0.988002
1.00367 0.999922 0.988073
1.00479 0.999401 0.986568
1.00366 0.99992 0.988099
1.00473 0.999599 0.986491
0.999947 1 0.99787
0.99962 1 0.995815
1.00138 0.999987 0.9915
1.00131 0.999944 0.992877
0.999266 0.999194 0.998675
1.00017 1.00098 0.994325
1.00118 0.999876 0.993175
1.00344 0.999789 0.988937
1.00315 1.00016 0.98942
1.00223 1.00165 0.989676
1.00391 1.00035 0.987193
1.00137 1 0.992063
1.00132 0.99999 0.992773
1.00368 0.999756 0.988241
1.00351 0.99987 0.988893
0.999503 0.998676 0.998729
0.99982 1.00077 0.994597
1.00114 1.00239 0.99047
1.00334 0.999837 0.989074
1.00455 0.999433 0.987037
1.00322 1.00156 0.987179
1.00425 0.999832 0.987286
1.00465 0.999759 0.98643
0.999725 1.00002 0.995074
1.0002 1.00197 0.992305
1.00375 0.999782 0.98805
1.00363 0.999823 0.988566
1.00476 0.999418 0.986885
1.00462 0.999405 0.986776
1.00445 0.999539 0.987249
1.00503 0.998958 0.986684
0.999724 1.00041 0.994639
1.00485 0.999195 0.986624
1.00049 1.00256 0.991114
1.00199 1.0028 0.987949
1.00409 1.00135 0.986295
1.00501 0.999072 0.986486
1.0003 1.00228 0.991862
1.00015 1.00151 0.992855
1.00048 1.00298 0.99087
1.00127 0.999936 0.992311
0.999378 0.998279 0.999014
0.999597 0.999242 0.996077
1.00077 1.00059 0.992519
1.00341 1.00018 0.988286
0.999679 1.00046 0.994673
1.00077 1.00268 0.990523
1.00222 1.00132 0.989294
1.00231 1.00228 0.987999
0.99961 0.99988 0.99543
0.999666 0.998815 0.996432
0.99999 1.0015 0.993161
1.0036 0.999981 0.988138
1.00291 1.0007 0.988666
1.00454 0.999929 0.986466
1.0004 1.00261 0.991356
1.00325 1.00133 0.987422
1.00143 1.00346 0.988685
1.00255 1.0023 0.987704
0.99977 0.99847 0.996609
1.00021 1.00207 0.992203
0.999977 1.00069 0.993997
1.0002 1.0028 0.991563
1.00469 0.999751 0.986399
1.00401 1.00058 0.986778
1.00503 0.999776 0.985748
1.00082 1.00366 0.989707
1.00384 1.00088 0.986881
1.00161 1.00406 0.987681
1.003 1.00174 0.987346
1.00025 0.999594 0.994631
0.99994 0.998039 0.996718
0.99962 0.99719 0.999248
0.999527 0.997395 0.999233
0.999431 0.997624 0.999209
0.99979 0.999191 0.995793
0.999526 0.998053 0.999001
0.999737 0.999617 0.995467
0.999538 0.998347 0.998861
1.00132 0.999969 0.992227
1.00133 1.00006 0.992096
1.00365 0.999931 0.988101
1.00373 0.999868 0.988008
1.00139 1.00001 0.992039
0.999963 1 0.997866
1.0014 0.999997 0.992035
1.00376 0.999814 0.988
1.00367 0.999928 0.988071
1.00479 0.999404 0.986561
1.00365 0.999932 0.988094
1.00473 0.999602 0.986484
1.00376 0.999796 0.988022
1.00482 0.999309 0.98661
1.00475 0.999523 0.986544
1.00513 0.998696 0.986661
1.00475 0.999662 0.986399
1.00512 0.999001 0.986365
1.00138 0.999991 0.99206
1.00139 0.999978 0.992703
1.00369 0.999731 0.98796
1.00353 0.999897 0.988982
0.999505 0.998751 0.998677
0.999933 1.00073 0.99494
1.00129 1.00241 0.990589
1.00333 0.999864 0.989066
1.00455 0.999348 0.986905
1.00425 0.999874 0.987392
1.0031 1.00155 0.987167
1.00462 0.999778 0.986442
0.99972 1.00006 0.995064
1.00024 1.0019 0.992308
1.00374 0.999749 0.987968
1.00365 0.999812 0.988555
1.00477 0.999368 0.986884
1.00463 0.999476 0.986902
0.999749 1.00041 0.99464
1.00058 1.00255 0.991094
1.00197 1.00281 0.988112
1.00445 0.999577 0.987264
1.00502 0.998867 0.986707
1.00404 1.00125 0.986187
1.00485 0.999206 0.986632
1.00501 0.999095 0.986458
1.00032 1.00222 0.991873
1.00042 1.00299 0.990887
1.00016 1.00151 0.992844
1.0048 0.999379 0.986842
1.00475 0.999404 0.98684
1.00513 0.99876 0.986693
1.00508 0.998892 0.986553
1.00496 0.998896 0.986694
1.00516 0.998125 0.987182
1.00036 1.0024 0.991598
1.00508 0.998641 0.986737
1.00115 1.00306 0.989535
1.00269 1.00325 0.986252
1.00456 1.00064 0.985922
1.00513 0.998619 0.986772
1.00016 1.00105 0.993305
1.00066 1.00272 0.990793
1.00028 1.00293 0.991183
1.00066 1.00316 0.990454
1.00359 0.999989 0.98814
0.999657 0.998787 0.996456
0.99961 0.999812 0.995459
0.999973 1.00153 0.993175
1.00291 1.00068 0.988679
1.00457 0.999918 0.986452
1.00034 1.00266 0.991365
1.00141 1.00348 0.988668
1.0033 1.00138 0.987432
1.00256 1.00223 0.987711
0.999765 0.998456 0.996616
1.00019 1.00212 0.992204
0.999983 1.00066 0.994017
1.00016 1.00287 0.991555
1.00469 0.999746 0.986393
1.00402 1.00058 0.986781
1.00503 0.999776 0.98573
1.00079 1.00363 0.989722
1.00385 1.00095 0.986898
1.00165 1.00412 0.987625
1.00291 1.00148 0.987768
0.999865 0.998211 0.996687
1.00007 1.0001 0.994452
1.00049 1.00324 0.990686
1.00014 1.002 0.992452
1.00013 1.00384 0.990693
1.00506 0.999505 0.985942
1.00468 1.00024 0.98597
1.0051 0.999616 0.985736
1.00097 1.00469 0.98836
1.00406 1.00046 0.986786
1.00219 1.00336 0.98679
1.00021 0.999655 0.994634
1.00024 1.0007 0.993572
1.00028 0.999566 0.994608
1.00024 0.99961 0.994627
0.999984 0.99786 0.997237
0.999927 0.998029 0.996968
0.999779 0.997007 0.998276
0.999634 0.997147 0.999253
0.999538 0.997342 0.999241
0.999849 0.998896 0.995991
0.999555 0.997832 0.999064
0.999785 0.999238 0.995773
0.999546 0.998091 0.99897
0.99973 0.999669 0.995446
0.999553 0.998398 0.998817
1.00365 0.999939 0.988088
1.00367 0.999933 0.988069
1.00472 0.999614 0.986477
1.00479 0.999406 0.986555
1.00376 0.999819 0.987997
1.00139 1 0.992035
1.00376 0.999793 0.988021
1.00482 0.999311 0.986609
1.00474 0.999535 0.986536
1.00513 0.998632 0.986736
1.00474 0.999663 0.986392
1.00511 0.999022 0.98636
1.00481 0.999289 0.98664
1.00513 0.998525 0.986871
1.00512 0.99882 0.986544
1.00516 0.997911 0.987417
1.00511 0.999253 0.986139
1.00516 0.997915 0.98736
1.00374 0.999717 0.987887
1.00366 0.999812 0.988544
1.00477 0.999324 0.986884
1.00463 0.999548 0.987027
0.999778 1.00041 0.994639
1.00062 1.00256 0.991074
1.00196 1.00282 0.988274
1.00446 0.999616 0.987278
1.00502 0.998776 0.986731
1.00484 0.999216 0.98664
1.00399 1.00115 0.986078
1.00501 0.999112 0.986429
1.00034 1.00216 0.991884
1.00041 1.00297 0.990905
1.00018 1.0015 0.992832
1.0048 0.999345 0.986746
1.00475 0.9994 0.986831
1.00513 0.998656 0.986758
1.00508 0.998924 0.986577
1.0004 1.00237 0.991594
1.00123 1.00305 0.989497
1.00255 1.00339 0.9865
1.00496 0.998994 0.986698
1.00515 0.997992 0.987321
1.00458 1.00051 0.985838
1.00507 0.998639 0.986762
1.00512 0.99858 0.986825
1.00068 1.00272 0.9908
1.00066 1.00318 0.990406
1.00017 1.00106 0.993295
1.00024 1.00289 0.991263
1.00512 0.998668 0.986745
1.00515 0.99881 0.9867
1.00517 0.998084 0.987183
1.00518 0.997726 0.987551
1.00512 0.998242 0.987152
1.00516 0.997184 0.988091
1.00085 1.00267 0.990486
1.00512 0.997787 0.987469
1.00127 1.00398 0.988067
1.00353 1.00315 0.985311
1.00498 0.99981 0.985839
1.00514 0.998315 0.986975
1.00018 1.00074 0.993604
1.00019 1.00252 0.99174
1.00082 1.00287 0.990374
1.00037 1.00349 0.99058
1.0008 1.003 0.990342
0.999758 0.998446 0.996624
1.00469 0.999743 0.986387
0.999993 1.00063 0.994037
1.00015 1.0022 0.992206
1.00011 1.00295 0.991547
1.00402 1.00059 0.986784
1.00502 0.999777 0.985713
1.00079 1.00354 0.989737
1.00172 1.0042 0.987569
1.00386 1.00101 0.986915
1.00283 1.00123 0.988187
0.999859 0.998211 0.996689
1.00008 1.00007 0.994462
1.00047 1.00323 0.990695
1.0001 1.00206 0.99246
1.00009 1.00394 0.990581
1.00507 0.999513 0.985916
1.00462 1.00026 0.985979
1.00511 0.999636 0.985703
1.00091 1.00476 0.988377
1.00407 1.00051 0.986843
1.00238 1.00324 0.986871
1.00016 0.999793 0.994601
1.00018 1.00126 0.993141
1.00056 1.00424 0.989566
0.999985 1.00328 0.99149
1.00022 1.00435 0.99013
1.00513 0.998944 0.986356
1.00481 0.999979 0.985806
1.00509 0.998568 0.986568
1.00108 1.00495 0.987727
1.00369 1.00154 0.986304
1.00021 0.999671 0.994631
1.00023 1.0007 0.993512
1.00023 1.0007 0.993537
1.00017 1.0014 0.993112
1.00024 1.00074 0.99354
1.00029 0.999591 0.994563
1.00027 0.999578 0.994606
1.00005 0.997735 0.997237
1.00024 0.999626 0.994623
0.999993 0.997857 0.997236
0.999885 0.996777 0.998301
0.999915 0.998023 0.997213
0.999752 0.996961 0.998772
0.999647 0.997106 0.999257
0.999913 0.998634 0.996147
0.999847 0.998925 0.995977
0.999608 0.997614 0.999106
0.999566 0.997864 0.999045
0.999778 0.999285 0.995753
0.999565 0.998124 0.998936
1.00474 0.999664 0.986386
1.00474 0.999538 0.986528
1.0051 0.999041 0.986355
1.00514 0.998568 0.986811
1.00482 0.999312 0.986608
1.00376 0.999791 0.988021
1.00481 0.999289 0.986642
1.00512 0.998532 0.986877
1.00512 0.99883 0.986542
1.00515 0.997805 0.987554
1.0051 0.999266 0.98612
1.00517 0.997805 0.987458
1.00511 0.998565 0.986878
1.00513 0.99792 0.987466
1.00515 0.997645 0.987705
1.00511 0.997221 0.988209
1.00515 0.998282 0.986968
1.00513 0.997086 0.988326
1.0048 0.999309 0.986649
1.00476 0.999402 0.986822
1.00512 0.99855 0.986823
1.00508 0.998953 0.9866
1.00045 1.00233 0.991591
1.0013 1.00304 0.989459
1.0024 1.00348 0.986747
1.00496 0.999093 0.986702
1.00514 0.997856 0.98746
1.00506 0.998637 0.986786
1.0046 1.00038 0.985754
1.00511 0.99855 0.986877
1.00067 1.00276 0.990807
1.0006 1.00326 0.990358
1.00018 1.00106 0.993285
1.00022 1.00284 0.991343
1.00511 0.998673 0.986747
1.00514 0.998845 0.986627
1.00518 0.998038 0.987243
1.00517 0.997816 0.987445
1.00087 1.00274 0.99046
1.00125 1.00391 0.988319
1.00343 1.00324 0.985263
1.00511 0.998346 0.987037
1.00516 0.997046 0.988196
1.005 0.999712 0.985832
1.00511 0.997802 0.98749
1.00515 0.9982 0.987011
1.00085 1.00287 0.990368
1.00081 1.00298 0.990355
1.00033 1.00357 0.990568
1.00017 1.00074 0.993527
1.00018 1.00246 0.99181
1.00514 0.997957 0.987451
1.00518 0.997764 0.98753
1.00516 0.996631 0.988678
1.00511 0.997045 0.988185
1.0009 1.00326 0.989815
1.00512 0.99742 0.987963
1.0013 1.0045 0.987185
1.00439 1.00225 0.984841
1.00516 0.999164 0.985954
1.00017 1.00048 0.993699
1.00018 1.00208 0.99236
1.00017 1.0032 0.991266
1.00092 1.00283 0.990281
1.00044 1.00383 0.990115
1.00098 1.00267 0.990176
0.999852 0.998212 0.996691
1.00008 1.00005 0.994472
1.00509 0.99952 0.985891
1.00006 1.00212 0.992468
1.00041 1.00324 0.990704
1.00005 1.00404 0.990469
1.00455 1.00028 0.985988
1.00511 0.999655 0.985669
1.00085 1.00473 0.988393
1.00256 1.00318 0.986953
1.00408 1.00055 0.986903
1.00015 0.999795 0.994602
1.00016 1.00126 0.993155
1.00052 1.00428 0.989549
0.999946 1.00332 0.991491
1.00018 1.00429 0.990119
1.00513 0.998985 0.986331
1.00485 0.999994 0.985772
1.00509 0.99855 0.986653
1.00108 1.00492 0.98762
1.00374 1.00167 0.986253
1.00022 1.00085 0.993481
0.999957 1.00249 0.992164
1.00066 1.00436 0.989165
0.999923 1.00426 0.990444
1.00048 1.00412 0.989801
1.00511 0.997242 0.987965
1.00493 0.99958 0.986104
1.00507 0.998103 0.987024
1.00199 1.00428 0.987188
1.004 1.00089 0.98593
1.0002 0.999686 0.994628
1.00024 1.00069 0.993551
1.00008 1.00146 0.993035
1.00022 1.00071 0.993501
1.00024 1.00074 0.99354
1.00013 1.00143 0.993058
1.00005 1.00185 0.992816
1.00013 1.00147 0.992951
1.00024 1.00081 0.993486
1.00027 0.999671 0.994516
1.00028 0.999604 0.994563
1.0001 0.997674 0.997205
1.00027 0.99959 0.994605
1.00006 0.997745 0.997232
0.999961 0.996642 0.998298
1 0.997857 0.997237
0.999874 0.996751 0.998306
0.999722 0.996904 0.999277
0.999971 0.998373 0.99631
0.999914 0.998649 0.996136
0.999679 0.997372 0.999143
0.999845 0.998956 0.995963
0.999612 0.997653 0.999093
0.99958 0.997897 0.999025
1.0051 0.999278 0.986102
1.00513 0.998842 0.986539
1.00517 0.997693 0.987556
1.00515 0.997699 0.987691
1.00512 0.99854 0.986882
1.00481 0.999289 0.986643
1.00511 0.998609 0.986827
1.00514 0.997978 0.987412
1.00515 0.997705 0.987622
1.00511 0.997096 0.9883
1.00515 0.998305 0.986968
1.00514 0.996901 0.988419
1.0051 0.99804 0.987449
1.00512 0.997211 0.988162
1.00511 0.996615 0.988764
1.00513 0.996821 0.988588
1.00511 0.998677 0.986748
1.00514 0.998879 0.986553
1.00518 0.997996 0.987302
1.00517 0.997907 0.987338
1.00091 1.00277 0.990433
1.00124 1.0038 0.988572
1.00332 1.00336 0.985216
1.0051 0.998453 0.986921
1.00516 0.996914 0.9883
1.0051 0.997818 0.987512
1.00502 0.999603 0.985825
1.00515 0.998098 0.987049
1.00089 1.00289 0.990362
1.00086 1.00291 0.990367
1.00028 1.00364 0.990556
1.00017 1.00073 0.993449
1.00016 1.0024 0.991879
1.00515 0.997972 0.987437
1.00518 0.997784 0.987532
1.00515 0.996742 0.988547
1.00097 1.00326 0.989777
1.00146 1.00451 0.987351
1.00426 1.0021 0.984815
1.00512 0.997104 0.988165
1.00516 0.999023 0.986111
1.00512 0.997374 0.987825
1.00017 1.00045 0.993738
1.00097 1.00279 0.990259
1.00093 1.00259 0.990378
1.00046 1.00393 0.990039
1.00018 1.00319 0.991284
1.00017 1.00207 0.992297
1.00513 0.99748 0.98782
1.00516 0.996517 0.988727
1.00511 0.996075 0.989104
1.00513 0.996353 0.98893
1.00102 1.00364 0.989236
1.00511 0.997962 0.987271
1.00223 1.00434 0.985852
1.00474 1.00129 0.985028
1.00017 1.00014 0.994021
1.00018 1.00178 0.992669
1.00018 1.00278 0.991734
1.00012 1.00386 0.990635
1.00106 1.00273 0.990016
1.00105 1.00311 0.989726
1.00015 0.999796 0.994603
1.00014 1.00124 0.993171
1.00513 0.999026 0.986307
0.99991 1.00335 0.991491
1.00047 1.00438 0.989532
1.00009 1.00428 0.990109
1.00489 1.00001 0.98574
1.00509 0.998534 0.986737
1.0011 1.0049 0.987511
1.00379 1.00179 0.986202
1.00021 1.00083 0.99349
0.999995 1.00246 0.992205
1.00066 1.00441 0.989185
0.999856 1.00443 0.99043
1.00035 1.00394 0.990113
1.00512 0.99721 0.988145
1.00499 0.999601 0.985994
1.00506 0.99817 0.987029
1.00187 1.0044 0.987061
1.00402 1.00079 0.986199
1.00003 1.00172 0.992824
0.999846 1.00356 0.99116
1.00103 1.00408 0.988842
0.999989 1.00478 0.989348
1.00514 0.995775 0.989437
1.00507 0.996949 0.988455
1.00504 0.999352 0.986002
1.00262 1.00277 0.986033
1.00025 1.00066 0.993591
1.00009 1.00148 0.993052
0.999929 1.00212 0.992756
1.00023 1.00075 0.993539
1.0001 1.00144 0.993003
1.00024 1.0008 0.993482
1.00004 1.00184 0.992786
1.00014 1.00145 0.992976
1 1.00212 0.992604
1.0001 1.00185 0.992676
1.00016 1.00153 0.99282
1.00024 1.0009 0.993386
1.00024 0.99975 0.994485
1.00027 0.999673 0.994515
1.00013 0.997662 0.997162
1.00028 0.99961 0.994563
1.0001 0.997699 0.997197
1.00002 0.996567 0.998273
1.00006 0.997757 0.997228
0.999953 0.996613 0.998305
0.999864 0.996727 0.998309
1.00003 0.998111 0.996472
0.999975 0.998381 0.9963
0.999756 0.997116 0.999185
0.999914 0.998669 0.996125
0.999676 0.997424 0.999132
0.999617 0.997687 0.99908
1.00514 0.998328 0.986967
1.00514 0.997768 0.987539
1.00515 0.996718 0.988511
1.00511 0.996973 0.98839
1.00514 0.998036 0.987358
1.00511 0.998654 0.986776
1.00511 0.998032 0.987437
1.00511 0.997245 0.988142
1.00511 0.996631 0.98871
1.00513 0.996775 0.988617
1.0051 0.997459 0.987993
1.00515 0.996261 0.989169
1.00514 0.995814 0.989321
1.00515 0.997987 0.987423
1.00518 0.997805 0.987534
1.00515 0.996855 0.988417
1.00103 1.00326 0.989738
1.00163 1.00454 0.987517
1.00412 1.00197 0.98479
1.00512 0.99716 0.988145
1.00513 0.997325 0.987686
1.00516 0.998889 0.986269
1.00101 1.00276 0.990238
1.00086 1.00253 0.990582
1.00048 1.00401 0.989963
1.00017 1.00041 0.993777
1.00018 1.00319 0.991302
1.00016 1.00206 0.992235
1.00513 0.997527 0.987849
1.00517 0.996493 0.988791
1.00511 0.996099 0.989125
1.00106 1.00367 0.989187
1.00208 1.0045 0.986178
1.00473 1.001 0.985123
1.00512 0.996407 0.988861
1.00511 0.997932 0.987244
1.00017 1.00013 0.994139
1.00018 1.00178 0.992664
1.00095 1.00263 0.990097
1.001 1.00306 0.990028
1.00016 1.00382 0.99062
1.00015 1.00283 0.991677
1.00518 0.996481 0.988774
1.00513 0.995468 0.989743
1.00511 0.995657 0.989589
1.00507 0.996621 0.988877
1.00104 1.00387 0.988451
1.0049 0.999625 0.986006
1.00325 1.00365 0.985589
1.00018 0.999885 0.99446
1.00014 1.00114 0.99332
1.00015 1.00154 0.992769
1.00011 1.00262 0.99192
1.00003 1.0035 0.991134
1.00006 1.00395 0.990443
1.00155 1.0013 0.990316
1.00091 1.00265 0.99101
1.0002 1.00083 0.993499
1.00003 1.00244 0.992245
1.00512 0.997181 0.988324
0.999881 1.00451 0.990415
1.00065 1.00447 0.989207
1.0002 1.00377 0.990425
1.00505 0.999602 0.985883
1.00505 0.99823 0.987036
1.00173 1.00447 0.986937
1.00401 1.00064 0.986468
1.00005 1.00175 0.992771
0.999897 1.0036 0.991161
1.00094 1.00415 0.988896
1.0002 1.00474 0.989476
1.00514 0.995716 0.989533
1.00506 0.99705 0.988247
1.00494 0.999326 0.986128
1.003 1.00287 0.985953
0.999873 1.00265 0.9923
1.00514 0.995088 0.990017
1.00003 1.00462 0.990302
1.00113 1.00479 0.98787
1.00507 0.99581 0.989702
1.00497 0.998253 0.98681
1.00426 1.00155 0.985562
1.00009 1.00151 0.993068
0.999928 1.00211 0.992743
0.999812 1.00264 0.992459
1.00024 1.00079 0.993479
1.00014 1.00145 0.993
1.00001 1.00185 0.992756
1.00024 1.00089 0.993378
1.00015 1.00153 0.99284
0.999975 1.00216 0.992565
1.00012 1.00182 0.992713
1.00004 1.00223 0.992397
1.00009 1.00205 0.992485
1.00016 1.00195 0.992518
1.00027 1.00156 0.992654
1.00025 1.00099 0.993269
1.00021 0.999819 0.99446
1.00024 0.999756 0.994484
1.00015 0.997679 0.997111
1.00027 0.999682 0.994514
1.00013 0.99769 0.997155
1.00006 0.996514 0.998246
1.00011 0.997721 0.997191
1.00002 0.99653 0.99828
0.999945 0.996585 0.998309
1.00017 0.999731 0.994641
1.00007 0.997894 0.996609
1.00003 0.998119 0.996463
0.999834 0.996879 0.999221
0.999978 0.998393 0.996289
0.99975 0.997172 0.999172
0.999674 0.997472 0.99912
1.00513 0.996728 0.988646
1.00511 0.996647 0.988656
1.00509 0.997278 0.988122
1.00511 0.998022 0.987424
1.00509 0.997407 0.988065
1.00514 0.996268 0.989112
1.00514 0.995838 0.989309
1.00518 0.996348 0.988902
1.00519 0.995216 0.990047
1.00507 0.994882 0.990425
1.00513 0.997573 0.987878
1.00517 0.996466 0.988855
1.00511 0.996113 0.989146
1.00109 1.0037 0.989139
1.00192 1.00466 0.986505
1.0047 1.0007 0.985219
1.00511 0.996466 0.988793
1.00511 0.997883 0.987218
1.00084 1.00256 0.990177
1.00097 1.00301 0.990324
1.00011 1.00389 0.990605
1.00017 1.00011 0.994258
1.00018 1.00178 0.992659
1.00012 1.00288 0.991621
1.00519 0.996385 0.988881
1.00018 0.999889 0.994458
1.00013 1.00115 0.993267
1.00512 0.995546 0.989737
1.0051 0.995616 0.989546
1.00089 1.00401 0.988786
1.00313 1.00364 0.985515
1.0048 0.999593 0.986005
1.00499 0.996603 0.98875
1.00016 1.00153 0.992927
1.00012 1.0026 0.99191
1.0017 1.00158 0.990036
1.00057 1.00254 0.991321
1.00005 1.00403 0.990443
1.00004 1.00347 0.991168
1.00518 0.995331 0.989852
1.00509 0.995088 0.990145
1.00507 0.995189 0.989837
1.00505 0.996783 0.988216
1.00138 1.00307 0.989011
1.00386 1.0027 0.985502
1.00012 1.00097 0.993376
1.00014 1.00131 0.993138
1.00006 1.0022 0.992531
1.00007 1.00262 0.991815
1.00002 1.00329 0.991536
1.00006 1.00383 0.990585
0.999627 1.00451 0.990682
1.00094 1.00129 0.991512
1.00007 1.00176 0.992718
0.999954 1.00363 0.991162
1.00514 0.995637 0.989628
1.00506 0.997169 0.98804
1.00038 1.00473 0.989604
1.00088 1.0042 0.988947
1.00487 0.99931 0.986252
1.00334 1.00301 0.98587
0.999879 1.00264 0.992268
1.00514 0.995045 0.990057
0.999909 1.00456 0.990391
1.00113 1.00466 0.987845
1.00506 0.995723 0.989581
1.00493 0.998243 0.987043
1.00414 1.00176 0.985599
0.999831 1.00386 0.991361
1.00489 0.995114 0.991201
1.00068 1.00475 0.989572
1.00218 1.00445 0.9872
1.00483 0.996673 0.988795
1.00392 1.0006 0.986568
0.999631 0.998604 0.992244
0.999925 1.0021 0.99273
0.999791 1.00267 0.992445
0.999955 1.00286 0.992076
1.00025 1.00088 0.99337
1.00015 1.00154 0.992859
1.00014 1.00178 0.992752
0.999963 1.00217 0.992527
1.00025 1.00098 0.993265
1.00025 1.00157 0.992653
1.00004 1.00228 0.992336
1.00015 1.00196 0.992517
1.00011 1.00203 0.992508
1.00017 1.00205 0.992375
1.00022 1.00204 0.992286
1.00022 1.00194 0.992415
1.00035 1.00163 0.992441
1.00028 1.00104 0.993072
1.00026 1.00156 0.992772
1.00027 1.00105 0.993077
1.00021 0.999853 0.994436
1.00021 0.999822 0.99446
1.00018 0.99774 0.99656
1.00024 0.99976 0.994483
1.00017 0.997714 0.996849
1.00003 0.996458 0.999245
1.00014 0.99772 0.997149
1.00006 0.996474 0.998252
1.00001 0.996494 0.998284
1.00015 0.999604 0.994794
1.00017 0.999724 0.994639
1.00011 0.997728 0.996723
1.00007 0.997895 0.996857
0.999902 0.996679 0.999253
1.00004 0.998125 0.996453
0.999826 0.996929 0.99921
0.999744 0.99723 0.999159
1.00514 0.995862 0.989298
1.00514 0.996271 0.989055
1.00509 0.997357 0.988136
1.00517 0.996339 0.988898
1.00519 0.995266 0.989927
1.00507 0.99489 0.990333
1.00518 0.994937 0.990184
1.00078 0.998405 0.988475
1.0047 0.994954 0.991998
1.0001 1.00087 0.993662
1.00519 0.996289 0.988988
1.00512 0.995632 0.98973
1.0051 0.995576 0.989502
1.00075 1.00413 0.989121
1.00304 1.00363 0.985442
1.00471 0.999583 0.986004
1.00491 0.996599 0.98862
1.00189 1.00176 0.989764
1.00023 1.00244 0.991642
1.00009 1.00404 0.990443
1.00018 0.999894 0.994456
1.00006 1.00343 0.991202
1.00018 1.0015 0.993087
1.00012 1.00259 0.991899
1.00012 1.00115 0.993215
1.00519 0.995186 0.989978
1.00012 1.00095 0.993471
1.00015 1.0013 0.993137
1.00008 1.00218 0.992422
1.00509 0.995117 0.990147
1.00508 0.995317 0.989688
1.00146 1.00289 0.989074
1.00348 1.00245 0.985684
1.00496 0.997046 0.988188
1.00009 1.00261 0.991886
1.00004 1.00325 0.991455
1.00088 1.00167 0.991223
0.99971 1.00443 0.990796
1.00012 1.00376 0.990644
1.00509 0.994991 0.99044
1.00509 0.99527 0.990011
1.00509 0.99575 0.98923
1.00411 0.999583 0.987924
1.00101 1.00306 0.989743
1.00008 1.00198 0.992435
1.00007 1.00238 0.992041
0.999942 1.00311 0.991742
0.999997 1.00352 0.991266
0.999913 1.00379 0.990979
0.999768 1.00454 0.990434
0.999786 1.00463 0.990441
0.999891 1.00264 0.992235
0.999788 1.00445 0.99048
1.00514 0.995018 0.990095
1.00505 0.99562 0.989461
1.00491 0.998211 0.987275
1.00113 1.00449 0.987822
1.00406 1.00197 0.985637
0.99978 1.00374 0.991515
1.00483 0.995054 0.991203
1.00038 1.00457 0.989752
1.00179 1.00457 0.987244
1.00485 0.99646 0.989038
1.00402 1.00052 0.986489
0.999598 0.998565 0.99051
0.999964 1.00407 0.990909
1.00442 0.995625 0.991617
1.00034 1.00468 0.989674
1.00216 1.00316 0.987446
1.00419 0.997839 0.987885
1.00093 0.995454 0.95845
0.995979 0.998065 0.976985
0.998542 1.00088 0.992167
0.999868 0.996553 0.92739
0.99491 0.998127 0.915235
0.999779 1.00269 0.992431
0.999855 1.0029 0.992149
1.00001 1.00235 0.992417
1.00025 1.00098 0.99326
1.00026 1.00153 0.992652
1.00015 1.00196 0.992517
1.00013 1.00202 0.992532
1.00005 1.00234 0.992275
1.00023 1.00191 0.99238
1.00027 1.00103 0.993133
1.00035 1.00162 0.992461
1.00016 1.00207 0.992362
1.00021 1.00205 0.992308
1.00025 1.00202 0.992246
1.00019 1.0018 0.992495
1.00034 1.00195 0.992192
1.0004 1.00167 0.99228
1.00028 1.00107 0.993034
1.00035 1.00162 0.992507
1.00029 1.00177 0.992483
1.00015 1.0016 0.992814
1.00027 1.00157 0.99271
1.00025 1.00098 0.99327
1.00027 1.00106 0.993068
1.00022 0.99985 0.994416
1.00021 0.999853 0.994436
1.00017 0.997797 0.996542
1.00021 0.999823 0.994459
1.00018 0.997745 0.996559
1.00004 0.996458 0.999239
1.00018 0.997746 0.996588
1.00006 0.996458 0.998732
1.00006 0.996435 0.998256
1.00014 0.999524 0.994903
1.00015 0.999608 0.994792
1.00013 0.997599 0.996806
1.00018 0.999721 0.994638
1.0001 0.997704 0.996972
0.999957 0.99651 0.999279
1.00008 0.997926 0.996578
0.999892 0.996758 0.999237
0.999818 0.996975 0.9992
1.00519 0.995316 0.989806
1.00517 0.996332 0.988894
1.00508 0.994897 0.990241
1.0008 0.997769 0.988584
1.00517 0.994962 0.990154
1.00467 0.995239 0.99181
1.00492 0.996001 0.99083
0.997123 0.998354 0.974529
1.00189 0.996303 0.990035
1.0001 1.00083 0.99371
1.00011 1.00086 0.993658
1.00001 1.00193 0.992732
1.00007 1.0017 0.992873
1.00519 0.99505 0.990105
1.00509 0.995106 0.990149
1.0051 0.995456 0.989538
1.00162 1.00271 0.989137
1.00308 1.00214 0.985863
1.00486 0.99736 0.98816
1.00077 1.00214 0.990923
0.999809 1.00435 0.990908
1.00015 1.00369 0.990702
1.00015 1.00132 0.993136
1.00006 1.0032 0.991374
1.00009 1.00261 0.991957
1.00012 1.00093 0.993567
1.00009 1.00218 0.992313
1.00506 0.994969 0.990419
1.00006 1.00203 0.99256
1.00009 1.00237 0.992124
0.999909 1.00298 0.991871
1.0051 0.995172 0.99004
1.00509 0.995651 0.989215
1.00121 1.00281 0.989711
1.00407 0.999568 0.987952
0.999998 1.00355 0.991267
0.999958 1.00376 0.990945
0.999815 1.0046 0.990446
0.999951 1.00449 0.990421
1.00503 0.995795 0.990067
1.00507 0.995087 0.990193
1.00427 0.997778 0.989021
1.00122 1.00245 0.990154
0.999966 1.00319 0.99152
0.999984 1.0034 0.991284
0.999734 1.00432 0.990798
0.999821 1.00515 0.98974
1.00028 0.994933 0.953723
0.999719 1.00369 0.991668
1.00005 1.00443 0.989931
1.00478 0.995006 0.9912
1.00488 0.996262 0.98928
1.0041 1.0004 0.98641
1.00137 1.00464 0.987286
0.999633 0.998453 0.988741
0.999819 1.0041 0.99105
1.00446 0.995508 0.991572
1.00024 1.00462 0.989729
1.0022 1.00303 0.987432
1.0044 0.997851 0.988025
1.00146 0.995728 0.953436
0.995685 0.998263 0.97317
0.99852 1.00082 0.992146
0.999638 0.997021 0.929493
0.99467 0.998119 0.90869
0.999778 1.00365 0.991725
0.999894 0.995252 0.932852
0.995029 0.999059 0.916561
1.00361 0.997806 0.991008
1.00001 1.00462 0.990173
1.00267 1.00143 0.987764
0.997717 1.00177 0.993217
0.999495 0.996737 0.957778
0.994856 0.998613 0.97144
0.998391 0.998159 0.931824
0.994737 0.9998 0.917478
0.999759 1.00295 0.992221
0.999946 1.00251 0.992364
0.99991 1.00135 0.993782
1.00027 1.00102 0.993194
1.00034 1.00162 0.992482
1.0002 1.00195 0.992344
1.0002 1.00207 0.99233
1.00016 1.00209 0.992349
1.00029 1.00107 0.993035
1.00025 1.00206 0.992224
1.00033 1.00195 0.992217
1.0004 1.00166 0.992346
1.0002 1.00175 0.992557
1.00031 1.002 0.992215
1.00026 1.00121 0.992929
1.00044 1.00197 0.991988
1.0004 1.00166 0.99237
1.00037 1.00161 0.992498
1.00029 1.00176 0.992481
1.00042 1.00174 0.992236
1.00016 1.00189 0.99254
1.00021 1.00175 0.992518
0.999863 1.0026 0.992298
1.00006 1.00173 0.992857
1.00015 1.00162 0.992815
1.00022 1.00096 0.993337
1.00027 1.00159 0.992649
1.00026 1.00099 0.993223
1.00025 0.999824 0.994412
1.00027 1.00107 0.99306
1.00023 0.999846 0.994417
1.00012 0.997829 0.99707
1.00021 0.999853 0.994436
1.00016 0.997787 0.996805
1.00009 0.996486 0.998185
1.00018 0.99775 0.996558
1.00004 0.996464 0.999237
1.00009 0.996461 0.998217
1.00011 1.00089 0.993625
1.00014 0.999496 0.994932
1.00014 0.999523 0.994902
1.00015 0.997525 0.996853
1.00015 0.999609 0.99479
1.00014 0.997583 0.996805
1 0.996391 0.999295
1.00009 0.997714 0.997203
0.99997 0.996578 0.998774
0.999934 0.9968 0.998215
1.00074 0.997126 0.988712
1.00517 0.994984 0.990125
1.00465 0.995536 0.991621
0.996516 0.997766 0.976172
1.00166 0.996594 0.990271
1.00497 0.995513 0.990694
1.00407 0.995991 0.990224
0.99789 0.996359 0.978842
1.00015 0.995511 0.956838
0.999054 0.997518 0.933005
0.994627 0.998161 0.913887
1.00001 1.0018 0.992725
1.0001 1.00083 0.993707
1.00012 1.00084 0.993653
1.00003 1.00193 0.992696
0.999985 1.00267 0.992089
1.00016 1.00224 0.992254
1.0001 1.00185 0.992714
1.00004 1.00179 0.992803
1.00507 0.994943 0.990396
1.00512 0.995059 0.990064
1.00508 0.995471 0.989202
1.00135 1.00257 0.989681
1.00405 0.999502 0.987979
0.999845 1.00455 0.990454
1.00013 1.00444 0.99041
1.00001 1.00375 0.99091
1.00009 1.00236 0.992207
0.999991 1.00358 0.991266
1.00006 1.00208 0.992685
0.999908 1.00283 0.992
1.00501 0.995569 0.99009
0.999954 1.00316 0.991599
0.999965 1.00341 0.991373
1.00503 0.995067 0.990074
1.00389 0.997481 0.989376
1.0014 1.00231 0.989995
0.999813 1.00439 0.990702
0.99997 1.00508 0.989752
1.00309 0.999966 0.990105
1.00443 0.995993 0.991024
1.00238 0.998735 0.990402
1.00062 1.003 0.990389
0.999951 1.00358 0.991102
0.999808 1.00428 0.990796
0.99974 1.00504 0.990136
0.999944 0.994854 0.93218
1.00088 0.994951 0.960718
0.999689 1.00412 0.991191
1.00016 1.00451 0.989783
1.00447 0.995358 0.991533
1.0046 0.99789 0.988164
1.00226 1.003 0.987419
1.00032 0.995203 0.956574
0.996064 0.99853 0.972992
0.998474 1.00061 0.992117
0.998497 0.996835 0.93484
0.994611 0.998131 0.902111
0.999686 1.00363 0.991752
0.9999 0.99571 0.931533
0.995155 0.99894 0.913419
1.00363 0.997704 0.99097
0.999923 1.00453 0.990298
1.00222 1.00138 0.988505
0.998048 1.00148 0.993894
1.00089 0.996665 0.953976
0.995206 0.997956 0.974667
0.998458 0.998776 0.932076
0.994883 0.999776 0.915504
0.999297 1.00316 0.993161
0.995191 0.998768 0.918555
0.994968 1.00183 0.933175
1.0005 1.00003 0.99341
0.999217 1.00421 0.992416
0.996719 1.0027 0.994577
0.994865 0.999679 0.976385
0.997336 0.998796 0.951994
0.995315 0.999877 0.936287
0.994703 0.999248 0.924767
0.99992 1.00264 0.992311
0.999939 1.00137 0.993682
0.999689 0.999893 0.995206
1.00029 1.00106 0.993036
1.00039 1.00165 0.992413
1.00031 1.00194 0.992242
1.00025 1.00209 0.992203
1.0002 1.00171 0.99262
1.0004 1.00168 0.992364
1.00031 1.002 0.992215
1.00044 1.00198 0.991987
1.00013 1.00118 0.993114
0.999671 1.00073 0.994469
1.0004 1.00183 0.992235
1.00052 1.00188 0.991986
1.00038 1.0016 0.99249
1.0003 1.00174 0.992479
1.00043 1.00175 0.992232
1.00016 1.00189 0.992532
1.00022 1.00173 0.992561
1.00001 1.00213 0.992519
1.00031 1.00169 0.992374
1.00006 1.00179 0.992777
1.00006 1.00269 0.99191
0.999682 1.00469 0.990277
0.999681 1.00327 0.991781
0.999865 1.00266 0.992278
0.999975 1.00193 0.992793
1.00006 1.00174 0.992854
1.00018 1.00097 0.993384
1.00015 1.00164 0.992815
1.00023 1.00096 0.99334
1.00025 0.99979 0.99443
1.00026 1.00099 0.993176
1.00025 0.99981 0.994414
1.0001 0.997866 0.997082
1.00023 0.999838 0.994418
1.00014 0.99782 0.996811
1.00006 0.996503 0.998194
1.00018 0.997771 0.996543
1.00003 0.996489 0.999233
1.00004 0.996468 0.999235
1.00015 1.00098 0.993658
1.00015 0.999545 0.994865
1.00011 1.00089 0.993625
1.00016 0.997496 0.996866
1.00014 0.999494 0.994932
1.00014 0.999527 0.9949
1.00015 0.997525 0.99685
1.00003 0.996327 0.999304
1.00011 0.997578 0.997282
1.00002 0.996414 0.998807
1 0.996573 0.998293
0.999879 0.995793 0.927941
0.99519 0.998492 0.916786
0.997684 0.997169 0.977037
1.00145 0.996832 0.990511
1.00499 0.994991 0.99056
0.997037 0.996257 0.980936
1.00406 0.99582 0.990338
1.0012 0.995556 0.956849
0.999836 0.996544 0.927889
0.994625 0.998148 0.907239
0.998495 0.997462 0.983992
0.999226 0.997186 0.958294
0.998389 0.998546 0.930371
0.99474 0.999712 0.915774
1.0001 1.0026 0.991895
1.00003 1.00179 0.992791
1.00011 1.00081 0.993704
1.00004 1.00191 0.992661
0.999983 1.00256 0.992185
1.00021 1.00237 0.992037
1.00017 1.0022 0.992247
1.00017 1.00196 0.992421
1.0001 1.00185 0.992648
1.00002 1.00186 0.992734
1.00495 0.995201 0.990118
1.00503 0.995087 0.989968
1.0035 0.997176 0.989735
1.00153 1.00223 0.989836
1.00014 1.00501 0.989765
0.999905 1.00444 0.990607
0.999938 1.00343 0.991462
0.999927 1.00314 0.991677
1.00331 0.998764 0.990309
0.999951 1.0036 0.991096
0.999823 1.0043 0.990692
1.00431 0.995854 0.990751
1.00209 0.998893 0.990988
1.00082 1.00314 0.989936
0.999905 1.00503 0.99004
1.00011 1.00032 0.993157
1.0016 0.998211 0.993823
0.999747 1.00412 0.990616
1.00001 1.00341 0.991215
0.999915 1.0042 0.990523
0.999835 1.00497 0.990113
0.99478 0.998753 0.928805
0.999933 0.995112 0.934762
1.00041 0.994921 0.953586
0.99957 1.00373 0.99178
0.999849 1.0044 0.990426
1.00367 0.997589 0.990933
1.0018 1.00154 0.989244
0.999891 0.995401 0.935364
0.999038 0.996664 0.954156
0.994898 0.997376 0.971468
0.998417 1.00055 0.994506
0.998316 0.998299 0.926369
0.995149 0.998793 0.914163
0.995012 0.999769 0.918088
0.999125 1.00317 0.993168
0.995164 0.998571 0.922154
0.995158 1.00197 0.932614
1.00081 0.999991 0.993465
0.998801 1.00441 0.992408
0.996457 1.00063 0.997166
0.995017 0.998995 0.974065
0.997682 0.998878 0.958092
0.997424 0.999881 0.930626
0.994697 0.999215 0.927818
0.997977 1.00227 0.996042
0.994953 1.00028 0.942689
0.994472 1.00093 0.946455
0.996242 1.00237 0.998943
0.994893 0.999978 0.982991
0.995505 1.00005 0.957756
0.994816 0.999918 0.930465
0.994784 0.998069 0.925194
0.999943 1.00137 0.993586
0.999752 0.999936 0.995347
0.999257 0.999587 0.996779
1.0004 1.00169 0.992359
1.00044 1.002 0.991985
1.00031 1.00199 0.992215
1.00002 1.00116 0.993299
1.00048 1.00191 0.991981
1.00038 1.00184 0.992218
0.999645 1.00049 0.994736
0.998492 1.00049 0.996791
0.999853 1.00149 0.993633
1.00043 1.00184 0.992115
1.00043 1.00175 0.992228
1.00017 1.00189 0.992524
1.00022 1.00173 0.992603
1.00031 1.00171 0.992393
1.00002 1.00216 0.99251
1.00009 1.00181 0.992766
1.00007 1.00201 0.992651
0.999817 1.00162 0.99334
1.00027 1.00184 0.992261
1.00008 1.00259 0.992021
0.999755 1.00404 0.990959
1.00054 1.00494 0.988814
0.999814 1.0041 0.99118
0.999614 1.00472 0.990491
0.999726 1.00328 0.991883
0.999877 1.00234 0.992409
0.99987 1.00271 0.992258
0.999999 1.00194 0.992783
1.00015 1.00104 0.993385
1.00008 1.00174 0.99285
1.0002 1.00097 0.993383
1.00022 0.999814 0.99445
1.00024 1.00096 0.993343
1.00025 0.999791 0.994431
1.00006 0.99791 0.997105
1.00025 0.999806 0.994416
1.00011 0.997858 0.996828
1 0.996589 0.998207
1.00016 0.997797 0.996548
1.00003 0.996519 0.998712
1.00003 0.996504 0.999234
1.00017 1.00111 0.993328
1.00017 0.99962 0.99476
1.00012 1.00101 0.993517
1.00016 0.997518 0.996845
1.00015 0.999536 0.99487
1.0001 1.00091 0.993624
1.00003 0.996309 0.999306
1.00016 0.997496 0.996867
1.00014 0.999486 0.994932
1.00015 0.997526 0.996848
1.00002 0.996337 0.999302
0.999997 0.996411 0.99929
0.994779 0.997694 0.924554
0.999906 0.995382 0.930923
0.995172 1.00197 0.932569
0.995194 0.998827 0.914681
0.997884 0.9962 0.977426
1.00401 0.996085 0.99045
1.00079 0.99595 0.956648
0.99987 0.996756 0.933776
0.994628 0.998144 0.900602
0.998438 0.997373 0.982743
1.00102 0.99688 0.950784
0.998556 0.998801 0.93072
0.994718 0.99977 0.912191
0.994936 1.00041 0.979003
0.998424 0.999818 0.950996
0.995875 0.999814 0.927846
0.994705 0.998844 0.919539
1.00013 1.00293 0.991575
1.00008 1.00261 0.991986
1.00001 1.00185 0.992858
0.999989 1.00247 0.992281
1.00029 1.00244 0.991703
1.0002 1.00234 0.992082
1.00015 1.00218 0.99224
1.00028 1.00188 0.992401
1.00021 1.00192 0.992492
1.00011 1.00186 0.992582
1.00351 0.99773 0.990517
1.0042 0.995799 0.990482
1.00187 0.999126 0.991568
1.00106 1.00321 0.98949
0.999992 1.00503 0.989945
0.999854 1.0043 0.990588
0.999992 1.00358 0.99109
1 1.0034 0.991273
1.00045 0.999913 0.99342
0.999953 1.00426 0.990548
0.999947 1.0048 0.990148
1.00165 0.998253 0.993463
1.00017 1.00384 0.990499
0.998769 0.99767 0.995793
0.998845 0.99935 0.998054
0.999744 1.00364 0.991096
1.00008 1.00355 0.990989
1.00007 1.00483 0.989663
0.994566 0.999881 0.948032
0.994769 0.999059 0.927672
0.999906 0.995463 0.929551
0.99896 1.0032 0.993168
0.998468 1.00431 0.992386
1.00104 0.999979 0.993527
0.995082 0.998266 0.923639
0.997952 0.998943 0.952156
0.994867 0.998455 0.974896
0.996364 0.999812 0.999954
0.996109 0.999557 0.935941
0.995413 1.00212 0.932063
0.994707 0.999186 0.927883
0.998037 1.00219 0.996232
0.994967 0.999567 0.945126
0.994506 1.00106 0.94624
0.996412 1.00289 0.998443
0.994878 0.999979 0.983566
0.996409 1.00002 0.951931
0.994772 0.998342 0.926878
0.994988 0.999962 0.934477
0.996899 1.00249 0.998295
0.994243 0.99884 0.965518
0.994563 0.999141 0.949853
0.994728 0.998845 0.919704
0.994933 1.00166 0.995003
0.99609 0.999608 0.959805
0.994793 0.999981 0.933794
0.999878 0.999951 0.995484
0.999323 0.999566 0.996562
0.997899 1.00032 0.998488
1.00046 1.00193 0.991976
1.00036 1.00186 0.992201
0.999588 1.00027 0.995005
1.00039 1.00183 0.992152
0.999841 1.00143 0.993628
0.998605 1.00038 0.996674
0.997971 1.00092 0.997237
0.999744 1.0018 0.993418
1.0003 1.00173 0.992412
1.00001 1.00219 0.9925
1.00012 1.00181 0.992756
0.999896 1.00163 0.993282
1.00007 1.00193 0.99268
0.999556 1.00217 0.993319
0.999943 1.00208 0.992626
1.00021 1.00356 0.990527
1.00011 1.00248 0.992133
1.00001 1.00397 0.99083
1.00062 1.00468 0.988505
1.00066 1.00486 0.988449
0.999916 1.00458 0.990384
1.00042 1.0049 0.988906
0.999903 1.00304 0.991885
0.999788 1.00413 0.991072
0.999542 1.00473 0.990705
0.99977 1.00329 0.991985
0.999899 1.00231 0.992497
1.00011 1.00121 0.993278
1.00002 1.00194 0.992773
1.00016 1.00103 0.993381
1.00018 0.999887 0.994462
1.00021 1.00097 0.993381
1.00023 0.999807 0.994451
0.999993 0.99798 0.997134
1.00026 0.999783 0.994432
1.00006 0.997906 0.996855
0.999937 0.99669 0.998227
1.00013 0.997831 0.996569
0.999984 0.996599 0.99872
0.999994 0.996564 0.999236
1.00024 1.0012 0.992949
1.00019 0.999771 0.994389
1.00018 1.00112 0.993328
1.00015 0.997598 0.996775
1.00017 0.999628 0.994654
1.00011 1.00101 0.993375
1.00003 0.996342 0.9993
1.00016 0.997517 0.996848
1.00015 0.999525 0.994874
1.00003 0.996311 0.999305
1.00016 0.997496 0.996868
1.00002 0.996348 0.9993
0.994706 0.999059 0.946542
0.994829 0.997839 0.926405
0.999884 0.995795 0.931839
1.00034 1.00185 0.992245
0.994479 1.0006 0.949262
0.995242 1.00205 0.932073
0.995261 0.998969 0.916692
0.998602 0.997496 0.981204
0.999586 0.997767 0.957817
0.998437 0.998641 0.924741
0.994704 0.999845 0.913428
0.995532 0.999563 0.97526
0.997722 0.999209 0.956864
0.997306 0.999897 0.930897
0.99471 0.999109 0.92031
0.995198 0.999445 0.971258
0.995534 1.00097 0.956211
0.994827 0.99994 0.934324
0.994758 0.998016 0.925261
1.00025 1.00293 0.991326
1.00012 1.00296 0.991537
1.00009 1.00257 0.992076
1.00031 1.00232 0.991817
1.00031 1.00241 0.991786
1.00019 1.00233 0.992126
1.0003 1.00189 0.992411
1.00023 1.00189 0.992563
1.00078 0.999764 0.993655
1.00168 0.998295 0.993089
0.999995 1.00339 0.991331
1.00059 1.00374 0.990376
1.0001 1.00458 0.990182
0.999915 1.00438 0.990574
1.00009 1.00359 0.990988
0.99872 0.998546 0.996193
1.0001 1.00459 0.989946
1.00013 1.00331 0.991128
0.998952 0.99881 0.998043
1.00014 1.00311 0.991327
0.9973 0.999018 0.996438
0.997453 1.00024 1.00005
0.999991 1.00378 0.990772
1.00008 1.00375 0.990863
0.994171 0.999308 0.968986
0.994557 1.0003 0.948652
0.994769 0.999221 0.926569
0.998009 1.00221 0.996444
0.99648 1.00304 0.997917
0.995024 0.999093 0.947522
0.995616 1.00029 0.958525
0.994882 0.999127 0.979787
0.995076 0.999946 0.933639
0.994511 1.00119 0.946039
0.994743 0.998586 0.928554
0.997032 1.00237 0.998138
0.99424 0.998967 0.965472
0.994503 0.999204 0.954138
0.995113 1.00263 0.997913
0.994736 0.999097 0.920378
0.995322 0.999447 0.956386
0.995136 0.999967 0.935966
0.996419 1.00302 0.998632
0.994229 0.997357 0.97203
0.994511 1.00065 0.949415
0.994751 0.999706 0.916003
0.9955 0.99993 0.933475
0.995441 0.999508 0.989202
0.996276 1.00085 0.949802
0.999356 0.99951 0.996332
0.997805 1.00089 0.998126
0.995965 1.00131 1.00116
1.00035 1.00182 0.99219
0.999821 1.00134 0.993622
0.998788 1.00021 0.996542
0.999766 1.00176 0.993379
0.998094 1.0007 0.997316
0.998037 1.0033 0.994958
0.999974 1.00163 0.993225
1.00006 1.00186 0.99271
0.999736 1.00227 0.993198
0.999288 1.00425 0.991409
0.999594 1.00232 0.992987
1.00001 1.00347 0.99087
1.00081 1.00476 0.988464
1.00215 1.0042 0.986531
1.00027 1.00391 0.990698
1.00079 1.00472 0.988305
1.00125 1.00426 0.988597
0.999939 1.00492 0.989572
1.00069 1.00478 0.988628
0.999858 1.00376 0.991199
0.999951 1.00455 0.990369
1.00031 1.00487 0.988999
1.00006 1.00165 0.992925
0.999886 1.00301 0.991856
0.999763 1.00417 0.990964
0.999923 1.00228 0.992584
1.00013 1.00122 0.993267
1.00012 1.00002 0.994437
1.00018 1.00104 0.993378
1.00019 0.999874 0.994462
0.999939 0.998107 0.996641
1.00024 0.999799 0.994452
1.00002 0.997978 0.996632
0.999809 0.9968 0.999258
1.00008 0.997884 0.996599
0.999921 0.996696 0.998731
0.999946 0.996643 0.99924
1.00028 1.00124 0.992835
1.00023 0.999932 0.994149
1.00025 1.0012 0.993031
1.00014 0.997731 0.996664
1.0002 0.999778 0.994359
1.00018 1.00112 0.993328
1 0.996434 0.99928
1.00015 0.997597 0.99678
1.00017 0.999639 0.994547
1.00003 0.996332 0.999302
1.00015 0.997516 0.996851
1.00003 0.996312 0.999305
0.994192 0.998358 0.966539
0.994649 0.999984 0.946325
0.994864 0.998448 0.926545
1.00032 1.00186 0.992296
1.00031 1.00181 0.9923
1.00033 1.00217 0.992017
0.994544 0.998714 0.949999
0.994494 1.00054 0.949067
0.995279 1.00244 0.931581
0.995066 0.99975 0.977547
0.998292 0.999947 0.950314
0.995215 0.999909 0.936312
0.994712 0.999387 0.917958
0.995448 0.998912 0.974297
0.996351 1.00003 0.954889
0.994789 0.999973 0.936075
0.994738 0.998251 0.926922
0.994897 0.999165 0.970863
0.995873 1.00005 0.957837
0.994773 1 0.934089
0.994705 0.999168 0.924685
1.00035 1.00261 0.991474
1.00026 1.0029 0.991321
1.00012 1.003 0.991499
1.00033 1.00232 0.991801
1.00031 1.00239 0.991868
1.00032 1.00188 0.992421
0.998645 0.999047 0.99658
0.998819 0.998388 0.998041
1.00013 1.00362 0.990986
1.0005 1.00285 0.991161
1.00001 1.00448 0.99023
1.00021 1.00308 0.991221
0.999969 1.00382 0.990972
0.997292 0.998724 0.996798
0.999841 1.00374 0.991358
0.99722 1.00035 0.999945
1.00003 1.00295 0.991795
0.995795 0.998456 0.9974
0.997191 1.00259 0.998008
0.99932 1.0034 0.99274
0.994122 0.998577 0.976674
0.994135 0.998971 0.970848
0.994527 1.0006 0.949233
0.997246 1.00236 0.997974
0.995723 1.00254 0.995579
0.994233 0.999058 0.965423
0.995189 0.999451 0.961183
0.994797 0.999961 0.931538
0.99446 0.99927 0.958416
0.994739 0.999355 0.918197
0.996058 1.0035 0.998911
0.994191 0.997172 0.973567
0.994524 1.0005 0.949228
0.994936 0.999636 0.984868
0.994726 0.999743 0.912586
0.994967 0.999937 0.935053
0.995594 1.00074 0.956691
0.99497 1.00284 0.999686
0.994216 0.998011 0.966999
0.995124 1.00183 0.933137
0.99461 0.99815 0.91478
0.995944 0.99899 0.92792
0.996109 1.00012 0.956769
0.995855 1.00013 0.979326
0.997711 1.00154 0.997823
0.996376 1.00073 1.00106
0.996579 1.00258 0.998797
0.99979 1.00175 0.99334
0.998196 1.00053 0.997376
0.997704 1.00352 0.99525
0.998926 1.00347 0.993549
0.999925 1.00237 0.993078
0.99993 1.00412 0.991046
1.00078 1.00498 0.988248
0.999808 1.00337 0.991218
1.0009 1.0047 0.98835
1.00256 1.00467 0.985894
1.00386 1.00287 0.984797
1.00169 1.00401 0.98727
1.00214 1.00441 0.986425
1.00097 1.00477 0.988105
1.00089 1.0041 0.989264
1.00102 1.00402 0.988981
0.999879 1.00461 0.990141
1.00002 1.00492 0.98968
1.00073 1.00469 0.98881
1 1.00245 0.992233
0.99993 1.00368 0.991204
0.999976 1.00452 0.990353
1.00005 1.00029 0.994285
1.00008 1.00165 0.992911
0.999868 1.00299 0.991827
1.00014 1.00122 0.993255
1.00013 1.00002 0.994435
0.999851 0.998281 0.996622
1.0002 0.999864 0.994463
0.999943 0.998103 0.996641
0.999742 0.99696 0.999251
1.00002 0.997968 0.99663
0.999838 0.996824 0.998746
0.999883 0.996739 0.999247
1.00033 1.00126 0.99285
1.00027 1.00006 0.994126
1.00029 1.00124 0.992874
1.00011 0.997896 0.996539
1.00023 0.999933 0.994222
1.00026 1.0012 0.993113
0.999963 0.996573 0.999254
1.00013 0.997727 0.996672
1.0002 0.999783 0.994329
1.00001 0.996413 0.999287
1.00015 0.997596 0.996786
1.00003 0.996323 0.999304
0.994225 0.996962 0.972239
0.994233 0.998046 0.966502
0.994606 1.00033 0.946198
1.00024 1.00193 0.992291
1.00013 1.00249 0.992034
1.0003 1.00188 0.992347
1.0003 1.00183 0.992305
1.0003 1.00219 0.991991
1.00023 1.00214 0.992178
1.00035 1.00225 0.991887
0.994477 1.00019 0.946751
0.994495 0.998872 0.954338
0.994508 1.00035 0.948879
0.994724 0.998468 0.928579
0.994859 0.999595 0.971573
0.995327 1.00004 0.954531
0.994894 0.99996 0.937892
0.995146 0.999291 0.970241
0.995049 1.00006 0.952919
0.994947 0.999968 0.937319
0.994687 0.999088 0.927877
0.996022 0.997522 0.97418
0.995143 1.00012 0.952041
0.994913 0.999922 0.931074
0.994736 0.999741 0.916959
1.00006 1.00258 0.992075
1.00033 1.0026 0.991492
1.00027 1.00288 0.991316
1.00034 1.00232 0.991786
0.997416 0.998746 0.997145
0.99717 1.0005 0.999842
1.00023 1.00311 0.991116
0.99998 1.0037 0.991081
0.999848 1.00372 0.991949
1.00001 1.00293 0.991758
0.999274 1.00339 0.992683
0.995707 0.999325 0.99506
0.996803 1.00322 0.998334
0.99912 1.00299 0.99317
0.9955 0.999463 0.993925
0.997721 1.00363 0.997037
0.994157 0.99854 0.96997
0.994043 0.997709 0.978834
0.994125 0.998693 0.97271
0.99579 1.00388 0.999124
0.99529 0.998685 0.990168
0.994147 0.997013 0.975123
0.996663 1.00089 0.950377
0.995191 0.999909 0.93684
0.994536 1.00031 0.94904
0.994709 0.999816 0.913773
0.995268 1.00181 1.00002
0.994252 0.997816 0.966964
0.995258 1.00185 0.932632
0.994884 1.00057 0.981861
0.994615 0.998141 0.908055
0.997446 0.999871 0.930435
0.995115 1.00009 0.952481
0.99561 1.00307 0.99554
0.994794 0.998451 0.947393
0.995136 0.998425 0.917597
0.998472 0.99736 0.931893
0.995667 1.00023 0.957447
0.994902 0.999344 0.974344
0.996899 0.999923 1.00089
0.996344 1.00325 0.998747
0.998667 0.999351 0.998614
0.997399 1.0037 0.995544
0.998172 1.00363 0.993899
1.00191 1.00123 0.990067
1.00057 1.004 0.990679
1.00105 1.00496 0.98811
1.00261 1.00308 0.986239
1.001 1.00465 0.988237
1.00252 1.00473 0.985703
1.00398 1.00233 0.984935
1.00492 1.00049 0.985038
1.00369 1.00356 0.98495
1.00398 1.00286 0.98459
1.00133 1.00382 0.988045
1.00169 1.00401 0.987519
1.00213 1.00464 0.986319
1.0006 1.00461 0.989161
1.00081 1.00411 0.989257
1.00078 1.00381 0.989364
1.00003 1.00337 0.991217
0.99992 1.00452 0.990267
1.00012 1.00492 0.989789
0.999975 1.00087 0.993824
1.00005 1.00239 0.992227
0.999996 1.0036 0.991209
0.999763 0.998493 0.996572
1.00005 1.00031 0.994274
1.0001 1.00164 0.992898
1.00013 1.00001 0.994432
0.999855 0.998285 0.99662
0.999646 0.997145 0.999245
0.999946 0.998101 0.996641
0.99973 0.996992 0.99925
0.999807 0.996861 0.999251
1.00023 1.00203 0.992266
1.00036 1.00132 0.992763
1.00029 1.00019 0.993956
1.00033 1.00127 0.992842
1.00007 0.99809 0.996408
1.00026 1.00007 0.994123
1.00028 1.00127 0.992913
0.999913 0.996741 0.999224
1.00011 0.997894 0.996546
1.00024 0.999936 0.994295
0.999969 0.996542 0.999262
1.00013 0.997725 0.996679
1.00001 0.996388 0.999293
0.994249 0.997727 0.966398
0.994176 0.996827 0.973764
0.994271 0.997813 0.966457
1.00028 1.00189 0.992316
1.0001 1.00252 0.991993
1.00004 1.00287 0.991729
1.00011 1.00238 0.992046
1.00011 1.00288 0.991735
1.00029 1.00185 0.992311
1.00027 1.00221 0.991965
1.00022 1.00214 0.992175
1.00034 1.00226 0.991885
1.00012 1.00237 0.992224
0.994977 1.00154 0.932972
0.994513 1.00037 0.946575
0.994439 0.999056 0.958668
0.994692 0.999 0.927961
0.994796 0.999991 0.932125
0.994882 0.999352 0.968988
0.995111 1.00007 0.957318
0.995356 0.997661 0.970698
0.995656 1.00008 0.957367
0.99494 0.999934 0.935644
0.994911 0.999703 0.914834
0.995889 0.995536 0.975271
0.995211 1.00009 0.958053
0.995522 0.99987 0.935857
0.994961 0.998139 0.91384
0.999285 1.00187 0.994028
1.00001 1.00266 0.992111
1.00033 1.00259 0.99151
0.995539 0.99998 0.992712
0.996435 1.00364 0.998626
0.999999 1.00293 0.991721
0.999061 1.00352 0.992627
0.999115 1.00301 0.993192
0.997361 1.00312 0.996928
0.995147 0.999634 0.994144
0.997564 1.00238 0.996584
0.995898 1.00099 0.993546
0.99466 0.999571 0.948122
0.994125 0.998201 0.971776
0.993952 0.996777 0.980995
0.995432 1.00092 1.00041
0.995101 1.00034 0.976974
0.994286 0.997648 0.966919
0.996989 1.00027 0.954167
0.995195 0.999895 0.935807
0.995321 1.00219 0.932145
0.994629 0.998143 0.901328
0.995658 1.00293 0.995832
0.994726 0.999396 0.947163
0.995172 0.998724 0.915504
0.994974 0.999338 0.975598
0.998561 0.998487 0.931852
0.996292 1.00001 0.954014
0.996773 0.999808 0.99352
0.994847 0.997476 0.925402
0.998893 0.996988 0.933855
0.998075 0.998547 0.952264
0.994861 0.998826 0.976238
0.996169 1.00376 0.998683
0.998527 0.999271 0.998599
1.00269 0.997738 0.993423
0.997474 1.00364 0.994222
1.00121 1.00156 0.99055
1.00356 0.998685 0.988437
1.00133 1.0049 0.987971
1.00268 1.00315 0.986287
1.00441 0.999728 0.986518
1.0025 1.00482 0.985512
1.00394 1.00231 0.984999
1.00506 0.999159 0.986113
1.0051 0.999134 0.986087
1.00466 1.00159 0.98455
1.0049 1.00047 0.985082
1.00289 1.00388 0.98571
1.00348 1.00355 0.984829
1.00409 1.00286 0.984383
1.00123 1.00399 0.98851
1.00126 1.00378 0.988361
1.00169 1.00403 0.987768
1.00047 1.00366 0.990163
1.00049 1.00454 0.989269
1.00072 1.00411 0.989249
0.999953 1.0018 0.992917
1.00009 1.00333 0.99122
0.999964 1.00443 0.990392
0.999663 0.998832 0.996904
0.99998 1.00089 0.993805
1.00009 1.00233 0.992222
0.999563 0.997391 0.998193
0.999762 0.998531 0.996803
1.00004 1.00033 0.994263
0.999859 0.998291 0.996618
0.999636 0.997186 0.999241
0.999719 0.997024 0.999248
1.00017 1.00239 0.991969
1.00033 1.0015 0.992625
1.00021 1.00209 0.992232
1.00027 1.00034 0.99384
1.00033 1.00135 0.992761
1.00002 0.998286 0.996297
1.00028 1.00021 0.993954
1.00034 1.00128 0.992834
0.999854 0.996936 0.999192
1.00007 0.998087 0.996415
1.00026 1.00009 0.99412
0.99992 0.996708 0.999233
1.00011 0.997892 0.996554
0.999975 0.996513 0.99927
0.995014 0.998423 0.949035
0.994248 0.997837 0.966369
0.994127 0.996727 0.975302
1.00007 1.00294 0.991664
1.00028 1.0019 0.99234
1.00009 1.00255 0.991952
1.00015 1.00239 0.992077
1.0001 1.0028 0.991772
1.00008 1.00289 0.991704
1.00007 1.00321 0.991407
0.999975 1.00289 0.991714
1.00024 1.00213 0.992173
1.00031 1.00226 0.991884
1.00008 1.00242 0.992177
0.999642 1.0028 0.992931
0.995008 0.999243 0.915798
0.995203 1.00167 0.932387
0.994528 1.00055 0.946404
0.99511 0.99964 0.917461
0.994963 0.999922 0.935297
0.995131 1.00013 0.952231
0.996048 0.997743 0.968627
0.996027 0.995246 0.977111
0.994763 0.998128 0.907449
0.99558 1.00004 0.954296
0.997323 0.999875 0.930047
0.995449 0.997094 0.977895
0.995782 1.00002 0.95926
0.998782 0.997646 0.929818
0.999162 1.00067 0.995468
0.999448 1.0018 0.994006
0.999959 1.00275 0.992146
0.994909 0.999697 0.994335
0.997353 1.00255 0.996815
0.999182 1.00297 0.993213
0.998413 1.00208 0.996374
0.995621 1.00129 0.993717
0.997691 1.00083 0.994027
0.994787 0.999603 0.923022
0.994583 0.998996 0.95232
0.99412 0.99791 0.973585
0.995564 1.0034 0.996159
0.994909 0.99928 0.976462
0.994653 0.999889 0.947005
0.995293 1.00005 0.95368
0.998483 0.997444 0.92599
0.995311 0.998748 0.917449
0.996866 1 0.993567
0.994887 0.997562 0.927211
0.999859 0.996148 0.928719
0.994926 0.998898 0.972251
0.997673 0.998669 0.957998
0.998428 0.99861 0.994778
0.999879 0.995639 0.928456
0.999021 0.997637 0.958076
0.995043 0.998588 0.971506
0.998325 0.999354 0.998638
1.00206 0.997308 0.994118
1.00381 0.997344 0.990948
1.00051 1.0019 0.991035
1.00349 0.999236 0.988348
1.00486 0.996983 0.988254
1.00272 1.00333 0.986336
1.00427 0.999946 0.986529
1.00497 0.997598 0.987793
1.00388 1.00228 0.985062
1.00504 0.999112 0.986106
1.00512 0.997628 0.987579
1.00515 0.998145 0.986995
1.0051 0.999883 0.985449
1.0051 0.999084 0.986112
1.00414 1.00199 0.984921
1.0046 1.00151 0.984668
1.0049 1.00045 0.985127
1.00212 1.00374 0.987128
1.00267 1.00383 0.985873
1.00327 1.00351 0.984708
1.00114 1.0033 0.989358
1.0013 1.00393 0.988477
1.0012 1.00372 0.988678
1.00017 1.00253 0.991832
1.00051 1.00365 0.990172
1.00039 1.00447 0.989377
0.999616 0.999316 0.995965
1.00001 1.00173 0.992898
1.00016 1.00327 0.991222
0.999434 0.997647 0.999211
0.999669 0.998893 0.996352
0.999988 1.0009 0.993785
0.999545 0.997388 0.999227
0.999764 0.99855 0.99654
0.999626 0.997229 0.999237
1.00021 1.0026 0.991778
1.00019 1.00239 0.99196
1.00029 1.0018 0.992386
1.00022 1.00052 0.993745
1.0003 1.00152 0.992629
1.00021 1.0021 0.992198
0.999964 0.998468 0.996227
1.00027 1.00034 0.99384
1.00032 1.00137 0.992759
0.999788 0.997126 0.999165
1.00002 0.998282 0.996302
1.00027 1.00022 0.993952
0.999861 0.996897 0.999202
1.00007 0.998084 0.996423
0.999927 0.99667 0.999242
0.995018 0.999005 0.918754
0.994952 0.998496 0.94884
0.994243 0.997933 0.966338
0.999997 1.00306 0.991622
1.00026 1.0033 0.991188
0.99998 1.00338 0.991358
1.00016 1.0024 0.992107
1.00015 1.00274 0.991815
1 1.00293 0.991674
1.00004 1.00288 0.991687
1.00004 1.00324 0.991383
0.999944 1.00375 0.991139
1.00018 1.00156 0.992689
1.00012 1.00237 0.99213
0.999661 1.00258 0.992843
0.999843 0.996464 0.92656
0.995011 0.999248 0.912497
0.995411 1.00181 0.931837
0.994615 0.99813 0.901046
0.996321 0.998921 0.93521
0.995483 1.00001 0.95539
0.995909 0.995003 0.974677
0.995189 0.997282 0.976189
0.998482 0.998284 0.931156
0.996397 1 0.953824
0.995661 0.99803 0.977428
0.998625 0.998122 0.952172
1.00171 0.999144 0.992981
0.99939 1.0006 0.995249
0.999565 1.00172 0.993995
0.995049 1.00176 0.99386
0.99899 1.00185 0.996162
0.998033 1.00109 0.993468
1.00091 0.998745 0.990123
0.999935 0.994857 0.932341
0.994796 0.999435 0.92489
0.994526 0.998548 0.956449
0.996986 1.00006 0.993692
0.994868 0.998924 0.971507
0.994942 0.998064 0.927336
0.997795 0.998024 0.951806
0.999908 0.997057 0.934678
0.998301 0.998819 0.993046
0.999923 0.995365 0.931413
1.00114 0.996573 0.951215
0.995142 0.998213 0.974357
0.99926 0.996711 0.99442
1.00024 0.996428 0.95643
0.995669 0.999283 0.977196
1.00142 0.996837 0.994796
1.00373 0.996811 0.99093
1.00497 0.995915 0.989804
1.00336 0.99977 0.988259
1.00473 0.997032 0.988242
1.00488 0.996217 0.989122
1.00417 1.00006 0.986541
1.00491 0.997634 0.987758
1.0051 0.996174 0.988937
1.00503 0.999064 0.986099
1.00509 0.997589 0.987584
1.00515 0.996644 0.98847
1.00515 0.997503 0.987756
1.00515 0.998021 0.987119
1.00514 0.998871 0.986435
1.00498 1.00018 0.985545
1.00511 0.999867 0.985446
1.00511 0.999038 0.986138
1.00348 1.00239 0.985829
1.00417 1.00202 0.985011
1.00454 1.00141 0.984787
1.00175 1.00312 0.988399
1.00216 1.00371 0.987093
1.00245 1.00383 0.986036
1.00055 1.00264 0.991022
1.0012 1.00326 0.989344
1.00136 1.00389 0.988444
0.999643 0.999979 0.995231
1.00023 1.00244 0.991828
1.00058 1.00361 0.990182
0.999419 0.997912 0.999127
0.999612 0.999403 0.995925
1.00006 1.00169 0.992878
0.999464 0.997677 0.998662
0.99967 0.998929 0.996336
0.999539 0.997464 0.999214
1.00029 1.00283 0.991401
1.00013 1.00268 0.991769
1.0002 1.00225 0.992082
1.00022 1.00239 0.99195
1.00026 1.00184 0.992388
1.00015 1.00081 0.99358
0.999887 0.998656 0.996186
1.00022 1.00052 0.99375
1.00027 1.00157 0.992632
0.999713 0.997304 0.999148
0.999962 0.998464 0.99623
1.00026 1.00035 0.993841
0.999794 0.997096 0.999173
1.00002 0.998282 0.996307
0.999868 0.996859 0.999211
0.999906 0.995236 0.932894
0.994995 0.999293 0.919149
0.994858 0.998568 0.948631
0.999927 1.00318 0.991579
0.999937 1.00357 0.991228
1.00012 1.00327 0.991336
1.00076 1.00339 0.99015
0.999926 1.00402 0.990903
1.00009 1.00289 0.991661
1.00003 1.00326 0.991358
0.999891 1.0036 0.991227
0.999989 1.00369 0.990352
1.00051 1.00191 0.991883
1.00375 1.00001 0.987991
0.999898 1.00176 0.993019
0.999766 1.00233 0.992754
1.00038 0.996798 0.956058
0.999673 0.996642 0.928879
0.995028 0.999093 0.913392
0.998656 0.998205 0.924931
0.99576 1.00002 0.956028
0.995418 0.99737 0.978448
0.995392 0.997981 0.979465
0.99759 0.998618 0.959253
0.996862 0.998996 0.977051
1.00383 0.996629 0.991151
1.00137 0.999062 0.993006
0.999601 1.00056 0.995021
0.998396 1.00119 0.992954
1.00166 0.999669 0.988801
1.00034 0.995196 0.953525
0.999928 0.995062 0.934961
0.994802 0.998921 0.92682
0.998091 0.999082 0.991294
0.994868 0.998209 0.971751
0.999905 0.995644 0.93226
0.999617 0.997627 0.958071
0.999021 0.997936 0.994736
1.00148 0.995756 0.956141
0.995749 0.998978 0.973967
1.00064 0.999882 0.991959
0.999546 0.996988 0.981781
1.00365 0.99626 0.99093
1.00499 0.995597 0.989615
1.00507 0.995074 0.990127
1.00463 0.997126 0.988227
1.00483 0.996174 0.989112
1.00509 0.995079 0.989902
1.00484 0.997669 0.987722
1.0051 0.996133 0.988921
1.00513 0.995663 0.989463
1.00507 0.997547 0.987589
1.00515 0.996671 0.988434
1.00514 0.996711 0.988625
1.00516 0.997349 0.98784
1.00515 0.998186 0.98713
1.00515 0.9979 0.987243
1.00514 0.998896 0.986419
1.00509 0.999334 0.986099
1.00452 1.00051 0.98586
1.00498 1.00013 0.98553
1.00512 0.99987 0.985443
1.00269 1.00254 0.987302
1.00342 1.00246 0.985874
1.00419 1.00207 0.985101
1.00097 1.00254 0.990308
1.0018 1.00311 0.988372
1.00221 1.00367 0.987058
0.999795 1.00052 0.994396
1.00059 1.0026 0.991026
1.00124 1.00326 0.989331
0.999442 0.99826 0.998978
0.999657 1.00003 0.995201
1.0003 1.00234 0.991826
0.999447 0.997971 0.999086
0.999609 0.999485 0.995884
0.999482 0.997722 0.999162
1.00082 1.00302 0.990242
1.00031 1.00276 0.991393
1.00024 1.00263 0.991567
1.00007 1.00273 0.99176
1.00017 1.00232 0.992019
1.0001 1.00126 0.993193
1.00023 1.00185 0.99239
1.00015 1.0008 0.993588
0.999794 0.998887 0.996128
0.999633 0.997481 0.999136
0.999885 0.998647 0.99619
1.00021 1.00052 0.993754
0.999721 0.997282 0.999153
0.99996 0.998462 0.996234
0.999801 0.997061 0.999181
1.00109 0.995157 0.958991
0.999902 0.995642 0.931498
0.994958 0.99977 0.917414
0.999886 1.00376 0.991098
1.00001 1.0032 0.991485
0.999961 1.004 0.990953
1.00068 1.00336 0.990226
1.0012 1.00368 0.988908
1.00014 1.00374 0.990423
0.999835 1.00348 0.991314
1.0003 1.00379 0.990038
1.00043 1.00227 0.991621
1.00161 1.00164 0.989446
1.00367 0.999896 0.988766
1.00443 0.998195 0.987939
1.00321 0.999975 0.988591
0.99953 1.00212 0.99335
0.995936 0.998905 0.976255
1.00062 0.995995 0.955108
0.999082 0.996893 0.934423
0.998956 0.998866 0.952016
0.995129 0.998087 0.980713
0.997158 0.998882 0.981478
1.00105 0.998328 0.992122
1.00375 0.996579 0.991404
1.00132 0.998907 0.993033
1.00288 1.00064 0.987434
0.99812 0.996323 0.977731
1.00084 0.995038 0.960488
0.999902 0.995386 0.929739
0.99886 0.99873 0.994982
0.995548 0.998642 0.976175
1.00097 0.996057 0.955693
1.00069 0.999508 0.992108
0.998828 0.997133 0.980642
1.00339 0.999922 0.989869
1.00412 0.996173 0.989713
1.00497 0.995304 0.989412
1.00507 0.995071 0.990062
1.00508 0.994902 0.990396
1.00479 0.99615 0.989105
1.00509 0.995176 0.989862
1.00511 0.995162 0.990028
1.0051 0.996104 0.988904
1.00514 0.995688 0.989436
1.00511 0.996244 0.989168
1.00515 0.996705 0.988398
1.00513 0.996712 0.988537
1.00515 0.997585 0.987634
1.00517 0.997201 0.987924
1.00515 0.998079 0.98725
1.0051 0.998989 0.986485
1.00513 0.998912 0.986403
1.00509 0.999378 0.986078
1.00481 0.999679 0.986337
1.00373 1.00102 0.986748
1.00449 1.00057 0.985884
1.00499 1.00006 0.985514
1.00168 1.00217 0.989432
1.00269 1.00252 0.987312
1.00337 1.00254 0.985919
0.999939 1.00101 0.99364
1.00102 1.00256 0.990294
1.00185 1.0031 0.988345
0.999512 0.998679 0.998754
0.999837 1.00052 0.994386
1.00064 1.00255 0.991029
0.999488 0.998345 0.998904
0.99967 1.00009 0.995171
0.999483 0.998032 0.999038
1.0013 1.00345 0.988997
1.00087 1.003 0.990281
1.00063 1.0028 0.990772
1.00031 1.00273 0.991386
1.00027 1.00265 0.991485
1.00018 1.00174 0.992589
1.00015 1.00239 0.991956
1.0001 1.00126 0.993203
0.9997 0.999217 0.995963
1.00015 1.00079 0.993596
0.999796 0.998859 0.996137
0.999561 0.997666 0.999119
0.999642 0.997459 0.99914
0.999884 0.998637 0.996194
0.999727 0.997257 0.999158
0.99714 0.997494 0.97794
1.00086 0.995537 0.95272
0.999867 0.995112 0.935409
1.00268 1.00252 0.987565
1 1.00398 0.991002
1.0006 1.00334 0.990302
1.00027 1.00381 0.990336
1.00114 1.00383 0.988833
1.00145 1.00186 0.989923
1.0006 1.00387 0.989724
1.00042 1.00257 0.99136
1.00181 1.00159 0.989656
1.00372 0.999844 0.988378
1.0046 0.998734 0.987243
1.00443 0.996828 0.989561
1.00448 0.998255 0.987598
1.00276 0.999862 0.989191
1.00004 0.998909 0.993844
0.99635 0.998958 0.974725
0.999998 0.996327 0.954532
0.997269 0.998304 0.979536
1.00109 0.997297 0.994133
1.00323 0.996615 0.99164
1.00217 0.995854 0.98951
0.9973 0.995741 0.980033
1.00037 0.995022 0.953629
1.00059 0.999485 0.992264
0.99901 0.997084 0.979338
1.00331 0.998442 0.990081
1.00408 0.995813 0.989731
1.00501 0.995646 0.990322
1.0049 0.996212 0.990709
1.00511 0.995054 0.99
1.00506 0.994904 0.990391
1.0051 0.994956 0.990302
1.00509 0.995247 0.989821
1.00512 0.995167 0.990028
1.00511 0.995784 0.989574
1.00514 0.995712 0.989408
1.00512 0.996216 0.989098
1.00514 0.99729 0.987967
1.00513 0.996709 0.988448
1.00515 0.9976 0.987643
1.00513 0.998631 0.98669
1.00514 0.997973 0.987371
1.0051 0.998908 0.986541
1.00488 0.9994 0.9864
1.00509 0.999432 0.986056
1.00482 0.999648 0.98627
1.00419 1.00007 0.987009
1.00254 1.00123 0.988844
1.00368 1.0011 0.9868
1.00445 1.00062 0.985908
1.00022 1.0012 0.992934
1.00169 1.00218 0.989424
1.00269 1.00248 0.987323
0.999524 0.999154 0.998524
1.00006 1.00088 0.993624
1.00106 1.00256 0.990281
0.999544 0.99877 0.998671
0.999884 1.0005 0.994374
0.999537 0.998419 0.998822
1.00221 1.00316 0.987455
1.00127 1.00343 0.989016
1.00115 1.00297 0.989788
1.00092 1.00298 0.99032
1.00064 1.00278 0.990787
1.00032 1.00218 0.991935
1.0003 1.00267 0.991402
1.00012 1.00183 0.992589
0.999643 0.999683 0.995588
1.00008 1.00127 0.993212
0.999711 0.999158 0.995984
0.999514 0.997867 0.999074
0.999799 0.998834 0.996146
0.999565 0.997641 0.999126
0.999648 0.997439 0.999143
1.00122 0.99768 0.991853
0.997389 0.99686 0.974362
1.00012 0.995396 0.959548
1.00301 1.00062 0.988287
1.00473 0.999361 0.986676
1.00237 1.0024 0.987812
1.00039 1.00389 0.990247
1.00109 1.00398 0.988749
1.00182 1.00171 0.989721
1.00453 0.998961 0.987626
1.00195 1.00157 0.989866
1.00364 0.99979 0.987988
1.00452 0.998737 0.987451
1.00504 0.997585 0.987739
1.00473 0.99585 0.989988
1.00449 0.996947 0.989302
1.00452 0.998337 0.987258
1.0004 0.998828 0.993959
0.99619 0.999215 0.97274
1.00128 0.996479 0.996164
1.00483 0.99504 0.991397
1.00193 0.996281 0.989652
0.997908 0.995499 0.97707
1.00342 0.997192 0.990289
1.00404 0.995855 0.989761
1.005 0.995319 0.990508
1.00496 0.995687 0.990522
1.00511 0.994915 0.990186
1.00519 0.995058 0.989941
1.00504 0.994925 0.990385
1.00508 0.994942 0.990289
1.00514 0.995568 0.989631
1.00512 0.995181 0.990029
1.00511 0.995845 0.989439
1.00513 0.996892 0.988411
1.00512 0.996187 0.989029
1.00514 0.997305 0.987977
1.00517 0.998418 0.98686
1.00514 0.997616 0.987651
1.00513 0.99863 0.986703
1.00494 0.99929 0.986397
1.0051 0.998825 0.986597
1.00488 0.999382 0.986396
1.00433 0.999808 0.987014
1.00483 0.999619 0.986203
1.00417 1.00006 0.98694
1.00305 1.0004 0.988744
1.00059 1.00094 0.992472
1.00251 1.00125 0.988849
1.00363 1.00119 0.986852
0.999501 0.999684 0.998313
1.00031 1.00112 0.992912
1.00169 1.00222 0.989416
0.999549 0.999272 0.998449
1.00015 1.00081 0.993606
0.999578 0.998863 0.998592
1.00365 1.00113 0.986489
1.0022 1.00306 0.987375
1.00192 1.00287 0.988411
1.00124 1.00341 0.989036
1.00108 1.00298 0.989819
1.0006 1.00249 0.991205
1.00065 1.00275 0.990803
1.00026 1.00226 0.991935
0.999708 1.00019 0.994978
1.00008 1.00191 0.992589
0.999656 0.999611 0.995613
0.999504 0.998139 0.998959
0.999721 0.9991 0.996005
0.999507 0.997835 0.999092
0.999569 0.997619 0.999131
1.00488 0.995302 0.990511
1.00134 0.997263 0.990734
0.996861 0.996192 0.975146
1.00506 0.998573 0.986972
1.00261 1.00019 0.989437
1.00514 0.998714 0.986589
1.00474 0.999574 0.986596
1.00207 1.00228 0.988073
1.00507 0.998065 0.987153
1.00218 1.00154 0.98953
1.0047 0.998959 0.987239
1.00512 0.996712 0.988348
1.00449 0.998752 0.987661
1.005 0.997585 0.98773
1.00469 0.995924 0.990099
1.00439 0.997095 0.989033
1.00058 0.998796 0.994096
1.00518 0.995402 0.98951
1.00483 0.995528 0.991458
1.00172 0.996532 0.98977
1.005 0.994858 0.990701
1.00494 0.995166 0.990339
1.00511 0.994918 0.990286
1.0052 0.995061 0.989944
1.00519 0.99544 0.989679
1.00505 0.994926 0.990277
1.00514 0.995592 0.989641
1.00513 0.996623 0.988668
1.00512 0.99591 0.989305
1.00512 0.996989 0.988311
1.00518 0.998272 0.986998
1.00513 0.997321 0.987987
1.00516 0.998425 0.986873
1.00503 0.999223 0.986329
1.00512 0.998629 0.986717
1.00494 0.999289 0.986409
1.00444 0.999731 0.986904
1.00489 0.999364 0.986392
1.00432 0.99982 0.98702
1.00322 1.00009 0.988737
1.00415 1.00005 0.986871
1.00303 1.00042 0.98874
1.00082 1.00055 0.993623
0.999665 0.999963 0.99575
1.00067 1.00088 0.993061
1.00248 1.00128 0.988853
0.99955 0.999803 0.998233
1.00044 1.00099 0.99289
0.999578 0.99937 0.998366
1.00516 0.99862 0.986744
1.00472 0.999373 0.986569
1.00376 1.00117 0.986453
1.00287 1.0021 0.987336
1.00219 1.00295 0.987295
1.00186 1.00291 0.988435
1.00111 1.00245 0.990293
1.00102 1.00298 0.989849
1.00053 1.0025 0.991222
0.999894 1.00066 0.994214
1.0002 1.00234 0.991935
0.999687 1.00017 0.994991
0.9995 0.998542 0.998763
0.999668 0.999535 0.995637
0.999482 0.998084 0.999004
0.999505 0.997807 0.999108
1.00517 0.99593 0.989046
1.005 0.995287 0.990886
1.00168 0.996675 0.989619
1.00514 0.998395 0.986817
1.00481 0.998709 0.987246
1.00222 0.999771 0.990556
1.00515 0.998771 0.986608
1.00476 0.999791 0.986515
1.0051 0.996992 0.988472
1.00507 0.998054 0.987111
1.00487 0.998976 0.986846
1.00511 0.996707 0.988359
1.005 0.997588 0.987721
1.00473 0.995989 0.990228
1.00514 0.995663 0.989698
1.00519 0.995392 0.989628
1.00484 0.995966 0.991523
1.00514 0.994933 0.990382
1.0052 0.995066 0.989946
1.00518 0.995356 0.989757
1.00512 0.99675 0.988634
1.00513 0.995612 0.989651
1.00513 0.996665 0.988638
1.00517 0.998089 0.987205
1.00511 0.997083 0.98821
1.00517 0.998273 0.987006
1.00511 0.999189 0.986236
1.00515 0.998431 0.986885
1.00502 0.999221 0.986342
1.00455 0.999732 0.986691
1.00494 0.999289 0.986421
1.00443 0.999734 0.986908
1.00333 1.00002 0.988614
1.00431 0.999832 0.987025
1.00322 1.00008 0.98873
1.00095 1.00018 0.993775
1.00302 1.00043 0.988737
1.00094 1.00047 0.993588
0.999724 1.00009 0.995737
0.99958 1.00016 0.996897
1.00081 1.0008 0.993559
0.999594 0.999922 0.998153
1.00518 0.998423 0.986845
1.00498 0.99892 0.986888
1.00516 0.998561 0.986728
1.00386 1.00053 0.987029
1.00474 0.999348 0.986594
1.00386 1.00122 0.986415
1.00289 1.00212 0.987312
1.00187 1.00195 0.989341
1.00181 1.00294 0.988458
1.00107 1.00243 0.990314
1.00013 1.00103 0.993432
1.00046 1.00252 0.991238
0.999807 1.00073 0.994227
0.999457 0.999122 0.998523
0.999662 1.00016 0.995005
0.999479 0.998458 0.998838
0.999471 0.998033 0.999043
1.00512 0.99628 0.989011
1.00516 0.995933 0.989045
1.00505 0.995252 0.991233
1.00514 0.997622 0.987695
1.00514 0.99837 0.986852
1.00454 0.998841 0.98753
1.00515 0.998834 0.986627
1.0051 0.996997 0.988348
1.00507 0.998044 0.987069
1.00508 0.996709 0.988371
1.00512 0.996568 0.988839
1.00514 0.995729 0.98958
1.00521 0.995364 0.989746
1.00511 0.997195 0.988154
1.00518 0.995271 0.989836
1.00513 0.996748 0.988622
1.00514 0.997874 0.987596
1.00514 0.996708 0.988607
1.00517 0.998086 0.987207
1.00515 0.999084 0.986266
1.00517 0.998278 0.987014
1.00509 0.99919 0.986249
1.00468 0.999749 0.986433
1.005 0.999218 0.986356
1.00455 0.999728 0.986695
1.00344 1.00003 0.988403
1.00443 0.999736 0.986913
1.00334 1 0.988611
1.00105 1.00001 0.993798
1.00323 1.00007 0.988722
1.00105 1.00013 0.993724
0.999743 0.999994 0.995838
1.00106 1.00037 0.99356
0.999525 1.00026 0.995842
0.999317 1.00039 0.998254
1.00516 0.99841 0.986848
1.00506 0.998906 0.986592
1.00519 0.998449 0.986787
1.00434 0.999608 0.98741
1.00495 0.998783 0.986859
1.00515 0.998503 0.986712
1.00272 1.00091 0.988775
1.00391 1.00054 0.987002
1.00476 0.999322 0.98662
1.00291 1.00215 0.987289
1.00187 1.00191 0.989351
1.00042 1.00115 0.992776
1.00102 1.00242 0.990336
1.00001 1.00115 0.993456
0.99941 0.999791 0.998294
0.99973 1.0008 0.994239
0.999447 0.998994 0.998614
0.999463 0.998364 0.998904
1.00512 0.997049 0.988229
1.00512 0.996191 0.989042
1.00516 0.995953 0.989045
1.00513 0.997585 0.987736
1.00514 0.998343 0.986886
1.0051 0.997004 0.988224
1.0051 0.997255 0.988205
1.00511 0.996648 0.988774
1.00513 0.995791 0.989462
1.00511 0.99719 0.988232
1.00511 0.997947 0.987493
1.00513 0.996749 0.988609
1.00514 0.997956 0.98744
1.00514 0.998816 0.986587
1.00517 0.998079 0.987209
1.00513 0.99908 0.986277
1.0048 0.999688 0.986267
1.00507 0.999186 0.986262
1.00468 0.999746 0.986439
1.00358 1.00003 0.988141
1.00455 0.999723 0.986699
1.00345 1.00002 0.988402
1.00112 1.00002 0.993646
1.00335 0.999986 0.988607
1.00113 0.999982 0.993723
0.999808 0.999928 0.995813
1.00114 1.00008 0.993683
0.999567 1.00007 0.995958
0.999337 1.00047 0.995931
1.00514 0.99795 0.987433
1.00513 0.998919 0.986385
1.00517 0.9983 0.986953
1.00457 0.999431 0.98707
1.00507 0.998952 0.986575
1.00519 0.998475 0.98673
1.00321 1.00008 0.98871
1.00435 0.999526 0.987288
1.00492 0.998648 0.986829
1.00074 1.0008 0.992461
1.00274 1.00089 0.98877
1.00397 1.00055 0.986975
1.00188 1.00188 0.989361
1.00031 1.00125 0.992797
0.999444 1.00035 0.998117
0.999888 1.00126 0.993478
0.999387 0.999649 0.998379
0.999439 0.998855 0.998697
1.0051 0.997385 0.987992
1.00512 0.997019 0.988262
1.00512 0.996103 0.989073
1.00512 0.997547 0.987777
1.00511 0.998012 0.98744
1.0051 0.997261 0.988224
1.00511 0.99673 0.988709
1.00511 0.997186 0.988309
1.00511 0.997893 0.987541
1.00511 0.998735 0.986792
1.00514 0.998038 0.987284
1.00514 0.998912 0.986488
1.00487 0.999481 0.9863
1.00512 0.999082 0.986289
1.00479 0.99969 0.986279
1.00373 0.999996 0.987891
1.00468 0.999747 0.986445
1.00358 1.00002 0.988141
1.00124 1.00008 0.992243
1.00346 0.999999 0.9884
1.0012 0.999988 0.992993
0.999791 0.999957 0.998066
1.00121 0.99996 0.99365
0.999654 0.999935 0.995944
0.999405 1.00016 0.996059
1.00513 0.997879 0.987569
1.00514 0.998777 0.98659
1.00514 0.998014 0.987391
1.00476 0.999257 0.986607
1.00514 0.998915 0.986453
1.00518 0.998189 0.987058
1.00342 0.999755 0.988366
1.00459 0.999441 0.987065
1.00508 0.998998 0.986557
1.00097 1.00025 0.992521
1.00322 1.00004 0.988603
1.00435 0.999438 0.987166
0.999514 1.00052 0.998068
1.00069 1.00084 0.992475
1.00276 1.00088 0.988764
1.00021 1.00131 0.992827
0.999386 1.00021 0.998178
0.999362 0.999482 0.998466
1.00511 0.997966 0.987474
1.0051 0.997385 0.987998
1.00511 0.996988 0.988295
1.00511 0.998706 0.986764
1.0051 0.997962 0.987489
1.0051 0.997268 0.988242
1.00511 0.997834 0.987588
1.00511 0.99872 0.986796
1.00488 0.999375 0.986641
1.00513 0.999009 0.98639
1.00486 0.99956 0.986377
1.00384 0.999885 0.987542
1.00479 0.999686 0.98629
1.00372 0.999995 0.987894
1.00135 1.00009 0.992029
1.00359 1.00002 0.98814
1.00125 1.00007 0.992234
0.999831 0.999974 0.998017
1.00123 0.999972 0.992407
0.999732 0.999933 0.996982
0.999501 0.99993 0.996072
1.00513 0.99813 0.987297
1.00514 0.998698 0.986619
1.00513 0.997862 0.987571
1.00481 0.999308 0.9866
1.00514 0.998809 0.986522
1.00513 0.99808 0.98735
1.00362 0.999616 0.988123
1.00476 0.99933 0.986735
1.00515 0.998911 0.986521
1.00113 0.999936 0.992555
1.00344 0.999756 0.988331
1.0046 0.999452 0.98706
0.999627 1.00033 0.998091
1.00097 1.00025 0.992526
1.00323 1 0.988494
0.999495 1.00042 0.998071
1.00064 1.00086 0.992489
0.999324 1.00009 0.998251
1.00512 0.998598 0.986889
1.00511 0.997992 0.987423
1.0051 0.997385 0.988004
1.00484 0.999267 0.986795
1.00511 0.99866 0.986827
1.0051 0.997919 0.987538
1.00511 0.998706 0.9868
1.00488 0.99938 0.986638
1.00387 0.999793 0.987581
1.00486 0.999642 0.986454
1.00383 0.999923 0.987639
1.00144 1.00007 0.991876
1.00372 0.999991 0.987898
1.00135 1.00009 0.992022
0.999896 0.999994 0.997939
1.00126 1.00007 0.992224
0.999854 0.999978 0.997986
0.999801 0.999867 0.995761
1.00513 0.998692 0.986734
1.00513 0.998028 0.987348
1.00481 0.999285 0.98664
1.00514 0.998705 0.986618
1.00513 0.997842 0.987573
1.00372 0.999665 0.98823
1.00481 0.999309 0.986595
1.00514 0.998841 0.986455
1.00127 0.999837 0.992396
1.00363 0.999661 0.988214
1.00477 0.999405 0.986864
0.999775 1.00009 0.998063
1.00113 0.999928 0.992564
1.00345 0.999751 0.988295
0.999608 1.00032 0.998076
1.00096 1.00025 0.992527
0.999435 1.00038 0.998093
1.00481 0.999231 0.98689
1.00512 0.998628 0.986845
1.00511 0.998018 0.987371
1.00381 0.999731 0.987741
1.00484 0.999278 0.986796
1.00511 0.998611 0.986889
1.00488 0.999385 0.986634
1.00388 0.99979 0.987564
1.00148 1.00004 0.991837
1.00383 0.999957 0.987735
1.00144 1.00007 0.991873
0.999966 1.00001 0.997873
1.00135 1.0001 0.992015
0.999919 0.999999 0.997916
0.999876 0.999984 0.997955
1.00481 0.99926 0.986698
1.00513 0.998593 0.986805
1.00514 0.997929 0.987398
1.00372 0.999715 0.98817
1.00481 0.999287 0.986631
1.00513 0.998713 0.986616
1.00135 0.999891 0.99221
1.00371 0.999672 0.988225
1.0048 0.99931 0.986589
0.999888 0.999963 0.99799
1.00127 0.999847 0.992402
1.00364 0.999698 0.988306
0.999729 1.00012 0.998078
1.00112 0.999932 0.992573
0.9996 1.00031 0.998058
1.00377 0.999782 0.988036
1.00482 0.999196 0.986793
1.00512 0.998657 0.986802
1.00145 0.999999 0.991936
1.00382 0.999723 0.98772
1.00485 0.999288 0.986797
1.00388 0.999785 0.987548
1.00148 1.00003 0.991842
1.00001 1.00001 0.997823
1.00144 1.00006 0.991869
0.999984 1.00001 0.997849
0.999939 1 0.997895
1.00374 0.999748 0.988111
1.00481 0.999202 0.986701
1.00512 0.998496 0.986875
1.00144 0.999985 0.993236
1.00373 0.999714 0.988165
1.0048 0.999289 0.986622
0.999929 0.999947 0.997924
1.00135 0.999913 0.992214
1.00371 0.999679 0.988219
0.999851 0.999997 0.998019
1.00126 0.999868 0.992409
0.999701 1.00014 0.998085
1.00145 0.999989 0.991973
1.00377 0.999742 0.98794
1.00482 0.999158 0.986697
0.999999 1 0.997835
1.00144 1 0.991938
1.00384 0.999718 0.987699
1.00147 1.00003 0.991844
1.00001 1.00001 0.997823
1.00001 1.00001 0.997834
1.0015 0.999988 0.993146
1.00375 0.999743 0.988111
1.0048 0.999142 0.986704
0.999693 0.999983 0.998151
1.00137 0.999988 0.992104
1.00374 0.999712 0.988161
0.999916 0.999963 0.997953
1.00135 0.999937 0.992218
0.999818 1.00002 0.998046
0.999965 1 0.995444
1.00147 0.999988 0.992573
1.00377 0.999705 0.987843
0.999996 1 0.997838
1.00144 1 0.991945
1.00002 1.00001 0.997816
0.999687 1 0.995739
1.00144 0.999989 0.99261
1.00375 0.999739 0.988111
0.999807 0.999984 0.996824
1.00138 0.999982 0.992107
0.999896 0.999978 0.997978
0.999966 0.999997 0.997858
1.0014 0.999993 0.992037
0.999976 1 0.997847
0.999819 0.999994 0.996806
1.00139 0.999992 0.99207
0.999927 0.999973 0.997926
0.999955 0.999992 0.997876
0.999936 0.999985 0.997895

TENSORS stress float
0.001486 -5.83922e-05 0.000130928
-5.83922e-05 0.00049033 -1.53962e-05
0.000130928 -1.53962e-05 0.000469229
0.00437309 -0.000100512 0.000122485
-0.000100512 0.00213087 8.66466e-06
0.000122485 8.66466e-06 0.00211834
0.0014067 1.7654e-05 6.74321e-05
1.7654e-05 0.000461659 -5.05455e-06
6.74321e-05 -5.05455e-06 0.00042945
0.00170574 -3.88007e-05 0.000133515
-3.88007e-05 0.000591501 -1.04489e-05
0.000133515 -1.04489e-05 0.000572383
0.00160233 -5.43552e-05 0.000129839
-5.43552e-05 0.000549261 -1.43167e-05
0.000129839 -1.43167e-05 0.000528771
0.00129676 -4.66147e-05 0.000124435
-4.66147e-05 0.00038396 -1.41146e-05
0.000124435 -1.41146e-05 0.000365913
0.0013618 -2.08257e-05 1.3513e-05
-2.08257e-05 0.000362057 -7.6426e-06
1.3513e-05 -7.6426e-06 0.000290738
0.00421225 -0.00012876 7.86101e-06
-0.00012876 0.00204245 -9.97534e-07
7.86101e-06 -9.97534e-07 0.00202832
0.00494257 -6.7113e-05 3.56405e-05
-6.7113e-05 0.00242468 1.92022e-06
3.56405e-05 1.92022e-06 0.00240986
0.0043744 -0.000291425 -1.29488e-05
-0.000291425 0.00218163 5.51644e-06
-1.29488e-05 5.51644e-06 0.00213076
0.00142322 5.73163e-06 0.000107947
5.73163e-06 0.000451486 8.08694e-06
0.000107947 8.08694e-06 0.000440632
0.000752527 0.000105298 1.44488e-05
0.000105298 3.18217e-05 9.75001e-06
1.44488e-05 9.75001e-06 -3.26827e-05
0.00163638 -2.03967e-05 0.000148771
-2.03967e-05 0.000544608 1.70483e-06
0.000148771 1.70483e-06 0.000527344
0.00125318 -8.79294e-06 1.6227e-05
-8.79294e-06 0.000346686 1.66332e-06
1.6227e-05 1.66332e-06 0.000315348
0.00140437 4.71109e-05 -1.08103e-05
4.71109e-05 0.000461869 4.16946e-06
-1.08103e-05 4.16946e-06 0.000427415
0.0014787 -2.95576e-05 5.24463e-05
-2.95576e-05 0.000470997 -3.1329e-06
5.24463e-05 -3.1329e-06 0.000447435
0.00131993 2.6217e-05 6.46558e-05
2.6217e-05 0.000415798 -4.5836e-06
6.46558e-05 -4.5836e-06 0.000384287
0.00144285 -4.75809e-06 5.9879e-05
-4.75809e-06 0.000467184 -5.27386e-06
5.9879e-05 -5.27386e-06 0.000441094
0.00144113 -6.65108e-05 -2.54452e-05
-6.65108e-05 0.000392305 1.59056e-06
-2.54452e-05 1.59056e-06 0.000330435
0.00513788 -9.96088e-05 0.000159752
-9.96088e-05 0.00252912 -3.27418e-06
0.000159752 -3.27418e-06 0.0025238
0.00169129 -2.47556e-05 0.000137034
-2.47556e-05 0.000579525 -8.03687e-06
0.000137034 -8.03687e-06 0.000560187
0.00168197 -4.85314e-05 0.000131084
-4.85314e-05 0.000584296 -1.25511e-05
0.000131084 -1.25511e-05 0.00056488
0.00144807 -6.35008e-05 3.20773e-05
-6.35008e-05 0.000363281 -4.93464e-06
3.20773e-05 -4.93464e-06 0.000304578
0.00141895 -4.24222e-05 2.19543e-05
-4.24222e-05 0.000369057 -6.418e-06
2.19543e-05 -6.418e-06 0.000306578
0.00116514 -1.37473e-06 0.000101067
-1.37473e-06 0.000309617 -1.11778e-05
0.000101067 -1.11778e-05 0.000293607
0.00119978 -1.29375e-05 1.04268e-05
-1.29375e-05 0.000295047 -7.90615e-06
1.04268e-05 -7.90615e-06 0.000222305
0.00191994 -0.0001697 9.68445e-06
-0.0001697 0.000536151 -3.98637e-06
9.68445e-06 -3.98637e-06 0.000423768
0.00404809 -0.000155017 -9.39496e-05
-0.000155017 0.00195348 -5.01586e-06
-9.39496e-05 -5.01586e-06 0.0019367
0.00317707 -5.14819e-06 -7.66537e-05
-5.14819e-06 0.00143548 -3.54598e-06
-7.66537e-05 -3.54598e-06 0.00141555
0.00286064 -9.63501e-05 -5.75937e-05
-9.63501e-05 0.00128845 -1.85928e-06
-5.75937e-05 -1.85928e-06 0.0012607
0.00379867 -0.000129915 5.73115e-06
-0.000129915 0.00180253 -4.19216e-07
5.73115e-06 -4.19216e-07 0.00179288
0.00064427 9.24979e-05 -2.9727e-08
9.24979e-05 -2.39193e-05 -3.72352e-07
-2.9727e-08 -3.72352e-07 -8.74032e-05
0.00154097 4.66705e-05 0.000136765
4.66705e-05 0.000501287 9.485e-06
0.000136765 9.485e-06 0.000481746
0.00176088 9.04761e-05 0.000137393
9.04761e-05 0.000639055 1.27982e-05
0.000137393 1.27982e-05 0.000620072
0.00248446 0.000137718 8.39519e-05
0.000137718 0.000950595 9.89035e-06
8.39519e-05 9.89035e-06 0.000897123
0.00310469 -0.000154509 1.40322e-05
-0.000154509 0.00141527 1.71451e-06
1.40322e-05 1.71451e-06 0.00140181
0.00242556 0.000127558 7.51946e-05
0.000127558 0.00095599 1.02407e-05
7.51946e-05 1.02407e-05 0.000900826
0.000678744 5.41082e-05 1.27899e-05
5.41082e-05 -1.77952e-07 1.1698e-05
1.27899e-05 1.1698e-05 -5.58834e-05
0.000950038 0.000128028 5.9647e-06
0.000128028 8.7056e-05 2.9746e-06
5.9647e-06 2.9746e-06 -2.89786e-05
0.0026501 -9.58561e-05 5.6674e-05
-9.58561e-05 0.00114404 2.46811e-06
5.6674e-05 2.46811e-06 0.00114772
0.0051803 4.96763e-05 2.48815e-06
4.96763e-05 0.00254372 -9.8787e-07
2.48815e-06 -9.8787e-07 0.0025434
0.00320581 2.45991e-05 -6.0367e-05
2.45991e-05 0.00144214 -1.49101e-06
-6.0367e-05 -1.49101e-06 0.00142427
0.00517761 7.11043e-05 0.000160142
7.11043e-05 0.00254482 1.15437e-06
0.000160142 1.15437e-06 0.00254292
0.00133916 6.84869e-06 1.4743e-05
6.84869e-06 0.000394219 1.35792e-06
1.4743e-05 1.35792e-06 0.000362973
0.000737439 1.46914e-06 1.59299e-05
1.46914e-06 -6.40175e-05 1.98827e-06
1.59299e-05 1.98827e-06 -0.000127908
0.00488657 0.000122558 6.47039e-05
0.000122558 0.00239261 4.6253e-06
6.47039e-05 4.6253e-06 0.00237691
0.00252145 3.25137e-05 8.43441e-05
3.25137e-05 0.000942414 5.07164e-06
8.43441e-05 5.07164e-06 0.000896313
0.00120496 -5.37735e-05 -3.00567e-05
-5.37735e-05 0.000329154 3.61087e-06
-3.00567e-05 3.61087e-06 0.000298294
0.00131401 -1.04963e-05 -2.26033e-05
-1.04963e-05 0.00039864 3.77114e-06
-2.26033e-05 3.77114e-06 0.000369604
0.00137996 0.000123197 3.77144e-06
0.000123197 0.00047621 6.09223e-06
3.77144e-06 6.09223e-06 0.000426501
0.00146886 -8.77485e-05 -7.12089e-05
-8.77485e-05 0.000400396 9.93274e-06
-7.12089e-05 9.93274e-06 0.000343709
0.003296 2.46224e-05 -6.58052e-05
2.46224e-05 0.00149823 -1.0747e-06
-6.58052e-05 -1.0747e-06 0.00147494
0.00148171 -3.61947e-05 5.57876e-05
-3.61947e-05 0.000471952 -2.05819e-06
5.57876e-05 -2.05819e-06 0.000446351
0.00117669 4.12821e-05 5.04944e-05
4.12821e-05 0.000331002 -3.57153e-06
5.04944e-05 -3.57153e-06 0.000305301
0.00147155 -2.29443e-05 5.46158e-05
-2.29443e-05 0.000471475 -4.47682e-06
5.46158e-05 -4.47682e-06 0.000448187
0.00149221 -6.39159e-05 -1.97966e-05
-6.39159e-05 0.00038483 6.95552e-07
-1.97966e-05 6.95552e-07 0.000329179
0.0013253 -4.06566e-05 -2.82072e-05
-4.06566e-05 0.000356505 5.41707e-07
-2.82072e-05 5.41707e-07 0.000290075
0.00147653 -7.39717e-05 -2.14981e-05
-7.39717e-05 0.000394472 1.40673e-06
-2.14981e-05 1.40673e-06 0.000337029
0.00195236 -0.000169938 -4.63677e-06
-0.000169938 0.000553011 1.20017e-06
-4.63677e-06 1.20017e-06 0.000440419
0.00513248 7.21684e-05 0.000151118
7.21684e-05 0.00252074 -9.07914e-08
0.000151118 -9.07914e-08 0.00251891
0.00170043 -1.01786e-05 0.000141249
-1.01786e-05 0.000581993 -5.46788e-06
0.000141249 -5.46788e-06 0.000562537
0.00235551 5.81833e-05 1.731e-05
5.81833e-05 0.00086141 -1.28204e-06
1.731e-05 -1.28204e-06 0.00080475
0.00144853 -6.7017e-05 3.04571e-05
-6.7017e-05 0.000359619 -4.18377e-06
3.04571e-05 -4.18377e-06 0.000299169
0.001447 -5.84012e-05 2.86787e-05
-5.84012e-05 0.000368625 -5.60893e-06
2.86787e-05 -5.60893e-06 0.000309823
0.0019568 -0.000106848 9.60252e-06
-0.000106848 0.000493411 -2.34751e-06
9.60252e-06 -2.34751e-06 0.000393399
0.0015227 -0.000135256 1.17895e-05
-0.000135256 0.00028191 -4.19713e-06
1.17895e-05 -4.19713e-06 0.000173939
0.00112589 3.89846e-05 7.46987e-05
3.89846e-05 0.000280296 -8.54851e-06
7.46987e-05 -8.54851e-06 0.000266541
0.000882634 1.5775e-05 8.34321e-06
1.5775e-05 0.000144669 -6.35268e-06
8.34321e-06 -6.35268e-06 8.42917e-05
0.00173168 -0.000164143 7.30579e-06
-0.000164143 0.000484838 -3.97095e-06
7.30579e-06 -3.97095e-06 0.000369992
0.00128753 -0.000162242 6.30765e-06
-0.000162242 9.5196e-05 -1.44713e-06
6.30765e-06 -1.44713e-06 -4.42727e-05
0.00506706 3.03534e-05 -0.000152972
3.03534e-05 0.00248693 -9.2961e-06
-0.000152972 -9.2961e-06 0.00248514
0.00359223 -0.000142146 -8.04223e-05
-0.000142146 0.0016875 -3.17022e-06
-8.04223e-05 -3.17022e-06 0.00167716
0.00442413 -0.000154158 -0.00010441
-0.000154158 0.00217229 -7.64052e-06
-0.00010441 -7.64052e-06 0.00215111
0.000543403 8.81728e-05 -1.25964e-05
8.81728e-05 -7.64225e-05 -1.00726e-05
-1.25964e-05 -1.00726e-05 -0.000139193
0.0051795 8.12185e-05 -2.56373e-06
8.12185e-05 0.00254271 -1.15807e-06
-2.56373e-06 -1.15807e-06 0.00254111
0.00503365 -4.66974e-05 -7.27606e-06
-4.66974e-05 0.00248671 2.20484e-07
-7.27606e-06 2.20484e-07 0.00247641
0.000594684 0.000106123 -5.16635e-07
0.000106123 -0.00010684 -2.39087e-07
-5.16635e-07 -2.39087e-07 -0.000175657
0.00210113 -9.57643e-05 -3.37769e-05
-9.57643e-05 0.000842905 -1.59736e-07
-3.37769e-05 -1.59736e-07 0.000830952
0.000609725 0.000123049 -9.00129e-07
0.000123049 -5.8611e-05 -7.85759e-08
-9.00129e-07 -7.85759e-08 -0.000125853
0.00128243 3.31487e-05 2.15679e-05
3.31487e-05 0.000347208 2.6112e-07
2.15679e-05 2.6112e-07 0.000297908
0.000889517 0.000121379 3.15269e-07
0.000121379 5.1677e-05 -1.91344e-07
3.15269e-07 -1.91344e-07 -6.32224e-05
0.00298157 -9.90414e-05 7.50272e-05
-9.90414e-05 0.00133115 2.95733e-06
7.50272e-05 2.95733e-06 0.00133313
0.000622673 -6.58961e-05 -8.00319e-07
-6.58961e-05 -2.11383e-06 5.72186e-06
-8.00319e-07 5.72186e-06 -3.24371e-05
0.000711812 7.57658e-05 1.67341e-05
7.57658e-05 -6.12111e-05 7.85584e-06
1.67341e-05 7.85584e-06 -0.000127118
0.000747907 0.000121315 2.05969e-05
0.000121315 -6.49436e-06 1.22058e-05
2.05969e-05 1.22058e-05 -7.79279e-05
0.00105808 0.000118684 1.09305e-05
0.000118684 1.2236e-06 4.40537e-06
1.09305e-05 4.40537e-06 -0.000115951
0.00184507 -2.0839e-05 4.3074e-05
-2.0839e-05 0.000673627 5.35809e-06
4.3074e-05 5.35809e-06 0.000638011
0.000998399 0.000134222 7.6084e-06
0.000134222 6.23122e-05 4.59e-06
7.6084e-06 4.59e-06 -5.57731e-05
0.000943005 0.000110589 5.35264e-06
0.000110589 0.000129244 3.23434e-06
5.35264e-06 3.23434e-06 1.70828e-05
0.000914351 0.000152546 2.16217e-06
0.000152546 2.34573e-05 1.32816e-07
2.16217e-06 1.32816e-07 -0.000120427
0.00237907 -8.93185e-05 4.04426e-05
-8.93185e-05 0.000987205 2.5681e-06
4.04426e-05 2.5681e-06 0.000992914
0.0025319 -9.99268e-05 3.19273e-06
-9.99268e-05 0.00107943 -2.23052e-07
3.19273e-06 -2.23052e-07 0.00108198
0.00513649 2.02013e-05 -0.000153852
2.02013e-05 0.00251643 -6.07006e-06
-0.000153852 -6.07006e-06 0.00251685
0.00516798 4.3596e-05 -0.00015498
4.3596e-05 0.00253582 -2.83855e-06
-0.00015498 -2.83855e-06 0.00253628
0.00519794 7.59835e-05 -4.24888e-08
7.59835e-05 0.00256008 -1.20764e-06
-4.24888e-08 -1.20764e-06 0.00255565
0.00322365 -1.76704e-05 -7.38533e-05
-1.76704e-05 0.0014485 -1.74707e-06
-7.38533e-05 -1.74707e-06 0.0014328
0.00164025 1.75769e-05 3.60826e-05
1.75769e-05 0.000444207 3.9076e-07
3.60826e-05 3.9076e-07 0.000389015
0.00324429 6.63967e-05 -6.49646e-05
6.63967e-05 0.00146096 -3.0771e-06
-6.49646e-05 -3.0771e-06 0.00144387
0.00165043 4.85213e-05 3.43881e-05
4.85213e-05 0.000457589 9.53093e-07
3.43881e-05 9.53093e-07 0.000401772
0.00520075 0.00014292 0.000159287
0.00014292 0.00257053 2.78365e-06
0.000159287 2.78365e-06 0.00256006
0.000676514 -7.93259e-07 1.6278e-05
-7.93259e-07 -9.83458e-05 5.1573e-07
1.6278e-05 5.1573e-07 -0.000161716
0.00256866 4.75567e-06 8.58669e-05
4.75567e-06 0.000966481 3.51674e-06
8.58669e-05 3.51674e-06 0.000920473
0.00113853 2.58446e-05 1.12853e-05
2.58446e-05 3.75396e-06 1.36623e-06
1.12853e-05 1.36623e-06 -0.000104635
0.00245552 7.6054e-05 8.4318e-05
7.6054e-05 0.000912932 6.07549e-06
8.4318e-05 6.07549e-06 0.000864663
0.00114492 6.37755e-05 1.09006e-05
6.37755e-05 1.90267e-05 2.49616e-06
1.09006e-05 2.49616e-06 -9.06338e-05
0.00165679 2.72554e-05 -0.000147365
2.72554e-05 0.000557667 9.11336e-07
-0.000147365 9.11336e-07 0.000540397
0.00123736 -1.48831e-05 -2.06084e-05
-1.48831e-05 0.000341663 1.94212e-06
-2.06084e-05 1.94212e-06 0.000311548
0.00118859 0.000105793 -2.73024e-06
0.000105793 0.00035699 4.59463e-06
-2.73024e-06 4.59463e-06 0.000317676
0.00124674 -3.59236e-05 -2.88976e-05
-3.59236e-05 0.000354174 3.75743e-06
-2.88976e-05 3.75743e-06 0.00032534
0.00158234 -4.82926e-05 -7.23335e-05
-4.82926e-05 0.000429915 5.8282e-06
-7.23335e-05 5.8282e-06 0.00037857
0.00152074 -7.75127e-05 -7.06782e-05
-7.75127e-05 0.000414005 8.99231e-06
-7.06782e-05 8.99231e-06 0.000360276
0.00138985 -7.88133e-05 -6.74339e-05
-7.88133e-05 0.000379525 9.61301e-06
-6.74339e-05 9.61301e-06 0.000322017
0.00199478 -0.000171239 -1.87078e-05
-0.000171239 0.000575896 6.3335e-06
-1.87078e-05 6.3335e-06 0.000462935
0.00519128 -7.66076e-05 4.66565e-07
-7.66076e-05 0.00255633 -9.14147e-07
4.66565e-07 -9.14147e-07 0.00255173
0.00148055 3.03153e-05 6.47081e-05
3.03153e-05 0.00046702 -1.80234e-06
6.47081e-05 -1.80234e-06 0.000442065
0.00113969 5.58466e-06 -3.8735e-05
5.58466e-06 0.000166333 5.36511e-07
-3.8735e-05 5.36511e-07 0.000109177
0.00150064 -4.11436e-05 -2.29912e-05
-4.11436e-05 0.000383111 6.75077e-07
-2.29912e-05 6.75077e-07 0.000327317
0.00228305 7.37576e-05 7.39402e-05
7.37576e-05 0.000942368 -4.90334e-07
7.39402e-05 -4.90334e-07 0.000932967
0.00147765 -8.46895e-06 -1.87565e-05
-8.46895e-06 0.000466948 -4.96529e-07
-1.87565e-05 -4.96529e-07 0.000410531
0.00149425 -7.077e-05 -1.9714e-05
-7.077e-05 0.000392171 1.00473e-06
-1.9714e-05 1.00473e-06 0.00033642
0.00177767 -9.89792e-05 -6.72045e-06
-9.89792e-05 0.000391517 1.19676e-06
-6.72045e-06 1.19676e-06 0.000290339
0.00185296 -0.000172837 -3.56928e-06
-0.000172837 0.000550404 1.01704e-06
-3.56928e-06 1.01704e-06 0.000433369
0.00176279 -0.000143833 -2.41212e-06
-0.000143833 0.000416561 5.1259e-07
-2.41212e-06 5.1259e-07 0.000309363
0.00124738 -0.000158938 1.56293e-07
-0.000158938 7.42174e-05 -5.16589e-08
1.56293e-07 -5.16589e-08 -6.47032e-05
0.000709959 7.31542e-06 1.65625e-05
7.31542e-06 -7.87901e-05 -1.23311e-06
1.65625e-05 -1.23311e-06 -0.000141251
0.00145517 5.75891e-06 2.3278e-05
5.75891e-06 0.00035408 -2.45766e-06
2.3278e-05 -2.45766e-06 0.000294752
0.00160489 -2.05102e-05 1.13179e-05
-2.05102e-05 0.000268353 -1.1514e-06
1.13179e-05 -1.1514e-06 0.000166785
0.00155899 -7.63472e-05 1.08847e-05
-7.63472e-05 0.00026247 -2.28839e-06
1.08847e-05 -2.28839e-06 0.000159948
0.0015399 -0.000115695 1.16346e-05
-0.000115695 0.000269844 -3.49035e-06
1.16346e-05 -3.49035e-06 0.000165266
0.0017726 -0.000114049 3.1862e-06
-0.000114049 0.000301021 -8.55619e-07
3.1862e-06 -8.55619e-07 0.000178276
0.00323102 0.000122819 7.12576e-05
0.000122819 0.00147204 -2.47274e-06
7.12576e-05 -2.47274e-06 0.00146833
0.0013372 -0.000145945 5.71336e-06
-0.000145945 9.25074e-05 -1.57449e-06
5.71336e-06 -1.57449e-06 -3.9327e-05
0.000513812 1.02145e-05 5.29161e-06
1.02145e-05 -7.34306e-05 -7.46877e-06
5.29161e-06 -7.46877e-06 -0.000121521
0.000666196 -0.000106207 4.31924e-06
-0.000106207 -4.18873e-05 -3.59175e-06
4.31924e-06 -3.59175e-06 -0.000152049
0.0013622 -0.000181914 5.72322e-06
-0.000181914 0.000197543 -2.7332e-06
5.72322e-06 -2.7332e-06 4.60143e-05
0.00145132 -0.000178382 3.37806e-06
-0.000178382 0.000124405 6.09129e-07
3.37806e-06 6.09129e-07 -2.22511e-05
0.000526178 4.5174e-05 1.86609e-06
4.5174e-05 -6.54334e-05 -6.73813e-06
1.86609e-06 -6.73813e-06 -0.000103464
0.0006963 1.98617e-05 6.41074e-07
1.98617e-05 1.45866e-05 -3.29406e-06
6.41074e-07 -3.29406e-06 -6.17997e-05
0.00516607 8.65565e-05 -0.000165505
8.65565e-05 0.00253693 -1.00181e-05
-0.000165505 -1.00181e-05 0.00253515
0.00478448 -6.44604e-05 -0.000129499
-6.44604e-05 0.00234835 -8.03948e-06
-0.000129499 -8.03948e-06 0.00234034
0.000587111 9.66216e-05 -1.57996e-05
9.66216e-05 -0.000111486 -8.75161e-06
-1.57996e-05 -8.75161e-06 -0.000180343
0.00315948 -0.000125326 -6.72499e-05
-0.000125326 0.00143834 -2.42187e-06
-6.72499e-05 -2.42187e-06 0.0014338
0.000510647 2.26339e-05 -6.51086e-06
2.26339e-05 -8.29126e-05 -8.90451e-06
-6.51086e-06 -8.90451e-06 -0.000134398
0.000512089 0.000115129 -1.5788e-05
0.000115129 -0.000109943 -1.00102e-05
-1.5788e-05 -1.00102e-05 -0.000176718
0.000845006 0.000116394 -6.09593e-06
0.000116394 2.55215e-05 -3.57319e-06
-6.09593e-06 -3.57319e-06 -8.8496e-05
0.00286827 -0.000108063 3.84435e-06
-0.000108063 0.00127063 -2.24168e-07
3.84435e-06 -2.24168e-07 0.00127078
0.000581431 -7.41608e-05 2.40327e-08
-7.41608e-05 -2.24282e-05 2.48405e-07
2.40327e-08 2.48405e-07 -5.41206e-05
0.0015918 9.30777e-05 3.36146e-05
9.30777e-05 0.000435024 1.42294e-06
3.36146e-05 1.42294e-06 0.000376061
0.00149513 0.000126094 3.06232e-05
0.000126094 0.000416363 1.01187e-06
3.06232e-05 1.01187e-06 0.000353722
0.00107066 0.00012102 2.0158e-07
0.00012102 9.34393e-06 -1.51227e-07
2.0158e-07 -1.51227e-07 -0.000108329
0.000629139 -1.88804e-05 -5.41787e-07
-1.88804e-05 -8.49564e-06 1.51181e-07
-5.41787e-07 1.51181e-07 -5.08737e-05
0.000956533 0.00013115 4.29391e-07
0.00013115 3.99277e-05 3.67362e-07
4.29391e-07 3.67362e-07 -7.76545e-05
0.00083962 0.000101279 2.61003e-07
0.000101279 7.10184e-05 -2.70496e-07
2.61003e-07 -2.70496e-07 -3.90786e-05
0.000835371 0.0001476 -5.6587e-08
0.0001476 -2.19132e-05 6.3943e-08
-5.6587e-08 6.3943e-08 -0.000165941
0.000625639 -4.60026e-05 3.26383e-06
-4.60026e-05 -8.20112e-07 6.39896e-06
3.26383e-06 6.39896e-06 -3.81084e-05
0.000654292 -6.57668e-05 -9.5714e-07
-6.57668e-05 6.28177e-06 4.70359e-06
-9.5714e-07 4.70359e-06 -1.73334e-05
0.000679029 3.80637e-06 2.00847e-06
3.80637e-06 1.88757e-05 3.12503e-06
2.00847e-06 3.12503e-06 -5.23719e-05
0.001096 0.000100363 1.1058e-05
0.000100363 2.87286e-06 3.80993e-06
1.1058e-05 3.80993e-06 -0.000111436
0.0010279 0.00013213 9.79136e-06
0.00013213 2.69618e-05 4.62847e-06
9.79136e-06 4.62847e-06 -9.25844e-05
0.00130146 0.000148071 6.27713e-06
0.000148071 5.5217e-05 1.68716e-06
6.27713e-06 1.68716e-06 -8.61831e-05
0.000887031 8.26326e-05 4.2183e-06
8.26326e-05 0.000122799 3.44479e-06
4.2183e-06 3.44479e-06 2.11331e-05
0.000914771 0.000152164 2.75914e-06
0.000152164 -4.94206e-05 1.88174e-06
2.75914e-06 1.88174e-06 -0.000193226
0.00114383 0.000163903 2.35506e-06
0.000163903 0.000215923 8.17706e-07
2.35506e-06 8.17706e-07 6.95309e-05
0.00112815 0.000178875 -3.14534e-06
0.000178875 0.000124933 -1.40865e-06
-3.14534e-06 -1.40865e-06 -2.9654e-05
0.00222689 -7.92123e-05 3.35602e-05
-7.92123e-05 0.000893437 2.84974e-06
3.35602e-05 2.84974e-06 0.000902134
0.00230494 -8.89304e-05 1.49401e-06
-8.89304e-05 0.000945467 -1.62991e-07
1.49401e-06 -1.62991e-07 0.000951248
0.0024238 -9.96952e-05 -3.91084e-05
-9.96952e-05 0.00101971 -2.45117e-06
-3.91084e-05 -2.45117e-06 0.0010222
0.000548912 5.52212e-05 1.04175e-06
5.52212e-05 -5.33019e-05 -5.92929e-06
1.04175e-06 -5.92929e-06 -8.69872e-05
0.00302678 0.000112961 6.07621e-05
0.000112961 0.00135261 -2.58112e-06
6.07621e-05 -2.58112e-06 0.00135194
0.00516935 0.000114399 -0.000168421
0.000114399 0.00254083 -9.63564e-06
-0.000168421 -9.63564e-06 0.00253711
0.00511579 8.51232e-06 -0.000152475
8.51232e-06 0.00250567 -4.20137e-06
-0.000152475 -4.20137e-06 0.00250666
0.000716627 5.7638e-05 -1.66083e-05
5.7638e-05 -6.45875e-05 -4.25442e-06
-1.66083e-05 -4.25442e-06 -0.000128524
0.000688406 2.26063e-05 -1.67363e-05
2.26063e-05 -8.68069e-05 -2.24802e-06
-1.67363e-05 -2.24802e-06 -0.000150983
0.00516116 -5.42787e-05 -0.000151718
-5.42787e-05 0.00253414 -6.94242e-07
-0.000151718 -6.94242e-07 0.00253365
0.00518048 1.51975e-05 -7.47998e-07
1.51975e-05 0.00254504 4.02334e-07
-7.47998e-07 4.02334e-07 0.00254405
0.000674746 -2.34663e-06 -1.46879e-07
-2.34663e-06 -9.94078e-05 -1.83849e-07
-1.46879e-07 -1.83849e-07 -0.000162498
0.00162158 1.97893e-05 3.53343e-05
1.97893e-05 0.00043801 8.06039e-07
3.53343e-05 8.06039e-07 0.00038329
0.00114834 3.00918e-05 1.32178e-07
3.00918e-05 9.35759e-06 -1.89197e-07
1.32178e-07 -1.89197e-07 -9.92244e-05
0.000669483 5.39424e-05 9.53801e-08
5.39424e-05 -8.87363e-05 -1.72654e-07
9.53801e-08 -1.72654e-07 -0.000152781
0.00113388 6.60621e-05 -1.00854e-07
6.60621e-05 1.33763e-05 -5.8565e-08
-1.00854e-07 -5.8565e-08 -9.6671e-05
0.000666902 -1.64397e-05 1.65724e-05
-1.64397e-05 -0.000105026 -4.82934e-07
1.65724e-05 -4.82934e-07 -0.000167697
0.00114622 1.12945e-05 1.11712e-05
1.12945e-05 3.61081e-06 5.45559e-07
1.11712e-05 5.45559e-07 -0.000104586
0.0011383 4.53647e-05 1.10938e-05
4.53647e-05 1.09338e-05 2.09337e-06
1.10938e-05 2.09337e-06 -9.78251e-05
0.00141579 3.49166e-05 4.41738e-06
3.49166e-05 6.62212e-05 4.95644e-07
4.41738e-06 4.95644e-07 -5.70156e-05
0.00112309 8.09772e-05 1.09358e-05
8.09772e-05 9.95003e-06 2.96721e-06
1.09358e-05 2.96721e-06 -0.000101699
0.0014075 7.65973e-05 4.44268e-06
7.65973e-05 8.02492e-05 8.54571e-07
4.44268e-06 8.54571e-07 -4.74201e-05
0.00517386 -6.10066e-05 -0.000162465
-6.10066e-05 0.00254444 -3.80573e-07
-0.000162465 -3.80573e-07 0.00254133
0.00128454 -6.39593e-05 -1.79745e-05
-6.39593e-05 0.000367615 1.87226e-06
-1.79745e-05 1.87226e-06 0.000335668
-0.000164816 -3.34282e-07 -1.35054e-05
-3.34282e-07 -0.000565927 2.18025e-06
-1.35054e-05 2.18025e-06 -0.000636482
0.00158733 -3.26123e-05 -7.39091e-05
-3.26123e-05 0.000427778 4.33139e-06
-7.39091e-05 4.33139e-06 0.000375622
0.00329796 0.000176238 -1.44868e-05
0.000176238 0.00153499 1.77398e-06
-1.44868e-05 1.77398e-06 0.00151428
0.00207517 -6.57464e-05 -5.62163e-05
-6.57464e-05 0.000784943 8.20687e-06
-5.62163e-05 8.20687e-06 0.000736596
0.00156209 -6.44317e-05 -7.13123e-05
-6.44317e-05 0.000425539 7.57356e-06
-7.13123e-05 7.57356e-06 0.000373522
0.00157848 -9.07739e-05 -2.13483e-05
-9.07739e-05 0.000278231 4.24546e-06
-2.13483e-05 4.24546e-06 0.000176021
0.0020017 -0.000152693 -1.7843e-05
-0.000152693 0.000550758 5.3986e-06
-1.7843e-05 5.3986e-06 0.000444349
0.00201682 -0.000183156 -1.56798e-05
-0.000183156 0.000640209 6.66079e-06
-1.56798e-05 6.66079e-06 0.000520729
0.00121368 -0.000156035 -5.34766e-06
-0.000156035 5.68023e-05 1.16761e-06
-5.34766e-06 1.16761e-06 -8.16215e-05
0.000669244 9.2875e-06 8.22675e-09
9.2875e-06 -0.000101563 -1.55927e-07
8.22675e-09 -1.55927e-07 -0.000163986
0.00154425 -3.77492e-05 -2.46832e-05
-3.77492e-05 0.00040117 2.23934e-07
-2.46832e-05 2.23934e-07 0.000344684
0.00118433 -1.76389e-05 -4.71687e-06
-1.76389e-05 3.2799e-05 2.1178e-07
-4.71687e-06 2.1178e-07 -7.23187e-05
0.00181425 -7.94708e-05 -3.28782e-06
-7.94708e-05 0.000403242 4.38548e-07
-3.28782e-06 4.38548e-07 0.000302353
0.00326229 0.000118362 -1.82093e-06
0.000118362 0.00148994 -3.28843e-07
-1.82093e-06 -3.28843e-07 0.00148675
0.00122311 -2.70573e-06 1.95826e-06
-2.70573e-06 0.000322953 4.9353e-07
1.95826e-06 4.9353e-07 0.000274358
0.00122567 -0.0001313 6.22519e-07
-0.0001313 0.000267375 -5.14639e-07
6.22519e-07 -5.14639e-07 0.000156343
0.00155717 -0.000114981 -3.66343e-06
-0.000114981 0.00027979 6.89509e-07
-3.66343e-06 6.89509e-07 0.000175199
0.00146665 -0.000104311 -2.50184e-06
-0.000104311 0.000128926 6.55654e-07
-2.50184e-06 6.55654e-07 5.01274e-06
0.00103 -0.000160899 -7.05735e-07
-0.000160899 1.59376e-05 -4.61141e-07
-7.05735e-07 -4.61141e-07 -0.000133737
0.0015472 -0.000152943 2.30538e-07
-0.000152943 0.000210473 -6.44837e-08
2.30538e-07 -6.44837e-08 7.96238e-05
0.00139963 -0.00017501 4.46901e-07
-0.00017501 9.78969e-05 1.86965e-07
4.46901e-07 1.86965e-07 -4.84641e-05
0.000558082 3.94005e-05 -6.63943e-07
3.94005e-05 -4.85094e-05 8.95634e-08
-6.63943e-07 8.95634e-08 -8.63345e-05
0.000682127 5.531e-06 -1.81014e-07
5.531e-06 4.9541e-06 1.17301e-07
-1.81014e-07 1.17301e-07 -7.1633e-05
0.00113166 -8.77019e-06 1.09974e-05
-8.77019e-06 -3.35586e-06 -1.09007e-06
1.09974e-05 -1.09007e-06 -0.000110671
0.0016132 -4.39887e-05 1.08776e-05
-4.39887e-05 0.000278645 -1.61561e-06
1.08776e-05 -1.61561e-06 0.000176621
0.00179254 -2.74029e-05 3.20513e-06
-2.74029e-05 0.000283503 -2.52626e-07
3.20513e-06 -2.52626e-07 0.000165493
0.00123413 -7.70443e-05 5.24138e-06
-7.70443e-05 -9.8133e-06 -1.32662e-06
5.24138e-06 -1.32662e-06 -0.000134215
0.00164622 -0.000138779 4.66601e-06
-0.000138779 0.000243802 -1.23056e-06
4.66601e-06 -1.23056e-06 0.000117443
0.00166905 -0.000112792 1.31736e-07
-0.000112792 0.000187548 9.58272e-08
1.31736e-07 9.58272e-08 6.20969e-05
0.000495452 2.45142e-05 4.10742e-06
2.45142e-05 -8.4194e-05 -7.1057e-06
4.10742e-06 -7.1057e-06 -0.000126386
0.00142873 -0.0001545 2.38029e-06
-0.0001545 8.63819e-05 -2.962e-07
2.38029e-06 -2.962e-07 -4.93752e-05
0.000630199 -7.52223e-05 2.94046e-06
-7.52223e-05 -2.93945e-05 -2.26366e-06
2.94046e-06 -2.26366e-06 -0.000129928
0.000543725 -0.00013067 4.09981e-06
-0.00013067 -0.00016367 -4.19481e-06
4.09981e-06 -4.19481e-06 -0.0003112
0.00196051 -0.000230545 2.18306e-06
-0.000230545 0.000474637 5.17434e-08
2.18306e-06 5.17434e-08 0.000307877
0.00158626 -0.000187131 2.77577e-07
-0.000187131 0.000155579 1.41235e-06
2.77577e-07 1.41235e-06 1.33456e-05
0.00075662 -2.7563e-05 1.78118e-06
-2.7563e-05 5.1244e-05 -3.02727e-06
1.78118e-06 -3.02727e-06 -3.77383e-05
0.00066601 1.92555e-05 1.2199e-06
1.92555e-05 -4.13735e-06 -2.76217e-06
1.2199e-06 -2.76217e-06 -7.09548e-05
0.000845715 -6.63801e-05 7.77036e-07
-6.63801e-05 0.000100389 -6.3628e-07
7.77036e-07 -6.3628e-07 -9.33364e-06
0.000633037 7.73753e-05 -1.55153e-05
7.73753e-05 -0.000101044 -6.92735e-06
-1.55153e-05 -6.92735e-06 -0.00016731
0.00275308 -0.000113111 -5.02062e-05
-0.000113111 0.00120829 -2.26859e-06
-5.02062e-05 -2.26859e-06 0.0012072
0.000528325 -6.80615e-05 2.08405e-07
-6.80615e-05 -5.44524e-05 -5.02011e-06
2.08405e-07 -5.02011e-06 -8.42824e-05
0.000529819 0.000112247 -1.58849e-05
0.000112247 -0.000120053 -1.01476e-05
-1.58849e-05 -1.01476e-05 -0.000189619
0.00108039 0.000123512 -1.12315e-05
0.000123512 1.58522e-05 -4.72271e-06
-1.12315e-05 -4.72271e-06 -0.000102344
0.000491355 -2.79131e-05 -3.5382e-06
-2.79131e-05 -8.28566e-05 -7.5277e-06
-3.5382e-06 -7.5277e-06 -0.000125401
0.000719225 8.97584e-05 -3.78361e-06
8.97584e-05 3.64836e-06 -3.46297e-06
-3.78361e-06 -3.46297e-06 -0.00010439
0.000908375 0.000127411 -7.06608e-06
0.000127411 1.43277e-05 -3.97307e-06
-7.06608e-06 -3.97307e-06 -0.000102697
0.000730213 0.000141028 -3.54314e-06
0.000141028 -8.20553e-05 -1.00899e-06
-3.54314e-06 -1.00899e-06 -0.000225988
0.000558475 -5.02182e-05 1.55337e-06
-5.02182e-05 -3.91496e-05 1.60723e-07
1.55337e-06 1.60723e-07 -7.51553e-05
0.000617045 -6.05864e-05 -2.72892e-07
-6.05864e-05 -1.61414e-05 1.59251e-07
-2.72892e-07 1.59251e-07 -3.84458e-05
0.000659665 -3.07804e-05 3.45114e-07
-3.07804e-05 4.54082e-06 3.81738e-07
3.45114e-07 3.81738e-07 -6.25591e-05
0.00110472 0.000102624 9.0239e-08
0.000102624 8.59991e-06 -2.10409e-07
9.0239e-08 -2.10409e-07 -0.000106164
0.00101748 0.000132263 5.76507e-07
0.000132263 2.20886e-05 -3.47527e-07
5.76507e-07 -3.47527e-07 -9.74548e-05
0.00132852 0.000150486 3.38243e-07
0.000150486 6.92866e-05 2.12327e-08
3.38243e-07 2.12327e-08 -7.25091e-05
0.000791536 7.18971e-05 8.94774e-08
7.18971e-05 7.16885e-05 4.69597e-08
8.94774e-08 4.69597e-08 -2.9073e-05
0.00110369 0.000163879 -2.69856e-07
0.000163879 5.63057e-05 -2.0598e-07
-2.69856e-07 -2.0598e-07 -8.8783e-05
0.00102504 0.000154472 4.66739e-07
0.000154472 0.000149966 -5.31061e-07
4.66739e-07 -5.31061e-07 4.65077e-06
0.00105533 0.000177198 -7.72876e-07
0.000177198 8.22569e-05 1.3005e-06
-7.72876e-07 1.3005e-06 -7.20261e-05
0.000659919 -5.3503e-05 1.2968e-06
-5.3503e-05 -4.02703e-06 3.78358e-06
1.2968e-06 3.78358e-06 -2.12118e-05
0.000723313 3.72381e-05 2.54826e-06
3.72381e-05 3.72332e-05 2.83133e-06
2.54826e-06 2.83133e-06 -4.79677e-05
0.000661587 -4.32452e-05 2.30876e-07
-4.32452e-05 5.28386e-07 2.54811e-06
2.30876e-07 2.54811e-06 -5.23554e-05
0.000825459 4.13313e-05 2.36293e-07
4.13313e-05 0.000107969 1.12446e-06
2.36293e-07 1.12446e-06 4.43101e-06
0.00139407 0.000125336 6.2356e-06
0.000125336 8.51163e-05 1.67832e-06
6.2356e-06 1.67832e-06 -5.12104e-05
0.00123023 0.000164517 5.85499e-06
0.000164517 6.29276e-05 2.69483e-06
5.85499e-06 2.69483e-06 -8.31705e-05
0.00153339 0.000170925 3.81774e-06
0.000170925 0.000124005 4.0225e-07
3.81774e-06 4.0225e-07 -2.82844e-05
0.00109897 0.000131521 2.37916e-06
0.000131521 0.000229588 2.47081e-06
2.37916e-06 2.47081e-06 9.76132e-05
0.00141017 0.000196114 -7.5443e-07
0.000196114 0.000176428 2.3065e-06
-7.5443e-07 2.3065e-06 2.27928e-05
0.000987986 0.000168255 -8.29111e-07
0.000168255 0.000120864 -1.99127e-06
-8.29111e-07 -1.99127e-06 -4.85781e-05
0.00101908 0.000181953 -3.70162e-07
0.000181953 1.99968e-05 -5.34574e-07
-3.70162e-07 -5.34574e-07 -0.000136241
0.000715314 -2.69518e-05 1.42209e-06
-2.69518e-05 3.46959e-06 1.76631e-06
1.42209e-06 1.76631e-06 -3.39162e-05
0.000657692 -4.01124e-05 1.18463e-06
-4.01124e-05 -2.31031e-05 3.60659e-06
1.18463e-06 3.60659e-06 -3.46142e-05
0.00215639 -6.97471e-05 2.87807e-05
-6.97471e-05 0.00084445 3.21662e-06
2.87807e-05 3.21662e-06 0.000855844
0.00217917 -7.81773e-05 1.67048e-06
-7.81773e-05 0.000865583 -1.51326e-07
1.67048e-06 -1.51326e-07 0.000874596
0.00222127 -8.69055e-05 -3.44954e-05
-8.69055e-05 0.000897966 -2.69969e-06
-3.44954e-05 -2.69969e-06 0.000904254
0.000570906 5.74406e-05 6.47403e-07
5.74406e-05 -4.66351e-05 -5.20441e-06
6.47403e-07 -5.20441e-06 -7.57357e-05
0.00280766 0.000102785 5.07527e-05
0.000102785 0.0012263 -2.83305e-06
5.07527e-05 -2.83305e-06 0.00122819
0.000576026 5.23947e-05 -2.53783e-07
5.23947e-05 -3.8596e-05 1.12659e-07
-2.53783e-07 1.12659e-07 -7.21943e-05
0.00306702 0.000108604 -1.95592e-06
0.000108604 0.00137432 -2.28715e-07
-1.95592e-06 -2.28715e-07 0.00137447
0.000692113 6.90204e-05 -1.62919e-05
6.90204e-05 -7.47498e-05 -5.50135e-06
-1.62919e-05 -5.50135e-06 -0.000139922
0.000683919 3.02966e-05 -1.62303e-05
3.02966e-05 -8.60387e-05 -3.26738e-06
-1.62303e-05 -3.26738e-06 -0.000149709
0.00112967 6.77367e-05 -1.07553e-05
6.77367e-05 1.12965e-05 -2.58475e-06
-1.07553e-05 -2.58475e-06 -9.90507e-05
0.00114786 3.22173e-05 -1.13064e-05
3.22173e-05 9.34041e-06 -1.71227e-06
-1.13064e-05 -1.71227e-06 -9.93596e-05
0.000702431 -1.55169e-06 -1.68619e-05
-1.55169e-06 -8.53891e-05 -9.89551e-07
-1.68619e-05 -9.89551e-07 -0.000147616
0.00521107 -9.36837e-05 -0.000165227
-9.36837e-05 0.00256616 1.75705e-06
-0.000165227 1.75705e-06 0.00256269
0.000690955 -1.15984e-06 1.03622e-07
-1.15984e-06 -9.25489e-05 -3.09274e-07
1.03622e-07 -3.09274e-07 -0.000154924
0.00115102 1.57466e-05 -6.00066e-09
1.57466e-05 6.4665e-06 -1.59642e-07
-6.00066e-09 -1.59642e-07 -0.000101823
0.00113963 4.65877e-05 -8.89949e-09
4.65877e-05 1.20427e-05 -8.93857e-08
-8.89949e-09 -8.93857e-08 -9.68945e-05
0.00140888 3.44014e-05 -2.32192e-08
3.44014e-05 6.37412e-05 -9.139e-08
-2.32192e-08 -9.139e-08 -5.95616e-05
0.00112359 8.36738e-05 -2.76445e-08
8.36738e-05 1.08297e-05 -2.13543e-07
-2.76445e-08 -2.13543e-07 -0.000101364
0.00139855 7.86857e-05 -7.84598e-08
7.86857e-05 7.54569e-05 2.86906e-08
-7.84598e-08 2.86906e-08 -5.25942e-05
0.00115501 -3.07962e-07 1.11067e-05
-3.07962e-07 8.22183e-06 -2.22482e-07
1.11067e-05 -2.22482e-07 -9.96277e-05
0.00142144 2.09369e-05 4.21517e-06
2.09369e-05 6.26294e-05 2.62413e-07
4.21517e-06 2.62413e-07 -5.95881e-05
0.00141204 5.65915e-05 4.47873e-06
5.65915e-05 7.60235e-05 7.89789e-07
4.47873e-06 7.89789e-07 -4.9096e-05
0.00157021 4.58848e-05 8.68982e-08
4.58848e-05 7.60548e-05 -7.48151e-08
8.68982e-08 -7.48151e-08 -4.28553e-05
0.00141826 0.000100679 4.75361e-06
0.000100679 8.87403e-05 8.79656e-07
4.75361e-06 8.79656e-07 -4.30801e-05
0.00154267 8.83756e-05 1.12854e-07
8.83756e-05 9.04333e-05 -3.32583e-07
1.12854e-07 -3.32583e-07 -3.64979e-05
0.000676171 1.16262e-05 -1.59617e-05
1.16262e-05 -9.83253e-05 7.83751e-07
-1.59617e-05 7.83751e-07 -0.000160889
0.00160552 -1.33783e-05 -7.55424e-05
-1.33783e-05 0.000431683 2.93793e-06
-7.55424e-05 2.93793e-06 0.00037877
0.000750194 -1.33375e-05 -1.20146e-05
-1.33375e-05 -0.000210278 1.60362e-06
-1.20146e-05 1.60362e-06 -0.000319006
0.00205047 -8.12092e-05 -1.88074e-05
-8.12092e-05 0.000533137 3.13143e-06
-1.88074e-05 3.13143e-06 0.000434059
0.00330119 0.000109205 -8.43862e-05
0.000109205 0.00151126 3.07357e-06
-8.43862e-05 3.07357e-06 0.00150941
0.00197925 -1.40305e-05 -4.73021e-05
-1.40305e-05 0.000742603 5.68193e-06
-4.73021e-05 5.68193e-06 0.000700162
0.00185357 -0.000164868 -1.07506e-05
-0.000164868 0.000613329 4.99807e-06
-1.07506e-05 4.99807e-06 0.000500473
0.00156064 -0.000113648 -1.85553e-05
-0.000113648 0.00028191 4.68213e-06
-1.85553e-05 4.68213e-06 0.000177465
0.00115536 -9.42679e-05 -6.52794e-06
-9.42679e-05 -4.61218e-05 1.78452e-06
-6.52794e-06 1.78452e-06 -0.000171174
0.00175742 -0.000160046 -6.67807e-06
-0.000160046 0.000328538 1.77731e-06
-6.67807e-06 1.77731e-06 0.000198658
0.000687505 -0.000139043 -5.17355e-06
-0.000139043 -0.000171347 1.049e-06
-5.17355e-06 1.049e-06 -0.000319051
0.00135409 -0.000171873 -2.39903e-06
-0.000171873 7.45142e-05 -1.86328e-07
-2.39903e-06 -1.86328e-07 -7.15259e-05
0.000598814 3.09605e-05 -4.24836e-06
3.09605e-05 -2.61681e-05 6.43654e-06
-4.24836e-06 6.43654e-06 -6.40575e-05
0.000684266 -9.20659e-06 -1.92839e-06
-9.20659e-06 5.79652e-06 2.86345e-06
-1.92839e-06 2.86345e-06 -7.20166e-05
0.000951 -4.57575e-06 -4.38517e-07
-4.57575e-06 -0.00010368 -1.74798e-07
-4.38517e-07 -1.74798e-07 -0.000212231
0.00161527 -4.52419e-05 -3.91623e-06
-4.52419e-05 0.000279071 3.52163e-07
-3.91623e-06 3.52163e-07 0.000177014
0.0017388 -2.39281e-05 -2.36982e-06
-2.39281e-05 0.000251291 3.15323e-07
-2.36982e-06 3.15323e-07 0.00013346
0.0015368 -8.24568e-05 9.46886e-07
-8.24568e-05 0.000158883 -3.21257e-07
9.46886e-07 -3.21257e-07 3.62045e-05
0.000572417 1.47393e-05 1.54591e-07
1.47393e-05 -4.37393e-05 1.70719e-07
1.54591e-07 1.70719e-07 -8.57765e-05
0.000824701 -9.3242e-05 -1.02217e-07
-9.3242e-05 7.74186e-05 2.71221e-07
-1.02217e-07 2.71221e-07 -2.55715e-05
0.000735491 -0.000142721 1.34772e-06
-0.000142721 -5.35325e-05 -1.47564e-06
1.34772e-06 -1.47564e-06 -0.000200317
0.00172969 -0.000139884 -1.409e-06
-0.000139884 0.000290081 3.16812e-07
-1.409e-06 3.16812e-07 0.000163992
0.0015732 -0.000108819 -5.71677e-07
-0.000108819 0.000130162 4.47328e-07
-5.71677e-07 4.47328e-07 5.5488e-06
0.00153478 -0.000204993 -1.62418e-06
-0.000204993 0.000236336 5.56474e-07
-1.62418e-06 5.56474e-07 7.09353e-05
0.001451 -0.000155383 2.14256e-07
-0.000155383 9.78347e-05 6.1293e-08
2.14256e-07 6.1293e-08 -3.79206e-05
0.00159441 -0.00018833 2.20475e-07
-0.00018833 0.000156974 4.52872e-07
2.20475e-07 4.52872e-07 1.40707e-05
0.000735222 -3.27884e-05 -3.35771e-07
-3.27884e-05 3.87113e-05 -1.84656e-07
-3.35771e-07 -1.84656e-07 -5.05355e-05
0.000736475 -3.50826e-05 -6.69627e-07
-3.50826e-05 3.39471e-05 -4.00976e-07
-6.69627e-07 -4.00976e-07 -7.00516e-05
0.000686144 1.10587e-05 4.17082e-07
1.10587e-05 5.60457e-06 2.58224e-07
4.17082e-07 2.58224e-07 -6.11267e-05
0.00178941 -6.78368e-06 2.95503e-06
-6.78368e-06 0.000273695 -2.51605e-07
2.95503e-06 -2.51605e-07 0.000155428
0.00168585 -5.0901e-05 3.66746e-06
-5.0901e-05 0.000225796 -3.43291e-07
3.66746e-06 -3.43291e-07 0.000105976
0.00169222 -3.01225e-05 1.40165e-07
-3.01225e-05 0.00014965 5.10495e-07
1.40165e-07 5.10495e-07 3.1768e-05
0.00154102 -8.50423e-05 -1.2474e-08
-8.50423e-05 9.81371e-05 -1.91491e-07
-1.2474e-08 -1.91491e-07 -2.58393e-05
0.00141539 -0.000132442 2.16172e-06
-0.000132442 5.73542e-05 -1.41679e-07
2.16172e-06 -1.41679e-07 -7.18619e-05
0.00166982 -0.00011762 -2.53001e-06
-0.00011762 0.000129381 1.02917e-06
-2.53001e-06 1.02917e-06 1.42945e-05
0.000716087 -5.78477e-05 2.75887e-06
-5.78477e-05 2.96593e-05 -2.08709e-06
2.75887e-06 -2.08709e-06 -6.61378e-05
0.00155468 -0.00016824 -3.29519e-07
-0.00016824 0.000109756 4.46325e-07
-3.29519e-07 4.46325e-07 -2.27841e-05
0.000890159 -0.000140906 1.36487e-06
-0.000140906 9.20897e-05 -1.28568e-06
1.36487e-06 -1.28568e-06 -4.02542e-05
0.000747808 -0.000164197 4.31201e-06
-0.000164197 -9.40991e-05 -4.34833e-06
4.31201e-06 -4.34833e-06 -0.000269957
0.00180337 -0.000226966 2.04943e-06
-0.000226966 0.000332659 1.75455e-06
2.04943e-06 1.75455e-06 0.000165346
0.00181874 -0.000212132 -2.94065e-06
-0.000212132 0.000236031 2.2115e-06
-2.94065e-06 2.2115e-06 9.73502e-05
0.000682326 9.00276e-06 1.48392e-06
9.00276e-06 1.36295e-06 -2.35066e-06
1.48392e-06 -2.35066e-06 -5.74945e-05
0.000824826 -8.49469e-05 1.54322e-06
-8.49469e-05 7.56143e-05 4.96235e-07
1.54322e-06 4.96235e-07 -3.28161e-05
0.000673088 -1.61894e-05 7.52939e-07
-1.61894e-05 9.35188e-06 -1.63895e-06
7.52939e-07 -1.63895e-06 -9.20219e-05
0.00102294 -0.000132862 -1.59351e-07
-0.000132862 0.000196509 1.54026e-06
-1.59351e-07 1.54026e-06 7.41034e-05
0.0011073 0.000104982 -1.13589e-05
0.000104982 1.08958e-05 -4.12614e-06
-1.13589e-05 -4.12614e-06 -0.00010433
0.000586965 -5.64363e-05 -1.40849e-06
-5.64363e-05 -3.39871e-05 -3.96524e-06
-1.40849e-06 -3.96524e-06 -5.53169e-05
0.000496474 -7.11522e-05 1.95353e-06
-7.11522e-05 -6.72934e-05 -6.72013e-06
1.95353e-06 -6.72013e-06 -0.000106514
0.000670743 -5.98673e-05 1.29423e-06
-5.98673e-05 1.46157e-05 -3.22584e-06
1.29423e-06 -3.22584e-06 -5.39094e-05
0.00100559 0.000132641 -8.92396e-06
0.000132641 1.6536e-05 -5.3837e-06
-8.92396e-06 -5.3837e-06 -0.000103084
0.00136066 0.00015299 -6.02202e-06
0.00015299 8.60856e-05 -1.74628e-06
-6.02202e-06 -1.74628e-06 -5.609e-05
0.00070172 6.34985e-05 -2.58021e-06
6.34985e-05 2.29238e-05 -2.81524e-06
-2.58021e-06 -2.81524e-06 -7.62376e-05
0.000957892 0.000148715 -3.08726e-06
0.000148715 0.000113621 -2.80376e-06
-3.08726e-06 -2.80376e-06 -3.12656e-05
0.00134272 0.000178638 -3.39629e-06
0.000178638 0.000189647 -2.08163e-06
-3.39629e-06 -2.08163e-06 4.29557e-05
0.00097296 0.000174595 -1.1126e-06
0.000174595 3.51928e-05 4.17143e-07
-1.1126e-06 4.17143e-07 -0.000118762
0.000634692 -5.12521e-05 2.93825e-08
-5.12521e-05 -1.85938e-05 3.41032e-08
2.93825e-08 3.41032e-08 -3.53761e-05
0.000738421 3.18076e-05 3.4975e-07
3.18076e-05 5.03223e-05 -1.2452e-07
3.4975e-07 -1.2452e-07 -3.69366e-05
0.000661479 -5.71893e-05 -6.06e-07
-5.71893e-05 3.17661e-06 4.9357e-07
-6.06e-07 4.9357e-07 -5.12015e-05
0.000796917 1.68522e-05 4.86916e-07
1.68522e-05 9.05854e-05 -2.35871e-07
4.86916e-07 -2.35871e-07 -1.05055e-05
0.00137424 0.000125153 1.00618e-06
0.000125153 7.45042e-05 1.48329e-07
1.00618e-06 1.48329e-07 -6.19748e-05
0.00126854 0.000167867 5.46738e-08
0.000167867 8.47826e-05 7.35311e-08
5.46738e-08 7.35311e-08 -6.18288e-05
0.00150105 0.00016836 4.41302e-07
0.00016836 0.000109175 -6.14779e-09
4.41302e-07 -6.14779e-09 -4.30396e-05
0.000997092 0.000127396 2.65514e-07
0.000127396 0.00017305 5.2941e-07
2.65514e-07 5.2941e-07 4.25648e-05
0.00155782 0.000204711 -1.06294e-06
0.000204711 0.000261472 -1.70327e-06
-1.06294e-06 -1.70327e-06 0.000106845
0.00111804 0.00017852 1.61343e-07
0.00017852 0.000193082 -1.39817e-06
1.61343e-07 -1.39817e-06 2.12971e-05
0.00100699 0.000181043 -2.20101e-06
0.000181043 1.82475e-05 -3.42868e-07
-2.20101e-06 -3.42868e-07 -0.000131674
0.000656991 -4.63986e-05 1.399e-06
-4.63986e-05 -1.58422e-05 3.61813e-06
1.399e-06 3.61813e-06 -2.95919e-05
0.000694835 -4.4337e-05 7.74518e-07
-4.4337e-05 1.03908e-05 2.02414e-06
7.74518e-07 2.02414e-06 -3.40821e-05
0.000982508 7.8992e-05 2.07533e-06
7.8992e-05 0.000181279 1.28776e-06
2.07533e-06 1.28776e-06 6.54519e-05
0.000780776 2.34061e-05 -3.0537e-08
2.34061e-05 7.60942e-05 1.66534e-06
-3.0537e-08 1.66534e-06 -9.18155e-06
0.000903778 9.6415e-05 4.54366e-07
9.6415e-05 0.000161688 1.35515e-07
4.54366e-07 1.35515e-07 4.00609e-05
0.00149148 0.000136943 2.65425e-06
0.000136943 8.34777e-05 9.2123e-10
2.65425e-06 9.2123e-10 -5.87977e-05
0.00156109 0.000194955 2.19205e-06
0.000194955 0.00018497 3.7293e-06
2.19205e-06 3.7293e-06 2.73428e-05
0.0016268 0.000193068 3.50633e-08
0.000193068 0.000145394 -5.58196e-07
3.50633e-08 -5.58196e-07 -1.00715e-05
0.00113635 0.00016955 3.27728e-06
0.00016955 0.000253786 3.41901e-06
3.27728e-06 3.41901e-06 8.71224e-05
0.0014047 0.000210288 2.03935e-06
0.000210288 0.000142548 3.12627e-06
2.03935e-06 3.12627e-06 -1.30876e-05
0.000352329 0.000138276 2.1863e-06
0.000138276 -0.000285631 -3.34672e-06
2.1863e-06 -3.34672e-06 -0.000461842
0.000709985 -3.12089e-05 1.76098e-06
-3.12089e-05 4.11291e-06 1.6332e-06
1.76098e-06 1.6332e-06 -3.41381e-05
0.000751093 1.53373e-05 5.63861e-07
1.53373e-05 4.1577e-05 6.39215e-07
5.63861e-07 6.39215e-07 -1.8796e-05
0.000731766 -1.91011e-05 1.03835e-06
-1.91011e-05 9.4948e-06 1.83267e-06
1.03835e-06 1.83267e-06 -2.73479e-05
0.000722532 -2.65581e-05 8.18523e-08
-2.65581e-05 7.82554e-06 -1.38771e-08
8.18523e-08 -1.38771e-08 -2.96521e-05
0.00125988 -4.44134e-05 1.43311e-06
-4.44134e-05 0.000311968 2.2134e-06
1.43311e-06 2.2134e-06 0.000305488
0.000963146 -4.47867e-05 7.95984e-07
-4.47867e-05 0.000150217 -4.57025e-08
7.95984e-07 -4.57025e-08 0.000140312
0.00093403 -3.89987e-05 2.39547e-05
-3.89987e-05 0.000140956 6.46314e-06
2.39547e-05 6.46314e-06 0.000148653
0.00213732 -6.89487e-05 1.66355e-06
-6.89487e-05 0.00083251 -1.41659e-07
1.66355e-06 -1.41659e-07 0.000844176
0.00214388 -7.70475e-05 -3.08478e-05
-7.70475e-05 0.00084457 -3.03444e-06
-3.08478e-05 -3.03444e-06 0.000853948
0.000591726 4.7976e-05 1.36992e-06
4.7976e-05 -4.40503e-05 -4.61796e-06
1.36992e-06 -4.61796e-06 -6.80917e-05
0.00265454 9.311e-05 4.29591e-05
9.311e-05 0.00113557 -3.14655e-06
4.29591e-05 -3.14655e-06 0.0011398
0.000596199 5.3832e-05 -3.28921e-07
5.3832e-05 -3.2838e-05 4.88219e-08
-3.28921e-07 4.88219e-08 -6.16853e-05
0.00287212 0.000101125 -2.47917e-06
0.000101125 0.00126146 -2.06699e-07
-2.47917e-06 -2.06699e-07 0.00126379
0.000602282 4.88018e-05 -1.51113e-06
4.88018e-05 -2.44073e-05 6.13056e-06
-1.51113e-06 6.13056e-06 -5.79306e-05
0.00311886 0.000103367 -7.4252e-05
0.000103367 0.00140232 2.97662e-06
-7.4252e-05 2.97662e-06 0.00140341
0.00113226 8.6508e-05 -1.10772e-05
8.6508e-05 1.58728e-05 -3.32157e-06
-1.10772e-05 -3.32157e-06 -9.68044e-05
0.00114552 5.04732e-05 -1.09488e-05
5.04732e-05 1.5776e-05 -2.23573e-06
-1.09488e-05 -2.23573e-06 -9.348e-05
0.0013802 7.71092e-05 -4.69189e-06
7.71092e-05 6.55458e-05 -7.92981e-07
-4.69189e-06 -7.92981e-07 -6.26345e-05
0.00140303 3.41195e-05 -4.61274e-06
3.41195e-05 6.18594e-05 -6.52953e-07
-4.61274e-06 -6.52953e-07 -6.15128e-05
0.001156 1.89124e-05 -1.13395e-05
1.89124e-05 9.43765e-06 -9.0025e-07
-1.13395e-05 -9.0025e-07 -9.8962e-05
0.000673493 1.45239e-05 -1.65119e-05
1.45239e-05 -0.000101503 -1.43838e-07
-1.65119e-05 -1.43838e-07 -0.000164105
0.00114944 1.86932e-06 1.91065e-08
1.86932e-06 5.12083e-06 -1.32869e-07
1.91065e-08 -1.32869e-07 -0.000102773
0.00141565 2.26131e-05 -8.9966e-08
2.26131e-05 6.01928e-05 -3.43245e-08
-8.9966e-08 -3.43245e-08 -6.20944e-05
0.00139868 5.39531e-05 1.59907e-08
5.39531e-05 6.97857e-05 -3.43051e-08
1.59907e-08 -3.43051e-08 -5.53264e-05
0.00161075 4.70834e-05 -1.2396e-07
4.70834e-05 9.61285e-05 1.41406e-07
-1.2396e-07 1.41406e-07 -2.15396e-05
0.00138893 0.000100151 -1.47278e-07
0.000100151 7.26737e-05 -1.42343e-07
-1.47278e-07 -1.42343e-07 -5.93101e-05
0.00154222 8.72954e-05 -1.11696e-07
8.72954e-05 9.37753e-05 1.0724e-07
-1.11696e-07 1.0724e-07 -3.32302e-05
0.00141529 6.26751e-06 4.43047e-06
6.26751e-06 5.97058e-05 -2.78331e-08
4.43047e-06 -2.78331e-08 -6.19508e-05
0.0016392 3.2097e-05 -3.69537e-07
3.2097e-05 9.3891e-05 2.64225e-07
-3.69537e-07 2.64225e-07 -2.16398e-05
0.00153598 6.96293e-05 6.54536e-08
6.96293e-05 7.24371e-05 -2.42665e-07
6.54536e-08 -2.42665e-07 -4.99998e-05
0.00172421 5.92399e-05 -1.18526e-06
5.92399e-05 9.70347e-05 2.40258e-07
-1.18526e-06 2.40258e-07 -9.255e-06
0.00153793 0.00010572 3.26446e-07
0.00010572 9.90798e-05 -6.09112e-07
3.26446e-07 -6.09112e-07 -3.40747e-05
0.00166095 0.000102142 -3.15208e-06
0.000102142 9.27784e-05 -6.64745e-07
-3.15208e-06 -6.64745e-07 -1.67729e-05
0.000765652 -2.13049e-06 -1.09096e-05
-2.13049e-06 -0.000206383 6.10241e-07
-1.09096e-05 6.10241e-07 -0.00031622
0.00163908 -4.8159e-05 -1.85426e-05
-4.8159e-05 0.000291505 2.33975e-06
-1.85426e-05 2.33975e-06 0.000189391
0.00168539 -1.73263e-05 -7.5495e-06
-1.73263e-05 0.000219364 6.89606e-07
-7.5495e-06 6.89606e-07 0.000101826
0.00184152 -8.81415e-05 -5.10481e-06
-8.81415e-05 0.000328709 1.04979e-06
-5.10481e-06 1.04979e-06 0.000207739
0.000652056 4.58759e-06 -6.35881e-06
4.58759e-06 -2.32692e-07 6.85838e-06
-6.35881e-06 6.85838e-06 -4.3209e-05
0.000926172 -0.00010487 -4.72976e-06
-0.00010487 0.000134348 3.39467e-06
-4.72976e-06 3.39467e-06 2.94291e-05
0.000947315 -0.000156508 -1.50388e-06
-0.000156508 6.77439e-05 1.10644e-06
-1.50388e-06 1.10644e-06 -7.85571e-05
0.00181593 -0.0001411 -7.4107e-06
-0.0001411 0.000337881 1.93761e-06
-7.4107e-06 1.93761e-06 0.000212062
0.0014782 -0.00010482 -1.29146e-06
-0.00010482 7.31218e-05 4.41671e-07
-1.29146e-06 4.41671e-07 -5.06408e-05
0.00146788 -0.00015597 -2.17634e-06
-0.00015597 0.000106508 4.03141e-07
-2.17634e-06 4.03141e-07 -2.92275e-05
0.00109448 -0.000178727 -4.52066e-06
-0.000178727 -9.9096e-06 2.66946e-07
-4.52066e-06 2.66946e-07 -0.000173907
0.0015814 -0.000188441 1.10655e-06
-0.000188441 0.000146499 -9.40669e-07
1.10655e-06 -9.40669e-07 3.03514e-06
0.000712096 -3.64929e-05 -2.92989e-06
-3.64929e-05 2.33706e-05 2.4425e-06
-2.92989e-06 2.4425e-06 -6.49527e-05
0.000684743 -2.56685e-05 -1.74583e-06
-2.56685e-05 5.63729e-06 -1.20543e-07
-1.74583e-06 -1.20543e-07 -9.78797e-05
0.00069574 4.24531e-06 -1.19099e-06
4.24531e-06 9.77599e-06 2.86143e-06
-1.19099e-06 2.86143e-06 -5.70382e-05
0.00160814 -5.27153e-06 -2.3404e-06
-5.27153e-06 0.000171191 1.52382e-07
-2.3404e-06 1.52382e-07 5.14165e-05
0.00167865 -5.61319e-05 -1.6434e-06
-5.61319e-05 0.00022198 2.85562e-07
-1.6434e-06 2.85562e-07 0.000101811
0.00162985 -2.65155e-05 -4.37551e-07
-2.65155e-05 0.000112731 2.16093e-07
-4.37551e-07 2.16093e-07 -3.91808e-06
0.00162286 -8.43875e-05 -5.03864e-07
-8.43875e-05 0.000138812 -6.03006e-08
-5.03864e-07 -6.03006e-08 1.52502e-05
0.000770439 -6.66291e-05 7.94734e-08
-6.66291e-05 5.90093e-05 -1.05258e-07
7.94734e-08 -1.05258e-07 -3.76149e-05
0.0010086 -0.000150188 -3.81851e-07
-0.000150188 0.000154999 6.93287e-07
-3.81851e-07 6.93287e-07 2.12489e-05
0.000911816 -0.000171493 8.67017e-07
-0.000171493 7.77158e-06 -1.74164e-06
8.67017e-07 -1.74164e-06 -0.000166437
0.00156778 -0.00013844 9.54572e-08
-0.00013844 0.000142552 -5.87391e-08
9.54572e-08 -5.87391e-08 1.27001e-05
0.00164911 -0.000116142 5.5592e-07
-0.000116142 0.000118369 3.943e-07
5.5592e-07 3.943e-07 5.8333e-06
0.0015361 -0.000212985 -1.23157e-07
-0.000212985 0.000180585 7.3518e-07
-1.23157e-07 7.3518e-07 1.37807e-05
0.00155356 -0.000167558 8.69325e-09
-0.000167558 0.000107848 1.0155e-07
8.69325e-09 1.0155e-07 -2.4304e-05
0.00181604 -0.000211415 6.21207e-07
-0.000211415 0.000236093 -2.65595e-07
6.21207e-07 -2.65595e-07 9.85178e-05
0.000913995 -9.51768e-05 -8.00951e-08
-9.51768e-05 0.000127761 3.28511e-08
-8.00951e-08 3.28511e-08 1.69633e-05
0.000974012 -0.000131472 -3.36182e-07
-0.000131472 0.000170707 3.64932e-07
-3.36182e-07 3.64932e-07 4.681e-05
0.000697374 3.07225e-06 1.76671e-07
3.07225e-06 9.2458e-06 1.62354e-07
1.76671e-07 1.62354e-07 -4.98454e-05
0.000619393 5.81924e-06 -1.36173e-07
5.81924e-06 -2.47604e-05 -6.50335e-07
-1.36173e-07 -6.50335e-07 -0.000120966
0.0016161 -1.46531e-05 6.11573e-07
-1.46531e-05 9.72737e-05 6.67774e-08
6.11573e-07 6.67774e-08 -2.00079e-05
0.0018248 -5.63892e-05 2.4251e-07
-5.63892e-05 0.0002292 5.6831e-07
2.4251e-07 5.6831e-07 0.000110338
0.0016592 -4.33176e-05 2.16699e-07
-4.33176e-05 5.83846e-05 1.9531e-07
2.16699e-07 1.9531e-07 -5.14653e-05
0.00170425 -0.00010372 -3.26242e-06
-0.00010372 0.000119835 2.39018e-07
-3.26242e-06 2.39018e-07 1.31598e-05
0.00167723 -0.000145039 -2.42442e-06
-0.000145039 0.000150306 1.4579e-06
-2.42442e-06 1.4579e-06 2.96808e-05
0.00171692 -0.000121563 -6.29485e-07
-0.000121563 0.000107209 2.02119e-07
-6.29485e-07 2.02119e-07 8.21159e-06
0.000845961 -0.000129931 1.24556e-06
-0.000129931 8.50883e-05 1.62515e-07
1.24556e-06 1.62515e-07 -3.32841e-05
0.00161651 -0.000184418 -4.32064e-06
-0.000184418 9.45963e-05 2.2447e-06
-4.32064e-06 2.2447e-06 -2.59218e-05
0.000466526 -0.000127895 -4.8037e-09
-0.000127895 -0.000151603 -4.13418e-06
-4.8037e-09 -4.13418e-06 -0.000306994
0.00168393 -0.000239777 3.6253e-06
-0.000239777 0.00036853 -1.38668e-06
3.6253e-06 -1.38668e-06 0.000171672
0.00177013 -0.000233818 1.15112e-06
-0.000233818 0.000254211 3.2936e-06
1.15112e-06 3.2936e-06 8.91862e-05
0.00182093 -0.000217324 -1.00445e-06
-0.000217324 0.000204747 1.05442e-06
-1.00445e-06 1.05442e-06 6.94442e-05
0.000697092 -1.23028e-06 1.99974e-06
-1.23028e-06 6.78343e-06 -2.21797e-06
1.99974e-06 -2.21797e-06 -4.72019e-05
0.000621668 -2.33914e-06 2.06428e-07
-2.33914e-06 -1.26855e-05 -1.53019e-06
2.06428e-07 -1.53019e-06 -0.000107225
0.00089893 -0.00014367 3.01952e-07
-0.00014367 0.000122209 1.85441e-06
3.01952e-07 1.85441e-06 -3.22377e-06
0.000897013 -9.77362e-05 1.59253e-06
-9.77362e-05 0.000136864 7.03511e-09
1.59253e-06 7.03511e-09 1.97589e-05
0.00100044 -0.000152848 -6.68669e-07
-0.000152848 0.000181475 2.98774e-06
-6.68669e-07 2.98774e-06 5.29049e-05
0.000612671 -4.95578e-05 -1.65598e-06
-4.95578e-05 -3.10982e-05 -3.68751e-06
-1.65598e-06 -3.68751e-06 -4.75911e-05
0.00134301 0.000124535 -4.33406e-06
0.000124535 5.78713e-05 -1.45712e-06
-4.33406e-06 -1.45712e-06 -7.87673e-05
0.000653549 -6.90274e-05 1.30595e-08
-6.90274e-05 1.69711e-06 -2.09284e-06
1.30595e-08 -2.09284e-06 -5.43818e-05
0.000735104 1.34601e-05 -3.60125e-07
1.34601e-05 4.68289e-05 -3.22905e-06
-3.60125e-07 -3.22905e-06 -3.77344e-05
0.000776757 -8.44959e-06 1.32552e-06
-8.44959e-06 7.80368e-05 -1.24468e-06
1.32552e-06 -1.24468e-06 -2.06751e-05
0.00128869 0.000170048 -5.65965e-06
0.000170048 9.66926e-05 -2.47794e-06
-5.65965e-06 -2.47794e-06 -5.03218e-05
0.00146482 0.000165689 -2.55524e-06
0.000165689 9.20636e-05 -3.82448e-07
-2.55524e-06 -3.82448e-07 -6.00911e-05
0.000881101 0.000132237 -1.9101e-06
0.000132237 0.000110364 -1.48809e-06
-1.9101e-06 -1.48809e-06 -2.07753e-05
0.0013327 0.000195204 -2.07261e-06
0.000195204 0.000312391 -1.45643e-06
-2.07261e-06 -1.45643e-06 0.000137106
0.00171382 0.000213679 -1.9458e-06
0.000213679 0.000350466 -3.95262e-06
-1.9458e-06 -3.95262e-06 0.000194922
0.00101684 0.000181725 -3.89594e-06
0.000181725 2.84749e-05 1.07845e-06
-3.89594e-06 1.07845e-06 -0.000115331
0.000641482 -4.50669e-05 5.35706e-08
-4.50669e-05 -2.45118e-05 -3.75604e-10
5.35706e-08 -3.75604e-10 -3.8125e-05
0.000692123 -5.12062e-05 -4.82076e-07
-5.12062e-05 1.0017e-05 1.71101e-07
-4.82076e-07 1.71101e-07 -3.5222e-05
0.000921057 8.13477e-05 7.65109e-07
8.13477e-05 0.000148261 -6.93393e-08
7.65109e-07 -6.93393e-08 3.25344e-05
0.000755068 -1.84755e-05 -3.51232e-07
-1.84755e-05 6.06844e-05 1.9237e-07
-3.51232e-07 1.9237e-07 -2.22081e-05
0.000789627 6.59122e-05 9.01383e-07
6.59122e-05 9.41216e-05 -3.19046e-07
9.01383e-07 -3.19046e-07 -2.51285e-05
0.00151423 0.000138398 1.1333e-06
0.000138398 9.51572e-05 2.05569e-08
1.1333e-06 2.05569e-08 -4.75557e-05
0.00142973 0.000188116 -2.39694e-07
0.000188116 0.000116924 1.45152e-06
-2.39694e-07 1.45152e-06 -4.03746e-05
0.00161745 0.000194882 1.35319e-06
0.000194882 0.000139312 2.95258e-07
1.35319e-06 2.95258e-07 -1.71882e-05
0.00107982 0.000164676 1.28922e-06
0.000164676 0.000226186 1.13042e-06
1.28922e-06 1.13042e-06 6.06895e-05
0.00157153 0.000218607 2.00639e-06
0.000218607 0.000237168 -1.80491e-06
2.00639e-06 -1.80491e-06 8.13941e-05
0.000828351 0.000171886 -2.45925e-06
0.000171886 -2.83755e-05 -1.38283e-06
-2.45925e-06 -1.38283e-06 -0.000207494
0.00071241 -3.79613e-05 1.60277e-06
-3.79613e-05 1.1411e-05 1.67937e-06
1.60277e-06 1.67937e-06 -2.88454e-05
0.000788786 1.42944e-05 3.53721e-07
1.42944e-05 6.81699e-05 1.32725e-06
3.53721e-07 1.32725e-06 -8.05075e-07
0.00103394 0.000150119 -5.83506e-07
0.000150119 0.000217647 -2.62948e-07
-5.83506e-07 -2.62948e-07 7.485e-05
0.000850017 2.18962e-05 9.67686e-08
2.18962e-05 0.000122475 9.18517e-07
9.67686e-08 9.18517e-07 2.22572e-05
0.00109587 8.00808e-05 -2.48578e-06
8.00808e-05 0.00025714 -3.16884e-06
-2.48578e-06 -3.16884e-06 0.000130374
0.0015802 0.000144512 -2.38233e-06
0.000144512 8.95781e-05 -2.80376e-06
-2.38233e-06 -2.80376e-06 -4.58312e-05
0.00146501 0.000208164 8.84999e-07
0.000208164 9.71574e-05 3.98896e-06
8.84999e-07 3.98896e-06 -6.46778e-05
0.00144688 0.000209608 -1.35394e-06
0.000209608 1.35594e-05 -1.8089e-06
-1.35394e-06 -1.8089e-06 -0.000130116
0.000941064 0.000162121 -5.57033e-07
0.000162121 0.000146756 9.37646e-07
-5.57033e-07 9.37646e-07 -4.82096e-05
0.00130045 0.000218053 2.4725e-06
0.000218053 0.000116188 -1.88814e-08
2.4725e-06 -1.88814e-08 -5.70374e-05
0.000714701 -3.12721e-05 2.54521e-08
-3.12721e-05 7.18811e-06 -1.78761e-08
2.54521e-08 -1.78761e-08 -3.1176e-05
0.000646895 -5.12875e-06 1.37347e-06
-5.12875e-06 -2.26987e-05 9.33177e-07
1.37347e-06 9.33177e-07 -8.05053e-05
0.000673839 -2.1279e-05 -5.84069e-07
-2.1279e-05 -3.54201e-06 -8.0655e-08
-5.84069e-07 -8.0655e-08 -6.29126e-05
0.000927644 3.86251e-05 1.08756e-06
3.86251e-05 0.000150941 -4.25869e-07
1.08756e-06 -4.25869e-07 7.83561e-05
0.000765742 3.01486e-05 1.64387e-06
3.01486e-05 4.79113e-05 7.62259e-07
1.64387e-06 7.62259e-07 -1.15996e-05
0.000729079 -6.63464e-06 1.03331e-06
-6.63464e-06 6.91235e-06 1.76558e-06
1.03331e-06 1.76558e-06 -3.00121e-05
0.000731709 -1.97933e-05 -9.99302e-08
-1.97933e-05 9.93133e-06 2.86435e-09
-9.99302e-08 2.86435e-09 -2.69954e-05
0.00126099 -3.56623e-05 9.59039e-07
-3.56623e-05 0.000306204 2.24087e-06
9.59039e-07 2.24087e-06 0.000301325
0.000730214 -2.66105e-05 -1.2948e-06
-2.66105e-05 1.2478e-05 -1.81618e-06
-1.2948e-06 -1.81618e-06 -2.51148e-05
0.00127916 -4.17687e-05 -4.68337e-06
-4.17687e-05 0.000322232 -1.23882e-06
-4.68337e-06 -1.23882e-06 0.00031613
0.000922233 -3.23767e-05 2.13206e-05
-3.23767e-05 0.000125265 6.68843e-06
2.13206e-05 6.68843e-06 0.000135247
0.00127329 -4.70212e-05 -9.85755e-06
-4.70212e-05 0.000326366 -3.2905e-06
-9.85755e-06 -3.2905e-06 0.000318475
0.00150378 -4.93667e-05 1.95672e-05
-4.93667e-05 0.000464484 1.96134e-06
1.95672e-05 1.96134e-06 0.00047531
0.00211981 -6.80034e-05 -2.75495e-05
-6.80034e-05 0.00082145 -3.38018e-06
-2.75495e-05 -3.38018e-06 0.000833412
0.000616589 4.13916e-05 1.34591e-06
4.13916e-05 -3.83173e-05 -4.3111e-06
1.34591e-06 -4.3111e-06 -5.84594e-05
0.000610306 5.15878e-05 -8.07812e-08
5.15878e-05 -3.23906e-05 4.4592e-08
-8.07812e-08 4.4592e-08 -5.72061e-05
0.0025404 8.32542e-05 3.64538e-05
8.32542e-05 0.00106524 -3.48505e-06
3.64538e-05 -3.48505e-06 0.00107184
0.00270461 9.26128e-05 -2.695e-06
9.26128e-05 0.00116326 -2.06906e-07
-2.695e-06 -2.06906e-07 0.00116768
0.000620153 5.28555e-05 -9.39222e-07
5.28555e-05 -1.91349e-05 5.47374e-06
-9.39222e-07 5.47374e-06 -4.81668e-05
0.00292219 9.66996e-05 -6.35191e-05
9.66996e-05 0.00128828 2.97177e-06
-6.35191e-05 2.97177e-06 0.00129161
0.00136341 9.98663e-05 -4.93835e-06
9.98663e-05 5.85348e-05 -1.16119e-06
-4.93835e-06 -1.16119e-06 -7.36265e-05
0.00138779 5.45286e-05 -4.68051e-06
5.45286e-05 6.50238e-05 -8.51798e-07
-4.68051e-06 -8.51798e-07 -6.03212e-05
0.00153739 8.72677e-05 -2.67619e-07
8.72677e-05 9.47619e-05 5.57562e-07
-2.67619e-07 5.57562e-07 -3.24086e-05
0.00165052 4.83017e-05 -4.38923e-08
4.83017e-05 0.00011581 1.80492e-07
-4.38923e-08 1.80492e-07 -6.09565e-07
0.00141281 2.57265e-05 -4.26148e-06
2.57265e-05 5.92764e-05 -3.06903e-07
-4.26148e-06 -3.06903e-07 -6.31149e-05
0.0011549 6.70882e-06 -1.10647e-05
6.70882e-06 7.83517e-06 -1.31016e-07
-1.10647e-05 -1.31016e-07 -0.00010003
0.00141936 9.94289e-06 7.61526e-08
9.94289e-06 6.16645e-05 -6.71623e-08
7.61526e-08 -6.71623e-08 -6.00631e-05
0.00164896 2.18013e-05 -5.28655e-07
2.18013e-05 9.91028e-05 -3.27988e-08
-5.28655e-07 -3.27988e-08 -1.62717e-05
0.00156028 6.85818e-05 -7.88029e-08
6.85818e-05 8.81102e-05 -1.15525e-08
-7.88029e-08 -1.15525e-08 -3.41874e-05
0.00176996 6.2019e-05 7.96307e-07
6.2019e-05 0.000120137 6.33915e-07
7.96307e-07 6.33915e-07 1.60823e-05
0.00152863 0.000106852 -1.61951e-07
0.000106852 9.25943e-05 -6.08384e-08
-1.61951e-07 -6.08384e-08 -4.10798e-05
0.00166425 0.00010063 -1.66201e-07
0.00010063 9.30929e-05 6.26673e-07
-1.66201e-07 6.26673e-07 -1.44708e-05
0.0016393 -1.64329e-06 4.71859e-07
-1.64329e-06 0.000100608 1.29164e-07
4.71859e-07 1.29164e-07 -1.47968e-05
0.00173325 4.08139e-05 -1.08909e-07
4.08139e-05 8.50587e-05 7.98404e-07
-1.08909e-07 7.98404e-07 -2.0831e-05
0.00175504 8.59299e-05 -3.41551e-06
8.59299e-05 0.000127678 -4.65231e-07
-3.41551e-06 -4.65231e-07 2.50025e-05
0.00182647 6.92024e-05 -1.32779e-07
6.92024e-05 0.000135353 3.43582e-07
-1.32779e-07 3.43582e-07 4.21604e-05
0.00156383 0.000105103 -2.15957e-06
0.000105103 5.18052e-05 -1.93938e-06
-2.15957e-06 -1.93938e-06 -6.58727e-05
0.00189917 0.000114184 -1.64594e-07
0.000114184 0.000182456 -7.85223e-08
-1.64594e-07 -7.85223e-08 8.90724e-05
0.00142453 -4.19005e-06 -6.26807e-06
-4.19005e-06 6.7264e-05 3.97729e-07
-6.26807e-06 3.97729e-07 -5.40139e-05
0.00167443 -5.83071e-05 -6.93436e-06
-5.83071e-05 0.00021976 9.14639e-07
-6.93436e-06 9.14639e-07 9.93667e-05
0.00156494 -2.46637e-05 -1.11585e-06
-2.46637e-05 7.43962e-05 -3.33316e-07
-1.11585e-06 -3.33316e-07 -4.10951e-05
0.00170044 -8.4175e-05 -1.20138e-06
-8.4175e-05 0.0001772 2.05783e-07
-1.20138e-06 2.05783e-07 5.40148e-05
0.000846479 -7.68704e-05 -3.69882e-06
-7.68704e-05 0.000100296 2.39661e-06
-3.69882e-06 2.39661e-06 2.72613e-06
0.00113075 -0.000159709 -2.17668e-06
-0.000159709 0.000220292 2.68601e-06
-2.17668e-06 2.68601e-06 8.50458e-05
0.00100305 -0.000173421 -1.8887e-06
-0.000173421 6.89956e-05 1.33072e-06
-1.8887e-06 1.33072e-06 -0.000103532
0.00172201 -0.000144457 -2.05602e-06
-0.000144457 0.000228686 3.31778e-07
-2.05602e-06 3.31778e-07 9.81983e-05
0.00162646 -0.000114644 2.72755e-06
-0.000114644 0.000106359 -7.43508e-07
2.72755e-06 -7.43508e-07 -3.61752e-06
0.00155487 -0.000167001 1.15443e-06
-0.000167001 0.00010742 -4.34832e-07
1.15443e-06 -4.34832e-07 -2.43554e-05
0.00129193 -0.000200274 -2.39473e-06
-0.000200274 4.10925e-05 -1.09457e-06
-2.39473e-06 -1.09457e-06 -0.000125307
0.00183393 -0.000211308 3.9676e-06
-0.000211308 0.000247111 -3.57678e-06
3.9676e-06 -3.57678e-06 0.000110608
0.00093752 -9.04227e-05 -1.3728e-06
-9.04227e-05 0.000140829 -3.13579e-07
-1.3728e-06 -3.13579e-07 3.06438e-05
0.000865393 -9.95998e-05 -1.33963e-06
-9.95998e-05 0.000103442 -1.04332e-06
-1.33963e-06 -1.04332e-06 -1.47249e-05
0.000713036 6.06142e-07 -1.52575e-06
6.06142e-07 1.72817e-05 2.47163e-06
-1.52575e-06 2.47163e-06 -4.1942e-05
0.000599142 2.07737e-05 -1.28793e-08
2.07737e-05 -3.76231e-05 3.20522e-07
-1.28793e-08 3.20522e-07 -0.000130992
0.001609 -1.43105e-05 1.3778e-08
-1.43105e-05 9.2851e-05 -9.60455e-09
1.3778e-08 -9.60455e-09 -2.4467e-05
0.00175687 -5.48217e-05 -6.06405e-07
-5.48217e-05 0.000189853 1.05632e-07
-6.06405e-07 1.05632e-07 6.98726e-05
0.00169137 -4.25424e-05 3.43601e-07
-4.25424e-05 7.90906e-05 -2.07371e-07
3.43601e-07 -2.07371e-07 -2.9644e-05
0.00165387 -0.00010191 -5.86659e-07
-0.00010191 9.79299e-05 1.95802e-07
-5.86659e-07 1.95802e-07 -1.0514e-05
0.000955601 -0.000124491 -3.52277e-07
-0.000124491 0.000143267 4.68882e-07
-3.52277e-07 4.68882e-07 2.58773e-05
0.000681602 -0.000140821 1.10803e-06
-0.000140821 -2.93699e-05 -1.47056e-06
1.10803e-06 -1.47056e-06 -0.000182612
0.00145553 -0.000222704 -6.38973e-07
-0.000222704 0.00024788 6.1759e-07
-6.38973e-07 6.1759e-07 4.98942e-05
0.00163376 -0.000143704 -1.00706e-06
-0.000143704 0.000129285 3.55054e-07
-1.00706e-06 3.55054e-07 6.69319e-06
0.00166569 -0.00012195 1.67281e-06
-0.00012195 7.89025e-05 -6.56674e-07
1.67281e-06 -6.56674e-07 -1.80075e-05
0.00167618 -0.000228527 -8.1427e-07
-0.000228527 0.000198322 4.56345e-07
-8.1427e-07 4.56345e-07 3.41018e-05
0.00164886 -0.0001851 -1.06351e-07
-0.0001851 0.000113669 4.33751e-07
-1.06351e-07 4.33751e-07 -6.70192e-06
0.001727 -0.000213487 2.37425e-06
-0.000213487 0.00015143 -2.74429e-06
2.37425e-06 -2.74429e-06 1.79336e-05
0.000986437 -0.000150222 2.413e-07
-0.000150222 0.000170546 3.95223e-07
2.413e-07 3.95223e-07 4.41759e-05
0.00102421 -0.000146841 6.65685e-07
-0.000146841 0.000190871 4.86367e-07
6.65685e-07 4.86367e-07 6.45123e-05
0.000867247 -6.9336e-05 -3.98696e-07
-6.9336e-05 0.000117423 -1.16237e-07
-3.98696e-07 -1.16237e-07 3.627e-06
0.000568814 1.23886e-05 -5.79066e-07
1.23886e-05 -6.44284e-05 7.64218e-08
-5.79066e-07 7.64218e-08 -0.00011995
0.000601742 1.96223e-05 4.80566e-08
1.96223e-05 -2.78487e-05 -4.72789e-07
4.80566e-08 -4.72789e-07 -0.00011835
0.00179307 -2.75399e-05 2.87265e-07
-2.75399e-05 0.000120762 -4.64229e-08
2.87265e-07 -4.64229e-08 1.48898e-05
0.0017468 -6.31857e-05 -1.0377e-07
-6.31857e-05 0.000104668 2.56596e-07
-1.0377e-07 2.56596e-07 1.11215e-07
0.00178178 -0.000118585 -2.26785e-06
-0.000118585 0.000120723 -4.4995e-07
-2.26785e-06 -4.4995e-07 3.26139e-05
0.00155852 -0.000144373 -2.44899e-06
-0.000144373 2.68579e-05 1.11063e-06
-2.44899e-06 1.11063e-06 -7.40509e-05
0.000896714 -0.000146996 -6.83313e-07
-0.000146996 0.00011646 2.93514e-07
-6.83313e-07 2.93514e-07 -1.74249e-05
0.00201647 -0.000218035 -2.86028e-06
-0.000218035 0.000269985 1.60128e-06
-2.86028e-06 1.60128e-06 0.000154404
8.1319e-05 -0.000108621 -7.56231e-07
-0.000108621 -0.000370619 -5.66308e-06
-7.56231e-07 -5.66308e-06 -0.000540971
0.00223146 -0.000288975 2.81301e-06
-0.000288975 0.000591392 4.77429e-09
2.81301e-06 4.77429e-09 0.000385339
0.00165207 -0.000235944 1.38917e-06
-0.000235944 0.000135137 2.4278e-06
1.38917e-06 2.4278e-06 -2.58443e-05
0.000424374 1.82689e-05 1.36058e-06
1.82689e-05 -0.000146608 -3.11716e-06
1.36058e-06 -3.11716e-06 -0.000199354
0.000856837 -1.35435e-05 1.40121e-06
-1.35435e-05 0.000118854 -7.91556e-07
1.40121e-06 -7.91556e-07 3.36831e-05
0.000910403 -4.64018e-05 -4.56591e-07
-4.64018e-05 0.000149156 -1.05196e-07
-4.56591e-07 -1.05196e-07 4.57821e-05
0.000991388 -0.000153178 -1.64761e-06
-0.000153178 0.000167636 2.50267e-06
-1.64761e-06 2.50267e-06 3.97007e-05
0.000929879 -9.84969e-05 1.42581e-06
-9.84969e-05 0.000147286 1.9687e-06
1.42581e-06 1.9687e-06 2.40652e-05
0.000780062 -0.000140499 -1.7371e-07
-0.000140499 4.18488e-05 1.90607e-06
-1.7371e-07 1.90607e-06 -8.54911e-05
0.000628237 -4.39539e-05 -1.5027e-06
-4.39539e-05 -3.18361e-05 -3.6492e-06
-1.5027e-06 -3.6492e-06 -4.53523e-05
0.000683628 -5.43475e-05 -1.56475e-06
-5.43475e-05 5.53939e-06 -1.56314e-06
-1.56475e-06 -1.56314e-06 -3.9937e-05
0.00154565 0.000140183 -1.01753e-06
0.000140183 0.000111608 -1.59774e-07
-1.01753e-06 -1.59774e-07 -3.15407e-05
0.000740328 -6.26067e-05 8.97401e-07
-6.26067e-05 5.14165e-05 -1.33281e-06
8.97401e-07 -1.33281e-06 -2.91849e-05
0.000813895 7.31175e-05 -2.79733e-07
7.31175e-05 8.67351e-05 -7.95137e-07
-2.79733e-07 -7.95137e-07 -2.57365e-05
0.000675585 3.56498e-05 1.44805e-06
3.56498e-05 2.63289e-05 -3.16666e-07
1.44805e-06 -3.16666e-07 -9.01378e-05
0.00127587 0.000180037 -2.87766e-06
0.000180037 3.68751e-05 -9.88676e-07
-2.87766e-06 -9.88676e-07 -0.00012003
0.00160591 0.000196253 9.32406e-07
0.000196253 0.000133162 9.37242e-07
9.32406e-07 9.37242e-07 -2.4287e-05
0.000885452 0.000149767 7.41551e-08
0.000149767 0.00012006 -6.88847e-07
7.41551e-08 -6.88847e-07 -4.34624e-05
0.00136154 0.000209175 -9.81133e-07
0.000209175 0.0002595 1.19038e-07
-9.81133e-07 1.19038e-07 7.91568e-05
0.0017427 0.000227392 -3.37537e-06
0.000227392 0.000334122 -5.0858e-06
-3.37537e-06 -5.0858e-06 0.000178137
0.000708857 -3.82301e-05 -1.83895e-07
-3.82301e-05 9.63302e-06 2.63334e-08
-1.83895e-07 2.63334e-08 -3.06563e-05
0.000753729 -2.28458e-05 -6.77329e-07
-2.28458e-05 4.79073e-05 3.56115e-07
-6.77329e-07 3.56115e-07 -1.96619e-05
0.000958727 0.000144261 -6.27211e-07
0.000144261 0.000177902 -8.74315e-08
-6.27211e-07 -8.74315e-08 3.53791e-05
0.000802842 -1.19576e-05 2.28879e-07
-1.19576e-05 9.37323e-05 9.67129e-08
2.28879e-07 9.67129e-08 -3.40168e-06
0.000891453 8.09581e-05 1.1445e-07
8.09581e-05 0.000147778 -3.51271e-07
1.1445e-07 -3.51271e-07 1.91239e-05
0.00160529 0.000148201 -1.44557e-06
0.000148201 0.000103797 -1.29172e-06
-1.44557e-06 -1.29172e-06 -3.27408e-05
0.00154062 0.000211732 1.44781e-06
0.000211732 0.000139467 1.87172e-06
1.44781e-06 1.87172e-06 -2.29819e-05
0.00155123 0.000210969 6.44802e-07
0.000210969 7.08253e-05 1.20101e-07
6.44802e-07 1.20101e-07 -7.10991e-05
0.000733111 0.000149478 3.25393e-07
0.000149478 2.71378e-05 2.67157e-06
3.25393e-07 2.67157e-06 -0.000164423
0.00156399 0.000236265 -1.31726e-06
0.000236265 0.000262325 7.82791e-08
-1.31726e-06 7.82791e-08 8.51363e-05
0.000784859 1.12565e-05 9.98285e-07
1.12565e-05 5.81367e-05 7.84479e-07
9.98285e-07 7.84479e-07 -2.19832e-06
0.00059537 -3.09144e-05 -1.06553e-06
-3.09144e-05 -2.98751e-05 1.74033e-06
-1.06553e-06 1.74033e-06 -0.000113051
0.000942114 0.000150719 -2.48927e-06
0.000150719 0.000164362 -1.91846e-06
-2.48927e-06 -1.91846e-06 4.61408e-06
0.000623153 3.04976e-05 -1.8162e-06
3.04976e-05 2.49085e-06 -1.0127e-06
-1.8162e-06 -1.0127e-06 -0.000115365
0.0010019 0.000131139 -1.16956e-06
0.000131139 0.00019847 -2.13177e-06
-1.16956e-06 -2.13177e-06 6.05559e-05
0.0016095 0.000162725 -2.61707e-06
0.000162725 3.95774e-05 -2.59221e-06
-2.61707e-06 -2.59221e-06 -6.71289e-05
0.00182939 0.00025298 -2.5219e-07
0.00025298 0.000270326 7.79595e-07
-2.5219e-07 7.79595e-07 0.000106286
0.00148178 0.000213605 1.19246e-06
0.000213605 8.60723e-06 -2.82715e-07
1.19246e-06 -2.82715e-07 -0.000126974
0.00176571 0.000226597 1.93816e-06
0.000226597 0.000549943 4.23475e-06
1.93816e-06 4.23475e-06 0.000336107
0.000799824 0.000199362 -1.07402e-06
0.000199362 -0.000202153 -4.7371e-07
-1.07402e-06 -4.7371e-07 -0.000377961
0.000719813 -3.07284e-05 -1.74551e-06
-3.07284e-05 1.03918e-05 -1.63109e-06
-1.74551e-06 -1.63109e-06 -2.80393e-05
0.000697625 -3.48088e-06 2.79843e-07
-3.48088e-06 7.38244e-06 4.24679e-07
2.79843e-07 4.24679e-07 -5.10189e-05
0.000675831 -3.00308e-05 -2.49672e-07
-3.00308e-05 4.09517e-06 2.21845e-07
-2.49672e-07 2.21845e-07 -6.39002e-05
0.000601768 -4.7188e-05 -9.12636e-07
-4.7188e-05 -4.49333e-05 -6.09512e-07
-9.12636e-07 -6.09512e-07 -0.00010395
0.000755692 2.96126e-06 3.76829e-08
2.96126e-06 4.13236e-05 1.59147e-08
3.76829e-08 1.59147e-08 -1.73142e-05
0.000778968 -1.84808e-06 6.44209e-08
-1.84808e-06 6.21789e-05 -3.5393e-07
6.44209e-08 -3.5393e-07 -6.30761e-06
0.00086255 2.48453e-05 -3.92909e-08
2.48453e-05 0.000114904 -8.1694e-07
-3.92909e-08 -8.1694e-07 3.92369e-05
0.000690783 -3.15297e-05 7.41733e-07
-3.15297e-05 1.75727e-05 -2.20756e-08
7.41733e-07 -2.20756e-08 -5.52724e-05
0.000781437 1.4775e-05 4.99923e-07
1.4775e-05 5.17573e-05 5.8514e-07
4.99923e-07 5.8514e-07 -4.85079e-06
0.00072844 2.66202e-06 1.02003e-06
2.66202e-06 8.13226e-06 1.67665e-06
1.02003e-06 1.67665e-06 -2.96193e-05
0.000734123 -1.02542e-05 -2.20493e-07
-1.02542e-05 1.02403e-05 5.59252e-09
-2.20493e-07 5.59252e-09 -2.68131e-05
0.00126555 -2.62036e-05 9.28967e-07
-2.62036e-05 0.000304104 2.18911e-06
9.28967e-07 2.18911e-06 0.000300035
0.00073071 -2.07217e-05 -1.00452e-06
-2.07217e-05 9.87812e-06 -1.84419e-06
-1.00452e-06 -1.84419e-06 -2.71453e-05
0.00128469 -3.31899e-05 -4.00224e-06
-3.31899e-05 0.000319305 -1.30278e-06
-4.00224e-06 -1.30278e-06 0.000314582
0.000927996 -2.67202e-05 1.75202e-05
-2.67202e-05 0.000122268 6.93807e-06
1.75202e-05 6.93807e-06 0.00013343
0.00130029 -3.98686e-05 -8.39234e-06
-3.98686e-05 0.000333687 -4.81047e-06
-8.39234e-06 -4.81047e-06 0.000327751
0.000864294 -3.34707e-05 6.89044e-06
-3.34707e-05 9.26988e-05 2.5828e-06
6.89044e-06 2.5828e-06 0.0001023
0.00205685 -6.46935e-05 -6.06924e-06
-6.46935e-05 0.000778334 -1.61237e-06
-6.06924e-06 -1.61237e-06 0.000791426
0.00063385 3.65882e-05 9.49185e-07
3.65882e-05 -3.58252e-05 -4.09541e-06
9.49185e-07 -4.09541e-06 -5.23473e-05
0.000624523 4.30244e-05 -1.42144e-07
4.30244e-05 -3.33297e-05 3.46646e-08
-1.42144e-07 3.46646e-08 -5.38075e-05
0.00243257 7.29658e-05 3.05173e-05
7.29658e-05 0.000997282 -3.79127e-06
3.05173e-05 -3.79127e-06 0.00100648
0.000627607 5.07636e-05 -8.19144e-07
5.07636e-05 -2.24634e-05 4.86155e-06
-8.19144e-07 4.86155e-06 -4.73819e-05
0.0025887 8.36562e-05 -2.57116e-06
8.36562e-05 0.00109255 -1.91678e-07
-2.57116e-06 -1.91678e-07 0.00109909
0.00275958 9.08734e-05 -5.20072e-05
9.08734e-05 0.00119347 3.03879e-06
-5.20072e-05 3.03879e-06 0.00119839
0.00151539 0.000107803 -1.504e-06
0.000107803 8.40411e-05 2.75013e-07
-1.504e-06 2.75013e-07 -5.01491e-05
0.00158878 6.6701e-05 1.79413e-07
6.6701e-05 0.000105916 3.05758e-07
1.79413e-07 3.05758e-07 -1.61651e-05
0.00166388 9.9049e-05 3.04456e-06
9.9049e-05 9.13608e-05 1.5651e-06
3.04456e-06 1.5651e-06 -1.42087e-05
0.00181688 6.47253e-05 2.79084e-06
6.47253e-05 0.000143743 2.33785e-07
2.79084e-06 2.33785e-07 4.19264e-05
0.00165953 1.42719e-05 -9.63107e-07
1.42719e-05 0.000104943 -6.85608e-08
-9.63107e-07 -6.85608e-08 -1.03078e-05
0.00142173 1.29355e-05 -4.12066e-06
1.29355e-05 6.27056e-05 -8.54774e-08
-4.12066e-06 -8.54774e-08 -5.90513e-05
0.00162543 1.56163e-06 -4.49181e-07
1.56163e-06 9.31904e-05 -1.90684e-08
-4.49181e-07 -1.90684e-08 -2.31492e-05
0.00174323 3.42838e-05 6.59893e-07
3.42838e-05 9.2411e-05 -2.0139e-09
6.59893e-07 -2.0139e-09 -1.42699e-05
0.00171178 8.34681e-05 -9.9618e-07
8.34681e-05 0.000101285 -2.49252e-07
-9.9618e-07 -2.49252e-07 -2.69544e-06
0.00177884 6.93412e-05 1.59875e-06
6.93412e-05 0.000104234 -1.48781e-07
1.59875e-06 -1.48781e-07 1.26877e-05
0.00158061 0.000104097 -7.51292e-07
0.000104097 6.69809e-05 5.61113e-08
-7.51292e-07 5.61113e-08 -5.06318e-05
0.00179808 0.000116303 3.03749e-06
0.000116303 0.000122376 7.45293e-07
3.03749e-06 7.45293e-07 3.09333e-05
0.00175769 1.80652e-07 -3.66742e-07
1.80652e-07 0.000109788 2.14589e-07
-3.66742e-07 2.14589e-07 3.456e-06
0.00172442 4.52299e-05 -3.39821e-08
4.52299e-05 6.75373e-05 8.88e-07
-3.39821e-08 8.88e-07 -2.61843e-05
0.00180054 8.71091e-05 -1.10536e-06
8.71091e-05 0.000104914 -3.51589e-08
-1.10536e-06 -3.51589e-08 2.0859e-05
0.0019291 0.000137518 -1.39821e-06
0.000137518 0.000194421 -1.11241e-06
-1.39821e-06 -1.11241e-06 0.000103527
0.00160041 -1.39845e-05 -6.7698e-07
-1.39845e-05 8.77474e-05 -6.17247e-08
-6.7698e-07 -6.17247e-08 -2.96083e-05
0.00168543 -5.49229e-05 -1.37193e-06
-5.49229e-05 0.000148755 -2.97318e-07
-1.37193e-06 -2.97318e-07 2.75846e-05
0.00172653 -4.19344e-05 9.25161e-07
-4.19344e-05 0.000101532 -4.71475e-07
9.25161e-07 -4.71475e-07 -6.10033e-06
0.00160504 -9.96879e-05 1.445e-06
-9.96879e-05 7.66622e-05 -1.93299e-07
1.445e-06 -1.93299e-07 -3.35053e-05
0.00108113 -0.000131081 -1.51491e-06
-0.000131081 0.000212579 7.61808e-07
-1.51491e-06 7.61808e-07 9.36743e-05
0.000851305 -0.000151133 1.0061e-06
-0.000151133 6.68897e-05 1.50645e-06
1.0061e-06 1.50645e-06 -8.37288e-05
0.00127237 -0.00020827 -2.83783e-06
-0.00020827 0.000153857 3.0393e-06
-2.83783e-06 3.0393e-06 -4.61632e-05
0.00158939 -0.000142264 8.11559e-08
-0.000142264 0.000107952 -3.18705e-07
8.11559e-08 -3.18705e-07 -1.66027e-05
0.00162118 -0.000122773 4.14735e-06
-0.000122773 5.41109e-05 -1.54218e-06
4.14735e-06 -1.54218e-06 -4.07759e-05
0.00167882 -0.000185633 3.64916e-06
-0.000185633 0.000131277 -1.21919e-06
3.64916e-06 -1.21919e-06 1.1066e-05
0.0015632 -0.000222761 -2.1745e-06
-0.000222761 0.000132293 -1.94055e-06
-2.1745e-06 -1.94055e-06 -3.10923e-05
0.00163661 -0.000210336 2.50404e-06
-0.000210336 0.000101489 -7.25377e-06
2.50404e-06 -7.25377e-06 -3.04006e-05
0.00108547 -0.000157619 4.52437e-07
-0.000157619 0.000225567 -1.00717e-06
4.52437e-07 -1.00717e-06 9.80891e-05
0.00106646 -0.000150782 3.46732e-07
-0.000150782 0.000211785 -2.96915e-06
3.46732e-07 -2.96915e-06 8.56229e-05
0.000829491 -4.68252e-05 -3.98862e-08
-4.68252e-05 9.39913e-05 1.44323e-07
-3.98862e-08 1.44323e-07 -1.68667e-05
0.000438024 1.78939e-05 -1.83171e-06
1.78939e-05 -0.000137051 2.26299e-06
-1.83171e-06 2.26299e-06 -0.000194094
0.000586264 3.70115e-05 2.14321e-07
3.70115e-05 -3.89237e-05 3.30901e-07
2.14321e-07 3.30901e-07 -0.000126494
0.00180369 -2.93375e-05 1.90967e-07
-2.93375e-05 0.000129424 -1.00934e-07
1.90967e-07 -1.00934e-07 2.33558e-05
0.00177824 -6.53203e-05 3.51754e-07
-6.53203e-05 0.000123623 -2.91546e-07
3.51754e-07 -2.91546e-07 1.89319e-05
0.0017422 -0.000118208 -1.1053e-06
-0.000118208 0.000101901 -6.66515e-10
-1.1053e-06 -6.66515e-10 1.15119e-05
0.00102147 -0.000155592 -1.77864e-07
-0.000155592 0.000183225 7.54054e-07
-1.77864e-07 7.54054e-07 4.80672e-05
0.000766301 -0.00015511 1.42947e-06
-0.00015511 6.03088e-06 -2.29926e-06
1.42947e-06 -2.29926e-06 -0.000166861
0.00160095 -0.000247086 -1.26791e-06
-0.000247086 0.000249846 9.65213e-07
-1.26791e-06 9.65213e-07 4.48337e-05
0.001622 -0.000145993 6.84166e-07
-0.000145993 6.11603e-05 -1.27147e-07
6.84166e-07 -1.27147e-07 -4.0395e-05
0.00164471 -0.000231829 4.70439e-07
-0.000231829 0.000131141 -1.39045e-06
4.70439e-07 -1.39045e-06 -2.58646e-05
0.00175633 -0.000208697 -4.74145e-07
-0.000208697 0.000132299 -9.89836e-07
-4.74145e-07 -9.89836e-07 1.56658e-05
0.000430844 2.21136e-05 1.17739e-07
2.21136e-05 -0.000143818 -7.37217e-07
1.17739e-07 -7.37217e-07 -0.000195617
0.00103225 -0.000155817 -3.76945e-08
-0.000155817 0.00018775 4.97046e-07
-3.76945e-08 4.97046e-07 5.9602e-05
0.000817823 -0.000142309 -8.80827e-07
-0.000142309 6.5675e-05 1.44902e-07
-8.80827e-07 1.44902e-07 -5.92556e-05
0.000997831 -0.000107046 -4.1232e-07
-0.000107046 0.00018963 8.83352e-07
-4.1232e-07 8.83352e-07 6.21476e-05
0.000947127 -4.49741e-05 -8.27399e-08
-4.49741e-05 0.000169827 2.67891e-08
-8.27399e-08 2.67891e-08 6.63992e-05
0.000722754 9.38491e-06 -2.73916e-07
9.38491e-06 3.98431e-05 3.35251e-07
-2.73916e-07 3.35251e-07 -4.34083e-05
0.00167187 -3.70391e-05 -4.81202e-07
-3.70391e-05 3.69657e-05 2.51768e-07
-4.81202e-07 2.51768e-07 -6.23698e-05
0.00178231 -9.34907e-05 -1.55922e-06
-9.34907e-05 9.06186e-05 -8.39177e-08
-1.55922e-06 -8.39177e-08 6.26371e-06
0.00154803 -0.000129602 -9.67834e-07
-0.000129602 -2.10017e-05 2.20053e-07
-9.67834e-07 2.20053e-07 -0.000102728
0.00194199 -0.000184666 -1.19386e-06
-0.000184666 0.000186367 -1.02376e-07
-1.19386e-06 -1.02376e-07 9.45063e-05
0.000974803 -0.000157449 -1.92589e-06
-0.000157449 0.000152975 1.00594e-07
-1.92589e-06 1.00594e-07 8.61634e-06
0.00182601 -0.000238866 1.54642e-06
-0.000238866 0.000188703 2.94005e-06
1.54642e-06 2.94005e-06 5.38014e-05
0.000598892 -0.000163735 -1.64919e-06
-0.000163735 -0.000136871 -2.28921e-06
-1.64919e-06 -2.28921e-06 -0.000342823
0.00219736 -0.000298379 -7.86588e-08
-0.000298379 0.000522466 1.77702e-06
-7.86588e-08 1.77702e-06 0.000316796
0.00042135 3.20813e-05 1.35046e-08
3.20813e-05 -0.000151623 -2.95294e-06
1.35046e-08 -2.95294e-06 -0.000199118
0.000853558 -9.73872e-06 1.33038e-06
-9.73872e-06 0.000112876 -1.14864e-06
1.33038e-06 -1.14864e-06 3.48487e-05
0.000996054 -6.35444e-05 -1.46704e-08
-6.35444e-05 0.000199254 8.14576e-07
-1.46704e-08 8.14576e-07 0.0001009
0.000838221 -2.08268e-05 4.91809e-09
-2.08268e-05 0.00010893 -3.03894e-07
4.91809e-09 -3.03894e-07 -4.1067e-06
0.000843068 -0.000148043 -9.10869e-07
-0.000148043 7.23222e-05 1.19804e-06
-9.10869e-07 1.19804e-06 -5.81031e-05
0.000963023 -0.000153351 -3.59878e-06
-0.000153351 0.000141916 3.45015e-06
-3.59878e-06 3.45015e-06 6.10683e-06
0.000705754 -3.89329e-05 -1.98892e-06
-3.89329e-05 8.08825e-06 -1.51998e-06
-1.98892e-06 -1.51998e-06 -3.22518e-05
0.000699428 -6.25196e-05 -7.55657e-09
-6.25196e-05 1.9876e-05 -8.56068e-07
-7.55657e-09 -8.56068e-07 -4.82759e-05
0.00163318 0.000152216 -1.10749e-07
0.000152216 0.000118854 4.44255e-07
-1.10749e-07 4.44255e-07 -1.88655e-05
0.000759457 -4.15913e-05 8.22234e-07
-4.15913e-05 6.75057e-05 -7.05031e-07
8.22234e-07 -7.05031e-07 -2.69594e-05
0.000960001 0.000143853 4.73333e-07
0.000143853 0.00018156 -5.33449e-07
4.73333e-07 -5.33449e-07 3.95191e-05
0.0006208 4.32516e-05 1.44314e-06
4.32516e-05 -7.54995e-06 -2.34758e-07
1.44314e-06 -2.34758e-07 -0.000130284
0.00162763 0.000216103 -1.26203e-06
0.000216103 0.000187579 -8.09362e-07
-1.26203e-06 -8.09362e-07 2.44325e-05
0.00166671 0.000213445 1.44527e-06
0.000213445 0.000132772 1.89515e-06
1.44527e-06 1.89515e-06 -7.55153e-06
0.000600155 0.000141548 4.48534e-07
0.000141548 -5.11183e-05 1.23245e-06
4.48534e-07 1.23245e-06 -0.000239303
0.00178454 0.00025122 -2.34297e-07
0.00025122 0.000385728 -3.71601e-07
-2.34297e-07 -3.71601e-07 0.000203859
0.000749379 -1.52429e-05 -6.57858e-07
-1.52429e-05 3.8972e-05 1.45599e-07
-6.57858e-07 1.45599e-07 -2.13166e-05
0.000705559 -1.5259e-05 3.16139e-09
-1.5259e-05 3.15892e-05 9.59551e-07
3.16139e-09 9.59551e-07 -5.23314e-05
0.00104766 0.000157294 -4.71361e-07
0.000157294 0.000226278 -1.95589e-06
-4.71361e-07 -1.95589e-06 6.58911e-05
0.00067633 -9.79179e-06 -1.86297e-07
-9.79179e-06 2.44854e-05 9.65289e-08
-1.86297e-07 9.65289e-08 -8.60757e-05
0.000830925 0.000106873 -1.5098e-06
0.000106873 0.000103509 -8.62775e-07
-1.5098e-06 -8.62775e-07 -2.62386e-05
0.00184564 0.000169959 -2.26568e-06
0.000169959 0.000168946 -1.01116e-06
-2.26568e-06 -1.01116e-06 6.43835e-05
0.00186815 0.000253207 9.78215e-07
0.000253207 0.000287709 5.21218e-07
9.78215e-07 5.21218e-07 0.000122828
0.00156606 0.000221554 4.96387e-07
0.000221554 5.65354e-05 1.90652e-06
4.96387e-07 1.90652e-06 -7.96557e-05
0.00139528 0.000203445 2.3275e-06
0.000203445 0.000354909 3.44052e-06
2.3275e-06 3.44052e-06 0.000137637
0.00109143 0.00021913 -1.98856e-06
0.00021913 -3.85013e-05 -4.9611e-07
-1.98856e-06 -4.9611e-07 -0.000213565
0.000597936 -3.46955e-05 -3.34027e-07
-3.46955e-05 -3.45495e-05 8.95342e-07
-3.34027e-07 8.95342e-07 -0.000107051
0.000402705 3.66923e-05 -7.67331e-07
3.66923e-05 -0.000118771 4.10969e-07
-7.67331e-07 4.10969e-07 -0.000225365
0.00109773 0.000163334 4.57515e-07
0.000163334 0.00024445 1.26704e-06
4.57515e-07 1.26704e-06 6.21259e-05
-1.47325e-05 4.16057e-05 9.3619e-07
4.16057e-05 -0.000355923 1.13262e-07
9.3619e-07 1.13262e-07 -0.000489693
0.00197184 0.000169409 -1.80425e-06
0.000169409 0.000135035 -5.61092e-07
-1.80425e-06 -5.61092e-07 5.7076e-05
0.00201029 0.000214175 1.98366e-06
0.000214175 0.000223898 -7.23545e-07
1.98366e-06 -7.23545e-07 0.000119766
0.0018072 0.000279817 -1.14867e-06
0.000279817 0.000218471 -1.21268e-06
-1.14867e-06 -1.21268e-06 4.68846e-05
-0.00026327 0.000105172 -1.51217e-07
0.000105172 -0.000642099 9.15843e-07
-1.51217e-07 9.15843e-07 -0.000865185
0.000746615 1.14936e-05 -8.03158e-07
1.14936e-05 3.93255e-05 -5.74891e-08
-8.03158e-07 -5.74891e-08 -2.16225e-05
0.000736928 -6.66755e-06 -3.76531e-07
-6.66755e-06 4.30793e-05 4.04969e-07
-3.76531e-07 4.04969e-07 -2.78158e-05
0.000834786 -2.73771e-05 -4.63381e-07
-2.73771e-05 0.000101994 -7.45961e-08
-4.63381e-07 -7.45961e-08 2.72524e-05
0.000737051 -3.10538e-05 -1.07811e-06
-3.10538e-05 2.84518e-05 -6.54667e-07
-1.07811e-06 -6.54667e-07 -2.82884e-05
0.000631588 -3.70493e-05 -2.94375e-07
-3.70493e-05 -1.87409e-05 -2.56911e-07
-2.94375e-07 -2.56911e-07 -8.79627e-05
0.000761517 -3.96978e-06 1.2129e-08
-3.96978e-06 4.1814e-05 5.9185e-09
1.2129e-08 5.9185e-09 -1.55776e-05
0.000774697 2.67718e-05 -3.83823e-07
2.67718e-05 7.27472e-05 -2.48869e-07
-3.83823e-07 -2.48869e-07 -7.52032e-06
0.000721263 -5.23258e-06 4.06488e-07
-5.23258e-06 3.64138e-05 2.65446e-07
4.06488e-07 2.65446e-07 -3.74104e-05
0.000824468 -2.08862e-06 3.3872e-07
-2.08862e-06 9.34679e-05 -3.81813e-07
3.3872e-07 -3.81813e-07 1.47047e-05
0.000783937 -3.762e-05 5.11133e-07
-3.762e-05 7.16532e-05 -4.07661e-07
5.11133e-07 -4.07661e-07 -7.44845e-06
0.000661577 1.65513e-05 5.337e-07
1.65513e-05 -6.32589e-07 3.10729e-07
5.337e-07 3.10729e-07 -7.45259e-05
0.000759508 2.91209e-05 7.25109e-07
2.91209e-05 4.14328e-05 6.68483e-07
7.25109e-07 6.68483e-07 -1.73352e-05
0.000713814 1.1592e-05 6.27895e-07
1.1592e-05 2.91857e-06 1.56787e-06
6.27895e-07 1.56787e-06 -3.58793e-05
0.000724711 -5.73265e-06 -1.60026e-07
-5.73265e-06 6.33361e-06 1.79105e-08
-1.60026e-07 1.79105e-08 -3.15389e-05
0.00127867 -1.72274e-05 7.57504e-07
-1.72274e-05 0.000308622 2.13842e-06
7.57504e-07 2.13842e-06 0.00030474
0.000730765 -1.56125e-05 -6.9612e-07
-1.56125e-05 8.80133e-06 -1.77193e-06
-6.9612e-07 -1.77193e-06 -2.83879e-05
0.00129816 -2.40525e-05 -3.31621e-06
-2.40525e-05 0.000322614 -1.36773e-06
-3.31621e-06 -1.36773e-06 0.00031849
0.000940118 -2.04662e-05 1.45745e-05
-2.04662e-05 0.000124445 7.19037e-06
1.45745e-05 7.19037e-06 0.000136207
0.00131283 -3.13634e-05 -6.85401e-06
-3.13634e-05 0.000334934 -4.8661e-06
-6.85401e-06 -4.8661e-06 0.00033021
0.000877346 -2.73868e-05 5.56226e-06
-2.73868e-05 9.34653e-05 2.67784e-06
5.56226e-06 2.67784e-06 0.000104491
0.000810032 -3.32869e-05 -2.00352e-06
-3.32869e-05 6.1955e-05 -1.7921e-06
-2.00352e-06 -1.7921e-06 7.15473e-05
0.000642287 3.12864e-05 6.81665e-07
3.12864e-05 -3.79647e-05 -3.84703e-06
6.81665e-07 -3.84703e-06 -5.09202e-05
0.000641447 3.73997e-05 -1.94196e-07
3.73997e-05 -3.14769e-05 4.32566e-08
-1.94196e-07 4.32566e-08 -4.81755e-05
0.00232685 6.22812e-05 2.51162e-05
6.22812e-05 0.00093009 -4.00504e-06
2.51162e-05 -4.00504e-06 0.000942046
0.000637664 4.55213e-05 -9.19425e-07
4.55213e-05 -2.51469e-05 4.45293e-06
-9.19425e-07 4.45293e-06 -4.61286e-05
0.00248437 7.38775e-05 -2.50058e-06
7.38775e-05 0.00102709 -1.70412e-07
-2.50058e-06 -1.70412e-07 0.001036
0.00263347 8.3327e-05 -4.25108e-05
8.3327e-05 0.00111769 3.32827e-06
-4.25108e-05 3.32827e-06 0.00112435
0.00159742 0.000103163 1.82214e-06
0.000103163 8.21823e-05 2.33268e-06
1.82214e-06 2.33268e-06 -3.53684e-05
0.0016711 8.10059e-05 1.29417e-06
8.10059e-05 7.63436e-05 2.23193e-07
1.29417e-06 2.23193e-07 -2.89458e-05
0.00169954 0.000118456 5.15298e-06
0.000118456 6.37524e-05 1.17258e-06
5.15298e-06 1.17258e-06 -2.57637e-05
0.00173343 6.94929e-05 3.03541e-06
6.94929e-05 7.45902e-05 -1.04557e-06
3.03541e-06 -1.04557e-06 -1.53152e-05
0.00175513 2.86695e-05 1.61056e-06
2.86695e-05 0.000101007 -1.41494e-07
1.61056e-06 -1.41494e-07 -6.50879e-06
0.00161216 6.5765e-07 -1.09222e-06
6.5765e-07 8.5934e-05 -1.33887e-07
-1.09222e-06 -1.33887e-07 -3.12956e-05
0.0017479 2.02355e-06 -9.27855e-08
2.02355e-06 0.00010458 -2.15744e-08
-9.27855e-08 -2.15744e-08 -1.84317e-06
0.00171026 4.1612e-05 6.72114e-07
4.1612e-05 6.5072e-05 -1.27735e-07
6.72114e-07 -1.27735e-07 -2.89986e-05
0.00175554 8.8574e-05 8.39579e-07
8.8574e-05 8.14325e-05 -2.32053e-07
8.39579e-07 -2.32053e-07 -3.53109e-06
0.00191371 0.000133152 4.36182e-07
0.000133152 0.0001776 3.47688e-07
4.36182e-07 3.47688e-07 8.77161e-05
0.00174938 2.40573e-06 -1.12356e-06
2.40573e-06 8.40521e-05 2.74027e-07
-1.12356e-06 2.74027e-07 -1.2702e-05
0.00202064 6.85676e-05 2.85288e-07
6.85676e-05 0.000200272 5.71787e-07
2.85288e-07 5.71787e-07 0.000124689
0.00166922 0.000125038 7.94613e-08
0.000125038 -8.92575e-06 -3.28384e-07
7.94613e-08 -3.28384e-07 -8.47644e-05
0.00181565 -3.09268e-05 5.10639e-07
-3.09268e-05 0.000138827 -2.57253e-07
5.10639e-07 -2.57253e-07 3.25672e-05
0.00180843 -6.73152e-05 7.23094e-07
-6.73152e-05 0.000141957 -4.25069e-07
7.23094e-07 -4.25069e-07 3.71279e-05
0.00170412 -0.00011719 1.37525e-06
-0.00011719 8.45372e-05 -2.27529e-08
1.37525e-06 -2.27529e-08 -8.07685e-06
0.00115062 -0.000164397 -2.90885e-07
-0.000164397 0.000252321 1.576e-06
-2.90885e-07 1.576e-06 0.000115895
0.00153015 -0.00020736 -1.65914e-07
-0.00020736 0.000425879 2.07625e-06
-1.65914e-07 2.07625e-06 0.00025087
0.000985223 -0.000206356 -2.13503e-06
-0.000206356 -8.44199e-05 1.19392e-06
-2.13503e-06 1.19392e-06 -0.00028735
0.00167325 -0.000147078 1.70572e-06
-0.000147078 8.93746e-05 -8.8932e-07
1.70572e-06 -8.8932e-07 -1.2795e-05
0.00150334 -0.000200891 -1.12323e-07
-0.000200891 -3.636e-06 -2.9148e-06
-1.12323e-07 -2.9148e-06 -0.000121514
0.00166502 -0.000229459 -1.27376e-06
-0.000229459 0.000141101 -4.49286e-06
-1.27376e-06 -4.49286e-06 -1.21309e-05
0.001065 -0.0001579 9.19206e-07
-0.0001579 0.000203665 -9.93796e-07
9.19206e-07 -9.93796e-07 7.53272e-05
0.000814358 -0.000140879 -3.81841e-06
-0.000140879 6.73272e-05 -2.21911e-06
-3.81841e-06 -2.21911e-06 -5.48574e-05
0.00107295 -0.000120118 4.33712e-07
-0.000120118 0.000239666 3.09993e-07
4.33712e-07 3.09993e-07 0.000105147
0.000433231 2.04458e-05 -8.41543e-07
2.04458e-05 -0.000143004 1.46457e-06
-8.41543e-07 1.46457e-06 -0.000194091
0.000972541 -3.75235e-05 2.89959e-07
-3.75235e-05 0.000180939 -4.45687e-08
2.89959e-07 -4.45687e-08 7.96392e-05
0.00059192 2.90644e-05 4.91272e-07
2.90644e-05 -3.78259e-05 1.34275e-06
4.91272e-07 1.34275e-06 -0.000118924
0.00177686 -3.5929e-05 -2.93216e-07
-3.5929e-05 9.22406e-05 1.46236e-07
-2.93216e-07 1.46236e-07 -6.83952e-06
0.00184126 -9.49487e-05 6.71111e-07
-9.49487e-05 0.0001252 -3.23667e-08
6.71111e-07 -3.23667e-08 4.15789e-05
0.00160422 -0.00013028 -3.58941e-07
-0.00013028 1.18e-05 1.59572e-07
-3.58941e-07 1.59572e-07 -6.97539e-05
0.00104365 -0.000161446 1.32363e-07
-0.000161446 0.000188244 1.76067e-06
1.32363e-07 1.76067e-06 4.31782e-05
0.000881691 -0.000180236 -2.71968e-07
-0.000180236 2.98096e-05 -5.67177e-08
-2.71968e-07 -5.67177e-08 -0.000172182
0.00187102 -0.00027588 -2.86728e-06
-0.00027588 0.00033828 9.87426e-07
-2.86728e-06 9.87426e-07 0.000137954
0.00188687 -0.000184831 7.72886e-07
-0.000184831 0.000155668 -6.46025e-07
7.72886e-07 -6.46025e-07 6.23845e-05
0.00175481 -0.000236423 1.69094e-06
-0.000236423 0.000145981 -7.43964e-07
1.69094e-06 -7.43964e-07 1.10607e-05
0.000565286 2.08906e-05 3.80248e-07
2.08906e-05 -7.18804e-05 -7.189e-07
3.80248e-07 -7.189e-07 -0.000117214
0.000848795 -7.75529e-07 -3.32117e-07
-7.75529e-07 0.000108669 2.56078e-07
-3.32117e-07 2.56078e-07 3.15576e-05
0.000521799 -0.000124198 -1.66648e-06
-0.000124198 -0.000106335 1.48993e-06
-1.66648e-06 1.48993e-06 -0.000232274
0.00120054 -0.000161717 5.18883e-07
-0.000161717 0.000278089 3.62689e-07
5.18883e-07 3.62689e-07 0.000145909
0.000871695 -3.77748e-05 1.23509e-07
-3.77748e-05 0.00012904 -3.96787e-07
1.23509e-07 -3.96787e-07 1.35532e-05
0.000903845 -4.8742e-05 -6.43763e-07
-4.8742e-05 0.000148357 1.01642e-06
-6.43763e-07 1.01642e-06 4.97683e-05
0.00185098 -5.74229e-05 -1.40687e-06
-5.74229e-05 0.000100952 2.56522e-08
-1.40687e-06 2.56522e-08 1.90889e-05
0.00172297 -0.00012717 -3.16281e-06
-0.00012717 2.9729e-05 -4.14144e-07
-3.16281e-06 -4.14144e-07 -3.44883e-05
0.00180495 -0.000149966 1.05504e-06
-0.000149966 7.86243e-05 -1.90432e-07
1.05504e-06 -1.90432e-07 7.41035e-06
0.0023713 -0.000266247 5.19959e-06
-0.000266247 0.000398534 -9.12788e-07
5.19959e-06 -9.12788e-07 0.000292303
0.000252973 -0.00011518 -2.57557e-06
-0.00011518 -0.000250187 -8.25293e-07
-2.57557e-06 -8.25293e-07 -0.000410972
0.00183577 -0.000281243 -2.74517e-06
-0.000281243 0.000265216 5.4339e-06
-2.74517e-06 5.4339e-06 7.83048e-05
0.00216139 -0.000290311 1.89654e-06
-0.000290311 0.000661217 -3.46573e-06
1.89654e-06 -3.46573e-06 0.000435338
0.000720595 1.82958e-05 6.90767e-07
1.82958e-05 1.16114e-05 -1.98196e-06
6.90767e-07 -1.98196e-06 -2.84666e-05
0.000742699 -7.59028e-05 1.33919e-06
-7.59028e-05 5.49517e-05 -1.67527e-06
1.33919e-06 -1.67527e-06 -1.60326e-05
0.000561995 1.14411e-05 3.96162e-07
1.14411e-05 -4.88404e-05 -2.19778e-06
3.96162e-07 -2.19778e-06 -0.000125851
0.000832128 -3.90724e-05 1.23885e-06
-3.90724e-05 0.00011327 1.20938e-07
1.23885e-06 1.20938e-07 1.65948e-05
0.000806393 -1.99179e-06 7.7312e-07
-1.99179e-06 8.90112e-05 -7.14664e-07
7.7312e-07 -7.14664e-07 -1.24077e-05
0.000529502 -0.000111117 5.90179e-08
-0.000111117 -4.41118e-05 2.65897e-06
5.90179e-08 2.65897e-06 -0.000172519
0.000560506 -0.000130899 -3.30375e-06
-0.000130899 -0.000132374 1.14795e-06
-3.30375e-06 1.14795e-06 -0.000247166
0.00178997 -0.000205315 -5.90677e-06
-0.000205315 0.000634726 3.76376e-06
-5.90677e-06 3.76376e-06 0.000481823
0.000731918 -4.1175e-05 -6.14068e-07
-4.1175e-05 2.80392e-05 -5.34565e-07
-6.14068e-07 -5.34565e-07 -3.09433e-05
0.000815217 -7.55566e-06 -5.5901e-08
-7.55566e-06 9.35418e-05 2.33794e-07
-5.5901e-08 2.33794e-07 8.67069e-06
0.00207904 0.000176226 1.83878e-07
0.000176226 0.000298337 5.27809e-07
1.83878e-07 5.27809e-07 0.000196036
0.000833407 1.1202e-05 3.98867e-08
1.1202e-05 0.000116339 -7.54178e-07
3.98867e-08 -7.54178e-07 1.83115e-06
0.00113357 0.000163076 1.15138e-06
0.000163076 0.000280045 -1.41413e-06
1.15138e-06 -1.41413e-06 0.000116856
0.00064641 8.2565e-05 -3.85859e-07
8.2565e-05 2.08095e-06 1.9777e-06
-3.85859e-07 1.9777e-06 -0.0001197
0.00188421 0.000251739 9.12736e-07
0.000251739 0.000292813 4.12901e-07
9.12736e-07 4.12901e-07 0.000127417
0.00164234 0.000229015 2.9234e-06
0.000229015 0.000100623 4.82156e-06
2.9234e-06 4.82156e-06 -3.60183e-05
0.000922717 0.000173616 1.35235e-06
0.000173616 0.000103752 3.25689e-07
1.35235e-06 3.25689e-07 -0.000117008
0.00122161 0.000228542 -3.11004e-06
0.000228542 3.65122e-05 -6.71739e-10
-3.11004e-06 -6.71739e-10 -0.00013604
0.000621571 -1.42345e-05 9.08316e-08
-1.42345e-05 -1.68355e-05 6.65624e-07
9.08316e-08 6.65624e-07 -9.36578e-05
0.00060272 5.17713e-05 -2.9808e-07
5.17713e-05 -7.30813e-06 -1.37943e-06
-2.9808e-07 -1.37943e-06 -0.000115588
0.00103373 0.000159566 1.22148e-06
0.000159566 0.000218272 -1.56938e-06
1.22148e-06 -1.56938e-06 3.21464e-05
0.000675821 8.85271e-05 -6.80973e-07
8.85271e-05 2.35976e-05 -1.64754e-06
-6.80973e-07 -1.64754e-06 -0.000113835
0.00200693 0.00016643 1.72933e-07
0.00016643 0.00015931 -4.86156e-07
1.72933e-07 -4.86156e-07 8.34082e-05
0.001814 0.000211955 1.90482e-06
0.000211955 0.000126474 4.96579e-07
1.90482e-06 4.96579e-07 1.78895e-05
0.00168229 0.000265836 -1.17255e-06
0.000265836 0.000152504 -6.92104e-07
-1.17255e-06 -6.92104e-07 -1.52872e-05
0.000831127 0.000184913 4.3588e-07
0.000184913 -6.43608e-05 4.19222e-08
4.3588e-07 4.19222e-08 -0.000286721
0.000798911 -9.34674e-06 -2.6529e-07
-9.34674e-06 8.41317e-05 3.35157e-07
-2.6529e-07 3.35157e-07 3.43442e-06
0.00184439 0.0001308 -6.57007e-07
0.0001308 2.97208e-05 6.21032e-07
-6.57007e-07 6.21032e-07 -2.11421e-05
0.00125379 0.000155904 -8.75423e-07
0.000155904 0.000373449 2.19571e-06
-8.75423e-07 2.19571e-06 0.000232356
0.0010454 0.000167388 2.34494e-07
0.000167388 0.000203562 2.74261e-06
2.34494e-07 2.74261e-06 9.38217e-06
0.00240425 0.000214322 -5.11933e-06
0.000214322 0.000348924 -1.81883e-07
-5.11933e-06 -1.81883e-07 0.00027112
0.00148091 0.000272525 -3.07825e-06
0.000272525 -4.74087e-05 -3.50232e-06
-3.07825e-06 -3.50232e-06 -0.000200589
0.00202308 0.000291676 -1.95001e-06
0.000291676 0.000471386 1.31015e-06
-1.95001e-06 1.31015e-06 0.000248525
0.000804057 -3.83251e-07 -1.48779e-06
-3.83251e-07 8.13056e-05 3.19993e-07
-1.48779e-06 3.19993e-07 1.03112e-05
0.000798175 -1.16784e-05 -1.5454e-07
-1.16784e-05 8.19848e-05 8.6679e-08
-1.5454e-07 8.6679e-08 6.83483e-06
0.000864986 -2.65102e-05 -6.35108e-07
-2.65102e-05 0.000126895 9.03616e-08
-6.35108e-07 9.03616e-08 4.49157e-05
0.000741476 -2.52776e-05 -4.48013e-07
-2.52776e-05 3.20143e-05 -7.55509e-07
-4.48013e-07 -7.55509e-07 -2.64039e-05
0.000753959 9.23311e-06 1.76623e-07
9.23311e-06 5.57863e-05 3.81541e-07
1.76623e-07 3.81541e-07 -1.84045e-05
0.000653431 -1.26535e-05 -7.21617e-07
-1.26535e-05 9.70215e-06 1.89749e-07
-7.21617e-07 1.89749e-07 -7.29551e-05
0.000749844 -1.29367e-05 -1.34308e-07
-1.29367e-05 3.99281e-05 -2.0596e-08
-1.34308e-07 -2.0596e-08 -2.16953e-05
0.000671319 -2.49668e-05 -5.40726e-07
-2.49668e-05 8.92522e-06 3.0723e-07
-5.40726e-07 3.0723e-07 -6.71587e-05
0.000744805 -4.10215e-05 4.32988e-07
-4.10215e-05 5.01285e-05 -3.36304e-07
4.32988e-07 -3.36304e-07 -2.89122e-05
0.000828194 1.2163e-05 2.67421e-07
1.2163e-05 0.000102907 2.95269e-07
2.67421e-07 2.95269e-07 1.95731e-05
0.000790134 -1.96507e-05 6.12192e-07
-1.96507e-05 6.62317e-05 -1.06936e-06
6.12192e-07 -1.06936e-06 -1.24876e-05
0.000778536 -5.95935e-05 4.68742e-07
-5.95935e-05 6.55443e-05 -3.86539e-07
4.68742e-07 -3.86539e-07 -1.58147e-05
0.000852271 1.48433e-05 6.40684e-07
1.48433e-05 0.000112272 -3.09785e-07
6.40684e-07 -3.09785e-07 2.84002e-05
0.000753443 1.90772e-05 1.69251e-06
1.90772e-05 5.42547e-05 1.97171e-07
1.69251e-06 1.97171e-07 -2.70419e-05
0.000764612 8.4719e-06 8.23757e-07
8.4719e-06 4.39194e-05 7.41121e-07
8.23757e-07 7.41121e-07 -1.63629e-05
0.00070232 3.67701e-06 3.24147e-07
3.67701e-06 -1.64624e-06 1.51321e-06
3.24147e-07 1.51321e-06 -4.07793e-05
0.000716671 -2.19681e-06 -2.08989e-07
-2.19681e-06 4.36886e-06 3.05309e-08
-2.08989e-07 3.05309e-08 -3.424e-05
0.00128399 -8.25889e-06 5.4217e-07
-8.25889e-06 0.00031025 2.06565e-06
5.4217e-07 2.06565e-06 0.000306112
0.000732117 -1.2458e-05 -1.11182e-07
-1.2458e-05 1.07572e-05 -1.76372e-06
-1.11182e-07 -1.76372e-06 -2.72039e-05
0.00130821 -1.52289e-05 -2.48397e-06
-1.52289e-05 0.000325742 -1.41771e-06
-2.48397e-06 -1.41771e-06 0.000321707
0.000941275 -1.39879e-05 1.1013e-05
-1.39879e-05 0.000121682 7.40564e-06
1.1013e-05 7.40564e-06 0.000133773
0.00132973 -2.24959e-05 -5.11585e-06
-2.24959e-05 0.000340529 -4.93042e-06
-5.11585e-06 -4.93042e-06 0.000336242
0.000890082 -2.09006e-05 3.96043e-06
-2.09006e-05 9.56027e-05 2.7816e-06
3.96043e-06 2.7816e-06 0.000107403
0.000824024 -2.69004e-05 -1.434e-06
-2.69004e-05 6.31256e-05 -1.80596e-06
-1.434e-06 -1.80596e-06 7.4284e-05
0.000728945 3.47229e-06 4.92946e-07
3.47229e-06 1.49553e-05 -1.92778e-06
4.92946e-07 -1.92778e-06 -2.22001e-05
0.000654589 2.51087e-05 5.59958e-07
2.51087e-05 -3.69318e-05 -3.72815e-06
5.59958e-07 -3.72815e-06 -4.68336e-05
0.000655272 3.1912e-05 -1.15681e-07
3.1912e-05 -3.08023e-05 4.7621e-08
-1.15681e-07 4.7621e-08 -4.3892e-05
0.00224482 5.14927e-05 2.06518e-05
5.14927e-05 0.000876518 -4.18697e-06
2.06518e-05 -4.18697e-06 0.000891055
0.000652545 3.85909e-05 -1.0197e-06
3.85909e-05 -2.50162e-05 4.17619e-06
-1.0197e-06 4.17619e-06 -4.1956e-05
0.00237268 6.33541e-05 -2.49724e-06
6.33541e-05 0.000956789 -1.50027e-07
-2.49724e-06 -1.50027e-07 0.000968344
0.00253299 7.44157e-05 -3.49546e-05
7.44157e-05 0.00105496 3.66657e-06
-3.49546e-05 3.66657e-06 0.00106369
0.00189821 0.000128685 1.86505e-06
0.000128685 0.000160578 1.9511e-06
1.86505e-06 1.9511e-06 7.17191e-05
0.00170915 8.99161e-05 1.82861e-06
8.99161e-05 5.71458e-05 -1.69565e-07
1.82861e-06 -1.69565e-07 -2.87147e-05
0.00169101 4.11252e-05 1.56032e-06
4.11252e-05 5.97886e-05 -6.07913e-07
1.56032e-06 -6.07913e-07 -3.46441e-05
0.00173432 4.02004e-06 6.58066e-07
4.02004e-06 9.71753e-05 -3.03586e-07
6.58066e-07 -3.03586e-07 -9.30391e-06
0.0017666 3.529e-06 -7.31107e-07
3.529e-06 9.53691e-05 4.61863e-08
-7.31107e-07 4.61863e-08 -1.61596e-08
0.00192291 6.61126e-05 6.66564e-07
6.61126e-05 0.000143934 -2.31177e-07
6.66564e-07 -2.31177e-07 6.74909e-05
0.00169108 0.000125807 -7.26411e-07
0.000125807 -6.22836e-08 -2.02138e-07
-7.26411e-07 -2.02138e-07 -7.61193e-05
0.00181494 9.7493e-06 -1.11008e-06
9.7493e-06 7.79838e-05 9.76732e-07
-1.11008e-06 9.76732e-07 -7.36172e-07
0.00193655 8.74967e-05 6.84966e-07
8.74967e-05 0.000107472 -6.63705e-09
6.84966e-07 -6.63705e-09 4.9188e-05
0.00189419 5.88153e-05 -1.88108e-06
5.88153e-05 7.14964e-05 -1.00553e-06
-1.88108e-06 -1.00553e-06 5.54048e-05
0.00188466 -3.49837e-05 -1.24479e-07
-3.49837e-05 0.000149005 -1.69317e-07
-1.24479e-07 -1.69317e-07 5.01965e-05
0.00190262 -9.75611e-05 2.43834e-06
-9.75611e-05 0.000160291 2.38939e-07
2.43834e-06 2.38939e-07 7.73525e-05
0.00165559 -0.000132267 -3.89927e-07
-0.000132267 4.03661e-05 -1.29414e-09
-3.89927e-07 -1.29414e-09 -4.10944e-05
0.00109829 -0.000164678 2.97618e-07
-0.000164678 0.000216212 3.4995e-06
2.97618e-07 3.4995e-06 7.01598e-05
0.00115884 -0.000196214 1.00656e-06
-0.000196214 0.000193964 3.88012e-06
1.00656e-06 3.88012e-06 -5.03059e-06
0.0014775 -0.000248581 -1.99044e-06
-0.000248581 0.000119229 -7.786e-07
-1.99044e-06 -7.786e-07 -7.48748e-05
0.00184718 -0.000183764 3.1884e-06
-0.000183764 0.000133376 -1.12718e-06
3.1884e-06 -1.12718e-06 3.89105e-05
0.00162857 -0.000228614 -4.00822e-07
-0.000228614 7.70074e-05 -3.14465e-06
-4.00822e-07 -3.14465e-06 -5.71757e-05
0.000246697 -0.000103626 -2.53845e-06
-0.000103626 -0.000258903 2.23342e-06
-2.53845e-06 2.23342e-06 -0.000380873
0.00147435 -0.000176282 8.18454e-06
-0.000176282 0.000435482 -4.08922e-06
8.18454e-06 -4.08922e-06 0.000305624
0.000818091 -7.57528e-06 -3.45195e-08
-7.57528e-06 8.97696e-05 -5.29008e-07
-3.45195e-08 -5.29008e-07 -1.78652e-05
0.000717327 1.03632e-05 -6.79461e-07
1.03632e-05 1.24356e-05 1.36671e-06
-6.79461e-07 1.36671e-06 -3.0909e-05
0.000852101 1.67513e-05 -8.17022e-07
1.67513e-05 0.000109422 1.53383e-06
-8.17022e-07 1.53383e-06 3.2751e-05
0.000820591 -2.18452e-05 -5.16743e-07
-2.18452e-05 0.00010238 1.16849e-06
-5.16743e-07 1.16849e-06 3.62368e-06
0.00188806 -5.88922e-05 8.10004e-08
-5.88922e-05 0.000122473 8.84108e-08
8.10004e-08 8.84108e-08 4.25493e-05
0.00072128 8.98868e-06 5.67613e-07
8.98868e-06 1.23022e-05 4.76122e-08
5.67613e-07 4.76122e-08 -2.79879e-05
0.000657298 -1.99907e-05 -8.21647e-07
-1.99907e-05 -4.19465e-06 2.01231e-08
-8.21647e-07 2.01231e-08 -6.83024e-05
0.0018197 -0.000126486 -3.7614e-07
-0.000126486 8.9215e-05 -7.00553e-08
-3.7614e-07 -7.00553e-08 2.33131e-05
0.00164759 -0.000145209 -1.90075e-06
-0.000145209 -1.22326e-05 9.03419e-07
-1.90075e-06 9.03419e-07 -8.54764e-05
0.000532945 -0.000132899 3.25044e-07
-0.000132899 -8.51956e-05 2.74258e-06
3.25044e-07 2.74258e-06 -0.000243569
0.00170214 -0.000255011 -1.97671e-06
-0.000255011 0.000418105 7.85674e-07
-1.97671e-06 7.85674e-07 0.000186436
0.00148513 -0.000256182 9.70275e-07
-0.000256182 7.68016e-05 -9.08203e-07
9.70275e-07 -9.08203e-07 -0.000103172
0.00192134 -0.000249342 2.67887e-06
-0.000249342 0.000164413 -9.05524e-07
2.67887e-06 -9.05524e-07 5.75413e-05
0.000805561 -2.52357e-05 1.16231e-06
-2.52357e-05 8.65429e-05 -7.20116e-07
1.16231e-06 -7.20116e-07 1.19478e-05
0.000813076 -2.76685e-05 -2.2235e-07
-2.76685e-05 0.000103401 6.92162e-07
-2.2235e-07 6.92162e-07 5.68224e-06
0.000957056 -0.000145446 -7.02865e-07
-0.000145446 8.48683e-05 -2.18274e-07
-7.02865e-07 -2.18274e-07 -3.47614e-05
0.00115622 -0.000163836 7.19486e-06
-0.000163836 0.000281343 -2.00982e-06
7.19486e-06 -2.00982e-06 0.000151016
0.00062372 -8.55194e-05 -1.10285e-06
-8.55194e-05 4.36614e-07 1.97736e-07
-1.10285e-06 1.97736e-07 -0.0001231
0.00082634 -8.02659e-06 3.06035e-07
-8.02659e-06 0.000102997 -4.82943e-07
3.06035e-07 -4.82943e-07 -1.04922e-07
0.0019176 -7.44184e-05 -4.00344e-06
-7.44184e-05 9.11396e-05 -6.38287e-08
-4.00344e-06 -6.38287e-08 3.23643e-05
0.0017053 -0.00011562 1.57153e-06
-0.00011562 -9.84596e-06 3.96711e-07
1.57153e-06 3.96711e-07 -6.53856e-05
0.00187633 -0.0002396 3.92571e-07
-0.0002396 4.15002e-05 -2.03491e-06
3.92571e-07 -2.03491e-06 -2.6057e-05
0.00161297 -0.000279019 1.54575e-06
-0.000279019 2.99886e-05 7.95252e-07
1.54575e-06 7.95252e-07 -9.63486e-05
0.000811321 -0.000117965 -5.10952e-06
-0.000117965 4.09671e-05 -3.35188e-06
-5.10952e-06 -3.35188e-06 -0.000117664
0.00260832 -0.000346679 -3.10555e-06
-0.000346679 0.000827115 2.59515e-06
-3.10555e-06 2.59515e-06 0.000579947
0.00053855 4.97913e-05 -1.32515e-06
4.97913e-05 -6.71765e-05 -2.27862e-06
-1.32515e-06 -2.27862e-06 -0.000132084
0.000753217 -4.21606e-05 1.3294e-06
-4.21606e-05 5.07535e-05 -1.48782e-06
1.3294e-06 -1.48782e-06 -1.64036e-05
0.000961513 -5.40272e-05 1.03627e-06
-5.40272e-05 0.000186671 -2.18665e-07
1.03627e-06 -2.18665e-07 0.000100338
0.000556928 1.45785e-05 -1.0164e-07
1.45785e-05 -3.53327e-05 -6.54624e-07
-1.0164e-07 -6.54624e-07 -0.000135112
0.00104435 -3.63354e-05 5.1985e-07
-3.63354e-05 0.000226124 -2.64387e-07
5.1985e-07 -2.64387e-07 0.000127566
0.00059014 -3.84573e-05 1.01557e-06
-3.84573e-05 -2.81543e-05 1.47441e-07
1.01557e-06 1.47441e-07 -0.000143151
0.000527451 -7.90864e-05 4.92967e-06
-7.90864e-05 8.61727e-06 1.17258e-06
4.92967e-06 1.17258e-06 -0.000157297
0.000649486 -0.000155582 -1.4141e-05
-0.000155582 -6.07141e-05 4.78806e-06
-1.4141e-05 4.78806e-06 -0.000169344
0.000626028 2.28176e-06 -3.28351e-08
2.28176e-06 -1.00207e-05 1.82791e-07
-3.28351e-08 1.82791e-07 -9.11139e-05
0.000806225 6.91641e-05 -2.10422e-06
6.91641e-05 0.000105621 -2.6316e-06
-2.10422e-06 -2.6316e-06 -4.22336e-06
0.00201207 0.000163609 -1.24475e-06
0.000163609 0.000165562 -2.66479e-07
-1.24475e-06 -2.66479e-07 9.16741e-05
0.00164998 0.000211348 2.65324e-07
0.000211348 4.45317e-05 2.09493e-06
2.65324e-07 2.09493e-06 -6.85851e-05
0.00135441 0.00011492 -3.25943e-06
0.00011492 0.000392618 -1.21912e-06
-3.25943e-06 -1.21912e-06 0.00025503
0.000993864 0.000157047 -9.68429e-07
0.000157047 0.000203206 -5.10113e-06
-9.68429e-07 -5.10113e-06 1.48421e-05
0.00163508 0.000256383 1.50354e-06
0.000256383 0.000128158 4.8195e-07
1.50354e-06 4.8195e-07 -3.65826e-05
0.00190871 0.000262945 -8.30564e-07
0.000262945 0.000508295 -5.59237e-07
-8.30564e-07 -5.59237e-07 0.000285475
0.00076257 1.3847e-05 7.32469e-07
1.3847e-05 7.12824e-05 -6.49652e-07
7.32469e-07 -6.49652e-07 -1.47469e-05
0.00186001 0.00012593 -4.71316e-07
0.00012593 3.48069e-05 -1.22857e-07
-4.71316e-07 -1.22857e-07 -1.28527e-05
0.000951473 0.000107977 4.53654e-07
0.000107977 0.000201284 1.62306e-06
4.53654e-07 1.62306e-06 6.94379e-05
0.00080669 0.000150493 4.76192e-07
0.000150493 7.21695e-05 -6.02472e-08
4.76192e-07 -6.02472e-08 -0.00012191
0.00206786 0.000203052 2.47598e-06
0.000203052 0.000165001 -1.59513e-07
2.47598e-06 -1.59513e-07 8.68694e-05
0.0017102 0.00028191 -4.46608e-07
0.00028191 7.39673e-05 -1.19739e-06
-4.46608e-07 -1.19739e-06 -7.68175e-05
0.00206557 0.000296516 1.02083e-06
0.000296516 0.000508076 1.08597e-06
1.02083e-06 1.08597e-06 0.000283855
0.00112438 4.61472e-05 -2.59363e-06
4.61472e-05 0.00028708 1.29919e-06
-2.59363e-06 1.29919e-06 0.000178011
0.00226108 0.000142711 -1.86156e-05
0.000142711 0.000270282 -2.34292e-06
-1.86156e-05 -2.34292e-06 0.000242942
0.0021782 0.000223637 -3.83475e-06
0.000223637 0.000855877 -4.48306e-07
-3.83475e-06 -4.48306e-07 0.000697134
0.00262022 0.000300737 -5.99462e-06
0.000300737 0.000992589 1.64858e-06
-5.99462e-06 1.64858e-06 0.000779473
0.0018244 0.000288765 -6.20105e-06
0.000288765 4.05682e-05 -5.15545e-06
-6.20105e-06 -5.15545e-06 -5.62567e-05
0.0014411 0.000276548 -7.09673e-06
0.000276548 9.83465e-05 3.12911e-08
-7.09673e-06 3.12911e-08 -0.000100595
0.000278678 0.000145096 1.05377e-05
0.000145096 -0.00053312 -2.24686e-06
1.05377e-05 -2.24686e-06 -0.000715119
0.000761115 1.50067e-06 1.66972e-07
1.50067e-06 6.36539e-05 1.24406e-07
1.66972e-07 1.24406e-07 -1.30676e-05
0.000827144 -1.78865e-05 -3.19998e-07
-1.78865e-05 0.000107028 1.85026e-07
-3.19998e-07 1.85026e-07 2.48369e-05
0.0010187 -4.48462e-06 2.7269e-08
-4.48462e-06 0.000202936 -1.2014e-06
2.7269e-08 -1.2014e-06 0.000116447
0.000737183 -5.04478e-05 -2.78537e-07
-5.04478e-05 3.61821e-05 -9.32676e-07
-2.78537e-07 -9.32676e-07 -2.77787e-05
0.000702711 -4.83418e-05 -1.23433e-06
-4.83418e-05 2.50986e-05 4.51055e-07
-1.23433e-06 4.51055e-07 -4.96718e-05
0.000871385 7.47874e-05 -6.86967e-07
7.47874e-05 0.000129522 7.4363e-07
-6.86967e-07 7.4363e-07 4.4599e-05
0.000677426 -4.85127e-05 -3.06746e-07
-4.85127e-05 1.57315e-05 4.11977e-07
-3.06746e-07 4.11977e-07 -6.54702e-05
0.00074337 -2.53186e-05 -3.5513e-08
-2.53186e-05 3.94356e-05 -6.03573e-09
-3.5513e-08 -6.03573e-09 -2.57255e-05
0.000720241 1.40815e-05 -1.40057e-08
1.40815e-05 2.75855e-05 -1.69964e-07
-1.40057e-08 -1.69964e-07 -4.78777e-05
0.000793901 -2.50322e-05 1.05642e-07
-2.50322e-05 6.92672e-05 -4.49777e-07
1.05642e-07 -4.49777e-07 -1.08615e-05
0.000844232 -9.61489e-06 1.05862e-07
-9.61489e-06 0.000102017 -2.422e-08
1.05862e-07 -2.422e-08 2.20965e-05
0.000846042 -3.73854e-05 7.8136e-08
-3.73854e-05 0.000101455 -7.19442e-09
7.8136e-08 -7.19442e-09 2.09047e-05
0.000841979 -2.85573e-05 -5.16176e-08
-2.85573e-05 8.83823e-05 -1.16847e-06
-5.16176e-08 -1.16847e-06 9.61912e-06
0.000827873 8.46248e-07 2.12226e-07
8.46248e-07 8.35267e-05 -1.36545e-06
2.12226e-07 -1.36545e-06 2.66638e-06
0.000839702 2.77329e-05 5.14594e-07
2.77329e-05 9.16009e-05 -3.54732e-07
5.14594e-07 -3.54732e-07 1.37781e-05
0.000764907 2.83236e-05 2.99035e-07
2.83236e-05 5.83762e-05 1.59035e-07
2.99035e-07 1.59035e-07 -2.67646e-05
0.000639529 -1.30129e-05 3.44536e-09
-1.30129e-05 -2.82512e-05 1.15284e-06
3.44536e-09 1.15284e-06 -9.07646e-05
0.000897343 -7.85643e-06 3.07831e-07
-7.85643e-06 0.000146381 -7.49508e-07
3.07831e-07 -7.49508e-07 5.95711e-05
0.000614514 1.47635e-06 -6.35401e-07
1.47635e-06 -3.72869e-05 1.13877e-06
-6.35401e-07 1.13877e-06 -0.000102519
0.000701835 1.01918e-05 -1.73818e-07
1.01918e-05 -8.11915e-07 1.50341e-06
-1.73818e-07 1.50341e-06 -4.06452e-05
0.000703435 6.48511e-06 1.35241e-07
6.48511e-06 -7.11741e-07 1.16631e-08
1.35241e-07 1.16631e-08 -4.0004e-05
0.000664052 1.16593e-06 1.35377e-07
1.16593e-06 -4.12519e-05 3.42622e-06
1.35377e-07 3.42622e-06 -4.94789e-05
0.00071677 -4.62568e-06 -2.5458e-07
-4.62568e-06 4.70746e-06 -1.61829e-06
-2.5458e-07 -1.61829e-06 -3.39918e-05
0.000994787 -5.96399e-06 -1.60461e-06
-5.96399e-06 0.000146595 -1.4943e-06
-1.60461e-06 -1.4943e-06 0.000140493
0.00220793 -1.01652e-05 6.83701e-06
-1.01652e-05 0.000838109 4.66748e-06
6.83701e-06 4.66748e-06 0.000857371
0.00134225 -1.39073e-05 -2.99381e-06
-1.39073e-05 0.000345383 -4.92517e-06
-2.99381e-06 -4.92517e-06 0.000341093
0.000894228 -1.41713e-05 2.0884e-06
-1.41713e-05 9.42682e-05 2.86434e-06
2.0884e-06 2.86434e-06 0.000106528
0.00083733 -2.00999e-05 -8.9285e-07
-2.00999e-05 6.52571e-05 -1.80375e-06
-8.9285e-07 -1.80375e-06 7.7325e-05
0.000706123 1.21169e-05 -1.22579e-07
1.21169e-05 2.39266e-06 -1.88148e-06
-1.22579e-07 -1.88148e-06 -3.27008e-05
0.000722446 4.11874e-06 1.57681e-07
4.11874e-06 1.1273e-05 3.87172e-09
1.57681e-07 3.87172e-09 -2.59761e-05
0.000670289 1.88705e-05 3.33996e-07
1.88705e-05 -3.24011e-05 -3.56263e-06
3.33996e-07 -3.56263e-06 -3.98865e-05
0.000988717 2.93206e-05 -4.99786e-07
2.93206e-05 0.000152494 3.26929e-08
-4.99786e-07 3.26929e-08 0.000144148
0.00218354 4.07136e-05 1.6827e-05
4.07136e-05 0.000835625 -4.30338e-06
1.6827e-05 -4.30338e-06 0.000852391
0.000665397 3.26203e-05 -7.10096e-07
3.26203e-05 -2.51958e-05 3.96254e-06
-7.10096e-07 3.96254e-06 -3.84306e-05
0.00228072 5.26683e-05 -2.3927e-06
5.26683e-05 0.000897662 -1.23991e-07
-2.3927e-06 -1.23991e-07 0.000911795
0.00242418 6.43186e-05 -2.84167e-05
6.43186e-05 0.000986635 3.97854e-06
-2.84167e-05 3.97854e-06 0.000997805
0.00171512 0.000126907 -1.50816e-06
0.000126907 1.03823e-05 -9.55397e-08
-1.50816e-06 -9.55397e-08 -6.59126e-05
0.00182074 6.43024e-05 1.14383e-06
6.43024e-05 8.49802e-05 -1.07637e-06
1.14383e-06 -1.07637e-06 7.64261e-06
0.00178744 1.70819e-06 -2.58132e-07
1.70819e-06 0.000108426 -3.12866e-07
-2.58132e-07 -3.12866e-07 1.44157e-05
0.0017747 1.17393e-05 3.8317e-07
1.17393e-05 5.3791e-05 2.55993e-07
3.8317e-07 2.55993e-07 -2.50823e-05
0.00183198 8.54472e-05 -5.79427e-07
8.54472e-05 5.55696e-05 -2.13623e-07
-5.79427e-07 -2.13623e-07 -4.09719e-06
0.00181909 5.84456e-05 1.97161e-06
5.84456e-05 2.90876e-05 1.01221e-06
1.97161e-06 1.01221e-06 6.57036e-06
0.00171103 1.59538e-05 -2.3345e-07
1.59538e-05 -2.36555e-05 3.16275e-07
-2.3345e-07 3.16275e-07 -6.71166e-05
0.00304128 0.000111396 1.58805e-05
0.000111396 0.000383392 -9.63391e-08
1.58805e-05 -9.63391e-08 0.00034398
0.00179067 3.84832e-05 -1.70376e-05
3.84832e-05 8.6637e-05 -3.62005e-06
-1.70376e-05 -3.62005e-06 8.50481e-05
0.000747115 4.88579e-05 -5.80628e-07
4.88579e-05 4.70876e-05 -1.21881e-06
-5.80628e-07 -1.21881e-06 -1.15653e-05
0.00192024 -6.00287e-05 1.65765e-06
-6.00287e-05 0.000141357 1.88372e-07
1.65765e-06 1.88372e-07 6.33589e-05
0.00192081 -0.000123402 1.45445e-06
-0.000123402 0.000153307 -7.83725e-08
1.45445e-06 -7.83725e-08 8.60576e-05
0.00148487 -0.000139875 9.76849e-07
-0.000139875 -0.000104747 6.90362e-07
9.76849e-07 6.90362e-07 -0.000179396
0.000793104 -0.000148738 2.35407e-06
-0.000148738 6.82751e-05 5.44059e-06
2.35407e-06 5.44059e-06 -8.73576e-05
0.0013137 -0.000224493 2.04213e-06
-0.000224493 0.000213889 5.25672e-06
2.04213e-06 5.25672e-06 -2.5211e-05
0.00119655 -0.000236859 -1.1649e-06
-0.000236859 -7.91938e-05 -4.11491e-06
-1.1649e-06 -4.11491e-06 -0.000254141
0.00152111 -0.000236772 -4.98954e-06
-0.000236772 -4.53205e-05 -2.25472e-06
-4.98954e-06 -2.25472e-06 -0.000153382
0.00131548 -0.000163443 9.59706e-06
-0.000163443 0.00027961 -3.35843e-06
9.59706e-06 -3.35843e-06 0.00015482
0.000521602 -0.000123491 5.4362e-06
-0.000123491 -7.02613e-05 -9.40092e-06
5.4362e-06 -9.40092e-06 -0.00017874
0.00076683 -8.89175e-05 3.45526e-08
-8.89175e-05 7.67602e-05 -1.70671e-06
3.45526e-08 -1.70671e-06 -4.68394e-05
0.000718542 -3.23063e-08 -1.22404e-06
-3.23063e-08 1.05951e-05 2.07901e-06
-1.22404e-06 2.07901e-06 -2.95165e-05
0.00085286 -1.5695e-05 2.15588e-09
-1.5695e-05 0.000122205 -3.076e-07
2.15588e-09 -3.076e-07 1.6149e-05
0.00104119 -5.58245e-05 -1.39213e-07
-5.58245e-05 0.000222531 7.07214e-07
-1.39213e-07 7.07214e-07 0.000146945
0.000777244 -2.00977e-05 -1.16332e-06
-2.00977e-05 8.2601e-05 9.89062e-07
-1.16332e-06 9.89062e-07 -1.46831e-05
0.000558923 -1.43663e-05 -5.9315e-07
-1.43663e-05 -6.33659e-05 1.43915e-06
-5.9315e-07 1.43915e-06 -0.000125398
0.00190343 -7.99346e-05 -9.50705e-07
-7.99346e-05 7.59855e-05 -1.95611e-07
-9.50705e-07 -1.95611e-07 2.1154e-05
0.000635064 2.55798e-05 7.34842e-08
2.55798e-05 -1.10376e-05 -8.50979e-07
7.34842e-08 -8.50979e-07 -7.58775e-05
0.000759407 -5.11349e-05 -1.4655e-07
-5.11349e-05 5.97462e-05 1.36221e-07
-1.4655e-07 1.36221e-07 -1.13574e-05
0.000825781 -2.73353e-05 -5.75964e-07
-2.73353e-05 0.000111702 7.45453e-07
-5.75964e-07 7.45453e-07 2.25805e-05
0.00177634 -0.000124053 7.19516e-07
-0.000124053 1.97991e-05 -4.4296e-07
7.19516e-07 -4.4296e-07 -3.4246e-05
0.00183671 -0.000237272 -1.12727e-06
-0.000237272 3.1959e-05 -3.176e-07
-1.12727e-06 -3.176e-07 -4.0751e-05
0.000903032 -0.000139103 2.34516e-06
-0.000139103 7.83781e-05 -9.51116e-08
2.34516e-06 -9.51116e-08 -7.35062e-05
0.00135179 -0.000257911 2.48197e-06
-0.000257911 0.000178459 -1.90055e-07
2.48197e-06 -1.90055e-07 -6.77033e-05
0.00171792 -0.00029117 1.31273e-07
-0.00029117 9.20573e-05 4.80179e-07
1.31273e-07 4.80179e-07 -3.87379e-05
0.000683329 -7.36879e-06 -2.41463e-07
-7.36879e-06 3.50099e-05 1.89389e-08
-2.41463e-07 1.89389e-08 -6.40537e-05
0.000912635 -5.18496e-05 -2.97099e-07
-5.18496e-05 0.000157516 1.49085e-07
-2.97099e-07 1.49085e-07 5.42945e-05
0.000575655 -0.000151008 -5.96018e-06
-0.000151008 -8.58732e-05 1.23042e-06
-5.96018e-06 1.23042e-06 -0.000209112
0.000812679 -8.06855e-05 6.40679e-07
-8.06855e-05 0.000151364 -2.52739e-07
6.40679e-07 -2.52739e-07 -3.25946e-06
0.00072202 -6.15577e-05 -4.85829e-07
-6.15577e-05 4.50253e-05 2.57181e-07
-4.85829e-07 2.57181e-07 -7.11486e-05
0.00212569 -0.000148736 -6.0207e-06
-0.000148736 0.000155049 5.53787e-07
-6.0207e-06 5.53787e-07 0.000119918
0.00190047 -0.000151051 -2.03374e-06
-0.000151051 5.98151e-05 1.46881e-06
-2.03374e-06 1.46881e-06 1.56119e-05
0.00214541 -0.000327188 -1.07315e-06
-0.000327188 0.00020021 -7.35706e-07
-1.07315e-06 -7.35706e-07 0.000101653
0.00245812 -0.000355172 -1.3325e-05
-0.000355172 0.000639365 1.4984e-06
-1.3325e-05 1.4984e-06 0.000455083
0.000890478 -0.000140701 -6.93848e-06
-0.000140701 0.000110456 -2.30844e-06
-6.93848e-06 -2.30844e-06 -7.55163e-05
0.000536743 1.69842e-05 7.01643e-07
1.69842e-05 -5.51987e-05 -1.64446e-06
7.01643e-07 -1.64446e-06 -0.000140399
0.000547744 4.9653e-05 1.57111e-07
4.9653e-05 -4.65732e-05 -9.85948e-07
1.57111e-07 -9.85948e-07 -0.000139146
0.00083853 1.22777e-05 7.90709e-07
1.22777e-05 0.000125735 -6.79709e-08
7.90709e-07 -6.79709e-08 2.58563e-05
0.000912438 -8.92843e-05 1.64288e-06
-8.92843e-05 0.000166983 -2.21694e-07
1.64288e-06 -2.21694e-07 5.72305e-05
0.000679311 -2.83722e-05 7.10293e-07
-2.83722e-05 2.04303e-05 4.74389e-07
7.10293e-07 4.74389e-07 -8.18359e-05
0.000603337 -3.04768e-05 2.19224e-06
-3.04768e-05 1.71809e-05 -2.19507e-07
2.19224e-06 -2.19507e-07 -0.000123723
0.000812994 -0.000139938 8.00617e-06
-0.000139938 0.000172629 1.27813e-06
8.00617e-06 1.27813e-06 -3.12275e-05
0.000735253 5.07204e-05 9.29228e-07
5.07204e-05 6.38995e-05 -1.93721e-06
9.29228e-07 -1.93721e-06 -2.79233e-05
0.000582492 5.85101e-05 1.4217e-06
5.85101e-05 -8.43585e-06 1.19339e-07
1.4217e-06 1.19339e-07 -0.000130866
0.00189046 0.000121329 2.18001e-06
0.000121329 4.98999e-05 -4.32756e-07
2.18001e-06 -4.32756e-07 4.37296e-06
0.00169179 0.000190607 4.17696e-06
0.000190607 -3.91715e-05 -2.27785e-07
4.17696e-06 -2.27785e-07 -0.000117245
0.00198802 0.000293015 5.17886e-06
0.000293015 0.000221817 9.01787e-07
5.17886e-06 9.01787e-07 7.35924e-05
0.000524099 0.000131298 2.02006e-06
0.000131298 -8.47705e-05 -1.03093e-06
2.02006e-06 -1.03093e-06 -0.000278103
0.00221562 0.000309539 3.63212e-06
0.000309539 0.000599704 1.11273e-06
3.63212e-06 1.11273e-06 0.00037488
0.00103435 3.7318e-05 -2.25833e-07
3.7318e-05 0.000232742 4.81432e-07
-2.25833e-07 4.81432e-07 0.000130715
0.00194312 0.000128621 -1.65972e-06
0.000128621 9.75802e-05 -1.20322e-07
-1.65972e-06 -1.20322e-07 7.62686e-05
0.00134001 0.000162673 -1.11536e-06
0.000162673 0.00039681 -4.6674e-07
-1.11536e-06 -4.6674e-07 0.000248438
0.00173452 0.000236232 -8.51026e-07
0.000236232 0.000534621 1.45086e-06
-8.51026e-07 1.45086e-06 0.000318731
0.00195655 0.000286262 5.27727e-07
0.000286262 0.000112046 -1.63035e-06
5.27727e-07 -1.63035e-06 1.74971e-05
0.00151082 0.000285712 -9.30645e-07
0.000285712 0.000133145 2.0137e-06
-9.30645e-07 2.0137e-06 -7.10892e-05
0.00129872 0.000179375 1.78695e-05
0.000179375 -0.00023179 1.07351e-06
1.78695e-05 1.07351e-06 -0.000460937
0.00113346 7.82001e-05 -2.84628e-06
7.82001e-05 0.000287407 -1.61591e-06
-2.84628e-06 -1.61591e-06 0.000170649
0.00243769 0.000207067 -2.56815e-05
0.000207067 0.000381154 -1.22763e-05
-2.56815e-05 -1.22763e-05 0.000382754
0.00134206 0.00019137 -5.96736e-06
0.00019137 0.000394253 -1.77826e-06
-5.96736e-06 -1.77826e-06 0.000230745
0.00127676 0.000231099 -6.00746e-06
0.000231099 0.000204342 -1.23388e-07
-6.00746e-06 -1.23388e-07 -2.30639e-05
0.000539866 0.000299729 -9.30349e-06
0.000299729 -0.000517744 -3.62893e-06
-9.30349e-06 -3.62893e-06 -0.000684142
0.00839322 0.000118613 -0.00010215
0.000118613 0.00249935 -4.25801e-05
-0.00010215 -4.25801e-05 0.00157743
0.00406666 0.000366644 0.000102015
0.000366644 0.000606296 -4.32264e-06
0.000102015 -4.32264e-06 -6.50898e-05
0.00060988 0.000275301 1.19948e-05
0.000275301 -0.000369577 1.7467e-05
1.19948e-05 1.7467e-05 -0.000492631
-0.00380387 -0.000366799 0.000107768
-0.000366799 -0.00140491 -1.13029e-05
0.000107768 -1.13029e-05 -0.00180285
0.00404802 -0.00093759 -1.95857e-05
-0.00093759 0.000544954 -7.49848e-06
-1.95857e-05 -7.49848e-06 0.00200409
0.000796537 -1.02482e-05 6.19e-07
-1.02482e-05 9.06092e-05 -1.09181e-07
6.19e-07 -1.09181e-07 8.27576e-06
0.000918673 -2.0476e-05 9.91893e-07
-2.0476e-05 0.0001534 -3.13635e-07
9.91893e-07 -3.13635e-07 6.72995e-05
0.000911862 3.1629e-05 -9.31107e-07
3.1629e-05 0.000147317 -2.37848e-06
-9.31107e-07 -2.37848e-06 6.09351e-05
0.000730275 -5.4256e-05 7.88992e-08
-5.4256e-05 3.71669e-05 -8.6175e-07
7.88992e-08 -8.6175e-07 -3.13239e-05
0.000692045 4.86591e-05 -1.02466e-06
4.86591e-05 1.38358e-05 -1.51997e-07
-1.02466e-06 -1.51997e-07 -6.34408e-05
0.000839279 -3.95e-05 -1.67162e-07
-3.95e-05 9.96269e-05 2.23961e-07
-1.67162e-07 2.23961e-07 1.95288e-05
0.000903698 -1.31427e-05 -1.08643e-06
-1.31427e-05 0.000131219 8.86418e-07
-1.08643e-06 8.86418e-07 5.19843e-05
0.000811069 -3.6149e-05 -9.92489e-08
-3.6149e-05 7.99719e-05 -9.44124e-08
-9.92489e-08 -9.44124e-08 -1.84738e-06
0.000791224 4.64845e-05 -8.15338e-07
4.64845e-05 7.15961e-05 -2.83904e-07
-8.15338e-07 -2.83904e-07 -1.18892e-05
0.000680739 -5.53545e-06 -5.17535e-08
-5.53545e-06 -3.98345e-07 5.65507e-07
-5.17535e-08 5.65507e-07 -6.48082e-05
0.000773397 2.26179e-05 -1.92034e-07
2.26179e-05 6.16071e-05 -2.84511e-08
-1.92034e-07 -2.84511e-08 -2.20126e-05
0.000841378 -2.5947e-05 4.53732e-08
-2.5947e-05 8.76604e-05 5.52412e-07
4.53732e-08 5.52412e-07 9.15229e-06
0.000845453 3.42822e-07 -2.67124e-07
3.42822e-07 9.27164e-05 -1.66472e-07
-2.67124e-07 -1.66472e-07 1.3046e-05
0.0008201 3.46886e-05 -3.61661e-09
3.46886e-05 7.58535e-05 -1.00958e-06
-3.61661e-09 -1.00958e-06 -3.90943e-06
0.000692094 1.28796e-06 6.64895e-07
1.28796e-06 1.47919e-06 -2.10241e-06
6.64895e-07 -2.10241e-06 -7.31233e-05
0.000871295 3.91875e-05 1.40572e-06
3.91875e-05 0.000104402 -7.62216e-08
1.40572e-06 -7.62216e-08 2.28349e-05
0.000713369 -2.65037e-06 1.11312e-06
-2.65037e-06 1.75816e-05 -2.73922e-07
1.11312e-06 -2.73922e-07 -6.32904e-05
0.000625121 -4.48496e-05 -1.20834e-06
-4.48496e-05 -3.05376e-05 1.15536e-06
-1.20834e-06 1.15536e-06 -9.72817e-05
0.000852267 1.40089e-05 -5.02189e-07
1.40089e-05 0.000105142 -2.88545e-07
-5.02189e-07 -2.88545e-07 2.25353e-05
0.000882596 5.58607e-05 1.32075e-07
5.58607e-05 0.00012231 -1.44215e-06
1.32075e-07 -1.44215e-06 3.86488e-05
0.000739303 3.07401e-06 -7.14867e-07
3.07401e-06 5.25629e-05 -3.26228e-07
-7.14867e-07 -3.26228e-07 -2.74333e-05
0.000845634 5.66188e-06 7.66745e-07
5.66188e-06 0.000108068 -4.18587e-07
7.66745e-07 -4.18587e-07 2.61939e-05
0.000748897 -4.31775e-05 -1.55786e-06
-4.31775e-05 3.96115e-05 5.69553e-07
-1.55786e-06 5.69553e-07 -2.3761e-05
0.000621578 4.22252e-06 1.29191e-07
4.22252e-06 -3.06961e-05 5.84887e-07
1.29191e-07 5.84887e-07 -9.78689e-05
0.000713237 1.05918e-05 -4.4498e-07
1.05918e-05 4.44519e-06 1.56886e-06
-4.4498e-07 1.56886e-06 -3.55155e-05
0.000701331 4.28904e-07 8.45767e-08
4.28904e-07 -1.42888e-06 -1.10494e-08
8.45767e-08 -1.10494e-08 -4.10617e-05
0.000685623 7.14974e-06 -3.79377e-07
7.14974e-06 -2.76305e-05 4.9273e-06
-3.79377e-07 4.9273e-06 -3.64675e-05
0.000702461 4.18007e-07 1.52809e-07
4.18007e-07 -1.38223e-06 -1.5364e-06
1.52809e-07 -1.5364e-06 -4.05551e-05
0.000670118 1.41042e-06 2.47474e-07
1.41042e-06 -3.7803e-05 -5.81654e-09
2.47474e-07 -5.81654e-09 -4.60641e-05
0.00221765 -1.04945e-06 1.79234e-07
-1.04945e-06 0.000843042 4.74006e-06
1.79234e-07 4.74006e-06 0.000862249
0.000694726 -4.44246e-06 -4.85242e-07
-4.44246e-06 -2.34323e-05 -4.95182e-06
-4.85242e-07 -4.95182e-06 -3.15329e-05
0.00155026 -7.98976e-06 -3.41398e-07
-7.98976e-06 0.000464496 4.13862e-08
-3.41398e-07 4.13862e-08 0.000480243
0.000844313 -1.30151e-05 -3.64002e-07
-1.30151e-05 6.52695e-05 -1.81085e-06
-3.64002e-07 -1.81085e-06 7.78726e-05
0.000710188 1.07357e-05 -2.52558e-07
1.07357e-05 4.615e-06 -1.81212e-06
-2.52558e-07 -1.81212e-06 -2.90047e-05
0.000715639 2.07641e-06 1.48433e-07
2.07641e-06 7.51611e-06 3.17256e-08
1.48433e-07 3.17256e-08 -2.7606e-05
0.00067852 1.27347e-05 1.11591e-07
1.27347e-05 -3.11146e-05 -3.48351e-06
1.11591e-07 -3.48351e-06 -3.67893e-05
0.000721562 -3.15989e-06 -1.12995e-06
-3.15989e-06 1.06394e-05 1.96984e-06
-1.12995e-06 1.96984e-06 -2.66592e-05
0.000973432 2.16192e-05 -2.05106e-07
2.16192e-05 0.000139194 -7.26694e-07
-2.05106e-07 -7.26694e-07 0.000133514
0.00212322 2.99788e-05 1.27581e-05
2.99788e-05 0.000796488 -4.4252e-06
1.27581e-05 -4.4252e-06 0.000815092
0.000668453 2.62827e-05 -5.25109e-07
2.62827e-05 -2.8841e-05 3.78085e-06
-5.25109e-07 3.78085e-06 -3.92444e-05
0.00224847 4.12025e-05 -7.55766e-06
4.12025e-05 0.00087391 1.19502e-06
-7.55766e-06 1.19502e-06 0.000890151
0.00231198 5.35849e-05 -2.25419e-05
5.35849e-05 0.000916158 4.18868e-06
-2.25419e-05 4.18868e-06 0.00092994
0.0017373 8.33574e-05 -6.57727e-07
8.33574e-05 8.71169e-06 -6.03226e-07
-6.57727e-07 -6.03226e-07 -5.24054e-05
0.00173826 1.30901e-05 1.05155e-06
1.30901e-05 3.22445e-05 -3.81868e-07
1.05155e-06 -3.81868e-07 -4.67402e-05
0.00176071 5.92499e-05 6.39309e-06
5.92499e-05 -4.91433e-06 2.39442e-07
6.39309e-06 2.39442e-07 -3.30208e-05
0.00209402 8.2735e-05 1.82616e-05
8.2735e-05 -4.84172e-05 3.3014e-06
1.82616e-05 3.3014e-06 -0.000109979
0.00176715 1.30378e-05 -1.83458e-06
1.30378e-05 5.19058e-06 -1.60878e-07
-1.83458e-06 -1.60878e-07 -3.81575e-05
0.0018515 4.28899e-05 3.07285e-06
4.28899e-05 0.000126297 1.04195e-06
3.07285e-06 1.04195e-06 0.000121443
0.00257492 -1.89467e-06 -1.45605e-05
-1.89467e-06 0.000517552 -5.32376e-07
-1.45605e-05 -5.32376e-07 0.00047831
0.00297547 1.40053e-05 0.000138514
1.40053e-05 0.000154821 -9.70208e-06
0.000138514 -9.70208e-06 -0.000130078
0.00204148 -3.01692e-06 -1.33747e-05
-3.01692e-06 5.03012e-05 -5.32255e-06
-1.33747e-05 -5.32255e-06 -1.04786e-05
0.000748846 5.00394e-05 -5.99908e-07
5.00394e-05 5.03804e-05 -1.15284e-06
-5.99908e-07 -1.15284e-06 -9.08419e-06
0.000752691 -1.0756e-05 6.66179e-07
-1.0756e-05 5.4507e-05 -5.84333e-08
6.66179e-07 -5.84333e-08 -7.44523e-06
0.000720134 -6.35304e-05 3.76211e-08
-6.35304e-05 4.31028e-05 -5.54131e-07
3.76211e-08 -5.54131e-07 -3.30346e-05
0.000744418 -2.38216e-05 -1.16172e-06
-2.38216e-05 6.59631e-05 -2.01585e-07
-1.16172e-06 -2.01585e-07 -1.62053e-05
0.0019074 -8.68373e-05 1.48874e-06
-8.68373e-05 7.0527e-05 -4.5912e-08
1.48874e-06 -4.5912e-08 1.88476e-05
0.00178628 -0.000133572 -1.81551e-06
-0.000133572 1.4725e-05 2.73958e-07
-1.81551e-06 2.73958e-07 -3.93136e-05
0.00182275 -0.000234982 -5.82511e-06
-0.000234982 3.68189e-05 1.0762e-06
-5.82511e-06 1.0762e-06 -4.17522e-05
0.00117107 -0.000187759 3.55771e-06
-0.000187759 0.000217142 3.00907e-06
3.55771e-06 3.00907e-06 6.70597e-05
-3.33871e-05 -0.000160059 5.12406e-06
-0.000160059 -0.000543814 -1.02206e-06
5.12406e-06 -1.02206e-06 -0.000786157
0.00187133 -0.000306734 7.09736e-07
-0.000306734 0.000182297 -2.63353e-06
7.09736e-07 -2.63353e-06 4.71014e-05
0.000533644 -0.000136395 -6.51821e-06
-0.000136395 -9.6959e-05 4.93377e-07
-6.51821e-06 4.93377e-07 -0.00023246
0.00113968 -8.26454e-05 -9.52544e-07
-8.26454e-05 0.000315545 -1.7484e-06
-9.52544e-07 -1.7484e-06 0.000173011
0.000804367 -8.59252e-05 -2.04954e-06
-8.59252e-05 9.04645e-05 9.23966e-07
-2.04954e-06 9.23966e-07 -2.60727e-05
0.000768028 -2.46722e-05 -9.94376e-07
-2.46722e-05 6.05138e-05 1.61892e-06
-9.94376e-07 1.61892e-06 -7.91699e-06
0.00077558 -6.41295e-05 -8.71641e-07
-6.41295e-05 8.73477e-05 2.10153e-07
-8.71641e-07 2.10153e-07 -2.1606e-05
0.000807452 -1.21237e-05 -1.18845e-06
-1.21237e-05 0.000102129 1.0038e-06
-1.18845e-06 1.0038e-06 5.40443e-06
0.000745849 1.66709e-07 1.50874e-07
1.66709e-07 5.41571e-05 7.27251e-07
1.50874e-07 7.27251e-07 -1.13787e-05
0.000685108 1.78796e-05 -5.13742e-07
1.78796e-05 3.47984e-05 2.08462e-06
-5.13742e-07 2.08462e-06 -5.7434e-05
0.00199031 -0.000130463 6.6663e-07
-0.000130463 0.000109693 3.87295e-07
6.6663e-07 3.87295e-07 7.13467e-05
0.000748349 6.1958e-06 7.08869e-07
6.1958e-06 6.6784e-05 -5.50647e-07
7.08869e-07 -5.50647e-07 -1.83913e-05
0.000687373 1.31942e-05 6.84617e-07
1.31942e-05 3.42462e-05 -1.43093e-07
6.84617e-07 -1.43093e-07 -5.94632e-05
0.00074383 6.30163e-05 -1.40478e-07
6.30163e-05 7.67117e-05 1.21986e-06
-1.40478e-07 1.21986e-06 -2.2955e-05
0.00192443 -0.000153839 -2.52297e-06
-0.000153839 5.63318e-05 5.83886e-07
-2.52297e-06 5.83886e-07 8.80422e-06
0.00194565 -0.000310501 1.11223e-06
-0.000310501 0.000100557 -6.08722e-07
1.11223e-06 -6.08722e-07 7.22072e-06
0.00106642 -0.000190514 -9.44981e-07
-0.000190514 0.000191045 -1.97431e-07
-9.44981e-07 -1.97431e-07 2.46886e-06
0.00239061 -0.000352925 -1.93147e-06
-0.000352925 0.000599888 9.08687e-07
-1.93147e-06 9.08687e-07 0.000412331
0.000957952 -3.71229e-05 -4.03297e-07
-3.71229e-05 0.000187317 7.05455e-08
-4.03297e-07 7.05455e-08 8.07946e-05
0.000716091 -4.73249e-05 -4.27443e-07
-4.73249e-05 4.50566e-05 9.15373e-07
-4.27443e-07 9.15373e-07 -6.20042e-05
0.000863309 -0.000145376 3.37657e-06
-0.000145376 0.000192511 -9.0203e-07
3.37657e-06 -9.0203e-07 -5.56454e-06
0.00101509 -8.75334e-05 9.1896e-07
-8.75334e-05 0.000247366 -6.05412e-07
9.1896e-07 -6.05412e-07 9.53366e-05
0.00226651 -0.000110308 -1.04152e-05
-0.000110308 0.000236277 4.59636e-06
-1.04152e-05 4.59636e-06 0.000189798
0.00219858 -0.000267518 -8.14927e-06
-0.000267518 0.000140954 -3.51587e-08
-8.14927e-06 -3.51587e-08 0.000142076
0.00235049 -0.00036304 -7.36274e-06
-0.00036304 0.000447002 -3.90213e-06
-7.36274e-06 -3.90213e-06 0.000299749
0.00146685 -0.000277132 -2.20487e-06
-0.000277132 0.000364483 6.38868e-07
-2.20487e-06 6.38868e-07 0.000174404
0.000695989 2.42876e-05 -4.92394e-07
2.42876e-05 5.15095e-05 -1.25293e-06
-4.92394e-07 -1.25293e-06 -5.60318e-05
0.000707501 -5.39275e-05 7.02481e-07
-5.39275e-05 5.72198e-05 -1.76469e-06
7.02481e-07 -1.76469e-06 -5.39528e-05
0.000712601 -4.49648e-05 7.75916e-07
-4.49648e-05 6.10806e-05 -2.4691e-07
7.75916e-07 -2.4691e-07 -5.29949e-05
0.000626122 -1.96518e-05 3.95176e-07
-1.96518e-05 9.31012e-05 6.3427e-07
3.95176e-07 6.3427e-07 -0.00013341
0.000272504 -0.000141299 2.4002e-05
-0.000141299 -0.00187632 1.11406e-06
2.4002e-05 1.11406e-06 -0.00238739
0.00101547 2.24178e-05 1.28909e-06
2.24178e-05 0.000219455 -1.42482e-06
1.28909e-06 -1.42482e-06 0.000123914
0.000488652 0.000101444 3.24439e-06
0.000101444 -6.75224e-05 1.50679e-06
3.24439e-06 1.50679e-06 -0.000205618
0.00167268 0.000118083 1.85348e-05
0.000118083 -4.95551e-05 1.7522e-06
1.85348e-05 1.7522e-06 -6.32132e-05
0.00211175 0.000285003 5.92135e-06
0.000285003 0.00019508 6.89372e-07
5.92135e-06 6.89372e-07 0.000102102
0.00144678 0.000286239 5.94633e-06
0.000286239 9.7633e-05 2.60658e-06
5.94633e-06 2.60658e-06 -0.000113054
0.000696713 0.000159998 4.89197e-06
0.000159998 -6.11573e-06 1.2592e-06
4.89197e-06 1.2592e-06 -0.000224615
0.00233382 0.000224889 2.35006e-05
0.000224889 9.57717e-05 4.628e-06
2.35006e-05 4.628e-06 -0.000194244
0.000986626 6.5196e-05 9.1682e-07
6.5196e-05 0.000213452 -6.08351e-07
9.1682e-07 -6.08351e-07 9.80766e-05
0.00229747 0.000204994 -7.29843e-06
0.000204994 0.000307867 -1.83182e-06
-7.29843e-06 -1.83182e-06 0.000317839
0.0010538 0.000170045 6.50397e-07
0.000170045 0.000241965 -3.73495e-07
6.50397e-07 -3.73495e-07 8.21868e-05
0.00115184 0.000229705 -3.52336e-07
0.000229705 0.000145225 1.45979e-07
-3.52336e-07 1.45979e-07 -8.42218e-05
0.00139455 0.000350563 -2.46999e-06
0.000350563 -9.49058e-05 -1.59771e-06
-2.46999e-06 -1.59771e-06 -0.000254253
0.0029008 -0.000140892 -6.64995e-05
-0.000140892 -0.000289432 -2.14114e-05
-6.64995e-05 -2.14114e-05 -0.00117388
0.00406226 0.000282546 3.54952e-06
0.000282546 0.000404789 -1.5477e-05
3.54952e-06 -1.5477e-05 -0.000353083
0.000241371 0.000216139 4.4021e-06
0.000216139 -0.000521147 6.41675e-06
4.4021e-06 6.41675e-06 -0.000661952
-0.000942043 -0.000281932 6.65918e-05
-0.000281932 0.000251994 2.23452e-05
6.65918e-05 2.23452e-05 -0.000387429
-0.000566359 -0.000930813 -1.63495e-05
-0.000930813 -0.00143534 -3.32553e-05
-1.63495e-05 -3.32553e-05 0.000209061
0.0012063 0.000125005 -3.68781e-06
0.000125005 0.000342945 -3.72325e-06
-3.68781e-06 -3.72325e-06 0.000227771
0.000469373 0.000194291 -1.26209e-06
0.000194291 0.00084237 -2.96287e-05
-1.26209e-06 -2.96287e-05 0.000214797
0.00121306 -0.000379559 -6.43546e-05
-0.000379559 0.00104698 -7.25047e-05
-6.43546e-05 -7.25047e-05 0.00081403
0.00257604 0.000302898 -2.41307e-05
0.000302898 0.000514591 -6.93403e-06
-2.41307e-05 -6.93403e-06 0.000528956
0.00114639 0.000114549 -1.12977e-05
0.000114549 0.000291662 -2.72142e-06
-1.12977e-05 -2.72142e-06 0.000119624
0.00114346 0.00035179 -1.80454e-05
0.00035179 6.95068e-05 -9.54202e-06
-1.80454e-05 -9.54202e-06 -0.000173846
-0.000217255 0.000266269 1.66868e-05
0.000266269 -0.000770031 5.04426e-05
1.66868e-05 5.04426e-05 -0.000805664
0.00775848 0.000133957 -4.04413e-05
0.000133957 0.00258365 -2.34034e-05
-4.04413e-05 -2.34034e-05 0.0011647
0.00382247 0.000551024 -5.73395e-06
0.000551024 0.000789928 1.25248e-05
-5.73395e-06 1.25248e-05 -0.000395982
0.000562977 -0.00075733 5.28425e-05
-0.00075733 -0.000416099 4.11863e-05
5.28425e-05 4.11863e-05 2.69026e-05
0.00160838 -0.000511251 -1.41171e-05
-0.000511251 -0.00166731 7.00997e-05
-1.41171e-05 7.00997e-05 -0.00038291
0.00083246 -2.72399e-05 1.58373e-06
-2.72399e-05 0.000110913 -5.13771e-07
1.58373e-06 -5.13771e-07 2.5472e-05
0.000904168 2.87353e-05 4.36725e-07
2.87353e-05 0.000145104 3.27333e-07
4.36725e-07 3.27333e-07 5.87303e-05
0.00115033 7.3781e-05 -2.10073e-06
7.3781e-05 0.000284391 -3.40991e-06
-2.10073e-06 -3.40991e-06 0.000215076
0.00073345 4.04046e-06 2.87773e-08
4.04046e-06 4.09463e-05 -5.49142e-08
2.87773e-08 -5.49142e-08 -3.02188e-05
0.000800407 2.22036e-05 -5.27338e-07
2.22036e-05 7.53644e-05 -3.06313e-07
-5.27338e-07 -3.06313e-07 -6.88184e-06
0.000701844 -2.91309e-05 -6.95736e-07
-2.91309e-05 1.46754e-05 1.48206e-07
-6.95736e-07 1.48206e-07 -6.36347e-05
0.000872274 1.27736e-06 -3.32543e-07
1.27736e-06 0.000107132 6.52e-07
-3.32543e-07 6.52e-07 2.8359e-05
0.00084521 -2.42965e-05 -3.07871e-07
-2.42965e-05 8.97745e-05 1.41469e-06
-3.07871e-07 1.41469e-06 1.13144e-05
0.000622293 -1.32233e-06 4.98034e-07
-1.32233e-06 -2.97444e-05 5.73848e-07
4.98034e-07 5.73848e-07 -9.81147e-05
0.000830944 2.61791e-06 -8.28999e-08
2.61791e-06 8.16069e-05 -1.09169e-07
-8.28999e-08 -1.09169e-07 2.08e-06
0.000873621 2.8826e-06 4.15961e-08
2.8826e-06 0.000107454 3.05478e-07
4.15961e-08 3.05478e-07 2.55801e-05
0.000794773 2.05019e-05 5.77826e-07
2.05019e-05 7.30486e-05 -2.66834e-07
5.77826e-07 -2.66834e-07 -1.32548e-05
0.000732338 4.17987e-06 -8.12075e-09
4.17987e-06 2.32401e-05 -3.81914e-08
-8.12075e-09 -3.81914e-08 -5.05819e-05
0.000907538 -1.25842e-06 4.19717e-07
-1.25842e-06 0.000117492 -1.13858e-06
4.19717e-07 -1.13858e-06 3.98139e-05
0.00065819 3.03643e-05 -1.33673e-06
3.03643e-05 -2.07359e-05 -5.39374e-06
-1.33673e-06 -5.39374e-06 -9.24717e-05
0.000858979 -6.36993e-05 2.03881e-07
-6.36993e-05 9.63654e-05 -6.1783e-07
2.03881e-07 -6.1783e-07 1.01987e-05
0.000856671 -5.0245e-05 -5.13937e-07
-5.0245e-05 0.000110766 -6.72921e-07
-5.13937e-07 -6.72921e-07 2.27476e-05
0.000858644 -1.38463e-05 -4.75038e-07
-1.38463e-05 0.000111661 -2.33716e-07
-4.75038e-07 -2.33716e-07 2.6597e-05
0.000884865 3.96316e-05 -5.14343e-07
3.96316e-05 0.000118541 -2.90154e-07
-5.14343e-07 -2.90154e-07 3.78515e-05
0.000842813 1.92285e-05 -6.94035e-07
1.92285e-05 0.000103794 -1.35504e-06
-6.94035e-07 -1.35504e-06 1.05962e-05
0.000803539 4.49517e-05 5.57487e-07
4.49517e-05 8.11484e-05 -9.1137e-07
5.57487e-07 -9.1137e-07 -1.28619e-07
0.000695665 2.73761e-05 4.95039e-07
2.73761e-05 6.05391e-06 -1.46943e-06
4.95039e-07 -1.46943e-06 -6.84762e-05
0.000700013 5.12938e-05 1.76556e-06
5.12938e-05 3.47154e-05 7.71651e-07
1.76556e-06 7.71651e-07 -4.95611e-05
0.000740847 3.25703e-06 -4.70964e-08
3.25703e-06 4.38403e-05 -2.38257e-07
-4.70964e-08 -2.38257e-07 -2.69093e-05
0.00076348 -7.30653e-06 -1.60689e-07
-7.30653e-06 6.27484e-05 1.19481e-08
-1.60689e-07 1.19481e-08 -1.51241e-05
0.000741696 -6.38097e-06 -1.19373e-06
-6.38097e-06 3.07417e-05 3.77044e-07
-1.19373e-06 3.77044e-07 -2.78961e-05
0.000786308 2.8676e-06 8.92757e-07
2.8676e-06 6.33574e-05 -1.47974e-07
8.92757e-07 -1.47974e-07 -1.20745e-05
0.000713701 -3.82154e-05 -2.91568e-08
-3.82154e-05 1.90801e-05 5.6334e-08
-2.91568e-08 5.6334e-08 -4.45972e-05
0.000727862 1.21541e-05 -8.57981e-07
1.21541e-05 1.11716e-05 1.59273e-06
-8.57981e-07 1.59273e-06 -2.87012e-05
0.00062774 3.50189e-06 6.28826e-07
3.50189e-06 -2.26124e-05 -5.99937e-08
6.28826e-07 -5.99937e-08 -9.29208e-05
0.000713428 8.13516e-06 1.64123e-07
8.13516e-06 4.34376e-06 -1.90821e-08
1.64123e-07 -1.90821e-08 -3.55603e-05
0.00135508 1.62199e-05 -2.90372e-06
1.62199e-05 0.000354387 4.83158e-06
-2.90372e-06 4.83158e-06 0.000348694
0.000701313 5.91593e-06 3.41556e-07
5.91593e-06 -1.50443e-06 -1.49445e-06
3.41556e-07 -1.49445e-06 -4.11091e-05
0.00101513 8.65555e-06 -1.49499e-06
8.65555e-06 0.000159307 7.3636e-07
-1.49499e-06 7.3636e-07 0.000152326
0.000900019 3.86992e-06 -3.3192e-06
3.86992e-06 9.58392e-05 4.60043e-06
-3.3192e-06 4.60043e-06 0.000107742
0.000676456 1.6409e-06 4.62588e-08
1.6409e-06 -3.41815e-05 -3.40364e-06
4.62588e-08 -3.40364e-06 -4.24842e-05
0.00222225 4.68155e-10 3.23259e-06
4.68155e-10 0.000845689 -1.17224e-09
3.23259e-06 -1.17224e-09 0.000864852
0.000910803 -3.77926e-06 -3.09185e-06
-3.77926e-06 0.000101697 -4.61234e-06
-3.09185e-06 -4.61234e-06 0.000114021
0.000755603 6.21329e-05 9.12481e-07
6.21329e-05 5.98017e-05 -4.02335e-07
9.12481e-07 -4.02335e-07 -4.8206e-06
0.000720146 8.70483e-06 -2.80077e-07
8.70483e-06 9.58466e-06 -1.81039e-06
-2.80077e-07 -1.81039e-06 -2.35807e-05
0.0007121 3.39808e-06 2.13226e-07
3.39808e-06 5.56125e-06 1.20998e-08
2.13226e-07 1.20998e-08 -2.80737e-05
0.000678434 6.4368e-06 -7.35841e-08
6.4368e-06 -3.30441e-05 -3.44544e-06
-7.35841e-08 -3.44544e-06 -3.76745e-05
0.000722233 -4.56606e-06 -6.26821e-07
-4.56606e-06 1.10065e-05 1.89897e-06
-6.26821e-07 1.89897e-06 -2.41577e-05
0.000669327 1.28185e-05 -4.12376e-09
1.28185e-05 -3.67691e-05 -7.34382e-07
-4.12376e-09 -7.34382e-07 -4.23216e-05
0.00209008 1.96061e-05 8.47527e-06
1.96061e-05 0.000773951 -4.53333e-06
8.47527e-06 -4.53333e-06 0.000793824
0.00128613 2.63571e-05 -9.8639e-07
2.63571e-05 0.000316796 2.13447e-06
-9.8639e-07 2.13447e-06 0.000312447
0.00153923 2.56104e-05 3.83141e-07
2.56104e-05 0.000466195 1.44095e-06
3.83141e-07 1.44095e-06 0.000480915
0.000965745 2.83568e-05 -1.6837e-05
2.83568e-05 0.00014651 7.33423e-06
-1.6837e-05 7.33423e-06 0.000155778
0.000964924 5.35884e-05 3.46211e-05
5.35884e-05 -0.000575091 1.21944e-05
3.46211e-05 1.21944e-05 -0.000670074
0.00181434 9.73454e-06 2.87842e-06
9.73454e-06 2.73504e-05 3.34769e-07
2.87842e-06 3.34769e-07 -1.47923e-05
0.00195828 4.46726e-05 2.04457e-05
4.46726e-05 0.000194275 3.47202e-07
2.04457e-05 3.47202e-07 0.00018333
0.000820871 3.57931e-05 1.37857e-05
3.57931e-05 -0.000695479 -4.68645e-06
1.37857e-05 -4.68645e-06 -0.00100745
0.00175805 5.51603e-06 5.28749e-06
5.51603e-06 -7.20154e-05 1.08662e-06
5.28749e-06 1.08662e-06 -0.000103641
0.0020871 -1.11364e-05 -1.80179e-06
-1.11364e-05 0.000188578 -5.24098e-07
-1.80179e-06 -5.24098e-07 0.000153931
0.00290825 -2.65646e-05 -4.69151e-05
-2.65646e-05 0.000552837 4.76313e-06
-4.69151e-05 4.76313e-06 0.000536566
0.00253585 -0.000104336 0.000143778
-0.000104336 0.000167533 -1.06236e-05
0.000143778 -1.06236e-05 -8.49825e-05
0.00777918 -0.000166139 -1.64277e-05
-0.000166139 0.00215579 1.22671e-05
-1.64277e-05 1.22671e-05 0.00111417
0.00534722 0.000845548 9.61508e-05
0.000845548 0.00263591 -3.73098e-05
9.61508e-05 -3.73098e-05 0.00281069
0.00233888 0.000828287 -8.08552e-06
0.000828287 0.00112125 1.69223e-05
-8.08552e-06 1.69223e-05 0.00214142
0.000508706 -6.38609e-05 1.63541e-06
-6.38609e-05 -7.23522e-05 -1.35285e-06
1.63541e-06 -1.35285e-06 -0.000150336
0.000751349 -8.99991e-06 8.09488e-07
-8.99991e-06 5.34111e-05 -5.64698e-08
8.09488e-07 -5.64698e-08 -7.31707e-06
0.000752227 -6.55534e-05 -1.19036e-06
-6.55534e-05 5.88676e-05 1.51406e-06
-1.19036e-06 1.51406e-06 -6.53521e-06
0.000715068 -2.69012e-05 -3.31268e-07
-2.69012e-05 4.36801e-05 9.14548e-08
-3.31268e-07 9.14548e-08 -3.57678e-05
0.00080072 5.45665e-05 2.50134e-07
5.45665e-05 0.000105882 4.62694e-07
2.50134e-07 4.62694e-07 8.99386e-06
0.000895189 9.97671e-05 8.40499e-07
9.97671e-05 0.00014424 6.41125e-07
8.40499e-07 6.41125e-07 5.33794e-05
0.000818016 -1.484e-05 1.00574e-06
-1.484e-05 0.000100325 -1.63375e-06
1.00574e-06 -1.63375e-06 1.96666e-05
0.00069453 -3.12535e-05 -5.71396e-07
-3.12535e-05 3.27267e-05 6.49349e-07
-5.71396e-07 6.49349e-07 -4.5822e-05
0.00192537 -0.000111396 6.62607e-06
-0.000111396 0.000101216 -6.90157e-07
6.62607e-06 -6.90157e-07 6.12688e-05
0.00200415 -0.000160235 1.96407e-06
-0.000160235 7.43473e-05 -1.28694e-06
1.96407e-06 -1.28694e-06 2.57244e-05
0.00160509 -0.000288644 -7.16076e-07
-0.000288644 -7.51159e-05 1.28923e-06
-7.16076e-07 1.28923e-06 -0.000163288
0.00108411 -0.000214013 2.795e-06
-0.000214013 0.000181861 2.96332e-06
2.795e-06 2.96332e-06 -4.97763e-06
0.00229152 -0.000348345 2.84756e-06
-0.000348345 0.000544269 9.12841e-07
2.84756e-06 9.12841e-07 0.000352817
0.0008728 -0.000147993 -1.03119e-06
-0.000147993 0.000191705 -1.18904e-06
-1.03119e-06 -1.18904e-06 -1.05891e-06
0.00141532 -0.000143668 -8.68321e-07
-0.000143668 0.000473126 -3.07228e-07
-8.68321e-07 -3.07228e-07 0.000308424
0.000796076 -7.58856e-05 -1.80806e-06
-7.58856e-05 9.383e-05 1.61086e-06
-1.80806e-06 1.61086e-06 -1.85013e-05
0.000796826 -1.54689e-05 -8.6625e-08
-1.54689e-05 9.72207e-05 1.46488e-06
-8.6625e-08 1.46488e-06 3.3053e-06
0.000993317 1.00005e-06 -1.81638e-06
1.00005e-06 0.000201853 -1.64298e-07
-1.81638e-06 -1.64298e-07 9.89362e-05
0.0010005 -6.33425e-06 9.15793e-07
-6.33425e-06 0.000208796 6.77733e-07
9.15793e-07 6.77733e-07 0.000124808
0.000697183 0.000103914 1.82186e-06
0.000103914 5.36886e-05 2.37823e-06
1.82186e-06 2.37823e-06 -4.63279e-05
0.00168095 -0.000109371 -5.91882e-07
-0.000109371 -7.95888e-05 -1.91132e-06
-5.91882e-07 -1.91132e-06 -0.000120778
0.000742402 3.19164e-05 -8.26501e-07
3.19164e-05 7.66742e-05 2.70892e-07
-8.26501e-07 2.70892e-07 -2.88326e-05
0.000809764 -4.60349e-05 -4.74953e-07
-4.60349e-05 0.000110024 -1.88521e-07
-4.74953e-07 -1.88521e-07 3.30492e-06
0.00195724 -0.00026628 3.00215e-08
-0.00026628 3.26423e-05 -1.41977e-06
3.00215e-08 -1.41977e-06 1.61596e-05
0.00131479 -0.000303216 -2.54289e-07
-0.000303216 -8.93078e-05 2.13766e-06
-2.54289e-07 2.13766e-06 -0.00021973
0.00157421 -0.00028533 1.75572e-06
-0.00028533 0.000415629 -1.52153e-06
1.75572e-06 -1.52153e-06 0.000211601
0.000884262 -5.09982e-05 4.96081e-07
-5.09982e-05 0.000159658 -5.44907e-07
4.96081e-07 -5.44907e-07 3.86021e-05
0.000953261 -5.6171e-05 -1.34303e-07
-5.6171e-05 0.0002609 2.77798e-07
-1.34303e-07 2.77798e-07 4.1651e-05
0.00327396 -0.000185017 -1.2938e-05
-0.000185017 0.000920797 8.12974e-06
-1.2938e-05 8.12974e-06 0.000826029
0.00288299 -0.000361547 -1.75065e-05
-0.000361547 0.000585919 1.78572e-06
-1.75065e-05 1.78572e-06 0.000595508
6.93777e-06 -0.000247703 -5.4585e-06
-0.000247703 -0.000597227 -1.20625e-06
-5.4585e-06 -1.20625e-06 -0.000740886
0.000922372 -0.000177098 -4.26175e-06
-0.000177098 0.000144478 7.84342e-06
-4.26175e-06 7.84342e-06 -7.40241e-05
0.000627321 -8.87993e-05 4.63404e-07
-8.87993e-05 8.24992e-06 -8.63907e-07
4.63404e-07 -8.63907e-07 -0.000101882
0.000823498 -4.80061e-05 1.2231e-06
-4.80061e-05 0.000124149 -1.02107e-06
1.2231e-06 -1.02107e-06 9.56854e-06
0.000825155 -1.9519e-05 -9.99589e-07
-1.9519e-05 0.000157964 5.93238e-07
-9.99589e-07 5.93238e-07 -2.14325e-06
-0.00387733 -1.96979e-05 0.000150705
-1.96979e-05 -0.00194935 5.17815e-07
0.000150705 5.17815e-07 -0.00164491
0.00903989 -8.74467e-05 -2.39642e-05
-8.74467e-05 0.00292299 2.35095e-06
-2.39642e-05 2.35095e-06 0.0023222
0.000869455 5.40602e-05 2.53395e-06
5.40602e-05 0.000153818 4.04961e-07
2.53395e-06 4.04961e-07 4.0717e-05
0.000709604 0.000144535 4.5313e-06
0.000144535 5.63589e-05 -1.39478e-07
4.5313e-06 -1.39478e-07 -9.8886e-05
0.00198452 0.000190071 1.36231e-05
0.000190071 0.000140986 9.59609e-06
1.36231e-05 9.59609e-06 0.00016321
0.00223755 0.000400117 6.03457e-06
0.000400117 0.000323214 3.41308e-06
6.03457e-06 3.41308e-06 0.000171793
0.00122737 0.000242528 6.85611e-06
0.000242528 0.000194427 1.47252e-06
6.85611e-06 1.47252e-06 -3.67448e-05
0.00636586 0.000303149 6.9852e-05
0.000303149 0.00144374 8.98245e-06
6.9852e-05 8.98245e-06 0.00041604
0.00603547 0.000408514 -0.000102022
0.000408514 0.00118601 -2.53733e-05
-0.000102022 -2.53733e-05 0.000543606
-0.000445702 0.000144484 2.89718e-06
0.000144484 -0.000838019 -2.00234e-05
2.89718e-06 -2.00234e-05 -0.000990997
0.00377446 -0.000665174 -2.06859e-06
-0.000665174 0.00194838 2.59629e-05
-2.06859e-06 2.59629e-05 0.00172517
-0.00518332 -0.000950858 -0.000130033
-0.000950858 -0.00331625 -0.000121654
-0.000130033 -0.000121654 -0.00148356
0.000948268 0.000122656 2.32518e-08
0.000122656 0.000209588 -1.10122e-06
2.32518e-08 -1.10122e-06 9.36401e-05
-0.00244475 -0.000257415 4.47462e-05
-0.000257415 -0.00145413 4.55183e-06
4.47462e-05 4.55183e-06 -0.00151661
-0.00102628 -0.00032398 -4.92758e-05
-0.00032398 0.000192404 -2.07175e-05
-4.92758e-05 -2.07175e-05 -0.000269743
0.002522 0.000284669 -4.69874e-06
0.000284669 0.000454885 -2.04284e-06
-4.69874e-06 -2.04284e-06 0.000489181
0.000922519 0.000132119 -1.48703e-06
0.000132119 0.000192137 -4.81256e-07
-1.48703e-06 -4.81256e-07 1.4995e-05
0.000673506 0.000282221 3.54475e-06
0.000282221 -0.000143003 1.91496e-06
3.54475e-06 1.91496e-06 -0.000382672
0.000671341 0.000207039 1.05241e-05
0.000207039 -0.000229032 9.91523e-06
1.05241e-05 9.91523e-06 -0.000207791
0.0076694 5.66477e-05 -1.72932e-05
5.66477e-05 0.00227302 -1.45385e-05
-1.72932e-05 -1.45385e-05 0.000775152
0.00645066 0.000737727 -4.31906e-05
0.000737727 0.00170951 -1.85249e-05
-4.31906e-05 -1.85249e-05 0.000896877
0.0066872 -0.000962175 3.69987e-05
-0.000962175 0.00306868 -2.06908e-05
3.69987e-05 -2.06908e-05 0.0032113
0.00144519 -0.000598764 5.15952e-05
-0.000598764 -0.0019062 0.000110743
5.15952e-05 0.000110743 -0.000543634
0.00123587 8.95514e-05 -1.07655e-05
8.95514e-05 0.000389018 -7.00636e-06
-1.07655e-05 -7.00636e-06 0.000291136
-0.0029154 -3.8366e-05 -8.0005e-05
-3.8366e-05 -9.43754e-05 -2.63537e-05
-8.0005e-05 -2.63537e-05 -0.0011241
0.00211077 4.34977e-05 -8.43103e-05
4.34977e-05 0.000496545 -0.000103156
-8.43103e-05 -0.000103156 -0.000505375
-6.70862e-05 0.000232948 -2.17064e-05
0.000232948 -0.000565878 7.80251e-07
-2.17064e-05 7.80251e-07 -0.0005663
0.00167182 0.000304806 -3.59472e-05
0.000304806 0.000655305 -1.0205e-05
-3.59472e-05 -1.0205e-05 0.000465096
0.00298818 0.000219533 -6.6255e-05
0.000219533 0.00126257 -2.7843e-06
-6.6255e-05 -2.7843e-06 0.00106752
0.00374282 0.00068887 -7.10006e-05
0.00068887 0.000449094 -3.38617e-06
-7.10006e-05 -3.38617e-06 6.78541e-05
-0.00156839 0.000177028 8.20231e-05
0.000177028 -0.00121816 5.90183e-05
8.20231e-05 5.90183e-05 -0.00336479
0.00709891 -0.000898539 -2.75395e-05
-0.000898539 0.0018746 7.62144e-05
-2.75395e-05 7.62144e-05 0.00189448
0.00217572 -0.000354898 -1.07252e-05
-0.000354898 -0.00202422 -2.52209e-05
-1.07252e-05 -2.52209e-05 -0.000718493
0.000940313 4.50542e-05 2.13485e-06
4.50542e-05 0.00017188 3.16069e-06
2.13485e-06 3.16069e-06 8.11375e-05
0.00110907 7.34445e-05 3.04017e-06
7.34445e-05 0.000260544 2.09792e-06
3.04017e-06 2.09792e-06 0.000189186
0.000491024 5.73495e-05 -1.34215e-06
5.73495e-05 -8.0137e-05 -8.23753e-06
-1.34215e-06 -8.23753e-06 -0.000130885
0.000611197 4.24512e-05 6.38233e-07
4.24512e-05 -3.65169e-05 -2.25353e-08
6.38233e-07 -2.25353e-08 -0.000104522
0.000851755 3.82056e-05 -8.28871e-07
3.82056e-05 0.00011064 -4.13351e-07
-8.28871e-07 -4.13351e-07 2.20377e-05
0.000854659 -1.69915e-05 -4.32912e-07
-1.69915e-05 9.73841e-05 7.80299e-07
-4.32912e-07 7.80299e-07 1.60184e-05
0.000851265 -1.52523e-05 -2.3466e-07
-1.52523e-05 9.49199e-05 8.99342e-08
-2.3466e-07 8.99342e-08 1.39257e-05
0.000774065 -2.86002e-07 -3.47969e-07
-2.86002e-07 4.62241e-05 2.80442e-06
-3.47969e-07 2.80442e-06 -2.67326e-05
0.000855322 3.2603e-05 1.97425e-07
3.2603e-05 0.000110592 -5.68028e-07
1.97425e-07 -5.68028e-07 2.22873e-05
0.00090697 -7.81434e-07 -9.12532e-08
-7.81434e-07 0.000117472 3.53924e-07
-9.12532e-08 3.53924e-07 3.96846e-05
0.00087758 -3.26963e-05 -1.98787e-08
-3.26963e-05 0.000109597 3.60518e-07
-1.98787e-08 3.60518e-07 2.15119e-05
0.00052973 1.50162e-05 2.33773e-07
1.50162e-05 -8.68035e-05 -5.2484e-07
2.33773e-07 -5.2484e-07 -0.000155541
0.000596403 -6.90289e-06 6.44332e-07
-6.90289e-06 -2.21065e-05 -5.28018e-06
6.44332e-07 -5.28018e-06 -7.97731e-05
0.000924242 -2.16051e-05 -6.5173e-07
-2.16051e-05 0.000127452 -3.309e-06
-6.5173e-07 -3.309e-06 4.61764e-05
0.000940382 1.44214e-06 2.35691e-07
1.44214e-06 0.000155963 -1.10615e-06
2.35691e-07 -1.10615e-06 5.80733e-05
0.000862046 -4.11814e-05 -1.92834e-08
-4.11814e-05 0.000116698 -2.4206e-07
-1.92834e-08 -2.4206e-07 2.91082e-05
0.000885489 9.23422e-06 -5.87674e-07
9.23422e-06 0.000114941 7.82563e-07
-5.87674e-07 7.82563e-07 3.63398e-05
0.000851447 -1.91543e-05 4.09034e-07
-1.91543e-05 0.000102592 -3.1467e-07
4.09034e-07 -3.1467e-07 1.31435e-05
0.00080098 4.11612e-05 -1.28842e-07
4.11612e-05 7.77248e-05 -2.58597e-08
-1.28842e-07 -2.58597e-08 -2.61409e-06
0.000760302 -2.33012e-07 -2.21959e-07
-2.33012e-07 4.17075e-05 4.13638e-07
-2.21959e-07 4.13638e-07 -3.21716e-05
0.000734732 5.47716e-05 1.0183e-06
5.47716e-05 4.6537e-05 -2.33929e-07
1.0183e-06 -2.33929e-07 -3.36994e-05
0.000657809 1.87193e-05 5.31719e-08
1.87193e-05 -6.67289e-06 -2.18769e-06
5.31719e-08 -2.18769e-06 -9.14973e-05
0.000745442 1.26612e-05 1.2397e-06
1.26612e-05 4.08442e-05 -1.26816e-06
1.2397e-06 -1.26816e-06 -3.12001e-05
0.00083281 2.21163e-05 2.83522e-06
2.21163e-05 9.28367e-05 -1.76127e-06
2.83522e-06 -1.76127e-06 4.73597e-06
0.000362524 -3.1996e-05 6.68444e-07
-3.1996e-05 -0.000123932 1.42455e-07
6.68444e-07 1.42455e-07 -0.000252498
0.000438257 3.82591e-05 4.04121e-07
3.82591e-05 -9.96214e-05 -3.98054e-08
4.04121e-07 -3.98054e-08 -0.000192311
0.000765113 4.26658e-05 4.56117e-07
4.26658e-05 6.98496e-05 5.03965e-07
4.56117e-07 5.03965e-07 -1.4207e-05
0.000722386 3.74141e-05 2.81566e-07
3.74141e-05 3.80585e-05 2.69747e-07
2.81566e-07 2.69747e-07 -3.47057e-05
0.000767088 7.25211e-06 -9.22302e-08
7.25211e-06 6.44016e-05 -7.07955e-09
-9.22302e-08 -7.07955e-09 -1.05758e-05
0.000719552 2.29193e-05 -6.12557e-07
2.29193e-05 2.25381e-05 3.50417e-07
-6.12557e-07 3.50417e-07 -3.71986e-05
0.000792537 6.89875e-06 3.31274e-07
6.89875e-06 7.73562e-05 3.68775e-07
3.31274e-07 3.68775e-07 5.9931e-07
0.000756505 -1.17009e-05 -1.90365e-07
-1.17009e-05 4.27966e-05 1.04334e-09
-1.90365e-07 1.04334e-09 -1.84447e-05
0.000709939 2.6963e-05 -9.2993e-07
2.6963e-05 1.83115e-06 1.61274e-06
-9.2993e-07 1.61274e-06 -3.84024e-05
0.000667835 -2.99809e-05 8.42083e-07
-2.99809e-05 -9.57363e-06 -3.21747e-07
8.42083e-07 -3.21747e-07 -7.2197e-05
0.000715614 1.37841e-05 -1.12723e-07
1.37841e-05 4.2019e-06 -9.06214e-09
-1.12723e-07 -9.06214e-09 -3.56764e-05
0.00135218 2.43514e-05 -4.91537e-06
2.43514e-05 0.000355265 4.80669e-06
-4.91537e-06 4.80669e-06 0.000349094
0.000707397 -9.98421e-07 7.38023e-07
-9.98421e-07 6.91696e-07 -1.48881e-06
7.38023e-07 -1.48881e-06 -3.91084e-05
0.00101348 1.59088e-05 -2.37192e-06
1.59088e-05 0.000160227 7.10834e-07
-2.37192e-06 7.10834e-07 0.00015286
0.000844381 1.30467e-05 -5.12698e-07
1.30467e-05 6.60002e-05 1.76676e-06
-5.12698e-07 1.76676e-06 7.76404e-05
0.000665537 7.73395e-06 2.81617e-07
7.73395e-06 -3.95467e-05 -3.42144e-06
2.81617e-07 -3.42144e-06 -4.81921e-05
0.00222789 1.02905e-05 2.87711e-06
1.02905e-05 0.00084965 2.9074e-08
2.87711e-06 2.9074e-08 0.000868555
0.0022254 1.06004e-06 3.62138e-07
1.06004e-06 0.000847496 -4.75177e-06
3.62138e-07 -4.75177e-06 0.0008666
0.00104674 5.57713e-05 -1.25442e-06
5.57713e-05 0.000217691 -9.63184e-07
-1.25442e-06 -9.63184e-07 0.000155582
0.000732591 5.76738e-06 -5.09461e-07
5.76738e-06 1.61029e-05 -1.92048e-06
-5.09461e-07 -1.92048e-06 -1.79057e-05
0.000740231 2.53883e-06 6.08765e-07
2.53883e-06 4.97966e-05 6.54011e-07
6.08765e-07 6.54011e-07 -1.38187e-05
0.00067926 4.46195e-08 -1.69242e-07
4.46195e-08 -3.34314e-05 -3.49015e-06
-1.69242e-07 -3.49015e-06 -3.76978e-05
0.000720257 2.65739e-07 2.82951e-07
2.65739e-07 9.5192e-06 -2.05107e-08
2.82951e-07 -2.05107e-08 -2.35688e-05
0.000719433 -3.61352e-06 -5.07874e-07
-3.61352e-06 9.48518e-06 1.81594e-06
-5.07874e-07 1.81594e-06 -2.41195e-05
0.000680579 6.64986e-06 -1.43005e-07
6.64986e-06 -3.1919e-05 -1.55551e-09
-1.43005e-07 -1.55551e-09 -3.65676e-05
0.00207822 9.28623e-06 4.0704e-06
9.28623e-06 0.000765023 -4.62553e-06
4.0704e-06 -4.62553e-06 0.000785595
0.00127555 1.77306e-05 -6.30593e-07
1.77306e-05 0.000307388 2.09984e-06
-6.30593e-07 2.09984e-06 0.000304972
0.00147968 1.71143e-05 2.11743e-06
1.71143e-05 0.000427557 6.94195e-08
2.11743e-06 6.94195e-08 0.00044397
0.000932671 2.04061e-05 -1.48028e-05
2.04061e-05 0.00012138 7.20812e-06
-1.48028e-05 7.20812e-06 0.000133258
-0.00635086 0.000143891 9.30017e-05
0.000143891 -0.00304862 -1.48145e-06
9.30017e-05 -1.48145e-06 -0.00337347
-0.00162525 0.000199508 6.26275e-05
0.000199508 8.05444e-05 2.32079e-05
6.26275e-05 2.32079e-05 -0.000354751
0.00373288 5.14758e-05 -0.000153317
5.14758e-05 0.000739353 3.3938e-06
-0.000153317 3.3938e-06 0.000419034
0.00144444 1.1295e-05 3.23077e-05
1.1295e-05 -0.000194151 3.76218e-06
3.23077e-05 3.76218e-06 -0.000220375
0.0015113 -2.05793e-05 1.08656e-05
-2.05793e-05 -0.000191424 7.6638e-07
1.08656e-05 7.6638e-07 -0.00022248
0.000950289 1.82801e-05 2.04903e-05
1.82801e-05 -0.000494716 -1.62939e-06
2.04903e-05 -1.62939e-06 -0.000628041
0.00218954 -4.81713e-05 1.85123e-06
-4.81713e-05 0.000169307 1.63451e-06
1.85123e-06 1.63451e-06 0.000127234
0.00671229 0.000173836 -1.20323e-08
0.000173836 0.00160363 -2.03703e-05
-1.20323e-08 -2.03703e-05 0.000729977
-0.00338053 0.000393683 -2.83625e-05
0.000393683 -0.00126567 -1.69512e-06
-2.83625e-05 -1.69512e-06 -0.00164475
-0.00150358 0.000878403 -3.06684e-05
0.000878403 -0.0011448 1.16909e-05
-3.06684e-05 1.16909e-05 0.000336999
0.00181471 -0.0001335 5.4781e-05
-0.0001335 -0.000109707 1.21332e-05
5.4781e-05 1.21332e-05 -0.00037836
0.00743131 0.000149611 2.86938e-05
0.000149611 0.0022764 -9.1465e-06
2.86938e-05 -9.1465e-06 0.00102524
0.000205688 0.000731225 2.54973e-05
0.000731225 -0.000563745 -7.47782e-05
2.54973e-05 -7.47782e-05 4.08141e-05
0.00414048 0.000647381 -8.10868e-05
0.000647381 -6.42078e-05 6.26997e-05
-8.10868e-05 6.26997e-05 0.000847238
0.00075044 6.09817e-05 -8.43578e-07
6.09817e-05 7.42893e-05 -6.39599e-07
-8.43578e-07 -6.39599e-07 -2.73833e-05
0.000648833 8.56721e-06 -2.09402e-07
8.56721e-06 2.71535e-06 -5.53016e-07
-2.09402e-07 -5.53016e-07 -7.28784e-05
0.000751387 -6.66632e-05 -8.4413e-07
-6.66632e-05 5.71212e-05 1.23956e-06
-8.4413e-07 1.23956e-06 -6.41594e-06
0.000651711 1.71933e-07 1.45044e-07
1.71933e-07 1.2142e-05 8.71052e-07
1.45044e-07 8.71052e-07 -7.04468e-05
0.000776382 5.88386e-05 9.10087e-07
5.88386e-05 9.35903e-05 1.27091e-06
9.10087e-07 1.27091e-06 -2.73755e-06
0.000887189 5.87935e-05 -5.54878e-07
5.87935e-05 0.000142099 -6.37823e-08
-5.54878e-07 -6.37823e-08 4.45362e-05
0.000831869 7.15254e-05 1.53914e-06
7.15254e-05 0.000112334 1.42171e-06
1.53914e-06 1.42171e-06 1.90877e-05
0.000738737 -7.26998e-06 9.01409e-07
-7.26998e-06 4.96068e-05 -1.3412e-07
9.01409e-07 -1.3412e-07 -3.39458e-05
0.000728468 -1.92836e-05 4.05537e-07
-1.92836e-05 5.34956e-05 -7.86077e-07
4.05537e-07 -7.86077e-07 -3.0393e-05
0.000634006 -1.38174e-05 -1.06335e-07
-1.38174e-05 -5.87859e-06 1.20977e-06
-1.06335e-07 1.20977e-06 -8.16567e-05
0.000827166 -0.000104435 6.63572e-06
-0.000104435 -0.00054947 -3.97053e-06
6.63572e-06 -3.97053e-06 -0.000585624
0.00187023 -0.000264896 9.02618e-06
-0.000264896 1.50108e-05 -6.26512e-08
9.02618e-06 -6.26512e-08 -2.01755e-05
0.000217666 -0.0002372 8.19399e-06
-0.0002372 -0.000657607 3.5649e-06
8.19399e-06 3.5649e-06 -0.000769077
0.00164581 -0.000291745 2.46012e-06
-0.000291745 0.000450573 1.60085e-07
2.46012e-06 1.60085e-07 0.000234218
0.00133107 -9.48927e-05 7.16575e-07
-9.48927e-05 0.000452097 -7.26542e-07
7.16575e-07 -7.26542e-07 0.000243899
0.00107111 -6.84669e-05 -6.42322e-07
-6.84669e-05 0.000267042 -2.13398e-07
-6.42322e-07 -2.13398e-07 0.000138505
0.00090403 -3.59566e-05 -8.12303e-07
-3.59566e-05 0.000157391 3.24698e-07
-8.12303e-07 3.24698e-07 5.60549e-05
0.000749871 3.93975e-05 -1.1054e-06
3.93975e-05 8.01706e-05 1.19784e-06
-1.1054e-06 1.19784e-06 -2.2807e-05
0.00169963 -0.000153744 -2.67666e-06
-0.000153744 6.00785e-05 1.28289e-06
-2.67666e-06 1.28289e-06 -9.90773e-06
0.000659343 -3.60406e-05 -5.51489e-08
-3.60406e-05 2.83622e-05 9.4928e-08
-5.51489e-08 9.4928e-08 -8.33804e-05
0.000755925 -4.38654e-05 5.64483e-07
-4.38654e-05 8.62116e-05 -5.02196e-07
5.64483e-07 -5.02196e-07 -3.01426e-05
0.00189006 -0.000316711 4.67057e-06
-0.000316711 8.07806e-05 -2.26234e-06
4.67057e-06 -2.26234e-06 8.34129e-05
0.000305917 -0.000262976 1.58182e-06
-0.000262976 -0.000421403 1.36508e-06
1.58182e-06 1.36508e-06 -0.00056184
0.00106408 -0.000184704 3.74029e-06
-0.000184704 0.000212972 -1.77479e-06
3.74029e-06 -1.77479e-06 -5.41269e-06
0.00110646 -5.4577e-05 -4.4515e-07
-5.4577e-05 0.000312123 -7.67061e-07
-4.4515e-07 -7.67061e-07 0.000144645
0.00102577 -0.000215935 -1.58085e-06
-0.000215935 1.67494e-05 -3.99817e-06
-1.58085e-06 -3.99817e-06 -0.000211297
0.00157571 -0.000269647 -1.96854e-05
-0.000269647 0.000253725 4.14976e-06
-1.96854e-05 4.14976e-06 0.000195032
0.000299869 -5.33643e-05 -1.35982e-05
-5.33643e-05 -0.000101067 1.81483e-05
-1.35982e-05 1.81483e-05 -0.000304105
0.000708402 3.59384e-05 3.51151e-07
3.59384e-05 4.72579e-05 6.28421e-07
3.51151e-07 6.28421e-07 -6.02315e-05
0.000604423 -8.38647e-05 6.74701e-07
-8.38647e-05 -1.97176e-07 -4.56763e-07
6.74701e-07 -4.56763e-07 -0.000119852
0.000938393 -3.79984e-05 5.8158e-07
-3.79984e-05 0.000178853 1.06432e-06
5.8158e-07 1.06432e-06 5.87275e-05
0.000856579 3.85149e-05 -0.000103394
3.85149e-05 0.00188343 -1.30288e-06
-0.000103394 -1.30288e-06 0.00124811
0.00201985 -0.00014082 1.40654e-05
-0.00014082 0.00136053 8.5267e-06
1.40654e-05 8.5267e-06 0.0012111
0.000111022 0.00032714 -6.1622e-05
0.00032714 -0.00207986 2.33342e-05
-6.1622e-05 2.33342e-05 -0.00264569
0.000806597 0.000112132 4.26579e-06
0.000112132 0.000137748 2.17853e-06
4.26579e-06 2.17853e-06 2.40664e-05
0.000677537 0.00014594 7.70809e-06
0.00014594 7.75993e-05 3.93323e-06
7.70809e-06 3.93323e-06 -0.000102534
0.00250194 0.000263458 1.32287e-05
0.000263458 0.000424578 5.83909e-06
1.32287e-05 5.83909e-06 0.000468307
0.000606353 0.000217152 1.2966e-05
0.000217152 -0.000146796 6.7295e-06
1.2966e-05 6.7295e-06 -0.000382005
0.00463302 -0.000371863 4.26255e-05
-0.000371863 0.00196467 2.33717e-05
4.26255e-05 2.33717e-05 0.00203017
-0.00113641 -8.58087e-05 -5.53345e-05
-8.58087e-05 -0.00201402 2.66836e-06
-5.53345e-05 2.66836e-06 -0.00334329
0.00322258 0.000638259 -8.23819e-05
0.000638259 -0.000191786 -3.53645e-05
-8.23819e-05 -3.53645e-05 -0.00102875
0.000619419 0.000125797 2.72195e-05
0.000125797 -0.000172104 -1.6343e-05
2.72195e-05 -1.6343e-05 -0.000138845
-0.00412814 -0.000425002 -7.51677e-06
-0.000425002 -0.00169683 -1.9404e-05
-7.51677e-06 -1.9404e-05 -0.00177432
0.000523358 -0.000386802 1.48247e-05
-0.000386802 0.000553744 2.25837e-05
1.48247e-05 2.25837e-05 9.6918e-05
0.00539199 -0.000765305 9.26854e-05
-0.000765305 0.000180098 7.83816e-05
9.26854e-05 7.83816e-05 0.00162373
0.000774558 8.12254e-05 2.78132e-06
8.12254e-05 0.000147024 -1.83394e-06
2.78132e-06 -1.83394e-06 4.36572e-05
-0.000559273 -0.000104315 -3.7298e-05
-0.000104315 0.000839713 -1.27297e-05
-3.7298e-05 -1.27297e-05 6.23918e-05
0.00237011 5.15329e-05 -3.71764e-06
5.15329e-05 0.000637083 -2.41869e-05
-3.71764e-06 -2.41869e-05 -0.000400731
0.000686355 0.000209216 -8.12458e-06
0.000209216 -0.000123188 3.41319e-06
-8.12458e-06 3.41319e-06 -0.000174611
0.000743115 0.000166498 -7.49493e-10
0.000166498 0.000193073 1.2088e-06
-7.49493e-10 1.2088e-06 -3.08092e-06
0.00038045 0.000170145 3.34745e-05
0.000170145 -9.87056e-05 -2.23178e-05
3.34745e-05 -2.23178e-05 -0.000236295
0.00552745 0.000886052 -1.82822e-05
0.000886052 0.00149267 8.44973e-07
-1.82822e-05 8.44973e-07 0.000738478
0.00943756 -8.61281e-05 4.46268e-05
-8.61281e-05 0.00364395 1.08822e-05
4.46268e-05 1.08822e-05 0.00202247
0.00187536 -0.000567178 3.46954e-06
-0.000567178 -0.00104709 -1.05272e-05
3.46954e-06 -1.05272e-05 -0.000827675
0.0062576 -0.000484427 5.78726e-06
-0.000484427 0.000645187 -1.29093e-05
5.78726e-06 -1.29093e-05 0.00186949
0.000520862 9.96016e-05 -1.18024e-05
9.96016e-05 5.76069e-05 -9.2248e-06
-1.18024e-05 -9.2248e-06 -1.84564e-05
0.0018949 -4.12211e-05 -7.27484e-05
-4.12211e-05 0.000357576 -3.18192e-05
-7.27484e-05 -3.18192e-05 -0.000341142
0.00116857 3.54907e-05 -1.68463e-05
3.54907e-05 0.000243744 -5.89919e-05
-1.68463e-05 -5.89919e-05 -0.000619361
-0.000887887 5.20469e-06 -2.46443e-05
5.20469e-06 -0.000481973 -1.62172e-05
-2.46443e-05 -1.62172e-05 -0.000602347
0.00244438 0.000340641 2.57228e-06
0.000340641 0.000574638 5.60949e-05
2.57228e-06 5.60949e-05 4.97915e-05
0.00848716 0.00015296 2.19218e-05
0.00015296 0.0032736 4.49137e-06
2.19218e-05 4.49137e-06 0.00124115
-0.00653047 -0.000617538 -5.19678e-05
-0.000617538 -0.00415821 2.40126e-05
-5.19678e-05 2.40126e-05 -0.00516315
0.00506232 0.000154203 -9.81736e-07
0.000154203 -0.000571735 -8.62379e-05
-9.81736e-07 -8.62379e-05 0.000869877
0.000983929 6.58973e-05 2.60242e-06
6.58973e-05 0.000188082 5.7187e-06
2.60242e-06 5.7187e-06 0.000116852
0.000936622 8.52215e-05 -4.01967e-06
8.52215e-05 0.000171172 -7.36654e-07
-4.01967e-06 -7.36654e-07 0.000118229
0.0011798 7.08009e-05 -4.33485e-06
7.08009e-05 0.000333302 -5.28685e-06
-4.33485e-06 -5.28685e-06 0.000291328
0.000860639 6.88548e-05 -1.55316e-06
6.88548e-05 0.000106517 -5.23928e-07
-1.55316e-06 -5.23928e-07 2.28441e-05
0.000912954 -3.15006e-05 -3.11841e-07
-3.15006e-05 0.000135724 1.37866e-06
-3.11841e-07 1.37866e-06 4.33556e-05
0.000902068 8.10134e-06 -3.96802e-07
8.10134e-06 0.000115305 1.64121e-06
-3.96802e-07 1.64121e-06 3.70007e-05
0.000454555 4.32767e-06 7.54037e-08
4.32767e-06 -0.000122129 3.8483e-06
7.54037e-08 3.8483e-06 -0.000189072
0.000884084 5.23342e-06 5.92554e-07
5.23342e-06 0.000114175 4.32475e-08
5.92554e-07 4.32475e-08 2.40934e-05
0.000868145 -4.79422e-06 -2.12323e-07
-4.79422e-06 9.81174e-05 -2.138e-07
-2.12323e-07 -2.138e-07 1.62487e-05
0.000571501 -6.98408e-06 9.5083e-08
-6.98408e-06 -3.21698e-05 1.04715e-06
9.5083e-08 1.04715e-06 -9.0019e-05
0.000477758 -1.63006e-05 -1.31616e-06
-1.63006e-05 -1.9089e-05 -5.11892e-06
-1.31616e-06 -5.11892e-06 -5.90697e-05
0.000980983 -2.4452e-05 2.51313e-06
-2.4452e-05 0.000184053 -6.27495e-06
2.51313e-06 -6.27495e-06 0.000119365
0.000843678 3.41555e-05 4.11923e-07
3.41555e-05 9.2524e-05 -2.46287e-06
4.11923e-07 -2.46287e-06 3.48939e-06
0.000872974 -5.64031e-05 8.30599e-07
-5.64031e-05 0.000107174 6.9728e-07
8.30599e-07 6.9728e-07 2.21895e-05
0.000786384 4.44999e-05 -5.34623e-07
4.44999e-05 6.80416e-05 5.38626e-07
-5.34623e-07 5.38626e-07 -1.15141e-05
0.000835377 -7.01703e-06 -1.10835e-06
-7.01703e-06 8.38794e-05 1.78683e-06
-1.10835e-06 1.78683e-06 1.03009e-05
0.000718103 1.10766e-05 3.9289e-07
1.10766e-05 2.1305e-05 3.66232e-07
3.9289e-07 3.66232e-07 -5.95108e-05
0.000769642 4.97796e-05 2.82295e-07
4.97796e-05 6.59275e-05 2.2394e-07
2.82295e-07 2.2394e-07 -1.46605e-05
0.000821407 2.73508e-05 -3.58938e-07
2.73508e-05 8.32314e-05 1.95639e-07
-3.58938e-07 1.95639e-07 1.03973e-05
0.000899526 3.6985e-05 1.73944e-06
3.6985e-05 0.000129138 -1.46452e-06
1.73944e-06 -1.46452e-06 5.22909e-05
0.000644889 7.63131e-06 1.90582e-06
7.63131e-06 -1.82712e-06 -2.60195e-06
1.90582e-06 -2.60195e-06 -6.77759e-05
0.000665465 -6.75272e-05 1.62983e-06
-6.75272e-05 -5.22509e-06 -6.76771e-07
1.62983e-06 -6.76771e-07 -9.54582e-05
0.000902396 4.56826e-06 -9.95476e-07
4.56826e-06 0.000134813 -2.16542e-07
-9.95476e-07 -2.16542e-07 4.49488e-05
0.000591471 -4.60369e-05 2.19271e-06
-4.60369e-05 -3.19457e-06 1.51757e-06
2.19271e-06 1.51757e-06 -0.0001222
0.000978651 -0.000154952 -6.19669e-07
-0.000154952 0.000190073 3.82266e-06
-6.19669e-07 3.82266e-06 2.38818e-05
0.00115772 -4.58617e-05 1.33528e-06
-4.58617e-05 0.000303403 -7.58585e-07
1.33528e-06 -7.58585e-07 0.000196115
0.000521665 -4.9441e-05 -5.61688e-07
-4.9441e-05 -2.87662e-05 -2.77609e-06
-5.61688e-07 -2.77609e-06 -0.000155746
0.000723046 3.46343e-05 -5.87596e-07
3.46343e-05 5.49754e-05 -6.00876e-07
-5.87596e-07 -6.00876e-07 -3.55346e-05
0.000500525 3.33452e-05 9.72406e-07
3.33452e-05 -7.90883e-05 6.31036e-07
9.72406e-07 6.31036e-07 -0.000158667
0.000834603 2.86768e-05 -5.10148e-07
2.86768e-05 0.000106749 2.93721e-07
-5.10148e-07 2.93721e-07 2.32182e-05
0.000781463 5.07126e-06 -4.57602e-07
5.07126e-06 7.37128e-05 3.72936e-07
-4.57602e-07 3.72936e-07 -1.82614e-06
0.000719853 2.67668e-05 -7.42304e-07
2.67668e-05 2.33958e-05 4.32768e-07
-7.42304e-07 4.32768e-07 -3.59552e-05
0.00081272 -2.01855e-05 4.37871e-07
-2.01855e-05 9.61861e-05 2.00704e-07
4.37871e-07 2.00704e-07 1.6287e-05
0.000754501 -1.19382e-05 -3.78851e-07
-1.19382e-05 4.34949e-05 4.80705e-08
-3.78851e-07 4.80705e-08 -1.76279e-05
0.000708979 3.33449e-05 -1.23131e-06
3.33449e-05 3.90437e-06 1.59442e-06
-1.23131e-06 1.59442e-06 -3.69014e-05
0.000788499 -3.86714e-05 1.20193e-06
-3.86714e-05 6.3005e-05 -3.77389e-07
1.20193e-06 -3.77389e-07 5.94899e-08
0.000724532 1.80581e-05 -2.22331e-07
1.80581e-05 9.14574e-06 -3.8464e-09
-2.22331e-07 -3.8464e-09 -3.07004e-05
0.00134237 3.27211e-05 -6.86916e-06
3.27211e-05 0.000353291 4.75072e-06
-6.86916e-06 4.75072e-06 0.000346524
0.00071894 3.25042e-06 1.20716e-06
3.25042e-06 5.52864e-06 -1.49183e-06
1.20716e-06 -1.49183e-06 -3.40927e-05
0.00100847 2.33539e-05 -3.20771e-06
2.33539e-05 0.0001602 6.74766e-07
-3.20771e-06 6.74766e-07 0.000152363
0.000843166 2.01347e-05 -9.79347e-07
2.01347e-05 6.9662e-05 1.76025e-06
-9.79347e-07 1.76025e-06 8.04666e-05
0.000655397 1.40972e-05 4.19026e-07
1.40972e-05 -4.34342e-05 -3.44356e-06
4.19026e-07 -3.44356e-06 -5.24268e-05
0.00153851 1.82155e-05 5.04717e-06
1.82155e-05 0.000460126 -1.39293e-06
5.04717e-06 -1.39293e-06 0.000475137
0.0022383 1.1976e-05 4.73357e-06
1.1976e-05 0.000855933 -4.67833e-06
4.73357e-06 -4.67833e-06 0.000874702
0.000810989 -1.39009e-05 5.69507e-07
-1.39009e-05 7.93136e-05 -8.3858e-07
5.69507e-07 -8.3858e-07 1.61896e-05
0.000738465 -3.07904e-07 -2.48675e-07
-3.07904e-07 1.90433e-05 -1.93507e-06
-2.48675e-07 -1.93507e-06 -1.63077e-05
0.000802102 -2.55037e-06 4.78895e-07
-2.55037e-06 7.94185e-05 1.48345e-07
4.78895e-07 1.48345e-07 1.71668e-05
0.000681182 -6.32792e-06 -2.96817e-07
-6.32792e-06 -3.20196e-05 -3.50684e-06
-2.96817e-07 -3.50684e-06 -3.66557e-05
0.000722318 9.97586e-07 1.92882e-08
9.97586e-07 1.03424e-05 -2.60601e-08
1.92882e-08 -2.60601e-08 -2.3543e-05
0.000734366 -5.36215e-05 -2.11322e-06
-5.36215e-05 4.19221e-05 1.76796e-06
-2.11322e-06 1.76796e-06 -1.83214e-05
0.00207803 -1.00726e-06 -3.20721e-07
-1.00726e-06 0.000764226 -4.63675e-06
-3.20721e-07 -4.63675e-06 0.000784997
0.00068098 2.68429e-07 -1.17385e-07
2.68429e-07 -3.2471e-05 -1.8564e-09
-1.17385e-07 -1.8564e-09 -3.67329e-05
0.000711395 -6.85428e-06 -2.32534e-07
-6.85428e-06 4.46318e-06 1.81261e-06
-2.32534e-07 1.81261e-06 -2.85937e-05
0.000682549 6.87182e-06 -2.23585e-08
6.87182e-06 -3.08834e-05 3.47219e-06
-2.23585e-08 3.47219e-06 -3.55538e-05
0.00208397 1.02508e-05 -2.93432e-06
1.02508e-05 0.000768484 -2.81346e-08
-2.93432e-06 -2.81346e-08 0.000788981
0.00210472 1.99641e-05 -1.1145e-05
1.99641e-05 0.000782491 4.46906e-06
-1.1145e-05 4.46906e-06 0.000802301
-0.00218667 -4.58242e-06 -4.54469e-05
-4.58242e-06 0.000151762 1.01927e-05
-4.54469e-05 1.01927e-05 -0.000719962
-0.00113012 0.000291303 -1.58593e-05
0.000291303 -0.00044895 5.4654e-06
-1.58593e-05 5.4654e-06 -0.000689912
0.00248892 -3.43559e-05 -0.000106752
-3.43559e-05 0.000444814 8.59072e-05
-0.000106752 8.59072e-05 -0.000483948
-0.0021543 0.000233693 0.000115145
0.000233693 7.95478e-05 -4.9225e-05
0.000115145 -4.9225e-05 -0.000246004
0.00264598 0.000127156 -0.000100156
0.000127156 0.000251047 1.54116e-05
-0.000100156 1.54116e-05 -1.50926e-05
0.00191081 -7.24034e-05 6.64342e-05
-7.24034e-05 1.72924e-05 -1.07567e-05
6.64342e-05 -1.07567e-05 -3.10273e-05
0.0018438 -0.000350417 -9.22042e-05
-0.000350417 -0.000850284 -4.17294e-05
-9.22042e-05 -4.17294e-05 -0.00164166
0.00746637 0.000518668 1.79901e-05
0.000518668 0.00369496 -1.69409e-05
1.79901e-05 -1.69409e-05 0.00358433
-0.00534453 0.000953148 -0.000127864
0.000953148 -0.0034704 0.000123721
-0.000127864 0.000123721 -0.00149926
0.00184019 -1.82335e-05 -4.51997e-06
-1.82335e-05 -0.000233648 -5.92058e-06
-4.51997e-06 -5.92058e-06 -0.000480581
0.00352484 3.69714e-05 2.10257e-05
3.69714e-05 0.000417601 -2.81081e-05
2.10257e-05 -2.81081e-05 -0.00132156
0.006762 0.00100094 -2.53656e-05
0.00100094 0.00222243 -3.02304e-05
-2.53656e-05 -3.02304e-05 0.00282696
0.00175848 0.000616866 -2.56219e-05
0.000616866 -0.00145497 5.5002e-05
-2.56219e-05 5.5002e-05 -0.000471586
0.0030263 -0.000325295 -4.44011e-05
-0.000325295 0.000202428 1.32786e-05
-4.44011e-05 1.32786e-05 -0.000255041
0.003442 -0.00014864 0.000112059
-0.00014864 0.00103845 -7.51136e-05
0.000112059 -7.51136e-05 -0.00121625
-0.00530136 0.000321703 -6.30278e-05
0.000321703 -0.00441237 -9.72111e-05
-6.30278e-05 -9.72111e-05 -0.00411643
0.00138759 0.000384329 -2.64126e-05
0.000384329 -0.00275823 1.47751e-05
-2.64126e-05 1.47751e-05 -0.00147844
0.000834625 -1.57193e-05 8.63682e-07
-1.57193e-05 0.000118631 5.97054e-08
8.63682e-07 5.97054e-08 1.23018e-05
0.000818744 5.0499e-05 -1.73242e-06
5.0499e-05 0.000111802 -5.7146e-07
-1.73242e-06 -5.7146e-07 1.2744e-05
0.000775684 3.28825e-05 4.96949e-07
3.28825e-05 7.4261e-05 3.95003e-08
4.96949e-07 3.95003e-08 -1.18755e-07
0.000795252 6.55085e-05 2.04258e-06
6.55085e-05 0.00010456 1.99081e-06
2.04258e-06 1.99081e-06 9.12251e-06
0.000744845 2.5753e-05 -3.80152e-07
2.5753e-05 6.13048e-05 4.60412e-07
-3.80152e-07 4.60412e-07 -4.39047e-05
0.000909232 6.09e-05 2.49462e-07
6.09e-05 0.000156244 6.87064e-07
2.49462e-07 6.87064e-07 5.83432e-05
0.000764278 1.29548e-05 -1.72529e-07
1.29548e-05 7.09256e-05 2.20147e-06
-1.72529e-07 2.20147e-06 -1.94634e-05
0.000899409 8.83466e-05 -4.30125e-07
8.83466e-05 0.000152448 2.8418e-07
-4.30125e-07 2.8418e-07 5.61011e-05
0.000871648 4.63565e-05 -1.79101e-07
4.63565e-05 0.000136571 3.93111e-07
-1.79101e-07 3.93111e-07 4.46427e-05
0.000664305 -1.033e-05 -1.13228e-06
-1.033e-05 2.01587e-05 1.45224e-07
-1.13228e-06 1.45224e-07 -6.6666e-05
0.000271061 -0.000125042 1.85764e-05
-0.000125042 -0.000710584 -1.20085e-05
1.85764e-05 -1.20085e-05 -0.000748646
0.0010412 -0.000286827 1.61632e-05
-0.000286827 -0.000347519 -7.76536e-07
1.61632e-05 -7.76536e-07 -0.000360831
0.000923708 -0.000299422 1.07908e-05
-0.000299422 -8.02144e-05 7.25078e-07
1.07908e-05 7.25078e-07 -0.000220167
0.00121841 -0.00019266 7.51041e-06
-0.00019266 0.000287412 -6.94299e-06
7.51041e-06 -6.94299e-06 6.47609e-05
0.00120294 -5.8885e-05 3.95907e-07
-5.8885e-05 0.000366091 -4.42557e-07
3.95907e-07 -4.42557e-07 0.000191699
0.000684777 -5.42537e-05 -7.14187e-07
-5.42537e-05 5.09439e-05 1.38604e-07
-7.14187e-07 1.38604e-07 -7.07466e-05
0.000727084 5.87477e-05 1.66232e-07
5.87477e-05 6.81177e-05 2.91865e-07
1.66232e-07 2.91865e-07 -4.66424e-05
0.000749459 -3.79884e-05 -8.42424e-08
-3.79884e-05 7.56003e-05 7.09459e-07
-8.42424e-08 7.09459e-07 -3.44349e-05
0.00117104 -0.000189629 5.24357e-07
-0.000189629 6.09924e-05 -3.5258e-07
5.24357e-07 -3.5258e-07 -9.0224e-05
0.000832489 2.61186e-06 -5.72587e-07
2.61186e-06 0.000131394 -5.10354e-07
-5.72587e-07 -5.10354e-07 7.4428e-06
0.00104938 -5.51556e-05 2.23476e-07
-5.51556e-05 0.00024689 8.67423e-08
2.23476e-07 8.67423e-08 0.00011731
0.00127942 -0.00025416 -1.69663e-06
-0.00025416 8.01587e-05 -3.52797e-07
-1.69663e-06 -3.52797e-07 3.87116e-05
0.000948011 -8.11538e-05 -6.46754e-06
-8.11538e-05 0.000216657 2.97689e-06
-6.46754e-06 2.97689e-06 2.50929e-05
-0.000824059 -0.000215213 -4.7388e-06
-0.000215213 -0.00102526 -1.2605e-05
-4.7388e-06 -1.2605e-05 -0.0010347
0.00100923 -0.000106483 -1.52539e-05
-0.000106483 0.000292063 1.44939e-05
-1.52539e-05 1.44939e-05 0.000185065
0.000294551 7.29812e-06 -1.98098e-06
7.29812e-06 -0.000174646 1.38479e-05
-1.98098e-06 1.38479e-05 -0.000294103
0.000795734 -1.56266e-06 1.45099e-07
-1.56266e-06 8.59713e-05 1.93678e-08
1.45099e-07 1.93678e-08 -2.07596e-05
0.000691629 1.63561e-05 -2.71873e-07
1.63561e-05 4.07338e-05 7.36816e-07
-2.71873e-07 7.36816e-07 -9.10836e-05
0.00134239 -7.97665e-06 -3.52094e-05
-7.97665e-06 0.000174603 -4.34626e-06
-3.52094e-05 -4.34626e-06 -0.000397423
-0.000758597 3.49053e-06 -5.46546e-05
3.49053e-06 0.00111165 -1.75692e-06
-5.46546e-05 -1.75692e-06 0.000308837
-0.00692248 -0.000165456 -0.000160881
-0.000165456 -0.00349047 3.33945e-06
-0.000160881 3.33945e-06 -0.00348924
0.000347506 8.17804e-05 8.07696e-06
8.17804e-05 -7.20522e-05 1.32339e-06
8.07696e-06 1.32339e-06 -0.000184473
-0.000396942 4.32448e-05 8.17982e-06
4.32448e-05 -0.000391573 2.97003e-06
8.17982e-06 2.97003e-06 -0.000596387
0.0012926 0.000178057 1.69782e-05
0.000178057 0.000219236 1.02813e-06
1.69782e-05 1.02813e-06 0.000147781
-0.00208196 2.11733e-05 9.97119e-06
2.11733e-05 0.000131305 8.42045e-06
9.97119e-06 8.42045e-06 -0.000781579
0.00233748 1.03154e-05 -3.48296e-05
1.03154e-05 0.000596086 -3.69142e-05
-3.48296e-05 -3.69142e-05 -0.00171675
0.00377768 0.000736812 5.8606e-05
0.000736812 0.000392717 -5.43978e-06
5.8606e-05 -5.43978e-06 -0.000154136
0.000562884 0.000190271 7.29806e-06
0.000190271 1.30836e-06 -5.8374e-06
7.29806e-06 -5.8374e-06 -1.49454e-05
0.00800014 -0.000761532 2.57941e-05
-0.000761532 0.00239537 -1.14786e-05
2.57941e-05 -1.14786e-05 0.00245655
0.00264651 5.04024e-05 7.22911e-05
5.04024e-05 0.000845376 5.43746e-05
7.22911e-05 5.43746e-05 -0.000227337
0.00600195 -0.000427256 2.72984e-05
-0.000427256 0.000795283 1.37612e-05
2.72984e-05 1.37612e-05 0.00205723
0.000834678 0.000119991 -1.51323e-06
0.000119991 0.000247418 -2.48416e-06
-1.51323e-06 -2.48416e-06 0.000165891
0.00193855 -3.4426e-05 4.68245e-06
-3.4426e-05 0.000484602 -8.1095e-06
4.68245e-06 -8.1095e-06 -0.000144904
0.00144035 4.72122e-05 5.75409e-06
4.72122e-05 0.000245137 1.03696e-05
5.75409e-06 1.03696e-05 -0.00063462
2.96992e-05 0.000115284 -4.93689e-06
0.000115284 -1.70638e-05 -4.05874e-07
-4.93689e-06 -4.05874e-07 -0.000159239
0.00273959 0.000441093 -4.06484e-05
0.000441093 0.000544233 -3.31685e-05
-4.06484e-05 -3.31685e-05 7.20887e-05
0.0029117 0.000603569 4.53487e-05
0.000603569 0.000516613 2.96891e-05
4.53487e-05 2.96891e-05 -0.00178681
0.00391622 5.5904e-05 -3.62476e-06
5.5904e-05 -0.0016951 -4.80559e-05
-3.62476e-06 -4.80559e-05 6.83755e-05
0.000734035 -0.000343961 -1.57709e-05
-0.000343961 -0.000466017 3.28365e-06
-1.57709e-05 3.28365e-06 -0.000959202
0.000810442 5.8553e-05 -2.24079e-06
5.8553e-05 0.000331906 -8.95145e-06
-2.24079e-06 -8.95145e-06 0.000261491
0.00113756 -3.76126e-05 -1.47789e-05
-3.76126e-05 0.000127797 -2.35835e-05
-1.47789e-05 -2.35835e-05 -0.000140729
0.00184678 5.76487e-06 1.13538e-05
5.76487e-06 0.000121422 -5.4996e-05
1.13538e-05 -5.4996e-05 -0.000661223
0.00148045 0.00038598 2.44977e-05
0.00038598 -0.00267451 -1.82388e-05
2.44977e-05 -1.82388e-05 -0.00148268
-0.00120999 2.97885e-05 2.79135e-06
2.97885e-05 -0.000481436 -1.00253e-05
2.79135e-06 -1.00253e-05 -0.000811612
0.0101026 0.0004255 9.47498e-05
0.0004255 0.00420122 4.10407e-05
9.47498e-05 4.10407e-05 0.00188386
-0.00658338 -0.000165853 3.48264e-05
-0.000165853 -0.00108778 3.91671e-05
3.48264e-05 3.91671e-05 -0.00205434
0.00150801 0.000130851 1.35465e-05
0.000130851 0.000490955 8.14141e-06
1.35465e-05 8.14141e-06 0.000434068
0.00100417 8.77765e-05 -3.28396e-06
8.77765e-05 0.000235787 1.19407e-06
-3.28396e-06 1.19407e-06 0.000189192
0.00056188 5.91434e-05 -1.00271e-05
5.91434e-05 0.000100544 -7.79285e-06
-1.00271e-05 -7.79285e-06 5.18584e-05
0.000839752 0.000102858 2.48101e-07
0.000102858 9.61311e-05 1.1472e-06
2.48101e-07 1.1472e-06 2.40514e-06
0.000814351 2.30248e-05 -1.09224e-07
2.30248e-05 6.58387e-05 2.22885e-06
-1.09224e-07 2.22885e-06 -1.39376e-05
0.000483396 -1.72711e-05 -9.64318e-07
-1.72711e-05 -7.68692e-05 9.83382e-06
-9.64318e-07 9.83382e-06 -0.000134253
0.000784274 3.77585e-05 -1.54195e-07
3.77585e-05 5.75596e-05 -2.43285e-07
-1.54195e-07 -2.43285e-07 -2.85886e-05
0.000845398 -3.46296e-05 3.36364e-07
-3.46296e-05 0.000112158 -1.18378e-06
3.36364e-07 -1.18378e-06 4.53202e-05
0.000458226 -2.78065e-05 3.07238e-06
-2.78065e-05 -3.40163e-05 3.50781e-06
3.07238e-06 3.50781e-06 -7.86329e-05
0.000406928 -1.02957e-05 -2.6526e-07
-1.02957e-05 -3.10583e-05 -7.75294e-06
-2.6526e-07 -7.75294e-06 -6.63794e-05
0.000804558 -7.22579e-06 -8.76009e-07
-7.22579e-06 9.40183e-05 -4.68129e-06
-8.76009e-07 -4.68129e-06 2.76773e-05
0.000776731 6.15298e-06 -4.00079e-07
6.15298e-06 4.73917e-05 2.23099e-06
-4.00079e-07 2.23099e-06 -2.8758e-05
0.000799208 4.90385e-05 -3.82828e-07
4.90385e-05 8.29157e-05 5.27253e-07
-3.82828e-07 5.27253e-07 1.76292e-06
0.000900163 3.53926e-05 -2.2825e-06
3.53926e-05 0.000126592 2.36564e-06
-2.2825e-06 2.36564e-06 5.31453e-05
0.000783936 8.79355e-06 6.41289e-07
8.79355e-06 7.15288e-05 4.70305e-08
6.41289e-07 4.70305e-08 5.06854e-06
0.000836928 3.75485e-05 5.62058e-07
3.75485e-05 9.45389e-05 1.57611e-07
5.62058e-07 1.57611e-07 1.78713e-05
0.000687956 -3.81585e-05 2.16763e-06
-3.81585e-05 5.21252e-05 -7.3283e-08
2.16763e-06 -7.3283e-08 -2.82485e-05
0.000652156 -4.30813e-05 -9.36446e-07
-4.30813e-05 1.04507e-06 -9.36462e-07
-9.36446e-07 -9.36462e-07 -8.19251e-05
0.000494896 -8.55773e-05 4.19878e-06
-8.55773e-05 -6.45735e-05 5.95198e-07
4.19878e-06 5.95198e-07 -0.000208298
0.000990589 -1.36312e-05 -1.71196e-06
-1.36312e-05 0.000185996 4.80421e-07
-1.71196e-06 4.80421e-07 9.47388e-05
0.00101367 -7.87542e-05 -9.45865e-07
-7.87542e-05 0.000221013 1.18889e-06
-9.45865e-07 1.18889e-06 9.7672e-05
0.000382812 -0.000121792 3.04324e-07
-0.000121792 -0.000153471 2.14253e-06
3.04324e-07 2.14253e-06 -0.000319926
0.000657238 -0.000132004 -3.9356e-06
-0.000132004 6.2151e-07 -4.19662e-07
-3.9356e-06 -4.19662e-07 -0.00016648
0.000980198 -0.000118673 -1.11872e-06
-0.000118673 0.000216648 2.21472e-06
-1.11872e-06 2.21472e-06 8.6752e-05
0.000741742 -0.000135067 2.30295e-07
-0.000135067 6.0979e-05 5.98566e-07
2.30295e-07 5.98566e-07 -0.00010056
0.000848544 -1.42731e-05 7.33528e-07
-1.42731e-05 0.000118644 7.95849e-07
7.33528e-07 7.95849e-07 2.83699e-05
0.000972149 -3.95209e-05 -6.99023e-07
-3.95209e-05 0.000203506 -6.87247e-07
-6.99023e-07 -6.87247e-07 9.33675e-05
0.000656283 -6.36343e-05 5.5985e-07
-6.36343e-05 5.20974e-05 -4.95616e-06
5.5985e-07 -4.95616e-06 -7.26772e-05
0.00101097 3.16254e-05 -1.81688e-06
3.16254e-05 0.000211305 -1.09713e-06
-1.81688e-06 -1.09713e-06 0.000122996
0.000642211 2.42621e-05 1.49683e-07
2.42621e-05 2.51757e-07 -2.29756e-08
1.49683e-07 -2.29756e-08 -7.91472e-05
0.00071384 4.12565e-05 -1.21634e-07
4.12565e-05 2.51937e-05 6.17943e-07
-1.21634e-07 6.17943e-07 -3.82314e-05
0.00082346 -1.59912e-05 -1.60051e-07
-1.59912e-05 0.000100892 2.71369e-07
-1.60051e-07 2.71369e-07 2.20879e-05
0.000752263 5.58061e-07 -6.18465e-07
5.58061e-07 4.334e-05 -5.09624e-08
-6.18465e-07 -5.09624e-08 -1.7864e-05
0.000712248 3.49224e-05 -1.42451e-06
3.49224e-05 9.48897e-06 1.5609e-06
-1.42451e-06 1.5609e-06 -3.19862e-05
0.000782669 -3.37501e-05 1.22628e-06
-3.37501e-05 6.1214e-05 -4.15842e-07
1.22628e-06 -4.15842e-07 -1.70427e-06
0.000720001 2.69084e-05 -2.40489e-07
2.69084e-05 8.95743e-06 -4.25443e-10
-2.40489e-07 -4.25443e-10 -3.13997e-05
0.00130996 4.12387e-05 -7.82388e-06
4.12387e-05 0.000340679 3.26689e-06
-7.82388e-06 3.26689e-06 0.000332998
0.000726926 1.00033e-05 1.47971e-06
1.00033e-05 9.65046e-06 -1.55027e-06
1.47971e-06 -1.55027e-06 -2.98502e-05
0.00100022 3.09489e-05 -3.97439e-06
3.09489e-05 0.000159417 6.22682e-07
-3.97439e-06 6.22682e-07 0.000150975
0.000837294 2.69036e-05 -1.51583e-06
2.69036e-05 7.18018e-05 1.76516e-06
-1.51583e-06 1.76516e-06 8.15937e-05
0.00064899 2.0786e-05 6.02217e-07
2.0786e-05 -4.42563e-05 -3.47887e-06
6.02217e-07 -3.47887e-06 -5.36855e-05
0.00153391 2.70782e-05 6.69789e-06
2.70782e-05 0.000461612 -1.29885e-06
6.69789e-06 -1.29885e-06 0.000475788
0.00224163 2.28088e-05 8.86152e-06
2.28088e-05 0.000860588 -4.53597e-06
8.86152e-06 -4.53597e-06 0.000878747
0.000568063 3.29408e-06 -2.73864e-07
3.29408e-06 -5.08686e-05 -1.37662e-06
-2.73864e-07 -1.37662e-06 -0.000125169
0.000466506 -8.45948e-06 -3.51638e-07
-8.45948e-06 -0.000133136 -2.64992e-06
-3.51638e-07 -2.64992e-06 -0.000173344
0.000838315 -1.07816e-06 2.91236e-08
-1.07816e-06 9.81215e-05 1.05565e-07
2.91236e-08 1.05565e-07 3.25526e-05
0.00067982 -1.2839e-05 -2.56727e-07
-1.2839e-05 -3.13196e-05 -3.56418e-06
-2.56727e-07 -3.56418e-06 -3.72058e-05
0.000585798 -4.2447e-06 3.56085e-07
-4.2447e-06 -6.62979e-05 -2.4007e-08
3.56085e-07 -2.4007e-08 -0.000102941
0.000551925 -5.30998e-05 1.60312e-07
-5.30998e-05 -5.85618e-05 1.28672e-06
1.60312e-07 1.28672e-06 -0.000123433
0.00209281 -1.12879e-05 -4.86272e-06
-1.12879e-05 0.000773428 -4.61319e-06
-4.86272e-06 -4.61319e-06 0.00079386
0.000681652 -6.08552e-06 -1.64703e-07
-6.08552e-06 -3.17542e-05 -6.58428e-09
-1.64703e-07 -6.58428e-09 -3.63566e-05
0.000709148 -7.62312e-06 -3.81796e-07
-7.62312e-06 3.0123e-06 1.82146e-06
-3.81796e-07 1.82146e-06 -3.07698e-05
0.0020795 -7.83951e-08 -2.94752e-06
-7.83951e-08 0.000765053 7.86803e-10
-2.94752e-06 7.86803e-10 0.000785827
0.000681794 4.94181e-07 1.38162e-07
4.94181e-07 -3.20217e-05 3.46136e-06
1.38162e-07 3.46136e-06 -3.62769e-05
0.00209002 1.11993e-05 -4.76957e-06
1.11993e-05 0.000772124 4.59137e-06
-4.76957e-06 4.59137e-06 0.000792523
0.00105979 -1.52917e-05 -6.36084e-05
-1.52917e-05 -6.9967e-05 2.52084e-05
-6.36084e-05 2.52084e-05 -0.000689745
0.00141238 0.000158062 -6.3342e-06
0.000158062 0.00176445 -7.04075e-06
-6.3342e-06 -7.04075e-06 0.00129439
0.00119948 -0.000178815 -6.7341e-05
-0.000178815 0.00116761 -1.5614e-05
-6.7341e-05 -1.5614e-05 0.000696502
0.000790465 4.18744e-05 -5.2184e-09
4.18744e-05 7.90075e-05 4.52577e-07
-5.2184e-09 4.52577e-07 -1.3552e-05
0.00252979 -3.86155e-05 -2.69926e-05
-3.86155e-05 0.00108165 6.02028e-05
-2.69926e-05 6.02028e-05 0.000375767
0.00260126 -5.42293e-05 -2.99251e-05
-5.42293e-05 0.000577431 3.39579e-06
-2.99251e-05 3.39579e-06 -0.000434089
0.00132451 0.000394767 8.93359e-05
0.000394767 0.00151802 -7.78518e-05
8.93359e-05 -7.78518e-05 0.00153913
0.00287296 -0.000115853 -9.10183e-06
-0.000115853 5.33077e-05 -1.96301e-05
-9.10183e-06 -1.96301e-05 -0.000208715
0.00931477 0.000247803 4.34236e-05
0.000247803 0.00328752 -3.26564e-05
4.34236e-05 -3.26564e-05 0.0017203
-0.00330255 0.000570984 -1.81028e-05
0.000570984 -0.00308012 3.55246e-05
-1.81028e-05 3.55246e-05 -0.00231145
0.00343047 0.000674248 2.48092e-05
0.000674248 -0.000493448 -1.0215e-06
2.48092e-05 -1.0215e-06 0.000486849
0.00385455 -0.000437048 -6.07679e-05
-0.000437048 0.000301945 9.16909e-07
-6.07679e-05 9.16909e-07 -0.000410913
0.0078527 4.51361e-06 3.38802e-05
4.51361e-06 0.0031817 -1.52225e-05
3.38802e-05 -1.52225e-05 0.00136549
0.00483641 0.000558319 1.57917e-05
0.000558319 0.000279116 -3.62011e-05
1.57917e-05 -3.62011e-05 0.000432751
0.00356675 0.0004051 -1.1431e-05
0.0004051 -0.00150571 1.01304e-06
-1.1431e-05 1.01304e-06 -0.000299189
0.00460145 -0.000776257 -1.84864e-06
-0.000776257 0.000766436 -1.37594e-05
-1.84864e-06 -1.37594e-05 -0.000235724
0.00978708 -0.00034066 5.27301e-05
-0.00034066 0.00474416 -4.96392e-06
5.27301e-05 -4.96392e-06 0.00195548
0.00152174 6.04793e-06 2.31099e-05
6.04793e-06 -0.000567453 -3.94332e-05
2.31099e-05 -3.94332e-05 -0.000687962
0.00503524 4.63325e-05 -1.23532e-05
4.63325e-05 -0.000620321 4.51926e-05
-1.23532e-05 4.51926e-05 0.000871414
0.000817511 -2.84648e-05 3.18989e-07
-2.84648e-05 0.000100363 9.51651e-09
3.18989e-07 9.51651e-09 -8.73637e-06
0.000815039 -3.60953e-05 5.29337e-07
-3.60953e-05 0.000111134 -3.66638e-08
5.29337e-07 -3.66638e-08 2.07788e-06
0.000928955 7.3599e-05 -1.04226e-06
7.3599e-05 0.000176252 3.16053e-07
-1.04226e-06 3.16053e-07 7.61782e-05
0.000781755 4.65698e-06 -4.23137e-07
4.65698e-06 6.44275e-05 7.39126e-08
-4.23137e-07 7.39126e-08 -2.85622e-05
0.000863489 6.21863e-05 -6.58566e-07
6.21863e-05 0.000127882 4.37814e-07
-6.58566e-07 4.37814e-07 2.3254e-05
0.000904485 4.45703e-05 8.32714e-07
4.45703e-05 0.000153799 1.66914e-06
8.32714e-07 1.66914e-06 5.70514e-05
0.000961572 8.25318e-05 -6.66536e-07
8.25318e-05 0.000185 4.14981e-08
-6.66536e-07 4.14981e-08 8.98627e-05
0.00100435 9.07469e-05 9.61607e-07
9.07469e-05 0.000216307 1.47029e-06
9.61607e-07 1.47029e-06 0.000120924
0.00160939 -0.000182004 3.23566e-05
-0.000182004 0.000251136 -1.4769e-05
3.23566e-05 -1.4769e-05 0.000176032
0.000861466 -0.000231425 9.0857e-06
-0.000231425 -0.000160513 -7.90545e-06
9.0857e-06 -7.90545e-06 -0.00017687
0.000801922 -0.000126366 -6.57515e-07
-0.000126366 0.000116017 5.07097e-07
-6.57515e-07 5.07097e-07 -2.75711e-07
0.00183459 -0.000108094 5.37182e-06
-0.000108094 0.00066824 -9.64774e-06
5.37182e-06 -9.64774e-06 0.000487731
0.00120274 -7.48041e-05 -8.18978e-07
-7.48041e-05 0.000333815 -6.23679e-07
-8.18978e-07 -6.23679e-07 0.000195812
0.00095461 -3.56335e-05 -9.97361e-07
-3.56335e-05 0.000195042 1.65831e-07
-9.97361e-07 1.65831e-07 7.53143e-05
0.000867381 1.76278e-05 -3.8004e-08
1.76278e-05 0.000133646 -1.18037e-07
-3.8004e-08 -1.18037e-07 2.16805e-05
0.000685898 -0.000305619 -7.75076e-06
-0.000305619 -0.000279789 5.51249e-07
-7.75076e-06 5.51249e-07 -0.000317638
0.000872028 2.38609e-05 -2.34834e-07
2.38609e-05 0.000146205 -6.20429e-07
-2.34834e-07 -6.20429e-07 1.24206e-05
0.000962436 -5.05561e-05 1.23366e-07
-5.05561e-05 0.000174846 9.33491e-07
1.23366e-07 9.33491e-07 4.99477e-05
0.000417254 -8.81465e-05 7.21095e-07
-8.81465e-05 -5.54134e-05 3.6242e-06
7.21095e-07 3.6242e-06 -0.000123065
0.000774079 7.43902e-06 7.90188e-07
7.43902e-06 5.84034e-05 8.07569e-07
7.90188e-07 8.07569e-07 -3.52589e-05
0.000568517 -0.000277447 4.68716e-05
-0.000277447 -0.000248795 -3.02657e-05
4.68716e-05 -3.02657e-05 -0.000175004
0.000923922 -6.52739e-05 -1.09792e-05
-6.52739e-05 0.000428818 1.94326e-05
-1.09792e-05 1.94326e-05 0.000317243
0.000650765 3.5796e-06 -1.36118e-06
3.5796e-06 1.0626e-05 6.66211e-06
-1.36118e-06 6.66211e-06 -0.000103382
0.0009411 0.000118459 1.50746e-06
0.000118459 0.0001815 8.51992e-07
1.50746e-06 8.51992e-07 6.20652e-05
0.00137562 -1.89301e-05 -2.16872e-05
-1.89301e-05 0.000285198 -8.59867e-07
-2.16872e-05 -8.59867e-07 9.1967e-05
0.00129103 -2.89769e-05 3.9486e-05
-2.89769e-05 0.000173921 -2.71762e-06
3.9486e-05 -2.71762e-06 -0.000395488
-0.00246972 -4.15081e-05 -2.08086e-05
-4.15081e-05 0.000318492 1.82812e-06
-2.08086e-05 1.82812e-06 -0.000694514
0.00107498 0.000125115 1.62884e-05
0.000125115 0.000401443 4.25378e-06
1.62884e-05 4.25378e-06 0.000317346
6.24705e-05 0.000186214 2.09195e-05
0.000186214 -9.41286e-06 1.09172e-05
2.09195e-05 1.09172e-05 -0.000183143
0.00216362 -3.00051e-05 6.63117e-05
-3.00051e-05 0.000698306 1.27161e-05
6.63117e-05 1.27161e-05 0.000152938
0.00773116 -7.45123e-05 8.93788e-05
-7.45123e-05 0.00331043 4.15544e-05
8.93788e-05 4.15544e-05 0.000937374
0.00238823 0.000448913 -7.42795e-05
0.000448913 0.000550747 -8.59757e-05
-7.42795e-05 -8.59757e-05 -0.000313269
0.00308456 -0.000264501 2.29767e-05
-0.000264501 0.000309298 -2.88672e-05
2.29767e-05 -2.88672e-05 -0.000288247
0.00169068 5.54218e-05 2.70376e-05
5.54218e-05 0.000243184 7.98214e-05
2.70376e-05 7.98214e-05 -0.000656593
0.00285992 -6.92653e-06 3.14937e-06
-6.92653e-06 -0.00286753 -3.32234e-05
3.14937e-06 -3.32234e-05 -0.000792182
0.000736821 9.74162e-05 -1.13409e-07
9.74162e-05 0.000295188 -8.67637e-07
-1.13409e-07 -8.67637e-07 0.000212032
0.00122519 -3.38565e-05 -3.05253e-07
-3.38565e-05 0.000185174 -7.81314e-06
-3.05253e-07 -7.81314e-06 -6.94032e-05
0.00218529 1.28909e-05 1.82861e-05
1.28909e-05 0.00044719 5.98269e-06
1.82861e-05 5.98269e-06 -0.000216658
-0.000872074 7.29253e-05 -1.29347e-05
7.29253e-05 -0.000356585 -4.77781e-06
-1.29347e-05 -4.77781e-06 -0.000619626
0.00366664 0.000422872 8.32428e-06
0.000422872 -0.00148801 -6.47586e-07
8.32428e-06 -6.47586e-07 -0.000290559
0.00558863 0.000654572 5.90979e-05
0.000654572 0.00208819 1.71361e-05
5.90979e-05 1.71361e-05 -0.000269243
0.00296799 0.000180694 -4.41546e-05
0.000180694 0.00156729 3.65961e-07
-4.41546e-05 3.65961e-07 0.00102723
0.000576551 0.000130708 -2.25839e-05
0.000130708 0.000285302 -1.12112e-05
-2.25839e-05 -1.12112e-05 0.000146645
0.00160904 5.75153e-06 -7.84273e-07
5.75153e-06 0.000245791 -2.33565e-05
-7.84273e-07 -2.33565e-05 2.91062e-05
0.00264288 -2.99902e-05 2.70765e-05
-2.99902e-05 0.00104904 -6.08787e-05
2.70765e-05 -6.08787e-05 0.000393443
0.00431294 0.000670294 7.56519e-05
0.000670294 -0.000148862 -6.08757e-05
7.56519e-05 -6.08757e-05 0.000840446
0.0030999 0.000125053 -3.68203e-05
0.000125053 -8.68649e-05 3.77109e-05
-3.68203e-05 3.77109e-05 -2.01066e-05
0.00231329 0.000249145 1.68012e-05
0.000249145 0.000403323 -2.71603e-05
1.68012e-05 -2.71603e-05 0.000450675
0.00140545 0.000172146 7.96888e-05
0.000172146 0.00165633 2.94006e-05
7.96888e-05 2.94006e-05 -0.00179693
0.000668817 9.97198e-05 5.78747e-06
9.97198e-05 5.09787e-05 7.12175e-06
5.78747e-06 7.12175e-06 6.14467e-07
0.000706742 4.94793e-05 7.91952e-06
4.94793e-05 0.000180995 1.17117e-06
7.91952e-06 1.17117e-06 0.000133337
-0.000116626 7.94318e-06 1.74052e-06
7.94318e-06 -4.23225e-05 -1.4903e-05
1.74052e-06 -1.4903e-05 -0.00012591
0.000701579 1.00861e-05 9.80373e-08
1.00861e-05 5.42025e-06 2.37283e-06
9.80373e-08 2.37283e-06 -7.49986e-05
0.000649088 -3.34752e-05 -6.00412e-08
-3.34752e-05 3.42475e-06 4.47269e-06
-6.00412e-08 4.47269e-06 -6.32457e-05
0.00053359 -3.16452e-05 -1.43711e-06
-3.16452e-05 -3.57521e-06 1.10338e-05
-1.43711e-06 1.10338e-05 -5.04134e-05
0.000747686 -1.99344e-05 -3.15829e-08
-1.99344e-05 6.19797e-05 -3.57253e-07
-3.15829e-08 -3.57253e-07 -5.28095e-06
0.000534982 -1.45859e-05 3.21786e-06
-1.45859e-05 3.13526e-05 2.00172e-06
3.21786e-06 2.00172e-06 -3.37603e-06
0.000535921 -0.000104359 4.48827e-06
-0.000104359 0.000136335 -5.88334e-06
4.48827e-06 -5.88334e-06 2.88668e-06
0.000921846 3.33801e-06 -7.32605e-07
3.33801e-06 0.000144768 2.59057e-06
-7.32605e-07 2.59057e-06 7.74652e-05
0.00073859 4.79052e-05 -1.12063e-06
4.79052e-05 4.14298e-05 1.82842e-06
-1.12063e-06 1.82842e-06 -3.52571e-05
0.00117468 -6.39156e-05 1.00519e-06
-6.39156e-05 0.000311392 1.05652e-06
1.00519e-06 1.05652e-06 0.000224422
0.000216957 -7.02515e-05 4.08002e-06
-7.02515e-05 -0.000120181 1.41158e-06
4.08002e-06 1.41158e-06 -0.000302558
0.000573037 -1.56604e-05 -4.62136e-06
-1.56604e-05 -2.81185e-05 6.15316e-07
-4.62136e-06 6.15316e-07 -0.000103956
0.000323504 -7.95102e-05 1.31257e-06
-7.95102e-05 -0.000154999 -5.72721e-07
1.31257e-06 -5.72721e-07 -0.000288888
0.00104767 -0.000178007 5.16931e-06
-0.000178007 0.000217426 -1.08836e-06
5.16931e-06 -1.08836e-06 1.81174e-05
0.00114703 -0.000193458 -1.45967e-06
-0.000193458 0.000174416 3.98738e-06
-1.45967e-06 3.98738e-06 -2.78466e-05
0.00144786 -0.000112274 -2.35568e-06
-0.000112274 0.000452337 -3.80955e-07
-2.35568e-06 -3.80955e-07 0.000324328
0.000652636 -0.000142665 -3.8047e-07
-0.000142665 -1.18174e-05 1.49226e-08
-3.8047e-07 1.49226e-08 -0.000184229
0.00160418 -0.000207774 1.14067e-06
-0.000207774 0.000499087 -1.54545e-06
1.14067e-06 -1.54545e-06 0.000333186
0.000367866 -9.18252e-05 -1.48844e-06
-9.18252e-05 -0.000120176 -3.62577e-07
-1.48844e-06 -3.62577e-07 -0.000267166
0.00088721 -0.000147708 -1.20856e-07
-0.000147708 0.000128339 6.32028e-07
-1.20856e-07 6.32028e-07 -3.67328e-05
0.0008 -1.63069e-05 9.44629e-08
-1.63069e-05 9.81161e-05 7.95359e-07
9.44629e-08 7.95359e-07 -3.68444e-06
0.0010109 -0.000117111 -2.13083e-06
-0.000117111 0.000232713 1.71703e-06
-2.13083e-06 1.71703e-06 0.000101723
0.000518233 -0.000116395 -1.17999e-06
-0.000116395 -5.97723e-05 -9.66497e-07
-1.17999e-06 -9.66497e-07 -0.000217551
0.000725009 4.76795e-05 2.69003e-07
4.76795e-05 3.82581e-05 8.89401e-07
2.69003e-07 8.89401e-07 -3.30567e-05
0.000716645 -6.99219e-06 7.18934e-07
-6.99219e-06 4.71716e-05 -1.07283e-07
7.18934e-07 -1.07283e-07 -4.4123e-05
0.000805343 -3.51448e-05 1.09906e-06
-3.51448e-05 0.000114195 -2.68433e-06
1.09906e-06 -2.68433e-06 1.00897e-06
0.00079153 1.22851e-05 -9.97488e-09
1.22851e-05 8.33676e-05 -5.48189e-07
-9.97488e-09 -5.48189e-07 4.41373e-06
0.000759217 1.32911e-05 -5.23589e-07
1.32911e-05 4.98952e-05 -1.48423e-07
-5.23589e-07 -1.48423e-07 -1.39534e-05
0.000704002 4.18402e-05 -1.55869e-06
4.18402e-05 1.08381e-05 1.49166e-06
-1.55869e-06 1.49166e-06 -3.25708e-05
0.000787038 -2.13172e-05 8.58387e-07
-2.13172e-05 6.40932e-05 -6.03468e-07
8.58387e-07 -6.03468e-07 1.40916e-06
0.000715665 3.32029e-05 -1.3501e-07
3.32029e-05 1.06827e-05 3.47212e-09
-1.3501e-07 3.47212e-09 -3.05678e-05
0.000643976 4.00727e-05 -1.11228e-06
4.00727e-05 -3.04299e-05 3.55008e-06
-1.11228e-06 3.55008e-06 -4.30261e-05
0.000730555 2.05047e-05 1.49964e-06
2.05047e-05 1.3741e-05 -1.56678e-06
1.49964e-06 -1.56678e-06 -2.61531e-05
0.000654798 3.41796e-05 1.2099e-07
3.41796e-05 -3.12715e-05 2.98007e-08
1.2099e-07 2.98007e-08 -4.23472e-05
0.00211774 5.57957e-05 -4.67011e-06
5.57957e-05 0.000805308 1.67588e-06
-4.67011e-06 1.67588e-06 0.000819881
0.000647719 2.76538e-05 7.83267e-07
2.76538e-05 -4.09682e-05 -3.51621e-06
7.83267e-07 -3.51621e-06 -5.10306e-05
0.00152025 3.55565e-05 8.13683e-06
3.55565e-05 0.00045917 -1.16962e-06
8.13683e-06 -1.16962e-06 0.000472295
0.00223218 3.33256e-05 1.2804e-05
3.33256e-05 0.000859363 -4.3344e-06
1.2804e-05 -4.3344e-06 0.000876665
0.000584257 -1.32385e-05 -1.71497e-07
-1.32385e-05 -5.06872e-05 -1.08468e-06
-1.71497e-07 -1.08468e-06 -0.000122244
0.000445647 -1.08076e-05 -3.69814e-07
-1.08076e-05 -0.000144987 -2.54506e-06
-3.69814e-07 -2.54506e-06 -0.000188648
0.000715057 7.09007e-06 -3.67138e-07
7.09007e-06 3.02904e-05 -6.21784e-07
-3.67138e-07 -6.21784e-07 -4.23324e-05
0.000672868 -1.94133e-05 -2.75386e-07
-1.94133e-05 -3.24334e-05 -3.65161e-06
-2.75386e-07 -3.65161e-06 -4.0368e-05
0.000446129 -9.27712e-06 -1.26708e-07
-9.27712e-06 -0.000144573 -7.91973e-07
-1.26708e-07 -7.91973e-07 -0.000185218
0.000860351 9.40071e-06 -4.78564e-08
9.40071e-06 0.000115951 1.13762e-06
-4.78564e-08 1.13762e-06 4.66714e-05
0.0021344 -2.17937e-05 -8.93362e-06
-2.17937e-05 0.000799235 -4.57063e-06
-8.93362e-06 -4.57063e-06 0.000818675
0.000678281 -1.25687e-05 -1.26612e-07
-1.25687e-05 -3.2116e-05 -2.25459e-08
-1.26612e-07 -2.25459e-08 -3.79512e-05
0.000436282 -8.28893e-06 1.56831e-07
-8.28893e-06 -0.000149903 1.87095e-06
1.56831e-07 1.87095e-06 -0.000187785
0.00208814 -1.03806e-05 -3.0458e-06
-1.03806e-05 0.000770558 2.95311e-08
-3.0458e-06 2.95311e-08 0.00079109
0.000682008 -5.85263e-06 2.17422e-07
-5.85263e-06 -3.15443e-05 3.45529e-06
2.17422e-07 3.45529e-06 -3.61151e-05
0.00208159 8.54126e-07 -2.99515e-07
8.54126e-07 0.000766235 4.62903e-06
-2.99515e-07 4.62903e-06 0.000786985
0.00149737 2.10848e-05 -1.58461e-05
2.10848e-05 0.000409756 1.86942e-05
-1.58461e-05 1.86942e-05 0.000162343
0.0015193 -2.7165e-06 9.47348e-06
-2.7165e-06 0.000234855 -2.95011e-06
9.47348e-06 -2.95011e-06 -0.000383918
0.0017314 0.000120353 4.12109e-05
0.000120353 0.00195579 -2.50518e-05
4.12109e-05 -2.50518e-05 0.00154814
0.000837878 4.42056e-05 1.8546e-08
4.42056e-05 0.000100812 1.87405e-07
1.8546e-08 1.87405e-07 1.2587e-05
0.000733786 1.32431e-05 1.15311e-07
1.32431e-05 3.35378e-05 4.67832e-07
1.15311e-07 4.67832e-07 -4.87254e-05
0.000902316 6.45225e-05 -1.31321e-07
6.45225e-05 0.000134317 1.09829e-06
-1.31321e-07 1.09829e-06 4.14948e-05
0.00168403 -2.55387e-06 1.71792e-06
-2.55387e-06 9.03837e-05 9.62381e-05
1.71792e-06 9.62381e-05 -0.000723548
0.0025545 -2.48269e-05 -5.34686e-06
-2.48269e-05 0.00106661 1.05535e-06
-5.34686e-06 1.05535e-06 0.000363983
0.00285967 -6.8797e-05 4.87643e-05
-6.8797e-05 0.000780791 -6.92511e-05
4.87643e-05 -6.92511e-05 -0.000288998
0.0044966 -0.000463532 -5.02742e-05
-0.000463532 0.000834565 -3.58588e-07
-5.02742e-05 -3.58588e-07 0.000101935
0.000999787 -0.000208653 -6.74104e-05
-0.000208653 -3.56334e-05 3.606e-05
-6.74104e-05 3.606e-05 -0.00213098
0.00623054 0.000709717 6.30857e-05
0.000709717 0.00172016 -7.57641e-08
6.30857e-05 -7.57641e-08 0.00164861
0.00139091 0.000230436 1.82117e-05
0.000230436 -0.00280924 -4.56586e-05
1.82117e-05 -4.56586e-05 -0.00156325
0.00501095 -0.000798306 -7.87014e-06
-0.000798306 0.00132376 5.07676e-06
-7.87014e-06 5.07676e-06 0.000601862
0.00561804 -0.000342692 8.01424e-06
-0.000342692 0.00244406 6.63355e-07
8.01424e-06 6.63355e-07 8.77854e-05
-0.00139797 0.000173013 -8.59089e-06
0.000173013 -0.00083127 -3.51464e-05
-8.59089e-06 -3.51464e-05 -0.00142481
0.00390207 -8.56503e-06 -9.40794e-06
-8.56503e-06 -0.00171694 1.46262e-05
-9.40794e-06 1.46262e-05 2.01567e-05
0.00257945 -0.000599276 -2.5059e-05
-0.000599276 8.75202e-05 -2.74631e-05
-2.5059e-05 -2.74631e-05 -0.000544
0.0104197 -0.00063075 3.86382e-05
-0.00063075 0.00482629 2.48466e-05
3.86382e-05 2.48466e-05 0.00202051
-0.0066825 7.75214e-06 4.42812e-05
7.75214e-06 -0.00107688 -6.46649e-05
4.42812e-05 -6.46649e-05 -0.00213624
0.00211613 -0.000362806 4.41514e-07
-0.000362806 -0.00196538 9.84285e-08
4.41514e-07 9.84285e-08 -0.000678728
0.000827247 2.30273e-05 -1.9697e-07
2.30273e-05 9.01523e-05 1.02586e-06
-1.9697e-07 1.02586e-06 -1.0328e-05
0.000801801 -6.4652e-06 1.09801e-07
-6.4652e-06 9.20233e-05 -1.80114e-07
1.09801e-07 -1.80114e-07 -1.79207e-05
0.000814973 -4.96997e-05 3.89919e-07
-4.96997e-05 0.000112941 9.89373e-08
3.89919e-07 9.89373e-08 1.96604e-06
0.0008149 2.79419e-05 -4.06439e-07
2.79419e-05 8.4075e-05 -3.62024e-07
-4.06439e-07 -3.62024e-07 -1.05561e-05
0.000974323 0.000102765 1.36754e-06
0.000102765 0.000189152 5.02649e-07
1.36754e-06 5.02649e-07 8.5883e-05
0.00103796 9.3272e-05 -4.02545e-07
9.3272e-05 0.000228583 3.02968e-07
-4.02545e-07 3.02968e-07 0.000132208
0.00157826 -0.000353855 4.01074e-06
-0.000353855 0.000173716 5.74795e-06
4.01074e-06 5.74795e-06 9.20666e-05
-0.000683498 -6.00759e-05 9.85849e-06
-6.00759e-05 -0.000657736 -1.13482e-05
9.85849e-06 -1.13482e-05 -0.000691071
0.00099636 6.12233e-05 2.52139e-08
6.12233e-05 0.000212364 7.40447e-08
2.52139e-08 7.40447e-08 9.47489e-05
0.00135435 -0.000101562 1.114e-05
-0.000101562 0.000367186 -1.54249e-05
1.114e-05 -1.54249e-05 0.000241475
0.000916778 8.23469e-06 -2.23019e-08
8.23469e-06 0.000172891 -1.86646e-06
-2.23019e-08 -1.86646e-06 4.32987e-05
0.000787132 9.89817e-06 2.82631e-07
9.89817e-06 6.59321e-05 -1.64148e-07
2.82631e-07 -1.64148e-07 -3.18659e-05
0.000891866 6.8589e-05 7.63803e-07
6.8589e-05 0.000151392 -3.80383e-07
7.63803e-07 -3.80383e-07 3.95683e-05
0.000451136 -0.000265922 -4.19011e-06
-0.000265922 -0.000313459 -2.42733e-06
-4.19011e-06 -2.42733e-06 -0.000318826
0.000971044 -3.39743e-05 1.42608e-06
-3.39743e-05 0.000196471 -3.17137e-06
1.42608e-06 -3.17137e-06 9.10491e-05
0.000409495 -3.19955e-05 1.62348e-05
-3.19955e-05 0.000158616 -1.59729e-07
1.62348e-05 -1.59729e-07 4.99937e-05
0.000926655 3.82075e-05 1.97557e-06
3.82075e-05 0.000156517 8.95102e-07
1.97557e-06 8.95102e-07 6.35816e-05
-0.00220627 5.21751e-05 -1.25208e-05
5.21751e-05 -0.00105778 -2.76385e-05
-1.25208e-05 -2.76385e-05 -0.0013778
0.000879603 -9.80451e-06 9.83544e-07
-9.80451e-06 0.000367635 2.14034e-05
9.83544e-07 2.14034e-05 0.000311904
0.000977305 4.33305e-06 1.64373e-06
4.33305e-06 0.00023513 2.69996e-06
1.64373e-06 2.69996e-06 0.00014532
0.00169477 -1.26234e-05 -2.2304e-06
-1.26234e-05 0.000255613 -1.71034e-07
-2.2304e-06 -1.71034e-07 0.000139212
0.0011376 -1.47099e-05 -8.46444e-06
-1.47099e-05 0.000155225 -2.28645e-06
-8.46444e-06 -2.28645e-06 -1.46124e-05
0.0011403 -3.46828e-05 0.000115615
-3.46828e-05 0.000113938 -1.85005e-06
0.000115615 -1.85005e-06 -0.000464371
0.00102604 0.000144955 1.93804e-05
0.000144955 0.000446348 1.29524e-05
1.93804e-05 1.29524e-05 0.00035396
0.00315594 0.000372978 -6.25e-07
0.000372978 0.00127582 -1.63818e-05
-6.25e-07 -1.63818e-05 0.00111052
0.00129201 -3.11109e-05 1.11857e-05
-3.11109e-05 0.00022653 7.75968e-06
1.11857e-05 7.75968e-06 -1.44037e-05
-0.000136765 0.000336491 3.67465e-06
0.000336491 -0.000156561 9.76201e-06
3.67465e-06 9.76201e-06 -0.00250899
-0.00888866 2.36517e-05 -3.47436e-05
2.36517e-05 -0.00358398 -5.25976e-05
-3.47436e-05 -5.25976e-05 -0.00468713
0.00252049 2.09172e-05 2.17676e-05
2.09172e-05 0.000777575 5.09272e-05
2.17676e-05 5.09272e-05 0.000245883
0.00156171 0.000277306 -1.6533e-05
0.000277306 -0.00275955 4.64795e-05
-1.6533e-05 4.64795e-05 -0.00150513
0.000411862 9.29065e-05 2.51621e-06
9.29065e-05 0.000224835 -7.99811e-07
2.51621e-06 -7.99811e-07 9.96297e-05
0.0013777 -3.63705e-06 5.38968e-06
-3.63705e-06 0.000121624 -9.84463e-06
5.38968e-06 -9.84463e-06 -6.8158e-05
0.00261726 -1.97944e-05 5.29346e-06
-1.97944e-05 0.00101822 -1.28425e-06
5.29346e-06 -1.28425e-06 0.000348835
0.00102207 0.00020126 2.66017e-05
0.00020126 -0.00028524 -1.94838e-06
2.66017e-05 -1.94838e-06 -0.000515209
0.00194587 0.000627611 2.33243e-05
0.000627611 -0.00150185 -5.31521e-05
2.33243e-05 -5.31521e-05 -0.000463295
-0.00116674 0.000180637 8.43407e-06
0.000180637 -0.00129575 3.1577e-05
8.43407e-06 3.1577e-05 -0.00148356
0.00643517 4.711e-05 5.86183e-05
4.711e-05 0.00381467 -1.88387e-05
5.86183e-05 -1.88387e-05 0.000246416
6.7332e-05 1.49558e-05 1.37258e-05
1.49558e-05 0.000281546 -1.09498e-05
1.37258e-05 -1.09498e-05 1.44937e-05
0.00145618 2.19998e-05 1.37727e-05
2.19998e-05 0.000359189 -1.8836e-05
1.37727e-05 -1.8836e-05 0.000120714
0.00253913 -2.86583e-05 0.000106882
-2.86583e-05 0.000394092 -8.66046e-05
0.000106882 -8.66046e-05 -0.000503159
0.00260083 0.000867683 1.02499e-06
0.000867683 0.00117535 -1.12102e-05
1.02499e-06 -1.12102e-05 0.00224854
-0.00603041 0.000258111 4.40725e-05
0.000258111 -0.0047009 9.96327e-05
4.40725e-05 9.96327e-05 -0.00441939
0.0102888 -0.000359592 4.34635e-05
-0.000359592 0.00437408 -6.02998e-05
4.34635e-05 -6.02998e-05 0.00162724
0.00482958 -0.000316629 -8.15938e-05
-0.000316629 0.00130562 0.000116292
-8.15938e-05 0.000116292 0.00132517
0.0010479 5.03999e-05 3.23397e-06
5.03999e-05 0.000380291 6.3243e-06
3.23397e-06 6.3243e-06 0.00033074
6.27762e-05 -1.58673e-05 -4.91737e-06
-1.58673e-05 2.45515e-05 -1.39563e-06
-4.91737e-06 -1.39563e-06 -6.49591e-05
-0.00017669 -0.000121316 6.51857e-06
-0.000121316 -2.00138e-05 -1.24973e-05
6.51857e-06 -1.24973e-05 -0.000223085
0.000744866 -3.29862e-05 4.96256e-07
-3.29862e-05 6.22939e-05 1.88528e-06
4.96256e-07 1.88528e-06 -7.42135e-06
0.000663865 -1.22081e-05 1.28475e-05
-1.22081e-05 9.40763e-05 1.30048e-05
1.28475e-05 1.30048e-05 6.09365e-05
0.000408053 -5.38254e-05 -1.21265e-06
-5.38254e-05 6.65645e-05 8.6836e-08
-1.21265e-06 8.6836e-08 -5.17101e-05
0.00115749 -0.000175104 1.9297e-05
-0.000175104 0.000482504 -1.27196e-05
1.9297e-05 -1.27196e-05 0.000247394
0.00170039 -9.10675e-05 -2.8277e-06
-9.10675e-05 0.000592117 2.45524e-06
-2.8277e-06 2.45524e-06 0.000498623
0.00133387 -0.000174537 1.23034e-06
-0.000174537 0.000448217 4.39001e-07
1.23034e-06 4.39001e-07 0.000260661
0.00101404 -0.000191479 7.94834e-06
-0.000191479 0.000274151 2.3375e-06
7.94834e-06 2.3375e-06 -2.39643e-05
0.000124896 -6.90958e-05 -2.22293e-06
-6.90958e-05 -0.00026128 -1.61043e-06
-2.22293e-06 -1.61043e-06 -0.000384382
0.00106276 -0.000176884 -3.44973e-07
-0.000176884 0.000216875 1.04939e-06
-3.44973e-07 1.04939e-06 1.13207e-05
0.00222592 -0.000295293 2.13764e-06
-0.000295293 0.000745606 1.37631e-06
2.13764e-06 1.37631e-06 0.00049394
0.00164184 -0.000257745 -2.69766e-06
-0.000257745 0.000306569 1.31855e-06
-2.69766e-06 1.31855e-06 8.3392e-05
0.000576895 -0.00014492 -1.88817e-07
-0.00014492 -0.000112989 5.30161e-06
-1.88817e-07 5.30161e-06 -0.000292803
0.00127342 -0.000202938 -2.19265e-06
-0.000202938 0.000244684 1.41717e-06
-2.19265e-06 1.41717e-06 3.97933e-05
0.000916741 -0.000163122 -3.47737e-06
-0.000163122 0.000126377 6.07956e-07
-3.47737e-06 6.07956e-07 -5.18754e-05
0.00134417 -0.00018321 2.95363e-06
-0.00018321 0.000376891 -2.69434e-06
2.95363e-06 -2.69434e-06 0.000220229
0.00117118 -0.000173534 2.55874e-06
-0.000173534 0.000265575 -2.19163e-06
2.55874e-06 -2.19163e-06 0.000109528
0.000564596 -4.5698e-05 1.20598e-06
-4.5698e-05 -2.19139e-05 1.12546e-06
1.20598e-06 1.12546e-06 -0.000147918
0.000763641 -0.000118047 1.0632e-06
-0.000118047 9.92765e-05 -3.3079e-07
1.0632e-06 -3.3079e-07 -4.88616e-05
0.00110861 -0.000162535 4.69458e-06
-0.000162535 0.000250748 -2.84447e-06
4.69458e-06 -2.84447e-06 8.83899e-05
0.000729098 5.76993e-05 9.76173e-07
5.76993e-05 4.99315e-05 1.31372e-06
9.76173e-07 1.31372e-06 -3.47158e-05
0.000877646 -3.75781e-05 -2.20244e-07
-3.75781e-05 0.000143004 -1.01907e-07
-2.20244e-07 -1.01907e-07 3.76195e-05
0.00100852 -0.000112876 -6.45457e-07
-0.000112876 0.000229777 -2.87749e-07
-6.45457e-07 -2.87749e-07 9.85521e-05
0.000679931 5.26862e-05 -9.08424e-07
5.26862e-05 6.35858e-06 1.60625e-06
-9.08424e-07 1.60625e-06 -4.1853e-05
0.000758972 2.25489e-05 -7.00688e-07
2.25489e-05 5.55059e-05 -2.80904e-07
-7.00688e-07 -2.80904e-07 -1.56979e-05
0.000586223 2.89092e-07 -1.80556e-07
2.89092e-07 -2.32813e-05 -8.78047e-07
-1.80556e-07 -8.78047e-07 -0.000115747
0.000793687 -1.0515e-05 7.25996e-07
-1.0515e-05 6.87569e-05 -9.45536e-07
7.25996e-07 -9.45536e-07 4.40588e-06
0.000709808 3.93844e-05 -2.76449e-07
3.93844e-05 1.36545e-05 -4.56071e-08
-2.76449e-07 -4.56071e-08 -2.95889e-05
0.000627893 4.62921e-05 -1.27169e-06
4.62921e-05 -3.10117e-05 3.56769e-06
-1.27169e-06 3.56769e-06 -4.5808e-05
0.000722219 3.01309e-05 1.56672e-06
3.01309e-05 1.34927e-05 -1.59117e-06
1.56672e-06 -1.59117e-06 -2.74376e-05
0.000647958 4.09097e-05 7.75405e-08
4.09097e-05 -2.82055e-05 1.60747e-08
7.75405e-08 1.60747e-08 -4.08446e-05
0.00215484 6.06301e-05 -2.24828e-05
6.06301e-05 0.000833203 3.64559e-06
-2.24828e-05 3.64559e-06 0.000846653
0.000650739 3.47631e-05 8.97475e-07
3.47631e-05 -3.37617e-05 -3.52454e-06
8.97475e-07 -3.52454e-06 -4.48325e-05
0.00150283 4.4196e-05 9.51726e-06
4.4196e-05 0.000456287 -1.03019e-06
9.51726e-06 -1.03019e-06 0.000467992
0.00221155 4.34377e-05 1.64277e-05
4.34377e-05 0.000853043 -4.06977e-06
1.64277e-05 -4.06977e-06 0.000869256
0.000762168 3.64187e-05 -5.75814e-07
3.64187e-05 4.76198e-05 -4.25425e-07
-5.75814e-07 -4.25425e-07 -2.44976e-05
0.000706405 -6.43589e-06 -6.84513e-07
-6.43589e-06 4.15238e-07 -1.84415e-06
-6.84513e-07 -1.84415e-06 -4.37934e-05
0.00066652 2.42863e-05 -8.26292e-07
2.42863e-05 1.02821e-06 -5.54782e-07
-8.26292e-07 -5.54782e-07 -7.39454e-05
0.000660405 -2.6171e-05 -1.50415e-07
-2.6171e-05 -3.53926e-05 -3.77661e-06
-1.50415e-07 -3.77661e-06 -4.58648e-05
0.00057116 -6.67194e-06 -5.53597e-07
-6.67194e-06 -7.48114e-05 -7.91542e-07
-5.53597e-07 -7.91542e-07 -0.000117474
0.000864225 1.30473e-05 2.04048e-07
1.30473e-05 0.000114178 1.58722e-07
2.04048e-07 1.58722e-07 4.22095e-05
0.00219585 -3.24077e-05 -1.31489e-05
-3.24077e-05 0.000837557 -4.47437e-06
-1.31489e-05 -4.47437e-06 0.000855507
0.000670773 -1.90381e-05 -1.99892e-07
-1.90381e-05 -3.36318e-05 -1.91351e-08
-1.99892e-07 -1.91351e-08 -4.14799e-05
0.000422972 -9.69842e-06 -1.30246e-07
-9.69842e-06 -0.000157639 1.14827e-06
-1.30246e-07 1.14827e-06 -0.000198666
0.00212392 -2.08556e-05 -2.87104e-06
-2.08556e-05 0.000792878 6.02741e-08
-2.87104e-06 6.02741e-08 0.00081253
0.000677855 -1.232e-05 3.03962e-07
-1.232e-05 -3.22738e-05 3.52721e-06
3.03962e-07 3.52721e-06 -3.80694e-05
0.00208599 -9.463e-06 4.08154e-06
-9.463e-06 0.000769112 4.62413e-06
4.08154e-06 4.62413e-06 0.000789709
0.00155847 -8.20533e-06 -3.44259e-06
-8.20533e-06 0.000246107 2.42887e-05
-3.44259e-06 2.42887e-05 -1.2974e-06
0.00139649 1.60138e-05 -3.99248e-06
1.60138e-05 0.000335846 6.6718e-07
-3.99248e-06 6.6718e-07 6.73078e-05
0.00167974 5.05146e-06 8.23556e-05
5.05146e-06 0.000378892 -2.14128e-05
8.23556e-05 -2.14128e-05 -0.000254781
0.000708857 -2.58506e-05 4.06485e-08
-2.58506e-05 1.47e-05 -1.45861e-07
4.06485e-08 -1.45861e-07 -6.25021e-05
0.000873787 4.19269e-06 -6.26905e-07
4.19269e-06 0.000115329 -3.90434e-07
-6.26905e-07 -3.90434e-07 3.08848e-05
0.000860264 4.08472e-05 1.26627e-06
4.08472e-05 0.00011242 -6.58399e-08
1.26627e-06 -6.58399e-08 2.63569e-05
0.000738563 -1.55082e-06 1.45636e-07
-1.55082e-06 3.16112e-05 8.62839e-08
1.45636e-07 8.62839e-08 -4.72183e-05
0.000819276 2.33142e-05 -4.83004e-08
2.33142e-05 8.73355e-05 2.28068e-07
-4.83004e-08 2.28068e-07 -4.52832e-06
0.000843224 3.6463e-06 -9.04592e-07
3.6463e-06 9.78796e-05 5.19455e-07
-9.04592e-07 5.19455e-07 1.21484e-05
0.000896667 0.000133186 9.00086e-07
0.000133186 0.000143426 1.00856e-06
9.00086e-07 1.00856e-06 3.85682e-05
0.00104986 1.96145e-05 2.92867e-05
1.96145e-05 0.000207435 9.2788e-05
2.92867e-05 9.2788e-05 -0.000670118
0.00208822 5.80436e-06 -4.45013e-06
5.80436e-06 0.00047292 2.7931e-05
-4.45013e-06 2.7931e-05 -0.000196044
0.00250176 -1.02446e-05 1.57981e-05
-1.02446e-05 0.00101224 -5.38825e-05
1.57981e-05 -5.38825e-05 0.000305513
0.00275854 -4.23741e-05 -1.12065e-05
-4.23741e-05 -0.0028361 2.45657e-06
-1.12065e-05 2.45657e-06 -0.00085495
0.00351374 -0.000688681 -2.98612e-05
-0.000688681 0.000849013 5.60369e-05
-2.98612e-05 5.60369e-05 -4.09218e-05
-0.00122961 -0.000507084 3.79026e-05
-0.000507084 -0.000795522 1.41493e-05
3.79026e-05 1.41493e-05 -0.00330311
0.00560898 0.000713106 4.12471e-05
0.000713106 0.00309587 -2.63191e-05
4.12471e-05 -2.63191e-05 0.00195419
0.00446172 -0.000757768 -1.55215e-05
-0.000757768 0.000995737 2.99722e-06
-1.55215e-05 2.99722e-06 0.000219182
0.000424835 -0.000330976 4.20297e-05
-0.000330976 0.000344897 -8.45274e-06
4.20297e-05 -8.45274e-06 -0.00237417
0.00378202 -7.03269e-05 -3.02741e-05
-7.03269e-05 0.00184852 1.70531e-06
-3.02741e-05 1.70531e-06 0.00129353
0.00627641 -0.000494612 -1.72849e-05
-0.000494612 0.00065467 -2.39001e-05
-1.72849e-05 -2.39001e-05 0.00189106
0.00246604 -0.000105904 -3.89055e-05
-0.000105904 -4.86766e-05 2.42323e-05
-3.89055e-05 2.42323e-05 1.03124e-05
0.000333805 0.000198104 2.97809e-05
0.000198104 -3.89431e-05 -6.66747e-05
2.97809e-05 -6.66747e-05 -0.00240955
-0.00591136 -0.00064191 3.77137e-05
-0.00064191 -0.00401984 -2.7675e-05
3.77137e-05 -2.7675e-05 -0.00500477
0.00151469 -0.000494032 1.85239e-05
-0.000494032 -0.00170639 -7.06244e-05
1.85239e-05 -7.06244e-05 -0.000362586
0.000857235 -2.19784e-05 -6.39087e-07
-2.19784e-05 0.000107331 1.70996e-06
-6.39087e-07 1.70996e-06 2.39778e-05
0.000794761 2.2151e-05 1.54775e-07
2.2151e-05 7.3297e-05 8.88529e-08
1.54775e-07 8.88529e-08 -2.72084e-05
0.000780656 7.71834e-06 -4.41277e-07
7.71834e-06 8.47313e-05 -1.04811e-06
-4.41277e-07 -1.04811e-06 -2.84267e-05
0.000834379 3.04066e-05 -1.16065e-08
3.04066e-05 0.000101322 -1.36849e-06
-1.16065e-08 -1.36849e-06 1.78019e-06
0.00117497 -0.000307872 1.12658e-07
-0.000307872 5.85248e-06 1.84166e-05
1.12658e-07 1.84166e-05 -5.39677e-05
0.0005282 -1.72577e-05 -5.45219e-06
-1.72577e-05 0.000226455 -1.53307e-05
-5.45219e-06 -1.53307e-05 0.00013022
0.000725768 -7.1573e-06 -3.32201e-07
-7.1573e-06 2.50558e-05 -1.96164e-06
-3.32201e-07 -1.96164e-06 -7.03565e-05
0.000886487 8.61504e-05 -4.48823e-07
8.61504e-05 0.000155025 -1.16618e-06
-4.48823e-07 -1.16618e-06 4.01931e-05
0.00174389 -4.87024e-05 9.35495e-06
-4.87024e-05 0.000643313 -1.56451e-05
9.35495e-06 -1.56451e-05 0.000534142
0.000797223 1.89567e-05 -5.51502e-07
1.89567e-05 8.2605e-05 -1.11333e-07
-5.51502e-07 -1.11333e-07 -9.09106e-06
0.000782739 1.80374e-05 -9.11995e-07
1.80374e-05 0.000129664 -1.17839e-06
-9.11995e-07 -1.17839e-06 3.77234e-05
-0.000561678 5.66941e-07 -7.60039e-06
5.66941e-07 -0.000280298 -1.07205e-05
-7.60039e-06 -1.07205e-05 -0.000648592
0.00111849 -3.56016e-05 1.36275e-05
-3.56016e-05 0.000524492 2.2268e-07
1.36275e-05 2.2268e-07 0.000479001
0.000638924 1.7155e-05 1.87357e-06
1.7155e-05 4.49554e-05 5.27081e-07
1.87357e-06 5.27081e-07 -3.78832e-05
0.00060979 -5.22525e-06 -1.99387e-05
-5.22525e-06 0.000854083 -5.16571e-05
-1.99387e-05 -5.16571e-05 -0.000152098
0.00231762 2.4692e-05 5.06766e-06
2.4692e-05 0.00112366 1.46857e-05
5.06766e-06 1.46857e-05 0.00103577
0.00141789 -1.48939e-05 1.87716e-05
-1.48939e-05 0.0003143 1.03058e-06
1.87716e-05 1.03058e-06 0.000121772
0.00127683 -1.22623e-05 -5.9061e-07
-1.22623e-05 6.72813e-05 -1.60402e-07
-5.9061e-07 -1.60402e-07 -2.80229e-05
0.000949572 -1.11821e-05 4.22644e-06
-1.11821e-05 6.60372e-05 -2.24787e-06
4.22644e-06 -2.24787e-06 -8.21873e-05
0.000340996 7.31084e-05 8.77711e-06
7.31084e-05 0.000198508 7.15498e-06
8.77711e-06 7.15498e-06 8.9859e-05
0.000951152 0.00017331 -4.30043e-05
0.00017331 -0.000174947 2.32079e-05
-4.30043e-05 2.32079e-05 -0.000228479
0.00116316 -9.6236e-06 8.42418e-06
-9.6236e-06 1.23234e-05 5.11678e-06
8.42418e-06 5.11678e-06 -0.000153423
0.00312551 -0.000458194 0.000144076
-0.000458194 0.00226423 -0.00011725
0.000144076 -0.00011725 -0.000970147
0.00626021 0.000759888 -3.5749e-05
0.000759888 0.00290294 2.60873e-05
-3.5749e-05 2.60873e-05 0.00199931
0.00256296 -1.21433e-05 -1.80292e-05
-1.21433e-05 0.000969485 5.51808e-05
-1.80292e-05 5.51808e-05 0.000285279
0.00354327 0.00067163 -1.97562e-05
0.00067163 -0.000492631 3.09029e-06
-1.97562e-05 3.09029e-06 0.000475506
-0.000558724 6.48279e-06 1.60758e-05
6.48279e-06 -7.20762e-06 1.55417e-06
1.60758e-05 1.55417e-06 -0.000329398
0.00141644 1.77345e-05 4.59348e-06
1.77345e-05 0.000322301 -4.96024e-07
4.59348e-06 -4.96024e-07 7.15733e-05
0.0026687 -5.24119e-05 3.00627e-05
-5.24119e-05 0.000533283 -3.06217e-06
3.00627e-05 -3.06217e-06 -0.00044225
0.00115301 -9.7975e-05 -1.23731e-05
-9.7975e-05 -0.00060881 2.527e-05
-1.23731e-05 2.527e-05 -0.000369214
-0.00128389 0.000913306 3.18847e-05
0.000913306 -0.00109125 -1.13031e-05
3.18847e-05 -1.13031e-05 0.000392176
0.00499155 0.000582145 -1.30943e-05
0.000582145 0.000293308 3.47039e-05
-1.30943e-05 3.47039e-05 0.000553835
-0.00118963 -0.0005208 4.98763e-05
-0.0005208 -0.000242699 -3.49208e-05
4.98763e-05 -3.49208e-05 -0.00362667
0.000793254 -2.13626e-05 4.68201e-05
-2.13626e-05 0.000312104 -7.62151e-06
4.68201e-05 -7.62151e-06 0.000229771
0.00106598 -1.72642e-05 5.92386e-05
-1.72642e-05 -0.000103211 -2.49615e-05
5.92386e-05 -2.49615e-05 -0.000724636
-0.00150795 0.000214195 -5.94945e-05
0.000214195 8.62302e-05 -2.21206e-05
-5.94945e-05 -2.21206e-05 -0.000346777
0.000105927 0.000736292 -5.71254e-05
0.000736292 -0.00051052 8.76275e-05
-5.71254e-05 8.76275e-05 -1.87377e-05
0.00814102 -3.25401e-05 1.46627e-05
-3.25401e-05 0.00365001 -3.03823e-05
1.46627e-05 -3.03823e-05 0.00104718
0.00284817 -0.000300742 -7.76322e-05
-0.000300742 0.000312626 7.41058e-05
-7.76322e-05 7.41058e-05 -4.70492e-06
9.84477e-05 -2.91801e-05 -1.36298e-05
-2.91801e-05 2.22859e-05 1.12012e-05
-1.36298e-05 1.12012e-05 -8.29675e-05
0.000120689 -7.61689e-05 4.88853e-07
-7.61689e-05 0.000144162 -5.42041e-07
4.88853e-07 -5.42041e-07 -4.68788e-05
0.000964578 -0.000186458 1.8761e-05
-0.000186458 0.000351241 -8.39315e-06
1.8761e-05 -8.39315e-06 0.000221171
0.000308166 -5.19426e-06 -3.79604e-06
-5.19426e-06 1.23288e-05 4.03012e-06
-3.79604e-06 4.03012e-06 -9.15846e-05
-0.000208538 -9.05775e-05 6.19952e-07
-9.05775e-05 -0.000209263 -3.29037e-06
6.19952e-07 -3.29037e-06 -0.000451549
0.00173196 -0.000283086 2.00097e-05
-0.000283086 0.000489231 -3.87682e-06
2.00097e-05 -3.87682e-06 0.000259916
0.00245031 -0.000280758 -5.16007e-06
-0.000280758 0.00101671 9.59092e-07
-5.16007e-06 9.59092e-07 0.000822352
0.00156769 -0.000226759 1.95155e-06
-0.000226759 0.00054005 1.1432e-06
1.95155e-06 1.1432e-06 0.000253374
0.000797585 -0.000223285 4.39152e-06
-0.000223285 -7.35487e-05 -4.28165e-06
4.39152e-06 -4.28165e-06 -0.000338654
0.00111663 -0.000179279 -4.43069e-06
-0.000179279 0.000236557 2.06706e-07
-4.43069e-06 2.06706e-07 2.54198e-05
0.00195419 -0.000275296 1.44003e-06
-0.000275296 0.000592612 -2.71997e-08
1.44003e-06 -2.71997e-08 0.000340535
0.00157399 -0.000268095 2.50008e-06
-0.000268095 0.000227982 -4.15356e-06
2.50008e-06 -4.15356e-06 -4.34365e-06
0.00154977 -0.000246849 7.67069e-07
-0.000246849 0.000131172 -2.58021e-06
7.67069e-07 -2.58021e-06 -5.50791e-05
0.00231194 -0.000292661 -4.69921e-06
-0.000292661 0.000703757 5.66707e-06
-4.69921e-06 5.66707e-06 0.000487759
0.0016851 -0.000261632 -1.05451e-06
-0.000261632 0.000323574 -1.56304e-07
-1.05451e-06 -1.56304e-07 9.54761e-05
0.00040381 -0.000128273 2.95471e-06
-0.000128273 -0.000194958 -3.96742e-07
2.95471e-06 -3.96742e-07 -0.000352618
0.000944678 -0.000169487 1.87596e-06
-0.000169487 8.99833e-05 -1.87212e-07
1.87596e-06 -1.87212e-07 -8.57128e-05
0.00145231 -0.000216302 -1.34913e-06
-0.000216302 0.000343601 -1.44272e-06
-1.34913e-06 -1.44272e-06 0.000136023
0.0011116 -0.000158073 1.19253e-06
-0.000158073 0.000262765 -1.43358e-07
1.19253e-06 -1.43358e-07 0.000109746
0.00111368 -0.000164817 -1.11732e-06
-0.000164817 0.000250781 -9.85058e-07
-1.11732e-06 -9.85058e-07 9.50668e-05
0.000770713 -0.000141819 3.17223e-06
-0.000141819 5.08164e-05 -2.11429e-06
3.17223e-06 -2.11429e-06 -9.58486e-05
0.000698787 4.84508e-06 1.39474e-06
4.84508e-06 4.24812e-05 1.35516e-06
1.39474e-06 1.35516e-06 -6.30951e-05
0.000737968 -5.91869e-05 1.9885e-07
-5.91869e-05 7.59815e-05 7.31628e-07
1.9885e-07 7.31628e-07 -5.01211e-05
0.00118425 -0.000146562 1.48857e-06
-0.000146562 0.000332957 -1.34211e-06
1.48857e-06 -1.34211e-06 0.000182851
0.000648208 6.95847e-05 1.62558e-07
6.95847e-05 1.75536e-06 2.12069e-06
1.62558e-07 2.12069e-06 -5.80433e-05
0.000760256 1.64171e-05 -3.38253e-07
1.64171e-05 6.79409e-05 -2.04579e-07
-3.38253e-07 -2.04579e-07 -1.88582e-05
0.000940475 -5.43264e-05 -4.1926e-07
-5.43264e-05 0.000179586 -8.74695e-07
-4.1926e-07 -8.74695e-07 7.09119e-05
0.000615916 5.21868e-05 -2.16348e-06
5.21868e-05 -2.84884e-05 4.93499e-06
-2.16348e-06 4.93499e-06 -4.6024e-05
0.000692176 4.98781e-05 -2.83176e-07
4.98781e-05 1.26679e-05 -1.76698e-07
-2.83176e-07 -1.76698e-07 -3.53716e-05
0.000794552 -1.96657e-06 1.10267e-07
-1.96657e-06 7.41893e-05 -1.28862e-06
1.10267e-07 -1.28862e-06 2.76734e-06
0.000712341 3.78899e-05 1.13809e-06
3.78899e-05 1.46642e-05 -1.69482e-06
1.13809e-06 -1.69482e-06 -2.8419e-05
0.000640789 4.75093e-05 1.41765e-08
4.75093e-05 -2.36103e-05 -4.60574e-09
1.41765e-08 -4.60574e-09 -3.856e-05
0.00215859 7.00282e-05 -2.54913e-05
7.00282e-05 0.000843645 3.32128e-06
-2.54913e-05 3.32128e-06 0.000854949
0.000653706 4.18571e-05 1.03299e-06
4.18571e-05 -2.49638e-05 -3.51513e-06
1.03299e-06 -3.51513e-06 -3.76674e-05
0.00217057 6.17644e-05 1.82433e-06
6.17644e-05 0.000843061 1.27614e-07
1.82433e-06 1.27614e-07 0.000856252
0.00218806 5.31909e-05 1.96805e-05
5.31909e-05 0.000846302 -3.77748e-06
1.96805e-05 -3.77748e-06 0.000861108
0.000794197 1.51954e-05 -5.70633e-08
1.51954e-05 7.63458e-05 -4.63343e-07
-5.70633e-08 -4.63343e-07 -1.01688e-05
0.000794677 4.90238e-05 -9.03823e-07
4.90238e-05 7.31784e-05 -9.03708e-07
-9.03823e-07 -9.03708e-07 -5.89126e-06
0.000708611 -1.48859e-05 -8.33329e-07
-1.48859e-05 1.97381e-06 -1.91902e-06
-8.33329e-07 -1.91902e-06 -4.48456e-05
0.00077587 4.10976e-05 -9.0621e-08
4.10976e-05 5.56364e-05 -8.01516e-10
-9.0621e-08 -8.01516e-10 -1.67903e-05
0.000645859 -3.27751e-05 -2.50566e-07
-3.27751e-05 -3.82499e-05 -3.9243e-06
-2.50566e-07 -3.9243e-06 -5.16168e-05
0.000713429 -7.61119e-06 -1.16949e-07
-7.61119e-06 4.86834e-06 -2.62557e-08
-1.16949e-07 -2.62557e-08 -3.94512e-05
0.000742341 2.64787e-05 -3.1004e-07
2.64787e-05 3.47671e-05 1.44787e-07
-3.1004e-07 1.44787e-07 -3.36601e-05
0.00226447 -4.30726e-05 -1.72767e-05
-4.30726e-05 0.000881034 -4.34888e-06
-1.72767e-05 -4.34888e-06 0.00089714
0.000661133 -2.56094e-05 -1.75637e-07
-2.56094e-05 -3.50463e-05 -2.28185e-08
-1.75637e-07 -2.28185e-08 -4.54198e-05
0.000698515 -4.18489e-06 -2.22437e-07
-4.18489e-06 -3.62713e-06 1.17727e-06
-2.22437e-07 1.17727e-06 -4.53057e-05
0.00217776 -3.14884e-05 -2.9319e-06
-3.14884e-05 0.000826752 9.11157e-08
-2.9319e-06 9.11157e-08 0.000844984
0.000670076 -1.8709e-05 2.35154e-07
-1.8709e-05 -3.40216e-05 3.60255e-06
2.35154e-07 3.60255e-06 -4.17937e-05
0.00210893 -1.98596e-05 8.47891e-06
-1.98596e-05 0.000783975 4.54546e-06
8.47891e-06 4.54546e-06 0.000803845
0.00104226 -4.65796e-05 1.32035e-05
-4.65796e-05 0.00011712 2.57101e-05
1.32035e-05 2.57101e-05 -0.000177122
0.0013336 -1.29287e-05 -6.87631e-06
-1.29287e-05 0.000124998 1.02792e-05
-6.87631e-06 1.02792e-05 -9.14888e-05
0.00134162 8.21966e-06 1.10124e-05
8.21966e-06 0.000273441 -1.48062e-05
1.10124e-05 -1.48062e-05 -1.64485e-06
0.000780092 1.31763e-05 -2.12017e-07
1.31763e-05 6.26476e-05 -6.78532e-08
-2.12017e-07 -6.78532e-08 -2.07066e-05
0.00078146 -1.14746e-05 -1.30711e-07
-1.14746e-05 6.462e-05 2.37926e-07
-1.30711e-07 2.37926e-07 -1.99981e-05
0.000753222 -1.18809e-05 -6.81441e-07
-1.18809e-05 5.1102e-05 -1.5438e-06
-6.81441e-07 -1.5438e-06 -3.68605e-05
0.00067598 -2.60305e-05 -3.04846e-07
-2.60305e-05 3.8947e-06 -6.25424e-07
-3.04846e-07 -6.25424e-07 -7.91279e-05
0.000963802 6.38274e-05 -9.15401e-07
6.38274e-05 0.000177852 -1.24361e-07
-9.15401e-07 -1.24361e-07 8.07913e-05
0.000748297 -2.11586e-05 -9.33121e-08
-2.11586e-05 3.48254e-05 -2.32778e-07
-9.33121e-08 -2.32778e-07 -4.22329e-05
0.000748575 5.86025e-07 5.80342e-07
5.86025e-07 4.27376e-05 -8.69491e-07
5.80342e-07 -8.69491e-07 -4.54195e-05
0.000812969 1.78181e-05 -9.36915e-08
1.78181e-05 8.37871e-05 -4.3792e-08
-9.36915e-08 -4.3792e-08 -3.51032e-06
0.000882601 4.8915e-05 7.83785e-08
4.8915e-05 0.000121014 1.70913e-07
7.83785e-08 1.70913e-07 2.61301e-05
0.000941528 2.04639e-05 -2.17547e-07
2.04639e-05 0.000166898 5.69878e-07
-2.17547e-07 5.69878e-07 7.46812e-05
0.00199681 1.00848e-05 8.34464e-05
1.00848e-05 0.000507869 0.000104451
8.34464e-05 0.000104451 -0.000496296
0.00134778 3.40822e-05 5.90089e-06
3.40822e-05 0.000244907 2.51933e-05
5.90089e-06 2.51933e-05 -0.000643938
0.00249823 1.62922e-05 -8.44321e-06
1.62922e-05 0.000854278 -2.26536e-05
-8.44321e-06 -2.26536e-05 0.000336916
0.00605146 -0.000446741 -3.32048e-05
-0.000446741 0.000728508 -6.35206e-05
-3.32048e-05 -6.35206e-05 0.00199966
-0.00885353 0.000279834 -4.33055e-05
0.000279834 -0.00338428 8.03594e-05
-4.33055e-05 8.03594e-05 -0.00453837
0.00449295 -0.000740855 -8.12677e-05
-0.000740855 0.00129396 5.26501e-05
-8.12677e-05 5.26501e-05 0.000506587
0.00808145 -0.000279701 -1.34957e-05
-0.000279701 0.00288237 -4.49065e-05
-1.34957e-05 -4.49065e-05 0.000727196
0.0032748 -0.000234267 -4.02599e-05
-0.000234267 0.000386645 4.44451e-05
-4.02599e-05 4.44451e-05 7.13898e-05
0.010009 -0.000197347 5.53775e-05
-0.000197347 0.00440518 -1.62304e-05
5.53775e-05 -1.62304e-05 0.00167586
0.00113309 -0.000386494 2.65226e-05
-0.000386494 -0.000407349 1.07786e-05
2.65226e-05 1.07786e-05 -0.000849604
0.00132998 -0.000576402 -4.90893e-05
-0.000576402 -0.00193843 -0.000109271
-4.90893e-05 -0.000109271 -0.000548358
0.00465028 8.59012e-05 -0.000105294
8.59012e-05 0.000962531 -1.13676e-05
-0.000105294 -1.13676e-05 0.000665273
0.00793174 3.13109e-05 -1.37451e-05
3.13109e-05 0.00296983 4.19477e-05
-1.37451e-05 4.19477e-05 0.000992482
0.00777539 -0.00105236 -1.55045e-05
-0.00105236 0.00212607 -6.10412e-05
-1.55045e-05 -6.10412e-05 0.00223599
0.00374839 -0.000897277 2.335e-05
-0.000897277 0.000396989 2.04323e-06
2.335e-05 2.04323e-06 0.0019389
0.000591625 3.27586e-05 1.96059e-06
3.27586e-05 1.10001e-05 1.44645e-06
1.96059e-06 1.44645e-06 -5.94105e-05
0.000914834 -2.00112e-05 -3.74502e-08
-2.00112e-05 0.000145929 6.00304e-07
-3.74502e-08 6.00304e-07 5.999e-05
0.00079833 2.04731e-05 -1.1745e-07
2.04731e-05 7.33719e-05 -1.07713e-06
-1.1745e-07 -1.07713e-06 -2.55397e-05
0.000316022 3.53943e-05 -3.18455e-05
3.53943e-05 0.000126395 1.91372e-05
-3.18455e-05 1.91372e-05 -0.00029217
0.00105627 -6.81434e-05 -4.03966e-05
-6.81434e-05 0.00051181 -1.08111e-05
-4.03966e-05 -1.08111e-05 0.000481239
0.000712265 -6.54421e-06 -7.08756e-07
-6.54421e-06 3.71928e-05 -3.86594e-07
-7.08756e-07 -3.86594e-07 -5.59391e-05
0.000339061 -8.66842e-06 -6.91052e-08
-8.66842e-06 -0.000118017 -5.06436e-06
-6.91052e-08 -5.06436e-06 -0.000202996
0.000701145 1.90405e-05 -2.3772e-07
1.90405e-05 8.28085e-05 -1.77771e-06
-2.3772e-07 -1.77771e-06 -2.15561e-06
0.00032635 1.09925e-05 -2.59001e-06
1.09925e-05 6.3421e-05 4.38028e-06
-2.59001e-06 4.38028e-06 -2.8579e-05
-5.23597e-05 -1.88062e-05 5.83781e-05
-1.88062e-05 0.000550602 -3.48969e-05
5.83781e-05 -3.48969e-05 -0.000435355
-0.00097955 -1.26804e-05 -1.20765e-05
-1.26804e-05 -0.000660383 9.34903e-06
-1.20765e-05 9.34903e-06 -0.000750431
0.00120215 0.000139115 -9.6986e-06
0.000139115 0.000583108 -3.24122e-05
-9.6986e-06 -3.24122e-05 1.00081e-05
0.00149824 -1.32212e-06 6.47089e-05
-1.32212e-06 0.000258078 7.75193e-06
6.47089e-05 7.75193e-06 -0.000328878
0.00116453 -1.37319e-05 9.27901e-06
-1.37319e-05 0.000173844 2.46201e-06
9.27901e-06 2.46201e-06 3.62961e-06
0.000829431 -1.17766e-05 1.22509e-06
-1.17766e-05 -0.000149519 -4.69899e-07
1.22509e-06 -4.69899e-07 -0.000223144
-0.00141538 -2.96861e-05 -3.1273e-05
-2.96861e-05 -0.000378057 1.24038e-05
-3.1273e-05 1.24038e-05 -0.000777707
0.00277551 1.02292e-05 -8.01359e-07
1.02292e-05 9.27108e-05 -3.59524e-05
-8.01359e-07 -3.59524e-05 -0.000102854
0.00139072 9.75741e-06 -7.64925e-06
9.75741e-06 0.000282903 1.45461e-05
-7.64925e-06 1.45461e-05 2.94604e-05
0.013775 -0.000487237 0.000103678
-0.000487237 0.00605478 -1.17508e-05
0.000103678 -1.17508e-05 0.00333395
0.00589777 0.000740247 -4.34354e-05
0.000740247 0.00159855 -4.10689e-06
-4.34354e-05 -4.10689e-06 0.00151177
0.00292453 -6.72141e-05 -5.04165e-05
-6.72141e-05 0.000732052 6.94036e-05
-5.04165e-05 6.94036e-05 -0.000298458
-0.00515125 0.000980936 0.000144222
0.000980936 -0.00341833 -0.000132642
0.000144222 -0.000132642 -0.00150789
0.000551248 -4.04755e-05 -6.52622e-06
-4.04755e-05 0.000249715 -7.18021e-07
-6.52622e-06 -7.18021e-07 0.000130406
0.00153304 -1.28545e-05 -9.55659e-06
-1.28545e-05 0.000190157 3.15128e-06
-9.55659e-06 3.15128e-06 -0.000429071
-0.00200892 0.000255338 -0.000116788
0.000255338 8.63315e-05 5.04116e-05
-0.000116788 5.04116e-05 -0.000230868
0.00184526 -0.000290128 -2.42344e-05
-0.000290128 -0.000157148 2.99919e-05
-2.42344e-05 2.99919e-05 -0.00038653
0.00738832 0.00110564 2.786e-05
0.00110564 0.00253383 2.63486e-05
2.786e-05 2.63486e-05 0.00307394
0.00702404 -0.000429025 5.58412e-05
-0.000429025 0.00281682 -3.08597e-05
5.58412e-05 -3.08597e-05 0.000479001
0.00148161 -0.000209842 1.24691e-05
-0.000209842 0.000252031 1.94291e-05
1.24691e-05 1.94291e-05 0.000410346
-0.00206435 -2.12827e-06 4.46212e-05
-2.12827e-06 0.000194152 -9.9168e-06
4.46212e-05 -9.9168e-06 -0.000669549
0.00439001 0.000822848 -9.55694e-05
0.000822848 0.00222057 4.76958e-05
-9.55694e-05 4.76958e-05 0.00231426
0.00290619 -7.05904e-05 -0.000102189
-7.05904e-05 0.000681928 7.82531e-05
-0.000102189 7.82531e-05 -0.00170429
0.00279313 -0.000667516 3.31362e-05
-0.000667516 0.000289959 -5.40549e-06
3.31362e-05 -5.40549e-06 -0.000290028
0.000264329 -3.87148e-05 6.29166e-06
-3.87148e-05 0.000225936 1.07214e-05
6.29166e-06 1.07214e-05 4.92604e-05
0.000468679 -0.000170434 -2.417e-06
-0.000170434 0.000105819 1.55068e-06
-2.417e-06 1.55068e-06 -5.49494e-05
0.0029104 -0.000340237 2.46613e-05
-0.000340237 0.000937879 8.3352e-07
2.46613e-05 8.3352e-07 0.000901697
-0.00166179 -1.35795e-05 -6.30201e-06
-1.35795e-05 -0.000953384 7.39425e-06
-6.30201e-06 7.39425e-06 -0.00120222
0.000786767 -0.000208132 4.77104e-06
-0.000208132 3.5139e-05 -4.08161e-07
4.77104e-06 -4.08161e-07 -0.000200946
0.000784065 -0.000271021 5.66876e-06
-0.000271021 -0.00027718 -1.7247e-06
5.66876e-06 -1.7247e-06 -0.000453151
0.0021022 -0.000259656 -6.83697e-06
-0.000259656 0.000792958 1.36983e-06
-6.83697e-06 1.36983e-06 0.00051982
0.00118478 -0.000246138 -3.11413e-06
-0.000246138 0.000120197 -2.42364e-06
-3.11413e-06 -2.42364e-06 -0.0001329
0.00161161 -0.000310068 5.01992e-06
-0.000310068 0.000126239 -1.84824e-06
5.01992e-06 -1.84824e-06 -5.15691e-05
0.0017576 -0.000259878 -2.92328e-06
-0.000259878 0.000478816 -7.80701e-07
-2.92328e-06 -7.80701e-07 0.000226949
0.0015218 -0.000263369 -3.30608e-08
-0.000263369 0.00019149 -2.26766e-06
-3.30608e-08 -2.26766e-06 -3.38025e-05
0.0017554 -0.000272261 9.00993e-07
-0.000272261 0.00017205 -3.56887e-06
9.00993e-07 -3.56887e-06 5.20139e-06
0.00160213 -0.000218782 2.1501e-07
-0.000218782 0.000110355 -2.55658e-06
2.1501e-07 -2.55658e-06 -4.46418e-05
0.00159791 -0.000243435 1.07994e-07
-0.000243435 0.000204121 -5.77681e-07
1.07994e-07 -5.77681e-07 6.86809e-06
0.00155273 -0.000246317 1.22586e-06
-0.000246317 0.000132718 -4.11064e-07
1.22586e-06 -4.11064e-07 -5.26116e-05
0.00151716 -0.00022279 -1.06714e-06
-0.00022279 0.000322469 4.93933e-06
-1.06714e-06 4.93933e-06 0.000128766
0.00151226 -0.000238673 2.37694e-07
-0.000238673 0.00027356 3.40384e-07
2.37694e-07 3.40384e-07 5.67716e-05
0.00167798 -0.000261908 -9.23141e-07
-0.000261908 0.00031417 -2.24068e-06
-9.23141e-07 -2.24068e-06 8.1057e-05
0.000999884 -0.000161498 1.69627e-06
-0.000161498 0.00015472 -1.18028e-06
1.69627e-06 -1.18028e-06 6.46776e-07
0.000614745 -0.000141277 -6.22998e-07
-0.000141277 -7.25847e-05 -1.93299e-06
-6.22998e-07 -1.93299e-06 -0.000226782
0.00133562 -0.000195873 4.31251e-06
-0.000195873 0.000305451 -4.63131e-06
4.31251e-06 -4.63131e-06 0.000134256
0.000795012 -8.69573e-05 4.13184e-07
-8.69573e-05 8.00297e-05 1.30241e-06
4.13184e-07 1.30241e-06 -4.51511e-05
0.000884126 -0.000132464 1.9856e-07
-0.000132464 0.000137219 5.07917e-07
1.9856e-07 5.07917e-07 -1.17808e-05
0.000856041 -0.00014428 -5.46985e-07
-0.00014428 0.000109362 1.37961e-06
-5.46985e-07 1.37961e-06 -4.50984e-05
0.000636861 7.54844e-05 1.55111e-06
7.54844e-05 2.47103e-06 3.18081e-06
1.55111e-06 3.18081e-06 -7.27408e-05
0.000800526 -1.82889e-05 1.35987e-07
-1.82889e-05 0.000101913 -1.10233e-07
1.35987e-07 -1.10233e-07 -7.74903e-06
0.000899667 -7.9451e-05 -1.06378e-06
-7.9451e-05 0.00016756 6.3955e-08
-1.06378e-06 6.3955e-08 4.11227e-05
0.00131213 7.48104e-05 -1.38582e-05
7.48104e-05 0.000377329 3.12987e-06
-1.38582e-05 3.12987e-06 0.000358128
0.000671808 4.69837e-05 -5.40981e-07
4.69837e-05 9.62826e-06 -4.54806e-07
-5.40981e-07 -4.54806e-07 -4.74217e-05
0.000796615 -1.77053e-05 2.66302e-08
-1.77053e-05 8.98326e-05 -1.67466e-06
2.66302e-08 -1.67466e-06 2.51237e-07
0.000785176 4.17549e-05 -2.44527e-05
4.17549e-05 7.45466e-05 3.26929e-06
-2.44527e-05 3.26929e-06 7.82842e-05
0.00100162 6.20995e-05 -6.80425e-06
6.20995e-05 0.000190559 2.43183e-07
-6.80425e-06 2.43183e-07 0.000173993
0.000698832 4.58714e-05 3.8137e-07
4.58714e-05 1.55603e-05 -2.01267e-06
3.8137e-07 -2.01267e-06 -3.21341e-05
0.000656268 4.90214e-05 9.87288e-07
4.90214e-05 -1.46804e-05 -3.56316e-06
9.87288e-07 -3.56316e-06 -2.98335e-05
0.00218301 7.12162e-05 1.56262e-06
7.12162e-05 0.000858436 1.34224e-07
1.56262e-06 1.34224e-07 0.000869418
0.00218376 6.27183e-05 2.30959e-05
6.27183e-05 0.000851494 -3.47571e-06
2.30959e-05 -3.47571e-06 0.000864457
0.000734242 -3.25666e-06 9.46461e-08
-3.25666e-06 3.81647e-05 -9.48224e-07
9.46461e-08 -9.48224e-07 -4.78998e-05
0.000797467 2.98162e-05 -4.10329e-07
2.98162e-05 7.40551e-05 -1.34986e-06
-4.10329e-07 -1.34986e-06 -6.02665e-06
0.000770553 -7.07318e-06 1.31479e-07
-7.07318e-06 5.85122e-05 -6.0994e-08
1.31479e-07 -6.0994e-08 -2.47492e-05
0.000711551 -2.63659e-05 -9.80299e-07
-2.63659e-05 6.70904e-06 -2.11994e-06
-9.80299e-07 -2.11994e-06 -4.26404e-05
0.000779989 2.00518e-05 6.78948e-07
2.00518e-05 5.84136e-05 -2.91227e-08
6.78948e-07 -2.91227e-08 -1.56299e-05
0.000633738 -3.9244e-05 -3.59566e-07
-3.9244e-05 -3.89591e-05 -4.08928e-06
-3.59566e-07 -4.08928e-06 -5.52128e-05
0.000709126 -1.15581e-05 -1.56548e-07
-1.15581e-05 3.17122e-06 -9.98965e-09
-1.56548e-07 -9.98965e-09 -4.38423e-05
0.000793497 4.8884e-05 8.60639e-07
4.8884e-05 7.49638e-05 8.08079e-07
8.60639e-07 8.08079e-07 -3.93916e-06
0.00234233 -5.35186e-05 -2.21423e-05
-5.35186e-05 0.000930639 -4.16677e-06
-2.21423e-05 -4.16677e-06 0.000944665
0.000647907 -3.20263e-05 -3.12408e-07
-3.20263e-05 -3.72621e-05 -1.00793e-08
-3.12408e-07 -1.00793e-08 -5.05022e-05
0.000718031 -7.76954e-06 4.15156e-07
-7.76954e-06 7.97195e-06 1.96649e-06
4.15156e-07 1.96649e-06 -3.64531e-05
0.00224595 -4.22473e-05 -2.77419e-06
-4.22473e-05 0.000869914 1.17107e-07
-2.77419e-06 1.17107e-07 0.000886307
0.000661098 -2.51275e-05 2.59427e-07
-2.51275e-05 -3.50876e-05 3.7186e-06
2.59427e-07 3.7186e-06 -4.53762e-05
0.00216343 -3.05438e-05 1.23804e-05
-3.05438e-05 0.000818063 4.4714e-06
1.23804e-05 4.4714e-06 0.000836547
0.00221264 -4.28484e-05 6.2959e-05
-4.28484e-05 0.000591681 3.34098e-05
6.2959e-05 3.34098e-05 5.77335e-05
0.00113118 -4.2157e-05 7.74932e-07
-4.2157e-05 0.000172601 8.40179e-06
7.74932e-07 8.40179e-06 -0.000109948
0.00113495 -1.68662e-05 -6.05006e-06
-1.68662e-05 2.48899e-05 -5.98065e-06
-6.05006e-06 -5.98065e-06 -0.000165553
0.000850851 6.39477e-05 -1.7253e-06
6.39477e-05 0.000117355 -5.39404e-07
-1.7253e-06 -5.39404e-07 1.90421e-05
0.000842482 1.12561e-05 2.12362e-07
1.12561e-05 9.63398e-05 1.27102e-07
2.12362e-07 1.27102e-07 1.39935e-05
0.000740834 -2.07023e-05 1.95753e-07
-2.07023e-05 4.19681e-05 3.95717e-07
1.95753e-07 3.95717e-07 -4.27509e-05
0.00083501 -1.22273e-05 7.59512e-08
-1.22273e-05 8.94272e-05 -1.22089e-07
7.59512e-08 -1.22089e-07 7.78913e-06
0.000875082 1.95372e-05 5.08709e-08
1.95372e-05 0.000120357 -2.69401e-07
5.08709e-08 -2.69401e-07 3.02561e-05
0.000842678 4.54076e-05 2.84659e-07
4.54076e-05 0.000108603 6.78583e-07
2.84659e-07 6.78583e-07 1.35402e-05
0.000853043 3.21529e-05 -5.92162e-07
3.21529e-05 0.000115922 -1.56843e-06
-5.92162e-07 -1.56843e-06 1.58122e-05
0.000586754 -1.91478e-05 1.35403e-07
-1.91478e-05 -3.77861e-05 -1.60699e-07
1.35403e-07 -1.60699e-07 -0.000127154
0.000824544 6.98153e-05 2.47163e-07
6.98153e-05 9.35758e-05 -5.2278e-07
2.47163e-07 -5.2278e-07 3.62423e-06
0.000827714 -3.19052e-05 8.85638e-07
-3.19052e-05 7.48341e-05 -7.192e-07
8.85638e-07 -7.192e-07 -9.04986e-06
0.000838035 1.67925e-05 -1.97866e-07
1.67925e-05 0.00010495 1.32597e-07
-1.97866e-07 1.32597e-07 1.6219e-05
0.00131687 4.32563e-05 4.51385e-06
4.32563e-05 0.00040013 2.5978e-06
4.51385e-06 2.5978e-06 0.000314292
0.00111097 -0.000390907 6.90025e-05
-0.000390907 0.00110347 7.58092e-05
6.90025e-05 7.58092e-05 0.000832129
0.00228281 3.16334e-05 5.11557e-06
3.16334e-05 0.000654636 2.40119e-05
5.11557e-06 2.40119e-05 -0.000385827
0.00159964 4.3552e-05 -1.4548e-05
4.3552e-05 0.000290933 -4.20642e-05
-1.4548e-05 -4.20642e-05 -0.000606319
0.00533988 -0.000754511 -9.30104e-05
-0.000754511 0.000161182 -8.11273e-05
-9.30104e-05 -8.11273e-05 0.00164078
0.00369243 -0.000246995 -1.89733e-06
-0.000246995 0.000308659 4.35532e-05
-1.89733e-06 4.35532e-05 -0.000197397
0.000552006 -0.00041861 -8.9765e-05
-0.00041861 -1.97554e-05 6.35281e-05
-8.9765e-05 6.35281e-05 -0.00239272
0.00300225 -0.000193779 -5.46251e-05
-0.000193779 0.000462281 9.25679e-05
-5.46251e-05 9.25679e-05 -3.32008e-05
0.0041301 -0.000153616 4.14907e-06
-0.000153616 0.000733041 3.70071e-05
4.14907e-06 3.70071e-05 0.000594725
-0.000712823 -0.000883946 1.75363e-05
-0.000883946 -0.00146417 3.11522e-05
1.75363e-05 3.11522e-05 0.000218252
0.00559444 0.000239224 7.40135e-06
0.000239224 0.00261856 1.4284e-05
7.40135e-06 1.4284e-05 -0.000111318
0.00126496 -0.0005357 -9.42339e-06
-0.0005357 -0.0012448 1.63724e-05
-9.42339e-06 1.63724e-05 -0.000962264
0.0021671 0.000237193 -3.40372e-05
0.000237193 -1.6826e-05 -1.03863e-06
-3.40372e-05 -1.03863e-06 -0.000230115
0.0086166 -0.000142035 -4.1762e-05
-0.000142035 0.00399139 3.48989e-05
-4.1762e-05 3.48989e-05 0.00178525
-0.000267316 -0.000678521 -7.36131e-05
-0.000678521 -0.000711312 -6.27382e-05
-7.36131e-05 -6.27382e-05 -0.000179392
0.000495867 0.000166197 6.14279e-07
0.000166197 -6.58432e-05 -3.25074e-06
6.14279e-07 -3.25074e-06 -0.000139928
0.000898261 4.26325e-05 5.21379e-06
4.26325e-05 0.000173307 2.56564e-08
5.21379e-06 2.56564e-08 0.000104167
0.000965009 1.40232e-06 -8.89134e-07
1.40232e-06 0.00017841 9.9773e-09
-8.89134e-07 9.9773e-09 9.14887e-05
-0.000382004 -1.70113e-06 -8.4234e-05
-1.70113e-06 0.000255427 -1.6922e-05
-8.4234e-05 -1.6922e-05 -0.000671482
-0.000801372 5.02792e-05 6.15917e-06
5.02792e-05 -0.000553388 -6.51808e-06
6.15917e-06 -6.51808e-06 -0.000648492
0.000848955 5.19421e-05 1.10239e-06
5.19421e-05 0.000165376 -3.01311e-06
1.10239e-06 -3.01311e-06 7.72353e-05
0.000771963 0.000114972 4.11678e-06
0.000114972 0.00022413 2.2979e-06
4.11678e-06 2.2979e-06 0.000124617
0.000831386 0.000177851 -2.45359e-07
0.000177851 0.00034449 -2.40661e-05
-2.45359e-07 -2.40661e-05 -0.000114268
0.000500445 0.00027446 1.65472e-05
0.00027446 -0.000119176 5.89069e-06
1.65472e-05 5.89069e-06 -0.000307287
0.000338072 1.74868e-05 0.000107341
1.74868e-05 0.00157212 2.06686e-06
0.000107341 2.06686e-06 0.000736453
0.00150632 -2.24753e-05 -5.91821e-06
-2.24753e-05 0.000308624 7.52017e-06
-5.91821e-06 7.52017e-06 -0.000182332
0.000959133 -1.21928e-05 -1.54118e-06
-1.21928e-05 6.98236e-05 2.12461e-06
-1.54118e-06 2.12461e-06 -7.97403e-05
0.00102117 -5.66301e-05 -2.45536e-05
-5.66301e-05 0.000545633 5.18269e-06
-2.45536e-05 5.18269e-06 0.000427542
0.00101213 -0.000192443 -2.57174e-06
-0.000192443 -0.000844569 -1.82224e-05
-2.57174e-06 -1.82224e-05 -0.000816804
0.00175272 -8.74265e-06 -7.75627e-05
-8.74265e-06 0.000349638 2.18592e-05
-7.75627e-05 2.18592e-05 -0.000274028
-0.000930027 -0.000512015 4.15313e-05
-0.000512015 -0.000734093 -4.21232e-05
4.15313e-05 -4.21232e-05 -0.00321981
-0.00361794 0.000578959 3.42623e-05
0.000578959 -0.00320648 -5.33979e-05
3.42623e-05 -5.33979e-05 -0.00252427
0.00138311 0.00041868 -8.77383e-05
0.00041868 0.00149555 7.33573e-05
-8.77383e-05 7.33573e-05 0.00155161
0.00182228 -0.000108634 -1.81166e-06
-0.000108634 0.000257017 2.47165e-06
-1.81166e-06 2.47165e-06 0.000546445
0.00146512 0.000153372 5.51642e-06
0.000153372 0.00177709 6.64759e-06
5.51642e-06 6.64759e-06 0.00131913
-0.00355994 0.000419724 3.01807e-05
0.000419724 -0.00121619 1.88618e-06
3.01807e-05 1.88618e-06 -0.00171984
0.00401475 -0.000715223 3.17705e-06
-0.000715223 0.00118344 -1.88228e-07
3.17705e-06 -1.88228e-07 0.000207996
0.00929999 0.000125407 1.26248e-05
0.000125407 0.00363501 -3.90371e-06
1.26248e-05 -3.90371e-06 0.00189688
0.000802755 -0.000248399 2.49822e-06
-0.000248399 -0.000190949 1.62997e-05
2.49822e-06 1.62997e-05 -9.6094e-05
-0.00634579 0.000175415 -8.31537e-05
0.000175415 -0.00317479 1.24435e-07
-8.31537e-05 1.24435e-07 -0.00345437
0.00717379 8.57408e-05 -2.4786e-05
8.57408e-05 0.00233691 1.27181e-05
-2.4786e-05 1.27181e-05 0.000900258
0.00533002 -0.000741471 2.36304e-06
-0.000741471 0.000798604 1.06011e-05
2.36304e-06 1.06011e-05 -7.71071e-05
0.000120699 -0.000138874 -1.87611e-05
-0.000138874 -4.7301e-05 1.37355e-05
-1.87611e-05 1.37355e-05 -0.000249105
0.00135738 -0.000249083 -1.81635e-06
-0.000249083 0.000110021 7.94946e-07
-1.81635e-06 7.94946e-07 0.000126472
0.00207539 -0.000281697 1.69299e-05
-0.000281697 0.000251782 -2.60295e-06
1.69299e-05 -2.60295e-06 0.000293797
-0.000154233 -0.000132673 -6.02917e-06
-0.000132673 -0.000417093 1.1247e-06
-6.02917e-06 1.1247e-06 -0.000662855
0.00126946 -0.000300017 -3.92509e-06
-0.000300017 -1.82742e-05 -1.24082e-06
-3.92509e-06 -1.24082e-06 -0.000201499
0.00195973 -0.00035005 3.26399e-06
-0.00035005 0.000169915 -1.81367e-08
3.26399e-06 -1.81367e-08 3.70537e-05
0.00162811 -0.000272478 -7.0463e-06
-0.000272478 0.000347942 -2.1908e-06
-7.0463e-06 -2.1908e-06 0.000104525
0.00153989 -0.000301322 2.02755e-06
-0.000301322 0.000103574 7.17901e-07
2.02755e-06 7.17901e-07 -7.71898e-05
0.00193569 -0.000285493 -3.78083e-08
-0.000285493 0.000193405 -3.68437e-06
-3.78083e-08 -3.68437e-06 5.8882e-05
0.0013941 -0.000253661 -4.5985e-06
-0.000253661 0.000116609 2.76535e-07
-4.5985e-06 2.76535e-07 -0.000102385
0.00163081 -0.000262749 -1.49503e-07
-0.000262749 0.00010468 5.1573e-07
-1.49503e-07 5.1573e-07 -6.08189e-05
0.00180529 -0.000230479 -2.66957e-07
-0.000230479 0.000148923 -4.20922e-06
-2.66957e-07 -4.20922e-06 2.28409e-05
0.00159788 -0.000185913 -6.09109e-07
-0.000185913 7.1024e-05 -2.81078e-06
-6.09109e-07 -2.81078e-06 -5.76305e-05
0.00165619 -0.000216895 -6.3638e-07
-0.000216895 0.000175684 -1.89076e-06
-6.3638e-07 -1.89076e-06 9.03767e-06
0.00155999 -0.000213924 1.08201e-07
-0.000213924 8.65562e-05 9.2011e-07
1.08201e-07 9.2011e-07 -6.69576e-05
0.00114592 -0.000202143 -2.20222e-06
-0.000202143 7.23038e-06 1.04513e-06
-2.20222e-06 1.04513e-06 -0.000181573
0.00149338 -0.000233918 2.11869e-06
-0.000233918 0.00014947 -8.81713e-07
2.11869e-06 -8.81713e-07 -4.43699e-05
0.00155471 -0.000245759 1.43165e-06
-0.000245759 0.000133267 1.77744e-06
1.43165e-06 1.77744e-06 -5.10525e-05
0.00113152 -0.000181409 7.38617e-07
-0.000181409 0.00016621 2.7027e-06
7.38617e-07 2.7027e-06 -4.17725e-06
0.0010728 -0.000190703 1.56399e-06
-0.000190703 8.55894e-05 -8.57177e-07
1.56399e-06 -8.57177e-07 -0.000104043
0.00070047 -0.000183399 -6.34348e-07
-0.000183399 -0.000164084 -3.54272e-06
-6.34348e-07 -3.54272e-06 -0.000381984
0.000923727 -0.000137841 -1.49833e-06
-0.000137841 0.000111737 3.15948e-07
-1.49833e-06 3.15948e-07 -2.24458e-05
0.00106564 -0.000165402 -1.72698e-07
-0.000165402 0.000186051 -1.0962e-06
-1.72698e-07 -1.0962e-06 3.18312e-05
0.000814142 -0.000153395 -1.64978e-06
-0.000153395 4.34851e-05 -4.51759e-06
-1.64978e-06 -4.51759e-06 -0.000107802
0.00073253 -1.43184e-05 1.66769e-07
-1.43184e-05 4.37229e-05 3.44377e-06
1.66769e-07 3.44377e-06 -4.54042e-05
0.00091199 -9.02897e-05 1.05471e-06
-9.02897e-05 0.000143719 4.26699e-07
1.05471e-06 4.26699e-07 1.79171e-05
0.000669892 -0.000103466 -9.83418e-07
-0.000103466 1.86418e-05 1.45397e-06
-9.83418e-07 1.45397e-06 -0.00012618
0.000524606 7.11917e-05 7.13771e-07
7.11917e-05 -5.62007e-05 5.03819e-06
7.13771e-07 5.03819e-06 -8.80063e-05
0.000685884 1.45733e-05 -6.28501e-07
1.45733e-05 2.28644e-05 -4.40519e-07
-6.28501e-07 -4.40519e-07 -5.04784e-05
0.000900646 -4.59942e-05 -1.9321e-07
-4.59942e-05 0.000159293 -1.83027e-06
-1.9321e-07 -1.83027e-06 4.61216e-05
0.00226715 9.81357e-05 -9.38225e-06
9.81357e-05 0.000923892 1.26284e-06
-9.38225e-06 1.26284e-06 0.000927446
0.000621254 6.38857e-05 -8.85826e-08
6.38857e-05 -1.24186e-05 -1.08946e-07
-8.85826e-08 -1.08946e-07 -3.64169e-05
0.000689042 2.62731e-05 1.24981e-06
2.62731e-05 1.62365e-05 -2.48657e-06
1.24981e-06 -2.48657e-06 -3.95909e-05
0.00221 7.97072e-05 1.645e-06
7.97072e-05 0.000881838 1.34785e-07
1.645e-06 1.34785e-07 0.000890572
0.000657869 5.71382e-05 5.50619e-07
5.71382e-05 -3.1745e-06 -3.79675e-06
5.50619e-07 -3.79675e-06 -2.19888e-05
0.00221329 7.22817e-05 2.67318e-05
7.22817e-05 0.000876527 -3.15271e-06
2.67318e-05 -3.15271e-06 0.000887205
0.000874143 5.65222e-05 -4.3171e-07
5.65222e-05 0.000121887 -7.79517e-08
-4.3171e-07 -7.79517e-08 2.77399e-05
0.000781349 9.45115e-06 -9.27388e-08
9.45115e-06 6.51201e-05 -2.9667e-07
-9.27388e-08 -2.9667e-07 -2.21735e-05
0.000784378 1.19602e-05 -2.0688e-07
1.19602e-05 7.28789e-05 -1.75886e-06
-2.0688e-07 -1.75886e-06 -1.38336e-05
0.000703404 -3.09973e-05 -1.01176e-06
-3.09973e-05 6.99904e-06 -2.45624e-06
-1.01176e-06 -2.45624e-06 -4.48878e-05
0.000755988 2.0505e-06 7.7559e-07
2.0505e-06 5.00156e-05 -2.67558e-08
7.7559e-07 -2.67558e-08 -2.84767e-05
0.000734196 4.48976e-06 6.36462e-07
4.48976e-06 4.1988e-05 6.09022e-07
6.36462e-07 6.09022e-07 -4.4225e-05
0.000630661 -4.55629e-05 -6.91474e-07
-4.55629e-05 -3.38794e-05 -4.27084e-06
-6.91474e-07 -4.27084e-06 -5.27185e-05
0.000703495 -1.93168e-05 -1.6156e-07
-1.93168e-05 2.36336e-06 -8.84711e-09
-1.6156e-07 -8.84711e-09 -4.68526e-05
0.000762508 1.38121e-05 1.24601e-06
1.38121e-05 4.70674e-05 8.64606e-07
1.24601e-06 8.64606e-07 -2.55034e-05
0.00240106 -6.34515e-05 -2.69989e-05
-6.34515e-05 0.000970076 -3.90773e-06
-2.69989e-05 -3.90773e-06 0.000982042
0.0006332 -3.8042e-05 -2.8204e-07
-3.8042e-05 -3.95232e-05 1.11177e-08
-2.8204e-07 1.11177e-08 -5.55964e-05
0.000711273 -9.72323e-06 8.68184e-07
-9.72323e-06 4.92217e-06 2.01005e-06
8.68184e-07 2.01005e-06 -4.21542e-05
0.00231782 -5.27988e-05 -2.96185e-06
-5.27988e-05 0.000916121 1.4893e-07
-2.96185e-06 1.4893e-07 0.000930423
0.00064706 -3.13237e-05 2.06047e-07
-3.13237e-05 -3.78282e-05 3.88673e-06
2.06047e-07 3.88673e-06 -5.0953e-05
0.00222297 -4.12475e-05 1.63424e-05
-4.12475e-05 0.000856236 4.35774e-06
1.63424e-05 4.35774e-06 0.00087295
-0.00285892 -8.43774e-05 3.23671e-05
-8.43774e-05 -0.000131855 2.76521e-05
3.23671e-05 2.76521e-05 -0.00112404
0.00217809 -6.21464e-05 1.88127e-06
-6.21464e-05 0.000621864 9.84345e-06
1.88127e-06 9.84345e-06 9.10283e-05
0.00120997 -3.78071e-05 -9.11622e-06
-3.78071e-05 0.000218303 -8.58552e-06
-9.11622e-06 -8.58552e-06 -5.22961e-05
0.000755308 2.76507e-05 -7.31134e-07
2.76507e-05 6.09472e-05 5.68063e-07
-7.31134e-07 5.68063e-07 -3.32735e-05
0.00119391 0.000151186 -2.18252e-08
0.000151186 0.000319402 6.34093e-07
-2.18252e-08 6.34093e-07 0.000199673
0.000806589 2.95497e-05 -1.0132e-06
2.95497e-05 9.73019e-05 1.19962e-08
-1.0132e-06 1.19962e-08 -5.50202e-06
0.00093933 -1.9971e-05 3.28744e-07
-1.9971e-05 0.000146687 -3.08621e-07
3.28744e-07 -3.08621e-07 6.54588e-05
0.000968369 5.12811e-05 1.01115e-06
5.12811e-05 0.000170915 4.02756e-07
1.01115e-06 4.02756e-07 8.07715e-05
0.000659359 -7.04769e-07 -2.12078e-07
-7.04769e-07 -1.45883e-07 1.51402e-06
-2.12078e-07 1.51402e-06 -8.86078e-05
0.000707175 1.42121e-05 -8.79246e-07
1.42121e-05 3.43894e-05 -1.04568e-10
-8.79246e-07 -1.04568e-10 -6.10007e-05
0.000786406 1.72532e-05 9.32835e-08
1.72532e-05 7.73154e-05 -2.74655e-07
9.32835e-08 -2.74655e-07 -2.10122e-05
0.000936638 6.07732e-05 1.18486e-06
6.07732e-05 0.000182505 -1.55345e-06
1.18486e-06 -1.55345e-06 6.60582e-05
0.000809002 0.000103552 4.23483e-06
0.000103552 5.92618e-05 -5.65812e-06
4.23483e-06 -5.65812e-06 -3.42798e-05
0.000807456 4.25326e-05 -5.98926e-08
4.25326e-05 9.05042e-05 -7.94373e-07
-5.98926e-08 -7.94373e-07 -1.99481e-06
0.000906862 5.54357e-05 7.67759e-07
5.54357e-05 0.000173882 1.30435e-06
7.67759e-07 1.30435e-06 8.55765e-05
-0.00439146 -0.000423915 -0.000109829
-0.000423915 -0.00165589 1.7717e-05
-0.000109829 1.7717e-05 -0.00201252
-0.0012532 -0.000348959 5.51853e-05
-0.000348959 0.000173945 2.21549e-05
5.51853e-05 2.21549e-05 -0.000265808
0.00254618 2.72349e-05 -6.98963e-05
2.72349e-05 0.000808682 -5.69054e-05
-6.98963e-05 -5.69054e-05 -0.000267765
-0.00527415 -0.000893479 0.000100163
-0.000893479 -0.00333969 0.00011414
0.000100163 0.00011414 -0.0015062
0.00694046 -0.000751671 -8.29481e-06
-0.000751671 0.00202254 1.8579e-05
-8.29481e-06 1.8579e-05 0.00216506
0.00127161 0.000554225 5.12909e-05
0.000554225 0.000173709 -2.05004e-05
5.12909e-05 -2.05004e-05 -0.00245635
0.00326507 -0.000177658 -0.000147402
-0.000177658 0.000541829 7.25772e-05
-0.000147402 7.25772e-05 -0.000116963
0.00301461 0.000181992 -2.42591e-05
0.000181992 0.000429542 9.38514e-06
-2.42591e-05 9.38514e-06 0.000115904
0.00616776 -0.000947937 -3.50035e-05
-0.000947937 0.00282657 2.91963e-05
-3.50035e-05 2.91963e-05 0.00309614
0.00174986 0.00022287 8.39246e-06
0.00022287 0.000651871 6.11187e-06
8.39246e-06 6.11187e-06 -0.00159486
0.00255737 0.00047345 -0.000113033
0.00047345 0.000720221 -7.01774e-05
-0.000113033 -7.01774e-05 -2.1801e-06
0.0021945 0.000618401 -0.000175111
0.000618401 0.00024875 -6.63006e-05
-0.000175111 -6.63006e-05 -0.00181478
0.00208433 0.000393871 1.04609e-05
0.000393871 0.000526332 -1.19777e-05
1.04609e-05 -1.19777e-05 0.00036704
0.000781629 0.000169143 -3.85221e-06
0.000169143 8.34783e-05 1.19563e-06
-3.85221e-06 1.19563e-06 1.02824e-05
0.00106977 4.23885e-05 -1.11296e-06
4.23885e-05 0.000261923 -2.58654e-06
-1.11296e-06 -2.58654e-06 0.000193786
-0.000209559 0.000145136 -3.10919e-05
0.000145136 -0.00013736 -2.33486e-05
-3.10919e-05 -2.33486e-05 -0.000499624
0.00185297 0.000187021 -7.60944e-06
0.000187021 0.000759106 -7.5124e-06
-7.60944e-06 -7.5124e-06 0.000651957
0.00119495 0.000330946 8.4324e-06
0.000330946 0.000147422 -1.80129e-06
8.4324e-06 -1.80129e-06 -3.06378e-05
0.00248133 0.000500928 7.22278e-05
0.000500928 0.000237873 3.48775e-05
7.22278e-05 3.48775e-05 0.000206354
-0.00373205 -4.34427e-05 -0.000157432
-4.34427e-05 -0.00203145 -1.04872e-05
-0.000157432 -1.04872e-05 -0.00166228
-0.000887148 8.46483e-06 5.01063e-05
8.46483e-06 0.00103426 1.02834e-06
5.01063e-05 1.02834e-06 0.000119735
0.00159508 -3.75372e-05 -5.89163e-05
-3.75372e-05 0.000388056 7.53698e-06
-5.89163e-05 7.53698e-06 -4.7995e-06
0.00229407 -0.00018662 -4.36813e-05
-0.00018662 0.000445376 -2.42347e-05
-4.36813e-05 -2.42347e-05 0.00072457
0.00320422 -0.000710584 -4.55385e-05
-0.000710584 0.000534248 2.93473e-06
-4.55385e-05 2.93473e-06 -0.000227412
0.00176849 0.00011603 -4.30733e-05
0.00011603 0.00196866 2.5213e-05
-4.30733e-05 2.5213e-05 0.00153485
-0.00103914 -0.000269576 8.91285e-05
-0.000269576 -0.000978713 -7.61995e-05
8.91285e-05 -7.61995e-05 -0.00321634
0.00859014 0.000537138 -3.04382e-05
0.000537138 0.00426136 5.36067e-06
-3.04382e-05 5.36067e-06 0.0040884
0.0019994 -0.000387618 -5.76054e-06
-0.000387618 0.000329593 2.51091e-06
-5.76054e-06 2.51091e-06 0.000311404
-0.00111078 0.000313554 4.71635e-06
0.000313554 -0.000457213 -4.77889e-06
4.71635e-06 -4.77889e-06 -0.000717774
0.00370568 8.11234e-05 -1.97615e-05
8.11234e-05 0.00058465 2.88393e-05
-1.97615e-05 2.88393e-05 -0.00127747
0.00568061 -0.000737466 -3.72816e-05
-0.000737466 0.00144542 1.14249e-05
-3.72816e-05 1.14249e-05 0.000583769
-0.000868098 -0.000155848 2.06807e-05
-0.000155848 -0.000938821 -5.53944e-06
2.06807e-05 -5.53944e-06 -0.0011599
0.00828323 -0.000188853 4.71301e-05
-0.000188853 0.00237189 -8.80938e-06
4.71301e-05 -8.80938e-06 0.00136065
0.003791 -0.00028363 3.15945e-05
-0.00028363 0.000565502 -1.98295e-05
3.15945e-05 -1.98295e-05 9.54906e-07
-0.000247601 -0.000157711 -2.08153e-05
-0.000157711 -0.000744688 6.2931e-06
-2.08153e-05 6.2931e-06 -0.000676193
0.00100078 -0.000235865 -1.50052e-06
-0.000235865 -0.00031354 -9.46512e-07
-1.50052e-06 -9.46512e-07 -0.000257683
0.00222433 -0.000319929 1.50665e-05
-0.000319929 0.000161571 -1.3319e-05
1.50665e-05 -1.3319e-05 0.000210202
0.0015705 -0.000316751 -1.20194e-05
-0.000316751 0.000147669 -1.74646e-06
-1.20194e-05 -1.74646e-06 -3.87199e-05
0.00163761 -0.000330132 -5.48171e-07
-0.000330132 -1.00094e-06 6.17125e-07
-5.48171e-07 6.17125e-07 -0.000125556
0.00207553 -0.00030562 -2.37268e-06
-0.00030562 0.000148387 -5.79131e-07
-2.37268e-06 -5.79131e-07 6.70781e-05
0.00140647 -0.000289349 -4.73647e-07
-0.000289349 4.54292e-05 2.36322e-06
-4.73647e-07 2.36322e-06 -0.00013761
0.0017746 -0.000279111 -2.22115e-06
-0.000279111 0.000104923 -5.87451e-07
-2.22115e-06 -5.87451e-07 -2.95909e-05
0.00191616 -0.000230814 -1.70129e-06
-0.000230814 0.000114512 -1.55406e-06
-1.70129e-06 -1.55406e-06 1.84206e-05
0.00149831 -0.000252945 1.23708e-06
-0.000252945 3.28537e-05 3.22183e-06
1.23708e-06 3.22183e-06 -0.000131277
0.00168104 -0.00022053 -2.24615e-07
-0.00022053 8.68719e-05 1.74172e-08
-2.24615e-07 1.74172e-08 -3.76839e-05
0.00172821 -0.000186459 7.98515e-09
-0.000186459 8.79128e-05 -1.92749e-06
7.98515e-09 -1.92749e-06 -1.12357e-05
0.00176013 -0.000169857 -1.09565e-08
-0.000169857 0.000152097 -1.0101e-06
-1.09565e-08 -1.0101e-06 4.14786e-05
0.00158665 -0.00018242 -2.16377e-06
-0.00018242 6.53913e-05 2.08152e-06
-2.16377e-06 2.08152e-06 -6.01689e-05
0.00169652 -0.000185352 1.00442e-06
-0.000185352 0.000164266 -4.16856e-06
1.00442e-06 -4.16856e-06 2.47453e-05
0.00174895 -0.000214954 -3.19018e-06
-0.000214954 0.000261785 -1.08574e-06
-3.19018e-06 -1.08574e-06 9.59526e-05
0.00164444 -0.000215424 1.41388e-06
-0.000215424 0.000167931 2.96779e-07
1.41388e-06 2.96779e-07 1.61935e-06
0.00152589 -0.000209243 -6.35573e-07
-0.000209243 6.75207e-05 4.47124e-06
-6.35573e-07 4.47124e-06 -8.44995e-05
0.00110507 -0.000188001 -4.95209e-06
-0.000188001 4.58374e-05 3.10708e-06
-4.95209e-06 3.10708e-06 -0.00013156
0.00139484 -0.00021597 7.98412e-07
-0.00021597 0.000145713 -2.48769e-07
7.98412e-07 -2.48769e-07 -4.29387e-05
0.00132454 -0.000220475 2.57609e-06
-0.000220475 5.90546e-05 -2.56943e-07
2.57609e-06 -2.56943e-07 -0.000131019
0.000985399 -0.000153439 -1.6359e-06
-0.000153439 0.000106858 1.53413e-06
-1.6359e-06 1.53413e-06 -3.92838e-05
0.00116217 -0.000182188 5.86439e-07
-0.000182188 0.000178869 1.61695e-09
5.86439e-07 1.61695e-09 8.65144e-06
0.000690196 -0.00016298 -4.14335e-08
-0.00016298 -0.000117093 -5.01109e-06
-4.14335e-08 -5.01109e-06 -0.000302359
0.000753684 -7.43519e-05 -3.41425e-06
-7.43519e-05 3.7346e-05 2.87404e-06
-3.41425e-06 2.87404e-06 -6.41997e-05
0.00103703 -0.000147232 1.30795e-07
-0.000147232 0.000172531 -2.304e-07
1.30795e-07 -2.304e-07 3.71245e-05
0.00112849 -0.000169103 -2.66455e-07
-0.000169103 0.000216251 -1.69993e-06
-2.66455e-07 -1.69993e-06 6.18411e-05
0.000502225 6.11275e-05 2.13845e-06
6.11275e-05 -6.83444e-05 6.81326e-06
2.13845e-06 6.81326e-06 -0.000108651
0.000748627 -3.10874e-05 3.35719e-07
-3.10874e-05 5.50152e-05 2.20564e-07
3.35719e-07 2.20564e-07 -3.78879e-05
0.001061 -0.000101655 1.13962e-06
-0.000101655 0.000226342 -2.87116e-07
1.13962e-06 -2.87116e-07 9.8412e-05
0.00249048 0.00010219 -3.80771e-05
0.00010219 0.00105397 2.39821e-06
-3.80771e-05 2.39821e-06 0.00105631
0.000586537 7.01431e-05 -4.03094e-07
7.01431e-05 -2.18339e-05 -3.59612e-07
-4.03094e-07 -3.59612e-07 -5.39536e-05
0.000732508 -2.59927e-05 2.23123e-06
-2.59927e-05 4.56042e-05 -3.44911e-06
2.23123e-06 -3.44911e-06 -2.79278e-05
0.00160649 7.49129e-05 1.57232e-05
7.49129e-05 0.000548183 -3.85323e-07
1.57232e-05 -3.85323e-07 0.000550269
0.000653786 6.80124e-05 -1.19177e-06
6.80124e-05 7.22456e-06 -4.65076e-06
-1.19177e-06 -4.65076e-06 -1.77999e-05
0.0022884 8.18177e-05 3.17918e-05
8.18177e-05 0.000927071 -2.79096e-06
3.17918e-05 -2.79096e-06 0.000935228
0.000892428 7.32822e-05 8.63539e-07
7.32822e-05 0.000129352 4.14111e-07
8.63539e-07 4.14111e-07 2.83181e-05
0.000777017 1.87206e-05 -2.2665e-07
1.87206e-05 6.3077e-05 4.89075e-07
-2.2665e-07 4.89075e-07 -2.57591e-05
0.000756601 -2.04291e-05 2.4663e-07
-2.04291e-05 5.83274e-05 -1.68344e-06
2.4663e-07 -1.68344e-06 -3.0744e-05
0.000861822 3.10164e-05 3.47065e-07
3.10164e-05 0.000110899 5.83997e-07
3.47065e-07 5.83997e-07 2.19032e-05
0.000755064 -1.84368e-05 4.01927e-07
-1.84368e-05 5.07979e-05 -5.35327e-08
4.01927e-07 -5.35327e-08 -3.10035e-05
0.000682943 -3.13702e-05 -9.96992e-07
-3.13702e-05 1.26156e-06 -2.82172e-06
-9.96992e-07 -2.82172e-06 -5.4512e-05
0.00063128 -5.26968e-05 -7.39027e-07
-5.26968e-05 -2.52725e-05 -4.53365e-06
-7.39027e-07 -4.53365e-06 -4.67788e-05
0.000696207 -2.74664e-05 1.26026e-07
-2.74664e-05 3.27661e-06 -4.90629e-08
1.26026e-07 -4.90629e-08 -4.85268e-05
0.00072745 -3.4019e-05 -7.9763e-08
-3.4019e-05 2.69639e-05 1.15981e-06
-7.9763e-08 1.15981e-06 -4.56007e-05
0.00243274 -7.27916e-05 -3.16915e-05
-7.27916e-05 0.000994797 -3.56704e-06
-3.16915e-05 -3.56704e-06 0.00100483
0.000623257 -4.39548e-05 -2.79691e-07
-4.39548e-05 -3.83112e-05 3.72152e-08
-2.79691e-07 3.72152e-08 -5.69171e-05
0.000702988 -1.15014e-05 1.65408e-06
-1.15014e-05 2.38867e-06 2.14879e-06
1.65408e-06 2.14879e-06 -4.68145e-05
0.00238605 -6.29486e-05 -2.75169e-06
-6.29486e-05 0.00096096 1.71616e-07
-2.75169e-06 1.71616e-07 0.000973092
0.000633731 -3.70745e-05 4.3659e-07
-3.70745e-05 -3.93241e-05 4.07962e-06
4.3659e-07 4.07962e-06 -5.52782e-05
0.00229489 -5.20259e-05 2.01919e-05
-5.20259e-05 0.000902438 4.2043e-06
2.01919e-05 4.2043e-06 0.000917022
0.000724899 0.000191153 8.04535e-06
0.000191153 0.001004 3.93223e-05
8.04535e-06 3.93223e-05 0.00033255
-0.000843547 -0.000144717 7.79253e-07
-0.000144717 0.000677724 8.69057e-06
7.79253e-07 8.69057e-06 -0.000219732
0.00209068 -7.33078e-05 -6.03697e-05
-7.33078e-05 0.000636083 -1.38923e-05
-6.03697e-05 -1.38923e-05 0.000108724
0.00069362 -2.35082e-06 6.25464e-07
-2.35082e-06 2.45376e-05 2.66153e-07
6.25464e-07 2.66153e-07 -6.6542e-05
0.000778988 8.88268e-06 1.90591e-07
8.88268e-06 7.96069e-05 6.43538e-07
1.90591e-07 6.43538e-07 -2.19576e-05
0.000987595 0.000131112 -4.80231e-07
0.000131112 0.000209828 3.23998e-07
-4.80231e-07 3.23998e-07 9.36096e-05
0.00119914 0.000172965 1.3849e-06
0.000172965 0.000295349 -2.49284e-07
1.3849e-06 -2.49284e-07 0.000159355
0.000933843 9.85078e-05 -2.20251e-06
9.85078e-05 0.000190588 -8.73814e-07
-2.20251e-06 -8.73814e-07 6.74932e-05
0.000823519 5.5735e-05 9.11175e-07
5.5735e-05 9.83739e-05 1.11991e-06
9.11175e-07 1.11991e-06 1.60362e-06
0.000755952 2.65469e-05 7.61296e-07
2.65469e-05 5.9724e-05 1.14993e-06
7.61296e-07 1.14993e-06 -3.81773e-05
0.000704928 7.18865e-05 -1.45434e-06
7.18865e-05 5.25899e-05 -1.38182e-06
-1.45434e-06 -1.38182e-06 -5.92013e-05
-0.000156672 7.30528e-05 -4.72097e-07
7.30528e-05 -0.000431307 2.84801e-07
-4.72097e-07 2.84801e-07 -0.000555298
0.00103716 0.000153843 2.56052e-07
0.000153843 0.000167474 -4.50708e-06
2.56052e-07 -4.50708e-06 5.79352e-05
0.00219685 0.0003398 5.12797e-06
0.0003398 0.000522251 -1.09323e-05
5.12797e-06 -1.09323e-05 0.000355808
0.000724258 9.8657e-05 -2.52291e-06
9.8657e-05 3.88278e-05 -5.74884e-07
-2.52291e-06 -5.74884e-07 -5.28384e-05
0.00069166 1.76555e-05 -2.21423e-07
1.76555e-05 3.87147e-05 -1.06877e-06
-2.21423e-07 -1.06877e-06 -4.35281e-05
0.0111195 0.000145011 -5.8533e-05
0.000145011 0.00360558 2.95163e-06
-5.8533e-05 2.95163e-06 0.00232035
-0.00154442 -0.00035826 -7.35589e-05
-0.00035826 3.82407e-06 -1.72052e-05
-7.35589e-05 -1.72052e-05 -0.000572396
0.000376849 -0.000420251 -1.62137e-05
-0.000420251 0.000661254 -2.99707e-05
-1.62137e-05 -2.99707e-05 0.00018742
-0.00403578 -0.00040722 2.07006e-05
-0.00040722 -0.00189338 4.7025e-05
2.07006e-05 4.7025e-05 -0.0016629
0.00908199 -6.71082e-05 7.80485e-05
-6.71082e-05 0.00434106 -9.15582e-06
7.80485e-05 -9.15582e-06 0.00154434
0.00254001 0.000242541 -1.98657e-05
0.000242541 0.00038343 1.32066e-06
-1.98657e-05 1.32066e-06 0.000169164
0.00164791 0.000441872 -4.28308e-05
0.000441872 0.000130731 -1.71347e-05
-4.28308e-05 -1.71347e-05 -0.000467033
0.008503 -8.77605e-05 5.35002e-05
-8.77605e-05 0.00310615 1.71295e-05
5.35002e-05 1.71295e-05 0.00150115
0.00394278 0.000614004 1.28313e-05
0.000614004 0.000533752 -2.65141e-05
1.28313e-05 -2.65141e-05 -0.000114759
0.0020201 0.000442233 3.26098e-06
0.000442233 0.000292006 1.23096e-05
3.26098e-06 1.23096e-05 0.000134732
0.000893015 0.000284042 3.64548e-06
0.000284042 -2.63211e-06 -3.94861e-06
3.64548e-06 -3.94861e-06 -0.000164209
0.00103625 0.000164324 -1.26603e-05
0.000164324 0.000222517 7.70879e-06
-1.26603e-05 7.70879e-06 0.000152278
0.00164325 0.000377801 -2.78015e-05
0.000377801 0.000280544 -1.62804e-05
-2.78015e-05 -1.62804e-05 0.000118822
0.00166117 0.00045425 -1.74138e-05
0.00045425 -0.000134765 1.46544e-05
-1.74138e-05 1.46544e-05 -0.000191043
0.000521123 -0.000155181 -2.20794e-05
-0.000155181 -0.00199525 -3.99882e-06
-2.20794e-05 -3.99882e-06 -0.00239976
0.00218812 -0.000140411 2.5813e-06
-0.000140411 0.00128945 -6.57454e-06
2.5813e-06 -6.57454e-06 0.00121402
-0.00236319 -1.42487e-05 2.719e-05
-1.42487e-05 0.000408211 -2.11452e-06
2.719e-05 -2.11452e-06 -0.000629411
0.00275482 -0.000481418 -5.21713e-05
-0.000481418 0.000634186 5.83704e-06
-5.21713e-05 5.83704e-06 0.000554779
0.00384433 -0.000673996 -1.40567e-06
-0.000673996 0.00086878 -1.30223e-05
-1.40567e-06 -1.30223e-05 -0.000326191
0.000974628 -0.000153176 3.92371e-05
-0.000153176 0.000912613 1.80883e-05
3.92371e-05 1.80883e-05 0.000506747
0.00948997 0.000138174 -6.14497e-05
0.000138174 0.00360267 3.27538e-05
-6.14497e-05 3.27538e-05 0.00188934
0.00067342 -0.000223868 -9.962e-06
-0.000223868 -0.000260004 -7.62575e-07
-9.962e-06 -7.62575e-07 -0.00038965
0.00673054 9.00241e-05 9.94326e-07
9.00241e-05 0.00155896 2.22727e-05
9.94326e-07 2.22727e-05 0.000688982
0.00415215 -0.000371087 5.00678e-05
-0.000371087 0.000446159 -1.11429e-06
5.00678e-05 -1.11429e-06 -0.000344014
0.00210569 -0.000249241 1.21374e-05
-0.000249241 0.00051632 -1.3543e-06
1.21374e-05 -1.3543e-06 0.000243768
0.00336657 -9.37725e-05 -7.19759e-05
-9.37725e-05 0.000631481 -1.23766e-05
-7.19759e-05 -1.23766e-05 0.000329273
-1.72821e-05 -0.00019197 -1.8202e-05
-0.00019197 -0.000862784 5.59535e-06
-1.8202e-05 5.59535e-06 -0.000785935
0.00151346 -0.000296612 -4.86678e-08
-0.000296612 -0.000190171 -1.80696e-07
-4.86678e-08 -1.80696e-07 -0.000159507
0.00183775 -0.000213895 6.84249e-06
-0.000213895 -8.30236e-05 -2.65694e-06
6.84249e-06 -2.65694e-06 -6.06026e-05
0.00145779 -0.000319575 -1.13161e-06
-0.000319575 -9.52059e-05 1.51915e-06
-1.13161e-06 1.51915e-06 -0.000214794
0.00178713 -0.000280819 -9.90403e-07
-0.000280819 1.83859e-05 -1.65728e-07
-9.90403e-07 -1.65728e-07 -6.03091e-05
0.00182025 -0.000198467 -1.17924e-06
-0.000198467 -2.52197e-05 1.11913e-06
-1.17924e-06 1.11913e-06 -6.87084e-05
0.00157651 -0.000270088 -3.52499e-06
-0.000270088 -2.37637e-06 2.74077e-06
-3.52499e-06 2.74077e-06 -0.000136624
0.00180956 -0.000226899 3.54442e-07
-0.000226899 5.5155e-05 1.18903e-06
3.54442e-07 1.18903e-06 -4.06872e-05
0.0018573 -0.000191937 4.64931e-07
-0.000191937 0.000101407 4.0354e-07
4.64931e-07 4.0354e-07 2.16788e-05
0.00155809 -0.0002111 1.23018e-06
-0.0002111 2.47703e-05 3.787e-06
1.23018e-06 3.787e-06 -9.83068e-05
0.00171032 -0.000187932 4.42244e-08
-0.000187932 7.84863e-05 1.07419e-06
4.42244e-08 1.07419e-06 -2.17317e-05
0.00191506 -0.000177571 1.7089e-06
-0.000177571 0.000210132 -4.67402e-07
1.7089e-06 -4.67402e-07 0.000114742
0.00168484 -0.000169266 -3.36624e-06
-0.000169266 0.000106903 2.63798e-06
-3.36624e-06 2.63798e-06 -1.78476e-06
0.00173681 -0.00016922 2.75101e-06
-0.00016922 0.000172066 -2.57529e-06
2.75101e-06 -2.57529e-06 4.94252e-05
0.00157727 -0.000179455 -5.43069e-07
-0.000179455 6.03285e-05 6.19781e-06
-5.43069e-07 6.19781e-06 -6.22524e-05
0.00169836 -0.000186004 8.22094e-07
-0.000186004 0.000166209 -8.80364e-07
8.22094e-07 -8.80364e-07 2.62677e-05
0.00162847 -0.000179145 -1.34036e-06
-0.000179145 0.000165353 -1.69184e-06
-1.34036e-06 -1.69184e-06 1.95772e-05
0.0012998 -0.000185411 -5.35636e-06
-0.000185411 6.23386e-05 3.27031e-07
-5.35636e-06 3.27031e-07 -9.90992e-05
0.00165533 -0.000209682 4.04202e-07
-0.000209682 0.000208956 -3.21501e-07
4.04202e-07 -3.21501e-07 4.36012e-05
0.00164825 -0.000214911 1.885e-06
-0.000214911 0.000169778 2.0995e-06
1.885e-06 2.0995e-06 3.60315e-06
0.00115531 -0.000173028 -3.65928e-06
-0.000173028 0.000135442 3.33143e-06
-3.65928e-06 3.33143e-06 -2.14778e-05
0.00110013 -0.00018609 -1.30548e-06
-0.00018609 4.6763e-05 1.33012e-06
-1.30548e-06 1.33012e-06 -0.000129953
0.00163702 -0.00022923 3.85791e-06
-0.00022923 0.000281044 -1.18087e-06
3.85791e-06 -1.18087e-06 9.25475e-05
0.00072918 -9.38666e-05 -3.95264e-06
-9.38666e-05 -3.28792e-06 3.04015e-06
-3.95264e-06 3.04015e-06 -0.000112665
0.00106865 -0.000159974 2.08562e-07
-0.000159974 0.000150622 -4.56972e-07
2.08562e-07 -4.56972e-07 3.5458e-06
0.00119769 -0.000183518 1.30175e-06
-0.000183518 0.000194122 -2.97179e-06
1.30175e-06 -2.97179e-06 2.40009e-05
0.000507189 6.82348e-06 -4.41039e-06
6.82348e-06 -8.35007e-05 7.55694e-06
-4.41039e-06 7.55694e-06 -0.000127119
0.000811625 -8.17428e-05 9.7437e-08
-8.17428e-05 6.91789e-05 2.43097e-07
9.7437e-08 2.43097e-07 -3.35482e-05
0.00110957 -0.000147999 1.73573e-06
-0.000147999 0.000209867 -8.54703e-07
1.73573e-06 -8.54703e-07 7.47807e-05
0.00284881 0.000117933 -4.74681e-05
0.000117933 0.00125829 2.31323e-06
-4.74681e-05 2.31323e-06 0.00125636
0.000575251 3.79559e-05 4.748e-07
3.79559e-05 -3.4439e-05 -3.42645e-07
4.748e-07 -3.42645e-07 -7.18402e-05
0.000785783 -6.80666e-05 3.00848e-06
-6.80666e-05 7.27117e-05 -2.99076e-06
3.00848e-06 -2.99076e-06 -2.08185e-05
0.00259375 0.000102801 2.4885e-06
0.000102801 0.00111085 2.04627e-07
2.4885e-06 2.04627e-07 0.00111307
0.000643172 5.69099e-05 7.92655e-07
5.69099e-05 6.10914e-06 -5.51888e-06
7.92655e-07 -5.51888e-06 -2.42263e-05
0.00243594 9.15891e-05 3.91887e-05
9.15891e-05 0.00101676 -2.50425e-06
3.91887e-05 -2.50425e-06 0.00102224
0.000951672 0.000145379 9.18514e-07
0.000145379 0.000148518 -9.87574e-07
9.18514e-07 -9.87574e-07 2.13306e-05
0.000829993 0.000102708 5.54707e-07
0.000102708 0.000100589 -1.97053e-08
5.54707e-07 -1.97053e-08 -5.17367e-06
0.000678132 -7.04266e-06 -5.45634e-07
-7.04266e-06 1.30233e-05 -9.88414e-07
-5.45634e-07 -9.88414e-07 -8.40856e-05
0.000670459 -1.22054e-05 -4.23319e-08
-1.22054e-05 2.75332e-06 9.04293e-07
-4.23319e-08 9.04293e-07 -8.36559e-05
0.000705251 -3.34004e-05 1.07781e-07
-3.34004e-05 2.64048e-05 1.38844e-07
1.07781e-07 1.38844e-07 -6.07272e-05
0.00066134 -3.03516e-05 -1.00787e-06
-3.03516e-05 -5.96048e-06 -3.10148e-06
-1.00787e-06 -3.10148e-06 -6.89448e-05
0.000710779 -3.66281e-05 -1.62436e-07
-3.66281e-05 2.24572e-05 1.57105e-06
-1.62436e-07 1.57105e-06 -5.60041e-05
0.000674763 -3.57424e-05 3.38829e-07
-3.57424e-05 -2.29367e-06 -1.70811e-07
3.38829e-07 -1.70811e-07 -5.83357e-05
0.000627317 -6.32397e-05 1.54483e-07
-6.32397e-05 -1.65352e-05 -4.99732e-06
1.54483e-07 -4.99732e-06 -4.19895e-05
0.00245712 -8.20331e-05 -3.5851e-05
-8.20331e-05 0.00101589 -3.15842e-06
-3.5851e-05 -3.15842e-06 0.0010239
0.000618689 -5.05765e-05 -4.28823e-08
-5.05765e-05 -3.28255e-05 3.10282e-08
-4.28823e-08 3.10282e-08 -5.39585e-05
0.000680766 -2.48308e-05 1.85565e-06
-2.48308e-05 -5.0023e-06 2.34489e-06
1.85565e-06 2.34489e-06 -5.6695e-05
0.00242869 -7.24152e-05 -2.4421e-06
-7.24152e-05 0.000991869 1.86776e-07
-2.4421e-06 1.86776e-07 0.00100196
0.00062004 -4.25015e-05 7.11067e-07
-4.25015e-05 -4.03479e-05 4.28119e-06
7.11067e-07 4.28119e-06 -5.87656e-05
0.00236401 -6.22733e-05 2.48617e-05
-6.22733e-05 0.000947827 4.00732e-06
2.48617e-05 4.00732e-06 0.000960175
0.00962465 0.000254743 0.000117795
0.000254743 0.00290112 4.08736e-05
0.000117795 4.08736e-05 0.00197663
-0.00241772 -0.000288615 -4.54881e-05
-0.000288615 -0.00133863 -3.60762e-06
-4.54881e-05 -3.60762e-06 -0.00144836
-0.00244604 -2.30026e-05 -5.23482e-05
-2.30026e-05 -0.000101932 -1.42031e-05
-5.23482e-05 -1.42031e-05 -0.00120488
0.000731863 -2.21704e-05 1.50376e-06
-2.21704e-05 5.08933e-05 1.77531e-06
1.50376e-06 1.77531e-06 -4.90808e-05
0.000793138 0.000123772 -9.44717e-07
0.000123772 0.000105986 1.08044e-06
-9.44717e-07 1.08044e-06 -7.02485e-06
0.00107521 0.000108862 5.54566e-07
0.000108862 0.00026813 -3.06696e-09
5.54566e-07 -3.06696e-09 0.000144864
0.00104553 0.000161109 -1.55612e-06
0.000161109 0.000213136 9.15055e-08
-1.55612e-06 9.15055e-08 7.95225e-05
0.00108815 0.000172221 1.18939e-05
0.000172221 0.000198808 1.85169e-06
1.18939e-05 1.85169e-06 4.82656e-05
0.000427278 0.000116154 -1.24966e-06
0.000116154 -0.000106875 -4.2396e-07
-1.24966e-06 -4.2396e-07 -0.000235676
0.000490112 7.46742e-05 -1.16423e-06
7.46742e-05 -6.26332e-05 -8.18667e-07
-1.16423e-06 -8.18667e-07 -0.000173229
0.000400531 0.000116759 5.59502e-07
0.000116759 -0.000132984 6.70986e-07
5.59502e-07 6.70986e-07 -0.000266749
0.000966312 0.00013918 -1.4912e-06
0.00013918 0.000132617 1.92149e-09
-1.4912e-06 1.92149e-09 1.90972e-05
0.000208598 0.000140902 1.15525e-06
0.000140902 -0.000354859 -1.35902e-06
1.15525e-06 -1.35902e-06 -0.000487225
0.00282124 0.000353249 -2.22678e-06
0.000353249 0.000868178 -3.63352e-06
-2.22678e-06 -3.63352e-06 0.000714193
0.00154653 0.000335006 4.55967e-08
0.000335006 5.55343e-05 2.05477e-06
4.55967e-08 2.05477e-06 -0.000102173
0.00146293 0.000292428 4.14444e-06
0.000292428 0.000159941 -2.69425e-06
4.14444e-06 -2.69425e-06 4.67434e-06
0.000704249 0.000104274 -5.17236e-06
0.000104274 4.81297e-05 5.04061e-06
-5.17236e-06 5.04061e-06 -4.27616e-05
0.00320058 0.000223043 8.8207e-06
0.000223043 -0.000100909 8.41147e-06
8.8207e-06 8.41147e-06 -0.000356209
0.00635306 8.83385e-05 2.11444e-05
8.83385e-05 0.00140045 1.80987e-05
2.11444e-05 1.80987e-05 0.000135172
0.00543233 -0.000757236 -1.90559e-05
-0.000757236 0.00285082 -3.91676e-05
-1.90559e-05 -3.91676e-05 0.00270475
0.00570624 0.000315948 0.000295214
0.000315948 0.00183493 8.60061e-05
0.000295214 8.60061e-05 -0.000452914
0.00114769 0.000395123 2.76521e-05
0.000395123 -0.000362054 2.63455e-05
2.76521e-05 2.63455e-05 -0.000535079
0.0027819 0.000489911 -7.51486e-05
0.000489911 0.000128795 -2.33199e-05
-7.51486e-05 -2.33199e-05 -0.000303851
0.00296083 0.000469523 5.54409e-05
0.000469523 0.000504997 2.28724e-05
5.54409e-05 2.28724e-05 0.000517683
0.00225824 0.000454454 1.13875e-06
0.000454454 0.000379629 5.2756e-06
1.13875e-06 5.2756e-06 0.000247574
0.000568692 0.000245484 -1.49317e-06
0.000245484 -0.000147269 7.24095e-06
-1.49317e-06 7.24095e-06 -0.00029983
0.00245762 0.000524405 -7.95729e-05
0.000524405 0.000256591 -4.77132e-05
-7.95729e-05 -4.77132e-05 0.000171595
0.00283532 -0.000144922 -0.000134799
-0.000144922 0.000357528 4.81544e-06
-0.000134799 4.81544e-06 -2.24477e-05
0.00901149 -0.000132892 9.64007e-06
-0.000132892 0.00281754 -2.11574e-06
9.64007e-06 -2.11574e-06 0.00219564
-0.00673917 -0.000203698 0.000163241
-0.000203698 -0.00359467 2.35373e-06
0.000163241 2.35373e-06 -0.00348184
0.00166908 -0.000277324 -1.86695e-05
-0.000277324 0.000183378 8.04681e-06
-1.86695e-05 8.04681e-06 9.25414e-05
0.00527885 -0.00041549 7.8606e-05
-0.00041549 0.00117097 8.33806e-06
7.8606e-05 8.33806e-06 0.000363701
0.00135258 -0.000350282 7.75234e-05
-0.000350282 -0.00118116 4.31056e-05
7.75234e-05 4.31056e-05 -0.00199145
0.00123023 -0.000177006 9.05312e-06
-0.000177006 5.05158e-05 -1.08994e-06
9.05312e-06 -1.08994e-06 -0.000134282
0.00178978 -1.52846e-05 -7.45685e-06
-1.52846e-05 -0.000330028 5.19502e-06
-7.45685e-06 5.19502e-06 -0.00060914
0.00450675 -0.000193076 1.34982e-05
-0.000193076 0.00153303 -4.2072e-06
1.34982e-05 -4.2072e-06 0.00143966
0.00295394 -6.64464e-06 5.46564e-05
-6.64464e-06 0.000572067 -4.66442e-06
5.46564e-05 -4.66442e-06 0.000557908
0.000669312 -0.000270401 -1.09163e-05
-0.000270401 -0.000607581 4.90948e-06
-1.09163e-05 4.90948e-06 -0.000593617
0.00181297 -0.000224098 -3.49402e-07
-0.000224098 -8.38044e-05 1.44492e-06
-3.49402e-07 1.44492e-06 -7.76783e-05
0.00182344 -0.000114495 7.04048e-06
-0.000114495 -2.40874e-05 -2.24391e-07
7.04048e-06 -2.24391e-07 -3.40968e-05
0.0015902 -0.000262165 2.02493e-06
-0.000262165 -6.88621e-05 -2.97849e-08
2.02493e-06 -2.97849e-08 -0.000144753
0.00187739 -0.000200611 1.75261e-06
-0.000200611 1.86696e-05 7.83308e-07
1.75261e-06 7.83308e-07 -3.08591e-05
0.00177826 -0.000135921 9.87129e-07
-0.000135921 3.33701e-05 7.08945e-07
9.87129e-07 7.08945e-07 -1.84305e-05
0.00172572 -0.00022388 5.2677e-06
-0.00022388 7.81962e-06 2.9674e-06
5.2677e-06 2.9674e-06 -8.78572e-05
0.00183168 -0.000187657 1.06798e-06
-0.000187657 9.62042e-05 3.39156e-07
1.06798e-06 3.39156e-07 1.64763e-05
0.00196399 -0.000155684 7.2917e-07
-0.000155684 0.000216441 5.28482e-07
7.2917e-07 5.28482e-07 0.000133472
0.00169831 -0.000188841 6.02864e-07
-0.000188841 7.30267e-05 3.49151e-06
6.02864e-07 3.49151e-06 -2.81901e-05
0.00177022 -0.000174989 -3.19168e-07
-0.000174989 0.000134693 4.32376e-07
-3.19168e-07 4.32376e-07 3.80149e-05
0.00162036 -0.000158886 4.04398e-06
-0.000158886 8.66437e-05 -1.24742e-06
4.04398e-06 -1.24742e-06 -2.53153e-05
0.00161755 -0.000168977 -3.82946e-06
-0.000168977 6.6439e-05 5.73255e-06
-3.82946e-06 5.73255e-06 -4.03535e-05
0.00174663 -0.000168238 -1.34129e-06
-0.000168238 0.000177058 -9.2323e-08
-1.34129e-06 -9.2323e-08 5.68007e-05
0.00169908 -0.000160021 6.31131e-07
-0.000160021 0.000197218 -1.07225e-06
6.31131e-07 -1.07225e-06 6.28561e-05
0.0016945 -0.000186366 7.80354e-07
-0.000186366 0.000164712 2.24783e-06
7.80354e-07 2.24783e-06 2.44245e-05
0.0016626 -0.000180523 7.49031e-07
-0.000180523 0.000185073 -5.02405e-07
7.49031e-07 -5.02405e-07 3.87394e-05
0.00159846 -0.000174605 -3.14989e-06
-0.000174605 0.000195529 -1.15972e-07
-3.14989e-06 -1.15972e-07 5.08385e-05
0.00103008 -0.000161755 -7.508e-06
-0.000161755 -2.10982e-05 2.32293e-06
-7.508e-06 2.32293e-06 -0.000172136
0.00133798 -0.000187191 -1.14487e-06
-0.000187191 8.68792e-05 -4.652e-08
-1.14487e-06 -4.652e-08 -7.47668e-05
0.00155991 -0.000204224 3.52721e-06
-0.000204224 0.000154387 3.09863e-07
3.52721e-06 3.09863e-07 -1.03692e-05
0.000875176 -0.000121557 -5.45598e-06
-0.000121557 3.41653e-05 4.55743e-06
-5.45598e-06 4.55743e-06 -8.58463e-05
0.0011349 -0.000170729 6.42837e-07
-0.000170729 0.000122427 5.98215e-07
6.42837e-07 5.98215e-07 -3.36362e-05
0.00113834 -0.000186777 1.7589e-06
-0.000186777 7.12618e-05 -3.47193e-07
1.7589e-06 -3.47193e-07 -0.000105033
0.000506858 -2.02979e-05 -7.53932e-06
-2.02979e-05 -9.22761e-05 8.36973e-06
-7.53932e-06 8.36973e-06 -0.000144587
0.000869824 -0.00010602 1.55787e-08
-0.00010602 7.48002e-05 -2.51864e-07
1.55787e-08 -2.51864e-07 -3.64348e-05
0.00114759 -0.000166178 2.61426e-06
-0.000166178 0.000192177 -2.65884e-06
2.61426e-06 -2.65884e-06 4.41854e-05
0.00332686 0.000132127 -6.58203e-05
0.000132127 0.00152745 2.36263e-06
-6.58203e-05 2.36263e-06 0.00152144
0.000604505 -2.88522e-07 3.79851e-07
-2.88522e-07 -3.10795e-05 -1.88995e-07
3.79851e-07 -1.88995e-07 -7.56699e-05
0.000888012 -8.91802e-05 4.37251e-06
-8.91802e-05 0.000110563 -2.71488e-06
4.37251e-06 -2.71488e-06 6.7677e-06
0.00299129 0.000113918 3.68688e-06
0.000113918 0.00133582 2.33798e-07
3.68688e-06 2.33798e-07 0.00133473
0.000653836 3.17209e-05 3.82344e-06
3.17209e-05 7.82353e-06 -6.41915e-06
3.82344e-06 -6.41915e-06 -2.9752e-05
0.00271246 9.94342e-05 5.38654e-05
9.94342e-05 0.00117558 -2.47168e-06
5.38654e-05 -2.47168e-06 0.00117867
0.00110385 0.000166345 -9.3719e-08
0.000166345 0.000204086 -3.67393e-06
-9.3719e-08 -3.67393e-06 5.81639e-05
0.00111455 0.000157231 4.71873e-07
0.000157231 0.00023955 2.48853e-07
4.71873e-07 2.48853e-07 0.000111297
0.000851937 8.65515e-05 -1.31618e-06
8.65515e-05 9.45706e-05 -1.62858e-06
-1.31618e-06 -1.62858e-06 -1.76784e-05
0.000754549 0.000121223 -1.77046e-07
0.000121223 6.50784e-05 4.39779e-07
-1.77046e-07 4.39779e-07 -4.48956e-05
0.000672649 1.47729e-05 -5.66429e-07
1.47729e-05 9.41708e-06 -1.87152e-07
-5.66429e-07 -1.87152e-07 -8.96488e-05
0.000707146 2.26977e-05 -2.09507e-06
2.26977e-05 2.61897e-05 -2.79509e-06
-2.09507e-06 -2.79509e-06 -5.21493e-05
0.000660399 -5.0263e-05 -1.2211e-07
-5.0263e-05 1.68777e-06 1.54535e-06
-1.2211e-07 1.54535e-06 -8.59155e-05
0.000664734 -3.29013e-05 3.83137e-07
-3.29013e-05 -2.10663e-06 -3.5291e-07
3.83137e-07 -3.5291e-07 -6.59534e-05
0.000612991 -7.07266e-05 1.09264e-06
-7.07266e-05 -1.3918e-05 -5.6772e-06
1.09264e-06 -5.6772e-06 -4.43224e-05
0.000668086 -3.8814e-05 1.21117e-06
-3.8814e-05 -5.3205e-06 2.67261e-06
1.21117e-06 2.67261e-06 -6.1463e-05
0.00060574 -5.98015e-05 2.1663e-07
-5.98015e-05 -3.00543e-05 -1.75358e-08
2.1663e-07 -1.75358e-08 -5.46568e-05
0.00250574 -9.12721e-05 -4.06028e-05
-9.12721e-05 0.00105037 -2.69244e-06
-4.06028e-05 -2.69244e-06 0.00105626
0.00245342 -8.16503e-05 -1.63604e-06
-8.16503e-05 0.00101311 1.78405e-07
-1.63604e-06 1.78405e-07 0.00102116
0.000607233 -4.85363e-05 1.16233e-06
-4.85363e-05 -3.97565e-05 4.48611e-06
1.16233e-06 4.48611e-06 -6.05446e-05
0.002417 -7.19424e-05 2.96311e-05
-7.19424e-05 0.000984672 3.73815e-06
2.96311e-05 3.73815e-06 0.000994842
0.00294688 4.23002e-06 -4.70801e-05
4.23002e-06 0.00016643 1.73595e-05
-4.70801e-05 1.73595e-05 3.66111e-05
0.00161797 -0.000276193 2.44105e-05
-0.000276193 -0.00112746 9.57545e-06
2.44105e-05 9.57545e-06 -0.0020304
0.00433845 -0.000422623 -4.3274e-05
-0.000422623 0.00184675 -2.80746e-05
-4.3274e-05 -2.80746e-05 0.0019282
0.00158469 0.000215 1.20652e-05
0.000215 0.000367273 4.17601e-06
1.20652e-05 4.17601e-06 0.000205396
0.00123143 0.000125749 9.50794e-07
0.000125749 0.000353607 6.1922e-07
9.50794e-07 6.1922e-07 0.000230035
0.000897497 0.000149699 -1.43428e-06
0.000149699 0.000134357 1.54222e-06
-1.43428e-06 1.54222e-06 3.00145e-06
0.000756006 0.000141674 6.52035e-07
0.000141674 7.2933e-05 7.53468e-07
6.52035e-07 7.53468e-07 -6.06719e-05
0.00102985 0.000169552 -2.11796e-07
0.000169552 0.000171436 -1.86363e-06
-2.11796e-07 -1.86363e-06 1.90117e-05
0.000697045 0.00016033 -6.33972e-07
0.00016033 -6.73804e-05 8.76003e-07
-6.33972e-07 8.76003e-07 -0.000195586
0.000894891 0.000156675 -9.45862e-07
0.000156675 0.000130887 -4.16368e-07
-9.45862e-07 -4.16368e-07 -1.22369e-05
0.00102962 0.000135601 -2.00148e-06
0.000135601 0.000165686 5.54774e-06
-2.00148e-06 5.54774e-06 4.78594e-05
0.00100247 0.000194374 5.13203e-07
0.000194374 7.21992e-05 -3.67095e-08
5.13203e-07 -3.67095e-08 -6.334e-05
0.00225159 0.000315349 1.4144e-06
0.000315349 0.000565473 5.73082e-06
1.4144e-06 5.73082e-06 0.000412234
0.00172157 0.000314431 -1.17272e-06
0.000314431 0.000157222 -5.72633e-07
-1.17272e-06 -5.72633e-07 -3.68275e-06
0.00147227 0.000271017 1.38009e-05
0.000271017 -1.273e-05 1.05375e-05
1.38009e-05 1.05375e-05 -0.000126281
0.00136218 0.000325153 -2.11605e-06
0.000325153 -5.0733e-05 -2.54686e-06
-2.11605e-06 -2.54686e-06 -0.000212249
0.000838372 0.00024684 1.25561e-06
0.00024684 -0.000152789 4.41178e-06
1.25561e-06 4.41178e-06 -0.000295753
0.000325969 0.000176217 1.38786e-05
0.000176217 -0.00044721 6.90597e-06
1.38786e-05 6.90597e-06 -0.000445555
0.00508985 0.000349477 -2.50136e-05
0.000349477 0.000659203 -9.74106e-09
-2.50136e-05 -9.74106e-09 0.000299512
0.000861188 -4.11876e-05 7.68302e-05
-4.11876e-05 -0.00124948 2.11457e-05
7.68302e-05 2.11457e-05 -0.00253138
0.00197795 0.000483373 5.73926e-05
0.000483373 -0.000323314 5.03082e-06
5.73926e-05 5.03082e-06 -0.000880078
0.001714 0.000355167 -2.04245e-05
0.000355167 9.8848e-05 -3.36439e-06
-2.04245e-05 -3.36439e-06 8.40587e-05
0.00112937 0.000358807 -3.23613e-05
0.000358807 -0.000131432 -2.42954e-05
-3.23613e-05 -2.42954e-05 -0.00026521
0.00210819 -0.00010807 1.60994e-05
-0.00010807 0.000124577 5.53128e-07
1.60994e-05 5.53128e-07 4.17695e-05
0.00108021 4.49366e-06 -1.5049e-05
4.49366e-06 -0.000474728 2.17011e-06
-1.5049e-05 2.17011e-06 -0.000678369
0.000463295 0.000362003 6.47105e-05
0.000362003 -0.00192172 -2.0712e-05
6.47105e-05 -2.0712e-05 -0.00257646
0.000512808 -0.000103953 -1.81799e-06
-0.000103953 -0.000357571 1.59364e-05
-1.81799e-06 1.59364e-05 -0.000432249
0.00261478 -3.78254e-05 4.58356e-06
-3.78254e-05 -6.82587e-05 2.1537e-05
4.58356e-06 2.1537e-05 -0.000413447
0.00159904 -0.00011954 -4.35722e-06
-0.00011954 -3.56294e-05 -1.27634e-07
-4.35722e-06 -1.27634e-07 -8.3851e-05
0.00223295 -3.80756e-05 -4.81177e-06
-3.80756e-05 0.000188621 -1.6597e-06
-4.81177e-06 -1.6597e-06 0.000147817
0.00185942 -5.74434e-05 1.94885e-05
-5.74434e-05 2.35237e-05 -1.99494e-06
1.94885e-05 -1.99494e-06 -1.31134e-06
0.00275074 -3.49491e-05 1.62179e-05
-3.49491e-05 0.000621462 -4.99293e-07
1.62179e-05 -4.99293e-07 0.000578886
0.00186601 -0.000236233 -7.27984e-06
-0.000236233 -4.15618e-05 1.86181e-06
-7.27984e-06 1.86181e-06 -5.40939e-05
0.00188382 -0.00012326 2.6953e-06
-0.00012326 -5.40424e-06 4.77745e-08
2.6953e-06 4.77745e-08 -1.81034e-05
0.00187843 -0.000130425 7.31483e-07
-0.000130425 7.10256e-05 -2.77088e-07
7.31483e-07 -2.77088e-07 3.50353e-05
0.00189133 -0.00020088 2.90382e-06
-0.00020088 3.99982e-05 1.06339e-06
2.90382e-06 1.06339e-06 -1.53844e-05
0.0018325 -0.000149465 4.8741e-07
-0.000149465 5.56838e-05 -4.74947e-08
4.8741e-07 -4.74947e-08 -4.97372e-07
0.00185768 -0.000136963 2.22193e-06
-0.000136963 0.000138611 2.51048e-07
2.22193e-06 2.51048e-07 6.68001e-05
0.00181024 -0.000184302 -1.83983e-07
-0.000184302 9.28107e-05 1.39012e-06
-1.83983e-07 1.39012e-06 1.29273e-05
0.00183582 -0.000157934 -1.16212e-06
-0.000157934 0.000146928 9.59502e-08
-1.16212e-06 9.59502e-08 6.2668e-05
0.00165078 -0.000138652 2.51974e-06
-0.000138652 8.0443e-05 -6.43981e-09
2.51974e-06 -6.43981e-09 -2.32951e-05
0.0016218 -0.000172525 -3.07898e-06
-0.000172525 5.69867e-05 1.51564e-06
-3.07898e-06 1.51564e-06 -4.09865e-05
0.00163527 -0.000159113 4.12013e-07
-0.000159113 9.79153e-05 -4.5267e-07
4.12013e-07 -4.5267e-07 -1.40251e-05
0.00157421 -0.000143483 1.24299e-06
-0.000143483 0.000107735 -6.13066e-07
1.24299e-06 -6.13066e-07 -2.01912e-05
0.00175723 -0.000167163 -4.50026e-06
-0.000167163 0.000182397 3.31977e-06
-4.50026e-06 3.31977e-06 6.45332e-05
0.00166785 -0.00015732 -2.18627e-07
-0.00015732 0.000176626 -3.01384e-07
-2.18627e-07 -3.01384e-07 4.37533e-05
0.00145053 -0.000145329 -2.57102e-06
-0.000145329 9.86938e-05 2.98438e-07
-2.57102e-06 2.98438e-07 -3.84485e-05
0.00170377 -0.000182323 2.53666e-06
-0.000182323 0.000209037 3.50031e-07
2.53666e-06 3.50031e-07 6.20493e-05
0.00148217 -0.000168937 7.1575e-07
-0.000168937 0.000128839 -2.64028e-07
7.1575e-07 -2.64028e-07 -1.61592e-05
0.00131506 -0.000155379 -6.43911e-06
-0.000155379 9.26919e-05 1.46755e-06
-6.43911e-06 1.46755e-06 -4.4912e-05
0.00100315 -0.000133724 -8.11568e-06
-0.000133724 4.47171e-05 4.77294e-06
-8.11568e-06 4.77294e-06 -7.70066e-05
0.00108361 -0.000163616 -1.64248e-06
-0.000163616 1.23969e-05 6.43837e-07
-1.64248e-06 6.43837e-07 -0.000138375
0.00133051 -0.000186161 3.24241e-06
-0.000186161 8.63603e-05 -2.53013e-09
3.24241e-06 -2.53013e-09 -7.5189e-05
0.000538617 -9.17608e-05 -1.19265e-05
-9.17608e-05 -8.5081e-05 9.97465e-06
-1.19265e-05 9.97465e-06 -0.000149431
0.000913207 -0.000126536 4.91099e-07
-0.000126536 5.54938e-05 1.79472e-07
4.91099e-07 1.79472e-07 -6.53898e-05
0.00111779 -0.000168866 4.34152e-06
-0.000168866 0.000111174 -1.8085e-06
4.34152e-06 -1.8085e-06 -4.40985e-05
0.00372103 0.000143573 -8.28132e-05
0.000143573 0.00175421 2.99723e-06
-8.28132e-05 2.99723e-06 0.00174368
0.000632631 -5.43382e-05 5.67415e-08
-5.43382e-05 -2.54056e-05 -1.85356e-07
5.67415e-08 -1.85356e-07 -8.03925e-05
0.000969963 -0.000116733 5.23423e-06
-0.000116733 0.00013043 -3.89552e-06
5.23423e-06 -3.89552e-06 1.74975e-05
0.00342768 0.000120202 3.04259e-06
0.000120202 0.00158174 3.37455e-07
3.04259e-06 3.37455e-07 0.00157772
0.000693466 -1.7192e-05 7.99667e-06
-1.7192e-05 1.64222e-05 -7.32642e-06
7.99667e-06 -7.32642e-06 -2.91152e-05
0.0031129 0.000100755 7.57414e-05
0.000100755 0.00140053 -3.13326e-06
7.57414e-05 -3.13326e-06 0.00140183
0.00103638 0.000172946 -1.25587e-06
0.000172946 9.83428e-05 -1.64675e-06
-1.25587e-06 -1.64675e-06 -6.36536e-05
0.00101985 0.000160039 -8.19716e-08
0.000160039 0.000158709 -1.51636e-06
-8.19716e-08 -1.51636e-06 1.37768e-05
0.00111645 0.000150444 -1.17761e-06
0.000150444 0.000216724 -1.89e-06
-1.17761e-06 -1.89e-06 8.72834e-05
0.00127983 0.000169278 -5.43218e-07
0.000169278 0.000331743 4.01684e-07
-5.43218e-07 4.01684e-07 0.000202418
0.00088038 9.27123e-05 -1.10723e-06
9.27123e-05 0.000109233 -7.86459e-07
-1.10723e-06 -7.86459e-07 -2.43733e-06
0.000791295 4.93208e-05 -2.54727e-06
4.93208e-05 7.17823e-05 -2.29029e-06
-2.54727e-06 -2.29029e-06 -1.93562e-05
0.00067558 3.59241e-05 -1.84862e-07
3.59241e-05 9.88134e-06 3.94047e-07
-1.84862e-07 3.94047e-07 -9.07932e-05
0.000682371 -1.63227e-05 -3.83168e-07
-1.63227e-05 1.1391e-05 -7.04351e-08
-3.83168e-07 -7.04351e-08 -6.41051e-05
0.00059423 -6.54651e-05 -5.23696e-07
-6.54651e-05 -1.95629e-05 -5.95159e-06
-5.23696e-07 -5.95159e-06 -5.52919e-05
0.000649145 -4.82932e-05 7.28855e-07
-4.82932e-05 -8.32515e-06 3.05554e-06
7.28855e-07 3.05554e-06 -7.28461e-05
0.000583086 -7.2379e-05 2.73383e-07
-7.2379e-05 -3.06169e-05 -1.31111e-07
2.73383e-07 -1.31111e-07 -6.11093e-05
0.00260669 -0.000100147 -4.74845e-05
-0.000100147 0.00111277 -2.28574e-06
-4.74845e-05 -2.28574e-06 0.00111648
0.000592326 -5.65681e-05 1.22591e-06
-5.65681e-05 -3.89141e-05 4.71875e-06
1.22591e-06 4.71875e-06 -6.2753e-05
0.00248953 -9.11243e-05 -1.13044e-06
-9.11243e-05 0.00104075 1.64372e-07
-1.13044e-06 1.64372e-07 0.00104661
0.00244734 -8.10224e-05 3.43715e-05
-8.10224e-05 0.0010091 3.38273e-06
3.43715e-05 3.38273e-06 0.00101723
0.000492324 2.60726e-05 1.12982e-05
2.60726e-05 -0.000510687 5.19567e-06
1.12982e-05 5.19567e-06 -0.000525502
0.00400255 5.51422e-05 1.72242e-05
5.51422e-05 0.000480722 1.00007e-05
1.72242e-05 1.00007e-05 0.000172845
0.00732094 0.000327188 -9.55328e-05
0.000327188 0.00211919 -2.9297e-05
-9.55328e-05 -2.9297e-05 0.00111502
0.000848777 0.000170965 3.44409e-06
0.000170965 -9.60005e-05 1.1531e-06
3.44409e-06 1.1531e-06 -0.000232953
0.00152321 0.000218317 3.84613e-06
0.000218317 0.000145841 -3.11872e-06
3.84613e-06 -3.11872e-06 -5.43957e-06
0.000937806 0.000177446 -2.78219e-07
0.000177446 2.23304e-05 -2.37729e-06
-2.78219e-07 -2.37729e-06 -0.000133272
0.00107973 0.000166638 -1.4596e-06
0.000166638 0.000250212 -3.75362e-07
-1.4596e-06 -3.75362e-07 0.000111877
0.000989495 0.00016788 -1.52441e-06
0.00016788 0.000153067 -6.94689e-07
-1.52441e-06 -6.94689e-07 -1.29893e-06
0.00124274 0.000200838 5.74317e-06
0.000200838 0.000212249 2.87994e-06
5.74317e-06 2.87994e-06 7.79048e-05
0.00221801 0.000314536 -7.78589e-06
0.000314536 0.000462016 -5.3988e-06
-7.78589e-06 -5.3988e-06 0.000308151
0.00168969 0.000241262 -6.8905e-09
0.000241262 0.00044486 1.99694e-06
-6.8905e-09 1.99694e-06 0.000306539
0.00131253 0.00025543 6.60595e-06
0.00025543 6.97684e-05 1.3086e-05
6.60595e-06 1.3086e-05 -8.09998e-05
0.00180577 0.000315115 -1.33296e-06
0.000315115 0.000209686 1.15545e-06
-1.33296e-06 1.15545e-06 5.13825e-05
0.00217859 0.000308373 -6.71715e-06
0.000308373 0.000307609 3.20047e-06
-6.71715e-06 3.20047e-06 0.000165411
0.00105674 0.00012897 1.55925e-05
0.00012897 -0.000293452 5.41497e-06
1.55925e-05 5.41497e-06 -0.000361419
0.00150736 0.000268423 8.52702e-06
0.000268423 9.40562e-06 1.90386e-06
8.52702e-06 1.90386e-06 -0.000107151
0.00114317 0.000308277 -7.17068e-06
0.000308277 -0.000175285 -7.02639e-06
-7.17068e-06 -7.02639e-06 -0.000338458
0.00102436 0.000171676 -5.62262e-06
0.000171676 -0.000103653 2.05804e-06
-5.62262e-06 2.05804e-06 -0.000111122
0.00496329 0.000170857 3.98694e-05
0.000170857 0.000527518 5.7045e-07
3.98694e-05 5.7045e-07 0.00011516
0.00125538 0.000288269 2.14528e-06
0.000288269 5.27967e-05 -1.18434e-05
2.14528e-06 -1.18434e-05 3.01908e-05
0.00121723 -3.00788e-05 1.65584e-05
-3.00788e-05 -0.000158929 1.61225e-06
1.65584e-05 1.61225e-06 -0.000197916
0.00195948 -5.12144e-05 -9.0622e-06
-5.12144e-05 8.17972e-05 -3.95178e-07
-9.0622e-06 -3.95178e-07 1.28227e-05
0.00215669 0.000137071 6.02548e-05
0.000137071 -0.000149299 -7.84233e-06
6.02548e-05 -7.84233e-06 -0.000414867
-0.000544018 -7.91481e-05 -1.78885e-05
-7.91481e-05 -0.00119173 1.1548e-05
-1.78885e-05 1.1548e-05 -0.00119963
0.00209865 -7.79412e-05 -5.83498e-05
-7.79412e-05 0.000109128 7.38736e-06
-5.83498e-05 7.38736e-06 6.0798e-05
0.0015706 -8.93401e-05 4.42695e-07
-8.93401e-05 -0.000159633 1.41231e-06
4.42695e-07 1.41231e-06 -0.000170624
0.00228326 -4.72376e-05 -2.65814e-06
-4.72376e-05 0.00032005 5.02908e-07
-2.65814e-06 5.02908e-07 0.000274128
0.00189482 -0.000129068 6.91223e-06
-0.000129068 1.98569e-05 1.77049e-07
6.91223e-06 1.77049e-07 -7.81945e-06
0.00187941 -3.01005e-05 3.97119e-06
-3.01005e-05 3.71115e-05 -4.23292e-07
3.97119e-06 -4.23292e-07 -1.82396e-05
0.0019821 -0.000133136 -1.64718e-06
-0.000133136 3.08111e-05 8.18105e-07
-1.64718e-06 8.18105e-07 1.76104e-05
0.00178713 -0.000127956 -1.7092e-06
-0.000127956 1.82452e-05 -8.66503e-09
-1.7092e-06 -8.66503e-09 -1.58041e-05
0.00184784 -0.000124591 2.55664e-06
-0.000124591 7.4424e-05 2.93465e-07
2.55664e-06 2.93465e-07 1.62976e-05
0.00189277 -0.000161766 -1.57004e-06
-0.000161766 8.2896e-05 -3.30121e-07
-1.57004e-06 -3.30121e-07 2.23437e-05
0.00176894 -0.000135721 1.6308e-07
-0.000135721 9.0795e-05 -9.99447e-09
1.6308e-07 -9.99447e-09 1.63856e-05
0.00171911 -0.000120618 2.11535e-06
-0.000120618 8.47919e-05 5.51439e-08
2.11535e-06 5.51439e-08 -8.2888e-06
0.00170071 -0.000159392 -4.89886e-06
-0.000159392 7.394e-05 2.61745e-07
-4.89886e-06 2.61745e-07 -1.15166e-05
0.00167101 -0.000138627 1.56035e-07
-0.000138627 9.36429e-05 -4.61269e-08
1.56035e-07 -4.61269e-08 -9.98277e-06
0.00163169 -0.000126221 1.2968e-06
-0.000126221 0.000110367 -1.77316e-07
1.2968e-06 -1.77316e-07 -1.19334e-05
0.00165171 -0.000159367 -2.88351e-06
-0.000159367 0.000110019 2.9494e-07
-2.88351e-06 2.9494e-07 -1.89515e-06
0.00158487 -0.000143285 9.49519e-09
-0.000143285 0.000111874 -1.45879e-07
9.49519e-09 -1.45879e-07 -1.58354e-05
0.00147293 -0.000131655 -1.89103e-06
-0.000131655 9.92296e-05 5.02469e-07
-1.89103e-06 5.02469e-07 -3.49923e-05
0.00163234 -0.000154558 -5.10367e-07
-0.000154558 0.000153604 1.20558e-06
-5.10367e-07 1.20558e-06 2.22206e-05
0.00143565 -0.000145118 -3.24257e-07
-0.000145118 8.91335e-05 -1.62086e-07
-3.24257e-07 -1.62086e-07 -4.79946e-05
0.00134185 -0.00013843 -6.06093e-06
-0.00013843 8.96049e-05 1.75208e-06
-6.06093e-06 1.75208e-06 -4.24712e-05
0.00137226 -0.000163689 4.35439e-06
-0.000163689 6.56601e-05 -5.90579e-07
4.35439e-06 -5.90579e-07 -7.96925e-05
0.00114194 -0.000146673 7.72776e-08
-0.000146673 -3.4894e-06 -9.80621e-08
7.72776e-08 -9.80621e-08 -0.000141318
0.00105417 -0.000126423 -9.97246e-06
-0.000126423 3.0339e-05 4.30015e-06
-9.97246e-06 4.30015e-06 -8.51046e-05
0.000482869 -0.000124205 -1.64292e-05
-0.000124205 -0.000139093 1.04063e-05
-1.64292e-05 1.04063e-05 -0.000207307
0.000980791 -0.000133156 4.73585e-07
-0.000133156 3.34514e-05 3.53117e-07
4.73585e-07 3.53117e-07 -8.83238e-05
0.00116147 -0.000166946 3.84609e-06
-0.000166946 5.93554e-05 -6.81346e-07
3.84609e-06 -6.81346e-07 -9.13217e-05
0.00412416 0.000163347 -8.98588e-05
0.000163347 0.0019923 4.36489e-06
-8.98588e-05 4.36489e-06 0.00197434
0.000641748 -8.75565e-05 5.7967e-08
-8.75565e-05 -3.1988e-05 1.95279e-07
5.7967e-08 1.95279e-07 -9.69457e-05
0.000969471 -0.000132304 6.46684e-06
-0.000132304 8.77348e-05 -4.11112e-06
6.46684e-06 -4.11112e-06 -3.41837e-05
0.00385394 0.000133906 5.3405e-06
0.000133906 0.00182763 5.25302e-07
5.3405e-06 5.25302e-07 0.00181811
0.000766274 -5.69337e-05 1.06918e-05
-5.69337e-05 4.40991e-05 -8.84217e-06
1.06918e-05 -8.84217e-06 -1.16253e-05
0.00354048 0.000108532 9.1084e-05
0.000108532 0.00164237 -3.70564e-06
9.1084e-05 -3.70564e-06 0.00163992
0.000709407 0.000159364 -2.18478e-06
0.000159364 -0.000204699 7.94809e-07
-2.18478e-06 7.94809e-07 -0.000363859
0.000736386 0.000154096 -6.80624e-07
0.000154096 -7.0413e-05 8.45717e-07
-6.80624e-07 8.45717e-07 -0.000231111
0.00111627 0.000160984 -2.83677e-06
0.000160984 0.000163833 -2.2004e-06
-2.83677e-06 -2.2004e-06 1.88471e-05
0.000925379 0.00015308 -5.46294e-07
0.00015308 0.000107514 5.65521e-07
-5.46294e-07 5.65521e-07 -3.63307e-05
0.000986895 0.000140245 -3.58404e-07
0.000140245 0.000146796 -5.49822e-07
-3.58404e-07 -5.49822e-07 1.8979e-05
0.000929467 8.73071e-05 -3.95039e-06
8.73071e-05 0.000136684 -2.58256e-06
-3.95039e-06 -2.58256e-06 3.35859e-05
0.000892091 9.75642e-05 -4.12735e-08
9.75642e-05 0.000114748 -3.98467e-07
-4.12735e-08 -3.98467e-07 3.74874e-06
0.000741447 3.26676e-05 -2.51359e-07
3.26676e-05 4.65001e-05 1.21171e-07
-2.51359e-07 1.21171e-07 -4.41465e-05
0.000629491 -2.94776e-05 -4.64871e-06
-2.94776e-05 -6.95011e-06 -6.23358e-06
-4.64871e-06 -6.23358e-06 -4.77694e-05
0.000667395 -4.31217e-05 4.67289e-07
-4.31217e-05 4.83627e-06 3.17149e-06
4.67289e-07 3.17149e-06 -7.0171e-05
0.000556581 -7.11888e-05 -9.47989e-08
-7.11888e-05 -3.96874e-05 -2.19068e-07
-9.47989e-08 -2.19068e-07 -7.58322e-05
0.00281078 -0.00010893 -5.841e-05
-0.00010893 0.00123134 -2.10691e-06
-5.841e-05 -2.10691e-06 0.00123246
0.000555521 -6.85229e-05 4.05582e-07
-6.85229e-05 -4.8244e-05 5.14025e-06
4.05582e-07 5.14025e-06 -7.74426e-05
0.00256854 -0.000100855 -1.16602e-06
-0.000100855 0.0010915 1.58447e-07
-1.16602e-06 1.58447e-07 0.00109498
0.00247716 -9.04748e-05 3.81022e-05
-9.04748e-05 0.00103332 2.95929e-06
3.81022e-05 2.95929e-06 0.00103927
0.00120436 4.91318e-05 1.00114e-05
4.91318e-05 -0.000221939 2.26063e-06
1.00114e-05 2.26063e-06 -0.000266016
0.0016321 -5.19672e-06 -3.31411e-06
-5.19672e-06 -2.71541e-05 3.23667e-06
-3.31411e-06 3.23667e-06 -7.01358e-05
0.0028937 1.09794e-07 6.75894e-05
1.09794e-07 -0.000131119 -2.66576e-06
6.75894e-05 -2.66576e-06 -0.000302081
0.00186238 0.000250499 -4.24024e-07
0.000250499 0.000265564 -6.52405e-06
-4.24024e-07 -6.52405e-06 0.000119761
0.000768439 0.000171209 -2.08233e-06
0.000171209 -0.00011562 4.43516e-07
-2.08233e-06 4.43516e-07 -0.000238887
0.00174133 0.000212607 -2.20335e-06
0.000212607 0.000180349 7.30855e-07
-2.20335e-06 7.30855e-07 3.57758e-05
0.00175039 0.000231485 8.17486e-07
0.000231485 0.000275357 4.03492e-07
8.17486e-07 4.03492e-07 0.000120764
0.000316227 0.000141233 -4.65747e-06
0.000141233 -0.000309009 1.13969e-06
-4.65747e-06 1.13969e-06 -0.000458328
0.00175882 0.000248157 -3.51637e-06
0.000248157 9.45508e-05 2.09855e-06
-3.51637e-06 2.09855e-06 -4.75612e-05
0.00172353 0.000237131 -6.39034e-07
0.000237131 0.000457683 6.51937e-07
-6.39034e-07 6.51937e-07 0.000317749
0.00208966 0.00030584 -2.10491e-07
0.00030584 0.000384302 -2.71707e-06
-2.10491e-07 -2.71707e-06 0.000227491
0.00180874 0.000170329 -4.04193e-06
0.000170329 6.46625e-05 1.93544e-06
-4.04193e-06 1.93544e-06 -3.78732e-05
0.00204719 0.000326488 3.75408e-06
0.000326488 0.000344522 3.51015e-06
3.75408e-06 3.51015e-06 0.000187704
0.00204634 0.000302754 -1.04423e-06
0.000302754 0.000235134 2.53253e-07
-1.04423e-06 2.53253e-07 9.29166e-05
0.00117486 0.000143593 -2.97288e-07
0.000143593 -0.000207884 5.09568e-07
-2.97288e-07 5.09568e-07 -0.000277017
0.00106391 0.000241467 -4.71846e-06
0.000241467 -0.000204297 -4.40904e-06
-4.71846e-06 -4.40904e-06 -0.000323439
0.00129225 0.000164204 -2.48457e-05
0.000164204 3.18559e-05 -4.60934e-06
-2.48457e-05 -4.60934e-06 1.62902e-05
0.00172496 1.72911e-05 3.33379e-06
1.72911e-05 -4.07196e-05 2.5952e-07
3.33379e-06 2.5952e-07 -0.000104195
0.00192698 -9.27785e-06 -1.57878e-06
-9.27785e-06 0.000244539 -3.13851e-07
-1.57878e-06 -3.13851e-07 0.000206093
0.0015833 7.40354e-07 -4.33731e-05
7.40354e-07 -7.83038e-05 -2.43245e-06
-4.33731e-05 -2.43245e-06 -0.000154996
0.00117006 -0.000118162 -1.29754e-05
-0.000118162 -0.000416842 1.40649e-06
-1.29754e-05 1.40649e-06 -0.00041503
0.00157608 -5.83585e-05 -9.11662e-06
-5.83585e-05 -0.000110117 7.98426e-07
-9.11662e-06 7.98426e-07 -0.000158941
0.00195976 -0.000123178 -6.10909e-07
-0.000123178 6.17094e-05 -1.15059e-07
-6.10909e-07 -1.15059e-07 3.24891e-05
0.00191817 -3.13113e-05 2.50878e-07
-3.13113e-05 5.31713e-05 1.49877e-07
2.50878e-07 1.49877e-07 -8.17278e-07
0.00183688 -5.55649e-05 -2.92816e-07
-5.55649e-05 3.71317e-05 -5.9331e-07
-2.92816e-07 -5.9331e-07 -2.48095e-05
0.00167278 -0.000124824 -2.20791e-06
-0.000124824 -4.60937e-05 -3.02639e-07
-2.20791e-06 -3.02639e-07 -7.84739e-05
0.00186774 -0.00012068 7.02866e-07
-0.00012068 9.40677e-05 -7.82986e-08
7.02866e-07 -7.82986e-08 3.26396e-05
0.00183015 -9.98008e-05 1.02233e-06
-9.98008e-05 0.000102439 -2.81159e-07
1.02233e-06 -2.81159e-07 1.72809e-05
0.00169242 -0.000135597 -2.79441e-06
-0.000135597 4.89171e-05 -2.91949e-07
-2.79441e-06 -2.91949e-07 -2.79772e-05
0.00168921 -0.000120647 5.59013e-08
-0.000120647 7.30423e-05 -5.40181e-08
5.59013e-08 -5.40181e-08 -2.18747e-05
0.00169045 -0.000103473 1.34495e-06
-0.000103473 0.000107391 -9.48151e-08
1.34495e-06 -9.48151e-08 -9.32505e-06
0.0016917 -0.000138534 -2.37292e-06
-0.000138534 0.000106993 -5.46981e-08
-2.37292e-06 -5.46981e-08 3.4867e-06
0.0016289 -0.000124952 -9.39304e-08
-0.000124952 0.000109193 -4.16719e-08
-9.39304e-08 -4.16719e-08 -1.28826e-05
0.00153206 -0.000111985 -1.43438e-06
-0.000111985 0.000114594 4.8986e-07
-1.43438e-06 4.8986e-07 -1.71003e-05
0.00159536 -0.000143129 -9.32024e-07
-0.000143129 0.000115962 2.63835e-07
-9.32024e-07 2.63835e-07 -1.15334e-05
0.00149255 -0.000132053 -6.02431e-08
-0.000132053 0.000108603 -5.81822e-09
-6.02431e-08 -5.81822e-09 -2.54436e-05
0.00136152 -0.000122398 -5.39718e-06
-0.000122398 8.79229e-05 1.76861e-06
-5.39718e-06 1.76861e-06 -4.21308e-05
0.0014253 -0.000145066 2.35956e-06
-0.000145066 8.2003e-05 -4.43952e-07
2.35956e-06 -4.43952e-07 -5.51185e-05
0.00133013 -0.000137131 -1.06243e-07
-0.000137131 8.38554e-05 -4.03182e-08
-1.06243e-07 -4.03182e-08 -4.80565e-05
0.00107762 -0.000112457 -1.0687e-05
-0.000112457 2.44932e-05 4.20686e-06
-1.0687e-05 4.20686e-06 -8.61941e-05
0.000959652 -0.00013739 5.77223e-06
-0.00013739 -0.000104871 -1.42128e-06
5.77223e-06 -1.42128e-06 -0.000242839
0.00103441 -0.000124578 2.459e-07
-0.000124578 1.96383e-05 5.33603e-08
2.459e-07 5.33603e-08 -9.56248e-05
0.00220033 -4.63141e-05 -1.28248e-05
-4.63141e-05 0.000821943 6.99248e-06
-1.28248e-05 6.99248e-06 0.000756009
0.00125189 -1.14974e-05 -0.000115894
-1.14974e-05 0.000346633 1.16258e-05
-0.000115894 1.16258e-05 0.00032698
0.00146192 -8.00501e-05 9.10187e-07
-8.00501e-05 0.000415521 1.03203e-07
9.10187e-07 1.03203e-07 0.000345397
0.000962651 -0.00013294 8.34349e-06
-0.00013294 2.47732e-05 -3.81312e-06
8.34349e-06 -3.81312e-06 -9.71463e-05
0.00431942 0.000140123 9.41274e-06
0.000140123 0.00209807 8.42222e-07
9.41274e-06 8.42222e-07 0.00208259
0.000777894 -0.000108002 1.48197e-05
-0.000108002 3.8134e-05 -1.00626e-05
1.48197e-05 -1.00626e-05 -2.81601e-05
0.00395565 0.000106481 0.000108994
0.000106481 0.00188085 -5.20571e-06
0.000108994 -5.20571e-06 0.00187465
0.00184648 0.000176603 -1.98277e-07
0.000176603 0.000225802 3.66132e-07
-1.98277e-07 3.66132e-07 9.27239e-05
0.00128978 0.000182772 -1.25465e-06
0.000182772 2.1062e-05 1.26938e-06
-1.25465e-06 1.26938e-06 -0.000125282
0.00103372 0.000179674 3.04434e-08
0.000179674 -2.89658e-05 3.21081e-09
3.04434e-08 3.21081e-09 -0.00019065
0.00109372 0.000164206 -4.30919e-06
0.000164206 7.84472e-05 -1.46757e-06
-4.30919e-06 -1.46757e-06 -7.34669e-05
0.000442175 0.000135703 4.2108e-07
0.000135703 -0.000235912 3.0748e-06
4.2108e-07 3.0748e-06 -0.000395399
0.00104847 0.00015532 -6.19559e-07
0.00015532 0.00012945 -3.68273e-08
-6.19559e-07 -3.68273e-08 -1.48103e-05
0.000986983 0.000117983 -5.29405e-06
0.000117983 0.000133659 -3.2976e-06
-5.29405e-06 -3.2976e-06 2.12647e-05
0.000868174 0.000130759 1.10029e-06
0.000130759 8.28602e-05 1.09394e-06
1.10029e-06 1.09394e-06 -4.34247e-05
0.000799141 7.8145e-05 -2.36097e-07
7.8145e-05 6.47172e-05 -6.84943e-08
-2.36097e-07 -6.84943e-08 -3.62672e-05
0.000723305 2.54673e-05 -8.18283e-06
2.54673e-05 3.41385e-05 -7.26048e-06
-8.18283e-06 -7.26048e-06 -1.51195e-05
0.000702425 1.70429e-05 1.15629e-06
1.70429e-05 2.37843e-05 2.23874e-06
1.15629e-06 2.23874e-06 -6.41606e-05
0.000558595 -4.16542e-05 -4.35765e-07
-4.16542e-05 -4.42465e-05 -2.76723e-07
-4.35765e-07 -2.76723e-07 -8.50824e-05
0.00310529 -0.000114839 -7.43737e-05
-0.000114839 0.001401 -2.25789e-06
-7.43737e-05 -2.25789e-06 0.00139919
0.000510558 -8.01207e-05 -1.37447e-06
-8.01207e-05 -6.22008e-05 6.01707e-06
-1.37447e-06 6.01707e-06 -0.000100098
0.00273685 -0.000111939 -1.55313e-06
-0.000111939 0.00119096 1.82127e-07
-1.55313e-06 1.82127e-07 0.00119141
0.00254294 -0.000100708 4.18877e-05
-0.000100708 0.00107706 2.48874e-06
4.18877e-05 2.48874e-06 0.00108055
0.00183563 9.43613e-05 1.18351e-06
9.43613e-05 2.78014e-05 1.35542e-06
1.18351e-06 1.35542e-06 -4.83839e-05
0.00186903 4.41162e-05 3.85074e-06
4.41162e-05 0.000130501 -5.51217e-07
3.85074e-06 -5.51217e-07 8.78749e-05
0.00315974 -2.89512e-05 -3.96475e-05
-2.89512e-05 0.000641485 -8.14643e-06
-3.96475e-05 -8.14643e-06 0.000563679
0.00176871 0.000211919 -3.28701e-06
0.000211919 0.000122188 9.34931e-07
-3.28701e-06 9.34931e-07 -1.72911e-05
0.00172159 0.000240164 -3.79712e-06
0.000240164 0.000217443 3.29177e-08
-3.79712e-06 3.29177e-08 7.47013e-05
0.000695375 0.000172591 -1.2582e-05
0.000172591 -0.000132572 2.63235e-06
-1.2582e-05 2.63235e-06 -0.000242454
0.00185652 0.000212666 1.80515e-06
0.000212666 0.000242733 2.6575e-07
1.80515e-06 2.6575e-07 9.91496e-05
0.00199289 0.000245479 -1.27831e-06
0.000245479 0.000413795 -5.6176e-07
-1.27831e-06 -5.6176e-07 0.000255805
0.00211164 0.000168817 -2.20882e-06
0.000168817 0.000231025 1.75518e-06
-2.20882e-06 1.75518e-06 0.00012953
0.00169007 0.000247844 -1.29933e-06
0.000247844 5.79948e-05 6.83797e-07
-1.29933e-06 6.83797e-07 -8.51872e-05
0.00201981 0.000300882 2.09877e-06
0.000300882 0.000336616 3.66644e-07
2.09877e-06 3.66644e-07 0.000176371
0.00181056 0.000170165 -4.8608e-07
0.000170165 6.24569e-05 8.75651e-08
-4.8608e-07 8.75651e-08 -4.01665e-05
0.00207131 0.000304737 6.95551e-06
0.000304737 0.000237258 -6.85085e-07
6.95551e-06 -6.85085e-07 9.47891e-05
0.00153514 0.00015894 -1.91194e-05
0.00015894 -1.26257e-05 -5.65444e-06
-1.91194e-05 -5.65444e-06 -8.20414e-05
0.00196526 2.06944e-05 7.17934e-07
2.06944e-05 0.000113889 2.71041e-07
7.17934e-07 2.71041e-07 5.01767e-05
0.00186395 2.21733e-05 -8.2344e-07
2.21733e-05 3.74822e-05 -3.34033e-07
-8.2344e-07 -3.34033e-07 -2.44279e-05
0.00261266 1.17786e-05 -2.53378e-05
1.17786e-05 0.000633195 -1.99146e-06
-2.53378e-05 -1.99146e-06 0.000594286
0.0021264 -0.000119153 -1.16018e-05
-0.000119153 0.000156613 -3.65191e-07
-1.16018e-05 -3.65191e-07 0.000125662
0.00195041 -3.26109e-05 -1.1947e-06
-3.26109e-05 6.41672e-05 6.22646e-08
-1.1947e-06 6.22646e-08 1.09703e-05
0.00184484 -5.67294e-05 8.32365e-07
-5.67294e-05 3.22669e-05 1.60907e-08
8.32365e-07 1.60907e-08 -2.50925e-05
0.00186507 -3.81517e-05 -1.37756e-07
-3.81517e-05 0.000102537 -1.76685e-07
-1.37756e-07 -1.76685e-07 1.83193e-05
0.00188256 -0.00011718 -1.27785e-07
-0.00011718 0.000110336 7.22589e-08
-1.27785e-07 7.22589e-08 4.54223e-05
0.00184552 -9.9257e-05 -4.03459e-07
-9.9257e-05 0.000116943 -2.26192e-07
-4.03459e-07 -2.26192e-07 3.0941e-05
0.00176426 -7.86635e-05 2.28895e-06
-7.86635e-05 0.000112004 -1.20481e-06
2.28895e-06 -1.20481e-06 1.18376e-06
0.00165404 -0.000120581 -2.2844e-06
-0.000120581 5.84173e-05 -1.38154e-07
-2.2844e-06 -1.38154e-07 -3.83316e-05
0.00169116 -0.000103311 -1.53905e-07
-0.000103311 0.000108677 1.04333e-07
-1.53905e-07 1.04333e-07 -7.94582e-06
0.00159089 -8.67163e-05 -1.04853e-06
-8.67163e-05 0.000122457 4.88373e-07
-1.04853e-06 4.88373e-07 -6.98569e-06
0.00162822 -0.000123653 -9.90172e-07
-0.000123653 0.000109123 3.63905e-08
-9.90172e-07 3.63905e-08 -1.2713e-05
0.00151734 -0.000111322 -1.36976e-07
-0.000111322 0.000104343 -2.44051e-08
-1.36976e-07 -2.44051e-08 -2.72113e-05
0.00137235 -0.000102712 -5.03989e-06
-0.000102712 8.13311e-05 1.60994e-06
-5.03989e-06 1.60994e-06 -4.82943e-05
0.00151278 -0.000132513 1.79516e-06
-0.000132513 0.000118318 -4.98538e-07
1.79516e-06 -4.98538e-07 -1.55627e-05
0.00135828 -0.000121432 -4.20883e-08
-0.000121432 8.62828e-05 4.1238e-08
-4.20883e-08 4.1238e-08 -4.3577e-05
0.00109303 -9.91897e-05 -1.08002e-05
-9.91897e-05 2.14445e-05 3.91979e-06
-1.08002e-05 3.91979e-06 -8.8012e-05
0.00131344 -0.00013561 5.61895e-06
-0.00013561 7.54241e-05 -1.76221e-06
5.61895e-06 -1.76221e-06 -5.63121e-05
0.00106748 -0.000110589 2.05946e-07
-0.000110589 1.80848e-05 -9.74785e-09
2.05946e-07 -9.74785e-09 -9.23102e-05
0.00225575 -6.14906e-05 -1.96063e-05
-6.14906e-05 0.000835253 5.71943e-06
-1.96063e-05 5.71943e-06 0.000777661
0.00100752 -0.000122683 9.80913e-06
-0.000122683 5.12218e-06 -4.09464e-06
9.80913e-06 -4.09464e-06 -0.00011
0.00237693 -9.74935e-05 3.00707e-05
-9.74935e-05 0.000908516 -2.64414e-06
3.00707e-05 -2.64414e-06 0.000850195
0.00157827 -5.25316e-05 -0.000133711
-5.25316e-05 0.000530454 1.49417e-05
-0.000133711 1.49417e-05 0.00051022
0.00298334 2.55534e-05 -0.000121645
2.55534e-05 0.00133551 4.20258e-06
-0.000121645 4.20258e-06 0.00131932
0.00247864 -0.000127462 7.67263e-05
-0.000127462 0.000976938 -9.77356e-06
7.67263e-05 -9.77356e-06 0.000920377
0.00449888 0.000100605 0.000125049
0.000100605 0.00219456 -8.45611e-06
0.000125049 -8.45611e-06 0.00218202
0.00179648 0.000168183 -2.17851e-06
0.000168183 0.000165441 -7.02703e-08
-2.17851e-06 -7.02703e-08 3.53585e-05
0.00182427 0.000181634 1.10286e-06
0.000181634 0.000287029 1.22307e-08
1.10286e-06 1.22307e-08 0.000152732
0.00172157 0.000174717 1.07274e-06
0.000174717 0.000160245 3.37311e-07
1.07274e-06 3.37311e-07 2.78239e-05
0.00113146 0.000162607 -5.95705e-06
0.000162607 1.59457e-05 1.58123e-07
-5.95705e-06 1.58123e-07 -0.000128419
0.0013479 0.000185547 -1.60965e-07
0.000185547 5.08107e-05 4.17793e-07
-1.60965e-07 4.17793e-07 -9.51514e-05
0.00133216 0.000198551 1.73393e-06
0.000198551 0.000132795 5.41105e-07
1.73393e-06 5.41105e-07 -3.12827e-05
0.00114349 0.000168167 -6.11115e-07
0.000168167 0.000106517 3.303e-07
-6.11115e-07 3.303e-07 -4.64302e-05
0.000965125 0.000130308 -7.02745e-06
0.000130308 6.88327e-05 -4.05764e-06
-7.02745e-06 -4.05764e-06 -5.18956e-05
0.000972076 0.000148986 1.79339e-06
0.000148986 9.02824e-05 2.2546e-06
1.79339e-06 2.2546e-06 -5.31579e-05
0.00086276 0.000109028 -3.52365e-07
0.000109028 6.54663e-05 -1.08885e-07
-3.52365e-07 -1.08885e-07 -4.53884e-05
0.000782844 7.30737e-05 -1.1461e-05
7.30737e-05 5.71043e-05 -8.66754e-06
-1.1461e-05 -8.66754e-06 -2.93823e-06
0.000664117 6.79571e-05 2.08105e-06
6.79571e-05 -9.41929e-06 1.89518e-06
2.08105e-06 1.89518e-06 -0.000108472
0.000597451 2.83722e-06 2.04829e-07
2.83722e-06 -3.08335e-05 -2.38438e-07
2.04829e-07 -2.38438e-07 -7.96198e-05
0.00348951 -0.000108008 -9.56281e-05
-0.000108008 0.00162439 -3.6995e-06
-9.56281e-05 -3.6995e-06 0.00161974
0.000485444 -6.61508e-05 -6.12607e-07
-6.61508e-05 -7.76511e-05 6.75567e-06
-6.12607e-07 6.75567e-06 -0.000121533
0.00303311 -0.000125382 -2.6302e-06
-0.000125382 0.00136224 2.95756e-07
-2.6302e-06 2.95756e-07 0.00135854
0.002688 -0.000112559 4.6925e-05
-0.000112559 0.00116387 2.07321e-06
4.6925e-05 2.07321e-06 0.00116432
0.00190221 9.31355e-05 -2.09608e-07
9.31355e-05 8.26914e-05 1.41434e-06
-2.09608e-07 1.41434e-06 2.6339e-06
0.00181127 9.37136e-05 6.59149e-07
9.37136e-05 2.24414e-05 -2.31479e-07
6.59149e-07 -2.31479e-07 -5.37238e-05
0.00223286 3.74184e-05 -3.51899e-05
3.74184e-05 0.000342448 -5.9685e-06
-3.51899e-05 -5.9685e-06 0.000302289
0.00188926 0.000150337 5.52084e-07
0.000150337 0.000137098 1.56733e-06
5.52084e-07 1.56733e-06 2.41052e-05
0.00174223 0.000206017 -5.69129e-07
0.000206017 0.000113667 -3.08966e-07
-5.69129e-07 -3.08966e-07 -2.43421e-05
0.00155048 0.000227799 -1.06369e-06
0.000227799 0.000152925 6.31686e-07
-1.06369e-06 6.31686e-07 1.34976e-05
0.0019745 0.000212909 1.13991e-06
0.000212909 0.000306778 -6.41993e-07
1.13991e-06 -6.41993e-07 0.000164106
0.00193746 0.000161679 -2.1039e-08
0.000161679 0.000136393 -4.45175e-08
-2.1039e-08 -4.45175e-08 3.36291e-05
0.00161623 0.000247095 -2.91812e-08
0.000247095 2.01974e-05 -1.06082e-06
-2.91812e-08 -1.06082e-06 -0.00012397
0.0017636 0.000167487 4.83016e-06
0.000167487 4.94996e-05 -1.70941e-06
4.83016e-06 -1.70941e-06 -5.31131e-05
0.00184943 2.27764e-05 1.76179e-06
2.27764e-05 8.74335e-05 5.77644e-07
1.76179e-06 5.77644e-07 7.07689e-06
0.00188318 2.07011e-05 -3.89483e-07
2.07011e-05 7.10632e-05 -1.60589e-08
-3.89483e-07 -1.60589e-08 5.15449e-06
0.00200031 2.70384e-05 -5.96662e-06
2.70384e-05 0.000117107 -7.99176e-07
-5.96662e-06 -7.99176e-07 5.70892e-05
0.00164405 -6.67246e-06 -6.95434e-07
-6.67246e-06 -1.20033e-06 1.59445e-07
-6.95434e-07 1.59445e-07 -9.39044e-05
0.00185836 -5.7488e-05 -5.03374e-07
-5.7488e-05 3.15294e-05 3.43541e-07
-5.03374e-07 3.43541e-07 -2.10706e-05
0.0018534 -3.9652e-05 -3.92651e-07
-3.9652e-05 9.49067e-05 4.85453e-07
-3.92651e-07 4.85453e-07 1.04907e-05
0.00192353 -4.18252e-05 8.09813e-07
-4.18252e-05 0.000181718 -6.79783e-07
8.09813e-07 -6.79783e-07 7.85624e-05
0.00186358 -9.89917e-05 -2.28262e-06
-9.89917e-05 0.000132743 2.40925e-07
-2.28262e-06 2.40925e-07 4.59084e-05
0.00176877 -7.88277e-05 7.59546e-07
-7.88277e-05 0.000113825 -4.91335e-07
7.59546e-07 -4.91335e-07 3.06956e-06
0.00162397 -5.90018e-05 -8.75802e-07
-5.90018e-05 0.00010937 -4.27933e-07
-8.75802e-07 -4.27933e-07 -1.6883e-05
0.00169745 -0.000102625 -9.46236e-07
-0.000102625 0.000113155 2.61124e-07
-9.46236e-07 2.61124e-07 -3.31321e-06
0.00155545 -8.48476e-05 -6.65255e-08
-8.48476e-05 0.000100752 1.5854e-07
-6.65255e-08 1.5854e-07 -2.857e-05
0.00139065 -7.90423e-05 -4.83816e-06
-7.90423e-05 7.7053e-05 1.54196e-06
-4.83816e-06 1.54196e-06 -5.26836e-05
0.00149904 -0.00011049 1.2586e-06
-0.00011049 9.22106e-05 -5.44153e-07
1.2586e-06 -5.44153e-07 -3.91992e-05
0.00137691 -0.000101927 -8.2801e-08
-0.000101927 8.35055e-05 -1.43932e-08
-8.2801e-08 -1.43932e-08 -4.59017e-05
0.00110819 -8.41541e-05 -1.0737e-05
-8.41541e-05 1.87487e-05 3.32226e-06
-1.0737e-05 3.32226e-06 -9.09698e-05
0.00135368 -0.000120364 5.31186e-06
-0.000120364 8.38988e-05 -1.66814e-06
5.31186e-06 -1.66814e-06 -4.5755e-05
0.00109488 -9.71204e-05 1.46538e-07
-9.71204e-05 2.11925e-05 1.25407e-07
1.46538e-07 1.25407e-07 -8.78076e-05
0.00231274 -7.98451e-05 -2.66438e-05
-7.98451e-05 0.000855373 4.94373e-06
-2.66438e-05 4.94373e-06 0.000802257
0.00105339 -0.000108663 1.05478e-05
-0.000108663 9.411e-06 -4.24764e-06
1.05478e-05 -4.24764e-06 -0.000100672
0.00237704 -0.00010068 2.67757e-05
-0.00010068 0.000896826 -2.62921e-06
2.67757e-05 -2.62921e-06 0.000843732
0.00164127 -4.66476e-05 -0.000130312
-4.66476e-05 0.000564463 1.36276e-05
-0.000130312 1.36276e-05 0.000544537
0.00252237 -0.00012589 8.20136e-05
-0.00012589 0.000983669 -1.1852e-05
8.20136e-05 -1.1852e-05 0.000929097
0.00145008 1.98128e-05 -6.69993e-05
1.98128e-05 0.000474258 4.90505e-06
-6.69993e-05 4.90505e-06 0.000443052
0.00457917 0.000287874 -9.10061e-06
0.000287874 0.00228468 -4.98378e-06
-9.10061e-06 -4.98378e-06 0.0022357
0.0017241 0.000137042 4.50303e-07
0.000137042 0.000107328 7.05324e-07
4.50303e-07 7.05324e-07 -1.85896e-05
0.00163764 0.000147771 -1.27043e-06
0.000147771 0.000150075 -5.08104e-07
-1.27043e-06 -5.08104e-07 1.73409e-05
0.00176168 0.000168412 -2.21381e-06
0.000168412 0.000146318 9.42781e-11
-2.21381e-06 9.42781e-11 1.53673e-05
0.0016796 0.000169813 -3.70501e-06
0.000169813 0.000276501 -7.30358e-07
-3.70501e-06 -7.30358e-07 0.000145073
0.00150559 0.000169627 5.67164e-07
0.000169627 0.000108661 -1.02892e-07
5.67164e-07 -1.02892e-07 -2.48605e-05
0.00159748 0.00017298 3.28258e-06
0.00017298 9.52873e-05 -3.1831e-07
3.28258e-06 -3.1831e-07 -3.64171e-05
0.000973016 0.000132261 -9.55788e-06
0.000132261 8.2286e-06 -3.23644e-06
-9.55788e-06 -3.23644e-06 -0.000112276
0.00125297 0.000170917 -3.26334e-07
0.000170917 8.16239e-05 7.81643e-07
-3.26334e-07 7.81643e-07 -6.40284e-05
0.00140501 0.000188177 3.91541e-06
0.000188177 7.98471e-05 -7.27291e-07
3.91541e-06 -7.27291e-07 -6.57044e-05
0.00120122 0.000172868 4.09193e-06
0.000172868 0.000139119 2.63746e-06
4.09193e-06 2.63746e-06 -1.49926e-05
0.000929168 0.000126878 -5.73476e-07
0.000126878 4.83227e-05 -4.77956e-08
-5.73476e-07 -4.77956e-08 -7.16964e-05
0.000767191 0.000128521 -1.7317e-05
0.000128521 3.58025e-05 -9.71472e-06
-1.7317e-05 -9.71472e-06 -3.35963e-05
0.000744239 9.98539e-05 3.82789e-06
9.98539e-05 5.39882e-07 2.91663e-06
3.82789e-06 2.91663e-06 -0.000108784
0.000639722 6.72883e-05 -1.5613e-07
6.72883e-05 -1.53227e-05 5.80367e-09
-1.5613e-07 5.80367e-09 -7.51142e-05
0.00400796 -9.50024e-05 -0.00011361
-9.50024e-05 0.0019272 -7.04091e-06
-0.00011361 -7.04091e-06 0.00191652
0.000503812 -7.8589e-06 4.34296e-06
-7.8589e-06 -8.08533e-05 7.1778e-06
4.34296e-06 7.1778e-06 -0.000127763
0.00340659 -0.000137825 -5.00096e-06
-0.000137825 0.00158065 4.49266e-07
-5.00096e-06 4.49266e-07 0.00157191
0.00295063 -0.000128068 5.41315e-05
-0.000128068 0.00131629 1.83743e-06
5.41315e-05 1.83743e-06 0.0013123
0.00177108 8.22602e-05 9.27138e-07
8.22602e-05 4.60616e-05 1.41732e-06
9.27138e-07 1.41732e-06 -4.80255e-05
0.00181503 9.46792e-05 -2.10234e-07
9.46792e-05 3.18189e-05 3.60773e-07
-2.10234e-07 3.60773e-07 -4.78119e-05
0.00184277 9.52946e-05 -9.71851e-07
9.52946e-05 3.5566e-05 -1.64383e-06
-9.71851e-07 -1.64383e-06 -4.07354e-05
0.00188921 0.000149108 6.81371e-07
0.000149108 0.000137805 -8.88298e-08
6.81371e-07 -8.88298e-08 2.58661e-05
0.00171892 0.000200143 -4.95459e-07
0.000200143 0.000106789 -1.56095e-06
-4.95459e-07 -1.56095e-06 -2.97394e-05
0.00177092 0.000154537 1.27426e-06
0.000154537 4.32886e-05 -1.86353e-06
1.27426e-06 -1.86353e-06 -6.07299e-05
0.00183756 2.52732e-05 1.37902e-07
2.52732e-05 0.00010962 4.4136e-07
1.37902e-07 4.4136e-07 1.71274e-05
0.00186115 2.42112e-05 2.28739e-07
2.42112e-05 9.51709e-05 -2.89148e-07
2.28739e-07 -2.89148e-07 1.35217e-05
0.00177542 2.13058e-05 7.51041e-08
2.13058e-05 1.39229e-05 -2.15788e-07
7.51041e-08 -2.15788e-07 -5.42367e-05
0.0017502 -1.29125e-05 -1.42522e-06
-1.29125e-05 5.70191e-05 5.69351e-08
-1.42522e-06 5.69351e-08 -3.46125e-05
0.00172323 -1.94254e-05 9.71863e-07
-1.94254e-05 7.65574e-05 -3.75107e-07
9.71863e-07 -3.75107e-07 -2.83685e-05
0.001841 -4.1036e-05 -6.65601e-07
-4.1036e-05 8.743e-05 5.11199e-07
-6.65601e-07 5.11199e-07 2.79408e-06
0.00180828 -4.21082e-05 -4.60402e-07
-4.21082e-05 0.000117407 3.74634e-07
-4.60402e-07 3.74634e-07 1.16633e-05
0.00169781 -3.25786e-05 2.37196e-07
-3.25786e-05 0.000128842 -4.50997e-07
2.37196e-07 -4.50997e-07 8.97433e-06
0.00176527 -7.94853e-05 6.72043e-09
-7.94853e-05 0.000111289 1.636e-07
6.72043e-09 1.636e-07 5.34866e-07
0.00159532 -6.02964e-05 -9.75406e-08
-6.02964e-05 9.37342e-05 -2.0261e-07
-9.75406e-08 -2.0261e-07 -3.25699e-05
0.00141386 -4.8302e-05 -5.57974e-06
-4.8302e-05 7.17248e-05 1.0491e-06
-5.57974e-06 1.0491e-06 -5.71828e-05
0.00151504 -8.4533e-05 7.11013e-07
-8.4533e-05 7.62407e-05 -1.7373e-07
7.11013e-07 -1.7373e-07 -5.30757e-05
0.0013919 -7.79584e-05 7.95897e-08
-7.79584e-05 7.65147e-05 1.4444e-07
7.95897e-08 1.4444e-07 -5.30276e-05
0.00112104 -6.52904e-05 -1.07394e-05
-6.52904e-05 1.25701e-05 2.91999e-06
-1.07394e-05 2.91999e-06 -9.77149e-05
0.00138113 -0.000101076 4.84059e-06
-0.000101076 8.54866e-05 -1.61684e-06
4.84059e-06 -1.61684e-06 -4.36967e-05
0.00111337 -8.18501e-05 -1.46953e-08
-8.18501e-05 2.04241e-05 7.49553e-08
-1.46953e-08 7.49553e-08 -8.88414e-05
0.00231546 -8.803e-05 -2.98346e-05
-8.803e-05 0.000850728 4.26337e-06
-2.98346e-05 4.26337e-06 0.000797003
0.00109254 -9.50283e-05 1.08784e-05
-9.50283e-05 1.85406e-05 -3.76319e-06
1.08784e-05 -3.76319e-06 -8.99867e-05
0.00238244 -9.58304e-05 2.55324e-05
-9.58304e-05 0.000891333 -2.13621e-06
2.55324e-05 -2.13621e-06 0.000840475
0.00168403 -4.12731e-05 -0.000129959
-4.12731e-05 0.000582982 1.17939e-05
-0.000129959 1.17939e-05 0.000563508
0.00248839 -0.000111516 8.10891e-05
-0.000111516 0.000955369 -1.04901e-05
8.10891e-05 -1.04901e-05 0.000904961
0.00145908 1.58513e-06 -6.01352e-05
1.58513e-06 0.00047051 4.96729e-06
-6.01352e-05 4.96729e-06 0.000444404
0.00139394 4.74809e-05 1.18493e-05
4.74809e-05 0.000445918 -4.18086e-06
1.18493e-05 -4.18086e-06 0.000411754
0.00186772 8.30426e-05 4.82144e-07
8.30426e-05 0.000156019 1.64549e-06
4.82144e-07 1.64549e-06 4.75301e-05
0.00157308 0.000116943 -1.80466e-06
0.000116943 9.07473e-05 2.81793e-08
-1.80466e-06 2.81793e-08 -4.0522e-05
0.00175909 0.000138858 -1.1195e-06
0.000138858 0.000121854 -1.43692e-07
-1.1195e-06 -1.43692e-07 -2.35489e-06
0.00161136 0.000140037 -4.33795e-06
0.000140037 0.000209402 -1.60519e-06
-4.33795e-06 -1.60519e-06 8.04954e-05
0.00169443 0.000148912 9.84515e-07
0.000148912 0.000184839 3.04025e-07
9.84515e-07 3.04025e-07 5.18805e-05
0.0017211 0.000168405 2.21779e-06
0.000168405 0.000124644 4.81613e-07
2.21779e-06 4.81613e-07 -7.2133e-06
0.00102748 0.000124172 -1.04142e-05
0.000124172 -4.081e-06 -3.53772e-06
-1.04142e-05 -3.53772e-06 -0.000118246
0.00141772 0.000160381 3.09531e-06
0.000160381 0.00012816 1.88115e-07
3.09531e-06 1.88115e-07 -4.22256e-06
0.00119974 0.000158261 3.24714e-06
0.000158261 -6.3149e-05 5.24726e-08
3.24714e-06 5.24726e-08 -0.000195959
0.000662908 0.00013956 -1.9113e-05
0.00013956 -4.18288e-05 -9.0667e-06
-1.9113e-05 -9.0667e-06 -0.00011362
0.0010083 0.000133752 -9.00903e-07
0.000133752 2.71214e-05 5.02776e-07
-9.00903e-07 5.02776e-07 -9.34857e-05
0.00137953 0.000179439 6.13132e-06
0.000179439 0.000149977 1.55703e-06
6.13132e-06 1.55703e-06 3.03024e-06
0.000903325 0.000124136 6.40185e-06
0.000124136 3.39356e-05 4.20626e-06
6.40185e-06 4.20626e-06 -8.55294e-05
0.000643839 0.000114445 3.35843e-07
0.000114445 -2.72241e-05 1.28103e-07
3.35843e-07 1.28103e-07 -9.62388e-05
0.00465788 -8.79857e-05 -0.000124076
-8.79857e-05 0.00230396 -1.14601e-05
-0.000124076 -1.14601e-05 0.00228278
0.000512489 5.61319e-05 8.24508e-06
5.61319e-05 -8.19739e-05 8.33916e-06
8.24508e-06 8.33916e-06 -0.000139925
0.00385891 -0.000139059 -8.1761e-06
-0.000139059 0.00184725 6.1141e-07
-8.1761e-06 6.1141e-07 0.00183308
0.00330117 -0.000147027 6.48206e-05
-0.000147027 0.00152149 1.81298e-06
6.48206e-05 1.81298e-06 0.00151139
0.00176924 6.10536e-05 -2.1447e-08
6.10536e-05 7.45476e-05 3.48114e-07
-2.1447e-08 3.48114e-07 -2.27682e-05
0.0017622 8.15241e-05 4.28102e-07
8.15241e-05 4.32017e-05 4.71331e-07
4.28102e-07 4.71331e-07 -5.03197e-05
0.0017213 9.55129e-05 1.39997e-06
9.55129e-05 -2.0079e-05 -9.47692e-07
1.39997e-06 -9.47692e-07 -9.92555e-05
0.00188909 0.000147702 5.39131e-08
0.000147702 0.000138626 -1.54412e-06
5.39131e-08 -1.54412e-06 2.77764e-05
0.00174228 -3.13429e-06 1.18315e-06
-3.13429e-06 8.61601e-05 9.87215e-08
1.18315e-06 9.87215e-08 -2.00473e-05
0.00187542 2.17372e-05 -8.40653e-08
2.17372e-05 0.000128033 -1.40639e-07
-8.40653e-08 -1.40639e-07 3.57796e-05
0.00187506 2.51824e-05 -1.14707e-06
2.51824e-05 0.000103921 -1.39515e-07
-1.14707e-06 -1.39515e-07 2.09955e-05
0.0018594 -1.6327e-05 -2.64577e-06
-1.6327e-05 0.000117001 -4.96507e-07
-2.64577e-06 -4.96507e-07 2.64484e-05
0.00171247 -1.27095e-05 -9.92884e-07
-1.27095e-05 7.04714e-05 -9.11353e-08
-9.92884e-07 -9.11353e-08 -3.34905e-05
0.00177002 -8.11844e-06 9.35483e-07
-8.11844e-06 0.000168044 -3.85385e-07
9.35483e-07 -3.85385e-07 5.15329e-05
0.00169376 -4.24722e-05 -1.43377e-06
-4.24722e-05 5.33015e-05 1.25057e-06
-1.43377e-06 1.25057e-06 -5.50275e-05
0.00167121 -3.2158e-05 4.79004e-07
-3.2158e-05 0.000116355 1.51851e-07
4.79004e-07 1.51851e-07 -5.20453e-06
0.00137158 -2.05453e-05 -4.43435e-06
-2.05453e-05 2.99233e-05 3.4353e-07
-4.43435e-06 3.4353e-07 -9.64565e-05
0.00157434 -6.00877e-05 5.7993e-07
-6.00877e-05 8.23643e-05 4.69188e-09
5.7993e-07 4.69188e-09 -4.38703e-05
0.0014049 -4.60116e-05 -4.44463e-07
-4.60116e-05 6.47813e-05 1.37868e-07
-4.44463e-07 1.37868e-07 -6.38612e-05
0.00113615 -4.17177e-05 -1.10774e-05
-4.17177e-05 6.75316e-06 2.35105e-06
-1.10774e-05 2.35105e-06 -0.000104197
0.00138977 -7.48455e-05 4.61127e-06
-7.48455e-05 7.40797e-05 -1.205e-06
4.61127e-06 -1.205e-06 -5.51118e-05
0.00112417 -6.44794e-05 2.69091e-08
-6.44794e-05 1.36501e-05 1.71738e-07
2.69091e-08 1.71738e-07 -9.64534e-05
0.000670918 -5.19945e-05 -1.62337e-05
-5.19945e-05 -8.58132e-05 4.11283e-06
-1.62337e-05 4.11283e-06 -0.000148389
0.00112467 -7.97977e-05 1.07985e-05
-7.97977e-05 2.52659e-05 -3.26203e-06
1.07985e-05 -3.26203e-06 -8.35277e-05
0.00153121 -6.43249e-05 3.29136e-05
-6.43249e-05 0.000404396 -1.86207e-06
3.29136e-05 -1.86207e-06 0.000349721
0.00497255 -9.91825e-05 -0.000159183
-9.91825e-05 0.00243429 8.61607e-06
-0.000159183 8.61607e-06 0.0024316
0.00246804 -9.18052e-05 8.09334e-05
-9.18052e-05 0.000934586 -8.67983e-06
8.09334e-05 -8.67983e-06 0.000886725
0.00147377 -1.87499e-05 -5.36998e-05
-1.87499e-05 0.000470468 4.13141e-06
-5.36998e-05 4.13141e-06 0.000446937
0.00130765 -6.52886e-06 2.27787e-05
-6.52886e-06 0.000388512 -3.6829e-06
2.27787e-05 -3.6829e-06 0.000359924
0.00188291 5.95741e-05 9.24513e-07
5.95741e-05 0.000170646 8.98603e-07
9.24513e-07 8.98603e-07 6.62714e-05
0.00167036 7.66252e-05 -5.79792e-07
7.66252e-05 0.000129233 1.08594e-06
-5.79792e-07 1.08594e-06 6.51187e-06
0.00187333 8.04805e-05 1.87157e-07
8.04805e-05 0.000163179 -3.20789e-08
1.87157e-07 -3.20789e-08 5.3968e-05
0.00123293 0.000101086 -5.5826e-06
0.000101086 -2.85519e-05 -1.10539e-06
-5.5826e-06 -1.10539e-06 -0.000157851
0.00167584 0.00011899 -8.76875e-09
0.00011899 0.000148885 -2.59801e-08
-8.76875e-09 -2.59801e-08 1.88003e-05
0.00179635 0.000141095 -1.07147e-06
0.000141095 0.00013728 -9.75014e-07
-1.07147e-06 -9.75014e-07 1.47265e-05
0.000659462 9.10596e-05 -1.26917e-05
9.10596e-05 -0.000233807 -4.29147e-06
-1.26917e-05 -4.29147e-06 -0.000346265
0.00165631 0.000143858 1.44624e-06
0.000143858 0.000234235 3.6242e-07
1.44624e-06 3.6242e-07 0.000104831
0.00174954 0.000150334 3.04233e-06
0.000150334 0.000218738 1.13511e-06
3.04233e-06 1.13511e-06 8.54922e-05
0.000604434 0.000116655 -1.77055e-05
0.000116655 -9.372e-05 -7.58613e-06
-1.77055e-05 -7.58613e-06 -0.000161634
0.000841903 0.000116581 4.85041e-07
0.000116581 -0.000108809 -1.71407e-07
4.85041e-07 -1.71407e-07 -0.000223914
0.0011453 0.000150272 7.96026e-06
0.000150272 -2.60538e-05 8.91435e-07
7.96026e-06 8.91435e-07 -0.000159295
0.00504463 -6.83118e-05 -0.000127528
-6.83118e-05 0.00251376 -1.23652e-05
-0.000127528 -1.23652e-05 0.00249233
0.000616438 0.000129496 1.43301e-06
0.000129496 -6.65085e-05 4.87341e-07
1.43301e-06 4.87341e-07 -0.000137757
0.00102978 0.000134644 9.22836e-06
0.000134644 3.85662e-05 4.61231e-06
9.22836e-06 4.61231e-06 -8.21342e-05
0.000498719 0.000106534 1.33089e-05
0.000106534 -0.000104778 9.43625e-06
1.33089e-05 9.43625e-06 -0.000172169
0.00438523 -0.00011252 -6.29658e-06
-0.00011252 0.00214703 1.66868e-07
-6.29658e-06 1.66868e-07 0.00213001
0.00367262 -0.000164542 7.73015e-05
-0.000164542 0.00174485 2.54741e-06
7.73015e-05 2.54741e-06 0.0017277
0.00180357 3.77235e-05 -6.98102e-07
3.77235e-05 0.000116653 -1.31385e-07
-6.98102e-07 -1.31385e-07 1.09169e-05
0.00178335 6.02873e-05 -1.06732e-07
6.02873e-05 7.87944e-05 3.2132e-07
-1.06732e-07 3.2132e-07 -1.83565e-05
0.00175146 8.12391e-05 -2.22701e-07
8.12391e-05 3.90372e-05 -6.76255e-07
-2.22701e-07 -6.76255e-07 -5.39389e-05
0.001691 6.55857e-06 1.12361e-06
6.55857e-06 0.000118603 -1.99859e-07
1.12361e-06 -1.99859e-07 1.23521e-06
0.00173263 -1.42072e-07 -9.59172e-09
-1.42072e-07 8.44632e-05 6.90076e-08
-9.59172e-09 6.90076e-08 -2.07721e-05
0.00191304 1.60661e-05 -1.22457e-06
1.60661e-05 0.0001464 -6.34279e-08
-1.22457e-06 -6.34279e-08 5.43789e-05
0.00169493 -7.20846e-06 -1.89363e-06
-7.20846e-06 6.04759e-05 4.60925e-07
-1.89363e-06 4.60925e-07 -4.25157e-05
0.00175664 -5.39629e-06 1.09979e-06
-5.39629e-06 0.000159969 -1.5141e-07
1.09979e-06 -1.5141e-07 4.35592e-05
0.00173126 -4.15837e-06 -2.57709e-06
-4.15837e-06 0.000222612 -4.86409e-08
-2.57709e-06 -4.86409e-08 0.000101824
0.00164572 -3.16895e-05 9.69741e-07
-3.16895e-05 0.000104488 6.44044e-07
9.69741e-07 6.44044e-07 -1.8769e-05
0.00157165 -1.95178e-05 -1.88874e-08
-1.95178e-05 0.000141188 7.06869e-08
-1.88874e-08 7.06869e-08 1.59368e-05
0.000795177 -1.65579e-05 -1.29375e-05
-1.65579e-05 -0.000194645 1.7972e-06
-1.29375e-05 1.7972e-06 -0.000309012
0.00140102 -4.59405e-05 4.21681e-06
-4.59405e-05 6.05707e-05 -7.41253e-07
4.21681e-06 -7.41253e-07 -6.79689e-05
0.00112954 -3.88311e-05 2.55239e-08
-3.88311e-05 2.81705e-06 1.08644e-07
2.55239e-08 1.08644e-07 -0.000107884
0.000667932 -2.01753e-05 -1.60459e-05
-2.01753e-05 -9.64394e-05 2.87837e-06
-1.60459e-05 2.87837e-06 -0.000160271
0.00113052 -6.26012e-05 1.10041e-05
-6.26012e-05 1.64153e-05 -2.62398e-06
1.10041e-05 -2.62398e-06 -9.33973e-05
0.000676126 -3.79884e-05 -2.26825e-07
-3.79884e-05 -8.31297e-05 2.31335e-07
-2.26825e-07 2.31335e-07 -0.000146014
0.00503768 -1.89936e-05 -0.000149454
-1.89936e-05 0.00246409 5.50789e-06
-0.000149454 5.50789e-06 0.0024644
0.000711304 -5.42204e-05 1.58872e-05
-5.42204e-05 -5.91239e-05 -5.84583e-06
1.58872e-05 -5.84583e-06 -0.000121364
0.00319823 -5.69292e-05 6.9039e-05
-5.69292e-05 0.00143678 -8.37324e-07
6.9039e-05 -8.37324e-07 0.00142099
0.00123964 -3.58507e-05 2.85227e-05
-3.58507e-05 0.000347825 -3.7007e-06
2.85227e-05 -3.7007e-06 0.000318759
0.00180976 5.1003e-05 1.14092e-07
5.1003e-05 0.000148056 2.47964e-07
1.14092e-07 2.47964e-07 3.9658e-05
0.00158108 4.23597e-05 1.73201e-07
4.23597e-05 7.72519e-05 1.12545e-06
1.73201e-07 1.12545e-06 -4.19676e-05
0.00185405 5.70227e-05 -2.83338e-07
5.70227e-05 0.00015491 -2.01198e-07
-2.83338e-07 -2.01198e-07 5.07135e-05
0.00142355 7.16815e-05 -4.43436e-06
7.16815e-05 6.7626e-05 -3.51174e-07
-4.43436e-06 -3.51174e-07 -5.75131e-05
0.00162332 7.47863e-05 4.20587e-07
7.47863e-05 0.000101254 1.02487e-07
4.20587e-07 1.02487e-07 -2.24059e-05
0.00187795 7.75566e-05 -9.57551e-07
7.75566e-05 0.000169754 -1.49531e-06
-9.57551e-07 -1.49531e-06 5.98437e-05
0.000664638 7.23648e-05 -1.28373e-05
7.23648e-05 -0.000250163 -3.14447e-06
-1.28373e-05 -3.14447e-06 -0.00036167
0.00152079 0.000110429 -1.29363e-06
0.000110429 0.000133808 -2.13484e-07
-1.29363e-06 -2.13484e-07 5.80812e-06
0.00178123 0.000120922 2.15209e-06
0.000120922 0.000208509 -2.48177e-07
2.15209e-06 -2.48177e-07 7.96423e-05
0.000614354 8.39262e-05 -1.62795e-05
8.39262e-05 -0.000103561 -6.09097e-06
-1.62795e-05 -6.09097e-06 -0.000167847
0.000648647 9.15303e-05 -2.72114e-06
9.15303e-05 -0.000240363 -6.54651e-07
-2.72114e-06 -6.54651e-07 -0.000353477
0.00170195 0.000147717 7.50824e-06
0.000147717 0.000259451 1.98296e-06
7.50824e-06 1.98296e-06 0.000129545
0.00512288 1.68038e-05 -0.000145021
1.68038e-05 0.00252734 -1.0331e-05
-0.000145021 -1.0331e-05 0.00252121
0.000591139 0.000107788 8.7078e-07
0.000107788 -0.000100146 2.9705e-07
8.7078e-07 2.9705e-07 -0.000168847
0.000655005 0.000109115 1.08969e-05
0.000109115 -0.000214361 3.27376e-06
1.08969e-05 3.27376e-06 -0.000330425
0.00485244 -4.80794e-05 8.16364e-06
-4.80794e-05 0.00239925 -5.84474e-07
8.16364e-06 -5.84474e-07 0.00238393
0.000533852 0.00011642 1.58529e-05
0.00011642 -0.000108814 9.38547e-06
1.58529e-05 9.38547e-06 -0.000180785
0.00413909 -0.000168775 8.94221e-05
-0.000168775 0.00202045 5.64252e-06
8.94221e-05 5.64252e-06 0.00199676
0.00177228 2.76855e-05 -1.52781e-07
2.76855e-05 0.000160189 -1.24402e-07
-1.52781e-07 -1.24402e-07 4.49736e-05
0.001753 3.60647e-05 -3.45953e-07
3.60647e-05 9.26203e-05 1.12328e-07
-3.45953e-07 1.12328e-07 -1.39109e-05
0.00179729 5.93404e-05 -2.25824e-07
5.93404e-05 8.26828e-05 -1.29688e-07
-2.25824e-07 -1.29688e-07 -1.43049e-05
0.00170872 -1.86988e-06 -2.57663e-06
-1.86988e-06 0.000213496 -1.2409e-07
-2.57663e-06 -1.2409e-07 9.46097e-05
0.00171918 5.63967e-06 6.408e-07
5.63967e-06 0.000134031 1.06653e-08
6.408e-07 1.06653e-08 1.77443e-05
0.00173377 4.82083e-06 5.02613e-07
4.82083e-06 8.84426e-05 -7.1161e-08
5.02613e-07 -7.1161e-08 -1.5836e-05
0.0017442 -3.49807e-06 8.39531e-07
-3.49807e-06 0.000152419 3.07207e-07
8.39531e-07 3.07207e-07 3.60989e-05
0.00173509 -3.93026e-06 1.81502e-06
-3.93026e-06 0.000224586 -2.13088e-07
1.81502e-06 -2.13088e-07 0.000103758
0.000803802 -5.56646e-06 -1.21442e-05
-5.56646e-06 -0.000193938 7.50412e-07
-1.21442e-05 7.50412e-07 -0.000307535
0.00177536 -1.86679e-05 5.42833e-06
-1.86679e-05 0.000254567 -4.34154e-07
5.42833e-06 -4.34154e-07 0.000130448
0.000972096 -1.52893e-05 -2.56691e-06
-1.52893e-05 -9.56269e-05 4.00372e-07
-2.56691e-06 4.00372e-07 -0.000208442
0.000687869 -6.82901e-06 -1.64865e-05
-6.82901e-06 -9.35416e-05 1.92435e-06
-1.64865e-05 1.92435e-06 -0.000158489
0.00112839 -3.73127e-05 1.09065e-05
-3.73127e-05 1.88161e-06 -2.14663e-06
1.09065e-05 -2.14663e-06 -0.000108661
0.000673489 -1.95254e-05 4.14107e-07
-1.95254e-05 -9.43286e-05 1.38751e-08
4.14107e-07 1.38751e-08 -0.000157761
0.00512881 -6.53086e-05 -0.000154621
-6.53086e-05 0.00251554 4.34491e-06
-0.000154621 4.34491e-06 0.00251432
0.000671603 -2.39466e-05 1.50227e-05
-2.39466e-05 -8.74079e-05 -3.35303e-06
1.50227e-05 -3.35303e-06 -0.00014948
0.0050588 -1.63612e-05 1.107e-05
-1.63612e-05 0.00247972 -9.26296e-08
1.107e-05 -9.26296e-08 0.00247743
0.00149972 -1.58306e-05 0.000134928
-1.58306e-05 0.000479022 -6.33971e-06
0.000134928 -6.33971e-06 0.000461663
0.00169671 3.35273e-05 3.54393e-07
3.35273e-05 0.000142428 2.8446e-07
3.54393e-07 2.8446e-07 2.54713e-05
0.0017645 5.43354e-05 -1.19211e-06
5.43354e-05 0.000118659 -1.73672e-07
-1.19211e-06 -1.73672e-07 1.12042e-05
0.00143729 3.78075e-05 -4.03353e-06
3.78075e-05 7.45779e-05 -7.64787e-08
-4.03353e-06 -7.64787e-08 -4.70007e-05
0.00157708 4.16597e-05 3.70511e-07
4.16597e-05 7.56985e-05 -6.70413e-09
3.70511e-07 -6.70413e-09 -4.35737e-05
0.00182351 5.46409e-05 -7.13584e-07
5.46409e-05 0.000138222 -1.54721e-06
-7.13584e-07 -1.54721e-06 3.42066e-05
0.00113773 6.01413e-05 -1.09744e-05
6.01413e-05 4.42331e-06 -2.01682e-06
-1.09744e-05 -2.01682e-06 -0.000102689
0.00140509 7.12783e-05 3.99359e-08
7.12783e-05 5.77936e-05 1.6178e-07
3.99359e-08 1.6178e-07 -6.74372e-05
0.00157369 7.29618e-05 7.29998e-07
7.29618e-05 7.19998e-05 -6.05284e-07
7.29998e-07 -6.05284e-07 -5.26132e-05
0.000630839 5.83254e-05 -1.59007e-05
5.83254e-05 -0.000109267 -4.47729e-06
-1.59007e-05 -4.47729e-06 -0.000171735
0.000878654 8.02948e-05 -3.22386e-06
8.02948e-05 -0.000130395 -4.76896e-07
-3.22386e-06 -4.76896e-07 -0.00024117
0.00181538 0.000119953 5.20129e-06
0.000119953 0.000299934 1.04454e-06
5.20129e-06 1.04454e-06 0.000173228
0.00513543 8.09733e-05 -0.000163679
8.09733e-05 0.00252184 -9.65649e-06
-0.000163679 -9.65649e-06 0.00252053
0.000608572 8.04283e-05 1.45201e-07
8.04283e-05 -0.000106524 8.14868e-08
1.45201e-07 8.14868e-08 -0.000170988
0.000635213 9.20818e-05 7.61417e-06
9.20818e-05 -0.000248491 2.63976e-06
7.61417e-06 2.63976e-06 -0.000362256
0.0050297 3.47859e-05 9.859e-06
3.47859e-05 0.00247926 8.77404e-07
9.859e-06 8.77404e-07 0.00247189
0.000578959 9.81782e-05 1.60268e-05
9.81782e-05 -0.000106472 7.53813e-06
1.60268e-05 7.53813e-06 -0.000175564
0.00466577 -6.50875e-05 0.000121477
-6.50875e-05 0.00228827 7.5207e-06
0.000121477 7.5207e-06 0.00227869
0.00171399 1.99911e-05 -2.57782e-06
1.99911e-05 0.000221289 -2.01121e-07
-2.57782e-06 -2.01121e-07 0.000103845
0.00174459 2.33576e-05 -5.16275e-08
2.33576e-05 0.000147261 9.60431e-08
-5.16275e-08 9.60431e-08 3.14255e-05
0.00170371 3.41908e-05 -5.01351e-07
3.41908e-05 6.98699e-05 8.58833e-08
-5.01351e-07 8.58833e-08 -3.74289e-05
0.000793872 -1.03465e-05 -1.26254e-05
-1.03465e-05 -0.000196474 -1.41796e-07
-1.26254e-05 -1.41796e-07 -0.0003084
0.00173009 4.5275e-06 1.91803e-06
4.5275e-06 0.000225492 -5.25584e-08
1.91803e-06 -5.25584e-08 0.000106599
0.00174226 4.69615e-06 1.07214e-06
4.69615e-06 0.000146875 9.75458e-08
1.07214e-06 9.75458e-08 3.1682e-05
0.00173916 -4.00243e-06 6.07876e-06
-4.00243e-06 0.000226728 -9.57493e-08
6.07876e-06 -9.57493e-08 0.000105858
0.000795344 -5.58393e-06 -1.91866e-06
-5.58393e-06 -0.000199107 1.55028e-07
-1.91866e-06 1.55028e-07 -0.000312843
0.000705254 -1.28903e-05 -1.66719e-05
-1.28903e-05 -8.83522e-05 7.39529e-07
-1.66719e-05 7.39529e-07 -0.000153494
0.00113732 -1.31992e-05 8.72656e-06
-1.31992e-05 -3.09082e-06 -1.25717e-06
8.72656e-06 -1.25717e-06 -0.000114343
0.000675826 2.54176e-06 1.7633e-07
2.54176e-06 -0.000100828 1.0391e-07
1.7633e-07 1.0391e-07 -0.000165561
0.00524115 -6.24798e-05 -0.000162516
-6.24798e-05 0.00257691 2.74111e-06
-0.000162516 2.74111e-06 0.00257526
0.00067842 -1.11167e-05 1.58438e-05
-1.11167e-05 -9.17742e-05 -2.3319e-06
1.58438e-05 -2.3319e-06 -0.000155363
0.00516803 1.37174e-05 2.2532e-06
1.37174e-05 0.00253374 6.08203e-07
2.2532e-06 6.08203e-07 0.00253442
0.00508303 -6.16006e-05 0.000163753
-6.16006e-05 0.00248982 -4.82875e-06
0.000163753 -4.82875e-06 0.00248954
0.00145772 2.39702e-05 -4.07458e-06
2.39702e-05 8.71722e-05 -3.80911e-07
-4.07458e-06 -3.80911e-07 -3.29791e-05
0.00165862 3.59925e-05 2.09613e-07
3.59925e-05 0.000120295 -3.31592e-07
2.09613e-07 -3.31592e-07 4.50282e-06
0.00172088 5.78003e-05 -2.12066e-06
5.78003e-05 9.02261e-05 -2.99166e-07
-2.12066e-06 -2.99166e-07 -1.62927e-05
0.00113718 3.06649e-05 -1.07943e-05
3.06649e-05 1.4385e-06 -1.50936e-06
-1.07943e-05 -1.50936e-06 -0.000104433
0.00141366 3.7882e-05 2.27016e-07
3.7882e-05 6.07457e-05 8.01195e-08
2.27016e-07 8.01195e-08 -6.10522e-05
0.0015725 4.09327e-05 1.86556e-07
4.09327e-05 7.39968e-05 -1.11889e-06
1.86556e-07 -1.11889e-06 -4.53278e-05
0.000657652 3.49117e-05 -1.54765e-05
3.49117e-05 -0.00010324 -3.42862e-06
-1.54765e-05 -3.42862e-06 -0.00016538
0.00113028 6.17148e-05 9.36604e-08
6.17148e-05 6.21103e-07 1.60233e-07
9.36604e-08 1.60233e-07 -0.000106827
0.00138681 7.08638e-05 4.74246e-06
7.08638e-05 4.79236e-05 7.2953e-07
4.74246e-06 7.2953e-07 -7.74036e-05
0.00514074 9.94308e-05 -0.000175153
9.94308e-05 0.00252217 -8.4545e-06
-0.000175153 -8.4545e-06 0.00252074
0.000646965 5.90457e-05 1.16408e-07
5.90457e-05 -9.99265e-05 1.84507e-07
1.16408e-07 1.84507e-07 -0.00016258
0.00108567 8.8131e-05 7.93219e-06
8.8131e-05 -1.45419e-05 2.32729e-06
7.93219e-06 2.32729e-06 -0.000124556
0.00507415 9.26623e-05 5.07134e-06
9.26623e-05 0.00249353 1.37719e-06
5.07134e-06 1.37719e-06 0.00249
0.000607151 7.72747e-05 1.53085e-05
7.72747e-05 -0.000107001 6.03345e-06
1.53085e-05 6.03345e-06 -0.000171443
0.00496703 5.19101e-05 0.000150036
5.19101e-05 0.00243928 9.97357e-06
0.000150036 9.97357e-06 0.00243588
0.00117182 9.0576e-06 -1.14218e-05
9.0576e-06 1.68339e-05 -6.74433e-07
-1.14218e-05 -6.74433e-07 -9.08247e-05
0.00153615 1.48433e-05 2.13823e-06
1.48433e-05 0.00012185 8.47171e-08
2.13823e-06 8.47171e-08 2.94736e-06
0.00171525 1.80265e-05 4.10988e-07
1.80265e-05 0.000133078 1.94572e-07
4.10988e-07 1.94572e-07 1.66157e-05
0.000703477 2.19624e-05 -1.70123e-05
2.19624e-05 -9.38905e-05 -3.33521e-07
-1.70123e-05 -3.33521e-07 -0.000154451
0.000786824 -4.44274e-06 -2.08955e-06
-4.44274e-06 -0.000201327 3.13848e-08
-2.08955e-06 3.13848e-08 -0.000313422
0.00175197 1.08883e-05 6.44092e-06
1.08883e-05 0.000237721 5.22199e-08
6.44092e-06 5.22199e-08 0.000118818
0.000786406 -5.1792e-06 8.25511e-06
-5.1792e-06 -0.000204596 -3.65325e-07
8.25511e-06 -3.65325e-07 -0.000318459
0.000681558 4.16849e-07 1.18155e-07
4.16849e-07 -0.00010164 2.93434e-07
1.18155e-07 2.93434e-07 -0.000166558
0.00530392 5.66596e-05 -0.00017178
5.66596e-05 0.00260865 -8.3161e-07
-0.00017178 -8.3161e-07 0.00260831
0.000657477 1.15362e-05 1.57817e-05
1.15362e-05 -0.000111524 -1.23053e-06
1.57817e-05 -1.23053e-06 -0.000176024
0.00526225 -5.45904e-05 -6.54543e-06
-5.45904e-05 0.00258696 1.14766e-06
-6.54543e-06 1.14766e-06 0.00258586
0.00519607 6.48868e-05 0.000153066
6.48868e-05 0.00255275 -1.90104e-06
0.000153066 -1.90104e-06 0.00255046
0.00115348 1.54341e-05 -1.13079e-05
1.54341e-05 8.50753e-06 -1.36432e-06
-1.13079e-05 -1.36432e-06 -9.77559e-05
0.00137402 2.29717e-05 8.66714e-08
2.29717e-05 3.96106e-05 -5.69663e-08
8.66714e-08 -5.69663e-08 -8.04526e-05
0.00162296 3.83566e-05 -1.46617e-07
3.83566e-05 9.93652e-05 -8.48705e-07
-1.46617e-07 -8.48705e-07 -1.52633e-05
0.002538 2.54744e-05 -8.78252e-05
2.54744e-05 0.000947854 -2.57368e-06
-8.78252e-05 -2.57368e-06 0.000902169
0.00114583 3.28081e-05 1.48264e-07
3.28081e-05 5.75291e-06 1.74629e-07
1.48264e-07 1.74629e-07 -0.000100302
0.00138807 3.77964e-05 4.45818e-06
3.77964e-05 4.58541e-05 2.62711e-07
4.45818e-06 2.62711e-07 -7.61687e-05
0.00512673 9.9296e-05 -0.000178093
9.9296e-05 0.00251646 -6.61369e-06
-0.000178093 -6.61369e-06 0.00251358
0.000687901 4.11436e-05 3.64039e-07
4.11436e-05 -8.54365e-05 1.81266e-07
3.64039e-07 1.81266e-07 -0.000148115
0.00113494 6.35564e-05 1.09941e-05
6.35564e-05 3.27324e-06 2.32314e-06
1.09941e-05 2.32314e-06 -0.000104485
0.00512756 0.000114361 1.6975e-07
0.000114361 0.00251939 1.2899e-06
1.6975e-07 1.2899e-06 0.00251615
0.000668017 5.90202e-05 1.56506e-05
5.90202e-05 -8.76217e-05 5.00552e-06
1.56506e-05 5.00552e-06 -0.000150434
0.00502198 0.000110015 0.000161678
0.000110015 0.00246717 1.09952e-05
0.000161678 1.09952e-05 0.00246297
0.000735585 7.82598e-06 -1.60222e-05
7.82598e-06 -6.90618e-05 -1.64753e-06
-1.60222e-05 -1.64753e-06 -0.000133139
0.000977863 6.63819e-06 5.76714e-07
6.63819e-06 -9.1301e-05 2.88443e-07
5.76714e-07 2.88443e-07 -0.000200387
0.00135203 9.49655e-06 5.94978e-06
9.49655e-06 1.8907e-05 3.18958e-07
5.94978e-06 3.18958e-07 -0.000101424
0.00526101 -8.70568e-05 -0.000157007
-8.70568e-05 0.00259776 -1.50051e-06
-0.000157007 -1.50051e-06 0.00258934
0.000687369 8.58611e-06 -2.51767e-07
8.58611e-06 -9.9135e-05 2.37653e-07
-2.51767e-07 2.37653e-07 -0.000161758
0.000787253 1.13343e-06 8.37365e-06
1.13343e-06 -0.000202112 1.27592e-07
8.37365e-06 1.27592e-07 -0.000314366
0.000661513 1.68459e-05 1.61387e-05
1.68459e-05 -0.000112693 7.08474e-08
1.61387e-05 7.08474e-08 -0.000177538
0.00530238 2.55012e-05 3.1962e-06
2.55012e-05 0.00261068 1.8852e-07
3.1962e-06 1.8852e-07 0.0026079
0.0053024 4.13162e-05 0.000160919
4.13162e-05 0.00260475 -3.07921e-07
0.000160919 -3.07921e-07 0.00260524
0.00258694 -1.73192e-06 -8.78789e-05
-1.73192e-06 0.000969869 -1.88409e-06
-8.78789e-05 -1.88409e-06 0.000923915
0.00116705 1.79384e-05 -2.03307e-08
1.79384e-05 1.55929e-05 3.25577e-08
-2.03307e-08 3.25577e-08 -9.07249e-05
0.00128942 2.21633e-05 4.21074e-06
2.21633e-05 -8.41702e-06 1.16541e-07
4.21074e-06 1.16541e-07 -0.000128392
0.00487501 -6.13629e-05 -2.83431e-05
-6.13629e-05 0.00238453 -5.44461e-07
-2.83431e-05 -5.44461e-07 0.0023709
0.00070489 2.91319e-05 -5.00005e-08
2.91319e-05 -7.89202e-05 2.22542e-07
-5.00005e-08 2.22542e-07 -0.000142013
0.00116733 3.5539e-05 1.09728e-05
3.5539e-05 1.6927e-05 1.91443e-06
1.09728e-05 1.91443e-06 -8.92787e-05
0.00516033 6.25092e-05 -1.08526e-05
6.25092e-05 0.00253157 -1.53837e-07
-1.08526e-05 -1.53837e-07 0.00253096
0.000722666 5.47656e-05 1.67925e-05
5.47656e-05 -6.46599e-05 4.11276e-06
1.67925e-05 4.11276e-06 -0.000128144
0.00510576 0.000131163 0.000169988
0.000131163 0.00251162 1.08114e-05
0.000169988 1.08114e-05 0.0025065
0.00167445 -3.13522e-05 -0.000149484
-3.13522e-05 0.00056516 3.75452e-07
-0.000149484 3.75452e-07 0.000546731
0.00164844 1.6847e-05 -3.59094e-05
1.6847e-05 0.000440577 2.85367e-07
-3.59094e-05 2.85367e-07 0.0003877
0.000789397 6.88083e-06 1.11304e-05
6.88083e-06 -0.000196373 1.04501e-06
1.11304e-05 1.04501e-06 -0.000306909
0.00525887 -3.5365e-05 8.6501e-06
-3.5365e-05 0.00259289 -4.39291e-07
8.6501e-06 -4.39291e-07 0.00258751
0.000678229 -3.72563e-06 1.6724e-05
-3.72563e-06 -0.000101453 8.76808e-07
1.6724e-05 8.76808e-07 -0.00016548
0.00530733 -4.66186e-05 0.000177545
-4.66186e-05 0.00261231 -1.13291e-07
0.000177545 -1.13291e-07 0.00261084
0.00135056 -2.84271e-05 -1.14261e-05
-2.84271e-05 0.000402563 -9.08902e-07
-1.14261e-05 -9.08902e-07 0.000369031
0.00164165 1.00301e-05 -3.58394e-05
1.00301e-05 0.00044168 -1.58404e-07
-3.58394e-05 -1.58404e-07 0.00038746
0.0011673 1.87655e-05 1.10733e-05
1.87655e-05 1.55953e-05 1.45355e-06
1.10733e-05 1.45355e-06 -9.08035e-05
0.00324395 3.61355e-05 6.43298e-05
3.61355e-05 0.00145902 9.23256e-07
6.43298e-05 9.23256e-07 0.00144285
0.000713912 3.76178e-05 1.69196e-05
3.76178e-05 -7.3832e-05 3.43011e-06
1.69196e-05 3.43011e-06 -0.000137165
0.00516339 9.22183e-05 0.000164648
9.22183e-05 0.00253526 7.83407e-06
0.000164648 7.83407e-06 0.00253384
0.00519557 -2.61031e-05 -8.89765e-06
-2.61031e-05 0.00255985 -2.06678e-07
-8.89765e-06 -2.06678e-07 0.00255399
0.000696458 2.8298e-05 1.73782e-05
2.8298e-05 -9.29125e-05 1.66834e-06
1.73782e-05 1.66834e-06 -0.000153158
0.00521736 6.07435e-05 0.000161505
6.07435e-05 0.00256819 -1.02925e-06
0.000161505 -1.02925e-06 0.00256434
0.00325921 2.87342e-05 7.89671e-05
2.87342e-05 0.00146981 1.41043e-06
7.89671e-05 1.41043e-06 0.00145247
0.000712639 7.85469e-06 1.65755e-05
7.85469e-06 -7.74784e-05 2.44425e-06
1.65755e-05 2.44425e-06 -0.000140344
0.00516534 -3.32584e-05 0.000155448
-3.32584e-05 0.00253437 4.07735e-06
0.000155448 4.07735e-06 0.00253352
0.0051813 -0.000134348 0.000155084
-0.000134348 0.00255895 -6.82864e-07
0.000155084 -6.82864e-07 0.00254829
0.00516093 -3.59167e-05 0.00015325
-3.59167e-05 0.00253014 1.86439e-06
0.00015325 1.86439e-06 0.00253061
