# vtk DataFile Version 2.0
Wound Healing Simulation
ASCII
DATASET UNSTRUCTURED_GRID
POINTS 3012 float
69.9759 18.75 4
67.2507 60.3285 4
69.976 18.75 2
73.0099 25.446 4
71.1327 20.9142 4
68.6801 16.6661 4
67.8217 19.9261 3.9741
67.2507 60.3286 2
71.1327 54.0858 4
68.6801 58.3339 4
65.6939 62.2254 4
65.3085 58.9989 3.97271
74.6784 42.3946 4
73.7221 47.2057 4
69.9759 18.75 0
73.0099 25.446 2
68.6801 16.6661 2
71.1327 20.9142 2
67.8224 19.9301 2
74.6792 32.6053 4
73.7222 27.7943 4
72.1454 23.1494 4
70.6115 26.2216 3.97397
68.8821 21.9577 3.97438
67.2507 14.6715 4
66.633 17.973 3.9729
65.7667 21.0356 3.96275
67.2507 60.3285 0
71.1327 54.0858 2
68.6801 58.3339 2
65.694 62.2255 2
65.3097 58.9944 2
72.1454 51.8506 4
69.9759 56.25 4
68.8326 53.114 3.97411
64.0165 64.0165 4
66.6068 57.1328 3.97389
63.8817 60.7624 3.97113
63.4901 57.7631 3.96304
60.3285 67.2507 4
74.6792 42.3947 2
73.7222 47.2057 2
74.9194 39.9526 4
74.2788 44.8158 4
72.1661 42.0858 3.97538
73.0099 49.554 4
71.2467 46.5984 3.97398
73.0099 25.446 0
71.1327 20.9142 0
68.6801 16.6661 0
67.8217 19.9261 0.025902
74.6792 32.6053 2
73.7222 27.7943 2
67.2508 14.6715 2
72.1455 23.1494 2
70.6108 26.2224 2
66.6343 17.9777 2
68.8824 21.9606 2
65.7642 21.0378 2
74.9197 35.0474 4
74.2794 30.1841 4
72.1829 32.9446 3.9759
71.2758 28.4326 3.97415
69.8123 24.0596 3.97413
68.3315 26.9575 3.96403
66.7361 22.9419 3.9632
65.694 12.7746 4
65.3192 16.1062 3.97162
64.6859 19.2065 3.96216
63.7621 22.084 3.96422
71.1327 54.0858 0
65.6939 62.2254 0
68.6801 58.3339 0
65.3085 58.9989 0.0272853
72.1455 51.8506 2
69.9759 56.25 2
68.8328 53.1111 2
64.0165 64.0165 2
66.608 57.1284 2
63.8829 60.7574 2
63.4859 57.7621 2
62.2254 65.694 4
58.8913 65.4123 3.98114
69.7654 50.9899 3.97382
67.7797 55.1676 3.97422
66.6161 52.2014 3.96325
62.3321 62.4243 3.97577
64.64 56.024 3.96322
62.1935 59.3894 3.96406
61.7401 56.6405 3.96069
58.3339 68.6801 4
60.3285 67.2508 2
73.7221 47.2057 0
74.6784 42.3946 0
74.9197 39.9526 2
74.2794 44.8159 2
72.1653 42.0855 2
73.0099 49.554 2
71.2459 46.5977 2
75 37.5 4
72.4035 39.8026 3.97666
71.7801 44.353 3.97495
69.7978 41.7895 3.96625
70.5721 48.8143 3.9737
68.8978 46.012 3.96535
74.6792 32.6053 0
73.7222 27.7943 0
67.2507 14.6715 0
72.1454 23.1494 0
70.6115 26.2216 0.0260266
68.8821 21.9577 0.0256239
66.633 17.973 0.0271037
65.7667 21.0356 0.0372536
74.9197 35.0474 2
74.2794 30.1841 2
72.182 32.9447 2
71.2751 28.4328 2
65.694 12.7745 2
65.3207 16.1111 2
69.8121 24.0614 2
68.3347 26.9583 2
64.6797 19.2091 2
66.7363 22.9437 2
63.761 22.0849 2
72.4114 35.2252 3.97675
71.8017 30.6776 3.97524
69.8342 33.272 3.96637
68.9582 29.043 3.96489
67.5902 24.9193 3.96355
66.0555 27.672 3.96944
64.0165 10.9835 4
64.6246 23.8757 3.96621
63.885 14.3317 3.96981
63.4985 17.4592 3.96116
62.787 20.3727 3.96224
61.8625 23.0324 3.96938
60.6803 11.1022 3.97656
57.6045 11.4786 3.96799
72.1454 51.8506 0
69.9759 56.25 0
68.8326 53.114 0.0258906
64.0165 64.0165 0
63.8817 60.7624 0.0288682
66.6068 57.1328 0.0261117
63.4901 57.7631 0.0369601
62.2255 65.694 2
58.8934 65.4078 2
69.7652 50.9879 2
67.7805 55.1637 2
66.6159 52.1999 2
62.3343 62.4191 2
64.6325 56.0218 2
62.1908 59.3894 2
61.7374 56.6404 2
60.6653 63.9728 3.97828
57.0216 66.7334 3.98384
57.5502 63.6683 3.97097
67.4764 50.17 3.96382
65.673 54.1657 3.96307
64.3848 51.34 3.96625
60.7668 60.916 3.96709
62.7101 55.0251 3.96341
60.5965 58.118 3.95902
60.1714 55.7135 3.96515
56.25 69.9759 4
58.3339 68.6801 2
60.3285 67.2507 0
58.9176 9.66023 3.97819
62.2254 9.30607 4
73.0099 49.554 0
74.2788 44.8158 0
71.2467 46.5984 0.0260184
72.1661 42.0858 0.024617
74.9194 39.9526 0
75 37.5 2
72.4032 39.8025 2
71.7797 44.3527 2
69.797 41.7892 2
70.5716 48.813 2
68.9016 46.0117 2
72.4869 37.5128 3.9763
70.0356 39.6582 3.96688
69.4238 43.9065 3.96612
67.481 41.4866 3.97448
68.2404 48.102 3.96449
66.5578 45.4115 3.972
74.9197 35.0474 0
74.2794 30.1841 0
72.1829 32.9446 0.0241012
71.2758 28.4326 0.0258451
65.694 12.7746 0
65.3192 16.1062 0.0283817
69.8123 24.0596 0.0258733
68.3315 26.9575 0.0359708
66.7361 22.9419 0.0368019
64.6859 19.2065 0.0378448
63.7621 22.084 0.0357777
72.4112 35.2251 2
71.8014 30.678 2
69.8335 33.2726 2
68.9592 29.0437 2
64.0165 10.9835 2
63.8867 14.337 2
63.4931 17.4609 2
67.5919 24.9206 2
66.0534 27.6731 2
62.7867 20.3732 2
64.6226 23.877 2
61.861 23.0333 2
60.683 11.1073 2
57.6051 11.4714 2
70.0524 35.3947 3.96696
69.461 31.1535 3.96548
67.5447 33.6063 3.97368
66.64 29.6532 3.97111
65.3871 25.7414 3.96795
63.8733 28.3262 3.97595
62.3372 12.6591 3.97464
62.6074 24.7218 3.97197
62.1878 15.8031 3.96422
61.7098 18.7392 3.95968
60.9988 21.4366 3.96584
60.0967 23.8548 3.97313
59.2381 12.8125 3.96427
55.8672 10.2646 3.97268
56.3921 13.1778 3.96833
69.7654 50.9899 0.0261846
62.2254 65.694 0
58.8913 65.4123 0.0188562
67.7797 55.1676 0.0257845
66.6161 52.2014 0.0367518
62.3321 62.4243 0.0242252
62.1935 59.3894 0.0359391
64.64 56.024 0.0367758
61.7401 56.6405 0.0393122
60.6676 63.9697 2
57.0245 66.73 2
57.551 63.6722 2
67.4778 50.1688 2
65.6701 54.1638 2
64.3835 51.3394 2
60.7645 60.9171 2
62.7093 55.0251 2
60.5953 58.1191 2
60.1698 55.7133 2
55.0676 67.9307 3.9867
59.2123 62.3339 3.96745
55.7986 64.8946 3.97287
56.3142 62.0389 3.97349
65.1689 49.3658 3.96811
63.5687 53.2468 3.96471
62.1563 50.5686 3.9707
59.3037 59.518 3.95979
60.8723 54.2312 3.96774
59.1391 56.9342 3.96093
59.0223 55.0888 3.96826
48.0993 68.5726 3.98235
50.9455 69.9308 3.98876
54.0858 71.1327 4
56.25 69.976 2
58.3339 68.6801 0
57.0551 8.33915 3.98001
60.3285 7.74928 4
58.9208 9.66437 2
62.2255 9.30602 2
70.5721 48.8143 0.026303
71.7801 44.353 0.025055
68.8978 46.012 0.0346503
69.7978 41.7895 0.0337471
72.4035 39.8026 0.0233364
75 37.5 0
72.4861 37.5126 2
70.0353 39.6581 2
69.4235 43.9062 2
67.4787 41.4862 2
68.2426 48.1012 2
66.5552 45.4106 2
70.1237 37.5233 3.96701
67.7256 39.5085 3.9744
67.0891 43.4507 3.97364
65.281 41.185 3.97627
65.9062 47.3814 3.97016
64.3477 44.7906 3.97639
72.4114 35.2252 0.0232491
71.8017 30.6776 0.0247578
69.8342 33.272 0.0336269
68.9582 29.043 0.0351133
64.0165 10.9835 0
63.885 14.3317 0.0301907
63.4985 17.4592 0.0388389
67.5902 24.9193 0.0364507
66.0555 27.672 0.0305614
64.6246 23.8757 0.0337931
62.787 20.3727 0.0377608
61.8625 23.0324 0.0306212
60.6803 11.1022 0.0234415
57.6045 11.4786 0.0320054
70.0522 35.395 2
69.4604 31.1543 2
67.5425 33.6068 2
66.6382 29.654 2
62.3396 12.6646 2
62.1855 15.8042 2
61.7087 18.7395 2
65.3848 25.7426 2
63.8703 28.3275 2
60.9984 21.4369 2
62.6055 24.7229 2
60.0952 23.856 2
59.2378 12.8129 2
56.393 13.175 2
55.8692 10.2647 2
67.7638 35.5564 3.97399
67.1488 31.645 3.97298
65.4391 33.9564 3.97644
64.3834 30.2533 3.97608
63.2768 26.4923 3.97437
61.8632 28.8808 3.97581
60.7667 14.249 3.96488
60.6882 25.4613 3.97499
60.5464 17.1792 3.95822
60.0108 19.9182 3.96203
59.3435 22.3931 3.96873
58.5705 24.482 3.97429
54.0325 9.15351 3.97106
57.8914 14.3852 3.96185
54.7738 12.0756 3.96833
55.2852 14.7287 3.96153
67.4764 50.17 0.0361754
57.0216 66.7334 0.0161556
60.6653 63.9728 0.0217197
57.5502 63.6683 0.0290331
65.673 54.1657 0.0369315
64.3848 51.34 0.0337538
60.7668 60.916 0.0329063
60.5965 58.118 0.040982
62.7101 55.0251 0.0365902
60.1714 55.7135 0.0348474
55.0707 67.9283 2
59.2117 62.3373 2
55.7998 64.8941 2
56.3127 62.0388 2
65.1669 49.3649 2
63.5684 53.2466 2
62.1552 50.568 2
59.3095 59.5232 2
60.8728 54.2313 2
59.1459 56.9361 2
59.0281 55.0899 2
53.0397 68.999 3.98782
53.9626 66.0026 3.97602
57.8636 60.828 3.9672
54.6695 63.161 3.96985
55.1896 60.5586 3.97536
62.8916 48.5829 3.97306
61.4931 52.4927 3.96915
59.8654 49.8988 3.97308
57.9221 58.1958 3.96001
59.0529 53.8423 3.97014
57.8715 55.7022 3.96311
50.1056 67.8496 3.98077
47.4594 66.567 3.97643
46.0534 69.1522 3.98421
48.1007 68.5721 2
48.7996 70.7224 3.98959
50.948 69.9298 2
51.8506 72.1454 4
54.0858 71.1327 2
56.25 69.9759 0
55.0998 7.14333 3.98398
58.3339 6.31992 4
57.0584 8.34345 2
60.3286 7.74926 2
58.9176 9.66023 0.0218096
62.2254 9.30607 0
68.2404 48.102 0.0355092
69.4238 43.9065 0.033879
66.5578 45.4115 0.0280011
67.481 41.4866 0.0255169
70.0356 39.6582 0.0331175
72.4869 37.5128 0.0236987
70.123 37.5235 2
67.7228 39.5084 2
67.0877 43.4501 2
65.2784 41.1847 2
65.9042 47.3805 2
64.3455 44.7896 2
67.8259 37.5246 3.97425
65.5218 39.36 3.97646
64.8898 42.9824 3.97624
63.3641 40.8944 3.97661
63.6537 46.6473 3.9751
62.3759 44.1372 3.97605
70.0524 35.3947 0.0330415
69.461 31.1535 0.0345172
67.5447 33.6063 0.026317
66.64 29.6532 0.0288917
62.3372 12.6591 0.0253613
62.1878 15.8031 0.0357808
61.7098 18.7392 0.0403234
65.3871 25.7414 0.0320483
63.8733 28.3262 0.0240474
62.6074 24.7218 0.02803
60.9988 21.4366 0.0341568
60.0967 23.8548 0.0268743
59.2381 12.8125 0.0357334
56.3921 13.1778 0.0316659
55.8672 10.2646 0.0273203
67.7611 35.5568 2
67.1474 31.6456 2
65.4352 33.957 2
64.3809 30.2544 2
60.7657 14.2498 2
60.539 17.1806 2
60.0087 19.9185 2
63.2745 26.4936 2
61.8612 28.8814 2
59.3456 22.3937 2
60.6866 25.4627 2
58.5672 24.4842 2
57.8906 14.3853 2
55.2865 14.7253 2
54.0353 9.15139 2
54.7735 12.0745 2
65.6203 35.6834 3.9764
64.9094 32.1984 3.9759
63.9371 34.2853 3.9763
62.1814 30.7167 3.97585
61.2729 27.188 3.97545
60.3711 29.2623 3.97597
59.2736 15.7196 3.95837
58.8814 25.9605 3.97573
58.9669 18.452 3.95941
58.443 20.9944 3.96371
57.8934 23.2604 3.97016
57.5219 24.8491 3.97571
52.1089 8.16476 3.97451
53.0456 11.0698 3.96803
56.6303 15.822 3.95779
53.7887 13.7626 3.97126
54.3176 16.1011 3.95924
55.0676 67.9307 0.013304
65.1689 49.3658 0.0318866
55.7986 64.8946 0.0271264
59.2123 62.3339 0.0325465
56.3142 62.0389 0.02651
63.5687 53.2468 0.0352894
62.1563 50.5686 0.0293043
59.3037 59.518 0.0402132
59.1391 56.9342 0.0390705
60.8723 54.2312 0.0322558
59.0223 55.0888 0.031745
53.0425 68.9973 2
53.9639 66.0016 2
57.8636 60.8296 2
54.669 63.1626 2
55.1872 60.5581 2
62.8899 48.5821 2
61.4933 52.4925 2
59.8666 49.8984 2
57.9223 58.1975 2
59.0577 53.843 2
57.8677 55.7007 2
52.0667 66.9912 3.97907
52.944 64.1917 3.97409
56.6072 59.4339 3.96207
53.6549 61.5561 3.97306
54.2156 59.2576 3.96884
60.5382 47.7623 3.97421
59.3586 51.9888 3.97109
57.5186 49.4603 3.97425
56.6223 56.8949 3.96212
56.7709 53.9853 3.96655
50.1071 67.8494 2
49.3323 65.9058 3.97623
47.4604 66.5661 2
46.8866 64.7115 3.97625
45.5559 67.0855 3.97924
43.9713 69.5847 3.98526
46.055 69.1528 2
46.6062 71.3667 3.99045
48.0993 68.5726 0.0176497
48.8018 70.7216 2
49.554 73.0099 4
50.9455 69.9308 0.0112443
51.8506 72.1455 2
54.0858 71.1327 0
53.0624 6.07401 3.98794
55.1034 7.14532 2
56.25 5.02411 4
58.3339 6.3199 2
57.0551 8.33915 0.0199885
60.3285 7.74928 0
65.9062 47.3814 0.0298378
67.0891 43.4507 0.0263583
64.3477 44.7906 0.0236148
65.281 41.185 0.0237259
67.7256 39.5085 0.0255996
70.1237 37.5233 0.0329877
67.8233 37.5248 2
65.5187 39.3598 2
64.8866 42.9816 2
63.364 40.894 2
63.6517 46.6463 2
62.3749 44.137 2
65.631 37.5053 3.9764
63.5151 39.252 3.9766
62.9156 42.4991 3.97613
61.9491 40.656 3.97657
61.5188 45.8161 3.97579
60.9176 43.5958 3.97589
67.7638 35.5564 0.026009
67.1488 31.645 0.0270217
65.4391 33.9564 0.0235618
64.3834 30.2533 0.0239209
60.7667 14.249 0.0351176
60.5464 17.1792 0.0417771
60.0108 19.9182 0.0379699
63.2768 26.4923 0.0256276
61.8632 28.8808 0.0241895
60.6882 25.4613 0.0250101
59.3435 22.3931 0.0312679
58.5705 24.482 0.0257139
57.8914 14.3852 0.0381542
55.2852 14.7287 0.038465
54.0325 9.15351 0.0289364
54.7738 12.0756 0.0316736
65.6169 35.6836 2
64.9062 32.1991 2
63.936 34.2856 2
62.1805 30.7168 2
59.2749 15.7175 2
58.9748 18.4495 2
58.4424 20.9957 2
61.271 27.1889 2
60.3709 29.2628 2
57.8829 23.2645 2
58.8803 25.961 2
57.5235 24.8507 2
56.6222 15.8234 2
54.3209 16.0958 2
53.7858 13.7555 2
52.1111 8.16515 2
53.0473 11.0659 2
63.7256 35.6542 3.97636
62.5062 33.1044 3.97608
60.0833 30.7264 3.9757
59.0622 28.0623 3.97573
57.8428 17.0709 3.9577
57.2252 25.9261 3.97574
57.4711 19.6124 3.95917
56.9864 22.0194 3.96442
56.7164 24.1475 3.97158
50.1097 7.29374 3.98051
51.2235 10.1541 3.97152
52.1502 12.8791 3.96493
55.4457 17.0795 3.95689
52.9351 15.3647 3.9607
53.6703 17.1023 3.95829
53.0397 68.999 0.0121806
53.9626 66.0026 0.0239767
62.8916 48.5829 0.0269377
54.6695 63.161 0.0301491
57.8636 60.828 0.0327955
55.1896 60.5586 0.0246423
61.4931 52.4927 0.0308535
59.8654 49.8988 0.0269238
57.9221 58.1958 0.0399914
57.8715 55.7022 0.036892
59.0529 53.8423 0.0298595
52.0681 66.9906 2
52.9439 64.1949 2
56.6065 59.4345 2
53.6533 61.5569 2
54.2107 59.2593 2
60.5378 47.7616 2
59.3606 51.9887 2
57.5191 49.4597 2
56.6178 56.8979 2
56.7679 53.9841 2
51.1622 65.1122 3.97627
52.0259 62.4943 3.97089
55.3911 58.1762 3.96075
52.7885 60.0522 3.96932
53.5703 58.3962 3.96402
57.6846 46.6789 3.97587
57.1284 51.6377 3.97118
55.6556 49.3678 3.97332
55.2598 55.6776 3.96212
54.9508 53.2272 3.96229
50.1056 67.8496 0.0192276
49.3329 65.9058 2
48.6099 64.1004 3.97808
47.4594 66.567 0.0235666
45.5565 67.0875 2
46.8867 64.711 2
46.372 63.0201 3.98179
45.1288 65.1778 3.978
43.63 67.4584 3.98096
41.8591 69.8716 3.98494
43.9722 69.585 2
44.3738 71.8613 3.99084
46.0534 69.1522 0.0157851
46.608 71.3665 2
47.2057 73.7222 4
48.7996 70.7224 0.0104088
49.554 73.0099 2
51.8506 72.1454 0
50.9536 5.13428 3.98996
53.0651 6.07493 2
54.0858 3.86728 4
55.0998 7.14333 0.0160235
56.25 5.02406 2
58.3339 6.31992 0
63.6537 46.6473 0.0249045
64.8898 42.9824 0.0237557
62.3759 44.1372 0.0239507
63.3641 40.8944 0.0233853
65.5218 39.36 0.0235415
67.8259 37.5246 0.0257458
65.6275 37.5053 2
63.5151 39.2519 2
62.9156 42.4986 2
61.9507 40.6558 2
61.5179 45.8155 2
60.9179 43.596 2
63.5795 37.4603 3.97649
61.6552 39.3314 3.9768
60.6614 41.8876 3.97667
59.6651 44.6443 3.97589
65.6203 35.6834 0.0235976
64.9094 32.1984 0.0240978
63.9371 34.2853 0.0236956
62.1814 30.7167 0.0241527
59.2736 15.7196 0.0416285
58.9669 18.452 0.0405928
58.443 20.9944 0.0362943
61.2729 27.188 0.0245487
60.3711 29.2623 0.0240319
58.8814 25.9605 0.0242739
57.8934 23.2604 0.0298398
57.5219 24.8491 0.0242928
56.6303 15.822 0.0422104
54.3176 16.1011 0.0407638
53.7887 13.7626 0.0287363
52.1089 8.16476 0.0254936
53.0456 11.0698 0.0319672
63.7255 35.6543 2
62.5069 33.1046 2
60.084 30.7264 2
57.8479 17.0688 2
57.4854 19.609 2
56.9825 22.0223 2
59.0619 28.0625 2
56.7251 24.1488 2
57.2284 25.9279 2
50.1121 7.29139 2
55.4474 17.0811 2
53.6785 17.095 2
52.93 15.3603 2
52.1513 12.8814 2
51.2255 10.1505 2
61.6989 35.3908 3.97654
59.6975 32.8316 3.97601
57.986 30.2257 3.97556
56.6958 27.5833 3.97609
56.4852 18.2761 3.959
55.7458 25.3305 3.97512
56.0543 20.6921 3.9601
55.6543 23.082 3.9646
48.0555 6.53332 3.98521
49.3192 9.34962 3.97517
50.4161 12.0537 3.96987
51.3343 14.5938 3.96285
54.2836 18.0574 3.95992
52.2882 17.1735 3.95687
52.0667 66.9912 0.0209309
52.944 64.1917 0.0259069
60.5382 47.7623 0.0257862
53.6549 61.5561 0.0269362
56.6072 59.4339 0.0379333
54.2156 59.2576 0.031164
59.3586 51.9888 0.0289148
57.5186 49.4603 0.0257534
56.6223 56.8949 0.0378823
56.7709 53.9853 0.0334509
51.1622 65.1113 2
52.0252 62.4956 2
55.3879 58.1767 2
52.7869 60.0547 2
53.5672 58.3988 2
57.6846 46.6782 2
57.1259 51.6367 2
55.6523 49.3666 2
55.2569 55.6775 2
54.95 53.2271 2
50.3336 63.3584 3.97654
51.2041 60.8646 3.97368
54.0962 57.1793 3.96592
52.2097 58.543 3.96501
55.8925 44.0095 3.97618
54.7942 47.6869 3.9753
54.5227 51.2031 3.96556
53.7188 54.409 3.96442
49.3323 65.9058 0.0237682
48.609 64.0995 2
47.9455 62.4473 3.98341
45.5559 67.0855 0.0207587
46.8866 64.7115 0.02375
43.6302 67.4587 2
46.3715 63.0222 2
45.1297 65.175 2
45.9704 61.5484 3.99096
44.7609 63.4196 3.97667
43.3559 65.49 3.97838
41.6626 67.6766 3.98044
39.7015 70.0177 3.9843
41.8599 69.8721 2
42.1086 72.2054 3.99121
43.9713 69.5847 0.0147403
44.3752 71.861 2
44.8159 74.2794 4
46.6062 71.3667 0.0095456
47.2057 73.7222 2
49.554 73.0099 0
48.7851 4.32459 3.9908
50.9555 5.13402 2
51.8506 2.85458 4
53.0624 6.07401 0.0120598
54.0858 3.86728 2
56.25 5.02411 0
61.5188 45.8161 0.0242122
62.9156 42.4991 0.0238728
60.9176 43.5958 0.0241084
61.9491 40.656 0.0234282
63.5151 39.252 0.0234049
65.631 37.5053 0.023598
63.5794 37.4603 2
61.6566 39.3314 2
60.6635 41.8877 2
59.6659 44.6443 2
61.4826 37.4469 3.9769
59.6056 39.8039 3.97675
58.2782 42.8092 3.9759
63.7256 35.6542 0.0236413
62.5062 33.1044 0.0239211
60.0833 30.7264 0.0243041
57.8428 17.0709 0.0423034
57.4711 19.6124 0.0408314
56.9864 22.0194 0.0355768
59.0622 28.0623 0.0242734
57.2252 25.9261 0.0242632
56.7164 24.1475 0.0284232
55.4457 17.0795 0.0431149
53.6703 17.1023 0.0417114
52.9351 15.3647 0.0392986
50.1097 7.29374 0.0194906
52.1502 12.8791 0.0350684
51.2235 10.1541 0.0284822
61.7004 35.3909 2
59.6979 32.8309 2
57.9871 30.225 2
56.4865 18.2757 2
56.0791 20.6861 2
55.663 23.0852 2
56.6971 27.5852 2
55.755 25.3358 2
48.0565 6.53265 2
49.3208 9.34774 2
54.2961 18.0588 2
52.2789 17.1705 2
51.3319 14.5949 2
50.4182 12.0533 2
59.2385 35.1632 3.97652
57.2488 32.3891 3.9755
55.8326 29.536 3.97575
54.7907 26.8621 3.97526
55.1517 19.3372 3.96217
54.4319 24.2987 3.97287
54.6393 21.766 3.96071
45.9623 5.88697 3.98724
43.3743 7.48157 3.98272
47.3528 8.63567 3.97979
48.588 11.3304 3.97215
49.677 13.8099 3.96751
50.5665 16.2489 3.9598
52.9786 18.8319 3.96468
51.206 18.2425 3.95876
51.1622 65.1122 0.0237322
52.0259 62.4943 0.0291129
57.6846 46.6789 0.0241278
52.7885 60.0522 0.0306844
55.3911 58.1762 0.0392549
53.5703 58.3962 0.0359784
57.1284 51.6377 0.0288159
55.6556 49.3678 0.0266812
55.2598 55.6776 0.0378849
54.9508 53.2272 0.0377097
50.3327 63.3576 2
51.2025 60.8639 2
54.0945 57.1805 2
52.204 58.5447 2
55.894 44.0106 2
54.7927 47.6859 2
54.5187 51.2019 2
53.7141 54.4098 2
49.565 61.7172 3.97459
54.609 41.6112 3.97389
50.4902 59.2505 3.9673
51.9972 56.3823 3.96353
53.2859 45.3173 3.97422
52.6414 49.1091 3.96969
52.2309 52.6839 3.95943
48.6099 64.1004 0.0219169
47.945 62.4445 2
47.3016 60.9769 3.99403
43.63 67.4584 0.0190366
45.1288 65.1778 0.0219959
46.372 63.0201 0.0182112
41.6634 67.676 2
43.3577 65.4906 2
45.9705 61.5506 2
44.7609 63.4178 2
45.7366 60.594 3.99235
44.472 61.7927 3.97869
43.1431 63.6968 3.9782
41.5463 65.6282 3.97551
39.6324 67.754 3.9795
37.526 70.042 3.98368
39.7022 70.0178 2
39.8161 72.4022 3.99135
41.8591 69.8716 0.015058
42.1096 72.2057 2
42.3947 74.6792 4
44.3738 71.8613 0.00915961
44.8159 74.2794 2
47.2057 73.7222 0
43.8517 5.36334 3.98662
46.5714 3.64901 3.99139
48.786 4.3245 2
49.554 1.99015 4
50.9536 5.13428 0.0100415
51.8506 2.85453 2
54.0858 3.86728 0
59.6651 44.6443 0.024114
60.6614 41.8876 0.0233257
61.6552 39.3314 0.0231994
63.5795 37.4603 0.0235097
61.4835 37.4469 2
59.6079 39.8033 2
58.2798 42.8099 2
59.0941 37.5665 3.97737
57.1968 40.5818 3.97732
54.0074 39.6317 3.97542
61.6989 35.3908 0.023464
59.6975 32.8316 0.0239884
57.986 30.2257 0.0244358
56.4852 18.2761 0.0409984
56.0543 20.6921 0.0398953
55.6543 23.082 0.0353988
56.6958 27.5833 0.0239088
55.7458 25.3305 0.0248781
54.2836 18.0574 0.0400835
52.2882 17.1735 0.0431335
51.3343 14.5938 0.0371466
48.0555 6.53332 0.0147907
49.3192 9.34962 0.024827
50.4161 12.0537 0.0301342
59.24 35.1627 2
45.9629 5.88582 2
43.3745 7.47933 2
57.2491 32.3893 2
55.8318 29.5351 2
55.1408 19.3428 2
54.6788 21.765 2
54.4333 24.3063 2
54.792 26.8621 2
47.354 8.6334 2
48.5901 11.3273 2
52.9826 18.7998 2
51.2067 18.2345 2
50.5681 16.2496 2
49.6761 13.8144 2
56.5632 34.8253 3.97705
54.8782 31.6844 3.97542
53.7416 28.6504 3.97677
53.1696 25.7793 3.97437
53.7399 20.3152 3.96225
53.1741 22.957 3.96062
41.4003 7.0851 3.98306
45.3596 8.00127 3.98659
42.8665 9.4296 3.97448
46.6612 10.6741 3.97769
47.7156 13.1437 3.97196
48.8754 15.4845 3.96695
49.9083 17.8112 3.95657
51.4945 19.5296 3.97959
50.3336 63.3584 0.0234605
51.2041 60.8646 0.0263195
55.8925 44.0095 0.0238223
54.7942 47.6869 0.0246962
52.2097 58.543 0.0349943
54.0962 57.1793 0.0340752
54.5227 51.2031 0.0344381
53.7188 54.409 0.0355798
49.5641 61.7155 2
54.6033 41.6075 2
50.4867 59.2532 2
52.0022 56.3865 2
53.2804 45.315 2
52.6383 49.1068 2
52.2339 52.6842 2
48.7973 60.1665 3.98325
51.3385 42.481 3.98342
49.661 57.5447 3.96431
50.2947 54.299 3.96063
50.955 47.0161 3.97587
50.657 50.7525 3.95423
47.0443 43.4988 3.97146
47.9455 62.4473 0.0165934
47.3016 60.9749 2
46.5756 59.7648 3.99332
41.6626 67.6766 0.0195551
43.3559 65.49 0.0216165
44.7609 63.4196 0.0233312
45.9704 61.5484 0.00904036
39.6334 67.7545 2
41.5476 65.6258 2
45.7366 60.5962 2
43.1422 63.6952 2
44.4705 61.7935 2
44.5935 60.2483 3.995
42.9412 62.0481 3.97511
41.5984 63.7964 3.97748
39.6471 65.5929 3.97498
37.5637 67.735 3.97781
31.699 65.1112 3.97433
33.3937 67.4736 3.97799
35.3343 69.9528 3.98407
37.526 70.0437 2
37.5091 72.4564 3.99188
39.7015 70.0177 0.0156977
39.8169 72.4023 2
39.9526 74.9197 4
42.1086 72.2054 0.00878796
42.3947 74.6792 2
44.8159 74.2794 0
41.7366 4.97133 3.98775
43.8521 5.36165 2
44.327 3.11183 3.9922
46.572 3.64866 2
47.2057 1.27793 4
48.7851 4.32459 0.00920481
49.554 1.99013 2
51.8506 2.85458 0
58.2782 42.8092 0.024102
59.6056 39.8039 0.0232493
61.4826 37.4469 0.0231043
59.0956 37.5666 2
57.2001 40.5836 2
54.0013 39.6405 2
55.9156 37.8731 3.97691
48.3628 41.1965 3.96879
51.92 39.2606 3.98055
39.4439 6.80833 3.98312
59.2385 35.1632 0.0234805
57.2488 32.3891 0.0245016
55.8326 29.536 0.024255
55.1517 19.3372 0.0378287
54.6393 21.766 0.0392855
54.4319 24.2987 0.0271273
54.7907 26.8621 0.0247359
52.9786 18.8319 0.0353226
51.206 18.2425 0.0412371
50.5665 16.2489 0.0402046
45.9623 5.88697 0.012764
49.677 13.8099 0.032489
47.3528 8.63567 0.0202078
48.588 11.3304 0.0278508
43.3743 7.48157 0.017284
56.5647 34.8236 2
41.4005 7.08495 2
45.36 7.99971 2
42.8664 9.42791 2
54.88 31.6841 2
53.7404 28.6533 2
53.7433 20.3275 2
53.1585 22.963 2
53.1679 25.7787 2
46.6627 10.6689 2
47.7166 13.1396 2
51.5073 19.526 2
49.9072 17.8169 2
48.8703 15.5023 2
53.8281 34.0309 3.97489
52.5651 30.7502 3.97507
51.8565 27.5144 3.97496
51.6725 24.4082 3.97725
52.1293 21.2805 3.97825
41.0134 9.05908 3.9767
44.7265 10.0034 3.98615
42.4571 10.9137 4.00692
45.9781 12.7485 3.96655
47.636 14.6623 3.96573
48.0171 17.0634 3.96543
49.7131 19.9284 3.98305
49.565 61.7172 0.025412
50.4902 59.2505 0.0326972
54.609 41.6112 0.0261122
53.2859 45.3173 0.0257813
52.6414 49.1091 0.0303076
51.9972 56.3823 0.0364712
52.2309 52.6839 0.0405698
48.7945 60.1633 2
51.3508 42.4951 2
49.6584 57.5442 2
50.2966 54.3023 2
50.9568 47.0155 2
50.6617 50.7522 2
47.0535 43.537 2
47.9062 58.6755 3.99062
49.0394 45.0462 3.9814
48.4027 55.8238 3.95623
48.7374 52.4449 3.97647
49.0034 48.8238 3.9699
44.7578 39.7513 3.84029
45.2751 42.4307 3.88311
45.5712 45.4862 3.98238
42.6105 40.9781 3.63745
41.445 41.6975 3.43616
47.3016 60.9769 0.00597306
46.5734 59.7637 2
45.4117 58.7591 3.99524
39.6324 67.754 0.0205001
41.5463 65.6282 0.0244891
43.1431 63.6968 0.0218024
44.472 61.7927 0.0213083
45.7366 60.594 0.00764734
41.5988 63.7932 2
37.5643 67.7372 2
39.649 65.5935 2
44.5949 60.2497 2
42.9392 62.0485 2
41.7454 62.4545 3.97703
42.4569 59.9426 3.98441
39.8939 63.5289 3.97662
37.6419 65.489 3.97421
35.4642 67.645 3.97778
33.577 65.322 3.97422
31.9619 63.2673 3.9773
29.8873 64.6997 3.97899
31.6983 65.1107 2
31.379 67.1842 3.97829
33.393 67.4751 2
33.1581 69.7464 3.98407
35.3337 69.9544 2
35.1961 72.3712 3.99199
37.526 70.042 0.0163233
37.5095 72.457 2
37.5 75 4
39.8161 72.4022 0.00865426
39.9526 74.9197 2
42.3947 74.6792 0
39.6249 4.71888 3.98881
41.7367 4.97093 2
42.0636 2.71886 3.99257
43.8517 5.36334 0.0133787
44.3272 3.11098 2
44.8158 0.721173 4
46.5714 3.64901 0.00861208
47.2057 1.27779 2
49.554 1.99015 0
57.1968 40.5818 0.0226812
59.0941 37.5665 0.0226348
54.0074 39.6317 0.0245795
48.3859 41.208 2
55.9198 37.8712 2
51.914 39.2286 2
52.775 36.6147 3.97729
46.2933 40.274 3.89065
49.2952 38.4983 3.98135
37.5179 6.67729 3.98499
39.4446 6.80684 2
39.2114 8.70171 3.98105
35.944 8.49858 3.98284
56.5632 34.8253 0.0229512
54.8782 31.6844 0.0245774
53.7416 28.6504 0.0232277
53.7399 20.3152 0.0377457
53.1741 22.957 0.0393829
53.1696 25.7793 0.0256343
51.4945 19.5296 0.0204124
49.9083 17.8112 0.0434296
48.8754 15.4845 0.0330481
45.3596 8.00127 0.013411
47.7156 13.1437 0.0280364
46.6612 10.6741 0.0223104
41.4003 7.0851 0.016938
42.8665 9.4296 0.0255179
53.8247 34.0239 2
41.0143 9.06092 2
44.7256 10.0012 2
42.4583 10.9166 2
52.5562 30.7477 2
51.8684 27.5155 2
52.1296 21.2888 2
51.6551 24.4095 2
45.9794 12.7417 2
47.6283 14.6341 2
49.7305 19.9341 2
48.0146 17.073 2
51.3087 32.9685 3.98137
50.399 29.4768 3.97668
50.1645 26.0052 3.97013
49.6947 22.5357 3.98511
40.5609 11.6207 3.98502
43.8332 11.9156 3.97283
45.7544 15.518 3.99083
47.4202 19.5483 3.98206
45.2084 37.4844 3.84074
48.7973 60.1665 0.0167489
49.661 57.5447 0.0356878
51.3385 42.481 0.0165823
50.955 47.0161 0.02413
50.657 50.7525 0.0457692
50.2947 54.299 0.0393738
47.0443 43.4988 0.028535
47.9018 58.6803 2
49.0542 45.06 2
48.3988 55.8262 2
48.7393 52.4503 2
49.0085 48.8265 2
44.8692 39.7779 2
45.304 42.4508 2
45.5799 45.506 2
42.6736 41.0345 2
41.4862 41.7227 2
46.7229 57.2802 3.9819
43.3075 39.3476 3.63356
41.8276 40.6541 3.43344
47.2537 47.067 3.98346
46.907 54.1227 3.95834
47.1012 50.5831 3.97706
44.1507 47.1163 3.98675
43.9279 41.7763 3.84007
44.0743 44.2223 3.87377
41.7179 42.3435 3.68676
40.509 41.983 3.39588
46.5756 59.7648 0.00668332
45.411 58.7577 2
43.819 57.6338 3.98317
37.5637 67.735 0.0221873
39.6471 65.5929 0.0250152
41.5984 63.7964 0.0225208
42.9412 62.0481 0.0248859
44.5935 60.2483 0.00499647
35.4642 67.6473 2
41.7434 62.4571 2
39.893 63.5295 2
37.6431 65.4917 2
42.4595 59.941 2
40.6157 61.595 3.98374
40.4205 58.1151 3.9858
37.8374 63.1852 3.97254
35.5732 65.4123 3.97646
33.5768 65.3217 2
31.9642 63.2706 2
33.6302 63.313 3.97622
30.3824 62.8308 3.9815
32.1327 61.9703 3.98791
26.8872 61.4413 3.98401
28.0692 64.1292 3.98102
29.887 64.6997 2
29.4091 66.7472 3.97779
31.699 65.1112 0.0256677
31.3784 67.1843 2
31.016 69.4119 3.9837
33.3937 67.4736 0.0220146
33.1571 69.7477 2
32.8943 72.1456 3.99133
35.3343 69.9528 0.0159315
35.1957 72.372 2
35.0474 74.9194 4
37.5091 72.4564 0.00811866
37.5 75 2
39.9526 74.9197 0
35.6223 6.72897 3.98379
37.5248 4.6178 3.9893
39.6248 4.71752 2
39.7901 2.47542 3.99274
41.7366 4.97133 0.01225
42.0633 2.71853 2
42.3946 0.32156 4
44.327 3.11183 0.00780162
44.8159 0.72056 2
47.2057 1.27793 0
48.3628 41.1965 0.0312142
55.9156 37.8731 0.0230946
51.92 39.2606 0.0194508
46.3144 40.2815 2
49.2943 38.4883 2
52.7916 36.6403 2
50.1044 35.5517 3.97488
46.9418 37.7438 3.89191
44.7874 35.2086 3.84026
42.6621 33.9674 3.63748
41.4835 33.2478 3.43523
37.4594 8.53775 3.98431
37.5184 6.67695 2
39.4439 6.80833 0.0168759
39.2131 8.69975 2
38.9748 10.1382 3.98719
35.9 9.78158 3.98027
34.154 8.83078 3.98069
35.9451 8.49662 2
53.8281 34.0309 0.025105
52.5651 30.7502 0.0249288
51.8565 27.5144 0.0250423
52.1293 21.2805 0.0217474
51.6725 24.4082 0.022745
49.7131 19.9284 0.0169459
48.0171 17.0634 0.034566
47.636 14.6623 0.0342696
44.7265 10.0034 0.0138458
45.9781 12.7485 0.03345
41.0134 9.05908 0.0233015
42.4571 10.9137 -0.00691771
51.3218 32.9585 2
40.5646 11.6259 2
43.8326 11.9074 2
50.4134 29.4785 2
50.1625 26.017 2
49.6764 22.5047 2
45.7397 15.4532 2
47.4265 19.5826 2
48.9013 31.5684 3.98421
48.5196 27.7754 3.97526
48.939 24.642 3.98026
47.0295 22.3234 3.99157
38.2982 12.7568 3.97764
42.0768 14.3417 3.98242
44.7377 18.6457 3.97327
43.719 37.4811 3.64837
45.3099 37.4846 2
47.9062 58.6755 0.00938007
48.4027 55.8238 0.0437742
49.0394 45.0462 0.0186047
49.0034 48.8238 0.0300984
48.7374 52.4449 0.0235297
44.7578 39.7513 0.159714
45.2751 42.4307 0.116891
45.5712 45.4862 0.0176216
42.6105 40.9781 0.362548
41.445 41.6975 0.563844
46.7193 57.2857 2
43.3877 39.3729 2
41.8401 40.6668 2
47.261 47.0678 2
46.9018 54.1271 2
47.1033 50.5937 2
44.1891 47.1179 2
43.9965 41.8162 2
44.1311 44.2515 2
41.7697 42.4136 2
40.5465 42.0021 2
45.248 55.8514 4.00103
42.1695 39.164 3.44396
40.3966 40.5416 3.53905
45.5012 48.7119 4.00159
45.1758 52.3784 3.98724
42.9293 48.1047 3.99188
42.8008 45.7427 3.87175
42.8887 43.5399 3.82754
40.6651 43.3053 3.65619
39.1563 42.2433 3.45988
45.4117 58.7591 0.00476186
43.8161 57.6439 2
42.0407 56.2043 3.99083
35.4642 67.645 0.0222151
37.6419 65.489 0.0257868
39.8939 63.5289 0.0233765
41.7454 62.4545 0.0229729
42.4569 59.9426 0.0155912
35.5742 65.4161 2
40.6152 61.593 2
37.8379 63.1833 2
40.4204 58.1207 2
38.9013 56.3417 3.99462
38.2443 60.2764 3.98324
35.6075 63.1794 3.97196
33.577 65.322 0.0257795
31.9619 63.2673 0.0226989
33.6328 63.315 2
30.3838 62.8342 2
32.1353 61.9728 2
28.6898 62.1715 3.98044
33.3513 61.4753 3.9802
31.085 61.1989 3.99024
27.6085 59.5372 3.97651
23.8448 59.008 3.99013
25.0608 60.8069 3.97758
26.8883 61.4432 2
26.2397 63.4594 3.97454
28.0684 64.1273 2
27.4664 66.1689 3.97753
29.8873 64.6997 0.021009
29.4082 66.7454 2
28.9086 68.9373 3.98253
31.379 67.1842 0.0217146
31.0148 69.4118 2
30.6174 71.7772 3.99056
33.1581 69.7464 0.0159323
32.8933 72.1461 2
32.6054 74.6784 4
35.1961 72.3712 0.00801109
35.0474 74.9197 2
37.5 75 0
33.7254 6.98524 3.98241
35.4369 4.68785 3.98875
35.6229 6.72797 2
37.5159 2.38782 3.9929
37.5246 4.61718 2
39.6249 4.71888 0.011194
39.7897 2.47471 2
39.9526 0.0806499 4
42.0636 2.71886 0.00743151
42.3947 0.320817 2
44.8158 0.721173 0
43.3314 35.6083 3.63935
41.8551 34.2861 3.41812
46.2933 40.274 0.109348
49.2952 38.4983 0.0186536
52.775 36.6147 0.0227087
46.9391 37.7254 2
50.1183 35.5569 2
44.8786 35.1912 2
42.7101 33.9122 2
41.5113 33.223 2
47.1642 34.3842 3.93761
43.9849 33.1769 3.8336
41.7735 32.6034 3.684
40.5375 32.9717 3.39505
37.3113 10.6351 3.98135
37.4609 8.53813 2
37.5179 6.67729 0.0150147
39.2114 8.70171 0.0189532
38.979 10.1368 2
34.7572 10.392 3.97887
35.9033 9.7771 2
32.3813 9.37779 3.97654
34.1535 8.82668 2
35.944 8.49858 0.0171576
51.3087 32.9685 0.0186264
50.399 29.4768 0.0233177
50.1645 26.0052 0.0298714
49.6947 22.5357 0.0148892
47.4202 19.5483 0.0179352
45.7544 15.518 0.00917328
43.8332 11.9156 0.0271667
40.5609 11.6207 0.0149844
48.9205 31.5514 2
38.3004 12.7521 2
42.0838 14.3565 2
48.5169 27.776 2
48.934 24.6496 2
47.0182 22.3316 2
44.7469 18.7182 2
46.8456 29.7762 3.98217
46.6236 25.3562 3.97538
44.1869 21.6559 3.98303
36.5869 12.9718 3.9752
38.6751 14.8753 3.97643
41.711 17.9749 3.97753
42.342 37.4579 3.47914
43.7869 37.4825 2
45.2084 37.4844 0.159264
46.7229 57.2802 0.0180993
46.907 54.1227 0.0416637
47.2537 47.067 0.0165388
47.1012 50.5831 0.0229387
43.3075 39.3476 0.366442
43.9279 41.7763 0.159926
44.0743 44.2223 0.126228
44.1507 47.1163 0.013247
41.7179 42.3435 0.313242
41.8276 40.6541 0.566563
40.509 41.983 0.604123
45.2436 55.8549 2
42.1785 39.1718 2
40.4469 40.5302 2
45.5025 48.7329 2
45.1713 52.3815 2
42.9653 48.1213 2
42.8635 45.8017 2
42.9294 43.5731 2
40.7163 43.3807 2
39.1469 42.2663 2
43.5669 54.3006 3.99922
40.4901 39.0074 3.56355
39.0515 40.6226 3.50988
43.2471 50.1986 4.00299
41.5845 47.2437 3.92155
41.4917 44.839 3.83394
39.3549 43.9546 3.62589
37.5073 42.3736 3.51078
43.819 57.6338 0.0168336
42.0463 56.1944 2
40.3534 54.7617 3.99451
35.5732 65.4123 0.0235375
37.8374 63.1852 0.0274554
40.6157 61.595 0.0162587
40.4205 58.1151 0.014199
35.6093 63.1758 2
38.2419 60.2751 2
38.9041 56.3234 2
37.9747 55.0207 3.99496
36.9241 57.5417 3.99169
35.3656 60.8743 3.98195
33.6302 63.313 0.0237775
30.3824 62.8308 0.018497
32.1327 61.9703 0.0120861
33.353 61.4746 2
28.6909 62.1759 2
31.0873 61.2053 2
29.4327 60.26 3.9791
32.3695 59.677 3.99576
28.0843 58.3258 4.01622
27.6095 59.5352 2
25.4342 58.5298 3.97812
22.8368 58.1638 3.96955
23.4323 60.274 3.9757
23.8468 59.0082 2
25.0625 60.8067 2
24.4471 62.7336 3.9763
26.8872 61.4413 0.0159894
26.2399 63.4575 2
25.5512 65.4786 3.97665
28.0692 64.1292 0.0189809
27.4659 66.1696 2
26.8386 68.324 3.98191
29.4091 66.7472 0.0222141
28.9077 68.9362 2
28.3727 71.2626 3.98968
31.016 69.4119 0.0162974
30.616 71.7769 2
30.1842 74.2788 4
32.8943 72.1456 0.00867245
32.6053 74.6792 2
35.0474 74.9194 0
31.7898 7.42504 3.98065
33.3494 4.92768 3.98764
33.7252 6.98293 2
35.2464 2.46363 3.99294
35.4366 4.68737 2
35.6223 6.72897 0.0162124
37.5 0 4
37.5151 2.38745 2
37.5248 4.6178 0.0106967
39.7901 2.47542 0.00725544
39.9526 0.0802889 2
42.3946 0.32156 0
42.1646 35.7494 3.42067
43.4204 35.5805 2
40.4467 34.3967 3.54096
41.8579 34.2687 2
46.9418 37.7438 0.108091
50.1044 35.5517 0.0251222
44.7874 35.2086 0.159745
42.6621 33.9674 0.36252
41.4835 33.2478 0.56477
47.1974 34.3973 2
44.0355 33.1335 2
41.8242 32.5362 2
40.5708 32.9535 2
45.3034 31.8203 3.89393
42.9436 31.4131 3.81955
40.7122 31.6458 3.65675
39.1709 32.73 3.45583
35.6973 11.7907 3.9755
37.3168 10.6352 2
37.4594 8.53775 0.0156915
38.9748 10.1382 0.0128112
33.1028 11.2313 3.97208
34.7576 10.3842 2
35.9 9.78158 0.0197279
30.4873 10.03 3.97648
32.3806 9.37646 2
34.154 8.83078 0.0193058
48.9013 31.5684 0.0157876
48.5196 27.7754 0.0247411
48.939 24.642 0.0197378
47.0295 22.3234 0.00843309
44.7377 18.6457 0.0267253
42.0768 14.3417 0.0175804
38.2982 12.7568 0.0223561
36.5838 12.95 2
46.8424 29.7191 2
38.674 14.8553 2
41.7047 17.9776 2
46.6233 25.3485 2
44.167 21.633 2
44.8523 27.9156 3.99283
43.5055 24.2931 4.0243
41.2671 20.9996 3.99149
35.771 14.812 3.98144
38.6534 17.7041 3.98486
40.5461 37.4339 3.58351
42.3572 37.4628 2
43.719 37.4811 0.351634
45.248 55.8514 -0.00102504
45.1758 52.3784 0.0127565
45.5012 48.7119 -0.00158602
42.1695 39.164 0.55604
42.8887 43.5399 0.172461
42.8008 45.7427 0.128249
42.9293 48.1047 0.00811603
40.6651 43.3053 0.343811
40.3966 40.5416 0.460946
39.1563 42.2433 0.540118
43.5626 54.2948 2
40.5109 39.0089 2
39.0467 40.6224 2
43.2388 50.2147 2
41.581 47.2749 2
41.5206 44.8829 2
37.5038 42.3977 2
39.3759 44.0299 2
41.7164 52.7552 4.00042
39.0607 39.0563 3.51087
37.5081 40.6747 3.55371
35.8649 42.2534 3.45599
40.7441 49.3339 3.9931
39.678 45.5408 3.79662
37.5032 44.2307 3.66726
42.0407 56.2043 0.00916929
40.3542 54.7697 2
38.7144 53.539 3.99685
35.6075 63.1794 0.0280405
38.2443 60.2764 0.0167576
38.9013 56.3417 0.00537995
35.3645 60.861 2
36.9259 57.5524 2
37.9725 55.0139 2
36.3125 55.1096 3.99772
34.4942 58.4619 3.9936
33.3513 61.4753 0.0197969
28.6898 62.1715 0.0195646
31.085 61.1989 0.0097619
32.3681 59.6796 2
29.4339 60.2603 2
30.3504 57.7647 3.98987
28.0866 58.3228 2
27.0641 56.7685 3.96975
27.6085 59.5372 0.0234861
25.4364 58.5294 2
23.9788 56.716 3.96006
21.4727 57.3 3.95816
22.0348 59.55 3.97829
22.8392 58.1645 2
22.7556 61.9688 3.97282
23.4339 60.2742 2
23.8448 59.008 0.00986538
25.0608 60.8069 0.0224243
24.4477 62.7341 2
23.6879 64.6916 3.97413
26.2397 63.4594 0.0254618
25.5514 65.4799 2
24.8109 67.5856 3.98099
27.4664 66.1689 0.0224671
26.8374 68.3257 2
26.1681 70.6029 3.98914
28.9086 68.9373 0.0174651
28.3712 71.2619 2
27.7943 73.7221 4
30.6174 71.7772 0.00944166
30.1841 74.2794 2
32.6054 74.6784 0
29.8128 8.00167 3.9787
31.2548 5.33459 3.98651
31.7893 7.42362 2
32.9824 2.70185 3.99245
33.3487 4.92642 2
33.7254 6.98524 0.0175898
35.0474 0.080333 4
35.2454 2.46352 2
35.4369 4.68785 0.0112519
37.5 0 2
37.5159 2.38782 0.00710019
39.9526 0.0806499 0
40.5596 35.8938 3.57401
42.179 35.7492 2
43.3314 35.6083 0.360646
28.5476 10.7042 3.9766
39.0644 34.3509 3.50426
40.4599 34.3999 2
41.8551 34.2861 0.581877
47.1642 34.3842 0.0623871
43.9849 33.1769 0.166401
41.7735 32.6034 0.316001
40.5375 32.9717 0.604949
45.3358 31.8015 2
42.9892 31.3738 2
40.7594 31.5695 2
39.1696 32.7034 2
43.7218 30.0655 3.88171
41.5207 30.1043 3.83425
39.3808 31.0046 3.62619
37.5315 32.6094 3.50829
34.1017 12.9554 3.97509
35.6977 11.7778 2
37.3113 10.6351 0.0186502
31.1934 12.0026 3.97758
33.104 11.2292 2
34.7572 10.392 0.0211334
30.4846 10.0246 2
32.3813 9.37779 0.023461
46.8456 29.7762 0.0178311
46.6236 25.3562 0.0246233
36.5869 12.9718 0.0247963
44.1869 21.6559 0.0169714
41.711 17.9749 0.022475
38.6751 14.8753 0.0235696
35.7741 14.8171 2
44.8464 27.9155 2
38.6545 17.7052 2
41.2506 20.9833 2
43.4932 24.2727 2
33.6199 15.9137 3.98938
42.6497 26.7447 3.97904
40.771 23.6162 3.99365
38.3777 20.4928 3.99418
35.845 17.5837 3.98773
39.0823 37.4849 3.51756
40.5576 37.44 2
42.342 37.4579 0.520858
43.5669 54.3006 0.000779061
43.2471 50.1986 -0.00299431
40.4901 39.0074 0.436452
41.4917 44.839 0.166064
41.5845 47.2437 0.0784526
39.3549 43.9546 0.374114
39.0515 40.6226 0.490115
37.5073 42.3736 0.489219
41.705 52.7524 2
39.0503 39.0451 2
37.5015 40.6692 2
40.725 49.3445 2
35.8693 42.2737 2
39.6994 45.6053 2
37.4992 44.3027 2
39.7032 51.5335 4.00183
37.5128 39.0556 3.55568
35.9739 40.6386 3.51105
34.5048 42.002 3.39752
35.6506 43.9727 3.62124
38.6428 48.1979 3.92973
37.5323 45.8364 3.83128
40.3534 54.7617 0.00548753
38.7122 53.5458 2
36.7761 52.8786 3.997
35.3656 60.8743 0.0180532
36.9241 57.5417 0.00831095
37.9747 55.0207 0.00504228
34.4927 58.467 2
36.3158 55.0989 2
33.2814 55.3051 3.99302
32.3695 59.677 0.00423784
29.4327 60.26 0.0208999
30.3523 57.7595 2
28.8673 55.2745 3.99078
28.0843 58.3258 -0.0162196
27.0667 56.7654 2
25.5273 55.0452 3.95414
22.0528 55.2225 3.96072
25.4342 58.5298 0.0218754
23.9821 56.717 2
20.3513 56.9306 3.96257
20.7013 58.7033 3.96309
21.4758 57.3012 2
21.1917 61.0999 3.97307
22.0366 59.5505 2
22.8368 58.1638 0.0304521
21.905 63.8061 3.97367
22.7568 61.97 2
23.4323 60.274 0.0243017
24.4471 62.7336 0.0236953
23.688 64.6926 2
22.8395 66.7278 3.97793
25.5512 65.4786 0.023354
24.8098 67.5861 2
24.0124 69.8048 3.98906
26.8386 68.324 0.0180902
26.166 70.6031 2
25.446 73.0099 4
28.3727 71.2626 0.0103187
27.7943 73.7222 2
30.1842 74.2788 0
27.8228 8.66138 3.97942
29.157 5.8817 3.98446
29.811 7.9977 2
30.728 3.09871 3.99209
31.2539 5.33324 2
31.7898 7.42504 0.019351
32.6053 0.320823 4
32.9812 2.70147 2
33.3494 4.92768 0.0123602
35.0474 0.0802903 2
35.2464 2.46363 0.007055
37.5 0 0
39.0302 35.9198 3.52329
40.5408 35.8913 2
42.1646 35.7494 0.579332
28.5449 10.7011 2
26.6273 11.4033 3.97644
29.2344 12.653 3.98093
37.5326 34.3136 3.55378
39.0868 34.3654 2
40.4467 34.3967 0.459037
45.3034 31.8203 0.106068
42.9436 31.4131 0.180452
40.7122 31.6458 0.343252
39.1709 32.73 0.544171
43.75 30.0352 2
41.5532 30.0616 2
39.394 30.9312 2
37.5368 32.581 2
41.9385 28.7713 3.86003
39.6806 29.4068 3.81748
37.5286 30.7496 3.6713
35.8811 32.7312 3.4624
31.9328 14.5007 3.98206
34.1021 12.9602 2
35.6973 11.7907 0.0245027
31.1919 11.9932 2
33.1028 11.2313 0.02792
30.4873 10.03 0.0235237
44.8523 27.9156 0.00716889
43.5055 24.2931 -0.0242973
35.771 14.812 0.0185586
41.2671 20.9996 0.00851034
38.6534 17.7041 0.0151385
33.6116 15.8968 2
35.8392 17.572 2
42.7056 26.7196 2
38.3637 20.5408 2
40.7582 23.605 2
33.5555 17.4578 3.98602
40.2099 26.0814 3.96607
38.0249 23.3581 3.99718
35.5452 20.2664 3.99634
37.5223 37.4818 3.57172
39.0633 37.4752 2
40.5461 37.4339 0.41649
41.7164 52.7552 -0.000423656
40.7441 49.3339 0.00689777
39.0607 39.0563 0.489129
39.678 45.5408 0.203377
37.5032 44.2307 0.332736
37.5081 40.6747 0.446287
35.8649 42.2534 0.544005
39.6852 51.532 2
37.5129 39.0546 2
35.9692 40.6256 2
38.663 48.2605 2
34.473 42.0201 2
35.6349 44.0408 2
37.5198 45.8968 2
37.6835 50.511 3.99188
35.9951 39.0665 3.52377
34.6163 40.5697 3.54386
33.5619 41.7199 3.43876
34.3616 43.3225 3.64816
35.2873 45.5758 3.81972
36.9186 47.8098 3.89311
38.7144 53.539 0.00314934
36.7685 52.8349 2
34.4815 52.1964 3.99992
34.4942 58.4619 0.00639962
36.3125 55.1096 0.00228229
33.2863 55.3135 2
30.7142 53.2335 3.9996
30.3504 57.7647 0.010126
28.8697 55.2703 2
27.1777 53.325 3.9565
27.0641 56.7685 0.0302546
25.5307 55.0449 2
23.9185 53.3274 3.95415
20.8911 53.0546 3.95847
20.1525 55.7123 3.96129
22.0527 55.2241 2
23.9788 56.716 0.0399394
19.526 57.8048 3.96137
20.3485 56.9328 2
19.7321 60.1337 3.973
20.7001 58.7051 2
21.4727 57.3 0.0418402
20.2215 62.8079 3.97202
21.1932 61.1015 2
22.0348 59.55 0.0217109
20.9417 65.7531 3.97472
21.9053 63.8097 2
22.7556 61.9688 0.0271817
23.6879 64.6916 0.0258703
22.8386 66.7276 2
21.9151 68.872 3.98821
24.8109 67.5856 0.0190091
24.0097 69.8037 2
23.1494 72.1454 4
26.1681 70.6029 0.0108557
25.446 73.0099 2
27.7943 73.7221 0
25.8624 9.3915 3.97754
27.0718 6.54618 3.98295
27.82 8.65933 2
28.4905 3.64468 3.99113
29.1555 5.87953 2
29.8128 8.00167 0.021305
30.1841 0.720592 4
30.7261 3.09848 2
31.2548 5.33459 0.0134933
32.6053 0.320817 2
32.9824 2.70185 0.00754576
35.0474 0.080333 0
37.5172 35.9137 3.54861
39.0122 35.9053 2
40.5596 35.8938 0.425989
24.7859 12.0875 3.97624
23.7728 14.4162 3.97895
28.5476 10.7042 0.023403
26.6235 11.3993 2
29.2323 12.6512 2
27.3018 13.3911 3.9757
29.8006 14.2112 3.98499
35.9798 34.351 3.51356
37.5415 34.316 2
39.0644 34.3509 0.495744
37.5315 32.6094 0.491711
43.7218 30.0655 0.118287
41.5207 30.1043 0.165754
39.3808 31.0046 0.373805
41.9774 28.703 2
39.7054 29.3446 2
37.5288 30.6767 2
35.887 32.711 2
39.8461 28.0346 3.86566
37.4924 29.134 3.82289
35.6818 31.0241 3.62913
34.5197 32.9862 3.39969
30.9533 16.8554 3.99572
31.9258 14.4858 2
34.1017 12.9554 0.0249095
31.1934 12.0026 0.0224238
42.6497 26.7447 0.0209633
40.771 23.6162 0.00635201
33.6199 15.9137 0.0106156
35.845 17.5837 0.0122691
38.3777 20.4928 0.00581718
33.5468 17.4651 2
35.5505 20.2778 2
40.2691 26.0519 2
38.0178 23.3328 2
32.9117 19.883 3.99598
37.6811 25.7131 3.96209
35.2841 23.0159 4.00562
35.9713 37.4766 3.52058
37.5104 37.481 2
39.0823 37.4849 0.482437
39.7032 51.5335 -0.00183183
38.6428 48.1979 0.0702674
37.5128 39.0556 0.444317
37.5323 45.8364 0.168721
35.6506 43.9727 0.378758
35.9739 40.6386 0.488949
34.5048 42.002 0.602476
37.662 50.5528 2
36.0223 39.0538 2
34.5694 40.5708 2
36.9137 47.8737 2
33.5215 41.747 2
34.306 43.3948 2
35.2671 45.6324 2
35.569 49.7109 3.98316
34.5104 39.0565 3.57037
33.1856 40.684 3.42411
33.2885 42.3647 3.69111
33.5576 44.8485 3.82259
34.545 46.9687 3.86593
36.7761 52.8786 0.00300046
34.4646 52.2107 2
32.2885 51.0182 4.00256
33.2814 55.3051 0.00697519
30.7187 53.2319 2
28.7919 51.4194 3.97969
28.8673 55.2745 0.00922292
27.1806 53.3232 2
25.5112 51.5607 3.95301
25.5273 55.0452 0.0458573
23.9218 53.3352 2
22.4674 51.6132 3.95354
19.7701 51.4401 3.96244
19.2677 54.1615 3.96169
20.8959 53.0523 2
18.6162 56.6199 3.96271
20.1515 55.7135 2
22.0528 55.2225 0.0392753
18.4089 59.0429 3.96237
19.5244 57.8064 2
20.3513 56.9306 0.0374283
18.6353 61.705 3.97188
19.7331 60.136 2
20.7013 58.7033 0.0369133
19.1324 64.6602 3.97343
20.2223 62.8116 2
21.1917 61.0999 0.0269342
19.8894 67.8078 3.98557
20.9409 65.7523 2
21.905 63.8061 0.0263271
22.8395 66.7278 0.0220668
21.9119 68.8702 2
20.9142 71.1327 4
24.0124 69.8048 0.0109446
23.1494 72.1455 2
25.446 73.0099 0
23.1088 12.8301 3.97689
23.9751 10.1799 3.97473
25.0253 7.31752 3.98101
25.8588 9.3896 2
26.2823 4.32886 3.99013
27.0695 6.54531 2
27.8228 8.66138 0.0205836
27.7943 1.27781 4
28.4877 3.64469 2
29.157 5.8817 0.0155387
30.1841 0.720551 2
30.728 3.09871 0.00791188
32.6053 0.320823 0
35.9717 35.9024 3.51238
37.5442 35.9228 2
39.0302 35.9198 0.476709
24.7811 12.0981 2
23.7723 14.4213 2
22.5104 15.1084 3.97704
25.3727 13.9602 3.97223
24.0657 15.6745 3.98824
26.6273 11.4033 0.0235584
29.2344 12.653 0.0190726
27.3037 13.3852 2
29.792 14.2104 2
28.392 15.9769 3.98767
34.6364 34.4232 3.5381
35.9822 34.3512 2
37.5326 34.3136 0.446222
35.8811 32.7312 0.537596
37.5286 30.7496 0.328702
41.9385 28.7713 0.139966
39.6806 29.4068 0.18252
39.8786 27.986 2
37.4935 29.078 2
35.6655 30.946 2
34.4822 32.9698 2
37.6241 27.768 3.86906
35.3513 29.4247 3.81645
34.358 31.6646 3.65488
33.5762 33.2676 3.43665
30.2549 19.4835 3.97914
30.9426 16.8427 2
31.9328 14.5007 0.0179382
40.2099 26.0814 0.0339286
38.0249 23.3581 0.00281667
33.5555 17.4578 0.0139816
35.5452 20.2664 0.00366413
32.9145 19.9062 2
35.2653 23.0029 2
37.7161 25.6953 2
32.4869 22.6267 3.99805
35.1627 25.6104 3.98731
34.4763 37.504 3.59004
35.9693 37.4903 2
37.5223 37.4818 0.428281
37.6835 50.511 0.00811629
36.9186 47.8098 0.106887
35.9951 39.0665 0.476227
35.2873 45.5758 0.180278
34.3616 43.3225 0.351837
34.6163 40.5697 0.456138
33.5619 41.7199 0.561237
35.5534 49.7244 2
34.4989 39.0571 2
33.1751 40.6959 2
34.5013 47.0318 2
33.2409 42.4327 2
33.5205 44.8955 2
33.4643 48.8227 3.97299
32.8602 39.2093 3.42605
32.3794 41.0012 3.63865
32.1155 43.5578 3.82552
32.7629 45.9632 3.86524
34.4815 52.1964 7.83516e-05
32.3091 51.0222 2
30.3498 49.5577 4.00291
30.7142 53.2335 0.000395013
28.7959 51.4193 2
27.0454 49.7825 3.97464
27.1777 53.325 0.0434982
25.5134 51.5635 2
23.9306 49.9672 3.96655
23.9185 53.3274 0.0458463
22.4726 51.6104 2
21.109 50.0963 3.96509
18.5377 50.1478 3.9711
18.3033 52.6243 3.96489
19.7649 51.4396 2
17.719 55.2144 3.96247
19.2672 54.161 2
20.8911 53.0546 0.0415345
17.2417 57.7933 3.96098
18.6137 56.6211 2
20.1525 55.7123 0.0387057
17.1494 60.4967 3.96487
18.4087 59.044 2
19.526 57.8048 0.0386282
17.4163 63.4331 3.96825
18.6369 61.7063 2
19.7321 60.1337 0.0270004
17.9455 66.6154 3.98292
19.1319 64.6595 2
20.2215 62.8079 0.0279793
18.75 69.9759 4
19.8861 67.805 2
20.9417 65.7531 0.02528
21.9151 68.872 0.0117862
20.9142 71.1327 2
23.1494 72.1454 0
21.606 13.6659 3.97281
22.1959 11.0524 3.97194
23.1071 12.8299 2
23.0424 8.18475 3.97772
23.9733 10.1838 2
24.1201 5.14371 3.98975
25.0221 7.31649 2
25.8624 9.3915 0.0224636
25.446 1.99014 4
26.2789 4.32976 2
27.0718 6.54618 0.0170525
27.7943 1.27778 2
28.4905 3.64468 0.00886708
30.1841 0.720592 0
34.5483 35.9417 3.5631
35.9865 35.9174 2
37.5172 35.9137 0.45139
21.347 15.9109 3.97179
24.7859 12.0875 0.0237635
23.7728 14.4162 0.0210456
25.3713 13.9339 2
22.5103 15.1006 2
24.0696 15.6804 2
23.3193 16.3165 3.96517
25.4233 16.1455 3.98708
27.3018 13.3911 0.0242986
29.8006 14.2112 0.015014
28.3823 15.9952 2
27.4933 18.9204 3.98228
33.1968 34.311 3.43642
34.5862 34.4345 2
35.9798 34.351 0.486443
34.5197 32.9862 0.600313
35.6818 31.0241 0.37087
37.4924 29.134 0.177111
39.8461 28.0346 0.134342
37.5955 27.7296 2
33.5414 33.2425 2
35.3457 29.3602 2
34.3139 31.5907 2
35.2356 27.8556 3.88027
33.5424 30.127 3.82692
33.3015 32.6206 3.68908
29.8049 22.0904 4.00763
30.257 19.4975 2
30.9533 16.8554 0.00427925
37.6811 25.7131 0.0379103
35.2841 23.0159 -0.0056227
32.9117 19.883 0.00402409
32.4855 22.6075 2
35.1921 25.6026 2
32.0864 25.9059 4.00965
32.6815 37.4999 3.47621
34.4826 37.4969 2
35.9713 37.4766 0.479418
35.569 49.7109 0.0168438
34.545 46.9687 0.134068
34.5104 39.0565 0.42963
33.5576 44.8485 0.177411
33.2885 42.3647 0.308891
33.1856 40.684 0.575888
33.4517 48.8196 2
32.8655 39.2188 2
32.3266 41.0565 2
32.7398 46.0192 2
32.0653 43.5931 2
31.7077 47.662 3.98489
31.7047 39.3673 3.63961
31.0635 41.8018 3.83562
31.2082 44.6019 3.8743
32.2885 51.0182 -0.00255761
30.3564 49.5915 2
28.5401 47.9546 3.97172
28.7919 51.4194 0.0203118
27.0441 49.7843 2
25.364 48.2214 3.96756
25.5112 51.5607 0.0469938
23.9362 49.9653 2
22.4103 48.5382 3.97143
22.4674 51.6132 0.0464576
21.1109 50.0948 2
19.6693 48.8859 3.97416
17.4099 49.1654 3.97558
17.2386 51.2491 3.97021
18.5396 50.146 2
16.7392 53.7359 3.96605
18.2995 52.6243 2
19.7701 51.4401 0.0375617
16.1569 56.3828 3.96202
17.7185 55.2147 2
19.2677 54.1615 0.0383138
15.7758 59.1629 3.96108
17.236 57.7955 2
18.6162 56.6199 0.0372949
15.7937 62.0988 3.96958
17.1516 60.4985 2
18.4089 59.0429 0.0376277
16.0919 65.2967 3.98023
17.4153 63.4375 2
18.6353 61.705 0.0281203
16.6661 68.6801 4
17.9425 66.6118 2
19.1324 64.6602 0.0265747
18.75 69.9759 2
19.8894 67.8078 0.0144263
20.9142 71.1327 0
20.2426 14.6685 3.9694
21.6042 13.6736 2
20.5395 12.0443 3.97337
21.1456 9.15806 3.97608
22.1931 11.0534 2
23.1088 12.8301 0.0231128
22.0194 6.08225 3.98866
23.0398 8.18629 2
23.9751 10.1799 0.0252653
23.1494 2.85457 4
24.1158 5.14492 2
25.0253 7.31752 0.0189935
25.446 1.99012 2
26.2823 4.32886 0.00987132
27.7943 1.27781 0
32.8494 35.7975 3.44454
34.5221 35.9413 2
35.9717 35.9024 0.487621
21.3508 15.9039 2
20.3694 17.0382 3.96512
22.153 16.7119 3.96202
25.3727 13.9602 0.0277698
22.5104 15.1084 0.0229614
24.0657 15.6745 0.011763
25.425 16.1456 2
23.3243 16.3118 2
24.2778 18.5988 3.97353
27.2391 21.7168 3.99386
28.392 15.9769 0.0123337
27.4921 18.9577 2
32.4138 33.9841 3.63322
33.1882 34.296 2
34.6364 34.4232 0.4619
33.5762 33.2676 0.563349
34.358 31.6646 0.345121
35.3513 29.4247 0.183547
37.6241 27.768 0.130945
35.2338 27.8089 2
33.2301 32.5527 2
33.5095 30.0826 2
32.9992 28.4971 3.88795
32.1164 31.4264 3.81631
29.2257 24.58 4.01207
29.7853 22.1164 2
30.2549 19.4835 0.0208598
35.1627 25.6104 0.0126891
32.4869 22.6267 0.00194748
32.0723 25.8789 2
30.2646 27.5733 3.97655
31.3086 37.4874 3.64501
32.6822 37.4995 2
34.4763 37.504 0.409961
33.4643 48.8227 0.0270106
32.7629 45.9632 0.134758
32.8602 39.2093 0.57395
32.1155 43.5578 0.174484
32.3794 41.0012 0.361345
31.6539 47.6922 2
31.6205 39.3854 2
31.0052 41.8471 2
31.1619 44.6414 2
29.9814 46.2723 3.98849
30.2427 39.7707 3.84295
29.7436 42.9043 3.88906
30.3498 49.5577 -0.00291193
28.5384 47.9586 2
26.796 46.3852 3.98084
27.0454 49.7825 0.0253626
25.3649 48.2189 2
23.6772 46.8006 3.97336
23.9306 49.9672 0.0334467
22.4113 48.5388 2
20.6928 47.3898 3.97636
21.109 50.0963 0.0349078
19.6698 48.8842 2
18.2596 47.993 3.97673
16.643 48.5274 3.97654
17.4093 49.1643 2
16.2975 50.0249 3.97423
15.7425 52.2871 3.97021
17.2399 51.248 2
18.5377 50.1478 0.0289043
15.1163 54.8759 3.96439
16.7395 53.7356 2
18.3033 52.6243 0.0351141
14.5313 57.688 3.96028
16.1569 56.3832 2
17.719 55.2144 0.03753
14.2734 60.6653 3.96595
15.7794 59.1633 2
17.2417 57.7933 0.0390232
14.3369 63.8537 3.97687
15.7947 62.1003 2
17.1494 60.4967 0.035128
14.6715 67.2507 4
16.0893 65.2927 2
17.4163 63.4331 0.0317499
16.6661 68.6801 2
17.9455 66.6154 0.0170765
18.75 69.9759 0
18.9663 15.8498 3.97239
20.2445 14.6647 2
18.9934 13.167 3.97171
21.606 13.6659 0.0271865
20.5376 12.0432 2
19.3467 10.2503 3.97292
19.9942 7.14781 3.98649
21.1429 9.15948 2
22.1959 11.0524 0.0280599
20.9142 3.86727 4
22.0146 6.08521 2
23.0424 8.18475 0.022278
23.1494 2.85451 2
24.1201 5.14371 0.0102536
25.446 1.99014 0
31.7321 35.6233 3.6333
32.8495 35.7885 2
34.5483 35.9417 0.436901
21.347 15.9109 0.0282145
22.1563 16.7047 2
20.3718 17.0347 2
19.398 18.5156 3.95784
21.8545 17.9693 3.97762
25.4233 16.1455 0.0129176
23.3193 16.3165 0.0348324
24.267 18.619 2
22.4864 20.0477 3.97703
24.8234 21.5681 3.98837
26.8549 23.862 3.98512
27.2414 21.6252 2
27.4933 18.9204 0.0177229
31.1118 33.1901 3.83584
32.3641 33.9289 2
33.1968 34.311 0.563578
33.3015 32.6206 0.310925
33.5424 30.127 0.173081
35.2356 27.8556 0.119733
32.963 28.4636 2
32.0621 31.3787 2
30.8949 29.8729 3.91298
28.5355 26.7518 3.99938
29.2131 24.5756 2
29.8049 22.0904 -0.00762996
32.0864 25.9059 -0.0096544
30.2558 27.5495 2
29.8102 37.4833 3.84165
31.2344 37.4854 2
32.6815 37.4999 0.52379
31.7077 47.662 0.0151118
31.2082 44.6019 0.125701
31.7047 39.3673 0.360389
31.0635 41.8018 0.164384
29.9832 46.2795 2
30.1584 39.7877 2
29.7125 42.9282 2
28.2857 44.6013 3.96732
27.9949 40.4811 3.92805
28.5401 47.9546 0.0282841
26.7952 46.3859 2
24.9994 44.9137 3.97993
25.364 48.2214 0.0324358
23.6757 46.7992 2
21.7336 45.6838 3.97781
22.4103 48.5382 0.0285653
20.6934 47.3888 2
19.008 46.5505 3.97624
19.6693 48.8859 0.0258427
18.26 47.9917 2
16.8926 47.5533 3.97605
16.6441 48.5264 2
15.6485 48.8768 3.97549
17.4099 49.1654 0.0244219
16.2992 50.0239 2
14.8528 50.8665 3.97354
14.0832 53.3402 3.96754
15.7438 52.2864 2
17.2386 51.2491 0.0297904
13.382 56.1097 3.96123
15.1164 54.8758 2
16.7392 53.7359 0.0339488
12.8623 59.1053 3.9639
14.5345 57.6878 2
16.1569 56.3828 0.0379805
12.6829 62.2963 3.97446
14.2749 60.6655 2
15.7758 59.1629 0.0389211
12.7746 65.6939 4
14.3345 63.8497 2
15.7937 62.0988 0.0304209
14.6714 67.2507 2
16.0919 65.2967 0.019771
16.6661 68.6801 0
17.7564 17.2377 3.96145
18.9668 15.8475 2
17.5304 14.4308 3.96807
20.2426 14.6685 0.0306006
18.9935 13.1697 2
17.6456 11.4812 3.97279
20.5395 12.0443 0.0266317
19.3434 10.2515 2
18.0543 8.34118 3.98394
18.75 5.0241 4
19.989 7.15118 2
21.1456 9.15806 0.0239161
20.9142 3.86727 2
22.0194 6.08225 0.0113402
23.1494 2.85457 0
30.2686 35.2217 3.84105
31.6484 35.5996 2
32.8494 35.7975 0.555464
22.153 16.7119 0.0379784
20.3694 17.0382 0.0348836
21.854 17.9663 2
19.3915 18.509 2
18.2547 20.0752 3.96168
21.0658 19.5178 3.96662
24.2778 18.5988 0.0264696
22.4787 20.0515 2
24.8329 21.5499 2
22.687 21.8975 3.98037
25.1386 23.2882 3.97428
26.1468 26.1259 3.97946
26.8532 23.8558 2
27.2391 21.7168 0.00613949
29.5076 32.5414 3.88904
31.0346 33.1541 2
32.4138 33.9841 0.366775
32.1164 31.4264 0.183694
32.9992 28.4971 0.112048
30.8734 29.8624 2
27.9261 29.3409 4.01274
28.5235 26.7546 2
29.2257 24.58 -0.0120684
30.2646 27.5733 0.0234477
28.1622 37.377 3.88729
29.7323 37.4809 2
31.3086 37.4874 0.354994
29.9814 46.2723 0.011505
29.7436 42.9043 0.11094
30.2427 39.7707 0.157047
28.2822 44.6546 2
27.962 40.4839 2
26.3905 43.0058 3.98268
25.2806 39.432 3.97301
26.796 46.3852 0.019164
24.9895 44.9154 2
22.9236 43.7192 3.97505
23.6772 46.8006 0.0266389
21.7305 45.6846 2
19.799 44.7894 3.97582
20.6928 47.3898 0.0236366
19.0077 46.5509 2
17.259 46.0538 3.97585
18.2596 47.993 0.0232669
16.8934 47.5528 2
15.4205 47.5336 3.97574
16.643 48.5274 0.0234622
15.6501 48.8758 2
14.1656 49.4341 3.97513
16.2975 50.0249 0.0257675
14.8542 50.8657 2
13.1518 51.788 3.97031
12.2855 54.4718 3.96335
14.0838 53.3396 2
15.7425 52.2871 0.0297876
11.5555 57.4429 3.96221
13.3828 56.1094 2
15.1163 54.8759 0.0356111
11.1386 60.6212 3.96928
12.8643 59.1044 2
14.5313 57.688 0.0397176
10.9835 64.0165 4
12.6809 62.2915 2
14.2734 60.6653 0.034052
12.7745 65.694 2
14.3369 63.8537 0.0231315
14.6715 67.2507 0
16.5733 18.748 3.96134
17.7491 17.2331 2
16.1272 15.833 3.96224
18.9663 15.8498 0.0276101
17.5308 14.4274 2
16.0292 12.8482 3.96821
18.9934 13.167 0.0282863
17.6431 11.4899 2
16.2053 9.66588 3.98105
19.3467 10.2503 0.0270842
18.0492 8.34699 2
16.6661 6.31991 4
18.75 5.02404 2
19.9942 7.14781 0.0135086
20.9142 3.86727 0
28.6636 34.8635 3.8931
30.1725 35.1822 2
31.7321 35.6233 0.366695
17.0014 21.512 3.96819
21.8545 17.9693 0.0223756
19.398 18.5156 0.0421589
21.0559 19.5133 2
18.2559 20.0729 2
20.0983 21.7432 3.97209
22.4864 20.0477 0.0229652
24.8234 21.5681 0.0116344
22.6867 21.901 2
25.1272 23.3057 2
23.4586 24.7908 3.97178
25.4834 28.7212 3.98381
26.139 26.1333 2
26.8549 23.862 0.0148801
27.3665 31.8999 3.98135
29.4683 32.518 2
31.1118 33.1901 0.164163
30.8949 29.8729 0.0870152
27.9393 29.3148 2
28.5355 26.7518 0.000622666
25.9848 36.8493 3.97311
28.1388 37.3774 2
29.8102 37.4833 0.158347
28.2857 44.6013 0.0326842
27.9949 40.4811 0.0719508
26.3687 43.0296 2
25.2525 39.4361 2
24.1496 41.7339 3.98113
22.9974 38.5155 3.97763
24.9994 44.9137 0.0200715
22.9223 43.7199 2
20.6901 42.7457 3.97527
21.7336 45.6838 0.0221867
19.8001 44.7897 2
17.6758 44.2384 3.97537
19.008 46.5505 0.0237634
17.2594 46.0541 2
15.3873 45.9634 3.97545
16.8926 47.5533 0.0239476
15.4216 47.533 2
13.6977 47.9003 3.9757
15.6485 48.8768 0.0245068
14.1672 49.4332 2
12.3865 50.1725 3.9725
14.8528 50.8665 0.0264568
13.1529 51.7872 2
11.2799 52.7873 3.96516
10.3633 55.6965 3.96282
12.2856 54.4712 2
14.0832 53.3402 0.0324583
9.70487 58.8453 3.97197
11.5596 57.441 2
13.382 56.1097 0.0387689
9.30605 62.2254 4
11.1372 60.6164 2
12.8623 59.1053 0.0361032
10.9835 64.0165 2
12.6829 62.2963 0.0255361
12.7746 65.6939 0
15.3748 20.288 3.96413
16.5788 18.7475 2
14.8164 17.3604 3.96127
17.7564 17.2377 0.0385549
16.1299 15.8311 2
14.4905 14.3264 3.96821
17.5304 14.4308 0.0319312
16.0292 12.8452 2
14.448 11.1186 3.97835
17.6456 11.4812 0.0272139
16.2009 9.67221 2
14.6715 7.74927 4
18.0543 8.34118 0.0160638
16.6661 6.31988 2
18.75 5.0241 0
26.6211 34.3833 3.97326
28.6455 34.8713 2
30.2686 35.2217 0.15895
18.2755 22.4857 3.97534
15.9068 23.0546 3.97204
17.0041 21.5113 2
21.0658 19.5178 0.0333768
18.2547 20.0752 0.0383222
20.0972 21.7407 2
20.2367 24.5877 3.97191
22.687 21.8975 0.0196275
25.1386 23.2882 0.0257213
23.4517 24.7914 2
22.8452 28.0684 3.9712
24.9321 31.4135 3.98222
25.4896 28.706 2
26.1468 26.1259 0.0205439
27.3368 31.8609 2
29.5076 32.5414 0.110961
27.9261 29.3409 -0.0127395
23.7312 36.3123 3.97779
25.9618 36.844 2
28.1622 37.377 0.112709
26.3905 43.0058 0.017319
25.2806 39.432 0.0269949
24.1278 41.7324 2
22.9842 38.5147 2
21.8189 40.5693 3.97467
21.1527 37.7972 3.97698
22.9236 43.7192 0.0249536
20.6911 42.7456 2
18.1584 41.9971 3.97568
19.799 44.7894 0.0241793
17.6763 44.2387 2
15.4368 44.0886 3.97529
17.259 46.0538 0.0241511
15.3875 45.9634 2
13.3974 46.1959 3.97551
15.4205 47.5336 0.0242584
13.6991 47.8996 2
11.776 48.475 3.9744
14.1656 49.4341 0.0248718
12.3882 50.1714 2
10.4112 51.0354 3.9668
13.1518 51.788 0.0296916
11.2808 52.7863 2
9.27339 53.8778 3.96321
8.3886 56.9802 3.97339
10.3664 55.6944 2
12.2855 54.4718 0.03665
7.74927 60.3285 4
9.70358 58.8409 2
11.5555 57.4429 0.0377949
9.306 62.2255 2
11.1386 60.6212 0.0307186
10.9835 64.0165 0
14.2145 21.8502 3.96803
15.3737 20.2866 2
13.5525 18.9585 3.96151
16.5733 18.748 0.0386596
14.8174 17.3589 2
13.0383 15.9111 3.96751
16.1272 15.833 0.0377611
14.4938 14.3247 2
12.7859 12.6935 3.97565
16.0292 12.8482 0.0317946
14.4449 11.1257 2
12.7746 9.30605 4
16.2053 9.66588 0.0189538
14.6715 7.74924 2
16.6661 6.31991 0
24.2945 33.8923 3.98094
26.6004 34.3843 2
28.6636 34.8635 0.106902
18.1532 24.2203 3.97326
18.2843 22.4861 2
14.7361 24.5812 3.97417
15.9076 23.0539 2
17.0014 21.512 0.0318063
19.7906 27.4217 3.9737
20.0983 21.7432 0.0279066
20.2305 24.585 2
22.2312 30.8685 3.9743
23.4586 24.7908 0.028222
22.846 28.0706 2
24.8929 31.4176 2
25.4834 28.7212 0.0161917
27.3665 31.8999 0.0186509
21.2613 35.966 3.97673
23.7271 36.3077 2
25.9848 36.8493 0.0268866
24.1496 41.7339 0.0188672
22.9974 38.5155 0.0223713
21.8237 40.5729 2
21.1547 37.7971 2
18.9278 38.9757 3.97706
20.6901 42.7457 0.0247346
18.1583 41.9971 2
15.422 41.8473 3.97597
17.6758 44.2384 0.0246293
15.4363 44.0886 2
13.1592 44.3108 3.97545
15.3873 45.9634 0.0245469
13.3984 46.1955 2
11.2912 46.6654 3.97579
13.6977 47.9003 0.0243024
11.7783 48.4739 2
9.68219 49.1991 3.96858
12.3865 50.1725 0.027498
10.4126 51.0343 2
8.30193 51.9935 3.96363
11.2799 52.7873 0.034838
9.27412 53.8759 2
7.19769 55.0324 3.97431
6.31991 58.3339 4
8.38733 56.9759 2
10.3633 55.6965 0.0371813
7.74924 60.3285 2
9.70487 58.8453 0.0280294
9.30605 62.2254 0
13.5933 25.4708 3.97632
13.1154 23.3743 3.97147
14.2138 21.8492 2
12.3774 20.608 3.96373
15.3748 20.288 0.0358705
13.5521 18.9572 2
11.6731 17.5831 3.9636
14.8164 17.3604 0.0387318
13.0424 15.9096 2
11.2242 14.3801 3.97085
14.4905 14.3264 0.0317931
12.7841 12.7002 2
10.9835 10.9835 4
14.448 11.1186 0.0216474
12.7745 9.306 2
14.6715 7.74927 0
21.6135 33.5201 3.97624
24.2985 33.8726 2
26.6211 34.3833 0.0267365
16.4778 26.5667 3.97441
18.1564 24.2197 2
18.2755 22.4857 0.0246632
14.7352 24.5808 2
15.9068 23.0546 0.0279577
19.1931 30.3517 3.97453
19.7908 27.4231 2
20.2367 24.5877 0.0280856
22.2521 30.8689 2
22.8452 28.0684 0.0287975
24.9321 31.4135 0.017782
18.5195 36.0064 3.97788
21.2637 35.9672 2
23.7312 36.3123 0.0222116
21.8189 40.5693 0.0253262
21.1527 37.7972 0.0230186
18.9272 38.9743 2
14.9131 39.1538 3.97696
18.1584 41.9971 0.0243153
15.4214 41.8469 2
12.8532 42.2232 3.97599
15.4368 44.0886 0.0247128
13.1596 44.3106 2
10.8781 44.7435 3.97603
13.3974 46.1959 0.0244937
11.294 46.6642 2
9.06849 47.2833 3.97024
11.776 48.475 0.0255996
9.684 49.198 2
7.46329 50.0288 3.96388
10.4112 51.0354 0.0331958
8.30096 51.9919 2
6.13824 53.0083 3.97441
9.27339 53.8778 0.0367881
7.19687 55.0286 2
5.0241 56.25 4
6.31988 58.3339 2
8.3886 56.9802 0.0266065
7.74927 60.3285 0
13.8831 26.9283 3.97549
12.2222 24.8703 3.97437
13.5926 25.4705 2
11.3047 22.2897 3.9659
13.1159 23.3741 2
14.2145 21.8502 0.0319686
12.3784 20.6074 2
10.4212 19.3351 3.96327
13.5525 18.9585 0.0384941
11.6785 17.5828 2
9.76544 16.1627 3.97102
13.0383 15.9111 0.032486
11.2234 14.3856 2
9.30607 12.7746 4
12.7859 12.6935 0.0243458
10.9835 10.9835 2
12.7746 9.30605 0
18.6825 33.2015 3.97587
21.6101 33.5238 2
24.2945 33.8923 0.0190615
16.105 29.7736 3.97517
16.4768 26.5665 2
18.1532 24.2203 0.0267368
14.7361 24.5812 0.0258258
19.1915 30.3515 2
19.7906 27.4217 0.0262992
22.2312 30.8685 0.0256986
15.5502 36.0417 3.97749
18.5192 36.0071 2
21.2613 35.966 0.0232728
13.0835 37.8284 3.97706
18.9278 38.9757 0.022944
14.9129 39.1538 2
12.3492 40.1118 3.97652
15.422 41.8473 0.0240319
12.853 42.2227 2
10.4756 42.7362 3.97573
13.1592 44.3108 0.024545
10.8803 44.7424 2
8.53877 45.2928 3.972
11.2912 46.6654 0.0242077
9.07033 47.2823 2
6.74716 47.9958 3.96423
9.68219 49.1991 0.031419
7.46129 50.0276 2
5.21472 50.9118 3.97401
8.30193 51.9935 0.0363692
6.13789 53.0054 2
3.86727 54.0858 4
7.19769 55.0324 0.0256889
5.02404 56.25 2
6.31991 58.3339 0
13.3621 29.1269 3.9748
11.6705 26.5645 3.97528
13.8825 26.9283 2
10.3551 24.0145 3.96841
12.2252 24.8708 2
13.5933 25.4708 0.0236804
9.28765 21.1519 3.96381
11.3045 22.2894 2
13.1154 23.3743 0.0285318
12.3774 20.608 0.0362691
10.4337 19.3371 2
8.42122 18.0317 3.97294
11.6731 17.5831 0.0364002
9.76471 16.1671 2
7.74928 14.6715 4
11.2242 14.3801 0.0291534
9.30602 12.7745 2
10.9835 10.9835 0
15.0872 32.9308 3.97624
18.6814 33.2009 2
21.6135 33.5201 0.0237647
16.105 29.7734 2
16.4778 26.5667 0.025592
19.1931 30.3517 0.0254696
13.3887 36.2235 3.97674
15.5497 36.0418 2
18.5195 36.0064 0.022124
13.083 37.8284 2
11.6686 38.3039 3.9767
14.9131 39.1538 0.0230416
12.3494 40.1117 2
10.0492 40.7309 3.97621
12.8532 42.2232 0.0240108
10.4786 42.7357 2
8.07324 43.2501 3.9735
10.8781 44.7435 0.0239715
8.54097 45.292 2
6.14418 45.9025 3.96482
9.06849 47.2833 0.0297627
6.74453 47.9949 2
4.4257 48.7521 3.97375
7.46329 50.0288 0.0361182
5.21479 50.9097 2
2.85457 51.8506 4
6.13824 53.0083 0.0255851
3.86727 54.0858 2
5.0241 56.25 0
12.4897 31.3187 3.97581
11.0804 28.4812 3.97565
13.3622 29.1267 2
9.57081 25.8388 3.96958
11.673 26.565 2
13.8831 26.9283 0.0245132
8.26751 23.0326 3.96426
10.3574 24.0149 2
12.2222 24.8703 0.025634
7.20349 19.9795 3.97424
9.294 21.1535 2
11.3047 22.2897 0.0341034
10.4212 19.3351 0.0367251
8.42019 18.0359 2
6.31992 16.6661 4
9.76544 16.1627 0.0289815
7.74926 14.6714 2
9.30607 12.7746 0
12.5249 34.331 3.97654
15.0867 32.9313 2
18.6825 33.2015 0.0241261
16.105 29.7736 0.0248254
11.2004 36.6221 3.97653
13.3882 36.2235 2
15.5502 36.0417 0.0225057
13.0835 37.8284 0.0229436
11.6691 38.3035 2
9.62594 38.8157 3.97648
12.3492 40.1118 0.0234751
10.0519 40.7305 2
7.67466 41.1995 3.97391
10.4756 42.7362 0.0242684
8.0745 43.2494 2
5.65222 43.7662 3.96521
8.53877 45.2928 0.0280033
6.14168 45.9019 2
3.77092 46.5371 3.97378
6.74716 47.9958 0.035765
4.42622 48.7508 2
1.99014 49.554 4
5.21472 50.9118 0.0259939
2.85451 51.8506 2
3.86727 54.0858 0
11.2869 32.9631 3.97641
10.3835 30.4318 3.97564
12.4895 31.3192 2
8.87289 27.7656 3.97048
11.0828 28.4818 2
13.3621 29.1269 0.0251995
7.3846 24.9887 3.96442
9.57323 25.8394 2
11.6705 26.5645 0.0247246
6.12038 22.0015 3.97481
8.26945 23.0339 2
10.3551 24.0145 0.0315871
5.02411 18.75 4
7.20293 19.9831 2
9.28765 21.1519 0.0361935
8.42122 18.0317 0.0270569
6.3199 16.6661 2
7.74928 14.6715 0
10.7806 35.0214 3.97639
12.524 34.331 2
15.0872 32.9308 0.0237638
9.28037 36.9896 3.97658
11.201 36.6221 2
13.3887 36.2235 0.0232593
11.6686 38.3039 0.0232993
9.6289 38.8153 2
7.3491 39.1774 3.97381
10.0492 40.7309 0.0237893
7.6771 41.199 2
5.26669 41.6126 3.96555
8.07324 43.2501 0.0265027
5.65232 43.7658 2
3.24844 44.2815 3.97441
6.14418 45.9025 0.0351764
3.77167 46.5365 2
1.27781 47.2057 4
4.4257 48.7521 0.0262537
1.99012 49.554 2
2.85457 51.8506 0
10.4104 33.9101 3.9761
9.65336 32.1892 3.9762
11.2879 32.9635 2
8.20585 29.7212 3.97176
10.3858 30.4326 2
12.4897 31.3187 0.0241862
6.61778 27.0124 3.96477
8.87561 27.7663 2
11.0804 28.4812 0.0243503
5.17536 24.0938 3.97455
7.38327 24.9896 2
9.57081 25.8388 0.0304201
3.86728 20.9142 4
6.12016 22.0041 2
8.26751 23.0326 0.0357427
5.02406 18.75 2
7.20349 19.9795 0.0257629
6.31992 16.6661 0
9.09202 35.2942 3.9767
10.7817 35.0215 2
12.5249 34.331 0.0234573
7.12649 37.2073 3.97333
9.28349 36.9894 2
11.2004 36.6221 0.0234679
9.62594 38.8157 0.0235231
7.35186 39.1771 2
4.99372 39.4667 3.96641
7.67466 41.1995 0.0260947
5.26744 41.6122 2
2.85865 42.0017 3.97504
5.65222 43.7662 0.0347876
3.24886 44.2813 2
0.720592 44.8159 4
3.77092 46.5371 0.0262229
1.27778 47.2057 2
1.99014 49.554 0
9.13037 33.721 3.97674
10.4123 33.9103 2
7.63181 31.6275 3.97234
9.65661 32.1898 2
11.2869 32.9631 0.0235947
5.95563 29.0722 3.96505
8.20703 29.7217 2
10.3835 30.4318 0.0243552
4.36249 26.2467 3.97421
6.61492 27.0129 2
8.87289 27.7656 0.0295221
2.85458 23.1494 4
5.1756 24.0955 2
7.3846 24.9887 0.0355785
3.86728 20.9142 2
6.12038 22.0015 0.0251911
5.02411 18.75 0
7.07549 35.3128 3.97286
9.09571 35.2942 2
10.7806 35.0214 0.0236102
4.84377 37.3399 3.9669
7.12962 37.2072 2
9.28037 36.9896 0.023419
7.3491 39.1774 0.0261914
4.99446 39.4665 2
2.60644 39.7134 3.97569
5.26669 41.6126 0.0344498
2.85928 42.0017 2
0.320823 42.3947 4
3.24844 44.2815 0.0255918
0.720551 44.8159 2
1.27781 47.2057 0
7.23874 33.473 3.97269
9.13403 33.7214 2
10.4104 33.9101 0.0238989
5.42272 31.1355 3.96552
7.63422 31.6279 2
9.65336 32.1892 0.0237966
3.68375 28.4433 3.97424
5.95319 29.0725 2
8.20585 29.7212 0.0282444
1.99015 25.446 4
4.36303 26.2476 2
6.61778 27.0124 0.0352277
2.85453 23.1494 2
5.17536 24.0938 0.0254515
3.86728 20.9142 0
4.85795 35.2525 3.9668
7.07772 35.3128 2
9.09202 35.2942 0.0232997
2.49784 37.4282 3.97664
4.84396 37.34 2
7.12649 37.2073 0.0266695
4.99372 39.4667 0.0335856
2.60719 39.7138 2
0.080333 39.9526 4
2.85865 42.0017 0.0249598
0.320817 42.3947 2
0.720592 44.8159 0
5.05158 33.1918 3.9663
7.24128 33.4732 2
9.13037 33.721 0.0232631
3.14781 30.6664 3.97495
5.42316 31.1359 2
7.63181 31.6275 0.0276594
1.27793 27.7943 4
3.68456 28.4438 2
5.95563 29.0722 0.0349504
1.99013 25.446 2
4.36249 26.2467 0.0257874
2.85458 23.1494 0
2.54989 35.159 3.97642
4.85879 35.2528 2
7.07549 35.3128 0.0271355
0 37.5 4
2.49807 37.4286 2
4.84377 37.3399 0.0330966
2.60644 39.7134 0.0243139
0.0802903 39.9526 2
0.320823 42.3947 0
2.76763 32.9059 3.97624
5.05192 33.1921 2
7.23874 33.473 0.0273071
0.721173 30.1842 4
3.14843 30.6667 2
5.42272 31.1355 0.0344755
1.27779 27.7943 2
3.68375 28.4433 0.0257626
1.99015 25.446 0
0.0806499 35.0474 4
2.55072 35.1594 2
4.85795 35.2525 0.0331971
0 37.5 2
2.49784 37.4282 0.023362
0.080333 39.9526 0
0.32156 32.6054 4
2.76794 32.9065 2
5.05158 33.1918 0.0336979
0.72056 30.1841 2
3.14781 30.6664 0.025046
1.27793 27.7943 0
0.0802889 35.0474 2
2.54989 35.159 0.0235845
0 37.5 0
0.320817 32.6053 2
2.76763 32.9059 0.0237622
0.721173 30.1842 0
0.0806499 35.0474 0
0.32156 32.6054 0
CELLS 1910 17190
8 18 6 25 56 2 0 5 16
8 57 23 6 18 17 4 0 2
8 78 36 9 29 31 11 1 7
8 31 11 1 7 79 37 10 30
8 110 57 18 50 48 17 2 14
8 50 18 56 111 14 2 16 49
8 116 62 22 55 52 20 3 15
8 56 25 67 118 16 5 24 53
8 119 63 23 57 54 21 4 17
8 55 22 63 119 15 3 21 54
8 58 26 68 121 18 6 25 56
8 122 65 26 58 57 23 6 18
8 73 31 7 27 142 79 30 71
8 143 78 29 72 73 31 7 27
8 83 147 76 34 32 74 28 8
8 84 148 78 36 33 75 29 9
8 76 34 8 28 148 84 33 75
8 37 79 150 86 10 30 77 35
8 151 87 36 78 80 38 11 31
8 80 38 11 31 152 88 37 79
8 175 100 42 94 96 44 12 40
8 44 96 176 101 12 40 95 43
8 101 176 98 46 43 95 41 13
8 46 98 178 103 13 41 97 45
8 178 103 45 97 147 83 32 74
8 189 116 55 109 106 52 15 47
8 111 56 118 191 49 16 53 107
8 192 119 57 110 108 54 17 48
8 109 55 119 192 47 15 54 108
8 194 122 58 112 110 57 18 50
8 112 58 121 195 50 18 56 111
8 115 61 19 51 197 124 59 113
8 115 61 125 198 51 19 60 114
8 198 125 62 116 114 60 20 52
8 200 127 64 120 116 62 22 55
8 118 67 132 202 53 24 66 117
8 121 68 133 203 56 25 67 118
8 120 64 128 204 55 22 63 119
8 204 128 65 122 119 63 23 57
8 206 134 68 121 123 69 26 58
8 123 69 26 58 207 131 65 122
8 226 147 74 138 140 76 28 70
8 229 148 75 139 143 78 29 72
8 140 76 28 70 229 148 75 139
8 142 79 30 71 231 150 77 141
8 144 80 31 73 232 152 79 142
8 233 151 78 143 144 80 31 73
8 150 86 35 77 235 154 81 145
8 235 154 81 145 146 82 39 91
8 146 82 39 91 236 155 90 165
8 238 157 83 147 149 85 34 76
8 239 158 84 148 151 87 36 78
8 149 85 34 76 239 158 84 148
8 152 88 37 79 241 160 86 150
8 242 161 87 151 153 89 38 80
8 153 89 38 80 243 162 88 152
8 171 98 41 92 265 178 97 169
8 265 178 97 169 226 147 74 138
8 172 96 40 93 266 176 95 170
8 266 176 95 170 171 98 41 92
8 269 175 94 173 172 96 40 93
8 271 180 99 174 175 100 42 94
8 197 124 59 113 271 180 99 174
8 272 181 100 175 177 102 44 96
8 273 182 101 176 179 104 46 98
8 177 102 44 96 273 182 101 176
8 179 104 46 98 275 184 103 178
8 275 184 103 178 238 157 83 147
8 188 115 51 105 283 197 113 186
8 188 115 198 284 105 51 114 187
8 284 198 116 189 187 114 52 106
8 286 200 120 193 189 116 55 109
8 191 118 202 288 107 53 117 190
8 195 121 203 289 111 56 118 191
8 193 120 204 290 109 55 119 192
8 290 204 122 194 192 119 57 110
8 196 123 58 112 292 207 122 194
8 293 206 121 195 196 123 58 112
8 199 126 61 115 297 211 124 197
8 298 212 127 200 198 125 62 116
8 199 126 212 298 115 61 125 198
8 205 129 64 120 300 214 127 200
8 301 217 130 201 202 132 66 117
8 209 136 168 264 301 217 130 201
8 302 219 132 202 203 133 67 118
8 303 220 133 203 206 134 68 121
8 205 129 215 304 120 64 128 204
8 304 215 131 207 204 128 65 122
8 306 221 134 206 208 135 69 123
8 208 135 69 123 307 218 131 207
8 210 137 167 263 309 223 136 209
8 328 238 147 226 230 149 76 140
8 228 146 91 166 329 236 165 260
8 231 150 77 141 330 235 145 227
8 330 235 145 227 228 146 91 166
8 332 239 148 229 233 151 78 143
8 230 149 76 140 332 239 148 229
8 232 152 79 142 334 241 150 231
8 234 153 80 144 335 243 152 232
8 336 242 151 233 234 153 80 144
8 236 155 90 165 338 245 164 259
8 241 160 86 150 339 246 154 235
8 339 246 154 235 237 156 82 146
8 237 156 82 146 340 247 155 236
8 342 249 157 238 240 159 85 149
8 343 250 158 239 242 161 87 151
8 240 159 85 149 343 250 158 239
8 243 162 88 152 345 252 160 241
8 244 163 253 346 153 89 161 242
8 244 163 89 153 347 254 162 243
8 311 224 261 371 210 137 167 263
8 263 167 262 372 209 136 168 264
8 267 179 98 171 375 275 178 265
8 375 275 178 265 328 238 147 226
8 376 273 176 266 267 179 98 171
8 268 177 96 172 376 273 176 266
8 379 272 175 269 268 177 96 172
8 380 271 174 270 269 175 94 173
8 283 197 113 186 380 271 174 270
8 381 277 180 271 272 181 100 175
8 297 211 124 197 381 277 180 271
8 382 278 181 272 274 183 102 177
8 274 183 102 177 383 279 182 273
8 383 279 182 273 276 185 104 179
8 385 281 184 275 342 249 157 238
8 276 185 104 179 385 281 184 275
8 285 199 115 188 393 297 197 283
8 394 298 200 286 284 198 116 189
8 285 199 298 394 188 115 198 284
8 291 205 120 193 396 300 200 286
8 397 301 201 287 288 202 117 190
8 295 209 264 374 397 301 201 287
8 398 302 202 288 289 203 118 191
8 399 303 203 289 293 206 121 195
8 291 205 304 400 193 120 204 290
8 400 304 207 292 290 204 122 194
8 294 208 123 196 402 307 207 292
8 403 306 206 293 294 208 123 196
8 296 210 263 373 405 309 209 295
8 408 312 213 299 297 211 126 199
8 299 213 313 409 199 126 212 298
8 409 313 214 300 298 212 127 200
8 305 216 129 205 411 315 214 300
8 412 318 217 301 302 219 132 202
8 309 223 136 209 412 318 217 301
8 413 320 219 302 303 220 133 203
8 306 221 321 414 206 134 220 303
8 307 218 131 207 415 316 215 304
8 305 216 316 415 205 129 215 304
8 417 322 221 306 308 222 135 208
8 308 222 135 208 418 319 218 307
8 310 225 137 210 420 325 223 309
8 423 326 224 311 310 225 137 210
8 329 236 165 260 441 338 259 368
8 442 342 238 328 333 240 149 230
8 331 237 146 228 443 340 236 329
8 334 241 150 231 444 339 235 330
8 444 339 235 330 331 237 146 228
8 446 343 239 332 336 242 151 233
8 333 240 149 230 446 343 239 332
8 335 243 152 232 448 345 241 334
8 337 244 153 234 449 347 243 335
8 337 244 346 450 234 153 242 336
8 338 245 164 259 452 349 258 367
8 340 247 155 236 453 350 245 338
8 345 252 160 241 454 351 246 339
8 454 351 246 339 341 248 156 237
8 341 248 156 237 455 352 247 340
8 240 159 251 344 342 249 354 457
8 242 161 253 346 343 250 355 458
8 343 250 355 458 240 159 251 344
8 347 254 162 243 460 357 252 345
8 348 255 358 461 244 163 253 346
8 348 255 163 244 462 359 254 347
8 473 360 257 365 363 256 364 482
8 452 349 258 367 365 257 366 485
8 422 324 369 488 311 224 261 371
8 371 261 370 490 263 167 262 372
8 407 311 371 491 296 210 263 373
8 373 263 372 492 295 209 264 374
8 493 385 275 375 442 342 238 328
8 377 276 179 267 493 385 275 375
8 378 274 177 268 494 383 273 376
8 494 383 273 376 377 276 179 267
8 497 382 272 379 378 274 177 268
8 498 381 271 380 379 272 175 269
8 393 297 197 283 498 381 271 380
8 499 387 277 381 382 278 181 272
8 408 312 211 297 499 387 277 381
8 500 388 278 382 384 280 183 274
8 501 389 279 383 386 282 185 276
8 384 280 183 274 501 389 279 383
8 386 282 185 276 503 391 281 385
8 503 391 281 385 457 354 249 342
8 511 408 299 395 393 297 199 285
8 395 299 409 512 285 199 298 394
8 512 409 300 396 394 298 200 286
8 401 305 205 291 514 411 300 396
8 515 412 301 397 398 302 202 288
8 405 309 209 295 515 412 301 397
8 516 413 302 398 399 303 203 289
8 403 306 414 517 293 206 303 399
8 402 307 207 292 518 415 304 400
8 401 305 415 518 291 205 304 400
8 404 308 208 294 520 418 307 402
8 521 417 306 403 404 308 208 294
8 406 310 210 296 523 420 309 405
8 526 423 311 407 406 310 210 296
8 410 314 213 299 527 424 312 408
8 528 425 315 411 409 313 214 300
8 410 314 425 528 299 213 313 409
8 416 317 216 305 530 427 315 411
8 531 430 318 412 413 320 219 302
8 420 325 223 309 531 430 318 412
8 532 432 320 413 414 321 220 303
8 417 322 433 533 306 221 321 414
8 418 319 218 307 534 428 316 415
8 416 317 428 534 305 216 316 415
8 419 323 434 536 308 222 322 417
8 419 323 222 308 537 431 319 418
8 421 327 225 310 539 438 325 420
8 421 327 439 541 310 225 326 423
8 543 437 324 422 423 326 224 311
8 441 338 259 368 559 452 367 486
8 443 340 236 329 560 453 338 441
8 333 240 344 447 442 342 457 561
8 445 341 237 331 562 455 340 443
8 448 345 241 334 563 454 339 444
8 563 454 339 444 445 341 237 331
8 336 242 346 450 446 343 458 565
8 446 343 458 565 333 240 344 447
8 449 347 243 335 567 460 345 448
8 451 348 244 337 568 462 347 449
8 451 348 461 569 337 244 346 450
8 570 463 349 452 473 360 257 365
8 453 350 245 338 570 463 349 452
8 455 352 247 340 571 464 350 453
8 460 357 252 345 572 465 351 454
8 572 465 351 454 456 353 248 341
8 456 353 248 341 573 466 352 455
8 344 251 356 459 457 354 468 575
8 458 355 469 576 344 251 356 459
8 346 253 358 461 458 355 469 576
8 462 359 254 347 578 471 357 460
8 348 255 359 462 461 358 472 579
8 591 474 360 473 475 361 256 363
8 475 361 256 363 594 477 362 479
8 363 256 364 482 479 362 480 603
8 590 473 365 484 481 363 482 605
8 482 364 257 365 606 483 366 485
8 559 452 367 486 484 365 485 607
8 542 436 487 609 422 324 369 488
8 525 422 488 611 407 311 371 491
8 488 369 489 612 371 261 370 490
8 491 371 490 613 373 263 372 492
8 495 386 276 377 614 503 385 493
8 614 503 385 493 561 457 342 442
8 615 501 383 494 495 386 276 377
8 496 384 274 378 615 501 383 494
8 618 500 382 497 496 384 274 378
8 619 499 381 498 497 382 272 379
8 511 408 297 393 619 499 381 498
8 620 505 387 499 500 388 278 382
8 527 424 312 408 620 505 387 499
8 502 390 506 621 384 280 388 500
8 622 507 389 501 504 392 282 386
8 502 390 280 384 622 507 389 501
8 504 392 282 386 624 509 391 503
8 624 509 391 503 575 468 354 457
8 513 410 299 395 630 527 408 511
8 631 528 411 514 512 409 300 396
8 513 410 528 631 395 299 409 512
8 519 416 305 401 633 530 411 514
8 634 531 412 515 516 413 302 398
8 523 420 309 405 634 531 412 515
8 635 532 413 516 517 414 303 399
8 521 417 533 636 403 306 414 517
8 520 418 307 402 637 534 415 518
8 519 416 534 637 401 305 415 518
8 522 419 308 404 639 537 418 520
8 522 419 536 640 404 308 417 521
8 524 421 310 406 642 539 420 523
8 524 421 541 644 406 310 423 526
8 646 543 422 525 526 423 311 407
8 529 426 314 410 647 544 424 527
8 528 425 545 648 411 315 427 530
8 529 426 545 648 410 314 425 528
8 535 429 317 416 649 546 427 530
8 650 548 430 531 532 432 320 413
8 539 438 325 420 650 548 430 531
8 533 433 550 651 414 321 432 532
8 536 434 551 652 417 322 433 533
8 537 431 319 418 653 547 428 534
8 535 429 547 653 416 317 428 534
8 538 435 552 654 419 323 434 536
8 538 435 323 419 655 549 431 537
8 540 440 327 421 657 556 438 539
8 540 440 557 659 421 327 439 541
8 541 439 555 660 423 326 437 543
8 661 554 436 542 543 437 324 422
8 676 570 452 559 590 473 365 484
8 560 453 338 441 676 570 452 559
8 562 455 340 443 677 571 453 560
8 447 344 459 566 561 457 575 678
8 564 456 341 445 679 573 455 562
8 567 460 345 448 680 572 454 563
8 680 572 454 563 564 456 341 445
8 565 458 576 682 447 344 459 566
8 450 346 461 569 565 458 576 682
8 568 462 347 449 684 578 460 567
8 451 348 462 568 569 461 579 685
8 686 580 463 570 591 474 360 473
8 571 464 350 453 686 580 463 570
8 573 466 352 455 687 581 464 571
8 572 465 582 688 460 357 471 578
8 574 467 582 688 456 353 465 572
8 574 467 353 456 689 583 466 573
8 459 356 470 577 575 468 585 691
8 576 469 586 692 459 356 470 577
8 461 358 472 579 576 469 586 692
8 462 359 471 578 579 472 588 694
8 704 591 473 590 593 475 363 481
8 595 476 592 705 475 361 474 591
8 593 475 363 481 707 594 479 602
8 594 477 362 479 709 598 478 600
8 595 476 361 475 711 597 477 594
8 479 362 480 603 600 478 601 720
8 481 363 482 605 602 479 603 722
8 603 480 364 482 723 604 483 606
8 605 482 365 484 724 606 485 607
8 656 553 608 726 542 436 487 609
8 645 542 609 728 525 422 488 611
8 609 487 610 729 488 369 489 612
8 611 488 612 730 491 371 490 613
8 616 504 386 495 731 624 503 614
8 731 624 503 614 678 575 457 561
8 732 622 501 615 616 504 386 495
8 617 502 384 496 732 622 501 615
8 617 502 621 735 496 384 500 618
8 736 620 499 619 618 500 382 497
8 630 527 408 511 736 620 499 619
8 621 506 626 737 500 388 505 620
8 647 544 424 527 737 626 505 620
8 623 508 627 738 502 390 506 621
8 623 508 390 502 739 628 507 622
8 625 510 628 739 504 392 507 622
8 740 629 509 624 691 585 468 575
8 625 510 392 504 740 629 509 624
8 632 529 410 513 744 647 527 630
8 631 528 648 745 514 411 530 633
8 632 529 648 745 513 410 528 631
8 638 535 416 519 746 649 530 633
8 747 650 531 634 635 532 413 516
8 642 539 420 523 747 650 531 634
8 636 533 651 748 517 414 532 635
8 640 536 652 749 521 417 533 636
8 639 537 418 520 750 653 534 637
8 638 535 653 750 519 416 534 637
8 641 538 419 522 751 655 537 639
8 641 538 654 752 522 419 536 640
8 643 540 421 524 753 657 539 642
8 643 540 659 755 524 421 541 644
8 644 541 660 757 526 423 543 646
8 758 661 542 645 646 543 422 525
8 529 426 544 647 648 545 662 759
8 530 427 545 648 649 546 663 760
8 535 429 546 649 653 547 664 761
8 762 666 548 650 651 550 432 532
8 657 556 438 539 762 666 548 650
8 652 551 668 763 533 433 550 651
8 654 552 669 764 536 434 551 652
8 655 549 431 537 765 665 547 653
8 538 435 549 655 654 552 667 766
8 661 554 671 768 542 436 553 656
8 658 558 440 540 769 674 556 657
8 658 558 675 770 540 440 557 659
8 659 557 673 771 541 439 555 660
8 660 555 672 772 543 437 554 661
8 788 686 570 676 704 591 473 590
8 677 571 453 560 788 686 570 676
8 679 573 455 562 789 687 571 677
8 566 459 577 683 678 575 691 790
8 681 574 456 564 791 689 573 679
8 680 572 688 792 567 460 578 684
8 681 574 688 792 564 456 572 680
8 682 576 692 794 566 459 577 683
8 569 461 579 685 682 576 692 794
8 568 462 578 684 685 579 694 796
8 687 581 464 571 798 696 580 686
8 798 696 580 686 705 592 474 591
8 689 583 466 573 799 697 581 687
8 688 582 698 800 578 471 588 694
8 690 584 698 800 574 467 582 688
8 690 584 467 574 801 699 583 689
8 693 587 701 803 577 470 585 691
8 693 587 470 577 804 702 586 692
8 695 589 702 804 579 472 586 692
8 695 589 472 579 805 703 588 694
8 708 595 705 813 593 475 591 704
8 710 596 706 814 595 476 592 705
8 707 594 479 602 816 709 600 719
8 708 595 475 593 817 711 594 707
8 709 598 478 600 819 715 599 717
8 711 597 477 594 820 714 598 709
8 710 596 476 595 822 713 597 711
8 600 478 601 720 717 599 718 832
8 602 479 603 722 719 600 720 834
8 720 601 480 603 835 721 604 723
8 722 603 482 605 836 723 606 724
8 767 670 725 839 656 553 608 726
8 756 656 726 841 645 542 609 728
8 726 608 727 842 609 487 610 729
8 728 609 729 843 611 488 612 730
8 844 740 624 731 790 691 575 678
8 733 625 504 616 844 740 624 731
8 734 623 502 617 845 739 622 732
8 733 625 739 845 616 504 622 732
8 734 623 738 846 617 502 621 735
8 735 621 737 847 618 500 620 736
8 744 647 527 630 847 737 620 736
8 621 506 627 738 737 626 741 848
8 647 544 626 737 759 662 741 848
8 623 508 628 739 738 627 742 849
8 740 629 585 691 850 743 700 802
8 625 510 629 740 739 628 743 850
8 632 529 647 744 745 648 759 854
8 633 530 648 745 746 649 760 855
8 638 535 649 746 750 653 761 856
8 857 762 650 747 748 651 532 635
8 753 657 539 642 857 762 650 747
8 749 652 763 858 636 533 651 748
8 752 654 764 859 640 536 652 749
8 751 655 537 639 860 765 653 750
8 641 538 655 751 752 654 766 861
8 754 658 540 643 862 769 657 753
8 754 658 770 863 643 540 659 755
8 755 659 771 864 644 541 660 757
8 758 661 768 866 645 542 656 756
8 757 660 772 867 646 543 661 758
8 759 662 773 868 648 545 663 760
8 649 546 663 760 761 664 774 871
8 765 665 547 653 872 775 664 761
8 873 777 666 762 763 668 550 651
8 769 674 556 657 873 777 666 762
8 764 669 779 874 652 551 668 763
8 654 552 667 766 764 669 778 875
8 655 549 665 765 766 667 776 876
8 768 671 782 877 656 553 670 767
8 772 672 783 878 661 554 671 768
8 658 558 674 769 770 675 786 879
8 659 557 675 770 771 673 785 881
8 882 784 672 772 771 673 555 660
8 789 687 571 677 897 798 686 788
8 897 798 686 788 813 705 591 704
8 791 689 573 679 898 799 687 789
8 795 693 803 900 683 577 691 790
8 793 690 574 681 901 801 689 791
8 792 688 800 902 684 578 694 796
8 793 690 800 902 681 574 688 792
8 795 693 577 683 903 804 692 794
8 797 695 804 903 685 579 692 794
8 797 695 579 685 904 805 694 796
8 905 806 697 799 798 696 581 687
8 814 706 806 905 705 592 696 798
8 689 583 697 799 801 699 808 907
8 800 698 809 908 694 588 703 805
8 690 584 699 801 800 698 809 908
8 803 701 810 909 691 585 700 802
8 693 587 702 804 803 701 811 910
8 695 589 703 805 804 702 812 911
8 818 710 814 919 708 595 705 813
8 821 712 815 920 710 596 706 814
8 816 709 600 719 922 819 717 831
8 817 711 594 707 923 820 709 816
8 818 710 595 708 924 822 711 817
8 819 715 599 717 926 827 716 829
8 820 714 598 709 927 826 715 819
8 929 825 713 822 820 714 597 711
8 821 712 596 710 930 824 713 822
8 717 599 718 832 829 716 830 942
8 719 600 720 834 831 717 832 944
8 832 718 601 720 945 833 721 835
8 834 720 603 722 946 835 723 836
8 869 780 838 950 767 670 725 839
8 865 767 839 952 756 656 726 841
8 839 725 840 953 726 608 727 842
8 841 726 842 954 728 609 729 843
8 844 740 691 790 955 850 802 899
8 733 625 740 844 845 739 850 955
8 734 623 739 845 846 738 849 956
8 735 621 738 846 847 737 848 957
8 744 647 737 847 854 759 848 957
8 738 627 742 849 848 741 851 958
8 848 741 851 958 759 662 773 868
8 850 743 700 802 959 852 807 906
8 849 742 628 739 959 852 743 850
8 854 759 868 965 745 648 760 855
8 746 649 760 855 856 761 871 966
8 860 765 653 750 967 872 761 856
8 968 873 762 857 858 763 651 748
8 862 769 657 753 968 873 762 857
8 859 764 874 969 749 652 763 858
8 752 654 766 861 859 764 875 970
8 751 655 765 860 861 766 876 971
8 754 658 769 862 863 770 879 972
8 755 659 770 863 864 771 881 974
8 976 882 772 867 864 771 660 757
8 866 768 877 977 756 656 767 865
8 867 772 878 978 758 661 768 866
8 760 663 773 868 871 774 883 980
8 870 781 837 948 982 890 780 869
8 982 890 780 869 877 782 670 767
8 761 664 774 871 872 775 884 984
8 876 776 665 765 985 885 775 872
8 873 777 668 763 986 887 779 874
8 769 674 777 873 879 786 887 986
8 764 669 778 875 874 779 888 987
8 766 667 776 876 875 778 886 988
8 878 783 892 989 768 671 782 877
8 878 783 672 772 990 893 784 882
8 880 787 675 770 991 896 786 879
8 880 787 895 992 770 675 785 881
8 881 785 894 993 771 673 784 882
8 1006 905 799 898 897 798 687 789
8 919 814 905 1006 813 705 798 897
8 791 689 799 898 901 801 907 1007
8 900 803 909 1009 790 691 802 899
8 795 693 804 903 900 803 910 1010
8 902 800 908 1011 796 694 805 904
8 793 690 801 901 902 800 908 1011
8 797 695 805 904 903 804 911 1012
8 799 697 806 905 907 808 912 1013
8 920 815 912 1013 814 706 806 905
8 802 700 810 909 906 807 913 1014
8 801 699 808 907 908 809 914 1015
8 805 703 809 908 911 812 915 1016
8 803 701 811 910 909 810 916 1017
8 911 812 917 1018 804 702 811 910
8 925 821 920 1030 818 710 814 919
8 928 823 921 1031 821 712 815 920
8 922 819 717 831 1033 926 829 941
8 923 820 709 816 1034 927 819 922
8 1035 929 822 924 923 820 711 817
8 925 821 710 818 1036 930 822 924
8 1038 933 825 929 927 826 714 820
8 926 827 716 829 1039 935 828 939
8 927 826 715 819 1040 934 827 926
8 928 823 712 821 1041 931 824 930
8 1042 932 824 930 929 825 713 822
8 829 716 830 942 939 828 940 1058
8 831 717 832 944 941 829 942 1060
8 942 830 718 832 1061 943 833 945
8 944 832 720 834 1062 945 835 946
8 981 889 947 1064 870 781 837 948
8 948 837 949 1067 869 780 838 950
8 975 869 950 1069 865 767 839 952
8 950 838 951 1070 839 725 840 953
8 952 839 953 1071 841 726 842 954
8 955 850 802 899 1072 959 906 1008
8 956 849 739 845 1072 959 850 955
8 846 738 849 956 957 848 958 1073
8 957 848 958 1073 854 759 868 965
8 849 742 852 959 958 851 961 1076
8 960 853 961 1076 906 807 852 959
8 958 851 961 1076 868 773 883 980
8 960 853 807 906 1077 963 913 1014
8 855 760 868 965 966 871 980 1085
8 856 761 871 966 967 872 984 1086
8 971 876 765 860 1087 985 872 967
8 968 873 763 858 1088 986 874 969
8 862 769 873 968 972 879 986 1088
8 859 764 875 970 969 874 987 1089
8 861 766 876 971 970 875 988 1090
8 973 880 770 863 1091 991 879 972
8 973 880 992 1092 863 770 881 974
8 974 881 993 1093 864 771 882 976
8 979 870 948 1066 1094 982 869 975
8 1094 982 869 975 977 877 767 865
8 978 878 772 867 1095 990 882 976
8 978 878 989 1096 866 768 877 977
8 871 774 883 980 984 884 994 1099
8 983 891 999 1100 870 781 889 981
8 1101 1000 890 982 989 892 782 877
8 983 891 781 870 1101 1000 890 982
8 872 775 884 984 985 885 995 1103
8 876 776 885 985 988 886 996 1104
8 986 887 779 874 1105 998 888 987
8 879 786 887 986 991 896 998 1105
8 875 778 886 988 987 888 997 1106
8 990 893 1002 1107 878 783 892 989
8 1108 1003 893 990 993 894 784 882
8 880 787 896 991 992 895 1005 1109
8 993 894 785 881 1110 1004 895 992
8 898 799 905 1006 1007 907 1013 1120
8 1030 920 1013 1120 919 814 905 1006
8 901 801 907 1007 1011 908 1015 1121
8 899 802 909 1009 1008 906 1014 1122
8 900 803 910 1010 1009 909 1017 1123
8 1012 911 1018 1124 903 804 910 1010
8 904 805 908 1011 1012 911 1016 1125
8 1013 912 1020 1127 907 808 914 1015
8 1031 921 1020 1127 920 815 912 1013
8 1019 918 962 1075 1128 1021 913 1014
8 1128 1021 913 1014 1017 916 810 909
8 1015 914 1022 1129 908 809 915 1016
8 1016 915 1023 1130 911 812 917 1018
8 1018 917 1024 1131 910 811 916 1017
8 1037 928 1031 1148 925 821 920 1030
8 928 823 931 1041 1031 921 1032 1149
8 1033 926 829 941 1151 1039 939 1057
8 1034 927 819 922 1152 1040 926 1033
8 1153 1038 929 1035 1034 927 820 923
8 1154 1042 930 1036 1035 929 822 924
8 1037 928 821 925 1155 1041 930 1036
8 1039 935 828 939 1156 1047 938 1055
8 1157 1043 932 1042 1038 933 825 929
8 1038 933 826 927 1158 1045 934 1040
8 1040 934 827 926 1159 1046 935 1039
8 930 824 932 1042 1041 931 1044 1160
8 1051 936 1048 1165 1175 1052 937 1053
8 1156 1047 938 1055 1053 937 1054 1178
8 939 828 940 1058 1055 938 1056 1181
8 941 829 942 1060 1057 939 1058 1183
8 942 830 943 1061 1058 940 1059 1184
8 1060 942 832 944 1185 1061 945 1062
8 1082 964 1063 1188 981 889 947 1064
8 1097 981 1064 1190 979 870 948 1066
8 1064 947 1065 1191 948 837 949 1067
8 1066 948 1067 1193 975 869 950 1069
8 1067 949 1068 1194 950 838 951 1070
8 1069 950 1070 1195 952 839 953 1071
8 956 849 959 1072 1073 958 1076 1197
8 1074 960 1076 1197 1008 906 959 1072
8 1073 958 1076 1197 965 868 980 1085
8 1074 960 906 1008 1198 1077 1014 1122
8 1133 1026 1079 1199 1019 918 962 1075
8 1077 963 913 1014 1200 1080 962 1075
8 960 853 963 1077 1076 961 1078 1201
8 980 883 961 1076 1099 994 1078 1201
8 1210 1083 964 1082 1100 999 889 981
8 966 871 980 1085 1086 984 1099 1215
8 967 872 984 1086 1087 985 1103 1216
8 971 876 985 1087 1090 988 1104 1217
8 1088 986 874 969 1218 1105 987 1089
8 972 879 986 1088 1091 991 1105 1218
8 970 875 988 1090 1089 987 1106 1219
8 973 880 991 1091 1092 992 1109 1220
8 1093 993 881 974 1221 1110 992 1092
8 1222 1108 990 1095 1093 993 882 976
8 1223 1101 982 1094 1096 989 877 977
8 1098 983 870 979 1223 1101 982 1094
8 1095 990 1107 1224 978 878 989 1096
8 1098 983 1100 1225 979 870 981 1097
8 984 884 994 1099 1103 995 1111 1227
8 1102 1001 1115 1228 983 891 999 1100
8 1101 1000 892 989 1229 1116 1002 1107
8 1102 1001 891 983 1229 1116 1000 1101
8 985 885 995 1103 1104 996 1112 1230
8 988 886 996 1104 1106 997 1113 1231
8 1105 998 888 987 1232 1114 997 1106
8 991 896 998 1105 1109 1005 1114 1232
8 1108 1003 1117 1233 990 893 1002 1107
8 1108 1003 894 993 1233 1117 1004 1110
8 992 895 1005 1109 1110 1004 1118 1234
8 1120 1013 1127 1244 1007 907 1015 1121
8 1148 1031 1127 1244 1030 920 1013 1120
8 1121 1015 1129 1245 1011 908 1016 1125
8 1126 1019 1075 1196 1246 1128 1014 1122
8 1246 1128 1014 1122 1123 1017 909 1009
8 1124 1018 1131 1247 1010 910 1017 1123
8 1125 1016 1130 1248 1012 911 1018 1124
8 1127 1020 1137 1254 1015 914 1022 1129
8 1031 921 1032 1149 1127 1020 1137 1254
8 1134 1027 918 1019 1257 1140 1021 1128
8 1257 1140 1021 1128 1131 1024 916 1017
8 1129 1022 1141 1258 1016 915 1023 1130
8 1130 1023 1142 1259 1018 917 1024 1131
8 1261 1144 1025 1132 1133 1026 1079 1199
8 1255 1138 1025 1132 1135 1028 1144 1261
8 1133 1026 918 1019 1262 1145 1027 1134
8 1136 1029 1139 1256 1263 1146 1028 1135
8 1037 928 1041 1155 1148 1031 1149 1275
8 1041 931 1044 1160 1149 1032 1150 1276
8 1151 1039 939 1057 1278 1156 1055 1180
8 1152 1040 926 1033 1279 1159 1039 1151
8 1153 1038 927 1034 1280 1158 1040 1152
8 1281 1157 1042 1154 1153 1038 929 1035
8 1036 930 1042 1154 1155 1041 1160 1282
8 1283 1164 1046 1159 1156 1047 935 1039
8 1165 1048 1164 1283 1053 937 1047 1156
8 1157 1043 933 1038 1284 1161 1045 1158
8 1157 1043 1161 1284 1042 932 1044 1160
8 1040 934 1046 1159 1158 1045 1163 1285
8 1166 1049 1167 1292 1051 936 1048 1165
8 1166 1049 936 1051 1293 1168 1050 1172
8 1051 936 1052 1175 1172 1050 1173 1306
8 1174 1051 1165 1290 1308 1175 1053 1177
8 1053 937 1054 1178 1175 1052 1176 1309
8 1278 1156 1055 1180 1177 1053 1178 1311
8 1055 938 1056 1181 1178 1054 1179 1312
8 1057 939 1058 1183 1180 1055 1181 1314
8 1058 940 1059 1184 1181 1056 1182 1315
8 1060 942 1061 1185 1183 1058 1184 1316
8 1208 1081 1187 1321 1082 964 1063 1188
8 1209 1082 1188 1322 1097 981 1064 1190
8 1188 1063 1189 1323 1064 947 1065 1191
8 1190 1064 1191 1325 1066 948 1067 1193
8 1191 1065 1192 1326 1067 949 1068 1194
8 1067 1193 1069 950 1194 1327 1195 1070
8 1250 1133 1199 1330 1126 1019 1075 1196
8 1198 1077 1014 1122 1331 1200 1075 1196
8 1074 960 1077 1198 1197 1076 1201 1332
8 1085 980 1076 1197 1215 1099 1201 1332
8 1199 1079 1203 1333 1075 962 1080 1200
8 1132 1025 1119 1243 1199 1079 1203 1333
8 1201 1078 963 1077 1334 1202 1080 1200
8 1099 994 1078 1201 1227 1111 1202 1334
8 1343 1207 1081 1208 1210 1083 964 1082
8 1214 1084 1186 1319 1343 1207 1081 1208
8 1345 1210 1082 1209 1225 1100 981 1097
8 1346 1211 1083 1210 1228 1115 999 1100
8 1086 984 1099 1215 1216 1103 1227 1352
8 1087 985 1103 1216 1217 1104 1230 1353
8 1090 988 1104 1217 1219 1106 1231 1354
8 1218 1105 987 1089 1355 1232 1106 1219
8 1091 991 1105 1218 1220 1109 1232 1355
8 1092 992 1109 1220 1221 1110 1234 1356
8 1222 1108 1233 1357 1095 990 1107 1224
8 1222 1108 993 1093 1357 1233 1110 1221
8 1223 1101 989 1096 1358 1229 1107 1224
8 1226 1102 983 1098 1358 1229 1101 1223
8 1226 1102 1228 1359 1098 983 1100 1225
8 1103 995 1111 1227 1230 1112 1235 1360
8 1107 1002 1117 1233 1229 1116 1240 1362
8 1102 1001 1116 1229 1228 1115 1240 1362
8 1104 996 1112 1230 1231 1113 1236 1363
8 1364 1237 1114 1232 1231 1113 997 1106
8 1109 1005 1114 1232 1234 1118 1238 1365
8 1110 1004 1118 1234 1233 1117 1241 1366
8 1242 1374 1255 1138 1119 1243 1132 1025
8 1244 1127 1254 1376 1121 1015 1129 1245
8 1148 1031 1149 1275 1244 1127 1254 1376
8 1245 1129 1258 1377 1125 1016 1130 1248
8 1251 1134 1019 1126 1378 1257 1128 1246
8 1378 1257 1128 1246 1247 1131 1017 1123
8 1248 1130 1259 1379 1124 1018 1131 1247
8 1261 1381 1250 1133 1132 1249 1330 1199
8 1255 1380 1252 1135 1132 1249 1381 1261
8 1250 1133 1019 1126 1382 1262 1134 1251
8 1253 1136 1256 1385 1384 1263 1135 1252
8 1254 1137 1265 1387 1129 1022 1141 1258
8 1149 1032 1150 1276 1254 1137 1265 1387
8 1028 1135 1255 1138 1139 1256 1388 1266
8 1136 1029 1147 1264 1256 1139 1267 1389
8 1390 1268 1140 1257 1259 1142 1024 1131
8 1260 1143 1027 1134 1390 1268 1140 1257
8 1258 1141 1269 1391 1130 1023 1142 1259
8 1262 1145 1027 1134 1393 1271 1143 1260
8 1261 1144 1026 1133 1394 1272 1145 1262
8 1135 1028 1144 1261 1263 1146 1272 1394
8 1136 1029 1146 1263 1264 1147 1273 1395
8 1155 1041 1160 1282 1275 1149 1276 1405
8 1276 1150 1044 1160 1406 1277 1162 1286
8 1408 1283 1159 1279 1278 1156 1039 1151
8 1290 1165 1283 1408 1177 1053 1156 1278
8 1152 1040 1159 1279 1280 1158 1285 1409
8 1281 1157 1038 1153 1410 1284 1158 1280
8 1281 1157 1284 1410 1154 1042 1160 1282
8 1159 1046 1164 1283 1285 1163 1289 1412
8 1292 1167 1289 1412 1165 1048 1164 1283
8 1158 1045 1163 1285 1284 1161 1288 1413
8 1284 1161 1288 1413 1160 1044 1162 1286
8 1291 1166 1292 1418 1174 1051 1165 1290
8 1291 1166 1051 1174 1419 1293 1172 1305
8 1294 1169 1296 1421 1166 1049 1167 1292
8 1293 1168 1050 1172 1422 1295 1171 1303
8 1294 1169 1049 1166 1423 1297 1168 1293
8 1422 1295 1171 1303 1301 1170 1302 1435
8 1172 1050 1173 1306 1303 1171 1304 1438
8 1174 1051 1175 1308 1305 1172 1306 1440
8 1175 1052 1176 1309 1306 1173 1307 1441
8 1177 1053 1178 1311 1308 1175 1309 1443
8 1178 1054 1179 1312 1309 1176 1310 1444
8 1180 1055 1181 1314 1311 1178 1312 1446
8 1056 1181 1312 1179 1182 1315 1447 1313
8 1183 1058 1184 1316 1314 1181 1315 1448
8 1319 1186 1084 1214 1451 1317 1213 1350
8 1319 1186 1318 1453 1208 1081 1187 1321
8 1321 1187 1320 1456 1188 1063 1189 1323
8 1344 1208 1321 1457 1209 1082 1188 1322
8 1322 1188 1323 1458 1190 1064 1191 1325
8 1323 1189 1324 1459 1191 1065 1192 1326
8 1191 1325 1193 1067 1326 1460 1327 1194
8 1242 1374 1243 1119 1328 1462 1335 1204
8 1330 1199 1333 1465 1196 1075 1200 1331
8 1132 1249 1330 1199 1243 1375 1465 1333
8 1332 1201 1077 1198 1466 1334 1200 1331
8 1215 1099 1201 1332 1352 1227 1334 1466
8 1119 1243 1333 1203 1204 1335 1470 1338
8 1333 1203 1338 1470 1200 1080 1202 1334
8 1227 1111 1202 1334 1360 1235 1338 1470
8 1328 1462 1335 1204 1205 1336 1471 1339
8 1337 1206 1340 1472 1464 1329 1205 1336
8 1346 1211 1342 1479 1210 1083 1207 1343
8 1346 1211 1115 1228 1479 1342 1239 1361
8 1348 1212 1084 1214 1479 1342 1207 1343
8 1480 1343 1208 1344 1345 1210 1082 1209
8 1351 1214 1319 1454 1480 1343 1208 1344
8 1481 1346 1210 1345 1359 1228 1100 1225
8 1348 1212 1347 1483 1214 1084 1213 1350
8 1216 1103 1227 1352 1353 1230 1360 1488
8 1217 1104 1230 1353 1354 1231 1363 1489
8 1490 1364 1232 1355 1354 1231 1106 1219
8 1220 1109 1232 1355 1356 1234 1365 1491
8 1221 1110 1234 1356 1357 1233 1366 1492
8 1224 1107 1233 1357 1358 1229 1362 1493
8 1226 1102 1229 1358 1359 1228 1362 1493
8 1230 1112 1235 1360 1363 1236 1367 1496
8 1361 1239 1115 1228 1497 1371 1240 1362
8 1366 1241 1372 1498 1233 1117 1240 1362
8 1364 1237 1113 1231 1499 1368 1236 1363
8 1364 1237 1368 1499 1232 1114 1238 1365
8 1234 1118 1238 1365 1366 1241 1369 1500
8 1507 1373 1242 1374 1388 1266 1138 1255
8 1508 1374 1243 1375 1380 1255 1132 1249
8 1376 1254 1387 1509 1245 1129 1258 1377
8 1275 1149 1276 1405 1376 1254 1387 1509
8 1377 1258 1391 1510 1248 1130 1259 1379
8 1511 1390 1257 1378 1379 1259 1131 1247
8 1383 1260 1134 1251 1511 1390 1257 1378
8 1252 1135 1256 1385 1380 1255 1388 1512
8 1261 1381 1513 1394 1133 1250 1382 1262
8 1135 1252 1384 1263 1261 1381 1513 1394
8 1382 1262 1134 1251 1514 1393 1260 1383
8 1253 1136 1263 1384 1386 1264 1395 1516
8 1253 1136 1264 1386 1385 1256 1389 1517
8 1387 1265 1397 1519 1258 1141 1269 1391
8 1276 1150 1277 1406 1387 1265 1397 1519
8 1256 1139 1267 1389 1388 1266 1398 1520
8 1264 1147 1274 1396 1389 1267 1399 1521
8 1392 1270 1143 1260 1522 1400 1268 1390
8 1390 1268 1142 1259 1522 1400 1269 1391
8 1392 1270 1401 1523 1260 1143 1271 1393
8 1272 1394 1524 1402 1145 1262 1393 1271
8 1395 1273 1146 1263 1524 1402 1272 1394
8 1273 1395 1264 1147 1403 1526 1396 1274
8 1405 1276 1160 1282 1534 1406 1286 1411
8 1414 1287 1407 1535 1286 1162 1277 1406
8 1279 1159 1283 1408 1409 1285 1412 1537
8 1418 1292 1412 1537 1290 1165 1283 1408
8 1280 1158 1285 1409 1410 1284 1413 1538
8 1410 1284 1413 1538 1282 1160 1286 1411
8 1285 1163 1289 1412 1413 1288 1417 1540
8 1421 1296 1417 1540 1292 1167 1289 1412
8 1414 1287 1162 1286 1541 1416 1288 1413
8 1420 1294 1421 1545 1291 1166 1292 1418
8 1419 1293 1172 1305 1546 1422 1303 1437
8 1420 1294 1166 1291 1547 1423 1293 1419
8 1294 1169 1297 1423 1421 1296 1425 1548
8 1423 1297 1168 1293 1549 1424 1295 1422
8 1301 1170 1298 1427 1422 1295 1424 1549
8 1432 1300 1428 1554 1301 1170 1298 1427
8 1431 1299 1428 1554 1560 1430 1300 1432
8 1563 1433 1300 1432 1435 1302 1170 1301
8 1546 1422 1303 1437 1434 1301 1435 1565
8 1303 1171 1304 1438 1435 1302 1436 1566
8 1305 1172 1306 1440 1437 1303 1438 1568
8 1306 1173 1307 1441 1438 1304 1439 1569
8 1308 1175 1309 1443 1440 1306 1441 1571
8 1309 1176 1310 1444 1441 1307 1442 1572
8 1311 1178 1312 1446 1443 1309 1444 1574
8 1179 1312 1444 1310 1313 1447 1575 1445
8 1314 1181 1315 1448 1446 1312 1447 1576
8 1350 1213 1349 1486 1451 1317 1449 1579
8 1451 1317 1450 1581 1319 1186 1318 1453
8 1454 1319 1214 1351 1582 1451 1350 1487
8 1453 1318 1452 1584 1321 1187 1320 1456
8 1454 1319 1453 1585 1344 1208 1321 1457
8 1456 1320 1455 1586 1323 1189 1324 1459
8 1457 1321 1456 1587 1322 1188 1323 1458
8 1458 1323 1459 1588 1325 1191 1326 1460
8 1205 1336 1464 1329 1328 1462 1590 1461
8 1507 1373 1461 1590 1374 1242 1328 1462
8 1508 1374 1462 1591 1375 1243 1335 1467
8 1337 1206 1329 1464 1473 1341 1463 1594
8 1375 1243 1335 1467 1465 1333 1470 1596
8 1465 1333 1470 1596 1331 1200 1334 1466
8 1352 1227 1334 1466 1488 1360 1470 1596
8 1591 1462 1336 1468 1467 1335 1471 1597
8 1469 1337 1472 1598 1595 1464 1336 1468
8 1471 1339 1474 1600 1335 1204 1338 1470
8 1600 1474 1367 1496 1470 1338 1235 1360
8 1336 1205 1340 1472 1471 1339 1475 1601
8 1337 1206 1341 1473 1472 1340 1476 1602
8 1495 1370 1478 1609 1361 1239 1342 1479
8 1348 1212 1342 1479 1483 1347 1478 1609
8 1481 1346 1479 1610 1345 1210 1343 1480
8 1481 1346 1228 1359 1610 1479 1361 1494
8 1484 1348 1214 1351 1610 1479 1343 1480
8 1483 1347 1482 1612 1350 1213 1349 1486
8 1484 1348 1483 1613 1351 1214 1350 1487
8 1353 1230 1360 1488 1489 1363 1496 1616
8 1490 1364 1231 1354 1617 1499 1363 1489
8 1490 1364 1499 1617 1355 1232 1365 1491
8 1356 1234 1365 1491 1492 1366 1500 1619
8 1492 1366 1498 1620 1357 1233 1362 1493
8 1494 1361 1228 1359 1621 1497 1362 1493
8 1495 1370 1239 1361 1622 1504 1371 1497
8 1363 1236 1367 1496 1499 1368 1501 1623
8 1497 1371 1240 1362 1624 1505 1372 1498
8 1625 1503 1372 1498 1500 1369 1241 1366
8 1365 1238 1368 1499 1500 1369 1502 1626
8 1520 1398 1506 1633 1388 1266 1373 1507
8 1634 1507 1374 1508 1512 1388 1255 1380
8 1509 1387 1519 1635 1377 1258 1391 1510
8 1405 1276 1406 1534 1509 1387 1519 1635
8 1515 1392 1260 1383 1636 1522 1390 1511
8 1511 1390 1259 1379 1636 1522 1391 1510
8 1385 1256 1389 1517 1512 1388 1520 1637
8 1513 1394 1262 1382 1638 1524 1393 1514
8 1395 1516 1638 1524 1263 1384 1513 1394
8 1515 1392 1523 1639 1383 1260 1393 1514
8 1516 1395 1526 1640 1386 1264 1396 1518
8 1386 1264 1396 1518 1517 1389 1521 1641
8 1519 1397 1527 1643 1391 1269 1400 1522
8 1535 1407 1527 1643 1406 1277 1397 1519
8 1389 1267 1399 1521 1520 1398 1528 1644
8 1645 1529 1399 1521 1525 1404 1274 1396
8 1392 1270 1400 1522 1523 1401 1531 1646
8 1524 1402 1271 1393 1648 1532 1401 1523
8 1403 1526 1648 1532 1273 1395 1524 1402
8 1525 1404 1274 1396 1649 1533 1403 1526
8 1539 1414 1535 1657 1411 1286 1406 1534
8 1542 1415 1536 1658 1414 1287 1407 1535
8 1409 1285 1412 1537 1538 1413 1540 1660
8 1545 1421 1540 1660 1418 1292 1412 1537
8 1539 1414 1286 1411 1661 1541 1413 1538
8 1540 1417 1544 1663 1413 1288 1416 1541
8 1421 1296 1425 1548 1540 1417 1544 1663
8 1542 1415 1287 1414 1664 1543 1416 1541
8 1420 1294 1423 1547 1545 1421 1548 1666
8 1547 1423 1293 1419 1667 1549 1422 1546
8 1434 1301 1427 1553 1546 1422 1549 1667
8 1423 1297 1424 1549 1548 1425 1550 1668
8 1551 1426 1550 1668 1427 1298 1424 1549
8 1551 1426 1298 1427 1671 1552 1428 1554
8 1562 1432 1554 1674 1434 1301 1427 1553
8 1431 1299 1429 1558 1554 1428 1555 1675
8 1431 1299 1430 1560 1558 1429 1557 1680
8 1560 1430 1300 1432 1683 1559 1433 1563
8 1561 1431 1554 1674 1684 1560 1432 1562
8 1685 1563 1432 1562 1565 1435 1301 1434
8 1435 1302 1436 1566 1563 1433 1564 1686
8 1437 1303 1438 1568 1565 1435 1566 1688
8 1438 1304 1439 1569 1566 1436 1567 1689
8 1440 1306 1441 1571 1568 1438 1569 1691
8 1441 1307 1442 1572 1569 1439 1570 1692
8 1443 1309 1444 1574 1571 1441 1572 1694
8 1310 1444 1572 1442 1445 1575 1695 1573
8 1446 1312 1447 1576 1574 1444 1575 1696
8 1486 1349 1485 1614 1579 1449 1577 1699
8 1451 1317 1449 1579 1581 1450 1578 1701
8 1487 1350 1486 1615 1582 1451 1579 1702
8 1581 1450 1580 1704 1453 1318 1452 1584
8 1582 1451 1581 1705 1454 1319 1453 1585
8 1584 1452 1583 1706 1456 1320 1455 1586
8 1585 1453 1584 1707 1457 1321 1456 1587
8 1587 1456 1586 1708 1458 1323 1459 1588
8 1633 1506 1589 1710 1507 1373 1461 1590
8 1464 1329 1461 1590 1594 1463 1589 1710
8 1468 1336 1462 1591 1595 1464 1590 1711
8 1634 1507 1590 1711 1508 1374 1462 1591
8 1473 1341 1463 1594 1603 1477 1593 1716
8 1469 1337 1464 1595 1599 1473 1594 1717
8 1471 1597 1467 1335 1600 1718 1596 1470
8 1718 1600 1496 1616 1596 1470 1360 1488
8 1336 1468 1597 1471 1472 1598 1719 1601
8 1469 1337 1473 1599 1598 1472 1602 1720
8 1722 1604 1501 1623 1600 1474 1367 1496
8 1475 1601 1471 1339 1604 1722 1600 1474
8 1602 1476 1605 1723 1472 1340 1475 1601
8 1476 1602 1724 1606 1341 1473 1603 1477
8 1483 1347 1478 1609 1612 1482 1608 1731
8 1495 1370 1504 1622 1609 1478 1608 1731
8 1618 1495 1609 1732 1494 1361 1479 1610
8 1484 1348 1479 1610 1613 1483 1609 1732
8 1486 1349 1482 1612 1614 1485 1611 1733
8 1613 1483 1612 1734 1487 1350 1486 1615
8 1489 1363 1496 1616 1617 1499 1623 1736
8 1491 1365 1499 1617 1619 1500 1626 1737
8 1618 1495 1361 1494 1738 1622 1497 1621
8 1739 1625 1498 1620 1619 1500 1366 1492
8 1621 1497 1362 1493 1740 1624 1498 1620
8 1742 1631 1504 1622 1624 1505 1371 1497
8 1743 1628 1502 1626 1623 1501 1368 1499
8 1744 1630 1505 1624 1625 1503 1372 1498
8 1745 1629 1503 1625 1626 1502 1369 1500
8 1520 1398 1528 1644 1633 1506 1632 1751
8 1637 1520 1633 1752 1512 1388 1507 1634
8 1635 1519 1643 1753 1510 1391 1522 1636
8 1657 1535 1643 1753 1534 1406 1519 1635
8 1515 1392 1522 1636 1639 1523 1646 1754
8 1517 1389 1521 1641 1637 1520 1644 1755
8 1524 1638 1756 1648 1393 1514 1639 1523
8 1640 1526 1395 1516 1756 1648 1524 1638
8 1642 1525 1396 1518 1757 1649 1526 1640
8 1758 1645 1521 1641 1642 1525 1396 1518
8 1646 1531 1400 1522 1760 1650 1527 1643
8 1535 1407 1536 1658 1643 1527 1650 1760
8 1521 1399 1529 1645 1644 1528 1651 1761
8 1647 1530 1652 1762 1525 1404 1529 1645
8 1401 1523 1648 1532 1531 1646 1763 1655
8 1525 1404 1533 1649 1647 1530 1654 1765
8 1533 1649 1766 1656 1403 1526 1648 1532
8 1662 1542 1658 1774 1539 1414 1535 1657
8 1542 1415 1543 1664 1658 1536 1659 1775
8 1660 1540 1663 1777 1538 1413 1541 1661
8 1545 1421 1548 1666 1660 1540 1663 1777
8 1662 1542 1414 1539 1778 1664 1541 1661
8 1664 1543 1416 1541 1779 1665 1544 1663
8 1548 1425 1550 1668 1663 1544 1665 1779
8 1547 1423 1549 1667 1666 1548 1668 1781
8 1670 1551 1668 1781 1553 1427 1549 1667
8 1551 1426 1552 1671 1668 1550 1669 1782
8 1670 1551 1427 1553 1784 1671 1554 1674
8 1675 1555 1672 1785 1554 1428 1552 1671
8 1678 1556 1673 1789 1558 1429 1555 1675
8 1561 1431 1558 1681 1674 1554 1675 1790
8 1794 1677 1556 1678 1680 1557 1429 1558
8 1560 1430 1559 1683 1680 1557 1679 1797
8 1561 1431 1560 1684 1681 1558 1680 1798
8 1563 1433 1564 1686 1683 1559 1682 1800
8 1684 1560 1432 1562 1801 1683 1563 1685
8 1565 1435 1566 1688 1685 1563 1686 1802
8 1566 1436 1567 1689 1686 1564 1687 1803
8 1568 1438 1569 1691 1688 1566 1689 1805
8 1569 1439 1570 1692 1689 1567 1690 1806
8 1571 1441 1572 1694 1691 1569 1692 1808
8 1442 1572 1692 1570 1573 1695 1809 1693
8 1574 1444 1575 1696 1694 1572 1695 1810
8 1614 1485 1592 1712 1699 1577 1697 1813
8 1579 1449 1577 1699 1701 1578 1698 1815
8 1615 1486 1614 1735 1702 1579 1699 1816
8 1701 1578 1700 1818 1581 1450 1580 1704
8 1582 1451 1579 1702 1705 1581 1701 1819
8 1704 1580 1703 1820 1584 1452 1583 1706
8 1705 1581 1704 1821 1585 1453 1584 1707
8 1707 1584 1706 1822 1587 1456 1586 1708
8 1710 1589 1506 1633 1824 1709 1632 1751
8 1594 1463 1589 1710 1716 1593 1709 1824
8 1752 1633 1710 1825 1634 1507 1590 1711
8 1595 1464 1590 1711 1717 1594 1710 1825
8 1830 1714 1592 1712 1733 1611 1485 1614
8 1603 1477 1593 1716 1725 1607 1715 1834
8 1599 1473 1594 1717 1721 1603 1716 1835
8 1837 1722 1623 1736 1718 1600 1496 1616
8 1719 1601 1722 1837 1597 1471 1600 1718
8 1602 1720 1598 1472 1723 1838 1719 1601
8 1720 1602 1473 1599 1839 1724 1603 1721
8 1723 1605 1726 1840 1601 1475 1604 1722
8 1840 1726 1628 1743 1722 1604 1501 1623
8 1724 1606 1727 1841 1602 1476 1605 1723
8 1725 1607 1728 1842 1603 1477 1606 1724
8 1612 1482 1608 1731 1733 1611 1730 1849
8 1741 1627 1730 1849 1622 1504 1608 1731
8 1613 1483 1609 1732 1734 1612 1731 1850
8 1618 1495 1622 1738 1732 1609 1731 1850
8 1615 1486 1612 1734 1735 1614 1733 1851
8 1852 1743 1626 1737 1736 1623 1499 1617
8 1853 1745 1625 1739 1737 1626 1500 1619
8 1855 1742 1622 1738 1740 1624 1497 1621
8 1856 1744 1624 1740 1739 1625 1498 1620
8 1741 1627 1504 1622 1857 1746 1631 1742
8 1742 1631 1505 1624 1858 1749 1630 1744
8 1859 1747 1629 1745 1743 1628 1502 1626
8 1860 1748 1630 1744 1745 1629 1503 1625
8 1644 1528 1651 1761 1751 1632 1750 1865
8 1637 1520 1644 1755 1752 1633 1751 1866
8 1754 1646 1522 1636 1867 1760 1643 1753
8 1657 1535 1658 1774 1753 1643 1760 1867
8 1639 1523 1646 1754 1756 1648 1763 1868
8 1641 1521 1645 1758 1755 1644 1761 1869
8 1757 1649 1526 1640 1870 1766 1648 1756
8 1642 1525 1649 1757 1759 1647 1765 1871
8 1759 1647 1762 1872 1642 1525 1645 1758
8 1760 1650 1767 1874 1646 1531 1655 1763
8 1658 1536 1659 1775 1760 1650 1767 1874
8 1762 1652 1768 1875 1645 1529 1651 1761
8 1764 1653 1769 1876 1647 1530 1652 1762
8 1656 1766 1877 1773 1532 1648 1763 1655
8 1771 1879 1765 1654 1653 1764 1647 1530
8 1533 1649 1765 1654 1656 1766 1880 1772
8 1662 1542 1664 1778 1774 1658 1775 1887
8 1664 1543 1665 1779 1775 1659 1776 1888
8 1778 1664 1541 1661 1890 1779 1663 1777
8 1666 1548 1668 1781 1777 1663 1779 1890
8 1782 1669 1780 1891 1668 1550 1665 1779
8 1670 1551 1671 1784 1781 1668 1782 1893
8 1671 1552 1672 1785 1782 1669 1783 1894
8 1790 1675 1785 1896 1674 1554 1671 1784
8 1675 1555 1673 1789 1785 1672 1786 1897
8 1792 1676 1788 1903 1678 1556 1673 1789
8 1795 1678 1789 1904 1681 1558 1675 1790
8 1792 1676 1556 1678 1906 1791 1677 1794
8 1680 1557 1679 1797 1794 1677 1793 1909
8 1910 1794 1678 1795 1798 1680 1558 1681
8 1683 1559 1682 1800 1797 1679 1796 1912
8 1684 1560 1683 1801 1798 1680 1797 1913
8 1686 1564 1687 1803 1800 1682 1799 1915
8 1685 1563 1686 1802 1801 1683 1800 1916
8 1688 1566 1689 1805 1802 1686 1803 1917
8 1689 1567 1690 1806 1803 1687 1804 1918
8 1691 1569 1692 1808 1805 1689 1806 1920
8 1692 1570 1693 1809 1806 1690 1807 1921
8 1694 1572 1695 1810 1808 1692 1809 1922
8 1829 1713 1811 1926 1712 1592 1697 1813
8 1813 1697 1812 1928 1699 1577 1698 1815
8 1735 1614 1712 1828 1816 1699 1813 1929
8 1815 1698 1814 1931 1701 1578 1700 1818
8 1702 1579 1699 1816 1819 1701 1815 1932
8 1818 1700 1817 1933 1704 1580 1703 1820
8 1819 1701 1818 1934 1705 1581 1704 1821
8 1821 1704 1820 1935 1707 1584 1706 1822
8 1824 1709 1632 1751 1937 1823 1750 1865
8 1716 1593 1709 1824 1834 1715 1823 1937
8 1825 1710 1633 1752 1938 1824 1751 1866
8 1717 1594 1710 1825 1835 1716 1824 1938
8 1945 1830 1712 1828 1851 1733 1614 1735
8 1830 1714 1831 1946 1712 1592 1713 1829
8 1947 1832 1714 1830 1849 1730 1611 1733
8 1843 1729 1607 1725 1950 1833 1715 1834
8 1721 1603 1716 1835 1836 1725 1834 1951
8 1836 1725 1842 1953 1721 1603 1724 1839
8 1723 1838 1719 1601 1840 1954 1837 1722
8 1954 1840 1743 1852 1837 1722 1623 1736
8 1724 1839 1720 1602 1841 1955 1838 1723
8 1841 1727 1844 1956 1723 1605 1726 1840
8 1956 1844 1747 1859 1840 1726 1628 1743
8 1728 1842 1724 1606 1845 1957 1841 1727
8 1725 1607 1729 1843 1842 1728 1846 1958
8 1741 1627 1746 1857 1849 1730 1848 1965
8 1734 1612 1731 1850 1851 1733 1849 1966
8 1854 1741 1849 1966 1738 1622 1731 1850
8 1967 1859 1745 1853 1852 1743 1626 1737
8 1968 1860 1744 1856 1853 1745 1625 1739
8 1854 1741 1622 1738 1969 1857 1742 1855
8 1855 1742 1624 1740 1970 1858 1744 1856
8 1857 1746 1631 1742 1971 1861 1749 1858
8 1858 1749 1630 1744 1972 1863 1748 1860
8 1859 1747 1862 1973 1745 1629 1748 1860
8 1875 1768 1864 1977 1761 1651 1750 1865
8 1755 1644 1761 1869 1866 1751 1865 1978
8 1867 1760 1874 1979 1754 1646 1763 1868
8 1774 1658 1775 1887 1867 1760 1874 1979
8 1870 1766 1648 1756 1980 1877 1763 1868
8 1872 1762 1875 1981 1758 1645 1761 1869
8 1757 1649 1766 1870 1871 1765 1880 1982
8 1983 1879 1764 1873 1871 1765 1647 1759
8 1873 1764 1876 1984 1759 1647 1762 1872
8 1877 1773 1655 1763 1986 1881 1767 1874
8 1775 1659 1776 1888 1874 1767 1881 1986
8 1876 1769 1882 1987 1762 1652 1768 1875
8 1878 1770 1883 1988 1764 1653 1769 1876
8 1880 1772 1656 1766 1989 1886 1773 1877
8 1878 1770 1653 1764 1990 1884 1771 1879
8 1765 1654 1772 1880 1879 1771 1885 1991
8 1778 1664 1779 1890 1887 1775 1888 1997
8 1998 1889 1776 1888 1891 1780 1665 1779
8 1893 1782 1891 2000 1781 1668 1779 1890
8 1894 1783 1892 2001 1782 1669 1780 1891
8 1784 1671 1785 1896 1893 1782 1894 2003
8 1897 1786 1895 2004 1785 1672 1783 1894
8 1790 1675 1789 1904 1896 1785 1897 2006
8 1901 1787 1898 2007 1789 1673 1786 1897
8 1903 1788 1900 2013 1789 1673 1787 1901
8 1792 1676 1791 1906 1903 1788 1902 2016
8 1907 1792 1903 2017 1795 1678 1789 1904
8 1906 1791 1677 1794 2019 1905 1793 1909
8 1907 1792 1678 1795 2020 1906 1794 1910
8 1797 1679 1796 1912 1909 1793 1908 2022
8 1798 1680 1797 1913 1910 1794 1909 2023
8 1800 1682 1799 1915 1912 1796 1911 2025
8 1801 1683 1800 1916 1913 1797 1912 2026
8 1803 1687 1804 1918 1915 1799 1914 2028
8 1802 1686 1803 1917 1916 1800 1915 2029
8 1805 1689 1806 1920 1917 1803 1918 2030
8 1806 1690 1807 1921 1918 1804 1919 2031
8 1808 1692 1809 1922 1920 1806 1921 2032
8 1939 1826 1924 2037 1829 1713 1811 1926
8 1926 1811 1925 2039 1813 1697 1812 1928
8 1944 1829 1926 2040 1828 1712 1813 1929
8 1928 1812 1927 2042 1815 1698 1814 1931
8 1929 1813 1928 2043 1816 1699 1815 1932
8 1931 1814 1930 2044 1818 1700 1817 1933
8 1932 1815 1931 2045 1819 1701 1818 1934
8 1934 1818 1933 2046 1821 1704 1820 1935
8 2048 1936 1823 1937 1977 1864 1750 1865
8 1950 1833 1715 1834 2048 1936 1823 1937
8 1938 1824 1751 1866 2049 1937 1865 1978
8 1835 1716 1824 1938 1951 1834 1937 2049
8 1939 1826 1713 1829 2053 1942 1831 1946
8 1940 1827 1923 2035 2053 1942 1826 1939
8 1945 1830 1946 2058 1828 1712 1829 1944
8 2059 1947 1830 1945 1966 1849 1733 1851
8 1947 1832 1730 1849 2060 1948 1848 1965
8 1947 1832 1948 2060 1830 1714 1831 1946
8 1959 1847 1729 1843 2063 1949 1833 1950
8 1952 1843 1725 1836 2064 1950 1834 1951
8 1836 1725 1843 1952 1953 1842 1958 2066
8 1953 1842 1957 2067 1839 1724 1841 1955
8 1841 1955 1838 1723 1956 2068 1954 1840
8 2068 1956 1859 1967 1954 1840 1743 1852
8 1956 1844 1960 2069 1859 1747 1862 1973
8 1845 1957 1841 1727 1960 2069 1956 1844
8 1728 1842 1957 1845 1846 1958 2071 1961
8 1962 2072 1959 1847 1846 1958 1843 1729
8 1971 1861 1964 2077 1857 1746 1848 1965
8 1854 1741 1857 1969 1966 1849 1965 2078
8 1967 1859 1973 2079 1853 1745 1860 1968
8 1970 1858 1744 1856 2080 1972 1860 1968
8 1969 1857 1742 1855 2081 1971 1858 1970
8 1971 1861 1749 1858 2082 1974 1863 1972
8 1973 1862 1975 2083 1860 1748 1863 1972
8 1987 1882 1976 2086 1875 1768 1864 1977
8 1981 1875 1977 2087 1869 1761 1865 1978
8 1980 1877 1763 1868 2088 1986 1874 1979
8 1887 1775 1888 1997 1979 1874 1986 2088
8 1880 1982 2089 1989 1766 1870 1980 1877
8 1984 1876 1987 2090 1872 1762 1875 1981
8 1765 1871 1983 1879 1880 1982 2091 1991
8 1985 1878 1764 1873 2092 1990 1879 1983
8 1985 1878 1988 2093 1873 1764 1876 1984
8 2094 1992 1881 1986 1998 1889 1776 1888
8 1986 1881 1992 2094 1877 1773 1886 1989
8 1988 1883 1993 2095 1876 1769 1882 1987
8 1878 1770 1884 1990 1988 1883 1994 2096
8 1991 1885 1772 1880 2097 1996 1886 1989
8 1879 1771 1885 1991 1990 1884 1995 2098
8 2103 1998 1888 1997 2000 1891 1779 1890
8 2104 1999 1889 1998 2001 1892 1780 1891
8 2003 1894 2001 2106 1893 1782 1891 2000
8 2004 1895 2002 2107 1894 1783 1892 2001
8 2006 1897 2004 2109 1896 1785 1894 2003
8 2007 1898 2005 2110 1897 1786 1895 2004
8 2014 1901 2007 2112 1904 1789 1897 2006
8 2011 1899 2008 2113 1901 1787 1898 2007
8 2119 2010 1899 2011 2013 1900 1787 1901
8 2016 1902 2012 2122 1903 1788 1900 2013
8 2017 1903 2013 2123 1904 1789 1901 2014
8 1906 1791 1905 2019 2016 1902 2015 2125
8 1907 1792 1906 2020 2017 1903 2016 2126
8 1909 1793 1908 2022 2019 1905 2018 2128
8 2020 1906 1794 1910 2129 2019 1909 2023
8 1912 1796 1911 2025 2022 1908 2021 2131
8 1913 1797 1912 2026 2023 1909 2022 2132
8 1915 1799 1914 2028 2025 1911 2024 2134
8 1916 1800 1915 2029 2026 1912 2025 2135
8 1918 1804 1919 2031 2028 1914 2027 2136
8 1917 1803 1918 2030 2029 1915 2028 2137
8 1920 1806 1921 2032 2030 1918 2031 2138
8 1940 1827 1941 2054 2035 1923 2033 2140
8 2035 1923 2034 2143 1939 1826 1924 2037
8 2037 1924 2036 2146 1926 1811 1925 2039
8 2051 1939 2037 2147 1944 1829 1926 2040
8 2039 1925 2038 2149 1928 1812 1927 2042
8 2040 1926 2039 2150 1929 1813 1928 2043
8 2042 1927 2041 2151 1931 1814 1930 2044
8 2043 1928 2042 2152 1932 1815 1931 2045
8 2045 1931 2044 2153 1934 1818 1933 2046
8 2155 2047 1936 2048 2086 1976 1864 1977
8 2063 1949 1833 1950 2155 2047 1936 2048
8 2156 2048 1937 2049 2087 1977 1865 1978
8 2064 1950 1834 1951 2156 2048 1937 2049
8 2051 1939 1829 1944 2160 2053 1946 2058
8 2052 1940 2035 2144 2160 2053 1939 2051
8 2053 1942 1831 1946 2163 2057 1948 2060
8 2055 1943 1827 1940 2163 2057 1942 2053
8 2055 1943 2056 2164 1940 1827 1941 2054
8 2059 1947 1849 1966 2167 2060 1965 2078
8 2059 1947 2060 2167 1945 1830 1946 2058
8 2077 1964 2061 2168 1965 1848 1948 2060
8 2070 1963 1847 1959 2170 2062 1949 2063
8 2065 1959 1843 1952 2171 2063 1950 2064
8 2173 2072 1958 2066 2065 1959 1843 1952
8 1953 1842 1958 2066 2067 1957 2071 2174
8 2068 1956 2069 2175 1967 1859 1973 2079
8 2067 1957 2069 2175 1955 1841 1956 2068
8 1845 1957 2069 1960 1961 2071 2176 2073
8 2069 1960 2073 2176 1973 1862 1975 2083
8 2070 1963 2075 2177 1959 1847 1962 2072
8 1846 1958 2071 1961 1962 2072 2178 2074
8 2077 1964 1861 1971 2182 2076 1974 2082
8 2081 1971 2077 2183 1969 1857 1965 2078
8 2079 1973 2083 2184 1968 1860 1972 2080
8 2081 1971 1858 1970 2185 2082 1972 2080
8 2083 1975 2084 2186 1972 1863 1974 2082
8 2086 1976 1882 1987 2189 2085 1993 2095
8 2090 1987 2086 2190 1981 1875 1977 2087
8 2191 2094 1986 2088 2103 1998 1888 1997
8 2088 1986 2094 2191 1980 1877 1989 2089
8 1991 2091 2192 2097 1880 1982 2089 1989
8 2093 1988 2095 2193 1984 1876 1987 2090
8 1879 1983 2092 1990 1991 2091 2194 2098
8 1985 1878 1990 2092 2093 1988 2096 2195
8 2097 1996 1886 1989 2196 2099 1992 2094
8 2196 2099 1992 2094 2104 1999 1889 1998
8 1994 2096 1988 1883 2100 2197 2095 1993
8 2096 1994 1884 1990 2198 2101 1995 2098
8 1995 2098 2199 2102 1885 1991 2097 1996
8 2203 2104 1998 2103 2106 2001 1891 2000
8 2107 2002 2105 2204 2001 1892 1999 2104
8 2109 2004 2107 2206 2003 1894 2001 2106
8 2110 2005 2108 2207 2004 1895 2002 2107
8 2112 2007 2110 2209 2006 1897 2004 2109
8 2113 2008 2111 2210 2007 1898 2005 2110
8 2120 2011 2113 2212 2014 1901 2007 2112
8 2117 2009 2114 2213 2011 1899 2008 2113
8 2219 2116 2009 2117 2119 2010 1899 2011
8 2222 2118 2010 2119 2122 2012 1900 2013
8 2223 2119 2011 2120 2123 2013 1901 2014
8 2016 1902 2015 2125 2122 2012 2121 2225
8 2126 2016 2122 2226 2017 1903 2013 2123
8 2019 1905 2018 2128 2125 2015 2124 2228
8 2020 1906 2019 2129 2126 2016 2125 2229
8 2022 1908 2021 2131 2128 2018 2127 2231
8 2023 1909 2022 2132 2129 2019 2128 2232
8 2025 1911 2024 2134 2131 2021 2130 2234
8 2026 1912 2025 2135 2132 2022 2131 2235
8 1914 2028 2134 2024 2027 2136 2236 2133
8 2029 1915 2028 2137 2135 2025 2134 2237
8 2030 1918 2031 2138 2137 2028 2136 2238
8 2157 2050 2139 2240 2054 1941 2033 2140
8 2052 1940 2054 2161 2144 2035 2140 2242
8 2140 2033 2141 2243 2035 1923 2034 2143
8 2143 2034 2142 2246 2037 1924 2036 2146
8 2144 2035 2143 2247 2051 1939 2037 2147
8 2146 2036 2145 2249 2039 1925 2038 2149
8 2147 2037 2146 2250 2040 1926 2039 2150
8 2149 2038 2148 2251 2042 1927 2041 2151
8 2150 2039 2149 2252 2043 1928 2042 2152
8 2152 2042 2151 2253 2045 1931 2044 2153
8 2255 2154 2047 2155 2189 2085 1976 2086
8 2170 2062 1949 2063 2255 2154 2047 2155
8 2256 2155 2048 2156 2190 2086 1977 2087
8 2171 2063 1950 2064 2256 2155 2048 2156
8 2258 2159 2050 2157 2164 2056 1941 2054
8 2160 2053 1946 2058 2262 2163 2060 2167
8 2162 2055 1940 2052 2262 2163 2053 2160
8 2162 2055 2164 2263 2052 1940 2054 2161
8 2163 2057 1948 2060 2264 2165 2061 2168
8 2055 1943 2057 2163 2164 2056 2165 2264
8 2182 2076 2166 2268 2077 1964 2061 2168
8 2183 2077 2168 2269 2078 1965 2060 2167
8 2070 1963 2062 2170 2177 2075 2169 2271
8 2172 2070 1959 2065 2272 2170 2063 2171
8 2172 2070 2177 2273 2065 1959 2072 2173
8 2066 1958 2072 2173 2174 2071 2178 2274
8 2067 1957 2071 2174 2175 2069 2176 2275
8 2175 2069 2176 2275 2079 1973 2083 2184
8 2071 1961 2074 2178 2176 2073 2179 2276
8 2176 2073 2179 2276 2083 1975 2084 2186
8 2072 1962 2075 2177 2178 2074 2180 2277
8 2182 2076 1974 2082 2280 2181 2084 2186
8 2183 2077 1971 2081 2281 2182 2082 2185
8 2184 2083 2186 2282 2080 1972 2082 2185
8 2189 2085 1993 2095 2285 2188 2100 2197
8 2190 2086 1987 2090 2286 2189 2095 2193
8 2192 2097 1989 2089 2287 2196 2094 2191
8 2287 2196 2094 2191 2203 2104 1998 2103
8 2194 2098 1991 2091 2288 2199 2097 2192
8 2195 2096 2197 2289 2093 1988 2095 2193
8 2096 2195 2290 2198 1990 2092 2194 2098
8 2097 1996 2099 2196 2199 2102 2200 2291
8 2196 2099 1999 2104 2291 2200 2105 2204
8 2100 2197 2292 2201 1994 2096 2198 2101
8 1995 2098 2198 2101 2102 2199 2293 2202
8 2206 2107 2204 2296 2106 2001 2104 2203
8 2207 2108 2205 2297 2107 2002 2105 2204
8 2209 2110 2207 2299 2109 2004 2107 2206
8 2210 2111 2208 2300 2110 2005 2108 2207
8 2212 2113 2210 2302 2112 2007 2110 2209
8 2213 2114 2211 2303 2113 2008 2111 2210
8 2220 2117 2213 2305 2120 2011 2113 2212
8 2216 2115 2214 2306 2117 2009 2114 2213
8 2216 2115 2009 2117 2311 2217 2116 2219
8 2219 2116 2010 2119 2314 2218 2118 2222
8 2315 2219 2117 2220 2223 2119 2011 2120
8 2122 2012 2121 2225 2222 2118 2221 2317
8 2318 2222 2119 2223 2226 2122 2013 2123
8 2125 2015 2124 2228 2225 2121 2224 2320
8 2126 2016 2125 2229 2226 2122 2225 2321
8 2128 2018 2127 2231 2228 2124 2227 2323
8 2129 2019 2128 2232 2229 2125 2228 2324
8 2131 2021 2130 2234 2231 2127 2230 2326
8 2132 2022 2131 2235 2232 2128 2231 2327
8 2134 2024 2133 2236 2234 2130 2233 2328
8 2135 2025 2134 2237 2235 2131 2234 2329
8 2137 2028 2136 2238 2237 2134 2236 2330
8 2157 2050 2158 2259 2240 2139 2239 2332
8 2257 2157 2240 2334 2161 2054 2140 2242
8 2240 2139 2241 2335 2140 2033 2141 2243
8 2242 2140 2243 2337 2144 2035 2143 2247
8 2243 2141 2244 2338 2143 2034 2142 2246
8 2246 2142 2245 2341 2146 2036 2145 2249
8 2247 2143 2246 2342 2147 2037 2146 2250
8 2249 2145 2248 2343 2149 2038 2148 2251
8 2250 2146 2249 2344 2150 2039 2149 2252
8 2252 2149 2251 2345 2152 2042 2151 2253
8 2169 2271 2347 2254 2062 2170 2255 2154
8 2189 2085 2188 2285 2255 2154 2254 2347
8 2348 2255 2155 2256 2286 2189 2086 2190
8 2272 2170 2063 2171 2348 2255 2155 2256
8 2349 2258 2157 2257 2263 2164 2054 2161
8 2258 2159 2261 2351 2157 2050 2158 2259
8 2258 2159 2056 2164 2351 2261 2165 2264
8 2262 2163 2060 2167 2355 2264 2168 2269
8 2162 2055 2163 2262 2263 2164 2264 2355
8 2357 2266 2165 2264 2268 2166 2061 2168
8 2268 2166 2076 2182 2361 2267 2181 2280
8 2281 2182 2268 2362 2183 2077 2168 2269
8 2271 2169 2270 2364 2177 2075 2180 2277
8 2172 2070 2170 2272 2273 2177 2271 2365
8 2072 2173 2274 2178 2177 2273 2366 2277
8 2071 2174 2275 2176 2178 2274 2367 2276
8 2275 2176 2276 2367 2184 2083 2186 2282
8 2283 2187 2084 2186 2368 2278 2179 2276
8 2178 2074 2180 2277 2276 2179 2278 2368
8 2283 2187 2279 2370 2186 2084 2181 2280
8 2281 2182 2082 2185 2371 2280 2186 2282
8 2188 2285 2374 2284 2100 2197 2292 2201
8 2286 2189 2095 2193 2375 2285 2197 2289
8 2192 2097 2196 2287 2288 2199 2291 2376
8 2287 2196 2104 2203 2376 2291 2204 2296
8 2194 2098 2199 2288 2290 2198 2293 2377
8 2289 2197 2096 2195 2378 2292 2198 2290
8 2291 2200 2105 2204 2379 2294 2205 2297
8 2199 2102 2200 2291 2293 2202 2294 2379
8 2198 2101 2202 2293 2292 2201 2295 2380
8 2299 2207 2297 2383 2206 2107 2204 2296
8 2300 2208 2298 2384 2207 2108 2205 2297
8 2302 2210 2300 2386 2209 2110 2207 2299
8 2303 2211 2301 2387 2210 2111 2208 2300
8 2305 2213 2303 2389 2212 2113 2210 2302
8 2306 2214 2304 2390 2213 2114 2211 2303
8 2310 2216 2306 2392 2220 2117 2213 2305
8 2308 2215 2307 2393 2216 2115 2214 2306
8 2308 2215 2115 2216 2396 2309 2217 2311
8 2310 2216 2117 2220 2398 2311 2219 2315
8 2311 2217 2116 2219 2399 2312 2218 2314
8 2314 2218 2118 2222 2402 2313 2221 2317
8 2315 2219 2119 2223 2403 2314 2222 2318
8 2225 2121 2224 2320 2317 2221 2316 2405
8 2226 2122 2225 2321 2318 2222 2317 2406
8 2228 2124 2227 2323 2320 2224 2319 2408
8 2229 2125 2228 2324 2321 2225 2320 2409
8 2231 2127 2230 2326 2323 2227 2322 2411
8 2232 2128 2231 2327 2324 2228 2323 2412
8 2234 2130 2233 2328 2326 2230 2325 2413
8 2235 2131 2234 2329 2327 2231 2326 2414
8 2237 2134 2236 2330 2329 2234 2328 2415
8 2259 2158 2260 2352 2332 2239 2331 2417
8 2257 2157 2259 2350 2334 2240 2332 2419
8 2240 2139 2239 2332 2335 2241 2333 2420
8 2334 2240 2335 2422 2242 2140 2243 2337
8 2335 2241 2336 2423 2243 2141 2244 2338
8 2337 2243 2338 2425 2247 2143 2246 2342
8 2338 2244 2339 2426 2246 2142 2245 2341
8 2341 2245 2340 2428 2249 2145 2248 2343
8 2342 2246 2341 2429 2250 2146 2249 2344
8 2344 2249 2343 2430 2252 2149 2251 2345
8 2188 2285 2347 2254 2284 2374 2432 2346
8 2347 2254 2346 2432 2271 2169 2270 2364
8 2365 2271 2170 2272 2433 2347 2255 2348
8 2286 2189 2285 2375 2348 2255 2347 2433
8 2349 2258 2351 2435 2257 2157 2259 2350
8 2349 2258 2164 2263 2435 2351 2264 2355
8 2259 2158 2261 2351 2352 2260 2354 2437
8 2356 2265 2354 2437 2264 2165 2261 2351
8 2441 2357 2264 2355 2362 2268 2168 2269
8 2356 2265 2165 2264 2442 2358 2266 2357
8 2443 2359 2266 2357 2361 2267 2166 2268
8 2370 2279 2360 2446 2280 2181 2267 2361
8 2362 2268 2182 2281 2447 2361 2280 2371
8 2180 2277 2368 2278 2270 2364 2449 2363
8 2271 2365 2273 2177 2364 2450 2366 2277
8 2372 2283 2186 2282 2451 2368 2276 2367
8 2178 2274 2367 2276 2277 2366 2451 2368
8 2283 2187 2278 2368 2370 2279 2369 2452
8 2372 2283 2370 2453 2282 2186 2280 2371
8 2284 2374 2455 2373 2201 2292 2380 2295
8 2375 2285 2197 2289 2456 2374 2292 2378
8 2376 2291 2204 2296 2457 2379 2297 2383
8 2288 2199 2291 2376 2377 2293 2379 2457
8 2198 2290 2378 2292 2293 2377 2458 2380
8 2293 2202 2294 2379 2380 2295 2381 2459
8 2384 2298 2381 2459 2297 2205 2294 2379
8 2386 2300 2384 2463 2299 2207 2297 2383
8 2387 2301 2385 2464 2300 2208 2298 2384
8 2389 2303 2387 2466 2302 2210 2300 2386
8 2390 2304 2388 2467 2303 2211 2301 2387
8 2392 2306 2390 2469 2305 2213 2303 2389
8 2393 2307 2391 2470 2306 2214 2304 2390
8 2395 2308 2393 2472 2310 2216 2306 2392
8 2308 2215 2309 2396 2393 2307 2394 2473
8 2395 2308 2216 2310 2475 2396 2311 2398
8 2396 2309 2217 2311 2476 2397 2312 2399
8 2398 2311 2219 2315 2478 2399 2314 2403
8 2399 2312 2218 2314 2479 2400 2313 2402
8 2317 2221 2316 2405 2402 2313 2401 2482
8 2403 2314 2222 2318 2483 2402 2317 2406
8 2320 2224 2319 2408 2405 2316 2404 2485
8 2321 2225 2320 2409 2406 2317 2405 2486
8 2323 2227 2322 2411 2408 2319 2407 2488
8 2324 2228 2323 2412 2409 2320 2408 2489
8 2326 2230 2325 2413 2411 2322 2410 2490
8 2327 2231 2326 2414 2412 2323 2411 2491
8 2329 2234 2328 2415 2414 2326 2413 2492
8 2417 2331 2260 2352 2494 2416 2353 2438
8 2350 2259 2352 2436 2419 2332 2417 2496
8 2332 2239 2331 2417 2420 2333 2418 2497
8 2334 2240 2332 2419 2422 2335 2420 2499
8 2420 2333 2421 2500 2335 2241 2336 2423
8 2422 2335 2423 2502 2337 2243 2338 2425
8 2423 2336 2424 2503 2338 2244 2339 2426
8 2425 2338 2426 2505 2342 2246 2341 2429
8 2426 2339 2427 2506 2341 2245 2340 2428
8 2429 2341 2428 2507 2344 2249 2343 2430
8 2432 2346 2284 2374 2509 2431 2373 2455
8 2432 2346 2431 2509 2364 2270 2363 2449
8 2375 2285 2374 2456 2433 2347 2432 2510
8 2347 2433 2365 2271 2432 2510 2450 2364
8 2350 2259 2351 2435 2436 2352 2437 2514
8 2440 2356 2437 2514 2355 2264 2351 2435
8 2352 2260 2354 2437 2438 2353 2439 2516
8 2356 2265 2358 2442 2437 2354 2439 2516
8 2440 2356 2264 2355 2518 2442 2357 2441
8 2519 2443 2357 2441 2447 2361 2268 2362
8 2443 2359 2444 2520 2357 2266 2358 2442
8 2443 2359 2267 2361 2520 2444 2360 2446
8 2446 2360 2279 2370 2523 2445 2369 2452
8 2453 2370 2446 2524 2371 2280 2361 2447
8 2449 2363 2448 2525 2368 2278 2369 2452
8 2366 2277 2364 2450 2451 2368 2449 2526
8 2372 2283 2368 2451 2453 2370 2452 2527
8 2455 2373 2295 2380 2529 2454 2382 2460
8 2456 2374 2292 2378 2530 2455 2380 2458
8 2377 2293 2379 2457 2458 2380 2459 2531
8 2463 2384 2459 2531 2383 2297 2379 2457
8 2533 2461 2382 2460 2459 2381 2295 2380
8 2464 2385 2461 2533 2384 2298 2381 2459
8 2466 2387 2464 2537 2386 2300 2384 2463
8 2467 2388 2465 2538 2387 2301 2385 2464
8 2469 2390 2467 2540 2389 2303 2387 2466
8 2470 2391 2468 2541 2390 2304 2388 2467
8 2472 2393 2470 2543 2392 2306 2390 2469
8 2393 2307 2394 2473 2470 2391 2471 2544
8 2395 2308 2396 2475 2472 2393 2473 2546
8 2396 2309 2397 2476 2473 2394 2474 2547
8 2475 2396 2311 2398 2549 2476 2399 2478
8 2476 2397 2312 2399 2550 2477 2400 2479
8 2478 2399 2314 2403 2552 2479 2402 2483
8 2479 2400 2313 2402 2553 2480 2401 2482
8 2405 2316 2404 2485 2482 2401 2481 2556
8 2406 2317 2405 2486 2483 2402 2482 2557
8 2408 2319 2407 2488 2485 2404 2484 2559
8 2409 2320 2408 2489 2486 2405 2485 2560
8 2411 2322 2410 2490 2488 2407 2487 2561
8 2412 2323 2411 2491 2489 2408 2488 2562
8 2414 2326 2413 2492 2491 2411 2490 2563
8 2513 2434 2493 2565 2438 2353 2416 2494
8 2496 2417 2352 2436 2567 2494 2438 2515
8 2494 2416 2495 2568 2417 2331 2418 2497
8 2419 2332 2417 2496 2499 2420 2497 2570
8 2497 2418 2498 2571 2420 2333 2421 2500
8 2499 2420 2500 2573 2422 2335 2423 2502
8 2500 2421 2501 2574 2423 2336 2424 2503
8 2502 2423 2503 2576 2425 2338 2426 2505
8 2503 2424 2504 2577 2426 2339 2427 2506
8 2505 2426 2506 2578 2429 2341 2428 2507
8 2509 2431 2373 2455 2580 2508 2454 2529
8 2509 2431 2508 2580 2449 2363 2448 2525
8 2432 2510 2581 2509 2374 2456 2530 2455
8 2432 2510 2450 2364 2509 2581 2526 2449
8 2583 2511 2434 2513 2516 2439 2353 2438
8 2436 2352 2437 2514 2515 2438 2516 2588
8 2440 2356 2442 2518 2514 2437 2516 2588
8 2442 2358 2444 2520 2516 2439 2517 2589
8 2519 2443 2520 2591 2441 2357 2442 2518
8 2519 2443 2361 2447 2591 2520 2446 2524
8 2446 2360 2445 2523 2520 2444 2521 2592
8 2525 2448 2522 2593 2452 2369 2445 2523
8 2524 2446 2370 2453 2594 2523 2452 2527
8 2526 2449 2525 2595 2451 2368 2452 2527
8 2534 2462 2528 2597 2460 2382 2454 2529
8 2530 2455 2380 2458 2598 2529 2460 2532
8 2599 2533 2460 2532 2531 2459 2380 2458
8 2537 2464 2533 2599 2463 2384 2459 2531
8 2534 2462 2382 2460 2601 2535 2461 2533
8 2538 2465 2535 2601 2464 2385 2461 2533
8 2540 2467 2538 2604 2466 2387 2464 2537
8 2541 2468 2539 2605 2467 2388 2465 2538
8 2543 2470 2541 2607 2469 2390 2467 2540
8 2470 2391 2471 2544 2541 2468 2542 2608
8 2472 2393 2473 2546 2543 2470 2544 2610
8 2473 2394 2474 2547 2544 2471 2545 2611
8 2475 2396 2476 2549 2546 2473 2547 2613
8 2476 2397 2477 2550 2547 2474 2548 2614
8 2549 2476 2399 2478 2616 2550 2479 2552
8 2479 2400 2480 2553 2550 2477 2551 2617
8 2552 2479 2402 2483 2619 2553 2482 2557
8 2482 2401 2481 2556 2553 2480 2554 2620
8 2485 2404 2484 2559 2556 2481 2555 2623
8 2486 2405 2485 2560 2557 2482 2556 2624
8 2488 2407 2487 2561 2559 2484 2558 2625
8 2489 2408 2488 2562 2560 2485 2559 2626
8 2491 2411 2490 2563 2562 2488 2561 2627
8 2513 2434 2512 2585 2565 2493 2564 2630
8 2586 2513 2565 2632 2515 2438 2494 2567
8 2565 2493 2566 2633 2494 2416 2495 2568
8 2567 2494 2568 2635 2496 2417 2497 2570
8 2568 2495 2569 2636 2497 2418 2498 2571
8 2570 2497 2571 2638 2499 2420 2500 2573
8 2571 2498 2572 2639 2500 2421 2501 2574
8 2573 2500 2574 2641 2502 2423 2503 2576
8 2574 2501 2575 2642 2503 2424 2504 2577
8 2576 2503 2577 2643 2505 2426 2506 2578
8 2597 2528 2579 2645 2529 2454 2508 2580
8 2580 2508 2579 2645 2525 2448 2522 2593
8 2581 2509 2455 2530 2646 2580 2529 2598
8 2581 2509 2580 2646 2526 2449 2525 2595
8 2583 2511 2582 2648 2513 2434 2512 2585
8 2583 2511 2439 2516 2648 2582 2517 2589
8 2649 2583 2513 2586 2588 2516 2438 2515
8 2589 2517 2444 2520 2653 2587 2521 2592
8 2518 2442 2520 2591 2588 2516 2589 2654
8 2593 2522 2590 2655 2523 2445 2521 2592
8 2524 2446 2523 2594 2591 2520 2592 2656
8 2595 2525 2593 2657 2527 2452 2523 2594
8 2602 2536 2596 2659 2534 2462 2528 2597
8 2600 2534 2597 2660 2532 2460 2529 2598
8 2600 2534 2460 2532 2661 2601 2533 2599
8 2604 2538 2601 2661 2537 2464 2533 2599
8 2602 2536 2462 2534 2663 2603 2535 2601
8 2601 2535 2465 2538 2663 2603 2539 2605
8 2607 2541 2605 2665 2540 2467 2538 2604
8 2608 2542 2606 2666 2541 2468 2539 2605
8 2543 2470 2544 2610 2607 2541 2608 2668
8 2544 2471 2545 2611 2608 2542 2609 2669
8 2546 2473 2547 2613 2610 2544 2611 2671
8 2547 2474 2548 2614 2611 2545 2612 2672
8 2549 2476 2550 2616 2613 2547 2614 2674
8 2550 2477 2551 2617 2614 2548 2615 2675
8 2552 2479 2553 2619 2616 2550 2617 2677
8 2553 2480 2554 2620 2617 2551 2618 2678
8 2557 2482 2556 2624 2619 2553 2620 2680
8 2556 2481 2555 2623 2620 2554 2621 2681
8 2559 2484 2558 2625 2623 2555 2622 2683
8 2560 2485 2559 2626 2624 2556 2623 2684
8 2562 2488 2561 2627 2626 2559 2625 2685
8 2690 2629 2564 2630 2650 2584 2512 2585
8 2586 2513 2585 2651 2632 2565 2630 2691
8 2630 2564 2631 2692 2565 2493 2566 2633
8 2632 2565 2633 2694 2567 2494 2568 2635
8 2633 2566 2634 2695 2568 2495 2569 2636
8 2635 2568 2636 2697 2570 2497 2571 2638
8 2636 2569 2637 2698 2571 2498 2572 2639
8 2638 2571 2639 2700 2573 2500 2574 2641
8 2639 2572 2640 2701 2574 2501 2575 2642
8 2641 2574 2642 2702 2576 2503 2577 2643
8 2597 2528 2596 2659 2645 2579 2644 2704
8 2645 2579 2644 2704 2593 2522 2590 2655
8 2660 2597 2645 2705 2598 2529 2580 2646
8 2646 2580 2645 2705 2595 2525 2593 2657
8 2650 2584 2512 2585 2707 2647 2582 2648
8 2648 2582 2517 2589 2707 2647 2587 2653
8 2649 2583 2648 2708 2586 2513 2585 2651
8 2649 2583 2516 2588 2708 2648 2589 2654
8 2655 2590 2652 2710 2592 2521 2587 2653
8 2654 2589 2520 2591 2711 2653 2592 2656
8 2657 2593 2655 2712 2594 2523 2592 2656
8 2602 2536 2603 2663 2659 2596 2658 2714
8 2662 2602 2659 2715 2600 2534 2597 2660
8 2662 2602 2534 2600 2717 2663 2601 2661
8 2661 2601 2538 2604 2717 2663 2605 2665
8 2666 2606 2664 2718 2605 2539 2603 2663
8 2668 2608 2666 2720 2607 2541 2605 2665
8 2608 2542 2609 2669 2666 2606 2667 2721
8 2610 2544 2611 2671 2668 2608 2669 2723
8 2611 2545 2612 2672 2669 2609 2670 2724
8 2613 2547 2614 2674 2671 2611 2672 2726
8 2614 2548 2615 2675 2672 2612 2673 2727
8 2616 2550 2617 2677 2674 2614 2675 2729
8 2617 2551 2618 2678 2675 2615 2676 2730
8 2619 2553 2620 2680 2677 2617 2678 2732
8 2620 2554 2621 2681 2678 2618 2679 2733
8 2624 2556 2623 2684 2680 2620 2681 2735
8 2681 2621 2555 2623 2736 2682 2622 2683
8 2626 2559 2625 2685 2684 2623 2683 2737
8 2688 2628 2584 2650 2740 2686 2647 2707
8 2688 2628 2687 2742 2650 2584 2629 2690
8 2690 2629 2689 2745 2630 2564 2631 2692
8 2746 2690 2630 2691 2709 2650 2585 2651
8 2691 2630 2692 2747 2632 2565 2633 2694
8 2692 2631 2693 2748 2633 2566 2634 2695
8 2694 2633 2695 2750 2635 2568 2636 2697
8 2695 2634 2696 2751 2636 2569 2637 2698
8 2697 2636 2698 2753 2638 2571 2639 2700
8 2698 2637 2699 2754 2639 2572 2640 2701
8 2700 2639 2701 2755 2641 2574 2642 2702
8 2659 2596 2658 2714 2704 2644 2703 2757
8 2704 2644 2703 2757 2655 2590 2652 2710
8 2660 2597 2659 2715 2705 2645 2704 2758
8 2705 2645 2704 2758 2657 2593 2655 2712
8 2759 2706 2647 2707 2710 2652 2587 2653
8 2709 2650 2585 2651 2760 2707 2648 2708
8 2708 2648 2589 2654 2760 2707 2653 2711
8 2712 2655 2710 2761 2656 2592 2653 2711
8 2763 2713 2658 2714 2718 2664 2603 2663
8 2662 2602 2663 2717 2715 2659 2714 2764
8 2720 2666 2718 2767 2665 2605 2663 2717
8 2768 2719 2664 2718 2721 2667 2606 2666
8 2668 2608 2669 2723 2720 2666 2721 2770
8 2669 2609 2670 2724 2721 2667 2722 2771
8 2671 2611 2672 2726 2723 2669 2724 2773
8 2672 2612 2673 2727 2724 2670 2725 2774
8 2674 2614 2675 2729 2726 2672 2727 2776
8 2675 2615 2676 2730 2727 2673 2728 2777
8 2677 2617 2678 2732 2729 2675 2730 2779
8 2678 2618 2679 2733 2730 2676 2731 2780
8 2680 2620 2681 2735 2732 2678 2733 2782
8 2733 2679 2621 2681 2783 2734 2682 2736
8 2735 2681 2623 2684 2784 2736 2683 2737
8 2740 2686 2647 2707 2787 2738 2706 2759
8 2688 2628 2686 2740 2742 2687 2739 2789
8 2743 2688 2650 2709 2790 2740 2707 2760
8 2742 2687 2741 2792 2690 2629 2689 2745
8 2743 2688 2742 2793 2709 2650 2690 2746
8 2745 2689 2744 2795 2692 2631 2693 2748
8 2746 2690 2745 2796 2691 2630 2692 2747
8 2747 2692 2748 2797 2694 2633 2695 2750
8 2748 2693 2749 2798 2695 2634 2696 2751
8 2750 2695 2751 2800 2697 2636 2698 2753
8 2751 2696 2752 2801 2698 2637 2699 2754
8 2753 2698 2754 2802 2700 2639 2701 2755
8 2763 2713 2756 2804 2714 2658 2703 2757
8 2759 2706 2652 2710 2804 2756 2703 2757
8 2715 2659 2714 2764 2758 2704 2757 2805
8 2758 2704 2757 2805 2712 2655 2710 2761
8 2806 2759 2707 2760 2761 2710 2653 2711
8 2765 2716 2762 2808 2718 2664 2713 2763
8 2809 2763 2714 2764 2767 2718 2663 2717
8 2765 2716 2664 2718 2811 2766 2719 2768
8 2813 2768 2718 2767 2770 2721 2666 2720
8 2814 2769 2719 2768 2771 2722 2667 2721
8 2723 2669 2724 2773 2770 2721 2771 2816
8 2724 2670 2725 2774 2771 2722 2772 2817
8 2726 2672 2727 2776 2773 2724 2774 2819
8 2727 2673 2728 2777 2774 2725 2775 2820
8 2729 2675 2730 2779 2776 2727 2777 2822
8 2730 2676 2731 2780 2777 2728 2778 2823
8 2732 2678 2733 2782 2779 2730 2780 2825
8 2780 2731 2679 2733 2826 2781 2734 2783
8 2782 2733 2681 2735 2827 2783 2736 2784
8 2830 2785 2738 2787 2804 2756 2706 2759
8 2789 2739 2686 2740 2832 2786 2738 2787
8 2790 2740 2707 2760 2833 2787 2759 2806
8 2742 2687 2739 2789 2792 2741 2788 2835
8 2743 2688 2740 2790 2793 2742 2789 2836
8 2792 2741 2791 2838 2745 2689 2744 2795
8 2793 2742 2792 2839 2746 2690 2745 2796
8 2795 2744 2794 2841 2748 2693 2749 2798
8 2796 2745 2795 2842 2747 2692 2748 2797
8 2797 2748 2798 2843 2750 2695 2751 2800
8 2798 2749 2799 2844 2751 2696 2752 2801
8 2800 2751 2801 2845 2753 2698 2754 2802
8 2808 2762 2803 2847 2763 2713 2756 2804
8 2809 2763 2804 2848 2764 2714 2757 2805
8 2806 2759 2710 2761 2848 2804 2757 2805
8 2765 2716 2766 2811 2808 2762 2807 2850
8 2810 2765 2808 2851 2767 2718 2763 2809
8 2810 2765 2718 2767 2852 2811 2768 2813
8 2811 2766 2719 2768 2853 2812 2769 2814
8 2855 2814 2768 2813 2816 2771 2721 2770
8 2856 2815 2769 2814 2817 2772 2722 2771
8 2773 2724 2774 2819 2816 2771 2817 2858
8 2774 2725 2775 2820 2817 2772 2818 2859
8 2776 2727 2777 2822 2819 2774 2820 2861
8 2777 2728 2778 2823 2820 2775 2821 2862
8 2779 2730 2780 2825 2822 2777 2823 2864
8 2823 2778 2731 2780 2865 2824 2781 2826
8 2825 2780 2733 2782 2866 2826 2783 2827
8 2869 2828 2785 2830 2847 2803 2756 2804
8 2871 2829 2786 2832 2830 2785 2738 2787
8 2872 2830 2787 2833 2848 2804 2759 2806
8 2789 2739 2786 2832 2835 2788 2831 2874
8 2836 2789 2740 2790 2875 2832 2787 2833
8 2792 2741 2788 2835 2838 2791 2834 2877
8 2793 2742 2789 2836 2839 2792 2835 2878
8 2838 2791 2837 2880 2795 2744 2794 2841
8 2839 2792 2838 2881 2796 2745 2795 2842
8 2841 2794 2840 2882 2798 2749 2799 2844
8 2842 2795 2841 2883 2797 2748 2798 2843
8 2843 2798 2844 2884 2800 2751 2801 2845
8 2886 2846 2803 2847 2850 2807 2762 2808
8 2851 2808 2847 2887 2809 2763 2804 2848
8 2850 2807 2766 2811 2889 2849 2812 2853
8 2810 2765 2811 2852 2851 2808 2850 2890
8 2852 2811 2768 2813 2891 2853 2814 2855
8 2853 2812 2769 2814 2892 2854 2815 2856
8 2894 2856 2814 2855 2858 2817 2771 2816
8 2817 2772 2818 2859 2856 2815 2857 2895
8 2819 2774 2820 2861 2858 2817 2859 2897
8 2820 2775 2821 2862 2859 2818 2860 2898
8 2822 2777 2823 2864 2861 2820 2862 2900
8 2823 2778 2824 2865 2862 2821 2863 2901
8 2864 2823 2780 2825 2902 2865 2826 2866
8 2904 2867 2828 2869 2886 2846 2803 2847
8 2869 2828 2868 2906 2830 2785 2829 2871
8 2907 2869 2830 2872 2887 2847 2804 2848
8 2871 2829 2870 2909 2832 2786 2831 2874
8 2910 2871 2832 2875 2872 2830 2787 2833
8 2835 2788 2831 2874 2877 2834 2873 2912
8 2836 2789 2832 2875 2878 2835 2874 2913
8 2877 2834 2876 2915 2838 2791 2837 2880
8 2839 2792 2835 2878 2881 2838 2877 2916
8 2880 2837 2879 2917 2841 2794 2840 2882
8 2881 2838 2880 2918 2842 2795 2841 2883
8 2883 2841 2882 2919 2843 2798 2844 2884
8 2921 2885 2846 2886 2889 2849 2807 2850
8 2922 2886 2847 2887 2890 2850 2808 2851
8 2889 2849 2812 2853 2924 2888 2854 2892
8 2890 2850 2811 2852 2925 2889 2853 2891
8 2891 2853 2814 2855 2926 2892 2856 2894
8 2892 2854 2815 2856 2927 2893 2857 2895
8 2858 2817 2859 2897 2894 2856 2895 2929
8 2859 2818 2860 2898 2895 2857 2896 2930
8 2861 2820 2862 2900 2897 2859 2898 2932
8 2862 2821 2863 2901 2898 2860 2899 2933
8 2864 2823 2865 2902 2900 2862 2901 2934
8 2904 2867 2846 2886 2936 2903 2885 2921
8 2904 2867 2903 2936 2869 2828 2868 2906
8 2937 2904 2869 2907 2922 2886 2847 2887
8 2906 2868 2905 2939 2871 2829 2870 2909
8 2907 2869 2906 2940 2872 2830 2871 2910
8 2909 2870 2908 2942 2874 2831 2873 2912
8 2910 2871 2909 2943 2875 2832 2874 2913
8 2912 2873 2911 2945 2877 2834 2876 2915
8 2878 2835 2874 2913 2916 2877 2912 2946
8 2915 2876 2914 2947 2880 2837 2879 2917
8 2916 2877 2915 2948 2881 2838 2880 2918
8 2918 2880 2917 2949 2883 2841 2882 2919
8 2921 2885 2849 2889 2951 2920 2888 2924
8 2952 2921 2886 2922 2925 2889 2850 2890
8 2924 2888 2854 2892 2954 2923 2893 2927
8 2925 2889 2853 2891 2955 2924 2892 2926
8 2926 2892 2856 2894 2956 2927 2895 2929
8 2895 2857 2896 2930 2927 2893 2928 2957
8 2897 2859 2898 2932 2929 2895 2930 2959
8 2898 2860 2899 2933 2930 2896 2931 2960
8 2900 2862 2901 2934 2932 2898 2933 2961
8 2936 2903 2885 2921 2963 2935 2920 2951
8 2936 2903 2935 2963 2906 2868 2905 2939
8 2937 2904 2886 2922 2964 2936 2921 2952
8 2937 2904 2936 2964 2907 2869 2906 2940
8 2939 2905 2938 2966 2909 2870 2908 2942
8 2940 2906 2939 2967 2910 2871 2909 2943
8 2942 2908 2941 2969 2912 2873 2911 2945
8 2943 2909 2942 2970 2913 2874 2912 2946
8 2945 2911 2944 2971 2915 2876 2914 2947
8 2946 2912 2945 2972 2916 2877 2915 2948
8 2948 2915 2947 2973 2918 2880 2917 2949
8 2951 2920 2888 2924 2975 2950 2923 2954
8 2952 2921 2889 2925 2976 2951 2924 2955
8 2927 2893 2928 2957 2954 2923 2953 2978
8 2955 2924 2892 2926 2979 2954 2927 2956
8 2929 2895 2930 2959 2956 2927 2957 2980
8 2930 2896 2931 2960 2957 2928 2958 2981
8 2932 2898 2933 2961 2959 2930 2960 2982
8 2951 2920 2950 2975 2963 2935 2962 2984
8 2963 2935 2962 2984 2939 2905 2938 2966
8 2964 2936 2921 2952 2985 2963 2951 2976
8 2964 2936 2963 2985 2940 2906 2939 2967
8 2966 2938 2965 2987 2942 2908 2941 2969
8 2967 2939 2966 2988 2943 2909 2942 2970
8 2969 2941 2968 2989 2945 2911 2944 2971
8 2970 2942 2969 2990 2946 2912 2945 2972
8 2972 2945 2971 2991 2948 2915 2947 2973
8 2954 2923 2953 2978 2975 2950 2974 2993
8 2976 2951 2924 2955 2994 2975 2954 2979
8 2957 2928 2958 2981 2978 2953 2977 2995
8 2956 2927 2957 2980 2979 2954 2978 2996
8 2959 2930 2960 2982 2980 2957 2981 2997
8 2984 2962 2983 2999 2966 2938 2965 2987
8 2975 2950 2974 2993 2984 2962 2983 2999
8 2976 2951 2975 2994 2985 2963 2984 3000
8 2985 2963 2984 3000 2967 2939 2966 2988
8 2987 2965 2986 3001 2969 2941 2968 2989
8 2988 2966 2987 3002 2970 2942 2969 2990
8 2990 2969 2989 3003 2972 2945 2971 2991
8 2978 2953 2977 2995 2993 2974 2992 3004
8 2979 2954 2978 2996 2994 2975 2993 3005
8 2980 2957 2981 2997 2996 2978 2995 3006
8 2974 2993 2999 2983 2992 3004 3007 2998
8 2983 2999 2987 2965 2998 3007 3001 2986
8 3000 2984 2999 3008 2988 2966 2987 3002
8 2994 2975 2993 3005 3000 2984 2999 3008
8 3002 2987 3001 3009 2990 2969 2989 3003
8 2996 2978 2995 3006 3005 2993 3004 3010
8 3005 2993 3004 3010 3008 2999 3007 3011
8 3008 2999 3007 3011 3002 2987 3001 3009

CELL_TYPES 1910
12
12
12
12
12
12
12
12
12
12
12
12
12
12
12
12
12
12
12
12
12
12
12
12
12
12
12
12
12
12
12
12
12
12
12
12
12
12
12
12
12
12
12
12
12
12
12
12
12
12
12
12
12
12
12
12
12
12
12
12
12
12
12
12
12
12
12
12
12
12
12
12
12
12
12
12
12
12
12
12
12
12
12
12
12
12
12
12
12
12
12
12
12
12
12
12
12
12
12
12
12
12
12
12
12
12
12
12
12
12
12
12
12
12
12
12
12
12
12
12
12
12
12
12
12
12
12
12
12
12
12
12
12
12
12
12
12
12
12
12
12
12
12
12
12
12
12
12
12
12
12
12
12
12
12
12
12
12
12
12
12
12
12
12
12
12
12
12
12
12
12
12
12
12
12
12
12
12
12
12
12
12
12
12
12
12
12
12
12
12
12
12
12
12
12
12
12
12
12
12
12
12
12
12
12
12
12
12
12
12
12
12
12
12
12
12
12
12
12
12
12
12
12
12
12
12
12
12
12
12
12
12
12
12
12
12
12
12
12
12
12
12
12
12
12
12
12
12
12
12
12
12
12
12
12
12
12
12
12
12
12
12
12
12
12
12
12
12
12
12
12
12
12
12
12
12
12
12
12
12
12
12
12
12
12
12
12
12
12
12
12
12
12
12
12
12
12
12
12
12
12
12
12
12
12
12
12
12
12
12
12
12
12
12
12
12
12
12
12
12
12
12
12
12
12
12
12
12
12
12
12
12
12
12
12
12
12
12
12
12
12
12
12
12
12
12
12
12
12
12
12
12
12
12
12
12
12
12
12
12
12
12
12
12
12
12
12
12
12
12
12
12
12
12
12
12
12
12
12
12
12
12
12
12
12
12
12
12
12
12
12
12
12
12
12
12
12
12
12
12
12
12
12
12
12
12
12
12
12
12
12
12
12
12
12
12
12
12
12
12
12
12
12
12
12
12
12
12
12
12
12
12
12
12
12
12
12
12
12
12
12
12
12
12
12
12
12
12
12
12
12
12
12
12
12
12
12
12
12
12
12
12
12
12
12
12
12
12
12
12
12
12
12
12
12
12
12
12
12
12
12
12
12
12
12
12
12
12
12
12
12
12
12
12
12
12
12
12
12
12
12
12
12
12
12
12
12
12
12
12
12
12
12
12
12
12
12
12
12
12
12
12
12
12
12
12
12
12
12
12
12
12
12
12
12
12
12
12
12
12
12
12
12
12
12
12
12
12
12
12
12
12
12
12
12
12
12
12
12
12
12
12
12
12
12
12
12
12
12
12
12
12
12
12
12
12
12
12
12
12
12
12
12
12
12
12
12
12
12
12
12
12
12
12
12
12
12
12
12
12
12
12
12
12
12
12
12
12
12
12
12
12
12
12
12
12
12
12
12
12
12
12
12
12
12
12
12
12
12
12
12
12
12
12
12
12
12
12
12
12
12
12
12
12
12
12
12
12
12
12
12
12
12
12
12
12
12
12
12
12
12
12
12
12
12
12
12
12
12
12
12
12
12
12
12
12
12
12
12
12
12
12
12
12
12
12
12
12
12
12
12
12
12
12
12
12
12
12
12
12
12
12
12
12
12
12
12
12
12
12
12
12
12
12
12
12
12
12
12
12
12
12
12
12
12
12
12
12
12
12
12
12
12
12
12
12
12
12
12
12
12
12
12
12
12
12
12
12
12
12
12
12
12
12
12
12
12
12
12
12
12
12
12
12
12
12
12
12
12
12
12
12
12
12
12
12
12
12
12
12
12
12
12
12
12
12
12
12
12
12
12
12
12
12
12
12
12
12
12
12
12
12
12
12
12
12
12
12
12
12
12
12
12
12
12
12
12
12
12
12
12
12
12
12
12
12
12
12
12
12
12
12
12
12
12
12
12
12
12
12
12
12
12
12
12
12
12
12
12
12
12
12
12
12
12
12
12
12
12
12
12
12
12
12
12
12
12
12
12
12
12
12
12
12
12
12
12
12
12
12
12
12
12
12
12
12
12
12
12
12
12
12
12
12
12
12
12
12
12
12
12
12
12
12
12
12
12
12
12
12
12
12
12
12
12
12
12
12
12
12
12
12
12
12
12
12
12
12
12
12
12
12
12
12
12
12
12
12
12
12
12
12
12
12
12
12
12
12
12
12
12
12
12
12
12
12
12
12
12
12
12
12
12
12
12
12
12
12
12
12
12
12
12
12
12
12
12
12
12
12
12
12
12
12
12
12
12
12
12
12
12
12
12
12
12
12
12
12
12
12
12
12
12
12
12
12
12
12
12
12
12
12
12
12
12
12
12
12
12
12
12
12
12
12
12
12
12
12
12
12
12
12
12
12
12
12
12
12
12
12
12
12
12
12
12
12
12
12
12
12
12
12
12
12
12
12
12
12
12
12
12
12
12
12
12
12
12
12
12
12
12
12
12
12
12
12
12
12
12
12
12
12
12
12
12
12
12
12
12
12
12
12
12
12
12
12
12
12
12
12
12
12
12
12
12
12
12
12
12
12
12
12
12
12
12
12
12
12
12
12
12
12
12
12
12
12
12
12
12
12
12
12
12
12
12
12
12
12
12
12
12
12
12
12
12
12
12
12
12
12
12
12
12
12
12
12
12
12
12
12
12
12
12
12
12
12
12
12
12
12
12
12
12
12
12
12
12
12
12
12
12
12
12
12
12
12
12
12
12
12
12
12
12
12
12
12
12
12
12
12
12
12
12
12
12
12
12
12
12
12
12
12
12
12
12
12
12
12
12
12
12
12
12
12
12
12
12
12
12
12
12
12
12
12
12
12
12
12
12
12
12
12
12
12
12
12
12
12
12
12
12
12
12
12
12
12
12
12
12
12
12
12
12
12
12
12
12
12
12
12
12
12
12
12
12
12
12
12
12
12
12
12
12
12
12
12
12
12
12
12
12
12
12
12
12
12
12
12
12
12
12
12
12
12
12
12
12
12
12
12
12
12
12
12
12
12
12
12
12
12
12
12
12
12
12
12
12
12
12
12
12
12
12
12
12
12
12
12
12
12
12
12
12
12
12
12
12
12
12
12
12
12
12
12
12
12
12
12
12
12
12
12
12
12
12
12
12
12
12
12
12
12
12
12
12
12
12
12
12
12
12
12
12
12
12
12
12
12
12
12
12
12
12
12
12
12
12
12
12
12
12
12
12
12
12
12
12
12
12
12
12
12
12
12
12
12
12
12
12
12
12
12
12
12
12
12
12
12
12
12
12
12
12
12
12
12
12
12
12
12
12
12
12
12
12
12
12
12
12
12
12
12
12
12
12
12
12
12
12
12
12
12
12
12
12
12
12
12
12
12
12
12
12
12
12
12
12
12
12
12
12
12
12
12
12
12
12
12
12
12
12
12
12
12
12
12
12
12
12
12
12
12
12
12
12
12
12
12
12
12
12
12
12
12
12
12
12
12
12
12
12
12
12
12
12
12
12
12
12
12
12
12
12
12
12
12
12
12
12
12
12
12
12
12
12
12
12
12
12
12
12
12
12
12
12
12
12
12
12
12
12
12
12
12
12
12
12
12
12
12
12
12
12
12
12
12
12
12
12
12
12
12
12
12
12
12
12
12
12
12
12
12
12
12
12
12
12
12
12
12
12
12
12
12
12
12
12
12
12
12
12
12
12
12
12
12
12
12
12
12
12
12
12
12
12
12
12
12
12
12
12
12
12
12
12
12
12
12
12
12
12
12
12
12
12
12
12
12
12
12
12
12
12
12
12
12
12
12
12
12
12
12
12
12
12
12
12
12
12
12
12
12
12
12
12
12
12
12
12
12
12
12
12
12
12
12
12
12
12
12
12
12
12
12
12
12
12
12
12
12
12
12
12
12
12
12
12
12
12
12
12
12
12
12
12
12
12
12
12
12
12
12
12
12
12
12
12
12
12
12
12
12
12
12
12
12
12
12
12
12
12
12
12
12
12
12
12
12
12
12
12
12
12
12
12
12
12
12
12
12
12
12
12
12
12
12
12
12
12
12
12
12
12
12
12
12
12
12
12
12
12
12
12
12
12
12
12
12
12
12
12
12
12
12
12
12
12
12
12
12
12
12
12
12
12
12
12
12
12
12
12
12
12
12
12
12
12
12
12
12
12
12
12
12
12
12
12
12
12
12
12
12
12
12
12
12
12
12
12
12
12
12
12
12
12
12
12
12
12
12
12
12
12
12
12
12
12
12
12
12
12
12
12
12
12
12
12
12
12
12
12
12
12
12
12
12
12
12
12
12
12
12
12
12
12
12
12
12
12
12
12
12
12
12
12
12
12
12
12
12
12
12
12
12
12
12
12
12
12
12

POINT_DATA 3012
SCALARS Jp_lamdaP float 4
LOOKUP_TABLE default
0.999581 1 1 0.999581
1 1 1 1
0.999593 1 1 0.999593
0.999524 1 1 0.999524
0.999583 1 1 0.999583
0.999557 1 1 0.999557
1.0032 1.00457 1 0.998634
1 1 1 1
1 1 1 1
1 1 1 1
0.999652 1 1 0.999652
0.999917 1.00121 1 0.998707
0.99954 1 1 0.99954
0.999537 1 1 0.999537
0.999597 1 1 0.999597
0.999555 1 1 0.999555
0.999565 1 1 0.999565
0.999604 1 1 0.999604
1.00328 1.00465 1 0.998634
1 1 1 1
0.999509 1 1 0.999509
0.999558 1 1 0.999558
1.00015 1.00164 1 0.998519
1.0025 1.00389 1 0.998617
0.999552 1 1 0.999552
1.00223 1.0036 1 0.998638
1.02345 1.02631 1 0.99721
1 1 1 1
0.999785 1 1 0.999785
0.999798 1 1 0.999798
1 1 1 1
0.999573 1.00086 1 0.998716
0.999561 1 1 0.999561
0.99959 1 1 0.99959
1.00362 1.00481 1 0.998809
1 1 1 1
1.00213 1.00325 1 0.998885
0.998869 1.00007 1 0.998803
1.01374 1.01661 1 0.997174
1 1 1 1
1 1 1 1
0.99977 1 1 0.99977
1 1 1 1
0.99955 1 1 0.99955
0.998452 1 1 0.998452
1 1 1 1
0.999514 1.0008 1 0.998715
0.999582 1 1 0.999582
0.999619 1 1 0.999619
0.999566 1 1 0.999566
1.00337 1.00474 1 0.998639
0.999755 1 1 0.999755
0.999537 1 1 0.999537
0.999567 1 1 0.999567
0.999586 1 1 0.999586
0.999912 1.0014 1 0.998514
1.00243 1.00379 1 0.99864
1.00246 1.00385 1 0.998616
1.02353 1.02641 1 0.997197
1 1 1 1
0.999517 1 1 0.999517
0.99877 1 1 0.99877
0.998831 1.00033 1 0.998497
1.00137 1.00281 1 0.99857
1.02574 1.02885 1 0.996977
1.02409 1.02709 1 0.997079
0.999614 1 1 0.999614
0.999017 1.00029 1 0.998727
1.02097 1.02375 1 0.997286
1.04371 1.04757 1 0.996322
1 1 1 1
1 1 1 1
1 1 1 1
0.999255 1.00053 1 0.998725
1 1 1 1
1 1 1 1
1.00335 1.00477 1 0.998587
0.999866 1 1 0.999866
1.00122 1.00254 1 0.998682
0.999145 1.00011 1.00008 0.99895
1.01279 1.01566 1 0.997169
1 1 1 1
1.00172 1 1.00208 0.99964
1.00266 1.00416 1 0.998503
1.00316 1.00455 1 0.998617
1.02828 1.03162 1 0.996764
0.999683 1 1.00043 0.999251
1.01878 1.02177 1 0.997074
1.00879 1.01147 1.00002 0.997332
1.02795 1.03165 1 0.996415
1 1 1 1
1 1 1 1
1 1 1 1
1 1 1 1
1 1 1 1
0.999774 1 1 0.999774
0.998601 1 1 0.998601
0.999769 1 1 0.999769
1.00005 1.00145 1 0.998599
1 1 1 1
0.998479 1 1 0.998479
0.998765 1.00005 1 0.998719
1.0209 1.02434 1 0.996646
1.00141 1.00266 1 0.998747
1.02855 1.03201 1 0.996651
0.999564 1 1 0.999564
0.999562 1 1 0.999562
0.999577 1 1 0.999577
0.99961 1 1 0.99961
0.999707 1.0012 1 0.99851
1.00244 1.00383 1 0.998619
1.00254 1.0039 1 0.998645
1.02363 1.02652 1 0.997185
1 1 1 1
0.999543 1 1 0.999543
0.998512 1 1 0.998512
0.998742 1.00025 1 0.998489
0.999809 1 1 0.999809
0.999621 1.00081 1 0.998812
1.00123 1.00267 1 0.998568
1.02583 1.02897 1 0.996947
1.02066 1.02346 1 0.997271
1.02457 1.02755 1 0.997101
1.04362 1.04747 1 0.996331
0.998502 1 1 0.998502
0.998506 1 1 0.998505
1.0203 1.02345 1 0.996923
1.02422 1.0274 1 0.996914
1.0254 1.02849 1 0.996992
1.05561 1.05949 1 0.996338
1 1 1 1
1.04749 1.05135 1 0.996328
0.999298 1 1.00039 0.998908
1.01314 1.01595 1 0.997239
1.04022 1.04407 1 0.996316
1.04862 1.05253 1 0.996281
1.0015 1 1.0022 0.999298
1.00651 1 1.00844 0.998087
1 1 1 1
1 1 1 1
1.00327 1.00468 1 0.998592
1 1 1 1
0.999172 1 1.00029 0.998883
1.00083 1.00214 1 0.99869
1.01213 1.015 1 0.997166
1 1 1 1
1.00143 1 1.00177 0.999664
1.00304 1.0044 1 0.998641
1.00294 1.0042 1 0.998744
1.02763 1.03097 1 0.996763
0.99997 1 1.00081 0.999159
1.01874 1.02173 1 0.997076
1.00692 1.00956 1.00006 0.99733
1.02929 1.033 1 0.99641
1.00117 1 1.00177 0.999402
1.00068 1 1.00087 0.999808
1.00443 1.00007 1.00595 0.998414
1.0303 1.03374 1 0.996674
1.02477 1.02794 1 0.996916
1.05089 1.05489 1 0.996209
1.00362 1.00521 1.00078 0.997636
1.03729 1.04103 1 0.996411
1.01931 1.02232 1.00057 0.99649
1.03672 1.04058 1 0.99629
1 1 1 1
1 1 1 1
1 1 1 1
1.00174 1 1.00227 0.999468
1 1 1 1
1 1 1 1
1 1 1 1
1.00037 1.00189 1 0.998486
0.998488 1 1 0.998488
1 1 1 1
1 1 1 1
0.99848 1 1 0.99848
0.998826 1.00022 1 0.998605
1.0217 1.02514 1 0.996646
1.00161 1.00312 1 0.998494
1.02808 1.03154 1 0.99665
0.99848 1 1 0.99848
1.01954 1.023 1 0.996622
1.02399 1.02742 1 0.996662
1.06021 1.0642 0.999901 0.996357
1.03055 1.03402 1 0.996643
1.06246 1.06638 1 0.996321
1 1 1 1
0.99957 1 1 0.99957
0.998225 1 1 0.998225
0.998652 1.00017 1 0.998482
1 1 1 1
1.00045 1.00155 1 0.9989
1.0011 1.00253 1 0.998568
1.02597 1.02914 1 0.996918
1.02519 1.02815 1 0.997124
1.02021 1.02302 1 0.997255
1.04354 1.04737 1 0.99634
0.9985 1 1 0.9985
0.9985 1 1 0.998497
1.02024 1.02353 1 0.996786
1.02447 1.02763 1 0.996929
1 1 1 1
0.999439 1.00027 1.00019 0.998979
1.01468 1.0174 1 0.997328
1.02576 1.02886 1 0.996986
1.05568 1.05956 1 0.996339
1.04014 1.04399 1 0.996312
1.04769 1.05152 1 0.996361
1.04819 1.05209 1 0.996291
1.00132 1 1.00204 0.999285
1.00534 1.00001 1.00726 0.998089
1.0195 1.02293 1 0.996643
1.02134 1.02449 1 0.996928
1.0572 1.06103 1 0.996394
1.05629 1.06078 0.999417 0.996348
1.05193 1.05574 1 0.996398
1.05865 1.06321 0.999189 0.996521
1.00044 1 1.00134 0.999104
1.05161 1.0554 1 0.996409
1.00683 1.00931 1.00011 0.997437
1.03462 1.0384 1 0.996358
1.04603 1.05005 1 0.996167
1.04796 1.0516 1 0.996546
1.00335 1.00083 1.00471 0.997822
1.00642 1 1.00802 0.998408
1.00422 1.00139 1.00546 0.997381
1.00315 1.00462 1 0.998536
1 1 1 1
1.00089 1 1.0012 0.999688
1.00241 1.00376 1 0.998653
1.02708 1.03042 1 0.996762
1.00018 1 1.00102 0.999159
1.00531 1.00796 1.00004 0.997328
1.01802 1.021 1 0.997078
1.03071 1.03443 1 0.996405
1.00127 1 1.00184 0.999424
1.00034 1 1.00051 0.999827
1.00539 1 1.00699 0.998413
1.02952 1.03296 1 0.99667
1.0241 1.02726 1 0.996918
1.05102 1.05503 1 0.996203
1.00213 1.00393 1.00057 0.997641
1.038 1.04174 1 0.996412
1.02118 1.0243 1.00047 0.996483
1.03788 1.04174 1 0.996293
1.00004 1 1.00014 0.9999
1.00285 1.00137 1.00349 0.997994
1.00431 1 1.00547 0.998848
1.00588 1.00137 1.0068 0.997725
1.05544 1.05946 1 0.996206
1.045 1.04888 1 0.9963
1.05309 1.05708 1 0.996223
1.01158 1.01429 1.00049 0.99684
1.04059 1.04437 1 0.99638
1.0336 1.03591 1.00158 0.996196
1.04622 1.05016 1 0.99625
0.999563 1 1 0.999563
0.999969 1 1 0.999969
1 1 1 1
1 1 1 1
1 1 1 1
1.00122 1 1.00158 0.999635
1 1 1 1
1.00192 1 1.00247 0.999452
1 1 1 1
1.00211 1.00362 1 0.998495
0.999033 1.00054 1 0.998491
1.02807 1.03153 1 0.996649
1.02246 1.02591 1 0.996647
0.998482 1 1 0.998482
1 1 1 1
0.99848 1 1 0.99848
1.01984 1.0233 1 0.996622
1.02495 1.02839 1 0.996661
1.05934 1.06326 0.999954 0.996356
1.02988 1.03335 1 0.99664
1.06203 1.06596 1 0.996318
1.0192 1.02266 1 0.996622
1.05776 1.06169 0.999956 0.996336
1.06273 1.06667 0.999952 0.996354
1.06187 1.06993 0.995763 0.996694
1.05993 1.0639 1 0.996262
1.0625 1.0683 0.99798 0.996585
0.998498 1 1 0.998498
0.998489 1 1 0.998489
1.0202 1.02363 1 0.99665
1.02461 1.02776 1 0.996944
1 1 1 1
0.999404 1.00034 1.00001 0.999051
1.01593 1.01856 1 0.997416
1.02611 1.02922 1 0.99698
1.05566 1.05954 1 0.99634
1.04773 1.05152 1 0.996394
1.04029 1.04415 1 0.996308
1.04785 1.05174 1 0.9963
1.00131 1 1.00204 0.999273
1.00498 1.00023 1.00667 0.998091
1.01939 1.02283 1 0.996633
1.02145 1.02461 1 0.996922
1.0568 1.06089 0.999726 0.996421
1.05703 1.06124 0.999692 0.996343
1.00009 1 1.00099 0.999093
1.00849 1.01096 1.00012 0.997436
1.03395 1.0377 1 0.996385
1.05182 1.05565 1 0.996376
1.05797 1.0628 0.998878 0.996571
1.0458 1.04983 1 0.996157
1.05155 1.05533 1 0.996414
1.04802 1.05166 1 0.99654
1.00375 1.00144 1.00449 0.997822
1.00504 1.00173 1.00594 0.997377
1.00675 1 1.00835 0.998408
1.05646 1.06031 1 0.996372
1.05748 1.06176 0.99954 0.996425
1.06139 1.06794 0.997227 0.996624
1.05926 1.06548 0.997568 0.996584
1.05399 1.05837 0.999329 0.996527
1.05069 1.06039 0.993957 0.996875
1.00176 1.00348 1.00064 0.99764
1.04951 1.05413 0.998911 0.996706
1.02143 1.02488 1 0.996634
1.038 1.04217 1 0.995994
1.04393 1.04793 1 0.996187
1.04137 1.04511 0.9996 0.996815
1.00549 1 1.00679 0.998706
1.00227 1.00439 1.00067 0.99722
1.0085 1 1.01098 0.99755
1.00439 1.00467 1.00266 0.997073
1.02881 1.03225 1 0.996667
1.00003 1 1.00019 0.999845
1.00149 1 1.00205 0.999447
1.00704 1 1.00864 0.998413
1.02354 1.0267 1 0.996921
1.05107 1.05508 1 0.996197
1.00012 1.00207 1.00041 0.997646
1.02191 1.02519 1.00033 0.996475
1.03911 1.04285 1 0.996412
1.0378 1.04166 1 0.996295
0.999921 1 1.00001 0.999913
1.00307 1.00078 1.0043 0.997997
1.00423 1 1.00538 0.998856
1.00554 1.00081 1.00703 0.99772
1.05547 1.0595 1 0.9962
1.0452 1.04909 1 0.996297
1.0526 1.05659 1 0.99622
1.00936 1.0121 1.00045 0.996847
1.0402 1.04399 1 0.996372
1.03169 1.03385 1.00173 0.996183
1.04575 1.0496 1 0.996337
0.999947 1 1 0.999947
1.00184 1 1.00266 0.999179
1.00547 1.00624 1.00191 0.997324
1.0077 1.0002 1.0094 0.998105
1.00355 1.00288 1.00322 0.997464
1.05815 1.06206 1 0.996311
1.04645 1.05038 1 0.996266
1.04765 1.05145 1 0.996386
1.01384 1.01543 1.00199 0.996452
1.03984 1.04359 1 0.996408
1.0271 1.03033 1.00086 0.996005
0.9995 1 1 0.9995
0.999378 1 1.00045 0.998932
0.999617 1 1 0.999617
0.999565 1 1 0.999565
0.999981 1 1 0.999981
0.999972 1 1 0.999972
1 1 1 1
1 1 1 1
1 1 1 1
1.00026 1 1.00046 0.999802
1 1 1 1
1.00158 1 1.00196 0.999619
1 1 1 1
1.0017 1 1.00226 0.999437
1 1 1 1
1.02914 1.03261 1 0.996636
1.02558 1.02901 1 0.99666
1.06122 1.06515 1 0.996315
1.05842 1.0623 0.999991 0.996354
1.0202 1.02366 1 0.996623
0.998479 1 1 0.998479
1.01926 1.02272 1 0.996622
1.05762 1.06153 0.999978 0.996337
1.06126 1.06518 0.999963 0.996352
1.06178 1.07028 0.99533 0.996712
1.05952 1.0635 1 0.996257
1.06284 1.06849 0.998122 0.996583
1.05653 1.06044 0.999992 0.996327
1.06159 1.06979 0.995604 0.996718
1.06183 1.06952 0.996137 0.996662
1.05618 1.06662 0.993264 0.996928
1.06053 1.06481 0.999519 0.996459
1.05547 1.06833 0.991 0.99693
1.0193 1.02276 1 0.996623
1.02159 1.02475 1 0.996916
1.05641 1.06077 0.999438 0.996448
1.0579 1.06179 1 0.996338
0.999736 1 1.00065 0.999083
1.01073 1.01322 1.00011 0.997435
1.03421 1.03793 1 0.996412
1.05173 1.05558 1 0.996353
1.05728 1.06242 0.99854 0.99662
1.05151 1.05529 1 0.996418
1.04548 1.04952 1 0.996146
1.04819 1.05184 1 0.996533
1.00377 1.00195 1.004 0.997822
1.00565 1.002 1.00629 0.997372
1.00677 1 1.00837 0.998408
1.05648 1.06035 1 0.996357
1.0574 1.06182 0.999416 0.996423
1.06082 1.06789 0.996696 0.996671
1.05901 1.06499 0.997811 0.99656
1.00365 1.00519 1.00083 0.997637
1.02173 1.02518 1 0.996632
1.03679 1.04089 1.00003 0.996029
1.05438 1.05853 0.999588 0.996486
1.05043 1.06078 0.993298 0.996924
1.04496 1.049 1 0.996148
1.04979 1.05437 0.998941 0.996708
1.04248 1.0461 0.999688 0.996852
1.00374 1.00536 1.00117 0.99722
1.00428 1.00447 1.00279 0.997032
1.00522 1 1.00652 0.998703
1.00819 1.00001 1.01061 0.99759
1.06083 1.06795 0.99665 0.996669
1.06188 1.06877 0.996937 0.996609
1.051 1.06188 0.992887 0.996845
1.049 1.06246 0.990344 0.996951
1.05036 1.0574 0.996475 0.996852
1.04868 1.06132 0.990965 0.997101
1.00887 1.01195 1 0.996953
1.04195 1.04962 0.995601 0.997076
1.0243 1.0282 1 0.996207
1.03449 1.03864 1.00018 0.995826
1.04479 1.04879 1 0.996189
1.04433 1.04779 0.999823 0.996881
1.00111 1 1.00214 0.998971
1.01091 1 1.01309 0.99785
1.00543 1.00858 1 0.99688
1.00583 1.00215 1.00645 0.997243
1.0063 1.00581 1.00361 0.996889
0.999925 1 1 0.999925
1.05545 1.05948 1 0.996193
1.00392 1 1.00506 0.998864
1.0034 1.00042 1.00499 0.997999
1.005 1.00027 1.00703 0.997714
1.04535 1.04924 1 0.996295
1.05218 1.05617 1 0.996217
1.00882 1.01149 1.00051 0.996853
1.03188 1.03385 1.00193 0.996171
1.03991 1.0437 1 0.996363
1.04609 1.04984 1 0.996424
0.999954 1 1 0.999954
1.00146 1 1.00227 0.999189
1.00345 1.00479 1.00134 0.99733
1.00891 1.00011 1.01072 0.998101
1.00337 1.00232 1.00363 0.997431
1.05795 1.06187 1 0.996306
1.04622 1.05015 1 0.996264
1.04764 1.05146 0.999988 0.996374
1.01508 1.01653 1.00213 0.996452
1.04278 1.04655 1 0.996395
1.0274 1.0305 1.00096 0.996034
0.999967 1 1.00058 0.999388
1.00452 1 1.00604 0.99849
1.00196 1.00454 1.00048 0.996962
1.00961 1.00213 1.00974 0.997743
1.00447 1.00508 1.00203 0.997365
1.05498 1.05954 0.999154 0.996538
1.04179 1.04559 1 0.996364
1.04691 1.0507 0.999793 0.996601
1.00527 1.0052 1.00379 0.996292
1.0247 1.02881 1 0.996002
0.999503 1 1 0.999503
0.998846 1 1 0.998846
0.999508 1 1.0006 0.998907
0.999363 1 1.00072 0.998649
0.999442 1 1.00047 0.998975
0.99965 1 1 0.99965
0.999619 1 1 0.999619
0.99999 1 1 0.99999
0.999567 1 1 0.999567
0.999984 1 1 0.999984
1 1 1 1
0.999976 1 1 0.999976
1 1 1 1
1 1 1 1
0.999926 1 1 0.999926
1.00077 1 1.00099 0.999782
1 1 1 1
1 1 1 1
1.00213 1 1.00253 0.999602
1 1 1 1
1.05918 1.06317 1 0.996252
1.06018 1.06406 1 0.99635
1.06335 1.06887 0.998245 0.996582
1.06176 1.07071 0.994891 0.99673
1.0574 1.06128 1 0.996337
1.01928 1.02273 1 0.996621
1.0566 1.0605 1 0.996328
1.06134 1.06944 0.995697 0.996712
1.06251 1.07018 0.996151 0.996662
1.05565 1.06662 0.992737 0.996958
1.06137 1.06559 0.999587 0.996453
1.05576 1.06837 0.991223 0.996952
1.06122 1.06889 0.996122 0.996688
1.05382 1.06549 0.992118 0.996906
1.0562 1.06796 0.991975 0.996997
1.056 1.07049 0.989351 0.997079
1.05719 1.06555 0.995369 0.996765
1.05565 1.07188 0.987661 0.997155
1.05644 1.06032 1 0.996341
1.05728 1.06184 0.999285 0.996421
1.06023 1.0678 0.996179 0.996717
1.05865 1.06442 0.998029 0.996536
1.00516 1.00649 1.00104 0.997635
1.0203 1.02375 1 0.996629
1.03491 1.03882 1.00018 0.996064
1.05477 1.05867 0.999866 0.996445
1.05019 1.06113 0.992691 0.996973
1.04996 1.05451 0.998964 0.99671
1.04576 1.04984 1 0.996109
1.04303 1.04652 0.999773 0.996889
1.00557 1.00656 1.00181 0.997219
1.0041 1.00422 1.0029 0.996991
1.00526 1 1.00657 0.9987
1.00767 1.00012 1.00994 0.997631
1.06085 1.06797 0.99665 0.996668
1.06149 1.06829 0.997036 0.996591
1.05112 1.06213 0.992733 0.996877
1.05 1.06268 0.991107 0.996934
1.0094 1.01248 1.00001 0.996945
1.0228 1.02662 1.00003 0.996245
1.03434 1.03828 1.00039 0.995815
1.05091 1.05741 0.997042 0.996801
1.04735 1.06039 0.99052 0.997157
1.04123 1.04523 1 0.996175
1.04296 1.05068 0.995568 0.997076
1.0451 1.04853 0.999784 0.996945
1.00481 1.00795 1 0.996882
1.00512 1.00583 1.00242 0.996879
1.00655 1.00195 1.00737 0.997239
1.00192 1 1.00298 0.998937
1.01053 1 1.01266 0.997894
1.0524 1.06417 0.992024 0.996891
1.0524 1.06501 0.991219 0.996914
1.04811 1.06567 0.98634 0.997141
1.04316 1.05696 0.989751 0.997163
1.01181 1.01527 1 0.996598
1.04713 1.0552 0.995089 0.99725
1.01374 1.01755 1.00029 0.995971
1.02885 1.03283 1.00051 0.995645
1.03765 1.04163 1 0.996182
0.999683 1 1.00048 0.999208
1.00804 1 1.00979 0.998261
1.00754 1 1.00998 0.997584
1.00473 1.00762 1.00039 0.99674
1.00614 1.00284 1.0064 0.99691
1.0072 1.00683 1.00366 0.996721
0.999961 1 1 0.999961
1.0007 1 1.0015 0.9992
1.05772 1.06165 1 0.9963
1.01013 1 1.01206 0.998097
1.00063 1.00256 1.00074 0.997336
1.00309 1.0018 1.0039 0.997398
1.04586 1.04978 1 0.996262
1.04767 1.05151 0.999978 0.996363
1.01514 1.01643 1.00229 0.996453
1.02647 1.02973 1.00077 0.996063
1.0458 1.04959 1 0.996383
0.999624 1 1.00023 0.999394
1.00512 1 1.00664 0.998493
1.00402 1.00667 1.00041 0.996948
1.01008 1.00167 1.01068 0.997737
1.00467 1.00558 1.00174 0.997359
1.05434 1.05878 0.999268 0.996532
1.04298 1.0468 1 0.996351
1.04732 1.0511 0.999777 0.996626
1.00662 1.00713 1.00324 0.996257
1.02315 1.02724 1.00006 0.995972
1.0005 1 1.00174 0.998763
1.01001 1 1.01198 0.998054
1.00469 1.00591 1.002 0.996799
1.01035 1.00559 1.00726 0.997489
1.01453 1.01638 1.001 0.997195
1.04839 1.05825 0.993629 0.99703
1.04383 1.04776 1 0.996244
1.04706 1.05082 0.999823 0.996597
1.00814 1.00764 1.00433 0.996174
1.01167 1.01597 1 0.995776
0.999505 1 1 0.999505
0.998864 1 1 0.998864
0.9986 1 1.00001 0.998595
0.999248 1 1.00037 0.998881
0.999264 1 1.00029 0.998973
0.999723 1 1.0011 0.998625
0.999249 1 1.00067 0.998582
1.00033 1 1.00177 0.998566
0.999078 1 1.00007 0.999012
0.999645 1 1 0.999645
0.999651 1 1 0.999651
0.999997 1 1 0.999997
0.999622 1 1 0.999622
0.999992 1 1 0.999992
1 1 1 1
0.999987 1 1 0.999987
1 1 1 1
1 1 1 1
0.999983 1 1 0.999983
0.999905 1 1 0.999905
1 1 1 1
1.00114 1 1.00138 0.999761
1 1 1 1
1 1 1 1
1.0622 1.06635 0.99966 0.996447
1.06293 1.07059 0.996177 0.996663
1.05601 1.06833 0.991462 0.996975
1.05511 1.06658 0.992231 0.996988
1.06111 1.06911 0.995801 0.996707
1.05674 1.06063 1 0.996329
1.06118 1.06865 0.996329 0.996669
1.05441 1.06568 0.992504 0.996899
1.05552 1.06738 0.991887 0.996982
1.05466 1.0699 0.988629 0.99709
1.05681 1.06487 0.995649 0.996767
1.05334 1.07037 0.986866 0.997193
1.05455 1.06535 0.992963 0.996881
1.05572 1.07158 0.988091 0.997078
1.05647 1.07287 0.987505 0.997172
1.04907 1.06761 0.985387 0.997213
1.06093 1.06805 0.996649 0.996668
1.06118 1.06788 0.997139 0.996572
1.05127 1.06241 0.992579 0.996908
1.05108 1.06301 0.991835 0.996917
1.01072 1.01382 1 0.996938
1.02203 1.02584 1 0.996284
1.03422 1.03798 1.00058 0.995804
1.05139 1.05739 0.99757 0.99675
1.046 1.05949 0.99003 0.997213
1.04407 1.05183 0.995531 0.997077
1.03847 1.04248 1 0.996159
1.04668 1.0501 0.999736 0.997009
1.003 1.0061 1.00003 0.996884
1.00461 1.0064 1.00136 0.996868
1.00757 1.00165 1.00871 0.997233
1.00233 1 1.00342 0.998904
1.01038 1 1.01247 0.997938
1.05259 1.0643 0.992079 0.996893
1.05293 1.0656 0.991171 0.99691
1.04827 1.06492 0.987199 0.997134
1.01174 1.0152 1 0.996595
1.01409 1.01789 1.00026 0.996009
1.02714 1.03086 1.00076 0.995633
1.04352 1.05688 0.990176 0.997149
1.04092 1.04481 0.999977 0.996299
1.04345 1.05178 0.99485 0.997216
0.999753 1 1.0005 0.999251
1.00475 1.00698 1.00106 0.996734
1.00616 1.00536 1.00398 0.996834
1.00874 1.00419 1.00765 0.996905
1.00837 1.00037 1.01042 0.997607
1.00814 1 1.00993 0.998227
1.05431 1.06958 0.988726 0.996966
1.05228 1.07283 0.983722 0.997074
1.04176 1.06345 0.982337 0.997221
1.0395 1.05908 0.984109 0.997361
1.00851 1.01214 1 0.99641
1.03853 1.0441 0.997842 0.996813
1.00594 1.00874 1.00165 0.995588
1.01645 1.02 1.00104 0.995488
0.999551 1 1 0.999551
1.00213 1 1.00351 0.998623
1.00784 1 1.00995 0.997909
1.00822 1.00076 1.01037 0.997108
1.00496 1.00491 1.00347 0.996593
1.01061 1.00398 1.01009 0.996554
0.999426 1 1.00003 0.9994
1.00609 1 1.0076 0.998498
1.05384 1.05817 0.999381 0.996526
1.01042 1.00108 1.01163 0.997731
1.00618 1.009 1.00027 0.996935
1.00412 1.00525 1.00152 0.997352
1.04433 1.04816 1 0.996338
1.04771 1.05148 0.999766 0.996651
1.00828 1.00935 1.00273 0.996222
1.02153 1.02541 1.00027 0.995941
1.00046 1 1.0017 0.998767
1.01048 1 1.01247 0.998035
1.00504 1.00627 1.00198 0.996807
1.01004 1.00591 1.00664 0.997495
1.01576 1.01806 1.00048 0.99726
1.05041 1.06012 0.993745 0.997077
1.04324 1.04714 1 0.996275
1.04795 1.05171 0.999752 0.996674
1.00851 1.0078 1.00458 0.996141
1.01141 1.01575 1.00003 0.995697
1.00167 1 1.00322 0.998449
1.01095 1.00163 1.01167 0.997673
1.01109 1.01058 1.00378 0.996731
1.0132 1.01454 1.00161 0.997076
1.04743 1.07729 0.974886 0.997328
1.04609 1.05274 0.996576 0.997093
1.03013 1.03437 1 0.995901
1.01426 1.01426 1.00426 0.995764
0.998881 1 1 0.998881
0.998708 1 1.0001 0.998605
0.998615 1 1 0.998615
0.999497 1 1.00053 0.998972
1.00032 1 1.00172 0.9986
0.999151 1 1.00014 0.99901
0.999076 1 1.00048 0.998598
1.0007 1 1.00212 0.998574
0.998696 1 1 0.998696
1.00089 1 1.00246 0.998434
1.00033 1 1.0018 0.998532
0.998992 1 1 0.998992
0.999609 1 1 0.999609
0.999643 1 1 0.999643
0.999999 1 1 0.999999
0.999651 1 1 0.999651
0.999998 1 1 0.999998
1 1 1 1
0.999995 1 1 0.999995
1 1 1 1
1 1 1 1
0.999998 1 1 0.999998
0.999971 1 1 0.999971
1 1 1 1
1.00002 1 1.00014 0.999884
1 1 1 1
1 1 1 1
1.05636 1.06412 0.995925 0.996769
1.05496 1.06693 0.991792 0.996967
1.05114 1.06893 0.986085 0.997231
1.05331 1.06934 0.987873 0.997101
1.05501 1.0659 0.992866 0.996892
1.06112 1.06839 0.996533 0.99665
1.05432 1.06522 0.992857 0.996881
1.05552 1.07123 0.988236 0.997069
1.05495 1.07202 0.986871 0.997171
1.05008 1.0684 0.985595 0.997224
1.05673 1.0715 0.989161 0.997024
1.05698 1.07807 0.983157 0.997228
1.05605 1.07949 0.980949 0.997284
1.05277 1.06442 0.992133 0.996895
1.0534 1.06611 0.991144 0.996906
1.04851 1.06414 0.988152 0.997126
1.01262 1.01609 1 0.996592
1.01387 1.01771 1.00018 0.996047
1.02515 1.02878 1.00085 0.995621
1.04392 1.05686 0.990589 0.997136
1.03941 1.04834 0.994281 0.997182
1.0437 1.04752 0.999939 0.996415
1.00401 1.00576 1.00154 0.996728
1.00185 1.00202 1.00289 0.996948
1.01059 1.00516 1.00854 0.996899
0.999798 1 1.0005 0.999296
1.00807 1.00073 1.00972 0.99763
1.00848 1 1.0103 0.998192
1.05507 1.07003 0.989019 0.996975
1.05151 1.07253 0.983269 0.997079
1.04204 1.06329 0.982761 0.997213
1.00603 1.00966 1 0.996403
1.00576 1.00873 1.0014 0.995663
1.0166 1.0202 1.0009 0.995579
1.03983 1.05878 0.984698 0.997364
1.03481 1.04112 0.997146 0.996791
0.999621 1 1 0.999621
1.00213 1 1.00351 0.99862
1.0021 1.00343 1.00205 0.996635
1.01299 1.0032 1.01309 0.996712
1.00818 1.00153 1.00951 0.997158
1.00773 1 1.00988 0.997867
1.05456 1.07617 0.982721 0.997148
1.04264 1.07455 0.973053 0.997175
1.0387 1.06331 0.979399 0.997407
1.02926 1.04558 0.986998 0.997362
1.00227 1.00482 1.00133 0.996137
1.01805 1.02099 1.00122 0.995906
1.0067 1.0087 1.00264 0.995386
0.999804 1 1 0.999804
0.999266 1 1 0.999266
0.999377 1 1.00042 0.998961
1.00278 1 1.00467 0.998125
1.0087 1 1.01123 0.997505
1.0115 1.00165 1.013 0.99688
1.00216 1.00192 1.00348 0.996772
1.03777 1.00171 1.0391 0.997008
1.00024 1 1.00147 0.99877
1.01094 1 1.01295 0.998016
1.05252 1.06204 0.993896 0.997124
1.01148 1.00767 1.0063 0.9975
1.00562 1.00666 1.00215 0.996816
1.01667 1.01936 1.00004 0.997324
1.04252 1.04638 1 0.996305
1.04878 1.05254 0.999679 0.996751
1.00878 1.00787 1.00482 0.996108
1.0109 1.01535 1 0.995618
1.00204 1 1.00364 0.998408
1.00951 1.00077 1.01109 0.997673
1.01403 1.01313 1.00415 0.996753
1.01322 1.01471 1.00142 0.997116
1.04898 1.07969 0.974143 0.997347
1.04817 1.05408 0.997346 0.997039
1.0292 1.03338 1 0.995954
1.01612 1.01666 1.00377 0.995712
1.00311 1 1.0049 0.998222
1.05362 1.08501 0.973652 0.997353
1.00455 1.00156 1.0057 0.997303
1.01388 1.01471 1.00268 0.996512
1.03738 1.06429 0.977193 0.997461
1.02547 1.02981 0.999743 0.996042
1.01177 1.01307 1.00323 0.995495
0.998614 1 1 0.998614
0.998461 0.999804 1.00005 0.998605
0.999154 0.999787 1.00063 0.998734
0.999048 1 1.00004 0.999008
1.00076 1 1.00218 0.998583
0.999191 1 1.00058 0.998613
0.998989 1 1 0.998989
1.00042 1 1.00188 0.998537
0.998725 1 1.00001 0.998719
1.00036 1 1.00191 0.998447
0.998815 1 1 0.998815
0.998838 1 1.00027 0.998572
1.00085 1 1.00256 0.9983
0.998757 1 1.0003 0.998457
0.998912 1 1 0.998912
0.999564 1 1 0.999564
0.999605 1 1 0.999605
1 1 1 1
0.999641 1 1 0.999641
1 1 1 1
1 1 1 1
0.999999 1 1 0.999999
1 1 1 1
1 1 1 1
0.999833 1 1 0.999833
1 1 1 1
0.999996 1 1 0.999996
1 1 1 1
0.999959 1 1 0.999959
1 1 1 1
1 1 1 1
1.05109 1.06918 0.985801 0.997234
1.05343 1.07112 0.986279 0.997169
1.05533 1.07086 0.988404 0.99706
1.05406 1.06507 0.992755 0.996881
1.05633 1.07143 0.988834 0.997043
1.05683 1.0776 0.983462 0.997219
1.05349 1.07684 0.980978 0.997291
1.05652 1.07814 0.982688 0.99721
1.0678 1.09148 0.980937 0.997315
1.06531 1.09224 0.977706 0.997582
1.05582 1.07045 0.989317 0.996983
1.05059 1.07225 0.982664 0.997085
1.04234 1.06316 0.983172 0.997204
1.0051 1.00868 1.00006 0.996397
1.00649 1.00952 1.00126 0.99574
1.01883 1.02247 1.00078 0.99567
1.04035 1.05824 0.985694 0.997367
1.03073 1.0374 0.996789 0.996769
1.00305 1.00369 1.0027 0.996679
1.01688 1.00373 1.01628 0.996866
1.00933 1.0021 1.01003 0.997208
0.999691 1 1 0.999691
1.00203 1 1.00342 0.998618
1.00778 1 1.00998 0.997825
1.05438 1.07651 0.982242 0.997159
0.999799 1 1 0.999799
0.999228 1 1 0.999228
1.04368 1.07364 0.974845 0.997177
1.03681 1.06184 0.978996 0.997376
1.00314 1.00501 1.00192 0.99622
1.00659 1.00791 1.00332 0.995387
1.01758 1.02166 1.00012 0.995894
1.02824 1.04535 0.986253 0.997335
0.999491 1 1.00044 0.999047
1.00289 1 1.00478 0.998115
1.00285 1.00183 1.00437 0.996664
1.03235 1.0017 1.03355 0.997149
1.00891 1.00109 1.01094 0.996897
1.00798 1 1.01049 0.99752
1.0649 1.09175 0.978081 0.997267
1.02391 1.07214 0.957587 0.997309
1.02443 1.05313 0.975135 0.997555
1.01034 1.0258 0.987837 0.997055
1.00553 1.0028 1.0064 0.996351
1.00655 1.00565 1.0055 0.995421
0.99918 1 1 0.99918
0.999235 1 1 0.999235
0.998922 1 1 0.998922
0.998798 1 1.00045 0.998346
1.00709 1 1.00926 0.99785
1.00616 1.00036 1.00866 0.997157
1.05358 1.00014 1.05667 0.996935
0.998861 1.00049 1.00092 0.997447
1.00281 1 1.00445 0.998368
1.0076 1 1.00995 0.997673
1.04989 1.08111 0.973682 0.997367
1.04984 1.05503 0.998089 0.996986
1.01335 1.01507 1.00115 0.997155
1.01742 1.01622 1.00441 0.996775
1.02864 1.03273 1.00004 0.996006
1.01852 1.01954 1.00335 0.99566
1.00319 1 1.005 0.998201
1.05659 1.08866 0.973059 0.997416
1.00482 1.00088 1.00662 0.997338
1.01211 1.01299 1.00269 0.996448
1.03676 1.06361 0.977262 0.997436
1.02438 1.02862 0.999751 0.996129
1.01297 1.01401 1.00348 0.99551
1.00636 0.999768 1.00869 0.997921
1.01161 1.05161 0.964044 0.997839
1.00448 1.00299 1.00447 0.997038
1.00503 1.00527 1.00379 0.995981
1.01771 1.03195 0.989184 0.996987
1.00282 1.00489 1.00221 0.995732
0.969445 1.00317 0.969245 0.997044
0.99811 0.999348 1.00017 0.998595
0.999082 0.998948 1.0014 0.998736
1.00005 0.999967 1.00142 0.998668
0.998985 1 1 0.998985
1.00106 1 1.00252 0.998543
0.999475 1 1.00102 0.99846
0.998803 1 1.00006 0.998742
0.998911 1 1 0.998911
0.998887 1 1.00044 0.998452
0.998781 1 1 0.998781
1.00078 1 1.00248 0.998301
0.998801 1 1.00025 0.998547
0.999246 1 1.00048 0.99877
0.998786 1 1.00067 0.998121
1.00173 1 1.00347 0.998269
0.998497 1 1.00017 0.998329
0.998757 1 1 0.998757
0.999652 1 1.00114 0.998516
0.998986 1 1.00026 0.998723
0.999543 1 1 0.999543
0.999561 1 1 0.999561
1 1 1 1
0.999601 1 1 0.999601
1 1 1 1
1 1 1 1
1 1 1 1
1 1 1 1
1 1 1 1
0.999865 1 1 0.999865
0.999834 1 1 0.999834
1 1 1 1
1 1 1 1
1 1 1 1
0.999992 1 1 0.999992
1 1 1 1
1 1 1 1
1.0511 1.07449 0.980884 0.997298
1.0565 1.07706 0.983659 0.99721
1.05598 1.07141 0.988507 0.997062
1.0564 1.07796 0.982751 0.997209
1.06505 1.08892 0.980719 0.997311
1.06416 1.09035 0.978432 0.997502
1.07102 1.09959 0.976574 0.99738
0.967182 1.01605 0.956536 0.995153
1.01825 1.05317 0.968493 0.998296
0.999339 1 1 0.999339
1.05423 1.0768 0.981828 0.997169
1.04482 1.07285 0.976631 0.997179
1.03471 1.06057 0.978213 0.997346
1.00004 1.00293 1.00082 0.9963
1.00505 1.00567 1.00402 0.995386
1.01642 1.02113 0.999499 0.995883
1.02685 1.0451 0.985192 0.997308
0.998834 1.00199 1.00029 0.996559
1.02609 1.00075 1.0281 0.997294
1.00576 1.00015 1.00873 0.996913
0.999794 1 1 0.999794
1.00868 1 1.01117 0.997535
0.999533 1 1.0004 0.999132
1.00306 1 1.00497 0.998105
0.99919 1 1 0.99919
1.0613 1.09193 0.974609 0.997274
0.999229 1 1 0.999229
0.999235 1 1 0.999235
0.998626 1.00018 0.999563 0.998885
1.0285 1.07268 0.9614 0.997307
1.02432 1.05302 0.975176 0.997507
1.00192 1.00217 1.00338 0.996382
1.01092 1.00996 1.00542 0.995554
1.0091 1.02352 0.988833 0.997037
0.998914 1 1.00051 0.998406
1.00689 1 1.00912 0.997797
1.00834 1.00031 1.01074 0.997315
1.0431 1.00027 1.046 0.996954
1.00605 1.00059 1.00826 0.997209
1.03935 1.08028 0.964634 0.997383
1.00403 1.06002 0.949585 0.997467
1.01644 1.03501 0.984818 0.997199
0.991767 1.01047 0.98464 0.996799
1.0038 1 1.00674 0.997073
0.998751 1 1 0.998751
0.99868 1 1 0.99868
0.999701 1 1.00106 0.998644
1.0073 1 1.00918 0.998136
1.00955 1 1.01187 0.997708
1.03968 0.999942 1.04257 0.997286
1.03239 1.00168 1.03332 0.997424
1.00315 1 1.00498 0.998179
1.00471 1 1.00736 0.997373
1.05852 1.09308 0.970831 0.997476
1.03666 1.06374 0.977067 0.99741
1.02361 1.02778 0.999719 0.996216
1.00942 1.01038 1.00268 0.996385
1.01364 1.01454 1.0036 0.995526
1.00638 0.999943 1.00849 0.997968
1.01193 1.05233 0.963646 0.997883
1.00155 1.00189 1.00262 0.997046
1.00401 1.00397 1.00408 0.995981
1.01641 1.03167 0.988063 0.99711
1.00343 1.00499 1.00273 0.995727
0.970013 1.00312 0.970892 0.995984
1.0067 1.00016 1.00872 0.99784
0.999838 1.02482 0.977748 0.997829
1.00066 1.00137 1.00243 0.996865
1.00425 1.00155 1.00644 0.996278
0.99194 1.00613 0.988993 0.996868
0.908239 0.975761 0.956374 0.97326
0.901816 0.966163 0.946511 0.986147
0.965801 0.983341 0.984886 0.997235
0.713546 0.830115 0.908942 0.945687
0.629384 0.785374 0.862888 0.928719
0.999077 0.998221 1.00212 0.998738
1.00093 0.998824 1.0034 0.998721
1.00092 1 1.00222 0.998703
0.99891 1 1 0.99891
0.998787 1 1.00034 0.998447
1.00022 1 1.00192 0.998302
0.998771 1 1.00025 0.998523
0.998747 1 1 0.998747
1.00239 1 1.00415 0.998247
0.998793 1 1 0.998793
0.998486 1 1.00014 0.99835
0.999134 1 1.00042 0.998719
0.999122 1 1.00095 0.998173
1.00363 1 1.00546 0.998187
1.00426 1 1.00592 0.998346
1.00303 1 1.00485 0.998189
0.999012 1 1.00077 0.998244
0.998722 1 1 0.998722
0.999147 1 1.00081 0.998342
0.999459 1 1.00108 0.998377
0.99932 1 1.00076 0.998559
0.999651 1 1.00118 0.998477
0.998876 1 1.00003 0.998846
0.999091 1 1.00037 0.99872
0.999537 1 1 0.999537
0.999543 1 1 0.999543
1 1 1 1
0.999558 1 1 0.999558
1 1 1 1
1 1 1 1
1 1 1 1
1 1 1 1
1 1 1 1
0.999903 1 1 0.999903
0.999862 1 1 0.999862
1 1 1 1
0.999835 1 1 0.999835
1 1 1 1
1 1 1 1
1 1 1 1
1 1 1 1
1 1 1 1
1.06198 1.08608 0.980449 0.997307
1.05642 1.07786 0.982857 0.997207
1.06325 1.08824 0.979557 0.997423
0.968322 1.01584 0.957786 0.995235
1.06805 1.09699 0.976181 0.99738
1.02998 1.05646 0.97673 0.998164
1.04943 1.07034 0.982918 0.997512
0.922564 0.978708 0.95673 0.985267
0.988708 1.01935 0.973739 0.996097
0.999368 1 1 0.999368
0.999334 1 1 0.999334
0.998862 1 1 0.998862
0.998969 1 1 0.998969
1.05859 1.09193 0.972105 0.997281
1.03276 1.07248 0.965568 0.997305
1.02472 1.05286 0.975749 0.997459
1.00055 1.00109 1.00306 0.996414
1.01585 1.01536 1.00481 0.995687
1.00815 1.02157 0.989815 0.997019
1.01918 1 1.02206 0.997181
1.03421 1.00062 1.0367 0.996973
1.00413 1.00037 1.00652 0.997261
0.999293 1 1.00006 0.999235
1.00504 1 1.00732 0.997745
0.998954 1 1.00049 0.998467
0.999278 1 1 0.999278
0.998758 1.00042 0.999489 0.998848
1.03765 1.08019 0.963117 0.997398
0.998783 1 1 0.998783
0.998704 1.00021 0.999745 0.998749
0.999424 0.999767 1.00083 0.998823
1.01018 1.06309 0.952653 0.997456
1.01674 1.03501 0.985109 0.997199
1.00279 1.00074 1.00501 0.997056
0.995264 1.01014 0.988364 0.996876
1.00551 1 1.00746 0.998061
1.00893 1 1.01138 0.997578
1.03801 1.00192 1.03873 0.997403
1.0394 1.00026 1.04205 0.997194
0.995346 1.04925 0.950917 0.997589
0.995885 1.03845 0.961456 0.99746
1.0066 1.01395 0.995875 0.99686
0.979955 1.00095 0.981146 0.997837
1.00133 1 1.00282 0.998515
1.00218 1 1.00385 0.998336
1.01556 0.999517 1.01788 0.998201
1.06129 1.00036 1.06364 0.997435
0.887028 0.967961 0.945079 0.969642
1.00692 1 1.00892 0.998015
0.999305 1.00091 1.00135 0.997054
1.01334 1.05282 0.964498 0.997929
1.01506 1.0309 0.987366 0.997233
1.00397 1.00497 1.0033 0.995719
1.00356 1.00313 1.00447 0.99598
0.970333 1.00432 0.971122 0.994892
1.00501 0.999677 1.00745 0.997896
0.998295 1.02576 0.975358 0.99781
1.00047 1.00148 1.00213 0.996881
1.00465 1.00227 1.00611 0.996285
0.995384 1.00728 0.991305 0.996858
0.904373 0.981449 0.950265 0.969695
0.89524 0.962006 0.946488 0.983211
0.970008 0.984029 0.98845 0.99727
0.709133 0.824847 0.907867 0.946961
0.61572 0.775844 0.859115 0.923756
1.002 0.999379 1.00459 0.998043
0.740261 0.844149 0.923344 0.949734
0.665101 0.793469 0.901725 0.929573
0.987259 1.00599 0.983489 0.997851
1.00818 1.00155 1.00921 0.997441
1.01394 1.00523 1.01143 0.997269
0.958781 0.974301 0.986441 0.997597
0.883988 0.954104 0.953831 0.971358
0.865256 0.933899 0.94408 0.981377
0.699747 0.820781 0.896807 0.950638
0.684787 0.840976 0.878951 0.92642
1.00206 0.997937 1.00536 0.998773
1.00123 0.999205 1.00335 0.998676
1.00725 1 1.00842 0.998837
0.99883 1 1 0.99883
0.99837 1 1 0.99837
1.00304 1 1.00482 0.998225
0.99989 1 1.00167 0.998224
0.998668 1 1 0.998668
0.998723 1 1 0.998723
1.00401 1 1.00585 0.99817
1.00336 1 1.00518 0.998193
0.998569 1 1.00028 0.998286
1.00475 1 1.00638 0.99838
1.00601 1 1.00773 0.998291
1.0164 1 1.01792 0.998508
1.00167 1 1.00358 0.998103
0.999047 1 1.00074 0.998309
0.998759 1 1.00042 0.998337
0.999941 1 1.00155 0.998394
1.00026 1 1.00208 0.998182
0.999374 1 1.00093 0.998444
1.0027 1 1.00425 0.998459
1.00691 1 1.0087 0.998224
0.999973 1 1.00145 0.998525
0.999074 1 1.00051 0.998561
0.998884 1 1 0.998883
0.999413 1 1.00098 0.998438
0.998816 1 1 0.998815
0.999521 1 1 0.999521
0.99919 1 1.00047 0.998716
0.999539 1 1 0.999539
0.999999 1 1 0.999999
0.999543 1 1 0.999543
1 1 1 1
1 1 1 1
1 1 1 1
1 1 1 1
1 1 1 1
0.999316 1 1 0.999316
0.999912 1 1 0.999912
0.999899 1 1 0.999899
1 1 1 1
0.999858 1 1 0.999858
1 1 1 1
1 1 1 1
1 1 1 1
1 1 1 1
1 1 1 1
0.970357 1.01552 0.960017 0.995321
1.06613 1.09458 0.976574 0.997379
1.03852 1.05998 0.981695 0.99803
0.914304 0.973485 0.952121 0.986437
0.988457 1.01939 0.973265 0.996289
1.04758 1.07411 0.97778 0.997466
0.997606 1.0289 0.972979 0.996513
0.929635 0.975191 0.964939 0.987923
0.906681 0.976729 0.956006 0.971001
0.713042 0.828164 0.905679 0.950659
0.591358 0.740844 0.860344 0.927793
0.998916 1 1 0.998916
0.999365 1 1 0.999365
0.999328 1 1 0.999328
0.998861 1 1 0.998861
0.998668 1 1.00002 0.998647
0.998642 1 1 0.998642
0.998823 1 1 0.998823
0.998926 1 1 0.998926
1.03515 1.08104 0.960034 0.997412
1.01667 1.06734 0.954967 0.997446
1.01602 1.0348 0.984605 0.997198
1.00302 1.00189 1.0041 0.99704
0.998123 1.00949 0.99176 0.996953
1.04533 1.00187 1.04612 0.997379
1.04046 1.00101 1.04243 0.997104
1.00936 1 1.01194 0.997448
0.998298 1.00036 0.999126 0.998817
1.00562 1 1.00766 0.997983
0.998817 1 1 0.998817
0.998816 0.999814 1 0.999002
0.993978 1.0501 0.948822 0.997614
1.00098 0.999944 1.00253 0.998518
1.00303 1 1.00464 0.998402
0.993324 1.0365 0.960811 0.997434
1.00362 1.01456 0.992188 0.997009
0.983148 1.00128 0.984146 0.997705
1.02539 0.999907 1.0276 0.997948
1.05725 1.00177 1.05805 0.997473
0.975012 1.02845 0.950391 0.997522
0.988857 1.01194 0.979688 0.997447
0.974458 1.00166 0.975274 0.997508
0.983793 1.00095 0.984817 0.99801
1.0057 1 1.00766 0.998051
1.01335 1 1.01522 0.99816
1.05337 1 1.0557 0.997788
0.747787 0.853683 0.920183 0.951934
0.904456 0.97601 0.951136 0.974295
1.00262 0.999247 1.00543 0.997953
1.00012 1.00132 1.00192 0.996897
0.997974 1.027 0.973887 0.997793
0.998492 1.00876 0.992948 0.99685
1.00518 1.00319 1.00571 0.996295
0.903171 0.974204 0.954385 0.971396
0.899617 0.969953 0.942735 0.983824
0.971959 0.9831 0.991343 0.997302
0.71727 0.826908 0.911625 0.951501
0.60326 0.76713 0.856043 0.918629
1.00156 0.999561 1.00396 0.998045
0.743606 0.852448 0.917639 0.95061
0.648164 0.777889 0.899186 0.926653
0.987328 1.00705 0.982537 0.997845
1.00812 1.00209 1.00858 0.997456
1.01217 1.00349 1.01126 0.997419
0.952142 0.968249 0.985536 0.997797
0.895611 0.966628 0.956725 0.96844
0.860889 0.929604 0.941207 0.98393
0.707201 0.820134 0.909 0.948624
0.684818 0.848122 0.872577 0.925365
1.00373 0.999936 1.00522 0.998589
0.694011 0.805829 0.925952 0.930112
0.764577 0.881069 0.925224 0.937918
0.986108 0.993466 0.993933 0.998653
1.0154 1.00262 1.0142 0.998573
0.961186 0.960044 1.00389 0.997309
0.875387 0.920354 0.965359 0.985272
0.844058 0.916483 0.952674 0.966727
0.712656 0.813769 0.922175 0.949653
0.739364 0.8964 0.886921 0.929976
1.002 0.99897 1.00439 0.99865
1.00577 1 1.00698 0.998793
1.00771 0.999118 1.00954 0.999074
0.998724 1 1 0.998724
0.998329 1 1 0.998329
1.00413 1 1.00594 0.998196
1.00471 1 1.00657 0.998153
1.00489 0.999991 1.00649 0.998414
0.998903 1 1.0006 0.998307
1.00468 1 1.00643 0.998258
1.00168 1 1.00359 0.998106
1.01554 0.999731 1.01727 0.998569
1.03485 0.998422 1.03743 0.999094
1.0095 1 1.01122 0.998303
1.00094 1 1.00288 0.99806
0.998562 1 1.00023 0.998333
1.00044 1 1.00203 0.99841
1.00085 1 1.00268 0.998173
0.99981 1 1.00138 0.99843
1.00085 1 1.00229 0.998561
1.00388 1 1.00552 0.998374
1.00446 1 1.00613 0.998332
1.00325 0.99919 1.00549 0.998588
0.999612 1 1.00131 0.998304
0.999244 1.00067 1.00093 0.997651
1.00525 1 1.00715 0.998114
1.00581 1 1.0076 0.998225
1.00584 1 1.00746 0.998391
1.001 1 1.00249 0.998523
0.998995 1 1.00013 0.998861
0.999133 1 1.00057 0.998562
0.998983 1 1.0001 0.998886
0.999504 1 1 0.999504
0.998814 1 1.00003 0.998785
0.999524 1 1 0.999524
0.999992 1 1 0.999992
0.99954 1 1 0.99954
0.999997 1 1 0.999997
1 1 1 1
1 1 1 1
1 1 1 1
1 1 1 1
0.999319 1 1 0.999319
0.999885 1 1 0.999885
0.999318 1 1 0.999318
1 1 1 1
0.999913 1 1 0.999913
0.999896 1 1 0.999896
1 1 1 1
1 1 1 1
1 1 1 1
1 1 1 1
1 1 1 1
0.735748 0.843416 0.92148 0.946677
0.653454 0.787135 0.894405 0.928178
0.913893 0.97492 0.949754 0.986996
0.990085 1.01945 0.974615 0.996491
1.04786 1.0771 0.975365 0.997422
0.913137 0.958027 0.963449 0.989304
0.998533 1.02826 0.974315 0.996689
0.919107 0.988928 0.956263 0.971906
0.70804 0.829045 0.901958 0.946877
0.596181 0.754241 0.856561 0.922804
0.942206 0.995821 0.953767 0.992025
0.90215 0.966747 0.960188 0.971872
0.701689 0.823411 0.897081 0.949939
0.673862 0.834606 0.872028 0.925889
1.00037 1 1.00191 0.99847
0.998955 1 1 0.998955
0.999363 1 1 0.999363
0.998859 1 1 0.998859
0.998814 1 1.0001 0.998716
0.999482 1 1.00109 0.998397
0.998616 1 1 0.998616
0.998514 1 1.00005 0.998467
0.998778 1 1 0.998778
0.998882 1 1 0.998882
0.99256 1.04995 0.947576 0.997638
0.989962 1.03373 0.960149 0.997411
1.00237 1.01575 0.989642 0.997159
0.984947 1.00166 0.985706 0.997572
1.04913 1.00324 1.04835 0.997512
1.03575 1.00027 1.03785 0.997698
1.00242 1 1.00396 0.998468
1.00056 0.99972 1.00232 0.99852
0.975108 1.02878 0.950097 0.997609
1.00682 1 1.00883 0.998007
1.01314 1 1.01506 0.998111
0.984411 1.0101 0.977119 0.997388
0.972528 1.00153 0.973373 0.99761
0.982597 1.00161 0.98303 0.99795
1.04625 0.999885 1.04875 0.997732
0.972295 1.00344 0.971098 0.997797
0.965167 0.998759 0.967995 0.998318
1.01292 1.00025 1.01451 0.998174
1.00907 1 1.01114 0.997945
1.01123 1 1.01339 0.997871
1.02878 1 1.03095 0.997899
0.722044 0.821729 0.935042 0.939732
0.752749 0.852339 0.927439 0.952253
0.892919 0.972638 0.946643 0.969783
1.00089 0.999168 1.00369 0.998045
1.00793 1.00222 1.00825 0.997468
0.989705 1.00814 0.983836 0.997839
1.01076 1.00219 1.01102 0.997566
0.742072 0.84769 0.91883 0.952739
0.889877 0.963 0.952935 0.969707
0.859368 0.92663 0.944908 0.981485
0.949999 0.964374 0.987081 0.997988
0.703029 0.823158 0.903766 0.945005
0.646026 0.776636 0.896484 0.927877
0.681384 0.842968 0.870149 0.92894
1.00384 0.999659 1.00563 0.998569
0.696041 0.8073 0.92359 0.933514
0.777586 0.893481 0.928193 0.937615
0.985504 0.991395 0.995302 0.99875
1.01588 1.00189 1.01546 0.998525
0.958408 0.958146 1.00242 0.997863
0.866523 0.924966 0.95319 0.982823
0.871346 0.92989 0.965662 0.970362
0.727295 0.8317 0.924334 0.946051
0.729943 0.887105 0.882087 0.93283
1.00754 0.998564 1.00956 0.999431
0.798099 0.900337 0.938201 0.944835
0.769386 0.893745 0.914022 0.941833
0.982563 0.96739 1.01597 0.999715
0.902874 0.922657 0.98859 0.989853
0.873189 0.913258 0.986873 0.968843
0.787559 0.881274 0.94715 0.943525
0.77318 0.929642 0.891505 0.932912
1.00542 1 1.00668 0.998749
1.00862 0.998631 1.01095 0.999064
1.02412 0.993621 1.03136 0.999354
0.999096 1 1.00079 0.998304
1.0017 1 1.00359 0.998108
1.00286 1 1.00464 0.998226
1.01499 0.999483 1.01691 0.998631
1.00154 1 1.00349 0.99806
1.00888 1 1.0106 0.998293
1.04007 0.999449 1.04151 0.999173
1.0449 0.995192 1.05053 0.999446
1.03884 0.998989 1.04086 0.999068
1.00322 1 1.00501 0.99822
1.0011 1 1.00294 0.998163
1 1 1.00159 0.998415
0.999209 1 1.00055 0.998661
1.00409 1 1.00574 0.998353
1.0028 1 1.00444 0.998374
1.00487 0.999701 1.00657 0.998611
1.00352 0.99996 1.00517 0.998405
1.01009 0.998361 1.0128 0.998962
0.99656 1.00077 0.997349 0.998439
1.00018 1.00071 1.00115 0.998316
0.99859 1.00001 1.00069 0.997888
1.00304 1.0048 1.00153 0.996727
1.00315 1.00047 1.00469 0.997994
0.999042 1.00032 1.00079 0.997935
1.0052 1 1.00709 0.998122
1.00993 1 1.01174 0.998213
1.00431 1 1.0061 0.998227
1.00526 1 1.00688 0.998391
0.999648 1 1.00091 0.998743
1.00162 1 1.00311 0.998521
0.998857 1 1 0.998857
0.999479 1 1 0.999479
0.998889 1 1 0.998889
0.999505 1 1 0.999505
0.999979 1 1 0.999979
0.999527 1 1 0.999527
0.999988 1 1 0.999988
1 1 1 1
0.999996 1 1 0.999996
1 1 1 1
1 1 1 1
0.999055 1 1 0.999055
0.999836 1 1 0.999836
0.99924 1 1 0.99924
1 1 1 1
0.99989 1 1 0.99989
0.99932 1 1 0.99932
1 1 1 1
1 1 1 1
0.999914 1 1 0.999914
1 1 1 1
1 1 1 1
1 1 1 1
0.685646 0.802445 0.915607 0.933201
0.74298 0.850415 0.920348 0.949279
0.770491 0.891477 0.922357 0.937041
0.650138 0.78523 0.89342 0.926729
0.913236 0.967156 0.956959 0.986719
0.99724 1.02816 0.972967 0.996875
0.922129 0.986195 0.961439 0.972539
0.720414 0.831908 0.910823 0.950764
0.603986 0.770742 0.853897 0.917725
0.942554 0.990082 0.960551 0.991093
0.893321 0.965006 0.957602 0.966701
0.715738 0.83127 0.908252 0.947993
0.670479 0.83444 0.870417 0.923131
0.91299 0.972711 0.949805 0.988206
0.857651 0.917776 0.96739 0.96599
0.742525 0.855473 0.919877 0.943572
0.73464 0.893526 0.886826 0.927106
1.0022 1 1.00406 0.998148
0.999543 1 1.00103 0.998519
0.998993 1 1 0.998993
0.998786 1 1 0.998786
0.998417 1 1.0004 0.998017
0.998798 1 1.00035 0.998448
0.998591 1 1 0.998591
0.998437 1 1 0.998437
0.998515 1 1.00001 0.998508
0.998734 1 1 0.998734
0.97585 1.02987 0.949741 0.997695
0.981963 1.00872 0.976083 0.997332
0.968564 1.00129 0.969537 0.99771
0.984797 1.00271 0.984215 0.997892
1.03826 1 1.04068 0.997674
1.01302 1 1.01499 0.998063
1.00735 1 1.00941 0.997964
1.00851 1 1.01063 0.997897
0.970599 1.00368 0.969137 0.997831
1.01009 1 1.01226 0.997851
1.02878 1 1.03097 0.997877
0.964484 0.999278 0.966809 0.998316
1.00851 1.00162 1.00876 0.998131
0.9503 0.979787 0.971683 0.99817
0.975447 0.982052 0.994038 0.999233
1.04107 0.999559 1.04321 0.998384
1.00484 1 1.00696 0.997894
1.02129 1 1.02331 0.99802
0.809831 0.908896 0.939029 0.948857
0.721172 0.820522 0.936202 0.938813
0.742685 0.847571 0.923586 0.948749
1.00338 0.999589 1.00525 0.998551
1.01647 1.00081 1.0172 0.998477
0.98165 0.98917 0.993541 0.998849
0.696095 0.807323 0.922955 0.934202
0.858695 0.920451 0.96538 0.966362
0.871728 0.922568 0.959923 0.984342
0.948833 0.952854 0.997354 0.998422
0.732738 0.839573 0.91861 0.950077
0.785108 0.899509 0.931056 0.937449
0.733488 0.888771 0.884462 0.933091
1.00584 0.998546 1.00793 0.999377
0.796133 0.900006 0.934564 0.946523
0.768799 0.892798 0.914174 0.941957
0.984368 0.970945 1.01429 0.999537
0.915988 0.933722 0.991243 0.989674
0.842672 0.905365 0.964671 0.964841
0.771587 0.928223 0.89068 0.933278
0.80293 0.887698 0.956819 0.945328
0.999554 0.974925 1.02556 0.999711
0.781423 0.887542 0.924415 0.952424
0.79957 0.921283 0.91918 0.944198
0.733067 0.891829 0.886376 0.927351
0.9533 0.942867 1.01377 0.997335
0.90656 0.930979 1.00366 0.970215
0.853692 0.931821 0.9667 0.947714
1.00995 0.998104 1.01283 0.999052
1.02405 0.994575 1.03039 0.99927
1.0257 0.983425 1.04344 0.999566
1.00164 1 1.00358 0.99806
1.00732 1 1.00906 0.998282
1.04443 0.999473 1.04576 0.999251
1.00365 1 1.00543 0.998226
1.03866 0.999071 1.04058 0.999079
1.04708 0.995143 1.0528 0.999421
1.03736 0.990115 1.04825 0.999489
1.02412 0.998028 1.02711 0.999058
1.00335 1 1.00499 0.998376
1.00207 1 1.0037 0.998375
1.00626 1 1.00763 0.998636
1.00939 0.998892 1.01159 0.998933
1.00315 0.999977 1.00478 0.998407
1.00326 0.999964 1.00447 0.998833
0.997616 1.00027 0.99861 0.998734
1.00289 1.00045 1.00505 0.997407
1.00069 1.00145 1.00091 0.998334
0.99958 1.0012 1.00059 0.997787
0.999541 1.00191 1.00121 0.996433
1.01497 1.0174 1.00129 0.996331
1.00356 1.00319 1.00276 0.997615
1.00138 1.00322 1.00138 0.99679
1.01006 1 1.0121 0.997986
1.00444 1.00107 1.00538 0.997999
0.998861 1 1.00065 0.998216
1.00546 1 1.00734 0.998129
1.00898 1 1.01075 0.998248
1.00261 1 1.00402 0.998587
1.00486 1 1.00648 0.99839
0.999764 1 1.00102 0.998743
0.999403 1 1 0.999403
0.998854 1 1 0.998854
0.999476 1 1 0.999476
0.99997 1 1 0.99997
0.999506 1 1 0.999506
0.999977 1 1 0.999977
1 1 1 1
0.999984 1 1 0.999984
1 1 1 1
1 1 1 1
0.998784 1 1 0.998784
0.999625 1 1 0.999625
0.999053 1 1 0.999053
1 1 1 1
0.999782 1 1 0.999782
0.999162 1 1 0.999162
1 1 1 1
1 1 1 1
0.999895 1 1 0.999895
1 1 1 1
1 1 1 1
1 1 1 1
0.797641 0.907306 0.930072 0.94523
0.68736 0.802769 0.914576 0.936211
0.736632 0.845501 0.918379 0.948669
0.998317 1 1 0.998317
0.775891 0.891922 0.920841 0.94469
0.769462 0.891169 0.9216 0.936881
0.657588 0.795156 0.889505 0.929722
0.951656 0.993546 0.967578 0.989934
0.886126 0.953798 0.956635 0.971164
0.718245 0.8446 0.900655 0.944198
0.663769 0.820006 0.874955 0.925154
0.909636 0.967638 0.95427 0.985107
0.867566 0.925142 0.966799 0.969969
0.743771 0.847623 0.929373 0.944162
0.731479 0.889195 0.88641 0.928048
0.860903 0.921434 0.951728 0.981695
0.853862 0.903679 0.977064 0.967054
0.815595 0.897696 0.960463 0.945942
0.774329 0.928565 0.89391 0.932867
1.00124 1 1.00331 0.997938
1.00341 1 1.00531 0.998103
0.999032 1 1.00046 0.998568
0.998201 1 1.00008 0.998126
0.998708 1 1.00062 0.998092
0.998498 1 1 0.998498
0.998441 1 1 0.998441
0.998573 1 1.00003 0.998548
0.968521 1.00432 0.966434 0.997854
0.963989 1.00076 0.964876 0.998321
1.00836 1 1.01053 0.997848
1.00348 1.00281 1.00259 0.998087
1.03018 1 1.0324 0.997856
1.00983 1 1.01202 0.997831
1.00561 1 1.00772 0.997905
0.953164 0.979244 0.975029 0.998296
1.01937 1 1.02138 0.998038
1.0307 1.00023 1.03208 0.998426
0.973645 0.984476 0.989708 0.999283
1.0073 1 1.00923 0.998082
0.94064 0.958692 0.983257 0.997878
1.0014 0.980985 1.02134 0.999476
1.05527 0.99712 1.05987 0.998536
1.02184 0.999598 1.02407 0.99822
0.789805 0.889356 0.929265 0.955663
0.809555 0.90919 0.938663 0.948598
0.721834 0.818942 0.93981 0.937873
1.00374 0.998648 1.00578 0.999326
0.98729 0.974029 1.01426 0.999362
0.796996 0.902304 0.931582 0.948162
0.867569 0.904242 0.989404 0.969718
0.904881 0.932106 0.984399 0.986177
0.799044 0.884006 0.957745 0.943768
0.769847 0.894052 0.914048 0.942047
0.771753 0.928436 0.890317 0.933645
1.00444 0.982646 1.02252 0.999669
0.783045 0.889146 0.92469 0.952396
0.799978 0.919234 0.91955 0.946404
0.963795 0.949532 1.01575 0.999278
0.729471 0.887386 0.885643 0.928189
0.880746 0.91325 0.996776 0.967528
0.856726 0.934922 0.967371 0.94727
0.996312 0.968806 1.02867 0.99973
0.810216 0.913019 0.928993 0.955231
0.773025 0.887891 0.921277 0.945024
0.670848 0.832529 0.870104 0.926091
0.813965 0.896834 0.960059 0.945357
0.943833 0.943842 1.0061 0.993929
0.91495 0.929665 1.02154 0.963419
1.02216 0.996086 1.02701 0.999188
1.02689 0.982628 1.04553 0.999534
1.01537 0.97056 1.0466 0.999582
1.00487 1 1.00665 0.998232
1.04198 0.99912 1.04385 0.999091
1.05234 0.996047 1.05716 0.999396
1.01962 0.998327 1.0223 0.999045
1.03623 0.991934 1.04519 0.999488
1.00962 0.987199 1.0235 0.999235
1.0093 0.999587 1.01082 0.998903
1.00299 1 1.00459 0.998409
1.00652 0.999984 1.00773 0.99881
1.01177 0.999313 1.0144 0.998102
0.998798 0.99977 1 0.999028
0.99992 1.00028 1.00203 0.997617
1.00338 1.00134 1.00605 0.996012
1.00518 1.00747 1.00206 0.995668
1.0005 1.00242 1.0004 0.997681
1.00013 1.00255 1.00136 0.996231
1.01635 1.01948 1.00053 0.996413
1.01005 1.01044 1.00261 0.997008
1.01384 1.01619 1.00125 0.996432
1.00776 1.00037 1.00962 0.99779
1.00623 1.0053 1.00335 0.997583
0.999394 1.00127 1.00128 0.996855
1.00815 1 1.00979 0.998378
1.00941 1 1.01143 0.998009
1.00579 1.00166 1.00613 0.998004
1.008 1 1.00974 0.998283
1.00279 1 1.00421 0.998587
0.999722 1 1.00046 0.999259
0.999914 1 1.00117 0.998744
0.999433 1 1.00003 0.999398
0.999962 1 1 0.999962
0.999474 1 1 0.999474
0.999969 1 1 0.999969
1 1 1 1
0.999974 1 1 0.999974
1 1 1 1
1 1 1 1
0.998695 1 1 0.998695
0.999457 1 1 0.999457
0.998834 1 1 0.998834
1 1 1 1
0.999607 1 1 0.999607
0.99905 1 1 0.99905
1 1 1 1
1 1 1 1
0.999728 1 1 0.999728
1 1 1 1
1 1 1 1
1 1 1 1
0.788337 0.890907 0.927598 0.953937
0.799828 0.906553 0.933396 0.94523
0.68833 0.802287 0.916258 0.936373
0.998357 1 1 0.998357
0.998336 1 1.00006 0.998277
0.998256 1 1 0.998256
0.799964 0.923383 0.917839 0.943892
0.772508 0.891407 0.917242 0.944807
0.767932 0.890575 0.92052 0.93674
0.916132 0.974352 0.952474 0.987163
0.842259 0.914392 0.953655 0.965877
0.740389 0.834405 0.934351 0.949671
0.740407 0.897333 0.890783 0.926286
0.864488 0.926874 0.947302 0.984578
0.866486 0.911314 0.983031 0.967222
0.798154 0.878899 0.959232 0.946726
0.772103 0.928643 0.890997 0.933146
0.870886 0.919377 0.964471 0.982151
0.885091 0.917011 0.996603 0.968482
0.853674 0.929362 0.968872 0.948071
0.743781 0.899939 0.888666 0.930022
0.998706 1 1.00064 0.998064
1.00169 1 1.0038 0.997902
1.00321 1 1.00516 0.998058
0.998125 1 1.00001 0.998114
0.998506 1 1.00034 0.998168
0.998445 1 1 0.998445
0.95326 0.975077 0.97918 0.998412
0.970697 0.983908 0.987251 0.999313
1.00609 1 1.00819 0.997915
1.02246 1.00046 1.02356 0.998466
1.01984 1 1.02183 0.998056
1.00942 1 1.01135 0.998091
1.01853 0.997818 1.02254 0.998255
0.948049 0.95861 0.990993 0.997973
1.05207 0.995906 1.05779 0.998678
1.00507 0.976325 1.03012 0.99934
1.01228 0.996696 1.01725 0.998418
0.971869 0.955291 1.01976 0.997637
1.01121 0.974686 1.03819 0.999311
1.03644 0.982707 1.05595 0.998792
0.823824 0.919457 0.93559 0.957673
0.792458 0.890452 0.930772 0.956141
0.808892 0.909365 0.937968 0.94834
1.00998 0.990022 1.02054 0.999627
0.95298 0.947055 1.00841 0.997864
0.784172 0.889905 0.925258 0.952369
0.877158 0.901272 1.00162 0.971667
0.852436 0.933882 0.966414 0.94451
0.800642 0.917889 0.919523 0.948606
0.740708 0.896288 0.89192 0.926561
0.991808 0.965412 1.02758 0.999771
0.810611 0.911846 0.929822 0.956072
0.774885 0.891835 0.919289 0.94515
0.939193 0.939447 1.00991 0.989917
0.667985 0.831866 0.869533 0.92348
0.793994 0.87695 0.95728 0.94581
0.92315 0.93611 1.01776 0.968945
1.00325 0.955416 1.05151 0.998629
0.789119 0.889489 0.929816 0.954125
0.780059 0.898225 0.926328 0.937514
0.591484 0.738996 0.86205 0.928471
0.731906 0.845563 0.917483 0.943433
0.88821 0.915024 1.00309 0.967702
0.916792 0.933858 0.994768 0.986888
1.02561 0.982195 1.04473 0.999501
1.02065 0.978308 1.04371 0.999586
1.00942 0.980727 1.02977 0.999499
1.01367 0.998708 1.01597 0.999032
1.03215 0.993254 1.03969 0.999487
1.01323 0.984062 1.03034 0.999319
1.00653 0.997993 1.00978 0.998784
1.00975 1 1.01098 0.998787
1.00925 0.999695 1.0117 0.997883
1.02184 1.00091 1.0247 0.996311
0.996866 1.00005 0.998981 0.99783
1.00454 1.0015 1.00703 0.996038
1.00495 1.00252 1.00732 0.995139
1.00761 1.01048 1.00191 0.995265
1.00902 1.01194 1.00108 0.996036
1.00518 1.00735 1.00225 0.995613
1.00037 1.00309 1.00127 0.99603
1.00987 1.01207 1.0011 0.996737
1.01705 1.02013 1.00048 0.996501
1.0036 1.00163 1.00464 0.997343
1.01213 1.01231 1.00274 0.997086
1.01343 1.01577 1.00117 0.996533
1.01071 1 1.01268 0.99806
1.00772 1.00104 1.00891 0.997786
1.00897 1.00758 1.00383 0.99755
1.00124 1 1.00217 0.99908
1.00708 1 1.00872 0.998376
1.0086 1 1.01059 0.998033
1.00267 1 1.00409 0.998587
1.00004 1 1.00078 0.999255
0.999935 1 1 0.999935
0.999511 1 1.00012 0.999393
0.999956 1 1 0.999956
1 1 1 1
0.999967 1 1 0.999967
1 1 1 1
1 1 1 1
0.998647 1 1 0.998647
0.999428 1 1 0.999428
0.998724 1 1 0.998724
0.999995 1 1 0.999995
0.999502 1 1 0.999502
0.998885 1 1 0.998885
1 1 1 1
1 1 1 1
0.999589 1 1 0.999589
1 1 1 1
1 1 1 1
1 1 1 1
0.808967 0.912602 0.928241 0.954968
0.791743 0.891882 0.930606 0.953918
0.801763 0.905361 0.93685 0.945266
1.00368 1 1.00554 0.99815
1.00186 1 1.00383 0.998035
0.998397 1 1 0.998397
0.998731 1 1.00047 0.998262
0.998255 1 1 0.998255
0.999609 1 1.00138 0.998232
0.998266 1 1 0.998266
0.772164 0.898198 0.91295 0.941652
0.803029 0.921844 0.920709 0.946131
0.77249 0.889472 0.919097 0.94493
0.770961 0.928914 0.889137 0.933444
0.863427 0.927082 0.948369 0.982042
0.866397 0.907077 0.987482 0.967261
0.807515 0.892291 0.953784 0.948843
0.857606 0.920205 0.949869 0.981159
0.886462 0.910752 1.00935 0.964316
0.854689 0.932363 0.966991 0.947984
0.731933 0.889382 0.882194 0.932866
0.895092 0.928306 0.979875 0.984025
0.900758 0.920839 1.01469 0.964035
0.791496 0.884072 0.948431 0.943962
0.686345 0.84401 0.877968 0.926224
1.02203 1 1.02368 0.99839
1.00029 1 1.00221 0.99809
1.00271 1 1.00486 0.997867
0.998102 1 1 0.998102
0.957669 0.960348 0.999108 0.998101
1.00686 0.974203 1.03435 0.999198
1.00881 1 1.01073 0.998101
1.01461 0.997382 1.01901 0.99829
1.04258 0.99208 1.05214 0.998821
1.01172 0.998836 1.01451 0.99842
1.03855 0.982483 1.05836 0.998779
0.971158 0.954861 1.02098 0.996171
1.00976 0.96561 1.04628 0.999466
1.01237 0.984909 1.029 0.998906
0.954102 0.928041 1.03261 0.995618
1.00721 0.958954 1.05107 0.999291
0.791488 0.888927 0.931544 0.955817
0.821602 0.918009 0.933147 0.959101
0.79545 0.891487 0.932741 0.956615
0.987523 0.960517 1.02832 0.999805
0.945148 0.943544 1.00743 0.994315
0.808986 0.909888 0.929129 0.956924
0.923939 0.940235 1.01918 0.964174
0.798559 0.885158 0.951625 0.948026
0.777569 0.89431 0.91981 0.945263
0.662719 0.817846 0.875593 0.925455
1.00424 0.957997 1.0495 0.998831
0.791359 0.893328 0.928461 0.954111
0.773503 0.89268 0.924397 0.937363
0.918987 0.93413 0.994236 0.989493
0.59702 0.753786 0.857594 0.923547
0.73297 0.838546 0.926233 0.943712
0.886036 0.912138 1.00697 0.964665
0.993594 0.962986 1.03499 0.996904
0.799746 0.909998 0.929472 0.94553
0.653196 0.784996 0.895792 0.9289
0.704481 0.826052 0.897159 0.950588
0.844749 0.889431 0.980762 0.968393
0.876257 0.910329 0.979433 0.982785
1.02799 0.982838 1.04637 0.99959
1.01237 0.978587 1.03503 0.999502
0.981071 0.975959 1.00596 0.999284
1.01815 0.981714 1.03774 0.999402
1.00405 0.990275 1.01505 0.998884
1.00242 1.0008 1.00392 0.997706
1.00682 1.00003 1.00915 0.997664
1.01987 1.00086 1.0229 0.99618
1.01045 1.00076 1.01445 0.995298
1.00623 1.00186 1.00834 0.996063
1.00578 1.00233 1.00843 0.995047
1.00179 1.00247 1.00448 0.994863
1.0279 1.03258 1 0.995473
1.01694 1.02068 1.00077 0.995578
1.00802 1.01067 1.00218 0.995207
1.00833 1.01191 1.00013 0.99634
1.00778 1.01098 1.00074 0.9961
1.00532 1.00716 1.00263 0.995557
1.00751 1.00961 1.00112 0.996808
1.00933 1.01157 1.00108 0.996709
1.01743 1.02048 1.00043 0.996589
1.00626 1.00074 1.00789 0.997649
1.00455 1.00251 1.00463 0.997422
1.01381 1.01378 1.00288 0.997164
1.0059 1 1.00712 0.99879
1.00947 1 1.01143 0.998067
1.00771 1.00175 1.00819 0.997782
0.999885 1 1 0.999885
1.002 1 1.00293 0.999074
1.00629 1 1.00793 0.998375
1.00041 1 1.00116 0.99925
0.999925 1 1 0.999925
1 1 1 1
0.99995 1 1 0.99995
1 1 1 1
1 1 1 1
1.00591 1 1.00778 0.998146
1.00048 1 1.002 0.998477
0.999287 1 1 0.999287
0.998777 1 1.00013 0.998643
0.999978 1 1 0.999978
0.999431 1 1 0.999431
0.998753 1 1 0.998753
1 1 1 1
0.999997 1 1 0.999997
0.999547 1 1 0.999547
1 1 1 1
1 1 1 1
1 1 1 1
0.782058 0.888259 0.924513 0.952328
0.806236 0.909524 0.927402 0.955828
0.792508 0.894727 0.928568 0.953893
1.00486 1 1.00671 0.998161
1.00403 1 1.00599 0.998044
1.00046 1 1.00243 0.998034
1.00629 1 1.00826 0.998053
1.00775 1 1.00975 0.998016
0.999822 1 1.00158 0.998246
0.998255 1 1 0.998255
0.999311 1 1.00108 0.998236
0.998275 1 1 0.998275
1.01381 1 1.0155 0.998336
0.765363 0.883441 0.923964 0.937638
0.771721 0.896061 0.914446 0.941813
0.804334 0.921295 0.92059 0.948357
0.733728 0.890871 0.882624 0.933134
0.853472 0.932349 0.968744 0.944934
0.852767 0.916108 0.950151 0.979695
0.893471 0.916588 1.00696 0.968041
0.887081 0.929973 0.972645 0.980705
0.908562 0.931664 1.00727 0.968169
0.806429 0.888028 0.959655 0.94629
0.687104 0.851534 0.872248 0.925082
0.902539 0.920113 0.997679 0.983183
0.892333 0.911718 1.01022 0.968836
0.719401 0.818304 0.926068 0.949322
0.62929 0.784915 0.863936 0.927997
1.02136 0.999819 1.0226 0.998964
1.02329 0.999909 1.02502 0.998404
1.00311 1 1.005 0.998116
0.971384 0.955943 1.02163 0.994638
1.01126 0.959208 1.05466 0.999627
1.01228 1 1.01388 0.998422
1.04318 0.982069 1.06353 0.998767
1.01499 0.988834 1.02757 0.998912
1.01337 0.966739 1.04899 0.999281
0.957813 0.936304 1.02753 0.99556
1.01536 0.990428 1.02584 0.999345
0.968546 0.954049 1.019 0.99627
0.809506 0.909184 0.938801 0.948407
0.796057 0.891829 0.933414 0.956286
0.818948 0.916178 0.930596 0.960539
1.0053 0.965028 1.04278 0.999003
0.91361 0.930259 0.996997 0.985061
0.796317 0.89716 0.930308 0.954089
0.888531 0.917484 1.00322 0.965334
0.728064 0.82323 0.931808 0.949122
0.765574 0.8873 0.920579 0.93725
0.603515 0.768999 0.854422 0.918522
0.990861 0.961345 1.03364 0.997156
0.799802 0.906118 0.933533 0.945513
0.65082 0.784655 0.894289 0.927479
0.88778 0.921575 0.978665 0.98433
0.716968 0.832516 0.907951 0.948516
0.842595 0.899056 0.970367 0.96582
0.948083 0.947177 1.00567 0.995316
0.686761 0.803527 0.91532 0.933753
0.714 0.828231 0.906207 0.951304
0.855716 0.919019 0.963799 0.966093
0.854231 0.910433 0.952344 0.98522
1.01154 0.975922 1.03701 0.999507
0.983193 0.972277 1.01198 0.99926
0.993917 0.990476 1.00505 0.998426
1.00018 0.980536 1.02108 0.998979
1.0022 1.00068 1.00373 0.997797
0.998166 1.00234 0.999119 0.99671
1.01777 1.00071 1.02108 0.996047
1.00917 1.00112 1.0128 0.9953
0.999289 1.00233 1.00137 0.995604
1.0059 1.002 1.00899 0.994956
1.00206 1.00349 1.0037 0.994899
1.02481 1.02923 1 0.995706
1.05178 1.05587 1 0.996134
1.03849 1.0431 1.00002 0.995566
1.02814 1.03279 1 0.995504
1.0207 1.02494 1 0.995868
1.01563 1.0191 1.00107 0.995522
1.00897 1.01143 1.00244 0.995149
1.01359 1.01716 1 0.99649
1.00658 1.01018 1.00002 0.996414
1.00629 1.00984 1.00032 0.996164
1.00289 1.00361 1.00208 0.997208
1.00568 1.00755 1.0013 0.99685
1.00912 1.01138 1.0011 0.99668
1.00938 1 1.01108 0.998322
1.00753 1.00137 1.00852 0.997652
1.00556 1.00327 1.0048 0.997501
1.00027 1 1.00047 0.999805
1.00576 1 1.00698 0.998783
1.00871 1 1.01066 0.998074
0.999987 1 1 0.999987
0.999871 1 1 0.999871
1.00258 1 1.00351 0.999068
0.999914 1 1 0.999914
1 1 1 1
1 1 1 1
1.00637 1.00026 1.00811 0.998017
1.00398 1 1.00568 0.998306
1.00684 1 1.00873 0.998124
0.999744 1 1.00061 0.999133
1.00035 1 1.00188 0.998474
0.999949 1 1 0.999949
0.999291 1 1 0.999291
0.998639 1 1 0.998639
1 1 1 1
0.999984 1 1 0.999984
0.999434 1 1 0.999434
1 1 1 1
0.999999 1 1 0.999999
1 1 1 1
0.794845 0.901427 0.929528 0.948615
0.785817 0.891226 0.925883 0.952309
0.806718 0.906195 0.930527 0.95669
0.999454 1.00105 1.00039 0.998013
1.00404 1 1.00588 0.998172
1.00288 1 1.00483 0.998054
1.00285 1 1.00482 0.998036
1.00046 1 1.00241 0.99806
1.00446 1 1.00632 0.998145
1.01255 1.00012 1.01485 0.997612
1.01701 1 1.01893 0.998122
0.999115 1 1.00088 0.998239
0.998283 1 1 0.998283
1.01473 1 1.01644 0.998319
1.02947 1.00021 1.03077 0.998529
0.665023 0.792763 0.902897 0.929084
0.777517 0.89534 0.926451 0.937345
0.772589 0.895749 0.915672 0.941937
0.683917 0.846804 0.869746 0.928599
0.804557 0.887921 0.958641 0.945205
0.903345 0.924089 1.01393 0.964118
0.887029 0.92298 0.979223 0.98144
0.901731 0.92076 0.994031 0.985214
0.617308 0.777661 0.859911 0.92312
0.884513 0.911736 1.00508 0.96524
0.732904 0.835726 0.927441 0.945577
0.901953 0.929771 0.983167 0.98669
0.871095 0.910234 0.9864 0.970197
0.704255 0.824958 0.89939 0.949182
0.992817 1 0.993281 0.999532
1.02068 1 1.02173 0.998969
1.02372 1 1.02534 0.998416
0.958115 0.938783 1.02512 0.995586
1.02038 0.975329 1.04695 0.999273
1.01695 0.9935 1.02472 0.998919
1.01432 0.990293 1.02493 0.999344
0.965025 0.95301 1.01635 0.996315
0.989908 0.984218 1.00825 0.997552
0.721682 0.820634 0.939356 0.936195
0.806294 0.908169 0.934169 0.950389
0.797086 0.893532 0.932398 0.956739
0.992092 0.960904 1.03523 0.99732
0.877891 0.917863 0.970806 0.985214
0.79793 0.902402 0.935147 0.945551
0.853526 0.89348 0.988279 0.966612
0.721827 0.848032 0.900855 0.944856
0.66008 0.795744 0.891562 0.930405
0.94819 0.942982 1.01019 0.995384
0.688723 0.803591 0.914969 0.936706
0.709827 0.829509 0.903095 0.94754
0.851529 0.912035 0.951071 0.981691
0.868019 0.928984 0.963226 0.970048
0.943734 0.959158 0.986115 0.997772
0.733654 0.840297 0.921897 0.947056
0.903734 0.969076 0.959607 0.971827
0.85755 0.923808 0.945846 0.981426
0.987062 0.970391 1.01795 0.99924
0.98508 0.990506 0.996004 0.998512
0.99517 1.00099 0.996693 0.997484
1.00232 1.00064 1.0038 0.997887
1.00097 1.00256 1.00174 0.996682
1.0009 1.00486 0.999428 0.996635
1.0081 1.00155 1.01129 0.995301
0.999194 1.00193 1.00167 0.99561
1.02767 1.03324 0.99801 0.996591
1.00236 1.00426 1.00319 0.994935
1.02339 1.0278 1 0.995716
1.05204 1.05663 0.998881 0.996765
1.05325 1.05709 0.99953 0.996839
1.05344 1.05762 1 0.99605
1.05243 1.05646 1 0.996182
1.04029 1.04469 1 0.995794
1.03663 1.04118 1 0.995632
1.02745 1.03206 1 0.995535
1.02887 1.03281 1 0.996188
1.02121 1.02528 1.00014 0.995893
1.01437 1.01749 1.00148 0.995465
1.00913 1.01234 1 0.996828
1.01274 1.01631 1 0.996486
1.0047 1.00824 1 0.996488
1.0036 1.00052 1.00523 0.99786
1.00519 1.00566 1.00234 0.997202
1.00335 1.00503 1.00145 0.996893
1.00177 1 1.00214 0.999629
1.00743 1.00022 1.00891 0.998319
1.00796 1.00205 1.00827 0.997653
1 1 1 1
1.00078 1 1.00101 0.999773
1.00522 1 1.00645 0.998776
1 1 1 1
0.999965 1 1.00011 0.999856
1 1 1 1
1.00097 1.00127 1.00185 0.997861
1.00528 1.0002 1.0071 0.997997
1.00712 1 1.00899 0.99815
1.00175 1 1.00278 0.998971
1.00495 1 1.00665 0.998303
1.0086 1 1.01051 0.998102
0.999906 1 1 0.999906
0.999466 1 1.00033 0.999138
1.00045 1 1.00198 0.998471
1 1 1 1
0.999957 1 1 0.999957
0.999296 1 1 0.999296
1 1 1 1
0.99999 1 1 0.99999
1 1 1 1
0.694013 0.805998 0.925064 0.930811
0.797409 0.903932 0.929907 0.948649
0.789769 0.894457 0.927192 0.952294
1.00186 1.00044 1.00343 0.997989
1.0065 1.00355 1.00534 0.997615
1.01034 1.00059 1.01196 0.997807
1.00402 1 1.00602 0.998018
1.00057 1.00037 1.00213 0.998086
1.00517 1 1.00691 0.998271
1.01637 1 1.01833 0.99807
1.01259 1.00039 1.01453 0.997699
1.01675 1.00138 1.01775 0.997639
0.98357 1.00135 0.983264 0.998966
1.01352 1 1.01525 0.998301
1.02504 1.00007 1.0265 0.998509
0.711867 0.826384 0.911761 0.944791
0.647651 0.776917 0.900054 0.926185
0.785397 0.902016 0.929064 0.937194
0.605837 0.769766 0.857252 0.918097
0.738639 0.842071 0.923754 0.949569
0.871385 0.90517 0.995523 0.967005
0.907056 0.925649 0.997387 0.982482
0.889401 0.921331 0.980769 0.984272
0.708166 0.820226 0.911113 0.947609
0.851717 0.900442 0.978475 0.966696
0.873446 0.926665 0.956166 0.985779
0.8465 0.924201 0.947521 0.966655
1.00055 1 1.00153 0.999021
0.994057 1 0.994574 0.99948
1.02023 1 1.02128 0.998974
0.959483 0.950119 1.01354 0.996366
1.01271 0.988999 1.02464 0.999344
0.99099 0.985865 1.00772 0.997499
0.976562 0.990005 0.98988 0.996505
0.749727 0.855808 0.9204 0.951811
0.719791 0.818405 0.938968 0.936673
0.808142 0.910127 0.9324 0.952321
0.951487 0.949727 1.00632 0.995562
0.854944 0.910939 0.955583 0.982154
0.689933 0.803827 0.916192 0.936825
0.84073 0.915557 0.95031 0.966287
0.72394 0.83479 0.911462 0.951451
0.946197 0.962035 0.986919 0.996573
0.744069 0.850278 0.92147 0.949666
0.895534 0.966814 0.957878 0.967005
0.859646 0.925778 0.943575 0.984093
0.95606 0.982508 0.975406 0.997616
0.911593 0.978295 0.959522 0.971128
0.907505 0.970479 0.947657 0.986761
0.97596 0.989614 0.987604 0.998581
0.99065 1.00122 0.99197 0.997456
0.982234 1.00831 0.976758 0.997317
1.00272 1.00288 1.0032 0.996656
1.00029 1.00504 0.998648 0.996629
1.02446 1.04098 0.986784 0.997309
0.999063 1.00159 1.00186 0.995617
1.02608 1.03274 0.996971 0.99657
1.04202 1.05737 0.988078 0.99737
1.02261 1.027 1 0.995726
1.05068 1.05611 0.998093 0.996757
1.04809 1.05777 0.993481 0.997348
1.04854 1.05433 0.997278 0.997228
1.05405 1.05822 0.999148 0.996914
1.0517 1.05519 1 0.996688
1.05475 1.05886 1 0.996113
1.05351 1.05767 1 0.996071
1.05366 1.05765 1 0.99623
1.0426 1.04676 1 0.996025
1.04206 1.04643 1 0.995823
1.03487 1.03934 1 0.995697
1.02419 1.02777 1 0.99652
1.02859 1.03253 1 0.996185
1.02162 1.02563 1.00017 0.995918
1.0001 1.0023 1.00026 0.997541
1.0107 1.01392 1 0.996825
1.01284 1.01642 1 0.996482
1.00212 1 1.00277 0.999354
1.00392 1.00103 1.00504 0.997859
1.00816 1.00797 1.003 0.997196
1 1 1 1
1.00236 1 1.00276 0.999604
1.00637 1.00037 1.0077 0.998317
0.999987 1 1 0.999987
1.00137 1 1.00161 0.999759
1 1 1 1
1.00006 1.00232 1 0.997739
1.00142 1.00066 1.00289 0.99788
1.0053 1 1.00732 0.997996
1.0033 1 1.00533 0.997977
1.00749 1 1.00935 0.998152
1.00453 1 1.00576 0.998784
0.999855 1 1.00001 0.999846
1.00108 1 1.00211 0.998973
1.00569 1 1.00741 0.9983
1 1 1 1
0.999919 1 1 0.999919
0.999275 1 1.00013 0.999143
1 1 1 1
0.999967 1 1 0.999967
1 1 1 1
0.739643 0.844157 0.922815 0.949478
0.696358 0.807023 0.926018 0.93181
0.797955 0.904981 0.929435 0.948681
1.00436 1 1.00641 0.997964
1.01264 1.00011 1.01494 0.997628
1.00398 1.00245 1.00385 0.997688
1.00483 1.00701 1.00112 0.996721
1.0128 1.00172 1.01341 0.997674
1.01477 1 1.01678 0.998021
1.01052 1.00004 1.01273 0.997785
1.01856 1.00112 1.01972 0.997739
0.999504 1.00332 0.998782 0.997412
0.97495 1.00146 0.974989 0.998503
0.972062 1.00035 0.973971 0.997689
0.983938 1.00084 0.984097 0.999
1.0197 1.00001 1.02122 0.99849
0.884966 0.956626 0.953991 0.969706
0.706006 0.821073 0.908627 0.946326
0.644784 0.775163 0.896956 0.927363
0.705654 0.825613 0.905472 0.943931
0.861407 0.91067 0.978003 0.96718
0.894261 0.91786 0.987371 0.986752
0.874004 0.925258 0.956487 0.987579
0.875832 0.933286 0.966359 0.971107
0.898787 0.963595 0.945316 0.9867
0.993531 1.00132 0.993994 0.998218
0.999302 1 1.0003 0.998999
0.995209 1 0.995779 0.999428
0.993783 0.989348 1.00701 0.997492
0.98193 0.992518 0.99248 0.996828
0.889037 0.965955 0.949172 0.969657
0.754506 0.854279 0.927469 0.952277
0.716657 0.814336 0.939027 0.937194
0.94969 0.967468 0.986258 0.995301
0.866753 0.934827 0.944534 0.981627
0.739166 0.846399 0.920178 0.949063
0.886439 0.954428 0.95633 0.971175
0.962813 0.982258 0.982458 0.997706
0.921005 0.98878 0.958504 0.971781
0.905196 0.966657 0.951544 0.984105
0.968794 1.00337 0.968361 0.997084
0.93934 0.992469 0.955231 0.990825
0.990469 1.0033 0.989737 0.997452
0.980293 1.00806 0.97512 0.997271
0.994087 1.03814 0.95984 0.997627
0.999428 1.0047 0.998123 0.996622
1.0265 1.04217 0.987651 0.997278
1.03855 1.06507 0.977382 0.997662
1.02426 1.03211 0.995832 0.996549
1.04188 1.05755 0.987802 0.997345
1.03548 1.05657 0.9824 0.997591
1.0488 1.05511 0.99726 0.99675
1.04789 1.05787 0.993223 0.997326
1.04481 1.05759 0.990462 0.997429
1.04815 1.05452 0.996666 0.997284
1.04722 1.05237 0.99806 0.997039
1.05449 1.05902 0.998736 0.996988
1.05151 1.05501 1 0.99668
1.05297 1.0567 1 0.996468
1.05192 1.05601 1 0.996125
1.0545 1.05863 1 0.996101
1.0535 1.05763 1 0.996093
1.03849 1.04233 1 0.996319
1.04263 1.04679 1 0.996029
1.04404 1.04839 1 0.995852
1.00583 1.00855 1 0.997296
1.02291 1.02648 1 0.996519
1.02798 1.03192 1 0.996183
1.00032 1 1.00127 0.999047
1.00198 1.00391 1.00054 0.997542
1.01167 1.0149 1 0.996821
1 1 1 1
1.00174 1 1.00242 0.999329
1.00381 1.00157 1.00439 0.99786
1 1 1 1
1.00266 1 1.00309 0.999578
1 1 1 1
1.0095 1.01255 1.00012 0.996868
1.00055 1.00283 1 0.997724
1.00102 1.00101 1.00226 0.997757
1.00251 1 1.00461 0.9979
1.00462 1 1.00667 0.997959
1.00602 1 1.0075 0.998527
1.00875 1 1.01062 0.998153
1.00458 1 1.0058 0.998783
1.00081 1 1.00105 0.999761
1 1 1 1
0.99986 1 1 0.99986
1.00022 1 1.00125 0.998974
1 1 1 1
0.999931 1 1 0.999931
1 1 1 1
0.911188 0.978277 0.957115 0.973155
0.743304 0.85192 0.917995 0.950446
0.698378 0.8085 0.928743 0.930069
1.0148 1 1.01739 0.997448
1.00196 1.0021 1.0021 0.997762
1.01081 1.00188 1.01133 0.997608
1.00597 1.00783 1.00134 0.996817
1.01963 1.02316 1.00016 0.996384
1.00039 1.00319 1 0.997215
1.02159 1.00125 1.02252 0.997835
1.00044 1.00403 0.999194 0.997223
0.981582 1.00226 0.980851 0.998486
0.995535 1.0024 0.995665 0.997472
0.970675 1.00345 0.969553 0.997715
0.993813 1.00151 0.995058 0.997241
0.974254 1.00082 0.975602 0.997802
0.988128 1.00048 0.988611 0.999035
0.909358 0.972737 0.947487 0.986658
0.893888 0.965325 0.955048 0.969582
0.714639 0.82209 0.914392 0.950681
0.86598 0.929561 0.964285 0.966106
0.883886 0.926866 0.964628 0.988597
0.899916 0.956467 0.949956 0.990441
0.977 1.00377 0.976098 0.997168
0.991319 1.00056 0.992589 0.99816
0.997678 0.999784 0.998915 0.998978
0.983448 0.994037 0.992193 0.997132
0.927775 0.973203 0.965777 0.987103
0.90419 0.973315 0.953551 0.974232
0.743474 0.848996 0.923048 0.948715
0.961273 0.97797 0.985099 0.997795
0.910824 0.973091 0.949479 0.985817
0.922471 0.986278 0.961936 0.972315
0.962571 1.00154 0.963834 0.997154
0.939638 0.988577 0.960109 0.989988
0.964107 1.02475 0.943434 0.997231
0.983881 1.01801 0.970434 0.99592
0.977031 1.00781 0.972164 0.997217
0.991307 1.03596 0.959181 0.997623
1.00648 1.06502 0.94729 0.997617
1.02918 1.04398 0.988545 0.997248
1.03802 1.06475 0.977204 0.99764
1.03729 1.06236 0.978808 0.997541
1.0422 1.05799 0.98772 0.997319
1.03601 1.05611 0.983362 0.997571
1.047 1.06404 0.986557 0.997394
1.048 1.05815 0.993084 0.997304
1.04311 1.05529 0.991007 0.997421
1.04727 1.05688 0.99374 0.99715
1.048 1.05491 0.996107 0.99734
1.04747 1.05253 0.998103 0.997085
1.05185 1.05562 0.99972 0.996705
1.05146 1.05497 1 0.996671
1.05312 1.05687 1 0.996457
1.0533 1.05716 1 0.996342
1.04523 1.04916 1 0.996263
1.05215 1.05625 1 0.996119
1.05419 1.05833 1 0.996089
1.01615 1.01912 1 0.997089
1.03709 1.04092 1 0.996324
1.04264 1.04679 1 0.996033
0.999219 1.00015 1.00027 0.998798
1.00829 1.01101 1.00001 0.997294
1.02165 1.02522 1 0.996519
1 1 1 1
0.999944 1 1.00092 0.99903
1.00391 1.00558 1.0008 0.997543
1 1 1 1
1.00153 1 1.00222 0.999304
1 1 1 1
1.02202 1.02565 1 0.996468
1.01137 1.01449 1.00001 0.9969
1.00785 1.01 1.00066 0.997211
1.00013 1.00243 1 0.997709
1.00051 1.00061 1.0022 0.997706
1.00384 1.00091 1.00474 0.998192
1.00383 1 1.00592 0.997922
1.00655 1 1.00804 0.998529
1.00261 1 1.00297 0.999642
1.00513 1 1.00635 0.998783
1.00057 1 1.0008 0.999772
1 1 1 1
1 1 1 1
0.999874 1 1 0.999874
1 1 1 1
0.918042 0.973294 0.955177 0.987494
0.901014 0.977128 0.951571 0.969034
0.739069 0.844882 0.918379 0.952505
1.03806 1.04188 1.00007 0.996262
1.00872 1.00164 1.00954 0.997543
1.00714 1.00882 1.00143 0.996912
1.00073 1.00353 1 0.997214
1.01841 1.0217 1.00042 0.996365
1.00602 1.00907 0.999796 0.997185
1.0007 1.00368 0.999991 0.997034
0.983717 1.00221 0.983056 0.998468
0.993549 1.00287 0.9932 0.997484
0.963974 1.00246 0.963948 0.997573
1.00756 1.01473 0.996136 0.996788
0.996086 1.00717 0.991681 0.997296
0.994096 1.00211 0.994778 0.997212
0.975935 1.00134 0.97667 0.997914
0.973791 1.00613 0.970115 0.997678
0.903066 0.968507 0.946385 0.985256
0.892203 0.966649 0.951677 0.969851
0.895654 0.94972 0.954417 0.988113
0.979928 1.005 0.976994 0.998009
0.991161 1.0002 0.992855 0.998093
0.978725 1.00721 0.976261 0.995352
0.912804 0.957284 0.964584 0.988546
0.891723 0.970444 0.947503 0.969793
0.960816 0.999285 0.964182 0.997222
0.947541 0.990653 0.967203 0.988915
0.967995 1.02631 0.945668 0.997365
0.987565 1.01795 0.973828 0.996226
0.991991 1.04432 0.952331 0.997443
1.04868 1.07059 0.982188 0.997305
0.987891 1.03313 0.958499 0.997618
1.01173 1.06648 0.950939 0.997599
1.02801 1.07594 0.957952 0.997393
1.0368 1.06394 0.97682 0.997619
1.03434 1.06054 0.977697 0.997537
1.04728 1.07156 0.980015 0.997276
1.03622 1.05546 0.98418 0.997552
1.04498 1.06248 0.986086 0.997407
1.04968 1.06299 0.990358 0.997099
1.04125 1.05293 0.991475 0.997414
1.0477 1.0573 0.993761 0.997148
1.05339 1.05916 0.997726 0.996826
1.04763 1.0526 0.998143 0.997131
1.05228 1.05601 0.99972 0.996751
1.0554 1.05917 1 0.996442
1.05327 1.05703 1 0.996446
1.053 1.05688 1 0.996328
1.0475 1.05137 1 0.996314
1.02355 1.02666 1 0.99697
1.0449 1.04881 1 0.996272
1.05234 1.05644 1 0.996112
1.00028 1.00164 1 0.998649
1.01698 1.01995 1 0.997088
1.03591 1.03973 1 0.996329
1 1 1 1
0.999435 1.00055 1.0001 0.998784
1.01094 1.01368 1 0.997293
1 1 1 1
0.999466 1 1.00045 0.999013
1 1 1 1
1.03669 1.04063 1 0.996206
1.02384 1.02747 1 0.996463
1.02021 1.02348 1 0.996797
1.01383 1.01694 1.00001 0.996932
1.00822 1.01049 1.00056 0.997201
1.00474 1.00462 1.00227 0.997848
0.999904 1.00029 1.00196 0.997654
1.00423 1.00047 1.00557 0.998194
1.00213 1 1.00266 0.999472
1.00631 1 1.00779 0.998531
1.00171 1 1.00206 0.999654
1 1 1 1
1.00012 1 1.00034 0.999783
1 1 1 1
1 1 1 1
0.974237 1.01057 0.966629 0.997332
0.912647 0.971037 0.954406 0.984769
0.900099 0.969302 0.953873 0.973509
1.02834 1.03168 1.00001 0.996747
1.04775 1.05153 1 0.996405
1.03604 1.03971 1.00013 0.99634
1.00148 1.00428 1 0.997212
1.01704 1.02002 1.00073 0.996344
1.00793 1.01188 0.998925 0.997168
1.02852 1.03496 0.997039 0.996731
0.992951 1.00404 0.991434 0.997497
0.961149 1.00189 0.961809 0.99743
1.00889 1.01679 0.995319 0.996893
1.02422 1.03855 0.989516 0.996645
0.998961 1.0265 0.97562 0.997494
1.00051 1.00927 0.994064 0.997244
0.995134 1.00263 0.995329 0.997181
0.977937 1.00773 0.972415 0.997964
0.907813 0.972159 0.949216 0.98377
0.980274 1.00503 0.976462 0.998878
1.02824 1.05525 0.976459 0.997898
0.976902 1.006 0.975476 0.995489
0.916128 0.967957 0.959669 0.986231
0.970902 1.02828 0.946579 0.997491
0.991514 1.01848 0.97689 0.996549
0.988044 1.04484 0.947912 0.997605
1.04762 1.07128 0.980542 0.997326
1.04395 1.08338 0.966195 0.997315
1.08215 1.10564 0.981251 0.997458
1.01691 1.06879 0.953771 0.997582
1.03411 1.07785 0.961932 0.997393
1.05058 1.08145 0.974201 0.997184
1.03162 1.05888 0.976662 0.997533
1.04704 1.07066 0.98061 0.997276
1.05039 1.0689 0.985573 0.997065
1.04305 1.06096 0.985659 0.997421
1.05032 1.0636 0.990388 0.997096
1.05365 1.0631 0.994251 0.996837
1.04814 1.05771 0.993783 0.997146
1.05392 1.05966 0.997747 0.996824
1.05857 1.06246 0.999847 0.996494
1.05271 1.05639 0.999719 0.996796
1.05497 1.05872 1 0.996457
1.05115 1.05504 1 0.99632
1.05271 1.0566 1 0.996314
1.04745 1.05132 1 0.996316
1.0255 1.02868 1 0.996912
1.00278 1.00418 1 0.998604
1.02305 1.02616 1 0.99697
1.04472 1.04862 1 0.996282
1 1 1 1
1.00089 1.00225 1 0.998637
1.01752 1.02049 1 0.997088
1 1 1 1
0.999501 1.00073 1 0.99877
1 1 1 1
1.04521 1.04918 1 0.996211
1.0362 1.04015 1 0.996204
1.03119 1.03481 1 0.996504
1.02477 1.02842 1 0.996458
1.01991 1.02318 1 0.996803
1.00914 1.01126 1.00035 0.997551
1.00789 1.01026 1.00046 0.997192
1.00355 1.00309 1.00261 0.99785
1.00049 1 1.00127 0.99922
1.00526 1.00003 1.00704 0.998196
1.00224 1 1.00275 0.99949
1 1 1 1
1.00133 1 1.00166 0.999666
1 1 1 1
1 1 1 1
1.00245 1.0441 0.962112 0.997917
0.971308 1.00952 0.965597 0.996429
0.914468 0.973056 0.953623 0.985494
1.04293 1.04694 0.999548 0.996621
1.02959 1.03275 0.999988 0.996954
1.06179 1.0661 0.999441 0.996515
1.04815 1.05206 0.999893 0.996388
1.03415 1.0377 1.00016 0.99642
1.05233 1.06423 0.992272 0.996516
1.00986 1.01484 0.997929 0.997151
1.0285 1.03445 0.997576 0.996669
1.04462 1.07295 0.976708 0.996808
1.00796 1.0187 0.992436 0.996999
1.02512 1.03934 0.989713 0.996576
0.99985 1.02946 0.973637 0.997532
1.00211 1.00955 0.995427 0.997191
0.982789 1.00939 0.975379 0.998224
1.06853 1.0965 0.976938 0.997493
1.03229 1.05553 0.980014 0.997923
0.975801 1.00482 0.975383 0.995625
0.984913 1.04458 0.944994 0.997766
1.04473 1.07068 0.978361 0.997348
1.03883 1.08151 0.963101 0.997339
1.08502 1.10883 0.981028 0.99745
1.06829 1.09608 0.977247 0.997335
1.0399 1.07936 0.965966 0.997393
1.05126 1.08069 0.975507 0.997194
1.05122 1.07384 0.981786 0.997097
1.04676 1.06973 0.9812 0.997276
1.05053 1.0688 0.985818 0.997046
1.05276 1.06554 0.991151 0.996825
1.05098 1.06424 0.990422 0.997093
1.0541 1.06355 0.994269 0.996832
1.06145 1.06604 0.999162 0.99653
1.05443 1.06016 0.997767 0.996823
1.05851 1.0624 0.999844 0.996496
1.05597 1.05989 1 0.996305
1.05457 1.0583 1 0.996471
1.05101 1.05488 1 0.996326
1.02624 1.02948 1 0.996849
1.04736 1.05123 1 0.996317
1.02587 1.02905 1 0.996911
1.00452 1.00567 1 0.998857
0.999541 1 1 0.999541
1.00339 1.00468 1 0.998711
1.02237 1.02548 1 0.996969
1 1 1 1
1.00174 1.00312 1 0.998624
1 1 1 1
1.06653 1.0708 0.999394 0.996616
1.05383 1.05766 1 0.996379
1.0459 1.04987 1 0.996223
1.03881 1.04258 1 0.996383
1.03624 1.04019 1 0.996202
1.03222 1.03584 1 0.9965
1.01416 1.01691 1 0.997295
1.02032 1.02359 1 0.996809
1.00707 1.00903 1.00051 0.997553
0.999118 1.00007 1.00012 0.998923
1.00232 1.00165 1.00282 0.997852
1.00087 1 1.00163 0.99924
1 1 1 1
1.00197 1 1.00246 0.999507
1 1 1 1
1 1 1 1
1.05794 1.09347 0.970193 0.99724
1.00812 1.05207 0.96019 0.997955
0.968214 1.00962 0.963286 0.995541
1.05735 1.06567 0.995626 0.996552
1.03898 1.04305 0.999427 0.996669
1.03053 1.03347 1 0.997158
1.06026 1.06448 0.999509 0.99653
1.04853 1.05259 0.999766 0.99637
1.05909 1.08458 0.97964 0.996787
1.04875 1.06102 0.991933 0.996476
1.02844 1.0337 0.998295 0.996607
1.04215 1.07028 0.976833 0.996805
1.02928 1.04267 0.990614 0.996506
1.00498 1.03721 0.971283 0.997579
1.0674 1.09083 0.981033 0.997439
1.07134 1.09908 0.977173 0.997531
1.036 1.05628 0.982822 0.997949
1.03523 1.08097 0.96022 0.99736
1.08924 1.11292 0.981232 0.997442
1.06866 1.09729 0.976501 0.997341
1.05783 1.07543 0.986399 0.997204
1.05198 1.07987 0.976906 0.997204
1.05169 1.07363 0.982429 0.997083
1.05472 1.06783 0.990832 0.996864
1.05071 1.06874 0.986063 0.997026
1.05344 1.06623 0.991154 0.996823
1.06265 1.06935 0.997175 0.996551
1.05457 1.064 0.99429 0.996828
1.06123 1.06583 0.99915 0.99653
1.05937 1.06333 1 0.99628
1.0585 1.06238 0.999842 0.996499
1.05576 1.05967 1 0.996309
1.02746 1.0308 1 0.996763
1.05085 1.05471 1 0.996332
1.0272 1.03045 1 0.996849
1.00402 1.00515 1 0.998872
1.0263 1.02948 1 0.99691
1.00443 1.00558 1 0.998851
0.999568 1 1 0.999568
0.999781 1 1 0.999781
1.00407 1.00525 1 0.998827
1 1 1 1
1.0593 1.06702 0.996121 0.996629
1.05862 1.06243 0.999948 0.99646
1.0652 1.06962 0.999117 0.996744
1.0494 1.05325 1 0.996352
1.05594 1.05979 1 0.996367
1.04664 1.0506 1 0.996235
1.03958 1.04337 1 0.996374
1.0201 1.02308 1 0.997088
1.03298 1.03662 1 0.996495
1.01286 1.01561 1 0.997296
1.00049 1.00179 1 0.998707
1.00487 1.00681 1.00052 0.997556
0.99948 1.0001 1.00044 0.998942
1 1 1 1
1.00133 1 1.00207 0.99926
1 1 1 1
1 1 1 1
1.05829 1.08487 0.978317 0.997127
1.05292 1.08802 0.970421 0.997238
1.01182 1.05671 0.959456 0.997985
1.05741 1.07454 0.987313 0.996711
1.05452 1.06295 0.995502 0.996551
1.03536 1.03945 0.999346 0.996718
1.05858 1.06269 0.999586 0.996545
1.05747 1.08253 0.980021 0.996763
1.04495 1.05759 0.991588 0.996436
1.03471 1.06219 0.977252 0.996803
1.06179 1.0783 0.987394 0.997267
1.06569 1.08885 0.981283 0.997398
1.07341 1.10101 0.977307 0.997568
1.05653 1.06967 0.990574 0.997106
1.06843 1.09809 0.975583 0.997347
1.05768 1.0754 0.986296 0.997189
1.05657 1.06865 0.9917 0.996971
1.05219 1.07341 0.983117 0.997069
1.05471 1.06786 0.990789 0.996866
1.06306 1.07113 0.995875 0.996573
1.05407 1.06686 0.991163 0.996822
1.062 1.06867 0.997203 0.996551
1.0606 1.06457 1 0.99627
1.06091 1.06552 0.999137 0.99653
1.05966 1.06361 1 0.996284
1.02794 1.03137 1 0.996682
1.05549 1.0594 1 0.996314
1.02844 1.03178 1 0.996764
1.00286 1.00402 1 0.998845
1.02821 1.03146 1 0.996849
1.00371 1.00486 1 0.998859
0.999572 1 1 0.999572
1.00431 1.00547 1 0.998848
0.999579 1 1 0.999579
1 1 1 1
1.05664 1.0674 0.993364 0.996536
1.0603 1.06502 0.999115 0.996446
1.06098 1.06857 0.996255 0.996626
1.05579 1.0596 1 0.996399
1.05981 1.0638 0.999747 0.996503
1.06406 1.06865 0.998834 0.996871
1.02826 1.03142 1 0.996938
1.04917 1.05302 1 0.996341
1.05816 1.06203 1 0.996355
1.0406 1.0444 1 0.996364
1.02064 1.02362 1 0.997089
1.00388 1.00527 1 0.998619
1.01199 1.01474 1 0.997297
1.00005 1.00133 1 0.998723
1 1 1 1
0.999697 1 1.00074 0.99896
1 1 1 1
1 1 1 1
1.05657 1.07411 0.986625 0.997006
1.0585 1.08541 0.978038 0.997108
1.05094 1.08603 0.970376 0.997236
1.05706 1.07418 0.987294 0.996728
1.05133 1.05987 0.995373 0.996549
1.05716 1.08181 0.980414 0.996739
1.05843 1.07135 0.990806 0.997104
1.06184 1.07834 0.9874 0.997261
1.06409 1.08703 0.981485 0.997358
1.05702 1.06989 0.990824 0.997126
1.05535 1.06589 0.993163 0.996925
1.05752 1.0754 0.98616 0.997175
1.05688 1.06862 0.992064 0.996931
1.06314 1.07135 0.995657 0.996662
1.05473 1.06793 0.990743 0.996869
1.06263 1.07073 0.995839 0.996575
1.06052 1.0645 1 0.996268
1.06149 1.06814 0.997216 0.996551
1.06191 1.06588 1 0.996272
1.02694 1.03041 1 0.996635
1.05999 1.06394 1 0.996287
1.0286 1.03202 1 0.996684
1.00142 1.00264 1 0.998789
1.02947 1.03281 1 0.996766
1.00247 1.00365 1 0.998826
0.999548 1 1 0.999548
1.00339 1.00454 1 0.99885
0.999593 1 1 0.999593
0.999584 1 1 0.999584
1.05715 1.06892 0.992167 0.996796
1.06131 1.0672 0.998087 0.996383
1.05653 1.06837 0.992324 0.996563
1.05976 1.06362 1 0.996366
1.05991 1.06442 0.999333 0.996431
1.06265 1.0701 0.996398 0.996624
1.03076 1.03402 1 0.996841
1.0557 1.05954 1 0.996382
1.06084 1.06499 0.999559 0.996546
1.00522 1.00662 1 0.998609
1.02782 1.03097 1 0.996939
1.0491 1.05296 1 0.99633
1.02029 1.02327 1 0.99709
1.00276 1.00413 1 0.99863
1 1 1 1
0.999482 1.00074 1 0.998739
1 1 1 1
1 1 1 1
1.05543 1.06843 0.990804 0.996997
1.05695 1.07429 0.986824 0.996996
1.05795 1.08512 0.977809 0.997089
1.05671 1.07386 0.987244 0.996745
1.05593 1.06453 0.995026 0.996883
1.05847 1.07144 0.990759 0.997115
1.06194 1.07838 0.987462 0.997255
1.05754 1.0701 0.991094 0.997147
1.05552 1.06624 0.992984 0.996935
1.06315 1.07004 0.996902 0.996644
1.05721 1.06858 0.992444 0.996892
1.06366 1.07128 0.996265 0.996609
1.05944 1.06395 0.999426 0.996338
1.06217 1.0703 0.995813 0.996577
1.06151 1.06549 0.999995 0.996271
1.02448 1.02797 1 0.996604
1.06297 1.06695 1 0.996273
1.02669 1.03015 1 0.996636
0.999637 1.00113 1 0.998507
1.0293 1.03273 1 0.996686
1.00084 1.00218 1 0.998662
1 1 1 1
1.00207 1.00326 1 0.998809
0.999575 1 1 0.999575
0.999608 1 1 0.999608
1.05595 1.06558 0.994055 0.996891
1.06079 1.06791 0.996806 0.996518
1.05758 1.06854 0.992934 0.996787
1.06107 1.06507 0.999981 0.996262
1.06052 1.06682 0.997702 0.996389
1.05646 1.06937 0.991301 0.99659
1.03028 1.0337 1 0.996691
1.05965 1.06351 1 0.996367
1.05954 1.06385 0.999533 0.996417
1.00404 1.00543 1 0.998618
1.02989 1.03319 1 0.996807
1.05541 1.05926 1 0.996366
1 1 1 1
1.00504 1.00643 1 0.99862
1.02734 1.03049 1 0.996941
1.0021 1.00346 1 0.998643
1 1 1 1
1 1 1 1
1.05424 1.06254 0.99528 0.996893
1.05583 1.06853 0.991085 0.997003
1.05729 1.07448 0.986977 0.996987
1.0626 1.06853 0.997854 0.996584
1.05536 1.06435 0.994645 0.996895
1.05853 1.07154 0.990702 0.997126
1.05565 1.0666 0.992766 0.996945
1.06276 1.06984 0.99673 0.996645
1.05818 1.06249 0.999555 0.996386
1.0641 1.07114 0.996862 0.996556
1.05986 1.0641 0.999697 0.996321
1.02222 1.02576 1 0.996548
1.06265 1.06665 0.999975 0.996273
1.02394 1.02743 1 0.996605
0.998735 1.00026 1 0.998479
1.02665 1.03012 1 0.996637
0.999319 1.00082 1 0.998505
1 1 1 1
1.00021 1.0017 1 0.998515
0.999764 1 1 0.999764
0.999599 1 1 0.999599
1.05354 1.06175 0.995396 0.996851
1.0621 1.06795 0.997917 0.996594
1.05569 1.06515 0.994199 0.996899
1.06114 1.06514 1 0.996252
1.06178 1.06867 0.997039 0.996504
1.05794 1.0681 0.993691 0.996778
1.02815 1.03165 1 0.99661
1.06058 1.06456 0.999995 0.996267
1.05976 1.06646 0.997313 0.996395
1.00199 1.0034 1 0.998595
1.02978 1.03322 1 0.996679
1.05952 1.06338 1 0.996368
1 1 1 1
1.00451 1.00589 1 0.998628
1.02928 1.03261 1 0.996772
1 1 1 1
1.00479 1.00617 1 0.998631
1 1 1 1
1.06173 1.06746 0.997991 0.996627
1.05388 1.06222 0.995257 0.996878
1.05617 1.06854 0.991384 0.99701
1.05751 1.06177 0.999607 0.996382
1.06193 1.06821 0.997502 0.996605
1.0548 1.06416 0.994275 0.996907
1.06239 1.06964 0.996568 0.996646
1.05795 1.06238 0.999441 0.996386
1.02111 1.02465 1 0.996547
1.06033 1.06427 0.99999 0.996304
1.02206 1.02559 1 0.996562
0.998457 1.00001 1 0.998443
1.02318 1.02666 1 0.996606
0.998566 1.00009 1 0.998476
1 1 1 1
0.998902 1.0004 1 0.998503
1 1 1 1
0.999572 1 1 0.999572
1.06253 1.06806 0.998211 0.996603
1.05285 1.06167 0.994799 0.996871
1.05972 1.06365 1 0.996301
1.06247 1.06835 0.997891 0.996593
1.05547 1.06478 0.994327 0.996906
1.02521 1.02868 1 0.99663
1.06026 1.06425 1 0.996248
1.06274 1.06938 0.997286 0.996489
1.00003 1.00149 1 0.998541
1.02815 1.03163 1 0.996625
1.05993 1.0639 1 0.996273
1 1 1 1
1.00256 1.00397 1 0.998601
1.02936 1.0328 1 0.996667
1 1 1 1
1.00494 1.00632 1 0.998636
1 1 1 1
1.05763 1.06176 0.999709 0.996404
1.06157 1.06722 0.998086 0.996615
1.05353 1.0619 0.995241 0.996864
1.02071 1.02423 1 0.996563
1.05727 1.0616 0.999535 0.996382
1.06121 1.06787 0.997136 0.996625
1.05773 1.06227 0.999339 0.996386
1.02124 1.02478 1 0.996545
0.998427 1 1 0.998427
1.02191 1.02542 1 0.996576
0.998441 1 1 0.998441
1 1 1 1
0.998482 1.00001 1 0.998475
1 1 1 1
1 1 1 1
1.05882 1.06272 1 0.996329
1.06208 1.06792 0.99788 0.99665
1.05217 1.06161 0.9942 0.996891
1.02297 1.02642 1 0.996641
1.05937 1.06331 1 0.996298
1.06284 1.06876 0.997866 0.996592
0.998792 1.0003 1 0.998497
1.02538 1.02885 1 0.996628
1.05946 1.06345 1 0.996245
1 1 1 1
1.00057 1.00203 1 0.998545
1.0283 1.03176 1 0.996641
1 1 1 1
1.00308 1.00448 1 0.998606
1 1 1 1
1.02129 1.02476 1 0.996614
1.05732 1.06156 0.999618 0.996385
1.06143 1.06701 0.998166 0.996603
0.998452 1 1 0.998452
1.02089 1.02442 1 0.99656
1.05704 1.06145 0.999466 0.996382
1.02137 1.02491 1 0.996543
0.998428 1 1 0.998428
1 1 1 1
0.998438 1 1 0.998438
1 1 1 1
1 1 1 1
1.02198 1.02543 1 0.996638
1.05841 1.06244 0.99985 0.996357
1.06165 1.06775 0.99758 0.996698
0.998742 1 1 0.998742
1.02341 1.02687 1 0.996639
1.05906 1.063 1 0.996295
1 1 1 1
0.999158 1.00066 1 0.998498
1.02564 1.02911 1 0.996625
1 1 1 1
1.00105 1.0025 1 0.998548
1 1 1 1
0.998438 1 1 0.998438
1.02145 1.02494 1 0.996598
1.05705 1.0614 0.999535 0.996367
1 1 1 1
0.998451 1 1 0.998451
1.02107 1.0246 1 0.996557
0.998427 1 1 0.998427
1 1 1 1
1 1 1 1
0.998711 1 1 0.998711
1.02226 1.02571 1 0.996638
1.05794 1.06212 0.999674 0.996385
1 1 1 1
0.998539 1.00006 1 0.998483
1.02368 1.02714 1 0.996638
1 1 1 1
0.999415 1.00092 1 0.998499
1 1 1 1
0.999539 1 1 0.999539
0.998588 1 1 0.998588
1.02157 1.02508 1 0.996583
1 1 1 1
0.998452 1 1 0.998452
1 1 1 1
0.999551 1 1 0.999551
0.998598 1 1 0.998598
1.02259 1.02604 1 0.996638
0.999771 1 1 0.999771
0.998715 1.00023 1 0.998484
1 1 1 1
1 1 1 1
0.998474 1 1 0.998474
1 1 1 1
0.999775 1 1 0.999775
0.998484 1 1 0.998484
1 1 1 1
1 1 1 1
1 1 1 1

VECTORS lamdaE float
1.00188 1.00002 0.993156
1.00144 1.00079 0.996567
1.00136 1.00024 0.993505
1.00187 1.00009 0.993058
1.00194 0.999926 0.993167
1.00185 1.00025 0.992964
1.00308 1.00055 0.990123
1.00148 1.00079 0.996516
1.00126 1.00008 0.997165
1.00076 1.00088 0.997178
1.00123 1.0012 0.992826
1.00303 1.0012 0.988429
1.00134 1.00001 0.993719
1.00114 0.999989 0.993884
1.00088 1.00047 0.993826
1.0015 1.00006 0.993442
1.00126 1.00062 0.993282
1.0015 0.999982 0.993534
1.00332 1.00041 0.989952
1.00135 1.00002 0.99679
1.00177 1.00013 0.99313
1.00195 0.999981 0.993092
1.00315 1.0002 0.990409
1.00317 1.00028 0.990274
1.00188 1.00051 0.992701
1.003 1.00103 0.98977
1.00527 1.00115 0.985524
1.0015 1.00077 0.996474
1.00151 0.999963 0.995257
1.00114 1.0006 0.995224
1.00138 1.00096 0.996496
1.00298 1.00134 0.988443
1.00178 0.999761 0.993274
1.00159 1.00008 0.993365
1.00349 1.00012 0.990574
1.00021 1.00128 0.997405
1.00334 1.0007 0.99034
1.00273 1.00203 0.988147
1.00501 1.00157 0.984793
1.00043 1.00002 0.997626
1.00139 0.999991 0.996761
1.00138 0.99998 0.99527
1.00127 0.999968 0.996849
1.00095 1.00001 0.994084
1.00305 0.999952 0.989827
1.00131 0.999937 0.997097
1.00348 1.0001 0.990653
1.00115 0.999982 0.993826
1.00109 1.00004 0.993887
1.00072 1.00101 0.993581
1.00355 1.00025 0.989796
1.00115 1.00005 0.995453
1.00139 1.00015 0.993516
1.00127 1.00098 0.992976
1.00156 0.999951 0.993469
1.00333 1.00015 0.990211
1.00328 1.00082 0.989603
1.00338 1.00019 0.990097
1.00527 1.00113 0.985581
1.00124 1 0.996847
1.00162 1.00009 0.993384
1.00274 0.999995 0.991682
1.00304 1.00018 0.990591
1.00321 1.00019 0.990321
1.00527 1.00012 0.98656
1.00526 1.00041 0.986211
1.0016 1.00065 0.992598
1.00286 1.00191 0.989224
1.0053 1.00167 0.98496
1.00527 1.00007 0.985879
1.00183 0.999978 0.996643
1.00123 1.00084 0.996715
1.00153 1.00052 0.996593
1.0029 1.00146 0.988454
1.00185 0.999879 0.996586
1.00171 1.00015 0.996664
1.00335 1.00006 0.98909
1.0005 1.00107 0.995502
1.0031 1.00069 0.98885
1.00258 1.00222 0.989232
1.00514 1.00142 0.984786
1.00071 1.00039 0.997255
1.00067 1.00243 0.991322
1.0035 1.00003 0.98896
1.0034 1.00014 0.989002
1.00531 1.00044 0.985599
1.0019 1.00277 0.990779
1.00526 1.00108 0.98498
1.00412 1.0028 0.985085
1.00537 1.00152 0.98419
1.00021 0.999219 0.998031
1.00027 0.999757 0.997791
1.00171 0.999958 0.996587
1.00146 0.999987 0.996727
1.00132 0.999974 0.996839
1.00122 1.00001 0.995408
1.00309 0.999939 0.990542
1.00153 0.999936 0.995197
1.00337 1.00011 0.989945
1.00127 0.999982 0.99687
1.00286 0.999815 0.990208
1.00335 1.00005 0.990917
1.00508 0.999147 0.987377
1.00349 1.00006 0.990603
1.00525 0.999444 0.986799
1.0013 0.999996 0.993801
1.001 1.00014 0.993906
1.00067 1.00145 0.99324
1.00118 0.999909 0.993842
1.0035 1.00014 0.990013
1.00357 1.00011 0.989926
1.00354 1.00061 0.989447
1.00528 1.00111 0.985635
1.0013 0.999982 0.996859
1.00123 1.00009 0.99376
1.00294 0.999942 0.990518
1.00321 1.00015 0.990391
1.0014 1.00116 0.994472
1.00315 1.00168 0.989375
1.00339 1.00014 0.990134
1.00527 0.999939 0.986787
1.00528 1.00167 0.98504
1.00527 1.0006 0.986072
1.00527 1.00007 0.985909
1.00283 0.999849 0.990244
1.00289 1.00006 0.990901
1.00496 0.998915 0.988365
1.00518 0.99951 0.987381
1.00528 0.999999 0.986649
1.00536 0.99798 0.988132
1.00083 1.00098 0.99698
1.00528 0.99922 0.98671
1.0023 1.00297 0.987801
1.00522 1.002 0.984062
1.00527 1.001 0.985027
1.00525 0.99763 0.988146
1.00124 1.00309 0.989615
1.00248 1.00426 0.986477
1.00188 0.999896 0.996605
1.00169 1.0002 0.99665
1.00337 1.00003 0.98907
1.00075 1.00071 0.997141
1.00219 1.00254 0.988465
1.00311 1.00065 0.988859
1.00524 1.00128 0.984778
1.00055 1.0004 0.997394
1.0006 1.00256 0.991336
1.00352 1.00006 0.989759
1.00343 1.0002 0.989744
1.0053 1.00046 0.985569
1.00143 1.00294 0.989411
1.00527 1.00107 0.98496
1.00434 1.00241 0.985058
1.00537 1.00139 0.984395
1.00103 1.0027 0.990336
1.00036 1.00205 0.992382
1.00209 1.00447 0.987459
1.0053 1.0001 0.985984
1.00531 1.00075 0.985268
1.0053 0.998979 0.987017
1.00332 1.00343 0.985724
1.00533 1.00033 0.985645
1.00528 1.00228 0.983705
1.00531 1.00009 0.985493
1.00011 0.998633 0.998395
1.00013 0.999121 0.998182
1.00018 0.99961 0.997953
1.00093 1.003 0.99034
1.00049 1.00081 0.997275
1.00184 0.999912 0.99657
1.00155 0.999989 0.996645
1.0032 1.00014 0.989283
1.00296 0.999943 0.989904
1.00131 0.999972 0.996816
1.00125 0.999972 0.996865
1.00285 0.999829 0.990197
1.00322 1.00006 0.990215
1.00506 0.999146 0.987385
1.00334 1.00011 0.989098
1.00523 0.999459 0.986781
1.00279 0.99981 0.990309
1.00503 0.99901 0.987591
1.00516 0.999237 0.987134
1.00531 0.995921 0.990426
1.00529 0.999761 0.986389
1.00535 0.996742 0.98948
1.00126 0.999981 0.996859
1.00082 1.00016 0.994135
1.00297 0.999925 0.98951
1.00338 1.00015 0.990187
1.00061 1.00182 0.99686
1.0035 1.00125 0.989535
1.00357 1.0001 0.98995
1.00527 0.999747 0.987016
1.00528 1.00077 0.985929
1.00526 1.00165 0.985121
1.00526 1.00007 0.985939
1.00281 0.999844 0.990248
1.00306 1.00007 0.990704
1.005 0.998869 0.988111
1.0052 0.999697 0.987147
1.00097 1.00105 0.996834
1.00247 1.00269 0.98882
1.00503 1.00227 0.984404
1.00528 1.00006 0.986607
1.00536 0.997596 0.988551
1.00529 1.0009 0.985094
1.00528 0.999379 0.986642
1.00525 0.997675 0.988154
1.00128 1.00304 0.98959
1.00258 1.00417 0.98645
1.00497 0.999081 0.98763
1.00505 0.999213 0.987928
1.00531 0.996624 0.989619
1.00536 0.996817 0.989339
1.0053 0.998341 0.987659
1.00525 0.995532 0.990574
1.00161 1.00321 0.9887
1.00525 0.996484 0.989364
1.00454 1.00283 0.984434
1.0053 1.00189 0.98392
1.00527 0.999276 0.986637
1.00524 0.996065 0.989867
1.00328 1.00392 0.985313
1.00191 1.00456 0.987429
1.00398 1.00273 0.985714
1.00338 1.00005 0.989053
1.00033 1.00024 0.997549
1.00049 1.0026 0.991354
1.00328 1.00019 0.989045
1.0053 1.00047 0.985539
1.00139 1.00307 0.989301
1.00457 1.0021 0.985035
1.0053 1.00106 0.984934
1.00538 1.00123 0.984599
1.00099 1.00279 0.990359
1.00021 1.00206 0.992403
1.0018 1.00451 0.987438
1.0053 1.00012 0.985954
1.00531 1.00075 0.985243
1.0053 0.998979 0.986998
1.00349 1.00322 0.985729
1.00531 1.00044 0.985553
1.00535 1.00226 0.983646
1.00533 0.999778 0.985732
1.00014 1.00132 0.993368
1.00299 1.00369 0.986494
1.00121 1.00486 0.988266
1.00313 1.00183 0.98771
1.0053 0.998201 0.98788
1.00529 0.999757 0.986206
1.00527 0.996772 0.989046
1.00483 1.00255 0.984081
1.00525 0.998394 0.98756
1.00534 1.00128 0.984677
1.00536 0.998736 0.986856
1.00018 1.0029 0.991734
1.00027 0.999928 0.994498
1.0001 0.998115 0.998626
1.00006 0.998548 0.998488
1.00006 0.999016 0.998311
1.00053 1.00273 0.991194
1.00029 1.00043 0.997529
1.001 1.00287 0.990286
1.00062 1.00081 0.997176
1.00332 1.00014 0.989097
1.00307 1.00008 0.989574
1.00523 0.999474 0.986768
1.00504 0.999149 0.987392
1.00286 0.999847 0.990195
1.0013 0.999959 0.996862
1.00281 0.999802 0.990312
1.00501 0.999022 0.987599
1.00514 0.999275 0.987128
1.00532 0.995893 0.990431
1.00528 0.999778 0.986364
1.00534 0.996722 0.989486
1.00497 0.998999 0.987684
1.00531 0.995861 0.990522
1.00535 0.996175 0.990081
1.00531 0.994955 0.991321
1.00531 0.997457 0.988725
1.00526 0.994968 0.991158
1.00282 0.999844 0.990259
1.00323 1.00005 0.990507
1.00503 0.998814 0.987859
1.00521 0.999878 0.986914
1.00116 1.00113 0.99665
1.00285 1.00253 0.989594
1.00484 1.00247 0.98474
1.00529 1.00011 0.986563
1.00536 0.997213 0.988969
1.00527 0.999541 0.986576
1.0053 1.0008 0.985161
1.00525 0.997716 0.988162
1.00134 1.00296 0.989567
1.00256 1.00404 0.986425
1.00497 0.998845 0.987879
1.00508 0.999194 0.987904
1.00531 0.996571 0.989708
1.00537 0.99716 0.988939
1.00169 1.00319 0.98871
1.00431 1.00302 0.984461
1.00531 1.00203 0.983762
1.00529 0.998569 0.987501
1.00525 0.995326 0.990751
1.00527 0.999047 0.986883
1.00526 0.996513 0.989348
1.00524 0.996029 0.989756
1.00325 1.00407 0.98526
1.0038 1.00294 0.985582
1.00177 1.00448 0.987475
1.00531 0.996476 0.989826
1.00534 0.996793 0.98943
1.0053 0.995015 0.991185
1.00529 0.99494 0.991133
1.00525 0.995653 0.990223
1.00523 0.994926 0.99099
1.00374 1.00369 0.984782
1.00526 0.995177 0.990505
1.0053 1.00305 0.982867
1.00527 1.00054 0.985124
1.00523 0.997648 0.988235
1.00524 0.995653 0.990189
1.00108 1.00509 0.987844
1.00472 1.00342 0.983981
1.00295 1.00274 0.986821
1.00501 1.00295 0.984126
1.00529 1.00014 0.985924
1.0001 1.00212 0.992418
1.00084 1.00302 0.990387
1.00153 1.00449 0.987414
1.00531 1.00075 0.985216
1.0053 0.99898 0.98698
1.00364 1.00285 0.985737
1.00537 1.00225 0.983586
1.0053 1.00055 0.985462
1.00533 0.999483 0.985971
1.00009 1.00129 0.993401
1.00285 1.00352 0.986564
1.001 1.00502 0.988219
1.00327 1.00173 0.98776
1.0053 0.998199 0.987862
1.0053 0.99975 0.986185
1.00527 0.996753 0.989051
1.005 1.00253 0.98406
1.00525 0.998594 0.987321
1.00531 1.00115 0.984653
1.00535 0.9986 0.987044
1.00023 1.00045 0.994072
1.00088 1.00454 0.989206
1.00385 1.00232 0.985981
1.00243 1.00338 0.988
1.00387 0.999722 0.988814
1.00527 0.995929 0.989949
1.00525 0.997606 0.988165
1.00525 0.995648 0.989965
1.00518 1.00216 0.98406
1.00528 0.997296 0.98839
1.00522 0.999881 0.985872
1.00045 1.00308 0.991067
1.00028 1.00465 0.989895
1.00009 1.00235 0.992432
1.00017 1.00287 0.991743
1.0002 0.999554 0.995678
1.00024 0.999866 0.994943
1.00026 0.997634 0.997154
1.00009 0.998031 0.998668
1.00003 0.998425 0.998561
0.999973 1.00231 0.992429
1.0001 0.999944 0.997912
1.00062 1.00265 0.991187
1.0004 1.00055 0.997431
1.00108 1.00279 0.99023
1.00074 1.00087 0.997079
1.00526 0.999795 0.986339
1.00513 0.999308 0.98712
1.00532 0.996726 0.989493
1.00532 0.99588 0.990437
1.00499 0.999034 0.987608
1.00281 0.999788 0.99031
1.00497 0.999001 0.987688
1.00531 0.995847 0.990527
1.00534 0.996187 0.99009
1.0053 0.994951 0.991322
1.00531 0.997438 0.988717
1.00527 0.99495 0.991184
1.00531 0.995906 0.990484
1.00529 0.994965 0.991375
1.0053 0.994915 0.991284
1.00526 0.994955 0.991264
1.00524 0.995286 0.990723
1.00527 0.994889 0.991031
1.00498 0.998607 0.988128
1.00511 0.999172 0.987882
1.00531 0.996544 0.989796
1.00539 0.997481 0.988541
1.00175 1.00316 0.988728
1.00406 1.00336 0.984501
1.00533 1.00215 0.983606
1.00529 0.998793 0.987343
1.00524 0.995125 0.990929
1.00526 0.996548 0.989333
1.00526 0.998806 0.987129
1.00524 0.995989 0.989645
1.00333 1.00432 0.985205
1.00364 1.00305 0.98545
1.00167 1.00443 0.987519
1.00531 0.996239 0.990108
1.00534 0.996775 0.989443
1.0053 0.994994 0.991237
1.00529 0.995063 0.990976
1.00367 1.00385 0.984806
1.00528 1.00309 0.982933
1.00527 1.00072 0.984885
1.00525 0.995878 0.989991
1.00524 0.994923 0.990949
1.00524 0.997501 0.988211
1.00526 0.995193 0.990476
1.00524 0.99554 0.990232
1.00434 1.00361 0.983974
1.00477 1.00304 0.983879
1.00127 1.005 0.987884
1.00294 1.00278 0.986828
1.00529 0.994966 0.99138
1.00533 0.995066 0.990961
1.00526 0.994952 0.991273
1.00525 0.994922 0.990962
1.00527 0.99492 0.990788
1.00531 0.994915 0.990753
1.00519 1.00348 0.982809
1.00527 0.994923 0.990582
1.00526 1.00219 0.983526
1.00522 0.999681 0.985923
1.00518 0.996917 0.988772
1.00529 0.995438 0.99016
1.00084 1.00477 0.988662
1.00241 1.00438 0.986289
1.00513 1.00376 0.982512
1.00422 1.00205 0.986216
1.00472 1.00422 0.982841
1.00003 1.00121 0.993435
1.0053 0.998195 0.987845
1.00084 1.0051 0.98817
1.00262 1.00353 0.986635
1.00336 1.0015 0.987809
1.00529 0.999746 0.986166
1.00526 0.996734 0.989056
1.00521 1.00231 0.984037
1.0053 1.00106 0.984628
1.00524 0.998775 0.987083
1.00535 0.998475 0.987231
1.00021 1.00041 0.994101
1.00064 1.00463 0.989215
1.00411 1.00197 0.986059
1.00213 1.00338 0.987928
1.00392 0.999763 0.988252
1.00526 0.995906 0.989963
1.00525 0.997581 0.988166
1.00525 0.995614 0.989971
1.00517 1.00223 0.983974
1.0053 0.997393 0.988206
1.00523 0.999923 0.986071
1.00063 1.00367 0.990291
1.0014 1.00505 0.98839
1.00452 1.00197 0.985324
1.00324 1.00113 0.98853
1.00494 1.00076 0.987112
1.00531 0.995071 0.99056
1.00524 0.996337 0.989164
1.00522 0.995329 0.990076
1.00501 1.00134 0.984597
1.0052 0.998574 0.9869
1.00039 1.00322 0.991053
1.00056 1.0042 0.989703
0.999987 1.00469 0.989914
1.00053 1.00455 0.990033
1.00009 1.00426 0.990709
0.999974 1.00206 0.992881
1 1.00242 0.992455
1.00016 0.999197 0.996013
1.00014 1.00289 0.991752
1.00022 0.999439 0.995732
1.00028 0.997274 0.997403
1.00023 0.999821 0.995377
1.00017 0.997705 0.997971
1.00008 0.997949 0.998707
0.999744 1.00125 0.993876
1.0001 1.00219 0.992438
0.99987 0.999219 0.998402
1.00024 0.999983 0.997749
1.00071 1.0025 0.991182
1.0005 1.00059 0.997334
1.00531 0.997417 0.988708
1.00533 0.996152 0.9901
1.00528 0.994931 0.991209
1.0053 0.994947 0.991323
1.00531 0.995834 0.990531
1.00497 0.999004 0.987691
1.0053 0.995903 0.990484
1.00529 0.994966 0.991379
1.00531 0.994912 0.991298
1.00526 0.994954 0.991247
1.00525 0.995256 0.990745
1.00527 0.994884 0.991019
1.00529 0.994967 0.991387
1.00526 0.994946 0.99136
1.00526 0.994954 0.991141
1.00528 0.994937 0.991217
1.0053 0.994856 0.990904
1.00533 0.994922 0.990873
1.00531 0.996 0.99039
1.00534 0.996776 0.989455
1.00531 0.994952 0.991289
1.00529 0.995194 0.990818
1.0036 1.00392 0.984828
1.00523 1.00308 0.982993
1.00528 1.00084 0.984645
1.00525 0.996102 0.989758
1.00524 0.994921 0.990909
1.00526 0.9952 0.990447
1.00525 0.997373 0.988189
1.00526 0.99539 0.990279
1.00395 1.00412 0.983971
1.00474 1.00325 0.983634
1.00143 1.00478 0.987925
1.00292 1.00249 0.986831
1.00529 0.994967 0.991377
1.00533 0.99506 0.99099
1.00527 0.994949 0.991244
1.00525 0.994927 0.990975
1.005 1.00376 0.982827
1.00526 1.00231 0.983393
1.00523 0.999623 0.985907
1.00528 0.994923 0.990781
1.0053 0.994913 0.990727
1.00522 0.996848 0.988776
1.00528 0.994917 0.990566
1.00529 0.995272 0.990312
1.00511 1.00386 0.982586
1.00462 1.00454 0.982688
1.0041 1.00191 0.986255
1.00077 1.00459 0.988754
1.00217 1.00457 0.986316
1.00526 0.994952 0.9913
1.00528 0.994937 0.991108
1.00532 0.994896 0.990692
1.00529 0.994903 0.990672
1.00517 1.00365 0.982448
1.00528 0.994906 0.990522
1.00517 1.00149 0.983943
1.00518 0.998994 0.986539
1.00525 0.996363 0.989024
1.00006 1.00398 0.990476
1.00167 1.0051 0.987414
1.00317 1.00469 0.985683
1.00495 1.00473 0.982283
1.00496 1.00262 0.984288
1.00455 1.00433 0.982698
1.00019 1.00036 0.99413
1.00043 1.00477 0.989224
1.00526 0.995887 0.989978
1.00183 1.00349 0.987854
1.00444 1.00188 0.986139
1.00405 0.999978 0.987696
1.00525 0.997558 0.988166
1.00525 0.995582 0.989977
1.0052 1.0022 0.983894
1.0052 0.999989 0.986272
1.00531 0.997479 0.988021
1.00053 1.00378 0.990286
1.00091 1.0051 0.988365
1.00478 1.00192 0.984934
1.00313 1.00106 0.988572
1.00462 1.00025 0.986853
1.00529 0.995039 0.990587
1.00526 0.996357 0.989139
1.00524 0.99534 0.990031
1.00504 1.00138 0.98471
1.00518 0.998706 0.986835
1.00093 1.00464 0.98921
1.00093 1.00416 0.988524
1.00482 1.00225 0.984537
1.00393 1.00045 0.987116
1.00498 1.00154 0.98568
1.00527 0.994851 0.990604
1.00529 0.996639 0.988596
1.00532 0.995654 0.989398
1.00505 1.00048 0.985637
1.00513 0.999143 0.986549
1.00034 1.00332 0.991039
1.0006 1.00428 0.989615
0.999851 1.00407 0.990808
0.999864 1.00466 0.989928
0.999913 1.00434 0.990701
0.999873 1.00477 0.990205
0.999987 1.00324 0.991652
0.999686 1.0049 0.990338
0.999874 1.00387 0.991297
0.999985 1.00203 0.992892
0.999993 1.002 0.992881
1.00007 0.999116 0.996235
0.999974 1.00234 0.992474
1.00017 0.999182 0.996056
1.00022 0.997147 0.997607
1.00025 0.999363 0.995791
1.00023 0.99735 0.997392
1.00003 0.997727 0.998811
0.999802 1.00009 0.994971
0.999804 1.00129 0.993831
0.99975 0.998531 0.998765
1.00026 1.00211 0.992448
1.00001 0.999376 0.998219
1.00035 1.00017 0.997608
1.00525 0.995222 0.990766
1.00531 0.994908 0.991313
1.00528 0.994879 0.991009
1.00526 0.994954 0.991229
1.00529 0.994968 0.991384
1.0053 0.995911 0.990485
1.00529 0.994969 0.991399
1.00526 0.994946 0.991362
1.00526 0.994957 0.991144
1.00528 0.994938 0.991198
1.00529 0.994853 0.990927
1.00533 0.994921 0.990808
1.00526 0.994949 0.991351
1.00528 0.99493 0.991296
1.00529 0.994938 0.991066
1.00534 0.994852 0.990679
1.0053 0.994967 0.991375
1.00534 0.99505 0.991018
1.00527 0.994946 0.991215
1.00524 0.99493 0.990988
1.00483 1.00377 0.982845
1.00525 1.00248 0.983262
1.00524 0.999617 0.985891
1.00527 0.994926 0.990774
1.0053 0.994912 0.990701
1.00528 0.994912 0.99055
1.00524 0.996758 0.988776
1.00524 0.995265 0.990464
1.00478 1.00411 0.982657
1.00452 1.0046 0.982537
1.00416 1.00192 0.986289
1.00075 1.00443 0.988858
1.00192 1.00484 0.986346
1.00526 0.994952 0.991288
1.00528 0.994938 0.99112
1.00532 0.994904 0.990714
1.00519 1.00366 0.982498
1.00515 1.00172 0.983829
1.00519 0.998933 0.986542
1.00529 0.994903 0.990679
1.00523 0.996267 0.989239
1.00527 0.994905 0.990507
1 1.00373 0.990735
1.0046 1.00469 0.982352
1.00431 1.00507 0.982475
1.00468 1.00312 0.984324
1.00345 1.00407 0.985586
1.00135 1.00511 0.987449
1.00529 0.994934 0.991223
1.00531 0.994909 0.990921
1.00531 0.994895 0.990594
1.00527 0.994883 0.990553
1.00489 1.00376 0.982913
1.00522 0.995175 0.990416
1.00502 1.00097 0.984787
1.00516 0.998512 0.986842
0.999919 1.00205 0.992499
1.0005 1.00507 0.989315
1.00234 1.00503 0.986988
1.00355 1.00449 0.984412
1.00434 1.00464 0.98383
1.00482 1.00444 0.982591
1.00042 1.00394 0.99028
1.00043 1.00512 0.988341
1.00527 0.995005 0.990613
1.00305 1.0009 0.988608
1.00513 1.00182 0.984538
1.00396 1.00049 0.986589
1.00528 0.996377 0.989116
1.00526 0.995344 0.989986
1.0051 1.00149 0.984819
1.00519 0.998841 0.986771
1.00071 1.00468 0.989226
1.00139 1.0041 0.988299
1.00479 1.00227 0.984516
1.00428 1.00073 0.987194
1.00485 1.00181 0.985386
1.00528 0.994863 0.990612
1.00529 0.996515 0.988854
1.00531 0.995733 0.98949
1.00508 1.00041 0.985591
1.00509 0.999434 0.986295
0.999607 1.00461 0.989608
1.00107 1.00325 0.9884
1.00485 1.00135 0.985409
1.00509 1.00086 0.985499
1.00537 0.994813 0.990449
1.0053 0.995129 0.990235
1.00525 0.998031 0.987133
1.00511 0.999924 0.985643
1.00086 1.00426 0.989528
1.00002 1.00411 0.990646
0.998972 1.00373 0.993284
0.999708 1.00456 0.990698
0.999194 1.005 0.990377
0.999887 1.00387 0.991273
0.999623 1.00343 0.992073
0.999742 1.005 0.990285
0.999759 1.0008 0.994522
0.999703 1.00454 0.990932
0.999608 1.00468 0.990459
1.00005 1.00369 0.991202
0.999951 1.00224 0.99268
0.999945 1.00204 0.992879
0.999955 0.999139 0.996352
0.999968 1.00199 0.992885
1.00008 0.999091 0.996252
1.00014 0.997161 0.997712
1.00017 0.999133 0.9961
1.00021 0.997162 0.997597
1.00018 0.997421 0.997371
0.999961 0.999277 0.995581
0.999803 1.00024 0.994901
0.999732 0.99799 0.998948
0.999826 1.00141 0.993783
0.999812 0.998655 0.998661
1.00017 0.999427 0.998017
1.00529 0.994849 0.99095
1.00526 0.994961 0.991147
1.00532 0.994922 0.990743
1.00527 0.994938 0.991179
1.00526 0.994945 0.991364
1.00529 0.994971 0.991409
1.00526 0.994948 0.991358
1.00528 0.994929 0.991287
1.00529 0.994937 0.991028
1.00533 0.994848 0.990686
1.00528 0.994927 0.991311
1.00527 0.994921 0.991209
1.00534 0.994897 0.990806
1.00526 0.994953 0.991276
1.00528 0.994939 0.991132
1.00532 0.994911 0.990736
1.00525 1.00359 0.982553
1.00516 1.0019 0.983714
1.0052 0.998783 0.986544
1.00529 0.994902 0.990685
1.00529 0.994899 0.990491
1.00525 0.996071 0.989453
1.00438 1.00478 0.982419
1.00463 1.00507 0.982269
1.00444 1.00355 0.984366
1.00006 1.00355 0.991002
1.00387 1.00374 0.98549
1.001 1.00512 0.987473
1.00528 0.994934 0.991244
1.00531 0.994908 0.99089
1.00532 0.994892 0.990593
1.00499 1.00358 0.982915
1.00499 1.0009 0.984726
1.00516 0.998376 0.987175
1.00527 0.994885 0.990525
1.00509 0.995143 0.990364
0.999928 1.00206 0.99272
1.00037 1.00504 0.989292
1.00421 1.00375 0.983677
1.00463 1.00432 0.982941
1.00387 1.00416 0.9845
1.00213 1.00507 0.986788
1.0053 0.994913 0.991173
1.00535 0.994839 0.990632
1.00531 0.994898 0.990519
1.00522 0.994887 0.990349
1.0042 1.00255 0.984444
1.00517 0.996062 0.989343
1.00501 1.00066 0.985329
1.00012 1.00111 0.993612
1.00024 1.00235 0.992349
0.999533 1.00387 0.991538
1.0011 1.00505 0.988323
1.0017 1.0051 0.986195
1.00441 1.00451 0.98304
1.00287 1.0045 0.985616
1.00353 1.00468 0.985045
1.0004 1.00467 0.989241
1.00193 1.00405 0.988073
1.0053 0.99488 0.990619
1.00458 0.999725 0.987275
1.00473 1.0023 0.984498
1.00483 1.00208 0.9851
1.00529 0.996377 0.989113
1.0053 0.995794 0.989584
1.00509 1.00029 0.985544
1.00503 0.999689 0.986043
1.00036 1.00436 0.989404
1.0019 1.0033 0.988131
1.00487 1.00134 0.985238
1.00519 1.00097 0.985641
1.00537 0.994797 0.990437
1.00532 0.995132 0.990175
1.0052 0.997956 0.987257
1.00511 1.00007 0.985707
0.99933 1.00453 0.990624
1.00541 0.994878 0.990438
1.00346 1.00255 0.987623
1.00505 1.00088 0.985296
1.0053 0.994723 0.990818
1.00516 0.997136 0.987183
1.00505 1.00081 0.985463
1.00011 1.00424 0.990485
0.998869 1.00346 0.993239
0.997711 1.00233 0.996265
0.999874 1.00375 0.991249
0.999715 1.00507 0.99023
0.998328 1.00434 0.992493
1.00007 1.00356 0.991186
0.999648 1.00477 0.99049
0.998596 1.00188 0.994937
0.999823 1.00445 0.990815
0.999242 0.999638 0.997352
0.998701 1.00312 0.993578
0.99959 1.00506 0.990396
1.00033 1.00462 0.989696
1.00021 1.00376 0.990767
0.999943 1.00242 0.992529
0.999892 1.00236 0.992659
0.999828 0.999311 0.996435
0.999896 1.00215 0.992866
0.99997 0.999177 0.996354
1.00001 0.997307 0.9978
1.0001 0.999065 0.996272
1.00014 0.997181 0.997707
1.0002 0.997189 0.997581
1.00011 1.00103 0.993751
1.00002 0.998834 0.995927
0.999941 0.99938 0.995532
0.999808 0.997645 0.999038
0.999802 1.00031 0.994832
0.99977 0.998127 0.998909
0.999915 0.998777 0.998529
1.00533 0.994844 0.990694
1.0053 0.994936 0.99099
1.00528 0.994928 0.991277
1.00526 0.994947 0.991366
1.00528 0.994924 0.991317
1.00528 0.99492 0.991215
1.00533 0.994892 0.990762
1.00528 0.994911 0.991256
1.00536 0.994894 0.991058
1.00555 0.995089 0.991005
1.00528 0.994935 0.991264
1.00531 0.994903 0.990859
1.00532 0.994892 0.990591
1.0048 1.00345 0.982921
1.00503 1.00116 0.984689
1.00499 0.998292 0.987496
1.00528 0.994894 0.990495
1.00515 0.995166 0.990314
1.00375 1.00441 0.983524
1.00422 1.00468 0.983246
1.00391 1.00359 0.984584
0.999957 1.00195 0.992941
1.00023 1.00506 0.989266
1.00193 1.00508 0.986585
1.0053 0.994908 0.991152
1.00012 1.00107 0.993603
1.00015 1.00235 0.992203
1.00534 0.99486 0.990643
1.0053 0.994905 0.990531
1.00451 1.00278 0.984382
1.00485 1.00041 0.985647
1.00513 0.996172 0.989261
1.00522 0.994883 0.990303
0.99966 1.00379 0.991688
1.00102 1.00506 0.98826
1.00298 1.00442 0.985479
1.00371 1.00444 0.984108
1.00441 1.00449 0.983007
1.00193 1.00506 0.986204
1.00539 0.994863 0.990905
1.00535 0.994853 0.990488
1.00526 0.994896 0.99045
1.00519 0.994952 0.990311
1.00349 1.00206 0.986333
1.00479 0.999204 0.987616
1.00011 1.00271 0.991797
0.999882 1.00238 0.992669
1.00176 1.00061 0.992023
1.00074 1.00393 0.989563
1.00135 1.0051 0.987724
1.00295 1.00461 0.985839
1.00243 1.0051 0.984036
1.00157 1.00125 0.990772
1.00082 1.00413 0.989204
1.00279 1.0035 0.987857
1.00538 0.994784 0.990425
1.00535 0.995148 0.990116
1.00521 1.00139 0.985779
1.00492 1.00139 0.985064
1.00516 0.997892 0.987381
1.00512 1.00025 0.985775
0.999986 1.00413 0.990498
1.00542 0.994886 0.990664
1.00265 1.00284 0.988039
1.00503 1.00092 0.985281
1.00532 0.994733 0.990834
1.00517 0.997292 0.987397
1.00492 1.0007 0.9854
0.999146 1.00502 0.992023
1.00496 0.994805 0.990672
1.0024 1.00244 0.988064
1.00452 1.0022 0.984403
1.00508 0.995583 0.990114
1.00371 1.00101 0.986337
0.998871 0.994725 0.985415
0.998726 1.00351 0.993198
0.997604 1.00251 0.996297
0.997623 1.0018 0.997393
1 1.0036 0.99117
0.99956 1.0049 0.990522
1.00032 1.00424 0.9907
0.998014 1.0021 0.995369
1.00014 1.00386 0.990767
1.00022 1.00457 0.989844
0.99905 0.999316 0.997419
0.9996 1.00499 0.990388
0.999174 1.00316 0.993105
0.997777 1.00179 0.997307
1.00031 1.004 0.990485
1.00002 1.0049 0.990194
1.00076 1.00439 0.98948
1.00018 1.00411 0.990234
1.00042 1.00498 0.989743
1.00007 1.00432 0.990132
0.999906 1.00244 0.992523
0.999913 1.00245 0.992514
0.999706 0.999357 0.995909
0.999883 1.00235 0.992637
0.999812 0.999344 0.996115
0.999984 0.99741 0.999088
0.99998 0.99922 0.996358
1.00003 0.997277 0.997796
1.00016 0.997195 0.997697
1.00002 1.00082 0.994001
1.00013 1.00091 0.993786
1.00008 0.998537 0.9962
1.00002 0.998854 0.996221
0.999859 0.997362 0.999115
0.999913 0.99953 0.995483
0.999808 0.997714 0.999019
0.999809 0.998185 0.998864
1.00531 0.994887 0.990718
1.00528 0.994919 0.991221
1.00528 0.994921 0.991323
1.00528 0.99491 0.991258
1.00535 0.994894 0.991022
1.00557 0.995074 0.990818
1.00544 0.99488 0.99105
1.00119 0.994828 0.980963
1.00496 0.99519 0.991465
1.00016 1.00201 0.992607
1.0053 0.994905 0.991131
1.00534 0.994875 0.990654
1.00529 0.994902 0.990543
1.00463 1.00243 0.984298
1.005 0.999939 0.985947
1.0049 0.996058 0.98917
1.00523 0.994869 0.990259
1.00348 1.00354 0.985397
1.0046 1.00422 0.983251
1.00455 1.00436 0.98297
1.0001 1.0011 0.993596
1.00248 1.00506 0.98621
0.999738 1.00376 0.991823
1.00092 1.00507 0.988198
1.00007 1.00236 0.992061
1.00539 0.994863 0.990904
1.00009 1.00263 0.991989
0.999875 1.00246 0.992707
1.00107 1.00099 0.992488
1.00535 0.994846 0.990466
1.00525 0.994878 0.990413
1.00289 1.00291 0.986436
1.00485 0.998203 0.988029
1.00519 0.994937 0.990273
1.0006 1.00389 0.989782
1.00155 1.0051 0.9876
1.00217 1.00204 0.989736
1.0035 1.00498 0.983779
1.00323 1.00369 0.986048
1.00541 0.994712 0.990989
1.00527 0.994852 0.990631
1.0052 0.994905 0.990012
1.00512 0.996472 0.990591
1.00182 1.00035 0.990327
0.999498 1.00345 0.991845
1.00189 1.0008 0.991288
1.00015 1.00049 0.992886
1.00116 1.00426 0.989683
1.00084 1.00485 0.988915
1.00099 1.0039 0.988006
1.00136 0.999813 0.992575
1.00107 1.00356 0.990347
1.00167 1.0031 0.988464
1.00542 0.994977 0.990883
1.00533 0.994747 0.990841
1.00518 0.99741 0.987611
1.00505 1.00092 0.985265
1.0048 1.00058 0.985344
0.999443 1.00469 0.992293
1.00464 0.994827 0.990882
1.00259 1.00236 0.988037
1.00468 1.00215 0.984345
1.005 0.995484 0.990423
1.00396 1.00093 0.986416
0.998651 0.995374 0.983503
0.997953 1.00446 0.993634
1.00332 0.994867 0.991101
1.00303 1.00288 0.985866
1.00305 1.00126 0.986929
1.00355 0.997536 0.990635
0.999962 0.994889 0.941309
0.995014 0.994779 0.963069
0.99586 0.998753 0.987632
0.998405 0.994782 0.853263
0.994706 0.994871 0.813724
0.997728 1.00243 0.996325
0.997418 1.00196 0.99753
0.997134 1.00316 0.997162
1.00013 1.00389 0.990768
1.00016 1.00449 0.98999
0.999712 1.00503 0.990382
0.999516 1.00337 0.992608
0.998872 0.999025 0.997476
0.999862 1.00497 0.99029
1.00024 1.00407 0.99031
1.00064 1.00445 0.989461
0.998205 1.00086 0.996837
0.999841 1.00432 0.990896
1.00043 1.00416 0.99112
0.998349 1.00416 0.993258
0.999769 1.00474 0.990733
1.00059 1.00467 0.988938
1.00015 1.00418 0.990282
1.00017 1.00495 0.989529
1.00046 1.00374 0.990911
0.999739 1.00489 0.990638
1.00019 1.00491 0.989777
1.00022 1.00426 0.990304
1.00012 1.0043 0.990144
0.999898 1.00252 0.992506
0.999919 1.00246 0.992529
0.999685 0.999387 0.995954
0.999866 1.00256 0.992499
0.99969 0.999399 0.995908
0.999937 0.997402 0.999121
0.999786 0.999395 0.995797
0.999947 0.997411 0.998472
1.00006 0.997253 0.997788
0.9999 1.00059 0.994387
1 1.00088 0.994006
1.00009 0.998319 0.996419
1.00017 1.00077 0.99382
1.00007 0.998483 0.996498
0.999915 0.997036 0.999181
1.00004 0.998932 0.995859
0.999862 0.997498 0.999081
0.99982 0.997816 0.999002
1.00533 0.994894 0.990986
1.00528 0.994909 0.99126
1.00554 0.99491 0.990635
1.00043 0.994847 0.981135
1.00545 0.994882 0.99103
1.00489 0.994965 0.991387
1.00545 0.995103 0.991116
0.995953 0.994898 0.963317
1.00205 0.994861 0.982409
1.00022 1.00164 0.99295
1.00012 1.00218 0.992569
0.999381 1.00396 0.991756
0.99987 1.00255 0.992428
1.00538 0.994863 0.990902
1.00534 0.99486 0.990443
1.00524 0.994876 0.990376
1.00384 1.00335 0.986543
1.00471 0.996635 0.98848
1.00517 0.994931 0.990246
1.0019 1.00232 0.988648
1.0048 1.00472 0.983515
1.00332 1.0026 0.986248
0.999837 1.00252 0.992747
1.00137 1.00507 0.987497
1.00052 1.00399 0.990001
0.999999 1.00274 0.992179
1.00036 1.00143 0.992937
1.0054 0.994758 0.990988
0.999846 1.00352 0.991542
1.00173 1.0005 0.991697
0.998029 1.0011 0.99592
1.00529 0.994872 0.990565
1.0052 0.994953 0.990025
1.003 0.999634 0.990359
1.00478 0.99573 0.99069
1.00132 1.00443 0.988913
1.00095 1.00451 0.988052
1.00128 1.00078 0.992537
1.00267 1.00365 0.987389
1.00422 0.995476 0.991251
1.00518 0.995121 0.990777
1.0051 0.995747 0.989715
1.00354 0.99586 0.99364
0.997409 1.00478 0.994003
1.00165 1.00164 0.990381
0.997924 1.00455 0.993629
0.999189 1.00403 0.992225
1 0.994901 0.927067
0.999447 1.00451 0.992577
1.00249 1.00267 0.987995
1.00424 0.994793 0.991125
1.00491 0.995401 0.990726
1.00417 1.00085 0.986471
1.00465 1.00218 0.984276
0.998562 0.996204 0.981424
0.998489 1.00422 0.993623
1.00312 0.99548 0.990979
1.00303 1.00341 0.985823
1.00366 1.00105 0.987063
1.00382 0.997727 0.990421
0.99992 0.994871 0.927593
0.995454 0.994809 0.9597
0.995891 0.998636 0.987947
0.997656 0.994763 0.857945
0.994722 0.994909 0.806018
0.998894 1.0043 0.992052
0.99963 0.994807 0.863812
0.994735 0.994823 0.804782
1.0007 0.998634 0.992593
1.00152 1.00205 0.989491
1.00157 0.999755 0.992544
0.994889 0.997454 0.990981
0.997429 0.994792 0.940678
0.994885 0.994784 0.955724
0.995915 0.994803 0.878154
0.994736 0.994833 0.793708
0.997078 1.00217 0.997677
0.997026 1.00275 0.997053
0.99695 1.00476 0.996194
1.00033 1.004 0.990382
1.00061 1.00447 0.989443
0.999358 1.00504 0.990385
0.999521 1.0045 0.991305
0.998729 1.00003 0.99638
1.00023 1.00408 0.990274
1.00014 1.00429 0.990904
0.999671 1.00488 0.990467
1.00077 1.00469 0.989089
0.998294 1.00386 0.993557
0.999198 1.00394 0.992939
0.996948 1.00501 0.994487
0.999876 1.00503 0.989793
1.00049 1.00473 0.989479
1.00037 1.00495 0.989498
1.00021 1.00323 0.991311
1.00004 1.00493 0.990294
1.00038 1.00247 0.992011
0.999132 1.0017 0.993435
0.99857 1.00476 0.992019
0.999355 1.00471 0.990943
0.999824 1.00469 0.990666
1.00015 1.00433 0.990246
1.00005 1.00485 0.989813
1.00026 1.00422 0.990232
0.999977 1.0026 0.992302
1.00019 1.00427 0.990156
0.999918 1.00246 0.992519
0.999892 0.999344 0.996388
0.999864 1.00251 0.992534
0.999741 0.999345 0.996213
0.999893 0.997362 0.997965
0.999679 0.9994 0.995905
0.999929 0.997419 0.999131
0.999932 0.997447 0.997853
1.00032 1.00166 0.992735
0.999922 1.00041 0.994559
0.999901 1.00064 0.994379
1.00005 0.998225 0.99655
0.999978 1.00095 0.994011
1.0001 0.998288 0.996413
0.999964 0.996897 0.999218
1.00007 0.998487 0.996747
0.999915 0.997212 0.998584
0.99988 0.99755 0.997855
0.999924 0.99483 0.981276
1.00549 0.994868 0.991005
1.00486 0.994888 0.991299
0.996225 0.994835 0.963817
1.00213 0.994897 0.982802
1.0054 0.995418 0.991109
1.00348 0.995954 0.986154
0.997564 0.994833 0.96607
0.999914 0.994856 0.940339
0.997047 0.994796 0.879414
0.994664 0.99483 0.812121
0.999623 1.00266 0.992533
1.00022 1.00162 0.992935
1.00023 1.00208 0.992528
0.99972 1.00334 0.992001
0.998731 1.0046 0.992732
1.00051 1.00234 0.99173
1.00022 1.00324 0.991555
1.00016 1.00231 0.992314
1.00542 0.994792 0.990978
1.0053 0.994873 0.990505
1.00519 0.995127 0.990035
1.00293 1.00029 0.990393
1.00459 0.995723 0.990776
1.00121 1.00072 0.992487
1.00409 1.00351 0.986784
1.00215 1.00486 0.987196
1.00151 1.00025 0.992096
1.00154 1.00458 0.988092
1.00036 1.00333 0.991256
0.996467 1.00193 0.998838
1.00425 0.99495 0.991545
0.997834 1.00447 0.993879
1.00123 1.00182 0.991589
1.00491 0.994976 0.990749
1.00473 0.995995 0.990056
1.00293 0.995858 0.993364
0.999526 1.00494 0.991613
1.00014 1.00273 0.992463
1.00334 0.99517 0.990481
1.00357 0.99868 0.990567
1.00439 0.995842 0.991589
1.00082 0.997359 0.995018
0.999004 1.00493 0.991552
0.998392 1.00483 0.992624
0.999026 1.00508 0.992359
0.999797 0.994925 0.865745
1.00013 0.994868 0.942
0.999518 1.00364 0.993622
1.00324 1.00381 0.985795
1.00293 0.995934 0.990849
1.00411 0.997904 0.990223
1.00411 1.001 0.987229
0.99999 0.994855 0.939456
0.995778 0.994787 0.959262
0.995924 0.998627 0.988323
0.997169 0.994811 0.876932
0.994743 0.994849 0.797847
0.999205 1.0043 0.99203
0.999818 0.994851 0.86228
0.994705 0.994807 0.798082
1.00073 0.998778 0.992496
1.00152 1.00235 0.989515
1.0014 0.999865 0.992985
0.994891 0.998576 0.991798
0.997894 0.994801 0.93395
0.994964 0.994797 0.956338
0.995239 0.994813 0.877916
0.994751 0.994833 0.791848
0.997997 1.0045 0.994718
0.994728 0.994788 0.79375
0.994743 0.994775 0.799564
0.996919 1.00152 0.997025
0.999791 1.00187 0.995396
0.994903 0.999273 0.98854
0.995048 0.994848 0.958775
0.995013 0.994763 0.92943
0.994748 0.994884 0.881944
0.994838 0.994862 0.80119
0.997158 1.00216 0.996951
0.997551 1.00427 0.995827
0.996375 1.00382 0.996736
1.00029 1.00399 0.990265
1.00084 1.00464 0.98924
0.999775 1.00504 0.990198
0.99973 1.00448 0.99069
0.997902 1.00362 0.993858
1.00049 1.00477 0.989459
0.999269 1.0037 0.992466
1.00016 1.00498 0.989813
0.996512 1.00492 0.994792
0.995985 1.0051 0.996919
0.99838 1.00478 0.992885
1.0005 1.00502 0.989756
1.00058 1.00467 0.989467
1.00003 1.0028 0.991702
0.999919 1.00482 0.990245
1.00055 1.00219 0.991906
0.998802 1.00237 0.993895
0.99885 1.00387 0.99232
0.998222 1.00509 0.992405
0.998659 1.00152 0.995474
1.00036 1.00246 0.992111
1.0032 0.999418 0.990651
0.998859 1.00476 0.991434
0.998841 1.00472 0.992047
0.999353 1.00498 0.990129
0.999451 1.00484 0.990973
1.00019 1.00431 0.990153
0.999635 1.00481 0.990693
1.00016 1.00434 0.990308
1.00003 1.00277 0.991944
1.00031 1.00426 0.99016
0.999976 1.0026 0.99231
1.00003 0.999361 0.996132
0.999935 1.00243 0.992533
0.999874 0.999327 0.996025
1.00001 0.997265 0.997807
0.999733 0.999336 0.995923
0.999951 0.997343 0.999143
0.999924 0.997408 0.999141
1.00039 1.0021 0.992524
0.999963 1.00058 0.994369
1.00021 1.00183 0.992748
1.00005 0.998161 0.99661
0.999904 1.00044 0.994554
0.999881 1.00071 0.994371
1.00006 0.998227 0.996538
0.999992 0.996802 0.999238
1.00007 0.99831 0.996927
0.999973 0.996907 0.998668
0.999932 0.997204 0.998054
0.999651 0.994844 0.849615
0.994715 0.994795 0.793003
0.99631 0.994841 0.964287
1.00168 0.994936 0.983321
1.00532 0.994783 0.991119
0.997335 0.99488 0.96514
1.00347 0.994892 0.986698
1.00017 0.994859 0.936177
0.997456 0.994743 0.858787
0.994714 0.994838 0.804777
0.997716 0.994759 0.972375
0.997497 0.994828 0.941493
0.996302 0.994815 0.877885
0.994788 0.994851 0.801988
0.99993 1.00357 0.991816
0.999812 1.0024 0.99264
1.00014 1.00176 0.992925
0.999864 1.00298 0.992246
0.998478 1.00427 0.993284
1.00034 1.00379 0.990512
1.00012 1.00312 0.991693
1.00068 1.0036 0.990068
1.00018 1.00324 0.991431
0.999906 1.00278 0.992194
1.00405 0.994759 0.991825
1.00476 0.994929 0.990718
1.00415 0.996075 0.990399
1.00236 0.996167 0.993083
1.00057 1.00248 0.992683
0.999508 1.00501 0.989645
1.00042 1.00177 0.992936
0.998135 1.00413 0.993724
1.00234 0.995141 0.990994
0.999087 1.00503 0.991301
0.998083 1.00498 0.992654
1.00329 0.998105 0.99061
1.00405 0.995728 0.991729
1.00078 0.997728 0.995271
0.998953 1.00505 0.991953
0.999993 0.995504 0.989294
1.00097 0.999011 0.994402
0.997486 1.00257 0.996106
0.998528 1.00476 0.990837
0.997937 1.00507 0.992008
0.99853 1.00501 0.992571
0.994715 0.99482 0.816747
0.999792 0.994874 0.871518
1.00003 0.994871 0.927454
0.999169 1.00443 0.991986
1.00181 1.00252 0.989501
1.00074 0.998458 0.99239
1.0011 0.999819 0.993429
0.999824 0.994895 0.876128
0.997525 0.994814 0.927897
0.99487 0.994821 0.955756
0.994901 0.999616 0.992484
0.995932 0.994813 0.862214
0.99468 0.994797 0.804282
0.994802 0.99491 0.807302
0.997933 1.00389 0.994413
0.994714 0.994799 0.803709
0.994765 0.99478 0.798922
0.997065 1.00001 0.997654
0.999273 1.00154 0.995285
0.994896 0.99795 0.990589
0.995235 0.99481 0.957529
0.9958 0.994811 0.941002
0.994698 0.996709 0.863271
0.99511 0.99486 0.811346
0.996791 1.00347 0.997894
0.994768 0.99482 0.807711
0.994811 0.994809 0.797017
0.994834 1.00249 0.999895
0.995078 0.996741 0.966857
0.994809 0.995434 0.938966
0.994896 0.994907 0.856796
0.995729 0.994897 0.823201
0.998086 1.00316 0.995423
0.996764 1.00414 0.996845
0.995515 1.00407 0.998449
1.00033 1.00482 0.989436
1.00033 1.00503 0.989836
0.999365 1.00338 0.991992
0.996362 1.00474 0.9951
1.00001 1.00502 0.989777
0.998261 1.00487 0.992852
0.995626 1.00498 0.997181
0.994933 1.00465 0.998469
0.995809 1.00508 0.997035
0.999019 1.0051 0.992158
0.999939 1.005 0.99019
1.00066 1.00165 0.991803
0.998329 1.0029 0.994344
0.998243 1.00508 0.992512
0.999291 1.00373 0.992251
0.998141 1.0021 0.995532
0.998355 1.00374 0.993493
0.99575 1.00513 0.997192
1.00161 0.998772 0.994355
0.999884 1.00191 0.993102
1.00193 1.00043 0.991038
1.0048 1.00006 0.9875
1.00235 1.00136 0.990439
1.00216 0.998998 0.992225
0.999419 1.00453 0.991238
0.99959 1.00509 0.9896
0.999171 1.00462 0.992076
0.999855 1.00504 0.990132
1.00033 1.0045 0.989612
0.999916 1.0047 0.990999
1.00045 1.00412 0.990135
1.00012 1.00306 0.991596
1.00034 1.00412 0.99037
1.00013 1.00276 0.991948
1.00017 0.999451 0.995841
1.00006 1.00248 0.992319
1.00002 0.999376 0.995731
1.0001 0.997355 0.997611
0.999882 0.999292 0.995727
1.00001 0.997278 0.998475
0.999964 0.997307 0.999124
1.00032 1.00281 0.991522
1.00011 1.00073 0.99403
1.00028 1.00214 0.992333
1.00006 0.99821 0.99655
0.999981 1.00052 0.994379
1.0002 1.00177 0.992761
1.00002 0.996746 0.99925
1.00004 0.998166 0.99661
0.999904 1.00048 0.99455
1.00007 0.998218 0.996526
0.999993 0.99684 0.999233
0.999959 0.996907 0.999212
0.994702 0.994765 0.795075
0.999701 0.994841 0.862504
0.99476 0.994774 0.796959
0.994731 0.994792 0.792936
0.997559 0.994877 0.963563
1.00334 0.994781 0.987242
0.99972 0.994831 0.93128
0.99875 0.994796 0.879142
0.994759 0.994832 0.79729
0.998357 0.994804 0.971327
0.997796 0.994919 0.92718
0.995366 0.99493 0.876798
0.994727 0.994847 0.794431
0.994911 0.994795 0.963636
0.996015 0.994743 0.927947
0.994842 0.997248 0.855587
0.99483 0.994873 0.802046
1.00065 1.0047 0.990345
0.999475 1.00359 0.991951
1.00001 1.00213 0.992743
0.998032 1.00385 0.993845
1.00103 1.00368 0.989392
1.00022 1.00371 0.990734
0.999612 1.00355 0.99166
1.00121 1.00295 0.990196
1.00074 1.00379 0.990131
1.00029 1.00295 0.991306
1.00198 0.994778 0.99148
1.00303 0.997588 0.990664
1.00383 0.995718 0.991871
1.0004 0.997312 0.99553
1.00028 1.00502 0.991523
0.99839 1.00507 0.992694
0.999152 1.00509 0.991045
0.999774 1.00473 0.990568
0.999677 0.996233 0.989897
0.998896 1.00509 0.991726
0.999202 1.005 0.99239
1.0007 0.998888 0.994841
0.998718 1.00128 0.995913
0.996253 1.00069 0.98878
0.996666 0.999652 1.00054
0.995517 1.00518 0.996454
0.998531 1.00459 0.992695
0.997171 1.00511 0.994314
0.994796 0.994809 0.814177
0.994711 0.994801 0.812338
0.999813 0.994904 0.85312
0.99801 1.00391 0.994174
0.999097 1.00096 0.995176
0.997282 0.99958 0.998282
0.994686 0.994784 0.801722
0.996003 0.994755 0.929222
0.995354 0.994825 0.956917
0.994868 0.996147 0.993013
0.994755 0.996138 0.882781
0.994772 0.994784 0.799122
0.99541 0.994862 0.812922
0.99709 1.00342 0.997905
0.99478 0.994823 0.810373
0.9948 0.99481 0.798098
0.995115 1.00181 0.998947
0.995149 0.995914 0.968655
0.994805 0.995608 0.926986
0.995348 0.994882 0.818612
0.995181 0.998478 0.865448
0.99487 1.00474 1.00026
0.994792 0.994831 0.799099
0.994868 0.994829 0.808523
0.994829 0.994863 0.802137
0.994754 0.998885 0.98942
0.994886 0.997424 0.942124
0.997666 0.995712 0.875852
0.997175 1.00475 0.99698
0.995685 1.00468 0.998182
0.994978 1.00523 0.999129
0.999905 1.00502 0.9898
0.998226 1.00501 0.992814
0.995369 1.0051 0.997437
0.998552 1.00509 0.99215
0.995898 1.00512 0.997032
0.994985 1.00501 0.998377
0.994939 1.0051 0.998606
0.995594 1.00511 0.997184
0.998027 1.00506 0.992642
0.999661 1.00375 0.992179
0.997881 1.00288 0.995596
0.995867 1.00487 0.997083
0.998212 1.00402 0.993565
0.998452 1.00154 0.996261
0.998794 0.9987 0.998168
1.00221 0.999827 0.990049
0.999455 1.00141 0.994026
1.00232 1.00033 0.9907
1.0045 1.00154 0.98608
1.00482 1.00254 0.984455
1.00417 0.999075 0.989378
1.00388 1.0001 0.987732
1.00128 1.00429 0.988761
1.00154 1.00174 0.990788
1.00112 0.998598 0.993769
0.999981 1.00435 0.991043
0.999941 1.00508 0.989579
1.00032 1.00509 0.988876
1.00036 1.00504 0.990139
1.00049 1.00454 0.989605
1.0002 1.0034 0.991059
1.0006 1.00396 0.990116
1.00018 1.00293 0.991594
1.0002 0.999631 0.995614
1.0001 1.0028 0.991952
1.00014 0.999501 0.995421
1.00021 0.997422 0.997407
1.00003 0.99939 0.995401
1.0001 0.997324 0.998339
1.00004 0.997271 0.999056
1.00068 1.00292 0.990668
1.00014 1.00114 0.993225
1.00047 1.00266 0.99152
1.00012 0.998284 0.996366
1.00009 1.00075 0.993861
1.00021 1.0022 0.992144
1.00005 0.996759 0.999233
1.00006 0.998179 0.996562
0.999997 1.00044 0.994389
1.00002 0.996776 0.999247
1.00003 0.998186 0.99661
0.999993 0.996827 0.999229
0.994818 0.994817 0.804252
0.994709 0.994811 0.808972
0.999631 0.994804 0.861236
1.00115 1.00282 0.990264
0.994808 0.994801 0.803259
0.994761 0.994777 0.796911
0.994763 0.994808 0.806886
0.998821 0.994824 0.970651
0.99719 0.994786 0.94105
0.996024 0.99482 0.8597
0.9947 0.994839 0.804521
0.99601 0.994814 0.961372
0.995904 0.995467 0.939776
0.994751 0.99556 0.859094
0.99485 0.994869 0.805319
0.994827 0.994777 0.955683
0.994781 0.994789 0.936842
0.995782 0.99938 0.86905
0.995243 0.99489 0.823445
0.999376 1.0046 0.991138
0.999979 1.00456 0.990374
0.999673 1.00343 0.992088
1.00103 1.0025 0.990636
1.00086 1.00403 0.989602
1.00015 1.00404 0.990954
1.00126 1.00308 0.990133
1.00076 1.00384 0.990188
0.998559 0.997365 0.99035
1.00003 0.998688 0.995199
0.999993 1.00467 0.990291
1.00005 0.999945 0.99573
0.999379 1.00499 0.992215
0.999457 1.00509 0.991446
0.998521 1.00431 0.99262
0.995846 1 0.989257
0.997774 1.00501 0.994336
0.996615 1.00386 0.996751
0.996011 1.00028 1.00058
0.998018 1.00401 0.994263
0.994771 1.00082 0.987001
0.995275 1.00261 0.998916
0.995686 1.00514 0.997342
0.997054 1.00512 0.995661
0.994771 0.994811 0.804179
0.994797 0.99481 0.811284
0.994703 0.994781 0.80778
0.99717 1.00356 0.997889
0.995366 1.0007 0.997975
0.994795 0.994827 0.812835
0.994752 0.995412 0.940256
0.995417 0.995983 0.965756
0.995343 0.997151 0.863723
0.994797 0.994812 0.798941
0.994895 0.994864 0.814006
0.995165 1.00478 1.00001
0.994792 0.994827 0.799289
0.994869 0.994845 0.80862
0.994801 0.999478 0.993176
0.994852 0.99486 0.805398
0.994854 0.996596 0.934283
0.996324 0.997435 0.877757
0.994866 1.00343 0.99806
0.994839 0.994839 0.807836
0.994803 0.994805 0.804809
0.994785 0.994844 0.801795
0.996066 0.999327 0.868291
0.994875 1.00113 0.97295
0.9954 0.997589 0.92723
0.996069 1.00502 0.997929
0.995146 1.00519 0.999127
0.994856 1.0053 0.998282
0.997959 1.0051 0.992139
0.995439 1.00515 0.997033
0.994973 1.00509 0.998312
0.995522 1.00494 0.997152
0.994939 1.00506 0.998608
0.997511 1.00225 0.998407
0.995689 1.00474 0.996963
0.997853 1.00427 0.99367
0.998077 1.00174 0.996699
0.998463 1.00073 0.994232
0.996261 0.998674 1.00173
1.00188 0.999605 0.991332
1.0044 1.00457 0.982358
1.0044 1.00293 0.984313
1.00274 1.00022 0.990297
1.00433 1.00185 0.985559
1.00506 1.00237 0.984016
1.00507 1.0006 0.986125
1.00442 1.00235 0.984742
1.00279 1.00159 0.988776
1.00362 0.999721 0.989168
1.00303 1.00014 0.987993
1.00053 1.00512 0.988398
1.00079 1.00436 0.988964
1.0007 1.00205 0.991124
1.0003 1.00506 0.989558
1.00059 1.00507 0.98891
1.00026 1.00433 0.990024
1.00065 1.00471 0.989598
1.00027 1.00342 0.991046
1.00017 0.999863 0.994642
1.00035 1.00284 0.991594
1.00022 0.999658 0.99482
1.00013 0.997442 0.998858
1.00012 0.999608 0.995063
1.00017 0.997399 0.998187
1.00012 0.997306 0.998966
1.00057 1.00315 0.990611
1.00032 1.00163 0.992492
1.00062 1.00299 0.990844
1.0002 0.998471 0.996073
1.00024 1.00111 0.993137
1.00051 1.00264 0.991513
1.00008 0.996768 0.999191
1.00013 0.998252 0.996382
1.0001 1.00073 0.993694
1.00005 0.996746 0.99924
1.00007 0.998146 0.996575
1.00001 0.996813 0.999245
0.994795 0.994826 0.80747
0.994813 0.994814 0.804619
0.9947 0.994823 0.808593
1.00116 1.00281 0.990388
1.00038 1.00404 0.990006
1.00148 1.00159 0.991378
0.994877 0.994845 0.807545
0.994812 0.994801 0.804195
0.994762 0.994768 0.796991
0.996958 0.994799 0.961538
0.99504 0.994759 0.927756
0.994782 0.996869 0.881215
0.994834 0.994851 0.799598
0.994975 0.994836 0.957253
0.994815 0.996654 0.932749
0.995812 0.997446 0.865884
0.995194 0.994885 0.818621
0.995081 0.995325 0.954844
0.99486 0.997036 0.936645
0.996764 0.995504 0.87688
0.994839 0.994864 0.802585
0.99948 1.00241 0.992954
1.00005 1.00394 0.990921
0.999992 1.00426 0.990402
1.00113 1.00249 0.990567
1.0005 1.0044 0.989813
1.00124 1.00324 0.990071
0.995804 0.999385 0.989965
0.995841 1.00111 1.00075
0.999128 1.00356 0.992545
0.99821 1.00261 0.996953
0.998248 1.00458 0.994354
0.997454 1.00374 0.994853
0.996458 1.00478 0.995903
0.99477 1.00219 0.98691
0.995486 1.00517 0.99767
0.995064 1.00335 0.998309
0.996447 1.00482 0.996299
0.995532 0.99991 0.985437
0.995279 1.00527 0.994883
0.994815 1.00389 0.999068
0.994858 0.994839 0.803216
0.994777 0.99482 0.803248
0.994799 0.994808 0.80844
0.995508 1.00443 0.999717
0.994837 0.999656 0.988861
0.994786 0.994823 0.799491
0.994841 0.997421 0.933825
0.996549 0.995721 0.862653
0.994875 0.994846 0.808693
0.994831 0.994849 0.799888
0.994832 1.00326 0.998558
0.994826 0.994838 0.807647
0.994819 0.9948 0.805824
0.994889 1.00036 0.970345
0.994714 0.994841 0.794668
0.995776 0.99849 0.864584
0.994857 0.995768 0.941098
0.994904 1.00521 0.989483
0.994787 0.994833 0.808169
0.994771 0.994787 0.798408
0.994662 0.994842 0.813613
0.994813 0.997171 0.85447
0.994889 0.997486 0.936874
0.994851 1.00131 0.964617
0.995147 1.00517 0.999076
0.994917 1.00527 0.9982
0.995868 1.00447 0.997345
0.995808 1.00462 0.997124
0.994944 1.00503 0.99865
0.996151 1.00377 0.998293
0.999032 0.999608 0.998316
0.997717 1.00202 0.997115
1.00104 1.00041 0.993176
1.00219 1.00497 0.986023
1.00126 0.999447 0.992952
1.00424 1.00435 0.983337
1.0043 1.00415 0.982638
1.00498 1.00113 0.98475
1.00505 1.00172 0.984548
1.00434 1.00302 0.984173
1.00434 1.00217 0.985052
1.00516 1.00176 0.984422
1.00508 1.00222 0.984131
1.00453 1.00044 0.98708
1.00467 1.00065 0.986388
1.00395 1.00216 0.985033
1.00123 1.00438 0.9881
1.00254 1.00211 0.988697
1.00299 1.00044 0.988946
1.00053 1.00496 0.988935
1.0009 1.00511 0.988409
1.00039 1.00445 0.989169
1.00087 1.00507 0.988945
1.00048 1.00411 0.990034
1.0001 1.00049 0.994116
1.00043 1.00326 0.991032
1.00021 0.999895 0.99462
1.00017 0.9976 0.998815
1.00024 0.99965 0.994826
1.0002 0.997476 0.998077
1.00017 0.997437 0.998883
1.00091 1.00344 0.990167
1.00047 1.00195 0.992167
1.00074 1.00294 0.99067
1.00028 0.998742 0.995663
1.00032 1.00163 0.992578
1.00061 1.00298 0.991025
1.00012 0.996852 0.999124
1.00021 0.998411 0.996094
1.0003 1.00108 0.993051
1.00008 0.996777 0.999204
1.00014 0.998222 0.996398
1.00005 0.996768 0.999248
0.994833 0.994836 0.806549
0.994796 0.994842 0.807692
0.994811 0.994821 0.804991
0.999674 1.0052 0.98971
1.00104 1.00397 0.990708
1.001 1.00284 0.990522
1.0004 1.00405 0.989915
1.00075 1.00174 0.991683
1.00035 1.00283 0.991177
0.999744 1.00139 0.99356
0.99483 0.99481 0.798115
0.994878 0.994849 0.807707
0.994809 0.994825 0.805144
0.994896 0.994885 0.813817
0.995472 0.995076 0.955786
0.994823 0.997193 0.927348
0.995856 0.994917 0.879847
0.994926 0.995448 0.95436
0.994898 0.998453 0.923488
0.996 0.997431 0.877911
0.994927 0.994858 0.812628
0.995588 0.996217 0.958546
0.994874 0.998336 0.925958
0.994892 0.994921 0.857604
0.994744 0.994833 0.794955
0.997058 1.0045 0.995216
0.99916 1.00299 0.993414
1.00009 1.00416 0.990706
1.00111 1.0028 0.990507
0.994825 1.00168 0.986815
0.994904 1.00381 0.997615
0.997027 1.00457 0.995443
0.99663 1.00475 0.996156
0.995267 1.00517 0.998109
0.996064 1.0049 0.996381
0.995411 1.00403 0.999123
0.995562 1.00032 0.982209
0.995223 1.00526 0.995033
0.995691 1.00389 0.998101
0.995267 1.00285 0.978894
0.994924 1.0032 0.999141
0.994771 0.994821 0.805202
0.994846 0.994838 0.806877
0.994785 0.994835 0.802295
0.994789 1.00336 0.999044
0.994874 1.00059 0.973712
0.994816 0.994836 0.807499
0.994869 0.997879 0.928426
0.996241 0.995058 0.878847
0.994823 0.994831 0.806711
0.99469 0.994843 0.804482
0.994897 1.00495 0.990419
0.994803 0.994836 0.80842
0.994759 0.994789 0.798422
0.994845 0.999936 0.964739
0.994719 0.994854 0.806287
0.994727 0.996565 0.857416
0.994876 0.997859 0.924379
0.994862 1.00451 0.98449
0.994831 0.994814 0.80444
0.994702 0.994804 0.794629
0.995745 0.994829 0.879716
0.994746 0.995629 0.936633
0.994815 0.999962 0.958559
0.994932 1.00531 0.998521
0.995409 1.00463 0.99743
0.996749 1.00139 0.99802
0.9951 1.00503 0.998171
0.997004 1.00174 0.998683
1.0016 1.00138 0.992344
1.00359 0.999877 0.992129
1.00304 1.00502 0.985216
1.00427 1.00267 0.984066
1.0039 1.00407 0.984316
1.00442 1.00421 0.982594
1.00455 1.00297 0.983818
1.00524 0.99898 0.986319
1.00511 1.00051 0.985549
1.00501 1.00128 0.984706
1.00512 1.00154 0.9846
1.00501 1.00157 0.984548
1.00425 1.00313 0.98403
1.00518 1.00164 0.984694
1.00515 1.00195 0.984344
1.00509 1.00208 0.98425
1.00328 1.00232 0.987451
1.00387 1.00088 0.987536
1.00435 1.00064 0.986655
1.00084 1.00513 0.987947
1.00159 1.0042 0.988144
1.00212 1.00271 0.988618
1.00019 1.00114 0.993303
1.0007 1.00481 0.988967
1.0012 1.00507 0.98842
1.00062 1.004 0.990042
1.00012 1.00055 0.994082
1.00012 0.997828 0.998733
1.00022 0.999928 0.994598
1.00017 0.997569 0.9988
1.00019 0.997421 0.998835
1.0002 1.00515 0.98992
1.00083 1.00496 0.989185
1.00069 1.00247 0.991307
1.00065 1.00376 0.990134
1.00027 0.999142 0.995255
1.00046 1.00198 0.992162
1.00079 1.0029 0.990731
1.00013 0.997044 0.999023
1.00026 0.99874 0.995685
1.00034 1.00166 0.99266
1.00011 0.996843 0.999145
1.00022 0.998378 0.996118
1.00008 0.996758 0.999218
0.9948 0.994839 0.800005
0.994823 0.994831 0.806389
0.994803 0.994832 0.807908
1.00003 1.00518 0.989719
1.00016 1.00329 0.990947
1.00112 1.00267 0.988695
0.998928 1.00428 0.990917
1.00153 1.00256 0.991206
1.00065 1.00413 0.989823
1.00041 1.00205 0.991988
1.00028 1.00353 0.991197
1.00013 1.00126 0.993725
0.998969 1.00386 0.993712
0.994753 0.994769 0.800211
0.994811 0.994815 0.799293
0.99488 0.994839 0.807816
0.995141 0.994858 0.814123
0.995574 0.995501 0.863342
0.994874 0.994954 0.953445
0.994818 0.997051 0.935912
0.995555 0.996048 0.954665
0.994848 0.996431 0.938193
0.995024 0.998584 0.86659
0.994759 0.994829 0.79312
0.994949 0.997868 0.957754
0.99483 0.999058 0.937797
0.994763 0.994887 0.882359
0.994708 0.994872 0.815362
0.998819 1.00094 0.99629
0.996709 1.00433 0.995729
0.999155 1.0028 0.993893
0.995249 1.00244 0.978671
0.995071 1.00523 0.99499
0.995827 1.00487 0.996447
0.994797 1.00443 0.999186
0.995879 1.00382 0.998037
0.994945 1.00247 0.99959
0.994934 1.00197 0.978638
0.996066 1.00119 1.00051
0.995259 1.0004 0.985222
0.994806 0.994818 0.81351
0.994791 0.994832 0.804265
0.994833 0.994832 0.81062
0.994939 1.00478 0.990694
0.994852 0.999969 0.962386
0.994821 0.994842 0.808671
0.994841 0.998141 0.936493
0.994759 0.996781 0.878457
0.994752 0.994765 0.798673
0.994762 0.994832 0.798746
0.995305 1.00482 0.985146
0.994815 0.994818 0.804661
0.994724 0.994799 0.794592
0.995025 0.998562 0.95964
0.995204 0.99481 0.877683
0.994796 0.996958 0.930624
0.995268 1.00246 0.982085
0.994702 0.994775 0.795946
0.997331 0.994804 0.880352
0.995733 0.994753 0.928229
0.994865 0.99566 0.960303
0.995613 1.00511 0.997547
0.995838 1.00318 0.997894
0.998568 1.00167 0.996379
0.995145 1.00431 0.999096
1.00017 1.00149 0.993592
1.00412 0.99813 0.99008
1.00391 1.00509 0.984394
1.00409 1.0029 0.983972
1.00459 0.99967 0.986554
1.00466 1.00431 0.98255
1.00467 1.00246 0.983903
1.00503 0.99895 0.986822
1.00534 0.996385 0.988636
1.00527 0.998494 0.986625
1.00525 0.998906 0.98638
1.00516 1.00047 0.985665
1.00512 1.00053 0.985477
1.005 1.00136 0.98466
1.00519 1.00202 0.984255
1.00513 1.00144 0.984575
1.00496 1.00146 0.984546
1.00475 1.00158 0.985754
1.00473 1.00201 0.98494
1.00515 1.00219 0.984266
1.00179 1.00426 0.987158
1.00301 1.00241 0.987397
1.0034 1.00118 0.987989
1.00027 1.00223 0.993194
1.00113 1.00509 0.987981
1.00194 1.00397 0.988189
1.00015 0.998458 0.99636
1.00021 1.0014 0.993652
1.00088 1.00469 0.988999
1.00016 1.00062 0.994046
1.00014 0.997923 0.998673
1.00018 0.997574 0.998783
1.00124 1.00413 0.988816
1.00123 1.00515 0.988469
0.9995 1.00515 0.98985
1.00061 1.00368 0.990268
1.00065 1.00476 0.989152
1.00022 0.999611 0.994879
1.00057 1.00266 0.991329
1.00055 1.004 0.990095
1.00012 0.997338 0.998937
1.00028 0.999101 0.995276
1.00045 1.00199 0.992157
1.00013 0.997035 0.999055
1.00025 0.998708 0.995705
1.00011 0.99683 0.999165
0.99478 0.994818 0.814149
0.994805 0.99484 0.800237
0.99481 0.994848 0.806219
1.00294 1.00139 0.98761
0.9998 1.00509 0.989724
0.999756 1.00338 0.991224
0.999988 1.00508 0.990532
1.0022 1.00227 0.988806
1.00052 1.0028 0.992451
1.00346 1.00242 0.986941
0.99721 1.00493 0.993181
0.999914 1.00375 0.99121
0.999982 1.00044 0.993891
0.998101 1.00361 0.99366
0.99825 1.00376 0.994173
0.994736 0.994823 0.805455
0.994772 0.994774 0.799618
0.994805 0.99482 0.800234
0.994797 0.99513 0.808287
0.994975 0.997321 0.865027
0.994831 0.998443 0.926059
0.99565 0.995181 0.953874
0.995052 0.997847 0.95802
0.994728 0.995059 0.807432
0.994853 0.996686 0.929236
0.994723 0.997184 0.863803
0.994868 0.996491 0.962718
0.994798 0.996482 0.939786
0.99542 0.994829 0.879707
1.00002 0.994933 1.00066
0.998557 1.00119 0.996179
0.996349 1.00418 0.996209
0.994935 1.00182 0.978519
0.995273 1.00144 0.999976
0.996364 1.00369 0.998
0.996835 1.00038 1.00082
0.995053 0.999423 0.985349
0.995869 0.998668 0.99245
0.994711 0.99482 0.811485
0.994803 0.994814 0.814393
0.994804 0.994834 0.803204
0.994979 1.00451 0.985358
0.994861 0.999954 0.959056
0.994798 0.994828 0.805105
0.994846 0.997162 0.925177
0.995725 0.994818 0.861231
0.99476 0.994812 0.808137
0.994933 1.00491 0.981919
0.994709 0.994816 0.809544
0.997294 0.99477 0.859719
0.994872 0.995633 0.956005
0.995654 0.995358 0.940098
0.994873 1.00138 0.989911
0.999733 0.994851 0.849706
0.997419 0.994839 0.941827
0.994869 0.994808 0.954818
0.994867 1.00437 0.997738
0.997816 1.00175 0.996251
1.00079 1.00063 0.993022
0.999293 1.00124 0.994828
1.00359 0.998554 0.989845
1.00464 0.998088 0.988858
1.00392 1.00312 0.983875
1.00454 0.999696 0.986451
1.00508 0.996311 0.988891
1.0047 1.0019 0.983996
1.00493 0.998876 0.986789
1.00534 0.995547 0.989537
1.00528 0.99523 0.990344
1.00531 0.99655 0.988628
1.00535 0.996335 0.988729
1.00527 0.998467 0.986747
1.00526 0.998483 0.986814
1.00523 0.998866 0.986441
1.00524 1.00099 0.984878
1.00517 1.00036 0.985612
1.00512 1.00052 0.985404
1.00516 1.00208 0.984218
1.00511 1.00202 0.984302
1.00513 1.00132 0.984549
1.00303 1.00315 0.986657
1.00432 1.002 0.985681
1.00418 1.00239 0.985188
1.0006 1.0028 0.990952
1.00213 1.00426 0.987159
1.00281 1.00274 0.987339
0.999905 0.999525 0.998196
1.00039 1.00219 0.991961
1.00139 1.00504 0.988015
1.00016 0.998408 0.998452
1.00023 1.00146 0.99311
1.00017 0.997997 0.998604
1.00377 1.0021 0.987599
1.00145 1.00388 0.988628
1.00147 1.0048 0.988167
1.00078 1.00448 0.989313
1.00087 1.00517 0.988462
0.999764 1.00519 0.989785
1.00009 1.00043 0.994322
1.00056 1.0037 0.99028
1.00057 1.00452 0.989117
1.0001 0.997541 0.998851
1.0002 0.999588 0.994899
1.00042 1.00281 0.991348
1.00012 0.997275 0.99896
1.00029 0.999074 0.995293
1.00012 0.996984 0.999086
0.994731 0.994789 0.796075
0.994799 0.994821 0.814515
0.994812 0.994838 0.800508
1.00295 1.00219 0.987459
1.00474 1.00239 0.986149
1.00245 1.00318 0.987166
0.999663 1.00509 0.990142
1.00351 1.0019 0.988921
0.998767 1.00196 0.993642
0.998468 1.0043 0.99266
1.00212 1.00291 0.98811
1.00192 1.00133 0.990523
0.998741 0.99961 0.996501
0.99888 1.00369 0.993586
0.998734 1.00396 0.99395
0.998245 0.994791 0.853223
0.994704 0.994807 0.799044
0.994779 0.994779 0.799817
0.994755 0.994845 0.798995
0.994776 0.99679 0.883086
0.994818 0.996804 0.92518
0.994874 0.996948 0.956271
0.994886 0.996724 0.960324
0.995602 0.99552 0.877821
0.994803 0.99594 0.927019
0.994856 0.997405 0.964071
0.995506 0.994749 0.928456
0.999367 0.995391 1.00321
0.999714 0.995671 1.00063
0.998282 1.00098 0.996175
0.994861 0.999163 0.985638
0.997332 0.999623 1.00114
0.996366 0.998858 0.992016
0.995905 0.996644 0.990239
0.999798 0.994944 0.864616
0.994701 0.994801 0.8085
0.994809 0.994816 0.815054
0.994842 1.0047 0.982336
0.994829 0.994885 0.954061
0.994702 0.994824 0.80899
0.99507 0.994768 0.928939
0.998206 0.994816 0.880291
0.994917 0.999252 0.986469
0.999724 0.99485 0.862678
0.997621 0.994815 0.92784
0.994842 0.994788 0.955976
0.996274 0.998188 0.987259
0.999912 0.994852 0.940664
0.995075 0.994823 0.962113
0.996465 1.0014 0.996139
0.99995 1.00019 0.992991
1.00345 0.999164 0.991342
1.00269 0.9995 0.989633
1.00433 0.998043 0.988786
1.00516 0.995989 0.989524
1.00456 0.999771 0.986352
1.00494 0.996794 0.988832
1.00529 0.994856 0.990147
1.00486 0.998828 0.986752
1.00533 0.995559 0.989482
1.00529 0.994874 0.99058
1.0053 0.994994 0.990658
1.00529 0.995207 0.99044
1.00524 0.995491 0.99034
1.00529 0.996974 0.988595
1.00531 0.996585 0.988775
1.00538 0.996264 0.988825
1.00529 0.999406 0.986237
1.00527 0.998522 0.98669
1.00525 0.998446 0.987004
1.00529 1.00193 0.983982
1.00525 1.00102 0.984905
1.00518 1.00028 0.985559
1.00373 1.00286 0.985719
1.00509 1.0021 0.984262
1.00498 1.00204 0.984352
1.00101 1.00312 0.989978
1.00297 1.0032 0.986607
1.00405 1.00206 0.985614
1.00018 0.999781 0.997853
1.00076 1.00266 0.990949
1.00238 1.00419 0.987157
1.00009 0.999412 0.996946
1.00057 1.0021 0.991998
1.0002 0.998662 0.998297
1.00469 1.00115 0.986608
1.00303 1.00212 0.987582
1.00172 1.00401 0.987795
1.00143 1.00397 0.988436
1.00113 1.00495 0.988204
1.00104 1.00491 0.98856
1.00015 1.00127 0.993473
1.00066 1.00457 0.989286
1.00025 1.00513 0.988458
1.00008 0.997988 0.998676
1.00009 1.0003 0.994348
1.00057 1.00375 0.990294
1.00008 0.997577 0.998878
1.00018 0.999549 0.994934
1.00011 0.997254 0.998985
0.999594 0.994819 0.863176
0.994716 0.994797 0.802062
0.99481 0.994821 0.814947
1.00272 1.00239 0.987314
1.00292 1.00353 0.986238
1.00441 1.00277 0.98605
1.00479 1.00355 0.983722
1.00206 1.00295 0.988548
0.999438 1.00462 0.992192
1.002 1.00339 0.989269
1.00143 1.0014 0.991101
1.00455 0.996099 0.990108
1.00209 0.998551 0.993809
1.00188 0.996804 0.995296
1.00027 0.998825 0.996157
1 1.00213 0.993722
0.997407 0.994828 0.938365
0.998242 0.994765 0.857737
0.994677 0.994797 0.805006
0.995818 0.994832 0.863144
0.994793 0.996419 0.937729
0.995022 0.996067 0.961739
0.994848 0.996682 0.965701
0.996347 0.995322 0.941052
0.995741 0.994791 0.964343
0.99858 0.996818 1.00102
0.998457 0.996094 1.00328
0.999346 0.996873 1.00052
0.99674 0.998174 0.991694
0.997082 0.997042 0.99042
1 0.994901 0.926838
0.999799 0.99489 0.870741
0.994689 0.994784 0.805633
0.995033 0.998609 0.982665
0.995053 0.99478 0.95523
0.999721 0.994823 0.861629
0.997403 0.994821 0.941397
0.996098 0.99783 0.987501
1.00001 0.994862 0.936157
0.99572 0.994823 0.959973
1.00029 0.995002 0.986324
0.997828 0.994747 0.970707
0.999297 0.999082 0.99298
1.00253 0.997679 0.991364
1.00509 0.994986 0.991422
1.0043 0.997744 0.988703
1.00513 0.995829 0.989435
1.00528 0.994819 0.990437
1.00472 0.997196 0.988775
1.00529 0.994903 0.990103
1.00529 0.99481 0.990494
1.00532 0.995565 0.989427
1.00528 0.994882 0.990557
1.00531 0.994837 0.990621
1.00528 0.994958 0.990702
1.00529 0.995099 0.990653
1.00529 0.995181 0.990535
1.00524 0.995474 0.990345
1.00522 0.995981 0.989863
1.00529 0.998093 0.987697
1.00529 0.99703 0.988581
1.00531 0.99662 0.988922
1.00533 1.00124 0.984561
1.0053 0.999511 0.986078
1.00528 0.998581 0.986633
1.00459 1.00229 0.984833
1.00527 1.00195 0.984038
1.00525 1.00106 0.98493
1.00148 1.00325 0.988849
1.00349 1.00314 0.98574
1.00481 1.00231 0.984304
1.00036 1.00052 0.997436
1.00113 1.00296 0.989965
1.00303 1.0033 0.986561
1.00028 0.999992 0.997694
1.00088 1.00251 0.99095
1.00026 0.999379 0.997941
1.00515 1.00311 0.983939
1.00431 1.00101 0.986588
1.00316 1.00267 0.986828
1.00261 1.00199 0.987571
1.00175 1.00404 0.987683
1.00146 1.00491 0.987759
1.00082 1.00498 0.988235
1.00083 1.00506 0.988518
1.00033 1.00195 0.992459
1.00008 0.998523 0.998397
1.00007 1.00119 0.993492
1.00045 1.00476 0.98926
1.00005 0.997881 0.998742
1.0001 1.00021 0.994354
1.00006 0.99752 0.998903
0.999966 0.994894 0.941153
0.999819 0.994859 0.861915
0.994692 0.994782 0.795959
1.00267 1.00463 0.985301
1.00373 1.003 0.985949
1.00321 1.00289 0.98772
1.00435 1.00335 0.984034
1.00518 1.00047 0.985253
1.00363 0.999703 0.987634
1.00068 1.00203 0.991645
1.00448 0.995643 0.990511
1.00205 0.998187 0.993827
1.00428 0.995362 0.990801
1.00331 0.9978 0.992767
1.00205 0.997761 0.993878
1.00145 0.997169 0.995161
0.999879 0.999487 0.995824
0.995481 0.994794 0.962737
0.998243 0.995509 0.933583
0.997118 0.994824 0.875901
0.995462 0.994753 0.928289
0.994852 0.99669 0.965979
0.995563 0.995673 0.969986
0.999188 0.99481 0.991637
0.999618 0.996091 1.00027
0.997847 0.996681 1.00337
0.998626 0.998765 0.990656
0.997347 0.994867 0.964845
1.00002 0.994878 0.941645
0.999817 0.994922 0.852274
0.995747 0.99795 0.987884
0.996232 0.994817 0.960123
0.999704 0.994824 0.931161
0.999573 0.996109 0.986784
0.998107 0.994795 0.969751
1.00289 0.995899 0.988678
1.00346 0.995398 0.98485
1.00152 0.996874 0.991375
1.00455 0.994966 0.991457
1.00526 0.994813 0.990758
1.00507 0.995782 0.989348
1.00528 0.994817 0.990386
1.00533 0.994875 0.990482
1.0053 0.994974 0.990057
1.00529 0.994821 0.99048
1.00534 0.994877 0.990494
1.00528 0.994888 0.990534
1.00531 0.994845 0.990638
1.00532 0.994874 0.990658
1.00527 0.994927 0.990746
1.00528 0.995074 0.990655
1.00525 0.995414 0.990522
1.00525 0.995465 0.990349
1.00522 0.995975 0.989871
1.00526 0.997281 0.988652
1.0053 1.00007 0.985795
1.00529 0.998299 0.987426
1.00529 0.997088 0.988568
1.00528 1.00133 0.98464
1.00532 1.00126 0.984607
1.00532 0.99962 0.98592
1.00239 1.00273 0.987937
1.00437 1.00255 0.98485
1.00525 1.00196 0.984094
1.0008 1.00097 0.996997
1.00164 1.00314 0.988812
1.00326 1.00342 0.985759
1.00057 1.00063 0.997271
1.00118 1.00284 0.989956
1.00044 1.00019 0.997521
1.00527 1.00148 0.984581
1.00509 1.00265 0.984016
1.00464 1.00241 0.984694
1.00431 1.00144 0.986569
1.00326 1.00267 0.986585
1.00259 1.00379 0.986809
1.0017 1.00421 0.987576
1.00133 1.00492 0.98777
1.00065 1.00254 0.991374
1.00054 1.00513 0.988484
1.00018 1.00211 0.992474
1.00007 0.999377 0.998056
1.00004 0.998485 0.998502
1.00002 1.00121 0.993518
1.00003 0.997861 0.998799
0.996389 0.994924 0.965372
0.999873 0.994891 0.926324
0.999825 0.994902 0.875577
1.00528 0.998227 0.987115
1.00455 1.00281 0.986912
1.0039 1.00319 0.984343
1.00425 0.99955 0.988097
1.00518 1.00068 0.985223
1.00507 0.996908 0.988815
1.00485 0.996091 0.990916
1.00179 0.997493 0.993863
1.00473 0.995806 0.990853
1.00297 0.998293 0.991981
1.00434 0.997149 0.989879
1.00327 0.994876 0.994279
1.00195 0.997105 0.994043
1.0013 0.997399 0.99502
0.998592 0.994742 0.990296
0.995725 0.994799 0.96122
0.998027 0.994801 0.927627
0.995314 0.996109 0.970147
0.998866 0.994811 0.994348
0.999859 0.995484 0.999473
1.0022 0.994899 0.981138
0.997368 0.994887 0.96434
1.00003 0.994886 0.92697
0.998515 0.996526 0.987234
0.998358 0.994812 0.969143
1.00203 0.995268 0.989248
1.00324 0.995146 0.985574
1.0038 0.995818 0.990474
1.00548 0.995656 0.990689
1.00406 0.994885 0.991489
1.00525 0.994838 0.9907
1.00539 0.994874 0.99038
1.00527 0.994815 0.990337
1.00532 0.99486 0.990494
1.00537 0.994863 0.990459
1.0053 0.994837 0.990467
1.00534 0.994869 0.990506
1.00534 0.994894 0.990638
1.00531 0.994855 0.990655
1.00532 0.994874 0.990651
1.00527 0.994915 0.990865
1.00527 0.995049 0.990658
1.00525 0.99531 0.99058
1.00527 0.996288 0.989729
1.00523 0.995964 0.989879
1.00526 0.997157 0.988771
1.00529 0.999566 0.986478
1.00532 1.00103 0.984905
1.00531 1.00026 0.98559
1.00529 0.998506 0.987155
1.0031 1.00142 0.988126
1.00516 1.00149 0.984635
1.00531 1.00128 0.984653
1.00128 1.00114 0.996563
1.00255 1.00251 0.987914
1.00418 1.00275 0.984874
1.00096 1.00104 0.996822
1.00186 1.00305 0.988786
1.00071 1.00074 0.99712
1.00527 0.999871 0.985762
1.00525 1.00149 0.984506
1.00526 1.00174 0.984289
1.00505 1.0021 0.984095
1.00498 1.0022 0.984521
1.00327 1.00326 0.986266
1.00358 1.00232 0.986342
1.00247 1.00394 0.986834
1.0009 1.00295 0.990343
1.00124 1.00498 0.98776
1.00046 1.00268 0.991402
1.00011 1.00018 0.997685
1.00002 1.00214 0.99249
1.00002 0.999165 0.998185
1.00001 0.998321 0.998597
0.999956 0.995284 0.986188
0.996387 0.99491 0.961312
0.999985 0.994854 0.940903
1.00529 0.996425 0.988938
1.00528 0.996108 0.989284
1.00528 0.99792 0.987393
1.00486 0.999021 0.988557
1.00517 1.00095 0.9852
1.00514 0.996878 0.989027
1.00532 0.995222 0.989656
1.00491 0.995606 0.990908
1.00275 0.998259 0.991207
1.00424 0.997153 0.990357
1.0052 0.994864 0.990834
1.00372 0.994796 0.992991
1.00289 0.994905 0.994001
1.00225 0.99665 0.99422
0.999222 0.994732 0.990319
0.995946 0.994806 0.959989
0.998924 0.994813 0.997202
1.00498 0.99491 0.99044
1.00221 0.994912 0.981286
0.997571 0.994887 0.963175
1.00171 0.994759 0.989757
1.00283 0.994719 0.98631
1.0039 0.995335 0.991088
1.00536 0.995142 0.990761
1.00547 0.994779 0.990825
1.00555 0.994836 0.991034
1.00527 0.99486 0.99064
1.00541 0.994869 0.990367
1.00536 0.994871 0.990625
1.0053 0.994844 0.990505
1.00537 0.994868 0.99048
1.00534 0.994895 0.990671
1.00533 0.994859 0.990517
1.00534 0.994894 0.990637
1.00528 0.994898 0.990916
1.00532 0.994874 0.990645
1.00528 0.994914 0.990841
1.00527 0.995563 0.990396
1.00525 0.995203 0.990637
1.00527 0.996242 0.989729
1.00531 0.998868 0.987152
1.00526 0.997033 0.98889
1.00529 0.999444 0.986614
1.00529 1.00073 0.985287
1.0032 1.00063 0.988713
1.0053 1.00103 0.984921
1.00532 1.00045 0.985386
1.00164 1.00093 0.996368
1.00312 1.00139 0.988119
1.00497 1.00172 0.984624
1.00143 1.00115 0.99643
1.00272 1.00236 0.987875
1.00117 1.00113 0.996621
1.00527 0.997805 0.987749
1.00528 0.99969 0.98599
1.00535 1.00114 0.984785
1.00524 1.00146 0.984423
1.00529 1.00178 0.984226
1.0039 1.00259 0.985798
1.00524 1.00203 0.98435
1.00337 1.00289 0.986263
1.00129 1.00334 0.989273
1.00241 1.00392 0.986869
1.00084 1.00309 0.990359
1.00029 1.00095 0.99731
1.0003 1.00283 0.991426
1.00003 1.00002 0.997828
0.999974 0.999055 0.998305
1.00418 0.995314 0.991837
0.999882 0.995166 0.983915
0.996456 0.994924 0.961221
1.00533 0.99532 0.989994
1.00528 0.995991 0.989289
1.00523 0.99529 0.990437
1.00528 0.996232 0.989238
1.00528 0.99758 0.987667
1.0054 0.994846 0.99021
1.00515 0.997027 0.98923
1.0053 0.995498 0.989651
1.00534 0.994782 0.990587
1.00416 0.99743 0.990829
1.00518 0.994951 0.990496
1.00328 0.994989 0.993254
1.00219 0.995357 0.993733
0.99952 0.994725 0.990087
1.00556 0.994858 0.990897
1.00508 0.995022 0.990398
1.00199 0.994902 0.981541
1.00387 0.994732 0.991696
1.00542 0.994789 0.990843
1.00544 0.994791 0.990844
1.00559 0.99484 0.99104
1.00539 0.994868 0.991098
1.00542 0.994863 0.990357
1.00536 0.994875 0.990637
1.00531 0.994905 0.990915
1.00538 0.994872 0.990501
1.00534 0.994897 0.990664
1.00529 0.994926 0.990953
1.00534 0.994894 0.990637
1.00528 0.994896 0.990904
1.00528 0.995098 0.990943
1.00528 0.994914 0.990817
1.00527 0.995592 0.99037
1.00533 0.998097 0.987966
1.00527 0.996195 0.98973
1.0053 0.998875 0.987172
1.00529 1.00046 0.985596
1.00529 0.999324 0.98675
1.0053 1.00071 0.985308
1.00318 1.00036 0.990788
1.00192 1.00013 0.993064
1.00321 1.00067 0.989583
1.0053 1.00104 0.984935
1.00159 1.0009 0.996445
1.00314 1.00124 0.988115
1.00146 1.00125 0.996375
1.00519 0.995178 0.990748
1.00524 0.99656 0.989331
1.00527 0.997794 0.987969
1.00532 1.00022 0.985686
1.00528 0.999518 0.986218
1.00534 1.00118 0.984704
1.00468 1.00163 0.985117
1.00532 1.00181 0.984163
1.00409 1.00208 0.985763
1.00222 1.00288 0.988227
1.00349 1.00251 0.98626
1.00125 1.0034 0.989258
1.0007 1.00153 0.996818
1.00073 1.00319 0.990386
1.00016 1.00074 0.997457
0.99996 0.999808 0.997963
1.00549 0.994816 0.990856
1.00407 0.995112 0.991457
1.00018 0.994914 0.981715
1.00532 0.994882 0.9906
1.00531 0.99538 0.989904
1.00526 0.995572 0.989644
1.00524 0.995396 0.990383
1.00528 0.996377 0.989192
1.00539 0.99484 0.990592
1.00539 0.994845 0.990191
1.00531 0.995664 0.989644
1.00531 0.994787 0.990634
1.00518 0.995037 0.990158
1.00307 0.994752 0.993511
1.00531 0.994886 0.991224
1.00555 0.994841 0.990935
1.00522 0.995177 0.99035
1.00541 0.994793 0.990843
1.00562 0.994861 0.991047
1.0054 0.994866 0.991047
1.0053 0.994911 0.99122
1.00535 0.994878 0.990648
1.00531 0.994903 0.990873
1.00529 0.994929 0.991091
1.00535 0.994898 0.990656
1.00528 0.994927 0.990959
1.00531 0.994921 0.991163
1.00529 0.994894 0.990893
1.00527 0.995101 0.990916
1.00534 0.997344 0.988769
1.00527 0.995618 0.990345
1.00533 0.998112 0.987981
1.00529 1.00019 0.985889
1.0053 0.998881 0.987192
1.0053 1.00043 0.985625
1.00325 1.00017 0.990865
1.00531 1.00069 0.985329
1.00341 1.00024 0.990644
1.002 0.999773 0.993248
1.00159 1.00045 0.994912
1.00341 1.00067 0.990266
1.00155 1.00085 0.996511
1.00524 0.994899 0.990995
1.00523 0.996216 0.989741
1.0052 0.995152 0.990838
1.00527 0.999165 0.9868
1.00522 0.996579 0.989351
1.00526 0.997783 0.98819
1.0053 1.00022 0.985641
1.00523 1.00099 0.985074
1.00533 1.00123 0.984625
1.00495 1.00141 0.985117
1.00291 1.00176 0.988036
1.00434 1.00172 0.985735
1.00198 1.00305 0.988266
1.00114 1.00166 0.996448
1.00113 1.00348 0.989253
1.0005 1.00133 0.997022
1.00003 1.0006 0.9976
1.00533 0.994889 0.990886
1.00541 0.994823 0.990919
1.00378 0.995046 0.991082
1.0053 0.994883 0.990789
1.00532 0.994882 0.990545
1.00529 0.995423 0.989821
1.00525 0.995503 0.990327
1.00539 0.994845 0.990586
1.00537 0.994843 0.99017
1.00525 0.994796 0.990679
1.00527 0.994921 0.991279
1.00531 0.994888 0.99119
1.00554 0.994804 0.990969
1.00528 0.994929 0.991295
1.00542 0.994872 0.990996
1.0053 0.994914 0.991212
1.00527 0.994932 0.991235
1.00532 0.994903 0.990831
1.00528 0.99493 0.9911
1.00533 0.994934 0.991228
1.00527 0.994927 0.990964
1.00531 0.994923 0.991141
1.00534 0.996713 0.989499
1.00526 0.995104 0.990887
1.00535 0.997371 0.98877
1.00527 0.999955 0.986207
1.00532 0.998127 0.987997
1.00531 1.00017 0.985919
1.00327 1.00018 0.990819
1.00531 1.00041 0.985654
1.00345 1.00009 0.990692
1.00206 0.999715 0.993207
1.00362 1.00011 0.990508
1.00151 0.999956 0.993582
1.00091 1.00081 0.997126
1.00523 0.994903 0.991047
1.00523 0.995533 0.990495
1.00522 0.994906 0.990996
1.00527 0.998728 0.987323
1.00522 0.995944 0.989971
1.0052 0.995126 0.99093
1.00532 1.00041 0.98555
1.00528 0.999153 0.986769
1.00521 0.996594 0.989373
1.00529 1.00022 0.985595
1.00523 1.00096 0.985067
1.00306 1.00097 0.988605
1.00508 1.00119 0.985117
1.0028 1.00195 0.988072
1.00133 1.00135 0.996461
1.0019 1.00316 0.988288
1.001 1.00156 0.996572
1.00033 1.00118 0.997203
1.00529 0.994931 0.991057
1.00535 0.994889 0.99083
1.00536 0.994828 0.990989
1.00531 0.994887 0.990786
1.00533 0.994885 0.99049
1.0054 0.994851 0.990579
1.00527 0.994941 0.99129
1.00527 0.99492 0.991299
1.00531 0.994889 0.991155
1.00528 0.994931 0.991302
1.00525 0.994951 0.99137
1.00529 0.994916 0.991203
1.00528 0.994935 0.991252
1.00531 0.994956 0.99128
1.00528 0.994931 0.991109
1.00533 0.994934 0.991218
1.00533 0.99626 0.990032
1.0053 0.994925 0.991119
1.00536 0.996709 0.989489
1.00522 0.999749 0.986544
1.00536 0.997398 0.988772
1.00528 0.999933 0.986233
1.00319 1.00027 0.990812
1.00532 1.00015 0.98595
1.00345 1.00012 0.990636
1.00205 0.999824 0.993095
1.00364 1.00001 0.990526
1.00162 0.999772 0.993569
1.00103 1.00016 0.993902
1.00524 0.994942 0.991107
1.00526 0.994936 0.991087
1.00522 0.994903 0.991008
1.00533 0.997623 0.988432
1.00524 0.995525 0.990477
1.00521 0.994911 0.990996
1.0053 1.0001 0.985936
1.00528 0.99831 0.987694
1.00521 0.995673 0.990202
1.00313 1.00034 0.98911
1.00531 1.00042 0.985524
1.00528 0.999144 0.986739
1.0053 1.00091 0.985053
1.00304 1.00098 0.988596
1.00139 1.00092 0.996611
1.0026 1.00217 0.988106
1.00133 1.00136 0.99643
1.00084 1.00147 0.996738
1.00528 0.994946 0.991218
1.00529 0.994931 0.991023
1.00535 0.994888 0.990774
1.00532 0.994889 0.990783
1.00524 0.994962 0.991378
1.00527 0.994938 0.991297
1.00526 0.99492 0.99132
1.00528 0.994932 0.991309
1.00525 0.994948 0.99137
1.00529 0.994967 0.99125
1.00528 0.994936 0.99127
1.00532 0.994986 0.991238
1.00533 0.99603 0.990385
1.00533 0.994934 0.991208
1.00534 0.99624 0.990026
1.00513 0.999587 0.986844
1.00538 0.99672 0.98948
1.00522 0.999724 0.986561
1.00318 1.00032 0.989151
1.00529 0.999913 0.98626
1.00336 1.00023 0.989797
1.00175 0.999922 0.99658
1.00363 1.00006 0.990454
1.00166 0.999811 0.993464
1.00121 0.999825 0.993916
1.00524 0.994951 0.991213
1.00529 0.99495 0.991113
1.00524 0.994941 0.991137
1.00536 0.99666 0.989378
1.00527 0.995137 0.990871
1.00521 0.994904 0.990969
1.0053 0.999454 0.986632
1.00533 0.997597 0.98844
1.00525 0.99551 0.990459
1.00326 0.999969 0.989307
1.00529 0.999897 0.986115
1.00528 0.997889 0.988064
1.00152 1.00045 0.996709
1.00318 1.00028 0.989098
1.0053 1.00044 0.985495
1.00303 1.001 0.988597
1.00144 1.00094 0.996554
1.00129 1.00137 0.99643
1.00524 0.994964 0.991304
1.00528 0.994947 0.991214
1.0053 0.994931 0.99099
1.00527 0.995037 0.991277
1.00524 0.994961 0.991357
1.00527 0.994936 0.991305
1.00526 0.994947 0.991369
1.00529 0.995028 0.991245
1.00531 0.996455 0.989868
1.00532 0.99503 0.991195
1.00532 0.996318 0.990021
1.00506 0.998916 0.987752
1.00534 0.996221 0.990019
1.00514 0.999548 0.986848
1.00309 1.00023 0.98939
1.00522 0.999699 0.986581
1.0032 1.00029 0.989159
1.00168 1 0.996579
1.0034 1.00022 0.98894
1.00159 0.99995 0.99507
1.00128 0.999791 0.993832
1.00521 0.994954 0.991339
1.00528 0.994964 0.991263
1.00524 0.994952 0.991221
1.00534 0.996761 0.989381
1.00529 0.994943 0.991138
1.00524 0.994941 0.991166
1.00524 0.999231 0.986955
1.00535 0.997093 0.988982
1.00528 0.995334 0.990655
1.00329 0.999933 0.989297
1.00529 0.999407 0.986662
1.00532 0.99758 0.988448
1.00168 1.00006 0.996708
1.00328 0.999929 0.9893
1.00528 0.999692 0.986294
1.00154 1.00046 0.996677
1.00322 1.00022 0.989086
1.00142 1.00099 0.9965
1.00526 0.995102 0.991171
1.00524 0.994962 0.99132
1.00528 0.994948 0.991211
1.00531 0.9965 0.989843
1.00527 0.995088 0.99125
1.00524 0.994961 0.991336
1.00529 0.995091 0.99124
1.00531 0.996494 0.989876
1.00499 0.998753 0.988027
1.00532 0.996575 0.989658
1.00509 0.999142 0.98741
1.00302 1.00005 0.989694
1.00516 0.999508 0.98685
1.00309 1.00022 0.989396
1.00156 1.00003 0.996606
1.00321 1.00027 0.989163
1.00163 1.00002 0.996581
1.00169 0.999926 0.993242
1.00526 0.995165 0.991142
1.00522 0.994953 0.991274
1.00532 0.996576 0.989657
1.00528 0.994964 0.991268
1.00523 0.994954 0.991229
1.0052 0.999552 0.986709
1.00534 0.996787 0.989385
1.0053 0.994935 0.991163
1.00327 1.00004 0.989261
1.00524 0.999446 0.986732
1.00534 0.997535 0.988588
1.00174 0.999919 0.996644
1.00331 0.999932 0.989292
1.00529 0.999357 0.986694
1.00168 1.0001 0.996713
1.00331 0.9999 0.989292
1.00158 1.00049 0.996642
1.00531 0.996609 0.989704
1.00526 0.99514 0.991193
1.00524 0.994961 0.991336
1.00496 0.998701 0.988101
1.00531 0.99654 0.989844
1.00527 0.995141 0.991224
1.0053 0.996533 0.989885
1.00502 0.99872 0.98799
1.00288 0.999951 0.990024
1.0051 0.99937 0.987067
1.003 1.00006 0.989704
1.00148 1.00002 0.996675
1.00311 1.0002 0.989403
1.00153 1.00006 0.996635
1.00161 1.00004 0.996593
1.00531 0.99652 0.989814
1.00525 0.995073 0.991224
1.00522 0.994952 0.991209
1.00515 0.999445 0.986944
1.00533 0.996596 0.989661
1.00527 0.994965 0.991274
1.0032 1.00009 0.989353
1.00519 0.999584 0.986703
1.00534 0.996815 0.98939
1.0017 0.999938 0.996588
1.00326 1.00006 0.989258
1.00523 0.999653 0.98651
1.00175 0.999943 0.99667
1.00332 0.999939 0.989285
1.00172 1.00011 0.996709
1.00498 0.999175 0.987506
1.00531 0.996425 0.989949
1.00526 0.995178 0.991215
1.00281 0.999861 0.990267
1.00497 0.998669 0.988095
1.0053 0.996577 0.989847
1.00504 0.998682 0.987955
1.00289 0.999926 0.990035
1.00138 1.00001 0.996743
1.00298 1.00007 0.989714
1.00145 1.00003 0.996695
1.00148 1.00007 0.99666
1.00505 0.999326 0.98726
1.00531 0.996414 0.989942
1.00525 0.994966 0.991307
1.00321 1.00004 0.99105
1.00511 0.999477 0.986956
1.00533 0.996615 0.989665
1.00161 0.999984 0.996605
1.00318 1.00012 0.989355
1.00517 0.999618 0.986699
1.00173 0.99994 0.996609
1.00326 1.00009 0.989253
1.00177 0.999952 0.996692
1.00292 0.999851 0.990166
1.00498 0.998959 0.987748
1.00531 0.996242 0.990193
1.00127 0.99998 0.996831
1.0028 0.999854 0.990263
1.00499 0.998641 0.98809
1.00288 0.999903 0.990043
1.00134 1.00001 0.996776
1.0014 1.00005 0.996722
1.00313 0.999959 0.991314
1.00503 0.999331 0.987267
1.00531 0.996322 0.99007
1.00096 1.00002 0.997249
1.00306 1.00007 0.989627
1.00508 0.999504 0.986965
1.00163 0.999983 0.996601
1.00317 1.00016 0.989353
1.00176 0.999939 0.99663
1.00125 0.999935 0.99394
1.00294 0.999863 0.990857
1.00497 0.998741 0.987989
1.00129 0.999981 0.996843
1.00281 0.999851 0.990267
1.00134 0.999994 0.996802
1.00074 1.00001 0.994387
1.00302 0.999937 0.99064
1.005 0.99934 0.987274
1.0012 1.00001 0.995426
1.00302 1.0001 0.989657
1.00167 0.999977 0.996605
1.00128 0.999968 0.99684
1.0028 0.999855 0.99026
1.00125 0.999981 0.996844
1.00104 0.999968 0.995615
1.00291 0.99993 0.990032
1.00152 1 0.996646
1.0013 0.999972 0.996837
1.00137 0.999983 0.996754

TENSORS stress float
0.00240221 -0.000167651 0.000278705
-0.000167651 0.0011958 -4.9349e-05
0.000278705 -4.9349e-05 0.00116896
0.00741538 0.000100853 0.000330356
0.000100853 0.00438983 3.9216e-05
0.000330356 3.9216e-05 0.00439998
0.00200257 -9.76515e-05 0.000114726
-9.76515e-05 0.000938918 -1.91454e-05
0.000114726 -1.91454e-05 0.000899231
0.00231488 -9.41266e-05 0.000266338
-9.41266e-05 0.00111834 -2.80577e-05
0.000266338 -2.80577e-05 0.00110161
0.0024116 -0.000146963 0.000272214
-0.000146963 0.00119171 -4.34292e-05
0.000272214 -4.34292e-05 0.00116842
0.00239193 -0.000172549 0.000289759
-0.000172549 0.0011905 -5.12916e-05
0.000289759 -5.12916e-05 0.00116376
0.00195023 -0.000169594 5.56298e-05
-0.000169594 0.000793459 -1.52455e-05
5.56298e-05 -1.52455e-05 0.000667633
0.00742485 9.38352e-05 -8.08628e-06
9.38352e-05 0.00438723 -2.18015e-06
-8.08628e-06 -2.18015e-06 0.00440209
0.00681473 0.000240952 0.00016319
0.000240952 0.00401107 1.72716e-05
0.00016319 1.72716e-05 0.00398171
0.00685299 1.73417e-05 9.88886e-05
1.73417e-05 0.00400902 5.67252e-06
9.88886e-05 5.67252e-06 0.00398964
0.00209699 0.000223494 0.000305326
0.000223494 0.0010148 4.26954e-05
0.000305326 4.26954e-05 0.000999955
0.000269915 0.000266411 2.70676e-05
0.000266411 -0.00022495 2.10264e-05
2.70676e-05 2.10264e-05 -0.000378243
0.00189215 -3.20291e-05 0.000259953
-3.20291e-05 0.000848415 4.34907e-06
0.000259953 4.34907e-06 0.000850897
0.00161216 4.1121e-06 7.0924e-05
4.1121e-06 0.000691554 2.33747e-06
7.0924e-05 2.33747e-06 0.000642693
0.0016865 -9.65452e-05 -6.44182e-05
-9.65452e-05 0.000750561 1.20107e-05
-6.44182e-05 1.20107e-05 0.000690954
0.0019555 -9.29639e-05 8.61858e-05
-9.29639e-05 0.000907842 -5.52338e-06
8.61858e-05 -5.52338e-06 0.000871346
0.00201708 -8.69704e-05 0.000124709
-8.69704e-05 0.00095273 -2.09635e-05
0.000124709 -2.09635e-05 0.000909549
0.00200029 -0.000102835 0.00010258
-0.000102835 0.000932531 -1.4606e-05
0.00010258 -1.4606e-05 0.000895344
0.00205345 -0.000206258 -4.36173e-05
-0.000206258 0.00085813 6.81403e-06
-4.36173e-05 6.81403e-06 0.000741536
0.00637967 -0.000155204 0.00034063
-0.000155204 0.00374297 -1.57879e-05
0.00034063 -1.57879e-05 0.00376476
0.00223084 -7.02436e-05 0.000263314
-7.02436e-05 0.00106487 -2.06993e-05
0.000263314 -2.06993e-05 0.00105158
0.00240374 -0.000121618 0.000270186
-0.000121618 0.00117795 -3.60206e-05
0.000270186 -3.60206e-05 0.00115839
0.00190998 -0.000149379 7.35327e-05
-0.000149379 0.000778471 -1.15398e-05
7.35327e-05 -1.15398e-05 0.000673843
0.00195332 -0.000169822 6.37858e-05
-0.000169822 0.000791938 -1.48213e-05
6.37858e-05 -1.48213e-05 0.000676
0.00246331 -0.000154163 0.000298608
-0.000154163 0.00122607 -4.82386e-05
0.000298608 -4.82386e-05 0.00120301
0.00195749 -0.000170909 5.02469e-05
-0.000170909 0.000817007 -1.57985e-05
5.02469e-05 -1.57985e-05 0.000676999
0.00206519 -0.000372474 1.97703e-05
-0.000372474 0.000600817 -8.31265e-06
1.97703e-05 -8.31265e-06 0.000358829
0.00740226 7.99794e-05 -0.000337308
7.99794e-05 0.00436152 -3.01676e-05
-0.000337308 -3.01676e-05 0.00438131
0.00446902 0.000176794 -0.000155427
0.000176794 0.00250902 -1.83164e-05
-0.000155427 -1.83164e-05 0.00248564
0.00450149 0.000100058 -0.000158272
0.000100058 0.00253431 -1.72426e-05
-0.000158272 -1.72426e-05 0.002513
0.00740942 2.1203e-05 -3.39173e-06
2.1203e-05 0.00438569 -9.8978e-07
-3.39173e-06 -9.8978e-07 0.00439754
0.000388849 0.000255744 -9.582e-07
0.000255744 -0.000148432 -1.46652e-06
-9.582e-07 -1.46652e-06 -0.000302544
0.0019552 7.35613e-05 0.000269769
7.35613e-05 0.000886805 2.64782e-05
0.000269769 2.64782e-05 0.000875751
0.00210103 0.000165733 0.000279076
0.000165733 0.00101335 4.10572e-05
0.000279076 4.10572e-05 0.000989348
0.00289846 0.000229807 0.000165577
0.000229807 0.00138507 2.52271e-05
0.000165577 2.52271e-05 0.00129461
0.00644325 -0.000259434 2.91743e-05
-0.000259434 0.00383127 3.94989e-06
2.91743e-05 3.94989e-06 0.0037827
0.00302205 0.000311021 0.000175178
0.000311021 0.00151148 3.15727e-05
0.000175178 3.15727e-05 0.00140126
0.000350058 0.00024424 2.59856e-05
0.00024424 -0.000164914 2.9322e-05
2.59856e-05 2.9322e-05 -0.000321948
0.0008939 0.000316483 2.01075e-05
0.000316483 -2.81016e-05 7.00438e-06
2.01075e-05 7.00438e-06 -0.000286975
0.0053603 -0.00011883 0.000200939
-0.00011883 0.00316635 2.27048e-05
0.000200939 2.27048e-05 0.00315862
0.00638579 8.67011e-05 3.17396e-06
8.67011e-05 0.00373106 -2.03326e-06
3.17396e-06 -2.03326e-06 0.00376123
0.00417812 9.73362e-05 -0.000129797
9.73362e-05 0.00232087 -6.14849e-06
-0.000129797 -6.14849e-06 0.00231014
0.00620275 5.74288e-05 0.000330723
5.74288e-05 0.0036184 4.67942e-06
0.000330723 4.67942e-06 0.00364935
0.00148913 9.22769e-05 7.26328e-05
9.22769e-05 0.000617436 4.86015e-06
7.26328e-05 4.86015e-06 0.000573115
0.000462241 1.25371e-05 1.44353e-05
1.25371e-05 -0.00016266 1.60607e-06
1.44353e-05 1.60607e-06 -0.000254302
0.00658624 0.000242679 0.000191797
0.000242679 0.00388818 1.90787e-05
0.000191797 1.90787e-05 0.00386235
0.00290178 8.28626e-05 0.000154335
8.28626e-05 0.00137429 1.03729e-05
0.000154335 1.03729e-05 0.00131296
0.00155665 -9.30714e-05 -8.53192e-05
-9.30714e-05 0.000673042 1.12071e-05
-8.53192e-05 1.12071e-05 0.000616263
0.00160006 -0.00012141 -7.77214e-05
-0.00012141 0.00070389 1.43401e-05
-7.77214e-05 1.43401e-05 0.000641764
0.00175037 -5.65883e-05 -5.22273e-05
-5.65883e-05 0.00078491 9.98744e-06
-5.22273e-05 9.98744e-06 0.000725825
0.00212118 -0.000208778 -0.000150463
-0.000208778 0.000891634 2.89135e-05
-0.000150463 2.89135e-05 0.000787681
0.00400432 -2.94589e-05 -0.000132013
-2.94589e-05 0.00222293 -1.32899e-06
-0.000132013 -1.32899e-06 0.00221229
0.00192487 -7.31929e-05 9.13232e-05
-7.31929e-05 0.000885455 -4.46011e-06
9.13232e-05 -4.46011e-06 0.000853442
0.00211979 -6.44244e-05 0.000132045
-6.44244e-05 0.00101652 -1.98498e-05
0.000132045 -1.98498e-05 0.000971505
0.00199059 -9.85045e-05 9.30329e-05
-9.85045e-05 0.000926089 -9.53314e-06
9.30329e-05 -9.53314e-06 0.00088958
0.00198781 -0.000127192 -3.5308e-05
-0.000127192 0.000816525 2.72962e-06
-3.5308e-05 2.72962e-06 0.000724867
0.00206103 -0.000215441 -5.04776e-05
-0.000215441 0.000878536 7.8621e-06
-5.04776e-05 7.8621e-06 0.000750713
0.00204495 -0.000186061 -3.8136e-05
-0.000186061 0.000848335 4.94353e-06
-3.8136e-05 4.94353e-06 0.000741528
0.00214244 -0.000378574 -1.044e-05
-0.000378574 0.000648533 2.7648e-06
-1.044e-05 2.7648e-06 0.000406931
0.0061773 -4.53652e-06 0.000326361
-4.53652e-06 0.0036002 -3.29711e-06
0.000326361 -3.29711e-06 0.00363232
0.00219378 -4.52447e-05 0.000259531
-4.52447e-05 0.00104476 -1.43229e-05
0.000259531 -1.43229e-05 0.00103623
0.00245879 -1.63641e-05 5.5719e-05
-1.63641e-05 0.00112581 -8.57984e-07
5.5719e-05 -8.57984e-07 0.00105437
0.00187625 -0.000120731 6.69079e-05
-0.000120731 0.000760157 -7.45905e-06
6.69079e-05 -7.45905e-06 0.000665429
0.00194277 -0.000161645 7.02988e-05
-0.000161645 0.000789948 -1.37815e-05
7.02988e-05 -1.37815e-05 0.000679841
0.00197641 -0.000241265 6.19728e-06
-0.000241265 0.000463234 -2.46182e-06
6.19728e-06 -2.46182e-06 0.00028548
0.00198342 -0.000329065 1.61585e-05
-0.000329065 0.000509621 -5.79969e-06
1.61585e-05 -5.79969e-06 0.00029608
0.00183243 -0.000114715 0.000268668
-0.000114715 0.000829651 -4.0003e-05
0.000268668 -4.0003e-05 0.00080626
0.00214221 -0.000146481 4.35167e-05
-0.000146481 0.000955362 -1.43213e-05
4.35167e-05 -1.43213e-05 0.000809408
0.00206613 -0.000415412 2.37681e-05
-0.000415412 0.000647145 -9.20616e-06
2.37681e-05 -9.20616e-06 0.000375644
0.00186688 -0.00049753 7.06539e-06
-0.00049753 0.000234474 -1.67893e-07
7.06539e-06 -1.67893e-07 -5.26352e-05
0.00725387 0.000296535 -0.000375531
0.000296535 0.00428717 -4.47293e-05
-0.000375531 -4.47293e-05 0.00429452
0.00720207 -1.14411e-05 -0.000297382
-1.14411e-05 0.00425703 -2.39809e-05
-0.000297382 -2.39809e-05 0.00427013
0.0072794 0.000155998 -0.000348436
0.000155998 0.00428336 -3.52314e-05
-0.000348436 -3.52314e-05 0.00430366
0.000360183 0.000242612 -2.56452e-05
0.000242612 -0.000159522 -2.10374e-05
-2.56452e-05 -2.10374e-05 -0.000315714
0.00707499 0.000257809 -1.97768e-06
0.000257809 0.0041677 -2.52208e-06
-1.97768e-06 -2.52208e-06 0.00418107
0.00726326 0.000253425 -8.63967e-06
0.000253425 0.00428399 -3.3798e-06
-8.63967e-06 -3.3798e-06 0.00429445
0.00034321 0.0001454 3.28566e-07
0.0001454 -0.00024456 -2.61233e-07
3.28566e-07 -2.61233e-07 -0.000370122
0.00404147 -6.91065e-05 -0.000131316
-6.91065e-05 0.00228821 -6.93651e-06
-0.000131316 -6.93651e-06 0.00225658
0.000294621 0.000220593 6.41201e-07
0.000220593 -0.000220897 -4.81059e-07
6.41201e-07 -4.81059e-07 -0.000367933
0.00181829 0.000258386 6.68693e-05
0.000258386 0.000772042 4.20584e-06
6.68693e-05 4.20584e-06 0.000642406
0.000967791 0.000320498 1.3781e-06
0.000320498 2.14075e-05 -9.39571e-09
1.3781e-06 -9.39571e-09 -0.000236748
0.00602973 -0.000121454 0.000229087
-0.000121454 0.00358876 2.82767e-05
0.000229087 2.82767e-05 0.00357577
0.000542819 0.000103217 2.29034e-05
0.000103217 8.06932e-06 1.47207e-05
2.29034e-05 1.47207e-05 -7.85072e-05
0.00045368 0.000113591 1.45432e-05
0.000113591 -0.000190726 1.15214e-05
1.45432e-05 1.15214e-05 -0.000308371
0.000461049 0.000175918 1.92365e-05
0.000175918 -0.000156453 1.9467e-05
1.92365e-05 1.9467e-05 -0.000290918
0.0012964 0.000300659 1.53622e-05
0.000300659 3.1894e-05 6.04593e-06
1.53622e-05 6.04593e-06 -0.000190597
0.00323571 0.000258878 0.000161198
0.000258878 0.00168347 2.41254e-05
0.000161198 2.41254e-05 0.00159267
0.0011395 0.000342822 2.38358e-05
0.000342822 6.1147e-05 8.3913e-06
2.38358e-05 8.3913e-06 -0.000195513
0.000848845 0.000303102 1.49998e-05
0.000303102 4.53726e-05 6.55113e-06
1.49998e-05 6.55113e-06 -0.000214631
0.00149502 0.000528555 7.8493e-06
0.000528555 0.000203604 -2.62299e-06
7.8493e-06 -2.62299e-06 -0.000149788
0.00428542 -0.000133647 0.000133575
-0.000133647 0.00246199 1.10314e-05
0.000133575 1.10314e-05 0.00245644
0.00484191 -0.000169582 2.155e-05
-0.000169582 0.0028355 3.13135e-07
2.155e-05 3.13135e-07 0.00281859
0.00686568 7.11954e-05 -0.000351288
7.11954e-05 0.00401807 -1.85443e-05
-0.000351288 -1.85443e-05 0.00404661
0.00648567 7.82272e-05 -0.000344296
7.82272e-05 0.00378981 -1.13152e-05
-0.000344296 -1.13152e-05 0.00382123
0.00629655 8.35272e-05 -1.18552e-07
8.35272e-05 0.00368242 -4.11457e-06
-1.18552e-07 -4.11457e-06 0.00371045
0.00405252 3.90058e-05 -0.000141878
3.90058e-05 0.00224204 -7.99234e-06
-0.000141878 -7.99234e-06 0.00223664
0.00156477 4.02981e-05 6.7781e-05
4.02981e-05 0.000539941 1.96471e-06
6.7781e-05 1.96471e-06 0.000467722
0.00436435 0.000158982 -0.000133382
0.000158982 0.00244498 -8.17874e-06
-0.000133382 -8.17874e-06 0.00242577
0.00165166 9.80121e-05 6.82453e-05
9.80121e-05 0.000581887 3.67099e-06
6.82453e-05 3.67099e-06 0.0004975
0.00623657 0.000115462 0.000333179
0.000115462 0.0036532 7.36886e-06
0.000333179 7.36886e-06 0.00367658
0.000349098 1.0323e-05 1.78758e-05
1.0323e-05 -0.000228776 8.77358e-07
1.78758e-05 8.77358e-07 -0.000315879
0.00287727 4.48657e-05 0.000153045
4.48657e-05 0.00136478 6.78661e-06
0.000153045 6.78661e-06 0.00130998
0.00112306 7.53074e-05 1.06345e-05
7.53074e-05 -6.30395e-05 4.14286e-07
1.06345e-05 4.14286e-07 -0.000198875
0.00282089 0.000131731 0.000159332
0.000131731 0.00131961 1.41255e-05
0.000159332 1.41255e-05 0.00125005
0.00126683 0.000161391 6.36565e-06
0.000161391 -3.17022e-05 1.2446e-06
6.36565e-06 1.2446e-06 -0.000191265
0.00190266 4.051e-05 -0.000258697
4.051e-05 0.000852704 3.53275e-06
-0.000258697 3.53275e-06 0.000858313
0.00153092 -2.39229e-05 -7.15177e-05
-2.39229e-05 0.000647837 3.36867e-06
-7.15177e-05 3.36867e-06 0.000597861
0.00178492 -2.41808e-05 -4.59807e-05
-2.41808e-05 0.000804579 8.81084e-06
-4.59807e-05 8.81084e-06 0.000743898
0.00155976 -0.000110812 -8.65169e-05
-0.000110812 0.000677354 1.39397e-05
-8.65169e-05 1.39397e-05 0.000617901
0.00210328 -0.000104993 -0.000139115
-0.000104993 0.000878454 1.37006e-05
-0.000139115 1.37006e-05 0.000799871
0.00214485 -0.000171801 -0.000145305
-0.000171801 0.00089818 2.4306e-05
-0.000145305 2.4306e-05 0.000805747
0.00212679 -0.000234353 -0.000156508
-0.000234353 0.000915711 3.11009e-05
-0.000156508 3.11009e-05 0.000799284
0.00221569 -0.000384699 -3.67779e-05
-0.000384699 0.000694459 1.26779e-05
-3.67779e-05 1.26779e-05 0.000453289
0.0062799 -0.000113448 2.43982e-06
-0.000113448 0.00367881 -2.00654e-06
2.43982e-06 -2.00654e-06 0.0037027
0.001812 2.32776e-05 9.84333e-05
2.32776e-05 0.000805787 -5.16037e-06
9.84333e-05 -5.16037e-06 0.000784153
0.00117841 -1.46975e-05 -7.03165e-05
-1.46975e-05 0.000300637 2.4163e-06
-7.03165e-05 2.4163e-06 0.000228619
0.00193765 -8.44615e-05 -3.84352e-05
-8.44615e-05 0.000789827 3.39576e-06
-3.84352e-05 3.39576e-06 0.000706423
0.00483467 -7.90382e-05 0.000283669
-7.90382e-05 0.0027485 -2.31097e-05
0.000283669 -2.31097e-05 0.00274263
0.0026799 -0.000219761 -4.8964e-05
-0.000219761 0.00128753 5.01414e-06
-4.8964e-05 5.01414e-06 0.00115838
0.00203195 -0.000157883 -3.54333e-05
-0.000157883 0.000839771 3.55943e-06
-3.54333e-05 3.55943e-06 0.000741102
0.00204193 -0.000241858 -9.18487e-06
-0.000241858 0.000501345 1.76347e-06
-9.18487e-06 1.76347e-06 0.000328143
0.00215495 -0.000425517 -9.18745e-06
-0.000425517 0.000707795 2.68798e-06
-9.18745e-06 2.68798e-06 0.000435209
0.0020638 -0.000332641 -9.70014e-06
-0.000332641 0.000560868 2.60811e-06
-9.70014e-06 2.60811e-06 0.000345352
0.00190042 -0.000499707 9.19997e-07
-0.000499707 0.000257165 -2.34391e-07
9.19997e-07 -2.34391e-07 -2.96822e-05
0.000385382 7.9545e-06 1.87324e-05
7.9545e-06 -0.000208957 -3.33186e-07
1.87324e-05 -3.33186e-07 -0.000292208
0.00178592 -1.19567e-05 5.80291e-05
-1.19567e-05 0.000692735 -2.66747e-06
5.80291e-05 -2.66747e-06 0.000612823
0.00192983 -8.2739e-05 8.25074e-06
-8.2739e-05 0.000455952 -8.24879e-08
8.25074e-06 -8.24879e-08 0.000337279
0.00199133 -0.000191488 7.43967e-06
-0.000191488 0.000475414 -6.38174e-07
7.43967e-06 -6.38174e-07 0.000323421
0.00200709 -0.000287867 1.10435e-05
-0.000287867 0.000494871 -3.70522e-06
1.10435e-05 -3.70522e-06 0.00030439
0.00203406 -0.000344601 -1.16385e-07
-0.000344601 0.000188665 -1.61049e-07
-1.16385e-07 -1.61049e-07 9.57185e-06
0.0068207 6.25617e-05 0.000255294
6.25617e-05 0.00403917 -2.15652e-05
0.000255294 -2.15652e-05 0.00404173
0.00182521 -0.000454836 5.73959e-06
-0.000454836 0.000149055 -1.30996e-07
5.73959e-06 -1.30996e-07 -0.000101777
0.000243958 -0.000206758 2.07786e-05
-0.000206758 -0.000254488 -2.37867e-05
2.07786e-05 -2.37867e-05 -0.000396064
0.00104034 -0.000347563 2.23967e-05
-0.000347563 6.76103e-05 -1.11877e-05
2.23967e-05 -1.11877e-05 -0.000212505
0.00199512 -0.000560855 9.43115e-06
-0.000560855 0.000383196 -7.20639e-08
9.43115e-06 -7.20639e-08 4.87125e-05
0.00201316 -0.00056775 2.43852e-06
-0.00056775 0.000222288 3.38178e-06
2.43852e-06 3.38178e-06 -4.53052e-05
0.000427393 -0.000172546 2.30893e-05
-0.000172546 -9.37426e-05 -1.94913e-05
2.30893e-05 -1.94913e-05 -0.000210525
0.000699623 -0.000153963 -8.71169e-07
-0.000153963 0.000127089 -1.78906e-06
-8.71169e-07 -1.78906e-06 -0.000130463
0.00717992 0.000283698 -0.000381008
0.000283698 0.00424028 -4.14819e-05
-0.000381008 -4.14819e-05 0.00425028
0.00727842 0.000243786 -0.000362901
0.000243786 0.00429182 -4.16812e-05
-0.000362901 -4.16812e-05 0.00430591
0.000319617 0.000143632 -1.7977e-05
0.000143632 -0.000261005 -1.41851e-05
-1.7977e-05 -1.41851e-05 -0.000387089
0.00646374 -8.85199e-05 -0.000242622
-8.85199e-05 0.00382543 -1.87579e-05
-0.000242622 -1.87579e-05 0.00382793
0.000271619 0.000218565 -2.25026e-05
0.000218565 -0.000214475 -2.27208e-05
-2.25026e-05 -2.27208e-05 -0.000354677
0.000293498 0.000207931 -2.12453e-05
0.000207931 -0.000220766 -1.95313e-05
-2.12453e-05 -1.95313e-05 -0.000368263
0.00096567 0.000319449 -2.17082e-05
0.000319449 2.09167e-05 -8.7734e-06
-2.17082e-05 -8.7734e-06 -0.000236109
0.00588125 -0.000111876 -1.01297e-05
-0.000111876 0.00348462 2.06905e-06
-1.01297e-05 2.06905e-06 0.00347848
0.00056704 8.29007e-05 1.24553e-06
8.29007e-05 2.69809e-05 3.91264e-07
1.24553e-06 3.91264e-07 -5.64887e-05
0.00170135 0.000158718 7.13268e-05
0.000158718 0.000606916 6.51801e-06
7.13268e-05 6.51801e-06 0.000505932
0.00168708 0.000224977 7.38673e-05
0.000224977 0.000632515 7.794e-06
7.38673e-05 7.794e-06 0.000513369
0.00126805 0.000299485 -3.60727e-08
0.000299485 1.92423e-05 -3.6623e-07
-3.60727e-08 -3.6623e-07 -0.000204289
0.000384012 0.00019103 -6.95387e-07
0.00019103 -0.000123664 -2.93669e-07
-6.95387e-07 -2.93669e-07 -0.000245702
0.00109968 0.000338033 9.98569e-07
0.000338033 3.57969e-05 2.02531e-07
9.98569e-07 2.02531e-07 -0.000220177
0.000744973 0.000285209 7.09495e-07
0.000285209 -1.94351e-05 -7.43781e-07
7.09495e-07 -7.43781e-07 -0.000272782
0.00163449 0.000550484 -1.05408e-06
0.000550484 0.000279752 -5.99765e-07
-1.05408e-06 -5.99765e-07 -7.64976e-05
0.000397459 0.00015886 2.08752e-05
0.00015886 -9.82211e-05 1.79269e-05
2.08752e-05 1.79269e-05 -0.000206627
0.00075144 4.18136e-05 1.32154e-05
4.18136e-05 0.000160599 1.39397e-05
1.32154e-05 1.39397e-05 9.21397e-05
0.0014305 0.000270436 4.21902e-06
0.000270436 0.000615929 3.10032e-06
4.21902e-06 3.10032e-06 0.000380581
0.00132092 0.000260341 1.1074e-05
0.000260341 1.10803e-05 4.24704e-06
1.1074e-05 4.24704e-06 -0.000189644
0.00125531 0.000331836 2.08022e-05
0.000331836 5.91776e-05 7.82353e-06
2.08022e-05 7.82353e-06 -0.000183203
0.00204204 0.000487018 4.58553e-06
0.000487018 0.000263452 -3.57682e-07
4.58553e-06 -3.57682e-07 7.62836e-06
0.000573316 0.000245306 1.05512e-05
0.000245306 -3.31785e-05 5.98495e-06
1.05512e-05 5.98495e-06 -0.00027818
0.00202842 0.000585651 5.6631e-06
0.000585651 0.000419777 -1.6093e-06
5.6631e-06 -1.6093e-06 8.79133e-05
0.00144489 0.000521371 3.61961e-06
0.000521371 0.000303847 -3.57602e-06
3.61961e-06 -3.57602e-06 -7.43062e-05
0.00162874 0.000611889 -5.81301e-06
0.000611889 0.000176861 -5.78904e-06
-5.81301e-06 -5.78904e-06 -0.0001859
0.00372426 -0.000137835 8.87616e-05
-0.000137835 0.00209473 6.22429e-06
8.87616e-05 6.22429e-06 0.00208883
0.00417068 -0.000176749 1.93882e-05
-0.000176749 0.00239713 -1.35714e-06
1.93882e-05 -1.35714e-06 0.00238023
0.0046582 -0.000227679 -0.000100302
-0.000227679 0.00273226 -1.04532e-05
-0.000100302 -1.04532e-05 0.00269968
0.000562002 -0.000160118 2.28462e-05
-0.000160118 1.3914e-05 -1.66018e-05
2.28462e-05 -1.66018e-05 -8.93054e-05
0.00616687 0.000111682 0.000214757
0.000111682 0.00366009 -2.10576e-05
0.000214757 -2.10576e-05 0.00365156
0.00706697 0.000234051 -0.000377861
0.000234051 0.00416169 -3.39502e-05
-0.000377861 -3.39502e-05 0.00417929
0.00660263 0.000104009 -0.000346032
0.000104009 0.0038601 -1.59513e-05
-0.000346032 -1.59513e-05 0.00388927
0.000335108 0.000102779 -1.80252e-05
0.000102779 -0.000254549 -6.17571e-06
-1.80252e-05 -6.17571e-06 -0.000358022
0.000335767 4.40399e-05 -1.82217e-05
4.40399e-05 -0.000237658 -2.62292e-06
-1.82217e-05 -2.62292e-06 -0.000330016
0.00625522 -3.82999e-06 -0.0003299
-3.82999e-06 0.00364703 -3.07675e-06
-0.0003299 -3.07675e-06 0.00367948
0.00617609 1.34673e-06 3.79901e-08
1.34673e-06 0.00359893 -1.17473e-06
3.79901e-08 -1.17473e-06 0.00363145
0.000332232 8.8546e-07 3.32239e-08
8.8546e-07 -0.000242285 2.53282e-07
3.32239e-08 2.53282e-07 -0.000327668
0.00157975 4.37734e-05 6.80963e-05
4.37734e-05 0.000542352 3.24822e-06
6.80963e-05 3.24822e-06 0.000466831
0.00110579 7.91878e-05 1.82291e-08
7.91878e-05 -8.01403e-05 -1.68679e-07
1.82291e-08 -1.68679e-07 -0.000216885
0.00036879 9.27256e-05 -6.88583e-07
9.27256e-05 -0.000238811 -3.59135e-07
-6.88583e-07 -3.59135e-07 -0.000349823
0.00122739 0.00016296 -1.41514e-07
0.00016296 -5.13568e-05 -1.32653e-07
-1.41514e-07 -1.32653e-07 -0.000212374
0.000326515 -3.26168e-05 1.84432e-05
-3.26168e-05 -0.00024655 -7.359e-07
1.84432e-05 -7.359e-07 -0.0003288
0.00108279 3.35976e-05 1.05013e-05
3.35976e-05 -7.87833e-05 2.00877e-07
1.05013e-05 2.00877e-07 -0.000208073
0.00114964 0.000118899 8.47435e-06
0.000118899 -7.17592e-05 1.02193e-06
8.47435e-06 1.02193e-06 -0.000217621
0.00197427 0.000125377 1.45608e-06
0.000125377 6.58338e-05 4.97989e-08
1.45608e-06 4.97989e-08 -2.32369e-05
0.00131894 0.000211239 7.46548e-06
0.000211239 -6.12731e-06 2.51516e-06
7.46548e-06 2.51516e-06 -0.00018496
0.00211961 0.000283361 1.31526e-06
0.000283361 0.000167753 -7.91227e-07
1.31526e-06 -7.91227e-07 3.08522e-05
0.00619786 -7.52903e-05 -0.000332322
-7.52903e-05 0.00362086 4.17093e-06
-0.000332322 4.17093e-06 0.00364879
0.00144417 -0.000162483 -7.14083e-05
-0.000162483 0.000613727 8.84792e-06
-7.14083e-05 8.84792e-06 0.000557452
-0.000229239 -8.76029e-06 -1.15245e-05
-8.76029e-06 -0.000589826 1.31472e-06
-1.15245e-05 1.31472e-06 -0.000689405
0.00206416 -7.54367e-05 -0.000138116
-7.54367e-05 0.000862635 9.41363e-06
-0.000138116 9.41363e-06 0.000790015
0.00739396 0.000223883 -5.06765e-05
0.000223883 0.00438874 3.33994e-06
-5.06765e-05 3.33994e-06 0.00434362
0.00307224 -0.00029103 -0.000162412
-0.00029103 0.00154059 3.14643e-05
-0.000162412 3.14643e-05 0.00141949
0.00214227 -0.000137566 -0.000142242
-0.000137566 0.000896311 1.89508e-05
-0.000142242 1.89508e-05 0.000811759
0.0020965 -0.000242559 -2.76372e-05
-0.000242559 0.000532023 5.1794e-06
-2.76372e-05 5.1794e-06 0.000363386
0.00212115 -0.00033485 -3.25837e-05
-0.00033485 0.000595876 1.09305e-05
-3.25837e-05 1.09305e-05 0.000378722
0.0022218 -0.000432506 -3.95152e-05
-0.000432506 0.000755506 1.37764e-05
-3.95152e-05 1.37764e-05 0.000482698
0.00192541 -0.000501101 -5.68015e-06
-0.000501101 0.00027449 -1.42922e-07
-5.68015e-06 -1.42922e-07 -1.19775e-05
0.000326809 3.23302e-06 -3.33597e-08
3.23302e-06 -0.000244081 3.88284e-07
-3.33597e-08 3.88284e-07 -0.00032834
0.00191293 -9.42569e-05 -3.73579e-05
-9.42569e-05 0.000781289 6.2095e-07
-3.73579e-05 6.2095e-07 0.00070288
0.00158755 -7.84439e-05 -1.21443e-05
-7.84439e-05 0.000236796 7.71485e-07
-1.21443e-05 7.71485e-07 0.000114185
0.00197296 -0.000189523 -1.04173e-05
-0.000189523 0.000459187 1.77779e-06
-1.04173e-05 1.77779e-06 0.000304329
0.00705342 6.10826e-05 3.61228e-06
6.10826e-05 0.0041886 3.94821e-07
3.61228e-06 3.94821e-07 0.00418909
0.00171986 -0.000210426 6.79814e-06
-0.000210426 0.000701149 5.40777e-07
6.79814e-06 5.40777e-07 0.000551719
0.00146515 -0.000373681 -1.09114e-06
-0.000373681 0.00033445 -1.19023e-06
-1.09114e-06 -1.19023e-06 5.52983e-05
0.00205624 -0.00029201 -9.87506e-06
-0.00029201 0.000522774 2.63441e-06
-9.87506e-06 2.63441e-06 0.000331289
0.00211941 -0.000353196 7.96382e-07
-0.000353196 0.000238698 -5.08751e-07
7.96382e-07 -5.08751e-07 6.55172e-05
0.00198162 -0.000559299 1.43987e-06
-0.000559299 0.000373374 -4.01884e-08
1.43987e-06 -4.01884e-08 4.05327e-05
0.00192903 -0.000457942 3.15679e-07
-0.000457942 0.000219304 -1.90445e-07
3.15679e-07 -1.90445e-07 -3.23263e-05
0.00207382 -0.000571589 8.76046e-07
-0.000571589 0.000266062 2.15046e-07
8.76046e-07 2.15046e-07 -2.21303e-06
0.000428735 -0.000185358 1.89409e-06
-0.000185358 -9.79665e-05 2.72192e-07
1.89409e-06 2.72192e-07 -0.00021437
0.000804989 -0.000219149 1.24823e-06
-0.000219149 0.00018593 6.86267e-07
1.24823e-06 6.86267e-07 -6.90257e-05
0.001088 -3.87481e-05 1.07417e-05
-3.87481e-05 -7.1055e-05 -3.39108e-07
1.07417e-05 -3.39108e-07 -0.000200278
0.00198179 -0.000133261 7.3249e-06
-0.000133261 0.000482712 -2.92784e-07
7.3249e-06 -2.92784e-07 0.000351001
0.00182721 -0.000135792 2.54203e-06
-0.000135792 -7.75724e-07 -2.32814e-07
2.54203e-06 -2.32814e-07 -0.00010565
0.00205504 -0.000284505 -2.32189e-07
-0.000284505 0.00016146 9.9425e-07
-2.32189e-07 9.9425e-07 2.77227e-05
0.00189239 -0.000408413 4.63148e-07
-0.000408413 0.000137515 3.44506e-07
4.63148e-07 3.44506e-07 -7.39713e-05
0.00215345 -0.000393143 5.06609e-06
-0.000393143 0.000169321 -1.36517e-06
5.06609e-06 -1.36517e-06 3.12489e-05
0.000221302 -0.000186697 2.0409e-05
-0.000186697 -0.000239021 -2.29731e-05
2.0409e-05 -2.29731e-05 -0.000372671
0.00205645 -0.000520863 1.8762e-06
-0.000520863 0.000197051 1.92237e-06
1.8762e-06 1.92237e-06 -2.24962e-05
0.000971839 -0.000302013 1.49488e-05
-0.000302013 0.000116887 -9.38797e-06
1.49488e-05 -9.38797e-06 -0.000148128
0.00169602 -0.000598434 1.54589e-05
-0.000598434 0.000280508 -7.26361e-07
1.54589e-05 -7.26361e-07 -0.000107627
0.00229167 -0.000639082 2.48985e-06
-0.000639082 0.000469229 2.55356e-06
2.48985e-06 2.55356e-06 0.000138479
0.00234232 -0.000610256 1.06412e-07
-0.000610256 0.000400597 3.6121e-06
1.06412e-07 3.6121e-06 0.000158427
0.00054106 -0.000212358 1.82247e-06
-0.000212358 -5.66258e-06 -4.84965e-06
1.82247e-06 -4.84965e-06 -0.000275003
0.00107272 -0.000165317 1.11839e-06
-0.000165317 0.000383749 -1.43269e-06
1.11839e-06 -1.43269e-06 0.000151216
0.0011352 -0.00030515 -1.75824e-06
-0.00030515 0.000387833 6.5436e-07
-1.75824e-06 6.5436e-07 7.42458e-05
0.00033794 0.000120264 -1.69346e-05
0.000120264 -0.000259811 -1.10583e-05
-1.69346e-05 -1.10583e-05 -0.000379261
0.00536256 -0.000152692 -0.000172339
-0.000152692 0.00315781 -1.36466e-05
-0.000172339 -1.36466e-05 0.00314597
0.00037443 7.24742e-05 -1.72058e-05
7.24742e-05 -9.40488e-05 -1.43131e-05
-1.72058e-05 -1.43131e-05 -0.000170894
0.000299226 0.000175203 -1.97996e-05
0.000175203 -0.000249183 -1.74245e-05
-1.97996e-05 -1.74245e-05 -0.000384846
0.0012345 0.000298382 -1.66043e-05
0.000298382 2.4978e-06 -6.68531e-06
-1.66043e-05 -6.68531e-06 -0.000222132
0.000323179 0.000184742 -2.28659e-05
0.000184742 -0.000167477 -2.07976e-05
-2.28659e-05 -2.07976e-05 -0.000288022
0.000783349 0.000279113 -1.42025e-05
0.000279113 5.42474e-06 -8.37126e-06
-1.42025e-05 -8.37126e-06 -0.000243298
0.00110893 0.000334842 -2.45957e-05
0.000334842 4.63638e-05 -8.80281e-06
-2.45957e-05 -8.80281e-06 -0.000208678
0.00178274 0.000573813 -8.83502e-06
0.000573813 0.000360102 1.20596e-06
-8.83502e-06 1.20596e-06 7.46208e-07
0.00047001 0.000158761 -3.26572e-06
0.000158761 -6.19434e-05 1.61048e-06
-3.26572e-06 1.61048e-06 -0.000162002
0.000399245 2.05082e-05 1.53612e-06
2.05082e-05 -5.25765e-05 3.88309e-07
1.53612e-06 3.88309e-07 -0.000120267
0.000757652 0.000179031 1.61663e-06
0.000179031 0.000170214 -1.3451e-07
1.61663e-06 -1.3451e-07 -4.48774e-05
0.00128744 0.000259305 -2.13094e-07
0.000259305 -3.80545e-06 -3.01649e-07
-2.13094e-07 -3.01649e-07 -0.000205662
0.00121314 0.000328385 2.5281e-07
0.000328385 3.77919e-05 -2.59901e-07
2.5281e-07 -2.59901e-07 -0.000204837
0.00201837 0.000485136 -3.72307e-07
0.000485136 0.000247145 -1.60703e-07
-3.72307e-07 -1.60703e-07 -8.65361e-06
0.000693302 0.000242911 -4.06913e-07
0.000242911 4.0194e-05 -4.85429e-09
-4.06913e-07 -4.85429e-09 -0.000198823
0.00200308 0.000579237 -6.15522e-07
0.000579237 0.00040327 -4.30793e-07
-6.15522e-07 -4.30793e-07 7.16757e-05
0.00150213 0.00053546 -4.22691e-07
0.00053546 0.000324953 -1.33328e-06
-4.22691e-07 -1.33328e-06 -5.80916e-05
0.00163744 0.000623459 -1.12257e-06
0.000623459 0.000161255 2.35929e-06
-1.12257e-06 2.35929e-06 -0.000200769
0.000564622 1.69146e-06 4.20466e-06
1.69146e-06 5.60636e-05 1.24101e-05
4.20466e-06 1.24101e-05 9.25952e-07
0.00112609 0.000225078 5.48892e-06
0.000225078 0.000369958 2.48308e-06
5.48892e-06 2.48308e-06 0.00013101
0.00101045 0.000126719 3.38941e-06
0.000126719 0.000338738 4.05524e-06
3.38941e-06 4.05524e-06 0.00015981
0.00052767 0.000220254 -1.44372e-06
0.000220254 3.74944e-05 2.1927e-06
-1.44372e-06 2.1927e-06 -0.000236356
0.00208153 0.000429036 2.14162e-06
0.000429036 0.000225643 -1.83147e-06
2.14162e-06 -1.83147e-06 1.16967e-05
0.00198704 0.000537321 5.25691e-06
0.000537321 0.000306636 -3.66645e-07
5.25691e-06 -3.66645e-07 9.44086e-06
0.00217322 0.000552463 4.61456e-07
0.000552463 0.000260303 -1.36933e-06
4.61456e-07 -1.36933e-06 2.13923e-05
0.000987493 0.000409704 3.14574e-07
0.000409704 0.000100405 -1.86916e-06
3.14574e-07 -1.86916e-06 -0.000235623
0.00237845 0.000688936 -5.15276e-06
0.000688936 0.000539443 -3.05895e-06
-5.15276e-06 -3.05895e-06 0.000207816
0.00204051 0.000703818 -7.31574e-06
0.000703818 0.000553151 -9.62182e-06
-7.31574e-06 -9.62182e-06 0.000110536
0.00206996 0.000669412 -2.29504e-06
0.000669412 0.00033433 -2.68776e-06
-2.29504e-06 -2.68776e-06 -1.15617e-05
0.000585312 6.54797e-05 1.21659e-06
6.54797e-05 9.59422e-05 5.91682e-06
1.21659e-06 5.91682e-06 2.6091e-06
0.000472743 -5.98998e-07 2.34104e-06
-5.98998e-07 -1.125e-05 9.00408e-06
2.34104e-06 9.00408e-06 -4.92287e-05
0.00327631 -0.000126385 6.07669e-05
-0.000126385 0.00180001 4.89557e-06
6.07669e-05 4.89557e-06 0.00179697
0.00361352 -0.000158192 1.04324e-05
-0.000158192 0.00202901 -9.9279e-07
1.04324e-05 -9.9279e-07 0.00201728
0.00402727 -0.000199205 -7.00752e-05
-0.000199205 0.00231005 -6.14147e-06
-7.00752e-05 -6.14147e-06 0.0022864
0.000403846 -0.000151768 2.29408e-05
-0.000151768 -6.49497e-05 -1.57121e-05
2.29408e-05 -1.57121e-05 -0.000153265
0.00549899 0.000142857 0.000172431
0.000142857 0.00325291 -1.92238e-05
0.000172431 -1.92238e-05 0.00323697
0.000477895 -0.000166722 2.15371e-06
-0.000166722 -4.49348e-05 7.12362e-07
2.15371e-06 7.12362e-07 -0.00015029
0.00634902 9.01181e-05 6.31627e-06
9.01181e-05 0.00376874 4.04567e-07
6.31627e-06 4.04567e-07 0.003763
0.00036061 0.000117982 -1.78632e-05
0.000117982 -0.000243165 -8.66927e-06
-1.78632e-05 -8.66927e-06 -0.000356795
0.000322679 3.55501e-05 -1.66564e-05
3.55501e-05 -0.000253859 -3.35286e-06
-1.66564e-05 -3.35286e-06 -0.000349748
0.00122627 0.000165287 -6.99209e-06
0.000165287 -5.13288e-05 -1.46077e-06
-6.99209e-06 -1.46077e-06 -0.000213655
0.00107629 8.17544e-05 -1.05896e-05
8.17544e-05 -0.000104343 -7.3055e-07
-1.05896e-05 -7.3055e-07 -0.000241872
0.000384736 -7.50235e-06 -1.86013e-05
-7.50235e-06 -0.000211941 -6.52617e-07
-1.86013e-05 -6.52617e-07 -0.000295658
0.00626965 -0.000102282 -0.000339195
-0.000102282 0.00367077 6.06942e-06
-0.000339195 6.06942e-06 0.00369695
0.000373882 -3.02545e-06 6.15613e-08
-3.02545e-06 -0.000217581 -7.22825e-07
6.15613e-08 -7.22825e-07 -0.000299645
0.00106279 3.87697e-05 -1.13509e-07
3.87697e-05 -9.28647e-05 1.17855e-07
-1.13509e-07 1.17855e-07 -0.000222668
0.00117053 0.000121648 -6.29509e-08
0.000121648 -6.42747e-05 1.00713e-07
-6.29509e-08 1.00713e-07 -0.000211265
0.0019558 0.000123172 -1.46549e-07
0.000123172 6.06734e-05 2.83312e-07
-1.46549e-07 2.83312e-07 -2.85822e-05
0.00128426 0.000211447 -3.52096e-07
0.000211447 -2.20313e-05 -2.70703e-07
-3.52096e-07 -2.70703e-07 -0.000202236
0.00205882 0.000279492 -3.09297e-07
0.000279492 0.000131172 5.10597e-08
-3.09297e-07 5.10597e-08 -5.40323e-06
0.00105113 -4.37179e-06 1.05489e-05
-4.37179e-06 -9.37848e-05 -2.74166e-07
1.05489e-05 -2.74166e-07 -0.000221384
0.00195485 6.25401e-05 2.51999e-06
6.25401e-05 6.92242e-05 1.07224e-07
2.51999e-06 1.07224e-07 -1.30644e-05
0.00202908 0.000197867 8.40928e-07
0.000197867 9.26689e-05 -4.03999e-07
8.40928e-07 -4.03999e-07 -1.42246e-05
0.00217913 0.000153299 5.56679e-06
0.000153299 8.39785e-05 6.48305e-07
5.56679e-06 6.48305e-07 4.91102e-05
0.00211538 0.000362343 2.03627e-06
0.000362343 0.000197529 -9.07675e-07
2.03627e-06 -9.07675e-07 2.3647e-05
0.00208788 0.00030375 3.69218e-06
0.00030375 6.02607e-05 1.13366e-06
3.69218e-06 1.13366e-06 -3.03728e-05
0.000362999 -3.93961e-06 -1.77119e-05
-3.93961e-06 -0.000217799 6.07906e-07
-1.77119e-05 6.07906e-07 -0.0003043
0.00200548 -4.96873e-05 -0.000136265
-4.96873e-05 0.000829364 6.32151e-06
-0.000136265 6.32151e-06 0.000763013
0.00122576 -7.38952e-05 -1.91566e-05
-7.38952e-05 5.82081e-06 1.44499e-06
-1.91566e-05 1.44499e-06 -0.000121149
0.00194134 -0.00018689 -2.63818e-05
-0.00018689 0.000434883 3.74489e-06
-2.63818e-05 3.74489e-06 0.000277286
0.00734577 3.08958e-05 -0.000300384
3.08958e-05 0.00436672 3.1029e-05
-0.000300384 3.1029e-05 0.00437042
0.00348457 -0.000292307 -0.000176525
-0.000292307 0.00181816 2.82315e-05
-0.000176525 2.82315e-05 0.00170256
0.00178981 -0.000411951 -3.15305e-05
-0.000411951 0.000547405 1.18005e-05
-3.15305e-05 1.18005e-05 0.000263218
0.00209513 -0.000295254 -3.03586e-05
-0.000295254 0.000543851 8.32455e-06
-3.03586e-05 8.32455e-06 0.000351605
0.00219944 -0.000361354 -2.36372e-06
-0.000361354 0.000285645 -7.28067e-07
-2.36372e-06 -7.28067e-07 0.000118405
0.00203698 -0.000461176 -4.03339e-06
-0.000461176 0.000294012 6.22743e-07
-4.03339e-06 6.22743e-07 4.1572e-05
0.00199026 -0.000560192 -7.49821e-06
-0.000560192 0.000375738 -5.36376e-07
-7.49821e-06 -5.36376e-07 4.40403e-05
0.0021294 -0.000575347 -8.06659e-07
-0.000575347 0.000305576 -2.82085e-06
-8.06659e-07 -2.82085e-06 3.66049e-05
0.000442367 -0.000197297 -2.27981e-05
-0.000197297 -8.71664e-05 2.04842e-05
-2.27981e-05 2.04842e-05 -0.000208753
0.000527754 -0.000221849 2.9738e-07
-0.000221849 2.05077e-05 1.71311e-06
2.9738e-07 1.71311e-06 -0.000238869
0.00113115 -3.40741e-05 5.24024e-07
-3.40741e-05 -4.44329e-05 3.37437e-08
5.24024e-07 3.37437e-08 -0.000169033
0.00198198 -0.000133832 -1.07583e-05
-0.000133832 0.00048107 1.435e-06
-1.07583e-05 1.435e-06 0.000349604
0.00188598 -0.000133368 1.29314e-06
-0.000133368 3.5259e-05 -2.14451e-07
1.29314e-06 -2.14451e-07 -6.46593e-05
0.00198342 -0.000283162 -2.45586e-06
-0.000283162 0.000117832 8.77968e-07
-2.45586e-06 8.77968e-07 -2.55606e-05
0.000404859 -0.000210394 5.04072e-07
-0.000210394 -0.000123406 4.89507e-07
5.04072e-07 4.89507e-07 -0.000258602
0.000764552 -0.000302806 -1.42354e-06
-0.000302806 -1.28852e-05 3.65559e-07
-1.42354e-06 3.65559e-07 -0.000283078
0.00167144 -0.000593585 2.18356e-06
-0.000593585 0.000271103 -2.46166e-07
2.18356e-06 -2.46166e-07 -0.0001179
0.00195335 -0.000409654 -2.67233e-06
-0.000409654 0.000183033 8.22613e-07
-2.67233e-06 8.22613e-07 -3.15456e-05
0.00213305 -0.000393668 2.17068e-06
-0.000393668 0.000148744 -7.15527e-07
2.17068e-06 -7.15527e-07 1.71746e-05
0.00233528 -0.000646588 -4.22999e-07
-0.000646588 0.000492422 -1.03844e-06
-4.22999e-07 -1.03844e-06 0.000163652
0.00209171 -0.000523762 5.06356e-07
-0.000523762 0.000219785 9.27237e-08
5.06356e-07 9.27237e-08 -6.10885e-07
0.0021585 -0.000601441 6.9322e-07
-0.000601441 0.000277232 9.48182e-07
6.9322e-07 9.48182e-07 3.41134e-05
0.000591474 -0.000215709 -6.41919e-09
-0.000215709 3.17341e-05 -7.76798e-07
-6.41919e-09 -7.76798e-07 -0.000240517
0.000814316 -0.000236571 2.61404e-07
-0.000236571 0.000157423 8.57167e-08
2.61404e-07 8.57167e-08 -0.000134676
0.000710296 -0.000166749 1.42049e-06
-0.000166749 0.000169168 4.26252e-07
1.42049e-06 4.26252e-07 -7.12783e-05
0.00183352 -6.32551e-05 2.71124e-06
-6.32551e-05 7.21327e-06 -2.49803e-07
2.71124e-06 -2.49803e-07 -8.73133e-05
0.00198197 -0.000203561 2.65041e-07
-0.000203561 9.54376e-05 5.38894e-07
2.65041e-07 5.38894e-07 -1.82955e-05
0.00201467 -0.00014288 8.0797e-06
-0.00014288 -3.61604e-07 -6.01382e-07
8.0797e-06 -6.01382e-07 -5.0553e-05
0.00214124 -0.000323986 2.74152e-06
-0.000323986 0.000107205 -1.2754e-06
2.74152e-06 -1.2754e-06 1.64597e-05
0.00202784 -0.00046697 1.05381e-06
-0.00046697 0.000125774 1.41035e-06
1.05381e-06 1.41035e-06 -4.71801e-05
0.00219341 -0.000411181 4.28364e-06
-0.000411181 0.000118052 -1.05912e-06
4.28364e-06 -1.05912e-06 3.65374e-05
0.0006439 -0.000252915 8.81875e-06
-0.000252915 7.37779e-06 -7.5341e-06
8.81875e-06 -7.5341e-06 -0.000250389
0.0020964 -0.000556635 1.09757e-06
-0.000556635 0.00017318 3.27319e-07
1.09757e-06 3.27319e-07 -2.15132e-05
0.00150768 -0.000566086 1.35372e-05
-0.000566086 0.000327128 -3.11494e-06
1.35372e-05 -3.11494e-06 -8.02349e-05
0.00203504 -0.000733749 8.01004e-06
-0.000733749 0.000391866 4.03245e-06
8.01004e-06 4.03245e-06 -2.96145e-05
0.00239287 -0.000672562 6.04656e-06
-0.000672562 0.000493433 3.55001e-06
6.04656e-06 3.55001e-06 0.000182954
0.00240098 -0.000635782 7.81119e-07
-0.000635782 0.000441257 1.40597e-06
7.81119e-07 1.40597e-06 0.000204534
0.000363054 -0.000133601 -3.65908e-08
-0.000133601 -1.74945e-05 -4.83308e-06
-3.65908e-08 -4.83308e-06 -0.000235385
0.00160317 -0.000380291 -1.01034e-07
-0.000380291 0.000582272 -4.67334e-06
-1.01034e-07 -4.67334e-06 0.000272689
8.24337e-05 -0.000189043 -9.46897e-07
-0.000189043 -0.000182283 3.94148e-06
-9.46897e-07 3.94148e-06 -0.000511609
0.00183596 -0.000457683 -3.8034e-06
-0.000457683 0.000778265 5.16509e-07
-3.8034e-06 5.16509e-07 0.000414736
0.00125118 0.000258475 -1.24965e-05
0.000258475 -2.10276e-05 -4.76879e-06
-1.24965e-05 -4.76879e-06 -0.000224062
0.000257595 -4.26008e-06 -1.63071e-06
-4.26008e-06 -0.000127603 -1.51983e-05
-1.63071e-06 -1.51983e-05 -0.000199212
0.000451241 0.000125513 -2.37752e-05
0.000125513 -6.70312e-05 -1.52825e-05
-2.37752e-05 -1.52825e-05 -0.000164618
2.18936e-05 0.000129588 -4.32256e-06
0.000129588 -0.000280948 -6.05331e-07
-4.32256e-06 -6.05331e-07 -0.000501691
0.00116792 0.000325264 -2.15041e-05
0.000325264 1.36592e-05 -8.39196e-06
-2.15041e-05 -8.39196e-06 -0.000229358
0.00199541 0.00048305 -4.37076e-06
0.00048305 0.000231802 4.24531e-07
-4.37076e-06 4.24531e-07 -2.38886e-05
0.00049565 0.000216 -7.28571e-06
0.000216 -8.66298e-05 -3.61209e-06
-7.28571e-06 -3.61209e-06 -0.000314111
0.00147027 0.000534735 -6.56639e-06
0.000534735 0.00029636 4.12143e-07
-6.56639e-06 4.12143e-07 -8.67019e-05
0.00199617 0.000575682 -6.02762e-06
0.000575682 0.000395944 1.24793e-06
-6.02762e-06 1.24793e-06 6.38607e-05
0.00163156 0.000629438 4.98124e-06
0.000629438 0.000145811 9.35733e-06
4.98124e-06 9.35733e-06 -0.000213625
0.000430238 -1.17951e-05 -3.80242e-06
-1.17951e-05 -2.08525e-05 9.88675e-07
-3.80242e-06 9.88675e-07 -7.79885e-05
0.000625168 0.000218975 -1.01794e-06
0.000218975 7.33489e-05 -8.3773e-07
-1.01794e-06 -8.3773e-07 -0.000172566
0.000647422 0.000109325 1.75659e-06
0.000109325 0.000112904 -8.98036e-07
1.75659e-06 -8.98036e-07 -6.18309e-05
0.000796146 0.000217451 -1.79799e-06
0.000217451 0.000181021 1.22845e-06
-1.79799e-06 1.22845e-06 -7.96176e-05
0.00205876 0.00042703 -1.62684e-06
0.00042703 0.000210428 -1.24859e-06
-1.62684e-06 -1.24859e-06 -3.45585e-06
0.00195646 0.000535796 -5.98677e-07
0.000535796 0.000286093 -2.64648e-07
-5.98677e-07 -2.64648e-07 -1.14764e-05
0.00214354 0.000548328 1.77505e-07
0.000548328 0.000245786 2.01131e-07
1.77505e-07 2.01131e-07 7.9598e-06
0.00129487 0.000430221 3.42947e-06
0.000430221 0.000315005 -5.81853e-08
3.42947e-06 -5.81853e-08 -2.26243e-05
0.00227321 0.000672296 8.29509e-07
0.000672296 0.000483356 6.78127e-07
8.29509e-07 6.78127e-07 0.000152088
0.00179009 0.000674002 -9.23152e-07
0.000674002 0.000402582 -2.03876e-06
-9.23152e-07 -2.03876e-06 -3.47073e-05
0.00207528 0.000655863 -5.61947e-06
0.000655863 0.00034463 2.34901e-06
-5.61947e-06 2.34901e-06 9.26367e-06
0.000517537 -5.08384e-06 2.82501e-06
-5.08384e-06 2.13694e-05 1.04677e-05
2.82501e-06 1.04677e-05 -2.31454e-05
0.00103294 8.59908e-05 6.96185e-07
8.59908e-05 0.000370438 7.69072e-06
6.96185e-07 7.69072e-06 0.000221907
0.000679715 0.000270071 -3.73722e-06
0.000270071 9.52472e-06 1.64014e-06
-3.73722e-06 1.64014e-06 -0.000256432
0.00141866 0.000200633 2.61309e-06
0.000200633 0.000665925 -2.89972e-06
2.61309e-06 -2.89972e-06 0.000378062
0.000970127 0.000262157 -2.53625e-06
0.000262157 0.000237022 7.51222e-06
-2.53625e-06 7.51222e-06 -6.64288e-06
0.002197 0.000485721 4.93828e-07
0.000485721 0.000205015 -3.01479e-06
4.93828e-07 -3.01479e-06 1.47567e-05
0.00214939 0.000618648 -1.58593e-06
0.000618648 0.000319453 -1.93632e-06
-1.58593e-06 -1.93632e-06 3.04209e-05
0.00215428 0.000599636 -3.12873e-06
0.000599636 0.000234914 -1.48461e-06
-3.12873e-06 -1.48461e-06 -1.23932e-06
0.00170625 0.000651523 1.94682e-06
0.000651523 0.00055051 -2.83424e-06
1.94682e-06 -2.83424e-06 9.46045e-05
0.002457 0.000732441 -4.76212e-06
0.000732441 0.000531566 -2.74837e-06
-4.76212e-06 -2.74837e-06 0.000203331
0.00174991 0.000716595 6.8805e-06
0.000716595 0.000305444 -5.15344e-06
6.8805e-06 -5.15344e-06 -0.000119281
0.000530782 6.0856e-05 9.16409e-07
6.0856e-05 5.20867e-05 6.06382e-06
9.16409e-07 6.06382e-06 -4.90616e-05
0.000711463 0.000130664 -1.40755e-06
0.000130664 0.000228232 2.62078e-06
-1.40755e-06 2.62078e-06 6.88977e-05
0.000602423 6.66594e-05 8.91759e-07
6.66594e-05 0.000108706 5.01318e-06
8.91759e-07 5.01318e-06 2.38168e-05
0.000520897 2.02128e-05 -7.21496e-07
2.02128e-05 5.41336e-05 -3.5955e-08
-7.21496e-07 -3.5955e-08 -3.83132e-05
0.00145108 -2.41123e-05 1.76463e-06
-2.41123e-05 0.000615115 5.329e-06
1.76463e-06 5.329e-06 0.000585839
0.000942753 -1.4457e-05 1.9623e-07
-1.4457e-05 0.000290794 -9.78847e-08
1.9623e-07 -9.78847e-08 0.000255207
0.000878541 -4.31195e-05 4.38802e-05
-4.31195e-05 0.000249285 1.08681e-05
4.38802e-05 1.08681e-05 0.000244942
0.00319188 -0.000132639 9.55341e-06
-0.000132639 0.00174721 -9.07253e-07
9.55341e-06 -9.07253e-07 0.00174228
0.00346138 -0.00016196 -5.64815e-05
-0.00016196 0.00193333 -5.12269e-06
-5.64815e-05 -5.12269e-06 0.00192027
0.000246772 -9.00998e-05 1.30194e-05
-9.00998e-05 -0.000136436 -1.35374e-05
1.30194e-05 -1.35374e-05 -0.000206958
0.00489497 0.000183647 0.000118973
0.000183647 0.00288232 -1.50482e-05
0.000118973 -1.50482e-05 0.0028558
0.000508015 -0.000138043 6.18537e-08
-0.000138043 4.26822e-06 9.01677e-07
6.18537e-08 9.01677e-07 -9.07566e-05
0.00579243 0.000130157 -1.99804e-06
0.000130157 0.00344135 7.53236e-07
-1.99804e-06 7.53236e-07 0.00342576
0.000470119 -0.000166091 -2.23251e-05
-0.000166091 -5.22887e-05 1.79088e-05
-2.23251e-05 1.79088e-05 -0.000160189
0.00658039 9.58089e-05 -0.000244221
9.58089e-05 0.00391946 2.81583e-05
-0.000244221 2.81583e-05 0.00391089
0.00123501 0.000210731 -8.51939e-06
0.000210731 -4.66351e-05 -2.98814e-06
-8.51939e-06 -2.98814e-06 -0.000228092
0.0011732 0.000125364 -9.24636e-06
0.000125364 -6.52183e-05 -8.27344e-07
-9.24636e-06 -8.27344e-07 -0.000213604
0.00201969 0.000272692 -1.67545e-06
0.000272692 0.000110464 1.2124e-06
-1.67545e-06 1.2124e-06 -2.50248e-05
0.00194997 0.000121551 -1.55506e-06
0.000121551 6.47288e-05 5.88972e-07
-1.55506e-06 5.88972e-07 -2.46692e-05
0.00105032 4.37415e-05 -1.04377e-05
4.37415e-05 -0.000102608 7.85899e-09
-1.04377e-05 7.85899e-09 -0.000232912
0.000336762 2.87314e-05 -1.84826e-05
2.87314e-05 -0.000243505 -8.34212e-07
-1.84826e-05 -8.34212e-07 -0.000323962
0.00104826 -2.65307e-07 -4.79474e-08
-2.65307e-07 -9.53682e-05 -1.83662e-08
-4.79474e-08 -1.83662e-08 -0.000222987
0.00194699 6.26669e-05 -9.66552e-09
6.26669e-05 6.57938e-05 1.29215e-07
-9.66552e-09 1.29215e-07 -1.66798e-05
0.00201892 0.000193489 -1.55324e-07
0.000193489 9.63547e-05 2.47535e-07
-1.55324e-07 2.47535e-07 -9.98224e-06
0.0021698 0.000148644 -3.12508e-07
0.000148644 6.88813e-05 1.00502e-07
-3.12508e-07 1.00502e-07 3.88435e-05
0.00207524 0.000358431 -6.67139e-07
0.000358431 0.000173106 -9.53798e-08
-6.67139e-07 -9.53798e-08 -2.00777e-07
0.00212735 0.00030776 -9.42827e-08
0.00030776 8.64838e-05 4.61832e-07
-9.42827e-08 4.61832e-07 -5.56064e-06
0.00194882 -7.46762e-07 2.81055e-06
-7.46762e-07 7.48671e-05 3.5249e-08
2.81055e-06 3.5249e-08 -6.45681e-06
0.00213882 7.20208e-05 4.50451e-06
7.20208e-05 5.67729e-05 3.51445e-07
4.50451e-06 3.51445e-07 3.2847e-05
0.00212863 0.000222273 5.0547e-06
0.000222273 6.07406e-05 1.11401e-06
5.0547e-06 1.11401e-06 9.70479e-06
0.00207313 0.000131408 4.60089e-06
0.000131408 -2.16114e-06 8.54172e-07
4.60089e-06 8.54172e-07 -8.9742e-06
0.00215692 0.000404258 2.34363e-06
0.000404258 0.000138957 -2.45642e-07
2.34363e-06 -2.45642e-07 -2.69822e-06
0.0021867 0.000324615 2.56414e-06
0.000324615 1.81547e-05 5.42797e-07
2.56414e-06 5.42797e-07 -8.57791e-06
0.001161 -3.01776e-05 -1.14226e-05
-3.01776e-05 -2.59489e-05 6.04944e-07
-1.14226e-05 6.04944e-07 -0.000146065
0.00198687 -0.000134059 -2.8214e-05
-0.000134059 0.000481686 2.79068e-06
-2.8214e-05 2.79068e-06 0.000350569
0.00198774 -0.000129907 -1.82213e-06
-0.000129907 9.90798e-05 -4.14457e-07
-1.82213e-06 -4.14457e-07 4.61686e-06
0.0018851 -0.000280425 -2.09638e-06
-0.000280425 5.52615e-05 4.97377e-07
-2.09638e-06 4.97377e-07 -9.78885e-05
0.000524946 -0.000242319 -2.63962e-05
-0.000242319 -4.68152e-05 2.30333e-05
-2.63962e-05 2.30333e-05 -0.000183235
0.000740967 -0.000309959 -1.3959e-05
-0.000309959 -3.24344e-05 9.14298e-06
-1.3959e-05 9.14298e-06 -0.000307429
0.00166253 -0.000594548 -1.15199e-05
-0.000594548 0.000264285 1.35411e-06
-1.15199e-05 1.35411e-06 -0.000127586
0.00200595 -0.000410166 -4.73295e-06
-0.000410166 0.000222772 9.81027e-07
-4.73295e-06 9.81027e-07 5.26591e-06
0.00211784 -0.00039411 -9.66952e-07
-0.00039411 0.000131444 -2.06567e-08
-9.66952e-07 -2.06567e-08 6.70622e-06
0.00213271 -0.000527195 -2.06282e-06
-0.000527195 0.000246245 -1.35133e-06
-2.06282e-06 -1.35133e-06 2.48614e-05
0.00234808 -0.000650476 -1.70411e-06
-0.000650476 0.000497176 -5.59893e-06
-1.70411e-06 -5.59893e-06 0.000171282
0.00197111 -0.000589033 4.44609e-07
-0.000589033 0.00015136 -1.52554e-06
4.44609e-07 -1.52554e-06 -9.13334e-05
0.0010846 -0.000265146 -7.03252e-06
-0.000265146 0.000339002 5.36219e-06
-7.03252e-06 5.36219e-06 6.48875e-05
0.000404953 -0.000182287 2.9559e-06
-0.000182287 -0.000108626 1.74205e-06
2.9559e-06 1.74205e-06 -0.000392766
0.000454355 -0.000199924 2.20883e-07
-0.000199924 1.14918e-05 1.67955e-06
2.20883e-07 1.67955e-06 -0.000230562
0.00189719 -5.99251e-05 1.5584e-06
-5.99251e-05 4.60346e-05 -1.4803e-07
1.5584e-06 -1.4803e-07 -4.34259e-05
0.00197084 -0.000211274 -9.54146e-07
-0.000211274 8.91406e-05 -1.54034e-07
-9.54146e-07 -1.54034e-07 -2.49396e-05
0.0020943 -0.000141744 1.66027e-06
-0.000141744 4.53587e-05 -2.07486e-07
1.66027e-06 -2.07486e-07 2.2023e-06
0.0020654 -0.000311316 -1.33532e-06
-0.000311316 6.42315e-05 3.91383e-07
-1.33532e-06 3.91383e-07 -2.93412e-05
0.000740227 -0.000271122 1.01483e-06
-0.000271122 6.64078e-05 -6.12637e-07
1.01483e-06 -6.12637e-07 -0.000199363
0.00159751 -0.000580246 -6.13173e-07
-0.000580246 0.000382353 -5.97909e-07
-6.13173e-07 -5.97909e-07 -2.80311e-05
0.00192331 -0.000721263 9.22585e-07
-0.000721263 0.000333875 1.11257e-06
9.22585e-07 1.11257e-06 -8.99917e-05
0.00199195 -0.000462038 -6.87244e-07
-0.000462038 0.00010898 8.77988e-07
-6.87244e-07 8.77988e-07 -7.01838e-05
0.00216482 -0.000415191 2.75543e-07
-0.000415191 8.67809e-05 -1.42103e-07
2.75543e-07 -1.42103e-07 1.06149e-05
0.00223027 -0.000665093 -4.54643e-07
-0.000665093 0.00037527 3.52684e-07
-4.54643e-07 3.52684e-07 6.46326e-05
0.0020765 -0.000553944 -5.91368e-07
-0.000553944 0.000157789 7.87411e-07
-5.91368e-07 7.87411e-07 -3.68386e-05
0.00228282 -0.000617089 9.12536e-07
-0.000617089 0.000358983 -3.62516e-07
9.12536e-07 -3.62516e-07 0.000128792
0.000959711 -0.000342315 -2.05298e-06
-0.000342315 0.000195772 4.03108e-07
-2.05298e-06 4.03108e-07 -0.000121499
0.00105313 -0.000368775 -1.02328e-06
-0.000368775 0.000276352 1.95636e-06
-1.02328e-06 1.95636e-06 -7.25024e-05
0.000757683 -0.000152671 -7.72928e-07
-0.000152671 0.000223911 -1.30054e-06
-7.72928e-07 -1.30054e-06 6.85001e-06
0.000107206 -0.00015471 2.78639e-06
-0.00015471 -0.000213391 1.00264e-07
2.78639e-06 1.00264e-07 -0.000508309
0.00213554 -7.64733e-05 7.33278e-06
-7.64733e-05 7.91149e-05 -2.99872e-07
7.33278e-06 -2.99872e-07 4.45795e-05
0.0020116 -0.000225535 4.7618e-06
-0.000225535 -1.77306e-05 -8.68968e-07
4.7618e-06 -8.68968e-07 -8.20909e-05
0.0020702 -0.000132001 6.19107e-06
-0.000132001 3.19209e-05 -6.66974e-07
6.19107e-06 -6.66974e-07 2.78927e-05
0.00216685 -0.000335938 9.68713e-07
-0.000335938 3.63883e-05 -3.52821e-07
9.68713e-07 -3.52821e-07 1.15243e-05
0.00211853 -0.000497608 4.71445e-07
-0.000497608 0.000120571 -3.8971e-07
4.71445e-07 -3.8971e-07 -1.8089e-05
0.00222757 -0.000438092 3.47883e-06
-0.000438092 7.51365e-05 -8.60556e-07
3.47883e-06 -8.60556e-07 1.58669e-05
0.00138188 -0.000481584 7.42443e-06
-0.000481584 0.000390518 -4.35611e-06
7.42443e-06 -4.35611e-06 1.25891e-05
0.00209786 -0.000592134 -1.86773e-06
-0.000592134 0.000135351 2.78584e-07
-1.86773e-06 2.78584e-07 -3.29726e-05
0.00177123 -0.000751728 -5.78316e-06
-0.000751728 0.000414176 6.03139e-06
-5.78316e-06 6.03139e-06 -6.91206e-05
0.00220916 -0.000788618 5.89133e-06
-0.000788618 0.000459236 3.45985e-06
5.89133e-06 3.45985e-06 3.27347e-05
0.00219117 -0.000672266 6.24965e-06
-0.000672266 0.000319334 3.07031e-06
6.24965e-06 3.07031e-06 1.79224e-05
0.00225463 -0.00065173 -5.87279e-06
-0.00065173 0.000298483 -2.14157e-06
-5.87279e-06 -2.14157e-06 5.79589e-05
0.000478948 -0.0001443 -1.20824e-06
-0.0001443 3.74384e-05 -7.12059e-06
-1.20824e-06 -7.12059e-06 -0.000129861
0.000334519 -0.000143705 -4.32801e-07
-0.000143705 1.63265e-05 3.50377e-07
-4.32801e-07 3.50377e-07 -0.000328239
0.00127928 -0.000495616 1.71037e-06
-0.000495616 0.000367925 -2.76027e-06
1.71037e-06 -2.76027e-06 -3.3681e-05
0.00144583 -0.00034476 4.08675e-06
-0.00034476 0.000590832 2.74161e-06
4.08675e-06 2.74161e-06 0.000267453
0.00133428 -0.000467455 -1.10464e-05
-0.000467455 0.000470159 6.52651e-06
-1.10464e-05 6.52651e-06 4.84469e-05
0.000228382 -1.84678e-05 -2.77549e-06
-1.84678e-05 -0.000145985 -1.18582e-05
-2.77549e-06 -1.18582e-05 -0.000201908
0.00203469 0.000424646 -4.74477e-06
0.000424646 0.000194892 -3.3735e-07
-4.74477e-06 -3.3735e-07 -1.88289e-05
0.000289265 6.0652e-05 -4.68984e-07
6.0652e-05 -9.66319e-05 -5.53131e-06
-4.68984e-07 -5.53131e-06 -0.000274891
0.000219977 0.000218998 -7.04273e-06
0.000218998 -0.000211939 6.48382e-07
-7.04273e-06 6.48382e-07 -0.000434473
0.000740514 0.000212366 -9.92832e-07
0.000212366 0.000124939 4.21542e-06
-9.92832e-07 4.21542e-06 -0.000121569
0.00192279 0.000533903 -4.93337e-06
0.000533903 0.000264041 3.38889e-07
-4.93337e-06 3.38889e-07 -3.38491e-05
0.00211387 0.000544326 7.34887e-07
0.000544326 0.000230792 1.96553e-06
7.34887e-07 1.96553e-06 -5.99351e-06
0.00140493 0.00046247 5.77398e-07
0.00046247 0.00040852 -2.18491e-06
5.77398e-07 -2.18491e-06 5.61658e-05
0.00167671 0.000669686 2.18424e-06
0.000669686 0.000326348 5.22641e-06
2.18424e-06 5.22641e-06 -0.000113898
0.0021384 0.00065184 3.05919e-06
0.00065184 0.000407414 4.52076e-06
3.05919e-06 4.52076e-06 7.75572e-05
0.00214035 0.000654009 7.3789e-06
0.000654009 0.000389739 1.22142e-05
7.3789e-06 1.22142e-05 6.09769e-05
0.000449717 -1.77987e-06 -7.75036e-07
-1.77987e-06 -2.02622e-05 1.68726e-07
-7.75036e-07 1.68726e-07 -6.42617e-05
0.00060415 7.37728e-05 -4.4871e-07
7.37728e-05 0.000102773 2.31302e-07
-4.4871e-07 2.31302e-07 -4.07686e-05
0.000880237 0.000307486 2.5018e-06
0.000307486 0.000151514 1.49415e-06
2.5018e-06 1.49415e-06 -0.000118675
0.00057878 0.000149443 9.53095e-07
0.000149443 0.00012097 -2.07661e-06
9.53095e-07 -2.07661e-06 -0.000154202
0.000377459 0.000190328 -6.81038e-07
0.000190328 -0.000161382 3.32846e-06
-6.81038e-07 3.32846e-06 -0.000389832
0.00217855 0.000484247 -1.96921e-06
0.000484247 0.000194552 -1.937e-06
-1.96921e-06 -1.937e-06 4.75917e-06
0.00211741 0.000614603 4.93718e-07
0.000614603 0.000302297 1.58124e-07
4.93718e-07 1.58124e-07 1.43715e-05
0.00210752 0.000596782 1.64282e-06
0.000596782 0.000208196 1.08021e-07
1.64282e-06 1.08021e-07 -2.77967e-05
0.00164044 0.00064587 1.56847e-06
0.00064587 0.000512578 -7.775e-07
1.56847e-06 -7.775e-07 5.37266e-05
0.00234708 0.000720629 2.82197e-06
0.000720629 0.000445321 5.01102e-07
2.82197e-06 5.01102e-07 0.000117266
0.00210981 0.000753564 -4.38682e-06
0.000753564 0.000540653 7.21667e-08
-4.38682e-06 7.21667e-08 0.0001113
0.000689944 7.61179e-05 1.07852e-06
7.61179e-05 0.000150229 6.51374e-06
1.07852e-06 6.51374e-06 3.42033e-05
0.00188056 0.000242894 -7.39282e-07
0.000242894 0.000982577 2.83559e-07
-7.39282e-07 2.83559e-07 0.000732908
0.00114283 0.000460584 -8.09654e-07
0.000460584 0.000320687 5.07924e-06
-8.09654e-07 5.07924e-06 -3.04897e-05
0.000995491 0.000153963 5.04917e-06
0.000153963 0.000285494 -8.10154e-07
5.04917e-06 -8.10154e-07 3.19124e-05
0.00291424 0.000470806 -2.3503e-06
0.000470806 0.00135113 6.24971e-07
-2.3503e-06 6.24971e-07 0.00105813
0.00217162 0.000511476 -3.90355e-06
0.000511476 0.000150014 -1.97244e-06
-3.90355e-06 -1.97244e-06 -2.46719e-05
0.00213378 0.000668458 -3.64755e-06
0.000668458 0.000277884 -1.41528e-06
-3.64755e-06 -1.41528e-06 -9.42411e-06
0.00209923 0.000654379 2.3746e-06
0.000654379 0.000162059 -5.73821e-07
2.3746e-06 -5.73821e-07 -8.73945e-05
0.001223 0.000675027 1.15495e-05
0.000675027 0.000276414 -4.57361e-06
1.15495e-05 -4.57361e-06 -0.000214498
0.00181396 0.000743048 1.34672e-05
0.000743048 0.00024217 -2.41765e-06
1.34672e-05 -2.41765e-06 -0.00014747
0.000575864 5.60363e-05 -2.64328e-07
5.60363e-05 8.0625e-05 1.45391e-07
-2.64328e-07 1.45391e-07 -1.93371e-05
0.000459554 0.000104221 1.43054e-06
0.000104221 2.79937e-05 2.38926e-06
1.43054e-06 2.38926e-06 -0.00011392
0.000118884 7.74989e-05 3.27047e-07
7.74989e-05 -0.00016754 -6.53552e-07
3.27047e-07 -6.53552e-07 -0.000308409
0.00140781 0.000217902 -2.18528e-06
0.000217902 0.000687111 -1.63771e-06
-2.18528e-06 -1.63771e-06 0.000501124
0.000880982 0.000148817 -5.10398e-07
0.000148817 0.000341306 2.44723e-06
-5.10398e-07 2.44723e-06 0.000191447
0.000537381 7.48065e-05 1.80592e-06
7.48065e-05 7.45213e-05 4.02454e-06
1.80592e-06 4.02454e-06 -7.0356e-06
0.000513309 2.31979e-05 -9.76993e-07
2.31979e-05 5.47807e-05 4.79743e-08
-9.76993e-07 4.79743e-08 -2.95183e-05
0.00132932 -8.4027e-06 1.62797e-06
-8.4027e-06 0.000535792 4.3963e-06
1.62797e-06 4.3963e-06 0.000512074
0.000514619 4.21361e-05 1.57903e-07
4.21361e-05 4.35533e-05 -5.77257e-06
1.57903e-07 -5.77257e-06 -4.43187e-05
0.0014098 -1.85127e-05 -1.01085e-05
-1.85127e-05 0.000587371 -1.76467e-06
-1.01085e-05 -1.76467e-06 0.000560795
0.000748358 -2.9864e-05 3.95454e-05
-2.9864e-05 0.000160067 1.03582e-05
3.95454e-05 1.03582e-05 0.000161265
0.00145966 -2.05988e-05 -1.9531e-05
-2.05988e-05 0.000623584 -7.03232e-06
-1.9531e-05 -7.03232e-06 0.000592251
0.00192624 -7.66487e-05 4.26458e-05
-7.66487e-05 0.000925196 1.3285e-06
4.26458e-05 1.3285e-06 0.00092278
0.00311431 -0.000130812 -4.73697e-05
-0.000130812 0.00169701 -5.1509e-06
-4.73697e-05 -5.1509e-06 0.00169225
0.000229915 5.68704e-05 -4.073e-06
5.68704e-05 -0.00012009 -1.02319e-05
-4.073e-06 -1.02319e-05 -0.000181012
0.000396362 -7.3265e-05 -7.88557e-07
-7.3265e-05 -3.91593e-05 4.81821e-07
-7.88557e-07 4.81821e-07 -0.000116822
0.00402372 0.000200036 2.37745e-05
0.000200036 0.00231082 -8.22366e-06
2.37745e-05 -8.22366e-06 0.00228185
0.00503379 0.000139182 -1.63016e-05
0.000139182 0.00296279 -1.73052e-06
-1.63016e-05 -1.73052e-06 0.00294627
0.000506337 -0.000142094 -2.04501e-05
-0.000142094 -6.18801e-07 1.53645e-05
-2.04501e-05 1.53645e-05 -9.91632e-05
0.00594705 0.000135188 -0.000204987
0.000135188 0.00355106 2.89913e-05
-0.000204987 2.89913e-05 0.00352958
0.00203794 0.00035497 -2.66963e-06
0.00035497 0.00015002 1.08332e-06
-2.66963e-06 1.08332e-06 -2.27972e-05
0.00195718 0.000191007 -9.85504e-07
0.000191007 6.32167e-05 1.1035e-06
-9.85504e-07 1.1035e-06 -4.34117e-05
0.00216224 0.000312447 -3.64289e-06
0.000312447 0.000108655 -1.76747e-07
-3.64289e-06 -1.76747e-07 1.51622e-05
0.00217018 0.000144284 -5.00613e-06
0.000144284 5.96068e-05 -5.20246e-07
-5.00613e-06 -5.20246e-07 3.44364e-05
0.00193586 6.40293e-05 -2.55967e-06
6.40293e-05 6.10452e-05 1.94866e-07
-2.55967e-06 1.94866e-07 -2.16599e-05
0.00105593 4.41273e-06 -1.02257e-05
4.41273e-06 -9.03005e-05 1.20337e-07
-1.02257e-05 1.20337e-07 -0.00021783
0.00193694 1.91459e-06 9.39787e-08
1.91459e-06 6.72716e-05 1.23622e-07
9.39787e-08 1.23622e-07 -1.42456e-05
0.00213313 6.32691e-05 -6.83248e-07
6.32691e-05 5.67713e-05 -2.53606e-08
-6.83248e-07 -2.53606e-08 3.24749e-05
0.00216546 0.00022273 1.40684e-07
0.00022273 7.95801e-05 6.2375e-08
1.40684e-07 6.2375e-08 2.87315e-05
0.00206941 0.00013205 -3.75296e-08
0.00013205 -1.17145e-05 1.24006e-07
-3.75296e-08 1.24006e-07 -1.35165e-05
0.00216523 0.000407837 -3.37538e-07
0.000407837 0.000139032 2.13486e-07
-3.37538e-07 2.13486e-07 -3.64361e-06
0.00215987 0.000315301 2.65993e-08
0.000315301 5.02451e-07 1.91155e-08
2.65993e-08 1.91155e-08 -2.56469e-05
0.00211278 -6.35926e-06 5.60931e-06
-6.35926e-06 5.21508e-05 9.33248e-08
5.60931e-06 9.33248e-08 2.56224e-05
0.00208743 5.67639e-05 4.07221e-06
5.67639e-05 1.26833e-05 1.83996e-07
4.07221e-06 1.83996e-07 2.40127e-05
0.00212309 0.000208446 1.07509e-06
0.000208446 -2.84813e-06 7.5541e-08
1.07509e-06 7.5541e-08 -1.13636e-05
0.00217379 0.000137095 -1.99238e-07
0.000137095 -1.49192e-05 4.40392e-07
-1.99238e-07 4.40392e-07 1.47695e-05
0.00214939 0.000408095 1.03688e-06
0.000408095 5.28638e-05 2.49117e-07
1.03688e-06 2.49117e-07 -4.09999e-05
0.00233683 0.000318952 9.98064e-07
0.000318952 3.28707e-05 1.54088e-08
9.98064e-07 1.54088e-08 3.89734e-05
0.00196168 -5.66051e-05 -1.99566e-06
-5.66051e-05 8.60074e-05 -6.28766e-08
-1.99566e-06 -6.28766e-08 1.65592e-06
0.00199553 -0.000218523 -2.09204e-06
-0.000218523 0.000105175 -5.07886e-07
-2.09204e-06 -5.07886e-07 -8.87773e-06
0.00214173 -0.000140491 -4.01914e-06
-0.000140491 6.97834e-05 7.74321e-08
-4.01914e-06 7.74321e-08 3.3394e-05
0.00199701 -0.000299525 -4.35714e-06
-0.000299525 2.751e-05 9.24851e-07
-4.35714e-06 9.24851e-07 -6.88539e-05
0.00073024 -0.000276063 -1.17886e-05
-0.000276063 5.60036e-05 9.04614e-06
-1.17886e-05 9.04614e-06 -0.000213941
0.00155249 -0.000572996 -1.39883e-05
-0.000572996 0.000363291 2.06384e-06
-1.39883e-05 2.06384e-06 -4.37902e-05
0.0017246 -0.000697541 7.64733e-07
-0.000697541 0.000227619 -3.21206e-06
7.64733e-07 -3.21206e-06 -0.0001964
0.00196059 -0.000457461 -3.24002e-06
-0.000457461 9.54486e-05 4.1692e-07
-3.24002e-06 4.1692e-07 -9.01211e-05
0.00213801 -0.000418911 -2.23944e-06
-0.000418911 5.75295e-05 5.67412e-07
-2.23944e-06 5.67412e-07 -1.37298e-05
0.00204453 -0.000549708 -1.13693e-06
-0.000549708 0.000135308 7.03777e-07
-1.13693e-06 7.03777e-07 -5.8834e-05
0.00210343 -0.000667029 -4.19218e-06
-0.000667029 0.000280467 -3.56492e-06
-4.19218e-06 -3.56492e-06 -3.35404e-05
0.00216771 -0.00060527 3.57828e-06
-0.00060527 0.000279833 -3.03854e-06
3.57828e-06 -3.03854e-06 5.38952e-05
0.00075405 -0.000327557 -4.13045e-07
-0.000327557 7.81372e-05 1.86787e-06
-4.13045e-07 1.86787e-06 -0.000245947
0.000955829 -0.000336062 1.3547e-06
-0.000336062 0.000188648 3.38435e-06
1.3547e-06 3.38435e-06 -0.000147263
0.000896144 -0.000167563 -1.49984e-06
-0.000167563 0.000301421 4.32518e-06
-1.49984e-06 4.32518e-06 8.56773e-05
-0.000321271 -0.000129147 6.82827e-07
-0.000129147 -0.000519787 -4.81856e-06
6.82827e-07 -4.81856e-06 -0.000787467
0.00213802 -7.65412e-05 -1.83417e-07
-7.65412e-05 8.05278e-05 5.76005e-08
-1.83417e-07 5.76005e-08 4.59467e-05
0.00205651 -0.000228858 2.44994e-06
-0.000228858 1.71763e-05 -6.22509e-07
2.44994e-06 -6.22509e-07 -4.83179e-05
0.00204557 -0.000130933 7.54531e-07
-0.000130933 9.93862e-06 -2.40682e-07
7.54531e-07 -2.40682e-07 7.68549e-06
0.0021452 -0.000334397 -5.08757e-07
-0.000334397 3.07936e-05 6.29702e-08
-5.08757e-07 6.29702e-08 -8.95056e-07
0.00136986 -0.000459533 -3.02019e-06
-0.000459533 0.000365206 2.5785e-07
-3.02019e-06 2.5785e-07 -2.80594e-07
0.00169244 -0.000735195 1.77312e-06
-0.000735195 0.000377516 1.86374e-08
1.77312e-06 1.86374e-08 -0.000102368
0.00213728 -0.000796811 -7.43715e-07
-0.000796811 0.000410907 5.3518e-07
-7.43715e-07 5.3518e-07 -2.29096e-05
0.00209409 -0.000491457 -1.17487e-06
-0.000491457 0.000112768 3.88544e-07
-1.17487e-06 3.88544e-07 -3.04875e-05
0.00218418 -0.000435981 1.019e-06
-0.000435981 4.9007e-05 -3.61516e-07
1.019e-06 -3.61516e-07 -5.46765e-06
0.00220263 -0.000677974 -6.08667e-07
-0.000677974 0.00034541 5.76949e-07
-6.08667e-07 5.76949e-07 4.17831e-05
0.00211201 -0.000595064 -1.02998e-06
-0.000595064 0.000134697 7.94573e-07
-1.02998e-06 7.94573e-07 -3.39283e-05
0.00219464 -0.000648212 4.65155e-06
-0.000648212 0.00025146 -3.91571e-06
4.65155e-06 -3.91571e-06 1.64146e-05
0.00147514 -0.000520769 -7.4697e-07
-0.000520769 0.000500593 -1.58449e-06
-7.4697e-07 -1.58449e-06 9.24093e-05
0.00136804 -0.000473121 1.1524e-06
-0.000473121 0.000482253 2.09327e-06
1.1524e-06 2.09327e-06 6.86814e-05
0.00101449 -0.000284464 1.22948e-06
-0.000284464 0.000310772 -3.09911e-06
1.22948e-06 -3.09911e-06 -6.45583e-06
0.000201173 -0.000110874 -2.77224e-06
-0.000110874 -0.000138559 1.07686e-06
-2.77224e-06 1.07686e-06 -0.0003073
6.265e-05 -0.000143405 -1.50278e-06
-0.000143405 -0.000169193 -1.3232e-06
-1.50278e-06 -1.3232e-06 -0.000498271
0.00204364 -7.66637e-05 3.2145e-06
-7.66637e-05 -9.63742e-06 -2.29817e-07
3.2145e-06 -2.29817e-07 8.27683e-07
0.00209751 -0.00020143 2.08519e-06
-0.00020143 -8.25062e-06 -2.56596e-07
2.08519e-06 -2.56596e-07 -8.36861e-06
0.00223202 -0.000400096 -4.5696e-08
-0.000400096 -1.49354e-05 1.12014e-07
-4.5696e-08 1.12014e-07 -1.83255e-05
0.00219954 -0.00051837 1.19691e-06
-0.00051837 7.89906e-05 -8.21421e-07
1.19691e-06 -8.21421e-07 1.94595e-06
0.00147625 -0.000627715 -3.12324e-06
-0.000627715 0.000412559 1.8597e-06
-3.12324e-06 1.8597e-06 -4.88205e-05
0.00237659 -0.000715541 -9.07699e-06
-0.000715541 0.000200407 -4.75363e-06
-9.07699e-06 -4.75363e-06 2.60976e-06
0.00147615 -0.000801567 -1.98836e-05
-0.000801567 0.000238803 7.62886e-06
-1.98836e-05 7.62886e-06 -0.000271945
0.00231782 -0.000865047 1.14413e-06
-0.000865047 0.00048863 1.88577e-06
1.14413e-06 1.88577e-06 4.21155e-05
0.00204916 -0.000654749 -8.4876e-06
-0.000654749 0.000240334 2.10343e-07
-8.4876e-06 2.10343e-07 -4.72261e-05
6.92444e-05 -3.667e-05 -2.27712e-06
-3.667e-05 -0.000206983 -6.53099e-06
-2.27712e-06 -6.53099e-06 -0.000335145
0.00115457 -0.000200972 -3.86726e-06
-0.000200972 0.000574084 -5.07008e-07
-3.86726e-06 -5.07008e-07 0.000258242
0.00183611 -0.000259164 -1.06792e-06
-0.000259164 0.000910983 -2.40135e-06
-1.06792e-06 -2.40135e-06 0.000579051
0.00215849 -0.000665425 -1.23118e-05
-0.000665425 0.000922436 2.05799e-06
-1.23118e-05 2.05799e-06 0.000449685
0.00154745 -0.000388216 4.28468e-06
-0.000388216 0.000589724 4.82798e-06
4.28468e-06 4.82798e-06 0.000225643
0.00115603 -0.000499648 -1.12586e-05
-0.000499648 0.000330854 1.3258e-05
-1.12586e-05 1.3258e-05 -0.000109606
0.000371862 9.00641e-07 -3.11985e-06
9.00641e-07 -6.89805e-05 -9.98491e-06
-3.11985e-06 -9.98491e-06 -0.0001123
0.000305621 5.88654e-05 -7.60956e-07
5.88654e-05 -8.26775e-05 -7.60315e-06
-7.60956e-07 -7.60315e-06 -0.000220416
0.00216297 0.000482861 -3.55774e-06
0.000482861 0.000186473 -6.32138e-07
-3.55774e-06 -6.32138e-07 -2.88707e-06
-0.000114721 5.56236e-05 6.72313e-08
5.56236e-05 -0.000325296 7.17486e-07
6.72313e-08 7.17486e-07 -0.000591442
0.00164236 0.000358182 4.9963e-06
0.000358182 0.000635418 -1.21031e-06
4.9963e-06 -1.21031e-06 0.000368598
0.000234067 0.000163169 -4.11565e-06
0.000163169 -0.000271971 -1.03613e-06
-4.11565e-06 -1.03613e-06 -0.00049767
0.00209189 0.000610734 2.53143e-06
0.000610734 0.000290134 2.1754e-06
2.53143e-06 2.1754e-06 3.37189e-06
0.00206894 0.000594585 3.1542e-06
0.000594585 0.000186056 9.77638e-07
3.1542e-06 9.77638e-07 -4.98593e-05
0.00152766 0.000629858 1.86244e-06
0.000629858 0.000448702 2.25849e-06
1.86244e-06 2.25849e-06 -9.52481e-06
0.00239713 0.000774799 -5.488e-06
0.000774799 0.000734783 5.00423e-06
-5.488e-06 5.00423e-06 0.000307677
0.00222751 0.000709563 3.21636e-06
0.000709563 0.000351281 3.53024e-06
3.21636e-06 3.53024e-06 2.29478e-05
0.000603759 6.91568e-05 2.24244e-07
6.91568e-05 9.74724e-05 5.10567e-07
2.24244e-07 5.10567e-07 -1.62239e-05
0.00071814 0.000111011 -1.12451e-06
0.000111011 0.00023946 -1.145e-07
-1.12451e-06 -1.145e-07 6.35763e-06
0.00115001 0.000469253 3.66084e-07
0.000469253 0.000302441 1.55859e-06
3.66084e-07 1.55859e-06 -5.52079e-05
0.000685431 0.000105038 1.0467e-07
0.000105038 8.74233e-05 -6.37609e-07
1.0467e-07 -6.37609e-07 -0.00016139
0.00104714 0.000293979 3.60359e-06
0.000293979 0.000148526 -3.84265e-06
3.60359e-06 -3.84265e-06 -0.000108152
0.00212016 0.000510102 -2.28215e-06
0.000510102 0.000127597 -1.29367e-06
-2.28215e-06 -1.29367e-06 -4.85878e-05
0.00218823 0.00067382 2.2411e-06
0.00067382 0.000303929 6.58945e-07
2.2411e-06 6.58945e-07 1.55384e-05
0.0021183 0.000653332 1.26692e-06
0.000653332 0.00016587 1.77948e-07
1.26692e-06 1.77948e-07 -8.22249e-05
0.00153814 0.000726719 2.20007e-06
0.000726719 0.000447938 9.16786e-07
2.20007e-06 9.16786e-07 -5.05747e-05
0.00186256 0.000751826 -1.91693e-06
0.000751826 0.000295454 -2.1443e-06
-1.91693e-06 -2.1443e-06 -0.000101192
0.00130308 0.000172441 1.04265e-06
0.000172441 0.000588402 3.03912e-06
1.04265e-06 3.03912e-06 0.000405396
-0.000306091 1.61466e-05 2.29478e-07
1.61466e-05 -0.000378019 1.96059e-07
2.29478e-07 1.96059e-07 -0.000660893
0.00147894 0.000574739 7.84589e-07
0.000574739 0.000507267 -3.67897e-06
7.84589e-07 -3.67897e-06 8.39083e-05
-6.8659e-05 0.000172264 6.65764e-06
0.000172264 -0.000547796 2.87282e-06
6.65764e-06 2.87282e-06 -0.000783193
0.00240899 0.000610693 1.5112e-06
0.000610693 0.000952647 -3.638e-06
1.5112e-06 -3.638e-06 0.000590214
0.00220548 0.000571496 -1.52763e-06
0.000571496 7.54439e-05 -5.71233e-07
-1.52763e-06 -5.71233e-07 -5.71945e-05
0.00223349 0.000735152 9.36972e-06
0.000735152 0.000288567 -2.88421e-06
9.36972e-06 -2.88421e-06 -3.42047e-05
0.00220585 0.000688321 8.58133e-06
0.000688321 0.000168558 1.19998e-06
8.58133e-06 1.19998e-06 -9.96021e-05
0.00178745 0.000778084 1.52113e-05
0.000778084 0.00054457 6.75264e-07
1.52113e-05 6.75264e-07 4.53089e-05
0.00214717 0.000869735 7.06278e-06
0.000869735 0.000492253 -2.60015e-07
7.06278e-06 -2.60015e-07 4.42382e-05
0.000572349 4.65832e-05 -6.93633e-07
4.65832e-05 7.80279e-05 -6.57458e-06
-6.93633e-07 -6.57458e-06 -2.06734e-05
0.00055277 0.000109035 9.75489e-07
0.000109035 8.9947e-05 -6.47917e-07
9.75489e-07 -6.47917e-07 -5.54006e-05
0.000226132 8.52946e-05 -9.94597e-07
8.52946e-05 -0.000117297 -1.73439e-06
-9.94597e-07 -1.73439e-06 -0.00024096
-0.000188133 -2.19282e-05 2.58514e-06
-2.19282e-05 -0.000365213 -3.533e-06
2.58514e-06 -3.533e-06 -0.000500718
0.000566 7.91065e-05 -1.10524e-06
7.91065e-05 0.000134315 3.4793e-07
-1.10524e-06 3.4793e-07 -6.40334e-06
0.000412923 0.000103055 9.244e-07
0.000103055 3.28551e-05 -2.06236e-07
9.244e-07 -2.06236e-07 -0.000120061
0.000553368 0.000151704 -1.47792e-06
0.000151704 0.000124308 -7.0211e-06
-1.47792e-06 -7.0211e-06 -2.20558e-05
0.00034831 4.40083e-05 -3.43941e-06
4.40083e-05 1.44604e-05 1.38831e-06
-3.43941e-06 1.38831e-06 -0.000150482
0.000653645 0.000107944 5.80778e-09
0.000107944 0.000174534 2.44279e-06
5.80778e-09 2.44279e-06 5.18092e-05
0.000531033 8.0862e-05 2.80887e-06
8.0862e-05 7.18223e-05 4.18645e-06
2.80887e-06 4.18645e-06 -1.0991e-05
0.000490899 2.92598e-05 -2.76461e-06
2.92598e-05 4.05723e-05 7.44804e-08
-2.76461e-06 7.44804e-08 -3.85893e-05
0.00130113 6.51149e-06 2.40223e-06
6.51149e-06 0.000521523 3.79703e-06
2.40223e-06 3.79703e-06 0.000499975
0.000351451 -7.27451e-05 4.3792e-06
-7.27451e-05 -3.93937e-05 -4.46857e-06
4.3792e-06 -4.46857e-06 -0.000127895
0.00137748 -4.61168e-06 -8.67192e-06
-4.61168e-06 0.000566222 -1.7379e-06
-8.67192e-06 -1.7379e-06 0.000544059
0.000742293 -2.16471e-05 3.39837e-05
-2.16471e-05 0.000155288 9.6986e-06
3.39837e-05 9.6986e-06 0.00015909
0.00143456 -1.06393e-05 -1.61264e-05
-1.06393e-05 0.000601794 -8.56122e-06
-1.61264e-05 -8.56122e-06 0.00057681
0.000743445 -3.75769e-05 1.45799e-05
-3.75769e-05 0.000157392 3.77282e-06
1.45799e-05 3.77282e-06 0.000155128
0.0028384 -0.000124725 1.50404e-07
-0.000124725 0.00151291 -3.49366e-06
1.50404e-07 -3.49366e-06 0.00150848
0.000268062 6.95106e-05 -4.67718e-06
6.95106e-05 -9.90024e-05 -6.87948e-06
-4.67718e-06 -6.87948e-06 -0.000147159
0.000382875 -9.46272e-06 -3.64206e-06
-9.46272e-06 -3.61006e-05 5.18408e-07
-3.64206e-06 5.18408e-07 -9.29566e-05
0.00326154 0.000178299 -1.15758e-05
0.000178299 0.00181952 -8.61808e-06
-1.15758e-05 -8.61808e-06 0.00179944
0.00068482 -0.000107672 -1.48901e-05
-0.000107672 0.000136204 1.31542e-05
-1.48901e-05 1.31542e-05 5.64484e-05
0.00431672 0.000147312 -3.98915e-05
0.000147312 0.00249085 -5.23139e-08
-3.98915e-05 -5.23139e-08 0.00247552
0.00537535 0.000114515 -0.0001823
0.000114515 0.00317576 2.40143e-05
-0.0001823 2.40143e-05 0.00316408
0.00217273 0.000411271 -3.24224e-06
0.000411271 0.000138706 6.59226e-07
-3.24224e-06 6.59226e-07 -4.97473e-06
0.00219183 0.000221843 -4.85305e-06
0.000221843 9.2954e-05 -1.02321e-06
-4.85305e-06 -1.02321e-06 4.2478e-05
0.00213512 0.000305877 -6.77175e-07
0.000305877 -1.51658e-05 -8.5092e-08
-6.77175e-07 -8.5092e-08 -4.08723e-05
0.00206754 0.000132899 -6.52384e-07
0.000132899 -1.95247e-05 -2.49499e-07
-6.52384e-07 -2.49499e-07 -1.65626e-05
0.00212699 5.58716e-05 -6.22294e-06
5.58716e-05 5.66214e-05 -1.04513e-07
-6.22294e-06 -1.04513e-07 3.1783e-05
0.00193901 4.0367e-06 -2.72959e-06
4.0367e-06 6.85517e-05 2.67564e-07
-2.72959e-06 2.67564e-07 -1.30157e-05
0.00212209 -7.82586e-06 4.2289e-08
-7.82586e-06 6.33628e-05 3.46872e-08
4.2289e-08 3.46872e-08 3.48458e-05
0.00207987 5.79208e-05 1.20844e-06
5.79208e-05 1.0732e-05 2.55073e-08
1.20844e-06 2.55073e-08 1.84068e-05
0.00213791 0.000207899 -3.27303e-07
0.000207899 1.03188e-05 -1.31408e-07
-3.27303e-07 -1.31408e-07 2.61817e-06
0.00215729 0.000138008 5.81413e-07
0.000138008 -3.00332e-05 1.55469e-07
5.81413e-07 1.55469e-07 6.46294e-06
0.00215566 0.000407865 -4.3828e-07
0.000407865 6.63747e-05 3.56509e-07
-4.3828e-07 3.56509e-07 -2.96171e-05
0.00227258 0.000320332 2.50967e-06
0.000320332 -9.39829e-06 4.02356e-07
2.50967e-06 4.02356e-07 3.47006e-06
0.00204223 -1.40057e-05 3.17467e-06
-1.40057e-05 -5.86588e-06 6.67363e-08
3.17467e-06 6.67363e-08 -1.24953e-06
0.0021637 6.59668e-05 -1.32018e-06
6.59668e-05 -3.41601e-05 4.36151e-08
-1.32018e-06 4.36151e-08 1.46832e-05
0.00224469 0.000211729 -2.80879e-06
0.000211729 -2.0857e-05 -4.73638e-07
-2.80879e-06 -4.73638e-07 1.39478e-05
0.00234397 0.000446165 -1.86938e-06
0.000446165 3.00709e-05 -3.29921e-07
-1.86938e-06 -3.29921e-07 2.11016e-05
0.00213928 -7.67378e-05 -7.5162e-06
-7.67378e-05 8.06341e-05 4.1506e-07
-7.5162e-06 4.1506e-07 4.59842e-05
0.00209241 -0.000232735 -2.83529e-06
-0.000232735 4.63512e-05 3.08377e-07
-2.83529e-06 3.08377e-07 -2.04791e-05
0.0020201 -0.000130433 -4.09479e-06
-0.000130433 -1.26062e-05 3.32967e-07
-4.09479e-06 3.32967e-07 -1.31783e-05
0.00212677 -0.00033303 -4.65037e-06
-0.00033303 2.54958e-05 7.85027e-07
-4.65037e-06 7.85027e-07 -1.27085e-05
0.00102592 -0.000432599 -7.25472e-06
-0.000432599 0.000138981 1.87742e-06
-7.25472e-06 1.87742e-06 -0.000222315
0.00167461 -0.000726162 1.22039e-05
-0.000726162 0.000374895 -6.18191e-06
1.22039e-05 -6.18191e-06 -0.000102988
0.00212654 -0.000813089 -3.03593e-06
-0.000813089 0.000399242 -3.20951e-06
-3.03593e-06 -3.20951e-06 -4.41795e-05
0.00206029 -0.000485009 -4.36391e-06
-0.000485009 9.87718e-05 1.34385e-06
-4.36391e-06 1.34385e-06 -4.87133e-05
0.00214392 -0.000434619 -1.55944e-07
-0.000434619 2.45383e-05 6.91987e-07
-1.55944e-07 6.91987e-07 -2.49526e-05
0.00208831 -0.000596201 -5.37353e-07
-0.000596201 0.000110124 1.44099e-06
-5.37353e-07 1.44099e-06 -5.85951e-05
0.00214294 -0.000665164 -6.84549e-06
-0.000665164 0.000324904 -1.79807e-06
-6.84549e-06 -1.79807e-06 2.51533e-05
0.00223882 -0.000648522 1.09031e-05
-0.000648522 0.000273075 -5.08804e-06
1.09031e-05 -5.08804e-06 4.26466e-05
0.00110844 -0.000471531 -4.1814e-06
-0.000471531 0.000286344 7.05231e-07
-4.1814e-06 7.05231e-07 -0.000109497
0.00102699 -0.00044116 1.27695e-05
-0.00044116 0.000246939 -4.82265e-06
1.27695e-05 -4.82265e-06 -0.000152469
0.00116715 -0.000227592 -1.67025e-06
-0.000227592 0.000383497 -8.68905e-06
-1.67025e-06 -8.68905e-06 8.15794e-05
6.46645e-05 -8.83035e-05 1.18085e-06
-8.83035e-05 -0.000224141 5.06019e-06
1.18085e-06 5.06019e-06 -0.000394584
-8.27979e-05 -0.000150368 3.19931e-06
-0.000150368 -0.000266708 -2.6077e-06
3.19931e-06 -2.6077e-06 -0.000585046
0.00203052 -8.48397e-05 1.70315e-07
-8.48397e-05 -1.93354e-05 -1.16629e-07
1.70315e-07 -1.16629e-07 -1.01759e-05
0.00211545 -0.000202184 1.55454e-06
-0.000202184 -4.53217e-07 -2.43244e-08
1.55454e-06 -2.43244e-08 -7.81111e-07
0.00222789 -0.000393078 -6.38508e-07
-0.000393078 1.46452e-07 8.06345e-08
-6.38508e-07 8.06345e-08 -9.83426e-06
0.00164874 -0.000643723 -1.4422e-06
-0.000643723 0.000516561 -4.85739e-07
-1.4422e-06 -4.85739e-07 5.38094e-05
0.00154458 -0.000790031 3.97741e-06
-0.000790031 0.000282043 -5.96377e-07
3.97741e-06 -5.96377e-07 -0.000222572
0.00224719 -0.000869848 -7.93362e-07
-0.000869848 0.000450688 -2.52455e-07
-7.93362e-07 -2.52455e-07 -1.98545e-06
0.00219142 -0.000514455 5.04802e-07
-0.000514455 7.88332e-05 -2.6579e-08
5.04802e-07 -2.6579e-08 -9.81676e-07
0.00217766 -0.000685443 2.86728e-06
-0.000685443 0.000293172 -4.16491e-06
2.86728e-06 -4.16491e-06 2.40755e-06
0.00228801 -0.000692489 -1.08786e-06
-0.000692489 0.000179621 -2.70934e-07
-1.08786e-06 -2.70934e-07 -1.12337e-05
-5.31817e-05 3.9532e-05 -2.15559e-06
3.9532e-05 -0.000298059 -7.54737e-07
-2.15559e-06 -7.54737e-07 -0.000412914
0.00127412 -0.000549579 8.61825e-08
-0.000549579 0.000382874 -1.8977e-06
8.61825e-08 -1.8977e-06 -6.45877e-05
0.00131589 -0.000525416 -4.17982e-06
-0.000525416 0.000446285 -4.45205e-07
-4.17982e-06 -4.45205e-07 -1.6413e-05
0.00159029 -0.000374061 -2.94498e-06
-0.000374061 0.000643114 3.54593e-06
-2.94498e-06 3.54593e-06 0.000266365
0.00144416 -0.000354 1.61994e-06
-0.000354 0.000664662 -1.63448e-06
1.61994e-06 -1.63448e-06 0.000318836
0.000477073 -0.000103162 -6.58039e-07
-0.000103162 0.00013198 1.16538e-06
-6.58039e-07 1.16538e-06 -0.000167521
0.00212021 -0.000107316 -3.24608e-07
-0.000107316 -4.38436e-05 1.86316e-07
-3.24608e-07 1.86316e-07 -5.82001e-06
0.00228662 -0.000273011 -6.32467e-07
-0.000273011 -4.59908e-05 1.00111e-06
-6.32467e-07 1.00111e-06 9.93334e-06
0.00230246 -0.000484493 4.20273e-07
-0.000484493 -3.90557e-06 8.96283e-08
4.20273e-07 8.96283e-08 4.40417e-06
0.00233172 -0.000618304 -6.23165e-07
-0.000618304 5.75973e-05 -2.47151e-06
-6.23165e-07 -2.47151e-06 2.09474e-06
0.00193608 -0.000754524 -1.24529e-05
-0.000754524 0.000678468 4.51985e-06
-1.24529e-05 4.51985e-06 0.000174069
0.00256359 -0.000820429 -1.10849e-05
-0.000820429 0.000406732 -7.76345e-06
-1.10849e-05 -7.76345e-06 0.00013141
0.00189244 -0.000914001 -5.20588e-05
-0.000914001 0.000476499 8.24953e-06
-5.20588e-05 8.24953e-06 -7.1155e-05
0.00217705 -0.000910783 -2.84253e-05
-0.000910783 0.000427407 2.64261e-06
-2.84253e-05 2.64261e-06 -4.04443e-05
-0.00017624 4.69756e-05 -6.22376e-06
4.69756e-05 -0.000377755 -3.43668e-06
-6.22376e-06 -3.43668e-06 -0.000462952
0.00106348 1.95377e-07 -3.50848e-06
1.95377e-07 0.000481483 -4.32371e-07
-3.50848e-06 -4.32371e-07 0.000269664
0.00210488 -0.000367308 -7.56393e-06
-0.000367308 0.00118026 9.75907e-07
-7.56393e-06 9.75907e-07 0.000830197
0.000682935 -0.000223486 -7.49434e-07
-0.000223486 0.00014413 -7.35477e-06
-7.49434e-07 -7.35477e-06 -0.00020341
0.00299399 -0.000789414 -1.79333e-05
-0.000789414 0.00142235 1.42542e-05
-1.79333e-05 1.42542e-05 0.000916078
0.00178369 -0.000567618 1.55946e-06
-0.000567618 0.000759204 1.74434e-05
1.55946e-06 1.74434e-05 0.000245307
0.000595471 5.62776e-05 -8.67348e-07
5.62776e-05 9.36069e-05 -7.02517e-06
-8.67348e-07 -7.02517e-06 -1.7885e-05
-0.000454938 3.66116e-05 1.32807e-06
3.66116e-05 -0.000503005 8.16099e-08
1.32807e-06 8.16099e-08 -0.000725985
0.00206628 0.000509023 -1.52033e-06
0.000509023 0.000102366 -8.19714e-07
-1.52033e-06 -8.19714e-07 -7.54217e-05
0.000284732 8.66493e-05 -3.74083e-06
8.66493e-05 -0.000170309 3.02848e-06
-3.74083e-06 3.02848e-06 -0.000412949
0.00129262 0.0004951 1.95938e-06
0.0004951 0.000369035 -5.05751e-06
1.95938e-06 -5.05751e-06 1.19339e-06
-0.000602678 0.00010398 -6.67523e-06
0.00010398 -0.000899425 -6.4239e-06
-6.67523e-06 -6.4239e-06 -0.00110314
0.00223783 0.000679041 4.33352e-06
0.000679041 0.000325814 1.94189e-06
4.33352e-06 1.94189e-06 3.6314e-05
0.00211225 0.000649534 -4.72902e-06
0.000649534 0.000154588 3.96229e-07
-4.72902e-06 3.96229e-07 -9.16793e-05
0.00201695 0.000797519 -6.67822e-06
0.000797519 0.00072189 4.31939e-06
-6.67822e-06 4.31939e-06 0.000210778
0.0019763 0.000767501 -8.69612e-06
0.000767501 0.000391928 1.78082e-06
-8.69612e-06 1.78082e-06 -1.44114e-05
0.000844591 0.000137201 -8.32679e-07
0.000137201 0.000287657 -3.79438e-08
-8.32679e-07 -3.79438e-08 0.000117289
0.000398023 0.000125724 2.24163e-06
0.000125724 5.74826e-05 -9.55109e-07
2.24163e-06 -9.55109e-07 -0.000238292
0.00135545 0.000550796 -3.66758e-06
0.000550796 0.000427203 -1.26504e-06
-3.66758e-06 -1.26504e-06 1.26911e-05
0.00131259 0.000231155 -1.14427e-06
0.000231155 0.000309344 6.87417e-07
-1.14427e-06 6.87417e-07 7.51608e-05
0.00207045 0.000523592 8.85613e-07
0.000523592 0.000721026 -3.0457e-06
8.85613e-07 -3.0457e-06 0.000385797
0.00229107 0.000584376 -2.43029e-06
0.000584376 0.000112008 -8.84025e-07
-2.43029e-06 -8.84025e-07 -2.35889e-05
0.00239044 0.000734102 2.90247e-06
0.000734102 0.000391569 -7.36662e-07
2.90247e-06 -7.36662e-07 7.72076e-05
0.00242378 0.00071398 1.29397e-06
0.00071398 0.000297343 2.74171e-06
1.29397e-06 2.74171e-06 2.52004e-05
0.00173551 0.000780821 4.85962e-06
0.000780821 0.000511374 1.32414e-06
4.85962e-06 1.32414e-06 6.32146e-06
0.00210657 0.000896381 -5.00813e-06
0.000896381 0.000470642 8.2775e-07
-5.00813e-06 8.2775e-07 3.95029e-06
-0.00130614 1.60083e-05 -5.88172e-06
1.60083e-05 -0.00105256 5.05661e-06
-5.88172e-06 5.05661e-06 -0.00121613
-0.00144245 0.000127784 8.13653e-07
0.000127784 -0.00104763 9.1562e-07
8.13653e-07 9.1562e-07 -0.00138317
0.00167942 0.000627731 6.46525e-06
0.000627731 0.000574446 -2.54588e-06
6.46525e-06 -2.54588e-06 0.000136444
0.00142545 0.000408529 6.31337e-06
0.000408529 0.000284971 7.00389e-07
6.31337e-06 7.00389e-07 -6.03509e-06
0.00255972 0.000586787 3.01983e-06
0.000586787 -4.44672e-05 1.0851e-06
3.01983e-06 1.0851e-06 1.25591e-06
0.00261229 0.000710081 7.90698e-06
0.000710081 0.000324807 8.45587e-07
7.90698e-06 8.45587e-07 0.000117333
0.0023757 0.000863408 8.90284e-06
0.000863408 0.000394716 -3.88955e-06
8.90284e-06 -3.88955e-06 -9.84707e-06
0.00165497 0.000868207 5.0711e-06
0.000868207 0.000316299 -8.7549e-07
5.0711e-06 -8.7549e-07 -0.000215877
0.000984745 0.000157573 -4.8852e-08
0.000157573 0.000378489 -2.33076e-06
-4.8852e-08 -2.33076e-06 0.000217901
0.000449952 0.000154577 -2.466e-06
0.000154577 4.34792e-05 -5.99051e-07
-2.466e-06 -5.99051e-07 -9.76316e-05
0.00121999 0.000132655 -9.06156e-06
0.000132655 0.000538148 -5.08065e-06
-9.06156e-06 -5.08065e-06 0.000431922
0.000423873 5.18998e-05 2.63544e-07
5.18998e-05 1.92922e-05 -2.54977e-06
2.63544e-07 -2.54977e-06 -0.000102349
-0.00062198 4.94055e-05 2.4645e-07
4.94055e-05 -0.000610027 -6.74296e-07
2.4645e-07 -6.74296e-07 -0.000754452
0.000648221 6.30151e-05 -7.90002e-07
6.30151e-05 0.000173449 8.36868e-08
-7.90002e-07 8.36868e-08 4.86276e-05
0.000566816 0.000167729 1.31602e-06
0.000167729 0.000162635 1.09438e-06
1.31602e-06 1.09438e-06 1.16779e-05
0.000532654 8.34591e-05 6.02292e-07
8.34591e-05 0.000149927 8.8873e-07
6.02292e-07 8.8873e-07 -3.05372e-05
0.000653044 0.000140139 3.91373e-06
0.000140139 0.000141408 -6.14179e-06
3.91373e-06 -6.14179e-06 5.34872e-05
0.000730145 4.27967e-05 1.9344e-06
4.27967e-05 0.000262926 -4.75538e-06
1.9344e-06 -4.75538e-06 8.99079e-05
1.22737e-05 7.52682e-05 -4.26553e-07
7.52682e-05 -0.00020089 3.06281e-06
-4.26553e-07 3.06281e-06 -0.000360584
0.000675575 0.000121896 2.22246e-06
0.000121896 0.000188618 3.9878e-06
2.22246e-06 3.9878e-06 6.10361e-05
0.000449889 8.55597e-05 2.80297e-06
8.55597e-05 2.68263e-05 4.05784e-06
2.80297e-06 4.05784e-06 -6.21697e-05
0.000438483 1.99841e-05 -1.55072e-06
1.99841e-05 1.01974e-05 -4.01227e-07
-1.55072e-06 -4.01227e-07 -7.01255e-05
0.00124382 1.29991e-05 1.31203e-06
1.29991e-05 0.000490487 3.28491e-06
1.31203e-06 3.28491e-06 0.00046936
0.000427377 -4.10933e-05 9.33015e-07
-4.10933e-05 -3.17726e-06 -3.48313e-06
9.33015e-07 -3.48313e-06 -7.95755e-05
0.00132811 -1.29526e-06 -8.49862e-06
-1.29526e-06 0.000537953 -1.73657e-06
-8.49862e-06 -1.73657e-06 0.000517609
0.000704072 -1.1679e-05 3.11025e-05
-1.1679e-05 0.000133592 9.72116e-06
3.11025e-05 9.72116e-06 0.00013836
0.00137017 -2.12624e-05 -1.14217e-05
-2.12624e-05 0.000561986 -7.48225e-06
-1.14217e-05 -7.48225e-06 0.000540657
0.00073594 -2.69345e-05 1.26585e-05
-2.69345e-05 0.000149396 3.68232e-06
1.26585e-05 3.68232e-06 0.000151117
0.000726098 -4.06052e-05 1.29122e-06
-4.06052e-05 0.000146285 -3.87538e-06
1.29122e-06 -3.87538e-06 0.000142426
0.000354505 4.98512e-05 -2.20997e-06
4.98512e-05 -6.84953e-05 -4.92238e-06
-2.20997e-06 -4.92238e-06 -0.000100306
0.000396121 6.87575e-05 -1.02007e-06
6.87575e-05 -2.04408e-05 1.70601e-07
-1.02007e-06 1.70601e-07 -6.85276e-05
0.00270022 0.000133279 -6.77549e-07
0.000133279 0.00144692 -6.37274e-06
-6.77549e-07 -6.37274e-06 0.00143927
0.000549878 -1.29507e-05 -9.06803e-06
-1.29507e-05 6.99077e-05 1.12206e-05
-9.06803e-06 1.12206e-05 1.0281e-05
0.00344184 0.000164294 -2.33903e-05
0.000164294 0.00192835 -2.20054e-06
-2.33903e-05 -2.20054e-06 0.00191095
0.00446393 8.26743e-05 -0.00015312
8.26743e-05 0.00257835 1.7905e-05
-0.00015312 1.7905e-05 0.00257813
0.00215931 0.000407271 -7.86143e-07
0.000407271 7.88396e-05 5.57905e-07
-7.86143e-07 5.57905e-07 -1.91582e-05
0.00215368 0.000207744 -2.80953e-06
0.000207744 2.30732e-05 -8.89398e-07
-2.80953e-06 -8.89398e-07 1.62122e-05
0.00220743 0.000321412 1.81016e-06
0.000321412 -5.27863e-05 1.26432e-06
1.81016e-06 1.26432e-06 -3.31603e-05
0.00213217 0.000138961 2.12621e-06
0.000138961 -5.14065e-05 -9.51291e-08
2.12621e-06 -9.51291e-08 -7.67128e-06
0.00207189 5.91691e-05 -3.07934e-06
5.91691e-05 8.06887e-06 -2.81054e-07
-3.07934e-06 -2.81054e-07 1.23333e-05
0.00213487 -1.10654e-05 -8.0355e-06
-1.10654e-05 7.67725e-05 5.42064e-08
-8.0355e-06 5.42064e-08 4.63334e-05
0.00205089 -1.25324e-05 2.2657e-07
-1.25324e-05 6.50815e-07 1.89529e-09
2.2657e-07 1.89529e-09 6.10167e-06
0.0021434 6.87608e-05 1.0697e-06
6.87608e-05 -4.32529e-05 9.67622e-08
1.0697e-06 9.67622e-08 3.98993e-06
0.00222722 0.000217994 1.06664e-06
0.000217994 -3.47704e-05 1.55946e-07
1.06664e-06 1.55946e-07 4.08875e-06
0.00232107 0.00043316 5.61021e-07
0.00043316 8.58638e-06 1.91036e-07
5.61021e-07 1.91036e-07 2.3193e-06
0.00211329 -1.70071e-05 -1.75834e-06
-1.70071e-05 -5.19503e-05 1.80205e-08
-1.75834e-06 1.80205e-08 -1.09696e-05
0.00227056 0.000119755 -4.82847e-06
0.000119755 -7.86517e-05 -4.13315e-07
-4.82847e-06 -4.13315e-07 1.13499e-05
0.00248684 0.000330554 -1.36341e-06
0.000330554 -9.06855e-06 -1.17455e-06
-1.36341e-06 -1.17455e-06 5.52956e-05
0.00201746 -9.28915e-05 -2.78917e-06
-9.28915e-05 -2.89423e-05 1.52163e-07
-2.78917e-06 1.52163e-07 -2.10602e-05
0.00212978 -0.000202246 -2.53671e-06
-0.000202246 5.83695e-06 -2.54265e-08
-2.53671e-06 -2.54265e-08 5.2143e-06
0.00221937 -0.000385447 -1.41646e-06
-0.000385447 1.33735e-05 4.39135e-08
-1.41646e-06 4.39135e-08 -3.84483e-06
0.0017864 -0.000661043 2.17101e-06
-0.000661043 0.000587872 -2.82673e-06
2.17101e-06 -2.82673e-06 0.000123029
0.00161841 -0.000772939 2.28185e-05
-0.000772939 0.000332038 -7.74488e-06
2.28185e-05 -7.74488e-06 -0.000163153
0.00206913 -0.000860792 1.18106e-06
-0.000860792 0.000357051 -9.65339e-07
1.18106e-06 -9.65339e-07 -9.7173e-05
0.00218855 -0.000511017 -1.4481e-06
-0.000511017 8.11368e-05 8.08371e-07
-1.4481e-06 8.08371e-07 -1.39438e-06
0.00226181 -0.000674283 9.13313e-06
-0.000674283 0.000192248 2.87633e-06
9.13313e-06 2.87633e-06 1.04182e-05
0.0022856 -0.000722676 8.05157e-06
-0.000722676 0.000328931 -6.7433e-06
8.05157e-06 -6.7433e-06 3.31123e-05
0.000955859 -0.000498015 4.09883e-06
-0.000498015 0.000194592 -2.90294e-06
4.09883e-06 -2.90294e-06 -0.000241704
0.00186689 -0.000609853 1.23369e-05
-0.000609853 0.000792219 -1.49131e-05
1.23369e-05 -1.49131e-05 0.000315771
0.00167109 -0.000403988 -5.8651e-06
-0.000403988 0.000740367 1.12804e-06
-5.8651e-06 1.12804e-06 0.000330342
0.000227686 3.93618e-05 4.57733e-06
3.93618e-05 -0.000122473 2.67288e-06
4.57733e-06 2.67288e-06 -0.000233835
0.00185741 -0.000417847 6.74956e-07
-0.000417847 0.000906592 2.44285e-06
6.74956e-07 2.44285e-06 0.000558991
-0.000321652 1.09989e-05 7.22679e-06
1.09989e-05 -0.000387411 -8.89754e-07
7.22679e-06 -8.89754e-07 -0.000669698
0.00213166 -0.000103902 -5.93323e-07
-0.000103902 -3.59194e-05 8.88838e-08
-5.93323e-07 8.88838e-08 -9.92224e-08
0.00226273 -0.000282338 2.74073e-07
-0.000282338 -6.47245e-05 -3.41387e-08
2.74073e-07 -3.41387e-08 -6.78263e-06
0.00229984 -0.000476545 -7.04603e-07
-0.000476545 -1.42022e-06 3.17871e-07
-7.04603e-07 3.17871e-07 5.2059e-06
0.00194321 -0.000756833 -1.0299e-06
-0.000756833 0.000685985 1.0953e-06
-1.0299e-06 1.0953e-06 0.000181863
0.00158548 -0.000866367 7.59954e-06
-0.000866367 0.000300513 -2.1828e-06
7.59954e-06 -2.1828e-06 -0.000232451
0.00243767 -0.000914137 -2.179e-06
-0.000914137 0.000583899 -1.07521e-06
-2.179e-06 -1.07521e-06 0.000129439
0.00233039 -0.000629483 4.33974e-08
-0.000629483 5.96312e-05 -1.99121e-07
4.33974e-08 -1.99121e-07 -5.52726e-06
0.00205973 -0.000756422 2.15543e-06
-0.000756422 0.000131519 -1.15879e-06
2.15543e-06 -1.15879e-06 -0.000124096
0.000190567 6.08068e-05 -2.24553e-06
6.08068e-05 -0.000144953 -1.43123e-06
-2.24553e-06 -1.43123e-06 -0.000227536
0.000688031 -4.40241e-05 -1.13327e-06
-4.40241e-05 0.000230443 7.61059e-07
-1.13327e-06 7.61059e-07 3.07008e-05
0.00112457 -0.000567148 -3.18721e-06
-0.000567148 0.000284136 1.3961e-06
-3.18721e-06 1.3961e-06 -0.000163972
0.00155422 -0.000508805 -5.0742e-06
-0.000508805 0.000642755 1.77475e-06
-5.0742e-06 1.77475e-06 0.000135429
0.0011447 -0.000204161 -5.25928e-07
-0.000204161 0.000417508 -1.88663e-06
-5.25928e-07 -1.88663e-06 6.76639e-05
0.00135713 -0.000273859 -1.50231e-07
-0.000273859 0.000699597 2.08677e-06
-1.50231e-07 2.08677e-06 0.000357658
0.00225477 -0.000141219 -3.60627e-06
-0.000141219 -7.55519e-05 1.59404e-06
-3.60627e-06 1.59404e-06 1.53145e-05
0.00241763 -0.000409028 -1.66642e-06
-0.000409028 -0.000111434 2.00698e-06
-1.66642e-06 2.00698e-06 9.26825e-06
0.00238835 -0.000593049 2.62064e-06
-0.000593049 -5.54071e-06 -1.34105e-06
2.62064e-06 -1.34105e-06 1.62053e-06
0.00247271 -0.000801416 2.69614e-06
-0.000801416 0.000168769 -3.08585e-06
2.69614e-06 -3.08585e-06 1.3772e-05
0.000944618 -0.000666459 -1.04352e-05
-0.000666459 8.68109e-05 -5.74331e-06
-1.04352e-05 -5.74331e-06 -0.000392661
0.00248905 -0.000979307 -5.67161e-06
-0.000979307 0.000518998 -3.33635e-06
-5.67161e-06 -3.33635e-06 9.67982e-05
0.00247787 -0.00107223 -6.02339e-05
-0.00107223 0.000739388 1.12782e-06
-6.02339e-05 1.12782e-06 0.000142331
0.00054485 4.44788e-05 -1.74271e-07
4.44788e-05 6.21284e-05 -7.48584e-07
-1.74271e-07 -7.48584e-07 -3.40931e-07
0.000773387 -0.000163206 4.04909e-06
-0.000163206 0.000279375 -2.42518e-06
4.04909e-06 -2.42518e-06 0.000149066
0.0002033 8.63649e-05 -8.64045e-06
8.63649e-05 -8.68603e-05 -6.96089e-07
-8.64045e-06 -6.96089e-07 -0.000218432
0.00106043 -7.8594e-05 -4.63177e-06
-7.8594e-05 0.000494903 3.57829e-06
-4.63177e-06 3.57829e-06 0.000232465
-0.000426446 -0.000182829 1.08096e-06
-0.000182829 -0.000488932 -9.75536e-06
1.08096e-06 -9.75536e-06 -0.000797371
0.000942113 -0.000251088 4.08555e-06
-0.000251088 0.000346035 -6.90868e-06
4.08555e-06 -6.90868e-06 -9.32153e-05
0.00148943 -0.000638812 -3.11196e-05
-0.000638812 0.000513411 3.37258e-05
-3.11196e-05 3.37258e-05 5.97809e-05
0.00251478 -0.00056392 -2.3978e-05
-0.00056392 0.00143892 1.80556e-05
-2.3978e-05 1.80556e-05 0.000692428
0.000118972 6.824e-05 9.26503e-08
6.824e-05 -0.000195059 -8.30356e-07
9.26503e-08 -8.30356e-07 -0.000341763
0.00132732 0.000264521 -2.81135e-07
0.000264521 0.000619946 6.27519e-07
-2.81135e-07 6.27519e-07 0.000316709
0.00238336 0.000598479 -1.36768e-06
0.000598479 0.000152567 -8.841e-07
-1.36768e-06 -8.841e-07 1.34871e-05
0.000686781 0.000194337 -6.05388e-06
0.000194337 -8.67821e-05 -2.08915e-06
-6.05388e-06 -2.08915e-06 -0.000331024
0.00118179 0.000521789 -2.6281e-06
0.000521789 0.000318919 -1.176e-06
-2.6281e-06 -1.176e-06 -8.80816e-05
0.00202229 0.000473369 -7.03272e-06
0.000473369 0.000671358 -4.21384e-07
-7.03272e-06 -4.21384e-07 0.000353426
0.00253228 0.0007296 -6.46279e-06
0.0007296 0.000486895 -3.32222e-08
-6.46279e-06 -3.32222e-08 0.000182209
0.00261964 0.000738158 -8.87426e-06
0.000738158 0.00041347 5.94949e-06
-8.87426e-06 5.94949e-06 0.000137826
0.00160294 0.000776054 -6.12518e-06
0.000776054 0.000424172 1.44026e-06
-6.12518e-06 1.44026e-06 -8.4397e-05
0.00195516 0.000912161 -1.1512e-05
0.000912161 0.000383696 -1.67483e-08
-1.1512e-05 -1.67483e-08 -9.87547e-05
-0.000175102 7.5972e-05 1.41673e-06
7.5972e-05 -0.000322424 1.54153e-06
1.41673e-06 1.54153e-06 -0.000521167
0.000238517 0.00029805 2.7906e-06
0.00029805 8.72846e-06 -2.45903e-06
2.7906e-06 -2.45903e-06 -0.000343815
0.00152949 0.000621785 1.78771e-06
0.000621785 0.00045732 -1.95717e-08
1.78771e-06 -1.95717e-08 1.34192e-05
0.00197918 0.000467874 -5.00639e-06
0.000467874 0.000664279 1.11856e-06
-5.00639e-06 1.11856e-06 0.000355528
0.00249964 0.000562882 3.88695e-07
0.000562882 -0.000111 -9.66785e-07
3.88695e-07 -9.66785e-07 -4.59478e-05
0.0026268 0.000721389 3.1958e-06
0.000721389 0.000331266 -1.1246e-07
3.1958e-06 -1.1246e-07 0.000110839
0.00224959 0.000833037 -3.03064e-06
0.000833037 0.000345972 -3.54217e-08
-3.03064e-06 -3.54217e-08 -4.7525e-05
0.00198775 0.000898041 1.87643e-06
0.000898041 0.000495441 3.47663e-07
1.87643e-06 3.47663e-07 -3.36099e-05
-0.000631226 3.40161e-05 -4.72827e-06
3.40161e-05 -0.000590802 1.93799e-06
-4.72827e-06 1.93799e-06 -0.000771219
0.00239646 0.000413793 7.59333e-06
0.000413793 -0.00020345 1.28471e-06
7.59333e-06 1.28471e-06 -9.79486e-05
0.00243381 0.000579692 2.84787e-06
0.000579692 0.00132944 1.00962e-05
2.84787e-06 1.00962e-05 0.000930095
0.0016616 0.000638416 2.48251e-06
0.000638416 0.000463622 -3.24874e-06
2.48251e-06 -3.24874e-06 3.31268e-05
0.00258957 0.000705914 -1.29842e-05
0.000705914 9.6612e-05 -8.78958e-06
-1.29842e-05 -8.78958e-06 6.53528e-05
0.00134497 0.00077859 4.43045e-06
0.00077859 -0.000285016 -9.40278e-06
4.43045e-06 -9.40278e-06 -0.000652925
0.00293576 0.00103703 2.97353e-06
0.00103703 0.000979531 3.26553e-06
2.97353e-06 3.26553e-06 0.000422141
0.00059259 0.000138675 -8.40938e-07
0.000138675 0.000140572 -1.18958e-06
-8.40938e-07 -1.18958e-06 -5.82093e-06
0.00049324 0.000125989 -3.25759e-06
0.000125989 0.000103132 -1.3807e-06
-3.25759e-06 -1.3807e-06 -8.96422e-06
0.000421178 9.63485e-05 -3.15939e-06
9.63485e-05 8.44467e-05 1.85536e-06
-3.15939e-06 1.85536e-06 7.10421e-06
0.000405377 9.48732e-06 1.32866e-06
9.48732e-06 1.7067e-05 -3.51366e-06
1.32866e-06 -3.51366e-06 -0.00010523
0.000494663 8.32149e-05 2.78509e-06
8.32149e-05 0.000125237 -3.49365e-06
2.78509e-06 -3.49365e-06 -5.47189e-05
-0.000626314 0.000120947 -4.30566e-06
0.000120947 -0.000546332 8.56635e-06
-4.30566e-06 8.56635e-06 -0.00068579
0.000512229 2.57805e-05 -1.65218e-06
2.57805e-05 8.82133e-05 -1.91627e-08
-1.65218e-06 -1.91627e-08 -4.14195e-05
0.000265665 -2.63246e-06 -7.20219e-07
-2.63246e-06 -2.11619e-05 -1.88918e-07
-7.20219e-07 -1.88918e-07 -0.000194132
1.61728e-05 7.60062e-05 -3.34926e-06
7.60062e-05 -0.000226079 2.73969e-06
-3.34926e-06 2.73969e-06 -0.000298962
0.000707002 0.000128149 1.34972e-06
0.000128149 0.000260402 -1.46153e-06
1.34972e-06 -1.46153e-06 7.84506e-05
0.00181754 0.00017921 -1.4739e-06
0.00017921 0.00086439 -4.50144e-06
-1.4739e-06 -4.50144e-06 0.000812274
0.000104936 2.76734e-05 1.13585e-05
2.76734e-05 -0.000165911 -9.37434e-06
1.13585e-05 -9.37434e-06 -0.000258707
0.000431456 0.00012454 8.68744e-07
0.00012454 9.82714e-05 3.40442e-06
8.68744e-07 3.40442e-06 -9.18963e-05
0.000512414 6.70829e-05 1.0249e-06
6.70829e-05 0.000116347 4.02932e-06
1.0249e-06 4.02932e-06 -6.32673e-05
0.000528816 2.62161e-05 2.22985e-06
2.62161e-05 8.60768e-05 3.41182e-06
2.22985e-06 3.41182e-06 -4.45206e-05
0.000485476 -6.87868e-05 -1.42083e-06
-6.87868e-05 4.30351e-05 3.10909e-06
-1.42083e-06 3.10909e-06 -4.46971e-05
0.000469241 1.51891e-05 6.61666e-07
1.51891e-05 2.74069e-05 -4.53995e-07
6.61666e-07 -4.53995e-07 -5.38867e-05
0.00131485 2.92278e-05 3.61556e-06
2.92278e-05 0.000542576 3.54035e-06
3.61556e-06 3.54035e-06 0.000520181
0.000468311 1.29156e-05 5.57212e-07
1.29156e-05 1.63854e-05 -3.76969e-06
5.57212e-07 -3.76969e-06 -5.55892e-05
0.00133332 1.84333e-05 -8.42451e-06
1.84333e-05 0.000548533 -1.86389e-06
-8.42451e-06 -1.86389e-06 0.000526905
0.0007505 -5.01406e-06 2.63973e-05
-5.01406e-06 0.000168711 9.29169e-06
2.63973e-05 9.29169e-06 0.000172804
0.00134743 -1.14759e-05 -9.34698e-06
-1.14759e-05 0.00054974 -7.24533e-06
-9.34698e-06 -7.24533e-06 0.000530229
0.000758175 -1.73247e-05 1.02607e-05
-1.73247e-05 0.000165132 3.66661e-06
1.02607e-05 3.66661e-06 0.000168137
0.000736721 -2.99452e-05 9.74984e-07
-2.99452e-05 0.000147809 -3.13856e-06
9.74984e-07 -3.13856e-06 0.000148535
0.000602868 -1.92455e-05 1.34046e-06
-1.92455e-05 9.31356e-05 -1.92586e-06
1.34046e-06 -1.92586e-06 3.58609e-05
0.00036268 2.94667e-05 -4.19692e-07
2.94667e-05 -7.64066e-05 -4.30326e-06
-4.19692e-07 -4.30326e-06 -9.89629e-05
0.000387955 4.72239e-05 5.15558e-07
4.72239e-05 -4.62668e-05 3.31153e-07
5.15558e-07 3.31153e-07 -7.86318e-05
0.00250986 0.000104384 7.11226e-06
0.000104384 0.00131291 -5.32619e-06
7.11226e-06 -5.32619e-06 0.00131323
0.000407612 4.74517e-05 3.29241e-06
4.74517e-05 -2.3711e-05 8.27123e-06
3.29241e-06 8.27123e-06 -6.71472e-05
0.00293162 0.000146736 -4.68696e-06
0.000146736 0.00159763 -5.48319e-07
-4.68696e-06 -5.48319e-07 0.00158697
0.00367491 0.000115919 -6.44451e-05
0.000115919 0.00206424 7.56422e-06
-6.44451e-05 7.56422e-06 0.00205726
0.00230082 0.000420805 2.01468e-06
0.000420805 -1.12199e-05 7.65783e-07
2.01468e-06 7.65783e-07 -1.49676e-05
0.00221537 0.000224659 1.77767e-06
0.000224659 -4.41432e-05 5.08341e-07
1.77767e-06 5.08341e-07 -1.81248e-06
0.00212721 7.25298e-05 1.44812e-06
7.25298e-05 -4.88896e-05 -1.25169e-07
1.44812e-06 -1.25169e-07 -3.55938e-06
0.00205661 -1.09079e-05 -3.49275e-06
-1.09079e-05 5.54488e-06 -1.46091e-07
-3.49275e-06 -1.46091e-07 1.18439e-05
0.00212373 -1.19432e-05 -8.80885e-07
-1.19432e-05 -4.71859e-05 -3.80662e-08
-8.80885e-07 -3.80662e-08 -2.99621e-06
0.00226438 0.000113849 2.49466e-07
0.000113849 -7.36018e-05 5.6267e-07
2.49466e-07 5.6267e-07 1.39752e-05
0.00239171 0.000338188 -1.06187e-06
0.000338188 -5.2711e-05 -2.40721e-07
-1.06187e-06 -2.40721e-07 1.06164e-05
0.00223532 -1.20694e-05 -4.32998e-06
-1.20694e-05 -0.000100446 5.13036e-07
-4.32998e-06 5.13036e-07 1.06231e-06
0.00253186 0.000169123 -1.73927e-06
0.000169123 -5.5309e-05 -2.64197e-06
-1.73927e-06 -2.64197e-06 5.01506e-05
0.00255709 0.000134658 8.40117e-06
0.000134658 8.99037e-06 9.6988e-06
8.40117e-06 9.6988e-06 0.000119604
0.00214722 -0.000100928 3.50123e-07
-0.000100928 -2.499e-05 -6.90488e-08
3.50123e-07 -6.90488e-08 8.51935e-06
0.00223698 -0.000292474 -7.47244e-08
-0.000292474 -8.66841e-05 -1.23329e-06
-7.47244e-08 -1.23329e-06 -2.53816e-05
0.00230089 -0.000467703 1.09164e-07
-0.000467703 4.13568e-06 -6.17168e-07
1.09164e-07 -6.17168e-07 9.24692e-06
0.0012845 -0.000685414 8.00379e-06
-0.000685414 0.000278223 -1.78466e-06
8.00379e-06 -1.78466e-06 -0.00021049
0.00197409 -0.000914982 3.68793e-05
-0.000914982 0.000520351 -3.52587e-06
3.68793e-05 -3.52587e-06 -2.37784e-05
0.00224567 -0.000862952 1.37941e-05
-0.000862952 0.000482073 -3.22317e-06
1.37941e-05 -3.22317e-06 5.0721e-05
0.00231398 -0.000636411 3.44663e-06
-0.000636411 5.86074e-05 2.27576e-06
3.44663e-06 2.27576e-06 -1.85793e-05
0.00217934 -0.000753379 1.43838e-05
-0.000753379 0.000220861 4.2908e-06
1.43838e-05 4.2908e-06 -2.89646e-05
0.000648891 -0.000498764 1.24848e-05
-0.000498764 1.2687e-05 -2.04007e-05
1.24848e-05 -2.04007e-05 -0.000432373
0.00134068 -0.000453117 1.01151e-05
-0.000453117 0.000574501 -2.0841e-05
1.01151e-05 -2.0841e-05 6.11306e-05
0.000533891 -0.000151597 -4.39285e-06
-0.000151597 -1.8102e-06 3.83599e-06
-4.39285e-06 3.83599e-06 -0.000331999
0.000417231 1.39943e-05 2.73793e-06
1.39943e-05 -2.77992e-06 1.69767e-06
2.73793e-06 1.69767e-06 -8.1534e-05
0.000329035 1.47011e-05 7.74486e-06
1.47011e-05 -8.16192e-06 7.35644e-07
7.74486e-06 7.35644e-07 -0.000196744
0.000630887 -0.000203142 1.07626e-06
-0.000203142 0.000224711 6.4424e-06
1.07626e-06 6.4424e-06 -0.000106264
0.0022573 -0.000143963 5.14479e-07
-0.000143963 -8.44445e-05 1.79865e-07
5.14479e-07 1.79865e-07 9.65861e-06
0.000468908 3.99316e-06 1.87653e-06
3.99316e-06 1.37104e-05 3.68132e-07
1.87653e-06 3.68132e-07 -4.87943e-05
0.000376454 -8.29741e-05 -3.24564e-06
-8.29741e-05 -1.29751e-05 -8.4947e-07
-3.24564e-06 -8.4947e-07 -0.00011844
0.00238882 -0.000396893 -2.91928e-07
-0.000396893 -0.00010254 -5.80831e-08
-2.91928e-07 -5.80831e-08 4.055e-06
0.00235112 -0.000577128 -1.87885e-06
-0.000577128 -1.32311e-05 5.7234e-07
-1.87885e-06 5.7234e-07 1.20637e-06
0.00197332 -0.000813174 3.03703e-07
-0.000813174 0.000694314 2.04337e-06
3.03703e-07 2.04337e-06 0.000171844
0.00208572 -0.00101976 1.05289e-05
-0.00101976 0.000533209 -5.49535e-07
1.05289e-05 -5.49535e-07 -5.46009e-05
0.00240771 -0.000967227 2.01385e-06
-0.000967227 0.000460775 -4.81975e-06
2.01385e-06 -4.81975e-06 5.00579e-05
0.0024277 -0.000799409 2.65609e-06
-0.000799409 0.000140136 -5.55842e-07
2.65609e-06 -5.55842e-07 -8.89509e-06
0.000596881 8.6688e-06 -1.16792e-06
8.6688e-06 0.000172134 -1.42787e-06
-1.16792e-06 -1.42787e-06 3.4974e-05
0.000801696 -6.92428e-05 1.77383e-06
-6.92428e-05 0.000326578 2.24531e-06
1.77383e-06 2.24531e-06 6.9296e-05
0.00145803 -0.000617505 8.98294e-06
-0.000617505 0.000534045 9.01709e-06
8.98294e-06 9.01709e-06 7.70504e-05
0.00121005 -0.000444157 1.61976e-05
-0.000444157 0.000600888 -1.0128e-05
1.61976e-05 -1.0128e-05 -3.98584e-05
0.000817128 -0.000193158 -1.27057e-06
-0.000193158 0.000225188 -2.5775e-07
-1.27057e-06 -2.5775e-07 -0.000168859
8.88781e-05 -0.000148976 1.64755e-06
-0.000148976 -0.000153516 -2.87725e-06
1.64755e-06 -2.87725e-06 -0.000472862
0.00226825 -0.000169468 -2.1825e-06
-0.000169468 -0.000256489 3.39683e-06
-2.1825e-06 3.39683e-06 -0.000122709
0.00242387 -0.000515969 9.17583e-07
-0.000515969 -0.000241155 3.73569e-06
9.17583e-07 3.73569e-06 -8.22172e-07
0.00269484 -0.00081728 -6.25133e-06
-0.00081728 0.00012327 -3.54412e-06
-6.25133e-06 -3.54412e-06 8.58416e-05
0.00266373 -0.00104028 1.16068e-05
-0.00104028 0.000366458 -2.95996e-06
1.16068e-05 -2.95996e-06 9.54419e-05
0.000968525 -0.00074843 -3.57487e-06
-0.00074843 0.000170808 -1.595e-05
-3.57487e-06 -1.595e-05 -0.000364438
0.00346402 -0.00128419 -1.34296e-05
-0.00128419 0.00118469 3.70735e-06
-1.34296e-05 3.70735e-06 0.000557125
0.000212795 6.26969e-05 -3.14816e-06
6.26969e-05 -0.000115057 -5.33252e-06
-3.14816e-06 -5.33252e-06 -0.00022598
0.000466708 -5.13195e-05 5.49015e-06
-5.13195e-05 4.87704e-05 5.25798e-08
5.49015e-06 5.25798e-08 -4.88723e-05
0.0014808 -0.000202815 -5.18961e-06
-0.000202815 0.000648814 1.74207e-05
-5.18961e-06 1.74207e-05 0.000515189
0.000339148 1.56938e-05 -4.42211e-06
1.56938e-05 -1.4724e-05 4.23901e-06
-4.42211e-06 4.23901e-06 -0.000197178
0.000927463 -0.000150571 -6.13945e-06
-0.000150571 0.000396746 1.02064e-05
-6.13945e-06 1.02064e-05 0.000107831
0.00137827 -0.000102185 1.14271e-05
-0.000102185 0.000557797 -1.80637e-05
1.14271e-05 -1.80637e-05 0.000278021
-0.00162026 -0.000307993 -3.66049e-06
-0.000307993 -0.000731908 -3.12189e-06
-3.66049e-06 -3.12189e-06 -0.00166019
0.00072586 -0.000735575 -5.28572e-05
-0.000735575 -1.59268e-05 3.0555e-05
-5.28572e-05 3.0555e-05 -0.000398087
0.000294413 0.000143164 -4.68737e-07
0.000143164 1.10883e-05 -1.87113e-06
-4.68737e-07 -1.87113e-06 -0.000231203
0.00234377 0.000436547 -1.47226e-05
0.000436547 0.00129318 -8.09346e-06
-1.47226e-05 -8.09346e-06 0.000950193
0.00245577 0.000537817 -6.5675e-06
0.000537817 -0.000157382 -1.10712e-06
-6.5675e-06 -1.10712e-06 -7.65789e-05
0.00266147 0.000733738 -7.4089e-06
0.000733738 0.000353199 -7.9827e-07
-7.4089e-06 -7.9827e-07 0.000119699
0.00282323 0.000505913 -6.57224e-06
0.000505913 0.00119751 1.07585e-06
-6.57224e-06 1.07585e-06 0.000894077
0.0014904 0.000628835 -8.35719e-06
0.000628835 0.000411566 -2.48674e-06
-8.35719e-06 -2.48674e-06 -4.08792e-05
0.00218035 0.00080883 -6.50027e-06
0.00080883 0.000328622 2.25903e-06
-6.50027e-06 2.25903e-06 -5.54392e-05
0.00239099 0.000931897 -8.80128e-06
0.000931897 0.000717151 -5.95744e-07
-8.80128e-06 -5.95744e-07 0.000190502
0.000161235 0.000143402 1.79687e-06
0.000143402 -5.28877e-05 -7.70691e-07
1.79687e-06 -7.70691e-07 -0.000283962
0.00248415 0.000397876 -1.67554e-06
0.000397876 -0.000147695 -2.34463e-06
-1.67554e-06 -2.34463e-06 -3.3588e-05
0.00147619 0.000416863 2.40887e-06
0.000416863 0.000725927 3.70102e-06
2.40887e-06 3.70102e-06 0.000380551
0.00158006 0.000618357 2.62713e-06
0.000618357 0.000437558 1.8639e-06
2.62713e-06 1.8639e-06 1.25689e-05
0.00267272 0.000693997 1.03403e-06
0.000693997 0.000170774 5.60966e-08
1.03403e-06 5.60966e-08 0.000135974
0.0018617 0.000833436 -2.06598e-06
0.000833436 2.31878e-05 -5.18062e-06
-2.06598e-06 -5.18062e-06 -0.000353015
0.00233248 0.000941044 -5.49662e-07
0.000941044 0.00065428 -2.47996e-07
-5.49662e-07 -2.47996e-07 0.000117957
0.00165362 0.000377391 -3.4374e-06
0.000377391 0.000994396 -1.43678e-06
-3.4374e-06 -1.43678e-06 0.000681127
0.00380642 0.000631729 -8.69634e-05
0.000631729 0.000599803 -2.59601e-05
-8.69634e-05 -2.59601e-05 0.000813506
0.00062837 0.000502421 -1.03873e-05
0.000502421 0.000157363 7.37596e-06
-1.03873e-05 7.37596e-06 -0.0002369
0.00145239 0.000692874 -5.2557e-06
0.000692874 0.000311346 -9.65471e-06
-5.2557e-06 -9.65471e-06 -0.000172951
0.00269458 0.000936537 -3.51715e-05
0.000936537 0.00034015 -2.2096e-05
-3.51715e-05 -2.2096e-05 9.11748e-05
0.0012191 0.000818474 -2.65184e-05
0.000818474 -1.01579e-05 -4.02099e-06
-2.65184e-05 -4.02099e-06 -0.000493793
0.000877315 0.00110016 3.15599e-05
0.00110016 -0.00197919 -4.55462e-05
3.15599e-05 -4.55462e-05 -0.00132454
0.000120331 0.00015761 5.95851e-06
0.00015761 -8.80593e-05 1.41073e-06
5.95851e-06 1.41073e-06 -0.000216044
0.000436412 0.000125153 3.2239e-06
0.000125153 0.000132081 2.23061e-06
3.2239e-06 2.23061e-06 3.94143e-05
0.00102472 0.000151052 1.81741e-06
0.000151052 0.000469936 -1.86607e-07
1.81741e-06 -1.86607e-07 0.000387887
0.000380604 -6.59755e-05 1.3379e-06
-6.59755e-05 1.16455e-05 -4.68427e-06
1.3379e-06 -4.68427e-06 -0.000121031
0.000297215 -2.40091e-05 -5.34931e-07
-2.40091e-05 -3.39957e-06 -2.5778e-06
-5.34931e-07 -2.5778e-06 -0.000174548
0.0014176 0.000238074 -3.14086e-07
0.000238074 0.000712769 -5.38177e-07
-3.14086e-07 -5.38177e-07 0.00051841
-0.000453553 4.57829e-05 -7.50807e-06
4.57829e-05 -0.000493429 1.78317e-05
-7.50807e-06 1.78317e-05 -0.000562302
0.000494639 -1.73395e-05 -2.00679e-07
-1.73395e-05 8.27266e-05 -2.17338e-07
-2.00679e-07 -2.17338e-07 -5.77614e-05
0.000413626 8.13768e-05 2.23158e-07
8.13768e-05 2.90652e-05 -7.1878e-07
2.23158e-07 -7.1878e-07 -0.000130685
0.000969938 0.000142282 3.50225e-06
0.000142282 0.000336587 4.16119e-06
3.50225e-06 4.16119e-06 0.000290897
0.00036139 7.92511e-05 1.49368e-06
7.92511e-05 2.83861e-05 7.42818e-07
1.49368e-06 7.42818e-07 -0.000145763
0.000632008 7.68464e-05 -4.24756e-07
7.68464e-05 0.00015808 -2.14533e-06
-4.24756e-07 -2.14533e-06 5.11272e-05
0.00128868 0.000150368 -3.79202e-06
0.000150368 0.00059185 -1.43912e-05
-3.79202e-06 -1.43912e-05 0.000527091
0.000821775 0.0001577 -2.79852e-06
0.0001577 0.000251279 -3.55674e-06
-2.79852e-06 -3.55674e-06 0.000100734
0.000956261 0.000144287 1.8772e-06
0.000144287 0.000395569 2.75082e-06
1.8772e-06 2.75082e-06 0.000208921
0.000895076 0.000121051 -6.93544e-07
0.000121051 0.000352145 1.27062e-06
-6.93544e-07 1.27062e-06 0.000163844
0.000206705 -2.50557e-05 -1.75386e-06
-2.50557e-05 -0.000124841 1.64362e-06
-1.75386e-06 1.64362e-06 -0.00025795
0.0013121 -0.000115849 1.08882e-06
-0.000115849 0.000680125 -1.88913e-06
1.08882e-06 -1.88913e-06 0.000458156
9.45688e-05 -5.15349e-05 -6.37194e-07
-5.15349e-05 -0.000188727 3.51979e-06
-6.37194e-07 3.51979e-06 -0.000326939
0.000416321 2.44333e-06 -2.14614e-06
2.44333e-06 5.56139e-06 2.89437e-06
-2.14614e-06 2.89437e-06 -8.58334e-05
0.000440703 4.13159e-05 2.52112e-06
4.13159e-05 1.94721e-05 -1.1247e-07
2.52112e-06 -1.1247e-07 -7.08004e-05
0.000351655 2.10167e-05 -1.12864e-06
2.10167e-05 -6.50393e-05 4.80018e-06
-1.12864e-06 4.80018e-06 -9.17851e-05
0.000384949 3.18716e-06 -1.79076e-06
3.18716e-06 -1.48936e-05 -4.13419e-06
-1.79076e-06 -4.13419e-06 -0.00010314
0.000869725 1.69386e-05 -4.06017e-06
1.69386e-05 0.000259898 -1.5186e-06
-4.06017e-06 -1.5186e-06 0.000235934
0.00266497 7.56257e-08 2.4639e-05
7.56257e-08 0.00138967 5.78853e-06
2.4639e-05 5.78853e-06 0.00140193
0.00141907 3.79865e-05 -1.37526e-05
3.79865e-05 0.000604735 -7.45057e-06
-1.37526e-05 -7.45057e-06 0.000582372
0.00076452 -7.85683e-06 9.52921e-06
-7.85683e-06 0.000173991 3.60934e-06
9.52921e-06 3.60934e-06 0.000177307
0.000825806 -2.02622e-05 1.02904e-06
-2.02622e-05 0.000204103 -2.95818e-06
1.02904e-06 -2.95818e-06 0.00020654
0.00045005 1.25828e-05 -2.26116e-06
1.25828e-05 3.72703e-06 -2.85267e-06
-2.26116e-06 -2.85267e-06 -5.34212e-05
0.000539546 -3.43907e-05 6.69909e-07
-3.43907e-05 5.68561e-05 -3.50267e-07
6.69909e-07 -3.50267e-07 -2.63302e-06
0.00046502 2.35273e-05 2.23457e-07
2.35273e-05 -1.84217e-05 -3.82099e-06
2.23457e-07 -3.82099e-06 -3.60765e-05
0.000792891 4.40027e-05 6.70079e-09
4.40027e-05 0.000200457 1.65539e-07
6.70079e-09 1.65539e-07 0.000178582
0.00233086 8.06916e-05 5.74627e-06
8.06916e-05 0.00118967 -5.00331e-06
5.74627e-06 -5.00331e-06 0.00119582
0.000465772 6.42884e-05 5.79597e-06
6.42884e-05 1.22029e-05 6.69727e-06
5.79597e-06 6.69727e-06 -2.56551e-05
0.00258174 0.000111236 -2.66579e-06
0.000111236 0.00136085 -2.71048e-07
-2.66579e-06 -2.71048e-07 0.0013595
0.00304243 0.000144087 7.53283e-06
0.000144087 0.00166602 8.08738e-06
7.53283e-06 8.08738e-06 0.00165571
0.00228689 0.000345297 1.16658e-06
0.000345297 -0.00010635 1.37108e-06
1.16658e-06 1.37108e-06 -4.26013e-05
0.00225003 0.000109254 5.64323e-06
0.000109254 -7.45439e-05 3.65782e-08
5.64323e-06 3.65782e-08 1.17609e-05
0.00213181 -7.591e-06 1.36639e-06
-7.591e-06 -4.46418e-05 -2.2044e-07
1.36639e-06 -2.2044e-07 2.82813e-06
0.00222171 -6.95061e-06 2.90666e-08
-6.95061e-06 -0.000107224 -4.03447e-07
2.90666e-08 -4.03447e-07 -5.90804e-06
0.00246046 0.000176179 3.79591e-07
0.000176179 -8.65803e-05 4.34607e-07
3.79591e-07 4.34607e-07 1.81663e-05
0.00254367 0.000112774 7.83792e-06
0.000112774 -4.78882e-06 -6.39901e-06
7.83792e-06 -6.39901e-06 9.5213e-05
0.00256898 9.36046e-06 -7.73993e-06
9.36046e-06 -0.000115762 -2.62747e-06
-7.73993e-06 -2.62747e-06 3.93418e-05
0.00489904 0.00112719 7.75527e-05
0.00112719 -0.000784968 1.17485e-05
7.75527e-05 1.17485e-05 0.000211727
0.00302959 9.84255e-05 -2.41549e-05
9.84255e-05 0.00043608 2.93172e-05
-2.41549e-05 2.93172e-05 0.000693169
0.000480424 0.000117919 -3.1685e-06
0.000117919 6.22434e-05 -1.64366e-06
-3.1685e-06 -1.64366e-06 -4.34993e-05
0.00225792 -0.000145849 3.07939e-06
-0.000145849 -9.33842e-05 -2.10057e-06
3.07939e-06 -2.10057e-06 3.28374e-06
0.00236545 -0.00038571 1.88325e-06
-0.00038571 -9.19887e-05 -1.40256e-06
1.88325e-06 -1.40256e-06 6.34101e-07
0.00232511 -0.000566022 -1.15959e-07
-0.000566022 -2.02508e-05 7.72282e-07
-1.15959e-07 7.72282e-07 3.69022e-06
0.00161213 -0.000785911 2.08475e-07
-0.000785911 0.000490138 9.5441e-06
2.08475e-07 9.5441e-06 -2.4188e-05
0.00228533 -0.00102502 3.61822e-05
-0.00102502 0.000654685 7.56829e-06
3.61822e-05 7.56829e-06 7.50768e-05
0.00147324 -0.000858673 1.34637e-06
-0.000858673 -6.68521e-05 1.14992e-06
1.34637e-06 1.14992e-06 -0.000449442
0.00238117 -0.000798574 2.01041e-07
-0.000798574 0.000108517 2.30339e-07
2.01041e-07 2.30339e-07 -3.20901e-05
0.00143008 -0.00058618 3.70085e-05
-0.00058618 0.000426053 -4.35731e-05
3.70085e-05 -4.35731e-05 3.04811e-05
0.00197909 -0.000561707 1.67998e-05
-0.000561707 0.000978742 -4.9311e-05
1.67998e-05 -4.9311e-05 0.000375958
0.000885089 -0.00013155 5.05861e-06
-0.00013155 0.000224972 1.05645e-05
5.05861e-06 1.05645e-05 -0.000128709
0.00046257 9.83371e-06 2.95352e-06
9.83371e-06 1.17615e-05 1.56048e-06
2.95352e-06 1.56048e-06 -5.20632e-05
0.00145711 -0.000173043 1.51306e-06
-0.000173043 0.000711621 9.9664e-06
1.51306e-06 9.9664e-06 0.000371645
0.00091831 -3.25886e-05 8.07438e-06
-3.25886e-05 0.0003942 -9.41128e-07
8.07438e-06 -9.41128e-07 0.000248105
0.00048339 -5.92247e-05 3.37918e-06
-5.92247e-05 0.00010905 -2.79741e-06
3.37918e-06 -2.79741e-06 -0.000136729
-1.0932e-05 -4.32786e-05 -4.36262e-06
-4.32786e-05 -0.000271179 -1.47217e-07
-4.36262e-06 -1.47217e-07 -0.000368929
0.00236765 -0.000190752 5.94269e-08
-0.000190752 -0.000223362 7.68262e-07
5.94269e-08 7.68262e-07 -6.23889e-05
0.000323177 3.48997e-05 6.06901e-07
3.48997e-05 -3.29389e-05 -2.77874e-06
6.06901e-07 -2.77874e-06 -0.000148554
0.000608844 -7.40289e-05 3.16404e-06
-7.40289e-05 0.000163322 1.23933e-06
3.16404e-06 1.23933e-06 5.07818e-05
0.00108191 -0.000158867 6.70377e-06
-0.000158867 0.000398869 -6.2396e-07
6.70377e-06 -6.2396e-07 0.00028128
0.00241882 -0.000531516 2.1812e-06
-0.000531516 -0.000228282 -9.91896e-07
2.1812e-06 -9.91896e-07 -2.74809e-05
0.00256993 -0.000805163 1.8026e-07
-0.000805163 5.53821e-05 2.78014e-07
1.8026e-07 2.78014e-07 2.25248e-05
0.000695571 -0.000627727 6.79001e-06
-0.000627727 -1.19435e-05 1.19917e-07
6.79001e-06 1.19917e-07 -0.000465578
0.00272639 -0.0011993 1.92977e-05
-0.0011993 0.000755273 1.28902e-06
1.92977e-05 1.28902e-06 0.000159365
0.00258116 -0.00104173 -3.4578e-07
-0.00104173 0.000332728 2.05081e-06
-3.4578e-07 2.05081e-06 5.17879e-05
0.000253551 -2.52607e-05 -2.74387e-07
-2.52607e-05 -6.93154e-05 4.2467e-07
-2.74387e-07 4.2467e-07 -0.000244483
0.00120405 -0.000159451 9.53132e-07
-0.000159451 0.000593148 3.57646e-06
9.53132e-07 3.57646e-06 0.000279933
0.00201182 -0.000901987 -1.2881e-06
-0.000901987 0.000747693 2.45641e-06
-1.2881e-06 2.45641e-06 0.000246611
0.000675179 -0.000329942 -6.63953e-07
-0.000329942 0.000369503 5.50523e-06
-6.63953e-07 5.50523e-06 -0.000338033
0.00100843 -0.000148072 1.64705e-06
-0.000148072 0.000326364 7.44427e-06
1.64705e-06 7.44427e-06 4.31282e-05
0.00278819 -0.00037073 -9.92976e-06
-0.00037073 3.13625e-06 9.45392e-06
-9.92976e-06 9.45392e-06 0.000191513
0.00216791 -0.000595528 -1.25578e-05
-0.000595528 -0.000352894 7.42527e-06
-1.25578e-05 7.42527e-06 -7.40809e-05
0.00235623 -0.00094168 -1.24595e-05
-0.00094168 7.60036e-05 -5.8525e-06
-1.24595e-05 -5.8525e-06 -0.000121894
0.00472812 -0.00141917 1.86012e-06
-0.00141917 0.00167518 3.02981e-06
1.86012e-06 3.02981e-06 0.00125349
-0.000326978 -0.000717168 -1.46625e-05
-0.000717168 -0.000669126 5.78397e-06
-1.46625e-05 5.78397e-06 -0.00114109
-5.12339e-05 -2.89309e-05 8.21619e-07
-2.89309e-05 -0.000267626 2.82507e-06
8.21619e-07 2.82507e-06 -0.000382902
0.00101567 -1.70772e-05 -5.2984e-06
-1.70772e-05 0.000308219 1.66292e-05
-5.2984e-06 1.66292e-05 0.000190844
-0.0012654 -0.000183756 -7.47782e-06
-0.000183756 -0.00107085 1.23757e-06
-7.47782e-06 1.23757e-06 -0.00116373
0.00206587 -0.000327314 -3.55859e-05
-0.000327314 0.00108878 3.20944e-05
-3.55859e-05 3.20944e-05 0.000832119
0.0010272 -0.000150332 -4.98653e-06
-0.000150332 0.000460325 2.9535e-05
-4.98653e-06 2.9535e-05 0.000176824
-0.00191611 -0.000110185 6.01712e-06
-0.000110185 -0.000758576 -3.52494e-07
6.01712e-06 -3.52494e-07 -0.00157315
0.000713817 -0.000950932 -1.6805e-05
-0.000950932 0.000336011 -3.50761e-07
-1.6805e-05 -3.50761e-07 -0.000398708
0.00176557 0.000394128 -2.88257e-06
0.000394128 0.000956697 -4.54295e-06
-2.88257e-06 -4.54295e-06 0.000684916
1.81053e-05 0.000209919 -4.08767e-06
0.000209919 -0.000171616 -2.14086e-06
-4.08767e-06 -2.14086e-06 -0.00045726
0.00264679 0.000375561 5.33786e-06
0.000375561 -4.97933e-05 3.70155e-06
5.33786e-06 3.70155e-06 8.0213e-05
0.00275113 0.000682719 1.27348e-05
0.000682719 0.000233506 7.58747e-06
1.27348e-05 7.58747e-06 0.000199955
0.00229785 0.00087941 5.48838e-06
0.00087941 0.000284345 3.53561e-06
5.48838e-06 3.53561e-06 -9.76997e-05
0.00153975 0.000602957 -2.79439e-06
0.000602957 0.000445636 3.00089e-06
-2.79439e-06 3.00089e-06 2.48317e-05
0.00174357 0.000850778 1.56924e-06
0.000850778 0.000337029 4.19546e-06
1.56924e-06 4.19546e-06 -0.000179287
0.00231917 0.000426764 5.09744e-07
0.000426764 0.00133487 -4.90453e-07
5.09744e-07 -4.90453e-07 0.00106081
0.00294391 0.000506453 8.78942e-06
0.000506453 0.000138119 4.31639e-06
8.78942e-06 4.31639e-06 0.000398529
0.000927824 0.000457709 -5.32909e-06
0.000457709 0.000305168 5.23001e-06
-5.32909e-06 5.23001e-06 -4.56696e-05
0.00171322 0.000734787 3.22035e-06
0.000734787 0.000504736 -1.59494e-06
3.22035e-06 -1.59494e-06 -2.57298e-06
0.00257932 0.000908658 -2.72069e-06
0.000908658 0.000299734 -3.91349e-06
-2.72069e-06 -3.91349e-06 7.67401e-05
0.00194165 0.000914806 -4.69771e-06
0.000914806 0.000396575 5.94491e-06
-4.69771e-06 5.94491e-06 -0.000110988
0.00293162 0.00142264 3.59831e-05
0.00142264 -0.00117848 9.28206e-06
3.59831e-05 9.28206e-06 -0.000710079
0.000219516 0.000314049 2.17864e-06
0.000314049 0.00016112 1.17245e-06
2.17864e-06 1.17245e-06 -0.000149619
0.00287179 0.000930904 -8.62044e-05
0.000930904 0.000220994 -4.34552e-05
-8.62044e-05 -4.34552e-05 0.000198366
0.000331236 0.000446791 -1.22353e-05
0.000446791 -0.000253596 5.088e-06
-1.22353e-05 5.088e-06 -0.000625236
7.02186e-05 0.000586062 -4.59588e-06
0.000586062 -0.000477195 -1.9689e-05
-4.59588e-06 -1.9689e-05 -0.000942015
0.00181158 0.00102995 -4.42898e-05
0.00102995 7.82497e-05 -1.92249e-05
-4.42898e-05 -1.92249e-05 -0.00026468
0.0155034 0.000593574 -0.000645438
0.000593574 0.0017976 -0.000100852
-0.000645438 -0.000100852 0.00173983
0.00305168 0.00218695 -8.36821e-05
0.00218695 -0.0030434 -7.94553e-05
-8.36821e-05 -7.94553e-05 -0.000932612
0.0011805 0.0017148 2.3544e-05
0.0017148 -0.00068249 -2.02773e-06
2.3544e-05 -2.02773e-06 -0.000914965
0.00454049 -0.00312941 0.00210762
-0.00312941 0.00268072 0.000332936
0.00210762 0.000332936 -0.00186167
0.026638 -0.0112765 -4.76616e-05
-0.0112765 0.0122537 7.42519e-05
-4.76616e-05 7.42519e-05 0.00685134
0.000642599 0.000154936 6.87391e-06
0.000154936 0.000279369 4.89936e-06
6.87391e-06 4.89936e-06 0.00017442
0.000947292 0.000142611 -2.48404e-06
0.000142611 0.000459119 -2.52956e-06
-2.48404e-06 -2.52956e-06 0.000362673
0.00135012 0.000258797 4.91168e-06
0.000258797 0.000726583 -1.27012e-06
4.91168e-06 -1.27012e-06 0.000585672
0.00050148 -6.06438e-05 3.86484e-07
-6.06438e-05 9.7621e-05 -2.95527e-06
3.86484e-07 -2.95527e-06 -4.90343e-05
0.000379721 6.90794e-05 -3.8816e-07
6.90794e-05 1.251e-05 -3.73564e-06
-3.8816e-07 -3.73564e-06 -0.000146755
0.000680841 -1.14631e-05 -7.73012e-07
-1.14631e-05 0.000230167 -2.2215e-06
-7.73012e-07 -2.2215e-06 5.48836e-05
0.00105381 0.000103712 -1.22785e-06
0.000103712 0.000409133 1.09794e-05
-1.22785e-06 1.09794e-05 0.000296011
0.000192576 0.00010463 3.95949e-06
0.00010463 -0.000147149 1.03025e-05
3.95949e-06 1.03025e-05 -0.000185569
0.000797907 0.000166625 -1.34353e-06
0.000166625 0.000336168 1.97058e-08
-1.34353e-06 1.97058e-08 0.000126102
0.000393377 -1.96144e-05 3.00229e-07
-1.96144e-05 4.18721e-06 1.14665e-06
3.00229e-07 1.14665e-06 -0.000135826
0.000693678 6.75024e-05 -8.69177e-07
6.75024e-05 0.000217634 9.32995e-08
-8.69177e-07 9.32995e-08 3.71218e-05
0.00028536 0.000107291 -1.9024e-06
0.000107291 -4.7434e-05 -3.30898e-06
-1.9024e-06 -3.30898e-06 -0.000106875
0.000736076 0.000136977 -1.54562e-06
0.000136977 0.000219478 -3.50425e-07
-1.54562e-06 -3.50425e-07 7.07019e-05
0.00223942 0.00027672 -1.31158e-06
0.00027672 0.00121336 -5.57729e-07
-1.31158e-06 -5.57729e-07 0.000999319
0.000182268 0.000106858 -1.00193e-06
0.000106858 -1.16662e-05 -5.70919e-06
-1.00193e-06 -5.70919e-06 -0.00019391
0.000891564 0.000105504 3.32733e-06
0.000105504 0.000377448 -3.08613e-07
3.32733e-06 -3.08613e-07 0.000185123
0.000145037 4.69009e-06 -2.03722e-07
4.69009e-06 -0.000155429 -3.352e-07
-2.03722e-07 -3.352e-07 -0.000327889
0.000299429 -7.36923e-05 -5.88986e-07
-7.36923e-05 -5.32166e-05 -9.10516e-08
-5.88986e-07 -9.10516e-08 -0.000193686
0.000401696 -2.43731e-05 -3.98754e-07
-2.43731e-05 2.96492e-05 -2.07669e-06
-3.98754e-07 -2.07669e-06 -0.000140925
0.00137116 -6.4661e-05 1.76022e-06
-6.4661e-05 0.000630505 -1.20577e-05
1.76022e-06 -1.20577e-05 0.000464943
0.000880075 -5.6901e-05 -1.82458e-06
-5.6901e-05 0.000384044 -1.63449e-06
-1.82458e-06 -1.63449e-06 0.000202132
0.000748402 -9.87316e-05 1.96261e-06
-9.87316e-05 0.000275795 -8.82734e-07
1.96261e-06 -8.82734e-07 8.94288e-05
0.000598322 -0.000129157 -1.49039e-06
-0.000129157 0.000145962 4.69274e-06
-1.49039e-06 4.69274e-06 -1.28237e-06
0.000199233 -2.84856e-05 2.04431e-07
-2.84856e-05 -0.000115092 9.90545e-07
2.04431e-07 9.90545e-07 -0.000259224
0.000496477 -6.63251e-05 -1.63789e-06
-6.63251e-05 4.69543e-05 3.78986e-06
-1.63789e-06 3.78986e-06 -3.8863e-05
0.000492369 -4.49103e-05 2.08552e-06
-4.49103e-05 5.15848e-05 1.22214e-07
2.08552e-06 1.22214e-07 -3.88067e-05
0.000402681 1.25266e-06 3.56701e-06
1.25266e-06 -2.87795e-05 6.63316e-06
3.56701e-06 6.63316e-06 -5.72903e-05
0.000474886 5.97045e-05 -1.489e-06
5.97045e-05 3.43025e-05 -3.43071e-06
-1.489e-06 -3.43071e-06 -5.11861e-05
0.00037292 3.16484e-05 4.4719e-07
3.16484e-05 -5.00273e-05 9.95116e-08
4.4719e-07 9.95116e-08 -7.74393e-05
0.00258824 8.75187e-06 1.05138e-05
8.75187e-06 0.00134258 5.52092e-06
1.05138e-05 5.52092e-06 0.00135428
0.000424588 5.25769e-05 -4.3878e-06
5.25769e-05 -1.85277e-05 -7.8943e-06
-4.3878e-06 -7.8943e-06 -4.83654e-05
0.00170887 -2.65796e-06 -6.58895e-06
-2.65796e-06 0.00077962 1.72481e-07
-6.58895e-06 1.72481e-07 0.000786621
0.000806499 -9.57753e-06 6.58976e-07
-9.57753e-06 0.000195762 -2.44253e-06
6.58976e-07 -2.44253e-06 0.000198974
0.000397375 1.49046e-05 -4.55888e-07
1.49046e-05 -3.78694e-05 -2.07736e-06
-4.55888e-07 -2.07736e-06 -8.36838e-05
0.00050284 -4.25432e-05 1.71685e-07
-4.25432e-05 4.10905e-05 9.24534e-08
1.71685e-07 9.24534e-08 -1.83722e-05
0.000497643 1.06215e-05 1.42503e-06
1.06215e-05 -1.57492e-06 -3.5327e-06
1.42503e-06 -3.5327e-06 -1.51501e-05
0.000474435 -4.75908e-05 -1.14395e-06
-4.75908e-05 1.65667e-05 4.97137e-07
-1.14395e-06 4.97137e-07 -4.38121e-05
0.000791872 2.9091e-05 -9.6473e-08
2.9091e-05 0.000191003 -7.81572e-07
-9.6473e-08 -7.81572e-07 0.000175588
0.00208255 5.84573e-05 3.54871e-06
5.84573e-05 0.0010234 -4.90975e-06
3.54871e-06 -4.90975e-06 0.00103476
0.000443695 3.63712e-05 1.39731e-06
3.63712e-05 -2.34071e-05 4.53691e-06
1.39731e-06 4.53691e-06 -4.78426e-05
0.0024843 8.86268e-05 -4.33856e-06
8.86268e-05 0.00129159 1.33512e-06
-4.33856e-06 1.33512e-06 0.00129573
0.0027317 0.000121976 9.7873e-06
0.000121976 0.00146004 7.28298e-06
9.7873e-06 7.28298e-06 0.00145639
0.00239534 0.000186258 2.8943e-06
0.000186258 -0.000110612 2.5726e-07
2.8943e-06 2.5726e-07 -6.47305e-06
0.00221752 -4.15318e-06 4.57494e-06
-4.15318e-06 -0.000107787 -9.31865e-07
4.57494e-06 -9.31865e-07 -7.15346e-06
0.00226529 8.00676e-05 -3.99885e-06
8.00676e-05 -0.000206176 6.60563e-06
-3.99885e-06 6.60563e-06 -0.000105825
0.0026402 0.000860768 0.000112727
0.000860768 -0.00195963 2.71481e-05
0.000112727 2.71481e-05 -0.000853307
0.00252261 -2.51277e-05 -4.62895e-08
-2.51277e-05 -0.000121025 -2.33558e-06
-4.62895e-08 -2.33558e-06 3.19499e-05
0.00246787 8.42501e-05 -3.76516e-06
8.42501e-05 8.68124e-05 -8.94563e-06
-3.76516e-06 -8.94563e-06 0.000280736
0.00260045 -5.25958e-05 -3.13636e-05
-5.25958e-05 0.000249831 -4.08496e-06
-3.13636e-05 -4.08496e-06 0.000330043
0.00333457 0.000399999 -5.02548e-05
0.000399999 -0.00232129 -4.84681e-05
-5.02548e-05 -4.84681e-05 -0.000810498
0.00258233 0.000288525 0.000149633
0.000288525 -0.0011215 6.0837e-05
0.000149633 6.0837e-05 -0.000463258
0.000579075 9.32917e-05 4.99173e-07
9.32917e-05 0.000127341 -1.47545e-06
4.99173e-07 -1.47545e-06 2.32004e-05
0.000571617 -4.04902e-06 -5.01692e-08
-4.04902e-06 0.000135055 -1.5198e-07
-5.01692e-08 -1.5198e-07 2.01375e-05
0.000289927 -9.4079e-05 -6.60229e-06
-9.4079e-05 -3.61189e-05 2.6019e-06
-6.60229e-06 2.6019e-06 -0.000159499
0.000336232 -4.97419e-05 -3.67598e-06
-4.97419e-05 -4.79244e-07 1.64002e-06
-3.67598e-06 1.64002e-06 -0.000126567
0.00242577 -0.000210161 -1.20704e-06
-0.000210161 -0.000210173 -5.51658e-06
-1.20704e-06 -5.51658e-06 -3.04493e-05
0.00239409 -0.000539208 -1.54089e-06
-0.000539208 -0.00021505 -2.49183e-06
-1.54089e-06 -2.49183e-06 -5.58448e-05
0.00248304 -0.00079562 -2.34778e-08
-0.00079562 1.24634e-05 2.00264e-06
-2.34778e-08 2.00264e-06 -2.16699e-05
0.00414312 -0.00102604 2.53018e-05
-0.00102604 0.00196187 9.60677e-06
2.53018e-05 9.60677e-06 0.00143017
0.000622128 -0.00096996 -5.85454e-06
-0.00096996 -0.000440809 4.22301e-06
-5.85454e-06 4.22301e-06 -0.000983696
0.00249091 -0.00104462 -1.383e-06
-0.00104462 0.000294321 -3.51977e-06
-1.383e-06 -3.51977e-06 2.39449e-06
0.000187196 -0.000728053 1.31434e-05
-0.000728053 -0.000294553 -2.46898e-05
1.31434e-05 -2.46898e-05 -0.000843798
0.0034989 -0.000413738 1.39094e-05
-0.000413738 0.00168521 -5.21689e-06
1.39094e-05 -5.21689e-06 0.00124943
-2.72298e-05 -9.67076e-05 -6.40575e-06
-9.67076e-05 -0.000323599 8.72376e-06
-6.40575e-06 8.72376e-06 -0.000590288
0.000671956 -7.48151e-05 3.98336e-06
-7.48151e-05 0.000202557 -2.82878e-07
3.98336e-06 -2.82878e-07 9.01155e-05
0.000579453 -0.000135842 -8.31721e-06
-0.000135842 0.000226166 -1.34599e-05
-8.31721e-06 -1.34599e-05 -9.46442e-05
0.000526286 -2.83947e-05 5.51879e-06
-2.83947e-05 0.0001063 -1.08898e-06
5.51879e-06 -1.08898e-06 -6.67686e-05
0.000535863 -2.22872e-06 5.80989e-07
-2.22872e-06 0.000127917 2.14801e-06
5.80989e-07 2.14801e-06 1.53473e-09
0.000698015 -8.37078e-05 -1.03411e-05
-8.37078e-05 0.000154874 1.34193e-06
-1.03411e-05 1.34193e-06 5.47748e-05
0.00271762 -0.00034946 2.23316e-06
-0.00034946 -2.41771e-05 1.40327e-06
2.23316e-06 1.40327e-06 0.000177944
0.00042737 -3.39645e-05 -9.39667e-07
-3.39645e-05 5.73636e-05 3.11302e-06
-9.39667e-07 3.11302e-06 -8.15384e-05
0.00081129 -6.51074e-05 8.50956e-06
-6.51074e-05 0.000198998 -1.04496e-06
8.50956e-06 -1.04496e-06 7.56108e-05
-0.00109585 -5.76252e-05 8.59331e-06
-5.76252e-05 -0.000888802 -1.2313e-06
8.59331e-06 -1.2313e-06 -0.000953586
0.0021859 -0.000613268 5.55321e-07
-0.000613268 -0.000357236 -1.14276e-06
5.55321e-07 -1.14276e-06 -0.000106295
0.00240639 -0.00095292 2.49464e-06
-0.00095292 9.95381e-05 -1.39047e-06
2.49464e-06 -1.39047e-06 -9.97295e-05
0.00199754 -0.00104161 -9.9426e-06
-0.00104161 0.000626221 5.57686e-07
-9.9426e-06 5.57686e-07 8.52306e-05
0.00286572 -0.00122102 -4.67873e-06
-0.00122102 0.000659272 9.72405e-07
-4.67873e-06 9.72405e-07 0.000263997
0.00157638 -0.000188232 8.33414e-06
-0.000188232 0.00078656 -4.7376e-06
8.33414e-06 -4.7376e-06 0.000525053
-0.000434127 -4.42055e-05 6.4685e-06
-4.42055e-05 -0.000464368 8.26785e-06
6.4685e-06 8.26785e-06 -0.000753871
0.00183176 -0.00121725 -4.49305e-07
-0.00121725 0.00103932 -1.58164e-06
-4.49305e-07 -1.58164e-06 0.000206648
0.00183104 -0.000528944 -1.07102e-05
-0.000528944 0.000967746 -1.0908e-06
-1.07102e-05 -1.0908e-06 0.000400614
0.00367334 -0.000516373 -5.07816e-05
-0.000516373 0.000492004 1.61735e-05
-5.07816e-05 1.61735e-05 0.000793898
0.00279932 -0.000797461 -3.7609e-05
-0.000797461 0.000223351 1.30511e-05
-3.7609e-05 1.30511e-05 0.000293079
0.00267752 -0.00109164 -3.64193e-07
-0.00109164 0.000477397 -1.8825e-05
-3.64193e-07 -1.8825e-05 9.67901e-05
0.00304436 -0.00123582 1.69768e-05
-0.00123582 0.00099226 2.91213e-05
1.69768e-05 2.91213e-05 0.000588458
-2.39527e-05 -0.000104441 -4.3197e-06
-0.000104441 -0.000107635 -8.81586e-06
-4.3197e-06 -8.81586e-06 -0.000259527
0.000394995 -0.000173367 -1.5104e-05
-0.000173367 3.37855e-05 -2.05025e-06
-1.5104e-05 -2.05025e-06 -0.000198558
3.712e-05 -0.000211343 -6.02972e-06
-0.000211343 0.00013737 6.48079e-05
-6.02972e-06 6.48079e-05 -0.000225936
0.000172363 -0.00101681 -5.71511e-06
-0.00101681 0.0008027 -4.05709e-05
-5.71511e-06 -4.05709e-05 -0.000402714
0.00397609 -0.000454416 7.22107e-05
-0.000454416 -0.00591536 -1.64032e-05
7.22107e-05 -1.64032e-05 -0.00601567
0.00246436 0.000354828 7.09879e-06
0.000354828 0.00140428 -3.15629e-06
7.09879e-06 -3.15629e-06 0.00113641
0.00104388 0.000403678 -5.57427e-07
0.000403678 0.000362204 -2.03568e-06
-5.57427e-07 -2.03568e-06 4.33491e-05
0.00184986 0.00040111 5.37888e-05
0.00040111 -0.00049293 2.00446e-05
5.37888e-05 2.00446e-05 -0.000185455
0.00249638 0.000885383 2.47857e-05
0.000885383 0.000276914 1.19388e-05
2.47857e-05 1.19388e-05 7.69911e-05
0.00252418 0.000990385 1.18472e-05
0.000990385 0.000729552 1.34744e-05
1.18472e-05 1.34744e-05 0.00020174
0.00157755 0.000725819 1.12649e-05
0.000725819 0.000455634 1.10438e-05
1.12649e-05 1.10438e-05 -6.24227e-05
0.00551312 0.00183845 0.000108152
0.00183845 -0.000179129 3.68227e-05
0.000108152 3.68227e-05 7.10332e-05
0.0012067 0.000352675 4.2834e-06
0.000352675 0.000713651 -1.68741e-06
4.2834e-06 -1.68741e-06 0.000424571
0.00285882 0.000896725 -2.40896e-05
0.000896725 0.000187543 1.21128e-06
-2.40896e-05 1.21128e-06 0.000223801
0.00096292 0.0005274 -6.92298e-06
0.0005274 0.000178564 5.07351e-06
-6.92298e-06 5.07351e-06 -0.000223912
0.00162719 0.000810456 7.65627e-07
0.000810456 0.000411792 -7.72288e-06
7.65627e-07 -7.72288e-06 -0.000101757
0.00258671 0.00108959 -1.18977e-05
0.00108959 0.000508287 -1.94228e-07
-1.18977e-05 -1.94228e-07 0.000139528
0.00533438 -0.000557701 -0.000192623
-0.000557701 -0.00558649 -0.000119908
-0.000192623 -0.000119908 -0.00613202
0.00681552 0.00233893 -0.000171347
0.00233893 -0.000991758 -7.14127e-05
-0.000171347 -7.14127e-05 0.000758185
0.0013804 0.00165963 -2.60927e-06
0.00165963 -0.000530558 2.27025e-06
-2.60927e-06 2.27025e-06 -0.000871795
0.00354742 -0.00284294 0.000703004
-0.00284294 0.00376937 0.000250582
0.000703004 0.000250582 0.000182754
0.019596 -0.0118253 -0.000571843
-0.0118253 0.0107602 -0.000509502
-0.000571843 -0.000509502 0.00513629
0.000335384 0.000267691 -1.24698e-05
0.000267691 1.05127e-05 -2.12935e-06
-1.24698e-05 -2.12935e-06 -0.000237854
0.00217162 0.000452369 0.00105494
0.000452369 0.00478469 8.52784e-05
0.00105494 8.52784e-05 0.00259952
0.00594644 -0.00474885 -0.000143574
-0.00474885 0.00759355 -0.000216056
-0.000143574 -0.000216056 0.000646016
0.00355646 0.00145504 -7.2683e-05
0.00145504 0.000717328 -2.48646e-05
-7.2683e-05 -2.48646e-05 0.00045111
0.00051515 0.000431167 -3.19702e-05
0.000431167 -0.00011981 -7.12985e-06
-3.19702e-05 -7.12985e-06 -0.000473486
0.00142358 0.000836523 -4.3916e-05
0.000836523 0.000330119 -3.54408e-05
-4.3916e-05 -3.54408e-05 -0.000104994
-0.000269913 0.00153153 9.82183e-05
0.00153153 -0.00105533 0.000112177
9.82183e-05 0.000112177 -0.00142047
0.0134886 0.00320565 0.000117161
0.00320565 0.000831386 -7.98181e-06
0.000117161 -7.98181e-06 0.000747633
0.00588267 0.00350808 -6.62936e-05
0.00350808 -0.000495114 -7.32716e-05
-6.62936e-05 -7.32716e-05 0.000855652
0.020499 -0.007533 0.00125975
-0.007533 0.0075915 0.000490577
0.00125975 0.000490577 0.00187291
0.0156132 -0.00328843 -0.000188456
-0.00328843 0.00584804 0.000698552
-0.000188456 0.000698552 0.00297683
0.000634064 0.000112868 1.49945e-06
0.000112868 0.000305118 -8.24969e-07
1.49945e-06 -8.24969e-07 0.000193289
0.00031972 0.000169454 6.85561e-06
0.000169454 0.000109694 1.23572e-06
6.85561e-06 1.23572e-06 -2.54684e-05
0.00160305 0.000310623 3.81588e-06
0.000310623 0.000920306 -3.46861e-06
3.81588e-06 -3.46861e-06 0.000700607
0.000592922 -1.36914e-06 1.88688e-06
-1.36914e-06 0.000159225 6.56896e-07
1.88688e-06 6.56896e-07 5.67506e-07
0.000629489 7.48476e-05 4.31635e-07
7.48476e-05 0.00016814 -1.94703e-06
4.31635e-07 -1.94703e-06 -5.63441e-06
-0.000142023 3.75328e-05 -1.51882e-06
3.75328e-05 -0.000285604 1.32386e-06
-1.51882e-06 1.32386e-06 -0.000465743
0.00081571 0.000136281 -6.37791e-06
0.000136281 0.00029302 2.72814e-06
-6.37791e-06 2.72814e-06 0.000138581
-0.000294509 7.81948e-05 -2.97181e-06
7.81948e-05 -0.000431758 2.70762e-06
-2.97181e-06 2.70762e-06 -0.000484807
0.00034137 -1.32588e-05 -3.8424e-07
-1.32588e-05 -2.14154e-05 6.73932e-07
-3.8424e-07 6.73932e-07 -0.000166994
0.00144755 0.000176617 2.88473e-06
0.000176617 0.000690994 1.08332e-06
2.88473e-06 1.08332e-06 0.000495074
0.000467106 6.29251e-05 -4.87488e-07
6.29251e-05 0.000121033 -6.2038e-07
-4.87488e-07 -6.2038e-07 -8.10153e-05
0.000799105 4.31966e-05 1.57653e-06
4.31966e-05 0.00029899 -1.39474e-07
1.57653e-06 -1.39474e-07 0.000100449
5.98903e-05 9.46092e-05 -8.27612e-07
9.46092e-05 -8.45737e-05 -3.41882e-06
-8.27612e-07 -3.41882e-06 -0.000267355
0.00159904 0.000162716 -2.16173e-06
0.000162716 0.000815593 -3.98932e-06
-2.16173e-06 -3.98932e-06 0.000634489
-0.000322465 7.96665e-05 -7.63532e-06
7.96665e-05 -0.000134062 -5.2693e-06
-7.63532e-06 -5.2693e-06 -0.000430737
0.000196387 -5.51436e-05 2.38569e-07
-5.51436e-05 -7.36964e-05 1.78282e-06
2.38569e-07 1.78282e-06 -0.000266109
0.000750142 -8.83007e-05 -2.86775e-06
-8.83007e-05 0.000276473 -1.45514e-06
-2.86775e-06 -1.45514e-06 8.2114e-05
0.000824003 -6.48876e-05 -4.36965e-07
-6.48876e-05 0.000324383 -1.01769e-06
-4.36965e-07 -1.01769e-06 0.000132688
0.000619736 -5.75055e-05 -4.58812e-06
-5.75055e-05 0.000145096 1.14413e-06
-4.58812e-06 1.14413e-06 -2.26626e-06
0.00114966 5.9268e-06 -8.119e-06
5.9268e-06 0.000580906 -5.88399e-06
-8.119e-06 -5.88399e-06 0.000361412
0.000919388 -0.000126038 3.80831e-06
-0.000126038 0.000311477 -1.43071e-05
3.80831e-06 -1.43071e-05 0.000183006
-0.00116954 -8.13164e-06 -5.75761e-06
-8.13164e-06 -0.000935872 -9.60096e-06
-5.75761e-06 -9.60096e-06 -0.00106588
-9.63348e-05 -3.51344e-05 2.1291e-06
-3.51344e-05 -0.000184344 -3.14124e-06
2.1291e-06 -3.14124e-06 -0.000402108
0.000165342 -7.45928e-05 6.41475e-07
-7.45928e-05 -0.00011328 -3.65373e-07
6.41475e-07 -3.65373e-07 -0.000257741
0.000840763 -0.00013639 -9.48704e-07
-0.00013639 0.00033497 8.15219e-07
-9.48704e-07 8.15219e-07 0.000166275
0.000476215 -9.38585e-05 -5.05982e-07
-9.38585e-05 4.57745e-05 3.97893e-06
-5.05982e-07 3.97893e-06 -8.62667e-05
0.000387037 -9.93007e-05 3.56747e-06
-9.93007e-05 6.25829e-06 4.76048e-07
3.56747e-06 4.76048e-07 -0.000150027
0.000552703 -0.000127224 -4.51113e-08
-0.000127224 0.00011474 8.34284e-08
-4.51113e-08 8.34284e-08 -3.30554e-05
0.000507485 -6.54568e-05 -1.83477e-06
-6.54568e-05 5.21048e-05 5.45324e-06
-1.83477e-06 5.45324e-06 -3.6321e-05
0.00032479 -2.15101e-06 3.32976e-07
-2.15101e-06 -1.7686e-05 -6.26073e-07
3.32976e-07 -6.26073e-07 -0.000174665
0.000459685 -2.20864e-07 2.46548e-06
-2.20864e-07 3.19841e-05 1.35065e-07
2.46548e-06 1.35065e-07 -5.91005e-05
0.0014383 -4.0908e-05 -1.23086e-05
-4.0908e-05 0.000621728 7.07015e-06
-1.23086e-05 7.07015e-06 0.000598115
0.000437729 7.44363e-05 -2.24713e-06
7.44363e-05 1.74882e-05 -3.0232e-06
-2.24713e-06 -3.0232e-06 -7.19484e-05
0.000841562 -2.31609e-05 -4.85586e-06
-2.31609e-05 0.000249721 7.43632e-07
-4.85586e-06 7.43632e-07 0.000223407
0.000809041 2.57293e-06 -4.20493e-06
2.57293e-06 0.000210246 4.75324e-06
-4.20493e-06 4.75324e-06 0.000214148
0.00034422 -3.05786e-05 4.70075e-06
-3.05786e-05 -6.86307e-05 -5.23026e-06
4.70075e-06 -5.23026e-06 -9.54107e-05
0.00260792 4.64005e-06 9.36611e-06
4.64005e-06 0.00135557 9.75483e-09
9.36611e-06 9.75483e-09 0.00136715
0.000862159 5.20816e-06 -1.21532e-05
5.20816e-06 0.000243005 -5.54513e-06
-1.21532e-05 -5.54513e-06 0.000245653
0.000519842 7.45776e-05 2.76266e-06
7.45776e-05 9.28145e-05 2.32093e-07
2.76266e-06 2.32093e-07 -1.80243e-05
0.000433123 5.97045e-05 -2.30119e-06
5.97045e-05 -2.21199e-06 -2.79507e-06
-2.30119e-06 -2.79507e-06 -5.46211e-05
0.000454596 9.03352e-07 1.49987e-06
9.03352e-07 1.22979e-05 2.30607e-07
1.49987e-06 2.30607e-07 -4.21387e-05
0.000450181 1.02174e-05 1.34254e-06
1.02174e-05 -3.09626e-05 -3.31149e-06
1.34254e-06 -3.31149e-06 -4.28038e-05
0.0005491 -7.19567e-05 -1.97093e-06
-7.19567e-05 8.04537e-05 2.4958e-06
-1.97093e-06 2.4958e-06 1.5286e-05
0.000458612 1.2292e-05 1.598e-07
1.2292e-05 -2.6778e-05 -7.45928e-07
1.598e-07 -7.45928e-07 -4.02529e-05
0.00204997 4.08387e-05 2.22776e-06
4.08387e-05 0.000997545 -4.9033e-06
2.22776e-06 -4.9033e-06 0.00101176
0.00113246 3.93441e-05 3.57307e-07
3.93441e-05 0.00040995 1.96687e-06
3.57307e-07 1.96687e-06 0.000395409
0.0014984 5.02282e-05 -6.43026e-07
5.02282e-05 0.000651281 1.49161e-06
-6.43026e-07 1.49161e-06 0.000657514
0.000875718 5.42311e-05 -1.31282e-06
5.42311e-05 0.000260583 9.32071e-06
-1.31282e-06 9.32071e-06 0.000257729
0.000985045 0.000628076 7.82175e-05
0.000628076 -0.00273444 2.28071e-05
7.82175e-05 2.28071e-05 -0.00160145
0.00250599 -5.23167e-05 4.35334e-06
-5.23167e-05 -9.83291e-05 6.30764e-06
4.35334e-06 6.30764e-06 4.59311e-05
0.00216397 7.94832e-05 3.68219e-05
7.94832e-05 -8.4036e-05 -1.28071e-05
3.68219e-05 -1.28071e-05 6.77867e-05
0.00323494 0.000582258 -7.41086e-05
0.000582258 -0.0023988 -4.33681e-05
-7.41086e-05 -4.33681e-05 -0.000403335
0.00304759 0.000119779 6.6595e-05
0.000119779 -0.000705156 -2.45865e-06
6.6595e-05 -2.45865e-06 -7.89469e-05
0.00293643 -5.37452e-05 -1.93491e-06
-5.37452e-05 0.000404805 -9.28638e-06
-1.93491e-06 -9.28638e-06 0.000523154
0.00523931 -0.00049685 -7.01473e-05
-0.00049685 0.00100474 -2.37248e-05
-7.01473e-05 -2.37248e-05 0.00140415
0.00412798 -0.000523551 3.5986e-05
-0.000523551 -0.000777979 -1.93662e-06
3.5986e-05 -1.93662e-06 0.00046255
0.0193882 -0.00105926 9.46116e-05
-0.00105926 0.00311613 -6.42788e-05
9.46116e-05 -6.42788e-05 0.00248029
0.0168099 0.00745679 0.00188402
0.00745679 0.00666555 -0.000465065
0.00188402 -0.000465065 0.00221369
0.0252124 0.00860152 0.000112065
0.00860152 0.016217 3.54423e-05
0.000112065 3.54423e-05 0.0111384
7.03461e-05 -0.000103322 8.35962e-07
-0.000103322 -0.000170706 -9.54794e-07
8.35962e-07 -9.54794e-07 -0.000290387
0.000525647 -5.36116e-06 1.87857e-06
-5.36116e-06 9.24316e-05 -1.97939e-09
1.87857e-06 -1.97939e-09 -1.11034e-05
0.000605573 -9.26291e-05 -9.87265e-07
-9.26291e-05 0.000163509 3.89668e-06
-9.87265e-07 3.89668e-06 4.18789e-05
0.000534299 -3.60663e-05 1.65184e-06
-3.60663e-05 0.000106744 1.77594e-07
1.65184e-06 1.77594e-07 -1.41103e-05
0.00107626 0.000145111 -5.52154e-06
0.000145111 0.000526423 3.03276e-07
-5.52154e-06 3.03276e-07 0.000377299
0.000568516 0.00014684 1.40307e-07
0.00014684 0.000117665 6.65355e-06
1.40307e-07 6.65355e-06 -1.63989e-05
0.000922278 1.06328e-05 2.61372e-06
1.06328e-05 0.000375927 3.33097e-06
2.61372e-06 3.33097e-06 0.000224914
0.000521224 -2.46789e-05 -1.52714e-06
-2.46789e-05 9.95455e-05 1.29203e-06
-1.52714e-06 1.29203e-06 -2.48994e-05
0.0027221 -0.000338544 1.39413e-05
-0.000338544 -2.59706e-05 -1.00338e-05
1.39413e-05 -1.00338e-05 0.000203956
0.0022216 -0.000640922 1.14304e-05
-0.000640922 -0.000366996 -6.47972e-06
1.14304e-05 -6.47972e-06 -0.000140299
0.00259523 -0.000971135 4.65245e-06
-0.000971135 0.000200553 7.50404e-06
4.65245e-06 7.50404e-06 5.46198e-06
0.00286377 -0.00111815 1.35815e-05
-0.00111815 0.00106828 9.85088e-08
1.35815e-05 9.85088e-08 0.000540598
0.00246283 -0.00118613 -3.01037e-05
-0.00118613 0.000449559 -1.76997e-06
-3.01037e-05 -1.76997e-06 3.79223e-05
0.00141368 -0.00123215 3.31762e-05
-0.00123215 0.000857829 -5.52521e-07
3.31762e-05 -5.52521e-07 -5.46898e-05
0.00479593 -0.000869985 9.33864e-06
-0.000869985 0.00241311 8.27748e-06
9.33864e-06 8.27748e-06 0.00194561
0.00174169 -0.000370035 1.9328e-05
-0.000370035 0.00098344 -5.28281e-05
1.9328e-05 -5.28281e-05 0.000580219
0.000518905 -0.000122563 1.06044e-06
-0.000122563 -2.86684e-06 1.87922e-06
1.06044e-06 1.87922e-06 -0.000105579
0.00113393 -9.43053e-05 1.31039e-05
-9.43053e-05 0.000471629 -2.45663e-05
1.31039e-05 -2.45663e-05 0.000224839
0.000956501 -5.75383e-05 4.3518e-06
-5.75383e-05 0.000384693 1.9347e-06
4.3518e-06 1.9347e-06 0.00023436
0.000620069 4.29471e-07 7.80058e-06
4.29471e-07 0.000212452 -6.74084e-06
7.80058e-06 -6.74084e-06 0.000187573
0.00253766 -0.000455255 -8.138e-07
-0.000455255 -0.000149949 2.98813e-06
-8.138e-07 2.98813e-06 0.000210932
0.000369214 -0.000104961 -4.99748e-06
-0.000104961 0.000112794 -1.00199e-06
-4.99748e-06 -1.00199e-06 -3.62591e-05
0.0014125 -0.000239063 -9.00932e-06
-0.000239063 0.000653448 4.75271e-06
-9.00932e-06 4.75271e-06 0.000453903
0.00172874 -0.000719469 8.71404e-06
-0.000719469 -0.000400724 -4.36246e-06
8.71404e-06 -4.36246e-06 -0.000264467
0.00223793 -0.00100039 2.2388e-06
-0.00100039 0.000237667 3.81613e-06
2.2388e-06 3.81613e-06 -7.03395e-05
0.0010469 -0.000980421 -4.88441e-06
-0.000980421 -0.000172316 -1.4399e-05
-4.88441e-06 -1.4399e-05 -0.000500714
0.00189871 -0.000426754 -2.06636e-06
-0.000426754 0.00115628 -3.18223e-05
-2.06636e-06 -3.18223e-05 0.000700306
0.00130386 -0.000760014 1.16351e-05
-0.000760014 0.00122473 4.04035e-06
1.16351e-05 4.04035e-06 0.000258554
0.00593756 -0.00104028 -5.53133e-05
-0.00104028 0.00152608 3.41207e-05
-5.53133e-05 3.41207e-05 0.00177525
0.00367064 -0.0010845 -4.22256e-05
-0.0010845 0.00103439 1.15838e-05
-4.22256e-05 1.15838e-05 0.000800007
0.00256891 -0.00118964 1.43266e-05
-0.00118964 0.000539927 7.16109e-06
1.43266e-05 7.16109e-06 0.000208273
-0.00067237 -0.000588773 -4.75467e-06
-0.000588773 -0.000802081 1.77043e-05
-4.75467e-06 1.77043e-05 -0.000942174
0.000476184 -0.000166119 1.50836e-06
-0.000166119 0.000226588 7.07324e-06
1.50836e-06 7.07324e-06 -3.2016e-05
0.000326327 -0.000180838 4.60392e-06
-0.000180838 0.000211949 1.22176e-06
4.60392e-06 1.22176e-06 -0.000108291
0.00164445 -0.000291896 -1.48889e-05
-0.000291896 0.0013825 -2.40983e-05
-1.48889e-05 -2.40983e-05 0.000592284
-0.00749372 -0.000530153 0.000753379
-0.000530153 -0.00370347 -4.36064e-05
0.000753379 -4.36064e-05 -0.00451407
0.0120557 -0.000433896 7.99425e-05
-0.000433896 0.000140232 3.78239e-05
7.99425e-05 3.78239e-05 0.000782993
0.00296423 0.000444798 1.08972e-05
0.000444798 0.00169869 -1.10617e-05
1.08972e-05 -1.10617e-05 0.00144634
0.00197838 0.000656877 -1.25767e-06
0.000656877 0.000843063 7.28397e-06
-1.25767e-06 7.28397e-06 0.000397219
0.00256409 0.000804308 0.000108724
0.000804308 3.85427e-05 5.04923e-05
0.000108724 5.04923e-05 0.000118781
0.00343161 0.00116605 2.99078e-05
0.00116605 0.00097134 1.58384e-05
2.99078e-05 1.58384e-05 0.000575242
0.00299535 0.0010033 2.30286e-05
0.0010033 0.00118949 8.49266e-06
2.30286e-05 8.49266e-06 0.000637096
0.0174215 0.000820932 0.00010869
0.000820932 0.00244442 -7.54629e-05
0.00010869 -7.54629e-05 0.00218428
0.00853433 0.00291013 -0.000264501
0.00291013 -0.00138637 -3.63505e-05
-0.000264501 -3.63505e-05 0.00079634
0.00169349 0.00159488 1.3633e-05
0.00159488 -0.000185745 -3.20281e-05
1.3633e-05 -3.20281e-05 -0.000654467
0.0155392 -0.00577576 -0.000677591
-0.00577576 0.00682287 3.0032e-05
-0.000677591 3.0032e-05 0.00267126
0.0107065 -0.0127442 -0.00294816
-0.0127442 0.00919024 -0.00170978
-0.00294816 -0.00170978 0.0031459
0.000902959 0.00036425 4.42958e-06
0.00036425 0.000427583 -2.6967e-06
4.42958e-06 -2.6967e-06 0.000135975
-0.000661291 -0.00339027 0.000674463
-0.00339027 -0.00224212 9.3545e-05
0.000674463 9.3545e-05 -0.00520405
-0.000675641 -0.00371881 -0.000706923
-0.00371881 0.00784168 -0.000200737
-0.000706923 -0.000200737 0.00100874
0.00384338 0.00137308 -1.89543e-05
0.00137308 0.000826584 1.87696e-06
-1.89543e-05 1.87696e-06 0.000618377
0.000883893 0.000537111 -1.06031e-05
0.000537111 0.000158752 8.91263e-06
-1.06031e-05 8.91263e-06 -0.000248821
0.00171537 0.000961856 5.95404e-06
0.000961856 0.000491245 1.83407e-06
5.95404e-06 1.83407e-06 -3.75683e-06
0.00149635 0.0015307 6.14053e-05
0.0015307 0.000205313 4.56769e-05
6.14053e-05 4.56769e-05 -0.000123636
0.014299 0.00354883 -0.000158411
0.00354883 0.000158074 -0.000111896
-0.000158411 -0.000111896 -0.00106907
0.00367843 0.00348065 -1.57312e-05
0.00348065 -0.00105183 -3.97071e-05
-1.57312e-05 -3.97071e-05 0.000450938
0.0206652 -0.00626266 0.000696456
-0.00626266 0.00889365 -2.52001e-05
0.000696456 -2.52001e-05 0.00315719
0.020432 -0.00520634 4.24489e-05
-0.00520634 0.00545191 0.000832423
4.24489e-05 0.000832423 0.00163511
0.00173494 0.00043823 -1.91073e-05
0.00043823 0.000875581 -1.71487e-05
-1.91073e-05 -1.71487e-05 0.000612954
-0.00959508 0.00133866 -0.000115214
0.00133866 0.00478679 -0.000152849
-0.000115214 -0.000152849 -0.00300175
0.0061146 0.00132274 -0.000487387
0.00132274 0.00496944 -0.000573792
-0.000487387 -0.000573792 -0.000208038
0.00257145 0.00101136 -3.90605e-05
0.00101136 0.000578315 -1.59524e-05
-3.90605e-05 -1.59524e-05 0.000489339
0.00313717 0.00103694 -8.85954e-05
0.00103694 0.00141106 -3.26213e-05
-8.85954e-05 -3.26213e-05 0.000943844
0.00193114 0.00117592 -9.91908e-05
0.00117592 0.0012461 -2.87688e-05
-9.91908e-05 -2.87688e-05 0.000474372
-0.00282181 0.00228963 2.90702e-05
0.00228963 -0.00104083 -3.49998e-05
2.90702e-05 -3.49998e-05 -0.00120305
0.00295358 0.0047011 0.000594665
0.0047011 -0.00192499 0.000127543
0.000594665 0.000127543 -0.00358595
0.0218933 -0.0079568 1.20548e-05
-0.0079568 0.0120478 0.00084175
1.20548e-05 0.00084175 0.00562844
0.00925771 -0.000178886 -0.000203028
-0.000178886 -0.00190987 -0.000195261
-0.000203028 -0.000195261 -0.00126764
-0.000417422 0.000156772 -2.22446e-07
0.000156772 -0.000306058 -4.67422e-06
-2.22446e-07 -4.67422e-06 -0.000464513
0.00188617 0.000365902 1.02874e-05
0.000365902 0.0010775 2.67315e-06
1.02874e-05 2.67315e-06 0.000847965
-0.000679419 9.4233e-05 -3.50903e-06
9.4233e-05 -0.000416797 1.40868e-06
-3.50903e-06 1.40868e-06 -0.000602286
0.000334107 5.18293e-05 2.26131e-06
5.18293e-05 -2.83038e-05 1.98041e-06
2.26131e-06 1.98041e-06 -0.000173694
0.00108787 8.78387e-05 2.93515e-07
8.78387e-05 0.00049514 -1.04351e-06
2.93515e-07 -1.04351e-06 0.000289961
0.000562213 3.64554e-05 -2.4221e-06
3.64554e-05 0.000187175 2.06993e-06
-2.4221e-06 2.06993e-06 -2.66553e-05
0.000391657 0.000110599 7.16069e-06
0.000110599 4.92429e-05 6.60364e-06
7.16069e-06 6.60364e-06 -0.00015403
-0.000853289 2.71814e-05 -4.75987e-06
2.71814e-05 -0.000627949 1.89793e-06
-4.75987e-06 1.89793e-06 -0.000805903
0.000769561 3.48121e-05 4.05445e-07
3.48121e-05 0.000292383 -6.67584e-07
4.05445e-07 -6.67584e-07 9.5682e-05
0.000711244 9.90596e-05 6.41166e-07
9.90596e-05 0.000254248 -1.32982e-07
6.41166e-07 -1.32982e-07 7.97307e-05
0.00084237 -4.00372e-05 -1.30287e-06
-4.00372e-05 0.000352593 2.26195e-06
-1.30287e-06 2.26195e-06 0.000141899
-0.00112103 4.01143e-05 1.65135e-06
4.01143e-05 -0.000604074 6.76663e-07
1.65135e-06 6.76663e-07 -0.000895451
0.000800775 8.04994e-05 -2.0915e-06
8.04994e-05 0.000693562 6.31234e-06
-2.0915e-06 6.31234e-06 0.000304706
0.000676558 -1.87055e-05 -3.02822e-07
-1.87055e-05 0.000359839 -6.30402e-06
-3.02822e-07 -6.30402e-06 0.000123133
0.00158332 -1.65079e-05 -2.33548e-06
-1.65079e-05 0.000872982 3.34983e-06
-2.33548e-06 3.34983e-06 0.000623111
0.000855655 -9.29669e-05 -6.4017e-07
-9.29669e-05 0.000346088 -1.2689e-06
-6.4017e-07 -1.2689e-06 0.000149151
0.000119131 -0.000112541 4.41448e-06
-0.000112541 -0.000179137 1.37441e-05
4.41448e-06 1.37441e-05 -0.000315382
0.000637601 -9.45492e-05 4.94527e-07
-9.45492e-05 0.000231058 -6.50224e-07
4.94527e-07 -6.50224e-07 2.84784e-05
0.000793751 -0.000117943 -2.77664e-06
-0.000117943 0.000221149 -1.00464e-06
-2.77664e-06 -1.00464e-06 9.18722e-05
-0.000312673 -7.34027e-05 1.68239e-06
-7.34027e-05 -0.000393223 6.19034e-06
1.68239e-06 6.19034e-06 -0.000512977
-0.000285795 -5.73021e-05 2.11002e-07
-5.73021e-05 -0.00034841 -7.13952e-06
2.11002e-07 -7.13952e-06 -0.000517633
5.1145e-05 -4.98194e-05 -8.67892e-06
-4.98194e-05 -4.9627e-05 -2.18527e-06
-8.67892e-06 -2.18527e-06 -0.00025993
0.000306989 -0.0001291 2.4192e-06
-0.0001291 1.20278e-05 -1.12495e-05
2.4192e-06 -1.12495e-05 -0.00011677
0.0011589 -0.000138531 2.21255e-05
-0.000138531 0.00041779 -1.60878e-05
2.21255e-05 -1.60878e-05 0.000293139
0.00185607 -0.000363684 -1.77258e-06
-0.000363684 0.000790332 3.95973e-06
-1.77258e-06 3.95973e-06 0.000570418
-0.000241036 -7.88475e-05 -5.76717e-06
-7.88475e-05 -0.000314035 -1.94195e-06
-5.76717e-06 -1.94195e-06 -0.000513746
0.000551034 -4.36257e-05 2.17127e-06
-4.36257e-05 0.00020341 -8.13587e-07
2.17127e-06 -8.13587e-07 -4.85825e-06
-0.000637902 -1.56381e-05 4.03129e-06
-1.56381e-05 -0.000567743 -5.62012e-07
4.03129e-06 -5.62012e-07 -0.000778566
0.000632431 -0.000144006 -1.37375e-06
-0.000144006 0.000207344 -8.12123e-07
-1.37375e-06 -8.12123e-07 3.66052e-05
0.000416256 -4.15388e-05 6.27693e-07
-4.15388e-05 7.75447e-06 8.97014e-07
6.27693e-07 8.97014e-07 -0.000127862
0.000623295 -0.000150462 6.73171e-07
-0.000150462 0.000179988 7.11122e-07
6.73171e-07 7.11122e-07 2.54124e-05
0.000597887 -9.48262e-05 -3.53137e-07
-9.48262e-05 0.000140876 2.31347e-07
-3.53137e-07 2.31347e-07 -2.38937e-06
0.000363846 3.19683e-05 4.87591e-07
3.19683e-05 -4.13603e-05 5.25311e-06
4.87591e-07 5.25311e-06 -0.00013305
0.000615112 -0.000127968 1.1946e-07
-0.000127968 0.000148256 -2.84719e-06
1.1946e-07 -2.84719e-06 1.7286e-06
0.000505704 -4.92366e-05 -5.77108e-07
-4.92366e-05 4.57038e-05 1.46058e-07
-5.77108e-07 1.46058e-07 -3.92517e-05
0.001416 2.18032e-05 -8.21238e-06
2.18032e-05 0.000598403 7.72779e-06
-8.21238e-06 7.72779e-06 0.000575316
0.000481445 -7.19629e-05 1.04895e-06
-7.19629e-05 3.92962e-05 -3.45593e-06
1.04895e-06 -3.45593e-06 -4.80174e-05
0.000858463 -2.42588e-05 -9.21746e-06
-2.42588e-05 0.000252499 8.6842e-07
-9.21746e-06 8.6842e-07 0.000226671
0.000734972 1.10735e-05 1.4757e-06
1.10735e-05 0.000152919 2.18891e-06
1.4757e-06 2.18891e-06 0.000156096
0.000408681 -2.88787e-05 3.49757e-06
-2.88787e-05 -3.17114e-05 -4.76452e-06
3.49757e-06 -4.76452e-06 -5.74189e-05
0.00256715 9.9598e-06 7.16743e-06
9.9598e-06 0.00132824 8.18483e-09
7.16743e-06 8.18483e-09 0.0013405
0.00259672 -3.83221e-07 4.76186e-06
-3.83221e-07 0.00134827 -5.06938e-06
4.76186e-06 -5.06938e-06 0.00135992
0.00104386 8.30393e-05 -4.19057e-07
8.30393e-05 0.000426668 3.04503e-07
-4.19057e-07 3.04503e-07 0.000309781
0.000497124 6.91689e-05 -1.56182e-06
6.91689e-05 4.25662e-05 -3.17236e-06
-1.56182e-06 -3.17236e-06 -1.5885e-05
0.000529102 -1.57601e-05 -5.82362e-07
-1.57601e-05 0.000102705 7.93779e-07
-5.82362e-07 7.93779e-07 -8.47967e-06
0.000447172 9.48909e-06 1.46538e-06
9.48909e-06 -3.34183e-05 -3.61523e-06
1.46538e-06 -3.61523e-06 -4.42922e-05
0.000424297 -1.04731e-05 1.43689e-06
-1.04731e-05 -9.39838e-06 -2.22308e-07
1.43689e-06 -2.22308e-07 -6.05433e-05
0.00049502 -6.52236e-05 -2.14234e-06
-6.52236e-05 4.39383e-05 2.59643e-06
-2.14234e-06 2.59643e-06 -1.40281e-05
0.000456817 7.12278e-06 -5.76064e-07
7.12278e-06 -2.71419e-05 1.26488e-08
-5.76064e-07 1.26488e-08 -3.8964e-05
0.00200918 2.6074e-05 -3.15519e-06
2.6074e-05 0.000968426 -4.95646e-06
-3.15519e-06 -4.95646e-06 0.00098445
0.00115192 2.51176e-05 -7.23113e-07
2.51176e-05 0.000418287 2.27922e-06
-7.23113e-07 2.27922e-06 0.000407659
0.0013161 3.20941e-05 -2.7533e-06
3.20941e-05 0.000526794 -2.30906e-08
-2.7533e-06 -2.30906e-08 0.000537482
0.00078563 3.83716e-05 -5.67799e-06
3.83716e-05 0.000194281 7.90576e-06
-5.67799e-06 7.90576e-06 0.000197613
-0.00760311 0.00187712 0.00075829
0.00187712 -0.00244261 -9.35179e-05
0.00075829 -9.35179e-05 -0.00615575
0.000868956 0.00107442 0.00167801
0.00107442 0.0081952 -0.000367821
0.00167801 -0.000367821 0.00324594
0.0022438 0.000562958 -0.000164928
0.000562958 -0.00288109 -3.35939e-05
-0.000164928 -3.35939e-05 -0.000625251
0.00224157 -3.1226e-05 1.53688e-05
-3.1226e-05 -0.00112728 -3.34903e-05
1.53688e-05 -3.34903e-05 -0.000426814
0.00188814 -8.09648e-05 2.87649e-05
-8.09648e-05 -0.000336561 2.29681e-05
2.87649e-05 2.29681e-05 -0.000195626
-0.00169068 -2.37391e-05 -0.000119911
-2.37391e-05 -0.00248416 -3.31384e-05
-0.000119911 -3.31384e-05 -0.000865504
0.00390935 -0.000550522 2.50261e-06
-0.000550522 9.44668e-05 4.85328e-06
2.50261e-06 4.85328e-06 0.00043758
0.0123764 -0.000234794 0.000236773
-0.000234794 -0.00188876 -0.000105692
0.000236773 -0.000105692 -0.0022691
0.00369623 0.00491108 -2.53261e-06
0.00491108 0.00152353 -7.76341e-05
-2.53261e-06 -7.76341e-05 -0.00274823
0.019796 0.0102425 -0.000690107
0.0102425 0.0130858 0.000297516
-0.000690107 0.000297516 0.00775215
0.00189104 -0.00111565 1.38593e-05
-0.00111565 -0.00305603 -3.45597e-05
1.38593e-05 -3.45597e-05 -0.00124249
0.0157746 -0.00332696 0.00026828
-0.00332696 0.0010891 -7.31969e-05
0.00026828 -7.31969e-05 -8.27146e-06
0.0228845 0.00719345 0.000443174
0.00719345 0.00797398 -0.000539404
0.000443174 -0.000539404 0.00223641
0.024861 0.0053291 -0.000344096
0.0053291 0.00861862 0.000332722
-0.000344096 0.000332722 0.00504509
0.00110135 0.000179661 -4.05479e-06
0.000179661 0.000544108 2.2891e-06
-4.05479e-06 2.2891e-06 0.000346711
0.000309019 4.07425e-05 6.82634e-07
4.07425e-05 -3.92621e-05 -9.63114e-07
6.82634e-07 -9.63114e-07 -0.000149843
0.000531285 -0.000100029 2.2031e-06
-0.000100029 0.000109257 1.96251e-06
2.2031e-06 1.96251e-06 -1.08967e-06
0.000702243 3.83662e-06 6.96264e-06
3.83662e-06 0.000224005 -1.35915e-06
6.96264e-06 -1.35915e-06 9.63189e-05
0.000792647 8.59166e-05 3.18207e-06
8.59166e-05 0.000347626 6.94868e-07
3.18207e-06 6.94868e-07 0.000211311
0.000537187 4.86293e-05 -7.91687e-08
4.86293e-05 0.000134635 8.07855e-06
-7.91687e-08 8.07855e-06 -4.36245e-05
0.000710774 9.29419e-05 -3.75912e-08
9.29419e-05 0.000236009 3.16082e-06
-3.75912e-08 3.16082e-06 9.08402e-05
0.000426869 8.27045e-05 5.3785e-06
8.27045e-05 1.35972e-05 3.14106e-06
5.3785e-06 3.14106e-06 -0.000136492
0.000643629 -1.44474e-05 2.36204e-06
-1.44474e-05 0.000196684 -1.1878e-06
2.36204e-06 -1.1878e-06 4.77326e-05
0.000435378 -2.19236e-05 2.37242e-06
-2.19236e-05 3.64556e-05 -2.14157e-06
2.37242e-06 -2.14157e-06 -7.86291e-05
0.00123189 -0.000372216 3.8831e-05
-0.000372216 -0.00088349 -1.63969e-05
3.8831e-05 -1.63969e-05 -0.00045992
0.00107809 -0.000662032 2.38167e-05
-0.000662032 -0.000751529 -8.72963e-06
2.38167e-05 -8.72963e-06 -0.000575812
0.000958464 -0.000822117 4.30406e-06
-0.000822117 -0.000470354 8.05737e-06
4.30406e-06 8.05737e-06 -0.000683986
-0.000450864 -0.000773314 -1.9928e-05
-0.000773314 -0.000997948 -3.92392e-06
-1.9928e-05 -3.92392e-06 -0.00127334
0.00260208 -0.000579104 8.1826e-06
-0.000579104 0.00174208 4.87069e-05
8.1826e-06 4.87069e-05 0.00099596
-0.000775246 -0.000628105 -9.58863e-06
-0.000628105 -0.00043658 -9.84278e-06
-9.58863e-06 -9.84278e-06 -0.00107078
0.0013294 -0.000306597 8.06477e-06
-0.000306597 0.000616087 -5.34667e-06
8.06477e-06 -5.34667e-06 0.000445596
0.000379929 -6.34272e-05 1.502e-06
-6.34272e-05 9.36826e-05 3.72679e-06
1.502e-06 3.72679e-06 -4.58042e-05
0.00263434 -0.000736204 1.53909e-05
-0.000736204 -0.000310039 -1.03002e-05
1.53909e-05 -1.03002e-05 9.01252e-05
0.000475637 -8.77994e-05 5.81921e-07
-8.77994e-05 0.000220915 2.13454e-06
5.81921e-07 2.13454e-06 -4.4982e-05
-0.00016116 -0.000227895 -3.67954e-06
-0.000227895 -7.75484e-05 -6.07699e-06
-3.67954e-06 -6.07699e-06 -0.000398784
0.00184518 -0.000886691 1.97121e-05
-0.000886691 2.27267e-06 -1.24457e-06
1.97121e-05 -1.24457e-06 -0.000100778
0.00188019 -0.00109325 -2.32551e-06
-0.00109325 9.29435e-05 -2.15251e-06
-2.32551e-06 -2.15251e-06 -0.000132458
0.000129629 -0.000790444 1.61734e-05
-0.000790444 -0.000313827 -2.07224e-05
1.61734e-05 -2.07224e-05 -0.000569106
0.000904597 -0.000394646 1.47858e-05
-0.000394646 0.000936796 -2.3381e-05
1.47858e-05 -2.3381e-05 0.000162294
0.00188641 -0.00110871 -6.27409e-05
-0.00110871 -0.000212615 4.86604e-05
-6.27409e-05 4.86604e-05 -0.000412481
0.00162804 -0.000920026 -3.0799e-05
-0.000920026 0.000111087 1.27609e-05
-3.0799e-05 1.27609e-05 7.41468e-05
-0.000508863 -0.000608899 -5.43011e-05
-0.000608899 -0.000203243 3.61863e-05
-5.43011e-05 3.61863e-05 -0.0006287
-0.00196039 -0.0001883 -9.47385e-06
-0.0001883 -0.00132157 1.25224e-05
-9.47385e-06 1.25224e-05 -0.00157314
-0.00128639 -7.60971e-06 -3.29678e-07
-7.60971e-06 -0.000785472 1.22878e-05
-3.29678e-07 1.22878e-05 -0.00109414
0.000905817 -7.68013e-05 4.99706e-06
-7.68013e-05 0.000606591 -1.54181e-05
4.99706e-06 -1.54181e-05 0.000204582
-0.00284084 0.00147762 -0.000534163
0.00147762 0.00778995 2.50133e-05
-0.000534163 2.50133e-05 0.00183475
-0.00017024 -0.00196036 -2.08402e-05
-0.00196036 0.00312082 -1.14859e-05
-2.08402e-05 -1.14859e-05 0.00160041
0.00410086 0.000950458 -0.000158642
0.000950458 -0.00608284 -2.82221e-05
-0.000158642 -2.82221e-05 -0.00620493
0.000803557 0.000368531 1.51771e-05
0.000368531 0.000416793 -5.46578e-06
1.51771e-05 -5.46578e-06 0.00011117
0.0018146 0.000724121 1.66012e-05
0.000724121 0.000757907 2.52688e-05
1.66012e-05 2.52688e-05 0.000275847
0.00345134 0.00120257 7.94521e-05
0.00120257 0.000593567 3.36522e-05
7.94521e-05 3.36522e-05 0.000446751
0.00134027 0.00100143 1.76921e-05
0.00100143 0.000329619 2.70208e-05
1.76921e-05 2.70208e-05 -0.000215561
0.0143746 -0.00398225 0.000310921
-0.00398225 0.00606325 9.42633e-05
0.000310921 9.42633e-05 0.00352943
0.00359725 0.00223122 -0.000446739
0.00223122 -0.00559722 -0.000110698
-0.000446739 -0.000110698 -0.00669222
0.00567776 0.0034457 4.90557e-05
0.0034457 0.000452668 3.10992e-05
4.90557e-05 3.10992e-05 0.00137899
0.00313498 0.00151565 7.2563e-05
0.00151565 0.00131493 -1.28086e-06
7.2563e-05 -1.28086e-06 0.00101008
0.0127731 -0.00367512 -0.000582467
-0.00367512 0.00534788 -0.000338681
-0.000582467 -0.000338681 0.000236457
0.00117055 -0.00498002 -0.00102721
-0.00498002 0.00864641 -0.00027069
-0.00102721 -0.00027069 0.00175067
0.0301041 -0.00712476 0.000994963
-0.00712476 0.00935072 0.000453112
0.000994963 0.000453112 0.00491928
0.000207481 0.000303814 1.68361e-05
0.000303814 -1.42076e-05 -5.15799e-06
1.68361e-05 -5.15799e-06 -0.000269141
-0.00362004 0.000399593 -0.000198472
0.000399593 0.00693801 -3.13269e-05
-0.000198472 -3.13269e-05 0.000214036
0.00679667 0.00178544 -0.000196732
0.00178544 0.00389217 -0.000194408
-0.000196732 -0.000194408 -0.00194413
0.00181202 0.00104331 8.88116e-06
0.00104331 0.000283344 2.88384e-06
8.88116e-06 2.88384e-06 0.000115085
0.000770899 0.000770436 1.88721e-05
0.000770436 0.000241836 6.946e-06
1.88721e-05 6.946e-06 -0.000232379
0.00103449 0.00124954 -8.15415e-05
0.00124954 0.0006666 -7.35078e-05
-8.15415e-05 -7.35078e-05 2.93696e-05
0.00386278 0.00394823 4.81303e-05
0.00394823 0.00100765 4.41341e-05
4.81303e-05 4.41341e-05 0.00104947
0.0146725 0.00577257 -5.80788e-07
0.00577257 0.00212521 2.70915e-06
-5.80788e-07 2.70915e-06 -0.000143874
0.010549 -0.00438439 9.58946e-05
-0.00438439 0.00631333 -0.000123787
9.58946e-05 -0.000123787 -0.000449314
0.0171613 -0.00218858 -2.71656e-05
-0.00218858 0.00249248 -6.97868e-05
-2.71656e-05 -6.97868e-05 0.00327911
0.000854522 0.000624573 -1.63499e-05
0.000624573 0.000344889 -8.30015e-06
-1.63499e-05 -8.30015e-06 -1.16169e-05
0.00159303 0.00030927 -0.000448421
0.00030927 0.0027853 -0.000118805
-0.000448421 -0.000118805 -0.00300936
0.00164977 0.00121586 -0.000165547
0.00121586 1.45873e-05 -0.00019604
-0.000165547 -0.00019604 -0.00182563
-0.000874347 0.00038776 -5.75949e-06
0.00038776 -0.000191055 -2.19936e-05
-5.75949e-06 -2.19936e-05 -0.00051503
-0.00157667 0.000863846 -0.000185068
0.000863846 0.000797729 -6.21708e-06
-0.000185068 -6.21708e-06 2.81245e-05
0.0104683 0.00599706 0.000135304
0.00599706 0.00360374 -2.81721e-05
0.000135304 -2.81721e-05 -0.00129171
0.00055258 -0.0064542 -3.40531e-05
-0.0064542 0.000456754 0.000234365
-3.40531e-05 0.000234365 -0.0056398
0.0137494 -0.000146177 6.68737e-05
-0.000146177 -0.0013918 -0.000341644
6.68737e-05 -0.000341644 0.000801007
0.00107341 0.000253197 -1.44596e-06
0.000253197 0.000529719 1.99288e-05
-1.44596e-06 1.99288e-05 0.000345322
0.000975057 0.000278951 -9.30213e-06
0.000278951 0.000607984 -5.90104e-06
-9.30213e-06 -5.90104e-06 0.000367227
-0.000459928 0.000145294 1.45933e-06
0.000145294 -5.12289e-05 -1.19513e-06
1.45933e-06 -1.19513e-06 -0.000416907
0.000465055 8.65798e-05 -2.68129e-07
8.65798e-05 7.51858e-05 -6.31673e-07
-2.68129e-07 -6.31673e-07 -0.0001033
0.0013287 -2.84617e-05 -3.18545e-06
-2.84617e-05 0.000682237 3.91674e-06
-3.18545e-06 3.91674e-06 0.00045377
-0.000215689 7.75121e-05 3.06878e-06
7.75121e-05 -0.000332906 2.96841e-06
3.06878e-06 2.96841e-06 -0.000502486
-0.00133864 5.88524e-05 2.33659e-06
5.88524e-05 -0.000721994 1.32302e-06
2.33659e-06 1.32302e-06 -0.0010163
0.000469254 -2.00801e-05 1.45645e-06
-2.00801e-05 0.000119844 5.40525e-07
1.45645e-06 5.40525e-07 -8.94428e-05
0.000476692 7.23044e-05 8.66327e-07
7.23044e-05 0.000226885 -2.26534e-06
8.66327e-07 -2.26534e-06 -2.4311e-06
5.8471e-05 5.20564e-05 3.37457e-06
5.20564e-05 0.000333694 2.9096e-06
3.37457e-06 2.9096e-06 -0.000124158
-0.00102656 2.8149e-05 -1.59546e-06
2.8149e-05 -0.00015581 1.18362e-05
-1.59546e-06 1.18362e-05 -0.000705398
0.000690016 2.13659e-05 -2.11582e-06
2.13659e-05 0.000669804 -5.97646e-06
-2.11582e-06 -5.97646e-06 0.000251523
0.00165056 4.59621e-05 -1.50229e-06
4.59621e-05 0.000947927 1.0964e-06
-1.50229e-06 1.0964e-06 0.000726498
0.000864904 -0.000174169 4.09797e-06
-0.000174169 0.00037692 2.18661e-06
4.09797e-06 2.18661e-06 0.00017155
0.000144155 -7.35581e-05 1.2339e-06
-7.35581e-05 -0.000207929 7.96022e-06
1.2339e-06 7.96022e-06 -0.000326941
-3.98513e-05 -8.96726e-05 1.04387e-05
-8.96726e-05 -0.000220653 1.89785e-05
1.04387e-05 1.89785e-05 -0.000320934
0.000251499 -3.47092e-05 1.07233e-06
-3.47092e-05 6.01729e-05 1.39667e-06
1.07233e-06 1.39667e-06 -0.000136366
0.000474754 -3.75572e-05 -4.96123e-07
-3.75572e-05 0.000106816 2.02135e-06
-4.96123e-07 2.02135e-06 -5.68234e-05
-6.35597e-06 -5.8842e-05 -3.00836e-06
-5.8842e-05 -0.000154906 -1.69381e-06
-3.00836e-06 -1.69381e-06 -0.000290098
7.89519e-06 -7.3657e-05 -4.76583e-06
-7.3657e-05 -0.000158019 -3.91516e-06
-4.76583e-06 -3.91516e-06 -0.000308262
0.000960873 -0.000110914 8.86531e-06
-0.000110914 0.000632151 -9.77222e-06
8.86531e-06 -9.77222e-06 0.000438635
0.00227858 -0.000355985 5.45134e-06
-0.000355985 0.00104267 5.6193e-06
5.45134e-06 5.6193e-06 0.000929542
0.00068971 -0.000135976 -1.63246e-05
-0.000135976 0.000139823 -3.67279e-08
-1.63246e-05 -3.67279e-08 1.92073e-05
0.000747767 -0.000287934 7.10246e-06
-0.000287934 0.000123849 5.58568e-06
7.10246e-06 5.58568e-06 -7.2089e-05
0.00253259 -0.000689701 -6.15838e-06
-0.000689701 0.00115855 2.21362e-05
-6.15838e-06 2.21362e-05 0.000759252
0.00204539 -0.000290095 6.56797e-06
-0.000290095 0.000962424 -9.28072e-06
6.56797e-06 -9.28072e-06 0.000749911
0.000865953 -0.000268779 -4.78814e-06
-0.000268779 0.000201759 -6.5405e-06
-4.78814e-06 -6.5405e-06 2.62315e-05
0.000532288 -0.000106683 -4.87189e-07
-0.000106683 0.000143602 -1.34936e-06
-4.87189e-07 -1.34936e-06 -5.62224e-05
-0.000672815 -4.81863e-05 -1.74667e-07
-4.81863e-05 -0.000561309 -1.90066e-06
-1.74667e-07 -1.90066e-06 -0.00082171
0.001255 -3.93576e-05 2.05634e-06
-3.93576e-05 0.000630346 1.40786e-06
2.05634e-06 1.40786e-06 0.000428998
0.000691902 -0.000150544 1.16096e-06
-0.000150544 0.000259394 -6.29422e-07
1.16096e-06 -6.29422e-07 4.11836e-05
0.000257702 -6.43305e-05 5.32417e-07
-6.43305e-05 -0.000107523 2.11551e-07
5.32417e-07 2.11551e-07 -0.000248067
0.0015809 -0.000250198 -4.31401e-06
-0.000250198 0.000824322 6.42861e-07
-4.31401e-06 6.42861e-07 0.000625367
0.00072079 -0.000130597 -4.95897e-07
-0.000130597 0.000204765 1.20868e-07
-4.95897e-07 1.20868e-07 6.01778e-05
0.00050693 -4.60662e-06 -1.25977e-06
-4.60662e-06 4.03334e-05 3.86473e-06
-1.25977e-06 3.86473e-06 -5.17673e-05
0.000782036 -0.00014654 2.95741e-07
-0.00014654 0.000261827 -2.4839e-06
2.95741e-07 -2.4839e-06 0.000113071
0.000580618 -6.6223e-05 -8.47987e-08
-6.6223e-05 9.35007e-05 1.06314e-07
-8.47987e-08 1.06314e-07 1.37212e-06
0.00145847 7.02104e-06 -1.36038e-05
7.02104e-06 0.000621225 8.39552e-06
-1.36038e-05 8.39552e-06 0.000595181
0.00053468 -7.5822e-05 1.32451e-06
-7.5822e-05 7.2458e-05 -5.27094e-06
1.32451e-06 -5.27094e-06 -1.90909e-05
0.000851357 -1.74832e-05 -1.06787e-05
-1.74832e-05 0.000240525 8.0041e-07
-1.06787e-05 8.0041e-07 0.000213494
0.000792583 1.99627e-05 1.46366e-06
1.99627e-05 0.000187283 3.08888e-06
1.46366e-06 3.08888e-06 0.000187908
0.000410307 -4.12704e-05 3.03508e-06
-4.12704e-05 -3.53057e-05 -5.31235e-06
3.03508e-06 -5.31235e-06 -6.33202e-05
0.00166455 1.83402e-05 1.33025e-05
1.83402e-05 0.000749202 -1.5586e-06
1.33025e-05 -1.5586e-06 0.000757235
0.00251877 7.82409e-06 1.5697e-05
7.82409e-06 0.00129659 -5.19142e-06
1.5697e-05 -5.19142e-06 0.0013092
0.00046744 6.59722e-05 1.85629e-06
6.59722e-05 3.27293e-05 -1.09675e-06
1.85629e-06 -1.09675e-06 -7.90455e-05
0.00057732 7.11528e-05 -8.86535e-07
7.11528e-05 8.79116e-05 -2.70477e-06
-8.86535e-07 -2.70477e-06 2.58228e-05
0.00056111 9.13968e-06 5.96757e-07
9.13968e-06 0.000109543 8.82192e-07
5.96757e-07 8.82192e-07 -6.7998e-07
0.000442888 7.71245e-06 2.29058e-06
7.71245e-06 -3.56514e-05 -4.03232e-06
2.29058e-06 -4.03232e-06 -4.72174e-05
0.000472377 6.02095e-05 -5.84905e-08
6.02095e-05 2.13868e-05 -2.08111e-07
-5.84905e-08 -2.08111e-07 -3.36738e-05
0.000459595 -0.0001157 -3.13805e-06
-0.0001157 4.49209e-05 1.5403e-06
-3.13805e-06 1.5403e-06 -5.77237e-05
0.00201679 1.18115e-05 -8.27666e-06
1.18115e-05 0.000970923 -4.99182e-06
-8.27666e-06 -4.99182e-06 0.000988092
0.000430208 7.34555e-06 -2.62729e-07
7.34555e-06 -4.38114e-05 3.30922e-08
-2.62729e-07 3.30922e-08 -5.4664e-05
0.000485068 -1.50496e-06 -1.37632e-06
-1.50496e-06 2.21207e-05 2.56343e-06
-1.37632e-06 2.56343e-06 -2.47056e-05
0.000448862 4.20791e-06 -2.07435e-06
4.20791e-06 -3.2934e-05 3.58046e-06
-2.07435e-06 3.58046e-06 -4.47471e-05
0.00205869 2.76024e-05 -5.69465e-06
2.76024e-05 0.00100039 -1.30291e-07
-5.69465e-06 -1.30291e-07 0.00101603
0.0020447 4.22889e-05 -2.86745e-06
4.22889e-05 0.000994563 4.95823e-06
-2.86745e-06 4.95823e-06 0.00100858
-0.00524007 -0.00211208 -0.000260142
-0.00211208 0.00714464 6.67902e-05
-0.000260142 6.67902e-05 0.00243996
0.00359725 0.00205321 -0.000349784
0.00205321 0.0016112 0.000114239
-0.000349784 0.000114239 -0.00149643
0.00294598 -0.00113664 -0.000672926
-0.00113664 0.00135417 0.000291505
-0.000672926 0.000291505 -0.00355504
0.00244353 0.00172931 0.00135282
0.00172931 0.00801163 -0.000328988
0.00135282 -0.000328988 0.00249197
0.00420852 0.000800757 -5.68862e-05
0.000800757 -0.000687002 9.27064e-06
-5.68862e-05 9.27064e-06 0.000567978
0.00347597 -0.000613183 0.000102835
-0.000613183 -0.000146889 9.86356e-06
0.000102835 9.86356e-06 0.000123412
0.00138134 -0.000437619 0.000367439
-0.000437619 -0.00623707 -5.0651e-05
0.000367439 -5.0651e-05 -0.00721015
0.0267431 0.00423425 -0.00125937
0.00423425 0.0119083 6.55323e-05
-0.00125937 6.55323e-05 0.00757592
0.012342 0.0121627 -0.00281293
0.0121627 0.00894876 0.00171205
-0.00281293 0.00171205 0.00310463
0.00536647 -0.000917369 4.59136e-05
-0.000917369 -0.000757614 5.73225e-06
4.59136e-05 5.73225e-06 0.000432815
0.0080091 -0.00320019 0.000210841
-0.00320019 -0.00337265 -0.000173853
0.000210841 -0.000173853 -0.00518661
0.0222711 0.006866 -0.000406848
0.006866 0.00795813 -0.000136416
-0.000406848 -0.000136416 0.0021323
0.0184213 0.00518968 0.000102598
0.00518968 0.00545352 0.000460619
0.000102598 0.000460619 0.00179364
0.00148185 -0.00220072 -0.000111522
-0.00220072 -0.00402214 4.7852e-05
-0.000111522 4.7852e-05 -0.00210391
0.0069707 -0.00505735 0.00058648
-0.00505735 -0.000280399 -0.00025509
0.00058648 -0.00025509 -0.00364159
0.0123375 0.00387943 7.68073e-06
0.00387943 0.00375974 -0.000979122
7.68073e-06 -0.000979122 -0.00215633
0.0095051 0.000223886 -0.000371769
0.000223886 -0.0014411 4.54084e-05
-0.000371769 4.54084e-05 -0.00126847
0.00238626 -6.92723e-05 1.09601e-06
-6.92723e-05 0.00140385 1.75824e-05
1.09601e-06 1.75824e-05 0.00111609
0.000248426 8.69656e-05 -1.66113e-06
8.69656e-05 -3.51156e-05 -2.23586e-06
-1.66113e-06 -2.23586e-06 -0.000186335
0.000538786 0.000112052 3.24402e-06
0.000112052 9.5416e-05 -4.99813e-08
3.24402e-06 -4.99813e-08 -1.12488e-05
-4.36608e-05 -3.49819e-05 4.82002e-06
-3.49819e-05 -0.00022085 -3.69562e-06
4.82002e-06 -3.69562e-06 -0.000310702
0.000454141 0.000122834 3.47043e-06
0.000122834 5.10095e-05 7.9236e-06
3.47043e-06 7.9236e-06 -0.000140981
0.000463901 6.19693e-05 -1.65788e-07
6.19693e-05 7.96575e-05 1.61105e-06
-1.65788e-07 1.61105e-06 -8.50632e-05
0.000102682 2.10921e-05 1.93516e-06
2.10921e-05 -0.000152396 -2.53456e-06
1.93516e-06 -2.53456e-06 -0.000285535
0.000885472 0.000186139 6.37612e-06
0.000186139 0.000344544 1.00507e-05
6.37612e-06 1.00507e-05 0.000157985
0.000925684 0.000151072 -1.86583e-07
0.000151072 0.000383699 -6.22256e-07
-1.86583e-07 -6.22256e-07 0.000196881
0.000308125 -2.71316e-07 -3.61686e-06
-2.71316e-07 -3.32285e-05 -6.37285e-06
-3.61686e-06 -6.37285e-06 -0.00017507
0.000536063 -0.000580383 9.48963e-05
-0.000580383 -0.00146675 -5.68026e-05
9.48963e-05 -5.68026e-05 -0.000993797
0.000196406 -0.000727974 3.10496e-06
-0.000727974 -0.000950325 -7.86155e-06
3.10496e-06 -7.86155e-06 -0.000946461
0.00155762 -0.00105567 -8.73957e-06
-0.00105567 -0.000148468 1.88196e-05
-8.73957e-06 1.88196e-05 -0.000266725
-0.00118248 -0.000773077 4.77e-06
-0.000773077 -0.0010383 2.78666e-06
4.77e-06 2.78666e-06 -0.00135452
0.00379856 -0.000560334 -3.73697e-05
-0.000560334 0.00241413 8.06831e-05
-3.73697e-05 8.06831e-05 0.00184682
0.000786732 -0.000247314 -2.97055e-06
-0.000247314 0.000528155 8.28433e-06
-2.97055e-06 8.28433e-06 0.000181679
0.00035383 0.000109473 -2.26856e-06
0.000109473 0.000121458 -1.62056e-05
-2.26856e-06 -1.62056e-05 -0.00013451
0.00067395 -3.08342e-05 -4.13248e-06
-3.08342e-05 0.000321533 8.78337e-06
-4.13248e-06 8.78337e-06 3.08891e-05
0.00231689 -0.00107055 -1.88478e-05
-0.00107055 -6.60021e-05 -8.722e-07
-1.88478e-05 -8.722e-07 -7.15047e-05
0.000718389 -4.76354e-05 1.86964e-06
-4.76354e-05 0.000402236 4.29199e-06
1.86964e-06 4.29199e-06 0.000107436
0.00231878 -0.000364652 5.068e-06
-0.000364652 0.00145113 -3.11724e-06
5.068e-06 -3.11724e-06 0.00102852
0.00146654 -0.000902497 1.35108e-05
-0.000902497 2.3338e-05 -2.89608e-06
1.35108e-05 -2.89608e-06 -2.69872e-05
0.000551985 -0.000721223 -3.6417e-05
-0.000721223 0.00033227 1.05228e-05
-3.6417e-05 1.05228e-05 -6.76791e-05
0.00224366 -0.00182114 6.27386e-05
-0.00182114 0.000112873 -2.8069e-05
6.27386e-05 -2.8069e-05 -0.000164088
0.000289738 -0.00065754 -8.04753e-06
-0.00065754 -2.06198e-05 2.98151e-05
-8.04753e-06 2.98151e-05 -0.000143929
-0.00150687 -0.000131439 1.3015e-05
-0.000131439 -0.000580535 2.49978e-06
1.3015e-05 2.49978e-06 -0.0010916
0.000500256 5.59278e-05 -3.83237e-06
5.59278e-05 0.000206876 6.9542e-06
-3.83237e-06 6.9542e-06 -6.62893e-06
0.000218999 -6.76116e-05 2.12455e-06
-6.76116e-05 0.000218663 -2.69696e-07
2.12455e-06 -2.69696e-07 -0.000132918
0.00145367 0.000222791 -7.51299e-05
0.000222791 0.00213406 -2.80622e-05
-7.51299e-05 -2.80622e-05 -0.00252801
-0.00748817 0.000452234 -0.000494516
0.000452234 0.0072137 -2.21165e-05
-0.000494516 -2.21165e-05 0.00140908
-0.0138594 -0.00330393 -0.000954902
-0.00330393 -0.00466541 -7.06374e-06
-0.000954902 -7.06374e-06 -0.00648461
-7.81054e-06 0.000331187 1.46441e-05
0.000331187 -6.49407e-05 -3.77914e-06
1.46441e-05 -3.77914e-06 -0.00036387
-0.000907783 0.000603966 -1.65034e-06
0.000603966 -0.000593812 1.01566e-05
-1.65034e-06 1.01566e-05 -0.00107956
0.00285509 0.00126282 4.52685e-05
0.00126282 0.000853951 3.8491e-05
4.52685e-05 3.8491e-05 0.000607413
-0.00492177 0.00234871 0.000125475
0.00234871 0.00777906 6.53926e-05
0.000125475 6.53926e-05 0.00251203
0.00719671 0.00503743 -0.000459933
0.00503743 -0.000420146 -0.00020309
-0.000459933 -0.00020309 -0.00338168
0.000663501 0.00253147 0.000477935
0.00253147 -0.000162453 0.000191705
0.000477935 0.000191705 -0.000133508
-0.000219592 0.00111601 -4.08e-06
0.00111601 -4.96014e-05 -4.83996e-05
-4.08e-06 -4.83996e-05 -0.000358148
0.0299048 -0.00426253 -0.000115893
-0.00426253 0.0105793 -0.000459908
-0.000115893 -0.000459908 0.00553609
0.00740954 0.00231614 0.000749899
0.00231614 0.00367692 0.000266942
0.000749899 0.000266942 -0.00271245
0.0139932 -0.00150477 0.000183807
-0.00150477 0.00258137 5.84e-05
0.000183807 5.84e-05 0.00384257
0.0014952 0.000690308 7.44871e-06
0.000690308 0.000797523 -1.27172e-06
7.44871e-06 -1.27172e-06 0.000427553
0.00387449 0.00090972 -3.41869e-05
0.00090972 0.00378697 7.79077e-06
-3.41869e-05 7.79077e-06 -0.000653509
0.00202067 0.00105344 9.56882e-05
0.00105344 0.000339446 -7.38273e-06
9.56882e-05 -7.38273e-06 -0.00148911
-0.000342148 0.000627937 -3.7822e-06
0.000627937 -1.05694e-05 -5.79338e-06
-3.7822e-06 -5.79338e-06 -0.000416123
-0.000324324 0.00166976 -0.000139165
0.00166976 0.000635153 -7.4897e-05
-0.000139165 -7.4897e-05 -0.000698541
0.00247616 0.00599761 0.000293044
0.00599761 0.00130952 0.000126146
0.000293044 0.000126146 -0.00320045
0.0111593 -0.000341569 1.03404e-05
-0.000341569 -0.00335574 -0.000229208
1.03404e-05 -0.000229208 -0.000821901
0.00781182 -0.00279092 -0.000100436
-0.00279092 0.00444514 -0.00019633
-0.000100436 -0.00019633 -0.00147195
0.000940053 0.000539913 -5.10636e-06
0.000539913 0.000823612 -1.23325e-05
-5.10636e-06 -1.23325e-05 0.000389949
-0.00375204 0.000465145 2.94602e-05
0.000465145 0.000443971 4.76092e-05
2.94602e-05 4.76092e-05 -0.000618745
0.0063065 -0.000525684 0.000184336
-0.000525684 -6.65179e-05 -0.000146429
0.000184336 -0.000146429 -0.00158645
0.00925343 0.000368884 0.000337435
0.000368884 -0.00133162 -1.42038e-05
0.000337435 -1.42038e-05 -0.00108341
-0.00290759 0.000223903 5.58548e-05
0.000223903 -6.23715e-06 -1.85637e-05
5.58548e-05 -1.85637e-05 -0.000947315
0.0115149 0.0040102 0.000386613
0.0040102 0.00623173 0.000129595
0.000386613 0.000129595 0.00018796
0.00458813 -0.000708897 -2.22065e-05
-0.000708897 0.00320813 0.000408828
-2.22065e-05 0.000408828 -0.00101326
0.00312725 0.000514144 2.6748e-05
0.000514144 0.00195133 1.06877e-05
2.6748e-05 1.06877e-05 0.00164413
0.000357896 0.000262107 -8.4902e-06
0.000262107 0.000452167 -2.27294e-06
-8.4902e-06 -2.27294e-06 4.37489e-05
0.000167503 0.000246537 3.2878e-06
0.000246537 0.000509519 -8.49402e-06
3.2878e-06 -8.49402e-06 -2.64376e-05
0.000255325 0.000121951 1.59264e-06
0.000121951 -7.09731e-06 -3.78539e-06
1.59264e-06 -3.78539e-06 -0.000219032
0.000553971 0.000117007 5.13369e-07
0.000117007 0.000251378 2.84908e-07
5.13369e-07 2.84908e-07 4.26304e-05
3.66477e-05 5.9726e-06 6.45156e-06
5.9726e-06 0.000345527 -4.27711e-06
6.45156e-06 -4.27711e-06 -0.00012406
0.000510266 3.80581e-05 4.79165e-07
3.80581e-05 0.000208914 -6.91972e-07
4.79165e-07 -6.91972e-07 1.16492e-05
0.000917147 -3.95081e-05 -4.86772e-07
-3.95081e-05 0.000830688 -2.79491e-06
-4.86772e-07 -2.79491e-06 0.000399139
-0.000204898 2.79432e-05 1.21232e-06
2.79432e-05 0.000326327 4.32622e-07
1.21232e-06 4.32622e-07 -0.000208227
-5.13238e-05 -4.5516e-05 1.1069e-06
-4.5516e-05 0.000384698 1.5807e-05
1.1069e-06 1.5807e-05 -8.63983e-05
0.0005004 -3.8874e-05 8.27084e-08
-3.8874e-05 0.000514351 -1.10455e-05
8.27084e-08 -1.10455e-05 0.000176502
-8.63493e-05 -4.99188e-05 5.33224e-06
-4.99188e-05 -0.000186109 8.67701e-06
5.33224e-06 8.67701e-06 -0.000352876
0.00132744 -3.30143e-05 1.09845e-06
-3.30143e-05 0.000621674 5.08905e-06
1.09845e-06 5.08905e-06 0.000462682
0.000628892 -7.31344e-05 -1.22587e-05
-7.31344e-05 0.000254228 1.30611e-05
-1.22587e-05 1.30611e-05 0.000113557
0.000722323 -9.64709e-05 2.42012e-06
-9.64709e-05 0.000467875 4.89523e-07
2.42012e-06 4.89523e-07 0.000284689
0.00015718 -4.32715e-05 -1.56387e-06
-4.32715e-05 -5.57052e-05 -1.95863e-06
-1.56387e-06 -1.95863e-06 -0.000204104
0.000983994 -0.000269193 1.46483e-06
-0.000269193 0.000440621 4.8131e-06
1.46483e-06 4.8131e-06 0.00029136
0.000603513 -0.000212732 -1.95203e-05
-0.000212732 0.000127927 5.83985e-08
-1.95203e-05 5.83985e-08 6.51996e-05
-0.000866894 -0.000300153 1.35964e-05
-0.000300153 -0.000726584 2.33899e-05
1.35964e-05 2.33899e-05 -0.00104599
0.000266378 -0.000118568 2.3233e-06
-0.000118568 -9.97643e-05 -5.13504e-07
2.3233e-06 -5.13504e-07 -0.000217217
0.00112478 -0.000329589 -5.72413e-06
-0.000329589 0.000341147 1.09828e-05
-5.72413e-06 1.09828e-05 0.000131072
0.00219347 -0.000678247 -7.50155e-06
-0.000678247 0.000939903 1.42269e-05
-7.50155e-06 1.42269e-05 0.000512167
0.00194957 -0.000679812 -7.45544e-06
-0.000679812 0.000696323 -5.64394e-07
-7.45544e-06 -5.64394e-07 0.00023792
0.00175576 -0.000443066 1.52972e-07
-0.000443066 0.000737719 1.96235e-06
1.52972e-07 1.96235e-06 0.000459652
0.000589446 -0.000429585 1.0168e-05
-0.000429585 -4.36765e-05 -4.21977e-06
1.0168e-05 -4.21977e-06 -0.000369736
0.00112973 -0.000200641 3.01226e-06
-0.000200641 0.000514064 -3.4857e-06
3.01226e-06 -3.4857e-06 0.00022132
0.00110059 -0.000239306 -8.29924e-06
-0.000239306 0.000420365 1.80042e-06
-8.29924e-06 1.80042e-06 0.000196329
-0.000106439 -0.000175092 2.13693e-05
-0.000175092 -0.000386456 -1.70715e-05
2.13693e-05 -1.70715e-05 -0.000517108
0.00137246 -0.000138096 -3.97004e-06
-0.000138096 0.000643231 2.43913e-06
-3.97004e-06 2.43913e-06 0.000440915
0.000149179 -0.000101015 7.52034e-07
-0.000101015 -6.15064e-05 9.70917e-07
7.52034e-07 9.70917e-07 -0.000317666
2.81247e-05 -4.91553e-05 1.07004e-06
-4.91553e-05 -0.000225925 -2.36634e-07
1.07004e-06 -2.36634e-07 -0.000406692
0.00193476 -0.000289313 -2.64511e-06
-0.000289313 0.00103829 -5.10452e-07
-2.64511e-06 -5.10452e-07 0.000806138
0.000686406 -0.000123513 -4.67682e-07
-0.000123513 0.000185103 -2.99113e-08
-4.67682e-07 -2.99113e-08 2.5282e-05
0.000387762 3.16433e-06 2.7317e-06
3.16433e-06 -2.16694e-05 4.48156e-06
2.7317e-06 4.48156e-06 -0.000130859
0.000823984 -0.000162329 -3.68096e-08
-0.000162329 0.000282662 -2.28722e-06
-3.68096e-08 -2.28722e-06 0.000125897
0.00044713 4.00823e-06 -2.1936e-06
4.00823e-06 1.62671e-05 -1.88785e-07
-2.1936e-06 -1.88785e-07 -8.55411e-05
0.00147073 -4.9141e-06 -2.06577e-05
-4.9141e-06 0.000629166 5.95439e-06
-2.06577e-05 5.95439e-06 0.000600714
0.000578637 -7.60317e-05 1.8456e-06
-7.60317e-05 9.99553e-05 -5.37156e-06
1.8456e-06 -5.37156e-06 3.87264e-06
0.000859625 -1.52599e-05 -1.01249e-05
-1.52599e-05 0.000240492 5.38164e-07
-1.01249e-05 5.38164e-07 0.000211434
0.000848845 3.0536e-05 6.97086e-07
3.0536e-05 0.000220214 3.45085e-06
6.97086e-07 3.45085e-06 0.00021801
0.000439873 -3.491e-05 3.24014e-06
-3.491e-05 -2.39055e-05 -6.62128e-06
3.24014e-06 -6.62128e-06 -5.39662e-05
0.00175068 3.06239e-05 1.6488e-05
3.06239e-05 0.000801468 -1.28143e-06
1.6488e-05 -1.28143e-06 0.000807839
0.00255275 2.11992e-05 2.0964e-05
2.11992e-05 0.00131523 -5.57319e-06
2.0964e-05 -5.57319e-06 0.00132765
0.000253926 2.46012e-05 2.16896e-06
2.46012e-05 -8.62857e-05 2.63252e-06
2.16896e-06 2.63252e-06 -0.000228769
9.03646e-05 2.35714e-05 5.39121e-07
2.35714e-05 -0.000227612 -4.43683e-06
5.39121e-07 -4.43683e-06 -0.000297487
0.000596686 6.38836e-05 2.4816e-08
6.38836e-05 0.000127461 3.51467e-07
2.4816e-08 3.51467e-07 4.37362e-06
0.000446565 8.49128e-06 2.09634e-06
8.49128e-06 -3.52602e-05 -4.28159e-06
2.09634e-06 -4.28159e-06 -4.87402e-05
0.000307008 8.65817e-06 1.73834e-06
8.65817e-06 -9.1958e-05 5.27229e-08
1.73834e-06 5.27229e-08 -0.000150687
0.000210796 -9.72745e-05 -9.65193e-07
-9.72745e-05 -0.000115519 7.49634e-08
-9.65193e-07 7.49634e-08 -0.000225223
0.00206977 -2.39805e-06 -1.29114e-05
-2.39805e-06 0.00100371 -5.05591e-06
-1.29114e-05 -5.05591e-06 0.00102096
0.00043771 6.05372e-06 4.08662e-08
6.05372e-06 -3.97673e-05 -7.14098e-08
4.08662e-08 -7.14098e-08 -5.10156e-05
0.000409026 -1.24814e-05 -3.4755e-06
-1.24814e-05 -2.48668e-05 2.915e-06
-3.4755e-06 2.915e-06 -7.60593e-05
0.00204494 1.31906e-05 -4.86482e-06
1.31906e-05 0.000989433 1.67703e-09
-4.86482e-06 1.67703e-09 0.00100628
0.000434234 6.31977e-06 -1.8857e-06
6.31977e-06 -4.06264e-05 3.51242e-06
-1.8857e-06 3.51242e-06 -5.15727e-05
0.00203279 2.86359e-05 3.24285e-06
2.86359e-05 0.000983876 5.11311e-06
3.24285e-06 5.11311e-06 0.000999442
-0.000624441 -0.00113471 -0.000301653
-0.00113471 -0.000117424 0.00012691
-0.000301653 0.00012691 -0.00393276
0.0027449 0.00111516 -0.00016687
0.00111516 0.00913133 4.0846e-05
-0.00016687 4.0846e-05 0.00383446
0.00342539 0.000313532 -0.00116973
0.000313532 0.00435207 0.000264853
-0.00116973 0.000264853 0.00223801
0.000644528 0.000127463 8.2713e-06
0.000127463 0.000162897 7.42496e-06
8.2713e-06 7.42496e-06 -2.90005e-06
0.00584136 -0.0012098 -0.000153878
-0.0012098 0.00359446 0.000293739
-0.000153878 0.000293739 0.00109688
0.00435384 -0.00149495 -0.000311184
-0.00149495 0.00196876 3.3681e-05
-0.000311184 3.3681e-05 -0.00298912
0.0152465 0.00521551 0.000332411
0.00521551 0.0096205 -0.000430876
0.000332411 -0.000430876 0.00373915
0.00780698 -0.0014327 0.000144686
-0.0014327 0.000421665 -2.59184e-05
0.000144686 -2.59184e-05 0.00113109
0.0141642 -0.003029 0.000314328
-0.003029 0.000872068 -0.000188031
0.000314328 -0.000188031 0.000426795
0.014554 0.00544431 -0.000886665
0.00544431 0.0031547 0.000448533
-0.000886665 0.000448533 -0.00230617
0.0153038 0.00470208 0.000191566
0.00470208 0.00717672 0.000263617
0.000191566 0.000263617 0.00375286
0.00780698 -0.00291107 -0.000108499
-0.00291107 -0.000265807 -4.60668e-06
-0.000108499 -4.60668e-06 0.000692319
0.0154601 -0.00550345 1.10269e-05
-0.00550345 0.00261323 -4.04926e-05
1.10269e-05 -4.04926e-05 0.00013573
0.0100458 0.00305635 0.00012916
0.00305635 0.00503128 -0.000408748
0.00012916 -0.000408748 -0.000769889
0.0139695 0.00131798 -3.26248e-07
0.00131798 0.000574455 5.35288e-05
-3.26248e-07 5.35288e-05 -6.93234e-05
0.00324276 -0.0029804 -6.69859e-05
-0.0029804 0.000249576 8.00829e-05
-6.69859e-05 8.00829e-05 0.000728283
0.0105607 -0.00548264 0.000234626
-0.00548264 0.00440165 -0.000134634
0.000234626 -0.000134634 0.000300786
0.0101592 -0.000305183 9.80817e-05
-0.000305183 0.00579848 -0.000487136
9.80817e-05 -0.000487136 0.00194712
0.0134628 -2.78819e-05 -0.000182003
-2.78819e-05 -0.00108488 0.00030782
-0.000182003 0.00030782 0.000614024
0.000312441 0.000118185 7.85946e-06
0.000118185 5.95367e-05 1.5607e-05
7.85946e-06 1.5607e-05 -0.000157539
0.000600094 -0.000118748 4.55531e-07
-0.000118748 0.000260657 9.00324e-08
4.55531e-07 9.00324e-08 6.52425e-06
0.000686349 9.6528e-05 3.35861e-06
9.6528e-05 0.00025331 -3.78031e-06
3.35861e-06 -3.78031e-06 9.50618e-05
0.000524149 0.000166658 4.29693e-06
0.000166658 5.05781e-05 1.60004e-05
4.29693e-06 1.60004e-05 -9.70481e-05
0.000855712 0.000225632 3.25182e-07
0.000225632 0.000337605 -8.50955e-08
3.25182e-07 -8.50955e-08 0.000129127
0.00108418 0.000127036 -3.73801e-06
0.000127036 0.00049625 -4.80512e-06
-3.73801e-06 -4.80512e-06 0.000321255
0.00109347 0.000192547 -1.70826e-06
0.000192547 0.000482871 -3.18889e-08
-1.70826e-06 -3.18889e-08 0.000290135
0.00109312 0.000207659 1.44266e-06
0.000207659 0.000510037 1.52115e-06
1.44266e-06 1.52115e-06 0.000310698
0.000771966 -0.000824664 0.000128855
-0.000824664 -0.00100925 -8.03604e-05
0.000128855 -8.03604e-05 -0.000744766
-2.41746e-05 -0.000753363 -3.3703e-05
-0.000753363 -0.000859801 -4.2115e-06
-3.3703e-05 -4.2115e-06 -0.000816592
0.000704074 -0.0002007 4.524e-06
-0.0002007 0.000351642 -3.2955e-05
4.524e-06 -3.2955e-05 4.7844e-05
0.00179839 -0.000800268 2.4722e-05
-0.000800268 0.000983064 -2.10679e-05
2.4722e-05 -2.10679e-05 0.000609258
0.00261112 -0.000544006 -2.29318e-05
-0.000544006 0.0015613 2.43051e-05
-2.29318e-05 2.43051e-05 0.00114717
0.00169735 -0.000177037 7.35417e-06
-0.000177037 0.00100332 -2.20149e-05
7.35417e-06 -2.20149e-05 0.000684715
-1.57033e-05 1.61987e-05 4.03832e-06
1.61987e-05 -0.000129268 7.23536e-06
4.03832e-06 7.23536e-06 -0.000339976
0.000572593 -0.00153476 -9.17714e-06
-0.00153476 -0.000640696 -6.74187e-06
-9.17714e-06 -6.74187e-06 -0.000857833
0.00153241 -4.00439e-05 -1.27807e-06
-4.00439e-05 0.00102687 -7.25751e-07
-1.27807e-06 -7.25751e-07 0.000665887
-0.000106351 -0.000251276 -5.75414e-06
-0.000251276 0.000150478 7.08864e-06
-5.75414e-06 7.08864e-06 -0.000320018
-0.000618124 -0.000495141 2.65879e-05
-0.000495141 -0.000603441 -1.61561e-06
2.65879e-05 -1.61561e-06 -0.000589157
0.000709634 0.000117078 3.29612e-06
0.000117078 0.000337387 8.62451e-06
3.29612e-06 8.62451e-06 0.000148076
-0.000699424 -0.00148347 -9.87513e-05
-0.00148347 -0.00040469 -2.73629e-05
-9.87513e-05 -2.73629e-05 -0.000890208
-0.00116609 -0.000464591 -1.2146e-05
-0.000464591 -0.000468868 2.75132e-05
-1.2146e-05 2.75132e-05 -0.000851412
0.000296154 0.000147107 8.65522e-06
0.000147107 0.000559594 -1.87901e-05
8.65522e-06 -1.87901e-05 2.63472e-05
0.00178703 0.000287218 -2.32119e-06
0.000287218 0.00126442 5.69235e-07
-2.32119e-06 5.69235e-07 0.000886962
-0.00113753 0.000120773 0.000180507
0.000120773 0.00233058 4.28516e-05
0.000180507 4.28516e-05 0.000910622
0.000182233 9.13463e-06 0.00018923
9.13463e-06 0.00128682 -3.68074e-05
0.00018923 -3.68074e-05 -0.00349137
-0.0131428 -0.000453347 -0.000362253
-0.000453347 0.00666951 2.88557e-05
-0.000362253 2.88557e-05 0.000746715
0.00173531 0.000687588 2.1124e-05
0.000687588 0.00103767 6.87032e-07
2.1124e-05 6.87032e-07 0.000668528
-0.000638795 0.000852717 1.35869e-05
0.000852717 -0.000194946 9.89742e-06
1.35869e-05 9.89742e-06 -0.000736347
0.00582607 0.00123905 0.000434101
0.00123905 0.00429278 9.82488e-05
0.000434101 9.82488e-05 0.0010787
0.00754695 0.00458255 0.00026652
0.00458255 0.00299693 0.000213647
0.00026652 0.000213647 -0.00109036
0.00388938 0.00307519 -0.000143591
0.00307519 0.00222517 -0.000130463
-0.000143591 -0.000130463 0.000667507
0.00429231 -0.00238171 -0.000165898
-0.00238171 0.00489996 -0.000494141
-0.000165898 -0.000494141 0.000322308
0.00315824 0.00075346 0.00014274
0.00075346 0.000611038 0.000181958
0.00014274 0.000181958 -0.00119277
0.00886993 -0.000417742 -4.82376e-05
-0.000417742 -0.00549569 -0.000261574
-4.82376e-05 -0.000261574 -0.00251253
0.000963903 0.000637374 3.62216e-06
0.000637374 0.00078576 -5.37732e-08
3.62216e-06 -5.37732e-08 0.000308173
-0.00298942 0.000238793 -2.30675e-06
0.000238793 0.000590328 5.9437e-06
-2.30675e-06 5.9437e-06 -0.000635615
0.00533311 -0.000299713 0.000150519
-0.000299713 -0.000132082 1.78613e-05
0.000150519 1.78613e-05 -0.00113256
-0.00189869 0.000581418 -1.82627e-05
0.000581418 -0.000133579 -1.21917e-05
-1.82627e-05 -1.21917e-05 -0.000993221
0.0139269 0.00153747 2.96643e-06
0.00153747 0.0005581 -5.8467e-05
2.96643e-06 -5.8467e-05 -7.49701e-05
0.0033802 0.00235769 0.000281774
0.00235769 0.00459127 0.000168564
0.000281774 0.000168564 -0.00154218
0.00951571 0.000715609 -0.000196836
0.000715609 0.00380885 7.59641e-06
-0.000196836 7.59641e-06 -0.000445922
0.000341581 0.000554869 5.8373e-06
0.000554869 0.000627808 -2.22588e-05
5.8373e-06 -2.22588e-05 -5.26318e-06
0.00208869 -3.28039e-05 6.55392e-07
-3.28039e-05 0.000873969 -1.07609e-06
6.55392e-07 -1.07609e-06 -7.84359e-05
0.00408682 -0.00173483 0.000149205
-0.00173483 0.00354858 -0.000270494
0.000149205 -0.000270494 0.00142301
0.0248511 0.00594859 0.000354535
0.00594859 0.00847758 -0.000325064
0.000354535 -0.000325064 0.00479141
0.0101765 -0.000359797 -0.0001388
-0.000359797 0.00622299 0.000541516
-0.0001388 0.000541516 0.00210449
-0.000703987 0.000551593 -6.58249e-05
0.000551593 0.000727083 -0.000138246
-6.58249e-05 -0.000138246 -0.000155435
0.00426608 0.00135087 0.000277057
0.00135087 0.00669123 2.60428e-05
0.000277057 2.60428e-05 -0.00237651
0.00139426 0.000427223 1.0005e-05
0.000427223 0.00104012 1.12413e-05
1.0005e-05 1.12413e-05 0.00060566
0.000792046 0.00030366 4.4951e-06
0.00030366 0.000876752 5.50037e-06
4.4951e-06 5.50037e-06 0.000367633
0.000590841 -6.28586e-05 -5.58485e-06
-6.28586e-05 0.000964269 1.21188e-05
-5.58485e-06 1.21188e-05 0.000500727
-0.000911834 -1.37869e-05 1.99798e-06
-1.37869e-05 -0.00069106 -2.58267e-06
1.99798e-06 -2.58267e-06 -0.000876685
-0.000250712 -2.94079e-05 2.89095e-06
-2.94079e-05 0.000202629 3.54497e-06
2.89095e-06 3.54497e-06 -0.000294011
-3.98474e-05 3.45284e-05 6.48025e-07
3.45284e-05 0.000444835 -9.20155e-06
6.48025e-07 -9.20155e-06 -0.000105934
2.56619e-05 -2.25808e-05 3.27166e-07
-2.25808e-05 0.000172375 4.3478e-07
3.27166e-07 4.3478e-07 -0.000117164
-0.00014136 -5.91999e-05 2.23759e-06
-5.91999e-05 0.000317859 1.7563e-06
2.23759e-06 1.7563e-06 -0.000150809
0.00205567 -0.000459297 7.69112e-06
-0.000459297 0.00135072 -1.11575e-05
7.69112e-06 -1.11575e-05 0.00100183
-6.91125e-05 -5.70585e-05 -4.43203e-06
-5.70585e-05 -1.69525e-05 7.50914e-06
-4.43203e-06 7.50914e-06 -0.000199199
-0.000202154 2.24056e-05 1.80584e-07
2.24056e-05 -0.000265157 3.14971e-06
1.80584e-07 3.14971e-06 -0.000408364
0.00103821 -0.000314133 3.58807e-08
-0.000314133 0.000478554 5.6717e-06
3.58807e-08 5.6717e-06 0.000281866
-0.00379267 -1.72091e-05 2.19417e-05
-1.72091e-05 -0.00223397 2.39428e-05
2.19417e-05 2.39428e-05 -0.00258592
-0.000640135 -9.90737e-05 1.0368e-05
-9.90737e-05 -0.000548204 -9.65692e-07
1.0368e-05 -9.65692e-07 -0.000566292
-6.80136e-05 -0.000364748 -2.6767e-06
-0.000364748 -0.000295066 -6.01946e-06
-2.6767e-06 -6.01946e-06 -0.000578819
0.00154762 -0.000664633 -9.47807e-07
-0.000664633 0.000515969 2.05073e-06
-9.47807e-07 2.05073e-06 -2.9031e-05
0.00188565 -0.000790665 -1.07502e-05
-0.000790665 0.000601521 1.12625e-06
-1.07502e-05 1.12625e-06 8.68548e-05
0.00145978 -0.000374431 6.42536e-06
-0.000374431 0.000530278 -6.84552e-06
6.42536e-06 -6.84552e-06 0.000305006
0.00147421 -0.000589732 8.224e-07
-0.000589732 0.000490947 8.10214e-07
8.224e-07 8.10214e-07 7.47639e-05
0.00169755 -0.000681638 3.2143e-06
-0.000681638 0.000489925 -4.40441e-06
3.2143e-06 -4.40441e-06 3.45901e-05
0.00173487 -0.000521769 -2.90044e-06
-0.000521769 0.000645759 7.62533e-06
-2.90044e-06 7.62533e-06 0.000281185
0.00104436 -0.000561994 2.45608e-06
-0.000561994 0.000145227 -4.82941e-06
2.45608e-06 -4.82941e-06 -0.000278159
0.000911891 -0.000213434 5.942e-08
-0.000213434 0.000282844 -5.17119e-06
5.942e-08 -5.17119e-06 1.54647e-05
0.00107727 -0.000386707 -4.60442e-06
-0.000386707 0.000316863 2.29127e-06
-4.60442e-06 2.29127e-06 3.45392e-05
-0.001122 -0.000195532 2.59729e-06
-0.000195532 -0.00109531 -1.0173e-05
2.59729e-06 -1.0173e-05 -0.0013534
-0.000102954 -7.78087e-05 5.23859e-07
-7.78087e-05 -0.000267173 -3.96651e-06
5.23859e-07 -3.96651e-06 -0.000512652
0.000287711 -0.000170323 5.61026e-07
-0.000170323 1.787e-05 3.6649e-07
5.61026e-07 3.6649e-07 -0.000275758
-2.70317e-05 -0.000179941 1.0716e-05
-0.000179941 -0.000232891 4.52992e-07
1.0716e-05 4.52992e-07 -0.000468586
0.000972737 -0.000160582 -4.87433e-07
-0.000160582 0.000431161 1.25002e-06
-4.87433e-07 1.25002e-06 0.000185383
0.000706541 -0.000134105 2.13992e-07
-0.000134105 0.000211988 4.1193e-07
2.13992e-07 4.1193e-07 1.67164e-05
0.000432714 -2.28458e-05 1.19339e-06
-2.28458e-05 -5.8705e-06 6.36964e-06
1.19339e-06 6.36964e-06 -0.000124504
0.00129513 -0.000192119 -1.31952e-06
-0.000192119 0.000592166 -4.03989e-07
-1.31952e-06 -4.03989e-07 0.000412019
0.000587746 -2.6717e-05 -1.22495e-06
-2.6717e-05 8.94059e-05 -3.36222e-07
-1.22495e-06 -3.36222e-07 -1.25391e-05
0.00035046 4.92082e-05 3.01483e-06
4.92082e-05 -7.55163e-05 7.91487e-06
3.01483e-06 7.91487e-06 -0.000118309
0.000712387 -7.91266e-05 1.44069e-06
-7.91266e-05 0.000173121 -3.79158e-06
1.44069e-06 -3.79158e-06 7.42669e-05
0.000435694 -9.48832e-06 -1.62725e-06
-9.48832e-06 -3.29843e-05 -8.17737e-08
-1.62725e-06 -8.17737e-08 -6.82192e-05
0.00272633 9.4078e-05 -1.37098e-06
9.4078e-05 0.00142779 2.80851e-06
-1.37098e-06 2.80851e-06 0.00143047
0.000470572 -2.82371e-05 3.269e-06
-2.82371e-05 -7.80669e-06 -6.96509e-06
3.269e-06 -6.96509e-06 -4.08859e-05
0.00180257 4.4455e-05 1.96522e-05
4.4455e-05 0.00083417 -1.01531e-06
1.96522e-05 -1.01531e-06 0.000838166
0.00265147 3.72639e-05 2.80067e-05
3.72639e-05 0.00137654 -5.92592e-06
2.80067e-05 -5.92592e-06 0.0013879
0.000254489 3.22958e-05 3.73391e-06
3.22958e-05 -0.000103067 1.46609e-06
3.73391e-06 1.46609e-06 -0.000234011
0.000173125 1.20329e-05 2.5108e-06
1.20329e-05 -0.00017612 -3.134e-06
2.5108e-06 -3.134e-06 -0.000258729
0.00045867 4.17875e-05 -4.33946e-07
4.17875e-05 4.02856e-05 -1.23296e-06
-4.33946e-07 -1.23296e-06 -9.61116e-05
0.000471423 1.11825e-05 1.7296e-06
1.11825e-05 -1.97426e-05 -4.88768e-06
1.7296e-06 -4.88768e-06 -3.69098e-05
0.000154933 2.10356e-05 -7.16971e-07
2.10356e-05 -0.000187072 -1.94462e-06
-7.16971e-07 -1.94462e-06 -0.00025954
0.000644172 6.65106e-05 -3.57063e-07
6.65106e-05 0.00017277 1.78333e-06
-3.57063e-07 1.78333e-06 3.93584e-05
0.00210823 -1.62599e-05 -1.82682e-05
-1.62599e-05 0.00102706 -5.01303e-06
-1.82682e-05 -5.01303e-06 0.00104403
0.000447797 5.93579e-06 -7.97591e-07
5.93579e-06 -3.51735e-05 -1.01094e-07
-7.97591e-07 -1.01094e-07 -4.8203e-05
7.14596e-05 1.79382e-05 1.34323e-06
1.79382e-05 -0.0002388 2.5168e-06
1.34323e-06 2.5168e-06 -0.000301695
0.00205767 -1.37144e-06 -4.10917e-06
-1.37144e-06 0.000995927 5.95983e-08
-4.10917e-06 5.95983e-08 0.00101326
0.000427644 5.40609e-06 -2.25091e-06
5.40609e-06 -4.67024e-05 3.79541e-06
-2.25091e-06 3.79541e-06 -5.75765e-05
0.00208452 1.46734e-05 8.80246e-06
1.46734e-05 0.00101524 5.14031e-06
8.80246e-06 5.14031e-06 0.00103165
0.000582966 -7.51896e-05 0.000185903
-7.51896e-05 0.00314183 9.34688e-05
0.000185903 9.34688e-05 0.0019873
-0.00044638 -0.000492009 -6.67482e-05
-0.000492009 0.000498514 -4.58191e-06
-6.67482e-05 -4.58191e-06 -0.00401671
0.000376828 0.00111204 -0.00012688
0.00111204 0.00868984 -6.71508e-05
-0.00012688 -6.71508e-05 0.00308078
0.00084453 0.000150593 1.00239e-06
0.000150593 0.000275222 1.10425e-07
1.00239e-06 1.10425e-07 0.000119409
0.000249562 0.000112808 8.21762e-06
0.000112808 -8.81061e-05 4.8375e-06
8.21762e-06 4.8375e-06 -0.000240082
0.00129016 0.000228298 1.32838e-05
0.000228298 0.000558255 1.11334e-05
1.32838e-05 1.11334e-05 0.000398386
0.00740945 -0.000708393 -0.000176876
-0.000708393 -0.000197477 0.000210651
-0.000176876 0.000210651 -0.0016865
0.00590682 -0.00159722 0.000125281
-0.00159722 0.00319863 2.02012e-05
0.000125281 2.02012e-05 0.00149952
0.00465998 -0.00246938 0.000268536
-0.00246938 0.00194256 -0.000307671
0.000268536 -0.000307671 -0.00298331
0.00987709 -0.00355253 -1.61452e-05
-0.00355253 6.6268e-05 -4.95817e-05
-1.61452e-05 -4.95817e-05 0.00119988
0.00196668 -0.0045671 -0.000594113
-0.0045671 -0.00223859 7.96041e-05
-0.000594113 7.96041e-05 -0.00417206
0.0282419 0.00523951 0.000370452
0.00523951 0.012525 0.000226186
0.000370452 0.000226186 0.0057749
0.00807741 -0.000511236 0.000377152
-0.000511236 -0.00221271 -0.00029923
0.000377152 -0.00029923 -0.00295953
0.00303668 -0.00320617 -2.6576e-05
-0.00320617 -0.000658591 1.71052e-05
-2.6576e-05 1.71052e-05 0.000344517
0.00739344 -0.00555293 -0.000173071
-0.00555293 0.00265284 1.98086e-05
-0.000173071 1.98086e-05 -0.00226154
0.00141746 0.00424063 -0.000106741
0.00424063 0.00549414 -0.000353218
-0.000106741 -0.000353218 -0.000251287
0.0114721 -0.000156217 -0.000108636
-0.000156217 -0.00330049 0.000164278
-0.000108636 0.000164278 -0.000856669
-0.00056935 -0.00213458 -0.000148848
-0.00213458 0.000350853 7.00118e-05
-0.000148848 7.00118e-05 -9.0216e-05
0.0101253 -0.00352061 -0.000388124
-0.00352061 0.00606465 0.000226897
-0.000388124 0.000226897 0.000508874
0.00165994 -0.000260179 7.15343e-05
-0.000260179 0.0028295 -0.000338314
7.15343e-05 -0.000338314 -0.00155225
0.00966224 -0.000240688 0.00012531
-0.000240688 -0.00179465 0.000110691
0.00012531 0.000110691 -0.00141829
2.07576e-05 0.000108792 1.16557e-05
0.000108792 -0.000192827 2.49311e-05
1.16557e-05 2.49311e-05 -0.000331789
0.000695617 1.34915e-05 2.20454e-06
1.34915e-05 0.000279833 -2.84014e-06
2.20454e-06 -2.84014e-06 5.26156e-05
0.000277185 -0.000177654 4.14165e-06
-0.000177654 -1.94135e-05 -1.23165e-05
4.14165e-06 -1.23165e-05 -0.000234946
0.000641463 0.00015318 -2.0206e-06
0.00015318 0.000134586 2.22081e-06
-2.0206e-06 2.22081e-06 -2.16614e-05
0.000827397 0.00016548 2.55025e-06
0.00016548 0.000327028 -8.37539e-06
2.55025e-06 -8.37539e-06 0.000127705
0.00121112 0.000217035 -5.87923e-06
0.000217035 0.000557469 -6.36885e-06
-5.87923e-06 -6.36885e-06 0.000363642
0.000467251 -0.00137161 5.10322e-05
-0.00137161 -0.000527808 -2.03436e-05
5.10322e-05 -2.03436e-05 -0.000723628
0.000490566 -0.000446831 1.57906e-05
-0.000446831 -2.16224e-05 -2.5707e-05
1.57906e-05 -2.5707e-05 3.00161e-05
0.000251441 0.000121265 -2.92918e-06
0.000121265 5.65384e-05 -2.06255e-05
-2.92918e-06 -2.06255e-05 -0.000180547
0.00259879 -0.000549588 7.65198e-05
-0.000549588 0.00163572 -3.53266e-05
7.65198e-05 -3.53266e-05 0.00119751
0.00209788 -0.000163153 3.81197e-06
-0.000163153 0.00130817 -6.36985e-07
3.81197e-06 -6.36985e-07 0.0009853
-0.000253991 0.000102213 5.99941e-06
0.000102213 -0.000194709 3.49572e-06
5.99941e-06 3.49572e-06 -0.000410237
0.000214195 6.78181e-05 2.38704e-06
6.78181e-05 0.000278257 5.99134e-07
2.38704e-06 5.99134e-07 -5.06153e-05
0.00151632 -0.00159576 -4.97408e-05
-0.00159576 0.000635469 2.40273e-06
-4.97408e-05 2.40273e-06 8.72727e-05
0.0001282 -3.24956e-05 -5.05746e-06
-3.24956e-05 0.000518574 2.63372e-06
-5.05746e-06 2.63372e-06 -5.61337e-05
0.000387283 -0.000413905 -1.51743e-05
-0.000413905 0.000543868 -4.62072e-06
-1.51743e-05 -4.62072e-06 4.17094e-05
0.000793914 0.000196622 4.37254e-06
0.000196622 0.000610323 -9.32554e-06
4.37254e-06 -9.32554e-06 0.000321228
-0.00209625 -0.000442384 -1.38355e-05
-0.000442384 -8.87634e-06 -2.7342e-05
-1.38355e-05 -2.7342e-05 -0.00100049
0.000567533 -0.000218601 -1.96611e-05
-0.000218601 0.000998852 -1.6244e-06
-1.96611e-05 -1.6244e-06 0.000412907
-0.00156044 -3.5988e-05 -1.52226e-05
-3.5988e-05 -0.000298426 -7.36992e-07
-1.52226e-05 -7.36992e-07 -0.000868805
4.70683e-05 0.000326162 -1.24357e-05
0.000326162 -0.000497084 2.77252e-06
-1.24357e-05 2.77252e-06 -0.00244608
-0.00204379 0.00037688 9.77555e-05
0.00037688 0.00206439 -8.50552e-06
9.77555e-05 -8.50552e-06 0.000584962
-0.000836432 -0.000135142 0.000392827
-0.000135142 0.000564748 4.01089e-05
0.000392827 4.01089e-05 -0.00418575
0.000486765 0.000664517 1.01293e-05
0.000664517 0.000471414 1.84092e-05
1.01293e-05 1.84092e-05 -4.01548e-05
0.000119625 0.000969341 -2.13719e-05
0.000969341 0.000512056 -2.10311e-05
-2.13719e-05 -2.10311e-05 -0.0002848
-0.00265331 0.000193822 -8.88664e-05
0.000193822 0.000743705 -3.46105e-05
-8.88664e-05 -3.46105e-05 -0.000636757
-0.00458899 0.000800735 0.000111909
0.000800735 0.00321339 0.00021421
0.000111909 0.00021421 -0.00258638
0.00101875 0.000883462 -0.000158224
0.000883462 -0.00154649 -0.000506347
-0.000158224 -0.000506347 -0.0068896
0.00451499 -5.95586e-05 0.000100832
-5.95586e-05 -0.000261087 7.5248e-05
0.000100832 7.5248e-05 -0.000708261
0.00731742 -0.000290651 -0.000357715
-0.000290651 -0.00215731 0.00027595
-0.000357715 0.00027595 -0.00304893
0.000192643 0.000450236 -3.31398e-06
0.000450236 0.000591875 -6.9671e-07
-3.31398e-06 -6.9671e-07 4.08432e-05
0.00129183 0.000105093 4.05646e-05
0.000105093 0.000790209 4.00052e-06
4.05646e-05 4.00052e-06 -0.000136622
0.00487168 -0.0012084 -0.000117954
-0.0012084 0.00317174 -7.47955e-06
-0.000117954 -7.47955e-06 0.00144669
-0.000505599 0.000797155 -0.000150153
0.000797155 0.00156008 -1.1682e-05
-0.000150153 -1.1682e-05 -0.000144085
0.0176812 0.00587453 -8.17347e-05
0.00587453 0.00550085 -0.00045284
-8.17347e-05 -0.00045284 0.0017707
0.00285892 0.00367297 9.57735e-05
0.00367297 0.00572736 0.000372795
9.57735e-05 0.000372795 -0.000407678
0.0052456 0.00114802 7.05372e-05
0.00114802 0.00624313 -1.4707e-05
7.05372e-05 -1.4707e-05 -0.00141891
0.000211091 1.85595e-05 3.24941e-05
1.85595e-05 0.00141876 -2.30445e-05
3.24941e-05 -2.30445e-05 0.000179998
5.69359e-05 -0.000148722 -0.000171977
-0.000148722 0.0034419 2.10824e-06
-0.000171977 2.10824e-06 0.00205325
0.0014513 -0.000964638 0.000817477
-0.000964638 0.000559959 -0.000274213
0.000817477 -0.000274213 -0.00473622
0.0242323 0.00931446 -9.17194e-05
0.00931446 0.0164531 -2.74362e-05
-9.17194e-05 -2.74362e-05 0.011041
0.0108475 0.00438378 2.37252e-05
0.00438378 0.00394173 0.000954669
2.37252e-05 0.000954669 -0.00190284
0.0121298 -0.0043132 0.000369109
-0.0043132 0.00670943 -0.000280756
0.000369109 -0.000280756 0.00016393
0.00265213 -0.000820237 -7.43519e-05
-0.000820237 0.00331077 3.72568e-05
-7.43519e-05 3.72568e-05 0.00217267
0.000954682 0.000281197 -4.91952e-06
0.000281197 0.000982034 2.82487e-06
-4.91952e-06 2.82487e-06 0.000507355
1.85237e-06 -7.09648e-05 -3.68182e-06
-7.09648e-05 0.000537779 -5.11774e-06
-3.68182e-06 -5.11774e-06 1.95438e-05
0.00111228 -0.000578122 4.83217e-05
-0.000578122 0.000925001 -1.23375e-05
4.83217e-05 -1.23375e-05 0.000324359
0.000199579 -7.22625e-05 -3.25357e-06
-7.22625e-05 0.00022947 9.38253e-06
-3.25357e-06 9.38253e-06 -1.14506e-05
-0.000108654 -8.59747e-05 -4.46646e-06
-8.59747e-05 0.000291529 -1.893e-05
-4.46646e-06 -1.893e-05 -0.000145162
0.000597543 -0.000322382 -5.25167e-06
-0.000322382 0.000636793 6.29251e-07
-5.25167e-06 6.29251e-07 0.000267799
0.0013512 -0.00072701 3.23617e-05
-0.00072701 0.000655731 -1.67709e-05
3.23617e-05 -1.67709e-05 0.000269107
0.00119736 -0.000381038 2.05123e-06
-0.000381038 0.00060448 1.88295e-09
2.05123e-06 1.88295e-09 0.00033337
0.00148223 -0.000680262 1.67843e-05
-0.000680262 0.000662917 -2.99546e-06
1.67843e-05 -2.99546e-06 0.00022221
0.00138476 -0.000703485 9.40738e-06
-0.000703485 0.000598452 1.61414e-06
9.40738e-06 1.61414e-06 -0.000119073
0.000578472 -0.000387644 -7.59143e-06
-0.000387644 5.69813e-05 -8.76081e-06
-7.59143e-06 -8.76081e-06 -0.00017457
0.00228945 -0.000760009 -3.73793e-06
-0.000760009 0.000911819 -2.72088e-06
-3.73793e-06 -2.72088e-06 0.000369487
0.00179517 -0.000879888 -1.44109e-05
-0.000879888 0.000488471 -1.67646e-06
-1.44109e-05 -1.67646e-06 -0.000149047
0.00223799 -0.00100527 -1.45652e-05
-0.00100527 0.00058116 1.93614e-06
-1.45652e-05 1.93614e-06 1.28549e-05
0.00204677 -0.000869687 -5.11133e-06
-0.000869687 0.000648135 1.3426e-07
-5.11133e-06 1.3426e-07 0.000124311
0.00169212 -0.000765405 -4.96411e-06
-0.000765405 0.000481908 8.59681e-07
-4.96411e-06 8.59681e-07 -3.10577e-05
0.00127774 -0.000571499 2.54473e-06
-0.000571499 0.000343136 -8.30439e-06
2.54473e-06 -8.30439e-06 -7.50451e-05
0.00146417 -0.000621761 8.29291e-06
-0.000621761 0.00041306 -3.51495e-06
8.29291e-06 -3.51495e-06 -1.63199e-05
0.00168919 -0.000692224 7.09085e-06
-0.000692224 0.000488409 -1.54937e-06
7.09085e-06 -1.54937e-06 3.071e-05
0.00124024 -0.00031704 1.01301e-06
-0.00031704 0.000385249 1.34824e-06
1.01301e-06 1.34824e-06 0.000106947
0.00120061 -0.000474399 6.02342e-06
-0.000474399 0.000303717 -4.22857e-06
6.02342e-06 -4.22857e-06 -5.03783e-05
-3.93616e-05 -0.000423981 -5.58042e-06
-0.000423981 -0.000520598 -6.72276e-06
-5.58042e-06 -6.72276e-06 -0.000904978
0.000108761 -0.000107404 -2.3805e-07
-0.000107404 -0.000152548 -4.60409e-06
-2.3805e-07 -4.60409e-06 -0.000425602
0.000946276 -0.000250901 -9.61691e-07
-0.000250901 0.000325188 -1.34003e-07
-9.61691e-07 -1.34003e-07 4.95906e-05
0.000284319 -0.000321173 -3.43073e-06
-0.000321173 -0.000176039 -2.57778e-06
-3.43073e-06 -2.57778e-06 -0.000461202
0.000422459 -7.1618e-05 -3.43968e-07
-7.1618e-05 -1.00035e-05 6.91688e-06
-3.43968e-07 6.91688e-06 -0.000157609
0.000798153 -0.000140381 -7.88892e-08
-0.000140381 0.000289801 3.42087e-07
-7.88892e-08 3.42087e-07 4.51471e-05
-0.000269934 -0.000157796 3.04849e-07
-0.000157796 -0.000318036 4.13044e-06
3.04849e-07 4.13044e-06 -0.000602007
0.00144222 -0.000185908 3.2866e-07
-0.000185908 0.000686672 6.63133e-07
3.2866e-07 6.63133e-07 0.000478925
0.000635278 -7.37267e-05 -4.71162e-07
-7.37267e-05 0.000122837 -3.70388e-07
-4.71162e-07 -3.70388e-07 -1.96227e-06
0.00033187 1.87165e-05 2.5212e-06
1.87165e-05 -8.32679e-05 1.05699e-05
2.5212e-06 1.05699e-05 -0.000132767
0.000709537 -7.75301e-05 7.52583e-07
-7.75301e-05 0.000166961 -4.52936e-06
7.52583e-07 -4.52936e-06 6.08355e-05
0.000454403 5.27469e-06 -3.86849e-06
5.27469e-06 -1.69353e-05 -2.98845e-07
-3.86849e-06 -2.98845e-07 -5.67532e-05
0.00296646 9.93435e-05 -4.39844e-05
9.93435e-05 0.00158837 5.08878e-06
-4.39844e-05 5.08878e-06 0.00159125
0.000474483 -2.02951e-05 3.12674e-06
-2.02951e-05 -1.10374e-05 -6.91032e-06
3.12674e-06 -6.91032e-06 -4.54746e-05
0.00184585 6.26042e-05 2.39266e-05
6.26042e-05 0.00086413 -7.45219e-07
2.39266e-05 -7.45219e-07 0.000864976
0.00283114 5.81467e-05 3.52124e-05
5.81467e-05 0.00149237 -5.59278e-06
3.52124e-05 -5.59278e-06 0.00150133
0.000835366 0.000113103 6.49037e-06
0.000113103 0.000278393 -1.32283e-06
6.49037e-06 -1.32283e-06 0.000124785
0.000502053 5.48654e-05 3.81634e-06
5.48654e-05 3.51082e-05 -2.86594e-06
3.81634e-06 -2.86594e-06 -5.53929e-05
0.000416892 5.5916e-05 -5.76128e-07
5.5916e-05 1.59743e-05 -1.44188e-06
-5.76128e-07 -1.44188e-06 -0.000127441
0.000461152 1.16859e-05 1.41342e-06
1.16859e-05 -2.5854e-05 -6.08909e-06
1.41342e-06 -6.08909e-06 -4.84011e-05
0.000293147 4.35633e-05 -2.44918e-06
4.35633e-05 -9.758e-05 -2.08551e-06
-2.44918e-06 -2.08551e-06 -0.000180045
0.00067586 8.9317e-05 -2.32494e-06
8.9317e-05 0.000184701 -3.42205e-06
-2.32494e-06 -3.42205e-06 4.6901e-05
0.00220957 -3.22917e-05 -2.17718e-05
-3.22917e-05 0.00109198 -5.15171e-06
-2.17718e-05 -5.15171e-06 0.00110746
0.000440805 -1.09555e-06 3.90409e-07
-1.09555e-06 -4.04219e-05 -1.73573e-07
3.90409e-07 -1.73573e-07 -5.67735e-05
0.000111149 1.78979e-05 -2.25634e-06
1.78979e-05 -0.000215381 6.02237e-07
-2.25634e-06 6.02237e-07 -0.000289526
0.00213569 -1.57341e-05 -5.75235e-06
-1.57341e-05 0.0010448 1.3075e-07
-5.75235e-06 1.3075e-07 0.0010617
0.000441054 1.52514e-06 -3.39803e-06
1.52514e-06 -4.00301e-05 4.0656e-06
-3.39803e-06 4.0656e-06 -5.26681e-05
0.00210314 1.27931e-07 1.37086e-05
1.27931e-07 0.00102517 5.10964e-06
1.37086e-05 5.10964e-06 0.00104226
0.00192958 -0.000332245 -9.15179e-05
-0.000332245 0.000680853 3.19376e-05
-9.15179e-05 3.19376e-05 -0.000292058
-0.00119804 -0.000183901 9.31294e-05
-0.000183901 0.00267992 -4.9387e-06
9.31294e-05 -4.9387e-06 0.00117045
-0.000992813 -0.000389284 0.000168049
-0.000389284 0.000968315 -0.000202514
0.000168049 -0.000202514 -0.00419133
-0.00013983 2.87045e-05 5.28419e-06
2.87045e-05 -0.000293776 4.55633e-06
5.28419e-06 4.55633e-06 -0.00048459
0.00283995 0.000140322 4.62925e-06
0.000140322 0.00155827 7.58112e-06
4.62925e-06 7.58112e-06 0.00135652
0.000705959 0.000160787 -5.70228e-06
0.000160787 0.000193849 -6.84177e-06
-5.70228e-06 -6.84177e-06 3.9171e-05
0.000195388 8.03242e-05 1.36459e-06
8.03242e-05 -0.000138396 2.3337e-07
1.36459e-06 2.3337e-07 -0.000284053
0.000248283 8.97749e-05 2.91735e-07
8.97749e-05 -0.000127856 -1.48435e-06
2.91735e-07 -1.48435e-06 -0.000249746
0.000145711 9.6131e-05 8.4513e-06
9.6131e-05 -0.000159406 3.74788e-06
8.4513e-06 3.74788e-06 -0.000304061
2.20709e-05 0.000104977 1.75867e-05
0.000104977 -0.000215944 6.41033e-06
1.75867e-05 6.41033e-06 -0.000329126
0.0026915 0.00150303 0.000268814
0.00150303 -0.000300065 0.000261887
0.000268814 0.000261887 -0.00191615
0.00608576 -0.000411749 -7.31576e-05
-0.000411749 -4.53425e-05 5.12806e-05
-7.31576e-05 5.12806e-05 -0.00148028
0.00453925 -0.000890836 0.000311945
-0.000890836 0.00334578 -0.000127393
0.000311945 -0.000127393 0.00154114
0.00927706 -0.000189128 -1.90914e-06
-0.000189128 -0.0056586 0.000183782
-1.90914e-06 0.000183782 -0.00245557
0.00679912 -0.00397583 -0.000143683
-0.00397583 0.00114443 3.08497e-05
-0.000143683 3.08497e-05 0.0016237
0.0011332 -0.00493637 -0.000348388
-0.00493637 0.00165431 0.000121409
-0.000348388 0.000121409 -0.00445862
0.0186395 0.00475859 0.000174204
0.00475859 0.00804327 -0.000209395
0.000174204 -0.000209395 0.0025535
0.00240234 -0.00300842 -6.24413e-05
-0.00300842 0.00018223 2.92131e-05
-6.24413e-05 2.92131e-05 0.000680821
-0.00140914 -0.00106719 -6.68102e-05
-0.00106719 0.00461033 5.45661e-05
-6.68102e-05 5.45661e-05 -0.00315772
0.0110419 0.000514022 0.000255627
0.000514022 0.00426808 -3.44237e-05
0.000255627 -3.44237e-05 0.000167428
0.0170642 -0.00196592 -8.42458e-05
-0.00196592 0.00225264 -1.1602e-05
-8.42458e-05 -1.1602e-05 0.00319686
-0.00299691 -0.000529767 -0.000174336
-0.000529767 -4.83474e-05 0.000176832
-0.000174336 0.000176832 -0.000401799
0.00234463 0.00212061 -0.000242324
0.00212061 0.00554012 -0.000135967
-0.000242324 -0.000135967 -0.00232271
0.000613418 -0.00614 1.25425e-05
-0.00614 0.000401832 -0.000247388
1.25425e-05 -0.000247388 -0.00561009
0.016072 -0.00308311 0.000211043
-0.00308311 0.00561283 -0.000706823
0.000211043 -0.000706823 0.00302448
0.000399169 9.81696e-06 2.12858e-05
9.81696e-06 0.000294482 -2.51235e-07
2.12858e-05 -2.51235e-07 3.33359e-07
0.000754834 0.000194461 -2.09896e-06
0.000194461 0.000298891 -4.18784e-06
-2.09896e-06 -4.18784e-06 0.000141334
0.000807846 -8.09776e-06 -1.21437e-06
-8.09776e-06 0.000366621 -7.12922e-06
-1.21437e-06 -7.12922e-06 0.0001161
0.000952745 0.00016865 -5.39777e-06
0.00016865 0.000356327 -1.29116e-05
-5.39777e-06 -1.29116e-05 0.000181744
0.000898012 -0.00131395 7.16774e-05
-0.00131395 0.00032891 3.0184e-05
7.16774e-05 3.0184e-05 -0.000239418
0.00146394 -0.00039818 6.00277e-06
-0.00039818 0.00124223 -2.62673e-05
6.00277e-06 -2.62673e-05 0.000635347
0.000783267 0.000110473 -1.89186e-05
0.000110473 0.000440342 -2.40776e-05
-1.89186e-05 -2.40776e-05 0.00024588
0.00096296 1.18705e-05 -2.78283e-07
1.18705e-05 0.000691622 -9.23604e-06
-2.78283e-07 -9.23604e-06 0.000407622
0.000164685 -2.56912e-05 -2.32628e-06
-2.56912e-05 0.000549257 1.24707e-05
-2.32628e-06 1.24707e-05 4.39773e-05
0.000163379 8.32748e-05 2.23706e-06
8.32748e-05 0.000157144 3.84538e-06
2.23706e-06 3.84538e-06 -8.37884e-05
0.000307649 -1.09136e-05 7.67235e-07
-1.09136e-05 0.000724878 1.33045e-06
7.67235e-07 1.33045e-06 0.000192375
0.000235635 -0.000703002 -1.40073e-06
-0.000703002 0.00113063 1.36331e-06
-1.40073e-06 1.36331e-06 -0.000206649
0.000406855 -0.000133502 -5.08551e-07
-0.000133502 0.00106505 -7.10878e-06
-5.08551e-07 -7.10878e-06 0.000492225
-0.000386472 0.000114707 3.37913e-06
0.000114707 4.5449e-06 -9.16806e-06
3.37913e-06 -9.16806e-06 -0.000293433
0.000191786 0.000245818 -0.000171134
0.000245818 0.00299509 -1.79726e-05
-0.000171134 -1.79726e-05 0.000905667
0.000646681 0.000354509 -2.03396e-05
0.000354509 0.00110365 6.26713e-06
-2.03396e-05 6.26713e-06 0.000505743
-0.00248339 2.52549e-05 -9.45611e-05
2.52549e-05 0.00230799 -4.63119e-05
-9.45611e-05 -4.63119e-05 0.000828629
0.00125842 0.000123282 2.34779e-05
0.000123282 0.000228541 1.06396e-05
2.34779e-05 1.06396e-05 -0.000804003
-0.00352549 0.000563045 -4.35606e-05
0.000563045 0.00154178 -7.87264e-05
-4.35606e-05 -7.87264e-05 -9.21127e-05
0.000382399 0.000367137 -2.34828e-05
0.000367137 0.000792623 3.79795e-06
-2.34828e-05 3.79795e-06 0.000331016
-0.00133922 0.000948578 0.000181538
0.000948578 0.000409862 0.000116264
0.000181538 0.000116264 -0.000526101
0.000876299 5.85428e-05 8.37528e-05
5.85428e-05 0.000777676 -8.50127e-06
8.37528e-05 -8.50127e-06 0.000123673
0.00629634 -0.00240859 0.000311152
-0.00240859 0.00632395 -0.000196374
0.000311152 -0.000196374 -0.00257016
0.0203535 0.00418118 -0.000209303
0.00418118 0.00856768 0.000187444
-0.000209303 0.000187444 0.00295972
0.0032258 -0.000819652 -0.000279858
-0.000819652 0.00236012 0.000110697
-0.000279858 0.000110697 0.000738929
0.0142577 0.0051301 -0.000147811
0.0051301 0.00734621 -0.000262544
-0.000147811 -0.000262544 0.0036274
0.000469318 0.00025417 -5.72709e-05
0.00025417 0.0013799 1.22027e-05
-5.72709e-05 1.22027e-05 0.000204678
-0.000108528 -0.000318095 -0.00010055
-0.000318095 0.00266786 1.22633e-06
-0.00010055 1.22633e-06 0.00158379
0.0029302 -0.00173815 0.000300136
-0.00173815 0.00170539 -5.00366e-05
0.000300136 -5.00366e-05 -0.00342682
-0.00337216 -8.58822e-05 5.81499e-05
-8.58822e-05 -0.000338542 3.44384e-05
5.81499e-05 3.44384e-05 -0.000930614
0.0188161 0.0108403 0.000759795
0.0108403 0.0131729 -0.00029494
0.000759795 -0.00029494 0.00758423
0.0100243 0.00331117 -0.000167402
0.00331117 0.00534933 0.000412012
-0.000167402 0.000412012 -0.00042778
-0.0028043 -0.00136472 0.000208205
-0.00136472 0.00323176 -0.000162128
0.000208205 -0.000162128 -0.00491882
-0.00149437 -0.00046319 -8.11721e-06
-0.00046319 0.000432148 -3.11335e-05
-8.11721e-06 -3.11335e-05 -0.000770931
0.000683731 -0.000991112 0.000350748
-0.000991112 -7.96733e-05 -9.10402e-05
0.000350748 -9.10402e-05 -0.00386356
0.000532203 0.00136077 -0.00157983
0.00136077 0.00857649 0.000373816
-0.00157983 0.000373816 0.00353177
0.0221894 0.00786001 -0.000612771
0.00786001 0.00760702 0.000523081
-0.000612771 0.000523081 0.00180071
0.00648342 -0.00404477 -0.000206491
-0.00404477 0.00327239 8.20698e-05
-0.000206491 8.20698e-05 -0.000304182
0.00316067 -0.00197246 5.02309e-05
-0.00197246 0.00341086 4.79803e-06
5.02309e-05 4.79803e-06 0.00228098
0.000104543 -5.09351e-05 1.84838e-06
-5.09351e-05 0.000550908 -1.41253e-05
1.84838e-06 -1.41253e-05 -1.28469e-05
4.01768e-05 -0.000419827 5.71683e-06
-0.000419827 0.000422847 -2.41335e-06
5.71683e-06 -2.41335e-06 -0.000207979
0.000542141 -0.000894242 -6.08062e-06
-0.000894242 0.000408643 -6.28336e-07
-6.08062e-06 -6.28336e-07 -3.4082e-05
-0.000412263 -0.000208912 -1.20087e-06
-0.000208912 0.000165826 7.18867e-06
-1.20087e-06 7.18867e-06 -0.00021492
-0.000443021 -0.000461815 -2.5392e-06
-0.000461815 -0.000202165 5.32219e-06
-2.5392e-06 5.32219e-06 -0.000529284
0.00318623 -0.00102307 4.43632e-05
-0.00102307 0.00139043 -2.18692e-05
4.43632e-05 -2.18692e-05 0.000906656
0.00634079 -0.00130708 -1.30828e-05
-0.00130708 0.00331921 -2.03894e-06
-1.30828e-05 -2.03894e-06 0.00278983
0.00286473 -0.000911786 1.01813e-05
-0.000911786 0.00132456 -3.31023e-06
1.01813e-05 -3.31023e-06 0.000614412
0.00210099 -0.00101581 2.93415e-06
-0.00101581 0.000585503 -1.87578e-05
2.93415e-06 -1.87578e-05 -0.000118066
0.00242426 -0.000773394 -1.08563e-05
-0.000773394 0.000959688 -8.06927e-06
-1.08563e-05 -8.06927e-06 0.000433024
0.00217118 -0.000932805 7.27687e-07
-0.000932805 0.000692174 -2.5318e-06
7.27687e-07 -2.5318e-06 3.75039e-05
0.00271541 -0.0010922 -8.26247e-06
-0.0010922 0.000868806 -1.1504e-05
-8.26247e-06 -1.1504e-05 0.000227474
0.00231978 -0.000847105 -4.14386e-06
-0.000847105 0.000425457 -4.69607e-06
-4.14386e-06 -4.69607e-06 -3.61421e-06
0.00267716 -0.00104656 -1.03817e-05
-0.00104656 0.00079549 1.4772e-06
-1.03817e-05 1.4772e-06 0.000248336
0.00251361 -0.00104252 -3.59616e-06
-0.00104252 0.000727354 1.19803e-07
-3.59616e-06 1.19803e-07 0.00014742
0.00182184 -0.00082479 6.8315e-06
-0.00082479 0.000532607 -4.60578e-06
6.8315e-06 -4.60578e-06 3.52022e-05
0.0016464 -0.000804062 3.22603e-06
-0.000804062 0.000417999 -1.27978e-06
3.22603e-06 -1.27978e-06 -8.24053e-05
0.00145168 -0.000732068 8.26604e-06
-0.000732068 0.000329347 -8.59437e-07
8.26604e-06 -8.59437e-07 -0.000180023
0.00153681 -0.000544209 8.33561e-06
-0.000544209 0.000500321 4.5896e-06
8.33561e-06 4.5896e-06 0.000112344
0.00161529 -0.000636701 -1.14965e-06
-0.000636701 0.000516332 -2.14443e-06
-1.14965e-06 -2.14443e-06 8.1793e-05
0.00169031 -0.000703386 5.43656e-06
-0.000703386 0.000491406 3.72164e-06
5.43656e-06 3.72164e-06 3.17784e-05
0.00126695 -0.000222673 9.03556e-07
-0.000222673 0.000458872 -4.3181e-06
9.03556e-07 -4.3181e-06 0.000200327
0.000901422 -0.000291311 -3.16631e-06
-0.000291311 0.000197562 2.65165e-06
-3.16631e-06 2.65165e-06 -7.24703e-05
0.000803146 -0.000436869 -5.87933e-07
-0.000436869 4.59722e-05 -1.1449e-05
-5.87933e-07 -1.1449e-05 -0.000298417
-4.40057e-06 -8.81883e-05 -2.23584e-06
-8.81883e-05 -0.000260014 3.69629e-06
-2.23584e-06 3.69629e-06 -0.0004649
0.00080659 -0.000195126 -4.03803e-08
-0.000195126 0.000290629 7.22209e-07
-4.03803e-08 7.22209e-07 8.51734e-06
0.00067703 -0.000275813 2.64234e-06
-0.000275813 0.000193915 6.16134e-07
2.64234e-06 6.16134e-07 -9.75575e-05
0.000318887 -2.7923e-05 -7.38137e-06
-2.7923e-05 -0.000105728 1.5831e-05
-7.38137e-06 1.5831e-05 -0.000158805
0.000663554 -9.51325e-05 8.5571e-07
-9.51325e-05 0.000133172 3.19836e-07
8.5571e-07 3.19836e-07 -1.52767e-05
0.00150644 -0.000221353 -6.46178e-07
-0.000221353 0.000725449 3.50141e-06
-6.46178e-07 3.50141e-06 0.000481233
0.000811696 -8.58419e-05 2.07954e-07
-8.58419e-05 0.000231522 -5.72093e-06
2.07954e-07 -5.72093e-06 0.000104003
0.000433 2.36741e-06 -8.46565e-07
2.36741e-06 -2.64082e-05 -5.26294e-07
-8.46565e-07 -5.26294e-07 -7.32163e-05
0.00307447 0.00012651 -4.34191e-05
0.00012651 0.00166721 5.13101e-06
-4.34191e-05 5.13101e-06 0.00166384
0.000519061 -1.05309e-05 2.82274e-06
-1.05309e-05 1.81379e-05 -8.42345e-06
2.82274e-06 -8.42345e-06 -1.91439e-05
0.00290818 0.000100986 5.43309e-06
0.000100986 0.0015509 6.75177e-07
5.43309e-06 6.75177e-07 0.00155369
0.00279495 7.80737e-05 3.80388e-05
7.80737e-05 0.00147169 -5.09549e-06
3.80388e-05 -5.09549e-06 0.00147866
0.0013163 0.000110022 5.34954e-06
0.000110022 0.000710632 -4.32939e-06
5.34954e-06 -4.32939e-06 0.000443855
0.00145253 0.000177138 7.47615e-06
0.000177138 0.000751873 -4.84906e-06
7.47615e-06 -4.84906e-06 0.000526197
0.000543253 4.31267e-05 5.71385e-06
4.31267e-05 5.53895e-05 -5.58635e-06
5.71385e-06 -5.58635e-06 -4.72947e-05
0.00064636 0.000124073 9.2194e-10
0.000124073 0.000171629 1.35035e-07
9.2194e-10 1.35035e-07 1.50277e-05
0.000435118 -3.96584e-06 3.15044e-06
-3.96584e-06 -3.90622e-05 -7.38691e-06
3.15044e-06 -7.38691e-06 -6.68039e-05
0.000522813 5.8185e-05 2.05302e-07
5.8185e-05 4.8722e-05 -2.60526e-07
2.05302e-07 -2.60526e-07 -4.18511e-05
0.000578439 5.85592e-05 -6.47894e-06
5.85592e-05 0.000105644 -2.42471e-06
-6.47894e-06 -2.42471e-06 -2.99186e-05
0.00238446 -4.934e-05 -2.81406e-05
-4.934e-05 0.00120593 -5.41914e-06
-2.81406e-05 -5.41914e-06 0.00121879
0.000453073 5.32771e-06 -9.32623e-07
5.32771e-06 -3.02143e-05 -1.64106e-07
-9.32623e-07 -1.64106e-07 -5.22152e-05
0.000471864 6.2272e-05 -4.92121e-06
6.2272e-05 1.84933e-05 4.46366e-07
-4.92121e-06 4.46366e-07 -6.40501e-05
0.00221601 -3.19368e-05 -5.00494e-06
-3.19368e-05 0.0010961 2.63717e-07
-5.00494e-06 2.63717e-07 0.00111163
0.000452498 1.82083e-06 -3.46364e-06
1.82083e-06 -3.37953e-05 4.49643e-06
-3.46364e-06 4.49643e-06 -4.96777e-05
0.00212954 -1.53389e-05 1.73474e-05
-1.53389e-05 0.0010407 4.99323e-06
1.73474e-05 4.99323e-06 0.00105761
-0.00268452 0.000458165 -1.58238e-05
0.000458165 0.00089681 -7.68435e-05
-1.58238e-05 -7.68435e-05 -0.000172661
0.00216306 -0.000274316 -1.72986e-05
-0.000274316 0.00110372 -1.83101e-05
-1.72986e-05 -1.83101e-05 0.000333493
-5.12207e-05 -0.000280419 1.61714e-05
-0.000280419 0.00248834 -4.86666e-05
1.61714e-05 -4.86666e-05 0.00127462
0.000654658 9.8018e-05 1.5483e-06
9.8018e-05 0.000271741 -3.78638e-06
1.5483e-06 -3.78638e-06 2.72127e-05
5.76406e-05 0.000123219 6.60836e-06
0.000123219 -0.000178234 -2.85426e-06
6.60836e-06 -2.85426e-06 -0.000374356
-0.0017776 1.53578e-07 5.45609e-06
1.53578e-07 -0.00140762 -9.74344e-06
5.45609e-06 -9.74344e-06 -0.00157913
-0.00156867 3.31552e-06 -2.19899e-06
3.31552e-06 -0.0011266 1.95687e-05
-2.19899e-06 1.95687e-05 -0.00134684
0.0028553 0.000402752 2.77515e-06
0.000402752 0.00157106 -9.07127e-07
2.77515e-06 -9.07127e-07 0.00128238
0.000796772 4.37478e-05 -6.84852e-06
4.37478e-05 0.000233335 -3.19335e-06
-6.84852e-06 -3.19335e-06 8.01767e-05
0.000335692 0.000119652 -1.23375e-05
0.000119652 -5.58349e-05 -1.14536e-05
-1.23375e-05 -1.14536e-05 -0.000178327
0.00102518 3.5628e-05 2.22671e-06
3.5628e-05 0.00038474 1.96208e-08
2.22671e-06 1.96208e-08 0.000248432
0.00102048 0.000185325 -1.513e-06
0.000185325 0.000408716 -4.41564e-06
-1.513e-06 -4.41564e-06 0.000285858
0.0019329 0.00016561 5.66689e-06
0.00016561 0.00115974 -1.8473e-05
5.66689e-06 -1.8473e-05 0.00088848
0.00673952 0.0014464 0.000517011
0.0014464 0.00475439 0.000555688
0.000517011 0.000555688 -0.000239831
0.00291773 0.00115648 2.35515e-05
0.00115648 0.000354119 9.09357e-05
2.35515e-05 9.09357e-05 -0.00148211
0.00542517 -0.000317462 8.42303e-05
-0.000317462 -0.000222838 -1.89076e-05
8.42303e-05 -1.89076e-05 -0.00108454
0.0143765 -0.00133266 -0.00030154
-0.00133266 0.00212283 -0.00014257
-0.00030154 -0.00014257 0.00387261
-0.00238267 0.00101842 8.67177e-05
0.00101842 -0.00242265 0.000420376
8.67177e-05 0.000420376 -0.00775929
0.00259896 -0.00312688 -4.52965e-05
-0.00312688 0.000705555 -3.09295e-05
-4.52965e-05 -3.09295e-05 0.000971037
0.00634944 -0.00214876 -0.000215206
-0.00214876 0.00535765 5.0883e-05
-0.000215206 5.0883e-05 -0.000469769
0.00101661 -0.00137037 -0.000139206
-0.00137037 0.00124712 0.000135874
-0.000139206 0.000135874 0.000767912
0.010555 -7.57867e-05 -0.000226419
-7.57867e-05 0.00754655 -2.89803e-06
-0.000226419 -2.89803e-06 0.000461319
0.00754231 -0.00278583 0.00010579
-0.00278583 0.00459028 0.000215921
0.00010579 0.000215921 -0.00115379
0.0207043 -0.00495051 -4.23952e-05
-0.00495051 0.00521041 -0.000826187
-4.23952e-05 -0.000826187 0.00159012
0.000997561 0.000307832 -0.000144442
0.000307832 0.00288671 0.000103049
-0.000144442 0.000103049 0.00143062
0.0108123 0.00276419 -0.000288028
0.00276419 0.0071066 -3.70419e-05
-0.000288028 -3.70419e-05 0.00126652
0.0215368 -0.00820424 3.10373e-05
-0.00820424 0.0117575 -0.000841695
3.10373e-05 -0.000841695 0.00515212
0.0271025 -0.010783 0.000103874
-0.010783 0.0124719 -7.75346e-05
0.000103874 -7.75346e-05 0.00716965
0.000983377 0.000318305 2.42897e-05
0.000318305 0.000635535 -8.27337e-06
2.42897e-05 -8.27337e-06 0.000241004
-3.60936e-05 4.60149e-05 5.38011e-06
4.60149e-05 0.000107961 1.9553e-06
5.38011e-06 1.9553e-06 -0.00024143
0.00115843 0.000207906 -2.14226e-05
0.000207906 0.000572715 -2.00321e-05
-2.14226e-05 -2.00321e-05 0.000398464
0.00397237 -0.00121742 0.000105921
-0.00121742 0.00269868 -4.33844e-06
0.000105921 -4.33844e-06 0.00107443
-0.000425354 -0.00014104 6.2976e-05
-0.00014104 0.000801313 -1.62563e-05
6.2976e-05 -1.62563e-05 0.000158612
-0.000283624 7.10782e-05 -6.18875e-06
7.10782e-05 -0.00012739 -3.00601e-06
-6.18875e-06 -3.00601e-06 -0.00035943
-0.000458743 -9.948e-05 1.83717e-05
-9.948e-05 0.000327112 -5.10959e-06
1.83717e-05 -5.10959e-06 -0.000264345
-0.000108921 0.000135622 -1.96509e-06
0.000135622 0.000139593 -8.66646e-07
-1.96509e-06 -8.66646e-07 -0.000162555
0.000140202 0.000334895 1.64345e-05
0.000334895 0.000649439 3.8369e-06
1.64345e-05 3.8369e-06 2.68223e-05
-0.0023727 7.43395e-05 0.000205946
7.43395e-05 0.00115286 -3.46e-05
0.000205946 -3.46e-05 -0.000911266
4.01659e-05 0.000567763 1.40455e-05
0.000567763 5.54023e-05 2.49501e-05
1.40455e-05 2.49501e-05 -0.000371644
0.00195743 0.00095802 -0.000141225
0.00095802 0.00197765 -0.00010098
-0.000141225 -0.00010098 0.000369473
0.000895734 0.000103211 0.000230658
0.000103211 0.00178657 8.17008e-05
0.000230658 8.17008e-05 -0.00297918
-0.00271979 0.000314279 -0.000106781
0.000314279 0.00205676 9.68622e-06
-0.000106781 9.68622e-06 0.000301815
0.00307617 -0.000311007 -5.43701e-05
-0.000311007 0.00131826 -3.11962e-06
-5.43701e-05 -3.11962e-06 0.00110613
4.01422e-05 0.000597378 0.000105834
0.000597378 0.000907861 1.72679e-05
0.000105834 1.72679e-05 -0.000321612
0.00125751 0.000310782 -0.000115529
0.000310782 0.00299652 0.000112881
-0.000115529 0.000112881 0.00135265
-0.00065245 -0.000274361 -7.19382e-06
-0.000274361 0.00216446 -2.92972e-05
-7.19382e-06 -2.92972e-05 0.000811615
0.0162462 -0.00494785 0.000284299
-0.00494785 0.00895912 -0.000151529
0.000284299 -0.000151529 0.00198809
0.0249085 0.00592155 -0.000337067
0.00592155 0.012217 -0.000215697
-0.000337067 -0.000215697 0.00542588
0.00547915 -0.00207423 -0.000380015
-0.00207423 0.00292753 0.000299745
-0.000380015 0.000299745 -0.00172273
0.0113558 0.0126845 0.00291058
0.0126845 0.00900581 -0.00174834
0.00291058 -0.00174834 0.00309865
0.00100384 -0.000641651 4.51673e-05
-0.000641651 0.001653 -1.39086e-05
4.51673e-05 -1.39086e-05 0.000378325
-0.000363465 -0.000687796 6.17238e-05
-0.000687796 0.000649189 1.0544e-05
6.17238e-05 1.0544e-05 -0.00381631
0.00224679 0.00188301 -0.00139609
0.00188301 0.0081231 0.000327184
-0.00139609 0.000327184 0.00263148
2.09501e-05 -0.00102428 3.14188e-05
-0.00102428 0.00145156 2.74595e-05
3.14188e-05 2.74595e-05 0.000482999
0.0220936 0.00749165 0.000415954
0.00749165 0.00781795 0.000120083
0.000415954 0.000120083 0.0019358
0.00802644 -0.0063005 0.000274429
-0.0063005 0.00281863 -8.72005e-05
0.000274429 -8.72005e-05 -0.0013424
0.0002142 -0.00154088 -1.15167e-06
-0.00154088 0.000511797 3.33749e-05
-1.15167e-06 3.33749e-05 -0.000579973
-0.00512279 -0.00201052 0.000183745
-0.00201052 0.00697438 -9.99068e-05
0.000183745 -9.99068e-05 0.0024333
0.0179858 0.00763637 -0.00188202
0.00763637 0.00722741 0.000520227
-0.00188202 0.000520227 0.00270265
0.00657903 -0.00479041 -0.000528687
-0.00479041 -0.000739079 0.000216288
-0.000528687 0.000216288 -0.00364858
-2.06887e-05 -0.0022112 0.000197004
-0.0022112 -0.0001944 -0.000142582
0.000197004 -0.000142582 0.000769844
0.00139487 -0.000633191 -0.000116434
-0.000633191 0.00102379 3.63555e-05
-0.000116434 3.63555e-05 0.000446564
0.000702676 -0.000733459 -1.79167e-05
-0.000733459 0.000563671 1.29997e-05
-1.79167e-05 1.29997e-05 8.38499e-05
0.0028036 -0.0010359 1.9442e-05
-0.0010359 0.00128964 -2.80913e-05
1.9442e-05 -2.80913e-05 0.000813232
-0.000992134 -0.000239995 1.35419e-05
-0.000239995 -0.000359546 4.3566e-06
1.35419e-05 4.3566e-06 -0.000651974
0.000990704 -0.000742968 -2.5998e-06
-0.000742968 0.00022206 -3.67662e-06
-2.5998e-06 -3.67662e-06 -0.000202353
0.0032122 -0.00117859 1.00786e-05
-0.00117859 0.000993409 -7.33362e-06
1.00786e-05 -7.33362e-06 0.000518817
0.00435218 -0.00112009 -3.05157e-05
-0.00112009 0.00206443 1.9183e-06
-3.05157e-05 1.9183e-06 0.00136297
0.001708 -0.000929602 -2.20705e-06
-0.000929602 0.000369952 -1.5037e-06
-2.20705e-06 -1.5037e-06 -0.000307574
0.00244542 -0.00114673 -2.12493e-06
-0.00114673 0.00051137 -1.11395e-05
-2.12493e-06 -1.11395e-05 -3.95517e-05
0.00298757 -0.00104498 7.71814e-06
-0.00104498 0.00113189 8.25085e-06
7.71814e-06 8.25085e-06 0.000456532
0.00242418 -0.00105659 2.29789e-06
-0.00105659 0.000681169 -4.00466e-06
2.29789e-06 -4.00466e-06 6.13723e-05
0.00269024 -0.0009117 -5.03318e-06
-0.0009117 0.000588771 -8.4982e-06
-5.03318e-06 -8.4982e-06 0.00016026
0.00187518 -0.000571546 -2.88044e-06
-0.000571546 7.79241e-06 -1.99345e-06
-2.88044e-06 -1.99345e-06 -0.000249161
0.00198621 -0.000834353 5.64328e-07
-0.000834353 0.000175696 -2.04412e-06
5.64328e-07 -2.04412e-06 -0.000249611
0.00231 -0.000853852 3.36745e-06
-0.000853852 0.000407636 -2.5963e-06
3.36745e-06 -2.5963e-06 -2.20823e-05
0.00251381 -0.000925814 -4.58089e-06
-0.000925814 0.000763833 -1.0613e-06
-4.58089e-06 -1.0613e-06 0.000270604
0.00265681 -0.00104343 -3.46516e-06
-0.00104343 0.000791906 -6.69167e-08
-3.46516e-06 -6.69167e-08 0.000240084
0.00259473 -0.00105658 1.0919e-05
-0.00105658 0.000761899 -5.51363e-06
1.0919e-05 -5.51363e-06 0.00017453
0.0018457 -0.000720299 7.02259e-06
-0.000720299 0.000596383 -2.40146e-06
7.02259e-06 -2.40146e-06 0.00013871
0.00162674 -0.000791721 2.34299e-06
-0.000791721 0.000429599 -7.87019e-07
2.34299e-06 -7.87019e-07 -5.68724e-05
0.00131643 -0.000750367 3.94186e-06
-0.000750367 0.000229373 1.96105e-06
3.94186e-06 1.96105e-06 -0.000250624
0.00152083 -0.000354784 2.22042e-07
-0.000354784 0.000538671 2.39369e-06
2.22042e-07 2.39369e-06 0.000249923
0.00127807 -0.000499085 1.5346e-06
-0.000499085 0.000363284 7.4072e-07
1.5346e-06 7.4072e-07 -1.02254e-05
0.00184215 -0.000658458 -4.55835e-06
-0.000658458 0.000669156 2.27381e-06
-4.55835e-06 2.27381e-06 0.000227821
-4.75813e-05 -0.000129243 -2.53033e-06
-0.000129243 -0.000326776 8.54682e-07
-2.53033e-06 8.54682e-07 -0.000566638
0.000671857 -0.000251859 -1.7541e-06
-0.000251859 0.000117653 -1.56185e-06
-1.7541e-06 -1.56185e-06 -0.000162047
0.000830251 -0.000292978 -3.36371e-06
-0.000292978 0.000177124 -3.95328e-07
-3.36371e-06 -3.95328e-07 -9.25788e-05
0.00194648 -4.09478e-06 -5.64194e-05
-4.09478e-06 0.000936863 1.05252e-05
-5.64194e-05 1.05252e-05 0.000878552
0.000728549 -0.00014639 1.93828e-07
-0.00014639 0.00017876 -1.34952e-07
1.93828e-07 -1.34952e-07 -2.02607e-05
0.00139523 -0.000283697 8.73846e-07
-0.000283697 0.000664897 4.94777e-06
8.73846e-07 4.94777e-06 0.000371819
0.000670676 2.15779e-05 -6.11513e-05
2.15779e-05 0.000127202 6.80863e-06
-6.11513e-05 6.80863e-06 0.000115671
0.00123702 -9.28085e-06 -2.03809e-05
-9.28085e-06 0.000482092 -7.8587e-07
-2.03809e-05 -7.8587e-07 0.000430996
0.000982213 -0.000113354 3.51116e-06
-0.000113354 0.000327465 -5.55606e-06
3.51116e-06 -5.55606e-06 0.000177245
0.000575585 -1.14336e-05 3.86758e-06
-1.14336e-05 5.83302e-05 -1.08469e-05
3.86758e-06 -1.08469e-05 1.29603e-05
0.00316716 0.000125966 9.80125e-06
0.000125966 0.00172645 8.23887e-07
9.80125e-06 8.23887e-07 0.00172343
0.0029027 9.99413e-05 4.25759e-05
9.99413e-05 0.00154715 -5.04291e-06
4.25759e-05 -5.04291e-06 0.00155046
0.0007773 0.000185838 1.2369e-05
0.000185838 0.000294814 1.37691e-06
1.2369e-05 1.37691e-06 3.09018e-05
0.00167252 0.000198227 4.94426e-06
0.000198227 0.000905735 -4.44736e-06
4.94426e-06 -4.44736e-06 0.000633074
-0.000448004 3.43433e-05 1.91057e-06
3.43433e-05 -0.000434741 -4.2346e-07
1.91057e-06 -4.2346e-07 -0.000668623
0.000628594 6.68333e-05 2.359e-06
6.68333e-05 0.000118762 -8.33961e-06
2.359e-06 -8.33961e-06 -5.06689e-06
0.00070297 0.000126946 7.3245e-07
0.000126946 0.000234685 4.13156e-08
7.3245e-07 4.13156e-08 3.81731e-05
0.00043166 1.13331e-05 -9.19783e-07
1.13331e-05 -3.32213e-05 -1.00378e-05
-9.19783e-07 -1.00378e-05 -6.85645e-05
0.000559398 5.66516e-05 -5.78939e-08
5.66516e-05 7.43791e-05 -4.96092e-07
-5.78939e-08 -4.96092e-07 -3.07687e-05
0.000674121 5.72965e-05 -6.01948e-06
5.72965e-05 0.000213133 1.92022e-06
-6.01948e-06 1.92022e-06 4.47356e-05
0.0026619 -6.92402e-05 -3.70666e-05
-6.92402e-05 0.00138824 -5.28354e-06
-3.70666e-05 -5.28354e-06 0.00139761
0.000422822 4.2726e-06 -2.3126e-07
4.2726e-06 -4.56694e-05 -2.98204e-08
-2.3126e-07 -2.98204e-08 -7.37469e-05
0.000502061 6.39824e-05 -2.64794e-06
6.39824e-05 3.67853e-05 3.25406e-06
-2.64794e-06 3.25406e-06 -5.42638e-05
0.00239847 -5.03659e-05 -6.62801e-06
-5.03659e-05 0.00121503 4.24585e-07
-6.62801e-06 4.24585e-07 0.00122769
0.000404664 -1.32453e-05 -6.39934e-06
-1.32453e-05 -6.06662e-05 5.65978e-06
-6.39934e-06 5.65978e-06 -8.21898e-05
0.00222822 -3.05812e-05 2.28402e-05
-3.05812e-05 0.00110385 5.02472e-06
2.28402e-05 5.02472e-06 0.00111959
0.00680184 0.00096309 0.000437446
0.00096309 0.0044464 0.000104176
0.000437446 0.000104176 0.0016222
-0.00232649 0.000337244 -7.05453e-06
0.000337244 0.000802569 -1.11771e-05
-7.05453e-06 -1.11771e-05 -0.000583588
0.000467224 0.000389372 -8.8492e-06
0.000389372 0.00120498 -1.52002e-05
-8.8492e-06 -1.52002e-05 0.000178076
-0.000704266 0.000141506 -9.4123e-06
0.000141506 -0.000802146 5.76418e-06
-9.4123e-06 5.76418e-06 -0.000998153
1.94058e-05 3.70269e-05 -7.18215e-06
3.70269e-05 -0.000194862 6.40772e-06
-7.18215e-06 6.40772e-06 -0.00038837
-0.000361736 5.57524e-05 -7.81924e-06
5.57524e-05 -0.000439629 -1.10482e-05
-7.81924e-06 -1.10482e-05 -0.000616669
0.00166179 8.98054e-05 4.35171e-06
8.98054e-05 0.000835974 4.48412e-07
4.35171e-06 4.48412e-07 0.000642943
0.000458605 0.000152815 -3.69522e-06
0.000152815 -2.72736e-05 -5.76535e-06
-3.69522e-06 -5.76535e-06 -0.000211599
0.00247909 0.000369711 -1.25943e-05
0.000369711 0.00134209 -4.67832e-06
-1.25943e-05 -4.67832e-06 0.00111901
0.00118557 0.000293342 -5.86471e-07
0.000293342 0.000446989 -1.20969e-05
-5.86471e-07 -1.20969e-05 0.000111323
-0.00167231 0.000151018 -7.38899e-07
0.000151018 -0.000891127 -6.4797e-07
-7.38899e-07 -6.4797e-07 -0.00128764
0.000470119 0.000110019 -8.27184e-06
0.000110019 7.0761e-05 -6.19048e-06
-8.27184e-06 -6.19048e-06 -7.7609e-05
-0.000270431 5.59651e-05 -1.55908e-05
5.59651e-05 -0.000466608 -8.83822e-06
-1.55908e-05 -8.83822e-06 -0.000542269
-0.000644233 2.06516e-05 -2.23695e-06
2.06516e-05 -0.000415324 2.10229e-06
-2.23695e-06 2.10229e-06 -0.000695417
0.000703546 0.000341029 1.85086e-05
0.000341029 0.000560896 2.39231e-06
1.85086e-05 2.39231e-06 4.85379e-05
0.00565702 -0.0046556 6.05356e-05
-0.0046556 0.00766724 0.000238517
6.05356e-05 0.000238517 0.000560835
0.00747864 0.00195163 0.000198064
0.00195163 0.0037049 0.000190639
0.000198064 0.000190639 -0.00187123
0.00376898 0.000632325 -2.06849e-05
0.000632325 0.000994939 -8.42932e-05
-2.06849e-05 -8.42932e-05 -0.0011068
0.0303666 -0.00674939 -0.000982966
-0.00674939 0.00911761 -0.000442839
-0.000982966 -0.000442839 0.00489604
0.00515244 -0.00171118 0.000303987
-0.00171118 0.00434311 0.000551463
0.000303987 0.000551463 0.000113833
0.0026545 -0.00171326 -0.000270556
-0.00171326 0.00545388 0.000130164
-0.000270556 0.000130164 -0.00237005
-0.000852661 -0.0010893 8.68244e-05
-0.0010893 0.00144916 4.457e-05
8.68244e-05 4.457e-05 0.000285817
-0.00126175 -6.35268e-05 0.000160717
-6.35268e-05 0.00135581 5.17415e-05
0.000160717 5.17415e-05 0.000408957
0.0205657 -0.011625 0.00052528
-0.011625 0.0108989 0.000499683
0.00052528 0.000499683 0.00521446
0.00264695 0.00194338 -0.0001365
0.00194338 0.00493165 -0.000101816
-0.0001365 -0.000101816 -0.00209256
0.0110298 -0.00439683 -0.000146452
-0.00439683 0.00640369 0.00013921
-0.000146452 0.00013921 -0.000543613
-6.8678e-05 0.00082302 -1.6591e-05
0.00082302 0.00128514 4.29745e-05
-1.6591e-05 4.29745e-05 0.000657086
0.00941274 0.00497104 -0.000147689
0.00497104 0.0033238 -2.7847e-07
-0.000147689 -2.7847e-07 -0.000743915
0.0203867 -0.00765969 -0.000958843
-0.00765969 0.0071791 -0.000491393
-0.000958843 -0.000491393 0.00107929
0.000797002 0.000683543 1.14563e-05
0.000683543 7.93525e-05 -7.46188e-06
1.14563e-05 -7.46188e-06 -0.000103033
0.000518167 0.000238695 7.38243e-06
0.000238695 0.000352466 6.37559e-06
7.38243e-06 6.37559e-06 -6.15211e-06
-0.000492344 2.65919e-05 -1.92927e-05
2.65919e-05 -0.00016255 -3.11285e-06
-1.92927e-05 -3.11285e-06 -0.000518824
-0.00311478 -0.000285726 -0.000124436
-0.000285726 0.000534239 -5.60809e-05
-0.000124436 -5.60809e-05 -0.00142701
-0.000105571 0.000275151 1.22957e-06
0.000275151 0.00021824 -1.58098e-05
1.22957e-06 -1.58098e-05 -0.000347581
0.000820106 0.000242617 -5.42997e-06
0.000242617 0.000652556 8.33866e-06
-5.42997e-06 8.33866e-06 0.00032117
0.00113389 0.000748495 1.48525e-05
0.000748495 0.000606828 4.04011e-06
1.48525e-05 4.04011e-06 0.000155919
-0.000332629 0.000657622 2.83514e-05
0.000657622 0.000897528 -3.70751e-05
2.83514e-05 -3.70751e-05 -0.000486719
0.00119836 0.00170536 8.33992e-05
0.00170536 0.00028874 4.66296e-06
8.33992e-05 4.66296e-06 -0.000747442
-0.00668795 0.00125304 0.000448406
0.00125304 0.00596316 -9.1234e-06
0.000448406 -9.1234e-06 -0.00212326
0.00225233 -0.000346949 -1.51584e-05
-0.000346949 0.00220672 8.08163e-05
-1.51584e-05 8.08163e-05 -0.000993248
-0.00305255 -2.63424e-05 -2.20813e-05
-2.63424e-05 0.00144735 7.54696e-05
-2.20813e-05 7.54696e-05 -6.68069e-05
-0.000737271 -0.000365899 -6.08047e-05
-0.000365899 0.000809809 1.60606e-05
-6.08047e-05 1.60606e-05 -0.000522215
-0.00163271 -0.000675671 -7.21599e-05
-0.000675671 -2.54267e-05 5.76515e-05
-7.21599e-05 5.76515e-05 9.37049e-05
-0.000736961 -0.00066776 -0.000231822
-0.00066776 0.0011598 0.000153787
-0.000231822 0.000153787 -0.00368567
-0.00132227 -0.00475087 0.000251576
-0.00475087 0.00214522 -0.000127221
0.000251576 -0.000127221 -0.00433528
0.0151979 0.00604179 0.000837552
0.00604179 0.00307991 -0.000474991
0.000837552 -0.000474991 -0.00241664
0.0143579 0.00513053 -0.000458188
0.00513053 0.00952656 0.000413489
-0.000458188 0.000413489 0.00342625
0.00101471 -0.00110017 -2.58832e-05
-0.00110017 0.00148986 3.75121e-06
-2.58832e-05 3.75121e-06 0.000454569
0.00289616 0.000950179 0.000192323
0.000950179 0.00895228 -3.94328e-05
0.000192323 -3.94328e-05 0.0036646
0.00329323 0.00525222 1.23351e-05
0.00525222 0.00156623 8.59048e-05
1.23351e-05 8.59048e-05 -0.002872
0.00257459 -0.00337353 9.0692e-05
-0.00337353 0.000881315 -5.52383e-05
9.0692e-05 -5.52383e-05 0.00113754
0.0154213 -0.00533977 2.93873e-06
-0.00533977 0.00192227 7.17054e-06
2.93873e-06 7.17054e-06 3.48473e-05
0.00337411 -0.00206455 1.00593e-06
-0.00206455 0.00143226 1.66603e-05
1.00593e-06 1.66603e-05 0.000887736
-0.00709468 0.00170774 -0.000789242
0.00170774 -0.0016449 0.000134241
-0.000789242 0.000134241 -0.00537994
0.0158646 -0.00342665 -0.000229237
-0.00342665 0.00120077 6.6068e-05
-0.000229237 6.6068e-05 0.00015758
0.00424019 -0.00324705 0.00012991
-0.00324705 4.81448e-05 -7.7268e-05
0.00012991 -7.7268e-05 0.00101976
-0.000309632 -0.00052716 8.45442e-06
-0.00052716 0.000105696 3.65446e-06
8.45442e-06 3.65446e-06 -0.000400598
0.00203617 -0.00108246 7.0896e-06
-0.00108246 0.000749083 -6.78266e-06
7.0896e-06 -6.78266e-06 0.000375631
0.00361017 -0.00110091 2.10143e-05
-0.00110091 0.00124057 -2.04304e-05
2.10143e-05 -2.04304e-05 0.000855406
-0.00016576 -0.000595948 -9.17298e-06
-0.000595948 -0.000357088 1.16288e-05
-9.17298e-06 1.16288e-05 -0.000778619
0.00186111 -0.00102366 -3.68053e-06
-0.00102366 0.000292699 1.78792e-06
-3.68053e-06 1.78792e-06 -0.000182669
0.00340389 -0.00123896 5.21163e-06
-0.00123896 0.000892477 -6.24237e-06
5.21163e-06 -6.24237e-06 0.000421867
0.00139877 -0.000856866 -8.56568e-06
-0.000856866 0.000187469 1.08779e-05
-8.56568e-06 1.08779e-05 -0.000465434
0.00218369 -0.00110591 -8.19031e-07
-0.00110591 0.000377432 2.65234e-06
-8.19031e-07 2.65234e-06 -0.000171651
0.00214211 -0.00087456 -4.55833e-06
-0.00087456 0.000108399 -5.15686e-06
-4.55833e-06 -5.15686e-06 -0.000224501
0.00180048 -0.000977375 7.88546e-06
-0.000977375 0.000321587 4.65275e-06
7.88546e-06 4.65275e-06 -0.000271558
0.00219393 -0.000841048 -1.76934e-06
-0.000841048 0.00032112 1.71861e-06
-1.76934e-06 1.71861e-06 -9.01828e-05
0.00222299 -0.000614612 -2.33893e-06
-0.000614612 0.000140757 -2.49434e-06
-2.33893e-06 -2.49434e-06 -8.49735e-05
0.00202714 -0.000524724 -3.31338e-06
-0.000524724 9.95012e-05 5.67475e-07
-3.31338e-06 5.67475e-07 -8.90208e-05
0.00182108 -0.000585514 -4.01183e-06
-0.000585514 -5.87818e-07 -1.62831e-06
-4.01183e-06 -1.62831e-06 -0.000269638
0.00192624 -0.000570416 1.68262e-06
-0.000570416 3.73304e-05 2.77328e-06
1.68262e-06 2.77328e-06 -0.000216022
0.00179832 -0.00072386 -4.57634e-06
-0.00072386 0.000131882 -3.41842e-06
-4.57634e-06 -3.41842e-06 -0.000249175
0.00217935 -0.000845266 2.8056e-06
-0.000845266 0.000315204 -5.30864e-08
2.8056e-06 -5.30864e-08 -0.000107423
0.00228281 -0.000853728 4.71831e-06
-0.000853728 0.000387826 1.45315e-06
4.71831e-06 1.45315e-06 -4.04965e-05
0.00192025 -0.0007894 -1.05448e-07
-0.0007894 0.00044183 -2.61871e-06
-1.05448e-07 -2.61871e-06 -2.02383e-05
0.00232978 -0.000911289 2.0248e-06
-0.000911289 0.000646245 -6.24963e-07
2.0248e-06 -6.24963e-07 0.000153079
0.00255837 -0.00102869 3.69712e-06
-0.00102869 0.000743963 -2.6857e-06
3.69712e-06 -2.6857e-06 0.000189982
0.00137486 -0.000480141 -8.18556e-06
-0.000480141 0.000349463 3.86279e-06
-8.18556e-06 3.86279e-06 8.007e-07
0.0017151 -0.000694388 1.10326e-06
-0.000694388 0.000514992 6.42867e-07
1.10326e-06 6.42867e-07 6.76471e-05
0.00139413 -0.00075193 -2.48688e-06
-0.00075193 0.000306139 2.26972e-06
-2.48688e-06 2.26972e-06 -0.000167745
0.000737324 -0.000242879 -7.12044e-06
-0.000242879 8.9106e-05 -7.2454e-07
-7.12044e-06 -7.2454e-07 -0.00013582
0.00100873 -0.000330867 2.01859e-06
-0.000330867 0.000209789 -7.08128e-07
2.01859e-06 -7.08128e-07 -7.61633e-05
0.000793906 -0.000434237 -6.63638e-06
-0.000434237 9.06491e-05 1.63922e-06
-6.63638e-06 1.63922e-06 -0.000264772
0.00035126 -8.785e-05 -1.62443e-05
-8.785e-05 -0.000110348 1.45231e-05
-1.62443e-05 1.45231e-05 -0.000197905
0.000804588 -0.000199984 2.38682e-06
-0.000199984 0.000221431 1.79856e-06
2.38682e-06 1.79856e-06 -3.04159e-05
0.000559212 -0.00029266 -1.46157e-06
-0.00029266 7.49654e-05 7.49015e-07
-1.46157e-06 7.49015e-07 -0.000221845
0.00425223 0.000267241 1.25638e-05
0.000267241 0.00247213 7.27928e-06
1.25638e-05 7.27928e-06 0.0024244
0.000396424 -5.64084e-05 3.19322e-07
-5.64084e-05 -6.33196e-05 -1.69902e-07
3.19322e-07 -1.69902e-07 -0.00013717
0.00134702 -0.000149381 3.36766e-07
-0.000149381 0.000565771 -4.74919e-06
3.36766e-07 -4.74919e-06 0.000364478
0.00359532 0.000143357 9.95831e-06
0.000143357 0.00200823 6.48817e-07
9.95831e-06 6.48817e-07 0.00200079
0.000629297 -2.86081e-05 6.81464e-06
-2.86081e-05 9.06883e-05 -1.27136e-05
6.81464e-06 -1.27136e-05 3.29544e-05
0.00323493 0.000115255 6.43706e-05
0.000115255 0.00176751 -5.55741e-06
6.43706e-05 -5.55741e-06 0.00176736
0.00227008 0.000392219 4.09068e-06
0.000392219 0.00111988 2.49814e-06
4.09068e-06 2.49814e-06 0.000854418
0.000638002 0.000195516 1.42915e-09
0.000195516 0.00020964 -3.38951e-06
1.42915e-09 -3.38951e-06 -6.11132e-05
0.00136714 0.000294828 -2.34545e-06
0.000294828 0.00069388 -3.24357e-06
-2.34545e-06 -3.24357e-06 0.000400092
0.000878022 0.000106419 1.56467e-06
0.000106419 0.00027862 -8.24783e-06
1.56467e-06 -8.24783e-06 0.000126275
0.000818858 0.00012293 3.69523e-07
0.00012293 0.000355046 1.27102e-06
3.69523e-07 1.27102e-06 9.31209e-05
0.000124318 0.000119174 -3.63702e-06
0.000119174 -2.54301e-05 4.75003e-06
-3.63702e-06 4.75003e-06 -0.000301458
0.000526951 1.5759e-06 -1.65265e-06
1.5759e-06 3.71829e-05 -1.23784e-05
-1.65265e-06 -1.23784e-05 -8.54484e-06
0.00055278 5.36289e-05 -4.67423e-07
5.36289e-05 7.5044e-05 -4.59639e-08
-4.67423e-07 -4.59639e-08 -4.89916e-05
0.000109617 8.77036e-05 -5.29748e-06
8.77036e-05 -0.000169152 6.01605e-06
-5.29748e-06 6.01605e-06 -0.000346091
0.00277484 -8.56851e-05 -4.61222e-05
-8.56851e-05 0.00146629 -5.52074e-06
-4.61222e-05 -5.52074e-06 0.00147295
0.000396116 -2.52301e-05 2.72166e-06
-2.52301e-05 -5.25947e-05 -3.11479e-07
2.72166e-06 -3.11479e-07 -8.86539e-05
0.00046886 5.07205e-05 -4.32257e-06
5.07205e-05 2.39815e-05 5.29743e-06
-4.32257e-06 5.29743e-06 -8.21261e-05
0.00258506 -6.91417e-05 -7.35082e-06
-6.91417e-05 0.00133899 5.63077e-07
-7.35082e-06 5.63077e-07 0.00134824
0.000420845 4.66473e-06 -2.55683e-06
4.66473e-06 -4.72548e-05 7.1224e-06
-2.55683e-06 7.1224e-06 -7.46332e-05
0.00235051 -4.96036e-05 2.43155e-05
-4.96036e-05 0.00118429 5.12029e-06
2.43155e-05 5.12029e-06 0.00119723
-0.00885204 0.00109406 -0.000196192
0.00109406 0.00469345 7.69154e-05
-0.000196192 7.69154e-05 -0.00275461
0.00640671 0.000765081 2.37325e-05
0.000765081 0.00402959 -3.35044e-07
2.37325e-05 -3.35044e-07 0.00133395
-0.00176464 0.000293209 9.2763e-05
0.000293209 0.000822921 4.86061e-05
9.2763e-05 4.86061e-05 -0.000831059
0.00025821 0.000189335 -1.26094e-06
0.000189335 -0.000159577 5.75966e-06
-1.26094e-06 5.75966e-06 -0.000401858
0.00347571 0.000804012 1.93289e-05
0.000804012 0.00182299 1.65184e-05
1.93289e-05 1.65184e-05 0.00138976
-8.13567e-05 0.000175322 -8.60185e-06
0.000175322 -0.000185432 6.39425e-06
-8.60185e-06 6.39425e-06 -0.000569254
0.000300446 7.62534e-05 -8.78844e-06
7.62534e-05 2.21373e-06 -2.05681e-05
-8.78844e-06 -2.05681e-05 -0.00020172
0.0032853 0.000383225 1.22629e-06
0.000383225 0.00170858 -3.31225e-06
1.22629e-06 -3.31225e-06 0.00150039
-0.00140784 4.97708e-06 -1.49577e-05
4.97708e-06 -0.00105389 1.36356e-05
-1.49577e-05 1.36356e-05 -0.00120979
-0.000169014 0.000184522 -5.00945e-07
0.000184522 -0.000110478 8.01802e-06
-5.00945e-07 8.01802e-06 -0.000432439
0.000165281 0.000145691 -4.24712e-06
0.000145691 -0.000100206 -6.1109e-06
-4.24712e-06 -6.1109e-06 -0.000437136
0.00135599 0.000668599 4.99409e-06
0.000668599 0.000666727 -2.11751e-05
4.99409e-06 -2.11751e-05 0.00014595
-0.000903803 0.000527349 -2.50226e-05
0.000527349 -0.000861094 6.3162e-05
-2.50226e-05 6.3162e-05 -0.00102175
0.00129362 6.1154e-05 -1.74537e-05
6.1154e-05 0.000706996 1.75693e-05
-1.74537e-05 1.75693e-05 0.000471946
0.001725 0.000386049 8.91279e-06
0.000386049 0.00113759 -9.04151e-06
8.91279e-06 -9.04151e-06 0.000697934
0.00309398 -0.00318424 -0.00212438
-0.00318424 0.00267517 -0.000281827
-0.00212438 -0.000281827 -0.00234713
-0.00046928 -0.00360491 0.00070348
-0.00360491 0.00796323 0.000195358
0.00070348 0.000195358 0.000990972
0.00823979 0.00246527 -0.000763329
0.00246527 0.00339028 -0.000255414
-0.000763329 -0.000255414 -0.00269091
0.0114278 -0.012568 0.00287533
-0.012568 0.00919196 0.00167905
0.00287533 0.00167905 0.00293778
0.029956 -0.00441266 2.98286e-05
-0.00441266 0.0107752 0.000445756
2.98286e-05 0.000445756 0.00564822
-0.00338585 0.00147592 -4.9688e-05
0.00147592 0.00297274 -0.000205766
-4.9688e-05 -0.000205766 -0.00321059
-0.00237874 0.000227102 -0.000281329
0.000227102 0.00156319 -5.35557e-05
-0.000281329 -5.35557e-05 -0.000331381
0.00029925 0.000858626 7.5694e-05
0.000858626 0.0016895 5.81199e-05
7.5694e-05 5.81199e-05 0.00117638
0.0224068 -0.00606466 -0.000804187
-0.00606466 0.00955598 2.62049e-05
-0.000804187 2.62049e-05 0.00361526
-0.00199126 0.00407767 -0.000174104
0.00407767 0.000587578 -5.04337e-05
-0.000174104 -5.04337e-05 -0.00429658
0.00364265 0.00283544 3.46721e-05
0.00283544 0.00121013 -8.02146e-05
3.46721e-05 -8.02146e-05 0.00200612
0.00518318 0.00658039 -0.000583994
0.00658039 -0.00180159 -0.000115642
-0.000583994 -0.000115642 -0.00412767
0.00354889 0.0014008 2.8419e-05
0.0014008 0.00139964 -5.6456e-06
2.8419e-05 -5.6456e-06 0.000978341
0.00110676 0.000677954 -5.43394e-06
0.000677954 0.000299473 -3.43127e-06
-5.43394e-06 -3.43127e-06 0.00012948
-0.000475712 0.000177126 -1.86474e-05
0.000177126 -0.000259061 1.1137e-05
-1.86474e-05 1.1137e-05 -0.00060348
-0.00137515 0.000520748 -0.000106828
0.000520748 0.000447444 -7.35883e-05
-0.000106828 -7.35883e-05 -0.000746375
0.00161332 0.000842849 -5.11563e-05
0.000842849 0.000792062 -3.3607e-05
-5.11563e-05 -3.3607e-05 0.000337383
0.00240146 0.00188123 7.84641e-06
0.00188123 0.00077698 -1.03035e-05
7.84641e-06 -1.03035e-05 -0.000247842
-0.00133243 0.00187386 0.000106271
0.00187386 -0.00201424 5.56293e-05
0.000106271 5.56293e-05 -0.00245546
-0.0068416 -0.00063021 -0.000772339
-0.00063021 -0.00365838 6.1362e-05
-0.000772339 6.1362e-05 -0.00470009
-0.00980127 0.000518941 0.000525346
0.000518941 0.00638494 1.84587e-05
0.000525346 1.84587e-05 -0.000739812
0.00280996 -1.45535e-05 -0.000161486
-1.45535e-05 0.00215998 3.46953e-05
-0.000161486 3.46953e-05 0.000134396
0.00129675 -0.0011868 -6.12071e-05
-0.0011868 0.00118614 -4.7337e-05
-6.12071e-05 -4.7337e-05 0.000193682
-0.00113398 -0.00235921 0.000124597
-0.00235921 -0.000526169 3.48785e-05
0.000124597 3.48785e-05 -0.000284602
0.00105765 0.0010884 0.000159554
0.0010884 0.00858862 6.7126e-05
0.000159554 6.7126e-05 0.00304723
0.00412857 -0.00474596 0.000625501
-0.00474596 -0.00180768 -8.86547e-05
0.000625501 -8.86547e-05 -0.00331959
0.0254729 0.00457054 0.00119341
0.00457054 0.0114191 -8.64023e-05
0.00119341 -8.64023e-05 0.00702685
0.00179654 -0.00220302 -2.23796e-05
-0.00220302 0.000456742 3.78342e-06
-2.23796e-05 3.78342e-06 -0.000347985
0.00360707 0.00210048 0.000356605
0.00210048 0.00166214 -0.000106181
0.000356605 -0.000106181 -0.00157694
0.00759649 -0.0030411 -0.00020405
-0.0030411 -0.00347529 0.000174274
-0.00020405 0.000174274 -0.00523873
0.00282275 -0.00308853 -5.98141e-06
-0.00308853 -0.00104032 2.55206e-05
-5.98141e-06 2.55206e-05 0.000422853
0.00263894 -0.00178619 7.76491e-05
-0.00178619 0.000194742 -1.85576e-05
7.76491e-05 -1.85576e-05 -4.17593e-05
0.0190311 -0.00107957 -0.00010965
-0.00107957 0.0033819 6.67463e-05
-0.00010965 6.67463e-05 0.00247184
0.00275837 -0.00225329 0.000134379
-0.00225329 -0.00364736 -8.64016e-05
0.000134379 -8.64016e-05 -0.00151506
-0.0010091 -0.000822359 -2.30877e-05
-0.000822359 -0.00100728 4.28932e-05
-2.30877e-05 4.28932e-05 -0.00116958
0.000376919 -0.00075635 -3.93327e-05
-0.00075635 -0.000523726 4.6563e-06
-3.93327e-05 4.6563e-06 -0.000716045
0.00639459 -0.00134954 6.32551e-05
-0.00134954 0.00239029 -2.51886e-05
6.32551e-05 -2.51886e-05 0.00211267
0.000149862 -0.000801925 -1.16552e-05
-0.000801925 -0.000566519 6.62134e-06
-1.16552e-05 6.62134e-06 -0.00102352
0.00222946 -0.00108405 -2.36252e-06
-0.00108405 0.000291577 -2.4146e-06
-2.36252e-06 -2.4146e-06 -0.000140053
0.00290861 -0.000957699 1.50901e-06
-0.000957699 0.000339895 -3.49591e-06
1.50901e-06 -3.49591e-06 0.000125319
0.00223574 -0.00110646 9.80668e-06
-0.00110646 0.000404298 1.07725e-05
9.80668e-06 1.07725e-05 -0.000150458
0.00238497 -0.000890462 -2.20434e-06
-0.000890462 0.000247829 5.47388e-07
-2.20434e-06 5.47388e-07 -8.35897e-05
0.00224846 -0.00063713 -6.47174e-07
-0.00063713 3.38169e-07 -9.2221e-07
-6.47174e-07 -9.2221e-07 -0.00010644
0.00184434 -0.000790487 9.86164e-06
-0.000790487 0.000128588 6.71063e-06
9.86164e-06 6.71063e-06 -0.000270098
0.00212739 -0.000599998 -2.47094e-07
-0.000599998 8.05035e-05 2.56668e-06
-2.47094e-07 2.56668e-06 -0.000135101
0.0022328 -0.000589523 -2.30865e-06
-0.000589523 9.93905e-05 2.44588e-06
-2.30865e-06 2.44588e-06 -3.51522e-05
0.00218603 -0.000561045 -3.56905e-06
-0.000561045 0.000171186 1.7786e-06
-3.56905e-06 1.7786e-06 8.63969e-06
0.00213223 -0.000534223 -3.12763e-06
-0.000534223 0.000154939 2.96271e-06
-3.12763e-06 2.96271e-06 -2.88651e-05
0.00217146 -0.000534574 -1.8695e-06
-0.000534574 0.000244525 -2.46193e-06
-1.8695e-06 -2.46193e-06 4.30094e-05
0.00215301 -0.000622049 -6.5547e-06
-0.000622049 0.00023629 -2.67665e-06
-6.5547e-06 -2.67665e-06 -4.47157e-05
0.00206265 -0.000603402 1.37792e-06
-0.000603402 0.000156808 1.15312e-06
1.37792e-06 1.15312e-06 -0.000112798
0.00199382 -0.000572716 3.90119e-06
-0.000572716 7.11378e-05 7.15132e-06
3.90119e-06 7.15132e-06 -0.000179345
0.00205615 -0.000727204 -6.76626e-06
-0.000727204 0.000350749 -3.5965e-06
-6.76626e-06 -3.5965e-06 -3.91967e-05
0.0017995 -0.000733528 -6.95035e-07
-0.000733528 0.000117021 1.58296e-07
-6.95035e-07 1.58296e-07 -0.000268614
0.00234564 -0.000855293 7.30941e-06
-0.000855293 0.000435712 1.99928e-06
7.30941e-06 1.99928e-06 1.57e-05
0.00152586 -0.00060565 -1.1362e-05
-0.00060565 0.00028674 2.80603e-06
-1.1362e-05 2.80603e-06 -0.000112806
0.0020291 -0.000803062 -4.2446e-07
-0.000803062 0.000506062 8.71895e-07
-4.2446e-07 8.71895e-07 4.10662e-05
0.00219262 -0.000903813 4.49147e-06
-0.000903813 0.000555294 1.07823e-06
4.49147e-06 1.07823e-06 6.06349e-05
0.000791207 -0.000254494 -8.1867e-06
-0.000254494 8.99199e-05 7.36345e-06
-8.1867e-06 7.36345e-06 -0.000146202
0.00130454 -0.000481629 1.42353e-06
-0.000481629 0.00029469 5.04901e-07
1.42353e-06 5.04901e-07 -5.61238e-05
0.0014939 -0.00066266 -3.21713e-06
-0.00066266 0.00037034 3.01982e-06
-3.21713e-06 3.01982e-06 -6.6508e-05
0.000463317 -0.000160502 -2.72103e-05
-0.000160502 -7.08366e-05 1.5623e-05
-2.72103e-05 1.5623e-05 -0.00017791
0.00058727 -0.000229864 -2.91691e-06
-0.000229864 2.18232e-05 -1.72965e-07
-2.91691e-06 -1.72965e-07 -0.00022024
0.000346338 -0.000327833 2.72472e-06
-0.000327833 -0.000211636 -1.73144e-06
2.72472e-06 -1.73144e-06 -0.000505635
0.00475898 0.000229214 -9.98149e-05
0.000229214 0.00279514 1.0508e-05
-9.98149e-05 1.0508e-05 0.00276064
0.000553008 -0.000108817 2.14174e-06
-0.000108817 1.12411e-05 -1.3682e-09
2.14174e-06 -1.3682e-09 -8.17904e-05
0.00130216 -0.000279431 7.16397e-06
-0.000279431 0.000529298 -1.95323e-06
7.16397e-06 -1.95323e-06 0.000275057
0.00272193 0.000138828 6.33434e-05
0.000138828 0.00146846 1.56024e-06
6.33434e-05 1.56024e-06 0.00143865
0.000767895 -6.23265e-05 1.38347e-05
-6.23265e-05 0.000165284 -1.46687e-05
1.38347e-05 -1.46687e-05 8.77615e-05
0.00382673 0.000131761 9.43922e-05
0.000131761 0.00215477 -6.92452e-06
9.43922e-05 -6.92452e-06 0.00215006
0.00192044 0.000406257 1.72128e-06
0.000406257 0.000782792 -1.8826e-06
1.72128e-06 -1.8826e-06 0.000522271
0.000503838 0.000192377 -4.88376e-06
0.000192377 -3.01618e-05 1.01675e-07
-4.88376e-06 1.01675e-07 -0.000243409
0.000322272 0.0001942 5.41324e-07
0.0001942 -2.97488e-05 -4.80959e-06
5.41324e-07 -4.80959e-06 -0.000294093
0.000471175 0.000178516 -1.68199e-06
0.000178516 8.70654e-05 5.95463e-06
-1.68199e-06 5.95463e-06 -0.000163692
0.000803763 0.000121427 2.11228e-07
0.000121427 0.000325031 2.32349e-07
2.11228e-07 2.32349e-07 4.9559e-05
0.00107242 0.000147308 -1.34805e-06
0.000147308 0.000399485 -9.83326e-06
-1.34805e-06 -9.83326e-06 0.000214949
0.000663447 5.43145e-05 -8.39729e-06
5.43145e-05 0.000120258 -1.49059e-05
-8.39729e-06 -1.49059e-05 6.36947e-05
0.000655648 9.94877e-05 2.35399e-07
9.94877e-05 0.000141872 -9.94513e-08
2.35399e-07 -9.94513e-08 -7.70813e-06
-0.000697761 1.45082e-05 -6.37647e-06
1.45082e-05 -0.000639757 3.93167e-06
-6.37647e-06 3.93167e-06 -0.000869088
0.00311978 -0.000100255 -6.77965e-05
-0.000100255 0.00169568 -6.41724e-06
-6.77965e-05 -6.41724e-06 0.0016994
0.00037993 2.51845e-05 1.31416e-06
2.51845e-05 -5.50527e-05 -3.22223e-07
1.31416e-06 -3.22223e-07 -0.000100389
0.000675011 6.78833e-05 -3.8366e-06
6.78833e-05 0.000158503 8.72411e-06
-3.8366e-06 8.72411e-06 3.16287e-05
0.00282789 -8.97229e-05 -8.15412e-06
-8.97229e-05 0.00150143 7.17484e-07
-8.15412e-06 7.17484e-07 0.00150665
0.000332868 -1.24591e-05 -1.23674e-06
-1.24591e-05 -9.04988e-05 8.92174e-06
-1.23674e-06 8.92174e-06 -0.000126549
0.00258188 -6.95917e-05 3.03051e-05
-6.95917e-05 0.00133673 5.41497e-06
3.03051e-05 5.41497e-06 0.00134568
0.00218858 -0.000140875 -0.00117823
-0.000140875 0.00438306 -7.59185e-05
-0.00117823 -7.59185e-05 0.00201035
-0.00557824 8.91483e-06 2.08042e-05
8.91483e-06 0.0059139 -1.82853e-05
2.08042e-05 -1.82853e-05 -0.00185583
0.00626689 0.000383116 -0.000362015
0.000383116 0.00383302 -9.79304e-05
-0.000362015 -9.79304e-05 0.00131262
-0.000242777 8.30605e-05 5.58323e-06
8.30605e-05 -0.00046863 -4.39163e-06
5.58323e-06 -4.39163e-06 -0.000710578
0.000292905 0.000132375 7.04435e-06
0.000132375 -4.60586e-05 5.39068e-06
7.04435e-06 5.39068e-06 -0.000400084
0.00301205 0.000720221 -3.73994e-06
0.000720221 0.00156097 3.19443e-06
-3.73994e-06 3.19443e-06 0.00113985
0.00236554 0.00084074 1.83293e-05
0.00084074 0.00101139 1.08169e-05
1.83293e-05 1.08169e-05 0.000474534
0.00100372 0.000583889 1.13215e-05
0.000583889 0.000499843 1.17091e-05
1.13215e-05 1.17091e-05 2.63335e-05
0.00202583 0.000284151 -7.8004e-06
0.000284151 0.00120248 6.62923e-06
-7.8004e-06 6.62923e-06 0.000896248
0.0021656 0.000299243 1.08273e-05
0.000299243 0.00118011 8.85475e-06
1.08273e-05 8.85475e-06 0.000855126
0.000958051 0.000589748 -4.74082e-06
0.000589748 0.000471316 6.37896e-07
-4.74082e-06 6.37896e-07 -3.44924e-05
0.000239009 0.000777193 1.66682e-05
0.000777193 -0.00038195 -6.65585e-06
1.66682e-05 -6.65585e-06 -0.00078533
0.00292205 0.00103513 -8.80055e-06
0.00103513 0.00117194 3.18675e-05
-8.80055e-06 3.18675e-05 0.000870278
0.00168684 0.00106784 3.48256e-05
0.00106784 0.00016632 1.26737e-05
3.48256e-05 1.26737e-05 -1.36268e-05
0.00159288 0.000781342 -1.88302e-06
0.000781342 0.000617793 -2.0191e-06
-1.88302e-06 -2.0191e-06 0.000339783
0.00215229 0.00053618 -3.92815e-06
0.00053618 0.00128276 3.02476e-05
-3.92815e-06 3.02476e-05 0.000820488
0.0142563 0.00338802 -0.000148525
0.00338802 0.00131977 5.47864e-05
-0.000148525 5.47864e-05 0.000390111
0.00503484 -0.00275922 -0.000715421
-0.00275922 0.00460092 -0.000238298
-0.000715421 -0.000238298 0.000803565
0.00146116 -0.00501327 0.00110918
-0.00501327 0.00882932 0.00025363
0.00110918 0.00025363 0.00176427
0.0134641 -0.00339179 0.000437492
-0.00339179 0.00532346 0.00030644
0.000437492 0.00030644 2.25072e-05
0.0133589 0.00626008 -0.000110085
0.00626008 0.00454702 -5.89566e-05
-0.000110085 -5.89566e-05 0.000343908
-0.00265447 0.000463498 -1.64502e-05
0.000463498 0.000616129 -2.45818e-05
-1.64502e-05 -2.45818e-05 -4.5775e-05
0.00207383 0.00239084 -8.80888e-05
0.00239084 0.00051472 -3.39254e-05
-8.80888e-05 -3.39254e-05 0.00149504
0.0157663 0.00620659 2.06925e-05
0.00620659 0.00239521 4.09176e-05
2.06925e-05 4.09176e-05 -0.000240333
0.00708762 0.00452516 -0.00013702
0.00452516 -0.00042183 -0.000131173
-0.00013702 -0.000131173 0.000417143
0.00174167 0.00142238 5.55067e-06
0.00142238 0.000171875 5.83544e-06
5.55067e-06 5.83544e-06 -0.000163193
0.00152959 0.00108154 1.28738e-05
0.00108154 0.000423669 -3.95501e-06
1.28738e-05 -3.95501e-06 8.27789e-05
0.00169335 0.000674907 -3.42588e-05
0.000674907 0.000754602 9.66032e-07
-3.42588e-05 9.66032e-07 0.00058218
0.00228164 0.00195558 -7.77798e-05
0.00195558 0.000549585 -2.85058e-05
-7.77798e-05 -2.85058e-05 -0.000444616
0.00163267 0.00224038 9.51228e-05
0.00224038 -0.000713688 5.0519e-05
9.51228e-05 5.0519e-05 -0.00129508
0.00367073 -0.000299157 -0.000146746
-0.000299157 -0.00551296 4.68143e-05
-0.000146746 4.68143e-05 -0.00580485
0.000321231 -0.00214029 1.5464e-05
-0.00214029 0.00292169 3.27976e-05
1.5464e-05 3.27976e-05 0.00125525
-0.013316 -0.00039322 0.000424323
-0.00039322 0.00715928 -1.9839e-05
0.000424323 -1.9839e-05 0.00112792
0.00163006 -0.00260199 -8.58522e-05
-0.00260199 1.63427e-05 4.30445e-05
-8.58522e-05 4.30445e-05 -0.00103095
0.0065209 -0.00409901 2.723e-05
-0.00409901 0.000139943 5.31663e-05
2.723e-05 5.31663e-05 0.00105694
0.00374383 0.000337227 0.00124961
0.000337227 0.00456857 -0.000294502
0.00124961 -0.000294502 0.00232292
0.0152183 -0.00320438 -0.000369129
-0.00320438 0.00132889 0.000201682
-0.000369129 0.000201682 0.000965687
0.00182997 -0.00176014 -3.00222e-05
-0.00176014 -0.000185846 4.80276e-06
-3.00222e-05 4.80276e-06 -0.0005385
0.0120112 -0.000231723 -0.000239877
-0.000231723 -0.00190995 8.62683e-05
-0.000239877 8.62683e-05 -0.00245076
0.00726912 -0.00260678 9.77422e-05
-0.00260678 -0.000858617 1.08441e-05
9.77422e-05 1.08441e-05 0.000484296
0.00371799 -0.00149751 6.44262e-05
-0.00149751 0.000136746 -4.1365e-05
6.44262e-05 -4.1365e-05 5.97121e-05
0.00251147 -0.0010008 1.51352e-05
-0.0010008 -0.0027507 1.21714e-06
1.51352e-05 1.21714e-06 -0.000954007
-0.00324518 -0.00040182 3.18499e-06
-0.00040182 -0.00250906 2.11931e-05
3.18499e-06 2.11931e-05 -0.00253738
0.00136429 -0.000868202 -2.17349e-05
-0.000868202 -0.000404787 3.76959e-06
-2.17349e-05 3.76959e-06 -0.000410266
0.00388073 -0.00090927 4.06122e-05
-0.00090927 0.00073775 -1.34401e-05
4.06122e-05 -1.34401e-05 0.00079456
0.00158058 -0.00100349 -1.27698e-05
-0.00100349 -4.59982e-05 6.80403e-06
-1.27698e-05 6.80403e-06 -0.000455232
0.00240773 -0.00091304 -4.39226e-06
-0.00091304 6.68947e-05 3.03406e-06
-4.39226e-06 3.03406e-06 -0.000144889
0.00258336 -0.000729356 5.63983e-06
-0.000729356 -8.03693e-06 1.84543e-08
5.63983e-06 1.84543e-08 -1.84009e-05
0.00223596 -0.000856498 -1.94429e-06
-0.000856498 0.000180559 9.34082e-06
-1.94429e-06 9.34082e-06 -0.000137438
0.00222982 -0.000634915 3.78749e-07
-0.000634915 -1.1762e-05 1.36624e-06
3.78749e-07 1.36624e-06 -0.000116909
0.00239668 -0.000635237 -4.87278e-07
-0.000635237 5.92781e-05 5.16188e-07
-4.87278e-07 5.16188e-07 1.86654e-05
0.0019792 -0.000577917 4.91096e-06
-0.000577917 -6.90354e-06 5.50945e-06
4.91096e-06 5.50945e-06 -0.000210378
0.00218267 -0.000584333 -3.4955e-08
-0.000584333 6.95518e-05 1.11748e-06
-3.4955e-08 1.11748e-06 -6.29514e-05
0.00233484 -0.000621356 -1.93163e-06
-0.000621356 0.000123988 1.93479e-06
-1.93163e-06 1.93479e-06 1.20117e-05
0.00217589 -0.000567735 -4.6624e-06
-0.000567735 0.000154837 1.72542e-06
-4.6624e-06 1.72542e-06 -3.07179e-06
0.00223441 -0.000552872 -1.03446e-06
-0.000552872 0.000246424 3.33425e-08
-1.03446e-06 3.33425e-08 7.35664e-05
0.00221272 -0.000542198 1.45044e-06
-0.000542198 0.000197586 3.84106e-06
1.45044e-06 3.84106e-06 1.88305e-05
0.00216693 -0.000533704 7.4399e-07
-0.000533704 0.00024059 -5.62169e-07
7.4399e-07 -5.62169e-07 3.94508e-05
0.00209581 -0.000551674 -3.23177e-06
-0.000551674 0.000204268 -1.69e-06
-3.23177e-06 -1.69e-06 -1.74599e-05
0.00219146 -0.000609906 -3.50191e-06
-0.000609906 0.000334451 -4.6143e-06
-3.50191e-06 -4.6143e-06 3.84773e-05
0.00221754 -0.000630927 -5.87844e-07
-0.000630927 0.000280034 6.69306e-08
-5.87844e-07 6.69306e-08 -4.13511e-06
0.0022985 -0.000620097 7.73409e-06
-0.000620097 0.000313033 4.16707e-06
7.73409e-06 4.16707e-06 4.31688e-05
0.00179231 -0.000629496 -1.0815e-05
-0.000629496 0.000289422 1.55206e-06
-1.0815e-05 1.55206e-06 -9.36738e-05
0.00199655 -0.000721446 -1.95552e-06
-0.000721446 0.000312207 -5.10849e-07
-1.95552e-06 -5.10849e-07 -7.96188e-05
0.00181984 -0.00074493 5.13911e-06
-0.00074493 0.000112691 2.77571e-06
5.13911e-06 2.77571e-06 -0.000277877
0.000905711 -0.000304993 -1.30147e-05
-0.000304993 6.92685e-05 8.54107e-06
-1.30147e-05 8.54107e-06 -0.000189208
0.00156156 -0.000605264 5.92537e-07
-0.000605264 0.000319205 5.9245e-07
5.92537e-07 5.9245e-07 -7.87572e-05
0.00212705 -0.000813361 1.82273e-06
-0.000813361 0.000566714 3.32282e-06
1.82273e-06 3.32282e-06 9.99927e-05
0.000162424 -0.000198411 -1.96518e-05
-0.000198411 -0.000261247 2.07096e-05
-1.96518e-05 2.07096e-05 -0.000398816
0.000644157 -0.000253634 2.3596e-07
-0.000253634 1.02584e-06 4.82235e-07
2.3596e-07 4.82235e-07 -0.000241239
0.00101149 -0.000451478 8.84093e-06
-0.000451478 0.000105268 -1.71162e-06
8.84093e-06 -1.71162e-06 -0.000238655
0.00566663 0.000143782 -0.00017484
0.000143782 0.0033398 1.1696e-05
-0.00017484 1.1696e-05 0.00332889
0.00049672 -0.000184092 -6.15675e-06
-0.000184092 -4.77999e-05 -1.11292e-06
-6.15675e-06 -1.11292e-06 -0.00016052
0.000804705 -0.000266768 4.92252e-06
-0.000266768 0.000181208 -4.02838e-06
4.92252e-06 -4.02838e-06 -7.84726e-05
0.00506894 0.000174113 1.80286e-05
0.000174113 0.0029758 -4.77206e-07
1.80286e-05 -4.77206e-07 0.00295717
0.000639547 -0.000137909 2.64068e-05
-0.000137909 6.196e-05 -1.46807e-05
2.64068e-05 -1.46807e-05 -3.55878e-05
0.00449236 0.000142133 0.000133872
0.000142133 0.00259165 -1.00878e-05
0.000133872 -1.00878e-05 0.00258369
0.00261283 0.000755586 4.97208e-06
0.000755586 0.00116929 2.19894e-06
4.97208e-06 2.19894e-06 0.000700295
0.000755675 0.000322572 -2.34434e-06
0.000322572 6.76688e-05 -2.35013e-06
-2.34434e-06 -2.35013e-06 -0.000189435
0.00059209 0.000193715 5.82238e-06
0.000193715 -4.14445e-06 1.66647e-06
5.82238e-06 1.66647e-06 -0.00022229
-0.000718834 7.25887e-05 -2.13785e-06
7.25887e-05 -0.00079506 -2.22828e-06
-2.13785e-06 -2.22828e-06 -0.00100585
0.000309078 0.000175624 1.66623e-06
0.000175624 -8.14641e-05 1.41873e-06
1.66623e-06 1.41873e-06 -0.000317542
0.000969721 0.000165675 -2.81289e-06
0.000165675 0.000324154 -1.1299e-05
-2.81289e-06 -1.1299e-05 0.000109985
0.000134868 7.58355e-05 -3.00041e-06
7.58355e-05 -0.000107061 1.33217e-06
-3.00041e-06 1.33217e-06 -0.000373722
0.000709628 0.000106031 1.67164e-07
0.000106031 0.000189404 7.24017e-07
1.67164e-07 7.24017e-07 -1.82257e-06
0.000630395 6.73829e-05 -1.19875e-05
6.73829e-05 9.36166e-05 -1.74493e-05
-1.19875e-05 -1.74493e-05 1.99657e-05
0.00348266 -0.000108002 -9.57137e-05
-0.000108002 0.0019376 -9.00017e-06
-9.57137e-05 -9.00017e-06 0.00193891
0.000384324 2.65654e-05 1.73129e-06
2.65654e-05 -4.93417e-05 -5.12348e-07
1.73129e-06 -5.12348e-07 -0.000106861
0.000405775 6.70586e-05 -2.66308e-06
6.70586e-05 -8.09778e-06 9.50222e-06
-2.66308e-06 9.50222e-06 -0.00015489
0.00299802 -0.000109954 -9.70612e-06
-0.000109954 0.00161892 9.42744e-07
-9.70612e-06 9.42744e-07 0.00161951
0.000255034 -5.76657e-05 -8.56656e-06
-5.76657e-05 -0.000124372 1.20122e-05
-8.56656e-06 1.20122e-05 -0.000174292
0.00273627 -8.88843e-05 3.78806e-05
-8.88843e-05 0.00144303 5.52991e-06
3.78806e-05 5.52991e-06 0.00144799
0.0157658 0.000742831 0.000586477
0.000742831 0.00154036 0.000140586
0.000586477 0.000140586 0.00157749
-3.84083e-05 -0.00376132 -0.000703077
-0.00376132 -0.00192853 -9.43898e-05
-0.000703077 -9.43898e-05 -0.0051894
-0.00933949 0.00171526 -0.000256596
0.00171526 0.00551327 -0.000129604
-0.000256596 -0.000129604 -0.0022948
-4.11005e-05 6.5603e-05 1.25484e-05
6.5603e-05 -0.00025812 -1.69069e-05
1.25484e-05 -1.69069e-05 -0.000628632
0.00142045 0.000520175 -8.38126e-06
0.000520175 0.000591122 -2.99796e-06
-8.38126e-06 -2.99796e-06 0.000203989
0.00271997 0.000757508 -1.13947e-05
0.000757508 0.0014737 -3.64089e-06
-1.13947e-05 -3.64089e-06 0.000957808
0.00135681 0.000708447 1.27385e-06
0.000708447 0.000398272 -8.29039e-07
1.27385e-06 -8.29039e-07 -0.00010448
0.00160642 0.000785796 1.18669e-05
0.000785796 0.000315174 2.14148e-05
1.18669e-05 2.14148e-05 -0.000159601
-0.000494447 0.000588956 3.46299e-05
0.000588956 -0.000755318 1.09376e-05
3.46299e-05 1.09376e-05 -0.00116822
0.000591183 0.00047751 -1.33234e-05
0.00047751 0.000312499 6.78449e-06
-1.33234e-05 6.78449e-06 -0.000193205
9.42724e-06 0.000723218 7.38347e-06
0.000723218 -0.0005195 -6.17366e-07
7.38347e-06 -6.17366e-07 -0.000899665
0.00226126 0.000961993 1.44459e-05
0.000961993 0.000849008 6.1616e-06
1.44459e-05 6.1616e-06 0.00050404
0.000105286 0.000738081 6.96995e-06
0.000738081 -0.000602131 -4.67237e-06
6.96995e-06 -4.67237e-06 -0.0009124
0.00386843 0.00121815 8.16604e-06
0.00121815 0.0013602 1.29013e-05
8.16604e-06 1.29013e-05 0.00111557
0.00173276 0.00107091 2.39689e-05
0.00107091 0.00021417 6.70041e-06
2.39689e-05 6.70041e-06 -0.000146243
0.000755534 0.000943805 6.04875e-06
0.000943805 -0.000370585 -5.09437e-07
6.04875e-06 -5.09437e-07 -0.000469091
0.00108378 0.000663008 -8.65946e-06
0.000663008 0.000324255 -6.88409e-05
-8.65946e-06 -6.88409e-05 7.25286e-05
0.00434358 0.0021847 2.56561e-05
0.0021847 -0.00262846 3.72211e-05
2.56561e-05 3.72211e-05 -0.000461606
0.0140765 0.00415158 0.0003399
0.00415158 6.30006e-05 0.000191722
0.0003399 0.000191722 -0.00126688
0.0132409 -0.00561368 0.000750083
-0.00561368 0.00652344 -6.32866e-05
0.000750083 -6.32866e-05 0.00196127
0.00568203 0.00650812 0.000716244
0.00650812 -0.00131133 0.000385148
0.000716244 0.000385148 -0.00540328
-0.000506368 0.00159218 -5.17466e-05
0.00159218 -6.01623e-05 1.55513e-05
-5.17466e-05 1.55513e-05 0.000642867
0.00361667 0.00289689 -9.63633e-05
0.00289689 -0.0010283 -5.48397e-05
-9.63633e-05 -5.48397e-05 0.00029237
0.00660417 0.00261178 5.95295e-05
0.00261178 0.00111972 3.34175e-05
5.95295e-05 3.34175e-05 0.000904277
0.00509262 0.00195122 2.41232e-05
0.00195122 0.00167237 9.51721e-06
2.41232e-05 9.51721e-06 0.00121445
0.000538626 0.000914084 -3.27056e-05
0.000914084 -0.000109437 2.427e-06
-3.27056e-05 2.427e-06 -0.000374335
0.00809527 0.00309949 -0.000202636
0.00309949 0.00228716 -1.43986e-05
-0.000202636 -1.43986e-05 0.00144863
0.00360608 -0.000704061 1.27165e-07
-0.000704061 -0.00124384 2.25336e-05
1.27165e-07 2.25336e-05 2.67821e-05
0.0117939 -0.00061591 -5.74928e-05
-0.00061591 0.0003426 -2.97547e-05
-5.74928e-05 -2.97547e-05 0.000760661
-0.0131772 -0.00354506 0.00100144
-0.00354506 -0.0045497 -3.13742e-06
0.00100144 -3.13742e-06 -0.00660591
0.00130946 -0.00156572 -0.000132966
-0.00156572 -0.000343695 4.07815e-05
-0.000132966 4.07815e-05 -0.000626616
0.00835429 -0.00315116 -3.58115e-05
-0.00315116 -0.00106015 8.71415e-05
-3.58115e-05 8.71415e-05 0.000512269
0.00147842 -0.00035207 -0.000358924
-0.00035207 -0.00605454 4.35471e-05
-0.000358924 4.35471e-05 -0.00714641
0.00327043 -0.00131333 3.68232e-05
-0.00131333 -0.00011259 1.47331e-06
3.68232e-05 1.47331e-06 0.00011037
0.0052581 -0.000964508 -6.24852e-05
-0.000964508 -0.00102517 2.53688e-06
-6.24852e-05 2.53688e-06 0.000262218
0.00659412 -0.00109612 5.72974e-05
-0.00109612 0.001541 -3.65702e-05
5.72974e-05 -3.65702e-05 0.00197271
0.00584281 -0.000613539 0.000119701
-0.000613539 0.000983201 -2.64644e-06
0.000119701 -2.64644e-06 0.0015085
-0.00284556 -0.000486762 1.1633e-05
-0.000486762 -0.00282512 1.20156e-05
1.1633e-05 1.20156e-05 -0.00253495
0.00219732 -0.000766472 -8.64779e-06
-0.000766472 -0.000239942 2.43071e-06
-8.64779e-06 2.43071e-06 -4.68145e-05
0.00244025 -0.000578934 2.51057e-05
-0.000578934 -0.000286187 -6.06871e-06
2.51057e-05 -6.06871e-06 2.27671e-05
0.00201415 -0.000884803 -5.45935e-07
-0.000884803 -0.000153669 4.10026e-06
-5.45935e-07 4.10026e-06 -0.000367789
0.00251147 -0.000723009 1.19524e-06
-0.000723009 -4.26537e-05 1.6547e-06
1.19524e-06 1.6547e-06 -5.26943e-05
0.00255382 -0.000631936 9.73793e-07
-0.000631936 1.27824e-05 -1.05477e-07
9.73793e-07 -1.05477e-07 2.62067e-05
0.00224948 -0.00063824 3.03593e-06
-0.00063824 -2.11954e-06 4.95829e-06
3.03593e-06 4.95829e-06 -0.000108396
0.00235795 -0.000629955 1.60802e-07
-0.000629955 5.00231e-05 3.89708e-07
1.60802e-07 3.89708e-07 2.65086e-06
0.0023534 -0.000554778 -1.98626e-06
-0.000554778 3.98345e-05 1.34435e-07
-1.98626e-06 1.34435e-07 -1.10842e-05
0.00214257 -0.000581253 3.02091e-06
-0.000581253 4.3987e-05 3.63069e-07
3.02091e-06 3.63069e-07 -8.77752e-05
0.00232911 -0.000617255 -5.64719e-09
-0.000617255 0.000148475 -2.26506e-09
-5.64719e-09 -2.26506e-09 3.19195e-05
0.00221292 -0.000542277 3.73462e-07
-0.000542277 0.00012638 6.57708e-07
3.73462e-07 6.57708e-07 2.8264e-06
0.00218435 -0.000575509 -2.45919e-06
-0.000575509 0.000149306 4.03059e-09
-2.45919e-06 4.03059e-09 -4.5886e-06
0.00217811 -0.00054447 -1.58108e-06
-0.00054447 0.000208233 2.08392e-07
-1.58108e-06 2.08392e-07 3.82551e-05
0.00225961 -0.000538264 -2.44081e-06
-0.000538264 0.000288006 2.40818e-07
-2.44081e-06 2.40818e-07 9.57742e-05
0.00217395 -0.000532039 4.04155e-06
-0.000532039 0.000243683 1.6458e-06
4.04155e-06 1.6458e-06 4.33237e-05
0.00212275 -0.000552771 -3.75279e-07
-0.000552771 0.000219218 2.49724e-10
-3.75279e-07 2.49724e-10 -2.50504e-06
0.00216683 -0.000551185 -1.0942e-06
-0.000551185 0.000284816 -2.30836e-06
-1.0942e-06 -2.30836e-06 3.9039e-05
0.0018673 -0.000546683 -7.79462e-06
-0.000546683 0.000239045 -1.26554e-06
-7.79462e-06 -1.26554e-06 -7.4266e-05
0.00210562 -0.000608818 -5.52274e-07
-0.000608818 0.00027801 -1.37233e-06
-5.52274e-07 -1.37233e-06 -2.44348e-05
0.00228348 -0.000640293 4.69229e-06
-0.000640293 0.000325114 2.9757e-06
4.69229e-06 2.9757e-06 3.76004e-05
0.00109025 -0.000360102 -1.96051e-05
-0.000360102 5.60375e-05 9.71736e-06
-1.96051e-05 9.71736e-06 -0.000216233
0.00185117 -0.000627328 -6.08946e-07
-0.000627328 0.000337728 8.00346e-07
-6.08946e-07 8.00346e-07 -4.22104e-05
0.00194705 -0.000716468 2.21429e-06
-0.000716468 0.000280218 2.49285e-06
2.21429e-06 2.49285e-06 -0.000113581
0.000278394 -0.000211929 -1.78452e-05
-0.000211929 -0.000220953 2.27962e-05
-1.78452e-05 2.27962e-05 -0.000369647
0.000787196 -0.000308078 1.99011e-06
-0.000308078 -1.31899e-05 -2.25937e-09
1.99011e-06 -2.25937e-09 -0.000276614
0.00161812 -0.000607149 1.19932e-05
-0.000607149 0.000364429 -1.53471e-06
1.19932e-05 -1.53471e-06 -3.24279e-05
0.00674782 5.79495e-05 -0.000254668
5.79495e-05 0.00399213 1.75845e-05
-0.000254668 1.75845e-05 0.00399666
0.000335137 -0.000214375 -2.34583e-06
-0.000214375 -0.000155201 -4.46202e-07
-2.34583e-06 -4.46202e-07 -0.000294298
0.000542836 -0.000254746 9.27519e-06
-0.000254746 -6.06007e-05 -6.973e-06
9.27519e-06 -6.973e-06 -0.000308816
0.00609323 0.00010558 -1.15594e-05
0.00010558 0.00361221 -2.54611e-06
-1.15594e-05 -2.54611e-06 0.003604
0.000432239 -0.000186654 2.19972e-05
-0.000186654 -8.1605e-05 -1.82473e-05
2.19972e-05 -1.82473e-05 -0.000200431
0.00549003 0.000122125 0.000196954
0.000122125 0.00324386 -2.13029e-05
0.000196954 -2.13029e-05 0.00323306
0.00197256 0.000746187 -6.64364e-06
0.000746187 0.000581446 6.04631e-06
-6.64364e-06 6.04631e-06 0.000125337
0.00189028 0.000665074 -1.54355e-06
0.000665074 0.000691766 -1.25201e-06
-1.54355e-06 -1.25201e-06 0.000252309
0.00106052 0.000416905 -2.86005e-06
0.000416905 0.000206274 -1.50309e-06
-2.86005e-06 -1.50309e-06 -0.000122099
0.00132628 0.000420745 -7.57363e-06
0.000420745 0.000472054 -3.50065e-06
-7.57363e-06 -3.50065e-06 0.000174623
0.000460722 0.000213533 1.03212e-06
0.000213533 -6.19241e-05 -9.87832e-07
1.03212e-06 -9.87832e-07 -0.000296155
0.000709618 0.000239226 -3.75e-06
0.000239226 0.000141098 -6.83897e-06
-3.75e-06 -6.83897e-06 -0.000105781
0.000294189 0.00011203 2.92061e-07
0.00011203 -0.000101231 1.34927e-06
2.92061e-07 1.34927e-06 -0.000324476
0.000672376 0.000156663 1.22061e-06
0.000156663 0.000166159 -7.51239e-07
1.22061e-06 -7.51239e-07 -6.7707e-05
0.000704608 0.000110418 -2.01405e-05
0.000110418 0.000120947 -1.90391e-05
-2.01405e-05 -1.90391e-05 2.86633e-05
4.90614e-05 8.73849e-05 -1.54119e-06
8.73849e-05 -0.000205562 1.12334e-05
-1.54119e-06 1.12334e-05 -0.000406654
0.00052515 7.29697e-05 4.75634e-07
7.29697e-05 3.2363e-05 -2.07656e-07
4.75634e-07 -2.07656e-07 -3.96067e-05
0.00421811 -0.000134122 -0.000122305
-0.000134122 0.00242368 -1.24242e-05
-0.000122305 -1.24242e-05 0.00241638
0.00350044 -0.000134432 -1.2644e-05
-0.000134432 0.00195334 1.12067e-06
-1.2644e-05 1.12067e-06 0.00194767
0.000335881 5.82083e-05 7.98246e-06
5.82083e-05 -7.89997e-05 1.50093e-05
7.98246e-06 1.50093e-05 -0.000135188
0.00300497 -0.000112911 4.5983e-05
-0.000112911 0.001624 5.82006e-06
4.5983e-05 5.82006e-06 0.00162358
0.00360026 0.000256121 9.75069e-05
0.000256121 -0.00165866 3.37677e-05
9.75069e-05 3.37677e-05 0.000160644
0.00587961 -0.000865477 0.000223367
-0.000865477 -0.00503796 0.00010894
0.000223367 0.00010894 -0.00577749
0.0144031 -0.00412234 -0.000275595
-0.00412234 0.00647144 -0.000119647
-0.000275595 -0.000119647 0.00382853
0.00163103 0.000740191 6.22873e-06
0.000740191 0.000114284 1.02772e-05
6.22873e-06 1.02772e-05 -0.000277727
0.00495322 0.00098703 -1.45952e-05
0.00098703 0.00272576 -5.58291e-06
-1.45952e-05 -5.58291e-06 0.00218318
0.000392789 0.000578851 -9.71674e-06
0.000578851 -0.000183113 -9.00526e-06
-9.71674e-06 -9.00526e-06 -0.000651072
0.00158639 0.00085005 1.66465e-06
0.00085005 0.000494012 -2.992e-06
1.66465e-06 -2.992e-06 2.00102e-05
0.00185635 0.000815619 -1.5137e-06
0.000815619 0.000492361 4.08762e-06
-1.5137e-06 4.08762e-06 3.96542e-06
0.00175262 0.000887974 2.37043e-05
0.000887974 0.000361063 1.4973e-05
2.37043e-05 1.4973e-05 -6.27249e-05
0.00229117 0.000972744 -4.35295e-05
0.000972744 0.00084957 -4.82264e-06
-4.35295e-05 -4.82264e-06 0.000397786
0.000568171 0.000749201 1.33391e-05
0.000749201 -8.56836e-05 -3.9147e-05
1.33391e-05 -3.9147e-05 -0.000408411
0.00198637 0.00101699 -7.64478e-07
0.00101699 0.000457694 -1.52902e-06
-7.64478e-07 -1.52902e-06 8.46768e-05
0.00250278 0.0010706 1.14904e-05
0.0010706 0.000525738 -9.39175e-06
1.14904e-05 -9.39175e-06 0.000423539
0.00246148 0.00106199 2.13281e-05
0.00106199 0.000454529 -3.71821e-06
2.13281e-05 -3.71821e-06 6.9337e-05
0.00197776 0.000876344 2.8449e-05
0.000876344 0.000252373 2.44973e-05
2.8449e-05 2.44973e-05 4.55259e-05
0.000655048 0.000937441 -8.3785e-06
0.000937441 -0.000361334 -6.62804e-06
-8.3785e-06 -6.62804e-06 -0.000668479
0.000386037 0.000885884 -2.63384e-05
0.000885884 -0.000534406 -2.44198e-05
-2.63384e-05 -2.44198e-05 -0.00062456
0.00191017 0.000999738 5.59388e-05
0.000999738 -0.00113754 3.85116e-05
5.59388e-05 3.85116e-05 -0.000539511
0.00619362 0.00232128 -0.000102033
0.00232128 -0.00174957 -3.25651e-05
-0.000102033 -3.25651e-05 0.00026761
0.00440241 0.00288057 0.000666503
0.00288057 -0.00558706 0.00017212
0.000666503 0.00017212 -0.00686172
0.00289152 0.00245202 -0.000229474
0.00245202 -0.000437918 -9.62467e-05
-0.000229474 -9.62467e-05 0.000599984
0.0051118 0.00214214 -3.18423e-05
0.00214214 0.000810974 -9.79167e-06
-3.18423e-05 -9.79167e-06 0.000699035
0.00592233 0.00209626 -0.000174605
0.00209626 0.0019732 -5.2171e-05
-0.000174605 -5.2171e-05 0.00148817
0.00319721 -0.00023897 -5.15626e-05
-0.00023897 -0.000539616 -1.94515e-05
-5.15626e-05 -1.94515e-05 -5.31979e-05
-0.000687175 -0.000394091 0.00010763
-0.000394091 -0.0018306 2.52923e-05
0.00010763 2.52923e-05 -0.000417702
0.00483541 0.000644498 0.000277807
0.000644498 -0.00556055 -1.87767e-05
0.000277807 -1.87767e-05 -0.00574705
0.00082105 -0.0010058 -6.12601e-05
-0.0010058 -0.00131945 7.95179e-05
-6.12601e-05 7.95179e-05 -0.000888422
0.0069243 -0.00108289 -0.000191582
-0.00108289 -0.000121384 5.73662e-05
-0.000191582 5.73662e-05 0.000689019
0.00291234 -0.000822317 -2.62479e-05
-0.000822317 -0.00053604 1.16726e-05
-2.62479e-05 1.16726e-05 3.50038e-05
0.00469017 -0.000594974 -1.30851e-05
-0.000594974 0.000428186 -2.43944e-06
-1.30851e-05 -2.43944e-06 0.000824624
0.00347618 -0.00044951 7.56595e-05
-0.00044951 0.000236317 -1.25763e-05
7.56595e-05 -1.25763e-05 0.000604675
0.00368063 -0.00012314 5.45131e-05
-0.00012314 0.000887853 -2.39634e-06
5.45131e-05 -2.39634e-06 0.000956498
0.000480353 -0.000601991 -2.06154e-05
-0.000601991 -0.00119102 1.14425e-05
-2.06154e-05 1.14425e-05 -0.000872755
0.0023978 -0.000604584 -2.99513e-06
-0.000604584 -0.000315998 7.84823e-07
-2.99513e-06 7.84823e-07 -3.32113e-05
0.00254729 -0.000486806 3.13504e-06
-0.000486806 -0.000212984 -1.19368e-06
3.13504e-06 -1.19368e-06 2.57463e-05
0.00242883 -0.000710959 -1.80074e-06
-0.000710959 -7.73617e-05 2.38421e-06
-1.80074e-06 2.38421e-06 -8.41982e-05
0.00253447 -0.00061236 -2.60676e-08
-0.00061236 2.69481e-05 -5.89827e-07
-2.60676e-08 -5.89827e-07 4.97042e-05
0.00240279 -0.000474188 -1.39264e-06
-0.000474188 -4.8683e-05 -2.89308e-07
-1.39264e-06 -2.89308e-07 -1.31496e-05
0.00232027 -0.000623025 -4.18611e-07
-0.000623025 4.36293e-05 5.36122e-07
-4.18611e-07 5.36122e-07 -9.20623e-06
0.00234237 -0.000558508 -7.74983e-07
-0.000558508 4.50023e-05 8.51521e-08
-7.74983e-07 8.51521e-08 -4.09954e-06
0.00223739 -0.000467835 -1.00945e-06
-0.000467835 5.8431e-05 8.10477e-07
-1.00945e-06 8.10477e-07 -7.21862e-06
0.00231961 -0.000612266 5.72194e-08
-0.000612266 0.000171065 -1.70547e-06
5.72194e-08 -1.70547e-06 5.07274e-05
0.00219728 -0.000542485 9.64469e-07
-0.000542485 0.000113879 -4.37002e-07
9.64469e-07 -4.37002e-07 -1.00109e-05
0.0021388 -0.000493446 -1.40127e-06
-0.000493446 0.000141175 4.38396e-07
-1.40127e-06 4.38396e-07 -7.31509e-06
0.00211896 -0.000536486 -1.64298e-06
-0.000536486 0.00016883 4.4158e-07
-1.64298e-06 4.4158e-07 1.60514e-06
0.0022019 -0.000532326 -1.47735e-06
-0.000532326 0.000243868 7.3202e-07
-1.47735e-06 7.3202e-07 5.52286e-05
0.00226424 -0.000524847 -1.40962e-06
-0.000524847 0.000304112 -1.65774e-06
-1.40962e-06 -1.65774e-06 9.52262e-05
0.00214596 -0.000553945 2.98499e-06
-0.000553945 0.000231361 2.36624e-06
2.98499e-06 2.36624e-06 9.58648e-06
0.00216734 -0.000552928 1.35648e-07
-0.000552928 0.000285381 -2.75572e-07
1.35648e-07 -2.75572e-07 4.07765e-05
0.00198892 -0.000489453 -5.64634e-06
-0.000489453 0.0002775 4.96265e-08
-5.64634e-06 4.96265e-08 8.93624e-06
0.00118624 -0.000357705 -2.01198e-05
-0.000357705 3.64307e-05 8.68341e-06
-2.01198e-05 8.68341e-06 -0.000225058
0.00187466 -0.000546147 -8.46649e-07
-0.000546147 0.000249816 -7.73368e-07
-8.46649e-07 -7.73368e-07 -6.68699e-05
0.00202156 -0.000607981 2.07393e-06
-0.000607981 0.000222859 1.68002e-06
2.07393e-06 1.68002e-06 -8.61659e-05
0.000344694 -0.000245392 -2.29329e-05
-0.000245392 -0.000187765 1.96837e-05
-2.29329e-05 1.96837e-05 -0.000348371
0.00103165 -0.000357797 2.04573e-06
-0.000357797 1.70289e-05 -6.28946e-08
2.04573e-06 -6.28946e-08 -0.000256468
0.00191421 -0.000626358 9.26769e-06
-0.000626358 0.000387233 -7.75874e-08
9.26769e-06 -7.75874e-08 1.00516e-05
0.0075273 1.25048e-05 -0.00029899
1.25048e-05 0.00445807 2.33758e-05
-0.00029899 2.33758e-05 0.00446717
0.000315666 -0.000261019 -9.98822e-07
-0.000261019 -0.000184661 1.80897e-06
-9.98822e-07 1.80897e-06 -0.000345416
0.000696755 -0.000314039 1.34871e-05
-0.000314039 -8.13284e-05 -7.52392e-06
1.34871e-05 -7.52392e-06 -0.000349964
0.00699519 4.30791e-05 -5.27325e-06
4.30791e-05 0.00415021 -1.81253e-08
-5.27325e-06 -1.81253e-08 0.00415291
0.000699802 -0.000267579 2.59196e-05
-0.000267579 7.15612e-05 -2.24061e-05
2.59196e-05 -2.24061e-05 -7.16999e-05
0.00636938 0.000108291 0.000234817
0.000108291 0.00379802 -2.84991e-05
0.000234817 -2.84991e-05 0.00378402
0.001696 0.000681525 -2.86614e-06
0.000681525 0.000226074 7.59699e-06
-2.86614e-06 7.59699e-06 -0.000168726
0.00183462 0.000734326 -1.6526e-06
0.000734326 0.000486133 7.74114e-07
-1.6526e-06 7.74114e-07 3.08972e-05
0.00137452 0.000535967 -8.55563e-06
0.000535967 0.000253951 1.03942e-06
-8.55563e-06 1.03942e-06 -0.000115041
0.00109429 0.000569348 -5.1137e-06
0.000569348 0.000154617 -3.01887e-06
-5.1137e-06 -3.01887e-06 -0.000254025
0.00131888 0.00041029 -4.20182e-06
0.00041029 0.000338373 -2.1077e-06
-4.20182e-06 -2.1077e-06 1.97597e-05
0.0008882 0.00025448 -1.0869e-05
0.00025448 0.000188242 -3.20597e-06
-1.0869e-05 -3.20597e-06 -5.75154e-05
0.000389956 0.000189259 -2.51885e-06
0.000189259 -0.000123055 -2.58537e-06
-2.51885e-06 -2.58537e-06 -0.000353923
0.000687581 0.000189215 5.90402e-07
0.000189215 0.000101877 -1.52487e-07
5.90402e-07 -1.52487e-07 -0.000124275
0.000461709 0.000160528 -2.82005e-05
0.000160528 -6.28213e-05 -1.84638e-05
-2.82005e-05 -1.84638e-05 -0.000162962
0.000530834 0.000124838 1.22509e-06
0.000124838 6.47199e-05 1.07324e-05
1.22509e-06 1.07324e-05 -0.000157369
0.000483533 0.00010218 -9.68113e-07
0.00010218 -1.21559e-05 -2.878e-07
-9.68113e-07 -2.878e-07 -9.90873e-05
0.00494906 -0.000157954 -0.000153869
-0.000157954 0.00290807 -1.64357e-05
-0.000153869 -1.64357e-05 0.00289095
0.00019185 7.65828e-05 1.21732e-05
7.65828e-05 -0.000173424 1.74156e-05
1.21732e-05 1.74156e-05 -0.000241953
0.00398267 -0.000154609 -1.24156e-05
-0.000154609 0.00227821 1.35249e-06
-1.24156e-05 1.35249e-06 0.00226539
0.00332722 -0.000142235 5.56716e-05
-0.000142235 0.00184252 6.67338e-06
5.56716e-05 6.67338e-06 0.00183412
0.000906506 0.00023996 -2.739e-06
0.00023996 -0.0018896 1.02587e-05
-2.739e-06 1.02587e-05 -0.000972179
0.00491535 0.000150181 6.99149e-05
0.000150181 -0.00117029 2.49157e-05
6.99149e-05 2.49157e-05 0.0005865
0.0155501 0.000856096 1.06485e-05
0.000856096 0.00176224 3.86311e-05
1.06485e-05 3.86311e-05 0.00196307
0.00206305 0.000854776 3.89357e-08
0.000854776 0.000337489 6.51614e-06
3.89357e-08 6.51614e-06 -4.63926e-05
0.00220739 0.000797643 1.13526e-06
0.000797643 0.000268245 4.99814e-06
1.13526e-06 4.99814e-06 -6.72448e-05
0.00163726 0.000742239 -5.79328e-07
0.000742239 0.000129091 -4.41653e-06
-5.79328e-07 -4.41653e-06 -0.000258769
0.00311637 0.00104554 -1.57634e-05
0.00104554 0.00140018 -9.00374e-07
-1.57634e-05 -9.00374e-07 0.000885771
0.00218312 0.000852961 -5.34298e-06
0.000852961 0.000718527 -1.11166e-05
-5.34298e-06 -1.11166e-05 0.000214414
0.00218643 0.000968898 8.03239e-06
0.000968898 0.000570206 3.92554e-06
8.03239e-06 3.92554e-06 0.000136309
0.00223622 0.000962691 -1.05455e-06
0.000962691 0.000208981 -2.60563e-06
-1.05455e-06 -2.60563e-06 -0.000140198
0.00224017 0.00108211 -1.55703e-05
0.00108211 0.000546837 2.97443e-06
-1.55703e-05 2.97443e-06 0.000168157
0.000719332 0.000883053 -2.20342e-05
0.000883053 -0.000543962 3.36953e-05
-2.20342e-05 3.36953e-05 -0.000502183
0.00276784 0.00110824 -4.19095e-07
0.00110824 0.000628242 2.47233e-06
-4.19095e-07 2.47233e-06 0.000234856
0.00288493 0.000948005 -4.41841e-06
0.000948005 0.000441467 5.46859e-06
-4.41841e-06 5.46859e-06 0.00020193
0.00146875 0.000446007 4.75864e-05
0.000446007 -0.000247492 1.60231e-05
4.75864e-05 1.60231e-05 -0.000139272
0.000375154 0.000721124 8.31396e-06
0.000721124 -0.000587629 -5.61498e-06
8.31396e-06 -5.61498e-06 -0.000776027
0.00103463 0.000978152 -3.87672e-05
0.000978152 -0.000155115 -3.88245e-06
-3.87672e-05 -3.88245e-06 -0.000471751
0.00347423 0.0011455 1.63246e-05
0.0011455 -0.000252131 1.04277e-05
1.63246e-05 1.04277e-05 0.000184626
0.00818811 0.00207565 -5.05362e-05
0.00207565 -0.000755583 -4.55188e-05
-5.05362e-05 -4.55188e-05 0.000837518
0.00492391 0.00180346 -5.77757e-05
0.00180346 0.0011788 -6.96023e-05
-5.77757e-05 -6.96023e-05 0.00114232
0.00287116 -9.52586e-05 5.44378e-05
-9.52586e-05 0.000241933 7.92049e-06
5.44378e-05 7.92049e-06 0.000475225
0.0030848 -0.000237936 -7.72818e-05
-0.000237936 -0.000645122 5.79537e-06
-7.72818e-05 5.79537e-06 -2.85881e-05
0.00481419 0.000468251 2.21928e-05
0.000468251 -0.00016479 -2.18332e-05
2.21928e-05 -2.18332e-05 0.000847948
0.000739995 -0.00068993 -7.62502e-05
-0.00068993 -0.00175731 5.64573e-05
-7.62502e-05 5.64573e-05 -0.00111501
0.00273951 -0.000620669 -0.000100248
-0.000620669 -0.000599747 4.4376e-06
-0.000100248 4.4376e-06 -0.000327912
0.00287772 -0.000428708 6.66053e-06
-0.000428708 -7.86567e-05 -2.47154e-06
6.66053e-06 -2.47154e-06 0.000345558
0.00242011 -0.000107529 -1.69401e-05
-0.000107529 7.3288e-05 4.96446e-07
-1.69401e-05 4.96446e-07 0.000169405
0.00257616 -0.000277476 1.40283e-05
-0.000277476 -9.55639e-05 -3.00927e-06
1.40283e-05 -3.00927e-06 9.94275e-05
0.00233482 3.47768e-05 9.6548e-06
3.47768e-05 -0.000227153 4.09133e-07
9.6548e-06 4.09133e-07 -0.000114373
0.00244926 -0.000638948 -1.89379e-05
-0.000638948 -0.000298722 4.75455e-06
-1.89379e-05 4.75455e-06 -4.36039e-05
0.00257936 -0.000508494 -2.68955e-06
-0.000508494 -0.000196977 8.52697e-07
-2.68955e-06 8.52697e-07 2.10866e-06
0.00247347 -0.000349902 -6.97346e-07
-0.000349902 -0.000121602 -7.12446e-07
-6.97346e-07 -7.12446e-07 4.19349e-06
0.00251691 -0.000594096 -3.20918e-06
-0.000594096 3.82131e-05 4.3989e-07
-3.20918e-06 4.3989e-07 7.01967e-05
0.0024166 -0.000473423 1.66269e-07
-0.000473423 -2.72776e-05 -1.5906e-07
1.66269e-07 -1.5906e-07 2.61839e-06
0.00230871 -0.000389454 -2.66116e-07
-0.000389454 -3.4775e-06 2.16508e-07
-2.66116e-07 2.16508e-07 1.45297e-06
0.00233149 -0.000562529 -5.83702e-07
-0.000562529 4.94593e-05 -5.7025e-07
-5.83702e-07 -5.7025e-07 1.8453e-06
0.00224405 -0.000466971 4.02526e-07
-0.000466971 5.78182e-05 -4.43379e-08
4.02526e-07 -4.43379e-08 -7.59231e-06
0.00217614 -0.00042099 -2.45293e-06
-0.00042099 9.17088e-05 1.12368e-06
-2.45293e-06 1.12368e-06 2.46919e-06
0.00218379 -0.000542796 2.09328e-06
-0.000542796 0.000102646 -1.47464e-06
2.09328e-06 -1.47464e-06 -2.15875e-05
0.00213227 -0.000492623 7.61297e-07
-0.000492623 0.000132196 -5.12077e-07
7.61297e-07 -5.12077e-07 -1.64284e-05
0.00213237 -0.000465495 -1.94372e-06
-0.000465495 0.000176709 -7.14497e-07
-1.94372e-06 -7.14497e-07 3.56457e-06
0.00214037 -0.000526249 -3.16213e-07
-0.000526249 0.000197097 1.14271e-06
-3.16213e-07 1.14271e-06 1.20623e-05
0.00220679 -0.000522196 -2.84059e-07
-0.000522196 0.000267841 -1.53584e-07
-2.84059e-07 -1.53584e-07 5.93717e-05
0.00197441 -0.000454324 -4.55024e-06
-0.000454324 0.000214879 -1.29128e-09
-4.55024e-06 -1.29128e-09 -2.37224e-05
0.00216291 -0.000554274 2.04439e-06
-0.000554274 0.000282836 2.49596e-06
2.04439e-06 2.49596e-06 3.94726e-05
0.00201775 -0.000494141 -7.41538e-07
-0.000494141 0.000295143 -2.91074e-08
-7.41538e-07 -2.91074e-08 2.7595e-05
0.00120975 -0.000311507 -1.69972e-05
-0.000311507 1.31891e-05 7.88331e-06
-1.69972e-05 7.88331e-06 -0.000220883
0.000276112 -0.000215239 -1.92756e-05
-0.000215239 -0.000252417 1.90106e-05
-1.92756e-05 1.90106e-05 -0.000401828
0.00117582 -0.000354898 3.40688e-07
-0.000354898 3.28159e-05 -5.47947e-09
3.40688e-07 -5.47947e-09 -0.000227405
0.00186553 -0.000544706 5.85119e-06
-0.000544706 0.00024885 -7.75171e-07
5.85119e-06 -7.75171e-07 -7.1149e-05
0.00782072 -8.0913e-05 -0.000347189
-8.0913e-05 0.00461873 2.88616e-05
-0.000347189 2.88616e-05 0.00463727
0.000341352 -0.000245708 -8.27541e-07
-0.000245708 -0.000200463 1.29737e-06
-8.27541e-07 1.29737e-06 -0.000356305
0.000898003 -0.000349909 1.83509e-05
-0.000349909 -6.50323e-05 -7.8876e-06
1.83509e-05 -7.8876e-06 -0.00033906
0.00771799 -2.66353e-05 -1.83765e-07
-2.66353e-05 0.00457553 1.1128e-06
-1.83765e-07 1.1128e-06 0.00458715
0.000444656 -0.000267581 2.49102e-05
-0.000267581 -0.000109729 -2.19824e-05
2.49102e-05 -2.19824e-05 -0.000270897
0.00733489 -2.57415e-06 0.000311405
-2.57415e-06 0.00435495 -3.0561e-05
0.000311405 -3.0561e-05 0.00436283
0.00193494 0.00071986 9.2477e-07
0.00071986 0.000222073 7.85197e-06
9.2477e-07 7.85197e-06 -0.000130285
0.00177884 0.000696494 2.40682e-07
0.000696494 0.000282654 6.04083e-07
2.40682e-07 6.04083e-07 -0.000113041
0.00178479 0.000603849 -7.45767e-06
0.000603849 0.000374143 3.17455e-06
-7.45767e-06 3.17455e-06 2.63623e-06
0.00162715 0.000710752 3.01333e-06
0.000710752 0.000354254 -4.51891e-06
3.01333e-06 -4.51891e-06 -9.65598e-05
0.00141946 0.00053713 -6.69597e-07
0.00053713 0.000285844 4.06803e-07
-6.69597e-07 4.06803e-07 -8.34846e-05
0.00100043 0.000287986 -1.3234e-05
0.000287986 0.000145381 -4.26728e-06
-1.3234e-05 -4.26728e-06 -0.000100672
0.00142784 0.0004011 2.72846e-06
0.0004011 0.000393652 -1.02657e-06
2.72846e-06 -1.02657e-06 8.23369e-05
0.000588179 0.000217209 1.10116e-06
0.000217209 -8.10033e-06 7.09361e-07
1.10116e-06 7.09361e-07 -0.000243905
0.000447258 0.000225838 -3.05252e-05
0.000225838 -8.62457e-05 -2.07132e-05
-3.05252e-05 -2.07132e-05 -0.0002059
0.000565896 0.000145773 2.30401e-06
0.000145773 3.31414e-05 6.94332e-06
2.30401e-06 6.94332e-06 -0.000199245
0.000519339 0.000143348 3.96757e-07
0.000143348 -2.14684e-05 -8.14336e-07
3.96757e-07 -8.14336e-07 -0.000120791
0.0059455 -0.000179967 -0.000193513
-0.000179967 0.00356047 -2.30878e-05
-0.000193513 -2.30878e-05 0.00353104
0.000353768 9.66259e-05 1.72568e-05
9.66259e-05 -8.69298e-05 1.93376e-05
1.72568e-05 1.93376e-05 -0.000172179
0.00471905 -0.000188199 -1.2318e-05
-0.000188199 0.0027695 1.50766e-06
-1.2318e-05 1.50766e-06 0.00274443
0.00387873 -0.000173345 7.89956e-05
-0.000173345 0.00221505 8.81086e-06
7.89956e-05 8.81086e-06 0.00219711
0.0016272 0.000238605 3.80372e-05
0.000238605 -0.000368459 2.19889e-05
3.80372e-05 2.19889e-05 -6.71198e-05
0.00243056 0.00030588 -2.78751e-05
0.00030588 -0.00140745 -2.76642e-06
-2.78751e-05 -2.76642e-06 -0.000424302
0.00471305 0.000480881 0.000250008
0.000480881 -0.00168988 7.63979e-05
0.000250008 7.63979e-05 0.000473655
0.0025597 0.000851482 -7.88831e-06
0.000851482 0.000420376 5.51143e-07
-7.88831e-06 5.51143e-07 9.97345e-05
0.00197719 0.000870117 -7.96632e-06
0.000870117 0.000265936 -5.56038e-06
-7.96632e-06 -5.56038e-06 -0.000115497
0.0023343 0.000650371 2.1577e-06
0.000650371 0.000230069 4.9971e-06
2.1577e-06 4.9971e-06 -9.86737e-06
0.00229062 0.000794847 1.582e-06
0.000794847 0.000324489 5.07928e-07
1.582e-06 5.07928e-07 -9.00214e-06
0.00160776 0.000740729 3.57257e-06
0.000740729 0.00012017 -1.32942e-05
3.57257e-06 -1.32942e-05 -0.000262633
0.00245564 0.000744989 -2.89716e-06
0.000744989 0.000134985 9.28232e-07
-2.89716e-06 9.28232e-07 -6.26268e-05
0.00273475 0.00106302 -8.17116e-06
0.00106302 0.000848732 -5.87384e-06
-8.17116e-06 -5.87384e-06 0.000399804
0.00258676 0.000972356 8.65244e-07
0.000972356 0.000429093 2.16637e-07
8.65244e-07 2.16637e-07 7.43402e-05
0.00214979 0.000470666 -1.64599e-05
0.000470666 -0.000227086 -3.48925e-07
-1.64599e-05 -3.48925e-07 -0.000177597
0.00347961 0.00120949 -7.79208e-06
0.00120949 0.00100831 9.99583e-06
-7.79208e-06 9.99583e-06 0.000612007
0.00261246 0.000921589 -4.19282e-07
0.000921589 0.000290826 -7.72645e-07
-4.19282e-07 -7.72645e-07 5.08674e-05
0.000684541 0.00043985 -5.33058e-06
0.00043985 -0.000718844 1.63308e-06
-5.33058e-06 1.63308e-06 -0.000574801
-0.00150361 0.000533227 -2.63272e-05
0.000533227 -0.00156016 -1.07373e-05
-2.63272e-05 -1.07373e-05 -0.00171094
0.00378833 0.00124332 -0.00014056
0.00124332 -8.38626e-05 -4.85646e-05
-0.00014056 -4.85646e-05 0.000226943
0.00243467 0.000143027 -9.71939e-07
0.000143027 -0.000153157 -1.715e-06
-9.71939e-07 -1.715e-06 -1.68846e-05
0.00279193 -6.98918e-05 -3.06133e-06
-6.98918e-05 0.000295535 3.83385e-07
-3.06133e-06 3.83385e-07 0.00045173
0.00258088 -0.000268528 -0.000103484
-0.000268528 -0.000981811 -1.38461e-06
-0.000103484 -1.38461e-06 -0.000248861
0.0018515 -0.00039239 -7.67933e-05
-0.00039239 -0.000649614 1.01361e-05
-7.67933e-05 1.01361e-05 -0.000173053
0.00189333 -0.000114823 -2.00177e-05
-0.000114823 -0.000289595 3.57907e-06
-2.00177e-05 3.57907e-06 -0.000166944
0.00253421 -0.00028161 2.49833e-06
-0.00028161 -0.00013883 -1.44408e-06
2.49833e-06 -1.44408e-06 8.40703e-05
0.00252365 4.29945e-05 -3.18199e-06
4.29945e-05 -0.000128409 1.62069e-07
-3.18199e-06 1.62069e-07 -1.69566e-05
0.00250924 -7.43096e-05 -7.98752e-07
-7.43096e-05 -0.00012584 -7.29021e-07
-7.98752e-07 -7.29021e-07 2.20407e-05
0.00259376 -0.000526096 -3.49363e-06
-0.000526096 -0.00018468 5.27096e-07
-3.49363e-06 5.27096e-07 -2.50832e-05
0.00242032 -0.000336224 3.42003e-07
-0.000336224 -0.000136107 -1.95792e-07
3.42003e-07 -1.95792e-07 -1.88921e-05
0.00235229 -0.000257057 5.58203e-07
-0.000257057 -3.9731e-05 -1.93389e-07
5.58203e-07 -1.93389e-07 3.61191e-05
0.00243176 -0.000473006 1.61034e-07
-0.000473006 -4.22392e-06 2.61241e-07
1.61034e-07 2.61241e-07 1.98105e-05
0.00230169 -0.000386259 1.37099e-07
-0.000386259 -4.7113e-06 1.6808e-07
1.37099e-07 1.6808e-07 -1.23109e-06
0.00219689 -0.000326198 -2.35318e-06
-0.000326198 4.50509e-05 8.44824e-07
-2.35318e-06 8.44824e-07 1.39517e-05
0.00224977 -0.000465971 1.68753e-06
-0.000465971 5.64567e-05 -7.98982e-07
1.68753e-06 -7.98982e-07 -8.69859e-06
0.00217559 -0.00042193 5.83161e-07
-0.00042193 8.71946e-05 -1.22419e-07
5.83161e-07 -1.22419e-07 -2.34452e-06
0.00217256 -0.000397535 -2.96144e-06
-0.000397535 0.000155661 4.33657e-07
-2.96144e-06 4.33657e-07 2.34321e-05
0.00212575 -0.000491836 2.2537e-06
-0.000491836 0.000123291 -1.22128e-06
2.2537e-06 -1.22128e-06 -2.54681e-05
0.00213539 -0.000465663 -1.48365e-07
-0.000465663 0.000178042 -2.73034e-07
-1.48365e-07 -2.73034e-07 4.42549e-06
0.00201384 -0.000409977 -2.99281e-06
-0.000409977 0.000187039 -3.3283e-07
-2.99281e-06 -3.3283e-07 -1.82287e-05
0.00215119 -0.000519544 1.11571e-06
-0.000519544 0.000232523 1.19042e-06
1.11571e-06 1.19042e-06 2.4527e-05
0.00199596 -0.000455595 -6.50384e-07
-0.000455595 0.000230665 1.51522e-07
-6.50384e-07 1.51522e-07 -7.77342e-06
0.0012044 -0.000273119 -1.35909e-05
-0.000273119 -1.2409e-05 6.49078e-06
-1.35909e-05 6.49078e-06 -0.000226055
0.00205243 -0.000499108 4.65721e-06
-0.000499108 0.000316686 1.79864e-07
4.65721e-06 1.79864e-07 5.01601e-05
0.00123564 -0.00031282 9.58499e-08
-0.00031282 2.54292e-05 1.66444e-07
9.58499e-08 1.66444e-07 -0.000207867
0.00284353 -0.000213532 -5.40049e-05
-0.000213532 0.00135557 1.3922e-05
-5.40049e-05 1.3922e-05 0.00123851
0.00251715 -0.0001226 -0.000285946
-0.0001226 0.00124952 4.13139e-05
-0.000285946 4.13139e-05 0.00123177
0.00161999 -0.00023216 -1.56908e-05
-0.00023216 0.000595497 5.9906e-08
-1.56908e-05 5.9906e-08 0.000456583
0.00119463 -0.000353801 1.89913e-05
-0.000353801 4.96631e-05 -8.13563e-06
1.89913e-05 -8.13563e-06 -0.000209464
0.00775966 -9.17427e-05 -9.97593e-06
-9.17427e-05 0.0045903 2.0531e-06
-9.97593e-06 2.0531e-06 0.00460393
0.000149205 -0.000268003 2.47487e-05
-0.000268003 -0.000318219 -2.04484e-05
2.47487e-05 -2.04484e-05 -0.000477231
0.00786649 -4.24822e-05 0.000331652
-4.24822e-05 0.00467556 -3.40404e-05
0.000331652 -3.40404e-05 0.00468258
0.00209588 0.000495396 -3.37044e-08
0.000495396 7.95439e-05 1.05966e-06
-3.37044e-08 1.05966e-06 -9.41348e-05
0.00228863 0.00065613 3.85506e-06
0.00065613 0.00034646 6.6615e-06
3.85506e-06 6.6615e-06 6.67945e-05
0.00224792 0.000744371 5.45839e-07
0.000744371 0.000416115 1.41469e-07
5.45839e-07 1.41469e-07 6.36321e-05
0.00197454 0.000620149 -6.55799e-06
0.000620149 0.000375381 3.61217e-06
-6.55799e-06 3.61217e-06 2.68759e-05
0.00189452 0.000717006 6.26686e-06
0.000717006 0.000355561 -5.69789e-06
6.26686e-06 -5.69789e-06 -4.27558e-05
0.00171173 0.000602143 -3.13582e-07
0.000602143 0.000318088 9.70019e-07
-3.13582e-07 9.70019e-07 -5.54817e-05
0.00070389 0.000319119 -2.10925e-05
0.000319119 -0.000141358 -4.67146e-06
-2.10925e-05 -4.67146e-06 -0.000400808
0.00142852 0.000537918 8.95831e-06
0.000537918 0.000288591 6.21748e-08
8.95831e-06 6.21748e-08 -8.15465e-05
0.000623751 0.000269554 2.30623e-07
0.000269554 -8.04912e-05 -2.5974e-07
2.30623e-07 -2.5974e-07 -0.000321847
0.000527314 0.000293574 -3.05076e-05
0.000293574 -4.6739e-05 -2.198e-05
-3.05076e-05 -2.198e-05 -0.000196733
0.000339108 0.000192696 7.30627e-06
0.000192696 -0.00017043 1.25521e-06
7.30627e-06 1.25521e-06 -0.000397748
0.000411399 0.000199697 3.43954e-06
0.000199697 -0.00011074 -1.38285e-06
3.43954e-06 -1.38285e-06 -0.000227628
0.00707251 -9.58685e-05 -0.000266865
-9.58685e-05 0.00423242 -2.79009e-05
-0.000266865 -2.79009e-05 0.00421985
0.000439198 0.000130459 2.42738e-05
0.000130459 -6.74999e-05 1.89683e-05
2.42738e-05 1.89683e-05 -0.000162764
0.00556305 -0.0001758 3.76281e-07
-0.0001758 0.00329876 -1.51134e-06
3.76281e-07 -1.51134e-06 0.00327656
0.00443811 -0.000204147 0.000103112
-0.000204147 0.00259488 1.22791e-05
0.000103112 1.22791e-05 0.00256542
0.00242394 0.000234856 -7.2144e-06
0.000234856 -0.000212327 -9.67606e-07
-7.2144e-06 -9.67606e-07 -2.73826e-05
0.00187795 0.000188328 1.48554e-05
0.000188328 -0.00041796 -3.68194e-06
1.48554e-05 -3.68194e-06 -2.75882e-05
0.00481408 0.000428186 -0.000127016
0.000428186 -0.000418304 -3.208e-06
-0.000127016 -3.208e-06 0.000620477
0.00236416 0.000601172 -2.30571e-06
0.000601172 0.000163083 1.04e-06
-2.30571e-06 1.04e-06 -9.34256e-06
0.00238031 0.000819554 -4.52319e-06
0.000819554 0.000357904 -4.41754e-07
-4.52319e-06 -4.41754e-07 4.38634e-05
0.00192304 0.000886904 -2.10511e-06
0.000886904 0.000215086 -1.11487e-05
-2.10511e-06 -1.11487e-05 -0.000163499
0.0023703 0.000639178 2.55909e-06
0.000639178 0.000269288 1.51516e-06
2.55909e-06 1.51516e-06 3.27464e-05
0.00239392 0.000794545 -9.42313e-07
0.000794545 0.000393601 -6.21503e-06
-9.42313e-07 -6.21503e-06 6.14975e-05
0.0025717 0.000477236 -4.35815e-07
0.000477236 -1.18069e-07 6.41166e-07
-4.35815e-07 6.41166e-07 3.02298e-05
0.00243862 0.00074871 -6.57893e-07
0.00074871 0.000140998 -1.29691e-07
-6.57893e-07 -1.29691e-07 -5.60231e-05
0.00283171 0.000971563 -7.60597e-06
0.000971563 0.000588978 -3.52495e-06
-7.60597e-06 -3.52495e-06 0.000230083
0.00214089 0.000454426 1.11992e-07
0.000454426 -0.000197262 -3.72877e-07
1.11992e-07 -3.72877e-07 -0.00014555
0.00237213 0.000891142 1.5942e-05
0.000891142 0.000147836 1.61275e-06
1.5942e-05 1.61275e-06 -9.13575e-05
-0.000156277 0.000393939 -4.32146e-05
0.000393939 -0.00122599 -1.82105e-05
-4.32146e-05 -1.82105e-05 -0.00104162
0.00245968 0.000101018 1.21445e-07
0.000101018 -8.07049e-05 9.62088e-08
1.21445e-07 9.62088e-08 3.25187e-05
0.00234086 0.000146803 -7.42606e-07
0.000146803 -0.000219892 1.341e-06
-7.42606e-07 1.341e-06 -8.31364e-05
0.00286457 -5.31279e-05 -5.45732e-05
-5.31279e-05 0.000431401 -5.39627e-06
-5.45732e-05 -5.39627e-06 0.000520481
0.00242728 -0.000279707 -2.44204e-05
-0.000279707 -0.000230416 5.3917e-06
-2.44204e-05 5.3917e-06 2.22064e-05
0.0027002 5.6317e-05 -3.52692e-06
5.6317e-05 -4.18705e-05 -1.46166e-07
-3.52692e-06 -1.46166e-07 6.63639e-05
0.00247137 -8.39554e-05 -4.38919e-07
-8.39554e-05 -0.000165516 -5.84947e-07
-4.38919e-07 -5.84947e-07 -1.23583e-05
0.00220949 -7.52808e-05 2.75173e-07
-7.52808e-05 -6.24419e-05 -8.18444e-08
2.75173e-07 -8.18444e-08 1.2217e-06
0.00236505 -0.00032187 8.12516e-07
-0.00032187 -0.000150425 -1.51568e-07
8.12516e-07 -1.51568e-07 -4.24684e-05
0.00230073 -0.000263349 -8.73677e-08
-0.000263349 -6.68309e-05 -2.03929e-09
-8.73677e-08 -2.03929e-09 1.62911e-06
0.00215031 -0.000219682 -8.68741e-07
-0.000219682 -2.56184e-06 -5.36169e-08
-8.68741e-07 -5.36169e-08 -3.62497e-06
0.00229568 -0.000383079 2.74563e-07
-0.000383079 -5.42117e-06 3.00884e-07
2.74563e-07 3.00884e-07 -3.38611e-06
0.00218707 -0.000326614 7.07412e-08
-0.000326614 3.40353e-05 1.61218e-07
7.07412e-08 1.61218e-07 2.96433e-06
0.00222017 -0.000316678 -4.20511e-06
-0.000316678 0.000126077 1.26584e-06
-4.20511e-06 1.26584e-06 4.12386e-05
0.00217895 -0.000423035 3.10965e-06
-0.000423035 8.49833e-05 -1.22836e-06
3.10965e-06 -1.22836e-06 -4.881e-06
0.00211632 -0.000393212 3.20853e-08
-0.000393212 0.000118737 -3.86392e-07
3.20853e-08 -3.86392e-07 -1.31859e-05
0.00199538 -0.000343078 -1.85062e-06
-0.000343078 0.000131342 -5.01852e-07
-1.85062e-06 -5.01852e-07 -3.73806e-05
0.00213475 -0.000465727 2.53781e-06
-0.000465727 0.000176736 -6.00321e-08
2.53781e-06 -6.00321e-08 2.63332e-06
0.00203678 -0.000411326 -6.1492e-07
-0.000411326 0.000204522 5.23888e-08
-6.1492e-07 5.23888e-08 -6.94928e-07
0.00120319 -0.000239209 -1.05203e-05
-0.000239209 -3.49065e-05 4.96386e-06
-1.05203e-05 4.96386e-06 -0.000232057
0.00201633 -0.000456701 3.6158e-06
-0.000456701 0.000245888 4.66769e-08
3.6158e-06 4.66769e-08 7.64963e-06
0.00124528 -0.000275925 -9.6077e-08
-0.000275925 4.98355e-06 2.04681e-07
-9.6077e-08 2.04681e-07 -0.000208031
0.00283289 -0.00020152 -6.16641e-05
-0.00020152 0.00134313 1.35144e-05
-6.16641e-05 1.35144e-05 0.00123607
0.00125219 -0.00031394 1.6237e-05
-0.00031394 3.14011e-05 -7.42482e-06
1.6237e-05 -7.42482e-06 -0.000201203
0.00298255 -0.000249823 5.28806e-05
-0.000249823 0.00144578 -8.68539e-06
5.28806e-05 -8.68539e-06 0.00133762
0.00245438 -0.000153008 -0.000279488
-0.000153008 0.00121638 4.57901e-05
-0.000279488 4.57901e-05 0.00119582
0.00487077 -0.000146472 -0.000273943
-0.000146472 0.00276414 3.1081e-05
-0.000273943 3.1081e-05 0.00276064
0.00305798 -0.000309711 0.000174103
-0.000309711 0.00151411 -2.98374e-05
0.000174103 -2.98374e-05 0.00140338
0.00769236 -0.00010417 0.000334239
-0.00010417 0.00455683 -3.78051e-05
0.000334239 -3.78051e-05 0.00456653
0.00231239 0.000487308 -1.85074e-06
0.000487308 0.000181689 -4.91234e-07
-1.85074e-06 -4.91234e-07 5.17245e-05
0.002076 0.000513545 1.05091e-07
0.000513545 0.00017521 1.98782e-06
1.05091e-07 1.98782e-06 -3.52454e-05
0.00216288 0.000490387 3.07331e-07
0.000490387 0.000130773 -1.12122e-06
3.07331e-07 -1.12122e-06 -3.52095e-05
0.00200185 0.000553336 -4.99795e-06
0.000553336 0.000275522 3.48222e-06
-4.99795e-06 3.48222e-06 -1.68815e-05
0.00232146 0.0006615 6.75616e-07
0.0006615 0.000351599 2.29606e-07
6.75616e-07 2.29606e-07 7.16137e-05
0.0025525 0.000769439 -8.56614e-07
0.000769439 0.000604768 -6.98121e-06
-8.56614e-07 -6.98121e-06 0.000251843
0.00187791 0.000613492 6.54343e-07
0.000613492 0.00030783 3.71275e-07
6.54343e-07 3.71275e-07 -4.08583e-05
0.00118074 0.000380496 -2.92517e-05
0.000380496 7.14589e-05 -6.51454e-06
-2.92517e-05 -6.51454e-06 -0.00019766
0.00165391 0.000600878 9.52113e-06
0.000600878 0.00027397 -8.7833e-07
9.52113e-06 -8.7833e-07 -0.000101588
0.000997363 0.000337117 -2.56523e-06
0.000337117 4.5189e-05 7.88476e-08
-2.56523e-06 7.88476e-08 -0.000214317
0.000276103 0.000277806 -2.76887e-05
0.000277806 -0.000223184 -2.03033e-05
-2.76887e-05 -2.03033e-05 -0.000382401
0.000631666 0.000262655 1.26443e-05
0.000262655 -6.86759e-05 3.63355e-06
1.26443e-05 3.63355e-06 -0.000305199
0.000260128 0.000240625 3.02311e-06
0.000240625 -0.000217161 8.01967e-07
3.02311e-06 8.01967e-07 -0.000359084
0.00779599 -1.6975e-06 -0.00031329
-1.6975e-06 0.00465367 -3.43986e-05
-0.00031329 -3.43986e-05 0.00465044
0.000234976 0.000158842 2.53928e-05
0.000158842 -0.000221451 1.97054e-05
2.53928e-05 1.97054e-05 -0.000334005
0.00660408 -0.000132834 6.82444e-06
-0.000132834 0.00393698 -2.6396e-06
6.82444e-06 -2.6396e-06 0.00392202
0.00524146 -0.000214134 0.000137127
-0.000214134 0.0031087 1.35933e-05
0.000137127 1.35933e-05 0.00307621
0.00248603 0.000278265 5.08852e-07
0.000278265 -7.12192e-05 7.95403e-07
5.08852e-07 7.95403e-07 3.21569e-05
0.00229701 0.000238223 2.07619e-06
0.000238223 -0.000246828 -5.88664e-07
2.07619e-06 -5.88664e-07 -6.22322e-05
0.00183134 0.000138189 -6.77671e-05
0.000138189 -0.000633087 -1.21938e-05
-6.77671e-05 -1.21938e-05 -0.000150119
0.00231323 0.000424433 1.32848e-06
0.000424433 5.31428e-06 6.25737e-07
1.32848e-06 6.25737e-07 -2.08656e-05
0.00229985 0.000593922 -9.13973e-07
0.000593922 0.000142999 2.09704e-07
-9.13973e-07 2.09704e-07 -2.75164e-05
0.00216663 0.000783606 6.34764e-06
0.000783606 0.000273609 -3.22531e-06
6.34764e-06 -3.22531e-06 -3.31162e-05
0.00241085 0.000627651 -1.12746e-06
0.000627651 0.000311503 -3.03775e-06
-1.12746e-06 -3.03775e-06 7.85149e-05
0.00250297 0.000458503 -1.05122e-06
0.000458503 -2.54848e-05 -2.52174e-07
-1.05122e-06 -2.52174e-07 6.68795e-06
0.00237295 0.000748414 -3.15176e-06
0.000748414 0.000119366 1.01466e-07
-3.15176e-06 1.01466e-07 -7.59682e-05
0.00201956 0.000437155 1.51723e-05
0.000437155 -0.000197496 -2.49405e-07
1.51723e-05 -2.49405e-07 -0.000144488
0.00225589 7.64285e-05 2.16054e-06
7.64285e-05 -4.45281e-05 3.02319e-07
2.16054e-06 3.02319e-07 1.05597e-05
0.00240798 9.62246e-05 2.75326e-07
9.62246e-05 -9.73055e-05 6.02377e-08
2.75326e-07 6.02377e-08 1.28977e-05
0.00222956 0.000156105 -7.57631e-06
0.000156105 -0.000295061 -1.89835e-06
-7.57631e-06 -1.89835e-06 -0.000157571
0.00210566 -1.29546e-05 -1.79739e-06
-1.29546e-05 -3.33303e-05 1.71992e-07
-1.79739e-06 1.71992e-07 -4.67223e-06
0.0024609 -0.000100098 1.32105e-06
-0.000100098 -0.00018405 5.67483e-07
1.32105e-06 5.67483e-07 -2.49882e-05
0.00221945 -7.90015e-05 -4.81558e-07
-7.90015e-05 -5.88116e-05 3.89361e-07
-4.81558e-07 3.89361e-07 4.31635e-06
0.00208207 -0.000117217 -2.34935e-06
-0.000117217 -3.32236e-05 3.20332e-07
-2.34935e-06 3.20332e-07 -2.39718e-05
0.0022488 -0.000269429 -9.64493e-08
-0.000269429 -9.36409e-05 2.06331e-07
-9.64493e-08 2.06331e-07 -3.30136e-05
0.00214698 -0.000216335 9.64806e-07
-0.000216335 -4.35954e-06 -3.69717e-07
9.64806e-07 -3.69717e-07 -4.43542e-06
0.00223001 -0.000222364 -3.49476e-06
-0.000222364 0.000100178 5.0084e-07
-3.49476e-06 5.0084e-07 5.07884e-05
0.00217672 -0.000326689 2.5667e-06
-0.000326689 2.27518e-05 -6.94617e-07
2.5667e-06 -6.94617e-07 -8.23148e-06
0.00216985 -0.000311001 3.42992e-07
-0.000311001 9.74604e-05 -2.1942e-07
3.42992e-07 -2.1942e-07 1.30306e-05
0.00199498 -0.000264471 -1.07799e-06
-0.000264471 0.000104088 -6.92199e-07
-1.07799e-06 -6.92199e-07 -2.96983e-05
0.0020611 -0.000388656 3.44743e-06
-0.000388656 8.32636e-05 -1.27935e-06
3.44743e-06 -1.27935e-06 -4.82726e-05
0.00205252 -0.000346274 -5.07577e-07
-0.000346274 0.000168417 5.81731e-08
-5.07577e-07 5.81731e-08 -5.43346e-07
0.00122407 -0.000201211 -8.20927e-06
-0.000201211 -3.55382e-05 3.35385e-06
-8.20927e-06 3.35385e-06 -0.000216201
0.00206066 -0.000412509 2.3274e-06
-0.000412509 0.000223098 1.0634e-07
2.3274e-06 1.0634e-07 1.7994e-05
0.00125245 -0.00024111 -2.91786e-07
-0.00024111 -1.26344e-05 2.55007e-07
-2.91786e-07 2.55007e-07 -0.000208764
0.0027825 -0.000187455 -6.83965e-05
-0.000187455 0.0013146 1.28583e-05
-6.83965e-05 1.28583e-05 0.00121327
0.00127938 -0.000278539 1.27959e-05
-0.000278539 1.75875e-05 -6.14726e-06
1.27959e-05 -6.14726e-06 -0.000194767
0.00292235 -0.000221347 4.84293e-05
-0.000221347 0.00140028 -6.8413e-06
4.84293e-05 -6.8413e-06 0.00130226
0.00244779 -0.000129646 -0.000272669
-0.000129646 0.001203 4.00462e-05
-0.000272669 4.00462e-05 0.0011851
0.00309953 -0.000255656 0.000166504
-0.000255656 0.00151479 -3.052e-05
0.000166504 -3.052e-05 0.00141859
0.00204629 -8.93737e-05 -0.00011129
-8.93737e-05 0.000958278 1.70592e-05
-0.00011129 1.70592e-05 0.000923157
0.00704171 -4.07827e-05 0.00010963
-4.07827e-05 0.00412695 -6.46077e-06
0.00010963 -6.46077e-06 0.00410787
0.00228911 0.000414598 -1.29967e-06
0.000414598 0.000125963 -3.95737e-07
-1.29967e-06 -3.95737e-07 4.614e-05
0.00223725 0.000463865 -3.48116e-06
0.000463865 0.000209966 -7.52733e-07
-3.48116e-06 -7.52733e-07 4.54166e-05
0.00227433 0.000485672 -3.2889e-06
0.000485672 0.000150918 -6.72804e-08
-3.2889e-06 -6.72804e-08 1.97554e-05
0.00197805 0.000471311 -3.01469e-06
0.000471311 0.000195809 1.06246e-06
-3.01469e-06 1.06246e-06 -4.83519e-05
0.0020492 0.000519724 -1.28751e-06
0.000519724 0.000137721 -2.3981e-06
-1.28751e-06 -2.3981e-06 -6.8305e-05
0.00222207 0.000484866 -3.55428e-06
0.000484866 0.000176813 -3.49771e-06
-3.55428e-06 -3.49771e-06 1.87263e-05
0.00130367 0.000354427 -2.60123e-05
0.000354427 5.17266e-05 -6.60037e-06
-2.60123e-05 -6.60037e-06 -0.000192688
0.00195483 0.000550093 1.41387e-06
0.000550093 0.000246692 4.77855e-07
1.41387e-06 4.77855e-07 -4.58494e-05
0.00234998 0.000666213 1.21342e-06
0.000666213 0.000353791 -5.80393e-06
1.21342e-06 -5.80393e-06 7.36536e-05
0.0017958 0.000609141 8.33769e-06
0.000609141 0.000247637 -2.80695e-06
8.33769e-06 -2.80695e-06 -0.000101843
0.00110713 0.000372915 -1.53292e-06
0.000372915 2.06989e-05 -1.29793e-07
-1.53292e-06 -1.29793e-07 -0.000246863
0.000293173 0.000257237 -2.55871e-05
0.000257237 -0.000229574 -1.88043e-05
-2.55871e-05 -1.88043e-05 -0.00038628
0.000950605 0.000334228 2.15283e-05
0.000334228 1.94294e-05 7.21654e-06
2.15283e-05 7.21654e-06 -0.000238332
0.000331132 0.000269506 1.89272e-06
0.000269506 -0.000183936 1.70748e-06
1.89272e-06 1.70748e-06 -0.000343787
0.00782807 8.78824e-05 -0.000323994
8.78824e-05 0.00465816 -4.08187e-05
-0.000323994 -4.08187e-05 0.00465568
0.000269793 0.000216146 2.39699e-05
0.000216146 -0.000215192 2.15279e-05
2.39699e-05 2.15279e-05 -0.000353379
0.00750592 -4.76772e-05 5.88292e-06
-4.76772e-05 0.00446751 -2.82864e-07
5.88292e-06 -2.82864e-07 0.00446596
0.0062435 -0.000163528 0.00019337
-0.000163528 0.00370725 1.31055e-05
0.00019337 1.31055e-05 0.00369074
0.00225231 0.000223564 7.04908e-07
0.000223564 -3.285e-05 1.98583e-07
7.04908e-07 1.98583e-07 4.08574e-06
0.00245713 0.000284118 -3.74466e-07
0.000284118 -0.000100224 6.83984e-07
-3.74466e-07 6.83984e-07 5.53207e-06
0.00226493 0.000239416 3.00178e-06
0.000239416 -0.000250611 5.32305e-07
3.00178e-06 5.32305e-07 -6.54272e-05
0.00231719 0.000419301 -4.08742e-08
0.000419301 9.60265e-06 1.54602e-07
-4.08742e-08 1.54602e-07 -1.40958e-05
0.0022439 0.000586591 -1.97682e-07
0.000586591 0.000131069 -9.50611e-07
-1.97682e-07 -9.50611e-07 -3.75879e-05
0.00247374 0.000442375 2.39423e-06
0.000442375 -3.32817e-05 -2.86739e-07
2.39423e-06 -2.86739e-07 -4.61511e-07
0.00215054 6.9567e-05 4.09874e-07
6.9567e-05 -1.79622e-05 1.80122e-07
4.09874e-07 1.80122e-07 5.29193e-06
0.00224191 7.33249e-05 3.88319e-07
7.33249e-05 -5.07617e-05 -2.2154e-07
3.88319e-07 -2.2154e-07 5.20699e-06
0.00233705 9.13068e-05 -8.3271e-07
9.13068e-05 -0.000129413 -1.68683e-07
-8.3271e-07 -1.68683e-07 -2.10671e-05
0.002118 -1.05911e-05 -8.31226e-07
-1.05911e-05 -2.50647e-05 3.85696e-08
-8.31226e-07 3.85696e-08 1.56884e-06
0.00207909 -3.61684e-05 -4.98035e-06
-3.61684e-05 1.34038e-05 5.25789e-07
-4.98035e-06 5.25789e-07 1.62344e-05
0.00222883 -8.24019e-05 -5.24398e-07
-8.24019e-05 -5.62356e-05 1.27288e-07
-5.24398e-07 1.27288e-07 6.70543e-06
0.00209872 -0.000117384 -1.52439e-06
-0.000117384 -1.62301e-05 2.73796e-07
-1.52439e-06 2.73796e-07 -1.05707e-05
0.0021496 -0.000141646 -6.37927e-06
-0.000141646 4.55621e-05 6.42544e-07
-6.37927e-06 6.42544e-07 1.29399e-05
0.00214336 -0.000213263 3.0569e-06
-0.000213263 -6.16198e-06 -7.98338e-07
3.0569e-06 -7.98338e-07 -5.33157e-06
0.0022056 -0.000222757 2.38508e-06
-0.000222757 8.81247e-05 -4.42554e-07
2.38508e-06 -4.42554e-07 3.86268e-05
0.00203645 -0.000195722 2.397e-07
-0.000195722 0.000113989 -8.6259e-07
2.397e-07 -8.6259e-07 5.4811e-06
0.00211466 -0.000306256 4.10375e-06
-0.000306256 6.54003e-05 -1.59583e-06
4.10375e-06 -1.59583e-06 -1.8785e-05
0.00204299 -0.000268622 -3.03933e-07
-0.000268622 0.000124858 -6.13374e-08
-3.03933e-07 -6.13374e-08 -9.37728e-06
0.00122545 -0.000161463 -8.1133e-06
-0.000161463 -3.56694e-05 2.01312e-06
-8.1133e-06 2.01312e-06 -0.000200737
0.00211217 -0.000349673 1.55587e-06
-0.000349673 0.000206783 2.64231e-07
1.55587e-06 2.64231e-07 3.75577e-05
0.00125681 -0.000200501 -3.65609e-07
-0.000200501 -2.17906e-05 2.66836e-07
-3.65609e-07 2.66836e-07 -0.000201082
0.00268238 -0.000180713 -7.00863e-05
-0.000180713 0.00125836 1.07995e-05
-7.00863e-05 1.07995e-05 0.0011618
0.00130245 -0.0002432 9.81577e-06
-0.0002432 9.72312e-06 -4.55414e-06
9.81577e-06 -4.55414e-06 -0.000185382
0.00285981 -0.00018644 4.62263e-05
-0.00018644 0.00135858 -5.24504e-06
4.62263e-05 -5.24504e-06 0.00126814
0.00242977 -0.000106906 -0.000269569
-0.000106906 0.00118539 3.342e-05
-0.000269569 3.342e-05 0.00116892
0.0030114 -0.000212263 0.000162185
-0.000212263 0.00144818 -2.59704e-05
0.000162185 -2.59704e-05 0.00136322
0.00202898 -8.86259e-05 -0.000101174
-8.86259e-05 0.00094248 1.34844e-05
-0.000101174 1.34844e-05 0.00090948
0.00169997 -8.55143e-05 6.86883e-05
-8.55143e-05 0.000752723 -1.15048e-05
6.86883e-05 -1.15048e-05 0.000697495
0.00215476 0.000258852 -9.42575e-07
0.000258852 5.32668e-06 -3.48319e-07
-9.42575e-07 -3.48319e-07 -1.77481e-05
0.00218502 0.000377538 -4.04427e-06
0.000377538 0.00012896 -5.09534e-07
-4.04427e-06 -5.09534e-07 1.43483e-05
0.00224159 0.00041392 -4.21453e-07
0.00041392 7.54489e-05 -1.85304e-07
-4.21453e-07 -1.85304e-07 5.33631e-06
0.00214055 0.000433798 -2.79673e-07
0.000433798 0.000229609 1.00127e-06
-2.79673e-07 1.00127e-06 2.64832e-05
0.00219955 0.000459733 -1.72079e-06
0.000459733 0.000192529 -6.579e-07
-1.72079e-06 -6.579e-07 2.66402e-05
0.00223832 0.000484944 2.31945e-06
0.000484944 0.000121308 2.64882e-07
2.31945e-06 2.64882e-07 -1.14343e-05
0.00131063 0.000302744 -1.91663e-05
0.000302744 1.6745e-05 -5.77149e-06
-1.91663e-05 -5.77149e-06 -0.000199948
0.00195634 0.000475891 1.60457e-06
0.000475891 0.000173901 -5.2094e-07
1.60457e-06 -5.2094e-07 -6.53653e-05
0.00203728 0.000527493 -2.00205e-06
0.000527493 0.000109779 -5.46077e-06
-2.00205e-06 -5.46077e-06 -9.22634e-05
0.000286795 0.000206412 -2.22698e-05
0.000206412 -0.000259203 -1.61563e-05
-2.22698e-05 -1.61563e-05 -0.000399759
0.00124913 0.000349434 -4.41329e-07
0.000349434 2.14701e-05 8.19594e-08
-4.41329e-07 8.19594e-08 -0.000222857
0.00190345 0.000546841 6.62998e-06
0.000546841 0.000214162 -2.77031e-06
6.62998e-06 -2.77031e-06 -7.85975e-05
0.00116863 0.000373206 3.02847e-05
0.000373206 6.01725e-05 7.55457e-06
3.02847e-05 7.55457e-06 -0.000206326
0.000261784 0.000243561 6.1365e-07
0.000243561 -0.000244408 1.02179e-06
6.1365e-07 1.02179e-06 -0.000401144
0.00756996 0.000186634 -0.000327089
0.000186634 0.00448512 -4.50645e-05
-0.000327089 -4.50645e-05 0.00448336
0.000232395 0.000242571 2.28205e-05
0.000242571 -0.000241886 1.93262e-05
2.28205e-05 1.93262e-05 -0.000398474
0.00779653 6.42462e-05 7.2915e-06
6.42462e-05 0.00462601 8.34709e-07
7.2915e-06 8.34709e-07 0.00463238
0.00723037 -8.14134e-05 0.000259377
-8.14134e-05 0.00429032 1.73904e-05
0.000259377 1.73904e-05 0.00428911
0.00217082 0.000135278 -1.57908e-06
0.000135278 1.18533e-05 -3.06995e-07
-1.57908e-06 -3.06995e-07 2.75894e-05
0.00223433 0.000228035 6.85978e-07
0.000228035 -4.79721e-05 4.05189e-07
6.85978e-07 4.05189e-07 -1.37055e-05
0.00240491 0.000289811 -2.31741e-07
0.000289811 -0.000138827 -8.30908e-07
-2.31741e-07 -8.30908e-07 -3.07755e-05
0.00231184 0.000412861 1.06579e-06
0.000412861 7.38312e-06 -6.62466e-07
1.06579e-06 -6.62466e-07 -1.30815e-05
0.00204776 2.55708e-05 -4.91093e-06
2.55708e-05 2.25091e-05 3.75665e-07
-4.91093e-06 3.75665e-07 7.85278e-06
0.00214843 6.06777e-05 -2.30568e-08
6.06777e-05 -1.95097e-05 -6.77922e-08
-2.30568e-08 -6.77922e-08 5.05927e-06
0.00223254 7.0122e-05 -1.3884e-06
7.0122e-05 -5.31695e-05 -2.30103e-08
-1.3884e-06 -2.30103e-08 3.02585e-06
0.00212457 -7.52625e-06 -1.15355e-06
-7.52625e-06 -2.01788e-05 -1.63881e-07
-1.15355e-06 -1.63881e-07 4.25445e-06
0.00208647 -3.05022e-05 -7.21321e-07
-3.05022e-05 1.32628e-05 -1.77492e-07
-7.21321e-07 -1.77492e-07 1.79911e-05
0.00193577 -6.10596e-05 -5.57027e-06
-6.10596e-05 -7.23991e-05 5.96275e-07
-5.57027e-06 5.96275e-07 -0.000110585
0.0021125 -0.000117653 2.66622e-06
-0.000117653 -1.10447e-06 -4.15187e-08
2.66622e-06 -4.15187e-08 8.44841e-07
0.00212514 -0.000143332 -1.79188e-06
-0.000143332 3.71477e-05 3.64614e-07
-1.79188e-06 3.64614e-07 -2.85321e-06
0.00216644 -0.000136793 -2.07103e-06
-0.000136793 0.000188057 -2.41566e-08
-2.07103e-06 -2.41566e-08 0.000101984
0.00219185 -0.000222422 7.71197e-06
-0.000222422 8.24304e-05 -1.29578e-06
7.71197e-06 -1.29578e-06 3.29927e-05
0.00201777 -0.00019411 1.08241e-06
-0.00019411 9.08391e-05 -5.25923e-07
1.08241e-06 -5.25923e-07 -1.71532e-05
0.00116943 -0.000120946 -9.75004e-06
-0.000120946 -5.9078e-05 1.33872e-06
-9.75004e-06 1.33872e-06 -0.000211473
0.00210203 -0.000271009 1.48905e-06
-0.000271009 0.000154069 2.61159e-07
1.48905e-06 2.61159e-07 1.9821e-05
0.00120233 -0.000158525 -1.47838e-07
-0.000158525 -4.96341e-05 8.26468e-08
-1.47838e-07 8.26468e-08 -0.000213575
0.000327766 -9.34497e-05 -1.87417e-05
-9.34497e-05 -0.000251022 6.1669e-06
-1.87417e-05 6.1669e-06 -0.000355948
0.00127825 -0.000199333 7.56032e-06
-0.000199333 -1.56899e-05 -2.92311e-06
7.56032e-06 -2.92311e-06 -0.000193598
0.00157485 -0.000119828 6.79947e-05
-0.000119828 0.000539388 -5.48752e-06
6.79947e-05 -5.48752e-06 0.000447406
0.00689193 -0.000177037 -0.000356605
-0.000177037 0.00404377 2.79673e-05
-0.000356605 2.79673e-05 0.00406614
0.00294246 -0.000168302 0.00015845
-0.000168302 0.00140031 -2.04183e-05
0.00015845 -2.04183e-05 0.0013232
0.00201532 -8.35305e-05 -9.16601e-05
-8.35305e-05 0.000933624 8.79129e-06
-9.16601e-05 8.79129e-06 0.000900383
0.00162261 -0.000105701 8.07262e-05
-0.000105701 0.000708039 -1.33592e-05
8.07262e-05 -1.33592e-05 0.000651711
0.00209832 0.000172689 -2.77625e-06
0.000172689 1.81709e-05 -8.36848e-07
-2.77625e-06 -8.36848e-07 -2.95304e-06
0.00215915 0.000289972 -2.54904e-06
0.000289972 8.06448e-05 -8.23548e-09
-2.54904e-06 -8.23548e-09 5.02429e-06
0.00216069 0.000252097 -2.29873e-07
0.000252097 2.07846e-05 -1.14167e-07
-2.29873e-07 -1.14167e-07 -7.99428e-06
0.00205027 0.000344511 -3.0617e-07
0.000344511 0.000130776 1.38634e-06
-3.0617e-07 1.38634e-06 -2.57249e-05
0.0021774 0.000377183 7.88435e-07
0.000377183 0.000125116 1.79991e-07
7.88435e-07 1.79991e-07 1.06769e-05
0.0021936 0.000413326 5.92854e-07
0.000413326 2.47919e-05 -2.3312e-07
5.92854e-07 -2.3312e-07 -3.58457e-05
0.00135712 0.00026564 -1.38403e-05
0.00026564 2.64287e-05 -3.47802e-06
-1.38403e-05 -3.47802e-06 -0.000164507
0.00209707 0.000427801 1.94876e-06
0.000427801 0.00020187 3.57887e-07
1.94876e-06 3.57887e-07 4.15292e-07
0.00214453 0.000453988 1.18904e-06
0.000453988 0.000164092 -1.23527e-06
1.18904e-06 -1.23527e-06 -2.68293e-06
0.000327211 0.000146828 -1.93149e-05
0.000146828 -0.000255336 -1.25619e-05
-1.93149e-05 -1.25619e-05 -0.000378139
0.00125834 0.000299648 5.44995e-07
0.000299648 -1.29672e-05 4.54204e-07
5.44995e-07 4.54204e-07 -0.000226796
0.001922 0.000478161 6.19224e-06
0.000478161 0.000144909 -2.95022e-06
6.19224e-06 -2.95022e-06 -8.88255e-05
0.00733942 0.00025503 -0.000333379
0.00025503 0.0043319 -4.45808e-05
-0.000333379 -4.45808e-05 0.00433316
0.000303924 0.000199975 -9.57595e-08
0.000199975 -0.000250796 7.09082e-07
-9.57595e-08 7.09082e-07 -0.000391897
0.00120463 0.000345316 2.72501e-05
0.000345316 -1.96162e-06 7.16384e-06
2.72501e-05 7.16384e-06 -0.000246333
0.00028041 0.000231356 2.24533e-05
0.000231356 -0.000230542 1.81471e-05
2.24533e-05 1.81471e-05 -0.000387757
0.00762814 0.000179037 1.14455e-05
0.000179037 0.00451566 2.12813e-06
1.14455e-05 2.12813e-06 0.00452014
0.00772283 2.56146e-05 0.000315593
2.56146e-05 0.00456708 2.45112e-05
0.000315593 2.45112e-05 0.00457834
0.00202964 8.03078e-05 -6.51043e-06
8.03078e-05 1.74393e-05 -4.10618e-08
-6.51043e-06 -4.10618e-08 -3.01903e-06
0.00216022 0.000130865 4.27867e-08
0.000130865 6.52212e-06 -2.00633e-09
4.27867e-08 -2.00633e-09 2.03094e-05
0.00221774 0.000232455 -2.1202e-07
0.000232455 -6.2731e-05 -1.72304e-07
-2.1202e-07 -1.72304e-07 -3.07628e-05
0.00197009 6.90256e-06 -7.09565e-06
6.90256e-06 -2.28962e-05 2.82673e-07
-7.09565e-06 2.82673e-07 -6.88567e-05
0.00203345 3.09112e-05 6.57235e-07
3.09112e-05 9.24713e-06 1.09222e-08
6.57235e-07 1.09222e-08 -2.15645e-06
0.00214759 5.08021e-05 -9.26795e-07
5.08021e-05 -2.06483e-05 -4.59736e-08
-9.26795e-07 -4.59736e-08 5.36975e-06
0.00209923 -2.52451e-05 2.9017e-06
-2.52451e-05 1.62296e-05 -3.23086e-07
2.9017e-06 -3.23086e-07 2.31885e-05
0.00201386 -6.02156e-05 -9.09074e-07
-6.02156e-05 -1.71568e-05 7.60063e-08
-9.09074e-07 7.60063e-08 -5.37351e-05
0.00190678 -6.72138e-05 -1.84033e-06
-6.72138e-05 3.19055e-05 9.19218e-08
-1.84033e-06 9.19218e-08 -5.74857e-05
0.00211127 -0.000145103 3.92367e-06
-0.000145103 3.70059e-05 -1.51348e-07
3.92367e-06 -1.51348e-07 -1.02527e-05
0.00202662 -0.000137002 6.64099e-07
-0.000137002 9.93894e-05 -2.92475e-09
6.64099e-07 -2.92475e-09 4.07988e-06
0.00132612 -7.74008e-05 -1.05771e-05
-7.74008e-05 5.36626e-05 4.5825e-07
-1.05771e-05 4.5825e-07 -7.69916e-05
0.00199763 -0.000194585 2.48746e-06
-0.000194585 6.70245e-05 -3.41831e-07
2.48746e-06 -3.41831e-07 -4.08284e-05
0.00114915 -0.000115979 3.47872e-08
-0.000115979 -6.96579e-05 5.64689e-08
3.47872e-08 5.64689e-08 -0.000220777
0.000322672 -2.52492e-05 -1.74355e-05
-2.52492e-05 -0.000253458 3.08926e-06
-1.74355e-05 3.08926e-06 -0.000350699
0.00120527 -0.000155185 7.28283e-06
-0.000155185 -4.95907e-05 -1.84319e-06
7.28283e-06 -1.84319e-06 -0.000212126
0.000348386 -7.76646e-05 -4.35914e-07
-7.76646e-05 -0.000236075 4.90663e-07
-4.35914e-07 4.90663e-07 -0.000341088
0.00682666 -6.72e-05 -0.000346358
-6.72e-05 0.00399585 1.75636e-05
-0.000346358 1.75636e-05 0.00402394
0.00042304 -8.1835e-05 1.35189e-05
-8.1835e-05 -0.000195973 -8.54784e-06
1.35189e-05 -8.54784e-06 -0.00030693
0.00435605 -0.000115596 0.000150492
-0.000115596 0.00243234 -8.40473e-06
0.000150492 -8.40473e-06 0.00241654
0.00158985 -9.47987e-05 8.65628e-05
-9.47987e-05 0.000686457 -1.27855e-05
8.65628e-05 -1.27855e-05 0.00063126
0.00209072 0.000137757 -7.83114e-06
0.000137757 6.37786e-05 -6.89565e-07
-7.83114e-06 -6.89565e-07 3.58411e-05
0.00217998 0.000212618 -4.42658e-06
0.000212618 0.000107507 -4.06812e-08
-4.42658e-06 -4.06812e-08 4.18224e-05
0.00208738 0.000166807 -7.35099e-07
0.000166807 1.57804e-05 -2.09605e-07
-7.35099e-07 -2.09605e-07 -5.456e-06
0.00201699 0.000270687 -3.32122e-07
0.000270687 9.70349e-05 8.8501e-07
-3.32122e-07 8.8501e-07 -3.86447e-05
0.00219075 0.000289732 -9.68773e-08
0.000289732 9.76986e-05 -6.54967e-08
-9.68773e-08 -6.54967e-08 2.06156e-05
0.00216591 0.000245427 2.35732e-06
0.000245427 3.60365e-05 5.14782e-07
2.35732e-06 5.14782e-07 1.67943e-06
0.00127853 0.000209163 -9.54479e-06
0.000209163 -2.15276e-05 -1.98939e-06
-9.54479e-06 -1.98939e-06 -0.000190968
0.00205606 0.000342107 2.61083e-06
0.000342107 0.000146222 9.10448e-07
2.61083e-06 9.10448e-07 -1.71466e-05
0.00217017 0.000376968 2.79728e-06
0.000376968 0.000120966 -2.14601e-07
2.79728e-06 -2.14601e-07 6.76248e-06
0.00033197 0.000103671 -1.75937e-05
0.000103671 -0.00025886 -9.20359e-06
-1.75937e-05 -9.20359e-06 -0.00037063
0.00130728 0.000259504 1.60527e-07
0.000259504 -1.1495e-06 7.10366e-07
1.60527e-07 7.10366e-07 -0.00019046
0.0020639 0.000422862 4.67408e-06
0.000422862 0.000181303 1.34305e-08
4.67408e-06 1.34305e-08 -1.87682e-05
0.00712448 0.000298847 -0.000347704
0.000298847 0.00420136 -4.25722e-05
-0.000347704 -4.25722e-05 0.00420339
0.00032152 0.000147131 1.94558e-07
0.000147131 -0.000262857 4.10616e-07
1.94558e-07 4.10616e-07 -0.000386685
0.0011997 0.000297721 1.89415e-05
0.000297721 -4.84891e-05 5.41022e-06
1.89415e-05 5.41022e-06 -0.000259881
0.00734953 0.000274495 1.34706e-05
0.000274495 0.00434784 4.44919e-06
1.34706e-05 4.44919e-06 0.00434634
0.000298409 0.000192729 2.03991e-05
0.000192729 -0.000256886 1.62058e-05
2.03991e-05 1.62058e-05 -0.000398338
0.00757244 0.000150741 0.000341945
0.000150741 0.00446636 3.41218e-05
0.000341945 3.41218e-05 0.00448081
0.00195227 6.19907e-05 -7.22245e-06
6.19907e-05 -3.04713e-05 1.7858e-07
-7.22245e-06 1.7858e-07 -8.03365e-05
0.00204574 8.67545e-05 -1.01229e-06
8.67545e-05 3.28997e-05 -1.87677e-07
-1.01229e-06 -1.87677e-07 1.20331e-05
0.00215142 0.000126891 1.37434e-06
0.000126891 3.40002e-06 1.90083e-07
1.37434e-06 1.90083e-07 1.49899e-05
0.00189799 -9.625e-06 -1.16079e-06
-9.625e-06 3.39539e-05 4.09799e-08
-1.16079e-06 4.09799e-08 -5.42028e-05
0.00201001 8.38413e-06 -1.2217e-06
8.38413e-06 4.27635e-06 2.10304e-08
-1.2217e-06 2.10304e-08 -3.85145e-05
0.00201789 3.72426e-05 5.20247e-06
3.72426e-05 -4.67451e-06 -1.01135e-07
5.20247e-06 -1.01135e-07 -1.29585e-05
0.00209253 -5.94204e-05 3.53889e-06
-5.94204e-05 3.87636e-05 -4.35392e-07
3.53889e-06 -4.35392e-07 3.70878e-06
0.00196217 -6.74136e-05 7.51699e-07
-6.74136e-05 7.1161e-05 1.36677e-07
7.51699e-07 1.36677e-07 -1.70058e-05
0.00127572 -3.48532e-05 -1.06023e-05
-3.48532e-05 3.16078e-05 -2.29591e-07
-1.06023e-05 -2.29591e-07 -9.12429e-05
0.00185503 -0.000136757 1.05044e-06
-0.000136757 -1.20768e-05 1.08286e-07
1.05044e-06 1.08286e-07 -0.00011677
0.00121282 -7.62183e-05 1.57587e-06
-7.62183e-05 -1.92407e-05 -2.33432e-07
1.57587e-06 -2.33432e-07 -0.000155201
0.000333981 -9.47493e-06 -1.79307e-05
-9.47493e-06 -0.000245222 1.61098e-06
-1.79307e-05 1.61098e-06 -0.000337672
0.00112918 -0.000112438 8.99463e-06
-0.000112438 -7.78081e-05 -1.17762e-06
8.99463e-06 -1.17762e-06 -0.000227834
0.000313653 -3.81246e-05 6.77642e-07
-3.81246e-05 -0.000259324 -2.58265e-07
6.77642e-07 -2.58265e-07 -0.000355847
0.0066275 -0.000163157 -0.000347989
-0.000163157 0.00388871 1.91229e-05
-0.000347989 1.91229e-05 0.00390985
0.000331584 -6.11881e-05 1.70448e-05
-6.11881e-05 -0.000245477 -4.65476e-06
1.70448e-05 -4.65476e-06 -0.000349575
0.00675275 -0.000104081 7.71493e-06
-0.000104081 0.0039533 3.43344e-08
7.71493e-06 3.43344e-08 0.00398038
0.00190344 -4.11257e-05 0.000266479
-4.11257e-05 0.000853873 -1.90644e-05
0.000266479 -1.90644e-05 0.000845143
0.00206922 0.00014256 -7.63783e-06
0.00014256 4.58762e-05 -4.692e-07
-7.63783e-06 -4.692e-07 -1.49246e-05
0.00204294 0.000138893 -1.63098e-06
0.000138893 2.22795e-05 -1.51376e-07
-1.63098e-06 -1.51376e-07 -6.44929e-07
0.00200843 0.000201068 -1.61826e-07
0.000201068 9.04982e-05 8.71096e-07
-1.61826e-07 8.71096e-07 -2.40885e-05
0.00218154 0.000211845 7.57635e-07
0.000211845 0.000104766 1.2566e-08
7.57635e-07 1.2566e-08 3.96875e-05
0.00207408 0.000160689 3.66502e-06
0.000160689 1.10976e-05 3.31158e-07
3.66502e-06 3.31158e-07 -1.00703e-05
0.00121242 0.000157571 -7.93342e-06
0.000157571 -4.29419e-05 -1.35909e-06
-7.93342e-06 -1.35909e-06 -0.000203639
0.00206611 0.000271167 2.934e-07
0.000271167 0.000137763 -6.92563e-08
2.934e-07 -6.92563e-08 2.20516e-06
0.00222081 0.000289179 3.78409e-06
0.000289179 0.000114275 4.95005e-07
3.78409e-06 4.95005e-07 3.56394e-05
0.000345881 7.4661e-05 -1.70143e-05
7.4661e-05 -0.000246971 -6.53414e-06
-1.70143e-05 -6.53414e-06 -0.000352658
0.00125729 0.000207844 1.07024e-06
0.000207844 -2.99406e-05 6.70758e-07
1.07024e-06 6.70758e-07 -0.000203182
0.00208274 0.000340585 1.85151e-06
0.000340585 0.00017707 7.15493e-08
1.85151e-06 7.15493e-08 6.87102e-06
0.00694898 0.000299684 -0.00036241
0.000299684 0.00410159 -3.89543e-05
-0.00036241 -3.89543e-05 0.00410426
0.000353869 0.000108494 4.23165e-07
0.000108494 -0.000248347 2.25908e-07
4.23165e-07 2.25908e-07 -0.000361443
0.00125687 0.000253057 1.11278e-05
0.000253057 -2.97777e-05 4.22788e-06
1.11278e-05 4.22788e-06 -0.000217267
0.00719517 0.000324838 9.89914e-06
0.000324838 0.0042585 5.25736e-06
9.89914e-06 5.25736e-06 0.00425478
0.000340811 0.000147503 1.81407e-05
0.000147503 -0.000254918 1.30168e-05
1.81407e-05 1.30168e-05 -0.000379615
0.00742594 0.000280641 0.000354576
0.000280641 0.00438867 4.4178e-05
0.000354576 4.4178e-05 0.00439244
0.0018791 5.86368e-05 3.92901e-07
5.86368e-05 2.40061e-05 4.60664e-08
3.92901e-07 4.60664e-08 -6.89413e-05
0.00201554 6.34698e-05 -3.17309e-06
6.34698e-05 1.92351e-05 -1.24307e-07
-3.17309e-06 -1.24307e-07 -3.15004e-05
0.00206155 9.27382e-05 6.51467e-06
9.27382e-05 4.81344e-05 1.48485e-07
6.51467e-06 1.48485e-07 2.68768e-05
0.00122542 -1.23237e-05 -1.11132e-05
-1.23237e-05 4.57607e-06 -2.40442e-07
-1.11132e-05 -2.40442e-07 -0.000116264
0.00194672 -6.08454e-06 1.33582e-06
-6.08454e-06 6.96406e-05 3.73068e-08
1.33582e-06 3.73068e-08 -1.78282e-05
0.00205263 9.2968e-06 3.45953e-06
9.2968e-06 3.34707e-05 -1.48383e-07
3.45953e-06 -1.48383e-07 -6.01631e-06
0.00201755 -6.80791e-05 2.94856e-06
-6.80791e-05 0.000110522 1.15647e-07
2.94856e-06 1.15647e-07 2.34708e-05
0.00124219 -3.65474e-05 1.2737e-06
-3.65474e-05 6.31135e-06 -1.23311e-07
1.2737e-06 -1.23311e-07 -0.000116894
0.00034508 -3.25263e-05 -1.86295e-05
-3.25263e-05 -0.000235425 6.34956e-07
-1.86295e-05 6.34956e-07 -0.000323327
0.00107556 -7.38044e-05 1.19584e-05
-7.38044e-05 -0.000107026 -8.82805e-07
1.19584e-05 -8.82805e-07 -0.000248339
0.000318857 2.02001e-06 3.9645e-07
2.02001e-06 -0.000256086 9.38748e-08
3.9645e-07 9.38748e-08 -0.000347187
0.00652251 -0.000131593 -0.000348708
-0.000131593 0.00382122 1.43659e-05
-0.000348708 1.43659e-05 0.00384617
0.000349572 -4.62656e-05 1.81571e-05
-4.62656e-05 -0.000234971 -2.7956e-06
1.81571e-05 -2.7956e-06 -0.000332459
0.00663789 -5.78179e-05 -2.67443e-06
-5.78179e-05 0.00388131 3.21856e-06
-2.67443e-06 3.21856e-06 0.00391118
0.00674357 -0.000118453 0.000348229
-0.000118453 0.00394904 -1.72022e-05
0.000348229 -1.72022e-05 0.00397631
0.00198352 0.000128264 -8.32312e-07
0.000128264 8.62019e-05 2.99347e-07
-8.32312e-07 2.99347e-07 -1.4683e-05
0.00208365 0.000141132 -2.70249e-06
0.000141132 4.87362e-05 -3.52629e-07
-2.70249e-06 -3.52629e-07 -6.41768e-06
0.0019958 0.000140433 5.88652e-06
0.000140433 -1.8903e-05 5.18079e-07
5.88652e-06 5.18079e-07 -3.68682e-05
0.0011926 0.000109981 -1.01025e-05
0.000109981 -3.94057e-05 -5.55582e-07
-1.01025e-05 -5.55582e-07 -0.000186859
0.00204486 0.000200091 2.4203e-07
0.000200091 0.000118776 -1.2411e-07
2.4203e-07 -1.2411e-07 4.33439e-06
0.00218263 0.00021102 4.55816e-06
0.00021102 0.0001017 -2.0195e-07
4.55816e-06 -2.0195e-07 3.72026e-05
0.000346805 5.07603e-05 -1.66795e-05
5.07603e-05 -0.000241168 -4.25587e-06
-1.66795e-05 -4.25587e-06 -0.000341839
0.00120913 0.00016012 1.94899e-07
0.00016012 -4.33634e-05 2.26263e-07
1.94899e-07 2.26263e-07 -0.000205451
0.0021004 0.000271263 7.69242e-07
0.000271263 0.000168057 -1.25686e-06
7.69242e-07 -1.25686e-06 3.25161e-05
0.00679483 0.000247347 -0.000370987
0.000247347 0.00400212 -3.16183e-05
-0.000370987 -3.16183e-05 0.00401414
0.000357323 8.1898e-05 8.05496e-07
8.1898e-05 -0.000241223 1.96039e-07
8.05496e-07 1.96039e-07 -0.000348715
0.00120895 0.000205099 7.33278e-06
0.000205099 -5.77102e-05 2.99153e-06
7.33278e-06 2.99153e-06 -0.000234615
0.00703364 0.000317821 5.19573e-06
0.000317821 0.00415999 3.49019e-06
5.19573e-06 3.49019e-06 0.00416051
0.000373766 0.000115019 1.70462e-05
0.000115019 -0.000237702 1.01019e-05
1.70462e-05 1.01019e-05 -0.000352705
0.00727281 0.000362057 0.000367564
0.000362057 0.00431843 5.06587e-05
0.000367564 5.06587e-05 0.00430926
0.00109849 3.12877e-05 -1.15699e-05
3.12877e-05 -7.80128e-05 -3.93395e-07
-1.15699e-05 -3.93395e-07 -0.000209487
0.0019709 5.63616e-05 1.46917e-06
5.63616e-05 8.42353e-05 -3.21073e-09
1.46917e-06 -3.21073e-09 -3.57662e-06
0.00208111 6.54681e-05 2.86324e-06
6.54681e-05 6.99295e-05 -5.63008e-09
2.86324e-06 -5.63008e-09 1.84015e-05
0.000389201 3.20394e-05 -1.91077e-05
3.20394e-05 -0.000214492 -1.04461e-06
-1.91077e-05 -1.04461e-06 -0.000293256
0.00119768 -7.23383e-06 9.69582e-07
-7.23383e-06 -1.65941e-05 1.92689e-08
9.69582e-07 1.92689e-08 -0.000137458
0.00199129 -9.73499e-07 3.6037e-06
-9.73499e-07 0.000102296 -1.02936e-07
3.6037e-06 -1.02936e-07 1.54676e-05
0.00120874 -3.78065e-05 1.29651e-05
-3.78065e-05 -1.94201e-05 -3.64803e-07
1.29651e-05 -3.64803e-07 -0.000142941
0.000347254 -6.00501e-06 4.8067e-07
-6.00501e-06 -0.000234389 3.79473e-07
4.8067e-07 3.79473e-07 -0.000322109
0.00637937 6.29579e-06 -0.00034864
6.29579e-06 0.0037229 2.5454e-06
-0.00034864 2.5454e-06 0.00375591
0.000308755 1.33165e-05 1.76147e-05
1.33165e-05 -0.000264435 -5.49924e-07
1.76147e-05 -5.49924e-07 -0.000354031
0.00647864 -0.000129295 -7.65265e-06
-0.000129295 0.0037957 2.16819e-06
-7.65265e-06 2.16819e-06 0.00382001
0.00656353 -4.00042e-05 0.000334317
-4.00042e-05 0.00383436 -9.44614e-06
0.000334317 -9.44614e-06 0.00386442
0.00115157 6.66475e-05 -1.14868e-05
6.66475e-05 -5.15438e-05 -5.58777e-07
-1.14868e-05 -5.58777e-07 -0.00018875
0.00202812 0.0001251 -2.58344e-07
0.0001251 0.000114424 -3.45909e-07
-2.58344e-07 -3.45909e-07 1.77762e-05
0.00207888 0.000139031 1.38489e-06
0.000139031 3.8491e-05 -5.36093e-07
1.38489e-06 -5.36093e-07 -1.12477e-05
0.00272606 6.91267e-05 -0.000158162
6.91267e-05 0.00127457 -5.64636e-06
-0.000158162 -5.64636e-06 0.00121957
0.0011603 0.000110838 2.27541e-07
0.000110838 -6.11402e-05 1.98663e-07
2.27541e-07 1.98663e-07 -0.000209623
0.00208931 0.000199407 1.35905e-06
0.000199407 0.000151998 -1.04401e-06
1.35905e-06 -1.04401e-06 3.77061e-05
0.00666898 0.000180372 -0.000369921
0.000180372 0.00391558 -2.25779e-05
-0.000369921 -2.25779e-05 0.00393786
0.00036319 7.0379e-05 1.18317e-06
7.0379e-05 -0.000229128 5.35885e-07
1.18317e-06 5.35885e-07 -0.000332188
0.00120995 0.000162769 8.34532e-06
0.000162769 -4.12891e-05 1.73507e-06
8.34532e-06 1.73507e-06 -0.000204746
0.00689823 0.000264289 1.25762e-06
0.000264289 0.00406876 1.62209e-06
1.25762e-06 1.62209e-06 0.00407912
0.000382571 9.18698e-05 1.71372e-05
9.18698e-05 -0.000225435 7.71071e-06
1.71372e-05 7.71071e-06 -0.000335369
0.00712578 0.00035442 0.000375368
0.00035442 0.00423203 4.88983e-05
0.000375368 4.88983e-05 0.00422557
0.000480793 1.32117e-05 -1.49749e-05
1.32117e-05 -0.000145783 -1.93757e-06
-1.49749e-05 -1.93757e-06 -0.000233716
0.00113594 3.08095e-05 -7.36766e-08
3.08095e-05 -5.8197e-05 1.18489e-07
-7.36766e-08 1.18489e-07 -0.000185828
0.00205884 5.26253e-05 3.83927e-06
5.26253e-05 0.00014172 -2.56894e-07
3.83927e-06 -2.56894e-07 5.90031e-05
0.00618023 -0.000104593 -0.000329181
-0.000104593 0.0036166 4.97693e-06
-0.000329181 4.97693e-06 0.00363814
0.00034425 1.03344e-05 -5.77876e-07
1.03344e-05 -0.00023872 -1.81645e-07
-5.77876e-07 -1.81645e-07 -0.000320105
0.00118494 -3.47415e-06 1.29241e-05
-3.47415e-06 -2.83368e-05 -4.53044e-09
1.29241e-05 -4.53044e-09 -0.000149168
0.000303509 2.08373e-05 1.78034e-05
2.08373e-05 -0.00026388 6.77058e-07
1.78034e-05 6.77058e-07 -0.000350179
0.00630531 -2.8735e-05 1.77165e-06
-2.8735e-05 0.00368327 -1.78396e-06
1.77165e-06 -1.78396e-06 0.00371103
0.00644622 -5.28125e-05 0.000337127
-5.28125e-05 0.00376272 -6.84079e-06
0.000337127 -6.84079e-06 0.00379336
0.00279827 2.03396e-05 -0.00015104
2.03396e-05 0.00132184 -2.96878e-06
-0.00015104 -2.96878e-06 0.00127158
0.00113608 6.99418e-05 -5.64401e-09
6.99418e-05 -6.40516e-05 -6.99113e-08
-5.64401e-09 -6.99113e-08 -0.00020204
0.00209555 0.000122518 2.30745e-06
0.000122518 0.000158632 -7.69891e-07
2.30745e-06 -7.69891e-07 6.64604e-05
0.00610556 -2.53826e-05 -0.000151139
-2.53826e-05 0.00357193 5.09791e-08
-0.000151139 5.09791e-08 0.0035616
0.000356718 6.1367e-05 3.83661e-07
6.1367e-05 -0.000229213 3.05489e-07
3.83661e-07 3.05489e-07 -0.0003251
0.00115684 0.000112445 1.03508e-05
0.000112445 -6.42149e-05 8.89363e-07
1.03508e-05 8.89363e-07 -0.000213592
0.00671535 0.000156518 -1.03602e-05
0.000156518 0.00393906 -1.87473e-06
-1.03602e-05 -1.87473e-06 0.00396245
0.000370637 9.34481e-05 1.84599e-05
9.34481e-05 -0.000223878 6.10372e-06
1.84599e-05 6.10372e-06 -0.000328396
0.00698168 0.000287864 0.000379866
0.000287864 0.00412692 4.06589e-05
0.000379866 4.06589e-05 0.00413522
0.001882 -5.35137e-05 -0.000257393
-5.35137e-05 0.000847283 1.68234e-06
-0.000257393 1.68234e-06 0.000849613
0.00155849 3.33507e-05 -6.55199e-05
3.33507e-05 0.000532409 -5.20802e-08
-6.55199e-05 -5.20802e-08 0.000468789
0.00116821 3.2939e-05 1.22634e-05
3.2939e-05 -4.10482e-05 3.25124e-07
1.22634e-05 3.25124e-07 -0.000164889
0.00625206 -5.13099e-05 6.62365e-06
-5.13099e-05 0.00365535 3.01328e-06
6.62365e-06 3.01328e-06 0.00368272
0.000361766 -1.04339e-05 1.84225e-05
-1.04339e-05 -0.000221015 9.31177e-07
1.84225e-05 9.31177e-07 -0.000306369
0.00633369 -9.0208e-05 0.000347417
-9.0208e-05 0.00370635 -6.14432e-06
0.000347417 -6.14432e-06 0.00373339
0.00142944 2.47502e-05 -7.01091e-05
2.47502e-05 0.000588842 -1.14861e-06
-7.01091e-05 -1.14861e-06 0.000547369
0.00154866 2.19604e-05 -6.67417e-05
2.19604e-05 0.000527923 -1.72903e-06
-6.67417e-05 -1.72903e-06 0.000458893
0.00110295 7.15371e-05 1.14795e-05
7.15371e-05 -8.77696e-05 3.91938e-07
1.14795e-05 3.91938e-07 -0.000226593
0.00404348 7.49664e-05 0.00013031
7.49664e-05 0.00223937 4.36015e-06
0.00013031 4.36015e-06 0.00223309
0.000351281 7.08183e-05 1.89627e-05
7.08183e-05 -0.000231763 4.19376e-06
1.89627e-05 4.19376e-06 -0.00032781
0.00681824 0.000143957 0.000362439
0.000143957 0.00399543 2.4494e-05
0.000362439 2.4494e-05 0.00402262
0.00619356 -1.9029e-05 -8.6146e-06
-1.9029e-05 0.00362227 -3.53322e-06
-8.6146e-06 -3.53322e-06 0.0036481
0.000354165 5.22277e-05 2.01124e-05
5.22277e-05 -0.000237034 2.47634e-06
2.01124e-05 2.47634e-06 -0.000315307
0.00615722 3.24496e-05 0.000334611
3.24496e-05 0.00359065 1.48465e-07
0.000334611 1.48465e-07 0.00362181
0.0038665 3.54976e-05 0.000141392
3.54976e-05 0.0021333 5.92883e-06
0.000141392 5.92883e-06 0.00212988
0.000379886 1.15428e-05 1.84597e-05
1.15428e-05 -0.000212456 2.25837e-06
1.84597e-05 2.25837e-06 -0.000300702
0.00655568 1.1637e-05 0.000348194
1.1637e-05 0.00383062 1.11321e-05
0.000348194 1.11321e-05 0.00386053
0.00625347 -0.000113888 0.000333898
-0.000113888 0.00366353 -4.51004e-06
0.000333898 -4.51004e-06 0.00368533
0.00631466 1.69231e-05 0.000339165
1.69231e-05 0.0036801 6.56855e-06
0.000339165 6.56855e-06 0.00371314
