# vtk DataFile Version 2.0
Wound Healing Simulation
ASCII
DATASET UNSTRUCTURED_GRID
POINTS 3012 float
69.9759 18.75 4
67.2507 60.3285 4
69.976 18.75 2
73.0099 25.446 4
71.1327 20.9142 4
68.6801 16.6661 4
67.8269 19.9259 3.98538
67.2507 60.3286 2
71.1327 54.0858 4
68.6801 58.3339 4
65.6939 62.2254 4
65.3135 59.0026 3.98646
74.6784 42.3946 4
73.7221 47.2057 4
69.9759 18.75 0
73.0099 25.446 2
68.6801 16.6661 2
71.1327 20.9142 2
67.8274 19.9282 2
74.6792 32.6053 4
73.7222 27.7943 4
72.1454 23.1494 4
70.6152 26.2216 3.98495
68.8869 21.9586 3.98526
67.2507 14.6715 4
66.6385 17.9708 3.98595
65.8002 21.0241 3.97822
67.2507 60.3285 0
71.1327 54.0858 2
68.6801 58.3339 2
65.694 62.2255 2
65.3145 59.0009 2
72.1454 51.8506 4
69.9759 56.25 4
68.8374 53.1128 3.98438
64.0165 64.0165 4
66.612 57.1348 3.98602
63.887 60.7675 3.98814
63.5034 57.7752 3.98061
60.3285 67.2507 4
74.6792 42.3947 2
73.7222 47.2057 2
74.9194 39.9526 4
74.2788 44.8158 4
72.1687 42.0857 3.98302
73.0099 49.554 4
71.2501 46.5982 3.98405
73.0099 25.446 0
71.1327 20.9142 0
68.6801 16.6661 0
67.8269 19.9259 0.0146204
74.6792 32.6053 2
73.7222 27.7943 2
67.2508 14.6715 2
72.1455 23.1494 2
70.6152 26.2222 2
66.6394 17.9728 2
68.8872 21.9606 2
65.8 21.024 2
74.9197 35.0474 4
74.2794 30.1841 4
72.1854 32.9433 3.98342
71.2791 28.4316 3.98455
69.8166 24.0605 3.98508
68.3492 26.9513 3.97599
66.7651 22.933 3.97691
65.694 12.7746 4
65.3252 16.1017 3.98725
64.7173 19.1921 3.97981
63.8906 22.0335 3.97418
71.1327 54.0858 0
65.6939 62.2254 0
68.6801 58.3339 0
65.3135 59.0026 0.0135446
72.1455 51.8506 2
69.9759 56.25 2
68.8377 53.1106 2
64.0165 64.0165 2
66.6129 57.1324 2
63.888 60.7665 2
63.5036 57.7761 2
62.2254 65.694 4
58.8952 65.4151 3.99246
69.7698 50.9885 3.98424
67.7849 55.1676 3.98502
66.6515 52.2098 3.97584
62.3373 62.4287 3.99012
64.6641 56.0342 3.97999
62.2053 59.4087 3.98177
61.827 56.6862 3.97712
58.3339 68.6801 4
60.3285 67.2508 2
73.7221 47.2057 0
74.6784 42.3946 0
74.9197 39.9526 2
74.2794 44.8159 2
72.1685 42.0856 2
73.0099 49.554 2
71.2502 46.5977 2
75 37.5 4
72.4058 39.8023 3.98282
71.7833 44.3531 3.98365
69.8053 41.7901 3.97393
70.576 48.8133 3.9841
68.9144 46.0156 3.97507
74.6792 32.6053 0
73.7222 27.7943 0
67.2507 14.6715 0
72.1454 23.1494 0
70.6152 26.2216 0.015052
68.8869 21.9586 0.0147443
66.6385 17.9708 0.0140522
65.8002 21.0241 0.021781
74.9197 35.0474 2
74.2794 30.1841 2
72.1851 32.9434 2
71.2791 28.4318 2
65.694 12.7745 2
65.3261 16.1029 2
69.8168 24.0617 2
68.3491 26.9515 2
64.7174 19.1915 2
66.7648 22.9332 2
63.8904 22.0331 2
72.4136 35.2242 3.98284
71.8046 30.6764 3.98383
69.8414 33.2681 3.97456
68.9685 29.0378 3.97576
67.6135 24.9121 3.97612
66.1973 27.6337 3.97262
64.0165 10.9835 4
64.7593 23.8292 3.97313
63.8914 14.3254 3.98868
63.5167 17.4425 3.98185
62.9113 20.3168 3.97549
62.0957 22.9412 3.97186
60.6848 11.0963 3.99086
57.6132 11.443 3.98518
72.1454 51.8506 0
69.9759 56.25 0
68.8374 53.1128 0.0156249
64.0165 64.0165 0
63.887 60.7675 0.0118556
66.612 57.1348 0.0139751
63.5034 57.7752 0.0193934
62.2255 65.694 2
58.8956 65.4151 2
69.77 50.9871 2
67.7854 55.1651 2
66.6512 52.2095 2
62.3381 62.4283 2
64.6642 56.0348 2
62.2055 59.4097 2
61.8272 56.6872 2
60.6697 63.9781 3.99146
57.0259 66.7359 3.99307
57.5591 63.6952 3.98672
67.5093 50.1772 3.97503
65.7046 54.1746 3.97747
64.5394 51.3867 3.97166
60.7748 60.9422 3.98333
62.8243 55.0719 3.9767
60.6615 58.1653 3.97779
60.3318 55.7911 3.97619
56.25 69.9759 4
58.3339 68.6801 2
60.3285 67.2507 0
58.922 9.65462 3.9917
62.2254 9.30607 4
73.0099 49.554 0
74.2788 44.8158 0
71.2501 46.5982 0.0159531
72.1687 42.0857 0.0169787
74.9194 39.9526 0
75 37.5 2
72.4057 39.8024 2
71.7832 44.3527 2
69.8051 41.7899 2
70.576 48.8125 2
68.9144 46.0153 2
72.4891 37.5121 3.98265
70.042 39.6576 3.97337
69.4322 43.9082 3.97467
67.5986 41.4983 3.97044
68.2678 48.1078 3.97485
66.7123 45.4415 3.97164
74.9197 35.0474 0
74.2794 30.1841 0
72.1854 32.9433 0.0165765
71.2791 28.4316 0.0154458
65.694 12.7746 0
65.3252 16.1017 0.0127533
69.8166 24.0605 0.0149222
68.3492 26.9513 0.0240063
66.7651 22.933 0.0230948
64.7173 19.1921 0.020188
63.8906 22.0335 0.0258237
72.4135 35.2241 2
71.8046 30.6765 2
69.8412 33.2683 2
68.9685 29.038 2
64.0165 10.9835 2
63.8921 14.3261 2
63.517 17.4415 2
67.6133 24.9123 2
66.1972 27.6337 2
62.9114 20.316 2
64.759 23.829 2
62.0957 22.9409 2
60.6854 11.0967 2
57.6134 11.4422 2
70.0587 35.3919 3.97358
69.4687 31.1493 3.97481
67.657 33.5903 3.97118
66.7749 29.6218 3.97194
65.5264 25.6987 3.97265
64.149 28.2541 3.97178
62.3426 12.6535 3.98981
62.8588 24.6363 3.97134
62.2016 15.7799 3.98311
61.8182 18.6793 3.97775
61.2214 21.3382 3.97282
60.4271 23.7258 3.97143
59.2473 12.7745 3.98361
55.875 10.2297 3.98669
56.4061 13.1074 3.98191
69.7698 50.9885 0.0157646
62.2254 65.694 0
58.8952 65.4151 0.00754479
67.7849 55.1676 0.0149803
66.6515 52.2098 0.0241623
62.3373 62.4287 0.00988222
62.2053 59.4087 0.01823
64.6641 56.0342 0.0200106
61.827 56.6862 0.0228845
60.6703 63.9778 2
57.0262 66.736 2
57.5591 63.6963 2
67.5091 50.1768 2
65.7044 54.1746 2
64.5391 51.3867 2
60.7751 60.9433 2
62.8244 55.0727 2
60.6618 58.1665 2
60.3321 55.7919 2
55.0713 67.9329 3.99332
59.2206 62.37 3.98443
55.8058 64.913 3.98873
56.3282 62.0954 3.98301
65.3333 49.4096 3.97112
63.7085 53.2945 3.97308
62.4421 50.654 3.96963
59.3356 59.563 3.98054
61.0806 54.3135 3.97556
59.2922 57.0182 3.97477
59.2456 55.1877 3.97742
48.1037 68.5807 3.98979
50.9489 69.9325 3.99364
54.0858 71.1327 4
56.25 69.976 2
58.3339 68.6801 0
57.0592 8.33473 3.992
60.3285 7.74928 4
58.9225 9.65486 2
62.2255 9.30602 2
70.576 48.8133 0.0159001
71.7833 44.3531 0.0163528
68.9144 46.0156 0.0249288
69.8053 41.7901 0.0260653
72.4058 39.8023 0.0171842
75 37.5 0
72.4889 37.5121 2
70.042 39.6575 2
69.4321 43.908 2
67.5985 41.4983 2
68.2677 48.1074 2
66.7123 45.4415 2
70.1301 37.5216 3.9735
67.8352 39.5128 3.97001
67.2257 43.4712 3.97097
65.5572 41.2107 3.97008
66.0706 47.4194 3.97142
64.6549 44.8502 3.97057
72.4136 35.2242 0.0171578
71.8046 30.6764 0.016173
69.8414 33.2681 0.0254427
68.9685 29.0378 0.0242418
64.0165 10.9835 0
63.8914 14.3254 0.0113154
63.5167 17.4425 0.0181496
67.6135 24.9121 0.0238803
66.1973 27.6337 0.0273833
64.7593 23.8292 0.0268735
62.9113 20.3168 0.024509
62.0957 22.9412 0.028138
60.6848 11.0963 0.00913687
57.6132 11.443 0.0148184
70.0587 35.392 2
69.4688 31.1494 2
67.6569 33.5903 2
66.775 29.6217 2
62.3432 12.654 2
62.2017 15.7791 2
61.8185 18.6781 2
65.5262 25.6986 2
64.1489 28.254 2
61.2216 21.3375 2
62.8587 24.6361 2
60.4271 23.7255 2
59.2474 12.7739 2
56.4061 13.1064 2
55.8751 10.2289 2
67.8713 35.5473 3.97017
67.267 31.6218 3.97108
65.6993 33.9266 3.97048
64.6654 30.1907 3.97058
63.54 26.4132 3.97164
62.2599 28.7762 3.97199
60.7769 14.219 3.98334
61.0455 25.3364 3.97101
60.6162 17.1216 3.98022
60.2265 19.8113 3.97487
59.6633 22.2557 3.97107
58.9778 24.3184 3.97257
54.0381 9.13289 3.98745
57.9116 14.3261 3.98167
54.7874 12.0066 3.98331
55.3133 14.6394 3.98043
67.5093 50.1772 0.024973
57.0259 66.7359 0.00692578
60.6697 63.9781 0.00854127
57.5591 63.6952 0.0132828
65.7046 54.1746 0.0225273
64.5394 51.3867 0.028343
60.7748 60.9422 0.0166678
60.6615 58.1653 0.022209
62.8243 55.0719 0.0233043
60.3318 55.7911 0.0238079
55.0716 67.933 2
59.2207 62.3711 2
55.8057 64.9139 2
56.3282 62.0967 2
65.3332 49.4095 2
63.7085 53.2949 2
62.442 50.654 2
59.3358 59.5644 2
61.0809 54.3142 2
59.2926 57.0191 2
59.2461 55.1881 2
53.0431 69.0007 3.99354
53.9681 66.0152 3.98937
57.8822 60.8756 3.9818
54.685 63.2126 3.98499
55.2126 60.6227 3.98121
63.1949 48.663 3.96959
61.7423 52.5776 3.97079
60.2718 50.0216 3.96868
58.0204 58.2672 3.97714
59.3297 53.9509 3.975
58.1289 55.816 3.9729
50.1104 67.8587 3.98974
47.4642 66.5847 3.98739
46.0573 69.1601 3.98985
48.1037 68.5812 2
48.803 70.7238 3.99373
50.9491 69.9327 2
51.8506 72.1454 4
54.0858 71.1327 2
56.25 69.9759 0
55.1035 7.13925 3.99229
58.3339 6.31992 4
57.0596 8.33472 2
60.3286 7.74926 2
58.922 9.65462 0.00830262
62.2254 9.30607 0
68.2678 48.1078 0.0251544
69.4322 43.9082 0.0253266
66.7123 45.4415 0.0283593
67.5986 41.4983 0.0295558
70.042 39.6576 0.0266297
72.4891 37.5121 0.0173548
70.13 37.5216 2
67.8352 39.5127 2
67.2256 43.4712 2
65.557 41.2107 2
66.0705 47.4194 2
64.6548 44.8503 2
67.9316 37.5221 3.97004
65.7881 39.3708 3.9698
65.178 43.0267 3.97017
63.7521 40.9307 3.97112
63.9672 46.7186 3.9702
62.8099 44.2185 3.97172
70.0587 35.3919 0.0264182
69.4687 31.1493 0.0251869
67.657 33.5903 0.0288189
66.7749 29.6218 0.0280559
62.3426 12.6535 0.0101928
62.2016 15.7799 0.0168925
61.8182 18.6793 0.0222515
65.5264 25.6987 0.0273519
64.149 28.2541 0.0282247
62.8588 24.6363 0.0286555
61.2214 21.3382 0.027182
60.4271 23.7258 0.028573
59.2473 12.7745 0.016386
56.4061 13.1074 0.0180916
55.875 10.2297 0.0133101
67.8712 35.5473 2
67.2671 31.6217 2
65.6992 33.9266 2
64.6655 30.1906 2
60.7769 14.2184 2
60.6162 17.1205 2
60.2269 19.8103 2
63.5398 26.4132 2
62.2599 28.7761 2
59.6636 22.2551 2
61.0454 25.3363 2
58.978 24.3185 2
57.9114 14.3253 2
55.3132 14.6384 2
54.0381 9.13219 2
54.7874 12.0055 2
65.8769 35.6665 3.96974
65.1875 32.1534 3.96993
64.2834 34.2493 3.97072
62.5972 30.6345 3.97108
61.6526 27.0707 3.97143
60.852 29.1388 3.97309
59.3127 15.6629 3.98139
59.3293 25.7945 3.9721
59.1267 18.3494 3.97832
58.7422 20.8501 3.97175
58.2848 23.0903 3.97058
57.966 24.663 3.97395
52.1127 8.1512 3.98806
53.0584 11.0127 3.98419
56.6778 15.7359 3.98076
53.81 13.6742 3.98171
54.377 15.9916 3.98032
55.0713 67.9329 0.00667619
65.3333 49.4096 0.0288844
55.8058 64.913 0.0112695
59.2206 62.37 0.0155711
56.3282 62.0954 0.0169891
63.7085 53.2945 0.026918
62.4421 50.654 0.0303744
59.3356 59.563 0.019461
59.2922 57.0182 0.0252298
61.0806 54.3135 0.02444
59.2456 55.1877 0.0225825
53.0434 69.0009 2
53.968 66.0159 2
57.8822 60.8768 2
54.6849 63.2137 2
55.2126 60.6242 2
63.1947 48.663 2
61.7426 52.578 2
60.2715 50.0216 2
58.0209 58.2687 2
59.3302 53.9512 2
58.1295 55.8161 2
52.0716 67.0018 3.98964
52.9543 64.223 3.98651
56.6498 59.4951 3.97994
53.6821 61.629 3.98286
54.2614 59.3283 3.97906
60.9907 47.8828 3.96918
59.7081 52.1074 3.97079
58.0197 49.6192 3.9697
56.7785 56.9933 3.97428
57.1213 54.1236 3.97287
50.1104 67.8592 2
49.338 65.925 3.98741
47.464 66.5852 2
46.8933 64.7415 3.98607
45.5592 67.102 3.98717
43.9741 69.5923 3.98971
46.0573 69.1605 2
46.6096 71.3683 3.99377
48.1037 68.5807 0.0102124
48.8032 70.724 2
49.554 73.0099 4
50.9489 69.9325 0.00635819
51.8506 72.1455 2
54.0858 71.1327 0
53.0645 6.07069 3.99256
55.1039 7.13917 2
56.25 5.02411 4
58.3339 6.3199 2
57.0592 8.33473 0.00800431
60.3285 7.74928 0
66.0706 47.4194 0.0285807
67.2257 43.4712 0.0290334
64.6549 44.8502 0.0294328
65.5572 41.2107 0.0299242
67.8352 39.5128 0.0299924
70.1301 37.5216 0.0265008
67.9315 37.5221 2
65.788 39.3708 2
65.1779 43.0267 2
63.7521 40.9307 2
63.9671 46.7186 2
62.8098 44.2184 2
65.891 37.5019 3.96964
63.8877 39.2674 3.97076
63.328 42.5517 3.97105
62.4184 40.6991 3.97242
61.9695 45.9215 3.97097
61.4491 43.6857 3.97317
67.8713 35.5473 0.0298276
67.267 31.6218 0.0289231
65.6993 33.9266 0.029524
64.6654 30.1907 0.0294232
60.7769 14.219 0.0166626
60.6162 17.1216 0.0197813
60.2265 19.8113 0.0251313
63.54 26.4132 0.0283554
62.2599 28.7762 0.0280053
61.0455 25.3364 0.0289948
59.6633 22.2557 0.0289321
58.9778 24.3184 0.0274284
57.9116 14.3261 0.018326
55.3133 14.6394 0.0195707
54.0381 9.13289 0.0125471
54.7874 12.0066 0.0166902
65.8768 35.6665 2
65.1875 32.1533 2
64.2835 34.2493 2
62.5973 30.6344 2
59.3125 15.662 2
59.127 18.3482 2
58.7428 20.8492 2
61.6525 27.0707 2
60.852 29.1388 2
58.2852 23.0904 2
59.3293 25.7946 2
57.9662 24.6632 2
56.6775 15.735 2
54.3767 15.9906 2
53.81 13.6731 2
52.1127 8.15061 2
53.0584 11.0119 2
64.0833 35.6322 3.9705
62.9266 33.0456 3.97094
60.6152 30.6106 3.97287
59.569 27.9084 3.9726
57.9414 16.9769 3.98039
57.7359 25.724 3.97332
57.7169 19.4706 3.97627
57.3704 21.8385 3.96956
57.1835 23.9463 3.97184
50.1128 7.28302 3.98854
51.2328 10.1208 3.98506
52.1723 12.7915 3.98286
55.5385 16.9655 3.98051
52.9779 15.2564 3.97977
53.7588 16.9736 3.98062
53.0431 69.0007 0.00645978
53.9681 66.0152 0.0106262
63.1949 48.663 0.0304125
54.685 63.2126 0.0150109
57.8822 60.8756 0.0181979
55.2126 60.6227 0.0187881
61.7423 52.5776 0.0292064
60.2718 50.0216 0.0313236
58.0204 58.2672 0.0228629
58.1289 55.816 0.0271009
59.3297 53.9509 0.0249984
52.0715 67.0023 2
52.9541 64.2239 2
56.65 59.4964 2
53.682 61.6302 2
54.2613 59.33 2
60.9906 47.8827 2
59.7084 52.1075 2
58.0193 49.619 2
56.7789 56.9957 2
57.122 54.1237 2
51.1689 65.1321 3.98717
52.0471 62.5447 3.9846
55.4822 58.256 3.979
52.8354 60.1424 3.98076
53.6409 58.4783 3.98004
58.3001 46.8515 3.97294
57.5553 51.7876 3.97078
56.2378 49.5551 3.97309
55.4725 55.7926 3.97205
55.3536 53.3808 3.96953
50.1104 67.8587 0.0102559
49.3378 65.9257 2
48.619 64.128 3.98586
47.4642 66.5847 0.0126106
45.559 67.1025 2
46.893 64.7421 2
46.3827 63.0599 3.98508
45.1335 65.2027 3.98603
43.6321 67.4725 3.98715
41.8611 69.8797 3.9895
43.9742 69.5928 2
44.3769 71.8631 3.99365
46.0573 69.1601 0.0101515
46.6098 71.3685 2
47.2057 73.7222 4
48.803 70.7238 0.00627202
49.554 73.0099 2
51.8506 72.1454 0
50.9542 5.13098 3.99286
53.0648 6.07057 2
54.0858 3.86728 4
55.1035 7.13925 0.00770793
56.25 5.02406 2
58.3339 6.31992 0
63.9672 46.7186 0.0297963
65.178 43.0267 0.0298282
62.8099 44.2185 0.0282783
63.7521 40.9307 0.0288774
65.7881 39.3708 0.0301982
67.9316 37.5221 0.0299629
65.8909 37.5019 2
63.8877 39.2674 2
63.3279 42.5517 2
62.4186 40.6991 2
61.9693 45.9214 2
61.4488 43.6856 2
63.9488 37.4572 3.97067
62.1339 39.356 3.97194
61.2041 41.9602 3.97296
60.2517 44.7734 3.97366
65.8769 35.6665 0.0302619
65.1875 32.1534 0.0300723
64.2834 34.2493 0.0292827
62.5972 30.6345 0.0289243
59.3127 15.6629 0.018607
59.1267 18.3494 0.0216809
58.7422 20.8501 0.028255
61.6526 27.0707 0.0285749
60.852 29.1388 0.0269075
59.3293 25.7945 0.0279018
58.2848 23.0903 0.0294196
57.966 24.663 0.0260516
56.6778 15.7359 0.0192382
54.377 15.9916 0.019684
53.81 13.6742 0.0182921
52.1127 8.1512 0.0119405
53.0584 11.0127 0.0158058
64.0833 35.6321 2
62.9268 33.0456 2
60.6152 30.6107 2
57.9413 16.9759 2
57.7175 19.4695 2
57.3712 21.8386 2
59.5693 27.9085 2
57.1838 23.9467 2
57.7362 25.7242 2
50.1128 7.28246 2
55.5383 16.9645 2
53.7585 16.9725 2
52.9778 15.2553 2
52.1722 12.7906 2
51.2327 10.1201 2
62.1692 35.3595 3.9715
60.2772 32.7449 3.9728
58.6169 30.0745 3.97407
57.2794 27.3801 3.97409
56.6375 18.1499 3.97997
56.2862 25.1002 3.973
56.3573 20.518 3.97169
56.1057 22.8706 3.96787
48.0565 6.52608 3.98897
49.3247 9.32853 3.98555
50.4333 11.9893 3.98333
51.3778 14.4919 3.98156
54.4155 17.9146 3.98107
52.3611 17.0294 3.97911
52.0716 67.0018 0.0103634
52.9543 64.223 0.0134879
60.9907 47.8828 0.0308215
53.6821 61.629 0.0171396
56.6498 59.4951 0.0200577
54.2614 59.3283 0.0209449
59.7081 52.1074 0.0292054
58.0197 49.6192 0.0303049
56.7785 56.9933 0.0257189
57.1213 54.1236 0.0271277
51.1687 65.1327 2
52.0469 62.5458 2
55.4822 58.2577 2
52.8354 60.1437 2
53.641 58.4798 2
58.3002 46.8513 2
57.5558 51.7875 2
56.2374 49.5547 2
55.4732 55.7936 2
55.3544 53.3812 2
50.3472 63.3864 3.98538
51.245 60.9425 3.98236
54.22 57.2724 3.97889
52.3133 58.6411 3.97874
56.6942 44.1855 3.97642
55.4831 47.8979 3.97486
55.0602 51.3861 3.97043
54.0017 54.5405 3.97049
49.338 65.925 0.0125866
48.6188 64.1287 2
47.9629 62.4812 3.98469
45.5592 67.102 0.0128345
46.8933 64.7415 0.0139281
43.632 67.4731 2
46.3824 63.0607 2
45.1332 65.2033 2
45.9883 61.5932 3.98442
44.7679 63.4608 3.98548
43.3573 65.5122 3.98594
41.664 67.6913 3.98701
39.7026 70.0268 3.98939
41.8612 69.8802 2
42.1112 72.2078 3.99349
43.9741 69.5923 0.010286
44.3771 71.8633 2
44.8159 74.2794 4
46.6096 71.3683 0.00622997
47.2057 73.7222 2
49.554 73.0099 0
48.7847 4.32195 3.9931
50.9545 5.13079 2
51.8506 2.85458 4
53.0645 6.07069 0.00743744
54.0858 3.86728 2
56.25 5.02411 0
61.9695 45.9215 0.0290279
63.328 42.5517 0.02895
61.4491 43.6857 0.026834
62.4184 40.6991 0.0275791
63.8877 39.2674 0.0292364
65.891 37.5019 0.030362
63.9485 37.4572 2
62.1338 39.356 2
61.204 41.9601 2
60.2514 44.7733 2
61.9672 37.4451 3.97176
60.2206 39.8485 3.97371
58.9732 42.9206 3.9744
64.0833 35.6322 0.0295019
62.9266 33.0456 0.0290644
60.6152 30.6106 0.0271254
57.9414 16.9769 0.0196121
57.7169 19.4706 0.0237271
57.3704 21.8385 0.0304356
59.569 27.9084 0.0273995
57.7359 25.724 0.0266756
57.1835 23.9463 0.0281608
55.5385 16.9655 0.0194879
53.7588 16.9736 0.0193776
52.9779 15.2564 0.0202322
50.1128 7.28302 0.0114617
52.1723 12.7915 0.0171391
51.2328 10.1208 0.0149439
62.1689 35.3595 2
60.2778 32.7449 2
58.6161 30.0746 2
56.6377 18.1488 2
56.358 20.5163 2
56.1064 22.8713 2
57.2806 27.3802 2
56.2864 25.1008 2
48.0565 6.52553 2
49.3245 9.32796 2
54.4154 17.9133 2
52.3608 17.0284 2
51.3777 14.4908 2
50.4332 11.9885 2
59.8605 35.1197 3.97278
57.9771 32.2696 3.97549
56.535 29.3391 3.97523
55.4343 26.5976 3.97487
55.3422 19.1841 3.9787
54.923 24.0583 3.9701
54.9987 21.5623 3.9703
45.9623 5.88104 3.98934
43.3735 7.47149 3.987
47.355 8.62215 3.98613
48.6001 11.2906 3.98386
49.7139 13.7388 3.98227
50.6333 16.1261 3.98007
53.1244 18.6539 3.97737
51.3015 18.0426 3.98469
51.1689 65.1321 0.0128348
52.0471 62.5447 0.0153957
58.3001 46.8515 0.0270583
52.8354 60.1424 0.019241
55.4822 58.256 0.0209999
53.6409 58.4783 0.0199615
57.5553 51.7876 0.0292207
56.2378 49.5551 0.0269084
55.4725 55.7926 0.0279454
55.3536 53.3808 0.0304653
50.3469 63.387 2
51.2449 60.9436 2
54.2203 57.274 2
52.3133 58.6423 2
56.6933 44.1853 2
55.4829 47.8975 2
55.0608 51.3858 2
54.0027 54.5424 2
49.5926 61.7512 3.98407
55.59 41.7073 3.97692
50.5676 59.3355 3.97895
52.1846 56.4954 3.97482
54.1541 45.5651 3.97712
53.3181 49.328 3.97332
52.6602 52.8417 3.96751
48.619 64.128 0.0141417
47.9626 62.4818 2
47.3301 61.0162 3.984
43.6321 67.4725 0.0128519
45.1335 65.2027 0.0139722
46.3827 63.0599 0.0149223
41.6638 67.6919 2
43.3571 65.5128 2
45.9882 61.5941 2
44.7677 63.4615 2
45.767 60.6379 3.9834
44.4842 61.8429 3.9842
43.1471 63.733 3.98514
41.5466 65.6498 3.98561
39.6328 67.771 3.98678
37.5259 70.0519 3.98926
39.7026 70.0275 2
39.8179 72.4049 3.99339
41.8611 69.8797 0.0105001
42.1114 72.2081 2
42.3947 74.6792 4
44.3769 71.8631 0.00634994
44.8159 74.2794 2
47.2057 73.7222 0
43.8516 5.35806 3.98954
46.5706 3.64644 3.99335
48.7849 4.32172 2
49.554 1.99015 4
50.9542 5.13098 0.00714096
51.8506 2.85453 2
54.0858 3.86728 0
60.2517 44.7734 0.0263429
61.2041 41.9602 0.0270375
62.1339 39.356 0.0280571
63.9488 37.4572 0.0293281
61.9669 37.4451 2
60.2205 39.8484 2
58.9728 42.9205 2
59.7156 37.5673 3.97271
57.9556 40.6585 3.97455
55.0515 39.7223 3.97719
62.1692 35.3595 0.0284953
60.2772 32.7449 0.0271963
58.6169 30.0745 0.025934
56.6375 18.1499 0.0200278
56.3573 20.518 0.0283105
56.1057 22.8706 0.0321335
57.2794 27.3801 0.0259061
56.2862 25.1002 0.0270035
54.4155 17.9146 0.0189326
52.3611 17.0294 0.0208947
51.3778 14.4919 0.0184413
48.0565 6.52608 0.0110252
49.3247 9.32853 0.0144535
50.4333 11.9893 0.0166694
59.8597 35.1197 2
45.9623 5.88055 2
43.3735 7.47105 2
57.979 32.2696 2
56.5341 29.3392 2
55.3425 19.1825 2
54.9996 21.5613 2
54.9233 24.0594 2
55.4318 26.5985 2
47.3549 8.62152 2
48.5999 11.29 2
53.1245 18.6529 2
51.3014 18.0417 2
50.6331 16.1251 2
49.7137 13.7379 2
57.3522 34.7604 3.97598
55.7082 31.5195 3.97647
54.4713 28.4046 3.97723
53.7618 25.4977 3.97494
53.9679 20.1337 3.97762
53.5746 22.7144 3.96691
41.3986 7.07685 3.98739
45.3596 7.99337 3.98649
42.8654 9.41364 3.98527
46.6664 10.6512 3.98426
47.7453 13.0988 3.9827
48.9309 15.3971 3.98101
50.0057 17.6955 3.9798
51.649 19.3176 3.98728
50.3472 63.3864 0.0146174
51.245 60.9425 0.0176415
56.6942 44.1855 0.0235811
55.4831 47.8979 0.0251366
52.3133 58.6411 0.0212598
54.22 57.2724 0.0211132
55.0602 51.3861 0.0295717
54.0017 54.5405 0.0295077
49.5924 61.7518 2
55.59 41.7071 2
50.5675 59.3367 2
52.1851 56.4966 2
54.1573 45.5647 2
53.3198 49.327 2
52.6617 52.8412 2
48.8497 60.209 3.98265
52.4707 42.6418 3.97736
49.7895 57.6331 3.97774
50.5885 54.4289 3.9724
51.7698 47.2681 3.97573
51.1975 50.9388 3.96939
48.098 43.8046 3.99269
47.9629 62.4812 0.0153101
47.3299 61.0168 2
46.6195 59.8031 3.98312
41.664 67.6913 0.0129904
43.3573 65.5122 0.0140645
44.7679 63.4608 0.0145226
45.9883 61.5932 0.0155771
39.6328 67.7717 2
41.5464 65.6503 2
45.7669 60.6387 2
43.1469 63.7336 2
44.4841 61.8436 2
44.6243 60.3004 3.98342
42.9512 62.0911 3.98441
41.6005 63.8264 3.9851
39.6479 65.6179 3.9852
37.5633 67.7533 3.98674
31.6964 65.1367 3.98548
33.3918 67.4909 3.98669
35.333 69.962 3.98926
37.5259 70.0526 2
37.5095 72.4594 3.99326
39.7026 70.0268 0.0106134
39.818 72.4053 2
39.9526 74.9197 4
42.1112 72.2078 0.00651254
42.3947 74.6792 2
44.8159 74.2794 0
41.7362 4.96733 3.98976
43.8516 5.35762 2
44.3258 3.10967 3.9935
46.5708 3.6462 2
47.2057 1.27793 4
48.7847 4.32195 0.0068992
49.554 1.99013 2
51.8506 2.85458 0
58.9732 42.9206 0.0255998
60.2206 39.8485 0.0262871
61.9672 37.4451 0.0282425
59.7155 37.5672 2
57.955 40.6584 2
55.0512 39.7224 2
56.768 37.8965 3.9763
49.5052 41.3388 3.98791
53.0734 39.3051 3.97792
39.442 6.80037 3.98742
59.8605 35.1197 0.0272197
57.9771 32.2696 0.0245085
56.535 29.3391 0.0247731
55.3422 19.1841 0.021298
54.9987 21.5623 0.0296994
54.923 24.0583 0.0299012
55.4343 26.5976 0.0251308
53.1244 18.6539 0.0226315
51.3015 18.0426 0.0153133
50.6333 16.1261 0.0199271
45.9623 5.88104 0.0106593
49.7139 13.7388 0.0177346
47.355 8.62215 0.0138736
48.6001 11.2906 0.0161437
43.3735 7.47149 0.0130044
57.3513 34.7604 2
41.3986 7.07631 2
45.3596 7.99292 2
42.8653 9.41318 2
55.7071 31.5197 2
54.4725 28.4057 2
53.9686 20.1325 2
53.5751 22.7113 2
53.7609 25.4986 2
46.6662 10.6505 2
47.745 13.0982 2
51.6492 19.3167 2
50.0055 17.6944 2
48.9307 15.3961 2
54.8354 33.9727 3.97741
53.4549 30.4877 3.97544
52.564 27.2006 3.97613
52.1332 24.099 3.97228
52.3867 21.053 3.98074
41.0133 9.04679 3.9852
44.7236 9.99392 3.98456
42.4682 10.9004 3.98393
46.005 12.727 3.98235
47.6813 14.5814 3.98204
48.113 16.9861 3.97887
49.8168 19.6075 3.97602
49.5926 61.7512 0.01593
50.5676 59.3355 0.0210476
55.59 41.7073 0.0230766
54.1541 45.5651 0.0228812
53.3181 49.328 0.0266799
52.1846 56.4954 0.0251837
52.6602 52.8417 0.0324904
48.8495 60.2097 2
52.4719 42.6403 2
49.7897 57.6344 2
50.5893 54.4306 2
51.7695 47.2664 2
51.1995 50.9375 2
48.0994 43.8134 2
47.9876 58.7506 3.98084
50.0373 45.2771 3.97661
48.5959 55.9237 3.97852
49.1186 52.5924 3.97203
49.6417 49.0448 3.97398
45.9082 39.8787 3.89783
46.3421 42.6884 3.94241
46.4404 45.8552 3.99464
43.7547 41.1766 3.87815
41.9834 42.0274 3.81917
47.3301 61.0162 0.0160024
46.6192 59.8036 2
45.4693 58.7999 3.98366
39.6328 67.771 0.0132154
41.5466 65.6498 0.014387
43.1471 63.733 0.0148596
44.4842 61.8429 0.0157987
45.767 60.6379 0.0166006
41.6003 63.8269 2
37.5632 67.754 2
39.6477 65.6185 2
44.6241 60.3012 2
42.9511 62.0917 2
41.7541 62.5018 3.98445
42.4819 59.9929 3.98505
39.8939 63.5614 3.98458
37.6423 65.5168 3.98478
35.4632 67.6627 3.98669
33.5749 65.3499 3.98504
31.9588 63.3097 3.98463
29.8824 64.7277 3.98579
31.6965 65.1374 2
31.3762 67.2008 3.98683
33.3918 67.4917 2
33.1556 69.7553 3.98928
35.333 69.9627 2
35.1948 72.3738 3.99324
37.5259 70.0519 0.0107385
37.5095 72.4598 2
37.5 75 4
39.8179 72.4049 0.00661162
39.9526 74.9197 2
42.3947 74.6792 0
39.6237 4.71443 3.98989
41.7362 4.96683 2
42.0621 2.71732 3.99356
43.8516 5.35806 0.0104583
44.326 3.10941 2
44.8158 0.721173 4
46.5706 3.64644 0.00665236
47.2057 1.27779 2
49.554 1.99015 0
57.9556 40.6585 0.0254477
59.7156 37.5673 0.0272883
55.0515 39.7223 0.0228137
49.5176 41.3412 2
56.7676 37.8964 2
53.0726 39.3057 2
53.9232 36.6293 3.97794
47.4319 40.4188 3.94493
50.4444 38.5132 3.98708
37.5158 6.67135 3.98753
39.442 6.79983 2
39.2107 8.68936 3.98553
35.9412 8.48901 3.9858
57.3522 34.7604 0.0240161
55.7082 31.5195 0.0235296
54.4713 28.4046 0.0227708
53.9679 20.1337 0.0223782
53.5746 22.7144 0.0330915
53.7618 25.4977 0.0250613
51.649 19.3176 0.0127223
50.0057 17.6955 0.0201962
48.9309 15.3971 0.0189853
45.3596 7.99337 0.013512
47.7453 13.0988 0.0172992
46.6664 10.6512 0.0157382
41.3986 7.07685 0.0126122
42.8654 9.41364 0.0147266
54.8366 33.9726 2
41.0133 9.04631 2
44.7234 9.99357 2
42.4679 10.9 2
53.4511 30.4879 2
52.5691 27.2017 2
52.3875 21.0517 2
52.134 24.1 2
46.0046 12.7261 2
47.681 14.5805 2
49.8171 19.6064 2
48.1129 16.9849 2
52.3949 32.8791 3.97945
51.284 29.1592 3.97723
50.7698 25.7288 3.97171
49.9362 22.1906 3.97745
40.5692 11.6044 3.98304
43.8579 11.9161 3.98332
45.8025 15.4184 3.98113
47.5033 19.2221 3.97653
46.2408 37.4977 3.90281
48.8497 60.209 0.0173544
49.7895 57.6331 0.0222624
52.4707 42.6418 0.0226406
51.7698 47.2681 0.0242706
51.1975 50.9388 0.0306127
50.5885 54.4289 0.0275992
48.098 43.8046 0.00730766
47.9874 58.7514 2
50.0416 45.2789 2
48.5963 55.9252 2
49.1197 52.595 2
49.6439 49.0436 2
45.9292 39.8864 2
46.3576 42.6992 2
46.4407 45.848 2
43.7738 41.1902 2
41.9904 42.0332 2
46.8386 57.3533 3.98305
44.5003 39.4595 3.87072
42.335 40.8918 3.84279
48.0385 47.2443 3.97606
47.1622 54.2517 3.97817
47.5686 50.7476 3.97091
44.7618 47.4346 3.99459
45.0078 41.9714 3.9012
44.8846 44.5914 3.94868
42.6021 42.7003 3.87802
40.8748 42.3755 3.84867
46.6195 59.8031 0.0168792
45.4688 58.8006 2
43.8772 57.726 3.98446
37.5633 67.7533 0.0132614
39.6479 65.6179 0.0148027
41.6005 63.8264 0.0149026
42.9512 62.0911 0.015592
44.6243 60.3004 0.0165826
35.4632 67.6634 2
41.7539 62.5023 2
39.8937 63.5619 2
37.6422 65.5175 2
42.4818 59.9937 2
40.6235 61.6604 3.98406
40.4459 58.2269 3.98584
37.837 63.2223 3.98389
35.5727 65.439 3.98491
33.575 65.3505 2
31.9587 63.3104 2
33.6286 63.3494 3.9842
30.3776 62.8683 3.98487
32.1224 62.0167 3.98481
26.8672 61.5118 3.98438
28.0611 64.1558 3.98584
29.8825 64.7284 2
29.4054 66.7645 3.98693
31.6964 65.1367 0.014521
31.3762 67.2015 2
31.0127 69.4203 3.98936
33.3918 67.4909 0.0133071
33.1556 69.756 2
32.8917 72.148 3.99329
35.333 69.962 0.010742
35.1947 72.3742 2
35.0474 74.9194 4
37.5095 72.4594 0.00674273
37.5 75 2
39.9526 74.9197 0
35.6203 6.72237 3.98749
37.5228 4.61392 3.99004
39.6237 4.71396 2
39.7885 2.47373 3.99368
41.7362 4.96733 0.0102412
42.0623 2.71702 2
42.3946 0.32156 4
44.3258 3.10967 0.00650189
44.8159 0.72056 2
47.2057 1.27793 0
49.5052 41.3388 0.0120885
56.768 37.8965 0.0236986
53.0734 39.3051 0.0220763
47.4446 40.4287 2
50.4549 38.5124 2
53.9267 36.6299 2
51.2465 35.5842 3.97802
48.0862 37.7531 3.9622
45.9127 35.1419 3.89998
43.7647 33.8319 3.8744
41.9918 32.9875 3.81638
37.4575 8.531 3.98552
37.5158 6.67065 2
39.442 6.80037 0.0125794
39.2108 8.68882 2
38.9761 10.1224 3.98503
35.8979 9.76899 3.98446
34.1496 8.81843 3.98561
35.9412 8.4883 2
54.8354 33.9727 0.0225898
53.4549 30.4877 0.0245614
52.564 27.2006 0.0238671
52.3867 21.053 0.019257
52.1332 24.099 0.0277201
49.8168 19.6075 0.0239753
48.113 16.9861 0.0211254
47.6813 14.5814 0.0179648
44.7236 9.99392 0.015444
46.005 12.727 0.0176513
41.0133 9.04679 0.0148031
42.4682 10.9004 0.0160653
52.3948 32.8792 2
40.5688 11.6042 2
43.8574 11.9157 2
51.2957 29.1591 2
50.7706 25.7309 2
49.9373 22.1896 2
45.8021 15.4172 2
47.5035 19.2206 2
49.9253 31.4152 3.96885
49.2557 27.4815 3.97673
49.3922 24.4039 3.97907
47.1847 21.9484 3.97527
38.3015 12.7295 3.98331
42.1013 14.301 3.98231
44.8002 18.4565 3.97983
44.79 37.5058 3.86934
46.2668 37.5053 2
47.9876 58.7506 0.0191649
48.5959 55.9237 0.0214794
50.0373 45.2771 0.0233942
49.6417 49.0448 0.0260232
49.1186 52.5924 0.0279722
45.9082 39.8787 0.102171
46.3421 42.6884 0.0575854
46.4404 45.8552 0.00535758
43.7547 41.1766 0.121848
41.9834 42.0274 0.180829
46.8385 57.3545 2
44.5127 39.4683 2
42.332 40.8922 2
48.0405 47.2456 2
47.1629 54.2548 2
47.5708 50.7492 2
44.766 47.4109 2
45.0229 41.9828 2
44.8996 44.6057 2
42.626 42.7185 2
40.8734 42.3752 2
45.3972 55.9409 3.98583
42.6643 39.2776 3.85621
40.7929 40.8163 3.90497
46.0636 48.92 3.98613
45.5318 52.5438 3.98093
43.4245 48.4649 4.01056
43.3413 46.153 3.94962
43.6232 43.788 3.89895
41.1212 43.8745 3.87301
39.2949 42.7361 3.86274
45.4693 58.7999 0.0163369
43.8768 57.7266 2
42.1073 56.3541 3.98823
35.4632 67.6627 0.0133088
37.6423 65.5168 0.0152161
39.8939 63.5614 0.0154225
41.7541 62.5018 0.0155481
42.4819 59.9929 0.0149473
35.5728 65.4398 2
40.6233 61.661 2
37.8369 63.2229 2
40.4457 58.228 2
38.9259 56.5248 3.99101
38.2505 60.3441 3.98443
35.6068 63.2159 3.98373
33.5749 65.3499 0.0149615
31.9588 63.3097 0.0153675
33.6285 63.35 2
30.3776 62.8689 2
32.1224 62.0173 2
28.6799 62.2138 3.98503
33.3453 61.5296 3.98442
31.0655 61.2342 3.98489
27.5665 59.6099 3.98285
23.7897 59.0946 3.98061
25.0328 60.884 3.98324
26.8674 61.5124 2
26.2277 63.488 3.98563
28.0614 64.1563 2
27.4618 66.1884 3.98708
29.8824 64.7277 0.0142093
29.4055 66.7651 2
28.9048 68.9458 3.98943
31.3762 67.2008 0.0131749
31.0127 69.4209 2
30.614 71.7791 3.99337
33.1556 69.7553 0.0107223
32.8916 72.1484 2
32.6054 74.6784 4
35.1948 72.3738 0.00675605
35.0474 74.9197 2
37.5 75 0
33.7229 6.97686 3.98709
35.4342 4.6843 3.98991
35.6203 6.72173 2
37.514 2.38637 3.99374
37.5228 4.61338 2
39.6237 4.71443 0.0101147
39.7886 2.47343 2
39.9526 0.0806499 4
42.0621 2.71732 0.00643956
42.3947 0.320817 2
44.8158 0.721173 0
44.5208 35.5493 3.866
42.3473 34.1163 3.83963
47.4319 40.4188 0.055073
50.4444 38.5132 0.0129223
53.9232 36.6293 0.0220563
48.097 37.7593 2
51.2545 35.5833 2
45.9283 35.1273 2
43.7855 33.8174 2
41.9988 32.9813 2
48.2689 34.3011 3.98176
45.0134 33.0401 3.89698
42.61 32.3159 3.87546
40.8836 32.6378 3.84651
37.31 10.6259 3.98399
37.4575 8.5301 2
37.5158 6.67135 0.0124677
39.2107 8.68936 0.0144679
38.976 10.1218 2
34.753 10.3746 3.98421
35.8979 9.76824 2
32.3762 9.3649 3.98508
34.1496 8.81767 2
35.9412 8.48901 0.0141965
52.3949 32.8791 0.0205464
51.284 29.1592 0.0227724
50.7698 25.7288 0.028293
49.9362 22.1906 0.0225488
47.5033 19.2221 0.0234741
45.8025 15.4184 0.018867
43.8579 11.9161 0.0166836
40.5692 11.6044 0.0169571
49.9295 31.4112 2
38.301 12.729 2
42.1007 14.3007 2
49.2565 27.4843 2
49.3931 24.4033 2
47.1859 21.9491 2
44.8003 18.4552 2
47.752 29.5503 3.99139
47.0898 25.1397 3.98183
44.2887 21.3117 3.97647
36.5811 12.9257 3.98292
38.6809 14.7989 3.98256
41.7498 17.8301 3.98125
42.8082 37.4945 3.85593
44.8082 37.5042 2
46.2408 37.4977 0.0971897
46.8386 57.3533 0.0169485
47.1622 54.2517 0.0218344
48.0385 47.2443 0.0239365
47.5686 50.7476 0.029091
44.5003 39.4595 0.129279
45.0078 41.9714 0.0987977
44.8846 44.5914 0.0513169
44.7618 47.4346 0.00541053
42.6021 42.7003 0.121977
42.335 40.8918 0.157205
40.8748 42.3755 0.151331
45.3975 55.9423 2
42.6654 39.2768 2
40.7892 40.8123 2
46.0651 48.9212 2
45.5338 52.5472 2
43.4276 48.4821 2
43.3634 46.1716 2
43.6397 43.8022 2
41.1393 43.8898 2
39.2901 42.7299 2
43.7347 54.4583 3.99578
40.9025 39.1799 3.93273
39.1835 40.9082 3.93542
43.6848 50.517 3.997
41.94 47.6946 3.98046
41.86 45.2041 3.90083
39.384 44.6116 3.88763
37.4905 42.8632 3.87112
43.8772 57.726 0.0155443
42.1066 56.355 2
40.419 54.9659 3.99107
35.5727 65.439 0.0150869
37.837 63.2223 0.0161113
40.6235 61.6604 0.0159375
40.4459 58.2269 0.0141575
35.6067 63.2167 2
38.2502 60.3447 2
38.9255 56.5268 2
37.9997 55.2834 3.99066
36.9345 57.6501 3.98611
35.3632 60.9286 3.98408
33.6286 63.3494 0.0157984
30.3776 62.8683 0.0151345
32.1224 62.0167 0.01519
33.3451 61.5302 2
28.68 62.2143 2
31.0655 61.2346 2
29.4016 60.3042 3.98418
32.3553 59.7627 3.98561
28.0197 58.3896 3.98502
27.5665 59.6104 2
25.3766 58.6079 3.98035
22.7533 58.2515 3.97606
23.3986 60.3627 3.981
23.7896 59.0956 2
25.033 60.8848 2
24.4303 62.7801 3.98498
26.8672 61.5118 0.0156189
26.2279 63.4885 2
25.5458 65.4982 3.98713
28.0611 64.1558 0.0141598
27.462 66.1889 2
26.8343 68.3341 3.98948
29.4054 66.7645 0.0130745
28.9048 68.9463 2
28.369 71.2642 3.99344
31.0127 69.4203 0.0106416
30.6138 71.7794 2
30.1842 74.2788 4
32.8917 72.148 0.00671063
32.6053 74.6792 2
35.0474 74.9194 0
31.7872 7.41659 3.98679
33.346 4.92341 3.98979
33.7228 6.97621 2
35.2441 2.46253 3.99371
35.4341 4.68378 2
35.6203 6.72237 0.0125141
37.5 0 4
37.514 2.38605 2
37.5228 4.61392 0.00995802
39.7885 2.47373 0.00631927
39.9526 0.0802889 2
42.3946 0.32156 0
42.6772 35.7193 3.85578
44.5328 35.541 2
40.8043 34.193 3.9039
42.3441 34.1171 2
48.0862 37.7531 0.0377953
51.2465 35.5842 0.0219822
45.9127 35.1419 0.100019
43.7647 33.8319 0.125596
41.9918 32.9875 0.183616
48.2799 34.2898 2
45.0288 33.0285 2
42.6305 32.2996 2
40.8815 32.6375 2
46.2712 31.5603 3.96183
43.6275 31.2322 3.8963
41.1353 31.1453 3.87513
39.3021 32.2747 3.86223
35.6912 11.7702 3.98311
37.31 10.6251 2
37.4575 8.531 0.0144802
38.9761 10.1224 0.0149735
33.0967 11.2111 3.98309
34.753 10.3738 2
35.8979 9.76899 0.0155429
30.4808 10.0128 3.98458
32.3762 9.36416 2
34.1496 8.81843 0.0143927
49.9253 31.4152 0.0311459
49.2557 27.4815 0.0232676
49.3922 24.4039 0.0209254
47.1847 21.9484 0.0247295
44.8002 18.4565 0.0201748
42.1013 14.301 0.0176928
38.3015 12.7295 0.0166938
36.5807 12.9252 2
47.7532 29.5432 2
38.6801 14.7986 2
41.7492 17.8292 2
47.0914 25.1405 2
44.2899 21.3093 2
45.5302 27.6499 3.99877
43.7957 24.0385 3.99729
41.3409 20.706 3.98173
35.7709 14.7506 3.98261
38.681 17.5851 3.98103
40.9527 37.4866 3.94402
42.813 37.4963 2
44.79 37.5058 0.130657
45.3972 55.9409 0.0141703
45.5318 52.5438 0.0190674
46.0636 48.92 0.0138691
42.6643 39.2776 0.143787
43.6232 43.788 0.101054
43.3413 46.153 0.0503794
43.4245 48.4649 -0.0105605
41.1212 43.8745 0.126991
40.7929 40.8163 0.0950264
39.2949 42.7361 0.137257
43.7352 54.4605 2
40.8986 39.1772 2
39.1794 40.9009 2
43.6872 50.5283 2
41.9441 47.7071 2
41.8831 45.219 2
37.4919 42.8552 2
39.4045 44.6172 2
41.8782 53.0356 3.99538
39.1984 39.1812 3.964
37.4917 40.9585 3.94868
35.6933 42.7342 3.86322
40.9189 49.7501 4.00299
39.8034 46.1081 3.88263
37.4933 44.8497 3.88493
42.1073 56.3541 0.0117693
40.4184 54.9668 2
38.729 53.8993 3.99388
35.6068 63.2159 0.0162667
38.2505 60.3441 0.0155694
38.9259 56.5248 0.00898916
35.363 60.9292 2
36.9341 57.6507 2
37.9991 55.2845 2
36.3191 55.4141 3.99267
34.4867 58.5414 3.98555
33.3453 61.5296 0.015578
28.6799 62.2138 0.0149717
31.0655 61.2342 0.0151067
32.3553 59.7632 2
29.4016 60.3045 2
30.2952 57.8366 3.98577
28.0196 58.3903 2
26.9416 56.8388 3.98005
27.5665 59.6099 0.0171545
25.3764 58.6087 2
23.8352 56.8135 3.97448
21.3298 57.4094 3.9759
21.9912 59.6335 3.98038
22.753 58.2527 2
22.7341 62.0311 3.9835
23.3987 60.3638 2
23.7897 59.0946 0.0193897
25.0328 60.884 0.0167578
24.4305 62.7809 2
23.6797 64.7164 3.98675
26.2277 63.488 0.0143694
25.546 65.4988 2
24.8065 67.5951 3.98946
27.4618 66.1884 0.0129213
26.8343 68.3346 2
26.1642 70.605 3.99349
28.9048 68.9458 0.0105737
28.3688 71.2645 2
27.7943 73.7221 4
30.614 71.7791 0.0066252
30.1841 74.2794 2
32.6054 74.6784 0
29.8096 7.98972 3.98632
31.2511 5.33056 3.98946
31.7871 7.41588 2
32.9798 2.70067 3.99362
33.346 4.92286 2
33.7229 6.97686 0.0129107
35.0474 0.080333 4
35.2441 2.46221 2
35.4342 4.6843 0.0100942
37.5 0 2
37.514 2.38637 0.00625598
39.9526 0.0806499 0
40.9103 35.8053 3.93379
42.6777 35.722 2
44.5208 35.5493 0.134004
28.5415 10.6878 3.9846
39.1911 34.1013 3.93531
40.7995 34.1973 2
42.3473 34.1163 0.160368
48.2689 34.3011 0.0182376
45.0134 33.0401 0.103015
42.61 32.3159 0.124537
40.8836 32.6378 0.153486
46.286 31.5515 2
43.6377 31.2195 2
41.1527 31.13 2
39.298 32.279 2
44.3886 29.7434 3.94883
41.8766 29.8145 3.90372
39.4013 30.3967 3.88827
37.498 32.1462 3.87213
34.0911 12.9281 3.98245
35.6911 11.7694 2
37.31 10.6259 0.0160063
31.1846 11.9789 3.98361
33.0967 11.2102 2
34.753 10.3746 0.0157917
30.4807 10.0119 2
32.3762 9.3649 0.0149162
47.752 29.5503 0.00861131
47.0898 25.1397 0.0181731
36.5811 12.9257 0.0170771
44.2887 21.3117 0.0235301
41.7498 17.8301 0.0187533
38.6809 14.7989 0.0174442
35.7703 14.7502 2
45.5308 27.648 2
38.68 17.5845 2
41.341 20.7033 2
43.7975 24.0396 2
33.606 15.8664 3.98245
43.0463 26.4727 3.99852
40.9156 23.2727 3.99805
38.4207 20.3137 3.98247
35.8471 17.4974 3.98361
39.2141 37.4864 3.97129
40.9446 37.4865 2
42.8082 37.4945 0.144067
43.7347 54.4583 0.00421591
43.6848 50.517 0.00299745
40.9025 39.1799 0.0672731
41.86 45.2041 0.0991714
41.94 47.6946 0.0195431
39.384 44.6116 0.112372
39.1835 40.9082 0.0645808
37.4905 42.8632 0.128876
41.8801 53.0386 2
39.1941 39.1799 2
37.4917 40.9518 2
40.9237 49.7547 2
35.6966 42.7299 2
39.8265 46.1272 2
37.4914 44.8489 2
39.8183 51.9521 3.99558
37.4903 39.1954 3.97819
35.7996 40.9164 3.93475
34.1098 42.3719 3.84794
35.5824 44.6121 3.88535
38.7102 48.7637 3.99174
37.4859 46.4373 3.88555
40.419 54.9659 0.00893243
38.7286 53.8993 2
36.7199 53.2539 4.00643
35.3632 60.9286 0.0159241
36.9345 57.6501 0.0138862
37.9997 55.2834 0.00933712
34.4864 58.5419 2
36.3186 55.4147 2
33.2242 55.5275 3.9883
32.3553 59.7627 0.0143882
29.4016 60.3042 0.0158176
30.2953 57.8369 2
28.686 55.3284 3.97942
28.0197 58.3896 0.0149844
26.9411 56.8394 2
25.3056 55.1513 3.97546
21.8037 55.3554 3.97128
25.3766 58.6079 0.0196474
23.8348 56.815 2
20.2141 57.037 3.97894
20.6419 58.7906 3.97862
21.3294 57.4106 2
21.1644 61.1797 3.98201
21.9911 59.6347 2
22.7533 58.2515 0.0239396
21.8931 63.8443 3.98605
22.7342 62.0321 2
23.3986 60.3627 0.0190038
24.4303 62.7801 0.0150187
23.6799 64.7171 2
22.8347 66.7387 3.98943
25.5458 65.4982 0.0128743
24.8066 67.5956 2
24.0084 69.8061 3.99347
26.8343 68.3341 0.0105194
26.1639 70.6052 2
25.446 73.0099 4
28.369 71.2642 0.0065627
27.7943 73.7222 2
30.1842 74.2788 0
27.8193 8.64928 3.9861
29.153 5.87627 3.9891
29.8094 7.98896 2
30.7249 3.09785 3.99343
31.251 5.32997 2
31.7872 7.41659 0.013208
32.6053 0.320823 4
32.9797 2.70034 2
33.346 4.92341 0.0102129
35.0474 0.0802903 2
35.2441 2.46253 0.00629149
37.5 0 0
39.2116 35.804 3.96341
40.9053 35.808 2
42.6772 35.7193 0.144223
28.5415 10.687 2
26.6203 11.3826 3.98473
29.2233 12.635 3.98413
37.4974 34.0502 3.94905
39.1866 34.1079 2
40.8043 34.193 0.0961015
46.2712 31.5603 0.038175
43.6275 31.2322 0.103699
41.1353 31.1453 0.124868
39.3021 32.2747 0.137773
44.4048 29.7302 2
41.8976 29.7968 2
39.4171 30.3863 2
37.4985 32.1543 2
42.3555 28.3811 3.93625
39.8522 28.899 3.89821
37.5109 30.1481 3.88364
35.6976 32.2681 3.86205
31.9123 14.4723 3.98316
34.0909 12.9273 2
35.6912 11.7702 0.0168884
31.1845 11.9781 2
33.0967 11.2111 0.0169058
30.4808 10.0128 0.0154201
45.5302 27.6499 0.00123395
43.7957 24.0385 0.00271182
35.7709 14.7506 0.0173924
41.3409 20.706 0.0182682
38.681 17.5851 0.0189676
33.6053 15.8661 2
35.846 17.4974 2
43.049 26.4757 2
38.4201 20.3128 2
40.9159 23.2665 2
33.5481 17.3743 3.98416
40.4223 25.6139 4.0082
38.0762 22.8421 3.9937
35.5826 20.0616 3.98691
37.4963 37.4952 3.98512
39.2078 37.4864 2
40.9527 37.4866 0.0559777
41.8782 53.0356 0.00462312
40.9189 49.7501 -0.00299457
39.1984 39.1812 0.0359971
39.8034 46.1081 0.117369
37.4933 44.8497 0.115069
37.4917 40.9585 0.051318
35.6933 42.7342 0.136784
39.8221 51.955 2
37.4916 39.1934 2
35.8043 40.9102 2
38.7105 48.7936 2
34.1111 42.3713 2
35.5713 44.6266 2
37.4855 46.4572 2
37.657 51.0516 4.01069
35.7876 39.1966 3.9646
34.1938 40.8228 3.90454
32.9967 42.0233 3.81805
33.8488 43.8669 3.87312
35.1534 46.0988 3.89372
36.8469 48.4118 3.97347
38.729 53.8993 0.00611765
36.7201 53.2545 2
34.3605 52.5055 3.99399
34.4867 58.5414 0.0144466
36.3191 55.4141 0.00733256
33.2238 55.5277 2
30.5151 53.4061 3.98207
30.2952 57.8366 0.0142297
28.6855 55.33 2
26.8764 53.4419 3.97502
26.9416 56.8388 0.019954
25.3052 55.1538 2
23.5674 53.4857 3.96975
20.4615 53.2239 3.96613
19.9268 55.8387 3.97481
21.803 55.3567 2
23.8352 56.8135 0.025521
19.4344 57.8991 3.97788
20.2136 57.038 2
19.7039 60.2124 3.98075
20.6418 58.7918 2
21.3298 57.4094 0.0241015
20.2056 62.8649 3.98442
21.1644 61.1808 2
21.9912 59.6335 0.0196185
20.9362 65.7677 3.98926
21.8933 63.8452 2
22.7341 62.0311 0.0164982
23.6797 64.7164 0.013249
22.8348 66.7393 2
21.9109 68.8731 3.99341
24.8065 67.5951 0.0105425
24.0081 69.8062 2
23.1494 72.1454 4
26.1642 70.605 0.00650583
25.446 73.0099 2
27.7943 73.7221 0
25.8584 9.37721 3.98594
27.0677 6.54034 3.98872
27.8192 8.64844 2
28.4871 3.6438 3.99325
29.1529 5.87564 2
29.8096 7.98972 0.0136793
30.1841 0.720592 4
30.7248 3.09753 2
31.2511 5.33056 0.0105435
32.6053 0.320817 2
32.9798 2.70067 0.00637899
35.0474 0.080333 0
37.4996 35.801 3.97902
39.2043 35.8053 2
40.9103 35.8053 0.0662072
24.7751 12.0653 3.98483
23.7495 14.3496 3.98394
28.5415 10.6878 0.015401
26.6204 11.382 2
29.2233 12.6341 2
27.2894 13.3672 3.98424
29.7781 14.1938 3.9836
35.8091 34.091 3.93557
37.4977 34.0567 2
39.1911 34.1013 0.0646918
37.498 32.1462 0.127866
44.3886 29.7434 0.0511693
41.8766 29.8145 0.0962815
39.4013 30.3967 0.111725
42.3736 28.364 2
39.8674 28.8776 2
37.5116 30.1481 2
35.7029 32.2729 2
40.0448 27.5258 3.93415
37.5224 28.5669 3.89498
35.6042 30.3942 3.88838
34.1207 32.626 3.8465
30.9236 16.8276 3.9836
31.9121 14.4716 2
34.0911 12.9281 0.0175457
31.1846 11.9789 0.0163881
43.0463 26.4727 0.00148215
40.9156 23.2727 0.00194635
33.606 15.8664 0.0175459
35.8471 17.4974 0.0163926
38.4207 20.3137 0.0175251
33.5472 17.3744 2
35.582 20.0611 2
40.4229 25.6086 2
38.0757 22.8409 2
32.8609 19.7787 3.9852
37.8012 25.1522 4.01784
35.2011 22.614 3.99294
35.7824 37.5005 3.97295
37.4962 37.4948 2
39.2141 37.4864 0.0287093
39.8183 51.9521 0.00442057
38.7102 48.7637 0.00825891
37.4903 39.1954 0.0218083
37.4859 46.4373 0.114452
35.5824 44.6121 0.114653
35.7996 40.9164 0.0652491
34.1098 42.3719 0.152056
37.6618 51.0621 2
35.7952 39.1946 2
34.1983 40.8184 2
36.846 48.4282 2
32.9902 42.0276 2
33.8368 43.8772 2
35.1351 46.1136 2
35.4594 50.1826 4.012
34.0929 39.1929 3.9341
32.6403 40.8925 3.84081
32.3743 42.6937 3.87653
33.1259 45.1953 3.90165
34.2637 47.4714 3.94439
36.7199 53.2539 -0.00642797
34.3609 52.5081 2
31.9967 51.2143 3.99759
33.2242 55.5275 0.0117022
30.5143 53.4089 2
28.4219 51.6161 3.97867
28.686 55.3284 0.0205798
26.8757 53.4438 2
25.0721 51.7561 3.96712
25.3056 55.1513 0.0245389
23.5666 53.4869 2
21.9587 51.8063 3.96552
19.1948 51.6368 3.96937
18.9161 54.3119 3.96846
20.4607 53.2236 2
18.4426 56.7301 3.97764
19.9261 55.8397 2
21.8037 55.3554 0.0287224
18.3661 59.1177 3.97762
19.434 57.9001 2
20.2141 57.037 0.0210648
18.6167 61.7715 3.9826
19.7039 60.2135 2
20.6419 58.7906 0.0213776
19.1252 64.6784 3.9883
20.2057 62.866 2
21.1644 61.1797 0.0179899
19.8849 67.8097 3.9933
20.9363 65.7685 2
21.8931 63.8443 0.0139458
22.8347 66.7387 0.0105685
21.9106 68.8733 2
20.9142 71.1327 4
24.0084 69.8061 0.00652994
23.1494 72.1455 2
25.446 73.0099 0
23.0945 12.7798 3.98443
23.9708 10.1636 3.98585
25.0214 7.31046 3.98849
25.8583 9.37655 2
26.2788 4.32803 3.99306
27.0675 6.53965 2
27.8193 8.64928 0.0139037
27.7943 1.27781 4
28.4868 3.6435 2
29.153 5.87627 0.0109006
30.1841 0.720551 2
30.7249 3.09785 0.00656652
32.6053 0.320823 0
35.7914 35.8069 3.96552
37.4988 35.8023 2
39.2116 35.804 0.036594
24.7753 12.0648 2
23.7498 14.3494 2
22.4782 15.0262 3.98336
25.3556 13.899 3.98379
24.0226 15.6116 3.98279
26.6203 11.3826 0.0152739
29.2233 12.635 0.0158686
27.2895 13.3668 2
29.778 14.193 2
28.354 15.967 3.98391
34.2074 34.1837 3.90391
35.8135 34.0974 2
37.4974 34.0502 0.0509451
35.6976 32.2681 0.137945
37.5109 30.1481 0.116364
42.3555 28.3811 0.0637499
39.8522 28.899 0.101792
40.0567 27.5115 2
37.525 28.5459 2
35.5887 30.3816 2
34.1231 32.6254 2
37.6191 27.2053 3.94304
35.1799 28.8873 3.8963
33.8598 31.135 3.87439
33.0157 32.9749 3.81772
30.2053 19.3291 3.98642
30.9232 16.8272 2
31.9123 14.4723 0.0168435
40.4223 25.6139 -0.00820414
38.0762 22.8421 0.00629504
33.5481 17.3743 0.0158424
35.5826 20.0616 0.0130897
32.8597 19.7793 2
35.1979 22.6098 2
37.7894 25.1528 2
32.3086 22.3906 3.99033
34.978 25.141 4.00751
34.0449 37.5009 3.94383
35.7885 37.5 2
37.4963 37.4952 0.0148821
37.657 51.0516 -0.0106916
36.8469 48.4118 0.0265342
35.7876 39.1966 0.0353991
35.1534 46.0988 0.106278
33.8488 43.8669 0.126883
34.1938 40.8228 0.0954581
32.9967 42.0233 0.181948
35.4571 50.1933 2
34.1013 39.1901 2
32.6424 40.8913 2
34.2584 47.5039 2
32.3555 42.7073 2
33.1069 45.2133 2
33.235 49.1732 4.00731
32.3138 39.2838 3.85732
31.2164 41.1727 3.876
31.3648 43.7805 3.89849
32.2419 46.3888 3.94334
34.3605 52.5055 0.00601321
31.9958 51.2209 2
29.8484 49.7294 3.98792
30.5151 53.4061 0.0179349
28.4205 51.614 2
26.5002 49.9968 3.97091
26.8764 53.4419 0.024982
25.071 51.7549 2
23.3354 50.2015 3.97356
23.5674 53.4857 0.0302514
21.9581 51.8057 2
20.4582 50.3205 3.97119
17.9831 50.3337 3.97131
17.8289 52.7933 3.96748
19.1943 51.6366 2
17.4323 55.3448 3.97242
18.9153 54.3124 2
20.4615 53.2239 0.0338735
17.1317 57.879 3.97791
18.4421 56.7311 2
19.9268 55.8387 0.0251878
17.1344 60.5537 3.98011
18.366 59.1189 2
19.4344 57.8991 0.0221226
17.4059 63.4704 3.9864
18.6168 61.7727 2
19.7039 60.2124 0.0192492
17.941 66.6181 3.993
19.1253 64.6792 2
20.2056 62.8649 0.0155814
18.75 69.9759 4
19.8846 67.8098 2
20.9362 65.7677 0.0107441
21.9109 68.8731 0.00658562
20.9142 71.1327 2
23.1494 72.1454 0
21.5854 13.6 3.98388
22.1889 11.0227 3.98553
23.0948 12.7797 2
23.0393 8.17575 3.98838
23.9709 10.1632 2
24.1164 5.14276 3.99287
25.0212 7.30993 2
25.8584 9.37721 0.0140624
25.446 1.99014 4
26.2784 4.32777 2
27.0677 6.54034 0.0112788
27.7943 1.27778 2
28.4871 3.6438 0.00674981
30.1841 0.720592 0
34.0923 35.81 3.93285
35.7966 35.8079 2
37.4996 35.801 0.0209804
21.3033 15.8218 3.98273
24.7751 12.0653 0.0151682
23.7495 14.3496 0.0160605
25.3558 13.8987 2
22.4786 15.0261 2
24.023 15.6115 2
23.2618 16.2432 3.98259
25.3779 16.0796 3.98369
27.2894 13.3672 0.0157588
29.7781 14.1938 0.0163988
28.3541 15.9668 2
27.4371 18.7883 3.98503
32.6653 34.1069 3.84098
34.2131 34.1873 2
35.8091 34.091 0.0644329
34.1207 32.626 0.153497
35.6042 30.3942 0.111617
37.5224 28.5669 0.105018
40.0448 27.5258 0.0658462
37.6197 27.1748 2
33.0082 32.9713 2
35.1646 28.868 2
33.8427 31.1156 2
35.0671 27.3313 3.94821
33.1374 29.8095 3.89638
32.3844 32.2978 3.87313
29.5727 21.9218 3.99513
30.2048 19.3299 2
30.9236 16.8276 0.016396
37.8012 25.1522 -0.0178413
35.2011 22.614 0.00705998
32.8609 19.7787 0.0148017
32.3054 22.3915 2
34.9876 25.1411 2
31.6886 25.6044 4.00125
32.1803 37.5031 3.85692
34.054 37.5009 2
35.7824 37.5005 0.0270509
35.4594 50.1826 -0.0119995
34.2637 47.4714 0.0556073
34.0929 39.1929 0.0659031
33.1259 45.1953 0.0983461
32.3743 42.6937 0.123472
32.6403 40.8925 0.159193
33.2313 49.1626 2
32.3139 39.2809 2
31.1967 41.183 2
32.218 46.4092 2
31.3503 43.7928 2
31.1375 47.9976 3.99596
30.4665 39.4553 3.86731
29.9721 41.9686 3.8956
30.4157 44.9708 3.94744
31.9967 51.2143 0.00240606
29.8468 49.7271 2
27.8645 48.1941 3.97444
28.4219 51.6161 0.0213332
26.4992 49.9952 2
24.6428 48.4815 3.97772
25.0721 51.7561 0.0328788
23.3348 50.2007 2
21.6545 48.7992 3.97177
21.9587 51.8063 0.0344812
20.4577 50.32 2
19.0268 49.0986 3.97329
16.8881 49.3351 3.97271
16.7697 51.4082 3.96936
17.9831 50.3334 2
16.3859 53.8723 3.96949
17.8284 52.7936 2
19.1948 51.6368 0.0306342
15.9733 56.4796 3.97547
17.4317 55.3457 2
18.9161 54.3119 0.0315399
15.7477 59.2138 3.97926
17.1314 57.8801 2
18.4426 56.7301 0.022361
15.7867 62.1402 3.98373
17.1344 60.5549 2
18.3661 59.1177 0.0223751
16.0878 65.3005 3.9923
17.4059 63.4713 2
18.6167 61.7715 0.0173964
16.6661 68.6801 4
17.9407 66.6182 2
19.1252 64.6784 0.0117036
18.75 69.9759 2
19.8849 67.8097 0.00670481
20.9142 71.1327 0
20.2175 14.5888 3.98312
21.5857 13.6 2
20.5282 11.9924 3.98491
21.1422 9.14545 3.98836
22.1891 11.0224 2
23.0945 12.7798 0.0155714
22.0154 6.08171 3.99281
23.0391 8.17538 2
23.9708 10.1636 0.0141464
23.1494 2.85457 4
24.116 5.14262 2
25.0214 7.31046 0.0115078
25.446 1.99012 2
26.2788 4.32803 0.00694371
27.7943 1.27781 0
32.3258 35.7172 3.85596
34.0985 35.8126 2
35.7914 35.8069 0.034481
21.3036 15.8214 2
20.3009 16.9563 3.98258
22.095 16.6275 3.9811
25.3556 13.899 0.0162116
22.4782 15.0262 0.0166384
24.0226 15.6116 0.0172093
25.3782 16.0794 2
23.2622 16.2432 2
24.2015 18.4427 3.98071
27.0103 21.4463 3.98771
28.354 15.967 0.0160923
27.4371 18.7883 2
31.2471 33.8288 3.87625
32.6663 34.1099 2
34.2074 34.1837 0.0960893
33.0157 32.9749 0.182284
33.8598 31.135 0.125613
35.1799 28.8873 0.103703
37.6191 27.2053 0.0569649
35.0507 27.3072 2
32.3722 32.2922 2
33.119 29.7838 2
32.5414 28.0662 3.96712
31.3615 31.2251 3.89872
28.7968 24.3883 3.9856
29.5695 21.924 2
30.2053 19.3291 0.013582
34.978 25.141 -0.00751257
32.3086 22.3906 0.00967401
31.6955 25.5921 2
29.6445 27.2974 3.96845
30.1914 37.4951 3.87014
32.1814 37.5018 2
34.0449 37.5009 0.0561665
33.235 49.1732 -0.00731006
32.2419 46.3888 0.0566565
32.3138 39.2838 0.142681
31.3648 43.7805 0.101505
31.2164 41.1727 0.123997
31.1366 47.9977 2
30.4525 39.4657 2
29.9576 41.9813 2
30.3936 44.9847 2
29.1752 46.5914 3.99999
29.0681 39.8572 3.89767
28.6932 43.1827 3.95364
29.8484 49.7294 0.0120836
27.8634 48.1893 2
25.9429 46.6735 3.97652
26.5002 49.9968 0.0290869
24.6421 48.4799 2
22.8096 47.09 3.97711
23.3354 50.2015 0.0264376
21.6539 48.7985 2
19.9749 47.6268 3.97682
20.4582 50.3205 0.0288052
19.0275 49.0982 2
17.665 48.1831 3.97467
16.1383 48.6858 3.97362
16.8884 49.3349 2
15.847 50.1716 3.97186
15.3763 52.416 3.96992
16.7696 51.4082 2
17.9831 50.3337 0.0286877
14.8662 54.9789 3.97241
16.3854 53.8729 2
17.8289 52.7933 0.0325227
14.457 57.7422 3.97796
15.9728 56.4807 2
17.4323 55.3448 0.0275838
14.265 60.694 3.98229
15.7476 59.2151 2
17.1317 57.879 0.0220897
14.3323 63.8596 3.99113
15.7866 62.1412 2
17.1344 60.5537 0.01989
14.6715 67.2507 4
16.0874 65.3004 2
17.4059 63.4704 0.0135989
16.6661 68.6801 2
17.941 66.6181 0.00699712
18.75 69.9759 0
18.9315 15.7764 3.9821
20.2177 14.5886 2
18.978 13.1033 3.98406
21.5854 13.6 0.0161182
20.5285 11.9923 2
19.3416 10.2332 3.98812
19.9899 7.14636 3.9928
21.1422 9.14513 2
22.1889 11.0227 0.0144743
20.9142 3.86727 4
22.0149 6.08173 2
23.0393 8.17575 0.0116216
23.1494 2.85451 2
24.1164 5.14276 0.00712979
25.446 1.99014 0
30.4912 35.5511 3.87158
32.3274 35.7197 2
34.0923 35.81 0.0671456
21.3033 15.8218 0.0172674
22.0953 16.6272 2
20.3011 16.9556 2
19.2406 18.4037 3.98064
21.7795 17.8442 3.98157
25.3779 16.0796 0.0163084
23.2618 16.2432 0.0174057
24.2017 18.4428 2
22.2751 19.8871 3.9775
24.5879 21.3152 3.9823
26.4142 23.711 3.97722
27.0091 21.4467 2
27.4371 18.7883 0.014971
29.9926 33.0306 3.89595
31.2209 33.8065 2
32.6653 34.1069 0.159023
32.3844 32.2978 0.126871
33.1374 29.8095 0.103617
35.0671 27.3313 0.0517932
32.5335 28.0569 2
31.3632 31.2177 2
30.1189 29.5272 3.96229
27.8832 26.5303 3.9734
28.7991 24.3958 2
29.5727 21.9218 0.00486917
31.6886 25.6044 -0.00125258
29.6408 27.2591 2
28.7361 37.5101 3.90299
30.184 37.497 2
32.1803 37.5031 0.143078
31.1375 47.9976 0.00403917
30.4157 44.9708 0.0525594
30.4665 39.4553 0.132693
29.9721 41.9686 0.104395
29.1747 46.6057 2
29.0507 39.8689 2
28.6758 43.1949 2
27.2814 44.8705 3.98727
26.8376 40.5993 3.9725
27.8645 48.1941 0.0255616
25.9412 46.6756 2
24.0128 45.2282 3.97891
24.6428 48.4815 0.022279
22.8094 47.089 2
20.9373 45.9045 3.97895
21.6545 48.7992 0.0282291
19.9764 47.6262 2
18.316 46.7428 3.97687
19.0268 49.0986 0.0267088
17.6647 48.1829 2
16.3285 47.7161 3.97429
16.1386 48.6857 2
15.1929 49.0169 3.97299
16.8881 49.3351 0.0272908
15.8472 50.1714 2
14.4903 50.9849 3.97121
13.8294 53.4342 3.97147
15.3761 52.4163 2
16.7697 51.4082 0.0306438
13.2529 56.1687 3.97548
14.8658 54.9797 2
16.3859 53.8723 0.0305133
12.8474 59.1273 3.98162
14.4568 57.7433 2
15.9733 56.4796 0.0245313
12.6779 62.302 3.98924
14.2648 60.6949 2
15.7477 59.2138 0.0207437
12.7746 65.6939 4
14.3317 63.8594 2
15.7867 62.1402 0.016265
14.6714 67.2507 2
16.0878 65.3005 0.00769661
16.6661 68.6801 0
17.6659 17.1524 3.98064
18.9316 15.776 2
17.5097 14.3682 3.98279
20.2175 14.5888 0.0168848
18.9783 13.1029 2
17.6373 11.4521 3.9873
20.5282 11.9924 0.0150887
19.3417 10.2329 2
18.0501 8.33923 3.99271
18.75 5.0241 4
19.9895 7.14652 2
21.1422 9.14545 0.0116437
20.9142 3.86727 2
22.0154 6.08171 0.00718757
23.1494 2.85457 0
29.0859 35.1211 3.89788
30.4736 35.5398 2
32.3258 35.7172 0.144042
22.095 16.6275 0.0188952
20.3009 16.9563 0.0174202
21.7797 17.8437 2
19.2408 18.403 2
17.9778 19.9372 3.97788
20.8733 19.3734 3.98001
24.2015 18.4427 0.0192915
22.2753 19.8866 2
24.5876 21.3164 2
22.3542 21.7138 3.97991
24.6919 23.1611 3.9748
25.4649 25.9394 3.96574
26.4172 23.7116 2
27.0103 21.4463 0.0122892
28.3648 32.3135 3.94513
29.9762 33.0236 2
31.2471 33.8288 0.123748
31.3615 31.2251 0.101278
32.5414 28.0662 0.0328769
30.0981 29.5133 2
27.0332 29.1235 3.99785
27.8799 26.5277 2
28.7968 24.3883 0.0143993
29.6445 27.2974 0.0315528
26.965 37.3684 3.95839
28.7154 37.5033 2
30.1914 37.4951 0.12986
29.1752 46.5914 1.04523e-05
28.6932 43.1827 0.0463588
29.0681 39.8572 0.102332
27.2811 44.8799 2
26.826 40.6128 2
25.2899 43.1815 3.97008
24.0854 39.4276 3.97934
25.9429 46.6735 0.0234789
24.0061 45.2284 2
21.915 43.9608 3.97838
22.8096 47.09 0.0228895
20.9397 45.9039 2
18.9803 44.9751 3.97804
19.9749 47.6268 0.0231764
18.3157 46.7425 2
16.62 46.2152 3.97452
17.665 48.1831 0.0253262
16.3284 47.716 2
14.9217 47.6717 3.97275
16.1383 48.6858 0.0263848
15.1931 49.0168 2
13.788 49.5465 3.97206
15.847 50.1716 0.0281419
14.4904 50.9849 2
12.8968 51.8734 3.97161
12.1415 54.5265 3.97403
13.8293 53.4347 2
15.3763 52.416 0.0300843
11.5324 57.4588 3.97989
13.2526 56.1698 2
14.8662 54.9789 0.0275935
11.1326 60.6279 3.9878
12.8472 59.1282 2
14.457 57.7422 0.0220398
10.9835 64.0165 4
12.6773 62.3014 2
14.265 60.694 0.017711
12.7745 65.694 2
14.3323 63.8596 0.00887013
14.6715 67.2507 0
16.3988 18.6473 3.97904
17.6659 17.1518 2
16.1008 15.7776 3.98212
18.9315 15.7764 0.0178988
17.51 14.3675 2
16.0192 12.8059 3.9853
18.978 13.1033 0.0159394
17.6375 11.4516 2
16.2012 9.66233 3.99253
19.3416 10.2332 0.0118777
18.0497 8.3395 2
16.6661 6.31991 4
18.75 5.02404 2
19.9899 7.14636 0.00720414
20.9142 3.86727 0
27.4783 34.7669 3.94409
29.0634 35.1109 2
30.4912 35.5511 0.128419
16.6801 21.3751 3.97366
21.7795 17.8442 0.0184292
19.2406 18.4037 0.019358
20.8735 19.3728 2
17.978 19.9364 2
19.7215 21.5692 3.98033
22.2751 19.8871 0.0225035
24.5879 21.3152 0.0176954
22.3544 21.7134 2
24.6931 23.1615 2
22.8436 24.5976 3.97091
24.5753 28.5221 3.96978
25.4619 25.9383 2
26.4142 23.711 0.0227838
26.2059 31.6945 3.99109
28.3481 32.3 2
29.9926 33.0306 0.104046
30.1189 29.5272 0.0377116
27.0408 29.1228 2
27.8832 26.5303 0.0266044
24.7878 36.8554 3.9855
26.9494 37.3688 2
28.7361 37.5101 0.0970089
27.2814 44.8705 0.0127294
26.8376 40.5993 0.0275
25.2828 43.1856 2
24.0756 39.4276 2
22.9917 41.8028 3.98055
21.8028 38.5027 3.97678
24.0128 45.2282 0.0210917
21.9157 43.9606 2
19.7502 42.8922 3.97814
20.9373 45.9045 0.0210488
18.9796 44.975 2
16.9564 44.3821 3.97434
18.316 46.7428 0.0231274
16.6199 46.2151 2
14.8419 46.0919 3.97216
16.3285 47.7161 0.0257098
14.9218 47.6717 2
13.2944 48.0094 3.97169
15.1929 49.0169 0.0270107
13.7882 49.5465 2
12.1159 50.2523 3.97185
14.4903 50.9849 0.0287869
12.8969 51.8735 2
11.1377 52.8355 3.97348
10.3236 55.7103 3.97828
12.1414 54.5272 2
13.8294 53.4342 0.0285304
9.69937 58.85 3.98626
11.5321 57.4597 2
13.2529 56.1687 0.0245213
9.30605 62.2254 4
11.1317 60.627 2
12.8474 59.1273 0.018382
10.9835 64.0165 2
12.6779 62.302 0.010761
12.7746 65.6939 0
15.1454 20.1835 3.97516
16.3989 18.6465 2
14.7467 17.3009 3.98015
17.6659 17.1524 0.0193606
16.101 15.7767 2
14.4819 14.2882 3.98383
17.5097 14.3682 0.0172107
16.0194 12.8052 2
14.4441 11.1135 3.99193
17.6373 11.4521 0.0126963
16.2009 9.66262 2
14.6715 7.74927 4
18.0501 8.33923 0.00728673
16.6661 6.31988 2
18.75 5.0241 0
25.4302 34.2602 3.98819
27.4614 34.7615 2
29.0859 35.1211 0.102119
17.8548 22.3209 3.98239
15.5278 22.9195 3.97028
16.6803 21.3743 2
20.8733 19.3734 0.0199881
17.9778 19.9372 0.0221223
19.7217 21.5686 2
19.664 24.3784 3.96992
22.3542 21.7138 0.0200885
24.6919 23.1611 0.025201
22.8438 24.5966 2
21.9425 27.8186 3.97088
23.7728 31.1821 3.97409
24.58 28.5216 2
25.4649 25.9394 0.0342611
26.2026 31.6871 2
28.3648 32.3135 0.0548713
27.0332 29.1235 0.00215366
22.5371 36.2745 3.97729
24.7734 36.8543 2
26.965 37.3684 0.0416088
25.2899 43.1815 0.0299222
24.0854 39.4276 0.0206609
22.9885 41.8014 2
21.7993 38.5027 2
20.7286 40.634 3.97715
20.1399 37.7824 3.97662
21.915 43.9608 0.0216159
19.751 42.8923 2
17.3772 42.1016 3.97461
18.9803 44.9751 0.0219627
16.9564 44.382 2
14.8477 44.2013 3.97196
16.62 46.2152 0.0254819
14.8418 46.0919 2
12.9652 46.2966 3.971
14.9217 47.6717 0.0272524
13.2945 48.0095 2
11.4871 48.5498 3.97154
13.788 49.5465 0.027938
12.1162 50.2524 2
10.2638 51.0794 3.97318
12.8968 51.8734 0.0283858
11.1379 52.8357 2
9.23294 53.8885 3.97745
8.38315 56.9823 3.98507
10.3236 55.7108 2
12.1415 54.5265 0.0259709
7.74927 60.3285 4
9.69833 58.8485 2
11.5324 57.4588 0.0201138
9.306 62.2255 2
11.1326 60.6279 0.0122029
10.9835 64.0165 0
13.9592 21.7514 3.97168
15.1455 20.1826 2
13.4483 18.8991 3.97742
16.3988 18.6473 0.0209563
14.7468 17.2998 2
13.0274 15.8813 3.98289
16.1008 15.7776 0.0178775
14.482 14.2873 2
12.7816 12.6868 3.99063
16.0192 12.8059 0.0146998
14.4437 11.1138 2
12.7746 9.30605 4
16.2012 9.66233 0.00747249
14.6715 7.74924 2
16.6661 6.31991 0
23.1059 33.7966 3.97621
25.4142 34.2577 2
27.4783 34.7669 0.0559072
17.6283 24.0402 3.97193
17.855 22.3201 2
14.3116 24.45 3.97081
15.528 22.9189 2
16.6801 21.3751 0.0263403
19.0526 27.199 3.97031
19.7215 21.5692 0.0196664
19.6639 24.3781 2
21.2043 30.6589 3.97199
22.8436 24.5976 0.0290917
21.9438 27.8184 2
23.7647 31.1824 2
24.5753 28.5221 0.030218
26.2059 31.6945 0.00890656
20.2783 35.9206 3.97603
22.5357 36.2746 2
24.7878 36.8554 0.014497
22.9917 41.8028 0.019447
21.8028 38.5027 0.0232161
20.7263 40.6341 2
20.1378 37.7824 2
18.1054 39.001 3.97505
19.7502 42.8922 0.0218643
17.3769 42.1015 2
14.8152 41.9182 3.97237
16.9564 44.3821 0.0256609
14.8476 44.2012 2
12.7052 44.3926 3.97031
14.8419 46.0919 0.0278375
12.9652 46.2967 2
10.9881 46.7341 3.97091
13.2944 48.0094 0.028306
11.4872 48.5499 2
9.52711 49.2397 3.97271
12.1159 50.2523 0.0281466
10.264 51.0795 2
8.26617 52.0016 3.97686
11.1377 52.8355 0.0265196
9.23319 53.8884 2
7.19228 55.0321 3.98479
6.31991 58.3339 4
8.38225 56.98 2
10.3236 55.7103 0.0217167
7.74924 60.3285 2
9.69937 58.85 0.0137407
9.30605 62.2254 0
13.229 25.3618 3.97218
12.828 23.282 3.97083
13.9595 21.7507 2
12.2348 20.5491 3.97541
15.1454 20.1835 0.0248444
13.4484 18.8979 2
11.6575 17.5628 3.98149
14.7467 17.3009 0.019851
13.0274 15.8803 2
11.2191 14.3718 3.98888
14.4819 14.2882 0.0161655
12.7812 12.6872 2
10.9835 10.9835 4
14.4441 11.1135 0.00807322
12.7745 9.306 2
14.6715 7.74927 0
20.644 33.3915 3.97443
23.1089 33.7967 2
25.4302 34.2602 0.0118148
15.9048 26.3974 3.97051
17.6284 24.0397 2
17.8548 22.3209 0.0176132
14.3117 24.4497 2
15.5278 22.9195 0.0297152
18.4061 30.1689 3.97252
19.0518 27.1988 2
19.664 24.3784 0.0300785
21.2082 30.6589 2
21.9425 27.8186 0.0291192
23.7728 31.1821 0.0259107
17.7396 35.9622 3.97511
20.2801 35.9207 2
22.5371 36.2745 0.0227058
20.7286 40.634 0.0228504
20.1399 37.7824 0.0233791
18.106 39.001 2
14.346 39.1756 3.97296
17.3772 42.1016 0.0253942
14.8151 41.9182 2
12.3995 42.2767 3.97031
14.8477 44.2013 0.0280355
12.7052 44.3926 2
10.5651 44.8029 3.97017
12.9652 46.2966 0.0290006
10.9881 46.7342 2
8.90926 47.3193 3.97217
11.4871 48.5498 0.0284567
9.52728 49.2397 2
7.43331 50.035 3.9762
10.2638 51.0794 0.0268198
8.26645 52.0013 2
6.13299 53.0067 3.98502
9.23294 53.8885 0.0225456
7.19175 55.0296 2
5.0241 56.25 4
6.31988 58.3339 2
8.38315 56.9823 0.0149314
7.74927 60.3285 0
13.4657 26.8134 3.97029
11.941 24.7885 3.97269
13.2293 25.3616 2
11.1396 22.2349 3.97302
12.8283 23.2815 2
13.9592 21.7514 0.0283195
12.2352 20.5481 2
10.3883 19.3182 3.97977
13.4483 18.8991 0.0225839
11.6575 17.5617 2
9.76007 16.1556 3.98721
13.0274 15.8813 0.0171104
11.2185 14.3724 2
9.30607 12.7746 4
12.7816 12.6868 0.00937158
10.9835 10.9835 2
12.7746 9.30605 0
17.9013 33.1079 3.97423
20.6452 33.3916 2
23.1059 33.7966 0.0237892
15.5027 29.6337 3.97171
15.9038 26.397 2
17.6283 24.0402 0.0280693
14.3116 24.45 0.0291856
18.4076 30.169 2
19.0526 27.199 0.0296935
21.2043 30.6589 0.0280081
14.9527 36.0169 3.9735
17.7401 35.9622 2
20.2783 35.9206 0.0239685
12.6234 37.8287 3.97277
18.1054 39.001 0.02495
14.3462 39.1755 2
11.9221 40.1402 3.97101
14.8152 41.9182 0.0276325
12.3992 42.2766 2
10.1651 42.778 3.96956
12.7052 44.3926 0.0296882
10.565 44.803 2
8.38722 45.3214 3.97141
10.9881 46.7341 0.029092
8.90931 47.3193 2
6.7246 48.0004 3.97574
9.52711 49.2397 0.0272934
7.43348 50.0347 2
5.20992 50.9098 3.98502
8.26617 52.0016 0.0231395
6.13271 53.0046 2
3.86727 54.0858 4
7.19228 55.0321 0.0152138
5.02404 56.25 2
6.31991 58.3339 0
12.9219 29.0316 3.97027
11.3704 26.487 3.97102
13.4654 26.8131 2
10.1991 23.9683 3.97261
11.9413 24.7881 2
13.229 25.3618 0.0278164
9.24156 21.1381 3.97744
11.1401 22.2342 2
12.828 23.282 0.029173
12.2348 20.5491 0.0245937
10.3885 19.3174 2
8.41602 18.0272 3.98598
11.6575 17.5628 0.0185114
9.75925 16.1567 2
7.74928 14.6715 4
11.2191 14.3718 0.011125
9.30602 12.7745 2
10.9835 10.9835 0
14.514 32.8605 3.97279
17.9026 33.1079 2
20.644 33.3915 0.0255688
15.5028 29.6335 2
15.9048 26.3974 0.0294931
18.4061 30.1689 0.0274785
12.9176 36.2083 3.97208
14.9531 36.0169 2
17.7396 35.9622 0.0248902
12.6236 37.8286 2
11.2788 38.3095 3.97154
14.346 39.1756 0.0270382
11.9222 40.1402 2
9.75235 40.7544 3.96947
12.3995 42.2767 0.0296907
10.1652 42.7781 2
7.93726 43.27 3.97024
10.5651 44.8029 0.0298285
8.3872 45.3214 2
6.13093 45.9057 3.9752
8.90926 47.3193 0.0278348
6.72464 48.0002 2
4.42158 48.7508 3.98483
7.43331 50.035 0.0238044
5.20975 50.9086 2
2.85457 51.8506 4
6.13299 53.0067 0.0149782
3.86727 54.0858 2
5.0241 56.25 0
12.0678 31.2551 3.97109
10.7824 28.4142 3.96984
12.9217 29.0314 2
9.41375 25.7982 3.97233
11.3704 26.4866 2
13.4657 26.8134 0.0297121
8.22923 23.0235 3.97623
10.1996 23.9679 2
11.941 24.7885 0.0273108
7.19843 19.9781 3.98485
9.2421 21.1377 2
11.1396 22.2349 0.0269815
10.3883 19.3182 0.0202278
8.41532 18.0291 2
6.31992 16.6661 4
9.76007 16.1556 0.012794
7.74926 14.6714 2
9.30607 12.7746 0
12.1026 34.2939 3.97213
14.5136 32.8605 2
17.9013 33.1079 0.0257677
15.5027 29.6337 0.0282874
10.8421 36.6108 3.97133
12.9178 36.2082 2
14.9527 36.0169 0.0265021
12.6234 37.8287 0.0272275
11.2789 38.3094 2
9.34855 38.8235 3.96975
11.9221 40.1402 0.0289949
9.75258 40.7544 2
7.54949 41.2112 3.96972
10.1651 42.778 0.0304438
7.93727 43.27 2
5.64344 43.7686 3.97433
8.38722 45.3214 0.0285949
6.13091 45.9054 2
3.76733 46.5369 3.98434
6.7246 48.0004 0.0242636
4.42149 48.7502 2
1.99014 49.554 4
5.20992 50.9098 0.014979
2.85451 51.8506 2
3.86727 54.0858 0
10.9252 32.9184 3.97158
10.0954 30.3816 3.96972
12.0678 31.2551 2
8.7219 27.7317 3.97145
10.7824 28.414 2
12.9219 29.0316 0.0297306
7.35473 24.9825 3.97584
9.41392 25.7978 2
11.3704 26.487 0.0289837
6.11557 22.0024 3.98454
8.22976 23.0234 2
10.1991 23.9683 0.0273946
5.02411 18.75 4
7.19812 19.9802 2
9.24156 21.1381 0.0225556
8.41602 18.0272 0.0140198
6.3199 16.6661 2
7.74928 14.6715 0
10.4495 34.9996 3.97114
12.1028 34.2938 2
14.514 32.8605 0.0272103
9.01928 36.9849 3.96993
10.8425 36.6107 2
12.9176 36.2083 0.0279155
11.2788 38.3095 0.0284607
9.34859 38.8234 2
7.23021 39.182 3.96982
9.75235 40.7544 0.0305308
7.54967 41.2112 2
5.25949 41.6142 3.97322
7.93726 43.27 0.0297591
5.64345 43.7684 2
3.24528 44.282 3.98359
6.13093 45.9057 0.0248018
3.76733 46.5367 2
1.27781 47.2057 4
4.42158 48.7508 0.015173
1.99012 49.554 2
2.85457 51.8506 0
10.0912 33.881 3.97118
9.38842 32.1541 3.97032
10.9252 32.9183 2
8.0714 29.6953 3.97088
10.0954 30.3814 2
12.0678 31.2551 0.0289125
6.5986 27.0085 3.97521
8.72192 27.7315 2
10.7824 28.4142 0.0301552
5.17092 24.0955 3.98483
7.35499 24.9824 2
9.41375 25.7982 0.0276726
3.86728 20.9142 4
6.11551 22.004 2
8.22923 23.0235 0.0237684
5.02406 18.75 2
7.19843 19.9781 0.0151548
6.31992 16.6661 0
8.84469 35.2793 3.97024
10.4496 34.9996 2
12.1026 34.2939 0.027869
7.01396 37.2058 3.96997
9.01918 36.9848 2
10.8421 36.6108 0.0286747
9.34855 38.8235 0.0302521
7.23027 39.1819 2
4.98759 39.4675 3.97293
7.54949 41.2112 0.0302798
5.25967 41.6139 2
2.85605 42.0024 3.98269
5.64344 43.7686 0.0256744
3.24531 44.2819 2
0.720592 44.8159 4
3.76733 46.5369 0.015656
1.27778 47.2057 2
1.99014 49.554 0
8.88486 33.6976 3.97081
10.0913 33.881 2
7.50904 31.6089 3.97118
9.38838 32.154 2
10.9252 32.9184 0.0284156
5.94406 29.0695 3.97471
8.07133 29.6952 2
10.0954 30.3816 0.0302805
4.35872 26.248 3.98452
6.59867 27.0085 2
8.7219 27.7317 0.0285541
2.85458 23.1494 4
5.17089 24.0963 2
7.35473 24.9825 0.0241613
3.86728 20.9142 2
6.11557 22.0024 0.0154615
5.02411 18.75 0
6.9642 35.3059 3.97013
8.8449 35.2792 2
10.4495 34.9996 0.0288642
4.83772 37.3399 3.97329
7.01405 37.2057 2
9.01928 36.9849 0.0300717
7.23021 39.182 0.0301839
4.98765 39.4674 2
2.60431 39.7141 3.98215
5.25949 41.6142 0.0267815
2.85626 42.0026 2
0.320823 42.3947 4
3.24528 44.282 0.0164053
0.720551 44.8159 2
1.27781 47.2057 0
7.12334 33.4607 3.97103
8.88493 33.6974 2
10.0912 33.881 0.0288172
5.41516 31.1334 3.97461
7.50896 31.6088 2
9.38842 32.1541 0.0296818
3.68062 28.4437 3.98392
5.944 29.0695 2
8.0714 29.6953 0.0291216
1.99015 25.446 4
4.35872 26.2482 2
6.5986 27.0085 0.0247854
2.85453 23.1494 2
5.17092 24.0955 0.0151678
3.86728 20.9142 0
4.85202 35.2516 3.97332
6.96439 35.3058 2
8.84469 35.2793 0.0297614
2.4957 37.4287 3.98252
4.8378 37.3399 2
7.01396 37.2058 0.0300322
4.98759 39.4675 0.0270727
2.60441 39.7144 2
0.080333 39.9526 4
2.85605 42.0024 0.0173096
0.320817 42.3947 2
0.720592 44.8159 0
5.04491 33.1901 3.97418
7.12341 33.4607 2
8.88486 33.6976 0.0291927
3.14508 30.6662 3.98334
5.41507 31.1335 2
7.50904 31.6089 0.0288221
1.27793 27.7943 4
3.68063 28.4437 2
5.94406 29.0695 0.0252852
1.99013 25.446 2
4.35872 26.248 0.0154776
2.85458 23.1494 0
2.54783 35.1591 3.9826
4.85221 35.2517 2
6.9642 35.3059 0.029866
0 37.5 4
2.49584 37.4289 2
4.83772 37.3399 0.0267117
2.60431 39.7141 0.0178487
0.0802903 39.9526 2
0.320823 42.3947 0
2.76525 32.9058 3.98303
5.04498 33.1902 2
7.12334 33.4607 0.0289671
0.721173 30.1842 4
3.14511 30.6664 2
5.41516 31.1334 0.0253915
1.27779 27.7943 2
3.68062 28.4437 0.0160819
1.99015 25.446 0
0.0806499 35.0474 4
2.54804 35.1594 2
4.85202 35.2516 0.0266752
0 37.5 2
2.4957 37.4287 0.0174819
0.080333 39.9526 0
0.32156 32.6054 4
2.76537 32.9062 2
5.04491 33.1901 0.0258173
0.72056 30.1841 2
3.14508 30.6662 0.0166577
1.27793 27.7943 0
0.0802889 35.0474 2
2.54783 35.1591 0.0173955
0 37.5 0
0.320817 32.6053 2
2.76525 32.9058 0.0169722
0.721173 30.1842 0
0.0806499 35.0474 0
0.32156 32.6054 0
CELLS 1910 17190
8 18 6 25 56 2 0 5 16
8 57 23 6 18 17 4 0 2
8 78 36 9 29 31 11 1 7
8 31 11 1 7 79 37 10 30
8 110 57 18 50 48 17 2 14
8 50 18 56 111 14 2 16 49
8 116 62 22 55 52 20 3 15
8 56 25 67 118 16 5 24 53
8 119 63 23 57 54 21 4 17
8 55 22 63 119 15 3 21 54
8 58 26 68 121 18 6 25 56
8 122 65 26 58 57 23 6 18
8 73 31 7 27 142 79 30 71
8 143 78 29 72 73 31 7 27
8 83 147 76 34 32 74 28 8
8 84 148 78 36 33 75 29 9
8 76 34 8 28 148 84 33 75
8 37 79 150 86 10 30 77 35
8 151 87 36 78 80 38 11 31
8 80 38 11 31 152 88 37 79
8 175 100 42 94 96 44 12 40
8 44 96 176 101 12 40 95 43
8 101 176 98 46 43 95 41 13
8 46 98 178 103 13 41 97 45
8 178 103 45 97 147 83 32 74
8 189 116 55 109 106 52 15 47
8 111 56 118 191 49 16 53 107
8 192 119 57 110 108 54 17 48
8 109 55 119 192 47 15 54 108
8 194 122 58 112 110 57 18 50
8 112 58 121 195 50 18 56 111
8 115 61 19 51 197 124 59 113
8 115 61 125 198 51 19 60 114
8 198 125 62 116 114 60 20 52
8 200 127 64 120 116 62 22 55
8 118 67 132 202 53 24 66 117
8 121 68 133 203 56 25 67 118
8 120 64 128 204 55 22 63 119
8 204 128 65 122 119 63 23 57
8 206 134 68 121 123 69 26 58
8 123 69 26 58 207 131 65 122
8 226 147 74 138 140 76 28 70
8 229 148 75 139 143 78 29 72
8 140 76 28 70 229 148 75 139
8 142 79 30 71 231 150 77 141
8 144 80 31 73 232 152 79 142
8 233 151 78 143 144 80 31 73
8 150 86 35 77 235 154 81 145
8 235 154 81 145 146 82 39 91
8 146 82 39 91 236 155 90 165
8 238 157 83 147 149 85 34 76
8 239 158 84 148 151 87 36 78
8 149 85 34 76 239 158 84 148
8 152 88 37 79 241 160 86 150
8 242 161 87 151 153 89 38 80
8 153 89 38 80 243 162 88 152
8 171 98 41 92 265 178 97 169
8 265 178 97 169 226 147 74 138
8 172 96 40 93 266 176 95 170
8 266 176 95 170 171 98 41 92
8 269 175 94 173 172 96 40 93
8 271 180 99 174 175 100 42 94
8 197 124 59 113 271 180 99 174
8 272 181 100 175 177 102 44 96
8 273 182 101 176 179 104 46 98
8 177 102 44 96 273 182 101 176
8 179 104 46 98 275 184 103 178
8 275 184 103 178 238 157 83 147
8 188 115 51 105 283 197 113 186
8 188 115 198 284 105 51 114 187
8 284 198 116 189 187 114 52 106
8 286 200 120 193 189 116 55 109
8 191 118 202 288 107 53 117 190
8 195 121 203 289 111 56 118 191
8 193 120 204 290 109 55 119 192
8 290 204 122 194 192 119 57 110
8 196 123 58 112 292 207 122 194
8 293 206 121 195 196 123 58 112
8 199 126 61 115 297 211 124 197
8 298 212 127 200 198 125 62 116
8 199 126 212 298 115 61 125 198
8 205 129 64 120 300 214 127 200
8 301 217 130 201 202 132 66 117
8 209 136 168 264 301 217 130 201
8 302 219 132 202 203 133 67 118
8 303 220 133 203 206 134 68 121
8 205 129 215 304 120 64 128 204
8 304 215 131 207 204 128 65 122
8 306 221 134 206 208 135 69 123
8 208 135 69 123 307 218 131 207
8 210 137 167 263 309 223 136 209
8 328 238 147 226 230 149 76 140
8 228 146 91 166 329 236 165 260
8 231 150 77 141 330 235 145 227
8 330 235 145 227 228 146 91 166
8 332 239 148 229 233 151 78 143
8 230 149 76 140 332 239 148 229
8 232 152 79 142 334 241 150 231
8 234 153 80 144 335 243 152 232
8 336 242 151 233 234 153 80 144
8 236 155 90 165 338 245 164 259
8 241 160 86 150 339 246 154 235
8 339 246 154 235 237 156 82 146
8 237 156 82 146 340 247 155 236
8 342 249 157 238 240 159 85 149
8 343 250 158 239 242 161 87 151
8 240 159 85 149 343 250 158 239
8 243 162 88 152 345 252 160 241
8 244 163 253 346 153 89 161 242
8 244 163 89 153 347 254 162 243
8 311 224 261 371 210 137 167 263
8 263 167 262 372 209 136 168 264
8 267 179 98 171 375 275 178 265
8 375 275 178 265 328 238 147 226
8 376 273 176 266 267 179 98 171
8 268 177 96 172 376 273 176 266
8 379 272 175 269 268 177 96 172
8 380 271 174 270 269 175 94 173
8 283 197 113 186 380 271 174 270
8 381 277 180 271 272 181 100 175
8 297 211 124 197 381 277 180 271
8 382 278 181 272 274 183 102 177
8 274 183 102 177 383 279 182 273
8 383 279 182 273 276 185 104 179
8 385 281 184 275 342 249 157 238
8 276 185 104 179 385 281 184 275
8 285 199 115 188 393 297 197 283
8 394 298 200 286 284 198 116 189
8 285 199 298 394 188 115 198 284
8 291 205 120 193 396 300 200 286
8 397 301 201 287 288 202 117 190
8 295 209 264 374 397 301 201 287
8 398 302 202 288 289 203 118 191
8 399 303 203 289 293 206 121 195
8 291 205 304 400 193 120 204 290
8 400 304 207 292 290 204 122 194
8 294 208 123 196 402 307 207 292
8 403 306 206 293 294 208 123 196
8 296 210 263 373 405 309 209 295
8 408 312 213 299 297 211 126 199
8 299 213 313 409 199 126 212 298
8 409 313 214 300 298 212 127 200
8 305 216 129 205 411 315 214 300
8 412 318 217 301 302 219 132 202
8 309 223 136 209 412 318 217 301
8 413 320 219 302 303 220 133 203
8 306 221 321 414 206 134 220 303
8 307 218 131 207 415 316 215 304
8 305 216 316 415 205 129 215 304
8 417 322 221 306 308 222 135 208
8 308 222 135 208 418 319 218 307
8 310 225 137 210 420 325 223 309
8 423 326 224 311 310 225 137 210
8 329 236 165 260 441 338 259 368
8 442 342 238 328 333 240 149 230
8 331 237 146 228 443 340 236 329
8 334 241 150 231 444 339 235 330
8 444 339 235 330 331 237 146 228
8 446 343 239 332 336 242 151 233
8 333 240 149 230 446 343 239 332
8 335 243 152 232 448 345 241 334
8 337 244 153 234 449 347 243 335
8 337 244 346 450 234 153 242 336
8 338 245 164 259 452 349 258 367
8 340 247 155 236 453 350 245 338
8 345 252 160 241 454 351 246 339
8 454 351 246 339 341 248 156 237
8 341 248 156 237 455 352 247 340
8 240 159 251 344 342 249 354 457
8 242 161 253 346 343 250 355 458
8 343 250 355 458 240 159 251 344
8 347 254 162 243 460 357 252 345
8 348 255 358 461 244 163 253 346
8 348 255 163 244 462 359 254 347
8 473 360 257 365 363 256 364 482
8 452 349 258 367 365 257 366 485
8 422 324 369 488 311 224 261 371
8 371 261 370 490 263 167 262 372
8 407 311 371 491 296 210 263 373
8 373 263 372 492 295 209 264 374
8 493 385 275 375 442 342 238 328
8 377 276 179 267 493 385 275 375
8 378 274 177 268 494 383 273 376
8 494 383 273 376 377 276 179 267
8 497 382 272 379 378 274 177 268
8 498 381 271 380 379 272 175 269
8 393 297 197 283 498 381 271 380
8 499 387 277 381 382 278 181 272
8 408 312 211 297 499 387 277 381
8 500 388 278 382 384 280 183 274
8 501 389 279 383 386 282 185 276
8 384 280 183 274 501 389 279 383
8 386 282 185 276 503 391 281 385
8 503 391 281 385 457 354 249 342
8 511 408 299 395 393 297 199 285
8 395 299 409 512 285 199 298 394
8 512 409 300 396 394 298 200 286
8 401 305 205 291 514 411 300 396
8 515 412 301 397 398 302 202 288
8 405 309 209 295 515 412 301 397
8 516 413 302 398 399 303 203 289
8 403 306 414 517 293 206 303 399
8 402 307 207 292 518 415 304 400
8 401 305 415 518 291 205 304 400
8 404 308 208 294 520 418 307 402
8 521 417 306 403 404 308 208 294
8 406 310 210 296 523 420 309 405
8 526 423 311 407 406 310 210 296
8 410 314 213 299 527 424 312 408
8 528 425 315 411 409 313 214 300
8 410 314 425 528 299 213 313 409
8 416 317 216 305 530 427 315 411
8 531 430 318 412 413 320 219 302
8 420 325 223 309 531 430 318 412
8 532 432 320 413 414 321 220 303
8 417 322 433 533 306 221 321 414
8 418 319 218 307 534 428 316 415
8 416 317 428 534 305 216 316 415
8 419 323 434 536 308 222 322 417
8 419 323 222 308 537 431 319 418
8 421 327 225 310 539 438 325 420
8 421 327 439 541 310 225 326 423
8 543 437 324 422 423 326 224 311
8 441 338 259 368 559 452 367 486
8 443 340 236 329 560 453 338 441
8 333 240 344 447 442 342 457 561
8 445 341 237 331 562 455 340 443
8 448 345 241 334 563 454 339 444
8 563 454 339 444 445 341 237 331
8 336 242 346 450 446 343 458 565
8 446 343 458 565 333 240 344 447
8 449 347 243 335 567 460 345 448
8 451 348 244 337 568 462 347 449
8 451 348 461 569 337 244 346 450
8 570 463 349 452 473 360 257 365
8 453 350 245 338 570 463 349 452
8 455 352 247 340 571 464 350 453
8 460 357 252 345 572 465 351 454
8 572 465 351 454 456 353 248 341
8 456 353 248 341 573 466 352 455
8 344 251 356 459 457 354 468 575
8 458 355 469 576 344 251 356 459
8 346 253 358 461 458 355 469 576
8 462 359 254 347 578 471 357 460
8 348 255 359 462 461 358 472 579
8 591 474 360 473 475 361 256 363
8 475 361 256 363 594 477 362 479
8 363 256 364 482 479 362 480 603
8 590 473 365 484 481 363 482 605
8 482 364 257 365 606 483 366 485
8 559 452 367 486 484 365 485 607
8 542 436 487 609 422 324 369 488
8 525 422 488 611 407 311 371 491
8 488 369 489 612 371 261 370 490
8 491 371 490 613 373 263 372 492
8 495 386 276 377 614 503 385 493
8 614 503 385 493 561 457 342 442
8 615 501 383 494 495 386 276 377
8 496 384 274 378 615 501 383 494
8 618 500 382 497 496 384 274 378
8 619 499 381 498 497 382 272 379
8 511 408 297 393 619 499 381 498
8 620 505 387 499 500 388 278 382
8 527 424 312 408 620 505 387 499
8 502 390 506 621 384 280 388 500
8 622 507 389 501 504 392 282 386
8 502 390 280 384 622 507 389 501
8 504 392 282 386 624 509 391 503
8 624 509 391 503 575 468 354 457
8 513 410 299 395 630 527 408 511
8 631 528 411 514 512 409 300 396
8 513 410 528 631 395 299 409 512
8 519 416 305 401 633 530 411 514
8 634 531 412 515 516 413 302 398
8 523 420 309 405 634 531 412 515
8 635 532 413 516 517 414 303 399
8 521 417 533 636 403 306 414 517
8 520 418 307 402 637 534 415 518
8 519 416 534 637 401 305 415 518
8 522 419 308 404 639 537 418 520
8 522 419 536 640 404 308 417 521
8 524 421 310 406 642 539 420 523
8 524 421 541 644 406 310 423 526
8 646 543 422 525 526 423 311 407
8 529 426 314 410 647 544 424 527
8 528 425 545 648 411 315 427 530
8 529 426 545 648 410 314 425 528
8 535 429 317 416 649 546 427 530
8 650 548 430 531 532 432 320 413
8 539 438 325 420 650 548 430 531
8 533 433 550 651 414 321 432 532
8 536 434 551 652 417 322 433 533
8 537 431 319 418 653 547 428 534
8 535 429 547 653 416 317 428 534
8 538 435 552 654 419 323 434 536
8 538 435 323 419 655 549 431 537
8 540 440 327 421 657 556 438 539
8 540 440 557 659 421 327 439 541
8 541 439 555 660 423 326 437 543
8 661 554 436 542 543 437 324 422
8 676 570 452 559 590 473 365 484
8 560 453 338 441 676 570 452 559
8 562 455 340 443 677 571 453 560
8 447 344 459 566 561 457 575 678
8 564 456 341 445 679 573 455 562
8 567 460 345 448 680 572 454 563
8 680 572 454 563 564 456 341 445
8 565 458 576 682 447 344 459 566
8 450 346 461 569 565 458 576 682
8 568 462 347 449 684 578 460 567
8 451 348 462 568 569 461 579 685
8 686 580 463 570 591 474 360 473
8 571 464 350 453 686 580 463 570
8 573 466 352 455 687 581 464 571
8 572 465 582 688 460 357 471 578
8 574 467 582 688 456 353 465 572
8 574 467 353 456 689 583 466 573
8 459 356 470 577 575 468 585 691
8 576 469 586 692 459 356 470 577
8 461 358 472 579 576 469 586 692
8 462 359 471 578 579 472 588 694
8 704 591 473 590 593 475 363 481
8 595 476 592 705 475 361 474 591
8 593 475 363 481 707 594 479 602
8 594 477 362 479 709 598 478 600
8 595 476 361 475 711 597 477 594
8 479 362 480 603 600 478 601 720
8 481 363 482 605 602 479 603 722
8 603 480 364 482 723 604 483 606
8 605 482 365 484 724 606 485 607
8 656 553 608 726 542 436 487 609
8 645 542 609 728 525 422 488 611
8 609 487 610 729 488 369 489 612
8 611 488 612 730 491 371 490 613
8 616 504 386 495 731 624 503 614
8 731 624 503 614 678 575 457 561
8 732 622 501 615 616 504 386 495
8 617 502 384 496 732 622 501 615
8 617 502 621 735 496 384 500 618
8 736 620 499 619 618 500 382 497
8 630 527 408 511 736 620 499 619
8 621 506 626 737 500 388 505 620
8 647 544 424 527 737 626 505 620
8 623 508 627 738 502 390 506 621
8 623 508 390 502 739 628 507 622
8 625 510 628 739 504 392 507 622
8 740 629 509 624 691 585 468 575
8 625 510 392 504 740 629 509 624
8 632 529 410 513 744 647 527 630
8 631 528 648 745 514 411 530 633
8 632 529 648 745 513 410 528 631
8 638 535 416 519 746 649 530 633
8 747 650 531 634 635 532 413 516
8 642 539 420 523 747 650 531 634
8 636 533 651 748 517 414 532 635
8 640 536 652 749 521 417 533 636
8 639 537 418 520 750 653 534 637
8 638 535 653 750 519 416 534 637
8 641 538 419 522 751 655 537 639
8 641 538 654 752 522 419 536 640
8 643 540 421 524 753 657 539 642
8 643 540 659 755 524 421 541 644
8 644 541 660 757 526 423 543 646
8 758 661 542 645 646 543 422 525
8 529 426 544 647 648 545 662 759
8 530 427 545 648 649 546 663 760
8 535 429 546 649 653 547 664 761
8 762 666 548 650 651 550 432 532
8 657 556 438 539 762 666 548 650
8 652 551 668 763 533 433 550 651
8 654 552 669 764 536 434 551 652
8 655 549 431 537 765 665 547 653
8 538 435 549 655 654 552 667 766
8 661 554 671 768 542 436 553 656
8 658 558 440 540 769 674 556 657
8 658 558 675 770 540 440 557 659
8 659 557 673 771 541 439 555 660
8 660 555 672 772 543 437 554 661
8 788 686 570 676 704 591 473 590
8 677 571 453 560 788 686 570 676
8 679 573 455 562 789 687 571 677
8 566 459 577 683 678 575 691 790
8 681 574 456 564 791 689 573 679
8 680 572 688 792 567 460 578 684
8 681 574 688 792 564 456 572 680
8 682 576 692 794 566 459 577 683
8 569 461 579 685 682 576 692 794
8 568 462 578 684 685 579 694 796
8 687 581 464 571 798 696 580 686
8 798 696 580 686 705 592 474 591
8 689 583 466 573 799 697 581 687
8 688 582 698 800 578 471 588 694
8 690 584 698 800 574 467 582 688
8 690 584 467 574 801 699 583 689
8 693 587 701 803 577 470 585 691
8 693 587 470 577 804 702 586 692
8 695 589 702 804 579 472 586 692
8 695 589 472 579 805 703 588 694
8 708 595 705 813 593 475 591 704
8 710 596 706 814 595 476 592 705
8 707 594 479 602 816 709 600 719
8 708 595 475 593 817 711 594 707
8 709 598 478 600 819 715 599 717
8 711 597 477 594 820 714 598 709
8 710 596 476 595 822 713 597 711
8 600 478 601 720 717 599 718 832
8 602 479 603 722 719 600 720 834
8 720 601 480 603 835 721 604 723
8 722 603 482 605 836 723 606 724
8 767 670 725 839 656 553 608 726
8 756 656 726 841 645 542 609 728
8 726 608 727 842 609 487 610 729
8 728 609 729 843 611 488 612 730
8 844 740 624 731 790 691 575 678
8 733 625 504 616 844 740 624 731
8 734 623 502 617 845 739 622 732
8 733 625 739 845 616 504 622 732
8 734 623 738 846 617 502 621 735
8 735 621 737 847 618 500 620 736
8 744 647 527 630 847 737 620 736
8 621 506 627 738 737 626 741 848
8 647 544 626 737 759 662 741 848
8 623 508 628 739 738 627 742 849
8 740 629 585 691 850 743 700 802
8 625 510 629 740 739 628 743 850
8 632 529 647 744 745 648 759 854
8 633 530 648 745 746 649 760 855
8 638 535 649 746 750 653 761 856
8 857 762 650 747 748 651 532 635
8 753 657 539 642 857 762 650 747
8 749 652 763 858 636 533 651 748
8 752 654 764 859 640 536 652 749
8 751 655 537 639 860 765 653 750
8 641 538 655 751 752 654 766 861
8 754 658 540 643 862 769 657 753
8 754 658 770 863 643 540 659 755
8 755 659 771 864 644 541 660 757
8 758 661 768 866 645 542 656 756
8 757 660 772 867 646 543 661 758
8 759 662 773 868 648 545 663 760
8 649 546 663 760 761 664 774 871
8 765 665 547 653 872 775 664 761
8 873 777 666 762 763 668 550 651
8 769 674 556 657 873 777 666 762
8 764 669 779 874 652 551 668 763
8 654 552 667 766 764 669 778 875
8 655 549 665 765 766 667 776 876
8 768 671 782 877 656 553 670 767
8 772 672 783 878 661 554 671 768
8 658 558 674 769 770 675 786 879
8 659 557 675 770 771 673 785 881
8 882 784 672 772 771 673 555 660
8 789 687 571 677 897 798 686 788
8 897 798 686 788 813 705 591 704
8 791 689 573 679 898 799 687 789
8 795 693 803 900 683 577 691 790
8 793 690 574 681 901 801 689 791
8 792 688 800 902 684 578 694 796
8 793 690 800 902 681 574 688 792
8 795 693 577 683 903 804 692 794
8 797 695 804 903 685 579 692 794
8 797 695 579 685 904 805 694 796
8 905 806 697 799 798 696 581 687
8 814 706 806 905 705 592 696 798
8 689 583 697 799 801 699 808 907
8 800 698 809 908 694 588 703 805
8 690 584 699 801 800 698 809 908
8 803 701 810 909 691 585 700 802
8 693 587 702 804 803 701 811 910
8 695 589 703 805 804 702 812 911
8 818 710 814 919 708 595 705 813
8 821 712 815 920 710 596 706 814
8 816 709 600 719 922 819 717 831
8 817 711 594 707 923 820 709 816
8 818 710 595 708 924 822 711 817
8 819 715 599 717 926 827 716 829
8 820 714 598 709 927 826 715 819
8 929 825 713 822 820 714 597 711
8 821 712 596 710 930 824 713 822
8 717 599 718 832 829 716 830 942
8 719 600 720 834 831 717 832 944
8 832 718 601 720 945 833 721 835
8 834 720 603 722 946 835 723 836
8 869 780 838 950 767 670 725 839
8 865 767 839 952 756 656 726 841
8 839 725 840 953 726 608 727 842
8 841 726 842 954 728 609 729 843
8 844 740 691 790 955 850 802 899
8 733 625 740 844 845 739 850 955
8 734 623 739 845 846 738 849 956
8 735 621 738 846 847 737 848 957
8 744 647 737 847 854 759 848 957
8 738 627 742 849 848 741 851 958
8 848 741 851 958 759 662 773 868
8 850 743 700 802 959 852 807 906
8 849 742 628 739 959 852 743 850
8 854 759 868 965 745 648 760 855
8 746 649 760 855 856 761 871 966
8 860 765 653 750 967 872 761 856
8 968 873 762 857 858 763 651 748
8 862 769 657 753 968 873 762 857
8 859 764 874 969 749 652 763 858
8 752 654 766 861 859 764 875 970
8 751 655 765 860 861 766 876 971
8 754 658 769 862 863 770 879 972
8 755 659 770 863 864 771 881 974
8 976 882 772 867 864 771 660 757
8 866 768 877 977 756 656 767 865
8 867 772 878 978 758 661 768 866
8 760 663 773 868 871 774 883 980
8 870 781 837 948 982 890 780 869
8 982 890 780 869 877 782 670 767
8 761 664 774 871 872 775 884 984
8 876 776 665 765 985 885 775 872
8 873 777 668 763 986 887 779 874
8 769 674 777 873 879 786 887 986
8 764 669 778 875 874 779 888 987
8 766 667 776 876 875 778 886 988
8 878 783 892 989 768 671 782 877
8 878 783 672 772 990 893 784 882
8 880 787 675 770 991 896 786 879
8 880 787 895 992 770 675 785 881
8 881 785 894 993 771 673 784 882
8 1006 905 799 898 897 798 687 789
8 919 814 905 1006 813 705 798 897
8 791 689 799 898 901 801 907 1007
8 900 803 909 1009 790 691 802 899
8 795 693 804 903 900 803 910 1010
8 902 800 908 1011 796 694 805 904
8 793 690 801 901 902 800 908 1011
8 797 695 805 904 903 804 911 1012
8 799 697 806 905 907 808 912 1013
8 920 815 912 1013 814 706 806 905
8 802 700 810 909 906 807 913 1014
8 801 699 808 907 908 809 914 1015
8 805 703 809 908 911 812 915 1016
8 803 701 811 910 909 810 916 1017
8 911 812 917 1018 804 702 811 910
8 925 821 920 1030 818 710 814 919
8 928 823 921 1031 821 712 815 920
8 922 819 717 831 1033 926 829 941
8 923 820 709 816 1034 927 819 922
8 1035 929 822 924 923 820 711 817
8 925 821 710 818 1036 930 822 924
8 1038 933 825 929 927 826 714 820
8 926 827 716 829 1039 935 828 939
8 927 826 715 819 1040 934 827 926
8 928 823 712 821 1041 931 824 930
8 1042 932 824 930 929 825 713 822
8 829 716 830 942 939 828 940 1058
8 831 717 832 944 941 829 942 1060
8 942 830 718 832 1061 943 833 945
8 944 832 720 834 1062 945 835 946
8 981 889 947 1064 870 781 837 948
8 948 837 949 1067 869 780 838 950
8 975 869 950 1069 865 767 839 952
8 950 838 951 1070 839 725 840 953
8 952 839 953 1071 841 726 842 954
8 955 850 802 899 1072 959 906 1008
8 956 849 739 845 1072 959 850 955
8 846 738 849 956 957 848 958 1073
8 957 848 958 1073 854 759 868 965
8 849 742 852 959 958 851 961 1076
8 960 853 961 1076 906 807 852 959
8 958 851 961 1076 868 773 883 980
8 960 853 807 906 1077 963 913 1014
8 855 760 868 965 966 871 980 1085
8 856 761 871 966 967 872 984 1086
8 971 876 765 860 1087 985 872 967
8 968 873 763 858 1088 986 874 969
8 862 769 873 968 972 879 986 1088
8 859 764 875 970 969 874 987 1089
8 861 766 876 971 970 875 988 1090
8 973 880 770 863 1091 991 879 972
8 973 880 992 1092 863 770 881 974
8 974 881 993 1093 864 771 882 976
8 979 870 948 1066 1094 982 869 975
8 1094 982 869 975 977 877 767 865
8 978 878 772 867 1095 990 882 976
8 978 878 989 1096 866 768 877 977
8 871 774 883 980 984 884 994 1099
8 983 891 999 1100 870 781 889 981
8 1101 1000 890 982 989 892 782 877
8 983 891 781 870 1101 1000 890 982
8 872 775 884 984 985 885 995 1103
8 876 776 885 985 988 886 996 1104
8 986 887 779 874 1105 998 888 987
8 879 786 887 986 991 896 998 1105
8 875 778 886 988 987 888 997 1106
8 990 893 1002 1107 878 783 892 989
8 1108 1003 893 990 993 894 784 882
8 880 787 896 991 992 895 1005 1109
8 993 894 785 881 1110 1004 895 992
8 898 799 905 1006 1007 907 1013 1120
8 1030 920 1013 1120 919 814 905 1006
8 901 801 907 1007 1011 908 1015 1121
8 899 802 909 1009 1008 906 1014 1122
8 900 803 910 1010 1009 909 1017 1123
8 1012 911 1018 1124 903 804 910 1010
8 904 805 908 1011 1012 911 1016 1125
8 1013 912 1020 1127 907 808 914 1015
8 1031 921 1020 1127 920 815 912 1013
8 1019 918 962 1075 1128 1021 913 1014
8 1128 1021 913 1014 1017 916 810 909
8 1015 914 1022 1129 908 809 915 1016
8 1016 915 1023 1130 911 812 917 1018
8 1018 917 1024 1131 910 811 916 1017
8 1037 928 1031 1148 925 821 920 1030
8 928 823 931 1041 1031 921 1032 1149
8 1033 926 829 941 1151 1039 939 1057
8 1034 927 819 922 1152 1040 926 1033
8 1153 1038 929 1035 1034 927 820 923
8 1154 1042 930 1036 1035 929 822 924
8 1037 928 821 925 1155 1041 930 1036
8 1039 935 828 939 1156 1047 938 1055
8 1157 1043 932 1042 1038 933 825 929
8 1038 933 826 927 1158 1045 934 1040
8 1040 934 827 926 1159 1046 935 1039
8 930 824 932 1042 1041 931 1044 1160
8 1051 936 1048 1165 1175 1052 937 1053
8 1156 1047 938 1055 1053 937 1054 1178
8 939 828 940 1058 1055 938 1056 1181
8 941 829 942 1060 1057 939 1058 1183
8 942 830 943 1061 1058 940 1059 1184
8 1060 942 832 944 1185 1061 945 1062
8 1082 964 1063 1188 981 889 947 1064
8 1097 981 1064 1190 979 870 948 1066
8 1064 947 1065 1191 948 837 949 1067
8 1066 948 1067 1193 975 869 950 1069
8 1067 949 1068 1194 950 838 951 1070
8 1069 950 1070 1195 952 839 953 1071
8 956 849 959 1072 1073 958 1076 1197
8 1074 960 1076 1197 1008 906 959 1072
8 1073 958 1076 1197 965 868 980 1085
8 1074 960 906 1008 1198 1077 1014 1122
8 1133 1026 1079 1199 1019 918 962 1075
8 1077 963 913 1014 1200 1080 962 1075
8 960 853 963 1077 1076 961 1078 1201
8 980 883 961 1076 1099 994 1078 1201
8 1210 1083 964 1082 1100 999 889 981
8 966 871 980 1085 1086 984 1099 1215
8 967 872 984 1086 1087 985 1103 1216
8 971 876 985 1087 1090 988 1104 1217
8 1088 986 874 969 1218 1105 987 1089
8 972 879 986 1088 1091 991 1105 1218
8 970 875 988 1090 1089 987 1106 1219
8 973 880 991 1091 1092 992 1109 1220
8 1093 993 881 974 1221 1110 992 1092
8 1222 1108 990 1095 1093 993 882 976
8 1223 1101 982 1094 1096 989 877 977
8 1098 983 870 979 1223 1101 982 1094
8 1095 990 1107 1224 978 878 989 1096
8 1098 983 1100 1225 979 870 981 1097
8 984 884 994 1099 1103 995 1111 1227
8 1102 1001 1115 1228 983 891 999 1100
8 1101 1000 892 989 1229 1116 1002 1107
8 1102 1001 891 983 1229 1116 1000 1101
8 985 885 995 1103 1104 996 1112 1230
8 988 886 996 1104 1106 997 1113 1231
8 1105 998 888 987 1232 1114 997 1106
8 991 896 998 1105 1109 1005 1114 1232
8 1108 1003 1117 1233 990 893 1002 1107
8 1108 1003 894 993 1233 1117 1004 1110
8 992 895 1005 1109 1110 1004 1118 1234
8 1120 1013 1127 1244 1007 907 1015 1121
8 1148 1031 1127 1244 1030 920 1013 1120
8 1121 1015 1129 1245 1011 908 1016 1125
8 1126 1019 1075 1196 1246 1128 1014 1122
8 1246 1128 1014 1122 1123 1017 909 1009
8 1124 1018 1131 1247 1010 910 1017 1123
8 1125 1016 1130 1248 1012 911 1018 1124
8 1127 1020 1137 1254 1015 914 1022 1129
8 1031 921 1032 1149 1127 1020 1137 1254
8 1134 1027 918 1019 1257 1140 1021 1128
8 1257 1140 1021 1128 1131 1024 916 1017
8 1129 1022 1141 1258 1016 915 1023 1130
8 1130 1023 1142 1259 1018 917 1024 1131
8 1261 1144 1025 1132 1133 1026 1079 1199
8 1255 1138 1025 1132 1135 1028 1144 1261
8 1133 1026 918 1019 1262 1145 1027 1134
8 1136 1029 1139 1256 1263 1146 1028 1135
8 1037 928 1041 1155 1148 1031 1149 1275
8 1041 931 1044 1160 1149 1032 1150 1276
8 1151 1039 939 1057 1278 1156 1055 1180
8 1152 1040 926 1033 1279 1159 1039 1151
8 1153 1038 927 1034 1280 1158 1040 1152
8 1281 1157 1042 1154 1153 1038 929 1035
8 1036 930 1042 1154 1155 1041 1160 1282
8 1283 1164 1046 1159 1156 1047 935 1039
8 1165 1048 1164 1283 1053 937 1047 1156
8 1157 1043 933 1038 1284 1161 1045 1158
8 1157 1043 1161 1284 1042 932 1044 1160
8 1040 934 1046 1159 1158 1045 1163 1285
8 1166 1049 1167 1292 1051 936 1048 1165
8 1166 1049 936 1051 1293 1168 1050 1172
8 1051 936 1052 1175 1172 1050 1173 1306
8 1174 1051 1165 1290 1308 1175 1053 1177
8 1053 937 1054 1178 1175 1052 1176 1309
8 1278 1156 1055 1180 1177 1053 1178 1311
8 1055 938 1056 1181 1178 1054 1179 1312
8 1057 939 1058 1183 1180 1055 1181 1314
8 1058 940 1059 1184 1181 1056 1182 1315
8 1060 942 1061 1185 1183 1058 1184 1316
8 1208 1081 1187 1321 1082 964 1063 1188
8 1209 1082 1188 1322 1097 981 1064 1190
8 1188 1063 1189 1323 1064 947 1065 1191
8 1190 1064 1191 1325 1066 948 1067 1193
8 1191 1065 1192 1326 1067 949 1068 1194
8 1067 1193 1069 950 1194 1327 1195 1070
8 1250 1133 1199 1330 1126 1019 1075 1196
8 1198 1077 1014 1122 1331 1200 1075 1196
8 1074 960 1077 1198 1197 1076 1201 1332
8 1085 980 1076 1197 1215 1099 1201 1332
8 1199 1079 1203 1333 1075 962 1080 1200
8 1132 1025 1119 1243 1199 1079 1203 1333
8 1201 1078 963 1077 1334 1202 1080 1200
8 1099 994 1078 1201 1227 1111 1202 1334
8 1343 1207 1081 1208 1210 1083 964 1082
8 1214 1084 1186 1319 1343 1207 1081 1208
8 1345 1210 1082 1209 1225 1100 981 1097
8 1346 1211 1083 1210 1228 1115 999 1100
8 1086 984 1099 1215 1216 1103 1227 1352
8 1087 985 1103 1216 1217 1104 1230 1353
8 1090 988 1104 1217 1219 1106 1231 1354
8 1218 1105 987 1089 1355 1232 1106 1219
8 1091 991 1105 1218 1220 1109 1232 1355
8 1092 992 1109 1220 1221 1110 1234 1356
8 1222 1108 1233 1357 1095 990 1107 1224
8 1222 1108 993 1093 1357 1233 1110 1221
8 1223 1101 989 1096 1358 1229 1107 1224
8 1226 1102 983 1098 1358 1229 1101 1223
8 1226 1102 1228 1359 1098 983 1100 1225
8 1103 995 1111 1227 1230 1112 1235 1360
8 1107 1002 1117 1233 1229 1116 1240 1362
8 1102 1001 1116 1229 1228 1115 1240 1362
8 1104 996 1112 1230 1231 1113 1236 1363
8 1364 1237 1114 1232 1231 1113 997 1106
8 1109 1005 1114 1232 1234 1118 1238 1365
8 1110 1004 1118 1234 1233 1117 1241 1366
8 1242 1374 1255 1138 1119 1243 1132 1025
8 1244 1127 1254 1376 1121 1015 1129 1245
8 1148 1031 1149 1275 1244 1127 1254 1376
8 1245 1129 1258 1377 1125 1016 1130 1248
8 1251 1134 1019 1126 1378 1257 1128 1246
8 1378 1257 1128 1246 1247 1131 1017 1123
8 1248 1130 1259 1379 1124 1018 1131 1247
8 1261 1381 1250 1133 1132 1249 1330 1199
8 1255 1380 1252 1135 1132 1249 1381 1261
8 1250 1133 1019 1126 1382 1262 1134 1251
8 1253 1136 1256 1385 1384 1263 1135 1252
8 1254 1137 1265 1387 1129 1022 1141 1258
8 1149 1032 1150 1276 1254 1137 1265 1387
8 1028 1135 1255 1138 1139 1256 1388 1266
8 1136 1029 1147 1264 1256 1139 1267 1389
8 1390 1268 1140 1257 1259 1142 1024 1131
8 1260 1143 1027 1134 1390 1268 1140 1257
8 1258 1141 1269 1391 1130 1023 1142 1259
8 1262 1145 1027 1134 1393 1271 1143 1260
8 1261 1144 1026 1133 1394 1272 1145 1262
8 1135 1028 1144 1261 1263 1146 1272 1394
8 1136 1029 1146 1263 1264 1147 1273 1395
8 1155 1041 1160 1282 1275 1149 1276 1405
8 1276 1150 1044 1160 1406 1277 1162 1286
8 1408 1283 1159 1279 1278 1156 1039 1151
8 1290 1165 1283 1408 1177 1053 1156 1278
8 1152 1040 1159 1279 1280 1158 1285 1409
8 1281 1157 1038 1153 1410 1284 1158 1280
8 1281 1157 1284 1410 1154 1042 1160 1282
8 1159 1046 1164 1283 1285 1163 1289 1412
8 1292 1167 1289 1412 1165 1048 1164 1283
8 1158 1045 1163 1285 1284 1161 1288 1413
8 1284 1161 1288 1413 1160 1044 1162 1286
8 1291 1166 1292 1418 1174 1051 1165 1290
8 1291 1166 1051 1174 1419 1293 1172 1305
8 1294 1169 1296 1421 1166 1049 1167 1292
8 1293 1168 1050 1172 1422 1295 1171 1303
8 1294 1169 1049 1166 1423 1297 1168 1293
8 1422 1295 1171 1303 1301 1170 1302 1435
8 1172 1050 1173 1306 1303 1171 1304 1438
8 1174 1051 1175 1308 1305 1172 1306 1440
8 1175 1052 1176 1309 1306 1173 1307 1441
8 1177 1053 1178 1311 1308 1175 1309 1443
8 1178 1054 1179 1312 1309 1176 1310 1444
8 1180 1055 1181 1314 1311 1178 1312 1446
8 1056 1181 1312 1179 1182 1315 1447 1313
8 1183 1058 1184 1316 1314 1181 1315 1448
8 1319 1186 1084 1214 1451 1317 1213 1350
8 1319 1186 1318 1453 1208 1081 1187 1321
8 1321 1187 1320 1456 1188 1063 1189 1323
8 1344 1208 1321 1457 1209 1082 1188 1322
8 1322 1188 1323 1458 1190 1064 1191 1325
8 1323 1189 1324 1459 1191 1065 1192 1326
8 1191 1325 1193 1067 1326 1460 1327 1194
8 1242 1374 1243 1119 1328 1462 1335 1204
8 1330 1199 1333 1465 1196 1075 1200 1331
8 1132 1249 1330 1199 1243 1375 1465 1333
8 1332 1201 1077 1198 1466 1334 1200 1331
8 1215 1099 1201 1332 1352 1227 1334 1466
8 1119 1243 1333 1203 1204 1335 1470 1338
8 1333 1203 1338 1470 1200 1080 1202 1334
8 1227 1111 1202 1334 1360 1235 1338 1470
8 1328 1462 1335 1204 1205 1336 1471 1339
8 1337 1206 1340 1472 1464 1329 1205 1336
8 1346 1211 1342 1479 1210 1083 1207 1343
8 1346 1211 1115 1228 1479 1342 1239 1361
8 1348 1212 1084 1214 1479 1342 1207 1343
8 1480 1343 1208 1344 1345 1210 1082 1209
8 1351 1214 1319 1454 1480 1343 1208 1344
8 1481 1346 1210 1345 1359 1228 1100 1225
8 1348 1212 1347 1483 1214 1084 1213 1350
8 1216 1103 1227 1352 1353 1230 1360 1488
8 1217 1104 1230 1353 1354 1231 1363 1489
8 1490 1364 1232 1355 1354 1231 1106 1219
8 1220 1109 1232 1355 1356 1234 1365 1491
8 1221 1110 1234 1356 1357 1233 1366 1492
8 1224 1107 1233 1357 1358 1229 1362 1493
8 1226 1102 1229 1358 1359 1228 1362 1493
8 1230 1112 1235 1360 1363 1236 1367 1496
8 1361 1239 1115 1228 1497 1371 1240 1362
8 1366 1241 1372 1498 1233 1117 1240 1362
8 1364 1237 1113 1231 1499 1368 1236 1363
8 1364 1237 1368 1499 1232 1114 1238 1365
8 1234 1118 1238 1365 1366 1241 1369 1500
8 1507 1373 1242 1374 1388 1266 1138 1255
8 1508 1374 1243 1375 1380 1255 1132 1249
8 1376 1254 1387 1509 1245 1129 1258 1377
8 1275 1149 1276 1405 1376 1254 1387 1509
8 1377 1258 1391 1510 1248 1130 1259 1379
8 1511 1390 1257 1378 1379 1259 1131 1247
8 1383 1260 1134 1251 1511 1390 1257 1378
8 1252 1135 1256 1385 1380 1255 1388 1512
8 1261 1381 1513 1394 1133 1250 1382 1262
8 1135 1252 1384 1263 1261 1381 1513 1394
8 1382 1262 1134 1251 1514 1393 1260 1383
8 1253 1136 1263 1384 1386 1264 1395 1516
8 1253 1136 1264 1386 1385 1256 1389 1517
8 1387 1265 1397 1519 1258 1141 1269 1391
8 1276 1150 1277 1406 1387 1265 1397 1519
8 1256 1139 1267 1389 1388 1266 1398 1520
8 1264 1147 1274 1396 1389 1267 1399 1521
8 1392 1270 1143 1260 1522 1400 1268 1390
8 1390 1268 1142 1259 1522 1400 1269 1391
8 1392 1270 1401 1523 1260 1143 1271 1393
8 1272 1394 1524 1402 1145 1262 1393 1271
8 1395 1273 1146 1263 1524 1402 1272 1394
8 1273 1395 1264 1147 1403 1526 1396 1274
8 1405 1276 1160 1282 1534 1406 1286 1411
8 1414 1287 1407 1535 1286 1162 1277 1406
8 1279 1159 1283 1408 1409 1285 1412 1537
8 1418 1292 1412 1537 1290 1165 1283 1408
8 1280 1158 1285 1409 1410 1284 1413 1538
8 1410 1284 1413 1538 1282 1160 1286 1411
8 1285 1163 1289 1412 1413 1288 1417 1540
8 1421 1296 1417 1540 1292 1167 1289 1412
8 1414 1287 1162 1286 1541 1416 1288 1413
8 1420 1294 1421 1545 1291 1166 1292 1418
8 1419 1293 1172 1305 1546 1422 1303 1437
8 1420 1294 1166 1291 1547 1423 1293 1419
8 1294 1169 1297 1423 1421 1296 1425 1548
8 1423 1297 1168 1293 1549 1424 1295 1422
8 1301 1170 1298 1427 1422 1295 1424 1549
8 1432 1300 1428 1554 1301 1170 1298 1427
8 1431 1299 1428 1554 1560 1430 1300 1432
8 1563 1433 1300 1432 1435 1302 1170 1301
8 1546 1422 1303 1437 1434 1301 1435 1565
8 1303 1171 1304 1438 1435 1302 1436 1566
8 1305 1172 1306 1440 1437 1303 1438 1568
8 1306 1173 1307 1441 1438 1304 1439 1569
8 1308 1175 1309 1443 1440 1306 1441 1571
8 1309 1176 1310 1444 1441 1307 1442 1572
8 1311 1178 1312 1446 1443 1309 1444 1574
8 1179 1312 1444 1310 1313 1447 1575 1445
8 1314 1181 1315 1448 1446 1312 1447 1576
8 1350 1213 1349 1486 1451 1317 1449 1579
8 1451 1317 1450 1581 1319 1186 1318 1453
8 1454 1319 1214 1351 1582 1451 1350 1487
8 1453 1318 1452 1584 1321 1187 1320 1456
8 1454 1319 1453 1585 1344 1208 1321 1457
8 1456 1320 1455 1586 1323 1189 1324 1459
8 1457 1321 1456 1587 1322 1188 1323 1458
8 1458 1323 1459 1588 1325 1191 1326 1460
8 1205 1336 1464 1329 1328 1462 1590 1461
8 1507 1373 1461 1590 1374 1242 1328 1462
8 1508 1374 1462 1591 1375 1243 1335 1467
8 1337 1206 1329 1464 1473 1341 1463 1594
8 1375 1243 1335 1467 1465 1333 1470 1596
8 1465 1333 1470 1596 1331 1200 1334 1466
8 1352 1227 1334 1466 1488 1360 1470 1596
8 1591 1462 1336 1468 1467 1335 1471 1597
8 1469 1337 1472 1598 1595 1464 1336 1468
8 1471 1339 1474 1600 1335 1204 1338 1470
8 1600 1474 1367 1496 1470 1338 1235 1360
8 1336 1205 1340 1472 1471 1339 1475 1601
8 1337 1206 1341 1473 1472 1340 1476 1602
8 1495 1370 1478 1609 1361 1239 1342 1479
8 1348 1212 1342 1479 1483 1347 1478 1609
8 1481 1346 1479 1610 1345 1210 1343 1480
8 1481 1346 1228 1359 1610 1479 1361 1494
8 1484 1348 1214 1351 1610 1479 1343 1480
8 1483 1347 1482 1612 1350 1213 1349 1486
8 1484 1348 1483 1613 1351 1214 1350 1487
8 1353 1230 1360 1488 1489 1363 1496 1616
8 1490 1364 1231 1354 1617 1499 1363 1489
8 1490 1364 1499 1617 1355 1232 1365 1491
8 1356 1234 1365 1491 1492 1366 1500 1619
8 1492 1366 1498 1620 1357 1233 1362 1493
8 1494 1361 1228 1359 1621 1497 1362 1493
8 1495 1370 1239 1361 1622 1504 1371 1497
8 1363 1236 1367 1496 1499 1368 1501 1623
8 1497 1371 1240 1362 1624 1505 1372 1498
8 1625 1503 1372 1498 1500 1369 1241 1366
8 1365 1238 1368 1499 1500 1369 1502 1626
8 1520 1398 1506 1633 1388 1266 1373 1507
8 1634 1507 1374 1508 1512 1388 1255 1380
8 1509 1387 1519 1635 1377 1258 1391 1510
8 1405 1276 1406 1534 1509 1387 1519 1635
8 1515 1392 1260 1383 1636 1522 1390 1511
8 1511 1390 1259 1379 1636 1522 1391 1510
8 1385 1256 1389 1517 1512 1388 1520 1637
8 1513 1394 1262 1382 1638 1524 1393 1514
8 1395 1516 1638 1524 1263 1384 1513 1394
8 1515 1392 1523 1639 1383 1260 1393 1514
8 1516 1395 1526 1640 1386 1264 1396 1518
8 1386 1264 1396 1518 1517 1389 1521 1641
8 1519 1397 1527 1643 1391 1269 1400 1522
8 1535 1407 1527 1643 1406 1277 1397 1519
8 1389 1267 1399 1521 1520 1398 1528 1644
8 1645 1529 1399 1521 1525 1404 1274 1396
8 1392 1270 1400 1522 1523 1401 1531 1646
8 1524 1402 1271 1393 1648 1532 1401 1523
8 1403 1526 1648 1532 1273 1395 1524 1402
8 1525 1404 1274 1396 1649 1533 1403 1526
8 1539 1414 1535 1657 1411 1286 1406 1534
8 1542 1415 1536 1658 1414 1287 1407 1535
8 1409 1285 1412 1537 1538 1413 1540 1660
8 1545 1421 1540 1660 1418 1292 1412 1537
8 1539 1414 1286 1411 1661 1541 1413 1538
8 1540 1417 1544 1663 1413 1288 1416 1541
8 1421 1296 1425 1548 1540 1417 1544 1663
8 1542 1415 1287 1414 1664 1543 1416 1541
8 1420 1294 1423 1547 1545 1421 1548 1666
8 1547 1423 1293 1419 1667 1549 1422 1546
8 1434 1301 1427 1553 1546 1422 1549 1667
8 1423 1297 1424 1549 1548 1425 1550 1668
8 1551 1426 1550 1668 1427 1298 1424 1549
8 1551 1426 1298 1427 1671 1552 1428 1554
8 1562 1432 1554 1674 1434 1301 1427 1553
8 1431 1299 1429 1558 1554 1428 1555 1675
8 1431 1299 1430 1560 1558 1429 1557 1680
8 1560 1430 1300 1432 1683 1559 1433 1563
8 1561 1431 1554 1674 1684 1560 1432 1562
8 1685 1563 1432 1562 1565 1435 1301 1434
8 1435 1302 1436 1566 1563 1433 1564 1686
8 1437 1303 1438 1568 1565 1435 1566 1688
8 1438 1304 1439 1569 1566 1436 1567 1689
8 1440 1306 1441 1571 1568 1438 1569 1691
8 1441 1307 1442 1572 1569 1439 1570 1692
8 1443 1309 1444 1574 1571 1441 1572 1694
8 1310 1444 1572 1442 1445 1575 1695 1573
8 1446 1312 1447 1576 1574 1444 1575 1696
8 1486 1349 1485 1614 1579 1449 1577 1699
8 1451 1317 1449 1579 1581 1450 1578 1701
8 1487 1350 1486 1615 1582 1451 1579 1702
8 1581 1450 1580 1704 1453 1318 1452 1584
8 1582 1451 1581 1705 1454 1319 1453 1585
8 1584 1452 1583 1706 1456 1320 1455 1586
8 1585 1453 1584 1707 1457 1321 1456 1587
8 1587 1456 1586 1708 1458 1323 1459 1588
8 1633 1506 1589 1710 1507 1373 1461 1590
8 1464 1329 1461 1590 1594 1463 1589 1710
8 1468 1336 1462 1591 1595 1464 1590 1711
8 1634 1507 1590 1711 1508 1374 1462 1591
8 1473 1341 1463 1594 1603 1477 1593 1716
8 1469 1337 1464 1595 1599 1473 1594 1717
8 1471 1597 1467 1335 1600 1718 1596 1470
8 1718 1600 1496 1616 1596 1470 1360 1488
8 1336 1468 1597 1471 1472 1598 1719 1601
8 1469 1337 1473 1599 1598 1472 1602 1720
8 1722 1604 1501 1623 1600 1474 1367 1496
8 1475 1601 1471 1339 1604 1722 1600 1474
8 1602 1476 1605 1723 1472 1340 1475 1601
8 1476 1602 1724 1606 1341 1473 1603 1477
8 1483 1347 1478 1609 1612 1482 1608 1731
8 1495 1370 1504 1622 1609 1478 1608 1731
8 1618 1495 1609 1732 1494 1361 1479 1610
8 1484 1348 1479 1610 1613 1483 1609 1732
8 1486 1349 1482 1612 1614 1485 1611 1733
8 1613 1483 1612 1734 1487 1350 1486 1615
8 1489 1363 1496 1616 1617 1499 1623 1736
8 1491 1365 1499 1617 1619 1500 1626 1737
8 1618 1495 1361 1494 1738 1622 1497 1621
8 1739 1625 1498 1620 1619 1500 1366 1492
8 1621 1497 1362 1493 1740 1624 1498 1620
8 1742 1631 1504 1622 1624 1505 1371 1497
8 1743 1628 1502 1626 1623 1501 1368 1499
8 1744 1630 1505 1624 1625 1503 1372 1498
8 1745 1629 1503 1625 1626 1502 1369 1500
8 1520 1398 1528 1644 1633 1506 1632 1751
8 1637 1520 1633 1752 1512 1388 1507 1634
8 1635 1519 1643 1753 1510 1391 1522 1636
8 1657 1535 1643 1753 1534 1406 1519 1635
8 1515 1392 1522 1636 1639 1523 1646 1754
8 1517 1389 1521 1641 1637 1520 1644 1755
8 1524 1638 1756 1648 1393 1514 1639 1523
8 1640 1526 1395 1516 1756 1648 1524 1638
8 1642 1525 1396 1518 1757 1649 1526 1640
8 1758 1645 1521 1641 1642 1525 1396 1518
8 1646 1531 1400 1522 1760 1650 1527 1643
8 1535 1407 1536 1658 1643 1527 1650 1760
8 1521 1399 1529 1645 1644 1528 1651 1761
8 1647 1530 1652 1762 1525 1404 1529 1645
8 1401 1523 1648 1532 1531 1646 1763 1655
8 1525 1404 1533 1649 1647 1530 1654 1765
8 1533 1649 1766 1656 1403 1526 1648 1532
8 1662 1542 1658 1774 1539 1414 1535 1657
8 1542 1415 1543 1664 1658 1536 1659 1775
8 1660 1540 1663 1777 1538 1413 1541 1661
8 1545 1421 1548 1666 1660 1540 1663 1777
8 1662 1542 1414 1539 1778 1664 1541 1661
8 1664 1543 1416 1541 1779 1665 1544 1663
8 1548 1425 1550 1668 1663 1544 1665 1779
8 1547 1423 1549 1667 1666 1548 1668 1781
8 1670 1551 1668 1781 1553 1427 1549 1667
8 1551 1426 1552 1671 1668 1550 1669 1782
8 1670 1551 1427 1553 1784 1671 1554 1674
8 1675 1555 1672 1785 1554 1428 1552 1671
8 1678 1556 1673 1789 1558 1429 1555 1675
8 1561 1431 1558 1681 1674 1554 1675 1790
8 1794 1677 1556 1678 1680 1557 1429 1558
8 1560 1430 1559 1683 1680 1557 1679 1797
8 1561 1431 1560 1684 1681 1558 1680 1798
8 1563 1433 1564 1686 1683 1559 1682 1800
8 1684 1560 1432 1562 1801 1683 1563 1685
8 1565 1435 1566 1688 1685 1563 1686 1802
8 1566 1436 1567 1689 1686 1564 1687 1803
8 1568 1438 1569 1691 1688 1566 1689 1805
8 1569 1439 1570 1692 1689 1567 1690 1806
8 1571 1441 1572 1694 1691 1569 1692 1808
8 1442 1572 1692 1570 1573 1695 1809 1693
8 1574 1444 1575 1696 1694 1572 1695 1810
8 1614 1485 1592 1712 1699 1577 1697 1813
8 1579 1449 1577 1699 1701 1578 1698 1815
8 1615 1486 1614 1735 1702 1579 1699 1816
8 1701 1578 1700 1818 1581 1450 1580 1704
8 1582 1451 1579 1702 1705 1581 1701 1819
8 1704 1580 1703 1820 1584 1452 1583 1706
8 1705 1581 1704 1821 1585 1453 1584 1707
8 1707 1584 1706 1822 1587 1456 1586 1708
8 1710 1589 1506 1633 1824 1709 1632 1751
8 1594 1463 1589 1710 1716 1593 1709 1824
8 1752 1633 1710 1825 1634 1507 1590 1711
8 1595 1464 1590 1711 1717 1594 1710 1825
8 1830 1714 1592 1712 1733 1611 1485 1614
8 1603 1477 1593 1716 1725 1607 1715 1834
8 1599 1473 1594 1717 1721 1603 1716 1835
8 1837 1722 1623 1736 1718 1600 1496 1616
8 1719 1601 1722 1837 1597 1471 1600 1718
8 1602 1720 1598 1472 1723 1838 1719 1601
8 1720 1602 1473 1599 1839 1724 1603 1721
8 1723 1605 1726 1840 1601 1475 1604 1722
8 1840 1726 1628 1743 1722 1604 1501 1623
8 1724 1606 1727 1841 1602 1476 1605 1723
8 1725 1607 1728 1842 1603 1477 1606 1724
8 1612 1482 1608 1731 1733 1611 1730 1849
8 1741 1627 1730 1849 1622 1504 1608 1731
8 1613 1483 1609 1732 1734 1612 1731 1850
8 1618 1495 1622 1738 1732 1609 1731 1850
8 1615 1486 1612 1734 1735 1614 1733 1851
8 1852 1743 1626 1737 1736 1623 1499 1617
8 1853 1745 1625 1739 1737 1626 1500 1619
8 1855 1742 1622 1738 1740 1624 1497 1621
8 1856 1744 1624 1740 1739 1625 1498 1620
8 1741 1627 1504 1622 1857 1746 1631 1742
8 1742 1631 1505 1624 1858 1749 1630 1744
8 1859 1747 1629 1745 1743 1628 1502 1626
8 1860 1748 1630 1744 1745 1629 1503 1625
8 1644 1528 1651 1761 1751 1632 1750 1865
8 1637 1520 1644 1755 1752 1633 1751 1866
8 1754 1646 1522 1636 1867 1760 1643 1753
8 1657 1535 1658 1774 1753 1643 1760 1867
8 1639 1523 1646 1754 1756 1648 1763 1868
8 1641 1521 1645 1758 1755 1644 1761 1869
8 1757 1649 1526 1640 1870 1766 1648 1756
8 1642 1525 1649 1757 1759 1647 1765 1871
8 1759 1647 1762 1872 1642 1525 1645 1758
8 1760 1650 1767 1874 1646 1531 1655 1763
8 1658 1536 1659 1775 1760 1650 1767 1874
8 1762 1652 1768 1875 1645 1529 1651 1761
8 1764 1653 1769 1876 1647 1530 1652 1762
8 1656 1766 1877 1773 1532 1648 1763 1655
8 1771 1879 1765 1654 1653 1764 1647 1530
8 1533 1649 1765 1654 1656 1766 1880 1772
8 1662 1542 1664 1778 1774 1658 1775 1887
8 1664 1543 1665 1779 1775 1659 1776 1888
8 1778 1664 1541 1661 1890 1779 1663 1777
8 1666 1548 1668 1781 1777 1663 1779 1890
8 1782 1669 1780 1891 1668 1550 1665 1779
8 1670 1551 1671 1784 1781 1668 1782 1893
8 1671 1552 1672 1785 1782 1669 1783 1894
8 1790 1675 1785 1896 1674 1554 1671 1784
8 1675 1555 1673 1789 1785 1672 1786 1897
8 1792 1676 1788 1903 1678 1556 1673 1789
8 1795 1678 1789 1904 1681 1558 1675 1790
8 1792 1676 1556 1678 1906 1791 1677 1794
8 1680 1557 1679 1797 1794 1677 1793 1909
8 1910 1794 1678 1795 1798 1680 1558 1681
8 1683 1559 1682 1800 1797 1679 1796 1912
8 1684 1560 1683 1801 1798 1680 1797 1913
8 1686 1564 1687 1803 1800 1682 1799 1915
8 1685 1563 1686 1802 1801 1683 1800 1916
8 1688 1566 1689 1805 1802 1686 1803 1917
8 1689 1567 1690 1806 1803 1687 1804 1918
8 1691 1569 1692 1808 1805 1689 1806 1920
8 1692 1570 1693 1809 1806 1690 1807 1921
8 1694 1572 1695 1810 1808 1692 1809 1922
8 1829 1713 1811 1926 1712 1592 1697 1813
8 1813 1697 1812 1928 1699 1577 1698 1815
8 1735 1614 1712 1828 1816 1699 1813 1929
8 1815 1698 1814 1931 1701 1578 1700 1818
8 1702 1579 1699 1816 1819 1701 1815 1932
8 1818 1700 1817 1933 1704 1580 1703 1820
8 1819 1701 1818 1934 1705 1581 1704 1821
8 1821 1704 1820 1935 1707 1584 1706 1822
8 1824 1709 1632 1751 1937 1823 1750 1865
8 1716 1593 1709 1824 1834 1715 1823 1937
8 1825 1710 1633 1752 1938 1824 1751 1866
8 1717 1594 1710 1825 1835 1716 1824 1938
8 1945 1830 1712 1828 1851 1733 1614 1735
8 1830 1714 1831 1946 1712 1592 1713 1829
8 1947 1832 1714 1830 1849 1730 1611 1733
8 1843 1729 1607 1725 1950 1833 1715 1834
8 1721 1603 1716 1835 1836 1725 1834 1951
8 1836 1725 1842 1953 1721 1603 1724 1839
8 1723 1838 1719 1601 1840 1954 1837 1722
8 1954 1840 1743 1852 1837 1722 1623 1736
8 1724 1839 1720 1602 1841 1955 1838 1723
8 1841 1727 1844 1956 1723 1605 1726 1840
8 1956 1844 1747 1859 1840 1726 1628 1743
8 1728 1842 1724 1606 1845 1957 1841 1727
8 1725 1607 1729 1843 1842 1728 1846 1958
8 1741 1627 1746 1857 1849 1730 1848 1965
8 1734 1612 1731 1850 1851 1733 1849 1966
8 1854 1741 1849 1966 1738 1622 1731 1850
8 1967 1859 1745 1853 1852 1743 1626 1737
8 1968 1860 1744 1856 1853 1745 1625 1739
8 1854 1741 1622 1738 1969 1857 1742 1855
8 1855 1742 1624 1740 1970 1858 1744 1856
8 1857 1746 1631 1742 1971 1861 1749 1858
8 1858 1749 1630 1744 1972 1863 1748 1860
8 1859 1747 1862 1973 1745 1629 1748 1860
8 1875 1768 1864 1977 1761 1651 1750 1865
8 1755 1644 1761 1869 1866 1751 1865 1978
8 1867 1760 1874 1979 1754 1646 1763 1868
8 1774 1658 1775 1887 1867 1760 1874 1979
8 1870 1766 1648 1756 1980 1877 1763 1868
8 1872 1762 1875 1981 1758 1645 1761 1869
8 1757 1649 1766 1870 1871 1765 1880 1982
8 1983 1879 1764 1873 1871 1765 1647 1759
8 1873 1764 1876 1984 1759 1647 1762 1872
8 1877 1773 1655 1763 1986 1881 1767 1874
8 1775 1659 1776 1888 1874 1767 1881 1986
8 1876 1769 1882 1987 1762 1652 1768 1875
8 1878 1770 1883 1988 1764 1653 1769 1876
8 1880 1772 1656 1766 1989 1886 1773 1877
8 1878 1770 1653 1764 1990 1884 1771 1879
8 1765 1654 1772 1880 1879 1771 1885 1991
8 1778 1664 1779 1890 1887 1775 1888 1997
8 1998 1889 1776 1888 1891 1780 1665 1779
8 1893 1782 1891 2000 1781 1668 1779 1890
8 1894 1783 1892 2001 1782 1669 1780 1891
8 1784 1671 1785 1896 1893 1782 1894 2003
8 1897 1786 1895 2004 1785 1672 1783 1894
8 1790 1675 1789 1904 1896 1785 1897 2006
8 1901 1787 1898 2007 1789 1673 1786 1897
8 1903 1788 1900 2013 1789 1673 1787 1901
8 1792 1676 1791 1906 1903 1788 1902 2016
8 1907 1792 1903 2017 1795 1678 1789 1904
8 1906 1791 1677 1794 2019 1905 1793 1909
8 1907 1792 1678 1795 2020 1906 1794 1910
8 1797 1679 1796 1912 1909 1793 1908 2022
8 1798 1680 1797 1913 1910 1794 1909 2023
8 1800 1682 1799 1915 1912 1796 1911 2025
8 1801 1683 1800 1916 1913 1797 1912 2026
8 1803 1687 1804 1918 1915 1799 1914 2028
8 1802 1686 1803 1917 1916 1800 1915 2029
8 1805 1689 1806 1920 1917 1803 1918 2030
8 1806 1690 1807 1921 1918 1804 1919 2031
8 1808 1692 1809 1922 1920 1806 1921 2032
8 1939 1826 1924 2037 1829 1713 1811 1926
8 1926 1811 1925 2039 1813 1697 1812 1928
8 1944 1829 1926 2040 1828 1712 1813 1929
8 1928 1812 1927 2042 1815 1698 1814 1931
8 1929 1813 1928 2043 1816 1699 1815 1932
8 1931 1814 1930 2044 1818 1700 1817 1933
8 1932 1815 1931 2045 1819 1701 1818 1934
8 1934 1818 1933 2046 1821 1704 1820 1935
8 2048 1936 1823 1937 1977 1864 1750 1865
8 1950 1833 1715 1834 2048 1936 1823 1937
8 1938 1824 1751 1866 2049 1937 1865 1978
8 1835 1716 1824 1938 1951 1834 1937 2049
8 1939 1826 1713 1829 2053 1942 1831 1946
8 1940 1827 1923 2035 2053 1942 1826 1939
8 1945 1830 1946 2058 1828 1712 1829 1944
8 2059 1947 1830 1945 1966 1849 1733 1851
8 1947 1832 1730 1849 2060 1948 1848 1965
8 1947 1832 1948 2060 1830 1714 1831 1946
8 1959 1847 1729 1843 2063 1949 1833 1950
8 1952 1843 1725 1836 2064 1950 1834 1951
8 1836 1725 1843 1952 1953 1842 1958 2066
8 1953 1842 1957 2067 1839 1724 1841 1955
8 1841 1955 1838 1723 1956 2068 1954 1840
8 2068 1956 1859 1967 1954 1840 1743 1852
8 1956 1844 1960 2069 1859 1747 1862 1973
8 1845 1957 1841 1727 1960 2069 1956 1844
8 1728 1842 1957 1845 1846 1958 2071 1961
8 1962 2072 1959 1847 1846 1958 1843 1729
8 1971 1861 1964 2077 1857 1746 1848 1965
8 1854 1741 1857 1969 1966 1849 1965 2078
8 1967 1859 1973 2079 1853 1745 1860 1968
8 1970 1858 1744 1856 2080 1972 1860 1968
8 1969 1857 1742 1855 2081 1971 1858 1970
8 1971 1861 1749 1858 2082 1974 1863 1972
8 1973 1862 1975 2083 1860 1748 1863 1972
8 1987 1882 1976 2086 1875 1768 1864 1977
8 1981 1875 1977 2087 1869 1761 1865 1978
8 1980 1877 1763 1868 2088 1986 1874 1979
8 1887 1775 1888 1997 1979 1874 1986 2088
8 1880 1982 2089 1989 1766 1870 1980 1877
8 1984 1876 1987 2090 1872 1762 1875 1981
8 1765 1871 1983 1879 1880 1982 2091 1991
8 1985 1878 1764 1873 2092 1990 1879 1983
8 1985 1878 1988 2093 1873 1764 1876 1984
8 2094 1992 1881 1986 1998 1889 1776 1888
8 1986 1881 1992 2094 1877 1773 1886 1989
8 1988 1883 1993 2095 1876 1769 1882 1987
8 1878 1770 1884 1990 1988 1883 1994 2096
8 1991 1885 1772 1880 2097 1996 1886 1989
8 1879 1771 1885 1991 1990 1884 1995 2098
8 2103 1998 1888 1997 2000 1891 1779 1890
8 2104 1999 1889 1998 2001 1892 1780 1891
8 2003 1894 2001 2106 1893 1782 1891 2000
8 2004 1895 2002 2107 1894 1783 1892 2001
8 2006 1897 2004 2109 1896 1785 1894 2003
8 2007 1898 2005 2110 1897 1786 1895 2004
8 2014 1901 2007 2112 1904 1789 1897 2006
8 2011 1899 2008 2113 1901 1787 1898 2007
8 2119 2010 1899 2011 2013 1900 1787 1901
8 2016 1902 2012 2122 1903 1788 1900 2013
8 2017 1903 2013 2123 1904 1789 1901 2014
8 1906 1791 1905 2019 2016 1902 2015 2125
8 1907 1792 1906 2020 2017 1903 2016 2126
8 1909 1793 1908 2022 2019 1905 2018 2128
8 2020 1906 1794 1910 2129 2019 1909 2023
8 1912 1796 1911 2025 2022 1908 2021 2131
8 1913 1797 1912 2026 2023 1909 2022 2132
8 1915 1799 1914 2028 2025 1911 2024 2134
8 1916 1800 1915 2029 2026 1912 2025 2135
8 1918 1804 1919 2031 2028 1914 2027 2136
8 1917 1803 1918 2030 2029 1915 2028 2137
8 1920 1806 1921 2032 2030 1918 2031 2138
8 1940 1827 1941 2054 2035 1923 2033 2140
8 2035 1923 2034 2143 1939 1826 1924 2037
8 2037 1924 2036 2146 1926 1811 1925 2039
8 2051 1939 2037 2147 1944 1829 1926 2040
8 2039 1925 2038 2149 1928 1812 1927 2042
8 2040 1926 2039 2150 1929 1813 1928 2043
8 2042 1927 2041 2151 1931 1814 1930 2044
8 2043 1928 2042 2152 1932 1815 1931 2045
8 2045 1931 2044 2153 1934 1818 1933 2046
8 2155 2047 1936 2048 2086 1976 1864 1977
8 2063 1949 1833 1950 2155 2047 1936 2048
8 2156 2048 1937 2049 2087 1977 1865 1978
8 2064 1950 1834 1951 2156 2048 1937 2049
8 2051 1939 1829 1944 2160 2053 1946 2058
8 2052 1940 2035 2144 2160 2053 1939 2051
8 2053 1942 1831 1946 2163 2057 1948 2060
8 2055 1943 1827 1940 2163 2057 1942 2053
8 2055 1943 2056 2164 1940 1827 1941 2054
8 2059 1947 1849 1966 2167 2060 1965 2078
8 2059 1947 2060 2167 1945 1830 1946 2058
8 2077 1964 2061 2168 1965 1848 1948 2060
8 2070 1963 1847 1959 2170 2062 1949 2063
8 2065 1959 1843 1952 2171 2063 1950 2064
8 2173 2072 1958 2066 2065 1959 1843 1952
8 1953 1842 1958 2066 2067 1957 2071 2174
8 2068 1956 2069 2175 1967 1859 1973 2079
8 2067 1957 2069 2175 1955 1841 1956 2068
8 1845 1957 2069 1960 1961 2071 2176 2073
8 2069 1960 2073 2176 1973 1862 1975 2083
8 2070 1963 2075 2177 1959 1847 1962 2072
8 1846 1958 2071 1961 1962 2072 2178 2074
8 2077 1964 1861 1971 2182 2076 1974 2082
8 2081 1971 2077 2183 1969 1857 1965 2078
8 2079 1973 2083 2184 1968 1860 1972 2080
8 2081 1971 1858 1970 2185 2082 1972 2080
8 2083 1975 2084 2186 1972 1863 1974 2082
8 2086 1976 1882 1987 2189 2085 1993 2095
8 2090 1987 2086 2190 1981 1875 1977 2087
8 2191 2094 1986 2088 2103 1998 1888 1997
8 2088 1986 2094 2191 1980 1877 1989 2089
8 1991 2091 2192 2097 1880 1982 2089 1989
8 2093 1988 2095 2193 1984 1876 1987 2090
8 1879 1983 2092 1990 1991 2091 2194 2098
8 1985 1878 1990 2092 2093 1988 2096 2195
8 2097 1996 1886 1989 2196 2099 1992 2094
8 2196 2099 1992 2094 2104 1999 1889 1998
8 1994 2096 1988 1883 2100 2197 2095 1993
8 2096 1994 1884 1990 2198 2101 1995 2098
8 1995 2098 2199 2102 1885 1991 2097 1996
8 2203 2104 1998 2103 2106 2001 1891 2000
8 2107 2002 2105 2204 2001 1892 1999 2104
8 2109 2004 2107 2206 2003 1894 2001 2106
8 2110 2005 2108 2207 2004 1895 2002 2107
8 2112 2007 2110 2209 2006 1897 2004 2109
8 2113 2008 2111 2210 2007 1898 2005 2110
8 2120 2011 2113 2212 2014 1901 2007 2112
8 2117 2009 2114 2213 2011 1899 2008 2113
8 2219 2116 2009 2117 2119 2010 1899 2011
8 2222 2118 2010 2119 2122 2012 1900 2013
8 2223 2119 2011 2120 2123 2013 1901 2014
8 2016 1902 2015 2125 2122 2012 2121 2225
8 2126 2016 2122 2226 2017 1903 2013 2123
8 2019 1905 2018 2128 2125 2015 2124 2228
8 2020 1906 2019 2129 2126 2016 2125 2229
8 2022 1908 2021 2131 2128 2018 2127 2231
8 2023 1909 2022 2132 2129 2019 2128 2232
8 2025 1911 2024 2134 2131 2021 2130 2234
8 2026 1912 2025 2135 2132 2022 2131 2235
8 1914 2028 2134 2024 2027 2136 2236 2133
8 2029 1915 2028 2137 2135 2025 2134 2237
8 2030 1918 2031 2138 2137 2028 2136 2238
8 2157 2050 2139 2240 2054 1941 2033 2140
8 2052 1940 2054 2161 2144 2035 2140 2242
8 2140 2033 2141 2243 2035 1923 2034 2143
8 2143 2034 2142 2246 2037 1924 2036 2146
8 2144 2035 2143 2247 2051 1939 2037 2147
8 2146 2036 2145 2249 2039 1925 2038 2149
8 2147 2037 2146 2250 2040 1926 2039 2150
8 2149 2038 2148 2251 2042 1927 2041 2151
8 2150 2039 2149 2252 2043 1928 2042 2152
8 2152 2042 2151 2253 2045 1931 2044 2153
8 2255 2154 2047 2155 2189 2085 1976 2086
8 2170 2062 1949 2063 2255 2154 2047 2155
8 2256 2155 2048 2156 2190 2086 1977 2087
8 2171 2063 1950 2064 2256 2155 2048 2156
8 2258 2159 2050 2157 2164 2056 1941 2054
8 2160 2053 1946 2058 2262 2163 2060 2167
8 2162 2055 1940 2052 2262 2163 2053 2160
8 2162 2055 2164 2263 2052 1940 2054 2161
8 2163 2057 1948 2060 2264 2165 2061 2168
8 2055 1943 2057 2163 2164 2056 2165 2264
8 2182 2076 2166 2268 2077 1964 2061 2168
8 2183 2077 2168 2269 2078 1965 2060 2167
8 2070 1963 2062 2170 2177 2075 2169 2271
8 2172 2070 1959 2065 2272 2170 2063 2171
8 2172 2070 2177 2273 2065 1959 2072 2173
8 2066 1958 2072 2173 2174 2071 2178 2274
8 2067 1957 2071 2174 2175 2069 2176 2275
8 2175 2069 2176 2275 2079 1973 2083 2184
8 2071 1961 2074 2178 2176 2073 2179 2276
8 2176 2073 2179 2276 2083 1975 2084 2186
8 2072 1962 2075 2177 2178 2074 2180 2277
8 2182 2076 1974 2082 2280 2181 2084 2186
8 2183 2077 1971 2081 2281 2182 2082 2185
8 2184 2083 2186 2282 2080 1972 2082 2185
8 2189 2085 1993 2095 2285 2188 2100 2197
8 2190 2086 1987 2090 2286 2189 2095 2193
8 2192 2097 1989 2089 2287 2196 2094 2191
8 2287 2196 2094 2191 2203 2104 1998 2103
8 2194 2098 1991 2091 2288 2199 2097 2192
8 2195 2096 2197 2289 2093 1988 2095 2193
8 2096 2195 2290 2198 1990 2092 2194 2098
8 2097 1996 2099 2196 2199 2102 2200 2291
8 2196 2099 1999 2104 2291 2200 2105 2204
8 2100 2197 2292 2201 1994 2096 2198 2101
8 1995 2098 2198 2101 2102 2199 2293 2202
8 2206 2107 2204 2296 2106 2001 2104 2203
8 2207 2108 2205 2297 2107 2002 2105 2204
8 2209 2110 2207 2299 2109 2004 2107 2206
8 2210 2111 2208 2300 2110 2005 2108 2207
8 2212 2113 2210 2302 2112 2007 2110 2209
8 2213 2114 2211 2303 2113 2008 2111 2210
8 2220 2117 2213 2305 2120 2011 2113 2212
8 2216 2115 2214 2306 2117 2009 2114 2213
8 2216 2115 2009 2117 2311 2217 2116 2219
8 2219 2116 2010 2119 2314 2218 2118 2222
8 2315 2219 2117 2220 2223 2119 2011 2120
8 2122 2012 2121 2225 2222 2118 2221 2317
8 2318 2222 2119 2223 2226 2122 2013 2123
8 2125 2015 2124 2228 2225 2121 2224 2320
8 2126 2016 2125 2229 2226 2122 2225 2321
8 2128 2018 2127 2231 2228 2124 2227 2323
8 2129 2019 2128 2232 2229 2125 2228 2324
8 2131 2021 2130 2234 2231 2127 2230 2326
8 2132 2022 2131 2235 2232 2128 2231 2327
8 2134 2024 2133 2236 2234 2130 2233 2328
8 2135 2025 2134 2237 2235 2131 2234 2329
8 2137 2028 2136 2238 2237 2134 2236 2330
8 2157 2050 2158 2259 2240 2139 2239 2332
8 2257 2157 2240 2334 2161 2054 2140 2242
8 2240 2139 2241 2335 2140 2033 2141 2243
8 2242 2140 2243 2337 2144 2035 2143 2247
8 2243 2141 2244 2338 2143 2034 2142 2246
8 2246 2142 2245 2341 2146 2036 2145 2249
8 2247 2143 2246 2342 2147 2037 2146 2250
8 2249 2145 2248 2343 2149 2038 2148 2251
8 2250 2146 2249 2344 2150 2039 2149 2252
8 2252 2149 2251 2345 2152 2042 2151 2253
8 2169 2271 2347 2254 2062 2170 2255 2154
8 2189 2085 2188 2285 2255 2154 2254 2347
8 2348 2255 2155 2256 2286 2189 2086 2190
8 2272 2170 2063 2171 2348 2255 2155 2256
8 2349 2258 2157 2257 2263 2164 2054 2161
8 2258 2159 2261 2351 2157 2050 2158 2259
8 2258 2159 2056 2164 2351 2261 2165 2264
8 2262 2163 2060 2167 2355 2264 2168 2269
8 2162 2055 2163 2262 2263 2164 2264 2355
8 2357 2266 2165 2264 2268 2166 2061 2168
8 2268 2166 2076 2182 2361 2267 2181 2280
8 2281 2182 2268 2362 2183 2077 2168 2269
8 2271 2169 2270 2364 2177 2075 2180 2277
8 2172 2070 2170 2272 2273 2177 2271 2365
8 2072 2173 2274 2178 2177 2273 2366 2277
8 2071 2174 2275 2176 2178 2274 2367 2276
8 2275 2176 2276 2367 2184 2083 2186 2282
8 2283 2187 2084 2186 2368 2278 2179 2276
8 2178 2074 2180 2277 2276 2179 2278 2368
8 2283 2187 2279 2370 2186 2084 2181 2280
8 2281 2182 2082 2185 2371 2280 2186 2282
8 2188 2285 2374 2284 2100 2197 2292 2201
8 2286 2189 2095 2193 2375 2285 2197 2289
8 2192 2097 2196 2287 2288 2199 2291 2376
8 2287 2196 2104 2203 2376 2291 2204 2296
8 2194 2098 2199 2288 2290 2198 2293 2377
8 2289 2197 2096 2195 2378 2292 2198 2290
8 2291 2200 2105 2204 2379 2294 2205 2297
8 2199 2102 2200 2291 2293 2202 2294 2379
8 2198 2101 2202 2293 2292 2201 2295 2380
8 2299 2207 2297 2383 2206 2107 2204 2296
8 2300 2208 2298 2384 2207 2108 2205 2297
8 2302 2210 2300 2386 2209 2110 2207 2299
8 2303 2211 2301 2387 2210 2111 2208 2300
8 2305 2213 2303 2389 2212 2113 2210 2302
8 2306 2214 2304 2390 2213 2114 2211 2303
8 2310 2216 2306 2392 2220 2117 2213 2305
8 2308 2215 2307 2393 2216 2115 2214 2306
8 2308 2215 2115 2216 2396 2309 2217 2311
8 2310 2216 2117 2220 2398 2311 2219 2315
8 2311 2217 2116 2219 2399 2312 2218 2314
8 2314 2218 2118 2222 2402 2313 2221 2317
8 2315 2219 2119 2223 2403 2314 2222 2318
8 2225 2121 2224 2320 2317 2221 2316 2405
8 2226 2122 2225 2321 2318 2222 2317 2406
8 2228 2124 2227 2323 2320 2224 2319 2408
8 2229 2125 2228 2324 2321 2225 2320 2409
8 2231 2127 2230 2326 2323 2227 2322 2411
8 2232 2128 2231 2327 2324 2228 2323 2412
8 2234 2130 2233 2328 2326 2230 2325 2413
8 2235 2131 2234 2329 2327 2231 2326 2414
8 2237 2134 2236 2330 2329 2234 2328 2415
8 2259 2158 2260 2352 2332 2239 2331 2417
8 2257 2157 2259 2350 2334 2240 2332 2419
8 2240 2139 2239 2332 2335 2241 2333 2420
8 2334 2240 2335 2422 2242 2140 2243 2337
8 2335 2241 2336 2423 2243 2141 2244 2338
8 2337 2243 2338 2425 2247 2143 2246 2342
8 2338 2244 2339 2426 2246 2142 2245 2341
8 2341 2245 2340 2428 2249 2145 2248 2343
8 2342 2246 2341 2429 2250 2146 2249 2344
8 2344 2249 2343 2430 2252 2149 2251 2345
8 2188 2285 2347 2254 2284 2374 2432 2346
8 2347 2254 2346 2432 2271 2169 2270 2364
8 2365 2271 2170 2272 2433 2347 2255 2348
8 2286 2189 2285 2375 2348 2255 2347 2433
8 2349 2258 2351 2435 2257 2157 2259 2350
8 2349 2258 2164 2263 2435 2351 2264 2355
8 2259 2158 2261 2351 2352 2260 2354 2437
8 2356 2265 2354 2437 2264 2165 2261 2351
8 2441 2357 2264 2355 2362 2268 2168 2269
8 2356 2265 2165 2264 2442 2358 2266 2357
8 2443 2359 2266 2357 2361 2267 2166 2268
8 2370 2279 2360 2446 2280 2181 2267 2361
8 2362 2268 2182 2281 2447 2361 2280 2371
8 2180 2277 2368 2278 2270 2364 2449 2363
8 2271 2365 2273 2177 2364 2450 2366 2277
8 2372 2283 2186 2282 2451 2368 2276 2367
8 2178 2274 2367 2276 2277 2366 2451 2368
8 2283 2187 2278 2368 2370 2279 2369 2452
8 2372 2283 2370 2453 2282 2186 2280 2371
8 2284 2374 2455 2373 2201 2292 2380 2295
8 2375 2285 2197 2289 2456 2374 2292 2378
8 2376 2291 2204 2296 2457 2379 2297 2383
8 2288 2199 2291 2376 2377 2293 2379 2457
8 2198 2290 2378 2292 2293 2377 2458 2380
8 2293 2202 2294 2379 2380 2295 2381 2459
8 2384 2298 2381 2459 2297 2205 2294 2379
8 2386 2300 2384 2463 2299 2207 2297 2383
8 2387 2301 2385 2464 2300 2208 2298 2384
8 2389 2303 2387 2466 2302 2210 2300 2386
8 2390 2304 2388 2467 2303 2211 2301 2387
8 2392 2306 2390 2469 2305 2213 2303 2389
8 2393 2307 2391 2470 2306 2214 2304 2390
8 2395 2308 2393 2472 2310 2216 2306 2392
8 2308 2215 2309 2396 2393 2307 2394 2473
8 2395 2308 2216 2310 2475 2396 2311 2398
8 2396 2309 2217 2311 2476 2397 2312 2399
8 2398 2311 2219 2315 2478 2399 2314 2403
8 2399 2312 2218 2314 2479 2400 2313 2402
8 2317 2221 2316 2405 2402 2313 2401 2482
8 2403 2314 2222 2318 2483 2402 2317 2406
8 2320 2224 2319 2408 2405 2316 2404 2485
8 2321 2225 2320 2409 2406 2317 2405 2486
8 2323 2227 2322 2411 2408 2319 2407 2488
8 2324 2228 2323 2412 2409 2320 2408 2489
8 2326 2230 2325 2413 2411 2322 2410 2490
8 2327 2231 2326 2414 2412 2323 2411 2491
8 2329 2234 2328 2415 2414 2326 2413 2492
8 2417 2331 2260 2352 2494 2416 2353 2438
8 2350 2259 2352 2436 2419 2332 2417 2496
8 2332 2239 2331 2417 2420 2333 2418 2497
8 2334 2240 2332 2419 2422 2335 2420 2499
8 2420 2333 2421 2500 2335 2241 2336 2423
8 2422 2335 2423 2502 2337 2243 2338 2425
8 2423 2336 2424 2503 2338 2244 2339 2426
8 2425 2338 2426 2505 2342 2246 2341 2429
8 2426 2339 2427 2506 2341 2245 2340 2428
8 2429 2341 2428 2507 2344 2249 2343 2430
8 2432 2346 2284 2374 2509 2431 2373 2455
8 2432 2346 2431 2509 2364 2270 2363 2449
8 2375 2285 2374 2456 2433 2347 2432 2510
8 2347 2433 2365 2271 2432 2510 2450 2364
8 2350 2259 2351 2435 2436 2352 2437 2514
8 2440 2356 2437 2514 2355 2264 2351 2435
8 2352 2260 2354 2437 2438 2353 2439 2516
8 2356 2265 2358 2442 2437 2354 2439 2516
8 2440 2356 2264 2355 2518 2442 2357 2441
8 2519 2443 2357 2441 2447 2361 2268 2362
8 2443 2359 2444 2520 2357 2266 2358 2442
8 2443 2359 2267 2361 2520 2444 2360 2446
8 2446 2360 2279 2370 2523 2445 2369 2452
8 2453 2370 2446 2524 2371 2280 2361 2447
8 2449 2363 2448 2525 2368 2278 2369 2452
8 2366 2277 2364 2450 2451 2368 2449 2526
8 2372 2283 2368 2451 2453 2370 2452 2527
8 2455 2373 2295 2380 2529 2454 2382 2460
8 2456 2374 2292 2378 2530 2455 2380 2458
8 2377 2293 2379 2457 2458 2380 2459 2531
8 2463 2384 2459 2531 2383 2297 2379 2457
8 2533 2461 2382 2460 2459 2381 2295 2380
8 2464 2385 2461 2533 2384 2298 2381 2459
8 2466 2387 2464 2537 2386 2300 2384 2463
8 2467 2388 2465 2538 2387 2301 2385 2464
8 2469 2390 2467 2540 2389 2303 2387 2466
8 2470 2391 2468 2541 2390 2304 2388 2467
8 2472 2393 2470 2543 2392 2306 2390 2469
8 2393 2307 2394 2473 2470 2391 2471 2544
8 2395 2308 2396 2475 2472 2393 2473 2546
8 2396 2309 2397 2476 2473 2394 2474 2547
8 2475 2396 2311 2398 2549 2476 2399 2478
8 2476 2397 2312 2399 2550 2477 2400 2479
8 2478 2399 2314 2403 2552 2479 2402 2483
8 2479 2400 2313 2402 2553 2480 2401 2482
8 2405 2316 2404 2485 2482 2401 2481 2556
8 2406 2317 2405 2486 2483 2402 2482 2557
8 2408 2319 2407 2488 2485 2404 2484 2559
8 2409 2320 2408 2489 2486 2405 2485 2560
8 2411 2322 2410 2490 2488 2407 2487 2561
8 2412 2323 2411 2491 2489 2408 2488 2562
8 2414 2326 2413 2492 2491 2411 2490 2563
8 2513 2434 2493 2565 2438 2353 2416 2494
8 2496 2417 2352 2436 2567 2494 2438 2515
8 2494 2416 2495 2568 2417 2331 2418 2497
8 2419 2332 2417 2496 2499 2420 2497 2570
8 2497 2418 2498 2571 2420 2333 2421 2500
8 2499 2420 2500 2573 2422 2335 2423 2502
8 2500 2421 2501 2574 2423 2336 2424 2503
8 2502 2423 2503 2576 2425 2338 2426 2505
8 2503 2424 2504 2577 2426 2339 2427 2506
8 2505 2426 2506 2578 2429 2341 2428 2507
8 2509 2431 2373 2455 2580 2508 2454 2529
8 2509 2431 2508 2580 2449 2363 2448 2525
8 2432 2510 2581 2509 2374 2456 2530 2455
8 2432 2510 2450 2364 2509 2581 2526 2449
8 2583 2511 2434 2513 2516 2439 2353 2438
8 2436 2352 2437 2514 2515 2438 2516 2588
8 2440 2356 2442 2518 2514 2437 2516 2588
8 2442 2358 2444 2520 2516 2439 2517 2589
8 2519 2443 2520 2591 2441 2357 2442 2518
8 2519 2443 2361 2447 2591 2520 2446 2524
8 2446 2360 2445 2523 2520 2444 2521 2592
8 2525 2448 2522 2593 2452 2369 2445 2523
8 2524 2446 2370 2453 2594 2523 2452 2527
8 2526 2449 2525 2595 2451 2368 2452 2527
8 2534 2462 2528 2597 2460 2382 2454 2529
8 2530 2455 2380 2458 2598 2529 2460 2532
8 2599 2533 2460 2532 2531 2459 2380 2458
8 2537 2464 2533 2599 2463 2384 2459 2531
8 2534 2462 2382 2460 2601 2535 2461 2533
8 2538 2465 2535 2601 2464 2385 2461 2533
8 2540 2467 2538 2604 2466 2387 2464 2537
8 2541 2468 2539 2605 2467 2388 2465 2538
8 2543 2470 2541 2607 2469 2390 2467 2540
8 2470 2391 2471 2544 2541 2468 2542 2608
8 2472 2393 2473 2546 2543 2470 2544 2610
8 2473 2394 2474 2547 2544 2471 2545 2611
8 2475 2396 2476 2549 2546 2473 2547 2613
8 2476 2397 2477 2550 2547 2474 2548 2614
8 2549 2476 2399 2478 2616 2550 2479 2552
8 2479 2400 2480 2553 2550 2477 2551 2617
8 2552 2479 2402 2483 2619 2553 2482 2557
8 2482 2401 2481 2556 2553 2480 2554 2620
8 2485 2404 2484 2559 2556 2481 2555 2623
8 2486 2405 2485 2560 2557 2482 2556 2624
8 2488 2407 2487 2561 2559 2484 2558 2625
8 2489 2408 2488 2562 2560 2485 2559 2626
8 2491 2411 2490 2563 2562 2488 2561 2627
8 2513 2434 2512 2585 2565 2493 2564 2630
8 2586 2513 2565 2632 2515 2438 2494 2567
8 2565 2493 2566 2633 2494 2416 2495 2568
8 2567 2494 2568 2635 2496 2417 2497 2570
8 2568 2495 2569 2636 2497 2418 2498 2571
8 2570 2497 2571 2638 2499 2420 2500 2573
8 2571 2498 2572 2639 2500 2421 2501 2574
8 2573 2500 2574 2641 2502 2423 2503 2576
8 2574 2501 2575 2642 2503 2424 2504 2577
8 2576 2503 2577 2643 2505 2426 2506 2578
8 2597 2528 2579 2645 2529 2454 2508 2580
8 2580 2508 2579 2645 2525 2448 2522 2593
8 2581 2509 2455 2530 2646 2580 2529 2598
8 2581 2509 2580 2646 2526 2449 2525 2595
8 2583 2511 2582 2648 2513 2434 2512 2585
8 2583 2511 2439 2516 2648 2582 2517 2589
8 2649 2583 2513 2586 2588 2516 2438 2515
8 2589 2517 2444 2520 2653 2587 2521 2592
8 2518 2442 2520 2591 2588 2516 2589 2654
8 2593 2522 2590 2655 2523 2445 2521 2592
8 2524 2446 2523 2594 2591 2520 2592 2656
8 2595 2525 2593 2657 2527 2452 2523 2594
8 2602 2536 2596 2659 2534 2462 2528 2597
8 2600 2534 2597 2660 2532 2460 2529 2598
8 2600 2534 2460 2532 2661 2601 2533 2599
8 2604 2538 2601 2661 2537 2464 2533 2599
8 2602 2536 2462 2534 2663 2603 2535 2601
8 2601 2535 2465 2538 2663 2603 2539 2605
8 2607 2541 2605 2665 2540 2467 2538 2604
8 2608 2542 2606 2666 2541 2468 2539 2605
8 2543 2470 2544 2610 2607 2541 2608 2668
8 2544 2471 2545 2611 2608 2542 2609 2669
8 2546 2473 2547 2613 2610 2544 2611 2671
8 2547 2474 2548 2614 2611 2545 2612 2672
8 2549 2476 2550 2616 2613 2547 2614 2674
8 2550 2477 2551 2617 2614 2548 2615 2675
8 2552 2479 2553 2619 2616 2550 2617 2677
8 2553 2480 2554 2620 2617 2551 2618 2678
8 2557 2482 2556 2624 2619 2553 2620 2680
8 2556 2481 2555 2623 2620 2554 2621 2681
8 2559 2484 2558 2625 2623 2555 2622 2683
8 2560 2485 2559 2626 2624 2556 2623 2684
8 2562 2488 2561 2627 2626 2559 2625 2685
8 2690 2629 2564 2630 2650 2584 2512 2585
8 2586 2513 2585 2651 2632 2565 2630 2691
8 2630 2564 2631 2692 2565 2493 2566 2633
8 2632 2565 2633 2694 2567 2494 2568 2635
8 2633 2566 2634 2695 2568 2495 2569 2636
8 2635 2568 2636 2697 2570 2497 2571 2638
8 2636 2569 2637 2698 2571 2498 2572 2639
8 2638 2571 2639 2700 2573 2500 2574 2641
8 2639 2572 2640 2701 2574 2501 2575 2642
8 2641 2574 2642 2702 2576 2503 2577 2643
8 2597 2528 2596 2659 2645 2579 2644 2704
8 2645 2579 2644 2704 2593 2522 2590 2655
8 2660 2597 2645 2705 2598 2529 2580 2646
8 2646 2580 2645 2705 2595 2525 2593 2657
8 2650 2584 2512 2585 2707 2647 2582 2648
8 2648 2582 2517 2589 2707 2647 2587 2653
8 2649 2583 2648 2708 2586 2513 2585 2651
8 2649 2583 2516 2588 2708 2648 2589 2654
8 2655 2590 2652 2710 2592 2521 2587 2653
8 2654 2589 2520 2591 2711 2653 2592 2656
8 2657 2593 2655 2712 2594 2523 2592 2656
8 2602 2536 2603 2663 2659 2596 2658 2714
8 2662 2602 2659 2715 2600 2534 2597 2660
8 2662 2602 2534 2600 2717 2663 2601 2661
8 2661 2601 2538 2604 2717 2663 2605 2665
8 2666 2606 2664 2718 2605 2539 2603 2663
8 2668 2608 2666 2720 2607 2541 2605 2665
8 2608 2542 2609 2669 2666 2606 2667 2721
8 2610 2544 2611 2671 2668 2608 2669 2723
8 2611 2545 2612 2672 2669 2609 2670 2724
8 2613 2547 2614 2674 2671 2611 2672 2726
8 2614 2548 2615 2675 2672 2612 2673 2727
8 2616 2550 2617 2677 2674 2614 2675 2729
8 2617 2551 2618 2678 2675 2615 2676 2730
8 2619 2553 2620 2680 2677 2617 2678 2732
8 2620 2554 2621 2681 2678 2618 2679 2733
8 2624 2556 2623 2684 2680 2620 2681 2735
8 2681 2621 2555 2623 2736 2682 2622 2683
8 2626 2559 2625 2685 2684 2623 2683 2737
8 2688 2628 2584 2650 2740 2686 2647 2707
8 2688 2628 2687 2742 2650 2584 2629 2690
8 2690 2629 2689 2745 2630 2564 2631 2692
8 2746 2690 2630 2691 2709 2650 2585 2651
8 2691 2630 2692 2747 2632 2565 2633 2694
8 2692 2631 2693 2748 2633 2566 2634 2695
8 2694 2633 2695 2750 2635 2568 2636 2697
8 2695 2634 2696 2751 2636 2569 2637 2698
8 2697 2636 2698 2753 2638 2571 2639 2700
8 2698 2637 2699 2754 2639 2572 2640 2701
8 2700 2639 2701 2755 2641 2574 2642 2702
8 2659 2596 2658 2714 2704 2644 2703 2757
8 2704 2644 2703 2757 2655 2590 2652 2710
8 2660 2597 2659 2715 2705 2645 2704 2758
8 2705 2645 2704 2758 2657 2593 2655 2712
8 2759 2706 2647 2707 2710 2652 2587 2653
8 2709 2650 2585 2651 2760 2707 2648 2708
8 2708 2648 2589 2654 2760 2707 2653 2711
8 2712 2655 2710 2761 2656 2592 2653 2711
8 2763 2713 2658 2714 2718 2664 2603 2663
8 2662 2602 2663 2717 2715 2659 2714 2764
8 2720 2666 2718 2767 2665 2605 2663 2717
8 2768 2719 2664 2718 2721 2667 2606 2666
8 2668 2608 2669 2723 2720 2666 2721 2770
8 2669 2609 2670 2724 2721 2667 2722 2771
8 2671 2611 2672 2726 2723 2669 2724 2773
8 2672 2612 2673 2727 2724 2670 2725 2774
8 2674 2614 2675 2729 2726 2672 2727 2776
8 2675 2615 2676 2730 2727 2673 2728 2777
8 2677 2617 2678 2732 2729 2675 2730 2779
8 2678 2618 2679 2733 2730 2676 2731 2780
8 2680 2620 2681 2735 2732 2678 2733 2782
8 2733 2679 2621 2681 2783 2734 2682 2736
8 2735 2681 2623 2684 2784 2736 2683 2737
8 2740 2686 2647 2707 2787 2738 2706 2759
8 2688 2628 2686 2740 2742 2687 2739 2789
8 2743 2688 2650 2709 2790 2740 2707 2760
8 2742 2687 2741 2792 2690 2629 2689 2745
8 2743 2688 2742 2793 2709 2650 2690 2746
8 2745 2689 2744 2795 2692 2631 2693 2748
8 2746 2690 2745 2796 2691 2630 2692 2747
8 2747 2692 2748 2797 2694 2633 2695 2750
8 2748 2693 2749 2798 2695 2634 2696 2751
8 2750 2695 2751 2800 2697 2636 2698 2753
8 2751 2696 2752 2801 2698 2637 2699 2754
8 2753 2698 2754 2802 2700 2639 2701 2755
8 2763 2713 2756 2804 2714 2658 2703 2757
8 2759 2706 2652 2710 2804 2756 2703 2757
8 2715 2659 2714 2764 2758 2704 2757 2805
8 2758 2704 2757 2805 2712 2655 2710 2761
8 2806 2759 2707 2760 2761 2710 2653 2711
8 2765 2716 2762 2808 2718 2664 2713 2763
8 2809 2763 2714 2764 2767 2718 2663 2717
8 2765 2716 2664 2718 2811 2766 2719 2768
8 2813 2768 2718 2767 2770 2721 2666 2720
8 2814 2769 2719 2768 2771 2722 2667 2721
8 2723 2669 2724 2773 2770 2721 2771 2816
8 2724 2670 2725 2774 2771 2722 2772 2817
8 2726 2672 2727 2776 2773 2724 2774 2819
8 2727 2673 2728 2777 2774 2725 2775 2820
8 2729 2675 2730 2779 2776 2727 2777 2822
8 2730 2676 2731 2780 2777 2728 2778 2823
8 2732 2678 2733 2782 2779 2730 2780 2825
8 2780 2731 2679 2733 2826 2781 2734 2783
8 2782 2733 2681 2735 2827 2783 2736 2784
8 2830 2785 2738 2787 2804 2756 2706 2759
8 2789 2739 2686 2740 2832 2786 2738 2787
8 2790 2740 2707 2760 2833 2787 2759 2806
8 2742 2687 2739 2789 2792 2741 2788 2835
8 2743 2688 2740 2790 2793 2742 2789 2836
8 2792 2741 2791 2838 2745 2689 2744 2795
8 2793 2742 2792 2839 2746 2690 2745 2796
8 2795 2744 2794 2841 2748 2693 2749 2798
8 2796 2745 2795 2842 2747 2692 2748 2797
8 2797 2748 2798 2843 2750 2695 2751 2800
8 2798 2749 2799 2844 2751 2696 2752 2801
8 2800 2751 2801 2845 2753 2698 2754 2802
8 2808 2762 2803 2847 2763 2713 2756 2804
8 2809 2763 2804 2848 2764 2714 2757 2805
8 2806 2759 2710 2761 2848 2804 2757 2805
8 2765 2716 2766 2811 2808 2762 2807 2850
8 2810 2765 2808 2851 2767 2718 2763 2809
8 2810 2765 2718 2767 2852 2811 2768 2813
8 2811 2766 2719 2768 2853 2812 2769 2814
8 2855 2814 2768 2813 2816 2771 2721 2770
8 2856 2815 2769 2814 2817 2772 2722 2771
8 2773 2724 2774 2819 2816 2771 2817 2858
8 2774 2725 2775 2820 2817 2772 2818 2859
8 2776 2727 2777 2822 2819 2774 2820 2861
8 2777 2728 2778 2823 2820 2775 2821 2862
8 2779 2730 2780 2825 2822 2777 2823 2864
8 2823 2778 2731 2780 2865 2824 2781 2826
8 2825 2780 2733 2782 2866 2826 2783 2827
8 2869 2828 2785 2830 2847 2803 2756 2804
8 2871 2829 2786 2832 2830 2785 2738 2787
8 2872 2830 2787 2833 2848 2804 2759 2806
8 2789 2739 2786 2832 2835 2788 2831 2874
8 2836 2789 2740 2790 2875 2832 2787 2833
8 2792 2741 2788 2835 2838 2791 2834 2877
8 2793 2742 2789 2836 2839 2792 2835 2878
8 2838 2791 2837 2880 2795 2744 2794 2841
8 2839 2792 2838 2881 2796 2745 2795 2842
8 2841 2794 2840 2882 2798 2749 2799 2844
8 2842 2795 2841 2883 2797 2748 2798 2843
8 2843 2798 2844 2884 2800 2751 2801 2845
8 2886 2846 2803 2847 2850 2807 2762 2808
8 2851 2808 2847 2887 2809 2763 2804 2848
8 2850 2807 2766 2811 2889 2849 2812 2853
8 2810 2765 2811 2852 2851 2808 2850 2890
8 2852 2811 2768 2813 2891 2853 2814 2855
8 2853 2812 2769 2814 2892 2854 2815 2856
8 2894 2856 2814 2855 2858 2817 2771 2816
8 2817 2772 2818 2859 2856 2815 2857 2895
8 2819 2774 2820 2861 2858 2817 2859 2897
8 2820 2775 2821 2862 2859 2818 2860 2898
8 2822 2777 2823 2864 2861 2820 2862 2900
8 2823 2778 2824 2865 2862 2821 2863 2901
8 2864 2823 2780 2825 2902 2865 2826 2866
8 2904 2867 2828 2869 2886 2846 2803 2847
8 2869 2828 2868 2906 2830 2785 2829 2871
8 2907 2869 2830 2872 2887 2847 2804 2848
8 2871 2829 2870 2909 2832 2786 2831 2874
8 2910 2871 2832 2875 2872 2830 2787 2833
8 2835 2788 2831 2874 2877 2834 2873 2912
8 2836 2789 2832 2875 2878 2835 2874 2913
8 2877 2834 2876 2915 2838 2791 2837 2880
8 2839 2792 2835 2878 2881 2838 2877 2916
8 2880 2837 2879 2917 2841 2794 2840 2882
8 2881 2838 2880 2918 2842 2795 2841 2883
8 2883 2841 2882 2919 2843 2798 2844 2884
8 2921 2885 2846 2886 2889 2849 2807 2850
8 2922 2886 2847 2887 2890 2850 2808 2851
8 2889 2849 2812 2853 2924 2888 2854 2892
8 2890 2850 2811 2852 2925 2889 2853 2891
8 2891 2853 2814 2855 2926 2892 2856 2894
8 2892 2854 2815 2856 2927 2893 2857 2895
8 2858 2817 2859 2897 2894 2856 2895 2929
8 2859 2818 2860 2898 2895 2857 2896 2930
8 2861 2820 2862 2900 2897 2859 2898 2932
8 2862 2821 2863 2901 2898 2860 2899 2933
8 2864 2823 2865 2902 2900 2862 2901 2934
8 2904 2867 2846 2886 2936 2903 2885 2921
8 2904 2867 2903 2936 2869 2828 2868 2906
8 2937 2904 2869 2907 2922 2886 2847 2887
8 2906 2868 2905 2939 2871 2829 2870 2909
8 2907 2869 2906 2940 2872 2830 2871 2910
8 2909 2870 2908 2942 2874 2831 2873 2912
8 2910 2871 2909 2943 2875 2832 2874 2913
8 2912 2873 2911 2945 2877 2834 2876 2915
8 2878 2835 2874 2913 2916 2877 2912 2946
8 2915 2876 2914 2947 2880 2837 2879 2917
8 2916 2877 2915 2948 2881 2838 2880 2918
8 2918 2880 2917 2949 2883 2841 2882 2919
8 2921 2885 2849 2889 2951 2920 2888 2924
8 2952 2921 2886 2922 2925 2889 2850 2890
8 2924 2888 2854 2892 2954 2923 2893 2927
8 2925 2889 2853 2891 2955 2924 2892 2926
8 2926 2892 2856 2894 2956 2927 2895 2929
8 2895 2857 2896 2930 2927 2893 2928 2957
8 2897 2859 2898 2932 2929 2895 2930 2959
8 2898 2860 2899 2933 2930 2896 2931 2960
8 2900 2862 2901 2934 2932 2898 2933 2961
8 2936 2903 2885 2921 2963 2935 2920 2951
8 2936 2903 2935 2963 2906 2868 2905 2939
8 2937 2904 2886 2922 2964 2936 2921 2952
8 2937 2904 2936 2964 2907 2869 2906 2940
8 2939 2905 2938 2966 2909 2870 2908 2942
8 2940 2906 2939 2967 2910 2871 2909 2943
8 2942 2908 2941 2969 2912 2873 2911 2945
8 2943 2909 2942 2970 2913 2874 2912 2946
8 2945 2911 2944 2971 2915 2876 2914 2947
8 2946 2912 2945 2972 2916 2877 2915 2948
8 2948 2915 2947 2973 2918 2880 2917 2949
8 2951 2920 2888 2924 2975 2950 2923 2954
8 2952 2921 2889 2925 2976 2951 2924 2955
8 2927 2893 2928 2957 2954 2923 2953 2978
8 2955 2924 2892 2926 2979 2954 2927 2956
8 2929 2895 2930 2959 2956 2927 2957 2980
8 2930 2896 2931 2960 2957 2928 2958 2981
8 2932 2898 2933 2961 2959 2930 2960 2982
8 2951 2920 2950 2975 2963 2935 2962 2984
8 2963 2935 2962 2984 2939 2905 2938 2966
8 2964 2936 2921 2952 2985 2963 2951 2976
8 2964 2936 2963 2985 2940 2906 2939 2967
8 2966 2938 2965 2987 2942 2908 2941 2969
8 2967 2939 2966 2988 2943 2909 2942 2970
8 2969 2941 2968 2989 2945 2911 2944 2971
8 2970 2942 2969 2990 2946 2912 2945 2972
8 2972 2945 2971 2991 2948 2915 2947 2973
8 2954 2923 2953 2978 2975 2950 2974 2993
8 2976 2951 2924 2955 2994 2975 2954 2979
8 2957 2928 2958 2981 2978 2953 2977 2995
8 2956 2927 2957 2980 2979 2954 2978 2996
8 2959 2930 2960 2982 2980 2957 2981 2997
8 2984 2962 2983 2999 2966 2938 2965 2987
8 2975 2950 2974 2993 2984 2962 2983 2999
8 2976 2951 2975 2994 2985 2963 2984 3000
8 2985 2963 2984 3000 2967 2939 2966 2988
8 2987 2965 2986 3001 2969 2941 2968 2989
8 2988 2966 2987 3002 2970 2942 2969 2990
8 2990 2969 2989 3003 2972 2945 2971 2991
8 2978 2953 2977 2995 2993 2974 2992 3004
8 2979 2954 2978 2996 2994 2975 2993 3005
8 2980 2957 2981 2997 2996 2978 2995 3006
8 2974 2993 2999 2983 2992 3004 3007 2998
8 2983 2999 2987 2965 2998 3007 3001 2986
8 3000 2984 2999 3008 2988 2966 2987 3002
8 2994 2975 2993 3005 3000 2984 2999 3008
8 3002 2987 3001 3009 2990 2969 2989 3003
8 2996 2978 2995 3006 3005 2993 3004 3010
8 3005 2993 3004 3010 3008 2999 3007 3011
8 3008 2999 3007 3011 3002 2987 3001 3009

CELL_TYPES 1910
12
12
12
12
12
12
12
12
12
12
12
12
12
12
12
12
12
12
12
12
12
12
12
12
12
12
12
12
12
12
12
12
12
12
12
12
12
12
12
12
12
12
12
12
12
12
12
12
12
12
12
12
12
12
12
12
12
12
12
12
12
12
12
12
12
12
12
12
12
12
12
12
12
12
12
12
12
12
12
12
12
12
12
12
12
12
12
12
12
12
12
12
12
12
12
12
12
12
12
12
12
12
12
12
12
12
12
12
12
12
12
12
12
12
12
12
12
12
12
12
12
12
12
12
12
12
12
12
12
12
12
12
12
12
12
12
12
12
12
12
12
12
12
12
12
12
12
12
12
12
12
12
12
12
12
12
12
12
12
12
12
12
12
12
12
12
12
12
12
12
12
12
12
12
12
12
12
12
12
12
12
12
12
12
12
12
12
12
12
12
12
12
12
12
12
12
12
12
12
12
12
12
12
12
12
12
12
12
12
12
12
12
12
12
12
12
12
12
12
12
12
12
12
12
12
12
12
12
12
12
12
12
12
12
12
12
12
12
12
12
12
12
12
12
12
12
12
12
12
12
12
12
12
12
12
12
12
12
12
12
12
12
12
12
12
12
12
12
12
12
12
12
12
12
12
12
12
12
12
12
12
12
12
12
12
12
12
12
12
12
12
12
12
12
12
12
12
12
12
12
12
12
12
12
12
12
12
12
12
12
12
12
12
12
12
12
12
12
12
12
12
12
12
12
12
12
12
12
12
12
12
12
12
12
12
12
12
12
12
12
12
12
12
12
12
12
12
12
12
12
12
12
12
12
12
12
12
12
12
12
12
12
12
12
12
12
12
12
12
12
12
12
12
12
12
12
12
12
12
12
12
12
12
12
12
12
12
12
12
12
12
12
12
12
12
12
12
12
12
12
12
12
12
12
12
12
12
12
12
12
12
12
12
12
12
12
12
12
12
12
12
12
12
12
12
12
12
12
12
12
12
12
12
12
12
12
12
12
12
12
12
12
12
12
12
12
12
12
12
12
12
12
12
12
12
12
12
12
12
12
12
12
12
12
12
12
12
12
12
12
12
12
12
12
12
12
12
12
12
12
12
12
12
12
12
12
12
12
12
12
12
12
12
12
12
12
12
12
12
12
12
12
12
12
12
12
12
12
12
12
12
12
12
12
12
12
12
12
12
12
12
12
12
12
12
12
12
12
12
12
12
12
12
12
12
12
12
12
12
12
12
12
12
12
12
12
12
12
12
12
12
12
12
12
12
12
12
12
12
12
12
12
12
12
12
12
12
12
12
12
12
12
12
12
12
12
12
12
12
12
12
12
12
12
12
12
12
12
12
12
12
12
12
12
12
12
12
12
12
12
12
12
12
12
12
12
12
12
12
12
12
12
12
12
12
12
12
12
12
12
12
12
12
12
12
12
12
12
12
12
12
12
12
12
12
12
12
12
12
12
12
12
12
12
12
12
12
12
12
12
12
12
12
12
12
12
12
12
12
12
12
12
12
12
12
12
12
12
12
12
12
12
12
12
12
12
12
12
12
12
12
12
12
12
12
12
12
12
12
12
12
12
12
12
12
12
12
12
12
12
12
12
12
12
12
12
12
12
12
12
12
12
12
12
12
12
12
12
12
12
12
12
12
12
12
12
12
12
12
12
12
12
12
12
12
12
12
12
12
12
12
12
12
12
12
12
12
12
12
12
12
12
12
12
12
12
12
12
12
12
12
12
12
12
12
12
12
12
12
12
12
12
12
12
12
12
12
12
12
12
12
12
12
12
12
12
12
12
12
12
12
12
12
12
12
12
12
12
12
12
12
12
12
12
12
12
12
12
12
12
12
12
12
12
12
12
12
12
12
12
12
12
12
12
12
12
12
12
12
12
12
12
12
12
12
12
12
12
12
12
12
12
12
12
12
12
12
12
12
12
12
12
12
12
12
12
12
12
12
12
12
12
12
12
12
12
12
12
12
12
12
12
12
12
12
12
12
12
12
12
12
12
12
12
12
12
12
12
12
12
12
12
12
12
12
12
12
12
12
12
12
12
12
12
12
12
12
12
12
12
12
12
12
12
12
12
12
12
12
12
12
12
12
12
12
12
12
12
12
12
12
12
12
12
12
12
12
12
12
12
12
12
12
12
12
12
12
12
12
12
12
12
12
12
12
12
12
12
12
12
12
12
12
12
12
12
12
12
12
12
12
12
12
12
12
12
12
12
12
12
12
12
12
12
12
12
12
12
12
12
12
12
12
12
12
12
12
12
12
12
12
12
12
12
12
12
12
12
12
12
12
12
12
12
12
12
12
12
12
12
12
12
12
12
12
12
12
12
12
12
12
12
12
12
12
12
12
12
12
12
12
12
12
12
12
12
12
12
12
12
12
12
12
12
12
12
12
12
12
12
12
12
12
12
12
12
12
12
12
12
12
12
12
12
12
12
12
12
12
12
12
12
12
12
12
12
12
12
12
12
12
12
12
12
12
12
12
12
12
12
12
12
12
12
12
12
12
12
12
12
12
12
12
12
12
12
12
12
12
12
12
12
12
12
12
12
12
12
12
12
12
12
12
12
12
12
12
12
12
12
12
12
12
12
12
12
12
12
12
12
12
12
12
12
12
12
12
12
12
12
12
12
12
12
12
12
12
12
12
12
12
12
12
12
12
12
12
12
12
12
12
12
12
12
12
12
12
12
12
12
12
12
12
12
12
12
12
12
12
12
12
12
12
12
12
12
12
12
12
12
12
12
12
12
12
12
12
12
12
12
12
12
12
12
12
12
12
12
12
12
12
12
12
12
12
12
12
12
12
12
12
12
12
12
12
12
12
12
12
12
12
12
12
12
12
12
12
12
12
12
12
12
12
12
12
12
12
12
12
12
12
12
12
12
12
12
12
12
12
12
12
12
12
12
12
12
12
12
12
12
12
12
12
12
12
12
12
12
12
12
12
12
12
12
12
12
12
12
12
12
12
12
12
12
12
12
12
12
12
12
12
12
12
12
12
12
12
12
12
12
12
12
12
12
12
12
12
12
12
12
12
12
12
12
12
12
12
12
12
12
12
12
12
12
12
12
12
12
12
12
12
12
12
12
12
12
12
12
12
12
12
12
12
12
12
12
12
12
12
12
12
12
12
12
12
12
12
12
12
12
12
12
12
12
12
12
12
12
12
12
12
12
12
12
12
12
12
12
12
12
12
12
12
12
12
12
12
12
12
12
12
12
12
12
12
12
12
12
12
12
12
12
12
12
12
12
12
12
12
12
12
12
12
12
12
12
12
12
12
12
12
12
12
12
12
12
12
12
12
12
12
12
12
12
12
12
12
12
12
12
12
12
12
12
12
12
12
12
12
12
12
12
12
12
12
12
12
12
12
12
12
12
12
12
12
12
12
12
12
12
12
12
12
12
12
12
12
12
12
12
12
12
12
12
12
12
12
12
12
12
12
12
12
12
12
12
12
12
12
12
12
12
12
12
12
12
12
12
12
12
12
12
12
12
12
12
12
12
12
12
12
12
12
12
12
12
12
12
12
12
12
12
12
12
12
12
12
12
12
12
12
12
12
12
12
12
12
12
12
12
12
12
12
12
12
12
12
12
12
12
12
12
12
12
12
12
12
12
12
12
12
12
12
12
12
12
12
12
12
12
12
12
12
12
12
12
12
12
12
12
12
12
12
12
12
12
12
12
12
12
12
12
12
12
12
12
12
12
12
12
12
12
12
12
12
12
12
12
12
12
12
12
12
12
12
12
12
12
12
12
12
12
12
12
12
12
12
12
12
12
12
12
12
12
12
12
12
12
12
12
12
12
12
12
12
12
12
12
12
12
12
12
12
12
12
12
12
12
12
12
12
12
12
12
12
12
12
12
12
12
12
12
12
12
12
12
12
12
12
12
12
12
12
12
12
12
12
12
12
12
12
12
12
12
12
12
12
12
12
12
12
12
12
12
12
12
12
12
12
12
12
12
12
12
12
12
12
12
12
12
12
12
12
12
12
12
12
12
12
12
12
12
12
12
12
12
12
12
12
12
12
12
12
12
12
12
12
12
12
12
12
12
12
12
12
12
12
12
12
12
12
12
12
12
12
12
12
12
12
12
12
12
12
12
12
12
12
12
12
12
12
12
12
12
12
12
12
12
12
12
12
12
12
12
12
12
12
12
12
12
12
12
12
12
12
12
12
12
12
12
12
12
12
12
12
12
12
12
12
12
12
12
12
12
12
12
12
12
12
12
12
12
12
12
12
12
12
12
12
12
12
12
12
12
12
12
12
12
12
12
12
12
12
12
12
12
12
12
12
12
12
12
12
12
12
12
12
12
12
12

POINT_DATA 3012
SCALARS Jp_lamdaP float 4
LOOKUP_TABLE default
0.999989 1 1 0.999989
1 1 1 1
0.99999 1 1 0.99999
0.999966 1 1 0.999966
0.999983 1 1 0.999983
0.999994 1 1 0.999994
0.999797 1 1 0.999797
1 1 1 1
1 1 1 1
1 1 1 1
1 1 1 1
0.999917 1 1 0.999917
0.999937 1 1 0.999937
0.999964 1 1 0.999964
0.999991 1 1 0.999991
0.999969 1 1 0.999969
0.999996 1 1 0.999996
0.999985 1 1 0.999985
0.9998 1 1 0.9998
1 1 1 1
0.99996 1 1 0.99996
0.999974 1 1 0.999974
0.999689 1 1 0.999689
0.999762 1 1 0.999762
1 1 1 1
0.999838 1 1 0.999838
0.999473 1 1 0.999473
1 1 1 1
0.999988 1 1 0.999988
0.999997 1 1 0.999997
1 1 1 1
0.999924 1 1 0.999924
0.999972 1 1 0.999972
0.99999 1 1 0.99999
0.999826 1 1 0.999826
1 1 1 1
0.999896 1 1 0.999896
0.999946 1 1 0.999946
0.999547 1 1 0.999547
1 1 1 1
1 1 1 1
0.999981 1 1 0.999981
1 1 1 1
0.999955 1 1 0.999955
0.999659 1 1 0.999659
1 1 1 1
0.999764 1 1 0.999764
0.999972 1 1 0.999972
0.999987 1 1 0.999987
0.999997 1 1 0.999997
0.999803 1 1 0.999803
0.99997 1 1 0.99997
0.999964 1 1 0.999964
1 1 1 1
0.999978 1 1 0.999978
0.99969 1 1 0.99969
0.999841 1 1 0.999841
0.999765 1 1 0.999765
0.999461 1 1 0.999461
1 1 1 1
0.999951 1 1 0.999951
0.999714 1 1 0.999714
0.999671 1 1 0.999671
0.999723 1 1 0.999723
0.999218 1 1 0.999218
0.999353 1 1 0.999353
1 1 1 1
0.999893 1 1 0.999893
0.999562 1 1 0.999562
0.999103 1 1 0.999103
1 1 1 1
1 1 1 1
1 1 1 1
0.999931 1 1 0.999931
1 1 1 1
1 1 1 1
0.999821 1 1 0.999821
1 1 1 1
0.999898 1 1 0.999898
0.999956 1 1 0.999956
0.999545 1 1 0.999545
1 1 1 1
1 1 1 1
0.999779 1 1 0.999779
0.999853 1 1 0.999853
0.999282 1 1 0.999282
0.999979 1 1 0.999979
0.999498 1 1 0.999498
0.999595 1 1 0.999595
0.999292 1 1 0.999292
1 1 1 1
1 1 1 1
1 1 1 1
1 1 1 1
1 1 1 1
0.999974 1 1 0.999974
0.999687 1 1 0.999687
0.999983 1 1 0.999983
0.999758 1 1 0.999758
1 1 1 1
0.999628 1 1 0.999628
0.999736 1 1 0.999736
0.99899 1 1 0.99899
0.999783 1 1 0.999783
0.999087 1 1 0.999087
0.999946 1 1 0.999946
0.999967 1 1 0.999967
1 1 1 1
0.99998 1 1 0.99998
0.999692 1 1 0.999692
0.999768 1 1 0.999768
0.999843 1 1 0.999843
0.999448 1 1 0.999448
1 1 1 1
0.999956 1 1 0.999956
0.999649 1 1 0.999649
0.999672 1 1 0.999672
1 1 1 1
0.999916 1 1 0.999916
0.999726 1 1 0.999726
0.999196 1 1 0.999196
0.999548 1 1 0.999548
0.999367 1 1 0.999367
0.999104 1 1 0.999104
0.999644 1 1 0.999644
0.999656 1 1 0.999656
0.999062 1 1 0.999062
0.999147 1 1 0.999147
0.999253 1 1 0.999253
0.998866 1 1 0.998866
1 1 1 1
0.999028 1 1 0.999028
0.999974 1 1 0.999974
0.999596 1 1 0.999596
0.999179 1 1 0.999179
0.998948 1 1 0.998948
0.999998 1 1 0.999998
0.999759 1 1 0.999759
1 1 1 1
1 1 1 1
0.999827 1 1 0.999827
1 1 1 1
0.999967 1 1 0.999967
0.999902 1 1 0.999902
0.999543 1 1 0.999543
1 1 1 1
1 1 1 1
0.999794 1 1 0.999794
0.999865 1 1 0.999865
0.999285 1 1 0.999285
0.999986 1 1 0.999986
0.999499 1 1 0.999499
0.999594 1 1 0.999594
0.999283 1 1 0.999283
0.999997 1 1 0.999997
1 1 1 1
0.999799 1 1 0.999799
0.999187 1 1 0.999187
0.999403 1 1 0.999403
0.998974 1 1 0.998974
0.99966 1 1 0.99966
0.999234 1 1 0.999234
0.999324 1 1 0.999324
0.999185 1 1 0.999185
1 1 1 1
1 1 1 1
1 1 1 1
1 1 1 1
1 1 1 1
1 1 1 1
1 1 1 1
0.99975 1 1 0.99975
0.999675 1 1 0.999675
1 1 1 1
1 1 1 1
0.99963 1 1 0.99963
0.999731 1 1 0.999731
0.99899 1 1 0.99899
0.999768 1 1 0.999768
0.999088 1 1 0.999088
0.999617 1 1 0.999617
0.998932 1 1 0.998932
0.999047 1 1 0.999047
0.998712 1.00002 1 0.998695
0.999128 1 1 0.999128
0.9988 1 1 0.9988
1 1 1 1
0.999961 1 1 0.999961
0.99958 1 1 0.99958
0.999672 1 1 0.999672
1 1 1 1
0.999939 1 1 0.999939
0.999729 1 1 0.999729
0.999175 1 1 0.999175
0.999382 1 1 0.999382
0.999535 1 1 0.999535
0.999105 1 1 0.999105
0.999641 1 1 0.999641
0.999657 1 1 0.999657
0.999018 1 1 0.999018
0.999164 1 1 0.999164
1 1 1 1
0.999967 1 1 0.999967
0.999615 1 1 0.999615
0.999254 1 1 0.999254
0.99884 1 1 0.99884
0.999175 1 1 0.999175
0.999041 1 1 0.999041
0.998951 1 1 0.998951
0.999996 1 1 0.999996
0.999759 1 1 0.999759
0.998944 1 1 0.998944
0.999118 1 1 0.999118
0.998753 1 1 0.998753
0.998773 1 1 0.998773
0.998955 1 1 0.998955
0.998739 1 1 0.998739
0.99999 1 1 0.99999
0.998881 1 1 0.998881
0.999638 1 1 0.999638
0.999282 1 1 0.999282
0.999025 1 1 0.999025
0.998897 1 1 0.998897
0.999694 1 1 0.999694
0.999837 1 1 0.999837
0.999455 1 1 0.999455
0.999791 1 1 0.999791
1 1 1 1
1 1 1 1
0.99987 1 1 0.99987
0.999287 1 1 0.999287
0.999992 1 1 0.999992
0.999594 1 1 0.999594
0.9995 1 1 0.9995
0.999274 1 1 0.999274
0.999998 1 1 0.999998
1 1 1 1
0.9998 1 1 0.9998
0.999188 1 1 0.999188
0.999406 1 1 0.999406
0.998974 1 1 0.998974
0.99966 1 1 0.99966
0.999242 1 1 0.999242
0.999323 1 1 0.999323
0.999175 1 1 0.999175
1 1 1 1
0.999725 1 1 0.999725
0.999874 1 1 0.999874
0.999512 1 1 0.999512
0.998882 1 1 0.998882
0.999121 1 1 0.999121
0.999013 1.00019 1 0.998821
0.999393 1 1 0.999393
0.999126 1 1 0.999126
0.999412 1 1.00026 0.999152
0.999094 1 1 0.999094
0.999974 1 1 0.999974
1 1 1 1
1 1 1 1
1 1 1 1
1 1 1 1
1 1 1 1
1 1 1 1
1 1 1 1
1 1 1 1
0.999769 1 1 0.999769
0.999719 1 1 0.999719
0.999088 1 1 0.999088
0.99899 1 1 0.99899
0.999632 1 1 0.999632
1 1 1 1
0.999616 1 1 0.999616
0.998933 1 1 0.998933
0.999047 1 1 0.999047
0.998704 1.00001 1 0.998694
0.999128 1 1 0.999128
0.9988 1 1 0.9988
0.998918 1 1 0.998918
0.99869 1.00005 1 0.998636
0.998754 1 1 0.998754
1.00007 1.00145 1 0.998615
0.998838 1 1 0.998838
0.999001 1.0003 1 0.998704
0.999638 1 1 0.999638
0.999657 1 1 0.999657
0.998973 1 1 0.998973
0.99918 1 1 0.99918
1 1 1 1
0.99996 1 1 0.99996
0.999634 1 1 0.999634
0.999256 1 1 0.999256
0.998813 1 1 0.998813
0.999054 1 1 0.999054
0.999171 1 1 0.999171
0.998953 1 1 0.998953
0.999994 1 1 0.999994
0.999759 1 1 0.999759
0.99893 1 1 0.99893
0.999117 1 1 0.999117
0.998741 1 1 0.998741
0.998801 1 1 0.998801
0.999986 1 1 0.999986
0.999637 1 1 0.999637
0.999301 1 1 0.999301
0.998955 1 1 0.998955
0.998737 1 1 0.998733
0.999004 1 1 0.999004
0.998882 1 1 0.998882
0.998901 1 1 0.998898
0.999695 1 1 0.999695
0.999453 1 1 0.999453
0.999836 1 1 0.999836
0.998717 1.00002 1 0.998696
0.998779 1 1 0.998779
0.999613 1.00101 1 0.99861
0.998764 1.00009 1 0.998675
0.998808 1 1 0.998808
0.999242 1.00051 1 0.998735
0.999662 1 1 0.999662
0.999023 1.00018 1 0.998848
0.999398 1 1 0.999398
0.999101 1 1 0.999101
0.998895 1 1 0.998895
0.998941 1 1 0.998941
0.999897 1 1 0.999897
0.999443 1 1 0.999443
0.999489 1 1 0.999489
0.999342 1 1 0.999342
0.999189 1 1 0.999189
1 1 1 1
1 1 1 1
0.999801 1 1 0.999801
0.99941 1 1 0.99941
0.998974 1 1 0.998974
0.999661 1 1 0.999661
0.999321 1 1 0.999321
0.999251 1 1 0.999251
0.999164 1 1 0.999164
1 1 1 1
0.999725 1 1 0.999725
0.999877 1 1 0.999877
0.99951 1 1 0.99951
0.998881 1 1 0.998881
0.999123 1 1 0.999123
0.998956 1.00014 1 0.998821
0.999394 1 1 0.999394
0.999136 1 1 0.999136
0.999271 1 1.00012 0.999146
0.99913 1 1 0.99913
1 1 1 1
0.999922 1 1 0.999922
0.999457 1 1 0.999457
0.999581 1 1 0.999581
0.999348 1 1 0.999348
0.999005 1.00026 1 0.998749
0.99898 1 1 0.99898
0.999075 1.00031 1 0.998767
0.999382 1 1.00018 0.999203
0.999064 1 1 0.999064
0.999271 1 1.0003 0.998976
0.999963 1 1 0.999963
0.999769 1 1 0.999769
0.999982 1 1 0.999982
0.999976 1 1 0.999976
1 1 1 1
1 1 1 1
1 1 1 1
1 1 1 1
1 1 1 1
1 1 1 1
1 1 1 1
1 1 1 1
1 1 1 1
0.999999 1 1 0.999999
1 1 1 1
0.999128 1 1 0.999128
0.999047 1 1 0.999047
0.9988 1 1 0.9988
0.998694 1 1 0.998694
0.998933 1 1 0.998933
0.999616 1 1 0.999616
0.998918 1 1 0.998918
0.998681 1.00004 1 0.998637
0.998754 1 1 0.998754
0.999958 1.00135 1 0.99861
0.998837 1 1 0.998837
0.998879 1.00018 1 0.998704
0.998678 1.00006 1 0.99862
1.00173 1.00318 1 0.998559
0.999528 1.00087 1 0.998657
1.00344 1.00484 1 0.998609
0.998815 1.00008 1 0.998732
1.00045 1.00172 1 0.998738
0.998915 1 1 0.998915
0.999117 1 1 0.999117
0.99873 1 1 0.99873
0.998829 1 1 0.998829
0.999982 1 1 0.999982
0.999637 1 1 0.999637
0.999321 1 1 0.999321
0.998955 1 1 0.998955
0.998733 1.00001 1 0.998727
0.998882 1 1 0.998882
0.998982 1 1 0.998982
0.998914 1.00002 1 0.998898
0.999696 1 1 0.999696
0.99945 1 1 0.99945
0.999834 1 1 0.999834
0.998699 1.00003 1 0.998672
0.998778 1 1 0.998778
0.999846 1.00125 1 0.9986
0.998901 1.00022 1 0.99868
0.999663 1 1 0.999663
0.999396 1 1 0.999396
0.999125 1 1 0.999125
0.998817 1 1 0.998817
0.99933 1.00059 1 0.998742
0.99888 1 1 0.99888
0.999129 1.00028 1 0.998849
0.998974 1.00002 1 0.99895
0.999446 1 1 0.999446
0.999329 1 1 0.999329
0.999894 1 1 0.999894
0.9995 1 1 0.9995
1.00038 1.00183 1 0.998554
0.99931 1.00067 1 0.998642
1.00303 1.00448 1 0.998561
0.999775 1.00111 1 0.998663
0.999543 1.00075 1 0.998796
1.00102 1.00226 1 0.998763
0.999437 1 1 0.999437
0.999596 1.00066 1 0.998931
0.999244 1 1 0.999244
0.998952 1 1 0.998952
0.998815 1 1 0.998815
0.99919 1.00024 1 0.998948
0.999927 1 1 0.999927
0.999562 1 1 0.999562
0.999337 1 1 0.999337
0.999352 1 1 0.999352
0.999286 1 1 0.999286
1 1 1 1
0.998879 1 1 0.998879
0.99988 1 1 0.99988
0.999725 1 1 0.999725
0.999508 1 1 0.999508
0.999125 1 1 0.999125
0.998895 1.00007 1 0.998821
0.999396 1 1 0.999396
0.999179 1 1.00004 0.99914
0.999147 1 1 0.999147
0.999165 1 1 0.999165
1 1 1 1
0.999926 1 1 0.999926
0.999457 1 1 0.999457
0.999581 1 1 0.999581
0.999338 1 1 0.999338
0.999042 1.0003 1 0.998747
0.998981 1 1 0.998981
0.999085 1.00032 1 0.998762
0.999355 1 1.00015 0.999206
0.999072 1 1 0.999072
0.999457 1 1.00047 0.998991
0.999947 1 1 0.999947
0.99965 1 1 0.99965
0.999279 1 1 0.999279
0.9994 1 1 0.9994
0.99925 1 1 0.99925
0.999645 1.00093 1 0.998717
0.999009 1.00009 1 0.998919
0.999307 1.00046 1 0.998845
1.00062 1 1.00159 0.999033
0.998895 1 1 0.998895
0.999966 1 1 0.999966
0.999714 1 1 0.999714
0.999754 1 1 0.999754
0.999618 1 1 0.999618
0.999778 1 1 0.999778
0.999986 1 1 0.999986
0.999983 1 1 0.999983
1 1 1 1
0.999979 1 1 0.999979
1 1 1 1
1 1 1 1
1 1 1 1
1 1 1 1
1 1 1 1
1 1 1 1
1 1 1 1
1 1 1 1
1 1 1 1
1 1 1 1
1 1 1 1
0.998835 1 1 0.998835
0.998754 1 1 0.998754
0.998758 1.00005 1 0.998705
0.999839 1.00124 1 0.998606
0.998674 1.00004 1 0.998637
0.998917 1 1 0.998917
0.998684 1.00006 1 0.998621
1.00175 1.0032 1 0.998552
0.999328 1.00067 1 0.998658
1.00341 1.00481 1 0.99861
0.998903 1.00017 1 0.99873
1.00027 1.00153 1 0.998738
1.00146 1.00294 1 0.998529
1.00626 1.00773 1 0.998551
1.0021 1.00344 1 0.998665
1.00551 1.0069 1 0.998616
1.00016 1.00142 1 0.998738
1.00286 1.00409 1 0.998775
0.998681 1.00003 1 0.998649
0.998778 1 1 0.998778
1.00007 1.00148 1 0.99859
0.999034 1.00035 1 0.998685
0.999664 1 1 0.999664
0.999393 1 1 0.999393
0.999149 1 1 0.999149
0.998827 1 1 0.998827
0.999407 1.00066 1 0.998749
0.999236 1.00039 1 0.998849
0.998864 1 1 0.998864
0.999024 1.00007 1 0.998958
0.999448 1 1 0.999448
0.999315 1 1 0.999315
0.999891 1 1 0.999891
0.99951 1 1 0.99951
1.00074 1.00219 1 0.998555
0.999416 1.00077 1 0.998643
1.00259 1.00403 1 0.998564
0.999686 1.00102 1 0.998664
0.999437 1 1 0.999437
0.999263 1 1 0.999263
0.99898 1 1.00003 0.99895
0.999582 1.00079 1 0.998791
1.00094 1.00215 1 0.998793
0.998806 1 1 0.998806
0.999888 1.00096 1 0.998932
0.999109 1.00013 1 0.998978
0.999337 1 1 0.999337
0.999282 1 1 0.999282
0.999349 1 1 0.999349
0.999905 1 1 0.999905
0.999571 1 1 0.999571
1.00542 1.0069 1 0.998526
1.00289 1.00433 1 0.998567
1.00215 1.00346 1 0.998696
1.0015 1.00266 1 0.998847
0.999335 1 1 0.999335
1.00131 1.00231 1 0.998997
0.999134 1 1 0.999134
0.998986 1 1.00022 0.998764
0.998873 1.00013 1 0.998744
0.99991 1 1 0.99991
0.99966 1 1 0.99966
0.999422 1 1 0.999422
0.999304 1 1 0.999304
0.999243 1 1 0.999243
0.999245 1 1 0.999245
1 1 1 1
0.999931 1 1 0.999931
0.99908 1.00034 1 0.998744
0.999581 1 1 0.999581
0.999456 1 1 0.999456
0.999328 1 1 0.999328
0.998983 1 1 0.998983
0.99908 1.00032 1 0.998758
0.999279 1 1.00007 0.999208
0.999478 1 1.00047 0.999005
0.99908 1 1 0.99908
0.999951 1 1 0.999951
0.999651 1 1 0.999651
0.999287 1 1 0.999287
0.999399 1 1 0.999399
0.999238 1 1 0.999238
0.999608 1.00089 1 0.998715
0.998957 1.00004 1 0.998915
0.999318 1.00046 1 0.998859
1.0002 1 1.00117 0.999025
0.998916 1 1.00005 0.998867
0.999703 1 1 0.999703
0.999439 1 1 0.999439
0.999906 1 1.00075 0.999154
0.999246 1 1 0.999246
0.999163 1 1 0.999163
1.0023 1.00341 1 0.998895
0.998918 1.0001 1 0.998821
1.00038 1.00153 1 0.998859
1.0016 1 1.00267 0.998927
0.998684 1 1 0.998684
0.999969 1 1 0.999969
0.999726 1 1 0.999726
0.999539 1 1 0.999539
0.99974 1 1 0.99974
0.999778 1 1 0.999778
0.999597 1 1 0.999597
0.999486 1 1 0.999486
0.999592 1 1 0.999592
0.999786 1 1 0.999786
0.999987 1 1 0.999987
0.999987 1 1 0.999987
1 1 1 1
0.999985 1 1 0.999985
1 1 1 1
1 1 1 1
1 1 1 1
1 1 1 1
1 1 1 1
1 1 1 1
1 1 1 1
1 1 1 1
1 1 1 1
1 1 1 1
1 1 1 1
0.998991 1.00026 1 0.998728
0.99914 1.00048 1 0.998658
1.00009 1.00136 1 0.998738
1.00339 1.00478 1 0.998611
1.00177 1.00323 1 0.998545
0.998689 1.00007 1 0.998621
1.00159 1.00307 1 0.998525
1.00614 1.0076 1 0.998551
1.00228 1.00363 1 0.998655
1.00578 1.00718 1 0.998612
0.99987 1.00113 1 0.998739
1.00264 1.00386 1 0.998793
1.00668 1.00817 1 0.998521
1.00736 1.00879 1 0.998586
1.00593 1.00726 1 0.998686
1.00313 1.00428 1 0.998853
1.00108 1.00253 1 0.998555
0.999525 1.00088 1 0.998644
1.00217 1.00361 1 0.998567
0.999606 1.00094 1 0.998665
0.999436 1 1 0.999436
0.999282 1 1 0.999282
0.999136 1 1.00019 0.998948
0.999615 1.00083 1 0.998787
1.00091 1.00209 1 0.998822
1.00017 1.00124 1 0.998933
0.998797 1 1 0.998797
0.999008 1 1 0.999008
0.999338 1 1 0.999338
0.999278 1 1 0.999278
0.999347 1 1 0.999347
0.999883 1 1 0.999883
0.99958 1 1 0.99958
1.00501 1.00649 1 0.998529
1.00294 1.00437 1 0.998574
1.00209 1.00339 1 0.998704
0.999333 1 1 0.999333
0.999193 1 1.00004 0.999157
0.999235 1 1.00048 0.998759
1.00169 1.00285 1 0.998838
0.998846 1.00007 1 0.998781
1.00087 1.00187 1 0.998999
0.999911 1 1 0.999911
0.999303 1 1 0.999303
0.999256 1 1 0.999256
0.99924 1 1 0.99924
0.999429 1 1 0.999429
0.999643 1 1 0.999643
1.00667 1.00815 1 0.998537
1.00484 1.00626 1 0.99859
1.00386 1.00512 1 0.998751
1.00384 1.00491 1 0.998927
0.999273 1 1 0.999273
0.999929 1.0011 1 0.998831
0.999525 1 1.00061 0.998912
0.999603 1 1.00098 0.998629
0.999932 1 1 0.999932
0.999709 1 1 0.999709
0.999487 1 1 0.999487
0.999262 1 1 0.999262
0.999249 1 1 0.999249
0.99919 1 1 0.99919
0.999955 1 1 0.999955
0.999651 1 1 0.999651
0.999573 1.00086 1 0.998713
0.999398 1 1 0.999398
0.999296 1 1 0.999296
0.999225 1 1 0.999225
0.998911 1 1 0.998911
0.999342 1.00047 1 0.998873
0.999831 1 1.00082 0.999016
0.99903 1 1.00019 0.99884
0.999703 1 1 0.999703
0.999446 1 1 0.999446
0.99963 1 1.00046 0.999169
0.999252 1 1 0.999252
0.99917 1 1 0.99917
1.00225 1.00335 1 0.998897
0.998907 1.00008 1 0.998823
1.00014 1.00121 1 0.998933
1.00174 1 1.00283 0.998916
0.998675 1 1.00003 0.998646
0.999502 1 1 0.999502
0.999275 1 1 0.999275
1.00128 1 1.00223 0.999056
0.999106 1 1 0.999106
1.00829 1.00939 1 0.998915
1.0049 1.00606 0.999872 0.998973
0.999541 1.00089 1 0.99865
1.00218 1 1.00352 0.998666
0.999737 1 1 0.999737
0.999549 1 1 0.999549
0.999432 1 1 0.999432
0.999778 1 1 0.999778
0.999575 1 1 0.999575
0.999786 1 1 0.999786
0.999469 1 1 0.999469
0.9996 1 1 0.9996
0.999377 1 1 0.999377
0.999471 1 1 0.999471
0.999601 1 1 0.999601
0.999788 1 1 0.999788
0.999985 1 1 0.999985
0.999986 1 1 0.999986
1 1 1 1
0.999987 1 1 0.999987
1 1 1 1
1 1 1 1
1 1 1 1
1 1 1 1
1 1 1 1
1 1 1 1
1 1 1 1
1 1 1 1
1 1 1 1
1 1 1 1
1 1 1 1
0.999587 1.00085 1 0.99874
1.00245 1.00381 1 0.998646
1.00243 1.00362 1 0.99881
1.00605 1.00745 1 0.998609
1.006 1.00746 1 0.998552
1.00174 1.00322 1 0.998522
1.0064 1.00789 1 0.998526
1.00719 1.00862 1 0.998585
1.00582 1.00714 1 0.998692
1.00375 1.00491 1 0.998848
1.00833 1.00979 1 0.998558
1.00852 1.00987 1 0.998664
1.00714 1.00837 1 0.998781
1.0046 1.00608 1 0.998533
1.00301 1.00443 1 0.99858
1.00199 1.00328 1 0.998712
0.999331 1 1 0.999331
0.99918 1 1 0.99918
0.999333 1 1.00058 0.998754
1.00181 1.00299 1 0.998829
1.0005 1.0015 1 0.999001
0.998817 1 1 0.998817
0.999301 1 1 0.999301
0.999266 1 1 0.999266
0.999236 1 1 0.999236
0.999912 1 1 0.999912
0.999436 1 1 0.999436
0.999627 1 1 0.999627
1.00722 1.00869 1 0.998538
1.00463 1.00605 1 0.99859
1.00384 1.00511 1 0.998738
0.999268 1 1 0.999268
0.999553 1 1.0006 0.998953
0.999525 1 1.00089 0.998634
1.00419 1.00525 1 0.998946
1.00009 1.00126 1 0.998825
0.999949 1 1 0.999949
0.99971 1 1 0.99971
0.999249 1 1 0.999249
0.999206 1 1 0.999206
0.999265 1 1 0.999265
0.999475 1 1 0.999475
1.00798 1.0094 1 0.998597
1.00611 1.00748 1 0.998645
1.00676 1.00798 0.999905 0.998893
1.00476 1.00578 1 0.998984
0.999479 1 1.00031 0.999164
1.00007 1.0001 1.0014 0.998567
1.00078 1 1.00201 0.998776
0.999983 1 1 0.999983
0.999805 1 1 0.999805
0.999712 1 1 0.999712
0.999508 1 1 0.999508
0.999324 1 1 0.999324
0.999146 1 1 0.999146
0.99926 1 1 0.99926
1.00063 1 1.00141 0.99922
0.999704 1 1 0.999704
0.999453 1 1 0.999453
1.00212 1.00323 1 0.9989
0.999257 1 1 0.999257
0.999401 1 1.00022 0.999184
0.999177 1 1 0.999177
0.998896 1.00007 1 0.998826
0.999879 1.00087 1 0.999007
1.0019 1 1.003 0.998905
0.998608 1 1 0.998608
0.999495 1 1 0.999495
0.999283 1 1 0.999283
1.00154 1 1.00247 0.999068
0.999118 1 1 0.999118
1.00778 1.00888 1 0.998908
1.00433 1.00542 0.999949 0.998969
0.999791 1.00111 1 0.998683
1.00171 1 1.00307 0.998647
0.999379 1 1 0.999379
1.00852 1.00981 0.999877 0.998846
0.999157 1 1 0.999157
1.00078 1 1.00185 0.998934
1.01133 1.01264 0.999722 0.998987
1.00423 1.00557 1 0.998673
1.00184 1.00008 1.00323 0.998533
0.999559 1 1 0.999559
0.999432 1 1 0.999432
0.99933 1 1 0.99933
0.999786 1 1 0.999786
0.999607 1 1 0.999607
0.999453 1 1 0.999453
0.999788 1 1 0.999788
0.999601 1 1 0.999601
0.999364 1 1 0.999364
0.999487 1 1 0.999487
0.999296 1 1 0.999296
0.999364 1 1 0.999364
0.999502 1 1 0.999502
0.999617 1 1 0.999617
0.999783 1 1 0.999783
0.999982 1 1 0.999982
0.999984 1 1 0.999984
1 1 1 1
0.999986 1 1 0.999986
1 1 1 1
1 1 1 1
1 1 1 1
1 1 1 1
1 1 1 1
0.999991 1 1 0.999991
1 1 1 1
1 1 1 1
1 1 1 1
1 1 1 1
1 1 1 1
1 1 1 1
1.00438 1.00555 1 0.998842
1.0057 1.00702 1 0.998697
1.00703 1.00846 1 0.998584
1.00611 1.00759 1 0.998532
1.00822 1.00967 1 0.998565
1.00896 1.01032 1 0.998654
1.00771 1.00893 1 0.998794
1.00827 1.00964 1 0.99864
1.00969 1.01097 1 0.998731
1.00676 1.00845 0.999444 0.998879
1.00771 1.00918 1 0.99854
1.00441 1.00583 1 0.998589
1.00394 1.00522 1 0.998725
0.999263 1 1 0.999263
0.999667 1 1.00067 0.998993
0.999415 1 1.00078 0.99864
1.00474 1.00578 1 0.998964
1.00013 1.00132 1 0.99882
0.99925 1 1 0.99925
0.999221 1 1 0.999221
0.999267 1 1 0.999267
0.999966 1 1 0.999966
0.99971 1 1 0.99971
0.999462 1 1 0.999462
1.00747 1.00887 1 0.998607
0.99998 1 1 0.99998
0.999794 1 1 0.999794
1.00589 1.00725 1 0.998643
1.00793 1.00907 1 0.998865
0.999441 1 1.00025 0.999188
1.0014 1 1.00266 0.998745
0.999625 1.00021 1.00084 0.998575
1.00436 1.00538 1 0.998983
0.999745 1 1 0.999745
0.999507 1 1 0.999507
0.999237 1 1 0.999237
0.999978 1 1.00071 0.999272
0.999126 1 1 0.999126
0.999327 1 1 0.999327
1.00857 1.00988 1 0.998703
1.00917 1.01044 1 0.998744
1.00864 1.00998 0.999601 0.999073
1.00057 1.0018 1 0.998776
1.00086 1 1.00173 0.999136
1.00354 1 1.00498 0.998566
0.999808 1 1 0.999808
0.999773 1 1 0.999773
0.999647 1 1 0.999647
0.999512 1 1 0.999512
0.999377 1 1 0.999377
0.999184 1 1 0.999184
1.00051 1 1.00146 0.999047
0.999285 1 1 0.999285
0.999488 1 1 0.999488
0.999292 1 1 0.999292
1.00748 1.00858 1 0.998901
1.00395 1.00499 1 0.998964
0.99913 1 1 0.99913
1.00172 1 1.00264 0.999081
1.00009 1.00134 1.00004 0.998715
1.0013 1 1.00268 0.998627
0.999377 1 1 0.999377
1.00869 1.00999 0.999856 0.998863
0.999161 1 1 0.999161
1.00091 1 1.002 0.998916
1.01102 1.01232 0.99974 0.998974
1.00453 1.00585 1 0.998687
1.00207 1.00007 1.00347 0.99854
0.999237 1 1 0.999237
1.0175 1.02011 0.998446 0.998997
0.99905 1 1 0.99905
1.00212 1 1.00337 0.998747
1.00537 1.00942 0.997225 0.998765
1.00189 1.00116 1.00221 0.99852
1.00692 1.00924 0.998657 0.999043
0.999431 1 1 0.999431
0.999329 1 1 0.999329
0.999254 1 1 0.999254
0.999788 1 1 0.999788
0.9996 1 1 0.9996
0.999503 1 1 0.999503
0.99935 1 1 0.99935
0.999782 1 1 0.999782
0.999608 1 1 0.999608
0.999291 1 1 0.999291
0.999501 1 1 0.999501
0.999378 1 1 0.999378
0.99928 1 1 0.99928
0.999419 1 1 0.999419
0.999509 1 1 0.999509
0.999587 1 1 0.999587
0.99975 1 1 0.99975
0.999637 1 1 0.999637
0.999751 1 1 0.999751
0.999981 1 1 0.999981
0.999982 1 1 0.999982
1 1 1 1
0.999983 1 1 0.999983
1 1 1 1
1 1 1 1
1 1 1 1
1 1 1 1
1 1 1 1
0.999995 1 1 0.999995
0.999989 1 1 0.999989
1 1 1 1
1 1 1 1
1 1 1 1
1 1 1 1
1 1 1 1
1 1 1 1
1.00823 1.00944 1 0.998808
1.00939 1.01076 1 0.998644
1.00813 1.00958 1 0.998572
1.00871 1.01009 1 0.998638
1.00898 1.01026 1 0.998735
1.00754 1.00894 0.999731 0.998884
1.00862 1.01 0.999841 0.998787
1.01035 1.01592 0.995576 0.998939
1.01987 1.02278 0.998094 0.999063
0.999849 1 1 0.999849
1.00701 1.00841 1 0.998617
1.00554 1.00691 1 0.998642
1.00879 1.00996 1 0.998838
0.999415 1 1.0002 0.999212
1.00213 1 1.00342 0.998714
0.999402 1.00037 1.00045 0.998582
1.00382 1.00484 1 0.998982
0.999215 1 1 0.999215
0.999326 1 1 0.999326
0.999106 1 1 0.999106
0.999976 1 1 0.999976
0.99933 1 1 0.99933
0.999778 1 1 0.999778
0.999506 1 1 0.999506
0.999782 1 1 0.999782
1.00876 1.01007 1 0.998703
0.999822 1 1 0.999822
0.999772 1 1 0.999772
0.999622 1 1 0.999622
1.00962 1.01089 1 0.998748
1.00719 1.0087 0.999469 0.999038
1.00018 1 1.00104 0.999148
1.00372 1 1.00516 0.998559
1.00074 1.0018 1.00016 0.998781
0.999529 1 1 0.999529
0.99937 1 1 0.99937
0.999673 1 1.00042 0.999252
1.00051 1 1.00143 0.999072
0.999198 1 1 0.999198
1.01014 1.01188 0.999535 0.998737
1.00893 1.01273 0.997374 0.998872
1.00339 1.00479 0.999716 0.998884
1.00266 1.00088 1.00311 0.998667
1.00341 1 1.00437 0.999048
0.999623 1 1 0.999623
0.999561 1 1 0.999561
0.999492 1 1 0.999492
0.999388 1 1 0.999388
0.999267 1 1 0.999267
0.999516 1 1.00042 0.999098
1.00364 1 1.00465 0.999001
0.999375 1 1 0.999375
0.999164 1 1 0.999164
1.00878 1.01005 0.999864 0.998879
1.01054 1.01188 0.999712 0.99896
1.00461 1.00592 1 0.9987
1.00101 1 1.00211 0.998898
1.00216 1.00006 1.00357 0.998547
0.999253 1 1 0.999253
1.01735 1.02049 0.997926 0.999002
0.999056 1 1 0.999056
1.00231 1 1.00355 0.998756
1.00652 1.0099 0.99784 0.998804
1.00207 1.00087 1.00269 0.998513
1.00821 1.01049 0.99881 0.998927
0.999156 1 1 0.999156
1.0022 1.01284 0.990536 0.998956
1.0002 1 1.00119 0.999015
1.00489 1 1.00623 0.998672
1.00135 1.00169 1.00104 0.998627
0.960407 0.969178 0.997105 0.993827
0.998815 0.995315 1.00617 0.997362
0.986981 1.00621 0.981703 0.999173
0.916525 0.936513 0.982561 0.996027
0.912974 0.952292 0.962129 0.996448
0.999329 1 1 0.999329
0.999261 1 1 0.999261
0.999245 1 1 0.999245
0.999782 1 1 0.999782
0.999598 1 1 0.999598
0.9995 1 1 0.9995
0.999392 1 1 0.999392
0.999286 1 1 0.999286
0.999494 1 1 0.999494
0.999763 1 1 0.999763
0.999598 1 1 0.999598
0.999286 1 1 0.999286
0.999415 1 1 0.999415
0.999427 1 1 0.999427
0.999343 1 1 0.999343
0.999465 1 1 0.999465
0.999574 1 1 0.999574
0.999748 1 1 0.999748
0.999611 1 1 0.999611
0.999511 1 1 0.999511
0.999607 1 1 0.999607
0.999617 1 1 0.999617
0.999777 1 1 0.999777
0.999751 1 1 0.999751
0.99998 1 1 0.99998
0.99998 1 1 0.99998
1 1 1 1
0.999981 1 1 0.999981
1 1 1 1
1 1 1 1
1 1 1 1
1 1 1 1
1 1 1 1
0.999997 1 1 0.999997
0.999994 1 1 0.999994
1 1 1 1
0.999987 1 1 0.999987
1 1 1 1
1 1 1 1
1 1 1 1
1 1 1 1
1 1 1 1
1.0083 1.00957 1 0.998739
1.00911 1.01049 1 0.998637
1.00811 1.00928 0.999953 0.998888
1.0107 1.0157 0.996111 0.998959
1.00853 1.00985 0.999916 0.998786
1.02068 1.02344 0.998284 0.99902
1.02018 1.02195 0.999546 0.998724
0.976977 0.984914 0.995109 0.996818
1.01651 1.01934 0.998119 0.9991
0.999857 1 1 0.999857
0.999849 1 1 0.999849
0.999674 1 1 0.999674
0.999693 1 1 0.999693
1.00898 1.01029 1 0.998703
1.01009 1.01135 1 0.998752
1.00574 1.00727 0.999481 0.999003
0.999387 1 1.00023 0.999159
1.00355 1 1.00501 0.998551
1.00089 1.00198 1.00013 0.998786
1.00006 1 1.00084 0.999219
1.00049 1 1.00139 0.999098
0.999212 1 1 0.999212
0.999771 1 1 0.999771
0.999362 1 1 0.999362
0.999546 1 1 0.999546
0.999837 1 1 0.999837
0.999597 1 1 0.999597
1.00866 1.01023 0.99969 0.998754
0.999649 1 1 0.999649
0.999575 1 1 0.999575
0.999488 1 1 0.999488
1.01047 1.01332 0.998305 0.998882
1.00203 1.00361 0.999541 0.998881
1.00313 1 1.00409 0.999046
1.0023 1.00092 1.00272 0.998654
0.999391 1 1 0.999391
0.999274 1 1 0.999274
1.00254 1 1.00354 0.999001
0.999977 1 1.0009 0.99908
1.01782 1.01959 0.999487 0.998776
1.00405 1.01062 0.994639 0.998857
1.00151 1.00217 1.00073 0.998618
1.00184 1 1.00291 0.998928
0.999444 1 1 0.999444
0.999428 1 1 0.999428
0.999223 1 1 0.999223
1.00437 1 1.00546 0.998914
0.949389 0.965818 0.989244 0.993677
0.999269 1 1 0.999269
0.999062 1 1 0.999062
1.01686 1.02069 0.997246 0.999006
1.00768 1.01029 0.99857 0.998843
1.00245 1.00065 1.0033 0.998506
1.00259 1 1.00383 0.998764
1.00903 1.01149 0.998749 0.99881
0.999167 1 1 0.999167
1.0015 1.01248 0.990204 0.998944
0.99985 1 1.00083 0.99902
1.00465 1 1.00598 0.998675
1.00118 1.00231 1.00023 0.998638
0.958022 0.968395 0.995212 0.994049
0.993725 0.993221 1.00411 0.996409
0.989832 1.00643 0.984278 0.999221
0.923411 0.93937 0.98731 0.995645
0.903048 0.94532 0.958943 0.996183
0.999384 1 1.00019 0.999199
0.928119 0.942146 0.989798 0.995265
0.933268 0.954044 0.981417 0.996747
0.978394 1.0031 0.976382 0.998961
1.00349 1 1.00448 0.999023
1.00893 1.00005 1.0101 0.998793
0.989621 1.00463 0.985748 0.999302
0.968781 0.972137 1.00303 0.993534
0.995327 0.992086 1.00712 0.996173
0.912138 0.941463 0.972835 0.995906
0.944484 0.978191 0.968038 0.997422
0.999267 1 1 0.999267
0.999245 1 1 0.999245
0.99929 1 1 0.99929
0.999776 1 1 0.999776
0.999609 1 1 0.999609
0.99948 1 1 0.99948
0.999411 1 1 0.999411
0.999293 1 1 0.999293
0.999748 1 1 0.999748
0.999428 1 1 0.999428
0.999481 1 1 0.999481
0.999589 1 1 0.999589
0.999332 1 1 0.999332
0.999381 1 1 0.999381
0.999519 1 1.0002 0.999322
0.999476 1 1 0.999476
0.999601 1 1 0.999601
0.999611 1 1 0.999611
0.999496 1 1 0.999496
0.999489 1 1 0.999489
0.999483 1 1 0.999483
0.999426 1 1 0.999426
0.999397 1 1 0.999397
0.999584 1 1 0.999584
0.999606 1 1 0.999606
0.999772 1 1 0.999772
0.999597 1 1 0.999597
0.999765 1 1 0.999765
0.999979 1 1 0.999979
0.99975 1 1 0.99975
0.99998 1 1 0.99998
1 1 1 1
0.99998 1 1 0.99998
1 1 1 1
1 1 1 1
1 1 1 1
1 1 1 1
1 1 1 1
0.999853 1 1 0.999853
0.999997 1 1 0.999997
0.999996 1 1 0.999996
1 1 1 1
0.999993 1 1 0.999993
1 1 1 1
1 1 1 1
1 1 1 1
1 1 1 1
1 1 1 1
1.01194 1.0159 0.997119 0.998978
1.00856 1.00978 1 0.998785
1.02185 1.02427 0.998658 0.998977
0.979412 0.984444 0.997499 0.997383
1.01619 1.01906 0.998043 0.999131
1.02088 1.02313 0.999088 0.998711
1.02035 1.02201 0.999526 0.998855
0.982176 0.986526 0.998127 0.997458
0.958089 0.96875 0.996032 0.992934
0.905967 0.93396 0.975026 0.994874
0.904937 0.94155 0.964605 0.996381
0.999666 1 1 0.999666
0.999857 1 1 0.999857
0.999849 1 1 0.999849
0.999666 1 1 0.999666
0.999554 1 1 0.999554
0.999581 1 1 0.999581
0.999675 1 1 0.999675
0.999682 1 1 0.999682
1.00702 1.00846 0.999799 0.998771
1.01243 1.01443 0.999126 0.998892
1.00089 1.0027 0.999317 0.998878
1.00308 1 1.00404 0.999043
1.00215 1.00079 1.00272 0.99864
1.00151 1 1.00251 0.999001
1.00045 1 1.00139 0.999061
0.999282 1 1 0.999282
0.999589 1 1 0.999589
0.999395 1 1 0.999395
0.999674 1 1 0.999674
0.999484 1 1 0.999484
1.01828 1.02047 0.999097 0.998752
0.999457 1 1 0.999457
0.999428 1 1 0.999428
1.00421 1.0096 0.995802 0.99885
1.00147 1.0024 1.0004 0.998673
1.00318 1 1.00429 0.99889
0.999216 1 1 0.999216
1.00407 1 1.00516 0.998917
1.01147 1.02009 0.992837 0.998707
0.993662 1.00244 0.992454 0.998785
0.999826 1 1.00103 0.998795
1.00607 1 1.00716 0.998922
0.99937 1 1 0.99937
0.999279 1 1 0.999279
0.999979 1 1.00092 0.99906
0.918453 0.941862 0.979448 0.995608
0.955579 0.967455 0.993628 0.994058
0.999178 1 1 0.999178
0.999594 1 1.00057 0.999025
1.00171 1.01258 0.990322 0.998932
1.00105 1.003 0.999411 0.998649
1.0043 1 1.00563 0.998678
0.959339 0.969683 0.996483 0.992824
0.994005 0.994276 1.0026 0.997138
0.992964 1.00681 0.98697 0.999267
0.91803 0.94037 0.980971 0.995181
0.892371 0.937371 0.955896 0.995918
0.999327 1 1.00013 0.999198
0.923113 0.945307 0.980716 0.995724
0.934754 0.952205 0.984925 0.996698
0.980963 1.00367 0.978404 0.998952
1.0029 1 1.00387 0.999031
1.00807 1.00003 1.00922 0.998824
0.983326 1.00208 0.981966 0.999307
0.969497 0.973268 1.00301 0.993133
0.993045 0.990934 1.00504 0.997104
0.914281 0.940578 0.976909 0.995017
0.943757 0.978021 0.967645 0.997232
0.999815 1 1.00059 0.999227
0.948529 0.954141 0.996744 0.997365
0.995202 0.996577 1.00011 0.998506
0.98665 1.00007 0.987361 0.999211
1.0085 1 1.00926 0.999246
1.00512 0.999223 1.00627 0.999633
0.985692 0.988411 0.999223 0.998025
0.972421 0.971396 1.00783 0.993281
0.933475 0.963057 0.974148 0.995006
0.966066 0.996703 0.971156 0.998049
0.999245 1 1 0.999245
0.999274 1 1 0.999274
0.999775 1 1.00042 0.999354
0.999748 1 1 0.999748
0.999604 1 1 0.999604
0.999496 1 1 0.999496
0.999429 1 1 0.999429
0.999322 1 1 0.999322
0.999601 1 1 0.999601
0.999391 1 1 0.999391
0.999475 1 1 0.999475
0.999569 1 1.00024 0.999325
0.999911 1 1.00055 0.999357
0.999464 1 1.00009 0.999377
0.999478 1 1 0.999478
0.999611 1 1 0.999611
0.999481 1 1 0.999481
0.99949 1 1 0.99949
0.999482 1 1 0.999482
0.999423 1 1 0.999423
0.99945 1 1 0.99945
0.999414 1 1 0.999414
0.999383 1 1 0.999383
0.999276 1 1 0.999276
0.999549 1 1.00036 0.999194
0.999338 1 1 0.999338
0.999396 1 1 0.999396
0.999547 1 1 0.999547
0.999583 1 1 0.999583
0.999761 1 1 0.999761
0.999606 1 1 0.999606
0.999772 1 1 0.999772
0.999977 1 1 0.999977
0.999754 1 1 0.999754
0.999979 1 1 0.999979
1 1 1 1
0.999979 1 1 0.999979
1 1 1 1
1 1 1 1
1 1 1 1
1 1 1 1
1 1 1 1
0.999866 1 1 0.999866
0.999996 1 1 0.999996
0.999852 1 1 0.999852
1 1 1 1
0.999997 1 1 0.999997
0.999996 1 1 0.999996
1 1 1 1
1 1 1 1
1 1 1 1
1 1 1 1
1 1 1 1
0.920489 0.940233 0.983001 0.99593
0.939945 0.955153 0.986939 0.997102
0.982421 0.98512 0.999463 0.997797
1.01602 1.01871 0.998191 0.999162
1.02149 1.02421 0.998644 0.998698
0.981706 0.985026 0.998226 0.998401
1.0203 1.02181 0.999662 0.998864
0.9602 0.970111 0.995792 0.993966
0.91678 0.936855 0.982644 0.995855
0.897241 0.93884 0.959417 0.996117
0.999008 0.99969 1.00042 0.998899
0.967108 0.971378 1.00175 0.993864
0.906738 0.938375 0.970319 0.995844
0.943696 0.97564 0.970198 0.996971
0.999512 1 1 0.999512
0.999676 1 1 0.999676
0.999856 1 1 0.999856
0.999658 1 1 0.999658
0.999568 1 1 0.999568
0.999533 1 1 0.999533
0.999581 1 1 0.999581
0.999608 1 1 0.999608
0.999661 1 1 0.999661
0.999671 1 1 0.999671
1.01873 1.02125 0.998802 0.998728
1.00345 1.00778 0.996863 0.998843
1.00149 1.00263 1.00013 0.998728
1.00429 1 1.00544 0.998852
1.0036 1 1.00468 0.998921
0.99921 1 1 0.99921
0.999427 1 1 0.999427
0.99947 1 1 0.99947
1.0121 1.02014 0.99343 0.998682
0.999364 1 1 0.999364
0.999264 1 1 0.999264
0.995065 1.00257 0.993757 0.998746
1.00017 1 1.00133 0.99884
1.00494 1 1.00606 0.998887
1.00108 1 1.00203 0.999051
1.00906 1.01055 0.99977 0.998755
0.997442 1 0.998352 0.999089
1.00532 1 1.00635 0.998977
0.999351 1 1 0.999351
0.999256 1 1 0.999256
0.999127 1 1 0.999127
0.949412 0.957362 0.994214 0.997468
0.922565 0.941843 0.984396 0.995059
0.953574 0.968393 0.990994 0.993646
0.999197 1 1 0.999197
1.00226 1 1.00323 0.999039
0.98352 1.0041 0.980537 0.998942
1.00735 1 1.0085 0.998854
0.920577 0.944211 0.979868 0.995001
0.968101 0.972468 1.00107 0.994445
0.993197 0.992461 1.00453 0.996227
0.980628 0.999832 0.98146 0.99932
0.917123 0.93945 0.980219 0.995934
0.936074 0.954204 0.984354 0.996593
0.939489 0.97638 0.965107 0.997004
0.999849 1 1.00062 0.999226
0.94662 0.955641 0.993227 0.997316
0.995357 0.996477 1.00037 0.998508
0.989641 1.00003 0.990377 0.999229
1.00849 1 1.00925 0.999244
1.00486 1.00013 1.00549 0.999247
0.986788 0.988038 1.00204 0.996704
0.969799 0.972231 1.00429 0.993235
0.935424 0.965012 0.973085 0.99615
0.96022 0.991034 0.971018 0.997826
1.00062 1 1.00112 0.999501
0.997124 0.998399 0.999791 0.998931
1.00774 1.00412 1.00441 0.999192
1.00863 0.999625 1.00929 0.999715
0.993456 0.9888 1.00572 0.998994
0.973133 0.974586 1.00548 0.993062
0.96238 0.979727 0.985832 0.996412
0.966111 1.00047 0.967824 0.997765
0.999259 1 1 0.999259
0.999722 1 1.00036 0.999367
1.00075 1 1.0013 0.999451
0.999601 1 1 0.999601
0.999475 1 1 0.999475
0.999402 1 1 0.999402
0.999609 1 1.00028 0.999327
0.999478 1 1 0.999478
0.999407 1 1.00003 0.999376
1.0003 1 1.00093 0.999368
1.00031 1 1.00086 0.999456
0.999566 1 1.00021 0.999353
0.999403 1 1 0.999403
0.99949 1 1 0.99949
0.999481 1 1 0.999481
0.999421 1 1 0.999421
0.999416 1 1 0.999416
0.999449 1 1 0.999449
0.999387 1 1 0.999387
0.999344 1 1 0.999344
0.999366 1 1 0.999366
0.999252 1 1 0.999252
0.999283 1 1 0.999283
0.999582 1 1.00038 0.9992
0.999375 1 1.00031 0.999066
0.999328 1 1 0.999328
0.999432 1 1.0002 0.999236
0.999356 1 1 0.999356
0.999478 1 1 0.999478
0.999395 1 1 0.999395
0.999546 1 1 0.999546
0.999737 1 1 0.999737
0.999582 1 1 0.999582
0.99976 1 1 0.99976
0.999974 1 1 0.999974
0.999772 1 1 0.999772
0.999977 1 1 0.999977
1 1 1 1
0.999978 1 1 0.999978
1 1 1 1
1 1 1 1
1 1 1 1
1 1 1 1
1 1 1 1
0.999809 1 1 0.999809
0.999995 1 1 0.999995
0.99984 1 1 0.99984
1 1 1 1
0.999997 1 1 0.999997
0.999852 1 1 0.999852
1 1 1 1
1 1 1 1
0.999997 1 1 0.999997
1 1 1 1
1 1 1 1
1 1 1 1
0.952105 0.95762 0.996602 0.99763
0.920926 0.941115 0.983085 0.995384
0.994927 0.997895 0.998586 0.998438
0.934489 0.951512 0.985106 0.996958
0.977686 0.983685 0.996672 0.99722
1.01968 1.02162 0.999227 0.998871
0.960333 0.970291 0.994695 0.995016
0.91429 0.938119 0.979522 0.994975
0.889582 0.936402 0.953957 0.995852
0.996682 0.999419 0.998817 0.998442
0.967959 0.970505 1.00395 0.993453
0.910656 0.942246 0.971414 0.994914
0.941104 0.974597 0.968641 0.996896
0.995625 0.998443 0.998705 0.99847
0.970049 0.969823 1.00709 0.993188
0.936735 0.966332 0.973185 0.996082
0.965103 0.997362 0.969773 0.997817
0.999421 1 1 0.999421
0.999527 1 1 0.999527
0.999686 1 1 0.999686
0.999582 1 1 0.999582
0.999444 1 1 0.999444
0.999543 1 1 0.999543
0.999582 1 1 0.999582
0.999591 1 1 0.999591
0.999623 1 1 0.999623
0.999647 1 1 0.999647
1.01348 1.02094 0.99403 0.998658
0.997079 1.00308 0.995304 0.998708
1.00047 1 1.00159 0.998884
1.00411 1 1.00527 0.998851
1.0023 1 1.00326 0.999042
0.999249 1 1 0.999249
0.999358 1 1 0.999358
0.999352 1 1 0.999352
1.00438 1.00929 0.996352 0.998776
0.999266 1 1 0.999266
0.999213 1 1.00009 0.999123
0.996272 1 0.997228 0.999041
1.00457 1 1.0056 0.998975
0.993116 1.00398 0.990053 0.999121
1.01121 1 1.01189 0.999329
0.99988 1 1.00078 0.9991
0.999278 1 1 0.999278
0.999139 1 1 0.999139
0.997685 0.998785 0.999768 0.999131
0.9514 0.957316 0.996196 0.997616
0.921443 0.941718 0.982476 0.995923
0.999905 1 1.00068 0.999225
1.00835 1 1.00912 0.999243
0.991066 1 0.991814 0.999246
0.95241 0.957853 0.996729 0.99758
0.971762 0.970673 1.00811 0.993067
0.988819 0.989367 1.00175 0.997704
0.999319 1.00015 1.00033 0.998837
0.935098 0.962832 0.976074 0.995001
0.99479 0.995616 1.00066 0.998511
0.955206 0.986952 0.969902 0.997867
1.00087 1 1.00136 0.99951
0.995729 0.996661 0.999972 0.999092
1.00979 1.00582 1.00475 0.999202
1.00833 0.999598 1.00915 0.999593
0.992647 0.989724 1.00435 0.998604
0.976716 0.976628 1.00724 0.992904
0.96742 1.00386 0.965632 0.997997
0.94676 0.97174 0.978383 0.99582
1.00158 0.999513 1.00236 0.999711
1.00828 1.00819 1.00033 0.999758
1.01694 1.01247 1.00511 0.999306
0.966866 0.997573 0.971334 0.997821
1.00214 0.989765 1.01282 0.999681
0.978576 0.977375 1.00784 0.993439
0.940855 0.959249 0.984494 0.996273
0.999647 1 1.00027 0.999379
1.00051 1 1.00109 0.999414
1.00312 1 1.00355 0.999566
0.999478 1 1 0.999478
0.999375 1 1 0.999375
1.00075 1 1.00138 0.999379
0.999405 1 1 0.999405
0.999679 1 1.00033 0.999353
1.00069 1 1.00126 0.999429
0.999852 1 1.00035 0.999497
0.99935 1 1 0.99935
0.999418 1 1 0.999418
0.999448 1 1 0.999448
0.999392 1 1 0.999392
0.999365 1 1 0.999365
0.999351 1 1 0.999351
0.999404 1 1.00007 0.999335
0.999282 1 1 0.999282
1.00126 1 1.00223 0.999041
0.99929 1 1 0.99929
0.999482 1 1.00029 0.999194
0.99958 1 1.00064 0.998943
0.999408 1 1.00035 0.999059
0.999273 1 1 0.999273
0.999438 1 1.00037 0.99907
0.999442 1 1 0.999442
0.999314 1 1 0.999314
0.999278 1 1 0.999278
0.999375 1 1 0.999375
0.999494 1 1 0.999494
0.9997 1 1 0.9997
0.999546 1 1 0.999546
0.999737 1 1 0.999737
0.999969 1 1 0.999969
0.999759 1 1 0.999759
0.999973 1 1 0.999973
1 1 1 1
0.999976 1 1 0.999976
1 1 1 1
1 1 1 1
1 1 1 1
1 1 1 1
1 1 1 1
0.999731 1 1 0.999731
0.999957 1 1 0.999957
0.999807 1 1 0.999807
1 1 1 1
0.99998 1 1 0.99998
0.999814 1 1 0.999814
1 1 1 1
1 1 1 1
0.999997 1 1 0.999997
1 1 1 1
1 1 1 1
1 1 1 1
0.995734 0.997029 0.999662 0.999039
0.945237 0.956659 0.990716 0.99732
0.9227 0.940135 0.986268 0.99512
0.99954 1 1 0.99954
1.00576 1.00259 1.00384 0.999325
0.996651 0.998003 1.00021 0.998441
0.928456 0.950993 0.97949 0.996744
0.994925 0.999621 0.997353 0.997944
0.970512 0.972403 1.0043 0.99378
0.914622 0.946337 0.970533 0.995831
0.936098 0.972166 0.966034 0.996755
0.998074 1.00091 0.999963 0.997206
0.967359 0.969144 1.00478 0.993413
0.938919 0.965816 0.97637 0.995679
0.964164 0.99686 0.969509 0.997619
0.990036 0.99127 1.00224 0.996521
0.975222 0.970332 1.01298 0.992159
0.947758 0.97344 0.978102 0.995415
0.965664 1.00075 0.96711 0.997754
0.999339 1 1 0.999339
0.999413 1 1 0.999413
0.999541 1 1 0.999541
0.999433 1 1 0.999433
0.999463 1 1 0.999463
0.999554 1 1 0.999554
0.999595 1 1 0.999595
0.999638 1 1 0.999638
0.999239 1.00761 0.992893 0.998795
0.994833 1 0.995835 0.998994
0.999353 1 1 0.999353
1.00368 1 1.00471 0.998973
0.999285 1 1.00017 0.999119
0.999276 1 1 0.999276
0.999282 1 1 0.999282
0.996874 1.00533 0.992451 0.999126
0.999156 1 1 0.999156
1.0007 1 1.0016 0.999097
1.00741 1 1.00809 0.999327
0.999292 1 1 0.999292
0.98713 0.997217 0.990343 0.999537
1.01294 0.999859 1.01363 0.999454
0.999194 1 1 0.999194
0.999234 1 1 0.999234
1.00906 1.00991 0.99935 0.999811
0.997142 0.998272 0.999723 0.999145
0.953663 0.957179 0.998555 0.997767
1.00101 1 1.00149 0.99952
1.009 0.999579 1.00996 0.999472
0.994319 0.995068 0.999995 0.999252
0.976552 0.973883 1.0096 0.993202
0.993491 0.988678 1.00759 0.997299
0.949367 0.973482 0.979832 0.995301
1.01171 1.00735 1.00512 0.999212
0.970593 1.00859 0.964036 0.998229
1.00177 0.999515 1.00258 0.999678
1.00763 1.00792 0.999948 0.999764
1.01642 1.01209 1.00484 0.999446
1.00653 0.993643 1.01304 0.999931
0.964905 0.996844 0.970274 0.997616
0.977395 0.976305 1.00766 0.993506
0.946319 0.96896 0.981312 0.995233
1.00598 0.996528 1.00972 0.999771
1.01597 1.01501 1.00111 0.999835
1.00571 1.00355 1.00283 0.999328
0.945306 0.976632 0.970848 0.996989
0.946673 0.974269 0.976208 0.995357
0.995553 0.989162 1.00657 0.999896
0.979689 0.971643 1.01544 0.992946
1.00027 1 1.00089 0.999377
1.00223 1 1.00268 0.99955
1.00928 0.997114 1.01262 0.999582
0.999406 1 1 0.999406
0.999719 1 1.00037 0.999354
1.00094 1 1.00154 0.999403
0.999348 1 1 0.999348
0.99993 1 1.00043 0.999497
1.00394 1 1.00456 0.999387
0.999364 1 1 0.999364
0.999357 1 1 0.999357
0.999735 1 1.00042 0.999316
1.0048 1 1.00571 0.999095
0.999311 1 1 0.999311
1.00073 1 1.00165 0.999079
1.00272 1 1.0039 0.998824
1.00044 1 1.00163 0.998813
0.999384 1 1.0002 0.999187
0.999576 1 1.00066 0.998912
0.999483 1 1.00036 0.999128
0.999528 1 1.00031 0.999215
0.999372 1 1.00029 0.999083
0.999408 1 1 0.999408
0.99927 1 1 0.99927
0.999521 1 1.00045 0.999075
0.999652 1 1 0.999652
0.999437 1 1 0.999437
0.999299 1 1 0.999299
0.99951 1 1 0.99951
0.999699 1 1 0.999699
0.999957 1 1 0.999957
0.999736 1 1 0.999736
0.999966 1 1 0.999966
1 1 1 1
0.999972 1 1 0.999972
1 1 1 1
1 1 1 1
1 1 1 1
1 1 1 1
1 1 1 1
0.999698 1 1 0.999698
0.999934 1 1 0.999934
0.999746 1 1 0.999746
1 1 1 1
0.999956 1 1 0.999956
0.999806 1 1 0.999806
1 1 1 1
1 1 1 1
0.999966 1 1 0.999966
1 1 1 1
1 1 1 1
1 1 1 1
1.00764 1.00788 1.00002 0.999745
0.995662 0.996906 0.999705 0.999046
0.946042 0.95704 0.991148 0.997337
0.999546 1 1 0.999546
0.999509 1 1 0.999509
0.999444 1 1 0.999444
1.01697 1.0115 1.00611 0.999302
1.00617 1.00294 1.00388 0.999338
0.99798 0.998133 1.00141 0.998443
1.00404 1.00196 1.00384 0.99824
0.969288 0.969839 1.00622 0.993259
0.936491 0.963771 0.976565 0.995013
0.965046 0.998514 0.968711 0.9977
0.985137 0.986352 1.00114 0.997632
0.971153 0.969757 1.00837 0.993131
0.947719 0.970261 0.980375 0.996321
0.968197 1.00431 0.965982 0.99799
0.978103 0.98172 0.998898 0.997416
0.980848 0.973719 1.01415 0.993267
0.941315 0.959392 0.984838 0.996263
0.965268 0.995367 0.971677 0.998029
0.999324 1 1 0.999324
0.999337 1 1 0.999337
0.999404 1 1 0.999404
0.999431 1 1 0.999431
0.999481 1 1 0.999481
0.9996 1 1 0.9996
1.00102 1.0066 0.995322 0.999131
1.00371 1 1.00439 0.999325
0.999285 1 1 0.999285
1.0014 1 1.00231 0.999093
0.999172 1 1 0.999172
0.999283 1 1 0.999283
0.999236 1 1 0.999236
0.99592 0.999563 0.996826 0.999528
0.999226 1 1 0.999226
1.01024 0.997838 1.01296 0.99948
0.999294 1 1 0.999294
1.00994 0.991771 1.01857 0.999754
0.99559 0.995526 1.00044 0.999629
0.999273 1 1 0.999273
1.01743 1.01804 0.999502 0.999899
1.00906 1.00993 0.999306 0.999836
0.996701 0.997877 0.999663 0.999158
1.0019 0.99952 1.00274 0.999644
1.00103 0.994243 1.00693 0.999899
1.00714 1.00779 0.99959 0.99977
0.985103 0.979593 1.01008 0.995595
0.953164 0.969848 0.986268 0.996481
1.01573 1.01166 1.00444 0.999586
0.965169 0.998524 0.968821 0.997703
1.00538 0.997664 1.00795 0.999788
1.01623 1.01535 1.00102 0.999854
1.00648 1.00389 1.00325 0.99934
0.994496 0.985815 1.01043 0.998392
0.943293 0.975836 0.969643 0.996915
0.945753 0.971777 0.976881 0.996253
0.989842 0.977529 1.01933 0.993394
1.01853 0.993083 1.02574 0.99989
1.0081 1.00841 0.999943 0.999744
0.995801 0.99904 0.99831 0.998446
0.905918 0.94265 0.9645 0.996406
0.937432 0.965795 0.974424 0.996109
0.984542 0.97645 1.0151 0.993287
0.968869 0.979941 0.990771 0.99791
1.0012 1 1.00167 0.999534
1.01127 0.998028 1.01369 0.999586
1.0195 1 1.01998 0.999529
0.999346 1 1 0.999346
1.00005 1 1.00055 0.999497
1.00317 1 1.00377 0.999405
1.01278 1 1.01361 0.999186
1.00005 1 1.00075 0.999296
1.00483 1 1.00578 0.999053
1.01006 1 1.01134 0.998741
1.00028 1 1.00116 0.999117
1.00347 1 1.00466 0.998816
1.00361 1 1.00501 0.998607
1.00025 1 1.00163 0.998626
0.999856 1 1.00085 0.999009
1.00041 1 1.00162 0.998795
0.999606 1 1.00073 0.998881
0.999528 1 1.00031 0.999219
0.999518 1 1.00036 0.999159
0.999386 1 1.00006 0.999326
0.999503 1 1.00027 0.999233
0.999326 1 1.00022 0.999108
0.999593 1 1 0.999593
0.99941 1 1 0.99941
0.999267 1 1 0.999267
0.999937 1 1 0.999937
0.999652 1 1 0.999652
0.999431 1 1 0.999431
0.999699 1 1 0.999699
0.999954 1 1 0.999954
1 1 1 1
0.999964 1 1 0.999964
1 1 1 1
1 1 1 1
1 1 1 1
1 1 1 1
1 1 1 1
0.999695 1 1 0.999695
0.999954 1 1 0.999954
0.999709 1 1 0.999709
1 1 1 1
0.999953 1 1 0.999953
0.999761 1 1 0.999761
1 1 1 1
1 1 1 1
0.999955 1 1 0.999955
1 1 1 1
1 1 1 1
1 1 1 1
1.01678 1.01478 1.00214 0.999833
1.00904 1.00843 1.00086 0.999751
0.995826 0.996706 1.00006 0.999054
0.999492 1 1 0.999492
0.999415 1 1 0.999415
0.999552 1 1 0.999552
0.999506 1 1 0.999506
0.99943 1 1 0.99943
0.999421 1 1 0.999421
0.999363 1 1 0.999363
1.00737 1.0031 1.00507 0.999183
1.01554 1.0107 1.00535 0.999443
1.00691 1.00328 1.00427 0.999351
0.972011 1.00876 0.965277 0.998227
0.983619 0.98594 1.00105 0.996605
0.97689 0.973836 1.00909 0.994102
0.94988 0.966233 0.987827 0.995191
0.977607 0.98187 0.99879 0.996865
0.975892 0.972018 1.01095 0.993114
0.948203 0.969939 0.982162 0.995345
0.960572 0.991258 0.97119 0.997789
0.969107 0.976846 0.9941 0.997966
0.97276 0.973793 1.006 0.992982
0.965987 0.982727 0.986545 0.996372
0.943282 0.976885 0.968136 0.997382
0.999333 1 1 0.999333
0.999322 1 1 0.999322
0.999335 1 1 0.999335
0.99943 1 1 0.99943
1.00353 1.00181 1.00219 0.99952
1.00811 0.996168 1.01249 0.999505
0.999275 1 1 0.999275
0.999238 1 1 0.999238
0.999259 1 1 0.999259
0.999292 1 1 0.999292
0.999262 1 1 0.999262
1.00517 0.990374 1.01532 0.999627
0.997239 0.997116 1.00044 0.999686
0.999292 1 1 0.999292
1.01067 0.986474 1.02477 0.999764
1.00186 0.998385 1.0041 0.999389
1.00992 1.01037 0.999753 0.999809
1.01655 1.01718 0.999468 0.999909
1.00903 1.00985 0.999332 0.999861
1.0049 0.998741 1.00636 0.999805
0.995665 0.985559 1.01041 0.999851
1.01641 1.01562 1.00091 0.999873
0.978553 0.971188 1.01466 0.99303
0.949998 0.967572 0.986641 0.995131
1.00747 1.00423 1.00388 0.999353
0.938575 0.973317 0.96742 0.99678
1.02102 0.992732 1.02863 0.999873
1.00898 1.00874 1.00048 0.999751
0.997445 0.999168 0.999827 0.998448
0.972937 0.982956 0.990427 0.999374
0.898981 0.940212 0.959846 0.996148
0.937651 0.964332 0.97654 0.995691
0.987829 0.976671 1.01793 0.99361
1.00453 0.988949 1.01598 0.999778
0.997119 0.998039 1.00004 0.999041
0.94093 0.956018 0.987046 0.997135
0.908781 0.93808 0.972797 0.995858
0.978724 0.972661 1.01304 0.993277
0.964436 0.978155 0.988857 0.997085
1.01376 0.999308 1.01487 0.99959
1.01922 0.999061 1.02066 0.999522
1.01318 1 1.01378 0.99941
1.00246 1 1.00303 0.999424
1.01326 1 1.01406 0.999221
1.00916 1 1.01036 0.998808
1.00493 1 1.00593 0.99901
1.00994 1 1.01125 0.998708
1.00476 1 1.00626 0.998511
1.00415 1 1.00534 0.998809
1.00358 1 1.00501 0.99858
1.00193 1.00028 1.00316 0.998493
0.998629 1.00004 1 0.998593
0.999378 1 1.00059 0.998793
1.0005 1 1.00191 0.998596
0.999143 1 1 0.999143
0.99953 1 1.0005 0.999028
1.00034 1 1.00156 0.998776
0.999314 1 1.00005 0.999262
0.999637 1 1.00042 0.999213
0.999551 1 1.00036 0.999189
0.999512 1 1 0.999512
0.999379 1 1.00004 0.999342
0.999492 1 1.00024 0.999251
0.999891 1 1 0.999891
0.999594 1 1 0.999594
0.999411 1 1 0.999411
1 1 1 1
0.999932 1 1 0.999932
0.999652 1 1 0.999652
0.99995 1 1 0.99995
1 1 1 1
1 1 1 1
1 1 1 1
1 1 1 1
1 1 1 1
0.99949 1 1 0.99949
0.999667 1 1 0.999667
0.999941 1 1 0.999941
0.999695 1 1 0.999695
1 1 1 1
0.999958 1 1 0.999958
0.999721 1 1 0.999721
1 1 1 1
1 1 1 1
0.999973 1 1 0.999973
1 1 1 1
1 1 1 1
1 1 1 1
1.00885 1.00762 1.00146 0.999757
1.01707 1.01519 1.002 0.999852
1.01004 1.00899 1.00128 0.999758
0.999498 1 1 0.999498
0.999405 1 1 0.999405
0.999366 1 1 0.999366
0.999403 1 1 0.999403
0.999354 1 1 0.999354
0.999504 1 1 0.999504
0.999416 1 1 0.999416
0.999422 1 1 0.999422
0.999358 1 1 0.999358
0.999368 1 1 0.999368
0.994336 0.995062 1.00079 0.99848
1.00911 1.00455 1.00536 0.999194
1.01401 1.00998 1.00441 0.999583
0.956364 0.987837 0.970239 0.997836
0.951113 0.968223 0.985775 0.996502
0.971309 0.977597 0.997256 0.996301
0.97794 0.976882 1.00792 0.993218
0.970209 0.976874 0.996447 0.996719
0.982026 0.97786 1.01117 0.993169
0.951742 0.974847 0.980375 0.995842
0.942857 0.976882 0.967891 0.997188
0.983999 0.979477 1.00742 0.997218
0.975464 0.977099 1.00498 0.993384
0.933819 0.963234 0.974356 0.994978
0.910337 0.95113 0.960585 0.996384
0.999473 1 1 0.999473
0.999333 1 1 0.999333
0.99932 1 1 0.99932
1.00082 0.988596 1.01287 0.999497
0.997645 0.997492 1.00041 0.999748
0.999289 1 1 0.999289
0.999251 1 1 0.999251
0.999336 1 1.00003 0.999302
1.00259 0.998767 1.00445 0.999384
1.0089 0.986555 1.02288 0.999775
1.00375 1 1.00435 0.999401
1.00747 0.993979 1.01408 0.999504
0.997336 0.998232 1 0.999103
1.00997 1.01042 0.999712 0.999835
1.0157 1.01638 0.999408 0.99992
1.02317 0.992254 1.03131 0.999855
0.972465 0.98265 0.992083 0.997533
1.0096 1.00909 1.00075 0.999757
0.978878 0.975289 1.01179 0.991983
0.936502 0.963036 0.977271 0.995064
0.998794 0.999338 1.00101 0.998451
0.892245 0.938226 0.954918 0.995888
1.00523 0.98961 1.01598 0.999803
0.997213 0.998171 0.999993 0.999048
0.935518 0.952535 0.9851 0.996991
0.963516 0.978844 0.986514 0.997797
0.912238 0.942336 0.972974 0.99495
0.971398 0.971084 1.00772 0.992657
0.985538 0.989828 0.996242 0.999421
0.952381 0.957649 0.996832 0.997659
0.907547 0.934644 0.97598 0.994905
0.973283 0.970938 1.00929 0.993192
0.98237 0.985246 0.999212 0.997867
1.01834 0.997972 1.02091 0.999515
1.01551 1 1.01612 0.999402
0.993469 1 0.994358 0.999106
1.01354 1 1.0143 0.999255
1.00893 1 1.01009 0.998848
1.00197 1.00063 1.00272 0.998633
1.00966 1 1.011 0.998676
1.00405 1 1.00554 0.998517
0.998935 1.00031 1.00003 0.998587
1.00343 1 1.00488 0.998554
1.00153 1.00059 1.00244 0.998503
1.00052 1.00188 1 0.998639
0.99941 1.00068 1 0.998731
0.998708 1 1.00002 0.998691
0.998609 1.00001 1 0.998601
0.998975 1 1 0.998975
0.999608 1 1.00085 0.998762
1.00077 1 1.00221 0.998566
0.999251 1 1 0.999251
0.999166 1 1 0.999166
0.999233 1 1.00019 0.999048
0.999429 1 1 0.999429
0.999417 1 1.00015 0.999268
0.999734 1 1.00053 0.999206
0.999812 1 1 0.999812
0.999512 1 1 0.999512
0.999358 1 1 0.999358
1 1 1 1
0.999888 1 1 0.999888
0.999594 1 1 0.999594
1 1 1 1
1 1 1 1
0.999928 1 1 0.999928
1 1 1 1
1 1 1 1
1 1 1 1
0.999444 1 1 0.999444
0.999634 1 1 0.999634
0.999482 1 1 0.999482
0.99993 1 1 0.99993
0.999667 1 1 0.999667
1 1 1 1
0.999944 1 1 0.999944
0.999695 1 1 0.999695
1 1 1 1
1 1 1 1
0.999961 1 1 0.999961
1 1 1 1
1 1 1 1
1 1 1 1
0.997551 0.998323 1 0.999227
1.00847 1.00755 1.00115 0.999763
1.01729 1.01551 1.00188 0.999871
0.999362 1 1 0.999362
0.999505 1 1 0.999505
0.999395 1 1 0.999395
0.999413 1 1 0.999413
0.999376 1 1 0.999376
0.999351 1 1 0.999351
0.999311 1 1 0.999311
0.999337 1 1 0.999337
0.999423 1 1 0.999423
0.999353 1 1 0.999353
0.999365 1 1 0.999365
0.999368 1 1 0.999368
0.933588 0.953496 0.98236 0.996703
0.994582 0.995013 1.00109 0.998481
1.01053 1.00567 1.00564 0.999205
0.939377 0.976028 0.965403 0.99694
0.955672 0.977618 0.98206 0.99541
0.972632 0.973694 1.00594 0.99301
0.972173 0.975568 0.998699 0.997818
0.983747 0.978782 1.00667 0.998413
0.901257 0.943901 0.958527 0.996134
0.980656 0.975914 1.01233 0.992616
0.93239 0.962435 0.972636 0.996038
0.983287 0.985048 0.999662 0.99855
0.974626 0.971879 1.00922 0.993663
0.907173 0.937835 0.971394 0.995791
1.00007 1 1.00041 0.999661
0.999475 1 1 0.999475
0.999333 1 1 0.999333
1.00968 0.989359 1.02076 0.99978
1.00435 0.999908 1.00506 0.999379
0.999362 1 1.00005 0.999312
1.00405 1 1.00465 0.999405
1.0065 0.994464 1.01258 0.999526
1.00707 0.998108 1.00939 0.999601
0.949975 0.957161 0.99532 0.997159
0.997837 0.998563 0.999986 0.999287
1.00996 1.01037 0.999735 0.999862
1.00554 0.989917 1.01596 0.999831
0.964168 0.980723 0.984775 0.99832
0.997477 0.998254 1.00017 0.999056
0.975688 0.973628 1.00797 0.994196
0.916559 0.946397 0.972499 0.995859
0.928907 0.951931 0.978966 0.996781
0.984602 0.990267 0.994818 0.999459
0.945489 0.956676 0.990934 0.997349
0.917984 0.936301 0.984469 0.995905
0.981744 0.982331 1.00275 0.996666
0.970608 0.971552 1.00569 0.993373
0.975342 0.997174 0.978641 0.999452
0.921371 0.941452 0.98263 0.99597
0.970759 0.972314 1.00477 0.993658
0.993237 0.993947 1.00282 0.996476
1.01872 1 1.01933 0.999395
0.9899 1 0.990751 0.999141
0.981745 1.00092 0.98184 0.998982
1.00901 1 1.01014 0.998888
1.002 1.00081 1.00256 0.998633
0.999748 1.00149 0.999428 0.998829
1.00345 1 1.00494 0.998523
0.999179 1.00021 1.00037 0.998601
1.00379 1.00493 1 0.998864
1.00124 1.00089 1.00183 0.998514
1.00037 1.00173 1 0.998645
1.00158 1.00269 1 0.998895
0.999735 1.00081 1 0.99893
0.998949 1.00019 1 0.998757
0.999344 1.0006 1 0.998749
0.998851 1 1 0.998851
0.998714 1 1 0.998714
0.99861 1 1 0.998609
0.999168 1 1 0.999168
0.999013 1 1.00004 0.998975
0.999838 1 1.00111 0.99873
0.999381 1 1 0.999381
0.999249 1 1 0.999249
0.99919 1 1 0.99919
0.999718 1 1 0.999718
0.999431 1 1 0.999431
0.999533 1 1.00026 0.999275
1 1 1 1
0.999811 1 1 0.999811
0.999512 1 1 0.999512
1 1 1 1
1 1 1 1
0.999885 1 1 0.999885
1 1 1 1
1 1 1 1
1 1 1 1
0.999437 1 1 0.999437
0.999447 1 1 0.999447
0.999593 1 1 0.999593
0.999915 1 1 0.999915
0.999634 1 1 0.999634
0.999474 1 1 0.999474
1 1 1 1
0.999932 1 1 0.999932
0.999667 1 1 0.999667
1 1 1 1
1 1 1 1
0.999947 1 1 0.999947
1 1 1 1
1 1 1 1
1 1 1 1
0.949972 0.955643 0.996679 0.997379
0.996625 0.997385 1 0.999238
1.00828 1.00766 1.00084 0.99977
0.999353 1 1 0.999353
0.999342 1 1 0.999342
0.99931 1 1 0.99931
0.999423 1 1 0.999423
0.999386 1 1 0.999386
0.999348 1 1 0.999348
0.999336 1 1 0.999336
0.99931 1 1 0.99931
0.999258 1 1 0.999258
0.99936 1 1 0.99936
0.999362 1 1 0.999362
0.999369 1 1 0.999369
0.915321 0.936123 0.981792 0.995912
0.933508 0.951286 0.984598 0.996663
0.994528 0.994608 1.00144 0.998483
0.892304 0.936832 0.956406 0.995884
0.93139 0.960248 0.974852 0.994969
0.988595 0.981603 1.01273 0.994463
0.988076 0.977931 1.0133 0.997115
0.981385 0.982845 1.00121 0.997311
0.910422 0.938602 0.97493 0.994919
0.975669 0.972812 1.00904 0.993955
0.985679 0.984415 1.00377 0.997524
0.974191 0.974316 1.00647 0.993443
1.00753 1 1.00819 0.99935
0.999914 1 1.00027 0.999647
0.999477 1 1 0.999477
1.00294 0.992581 1.0109 0.999547
1.00435 1 1.00494 0.999409
1.00749 0.998794 1.00918 0.999535
1.00123 1.00067 1.00146 0.999101
0.919007 0.943098 0.978712 0.995651
0.950941 0.956345 0.99688 0.997461
0.998533 0.999145 0.999918 0.999469
0.982557 0.990344 0.99263 0.999504
0.982062 0.982412 1.00204 0.997613
0.946637 0.957098 0.991683 0.997365
0.974068 0.971747 1.0092 0.993247
0.914867 0.937602 0.980653 0.995001
0.978894 0.997703 0.981811 0.999325
0.921686 0.941575 0.983404 0.995397
0.971139 0.971801 1.00601 0.993353
0.993651 0.990369 1.00579 0.997541
0.994806 1.00404 0.99157 0.999225
0.958599 0.969786 0.99561 0.992823
0.994708 0.995903 1.00076 0.998045
0.986317 1 0.987131 0.999175
0.983073 1.00104 0.983071 0.998965
0.983629 1.00226 0.982426 0.998968
1.00168 1.00095 1.0021 0.998633
0.999471 1.00191 0.998742 0.998825
1.00428 1.00766 0.997508 0.999137
0.999451 1.00012 1.00071 0.998616
1.00434 1.00548 1 0.998862
1.00698 1.00789 1 0.999096
1.00022 1.00157 1 0.99865
1.0014 1.00251 1 0.998894
1.00145 1.0024 1 0.999055
0.999444 1.00042 1 0.999024
0.999606 1.00066 1 0.998951
0.998944 1.00004 1 0.998908
0.998842 1 1 0.998842
0.998912 1.00015 1 0.99876
0.999205 1.00044 1 0.998767
0.999016 1 1 0.999016
0.998875 1 1 0.998875
0.998736 1 1 0.998736
0.999325 1 1 0.999325
0.999165 1 1 0.999165
0.999009 1 1.00003 0.998976
0.999646 1 1 0.999646
0.999382 1 1 0.999382
0.999247 1 1 0.999247
0.999998 1 1 0.999998
0.999718 1 1 0.999718
0.999433 1 1 0.999433
1 1 1 1
1 1 1 1
0.999809 1 1 0.999809
1 1 1 1
1 1 1 1
1 1 1 1
0.999396 1 1 0.999396
0.999425 1 1 0.999425
0.999551 1 1 0.999551
0.999449 1 1 0.999449
0.999593 1 1 0.999593
0.999884 1 1 0.999884
1 1 1 1
0.999916 1 1 0.999916
0.999634 1 1 0.999634
1 1 1 1
1 1 1 1
0.999935 1 1 0.999935
1 1 1 1
1 1 1 1
1 1 1 1
0.927934 0.94161 0.990155 0.995275
0.947808 0.95624 0.993996 0.997169
0.99541 0.996159 1 0.999249
0.999344 1 1 0.999344
0.999299 1 1 0.999299
0.999352 1 1 0.999352
0.999309 1 1 0.999309
0.999287 1 1 0.999287
0.999336 1 1 0.999336
0.99931 1 1 0.99931
0.999263 1 1 0.999263
0.999242 1 1 0.999242
0.999261 1 1 0.999261
0.999274 1 1.00026 0.999017
0.999365 1 1 0.999365
0.999371 1 1 0.999371
0.969394 0.977021 0.99956 0.99263
0.920973 0.937995 0.986254 0.995537
0.93424 0.952259 0.984476 0.996548
0.911103 0.938216 0.975166 0.995831
0.976757 0.971831 1.01287 0.992301
0.983275 0.982343 1.00234 0.998612
0.988577 0.987515 1.00288 0.998198
0.973563 0.975505 1.00432 0.993714
0.989639 0.997973 0.994265 0.997369
1.00572 1.00132 1.0057 0.998707
1.00599 1 1.00666 0.999337
0.999633 1 1 0.999633
1.00741 0.999896 1.00804 0.999474
1.00027 1.00101 1.00017 0.999091
0.950899 0.968531 0.988055 0.993665
0.923013 0.942846 0.983752 0.995134
0.952638 0.955728 0.999 0.997765
0.982662 0.998769 0.984666 0.999194
0.994232 0.99024 1.00755 0.996506
0.92317 0.940772 0.98611 0.995112
0.973198 0.972566 1.00707 0.993628
0.992004 1.00475 0.988095 0.999209
0.96132 0.971254 0.995921 0.993825
0.99722 0.998114 1.00217 0.996936
1.00422 1.00767 0.997711 0.998865
0.996142 0.996652 1.0008 0.998687
0.983784 1.00119 0.983654 0.998947
0.986506 1.002 0.985584 0.998937
1.00364 1.01396 0.99082 0.998996
0.999361 1.00224 0.998302 0.99882
1.00299 1.00633 0.997546 0.99913
1.00968 1.01312 0.997429 0.999179
1.00485 1.00599 1 0.99886
1.00726 1.0082 0.999994 0.999083
1.00489 1.0058 0.999987 0.999102
1.00125 1.00236 1 0.998893
1.00144 1.00239 1 0.999044
1.00055 1.00152 1 0.99903
0.999424 1.00037 1 0.999051
0.999033 1.00007 1 0.99896
0.999544 1.00057 1 0.998973
0.998978 1.00007 1 0.998904
0.998891 1 1 0.998891
0.998937 1 1 0.998937
0.998837 1 1 0.998837
0.998875 1.00011 1 0.998763
0.999229 1 1 0.999229
0.999032 1 1 0.999032
0.9989 1 1 0.9989
0.999592 1 1 0.999592
0.999323 1 1 0.999323
0.999161 1 1 0.999161
0.999986 1 1 0.999986
0.999647 1 1 0.999647
0.999383 1 1 0.999383
1 1 1 1
0.999995 1 1 0.999995
0.999718 1 1 0.999718
1 1 1 1
1 1 1 1
1 1 1 1
0.999333 1 1 0.999333
0.999397 1 1 0.999397
0.999484 1 1 0.999484
0.999413 1 1 0.999413
0.999538 1 1 0.999538
0.999825 1 1 0.999825
0.999592 1 1 0.999592
0.999885 1 1 0.999885
1 1 1 1
1 1 1 1
1 1 1 1
0.999918 1 1 0.999918
1 1 1 1
1 1 1 1
1 1 1 1
0.965278 0.973326 0.997997 0.993721
0.923023 0.944473 0.981413 0.995798
0.951985 0.957548 0.996916 0.997265
0.999288 1 1 0.999288
0.999363 1 1 0.999363
0.999293 1 1 0.999293
0.999311 1 1 0.999311
0.999229 1 1 0.999229
0.999287 1 1 0.999287
0.999269 1 1 0.999269
0.999213 1 1 0.999213
0.999248 1 1 0.999248
0.999161 1 1 0.999161
0.999702 1.00065 1 0.99905
0.998923 1.00024 1.00011 0.998569
0.999226 1.00013 1.00006 0.999041
0.999371 1 1 0.999371
0.987196 0.993871 0.995696 0.997577
0.968296 0.974538 1.00015 0.99345
0.914967 0.938741 0.979587 0.994986
0.974181 0.973863 1.00707 0.993302
0.98463 0.987543 0.998233 0.998816
0.992429 0.997044 0.996869 0.998498
0.99661 1.00479 0.992975 0.998878
1.00284 1.00067 1.00337 0.998799
1.00495 1 1.00563 0.999323
0.998127 1.00112 0.997932 0.999076
0.982764 0.986386 0.99904 0.997286
0.958417 0.970115 0.99387 0.994035
0.92133 0.942711 0.981263 0.995982
0.990919 1.0055 0.986297 0.999192
1.00264 0.999204 1.00565 0.997807
0.961392 0.971156 0.995054 0.994867
0.998359 1.00605 0.993462 0.998882
0.994197 0.99667 0.999276 0.998242
1.009 1.01829 0.992087 0.998776
1.01205 1.0139 0.999432 0.998743
0.989666 1.00182 0.988948 0.998905
1.00463 1.01354 0.992208 0.998992
1.01219 1.01663 0.996643 0.998979
1.00184 1.00522 0.99751 0.999122
1.01003 1.01302 0.997875 0.999171
1.00732 1.00915 0.999197 0.998984
1.00756 1.0085 1 0.99907
1.00418 1.00509 1 0.999091
1.00226 1.00334 1 0.99892
1.00138 1.00235 1 0.999034
1.00041 1.00137 1 0.99904
0.99929 1.00038 1 0.998906
0.999369 1.00029 1 0.999077
0.999063 1.00009 1 0.998974
0.998893 1 1 0.998893
0.999003 1.0001 1 0.998899
0.998887 1 1 0.998887
0.998942 1 1 0.998942
0.999114 1 1 0.999114
0.998954 1 1 0.998954
0.998832 1 1 0.998832
0.99952 1 1 0.99952
0.999228 1 1 0.999228
0.999049 1 1 0.999049
0.999961 1 1 0.999961
0.999591 1 1 0.999591
0.99932 1 1 0.99932
1 1 1 1
0.999979 1 1 0.999979
0.999648 1 1 0.999648
1 1 1 1
0.999992 1 1 0.999992
1 1 1 1
0.999264 1 1 0.999264
0.999342 1 1 0.999342
0.99943 1 1 0.99943
0.999397 1 1 0.999397
0.999476 1 1 0.999476
0.999748 1 1 0.999748
0.999524 1 1 0.999524
0.999825 1 1 0.999825
1 1 1 1
0.999886 1 1 0.999886
1 1 1 1
1 1 1 1
1 1 1 1
1 1 1 1
1 1 1 1
0.980494 0.986272 0.996524 0.99761
0.958981 0.970643 0.994368 0.993581
0.921126 0.944693 0.979928 0.995025
0.999111 1 1 0.999111
0.999299 1 1 0.999299
0.999313 1 1 0.999313
0.999283 1 1 0.999283
0.999224 1 1 0.999224
0.999305 1 1 0.999305
0.999184 1 1 0.999184
0.999235 1 1 0.999235
0.999188 1 1 0.999188
0.999433 1.00036 1 0.999074
0.999616 1.00091 1 0.998704
1.00376 1.00548 1 0.998294
0.999059 1.00037 1.00013 0.998561
0.999326 1.00026 1 0.999065
1.00064 1.006 0.995538 0.999128
0.988591 0.995291 0.996175 0.997082
0.97137 0.976478 1.00039 0.994382
0.993767 0.99743 0.998807 0.997517
1.00153 1.00645 0.996185 0.998917
1.0014 1.0002 1.00231 0.998891
1.0051 1.00623 0.999923 0.998954
0.983228 0.985341 0.999705 0.99815
0.956183 0.97015 0.991848 0.993703
0.991887 1.00421 0.98882 0.998898
0.99316 0.996421 0.998982 0.997743
1.00998 1.01869 0.992671 0.998766
1.01069 1.0121 0.999771 0.998835
1.01955 1.02214 0.99875 0.998719
1.01227 1.01395 0.999707 0.998643
1.00542 1.01285 0.993669 0.998989
1.01347 1.01761 0.996945 0.998987
1.00642 1.00791 0.999684 0.998838
1.01035 1.01291 0.998312 0.999163
1.00822 1.00984 0.999412 0.998982
1.00296 1.00419 1 0.998772
1.00348 1.00441 1 0.99908
1.00218 1.00324 1 0.998941
1.00035 1.00158 1 0.998771
1.0003 1.00125 1 0.99905
0.999362 1.00046 1 0.998906
0.998879 1.00005 1 0.998827
0.99911 1.00012 1 0.998988
0.998898 1 1 0.998898
0.998896 1 1 0.998896
0.998882 1 1 0.998882
0.998931 1 1 0.998931
0.999067 1 1 0.999067
0.999437 1 1 0.999437
0.999131 1 1 0.999131
0.99897 1 1 0.99897
0.999925 1 1 0.999925
0.999519 1 1 0.999519
0.999227 1 1 0.999227
1 1 1 1
0.999953 1 1 0.999953
0.999591 1 1 0.999591
1 1 1 1
0.999973 1 1 0.999973
1 1 1 1
0.999153 1 1 0.999153
0.999266 1 1 0.999266
0.999374 1 1 0.999374
0.999351 1 1 0.999351
0.999435 1 1 0.999435
0.999677 1 1 0.999677
0.999469 1 1 0.999469
0.999748 1 1 0.999748
0.999999 1 1 0.999999
0.999826 1 1 0.999826
1 1 1 1
1 1 1 1
1 1 1 1
1 1 1 1
1 1 1 1
1.00565 1.00937 0.997094 0.999222
0.980475 0.987573 0.99615 0.99665
0.96279 0.970538 0.998182 0.993823
0.999153 1 1 0.999153
0.998896 1 1 0.998896
0.999127 1 1 0.999127
0.999279 1 1 0.999279
0.999218 1 1 0.999218
0.999278 1 1 0.999278
1.00065 1.00184 1 0.998814
0.999215 1 1 0.999215
0.999098 1 1 0.999098
0.999802 1.00107 1 0.99873
1.00257 1.00422 1 0.998351
1.00917 1.0111 0.999512 0.998579
1.00257 1.00427 0.999996 0.998305
0.999105 1.00055 1 0.998552
1.00365 1.00874 0.995779 0.99917
0.987013 0.994709 0.995772 0.996477
1.00474 1.00771 0.998102 0.998957
1.00875 1.00981 0.999901 0.999047
1.00406 1.00512 0.999945 0.999001
0.980116 0.98512 0.997879 0.997035
1.01104 1.01942 0.993013 0.998757
1.00882 1.0102 0.999698 0.998927
1.01932 1.02225 0.998381 0.998749
1.01366 1.01518 0.999827 0.998671
1.00902 1.01079 0.999523 0.99872
1.01165 1.01283 1 0.998838
1.01474 1.0187 0.997116 0.998996
1.00619 1.00793 0.999426 0.998843
1.005 1.00633 1 0.99868
1.00899 1.01041 0.999616 0.998979
1.00283 1.00405 1 0.998781
1.00269 1.00403 1 0.998663
1.00208 1.00312 1 0.998963
1.00033 1.00157 1 0.998769
0.999103 1.00039 1 0.998718
0.999409 1.0005 1 0.998906
0.99893 1.0001 1 0.998826
0.998829 1 1 0.998829
0.998903 1 1 0.998903
0.998897 1 1 0.998897
0.999014 1 1 0.999014
0.998921 1 1 0.998921
0.999061 1 1 0.999061
0.999367 1 1 0.999367
0.999884 1 1 0.999884
0.999436 1 1 0.999436
0.999148 1 1 0.999148
1 1 1 1
0.999916 1 1 0.999916
0.999518 1 1 0.999518
1 1 1 1
0.999944 1 1 0.999944
1 1 1 1
0.998976 1 1 0.998976
0.999134 1 1 0.999134
0.999278 1 1 0.999278
0.999268 1 1 0.999268
0.999376 1 1 0.999376
0.999616 1 1 0.999616
0.999441 1 1 0.999441
0.999676 1 1 0.999676
0.999987 1 1 0.999987
0.999747 1 1 0.999747
1 1 1 1
1 1 1 1
1 1 1 1
1 1 1 1
1 1 1 1
1.00789 1.00966 0.999332 0.998915
1.00475 1.00857 0.997066 0.999143
0.979972 0.986214 0.996306 0.997355
1.00061 1.00176 1 0.998845
0.999244 1 1 0.999244
0.999502 1.00078 1 0.99872
0.998885 1 1 0.998885
0.999143 1 1 0.999143
1.00594 1.00748 1 0.998469
0.999252 1 1 0.999252
1.00059 1.0018 1 0.998791
1.00652 1.00807 1 0.998463
0.999937 1.00118 1 0.998756
1.00339 1.00507 1 0.998327
1.00697 1.00881 0.999601 0.998577
1.00086 1.00255 1 0.998316
1.00595 1.0107 0.996091 0.999213
1.01102 1.01208 1 0.998954
1.00891 1.00995 0.999925 0.999044
1.00349 1.004 1.00046 0.999047
1.01932 1.02252 0.998089 0.998779
1.01516 1.01656 0.999923 0.998699
1.00945 1.0111 0.999644 0.998724
1.01202 1.01319 1 0.998845
1.00957 1.01082 1 0.998761
1.00602 1.00798 0.999209 0.998848
1.00479 1.00611 1 0.998686
1.00603 1.00742 1 0.998626
1.00272 1.00394 1 0.99879
1.00228 1.00363 1 0.998657
1.00037 1.00175 1 0.998625
1.00033 1.00156 1 0.998767
0.999312 1.0006 1 0.998716
0.998739 1 1 0.998739
0.998984 1.00016 1 0.998825
0.998829 1 1 0.998829
0.998936 1 1 0.998936
0.998899 1 1 0.998899
0.999015 1 1 0.999015
0.9993 1 1 0.9993
0.999056 1 1 0.999056
0.999366 1 1 0.999366
0.999859 1 1 0.999859
0.999987 1 1 0.999987
0.99988 1 1 0.99988
0.999436 1 1 0.999436
1 1 1 1
0.999907 1 1 0.999907
1 1 1 1
0.99997 1.00122 1 0.998757
0.998875 1 1 0.998875
0.998958 1 1 0.998958
0.999178 1 1 0.999178
0.999116 1 1 0.999116
0.999282 1 1 0.999282
0.999556 1 1 0.999556
0.999377 1 1 0.999377
0.999616 1 1 0.999616
0.999959 1 1 0.999959
0.999676 1 1 0.999676
0.999991 1 1 0.999991
1 1 1 1
1 1 1 1
1 1 1 1
1 1 1 1
1.00931 1.01057 1 0.998761
1.0105 1.01206 0.999489 0.998967
1.00498 1.00887 0.997069 0.999063
1.00371 1.00515 1 0.998563
0.999997 1.00109 1 0.998909
0.999334 1 1 0.999334
0.999699 1.00096 1 0.998745
0.998874 1 1 0.998874
1.01122 1.01282 1 0.998427
1.00562 1.00719 1 0.99844
1.00057 1.00181 1 0.998767
1.00719 1.00875 1 0.998456
1.00479 1.00649 1 0.998303
1.00643 1.00824 0.999633 0.998576
1.01298 1.01415 1 0.998844
1.01072 1.01179 1 0.998947
1.00925 1.01026 0.99996 0.99904
1.00974 1.01128 0.999751 0.998728
1.01262 1.01378 1 0.998853
1.01029 1.01153 1 0.99877
1.01038 1.01172 1 0.998673
1.00461 1.00592 1 0.998691
1.00542 1.00681 1 0.998623
1.0033 1.00472 1 0.998593
1.00188 1.00323 1 0.998651
1.0007 1.00208 1 0.998624
0.998817 1.00016 1 0.998662
0.999516 1.0008 1 0.998714
0.998755 1.00002 1 0.998738
0.998853 1 1 0.998853
0.998828 1 1 0.998828
0.998936 1 1 0.998936
0.999223 1 1 0.999223
0.999016 1 1 0.999016
0.999299 1 1 0.999299
0.99984 1 1 0.99984
0.999365 1 1 0.999365
0.999853 1 1 0.999853
0.999983 1 1 0.999983
0.999994 1 1 0.999994
0.999875 1 1 0.999875
1 1 1 1
1.00145 1.00287 1 0.998586
0.998859 1 1 0.998859
0.999801 1.00096 1 0.998845
0.999063 1 1 0.999063
0.998881 1.00001 1 0.998873
0.99894 1 1 0.99894
0.999179 1 1 0.999179
0.99948 1 1 0.99948
0.999285 1 1 0.999285
0.999557 1 1 0.999557
0.999926 1 1 0.999926
0.999616 1 1 0.999616
0.999968 1 1 0.999968
1 1 1 1
0.999996 1 1 0.999996
1 1 1 1
1 1 1 1
1.01263 1.014 1 0.998642
1.00893 1.01018 1 0.998759
1.0118 1.01312 0.999679 0.999019
1.00834 1.00989 1 0.998466
1.00345 1.0049 1 0.998566
0.999399 1.00043 1 0.998973
0.999928 1.00116 1 0.998769
1.01095 1.01254 1 0.998424
1.00524 1.00684 1 0.998411
1.00687 1.00843 1 0.998448
1.0121 1.01339 1 0.998724
1.01283 1.01403 1 0.998817
1.01001 1.01108 1 0.99894
1.01113 1.01251 1 0.998634
1.01085 1.01209 1 0.998779
1.0103 1.01165 1 0.998673
1.00686 1.00826 1 0.998615
1.00481 1.00619 1 0.99862
1.00353 1.00494 1 0.998595
0.999661 1.00105 1 0.998614
1.00101 1.00239 1 0.998623
0.999023 1.00036 1 0.998662
0.998787 1 1 0.998787
0.998771 1.00003 1 0.998737
0.998853 1 1 0.998853
0.999147 1 1 0.999147
0.998935 1 1 0.998935
0.999221 1 1 0.999221
0.999821 1 1 0.999821
0.999298 1 1 0.999298
0.999835 1 1 0.999835
0.999981 1 1 0.999981
0.999848 1 1 0.999848
0.999984 1 1 0.999984
1 1 1 1
1.00294 1.00446 1 0.998488
0.998988 1.00031 1 0.998681
1.00109 1.00248 1 0.998617
0.998995 1 1 0.998995
0.99886 1 1 0.998858
0.999613 1.00068 1 0.998932
0.999369 1 1 0.999369
0.999062 1 1 0.999062
0.998875 1 1 0.99887
0.99918 1 1 0.99918
0.999481 1 1 0.999481
0.999889 1 1 0.999889
0.999558 1 1 0.999558
0.999935 1 1 0.999935
1 1 1 1
0.999977 1 1 0.999977
1 1 1 1
1 1 1 1
1.01075 1.01218 1 0.998592
1.0127 1.0141 1 0.998623
1.00927 1.01052 1 0.998757
1.00832 1.00987 1 0.998466
1.00317 1.00461 1 0.998568
1.01076 1.01235 1 0.998422
1.01074 1.01212 1 0.998632
1.0123 1.0136 1 0.998721
1.01288 1.01411 1 0.998789
1.0113 1.01268 1 0.998639
1.00836 1.00978 1 0.998591
1.01023 1.01157 1 0.998673
1.00693 1.00833 1 0.998611
1.00121 1.00261 1 0.998604
1.00377 1.00518 1 0.998597
1.00007 1.00145 1 0.998616
0.99873 1 1 0.99873
0.999239 1.00058 1 0.998662
0.998786 1 1 0.998786
0.999094 1 1 0.999094
0.998852 1 1 0.998852
0.999146 1 1 0.999146
0.999799 1 1 0.999799
0.999219 1 1 0.999219
0.999815 1 1 0.999815
0.999975 1 1 0.999975
0.999831 1 1 0.999831
0.999983 1 1 0.999983
0.999985 1 1 0.999985
1.00545 1.00689 1 0.998571
0.999302 1.00074 1 0.998562
1.00266 1.00418 1 0.998483
0.99885 1 1 0.99885
0.998911 1.00022 1 0.998693
1.00075 1.00211 1 0.998648
0.999256 1 1 0.999256
0.998964 1 1 0.998964
0.998873 1.00002 1 0.998856
0.999843 1 1 0.999843
0.999371 1 1 0.999371
0.99906 1 1 0.99906
0.999483 1 1 0.999483
0.999897 1 1 0.999897
1 1 1 1
0.999944 1 1 0.999944
1 1 1 1
1 1 1 1
1.00937 1.0108 1 0.998578
1.01075 1.01217 1 0.998588
1.01267 1.01408 1 0.998604
1.00832 1.00987 1 0.998466
1.0088 1.01025 1 0.998565
1.01112 1.0125 1 0.998638
1.0125 1.0138 1 0.998719
1.01145 1.01283 1 0.998644
1.00831 1.00973 1 0.998593
1.00251 1.00392 1 0.998596
1.00701 1.00841 1 0.998607
1.00145 1.00285 1 0.998609
0.998811 1.00013 1 0.998682
1.00046 1.00185 1 0.998618
0.99876 1.00003 1 0.998731
0.999047 1 1 0.999047
0.998785 1 1 0.998785
0.999093 1 1 0.999093
0.999763 1 1 0.999763
0.999145 1 1 0.999145
0.999788 1 1 0.999788
1 1 1 1
0.99981 1 1 0.99981
0.999978 1 1 0.999978
0.999983 1 1 0.999983
1.00552 1.00694 1 0.998593
0.99991 1.00132 1 0.998588
1.00548 1.00691 1 0.998574
0.998711 1 1 0.998711
0.999183 1.00061 1 0.998577
1.00235 1.00387 1 0.998478
0.999108 1 1 0.999108
0.998849 1 1 0.998849
0.99884 1.00014 1 0.998704
0.999798 1 1 0.999798
0.99923 1 1 0.99923
0.998934 1 1 0.998934
1 1 1 1
0.999852 1 1 0.999852
0.999373 1 1 0.999373
0.999905 1 1 0.999905
1 1 1 1
1 1 1 1
1.00791 1.00936 1 0.998569
1.00979 1.01122 1 0.998587
1.01072 1.01216 1 0.998585
1.00319 1.00464 1 0.998551
1.00836 1.00981 1 0.998564
1.01151 1.01288 1 0.998644
1.00828 1.0097 1 0.998596
1.00253 1.00394 1 0.998596
0.999235 1.00055 1 0.998689
1.0017 1.00309 1 0.998613
0.998878 1.00017 1 0.998708
0.99895 1 1 0.99895
0.99879 1.00006 1 0.998732
0.999047 1 1 0.999047
0.999731 1 1 0.999731
0.999092 1 1 0.999092
0.999761 1 1 0.999761
1 1 1 1
0.999775 1 1 0.999775
0.999986 1 1 0.999986
0.99998 1 1 0.99998
1.00391 1.00532 1 0.998597
0.999932 1.00131 1 0.998624
1.00551 1.00692 1 0.998594
0.998718 1 1 0.998718
1.0001 1.00151 1 0.998591
1.00552 1.00696 1 0.998577
0.999025 1 1 0.999025
0.998743 1 1 0.998743
0.999058 1.00047 1 0.998592
0.999767 1 1 0.999767
0.999097 1 1 0.999097
0.998848 1 1 0.998848
1 1 1 1
0.999806 1 1 0.999806
0.999204 1 1 0.999204
1 1 1 1
0.999861 1 1 0.999861
1 1 1 1
1.00293 1.00437 1 0.998571
1.00754 1.00898 1 0.998569
1.01024 1.01167 1 0.998595
0.999071 1.00042 1 0.998653
1.00314 1.00459 1 0.998556
1.00796 1.00941 1 0.998562
1.00256 1.00397 1 0.998596
0.999219 1.00053 1 0.998689
0.998899 1 1 0.998899
0.998944 1.00021 1 0.998734
0.998974 1 1 0.998974
0.999679 1 1 0.999679
0.999047 1 1 0.999047
0.999728 1 1 0.999728
1 1 1 1
0.999759 1 1 0.999759
1 1 1 1
0.999975 1 1 0.999975
1.00027 1.00164 1 0.998632
1.00382 1.00523 1 0.998597
0.998718 1 1 0.998718
1.00003 1.0014 1 0.998624
1.00548 1.00689 1 0.998595
0.999029 1 1 0.999029
0.998716 1 1 0.998716
1.00028 1.00169 1 0.998595
0.999745 1 1 0.999745
0.999043 1 1 0.999043
0.998776 1 1 0.998776
1 1 1 1
0.999772 1 1 0.999772
0.999086 1 1 0.999086
1 1 1 1
0.999814 1 1 0.999814
1 1 1 1
0.998883 1.00021 1 0.998678
1.00278 1.00421 1 0.998573
1.00711 1.00856 1 0.99857
0.998876 1 1 0.998876
0.999062 1.00041 1 0.998653
1.00305 1.0045 1 0.99856
0.999202 1.00051 1 0.998689
0.998904 1 1 0.998904
0.999629 1 1 0.999629
0.998999 1 1 0.998999
0.999676 1 1 0.999676
1 1 1 1
0.999726 1 1 0.999726
1 1 1 1
1 1 1 1
0.998703 1 1 0.998703
1.0002 1.00158 1 0.998626
1.00373 1.00514 1 0.998596
0.999007 1 1 0.999007
0.998717 1 1 0.998717
1.00012 1.0015 1 0.998623
0.999721 1 1 0.999721
0.999028 1 1 0.999028
0.998714 1 1 0.998714
1 1 1 1
0.999748 1 1 0.999748
0.99906 1 1 0.99906
1 1 1 1
0.999777 1 1 0.999777
1 1 1 1
0.998929 1 1 0.998929
0.99886 1.00021 1 0.998653
1.00266 1.00409 1 0.998575
0.999609 1 1 0.999609
0.998878 1 1 0.998878
0.999054 1.0004 1 0.998653
0.99891 1 1 0.99891
0.999627 1 1 0.999627
1 1 1 1
0.999673 1 1 0.999673
1 1 1 1
1 1 1 1
0.99897 1 1 0.99897
0.998693 1 1 0.998693
1.00014 1.00152 1 0.99862
0.999722 1 1 0.999722
0.999005 1 1 0.999005
0.998716 1 1 0.998716
1 1 1 1
0.999722 1 1 0.999722
0.999027 1 1 0.999027
1 1 1 1
0.999751 1 1 0.999751
1 1 1 1
0.999607 1 1 0.999607
0.99891 1 1 0.99891
0.998837 1.00021 1 0.998628
1 1 1 1
0.999608 1 1 0.999608
0.99888 1 1 0.99888
0.999625 1 1 0.999625
1 1 1 1
1 1 1 1
0.999681 1 1 0.999681
0.998971 1 1 0.998971
0.998683 1 1 0.998683
1 1 1 1
0.999691 1 1 0.999691
0.999004 1 1 0.999004
1 1 1 1
0.999723 1 1 0.999723
1 1 1 1
0.99991 1 1 0.99991
0.999639 1 1 0.999639
0.998892 1 1 0.998892
1 1 1 1
0.999608 1 1 0.999608
1 1 1 1
0.999927 1 1 0.999927
0.999669 1 1 0.999669
0.998971 1 1 0.998971
0.999969 1 1 0.999969
0.999689 1 1 0.999689
1 1 1 1
1 1 1 1
0.999618 1 1 0.999618
1 1 1 1
0.99996 1 1 0.99996
0.99965 1 1 0.99965
1 1 1 1
1 1 1 1
1 1 1 1

VECTORS lamdaE float
0.999264 1.00028 0.996194
0.999315 0.999704 0.998429
0.999125 1.00044 0.996295
0.999666 0.999936 0.996017
0.99941 1.00018 0.996128
0.999234 1.00008 0.996359
1.00022 1.00074 0.993808
0.999314 0.99958 0.998478
0.999303 1.00036 0.998347
0.999032 1.00017 0.998518
0.999407 0.999255 0.996932
1.00003 1.00076 0.993827
0.99984 1.00001 0.995609
0.99952 0.999902 0.996035
0.998979 1.00066 0.996378
0.99954 0.999915 0.996134
0.99912 1.00023 0.99644
0.999255 1.0003 0.996233
1.00031 1.00067 0.99379
0.999787 1 0.998028
0.999709 0.999965 0.995893
0.99958 1.00001 0.996071
1.00089 0.999909 0.993507
1.00056 1.00036 0.993635
0.999323 0.999568 0.996672
0.999881 1.00098 0.994115
1.00206 1.00094 0.990421
0.999301 0.999454 0.998536
0.999391 1.00022 0.997158
0.999143 1.00016 0.997419
0.999368 0.999081 0.998633
0.999934 1.00087 0.993837
0.999655 0.999986 0.995905
0.999366 1.00046 0.996116
1.00088 1.0003 0.993811
0.999324 0.998483 0.998945
1.00029 1.00074 0.994375
0.999845 1.00058 0.994307
1.00098 1.00193 0.990955
0.999422 0.997893 0.999126
0.999833 1 0.997986
0.999621 0.999969 0.997063
0.999878 1 0.997946
0.999543 0.999996 0.995961
1.00127 1.00005 0.99217
0.999549 0.999993 0.998299
1.00117 0.99997 0.993595
0.999414 0.999874 0.99625
0.99911 1.00045 0.996326
0.998991 1.00042 0.996539
1.0004 1.00054 0.993781
0.999728 1.00001 0.996924
0.99958 0.999942 0.996028
0.999226 0.999658 0.996755
0.999439 1.00005 0.99618
1.00095 0.999875 0.993461
0.999971 1.00091 0.994113
1.00063 1.0003 0.993607
1.00211 1.00098 0.990344
0.999823 1.00001 0.99799
0.999783 1 0.995717
1.00114 1 0.993536
1.00093 0.999953 0.993382
1.00081 1.00004 0.993538
1.00309 0.999794 0.989699
1.00263 1.00028 0.989762
0.999492 0.998849 0.997085
0.999535 1.00092 0.994714
1.0013 1.00161 0.991044
1.00305 1.00094 0.988089
0.99947 1.00021 0.998206
0.999362 0.99889 0.998742
0.999237 0.999929 0.998401
0.999851 1.00096 0.993844
0.99968 1.00007 0.998148
0.999367 1.00029 0.998254
1.00078 1.00028 0.992782
0.999365 0.99857 0.998165
1.00013 1.00084 0.993476
0.999773 1.00058 0.994826
1.00097 1.00191 0.99095
0.999428 0.998196 0.998993
0.999598 0.999109 0.996249
1.00108 0.999954 0.992613
1.00056 1.00059 0.992994
1.0029 1.00032 0.98894
0.999666 1.00007 0.995863
1.00157 1.00142 0.990376
1.00049 1.00232 0.991483
1.00158 1.00222 0.989451
0.999459 0.99758 0.999216
0.999402 0.99784 0.999159
0.999723 0.999974 0.998119
0.999801 1 0.998018
0.999872 1 0.997956
0.999657 0.999995 0.99699
1.00127 1.00004 0.992784
0.999622 0.999961 0.997088
1.00113 0.999994 0.993082
0.999884 1 0.997949
1.00129 0.99999 0.99214
1.00122 1.00006 0.993455
1.00351 0.999868 0.988274
1.00114 0.99991 0.993673
1.00333 0.999848 0.988643
0.999808 1.00002 0.995678
0.999448 0.999892 0.996166
0.999126 0.999723 0.996855
0.999302 1.00009 0.996284
1.00101 0.999863 0.993415
1.00071 1.00022 0.993584
1.00007 1.00079 0.994101
1.00216 1.00103 0.990267
0.999859 1 0.997968
0.999639 0.999997 0.995863
1.00121 0.999996 0.992603
1.00099 0.999923 0.993337
0.999404 0.998886 0.997901
0.999688 1.00083 0.994838
1.00087 0.999998 0.993498
1.0031 0.999775 0.989576
1.00139 1.00166 0.990937
1.00264 1.00036 0.989844
1.00303 1.00095 0.988098
1.00126 1.00002 0.992194
1.00104 0.999987 0.993135
1.00344 0.999796 0.988788
1.00311 0.999815 0.989336
1.00301 0.999864 0.989502
1.00419 0.999452 0.987731
0.999472 0.998356 0.9989
1.00366 1.00017 0.987725
0.999633 1.00051 0.994714
1.00053 1.00209 0.991471
1.00232 1.00193 0.988592
1.00373 1.0007 0.987087
0.999678 0.999593 0.995541
1.00012 1.0014 0.993009
0.999638 1.00009 0.998157
0.999276 1.0002 0.998305
1.00077 1.00027 0.992793
0.999385 0.998423 0.998937
0.999668 1.0007 0.994446
1.00005 1.00093 0.993469
1.00097 1.00188 0.990944
0.999398 0.99814 0.999041
0.999601 0.999046 0.996281
1.00107 0.999978 0.993165
1.00049 1.0006 0.993568
1.00291 1.00031 0.988947
0.99963 1.00006 0.995221
1.00154 1.0014 0.990394
1.00046 1.00232 0.991483
1.00159 1.00222 0.989389
0.999579 0.999613 0.995765
0.999681 0.998623 0.996598
0.999997 1.00097 0.993632
1.00324 0.999962 0.98866
1.00225 1.00091 0.989581
1.00399 1.00018 0.987075
1.00028 1.00204 0.992136
1.00232 1.00151 0.988728
1.00099 1.00307 0.989888
1.00177 1.0025 0.988892
0.999542 0.997273 0.999265
0.999457 0.997518 0.999234
0.999384 0.997776 0.99919
0.999712 0.999176 0.995911
0.999486 0.998078 0.999015
0.999718 0.999996 0.998136
0.999734 0.999983 0.998084
1.00109 0.999992 0.992553
1.00121 1.00004 0.992252
0.99985 1 0.99797
0.99988 1 0.997946
1.00129 1 0.992142
1.00116 1.00006 0.99296
1.00351 0.999867 0.988274
1.00109 0.999897 0.992602
1.00332 0.999856 0.988642
1.0013 0.999986 0.992118
1.00362 0.999812 0.988125
1.00337 0.999893 0.98851
1.00459 0.999485 0.986689
1.00334 0.999835 0.988628
1.00441 0.999514 0.987022
0.999873 0.999998 0.997951
0.999497 0.99999 0.996013
1.00122 0.99999 0.991737
1.00104 0.999919 0.993292
0.999259 0.998865 0.998796
0.999849 1.00074 0.994954
1.00093 0.999965 0.993461
1.0031 0.999748 0.989453
1.00265 1.00043 0.989927
1.00148 1.00174 0.990831
1.00302 1.00096 0.988108
1.00126 0.999997 0.992189
1.0011 0.999987 0.993084
1.00343 0.999775 0.988533
1.00314 0.999847 0.989438
0.999463 0.998422 0.998857
0.999688 1.00043 0.995087
1.00063 1.00212 0.991569
1.00299 0.999906 0.989495
1.0042 0.999365 0.987594
1.00222 1.00192 0.988582
1.00366 1.00021 0.987842
1.00371 1.00069 0.987102
0.999661 0.999654 0.995527
1.00013 1.00135 0.993005
1.0036 0.999796 0.988169
1.00331 0.999826 0.988972
1.00451 0.999465 0.987154
1.00424 0.999422 0.987263
1.00408 0.999598 0.987715
1.00474 0.9989 0.987105
0.999658 1.00005 0.995104
1.00437 0.999664 0.98694
1.00026 1.00213 0.991941
1.00124 1.00259 0.98949
1.00297 1.00201 0.987599
1.00424 1.00005 0.986809
1.00019 1.0018 0.992506
1.00012 1.00085 0.993541
1.00035 1.00241 0.991609
1.00102 0.999966 0.992653
0.999373 0.998092 0.999086
0.9996 0.998992 0.996313
1.00036 1.0007 0.993108
1.00291 1.00029 0.988954
0.999606 1.00007 0.995179
1.00043 1.00231 0.991483
1.00152 1.00139 0.990413
1.0016 1.00221 0.989326
0.999586 0.999541 0.995791
0.999674 0.998595 0.996617
0.999978 1.001 0.993643
1.00324 0.999972 0.988659
1.00224 1.0009 0.989605
1.00401 1.00018 0.987066
1.00023 1.00209 0.992141
1.00236 1.00153 0.98876
1.00097 1.00306 0.989876
1.00176 1.00248 0.988858
0.999773 0.998261 0.996789
1.00013 1.00155 0.992833
0.999975 1.0003 0.994356
1.00018 1.00216 0.992179
1.00433 0.999736 0.986897
1.00322 1.00095 0.98778
1.00466 0.999856 0.986193
1.0006 1.00303 0.990673
1.00277 1.00148 0.988126
1.00105 1.00388 0.988813
1.00203 1.00227 0.988446
1.00021 0.999258 0.995003
0.999929 0.997806 0.996942
0.999643 0.997008 0.999293
0.999553 0.99722 0.999274
0.99946 0.997454 0.99925
0.999773 0.998852 0.996146
0.999501 0.997847 0.999093
0.999703 0.999238 0.995888
0.999498 0.998118 0.998979
1.0011 0.999902 0.992601
1.00112 1.00004 0.992424
1.00332 0.999863 0.988642
1.00351 0.999868 0.988275
1.00129 1.00001 0.992144
0.999889 1 0.997943
1.00131 0.999988 0.992116
1.00362 0.999817 0.988125
1.00337 0.999902 0.988512
1.0046 0.999487 0.986682
1.00334 0.999847 0.988622
1.00441 0.999514 0.987021
1.00364 0.999795 0.988111
1.0047 0.999394 0.986571
1.00445 0.999568 0.986885
1.00503 0.998892 0.986483
1.00442 0.999516 0.986973
1.00489 0.999035 0.986578
1.00128 0.999983 0.992182
1.00116 0.99998 0.993032
1.00342 0.999746 0.98828
1.00316 0.999864 0.98954
0.999459 0.99849 0.998813
0.999755 1.00041 0.995425
1.00076 1.00214 0.991667
1.00298 0.999943 0.989489
1.00421 0.999274 0.987457
1.00365 1.00026 0.987958
1.00212 1.00191 0.988572
1.00369 1.00069 0.987117
0.999649 0.999715 0.995513
1.00015 1.00131 0.993001
1.00358 0.999769 0.988093
1.00332 0.999827 0.988963
1.00453 0.999418 0.987098
1.00425 0.999481 0.987414
0.999667 1.00007 0.995103
1.00032 1.00213 0.991932
1.00123 1.00257 0.989636
1.00407 0.999646 0.987735
1.00475 0.998818 0.987083
1.00291 1.00199 0.987461
1.00434 0.999666 0.986951
1.0042 1.00001 0.986835
1.0002 1.00174 0.992515
1.00033 1.00239 0.991623
1.00013 1.00085 0.99353
1.00464 0.99947 0.98688
1.00446 0.999451 0.987126
1.00502 0.998928 0.9866
1.0048 0.998984 0.986803
1.0047 0.998924 0.987004
1.00502 0.998291 0.987139
1.00022 1.00199 0.992232
1.00476 0.998917 0.986819
1.00077 1.00262 0.990628
1.00169 1.00311 0.988186
1.00336 1.00178 0.986888
1.00458 0.999299 0.987129
1.00015 1.00045 0.993905
1.00048 1.00235 0.991433
1.00027 1.0021 0.992013
1.0004 1.00286 0.991135
1.00324 0.999979 0.988657
0.999664 0.998572 0.996638
0.999599 0.999457 0.995816
0.999978 1.00101 0.993655
1.00222 1.00089 0.989628
1.00402 1.00018 0.987056
1.00017 1.00214 0.992147
1.00095 1.00306 0.989864
1.0024 1.00155 0.988791
1.00175 1.00246 0.988824
0.999764 0.998252 0.996796
1.00012 1.00158 0.992834
0.999986 1.00027 0.994374
1.00016 1.00222 0.99217
1.00434 0.999733 0.986887
1.0032 1.00095 0.987792
1.00463 0.99987 0.98619
1.00055 1.00303 0.990691
1.0028 1.0015 0.988166
1.00108 1.00397 0.988769
1.00199 1.00211 0.988729
0.999856 0.998002 0.996888
1.00005 0.999775 0.99476
1.00037 1.00261 0.991465
1.00014 1.00147 0.992929
1.00008 1.00317 0.991387
1.0049 0.999411 0.986198
1.00379 1.00073 0.986926
1.00491 0.999557 0.986014
1.00061 1.00423 0.989438
1.00294 1.00127 0.987961
1.00136 1.00372 0.987912
1.00017 0.999343 0.994981
1.00024 1.00026 0.99396
1.00024 0.99921 0.99499
1.0002 0.999274 0.994997
0.999972 0.997619 0.997434
0.999917 0.997794 0.997174
0.999796 0.996813 0.998397
0.999657 0.996962 0.9993
0.999566 0.997165 0.999284
0.999841 0.998578 0.996302
0.999552 0.997614 0.999137
0.999774 0.99888 0.996129
0.999514 0.997876 0.999071
0.999693 0.999293 0.995865
0.999511 0.998164 0.99894
1.00334 0.999856 0.988616
1.00336 0.999909 0.988514
1.00439 0.999522 0.98702
1.00461 0.999488 0.986675
1.00362 0.999821 0.988125
1.00131 0.999991 0.992116
1.00364 0.999792 0.98811
1.0047 0.999397 0.986571
1.00444 0.999585 0.98688
1.00503 0.998845 0.986509
1.00443 0.999507 0.986967
1.00489 0.99905 0.986574
1.00471 0.99939 0.986551
1.00509 0.998768 0.986485
1.00493 0.998991 0.986545
1.00515 0.998299 0.986852
1.00493 0.999139 0.986433
1.00506 0.99827 0.987012
1.00356 0.999743 0.988018
1.00334 0.999835 0.988953
1.00454 0.999377 0.987043
1.00427 0.99954 0.987564
0.999678 1.00009 0.995102
1.00035 1.00215 0.991924
1.00123 1.00256 0.989782
1.00407 0.999695 0.987754
1.00475 0.998737 0.98706
1.00431 0.999669 0.986962
1.00285 1.00197 0.987322
1.00415 0.999956 0.986861
1.00021 1.00168 0.992525
1.00032 1.00237 0.991638
1.00013 1.00085 0.993518
1.00466 0.999439 0.986745
1.00447 0.999454 0.987117
1.005 0.998854 0.986602
1.00482 0.999012 0.986824
1.00024 1.00195 0.992235
1.00083 1.0026 0.9906
1.00162 1.00314 0.98838
1.00468 0.999016 0.987041
1.00501 0.998217 0.987185
1.00327 1.00182 0.986802
1.00479 0.998932 0.986821
1.00454 0.999116 0.987197
1.00049 1.00236 0.991444
1.00041 1.00289 0.991079
1.00015 1.00046 0.993899
1.00025 1.00204 0.992086
1.00507 0.998897 0.98643
1.00498 0.998985 0.986659
1.00516 0.998432 0.986724
1.00509 0.99813 0.987131
1.00499 0.998338 0.987032
1.00512 0.997678 0.987491
1.0006 1.00236 0.991209
1.00501 0.998106 0.987235
1.00078 1.00336 0.989608
1.00213 1.00355 0.98722
1.00362 1.00129 0.986741
1.00483 0.998513 0.987385
1.00017 1.00019 0.994135
1.00024 1.00169 0.992466
1.00054 1.00271 0.990992
1.00027 1.00274 0.991483
1.00045 1.00296 0.990929
0.999754 0.998245 0.996803
1.00436 0.99973 0.986876
0.999997 1.00024 0.994391
1.00009 1.00164 0.992835
1.00013 1.00228 0.992161
1.00319 1.00095 0.987803
1.00461 0.999884 0.986188
1.00052 1.00301 0.990708
1.00112 1.00407 0.988725
1.00283 1.00153 0.988206
1.00196 1.00197 0.989011
0.99985 0.997997 0.996891
1.00006 0.999763 0.994768
1.00036 1.00259 0.99147
1.00012 1.0015 0.992935
1.00007 1.00326 0.991281
1.00489 0.999412 0.986181
1.00376 1.00074 0.986934
1.00489 0.99957 0.985993
1.00055 1.00426 0.989451
1.00297 1.00128 0.988007
1.00151 1.00368 0.987979
1.00012 0.999504 0.99492
1.00017 1.00082 0.993538
1.00037 1.00369 0.990416
1 1.00265 0.992031
1.00013 1.00382 0.990753
1.00508 0.999009 0.986202
1.00408 1.00031 0.986751
1.00494 0.998884 0.986395
1.00054 1.00495 0.988627
1.00265 1.00232 0.987417
1.00017 0.999359 0.994978
1.00021 1.00031 0.993888
1.00023 1.00027 0.993925
1.00018 1.00094 0.993513
1.00026 1.00029 0.993903
1.00027 0.999213 0.994932
1.00024 0.999218 0.994988
1.00004 0.997486 0.997446
1.0002 0.999289 0.994992
0.999981 0.997616 0.997435
0.999897 0.99659 0.998424
0.999905 0.997786 0.997403
0.999771 0.996767 0.998858
0.999672 0.996919 0.999306
0.999905 0.99832 0.996445
0.999843 0.998595 0.996291
0.999625 0.99737 0.999174
0.999556 0.997655 0.999125
0.999773 0.998911 0.996112
0.999527 0.997909 0.999046
1.00444 0.999498 0.986961
1.00444 0.999594 0.986875
1.00488 0.999061 0.98657
1.00504 0.998798 0.986535
1.0047 0.999399 0.986571
1.00364 0.99979 0.98811
1.00471 0.99939 0.986553
1.0051 0.998769 0.986477
1.00493 0.999003 0.98654
1.00516 0.998222 0.986938
1.00492 0.999141 0.986419
1.00507 0.99819 0.987052
1.0051 0.998812 0.986443
1.00517 0.998318 0.986845
1.00509 0.998108 0.987099
1.00515 0.997808 0.987392
1.00509 0.998472 0.986704
1.00514 0.997675 0.987579
1.00468 0.999406 0.98661
1.00446 0.999464 0.987107
1.00499 0.998777 0.986603
1.00484 0.999039 0.986846
1.00028 1.00192 0.99224
1.00089 1.00259 0.990572
1.00153 1.00317 0.988573
1.00466 0.999106 0.987078
1.00499 0.998142 0.987231
1.00482 0.998947 0.986823
1.00319 1.00186 0.986715
1.0045 0.998938 0.987264
1.00048 1.00238 0.991455
1.0004 1.00293 0.991023
1.00014 1.00047 0.993893
1.00024 1.00197 0.992159
1.00506 0.9989 0.986438
1.00498 0.999001 0.986603
1.00516 0.998401 0.986738
1.00506 0.998203 0.987081
1.00062 1.00239 0.991195
1.00077 1.00329 0.989768
1.00207 1.00369 0.987188
1.005 0.998408 0.987001
1.00512 0.997609 0.98754
1.00363 1.00127 0.986701
1.00498 0.998136 0.987236
1.00473 0.998332 0.987532
1.00057 1.00271 0.990993
1.00046 1.00297 0.990919
1.00025 1.00276 0.991478
1.00017 1.00018 0.99406
1.00023 1.00164 0.992516
1.00517 0.998338 0.986818
1.00515 0.998205 0.986938
1.00515 0.997312 0.987813
1.00511 0.997606 0.987472
1.0006 1.00288 0.990685
1.00509 0.997578 0.987682
1.00065 1.00405 0.988867
1.00253 1.00374 0.986332
1.00434 0.999991 0.98675
1.00018 0.999955 0.99418
1.00023 1.00136 0.992957
1.00019 1.00238 0.992007
1.00056 1.0028 0.990884
1.00029 1.00319 0.991027
1.00057 1.00282 0.990789
0.999844 0.997993 0.996894
1.00006 0.999749 0.994777
1.00488 0.999412 0.986165
1.00011 1.00153 0.992941
1.00033 1.00258 0.991476
1.00005 1.00334 0.991174
1.00374 1.00076 0.986943
1.00487 0.999581 0.985971
1.00051 1.00432 0.989465
1.00165 1.00368 0.988045
1.003 1.00128 0.988056
1.00012 0.999509 0.99492
1.00017 1.00081 0.99355
1.00033 1.0037 0.990432
0.999998 1.00265 0.99203
1.00009 1.00383 0.990701
1.00507 0.999054 0.986179
1.00408 1.00031 0.986734
1.00493 0.998788 0.986553
1.00054 1.00496 0.988545
1.00267 1.0025 0.987279
1.00018 1.00048 0.993862
1.00003 1.00193 0.99258
1.00038 1.00421 0.989783
0.999969 1.00362 0.99101
1.00028 1.00392 0.990313
1.00513 0.997485 0.987505
1.00424 1.00031 0.986689
1.00487 0.998018 0.987134
1.00131 1.00466 0.988101
1.0026 1.00232 0.986691
1.00016 0.999376 0.994975
1.00022 1.00029 0.993934
1.00013 1.00106 0.993312
1.00023 1.00028 0.993889
1.00026 1.00029 0.993902
1.00015 1.00095 0.993453
1.00007 1.00147 0.993159
1.00014 1.00097 0.993393
1.00028 1.00033 0.993843
1.00028 0.999279 0.994853
1.00027 0.99922 0.994933
1.00009 0.997421 0.997416
1.00024 0.999226 0.994985
1.00004 0.997492 0.997442
0.999968 0.996447 0.998431
0.999989 0.997612 0.997438
0.999886 0.996564 0.998427
0.999743 0.996712 0.999327
0.999965 0.99808 0.996579
0.999909 0.998332 0.996436
0.999705 0.997125 0.999209
0.999845 0.998616 0.996281
0.99962 0.997419 0.999162
0.99956 0.997685 0.999111
1.0049 0.999144 0.986406
1.00494 0.999018 0.986535
1.00509 0.998108 0.987092
1.00516 0.998145 0.987023
1.0051 0.998769 0.986469
1.00471 0.99939 0.986554
1.00509 0.998849 0.986407
1.00517 0.998352 0.986805
1.00511 0.998152 0.987024
1.00515 0.997714 0.987447
1.00508 0.998496 0.986709
1.00514 0.997533 0.987624
1.00516 0.998391 0.986796
1.00515 0.997783 0.987377
1.00515 0.997378 0.987769
1.00514 0.997365 0.987833
1.00504 0.998903 0.986445
1.00499 0.999014 0.986547
1.00515 0.998372 0.986752
1.00504 0.998276 0.987031
1.00066 1.0024 0.99118
1.00078 1.00323 0.989929
1.00202 1.00378 0.987157
1.00501 0.998479 0.98697
1.00511 0.99754 0.987589
1.00495 0.998166 0.987236
1.00364 1.00125 0.986661
1.00465 0.998165 0.987677
1.00059 1.00271 0.990993
1.00049 1.00295 0.99091
1.00022 1.00279 0.991472
1.00016 1.00018 0.993985
1.00023 1.00159 0.992567
1.00516 0.998348 0.986815
1.00514 0.998213 0.98697
1.00514 0.997411 0.987728
1.00065 1.00289 0.990666
1.00079 1.00399 0.989036
1.00249 1.00376 0.986285
1.00511 0.997639 0.987494
1.00429 0.99984 0.986889
1.00504 0.997561 0.987654
1.00018 0.999925 0.99421
1.0006 1.00279 0.990871
1.00055 1.0028 0.99086
1.0003 1.00323 0.990979
1.00019 1.00237 0.992032
1.00022 1.00135 0.992892
1.00516 0.997981 0.987107
1.00512 0.997276 0.987914
1.00512 0.996846 0.988186
1.0051 0.996973 0.98818
1.00062 1.00326 0.990319
1.00494 0.997846 0.987456
1.00122 1.00502 0.98721
1.00327 1.00286 0.985984
1.00019 0.999714 0.994408
1.00023 1.00109 0.993225
1.00019 1.00211 0.992332
1.00016 1.00296 0.991452
1.00063 1.00301 0.990573
1.00062 1.00291 0.99065
1.00011 0.999514 0.994921
1.00016 1.00079 0.993562
1.00507 0.9991 0.986156
0.999994 1.00265 0.99203
1.0003 1.0037 0.990448
1.00003 1.00388 0.990649
1.00409 1.00031 0.986717
1.00493 0.998693 0.986711
1.00054 1.00497 0.988461
1.00269 1.00267 0.98714
1.00019 1.00045 0.993868
1.00005 1.0019 0.99262
1.00034 1.0043 0.989839
0.999939 1.00371 0.991006
1.00019 1.00386 0.990458
1.00512 0.997511 0.987674
1.00429 1.00025 0.986595
1.00499 0.997909 0.987201
1.00115 1.0047 0.988028
1.00279 1.00247 0.986566
1.00009 1.0013 0.993128
0.999939 1.00295 0.991641
1.00056 1.00428 0.989448
0.999981 1.00427 0.990015
1.00514 0.996101 0.988966
1.00511 0.996775 0.988328
1.00431 0.99988 0.986639
1.00156 1.0042 0.986858
1.00023 1.00028 0.99398
1.00013 1.00107 0.993338
1.00001 1.00175 0.992955
1.00026 1.00029 0.993902
1.00013 1.00095 0.993392
1.00028 1.00032 0.993842
1.00005 1.00147 0.993113
1.00016 1.00094 0.993414
1.00001 1.00186 0.992823
1.0001 1.00139 0.993094
1.00018 1.00099 0.993304
1.00028 1.00039 0.993768
1.00027 0.999362 0.994783
1.00027 0.999284 0.994852
1.00012 0.997423 0.99736
1.00026 0.999223 0.994933
1.00009 0.997446 0.997406
1.00002 0.99638 0.998403
1.00005 0.997502 0.99744
0.99996 0.996421 0.998436
0.999878 0.99654 0.998429
1.00002 0.997855 0.996702
0.999971 0.998085 0.996572
0.999785 0.99689 0.999242
0.999913 0.998344 0.996428
0.999698 0.997173 0.999198
0.999618 0.997465 0.99915
1.00507 0.99852 0.986714
1.00514 0.998197 0.98695
1.00514 0.997393 0.98767
1.00515 0.997622 0.987503
1.00517 0.998387 0.986765
1.00509 0.998886 0.986371
1.00516 0.998386 0.986792
1.00514 0.997813 0.98735
1.00514 0.997385 0.987751
1.00515 0.997318 0.987836
1.00515 0.997948 0.98722
1.00514 0.997141 0.988069
1.00515 0.996765 0.988282
1.00516 0.998359 0.986812
1.00514 0.998222 0.987002
1.00513 0.997513 0.987643
1.0007 1.00289 0.990647
1.00093 1.00392 0.989206
1.00245 1.00385 0.986238
1.0051 0.997672 0.987516
1.00499 0.997544 0.987627
1.00425 0.999692 0.987028
1.00063 1.00278 0.990858
1.0005 1.0028 0.990931
1.00031 1.00327 0.990931
1.00018 0.999894 0.99424
1.00019 1.00236 0.992057
1.00022 1.00133 0.992827
1.00516 0.998021 0.987122
1.00512 0.99725 0.987963
1.00512 0.99689 0.988184
1.00065 1.00327 0.990271
1.00111 1.00489 0.98755
1.00328 1.0027 0.986048
1.0051 0.996987 0.988162
1.00496 0.997909 0.987409
1.00019 0.999691 0.994508
1.00023 1.00109 0.993225
1.00054 1.00289 0.990626
1.00061 1.00282 0.99084
1.00018 1.00294 0.991415
1.00017 1.00215 0.992284
1.00515 0.997286 0.987874
1.00509 0.996311 0.988862
1.0051 0.996301 0.988732
1.00507 0.996824 0.988504
1.00047 1.00405 0.989396
1.00418 1.00017 0.986612
1.00199 1.00477 0.986676
1.00021 0.99953 0.994736
1.00018 1.00065 0.993693
1.00021 1.00091 0.993284
1.00015 1.00195 0.992479
1.00006 1.00282 0.991761
1.00006 1.00339 0.991055
1.00093 1.00176 0.991049
1.0005 1.00274 0.991668
1.00019 1.00043 0.993874
1.00007 1.00188 0.992661
1.00511 0.997541 0.987843
0.999948 1.00375 0.991003
1.0003 1.0044 0.989895
1.00009 1.0038 0.990602
1.00434 1.00016 0.9865
1.0051 0.997787 0.987268
1.00099 1.00473 0.987956
1.00297 1.00258 0.986441
1.0001 1.00132 0.993084
0.999969 1.00299 0.991642
1.0005 1.00431 0.989493
1.0001 1.00427 0.99011
1.00513 0.996107 0.989043
1.00511 0.996896 0.988156
1.00438 0.99987 0.986673
1.00186 1.00414 0.986707
0.999976 1.00213 0.992602
1.00516 0.995424 0.989471
0.999989 1.00412 0.990798
1.00068 1.00465 0.988808
1.00511 0.995819 0.98937
1.00501 0.997542 0.987382
1.00318 1.0029 0.986223
1.00014 1.00109 0.993364
1 1.00175 0.992947
0.999903 1.0023 0.992599
1.00028 1.00031 0.993841
1.00017 1.00093 0.993436
1.00003 1.00149 0.993067
1.00029 1.00038 0.993765
1.00017 1.00099 0.993317
1 1.00189 0.992774
1.00011 1.00136 0.99314
1 1.00209 0.99253
1.00011 1.00169 0.992758
1.00015 1.00137 0.993081
1.00027 1.00098 0.993199
1.00028 1.00048 0.993684
1.00025 0.999428 0.994739
1.00027 0.999366 0.994784
1.00014 0.997445 0.997306
1.00027 0.999292 0.994852
1.00012 0.997452 0.997352
1.00005 0.996357 0.998367
1.00009 0.99747 0.997397
1.00002 0.996346 0.99841
0.999953 0.996396 0.998439
1.00021 0.999404 0.994858
1.00007 0.997667 0.996806
1.00003 0.997861 0.996696
0.999859 0.996679 0.999272
0.999976 0.998091 0.996565
0.999776 0.996936 0.999232
0.99969 0.997223 0.999187
1.00517 0.997272 0.987839
1.00514 0.997392 0.987733
1.00514 0.997836 0.987322
1.00516 0.998382 0.986788
1.00515 0.997916 0.987265
1.00514 0.997144 0.988047
1.00516 0.996741 0.98828
1.00516 0.997179 0.987931
1.00514 0.996479 0.98877
1.00513 0.995144 0.989609
1.00517 0.998061 0.987136
1.00513 0.997223 0.988011
1.00512 0.996934 0.988182
1.00069 1.00328 0.990223
1.001 1.00475 0.987891
1.00327 1.00252 0.986113
1.0051 0.997003 0.988144
1.00498 0.997953 0.987362
1.00047 1.00278 0.990679
1.00062 1.00273 0.991024
1.00014 1.00299 0.991378
1.0002 0.999663 0.994609
1.00023 1.00109 0.993224
1.00015 1.00218 0.992236
1.00515 0.997206 0.987972
1.00021 0.999524 0.994736
1.00016 1.00067 0.993648
1.00508 0.99638 0.988846
1.0051 0.996292 0.988676
1.00039 1.00411 0.989655
1.0019 1.00471 0.986595
1.00412 1.00017 0.986613
1.00501 0.996798 0.988434
1.00021 1.0009 0.993422
1.00015 1.00195 0.992472
1.00106 1.00197 0.990728
1.00029 1.00235 0.992032
1.00004 1.00348 0.991004
1.00008 1.00278 0.991769
1.00517 0.996031 0.98907
1.00512 0.995923 0.989285
1.00507 0.995692 0.989161
1.00481 0.997017 0.988174
1.00076 1.00345 0.989752
1.00277 1.00351 0.986404
1.00014 1.00058 0.993712
1.00019 1.00078 0.993539
1.00009 1.00158 0.993048
1.00013 1.00183 0.992488
1.00003 1.00271 0.992045
0.999912 1.00344 0.991163
0.999748 1.00433 0.990891
1.00044 1.00157 0.992172
1.00011 1.00133 0.993041
1 1.00301 0.991645
1.00513 0.996097 0.98912
1.00511 0.997043 0.987984
1.00022 1.00429 0.990206
1.00044 1.00433 0.989537
1.00445 0.999877 0.986707
1.00217 1.00413 0.986555
0.999974 1.00215 0.992576
1.00515 0.995454 0.989493
0.999921 1.00401 0.990855
1.00067 1.00458 0.988716
1.00512 0.995745 0.989263
1.00503 0.997468 0.98756
1.00308 1.003 0.986287
0.999904 1.00326 0.99171
1.00505 0.995107 0.990719
1.00051 1.00437 0.990034
1.00146 1.00473 0.987866
1.00502 0.996585 0.98873
1.00363 1.00063 0.987085
0.999899 0.99929 0.992603
0.999995 1.00175 0.992939
0.999895 1.00231 0.992587
0.999998 1.00252 0.99222
1.00029 1.00037 0.993762
1.00017 1.001 0.99333
1.00012 1.00132 0.993186
0.999997 1.00192 0.992725
1.00028 1.00047 0.99368
1.00025 1.00098 0.993196
1.00002 1.00212 0.992496
1.00015 1.00137 0.993076
1.00011 1.0017 0.992801
1.00013 1.00187 0.992554
1.00019 1.00142 0.992895
1.00022 1.00129 0.993013
1.00035 1.00102 0.993019
1.0003 1.00053 0.99352
1.00025 1.00106 0.993241
1.00028 1.00052 0.993545
1.00025 0.999454 0.994728
1.00025 0.999429 0.99474
1.00017 0.997504 0.996788
1.00026 0.999371 0.994784
1.00015 0.997475 0.997064
1.00003 0.996302 0.9993
1.00012 0.997481 0.997344
1.00006 0.996317 0.998373
1.00001 0.996314 0.998416
1.00019 0.999338 0.994949
1.00021 0.999402 0.994855
1.00011 0.997531 0.996878
1.00006 0.997669 0.997041
0.999922 0.996503 0.999297
1.00003 0.997867 0.99669
0.99985 0.99672 0.999263
0.999767 0.996981 0.999222
1.00516 0.996718 0.988277
1.00514 0.997144 0.988025
1.00515 0.997888 0.98731
1.00517 0.997173 0.987917
1.00514 0.996454 0.988714
1.00514 0.995245 0.989633
1.00516 0.99583 0.989166
1.00098 0.999857 0.988461
1.00507 0.994958 0.990942
1.00012 1.00056 0.993894
1.00515 0.997127 0.988071
1.00508 0.996439 0.988829
1.00511 0.996337 0.98862
1.00031 1.00416 0.989915
1.00182 1.00467 0.986514
1.00406 1.00021 0.986612
1.00495 0.996794 0.988365
1.0012 1.00215 0.990414
1.00006 1.00196 0.992407
1.00004 1.00351 0.990954
1.00021 0.999521 0.994736
1.0001 1.00274 0.991777
1.00022 1.00087 0.99356
1.00014 1.00195 0.992466
1.00015 1.00068 0.993603
1.00517 0.995927 0.989169
1.00014 1.00057 0.993784
1.00019 1.00078 0.993537
1.0001 1.00157 0.992952
1.00512 0.995803 0.989279
1.00504 0.995918 0.989058
1.00085 1.00322 0.989825
1.00243 1.00343 0.986505
1.0048 0.997285 0.988164
1.00013 1.00185 0.992547
1.00004 1.00268 0.991997
1.00037 1.00197 0.991838
0.999764 1.00413 0.991056
0.999957 1.00345 0.991224
1.00511 0.995189 0.989961
1.00503 0.996359 0.989143
1.00508 0.996105 0.988803
1.00342 1.00047 0.987979
1.00061 1.00337 0.990162
1.00011 1.00144 0.992912
1.00009 1.00171 0.992695
1.00005 1.00221 0.992459
1.00002 1.00262 0.992006
0.999923 1.00328 0.991532
0.99977 1.00424 0.990784
0.999731 1.00457 0.990495
0.999977 1.00216 0.992548
0.999845 1.00389 0.990912
1.00514 0.995499 0.989514
1.00513 0.995675 0.989156
1.00505 0.99737 0.987737
1.00067 1.00451 0.988626
1.00297 1.00308 0.986351
0.999871 1.00317 0.99186
1.00504 0.995085 0.990686
1.00027 1.00433 0.990101
1.00115 1.00483 0.987951
1.00502 0.996284 0.988842
1.00367 1.00058 0.98704
0.999829 0.999368 0.991006
1.00003 1.00361 0.991153
1.00471 0.995663 0.991265
1.00022 1.00455 0.989981
1.00157 1.00395 0.987851
1.00409 0.997302 0.988468
1.00144 0.995178 0.959958
0.996036 0.999479 0.978326
0.999035 1.00038 0.993124
0.99957 0.997144 0.938848
0.995011 0.998152 0.930877
0.999897 1.00232 0.992576
0.999945 1.00255 0.992283
0.999998 1.00222 0.992535
1.00028 1.00047 0.993676
1.00026 1.00095 0.993192
1.00015 1.00136 0.993072
1.00011 1.00172 0.992843
1.00005 1.00212 0.992463
1.00022 1.00128 0.992982
1.00028 1.00053 0.993575
1.00034 1.00101 0.993042
1.00013 1.00189 0.992569
1.00019 1.00144 0.9929
1.00023 1.00135 0.992858
1.00018 1.00129 0.993011
1.00033 1.00127 0.992837
1.00039 1.00109 0.992827
1.00029 1.00055 0.993514
1.00034 1.00107 0.993023
1.00028 1.00131 0.992925
1.00016 1.00109 0.99327
1.00026 1.00107 0.993181
1.00027 1.00046 0.993702
1.00028 1.00054 0.993537
1.00025 0.999443 0.994743
1.00025 0.999453 0.994727
1.00016 0.997556 0.996772
1.00025 0.999429 0.994741
1.00017 0.997508 0.996787
1.00003 0.99631 0.999293
1.00016 0.997504 0.996821
1.00005 0.996305 0.998823
1.00006 0.996277 0.998378
1.00018 0.999288 0.995019
1.0002 0.999331 0.994948
1.00013 0.997439 0.996927
1.00021 0.999399 0.994852
1.0001 0.997514 0.997113
0.999972 0.996376 0.999312
1.00007 0.997689 0.996789
0.999912 0.996565 0.999286
0.999841 0.996759 0.999254
1.00514 0.996424 0.988657
1.00517 0.997171 0.987905
1.00514 0.995355 0.989658
1.00097 0.999016 0.988578
1.00516 0.995829 0.989219
1.00507 0.995176 0.990874
1.00506 0.99586 0.990235
0.997532 0.999812 0.97515
1.00242 0.996682 0.989719
1.00012 1.00053 0.993921
1.00013 1.00054 0.993894
1.00008 1.0014 0.993113
1.00009 1.00132 0.993183
1.00518 0.995849 0.989267
1.00512 0.995716 0.989273
1.00508 0.996041 0.988954
1.00094 1.00302 0.989898
1.00211 1.0033 0.986605
1.00483 0.9976 0.988154
1.00029 1.00242 0.991492
0.999796 1.00393 0.991221
1 1.00345 0.991284
1.00019 1.0008 0.993534
1.00005 1.00265 0.99195
1.00012 1.00187 0.992607
1.00014 1.00056 0.993856
1.0001 1.00157 0.992856
1.00508 0.995288 0.989931
1.0001 1.00146 0.993019
1.0001 1.00171 0.992742
1.00004 1.00216 0.992465
1.00505 0.995972 0.989205
1.00508 0.996029 0.988776
1.00071 1.00324 0.990137
1.00346 1.0006 0.987928
1.00003 1.00267 0.992005
0.999893 1.00326 0.991587
0.999763 1.00456 0.990496
0.999866 1.00429 0.99073
1.00505 0.996059 0.989512
1.00506 0.995598 0.989556
1.00416 0.998583 0.988377
1.00078 1.00343 0.989932
1.00009 1.00222 0.99225
1 1.00242 0.992223
0.999852 1.00359 0.991324
0.9999 1.00507 0.989741
1.00071 0.994994 0.955981
0.99983 1.00308 0.99201
1.00002 1.00431 0.990167
1.00502 0.995045 0.990649
1.00505 0.995961 0.988955
1.00369 1.0005 0.986994
1.00082 1.00492 0.988034
0.999753 0.999459 0.989381
0.999896 1.00367 0.991276
1.00469 0.995477 0.991205
1.0001 1.00455 0.990036
1.00153 1.00394 0.987817
1.00431 0.997367 0.988497
1.00182 0.99545 0.956165
0.995771 0.999426 0.974501
0.999106 1.00031 0.99325
0.998558 0.997421 0.940114
0.994768 0.99814 0.925958
0.99972 1.00362 0.991827
0.999973 0.994968 0.941856
0.994914 0.999614 0.932384
1.00418 0.996219 0.991393
0.99976 1.00487 0.9903
1.00214 1.0014 0.988736
0.998191 1.00052 0.995203
0.999146 0.997491 0.960345
0.99485 0.999443 0.973762
0.997773 0.999527 0.94106
0.994651 0.999886 0.935615
0.999877 1.0026 0.992347
0.999955 1.00231 0.992509
0.999973 1.00128 0.993648
1.00027 1.00053 0.99363
1.00034 1.001 0.993066
1.00021 1.00129 0.992952
1.00019 1.00145 0.992905
1.00013 1.00191 0.992583
1.00029 1.00055 0.993513
1.00024 1.00138 0.992837
1.00032 1.00128 0.992857
1.00039 1.00108 0.992898
1.00018 1.00127 0.993051
1.00032 1.00124 0.992835
1.00027 1.00051 0.993633
1.00042 1.00129 0.992658
1.00038 1.00108 0.992939
1.00035 1.00106 0.993017
1.00029 1.00129 0.992914
1.00041 1.00121 0.992745
1.00018 1.00138 0.992983
1.00024 1.00132 0.992928
0.999887 1.00212 0.992727
1.00008 1.00119 0.993324
1.00016 1.0011 0.993272
1.00025 1.00045 0.993761
1.00026 1.00108 0.99312
1.00027 1.00048 0.99366
1.00025 0.999413 0.994776
1.00028 1.00056 0.99353
1.00025 0.999434 0.994743
1.00011 0.997579 0.997271
1.00025 0.99945 0.994727
1.00014 0.997547 0.997018
1.00008 0.996336 0.998313
1.00017 0.997513 0.996786
1.00003 0.996316 0.999291
1.00008 0.996309 0.998346
1.00015 1.00052 0.99389
1.00018 0.999251 0.995055
1.00018 0.999283 0.99502
1.00014 0.997372 0.996971
1.0002 0.999325 0.994947
1.00014 0.997426 0.996926
1.00001 0.996283 0.999323
1.00009 0.99752 0.99734
0.999985 0.996421 0.998836
0.999954 0.996604 0.998327
1.00082 0.998152 0.988711
1.00517 0.995809 0.989272
1.00508 0.995377 0.990807
0.996969 0.999 0.976945
1.00226 0.997052 0.98996
1.00505 0.995422 0.99025
1.00434 0.995677 0.990373
0.998386 0.996708 0.979576
1.00039 0.995647 0.958909
0.998372 0.997299 0.941991
0.994666 0.998233 0.929746
1.00006 1.0014 0.993065
1.00013 1.00053 0.993919
1.00014 1.00053 0.993894
1.00009 1.00142 0.99308
1.00002 1.00197 0.992647
1.00013 1.00176 0.992739
1.00012 1.00135 0.99314
1.00008 1.00137 0.993133
1.00506 0.995364 0.9899
1.00508 0.995556 0.989264
1.005 0.996034 0.98875
1.0008 1.00306 0.990113
1.00348 1.00063 0.987876
0.999791 1.00452 0.990499
0.999955 1.00434 0.990677
0.999869 1.00325 0.991641
1.0001 1.00171 0.992788
1.00003 1.00273 0.992004
1.00011 1.00149 0.993125
1.00004 1.0021 0.992472
1.00504 0.995893 0.989512
1.00007 1.0022 0.992346
1.00002 1.00243 0.992225
1.00501 0.995572 0.98943
1.0038 0.998197 0.988718
1.00094 1.00333 0.989736
0.999903 1.00359 0.991321
0.999995 1.00498 0.989755
1.00348 1.00032 0.98962
1.00457 0.996081 0.990471
1.00179 1.00016 0.989677
1.00038 1.00378 0.99016
1.00009 1.00224 0.992195
0.999987 1.00288 0.991825
0.999848 1.00428 0.990703
0.999985 0.994903 0.939847
1.00128 0.99496 0.962037
0.999786 1.00371 0.9914
0.999986 1.00453 0.990092
1.00467 0.995266 0.991151
1.0045 0.997458 0.988526
1.0015 1.00396 0.987783
1.00082 0.994956 0.957846
0.99608 0.99984 0.974773
0.999125 1.00009 0.99338
0.99806 0.997255 0.944256
0.994642 0.998137 0.921039
0.99969 1.00351 0.991834
0.999998 0.995201 0.940257
0.994891 0.999595 0.929946
1.00422 0.996341 0.99136
0.999676 1.00486 0.990398
1.00179 1.00138 0.989261
0.998536 0.999867 0.995962
0.999767 0.997767 0.957105
0.995343 0.999166 0.976522
0.997319 0.999634 0.941493
0.994822 0.999887 0.933591
0.999305 1.00331 0.992802
0.994866 0.999662 0.934721
0.99463 1.00338 0.94916
1.00129 0.998259 0.994235
0.999257 1.00421 0.99225
0.997002 1.00216 0.996436
0.995251 0.999826 0.979865
0.996469 0.999982 0.956105
0.995615 0.999923 0.944395
0.994502 0.999899 0.943248
0.999939 1.00236 0.992483
0.99997 1.00145 0.99347
0.999721 0.999845 0.995201
1.00029 1.00055 0.993512
1.00038 1.00107 0.992969
1.0003 1.00128 0.992877
1.00025 1.00141 0.992815
1.00018 1.00124 0.993091
1.00038 1.00108 0.992936
1.00032 1.00129 0.992839
1.00042 1.00129 0.992657
1.00017 1.00048 0.993821
0.999994 0.999674 0.995049
1.00045 1.00084 0.993036
1.00047 1.00126 0.992599
1.00036 1.00105 0.993012
1.0003 1.00127 0.992903
1.00041 1.00121 0.992744
1.00018 1.00137 0.992976
1.00024 1.0013 0.992942
1.00005 1.00157 0.992982
1.00034 1.00122 0.992803
1.00012 1.00137 0.993084
0.999987 1.00258 0.992103
0.999654 1.00459 0.990509
0.999761 1.00279 0.992115
0.999882 1.00217 0.992705
1.00001 1.00142 0.993234
1.00008 1.0012 0.99332
1.00021 1.00045 0.993825
1.00016 1.00112 0.993273
1.00025 1.00045 0.993763
1.00023 0.999404 0.994814
1.00028 1.00049 0.993618
1.00025 0.999403 0.994777
1.00008 0.997607 0.997297
1.00025 0.999427 0.994743
1.00012 0.997568 0.997034
1.00005 0.996338 0.998325
1.00016 0.997534 0.996775
1.00003 0.996338 0.999287
1.00003 0.996322 0.999289
1.00018 1.00057 0.993961
1.00019 0.999266 0.995024
1.00014 1.00053 0.993888
1.00015 0.997343 0.996993
1.00018 0.999253 0.995055
1.00019 0.999278 0.995021
1.00015 0.997373 0.996969
1.00003 0.996223 0.999334
1.00011 0.997419 0.997387
1.00003 0.996298 0.998855
1.00002 0.996423 0.998372
0.999953 0.995211 0.938207
0.99521 0.999123 0.932882
0.997822 0.998209 0.978023
1.00211 0.997457 0.990198
1.00503 0.995025 0.990267
0.997725 0.996836 0.982015
1.00432 0.995981 0.990413
1.00112 0.995278 0.959478
0.998831 0.99688 0.938837
0.994638 0.998192 0.924755
0.999177 0.997581 0.985483
0.998537 0.997907 0.961562
0.997782 0.999436 0.939978
0.994674 0.999902 0.933313
1.00012 1.00196 0.992492
1.00006 1.0014 0.993099
1.00013 1.00052 0.993918
1.00009 1.00141 0.993047
1.00003 1.0019 0.992714
1.00015 1.00186 0.992584
1.00014 1.00173 0.992712
1.00016 1.00147 0.992894
1.00012 1.00136 0.993085
1.00007 1.0014 0.993082
1.00502 0.995666 0.989514
1.00496 0.995593 0.989312
1.00343 0.99773 0.989061
1.00108 1.00329 0.98954
1.0001 1.00488 0.989769
0.999954 1.0036 0.991318
1.00003 1.00244 0.992226
1.00004 1.00219 0.992442
1.00358 0.999178 0.989773
1.00009 1.00227 0.992186
0.999998 1.00285 0.991822
1.00447 0.995857 0.990264
1.00164 1.00065 0.989939
1.00051 1.00388 0.989842
0.999951 1.00426 0.990594
1.00065 1.00136 0.992995
1.00155 0.998847 0.993138
0.999856 1.00383 0.990781
1.00008 1.00239 0.99214
1.00014 1.00234 0.991966
1.00008 1.00298 0.991555
0.994719 0.999427 0.942644
0.999964 0.995295 0.942221
1.00077 0.994939 0.955711
0.999635 1.00347 0.991843
0.999599 1.00486 0.9905
1.0043 0.996418 0.991324
1.0014 1.00148 0.989788
0.999962 0.995217 0.943091
0.998746 0.997594 0.957952
0.994881 0.998902 0.973786
0.998959 0.998671 0.996657
0.997768 0.999542 0.937272
0.994859 0.999559 0.93044
0.994983 0.999893 0.934383
0.999216 1.00337 0.992822
0.994901 0.999747 0.937358
0.994805 1.00349 0.948658
1.00144 0.998229 0.994318
0.998838 1.00446 0.99224
0.996657 0.999904 0.999423
0.995291 0.999458 0.976821
0.996549 0.999965 0.961163
0.997686 0.99993 0.940544
0.994536 0.999908 0.944498
0.998346 1.0024 0.995589
0.994369 1.00252 0.957355
0.99401 1.00371 0.962392
0.996794 1.00197 0.99833
0.99526 1.00026 0.986221
0.995387 1 0.960601
0.995108 0.999979 0.942239
0.994654 0.999768 0.942398
0.999951 1.00161 0.993296
0.99979 0.999824 0.995256
0.999347 0.999222 0.996548
1.00038 1.00109 0.992934
1.00043 1.00129 0.992655
1.00032 1.00133 0.992843
1.00008 1.00045 0.994009
1.00046 1.00127 0.992601
1.00043 1.0009 0.992996
0.999989 0.999427 0.995243
0.999257 0.999127 0.996816
1.00026 0.999962 0.994317
1.00043 1.00113 0.992728
1.00041 1.00121 0.992742
1.00018 1.00136 0.99297
1.00024 1.0013 0.992956
1.00033 1.00124 0.992818
1.00004 1.00163 0.992968
1.00014 1.00135 0.993079
1.00006 1.00172 0.992872
1.00003 1.00125 0.993354
0.999997 1.00235 0.992232
1.00001 1.00251 0.992184
0.999716 1.00395 0.991128
1.00034 1.00487 0.989256
0.999833 1.00374 0.991429
0.99963 1.00458 0.99063
0.999782 1.00281 0.992236
0.99993 1.00185 0.99279
0.999877 1.00224 0.992684
1.00001 1.00144 0.993223
1.00017 1.00052 0.993827
1.00009 1.00122 0.993316
1.00021 1.00045 0.993824
1.0002 0.999444 0.994839
1.00026 1.00045 0.993765
1.00024 0.999394 0.994815
1.00004 0.997659 0.997321
1.00025 0.999394 0.994778
1.00009 0.997599 0.997063
1.00001 0.996403 0.998345
1.00014 0.997549 0.996793
1.00003 0.996355 0.998805
1.00002 0.996347 0.999288
1.0002 1.00065 0.993704
1.0002 0.999324 0.994958
1.00016 1.00058 0.993836
1.00014 0.997369 0.996979
1.00019 0.999268 0.995026
1.00013 1.00055 0.993885
1.00003 0.996207 0.999337
1.00015 0.997344 0.996993
1.00018 0.999251 0.995055
1.00015 0.997375 0.996966
1.00003 0.996231 0.999331
1.00001 0.996298 0.999318
0.994797 0.998989 0.93978
0.999961 0.995212 0.94003
0.994964 1.00368 0.948348
0.995133 0.999435 0.931189
0.998516 0.996961 0.978066
1.00427 0.99652 0.990441
1.00087 0.99515 0.96002
0.999624 0.997679 0.9429
0.994633 0.998138 0.919762
0.998831 0.997657 0.98404
0.999689 0.997223 0.955404
0.997576 0.999426 0.940695
0.994667 0.99988 0.930599
0.995358 1.0006 0.981596
0.998041 1.00008 0.955553
0.995561 0.99988 0.939075
0.994578 0.999807 0.938748
1.00014 1.00222 0.992237
1.0001 1.00196 0.99255
1.00006 1.00144 0.993133
1.00004 1.00185 0.992781
1.00021 1.00197 0.992286
1.00015 1.00184 0.992619
1.00014 1.00172 0.992686
1.00024 1.00142 0.992891
1.00018 1.00145 0.992954
1.00013 1.00136 0.993031
1.00351 0.998056 0.989939
1.00439 0.995659 0.990059
1.00152 1.00115 0.990199
1.00064 1.00394 0.989527
1.00003 1.00425 0.990485
1.00001 1.0028 0.991819
1.00011 1.0023 0.992177
1.00009 1.00238 0.99213
1.00068 1.00055 0.99325
1.00014 1.00243 0.99199
1.00009 1.00306 0.991477
1.0016 0.998995 0.992784
1.0002 1.00357 0.990703
0.998964 0.999306 0.995743
0.999268 0.999714 0.997032
1.00004 1.0022 0.992023
1.00022 1.00219 0.99206
1.00022 1.00258 0.991663
0.994017 1.00188 0.962441
0.994739 0.999877 0.94206
0.999943 0.995771 0.938716
0.999137 1.00345 0.992837
0.998496 1.00463 0.992217
1.00154 0.998266 0.994409
0.994912 0.999593 0.939022
0.997495 0.999925 0.956321
0.994877 0.999125 0.977982
0.996468 0.998872 1.0026
0.995818 0.999932 0.943873
0.995015 1.00363 0.948168
0.994523 0.999903 0.94472
0.99833 1.00225 0.995712
0.994424 1.00203 0.959562
0.994022 1.00382 0.962204
0.996872 1.00252 0.998344
0.995094 1.00021 0.986529
0.996399 0.999998 0.955707
0.99458 0.999786 0.944254
0.995036 0.999969 0.944592
0.997094 1.00236 0.998001
0.993432 1.003 0.978707
0.994055 1.00331 0.964658
0.994626 0.999792 0.938813
0.995006 1.00148 0.995943
0.996178 0.999056 0.962428
0.994709 1.00003 0.945362
0.999912 0.99978 0.995306
0.999418 0.999374 0.996331
0.99867 0.999206 0.997951
1.00045 1.00127 0.992603
1.00041 1.00096 0.992957
0.999988 0.999159 0.995439
1.00042 1.00117 0.992725
1.00024 0.999901 0.994314
0.999477 0.999028 0.996572
0.998991 0.998977 0.997447
1.00012 1.00082 0.993636
1.00032 1.00126 0.992833
1.00003 1.00167 0.992955
1.00016 1.00134 0.993075
1.00006 1.00125 0.993319
1.00007 1.00164 0.992917
0.999539 1.00229 0.993195
0.999769 1.00253 0.992494
1.00002 1.0039 0.990573
1.00005 1.00243 0.992265
0.99991 1.00391 0.991032
1.00033 1.00486 0.988899
1.00033 1.00495 0.989012
0.999927 1.00412 0.990731
1.00025 1.00479 0.989327
0.999948 1.0026 0.9922
0.999821 1.00379 0.991302
0.999604 1.00459 0.990751
0.999805 1.00283 0.992357
0.999946 1.00182 0.992885
1.00013 1.00072 0.993692
1.00002 1.00145 0.993213
1.00017 1.00054 0.993821
1.00015 0.99953 0.994844
1.00022 1.00045 0.993824
1.0002 0.999431 0.994842
0.999964 0.997755 0.997337
1.00024 0.999381 0.994817
1.00004 0.99766 0.997089
0.999942 0.9965 0.998361
1.00011 0.997581 0.996824
0.999986 0.996415 0.998817
0.999994 0.996387 0.999293
1.00025 1.00074 0.993371
1.0002 0.999444 0.994668
1.0002 1.00065 0.993702
1.00013 0.99745 0.996929
1.0002 0.999334 0.994867
1.00015 1.00058 0.99371
1.00002 0.996244 0.999331
1.00014 0.997368 0.996981
1.00019 0.999269 0.995028
1.00003 0.996208 0.999336
1.00015 0.997344 0.996993
1.00002 0.996242 0.999328
0.994083 1.00205 0.960908
0.994812 0.998854 0.940504
0.999902 0.995063 0.94071
1.00029 1.00134 0.992813
0.993945 1.00357 0.964089
0.994974 1.00371 0.947891
0.995122 0.999651 0.932521
0.99895 0.99805 0.9825
0.998872 0.998753 0.961523
0.99786 0.9995 0.936451
0.994663 0.999888 0.931069
0.995559 1.00002 0.977509
0.996831 0.999973 0.960421
0.997587 0.999915 0.941537
0.994604 0.999848 0.938516
0.9952 0.999986 0.973693
0.995212 1.00043 0.958946
0.994762 0.999951 0.944973
0.9946 0.999713 0.94249
1.00022 1.0022 0.99209
1.00013 1.00223 0.992215
1.0001 1.00194 0.992608
1.00023 1.00183 0.992412
1.00021 1.00196 0.992363
1.00014 1.00182 0.992654
1.00024 1.00144 0.992894
1.00019 1.00144 0.993015
1.00083 0.999825 0.993479
1.00162 0.999156 0.992421
1.0001 1.00237 0.992119
1.00055 1.00346 0.990622
1.00012 1.00311 0.991399
1.00012 1.0025 0.992013
1.00022 1.00223 0.992083
0.998977 0.99953 0.99611
1.00018 1.0025 0.991838
1.00027 1.00208 0.99206
0.999329 0.99902 0.997007
1.00025 1.00201 0.992278
0.997557 0.999684 0.996962
0.997909 1.0006 0.998883
1.00017 1.00148 0.992573
1.0002 1.00177 0.992546
0.993254 1.0031 0.981709
0.993936 1.00234 0.963029
0.994775 1.00025 0.941501
0.998252 1.0021 0.995853
0.996886 1.00265 0.998326
0.994452 1.0017 0.96175
0.995431 1.00004 0.961712
0.994874 0.999319 0.982591
0.995343 0.999961 0.944103
0.994008 1.00394 0.962028
0.99452 0.999791 0.946107
0.997265 1.00233 0.997718
0.993345 1.00306 0.978721
0.993945 1.0034 0.968298
0.995259 1.00292 0.998717
0.994643 0.999814 0.938517
0.995412 0.999088 0.959507
0.994976 0.999969 0.945943
0.996753 1.00229 0.998821
0.993407 1.00251 0.983514
0.994033 1.00358 0.964069
0.994698 0.999827 0.933484
0.995317 0.999938 0.944186
0.995709 0.998727 0.99237
0.996402 1.0001 0.954101
0.999436 0.999507 0.996111
0.998571 0.999759 0.997685
0.997121 0.998955 1.00162
1.0004 1.00121 0.992721
1.00024 0.999833 0.99431
0.999668 0.998963 0.996325
1.00011 1.00089 0.993586
0.999098 0.998601 0.99753
0.998549 1.00232 0.994744
1.0001 1.00124 0.993283
1.00008 1.00158 0.992961
0.999716 1.00234 0.993065
0.999283 1.00445 0.991359
0.999524 1.00268 0.992754
0.999825 1.00382 0.990879
1.00051 1.00499 0.988768
1.00148 1.00472 0.9872
1.00011 1.00386 0.990936
1.00047 1.00486 0.988755
1.00064 1.00462 0.989159
0.999827 1.00464 0.99007
1.00036 1.0048 0.98916
0.999927 1.00322 0.99163
0.999965 1.00412 0.99072
1.00017 1.00471 0.989399
1.00009 1.00118 0.993318
0.999933 1.00257 0.992176
0.999808 1.00384 0.991175
0.999961 1.00178 0.992979
1.00014 1.00074 0.993678
1.00009 0.99967 0.994814
1.00017 1.00056 0.993816
1.00015 0.999522 0.994845
0.999909 0.997902 0.996865
1.00021 0.999417 0.994845
0.999988 0.997757 0.996871
0.999816 0.996622 0.999311
1.00006 0.997642 0.996853
0.999927 0.996506 0.998828
0.999949 0.996452 0.999298
1.00029 1.00073 0.993312
1.00021 0.999586 0.994488
1.00026 1.00073 0.993447
1.0001 0.997577 0.996848
1.0002 0.999453 0.994645
1.00021 1.00065 0.993701
0.999992 0.996329 0.999317
1.00013 0.997446 0.996932
1.00019 0.999345 0.994776
1.00002 0.996234 0.999333
1.00014 0.997367 0.996983
1.00003 0.996205 0.999336
0.993211 1.00262 0.979072
0.994096 1.00256 0.960715
0.994832 0.999085 0.940517
1.00027 1.00136 0.992844
1.00025 1.00133 0.992846
1.00023 1.0017 0.992602
0.993989 1.00309 0.964871
0.993997 1.00349 0.963922
0.994976 1.00397 0.947435
0.995102 1.00048 0.980132
0.997164 1.00021 0.954988
0.995074 0.999919 0.944694
0.994617 0.999897 0.937188
0.995705 0.999816 0.976447
0.996489 1.00005 0.958192
0.995257 0.999995 0.945981
0.994541 0.999735 0.944343
0.994983 0.99986 0.973184
0.995796 1.00006 0.960264
0.994671 1.00005 0.945652
0.994476 0.999885 0.943079
1.00028 1.00194 0.992218
1.00022 1.0022 0.992066
1.00012 1.00225 0.992193
1.00024 1.00183 0.992401
1.00021 1.00195 0.992439
1.00026 1.00145 0.992897
0.999018 0.999713 0.996469
0.999196 0.998441 0.996989
1.00021 1.0023 0.992106
1.00051 1.00181 0.992097
1.00013 1.00249 0.992014
1.0003 1.00195 0.992192
1.00017 1.00179 0.992656
0.997579 0.999734 0.997265
1.00011 1.0015 0.993003
0.997784 1.0002 0.999181
1.00017 1.00164 0.992829
0.995897 0.999236 0.998344
0.997682 1.00139 0.998945
0.999893 1.00069 0.994355
0.9934 1.00321 0.987682
0.993091 1.00304 0.983231
0.993868 1.00281 0.96359
0.997546 1.00234 0.997423
0.996025 1.00254 0.99674
0.993283 1.00308 0.978733
0.995431 0.999133 0.965089
0.994717 1.00001 0.943902
0.993856 1.00348 0.971937
0.99466 0.999865 0.937356
0.996528 1.00273 0.999006
0.993343 1.00246 0.984815
0.99408 1.0035 0.963893
0.995162 0.999208 0.98768
0.994699 0.999788 0.930957
0.995443 0.99994 0.944996
0.995561 1.00013 0.960228
0.995522 1.00133 1.00147
0.993208 1.00248 0.979296
0.994908 1.00369 0.948658
0.994678 0.99821 0.930272
0.995603 0.999677 0.938748
0.995693 1.00003 0.959912
0.99579 0.998808 0.983332
0.998438 1.00045 0.997468
0.997231 0.998654 1.00148
0.997276 1.0007 0.999338
1.0001 1.00098 0.993536
0.999223 0.998226 0.997615
0.998401 1.00244 0.995055
0.99882 1.00367 0.993323
0.9999 1.00241 0.992937
0.999775 1.00434 0.991032
1.00055 1.00504 0.988596
0.999628 1.00374 0.991188
1.00057 1.00492 0.988694
1.00195 1.00492 0.986521
1.00286 1.0039 0.985658
1.00105 1.00447 0.987989
1.00147 1.00483 0.987116
1.00061 1.00488 0.988612
1.00047 1.00432 0.989763
1.00047 1.00446 0.989451
0.999874 1.00409 0.990719
0.999909 1.0046 0.990188
1.00039 1.00464 0.989308
1.00004 1.00192 0.992664
0.999965 1.00314 0.991637
0.999995 1.00412 0.990708
1.00002 0.999943 0.994658
1.00009 1.0012 0.993304
0.99992 1.00254 0.992153
1.00014 1.00076 0.993664
1.00009 0.999671 0.994811
0.999821 0.99809 0.996837
1.00016 0.999515 0.994846
0.999913 0.997903 0.996864
0.99975 0.996788 0.999302
0.999994 0.99775 0.996869
0.999845 0.996645 0.998836
0.999889 0.996548 0.999303
1.00032 1.00073 0.993356
1.00023 0.999684 0.994513
1.00029 1.00073 0.993344
1.00006 0.997736 0.996755
1.00022 0.99959 0.994556
1.00026 1.00073 0.993524
0.999952 0.996455 0.999297
1.0001 0.997571 0.996854
1.00021 0.999462 0.994623
0.999996 0.99631 0.999322
1.00012 0.997444 0.996936
1.00002 0.996225 0.999336
0.9934 1.00227 0.983649
0.993311 1.00233 0.979094
0.99411 1.00272 0.960596
1.00021 1.00142 0.992808
1.00008 1.00206 0.992522
1.00025 1.00138 0.992875
1.00025 1.00134 0.992849
1.00022 1.00171 0.992578
1.00016 1.00171 0.992693
1.00021 1.00182 0.992494
0.994011 1.0034 0.962459
0.993863 1.00321 0.968532
0.994048 1.00329 0.96376
0.994497 0.999747 0.946198
0.994893 1.00003 0.974036
0.995285 1.00006 0.958297
0.994728 0.999997 0.946818
0.995603 0.999918 0.972585
0.995438 1.00005 0.956287
0.994817 0.999978 0.947177
0.994528 0.999872 0.944409
0.995987 0.99785 0.976914
0.995143 1.00006 0.955774
0.99533 0.999956 0.942869
0.994644 0.999865 0.935024
1.0001 1.00177 0.992776
1.00028 1.00191 0.992237
1.00022 1.0022 0.992043
1.00025 1.00183 0.99239
0.997687 0.999988 0.997547
0.997775 0.999791 0.999463
1.00033 1.0019 0.992107
1.00014 1.00175 0.992766
0.999987 1.00155 0.993432
1.00015 1.00167 0.992762
0.999742 1.00073 0.994317
0.995801 1.00003 0.996293
0.997237 1.00175 0.999139
0.999563 1.00138 0.993957
0.995698 0.999381 0.995963
0.998068 1.00166 0.998211
0.993188 1.00283 0.982215
0.993247 1.00278 0.989116
0.992953 1.00303 0.984754
0.996413 1.00295 0.999137
0.995478 0.998554 0.993201
0.99329 1.00241 0.986122
0.99661 1.00009 0.954714
0.994948 0.999941 0.94585
0.994127 1.00332 0.963716
0.994692 0.999831 0.93131
0.995641 1.00073 1.0017
0.993303 1.0023 0.97931
0.994964 1.00365 0.948186
0.994906 0.998775 0.987035
0.994654 0.998179 0.925365
0.997723 0.999867 0.940928
0.995419 1.00005 0.956528
0.995836 1.00129 0.998745
0.994119 1.00187 0.961316
0.995129 0.999179 0.933438
0.997864 0.999231 0.940421
0.99535 1.00027 0.960482
0.994873 0.999257 0.977467
0.997463 0.998188 1.00125
0.997125 1.00135 0.999294
0.999356 0.998675 0.998194
0.998234 1.00255 0.995366
0.998302 1.0037 0.993632
1.00118 1.00238 0.990025
1.00028 1.00422 0.990703
1.00078 1.00502 0.988443
1.00224 1.00318 0.986927
1.00065 1.00487 0.988621
1.00197 1.00492 0.986376
1.00345 1.0024 0.985631
1.00415 1.00108 0.985878
1.00247 1.0046 0.985957
1.0029 1.00387 0.985466
1.00087 1.004 0.988818
1.00103 1.00447 0.988193
1.00147 1.00495 0.987033
1.0004 1.0042 0.989846
1.0004 1.00434 0.989737
1.00029 1.00432 0.989742
1.00007 1.00271 0.991786
0.999902 1.00394 0.99087
1 1.00455 0.990308
0.999957 1.00049 0.99422
1.00006 1.00189 0.992664
1 1.00307 0.991644
0.999738 0.998305 0.996784
1.00001 0.999966 0.994648
1.0001 1.00121 0.99329
1.00009 0.999672 0.994808
0.999827 0.998093 0.996836
0.999654 0.996981 0.999293
0.999917 0.997905 0.996864
0.999738 0.996822 0.999299
0.999814 0.996681 0.999303
1.0002 1.00155 0.992769
1.00033 1.00076 0.993306
1.00023 0.999783 0.994415
1.00032 1.00073 0.993352
1.00002 0.997908 0.996664
1.00023 0.999705 0.994509
1.00029 1.00075 0.993377
0.9999 0.996609 0.999275
1.00006 0.997729 0.996761
1.00022 0.999593 0.994625
0.999957 0.996429 0.999303
1.0001 0.997566 0.996859
1 0.99629 0.999327
0.993386 1.00248 0.979189
0.993315 1.00226 0.984936
0.993405 1.00217 0.979116
1.00023 1.0014 0.992833
1.00007 1.00207 0.992479
1.00004 1.0024 0.992167
1.00007 1.00193 0.99254
1.00003 1.00247 0.992228
1.00025 1.00133 0.992852
1.0002 1.00171 0.992553
1.00015 1.00172 0.992691
1.00022 1.00182 0.992482
1.00006 1.00196 0.992698
0.994657 1.00336 0.948735
0.994006 1.00351 0.9623
0.99375 1.00334 0.972188
0.994543 0.999859 0.944633
0.994664 1.00003 0.944483
0.994872 0.999905 0.971334
0.994971 1.00004 0.959654
0.995661 0.998 0.973078
0.995834 1.00006 0.959773
0.994823 0.999946 0.94556
0.994839 0.999851 0.932892
0.996187 0.995571 0.977557
0.995389 1.00011 0.960534
0.99593 0.9999 0.944093
0.995061 0.998152 0.929768
0.999486 1.00126 0.994268
1.00007 1.00184 0.992781
1.00028 1.00188 0.992256
0.995665 1.00061 0.994263
0.997085 1.00197 0.99933
1.00015 1.00168 0.992694
0.99966 1.00087 0.994278
0.999558 1.00143 0.993965
0.997973 1.00118 0.998073
0.995362 0.999408 0.996148
0.998229 1.00125 0.996763
0.995888 1.00137 0.995048
0.994097 1.00205 0.961986
0.993033 1.00275 0.983735
0.992997 1.00235 0.99055
0.995557 1.00029 1.00197
0.995264 0.998558 0.98102
0.993391 1.00222 0.979322
0.996534 1.00004 0.956866
0.995183 0.999899 0.943915
0.994974 1.00388 0.947729
0.994643 0.99809 0.920457
0.99591 1.00096 0.998985
0.994129 1.00238 0.961113
0.99508 0.999427 0.931751
0.994947 0.999151 0.979031
0.997521 0.999458 0.941085
0.996264 1.00003 0.957232
0.997403 0.999138 0.995041
0.99483 0.999012 0.940336
0.998035 0.997152 0.942356
0.998048 0.999938 0.955786
0.994858 0.99942 0.978852
0.997064 1.00186 0.999239
0.999172 0.99868 0.998243
1.00233 0.998396 0.99302
0.997826 1.00368 0.99393
1.00063 1.00264 0.990455
1.00306 0.999382 0.988702
1.00101 1.00498 0.988289
1.00228 1.00324 0.98699
1.0041 0.999719 0.987155
1.00198 1.00499 0.986232
1.00347 1.00244 0.985671
1.00483 0.998834 0.986609
1.00489 0.998778 0.986744
1.0034 1.00304 0.985372
1.00407 1.00107 0.985922
1.00197 1.00413 0.987082
1.00232 1.00462 0.985808
1.00293 1.00384 0.985274
1.00091 1.00356 0.989438
1.00083 1.0039 0.989039
1.00103 1.00445 0.988397
1.00037 1.00309 0.990895
1.00034 1.00413 0.989942
1.00034 1.00436 0.98971
0.999961 1.00126 0.993426
1.00011 1.00268 0.991787
0.999925 1.0038 0.991021
0.999634 0.998654 0.997083
0.999952 1.00051 0.994204
1.00008 1.00185 0.992664
0.999571 0.997238 0.998302
0.999737 0.998339 0.996999
1.00001 0.999987 0.994637
0.999834 0.998097 0.996834
0.999642 0.997023 0.999289
0.999726 0.996856 0.999297
1.00015 1.00189 0.992459
1.0003 1.00094 0.99318
1.00019 1.00159 0.992735
1.0002 0.999897 0.994363
1.00032 1.00079 0.993308
0.999961 0.998079 0.996591
1.00023 0.999807 0.994412
1.00033 1.00074 0.993347
0.99984 0.996781 0.999252
1.00001 0.997907 0.996668
1.00022 0.99973 0.994505
0.999906 0.99658 0.999282
1.00006 0.997724 0.996767
0.999963 0.996403 0.99931
0.994433 1.00165 0.962732
0.993306 1.00252 0.979213
0.993239 1.00226 0.986228
1.00002 1.00266 0.992025
1.00023 1.00143 0.992859
1.00007 1.00209 0.992436
1.00009 1.00195 0.992572
1.00008 1.00235 0.992211
1.00003 1.00246 0.992184
1.00003 1.00277 0.991888
0.999945 1.00245 0.992208
1.00014 1.00172 0.99269
1.00021 1.00182 0.992469
1.00003 1.002 0.992659
0.999791 1.0024 0.993048
0.994943 0.999687 0.931759
0.994859 1.00349 0.94822
0.993983 1.00363 0.962146
0.995043 0.999854 0.933883
0.995343 0.999933 0.945523
0.995156 1.00008 0.955891
0.996026 0.998104 0.971736
0.996412 0.995301 0.979501
0.994804 0.998141 0.924941
0.995404 1.00008 0.957172
0.997314 0.999938 0.94041
0.995644 0.997722 0.980287
0.995948 1.00005 0.961977
0.997847 0.999389 0.939425
0.999228 1.00048 0.995545
0.999644 1.0012 0.994245
1.00003 1.00192 0.992786
0.99498 0.999277 0.996266
0.997937 1.0004 0.997937
0.999554 1.00143 0.993972
0.998812 1.00105 0.996595
0.995739 1.00131 0.995251
0.99782 1.00082 0.994889
0.994759 0.999879 0.937119
0.993984 1.00187 0.965893
0.992907 1.00266 0.985257
0.99591 1.00108 0.999276
0.994856 0.999176 0.980062
0.994142 1.0026 0.960966
0.99534 1.00008 0.957695
0.997868 0.999264 0.936996
0.995136 0.999522 0.933102
0.997384 0.999303 0.995117
0.994838 0.998775 0.941034
0.998674 0.996888 0.939356
0.995066 0.999451 0.974795
0.996748 0.999916 0.960562
0.998697 0.99895 0.995366
0.999956 0.995143 0.938685
0.998283 0.998986 0.960513
0.995218 0.999597 0.973652
0.998923 0.998775 0.998325
1.00178 0.998076 0.993764
1.00377 0.997148 0.990938
1.0001 1.00294 0.990887
1.00302 0.999814 0.988626
1.00459 0.996806 0.988901
1.0023 1.00337 0.987054
1.00396 0.999887 0.987177
1.00497 0.997424 0.98797
1.0035 1.00242 0.985711
1.00485 0.998887 0.986589
1.00509 0.997397 0.987662
1.00506 0.99793 0.987253
1.00446 1.00043 0.986115
1.00488 0.998817 0.986716
1.00283 1.00301 0.986151
1.00337 1.00292 0.985526
1.00401 1.00107 0.985966
1.0015 1.00341 0.988514
1.00179 1.00414 0.987131
1.00216 1.00463 0.985658
1.00082 1.00291 0.990261
1.00096 1.00354 0.989415
1.00079 1.00383 0.989261
1.0001 1.00199 0.992482
1.0004 1.00307 0.990902
1.00028 1.00406 0.99004
0.999596 0.999081 0.996223
0.999984 1.00124 0.993409
1.00016 1.00264 0.991788
0.999429 0.997511 0.999254
0.999647 0.998705 0.99656
0.99995 1.00052 0.994187
0.999547 0.997232 0.999274
0.999745 0.998353 0.996751
0.99963 0.997065 0.999285
1.00013 1.00222 0.992257
1.00017 1.00188 0.992453
1.00026 1.00124 0.99294
1.00014 1.00006 0.994316
1.00029 1.00095 0.993185
1.00018 1.0016 0.992701
0.999899 0.998236 0.996555
1.0002 0.999902 0.994363
1.00031 1.00079 0.993309
0.999771 0.996954 0.999234
0.999958 0.998078 0.996594
1.00022 0.999824 0.994409
0.999846 0.996754 0.999259
1.00001 0.997905 0.996673
0.999913 0.99655 0.999288
0.994791 0.999682 0.93488
0.994394 1.00167 0.962554
0.993242 1.00255 0.979234
0.999977 1.00274 0.991978
1.0001 1.00313 0.991532
0.999938 1.00308 0.991727
1.00011 1.00196 0.992604
1.0001 1.00229 0.992256
0.999989 1.00247 0.992141
0.999987 1.00246 0.992179
1 1.0028 0.991851
0.999856 1.0035 0.991548
1.00012 1.0016 0.992808
1.00004 1.00199 0.992619
0.99976 1.00222 0.993025
0.999458 0.997146 0.93784
0.994865 0.999729 0.929227
0.995039 1.0036 0.947735
0.994634 0.998103 0.920115
0.995847 0.999741 0.943524
0.996142 1.00001 0.959029
0.996007 0.995228 0.977038
0.995341 0.997796 0.978423
0.997447 0.999085 0.940519
0.996151 1.00004 0.957566
0.995939 0.997702 0.979864
0.997681 1.0002 0.955314
1.00135 0.999819 0.992981
0.999412 1.00036 0.995376
0.999754 1.00112 0.99423
0.99545 1.00154 0.995431
0.999185 1.00093 0.996424
0.998221 1.00115 0.994276
1.00112 0.99971 0.989825
0.999989 0.994884 0.940197
0.994785 1.00018 0.93934
0.993881 1.00176 0.969759
0.997396 0.999274 0.995252
0.994856 0.999438 0.974938
0.994856 0.998906 0.941062
0.996737 0.999919 0.955287
0.999782 0.998511 0.943267
0.998623 0.999181 0.993956
0.999966 0.995287 0.940393
0.999751 0.997879 0.955008
0.995368 0.999291 0.976227
0.999457 0.997787 0.995022
1.00046 0.996631 0.958146
0.99595 1.00091 0.978821
1.00119 0.997705 0.994503
1.00363 0.99681 0.990905
1.00502 0.995167 0.990067
1.00298 1.00019 0.988548
1.0045 0.99678 0.988905
1.00487 0.995778 0.989528
1.00381 0.999973 0.9872
1.00489 0.997382 0.987921
1.00514 0.9962 0.988712
1.00488 0.998935 0.986568
1.00509 0.997377 0.987676
1.00512 0.996905 0.988106
1.00507 0.99763 0.987633
1.00507 0.997822 0.987315
1.00484 0.998732 0.986985
1.00398 1.00111 0.986309
1.00448 1.00037 0.986097
1.00487 0.998843 0.986688
1.00239 1.00277 0.987249
1.00284 1.00306 0.986299
1.00336 1.00277 0.985681
1.00124 1.00278 0.989594
1.00153 1.00341 0.988484
1.00162 1.00418 0.987179
1.00035 1.00221 0.991771
1.00087 1.00289 0.99026
1.00101 1.00353 0.989392
0.999606 0.999638 0.99562
1.00014 1.00191 0.99248
1.00045 1.00304 0.990909
0.999404 0.997788 0.999177
0.999595 0.999152 0.996189
1.00001 1.00122 0.993392
0.99946 0.997546 0.998736
0.999657 0.998723 0.996547
0.999537 0.997311 0.999261
1.00017 1.00263 0.991769
1.00009 1.00229 0.992228
1.00017 1.00172 0.992634
1.0002 1.00189 0.992447
1.00025 1.00126 0.992942
1.00006 1.00033 0.994179
0.999825 0.998402 0.996531
1.00014 1.00005 0.994321
1.00026 1.00097 0.993191
0.999692 0.997117 0.999224
0.999895 0.998233 0.996556
1.0002 0.999908 0.994364
0.999778 0.99693 0.999239
0.999955 0.99808 0.996597
0.999852 0.996721 0.999266
0.999932 0.995126 0.941694
0.99485 1.00011 0.93465
0.994363 1.0017 0.962365
0.999939 1.00283 0.991931
0.999922 1.00321 0.991605
1.00001 1.00309 0.991633
1.00039 1.00332 0.990795
0.999878 1.00369 0.99126
1.00002 1.00248 0.992151
0.99999 1.00281 0.991813
0.999814 1.00335 0.991586
0.999759 1.00391 0.990729
1.00025 1.00241 0.991773
1.00283 1.00054 0.989022
0.999872 1.00182 0.993016
0.999787 1.00202 0.993001
1.00026 0.997671 0.957263
0.998785 0.997225 0.939287
0.994832 0.999667 0.929805
0.997899 0.999536 0.936177
0.995737 1.00049 0.958261
0.995615 0.997921 0.981061
0.995688 0.997797 0.981855
0.997036 0.999645 0.96125
0.997631 1.00006 0.977501
1.00373 0.997915 0.989962
1.00099 0.999633 0.992993
0.99959 1.00026 0.995203
0.998489 1.00137 0.993703
1.00188 1.00066 0.98852
1.00063 0.995521 0.955675
0.999957 0.995255 0.942465
0.994812 1.00039 0.941602
0.9985 0.999459 0.992524
0.994877 0.999392 0.97379
0.999928 0.994968 0.940985
0.998871 0.999671 0.960733
0.999329 0.998693 0.995246
1.00163 0.995519 0.958438
0.995804 1.00029 0.975472
1.00092 1.00121 0.992005
1.00014 0.997495 0.98294
1.0035 0.99648 0.990877
1.005 0.995077 0.989824
1.00504 0.994999 0.990064
1.0044 0.996795 0.988908
1.00477 0.995827 0.989523
1.00511 0.994969 0.989857
1.00482 0.997358 0.98787
1.00515 0.996127 0.988705
1.00513 0.995981 0.989015
1.00507 0.997365 0.98769
1.00512 0.996928 0.988081
1.00509 0.997095 0.988084
1.00507 0.997541 0.987646
1.00496 0.998134 0.987359
1.00509 0.997721 0.987377
1.00486 0.998668 0.986988
1.00449 0.999606 0.986827
1.00341 1.00141 0.986796
1.00396 1.00114 0.986274
1.0045 1.00032 0.98608
1.00189 1.00249 0.988708
1.00235 1.00281 0.987362
1.00284 1.00312 0.986448
1.00063 1.00219 0.991231
1.00129 1.00277 0.989572
1.00156 1.0034 0.988454
0.999696 1.00018 0.994903
1.00038 1.00218 0.991779
1.00089 1.00288 0.990258
0.999409 0.998108 0.999057
0.999606 0.999703 0.995591
1.00018 1.00183 0.992478
0.999424 0.997845 0.999144
0.99959 0.999224 0.996154
0.999468 0.997599 0.999208
1.00051 1.00288 0.990916
1.00017 1.00258 0.991767
1.00018 1.0022 0.992079
1.00006 1.00233 0.992199
1.00015 1.00179 0.992563
1 1.00079 0.993793
1.00023 1.00126 0.992945
1.00007 1.00031 0.994187
0.99974 0.998624 0.996472
0.999605 0.997296 0.999214
0.99982 0.998399 0.996533
1.00014 1.00005 0.994325
0.999702 0.997098 0.999227
0.999892 0.998233 0.996557
0.999785 0.996906 0.999244
1.00167 0.995343 0.959655
0.999963 0.995177 0.940383
0.994887 1.00056 0.933482
0.999904 1.00334 0.991482
0.99993 1.00305 0.991733
0.999894 1.00368 0.991307
1.00034 1.00329 0.990842
1.00067 1.00375 0.989795
0.99994 1.00376 0.990837
0.999772 1.00322 0.991623
1.00002 1.00401 0.990412
1.00018 1.00271 0.991553
1.0009 1.00269 0.989729
1.00306 1.00071 0.989259
1.00407 0.999124 0.98746
1.00251 1.00056 0.989322
0.999592 1.00216 0.993223
0.996962 1.00015 0.976359
1.00017 0.997573 0.957116
0.998567 0.997441 0.943265
0.998776 1.0002 0.95533
0.995584 0.997968 0.983321
0.998156 0.999375 0.981828
1.00199 0.998525 0.991116
1.00362 0.997901 0.990348
1.00092 0.999395 0.993002
1.00316 1.00176 0.987176
0.99881 0.997092 0.978269
1.00125 0.995143 0.96156
0.999959 0.995715 0.939049
0.999267 0.999433 0.995424
0.995555 1.00056 0.977805
1.00114 0.995055 0.958833
1.00088 1.00054 0.992137
0.999355 0.997715 0.981691
1.00358 1.00116 0.989198
1.00448 0.995817 0.989837
1.00497 0.994997 0.989577
1.00502 0.994984 0.990008
1.00506 0.995023 0.99011
1.00468 0.99588 0.989521
1.0051 0.995096 0.98982
1.00511 0.995373 0.989628
1.00516 0.996036 0.988698
1.00512 0.996016 0.988983
1.00512 0.996703 0.988483
1.00512 0.99695 0.988056
1.00509 0.997111 0.98803
1.00504 0.997849 0.98742
1.00507 0.997454 0.98766
1.00496 0.998048 0.987408
1.00474 0.998908 0.987069
1.00488 0.998599 0.986991
1.0045 0.9996 0.986807
1.00407 1.0002 0.987066
1.00272 1.0015 0.987904
1.00335 1.00149 0.986886
1.00394 1.00117 0.98624
1.00109 1.00203 0.990561
1.00191 1.00246 0.988703
1.00231 1.00286 0.987475
0.999781 1.00068 0.994245
1.00066 1.00221 0.991224
1.00134 1.00276 0.989551
0.999451 0.99847 0.998878
0.999721 1.00019 0.994892
1.00041 1.00214 0.991786
0.999441 0.998176 0.999001
0.999611 0.999765 0.995562
0.999449 0.997906 0.999107
1.0008 1.00331 0.989975
1.00053 1.00286 0.990957
1.00043 1.00249 0.991415
1.00017 1.00256 0.991765
1.0002 1.00224 0.992
1.00006 1.00133 0.993171
1.00014 1.00186 0.992492
1.00001 1.00079 0.993803
0.999651 0.998951 0.996304
1.00008 1.00029 0.994195
0.999737 0.998607 0.996479
0.99952 0.997509 0.999197
0.999617 0.997273 0.999218
0.999816 0.998395 0.996535
0.99971 0.99708 0.99923
0.998049 0.998529 0.977777
1.00151 0.995794 0.954639
0.99994 0.995246 0.942982
1.00162 1.00323 0.988614
0.999917 1.00368 0.991352
1.00029 1.00327 0.990889
1.00003 1.00384 0.990764
1.00061 1.00385 0.989747
1.00071 1.00282 0.990318
1.00027 1.0041 0.990094
1.00018 1.00295 0.991333
1.00107 1.0026 0.989962
1.00295 1.00077 0.988976
1.00421 0.999584 0.98707
1.00461 0.99774 0.988076
1.0042 0.999203 0.987074
1.00227 1.00049 0.989624
1.00095 0.998746 0.993413
0.997273 1.00013 0.974936
0.999519 0.997709 0.957354
0.998207 0.998589 0.980245
1.00197 0.997511 0.993024
1.00312 0.997871 0.990731
1.00281 0.99658 0.989055
0.998136 0.996134 0.980943
1.00073 0.995337 0.955488
1.00079 0.999968 0.992264
0.999423 0.997807 0.980321
1.00352 0.999277 0.989382
1.00446 0.995955 0.989765
1.00503 0.996181 0.989771
1.00503 0.996099 0.990241
1.00502 0.995007 0.989951
1.00506 0.995025 0.990149
1.00509 0.995313 0.989825
1.00509 0.995219 0.989781
1.00512 0.995455 0.98962
1.00514 0.996365 0.988734
1.00512 0.996069 0.988952
1.00511 0.996709 0.988441
1.00512 0.997764 0.98738
1.00509 0.997126 0.987976
1.00503 0.997857 0.987436
1.0049 0.998571 0.987011
1.00495 0.997966 0.987457
1.00474 0.998799 0.987099
1.00439 0.999512 0.987042
1.0045 0.999592 0.986787
1.00405 1.00019 0.986986
1.00344 1.00061 0.987757
1.00177 1.00144 0.989933
1.00269 1.00156 0.988001
1.00329 1.00158 0.986976
0.999934 1.00099 0.993651
1.00111 1.00204 0.990552
1.00193 1.00244 0.988699
0.999434 0.998907 0.998684
0.99987 1.00058 0.994235
1.0007 1.00222 0.991218
0.999468 0.99855 0.998811
0.999745 1.0002 0.99488
0.999476 0.998237 0.998939
1.00141 1.00322 0.988745
1.00078 1.00329 0.98999
1.00078 1.00273 0.990645
1.00055 1.00283 0.990998
1.00043 1.00247 0.991432
1.00017 1.00179 0.99254
1.00021 1.00229 0.991921
1.00002 1.0014 0.993171
0.999579 0.999414 0.995952
1.00001 1.00079 0.993813
0.999653 0.998908 0.996324
0.99946 0.997743 0.999154
0.999735 0.998591 0.996487
0.999529 0.997472 0.999203
0.999627 0.997251 0.999221
1.00171 0.998434 0.991312
0.998076 0.998277 0.974344
1.00069 0.995949 0.960103
1.00178 1.00228 0.988863
1.00356 1.00121 0.986925
1.00139 1.00322 0.988761
1.00011 1.0039 0.99069
1.00056 1.00395 0.989694
1.00101 1.00273 0.990073
1.00394 0.999842 0.98766
1.00121 1.00254 0.990196
1.00263 1.00087 0.988693
1.00404 0.999701 0.987312
1.00505 0.998207 0.98702
1.00502 0.996094 0.988977
1.0047 0.997788 0.987911
1.00429 0.999362 0.986689
1.00127 0.998645 0.99356
0.996899 1.00068 0.972902
1.00212 0.996567 0.994929
1.00509 0.995771 0.990352
1.00262 0.996894 0.98922
0.998828 0.995956 0.977357
1.00351 0.997604 0.989577
1.00443 0.996393 0.989695
1.00503 0.995661 0.989928
1.00503 0.99573 0.990046
1.00507 0.995357 0.989756
1.00515 0.995511 0.98923
1.00506 0.994985 0.990188
1.00509 0.995315 0.989813
1.00514 0.996328 0.988748
1.00512 0.995546 0.989612
1.00514 0.996478 0.988637
1.00516 0.99752 0.987578
1.00511 0.996714 0.988398
1.00511 0.997775 0.987393
1.00503 0.998537 0.986821
1.00502 0.997864 0.987451
1.0049 0.998572 0.987012
1.0046 0.999222 0.98696
1.00474 0.998688 0.987129
1.00438 0.999477 0.98704
1.00378 1.00005 0.987652
1.00404 1.00018 0.986905
1.00338 1.0006 0.987718
1.00236 1.00071 0.989564
1.00018 1.00091 0.993214
1.00177 1.00145 0.989929
1.00265 1.00163 0.988099
0.999354 0.999434 0.998509
1.00002 1.0009 0.993635
1.00113 1.00207 0.990543
0.999439 0.99902 0.998623
0.999937 1.00053 0.994224
0.99949 0.998634 0.998744
1.00251 1.00243 0.987228
1.00141 1.00321 0.988607
1.00135 1.00272 0.989557
1.00076 1.00327 0.990005
1.00072 1.00273 0.990668
1.00034 1.00215 0.991933
1.00042 1.00245 0.991449
1.00013 1.00186 0.992537
0.999606 0.999914 0.995403
1 1.00145 0.993172
0.999593 0.999342 0.995978
0.999438 0.998017 0.999054
0.999655 0.998866 0.996345
0.999458 0.997704 0.99917
0.999538 0.997442 0.99921
1.0051 0.995617 0.989509
1.00182 0.998125 0.990318
0.997969 0.997428 0.975026
1.00415 0.999941 0.987205
1.0015 1.00202 0.989652
1.00476 0.998923 0.986719
1.00364 1.00116 0.986879
1.00115 1.0032 0.988913
1.00509 0.998159 0.986945
1.00131 1.00261 0.989833
1.00409 0.999857 0.987275
1.00512 0.997223 0.987768
1.00397 0.999782 0.987553
1.00502 0.998108 0.987102
1.00497 0.996203 0.98907
1.00466 0.99786 0.987737
1.00144 0.998518 0.993742
1.00515 0.995926 0.988908
1.0051 0.995914 0.990364
1.00244 0.996857 0.989365
1.00501 0.995044 0.990092
1.00502 0.995387 0.989852
1.00505 0.995273 0.989916
1.00515 0.995566 0.989282
1.00517 0.996305 0.988684
1.0051 0.995313 0.989801
1.00514 0.996355 0.988757
1.00516 0.997335 0.987767
1.00514 0.996584 0.988541
1.00516 0.997596 0.987492
1.00512 0.998553 0.986658
1.0051 0.997786 0.987406
1.00502 0.998539 0.986828
1.00475 0.99914 0.986757
1.00491 0.998573 0.987014
1.00459 0.999221 0.986959
1.00402 0.999739 0.987516
1.00436 0.99944 0.987038
1.00377 1.00005 0.98766
1.00273 1.00026 0.989346
1.00332 1.00059 0.987679
1.00235 1.00073 0.989558
1.00041 1.00065 0.994092
0.999417 0.999862 0.996204
1.00027 1.00084 0.99373
1.00176 1.00147 0.989925
0.999375 0.999563 0.998445
1.00013 1.00079 0.993617
0.999446 0.999117 0.998556
1.00506 0.998609 0.986896
1.00368 1.00043 0.986958
1.00269 1.00238 0.987101
1.00206 1.00235 0.988535
1.0014 1.00321 0.988469
1.00129 1.00274 0.989587
1.00069 1.00222 0.991239
1.00067 1.00274 0.99069
1.00029 1.00216 0.991944
0.999729 1.0004 0.994729
1.00009 1.00193 0.992534
0.999599 0.999873 0.995419
0.999425 0.998375 0.998888
0.999605 0.999267 0.996003
0.999421 0.997964 0.999091
0.999458 0.997663 0.999185
1.00516 0.996461 0.988422
1.00512 0.995769 0.989934
1.00204 0.99796 0.989321
1.00514 0.998215 0.986804
1.00396 0.999945 0.987486
1.00123 1.00176 0.990428
1.00476 0.999077 0.986733
1.00372 1.00112 0.986833
1.00512 0.997417 0.987865
1.00509 0.998167 0.986892
1.00424 0.999897 0.986887
1.00511 0.997214 0.987756
1.00501 0.998024 0.987183
1.00496 0.996264 0.98918
1.00517 0.996535 0.988615
1.00517 0.99588 0.988967
1.0051 0.996059 0.99038
1.00505 0.995186 0.990074
1.00516 0.995624 0.989335
1.00516 0.996186 0.988833
1.00516 0.997363 0.987783
1.00514 0.996388 0.988766
1.00516 0.997357 0.987739
1.00516 0.99847 0.986678
1.00515 0.997671 0.987405
1.0051 0.998552 0.986671
1.00488 0.999187 0.986484
1.00502 0.998542 0.986835
1.00475 0.999139 0.986758
1.00418 0.999634 0.987314
1.00459 0.99922 0.98696
1.00402 0.99974 0.987517
1.00294 1.00005 0.989162
1.00375 1.00006 0.987669
1.00273 1.00026 0.989339
1.00063 1.0003 0.994091
1.00234 1.00075 0.989552
1.00054 1.00059 0.994041
0.999442 1.00015 0.99606
0.999335 1.00002 0.997233
1.0004 1.00077 0.994172
0.999392 0.99968 0.998378
1.00511 0.998499 0.986696
1.00446 0.99925 0.987191
1.005 0.998492 0.986928
1.00295 1.00133 0.98783
1.00381 1.00052 0.986914
1.00286 1.00232 0.986973
1.00205 1.00235 0.988536
1.00125 1.00196 0.990414
1.00124 1.00275 0.989616
1.00065 1.0022 0.991253
0.999891 1.0008 0.99406
1.00024 1.00217 0.991954
0.999672 1.00043 0.994739
0.999364 0.998899 0.998683
0.999595 0.99983 0.995435
0.99941 0.998301 0.998949
0.999412 0.997915 0.999125
1.00513 0.996931 0.988205
1.00515 0.996454 0.988419
1.00514 0.995881 0.990337
1.00515 0.997855 0.987288
1.00513 0.998265 0.986838
1.00377 0.999943 0.98777
1.00474 0.99923 0.986746
1.00511 0.997411 0.987764
1.00509 0.998174 0.986838
1.0051 0.997214 0.987744
1.00514 0.997211 0.987966
1.00516 0.996577 0.98854
1.00518 0.995832 0.989027
1.00513 0.99767 0.987473
1.00516 0.99607 0.988981
1.00516 0.99737 0.987774
1.00516 0.998268 0.986964
1.00517 0.997379 0.98771
1.00515 0.998467 0.986689
1.00501 0.999143 0.986273
1.00509 0.998554 0.986683
1.00486 0.99919 0.986494
1.00433 0.999684 0.98699
1.00474 0.999139 0.986758
1.00419 0.999633 0.987312
1.00308 0.999968 0.988983
1.00401 0.999742 0.987519
1.00295 1.00003 0.989157
1.00079 1.00006 0.994083
1.00273 1.00026 0.989333
1.00073 1.00026 0.994041
0.999501 1.0001 0.996075
1.00067 1.00051 0.993996
0.999293 1.0003 0.99615
0.999138 1.00017 0.998433
1.00512 0.998456 0.986694
1.00482 0.998918 0.986851
1.00512 0.998466 0.986728
1.00376 1.00019 0.987784
1.00451 0.999154 0.987151
1.00496 0.998378 0.98696
1.00201 1.00129 0.989633
1.00298 1.00134 0.987798
1.00395 1.0006 0.986871
1.00205 1.00235 0.988538
1.00124 1.00193 0.990429
1.00009 1.00102 0.993481
1.00061 1.00218 0.991267
0.999793 1.00089 0.994077
0.999261 0.999548 0.998491
0.999617 1.00048 0.994749
0.999366 0.998784 0.998759
0.999401 0.998224 0.999004
1.00514 0.997507 0.9876
1.00513 0.996869 0.988229
1.00515 0.996446 0.988416
1.00514 0.997831 0.987311
1.00513 0.998317 0.986872
1.00512 0.997405 0.987662
1.00512 0.997694 0.987541
1.00514 0.99727 0.987924
1.00516 0.996619 0.988464
1.00514 0.997644 0.987542
1.00513 0.998247 0.98697
1.00516 0.997378 0.987765
1.00515 0.998333 0.986851
1.00509 0.998951 0.986333
1.00514 0.998462 0.9867
1.00499 0.999147 0.986289
1.00454 0.999678 0.986609
1.00485 0.999189 0.986504
1.00433 0.99968 0.986992
1.00321 0.999968 0.988731
1.00419 0.999632 0.98731
1.00309 0.999953 0.98898
1.00089 0.999975 0.993988
1.00296 1.00001 0.989152
1.00087 1.00003 0.994024
0.999596 0.999991 0.996057
1.00083 1.00022 0.994
0.999351 1.0002 0.996175
0.999138 1.00052 0.996228
1.00514 0.998116 0.987072
1.00495 0.998959 0.986497
1.00513 0.998381 0.986758
1.00419 0.999446 0.987575
1.00482 0.998946 0.986885
1.00513 0.99843 0.986761
1.00268 1.00043 0.989201
1.00377 1.0001 0.987651
1.00456 0.999057 0.987111
1.00036 1.00089 0.993047
1.00201 1.00127 0.989642
1.00301 1.00136 0.987765
1.00122 1.00192 0.990444
0.999976 1.00112 0.993505
0.99923 1.00014 0.998335
0.999694 1.001 0.994092
0.999267 0.999405 0.998561
0.999369 0.998661 0.998826
1.00513 0.997773 0.987392
1.00513 0.997487 0.98763
1.00513 0.996807 0.988254
1.00513 0.997809 0.987334
1.00513 0.998253 0.98696
1.00513 0.997698 0.987553
1.00514 0.997327 0.987881
1.00515 0.997622 0.987611
1.00513 0.998206 0.987008
1.0051 0.998886 0.98648
1.00515 0.998398 0.986738
1.00508 0.999029 0.986288
1.00472 0.999498 0.986378
1.00497 0.999154 0.986305
1.00453 0.999679 0.986618
1.00341 0.99998 0.988352
1.00433 0.999682 0.986993
1.00323 0.999958 0.988727
1.00099 1.00001 0.992688
1.00311 0.999935 0.988976
1.00096 0.999943 0.993386
0.999609 0.999988 0.998215
1.00095 1.00002 0.993968
0.999462 1.00002 0.996162
0.999212 1.00032 0.996258
1.00514 0.998107 0.987122
1.00503 0.998803 0.986561
1.00514 0.998168 0.987038
1.00442 0.999296 0.986982
1.00495 0.998953 0.986586
1.00515 0.998303 0.986822
1.00306 0.999837 0.988824
1.00419 0.999484 0.987561
1.00482 0.998977 0.986919
1.00067 1.00043 0.992874
1.0027 1.00038 0.989089
1.00378 0.999999 0.987518
0.999306 1.00045 0.998236
1.00029 1.00095 0.993067
1.00201 1.00126 0.989652
0.99988 1.00119 0.993528
0.999193 1 0.998391
0.999268 0.999244 0.998631
1.00514 0.998201 0.987004
1.00513 0.997767 0.9874
1.00513 0.997469 0.98766
1.0051 0.998836 0.986478
1.00513 0.998214 0.987002
1.00513 0.9977 0.987566
1.00513 0.998159 0.987046
1.00509 0.998879 0.98648
1.00478 0.999402 0.986593
1.00506 0.999109 0.986243
1.00471 0.999563 0.986491
1.00363 0.999871 0.98779
1.00452 0.999674 0.986627
1.00341 0.999976 0.988352
1.00112 1.00006 0.992391
1.00324 0.99995 0.988722
1.001 1 0.992678
0.999645 0.999982 0.998175
1.00097 0.99993 0.99284
0.999557 0.999956 0.997184
0.999331 1.00005 0.996262
1.00514 0.998302 0.98695
1.00504 0.998737 0.9866
1.00514 0.998087 0.987119
1.00452 0.999304 0.986952
1.00502 0.998836 0.986506
1.00514 0.998221 0.987005
1.00328 0.999657 0.988591
1.00443 0.999364 0.987137
1.00494 0.998947 0.986676
1.00088 1.00001 0.992859
1.00306 0.999841 0.988807
1.0042 0.999521 0.987547
0.999436 1.00039 0.99821
1.00064 1.00044 0.992887
1.00271 1.00033 0.988977
0.999255 1.00034 0.998264
1.00022 1.00098 0.993097
0.999162 0.999859 0.998453
1.0051 0.998706 0.986624
1.00514 0.998215 0.98697
1.00513 0.99776 0.987408
1.00476 0.999301 0.986721
1.0051 0.998797 0.986533
1.00512 0.998183 0.987044
1.0051 0.998871 0.986479
1.00478 0.999408 0.986589
1.00373 0.999766 0.987694
1.00469 0.999629 0.986605
1.00362 0.999906 0.987906
1.00129 1.00006 0.992085
1.00342 0.999968 0.988352
1.00113 1.00006 0.992378
0.999722 0.999991 0.998094
1.00101 0.999997 0.992668
0.99967 0.999978 0.998148
0.999612 0.999885 0.996037
1.00504 0.998749 0.986725
1.00514 0.998228 0.98696
1.00455 0.999264 0.986951
1.00503 0.998743 0.986601
1.00514 0.998066 0.987116
1.0034 0.999681 0.988647
1.00454 0.999298 0.986946
1.00501 0.998868 0.986451
1.00103 0.999849 0.992753
1.00328 0.999706 0.988689
1.00444 0.999437 0.987292
0.999588 1.00016 0.998193
1.00088 1.00001 0.992866
1.00307 0.999842 0.988789
0.999401 1.00035 0.99821
1.00062 1.00044 0.992896
0.999182 1.00028 0.998305
1.00471 0.999243 0.986881
1.0051 0.998727 0.986603
1.00514 0.99823 0.986936
1.0037 0.999709 0.987805
1.00476 0.999316 0.98672
1.0051 0.998754 0.986588
1.00478 0.999416 0.986585
1.00373 0.999763 0.987687
1.00138 1.00004 0.991943
1.00361 0.999936 0.988021
1.00129 1.00006 0.992077
0.999837 1 0.997995
1.00114 1.00007 0.992365
0.999762 0.999993 0.998059
0.999699 0.999974 0.998117
1.00459 0.999264 0.986924
1.00503 0.998667 0.986744
1.00514 0.998155 0.98697
1.00346 0.999701 0.98853
1.00456 0.999266 0.98694
1.00501 0.998748 0.986601
1.00114 0.999868 0.992547
1.0034 0.999691 0.988641
1.00455 0.999292 0.98694
0.999711 0.999995 0.998136
1.00103 0.999849 0.992761
1.00328 0.999747 0.988787
0.999547 1.00018 0.998199
1.00088 1.00001 0.992872
0.99936 1.00034 0.998214
1.00364 0.999772 0.988127
1.00472 0.999215 0.986757
1.0051 0.998745 0.986581
1.00137 0.999989 0.991996
1.00371 0.999706 0.987791
1.00476 0.999329 0.986718
1.00374 0.999759 0.987681
1.00137 1.00003 0.991946
0.99992 1.00001 0.997915
1.00129 1.00006 0.992068
0.999867 1.00001 0.997958
0.999796 0.999995 0.998022
1.00354 0.999749 0.988343
1.0046 0.999211 0.986889
1.00502 0.998586 0.986764
1.00126 0.999969 0.99347
1.00346 0.999705 0.988523
1.00458 0.999268 0.986929
0.999781 0.999948 0.998061
1.00113 0.999887 0.992552
1.0034 0.999699 0.988635
0.999669 1.00003 0.998161
1.00102 0.999858 0.992769
0.999518 1.00019 0.998199
1.00137 0.99999 0.992032
1.00364 0.999735 0.988031
1.00474 0.999185 0.986634
0.999932 1 0.997911
1.00137 0.999995 0.991997
1.00372 0.999704 0.987776
1.00138 1.00002 0.991947
0.999933 1.00001 0.997908
0.999908 1.00001 0.997932
1.00137 1 0.993277
1.00354 0.999744 0.988345
1.00462 0.999157 0.986854
0.999592 0.999982 0.998229
1.00119 0.999981 0.992371
1.00347 0.999707 0.988516
0.999755 0.99997 0.998092
1.00113 0.999912 0.992558
0.999638 1.00005 0.998181
0.999903 1 0.995521
1.00137 0.999988 0.992645
1.00364 0.999701 0.987935
0.999927 1 0.997912
1.00136 0.999999 0.992002
0.99994 1.00001 0.997898
0.999621 1.00002 0.995834
1.0013 1 0.992765
1.00354 0.999741 0.988348
0.999693 0.999992 0.996957
1.00119 0.999987 0.992367
0.999728 0.999989 0.998119
0.999903 0.999998 0.997929
1.00132 0.99999 0.992104
0.999915 1 0.997919
0.999744 0.999999 0.996889
1.00125 1 0.992225
0.999784 0.999981 0.998051
0.999877 0.999994 0.997955
0.999827 0.999989 0.997998

TENSORS stress float
0.00132034 -4.04448e-05 0.000106776
-4.04448e-05 0.00038651 -1.22553e-05
0.000106776 -1.22553e-05 0.00036592
0.00388134 -9.10627e-05 0.000100223
-9.10627e-05 0.00180089 5.8694e-06
0.000100223 5.8694e-06 0.00179236
0.00131905 2.79217e-05 5.63207e-05
2.79217e-05 0.000401169 -3.61213e-06
5.63207e-05 -3.61213e-06 0.000370427
0.00168322 -3.11937e-05 0.000116481
-3.11937e-05 0.000557679 -8.6213e-06
0.000116481 -8.6213e-06 0.000537921
0.0014896 -4.03222e-05 0.000110491
-4.03222e-05 0.000470786 -1.1827e-05
0.000110491 -1.1827e-05 0.00044939
0.00118384 -1.96741e-05 9.6515e-05
-1.96741e-05 0.000309767 -1.07912e-05
9.6515e-05 -1.07912e-05 0.000292201
0.00123356 -7.72743e-06 9.58583e-06
-7.72743e-06 0.000288029 -6.89455e-06
9.58583e-06 -6.89455e-06 0.000223531
0.00376523 -0.000115374 5.43198e-06
-0.000115374 0.00173787 -6.09862e-07
5.43198e-06 -6.09862e-07 0.00172783
0.00471555 -0.000120292 1.9526e-05
-0.000120292 0.00225296 1.92354e-06
1.9526e-05 1.92354e-06 0.00223392
0.00390678 -0.000226995 -1.01579e-06
-0.000226995 0.00185421 3.43942e-06
-1.01579e-06 3.43942e-06 0.0018189
0.0013031 -1.562e-05 8.36222e-05
-1.562e-05 0.000362399 5.85641e-06
8.36222e-05 5.85641e-06 0.0003518
0.000754529 6.95516e-05 1.06965e-05
6.95516e-05 2.61296e-05 7.7011e-06
1.06965e-05 7.7011e-06 -2.87533e-05
0.00168223 -1.51348e-05 0.000133289
-1.51348e-05 0.000545482 1.5121e-06
0.000133289 1.5121e-06 0.000525422
0.00125811 1.34292e-05 1.77028e-05
1.34292e-05 0.000330702 1.88261e-06
1.77028e-05 1.88261e-06 0.000301845
0.00137203 8.26769e-05 -2.58633e-06
8.26769e-05 0.000440933 4.28891e-06
-2.58633e-06 4.28891e-06 0.000403151
0.0014776 -1.78226e-05 4.69987e-05
-1.78226e-05 0.000450302 -2.80392e-06
4.69987e-05 -2.80392e-06 0.00042742
0.00121221 3.3448e-05 4.7805e-05
3.3448e-05 0.000339844 -3.55024e-06
4.7805e-05 -3.55024e-06 0.000312583
0.00139847 1.12349e-05 5.36859e-05
1.12349e-05 0.000430795 -4.1303e-06
5.36859e-05 -4.1303e-06 0.000403407
0.00134138 -4.19514e-05 -2.23331e-05
-4.19514e-05 0.000335695 8.14617e-07
-2.23331e-05 8.14617e-07 0.00027831
0.00505558 -6.7835e-05 0.000139996
-6.7835e-05 0.00241357 -2.34411e-06
0.000139996 -2.34411e-06 0.00240903
0.00166192 -1.94357e-05 0.000119026
-1.94357e-05 0.000542982 -6.74171e-06
0.000119026 -6.74171e-06 0.000523004
0.00163093 -3.76508e-05 0.000114068
-3.76508e-05 0.000535752 -1.03986e-05
0.000114068 -1.03986e-05 0.000515274
0.0014578 -4.9608e-05 2.68102e-05
-4.9608e-05 0.000348066 -4.04457e-06
2.68102e-05 -4.04457e-06 0.000294136
0.00135865 -2.45156e-05 1.62058e-05
-2.45156e-05 0.000326258 -6.02509e-06
1.62058e-05 -6.02509e-06 0.000266446
0.00114335 2.44866e-05 7.68341e-05
2.44866e-05 0.00028145 -8.68424e-06
7.68341e-05 -8.68424e-06 0.000264918
0.00107516 -6.46587e-06 9.59396e-06
-6.46587e-06 0.000220684 -6.06928e-06
9.59396e-06 -6.06928e-06 0.000160328
0.00174978 -0.00013942 7.14074e-06
-0.00013942 0.000449772 -3.37315e-06
7.14074e-06 -3.37315e-06 0.000350674
0.00362858 -0.000134926 -7.62675e-05
-0.000134926 0.00166395 -3.48992e-06
-7.62675e-05 -3.48992e-06 0.00165199
0.00301319 -3.52879e-05 -6.49518e-05
-3.52879e-05 0.00131369 -1.90904e-06
-6.49518e-05 -1.90904e-06 0.00129157
0.00259659 -0.000102994 -4.09284e-05
-0.000102994 0.00111032 -1.48294e-06
-4.09284e-05 -1.48294e-06 0.00108398
0.0034105 -0.000116031 3.86868e-06
-0.000116031 0.00153339 -2.80227e-07
3.86868e-06 -2.80227e-07 0.00152702
0.000660053 5.90677e-05 -1.25325e-07
5.90677e-05 -2.02975e-05 -2.6206e-07
-1.25325e-07 -2.6206e-07 -7.47815e-05
0.00156825 4.31688e-05 0.00011866
4.31688e-05 0.000496844 7.99331e-06
0.00011866 7.99331e-06 0.000476048
0.00177459 6.00717e-05 0.000114534
6.00717e-05 0.000629122 1.02114e-05
0.000114534 1.02114e-05 0.000608699
0.00244123 0.000120723 7.13585e-05
0.000120723 0.000899885 8.40958e-06
7.13585e-05 8.40958e-06 0.000850325
0.00286706 -0.000126755 1.52216e-05
-0.000126755 0.00123184 1.40492e-06
1.52216e-05 1.40492e-06 0.0012253
0.002244 8.94734e-05 5.8687e-05
8.94734e-05 0.00083455 7.87466e-06
5.8687e-05 7.87466e-06 0.000786025
0.000673066 2.45605e-05 9.93366e-06
2.45605e-05 -1.12517e-05 9.41842e-06
9.93366e-06 9.41842e-06 -5.88413e-05
0.000944711 0.000102571 4.594e-06
0.000102571 8.53963e-05 1.96179e-06
4.594e-06 1.96179e-06 -1.27484e-05
0.00253528 -8.35558e-05 4.86956e-05
-8.35558e-05 0.00103529 2.70799e-06
4.86956e-05 2.70799e-06 0.00104124
0.00513106 3.01443e-05 4.24192e-07
3.01443e-05 0.00244977 -9.41188e-07
4.24192e-07 -9.41188e-07 0.00244689
0.00314094 2.49904e-05 -5.27348e-05
2.49904e-05 0.00136377 -1.12693e-06
-5.27348e-05 -1.12693e-06 0.00134719
0.00519032 6.69583e-05 0.000144554
6.69583e-05 0.00248279 1.01093e-06
0.000144554 1.01093e-06 0.00247848
0.00134974 -2.64674e-05 1.14281e-05
-2.64674e-05 0.00038153 1.18572e-06
1.14281e-05 1.18572e-06 0.000350711
0.000760967 -1.02926e-06 1.55811e-05
-1.02926e-06 -6.6864e-05 2.24037e-06
1.55811e-05 2.24037e-06 -0.00012848
0.00479036 6.92255e-05 5.04191e-05
6.92255e-05 0.0022733 2.89746e-06
5.04191e-05 2.89746e-06 0.00226159
0.00244938 2.39746e-05 7.33006e-05
2.39746e-05 0.000872389 4.48923e-06
7.33006e-05 4.48923e-06 0.000828672
0.00123983 -3.387e-05 -2.54759e-05
-3.387e-05 0.000328028 2.74234e-06
-2.54759e-05 2.74234e-06 0.000300606
0.00134887 1.3398e-05 -1.58102e-05
1.3398e-05 0.000406392 3.33536e-06
-1.58102e-05 3.33536e-06 0.000377651
0.00128177 0.000104427 -4.97714e-07
0.000104427 0.000396618 4.42401e-06
-4.97714e-07 4.42401e-06 0.000356841
0.00139703 -6.79195e-05 -5.82728e-05
-6.79195e-05 0.000356791 7.96911e-06
-5.82728e-05 7.96911e-06 0.000305171
0.00328085 3.94707e-05 -5.59623e-05
3.94707e-05 0.0014462 -1.00545e-06
-5.59623e-05 -1.00545e-06 0.00142188
0.00147183 -2.37839e-05 4.79855e-05
-2.37839e-05 0.000446285 -1.78066e-06
4.79855e-05 -1.78066e-06 0.000422109
0.00112933 4.8389e-05 3.70877e-05
4.8389e-05 0.000283124 -2.76737e-06
3.70877e-05 -2.76737e-06 0.000261234
0.00146392 -9.19532e-06 4.94002e-05
-9.19532e-06 0.000450036 -3.81105e-06
4.94002e-05 -3.81105e-06 0.000426164
0.001496 -5.29181e-05 -1.74399e-05
-5.29181e-05 0.00036617 6.13232e-07
-1.74399e-05 6.13232e-07 0.000314587
0.00121593 -2.43993e-05 -2.09615e-05
-2.43993e-05 0.000290275 3.59029e-07
-2.09615e-05 3.59029e-07 0.000234195
0.00143562 -5.75397e-05 -1.92303e-05
-5.75397e-05 0.000360335 9.52032e-07
-1.92303e-05 9.52032e-07 0.000305868
0.00184933 -0.000143371 -3.5597e-06
-0.000143371 0.000500446 1.06556e-06
-3.5597e-06 1.06556e-06 0.00040025
0.00511008 5.12232e-05 0.000134371
5.12232e-05 0.0024387 4.20794e-08
0.000134371 4.20794e-08 0.00243606
0.00166662 -5.71908e-06 0.000123902
-5.71908e-06 0.000541057 -4.61273e-06
0.000123902 -4.61273e-06 0.000520347
0.00232854 6.66282e-05 1.43443e-05
6.66282e-05 0.000815568 -1.28274e-06
1.43443e-05 -1.28274e-06 0.000759415
0.00144053 -5.21369e-05 2.71267e-05
-5.21369e-05 0.000336252 -3.60116e-06
2.71267e-05 -3.60116e-06 0.0002812
0.00144476 -4.30306e-05 2.31988e-05
-4.30306e-05 0.000349353 -4.92671e-06
2.31988e-05 -4.92671e-06 0.000293882
0.00194629 -9.61354e-05 8.53035e-06
-9.61354e-05 0.000463913 -1.98796e-06
8.53035e-06 -1.98796e-06 0.000371837
0.00144243 -0.000117605 9.87167e-06
-0.000117605 0.000232873 -3.87201e-06
9.87167e-06 -3.87201e-06 0.000133322
0.00116668 4.70476e-05 5.96696e-05
4.70476e-05 0.000279496 -7.45059e-06
5.96696e-05 -7.45059e-06 0.000267008
0.000901175 2.03436e-05 7.9873e-06
2.03436e-05 0.000140866 -4.6452e-06
7.9873e-06 -4.6452e-06 9.06429e-05
0.00152357 -0.000126487 4.95087e-06
-0.000126487 0.000379815 -2.72738e-06
4.95087e-06 -2.72738e-06 0.000283472
0.00123048 -0.000139001 4.62174e-06
-0.000139001 8.91494e-05 -1.96835e-06
4.62174e-06 -1.96835e-06 -3.7692e-05
0.00474805 -1.44924e-05 -0.000120894
-1.44924e-05 0.00225823 -6.79843e-06
-0.000120894 -6.79843e-06 0.00225299
0.00327153 -0.000123531 -6.4499e-05
-0.000123531 0.00145625 -2.76153e-06
-6.4499e-05 -2.76153e-06 0.0014498
0.00395126 -0.000137252 -8.54462e-05
-0.000137252 0.00185272 -5.07356e-06
-8.54462e-05 -5.07356e-06 0.00183637
0.000574368 5.59871e-05 -9.21743e-06
5.59871e-05 -6.28588e-05 -8.11782e-06
-9.21743e-06 -8.11782e-06 -0.000116945
0.00504033 4.24866e-05 -2.73941e-06
4.24866e-05 0.0024039 -8.08293e-07
-2.73941e-06 -8.08293e-07 0.00240052
0.0046426 -8.41346e-05 -4.79434e-06
-8.41346e-05 0.00222207 4.44923e-07
-4.79434e-06 4.44923e-07 0.00220714
0.000610116 9.76992e-05 -6.54662e-07
9.76992e-05 -0.000101967 -2.48954e-07
-6.54662e-07 -2.48954e-07 -0.000164937
0.00197713 -8.48506e-05 -2.63212e-05
-8.48506e-05 0.000736075 -3.15764e-07
-2.63212e-05 -3.15764e-07 0.000728446
0.000628089 8.99752e-05 -2.23545e-07
8.99752e-05 -4.83683e-05 -8.84542e-08
-2.23545e-07 -8.84542e-08 -0.000106944
0.00122135 4.2567e-06 1.61495e-05
4.2567e-06 0.00029733 2.93004e-07
1.61495e-05 2.93004e-07 0.000254413
0.000875256 9.71162e-05 2.68058e-07
9.71162e-05 4.63355e-05 -1.80324e-07
2.68058e-07 -1.80324e-07 -5.08771e-05
0.00280293 -9.10699e-05 5.97367e-05
-9.10699e-05 0.00118523 2.8311e-06
5.97367e-05 2.8311e-06 0.00118854
0.00065647 -6.90548e-05 -1.4231e-06
-6.90548e-05 -4.60614e-06 5.1435e-06
-1.4231e-06 5.1435e-06 -3.15284e-05
0.000733103 7.09924e-05 1.62679e-05
7.09924e-05 -5.90876e-05 7.61222e-06
1.62679e-05 7.61222e-06 -0.000120561
0.000779917 0.000105788 1.8786e-05
0.000105788 8.12154e-06 1.10498e-05
1.8786e-05 1.10498e-05 -5.53695e-05
0.0010672 0.0001069 9.41959e-06
0.0001069 4.44873e-06 4.10717e-06
9.41959e-06 4.10717e-06 -0.000102806
0.00169246 -4.14252e-05 3.23516e-05
-4.14252e-05 0.000563106 4.3682e-06
3.23516e-05 4.3682e-06 0.000531359
0.000998666 0.000113387 5.74921e-06
0.000113387 7.24749e-05 3.71423e-06
5.74921e-06 3.71423e-06 -2.91213e-05
0.000923473 8.0323e-05 4.23092e-06
8.0323e-05 0.000108351 2.38957e-06
4.23092e-06 2.38957e-06 1.31744e-05
0.00087034 0.000124921 1.66026e-06
0.000124921 9.48023e-06 -1.80722e-07
1.66026e-06 -1.80722e-07 -0.000111676
0.00230915 -7.59643e-05 3.85224e-05
-7.59643e-05 0.000905258 2.76514e-06
3.85224e-05 2.76514e-06 0.000913831
0.00244861 -8.51394e-05 1.88747e-06
-8.51394e-05 0.000988559 -1.50785e-07
1.88747e-06 -1.50785e-07 0.000994237
0.0049795 4.1921e-05 -0.000135956
4.1921e-05 0.00236854 -5.16845e-06
-0.000135956 -5.16845e-06 0.00236655
0.00508328 5.03437e-05 -0.000136487
5.03437e-05 0.00242516 -2.40547e-06
-0.000136487 -2.40547e-06 0.00242213
0.00519025 7.09173e-05 3.59999e-06
7.09173e-05 0.00248567 -6.73511e-07
3.59999e-06 -6.73511e-07 0.00247968
0.00317314 -1.69249e-05 -6.04966e-05
-1.69249e-05 0.00137799 -1.1415e-06
-6.04966e-05 -1.1415e-06 0.00136221
0.0016439 1.20863e-05 3.17009e-05
1.20863e-05 0.000420507 2.33756e-07
3.17009e-05 2.33756e-07 0.000366941
0.00317267 4.36037e-05 -5.85611e-05
4.36037e-05 0.00137947 -2.45451e-06
-5.85611e-05 -2.45451e-06 0.00136321
0.00162682 3.90471e-05 2.9584e-05
3.90471e-05 0.000423683 7.60935e-07
2.9584e-05 7.60935e-07 0.000371615
0.00520609 0.000127884 0.00013686
0.000127884 0.00249981 1.98338e-06
0.00013686 1.98338e-06 0.00248974
0.000710041 -5.46812e-06 1.51996e-05
-5.46812e-06 -9.85588e-05 5.79601e-07
1.51996e-05 5.79601e-07 -0.000159964
0.00251789 -2.30738e-06 7.53229e-05
-2.30738e-06 0.000906012 3.28414e-06
7.53229e-05 3.28414e-06 0.000861219
0.00119016 2.23953e-05 1.04077e-05
2.23953e-05 9.645e-06 1.52978e-06
1.04077e-05 1.52978e-06 -9.3806e-05
0.00239219 6.83619e-05 7.28051e-05
6.83619e-05 0.000847852 5.28695e-06
7.28051e-05 5.28695e-06 0.000802109
0.00117878 5.72857e-05 9.97332e-06
5.72857e-05 2.1554e-05 2.41001e-06
9.97332e-06 2.41001e-06 -7.95697e-05
0.00170496 2.25062e-05 -0.000131562
2.25062e-05 0.000560182 6.75019e-07
-0.000131562 6.75019e-07 0.00054032
0.00123258 -3.96722e-05 -2.1862e-05
-3.96722e-05 0.000323538 2.19747e-06
-2.1862e-05 2.19747e-06 0.00029451
0.00109703 8.70278e-05 -5.99029e-06
8.70278e-05 0.000277006 3.20744e-06
-5.99029e-06 3.20744e-06 0.000247353
0.00129816 -1.62967e-05 -2.25419e-05
-1.62967e-05 0.000365742 3.07544e-06
-2.25419e-05 3.07544e-06 0.000338367
0.00156669 -4.1966e-05 -6.30685e-05
-4.1966e-05 0.000400872 4.95144e-06
-6.30685e-05 4.95144e-06 0.00035221
0.0014869 -6.51051e-05 -6.0544e-05
-6.51051e-05 0.000383673 7.69096e-06
-6.0544e-05 7.69096e-06 0.000332309
0.00129287 -5.01909e-05 -5.16039e-05
-5.01909e-05 0.000322675 7.19011e-06
-5.16039e-05 7.19011e-06 0.00027244
0.00196685 -0.000148499 -1.49312e-05
-0.000148499 0.000561338 5.78908e-06
-1.49312e-05 5.78908e-06 0.000459859
0.00517427 -5.01236e-05 -2.17198e-06
-5.01236e-05 0.00247471 -6.72847e-07
-2.17198e-06 -6.72847e-07 0.00247026
0.00147303 1.2366e-05 5.52102e-05
1.2366e-05 0.000442204 -1.49114e-06
5.52102e-05 -1.49114e-06 0.000417572
0.00115486 5.76314e-06 -3.40468e-05
5.76314e-06 0.000155794 4.41826e-07
-3.40468e-05 4.41826e-07 0.000100039
0.00148258 -4.22791e-05 -1.88987e-05
-4.22791e-05 0.000355505 3.79005e-07
-1.88987e-05 3.79005e-07 0.000303376
0.00216409 7.71696e-05 5.50362e-05
7.71696e-05 0.000838137 -6.34304e-07
5.50362e-05 -6.34304e-07 0.000829932
0.00136861 9.87156e-06 -1.33107e-05
9.87156e-06 0.000389731 -2.00092e-07
-1.33107e-05 -2.00092e-07 0.000341843
0.00149353 -5.83527e-05 -1.78579e-05
-5.83527e-05 0.000372806 7.84689e-07
-1.78579e-05 7.84689e-07 0.000320051
0.00176938 -8.91036e-05 -5.8798e-06
-8.91036e-05 0.000365396 1.03136e-06
-5.8798e-06 1.03136e-06 0.000272254
0.00169413 -0.000137562 -2.62738e-06
-0.000137562 0.000468971 9.83704e-07
-2.62738e-06 9.83704e-07 0.000370261
0.00170789 -0.000126504 -1.84355e-06
-0.000126504 0.000378078 3.16895e-07
-1.84355e-06 3.16895e-07 0.000278969
0.00120591 -0.000136851 -8.20017e-08
-0.000136851 7.62918e-05 -1.37647e-07
-8.20017e-08 -1.37647e-07 -5.01921e-05
0.0007313 4.89225e-06 1.54133e-05
4.89225e-06 -8.344e-05 -1.2632e-06
1.54133e-05 -1.2632e-06 -0.000144518
0.00144916 -1.00152e-05 2.22048e-05
-1.00152e-05 0.000330569 -2.40808e-06
2.22048e-05 -2.40808e-06 0.000274918
0.00162568 -1.63119e-05 1.0116e-05
-1.63119e-05 0.00025455 -1.43678e-06
1.0116e-05 -1.43678e-06 0.000157411
0.00153072 -6.7411e-05 9.60752e-06
-6.7411e-05 0.000230469 -2.13207e-06
9.60752e-06 -2.13207e-06 0.000135893
0.00155048 -0.000105141 1.03505e-05
-0.000105141 0.000257216 -3.06603e-06
1.03505e-05 -3.06603e-06 0.000159948
0.00177306 -0.000103075 2.95568e-06
-0.000103075 0.000280467 -6.11107e-07
2.95568e-06 -6.11107e-07 0.000167628
0.00302857 0.000107163 5.89834e-05
0.000107163 0.00130863 -2.56864e-06
5.89834e-05 -2.56864e-06 0.00130818
0.00130816 -0.000130257 4.94504e-06
-0.000130257 7.84748e-05 -1.81839e-06
4.94504e-06 -1.81839e-06 -4.4807e-05
0.000582663 3.40549e-05 3.90171e-06
3.40549e-05 -4.7053e-05 -5.99009e-06
3.90171e-06 -5.99009e-06 -9.05796e-05
0.000661814 -8.33918e-05 3.415e-06
-8.33918e-05 -4.2794e-05 -2.17463e-06
3.415e-06 -2.17463e-06 -0.000134711
0.00131743 -0.000152055 4.08871e-06
-0.000152055 0.000200215 -2.29927e-06
4.08871e-06 -2.29927e-06 6.97901e-05
0.00138907 -0.000155082 2.43163e-06
-0.000155082 0.000120222 -1.00296e-06
2.43163e-06 -1.00296e-06 -1.81995e-05
0.000552236 6.48455e-05 1.20585e-07
6.48455e-05 -6.36615e-05 -5.89927e-06
1.20585e-07 -5.89927e-06 -9.86482e-05
0.000727975 3.36643e-05 3.37128e-07
3.36643e-05 1.01746e-05 -2.86524e-06
3.37128e-07 -2.86524e-06 -5.54197e-05
0.00496929 4.52149e-05 -0.00013647
4.52149e-05 0.00236721 -7.31607e-06
-0.00013647 -7.31607e-06 0.00236394
0.00432389 -0.000104505 -9.61816e-05
-0.000104505 0.00205137 -6.36963e-06
-9.61816e-05 -6.36963e-06 0.00203727
0.000585202 8.7366e-05 -1.41391e-05
8.7366e-05 -0.000115149 -8.30895e-06
-1.41391e-05 -8.30895e-06 -0.000178218
0.00293664 -0.000107439 -5.626e-05
-0.000107439 0.00126484 -2.52987e-06
-5.626e-05 -2.52987e-06 0.00126388
0.000554505 -4.1047e-06 -4.22867e-06
-4.1047e-06 -6.65846e-05 -7.21976e-06
-4.22867e-06 -7.21976e-06 -0.000111575
0.00053036 8.17119e-05 -1.16044e-05
8.17119e-05 -9.77119e-05 -8.36076e-06
-1.16044e-05 -8.36076e-06 -0.000156357
0.000828653 9.30259e-05 -4.65057e-06
9.30259e-05 1.98812e-05 -2.53179e-06
-4.65057e-06 -2.53179e-06 -7.66421e-05
0.0027065 -9.3761e-05 2.11634e-06
-9.3761e-05 0.00113391 -1.81928e-07
2.11634e-06 -1.81928e-07 0.0011368
0.000619255 -6.53355e-05 5.09486e-08
-6.53355e-05 -2.64271e-05 1.75238e-07
5.09486e-08 1.75238e-07 -5.2153e-05
0.00156002 8.39017e-05 2.8579e-05
8.39017e-05 0.000397926 8.71561e-07
2.8579e-05 8.71561e-07 0.000342771
0.00142069 0.000103805 2.45276e-05
0.000103805 0.000365246 6.46794e-07
2.45276e-05 6.46794e-07 0.000309557
0.00107738 0.000108614 3.35943e-07
0.000108614 1.05294e-05 -2.434e-07
3.35943e-07 -2.434e-07 -9.69267e-05
0.000642484 -3.87358e-05 -4.70587e-07
-3.87358e-05 -1.47393e-05 1.52554e-07
-4.70587e-07 1.52554e-07 -5.21817e-05
0.000935594 0.000108978 2.78152e-07
0.000108978 3.89983e-05 4.99833e-07
2.78152e-07 4.99833e-07 -6.19234e-05
0.000831897 7.3889e-05 3.151e-07
7.3889e-05 5.76338e-05 -2.39282e-07
3.151e-07 -2.39282e-07 -3.58149e-05
0.000808503 0.000121326 -5.50485e-08
0.000121326 -2.55696e-05 -4.34735e-08
-5.50485e-08 -4.34735e-08 -0.000147086
0.000638078 -5.21882e-05 2.49903e-06
-5.21882e-05 -1.37269e-05 5.37811e-06
2.49903e-06 5.37811e-06 -4.54965e-05
0.000691705 -5.73466e-05 5.272e-07
-5.73466e-05 1.8014e-06 4.07478e-06
5.272e-07 4.07478e-06 -1.69764e-05
0.000683072 -8.67771e-06 2.04134e-06
-8.67771e-06 -2.83501e-06 2.5446e-06
2.04134e-06 2.5446e-06 -6.49493e-05
0.00111107 9.10607e-05 9.89356e-06
9.10607e-05 -1.91662e-06 3.43458e-06
9.89356e-06 3.43458e-06 -0.000107307
0.0010377 0.00011569 7.90808e-06
0.00011569 4.11881e-05 4.31448e-06
7.90808e-06 4.31448e-06 -6.50589e-05
0.00130205 0.000133842 5.51865e-06
0.000133842 5.20101e-05 2.04197e-06
5.51865e-06 2.04197e-06 -7.90292e-05
0.000863669 5.47155e-05 3.30074e-06
5.47155e-05 8.82753e-05 2.62678e-06
3.30074e-06 2.62678e-06 2.07572e-06
0.000909089 0.000128849 1.6817e-06
0.000128849 -2.87313e-05 1.55186e-06
1.6817e-06 1.55186e-06 -0.000152754
0.00110387 0.000134605 1.91439e-06
0.000134605 0.000184242 4.41048e-07
1.91439e-06 4.41048e-07 6.14056e-05
0.00105008 0.000145508 -2.10356e-06
0.000145508 9.55018e-05 -1.53797e-06
-2.10356e-06 -1.53797e-06 -3.71241e-05
0.00216219 -6.74306e-05 3.23432e-05
-6.74306e-05 0.000815731 2.96823e-06
3.23432e-05 2.96823e-06 0.000827166
0.0022406 -7.57983e-05 1.0735e-06
-7.57983e-05 0.000867045 -1.17778e-07
1.0735e-06 -1.17778e-07 0.000875809
0.002351 -8.48415e-05 -3.75708e-05
-8.48415e-05 0.000935382 -2.61153e-06
-3.75708e-05 -2.61153e-06 0.000941218
0.000579475 6.05587e-05 9.78842e-07
6.05587e-05 -5.531e-05 -4.96589e-06
9.78842e-07 -4.96589e-06 -8.38366e-05
0.00282695 9.69868e-05 5.10779e-05
9.69868e-05 0.00119376 -2.71179e-06
5.10779e-05 -2.71179e-06 0.00119641
0.00502069 7.52027e-05 -0.000142623
7.52027e-05 0.0023928 -7.09163e-06
-0.000142623 -7.09163e-06 0.00238918
0.00497111 -2.2811e-05 -0.000129854
-2.2811e-05 0.00236531 -3.25241e-06
-0.000129854 -3.25241e-06 0.00236274
0.000734826 4.77262e-05 -1.52219e-05
4.77262e-05 -6.50411e-05 -3.93533e-06
-1.52219e-05 -3.93533e-06 -0.000124232
0.000711037 1.67684e-05 -1.53914e-05
1.67684e-05 -8.95313e-05 -2.33797e-06
-1.53914e-05 -2.33797e-06 -0.000150724
0.00515007 -6.27413e-05 -0.000134688
-6.27413e-05 0.0024613 -4.82977e-07
-0.000134688 -4.82977e-07 0.00245747
0.00519846 6.96221e-07 -1.17891e-06
6.96221e-07 0.00248512 4.67809e-07
-1.17891e-06 4.67809e-07 0.0024821
0.000708079 -3.68289e-06 -1.5864e-07
-3.68289e-06 -9.89138e-05 -2.4982e-07
-1.5864e-07 -2.4982e-07 -0.000160428
0.00161654 1.58217e-05 3.05599e-05
1.58217e-05 0.000414091 5.99408e-07
3.05599e-05 5.99408e-07 0.000361831
0.00119835 2.64884e-05 1.70426e-07
2.64884e-05 1.43296e-05 -1.64361e-07
1.70426e-07 -1.64361e-07 -8.92434e-05
0.000675567 4.97977e-05 2.39637e-07
4.97977e-05 -9.58878e-05 -1.39479e-07
2.39637e-07 -1.39479e-07 -0.000155094
0.00116699 5.93881e-05 -1.33206e-07
5.93881e-05 1.59721e-05 3.8372e-08
-1.33206e-07 3.8372e-08 -8.54766e-05
0.000699515 -1.33903e-05 1.55361e-05
-1.33903e-05 -0.000105044 -3.453e-07
1.55361e-05 -3.453e-07 -0.000166736
0.00120624 9.62798e-06 1.04553e-05
9.62798e-06 9.09436e-06 4.73996e-07
1.04553e-05 4.73996e-07 -9.56515e-05
0.00117954 4.00723e-05 1.01051e-05
4.00723e-05 1.62532e-05 2.14541e-06
1.01051e-05 2.14541e-06 -8.5474e-05
0.00144379 2.85484e-05 4.42483e-06
2.85484e-05 6.25102e-05 8.1102e-07
4.42483e-06 8.1102e-07 -5.69689e-05
0.00114813 7.3181e-05 9.99435e-06
7.3181e-05 7.34288e-06 2.61567e-06
9.99435e-06 2.61567e-06 -9.53516e-05
0.00145338 6.84892e-05 4.36161e-06
6.84892e-05 8.61576e-05 1.17126e-06
4.36161e-06 1.17126e-06 -3.19078e-05
0.00518045 -4.49532e-05 -0.000146004
-4.49532e-05 0.00247734 -5.59367e-07
-0.000146004 -5.59367e-07 0.00247311
0.00129028 -3.72891e-05 -1.6297e-05
-3.72891e-05 0.000350663 1.48108e-06
-1.6297e-05 1.48108e-06 0.000321063
-0.00010949 -4.91454e-07 -1.35747e-05
-4.91454e-07 -0.000540478 2.29646e-06
-1.35747e-05 2.29646e-06 -0.000607812
0.00157447 -2.76558e-05 -6.43601e-05
-2.76558e-05 0.000401797 3.62917e-06
-6.43601e-05 3.62917e-06 0.000352761
0.00302982 0.000142625 -1.64359e-05
0.000142625 0.00133012 1.37161e-06
-1.64359e-05 1.37161e-06 0.00131796
0.00186058 -3.09011e-05 -4.26972e-05
-3.09011e-05 0.000646092 5.9287e-06
-4.26972e-05 5.9287e-06 0.000604766
0.00154927 -5.6159e-05 -6.21702e-05
-5.6159e-05 0.000399745 6.5483e-06
-6.21702e-05 6.5483e-06 0.00034967
0.0015782 -8.19162e-05 -1.88609e-05
-8.19162e-05 0.000258913 3.59198e-06
-1.88609e-05 3.59198e-06 0.000164811
0.00197913 -0.000136145 -1.485e-05
-0.000136145 0.000526682 4.91118e-06
-1.485e-05 4.91118e-06 0.000427952
0.00191215 -0.000149864 -1.18998e-05
-0.000149864 0.000584261 5.3208e-06
-1.18998e-05 5.3208e-06 0.000483005
0.00118508 -0.000134944 -4.16004e-06
-0.000134944 6.55032e-05 1.54532e-06
-4.16004e-06 1.54532e-06 -6.0661e-05
0.000699029 7.51701e-06 3.90455e-08
7.51701e-06 -0.000101718 -2.3845e-07
3.90455e-08 -2.3845e-07 -0.000162636
0.00153038 -2.72273e-05 -2.15043e-05
-2.72273e-05 0.000372693 1.06959e-07
-2.15043e-05 1.06959e-07 0.000319198
0.00120252 -1.42001e-05 -4.05722e-06
-1.42001e-05 2.26224e-05 1.98561e-07
-4.05722e-06 1.98561e-07 -7.75844e-05
0.0017962 -7.03251e-05 -2.78718e-06
-7.03251e-05 0.00037421 3.65387e-07
-2.78718e-06 3.65387e-07 0.000281256
0.00303716 0.000104941 -1.18533e-06
0.000104941 0.00131429 -2.43719e-07
-1.18533e-06 -2.43719e-07 0.0013138
0.00116105 1.66717e-05 2.19822e-06
1.66717e-05 0.00026847 3.61954e-07
2.19822e-06 3.61954e-07 0.000227043
0.00115788 -9.95101e-05 4.44728e-07
-9.95101e-05 0.000224686 -2.59609e-07
4.44728e-07 -2.59609e-07 0.000132388
0.00155235 -0.000104096 -3.10482e-06
-0.000104096 0.000259195 5.92158e-07
-3.10482e-06 5.92158e-07 0.00016181
0.00147528 -9.44181e-05 -2.2355e-06
-9.44181e-05 0.000115389 6.33733e-07
-2.2355e-06 6.33733e-07 1.42171e-06
0.00101236 -0.000134696 -5.91461e-07
-0.000134696 3.69726e-05 -1.93685e-07
-5.91461e-07 -1.93685e-07 -9.21029e-05
0.00152678 -0.00013677 4.72834e-08
-0.00013677 0.000198959 -3.00227e-07
4.72834e-08 -3.00227e-07 7.67788e-05
0.00135348 -0.000152605 2.9178e-08
-0.000152605 0.000101503 -1.59087e-07
2.9178e-08 -1.59087e-07 -3.64606e-05
0.000579736 5.51113e-05 -8.17733e-07
5.51113e-05 -5.04989e-05 4.896e-08
-8.17733e-07 4.896e-08 -8.42602e-05
0.000704224 1.90724e-05 -1.69843e-07
1.90724e-05 -4.72583e-06 1.87168e-07
-1.69843e-07 1.87168e-07 -7.00256e-05
0.00119222 -7.3524e-06 1.02512e-05
-7.3524e-06 2.90044e-06 -1.41978e-06
1.02512e-05 -1.41978e-06 -0.000101086
0.00158635 -3.73391e-05 9.68172e-06
-3.73391e-05 0.000243593 -1.5942e-06
9.68172e-06 -1.5942e-06 0.000147689
0.00185352 -2.2005e-05 3.24822e-06
-2.2005e-05 0.000292836 -4.13552e-07
3.24822e-06 -4.13552e-07 0.000179937
0.0011909 -6.67557e-05 4.97116e-06
-6.67557e-05 -4.65043e-05 -1.56673e-06
4.97116e-06 -1.56673e-06 -0.000162551
0.00163935 -0.000126184 4.38528e-06
-0.000126184 0.000222175 -9.02391e-07
4.38528e-06 -9.02391e-07 0.000104755
0.00170128 -0.000100274 6.03406e-07
-0.000100274 0.000187965 -1.36083e-08
6.03406e-07 -1.36083e-08 7.16051e-05
0.00053118 4.57211e-05 2.46773e-06
4.57211e-05 -7.66049e-05 -6.04331e-06
2.46773e-06 -6.04331e-06 -0.000115034
0.00149943 -0.000142834 2.17625e-06
-0.000142834 0.000120867 -5.76589e-07
2.17625e-06 -5.76589e-07 -9.10013e-06
0.000654581 -5.17709e-05 2.30061e-06
-5.17709e-05 -2.91233e-05 -1.56064e-06
2.30061e-06 -1.56064e-06 -0.000115266
0.000524737 -0.000105039 2.75488e-06
-0.000105039 -0.000157524 -2.81953e-06
2.75488e-06 -2.81953e-06 -0.000279509
0.00189196 -0.000195161 1.55675e-06
-0.000195161 0.000468411 -7.0294e-07
1.55675e-06 -7.0294e-07 0.000321707
0.00159205 -0.000168648 -6.74956e-07
-0.000168648 0.000179933 8.57168e-07
-6.74956e-07 8.57168e-07 4.16377e-05
0.000786528 -1.10012e-05 1.4511e-06
-1.10012e-05 4.62843e-05 -2.86893e-06
1.4511e-06 -2.86893e-06 -3.11662e-05
0.000712365 3.25337e-05 1.10113e-06
3.25337e-05 -1.84453e-06 -2.17995e-06
1.10113e-06 -2.17995e-06 -5.84046e-05
0.000832133 -4.17105e-05 2.8276e-07
-4.17105e-05 6.97831e-05 -7.26531e-07
2.8276e-07 -7.26531e-07 -2.57502e-05
0.000645032 7.26109e-05 -1.43981e-05
7.26109e-05 -0.000102866 -6.70984e-06
-1.43981e-05 -6.70984e-06 -0.000164489
0.00263426 -9.58606e-05 -4.62068e-05
-9.58606e-05 0.00109549 -2.48467e-06
-4.62068e-05 -2.48467e-06 0.00109807
0.000583827 -5.91418e-05 -1.1787e-06
-5.91418e-05 -4.7797e-05 -4.30237e-06
-1.1787e-06 -4.30237e-06 -7.19249e-05
0.000522757 9.40123e-05 -1.35587e-05
9.40123e-05 -0.000122112 -8.9169e-06
-1.35587e-05 -8.9169e-06 -0.000183377
0.00108457 0.000110554 -9.47428e-06
0.000110554 1.50014e-05 -4.64419e-06
-9.47428e-06 -4.64419e-06 -9.26994e-05
0.000526998 -5.01452e-05 -1.70683e-06
-5.01452e-05 -7.42618e-05 -6.26378e-06
-1.70683e-06 -6.26378e-06 -0.000113006
0.000725704 6.65528e-05 -2.88653e-06
6.65528e-05 -8.79208e-07 -2.5434e-06
-2.88653e-06 -2.5434e-06 -9.26363e-05
0.000877263 0.000104644 -5.31835e-06
0.000104644 8.43314e-06 -2.84168e-06
-5.31835e-06 -2.84168e-06 -9.18614e-05
0.000745184 0.000117723 -2.82279e-06
0.000117723 -6.15883e-05 -5.45609e-07
-2.82279e-06 -5.45609e-07 -0.000183444
0.000587264 -6.14877e-05 1.70277e-06
-6.14877e-05 -4.03767e-05 -3.33659e-09
1.70277e-06 -3.33659e-09 -7.26177e-05
0.000658369 -5.3129e-05 -1.82719e-07
-5.3129e-05 -1.73285e-05 1.26778e-07
-1.82719e-07 1.26778e-07 -3.52014e-05
0.000692268 -3.87161e-05 3.10833e-07
-3.87161e-05 -1.43591e-06 2.94821e-07
3.10833e-07 2.94821e-07 -6.01613e-05
0.00112617 9.32701e-05 1.8151e-07
9.32701e-05 6.88306e-06 -2.46707e-07
1.8151e-07 -2.46707e-07 -9.89014e-05
0.00100855 0.000114558 5.67098e-07
0.000114558 2.68626e-05 -1.80016e-07
5.67098e-07 -1.80016e-07 -7.91547e-05
0.0013397 0.000136608 2.9767e-07
0.000136608 7.19777e-05 4.25952e-08
2.9767e-07 4.25952e-08 -5.94688e-05
0.000800314 4.8115e-05 5.16703e-08
4.8115e-05 5.64637e-05 -2.49939e-08
5.16703e-08 -2.49939e-08 -2.95466e-05
0.00108997 0.000138897 -1.81282e-07
0.000138897 7.01302e-05 -1.39723e-07
-1.81282e-07 -1.39723e-07 -5.45367e-05
0.00102413 0.000128969 3.29604e-07
0.000128969 0.000141136 -4.36275e-07
3.29604e-07 -4.36275e-07 1.88193e-05
0.000969923 0.000142913 -8.2037e-07
0.000142913 5.11968e-05 7.89942e-07
-8.2037e-07 7.89942e-07 -8.17513e-05
0.000701305 -4.74317e-05 1.92334e-06
-4.74317e-05 -4.7913e-06 3.44395e-06
1.92334e-06 3.44395e-06 -1.81078e-05
0.000726696 1.99629e-05 2.32285e-06
1.99629e-05 1.53337e-05 2.25755e-06
2.32285e-06 2.25755e-06 -5.74482e-05
0.000689375 -5.26042e-05 4.66382e-08
-5.26042e-05 -6.17429e-06 2.22944e-06
4.66382e-08 2.22944e-06 -5.4163e-05
0.000823399 2.83561e-05 3.80264e-07
2.83561e-05 7.44552e-05 7.11453e-07
3.80264e-07 7.11453e-07 -1.38626e-05
0.00135808 0.000111435 6.09802e-06
0.000111435 4.97021e-05 1.37356e-06
6.09802e-06 1.37356e-06 -7.64961e-05
0.00125622 0.000146235 4.29577e-06
0.000146235 9.25482e-05 3.02144e-06
4.29577e-06 3.02144e-06 -3.85774e-05
0.00153003 0.000150731 3.05445e-06
0.000150731 0.000117495 1.39077e-06
3.05445e-06 1.39077e-06 -2.33578e-05
0.00109246 0.000103416 2.05051e-06
0.000103416 0.000201736 1.64751e-06
2.05051e-06 1.64751e-06 9.03459e-05
0.00130696 0.000161606 -7.20891e-07
0.000161606 0.000154672 1.28004e-06
-7.20891e-07 1.28004e-06 2.00725e-05
0.000940642 0.000137948 -2.18971e-07
0.000137948 9.30535e-05 -1.86611e-06
-2.18971e-07 -1.86611e-06 -5.06064e-05
0.000836075 0.000139565 -5.32268e-07
0.000139565 -4.81158e-05 -8.4573e-07
-5.32268e-07 -8.4573e-07 -0.000184508
0.000757503 -2.50525e-05 1.30085e-06
-2.50525e-05 3.85674e-06 1.6209e-06
1.30085e-06 1.6209e-06 -2.809e-05
0.000700441 -3.59808e-05 1.44525e-06
-3.59808e-05 -2.1981e-05 3.34916e-06
1.44525e-06 3.34916e-06 -2.96641e-05
0.00209578 -5.95559e-05 2.79042e-05
-5.95559e-05 0.000769866 3.23533e-06
2.79042e-05 3.23533e-06 0.000783821
0.00212903 -6.70372e-05 1.30311e-06
-6.70372e-05 0.000796296 -1.16877e-07
1.30311e-06 -1.16877e-07 0.000808009
0.00217689 -7.46841e-05 -3.31679e-05
-7.46841e-05 0.000831219 -2.81662e-06
-3.31679e-05 -2.81662e-06 0.000840415
0.000622407 4.90083e-05 2.01578e-06
4.90083e-05 -4.20532e-05 -4.30297e-06
2.01578e-06 -4.30297e-06 -6.46388e-05
0.00264157 8.78434e-05 4.39275e-05
8.78434e-05 0.00108823 -2.93137e-06
4.39275e-05 -2.93137e-06 0.00109331
0.000611411 6.43369e-05 -4.42294e-07
6.43369e-05 -3.59583e-05 5.99181e-08
-4.42294e-07 5.99181e-08 -6.56481e-05
0.00286472 9.50144e-05 -1.38466e-06
9.50144e-05 0.00121392 -1.73277e-07
-1.38466e-06 -1.73277e-07 0.00121678
0.000700357 5.83239e-05 -1.48545e-05
5.83239e-05 -8.18032e-05 -5.16e-06
-1.48545e-05 -5.16e-06 -0.000141749
0.000705388 2.9872e-05 -1.49493e-05
2.9872e-05 -8.46454e-05 -3.21036e-06
-1.49493e-05 -3.21036e-06 -0.000144776
0.00115822 6.07066e-05 -9.78366e-06
6.07066e-05 1.18164e-05 -2.25114e-06
-9.78366e-06 -2.25114e-06 -8.98696e-05
0.00119623 2.84295e-05 -1.03224e-05
2.84295e-05 1.3548e-05 -1.83313e-06
-1.03224e-05 -1.83313e-06 -9.00941e-05
0.000727318 5.04256e-07 -1.57193e-05
5.04256e-07 -8.86607e-05 -1.16907e-06
-1.57193e-05 -1.16907e-06 -0.000149874
0.00521822 -7.46974e-05 -0.000143317
-7.46974e-05 0.00249744 1.15906e-06
-0.000143317 1.15906e-06 0.00249348
0.000720686 -1.54723e-06 1.03311e-07
-1.54723e-06 -9.43081e-05 -2.82523e-07
1.03311e-07 -2.82523e-07 -0.000155761
0.00121181 1.38906e-05 1.30873e-08
1.38906e-05 1.23207e-05 -2.7629e-07
1.30873e-08 -2.7629e-07 -9.24677e-05
0.0011752 4.09099e-05 4.91188e-09
4.09099e-05 1.45784e-05 -4.83895e-08
4.91188e-09 -4.83895e-08 -8.72789e-05
0.00146247 2.84264e-05 2.78725e-08
2.84264e-05 7.20793e-05 -7.15199e-08
2.78725e-08 -7.15199e-08 -4.74266e-05
0.0011537 7.58208e-05 -5.77836e-09
7.58208e-05 1.09234e-05 -2.08756e-07
-5.77836e-09 -2.08756e-07 -9.22498e-05
0.00144138 7.05456e-05 -6.34142e-08
7.05456e-05 8.01314e-05 1.97055e-07
-6.34142e-08 1.97055e-07 -3.8193e-05
0.00121683 -6.50699e-07 1.04227e-05
-6.50699e-07 1.31233e-05 -2.59002e-07
1.04227e-05 -2.59002e-07 -9.1605e-05
0.00147348 1.78772e-05 4.3772e-06
1.78772e-05 6.82705e-05 2.68839e-07
4.3772e-06 2.68839e-07 -5.1968e-05
0.00145352 4.88302e-05 4.4394e-06
4.88302e-05 8.08247e-05 1.05337e-06
4.4394e-06 1.05337e-06 -3.77792e-05
0.00159633 2.94988e-05 8.63526e-07
2.94988e-05 9.10095e-05 2.44439e-07
8.63526e-07 2.44439e-07 -2.7257e-05
0.00141146 8.9651e-05 4.64978e-06
8.9651e-05 6.62565e-05 7.57483e-07
4.64978e-06 7.57483e-07 -5.45609e-05
0.00156275 7.48099e-05 9.12273e-07
7.48099e-05 9.68338e-05 2.9841e-07
9.12273e-07 2.9841e-07 -2.37289e-05
0.000707115 1.0778e-05 -1.49196e-05
1.0778e-05 -9.83831e-05 6.79864e-07
-1.49196e-05 6.79864e-07 -0.000159341
0.00159621 -9.94e-06 -6.6501e-05
-9.94e-06 0.000405765 2.60556e-06
-6.6501e-05 2.60556e-06 0.000354934
0.000775414 -1.06009e-05 -1.08851e-05
-1.06009e-05 -0.000211493 1.74607e-06
-1.08851e-05 1.74607e-06 -0.000314816
0.00203486 -7.18375e-05 -1.65444e-05
-7.18375e-05 0.00050305 2.78159e-06
-1.65444e-05 2.78159e-06 0.000411907
0.00305889 0.00010128 -6.66352e-05
0.00010128 0.00132668 2.80881e-06
-6.66352e-05 2.80881e-06 0.00132646
0.00179763 1.25744e-05 -3.56609e-05
1.25744e-05 0.000616247 4.16008e-06
-3.56609e-05 4.16008e-06 0.000579138
0.00168832 -0.000123653 -7.95822e-06
-0.000123653 0.000510326 3.4047e-06
-7.95822e-06 3.4047e-06 0.000416942
0.00154567 -0.000102732 -1.60924e-05
-0.000102732 0.000256462 4.08896e-06
-1.60924e-05 4.08896e-06 0.000159053
0.00117152 -8.54982e-05 -6.14769e-06
-8.54982e-05 -5.29563e-05 1.54349e-06
-6.14769e-06 1.54349e-06 -0.000168023
0.00174326 -0.000143283 -5.8205e-06
-0.000143283 0.000318339 1.50371e-06
-5.8205e-06 1.50371e-06 0.000197243
0.00070215 -0.000116871 -3.53705e-06
-0.000116871 -0.000128999 1.587e-06
-3.53705e-06 1.587e-06 -0.000256666
0.00131659 -0.000150076 -1.76216e-06
-0.000150076 8.20948e-05 5.21595e-07
-1.76216e-06 5.21595e-07 -5.54071e-05
0.000617342 5.00309e-05 -2.77124e-06
5.00309e-05 -2.92653e-05 5.57584e-06
-2.77124e-06 5.57584e-06 -6.34467e-05
0.000693459 4.49469e-06 -1.72164e-06
4.49469e-06 -1.12858e-05 2.56988e-06
-1.72164e-06 2.56988e-06 -7.72294e-05
0.000998565 -3.34768e-06 -4.79123e-07
-3.34768e-06 -0.000101953 -3.40147e-07
-4.79123e-07 -3.40147e-07 -0.00020711
0.00160553 -3.91104e-05 -3.3264e-06
-3.91104e-05 0.000253527 2.51579e-07
-3.3264e-06 2.51579e-07 0.000157528
0.00177027 -1.86914e-05 -2.15738e-06
-1.86914e-05 0.000245092 5.61256e-07
-2.15738e-06 5.61256e-07 0.000131715
0.0015415 -7.2671e-05 1.067e-06
-7.2671e-05 0.000144582 -3.67425e-07
1.067e-06 -3.67425e-07 3.05284e-05
0.000589385 3.54468e-05 1.61112e-07
3.54468e-05 -4.72246e-05 1.50363e-07
1.61112e-07 1.50363e-07 -8.49179e-05
0.00081634 -6.5461e-05 -1.97093e-07
-6.5461e-05 5.82942e-05 6.85926e-08
-1.97093e-07 6.85926e-08 -2.95664e-05
0.000699727 -0.00011502 1.0584e-06
-0.00011502 -5.99229e-05 -9.88505e-07
1.0584e-06 -9.88505e-07 -0.000181037
0.00173158 -0.000127495 -1.19716e-06
-0.000127495 0.00027281 3.17209e-07
-1.19716e-06 3.17209e-07 0.000155573
0.00156201 -9.52002e-05 -6.59645e-07
-9.52002e-05 0.000110143 5.43947e-07
-6.59645e-07 5.43947e-07 -5.91824e-06
0.00149684 -0.000173463 -1.39234e-06
-0.000173463 0.000253066 8.0878e-07
-1.39234e-06 8.0878e-07 0.000106522
0.00144133 -0.000139862 8.07533e-08
-0.000139862 9.07911e-05 -3.24681e-07
8.07533e-08 -3.24681e-07 -3.88981e-05
0.00144937 -0.00016126 3.84542e-07
-0.00016126 0.000103744 4.14527e-07
3.84542e-07 4.14527e-07 -3.35814e-05
0.000747849 -1.48281e-05 -2.11398e-07
-1.48281e-05 2.45221e-05 -1.40271e-07
-2.11398e-07 -1.40271e-07 -5.3017e-05
0.000762279 -1.30875e-05 -6.83227e-07
-1.30875e-05 2.65249e-05 -3.04378e-07
-6.83227e-07 -3.04378e-07 -6.45971e-05
0.000711547 2.41345e-05 4.64858e-07
2.41345e-05 -3.92113e-06 2.76816e-07
4.64858e-07 2.76816e-07 -6.00216e-05
0.00186147 -3.02406e-06 3.11856e-06
-3.02406e-06 0.000285605 -6.6158e-07
3.11856e-06 -6.6158e-07 0.000169773
0.00167307 -4.34605e-05 3.91295e-06
-4.34605e-05 0.000198677 -5.70304e-07
3.91295e-06 -5.70304e-07 8.43368e-05
0.0017769 -1.86832e-05 1.001e-06
-1.86832e-05 0.000195487 1.77833e-07
1.001e-06 1.77833e-07 7.89978e-05
0.00155815 -6.85251e-05 8.91956e-07
-6.85251e-05 0.000100712 -1.05528e-06
8.91956e-07 -1.05528e-06 -1.69729e-05
0.00146271 -0.000121954 2.60068e-06
-0.000121954 6.52803e-05 2.17321e-07
2.60068e-06 2.17321e-07 -5.60663e-05
0.0017179 -9.31339e-05 -1.48791e-06
-9.31339e-05 0.000158974 5.63318e-07
-1.48791e-06 5.63318e-07 4.80137e-05
0.000739796 -3.54701e-05 2.18402e-06
-3.54701e-05 2.42606e-05 -1.96994e-06
2.18402e-06 -1.96994e-06 -6.03379e-05
0.00143935 -0.000141842 -6.99377e-07
-0.000141842 4.25723e-05 1.13939e-07
-6.99377e-07 1.13939e-07 -8.38894e-05
0.000882238 -0.000117044 1.06215e-06
-0.000117044 7.54763e-05 -4.28599e-07
1.06215e-06 -4.28599e-07 -3.5319e-05
0.000708872 -0.000131157 2.91503e-06
-0.000131157 -8.45593e-05 -3.47687e-06
2.91503e-06 -3.47687e-06 -0.000228296
0.00169964 -0.000193478 1.34372e-06
-0.000193478 0.000322456 7.68223e-07
1.34372e-06 7.68223e-07 0.000168468
0.00199086 -0.000189278 -3.7761e-06
-0.000189278 0.000356693 1.98324e-06
-3.7761e-06 1.98324e-06 0.000226155
0.000730833 2.12978e-05 1.39609e-06
2.12978e-05 3.08498e-06 -1.94054e-06
1.39609e-06 -1.94054e-06 -4.63439e-05
0.000850526 -6.42241e-05 1.12524e-06
-6.42241e-05 6.92071e-05 1.48187e-07
1.12524e-06 1.48187e-07 -2.61755e-05
0.000730849 3.32862e-06 3.62361e-07
3.32862e-06 1.37846e-05 -1.27039e-06
3.62361e-07 -1.27039e-06 -7.29558e-05
0.000963444 -0.000107405 -4.49823e-07
-0.000107405 0.000143163 1.19353e-06
-4.49823e-07 1.19353e-06 3.68132e-05
0.00113679 9.56815e-05 -1.03032e-05
9.56815e-05 1.32316e-05 -3.92024e-06
-1.03032e-05 -3.92024e-06 -9.29637e-05
0.000626633 -4.99915e-05 -2.08791e-06
-4.99915e-05 -3.51249e-05 -3.56617e-06
-2.08791e-06 -3.56617e-06 -5.23386e-05
0.000531053 -7.27885e-05 5.88861e-07
-7.27885e-05 -6.82492e-05 -5.54691e-06
5.88861e-07 -5.54691e-06 -0.00010216
0.000716203 -6.07951e-05 5.11357e-07
-6.07951e-05 1.45816e-05 -2.66032e-06
5.11357e-07 -2.66032e-06 -4.56067e-05
0.000969938 0.000112993 -6.80513e-06
0.000112993 7.67111e-06 -4.70654e-06
-6.80513e-06 -4.70654e-06 -9.81222e-05
0.00135748 0.00013825 -5.24944e-06
0.00013825 8.13995e-05 -2.0276e-06
-5.24944e-06 -2.0276e-06 -5.03762e-05
0.00072234 4.01975e-05 -1.93696e-06
4.01975e-05 1.64807e-05 -2.26838e-06
-1.93696e-06 -2.26838e-06 -6.89914e-05
0.000962801 0.000124509 -2.39436e-06
0.000124509 0.00010826 -1.91043e-06
-2.39436e-06 -1.91043e-06 -1.37245e-05
0.0012691 0.000148946 -2.28115e-06
0.000148946 0.000168231 -1.78946e-06
-2.28115e-06 -1.78946e-06 4.28949e-05
0.000845454 0.000137588 -1.43757e-06
0.000137588 -1.69188e-05 9.52924e-07
-1.43757e-06 9.52924e-07 -0.000149892
0.000673641 -4.57166e-05 7.35815e-08
-4.57166e-05 -1.9869e-05 2.97661e-08
7.35815e-08 2.97661e-08 -3.2939e-05
0.000748551 1.37702e-05 1.39425e-07
1.37702e-05 3.19533e-05 -4.64468e-08
1.39425e-07 -4.64468e-08 -4.33092e-05
0.000701129 -5.63713e-05 -2.38377e-07
-5.63713e-05 3.77698e-07 3.53585e-07
-2.38377e-07 3.53585e-07 -4.7728e-05
0.000826926 9.92575e-06 3.71261e-07
9.92575e-06 7.5456e-05 -2.28643e-07
3.71261e-07 -2.28643e-07 -1.14478e-05
0.00139375 0.00011337 1.06342e-06
0.00011337 6.79487e-05 6.25026e-08
1.06342e-06 6.25026e-08 -5.84673e-05
0.00121742 0.000145317 1.06937e-07
0.000145317 7.34534e-05 1.06015e-07
1.06937e-07 1.06015e-07 -5.77491e-05
0.00148792 0.000149087 8.49211e-08
0.000149087 9.64876e-05 3.79604e-07
8.49211e-08 3.79604e-07 -4.44791e-05
0.000987108 0.000102034 3.42721e-07
0.000102034 0.000145494 3.92772e-07
3.42721e-07 3.92772e-07 3.5346e-05
0.00148399 0.000171261 -6.61398e-07
0.000171261 0.000251883 -1.64754e-06
-6.61398e-07 -1.64754e-06 0.000116791
0.00111182 0.000149213 3.39342e-07
0.000149213 0.000186346 -1.20726e-06
3.39342e-07 -1.20726e-06 4.14723e-05
0.000902565 0.000143383 -1.91274e-06
0.000143383 -9.17104e-06 -2.22249e-07
-1.91274e-06 -2.22249e-07 -0.000141845
0.000702141 -4.15251e-05 1.73981e-06
-4.15251e-05 -1.34243e-05 3.35093e-06
1.73981e-06 3.35093e-06 -2.34698e-05
0.000724518 -4.89006e-05 4.80147e-07
-4.89006e-05 4.17494e-06 1.79116e-06
4.80147e-07 1.79116e-06 -3.60372e-05
0.000972489 5.66484e-05 1.54354e-06
5.66484e-05 0.000146771 6.96043e-07
1.54354e-06 6.96043e-07 4.84817e-05
0.000789511 1.37025e-05 1.44747e-07
1.37025e-05 4.99842e-05 1.2322e-06
1.44747e-07 1.2322e-06 -2.35666e-05
0.000893726 8.07518e-05 5.88642e-07
8.07518e-05 0.00012445 -2.00458e-07
5.88642e-07 -2.00458e-07 2.00557e-05
0.00157393 0.000119566 3.54274e-06
0.000119566 0.000113358 7.64705e-08
3.54274e-06 7.64705e-08 -1.92012e-05
0.00140487 0.000163994 9.30409e-07
0.000163994 0.000124183 3.6817e-06
9.30409e-07 3.6817e-06 -1.77986e-05
0.00165469 0.000162498 1.15457e-07
0.000162498 0.000153119 1.27629e-06
1.15457e-07 1.27629e-06 1.06459e-05
0.00110161 0.000140511 2.42497e-06
0.000140511 0.000215367 2.89696e-06
2.42497e-06 2.89696e-06 7.71643e-05
0.00130181 0.000171163 1.17622e-06
0.000171163 0.000129763 1.77343e-06
1.17622e-06 1.77343e-06 -7.50469e-06
0.00031281 0.000107589 1.25888e-06
0.000107589 -0.000280477 -2.2417e-06
1.25888e-06 -2.2417e-06 -0.000432758
0.000753663 -2.96579e-05 1.50851e-06
-2.96579e-05 5.54903e-06 1.5094e-06
1.50851e-06 1.5094e-06 -2.7595e-05
0.000779243 5.611e-06 5.01039e-07
5.611e-06 2.93267e-05 5.4295e-07
5.01039e-07 5.4295e-07 -2.36322e-05
0.000768765 -1.84646e-05 9.35179e-07
-1.84646e-05 6.62172e-06 1.75202e-06
9.35179e-07 1.75202e-06 -2.46791e-05
0.000761573 -2.4202e-05 1.29341e-07
-2.4202e-05 6.43994e-06 -6.86993e-09
1.29341e-07 -6.86993e-09 -2.56033e-05
0.00125389 -3.88325e-05 1.65395e-06
-3.88325e-05 0.000279476 2.04593e-06
1.65395e-06 2.04593e-06 0.000276648
0.000979457 -3.96284e-05 7.87049e-07
-3.96284e-05 0.000133337 -2.81309e-08
7.87049e-07 -2.81309e-08 0.000127192
0.000953748 -3.45655e-05 2.29819e-05
-3.45655e-05 0.000124845 6.15083e-06
2.29819e-05 6.15083e-06 0.000135237
0.00207715 -5.91393e-05 1.35618e-06
-5.91393e-05 0.000758307 -1.07279e-07
1.35618e-06 -1.07279e-07 0.000772533
0.0020972 -6.63966e-05 -2.94238e-05
-6.63966e-05 0.000777508 -3.06722e-06
-2.94238e-05 -3.06722e-06 0.000789564
0.000642812 4.2323e-05 2.03313e-06
4.2323e-05 -3.9498e-05 -4.01601e-06
2.03313e-06 -4.01601e-06 -5.81088e-05
0.00250622 7.91499e-05 3.82741e-05
7.91499e-05 0.00100787 -3.20812e-06
3.82741e-05 -3.20812e-06 0.00101531
0.000639935 5.27364e-05 4.00226e-08
5.27364e-05 -3.12684e-05 4.16047e-08
4.00226e-08 4.16047e-08 -5.46514e-05
0.00268711 8.69844e-05 -1.57345e-06
8.69844e-05 0.00111263 -1.50287e-07
-1.57345e-06 -1.50287e-07 0.00111787
0.00063301 5.89817e-05 -3.20541e-07
5.89817e-05 -2.51507e-05 5.39734e-06
-3.20541e-07 5.39734e-06 -5.4199e-05
0.00291187 9.28873e-05 -5.99707e-05
9.28873e-05 0.00123915 2.94719e-06
-5.99707e-05 2.94719e-06 0.00124223
0.00116509 7.85609e-05 -1.01682e-05
7.85609e-05 1.73555e-05 -2.96726e-06
-1.01682e-05 -2.96726e-06 -8.62472e-05
0.00117836 4.45527e-05 -9.84063e-06
4.45527e-05 1.69847e-05 -2.18592e-06
-9.84063e-06 -2.18592e-06 -8.51119e-05
0.00141788 6.87802e-05 -4.55808e-06
6.87802e-05 6.80414e-05 -7.94117e-07
-4.55808e-06 -7.94117e-07 -5.03297e-05
0.00148672 2.85885e-05 -4.63495e-06
2.85885e-05 8.45431e-05 -9.34634e-07
-4.63495e-06 -9.34634e-07 -3.49799e-05
0.0012174 1.68274e-05 -1.056e-05
1.68274e-05 1.55771e-05 -1.05837e-06
-1.056e-05 -1.05837e-06 -8.92759e-05
0.00070874 1.03316e-05 -1.54782e-05
1.03316e-05 -0.000100253 -2.27469e-07
-1.54782e-05 -2.27469e-07 -0.000161887
0.00121049 1.39603e-06 1.69793e-08
1.39603e-06 9.65267e-06 -1.11212e-07
1.69793e-08 -1.11212e-07 -9.51168e-05
0.00147596 1.96679e-05 -5.35338e-08
1.96679e-05 6.97787e-05 -1.73883e-07
-5.35338e-08 -1.73883e-07 -5.05011e-05
0.00144737 4.6217e-05 9.66962e-08
4.6217e-05 7.78615e-05 -7.87749e-08
9.66962e-08 -7.87749e-08 -4.07468e-05
0.00159813 3.01474e-05 -1.45255e-07
3.01474e-05 9.10028e-05 7.64488e-08
-1.45255e-07 7.64488e-08 -2.67099e-05
0.00142073 9.0244e-05 -1.63694e-07
9.0244e-05 7.04054e-05 -5.19575e-08
-1.63694e-07 -5.19575e-08 -5.04587e-05
0.00156105 7.40922e-05 -1.4514e-07
7.40922e-05 9.72574e-05 2.38421e-07
-1.4514e-07 2.38421e-07 -2.33801e-05
0.00147599 6.1525e-06 4.65059e-06
6.1525e-06 6.83901e-05 -1.15162e-07
4.65059e-06 -1.15162e-07 -5.19666e-05
0.00162357 2.36523e-05 2.62571e-07
2.36523e-05 8.5333e-05 3.00601e-07
2.62571e-07 3.00601e-07 -3.2489e-05
0.00155476 5.18277e-05 9.47712e-07
5.18277e-05 8.23496e-05 1.35171e-07
9.47712e-07 1.35171e-07 -3.69828e-05
0.00171267 3.57556e-05 -5.5614e-07
3.57556e-05 0.000105343 9.22988e-08
-5.5614e-07 9.22988e-08 -5.30311e-06
0.00160106 9.19667e-05 1.12226e-06
9.19667e-05 0.000120363 -3.64393e-07
1.12226e-06 -3.64393e-07 -3.94788e-06
0.00162067 7.2895e-05 -2.36438e-06
7.2895e-05 8.85506e-05 2.91574e-08
-2.36438e-06 2.91574e-08 -2.16513e-05
0.000796453 -1.24572e-06 -1.0193e-05
-1.24572e-06 -0.000211157 6.99453e-07
-1.0193e-05 6.99453e-07 -0.000317536
0.00163867 -4.2609e-05 -1.62606e-05
-4.2609e-05 0.000270964 2.26173e-06
-1.62606e-05 2.26173e-06 0.000174858
0.00167953 -1.20213e-05 -7.23074e-06
-1.20213e-05 0.000193462 1.18406e-06
-7.23074e-06 1.18406e-06 7.969e-05
0.00189304 -7.88031e-05 -4.65333e-06
-7.88031e-05 0.00033619 1.09751e-06
-4.65333e-06 1.09751e-06 0.000224117
0.000645673 2.54162e-05 -5.02453e-06
2.54162e-05 -1.71162e-05 5.58541e-06
-5.02453e-06 5.58541e-06 -5.51681e-05
0.000904596 -7.25852e-05 -3.83552e-06
-7.25852e-05 0.000106817 2.23586e-06
-3.83552e-06 2.23586e-06 1.76156e-05
0.000885925 -0.000126021 -8.08672e-07
-0.000126021 4.36735e-05 6.10487e-07
-8.08672e-07 6.10487e-07 -7.67065e-05
0.00183227 -0.000129123 -6.66318e-06
-0.000129123 0.000327966 1.52933e-06
-6.66318e-06 1.52933e-06 0.0002109
0.0014295 -9.02358e-05 -1.64859e-06
-9.02358e-05 3.59245e-05 8.22757e-07
-1.64859e-06 8.22757e-07 -7.98385e-05
0.00138729 -0.000137061 -2.34465e-06
-0.000137061 6.28671e-05 3.28485e-08
-2.34465e-06 3.28485e-08 -6.65528e-05
0.00109837 -0.000151644 -2.66617e-06
-0.000151644 3.5874e-05 1.82645e-06
-2.66617e-06 1.82645e-06 -0.000110498
0.00127202 -0.00015226 1.37355e-06
-0.00015226 8.93616e-06 -4.48675e-07
1.37355e-06 -4.48675e-07 -0.000127268
0.000709768 -1.76035e-05 -2.41562e-06
-1.76035e-05 1.49801e-06 2.29817e-06
-2.41562e-06 2.29817e-06 -7.5077e-05
0.000730457 -4.87109e-06 -1.16656e-06
-4.87109e-06 8.80952e-06 1.2256e-07
-1.16656e-06 1.2256e-07 -8.17234e-05
0.000710287 1.72234e-05 -9.7934e-07
1.72234e-05 -5.84361e-06 2.32514e-06
-9.7934e-07 2.32514e-06 -6.17386e-05
0.00167253 -1.8206e-06 -2.233e-06
-1.8206e-06 0.000180694 9.37676e-08
-2.233e-06 9.37676e-08 6.30354e-05
0.00167147 -4.83145e-05 -1.28458e-06
-4.83145e-05 0.000197889 1.73974e-07
-1.28458e-06 1.73974e-07 8.32316e-05
0.00164047 -1.5492e-05 -7.41285e-07
-1.5492e-05 0.000119036 2.97747e-07
-7.41285e-07 2.97747e-07 2.68392e-06
0.00167723 -6.80154e-05 -2.05491e-07
-6.80154e-05 0.000163469 -2.62429e-07
-2.05491e-07 -2.62429e-07 4.62574e-05
0.000776858 -4.20027e-05 2.91321e-08
-4.20027e-05 4.29891e-05 -2.02608e-07
2.91321e-08 -2.02608e-07 -4.16276e-05
0.000996574 -0.000124971 -3.07979e-07
-0.000124971 0.000135199 4.50375e-07
-3.07979e-07 4.50375e-07 2.33616e-05
0.00082996 -0.000136095 7.82537e-07
-0.000136095 -1.2916e-05 -1.4749e-06
7.82537e-07 -1.4749e-06 -0.000154872
0.00159377 -0.000125808 4.79894e-07
-0.000125808 0.00013952 -2.37066e-08
4.79894e-07 -2.37066e-08 1.808e-05
0.00164003 -9.01054e-05 2.00105e-07
-9.01054e-05 0.000115514 4.62174e-07
2.00105e-07 4.62174e-07 5.61419e-06
0.00140185 -0.000177939 -2.86077e-07
-0.000177939 0.000164351 6.1289e-07
-2.86077e-07 6.1289e-07 9.89604e-06
0.00153625 -0.000144597 -2.39373e-07
-0.000144597 9.27621e-05 -2.59031e-07
-2.39373e-07 -2.59031e-07 -3.36914e-05
0.00172464 -0.000177047 1.07992e-06
-0.000177047 0.000211618 7.24651e-07
1.07992e-06 7.24651e-07 8.36785e-05
0.000915567 -7.03696e-05 -2.50037e-07
-7.03696e-05 0.000106929 -1.22584e-07
-2.50037e-07 -1.22584e-07 9.88325e-06
0.000938241 -0.000106644 -3.53482e-07
-0.000106644 0.0001302 3.87997e-07
-3.53482e-07 3.87997e-07 2.23079e-05
0.000733116 1.56862e-05 1.52685e-07
1.56862e-05 4.11624e-06 1.01396e-07
1.52685e-07 1.01396e-07 -4.53421e-05
0.000695368 2.21073e-05 -9.33022e-08
2.21073e-05 -9.95138e-06 -5.208e-07
-9.33022e-08 -5.208e-07 -9.22325e-05
0.00164975 -5.25106e-06 1.41235e-06
-5.25106e-06 0.000114544 -6.18205e-07
1.41235e-06 -6.18205e-07 -4.24547e-06
0.00183333 -4.34672e-05 6.84475e-07
-4.34672e-05 0.00023224 2.33537e-07
6.84475e-07 2.33537e-07 0.000115471
0.00172125 -2.66052e-05 1.7034e-07
-2.66052e-05 0.000115664 1.62063e-07
1.7034e-07 1.62063e-07 2.79818e-06
0.00165771 -6.90385e-05 -1.78878e-06
-6.90385e-05 0.000111159 -5.79747e-07
-1.78878e-06 -5.79747e-07 3.06333e-06
0.00155145 -0.000118729 -9.5006e-07
-0.000118729 7.18851e-05 1.16941e-06
-9.5006e-07 1.16941e-06 -4.43434e-05
0.00168882 -8.84853e-05 -5.02599e-08
-8.84853e-05 0.000108373 1.90644e-07
-5.02599e-08 1.90644e-07 5.8685e-06
0.000869478 -0.000110837 1.11936e-06
-0.000110837 7.86854e-05 3.37946e-07
1.11936e-06 3.37946e-07 -2.37346e-05
0.00167842 -0.000153542 -4.33692e-06
-0.000153542 0.000131546 -1.33926e-07
-4.33692e-06 -1.33926e-07 1.534e-05
0.000553021 -0.000110178 -6.22186e-07
-0.000110178 -0.000104405 -2.47747e-06
-6.22186e-07 -2.47747e-06 -0.000232051
0.00127809 -0.000174601 2.54615e-06
-0.000174601 0.00019665 -2.15075e-06
2.54615e-06 -2.15075e-06 3.46031e-05
0.00159789 -0.000196008 -3.17407e-07
-0.000196008 0.000233507 2.86826e-06
-3.17407e-07 2.86826e-06 7.94402e-05
0.00203465 -0.000194753 -1.49976e-06
-0.000194753 0.000341612 4.09816e-07
-1.49976e-06 4.09816e-07 0.000218572
0.000740017 1.11067e-05 1.84737e-06
1.11067e-05 4.44621e-06 -1.92047e-06
1.84737e-06 -1.92047e-06 -4.08139e-05
0.000688175 9.90907e-06 2.83891e-07
9.90907e-06 -7.21094e-06 -1.18403e-06
2.83891e-07 -1.18403e-06 -8.77093e-05
0.000918733 -0.0001235 1.26105e-08
-0.0001235 0.000114828 1.47001e-06
1.26105e-08 1.47001e-06 4.41521e-06
0.000926233 -7.54261e-05 1.04606e-06
-7.54261e-05 0.000124586 1.14934e-07
1.04606e-06 1.14934e-07 2.60065e-05
0.000933791 -0.000124564 -1.00505e-06
-0.000124564 0.000128991 2.25013e-06
-1.00505e-06 2.25013e-06 1.59128e-05
0.000647455 -4.42844e-05 -2.02228e-06
-4.42844e-05 -3.40382e-05 -3.41153e-06
-2.02228e-06 -3.41153e-06 -4.69103e-05
0.00142337 0.00011514 -4.08331e-06
0.00011514 8.30648e-05 -1.25979e-06
-4.08331e-06 -1.25979e-06 -4.35842e-05
0.000703783 -5.86233e-05 -4.40217e-07
-5.86233e-05 1.82357e-06 -1.77173e-06
-4.40217e-07 -1.77173e-06 -4.63104e-05
0.000773997 -3.34853e-06 -2.29762e-07
-3.34853e-06 4.45974e-05 -2.67032e-06
-2.29762e-07 -2.67032e-06 -2.88253e-05
0.000831666 -7.94067e-06 8.39892e-07
-7.94067e-06 7.68499e-05 -9.12603e-07
8.39892e-07 -9.12603e-07 -8.43783e-06
0.00121495 0.000146177 -4.19602e-06
0.000146177 7.35545e-05 -2.86614e-06
-4.19602e-06 -2.86614e-06 -5.78321e-05
0.00144072 0.00014727 -2.34159e-06
0.00014727 7.29358e-05 -5.4753e-07
-2.34159e-06 -5.4753e-07 -6.81613e-05
0.000884203 0.000110818 -1.35743e-06
0.000110818 9.2908e-05 -8.04556e-07
-1.35743e-06 -8.04556e-07 -1.80357e-05
0.00128179 0.000160475 -1.77175e-06
0.000160475 0.000279045 -1.29915e-06
-1.77175e-06 -1.29915e-06 0.000132602
0.00167004 0.000181325 -1.41329e-06
0.000181325 0.000353791 -3.58544e-06
-1.41329e-06 -3.58544e-06 0.000218195
0.00103283 0.000150714 -3.34537e-06
0.000150714 6.4542e-05 1.30754e-06
-3.34537e-06 1.30754e-06 -6.48393e-05
0.000681399 -4.03954e-05 6.43867e-08
-4.03954e-05 -2.47137e-05 1.90377e-08
6.43867e-08 1.90377e-08 -3.46321e-05
0.000728731 -4.8479e-05 -2.75099e-07
-4.8479e-05 6.29827e-06 1.13875e-07
-2.75099e-07 1.13875e-07 -3.3758e-05
0.00091936 6.11252e-05 5.95297e-07
6.11252e-05 0.00011878 -5.94578e-08
5.95297e-07 -5.94578e-08 2.03158e-05
0.000789404 -1.741e-05 -2.33138e-07
-1.741e-05 4.83133e-05 1.68825e-07
-2.33138e-07 1.68825e-07 -2.34388e-05
0.000825411 5.83844e-05 6.70756e-07
5.83844e-05 8.41151e-05 -2.50499e-07
6.70756e-07 -2.50499e-07 -1.9017e-05
0.00152557 0.000118547 1.37086e-06
0.000118547 8.73345e-05 7.06085e-08
1.37086e-06 7.06085e-08 -4.55095e-05
0.00135911 0.000162657 -1.85638e-07
0.000162657 0.00010149 1.0388e-06
-1.85638e-07 1.0388e-06 -4.05911e-05
0.00158351 0.000160959 1.1616e-06
0.000160959 0.000115893 9.06864e-07
1.1616e-06 9.06864e-07 -2.71332e-05
0.00101298 0.000134482 1.15396e-06
0.000134482 0.000170279 1.23432e-06
1.15396e-06 1.23432e-06 3.27804e-05
0.0014753 0.000179542 1.18231e-06
0.000179542 0.000224169 -1.56907e-06
1.18231e-06 -1.56907e-06 8.68392e-05
0.000767751 0.000135957 -1.83815e-06
0.000135957 -3.73241e-05 -1.05183e-06
-1.83815e-06 -1.05183e-06 -0.000192312
0.000747399 -3.69044e-05 1.39305e-06
-3.69044e-05 8.22939e-06 1.52507e-06
1.39305e-06 1.52507e-06 -2.72767e-05
0.000796268 4.97115e-06 4.16357e-07
4.97115e-06 4.32759e-05 1.00188e-06
4.16357e-07 1.00188e-06 -1.66128e-05
0.0010385 0.000127699 -2.94555e-07
0.000127699 0.000193817 -3.26553e-07
-2.94555e-07 -3.26553e-07 7.21738e-05
0.000846832 1.12965e-05 3.40349e-07
1.12965e-05 9.00903e-05 4.73335e-07
3.40349e-07 4.73335e-07 2.51167e-06
0.00107364 6.3139e-05 -9.93721e-07
6.3139e-05 0.000217036 -2.57998e-06
-9.93721e-07 -2.57998e-06 0.000105081
0.0015642 0.00011582 -1.67898e-06
0.00011582 7.79696e-05 -2.15808e-06
-1.67898e-06 -2.15808e-06 -5.17614e-05
0.00146367 0.000178924 6.61383e-07
0.000178924 0.00011901 3.63532e-06
6.61383e-07 3.63532e-06 -2.49324e-05
0.00144622 0.000169934 -3.33521e-06
0.000169934 1.55019e-05 -5.96171e-07
-3.33521e-06 -5.96171e-07 -0.000120485
0.000837308 0.000130172 -2.1435e-07
0.000130172 8.25717e-05 2.00329e-06
-2.1435e-07 2.00329e-06 -8.039e-05
0.00127215 0.000182149 2.79954e-06
0.000182149 0.000140261 1.51167e-07
2.79954e-06 1.51167e-07 -1.37064e-05
0.000754024 -2.8872e-05 1.486e-08
-2.8872e-05 6.21082e-06 -4.67117e-09
1.486e-08 -4.67117e-09 -2.69981e-05
0.000659125 -1.41519e-05 1.06628e-06
-1.41519e-05 -3.97312e-05 1.01436e-06
1.06628e-06 1.01436e-06 -9.11306e-05
0.00071839 -2.37064e-05 -6.71604e-07
-2.37064e-05 -5.91519e-06 -6.1231e-08
-6.71604e-07 -6.1231e-08 -5.79408e-05
0.000964793 2.02111e-05 1.20384e-06
2.02111e-05 0.00014167 -3.60501e-07
1.20384e-06 -3.60501e-07 7.68603e-05
0.000804772 1.96465e-05 1.72583e-06
1.96465e-05 3.92452e-05 7.07387e-07
1.72583e-06 7.07387e-07 -1.24583e-05
0.000770644 -8.47387e-06 9.80145e-07
-8.47387e-06 5.11359e-06 1.72569e-06
9.80145e-07 1.72569e-06 -2.62894e-05
0.000769224 -1.89029e-05 -6.17173e-08
-1.89029e-05 7.10444e-06 7.54128e-09
-6.17173e-08 7.54128e-09 -2.4262e-05
0.00125628 -3.14174e-05 1.11776e-06
-3.14174e-05 0.000274603 2.07462e-06
1.11776e-06 2.07462e-06 0.000273331
0.000763512 -2.3679e-05 -1.21317e-06
-2.3679e-05 7.83545e-06 -1.73801e-06
-1.21317e-06 -1.73801e-06 -2.43077e-05
0.00127434 -3.6649e-05 -4.33379e-06
-3.6649e-05 0.000290204 -1.17713e-06
-4.33379e-06 -1.17713e-06 0.000287686
0.000948492 -2.90288e-05 2.00896e-05
-2.90288e-05 0.000113118 6.30902e-06
2.00896e-05 6.30902e-06 0.000125596
0.00126306 -4.10119e-05 -9.63848e-06
-4.10119e-05 0.000291306 -3.09217e-06
-9.63848e-06 -3.09217e-06 0.000287044
0.00147955 -4.29891e-05 1.83319e-05
-4.29891e-05 0.000417546 1.94893e-06
1.83319e-05 1.94893e-06 0.00043094
0.0020637 -5.863e-05 -2.60636e-05
-5.863e-05 0.000749604 -3.31845e-06
-2.60636e-05 -3.31845e-06 0.000764113
0.000657382 3.7965e-05 1.70326e-06
3.7965e-05 -3.90576e-05 -3.86958e-06
1.70326e-06 -3.86958e-06 -5.42912e-05
0.000659219 4.38852e-05 -1.18031e-07
4.38852e-05 -3.01086e-05 3.37604e-08
-1.18031e-07 3.37604e-08 -4.90407e-05
0.00240576 7.05849e-05 3.32705e-05
7.05849e-05 0.000945124 -3.47283e-06
3.32705e-05 -3.47283e-06 0.000955
0.00255736 7.92609e-05 -1.56254e-06
7.92609e-05 0.00103609 -1.52422e-07
-1.56254e-06 -1.52422e-07 0.00104346
0.00065992 5.6538e-05 -1.69718e-07
5.6538e-05 -1.89875e-05 4.74462e-06
-1.69718e-07 4.74462e-06 -4.32856e-05
0.0027361 8.51595e-05 -5.20853e-05
8.51595e-05 0.00113885 2.99878e-06
-5.20853e-05 2.99878e-06 0.00114443
0.00143175 9.0994e-05 -4.87495e-06
9.0994e-05 7.544e-05 -8.36506e-07
-4.87495e-06 -8.36506e-07 -4.54773e-05
0.00144698 4.70247e-05 -4.53429e-06
4.70247e-05 7.79999e-05 -1.22347e-06
-4.53429e-06 -1.22347e-06 -4.08207e-05
0.00155638 7.43951e-05 -1.03855e-06
7.43951e-05 9.61581e-05 1.90169e-07
-1.03855e-06 1.90169e-07 -2.46225e-05
0.00159555 3.07207e-05 -8.47832e-07
3.07207e-05 8.88241e-05 -1.27388e-07
-8.47832e-07 -1.27388e-07 -2.83405e-05
0.0014787 2.29689e-05 -4.38379e-06
2.29689e-05 7.1446e-05 -5.98714e-07
-4.38379e-06 -5.98714e-07 -4.89155e-05
0.00121672 6.29027e-06 -1.03742e-05
6.29027e-06 1.26876e-05 -3.99418e-08
-1.03742e-05 -3.99418e-08 -9.20472e-05
0.00148012 1.00645e-05 7.74743e-08
1.00645e-05 7.06666e-05 -8.75465e-08
7.74743e-08 -8.75465e-08 -4.97514e-05
0.0016267 1.39008e-05 -2.52826e-07
1.39008e-05 8.66648e-05 -4.90221e-10
-2.52826e-07 -4.90221e-10 -3.11935e-05
0.00157512 5.11954e-05 -3.14392e-08
5.11954e-05 9.46884e-05 -1.24567e-07
-3.14392e-08 -1.24567e-07 -2.46119e-05
0.00174193 3.78099e-05 3.02842e-07
3.78099e-05 0.00011959 2.81168e-07
3.02842e-07 2.81168e-07 1.04235e-05
0.00154518 9.15915e-05 -1.82123e-07
9.15915e-05 9.02766e-05 4.82027e-08
-1.82123e-07 4.82027e-08 -3.43857e-05
0.00161485 7.30841e-05 -9.48096e-08
7.30841e-05 8.41099e-05 5.31474e-07
-9.48096e-08 5.31474e-07 -2.50528e-05
0.00162863 2.50406e-08 1.09062e-06
2.50406e-08 9.10996e-05 3.29019e-08
1.09062e-06 3.29019e-08 -2.74532e-05
0.0017706 3.22422e-05 -3.50639e-07
3.22422e-05 0.000114751 4.3526e-07
-3.50639e-07 4.3526e-07 3.32524e-06
0.00161943 5.46555e-05 -1.94948e-06
5.46555e-05 6.75713e-05 -1.20267e-07
-1.94948e-06 -1.20267e-07 -3.99317e-05
0.00181934 4.43089e-05 -3.68916e-07
4.43089e-05 0.000136866 9.41766e-08
-3.68916e-07 9.41766e-08 3.51979e-05
0.00156866 8.44674e-05 -1.7422e-06
8.44674e-05 6.44906e-05 -1.37064e-06
-1.7422e-06 -1.37064e-06 -5.18399e-05
0.00189006 7.90042e-05 -5.76172e-07
7.90042e-05 0.00019512 2.08809e-08
-5.76172e-07 2.08809e-08 9.56828e-05
0.00148088 -1.09343e-06 -6.3759e-06
-1.09343e-06 7.42959e-05 8.23742e-07
-6.3759e-06 8.23742e-07 -4.51871e-05
0.00166528 -4.99883e-05 -6.44384e-06
-4.99883e-05 0.000194812 1.10721e-06
-6.44384e-06 1.10721e-06 7.99102e-05
0.0015065 -1.4283e-05 -1.97244e-06
-1.4283e-05 4.38941e-05 4.26567e-07
-1.97244e-06 4.26567e-07 -7.23704e-05
0.00179472 -6.80491e-05 -1.46559e-06
-6.80491e-05 0.000225482 5.54499e-07
-1.46559e-06 5.54499e-07 0.000108713
0.000823815 -4.94617e-05 -2.9908e-06
-4.94617e-05 6.68261e-05 1.95889e-06
-2.9908e-06 1.95889e-06 -1.77739e-05
0.00111184 -0.000132891 -1.76574e-06
-0.000132891 0.000195518 1.38028e-06
-1.76574e-06 1.38028e-06 8.26219e-05
0.000928514 -0.000139413 -8.67529e-07
-0.000139413 4.65881e-05 8.63979e-07
-8.67529e-07 8.63979e-07 -9.33951e-05
0.00171859 -0.000129388 -2.05058e-06
-0.000129388 0.000210409 1.62313e-08
-2.05058e-06 1.62313e-08 8.88981e-05
0.00155855 -8.71198e-05 1.21858e-06
-8.71198e-05 7.02063e-05 1.23522e-07
1.21858e-06 1.23522e-07 -3.8642e-05
0.00164792 -0.000148017 3.98911e-07
-0.000148017 0.000150592 -6.08178e-07
3.98911e-07 -6.08178e-07 2.41222e-05
0.00109818 -0.000162049 -1.62349e-06
-0.000162049 3.03118e-06 3.46124e-07
-1.62349e-06 3.46124e-07 -0.000151864
0.00144324 -0.000164297 4.59496e-06
-0.000164297 5.8789e-05 -1.44516e-06
4.59496e-06 -1.44516e-06 -6.65669e-05
0.000934896 -6.18565e-05 -1.24234e-06
-6.18565e-05 0.000117189 -3.43069e-07
-1.24234e-06 -3.43069e-07 2.08969e-05
0.000890821 -7.81221e-05 -6.40511e-07
-7.81221e-05 9.78867e-05 -6.33982e-07
-6.40511e-07 -6.33982e-07 -6.05545e-06
0.000731036 1.3273e-05 -1.41344e-06
1.3273e-05 2.75621e-06 2.01982e-06
-1.41344e-06 2.01982e-06 -4.6736e-05
0.000677801 3.33696e-05 1.34556e-07
3.33696e-05 -2.18532e-05 1.60051e-07
1.34556e-07 1.60051e-07 -0.000101369
0.00162221 -4.77456e-06 -3.87106e-08
-4.77456e-06 9.79543e-05 -2.29129e-07
-3.87106e-08 -2.29129e-07 -2.08858e-05
0.00178618 -4.0986e-05 -7.15837e-07
-4.0986e-05 0.000205548 3.07075e-07
-7.15837e-07 3.07075e-07 8.80826e-05
0.00167996 -2.57488e-05 -1.74873e-07
-2.57488e-05 9.70408e-05 -9.55079e-08
-1.74873e-07 -9.55079e-08 -1.54959e-05
0.00162057 -6.79483e-05 -1.64634e-07
-6.79483e-05 9.45086e-05 -1.94586e-07
-1.64634e-07 -1.94586e-07 -1.46747e-05
0.000959908 -0.000100827 -2.96263e-07
-0.000100827 0.00012472 2.87944e-07
-2.96263e-07 2.87944e-07 2.35777e-05
0.000668286 -0.000115916 6.048e-07
-0.000115916 -4.06814e-05 -8.03945e-07
6.048e-07 -8.03945e-07 -0.000166502
0.00125604 -0.000172043 -8.94734e-08
-0.000172043 0.000188536 2.34617e-07
-8.94734e-08 2.34617e-07 2.5524e-05
0.00164026 -0.000122469 -4.34171e-07
-0.000122469 0.000120387 2.57276e-07
-4.34171e-07 2.57276e-07 3.23011e-06
0.00164037 -8.74155e-05 8.34118e-07
-8.74155e-05 8.29388e-05 -3.43934e-07
8.34118e-07 -3.43934e-07 -1.83745e-05
0.00153882 -0.000191736 -6.56862e-07
-0.000191736 0.000199944 1.05988e-06
-6.56862e-07 1.05988e-06 4.57784e-05
0.00161663 -0.000150941 -5.26043e-07
-0.000150941 9.85962e-05 -2.45147e-07
-5.26043e-07 -2.45147e-07 -1.77643e-05
0.00168631 -0.000177868 2.20163e-06
-0.000177868 0.000159687 -1.30581e-06
2.20163e-06 -1.30581e-06 4.07126e-05
0.000991004 -0.000128254 1.00121e-07
-0.000128254 0.000153635 7.85345e-08
1.00121e-07 7.85345e-08 4.27277e-05
0.000973657 -0.000119199 2.28073e-07
-0.000119199 0.000147721 3.07188e-07
2.28073e-07 3.07188e-07 3.59924e-05
0.000891162 -5.04551e-05 -2.84275e-07
-5.04551e-05 0.000102481 -1.03362e-07
-2.84275e-07 -1.03362e-07 6.56787e-06
0.000617328 2.06406e-05 -3.99787e-07
2.06406e-05 -6.23455e-05 4.97543e-08
-3.99787e-07 4.97543e-08 -0.000109024
0.000677093 2.63432e-05 1.03517e-07
2.63432e-05 -1.79177e-05 -3.94268e-07
1.03517e-07 -3.94268e-07 -9.45219e-05
0.00176515 -1.64871e-05 3.33843e-07
-1.64871e-05 0.000117862 -1.28633e-07
3.33843e-07 -1.28633e-07 6.24744e-06
0.00169765 -3.97382e-05 -5.39722e-07
-3.97382e-05 9.9411e-05 1.84552e-07
-5.39722e-07 1.84552e-07 -1.00915e-05
0.00170487 -7.92785e-05 -7.48574e-07
-7.92785e-05 9.88506e-05 -3.69909e-07
-7.48574e-07 -3.69909e-07 2.99475e-06
0.00157454 -0.000112973 -1.17698e-06
-0.000112973 4.15027e-05 6.84014e-07
-1.17698e-06 6.84014e-07 -6.36849e-05
0.00088372 -0.000123839 -5.82774e-07
-0.000123839 9.19944e-05 9.01489e-07
-5.82774e-07 9.01489e-07 -2.25705e-05
0.00194843 -0.000176587 -2.26277e-06
-0.000176587 0.000233904 -8.4071e-07
-2.26277e-06 -8.4071e-07 0.00012447
0.000164171 -9.01557e-05 1.61077e-07
-9.01557e-05 -0.000310962 -4.10668e-06
1.61077e-07 -4.10668e-06 -0.000449595
0.00146601 -0.000197015 3.24164e-06
-0.000197015 0.000264525 -9.61351e-07
3.24164e-06 -9.61351e-07 8.62242e-05
0.00189231 -0.000215326 4.57716e-07
-0.000215326 0.00031691 1.54745e-06
4.57716e-07 1.54745e-06 0.000169557
0.000500844 2.2627e-05 1.26947e-06
2.2627e-05 -0.00012926 -2.62858e-06
1.26947e-06 -2.62858e-06 -0.000173647
0.000896372 -4.78043e-06 1.41208e-06
-4.78043e-06 0.00010505 -6.32266e-07
1.41208e-06 -6.32266e-07 3.31841e-05
0.000940181 -3.30311e-05 -1.67033e-07
-3.30311e-05 0.000131736 1.21724e-07
-1.67033e-07 1.21724e-07 4.37565e-05
0.000944858 -0.000126289 -1.33972e-06
-0.000126289 0.000127416 2.21933e-06
-1.33972e-06 2.21933e-06 1.48204e-05
0.000995037 -7.92081e-05 3.58949e-07
-7.92081e-05 0.000158731 1.52659e-06
3.58949e-07 1.52659e-06 5.36604e-05
0.000882747 -0.000122472 -6.01976e-07
-0.000122472 9.10914e-05 1.98324e-06
-6.01976e-07 1.98324e-06 -2.2638e-05
0.000663478 -3.94383e-05 -1.73531e-06
-3.94383e-05 -3.44013e-05 -3.38737e-06
-1.73531e-06 -3.38737e-06 -4.42195e-05
0.000730817 -4.60077e-05 -1.55729e-06
-4.60077e-05 6.70833e-06 -1.37285e-06
-1.55729e-06 -1.37285e-06 -3.28535e-05
0.00148223 0.000117709 -1.14702e-06
0.000117709 6.38866e-05 -3.56109e-08
-1.14702e-06 -3.56109e-08 -6.92402e-05
0.000799433 -5.03226e-05 5.81756e-07
-5.03226e-05 5.21787e-05 -1.02913e-06
5.81756e-07 -1.02913e-06 -1.78564e-05
0.000832001 5.40839e-05 -2.38738e-07
5.40839e-05 6.9668e-05 -3.09019e-07
-2.38738e-07 -3.09019e-07 -2.66252e-05
0.000742612 3.6403e-05 9.38443e-07
3.6403e-05 3.53332e-05 1.59129e-07
9.38443e-07 1.59129e-07 -6.61572e-05
0.0013141 0.000161258 -1.77948e-06
0.000161258 7.91907e-05 -1.80278e-06
-1.77948e-06 -1.80278e-06 -6.29742e-05
0.00151052 0.000159212 2.19166e-07
0.000159212 7.78867e-05 1.89786e-07
2.19166e-07 1.89786e-07 -6.56585e-05
0.00100241 0.000133428 1.83777e-07
0.000133428 0.000167524 -3.09974e-07
1.83777e-07 -3.09974e-07 3.04804e-05
0.00126907 0.000167106 -4.1502e-07
0.000167106 0.000230737 1.48284e-07
-4.1502e-07 1.48284e-07 7.38725e-05
0.00162664 0.000186963 -2.30802e-06
0.000186963 0.000306775 -3.76871e-06
-2.30802e-06 -3.76871e-06 0.00016945
0.000747017 -3.60102e-05 -7.33579e-08
-3.60102e-05 8.11655e-06 2.04714e-08
-7.33579e-08 2.04714e-08 -2.73343e-05
0.000784954 -2.60117e-05 -4.8282e-07
-2.60117e-05 3.68183e-05 2.89628e-07
-4.8282e-07 2.89628e-07 -2.24663e-05
0.000989752 0.000124643 -4.89723e-07
0.000124643 0.000169152 -5.30707e-08
-4.89723e-07 -5.30707e-08 4.79076e-05
0.000833726 -1.00015e-05 3.02254e-07
-1.00015e-05 7.9652e-05 2.19983e-08
3.02254e-07 2.19983e-08 -5.65705e-06
0.000909755 6.99648e-05 1.14106e-07
6.99648e-05 0.000131892 -6.45666e-07
1.14106e-07 -6.45666e-07 1.76903e-05
0.0015974 0.000119382 -7.84386e-07
0.000119382 9.6829e-05 -8.90202e-07
-7.84386e-07 -8.90202e-07 -3.38568e-05
0.00145301 0.000177948 1.00289e-06
0.000177948 0.000113845 8.69163e-07
1.00289e-06 8.69163e-07 -3.01812e-05
0.0015072 0.000169487 7.66668e-07
0.000169487 4.80853e-05 5.61944e-07
7.66668e-07 5.61944e-07 -8.49582e-05
0.000739953 0.000125188 5.95946e-07
0.000125188 2.67422e-05 1.98748e-06
5.95946e-07 1.98748e-06 -0.000134142
0.00139029 0.000189436 -1.142e-06
0.000189436 0.000205539 -8.81211e-07
-1.142e-06 -8.81211e-07 4.78052e-05
0.000794941 1.88558e-06 9.25982e-07
1.88558e-06 3.77396e-05 6.73918e-07
9.25982e-07 6.73918e-07 -1.5059e-05
0.000668813 -3.26778e-05 -8.52788e-07
-3.26778e-05 -1.7941e-05 1.37317e-06
-8.52788e-07 1.37317e-06 -9.25065e-05
0.000962831 0.000130964 -1.59105e-06
0.000130964 0.000155992 -1.89243e-06
-1.59105e-06 -1.89243e-06 1.7319e-05
0.000703325 2.32109e-05 -6.48308e-07
2.32109e-05 1.66716e-05 -6.94082e-07
-6.48308e-07 -6.94082e-07 -8.74917e-05
0.00101849 0.000101837 -7.90726e-07
0.000101837 0.000184376 -2.41604e-06
-7.90726e-07 -2.41604e-06 6.16264e-05
0.00154816 0.000125695 -3.45696e-06
0.000125695 1.22832e-05 -2.2799e-06
-3.45696e-06 -2.2799e-06 -9.28194e-05
0.00197358 0.000221994 -1.15411e-06
0.000221994 0.000370348 9.99379e-07
-1.15411e-06 9.99379e-07 0.000219878
0.00117273 0.000155564 -5.78688e-07
0.000155564 -0.000156566 -2.63811e-07
-5.78688e-07 -2.63811e-07 -0.000277818
0.00185947 0.000199565 3.14499e-06
0.000199565 0.000596452 4.2525e-06
3.14499e-06 4.2525e-06 0.000413653
0.000155799 0.000130519 -8.11311e-07
0.000130519 -0.000476435 -4.48797e-07
-8.11311e-07 -4.48797e-07 -0.000638276
0.00075554 -2.7477e-05 -1.63968e-06
-2.7477e-05 7.47579e-06 -1.51335e-06
-1.63968e-06 -1.51335e-06 -2.57718e-05
0.000726198 -1.19149e-05 1.65498e-07
-1.19149e-05 -1.5592e-06 4.61934e-07
1.65498e-07 4.61934e-07 -5.33566e-05
0.000708491 -4.18698e-05 -1.88757e-07
-4.18698e-05 -3.76667e-06 5.51108e-07
-1.88757e-07 5.51108e-07 -6.6913e-05
0.000660697 -4.44201e-05 -9.33375e-07
-4.44201e-05 -3.80792e-05 -4.48243e-07
-9.33375e-07 -4.48243e-07 -9.00713e-05
0.000800613 -3.82846e-06 1.5098e-07
-3.82846e-06 3.65016e-05 -1.49556e-08
1.5098e-07 -1.49556e-08 -1.47792e-05
0.000820675 -1.518e-05 1.58478e-07
-1.518e-05 5.72846e-05 -3.34242e-07
1.58478e-07 -3.34242e-07 -3.93411e-06
0.000924125 8.05557e-06 8.50891e-08
8.05557e-06 0.000121477 -7.38687e-07
8.50891e-08 -7.38687e-07 5.25311e-05
0.00073321 -3.5552e-05 5.43249e-07
-3.5552e-05 1.25389e-05 -3.15508e-08
5.43249e-07 -3.15508e-08 -5.10727e-05
0.000828701 9.08092e-07 4.59882e-07
9.08092e-07 4.72999e-05 5.34695e-07
4.59882e-07 5.34695e-07 -2.30819e-06
0.000764853 -6.2856e-07 9.46717e-07
-6.2856e-07 1.88321e-06 1.57618e-06
9.46717e-07 1.57618e-06 -3.04703e-05
0.000770721 -1.22277e-05 -1.59802e-07
-1.22277e-05 5.58344e-06 -4.55223e-09
-1.59802e-07 -4.55223e-09 -2.59376e-05
0.00126057 -2.32103e-05 1.05133e-06
-2.32103e-05 0.000272306 2.0253e-06
1.05133e-06 2.0253e-06 0.000271724
0.000768783 -1.91972e-05 -9.63172e-07
-1.91972e-05 7.09939e-06 -1.7917e-06
-9.63172e-07 -1.7917e-06 -2.43277e-05
0.00127707 -2.93506e-05 -3.68071e-06
-2.93506e-05 0.000285803 -1.2154e-06
-3.68071e-06 -1.2154e-06 0.000284654
0.00094877 -2.39358e-05 1.63449e-05
-2.39358e-05 0.000107136 6.47757e-06
1.63449e-05 6.47757e-06 0.000120854
0.0012935 -3.5054e-05 -8.1805e-06
-3.5054e-05 0.000300326 -4.48208e-06
-8.1805e-06 -4.48208e-06 0.000297965
0.000890295 -3.02196e-05 6.55405e-06
-3.02196e-05 8.10799e-05 2.42602e-06
6.55405e-06 2.42602e-06 9.32606e-05
0.00199205 -5.59257e-05 -6.16475e-06
-5.59257e-05 0.000702729 -1.52008e-06
-6.16475e-06 -1.52008e-06 0.000718422
0.000672585 3.37705e-05 1.25853e-06
3.37705e-05 -3.76262e-05 -3.70654e-06
1.25853e-06 -3.70654e-06 -4.97396e-05
0.000672172 3.88185e-05 -1.49114e-07
3.88185e-05 -3.0871e-05 3.27243e-08
-1.49114e-07 3.27243e-08 -4.62838e-05
0.00232135 6.1986e-05 2.85132e-05
6.1986e-05 0.000890814 -3.68658e-06
2.85132e-05 -3.68658e-06 0.000903139
0.000676813 4.59624e-05 -1.72925e-06
4.59624e-05 -1.98354e-05 4.13301e-06
-1.72925e-06 4.13301e-06 -3.91887e-05
0.00244656 7.09472e-05 -1.66138e-06
7.09472e-05 0.000968304 -1.33152e-07
-1.66138e-06 -1.33152e-07 0.00097796
0.00259294 7.83678e-05 -4.40781e-05
7.83678e-05 0.00105561 3.10183e-06
-4.40781e-05 3.10183e-06 0.00106313
0.00148737 9.11023e-05 -2.06374e-06
9.11023e-05 5.91833e-05 3.21169e-07
-2.06374e-06 3.21169e-07 -6.5832e-05
0.00159873 4.97668e-05 -6.31559e-07
4.97668e-05 0.000108604 -3.24686e-07
-6.31559e-07 -3.24686e-07 -1.06086e-05
0.00160129 7.31743e-05 2.29218e-06
7.31743e-05 7.55161e-05 1.02515e-06
2.29218e-06 1.02515e-06 -3.26196e-05
0.00176984 3.98296e-05 1.40925e-06
3.98296e-05 0.000132991 1.46988e-07
1.40925e-06 1.46988e-07 2.53091e-05
0.00163056 7.1513e-06 -1.01139e-06
7.1513e-06 8.84124e-05 -2.22719e-07
-1.01139e-06 -2.22719e-07 -2.95107e-05
0.00148163 1.32396e-05 -4.31462e-06
1.32396e-05 7.15294e-05 -3.61625e-08
-4.31462e-06 -3.61625e-08 -4.89145e-05
0.00162441 3.25175e-06 -1.80723e-07
3.25175e-06 8.83431e-05 -3.17562e-08
-1.80723e-07 -3.17562e-08 -3.09021e-05
0.00175559 2.622e-05 3.68196e-07
2.622e-05 0.000108614 -4.33198e-08
3.68196e-07 -4.33198e-08 -3.39399e-06
0.00163604 5.20953e-05 -6.16579e-07
5.20953e-05 7.41697e-05 -1.58917e-07
-6.16579e-07 -1.58917e-07 -3.43173e-05
0.00178223 4.46989e-05 9.61108e-07
4.46989e-05 0.000112238 -8.96802e-08
9.61108e-07 -8.96802e-08 1.16441e-05
0.0015839 8.48917e-05 -6.19658e-07
8.48917e-05 7.60532e-05 1.06368e-07
-6.19658e-07 1.06368e-07 -4.03362e-05
0.00176592 8.12612e-05 2.3549e-06
8.12612e-05 0.000126883 2.5759e-07
2.3549e-06 2.5759e-07 2.86471e-05
0.00176456 4.48004e-06 -2.20197e-07
4.48004e-06 0.000111697 1.56555e-07
-2.20197e-07 1.56555e-07 -8.41475e-07
0.00175398 3.60042e-05 -5.63294e-07
3.60042e-05 8.93578e-05 4.84652e-07
-5.63294e-07 4.84652e-07 -1.29149e-05
0.00178534 5.96471e-05 -9.75078e-07
5.96471e-05 0.000106551 2.66583e-08
-9.75078e-07 2.66583e-08 1.13284e-05
0.00185871 0.000103968 -1.81722e-06
0.000103968 0.00016975 -6.6728e-07
-1.81722e-06 -6.6728e-07 7.33548e-05
0.00159531 -4.3354e-06 -1.18369e-06
-4.3354e-06 8.17532e-05 1.67518e-07
-1.18369e-06 1.67518e-07 -3.71336e-05
0.001742 -4.02133e-05 -2.25544e-06
-4.02133e-05 0.000180323 3.0833e-07
-2.25544e-06 3.0833e-07 6.21166e-05
0.00164136 -2.50118e-05 -5.82967e-07
-2.50118e-05 7.97644e-05 7.07453e-08
-5.82967e-07 7.07453e-08 -3.2457e-05
0.00158269 -6.62122e-05 8.78307e-07
-6.62122e-05 7.73174e-05 2.8491e-08
8.78307e-07 2.8491e-08 -3.29141e-05
0.00105996 -0.000103682 -1.31382e-06
-0.000103682 0.000178555 1.86599e-07
-1.31382e-06 1.86599e-07 7.65094e-05
0.000824266 -0.000124561 1.03543e-06
-0.000124561 4.51931e-05 4.19605e-07
1.03543e-06 4.19605e-07 -7.91863e-05
0.00118919 -0.000166441 -1.75551e-06
-0.000166441 0.00015605 2.99519e-06
-1.75551e-06 2.99519e-06 -8.58338e-06
0.00172925 -0.000126042 -4.1682e-07
-0.000126042 0.000169065 -4.16092e-07
-4.1682e-07 -4.16092e-07 5.09989e-05
0.00158997 -8.64634e-05 1.11942e-06
-8.64634e-05 5.60598e-05 -6.11434e-07
1.11942e-06 -6.11434e-07 -4.40663e-05
0.00158348 -0.000149457 2.74704e-06
-0.000149457 8.05259e-05 -3.28748e-07
2.74704e-06 -3.28748e-07 -3.60154e-05
0.00147389 -0.000187327 -7.53923e-07
-0.000187327 0.000163361 -1.06005e-06
-7.53923e-07 -1.06005e-06 9.11544e-06
0.00141247 -0.000164172 2.59018e-06
-0.000164172 1.68858e-05 -2.34822e-06
2.59018e-06 -2.34822e-06 -9.82736e-05
0.00106577 -0.000133177 2.62212e-07
-0.000133177 0.000193972 -1.18522e-06
2.62212e-07 -1.18522e-06 8.25149e-05
0.00101926 -0.000123067 5.77004e-07
-0.000123067 0.000171254 -2.31071e-06
5.77004e-07 -2.31071e-06 5.92844e-05
0.000845101 -2.61088e-05 2.73464e-07
-2.61088e-05 7.58863e-05 -9.78901e-08
2.73464e-07 -9.78901e-08 -1.82188e-05
0.000493866 2.1941e-05 -1.64546e-06
2.1941e-05 -0.000130009 1.94444e-06
-1.64546e-06 1.94444e-06 -0.000177832
0.000672566 3.86961e-05 6.8062e-08
3.86961e-05 -2.35553e-05 1.99324e-07
6.8062e-08 1.99324e-07 -9.7365e-05
0.00175808 -1.75515e-05 1.94137e-07
-1.75515e-05 0.000117933 -4.59389e-08
1.94137e-07 -4.59389e-08 6.27364e-06
0.00172831 -4.11307e-05 2.23009e-07
-4.11307e-05 0.000117055 -7.31881e-08
2.23009e-07 -7.31881e-08 7.87497e-06
0.00170539 -7.92314e-05 -7.7831e-07
-7.92314e-05 0.000101535 -1.18733e-07
-7.7831e-07 -1.18733e-07 4.12079e-06
0.00100917 -0.000131417 -6.16196e-08
-0.000131417 0.000158336 4.98825e-07
-6.16196e-08 4.98825e-07 4.28952e-05
0.000709547 -0.000123023 1.82396e-06
-0.000123023 -1.84374e-05 -1.8369e-06
1.82396e-06 -1.8369e-06 -0.000157947
0.00133313 -0.000187343 -4.67318e-07
-0.000187343 0.000195028 4.72075e-07
-4.67318e-07 4.72075e-07 1.45357e-05
0.0016397 -0.000113941 7.54321e-07
-0.000113941 7.63003e-05 -1.02683e-07
7.54321e-07 -1.02683e-07 -2.88443e-05
0.00170897 -0.000201909 8.69577e-07
-0.000201909 0.000222016 -1.71297e-06
8.69577e-07 -1.71297e-06 7.87435e-05
0.00174576 -0.000172046 -7.52762e-07
-0.000172046 0.000131959 -4.53393e-07
-7.52762e-07 -4.53393e-07 2.20422e-05
0.000497844 2.61963e-05 2.38798e-08
2.61963e-05 -0.000131276 -6.71295e-07
2.38798e-08 -6.71295e-07 -0.000175109
0.00101297 -0.000130637 -4.13803e-08
-0.000130637 0.000163097 3.13093e-07
-4.13803e-08 3.13093e-07 4.99771e-05
0.00087766 -0.000121515 -5.80817e-07
-0.000121515 8.96423e-05 4.11086e-07
-5.80817e-07 4.11086e-07 -2.30194e-05
0.00100376 -8.47213e-05 -3.59008e-07
-8.47213e-05 0.000166904 8.18327e-07
-3.59008e-07 8.18327e-07 5.88942e-05
0.000957347 -3.03099e-05 -1.43932e-08
-3.03099e-05 0.00014146 3.58351e-08
-1.43932e-08 3.58351e-08 5.36914e-05
0.000773721 1.32789e-05 -2.03445e-07
1.32789e-05 3.40618e-05 2.93171e-07
-2.03445e-07 2.93171e-07 -3.62347e-05
0.00167736 -2.79255e-05 -5.20041e-07
-2.79255e-05 5.1988e-05 5.32358e-08
-5.20041e-07 5.32358e-08 -5.45952e-05
0.00177387 -6.30764e-05 -2.05202e-06
-6.30764e-05 0.000106998 -9.74268e-08
-2.05202e-06 -9.74268e-08 1.36013e-05
0.00157023 -9.17698e-05 1.24055e-07
-9.17698e-05 4.0279e-06 3.62204e-07
1.24055e-07 3.62204e-07 -8.61416e-05
0.00189085 -0.000146263 -7.41092e-07
-0.000146263 0.000165153 -8.17801e-09
-7.41092e-07 -8.17801e-09 6.92241e-05
0.000983625 -0.000132438 -1.58324e-06
-0.000132438 0.000146012 6.83301e-07
-1.58324e-06 6.83301e-07 2.41266e-05
0.00161708 -0.000192665 8.89629e-07
-0.000192665 7.75737e-05 2.95669e-07
8.89629e-07 2.95669e-07 -4.32268e-05
0.000842487 -0.000144016 9.85938e-08
-0.000144016 2.93826e-05 -3.51396e-06
9.85938e-08 -3.51396e-06 -0.000144211
0.00185963 -0.00022905 4.93992e-07
-0.00022905 0.000414816 1.60943e-06
4.93992e-07 1.60943e-06 0.000228104
0.000515692 2.441e-05 6.81097e-07
2.441e-05 -0.00012451 -2.51664e-06
6.81097e-07 -2.51664e-06 -0.000164916
0.000893612 -2.65718e-06 1.19596e-06
-2.65718e-06 9.9696e-05 -8.4688e-07
1.19596e-06 -8.4688e-07 3.37855e-05
0.000996758 -4.79146e-05 6.0845e-08
-4.79146e-05 0.000164805 8.79448e-07
6.0845e-08 8.79448e-07 8.06468e-05
0.000897282 -1.78694e-05 2.84395e-07
-1.78694e-05 0.000107634 -2.85536e-07
2.84395e-07 -2.85536e-07 1.13508e-05
0.000999399 -0.000131557 -7.22446e-07
-0.000131557 0.000153329 2.04001e-06
-7.22446e-07 2.04001e-06 3.54343e-05
0.000957792 -0.00012848 -2.98457e-06
-0.00012848 0.000128717 3.12236e-06
-2.98457e-06 3.12236e-06 1.20033e-05
0.000747549 -3.5085e-05 -1.76714e-06
-3.5085e-05 8.43382e-06 -1.39589e-06
-1.76714e-06 -1.39589e-06 -2.69331e-05
0.000764573 -5.0901e-05 -1.51246e-07
-5.0901e-05 2.63125e-05 -6.79029e-07
-1.51246e-07 -6.79029e-07 -3.3044e-05
0.0016367 0.000123265 1.15061e-07
0.000123265 0.000118864 4.77344e-07
1.15061e-07 4.77344e-07 -1.2804e-05
0.000825875 -2.76571e-05 4.7668e-07
-2.76571e-05 7.21745e-05 -3.62256e-07
4.7668e-07 -3.62256e-07 -1.09242e-05
0.000911824 0.000119716 4.37911e-07
0.000119716 0.000128476 -2.06431e-07
4.37911e-07 -2.06431e-07 7.87161e-06
0.000747625 4.33121e-05 6.55441e-07
4.33121e-05 4.09192e-05 1.4108e-07
6.55441e-07 1.4108e-07 -7.03171e-05
0.00144881 0.000177418 -9.42685e-07
0.000177418 0.00011196 -2.314e-06
-9.42685e-07 -2.314e-06 -3.21969e-05
0.00161368 0.000171358 2.36012e-06
0.000171358 0.000103863 5.47772e-07
2.36012e-06 5.47772e-07 -2.63809e-05
0.000623646 0.000118755 5.69007e-07
0.000118755 -3.90119e-05 8.47817e-07
5.69007e-07 8.47817e-07 -0.000198062
0.001517 0.000197051 -5.75915e-07
0.000197051 0.000275614 -5.04412e-07
-5.75915e-07 -5.04412e-07 0.000113435
0.000780061 -1.99097e-05 -4.85426e-07
-1.99097e-05 3.00316e-05 1.16043e-07
-4.85426e-07 1.16043e-07 -2.31006e-05
0.000744912 -1.57573e-05 -3.68262e-08
-1.57573e-05 2.31286e-05 8.02322e-07
-3.68262e-08 8.02322e-07 -5.13592e-05
0.00106168 0.000136454 -4.64564e-07
0.000136454 0.000213072 -1.59772e-06
-4.64564e-07 -1.59772e-06 7.59939e-05
0.000749637 -1.24369e-05 -1.63923e-07
-1.24369e-05 3.57898e-05 5.16096e-08
-1.63923e-07 5.16096e-08 -6.31436e-05
0.000880744 8.53684e-05 -9.81613e-07
8.53684e-05 0.000110872 -9.31696e-07
-9.81613e-07 -9.31696e-07 -7.98228e-06
0.00181855 0.000132891 -2.0561e-06
0.000132891 0.000159869 -8.75819e-07
-2.0561e-06 -8.75819e-07 5.64692e-05
0.00190497 0.000216952 1.06125e-06
0.000216952 0.00032876 6.05217e-07
1.06125e-06 6.05217e-07 0.000178358
0.00145158 0.000170846 6.55021e-07
0.000170846 -1.18761e-05 1.34953e-06
6.55021e-07 1.34953e-06 -0.000131887
0.00135699 0.000169866 1.65292e-06
0.000169866 0.000333791 2.46346e-06
1.65292e-06 2.46346e-06 0.000149777
0.000752947 0.000167341 -1.71863e-06
0.000167341 -0.000160756 -7.18769e-07
-1.71863e-06 -7.18769e-07 -0.000328498
0.000678961 -3.55277e-05 -1.31231e-07
-3.55277e-05 -1.78048e-05 8.60743e-07
-1.31231e-07 8.60743e-07 -8.361e-05
0.000549571 2.58481e-05 -3.79552e-07
2.58481e-05 -6.78682e-05 1.17322e-07
-3.79552e-07 1.17322e-07 -0.000162708
0.00109183 0.000138752 -7.4924e-08
0.000138752 0.000225996 -3.27143e-07
-7.4924e-08 -3.27143e-07 6.94382e-05
0.00025459 3.78006e-05 3.76924e-07
3.78006e-05 -0.0002257 -1.76204e-07
3.76924e-07 -1.76204e-07 -0.000345849
0.00189197 0.000129819 -2.57194e-06
0.000129819 0.000113044 -5.66167e-07
-2.57194e-06 -5.66167e-07 3.49917e-05
0.00187919 0.000164404 8.75304e-08
0.000164404 0.000144322 -4.20564e-07
8.75304e-08 -4.20564e-07 5.02206e-05
0.00160576 0.000220448 -1.25494e-06
0.000220448 0.000144341 -1.63879e-06
-1.25494e-06 -1.63879e-06 -7.76827e-06
0.000136263 0.000106819 -9.06803e-07
0.000106819 -0.000369059 1.58792e-06
-9.06803e-07 1.58792e-06 -0.000572195
0.000791017 1.81215e-06 -8.68084e-07
1.81215e-06 3.79346e-05 -5.70847e-08
-8.68084e-07 -5.70847e-08 -1.59987e-05
0.000783977 -1.42046e-05 -2.51908e-07
-1.42046e-05 3.96571e-05 4.31549e-07
-2.51908e-07 4.31549e-07 -2.45925e-05
0.000880608 -3.51256e-05 -1.95614e-07
-3.51256e-05 9.84274e-05 -7.06747e-08
-1.95614e-07 -7.06747e-08 2.80995e-05
0.000787381 -3.25949e-05 -9.947e-07
-3.25949e-05 2.75546e-05 -6.13919e-07
-9.947e-07 -6.13919e-07 -2.24685e-05
0.000681917 -4.18415e-05 -6.19434e-08
-4.18415e-05 -1.8439e-05 -1.50666e-07
-6.19434e-08 -1.50666e-07 -8.00942e-05
0.000807357 -1.16512e-05 3.94085e-08
-1.16512e-05 3.65394e-05 3.19787e-08
3.94085e-08 3.19787e-08 -1.36546e-05
0.000823682 1.70497e-05 -2.35046e-07
1.70497e-05 7.18862e-05 -3.07907e-07
-2.35046e-07 -3.07907e-07 -7.04169e-07
0.000756797 -1.39224e-05 2.86031e-07
-1.39224e-05 2.71246e-05 2.27023e-07
2.86031e-07 2.27023e-07 -3.77231e-05
0.000860983 -1.45982e-05 2.14846e-07
-1.45982e-05 8.88241e-05 -3.65782e-07
2.14846e-07 -3.65782e-07 1.48209e-05
0.000809876 -4.22699e-05 -1.83715e-08
-4.22699e-05 5.83405e-05 -1.12364e-08
-1.83715e-08 -1.12364e-08 -1.22388e-05
0.000715379 6.53279e-06 4.81086e-07
6.53279e-06 3.27722e-07 7.25822e-08
4.81086e-07 7.25822e-08 -6.36479e-05
0.000809967 1.43363e-05 5.88858e-07
1.43363e-05 3.79809e-05 4.69332e-07
5.88858e-07 4.69332e-07 -1.28967e-05
0.000758544 5.11848e-06 6.64773e-07
5.11848e-06 -1.94857e-07 1.48251e-06
6.64773e-07 1.48251e-06 -3.3689e-05
0.000766486 -6.7182e-06 -1.89277e-07
-6.7182e-06 3.08404e-06 -2.84882e-09
-1.89277e-07 -2.84882e-09 -2.93875e-05
0.00127573 -1.53782e-05 8.65739e-07
-1.53782e-05 0.000277975 1.98187e-06
8.65739e-07 1.98187e-06 0.000277286
0.000767152 -1.6599e-05 -6.11805e-07
-1.6599e-05 3.99715e-06 -1.67945e-06
-6.11805e-07 -1.67945e-06 -2.76406e-05
0.00129046 -2.14193e-05 -3.0281e-06
-2.14193e-05 0.00028893 -1.27926e-06
-3.0281e-06 -1.27926e-06 0.000288232
0.00095716 -1.82665e-05 1.34944e-05
-1.82665e-05 0.000107472 6.68933e-06
1.34944e-05 6.68933e-06 0.000121641
0.00130432 -2.78728e-05 -6.58268e-06
-2.78728e-05 0.000300591 -4.53109e-06
-6.58268e-06 -4.53109e-06 0.000299429
0.000900593 -2.47438e-05 5.20132e-06
-2.47438e-05 8.03948e-05 2.4936e-06
5.20132e-06 2.4936e-06 9.40018e-05
0.000835125 -3.02881e-05 -2.13197e-06
-3.02881e-05 5.05353e-05 -1.65178e-06
-2.13197e-06 -1.65178e-06 6.2711e-05
0.000682459 2.90917e-05 8.57814e-07
2.90917e-05 -3.87196e-05 -3.58579e-06
8.57814e-07 -3.58579e-06 -4.79189e-05
0.000683954 3.43387e-05 -1.63665e-07
3.43387e-05 -3.15411e-05 3.44147e-08
-1.63665e-07 3.44147e-08 -4.37507e-05
0.00224605 5.32213e-05 2.39292e-05
5.32213e-05 0.000841714 -3.85968e-06
2.39292e-05 -3.85968e-06 0.000856393
0.000688609 3.98551e-05 -1.78471e-06
3.98551e-05 -2.17419e-05 3.91817e-06
-1.78471e-06 3.91817e-06 -3.73575e-05
0.00235315 6.24375e-05 -1.76255e-06
6.24375e-05 0.000909256 -1.23736e-07
-1.76255e-06 -1.23736e-07 0.000921302
0.00249047 7.0994e-05 -3.78006e-05
7.0994e-05 0.000993034 3.38034e-06
-3.78006e-05 3.38034e-06 0.00100256
0.00159214 8.52503e-05 1.68454e-06
8.52503e-05 8.39533e-05 1.93649e-06
1.68454e-06 1.93649e-06 -3.25076e-05
0.00166603 4.97042e-05 5.6507e-07
4.97042e-05 8.78161e-05 -1.00768e-07
5.6507e-07 -1.00768e-07 -2.16273e-05
0.00164323 8.35021e-05 4.01508e-06
8.35021e-05 5.94391e-05 2.0232e-07
4.01508e-06 2.0232e-07 -3.75996e-05
0.00174694 4.5098e-05 2.33776e-06
4.5098e-05 8.88331e-05 -3.77836e-07
2.33776e-06 -3.77836e-07 -1.07008e-05
0.00174187 2.11061e-05 1.30169e-06
2.11061e-05 0.000103348 -2.26093e-07
1.30169e-06 -2.26093e-07 -9.31189e-06
0.0016214 2.03828e-06 -1.22253e-06
2.03828e-06 8.60651e-05 -1.04956e-07
-1.22253e-06 -1.04956e-07 -3.38281e-05
0.00175367 5.06947e-06 -1.33623e-07
5.06947e-06 0.000107802 -4.40292e-09
-1.33623e-07 -4.40292e-09 -4.71064e-06
0.00173811 3.18618e-05 4.84987e-07
3.18618e-05 8.26564e-05 -1.88522e-07
4.84987e-07 -1.88522e-07 -2.0014e-05
0.00176086 6.10963e-05 7.02264e-07
6.10963e-05 9.41174e-05 -9.84473e-08
7.02264e-07 -9.84473e-08 -1.46841e-06
0.00184217 9.92992e-05 5.58861e-07
9.92992e-05 0.000154166 2.19656e-07
5.58861e-07 2.19656e-07 5.84225e-05
0.00176752 4.27747e-06 -1.0271e-06
4.27747e-06 9.28682e-05 3.93528e-07
-1.0271e-06 3.93528e-07 -1.22738e-05
0.00188794 4.58225e-05 -2.19305e-07
4.58225e-05 0.000136871 3.68315e-07
-2.19305e-07 3.68315e-07 4.7179e-05
0.0017368 9.57437e-05 -6.95318e-07
9.57437e-05 5.53108e-05 2.01694e-07
-6.95318e-07 2.01694e-07 -3.22035e-05
0.00175104 -1.83508e-05 4.27951e-08
-1.83508e-05 0.000118017 -1.67126e-07
4.27951e-08 -1.67126e-07 6.31314e-06
0.00176215 -4.24857e-05 3.03326e-07
-4.24857e-05 0.000136323 -2.10193e-07
3.03326e-07 -2.10193e-07 2.74651e-05
0.00170733 -7.88975e-05 4.92487e-07
-7.88975e-05 0.000105366 -1.28554e-07
4.92487e-07 -1.28554e-07 6.40557e-06
0.00111373 -0.000137517 1.24881e-07
-0.000137517 0.000213201 3.21237e-07
1.24881e-07 3.21237e-07 9.70963e-05
0.00122765 -0.000154445 1.76441e-07
-0.000154445 0.000258597 1.38633e-06
1.76441e-07 1.38633e-06 0.000119109
0.00126393 -0.000181709 -2.2938e-06
-0.000181709 0.000161014 2.56517e-06
-2.2938e-06 2.56517e-06 -2.13149e-05
0.0017072 -0.000114866 6.29315e-07
-0.000114866 0.000112826 -5.7486e-07
6.29315e-07 -5.7486e-07 7.72376e-06
0.00153817 -0.00016778 3.61108e-07
-0.00016778 2.66979e-05 -4.86032e-07
3.61108e-07 -4.86032e-07 -8.37608e-05
0.00154583 -0.00019006 -9.58137e-07
-0.00019006 0.000137771 -4.38447e-06
-9.58137e-07 -4.38447e-06 -1.58764e-06
0.001071 -0.00013432 8.75944e-07
-0.00013432 0.000193431 -1.33539e-06
8.75944e-07 -1.33539e-06 7.98517e-05
0.000849497 -0.0001188 -1.87617e-06
-0.0001188 7.64984e-05 -2.23637e-06
-1.87617e-06 -2.23637e-06 -3.49881e-05
0.00101933 -9.92701e-05 7.22369e-07
-9.92701e-05 0.000180932 1.87575e-07
7.22369e-07 1.87575e-07 6.82509e-05
0.000492453 2.42441e-05 -9.40737e-07
2.42441e-05 -0.000134624 1.18257e-06
-9.40737e-07 1.18257e-06 -0.000177853
0.000972154 -2.14199e-05 1.18446e-07
-2.14199e-05 0.000147415 -2.57178e-07
1.18446e-07 -2.57178e-07 6.15287e-05
0.000648986 2.76686e-05 2.36651e-07
2.76686e-05 -3.81941e-05 1.13215e-06
2.36651e-07 1.13215e-06 -0.000106832
0.00177021 -2.59929e-05 -9.11235e-08
-2.59929e-05 9.91665e-05 6.76571e-08
-9.11235e-08 6.76571e-08 -7.32127e-06
0.00181443 -6.53669e-05 4.87193e-07
-6.53669e-05 0.000130573 -8.87832e-09
4.87193e-07 -8.87832e-09 3.77603e-05
0.00162604 -9.15786e-05 -2.43633e-07
-9.15786e-05 3.52342e-05 1.09696e-07
-2.43633e-07 1.09696e-07 -5.51306e-05
0.00101321 -0.00013382 1.94268e-09
-0.00013382 0.000159515 9.84937e-07
1.94268e-09 9.84937e-07 3.71756e-05
0.000824832 -0.000141356 -3.671e-07
-0.000141356 2.63615e-05 3.3782e-07
-3.671e-07 3.3782e-07 -0.000142539
0.00175487 -0.000220912 -2.4829e-06
-0.000220912 0.000355373 1.08196e-06
-2.4829e-06 1.08196e-06 0.000171355
0.00187534 -0.000147005 4.1879e-07
-0.000147005 0.000155141 -3.83218e-07
4.1879e-07 -3.83218e-07 5.87679e-05
0.00172374 -0.000198831 1.0686e-06
-0.000198831 0.000132146 -1.08047e-06
1.0686e-06 -1.08047e-06 1.00569e-05
0.00063056 2.23756e-05 2.18712e-07
2.23756e-05 -6.16574e-05 -6.3243e-07
2.18712e-07 -6.3243e-07 -0.000100681
0.000886184 6.21414e-06 -2.8899e-07
6.21414e-06 9.4538e-05 2.07342e-07
-2.8899e-07 2.07342e-07 2.94851e-05
0.00067404 -0.000110343 -1.24233e-06
-0.000110343 -2.44761e-05 1.0046e-06
-1.24233e-06 1.0046e-06 -0.000138866
0.00107558 -0.000130452 1.02154e-06
-0.000130452 0.000193175 8.69943e-07
1.02154e-06 8.69943e-07 7.94813e-05
0.000872848 -2.80817e-05 1.80413e-07
-2.80817e-05 9.59169e-05 -3.66621e-07
1.80413e-07 -3.66621e-07 -2.50872e-06
0.00092442 -3.83818e-05 -6.64273e-07
-3.83818e-05 0.000125341 9.31991e-07
-6.64273e-07 9.31991e-07 4.10536e-05
0.0018249 -4.15884e-05 -1.06329e-06
-4.15884e-05 0.000107482 -1.4604e-07
-1.06329e-06 -1.4604e-07 1.43305e-05
0.00172398 -8.66917e-05 -3.1297e-06
-8.66917e-05 5.48888e-05 -1.50186e-07
-3.1297e-06 -1.50186e-07 -2.28395e-05
0.0016782 -0.000107646 -3.10363e-07
-0.000107646 1.78717e-05 4.9211e-08
-3.10363e-07 4.9211e-08 -6.26149e-05
0.00224651 -0.000212428 7.93536e-07
-0.000212428 0.000327042 -7.20072e-07
7.93536e-07 -7.20072e-07 0.000227346
0.000422101 -0.000101826 -1.98708e-06
-0.000101826 -0.000150966 -1.52431e-07
-1.98708e-06 -1.52431e-07 -0.000288285
0.0015963 -0.000223105 -2.18858e-06
-0.000223105 0.000164442 4.66247e-06
-2.18858e-06 4.66247e-06 -2.72532e-06
0.0019488 -0.000224052 1.15684e-06
-0.000224052 0.000585352 -3.24078e-06
1.15684e-06 -3.24078e-06 0.000388129
0.000770676 1.62404e-05 8.31771e-07
1.62404e-05 1.23259e-05 -1.80326e-06
8.31771e-07 -1.80326e-06 -2.30122e-05
0.000771943 -6.22093e-05 1.21387e-06
-6.22093e-05 3.81139e-05 -1.24431e-06
1.21387e-06 -1.24431e-06 -2.29935e-05
0.000652774 9.70068e-06 6.18562e-07
9.70068e-06 -3.10186e-05 -1.60472e-06
6.18562e-07 -1.60472e-06 -9.63954e-05
0.00085961 -3.42718e-05 1.0433e-06
-3.42718e-05 9.32253e-05 1.36703e-07
1.0433e-06 1.36703e-07 1.04469e-05
0.000868934 4.77491e-06 2.82471e-07
4.77491e-06 9.33584e-05 1.08678e-08
2.82471e-07 1.08678e-08 4.89068e-06
0.000694296 -0.000108947 9.21527e-07
-0.000108947 1.88183e-05 2.48989e-06
9.21527e-07 2.48989e-06 -9.55686e-05
0.00072475 -0.000113534 -3.70059e-06
-0.000113534 -3.09578e-05 1.44415e-06
-3.70059e-06 1.44415e-06 -0.000133751
0.0018484 -0.000180947 -4.52174e-06
-0.000180947 0.000635292 3.44692e-06
-4.52174e-06 3.44692e-06 0.000513314
0.000776205 -4.75904e-05 -4.95118e-07
-4.75904e-05 2.81705e-05 -5.34451e-07
-4.95118e-07 -5.34451e-07 -2.51236e-05
0.000831675 -4.26648e-06 -1.81195e-07
-4.26648e-06 7.05727e-05 3.99177e-07
-1.81195e-07 3.99177e-07 -4.11779e-06
0.00208989 0.000139478 1.77878e-06
0.000139478 0.000308818 6.32482e-07
1.77878e-06 6.32482e-07 0.000207181
0.000837129 8.27433e-06 -1.90225e-07
8.27433e-06 8.68885e-05 -2.22e-07
-1.90225e-07 -2.22e-07 -1.45773e-05
0.00116587 0.000142464 1.01165e-07
0.000142464 0.000273591 -1.37623e-06
1.01165e-07 -1.37623e-06 0.000137661
0.000718589 6.7209e-05 -7.45743e-07
6.7209e-05 2.47018e-05 1.65319e-06
-7.45743e-07 1.65319e-06 -9.01925e-05
0.00175722 0.000207666 9.54986e-07
0.000207666 0.000245268 -1.03349e-06
9.54986e-07 -1.03349e-06 9.53496e-05
0.00167657 0.000183784 6.23403e-06
0.000183784 0.000104597 3.57987e-06
6.23403e-06 3.57987e-06 -1.39252e-05
0.000816917 0.000138056 1.29451e-06
0.000138056 5.06687e-05 6.37232e-07
1.29451e-06 6.37232e-07 -0.000134504
0.00121827 0.000196416 -3.07363e-06
0.000196416 8.31336e-05 -7.36537e-07
-3.07363e-06 -7.36537e-07 -8.91475e-05
0.000689077 -1.53778e-05 1.19856e-07
-1.53778e-05 -9.2555e-06 5.68027e-07
1.19856e-07 5.68027e-07 -7.81275e-05
0.000686289 4.09073e-05 -1.19765e-07
4.09073e-05 6.562e-06 -1.18324e-06
-1.19765e-07 -1.18324e-06 -8.91087e-05
0.00101651 0.000134623 4.34353e-07
0.000134623 0.000191577 -1.33641e-06
4.34353e-07 -1.33641e-06 3.28711e-05
0.000730345 6.83169e-05 -5.98729e-07
6.83169e-05 3.14026e-05 -8.81799e-07
-5.98729e-07 -8.81799e-07 -9.06577e-05
0.00196436 0.00012712 1.3579e-07
0.00012712 0.000158827 -4.9288e-07
1.3579e-07 -4.9288e-07 8.20565e-05
0.0017836 0.000166237 1.74816e-06
0.000166237 0.000102057 3.42495e-07
1.74816e-06 3.42495e-07 3.95236e-06
0.00181666 0.000228028 -2.27639e-06
0.000228028 0.000251493 -5.06479e-07
-2.27639e-06 -5.06479e-07 0.000100102
0.000693461 0.000146184 8.42856e-07
0.000146184 -9.00865e-05 4.22884e-07
8.42856e-07 4.22884e-07 -0.000291014
0.00084071 -2.52864e-05 -1.38444e-08
-2.52864e-05 7.7668e-05 2.38962e-08
-1.38444e-08 2.38962e-08 2.75962e-06
0.00168842 9.12769e-05 -1.11304e-06
9.12769e-05 -1.00138e-05 6.59549e-07
-1.11304e-06 6.59549e-07 -7.40399e-05
0.00119828 0.000124538 -5.74644e-07
0.000124538 0.000304682 2.21936e-06
-5.74644e-07 2.21936e-06 0.000182905
0.00103392 0.000139712 2.9944e-07
0.000139712 0.000184744 1.22848e-06
2.9944e-07 1.22848e-06 1.94553e-05
0.00223851 0.000162006 -3.97394e-06
0.000162006 0.000250709 1.4877e-07
-3.97394e-06 1.4877e-07 0.000178159
0.00149861 0.000224684 -1.03839e-06
0.000224684 -5.28452e-05 -1.99e-06
-1.03839e-06 -1.99e-06 -0.000180319
0.0020511 0.000242469 -1.86486e-06
0.000242469 0.000537267 2.15895e-06
-1.86486e-06 2.15895e-06 0.000331628
0.000861491 -5.83571e-06 -1.53347e-06
-5.83571e-06 8.13588e-05 1.90543e-07
-1.53347e-06 1.90543e-07 1.78851e-05
0.000853863 -2.13199e-05 -5.6143e-08
-2.13199e-05 8.33051e-05 -3.46285e-08
-5.6143e-08 -3.46285e-08 1.339e-05
0.00088966 -2.46983e-05 -2.70747e-07
-2.46983e-05 0.000109485 3.66242e-07
-2.70747e-07 3.66242e-07 3.26986e-05
0.000786337 -2.88679e-05 -4.93458e-07
-2.88679e-05 2.62345e-05 -6.40942e-07
-4.93458e-07 -6.40942e-07 -2.47242e-05
0.000790789 -1.91238e-06 1.33588e-08
-1.91238e-06 4.58103e-05 4.43581e-07
1.33588e-08 4.43581e-07 -1.91064e-05
0.000708475 -8.34998e-06 -4.0066e-07
-8.34998e-06 1.11041e-05 -1.93544e-07
-4.0066e-07 -1.93544e-07 -6.27261e-05
0.000797548 -1.76491e-05 -1.08047e-07
-1.76491e-05 3.42537e-05 2.34505e-08
-1.08047e-07 2.34505e-08 -1.87945e-05
0.000733723 -2.61619e-05 -5.25066e-07
-2.61619e-05 1.32393e-05 2.48528e-07
-5.25066e-07 2.48528e-07 -5.24123e-05
0.000816444 -4.41764e-05 3.81163e-07
-4.41764e-05 6.42237e-05 -3.82832e-07
3.81163e-07 -3.82832e-07 -1.00864e-05
0.000857642 6.13332e-06 1.7743e-07
6.13332e-06 8.88523e-05 5.24803e-07
1.7743e-07 5.24803e-07 1.57652e-05
0.00075973 -2.88342e-05 6.26022e-07
-2.88342e-05 3.06994e-05 -9.76125e-07
6.26022e-07 -9.76125e-07 -4.58255e-05
0.000792888 -6.02359e-05 8.93894e-08
-6.02359e-05 4.68434e-05 -3.80694e-08
8.93894e-08 -3.80694e-08 -2.85607e-05
0.000898616 1.15778e-05 6.43228e-07
1.15778e-05 0.000105712 -2.90894e-07
6.43228e-07 -2.90894e-07 3.44011e-05
0.000803629 1.28131e-05 1.38937e-06
1.28131e-05 4.99571e-05 -8.75819e-08
1.38937e-06 -8.75819e-08 -1.89767e-05
0.000804358 3.7665e-06 6.25148e-07
3.7665e-06 3.54591e-05 4.85038e-07
6.25148e-07 4.85038e-07 -1.64943e-05
0.000751222 9.92556e-06 4.29467e-07
9.92556e-06 -2.50606e-06 1.4341e-06
4.29467e-07 1.4341e-06 -3.68881e-05
0.000761033 -8.59152e-07 -1.68451e-07
-8.59152e-07 1.31982e-06 4.57448e-09
-1.68451e-07 4.57448e-09 -3.2191e-05
0.00128314 -7.46276e-06 6.36943e-07
-7.46276e-06 0.000280721 1.94838e-06
6.36943e-07 1.94838e-06 0.000279664
0.000772259 -1.25729e-05 -3.54099e-07
-1.25729e-05 6.55634e-06 -1.57517e-06
-3.54099e-07 -1.57517e-06 -2.60331e-05
0.00130573 -1.37458e-05 -2.2495e-06
-1.37458e-05 0.000294931 -1.32974e-06
-2.2495e-06 -1.32974e-06 0.000294046
0.000967947 -1.25548e-05 1.0156e-05
-1.25548e-05 0.000110689 6.90738e-06
1.0156e-05 6.90738e-06 0.000124866
0.00132242 -2.01517e-05 -4.9593e-06
-2.01517e-05 0.000306656 -4.5775e-06
-4.9593e-06 -4.5775e-06 0.00030575
0.000914454 -1.88406e-05 3.73049e-06
-1.88406e-05 8.32924e-05 2.58419e-06
3.73049e-06 2.58419e-06 9.75292e-05
0.000850086 -2.45453e-05 -1.55381e-06
-2.45453e-05 5.23256e-05 -1.66882e-06
-1.55381e-06 -1.66882e-06 6.60391e-05
0.000763157 1.02063e-05 4.43509e-07
1.02063e-05 6.4231e-06 -1.76496e-06
4.43509e-07 -1.76496e-06 -2.67905e-05
0.000695927 2.33645e-05 7.86592e-07
2.33645e-05 -3.69632e-05 -3.50887e-06
7.86592e-07 -3.50887e-06 -4.36502e-05
0.000695593 2.95789e-05 -1.52103e-07
2.95789e-05 -3.16355e-05 2.87409e-08
-1.52103e-07 2.87409e-08 -4.09251e-05
0.00218545 4.43252e-05 1.96623e-05
4.43252e-05 0.000801308 -4.00245e-06
1.96623e-05 -4.00245e-06 0.000818139
0.000698554 3.5052e-05 -1.44999e-06
3.5052e-05 -2.36489e-05 3.74256e-06
-1.44999e-06 3.74256e-06 -3.59788e-05
0.00227449 5.38108e-05 -1.95076e-06
5.38108e-05 0.000858338 -1.12912e-07
-1.95076e-06 -1.12912e-07 0.000872712
0.0023898 6.27402e-05 -3.20191e-05
6.27402e-05 0.000930333 3.64675e-06
-3.20191e-05 3.64675e-06 0.00094213
0.00182567 9.45808e-05 1.95175e-06
9.45808e-05 0.000138526 1.20823e-06
1.95175e-06 1.20823e-06 4.34412e-05
0.00173566 6.24207e-05 1.53765e-06
6.24207e-05 8.13114e-05 -3.10739e-07
1.53765e-06 -3.10739e-07 -1.46279e-05
0.00171505 3.12579e-05 1.49516e-06
3.12579e-05 7.18054e-05 -5.90087e-07
1.49516e-06 -5.90087e-07 -3.12701e-05
0.00174354 5.93691e-06 5.07842e-07
5.93691e-06 0.000104311 -1.73468e-07
5.07842e-07 -1.73468e-07 -8.11743e-06
0.0017844 4.46867e-06 -4.41283e-07
4.46867e-06 0.000102313 1.30908e-07
-4.41283e-07 1.30908e-07 -1.885e-06
0.00186855 4.35737e-05 3.83825e-07
4.35737e-05 0.000123115 -3.22113e-07
3.83825e-07 -3.22113e-07 3.30293e-05
0.00172809 9.7087e-05 -1.98393e-07
9.7087e-05 4.48352e-05 -1.71859e-07
-1.98393e-07 -1.71859e-07 -4.25688e-05
0.00179741 4.45411e-06 -9.04051e-07
4.45411e-06 9.00693e-05 8.48201e-07
-9.04051e-07 8.48201e-07 -1.14614e-06
0.00195747 5.70882e-05 -1.17477e-06
5.70882e-05 0.000157768 3.34753e-07
-1.17477e-06 3.34753e-07 7.96504e-05
0.0015405 4.07042e-05 1.78142e-07
4.07042e-05 -8.81504e-05 -1.15978e-07
1.78142e-07 -1.15978e-07 -0.000141777
0.00186327 -2.42696e-05 1.38017e-07
-2.42696e-05 0.000146792 -1.10751e-07
1.38017e-07 -1.10751e-07 4.04098e-05
0.00185587 -6.83997e-05 3.33581e-06
-6.83997e-05 0.000154538 4.58689e-08
3.33581e-06 4.58689e-08 6.22971e-05
0.00168622 -9.27535e-05 -7.83872e-07
-9.27535e-05 6.76623e-05 -2.93173e-07
-7.83872e-07 -2.93173e-07 -2.29991e-05
0.0010717 -0.000137153 -3.19761e-07
-0.000137153 0.000188837 2.05206e-06
-3.19761e-07 2.05206e-06 6.57778e-05
0.000820467 -0.000139381 4.96266e-07
-0.000139381 3.01712e-05 4.19883e-06
4.96266e-07 4.19883e-06 -0.000134569
0.00156708 -0.000207772 -2.23202e-06
-0.000207772 0.000251896 1.61692e-06
-2.23202e-06 1.61692e-06 7.15708e-05
0.00185454 -0.000146416 3.64058e-06
-0.000146416 0.000141302 -6.15486e-07
3.64058e-06 -6.15486e-07 4.46078e-05
0.00175617 -0.000200315 -7.44145e-07
-0.000200315 0.000149208 -2.30485e-06
-7.44145e-07 -2.30485e-06 2.63032e-05
0.000367523 -9.04076e-05 -1.78224e-06
-9.04076e-05 -0.000192074 1.24321e-06
-1.78224e-06 1.24321e-06 -0.000303118
0.00122918 -0.000137289 6.52224e-06
-0.000137289 0.000277599 -3.59282e-06
6.52224e-06 -3.59282e-06 0.000166017
0.000789355 4.49692e-06 5.57566e-08
4.49692e-06 4.34774e-05 -7.04673e-07
5.57566e-08 -7.04673e-07 -4.93205e-05
0.000745708 2.16644e-05 -7.88005e-07
2.16644e-05 1.26025e-06 1.1392e-06
-7.88005e-07 1.1392e-06 -3.64304e-05
0.000885869 2.3575e-05 -6.05549e-07
2.3575e-05 9.41438e-05 1.18874e-06
-6.05549e-07 1.18874e-06 2.92419e-05
0.000845905 -1.51445e-05 -5.63015e-07
-1.51445e-05 8.28641e-05 8.85085e-07
-5.63015e-07 8.85085e-07 -1.67176e-06
0.00184919 -4.21729e-05 -1.46538e-07
-4.21729e-05 0.000123845 4.7095e-08
-1.46538e-07 4.7095e-08 3.24308e-05
0.000763407 1.4383e-05 1.61922e-07
1.4383e-05 8.16871e-06 1.90372e-08
1.61922e-07 1.90372e-08 -2.71132e-05
0.000703793 -1.44673e-05 -4.16712e-07
-1.44673e-05 -7.65722e-06 7.43494e-08
-4.16712e-07 7.43494e-08 -6.35447e-05
0.00178666 -8.80867e-05 -1.66209e-07
-8.80867e-05 9.15276e-05 -1.8389e-07
-1.66209e-07 -1.8389e-07 1.30617e-05
0.00158988 -0.000105283 -1.13415e-06
-0.000105283 -3.6279e-05 7.67605e-07
-1.13415e-06 7.67605e-07 -0.000118398
0.000656443 -0.000115221 -2.80435e-07
-0.000115221 -1.78535e-05 2.59534e-06
-2.80435e-07 2.59534e-06 -0.00015287
0.0014949 -0.000193722 -1.56633e-06
-0.000193722 0.000347109 6.60574e-07
-1.56633e-06 6.60574e-07 0.000144764
0.00143069 -0.000210611 1.0616e-06
-0.000210611 7.67042e-05 -2.03055e-07
1.0616e-06 -2.03055e-07 -8.52372e-05
0.00195768 -0.000206575 2.17872e-06
-0.000206575 0.00017791 -5.63478e-07
2.17872e-06 -5.63478e-07 7.74598e-05
0.000849319 -2.05481e-05 1.17181e-06
-2.05481e-05 7.5946e-05 -6.05202e-07
1.17181e-06 -6.05202e-07 1.27429e-05
0.000838364 -2.19639e-05 -3.5529e-07
-2.19639e-05 8.30811e-05 5.57441e-07
-3.5529e-07 5.57441e-07 -7.20683e-07
0.000919716 -0.000116939 2.56325e-07
-0.000116939 6.96823e-05 -1.92542e-07
2.56325e-07 -1.92542e-07 -3.70264e-05
0.00122267 -0.000143443 4.91758e-06
-0.000143443 0.000293744 -1.72922e-06
4.91758e-06 -1.72922e-06 0.000187006
0.000684149 -8.03985e-05 -7.46831e-07
-8.03985e-05 8.36144e-06 2.68063e-07
-7.46831e-07 2.68063e-07 -0.000102809
0.00086859 -1.85781e-07 2.19989e-07
-1.85781e-07 9.53872e-05 -3.91157e-07
2.19989e-07 -3.91157e-07 5.0002e-06
0.00189403 -5.08395e-05 -3.03354e-06
-5.08395e-05 0.000114871 -1.87493e-07
-3.03354e-06 -1.87493e-07 4.3691e-05
0.00191284 -8.007e-05 2.10555e-06
-8.007e-05 0.000127987 5.14662e-07
2.10555e-06 5.14662e-07 5.79176e-05
0.0017531 -0.000182139 -5.91965e-06
-0.000182139 -9.99338e-06 -1.62703e-06
-5.91965e-06 -1.62703e-06 -8.6785e-05
0.00130313 -0.000216557 -1.15168e-07
-0.000216557 -0.000122263 4.1183e-07
-1.15168e-07 4.1183e-07 -0.000236285
0.000868467 -0.000100426 -3.92109e-06
-0.000100426 7.41621e-05 -2.10048e-06
-3.92109e-06 -2.10048e-06 -6.37551e-05
0.002103 -0.000252885 -3.07594e-06
-0.000252885 0.000593128 1.63524e-06
-3.07594e-06 1.63524e-06 0.000373914
0.000589907 4.44205e-05 -1.10492e-06
4.44205e-05 -6.60369e-05 -1.73897e-06
-1.10492e-06 -1.73897e-06 -0.000122957
0.000788887 -3.19058e-05 8.95613e-07
-3.19058e-05 3.81675e-05 -1.14772e-06
8.95613e-07 -1.14772e-06 -1.95753e-05
0.000977368 -4.09687e-05 1.03998e-06
-4.09687e-05 0.00016012 -3.85846e-07
1.03998e-06 -3.85846e-07 8.64639e-05
0.000640559 1.77854e-05 -3.46738e-07
1.77854e-05 -2.27785e-05 -3.75998e-07
-3.46738e-07 -3.75998e-07 -0.000107322
0.00103641 -2.17545e-05 2.49603e-07
-2.17545e-05 0.00019068 2.82789e-07
2.49603e-07 2.82789e-07 0.000103567
0.000505977 -2.33906e-05 4.58362e-07
-2.33906e-05 -8.79061e-05 8.11046e-07
4.58362e-07 8.11046e-07 -0.00019168
0.000983252 -8.18055e-05 5.6546e-06
-8.18055e-05 0.000204192 7.31736e-07
5.6546e-06 7.31736e-07 7.18683e-05
0.00073606 -0.000124244 -1.32276e-05
-0.000124244 -2.90057e-06 4.21769e-06
-1.32276e-05 4.21769e-06 -9.68712e-05
0.000676067 4.10111e-06 -2.06849e-07
4.10111e-06 -1.35203e-05 1.83342e-07
-2.06849e-07 1.83342e-07 -8.52961e-05
0.000819931 5.36241e-05 -1.79302e-06
5.36241e-05 7.91613e-05 -2.00028e-06
-1.79302e-06 -2.00028e-06 -1.72825e-05
0.00201506 0.000124671 1.00555e-07
0.000124671 0.000190999 -3.70346e-07
1.00555e-07 -3.70346e-07 0.000115524
0.00172622 0.000169727 2.65391e-06
0.000169727 7.8877e-05 1.74993e-06
2.65391e-06 1.74993e-06 -2.33189e-05
0.00121831 8.05049e-05 -2.59175e-06
8.05049e-05 0.000291833 -3.31845e-07
-2.59175e-06 -3.31845e-07 0.000170079
0.000935968 0.000129769 -4.83305e-07
0.000129769 0.000153505 -3.05616e-06
-4.83305e-07 -3.05616e-06 -6.62384e-06
0.00210271 0.000239472 1.67163e-06
0.000239472 0.000398453 4.02962e-07
1.67163e-06 4.02962e-07 0.000247162
0.00135112 0.000191248 -6.99676e-07
0.000191248 0.00024418 -1.07724e-06
-6.99676e-07 -1.07724e-06 4.41858e-05
0.000821326 5.94364e-06 5.71574e-07
5.94364e-06 7.14233e-05 -6.0517e-07
5.71574e-07 -6.0517e-07 -6.56414e-06
0.00177869 8.89114e-05 -5.11391e-07
8.89114e-05 3.64835e-05 1.40216e-07
-5.11391e-07 1.40216e-07 -2.70665e-05
0.000919146 8.5091e-05 1.16253e-07
8.5091e-05 0.000148588 1.31832e-06
1.16253e-07 1.31832e-06 3.29509e-05
0.000793744 0.000123985 4.35402e-07
0.000123985 5.54836e-05 -2.44937e-07
4.35402e-07 -2.44937e-07 -0.00011183
0.00200564 0.000154991 2.3767e-06
0.000154991 0.000125599 -1.45998e-07
2.3767e-06 -1.45998e-07 5.24757e-05
0.00172135 0.000231454 -1.28678e-07
0.000231454 6.02457e-05 -1.16544e-06
-1.28678e-07 -1.16544e-06 -6.4758e-05
0.00201986 0.000244102 9.44942e-07
0.000244102 0.000528974 1.27536e-06
9.44942e-07 1.27536e-06 0.000322737
0.00101379 2.69062e-05 -1.60539e-06
2.69062e-05 0.00018869 9.77451e-07
-1.60539e-06 9.77451e-07 9.21483e-05
0.00202888 0.00010318 -1.23849e-05
0.00010318 0.000147752 -1.21724e-06
-1.23849e-05 -1.21724e-06 0.000105551
0.00193446 0.000171311 -3.01658e-06
0.000171311 0.000677998 1.97458e-07
-3.01658e-06 1.97458e-07 0.000541801
0.00209494 0.000222516 -4.39189e-06
0.000222516 0.000705628 1.42577e-06
-4.39189e-06 1.42577e-06 0.000516415
0.00239433 0.000261426 -1.86439e-06
0.000261426 0.00031596 -1.8742e-06
-1.86439e-06 -1.8742e-06 0.000230501
0.001477 0.000233397 -4.20495e-06
0.000233397 0.000120398 5.22278e-08
-4.20495e-06 5.22278e-08 -5.57593e-05
0.000279903 0.000108979 1.16561e-05
0.000108979 -0.00047104 2.02216e-07
1.16561e-05 2.02216e-07 -0.0006252
0.000828796 -4.99252e-06 -1.57699e-08
-4.99252e-06 7.03769e-05 -6.98262e-08
-1.57699e-08 -6.98262e-08 4.46652e-08
0.000868884 -2.3534e-05 -1.55304e-07
-2.3534e-05 9.93323e-05 2.24447e-07
-1.55304e-07 2.24447e-07 2.19125e-05
0.000931724 -1.42536e-05 -7.94643e-10
-1.42536e-05 0.000126578 -1.00863e-06
-7.94643e-10 -1.00863e-06 4.46588e-05
0.000785769 -4.52699e-05 -2.80724e-07
-4.52699e-05 3.02782e-05 -6.37301e-07
-2.80724e-07 -6.37301e-07 -2.45228e-05
0.000754379 -5.07686e-05 -1.05039e-06
-5.07686e-05 2.41069e-05 4.56738e-07
-1.05039e-06 4.56738e-07 -4.09762e-05
0.000883125 5.8556e-05 -8.74897e-07
5.8556e-05 0.000106461 6.37194e-07
-8.74897e-07 6.37194e-07 3.15111e-05
0.000772816 -4.60843e-05 -1.72126e-08
-4.60843e-05 4.15938e-05 8.6995e-08
-1.72126e-08 8.6995e-08 -3.39986e-05
0.000786082 -2.55322e-05 -7.67116e-08
-2.55322e-05 3.12822e-05 3.68053e-08
-7.67116e-08 3.68053e-08 -2.45476e-05
0.000760941 6.89613e-06 2.51003e-08
6.89613e-06 1.97789e-05 -9.43086e-08
2.51003e-08 -9.43086e-08 -4.44366e-05
0.000801998 -3.32138e-05 3.99279e-07
-3.32138e-05 5.32244e-05 -4.97061e-07
3.99279e-07 -4.97061e-07 -2.40421e-05
0.000884516 -2.12784e-05 -5.04267e-08
-2.12784e-05 9.55371e-05 3.37131e-08
-5.04267e-08 3.37131e-08 2.59136e-05
0.000882303 -4.47757e-05 3.28912e-07
-4.47757e-05 9.52489e-05 -2.34196e-08
3.28912e-07 -2.34196e-08 2.07152e-05
0.000841426 -3.94544e-05 -3.92592e-08
-3.94544e-05 6.74271e-05 -8.08486e-07
-3.92592e-08 -8.08486e-07 -8.70405e-06
0.000829584 -1.15582e-05 5.21104e-07
-1.15582e-05 5.69576e-05 -1.17552e-06
5.21104e-07 -1.17552e-06 -1.27514e-05
0.000867332 8.93602e-06 6.7006e-07
8.93602e-06 7.81128e-05 -4.46013e-07
6.7006e-07 -4.46013e-07 1.08315e-05
0.000821001 2.43114e-05 2.11566e-07
2.43114e-05 5.62253e-05 8.13066e-09
2.11566e-07 8.13066e-09 -1.56805e-05
0.000692371 -9.62669e-06 4.33013e-08
-9.62669e-06 -2.71222e-05 9.26006e-07
4.33013e-08 9.26006e-07 -8.11e-05
0.000921819 -5.58503e-06 3.06427e-07
-5.58503e-06 0.000125251 -5.93974e-07
3.06427e-07 -5.93974e-07 5.10392e-05
0.000664716 7.03315e-06 -5.202e-07
7.03315e-06 -3.81289e-05 9.32143e-07
-5.202e-07 9.32143e-07 -9.39948e-05
0.000752817 1.24542e-05 1.43216e-07
1.24542e-05 -8.08955e-07 1.37717e-06
1.43216e-07 1.37717e-06 -3.55206e-05
0.000753048 3.3215e-06 -1.39691e-07
3.3215e-06 -1.52393e-06 4.68827e-09
-1.39691e-07 4.68827e-09 -3.58473e-05
0.00070263 8.92616e-07 2.23503e-07
8.92616e-07 -4.20912e-05 3.27418e-06
2.23503e-07 3.27418e-06 -4.69922e-05
0.000766139 -7.01873e-06 -5.20862e-08
-7.01873e-06 4.27754e-06 -1.46596e-06
-5.20862e-08 -1.46596e-06 -2.92539e-05
0.00101219 -5.57585e-06 -1.45935e-06
-5.57585e-06 0.000130306 -1.39382e-06
-1.45935e-06 -1.39382e-06 0.000127443
0.00214942 -8.91569e-06 6.27256e-06
-8.91569e-06 0.000765952 4.34931e-06
6.27256e-06 4.34931e-06 0.000786769
0.00133733 -1.26636e-05 -2.97801e-06
-1.26636e-05 0.000312744 -4.62431e-06
-2.97801e-06 -4.62431e-06 0.000311593
0.000925173 -1.27908e-05 2.00738e-06
-1.27908e-05 8.61297e-05 2.67078e-06
2.00738e-06 2.67078e-06 0.000100509
0.000866196 -1.83497e-05 -1.03403e-06
-1.83497e-05 5.61597e-05 -1.66503e-06
-1.03403e-06 -1.66503e-06 7.06433e-05
0.0007611 7.61574e-06 2.8296e-07
7.61574e-06 5.22996e-06 -1.72705e-06
2.8296e-07 -1.72705e-06 -2.67067e-05
0.000765479 9.01924e-06 -3.29072e-08
9.01924e-06 7.45328e-06 6.90728e-09
-3.29072e-08 6.90728e-09 -2.5778e-05
0.000708115 1.73782e-05 4.69525e-07
1.73782e-05 -3.45549e-05 -3.44594e-06
4.69525e-07 -3.44594e-06 -3.94053e-05
0.00101019 2.6766e-05 -4.71894e-07
2.6766e-05 0.000137781 3.30591e-08
-4.71894e-07 3.30591e-08 0.000132572
0.00213923 3.50474e-05 1.63012e-05
3.50474e-05 0.000769901 -4.13471e-06
1.63012e-05 -4.13471e-06 0.000788584
0.000707198 3.00957e-05 -1.02917e-06
3.00957e-05 -2.53499e-05 3.60297e-06
-1.02917e-06 3.60297e-06 -3.47359e-05
0.00220765 4.49909e-05 -2.03727e-06
4.49909e-05 0.000814485 -9.86003e-08
-2.03727e-06 -9.86003e-08 0.000831013
0.00230122 5.41951e-05 -2.67613e-05
5.41951e-05 0.000874018 3.85214e-06
-2.67613e-05 3.85214e-06 0.000888125
0.00171979 9.86248e-05 -5.14874e-07
9.86248e-05 3.49049e-05 -4.74551e-07
-5.14874e-07 -4.74551e-07 -5.24035e-05
0.00184224 4.2058e-05 9.51195e-07
4.2058e-05 0.000105716 -7.32055e-07
9.51195e-07 -7.32055e-07 1.52121e-05
0.00180785 1.29297e-06 5.02154e-08
1.29297e-06 0.000115124 -1.68999e-07
5.02154e-08 -1.68999e-07 1.18766e-05
0.00177044 6.40576e-06 3.88547e-07
6.40576e-06 7.22282e-05 2.71744e-07
3.88547e-07 2.71744e-07 -1.92452e-05
0.00183997 5.5227e-05 -8.52918e-07
5.5227e-05 9.9483e-05 6.62228e-08
-8.52918e-07 6.62228e-08 2.07801e-05
0.00170328 4.00006e-05 2.24545e-06
4.00006e-05 3.21828e-06 5.13082e-08
2.24545e-06 5.13082e-08 -5.31885e-05
0.00163148 8.75842e-06 -1.24533e-06
8.75842e-06 -2.01843e-05 -1.37575e-07
-1.24533e-06 -1.37575e-07 -8.66558e-05
0.00331282 3.98661e-05 1.29363e-05
3.98661e-05 0.000649145 2.54753e-06
1.29363e-05 2.54753e-06 0.000593533
0.00168254 3.62227e-05 -7.66027e-06
3.62227e-05 -1.42149e-05 -8.99191e-07
-7.66027e-06 -8.99191e-07 -4.31962e-05
0.000789432 3.41337e-05 -1.4175e-07
3.41337e-05 4.14221e-05 -9.5924e-07
-1.4175e-07 -9.5924e-07 -1.10391e-05
0.00187232 -4.2631e-05 1.65315e-06
-4.2631e-05 0.000139211 1.84663e-07
1.65315e-06 1.84663e-07 4.95174e-05
0.00183021 -8.71784e-05 1.79043e-06
-8.71784e-05 0.000119374 -2.58455e-07
1.79043e-06 -2.58455e-07 4.03102e-05
0.00158193 -0.000104625 9.54315e-07
-0.000104625 -4.49485e-05 1.82293e-07
9.54315e-07 1.82293e-07 -0.000128203
0.000868891 -0.000127084 1.80422e-06
-0.000127084 0.000103556 3.6164e-06
1.80422e-06 3.6164e-06 -2.9144e-05
0.00108334 -0.000165695 1.44407e-06
-0.000165695 0.000132806 4.44966e-06
1.44407e-06 4.44966e-06 -7.63799e-05
0.00130129 -0.000201069 1.59063e-07
-0.000201069 8.93685e-06 -3.18766e-06
1.59063e-07 -3.18766e-06 -0.000149432
0.00168515 -0.000202705 1.54499e-07
-0.000202705 3.78968e-05 -1.51176e-06
1.54499e-07 -1.51176e-06 -6.36571e-05
0.0011013 -0.000126374 8.16709e-06
-0.000126374 0.000164395 -3.50674e-06
8.16709e-06 -3.50674e-06 5.28387e-05
0.000546381 -0.000104343 1.92647e-06
-0.000104343 -7.3558e-05 -9.20548e-06
1.92647e-06 -9.20548e-06 -0.000165293
0.00067461 -7.68246e-05 -1.35033e-07
-7.68246e-05 1.5583e-06 -1.00332e-06
-1.35033e-07 -1.00332e-06 -0.000109635
0.000760115 1.17664e-05 -9.38254e-07
1.17664e-05 6.24101e-06 1.84848e-06
-9.38254e-07 1.84848e-06 -2.89697e-05
0.000882999 -9.97522e-06 -7.74311e-09
-9.97522e-06 0.000105626 -7.52798e-07
-7.74311e-09 -7.52798e-07 1.30635e-05
0.0010359 -4.91982e-05 -3.58627e-07
-4.91982e-05 0.00018157 4.37678e-07
-3.58627e-07 4.37678e-07 0.000117801
0.000826353 -1.47289e-05 -8.70003e-07
-1.47289e-05 7.62049e-05 8.73733e-07
-8.70003e-07 8.73733e-07 -7.45877e-06
0.000628899 -1.08094e-05 -4.02957e-07
-1.08094e-05 -5.22307e-05 1.11086e-06
-4.02957e-07 1.11086e-06 -0.000106368
0.00189871 -5.37307e-05 -3.54806e-07
-5.37307e-05 0.000115134 -8.52169e-08
-3.54806e-07 -8.52169e-08 4.5663e-05
0.000684621 1.83982e-05 1.78556e-07
1.83982e-05 -1.26834e-05 -6.57178e-07
1.78556e-07 -6.57178e-07 -6.95264e-05
0.000790986 -4.36061e-05 -3.26776e-07
-4.36061e-05 4.39855e-05 6.37505e-08
-3.26776e-07 6.37505e-08 -1.70458e-05
0.000838392 -1.71928e-05 -6.28218e-07
-1.71928e-05 8.50498e-05 5.79061e-07
-6.28218e-07 5.79061e-07 9.03123e-06
0.00174998 -8.41226e-05 5.06447e-07
-8.41226e-05 3.10082e-05 -5.3647e-07
5.06447e-07 -5.3647e-07 -3.85395e-05
0.00177459 -0.000182658 1.67387e-07
-0.000182658 1.90516e-05 -5.25234e-08
1.67387e-07 -5.25234e-08 -5.99124e-05
0.000887132 -0.000111427 1.38116e-06
-0.000111427 7.08821e-05 -1.86914e-07
1.38116e-06 -1.86914e-07 -5.98499e-05
0.00111865 -0.000190306 1.36429e-06
-0.000190306 9.70009e-05 -1.02498e-07
1.36429e-06 -1.02498e-07 -0.000124617
0.0016733 -0.000240429 -8.3879e-07
-0.000240429 7.47988e-05 1.18965e-07
-8.3879e-07 1.18965e-07 -4.39213e-05
0.000744537 -1.42106e-07 -1.94734e-07
-1.42106e-07 3.48957e-05 -2.36374e-08
-1.94734e-07 -2.36374e-08 -4.9105e-05
0.000948275 -3.84533e-05 -4.39727e-08
-3.84533e-05 0.000146586 9.20058e-08
-4.39727e-08 9.20058e-08 5.59275e-05
0.000620416 -0.000119039 -5.85827e-06
-0.000119039 -5.48373e-05 1.25473e-06
-5.85827e-06 1.25473e-06 -0.000158502
0.000967465 -7.25507e-05 8.75838e-07
-7.25507e-05 0.000189542 -3.232e-07
8.75838e-07 -3.232e-07 6.33508e-05
0.000737339 -4.86899e-05 -4.90245e-07
-4.86899e-05 3.75585e-05 6.86799e-07
-4.90245e-07 6.86799e-07 -6.68077e-05
0.00193187 -0.000107099 -3.5376e-06
-0.000107099 8.09933e-05 1.13841e-07
-3.5376e-06 1.13841e-07 2.86555e-05
0.00229873 -0.000120874 -1.19254e-06
-0.000120874 0.000290868 6.52838e-07
-1.19254e-06 6.52838e-07 0.000233824
0.00208168 -0.000265999 -3.59935e-06
-0.000265999 0.000185269 -9.47114e-07
-3.59935e-06 -9.47114e-07 8.72957e-05
0.00192794 -0.000260602 -7.5535e-06
-0.000260602 0.000393867 7.79648e-07
-7.5535e-06 7.79648e-07 0.000224174
0.000935973 -0.000111786 -4.79043e-06
-0.000111786 0.000134821 -1.89805e-06
-4.79043e-06 -1.89805e-06 -3.18735e-05
0.000615916 1.37815e-05 5.32846e-07
1.37815e-05 -3.95449e-05 -1.2789e-06
5.32846e-07 -1.2789e-06 -0.000114349
0.000653873 5.34397e-05 -2.17384e-08
5.34397e-05 -1.69683e-05 -8.35894e-07
-2.17384e-08 -8.35894e-07 -9.60959e-05
0.000955585 1.49589e-05 1.02226e-06
1.49589e-05 0.000150208 1.87083e-07
1.02226e-06 1.87083e-07 6.66776e-05
0.000806339 -6.54474e-05 1.65961e-06
-6.54474e-05 7.37467e-05 1.32438e-07
1.65961e-06 1.32438e-07 -1.89466e-05
0.000842214 -6.96615e-06 5.23414e-07
-6.96615e-06 8.57207e-05 1.13004e-06
5.23414e-07 1.13004e-06 -6.29833e-06
0.000746198 -1.14836e-05 1.5901e-06
-1.14836e-05 5.59242e-05 -4.04997e-07
1.5901e-06 -4.04997e-07 -5.91755e-05
0.000721378 -9.09915e-05 8.56673e-06
-9.09915e-05 8.28235e-05 9.6497e-07
8.56673e-06 9.6497e-07 -8.63982e-05
0.000813793 4.08036e-05 4.75302e-07
4.08036e-05 7.25954e-05 -1.51853e-06
4.75302e-07 -1.51853e-06 -9.26494e-06
0.000612482 4.53943e-05 4.32475e-07
4.53943e-05 -2.20461e-05 6.89186e-08
4.32475e-07 6.89186e-08 -0.000131519
0.00189518 8.62581e-05 8.41348e-07
8.62581e-05 9.83708e-05 -5.77601e-07
8.41348e-07 -5.77601e-07 3.49805e-05
0.00177754 0.000147736 3.66395e-06
0.000147736 3.94175e-06 -4.2718e-07
3.66395e-06 -4.2718e-07 -6.93608e-05
0.00194277 0.000238491 2.27571e-06
0.000238491 0.000173104 -3.83886e-07
2.27571e-06 -3.83886e-07 5.07374e-05
0.000550909 0.000108696 1.85681e-06
0.000108696 -7.54389e-05 -5.74468e-07
1.85681e-06 -5.74468e-07 -0.000244527
0.001927 0.000242375 2.52076e-06
0.000242375 0.000486963 1.53593e-06
2.52076e-06 1.53593e-06 0.000281409
0.00100931 1.71766e-05 -2.4933e-07
1.71766e-05 0.000184197 2.40034e-07
-2.4933e-07 2.40034e-07 9.23318e-05
0.00190976 9.93499e-05 -1.25209e-06
9.93499e-05 7.84032e-05 -2.00779e-07
-1.25209e-06 -2.00779e-07 4.20833e-05
0.00129636 0.000134685 -9.76446e-07
0.000134685 0.000339168 1.32621e-07
-9.76446e-07 1.32621e-07 0.000208089
0.00144962 0.000179383 -6.37354e-07
0.000179383 0.000381219 1.09687e-06
-6.37354e-07 1.09687e-06 0.000189888
0.00213719 0.000244011 1.20414e-06
0.000244011 0.000177668 -7.67515e-07
1.20414e-06 -7.67515e-07 9.42603e-05
0.00147473 0.000233988 -1.32096e-06
0.000233988 0.000120273 1.07751e-06
-1.32096e-06 1.07751e-06 -5.98966e-05
0.0012973 0.000126492 1.29703e-05
0.000126492 -0.000165094 1.73504e-06
1.29703e-05 1.73504e-06 -0.000351801
0.00107577 5.17462e-05 -1.98736e-06
5.17462e-05 0.000218145 -1.2309e-06
-1.98736e-06 -1.2309e-06 0.000112578
0.00263855 0.000169177 -1.65539e-05
0.000169177 0.000468753 -1.01406e-05
-1.65539e-05 -1.01406e-05 0.000467168
0.00132905 0.000164126 -5.25986e-06
0.000164126 0.000362766 -1.24953e-06
-5.25986e-06 -1.24953e-06 0.000216489
0.00138109 0.000193413 -6.24931e-06
0.000193413 0.000285792 -4.91355e-07
-6.24931e-06 -4.91355e-07 7.54841e-05
0.000491939 0.00024642 -8.21328e-06
0.00024642 -0.000541445 -1.45491e-06
-8.21328e-06 -1.45491e-06 -0.000680053
0.00763606 4.76883e-05 -7.79845e-05
4.76883e-05 0.00236935 -2.89884e-05
-7.79845e-05 -2.89884e-05 0.00150212
0.00384032 0.000223325 9.32125e-05
0.000223325 0.000565201 2.78695e-06
9.32125e-05 2.78695e-06 -0.000112801
0.000192056 0.000211482 8.74559e-06
0.000211482 -0.000564952 1.77816e-05
8.74559e-06 1.77816e-05 -0.000664242
-0.00175945 -0.000341128 4.52867e-05
-0.000341128 -0.000706277 -1.07669e-05
4.52867e-05 -1.07669e-05 -0.00084512
0.00327729 -0.000674445 -2.2795e-05
-0.000674445 0.000405901 -1.03215e-05
-2.2795e-05 -1.03215e-05 0.00161411
0.00087245 -1.77519e-05 3.11793e-07
-1.77519e-05 0.000100434 -1.37101e-07
3.11793e-07 -1.37101e-07 2.33405e-05
0.000925539 -2.25683e-05 7.48785e-07
-2.25683e-05 0.00012656 -3.31757e-07
7.48785e-07 -3.31757e-07 4.51853e-05
0.000947627 2.31557e-05 -2.5363e-07
2.31557e-05 0.000141399 -2.02055e-06
-2.5363e-07 -2.02055e-06 5.94681e-05
0.000774084 -4.99883e-05 1.14085e-07
-4.99883e-05 2.86077e-05 -6.71145e-07
1.14085e-07 -6.71145e-07 -2.98159e-05
0.000718129 4.37525e-05 -9.2732e-07
4.37525e-05 -1.70118e-06 8.25999e-08
-9.2732e-07 8.25999e-08 -6.73406e-05
0.000878427 -4.83596e-05 -1.26365e-07
-4.83596e-05 9.32456e-05 3.12639e-07
-1.26365e-07 3.12639e-07 2.28584e-05
0.00096733 -2.63872e-05 -6.93335e-07
-2.63872e-05 0.000140366 4.37322e-07
-6.93335e-07 4.37322e-07 6.72792e-05
0.000840828 -3.82959e-05 1.51733e-07
-3.82959e-05 7.33236e-05 -3.60535e-07
1.51733e-07 -3.60535e-07 -4.68067e-06
0.000816764 3.32028e-05 -6.31889e-07
3.32028e-05 5.51242e-05 -2.30292e-07
-6.31889e-07 -2.30292e-07 -1.59465e-05
0.000730651 -4.60656e-06 -1.64864e-08
-4.60656e-06 -1.88266e-06 5.34577e-07
-1.64864e-08 5.34577e-07 -5.73431e-05
0.000821606 2.34065e-05 -2.94685e-07
2.34065e-05 5.5583e-05 -7.51854e-08
-2.94685e-07 -7.51854e-08 -1.50589e-05
0.00087164 -3.75852e-05 -2.48217e-07
-3.75852e-05 8.37351e-05 4.51903e-07
-2.48217e-07 4.51903e-07 8.10809e-06
0.000856628 -1.5525e-05 -8.86383e-08
-1.5525e-05 7.19506e-05 -1.97504e-07
-8.86383e-08 -1.97504e-07 2.29891e-06
0.000775249 1.55433e-05 3.86605e-07
1.55433e-05 2.31788e-05 -9.26908e-07
3.86605e-07 -9.26908e-07 -4.53194e-05
0.000783125 -1.90358e-05 7.50859e-07
-1.90358e-05 2.74942e-05 -1.8658e-06
7.50859e-07 -1.8658e-06 -3.92735e-05
0.00089246 2.20901e-05 1.36602e-06
2.20901e-05 8.59791e-05 -9.70462e-08
1.36602e-06 -9.70462e-08 1.61469e-05
0.000776007 2.4296e-06 1.02582e-06
2.4296e-06 2.24054e-05 -1.66834e-07
1.02582e-06 -1.66834e-07 -4.74413e-05
0.000676752 -3.77618e-05 -1.26105e-06
-3.77618e-05 -3.06631e-05 9.24135e-07
-1.26105e-06 9.24135e-07 -8.76191e-05
0.000874158 1.36131e-05 -4.03352e-07
1.36131e-05 8.61238e-05 -1.2816e-07
-4.03352e-07 -1.2816e-07 1.45417e-05
0.000932014 5.96439e-05 4.43509e-09
5.96439e-05 0.000118854 -1.12622e-06
4.43509e-09 -1.12622e-06 4.51118e-05
0.000775905 6.38493e-06 -6.98153e-07
6.38493e-06 4.16066e-05 -1.88026e-07
-6.98153e-07 -1.88026e-07 -2.73788e-05
0.00087677 1.09585e-05 6.15703e-07
1.09585e-05 9.32396e-05 -3.75715e-07
6.15703e-07 -3.75715e-07 2.25334e-05
0.00078703 -2.92036e-05 -1.41839e-06
-2.92036e-05 3.01948e-05 4.42108e-07
-1.41839e-06 4.42108e-07 -2.4169e-05
0.000678184 8.82893e-06 1.52718e-07
8.82893e-06 -2.74026e-05 4.77144e-07
1.52718e-07 4.77144e-07 -8.55244e-05
0.000763249 1.43771e-05 -2.1836e-07
1.43771e-05 4.77461e-06 1.40532e-06
-2.1836e-07 1.40532e-06 -2.97975e-05
0.000751479 5.57931e-06 -1.23689e-07
5.57931e-06 -1.74408e-06 1.29057e-09
-1.23689e-07 1.29057e-09 -3.63539e-05
0.000722483 6.44075e-06 -3.60842e-07
6.44075e-06 -2.98007e-05 4.66369e-06
-3.60842e-07 4.66369e-06 -3.52487e-05
0.000751694 -3.4822e-06 3.06193e-07
-3.4822e-06 -2.32011e-06 -1.40762e-06
3.06193e-07 -1.40762e-06 -3.65582e-05
0.000706879 1.113e-06 2.34892e-07
1.113e-06 -3.97192e-05 -7.46881e-09
2.34892e-07 -7.46881e-09 -4.46515e-05
0.00216556 -9.46073e-07 3.12618e-07
-9.46073e-07 0.000774477 4.41691e-06
3.12618e-07 4.41691e-06 0.000795165
0.000730858 -4.33008e-06 -5.49602e-07
-4.33008e-06 -2.59559e-05 -4.65936e-06
-5.49602e-07 -4.65936e-06 -3.06529e-05
0.0015394 -7.19152e-06 -3.76351e-07
-7.19152e-06 0.000426238 2.71392e-08
-3.76351e-07 2.71392e-08 0.000443806
0.000878624 -1.19057e-05 -5.22084e-07
-1.19057e-05 5.95599e-05 -1.66711e-06
-5.22084e-07 -1.66711e-06 7.42747e-05
0.000763483 4.81425e-06 -1.18819e-07
4.81425e-06 6.51276e-06 -1.73778e-06
-1.18819e-07 -1.73778e-06 -2.44553e-05
0.000760524 6.1052e-06 4.35897e-08
6.1052e-06 4.57739e-06 6.48068e-09
4.35897e-08 6.48068e-09 -2.73119e-05
0.000712603 1.15547e-05 2.12876e-07
1.15547e-05 -3.48944e-05 -3.42909e-06
2.12876e-07 -3.42909e-06 -3.85088e-05
0.000766165 7.68591e-06 -8.19723e-07
7.68591e-06 7.5519e-06 1.84951e-06
-8.19723e-07 1.84951e-06 -2.56777e-05
0.00100058 1.96917e-05 -2.32151e-07
1.96917e-05 0.000127829 -6.95462e-07
-2.32151e-07 -6.95462e-07 0.000124636
0.00211495 2.60069e-05 1.23372e-05
2.60069e-05 0.000751907 -4.28109e-06
1.23372e-05 -4.28109e-06 0.000771905
0.000708769 2.43401e-05 -7.03925e-07
2.43401e-05 -2.95953e-05 3.51851e-06
-7.03925e-07 3.51851e-06 -3.65966e-05
0.00218511 3.50743e-05 -6.9986e-06
3.50743e-05 0.000796765 1.15325e-06
-6.9986e-06 1.15325e-06 0.000815073
0.00222761 4.55034e-05 -2.17316e-05
4.55034e-05 0.000826397 4.00169e-06
-2.17316e-05 4.00169e-06 0.000842654
0.00171269 5.35578e-05 5.31305e-07
5.35578e-05 3.57313e-05 -2.52913e-07
5.31305e-07 -2.52913e-07 -4.35416e-05
0.00174858 7.64662e-06 9.07501e-07
7.64662e-06 5.74483e-05 -1.32361e-07
9.07501e-07 -1.32361e-07 -3.42617e-05
0.00187228 4.00476e-05 3.67725e-06
4.00476e-05 9.89584e-05 3.50501e-07
3.67725e-06 3.50501e-07 4.02864e-05
0.00204864 3.80518e-05 1.34518e-05
3.80518e-05 3.28485e-05 2.34109e-06
1.34518e-05 2.34109e-06 -3.76686e-05
0.00180219 8.0419e-06 -5.83348e-07
8.0419e-06 6.91772e-05 2.85421e-08
-5.83348e-07 2.85421e-08 2.67032e-06
0.00187364 3.55052e-05 1.72753e-06
3.55052e-05 9.93716e-05 6.06486e-07
1.72753e-06 6.06486e-07 6.77781e-05
0.00237772 5.65625e-06 -8.22663e-06
5.65625e-06 0.000365395 2.29183e-07
-8.22663e-06 2.29183e-07 0.000313401
0.00323474 -1.6299e-05 0.000136072
-1.6299e-05 0.000450747 1.11527e-06
0.000136072 1.11527e-06 0.00012552
0.00175753 -2.44285e-05 -9.14455e-06
-2.44285e-05 -6.92678e-05 -4.32754e-06
-9.14455e-06 -4.32754e-06 -0.000132288
0.000790915 4.05707e-05 -8.33124e-07
4.05707e-05 4.39509e-05 -9.39276e-07
-8.33124e-07 -9.39276e-07 -9.32618e-06
0.000788062 -1.33625e-05 7.03011e-07
-1.33625e-05 4.40321e-05 -7.13607e-08
7.03011e-07 -7.13607e-08 -1.10276e-05
0.000779873 -5.46989e-05 1.47086e-07
-5.46989e-05 4.46932e-05 -3.17581e-07
1.47086e-07 -3.17581e-07 -2.25524e-05
0.000789285 -2.02076e-05 -1.30738e-06
-2.02076e-05 5.93054e-05 1.35161e-08
-1.30738e-06 1.35161e-08 -1.33148e-05
0.00194106 -5.76885e-05 1.90236e-06
-5.76885e-05 0.000135301 -1.53324e-07
1.90236e-06 -1.53324e-07 6.73689e-05
0.00163271 -8.949e-05 -1.55034e-06
-8.949e-05 -4.09842e-05 8.21886e-08
-1.55034e-06 8.21886e-08 -0.000110387
0.0018846 -0.000185102 -8.58088e-07
-0.000185102 8.87507e-05 1.19223e-06
-8.58088e-07 1.19223e-06 7.12513e-06
0.000969593 -0.000141212 3.74501e-06
-0.000141212 0.000107874 2.33887e-06
3.74501e-06 2.33887e-06 -1.91213e-05
0.000113755 -0.00012633 3.99557e-06
-0.00012633 -0.000415889 -8.50295e-07
3.99557e-06 -8.50295e-07 -0.000636386
0.00222318 -0.000274001 7.26145e-07
-0.000274001 0.000364997 -2.36604e-06
7.26145e-07 -2.36604e-06 0.000241801
0.000559954 -0.000104929 -7.21652e-06
-0.000104929 -8.13643e-05 9.93803e-07
-7.21652e-06 9.93803e-07 -0.000192635
0.00100922 -6.53863e-05 -1.36303e-06
-6.53863e-05 0.000205732 -1.19036e-06
-1.36303e-06 -1.19036e-06 8.5434e-05
0.000953111 -7.39828e-05 -1.96816e-06
-7.39828e-05 0.000154941 7.71148e-07
-1.96816e-06 7.71148e-07 4.9778e-05
0.00079899 -1.92965e-05 -1.29521e-06
-1.92965e-05 4.6055e-05 1.22711e-06
-1.29521e-06 1.22711e-06 -1.34064e-05
0.000845282 -5.08796e-05 -4.96215e-07
-5.08796e-05 9.58873e-05 -2.14996e-07
-4.96215e-07 -2.14996e-07 6.38934e-07
0.000857255 -4.33291e-06 -9.33768e-07
-4.33291e-06 9.49645e-05 6.28264e-07
-9.33768e-07 6.28264e-07 1.30895e-05
0.000791922 -4.56064e-06 -2.69156e-08
-4.56064e-06 4.84217e-05 4.69207e-07
-2.69156e-08 4.69207e-07 -8.98359e-06
0.000695114 1.93254e-05 -2.01039e-07
1.93254e-05 8.50417e-06 1.44599e-06
-2.01039e-07 1.44599e-06 -7.00793e-05
0.00194448 -9.15391e-05 -3.47053e-08
-9.15391e-05 0.000112225 1.9213e-07
-3.47053e-08 1.9213e-07 5.78594e-05
0.000796018 8.96664e-06 6.18415e-07
8.96664e-06 5.98062e-05 -4.70053e-07
6.18415e-07 -4.70053e-07 -1.37646e-05
0.000743654 2.12454e-05 5.53631e-07
2.12454e-05 3.39081e-05 -6.02082e-08
5.53631e-07 -6.02082e-08 -4.58824e-05
0.000846245 5.7084e-05 -3.81971e-07
5.7084e-05 9.37019e-05 7.81929e-07
-3.81971e-07 7.81929e-07 8.75433e-06
0.00197688 -0.000115162 -2.86266e-06
-0.000115162 0.000104374 8.92901e-07
-2.86266e-06 8.92901e-07 4.36082e-05
0.00188655 -0.000248882 5.20296e-07
-0.000248882 9.39394e-05 -1.18931e-06
5.20296e-07 -1.18931e-06 -1.04458e-06
0.000999118 -0.000146869 -1.31927e-06
-0.000146869 0.000156854 1.00048e-07
-1.31927e-06 1.00048e-07 -9.37549e-06
0.00218633 -0.000275805 -7.00475e-07
-0.000275805 0.000524812 1.56798e-07
-7.00475e-07 1.56798e-07 0.000351294
0.000903088 -1.95278e-05 -3.23606e-07
-1.95278e-05 0.000123019 5.7525e-08
-3.23606e-07 5.7525e-08 3.2396e-05
0.000807965 -2.36215e-05 -7.27498e-08
-2.36215e-05 7.38656e-05 9.01114e-07
-7.27498e-08 9.01114e-07 -2.07285e-05
0.000795466 -9.56531e-05 3.79515e-06
-9.56531e-05 0.000112271 -1.09665e-06
3.79515e-06 -1.09665e-06 -4.7997e-05
0.00101154 -6.17241e-05 1.00823e-06
-6.17241e-05 0.000204314 -1.08797e-06
1.00823e-06 -1.08797e-06 8.02806e-05
0.00197497 -7.64071e-05 -4.34448e-06
-7.64071e-05 8.62768e-05 3.85014e-06
-4.34448e-06 3.85014e-06 2.42523e-05
0.0023494 -0.000223192 -5.19754e-06
-0.000223192 0.000246357 -2.03345e-06
-5.19754e-06 -2.03345e-06 0.000205966
0.0023078 -0.000293624 -3.96145e-06
-0.000293624 0.000437768 -2.01008e-06
-3.96145e-06 -2.01008e-06 0.00029839
0.00134249 -0.00021117 -1.52323e-06
-0.00021117 0.000314833 -1.17754e-06
-1.52323e-06 -1.17754e-06 0.000139601
0.000755322 2.67854e-05 -3.61087e-07
2.67854e-05 4.43196e-05 -5.38309e-07
-3.61087e-07 -5.38309e-07 -4.60997e-05
0.000770206 -3.83489e-05 7.31556e-07
-3.83489e-05 5.72863e-05 -8.58736e-07
7.31556e-07 -8.58736e-07 -3.3654e-05
0.000803992 -2.51372e-05 2.95988e-07
-2.51372e-05 7.53812e-05 4.4511e-07
2.95988e-07 4.4511e-07 -2.43412e-05
0.00081563 3.34692e-07 -6.40353e-07
3.34692e-07 0.000126876 4.70524e-07
-6.40353e-07 4.70524e-07 -4.85678e-05
0.000397438 -0.000103864 9.29742e-06
-0.000103864 -0.00137969 -4.3533e-06
9.29742e-06 -4.3533e-06 -0.00184987
0.000993052 1.07252e-05 9.6271e-07
1.07252e-05 0.000172719 -1.08713e-06
9.6271e-07 -1.08713e-06 8.61301e-05
0.000651604 8.89125e-05 2.12155e-06
8.89125e-05 -4.53181e-06 1.22187e-06
2.12155e-06 1.22187e-06 -0.000129219
0.00175495 9.65615e-05 1.11994e-05
9.65615e-05 -9.71289e-06 6.49948e-07
1.11994e-05 6.49948e-07 -3.9256e-05
0.00194223 0.000229958 1.26554e-06
0.000229958 7.082e-05 -1.02039e-06
1.26554e-06 -1.02039e-06 -1.04915e-05
0.00134705 0.000227579 4.17473e-06
0.000227579 5.59882e-05 2.55073e-06
4.17473e-06 2.55073e-06 -0.000129601
0.000765552 0.000133211 3.96158e-06
0.000133211 3.61228e-05 1.11247e-06
3.96158e-06 1.11247e-06 -0.00015754
0.00227407 0.000153009 1.20055e-05
0.000153009 0.000139481 1.20106e-06
1.20055e-05 1.20106e-06 -9.16175e-05
0.000970972 4.59444e-05 8.18209e-07
4.59444e-05 0.000167395 -7.78492e-07
8.18209e-07 -7.78492e-07 6.40194e-05
0.00220151 0.000159466 -6.36572e-06
0.000159466 0.000242297 -2.1593e-06
-6.36572e-06 -2.1593e-06 0.000251652
0.00106518 0.000145635 1.96148e-07
0.000145635 0.000226125 -2.8731e-07
1.96148e-07 -2.8731e-07 8.36435e-05
0.00117508 0.000186551 -3.47538e-07
0.000186551 0.000186176 7.30266e-07
-3.47538e-07 7.30266e-07 -2.62393e-05
0.0012574 0.000285046 -1.96359e-06
0.000285046 -0.000168102 -7.13604e-07
-1.96359e-06 -7.13604e-07 -0.000300227
0.00275902 -0.000145782 -5.4011e-05
-0.000145782 -1.99163e-05 -1.70374e-05
-5.4011e-05 -1.70374e-05 -0.000832623
0.00351552 0.000158756 6.11932e-06
0.000158756 0.00025568 -1.48996e-05
6.11932e-06 -1.48996e-05 -0.000515303
0.000299785 0.000179044 6.29585e-06
0.000179044 -0.000505121 5.73495e-06
6.29585e-06 5.73495e-06 -0.000611201
-0.00190299 -0.000201856 4.84961e-05
-0.000201856 -0.000452641 1.3003e-05
4.84961e-05 1.3003e-05 -0.000909966
-0.000166786 -0.000691557 3.73472e-07
-0.000691557 -0.0012566 -1.21151e-05
3.73472e-07 -1.21151e-05 0.000145549
0.0012056 9.90961e-05 -2.68351e-06
9.90961e-05 0.000315722 -2.49203e-06
-2.68351e-06 -2.49203e-06 0.000210156
0.000756912 0.000151712 -4.74751e-05
0.000151712 0.000811261 -2.42964e-05
-4.74751e-05 -2.42964e-05 0.000317035
0.0014558 -0.000345146 -4.93848e-05
-0.000345146 0.000768712 -4.73464e-05
-4.93848e-05 -4.73464e-05 0.000873309
0.00216909 0.000225934 -2.09418e-05
0.000225934 0.000277215 -5.75244e-06
-2.09418e-05 -5.75244e-06 0.000296553
0.00102764 8.92382e-05 -8.24078e-06
8.92382e-05 0.000220996 -2.10477e-06
-8.24078e-06 -2.10477e-06 6.48192e-05
0.00100102 0.000275249 -1.42595e-05
0.000275249 1.31999e-05 -7.1991e-06
-1.42595e-05 -7.1991e-06 -0.000208891
-0.000244547 0.000229639 8.62001e-06
0.000229639 -0.000791877 4.71906e-05
8.62001e-06 4.71906e-05 -0.000777981
0.00749947 -8.37929e-05 -4.37111e-05
-8.37929e-05 0.00261545 -1.58562e-05
-4.37111e-05 -1.58562e-05 0.00128742
0.00368904 0.000364648 -7.00174e-06
0.000364648 0.000544069 1.95593e-05
-7.00174e-06 1.95593e-05 -0.000525214
0.00068829 -0.000546884 6.47093e-06
-0.000546884 -0.000154217 6.2165e-06
6.47093e-06 6.2165e-06 0.000167459
0.0011247 -0.000383878 -2.78052e-05
-0.000383878 -0.00159939 2.97644e-05
-2.78052e-05 2.97644e-05 -0.000501662
0.000893515 -2.96951e-05 1.00262e-06
-2.96951e-05 0.000113642 -4.41999e-07
1.00262e-06 -4.41999e-07 3.25869e-05
0.000923859 1.10179e-05 7.56763e-08
1.10179e-05 0.000128961 -1.65696e-09
7.56763e-08 -1.65696e-09 4.78364e-05
0.00111611 4.71929e-05 -7.92226e-07
4.71929e-05 0.000229958 -2.89755e-06
-7.92226e-07 -2.89755e-06 0.000163959
0.00077056 2.92653e-06 -1.25197e-07
2.92653e-06 3.01088e-05 -3.40018e-08
-1.25197e-07 -3.40018e-08 -3.07686e-05
0.000829987 1.7709e-05 -6.8335e-07
1.7709e-05 5.9021e-05 -1.00795e-07
-6.8335e-07 -1.00795e-07 -1.03527e-05
0.000765157 -3.26512e-05 -5.41554e-07
-3.26512e-05 2.09631e-05 1.88915e-07
-5.41554e-07 1.88915e-07 -4.63948e-05
0.000895501 -1.87214e-05 5.49207e-08
-1.87214e-05 9.3633e-05 4.85301e-07
5.49207e-08 4.85301e-07 2.37383e-05
0.000925065 -3.95932e-05 -2.35676e-07
-3.95932e-05 0.000113478 1.58856e-06
-2.35676e-07 1.58856e-06 3.7844e-05
0.000678358 -2.77111e-07 4.77209e-07
-2.77111e-07 -2.75528e-05 4.83998e-07
4.77209e-07 4.83998e-07 -8.60557e-05
0.000831753 -1.1792e-05 -1.37972e-07
-1.1792e-05 5.32925e-05 -1.53124e-07
-1.37972e-07 -1.53124e-07 -1.5297e-05
0.000897984 -1.09538e-05 -2.11218e-08
-1.09538e-05 9.1114e-05 2.77724e-07
-2.11218e-08 2.77724e-07 2.07073e-05
0.000849223 2.37629e-05 5.55432e-07
2.37629e-05 7.02315e-05 -2.25457e-07
5.55432e-07 -2.25457e-07 -3.44413e-06
0.000806668 -1.63181e-05 1.55424e-07
-1.63181e-05 3.99922e-05 -1.21804e-07
1.55424e-07 -1.21804e-07 -2.61936e-05
0.000832424 -2.13003e-05 5.57018e-07
-2.13003e-05 4.7205e-05 -9.8421e-07
5.57018e-07 -9.8421e-07 -2.05387e-05
0.0008 1.44069e-05 -6.67568e-07
1.44069e-05 2.8389e-05 -4.11993e-06
-6.67568e-07 -4.11993e-06 -3.14723e-05
0.000909789 -5.7867e-05 1.92783e-07
-5.7867e-05 9.29846e-05 -5.17563e-07
1.92783e-07 -5.17563e-07 1.97388e-05
0.00088564 -4.4422e-05 -4.79191e-07
-4.4422e-05 9.2555e-05 -5.66667e-07
-4.79191e-07 -5.66667e-07 1.82127e-05
0.000889634 -9.18654e-06 -4.55578e-07
-9.18654e-06 9.52225e-05 -1.58337e-07
-4.55578e-07 -1.58337e-07 2.27332e-05
0.000914113 4.83961e-05 -4.5791e-07
4.83961e-05 0.000105645 -2.88044e-07
-4.5791e-07 -2.88044e-07 3.35909e-05
0.000875835 2.10238e-05 -4.2731e-07
2.10238e-05 8.7786e-05 -1.04105e-06
-4.2731e-07 -1.04105e-06 7.64342e-06
0.00083283 4.80892e-05 1.9309e-07
4.80892e-05 6.69558e-05 -6.68459e-07
1.9309e-07 -6.68459e-07 -4.63901e-06
0.000846728 5.06245e-05 5.0597e-08
5.06245e-05 6.57238e-05 -1.19437e-06
5.0597e-08 -1.19437e-06 -3.93388e-06
0.000759394 4.46497e-05 1.43455e-06
4.46497e-05 4.14207e-05 9.77787e-07
1.43455e-06 9.77787e-07 -3.4367e-05
0.000777685 1.8263e-05 -3.17571e-07
1.8263e-05 3.74175e-05 -1.09808e-07
-3.17571e-07 -1.09808e-07 -2.53845e-05
0.000797699 5.87987e-07 -6.62539e-08
5.87987e-07 5.12291e-05 2.8338e-08
-6.62539e-08 2.8338e-08 -1.63438e-05
0.000784756 8.18742e-06 -1.08508e-06
8.18742e-06 2.62908e-05 3.4421e-07
-1.08508e-06 3.4421e-07 -2.49689e-05
0.000828046 1.50031e-05 7.57394e-07
1.50031e-05 5.80215e-05 -1.1365e-07
7.57394e-07 -1.1365e-07 -8.31951e-06
0.000754506 -2.4134e-05 -3.44676e-08
-2.4134e-05 1.19847e-05 1.87507e-08
-3.44676e-08 1.87507e-08 -4.2846e-05
0.000768486 1.66229e-05 -5.88492e-07
1.66229e-05 7.52453e-06 1.47108e-06
-5.88492e-07 1.47108e-06 -2.66972e-05
0.000689808 8.27289e-06 4.72584e-07
8.27289e-06 -1.77487e-05 -2.1164e-08
4.72584e-07 -2.1164e-08 -7.80376e-05
0.000756986 8.58312e-06 -1.1115e-07
8.58312e-06 9.23843e-07 2.13269e-09
-1.1115e-07 2.13269e-09 -3.34891e-05
0.00134745 1.4393e-05 -2.97987e-06
1.4393e-05 0.000319879 4.57168e-06
-2.97987e-06 4.57168e-06 0.000317465
0.000748554 -1.15888e-06 5.84094e-07
-1.15888e-06 -3.51976e-06 -1.38629e-06
5.84094e-07 -1.38629e-06 -3.80414e-05
0.00102945 7.64464e-06 -1.42822e-06
7.64464e-06 0.00014098 6.92679e-07
-1.42822e-06 6.92679e-07 0.000137251
0.000937551 3.6239e-06 -3.10332e-06
3.6239e-06 9.15331e-05 4.29681e-06
-3.10332e-06 4.29681e-06 0.000105493
0.000712255 1.32581e-06 1.77692e-08
1.32581e-06 -3.67022e-05 -3.25809e-06
1.77692e-08 -3.25809e-06 -4.1675e-05
0.00216976 -1.90401e-07 2.82105e-06
-1.90401e-07 0.000776845 -7.19651e-10
2.82105e-06 -7.19651e-10 0.000797487
0.000946707 -3.83333e-06 -2.63923e-06
-3.83333e-06 9.63524e-05 -4.29344e-06
-2.63923e-06 -4.29344e-06 0.000110746
0.000789593 5.65157e-05 6.01743e-07
5.65157e-05 4.66694e-05 -2.16007e-07
6.01743e-07 -2.16007e-07 -1.00692e-05
0.000762653 1.11107e-06 -5.66318e-08
1.11107e-06 5.59388e-06 -1.6854e-06
-5.66318e-08 -1.6854e-06 -2.48178e-05
0.000761704 3.53209e-06 -1.07227e-07
3.53209e-06 5.33647e-06 -3.56878e-09
-1.07227e-07 -3.56878e-09 -2.55825e-05
0.000716005 5.52195e-06 -7.18173e-08
5.52195e-06 -3.47221e-05 -3.39072e-06
-7.18173e-08 -3.39072e-06 -3.73962e-05
0.000761339 4.72453e-06 -3.94318e-07
4.72453e-06 4.67953e-06 1.73025e-06
-3.94318e-07 1.73025e-06 -2.71711e-05
0.00070677 1.1726e-05 1.76125e-08
1.1726e-05 -3.85304e-05 -7.11456e-07
1.76125e-08 -7.11456e-07 -4.20492e-05
0.00209302 1.69772e-05 8.24178e-06
1.69772e-05 0.000736565 -4.38137e-06
8.24178e-06 -4.38137e-06 0.000757524
0.0012937 2.36506e-05 -1.18115e-06
2.36506e-05 0.000291265 2.0801e-06
-1.18115e-06 2.0801e-06 0.000289438
0.00153699 2.22101e-05 3.70396e-07
2.22101e-05 0.000431299 1.3706e-06
3.70396e-07 1.3706e-06 0.000447807
0.000987144 2.48907e-05 -1.64282e-05
2.48907e-05 0.000130518 6.91987e-06
-1.64282e-05 6.91987e-06 0.000142271
0.000392644 4.22809e-05 2.23464e-05
4.22809e-05 -0.000779187 9.16784e-06
2.23464e-05 9.16784e-06 -0.000874287
0.00195114 7.0942e-06 2.82948e-06
7.0942e-06 0.000145632 2.71045e-07
2.82948e-06 2.71045e-07 7.91174e-05
0.00204687 3.31084e-05 1.15341e-05
3.31084e-05 0.000202769 -1.90484e-07
1.15341e-05 -1.90484e-07 0.000167589
0.000904964 1.75544e-05 2.11373e-05
1.75544e-05 -0.000492823 -3.64848e-06
2.11373e-05 -3.64848e-06 -0.000846144
0.0017759 -1.77134e-05 9.77673e-07
-1.77134e-05 -1.47425e-05 7.37856e-07
9.77673e-07 7.37856e-07 -7.04613e-05
0.00202169 -4.1603e-06 -2.94554e-06
-4.1603e-06 0.000119346 -9.21252e-07
-2.94554e-06 -9.21252e-07 7.2836e-05
0.00219005 -1.96796e-05 -2.92025e-05
-1.96796e-05 0.000204877 2.60868e-06
-2.92025e-05 2.60868e-06 0.000160797
0.00183088 -9.9423e-05 0.000134942
-9.9423e-05 -7.24139e-05 -1.00969e-05
0.000134942 -1.00969e-05 -0.000379717
0.00800386 -5.73565e-05 -3.12918e-05
-5.73565e-05 0.00256152 3.31537e-06
-3.12918e-05 3.31537e-06 0.001653
0.00377895 0.000704932 4.40924e-05
0.000704932 0.00182049 -1.16225e-05
4.40924e-05 -1.16225e-05 0.00200713
0.00209056 0.00065308 -1.26684e-05
0.00065308 0.000631455 1.33786e-05
-1.26684e-05 1.33786e-05 0.00164985
0.000643647 -5.98408e-05 1.21428e-06
-5.98408e-05 -2.54225e-05 -8.80391e-07
1.21428e-06 -8.80391e-07 -9.53148e-05
0.000793465 -9.55073e-06 4.04364e-07
-9.55073e-06 4.67908e-05 -4.96957e-08
4.04364e-07 -4.96957e-08 -7.54097e-06
0.000786575 -6.11432e-05 -1.17833e-06
-6.11432e-05 4.7158e-05 1.126e-06
-1.17833e-06 1.126e-06 -1.07461e-05
0.000768334 -2.60942e-05 -3.18124e-07
-2.60942e-05 4.25235e-05 5.64769e-08
-3.18124e-07 5.64769e-08 -2.81207e-05
0.00077359 4.13342e-05 2.17251e-07
4.13342e-05 5.79622e-05 6.09098e-07
2.17251e-07 6.09098e-07 -2.57676e-05
0.000917565 8.35813e-05 5.56426e-07
8.35813e-05 0.000125603 8.5251e-07
5.56426e-07 8.5251e-07 4.68457e-05
0.000846342 -2.30021e-05 7.69621e-07
-2.30021e-05 8.4496e-05 -9.85866e-07
7.69621e-07 -9.85866e-07 1.41828e-05
0.000751196 -3.51555e-05 -5.00679e-07
-3.51555e-05 3.41339e-05 6.19674e-07
-5.00679e-07 6.19674e-07 -3.58856e-05
0.00196134 -7.48684e-05 3.40436e-06
-7.48684e-05 0.000146003 -7.10807e-07
3.40436e-06 -7.10807e-07 9.02435e-05
0.00165541 -0.000114337 1.27222e-06
-0.000114337 -9.14813e-05 -1.01212e-07
1.27222e-06 -1.01212e-07 -0.000155482
0.00154641 -0.000228479 5.08731e-07
-0.000228479 -6.90464e-05 5.51651e-07
5.08731e-07 5.51651e-07 -0.000161247
0.000983188 -0.000162077 1.64446e-06
-0.000162077 0.000132589 2.75307e-06
1.64446e-06 2.75307e-06 -3.09136e-05
0.00221013 -0.000277374 1.45755e-06
-0.000277374 0.000535036 6.70161e-07
1.45755e-06 6.70161e-07 0.000356599
0.000829604 -9.76852e-05 -9.57983e-07
-9.76852e-05 0.000121334 -5.5951e-07
-9.57983e-07 -5.5951e-07 -3.0415e-05
0.00126565 -0.000109218 -3.52324e-07
-0.000109218 0.00034729 -5.93483e-07
-3.52324e-07 -5.93483e-07 0.000214122
0.00080063 -4.90597e-05 -1.44199e-06
-4.90597e-05 7.64979e-05 5.43293e-07
-1.44199e-06 5.43293e-07 -2.07862e-05
0.0007997 -3.37734e-06 3.87322e-08
-3.37734e-06 6.58088e-05 8.06222e-07
3.87322e-08 8.06222e-07 -1.40375e-05
0.00100532 1.21748e-05 -1.28767e-06
1.21748e-05 0.000175278 -2.56447e-07
-1.28767e-06 -2.56447e-07 8.68292e-05
0.00100656 -3.63773e-06 6.35176e-07
-3.63773e-06 0.000174721 4.03173e-07
6.35176e-07 4.03173e-07 0.000102731
0.000755596 9.39237e-05 1.08123e-06
9.39237e-05 4.6847e-05 1.69668e-06
1.08123e-06 1.69668e-06 -3.9708e-05
0.00160118 -7.74787e-05 -1.15941e-06
-7.74787e-05 -0.000121142 -2.20224e-06
-1.15941e-06 -2.20224e-06 -0.000178126
0.000822874 3.20062e-05 -4.77827e-07
3.20062e-05 8.13847e-05 2.80889e-07
-4.77827e-07 2.80889e-07 -7.04652e-06
0.000837329 -3.0131e-05 -4.20666e-07
-3.0131e-05 8.91045e-05 -3.42161e-07
-4.20666e-07 -3.42161e-07 7.10134e-07
0.00206134 -0.000222097 -1.82736e-07
-0.000222097 0.000102423 -9.53772e-07
-1.82736e-07 -9.53772e-07 5.31704e-05
0.00120759 -0.000237954 7.15006e-07
-0.000237954 -0.000123737 1.19682e-06
7.15006e-07 1.19682e-06 -0.000251059
0.00140654 -0.000216206 1.29073e-06
-0.000216206 0.000341955 -1.50638e-06
1.29073e-06 -1.50638e-06 0.000154961
0.000941142 -2.34877e-05 2.38337e-07
-2.34877e-05 0.000151461 -5.95017e-07
2.38337e-07 -5.95017e-07 4.90039e-05
0.000969502 -3.31721e-05 1.62201e-07
-3.31721e-05 0.000205375 5.56638e-07
1.62201e-07 5.56638e-07 3.10325e-05
0.00372671 -0.000179945 -1.03329e-05
-0.000179945 0.00113479 5.88106e-06
-1.03329e-05 5.88106e-06 0.00105496
0.00296216 -0.000313621 -1.26331e-05
-0.000313621 0.000639647 7.07009e-07
-1.26331e-05 7.07009e-07 0.000601242
-0.000532586 -0.000158542 -3.85763e-06
-0.000158542 -0.000837992 -1.66917e-06
-3.85763e-06 -1.66917e-06 -0.000977752
0.00116111 -0.000135623 -4.74236e-06
-0.000135623 0.00025718 3.58533e-06
-4.74236e-06 3.58533e-06 5.66079e-05
0.000709544 -7.74653e-05 1.11124e-06
-7.74653e-05 1.17269e-05 -2.15476e-07
1.11124e-06 -2.15476e-07 -7.59599e-05
0.00083934 -3.26167e-05 1.06681e-06
-3.26167e-05 8.77044e-05 2.37594e-08
1.06681e-06 2.37594e-08 -5.1783e-06
0.00089542 -7.53229e-06 -2.19585e-06
-7.53229e-06 0.000134526 5.01707e-07
-2.19585e-06 5.01707e-07 1.58032e-05
-0.00381268 -3.11703e-05 8.3669e-05
-3.11703e-05 -0.00172732 4.27793e-06
8.3669e-05 4.27793e-06 -0.00154307
0.00847459 -6.31865e-05 -3.04517e-05
-6.31865e-05 0.00287207 -9.43585e-07
-3.04517e-05 -9.43585e-07 0.00229018
0.000910174 4.41376e-05 2.30206e-06
4.41376e-05 0.000140895 -3.50187e-07
2.30206e-06 -3.50187e-07 3.87733e-05
0.000788128 0.00012643 3.61573e-06
0.00012643 8.18272e-05 -7.04956e-08
3.61573e-06 -7.04956e-08 -5.72361e-05
0.00172836 0.000141709 6.08699e-06
0.000141709 -8.57751e-06 6.42305e-06
6.08699e-06 6.42305e-06 1.49423e-05
0.0020139 0.000323368 3.63307e-06
0.000323368 0.000201055 1.18149e-06
3.63307e-06 1.18149e-06 7.58658e-05
0.00103463 0.000183018 5.91254e-06
0.000183018 0.000120092 2.24549e-06
5.91254e-06 2.24549e-06 -9.34815e-05
0.0055114 0.000206216 6.32328e-05
0.000206216 0.00128023 1.60948e-06
6.32328e-05 1.60948e-06 0.000324832
0.00554847 0.000226622 -8.8959e-05
0.000226622 0.00111827 -2.87862e-05
-8.8959e-05 -2.87862e-05 0.00047723
5.77932e-05 0.000136387 3.86344e-06
0.000136387 -0.000630354 -1.92111e-05
3.86344e-06 -1.92111e-05 -0.000731704
0.00406031 -0.000565305 1.29535e-05
-0.000565305 0.00202054 2.15841e-05
1.29535e-05 2.15841e-05 0.00190879
-0.00358218 -0.000729145 -4.53082e-05
-0.000729145 -0.00283417 -5.56898e-05
-4.53082e-05 -5.56898e-05 -0.00122421
0.000968427 0.000104529 3.33884e-07
0.000104529 0.000191555 -6.79918e-07
3.33884e-07 -6.79918e-07 8.47268e-05
-0.00250204 -0.00017542 2.62603e-05
-0.00017542 -0.00136778 3.36924e-06
2.62603e-05 3.36924e-06 -0.0013563
-0.000519489 -0.000311294 -3.13421e-05
-0.000311294 -2.62819e-05 -1.15014e-05
-3.13421e-05 -1.15014e-05 -0.000153266
0.00247833 0.00022839 -4.0655e-06
0.00022839 0.000412378 -3.14961e-06
-4.0655e-06 -3.14961e-06 0.00044768
0.000882916 0.000105033 -8.35447e-07
0.000105033 0.000160612 -6.46648e-07
-8.35447e-07 -6.46648e-07 2.25307e-06
0.000618626 0.000206478 1.73491e-06
0.000206478 -0.000158239 1.61978e-06
1.73491e-06 1.61978e-06 -0.000371349
0.000291149 0.000151968 1.40313e-05
0.000151968 -0.000447409 1.0443e-05
1.40313e-05 1.0443e-05 -0.000391212
0.00617842 -4.45889e-05 -7.42533e-06
-4.45889e-05 0.00184206 -5.38032e-06
-7.42533e-06 -5.38032e-06 0.000406294
0.00614362 0.000504797 -3.20061e-05
0.000504797 0.00157143 -1.7088e-05
-3.20061e-05 -1.7088e-05 0.000820904
0.00498516 -0.000806738 1.99332e-05
-0.000806738 0.00211489 -1.5596e-05
1.99332e-05 -1.5596e-05 0.00218343
0.00110265 -0.00044565 2.76126e-05
-0.00044565 -0.00171531 6.22981e-05
2.76126e-05 6.22981e-05 -0.000572331
0.000981929 6.10391e-05 -6.38154e-06
6.10391e-05 0.000217097 -5.5752e-06
-6.38154e-06 -5.5752e-06 0.000126035
-0.00231094 -8.75447e-05 -7.12456e-05
-8.75447e-05 -0.000316673 -2.12017e-05
-7.12456e-05 -2.12017e-05 -0.000958234
0.0019365 -9.18707e-06 -6.21219e-05
-9.18707e-06 0.000237321 -6.57013e-05
-6.21219e-05 -6.57013e-05 -0.000315407
0.000484688 0.000208544 -2.35984e-05
0.000208544 -0.000317912 -2.58053e-07
-2.35984e-05 -2.58053e-07 -0.000305863
0.00153991 0.000233637 -2.66044e-05
0.000233637 0.000566967 -7.46592e-06
-2.66044e-05 -7.46592e-06 0.000389596
0.00235099 0.000138701 -4.40157e-05
0.000138701 0.000910054 -1.31258e-06
-4.40157e-05 -1.31258e-06 0.000789174
0.00444736 0.000617506 -9.17183e-05
0.000617506 0.000867233 6.83252e-06
-9.17183e-05 6.83252e-06 0.000479584
-0.00113119 -2.08427e-05 4.72198e-05
-2.08427e-05 -0.00101442 4.70879e-05
4.72198e-05 4.70879e-05 -0.00289379
0.00650272 -0.000745771 -4.93614e-05
-0.000745771 0.00164061 2.8193e-05
-4.93614e-05 2.8193e-05 0.0017617
0.0017116 -0.000263357 -1.08639e-05
-0.000263357 -0.00186392 -1.65323e-05
-1.08639e-05 -1.65323e-05 -0.000748486
0.000908268 2.31977e-05 1.1554e-06
2.31977e-05 0.000125063 2.30572e-06
1.1554e-06 2.30572e-06 4.10395e-05
0.00109634 5.38341e-05 1.59176e-06
5.38341e-05 0.000221928 1.70458e-06
1.59176e-06 1.70458e-06 0.000152096
0.000565782 4.96504e-05 -1.42638e-07
4.96504e-05 -6.05998e-05 -6.43409e-06
-1.42638e-07 -6.43409e-06 -0.000109582
0.000674675 3.90973e-05 3.58451e-07
3.90973e-05 -2.97707e-05 3.96483e-08
3.58451e-07 3.96483e-08 -8.81528e-05
0.000911772 3.54956e-05 -7.58705e-07
3.54956e-05 0.000109159 -2.87026e-07
-7.58705e-07 -2.87026e-07 3.38283e-05
0.000889776 -2.63628e-05 -4.57783e-07
-2.63628e-05 8.74888e-05 6.48059e-07
-4.57783e-07 6.48059e-07 1.74076e-05
0.000864742 -2.44157e-05 -5.68895e-07
-2.44157e-05 7.20285e-05 1.26412e-07
-5.68895e-07 1.26412e-07 2.47027e-06
0.000831583 -1.74156e-05 -6.93872e-07
-1.74156e-05 5.33234e-05 2.06734e-06
-6.93872e-07 2.06734e-06 -1.23207e-05
0.000882158 2.80867e-05 2.99603e-07
2.80867e-05 9.1225e-05 -4.75371e-07
2.99603e-07 -4.75371e-07 1.66205e-05
0.00090629 -2.16199e-05 -9.84055e-08
-2.16199e-05 8.81606e-05 3.79879e-07
-9.84055e-08 3.79879e-07 2.02055e-05
0.000913202 -3.50821e-05 8.5602e-08
-3.50821e-05 9.76179e-05 2.88057e-07
8.5602e-08 2.88057e-07 2.24916e-05
0.000747397 -1.95182e-06 9.98477e-10
-1.95182e-06 4.61613e-06 -3.3901e-07
9.98477e-10 -3.3901e-07 -5.27227e-05
0.000867918 -3.16166e-05 2.1302e-06
-3.16166e-05 8.20868e-05 -3.62087e-06
2.1302e-06 -3.62087e-06 3.48518e-05
0.000888411 -3.09922e-05 1.5745e-07
-3.09922e-05 7.18487e-05 -2.88635e-06
1.5745e-07 -2.88635e-06 4.84255e-06
0.000912608 3.474e-06 1.04276e-07
3.474e-06 0.000104997 -8.82545e-07
1.04276e-07 -8.82545e-07 2.26078e-05
0.000898309 -3.48236e-05 6.68135e-08
-3.48236e-05 0.000102638 -2.56766e-07
6.68135e-08 -2.56766e-07 2.79704e-05
0.000896529 1.72026e-05 -3.99184e-07
1.72026e-05 9.13051e-05 5.51062e-07
-3.99184e-07 5.51062e-07 2.16868e-05
0.000873932 -8.66043e-06 2.55479e-07
-8.66043e-06 8.30739e-05 -3.04353e-07
2.55479e-07 -3.04353e-07 5.31727e-06
0.000829403 4.51995e-05 -9.97444e-08
4.51995e-05 6.33928e-05 1.9742e-09
-9.97444e-08 1.9742e-09 -7.44751e-06
0.000851656 2.09471e-05 -3.22588e-07
2.09471e-05 6.60113e-05 1.98224e-07
-3.22588e-07 1.98224e-07 -1.80597e-06
0.000776079 5.50313e-05 7.08108e-07
5.50313e-05 4.09707e-05 4.07959e-08
7.08108e-07 4.07959e-08 -3.03412e-05
0.000783187 3.21586e-05 1.38229e-08
3.21586e-05 3.3386e-05 -1.5272e-06
1.38229e-08 -1.5272e-06 -4.28151e-05
0.000827096 3.44403e-05 4.80378e-07
3.44403e-05 5.93055e-05 -9.00705e-07
4.80378e-07 -9.00705e-07 -8.10164e-06
0.000817539 2.73831e-05 1.9559e-06
2.73831e-05 6.55512e-05 -7.68916e-07
1.9559e-06 -7.68916e-07 -1.81942e-05
0.000525264 -3.38742e-05 4.25644e-07
-3.38742e-05 -5.21483e-05 -1.69933e-07
4.25644e-07 -1.69933e-07 -0.000172045
0.000505689 2.86472e-05 5.52621e-07
2.86472e-05 -8.86533e-05 1.14369e-07
5.52621e-07 1.14369e-07 -0.000173147
0.000796953 4.21939e-05 4.47708e-07
4.21939e-05 6.18732e-05 5.12323e-07
4.47708e-07 5.12323e-07 -1.40606e-05
0.000782309 4.13014e-05 3.29491e-07
4.13014e-05 4.52823e-05 4.56039e-07
3.29491e-07 4.56039e-07 -2.01766e-05
0.000803395 1.337e-05 -2.37529e-07
1.337e-05 5.46885e-05 -5.86815e-08
-2.37529e-07 -5.86815e-08 -1.04138e-05
0.000777919 2.85074e-05 -7.0023e-07
2.85074e-05 2.64363e-05 3.5568e-07
-7.0023e-07 3.5568e-07 -2.54412e-05
0.000824366 1.27427e-05 5.9738e-07
1.27427e-05 6.36699e-05 3.12577e-07
5.9738e-07 3.12577e-07 -2.50803e-06
0.000800806 -2.01924e-06 -1.16111e-07
-2.01924e-06 3.72149e-05 1.82347e-08
-1.16111e-07 1.82347e-08 -1.56215e-05
0.000763139 2.19486e-05 -9.57044e-07
2.19486e-05 6.05664e-06 1.51151e-06
-9.57044e-07 1.51151e-06 -2.81192e-05
0.000718349 -1.56422e-05 6.94876e-07
-1.56422e-05 -1.00878e-05 -2.85397e-07
6.94876e-07 -2.85397e-07 -6.41797e-05
0.000761478 1.28034e-05 -7.08114e-08
1.28034e-05 3.30947e-06 5.00479e-09
-7.08114e-08 5.00479e-09 -3.07656e-05
0.0013388 2.1649e-05 -4.87468e-06
2.1649e-05 0.000317773 4.51785e-06
-4.87468e-06 4.51785e-06 0.000315114
0.000753822 3.53817e-06 7.77812e-07
3.53817e-06 -1.18802e-06 -1.39524e-06
7.77812e-07 -1.39524e-06 -3.54707e-05
0.00102731 1.42739e-05 -2.24976e-06
1.42739e-05 0.000141581 6.74413e-07
-2.24976e-06 6.74413e-07 0.000137673
0.000879796 1.18487e-05 -5.61435e-07
1.18487e-05 6.087e-05 1.64158e-06
-5.61435e-07 1.64158e-06 7.47557e-05
0.000705252 6.99004e-06 2.82308e-07
6.99004e-06 -3.97848e-05 -3.24469e-06
2.82308e-07 -3.24469e-06 -4.50517e-05
0.00217504 8.66318e-06 2.49386e-06
8.66318e-06 0.000780455 2.24719e-08
2.49386e-06 2.24719e-08 0.000800881
0.00217495 5.69607e-07 7.02665e-07
5.69607e-07 0.000779747 -4.43667e-06
7.02665e-07 -4.43667e-06 0.000800322
0.00106304 4.34234e-05 -1.14947e-06
4.34234e-05 0.000192379 -6.46291e-07
-1.14947e-06 -6.46291e-07 0.000138143
0.0007664 -2.89904e-06 -2.82376e-07
-2.89904e-06 7.22344e-06 -1.73172e-06
-2.82376e-07 -1.73172e-06 -2.3552e-05
0.000783445 4.13474e-06 7.40081e-07
4.13474e-06 4.25797e-05 5.71483e-07
7.40081e-07 5.71483e-07 -1.34512e-05
0.000718427 -7.19621e-07 -1.17593e-07
-7.19621e-07 -3.39461e-05 -3.37664e-06
-1.17593e-07 -3.37664e-06 -3.62072e-05
0.000767494 4.02153e-08 9.05412e-08
4.02153e-08 8.24906e-06 -6.76923e-09
9.05412e-08 -6.76923e-09 -2.21774e-05
0.000761458 2.46578e-06 -2.52004e-07
2.46578e-06 5.02547e-06 1.68295e-06
-2.52004e-07 1.68295e-06 -2.58519e-05
0.000718551 5.80611e-06 -1.64943e-07
5.80611e-06 -3.33773e-05 5.19056e-09
-1.64943e-07 5.19056e-09 -3.60742e-05
0.00207471 7.95842e-06 3.81538e-06
7.95842e-06 0.000724607 -4.4267e-06
3.81538e-06 -4.4267e-06 0.000746195
0.00128916 1.58848e-05 -7.1222e-07
1.58848e-05 0.000285627 2.05733e-06
-7.1222e-07 2.05733e-06 0.000285165
0.00149967 1.49152e-05 2.23165e-06
1.49152e-05 0.000406469 5.62231e-08
2.23165e-06 5.62231e-08 0.000424175
0.000960434 1.7905e-05 -1.43212e-05
1.7905e-05 0.000109966 6.93513e-06
-1.43212e-05 6.93513e-06 0.000123635
-0.00602604 0.00012391 4.94624e-05
0.00012391 -0.00292575 -1.42135e-06
4.94624e-05 -1.42135e-06 -0.0030403
-0.00134428 0.000244089 2.83053e-05
0.000244089 -0.000333793 1.79781e-05
2.83053e-05 1.79781e-05 -0.000453286
0.00276749 2.47331e-05 -0.000134738
2.47331e-05 0.00038774 -2.28864e-06
-0.000134738 -2.28864e-06 3.15296e-05
0.00189456 -1.53201e-05 2.0719e-05
-1.53201e-05 0.000101608 1.87719e-06
2.0719e-05 1.87719e-06 4.23402e-05
0.00169092 -1.40459e-05 3.70427e-06
-1.40459e-05 -0.000112756 1.94544e-07
3.70427e-06 1.94544e-07 -0.00015419
0.00119175 5.29978e-07 2.69995e-05
5.29978e-07 -0.000238693 -8.17198e-07
2.69995e-05 -8.17198e-07 -0.000432649
0.0021073 -2.87677e-05 -1.76679e-06
-2.87677e-05 0.000167692 8.68944e-07
-1.76679e-06 8.68944e-07 0.000114599
0.00588224 0.000211098 -1.42901e-05
0.000211098 0.00147138 -1.59288e-05
-1.42901e-05 -1.59288e-05 0.000698268
-0.00381259 0.000251573 -2.06791e-05
0.000251573 -0.0014997 -3.5099e-07
-2.06791e-05 -3.5099e-07 -0.00172535
-0.000832264 0.000695121 -1.3221e-05
0.000695121 -0.00116875 3.73124e-06
-1.3221e-05 3.73124e-06 0.000189643
0.00208024 -0.000113939 6.79083e-05
-0.000113939 0.000128135 3.20524e-06
6.79083e-05 3.20524e-06 -0.000110502
0.00710633 0.000311494 2.09595e-05
0.000311494 0.00237812 -2.92702e-06
2.09595e-05 -2.92702e-06 0.00120984
3.09696e-05 0.000530496 -1.04444e-05
0.000530496 -0.000437765 -3.15197e-05
-1.04444e-05 -3.15197e-05 1.58591e-05
0.00364353 0.000485805 -6.07244e-05
0.000485805 -6.10306e-05 4.13563e-05
-6.07244e-05 4.13563e-05 0.000804931
0.000805394 5.11552e-05 -6.58075e-07
5.11552e-05 7.11286e-05 4.75835e-08
-6.58075e-07 4.75835e-08 -1.58137e-05
0.000706862 4.22593e-06 -2.01901e-07
4.22593e-06 6.44768e-06 -3.37149e-07
-2.01901e-07 -3.37149e-07 -6.13671e-05
0.000786275 -5.84365e-05 -9.14704e-07
-5.84365e-05 4.5893e-05 9.79739e-07
-9.14704e-07 9.79739e-07 -1.07055e-05
0.000708797 4.06277e-07 1.53271e-07
4.06277e-07 1.22967e-05 5.87679e-07
1.53271e-07 5.87679e-07 -6.04429e-05
0.000788175 4.87598e-05 7.12067e-07
4.87598e-05 6.59241e-05 8.27313e-07
7.12067e-07 8.27313e-07 -1.71132e-05
0.000877253 4.37445e-05 -6.98032e-07
4.37445e-05 0.000106765 4.44189e-07
-6.98032e-07 4.44189e-07 2.25091e-05
0.000853059 5.96867e-05 1.44219e-06
5.96867e-05 9.37359e-05 1.05387e-06
1.44219e-06 1.05387e-06 1.20996e-05
0.000787008 -1.61112e-05 7.56046e-07
-1.61112e-05 4.74196e-05 1.35649e-07
7.56046e-07 1.35649e-07 -2.55794e-05
0.000783013 -2.33065e-05 3.94472e-07
-2.33065e-05 5.25736e-05 -5.96377e-07
3.94472e-07 -5.96377e-07 -2.0521e-05
0.000702182 -1.61797e-05 2.62188e-07
-1.61797e-05 3.16665e-06 7.19514e-07
2.62188e-07 7.19514e-07 -6.47323e-05
0.00114514 -7.67304e-05 1.39422e-06
-7.67304e-05 -0.000377412 -3.18876e-06
1.39422e-06 -3.18876e-06 -0.000429898
0.00184034 -0.000217438 6.81656e-06
-0.000217438 3.03444e-06 1.37657e-06
6.81656e-06 1.37657e-06 -5.43391e-05
-6.52627e-06 -0.000176913 6.13859e-06
-0.000176913 -0.000746244 2.44321e-06
6.13859e-06 2.44321e-06 -0.000860189
0.00151416 -0.000224395 1.71e-06
-0.000224395 0.000392828 8.7798e-07
1.71e-06 8.7798e-07 0.000195679
0.00114203 -6.95943e-05 1.90992e-06
-6.95943e-05 0.000291795 -1.0025e-06
1.90992e-06 -1.0025e-06 0.00012016
0.00108432 -3.99711e-05 -2.14508e-07
-3.99711e-05 0.000231132 -8.22169e-07
-2.14508e-07 -8.22169e-07 0.000125796
0.000902543 -2.39236e-05 -1.15189e-06
-2.39236e-05 0.000118389 -2.04969e-07
-1.15189e-06 -2.04969e-07 3.35828e-05
0.000857623 3.87055e-05 -1.09652e-06
3.87055e-05 0.000100255 3.06414e-07
-1.09652e-06 3.06414e-07 1.43002e-05
0.00194711 -0.000141955 -2.88509e-06
-0.000141955 0.000188992 1.73184e-06
-2.88509e-06 1.73184e-06 0.000129529
0.000764989 -3.47975e-05 -1.13115e-07
-3.47975e-05 4.45034e-05 2.73444e-08
-1.13115e-07 2.73444e-08 -4.52471e-05
0.000823651 -3.27948e-05 4.41827e-07
-3.27948e-05 7.82988e-05 -3.87394e-07
4.41827e-07 -3.87394e-07 -1.46642e-05
0.00206394 -0.000279432 3.466e-06
-0.000279432 0.000179325 -1.93488e-06
3.466e-06 -1.93488e-06 0.000134538
0.000140228 -0.000192132 1.49651e-06
-0.000192132 -0.000472681 1.36456e-06
1.49651e-06 1.36456e-06 -0.000614319
0.00119146 -0.000133368 2.49888e-06
-0.000133368 0.000266344 -1.52279e-06
2.49888e-06 -1.52279e-06 7.16686e-05
0.000988517 -3.82219e-05 -7.37089e-07
-3.82219e-05 0.000192106 -5.91796e-07
-7.37089e-07 -5.91796e-07 6.05252e-05
0.00262144 -0.000241327 2.7517e-06
-0.000241327 0.000836728 -7.24117e-06
2.7517e-06 -7.24117e-06 0.000643981
0.00176091 -0.000241152 -1.56987e-05
-0.000241152 0.000340791 1.45047e-06
-1.56987e-05 1.45047e-06 0.000264536
0.000472893 -1.67636e-05 -1.12559e-05
-1.67636e-05 -5.83767e-05 1.06423e-05
-1.12559e-05 1.06423e-05 -0.000227586
0.000846339 2.4998e-05 6.25773e-07
2.4998e-05 8.75012e-05 8.96629e-07
6.25773e-07 8.96629e-07 -1.70699e-06
0.000671585 -7.34171e-05 1.51335e-06
-7.34171e-05 -1.29389e-05 3.21482e-07
1.51335e-06 3.21482e-07 -0.000104194
0.000848584 -2.02575e-05 4.76162e-07
-2.02575e-05 7.88945e-05 1.50118e-06
4.76162e-07 1.50118e-06 -1.36725e-05
0.000876617 9.46459e-06 -8.56333e-05
9.46459e-06 0.00136473 -8.38549e-07
-8.56333e-05 -8.38549e-07 0.000994409
0.00181277 -8.69661e-05 1.3666e-05
-8.69661e-05 0.00119439 4.82036e-06
1.3666e-05 4.82036e-06 0.00106326
-0.000293388 0.000248507 -4.67618e-05
0.000248507 -0.00179756 2.25321e-05
-4.67618e-05 2.25321e-05 -0.00237742
0.000757897 8.90413e-05 3.36971e-06
8.90413e-05 7.80676e-05 1.24297e-06
3.36971e-06 1.24297e-06 -2.6297e-05
0.000771762 0.000121031 6.31753e-06
0.000121031 0.000116062 2.05793e-06
6.31753e-06 2.05793e-06 -4.32718e-05
0.00284785 0.000229047 1.07649e-05
0.000229047 0.000589862 2.73477e-06
1.07649e-05 2.73477e-06 0.000629471
0.000270915 0.000133947 1.08347e-05
0.000133947 -0.000308934 5.98229e-06
1.08347e-05 5.98229e-06 -0.000514763
0.00400113 -0.000323587 4.43481e-05
-0.000323587 0.00174591 1.42727e-05
4.43481e-05 1.42727e-05 0.00182424
-0.000186024 -0.000167363 -1.4725e-05
-0.000167363 -0.00129259 5.50871e-06
-1.4725e-05 5.50871e-06 -0.00247458
0.00382954 0.00042434 -6.59899e-05
0.00042434 0.00020518 -4.80284e-05
-6.59899e-05 -4.80284e-05 -0.000651059
0.000134722 8.71293e-05 2.37949e-05
8.71293e-05 -0.00045106 -1.4495e-05
2.37949e-05 -1.4495e-05 -0.000401401
-0.00306291 -0.000354477 1.96037e-05
-0.000354477 -0.00142542 3.71104e-06
1.96037e-05 3.71104e-06 -0.00150489
0.000979013 -0.000329671 2.32001e-05
-0.000329671 0.000534035 2.39513e-05
2.32001e-05 2.39513e-05 0.000394451
0.00431195 -0.000542849 7.00194e-05
-0.000542849 -6.26367e-06 5.19942e-05
7.00194e-05 5.19942e-05 0.00124048
0.000850579 7.15241e-05 1.02496e-06
7.15241e-05 0.000154077 -1.52189e-06
1.02496e-06 -1.52189e-06 5.97859e-05
-0.000214047 -0.000130132 -2.78622e-05
-0.000130132 0.00057521 -8.89727e-06
-2.78622e-05 -8.89727e-06 0.000155852
0.00215708 -9.38439e-06 -1.80259e-06
-9.38439e-06 0.000363473 -1.37699e-05
-1.80259e-06 -1.37699e-05 -0.000208359
0.000891364 0.000170745 -6.4086e-06
0.000170745 -4.5962e-05 1.76612e-06
-6.4086e-06 1.76612e-06 -8.79681e-05
0.000675185 0.000114412 -1.08734e-06
0.000114412 0.000137931 7.90497e-07
-1.08734e-06 7.90497e-07 -4.47954e-05
-1.14335e-05 0.000118726 2.61487e-05
0.000118726 -0.000271721 -1.7576e-05
2.61487e-05 -1.7576e-05 -0.000344626
0.00579894 0.000760673 -1.96342e-05
0.000760673 0.0015726 -9.90424e-07
-1.96342e-05 -9.90424e-07 0.000857731
0.00801787 -0.000305504 3.12518e-05
-0.000305504 0.00297414 1.05191e-05
3.12518e-05 1.05191e-05 0.00145783
0.00183183 -0.00045996 1.13832e-06
-0.00045996 -0.000890996 -7.08565e-06
1.13832e-06 -7.08565e-06 -0.000589945
0.00518713 -0.000342528 5.18339e-06
-0.000342528 0.0004143 -5.5043e-06
5.18339e-06 -5.5043e-06 0.00146491
0.00108773 0.000115443 -1.3798e-05
0.000115443 0.000332548 -9.05905e-06
-1.3798e-05 -9.05905e-06 0.000259486
0.00165451 -4.38961e-05 -5.43999e-05
-4.38961e-05 0.000130798 -2.52046e-05
-5.43999e-05 -2.52046e-05 -0.000272237
0.00146911 1.19005e-06 -1.62131e-05
1.19005e-06 0.000162782 -3.74712e-05
-1.62131e-05 -3.74712e-05 -0.000353804
-0.00091207 -9.63154e-06 -2.34947e-05
-9.63154e-06 -0.000539826 -1.70789e-05
-2.34947e-05 -1.70789e-05 -0.000646795
0.00299881 0.000340693 7.99791e-07
0.000340693 0.000832501 5.35581e-05
7.99791e-07 5.35581e-05 0.000403733
0.00801148 -0.000140389 2.02367e-05
-0.000140389 0.00273197 6.79861e-06
2.02367e-05 6.79861e-06 0.00105545
-0.0049678 -0.000360432 -5.58449e-05
-0.000360432 -0.00355848 3.66448e-07
-5.58449e-05 3.66448e-07 -0.00421846
0.00480143 5.1488e-05 -3.00301e-06
5.1488e-05 -0.000197003 -5.46615e-05
-3.00301e-06 -5.46615e-05 0.00101461
0.00102982 5.54098e-05 2.02699e-06
5.54098e-05 0.000187889 4.57635e-06
2.02699e-06 4.57635e-06 0.000115144
0.000812002 6.43379e-05 -1.91926e-06
6.43379e-05 7.21933e-05 -5.31308e-07
-1.91926e-06 -5.31308e-07 2.27461e-05
0.000616922 4.34383e-05 -1.35286e-08
4.34383e-05 -8.63954e-06 -4.59559e-06
-1.35286e-08 -4.59559e-06 -4.83777e-05
0.000894092 6.26221e-05 -1.31334e-06
6.26221e-05 9.21548e-05 -4.28179e-07
-1.31334e-06 -4.28179e-07 2.11104e-05
0.000927906 -2.88947e-05 -1.13598e-07
-2.88947e-05 0.00011006 1.16517e-06
-1.13598e-07 1.16517e-06 3.18412e-05
0.000984287 -1.31282e-05 -8.87479e-07
-1.31282e-05 0.000131078 1.57572e-06
-8.87479e-07 1.57572e-06 6.29098e-05
0.000718045 -1.48538e-05 -7.19877e-07
-1.48538e-05 -5.41935e-06 3.24592e-06
-7.19877e-07 3.24592e-06 -6.13125e-05
0.000901568 1.10701e-05 4.31001e-07
1.10701e-05 9.08354e-05 2.17849e-08
4.31001e-07 2.17849e-08 1.41626e-05
0.000874154 -1.73264e-05 -1.26591e-07
-1.73264e-05 6.50622e-05 -2.05258e-07
-1.26591e-07 -2.05258e-07 -2.31694e-06
0.000779226 -2.38034e-05 1.31951e-07
-2.38034e-05 3.4012e-05 7.23648e-07
1.31951e-07 7.23648e-07 -1.27747e-05
0.00066857 -3.14825e-05 -1.19141e-08
-3.14825e-05 1.45276e-05 -3.5298e-06
-1.19141e-08 -3.5298e-06 -1.60759e-05
0.000942348 -2.83895e-05 3.21673e-06
-2.83895e-05 0.000104212 -4.71068e-06
3.21673e-06 -4.71068e-06 5.41457e-05
0.000798258 3.69891e-05 5.70371e-07
3.69891e-05 3.402e-05 -1.70788e-06
5.70371e-07 -1.70788e-06 -4.16007e-05
0.00088253 -3.70251e-05 9.68775e-07
-3.70251e-05 8.26559e-05 4.42838e-07
9.68775e-07 4.42838e-07 8.13099e-06
0.000816838 4.97211e-05 -1.84624e-07
4.97211e-05 5.54688e-05 3.66849e-07
-1.84624e-07 3.66849e-07 -1.49474e-05
0.00085448 1.35297e-05 -5.12341e-07
1.35297e-05 6.75979e-05 1.40235e-06
-5.12341e-07 1.40235e-06 1.26848e-07
0.000808277 2.8932e-05 8.62753e-08
2.8932e-05 4.35619e-05 1.36049e-07
8.62753e-08 1.36049e-07 -2.9683e-05
0.000803596 5.39604e-05 2.82288e-07
5.39604e-05 5.70779e-05 2.84016e-07
2.82288e-07 2.84016e-07 -1.48553e-05
0.000846266 4.73603e-05 -1.85261e-07
4.73603e-05 7.05252e-05 -3.48056e-08
-1.85261e-07 -3.48056e-08 2.08126e-06
0.00085585 4.18136e-05 1.51908e-06
4.18136e-05 8.03738e-05 -2.4553e-07
1.51908e-06 -2.4553e-07 8.08843e-06
0.000780329 3.06457e-05 6.97875e-07
3.06457e-05 3.87109e-05 -1.5846e-06
6.97875e-07 -1.5846e-06 -2.53453e-05
0.000690004 -5.02207e-05 1.04911e-06
-5.02207e-05 3.80886e-06 -4.31949e-07
1.04911e-06 -4.31949e-07 -8.52643e-05
0.000906284 1.00441e-05 -6.03898e-07
1.00441e-05 0.000115505 -1.26549e-07
-6.03898e-07 -1.26549e-07 3.06202e-05
0.000660865 -3.96725e-05 1.48292e-06
-3.96725e-05 1.31015e-05 1.30604e-06
1.48292e-06 1.30604e-06 -9.68801e-05
0.00104196 -0.00013709 -1.42802e-06
-0.00013709 0.000200176 3.1064e-06
-1.42802e-06 3.1064e-06 5.46453e-05
0.00111894 -2.45944e-05 1.11687e-06
-2.45944e-05 0.000252923 -6.13083e-07
1.11687e-06 -6.13083e-07 0.000153318
0.000620338 -4.69708e-05 -1.42822e-07
-4.69708e-05 1.90359e-06 -2.56063e-06
-1.42822e-07 -2.56063e-06 -0.000116136
0.00077311 3.21281e-05 -5.75769e-07
3.21281e-05 5.60712e-05 -5.26388e-07
-5.75769e-07 -5.26388e-07 -2.68902e-05
0.000572049 3.57694e-05 9.51809e-07
3.57694e-05 -6.40133e-05 6.18346e-07
9.51809e-07 6.18346e-07 -0.000136564
0.00084918 3.70565e-05 -4.04502e-07
3.70565e-05 9.01233e-05 2.66639e-09
-4.04502e-07 2.66639e-09 1.42026e-05
0.000815449 1.24942e-05 -2.73888e-07
1.24942e-05 6.44367e-05 3.28151e-07
-2.73888e-07 3.28151e-07 -2.10561e-06
0.000764489 3.78795e-05 -7.11661e-07
3.78795e-05 2.24331e-05 4.34676e-07
-7.11661e-07 4.34676e-07 -3.0445e-05
0.000835471 -1.38019e-05 4.19212e-07
-1.38019e-05 7.69229e-05 1.40581e-08
4.19212e-07 1.40581e-08 8.41682e-06
0.000793659 2.03378e-07 -4.18288e-07
2.03378e-07 3.62545e-05 4.26275e-08
-4.18288e-07 4.26275e-08 -1.67002e-05
0.000757416 2.74489e-05 -1.21103e-06
2.74489e-05 6.28519e-06 1.52589e-06
-1.21103e-06 1.52589e-06 -2.83642e-05
0.000823449 -2.43725e-05 1.25377e-06
-2.43725e-05 5.12041e-05 -3.41311e-07
1.25377e-06 -3.41311e-07 -2.8761e-06
0.000763723 1.78064e-05 -1.44231e-07
1.78064e-05 5.79438e-06 9.79416e-09
-1.44231e-07 9.79416e-09 -2.81581e-05
0.00132567 2.89757e-05 -6.70111e-06
2.89757e-05 0.000314529 4.44905e-06
-6.70111e-06 4.44905e-06 0.000311343
0.00075654 8.17946e-06 1.11849e-06
8.17946e-06 1.69323e-07 -1.43801e-06
1.11849e-06 -1.43801e-06 -3.37274e-05
0.00102045 2.09709e-05 -3.02263e-06
2.09709e-05 0.00014069 6.36554e-07
-3.02263e-06 6.36554e-07 0.000136521
0.000873597 1.8308e-05 -1.05315e-06
1.8308e-05 6.13233e-05 1.63987e-06
-1.05315e-06 1.63987e-06 7.46328e-05
0.00070025 1.29274e-05 4.62408e-07
1.29274e-05 -4.08888e-05 -3.23795e-06
4.62408e-07 -3.23795e-06 -4.62931e-05
0.00152123 1.57921e-05 4.74472e-06
1.57921e-05 0.000418152 -1.31144e-06
4.74472e-06 -1.31144e-06 0.000435129
0.00217743 9.92287e-06 4.89323e-06
9.92287e-06 0.000782132 -4.36798e-06
4.89323e-06 -4.36798e-06 0.00080249
0.00085438 -2.17718e-05 5.64058e-07
-2.17718e-05 7.33293e-05 -5.47037e-07
5.64058e-07 -5.47037e-07 1.78863e-05
0.000772425 -7.79608e-06 -2.39514e-07
-7.79608e-06 1.09025e-05 -1.73485e-06
-2.39514e-07 -1.73485e-06 -2.08786e-05
0.000842641 -3.74529e-06 4.12918e-07
-3.74529e-06 7.03558e-05 1.31139e-07
4.12918e-07 1.31139e-07 1.57646e-05
0.000719965 -6.86052e-06 -3.25589e-07
-6.86052e-06 -3.23661e-05 -3.37088e-06
-3.25589e-07 -3.37088e-06 -3.49763e-05
0.000768678 -3.86159e-06 -6.98516e-08
-3.86159e-06 8.57973e-06 -7.87215e-09
-6.98516e-08 -7.87215e-09 -2.21963e-05
0.00078174 -4.16988e-05 -1.42166e-06
-4.16988e-05 3.79817e-05 1.44022e-06
-1.42166e-06 1.44022e-06 -1.53584e-05
0.00206774 -1.11509e-06 -3.65211e-07
-1.11509e-06 0.000720379 -4.4394e-06
-3.65211e-07 -4.4394e-06 0.000742141
0.000720204 -4.15602e-07 -7.681e-08
-4.15602e-07 -3.30007e-05 -7.90759e-10
-7.681e-08 -7.90759e-10 -3.52632e-05
0.000766124 -1.10295e-06 9.25691e-08
-1.10295e-06 7.4253e-06 1.6856e-06
9.25691e-08 1.6856e-06 -2.29878e-05
0.000721921 6.09432e-06 -8.38783e-08
6.09432e-06 -3.15717e-05 3.39009e-06
-8.38783e-08 3.39009e-06 -3.42965e-05
0.00207673 8.65664e-06 -2.65783e-06
8.65664e-06 0.000725924 -2.42303e-08
-2.65783e-06 -2.42303e-08 0.00074745
0.00210312 1.71903e-05 -1.07763e-05
1.71903e-05 0.000742376 4.32633e-06
-1.07763e-05 4.32633e-06 0.000763293
-0.00159588 6.17783e-05 -4.07314e-05
6.17783e-05 -3.95427e-05 7.94598e-06
-4.07314e-05 7.94598e-06 -0.000578438
-0.000785921 0.000266146 -8.43835e-06
0.000266146 -0.000250964 4.8012e-06
-8.43835e-06 4.8012e-06 -0.000365657
0.00228837 4.55896e-05 -7.79698e-05
4.55896e-05 0.000259239 5.71982e-05
-7.79698e-05 5.71982e-05 -0.000228742
-0.00166764 0.000283539 7.01267e-05
0.000283539 -0.000359611 -2.89676e-05
7.01267e-05 -2.89676e-05 -0.000398141
0.00262311 9.7932e-05 -9.52089e-05
9.7932e-05 0.000348043 1.36861e-05
-9.52089e-05 1.36861e-05 4.49163e-05
0.00213772 -3.9242e-05 5.40897e-05
-3.9242e-05 0.000190864 -7.6139e-06
5.40897e-05 -7.6139e-06 0.000139529
0.00116843 -0.000284518 -7.6433e-05
-0.000284518 -0.000824373 -2.88555e-05
-7.6433e-05 -2.88555e-05 -0.00150068
0.0086378 0.000519502 5.42774e-05
0.000519502 0.00423504 -1.7309e-05
5.42774e-05 -1.7309e-05 0.00424682
-0.0037395 0.000752717 -4.48947e-05
0.000752717 -0.00299645 5.93443e-05
-4.48947e-05 5.93443e-05 -0.00126281
0.00142125 6.7343e-08 -5.81452e-06
6.7343e-08 -0.000343096 -3.49905e-06
-5.81452e-06 -3.49905e-06 -0.000563051
0.00205251 0.000143208 1.67008e-05
0.000143208 1.4805e-05 -1.95354e-05
1.67008e-05 -1.95354e-05 -0.00155089
0.00553745 0.000848444 -1.4861e-05
0.000848444 0.00177984 -2.202e-05
-1.4861e-05 -2.202e-05 0.00222776
0.00174645 0.000482337 -1.24662e-05
0.000482337 -0.0012101 2.84069e-05
-1.24662e-05 2.84069e-05 -0.000284793
0.00315071 -0.000168126 -2.68924e-05
-0.000168126 0.000356948 1.06945e-05
-2.68924e-05 1.06945e-05 -1.6039e-05
0.00430366 0.000174513 8.24967e-05
0.000174513 0.00140848 -5.33719e-05
8.24967e-05 -5.33719e-05 -0.000400318
-0.00601089 0.000177548 -7.32902e-05
0.000177548 -0.00447947 -4.25401e-05
-7.32902e-05 -4.25401e-05 -0.00421179
0.00137237 0.000307293 -1.98288e-05
0.000307293 -0.00225094 1.84953e-05
-1.98288e-05 1.84953e-05 -0.00118221
0.000883551 -1.95959e-05 1.05586e-06
-1.95959e-05 0.000111639 4.89431e-07
1.05586e-06 4.89431e-07 2.05769e-05
0.00085208 3.71565e-05 -1.56123e-06
3.71565e-05 9.63245e-05 -4.18604e-07
-1.56123e-06 -4.18604e-07 1.09933e-05
0.000801261 1.81225e-05 7.25137e-07
1.81225e-05 5.97569e-05 -1.49312e-07
7.25137e-07 -1.49312e-07 -8.42565e-06
0.000845615 5.64202e-05 1.79254e-06
5.64202e-05 9.76085e-05 1.19625e-06
1.79254e-06 1.19625e-06 1.49376e-05
0.000767798 1.68322e-05 -2.78325e-07
1.68322e-05 4.65041e-05 7.09513e-07
-2.78325e-07 7.09513e-07 -4.4677e-05
0.000901407 4.58562e-05 2.01552e-07
4.58562e-05 0.00012123 5.90966e-07
2.01552e-07 5.90966e-07 3.67061e-05
0.000795628 3.41717e-06 -8.47725e-08
3.41717e-06 5.9336e-05 1.25124e-06
-8.47725e-08 1.25124e-06 -2.04313e-05
0.000915699 7.48899e-05 -6.48294e-07
7.48899e-05 0.000128476 5.5018e-07
-6.48294e-07 5.5018e-07 4.5449e-05
0.000891755 3.46588e-05 -2.58921e-07
3.46588e-05 0.000115341 3.3221e-07
-2.58921e-07 3.3221e-07 3.57044e-05
0.000727169 -1.68134e-05 -9.02094e-07
-1.68134e-05 2.40651e-05 -2.36373e-07
-9.02094e-07 -2.36373e-07 -5.15947e-05
-0.000337285 -8.83212e-05 1.35486e-05
-8.83212e-05 -0.00100424 -6.73546e-06
1.35486e-05 -6.73546e-06 -0.00103814
0.0013123 -0.000257144 1.1182e-05
-0.000257144 -0.000209278 7.1365e-08
1.1182e-05 7.1365e-08 -0.000264381
0.000935715 -0.000232869 8.55401e-06
-0.000232869 -4.41405e-05 1.62158e-06
8.55401e-06 1.62158e-06 -0.000188906
0.00119213 -0.000128074 6.1454e-06
-0.000128074 0.000259929 -2.43558e-06
6.1454e-06 -2.43558e-06 6.80308e-05
0.00101773 -3.28673e-05 1.13556e-06
-3.28673e-05 0.000215151 -1.54281e-06
1.13556e-06 -1.54281e-06 7.1144e-05
0.000796347 -4.28444e-05 -7.80321e-07
-4.28444e-05 6.73966e-05 -3.81326e-07
-7.80321e-07 -3.81326e-07 -2.90222e-05
0.000838411 5.40595e-05 -3.13914e-07
5.40595e-05 8.73778e-05 -2.69329e-07
-3.13914e-07 -2.69329e-07 -5.07009e-06
0.000848887 -3.49583e-05 -3.0766e-07
-3.49583e-05 9.16826e-05 4.06503e-07
-3.0766e-07 4.06503e-07 9.28518e-08
0.00127191 -0.00016979 2.91854e-06
-0.00016979 0.000117481 -6.57587e-07
2.91854e-06 -6.57587e-07 -2.63257e-06
0.000835649 7.28638e-06 -2.51465e-07
7.28638e-06 8.14963e-05 -2.75015e-07
-2.51465e-07 -2.75015e-07 -1.2838e-05
0.000907943 -3.0884e-05 4.04441e-08
-3.0884e-05 0.000118481 1.62383e-07
4.04441e-08 1.62383e-07 1.9243e-05
0.00154954 -0.000231881 -1.12443e-06
-0.000231881 0.000224988 4.64026e-07
-1.12443e-06 4.64026e-07 0.000157164
0.000998199 -4.02729e-05 -4.21499e-06
-4.02729e-05 0.000195514 2.04199e-06
-4.21499e-06 2.04199e-06 3.29808e-05
2.17369e-05 -0.000222024 -2.13693e-07
-0.000222024 -0.000568805 -1.25133e-05
-2.13693e-07 -1.25133e-05 -0.000597741
0.00149674 -8.28426e-05 -1.38408e-05
-8.28426e-05 0.000501404 9.66146e-06
-1.38408e-05 9.66146e-06 0.000387086
0.000418046 2.2246e-05 -3.11966e-06
2.2246e-05 -0.000156028 8.72302e-06
-3.11966e-06 8.72302e-06 -0.000250036
0.000843518 -4.47785e-06 5.85118e-07
-4.47785e-06 7.0204e-05 7.53886e-07
5.85118e-07 7.53886e-07 -1.60046e-05
0.000801451 2.5186e-05 1.96099e-08
2.5186e-05 5.39696e-05 7.01776e-07
1.96099e-08 7.01776e-07 -4.21131e-05
0.00125188 -3.4322e-06 -2.57506e-05
-3.4322e-06 -5.53762e-05 -3.84825e-06
-2.57506e-05 -3.84825e-06 -0.000383055
-0.000413754 -1.16809e-05 -3.30743e-05
-1.16809e-05 0.000725247 -1.37071e-06
-3.30743e-05 -1.37071e-06 0.000244768
-0.00617302 -0.000111645 -9.51792e-05
-0.000111645 -0.00303405 -7.35638e-08
-9.51792e-05 -7.35638e-08 -0.0030303
0.000774177 8.98805e-05 6.8114e-06
8.98805e-05 0.000122556 2.26668e-06
6.8114e-06 2.26668e-06 2.32905e-05
-0.000109222 9.2729e-06 6.86547e-06
9.2729e-06 -0.00025537 3.2056e-06
6.86547e-06 3.2056e-06 -0.000442682
0.00124961 0.000115771 1.72753e-05
0.000115771 0.000175732 -6.89793e-07
1.72753e-05 -6.89793e-07 0.000109992
-0.00154506 -4.77632e-05 1.45864e-05
-4.77632e-05 -3.51504e-05 7.26574e-06
1.45864e-05 7.26574e-06 -0.000600479
0.00377572 -0.0002873 -1.75684e-05
-0.0002873 0.00116322 -2.34501e-05
-1.75684e-05 -2.34501e-05 -0.000713834
0.00380697 0.000626077 4.46709e-05
0.000626077 0.00039637 -2.00385e-05
4.46709e-05 -2.00385e-05 -0.000119697
0.000338174 0.000117465 3.8291e-06
0.000117465 -5.16453e-05 -1.56372e-06
3.8291e-06 -1.56372e-06 -1.89134e-05
0.00593026 -0.000633132 3.42696e-05
-0.000633132 0.00161204 1.17487e-05
3.42696e-05 1.17487e-05 0.00166194
0.00239151 -1.63507e-05 5.41979e-05
-1.63507e-05 0.000535217 3.79697e-05
5.41979e-05 3.79697e-05 -5.47463e-05
0.0050159 -0.000310283 2.70779e-05
-0.000310283 0.000526937 1.24275e-05
2.70779e-05 1.24275e-05 0.00161894
0.000974183 0.000108479 1.66267e-06
0.000108479 0.000280501 -1.83849e-06
1.66267e-06 -1.83849e-06 0.000206213
0.00170001 -3.99553e-05 3.37684e-06
-3.99553e-05 0.000245587 -6.51375e-06
3.37684e-06 -6.51375e-06 -0.000115849
0.00163183 8.48483e-06 2.5206e-06
8.48483e-06 0.000162569 6.67702e-06
2.5206e-06 6.67702e-06 -0.000364016
0.000220009 8.17649e-05 -6.76036e-06
8.17649e-05 5.16423e-05 3.65651e-07
-6.76036e-06 3.65651e-07 -6.70702e-05
0.00308616 0.000425639 -2.52718e-05
0.000425639 0.000607574 -3.02976e-05
-2.52718e-05 -3.02976e-05 0.000282482
0.00336379 0.00034223 4.39758e-05
0.00034223 0.000548644 2.23518e-05
4.39758e-05 2.23518e-05 -0.00140106
0.00344509 1.96443e-05 -2.61419e-07
1.96443e-05 -0.00131966 -2.68206e-05
-2.61419e-07 -2.68206e-05 0.000104604
0.000376008 -0.000232232 -1.21446e-05
-0.000232232 -0.000800406 1.4925e-05
-1.21446e-05 1.4925e-05 -0.00102123
0.000761219 4.9806e-05 -4.40414e-06
4.9806e-05 0.000259726 -9.78061e-06
-4.40414e-06 -9.78061e-06 0.000205551
0.00128399 -2.44283e-05 -1.31459e-05
-2.44283e-05 0.000133743 -1.58135e-05
-1.31459e-05 -1.58135e-05 -8.10295e-06
0.00181741 7.87785e-06 4.14887e-06
7.87785e-06 7.33961e-05 -3.57003e-05
4.14887e-06 -3.57003e-05 -0.000400324
0.00138906 0.000295223 1.77055e-05
0.000295223 -0.00215576 -2.08323e-05
1.77055e-05 -2.08323e-05 -0.00117849
-0.00185481 6.40136e-06 5.21086e-06
6.40136e-06 -0.000876604 -1.22221e-05
5.21086e-06 -1.22221e-05 -0.00116427
0.00928196 0.000238499 8.55346e-05
0.000238499 0.00346766 3.55155e-05
8.55346e-05 3.55155e-05 0.00164276
-0.00418325 -0.000113533 2.35669e-05
-0.000113533 -0.00092099 9.12356e-07
2.35669e-05 9.12356e-07 -0.00156684
0.00116781 9.34652e-05 7.02109e-06
9.34652e-05 0.000262638 6.77777e-06
7.02109e-06 6.77777e-06 0.000211875
0.000706313 6.53901e-05 -2.71179e-06
6.53901e-05 3.98941e-05 1.32142e-06
-2.71179e-06 1.32142e-06 -4.07299e-06
0.000407319 3.61621e-05 -6.24471e-06
3.61621e-05 -5.27872e-05 -7.25767e-06
-6.24471e-06 -7.25767e-06 -9.82673e-05
0.000886816 8.89853e-05 -1.47297e-07
8.89853e-05 8.73288e-05 9.11964e-07
-1.47297e-07 9.11964e-07 8.00305e-06
0.000858876 5.58401e-06 -5.57683e-07
5.58401e-06 5.62583e-05 1.85965e-06
-5.57683e-07 1.85965e-06 -1.04271e-05
0.000674551 -3.23908e-05 -2.32842e-06
-3.23908e-05 -2.21344e-05 7.58614e-06
-2.32842e-06 7.58614e-06 -6.91866e-05
0.000822783 4.18333e-05 1.47565e-08
4.18333e-05 4.61477e-05 1.17067e-08
1.47565e-08 1.17067e-08 -2.82689e-05
0.000808407 -3.5738e-05 3.11328e-07
-3.5738e-05 3.36549e-05 -1.0438e-06
3.11328e-07 -1.0438e-06 -1.776e-05
0.000781057 -5.6057e-05 3.20364e-06
-5.6057e-05 6.62216e-05 2.67521e-06
3.20364e-06 2.67521e-06 2.80785e-05
0.000724274 -2.17153e-06 1.28683e-07
-2.17153e-06 5.44708e-05 -4.84694e-06
1.28683e-07 -4.84694e-06 3.1096e-05
0.000824624 8.97364e-06 -2.49945e-07
8.97364e-06 5.36239e-05 -3.59934e-06
-2.49945e-07 -3.59934e-06 -4.90618e-06
0.000838585 2.87632e-05 -1.55888e-07
2.87632e-05 5.58905e-05 1.54953e-06
-1.55888e-07 1.54953e-06 -1.39951e-05
0.000816378 5.40744e-05 -1.118e-07
5.40744e-05 6.51891e-05 2.40433e-07
-1.118e-07 2.40433e-07 -7.36525e-06
0.000870741 5.38439e-05 -1.19964e-06
5.38439e-05 8.39332e-05 1.26386e-06
-1.19964e-06 1.26386e-06 1.4858e-05
0.00082752 3.03297e-05 3.6865e-07
3.03297e-05 6.22486e-05 1.48206e-07
3.6865e-07 1.48206e-07 -2.09876e-06
0.000860874 4.30137e-05 6.61604e-07
4.30137e-05 8.25989e-05 1.97696e-07
6.61604e-07 1.97696e-07 1.07176e-05
0.000711897 -3.00881e-05 1.17312e-06
-3.00881e-05 4.35001e-05 7.07265e-07
1.17312e-06 7.07265e-07 -3.40308e-05
0.000708814 -2.68898e-05 -5.47259e-07
-2.68898e-05 2.37841e-05 -1.05922e-06
-5.47259e-07 -1.05922e-06 -5.97635e-05
0.000631918 -6.13974e-05 3.27008e-06
-6.13974e-05 -5.57882e-06 2.90288e-07
3.27008e-06 2.90288e-07 -0.00013999
0.00100457 -7.34494e-06 -1.47489e-06
-7.34494e-06 0.000169355 -5.78427e-08
-1.47489e-06 -5.78427e-08 8.37247e-05
0.00101093 -6.41782e-05 -8.8141e-07
-6.41782e-05 0.000194735 8.14078e-07
-8.8141e-07 8.14078e-07 8.20653e-05
0.00051228 -0.000108372 1.3571e-08
-0.000108372 -9.1131e-05 1.78212e-06
1.3571e-08 1.78212e-06 -0.000242867
0.000796848 -0.000120144 -3.26074e-06
-0.000120144 6.57213e-05 4.22573e-08
-3.26074e-06 4.22573e-08 -8.17754e-05
0.000915783 -9.3616e-05 -1.1823e-06
-9.3616e-05 0.00014787 1.78477e-06
-1.1823e-06 1.78477e-06 3.16499e-05
0.000803161 -0.000120172 -8.17741e-08
-0.000120172 7.29248e-05 7.45637e-07
-8.17741e-08 7.45637e-07 -7.04081e-05
0.000871812 -1.92305e-06 1.00132e-06
-1.92305e-06 0.000103325 8.22891e-07
1.00132e-06 8.22891e-07 2.04888e-05
0.000969751 -2.72172e-05 -5.85337e-07
-2.72172e-05 0.000173021 -6.41395e-07
-5.85337e-07 -6.41395e-07 7.11507e-05
0.000739745 -6.1264e-05 5.41809e-07
-6.1264e-05 6.93479e-05 -4.03431e-06
5.41809e-07 -4.03431e-06 -4.67616e-05
0.00104416 3.66529e-05 -1.92804e-06
3.66529e-05 0.000202802 -1.21319e-06
-1.92804e-06 -1.21319e-06 0.000121315
0.000698547 2.75584e-05 1.3056e-07
2.75584e-05 4.54344e-06 -2.83067e-08
1.3056e-07 -2.83067e-08 -6.69901e-05
0.000759776 4.94286e-05 -1.49368e-07
4.94286e-05 2.48844e-05 5.82064e-07
-1.49368e-07 5.82064e-07 -3.21035e-05
0.000839287 -7.50875e-06 3.31925e-08
-7.50875e-06 7.95298e-05 1.11016e-07
3.31925e-08 1.11016e-07 1.11558e-05
0.000790132 1.15992e-05 -6.15534e-07
1.15992e-05 3.68731e-05 -6.96812e-08
-6.15534e-07 -6.96812e-08 -1.65027e-05
0.000750899 3.32879e-05 -1.4074e-06
3.32879e-05 7.52608e-06 1.46466e-06
-1.4074e-06 1.46466e-06 -2.82054e-05
0.000811505 -2.14817e-05 1.26756e-06
-2.14817e-05 4.6793e-05 -4.57217e-07
1.26756e-06 -4.57217e-07 -6.94829e-06
0.000759349 2.60167e-05 -1.28733e-07
2.60167e-05 6.74503e-06 4.36557e-09
-1.28733e-07 4.36557e-09 -2.77339e-05
0.00128981 3.62516e-05 -7.56524e-06
3.62516e-05 0.000300974 3.08836e-06
-7.56524e-06 3.08836e-06 0.000296767
0.000759851 1.42531e-05 1.26673e-06
1.42531e-05 3.05023e-06 -1.45744e-06
1.26673e-06 -1.45744e-06 -3.06796e-05
0.00101426 2.77439e-05 -3.72684e-06
2.77439e-05 0.000141518 5.88656e-07
-3.72684e-06 5.88656e-07 0.000136758
0.00086076 2.44484e-05 -1.58936e-06
2.44484e-05 5.95746e-05 1.63218e-06
-1.58936e-06 1.63218e-06 7.19548e-05
0.000698198 1.90914e-05 6.52553e-07
1.90914e-05 -3.91176e-05 -3.24559e-06
6.52553e-07 -3.24559e-06 -4.47883e-05
0.00150728 2.35298e-05 6.25388e-06
2.35298e-05 0.000414065 -1.22521e-06
6.25388e-06 -1.22521e-06 0.00043047
0.00216378 1.91661e-05 8.80209e-06
1.91661e-05 0.000776994 -4.23403e-06
8.80209e-06 -4.23403e-06 0.000796974
0.000641955 3.26723e-06 -4.05456e-07
3.26723e-06 -3.89062e-05 -1.0821e-06
-4.05456e-07 -1.0821e-06 -0.000103435
0.000523649 -1.24677e-05 -2.76655e-07
-1.24677e-05 -0.000124537 -2.2905e-06
-2.76655e-07 -2.2905e-06 -0.000160088
0.000879534 -8.22108e-06 2.30964e-09
-8.22108e-06 8.94021e-05 8.47227e-08
2.30964e-09 8.47227e-08 3.21981e-05
0.000718002 -1.29986e-05 -3.0952e-07
-1.29986e-05 -3.13314e-05 -3.38539e-06
-3.0952e-07 -3.38539e-06 -3.50366e-05
0.000643345 -8.33629e-06 1.0671e-07
-8.33629e-06 -5.98134e-05 2.45964e-09
1.0671e-07 2.45964e-09 -9.26298e-05
0.000627071 -4.67443e-05 2.41604e-07
-4.67443e-05 -4.63347e-05 9.33753e-07
2.41604e-07 9.33753e-07 -0.000103124
0.00208019 -1.00717e-05 -4.83187e-06
-1.00717e-05 0.000728362 -4.40763e-06
-4.83187e-06 -4.40763e-06 0.000749779
0.000718241 -6.57281e-06 -1.8581e-07
-6.57281e-06 -3.33094e-05 -2.50499e-09
-1.8581e-07 -2.50499e-09 -3.5894e-05
0.000770095 -5.0199e-06 -1.44774e-08
-5.0199e-06 9.46877e-06 1.69256e-06
-1.44774e-08 1.69256e-06 -2.13049e-05
0.00206795 -3.94871e-07 -2.55717e-06
-3.94871e-07 0.000720481 -4.35803e-10
-2.55717e-06 -4.35803e-10 0.000742248
0.000721646 -1.15467e-07 1.4549e-07
-1.15467e-07 -3.22348e-05 3.37033e-06
1.4549e-07 3.37033e-06 -3.45025e-05
0.00208283 9.34962e-06 -5.03339e-06
9.34962e-06 0.00072951 4.42822e-06
-5.03339e-06 4.42822e-06 0.000750935
0.00112343 1.32372e-05 -4.91266e-05
1.32372e-05 -8.84867e-05 1.95301e-05
-4.91266e-05 1.95301e-05 -0.00044869
0.00133442 0.000163677 -2.27007e-06
0.000163677 0.00133514 -5.18121e-06
-2.27007e-06 -5.18121e-06 0.00111299
0.000602545 -0.000117037 -1.13905e-05
-0.000117037 0.000672427 -1.24165e-05
-1.13905e-05 -1.24165e-05 0.000361386
0.000824955 2.80063e-05 -1.00744e-07
2.80063e-05 6.93868e-05 6.96855e-07
-1.00744e-07 6.96855e-07 -1.07505e-05
0.00218835 1.67966e-05 -2.29917e-05
1.67966e-05 0.000561418 4.01689e-05
-2.29917e-05 4.01689e-05 0.000150741
0.00228198 2.71815e-05 -1.98956e-05
2.71815e-05 0.00031377 2.99358e-06
-1.98956e-05 2.99358e-06 -0.000250704
0.00157517 0.00038133 6.98051e-05
0.00038133 0.00107569 -5.36185e-05
6.98051e-05 -5.36185e-05 0.00133225
0.0029571 -7.94235e-05 -2.15431e-05
-7.94235e-05 0.000218938 -6.69036e-06
-2.15431e-05 -6.69036e-06 -2.20558e-05
0.00981129 0.000466473 2.75028e-05
0.000466473 0.00374567 -2.84124e-05
2.75028e-05 -2.84124e-05 0.00239672
-0.00253186 0.000441456 7.89867e-06
0.000441456 -0.00234223 8.63736e-06
7.89867e-06 8.63736e-06 -0.00175712
0.00315178 0.000526063 3.25697e-05
0.000526063 -0.000424689 -1.43768e-05
3.25697e-05 -1.43768e-05 0.000536877
0.0029952 -0.000261968 -4.88922e-05
-0.000261968 -1.50804e-05 1.69294e-06
-4.88922e-05 1.69294e-06 -0.000631425
0.00721618 0.000273765 2.68547e-05
0.000273765 0.0028009 -1.19626e-05
2.68547e-05 -1.19626e-05 0.00123925
0.0052793 0.000546364 4.18915e-06
0.000546364 0.000710732 -1.84846e-05
4.18915e-06 -1.84846e-05 0.000896689
0.00321769 0.000319955 -9.59675e-06
0.000319955 -0.00121247 1.48368e-06
-9.59675e-06 1.48368e-06 -0.000173001
0.00374464 -0.000484889 -8.60549e-06
-0.000484889 0.000383639 -1.5156e-05
-8.60549e-06 -1.5156e-05 -0.000459795
0.00783401 -2.11734e-05 4.22281e-05
-2.11734e-05 0.00352868 3.00562e-06
4.22281e-05 3.00562e-06 0.001241
0.00119352 0.000101809 3.71528e-06
0.000101809 -0.000739216 -3.09941e-07
3.71528e-06 -3.09941e-07 -0.000831633
0.00481196 5.08309e-05 -3.5553e-06
5.08309e-05 -0.000257673 2.90307e-05
-3.5553e-06 2.90307e-05 0.000988532
0.000874612 -2.89372e-05 4.65069e-07
-2.89372e-05 9.94433e-05 6.51741e-07
4.65069e-07 6.51741e-07 7.12358e-06
0.000846102 -3.7913e-05 4.56822e-07
-3.7913e-05 9.41231e-05 3.84918e-08
4.56822e-07 3.84918e-08 1.01932e-06
0.000897837 5.71743e-05 -1.12802e-06
5.71743e-05 0.000123372 -1.36383e-07
-1.12802e-06 -1.36383e-07 3.77387e-05
0.00082516 -1.03994e-05 -3.95285e-07
-1.03994e-05 6.44765e-05 4.82146e-07
-3.95285e-07 4.82146e-07 -1.7522e-05
0.000872622 4.98664e-05 -6.16537e-07
4.98664e-05 0.000104217 3.54719e-07
-6.16537e-07 3.54719e-07 1.39122e-05
0.00090962 2.99273e-05 6.65696e-07
2.99273e-05 0.000126684 9.30838e-07
6.65696e-07 9.30838e-07 4.23595e-05
0.000963241 6.85164e-05 -6.11192e-07
6.85164e-05 0.000152746 8.4063e-08
-6.11192e-07 8.4063e-08 7.08404e-05
0.00100284 7.62691e-05 9.16838e-07
7.62691e-05 0.000180695 1.00352e-06
9.16838e-07 1.00352e-06 9.85764e-05
0.000335615 -0.000113898 2.04332e-05
-0.000113898 -0.000397483 -8.50404e-06
2.04332e-05 -8.50404e-06 -0.000449075
0.00126118 -0.000219347 7.82871e-06
-0.000219347 6.79218e-05 -3.93444e-06
7.82871e-06 -3.93444e-06 1.37483e-05
0.000844149 -0.000116205 -1.75997e-06
-0.000116205 9.7593e-05 -2.95003e-07
-1.75997e-06 -2.95003e-07 2.10054e-08
0.00173404 -6.69026e-05 4.63899e-06
-6.69026e-05 0.000563586 -4.42716e-06
4.63899e-06 -4.42716e-06 0.000408784
0.00094239 -4.75116e-05 -3.49667e-07
-4.75116e-05 0.000141024 -7.92926e-07
-3.49667e-07 -7.92926e-07 3.71992e-05
0.000951865 -2.89618e-05 -1.28211e-06
-2.89618e-05 0.00014052 -1.44543e-07
-1.28211e-06 -1.44543e-07 4.97538e-05
0.000912504 1.10658e-05 5.70265e-08
1.10658e-05 0.000114436 -2.53832e-07
5.70265e-08 -2.53832e-07 2.46234e-05
0.000667965 -0.000259751 -5.53554e-06
-0.000259751 -0.00025843 1.6986e-07
-5.53554e-06 1.6986e-07 -0.00030755
0.000856522 2.49297e-05 -7.84902e-08
2.49297e-05 9.0076e-05 -3.76351e-07
-7.84902e-08 -3.76351e-07 -7.35057e-06
0.000981901 -2.61011e-05 5.25402e-07
-2.61011e-05 0.0001383 7.14695e-07
5.25402e-07 7.14695e-07 3.95079e-05
0.000548449 -7.22162e-05 7.71495e-07
-7.22162e-05 -1.84715e-05 3.24556e-06
7.71495e-07 3.24556e-06 -0.000105313
0.000971714 -1.34201e-05 5.92145e-07
-1.34201e-05 0.000130868 9.93675e-07
5.92145e-07 9.93675e-07 5.30582e-05
0.000191968 -0.000265121 4.42277e-05
-0.000265121 -0.000387455 -2.72465e-05
4.42277e-05 -2.72465e-05 -0.00035125
0.00120216 -4.2839e-05 -1.1475e-05
-4.2839e-05 0.000526037 1.54512e-05
-1.1475e-05 1.54512e-05 0.000408993
0.00049518 5.27479e-06 -9.60867e-07
5.27479e-06 -0.000127393 4.55662e-06
-9.60867e-07 4.55662e-06 -0.000205581
0.000877205 9.75881e-05 1.91697e-06
9.75881e-05 9.66482e-05 1.35383e-06
1.91697e-06 1.35383e-06 1.03181e-05
0.00140745 -8.6291e-06 -1.48035e-05
-8.6291e-06 0.000231271 6.67396e-08
-1.48035e-05 6.67396e-08 0.00013525
0.00115403 -1.66454e-05 2.79519e-05
-1.66454e-05 -6.66465e-05 -2.10267e-06
2.79519e-05 -2.10267e-06 -0.000393186
-0.00175079 -3.25761e-05 3.51929e-06
-3.25761e-05 7.91278e-05 1.38531e-06
3.51929e-06 1.38531e-06 -0.000532823
0.000717373 8.77774e-05 1.16604e-05
8.77774e-05 0.000154321 2.86044e-06
1.16604e-05 2.86044e-06 8.04322e-05
0.000471833 0.00015117 2.21988e-05
0.00015117 0.000189725 1.04546e-05
2.21988e-05 1.04546e-05 5.40317e-05
0.00181676 -3.45043e-05 4.93253e-05
-3.45043e-05 0.000386794 1.11229e-05
4.93253e-05 1.11229e-05 7.46431e-05
0.0072106 -0.000324262 6.83359e-05
-0.000324262 0.00276766 3.20075e-05
6.83359e-05 3.20075e-05 0.000881898
0.00237475 0.000420368 -6.69588e-05
0.000420368 0.000332254 -8.16899e-05
-6.69588e-05 -8.16899e-05 -0.000394312
0.00342963 -0.000266934 2.6037e-05
-0.000266934 0.000353597 1.61216e-05
2.6037e-05 1.61216e-05 3.28154e-05
0.00178489 1.44495e-05 1.90188e-05
1.44495e-05 0.000157199 5.10469e-05
1.90188e-05 5.10469e-05 -0.000381979
0.00216536 7.80771e-06 3.05178e-06
7.80771e-06 -0.00244211 -1.47817e-05
3.05178e-06 -1.47817e-05 -0.000835561
0.000770847 8.47759e-05 7.79359e-07
8.47759e-05 0.000261783 -1.55643e-07
7.79359e-07 -1.55643e-07 0.000196791
0.00128418 -2.18381e-05 -2.61522e-07
-2.18381e-05 0.000120836 -5.16443e-06
-2.61522e-07 -5.16443e-06 -1.18707e-05
0.00196519 9.2735e-06 9.1327e-06
9.2735e-06 0.000269616 3.71594e-06
9.1327e-06 3.71594e-06 -0.00013041
-0.000674212 7.67688e-05 -1.34559e-05
7.67688e-05 -0.000261127 -4.09224e-06
-1.34559e-05 -4.09224e-06 -0.000468458
0.00320611 0.000315111 6.46727e-06
0.000315111 -0.00117391 -1.3256e-06
6.46727e-06 -1.3256e-06 -0.00017602
0.00539525 0.000574452 4.35111e-05
0.000574452 0.00160921 5.98413e-06
4.35111e-05 5.98413e-06 -0.000266933
0.002781 0.000137094 -4.88111e-05
0.000137094 0.00113131 -3.80929e-06
-4.88111e-05 -3.80929e-06 0.00069472
0.000194683 8.23185e-05 -1.2461e-05
8.23185e-05 7.29426e-05 -1.18336e-05
-1.2461e-05 -1.18336e-05 -3.98049e-05
0.00132343 5.88216e-07 -5.64524e-07
5.88216e-07 0.000146416 -1.53524e-05
-5.64524e-07 -1.53524e-05 2.65373e-05
0.00224172 1.40647e-05 2.21661e-05
1.40647e-05 0.000542691 -3.99524e-05
2.21661e-05 -3.99524e-05 0.000162278
0.00367221 0.000486023 5.63165e-05
0.000486023 -5.40435e-05 -3.77102e-05
5.63165e-05 -3.77102e-05 0.000778628
0.00239549 0.00016865 -1.61337e-05
0.00016865 -0.000322657 -8.5569e-09
-1.61337e-05 -8.5569e-09 -0.000277287
0.00238826 0.000273881 1.62608e-05
0.000273881 0.000350545 -2.02996e-05
1.62608e-05 -2.02996e-05 0.000442872
0.00220795 -7.46724e-06 9.52969e-05
-7.46724e-06 0.00128028 3.21864e-05
9.52969e-05 3.21864e-05 -0.00133241
0.000615349 8.1384e-05 3.0697e-06
8.1384e-05 -7.5797e-06 6.51202e-06
3.0697e-06 6.51202e-06 -5.50949e-05
0.00063641 1.99245e-05 6.33386e-06
1.99245e-05 7.21391e-05 8.74473e-07
6.33386e-06 8.74473e-07 2.84722e-05
0.000339409 -1.61029e-05 1.13093e-05
-1.61029e-05 0.000102883 -1.18589e-05
1.13093e-05 -1.18589e-05 3.87481e-05
0.000833928 2.23485e-05 -2.26399e-07
2.23485e-05 4.75607e-05 1.76623e-06
-2.26399e-07 1.76623e-06 -2.31916e-05
0.000676685 -3.4565e-05 -1.12564e-06
-3.4565e-05 -3.81023e-05 3.71779e-06
-1.12564e-06 3.71779e-06 -8.92695e-05
0.000860018 -6.23355e-05 -4.69599e-06
-6.23355e-05 9.83436e-05 7.95157e-06
-4.69599e-06 7.95157e-06 5.58028e-05
0.000824891 -4.16736e-06 -1.54213e-07
-4.16736e-06 5.50864e-05 -2.53755e-07
-1.54213e-07 -2.53755e-07 -4.39748e-06
0.000595135 -1.04994e-05 -1.76217e-06
-1.04994e-05 -2.70985e-05 2.6194e-06
-1.76217e-06 2.6194e-06 -4.68696e-05
0.000277734 -7.71798e-05 3.71869e-06
-7.71798e-05 -7.91881e-05 -4.62312e-06
3.71869e-06 -4.62312e-06 -0.000192447
0.000870252 2.46573e-05 1.45862e-08
2.46573e-05 8.33767e-05 1.62868e-06
1.45862e-08 1.62868e-06 1.86885e-05
0.000846716 5.4737e-05 -4.4952e-07
5.4737e-05 7.61187e-05 9.03717e-07
-4.4952e-07 9.03717e-07 3.96849e-06
0.00109871 -4.09348e-05 8.75254e-07
-4.09348e-05 0.00024403 6.34313e-07
8.75254e-07 6.34313e-07 0.000161912
0.000475997 -5.39795e-05 3.79498e-06
-5.39795e-05 -7.66908e-06 8.84407e-07
3.79498e-06 8.84407e-07 -0.000171193
0.000631535 -1.76547e-06 -4.03505e-06
-1.76547e-06 -7.56777e-06 -1.83009e-07
-4.03505e-06 -1.83009e-07 -8.56612e-05
0.000405318 -5.98445e-05 8.04495e-07
-5.98445e-05 -0.000121659 -3.49031e-07
8.04495e-07 -3.49031e-07 -0.000247903
0.00106497 -0.00015247 3.53462e-06
-0.00015247 0.00021545 -8.24873e-07
3.53462e-06 -8.24873e-07 3.12664e-05
0.00113017 -0.00015862 -1.92604e-06
-0.00015862 0.000173612 3.61896e-06
-1.92604e-06 3.61896e-06 -8.4526e-06
0.00135632 -8.87414e-05 -1.99443e-06
-8.87414e-05 0.000373855 -5.00075e-07
-1.99443e-06 -5.00075e-07 0.0002584
0.000721798 -0.000122888 -3.15872e-07
-0.000122888 1.47523e-05 5.69482e-08
-3.15872e-07 5.69482e-08 -0.00014015
0.00140011 -0.000162596 7.43048e-07
-0.000162596 0.000381297 -8.92501e-07
7.43048e-07 -8.92501e-07 0.000233411
0.00044364 -8.26937e-05 -1.31092e-06
-8.26937e-05 -9.99549e-05 -8.15044e-08
-1.31092e-06 -8.15044e-08 -0.00022846
0.000874773 -0.000124992 1.39723e-07
-0.000124992 0.000106004 3.17184e-07
1.39723e-07 3.17184e-07 -3.87748e-05
0.000891642 -8.1571e-06 -2.03326e-07
-8.1571e-06 0.00011793 6.01849e-07
-2.03326e-07 6.01849e-07 2.64131e-05
0.001002 -9.21612e-05 -1.67656e-06
-9.21612e-05 0.000193217 1.39706e-06
-1.67656e-06 1.39706e-06 7.64736e-05
0.000558737 -0.000102906 -7.04406e-07
-0.000102906 -5.72658e-05 -7.1215e-07
-7.04406e-07 -7.1215e-07 -0.000198579
0.000774455 5.10273e-05 2.17778e-07
5.10273e-05 3.86461e-05 8.22335e-07
2.17778e-07 8.22335e-07 -2.53262e-05
0.00074523 -2.93658e-07 7.47815e-07
-2.93658e-07 3.50809e-05 -6.10502e-08
7.47815e-07 -6.10502e-08 -4.80872e-05
0.000824237 -3.00584e-05 7.41888e-07
-3.00584e-05 9.50598e-05 -2.28067e-06
7.41888e-07 -2.28067e-06 -9.07767e-06
0.000824404 1.78688e-05 -4.94458e-08
1.78688e-05 7.26832e-05 -5.20859e-07
-4.94458e-08 -5.20859e-07 2.28788e-06
0.000788725 2.31489e-05 -5.01339e-07
2.31489e-05 3.9025e-05 -1.63962e-07
-5.01339e-07 -1.63962e-07 -1.72856e-05
0.000742411 4.13517e-05 -1.43447e-06
4.13517e-05 9.33798e-06 1.35121e-06
-1.43447e-06 1.35121e-06 -2.85003e-05
0.000809949 -1.06826e-05 9.20718e-07
-1.06826e-05 4.80428e-05 -6.19218e-07
9.20718e-07 -6.19218e-07 -5.73932e-06
0.000752489 3.38547e-05 -7.42749e-08
3.38547e-05 8.17236e-06 -4.62457e-10
-7.42749e-08 -4.62457e-10 -2.75661e-05
0.000674722 3.60722e-05 -1.21173e-06
3.60722e-05 -3.42915e-05 3.3171e-06
-1.21173e-06 3.3171e-06 -4.32758e-05
0.00076063 2.41449e-05 1.23578e-06
2.41449e-05 6.81178e-06 -1.47758e-06
1.23578e-06 -1.47758e-06 -2.74714e-05
0.000693126 3.10331e-05 1.21046e-07
3.10331e-05 -3.13568e-05 2.4437e-08
1.21046e-07 2.4437e-08 -3.87632e-05
0.00204245 4.80102e-05 -4.75169e-06
4.80102e-05 0.000724249 1.58033e-06
-4.75169e-06 1.58033e-06 0.000741123
0.000696767 2.52854e-05 8.44628e-07
2.52854e-05 -3.56246e-05 -3.25862e-06
8.44628e-07 -3.25862e-06 -4.18881e-05
0.00149038 3.09901e-05 7.60213e-06
3.09901e-05 0.000409745 -1.12501e-06
7.60213e-06 -1.12501e-06 0.000425253
0.00214428 2.81516e-05 1.25149e-05
2.81516e-05 0.000770019 -4.06155e-06
1.25149e-05 -4.06155e-06 0.000789356
0.000666482 -1.70523e-05 -1.79116e-07
-1.70523e-05 -3.35564e-05 -6.64669e-07
-1.79116e-07 -6.64669e-07 -9.54298e-05
0.000501847 -1.51324e-05 -3.46291e-07
-1.51324e-05 -0.000135456 -2.19611e-06
-3.46291e-07 -2.19611e-06 -0.000173769
0.000766722 3.46565e-06 -3.41399e-07
3.46565e-06 2.83391e-05 -5.28956e-07
-3.41399e-07 -5.28956e-07 -3.46346e-05
0.000712397 -1.91812e-05 -3.44847e-07
-1.91812e-05 -3.09816e-05 -3.42046e-06
-3.44847e-07 -3.42046e-06 -3.64414e-05
0.00051099 -1.30627e-05 -1.37643e-08
-1.30627e-05 -0.000131508 -6.70379e-07
-1.37643e-08 -6.70379e-07 -0.000167366
0.000898303 2.53608e-06 -1.35992e-07
2.53608e-06 0.000103675 7.99812e-07
-1.35992e-07 7.99812e-07 4.36277e-05
0.00210943 -1.92066e-05 -8.7022e-06
-1.92066e-05 0.000747031 -4.35323e-06
-8.7022e-06 -4.35323e-06 0.0007676
0.000713942 -1.26778e-05 -1.10003e-07
-1.26778e-05 -3.35698e-05 -1.1007e-08
-1.10003e-07 -1.1007e-08 -3.72244e-05
0.000513843 -8.56705e-06 1.64745e-07
-8.56705e-06 -0.000130709 1.6515e-06
1.64745e-07 1.6515e-06 -0.000164553
0.00207415 -9.40339e-06 -2.74503e-06
-9.40339e-06 0.000724808 2.54167e-08
-2.74503e-06 2.54167e-08 0.000746319
0.000717207 -6.2893e-06 1.72417e-07
-6.2893e-06 -3.38621e-05 3.3595e-06
1.72417e-07 3.3595e-06 -3.64268e-05
0.00206417 3.27419e-07 -5.74163e-07
3.27419e-07 0.000718372 4.44144e-06
-5.74163e-07 4.44144e-06 0.00074015
0.00129896 2.09342e-05 -1.43276e-05
2.09342e-05 0.000130375 1.44042e-05
-1.43276e-05 1.44042e-05 -2.78562e-06
0.00141098 2.38157e-05 7.0644e-06
2.38157e-05 9.0916e-05 -2.22975e-06
7.0644e-06 -2.22975e-06 -0.000268632
0.00135737 0.000131927 4.4166e-05
0.000131927 0.00141826 -1.88963e-05
4.4166e-05 -1.88963e-05 0.0011835
0.000853402 2.68012e-05 1.25125e-07
2.68012e-05 8.17377e-05 8.12676e-08
1.25125e-07 8.12676e-08 4.74595e-06
0.000766742 -5.86424e-06 7.05337e-08
-5.86424e-06 2.96033e-05 4.37637e-07
7.05337e-08 4.37637e-07 -4.42386e-05
0.000911704 4.36617e-05 -2.75826e-07
4.36617e-05 0.00011447 1.22025e-06
-2.75826e-07 1.22025e-06 3.3019e-05
0.00176521 1.44807e-05 2.66655e-06
1.44807e-05 7.90935e-05 6.19759e-05
2.66655e-06 6.19759e-05 -0.000414319
0.00220958 2.37436e-05 -6.67222e-06
2.37436e-05 0.000564194 1.75107e-06
-6.67222e-06 1.75107e-06 0.000152919
0.00241561 1.79346e-05 4.04433e-05
1.79346e-05 0.000434989 -4.65275e-05
4.04433e-05 -4.65275e-05 -0.000183865
0.00425076 -0.000285448 -6.20576e-05
-0.000285448 0.000741328 1.52868e-06
-6.20576e-05 1.52868e-06 0.000156043
-0.000134281 -2.41846e-05 -4.14866e-05
-2.41846e-05 -0.000526385 2.21466e-05
-4.14866e-05 2.21466e-05 -0.00231727
0.0044668 0.000596689 6.12463e-05
0.000596689 0.000965978 -1.33304e-05
6.12463e-05 -1.33304e-05 0.000945378
0.001455 0.00022628 1.12402e-05
0.00022628 -0.00231291 -3.06162e-05
1.12402e-05 -3.06162e-05 -0.00122158
0.00483149 -0.000582674 -8.42997e-06
-0.000582674 0.00120551 3.84943e-06
-8.42997e-06 3.84943e-06 0.00062914
0.00625311 -4.82754e-05 1.18354e-05
-4.82754e-05 0.0024267 -6.02612e-06
1.18354e-05 -6.02612e-06 0.000559883
-0.000119186 0.000120136 -1.03379e-05
0.000120136 -0.000682056 -1.31086e-05
-1.03379e-05 -1.31086e-05 -0.000939926
0.00346985 2.15141e-05 -5.92094e-06
2.15141e-05 -0.00131964 5.36721e-06
-5.92094e-06 5.36721e-06 7.07195e-05
0.00198854 -0.000466257 -3.09962e-05
-0.000466257 -0.000324783 -3.46319e-05
-3.09962e-05 -3.46319e-05 -0.00085769
0.00919666 -0.000377974 6.23795e-05
-0.000377974 0.00404717 1.0631e-05
6.23795e-05 1.0631e-05 0.00177206
-0.00419943 8.39484e-05 3.13872e-05
8.39484e-05 -0.00100718 -1.91572e-05
3.13872e-05 -1.91572e-05 -0.00163853
0.00163989 -0.000256483 3.66313e-06
-0.000256483 -0.0018181 1.66307e-06
3.66313e-06 1.66307e-06 -0.000736786
0.000860349 6.88264e-06 -8.89047e-08
6.88264e-06 8.18212e-05 1.32754e-06
-8.89047e-08 1.32754e-06 -4.97178e-06
0.000848822 -1.42401e-05 2.03731e-07
-1.42401e-05 8.76922e-05 -6.50677e-08
2.03731e-07 -6.50677e-08 -6.56253e-06
0.000818645 -4.84905e-05 -9.94427e-08
-4.84905e-05 8.03334e-05 -4.25406e-07
-9.94427e-08 -4.25406e-07 -1.38037e-05
0.000843967 1.34027e-05 -3.35841e-07
1.34027e-05 7.51651e-05 -2.51654e-07
-3.35841e-07 -2.51654e-07 -7.72021e-06
0.000974112 8.8321e-05 1.32837e-06
8.8321e-05 0.000159196 -1.68448e-08
1.32837e-06 -1.68448e-08 7.03567e-05
0.00101827 7.87886e-05 -1.31171e-07
7.87886e-05 0.000183544 2.33406e-08
-1.31171e-07 2.33406e-08 0.000100862
0.00135043 -0.000294061 -1.79634e-06
-0.000294061 8.26566e-05 6.82505e-06
-1.79634e-06 6.82505e-06 1.81318e-06
-0.000795089 -5.50088e-05 8.56611e-06
-5.50088e-05 -0.000729865 -5.95196e-06
8.56611e-06 -5.95196e-06 -0.000797103
0.00100886 4.85517e-05 -6.88367e-07
4.85517e-05 0.000174472 -6.9144e-07
-6.88367e-07 -6.9144e-07 8.05823e-05
0.00133184 -7.38852e-05 8.58214e-06
-7.38852e-05 0.000314834 -1.01845e-05
8.58214e-06 -1.01845e-05 0.000211994
0.00100196 1.54251e-05 -5.32411e-07
1.54251e-05 0.000170872 -1.71306e-06
-5.32411e-07 -1.71306e-06 7.55273e-05
0.000896204 -3.21839e-06 1.38269e-08
-3.21839e-06 8.95484e-05 -3.55304e-07
1.38269e-08 -3.55304e-07 8.83382e-06
0.00096465 5.30031e-05 4.80131e-07
5.30031e-05 0.000141562 -4.06343e-07
4.80131e-07 -4.06343e-07 6.00842e-05
0.000575883 -0.000253892 -8.28014e-06
-0.000253892 -0.000199688 -1.95876e-06
-8.28014e-06 -1.95876e-06 -0.000215141
0.00096337 -2.11592e-05 9.9696e-07
-2.11592e-05 0.000135726 -1.81499e-06
9.9696e-07 -1.81499e-06 6.04924e-05
0.000518637 -2.24632e-05 8.29533e-06
-2.24632e-05 0.000172642 -1.30336e-06
8.29533e-06 -1.30336e-06 6.10808e-05
0.000973017 1.94604e-05 2.41332e-06
1.94604e-05 0.000141437 1.28532e-06
2.41332e-06 1.28532e-06 6.71514e-05
-0.00203373 -1.83949e-05 6.8932e-06
-1.83949e-05 -0.000993622 -2.65579e-05
6.8932e-06 -2.65579e-05 -0.00127477
0.00137245 3.21642e-06 9.61434e-06
3.21642e-06 0.000580402 1.92952e-05
9.61434e-06 1.92952e-05 0.000543683
0.00111979 -1.32133e-05 1.94928e-06
-1.32133e-05 0.00023109 4.3666e-06
1.94928e-06 4.3666e-06 0.000173144
0.00145085 -6.9365e-06 -6.95222e-07
-6.9365e-06 0.000290843 7.27552e-08
-6.95222e-07 7.27552e-08 0.000234552
0.00108426 -6.47081e-06 -5.81059e-06
-6.47081e-06 6.86144e-05 -1.45307e-06
-5.81059e-06 -1.45307e-06 -1.45994e-05
0.00106689 -2.66825e-05 8.50714e-05
-2.66825e-05 -7.48053e-05 -1.24876e-06
8.50714e-05 -1.24876e-06 -0.00040162
0.00114317 0.000127131 1.61844e-05
0.000127131 0.000449484 1.14323e-05
1.61844e-05 1.14323e-05 0.000375639
0.00353943 0.000336009 4.4761e-06
0.000336009 0.00149554 -1.46086e-05
4.4761e-06 -1.46086e-05 0.00137596
0.0012882 -2.03515e-05 9.15409e-06
-2.03515e-05 0.000108646 5.47201e-06
9.15409e-06 5.47201e-06 -1.48257e-05
0.000665888 0.000256039 -7.85465e-06
0.000256039 -0.000280333 2.56507e-07
-7.85465e-06 2.56507e-07 -0.00210214
-0.00688744 1.90455e-05 -2.91487e-05
1.90455e-05 -0.00327071 -2.00212e-06
-2.91487e-05 -2.00212e-06 -0.00401
0.00212137 1.42547e-05 1.05448e-05
1.42547e-05 0.000473466 3.3243e-05
1.05448e-05 3.3243e-05 0.000156975
0.00154142 0.000229871 -9.68227e-06
0.000229871 -0.00224749 3.05718e-05
-9.68227e-06 3.05718e-05 -0.00116277
0.000357499 6.40193e-05 -1.64568e-06
6.40193e-05 0.000156633 -1.61254e-06
-1.64568e-06 -1.61254e-06 6.22365e-05
0.00116931 -2.72145e-06 2.45453e-06
-2.72145e-06 7.88616e-05 -5.89875e-06
2.45453e-06 -5.89875e-06 -2.44215e-05
0.00224514 1.81416e-05 6.57336e-06
1.81416e-05 0.000544488 -1.70525e-06
6.57336e-06 -1.70525e-06 0.000152536
0.00147976 0.000255532 4.03716e-05
0.000255532 -0.000215089 -2.32933e-07
4.03716e-05 -2.32933e-07 -0.000326299
0.00184364 0.000476688 1.06225e-05
0.000476688 -0.0011458 -2.51671e-05
1.06225e-05 -2.51671e-05 -0.000279377
-7.27091e-05 0.000126554 1.0872e-05
0.000126554 -0.00100029 9.75181e-06
1.0872e-05 9.75181e-06 -0.00100875
0.00656543 0.000125046 5.51214e-05
0.000125046 0.00333647 -1.52225e-05
5.51214e-05 -1.52225e-05 0.000488887
5.4907e-05 7.53052e-06 -7.53109e-06
7.53052e-06 0.000192844 -1.23251e-05
-7.53109e-06 -1.23251e-05 -1.09372e-05
0.0012505 1.70377e-05 1.34061e-05
1.70377e-05 8.83348e-05 -1.38561e-05
1.34061e-05 -1.38561e-05 -4.14579e-05
0.0023064 4.48408e-05 7.62882e-05
4.48408e-05 0.000220771 -5.5283e-05
7.62882e-05 -5.5283e-05 -0.000253982
0.00224582 0.000675991 1.08471e-05
0.000675991 0.000643135 -8.07291e-06
1.08471e-05 -8.07291e-06 0.00167103
-0.00641454 0.000138155 5.95413e-05
0.000138155 -0.00453138 4.63586e-05
5.95413e-05 4.63586e-05 -0.00432088
0.00867634 -0.000112619 3.617e-05
-0.000112619 0.00355717 -5.16396e-05
3.617e-05 -5.16396e-05 0.00123725
0.00450469 -0.00024727 -6.57733e-05
-0.00024727 0.000984555 0.000119872
-6.57733e-05 0.000119872 0.00109131
0.00104512 9.96263e-06 -8.47518e-07
9.96263e-06 0.000302109 6.92984e-06
-8.47518e-07 6.92984e-06 0.000258707
6.15317e-05 -1.39963e-05 2.62945e-06
-1.39963e-05 -4.83946e-05 -1.02696e-06
2.62945e-06 -1.02696e-06 -0.000128516
-0.000304142 -9.71047e-05 6.49691e-06
-9.71047e-05 -0.000167841 -1.08493e-05
6.49691e-06 -1.08493e-05 -0.000336283
0.00083046 -1.58081e-05 1.12935e-07
-1.58081e-05 6.19082e-05 1.73073e-06
1.12935e-07 1.73073e-06 6.05507e-08
0.000517825 -1.38283e-05 2.20868e-06
-1.38283e-05 -8.08194e-05 1.07712e-05
2.20868e-06 1.07712e-05 -9.7599e-05
0.00051858 -2.3011e-05 -1.93514e-07
-2.3011e-05 4.48342e-05 -2.3242e-08
-1.93514e-07 -2.3242e-08 -5.35603e-05
0.00095131 -0.000131331 1.3635e-05
-0.000131331 0.000335852 -8.21857e-06
1.3635e-05 -8.21857e-06 0.000122293
0.00154327 -5.56006e-05 -1.63335e-06
-5.56006e-05 0.000475723 1.46534e-06
-1.63335e-06 1.46534e-06 0.000389072
0.00126813 -0.000131571 9.38377e-07
-0.000131571 0.00038547 4.7138e-07
9.38377e-07 4.7138e-07 0.000218092
0.00101783 -0.000159016 5.66021e-06
-0.000159016 0.000244808 2.03728e-06
5.66021e-06 2.03728e-06 -1.47158e-05
0.000184008 -5.55505e-05 -1.80284e-06
-5.55505e-05 -0.000235475 -1.15744e-06
-1.80284e-06 -1.15744e-06 -0.000352965
0.00105136 -0.00014918 -2.72418e-07
-0.00014918 0.000204479 8.01129e-07
-2.72418e-07 8.01129e-07 1.4366e-05
0.00189751 -0.000228235 1.50212e-06
-0.000228235 0.00056802 1.71259e-06
1.50212e-06 1.71259e-06 0.000340431
0.00172311 -0.000218959 -2.99171e-06
-0.000218959 0.000384365 9.23633e-07
-2.99171e-06 9.23633e-07 0.000182735
0.000634225 -0.000121658 -2.60486e-07
-0.000121658 -7.03439e-05 4.45326e-06
-2.60486e-07 4.45326e-06 -0.000231927
0.00115492 -0.000160756 -1.79217e-06
-0.000160756 0.000186628 1.24287e-06
-1.79217e-06 1.24287e-06 3.1382e-06
0.000925152 -0.000136918 -2.58964e-06
-0.000136918 0.000117875 2.42215e-07
-2.58964e-06 2.42215e-07 -4.03902e-05
0.00132829 -0.000154693 2.17604e-06
-0.000154693 0.000353537 -1.8799e-06
2.17604e-06 -1.8799e-06 0.000215306
0.00109061 -0.000140534 2.21501e-06
-0.000140534 0.000220274 -1.78531e-06
2.21501e-06 -1.78531e-06 7.85527e-05
0.000702907 -3.98907e-05 5.35189e-07
-3.98907e-05 2.69623e-05 9.56042e-07
5.35189e-07 9.56042e-07 -8.28186e-05
0.000784738 -9.82016e-05 9.56146e-07
-9.82016e-05 8.34558e-05 -3.92277e-07
9.56146e-07 -3.92277e-07 -4.48011e-05
0.000944386 -0.000129156 4.1502e-06
-0.000129156 0.0001418 -2.65749e-06
4.1502e-06 -2.65749e-06 -1.22131e-07
0.00078038 5.45668e-05 5.84767e-07
5.45668e-05 4.98642e-05 1.24901e-06
5.84767e-07 1.24901e-06 -2.57831e-05
0.00089527 -2.63978e-05 -1.63294e-07
-2.63978e-05 0.000121117 7.02453e-08
-1.63294e-07 7.02453e-08 2.74721e-05
0.0010725 -9.0547e-05 -3.22895e-07
-9.0547e-05 0.000229861 1.93066e-08
-3.22895e-07 1.93066e-08 0.000113005
0.000718963 5.18172e-05 -1.0005e-06
5.18172e-05 5.36497e-06 1.44834e-06
-1.0005e-06 1.44834e-06 -3.71069e-05
0.000790878 2.81234e-05 -5.43323e-07
2.81234e-05 4.58851e-05 -2.58665e-07
-5.43323e-07 -2.58665e-07 -1.7397e-05
0.000624176 1.0551e-06 -5.23798e-08
1.0551e-06 -3.01538e-05 -7.41494e-07
-5.23798e-08 -7.41494e-07 -0.000113694
0.000817247 1.35582e-07 7.94545e-07
1.35582e-07 5.35197e-05 -8.89464e-07
7.94545e-07 -8.89464e-07 -2.5213e-06
0.000743935 4.39586e-05 -1.1581e-07
4.39586e-05 1.06668e-05 -2.75987e-08
-1.1581e-07 -2.75987e-08 -2.75481e-05
0.000660262 4.14652e-05 -1.45063e-06
4.14652e-05 -3.37612e-05 3.29803e-06
-1.45063e-06 3.29803e-06 -4.48904e-05
0.000756589 3.47523e-05 1.21583e-06
3.47523e-05 1.02535e-05 -1.51348e-06
1.21583e-06 -1.51348e-06 -2.55232e-05
0.000685471 3.68099e-05 8.55876e-08
3.68099e-05 -2.84735e-05 9.2545e-09
8.55876e-08 9.2545e-09 -3.75034e-05
0.00208633 5.20703e-05 -2.13133e-05
5.20703e-05 0.000755212 3.52866e-06
-2.13133e-05 3.52866e-06 0.000770957
0.000697654 3.1531e-05 1.01228e-06
3.1531e-05 -2.92378e-05 -3.27734e-06
1.01228e-06 -3.27734e-06 -3.66195e-05
0.00147811 3.86145e-05 8.88783e-06
3.86145e-05 0.000409944 -1.00815e-06
8.88783e-06 -1.00815e-06 0.000424056
0.00212222 3.68269e-05 1.59308e-05
3.68269e-05 0.000762998 -3.85311e-06
1.59308e-05 -3.85311e-06 0.000781379
0.000804689 2.60109e-05 -5.54561e-07
2.60109e-05 4.15759e-05 -2.93968e-07
-5.54561e-07 -2.93968e-07 -2.03405e-05
0.000737529 -1.85577e-05 -6.64118e-07
-1.85577e-05 -5.4722e-06 -1.51829e-06
-6.64118e-07 -1.51829e-06 -4.40345e-05
0.000721363 1.98605e-05 -7.6826e-07
1.98605e-05 1.18897e-06 -4.30624e-07
-7.6826e-07 -4.30624e-07 -6.31552e-05
0.000701999 -2.53724e-05 -2.72564e-07
-2.53724e-05 -3.20045e-05 -3.48018e-06
-2.72564e-07 -3.48018e-06 -3.96405e-05
0.000623584 -1.56928e-05 -2.31203e-07
-1.56928e-05 -6.86465e-05 -6.88763e-07
-2.31203e-07 -6.88763e-07 -0.000106189
0.000891301 3.17771e-07 4.33111e-08
3.17771e-07 9.72264e-05 -3.58665e-08
4.33111e-08 -3.58665e-08 3.47052e-05
0.00215354 -2.83467e-05 -1.26184e-05
-2.83467e-05 0.000775171 -4.25483e-06
-1.26184e-05 -4.25483e-06 0.000794466
0.000706648 -1.88063e-05 -1.80829e-07
-1.88063e-05 -3.41959e-05 -9.15189e-09
-1.80829e-07 -9.15189e-09 -3.95726e-05
0.000497601 -1.31594e-05 -1.14747e-08
-1.31594e-05 -0.00013892 9.83578e-07
-1.14747e-08 9.83578e-07 -0.000175056
0.00209996 -1.84885e-05 -2.48833e-06
-1.84885e-05 0.000741381 4.76845e-08
-2.48833e-06 4.76845e-08 0.000762118
0.000710726 -1.2376e-05 3.51722e-07
-1.2376e-05 -3.53312e-05 3.38444e-06
3.51722e-07 3.38444e-06 -3.89433e-05
0.00207003 -8.72749e-06 3.58966e-06
-8.72749e-06 0.000722308 4.41685e-06
3.58966e-06 4.41685e-06 0.000743886
0.00129656 2.37967e-07 -9.28094e-07
2.37967e-07 0.000152349 1.58202e-05
-9.28094e-07 1.58202e-05 1.23777e-05
0.00126922 1.77357e-05 -4.35616e-06
1.77357e-05 0.000114897 9.69258e-07
-4.35616e-06 9.69258e-07 -3.09469e-05
0.0015175 2.41888e-05 6.39609e-05
2.41888e-05 0.000174446 -1.60192e-05
6.39609e-05 -1.60192e-05 -0.000189537
0.000750736 -4.40851e-05 1.09333e-07
-4.40851e-05 1.66821e-05 -1.65147e-07
1.09333e-07 -1.65147e-07 -5.37432e-05
0.000903293 -8.9035e-06 -3.65016e-07
-8.9035e-06 0.000108131 -5.14819e-07
-3.65016e-07 -5.14819e-07 3.23541e-05
0.00087754 2.71051e-05 1.29962e-06
2.71051e-05 9.35482e-05 -4.23738e-07
1.29962e-06 -4.23738e-07 1.8553e-05
0.000774951 -2.01853e-05 1.03654e-07
-2.01853e-05 2.97584e-05 2.91132e-08
1.03654e-07 2.91132e-08 -4.11218e-05
0.000841819 1.01254e-05 1.27022e-08
1.01254e-05 7.52803e-05 2.03047e-07
1.27022e-08 2.03047e-07 -5.42748e-06
0.000874599 -1.04355e-05 -8.28435e-07
-1.04355e-05 9.34455e-05 4.7285e-07
-8.28435e-07 4.7285e-07 1.57912e-05
0.000878787 0.000114498 8.13863e-07
0.000114498 0.000106296 1.2182e-06
8.13863e-07 1.2182e-06 1.63226e-05
0.00142196 1.80836e-06 2.2985e-05
1.80836e-06 0.000171479 5.92208e-05
2.2985e-05 5.92208e-05 -0.000359756
0.00191553 1.7399e-05 -1.95601e-06
1.7399e-05 0.000283126 1.80094e-05
-1.95601e-06 1.80094e-05 -0.000119049
0.00215519 2.92199e-05 1.0468e-05
2.92199e-05 0.000529178 -3.5769e-05
1.0468e-05 -3.5769e-05 0.000109037
0.00215221 -6.77401e-06 -6.54418e-06
-6.77401e-06 -0.00238405 -5.39087e-06
-6.54418e-06 -5.39087e-06 -0.000860987
0.00298114 -0.000507685 -2.54419e-05
-0.000507685 0.000388276 4.91937e-05
-2.54419e-05 4.91937e-05 -0.000397849
-0.00124898 -0.000225983 4.7338e-05
-0.000225983 -0.0011132 -1.30116e-06
4.7338e-05 -1.30116e-06 -0.0030394
0.00474956 0.00051393 3.90537e-05
0.00051393 0.00222915 -2.50784e-05
3.90537e-05 -2.50784e-05 0.0014095
0.00503678 -0.000672204 -1.97608e-05
-0.000672204 0.00114094 3.943e-06
-1.97608e-05 3.943e-06 0.000476908
0.00147626 -0.000220006 4.12601e-05
-0.000220006 0.00034153 -1.78522e-05
4.12601e-05 -1.78522e-05 -0.00175194
0.00345655 -1.49694e-05 -2.32436e-05
-1.49694e-05 0.00132312 2.10255e-06
-2.32436e-05 2.10255e-06 0.000907198
0.00521001 -0.000336214 -1.19151e-05
-0.000336214 0.000428171 -1.78837e-05
-1.19151e-05 -1.78837e-05 0.00147504
0.00224245 -0.000162194 -2.04524e-05
-0.000162194 -0.000208699 1.20734e-05
-2.04524e-05 1.20734e-05 -0.000172391
0.000828947 -9.46164e-05 3.63107e-05
-9.46164e-05 -0.000459243 -6.26251e-05
3.63107e-05 -6.26251e-05 -0.00214268
-0.00392963 -0.000382717 4.13755e-05
-0.000382717 -0.00321665 -1.50968e-06
4.13755e-05 -1.50968e-06 -0.00386525
0.000986051 -0.000373463 2.43006e-05
-0.000373463 -0.00162864 -3.014e-05
2.43006e-05 -3.014e-05 -0.000521747
0.000900825 -4.49078e-05 -3.80023e-07
-4.49078e-05 0.000104114 2.12208e-06
-3.80023e-07 2.12208e-06 3.05717e-05
0.000810194 6.05282e-06 1.93338e-07
6.05282e-06 5.42736e-05 3.23876e-08
1.93338e-07 3.23876e-08 -3.19361e-05
0.000809028 -3.2214e-07 -5.25768e-07
-3.2214e-07 6.90413e-05 -1.3298e-06
-5.25768e-07 -1.3298e-06 -2.74362e-05
0.000855541 2.3753e-05 -1.73409e-08
2.3753e-05 8.47425e-05 -1.49492e-06
-1.73409e-08 -1.49492e-06 -8.05064e-07
0.00147767 -0.000271203 4.33886e-07
-0.000271203 0.000231111 1.74338e-05
4.33886e-07 1.74338e-05 0.000181067
0.000184381 -1.76348e-05 3.52765e-06
-1.76348e-05 7.01295e-07 -1.07595e-05
3.52765e-06 -1.07595e-05 -9.80191e-05
0.000781478 -2.56815e-05 -3.55504e-07
-2.56815e-05 2.08343e-05 -2.10784e-06
-3.55504e-07 -2.10784e-06 -5.82716e-05
0.000977242 6.90906e-05 -9.87288e-07
6.90906e-05 0.000156996 -2.18179e-06
-9.87288e-07 -2.18179e-06 7.25281e-05
0.0012935 -2.1889e-06 5.36519e-06
-2.1889e-06 0.000334253 -1.07872e-05
5.36519e-06 -1.07872e-05 0.000256887
0.000849321 -1.63275e-06 -5.34702e-07
-1.63275e-06 7.3108e-05 -3.30762e-08
-5.34702e-07 -3.30762e-08 -7.98421e-07
0.000729249 -3.47161e-06 1.03336e-07
-3.47161e-06 2.95375e-05 -7.02341e-07
1.03336e-07 -7.02341e-07 -3.17482e-05
-0.000678857 -3.80843e-05 -1.3762e-05
-3.80843e-05 -0.000351786 -9.57582e-06
-1.3762e-05 -9.57582e-06 -0.000664555
0.00089412 -2.24156e-05 5.21427e-08
-2.24156e-05 0.000351923 1.56045e-06
5.21427e-08 1.56045e-06 0.000322126
0.000750751 -9.61192e-06 3.47209e-06
-9.61192e-06 4.83858e-05 8.6211e-07
3.47209e-06 8.6211e-07 -1.73106e-05
0.000932427 1.57485e-05 -8.32357e-06
1.57485e-05 0.000955246 -4.9154e-05
-8.32357e-06 -4.9154e-05 9.53879e-05
0.00179502 -1.91658e-05 1.03413e-07
-1.91658e-05 0.000792667 1.43745e-05
1.03413e-07 1.43745e-05 0.000731107
0.00143575 -9.80575e-06 1.45247e-05
-9.80575e-06 0.000245173 4.0946e-07
1.45247e-05 4.0946e-07 0.000145633
0.000990489 -6.21374e-06 -1.82208e-07
-6.21374e-06 5.78546e-05 -8.25236e-08
-1.82208e-07 -8.25236e-08 1.07499e-05
0.000803628 -3.89952e-06 2.73478e-06
-3.89952e-06 -6.27525e-05 -1.23808e-06
2.73478e-06 -1.23808e-06 -0.000134306
0.000502772 5.28574e-05 7.34451e-06
5.28574e-05 0.000213889 8.31512e-06
7.34451e-06 8.31512e-06 0.000140147
0.00162507 0.000192541 -5.63794e-05
0.000192541 9.71919e-05 1.88045e-05
-5.63794e-05 1.88045e-05 0.000122095
0.00102641 -4.21296e-06 4.00009e-06
-4.21296e-06 1.97957e-05 3.74052e-06
4.00009e-06 3.74052e-06 -6.94105e-05
0.00333938 -0.00018898 0.0001122
-0.00018898 0.00168726 -0.000119381
0.0001122 -0.000119381 -0.000787419
0.00507156 0.000556153 -3.48252e-05
0.000556153 0.0021437 2.47236e-05
-3.48252e-05 2.47236e-05 0.00140352
0.00218576 1.79164e-05 -1.15852e-05
1.79164e-05 0.000512467 3.62078e-05
-1.15852e-05 3.62078e-05 0.000104081
0.00319265 0.00051507 -2.98791e-05
0.00051507 -0.000364897 1.41032e-05
-2.98791e-05 1.41032e-05 0.000525718
-0.000477502 -1.48776e-05 1.6763e-05
-1.48776e-05 -3.52781e-05 -3.71071e-07
1.6763e-05 -3.71071e-07 -0.000283639
0.00126699 1.37553e-05 4.82827e-06
1.37553e-05 0.000101358 -8.69122e-07
4.82827e-06 -8.69122e-07 -3.55024e-05
0.00229656 2.21161e-05 2.00121e-05
2.21161e-05 0.00026748 -2.88372e-06
2.00121e-05 -2.88372e-06 -0.000279541
0.00150925 -8.68235e-05 -1.60533e-05
-8.68235e-05 -0.000522715 2.5715e-05
-1.60533e-05 2.5715e-05 -0.000214696
-0.000615464 0.000710989 1.34697e-05
0.000710989 -0.00110707 -2.94102e-06
1.34697e-05 -2.94102e-06 0.000227885
0.00529856 0.000592884 -2.21341e-06
0.000592884 0.000731516 1.74916e-05
-2.21341e-06 1.74916e-05 0.000916315
0.000497843 -0.000326078 4.61499e-05
-0.000326078 5.24553e-05 -2.68313e-05
4.61499e-05 -2.68313e-05 -0.00266417
0.0010232 -4.94107e-05 4.64748e-05
-4.94107e-05 0.000423644 -9.48514e-06
4.64748e-05 -9.48514e-06 0.00038206
0.00110823 4.60038e-06 4.48657e-05
4.60038e-06 -0.000114681 -1.87402e-05
4.48657e-05 -1.87402e-05 -0.000482842
-0.00128167 0.000251901 -2.82372e-05
0.000251901 -0.000336943 -1.55732e-05
-2.82372e-05 -1.55732e-05 -0.00045567
0.000202289 0.000551346 -3.58255e-07
0.000551346 -0.000198832 3.88689e-05
-3.58255e-07 3.88689e-05 0.000117483
0.00717049 0.000251925 2.32425e-05
0.000251925 0.00292915 -3.56083e-05
2.32425e-05 -3.56083e-05 0.00077169
0.00282272 -0.000315296 -6.51261e-05
-0.000315296 0.000197953 7.95687e-05
-6.51261e-05 7.95687e-05 -9.61386e-05
-0.000245579 -1.83685e-05 -1.42503e-06
-1.83685e-05 -0.000217413 9.30834e-06
-1.42503e-06 9.30834e-06 -0.000317257
0.000211905 -4.81794e-05 -1.10638e-06
-4.81794e-05 0.000110997 -3.77278e-07
-1.10638e-06 -3.77278e-07 -5.01662e-05
0.00103656 -0.000158193 1.808e-05
-0.000158193 0.000334774 -7.81076e-06
1.808e-05 -7.81076e-06 0.000206088
0.000694474 2.53562e-05 -4.59639e-06
2.53562e-05 0.000136059 2.66899e-06
-4.59639e-06 2.66899e-06 5.18036e-05
-2.03469e-05 -6.82992e-05 1.07959e-06
-6.82992e-05 -0.000147192 -2.38021e-06
1.07959e-06 -2.38021e-06 -0.000367087
0.00132854 -0.000202251 1.34859e-05
-0.000202251 0.000304301 7.82115e-07
1.34859e-05 7.82115e-07 8.66958e-05
0.0020595 -0.000211282 -3.91412e-06
-0.000211282 0.000777321 1.06052e-06
-3.91412e-06 1.06052e-06 0.000605364
0.00144728 -0.00018293 9.4756e-07
-0.00018293 0.000449752 1.16589e-06
9.4756e-07 1.16589e-06 0.000195348
0.000931059 -0.000192807 2.24235e-06
-0.000192807 -4.72583e-06 -3.41199e-06
2.24235e-06 -3.41199e-06 -0.000234525
0.00107329 -0.000148771 -3.14937e-06
-0.000148771 0.0002112 -2.46368e-08
-3.14937e-06 -2.46368e-08 1.58531e-05
0.00176117 -0.000218744 1.36429e-06
-0.000218744 0.000487751 3.85163e-08
1.36429e-06 3.85163e-08 0.000260442
0.00132002 -0.000211198 1.44131e-06
-0.000211198 9.97066e-05 -3.86069e-06
1.44131e-06 -3.86069e-06 -0.000108145
0.00163423 -0.000216212 2.49486e-07
-0.000216212 0.000204747 -2.54881e-06
2.49486e-07 -2.54881e-06 3.67999e-05
0.0020017 -0.000225849 -4.84105e-06
-0.000225849 0.000572375 4.69549e-06
-4.84105e-06 4.69549e-06 0.000380622
0.00153627 -0.000208774 -1.07241e-06
-0.000208774 0.000280051 -8.67798e-08
-1.07241e-06 -8.67798e-08 7.45314e-05
0.000625328 -0.000119015 2.04443e-06
-0.000119015 -6.9457e-05 -1.05821e-07
2.04443e-06 -1.05821e-07 -0.000210607
0.000904565 -0.00013781 1.62233e-06
-0.00013781 7.59677e-05 -4.01813e-07
1.62233e-06 -4.01813e-07 -8.12628e-05
0.00122717 -0.000166062 -7.43392e-07
-0.000166062 0.000224298 -1.52049e-06
-7.43392e-07 -1.52049e-06 3.97077e-05
0.00105879 -0.00013161 9.27967e-07
-0.00013161 0.000205722 2.6415e-07
9.27967e-07 2.6415e-07 7.46374e-05
0.00113688 -0.000141033 -6.81165e-07
-0.000141033 0.000251381 -9.09625e-07
-6.81165e-07 -9.09625e-07 0.00011321
0.000784027 -0.000118776 2.32436e-06
-0.000118776 6.10251e-05 -2.13846e-06
2.32436e-06 -2.13846e-06 -7.45938e-05
0.000749321 1.62786e-05 1.10174e-06
1.62786e-05 4.05366e-05 1.2461e-06
1.10174e-06 1.2461e-06 -5.26691e-05
0.000781572 -4.6203e-05 -3.02325e-08
-4.6203e-05 7.07775e-05 7.19742e-07
-3.02325e-08 7.19742e-07 -3.86095e-05
0.00114394 -0.00011439 1.35866e-06
-0.00011439 0.000276767 -1.18866e-06
1.35866e-06 -1.18866e-06 0.000148265
0.000707173 6.61098e-05 8.64723e-09
6.61098e-05 1.01523e-05 2.02323e-06
8.64723e-09 2.02323e-06 -4.23537e-05
0.000783597 2.36432e-05 -2.96613e-07
2.36432e-05 5.25191e-05 -1.48523e-07
-2.96613e-07 -1.48523e-07 -2.44998e-05
0.000900812 -4.05874e-05 2.31501e-07
-4.05874e-05 0.000125377 -5.91233e-07
2.31501e-07 -5.91233e-07 2.95949e-05
0.000659954 4.66503e-05 -2.51072e-06
4.66503e-05 -2.51982e-05 4.5652e-06
-2.51072e-06 4.5652e-06 -3.88625e-05
0.000724452 5.60185e-05 -8.16823e-08
5.60185e-05 9.76308e-06 -1.54139e-07
-8.16823e-08 -1.54139e-07 -3.36104e-05
0.000806066 6.65888e-06 2.38335e-07
6.65888e-06 5.2765e-05 -1.17178e-06
2.38335e-07 -1.17178e-06 -1.00423e-05
0.000744494 4.71648e-05 7.07944e-07
4.71648e-05 1.16239e-05 -1.5941e-06
7.07944e-07 -1.5941e-06 -2.70713e-05
0.00067961 4.253e-05 3.12176e-08
4.253e-05 -2.32569e-05 -6.3661e-09
3.12176e-08 -6.3661e-09 -3.44835e-05
0.00208891 6.0049e-05 -2.41857e-05
6.0049e-05 0.000765071 3.27701e-06
-2.41857e-05 3.27701e-06 0.000778832
0.000699499 3.76697e-05 1.22732e-06
3.76697e-05 -2.08199e-05 -3.26835e-06
1.22732e-06 -3.26835e-06 -2.99181e-05
0.00209742 5.28122e-05 1.47978e-06
5.28122e-05 0.00076242 9.74116e-08
1.47978e-06 9.74116e-08 0.00077793
0.00210852 4.5272e-05 1.90928e-05
4.5272e-05 0.000761945 -3.63832e-06
1.90928e-05 -3.63832e-06 0.000778976
0.000835061 7.90001e-06 -1.44474e-08
7.90001e-06 7.07925e-05 -5.62834e-07
-1.44474e-08 -5.62834e-07 -4.85876e-06
0.000814248 3.81848e-05 -1.07699e-06
3.81848e-05 5.30632e-05 -9.18094e-07
-1.07699e-06 -9.18094e-07 -1.41836e-05
0.000737835 -2.70766e-05 -7.6133e-07
-2.70766e-05 -3.45187e-06 -1.66322e-06
-7.6133e-07 -1.66322e-06 -4.4055e-05
0.000806505 2.82442e-05 -4.18491e-08
2.82442e-05 4.27977e-05 -2.20071e-08
-4.18491e-08 -2.20071e-08 -1.92834e-05
0.000687578 -3.09647e-05 -4.62449e-07
-3.09647e-05 -3.44447e-05 -3.56537e-06
-4.62449e-07 -3.56537e-06 -4.44013e-05
0.000748344 -2.01785e-05 -1.34549e-07
-2.01785e-05 1.12251e-06 -1.38158e-09
-1.34549e-07 -1.38158e-09 -3.76495e-05
0.000776448 1.97472e-05 -6.43386e-08
1.97472e-05 2.39584e-05 -1.06547e-07
-6.43386e-08 -1.06547e-07 -3.47028e-05
0.00220372 -3.74243e-05 -1.63803e-05
-3.74243e-05 0.00080773 -4.12395e-06
-1.63803e-05 -4.12395e-06 0.000825457
0.000696839 -2.48289e-05 -1.57779e-07
-2.48289e-05 -3.49943e-05 -9.15264e-09
-1.57779e-07 -9.15264e-09 -4.25228e-05
0.000744138 -1.69695e-05 -2.20889e-08
-1.69695e-05 -2.4971e-06 9.7126e-07
-2.20889e-08 9.7126e-07 -3.92801e-05
0.00213961 -2.76787e-05 -2.50686e-06
-2.76787e-05 0.000766918 7.18305e-08
-2.50686e-06 7.18305e-08 0.000786433
0.000701506 -1.84625e-05 2.85573e-07
-1.84625e-05 -3.70494e-05 3.41069e-06
2.85573e-07 3.41069e-06 -4.23519e-05
0.0020896 -1.773e-05 7.95515e-06
-1.773e-05 0.000735241 4.36246e-06
7.95515e-06 4.36246e-06 0.000756142
0.00123359 -2.96709e-05 1.28727e-05
-2.96709e-05 0.000136093 1.74553e-05
1.28727e-05 1.74553e-05 -2.63929e-05
0.00113434 -1.56127e-06 -2.64643e-06
-1.56127e-06 7.49435e-05 6.08917e-06
-2.64643e-06 6.08917e-06 -4.56967e-05
0.00130426 1.39187e-05 6.22473e-06
1.39187e-05 0.000130429 -1.01582e-05
6.22473e-06 -1.01582e-05 -1.80837e-05
0.000801462 -2.08536e-06 -2.62271e-07
-2.08536e-06 4.98347e-05 -6.5909e-08
-2.62271e-07 -6.5909e-08 -2.44698e-05
0.000827492 -2.2055e-05 -1.8062e-07
-2.2055e-05 6.71105e-05 2.40058e-07
-1.8062e-07 2.40058e-07 -9.1908e-06
0.000773957 -2.89951e-05 1.9406e-07
-2.89951e-05 4.01227e-05 -1.7029e-06
1.9406e-07 -1.7029e-06 -4.09541e-05
0.00072292 -3.58015e-05 -2.8215e-08
-3.58015e-05 9.21679e-06 -6.61658e-07
-2.8215e-08 -6.61658e-07 -6.61356e-05
0.000966297 4.30023e-05 -6.66968e-07
4.30023e-05 0.000154487 -2.71538e-07
-6.66968e-07 -2.71538e-07 6.77865e-05
0.00076856 -3.40669e-05 -1.76284e-08
-3.40669e-05 2.32734e-05 -2.25804e-07
-1.76284e-08 -2.25804e-07 -4.55875e-05
0.000769329 -1.46899e-05 4.6358e-07
-1.46899e-05 3.25666e-05 -1.05064e-06
4.6358e-07 -1.05064e-06 -4.60436e-05
0.000841066 9.12334e-06 -1.21364e-07
9.12334e-06 7.51647e-05 -4.85722e-08
-1.21364e-07 -4.85722e-08 -2.05114e-06
0.000892767 3.20872e-05 -7.05228e-08
3.20872e-05 0.000103707 2.04311e-07
-7.05228e-08 2.04311e-07 2.00091e-05
0.000952801 1.18403e-05 4.49128e-08
1.18403e-05 0.000146834 7.64127e-07
4.49128e-08 7.64127e-07 6.45911e-05
0.00180897 -2.30727e-05 5.98918e-05
-2.30727e-05 0.000258774 6.78189e-05
5.98918e-05 6.78189e-05 -0.000335542
0.00157611 9.38303e-06 3.48711e-06
9.38303e-06 0.000173616 1.5847e-05
3.48711e-06 1.5847e-05 -0.000364439
0.00208581 2.39609e-05 -4.54431e-06
2.39609e-05 0.000489474 -1.51329e-05
-4.54431e-06 -1.51329e-05 0.000183403
0.00506424 -0.000308573 -2.78399e-05
-0.000308573 0.000525604 -4.50278e-05
-2.78399e-05 -4.50278e-05 0.00160399
-0.00677784 0.000212148 -2.7327e-05
0.000212148 -0.00321205 2.43788e-05
-2.7327e-05 2.43788e-05 -0.00390463
0.00376853 -0.000594158 -5.16138e-05
-0.000594158 0.000720488 5.25679e-05
-5.16138e-05 5.25679e-05 1.51823e-05
0.00643659 -0.0001055 -6.52526e-06
-0.0001055 0.0019795 -4.64377e-05
-6.52526e-06 -4.64377e-05 0.000287434
0.00360366 -0.000286383 -4.03531e-05
-0.000286383 0.000457281 4.15107e-05
-4.03531e-05 4.15107e-05 0.000163283
0.0094902 -0.000211966 5.82757e-05
-0.000211966 0.00388837 -1.14122e-05
5.82757e-05 -1.14122e-05 0.00174771
0.000191247 -0.000243597 2.2574e-05
-0.000243597 -0.000903518 -8.11568e-08
2.2574e-05 -8.11568e-08 -0.00119582
0.000955284 -0.00042437 -2.70766e-05
-0.00042437 -0.00174527 -6.38291e-05
-2.70766e-05 -6.38291e-05 -0.000600088
0.0044449 -4.07695e-06 -0.000109116
-4.07695e-06 0.000875478 -2.04085e-05
-0.000109116 -2.04085e-05 0.000619542
0.0080518 -0.000284764 -1.83922e-05
-0.000284764 0.00266366 4.6807e-05
-1.83922e-05 4.6807e-05 0.0011451
0.00761902 -0.000879262 1.0687e-05
-0.000879262 0.00211528 -1.90082e-05
1.0687e-05 -1.90082e-05 0.00224167
0.00307953 -0.000663523 1.57208e-05
-0.000663523 0.000296611 1.21875e-06
1.57208e-05 1.21875e-06 0.00160462
0.000646391 1.61125e-05 2.45297e-06
1.61125e-05 7.25989e-06 1.67712e-06
2.45297e-06 1.67712e-06 -5.57894e-05
0.0009216 -3.78888e-05 -1.00376e-07
-3.78888e-05 0.000119714 6.13059e-07
-1.00376e-07 6.13059e-07 4.44431e-05
0.00081004 6.19254e-06 -1.10013e-07
6.19254e-06 5.17835e-05 -1.41321e-06
-1.10013e-07 -1.41321e-06 -3.28193e-05
0.000165589 3.56659e-06 -1.6212e-05
3.56659e-06 3.25979e-05 1.65737e-05
-1.6212e-05 1.65737e-05 -0.000303222
0.00101724 -6.58269e-05 -1.73506e-05
-6.58269e-05 0.000432845 -7.86177e-06
-1.73506e-05 -7.86177e-06 0.000411804
0.00078175 -1.78417e-05 -1.42234e-06
-1.78417e-05 3.75927e-05 -9.60924e-07
-1.42234e-06 -9.60924e-07 -3.83684e-05
0.000670426 -4.96637e-05 -4.88322e-07
-4.96637e-05 -2.76219e-06 -5.90452e-06
-4.88322e-07 -5.90452e-06 -6.18397e-05
0.000809347 -3.47289e-06 -4.88862e-07
-3.47289e-06 8.31031e-05 -1.37215e-06
-4.88862e-07 -1.37215e-06 1.61118e-05
0.000585473 -2.34528e-05 -7.97328e-07
-2.34528e-05 0.00014891 3.8343e-06
-7.97328e-07 3.8343e-06 8.70513e-05
0.000106288 -1.80115e-05 3.55197e-05
-1.80115e-05 0.000520707 -3.35814e-05
3.55197e-05 -3.35814e-05 -0.000313355
-0.000458073 -1.29982e-05 -4.30168e-06
-1.29982e-05 -0.000429296 8.02293e-06
-4.30168e-06 8.02293e-06 -0.000505735
0.0010873 0.000111422 -1.12046e-06
0.000111422 0.00051024 -3.03144e-05
-1.12046e-06 -3.03144e-05 2.81948e-05
0.00129894 -6.11721e-06 4.53661e-05
-6.11721e-06 8.46136e-06 6.43729e-06
4.53661e-05 6.43729e-06 -0.0003372
0.00111046 -7.51238e-06 6.44665e-06
-7.51238e-06 8.251e-05 1.46932e-06
6.44665e-06 1.46932e-06 -4.42433e-06
0.000445828 -5.39054e-06 1.24298e-07
-5.39054e-06 -0.000232064 -2.96238e-07
1.24298e-07 -2.96238e-07 -0.00026989
-0.00150464 -3.64297e-05 -3.61869e-05
-3.64297e-05 -0.000471196 1.25209e-05
-3.61869e-05 1.25209e-05 -0.000787093
0.00219287 4.82955e-05 9.63494e-06
4.82955e-05 -0.000279257 -4.21092e-05
9.63494e-06 -4.21092e-05 -0.000345922
0.00133591 9.59966e-06 -4.43696e-06
9.59966e-06 0.000141488 9.69275e-06
-4.43696e-06 9.69275e-06 4.06924e-06
0.0117857 -0.000232502 8.68884e-05
-0.000232502 0.00492616 -7.8166e-06
8.68884e-05 -7.8166e-06 0.00266631
0.00440802 0.000651473 -4.63858e-05
0.000651473 0.000931853 8.23607e-06
-4.63858e-05 8.23607e-06 0.00087812
0.00241467 9.12459e-06 -4.00445e-05
9.12459e-06 0.000375948 4.52572e-05
-4.00445e-05 4.52572e-05 -0.000224783
-0.00348988 0.000761532 4.67984e-05
0.000761532 -0.00291432 -6.36387e-05
4.67984e-05 -6.36387e-05 -0.00124127
0.000470512 -3.27736e-05 -1.05931e-05
-3.27736e-05 0.000172094 -1.41337e-06
-1.05931e-05 -1.41337e-06 9.70012e-05
0.00140162 9.75937e-06 -7.5409e-06
9.75937e-06 5.81652e-05 2.28286e-06
-7.5409e-06 2.28286e-06 -0.000308021
-0.00159192 0.00029049 -6.909e-05
0.00029049 -0.000375361 2.84995e-05
-6.909e-05 2.84995e-05 -0.000408005
0.00195932 -0.000296231 -2.13127e-05
-0.000296231 -0.000197369 2.95761e-05
-2.13127e-05 2.95761e-05 -0.00037813
0.00567944 0.000886777 1.46321e-05
0.000886777 0.0018954 2.19955e-05
1.46321e-05 2.19955e-05 0.00224659
0.00718625 -9.10302e-05 5.04021e-05
-9.10302e-05 0.00253369 -2.85438e-05
5.04021e-05 -2.85438e-05 0.000589287
0.00176792 -0.000202018 2.08104e-05
-0.000202018 0.000324192 1.65757e-05
2.08104e-05 1.65757e-05 0.000476944
-0.00151177 5.23307e-05 3.66113e-05
5.23307e-05 2.85819e-05 -7.50087e-06
3.66113e-05 -7.50087e-06 -0.000510698
0.00238065 0.000611774 -4.12921e-05
0.000611774 0.00120083 1.51225e-05
-4.12921e-05 1.51225e-05 0.00132093
0.00498664 0.000272832 -7.0934e-05
0.000272832 0.00166748 5.68902e-05
-7.0934e-05 5.68902e-05 -0.000299554
0.00254039 -0.000552595 2.07053e-05
-0.000552595 0.000117941 8.33292e-06
2.07053e-05 8.33292e-06 -0.000460162
0.000720221 2.83324e-06 8.99125e-06
2.83324e-06 0.000386226 9.94382e-06
8.99125e-06 9.94382e-06 0.000234657
0.000624662 -0.000140749 -8.20454e-07
-0.000140749 0.000138948 -1.02202e-07
-8.20454e-07 -1.02202e-07 -9.69464e-06
0.0024904 -0.000254326 1.7241e-05
-0.000254326 0.000702821 2.31408e-06
1.7241e-05 2.31408e-06 0.000671653
-0.000971203 -9.36842e-06 -4.32327e-06
-9.36842e-06 -0.000623103 5.0896e-06
-4.32327e-06 5.0896e-06 -0.000847729
0.00067412 -0.000155323 4.09629e-06
-0.000155323 -3.34832e-06 -5.79925e-07
4.09629e-06 -5.79925e-07 -0.000223186
0.000786029 -0.000217885 1.93152e-06
-0.000217885 -0.000246373 -8.51051e-07
1.93152e-06 -8.51051e-07 -0.000407161
0.00183707 -0.000203126 -4.68331e-06
-0.000203126 0.000632223 9.11349e-07
-4.68331e-06 9.11349e-07 0.000384502
0.00121237 -0.000206393 -2.4553e-06
-0.000206393 0.000136799 -2.19913e-06
-2.4553e-06 -2.19913e-06 -8.47467e-05
0.00168694 -0.000256142 4.36377e-06
-0.000256142 0.000176043 -1.04224e-06
4.36377e-06 -1.04224e-06 2.31208e-05
0.00167808 -0.000211684 -1.8422e-06
-0.000211684 0.000436794 -9.34856e-07
-1.8422e-06 -9.34856e-07 0.000210291
0.00148283 -0.000217661 -3.94582e-07
-0.000217661 0.000181456 -1.94397e-06
-3.94582e-07 -1.94397e-06 -2.05431e-05
0.00152136 -0.000213179 2.20146e-07
-0.000213179 4.37305e-05 -2.71895e-06
2.20146e-07 -2.71895e-06 -0.000100352
0.00165845 -0.000189529 2.85502e-07
-0.000189529 0.000134829 -1.80888e-06
2.85502e-07 -1.80888e-06 -5.43133e-07
0.00153587 -0.000201362 -6.62205e-07
-0.000201362 0.000230633 -1.22532e-06
-6.62205e-07 -1.22532e-06 4.78695e-05
0.00147465 -0.000205045 1.22192e-06
-0.000205045 0.000124147 -2.66699e-07
1.22192e-06 -2.66699e-07 -4.21755e-05
0.00144606 -0.000180842 -1.90912e-06
-0.000180842 0.000304381 3.92883e-06
-1.90912e-06 3.92883e-06 0.000137811
0.00138015 -0.000188457 -1.13543e-07
-0.000188457 0.000243369 5.98865e-07
-1.13543e-07 5.98865e-07 4.9425e-05
0.00130508 -0.000195621 -2.78078e-07
-0.000195621 0.000153607 -1.74878e-06
-2.78078e-07 -1.74878e-06 -5.61037e-05
0.000953226 -0.0001335 7.13545e-07
-0.0001335 0.000111211 -1.22168e-06
7.13545e-07 -1.22168e-06 -2.09337e-05
0.0006947 -0.000122139 -2.23322e-07
-0.000122139 -2.92925e-05 -1.54773e-06
-2.23322e-07 -1.54773e-06 -0.000167642
0.0011543 -0.00015278 3.96407e-06
-0.00015278 0.000210714 -4.26032e-06
3.96407e-06 -4.26032e-06 5.77207e-05
0.000849354 -7.03789e-05 2.9668e-07
-7.03789e-05 8.36985e-05 1.1924e-06
2.9668e-07 1.1924e-06 -2.49707e-05
0.000935395 -0.000114144 4.22109e-07
-0.000114144 0.000138937 5.13381e-07
4.22109e-07 5.13381e-07 1.06367e-05
0.000939778 -0.000127007 -5.3179e-07
-0.000127007 0.000146119 7.2735e-07
-5.3179e-07 7.2735e-07 8.12639e-06
0.000702629 8.26723e-05 1.03968e-06
8.26723e-05 1.67165e-05 2.86406e-06
1.03968e-06 2.86406e-06 -5.14776e-05
0.000823623 -6.08163e-06 3.82638e-08
-6.08163e-06 8.2385e-05 -1.13586e-07
3.82638e-08 -1.13586e-07 -1.33639e-05
0.00085691 -5.96116e-05 -9.37818e-07
-5.96116e-05 0.000112806 1.71586e-08
-9.37818e-07 1.71586e-08 4.03767e-06
0.00130141 6.36616e-05 -1.36043e-05
6.36616e-05 0.000341797 2.96143e-06
-1.36043e-05 2.96143e-06 0.000326873
0.000704965 5.36121e-05 -1.69692e-07
5.36121e-05 6.59031e-06 -3.06691e-07
-1.69692e-07 -3.06691e-07 -4.46048e-05
0.000796462 -7.09676e-06 2.51026e-07
-7.09676e-06 6.052e-05 -1.3166e-06
2.51026e-07 -1.3166e-06 -1.80188e-05
0.000812349 3.80738e-05 -2.29994e-05
3.80738e-05 6.5609e-05 3.24378e-06
-2.29994e-05 3.24378e-06 7.16755e-05
0.00101703 5.41955e-05 -6.29005e-06
5.41955e-05 0.000173231 2.87793e-07
-6.29005e-06 2.87793e-07 0.000160656
0.000725802 5.92711e-05 -9.3532e-08
5.92711e-05 1.15532e-05 -1.93475e-06
-9.3532e-08 -1.93475e-06 -3.25002e-05
0.000700641 4.37683e-05 1.30023e-06
4.37683e-05 -1.18041e-05 -3.26742e-06
1.30023e-06 -3.26742e-06 -2.31541e-05
0.00211045 6.08565e-05 1.21883e-06
6.08565e-05 0.000778105 1.01652e-07
1.21883e-06 1.01652e-07 0.000791564
0.00211106 5.34806e-05 2.23301e-05
5.34806e-05 0.000771047 -3.40225e-06
2.23301e-05 -3.40225e-06 0.000786325
0.000759998 -1.83096e-05 2.65782e-07
-1.83096e-05 2.8387e-05 -1.10961e-06
2.65782e-07 -1.10961e-06 -4.92744e-05
0.000813017 1.65873e-05 -5.13704e-07
1.65873e-05 5.31531e-05 -1.39931e-06
-5.13704e-07 -1.39931e-06 -1.54155e-05
0.000814369 -1.83799e-05 1.11283e-07
-1.83799e-05 5.78036e-05 -4.85278e-08
1.11283e-07 -4.85278e-08 -1.67537e-05
0.00073962 -3.87668e-05 -8.07645e-07
-3.87668e-05 2.20077e-06 -1.95897e-06
-8.07645e-07 -1.95897e-06 -4.06293e-05
0.000812341 4.78362e-06 7.01552e-07
4.78362e-06 4.83521e-05 -7.66621e-08
7.01552e-07 -7.66621e-08 -1.58524e-05
0.000676457 -3.63344e-05 -6.72015e-07
-3.63344e-05 -3.44683e-05 -3.7116e-06
-6.72015e-07 -3.7116e-06 -4.66713e-05
0.000745017 -2.36466e-05 -1.64355e-07
-2.36466e-05 1.09326e-06 1.37819e-08
-1.64355e-07 1.37819e-08 -3.95586e-05
0.000825762 4.44899e-05 1.11174e-06
4.44899e-05 6.01792e-05 5.39419e-07
1.11174e-06 5.39419e-07 -6.48515e-06
0.00225318 -4.60763e-05 -2.0741e-05
-4.60763e-05 0.000840693 -3.96644e-06
-2.0741e-05 -3.96644e-06 0.000856708
0.000685752 -3.04552e-05 -2.86504e-07
-3.04552e-05 -3.54339e-05 1.85115e-09
-2.86504e-07 1.85115e-09 -4.53273e-05
0.000763498 -2.05306e-05 3.0166e-07
-2.05306e-05 1.0043e-05 1.62285e-06
3.0166e-07 1.62285e-06 -2.89026e-05
0.0021871 -3.68204e-05 -2.30232e-06
-3.68204e-05 0.000797917 9.07473e-08
-2.30232e-06 9.07473e-08 0.000815875
0.000692853 -2.43694e-05 3.2022e-07
-2.43694e-05 -3.72853e-05 3.46056e-06
3.2022e-07 3.46056e-06 -4.47248e-05
0.00212608 -2.69609e-05 1.16087e-05
-2.69609e-05 0.000758866 4.2732e-06
1.16087e-05 4.2732e-06 0.000778598
0.00194662 -4.57886e-05 4.70921e-05
-4.57886e-05 0.000376613 2.62636e-05
4.70921e-05 2.62636e-05 6.59108e-05
0.001237 -2.58494e-05 5.57144e-07
-2.58494e-05 0.000123303 5.53419e-06
5.57144e-07 5.53419e-06 -3.17367e-05
0.000991736 -3.75757e-06 -3.14445e-06
-3.75757e-06 1.30507e-05 -4.31426e-06
-3.14445e-06 -4.31426e-06 -9.19887e-05
0.000898559 4.59399e-05 -9.65552e-07
4.59399e-05 0.000120084 -4.28552e-07
-9.65552e-07 -4.28552e-07 3.0125e-05
0.000873998 -4.25978e-06 1.39496e-07
-4.25978e-06 8.89507e-05 1.46534e-07
1.39496e-07 1.46534e-07 1.54649e-05
0.000802536 -3.26204e-05 2.06738e-08
-3.26204e-05 5.35879e-05 4.83289e-07
2.06738e-08 4.83289e-07 -2.34489e-05
0.000854514 -2.89162e-05 1.0231e-07
-2.89162e-05 7.92164e-05 -1.32736e-07
1.0231e-07 -1.32736e-07 4.87936e-06
0.000871522 -1.43195e-06 1.92e-07
-1.43195e-06 9.40854e-05 -3.96542e-07
1.92e-07 -3.96542e-07 1.18795e-05
0.000865109 2.56775e-05 1.2976e-07
2.56775e-05 9.72529e-05 6.3073e-07
1.2976e-07 6.3073e-07 1.16781e-05
0.00088776 1.87671e-05 -1.50058e-07
1.87671e-05 0.000110194 -1.74276e-06
-1.50058e-07 -1.74276e-06 2.00237e-05
0.000654481 -2.57604e-05 4.36538e-07
-2.57604e-05 -1.98223e-05 -1.82938e-07
4.36538e-07 -1.82938e-07 -0.000101324
0.000827975 5.14989e-05 2.84029e-07
5.14989e-05 7.13599e-05 -4.8152e-07
2.84029e-07 -4.8152e-07 -7.89606e-06
0.000848299 -5.32441e-05 6.38696e-07
-5.32441e-05 7.0474e-05 -1.03938e-06
6.38696e-07 -1.03938e-06 -7.06667e-06
0.000865873 1.26171e-06 -1.6604e-07
1.26171e-06 9.73355e-05 1.37877e-07
-1.6604e-07 1.37877e-07 1.70947e-05
0.00137897 1.36134e-05 3.86333e-06
1.36134e-05 0.000395949 1.51146e-06
3.86333e-06 1.51146e-06 0.000315882
0.00135563 -0.000345503 5.51659e-05
-0.000345503 0.000812523 4.83995e-05
5.51659e-05 4.83995e-05 0.000859651
0.00206038 -1.76637e-05 2.92554e-06
-1.76637e-05 0.000398066 1.38679e-05
2.92554e-06 1.38679e-05 -0.000217406
0.00170681 1.5731e-05 -1.27054e-05
1.5731e-05 0.000174937 -2.73855e-05
-1.27054e-05 -2.73855e-05 -0.00036857
0.00431967 -0.000533347 -6.49769e-05
-0.000533347 3.70396e-05 -5.4068e-05
-6.49769e-05 -5.4068e-05 0.00128302
0.00414638 -0.000228283 -1.39576e-05
-0.000228283 0.000536172 -4.82811e-07
-1.39576e-05 -4.82811e-07 0.000194254
0.000985841 -0.000309795 -9.50167e-05
-0.000309795 -0.000425629 6.1375e-05
-9.50167e-05 6.1375e-05 -0.00208777
0.00290964 -0.00022616 -4.54109e-05
-0.00022616 0.000312079 8.94759e-05
-4.54109e-05 8.94759e-05 -0.000109241
0.0040337 -0.000208169 -6.82932e-06
-0.000208169 0.000729202 3.25071e-05
-6.82932e-06 3.25071e-05 0.000607029
-0.000348254 -0.000669469 9.16845e-07
-0.000669469 -0.00127859 1.16058e-05
9.16845e-07 1.16058e-05 0.000162371
0.00499809 6.67134e-05 6.64107e-06
6.67134e-05 0.00193165 2.29983e-05
6.64107e-06 2.29983e-05 -0.000279352
0.00111756 -0.000440674 -3.16862e-06
-0.000440674 -0.0010734 1.12162e-05
-3.16862e-06 1.12162e-05 -0.000754991
0.00247591 0.000168788 -4.67472e-05
0.000168788 9.71782e-05 -1.88653e-05
-4.67472e-05 -1.88653e-05 -8.67996e-05
0.00928625 -0.000475835 -3.48625e-05
-0.000475835 0.00389326 3.80008e-05
-3.48625e-05 3.80008e-05 0.00205076
-0.000208168 -0.000499873 -4.31962e-05
-0.000499873 -0.000400316 -3.54559e-05
-4.31962e-05 -3.54559e-05 -5.4242e-06
0.000605756 0.000141483 7.31135e-07
0.000141483 -2.62328e-05 -2.18217e-06
7.31135e-07 -2.18217e-06 -8.90657e-05
0.000952835 2.46819e-05 3.92497e-06
2.46819e-05 0.000165444 -6.55139e-08
3.92497e-06 -6.55139e-08 0.000103935
0.0009406 -2.14033e-05 -9.17204e-07
-2.14033e-05 0.000133828 -6.80832e-07
-9.17204e-07 -6.80832e-07 5.74211e-05
-0.00102394 -1.13644e-05 -3.92165e-05
-1.13644e-05 -0.000178547 -1.3583e-05
-3.92165e-05 -1.3583e-05 -0.000963094
-0.000909515 2.86594e-05 3.98747e-06
2.86594e-05 -0.000655546 -6.84836e-06
3.98747e-06 -6.84836e-06 -0.000722036
0.000805406 2.89562e-05 -5.20157e-07
2.89562e-05 8.34971e-05 -2.25473e-06
-5.20157e-07 -2.25473e-06 1.51481e-05
0.000802198 7.66533e-05 2.73204e-06
7.66533e-05 0.000194985 1.7181e-06
2.73204e-06 1.7181e-06 0.000111818
0.00065148 0.000146535 3.88924e-06
0.000146535 0.000198113 -2.02594e-05
3.88924e-06 -2.02594e-05 -0.000177352
0.000336269 0.000196446 1.73736e-05
0.000196446 -0.000177956 4.96742e-06
1.73736e-05 4.96742e-06 -0.000328805
0.000254056 -9.19823e-06 8.40389e-05
-9.19823e-06 0.00100746 3.62901e-07
8.40389e-05 3.62901e-07 0.000476886
0.00138773 -1.71843e-05 -4.77181e-06
-1.71843e-05 0.000118885 5.56054e-06
-4.77181e-06 5.56054e-06 -0.000164815
0.000813023 -5.10909e-06 -2.2751e-06
-5.10909e-06 -5.97903e-05 8.68388e-07
-2.2751e-06 8.68388e-07 -0.000135188
0.000678501 -4.07564e-05 -1.13555e-05
-4.07564e-05 0.000286268 5.63728e-06
-1.13555e-05 5.63728e-06 0.000208044
0.00109407 -0.000227569 5.24134e-06
-0.000227569 -0.000768793 -2.47043e-05
5.24134e-06 -2.47043e-05 -0.000771907
0.00153827 9.23222e-06 -5.95877e-05
9.23222e-06 0.000151708 1.5395e-05
-5.95877e-05 1.5395e-05 -0.000216529
-0.000217517 -0.000223394 2.22972e-05
-0.000223394 -0.000849541 -3.29761e-05
2.22972e-05 -3.29761e-05 -0.0027306
-0.00257052 0.000453173 -2.53604e-06
0.000453173 -0.00223763 -1.8461e-05
-2.53604e-06 -1.8461e-05 -0.00177055
0.00166872 0.00038611 -6.89898e-05
0.00038611 0.00103904 4.88141e-05
-6.89898e-05 4.88141e-05 0.00132656
0.00174437 -0.000137025 -5.49821e-06
-0.000137025 0.000201673 3.39071e-06
-5.49821e-06 3.39071e-06 0.000465636
0.00133354 0.000149723 1.5688e-06
0.000149723 0.00135752 5.21484e-06
1.5688e-06 5.21484e-06 0.00113354
-0.00424174 0.000232304 1.94125e-05
0.000232304 -0.00153085 5.02221e-07
1.94125e-05 5.02221e-07 -0.00187345
0.00419056 -0.00059623 -3.96515e-07
-0.00059623 0.00110347 3.65347e-06
-3.96515e-07 3.65347e-06 0.000188436
0.00785892 0.00028929 9.68734e-06
0.00028929 0.00293179 -1.98063e-06
9.68734e-06 -1.98063e-06 0.00131375
0.000408461 -0.000190394 2.54261e-07
-0.000190394 -0.000387938 1.48581e-05
2.54261e-07 1.48581e-05 -0.000312818
-0.00592408 0.000138966 -5.20033e-05
0.000138966 -0.00299511 1.52626e-06
-5.20033e-05 1.52626e-06 -0.00308601
0.0064676 0.00025543 -9.26942e-07
0.00025543 0.00227848 5.07629e-06
-9.26942e-07 5.07629e-06 0.000837003
0.0052584 -0.000501699 -3.89412e-07
-0.000501699 0.000869235 2.02713e-05
-3.89412e-07 2.02713e-05 2.01649e-05
0.000204177 -0.000112247 -1.54773e-05
-0.000112247 -4.7226e-05 9.12253e-06
-1.54773e-05 9.12253e-06 -0.000227503
0.00118683 -0.00018615 -1.03368e-06
-0.00018615 3.20389e-05 5.28229e-07
-1.03368e-06 5.28229e-07 4.48413e-05
0.00206274 -0.000223889 1.09668e-05
-0.000223889 0.000219932 -1.53409e-06
1.09668e-05 -1.53409e-06 0.000267527
0.000115123 -0.000113946 -4.62549e-06
-0.000113946 -0.000260694 -1.34027e-06
-4.62549e-06 -1.34027e-06 -0.000485541
0.00123058 -0.000241607 -3.9511e-06
-0.000241607 -1.49328e-05 -1.47815e-06
-3.9511e-06 -1.47815e-06 -0.000178047
0.00193036 -0.000284305 9.84056e-07
-0.000284305 0.000163946 5.93083e-07
9.84056e-07 5.93083e-07 5.61208e-05
0.00155846 -0.000224192 -4.07602e-06
-0.000224192 0.000315273 -2.17604e-06
-4.07602e-06 -2.17604e-06 9.99663e-05
0.00154047 -0.000245782 2.57151e-06
-0.000245782 0.000111707 5.12879e-07
2.57151e-06 5.12879e-07 -4.39459e-05
0.00205779 -0.000234057 -4.21942e-07
-0.000234057 0.000249787 -3.55425e-06
-4.21942e-07 -3.55425e-06 0.000133043
0.00159547 -0.000221751 -3.24578e-06
-0.000221751 0.000235927 1.94534e-07
-3.24578e-06 1.94534e-07 3.90473e-05
0.00162839 -0.000216818 -2.06512e-07
-0.000216818 0.000101473 8.06854e-07
-2.06512e-07 8.06854e-07 -4.30248e-05
0.0016987 -0.000178504 4.05916e-07
-0.000178504 9.10204e-05 -2.78932e-06
4.05916e-07 -2.78932e-06 -2.03507e-05
0.00164089 -0.000157632 -4.38001e-07
-0.000157632 9.84748e-05 -1.69251e-06
-4.38001e-07 -1.69251e-06 -1.73319e-05
0.00185063 -0.000199312 -6.65135e-07
-0.000199312 0.000300163 -1.90354e-06
-6.65135e-07 -1.90354e-06 0.000146562
0.00163185 -0.000186048 -5.7098e-08
-0.000186048 0.000123603 8.6617e-07
-5.7098e-08 8.6617e-07 -1.16419e-05
0.000915079 -0.000156176 -2.50429e-06
-0.000156176 -5.97198e-05 1.28616e-06
-2.50429e-06 1.28616e-06 -0.000228428
0.00150875 -0.000196696 2.11233e-06
-0.000196696 0.000216883 -1.13471e-06
2.11233e-06 -1.13471e-06 3.75861e-05
0.00133118 -0.000194794 1.85728e-06
-0.000194794 5.15792e-05 1.88903e-06
1.85728e-06 1.88903e-06 -0.00011318
0.00106749 -0.000148708 -8.68461e-08
-0.000148708 0.000131735 1.46017e-06
-8.68461e-08 1.46017e-06 -1.1294e-05
0.00103857 -0.000155282 1.17063e-06
-0.000155282 9.0594e-05 -6.19566e-07
1.17063e-06 -6.19566e-07 -7.37205e-05
0.000729346 -0.000149109 1.67173e-07
-0.000149109 -0.000101562 -2.67509e-06
1.67173e-07 -2.67509e-06 -0.000297374
0.000941615 -0.000116837 -1.62568e-06
-0.000116837 0.000104917 2.08196e-07
-1.62568e-06 2.08196e-07 -1.03767e-05
0.00105041 -0.000139026 -1.13581e-07
-0.000139026 0.000160928 -6.39596e-07
-1.13581e-07 -6.39596e-07 2.82954e-05
0.000789195 -0.000126746 -6.32967e-07
-0.000126746 2.49154e-05 -3.05884e-06
-6.32967e-07 -3.05884e-06 -0.000110854
0.000773059 5.63671e-06 2.93231e-07
5.63671e-06 4.518e-05 3.16555e-06
2.93231e-07 3.16555e-06 -3.34464e-05
0.000925448 -6.94522e-05 9.95768e-07
-6.94522e-05 0.000123466 4.46418e-07
9.95768e-07 4.46418e-07 1.47693e-05
0.00081811 -9.36435e-05 -1.63272e-07
-9.36435e-05 7.54086e-05 1.06818e-06
-1.63272e-07 1.06818e-06 -5.03072e-05
0.000573976 6.08156e-05 -7.79057e-07
6.08156e-05 -5.19547e-05 4.39378e-06
-7.79057e-07 4.39378e-06 -7.76573e-05
0.000712319 2.48539e-05 -6.9106e-07
2.48539e-05 1.33537e-05 -3.91062e-07
-6.9106e-07 -3.91062e-07 -5.05462e-05
0.000889513 -2.84253e-05 -9.58374e-08
-2.84253e-05 0.000119266 -1.67953e-06
-9.58374e-08 -1.67953e-06 2.12889e-05
0.00218413 8.39936e-05 -9.56642e-06
8.39936e-05 0.0008376 1.24134e-06
-9.56642e-06 1.24134e-06 0.000844333
0.000662065 5.51766e-05 -1.87043e-08
5.51766e-05 -1.2377e-05 -8.96951e-08
-1.87043e-08 -8.96951e-08 -3.16992e-05
0.000700755 3.94981e-05 1.1289e-06
3.94981e-05 2.78735e-06 -2.26539e-06
1.1289e-06 -2.26539e-06 -4.77226e-05
0.00213114 6.79879e-05 1.26439e-06
6.79879e-05 0.000797942 9.87367e-08
1.26439e-06 9.87367e-08 0.000809323
0.000704346 5.03942e-05 1.22347e-06
5.03942e-05 -9.33756e-08 -3.46502e-06
1.22347e-06 -3.46502e-06 -1.46975e-05
0.00213178 6.1451e-05 2.5665e-05
6.1451e-05 0.000791002 -3.15134e-06
2.5665e-05 -3.15134e-06 0.000804204
0.000899626 3.53191e-05 -3.18226e-07
3.53191e-05 0.000111895 -1.86971e-07
-3.18226e-07 -1.86971e-07 2.76029e-05
0.000795699 -9.10358e-06 4.24206e-08
-9.10358e-06 4.83868e-05 -2.69199e-07
4.24206e-08 -2.69199e-07 -3.02636e-05
0.000799597 3.46808e-06 -2.93525e-07
3.46808e-06 5.06354e-05 -1.66278e-06
-2.93525e-07 -1.66278e-06 -2.33635e-05
0.000726959 -4.32933e-05 -7.15974e-07
-4.32933e-05 1.27376e-06 -2.28391e-06
-7.15974e-07 -2.28391e-06 -4.36424e-05
0.000781583 -1.00516e-05 8.36274e-07
-1.00516e-05 3.61951e-05 -7.95922e-08
8.36274e-07 -7.95922e-08 -3.18695e-05
0.000760175 -6.3443e-06 4.48447e-07
-6.3443e-06 3.16817e-05 7.22039e-07
4.48447e-07 7.22039e-07 -4.5614e-05
0.000675581 -4.12981e-05 -1.18287e-06
-4.12981e-05 -2.85019e-05 -3.84122e-06
-1.18287e-06 -3.84122e-06 -4.26089e-05
0.000738505 -3.1352e-05 -1.95145e-07
-3.1352e-05 1.00011e-06 1.72482e-08
-1.95145e-07 1.72482e-08 -4.12994e-05
0.000783008 -5.15965e-06 1.16499e-06
-5.15965e-06 3.21331e-05 8.29699e-07
1.16499e-06 8.29699e-07 -3.15466e-05
0.00228762 -5.43246e-05 -2.47555e-05
-5.43246e-05 0.000866044 -3.75339e-06
-2.47555e-05 -3.75339e-06 0.000880326
0.000671714 -3.55054e-05 -2.29856e-07
-3.55054e-05 -3.70808e-05 2.5511e-08
-2.29856e-07 2.5511e-08 -4.92023e-05
0.000750729 -2.2074e-05 8.40648e-07
-2.2074e-05 4.54726e-06 1.71238e-06
8.40648e-07 1.71238e-06 -3.60915e-05
0.00224031 -4.56881e-05 -2.42685e-06
-4.56881e-05 0.000832981 1.15621e-07
-2.42685e-06 1.15621e-07 0.000849169
0.000679221 -2.98836e-05 3.11196e-07
-2.98836e-05 -3.8981e-05 3.57017e-06
3.11196e-07 3.57017e-06 -4.8805e-05
0.00217117 -3.61159e-05 1.5296e-05
-3.61159e-05 0.000788438 4.16181e-06
1.5296e-05 4.16181e-06 0.00080664
-0.00236798 -0.000117076 3.53595e-05
-0.000117076 -0.000429092 1.87549e-05
3.53595e-05 1.87549e-05 -0.00106375
0.00189526 -5.34389e-05 2.16837e-06
-5.34389e-05 0.000369272 7.35742e-06
2.16837e-06 7.35742e-06 6.07963e-05
0.00124716 -2.21104e-05 -8.65316e-06
-2.21104e-05 0.000112179 -6.26546e-06
-8.65316e-06 -6.26546e-06 -3.4985e-05
0.000838576 1.08427e-05 -8.98067e-07
1.08427e-05 8.41478e-05 6.81202e-07
-8.98067e-07 6.81202e-07 -2.95252e-06
0.0010863 0.000121614 1.78068e-07
0.000121614 0.000232957 7.53482e-07
1.78068e-07 7.53482e-07 0.000126487
0.000860994 2.6683e-05 -4.31811e-07
2.6683e-05 0.000104797 2.75642e-08
-4.31811e-07 2.75642e-08 1.01039e-05
0.000955613 -3.79044e-05 2.7616e-07
-3.79044e-05 0.000134473 -3.53646e-07
2.7616e-07 -3.53646e-07 5.99986e-05
0.000929405 3.01886e-05 6.61998e-07
3.01886e-05 0.000123092 4.8438e-07
6.61998e-07 4.8438e-07 4.23501e-05
0.000708125 -1.88276e-05 -7.27179e-07
-1.88276e-05 6.0974e-06 1.63334e-06
-7.27179e-07 1.63334e-06 -7.50054e-05
0.000737216 3.71098e-06 -7.30658e-07
3.71098e-06 2.92379e-05 -1.53421e-08
-7.30658e-07 -1.53421e-08 -5.66974e-05
0.000798853 6.92709e-06 2.10928e-07
6.92709e-06 6.08833e-05 -1.57003e-07
2.10928e-07 -1.57003e-07 -2.81731e-05
0.000994161 5.4251e-05 1.44686e-06
5.4251e-05 0.000189711 -1.90319e-06
1.44686e-06 -1.90319e-06 8.51532e-05
0.000882761 7.25115e-05 4.37861e-06
7.25115e-05 8.80248e-05 -4.475e-06
4.37861e-06 -4.475e-06 3.12421e-06
0.000845523 3.10628e-05 -2.49458e-07
3.10628e-05 8.76654e-05 -8.82362e-07
-2.49458e-07 -8.82362e-07 5.28677e-06
0.000984446 3.8386e-05 7.36675e-07
3.8386e-05 0.000182992 8.57579e-07
7.36675e-07 8.57579e-07 0.000102264
-0.00265493 -0.000360108 -4.75515e-05
-0.000360108 -0.00112678 1.71074e-05
-4.75515e-05 1.71074e-05 -0.00126135
-0.000653117 -0.000330713 3.30385e-05
-0.000330713 -4.02691e-05 1.21682e-05
3.30385e-05 1.21682e-05 -0.000157927
0.00226435 -2.5021e-05 -5.11831e-05
-2.5021e-05 0.000534743 -4.04e-05
-5.11831e-05 -4.04e-05 -0.000101439
-0.00374102 -0.0006839 3.88635e-05
-0.0006839 -0.00284252 5.89201e-05
3.88635e-05 5.89201e-05 -0.00125626
0.00551846 -0.00067771 -9.70875e-06
-0.00067771 0.00157447 -9.60693e-06
-9.70875e-06 -9.60693e-06 0.00168099
0.00306617 0.000364286 5.28658e-05
0.000364286 0.000815094 -7.45584e-06
5.28658e-05 -7.45584e-06 -0.0013522
0.002998 -0.00024928 -0.000135793
-0.00024928 0.000349314 8.10974e-05
-0.000135793 8.10974e-05 -0.0002107
0.00326812 0.000135853 -2.81503e-05
0.000135853 0.000448031 5.3363e-06
-2.81503e-05 5.3363e-06 0.000160974
0.00451927 -0.000774414 -1.80485e-05
-0.000774414 0.00190501 2.27766e-05
-1.80485e-05 2.27766e-05 0.00207683
0.00172434 0.000104173 9.12694e-06
0.000104173 0.000299632 1.49318e-05
9.12694e-06 1.49318e-05 -0.00162219
0.00241343 0.000383539 -0.000108255
0.000383539 0.000554538 -7.89215e-05
-0.000108255 -7.89215e-05 -0.000200132
0.00204253 0.000433844 -0.000146533
0.000433844 0.000314791 -5.43515e-05
-0.000146533 -5.43515e-05 -0.0015199
0.00223596 0.000333017 1.17397e-05
0.000333017 0.000617213 -1.18609e-05
1.17397e-05 -1.18609e-05 0.000475145
0.000776838 0.000136065 -2.64302e-06
0.000136065 5.87758e-05 4.92546e-07
-2.64302e-06 4.92546e-07 -1.77709e-06
0.00110601 2.33735e-05 -1.45235e-06
2.33735e-05 0.000242108 -2.73056e-06
-1.45235e-06 -2.73056e-06 0.000181706
0.000228557 0.000132355 -3.27651e-05
0.000132355 -2.20084e-05 -1.48881e-05
-3.27651e-05 -1.48881e-05 -0.000302663
0.0015958 0.000125098 -6.36971e-06
0.000125098 0.000582014 -6.23897e-06
-6.36971e-06 -6.23897e-06 0.000493334
0.00119416 0.000254716 8.83133e-06
0.000254716 0.000181069 -8.36136e-07
8.83133e-06 -8.36136e-07 4.27789e-05
0.00182255 0.000363761 5.77658e-05
0.000363761 2.39662e-05 3.11395e-05
5.77658e-05 3.11395e-05 -1.52902e-05
-0.00351834 -4.78578e-05 -9.95845e-05
-4.78578e-05 -0.00173168 -5.23551e-06
-9.95845e-05 -5.23551e-06 -0.00149426
-0.000625491 -1.14636e-05 2.95947e-05
-1.14636e-05 0.000645638 5.81192e-07
2.95947e-05 5.81192e-07 7.99035e-05
0.00150796 -2.4657e-05 -4.22222e-05
-2.4657e-05 0.000234168 4.50815e-06
-4.22222e-05 4.50815e-06 1.40178e-05
0.00170495 -0.000175686 -3.71452e-05
-0.000175686 0.00016677 -1.93852e-05
-3.71452e-05 -1.93852e-05 0.000423264
0.00348888 -0.000620268 -6.53996e-05
-0.000620268 0.000529593 -1.25853e-06
-6.53996e-05 -1.25853e-06 -0.000175001
0.00133971 0.000117336 -3.94093e-05
0.000117336 0.00142705 1.8726e-05
-3.94093e-05 1.8726e-05 0.00117114
-0.00132397 -7.85986e-05 5.61016e-05
-7.85986e-05 -0.000997612 -5.76307e-05
5.61016e-05 -5.76307e-05 -0.00301779
0.0101438 0.000535228 -7.38709e-05
0.000535228 0.00504446 9.92935e-06
-7.38709e-05 9.92935e-06 0.00500415
0.00172164 -0.000309238 3.96519e-06
-0.000309238 0.000193888 1.6073e-06
3.96519e-06 1.6073e-06 0.000174209
-0.000749871 0.000268208 -1.49386e-06
0.000268208 -0.000243846 -4.74578e-06
-1.49386e-06 -4.74578e-06 -0.000380173
0.00231652 0.000144937 -1.58371e-05
0.000144937 0.000232041 1.93428e-05
-1.58371e-05 1.93428e-05 -0.00149789
0.00525389 -0.000521812 -2.72107e-05
-0.000521812 0.00131631 9.13974e-06
-2.72107e-05 9.13974e-06 0.000512406
-0.00060735 -0.000133722 5.77851e-06
-0.000133722 -0.000802434 -3.39526e-06
5.77851e-06 -3.39526e-06 -0.00100233
0.00812395 -8.8408e-05 5.99032e-05
-8.8408e-05 0.00257006 -3.5419e-06
5.99032e-05 -3.5419e-06 0.00165197
0.00424899 -0.000130038 1.29465e-05
-0.000130038 0.000919568 -1.24106e-05
1.29465e-05 -1.24106e-05 0.000392107
-0.000272741 -0.00011321 -1.53806e-05
-0.00011321 -0.000717623 3.46214e-06
-1.53806e-05 3.46214e-06 -0.00066134
0.00107673 -0.000192313 -1.15052e-06
-0.000192313 -0.000288915 -7.50749e-07
-1.15052e-06 -7.50749e-07 -0.000232481
0.00206898 -0.000257597 7.03665e-06
-0.000257597 6.08353e-05 -1.08723e-05
7.03665e-06 -1.08723e-05 0.000113454
0.00157649 -0.000258811 -7.48621e-06
-0.000258811 0.000165197 -3.18101e-06
-7.48621e-06 -3.18101e-06 3.24122e-06
0.00163732 -0.000268442 -3.6043e-08
-0.000268442 8.29034e-06 1.19237e-06
-3.6043e-08 1.19237e-06 -9.18622e-05
0.00205623 -0.000246416 -4.00405e-06
-0.000246416 0.000139595 -4.96949e-07
-4.00405e-06 -4.96949e-07 7.62368e-05
0.00125395 -0.000228026 3.04369e-08
-0.000228026 -2.65844e-05 2.36969e-06
3.04369e-08 2.36969e-06 -0.000184252
0.00169927 -0.000219737 -2.32462e-06
-0.000219737 5.62004e-05 -6.96558e-07
-2.32462e-06 -6.96558e-07 -5.98541e-05
0.00189795 -0.000183041 -1.14648e-06
-0.000183041 0.000105429 -1.99516e-06
-1.14648e-06 -1.99516e-06 1.73694e-05
0.00173884 -0.000220318 2.05412e-06
-0.000220318 0.0001608 2.84479e-06
2.05412e-06 2.84479e-06 1.59803e-05
0.00168354 -0.000176129 1.74134e-07
-0.000176129 8.43584e-05 -8.47388e-08
1.74134e-07 -8.47388e-08 -2.63629e-05
0.00170349 -0.00014571 7.29326e-07
-0.00014571 8.4051e-05 -1.61542e-06
7.29326e-07 -1.61542e-06 -1.17401e-05
0.00176327 -0.000140368 2.09592e-07
-0.000140368 0.000162283 -5.80077e-07
2.09592e-07 -5.80077e-07 5.70684e-05
0.00161278 -0.000153569 -1.56533e-06
-0.000153569 8.27567e-05 1.23461e-06
-1.56533e-06 1.23461e-06 -3.08757e-05
0.00170902 -0.000163888 3.54771e-07
-0.000163888 0.000177761 -2.63355e-06
3.54771e-07 -2.63355e-06 5.24981e-05
0.00163405 -0.000184122 -2.79354e-06
-0.000184122 0.000235944 -1.12278e-06
-2.79354e-06 -1.12278e-06 8.18719e-05
0.00178506 -0.000195445 1.17242e-06
-0.000195445 0.000264236 1.35468e-07
1.17242e-06 1.35468e-07 0.000111065
0.00158316 -0.000181346 -2.54083e-07
-0.000181346 0.000100872 4.03544e-06
-2.54083e-07 4.03544e-06 -3.40806e-05
0.000848096 -0.00014338 -3.57057e-06
-0.00014338 -5.94482e-05 2.97985e-06
-3.57057e-06 2.97985e-06 -0.00021224
0.00124077 -0.000172064 5.11082e-07
-0.000172064 0.00011862 -2.20536e-07
5.11082e-07 -2.20536e-07 -4.9365e-05
0.00147169 -0.000191593 3.22003e-06
-0.000191593 0.000197266 -7.73148e-07
3.22003e-06 -7.73148e-07 2.14258e-05
0.000956849 -0.000126856 -1.51976e-06
-0.000126856 8.53873e-05 7.62357e-07
-1.51976e-06 7.62357e-07 -3.78183e-05
0.00111284 -0.000150357 2.31744e-07
-0.000150357 0.000153389 -2.34377e-07
2.31744e-07 -2.34377e-07 1.02451e-05
0.000692304 -0.000133451 6.72427e-07
-0.000133451 -9.04821e-05 -4.35131e-06
6.72427e-07 -4.35131e-06 -0.000252568
0.00077287 -5.13961e-05 -2.80054e-06
-5.13961e-05 3.16676e-05 2.56458e-06
-2.80054e-06 2.56458e-06 -5.66219e-05
0.00102472 -0.00012299 9.12539e-08
-0.00012299 0.000148723 -1.11576e-07
9.12539e-08 -1.11576e-07 3.28128e-05
0.00113605 -0.000143822 5.75701e-07
-0.000143822 0.000204547 -8.10334e-07
5.75701e-07 -8.10334e-07 7.14882e-05
0.000537056 6.67707e-05 9.82866e-07
6.67707e-05 -6.67008e-05 5.67195e-06
9.82866e-07 5.67195e-06 -0.000101935
0.000759229 -1.07547e-05 1.25379e-07
-1.07547e-05 3.92463e-05 1.07078e-07
1.25379e-07 1.07078e-07 -4.20393e-05
0.00102038 -7.66562e-05 1.37695e-06
-7.66562e-05 0.000174545 -3.54895e-07
1.37695e-06 -3.54895e-07 6.46064e-05
0.00240727 8.7193e-05 -3.58672e-05
8.7193e-05 0.000965297 2.58536e-06
-3.58672e-05 2.58536e-06 0.00097065
0.000623126 6.64398e-05 -1.22775e-07
6.64398e-05 -2.30855e-05 -2.19242e-07
-1.22775e-07 -2.19242e-07 -5.03582e-05
0.00071432 -1.11284e-05 2.20993e-06
-1.11284e-05 1.18548e-05 -3.04582e-06
2.20993e-06 -3.04582e-06 -5.15773e-05
0.00157659 6.52771e-05 1.43065e-05
6.52771e-05 0.000499008 -5.35651e-07
1.43065e-05 -5.35651e-07 0.000503805
0.00069608 5.89405e-05 2.74543e-07
5.89405e-05 6.76389e-06 -4.09397e-06
2.74543e-07 -4.09397e-06 -1.32505e-05
0.00219812 6.94149e-05 3.01359e-05
6.94149e-05 0.000836258 -2.89952e-06
3.01359e-05 -2.89952e-06 0.000847071
0.000893812 5.36405e-05 5.40708e-07
5.36405e-05 0.000109023 3.81797e-07
5.40708e-07 3.81797e-07 1.6666e-05
0.000849174 -2.45893e-07 -2.69526e-07
-2.45893e-07 8.04515e-05 4.85215e-07
-2.69526e-07 4.85215e-07 -3.85546e-07
0.000799629 -2.98559e-05 2.5598e-07
-2.98559e-05 5.4807e-05 -1.54146e-06
2.5598e-07 -1.54146e-06 -2.30242e-05
0.000867921 1.01529e-05 1.06377e-07
1.01529e-05 8.80923e-05 5.86487e-07
1.06377e-07 5.86487e-07 8.33979e-06
0.000786573 -2.84711e-05 4.20317e-07
-2.84711e-05 4.00522e-05 -8.11056e-08
4.20317e-07 -8.11056e-08 -3.10419e-05
0.000698412 -4.33916e-05 -6.85441e-07
-4.33916e-05 -7.99154e-06 -2.52349e-06
-6.85441e-07 -2.52349e-06 -5.62443e-05
0.000678608 -4.66388e-05 -1.53588e-06
-4.66388e-05 -1.94439e-05 -3.98469e-06
-1.53588e-06 -3.98469e-06 -3.55579e-05
0.000726513 -3.95181e-05 9.57285e-08
-3.95181e-05 6.42398e-07 -3.33261e-08
9.57285e-08 -3.33261e-08 -4.39297e-05
0.000768591 -5.09922e-05 -2.89486e-07
-5.09922e-05 2.56329e-05 1.28426e-06
-2.89486e-07 1.28426e-06 -3.92975e-05
0.00229315 -6.19057e-05 -2.86101e-05
-6.19057e-05 0.000876066 -3.47486e-06
-2.86101e-05 -3.47486e-06 0.000888723
0.000663697 -4.02596e-05 -2.43862e-07
-4.02596e-05 -3.5031e-05 3.98277e-08
-2.43862e-07 3.98277e-08 -4.90316e-05
0.000739347 -2.31385e-05 1.59124e-06
-2.31385e-05 1.00232e-06 1.90266e-06
1.59124e-06 1.90266e-06 -4.08472e-05
0.00228131 -5.40497e-05 -2.07495e-06
-5.40497e-05 0.000861903 1.32803e-07
-2.07495e-06 1.32803e-07 0.000876298
0.000667419 -3.47781e-05 6.12855e-07
-3.47781e-05 -3.93563e-05 3.74157e-06
6.12855e-07 3.74157e-06 -5.14245e-05
0.00221933 -4.51424e-05 1.87987e-05
-4.51424e-05 0.000820731 4.01307e-06
1.87987e-05 4.01307e-06 0.000837144
0.000792918 0.000148374 5.58547e-05
0.000148374 0.000840526 3.51185e-05
5.58547e-05 3.51185e-05 0.000310069
-0.00046811 -0.0001599 1.58114e-06
-0.0001599 0.000405926 6.5926e-06
1.58114e-06 6.5926e-06 -0.000107749
0.00184398 -5.97397e-05 -4.55325e-05
-5.97397e-05 0.000373186 -1.20743e-05
-4.55325e-05 -1.20743e-05 6.7066e-05
0.000797061 -2.20261e-05 -2.22e-08
-2.20261e-05 5.99347e-05 7.02964e-07
-2.22e-08 7.02964e-07 -2.54111e-05
0.000829197 1.08832e-06 -7.58233e-08
1.08832e-06 8.42095e-05 7.07276e-07
-7.58233e-08 7.07276e-07 -9.47053e-06
0.000937538 0.000107054 -1.45109e-07
0.000107054 0.000155961 2.81406e-07
-1.45109e-07 2.81406e-07 5.13839e-05
0.00112372 0.000141846 1.11081e-06
0.000141846 0.000239106 1.61462e-07
1.11081e-06 1.61462e-07 0.000120195
0.000918648 8.6036e-05 -1.34549e-06
8.6036e-05 0.000153638 -6.60217e-07
-1.34549e-06 -6.60217e-07 4.31594e-05
0.000809118 3.65707e-05 4.75492e-07
3.65707e-05 6.75958e-05 1.18229e-06
4.75492e-07 1.18229e-06 -1.9088e-05
0.000738949 1.36324e-05 2.15517e-07
1.36324e-05 2.75026e-05 1.23331e-06
2.15517e-07 1.23331e-06 -6.11267e-05
0.000712777 5.67757e-05 -1.09316e-06
5.67757e-05 3.53994e-05 -1.1246e-06
-1.09316e-06 -1.1246e-06 -6.58792e-05
0.000131361 7.60443e-05 -9.80335e-08
7.60443e-05 -0.000271774 2.58566e-07
-9.80335e-08 2.58566e-07 -0.000388293
0.000931669 0.000120975 1.16346e-06
0.000120975 0.000107042 -4.2529e-06
1.16346e-06 -4.2529e-06 3.5232e-06
0.00190518 0.000257206 5.95811e-06
0.000257206 0.000410046 -1.00214e-05
5.95811e-06 -1.00214e-05 0.000271221
0.000776331 7.01938e-05 -1.48326e-06
7.01938e-05 5.09818e-05 -3.39383e-07
-1.48326e-06 -3.39383e-07 -3.35098e-05
0.000732355 6.88604e-06 -6.30729e-07
6.88604e-06 3.60329e-05 -8.42678e-07
-6.30729e-07 -8.42678e-07 -3.95456e-05
0.010007 -3.71248e-06 -4.48858e-05
-3.71248e-06 0.00327328 -3.2193e-06
-4.48858e-05 -3.2193e-06 0.00201099
-0.0019676 -0.000280504 -5.01126e-05
-0.000280504 -0.000502337 -8.31263e-06
-5.01126e-05 -8.31263e-06 -0.000906672
0.000852766 -0.000362883 -2.49836e-05
-0.000362883 0.000599164 -2.66184e-05
-2.49836e-05 -2.66184e-05 0.000446117
-0.00311457 -0.000359729 6.35159e-06
-0.000359729 -0.0016496 2.4261e-05
6.35159e-06 2.4261e-05 -0.001445
0.00934533 -0.00034429 8.44723e-05
-0.00034429 0.00403826 1.10855e-06
8.44723e-05 1.10855e-06 0.00166749
0.00308836 0.000171109 -9.92026e-06
0.000171109 0.000489864 1.23625e-05
-9.92026e-06 1.23625e-05 0.000355037
0.00144872 0.000350593 -4.48475e-05
0.000350593 -7.98036e-05 -2.0249e-05
-4.48475e-05 -2.0249e-05 -0.00069022
0.00724923 -0.000259475 5.46861e-05
-0.000259475 0.00247372 1.71772e-05
5.46861e-05 1.71772e-05 0.000986681
0.00345993 0.000437163 7.21086e-06
0.000437163 0.000349327 -3.02482e-05
7.21086e-06 -3.02482e-05 -0.00021255
0.00205702 0.00038041 6.69591e-06
0.00038041 0.000310505 1.35133e-05
6.69591e-06 1.35133e-05 0.00015065
0.000878051 0.000229375 2.54138e-06
0.000229375 -8.67335e-08 -5.1371e-06
2.54138e-06 -5.1371e-06 -0.000149133
0.000937359 0.000126995 -9.30417e-06
0.000126995 0.000142303 5.11953e-06
-9.30417e-06 5.11953e-06 8.53258e-05
0.0013583 0.000278137 -3.12969e-05
0.000278137 0.00019658 -1.4977e-05
-3.12969e-05 -1.4977e-05 7.1777e-05
0.00110034 0.000334267 -1.67879e-05
0.000334267 -0.000295463 1.46709e-05
-1.67879e-05 1.46709e-05 -0.00035813
0.000509821 -0.000125853 -1.12558e-05
-0.000125853 -0.00158321 -1.3243e-06
-1.12558e-05 -1.3243e-06 -0.00197436
0.00192855 -6.72903e-05 -3.08046e-06
-6.72903e-05 0.00113483 -4.252e-06
-3.08046e-06 -4.252e-06 0.00105224
-0.00157093 -2.09616e-05 6.85168e-06
-2.09616e-05 0.000273997 -1.26023e-07
6.85168e-06 -1.26023e-07 -0.000357938
0.00277846 -0.000396716 -5.33336e-05
-0.000396716 0.000649022 3.95616e-06
-5.33336e-05 3.95616e-06 0.000577104
0.00362355 -0.000477221 -1.71422e-05
-0.000477221 0.000655941 -1.52429e-05
-1.71422e-05 -1.52429e-05 -0.000464124
0.000330151 -9.8939e-05 -1.67272e-06
-9.8939e-05 0.000467642 1.51089e-05
-1.67272e-06 1.51089e-05 0.000178284
0.00996129 0.000325075 -4.45776e-05
0.000325075 0.00408978 2.94649e-05
-4.45776e-05 2.94649e-05 0.00253125
0.000598317 -0.000186006 -2.8228e-06
-0.000186006 -0.000255713 -7.30373e-07
-2.8228e-06 -7.30373e-07 -0.000390805
0.00620411 0.00013398 1.73867e-05
0.00013398 0.00156482 1.647e-05
1.73867e-05 1.647e-05 0.000746709
0.003564 -0.000211313 4.15804e-05
-0.000211313 0.000297112 -1.26312e-06
4.15804e-05 -1.26312e-06 -0.000470868
0.00296026 -0.000225186 -2.12157e-06
-0.000225186 0.000977648 2.59139e-06
-2.12157e-06 2.59139e-06 0.000734574
0.00336517 -6.31256e-05 -8.90764e-05
-6.31256e-05 0.00073298 -7.95257e-06
-8.90764e-05 -7.95257e-06 0.000440746
0.000212051 -0.000163824 -1.05704e-05
-0.000163824 -0.000748529 3.31777e-06
-1.05704e-05 3.31777e-06 -0.000676202
0.00153962 -0.000247647 -5.84813e-08
-0.000247647 -0.000189709 6.03405e-07
-5.84813e-08 6.03405e-07 -0.00016075
0.00193528 -0.000174477 6.2472e-07
-0.000174477 -2.3357e-05 -8.41111e-07
6.2472e-07 -8.41111e-07 -1.48727e-05
0.00134588 -0.000253224 2.76182e-06
-0.000253224 -0.000141727 1.3648e-06
2.76182e-06 1.3648e-06 -0.000236533
0.00176508 -0.000224864 -5.74948e-07
-0.000224864 1.24214e-05 -4.07932e-07
-5.74948e-07 -4.07932e-07 -4.98949e-05
0.00181464 -0.000151591 -2.34209e-06
-0.000151591 -2.67165e-05 4.90853e-07
-2.34209e-06 4.90853e-07 -6.6979e-05
0.00140332 -0.000208193 -3.38929e-06
-0.000208193 -0.000104923 2.60206e-06
-3.38929e-06 2.60206e-06 -0.000220528
0.00179131 -0.000178336 2.72922e-07
-0.000178336 4.65469e-05 1.1879e-06
2.72922e-07 1.1879e-06 -4.0975e-05
0.00181629 -0.000145403 2.30337e-06
-0.000145403 9.11923e-05 9.4827e-09
2.30337e-06 9.4827e-09 1.32614e-05
0.00165322 -0.000173161 7.19686e-07
-0.000173161 6.99706e-05 2.87274e-06
7.19686e-07 2.87274e-06 -4.01373e-05
0.00170743 -0.000147526 -2.30718e-07
-0.000147526 8.72993e-05 7.47272e-07
-2.30718e-07 7.47272e-07 -9.28761e-06
0.00178634 -0.000130826 1.87634e-06
-0.000130826 0.000148182 -3.68807e-07
1.87634e-06 -3.68807e-07 5.32252e-05
0.00166135 -0.000137558 -2.53046e-06
-0.000137558 0.000105966 1.33452e-06
-2.53046e-06 1.33452e-06 1.73178e-06
0.00170933 -0.000139985 2.06983e-06
-0.000139985 0.000159694 -1.154e-06
2.06983e-06 -1.154e-06 4.73071e-05
0.00158816 -0.000149985 -4.59018e-07
-0.000149985 6.86584e-05 3.29866e-06
-4.59018e-07 3.29866e-06 -4.29164e-05
0.00166686 -0.000161568 4.77225e-07
-0.000161568 0.000152697 -2.13809e-07
4.77225e-07 -2.13809e-07 2.80337e-05
0.0016702 -0.000162819 -5.95442e-07
-0.000162819 0.000200669 -1.6389e-06
-5.95442e-07 -1.6389e-06 6.74604e-05
0.00110367 -0.000152584 -4.23902e-06
-0.000152584 -4.38273e-06 9.90547e-07
-4.23902e-06 9.90547e-07 -0.000152528
0.00157431 -0.00018027 3.09162e-07
-0.00018027 0.000204533 -5.5354e-07
3.09162e-07 -5.5354e-07 5.00925e-05
0.00172332 -0.000191821 2.27486e-06
-0.000191821 0.000230712 2.45541e-06
2.27486e-06 2.45541e-06 7.78981e-05
0.00107258 -0.00014109 -2.77135e-06
-0.00014109 0.000102114 2.02346e-06
-2.77135e-06 2.02346e-06 -3.03503e-05
0.000952936 -0.000147769 -1.13336e-06
-0.000147769 1.03858e-06 1.20906e-06
-1.13336e-06 1.20906e-06 -0.000150769
0.00153973 -0.000186256 3.33275e-06
-0.000186256 0.000283007 -1.85195e-06
3.33275e-06 -1.85195e-06 0.000115875
0.000735384 -7.10797e-05 -3.30913e-06
-7.10797e-05 -8.88846e-06 2.12135e-06
-3.30913e-06 2.12135e-06 -0.000102218
0.00105513 -0.000133627 1.55572e-07
-0.000133627 0.000136598 -3.35457e-07
1.55572e-07 -3.35457e-07 1.25644e-05
0.00116951 -0.000152829 1.38544e-06
-0.000152829 0.000181281 -2.18462e-06
1.38544e-06 -2.18462e-06 3.79048e-05
0.000541838 3.00064e-05 -2.54222e-06
3.00064e-05 -7.53216e-05 6.36976e-06
-2.54222e-06 6.36976e-06 -0.000114402
0.000817477 -5.56336e-05 2.13481e-07
-5.56336e-05 5.53678e-05 2.90459e-07
2.13481e-07 2.90459e-07 -3.36144e-05
0.00108833 -0.000121108 1.70125e-06
-0.000121108 0.000181074 -3.92889e-07
1.70125e-06 -3.92889e-07 6.57326e-05
0.00271493 0.000100026 -4.32462e-05
0.000100026 0.00113793 2.52124e-06
-4.32462e-05 2.52124e-06 0.00113958
0.000594689 5.02847e-05 7.29479e-07
5.02847e-05 -3.97445e-05 -2.23496e-07
7.29479e-07 -2.23496e-07 -7.27553e-05
0.000766585 -4.52118e-05 2.45989e-06
-4.52118e-05 3.88507e-05 -2.71982e-06
2.45989e-06 -2.71982e-06 -4.13129e-05
0.00249799 8.78487e-05 1.50342e-06
8.78487e-05 0.00101448 1.44246e-07
1.50342e-06 1.44246e-07 0.00101957
0.000668197 6.08443e-05 -1.29805e-07
6.08443e-05 2.25048e-07 -4.98222e-06
-1.29805e-07 -4.98222e-06 -2.64255e-05
0.00235137 7.81872e-05 3.6503e-05
7.81872e-05 0.000928159 -2.73079e-06
3.6503e-05 -2.73079e-06 0.000936191
0.000993857 0.000125788 7.02266e-07
0.000125788 0.000156046 -3.97626e-07
7.02266e-07 -3.97626e-07 4.41543e-05
0.000840943 8.46178e-05 3.68133e-07
8.46178e-05 8.46716e-05 5.98937e-08
3.68133e-07 5.98937e-08 -1.09188e-05
0.000736275 -2.24808e-05 -3.73774e-07
-2.24808e-05 2.36628e-05 -9.86591e-07
-3.73774e-07 -9.86591e-07 -6.44736e-05
0.000782123 -3.05231e-05 -4.21726e-07
-3.05231e-05 4.34391e-05 9.50645e-07
-4.21726e-07 9.50645e-07 -3.65488e-05
0.00076207 -4.3499e-05 2.23817e-07
-4.3499e-05 3.31866e-05 5.23569e-08
2.23817e-07 5.23569e-08 -4.43504e-05
0.000674844 -4.2254e-05 -7.39318e-07
-4.2254e-05 -1.56103e-05 -2.7306e-06
-7.39318e-07 -2.7306e-06 -7.06596e-05
0.000757317 -4.99997e-05 -2.78126e-07
-4.99997e-05 2.30926e-05 1.60014e-06
-2.78126e-07 1.60014e-06 -4.67901e-05
0.000707169 -4.79894e-05 3.16866e-07
-4.79894e-05 -2.73456e-06 -1.56114e-07
3.16866e-07 -1.56114e-07 -5.13588e-05
0.000674376 -5.51289e-05 -1.13229e-06
-5.51289e-05 -1.20939e-05 -4.24251e-06
-1.13229e-06 -4.24251e-06 -3.14631e-05
0.00229882 -6.94435e-05 -3.20063e-05
-6.94435e-05 0.000886945 -3.16061e-06
-3.20063e-05 -3.16061e-06 0.000897771
0.000662196 -4.52715e-05 -4.6392e-08
-4.52715e-05 -2.84042e-05 2.12672e-08
-4.6392e-08 2.12672e-08 -4.43558e-05
0.000724886 -3.66058e-05 1.70412e-06
-3.66058e-05 -5.1484e-07 2.07347e-06
1.70412e-06 2.07347e-06 -4.4771e-05
0.00229747 -6.17578e-05 -1.81335e-06
-6.17578e-05 0.000877684 1.3834e-07
-1.81335e-06 1.3834e-07 0.00089038
0.000656792 -3.93089e-05 9.68408e-07
-3.93089e-05 -3.88153e-05 3.89068e-06
9.68408e-07 3.89068e-06 -5.2732e-05
0.00227157 -5.36783e-05 2.30111e-05
-5.36783e-05 0.000855895 3.8389e-06
2.30111e-05 3.8389e-06 0.000870422
0.00859228 0.000167067 9.11912e-05
0.000167067 0.00262094 3.0065e-05
9.11912e-05 3.0065e-05 0.00169368
-0.00245524 -0.000183973 -2.36893e-05
-0.000183973 -0.00126016 -2.53521e-06
-2.36893e-05 -2.53521e-06 -0.00129811
-0.00181661 -8.28261e-05 -4.49633e-05
-8.28261e-05 -0.000228053 -8.09257e-06
-4.49633e-05 -8.09257e-06 -0.000910864
0.000793732 -3.01506e-05 3.62541e-07
-3.01506e-05 6.23793e-05 1.54757e-06
3.62541e-07 1.54757e-06 -3.06983e-05
0.000791484 0.000105394 -7.20431e-07
0.000105394 7.9771e-05 5.43288e-07
-7.20431e-07 5.43288e-07 -2.27983e-05
0.00101433 9.03887e-05 4.86333e-07
9.03887e-05 0.000205602 -7.3979e-08
4.86333e-07 -7.3979e-08 9.51926e-05
0.00100848 0.000134126 -1.16084e-06
0.000134126 0.000178273 1.15914e-07
-1.16084e-06 1.15914e-07 6.07694e-05
0.00111296 0.000146443 8.68691e-06
0.000146443 0.000212586 9.69677e-07
8.68691e-06 9.69677e-07 8.05215e-05
0.000581497 0.000106263 -8.35726e-07
0.000106263 -3.28586e-05 -1.13939e-07
-8.35726e-07 -1.13939e-07 -0.000150547
0.000452845 5.80696e-05 -1.02222e-06
5.80696e-05 -0.000103668 -7.44739e-09
-1.02222e-06 -7.44739e-09 -0.000204071
0.00055011 0.000105498 5.16621e-07
0.000105498 -5.52818e-05 6.36253e-07
5.16621e-07 6.36253e-07 -0.000178888
0.000848484 0.000102839 -9.82711e-07
0.000102839 6.65577e-05 -1.29053e-07
-9.82711e-07 -1.29053e-07 -3.9783e-05
0.000215421 0.000109993 1.23907e-06
0.000109993 -0.000318291 -1.48455e-06
1.23907e-06 -1.48455e-06 -0.000443482
0.00304149 0.000300407 -6.09666e-07
0.000300407 0.00100812 -3.32523e-06
-6.09666e-07 -3.32523e-06 0.000871975
0.00125906 0.000255975 3.21402e-06
0.000255975 -7.66055e-05 -1.4062e-06
3.21402e-06 -1.4062e-06 -0.000224902
0.00141884 0.000228567 2.64449e-06
0.000228567 0.000172522 -2.07843e-06
2.64449e-06 -2.07843e-06 3.96808e-05
0.000770388 7.61841e-05 -5.4052e-06
7.61841e-05 6.31076e-05 3.19412e-06
-5.4052e-06 3.19412e-06 -2.09033e-05
0.00306698 0.000117334 -9.89789e-07
0.000117334 -8.16515e-07 5.19756e-07
-9.89789e-07 5.19756e-07 -0.000285992
0.00575878 8.86577e-06 1.83888e-05
8.86577e-06 0.00142585 7.77906e-06
1.83888e-05 7.77906e-06 0.000196735
0.00511645 -0.000641484 -3.07438e-05
-0.000641484 0.00257597 -3.32847e-05
-3.07438e-05 -3.32847e-05 0.00252916
0.0071537 -7.99662e-06 0.000256089
-7.99662e-06 0.00247758 7.17933e-05
0.000256089 7.17933e-05 0.000601632
0.00165954 0.000337931 2.92411e-05
0.000337931 -0.000133804 3.57493e-05
2.92411e-05 3.57493e-05 -0.00034117
0.002341 0.000323683 -6.82819e-05
0.000323683 3.22216e-05 -2.04055e-05
-6.82819e-05 -2.04055e-05 -0.000348243
0.00268177 0.000361084 4.31764e-05
0.000361084 0.000422981 2.11046e-05
4.31764e-05 2.11046e-05 0.000424759
0.002148 0.000379214 -3.75408e-07
0.000379214 0.000347803 5.2384e-06
-3.75408e-07 5.2384e-06 0.000210396
0.000354617 0.000184693 -2.11401e-06
0.000184693 -0.000250091 6.23056e-06
-2.11401e-06 6.23056e-06 -0.000391682
0.00225181 0.000417111 -7.52208e-05
0.000417111 0.00027469 -4.59474e-05
-7.52208e-05 -4.59474e-05 0.000190636
0.0029435 -0.000132699 -0.000140646
-0.000132699 0.000482134 2.04317e-07
-0.000140646 2.04317e-07 9.81596e-05
0.00823146 -8.04075e-05 1.50668e-05
-8.04075e-05 0.0026114 -3.58384e-07
1.50668e-05 -3.58384e-07 0.00200589
-0.00584693 -0.000141937 0.000102484
-0.000141937 -0.00304986 3.21904e-07
0.000102484 3.21904e-07 -0.00296657
0.00165612 -0.000225 -5.45155e-06
-0.000225 0.000249681 5.9336e-06
-5.45155e-06 5.9336e-06 0.000139058
0.00539693 -0.000267576 9.70667e-05
-0.000267576 0.00128447 1.52174e-06
9.70667e-05 1.52174e-06 0.000566377
0.000296049 -0.000293184 7.30328e-05
-0.000293184 -0.00131979 3.11061e-05
7.30328e-05 3.11061e-05 -0.0020657
0.00133345 -0.000145596 5.65819e-06
-0.000145596 0.000139852 -1.28894e-06
5.65819e-06 -1.28894e-06 -2.60862e-05
0.0016866 1.81672e-05 -5.06777e-06
1.81672e-05 -0.00024426 2.48864e-06
-5.06777e-06 2.48864e-06 -0.000526925
0.00505536 -0.000153171 5.43212e-06
-0.000153171 0.0018489 -3.0392e-06
5.43212e-06 -3.0392e-06 0.0017457
0.00215307 6.37687e-06 3.97016e-05
6.37687e-06 0.000206991 -3.35917e-06
3.97016e-05 -3.35917e-06 0.000151581
0.0009529 -0.000239858 -4.09782e-06
-0.000239858 -0.000468216 3.2019e-06
-4.09782e-06 3.2019e-06 -0.00046284
0.00186164 -0.000180716 -3.60778e-07
-0.000180716 -5.25877e-05 1.09244e-06
-3.60778e-07 1.09244e-06 -5.49689e-05
0.00179991 -7.34911e-05 3.84337e-06
-7.34911e-05 -3.11191e-05 1.18066e-07
3.84337e-06 1.18066e-07 -5.52528e-05
0.00154102 -0.000207455 3.45549e-06
-0.000207455 -8.46673e-05 -1.08772e-07
3.45549e-06 -1.08772e-07 -0.000145907
0.00187529 -0.000153771 1.63875e-06
-0.000153771 1.7625e-05 5.26633e-07
1.63875e-06 5.26633e-07 -2.8092e-05
0.00168816 -9.13929e-05 2.53824e-06
-9.13929e-05 -5.58605e-06 1.08277e-06
2.53824e-06 1.08277e-06 -6.10778e-05
0.00166332 -0.000172955 4.6289e-06
-0.000172955 -2.40682e-05 2.85106e-06
4.6289e-06 2.85106e-06 -0.000111039
0.00178842 -0.0001418 1.0701e-06
-0.0001418 8.60097e-05 5.12168e-07
1.0701e-06 5.12168e-07 7.57484e-06
0.00186278 -0.000110995 1.99099e-06
-0.000110995 0.000168006 4.37714e-07
1.99099e-06 4.37714e-07 8.2105e-05
0.00170878 -0.000148841 -8.28035e-07
-0.000148841 8.94086e-05 2.47304e-06
-8.28035e-07 2.47304e-06 -7.91385e-06
0.00171525 -0.000131671 -5.70895e-07
-0.000131671 0.000112462 3.6661e-07
-5.70895e-07 3.6661e-07 1.6457e-05
0.00162444 -0.000121365 2.87263e-06
-0.000121365 9.82731e-05 9.31524e-08
2.87263e-06 9.31524e-08 -9.36235e-06
0.00155375 -0.000134518 -2.20123e-06
-0.000134518 4.71172e-05 2.86352e-06
-2.20123e-06 2.86352e-06 -5.61267e-05
0.00164725 -0.000137061 -8.73403e-07
-0.000137061 0.00012428 -1.60533e-07
-8.73403e-07 -1.60533e-07 1.32897e-05
0.00169933 -0.000141188 6.02474e-07
-0.000141188 0.000189185 -7.57443e-07
6.02474e-07 -7.57443e-07 6.755e-05
0.00163089 -0.0001596 5.26304e-07
-0.0001596 0.000130659 2.0363e-06
5.26304e-07 2.0363e-06 6.61967e-06
0.00163839 -0.00016087 5.5416e-07
-0.00016087 0.000183035 -6.05101e-07
5.5416e-07 -6.05101e-07 4.97474e-05
0.00161951 -0.000158468 -2.29569e-06
-0.000158468 0.00021819 -3.01497e-07
-2.29569e-06 -3.01497e-07 8.4044e-05
0.000834178 -0.000128752 -5.61939e-06
-0.000128752 -9.77084e-05 2.3193e-06
-5.61939e-06 2.3193e-06 -0.000231151
0.00119244 -0.000155392 -8.85294e-07
-0.000155392 4.90838e-05 3.88643e-07
-8.85294e-07 3.88643e-07 -9.85891e-05
0.00151883 -0.000176573 3.01582e-06
-0.000176573 0.000175452 -2.85097e-09
3.01582e-06 -2.85097e-09 2.06266e-05
0.000844309 -9.70141e-05 -4.3857e-06
-9.70141e-05 2.08183e-05 3.03195e-06
-4.3857e-06 3.03195e-06 -8.08078e-05
0.00110095 -0.000142081 3.26654e-07
-0.000142081 0.000115399 2.02189e-07
3.26654e-07 2.02189e-07 -1.68325e-05
0.0010705 -0.000152882 9.80842e-07
-0.000152882 6.80325e-05 -4.98019e-07
9.80842e-07 -4.98019e-07 -8.28192e-05
0.000556111 6.11242e-06 -5.5953e-06
6.11242e-06 -7.31614e-05 6.73791e-06
-5.5953e-06 6.73791e-06 -0.000119392
0.000864066 -7.9831e-05 8.17844e-08
-7.9831e-05 6.1251e-05 -1.21103e-07
8.17844e-08 -1.21103e-07 -3.34701e-05
0.00114649 -0.000139854 2.34444e-06
-0.000139854 0.000184092 -1.60869e-06
2.34444e-06 -1.60869e-06 5.92944e-05
0.00310216 0.000113917 -5.44029e-05
0.000113917 0.00135225 2.5355e-06
-5.44029e-05 2.5355e-06 0.0013498
0.00061472 2.2465e-05 3.27509e-07
2.2465e-05 -3.70622e-05 -1.70135e-07
3.27509e-07 -1.70135e-07 -7.6622e-05
0.000868746 -6.21082e-05 3.77418e-06
-6.21082e-05 8.14903e-05 -2.18534e-06
3.77418e-06 -2.18534e-06 -7.56631e-06
0.00282343 9.90649e-05 1.8491e-06
9.90649e-05 0.001196 1.67851e-07
1.8491e-06 1.67851e-07 0.00119763
0.000655508 4.93445e-05 2.40042e-06
4.93445e-05 -5.81496e-06 -5.58014e-06
2.40042e-06 -5.58014e-06 -3.99928e-05
0.0026034 8.7174e-05 4.58968e-05
8.7174e-05 0.00107136 -2.70038e-06
4.58968e-05 -2.70038e-06 0.0010765
0.00107916 0.000138992 -2.39973e-07
0.000138992 0.000184313 -2.44896e-06
-2.39973e-07 -2.44896e-06 5.85433e-05
0.00106821 0.000130636 3.57199e-07
0.000130636 0.000196684 1.9779e-07
3.57199e-07 1.9779e-07 8.48076e-05
0.0009064 6.48512e-05 -1.26874e-06
6.48512e-05 0.000106196 -1.12755e-06
-1.26874e-06 -1.12755e-06 6.4454e-06
0.000793552 0.000105439 -4.71715e-08
0.000105439 6.37267e-05 2.9332e-07
-4.71715e-08 2.9332e-07 -3.50313e-05
0.000728808 -5.01446e-07 -4.99911e-07
-5.01446e-07 1.94361e-05 -1.61716e-07
-4.99911e-07 -1.61716e-07 -7.0139e-05
0.000699197 8.64429e-06 -1.96385e-06
8.64429e-06 1.80027e-06 -2.43084e-06
-1.96385e-06 -2.43084e-06 -6.57341e-05
0.000734308 -6.13652e-05 -1.99651e-07
-6.13652e-05 1.96417e-05 1.41736e-06
-1.99651e-07 1.41736e-06 -5.95607e-05
0.000691984 -4.50235e-05 3.97347e-07
-4.50235e-05 -4.7297e-06 -3.67777e-07
3.97347e-07 -3.67777e-07 -6.06407e-05
0.000656197 -6.70728e-05 6.12546e-07
-6.70728e-05 -1.0038e-05 -4.93601e-06
6.12546e-07 -4.93601e-06 -3.51219e-05
0.000713606 -5.11959e-05 8.90984e-07
-5.11959e-05 9.21975e-07 2.35695e-06
8.90984e-07 2.35695e-06 -4.78456e-05
0.000652044 -5.2126e-05 1.77587e-07
-5.2126e-05 -2.50815e-05 -1.6326e-08
1.77587e-07 -1.6326e-08 -4.38678e-05
0.00234919 -7.74825e-05 -3.58804e-05
-7.74825e-05 0.000922627 -2.79319e-06
-3.58804e-05 -2.79319e-06 0.000931278
0.00230214 -6.92793e-05 -1.12952e-06
-6.92793e-05 0.000887825 1.2966e-07
-1.12952e-06 1.2966e-07 0.000898729
0.000647292 -4.399e-05 1.58366e-06
-4.399e-05 -3.66019e-05 4.00128e-06
1.58366e-06 4.00128e-06 -5.23973e-05
0.00229876 -6.1614e-05 2.69687e-05
-6.1614e-05 0.000877699 3.61995e-06
2.69687e-05 3.61995e-06 0.000890432
0.00243265 -8.21746e-06 -5.55478e-05
-8.21746e-06 8.62699e-05 1.11967e-05
-5.55478e-05 1.11967e-05 -0.000153106
0.00203067 -0.000176306 1.63889e-05
-0.000176306 -0.000600072 6.22514e-06
1.63889e-05 6.22514e-06 -0.00144444
0.00390995 -0.000364613 -4.64413e-05
-0.000364613 0.00168001 -2.21267e-05
-4.64413e-05 -2.21267e-05 0.00176455
0.00134467 0.000167436 8.61677e-06
0.000167436 0.000267893 1.7095e-06
8.61677e-06 1.7095e-06 0.000124841
0.00113653 9.48721e-05 3.81979e-07
9.48721e-05 0.000271767 3.97211e-07
3.81979e-07 3.97211e-07 0.000161242
0.000895846 0.000126552 -1.14271e-06
0.000126552 0.000119166 9.46641e-07
-1.14271e-06 9.46641e-07 3.00717e-06
0.000825571 0.000122929 4.26228e-07
0.000122929 9.78543e-05 7.10953e-07
4.26228e-07 7.10953e-07 -2.28763e-05
0.00102197 0.000141716 -3.04047e-07
0.000141716 0.000167061 -1.50915e-06
-3.04047e-07 -1.50915e-06 3.40691e-05
0.000687522 0.00012743 -3.10052e-07
0.00012743 -4.40427e-05 -9.02838e-08
-3.10052e-07 -9.02838e-08 -0.000163417
0.000932744 0.000133355 -9.59563e-07
0.000133355 0.000142321 -2.24016e-07
-9.59563e-07 -2.24016e-07 1.16525e-05
0.000910537 9.46142e-05 -2.92322e-06
9.46142e-05 9.8489e-05 4.28048e-06
-2.92322e-06 4.28048e-06 -1.11706e-05
0.000940745 0.000153797 5.34261e-07
0.000153797 6.36229e-05 4.68977e-09
5.34261e-07 4.68977e-09 -6.24512e-05
0.00237483 0.000262126 7.47712e-07
0.000262126 0.000663987 4.25796e-06
7.47712e-07 4.25796e-06 0.000528223
0.00169905 0.000251848 -1.99248e-06
0.000251848 0.000167436 -1.93585e-06
-1.99248e-06 -1.93585e-06 1.76005e-05
0.00155068 0.000225153 1.16681e-05
0.000225153 -5.36015e-06 1.03549e-05
1.16681e-05 1.03549e-05 -0.000128468
0.00125587 0.000257699 -1.28019e-06
0.000257699 -8.76567e-05 -2.21645e-06
-1.28019e-06 -2.21645e-06 -0.000241663
0.00104185 0.000202616 -3.97618e-07
0.000202616 -1.60817e-05 7.21756e-06
-3.97618e-07 7.21756e-06 -0.000142464
0.000298585 0.000136562 4.85995e-06
0.000136562 -0.00042825 2.18752e-06
4.85995e-06 2.18752e-06 -0.00043026
0.00481851 0.000198739 -2.05127e-05
0.000198739 0.000691697 6.81645e-07
-2.05127e-05 6.81645e-07 0.000307386
0.000522131 -8.51902e-05 3.54053e-05
-8.51902e-05 -0.00114649 1.08039e-05
3.54053e-05 1.08039e-05 -0.00229856
0.00238866 0.000377803 6.09692e-05
0.000377803 -2.01782e-05 1.342e-05
6.09692e-05 1.342e-05 -0.000567326
0.00158079 0.000280655 -1.71126e-05
0.000280655 5.49857e-05 -2.15927e-06
-1.71126e-05 -2.15927e-06 3.36084e-05
0.000890909 0.000286732 -2.70967e-05
0.000286732 -0.00020926 -1.83283e-05
-2.70967e-05 -1.83283e-05 -0.000351041
0.00220572 -9.47301e-05 1.51082e-05
-9.47301e-05 0.000221014 3.64794e-07
1.51082e-05 3.64794e-07 0.000124346
0.00118314 3.33313e-06 -1.87035e-05
3.33313e-06 -0.000290981 8.11969e-07
-1.87035e-05 8.11969e-07 -0.000562178
0.000168608 0.000245574 5.94553e-05
0.000245574 -0.00169253 -1.90546e-05
5.94553e-05 -1.90546e-05 -0.00232458
-0.00022453 -7.63303e-05 2.1475e-06
-7.63303e-05 -0.000687125 1.14117e-05
2.1475e-06 1.14117e-05 -0.000759163
0.00249997 9.47981e-06 1.56232e-05
9.47981e-06 3.62347e-05 1.08449e-05
1.56232e-05 1.08449e-05 -0.000327511
0.00169765 -8.72925e-05 -1.25298e-06
-8.72925e-05 4.79338e-05 -1.07636e-06
-1.25298e-06 -1.07636e-06 -1.0558e-05
0.00217729 -3.94823e-06 -9.26796e-07
-3.94823e-06 0.000219732 -5.68232e-07
-9.26796e-07 -5.68232e-07 0.000155129
0.00195501 -2.09797e-05 1.23623e-05
-2.09797e-05 0.000100884 -1.64068e-06
1.23623e-05 -1.64068e-06 4.56284e-05
0.00266174 -1.71964e-05 8.89801e-06
-1.71964e-05 0.000542635 6.01458e-08
8.89801e-06 6.01458e-08 0.000488106
0.00187438 -0.000186411 -1.99816e-06
-0.000186411 -2.99951e-05 -2.08318e-07
-1.99816e-06 -2.08318e-07 -4.47974e-05
0.00197231 -8.20622e-05 2.94125e-06
-8.20622e-05 4.96771e-05 -5.55012e-07
2.94125e-06 -5.55012e-07 2.21265e-05
0.00178481 -8.49162e-05 1.23242e-06
-8.49162e-05 5.61956e-05 4.60114e-07
1.23242e-06 4.60114e-07 7.44252e-07
0.00191346 -0.000155487 3.34682e-06
-0.000155487 5.02536e-05 1.32954e-06
3.34682e-06 1.32954e-06 -7.02411e-07
0.00181952 -0.000105411 8.742e-07
-0.000105411 6.0528e-05 8.84776e-08
8.742e-07 8.84776e-08 1.61661e-06
0.00175055 -9.71353e-05 3.05982e-06
-9.71353e-05 9.65433e-05 5.95656e-07
3.05982e-06 5.95656e-07 1.67605e-05
0.00178194 -0.000139169 -1.91134e-06
-0.000139169 9.2443e-05 1.51482e-06
-1.91134e-06 1.51482e-06 1.34315e-05
0.00178315 -0.000115032 -1.27813e-06
-0.000115032 0.000127121 -1.0985e-08
-1.27813e-06 -1.0985e-08 4.01687e-05
0.00164379 -0.000102297 1.85759e-06
-0.000102297 9.15582e-05 6.19044e-07
1.85759e-06 6.19044e-07 -1.42138e-05
0.00164623 -0.000132669 -2.71859e-06
-0.000132669 7.75602e-05 9.15257e-07
-2.71859e-06 9.15257e-07 -1.95001e-05
0.00162925 -0.000121387 5.01712e-07
-0.000121387 0.000101237 -2.36229e-07
5.01712e-07 -2.36229e-07 -6.29418e-06
0.00157116 -0.000120605 8.58075e-07
-0.000120605 0.000100449 2.1102e-07
8.58075e-07 2.1102e-07 -1.73367e-05
0.0015886 -0.000134248 -3.539e-06
-0.000134248 9.05673e-05 1.16258e-06
-3.539e-06 1.16258e-06 -1.90567e-05
0.00158164 -0.000135853 -1.36494e-07
-0.000135853 0.000123207 -3.24998e-07
-1.36494e-07 -3.24998e-07 2.93147e-06
0.00147467 -0.000132317 -2.04013e-06
-0.000132317 0.00010502 5.42849e-08
-2.04013e-06 5.42849e-08 -2.08868e-05
0.00159867 -0.00015862 1.8571e-06
-0.00015862 0.000161165 8.1103e-07
1.8571e-06 8.1103e-07 2.78212e-05
0.00143061 -0.000150143 6.50708e-07
-0.000150143 0.000115169 -4.83164e-07
6.50708e-07 -4.83164e-07 -1.94952e-05
0.00134855 -0.000139608 -5.26588e-06
-0.000139608 0.000124619 1.63475e-06
-5.26588e-06 1.63475e-06 -2.67132e-06
0.000958077 -0.000110174 -6.2065e-06
-0.000110174 3.52785e-05 3.64147e-06
-6.2065e-06 3.64147e-06 -7.06154e-05
0.000962192 -0.000134107 -1.35601e-06
-0.000134107 -2.45083e-05 7.74395e-07
-1.35601e-06 7.74395e-07 -0.000157347
0.00126804 -0.000157315 2.3578e-06
-0.000157315 9.55255e-05 -1.37683e-07
2.3578e-06 -1.37683e-07 -5.15819e-05
0.000573055 -5.83383e-05 -8.82445e-06
-5.83383e-05 -6.93261e-05 7.86475e-06
-8.82445e-06 7.86475e-06 -0.000124831
0.000902636 -0.000102032 3.04114e-07
-0.000102032 5.23652e-05 1.40703e-09
3.04114e-07 1.40703e-09 -5.00852e-05
0.00113145 -0.000143386 3.31823e-06
-0.000143386 0.000129801 -1.55707e-06
3.31823e-06 -1.55707e-06 -2.24168e-06
0.00341569 0.000126077 -6.64411e-05
0.000126077 0.00153067 2.67866e-06
-6.64411e-05 2.67866e-06 0.0015237
0.000645637 -2.53447e-05 -9.29461e-08
-2.53447e-05 -2.84023e-05 -1.52535e-07
-9.29461e-08 -1.52535e-07 -7.56407e-05
0.000953876 -8.80006e-05 4.48165e-06
-8.80006e-05 0.000110139 -2.68575e-06
4.48165e-06 -2.68575e-06 1.42198e-05
0.00317167 0.000108674 2.13166e-06
0.000108674 0.00138956 2.53767e-07
2.13166e-06 2.53767e-07 0.00138767
0.000677889 5.78518e-06 6.36023e-06
5.78518e-06 -4.66739e-06 -5.96891e-06
6.36023e-06 -5.96891e-06 -4.42485e-05
0.0029203 9.40923e-05 5.92791e-05
9.40923e-05 0.00124713 -2.96633e-06
5.92791e-05 -2.96633e-06 0.00124948
0.000915622 0.000137752 -5.5881e-07
0.000137752 4.75077e-05 -2.13019e-06
-5.5881e-07 -2.13019e-06 -9.08816e-05
0.00100561 0.000133936 -9.88035e-08
0.000133936 0.000145188 -1.06465e-06
-9.88035e-08 -1.06465e-06 2.01818e-05
0.00110948 0.00012584 -9.41654e-07
0.00012584 0.000198174 -1.20828e-06
-9.41654e-07 -1.20828e-06 8.67253e-05
0.001146 0.000135801 -5.46862e-07
0.000135801 0.000238947 8.4492e-08
-5.46862e-07 8.4492e-08 0.000127069
0.000894129 6.95558e-05 -1.019e-06
6.95558e-05 9.83697e-05 -5.95467e-07
-1.019e-06 -5.95467e-07 -2.55378e-07
0.00077205 2.90968e-05 -2.1533e-06
2.90968e-05 4.11326e-05 -2.02566e-06
-2.1533e-06 -2.02566e-06 -3.82406e-05
0.000722464 2.123e-05 -1.82357e-07
2.123e-05 1.50914e-05 3.43988e-07
-1.82357e-07 3.43988e-07 -7.54493e-05
0.000705357 -2.97329e-05 -3.90813e-07
-2.97329e-05 5.78198e-06 -5.88324e-08
-3.90813e-07 -5.88324e-08 -6.07872e-05
0.000619629 -7.024e-05 2.54138e-07
-7.024e-05 -2.15429e-05 -5.30315e-06
2.54138e-07 -5.30315e-06 -5.30158e-05
0.000699692 -6.1731e-05 3.53503e-07
-6.1731e-05 2.43138e-06 2.69944e-06
3.53503e-07 2.69944e-06 -5.49787e-05
0.00062865 -6.34196e-05 2.25638e-07
-6.34196e-05 -2.65802e-05 -1.12675e-07
2.25638e-07 -1.12675e-07 -5.06107e-05
0.00246046 -8.57976e-05 -4.1398e-05
-8.57976e-05 0.000990483 -2.48702e-06
-4.1398e-05 -2.48702e-06 0.000996746
0.000637375 -4.99e-05 1.94446e-06
-4.99e-05 -3.37167e-05 4.09137e-06
1.94446e-06 4.09137e-06 -5.20618e-05
0.00233003 -7.72344e-05 -6.87208e-07
-7.72344e-05 0.0009112 1.18479e-07
-6.87208e-07 1.18479e-07 0.000919984
0.00230318 -6.89177e-05 3.0864e-05
-6.89177e-05 0.000887583 3.32127e-06
3.0864e-05 3.32127e-06 0.000898587
0.00034881 1.65527e-05 6.59499e-06
1.65527e-05 -0.000525508 2.58692e-06
6.59499e-06 2.58692e-06 -0.000554818
0.00367864 1.74615e-05 2.0443e-06
1.74615e-05 0.000461846 1.08028e-05
2.0443e-06 1.08028e-05 9.26938e-05
0.00656952 0.000237035 -9.48249e-05
0.000237035 0.00193634 -2.24385e-05
-9.48249e-05 -2.24385e-05 0.000989382
0.000811782 0.000133417 2.48223e-06
0.000133417 -5.3145e-05 4.40324e-07
2.48223e-06 4.40324e-07 -0.000183706
0.00152941 0.000182029 3.47696e-06
0.000182029 0.000206839 -2.86441e-06
3.47696e-06 -2.86441e-06 5.78561e-05
0.000888254 0.000142653 -1.62072e-07
0.000142653 3.10158e-05 -1.16042e-06
-1.62072e-07 -1.16042e-06 -0.000108736
0.00104907 0.000138116 -1.40765e-06
0.000138116 0.000217301 -4.13279e-07
-1.40765e-06 -4.13279e-07 9.37593e-05
0.000941902 0.000137436 -1.1773e-06
0.000137436 0.000126893 -7.24253e-07
-1.1773e-06 -7.24253e-07 -7.0227e-06
0.00105787 0.000153346 3.91654e-06
0.000153346 0.000138625 1.72942e-06
3.91654e-06 1.72942e-06 1.44682e-05
0.00198973 0.000242282 -5.72549e-06
0.000242282 0.000362698 -5.18965e-06
-5.72549e-06 -5.18965e-06 0.000221543
0.0015677 0.000191875 -2.44907e-08
0.000191875 0.000396551 2.05078e-06
-2.44907e-08 2.05078e-06 0.000269832
0.00111594 0.000191474 8.53303e-07
0.000191474 1.76994e-05 1.13228e-05
8.53303e-07 1.13228e-05 -0.000115733
0.00172692 0.000250254 -9.6207e-07
0.000250254 0.000195889 8.37788e-07
-9.6207e-07 8.37788e-07 4.8042e-05
0.00219742 0.000254547 -6.80104e-06
0.000254547 0.000316537 2.2195e-06
-6.80104e-06 2.2195e-06 0.000177728
0.0012335 9.74884e-05 1.37205e-05
9.74884e-05 -0.00023844 4.44546e-06
1.37205e-05 4.44546e-06 -0.000314094
0.00166335 0.000223734 8.23745e-06
0.000223734 5.72143e-05 2.68459e-06
8.23745e-06 2.68459e-06 -6.71278e-05
0.0012468 0.000254093 -6.06286e-06
0.000254093 -9.97669e-05 -1.55869e-06
-6.06286e-06 -1.55869e-06 -0.000257795
0.000904859 0.000125995 -3.6887e-06
0.000125995 -0.000127234 8.51739e-07
-3.6887e-06 8.51739e-07 -0.000136765
0.0046861 6.42698e-05 4.80031e-05
6.42698e-05 0.000513025 7.72672e-06
4.80031e-05 7.72672e-06 0.00010151
0.00111074 0.00023049 3.66446e-06
0.00023049 -3.03548e-05 -8.99543e-06
3.66446e-06 -8.99543e-06 -5.89072e-05
0.00164989 -2.62794e-05 1.09878e-05
-2.62794e-05 6.83974e-05 9.05714e-07
1.09878e-05 9.05714e-07 1.63068e-05
0.00204925 -4.97474e-05 -3.94012e-06
-4.97474e-05 0.000178312 -2.18113e-07
-3.94012e-06 -2.18113e-07 8.61186e-05
0.00190465 0.00011824 5.77247e-05
0.00011824 -0.000165542 -3.96533e-06
5.77247e-05 -3.96533e-06 -0.000482621
-0.00128218 -4.04086e-05 -1.15681e-05
-4.04086e-05 -0.00154057 7.38444e-06
-1.15681e-05 7.38444e-06 -0.00155941
0.00250026 -1.90831e-05 -4.95044e-05
-1.90831e-05 0.000390466 5.88291e-06
-4.95044e-05 5.88291e-06 0.000327448
0.00147125 -5.16397e-05 9.37234e-07
-5.16397e-05 -0.000192368 2.20721e-06
9.37234e-07 2.20721e-06 -0.000236366
0.00221449 -3.20274e-05 -5.71396e-07
-3.20274e-05 0.000261405 2.52594e-07
-5.71396e-07 2.52594e-07 0.00020547
0.00194833 -9.32421e-05 4.16256e-06
-9.32421e-05 9.03743e-05 1.09695e-06
4.16256e-06 1.09695e-06 3.64214e-05
0.00164843 -3.35394e-05 1.73231e-06
-3.35394e-05 -6.91388e-05 -1.48383e-08
1.73231e-06 -1.48383e-08 -0.000134198
0.00209032 -9.07524e-05 1.83315e-06
-9.07524e-05 9.67253e-05 1.90288e-07
1.83315e-06 1.90288e-07 6.74186e-05
0.00179941 -8.41994e-05 -1.59024e-06
-8.41994e-05 5.90192e-05 5.86831e-08
-1.59024e-06 5.86831e-08 5.8171e-06
0.00178872 -8.86669e-05 3.17953e-06
-8.86669e-05 8.21065e-05 5.05013e-07
3.17953e-06 5.05013e-07 4.77197e-06
0.0019682 -0.000118031 -2.44382e-06
-0.000118031 0.000137124 -2.04582e-08
-2.44382e-06 -2.04582e-08 7.49562e-05
0.00176685 -9.72651e-05 -4.17725e-07
-9.72651e-05 0.000107424 -2.45342e-07
-4.17725e-07 -2.45342e-07 2.58593e-05
0.00171235 -8.52769e-05 2.03728e-06
-8.52769e-05 9.7339e-05 2.9409e-07
2.03728e-06 2.9409e-07 -2.70542e-06
0.00170195 -0.000118676 -6.08905e-06
-0.000118676 8.53175e-05 -1.13502e-07
-6.08905e-06 -1.13502e-07 -2.63405e-06
0.00165461 -0.000101659 9.18897e-08
-0.000101659 9.80993e-05 7.74814e-08
9.18897e-08 7.74814e-08 -7.51792e-06
0.00161443 -9.77497e-05 3.21062e-07
-9.77497e-05 0.000108001 5.87915e-07
3.21062e-07 5.87915e-07 -9.03695e-06
0.00163572 -0.000121425 -2.20871e-06
-0.000121425 0.000105244 -5.43994e-07
-2.20871e-06 -5.43994e-07 -2.17287e-06
0.0015906 -0.00012054 1.83928e-07
-0.00012054 0.000110232 -1.51699e-07
1.83928e-07 -1.51699e-07 -7.44774e-06
0.00152028 -0.000119838 -1.65347e-06
-0.000119838 0.000109287 4.92439e-07
-1.65347e-06 4.92439e-07 -1.36675e-05
0.00146737 -0.000130709 -5.15294e-07
-0.000130709 5.89767e-05 4.13049e-07
-5.15294e-07 4.13049e-07 -5.9946e-05
0.00137466 -0.000128748 -2.47159e-07
-0.000128748 5.08989e-05 -1.97043e-07
-2.47159e-07 -1.97043e-07 -7.47633e-05
0.00134797 -0.000124984 -5.25759e-06
-0.000124984 9.10662e-05 1.46218e-06
-5.25759e-06 1.46218e-06 -3.09105e-05
0.00124979 -0.000142235 3.41932e-06
-0.000142235 1.65393e-05 -4.02404e-07
3.41932e-06 -4.02404e-07 -0.00011869
0.00111719 -0.000128658 2.69588e-07
-0.000128658 4.52204e-07 1.76397e-08
2.69588e-07 1.76397e-08 -0.000126646
0.00103247 -0.000108956 -8.03538e-06
-0.000108956 2.89683e-05 3.80702e-06
-8.03538e-06 3.80702e-06 -7.52149e-05
0.000491584 -8.86418e-05 -1.19224e-05
-8.86418e-05 -0.000128474 8.6318e-06
-1.19224e-05 8.6318e-06 -0.000188594
0.000967571 -0.000111831 3.50079e-07
-0.000111831 4.06042e-05 1.58513e-07
3.50079e-07 1.58513e-07 -6.5582e-05
0.00110102 -0.000140191 2.61757e-06
-0.000140191 5.45071e-05 -5.43591e-07
2.61757e-06 -5.43591e-07 -7.78089e-05
0.00371063 0.000142007 -7.28497e-05
0.000142007 0.00170549 3.0883e-06
-7.28497e-05 3.0883e-06 0.00169247
0.00066082 -5.34754e-05 -1.38771e-07
-5.34754e-05 -2.58336e-05 6.08843e-08
-1.38771e-07 6.08843e-08 -8.19122e-05
0.000985904 -0.000106992 5.20064e-06
-0.000106992 9.79906e-05 -2.97117e-06
5.20064e-06 -2.97117e-06 -5.48985e-06
0.00350693 0.000121068 3.25619e-06
0.000121068 0.00158113 3.65227e-07
3.25619e-06 3.65227e-07 0.00157445
0.000744978 -2.76997e-05 8.40089e-06
-2.76997e-05 2.17553e-05 -6.82401e-06
8.40089e-06 -6.82401e-06 -2.58286e-05
0.00325956 0.000102537 7.13748e-05
0.000102537 0.00143647 -3.11071e-06
7.13748e-05 -3.11071e-06 0.00143522
0.000702627 0.000134064 -1.56319e-06
0.000134064 -0.000157569 -1.69658e-06
-1.56319e-06 -1.69658e-06 -0.000307708
0.000682397 0.000124649 -1.49703e-07
0.000124649 -8.05072e-05 -1.68969e-07
-1.49703e-07 -1.68969e-07 -0.000219442
0.00112937 0.000136541 -2.5349e-06
0.000136541 0.000169668 -1.60743e-06
-2.5349e-06 -1.60743e-06 4.56342e-05
0.000924554 0.000128414 -5.10309e-07
0.000128414 0.000101945 1.37422e-07
-5.10309e-07 1.37422e-07 -2.22232e-05
0.000986329 0.0001173 -3.02061e-07
0.0001173 0.000133181 -3.93775e-07
-3.02061e-07 -3.93775e-07 2.28939e-05
0.000911343 6.22557e-05 -3.38558e-06
6.22557e-05 0.000109525 -1.98562e-06
-3.38558e-06 -1.98562e-06 2.06684e-05
0.000875647 7.3443e-05 -7.34907e-08
7.3443e-05 8.73519e-05 -3.97067e-07
-7.34907e-08 -3.97067e-07 -1.01549e-05
0.000754797 1.43019e-05 -8.66075e-08
1.43019e-05 3.42826e-05 1.14259e-07
-8.66075e-08 1.14259e-07 -4.52778e-05
0.000630646 -4.74396e-05 -3.36499e-06
-4.74396e-05 -1.76178e-05 -5.34059e-06
-3.36499e-06 -5.34059e-06 -5.5009e-05
0.000719291 -5.57117e-05 2.13783e-07
-5.57117e-05 1.58436e-05 2.93204e-06
2.13783e-07 2.93204e-06 -5.13396e-05
0.000589026 -7.55983e-05 -7.01419e-08
-7.55983e-05 -3.71729e-05 -1.84188e-07
-7.01419e-08 -1.84188e-07 -6.9428e-05
0.00265782 -9.49428e-05 -4.91646e-05
-9.49428e-05 0.00110354 -2.37265e-06
-4.91646e-05 -2.37265e-06 0.00110694
0.000603351 -5.87831e-05 1.67407e-06
-5.87831e-05 -4.21927e-05 4.30478e-06
1.67407e-06 4.30478e-06 -6.50199e-05
0.00242194 -8.60353e-05 -7.07999e-07
-8.60353e-05 0.000969089 1.13488e-07
-7.07999e-07 1.13488e-07 0.000975381
0.00232015 -7.67237e-05 3.3856e-05
-7.67237e-05 0.0009049 2.98302e-06
3.3856e-05 2.98302e-06 0.000913863
0.0013709 3.3654e-05 1.07345e-05
3.3654e-05 -0.000159741 1.85911e-06
1.07345e-05 1.85911e-06 -0.000216721
0.00132981 -1.59204e-05 -3.00143e-06
-1.59204e-05 -0.000109649 3.80641e-06
-3.00143e-06 3.80641e-06 -0.000165668
0.00275826 -2.03625e-05 6.70122e-05
-2.03625e-05 -7.19252e-06 3.92105e-06
6.70122e-05 3.92105e-06 -0.000291198
0.00182421 0.000198641 -1.44822e-07
0.000198641 0.000290433 -4.0704e-06
-1.44822e-07 -4.0704e-06 0.00015203
0.000775879 0.000135762 -1.03263e-06
0.000135762 -5.45408e-05 1.33021e-06
-1.03263e-06 1.33021e-06 -0.000176255
0.00141033 0.000166857 -1.64255e-06
0.000166857 1.66297e-05 1.35371e-06
-1.64255e-06 1.35371e-06 -0.000117523
0.00160759 0.000187267 6.67406e-07
0.000187267 0.000245241 2.49313e-07
6.67406e-07 2.49313e-07 9.56332e-05
0.000422605 0.000117386 -3.76379e-06
0.000117386 -0.000210847 2.11299e-06
-3.76379e-06 2.11299e-06 -0.000347231
0.0017907 0.000202851 -4.60334e-06
0.000202851 0.00010965 1.01282e-06
-4.60334e-06 1.01282e-06 -2.21669e-05
0.00138574 0.000176967 -5.1816e-07
0.000176967 0.000299206 1.07195e-06
-5.1816e-07 1.07195e-06 0.00017054
0.00185816 0.000234508 1.68056e-07
0.000234508 0.000284355 -2.34787e-06
1.68056e-07 -2.34787e-06 0.000139954
0.0018126 0.000136621 -2.98588e-06
0.000136621 8.42739e-05 1.81455e-06
-2.98588e-06 1.81455e-06 -1.98907e-05
0.00201061 0.000264013 3.28244e-06
0.000264013 0.000354077 4.0486e-06
3.28244e-06 4.0486e-06 0.00020723
0.00207124 0.000249341 -1.79927e-06
0.000249341 0.000245307 -1.62867e-08
-1.79927e-06 -1.62867e-08 0.000108046
0.00136647 0.000108672 -3.78469e-07
0.000108672 -0.000143335 -3.45738e-07
-3.78469e-07 -3.45738e-07 -0.000219718
0.0013907 0.000205561 -2.84485e-06
0.000205561 -6.73792e-05 -3.46984e-06
-2.84485e-06 -3.46984e-06 -0.000193011
0.00108284 0.000113427 -1.30285e-05
0.000113427 -3.70016e-05 -2.90175e-06
-1.30285e-05 -2.90175e-06 -5.28089e-05
0.00170618 -1.39783e-06 -1.09247e-06
-1.39783e-06 -2.28644e-05 4.01377e-07
-1.09247e-06 4.01377e-07 -9.29859e-05
0.00191018 -7.94392e-06 -1.92744e-06
-7.94392e-06 0.000212136 -4.26112e-07
-1.92744e-06 -4.26112e-07 0.000159992
0.00138713 3.72802e-06 -3.07696e-05
3.72802e-06 -0.000133385 5.73054e-07
-3.07696e-05 5.73054e-07 -0.000234965
0.00088446 -7.94193e-05 -6.6827e-06
-7.94193e-05 -0.000551961 1.02464e-06
-6.6827e-06 1.02464e-06 -0.000585335
0.00175648 -4.5898e-05 -4.42884e-06
-4.5898e-05 -2.77591e-05 -6.67898e-07
-4.42884e-06 -6.67898e-07 -8.51494e-05
0.00195458 -8.92582e-05 -1.16245e-06
-8.92582e-05 9.70307e-05 1.91328e-07
-1.16245e-06 1.91328e-07 4.41951e-05
0.0017715 -3.48257e-05 1.2015e-06
-3.48257e-05 -1.48928e-06 -4.79772e-08
1.2015e-06 -4.79772e-08 -6.62213e-05
0.00175638 -4.95398e-05 1.21115e-06
-4.95398e-05 3.05364e-05 -1.2822e-07
1.21115e-06 -1.2822e-07 -4.59133e-05
0.00180399 -8.3635e-05 -2.89603e-06
-8.3635e-05 5.70279e-05 -8.79393e-07
-2.89603e-06 -8.79393e-07 5.70039e-06
0.0018302 -8.5896e-05 3.81577e-07
-8.5896e-05 0.000108646 -8.7549e-08
3.81577e-07 -8.7549e-08 3.12612e-05
0.00180829 -6.92479e-05 1.1939e-06
-6.92479e-05 0.000105571 -4.31802e-07
1.1939e-06 -4.31802e-07 1.09586e-05
0.0017734 -9.8091e-05 -5.05103e-06
-9.8091e-05 0.000112752 -4.84941e-07
-5.05103e-06 -4.84941e-07 2.93803e-05
0.0016824 -8.47221e-05 -1.26575e-07
-8.47221e-05 8.54722e-05 1.10292e-07
-1.26575e-07 1.10292e-07 -1.60338e-05
0.00167311 -6.93765e-05 2.75228e-07
-6.93765e-05 0.000116748 4.28163e-07
2.75228e-07 4.28163e-07 5.18019e-07
0.00166797 -0.00010102 -1.78979e-06
-0.00010102 0.000105921 -4.40513e-07
-1.78979e-06 -4.40513e-07 4.67316e-07
0.00161261 -9.68226e-05 5.07371e-08
-9.68226e-05 0.000105602 1.81732e-08
5.07371e-08 1.81732e-08 -1.13313e-05
0.00155376 -9.83172e-05 -1.72384e-06
-9.83172e-05 0.000110981 7.2705e-07
-1.72384e-06 7.2705e-07 -1.09799e-05
0.00160894 -0.00012049 -2.84094e-07
-0.00012049 0.00011944 -5.1968e-07
-2.84094e-07 -5.1968e-07 1.85805e-06
0.00151091 -0.000118876 7.4164e-09
-0.000118876 0.000104245 -7.52185e-08
7.4164e-09 -7.52185e-08 -1.86011e-05
0.0013763 -0.000111321 -4.7793e-06
-0.000111321 8.34105e-05 1.4098e-06
-4.7793e-06 1.4098e-06 -3.59451e-05
0.00127086 -0.000124973 1.93012e-06
-0.000124973 -5.32116e-06 -3.1956e-07
1.93012e-06 -3.1956e-07 -0.000130711
0.00131923 -0.000122938 -4.4246e-08
-0.000122938 7.63364e-05 2.33233e-08
-4.4246e-08 2.33233e-08 -4.5395e-05
0.00108293 -0.000100225 -9.22074e-06
-0.000100225 2.49727e-05 3.79381e-06
-9.22074e-06 3.79381e-06 -7.67195e-05
0.000883855 -0.000117496 4.66736e-06
-0.000117496 -0.00012476 -1.12953e-06
4.66736e-06 -1.12953e-06 -0.000251643
0.00102711 -0.000108416 3.30622e-07
-0.000108416 2.63322e-05 8.60191e-08
3.30622e-07 8.60191e-08 -7.78968e-05
0.00202948 -2.44462e-05 -8.15771e-06
-2.44462e-05 0.000713886 6.34354e-06
-8.15771e-06 6.34354e-06 0.000653318
0.00115513 4.18958e-06 -9.12874e-05
4.18958e-06 0.000280765 9.32802e-06
-9.12874e-05 9.32802e-06 0.000261716
0.00138812 -5.60191e-05 7.45822e-07
-5.60191e-05 0.000365328 2.01049e-08
7.45822e-07 2.01049e-08 0.000304802
0.000985879 -0.000113879 6.5676e-06
-0.000113879 5.11003e-05 -3.12484e-06
6.5676e-06 -3.12484e-06 -5.54767e-05
0.0038632 0.000125727 6.39308e-06
0.000125727 0.00178789 4.83523e-07
6.39308e-06 4.83523e-07 0.00177652
0.000776728 -7.16103e-05 1.10059e-05
-7.16103e-05 3.10412e-05 -7.9384e-06
1.10059e-05 -7.9384e-06 -2.54524e-05
0.00357062 0.000102185 8.60587e-05
0.000102185 0.00161465 -3.71222e-06
8.60587e-05 -3.71222e-06 0.00161014
0.00204628 0.000167504 -2.63976e-07
0.000167504 0.000332064 3.7553e-07
-2.63976e-07 3.7553e-07 0.000206424
0.000735565 0.000134881 -9.9939e-07
0.000134881 -0.000240512 1.76681e-06
-9.9939e-07 1.76681e-06 -0.000380389
0.00095138 0.000149193 -3.43713e-07
0.000149193 -3.23418e-05 -2.08081e-07
-3.43713e-07 -2.08081e-07 -0.000184782
0.00113383 0.000142388 -3.42301e-06
0.000142388 0.00011773 -1.90065e-06
-3.42301e-06 -1.90065e-06 -1.52609e-05
0.000455081 0.000111952 3.37953e-07
0.000111952 -0.000205173 2.28094e-06
3.37953e-07 2.28094e-06 -0.000344732
0.00104119 0.000130003 -4.90945e-07
0.000130003 0.000124669 -4.12172e-08
-4.90945e-07 -4.12172e-08 1.53294e-06
0.000983083 9.20634e-05 -4.31636e-06
9.20634e-05 0.000124883 -2.2359e-06
-4.31636e-06 -2.2359e-06 2.87388e-05
0.000871365 0.000109191 9.06918e-07
0.000109191 7.25946e-05 7.14074e-07
9.06918e-07 7.14074e-07 -3.65739e-05
0.000803649 5.35168e-05 -2.68613e-07
5.35168e-05 5.25948e-05 5.08263e-08
-2.68613e-07 5.08263e-08 -3.55139e-05
0.000702024 1.94915e-06 -6.53237e-06
1.94915e-06 1.07243e-05 -5.80737e-06
-6.53237e-06 -5.80737e-06 -3.21592e-05
0.000741172 -9.75097e-07 1.06103e-06
-9.75097e-07 2.69096e-05 2.07768e-06
1.06103e-06 2.07768e-06 -5.11959e-05
0.000573549 -5.47043e-05 -6.71967e-07
-5.47043e-05 -4.88135e-05 -1.67916e-07
-6.71967e-07 -1.67916e-07 -8.54103e-05
0.0029073 -0.00010438 -5.90959e-05
-0.00010438 0.0012454 -2.37851e-06
-5.90959e-05 -2.37851e-06 0.00124521
0.000547829 -7.19191e-05 2.03962e-07
-7.19191e-05 -6.16135e-05 5.00172e-06
2.03962e-07 5.00172e-06 -9.2567e-05
0.00258871 -9.59627e-05 -1.02337e-06
-9.59627e-05 0.00106621 1.3323e-07
-1.02337e-06 1.3323e-07 0.00106956
0.00238368 -8.54704e-05 3.68814e-05
-8.54704e-05 0.000947664 2.61696e-06
3.68814e-05 2.61696e-06 0.000954168
0.00181252 6.82142e-05 -1.44877e-06
6.82142e-05 4.63717e-05 1.34301e-06
-1.44877e-06 1.34301e-06 -3.55173e-05
0.00186807 2.86912e-05 4.74957e-07
2.86912e-05 0.000121595 -7.02268e-07
4.74957e-07 -7.02268e-07 6.69071e-05
0.00286339 -5.19768e-05 -2.26584e-05
-5.19768e-05 0.000585824 -3.6154e-06
-2.26584e-05 -3.6154e-06 0.000500634
0.00166969 0.000166732 -2.83163e-06
0.000166732 7.506e-05 2.12791e-07
-2.83163e-06 2.12791e-07 -5.19561e-05
0.00166993 0.000190076 -2.21851e-06
0.000190076 0.000228468 7.28961e-08
-2.21851e-06 7.28961e-08 9.37636e-05
0.00074444 0.000138495 -9.6984e-06
0.000138495 -5.42536e-05 3.11245e-06
-9.6984e-06 3.11245e-06 -0.000167153
0.0016494 0.000173382 1.48005e-06
0.000173382 0.000147107 2.40054e-07
1.48005e-06 2.40054e-07 1.2728e-05
0.00168603 0.000192815 -1.66633e-06
0.000192815 0.000284685 4.97174e-07
-1.66633e-06 4.97174e-07 0.000134322
0.00205401 0.000137573 -3.4893e-06
0.000137573 0.00020112 1.33487e-06
-3.4893e-06 1.33487e-06 9.71331e-05
0.00173602 0.000203644 -1.67007e-06
0.000203644 8.08508e-05 3.34776e-07
-1.67007e-06 3.34776e-07 -5.22703e-05
0.00177499 0.000229482 3.08173e-06
0.000229482 0.000230918 1.0035e-06
3.08173e-06 1.0035e-06 8.29172e-05
0.00179356 0.000136856 -5.24687e-07
0.000136856 6.88113e-05 1.56205e-07
-5.24687e-07 1.56205e-07 -3.57403e-05
0.00200454 0.000245765 5.75865e-06
0.000245765 0.000201179 -5.66293e-07
5.75865e-06 -5.66293e-07 6.55225e-05
0.00159006 0.000120709 -1.72001e-05
0.000120709 -1.82911e-05 -6.12453e-06
-1.72001e-05 -6.12453e-06 -9.44015e-05
0.00194993 7.67497e-06 -3.38833e-08
7.67497e-06 0.000123241 2.05491e-07
-3.38833e-08 2.05491e-07 4.51641e-05
0.00177402 2.65454e-06 4.81715e-07
2.65454e-06 1.56944e-05 -4.1329e-07
4.81715e-07 -4.1329e-07 -5.34176e-05
0.00220727 1.02732e-05 -1.56738e-05
1.02732e-05 0.000373486 -9.64088e-07
-1.56738e-05 -9.64088e-07 0.000321185
0.00201168 -8.67464e-05 -8.56135e-06
-8.67464e-05 0.000130004 -1.01572e-06
-8.56135e-06 -1.01572e-06 7.84442e-05
0.00192826 -3.52239e-05 -1.60774e-06
-3.52239e-05 8.22379e-05 -1.72991e-07
-1.60774e-06 -1.72991e-07 1.78728e-05
0.00181931 -4.86246e-05 3.32244e-07
-4.86246e-05 5.69659e-05 4.84566e-08
3.32244e-07 4.84566e-08 -1.70197e-05
0.00185592 -3.02272e-05 3.71107e-07
-3.02272e-05 0.000106979 -2.47845e-07
3.71107e-07 -2.47845e-07 1.30676e-05
0.00188114 -8.35546e-05 -1.56133e-06
-8.35546e-05 0.00013982 -3.78767e-07
-1.56133e-06 -3.78767e-07 6.23512e-05
0.00180043 -7.02003e-05 -3.93282e-07
-7.02003e-05 0.000107212 -1.19648e-07
-3.93282e-07 -1.19648e-07 1.19392e-05
0.00173773 -4.99031e-05 1.00409e-06
-4.99031e-05 0.000117428 -7.61152e-07
1.00409e-06 -7.61152e-07 3.41443e-06
0.00165107 -8.41894e-05 -2.00187e-06
-8.41894e-05 7.27735e-05 1.24734e-07
-2.00187e-06 1.24734e-07 -3.01985e-05
0.00165056 -6.91418e-05 -8.29059e-08
-6.91418e-05 0.000102962 2.12089e-07
-8.29059e-08 2.12089e-07 -1.32166e-05
0.00158156 -6.77615e-05 -1.72199e-06
-6.77615e-05 0.000111111 7.43584e-07
-1.72199e-06 7.43584e-07 -1.11373e-05
0.00161227 -9.58307e-05 -9.2901e-08
-9.58307e-05 0.000103997 -5.51988e-07
-9.2901e-08 -5.51988e-07 -1.28187e-05
0.00153961 -9.72927e-05 -3.79529e-08
-9.72927e-05 0.00010336 -5.52715e-09
-3.79529e-08 -5.52715e-09 -1.85374e-05
0.00139775 -9.28129e-05 -4.62504e-06
-9.28129e-05 7.82948e-05 1.32752e-06
-4.62504e-06 1.32752e-06 -4.02387e-05
0.00149926 -0.000117864 1.88689e-06
-0.000117864 9.80246e-05 -6.71179e-07
1.88689e-06 -6.71179e-07 -2.47184e-05
0.00136867 -0.000110201 -2.19481e-08
-0.000110201 7.93095e-05 4.06596e-08
-2.19481e-08 4.06596e-08 -3.98892e-05
0.00111221 -8.97712e-05 -9.62203e-06
-8.97712e-05 2.12523e-05 3.45593e-06
-9.62203e-06 3.45593e-06 -7.94526e-05
0.00129087 -0.000120921 4.83421e-06
-0.000120921 6.17975e-05 -1.34401e-06
4.83421e-06 -1.34401e-06 -5.96907e-05
0.00107146 -9.87654e-05 3.14854e-07
-9.87654e-05 1.81922e-05 4.13889e-08
3.14854e-07 4.13889e-08 -8.33275e-05
0.00213612 -3.82257e-05 -1.36025e-05
-3.82257e-05 0.000750459 5.32838e-06
-1.36025e-05 5.32838e-06 0.000695604
0.00101205 -0.00010767 8.0503e-06
-0.00010767 1.86562e-05 -3.49893e-06
8.0503e-06 -3.49893e-06 -8.56497e-05
0.00223367 -6.79393e-05 2.64615e-05
-6.79393e-05 0.00081306 -1.80012e-06
2.64615e-05 -1.80012e-06 0.000758486
0.00143338 -3.67015e-05 -0.000110721
-3.67015e-05 0.000435791 1.21436e-05
-0.000110721 1.21436e-05 0.000415391
0.00266494 3.61543e-05 -9.34122e-05
3.61543e-05 0.00112576 2.61802e-06
-9.34122e-05 2.61802e-06 0.00111069
0.00230845 -8.9712e-05 6.0012e-05
-8.9712e-05 0.000862448 -7.58105e-06
6.0012e-05 -7.58105e-06 0.000812109
0.00398665 9.2129e-05 0.000101415
9.2129e-05 0.00185315 -5.73795e-06
0.000101415 -5.73795e-06 0.00184444
0.00173203 0.000132862 -3.1394e-06
0.000132862 0.000138397 -7.53057e-07
-3.1394e-06 -7.53057e-07 1.4676e-05
0.00158083 0.000155184 1.20428e-06
0.000155184 0.000153227 3.61546e-07
1.20428e-06 3.61546e-07 2.61312e-05
0.00175346 0.000155744 1.04264e-06
0.000155744 0.000177798 4.99827e-07
1.04264e-06 4.99827e-07 5.45543e-05
0.00117773 0.000146292 -4.33329e-06
0.000146292 6.83118e-05 -6.04987e-07
-4.33329e-06 -6.04987e-07 -6.60293e-05
0.00116551 0.000157388 -2.46197e-07
0.000157388 -1.31031e-05 8.32756e-07
-2.46197e-07 8.32756e-07 -0.000155323
0.00116104 0.000162465 1.86685e-06
0.000162465 7.21958e-05 1.27739e-06
1.86685e-06 1.27739e-06 -8.24227e-05
0.00111503 0.000141685 -3.06813e-07
0.000141685 0.000108432 -9.23745e-08
-3.06813e-07 -9.23745e-08 -2.46557e-05
0.00099674 0.000109834 -5.51705e-06
0.000109834 9.25769e-05 -3.17548e-06
-5.51705e-06 -3.17548e-06 -1.15436e-05
0.000951041 0.00012333 1.39716e-06
0.00012333 7.85106e-05 1.38435e-06
1.39716e-06 1.38435e-06 -4.37035e-05
0.00085629 8.50276e-05 -3.29511e-07
8.50276e-05 5.62816e-05 -7.37767e-08
-3.29511e-07 -7.37767e-08 -3.84999e-05
0.000769532 4.16863e-05 -8.7511e-06
4.16863e-05 4.02834e-05 -6.70138e-06
-8.7511e-06 -6.70138e-06 -1.13333e-05
0.000684083 4.57981e-05 1.60087e-06
4.57981e-05 -1.14753e-05 1.58644e-06
1.60087e-06 1.58644e-06 -9.82939e-05
0.000611265 -2.01654e-05 3.07666e-07
-2.01654e-05 -3.33699e-05 -2.43517e-07
3.07666e-07 -2.43517e-07 -7.71141e-05
0.00320364 -0.000104902 -7.51651e-05
-0.000104902 0.00141691 -2.77429e-06
-7.51651e-05 -2.77429e-06 0.00141337
0.000512304 -8.17459e-05 -1.50272e-06
-8.17459e-05 -7.32808e-05 5.9683e-06
-1.50272e-06 5.9683e-06 -0.000114808
0.00284455 -0.000108148 -1.63269e-06
-0.000108148 0.00121157 2.08145e-07
-1.63269e-06 2.08145e-07 0.00121101
0.00254138 -9.6117e-05 4.11555e-05
-9.6117e-05 0.00104037 2.29221e-06
4.11555e-05 2.29221e-06 0.0010439
0.00187468 7.0237e-05 -1.79874e-06
7.0237e-05 8.11348e-05 1.07316e-06
-1.79874e-06 1.07316e-06 -7.38955e-06
0.00176031 6.76711e-05 8.13606e-07
6.76711e-05 2.39117e-05 -1.51952e-07
8.13606e-07 -1.51952e-07 -5.7988e-05
0.00222212 2.31781e-05 -2.7905e-05
2.31781e-05 0.000342759 -4.2808e-06
-2.7905e-05 -4.2808e-06 0.000290369
0.00187914 0.000123411 2.76475e-08
0.000123411 0.00013916 1.26373e-06
2.76475e-08 1.26373e-06 2.709e-05
0.00175951 0.000167315 -9.59524e-07
0.000167315 0.000128294 -5.31526e-07
-9.59524e-07 -5.31526e-07 1.7111e-06
0.0015347 0.000181871 -1.69101e-06
0.000181871 0.000175845 1.78584e-06
-1.69101e-06 1.78584e-06 4.49433e-05
0.00182646 0.000176881 9.97429e-07
0.000176881 0.000244825 -7.17554e-07
9.97429e-07 -7.17554e-07 0.000110365
0.00189595 0.00013213 2.42271e-07
0.00013213 0.000116227 -1.16178e-08
2.42271e-07 -1.16178e-08 1.1174e-05
0.00166744 0.000203878 7.54857e-07
0.000203878 4.53917e-05 -7.83366e-07
7.54857e-07 -7.83366e-07 -8.89901e-05
0.00175307 0.000136298 4.30433e-06
0.000136298 5.12492e-05 -1.28854e-06
4.30433e-06 -1.28854e-06 -5.37049e-05
0.00185554 1.5145e-05 1.25478e-06
1.5145e-05 9.48992e-05 4.28864e-07
1.25478e-06 4.28864e-07 4.03813e-06
0.00188669 8.31206e-06 -3.27636e-07
8.31206e-06 9.01441e-05 -4.34067e-08
-3.27636e-07 -4.34067e-08 1.05506e-05
0.00181321 6.44141e-06 -2.04922e-06
6.44141e-06 4.25907e-05 -1.01611e-06
-2.04922e-06 -1.01611e-06 -2.55132e-05
0.0017022 -4.57255e-06 -7.12594e-08
-4.57255e-06 3.25628e-05 4.95324e-08
-7.12594e-08 4.95324e-08 -6.74541e-05
0.00187228 -4.7098e-05 -1.22587e-06
-4.7098e-05 7.97821e-05 5.90005e-08
-1.22587e-06 5.90005e-08 8.25845e-06
0.00185223 -3.06516e-05 -2.67998e-07
-3.06516e-05 0.000105034 3.85755e-07
-2.67998e-07 3.85755e-07 1.09766e-05
0.00188012 -2.71349e-05 9.78233e-07
-2.71349e-05 0.000166523 -7.15843e-07
9.78233e-07 -7.15843e-07 5.77146e-05
0.00179315 -7.11983e-05 -2.00268e-06
-7.11983e-05 0.000109208 2.83943e-07
-2.00268e-06 2.83943e-07 1.32848e-05
0.00172249 -4.97929e-05 1.37718e-07
-4.97929e-05 0.000108226 -2.52797e-07
1.37718e-07 -2.52797e-07 -5.68667e-06
0.0016038 -3.60313e-05 -2.06286e-06
-3.60313e-05 0.000101699 4.74367e-07
-2.06286e-06 4.74367e-07 -2.06292e-05
0.00162963 -6.83241e-05 -1.7519e-07
-6.83241e-05 9.01885e-05 -1.4885e-08
-1.7519e-07 -1.4885e-08 -2.59053e-05
0.00156007 -6.587e-05 -6.81833e-08
-6.587e-05 9.86748e-05 7.70417e-08
-6.81833e-08 7.70417e-08 -2.3478e-05
0.00143412 -6.98803e-05 -4.60275e-06
-6.98803e-05 8.32635e-05 1.42378e-06
-4.60275e-06 1.42378e-06 -3.65507e-05
0.00152466 -9.61817e-05 1.88453e-06
-9.61817e-05 9.5321e-05 -7.56169e-07
1.88453e-06 -7.56169e-07 -2.65068e-05
0.00140334 -9.21192e-05 -6.39737e-08
-9.21192e-05 8.09152e-05 -3.27341e-09
-6.39737e-08 -3.27341e-09 -3.75147e-05
0.00113143 -7.60931e-05 -9.70367e-06
-7.60931e-05 1.82211e-05 2.8664e-06
-9.70367e-06 2.8664e-06 -8.22589e-05
0.00135949 -0.000108982 4.83014e-06
-0.000108982 7.43701e-05 -1.34595e-06
4.83014e-06 -1.34595e-06 -4.46606e-05
0.00110873 -8.78306e-05 2.28001e-07
-8.78306e-05 1.8122e-05 1.34863e-07
2.28001e-07 1.34863e-07 -8.22212e-05
0.00222796 -5.95829e-05 -2.07681e-05
-5.95829e-05 0.000782494 4.3348e-06
-2.07681e-05 4.3348e-06 0.000732941
0.00105496 -9.72243e-05 9.06881e-06
-9.72243e-05 8.65848e-06 -3.65606e-06
9.06881e-06 -3.65606e-06 -9.26791e-05
0.00229106 -7.97969e-05 2.36302e-05
-7.97969e-05 0.000826108 -2.0752e-06
2.36302e-05 -2.0752e-06 0.000776126
0.00154519 -3.42379e-05 -0.000111122
-3.42379e-05 0.000494342 1.1338e-05
-0.000111122 1.1338e-05 0.000473329
0.00241309 -0.000102453 6.80993e-05
-0.000102453 0.000901159 -9.96213e-06
6.80993e-05 -9.96213e-06 0.000850841
0.00137936 3.23237e-05 -5.75963e-05
3.23237e-05 0.000422906 3.52878e-06
-5.75963e-05 3.52878e-06 0.00039176
0.00407975 0.000233616 -3.07715e-07
0.000233616 0.00194284 -3.39579e-06
-3.07715e-07 -3.39579e-06 0.00190656
0.00168751 0.0001041 -5.89819e-07
0.0001041 9.75385e-05 5.72322e-07
-5.89819e-07 5.72322e-07 -2.30175e-05
0.00164324 0.00012689 -1.82886e-06
0.00012689 0.000146172 -9.75004e-07
-1.82886e-06 -9.75004e-07 2.23665e-05
0.00175908 0.000136217 -2.00999e-06
0.000136217 0.000156324 1.23823e-07
-2.00999e-06 1.23823e-07 3.3046e-05
0.00172795 0.000157713 -2.84388e-06
0.000157713 0.000301421 -7.48433e-09
-2.84388e-06 -7.48433e-09 0.000175388
0.0015309 0.000156095 5.83723e-07
0.000156095 0.000120518 -6.63648e-07
5.83723e-07 -6.63648e-07 -6.8039e-06
0.00149532 0.00014573 5.27547e-06
0.00014573 4.20008e-05 8.27152e-07
5.27547e-06 8.27152e-07 -7.89041e-05
0.0010019 0.000116371 -7.67952e-06
0.000116371 3.81715e-05 -3.29953e-06
-7.67952e-06 -3.29953e-06 -7.07321e-05
0.00122323 0.0001497 -4.88414e-07
0.0001497 9.23517e-05 5.1779e-07
-4.88414e-07 5.1779e-07 -4.28756e-05
0.00163442 0.000181764 3.16974e-06
0.000181764 0.000234711 6.75725e-08
3.16974e-06 6.75725e-08 9.00689e-05
0.00109395 0.000140992 3.06648e-06
0.000140992 9.79512e-05 1.82505e-06
3.06648e-06 1.82505e-06 -3.52483e-05
0.000925008 0.000104813 -3.95754e-07
0.000104813 5.38381e-05 -2.33818e-07
-3.95754e-07 -2.33818e-07 -4.95018e-05
0.000791488 9.10207e-05 -1.28438e-05
9.10207e-05 4.46385e-05 -7.90466e-06
-1.28438e-05 -7.90466e-06 -1.557e-05
0.000740853 7.80796e-05 3.09603e-06
7.80796e-05 -6.09771e-06 1.96965e-06
3.09603e-06 1.96965e-06 -9.96282e-05
0.000657694 3.6791e-05 5.09e-09
3.6791e-05 -1.40152e-05 -1.75373e-08
5.09e-09 -1.75373e-08 -6.58599e-05
0.00359095 -9.13286e-05 -9.1281e-05
-9.13286e-05 0.00164244 -4.7184e-06
-9.1281e-05 -4.7184e-06 0.0016348
0.000542686 -3.07795e-05 2.72155e-06
-3.07795e-05 -6.86952e-05 6.02612e-06
2.72155e-06 6.02612e-06 -0.000111246
0.00315126 -0.000122416 -2.93237e-06
-0.000122416 0.00138889 3.46992e-07
-2.93237e-06 3.46992e-07 0.0013831
0.00278693 -0.000109308 4.71205e-05
-0.000109308 0.00117989 2.1179e-06
4.71205e-05 2.1179e-06 0.00117952
0.00178819 6.58053e-05 9.56507e-07
6.58053e-05 6.32174e-05 1.08581e-06
9.56507e-07 1.08581e-06 -3.62575e-05
0.00182768 7.22103e-05 -4.54362e-07
7.22103e-05 5.36364e-05 1.84266e-07
-4.54362e-07 1.84266e-07 -3.45957e-05
0.00175411 6.77582e-05 1.43225e-06
6.77582e-05 1.8689e-05 -1.71541e-06
1.43225e-06 -1.71541e-06 -6.31784e-05
0.00186951 0.000122024 5.42775e-07
0.000122024 0.000132504 -6.94016e-08
5.42775e-07 -6.94016e-08 2.11077e-05
0.00186214 0.000168573 7.45804e-08
0.000168573 0.000188637 -1.15944e-06
7.45804e-08 -1.15944e-06 6.24299e-05
0.00175267 0.000126697 2.28497e-06
0.000126697 3.85482e-05 -1.4414e-06
2.28497e-06 -1.4414e-06 -6.75188e-05
0.00184406 1.72985e-05 3.27669e-07
1.72985e-05 0.000109683 3.93611e-07
3.27669e-07 3.93611e-07 1.03358e-05
0.00187237 1.65514e-05 3.51932e-07
1.65514e-05 0.000104008 -1.7036e-07
3.51932e-07 -1.7036e-07 1.22524e-05
0.00183162 9.49719e-06 7.82785e-07
9.49719e-06 5.96263e-05 -2.2742e-07
7.82785e-07 -2.2742e-07 -2.14893e-05
0.00177802 -1.15775e-05 -1.07566e-06
-1.15775e-05 7.30633e-05 1.2898e-07
-1.07566e-06 1.2898e-07 -2.59431e-05
0.00174683 -1.22114e-05 1.28996e-06
-1.22114e-05 8.91449e-05 -4.36859e-07
1.28996e-06 -4.36859e-07 -2.01053e-05
0.00184811 -3.09978e-05 -9.26082e-07
-3.09978e-05 0.000102963 5.70627e-07
-9.26082e-07 5.70627e-07 8.74945e-06
0.00179351 -2.71888e-05 -1.56579e-07
-2.71888e-05 0.000119435 2.52241e-07
-1.56579e-07 2.52241e-07 8.75129e-06
0.0016608 -1.62503e-05 -8.09302e-10
-1.62503e-05 0.00011166 -3.75555e-07
-8.09302e-10 -3.75555e-07 -8.20798e-06
0.00170272 -5.02454e-05 -7.37141e-08
-5.02454e-05 9.65256e-05 1.82089e-07
-7.37141e-08 1.82089e-07 -1.73262e-05
0.00158786 -3.74211e-05 -5.27604e-07
-3.74211e-05 9.11675e-05 1.88309e-07
-5.27604e-07 1.88309e-07 -3.11841e-05
0.00147973 -3.95764e-05 -5.57437e-06
-3.95764e-05 8.90345e-05 1.65762e-06
-5.57437e-06 1.65762e-06 -3.28096e-05
0.00154338 -6.55372e-05 1.45933e-06
-6.55372e-05 8.86125e-05 -6.01009e-07
1.45933e-06 -6.01009e-07 -3.34995e-05
0.00142751 -6.85528e-05 8.70315e-08
-6.85528e-05 7.94979e-05 -6.75787e-08
8.70315e-08 -6.75787e-08 -4.01875e-05
0.00113539 -5.7947e-05 -9.66241e-06
-5.7947e-05 7.70617e-06 2.54008e-06
-9.66241e-06 2.54008e-06 -9.35154e-05
0.00140674 -9.13075e-05 4.64046e-06
-9.13075e-05 8.23755e-05 -1.34708e-06
4.64046e-06 -1.34708e-06 -3.59456e-05
0.00113676 -7.3967e-05 2.00251e-08
-7.3967e-05 1.98486e-05 9.76186e-08
2.00251e-08 9.76186e-08 -8.02561e-05
0.00225714 -6.29179e-05 -2.41602e-05
-6.29179e-05 0.000788627 3.47455e-06
-2.41602e-05 3.47455e-06 0.000740145
0.00110283 -8.59817e-05 9.6603e-06
-8.59817e-05 1.35918e-05 -3.24468e-06
9.6603e-06 -3.24468e-06 -8.63847e-05
0.00232226 -7.91506e-05 2.25492e-05
-7.91506e-05 0.00083035 -1.78456e-06
2.25492e-05 -1.78456e-06 0.000782805
0.00162933 -3.14237e-05 -0.000112275
-3.14237e-05 0.000533196 9.82277e-06
-0.000112275 9.82277e-06 0.000512793
0.00243214 -9.56738e-05 6.92955e-05
-9.56738e-05 0.000898539 -9.03324e-06
6.92955e-05 -9.03324e-06 0.000850598
0.00142513 1.74008e-05 -5.40536e-05
1.74008e-05 0.000439172 3.83898e-06
-5.40536e-05 3.83898e-06 0.000411552
0.00138376 8.38282e-05 3.16567e-06
8.38282e-05 0.000436629 -4.45712e-06
3.16567e-06 -4.45712e-06 0.000398401
0.00183481 6.37157e-05 7.47715e-07
6.37157e-05 0.000145086 1.24404e-06
7.47715e-07 1.24404e-06 3.62371e-05
0.00155037 9.43945e-05 -2.30259e-06
9.43945e-05 7.75984e-05 -4.2269e-07
-2.30259e-06 -4.2269e-07 -4.70111e-05
0.00171559 0.000105958 -1.12556e-06
0.000105958 0.000111893 -7.67809e-08
-1.12556e-06 -7.67809e-08 -7.57638e-06
0.00159292 0.000127148 -3.98393e-06
0.000127148 0.000181857 -1.2671e-06
-3.98393e-06 -1.2671e-06 6.26638e-05
0.00172112 0.000130056 9.42534e-07
0.000130056 0.000190676 3.98156e-07
9.42534e-07 3.98156e-07 6.7057e-05
0.00177274 0.000139247 3.38107e-06
0.000139247 0.000167253 6.93168e-07
3.38107e-06 6.93168e-07 4.43652e-05
0.0010248 0.00011228 -9.26427e-06
0.00011228 -4.10818e-06 -2.91764e-06
-9.26427e-06 -2.91764e-06 -0.000111292
0.00143903 0.000147905 2.65122e-06
0.000147905 0.000140818 5.14982e-07
2.65122e-06 5.14982e-07 1.38419e-05
0.00148804 0.000157089 2.79626e-06
0.000157089 9.08746e-05 -9.53842e-07
2.79626e-06 -9.53842e-07 -3.66404e-05
0.00072736 0.000115119 -1.63569e-05
0.000115119 -6.37367e-06 -8.11953e-06
-1.63569e-05 -8.11953e-06 -7.1124e-05
0.00100415 0.00011562 -7.32413e-07
0.00011562 3.95509e-05 1.84414e-07
-7.32413e-07 1.84414e-07 -6.9099e-05
0.001271 0.000153198 4.76152e-06
0.000153198 0.000117768 2.21994e-06
4.76152e-06 2.21994e-06 -1.83743e-05
0.000869481 0.000100616 4.94942e-06
0.000100616 2.43411e-05 2.92115e-06
4.94942e-06 2.92115e-06 -7.8364e-05
0.000659894 8.13392e-05 -1.83194e-07
8.13392e-05 -2.11968e-05 6.8922e-08
-1.83194e-07 6.8922e-08 -8.08809e-05
0.00414592 -7.89592e-05 -0.00010308
-7.89592e-05 0.00195908 -7.78078e-06
-0.00010308 -7.78078e-06 0.00194428
0.000561221 2.81506e-05 6.1442e-06
2.81506e-05 -6.25637e-05 6.66929e-06
6.1442e-06 6.66929e-06 -0.000113138
0.00349854 -0.000126776 -5.68886e-06
-0.000126776 0.00159315 3.91854e-07
-5.68886e-06 3.91854e-07 0.00158256
0.00307911 -0.000125258 5.46687e-05
-0.000125258 0.00134799 2.06916e-06
5.46687e-05 2.06916e-06 0.00134227
0.00179325 4.55432e-05 5.25619e-07
4.55432e-05 8.73797e-05 2.29278e-07
5.25619e-07 2.29278e-07 -1.50407e-05
0.00178907 6.51015e-05 -5.72321e-08
6.51015e-05 6.41264e-05 3.04516e-07
-5.72321e-08 3.04516e-07 -3.49005e-05
0.0017694 7.36784e-05 3.20362e-06
7.36784e-05 2.12572e-05 -7.26014e-07
3.20362e-06 -7.26014e-07 -6.66833e-05
0.00185765 0.000120446 6.98889e-07
0.000120446 0.000124503 -1.29066e-06
6.98889e-07 -1.29066e-06 1.37925e-05
0.00176338 -3.51105e-06 1.01909e-06
-3.51105e-06 9.33313e-05 5.05539e-08
1.01909e-06 5.05539e-08 -1.64637e-05
0.00187542 1.41064e-05 -8.23164e-08
1.41064e-05 0.00012461 -9.42055e-08
-8.23164e-08 -9.42055e-08 2.53906e-05
0.00188519 1.74173e-05 -7.63884e-07
1.74173e-05 0.000111084 -1.21964e-07
-7.63884e-07 -1.21964e-07 1.84455e-05
0.00186212 -1.53594e-05 -2.47694e-06
-1.53594e-05 0.000118232 -1.67775e-07
-2.47694e-06 -1.67775e-07 2.0224e-05
0.00174408 -6.25769e-06 -7.00692e-07
-6.25769e-06 8.72347e-05 -9.27125e-08
-7.00692e-07 -9.27125e-08 -2.12807e-05
0.00178977 -1.1624e-06 6.23398e-07
-1.1624e-06 0.000172155 -3.17565e-07
6.23398e-07 -3.17565e-07 5.44967e-05
0.00170694 -2.72944e-05 -8.18169e-07
-2.72944e-05 7.2288e-05 9.81027e-07
-8.18169e-07 9.81027e-07 -4.02668e-05
0.00166761 -1.57355e-05 6.52631e-07
-1.57355e-05 0.000115338 -5.18986e-08
6.52631e-07 -5.18986e-08 -5.48178e-06
0.00138152 -1.26063e-05 -4.34636e-06
-1.26063e-05 1.8073e-05 6.13867e-07
-4.34636e-06 6.13867e-07 -0.000104527
0.00155983 -3.72092e-05 6.84869e-07
-3.72092e-05 7.44689e-05 -7.62742e-08
6.84869e-07 -7.62742e-08 -4.78716e-05
0.00144311 -3.66555e-05 -5.19728e-07
-3.66555e-05 6.98555e-05 3.32466e-07
-5.19728e-07 3.32466e-07 -5.17979e-05
0.00116887 -3.5683e-05 -9.92921e-06
-3.5683e-05 8.99963e-06 2.44512e-06
-9.92921e-06 2.44512e-06 -9.46893e-05
0.00141595 -6.51679e-05 4.34488e-06
-6.51679e-05 7.31213e-05 -1.49355e-06
4.34488e-06 -1.49355e-06 -4.63125e-05
0.00115396 -5.76296e-05 -2.17594e-08
-5.76296e-05 1.67007e-05 2.00221e-08
-2.17594e-08 2.00221e-08 -8.43979e-05
0.000685411 -4.19242e-05 -1.47413e-05
-4.19242e-05 -8.58944e-05 3.68736e-06
-1.47413e-05 3.68736e-06 -0.000143474
0.00114452 -7.20363e-05 9.77015e-06
-7.20363e-05 2.26444e-05 -2.78107e-06
9.77015e-06 -2.78107e-06 -7.70759e-05
0.00150817 -5.82005e-05 2.83247e-05
-5.82005e-05 0.00037299 -1.4334e-06
2.83247e-05 -1.4334e-06 0.000322314
0.00482094 -6.07107e-05 -0.000135351
-6.07107e-05 0.00228842 6.31002e-06
-0.000135351 6.31002e-06 0.00228555
0.00242434 -8.02474e-05 6.99153e-05
-8.02474e-05 0.000882271 -7.50602e-06
6.99153e-05 -7.50602e-06 0.000836689
0.00146167 -5.26973e-06 -4.82135e-05
-5.26973e-06 0.000447044 3.50252e-06
-4.82135e-05 3.50252e-06 0.000423172
0.00134441 1.78448e-05 1.57599e-05
1.78448e-05 0.000396673 -3.30339e-06
1.57599e-05 -3.30339e-06 0.000368173
0.00185523 4.33816e-05 9.66584e-07
4.33816e-05 0.000159164 5.39241e-07
9.66584e-07 5.39241e-07 5.23554e-05
0.00163877 5.92676e-05 -1.00647e-06
5.92676e-05 0.000109472 8.27682e-07
-1.00647e-06 8.27682e-07 -9.34605e-06
0.00184735 6.12027e-05 2.94065e-08
6.12027e-05 0.000153957 -5.99236e-08
2.94065e-08 -5.99236e-08 4.4553e-05
0.00115381 8.82881e-05 -5.3877e-06
8.82881e-05 -8.23049e-05 -1.61191e-06
-5.3877e-06 -1.61191e-06 -0.000203794
0.00165981 9.73913e-05 -1.36341e-07
9.73913e-05 0.000138735 -3.51341e-08
-1.36341e-07 -3.51341e-08 1.5363e-05
0.00174733 0.000108228 -6.59258e-07
0.000108228 0.000128295 -8.83384e-07
-6.59258e-07 -8.83384e-07 9.8961e-06
0.000669339 8.31385e-05 -1.15093e-05
8.31385e-05 -0.000235162 -3.26708e-06
-1.15093e-05 -3.26708e-06 -0.00033996
0.00163407 0.000130546 1.25173e-06
0.000130546 0.00020497 1.93464e-07
1.25173e-06 1.93464e-07 8.50616e-05
0.00180564 0.000133661 3.70462e-06
0.000133661 0.000238989 1.1742e-06
3.70462e-06 1.1742e-06 0.000115507
0.000659746 0.000109219 -1.64553e-05
0.000109219 -6.77478e-05 -6.83864e-06
-1.64553e-05 -6.83864e-06 -0.000130724
0.000823593 0.000104227 1.21889e-07
0.000104227 -0.00011584 3.2398e-07
1.21889e-07 3.2398e-07 -0.000223832
0.0011447 0.000137836 7.22068e-06
0.000137836 -2.28433e-05 1.44286e-06
7.22068e-06 1.44286e-06 -0.000150715
0.00466945 -8.56347e-05 -0.000105789
-8.56347e-05 0.00225094 -9.79626e-06
-0.000105789 -9.79626e-06 0.00222876
0.000646405 0.000104648 9.36547e-07
0.000104648 -4.80816e-05 2.17693e-07
9.36547e-07 2.17693e-07 -0.000111997
0.000993816 0.00011428 7.10676e-06
0.00011428 3.44393e-05 3.9177e-06
7.10676e-06 3.9177e-06 -7.39546e-05
0.000532209 7.21076e-05 9.74329e-06
7.21076e-05 -8.60232e-05 7.58217e-06
9.74329e-06 7.58217e-06 -0.000145137
0.00392007 -0.000117017 -7.83668e-06
-0.000117017 0.00183748 4.59898e-07
-7.83668e-06 4.59898e-07 0.00182176
0.00336572 -0.000142807 6.24847e-05
-0.000142807 0.00152014 2.20012e-06
6.24847e-05 2.20012e-06 0.00150773
0.00180725 2.42013e-05 -4.2195e-07
2.42013e-05 0.000116977 -6.84207e-08
-4.2195e-07 -6.84207e-08 8.24482e-06
0.00180322 4.48473e-05 -1.82619e-07
4.48473e-05 8.92101e-05 1.8053e-07
-1.82619e-07 1.8053e-07 -1.30275e-05
0.00179363 6.48939e-05 -7.18469e-08
6.48939e-05 6.69822e-05 -5.87228e-07
-7.18469e-08 -5.87228e-07 -3.1613e-05
0.00173874 7.7717e-06 6.25282e-07
7.7717e-06 0.000136745 -2.41465e-07
6.25282e-07 -2.41465e-07 1.86649e-05
0.00175475 -1.48115e-07 -1.37376e-07
-1.48115e-07 9.14291e-05 4.53061e-08
-1.37376e-07 4.53061e-08 -1.75582e-05
0.0019027 8.41738e-06 -1.28836e-06
8.41738e-06 0.000137265 -7.70266e-08
-1.28836e-06 -7.70266e-08 3.81809e-05
0.00173269 -1.61913e-06 -1.73619e-06
-1.61913e-06 8.04418e-05 5.20624e-07
-1.73619e-06 5.20624e-07 -2.73187e-05
0.00177933 1.37404e-06 1.02949e-06
1.37404e-06 0.000166117 -2.0404e-07
1.02949e-06 -2.0404e-07 4.84499e-05
0.00175697 4.14048e-07 -2.84932e-06
4.14048e-07 0.000213324 9.66653e-08
-2.84932e-06 9.66653e-08 9.45534e-05
0.00168485 -1.5164e-05 1.57932e-06
-1.5164e-05 0.000124543 9.87652e-08
1.57932e-06 9.87652e-08 2.78144e-06
0.0016074 -1.0812e-05 -9.44862e-09
-1.0812e-05 0.000142545 6.82974e-08
-9.44862e-09 6.82974e-08 2.15029e-05
0.00083171 -1.23462e-05 -1.19817e-05
-1.23462e-05 -0.000194427 2.07316e-06
-1.19817e-05 2.07316e-06 -0.00030367
0.00141949 -3.60231e-05 3.88694e-06
-3.60231e-05 5.74676e-05 -9.36595e-07
3.88694e-06 -9.36595e-07 -6.41099e-05
0.00116988 -3.30738e-05 4.62436e-08
-3.30738e-05 8.8834e-06 7.58113e-08
4.62436e-08 7.58113e-08 -9.46032e-05
0.000688164 -1.9463e-05 -1.465e-05
-1.9463e-05 -9.46013e-05 2.82021e-06
-1.465e-05 2.82021e-06 -0.000154464
0.00117322 -5.61213e-05 9.98511e-06
-5.61213e-05 2.59707e-05 -2.58875e-06
9.98511e-06 -2.58875e-06 -7.48972e-05
0.000689195 -2.89419e-05 -2.3764e-07
-2.89419e-05 -8.47339e-05 1.25075e-07
-2.3764e-07 1.25075e-07 -0.000142268
0.00485522 -4.01905e-05 -0.000131602
-4.01905e-05 0.0023046 4.63376e-06
-0.000131602 4.63376e-06 0.00230239
0.000731093 -5.01235e-05 1.54199e-05
-5.01235e-05 -5.70075e-05 -5.39254e-06
1.54199e-05 -5.39254e-06 -0.000114083
0.00312238 -3.55323e-05 5.58705e-05
-3.55323e-05 0.0013549 -6.82003e-08
5.58705e-05 -6.82003e-08 0.00133985
0.00128439 -1.54277e-05 2.22993e-05
-1.54277e-05 0.000356006 -3.02568e-06
2.22993e-05 -3.02568e-06 0.000328798
0.00183096 3.121e-05 1.01334e-07
3.121e-05 0.000164172 1.09987e-07
1.01334e-07 1.09987e-07 5.48683e-05
0.00162874 3.29635e-05 -6.43447e-07
3.29635e-05 0.000102644 7.63854e-07
-6.43447e-07 7.63854e-07 -1.34023e-05
0.00181507 4.11869e-05 -3.58303e-07
4.11869e-05 0.000137474 -2.03966e-07
-3.58303e-07 -2.03966e-07 3.07328e-05
0.00141081 6.23389e-05 -4.39971e-06
6.23389e-05 4.69133e-05 -3.41096e-07
-4.39971e-06 -3.41096e-07 -7.10236e-05
0.00158313 5.7295e-05 3.96825e-07
5.7295e-05 7.8712e-05 1.61068e-07
3.96825e-07 1.61068e-07 -4.08956e-05
0.00186121 5.84179e-05 -1.03078e-06
5.84179e-05 0.00016341 -1.09137e-06
-1.03078e-06 -1.09137e-06 5.34632e-05
0.000696071 6.68469e-05 -1.16391e-05
6.68469e-05 -0.000241321 -3.1244e-06
-1.16391e-05 -3.1244e-06 -0.000345273
0.00151493 9.93068e-05 -1.44936e-06
9.93068e-05 0.000115247 -3.62006e-07
-1.44936e-06 -3.62006e-07 -4.69176e-06
0.00177115 0.000100226 2.50543e-06
0.000100226 0.000200837 1.23344e-07
2.50543e-06 1.23344e-07 7.87282e-05
0.000634482 8.07664e-05 -1.53886e-05
8.07664e-05 -0.00010026 -5.50183e-06
-1.53886e-05 -5.50183e-06 -0.000160458
0.000672768 8.40926e-05 -2.5302e-06
8.40926e-05 -0.000233354 -6.40039e-07
-2.5302e-06 -6.40039e-07 -0.000338628
0.00167384 0.000133919 6.66827e-06
0.000133919 0.000227346 1.44368e-06
6.66827e-06 1.44368e-06 0.000106725
0.00492619 -2.58047e-05 -0.000119643
-2.58047e-05 0.00236498 -8.22493e-06
-0.000119643 -8.22493e-06 0.00235436
0.000621556 9.92428e-05 8.7782e-07
9.92428e-05 -8.63963e-05 3.89648e-07
8.7782e-07 3.89648e-07 -0.000150096
0.000616664 9.60046e-05 9.18027e-06
9.60046e-05 -0.000230675 3.38104e-06
9.18027e-06 3.38104e-06 -0.000339478
0.004418 -6.64967e-05 1.14767e-06
-6.64967e-05 0.00210391 -1.63748e-07
1.14767e-06 -1.63748e-07 0.00208983
0.000525876 9.57475e-05 1.3318e-05
9.57475e-05 -0.000110445 7.95387e-06
1.3318e-05 7.95387e-06 -0.000173784
0.00371134 -0.000148037 7.33193e-05
-0.000148037 0.00172556 3.5637e-06
7.33193e-05 3.5637e-06 0.00170782
0.0017793 1.93226e-05 -4.05846e-07
1.93226e-05 0.000156944 -1.93474e-07
-4.05846e-07 -1.93474e-07 4.14856e-05
0.00177044 2.30882e-05 -9.13607e-08
2.30882e-05 0.00010065 6.3801e-08
-9.13607e-08 6.3801e-08 -8.59511e-06
0.00181316 4.4086e-05 -7.64238e-07
4.4086e-05 9.0805e-05 -1.7533e-07
-7.64238e-07 -1.7533e-07 -1.12464e-05
0.00173517 -1.7006e-06 -3.07889e-06
-1.7006e-06 0.000202088 -1.20634e-07
-3.07889e-06 -1.20634e-07 8.48399e-05
0.00176454 7.06294e-06 6.9449e-07
7.06294e-06 0.000150964 -8.87672e-09
6.9449e-07 -8.87672e-09 3.38211e-05
0.00175946 5.40269e-06 1.57877e-07
5.40269e-06 9.66634e-05 -1.79315e-08
1.57877e-07 -1.79315e-08 -1.15538e-05
0.00176915 2.8002e-06 1.00678e-06
2.8002e-06 0.000160217 1.93383e-07
1.00678e-06 1.93383e-07 4.25439e-05
0.00175778 7.38993e-07 1.55451e-06
7.38993e-07 0.000213862 -1.846e-07
1.55451e-06 -1.846e-07 9.50385e-05
0.0008371 -3.29616e-06 -1.14112e-05
-3.29616e-06 -0.000200853 8.51143e-07
-1.14112e-05 8.51143e-07 -0.000310723
0.00183073 -9.20086e-06 5.39676e-06
-9.20086e-06 0.000265799 -7.00477e-07
5.39676e-06 -7.00477e-07 0.000146306
0.00101813 -1.07681e-05 -2.41536e-06
-1.07681e-05 -9.16057e-05 5.04325e-07
-2.41536e-06 5.04325e-07 -0.000199183
0.00070778 -7.27874e-06 -1.51959e-05
-7.27874e-06 -9.62769e-05 2.07458e-06
-1.51959e-05 2.07458e-06 -0.000158922
0.00117988 -3.1918e-05 9.92275e-06
-3.1918e-05 1.35372e-05 -2.32197e-06
9.92275e-06 -2.32197e-06 -8.98231e-05
0.000698913 -1.49107e-05 2.8467e-07
-1.49107e-05 -8.98275e-05 -2.46939e-08
2.8467e-07 -2.46939e-08 -0.000149539
0.00496292 -3.26518e-05 -0.000132276
-3.26518e-05 0.00236019 3.1554e-06
-0.000132276 3.1554e-06 0.00235801
0.000683439 -2.16206e-05 1.38407e-05
-2.16206e-05 -8.90948e-05 -3.22202e-06
1.38407e-05 -3.22202e-06 -0.00014617
0.00487982 -8.74645e-06 7.43433e-06
-8.74645e-06 0.00231773 1.31074e-07
7.43433e-06 1.31074e-07 0.00231524
0.00149047 -1.61157e-05 0.000115655
-1.61157e-05 0.000455488 -5.18231e-06
0.000115655 -5.18231e-06 0.000436826
0.00180872 2.29836e-05 -4.06165e-07
2.29836e-05 0.000199719 -5.99441e-08
-4.06165e-07 -5.99441e-08 8.58534e-05
0.00175299 3.41864e-05 -3.94782e-07
3.41864e-05 0.000120123 9.96337e-08
-3.94782e-07 9.96337e-08 1.11982e-05
0.00143319 3.13556e-05 -3.83548e-06
3.13556e-05 5.45536e-05 -2.88918e-07
-3.83548e-06 -2.88918e-07 -6.07494e-05
0.00159015 3.22546e-05 4.01476e-07
3.22546e-05 8.21007e-05 9.85711e-10
4.01476e-07 9.85711e-10 -3.40576e-05
0.0017729 3.90576e-05 -3.98151e-07
3.90576e-05 0.000114775 -9.05935e-07
-3.98151e-07 -9.05935e-07 8.10709e-06
0.00117154 5.47224e-05 -1.00071e-05
5.47224e-05 7.24513e-06 -1.83737e-06
-1.00071e-05 -1.83737e-06 -9.31976e-05
0.00143791 6.29257e-05 -4.82983e-08
6.29257e-05 6.02665e-05 2.74956e-07
-4.82983e-08 2.74956e-07 -5.76535e-05
0.00152457 5.53126e-05 8.05986e-07
5.53126e-05 4.64725e-05 -3.34006e-07
8.05986e-07 -3.34006e-07 -7.3939e-05
0.000654758 5.61023e-05 -1.50529e-05
5.61023e-05 -0.000104125 -4.21081e-06
-1.50529e-05 -4.21081e-06 -0.000162355
0.000918112 7.43559e-05 -2.98999e-06
7.43559e-05 -0.0001191 -5.43026e-07
-2.98999e-06 -5.43026e-07 -0.000222291
0.00188219 0.000110495 4.84041e-06
0.000110495 0.000316163 1.03027e-06
4.84041e-06 1.03027e-06 0.000197757
0.00498674 4.19693e-05 -0.000137058
4.19693e-05 0.00237956 -7.18126e-06
-0.000137058 -7.18126e-06 0.00237631
0.000625981 7.63312e-05 1.45398e-07
7.63312e-05 -0.00010454 1.27686e-07
1.45398e-07 1.27686e-07 -0.00016502
0.000676956 8.53021e-05 6.90664e-06
8.53021e-05 -0.000231221 2.12939e-06
6.90664e-06 2.12939e-06 -0.000336988
0.00476764 -7.73677e-06 9.01666e-06
-7.73677e-06 0.0022808 2.54572e-07
9.01666e-06 2.54572e-07 0.0022703
0.000575962 8.84755e-05 1.423e-05
8.84755e-05 -0.000109548 7.12441e-06
1.423e-05 7.12441e-06 -0.000173626
0.00417523 -0.000104853 8.95933e-05
-0.000104853 0.00197565 5.76182e-06
8.95933e-05 5.76182e-06 0.00196063
0.00173381 1.62428e-05 -2.81316e-06
1.62428e-05 0.000205975 -5.12823e-07
-2.81316e-06 -5.12823e-07 9.09777e-05
0.00177152 1.56171e-05 7.15397e-08
1.56171e-05 0.000154912 1.05064e-07
7.15397e-08 1.05064e-07 3.91384e-05
0.00173307 2.16919e-05 -1.10054e-07
2.16919e-05 8.44611e-05 2.77551e-07
-1.10054e-07 2.77551e-07 -2.52833e-05
0.000830973 -1.08393e-05 -1.19268e-05
-1.08393e-05 -0.00020276 -5.41999e-08
-1.19268e-05 -5.41999e-08 -0.000311545
0.00175732 4.9686e-06 1.61728e-06
4.9686e-06 0.000214377 -4.66969e-08
1.61728e-06 -4.66969e-08 9.70593e-05
0.00178423 6.48597e-06 1.46342e-06
6.48597e-06 0.000162071 8.51608e-08
1.46342e-06 8.51608e-08 4.58794e-05
0.00176034 8.25613e-07 5.79701e-06
8.25613e-07 0.000215392 -2.17245e-07
5.79701e-06 -2.17245e-07 9.6507e-05
0.000830393 -3.54056e-06 -1.83577e-06
-3.54056e-06 -0.000204653 2.13698e-07
-1.83577e-06 2.13698e-07 -0.000314547
0.000740845 -6.87392e-06 -1.56056e-05
-6.87392e-06 -8.64582e-05 8.23834e-07
-1.56056e-05 8.23834e-07 -0.000150216
0.00119227 -8.37224e-06 7.98086e-06
-8.37224e-06 4.55251e-06 -1.28574e-06
7.98086e-06 -1.28574e-06 -0.000101349
0.000711895 2.08755e-06 1.99094e-07
2.08755e-06 -9.49778e-05 1.60288e-07
1.99094e-07 1.60288e-07 -0.000157469
0.00515751 -5.29431e-05 -0.000137888
-5.29431e-05 0.00246426 1.94721e-06
-0.000137888 1.94721e-06 0.00246018
0.0007177 -2.94169e-06 1.44534e-05
-2.94169e-06 -8.07431e-05 -2.40993e-06
1.44534e-05 -2.40993e-06 -0.000140369
0.00502684 1.93848e-05 6.142e-06
1.93848e-05 0.0023951 2.68997e-07
6.142e-06 2.68997e-07 0.00239192
0.00490707 -4.41462e-05 0.000142491
-4.41462e-05 0.00233128 -3.72427e-06
0.000142491 -3.72427e-06 0.00232929
0.00149923 1.93592e-05 -3.87995e-06
1.93592e-05 8.8029e-05 -8.58546e-07
-3.87995e-06 -8.58546e-07 -2.70051e-05
0.00169066 2.42536e-05 4.85568e-07
2.42536e-05 0.00013485 -2.79598e-08
4.85568e-07 -2.79598e-08 2.13917e-05
0.00167632 3.73126e-05 -5.92638e-07
3.73126e-05 7.67521e-05 9.17144e-08
-5.92638e-07 9.17144e-08 -3.17981e-05
0.00117648 2.61663e-05 -9.69388e-06
2.61663e-05 3.99469e-06 -1.54347e-06
-9.69388e-06 -1.54347e-06 -9.58884e-05
0.00145198 3.16068e-05 2.31502e-07
3.16068e-05 6.37928e-05 -4.15524e-08
2.31502e-07 -4.15524e-08 -5.16066e-05
0.00154611 3.15073e-05 5.83225e-07
3.15073e-05 5.8745e-05 -9.08192e-07
5.83225e-07 -9.08192e-07 -5.75388e-05
0.000678989 3.38806e-05 -1.45779e-05
3.38806e-05 -0.000101399 -3.13494e-06
-1.45779e-05 -3.13494e-06 -0.000159721
0.00116865 5.61408e-05 2.64517e-08
5.61408e-05 5.9997e-06 2.50703e-07
2.64517e-08 2.50703e-07 -9.47478e-05
0.00146459 6.34676e-05 4.65822e-06
6.34676e-05 7.33546e-05 9.4314e-07
4.65822e-06 9.4314e-07 -4.45467e-05
0.00500195 6.57763e-05 -0.000148549
6.57763e-05 0.00238156 -6.21403e-06
-0.000148549 -6.21403e-06 0.0023794
0.000659786 5.62375e-05 8.43038e-08
5.62375e-05 -0.000101057 1.00936e-07
8.43038e-08 1.00936e-07 -0.000159418
0.00112936 8.17186e-05 7.28593e-06
8.17186e-05 -2.73346e-06 2.11168e-06
7.28593e-06 2.11168e-06 -0.000105139
0.00491228 5.20661e-05 5.15891e-06
5.20661e-05 0.0023436 9.41413e-07
5.15891e-06 9.41413e-07 0.00233877
0.00062155 7.24768e-05 1.43681e-05
7.24768e-05 -0.000106705 5.48536e-06
1.43681e-05 5.48536e-06 -0.000167216
0.00463505 4.89645e-06 0.000118581
4.89645e-06 0.00220336 7.11142e-06
0.000118581 7.11142e-06 0.00219754
0.00122941 7.87844e-06 -1.05778e-05
7.87844e-06 1.90399e-05 -6.12439e-07
-1.05778e-05 -6.12439e-07 -8.54479e-05
0.00155592 1.1383e-05 1.75918e-06
1.1383e-05 0.000107568 2.66229e-08
1.75918e-06 2.66229e-08 -9.13098e-06
0.00176186 1.081e-05 1.06227e-06
1.081e-05 0.000151587 5.70858e-07
1.06227e-06 5.70858e-07 3.54935e-05
0.000724826 1.94299e-05 -1.59443e-05
1.94299e-05 -0.000100187 -2.4426e-07
-1.59443e-05 -2.4426e-07 -0.000160482
0.000828531 -4.57272e-06 -1.99944e-06
-4.57272e-06 -0.000204752 5.17563e-08
-1.99944e-06 5.17563e-08 -0.000313639
0.00177954 1.14651e-05 6.30903e-06
1.14651e-05 0.00022666 -1.97428e-08
6.30903e-06 -1.97428e-08 0.000109269
0.000822802 -3.32613e-06 7.62061e-06
-3.32613e-06 -0.000208967 -3.77504e-07
7.62061e-06 -3.77504e-07 -0.000318875
0.000711201 2.62849e-06 6.67882e-08
2.62849e-06 -0.000102696 3.00266e-07
6.67882e-08 3.00266e-07 -0.000166292
0.00528045 5.50686e-05 -0.000145016
5.50686e-05 0.00252639 -5.85424e-07
-0.000145016 -5.85424e-07 0.00252328
0.000697658 1.11478e-05 1.47301e-05
1.11478e-05 -0.000103248 -1.33123e-06
1.47301e-05 -1.33123e-06 -0.000165661
0.00519233 -3.34483e-05 -2.26636e-06
-3.34483e-05 0.00248006 8.90869e-07
-2.26636e-06 8.90869e-07 0.00247715
0.00507073 4.26994e-05 0.000137786
4.26994e-05 0.00241618 -1.46555e-06
0.000137786 -1.46555e-06 0.00241371
0.00120566 1.28322e-05 -1.02705e-05
1.28322e-05 1.36705e-05 -1.60858e-06
-1.02705e-05 -1.60858e-06 -8.81052e-05
0.00140838 1.77089e-05 4.08277e-08
1.77089e-05 3.68786e-05 -1.50346e-07
4.08277e-08 -1.50346e-07 -7.84667e-05
0.00157631 2.54585e-05 7.6303e-07
2.54585e-05 7.19584e-05 -3.21806e-07
7.6303e-07 -3.21806e-07 -4.10954e-05
0.0025127 1.65904e-05 -7.67728e-05
1.65904e-05 0.000899743 -2.13746e-06
-7.67728e-05 -2.13746e-06 0.000855174
0.00118373 2.81143e-05 1.63591e-07
2.81143e-05 7.68055e-06 5.76158e-08
1.63591e-07 5.76158e-08 -9.24155e-05
0.00147238 3.17411e-05 4.36303e-06
3.17411e-05 7.38834e-05 2.32624e-07
4.36303e-06 2.32624e-07 -4.16124e-05
0.0050151 6.7317e-05 -0.000153214
6.7317e-05 0.00238727 -4.74189e-06
-0.000153214 -4.74189e-06 0.00238447
0.000702822 3.66696e-05 1.8134e-07
3.66696e-05 -8.76884e-05 1.54837e-07
1.8134e-07 1.54837e-07 -0.00014627
0.00117283 5.77026e-05 1.00369e-05
5.77026e-05 8.37166e-06 2.30463e-06
1.00369e-05 2.30463e-06 -9.2658e-05
0.00496909 7.73959e-05 8.27368e-07
7.73959e-05 0.00236771 9.44365e-07
8.27368e-07 9.44365e-07 0.00236422
0.000667261 5.61388e-05 1.45606e-05
5.61388e-05 -9.63292e-05 4.46547e-06
1.45606e-05 4.46547e-06 -0.000154829
0.00484247 6.72435e-05 0.000135288
6.72435e-05 0.00230681 7.93738e-06
0.000135288 7.93738e-06 0.00230221
0.000761732 7.95028e-06 -1.58092e-05
7.95028e-06 -7.47041e-05 -1.59637e-06
-1.58092e-05 -1.59637e-06 -0.000137515
0.00103623 5.17419e-06 4.76521e-07
5.17419e-06 -8.66429e-05 4.11386e-07
4.76521e-07 4.11386e-07 -0.000192464
0.00137148 6.41053e-06 5.6571e-06
6.41053e-06 5.55582e-06 5.72581e-07
5.6571e-06 5.72581e-07 -0.000112809
0.00528835 -7.76617e-05 -0.000134263
-7.76617e-05 0.0025408 -1.98067e-06
-0.000134263 -1.98067e-06 0.00253097
0.000720874 9.39492e-06 -1.90409e-07
9.39492e-06 -9.93856e-05 2.283e-07
-1.90409e-07 2.283e-07 -0.000161407
0.000835131 1.33777e-06 7.84113e-06
1.33777e-06 -0.000201935 6.89224e-08
7.84113e-06 6.89224e-08 -0.000310913
0.000699486 1.55465e-05 1.50827e-05
1.55465e-05 -0.000109207 -2.86702e-08
1.50827e-05 -2.86702e-08 -0.000172813
0.0053036 3.48126e-05 4.83423e-06
3.48126e-05 0.00254232 4.53389e-07
4.83423e-06 4.53389e-07 0.00253637
0.00526393 7.46353e-05 0.000139638
7.46353e-05 0.00251897 -6.65824e-08
0.000139638 -6.65824e-08 0.00251438
0.00259096 -4.83579e-06 -7.86413e-05
-4.83579e-06 0.000934625 -1.86357e-06
-7.86413e-05 -1.86357e-06 0.00088846
0.00121501 1.50934e-05 -7.30078e-08
1.50934e-05 1.85003e-05 -1.43045e-08
-7.30078e-08 -1.43045e-08 -8.32791e-05
0.00131714 1.62042e-05 4.08575e-06
1.62042e-05 -1.45177e-05 5.01249e-07
4.08575e-06 5.01249e-07 -0.000130169
0.00478884 -6.45591e-06 -3.03465e-05
-6.45591e-06 0.0022722 -9.86836e-07
-3.03465e-05 -9.86836e-07 0.00226073
0.000734528 2.18017e-05 -5.8134e-08
2.18017e-05 -7.51462e-05 1.94262e-07
-5.8134e-08 1.94262e-07 -0.00013511
0.00120726 3.07297e-05 9.94634e-06
3.07297e-05 1.98225e-05 1.71419e-06
9.94634e-06 1.71419e-06 -8.04406e-05
0.00502196 5.53473e-05 -6.43065e-06
5.53473e-05 0.00239091 2.90484e-07
-6.43065e-06 2.90484e-07 0.00238886
0.000729923 4.55965e-05 1.54227e-05
4.55965e-05 -7.14635e-05 3.72517e-06
1.54227e-05 3.72517e-06 -0.000130679
0.00493948 9.15216e-05 0.000143585
9.15216e-05 0.00235482 7.78831e-06
0.000143585 7.78831e-06 0.00235017
0.00171659 -2.47973e-05 -0.00013453
-2.47973e-05 0.000560873 2.94084e-07
-0.00013453 2.94084e-07 0.000539303
0.00166459 1.407e-05 -3.21226e-05
1.407e-05 0.00042065 3.89213e-07
-3.21226e-05 3.89213e-07 0.00036763
0.000844094 5.38995e-06 1.02961e-05
5.38995e-06 -0.000191674 1.28063e-06
1.02961e-05 1.28063e-06 -0.000298854
0.0052772 -3.12707e-05 7.5064e-06
-3.12707e-05 0.002531 -9.74011e-07
7.5064e-06 -9.74011e-07 0.00252411
0.000707609 8.23068e-07 1.57676e-05
8.23068e-07 -0.000104339 7.55447e-07
1.57676e-05 7.55447e-07 -0.00016743
0.00530412 -3.74013e-05 0.000152257
-3.74013e-05 0.00253988 4.35842e-07
0.000152257 4.35842e-07 0.00253592
0.00140792 -6.34068e-05 -8.81231e-06
-6.34068e-05 0.000413809 -8.10328e-07
-8.81231e-06 -8.10328e-07 0.000378781
0.00165645 9.22009e-06 -3.15494e-05
9.22009e-06 0.000423968 -4.71013e-08
-3.15494e-05 -4.71013e-08 0.000370549
0.0012158 1.55464e-05 9.95468e-06
1.55464e-05 1.89636e-05 1.62427e-06
9.95468e-06 1.62427e-06 -8.28486e-05
0.00321924 3.58522e-05 5.48133e-05
3.58522e-05 0.00140346 4.59761e-07
5.48133e-05 4.59761e-07 0.00138591
0.000749414 3.03971e-05 1.56725e-05
3.03971e-05 -6.6862e-05 3.08045e-06
1.56725e-05 3.08045e-06 -0.000127149
0.00501112 9.57647e-05 0.000145495
9.57647e-05 0.00239081 6.58936e-06
0.000145495 6.58936e-06 0.00238589
0.0052292 -3.43563e-05 -9.08101e-06
-3.43563e-05 0.002506 3.34797e-07
-9.08101e-06 3.34797e-07 0.00249912
0.000720198 2.372e-05 1.61513e-05
2.372e-05 -9.73467e-05 1.6832e-06
1.61513e-05 1.6832e-06 -0.000157318
0.0052539 6.71909e-05 0.000137896
6.71909e-05 0.00252002 -1.45023e-06
0.000137896 -1.45023e-06 0.00251232
0.00326992 2.05755e-05 6.70554e-05
2.05755e-05 0.00142862 8.2273e-07
6.70554e-05 8.2273e-07 0.00141092
0.000729032 9.53403e-06 1.53651e-05
9.53403e-06 -8.35559e-05 2.40049e-06
1.53651e-05 2.40049e-06 -0.00014471
0.00505862 -1.01367e-05 0.000137069
-1.01367e-05 0.00240901 3.37003e-06
0.000137069 3.37003e-06 0.00240732
0.00518699 -0.000124695 0.000131339
-0.000124695 0.00248979 -5.79307e-08
0.000131339 -5.79307e-08 0.0024788
0.00510764 -6.76136e-05 0.000133085
-6.76136e-05 0.00243858 1.40794e-06
0.000133085 1.40794e-06 0.00243389
