# vtk DataFile Version 2.0
Wound Healing Simulation
ASCII
DATASET UNSTRUCTURED_GRID
POINTS 3012 float
69.9759 18.75 4
67.2507 60.3285 4
69.976 18.75 2
73.0099 25.446 4
71.1327 20.9142 4
68.6801 16.6661 4
67.8276 19.9251 3.98719
67.2507 60.3286 2
71.1327 54.0858 4
68.6801 58.3339 4
65.6939 62.2254 4
65.314 59.0037 3.98823
74.6784 42.3946 4
73.7221 47.2057 4
69.9759 18.75 0
73.0099 25.446 2
68.6801 16.6661 2
71.1327 20.9142 2
67.8281 19.9267 2
74.6792 32.6053 4
73.7222 27.7943 4
72.1454 23.1494 4
70.6156 26.2224 3.98576
68.8877 21.9585 3.9868
67.2507 14.6715 4
66.6391 17.9697 3.9878
65.8027 21.0222 3.98162
67.2507 60.3285 0
71.1327 54.0858 2
68.6801 58.3339 2
65.694 62.2255 2
65.3146 59.003 2
72.1454 51.8506 4
69.9759 56.25 4
68.8384 53.1128 3.98639
64.0165 64.0165 4
66.6127 57.1356 3.98791
63.8873 60.7685 3.98963
63.505 57.778 3.98342
60.3285 67.2507 4
74.6792 42.3947 2
73.7222 47.2057 2
74.9194 39.9526 4
74.2788 44.8158 4
72.1689 42.0856 3.98399
73.0099 49.554 4
71.2506 46.5975 3.9855
73.0099 25.446 0
71.1327 20.9142 0
68.6801 16.6661 0
67.8276 19.9251 0.0128113
74.6792 32.6053 2
73.7222 27.7943 2
67.2508 14.6715 2
72.1455 23.1494 2
70.6156 26.2231 2
66.6397 17.9706 2
68.888 21.9601 2
65.8028 21.0216 2
74.9197 35.0474 4
74.2794 30.1841 4
72.1857 32.9434 3.98463
71.2795 28.4323 3.98568
69.8173 24.0609 3.98633
68.3503 26.952 3.97747
66.7676 22.932 3.98009
65.694 12.7746 4
65.3255 16.1005 3.98885
64.7194 19.1894 3.98301
63.8953 22.0297 3.97834
71.1327 54.0858 0
65.6939 62.2254 0
68.6801 58.3339 0
65.314 59.0037 0.0117742
72.1455 51.8506 2
69.9759 56.25 2
68.8387 53.1111 2
64.0165 64.0165 2
66.6133 57.1344 2
63.8878 60.7682 2
63.5052 57.7788 2
62.2254 65.694 4
58.8949 65.4158 3.99264
69.7707 50.9879 3.98598
67.7858 55.1683 3.9873
66.6545 52.2108 3.97961
62.3374 62.4297 3.99115
64.6664 56.0366 3.98329
62.2063 59.4115 3.98399
61.8302 56.6908 3.98078
58.3339 68.6801 4
60.3285 67.2508 2
73.7221 47.2057 0
74.6784 42.3946 0
74.9197 39.9526 2
74.2794 44.8159 2
72.1689 42.0857 2
73.0099 49.554 2
71.2506 46.5973 2
75 37.5 4
72.4059 39.8022 3.98329
71.7836 44.3527 3.98498
69.8063 41.7898 3.97601
70.5767 48.8126 3.98583
68.9159 46.015 3.97721
74.6792 32.6053 0
73.7222 27.7943 0
67.2507 14.6715 0
72.1454 23.1494 0
70.6156 26.2224 0.0142357
68.8877 21.9585 0.0131997
66.6391 17.9697 0.0122049
65.8027 21.0222 0.018382
74.9197 35.0474 2
74.2794 30.1841 2
72.1856 32.9433 2
71.2795 28.4325 2
65.694 12.7745 2
65.326 16.1008 2
69.8175 24.0622 2
68.3502 26.9522 2
64.7197 19.1885 2
66.7674 22.9319 2
63.8955 22.029 2
72.4138 35.2242 3.98355
71.805 30.6766 3.98546
69.8426 33.2687 3.97672
68.9696 29.0386 3.97757
67.6155 24.912 3.97859
66.1992 27.634 3.97428
64.0165 10.9835 4
64.7637 23.8269 3.97671
63.8915 14.3242 3.99
63.5181 17.4395 3.98445
62.9155 20.3121 3.97962
62.1029 22.9355 3.97655
60.6848 11.0955 3.99172
57.6133 11.4405 3.98673
72.1454 51.8506 0
69.9759 56.25 0
68.8384 53.1128 0.0136128
64.0165 64.0165 0
63.8873 60.7685 0.0103688
66.6127 57.1356 0.0120893
63.505 57.778 0.0165825
62.2255 65.694 2
58.8951 65.4158 2
69.7709 50.9867 2
67.7864 55.1666 2
66.6543 52.211 2
62.3378 62.4295 2
64.6666 56.0374 2
62.2064 59.4122 2
61.8304 56.6917 2
60.6696 63.9788 3.99196
57.0254 66.7365 3.99319
57.5589 63.6967 3.98733
67.5118 50.1774 3.97826
65.7077 54.1766 3.98176
64.5448 51.3892 3.97584
60.7754 60.9446 3.98504
62.8287 55.0762 3.98077
60.6637 58.1696 3.9809
60.3367 55.7976 3.97967
56.25 69.9759 4
58.3339 68.6801 2
60.3285 67.2507 0
58.9219 9.65378 3.99235
62.2254 9.30607 4
73.0099 49.554 0
74.2788 44.8158 0
71.2506 46.5975 0.0145009
72.1689 42.0856 0.0160143
74.9194 39.9526 0
75 37.5 2
72.4058 39.8024 2
71.7836 44.3527 2
69.8063 41.7898 2
70.5768 48.8118 2
68.9158 46.0148 2
72.4892 37.5121 3.98327
70.0425 39.6575 3.97478
69.4335 43.9077 3.977
67.6005 41.4986 3.97261
68.2699 48.1075 3.97764
66.7149 45.4416 3.97413
74.9197 35.0474 0
74.2794 30.1841 0
72.1857 32.9434 0.0153705
71.2795 28.4323 0.014321
65.694 12.7746 0
65.3255 16.1005 0.0111461
69.8173 24.0609 0.0136671
68.3503 26.952 0.0225266
66.7676 22.932 0.0199064
64.7194 19.1894 0.0169917
63.8953 22.0297 0.0216561
72.4137 35.2241 2
71.8051 30.6766 2
69.8427 33.2689 2
68.9697 29.0388 2
64.0165 10.9835 2
63.8918 14.3244 2
63.5183 17.4386 2
67.6153 24.9121 2
66.1991 27.6339 2
62.9159 20.3111 2
64.7637 23.8264 2
62.1031 22.935 2
60.6851 11.0956 2
57.6133 11.4398 2
70.0595 35.3923 3.97538
69.4704 31.1498 3.97749
67.6594 33.5907 3.97339
66.7772 29.622 3.97433
65.5297 25.6978 3.97526
64.1516 28.2535 3.97328
62.3427 12.6525 3.99095
62.8652 24.6323 3.97505
62.2023 15.777 3.98495
61.8212 18.6743 3.9813
61.2279 21.3313 3.97739
60.4366 23.718 3.97589
59.2475 12.7719 3.98525
55.8751 10.2272 3.98817
56.4065 13.1033 3.98351
69.7707 50.9879 0.0140182
62.2254 65.694 0
58.8949 65.4158 0.0073634
67.7858 55.1683 0.0127016
66.6545 52.2108 0.0203937
62.3374 62.4297 0.00884912
62.2063 59.4115 0.0160106
64.6664 56.0366 0.0167107
61.8302 56.6908 0.0192163
60.6699 63.9788 2
57.0257 66.7366 2
57.5588 63.6975 2
67.5117 50.1773 2
65.7078 54.1772 2
64.5447 51.3897 2
60.7755 60.9455 2
62.8289 55.0772 2
60.6638 58.1705 2
60.337 55.7984 2
55.0708 67.9334 3.99346
59.2208 62.372 3.98575
55.8053 64.9142 3.9889
56.3284 62.0976 3.98412
65.3378 49.4109 3.97478
63.7145 53.2986 3.97847
62.4499 50.658 3.9739
59.3368 59.5667 3.98271
61.0873 54.3197 3.97975
59.2957 57.0247 3.97872
59.2517 55.1958 3.98068
48.1033 68.5816 3.99026
50.9485 69.933 3.99389
54.0858 71.1327 4
56.25 69.976 2
58.3339 68.6801 0
57.059 8.33369 3.99276
60.3285 7.74928 4
58.9222 9.65379 2
62.2255 9.30602 2
70.5767 48.8126 0.0141703
71.7836 44.3527 0.0150237
68.9159 46.015 0.0227904
69.8063 41.7898 0.0239864
72.4059 39.8022 0.0167089
75 37.5 0
72.4892 37.5122 2
70.0425 39.6575 2
69.4336 43.9076 2
67.6005 41.4987 2
68.2698 48.1073 2
66.7148 45.4417 2
70.1307 37.5218 3.97499
67.8363 39.513 3.97148
67.2282 43.4715 3.9738
65.5597 41.212 3.97162
66.0743 47.4201 3.97456
64.6583 44.8517 3.97316
72.4138 35.2242 0.0164493
71.805 30.6766 0.0145416
69.8426 33.2687 0.0232784
68.9696 29.0386 0.022435
64.0165 10.9835 0
63.8915 14.3242 0.0099981
63.5181 17.4395 0.0155528
67.6155 24.912 0.0214094
66.1992 27.634 0.0257163
64.7637 23.8269 0.0232923
62.9155 20.3121 0.0203844
62.1029 22.9355 0.0234504
60.6848 11.0955 0.00828232
57.6133 11.4405 0.0132706
70.0595 35.3925 2
69.4706 31.1499 2
67.6595 33.5907 2
66.7772 29.6219 2
62.343 12.6527 2
62.2023 15.7765 2
61.8215 18.6733 2
65.5296 25.6975 2
64.1516 28.2534 2
61.2284 21.3305 2
62.8652 24.6319 2
60.4369 23.7175 2
59.2475 12.7713 2
56.4065 13.1024 2
55.8751 10.2265 2
67.873 35.5478 3.97216
67.2703 31.6217 3.97426
65.7026 33.9264 3.97205
64.6689 30.19 3.97321
63.5445 26.4112 3.97375
62.2631 28.7746 3.97383
60.7772 14.2163 3.98484
61.0537 25.3313 3.97422
60.6178 17.117 3.98274
60.2315 19.804 3.97926
59.6723 22.2465 3.97587
58.9895 24.3092 3.9766
54.0381 9.13082 3.98874
57.9121 14.3221 3.9832
54.7876 12.0024 3.98479
55.314 14.6339 3.98215
67.5118 50.1774 0.0217434
57.0254 66.7365 0.00680729
60.6696 63.9788 0.00803726
57.5589 63.6967 0.0126709
65.7077 54.1766 0.0182406
64.5448 51.3892 0.024158
60.7754 60.9446 0.0149627
60.6637 58.1696 0.0191001
62.8287 55.0762 0.0192308
60.3367 55.7976 0.0203311
55.0711 67.9335 2
59.2207 62.3729 2
55.8052 64.9148 2
56.3284 62.0985 2
65.3378 49.4112 2
63.7147 53.2994 2
62.45 50.6585 2
59.3369 59.5677 2
61.0876 54.3205 2
59.2959 57.0255 2
59.2521 55.1965 2
53.0427 69.0012 3.99371
53.9675 66.0162 3.98953
57.8829 60.8786 3.98338
54.6848 63.214 3.98551
55.2133 60.6256 3.98247
63.2012 48.6657 3.97329
61.7517 52.5836 3.97684
60.2821 50.0275 3.97283
58.0226 58.2725 3.98029
59.338 53.9595 3.97891
58.1343 55.8254 3.97672
50.11 67.8596 3.9901
47.464 66.586 3.988
46.057 69.1612 3.99047
48.1033 68.5821 2
48.8027 70.7242 3.99404
50.9488 69.9331 2
51.8506 72.1454 4
54.0858 71.1327 2
56.25 69.9759 0
55.1032 7.13828 3.99298
58.3339 6.31992 4
57.0593 8.33361 2
60.3286 7.74926 2
58.9219 9.65378 0.00765403
62.2254 9.30607 0
68.2699 48.1075 0.0223611
69.4335 43.9077 0.0229963
66.7149 45.4416 0.0258717
67.6005 41.4986 0.0273884
70.0425 39.6575 0.0252191
72.4892 37.5121 0.0167324
70.1307 37.5219 2
67.8363 39.5131 2
67.2282 43.4715 2
65.5597 41.2121 2
66.0742 47.4202 2
64.6583 44.8519 2
67.9328 37.5226 3.9717
65.7898 39.3718 3.97062
65.1816 43.0283 3.97275
63.76 40.9326 3.97145
63.9722 46.7206 3.97345
62.8141 44.2213 3.97357
70.0595 35.3923 0.0246185
69.4704 31.1498 0.0225137
67.6594 33.5907 0.0266117
66.7772 29.622 0.025668
62.3427 12.6525 0.00905248
62.2023 15.777 0.0150477
61.8212 18.6743 0.0186996
65.5297 25.6978 0.0247381
64.1516 28.2535 0.0267203
62.8652 24.6323 0.0249508
61.2279 21.3313 0.0226083
60.4366 23.718 0.0241137
59.2475 12.7719 0.0147511
56.4065 13.1033 0.0164874
55.8751 10.2272 0.0118303
67.873 35.5478 2
67.2704 31.6216 2
65.7027 33.9263 2
64.669 30.1898 2
60.7772 14.2158 2
60.6179 17.1162 2
60.232 19.8031 2
63.5445 26.4109 2
62.2632 28.7744 2
59.6728 22.2459 2
61.0539 25.331 2
58.9898 24.3089 2
57.912 14.3213 2
55.3139 14.6331 2
54.0381 9.13021 2
54.7877 12.0016 2
65.8794 35.667 3.97101
65.1923 32.1523 3.97301
64.2896 34.2492 3.97273
62.6019 30.6328 3.97256
61.6579 27.0681 3.97282
60.8568 29.1356 3.97422
59.3135 15.6588 3.9832
59.3399 25.7876 3.9765
59.1298 18.3429 3.98156
58.7497 20.8404 3.97715
58.296 23.0794 3.97458
57.9791 24.6533 3.97702
52.1127 8.1495 3.98907
53.0585 11.0091 3.98573
56.6787 15.7305 3.98235
53.8105 13.6688 3.98316
54.3781 15.985 3.98192
55.0708 67.9334 0.00653544
65.3378 49.4109 0.025219
55.8053 64.9142 0.011098
59.2208 62.372 0.0142534
56.3284 62.0976 0.0158784
63.7145 53.2986 0.0215306
62.4499 50.658 0.0260969
59.3368 59.5667 0.0172858
59.2957 57.0247 0.0212795
61.0873 54.3197 0.0202502
59.2517 55.1958 0.0193152
53.0429 69.0013 2
53.9673 66.0168 2
57.8829 60.8794 2
54.6846 63.2148 2
55.2132 60.6267 2
63.2013 48.666 2
61.752 52.5844 2
60.2822 50.0279 2
58.0229 58.2735 2
59.3384 53.9602 2
58.1346 55.8261 2
52.071 67.0026 3.98988
52.9539 64.2242 3.98669
56.6512 59.4991 3.98201
53.6823 61.631 3.98365
54.2625 59.332 3.98089
61.0013 47.8873 3.97247
59.7207 52.1158 3.97639
58.0339 49.6286 3.97426
56.782 57.0001 3.97672
57.1302 54.1352 3.97693
50.1099 67.86 2
49.3376 65.9263 3.98784
47.4638 66.5866 2
46.8928 64.7435 3.98648
45.5591 67.1036 3.98787
43.974 69.5936 3.99048
46.057 69.1616 2
46.6093 71.3687 3.99421
48.1033 68.5816 0.00974045
48.8029 70.7244 2
49.554 73.0099 4
50.9485 69.933 0.00610888
51.8506 72.1455 2
54.0858 71.1327 0
53.0642 6.06986 3.99317
55.1035 7.13818 2
56.25 5.02411 4
58.3339 6.3199 2
57.059 8.33369 0.00723642
60.3285 7.74928 0
66.0743 47.4201 0.0254352
67.2282 43.4715 0.026198
64.6583 44.8517 0.0268436
65.5597 41.212 0.0283832
67.8363 39.513 0.0285155
70.1307 37.5218 0.0250073
67.9328 37.5226 2
65.7898 39.3718 2
65.1816 43.0285 2
63.7601 40.9327 2
63.9722 46.7208 2
62.8141 44.2214 2
65.8931 37.5027 3.97047
63.9023 39.2688 3.97065
63.3354 42.5544 3.97256
62.4366 40.701 3.97178
61.9753 45.9251 3.97358
61.4599 43.6892 3.97442
67.873 35.5478 0.0278446
67.2703 31.6217 0.0257369
65.7026 33.9264 0.0279519
64.6689 30.19 0.0267851
60.7772 14.2163 0.0151629
60.6178 17.117 0.0172616
60.2315 19.804 0.0207393
63.5445 26.4112 0.0262454
62.2631 28.7746 0.0261689
61.0537 25.3313 0.0257848
59.6723 22.2465 0.0241279
58.9895 24.3092 0.0233955
57.9121 14.3221 0.0168048
55.314 14.6339 0.0178459
54.0381 9.13082 0.0112648
54.7876 12.0024 0.0152092
65.8795 35.667 2
65.1924 32.1521 2
64.2897 34.2492 2
62.602 30.6327 2
59.3134 15.658 2
59.1301 18.3419 2
58.7504 20.8395 2
61.6579 27.0679 2
60.8569 29.1354 2
58.2966 23.0789 2
59.34 25.7874 2
57.9795 24.653 2
56.6785 15.7297 2
54.3779 15.9841 2
53.8105 13.6678 2
52.1126 8.14898 2
53.0584 11.0084 2
64.0946 35.6324 3.97089
62.9382 33.0448 3.9724
60.6229 30.6081 3.97209
59.5786 27.9034 3.97258
57.9429 16.9713 3.9824
57.7497 25.7155 3.97879
57.7217 19.462 3.98002
57.3804 21.8261 3.97459
57.1968 23.9346 3.97414
50.1127 7.28158 3.98933
51.2328 10.1177 3.98642
52.1726 12.7864 3.98436
55.5399 16.959 3.98232
52.9789 15.2499 3.98151
53.7603 16.9665 3.98203
53.0427 69.0012 0.00629063
53.9675 66.0162 0.010473
63.2012 48.6657 0.0267067
54.6848 63.214 0.014491
57.8829 60.8786 0.016617
55.2133 60.6256 0.0175277
61.7517 52.5836 0.0231574
60.2821 50.0275 0.0271721
58.0226 58.2725 0.0197093
58.1343 55.8254 0.0232824
59.338 53.9595 0.0210917
52.0709 67.0031 2
52.9537 64.2249 2
56.6512 59.5 2
53.6821 61.6319 2
54.2624 59.3332 2
61.0015 47.8876 2
59.7211 52.1165 2
58.0341 49.6287 2
56.7824 57.0012 2
57.1308 54.1355 2
51.1684 65.1331 3.98742
52.0468 62.5462 3.98488
55.4841 58.2611 3.98126
52.8361 60.1452 3.98198
53.6429 58.4822 3.98016
58.3153 46.8588 3.97481
57.5708 51.7994 3.9759
56.2561 49.5642 3.98151
55.4777 55.8051 3.97623
55.3658 53.3931 3.97102
50.11 67.8596 0.00990264
49.3374 65.9267 2
48.6185 64.1297 3.98605
47.464 66.586 0.011998
45.5589 67.1041 2
46.8926 64.744 2
46.3821 63.0622 3.9853
45.1331 65.205 3.9866
43.6321 67.4746 3.98801
41.8611 69.8811 3.99041
43.974 69.594 2
44.3767 71.8635 3.99416
46.057 69.1612 0.00953477
46.6096 71.3689 2
47.2057 73.7222 4
48.8027 70.7242 0.00595935
49.554 73.0099 2
51.8506 72.1454 0
50.9538 5.13028 3.99337
53.0644 6.06973 2
54.0858 3.86728 4
55.1032 7.13828 0.00702129
56.25 5.02406 2
58.3339 6.31992 0
63.9722 46.7206 0.0265503
65.1816 43.0283 0.0272507
62.8141 44.2213 0.0264318
63.76 40.9326 0.0285497
65.7898 39.3718 0.0293761
67.9328 37.5226 0.0283014
65.8931 37.5027 2
63.9023 39.2688 2
63.3354 42.5545 2
62.4366 40.701 2
61.9753 45.9252 2
61.4598 43.6892 2
63.9629 37.458 3.97049
62.1615 39.3572 3.9713
61.2271 41.9633 3.97275
60.2596 44.7778 3.97416
65.8794 35.667 0.028992
65.1923 32.1523 0.0269922
64.2896 34.2492 0.0272696
62.6019 30.6328 0.0274423
59.3135 15.6588 0.0167966
59.1298 18.3429 0.0184391
58.7497 20.8404 0.0228525
61.6579 27.0681 0.0271838
60.8568 29.1356 0.0257779
59.3399 25.7876 0.0235008
58.296 23.0794 0.0254164
57.9791 24.6533 0.0229841
56.6787 15.7305 0.017653
54.3781 15.985 0.0180797
53.8105 13.6688 0.0168433
52.1127 8.1495 0.010926
53.0585 11.0091 0.0142723
64.0946 35.6323 2
62.9385 33.0447 2
60.623 30.608 2
57.9429 16.9704 2
57.7223 19.461 2
57.3811 21.8253 2
59.5786 27.9033 2
57.1974 23.9343 2
57.75 25.7153 2
50.1127 7.28117 2
55.5398 16.958 2
53.7601 16.9654 2
52.9787 15.2489 2
52.1725 12.7856 2
51.2327 10.1172 2
62.1963 35.3589 3.9711
60.3027 32.7441 3.97264
58.6318 30.0705 3.97246
57.2999 27.3709 3.97257
56.64 18.1427 3.98227
56.3033 25.0912 3.97394
56.3643 20.5071 3.97711
56.1184 22.8555 3.97154
48.0563 6.52479 3.98961
49.3245 9.32591 3.98678
50.4333 11.9849 3.98467
51.3786 14.4856 3.98297
54.4177 17.9072 3.98239
52.3628 17.0218 3.98112
52.071 67.0026 0.0101162
52.9539 64.2242 0.0133096
61.0013 47.8873 0.0275261
53.6823 61.631 0.0163498
56.6512 59.4991 0.0179923
54.2625 59.332 0.0191145
59.7207 52.1158 0.0236126
58.0339 49.6286 0.0257416
56.782 57.0001 0.023275
57.1302 54.1352 0.0230724
51.1682 65.1337 2
52.0465 62.547 2
55.4842 58.2623 2
52.8359 60.1462 2
53.6429 58.4834 2
58.3156 46.8589 2
57.5713 51.7996 2
56.2564 49.5644 2
55.4783 55.8063 2
55.3664 53.394 2
50.3467 63.3878 3.9856
51.245 60.9444 3.98302
54.2237 57.276 3.97978
52.3148 58.6449 3.98035
56.7344 44.1935 3.97442
55.5037 47.9074 3.97539
55.0789 51.3954 3.97192
54.011 54.5553 3.97432
49.3376 65.9263 0.0121602
48.6183 64.1302 2
47.9624 62.4831 3.98488
45.5591 67.1036 0.0121338
46.8928 64.7435 0.0135167
43.6319 67.4751 2
46.3819 63.0628 2
45.1328 65.2056 2
45.9875 61.5959 3.98443
44.7674 63.4636 3.98587
43.357 65.515 3.98678
41.6641 67.6937 3.98795
39.7027 70.0283 3.99029
41.8611 69.8816 2
42.1111 72.2083 3.99407
43.974 69.5936 0.00952377
44.3769 71.8638 2
44.8159 74.2794 4
46.6093 71.3687 0.00579293
47.2057 73.7222 2
49.554 73.0099 0
48.7843 4.32134 3.9936
50.9541 5.13014 2
51.8506 2.85458 4
53.0642 6.06986 0.00683138
54.0858 3.86728 2
56.25 5.02411 0
61.9753 45.9251 0.0264206
63.3354 42.5544 0.0274351
61.4599 43.6892 0.0255769
62.4366 40.701 0.028222
63.9023 39.2688 0.0293545
65.8931 37.5027 0.0295286
63.9628 37.4579 2
62.1617 39.3573 2
61.2271 41.9633 2
60.2596 44.7778 2
61.996 37.4454 3.97113
60.2566 39.8511 3.97231
59.0085 42.9252 3.97361
64.0946 35.6324 0.0291146
62.9382 33.0448 0.0276039
60.6229 30.6081 0.0279079
57.9429 16.9713 0.0176042
57.7217 19.462 0.0199771
57.3804 21.8261 0.025413
59.5786 27.9034 0.0274176
57.7497 25.7155 0.0212088
57.1968 23.9346 0.0258645
55.5399 16.959 0.0176795
53.7603 16.9665 0.0179658
52.9789 15.2499 0.0184905
50.1127 7.28158 0.0106745
52.1726 12.7864 0.0156351
51.2328 10.1177 0.0135768
62.1963 35.3588 2
60.3029 32.744 2
58.632 30.0706 2
56.6402 18.1417 2
56.365 20.506 2
56.1193 22.8552 2
57.2999 27.3707 2
56.3038 25.0913 2
48.0564 6.52431 2
49.3244 9.3255 2
54.4177 17.9061 2
52.3625 17.0208 2
51.3785 14.4847 2
50.4332 11.9843 2
59.9037 35.1198 3.9721
58.0117 32.2673 3.97362
56.5577 29.3323 3.97174
55.4573 26.5892 3.97586
55.3463 19.176 3.98196
54.9399 24.0442 3.97041
55.0088 21.5488 3.97459
45.9622 5.87981 3.98995
43.3734 7.46925 3.98803
47.3548 8.61993 3.98706
48.5999 11.2866 3.98523
49.7143 13.7332 3.98366
50.6346 16.1191 3.981
53.1275 18.6459 3.98028
51.3045 18.0346 3.98565
51.1684 65.1331 0.0125809
52.0468 62.5462 0.015119
58.3153 46.8588 0.0251868
52.8361 60.1452 0.0180194
55.4841 58.2611 0.0187423
53.6429 58.4822 0.019844
57.5708 51.7994 0.0240985
56.2561 49.5642 0.0184851
55.4777 55.8051 0.0237679
55.3658 53.3931 0.0289785
50.3464 63.3883 2
51.2448 60.9452 2
54.224 57.2774 2
52.3147 58.6459 2
56.7343 44.1935 2
55.5037 47.9079 2
55.0796 51.3959 2
54.0117 54.5574 2
49.5923 61.7529 3.98429
55.6567 41.7147 3.9752
50.5683 59.3383 3.98043
52.1893 56.5007 3.97695
54.2029 45.5765 3.9765
53.3501 49.3356 3.9752
52.676 52.8576 3.9708
48.6185 64.1297 0.0139516
47.9621 62.4835 2
47.3295 61.0187 3.98389
43.6321 67.4746 0.0119872
45.1331 65.205 0.0134008
46.3821 63.0622 0.0146985
41.6639 67.6942 2
43.3568 65.5155 2
45.9872 61.5965 2
44.7672 63.4642 2
45.7665 60.6406 3.98358
44.4834 61.8459 3.9846
43.1467 63.7365 3.98575
41.5464 65.6531 3.98671
39.633 67.7736 3.98778
37.526 70.0534 3.99018
39.7027 70.0288 2
39.8179 72.4054 3.99401
41.8611 69.8811 0.00959469
42.1113 72.2086 2
42.3947 74.6792 4
44.3767 71.8635 0.00583883
44.8159 74.2794 2
47.2057 73.7222 0
43.8515 5.35687 3.99021
46.5703 3.6459 3.99385
48.7845 4.32114 2
49.554 1.99015 4
50.9538 5.13028 0.00662945
51.8506 2.85453 2
54.0858 3.86728 0
60.2596 44.7778 0.0258386
61.2271 41.9633 0.0272462
62.1615 39.3572 0.0286958
63.9629 37.458 0.0295076
61.9964 37.4454 2
60.2567 39.8511 2
59.0083 42.9252 2
59.7645 37.5686 3.97216
58.0121 40.6631 3.9731
55.1317 39.7275 3.9751
62.1963 35.3589 0.0288963
60.3027 32.7441 0.0273643
58.6318 30.0705 0.0275403
56.64 18.1427 0.0177268
56.3643 20.5071 0.0228902
56.1184 22.8555 0.0284561
57.2999 27.3709 0.0274271
56.3033 25.0912 0.026063
54.4177 17.9072 0.0176144
52.3628 17.0218 0.0188765
51.3786 14.4856 0.0170323
48.0563 6.52479 0.0103923
49.3245 9.32591 0.0132171
50.4333 11.9849 0.0153313
59.9042 35.1198 2
45.9622 5.87934 2
43.3734 7.46878 2
58.0118 32.2673 2
56.5582 29.3324 2
55.3468 19.1748 2
55.0098 21.5472 2
54.9408 24.0447 2
55.4574 26.5896 2
47.3548 8.6194 2
48.5998 11.2863 2
53.1276 18.6447 2
51.3045 18.0339 2
50.6343 16.1182 2
49.7142 13.7325 2
57.4146 34.7602 3.97437
55.747 31.5148 3.97304
54.5141 28.3937 3.97585
53.7827 25.4865 3.97412
53.9738 20.1233 3.98171
53.5888 22.6967 3.97141
41.3984 7.07439 3.98827
45.3595 7.99129 3.98735
42.865 9.41006 3.98656
46.666 10.6478 3.98533
47.7454 13.0937 3.98382
48.9319 15.3902 3.98274
50.0078 17.6887 3.97913
51.6541 19.3107 3.98729
50.3467 63.3878 0.0143995
51.245 60.9444 0.016979
56.7344 44.1935 0.0255768
55.5037 47.9074 0.0246113
52.3148 58.6449 0.0196531
54.2237 57.276 0.020222
55.0789 51.3954 0.0280843
54.011 54.5553 0.0256769
49.592 61.7535 2
55.6577 41.7148 2
50.5681 59.3393 2
52.1897 56.5019 2
54.2052 45.5765 2
53.3506 49.3351 2
52.677 52.8575 2
48.8496 60.2114 3.9828
52.567 42.6558 3.97613
49.7915 57.6375 3.97906
50.5991 54.4364 3.97544
51.8243 47.2808 3.97746
51.2243 50.949 3.97016
48.1938 43.8167 3.98956
47.9624 62.4831 0.0151241
47.3292 61.019 2
46.6192 59.8056 3.98293
41.6641 67.6937 0.0120464
43.357 65.515 0.0132179
44.7674 63.4636 0.014133
45.9875 61.5959 0.0155671
39.6329 67.7741 2
41.5462 65.6535 2
45.7661 60.6411 2
43.1465 63.7369 2
44.4831 61.8465 2
44.6239 60.3034 3.98393
42.9506 62.0949 3.9851
41.6001 63.8302 3.98571
39.6479 65.6215 3.98645
37.5634 67.756 3.98778
31.697 65.1401 3.98658
33.3919 67.4936 3.98767
35.3332 69.9635 3.99014
37.526 70.054 2
37.5095 72.46 3.99389
39.7027 70.0283 0.00970951
39.8179 72.4058 2
39.9526 74.9197 4
42.1111 72.2083 0.0059286
42.3947 74.6792 2
44.8159 74.2794 0
41.736 4.96597 3.99048
43.8515 5.35643 2
44.3256 3.1092 3.99397
46.5705 3.64567 2
47.2057 1.27793 4
48.7843 4.32134 0.00640364
49.554 1.99013 2
51.8506 2.85458 0
59.0085 42.9252 0.0263907
60.2566 39.8511 0.0276865
61.996 37.4454 0.0288661
59.7652 37.5686 2
58.0124 40.6631 2
55.1321 39.7273 2
56.8364 37.8993 3.97483
49.6294 41.3442 3.98367
53.1715 39.3125 3.97618
39.4417 6.79784 3.98846
59.9037 35.1198 0.0279032
58.0117 32.2673 0.0263819
56.5577 29.3323 0.028263
55.3463 19.176 0.0180374
55.0088 21.5488 0.0254137
54.9399 24.0442 0.0295903
55.4573 26.5892 0.0241395
53.1275 18.6459 0.0197193
51.3045 18.0346 0.014346
50.6346 16.1191 0.0190027
45.9622 5.87981 0.0100464
49.7143 13.7332 0.0163429
47.3548 8.61993 0.0129391
48.5999 11.2866 0.0147667
43.3734 7.46925 0.0119663
57.4157 34.7603 2
41.3985 7.07386 2
45.3595 7.99083 2
42.865 9.40957 2
55.7454 31.515 2
54.5145 28.3944 2
53.9743 20.1217 2
53.5895 22.6927 2
53.7834 25.4871 2
46.6659 10.6473 2
47.7451 13.0933 2
51.6544 19.31 2
50.0077 17.6877 2
48.9317 15.3895 2
54.9152 33.9703 3.97515
53.5062 30.4775 3.973
52.6 27.1868 3.97678
52.1534 24.0812 3.97336
52.3963 21.0474 3.98137
41.013 9.04316 3.98657
44.7231 9.9907 3.98568
42.4677 10.8959 3.98472
46.0048 12.7222 3.98397
47.6818 14.5753 3.98355
48.1149 16.9781 3.98024
49.8193 19.5895 3.97692
49.5923 61.7529 0.0157134
50.5683 59.3383 0.0195681
55.6567 41.7147 0.0247994
54.2029 45.5765 0.0234953
53.3501 49.3356 0.0248033
52.1893 56.5007 0.0230519
52.676 52.8576 0.0292024
48.8493 60.2119 2
52.5688 42.6551 2
49.7915 57.6386 2
50.5997 54.4381 2
51.8254 47.2797 2
51.2253 50.9479 2
48.1931 43.8213 2
47.9882 58.7537 3.98202
50.1222 45.2933 3.97496
48.6015 55.9283 3.98035
49.136 52.6035 3.97457
49.6805 49.0552 3.9741
46.0426 39.8888 3.90428
46.4444 42.7029 3.9536
46.5166 45.865 3.992
43.888 41.1914 3.90955
42.0657 42.027 3.87798
47.3295 61.0187 0.0161133
46.6188 59.806 2
45.469 58.8026 3.98326
39.633 67.7736 0.0122237
41.5464 65.6531 0.013286
43.1467 63.7365 0.0142484
44.4834 61.8459 0.0153966
45.7665 60.6406 0.0164249
41.5999 63.8306 2
37.5633 67.7566 2
39.6477 65.6219 2
44.6235 60.304 2
42.9503 62.0953 2
41.7537 62.5058 3.98547
42.4818 59.9964 3.98482
39.8936 63.5657 3.98551
37.6424 65.5206 3.98603
35.4634 67.6653 3.98773
33.5753 65.3536 3.98631
31.9594 63.3139 3.98559
29.883 64.7309 3.98659
31.697 65.1405 2
31.3764 67.2032 3.98775
33.392 67.4941 2
33.1559 69.7569 3.99016
35.3332 69.9641 2
35.1949 72.3744 3.99386
37.526 70.0534 0.00981693
37.5095 72.4603 2
37.5 75 4
39.8179 72.4054 0.00598906
39.9526 74.9197 2
42.3947 74.6792 0
39.6234 4.7131 3.99061
41.736 4.96549 2
42.062 2.71683 3.99413
43.8515 5.35687 0.00979026
44.3258 3.10895 2
44.8158 0.721173 4
46.5703 3.6459 0.00615296
47.2057 1.27779 2
49.554 1.99015 0
58.0121 40.6631 0.0269035
59.7645 37.5686 0.0278438
55.1317 39.7275 0.0249039
49.6349 41.3471 2
56.8369 37.8994 2
53.1718 39.3116 2
54.0122 36.6291 3.97689
47.561 40.4402 3.95939
50.5896 38.5141 3.98154
37.5154 6.66883 3.98842
39.4417 6.79729 2
39.2104 8.68557 3.98686
35.9408 8.48523 3.98711
57.4146 34.7602 0.0256321
55.747 31.5148 0.0269578
54.5141 28.3937 0.0241492
53.9738 20.1233 0.0182855
53.5888 22.6967 0.0285929
53.7827 25.4865 0.0258808
51.6541 19.3107 0.0127095
50.0078 17.6887 0.0208733
48.9319 15.3902 0.0172571
45.3595 7.99129 0.0126541
47.7454 13.0937 0.016177
46.666 10.6478 0.0146666
41.3984 7.07439 0.0117318
42.865 9.41006 0.0134386
54.9178 33.9703 2
41.013 9.04259 2
44.7231 9.99032 2
42.4676 10.8954 2
53.5047 30.4762 2
52.6008 27.1886 2
52.3972 21.0466 2
52.1548 24.0813 2
46.0045 12.7217 2
47.6815 14.5747 2
49.8195 19.5882 2
48.1147 16.9772 2
52.4627 32.8699 3.97681
51.3383 29.1441 3.97096
50.8023 25.7122 3.97295
49.9454 22.1687 3.97923
40.5684 11.599 3.98456
43.8575 11.9114 3.98493
45.8032 15.4108 3.98328
47.5053 19.2112 3.97803
46.3812 37.5038 3.9097
48.8496 60.2114 0.0172005
49.7915 57.6375 0.0209375
52.567 42.6558 0.0238724
51.8243 47.2808 0.0225351
51.2243 50.949 0.0298399
50.5991 54.4364 0.0245625
48.1938 43.8167 0.0104393
47.9878 58.7542 2
50.1245 45.2951 2
48.6016 55.9297 2
49.1368 52.6072 2
49.6814 49.0542 2
46.0551 39.8943 2
46.4558 42.7117 2
46.515 45.853 2
43.9018 41.1991 2
42.071 42.0297 2
46.8404 57.3574 3.98296
44.6471 39.4719 3.89951
42.4358 40.8937 3.89447
48.1024 47.2553 3.97805
47.172 54.2645 3.98114
47.5958 50.7596 3.97533
44.8173 47.4474 4.00076
45.1192 41.9851 3.91095
44.9354 44.6128 3.95578
42.7045 42.7171 3.9117
40.9328 42.368 3.90473
46.6192 59.8056 0.0170728
45.4684 58.8032 2
43.8773 57.7281 3.98417
37.5634 67.756 0.0122202
39.6479 65.6215 0.0135496
41.6001 63.8302 0.0142864
42.9506 62.0949 0.0149011
44.6239 60.3034 0.0160711
35.4634 67.6659 2
41.7534 62.5062 2
39.8934 63.5661 2
37.6423 65.5211 2
42.4814 59.997 2
40.6234 61.6649 3.9848
40.4459 58.2309 3.98468
37.8369 63.2272 3.98549
35.573 65.4429 3.98621
33.5753 65.354 2
31.9594 63.3143 2
33.629 63.3539 3.9853
30.3783 62.8723 3.98573
32.1231 62.0213 3.98523
26.8679 61.5152 3.98475
28.0618 64.1586 3.98637
29.8831 64.7313 2
29.4057 66.7667 3.98778
31.697 65.1401 0.0134179
31.3764 67.2037 2
31.0131 69.4218 3.99012
33.3919 67.4936 0.0123255
33.1559 69.7574 2
32.8919 72.1486 3.99389
35.3332 69.9635 0.00986471
35.1948 72.3747 2
35.0474 74.9194 4
37.5095 72.46 0.00610632
37.5 75 2
39.9526 74.9197 0
35.6198 6.71979 3.98852
37.5225 4.61254 3.99075
39.6235 4.71263 2
39.7884 2.47328 3.99424
41.736 4.96597 0.00952249
42.0621 2.71654 2
42.3946 0.32156 4
44.3256 3.1092 0.00602996
44.8159 0.72056 2
47.2057 1.27793 0
49.6294 41.3442 0.0163323
56.8364 37.8993 0.0251701
53.1715 39.3125 0.0238211
47.5668 40.4421 2
50.5929 38.5153 2
54.0122 36.6289 2
51.3761 35.5836 3.96738
48.2276 37.7725 3.97209
46.0404 35.1383 3.91086
43.8865 33.8213 3.90569
42.0585 32.9882 3.87627
37.4571 8.52728 3.98691
37.5154 6.66829 2
39.4417 6.79784 0.0115443
39.2104 8.68496 2
38.9754 10.1176 3.98638
35.8973 9.7644 3.98595
34.1491 8.81457 3.98698
35.9407 8.48456 2
54.9152 33.9703 0.024847
53.5062 30.4775 0.0270041
52.6 27.1868 0.0232221
52.3963 21.0474 0.0186263
52.1534 24.0812 0.0266358
49.8193 19.5895 0.0230774
48.1149 16.9781 0.0197645
47.6818 14.5753 0.0164537
44.7231 9.9907 0.0143159
46.0048 12.7222 0.0160295
41.013 9.04316 0.0134319
42.4677 10.8959 0.0152845
52.4645 32.8692 2
40.5682 11.5985 2
43.8572 11.911 2
51.3406 29.1455 2
50.804 25.7138 2
49.9464 22.1672 2
45.8027 15.4101 2
47.5055 19.2104 2
50.0165 31.4029 3.96611
49.2999 27.4562 3.98087
49.4144 24.3807 3.97901
47.1903 21.9179 3.9758
38.3007 12.7228 3.98478
42.1009 14.2937 3.9836
44.8017 18.4432 3.98338
44.9312 37.5137 3.90132
46.4005 37.5094 2
47.9882 58.7537 0.017982
48.6015 55.9283 0.0196515
50.1222 45.2933 0.0250416
49.6805 49.0552 0.0258976
49.136 52.6035 0.0254278
46.0426 39.8888 0.0957219
46.4444 42.7029 0.0463956
46.5166 45.865 0.00799871
43.888 41.1914 0.0904529
42.0657 42.027 0.12202
46.84 57.3582 2
44.6626 39.4768 2
42.4372 40.8929 2
48.1032 47.2552 2
47.1724 54.2661 2
47.5972 50.7617 2
44.8201 47.4255 2
45.1294 41.9938 2
44.9476 44.6263 2
42.7243 42.7277 2
40.9387 42.3661 2
45.4 55.9451 3.98409
42.7847 39.2775 3.9082
40.8946 40.814 3.95213
46.1044 48.929 3.9808
45.5508 52.5591 3.98272
43.4667 48.4788 4.00216
43.361 46.1855 3.96153
43.6938 43.8041 3.90619
41.195 43.8854 3.91212
39.3116 42.699 3.91836
45.469 58.8026 0.0167362
43.8767 57.7287 2
42.1082 56.3558 3.98564
35.4634 67.6653 0.0122685
37.6424 65.5206 0.0139708
39.8936 63.5657 0.0144884
41.7537 62.5058 0.0145279
42.4818 59.9964 0.0151783
35.573 65.4433 2
40.623 61.6653 2
37.8368 63.2275 2
40.4454 58.2315 2
38.9267 56.5273 3.98775
38.2508 60.3503 3.98526
35.6071 63.2209 3.9853
33.5753 65.3536 0.0136925
31.9594 63.3139 0.0144063
33.629 63.3543 2
30.3784 62.8726 2
32.1231 62.0216 2
28.6808 62.2173 3.98551
33.3459 61.5345 3.98523
31.0661 61.2387 3.98522
27.5666 59.6139 3.98301
23.7887 59.0998 3.98261
25.0332 60.8875 3.9837
26.8681 61.5155 2
26.2283 63.4907 3.98602
28.062 64.159 2
27.4622 66.1903 3.98776
29.883 64.7309 0.013405
29.4058 66.7672 2
28.9053 68.9472 3.99012
31.3764 67.2032 0.0122455
31.013 69.4222 2
30.6143 71.7797 3.99391
33.1559 69.7569 0.00983697
32.8918 72.1489 2
32.6054 74.6784 4
35.1949 72.3744 0.00613612
35.0474 74.9197 2
37.5 75 0
33.7223 6.97432 3.98823
35.4338 4.68291 3.99073
35.6197 6.71919 2
37.5139 2.3859 3.99433
37.5226 4.61208 2
39.6234 4.7131 0.00938636
39.7885 2.47298 2
39.9526 0.0806499 4
42.062 2.71683 0.0058683
42.3947 0.320817 2
44.8158 0.721173 0
44.6532 35.5431 3.89874
42.4339 34.1172 3.89344
47.561 40.4402 0.0406114
50.5896 38.5141 0.0184623
54.0122 36.6291 0.0231143
48.2324 37.7716 2
51.3782 35.5826 2
46.0495 35.128 2
43.9033 33.8097 2
42.0639 32.987 2
48.3902 34.2768 3.99279
45.1138 33.0337 3.90603
42.7025 32.3025 3.91235
40.9253 32.648 3.90835
37.3093 10.6206 3.98565
37.4571 8.52658 2
37.5154 6.66883 0.011576
39.2104 8.68557 0.0131437
38.9754 10.1169 2
34.7523 10.3697 3.98567
35.8973 9.76367 2
32.3758 9.36107 3.9864
34.149 8.81386 2
35.9408 8.48523 0.0128884
52.4627 32.8699 0.0231946
51.3383 29.1441 0.029043
50.8023 25.7122 0.027054
49.9454 22.1687 0.0207687
47.5053 19.2112 0.0219688
45.8032 15.4108 0.0167163
43.8575 11.9114 0.0150732
40.5684 11.599 0.0154365
50.0185 31.402 2
38.3004 12.7221 2
42.1003 14.2933 2
49.3016 27.4576 2
49.416 24.3795 2
47.1913 21.9187 2
44.8017 18.4426 2
47.8149 29.5588 3.97493
47.1145 25.109 3.98254
44.2921 21.2912 3.98257
36.5803 12.9192 3.98421
38.6802 14.791 3.98357
41.75 17.8202 3.98172
42.9316 37.4955 3.90491
44.9535 37.5125 2
46.3812 37.5038 0.0902955
46.8404 57.3574 0.0170397
47.172 54.2645 0.0188613
48.1024 47.2553 0.0219527
47.5958 50.7596 0.0246749
44.6471 39.4719 0.100489
45.1192 41.9851 0.0890464
44.9354 44.6128 0.0442162
44.8173 47.4474 -0.000759523
42.7045 42.7171 0.0882993
42.4358 40.8937 0.105533
40.9328 42.368 0.0952709
45.3997 55.946 2
42.7896 39.2761 2
40.8951 40.8106 2
46.1054 48.9303 2
45.552 52.561 2
43.4683 48.5015 2
43.3843 46.1991 2
43.709 43.814 2
41.2089 43.8895 2
39.3145 42.6968 2
43.7395 54.4574 3.98939
40.989 39.1778 3.97439
39.2321 40.8985 3.976
43.7162 50.5393 3.99304
41.9733 47.7205 3.98757
41.8823 45.2064 3.90283
39.4329 44.6287 3.91963
37.4944 42.8281 3.9242
43.8773 57.7281 0.0158317
42.1074 56.3565 2
40.4211 54.9658 3.98759
35.573 65.4429 0.0137939
37.8369 63.2272 0.0145136
40.6234 61.6649 0.0152019
40.4459 58.2309 0.0153189
35.607 63.2212 2
38.2503 60.3503 2
38.9259 56.5285 2
38.0003 55.2863 3.98754
36.9354 57.6567 3.98546
35.3637 60.9345 3.98521
33.629 63.3539 0.0147029
30.3783 62.8723 0.0142724
32.1231 62.0213 0.0147661
33.3458 61.5348 2
28.6808 62.2176 2
31.0661 61.2389 2
29.402 60.3081 3.98453
32.3555 59.7677 3.98482
28.0185 58.3934 3.98361
27.5666 59.614 2
25.3756 58.6124 3.98132
22.7512 58.2579 3.97899
23.3984 60.3666 3.98214
23.7887 59.1002 2
25.0333 60.8879 2
24.4307 62.7827 3.98538
26.8679 61.5152 0.0152524
26.2285 63.491 2
25.5462 65.5002 3.98767
28.0618 64.1586 0.0136314
27.4623 66.1908 2
26.8349 68.3354 3.99006
29.4057 66.7667 0.0122192
28.9052 68.9476 2
28.3694 71.2648 3.99392
31.0131 69.4218 0.00987624
30.6141 71.7799 2
30.1842 74.2788 4
32.8919 72.1486 0.00610506
32.6053 74.6792 2
35.0474 74.9194 0
31.7866 7.41414 3.98804
33.3456 4.92203 3.99062
33.7222 6.9737 2
35.2441 2.46205 3.99431
35.4339 4.68241 2
35.6198 6.71979 0.0114798
37.5 0 4
37.514 2.3856 2
37.5225 4.61254 0.00924758
39.7884 2.47328 0.00575614
39.9526 0.0802889 2
42.3946 0.32156 0
42.7925 35.7217 3.90695
44.6651 35.5395 2
40.8936 34.1965 3.95319
42.4357 34.1177 2
48.2276 37.7725 0.027912
51.3761 35.5836 0.0326201
46.0404 35.1383 0.0891439
43.8865 33.8213 0.0943111
42.0585 32.9882 0.123726
48.3951 34.2723 2
45.1254 33.0258 2
42.7191 32.2943 2
40.9273 32.6489 2
46.3486 31.5566 3.9769
43.6879 31.2192 3.90607
41.199 31.1232 3.9053
39.3026 32.3094 3.9178
35.6905 11.7644 3.98438
37.3094 10.6198 2
37.4571 8.52728 0.0130875
38.9754 10.1176 0.0136172
33.0961 11.2061 3.98445
34.7523 10.3689 2
35.8973 9.7644 0.0140514
30.4804 10.0091 3.98569
32.3756 9.36031 2
34.1491 8.81457 0.0130153
50.0165 31.4029 0.033886
49.2999 27.4562 0.0191331
49.4144 24.3807 0.0209949
47.1903 21.9179 0.0242005
44.8017 18.4432 0.0166216
42.1009 14.2937 0.0164
38.3007 12.7228 0.0152245
36.58 12.9184 2
47.8151 29.5573 2
38.6795 14.7904 2
41.7497 17.8195 2
47.1168 25.1101 2
44.2929 21.2899 2
45.5765 27.6765 3.99677
43.8107 24.0144 3.99347
41.3431 20.6958 3.98142
35.7701 14.7433 3.98355
38.6806 17.5759 3.98211
41.0377 37.4866 3.9735
42.9372 37.4965 2
44.9312 37.5137 0.0986819
45.4 55.9451 0.0159118
45.5508 52.5591 0.0172797
46.1044 48.929 0.019204
42.7847 39.2775 0.091804
43.6938 43.8041 0.0938128
43.361 46.1855 0.0384732
43.4667 48.4788 -0.00215585
41.195 43.8854 0.0878791
40.8946 40.814 0.0478725
39.3116 42.699 0.081642
43.7393 54.4592 2
40.9897 39.1758 2
39.2316 40.8962 2
43.7171 50.5471 2
41.9762 47.7328 2
41.9016 45.215 2
37.4966 42.8267 2
39.4484 44.627 2
41.8851 53.0352 3.99666
39.233 39.1797 3.96967
37.4965 40.9451 3.97553
35.6834 42.6998 3.91954
40.9533 49.7705 4.00362
39.7996 46.1027 3.89748
37.4958 44.8803 3.92025
42.1082 56.3558 0.0143638
40.42 54.9663 2
38.7301 53.9001 3.98838
35.6071 63.2209 0.0146975
38.2508 60.3503 0.0147382
38.9267 56.5273 0.012252
35.3634 60.9345 2
36.9347 57.6562 2
37.9992 55.2859 2
36.3192 55.4207 3.98891
34.4873 58.5477 3.98521
33.3459 61.5345 0.014774
28.6808 62.2173 0.0144917
31.0661 61.2387 0.0147825
32.3554 59.7677 2
29.402 60.3082 2
30.294 57.8405 3.98547
28.0185 58.3935 2
26.9372 56.8428 3.98082
27.5666 59.6139 0.0169937
25.3756 58.6128 2
23.8306 56.8231 3.97602
21.3264 57.4165 3.97838
21.9901 59.6383 3.9818
22.7512 58.2584 2
22.7343 62.0337 3.98428
23.3985 60.3671 2
23.7887 59.0998 0.0173878
25.0332 60.8875 0.0162963
24.4309 62.7832 2
23.6801 64.7183 3.98722
26.2283 63.4907 0.013976
25.5464 65.5005 2
24.8071 67.5964 3.98998
27.4622 66.1903 0.0122362
26.8348 68.3358 2
26.1646 70.6056 3.9939
28.9053 68.9472 0.00988493
28.3691 71.265 2
27.7943 73.7221 4
30.6143 71.7797 0.00609217
30.1841 74.2794 2
32.6054 74.6784 0
29.809 7.98732 3.98757
31.2507 5.32925 3.99031
31.7865 7.41337 2
32.9798 2.70015 3.99423
33.3457 4.92149 2
33.7223 6.97432 0.0117688
35.0474 0.080333 4
35.2441 2.46174 2
35.4338 4.68291 0.00927118
37.5 0 2
37.5139 2.3859 0.00566542
39.9526 0.0806499 0
40.9936 35.8078 3.97478
42.7953 35.7237 2
44.6532 35.5431 0.101256
28.5411 10.6845 3.9856
39.2282 34.1103 3.97432
40.8931 34.2007 2
42.4339 34.1172 0.106564
48.3902 34.2768 0.00721412
45.1138 33.0337 0.0939681
42.7025 32.3025 0.0876494
40.9253 32.648 0.0916537
46.3623 31.5511 2
43.6955 31.2113 2
41.2139 31.116 2
39.3047 32.3105 2
44.4084 29.7323 3.96529
41.8907 29.8085 3.90785
39.4371 30.3786 3.92045
37.4845 32.1729 3.92463
34.0903 12.9221 3.98377
35.6904 11.7635 2
37.3093 10.6206 0.0143513
31.184 11.9743 3.98471
33.0961 11.2052 2
34.7523 10.3697 0.0143273
30.4803 10.0083 2
32.3758 9.36107 0.0135998
47.8149 29.5588 0.0250717
47.1145 25.109 0.0174561
36.5803 12.9192 0.0157885
44.2921 21.2912 0.0174283
41.75 17.8202 0.0182818
38.6802 14.791 0.0164323
35.7695 14.7426 2
45.5777 27.6683 2
38.6801 17.5749 2
41.343 20.6939 2
43.813 24.0172 2
33.6054 15.8597 3.98336
43.0772 26.4941 3.99834
40.9218 23.2663 3.98692
38.4224 20.3028 3.98338
35.8466 17.4898 3.98353
39.2404 37.4861 3.96847
41.0385 37.4868 2
42.9316 37.4955 0.095088
43.7395 54.4574 0.0106073
43.7162 50.5393 0.00696231
40.989 39.1778 0.025611
41.8823 45.2064 0.0971659
41.9733 47.7205 0.0124251
39.4329 44.6287 0.0803662
39.2321 40.8985 0.0240005
37.4944 42.8281 0.0758045
41.8844 53.0379 2
39.2336 39.1783 2
37.4966 40.9427 2
40.9535 49.7737 2
35.6818 42.6978 2
39.821 46.1182 2
37.4932 44.8774 2
39.8292 51.9567 4.00128
37.495 39.1934 3.96166
35.7629 40.9046 3.97684
34.0611 42.3631 3.90589
35.5425 44.6284 3.91719
38.743 48.7666 4.00335
37.4941 46.4229 3.89773
40.4211 54.9658 0.0124057
38.7291 53.8989 2
36.7184 53.2565 3.99701
35.3637 60.9345 0.0147946
36.9354 57.6567 0.0145353
38.0003 55.2863 0.0124579
34.4869 58.5474 2
36.3184 55.4191 2
33.2223 55.5346 3.98661
32.3555 59.7677 0.0151842
29.402 60.3081 0.0154684
30.2941 57.8405 2
28.6775 55.333 3.98108
28.0185 58.3934 0.0163905
26.9371 56.8429 2
25.2968 55.1607 3.9772
21.795 55.3632 3.97462
25.3756 58.6124 0.0186768
23.8305 56.8235 2
20.2098 57.0462 3.98071
20.64 58.7961 3.98071
21.3263 57.417 2
21.164 61.1833 3.98346
21.9901 59.6389 2
22.7512 58.2579 0.021013
21.8934 63.8461 3.98653
22.7344 62.0343 2
23.3984 60.3666 0.0178605
24.4307 62.7827 0.0146176
23.6803 64.7187 2
22.8354 66.74 3.98983
25.5462 65.5002 0.0123255
24.8071 67.5968 2
24.0089 69.8067 3.99382
26.8349 68.3354 0.00993502
26.1643 70.6058 2
25.446 73.0099 4
28.3694 71.2648 0.00608288
27.7943 73.7222 2
30.1842 74.2788 0
27.8189 8.64701 3.98723
29.1526 5.87499 3.98998
29.8089 7.98654 2
30.725 3.09733 3.99402
31.2507 5.32862 2
31.7866 7.41414 0.0119612
32.6053 0.320823 4
32.9798 2.69984 2
33.3456 4.92203 0.00937749
35.0474 0.0802903 2
35.2441 2.46205 0.00569305
37.5 0 0
39.2359 35.8047 3.96961
40.9939 35.8103 2
42.7925 35.7217 0.0930543
28.5411 10.6838 2
26.62 11.3798 3.98532
29.2229 12.6308 3.98485
37.49 34.0583 3.97233
39.2274 34.1111 2
40.8936 34.1965 0.0468147
46.3486 31.5566 0.0231004
43.6879 31.2192 0.0939294
41.199 31.1232 0.0947028
39.3026 32.3094 0.0821992
44.4234 29.7234 2
41.9094 29.7972 2
39.4501 30.3778 2
37.485 32.1732 2
42.342 28.3573 3.9481
39.8259 28.9036 3.906
37.4913 30.1153 3.92118
35.6722 32.298 3.91797
31.9117 14.4667 3.98397
34.0901 12.9212 2
35.6905 11.7644 0.0156229
31.184 11.9735 2
33.0961 11.2061 0.015548
30.4804 10.0091 0.0143065
45.5765 27.6765 0.00322746
43.8107 24.0144 0.00652996
35.7701 14.7433 0.0164454
41.3431 20.6958 0.0185775
38.6806 17.5759 0.017895
33.605 15.8595 2
35.8461 17.4891 2
43.0794 26.4931 2
38.4219 20.3017 2
40.9226 23.2613 2
33.5476 17.367 3.98492
40.4561 25.6116 4.01117
38.0791 22.8284 3.99236
35.5828 20.0552 3.98434
37.4948 37.4932 3.95117
39.2408 37.4857 2
41.0377 37.4866 0.0265024
41.8851 53.0352 0.00334177
40.9533 49.7705 -0.00362165
39.233 39.1797 0.0303261
39.7996 46.1027 0.10252
37.4958 44.8803 0.0797508
37.4965 40.9451 0.024472
35.6834 42.6998 0.0804588
39.8287 51.9575 2
37.4954 39.1921 2
35.7635 40.9033 2
38.74 48.7933 2
34.058 42.3624 2
35.533 44.6313 2
37.4905 46.4435 2
37.6749 51.0569 4.01256
35.7617 39.1916 3.97009
34.1052 40.8166 3.95266
32.9262 42.0182 3.87738
33.7813 43.877 3.90951
35.1698 46.0973 3.90326
36.8716 48.4161 3.98882
38.7301 53.9001 0.0116181
36.7179 53.2538 2
34.3546 52.5139 3.98978
34.4873 58.5477 0.0147923
36.3192 55.4207 0.0110918
33.2221 55.5335 2
30.5044 53.4321 3.98364
30.294 57.8405 0.0145315
28.6775 55.3332 2
26.8631 53.4576 3.97648
26.9372 56.8428 0.0191767
25.2968 55.1609 2
23.5532 53.5015 3.97339
20.4478 53.2424 3.97172
19.9201 55.8492 3.97951
21.7949 55.3635 2
23.8306 56.8231 0.0239755
19.4314 57.9074 3.98017
20.2098 57.0465 2
19.7029 60.217 3.98232
20.64 58.7966 2
21.3264 57.4165 0.0216173
20.2057 62.8673 3.98539
21.1641 61.1839 2
21.9901 59.6383 0.0181971
20.9368 65.7691 3.9895
21.8936 63.8467 2
22.7343 62.0337 0.0157224
23.6801 64.7183 0.0127843
22.8354 66.7404 2
21.9114 68.8738 3.9937
24.8071 67.5964 0.0100226
24.0086 69.8068 2
23.1494 72.1454 4
26.1646 70.6056 0.00609979
25.446 73.0099 2
27.7943 73.7221 0
25.8581 9.37508 3.98686
27.0673 6.53912 3.9896
27.8188 8.64626 2
28.4872 3.64324 3.99383
29.1525 5.87434 2
29.809 7.98732 0.0124278
30.1841 0.720592 4
30.7249 3.09701 2
31.2507 5.32925 0.00968771
32.6053 0.320817 2
32.9798 2.70015 0.00577104
35.0474 0.080333 0
37.4946 35.7983 3.96052
39.2359 35.8053 2
40.9936 35.8078 0.0252167
24.7748 12.0627 3.98536
23.7489 14.3467 3.98436
28.5411 10.6845 0.0143972
26.6201 11.3792 2
29.2229 12.6301 2
27.2891 13.3638 3.98465
29.7775 14.1892 3.98384
35.7572 34.0945 3.97479
37.4896 34.0601 2
39.2282 34.1103 0.0256758
37.4845 32.1729 0.0753665
44.4084 29.7323 0.0347083
41.8907 29.8085 0.0921517
39.4371 30.3786 0.0795512
42.3574 28.3453 2
39.8439 28.8882 2
37.4923 30.1192 2
35.6707 32.2984 2
40.0273 27.5204 3.96309
37.4998 28.5693 3.90192
35.5362 30.3683 3.91965
34.0557 32.6278 3.90537
30.9231 16.822 3.98385
31.9116 14.466 2
34.0903 12.9221 0.0162273
31.184 11.9743 0.0152901
43.0772 26.4941 0.00166345
40.9218 23.2663 0.0130823
33.6054 15.8597 0.0166411
35.8466 17.4898 0.0164664
38.4224 20.3028 0.0166193
33.5471 17.3673 2
35.5821 20.0539 2
40.4553 25.609 2
38.0788 22.8281 2
32.8608 19.7706 3.98556
37.7997 25.1298 4.02545
35.2021 22.6111 3.98552
35.7523 37.4966 3.96855
37.4952 37.4932 2
39.2404 37.4861 0.0315331
39.8292 51.9567 -0.00127889
38.743 48.7666 -0.00335201
37.495 39.1934 0.0383422
37.4941 46.4229 0.102267
35.5425 44.6284 0.082813
35.7629 40.9046 0.0231587
34.0611 42.3631 0.0941062
37.6744 51.0637 2
35.7624 39.1905 2
34.1056 40.8121 2
36.8694 48.4288 2
32.9206 42.0194 2
33.771 43.8855 2
35.1472 46.1109 2
35.4374 50.1954 4.01127
34.0108 39.1871 3.97146
32.5516 40.8894 3.8939
32.2797 42.7038 3.91049
33.117 45.1916 3.90897
34.2716 47.4786 3.96218
36.7184 53.2565 0.00298528
34.3546 52.5129 2
31.9773 51.2388 3.9913
33.2223 55.5346 0.0133904
30.5047 53.433 2
28.4031 51.6396 3.97972
28.6775 55.333 0.0189183
26.8633 53.4576 2
25.0517 51.7785 3.97072
25.2968 55.1607 0.0228037
23.5533 53.5014 2
21.9386 51.8255 3.97076
19.1782 51.6521 3.97192
18.9059 54.3252 3.97473
20.4478 53.2427 2
18.4377 56.7393 3.98069
19.92 55.8496 2
21.795 55.3632 0.0253773
18.364 59.1239 3.98042
19.4314 57.9079 2
20.2098 57.0462 0.0192929
18.6163 61.7748 3.9841
19.703 60.2176 2
20.64 58.7961 0.0192892
19.1257 64.6799 3.98874
20.2058 62.8679 2
21.164 61.1833 0.0165412
19.8854 67.8104 3.99348
20.9369 65.7695 2
21.8934 63.8461 0.0134661
22.8354 66.74 0.0101717
21.9111 68.8739 2
20.9142 71.1327 4
24.0089 69.8067 0.00618438
23.1494 72.1455 2
25.446 73.0099 0
23.0942 12.7774 3.98495
23.9706 10.1615 3.9867
25.0212 7.30922 3.98938
25.8581 9.3744 2
26.2789 4.32746 3.9936
27.0672 6.53846 2
27.8189 8.64701 0.0127689
27.7943 1.27781 4
28.487 3.64296 2
29.1526 5.87499 0.0100178
30.1841 0.720551 2
30.725 3.09733 0.00597988
32.6053 0.320823 0
35.7562 35.8037 3.97032
37.4949 35.7996 2
39.2359 35.8047 0.0303874
24.775 12.0622 2
23.7492 14.3465 2
22.4773 15.0231 3.98379
25.3551 13.8959 3.98419
24.0217 15.6083 3.98333
26.62 11.3798 0.0146756
29.2229 12.6308 0.0151478
27.2892 13.3635 2
29.7776 14.1885 2
28.3533 15.9631 3.9842
34.1062 34.1816 3.95214
35.7579 34.0954 2
37.49 34.0583 0.0276663
35.6722 32.298 0.0820294
37.4913 30.1153 0.0788189
42.342 28.3573 0.0519021
39.8259 28.9036 0.0940031
40.0357 27.5089 2
37.4999 28.551 2
35.5232 30.3692 2
34.0557 32.6285 2
37.6175 27.192 3.96508
35.1527 28.8875 3.90447
33.7698 31.1136 3.90815
32.9269 32.9726 3.87756
30.2044 19.3239 3.98539
30.923 16.8216 2
31.9117 14.4667 0.0160311
40.4561 25.6116 -0.0111726
38.0791 22.8284 0.00763645
33.5476 17.367 0.0150776
35.5828 20.0552 0.0156628
32.8596 19.7715 2
35.2015 22.6079 2
37.8018 25.1336 2
32.3063 22.3813 3.98576
34.9574 25.1362 4.01046
33.9601 37.497 3.97166
35.7526 37.4965 2
37.4948 37.4932 0.0488301
37.6749 51.0569 -0.0125575
36.8716 48.4161 0.0111789
35.7617 39.1916 0.0299078
35.1698 46.0973 0.096739
33.7813 43.877 0.0904855
34.1052 40.8166 0.0473388
32.9262 42.0182 0.122617
35.4364 50.1994 2
34.0115 39.1844 2
32.5494 40.8871 2
34.2643 47.5081 2
32.264 42.7091 2
33.0961 45.2095 2
33.2034 49.1865 4.00805
32.1983 39.2794 3.90829
31.0966 41.1792 3.90743
31.2986 43.7876 3.9052
32.2291 46.4052 3.96004
34.3546 52.5139 0.0102249
31.9773 51.2409 2
29.8164 49.7515 3.98495
30.5044 53.4321 0.0163605
28.4035 51.6369 2
26.4692 50.0168 3.97064
26.8631 53.4576 0.0235182
25.0521 51.7777 2
23.3067 50.2192 3.97309
23.5532 53.5015 0.0266127
21.9389 51.8258 2
20.4369 50.3335 3.97227
17.9662 50.3442 3.97386
17.8156 52.807 3.97324
19.1786 51.6521 2
17.4248 55.355 3.97757
18.9058 54.3256 2
20.4478 53.2424 0.0282765
17.1283 57.886 3.98124
18.4377 56.7398 2
19.9201 55.8492 0.0204904
17.1333 60.558 3.98244
18.3641 59.1244 2
19.4314 57.9074 0.0198324
17.406 63.4726 3.98739
18.6163 61.7755 2
19.7029 60.217 0.0176788
17.9415 66.6189 3.99316
19.1257 64.6804 2
20.2057 62.8673 0.0146082
18.75 69.9759 4
19.8851 67.8105 2
20.9368 65.7691 0.0105007
21.9114 68.8738 0.00630259
20.9142 71.1327 2
23.1494 72.1454 0
21.5848 13.5974 3.9845
22.1888 11.0208 3.98623
23.0944 12.7773 2
23.0391 8.17457 3.98924
23.9707 10.1612 2
24.1165 5.14216 3.99342
25.021 7.30871 2
25.8581 9.37508 0.0131387
25.446 1.99014 4
26.2786 4.32723 2
27.0673 6.53912 0.010405
27.7943 1.27778 2
28.4872 3.64324 0.00616939
30.1841 0.720592 0
34.0031 35.8076 3.97314
35.757 35.8045 2
37.4946 35.7983 0.0394818
21.3022 15.819 3.98297
24.7748 12.0627 0.0146422
23.7489 14.3467 0.0156442
25.3553 13.8955 2
22.4777 15.0232 2
24.0222 15.6082 2
23.2607 16.2398 3.98312
25.377 16.0759 3.98419
27.2891 13.3638 0.0153534
29.7775 14.1892 0.0161607
28.3536 15.9628 2
27.4358 18.7841 3.98478
32.5651 34.1035 3.8951
34.1081 34.1839 2
35.7572 34.0945 0.0252066
34.0557 32.6278 0.0946271
35.5362 30.3683 0.0803512
37.4998 28.5693 0.0980782
40.0273 27.5204 0.0369149
37.6136 27.1579 2
32.925 32.9714 2
35.1347 28.8699 2
33.7552 31.0981 2
35.0657 27.3208 3.97009
33.0916 29.7985 3.90435
32.2695 32.2764 3.90813
29.5677 21.9176 3.99226
30.2039 19.3241 2
30.9231 16.822 0.0161518
37.7997 25.1298 -0.0254513
35.2021 22.6111 0.014475
32.8608 19.7706 0.0144407
32.3056 22.3832 2
34.9626 25.1397 2
31.6614 25.5971 3.99566
32.0614 37.4991 3.90603
33.9606 37.4966 2
35.7523 37.4966 0.0314479
35.4374 50.1954 -0.0112747
34.2716 47.4786 0.0378188
34.0108 39.1871 0.0285373
33.117 45.1916 0.0910271
32.2797 42.7038 0.089512
32.5516 40.8894 0.106095
33.2029 49.1709 2
32.1952 39.2763 2
31.0798 41.1867 2
32.2107 46.4213 2
31.2872 43.7981 2
31.0926 48.0109 3.99997
30.333 39.455 3.89948
29.8704 41.976 3.90485
30.3796 44.983 3.96072
31.9773 51.2388 0.00869544
29.8167 49.7463 2
27.8191 48.2154 3.97687
28.4031 51.6396 0.0202759
26.4701 50.0152 2
24.604 48.4986 3.97738
25.0517 51.7785 0.0292806
23.3071 50.2192 2
21.6157 48.8124 3.97478
21.9386 51.8255 0.029235
20.4376 50.3333 2
19.0068 49.1076 3.9762
16.8748 49.3429 3.97658
16.7561 51.4196 3.97417
17.9668 50.3444 2
16.3758 53.8833 3.97562
17.8158 52.8072 2
19.1782 51.6521 0.0280832
15.9683 56.4874 3.97972
17.4246 55.3555 2
18.9059 54.3252 0.02527
15.7458 59.2188 3.98209
17.1284 57.8866 2
18.4377 56.7393 0.0193055
15.7864 62.1429 3.98553
17.1333 60.5587 2
18.364 59.1239 0.0195764
16.0881 65.3014 3.99273
17.406 63.4731 2
18.6163 61.7748 0.0158981
16.6661 68.6801 4
17.9412 66.6189 2
19.1257 64.6799 0.0112556
18.75 69.9759 2
19.8854 67.8104 0.0065229
20.9142 71.1327 0
20.2167 14.5863 3.98375
21.5851 13.5974 2
20.5279 11.9904 3.98562
21.1422 9.14427 3.98912
22.189 11.0205 2
23.0942 12.7774 0.0150475
22.0156 6.08114 3.99329
23.0391 8.17424 2
23.9706 10.1615 0.013304
23.1494 2.85457 4
24.1161 5.14203 2
25.0212 7.30922 0.0106151
25.446 1.99012 2
26.2789 4.32746 0.00640316
27.7943 1.27781 0
32.2049 35.7152 3.90785
34.0049 35.8093 2
35.7562 35.8037 0.0296755
21.3025 15.8185 2
20.2992 16.9533 3.98315
22.0938 16.6243 3.98192
25.3551 13.8959 0.0158122
22.4773 15.0231 0.0162067
24.0217 15.6083 0.0166715
25.3774 16.0757 2
23.2611 16.2398 2
24.2 18.4382 3.98169
27.0047 21.4417 3.98527
28.3533 15.9631 0.0157994
27.4357 18.7841 2
31.1045 33.8109 3.90555
32.5628 34.1067 2
34.1062 34.1816 0.047856
32.9269 32.9726 0.122442
33.7698 31.1136 0.091851
35.1527 28.8875 0.0955319
37.6175 27.192 0.0349229
35.0497 27.3036 2
32.2635 32.28 2
33.0724 29.7773 2
32.5002 28.0523 3.98207
31.2749 31.2044 3.90647
28.7744 24.3831 3.98699
29.5669 21.9188 2
30.2044 19.3239 0.0146061
34.9574 25.1362 -0.0104569
32.3063 22.3813 0.0142382
31.6634 25.5857 2
29.6003 27.2886 3.97458
30.0514 37.4871 3.90086
32.0588 37.4983 2
33.9601 37.497 0.0283373
33.2034 49.1865 -0.00805132
32.2291 46.4052 0.0399551
32.1983 39.2794 0.0917067
31.2986 43.7876 0.0948041
31.0966 41.1792 0.0925724
31.0939 48.0108 2
30.3183 39.464 2
29.859 41.9841 2
30.3651 44.9971 2
29.116 46.5898 3.99879
28.9435 39.8659 3.90672
28.6043 43.1912 3.96382
29.8164 49.7515 0.0150488
27.8198 48.2102 2
25.8863 46.689 3.97952
26.4692 50.0168 0.0293606
24.6047 48.4987 2
22.758 47.1088 3.97929
23.3067 50.2192 0.0269115
21.6166 48.8119 2
19.9546 47.637 3.97836
20.4369 50.3335 0.027726
19.0075 49.1077 2
17.651 48.1902 3.97726
16.1272 48.6928 3.9784
16.8754 49.3432 2
15.8349 50.1802 3.97575
15.3653 52.4259 3.97518
16.7565 51.4199 2
17.9662 50.3442 0.0261353
14.8591 54.9872 3.97764
16.3758 53.8836 2
17.8156 52.807 0.0267613
14.454 57.7476 3.9814
15.9682 56.488 2
17.4248 55.355 0.0224267
14.2642 60.6972 3.98441
15.7459 59.2195 2
17.1283 57.886 0.018764
14.3323 63.8606 3.99189
15.7864 62.1435 2
17.1333 60.558 0.0175625
14.6715 67.2507 4
16.0878 65.3013 2
17.406 63.4726 0.0126059
16.6661 68.6801 2
17.9415 66.6189 0.0068374
18.75 69.9759 0
18.9304 15.7737 3.98291
20.2169 14.586 2
18.9776 13.1013 3.98483
21.5848 13.5974 0.0154987
20.5283 11.9903 2
19.3416 10.2318 3.98887
19.9901 7.1458 3.99322
21.1423 9.14397 2
22.1888 11.0208 0.0137734
20.9142 3.86727 4
22.0152 6.08115 2
23.0391 8.17457 0.0107555
23.1494 2.85451 2
24.1165 5.14216 0.00657573
25.446 1.99014 0
30.3405 35.5375 3.90224
32.2016 35.7166 2
34.0031 35.8076 0.0268587
21.3022 15.819 0.0170252
22.094 16.6239 2
20.2993 16.9525 2
19.2376 18.4001 3.98218
21.7777 17.8405 3.98212
25.377 16.0759 0.0158098
23.2607 16.2398 0.0168819
24.2 18.4382 2
22.2707 19.8815 3.98028
24.5814 21.309 3.9827
26.3968 23.7069 3.98036
27.0049 21.4423 2
27.4358 18.7841 0.0152224
29.8702 33.0087 3.90408
31.0881 33.7916 2
32.5651 34.1035 0.104897
32.2695 32.2764 0.0918719
33.0916 29.7985 0.0956526
35.0657 27.3208 0.0299088
32.49 28.045 2
31.278 31.203 2
30.0576 29.5095 3.9729
27.841 26.5243 3.97263
28.7748 24.3881 2
29.5677 21.9176 0.00773687
31.6614 25.5971 0.00434357
29.5941 27.252 2
28.5999 37.4961 3.91116
30.0364 37.49 2
32.0614 37.4991 0.0939687
31.0926 48.0109 3.03774e-05
30.3796 44.983 0.0392829
30.333 39.455 0.100517
29.8704 41.976 0.0951457
29.1178 46.6073 2
28.9306 39.8723 2
28.5899 43.1997 2
27.2032 44.8467 3.98311
26.7212 40.6266 3.9907
27.8191 48.2154 0.0231326
25.8859 46.6893 2
23.9377 45.2383 3.97472
24.604 48.4986 0.0226184
22.759 47.1079 2
20.8941 45.9188 3.97762
21.6157 48.8124 0.0252216
19.9553 47.6372 2
18.2994 46.7506 3.97659
19.0068 49.1076 0.0237968
17.6516 48.1906 2
16.3186 47.7229 3.97782
16.1277 48.6932 2
15.1827 49.0234 3.97678
16.8748 49.3429 0.023424
15.8353 50.1805 2
14.4799 50.9925 3.97556
13.8211 53.4417 3.97664
15.3655 52.4262 2
16.7561 51.4196 0.0258317
13.2485 56.1745 3.97992
14.8591 54.9877 2
16.3758 53.8833 0.0243844
12.846 59.1307 3.9842
14.454 57.7482 2
15.9683 56.4874 0.0202765
12.6778 62.3032 3.99065
14.2642 60.6975 2
15.7458 59.2188 0.017913
12.7746 65.6939 4
14.332 63.8604 2
15.7864 62.1429 0.0144688
14.6714 67.2507 2
16.0881 65.3014 0.00727476
16.6661 68.6801 0
17.664 17.1493 3.98217
18.9304 15.7731 2
17.5091 14.366 3.98383
20.2167 14.5863 0.0162489
18.9779 13.1009 2
17.6373 11.4508 3.98801
20.5279 11.9904 0.0143792
19.3418 10.2316 2
18.0502 8.33864 3.99318
18.75 5.0241 4
19.9898 7.1459 2
21.1422 9.14427 0.0108795
20.9142 3.86727 2
22.0156 6.08114 0.00670783
23.1494 2.85457 0
28.9417 35.1072 3.90492
30.3245 35.5328 2
32.2049 35.7152 0.0921511
22.0938 16.6243 0.0180753
20.2992 16.9533 0.0168491
21.7778 17.8398 2
19.2377 18.3993 2
17.9725 19.9326 3.98085
20.8695 19.3687 3.98185
24.2 18.4382 0.0183088
22.271 19.8807 2
24.5819 21.3094 2
22.346 21.7065 3.98185
24.6779 23.1539 3.97989
25.4265 25.9345 3.97114
26.3979 23.7064 2
27.0047 21.4417 0.0147295
28.2509 32.2843 3.95211
29.8605 33.007 2
31.1045 33.8109 0.0944483
31.2749 31.2044 0.0935253
32.5002 28.0523 0.0179335
30.0354 29.4976 2
26.9629 29.116 3.98763
27.8369 26.5218 2
28.7744 24.3831 0.0130071
29.6003 27.2886 0.0254209
26.8271 37.3538 3.96675
28.587 37.4924 2
30.0514 37.4871 0.0991392
29.116 46.5898 0.00121062
28.6043 43.1912 0.0361753
28.9435 39.8659 0.0932785
27.2053 44.8514 2
26.7141 40.6338 2
25.1932 43.1913 3.97049
23.9631 39.4289 3.97054
25.8863 46.689 0.0204797
23.9329 45.2395 2
21.857 43.9694 3.97712
22.758 47.1088 0.0207069
20.8942 45.9186 2
18.9554 44.9825 3.97536
19.9546 47.637 0.0216437
18.2999 46.7511 2
16.6097 46.2218 3.9735
17.651 48.1902 0.0227391
16.3191 47.7233 2
14.914 47.6769 3.9756
16.1272 48.6928 0.0216013
15.1832 49.0238 2
13.7792 49.5517 3.97558
15.8349 50.1802 0.0242526
14.4803 50.9928 2
12.8886 51.879 3.97621
12.136 54.5316 3.97875
13.8212 53.4422 2
15.3653 52.4259 0.0248226
11.5303 57.4622 3.98324
13.2484 56.1751 2
14.8591 54.9872 0.0223647
11.1323 60.6292 3.98952
12.846 59.1311 2
14.454 57.7476 0.0185964
10.9835 64.0165 4
12.6775 62.3029 2
14.2642 60.6972 0.0155932
12.7745 65.694 2
14.3323 63.8606 0.00810865
14.6715 67.2507 0
16.3958 18.6434 3.98161
17.664 17.1486 2
16.0999 15.775 3.98349
18.9304 15.7737 0.0170877
17.5092 14.3652 2
16.0191 12.8044 3.98628
18.9776 13.1013 0.015169
17.6376 11.4502 2
16.2014 9.66178 3.99289
19.3416 10.2318 0.0111278
18.05 8.33877 2
16.6661 6.31991 4
18.75 5.02404 2
19.9901 7.1458 0.00677617
20.9142 3.86727 0
27.3351 34.7441 3.95377
28.9268 35.1022 2
30.3405 35.5375 0.0977586
16.6721 21.3688 3.97795
21.7777 17.8405 0.0178778
19.2376 18.4001 0.0178229
20.8696 19.3679 2
17.9727 19.9319 2
19.7134 21.5622 3.98384
22.2707 19.8815 0.0197198
24.5814 21.309 0.0172979
22.3464 21.7051 2
24.678 23.1538 2
22.8246 24.5895 3.97455
24.5054 28.5121 3.96738
25.4239 25.9325 2
26.3968 23.7069 0.0196369
26.0932 31.6886 3.99163
28.2393 32.2747 2
29.8702 33.0087 0.0959156
30.0576 29.5095 0.0271046
26.9694 29.1163 2
27.841 26.5243 0.0273679
24.6437 36.8532 3.979
26.8193 37.358 2
28.5999 37.4961 0.0888399
27.2032 44.8467 0.0168886
26.7212 40.6266 0.00929725
25.1895 43.1945 2
23.959 39.4309 2
22.9129 41.8099 3.97887
21.6879 38.4994 3.97307
23.9377 45.2383 0.0252755
21.8584 43.9707 2
19.7019 42.8967 3.97506
20.8941 45.9188 0.0223815
18.9553 44.9829 2
16.9346 44.3869 3.97245
18.2994 46.7506 0.0234084
16.6099 46.2222 2
14.8348 46.0964 3.97281
16.3186 47.7229 0.0221773
14.9144 47.6774 2
13.2877 48.0126 3.97433
15.1827 49.0234 0.0232231
13.7796 49.5521 2
12.1088 50.2559 3.9757
14.4799 50.9925 0.0244405
12.8889 51.8795 2
11.1321 52.8391 3.97792
10.3208 55.7132 3.98208
12.136 54.5323 2
13.8211 53.4417 0.0233589
9.69875 58.8513 3.9883
11.5301 57.4629 2
13.2485 56.1745 0.0200846
9.30605 62.2254 4
11.1319 60.6289 2
12.846 59.1307 0.0157986
10.9835 64.0165 2
12.6778 62.3032 0.00934712
12.7746 65.6939 0
15.1402 20.178 3.97938
16.3958 18.6427 2
14.745 17.2978 3.9823
17.664 17.1493 0.0178282
16.0999 15.7741 2
14.4815 14.2864 3.98513
17.5091 14.366 0.0161707
16.0193 12.8037 2
14.4442 11.113 3.99233
17.6373 11.4508 0.011992
16.2012 9.66187 2
14.6715 7.74927 4
18.0502 8.33864 0.0068233
16.6661 6.31988 2
18.75 5.0241 0
25.2859 34.2533 3.98758
27.3262 34.7433 2
28.9417 35.1072 0.0950786
17.8444 22.3136 3.98454
15.5173 22.9129 3.97515
16.6721 21.3679 2
20.8695 19.3687 0.0181498
17.9725 19.9326 0.0191467
19.7136 21.5612 2
19.6471 24.367 3.97773
22.346 21.7065 0.0181503
24.6779 23.1539 0.020105
22.8228 24.5877 2
21.8811 27.8071 3.96894
23.6764 31.1724 3.97155
24.509 28.5118 2
25.4265 25.9345 0.0288643
26.0954 31.6829 2
28.2509 32.2843 0.0478928
26.9629 29.116 0.0123715
22.416 36.2688 3.9754
24.6378 36.8527 2
26.8271 37.3538 0.0332533
25.1932 43.1913 0.0295108
23.9631 39.4289 0.0294612
22.9113 41.8112 2
21.6885 38.5002 2
20.6442 40.6346 3.97432
20.0407 37.7797 3.97503
21.857 43.9694 0.0228767
19.7025 42.8971 2
17.3294 42.104 3.97357
18.9554 44.9825 0.024645
16.9346 44.3872 2
14.8332 44.205 3.97228
16.6097 46.2218 0.0264973
14.835 46.0968 2
12.9602 46.2988 3.97287
14.914 47.6769 0.0244048
13.2881 48.0131 2
11.4817 48.5516 3.97437
13.7792 49.5517 0.0244166
12.1092 50.2564 2
10.2587 51.0815 3.97703
12.8886 51.879 0.0237883
11.1323 52.8397 2
9.22987 53.8903 3.98122
8.3823 56.9833 3.98732
10.3207 55.7138 2
12.136 54.5316 0.0212471
7.74927 60.3285 4
9.69821 58.8507 2
11.5303 57.4622 0.0167635
9.306 62.2255 2
11.1323 60.6292 0.0104811
10.9835 64.0165 0
13.9524 21.7451 3.97729
15.1402 20.1771 2
13.4453 18.895 3.98087
16.3958 18.6434 0.0183939
14.7452 17.297 2
13.0267 15.8791 3.98441
16.0999 15.775 0.0165124
14.4816 14.2856 2
12.7816 12.6862 3.99134
16.0191 12.8044 0.0137184
14.444 11.113 2
12.7746 9.30605 4
16.2014 9.66178 0.00711491
14.6715 7.74924 2
16.6661 6.31991 0
22.9945 33.7893 3.97383
25.2784 34.2514 2
27.3351 34.7441 0.0462344
17.6137 24.0325 3.97738
17.8443 22.3126 2
14.3006 24.4452 3.97378
15.5169 22.9117 2
16.6721 21.3688 0.0220548
19.0111 27.1861 3.96755
19.7134 21.5622 0.0161625
19.6458 24.3665 2
21.1212 30.6484 3.97111
22.8246 24.5895 0.0254513
21.8822 27.8069 2
23.6704 31.1726 2
24.5054 28.5121 0.0326191
26.0932 31.6886 0.00836859
20.1772 35.9157 3.97404
22.4133 36.2699 2
24.6437 36.8532 0.0210005
22.9129 41.8099 0.0211314
21.6879 38.4994 0.0269316
20.6413 40.6352 2
20.0395 37.7801 2
18.0227 39.0012 3.97361
19.7019 42.8967 0.0249419
17.3298 42.1045 2
14.782 41.9204 3.97254
16.9346 44.3869 0.0275495
14.8332 44.2053 2
12.6983 44.3949 3.97288
14.8348 46.0964 0.0271895
12.9604 46.2993 2
10.984 46.7348 3.97327
13.2877 48.0126 0.0256657
11.4821 48.552 2
9.52316 49.2402 3.97564
12.1088 50.2559 0.0242985
10.2591 51.0819 2
8.26328 52.0022 3.98028
11.1321 52.8391 0.0220835
9.23 53.8906 2
7.19132 55.0327 3.98688
6.31991 58.3339 4
8.38168 56.9821 2
10.3208 55.7132 0.0179164
7.74924 60.3285 2
9.69875 58.8513 0.0117022
9.30605 62.2254 0
13.2223 25.3582 3.97939
12.8203 23.2751 3.97593
13.9522 21.744 2
12.2306 20.5446 3.97964
15.1402 20.178 0.0206249
13.4454 18.894 2
11.6562 17.5602 3.98393
14.745 17.2978 0.0177047
13.0268 15.8784 2
11.219 14.371 3.99001
14.4815 14.2864 0.0148708
12.7813 12.6863 2
10.9835 10.9835 4
14.4442 11.113 0.00767493
12.7745 9.306 2
14.6715 7.74927 0
20.5508 33.3833 3.97303
22.9931 33.7901 2
25.2859 34.2533 0.0124212
15.8886 26.3931 3.97136
17.6128 24.0317 2
17.8444 22.3136 0.015455
14.3003 24.4447 2
15.5173 22.9129 0.0248496
18.3509 30.1599 3.96967
19.0113 27.1859 2
19.6471 24.367 0.0222733
21.1186 30.6481 2
21.8811 27.8071 0.031056
23.6764 31.1724 0.0284538
17.6685 35.9599 3.97297
20.1755 35.916 2
22.416 36.2688 0.024597
20.6442 40.6346 0.025677
20.0407 37.7797 0.0249675
18.0217 39.0014 2
14.2981 39.1762 3.97186
17.3294 42.104 0.0264345
14.7822 41.9207 2
12.3868 42.2784 3.97137
14.8332 44.205 0.0277198
12.6983 44.3953 2
10.56 44.8039 3.97353
12.9602 46.2988 0.027134
10.9842 46.7353 2
8.90634 47.3189 3.97459
11.4817 48.5516 0.025633
9.52352 49.2406 2
7.431 50.0347 3.97888
10.2587 51.0815 0.0229704
8.26361 52.0023 2
6.13203 53.0066 3.98675
9.22987 53.8903 0.0187842
7.19085 55.031 2
5.0241 56.25 4
6.31988 58.3339 2
8.3823 56.9833 0.012684
7.74927 60.3285 0
13.4605 26.8086 3.97209
11.9353 24.785 3.97485
13.2221 25.3577 2
11.1342 22.2305 3.97799
12.8201 23.2743 2
13.9524 21.7451 0.0227064
12.2305 20.5434 2
10.3862 19.3156 3.98311
13.4453 18.895 0.019132
11.6561 17.5593 2
9.75973 16.1546 3.98875
13.0267 15.8791 0.0155865
11.2187 14.3711 2
9.30607 12.7746 4
12.7816 12.6862 0.0086618
10.9835 10.9835 2
12.7746 9.30605 0
17.8304 33.1028 3.97197
20.5497 33.3834 2
22.9945 33.7893 0.0261691
15.4733 29.6293 3.97145
15.8883 26.393 2
17.6137 24.0325 0.0226239
14.3006 24.4452 0.0262194
18.3508 30.16 2
19.0111 27.1861 0.0324533
21.1212 30.6484 0.0288933
14.9059 36.0154 3.97222
17.668 35.9601 2
20.1772 35.9157 0.0259649
12.5931 37.8286 3.97175
18.0227 39.0012 0.0263863
14.2981 39.1764 2
11.9041 40.1411 3.97074
14.782 41.9204 0.0274619
12.3869 42.2787 2
10.16 42.779 3.97197
12.6983 44.3949 0.02712
10.5601 44.8043 2
8.38383 45.3212 3.97466
10.984 46.7348 0.0267259
8.90657 47.3193 2
6.72292 47.9995 3.9778
9.52316 49.2402 0.024356
7.43132 50.0347 2
5.20907 50.9092 3.98643
8.26328 52.0022 0.0197237
6.13182 53.005 2
3.86727 54.0858 4
7.19132 55.0327 0.0131186
5.02404 56.25 2
6.31991 58.3339 0
12.9142 29.0278 3.97012
11.3664 26.4854 3.97323
13.4603 26.8083 2
10.1949 23.9658 3.97596
11.9352 24.7844 2
13.2223 25.3582 0.0206069
9.23877 21.1356 3.98151
11.1343 22.2295 2
12.8203 23.2751 0.024071
12.2306 20.5446 0.0203642
10.3861 19.3145 2
8.41549 18.0262 3.9879
11.6562 17.5602 0.0160683
9.75929 16.1549 2
7.74928 14.6715 4
11.219 14.371 0.00998601
9.30602 12.7745 2
10.9835 10.9835 0
14.4725 32.8576 3.97196
17.8325 33.1029 2
20.5508 33.3833 0.0269684
15.4733 29.6293 2
15.8886 26.3931 0.0286399
18.3509 30.1599 0.0303285
12.8867 36.2074 3.97135
14.9063 36.0156 2
17.6685 35.9599 0.0270255
12.5935 37.8287 2
11.2618 38.3096 3.97113
14.2981 39.1762 0.0281433
11.9042 40.1413 2
9.74848 40.7545 3.97043
12.3868 42.2784 0.0286309
10.16 42.7794 2
7.93345 43.2701 3.97347
10.56 44.8039 0.0264708
8.3839 45.3215 2
6.12908 45.9048 3.97774
8.90634 47.3189 0.0254079
6.72314 47.9995 2
4.42097 48.7499 3.98603
7.431 50.0347 0.0211161
5.20901 50.908 2
2.85457 51.8506 4
6.13203 53.0066 0.0132527
3.86727 54.0858 2
5.0241 56.25 0
12.0566 31.2528 3.97088
10.7785 28.4128 3.97229
12.9142 29.0276 2
9.41087 25.7973 3.97461
11.3663 26.4851 2
13.4605 26.8086 0.0279085
8.2268 23.0222 3.97938
10.195 23.9652 2
11.9353 24.785 0.0251531
7.19766 19.9771 3.98711
9.23888 21.1349 2
11.1342 22.2305 0.0220125
10.3862 19.3156 0.0168943
8.41492 18.027 2
6.31992 16.6661 4
9.75973 16.1546 0.0112546
7.74926 14.6714 2
9.30607 12.7746 0
12.0781 34.2924 3.9713
14.4723 32.8577 2
17.8304 33.1028 0.0280271
15.4733 29.6293 0.0285473
10.8259 36.6103 3.97109
12.8874 36.2075 2
14.9059 36.0154 0.0277837
12.5931 37.8286 0.0282488
11.262 38.3097 2
9.34432 38.8234 3.97065
11.9041 40.1411 0.02926
9.74862 40.7548 2
7.54705 41.2107 3.97169
10.16 42.779 0.0280296
7.93349 43.2703 2
5.64132 43.7679 3.97736
8.38383 45.3212 0.0253422
6.12918 45.9048 2
3.76676 46.5361 3.98594
6.72292 47.9995 0.0221971
4.42098 48.7493 2
1.99014 49.554 4
5.20907 50.9092 0.0135708
2.85451 51.8506 2
3.86727 54.0858 0
10.9183 32.9168 3.97155
10.0925 30.3804 3.97149
12.0565 31.2527 2
8.71909 27.7312 3.97405
10.7785 28.4126 2
12.9142 29.0278 0.0298795
7.35307 24.9823 3.97802
9.41087 25.7969 2
11.3664 26.4854 0.0267708
6.11484 22.002 3.98626
8.22704 23.0219 2
10.1949 23.9658 0.0240381
5.02411 18.75 4
7.19722 19.9785 2
9.23877 21.1356 0.0184869
8.41549 18.0262 0.012098
6.3199 16.6661 2
7.74928 14.6715 0
10.4348 34.9989 3.97123
12.0781 34.2925 2
14.4725 32.8576 0.0280382
9.01594 36.9847 3.97066
10.8265 36.6104 2
12.8867 36.2074 0.0286512
11.2618 38.3096 0.028869
9.34438 38.8235 2
7.22901 39.1813 3.97151
9.74848 40.7545 0.0295716
7.54718 41.2109 2
5.25808 41.6135 3.97551
7.93345 43.2701 0.0265283
5.64134 43.7679 2
3.24466 44.2816 3.98549
6.12908 45.9048 0.0222618
3.76681 46.5361 2
1.27781 47.2057 4
4.42097 48.7499 0.0139724
1.99012 49.554 2
2.85457 51.8506 0
10.086 33.8803 3.97156
9.386 32.1528 3.97246
10.9182 32.9168 2
8.06909 29.6951 3.97307
10.0924 30.3802 2
12.0566 31.2528 0.0291228
6.59703 27.0086 3.97747
8.71909 27.731 2
10.7785 28.4128 0.0277118
5.17037 24.0958 3.98588
7.3532 24.9822 2
9.41087 25.7973 0.0253863
3.86728 20.9142 4
6.11466 22.0034 2
8.2268 23.0222 0.0206216
5.02406 18.75 2
7.19766 19.9771 0.0128927
6.31992 16.6661 0
8.84266 35.2788 3.97074
10.4349 34.9989 2
12.0781 34.2924 0.0286986
7.01277 37.2055 3.97171
9.016 36.9847 2
10.8259 36.6103 0.028909
9.34432 38.8234 0.0293465
7.22908 39.1815 2
4.98698 39.4669 3.97439
7.54705 41.2107 0.0283115
5.2582 41.6135 2
2.85566 42.0021 3.98401
5.64132 43.7679 0.0226353
3.24468 44.2819 2
0.720592 44.8159 4
3.76676 46.5361 0.0140552
1.27778 47.2057 2
1.99014 49.554 0
8.88317 33.6967 3.97168
10.0859 33.8803 2
7.50727 31.6089 3.97332
9.3859 32.1527 2
10.9183 32.9168 0.0284497
5.94271 29.0698 3.97675
8.06901 29.695 2
10.0925 30.3804 0.0285137
4.3582 26.2484 3.98574
6.5971 27.0087 2
8.71909 27.7312 0.0259465
2.85458 23.1494 4
5.17027 24.0967 2
7.35307 24.9823 0.0219753
3.86728 20.9142 2
6.11484 22.002 0.0137421
5.02411 18.75 0
6.96332 35.3058 3.97145
8.84275 35.2788 2
10.4348 34.9989 0.0287653
4.83713 37.3396 3.97484
7.01282 37.2056 2
9.01594 36.9847 0.0293445
7.22901 39.1813 0.0284946
4.98703 39.4669 2
2.60419 39.7139 3.98276
5.25808 41.6135 0.0244884
2.8558 42.0026 2
0.320823 42.3947 4
3.24466 44.2816 0.0145068
0.720551 44.8159 2
1.27781 47.2057 0
7.12206 33.4606 3.97281
8.88315 33.6966 2
10.086 33.8803 0.0284391
5.4142 31.1338 3.9764
7.50714 31.6088 2
9.386 32.1528 0.0275357
3.68021 28.4441 3.98527
5.94267 29.0699 2
8.06909 29.6951 0.0269328
1.99015 25.446 4
4.35816 26.2489 2
6.59703 27.0086 0.0225316
2.85453 23.1494 2
5.17037 24.0958 0.01412
3.86728 20.9142 0
4.85162 35.2516 3.9747
6.96342 35.3058 2
8.84266 35.2788 0.0292631
2.49558 37.4285 3.98311
4.83718 37.3398 2
7.01277 37.2055 0.0282902
4.98698 39.4669 0.0256136
2.60426 39.7144 2
0.080333 39.9526 4
2.85566 42.0021 0.0159944
0.320817 42.3947 2
0.720592 44.8159 0
5.04429 33.1904 3.9758
7.12202 33.4606 2
8.88317 33.6967 0.0283154
3.14485 30.6664 3.98444
5.41406 31.134 2
7.50727 31.6089 0.0266785
1.27793 27.7943 4
3.68019 28.4442 2
5.94271 29.0698 0.023247
1.99013 25.446 2
4.3582 26.2484 0.0142622
2.85458 23.1494 0
2.54779 35.159 3.98302
4.85172 35.2518 2
6.96332 35.3058 0.0285482
0 37.5 4
2.4957 37.429 2
4.83713 37.3396 0.0251641
2.60419 39.7139 0.0172365
0.0802903 39.9526 2
0.320823 42.3947 0
2.76515 32.9058 3.98369
5.04424 33.1906 2
7.12206 33.4606 0.027194
0.721173 30.1842 4
3.14481 30.6665 2
5.4142 31.1338 0.0236049
1.27779 27.7943 2
3.68021 28.4441 0.0147331
1.99015 25.446 0
0.0806499 35.0474 4
2.54791 35.1595 2
4.85162 35.2516 0.0252954
0 37.5 2
2.49558 37.4285 0.0168909
0.080333 39.9526 0
0.32156 32.6054 4
2.76518 32.9061 2
5.04429 33.1904 0.0242007
0.72056 30.1841 2
3.14485 30.6664 0.0155593
1.27793 27.7943 0
0.0802889 35.0474 2
2.54779 35.159 0.0169786
0 37.5 0
0.320817 32.6053 2
2.76515 32.9058 0.0163091
0.721173 30.1842 0
0.0806499 35.0474 0
0.32156 32.6054 0
CELLS 1910 17190
8 18 6 25 56 2 0 5 16
8 57 23 6 18 17 4 0 2
8 78 36 9 29 31 11 1 7
8 31 11 1 7 79 37 10 30
8 110 57 18 50 48 17 2 14
8 50 18 56 111 14 2 16 49
8 116 62 22 55 52 20 3 15
8 56 25 67 118 16 5 24 53
8 119 63 23 57 54 21 4 17
8 55 22 63 119 15 3 21 54
8 58 26 68 121 18 6 25 56
8 122 65 26 58 57 23 6 18
8 73 31 7 27 142 79 30 71
8 143 78 29 72 73 31 7 27
8 83 147 76 34 32 74 28 8
8 84 148 78 36 33 75 29 9
8 76 34 8 28 148 84 33 75
8 37 79 150 86 10 30 77 35
8 151 87 36 78 80 38 11 31
8 80 38 11 31 152 88 37 79
8 175 100 42 94 96 44 12 40
8 44 96 176 101 12 40 95 43
8 101 176 98 46 43 95 41 13
8 46 98 178 103 13 41 97 45
8 178 103 45 97 147 83 32 74
8 189 116 55 109 106 52 15 47
8 111 56 118 191 49 16 53 107
8 192 119 57 110 108 54 17 48
8 109 55 119 192 47 15 54 108
8 194 122 58 112 110 57 18 50
8 112 58 121 195 50 18 56 111
8 115 61 19 51 197 124 59 113
8 115 61 125 198 51 19 60 114
8 198 125 62 116 114 60 20 52
8 200 127 64 120 116 62 22 55
8 118 67 132 202 53 24 66 117
8 121 68 133 203 56 25 67 118
8 120 64 128 204 55 22 63 119
8 204 128 65 122 119 63 23 57
8 206 134 68 121 123 69 26 58
8 123 69 26 58 207 131 65 122
8 226 147 74 138 140 76 28 70
8 229 148 75 139 143 78 29 72
8 140 76 28 70 229 148 75 139
8 142 79 30 71 231 150 77 141
8 144 80 31 73 232 152 79 142
8 233 151 78 143 144 80 31 73
8 150 86 35 77 235 154 81 145
8 235 154 81 145 146 82 39 91
8 146 82 39 91 236 155 90 165
8 238 157 83 147 149 85 34 76
8 239 158 84 148 151 87 36 78
8 149 85 34 76 239 158 84 148
8 152 88 37 79 241 160 86 150
8 242 161 87 151 153 89 38 80
8 153 89 38 80 243 162 88 152
8 171 98 41 92 265 178 97 169
8 265 178 97 169 226 147 74 138
8 172 96 40 93 266 176 95 170
8 266 176 95 170 171 98 41 92
8 269 175 94 173 172 96 40 93
8 271 180 99 174 175 100 42 94
8 197 124 59 113 271 180 99 174
8 272 181 100 175 177 102 44 96
8 273 182 101 176 179 104 46 98
8 177 102 44 96 273 182 101 176
8 179 104 46 98 275 184 103 178
8 275 184 103 178 238 157 83 147
8 188 115 51 105 283 197 113 186
8 188 115 198 284 105 51 114 187
8 284 198 116 189 187 114 52 106
8 286 200 120 193 189 116 55 109
8 191 118 202 288 107 53 117 190
8 195 121 203 289 111 56 118 191
8 193 120 204 290 109 55 119 192
8 290 204 122 194 192 119 57 110
8 196 123 58 112 292 207 122 194
8 293 206 121 195 196 123 58 112
8 199 126 61 115 297 211 124 197
8 298 212 127 200 198 125 62 116
8 199 126 212 298 115 61 125 198
8 205 129 64 120 300 214 127 200
8 301 217 130 201 202 132 66 117
8 209 136 168 264 301 217 130 201
8 302 219 132 202 203 133 67 118
8 303 220 133 203 206 134 68 121
8 205 129 215 304 120 64 128 204
8 304 215 131 207 204 128 65 122
8 306 221 134 206 208 135 69 123
8 208 135 69 123 307 218 131 207
8 210 137 167 263 309 223 136 209
8 328 238 147 226 230 149 76 140
8 228 146 91 166 329 236 165 260
8 231 150 77 141 330 235 145 227
8 330 235 145 227 228 146 91 166
8 332 239 148 229 233 151 78 143
8 230 149 76 140 332 239 148 229
8 232 152 79 142 334 241 150 231
8 234 153 80 144 335 243 152 232
8 336 242 151 233 234 153 80 144
8 236 155 90 165 338 245 164 259
8 241 160 86 150 339 246 154 235
8 339 246 154 235 237 156 82 146
8 237 156 82 146 340 247 155 236
8 342 249 157 238 240 159 85 149
8 343 250 158 239 242 161 87 151
8 240 159 85 149 343 250 158 239
8 243 162 88 152 345 252 160 241
8 244 163 253 346 153 89 161 242
8 244 163 89 153 347 254 162 243
8 311 224 261 371 210 137 167 263
8 263 167 262 372 209 136 168 264
8 267 179 98 171 375 275 178 265
8 375 275 178 265 328 238 147 226
8 376 273 176 266 267 179 98 171
8 268 177 96 172 376 273 176 266
8 379 272 175 269 268 177 96 172
8 380 271 174 270 269 175 94 173
8 283 197 113 186 380 271 174 270
8 381 277 180 271 272 181 100 175
8 297 211 124 197 381 277 180 271
8 382 278 181 272 274 183 102 177
8 274 183 102 177 383 279 182 273
8 383 279 182 273 276 185 104 179
8 385 281 184 275 342 249 157 238
8 276 185 104 179 385 281 184 275
8 285 199 115 188 393 297 197 283
8 394 298 200 286 284 198 116 189
8 285 199 298 394 188 115 198 284
8 291 205 120 193 396 300 200 286
8 397 301 201 287 288 202 117 190
8 295 209 264 374 397 301 201 287
8 398 302 202 288 289 203 118 191
8 399 303 203 289 293 206 121 195
8 291 205 304 400 193 120 204 290
8 400 304 207 292 290 204 122 194
8 294 208 123 196 402 307 207 292
8 403 306 206 293 294 208 123 196
8 296 210 263 373 405 309 209 295
8 408 312 213 299 297 211 126 199
8 299 213 313 409 199 126 212 298
8 409 313 214 300 298 212 127 200
8 305 216 129 205 411 315 214 300
8 412 318 217 301 302 219 132 202
8 309 223 136 209 412 318 217 301
8 413 320 219 302 303 220 133 203
8 306 221 321 414 206 134 220 303
8 307 218 131 207 415 316 215 304
8 305 216 316 415 205 129 215 304
8 417 322 221 306 308 222 135 208
8 308 222 135 208 418 319 218 307
8 310 225 137 210 420 325 223 309
8 423 326 224 311 310 225 137 210
8 329 236 165 260 441 338 259 368
8 442 342 238 328 333 240 149 230
8 331 237 146 228 443 340 236 329
8 334 241 150 231 444 339 235 330
8 444 339 235 330 331 237 146 228
8 446 343 239 332 336 242 151 233
8 333 240 149 230 446 343 239 332
8 335 243 152 232 448 345 241 334
8 337 244 153 234 449 347 243 335
8 337 244 346 450 234 153 242 336
8 338 245 164 259 452 349 258 367
8 340 247 155 236 453 350 245 338
8 345 252 160 241 454 351 246 339
8 454 351 246 339 341 248 156 237
8 341 248 156 237 455 352 247 340
8 240 159 251 344 342 249 354 457
8 242 161 253 346 343 250 355 458
8 343 250 355 458 240 159 251 344
8 347 254 162 243 460 357 252 345
8 348 255 358 461 244 163 253 346
8 348 255 163 244 462 359 254 347
8 473 360 257 365 363 256 364 482
8 452 349 258 367 365 257 366 485
8 422 324 369 488 311 224 261 371
8 371 261 370 490 263 167 262 372
8 407 311 371 491 296 210 263 373
8 373 263 372 492 295 209 264 374
8 493 385 275 375 442 342 238 328
8 377 276 179 267 493 385 275 375
8 378 274 177 268 494 383 273 376
8 494 383 273 376 377 276 179 267
8 497 382 272 379 378 274 177 268
8 498 381 271 380 379 272 175 269
8 393 297 197 283 498 381 271 380
8 499 387 277 381 382 278 181 272
8 408 312 211 297 499 387 277 381
8 500 388 278 382 384 280 183 274
8 501 389 279 383 386 282 185 276
8 384 280 183 274 501 389 279 383
8 386 282 185 276 503 391 281 385
8 503 391 281 385 457 354 249 342
8 511 408 299 395 393 297 199 285
8 395 299 409 512 285 199 298 394
8 512 409 300 396 394 298 200 286
8 401 305 205 291 514 411 300 396
8 515 412 301 397 398 302 202 288
8 405 309 209 295 515 412 301 397
8 516 413 302 398 399 303 203 289
8 403 306 414 517 293 206 303 399
8 402 307 207 292 518 415 304 400
8 401 305 415 518 291 205 304 400
8 404 308 208 294 520 418 307 402
8 521 417 306 403 404 308 208 294
8 406 310 210 296 523 420 309 405
8 526 423 311 407 406 310 210 296
8 410 314 213 299 527 424 312 408
8 528 425 315 411 409 313 214 300
8 410 314 425 528 299 213 313 409
8 416 317 216 305 530 427 315 411
8 531 430 318 412 413 320 219 302
8 420 325 223 309 531 430 318 412
8 532 432 320 413 414 321 220 303
8 417 322 433 533 306 221 321 414
8 418 319 218 307 534 428 316 415
8 416 317 428 534 305 216 316 415
8 419 323 434 536 308 222 322 417
8 419 323 222 308 537 431 319 418
8 421 327 225 310 539 438 325 420
8 421 327 439 541 310 225 326 423
8 543 437 324 422 423 326 224 311
8 441 338 259 368 559 452 367 486
8 443 340 236 329 560 453 338 441
8 333 240 344 447 442 342 457 561
8 445 341 237 331 562 455 340 443
8 448 345 241 334 563 454 339 444
8 563 454 339 444 445 341 237 331
8 336 242 346 450 446 343 458 565
8 446 343 458 565 333 240 344 447
8 449 347 243 335 567 460 345 448
8 451 348 244 337 568 462 347 449
8 451 348 461 569 337 244 346 450
8 570 463 349 452 473 360 257 365
8 453 350 245 338 570 463 349 452
8 455 352 247 340 571 464 350 453
8 460 357 252 345 572 465 351 454
8 572 465 351 454 456 353 248 341
8 456 353 248 341 573 466 352 455
8 344 251 356 459 457 354 468 575
8 458 355 469 576 344 251 356 459
8 346 253 358 461 458 355 469 576
8 462 359 254 347 578 471 357 460
8 348 255 359 462 461 358 472 579
8 591 474 360 473 475 361 256 363
8 475 361 256 363 594 477 362 479
8 363 256 364 482 479 362 480 603
8 590 473 365 484 481 363 482 605
8 482 364 257 365 606 483 366 485
8 559 452 367 486 484 365 485 607
8 542 436 487 609 422 324 369 488
8 525 422 488 611 407 311 371 491
8 488 369 489 612 371 261 370 490
8 491 371 490 613 373 263 372 492
8 495 386 276 377 614 503 385 493
8 614 503 385 493 561 457 342 442
8 615 501 383 494 495 386 276 377
8 496 384 274 378 615 501 383 494
8 618 500 382 497 496 384 274 378
8 619 499 381 498 497 382 272 379
8 511 408 297 393 619 499 381 498
8 620 505 387 499 500 388 278 382
8 527 424 312 408 620 505 387 499
8 502 390 506 621 384 280 388 500
8 622 507 389 501 504 392 282 386
8 502 390 280 384 622 507 389 501
8 504 392 282 386 624 509 391 503
8 624 509 391 503 575 468 354 457
8 513 410 299 395 630 527 408 511
8 631 528 411 514 512 409 300 396
8 513 410 528 631 395 299 409 512
8 519 416 305 401 633 530 411 514
8 634 531 412 515 516 413 302 398
8 523 420 309 405 634 531 412 515
8 635 532 413 516 517 414 303 399
8 521 417 533 636 403 306 414 517
8 520 418 307 402 637 534 415 518
8 519 416 534 637 401 305 415 518
8 522 419 308 404 639 537 418 520
8 522 419 536 640 404 308 417 521
8 524 421 310 406 642 539 420 523
8 524 421 541 644 406 310 423 526
8 646 543 422 525 526 423 311 407
8 529 426 314 410 647 544 424 527
8 528 425 545 648 411 315 427 530
8 529 426 545 648 410 314 425 528
8 535 429 317 416 649 546 427 530
8 650 548 430 531 532 432 320 413
8 539 438 325 420 650 548 430 531
8 533 433 550 651 414 321 432 532
8 536 434 551 652 417 322 433 533
8 537 431 319 418 653 547 428 534
8 535 429 547 653 416 317 428 534
8 538 435 552 654 419 323 434 536
8 538 435 323 419 655 549 431 537
8 540 440 327 421 657 556 438 539
8 540 440 557 659 421 327 439 541
8 541 439 555 660 423 326 437 543
8 661 554 436 542 543 437 324 422
8 676 570 452 559 590 473 365 484
8 560 453 338 441 676 570 452 559
8 562 455 340 443 677 571 453 560
8 447 344 459 566 561 457 575 678
8 564 456 341 445 679 573 455 562
8 567 460 345 448 680 572 454 563
8 680 572 454 563 564 456 341 445
8 565 458 576 682 447 344 459 566
8 450 346 461 569 565 458 576 682
8 568 462 347 449 684 578 460 567
8 451 348 462 568 569 461 579 685
8 686 580 463 570 591 474 360 473
8 571 464 350 453 686 580 463 570
8 573 466 352 455 687 581 464 571
8 572 465 582 688 460 357 471 578
8 574 467 582 688 456 353 465 572
8 574 467 353 456 689 583 466 573
8 459 356 470 577 575 468 585 691
8 576 469 586 692 459 356 470 577
8 461 358 472 579 576 469 586 692
8 462 359 471 578 579 472 588 694
8 704 591 473 590 593 475 363 481
8 595 476 592 705 475 361 474 591
8 593 475 363 481 707 594 479 602
8 594 477 362 479 709 598 478 600
8 595 476 361 475 711 597 477 594
8 479 362 480 603 600 478 601 720
8 481 363 482 605 602 479 603 722
8 603 480 364 482 723 604 483 606
8 605 482 365 484 724 606 485 607
8 656 553 608 726 542 436 487 609
8 645 542 609 728 525 422 488 611
8 609 487 610 729 488 369 489 612
8 611 488 612 730 491 371 490 613
8 616 504 386 495 731 624 503 614
8 731 624 503 614 678 575 457 561
8 732 622 501 615 616 504 386 495
8 617 502 384 496 732 622 501 615
8 617 502 621 735 496 384 500 618
8 736 620 499 619 618 500 382 497
8 630 527 408 511 736 620 499 619
8 621 506 626 737 500 388 505 620
8 647 544 424 527 737 626 505 620
8 623 508 627 738 502 390 506 621
8 623 508 390 502 739 628 507 622
8 625 510 628 739 504 392 507 622
8 740 629 509 624 691 585 468 575
8 625 510 392 504 740 629 509 624
8 632 529 410 513 744 647 527 630
8 631 528 648 745 514 411 530 633
8 632 529 648 745 513 410 528 631
8 638 535 416 519 746 649 530 633
8 747 650 531 634 635 532 413 516
8 642 539 420 523 747 650 531 634
8 636 533 651 748 517 414 532 635
8 640 536 652 749 521 417 533 636
8 639 537 418 520 750 653 534 637
8 638 535 653 750 519 416 534 637
8 641 538 419 522 751 655 537 639
8 641 538 654 752 522 419 536 640
8 643 540 421 524 753 657 539 642
8 643 540 659 755 524 421 541 644
8 644 541 660 757 526 423 543 646
8 758 661 542 645 646 543 422 525
8 529 426 544 647 648 545 662 759
8 530 427 545 648 649 546 663 760
8 535 429 546 649 653 547 664 761
8 762 666 548 650 651 550 432 532
8 657 556 438 539 762 666 548 650
8 652 551 668 763 533 433 550 651
8 654 552 669 764 536 434 551 652
8 655 549 431 537 765 665 547 653
8 538 435 549 655 654 552 667 766
8 661 554 671 768 542 436 553 656
8 658 558 440 540 769 674 556 657
8 658 558 675 770 540 440 557 659
8 659 557 673 771 541 439 555 660
8 660 555 672 772 543 437 554 661
8 788 686 570 676 704 591 473 590
8 677 571 453 560 788 686 570 676
8 679 573 455 562 789 687 571 677
8 566 459 577 683 678 575 691 790
8 681 574 456 564 791 689 573 679
8 680 572 688 792 567 460 578 684
8 681 574 688 792 564 456 572 680
8 682 576 692 794 566 459 577 683
8 569 461 579 685 682 576 692 794
8 568 462 578 684 685 579 694 796
8 687 581 464 571 798 696 580 686
8 798 696 580 686 705 592 474 591
8 689 583 466 573 799 697 581 687
8 688 582 698 800 578 471 588 694
8 690 584 698 800 574 467 582 688
8 690 584 467 574 801 699 583 689
8 693 587 701 803 577 470 585 691
8 693 587 470 577 804 702 586 692
8 695 589 702 804 579 472 586 692
8 695 589 472 579 805 703 588 694
8 708 595 705 813 593 475 591 704
8 710 596 706 814 595 476 592 705
8 707 594 479 602 816 709 600 719
8 708 595 475 593 817 711 594 707
8 709 598 478 600 819 715 599 717
8 711 597 477 594 820 714 598 709
8 710 596 476 595 822 713 597 711
8 600 478 601 720 717 599 718 832
8 602 479 603 722 719 600 720 834
8 720 601 480 603 835 721 604 723
8 722 603 482 605 836 723 606 724
8 767 670 725 839 656 553 608 726
8 756 656 726 841 645 542 609 728
8 726 608 727 842 609 487 610 729
8 728 609 729 843 611 488 612 730
8 844 740 624 731 790 691 575 678
8 733 625 504 616 844 740 624 731
8 734 623 502 617 845 739 622 732
8 733 625 739 845 616 504 622 732
8 734 623 738 846 617 502 621 735
8 735 621 737 847 618 500 620 736
8 744 647 527 630 847 737 620 736
8 621 506 627 738 737 626 741 848
8 647 544 626 737 759 662 741 848
8 623 508 628 739 738 627 742 849
8 740 629 585 691 850 743 700 802
8 625 510 629 740 739 628 743 850
8 632 529 647 744 745 648 759 854
8 633 530 648 745 746 649 760 855
8 638 535 649 746 750 653 761 856
8 857 762 650 747 748 651 532 635
8 753 657 539 642 857 762 650 747
8 749 652 763 858 636 533 651 748
8 752 654 764 859 640 536 652 749
8 751 655 537 639 860 765 653 750
8 641 538 655 751 752 654 766 861
8 754 658 540 643 862 769 657 753
8 754 658 770 863 643 540 659 755
8 755 659 771 864 644 541 660 757
8 758 661 768 866 645 542 656 756
8 757 660 772 867 646 543 661 758
8 759 662 773 868 648 545 663 760
8 649 546 663 760 761 664 774 871
8 765 665 547 653 872 775 664 761
8 873 777 666 762 763 668 550 651
8 769 674 556 657 873 777 666 762
8 764 669 779 874 652 551 668 763
8 654 552 667 766 764 669 778 875
8 655 549 665 765 766 667 776 876
8 768 671 782 877 656 553 670 767
8 772 672 783 878 661 554 671 768
8 658 558 674 769 770 675 786 879
8 659 557 675 770 771 673 785 881
8 882 784 672 772 771 673 555 660
8 789 687 571 677 897 798 686 788
8 897 798 686 788 813 705 591 704
8 791 689 573 679 898 799 687 789
8 795 693 803 900 683 577 691 790
8 793 690 574 681 901 801 689 791
8 792 688 800 902 684 578 694 796
8 793 690 800 902 681 574 688 792
8 795 693 577 683 903 804 692 794
8 797 695 804 903 685 579 692 794
8 797 695 579 685 904 805 694 796
8 905 806 697 799 798 696 581 687
8 814 706 806 905 705 592 696 798
8 689 583 697 799 801 699 808 907
8 800 698 809 908 694 588 703 805
8 690 584 699 801 800 698 809 908
8 803 701 810 909 691 585 700 802
8 693 587 702 804 803 701 811 910
8 695 589 703 805 804 702 812 911
8 818 710 814 919 708 595 705 813
8 821 712 815 920 710 596 706 814
8 816 709 600 719 922 819 717 831
8 817 711 594 707 923 820 709 816
8 818 710 595 708 924 822 711 817
8 819 715 599 717 926 827 716 829
8 820 714 598 709 927 826 715 819
8 929 825 713 822 820 714 597 711
8 821 712 596 710 930 824 713 822
8 717 599 718 832 829 716 830 942
8 719 600 720 834 831 717 832 944
8 832 718 601 720 945 833 721 835
8 834 720 603 722 946 835 723 836
8 869 780 838 950 767 670 725 839
8 865 767 839 952 756 656 726 841
8 839 725 840 953 726 608 727 842
8 841 726 842 954 728 609 729 843
8 844 740 691 790 955 850 802 899
8 733 625 740 844 845 739 850 955
8 734 623 739 845 846 738 849 956
8 735 621 738 846 847 737 848 957
8 744 647 737 847 854 759 848 957
8 738 627 742 849 848 741 851 958
8 848 741 851 958 759 662 773 868
8 850 743 700 802 959 852 807 906
8 849 742 628 739 959 852 743 850
8 854 759 868 965 745 648 760 855
8 746 649 760 855 856 761 871 966
8 860 765 653 750 967 872 761 856
8 968 873 762 857 858 763 651 748
8 862 769 657 753 968 873 762 857
8 859 764 874 969 749 652 763 858
8 752 654 766 861 859 764 875 970
8 751 655 765 860 861 766 876 971
8 754 658 769 862 863 770 879 972
8 755 659 770 863 864 771 881 974
8 976 882 772 867 864 771 660 757
8 866 768 877 977 756 656 767 865
8 867 772 878 978 758 661 768 866
8 760 663 773 868 871 774 883 980
8 870 781 837 948 982 890 780 869
8 982 890 780 869 877 782 670 767
8 761 664 774 871 872 775 884 984
8 876 776 665 765 985 885 775 872
8 873 777 668 763 986 887 779 874
8 769 674 777 873 879 786 887 986
8 764 669 778 875 874 779 888 987
8 766 667 776 876 875 778 886 988
8 878 783 892 989 768 671 782 877
8 878 783 672 772 990 893 784 882
8 880 787 675 770 991 896 786 879
8 880 787 895 992 770 675 785 881
8 881 785 894 993 771 673 784 882
8 1006 905 799 898 897 798 687 789
8 919 814 905 1006 813 705 798 897
8 791 689 799 898 901 801 907 1007
8 900 803 909 1009 790 691 802 899
8 795 693 804 903 900 803 910 1010
8 902 800 908 1011 796 694 805 904
8 793 690 801 901 902 800 908 1011
8 797 695 805 904 903 804 911 1012
8 799 697 806 905 907 808 912 1013
8 920 815 912 1013 814 706 806 905
8 802 700 810 909 906 807 913 1014
8 801 699 808 907 908 809 914 1015
8 805 703 809 908 911 812 915 1016
8 803 701 811 910 909 810 916 1017
8 911 812 917 1018 804 702 811 910
8 925 821 920 1030 818 710 814 919
8 928 823 921 1031 821 712 815 920
8 922 819 717 831 1033 926 829 941
8 923 820 709 816 1034 927 819 922
8 1035 929 822 924 923 820 711 817
8 925 821 710 818 1036 930 822 924
8 1038 933 825 929 927 826 714 820
8 926 827 716 829 1039 935 828 939
8 927 826 715 819 1040 934 827 926
8 928 823 712 821 1041 931 824 930
8 1042 932 824 930 929 825 713 822
8 829 716 830 942 939 828 940 1058
8 831 717 832 944 941 829 942 1060
8 942 830 718 832 1061 943 833 945
8 944 832 720 834 1062 945 835 946
8 981 889 947 1064 870 781 837 948
8 948 837 949 1067 869 780 838 950
8 975 869 950 1069 865 767 839 952
8 950 838 951 1070 839 725 840 953
8 952 839 953 1071 841 726 842 954
8 955 850 802 899 1072 959 906 1008
8 956 849 739 845 1072 959 850 955
8 846 738 849 956 957 848 958 1073
8 957 848 958 1073 854 759 868 965
8 849 742 852 959 958 851 961 1076
8 960 853 961 1076 906 807 852 959
8 958 851 961 1076 868 773 883 980
8 960 853 807 906 1077 963 913 1014
8 855 760 868 965 966 871 980 1085
8 856 761 871 966 967 872 984 1086
8 971 876 765 860 1087 985 872 967
8 968 873 763 858 1088 986 874 969
8 862 769 873 968 972 879 986 1088
8 859 764 875 970 969 874 987 1089
8 861 766 876 971 970 875 988 1090
8 973 880 770 863 1091 991 879 972
8 973 880 992 1092 863 770 881 974
8 974 881 993 1093 864 771 882 976
8 979 870 948 1066 1094 982 869 975
8 1094 982 869 975 977 877 767 865
8 978 878 772 867 1095 990 882 976
8 978 878 989 1096 866 768 877 977
8 871 774 883 980 984 884 994 1099
8 983 891 999 1100 870 781 889 981
8 1101 1000 890 982 989 892 782 877
8 983 891 781 870 1101 1000 890 982
8 872 775 884 984 985 885 995 1103
8 876 776 885 985 988 886 996 1104
8 986 887 779 874 1105 998 888 987
8 879 786 887 986 991 896 998 1105
8 875 778 886 988 987 888 997 1106
8 990 893 1002 1107 878 783 892 989
8 1108 1003 893 990 993 894 784 882
8 880 787 896 991 992 895 1005 1109
8 993 894 785 881 1110 1004 895 992
8 898 799 905 1006 1007 907 1013 1120
8 1030 920 1013 1120 919 814 905 1006
8 901 801 907 1007 1011 908 1015 1121
8 899 802 909 1009 1008 906 1014 1122
8 900 803 910 1010 1009 909 1017 1123
8 1012 911 1018 1124 903 804 910 1010
8 904 805 908 1011 1012 911 1016 1125
8 1013 912 1020 1127 907 808 914 1015
8 1031 921 1020 1127 920 815 912 1013
8 1019 918 962 1075 1128 1021 913 1014
8 1128 1021 913 1014 1017 916 810 909
8 1015 914 1022 1129 908 809 915 1016
8 1016 915 1023 1130 911 812 917 1018
8 1018 917 1024 1131 910 811 916 1017
8 1037 928 1031 1148 925 821 920 1030
8 928 823 931 1041 1031 921 1032 1149
8 1033 926 829 941 1151 1039 939 1057
8 1034 927 819 922 1152 1040 926 1033
8 1153 1038 929 1035 1034 927 820 923
8 1154 1042 930 1036 1035 929 822 924
8 1037 928 821 925 1155 1041 930 1036
8 1039 935 828 939 1156 1047 938 1055
8 1157 1043 932 1042 1038 933 825 929
8 1038 933 826 927 1158 1045 934 1040
8 1040 934 827 926 1159 1046 935 1039
8 930 824 932 1042 1041 931 1044 1160
8 1051 936 1048 1165 1175 1052 937 1053
8 1156 1047 938 1055 1053 937 1054 1178
8 939 828 940 1058 1055 938 1056 1181
8 941 829 942 1060 1057 939 1058 1183
8 942 830 943 1061 1058 940 1059 1184
8 1060 942 832 944 1185 1061 945 1062
8 1082 964 1063 1188 981 889 947 1064
8 1097 981 1064 1190 979 870 948 1066
8 1064 947 1065 1191 948 837 949 1067
8 1066 948 1067 1193 975 869 950 1069
8 1067 949 1068 1194 950 838 951 1070
8 1069 950 1070 1195 952 839 953 1071
8 956 849 959 1072 1073 958 1076 1197
8 1074 960 1076 1197 1008 906 959 1072
8 1073 958 1076 1197 965 868 980 1085
8 1074 960 906 1008 1198 1077 1014 1122
8 1133 1026 1079 1199 1019 918 962 1075
8 1077 963 913 1014 1200 1080 962 1075
8 960 853 963 1077 1076 961 1078 1201
8 980 883 961 1076 1099 994 1078 1201
8 1210 1083 964 1082 1100 999 889 981
8 966 871 980 1085 1086 984 1099 1215
8 967 872 984 1086 1087 985 1103 1216
8 971 876 985 1087 1090 988 1104 1217
8 1088 986 874 969 1218 1105 987 1089
8 972 879 986 1088 1091 991 1105 1218
8 970 875 988 1090 1089 987 1106 1219
8 973 880 991 1091 1092 992 1109 1220
8 1093 993 881 974 1221 1110 992 1092
8 1222 1108 990 1095 1093 993 882 976
8 1223 1101 982 1094 1096 989 877 977
8 1098 983 870 979 1223 1101 982 1094
8 1095 990 1107 1224 978 878 989 1096
8 1098 983 1100 1225 979 870 981 1097
8 984 884 994 1099 1103 995 1111 1227
8 1102 1001 1115 1228 983 891 999 1100
8 1101 1000 892 989 1229 1116 1002 1107
8 1102 1001 891 983 1229 1116 1000 1101
8 985 885 995 1103 1104 996 1112 1230
8 988 886 996 1104 1106 997 1113 1231
8 1105 998 888 987 1232 1114 997 1106
8 991 896 998 1105 1109 1005 1114 1232
8 1108 1003 1117 1233 990 893 1002 1107
8 1108 1003 894 993 1233 1117 1004 1110
8 992 895 1005 1109 1110 1004 1118 1234
8 1120 1013 1127 1244 1007 907 1015 1121
8 1148 1031 1127 1244 1030 920 1013 1120
8 1121 1015 1129 1245 1011 908 1016 1125
8 1126 1019 1075 1196 1246 1128 1014 1122
8 1246 1128 1014 1122 1123 1017 909 1009
8 1124 1018 1131 1247 1010 910 1017 1123
8 1125 1016 1130 1248 1012 911 1018 1124
8 1127 1020 1137 1254 1015 914 1022 1129
8 1031 921 1032 1149 1127 1020 1137 1254
8 1134 1027 918 1019 1257 1140 1021 1128
8 1257 1140 1021 1128 1131 1024 916 1017
8 1129 1022 1141 1258 1016 915 1023 1130
8 1130 1023 1142 1259 1018 917 1024 1131
8 1261 1144 1025 1132 1133 1026 1079 1199
8 1255 1138 1025 1132 1135 1028 1144 1261
8 1133 1026 918 1019 1262 1145 1027 1134
8 1136 1029 1139 1256 1263 1146 1028 1135
8 1037 928 1041 1155 1148 1031 1149 1275
8 1041 931 1044 1160 1149 1032 1150 1276
8 1151 1039 939 1057 1278 1156 1055 1180
8 1152 1040 926 1033 1279 1159 1039 1151
8 1153 1038 927 1034 1280 1158 1040 1152
8 1281 1157 1042 1154 1153 1038 929 1035
8 1036 930 1042 1154 1155 1041 1160 1282
8 1283 1164 1046 1159 1156 1047 935 1039
8 1165 1048 1164 1283 1053 937 1047 1156
8 1157 1043 933 1038 1284 1161 1045 1158
8 1157 1043 1161 1284 1042 932 1044 1160
8 1040 934 1046 1159 1158 1045 1163 1285
8 1166 1049 1167 1292 1051 936 1048 1165
8 1166 1049 936 1051 1293 1168 1050 1172
8 1051 936 1052 1175 1172 1050 1173 1306
8 1174 1051 1165 1290 1308 1175 1053 1177
8 1053 937 1054 1178 1175 1052 1176 1309
8 1278 1156 1055 1180 1177 1053 1178 1311
8 1055 938 1056 1181 1178 1054 1179 1312
8 1057 939 1058 1183 1180 1055 1181 1314
8 1058 940 1059 1184 1181 1056 1182 1315
8 1060 942 1061 1185 1183 1058 1184 1316
8 1208 1081 1187 1321 1082 964 1063 1188
8 1209 1082 1188 1322 1097 981 1064 1190
8 1188 1063 1189 1323 1064 947 1065 1191
8 1190 1064 1191 1325 1066 948 1067 1193
8 1191 1065 1192 1326 1067 949 1068 1194
8 1067 1193 1069 950 1194 1327 1195 1070
8 1250 1133 1199 1330 1126 1019 1075 1196
8 1198 1077 1014 1122 1331 1200 1075 1196
8 1074 960 1077 1198 1197 1076 1201 1332
8 1085 980 1076 1197 1215 1099 1201 1332
8 1199 1079 1203 1333 1075 962 1080 1200
8 1132 1025 1119 1243 1199 1079 1203 1333
8 1201 1078 963 1077 1334 1202 1080 1200
8 1099 994 1078 1201 1227 1111 1202 1334
8 1343 1207 1081 1208 1210 1083 964 1082
8 1214 1084 1186 1319 1343 1207 1081 1208
8 1345 1210 1082 1209 1225 1100 981 1097
8 1346 1211 1083 1210 1228 1115 999 1100
8 1086 984 1099 1215 1216 1103 1227 1352
8 1087 985 1103 1216 1217 1104 1230 1353
8 1090 988 1104 1217 1219 1106 1231 1354
8 1218 1105 987 1089 1355 1232 1106 1219
8 1091 991 1105 1218 1220 1109 1232 1355
8 1092 992 1109 1220 1221 1110 1234 1356
8 1222 1108 1233 1357 1095 990 1107 1224
8 1222 1108 993 1093 1357 1233 1110 1221
8 1223 1101 989 1096 1358 1229 1107 1224
8 1226 1102 983 1098 1358 1229 1101 1223
8 1226 1102 1228 1359 1098 983 1100 1225
8 1103 995 1111 1227 1230 1112 1235 1360
8 1107 1002 1117 1233 1229 1116 1240 1362
8 1102 1001 1116 1229 1228 1115 1240 1362
8 1104 996 1112 1230 1231 1113 1236 1363
8 1364 1237 1114 1232 1231 1113 997 1106
8 1109 1005 1114 1232 1234 1118 1238 1365
8 1110 1004 1118 1234 1233 1117 1241 1366
8 1242 1374 1255 1138 1119 1243 1132 1025
8 1244 1127 1254 1376 1121 1015 1129 1245
8 1148 1031 1149 1275 1244 1127 1254 1376
8 1245 1129 1258 1377 1125 1016 1130 1248
8 1251 1134 1019 1126 1378 1257 1128 1246
8 1378 1257 1128 1246 1247 1131 1017 1123
8 1248 1130 1259 1379 1124 1018 1131 1247
8 1261 1381 1250 1133 1132 1249 1330 1199
8 1255 1380 1252 1135 1132 1249 1381 1261
8 1250 1133 1019 1126 1382 1262 1134 1251
8 1253 1136 1256 1385 1384 1263 1135 1252
8 1254 1137 1265 1387 1129 1022 1141 1258
8 1149 1032 1150 1276 1254 1137 1265 1387
8 1028 1135 1255 1138 1139 1256 1388 1266
8 1136 1029 1147 1264 1256 1139 1267 1389
8 1390 1268 1140 1257 1259 1142 1024 1131
8 1260 1143 1027 1134 1390 1268 1140 1257
8 1258 1141 1269 1391 1130 1023 1142 1259
8 1262 1145 1027 1134 1393 1271 1143 1260
8 1261 1144 1026 1133 1394 1272 1145 1262
8 1135 1028 1144 1261 1263 1146 1272 1394
8 1136 1029 1146 1263 1264 1147 1273 1395
8 1155 1041 1160 1282 1275 1149 1276 1405
8 1276 1150 1044 1160 1406 1277 1162 1286
8 1408 1283 1159 1279 1278 1156 1039 1151
8 1290 1165 1283 1408 1177 1053 1156 1278
8 1152 1040 1159 1279 1280 1158 1285 1409
8 1281 1157 1038 1153 1410 1284 1158 1280
8 1281 1157 1284 1410 1154 1042 1160 1282
8 1159 1046 1164 1283 1285 1163 1289 1412
8 1292 1167 1289 1412 1165 1048 1164 1283
8 1158 1045 1163 1285 1284 1161 1288 1413
8 1284 1161 1288 1413 1160 1044 1162 1286
8 1291 1166 1292 1418 1174 1051 1165 1290
8 1291 1166 1051 1174 1419 1293 1172 1305
8 1294 1169 1296 1421 1166 1049 1167 1292
8 1293 1168 1050 1172 1422 1295 1171 1303
8 1294 1169 1049 1166 1423 1297 1168 1293
8 1422 1295 1171 1303 1301 1170 1302 1435
8 1172 1050 1173 1306 1303 1171 1304 1438
8 1174 1051 1175 1308 1305 1172 1306 1440
8 1175 1052 1176 1309 1306 1173 1307 1441
8 1177 1053 1178 1311 1308 1175 1309 1443
8 1178 1054 1179 1312 1309 1176 1310 1444
8 1180 1055 1181 1314 1311 1178 1312 1446
8 1056 1181 1312 1179 1182 1315 1447 1313
8 1183 1058 1184 1316 1314 1181 1315 1448
8 1319 1186 1084 1214 1451 1317 1213 1350
8 1319 1186 1318 1453 1208 1081 1187 1321
8 1321 1187 1320 1456 1188 1063 1189 1323
8 1344 1208 1321 1457 1209 1082 1188 1322
8 1322 1188 1323 1458 1190 1064 1191 1325
8 1323 1189 1324 1459 1191 1065 1192 1326
8 1191 1325 1193 1067 1326 1460 1327 1194
8 1242 1374 1243 1119 1328 1462 1335 1204
8 1330 1199 1333 1465 1196 1075 1200 1331
8 1132 1249 1330 1199 1243 1375 1465 1333
8 1332 1201 1077 1198 1466 1334 1200 1331
8 1215 1099 1201 1332 1352 1227 1334 1466
8 1119 1243 1333 1203 1204 1335 1470 1338
8 1333 1203 1338 1470 1200 1080 1202 1334
8 1227 1111 1202 1334 1360 1235 1338 1470
8 1328 1462 1335 1204 1205 1336 1471 1339
8 1337 1206 1340 1472 1464 1329 1205 1336
8 1346 1211 1342 1479 1210 1083 1207 1343
8 1346 1211 1115 1228 1479 1342 1239 1361
8 1348 1212 1084 1214 1479 1342 1207 1343
8 1480 1343 1208 1344 1345 1210 1082 1209
8 1351 1214 1319 1454 1480 1343 1208 1344
8 1481 1346 1210 1345 1359 1228 1100 1225
8 1348 1212 1347 1483 1214 1084 1213 1350
8 1216 1103 1227 1352 1353 1230 1360 1488
8 1217 1104 1230 1353 1354 1231 1363 1489
8 1490 1364 1232 1355 1354 1231 1106 1219
8 1220 1109 1232 1355 1356 1234 1365 1491
8 1221 1110 1234 1356 1357 1233 1366 1492
8 1224 1107 1233 1357 1358 1229 1362 1493
8 1226 1102 1229 1358 1359 1228 1362 1493
8 1230 1112 1235 1360 1363 1236 1367 1496
8 1361 1239 1115 1228 1497 1371 1240 1362
8 1366 1241 1372 1498 1233 1117 1240 1362
8 1364 1237 1113 1231 1499 1368 1236 1363
8 1364 1237 1368 1499 1232 1114 1238 1365
8 1234 1118 1238 1365 1366 1241 1369 1500
8 1507 1373 1242 1374 1388 1266 1138 1255
8 1508 1374 1243 1375 1380 1255 1132 1249
8 1376 1254 1387 1509 1245 1129 1258 1377
8 1275 1149 1276 1405 1376 1254 1387 1509
8 1377 1258 1391 1510 1248 1130 1259 1379
8 1511 1390 1257 1378 1379 1259 1131 1247
8 1383 1260 1134 1251 1511 1390 1257 1378
8 1252 1135 1256 1385 1380 1255 1388 1512
8 1261 1381 1513 1394 1133 1250 1382 1262
8 1135 1252 1384 1263 1261 1381 1513 1394
8 1382 1262 1134 1251 1514 1393 1260 1383
8 1253 1136 1263 1384 1386 1264 1395 1516
8 1253 1136 1264 1386 1385 1256 1389 1517
8 1387 1265 1397 1519 1258 1141 1269 1391
8 1276 1150 1277 1406 1387 1265 1397 1519
8 1256 1139 1267 1389 1388 1266 1398 1520
8 1264 1147 1274 1396 1389 1267 1399 1521
8 1392 1270 1143 1260 1522 1400 1268 1390
8 1390 1268 1142 1259 1522 1400 1269 1391
8 1392 1270 1401 1523 1260 1143 1271 1393
8 1272 1394 1524 1402 1145 1262 1393 1271
8 1395 1273 1146 1263 1524 1402 1272 1394
8 1273 1395 1264 1147 1403 1526 1396 1274
8 1405 1276 1160 1282 1534 1406 1286 1411
8 1414 1287 1407 1535 1286 1162 1277 1406
8 1279 1159 1283 1408 1409 1285 1412 1537
8 1418 1292 1412 1537 1290 1165 1283 1408
8 1280 1158 1285 1409 1410 1284 1413 1538
8 1410 1284 1413 1538 1282 1160 1286 1411
8 1285 1163 1289 1412 1413 1288 1417 1540
8 1421 1296 1417 1540 1292 1167 1289 1412
8 1414 1287 1162 1286 1541 1416 1288 1413
8 1420 1294 1421 1545 1291 1166 1292 1418
8 1419 1293 1172 1305 1546 1422 1303 1437
8 1420 1294 1166 1291 1547 1423 1293 1419
8 1294 1169 1297 1423 1421 1296 1425 1548
8 1423 1297 1168 1293 1549 1424 1295 1422
8 1301 1170 1298 1427 1422 1295 1424 1549
8 1432 1300 1428 1554 1301 1170 1298 1427
8 1431 1299 1428 1554 1560 1430 1300 1432
8 1563 1433 1300 1432 1435 1302 1170 1301
8 1546 1422 1303 1437 1434 1301 1435 1565
8 1303 1171 1304 1438 1435 1302 1436 1566
8 1305 1172 1306 1440 1437 1303 1438 1568
8 1306 1173 1307 1441 1438 1304 1439 1569
8 1308 1175 1309 1443 1440 1306 1441 1571
8 1309 1176 1310 1444 1441 1307 1442 1572
8 1311 1178 1312 1446 1443 1309 1444 1574
8 1179 1312 1444 1310 1313 1447 1575 1445
8 1314 1181 1315 1448 1446 1312 1447 1576
8 1350 1213 1349 1486 1451 1317 1449 1579
8 1451 1317 1450 1581 1319 1186 1318 1453
8 1454 1319 1214 1351 1582 1451 1350 1487
8 1453 1318 1452 1584 1321 1187 1320 1456
8 1454 1319 1453 1585 1344 1208 1321 1457
8 1456 1320 1455 1586 1323 1189 1324 1459
8 1457 1321 1456 1587 1322 1188 1323 1458
8 1458 1323 1459 1588 1325 1191 1326 1460
8 1205 1336 1464 1329 1328 1462 1590 1461
8 1507 1373 1461 1590 1374 1242 1328 1462
8 1508 1374 1462 1591 1375 1243 1335 1467
8 1337 1206 1329 1464 1473 1341 1463 1594
8 1375 1243 1335 1467 1465 1333 1470 1596
8 1465 1333 1470 1596 1331 1200 1334 1466
8 1352 1227 1334 1466 1488 1360 1470 1596
8 1591 1462 1336 1468 1467 1335 1471 1597
8 1469 1337 1472 1598 1595 1464 1336 1468
8 1471 1339 1474 1600 1335 1204 1338 1470
8 1600 1474 1367 1496 1470 1338 1235 1360
8 1336 1205 1340 1472 1471 1339 1475 1601
8 1337 1206 1341 1473 1472 1340 1476 1602
8 1495 1370 1478 1609 1361 1239 1342 1479
8 1348 1212 1342 1479 1483 1347 1478 1609
8 1481 1346 1479 1610 1345 1210 1343 1480
8 1481 1346 1228 1359 1610 1479 1361 1494
8 1484 1348 1214 1351 1610 1479 1343 1480
8 1483 1347 1482 1612 1350 1213 1349 1486
8 1484 1348 1483 1613 1351 1214 1350 1487
8 1353 1230 1360 1488 1489 1363 1496 1616
8 1490 1364 1231 1354 1617 1499 1363 1489
8 1490 1364 1499 1617 1355 1232 1365 1491
8 1356 1234 1365 1491 1492 1366 1500 1619
8 1492 1366 1498 1620 1357 1233 1362 1493
8 1494 1361 1228 1359 1621 1497 1362 1493
8 1495 1370 1239 1361 1622 1504 1371 1497
8 1363 1236 1367 1496 1499 1368 1501 1623
8 1497 1371 1240 1362 1624 1505 1372 1498
8 1625 1503 1372 1498 1500 1369 1241 1366
8 1365 1238 1368 1499 1500 1369 1502 1626
8 1520 1398 1506 1633 1388 1266 1373 1507
8 1634 1507 1374 1508 1512 1388 1255 1380
8 1509 1387 1519 1635 1377 1258 1391 1510
8 1405 1276 1406 1534 1509 1387 1519 1635
8 1515 1392 1260 1383 1636 1522 1390 1511
8 1511 1390 1259 1379 1636 1522 1391 1510
8 1385 1256 1389 1517 1512 1388 1520 1637
8 1513 1394 1262 1382 1638 1524 1393 1514
8 1395 1516 1638 1524 1263 1384 1513 1394
8 1515 1392 1523 1639 1383 1260 1393 1514
8 1516 1395 1526 1640 1386 1264 1396 1518
8 1386 1264 1396 1518 1517 1389 1521 1641
8 1519 1397 1527 1643 1391 1269 1400 1522
8 1535 1407 1527 1643 1406 1277 1397 1519
8 1389 1267 1399 1521 1520 1398 1528 1644
8 1645 1529 1399 1521 1525 1404 1274 1396
8 1392 1270 1400 1522 1523 1401 1531 1646
8 1524 1402 1271 1393 1648 1532 1401 1523
8 1403 1526 1648 1532 1273 1395 1524 1402
8 1525 1404 1274 1396 1649 1533 1403 1526
8 1539 1414 1535 1657 1411 1286 1406 1534
8 1542 1415 1536 1658 1414 1287 1407 1535
8 1409 1285 1412 1537 1538 1413 1540 1660
8 1545 1421 1540 1660 1418 1292 1412 1537
8 1539 1414 1286 1411 1661 1541 1413 1538
8 1540 1417 1544 1663 1413 1288 1416 1541
8 1421 1296 1425 1548 1540 1417 1544 1663
8 1542 1415 1287 1414 1664 1543 1416 1541
8 1420 1294 1423 1547 1545 1421 1548 1666
8 1547 1423 1293 1419 1667 1549 1422 1546
8 1434 1301 1427 1553 1546 1422 1549 1667
8 1423 1297 1424 1549 1548 1425 1550 1668
8 1551 1426 1550 1668 1427 1298 1424 1549
8 1551 1426 1298 1427 1671 1552 1428 1554
8 1562 1432 1554 1674 1434 1301 1427 1553
8 1431 1299 1429 1558 1554 1428 1555 1675
8 1431 1299 1430 1560 1558 1429 1557 1680
8 1560 1430 1300 1432 1683 1559 1433 1563
8 1561 1431 1554 1674 1684 1560 1432 1562
8 1685 1563 1432 1562 1565 1435 1301 1434
8 1435 1302 1436 1566 1563 1433 1564 1686
8 1437 1303 1438 1568 1565 1435 1566 1688
8 1438 1304 1439 1569 1566 1436 1567 1689
8 1440 1306 1441 1571 1568 1438 1569 1691
8 1441 1307 1442 1572 1569 1439 1570 1692
8 1443 1309 1444 1574 1571 1441 1572 1694
8 1310 1444 1572 1442 1445 1575 1695 1573
8 1446 1312 1447 1576 1574 1444 1575 1696
8 1486 1349 1485 1614 1579 1449 1577 1699
8 1451 1317 1449 1579 1581 1450 1578 1701
8 1487 1350 1486 1615 1582 1451 1579 1702
8 1581 1450 1580 1704 1453 1318 1452 1584
8 1582 1451 1581 1705 1454 1319 1453 1585
8 1584 1452 1583 1706 1456 1320 1455 1586
8 1585 1453 1584 1707 1457 1321 1456 1587
8 1587 1456 1586 1708 1458 1323 1459 1588
8 1633 1506 1589 1710 1507 1373 1461 1590
8 1464 1329 1461 1590 1594 1463 1589 1710
8 1468 1336 1462 1591 1595 1464 1590 1711
8 1634 1507 1590 1711 1508 1374 1462 1591
8 1473 1341 1463 1594 1603 1477 1593 1716
8 1469 1337 1464 1595 1599 1473 1594 1717
8 1471 1597 1467 1335 1600 1718 1596 1470
8 1718 1600 1496 1616 1596 1470 1360 1488
8 1336 1468 1597 1471 1472 1598 1719 1601
8 1469 1337 1473 1599 1598 1472 1602 1720
8 1722 1604 1501 1623 1600 1474 1367 1496
8 1475 1601 1471 1339 1604 1722 1600 1474
8 1602 1476 1605 1723 1472 1340 1475 1601
8 1476 1602 1724 1606 1341 1473 1603 1477
8 1483 1347 1478 1609 1612 1482 1608 1731
8 1495 1370 1504 1622 1609 1478 1608 1731
8 1618 1495 1609 1732 1494 1361 1479 1610
8 1484 1348 1479 1610 1613 1483 1609 1732
8 1486 1349 1482 1612 1614 1485 1611 1733
8 1613 1483 1612 1734 1487 1350 1486 1615
8 1489 1363 1496 1616 1617 1499 1623 1736
8 1491 1365 1499 1617 1619 1500 1626 1737
8 1618 1495 1361 1494 1738 1622 1497 1621
8 1739 1625 1498 1620 1619 1500 1366 1492
8 1621 1497 1362 1493 1740 1624 1498 1620
8 1742 1631 1504 1622 1624 1505 1371 1497
8 1743 1628 1502 1626 1623 1501 1368 1499
8 1744 1630 1505 1624 1625 1503 1372 1498
8 1745 1629 1503 1625 1626 1502 1369 1500
8 1520 1398 1528 1644 1633 1506 1632 1751
8 1637 1520 1633 1752 1512 1388 1507 1634
8 1635 1519 1643 1753 1510 1391 1522 1636
8 1657 1535 1643 1753 1534 1406 1519 1635
8 1515 1392 1522 1636 1639 1523 1646 1754
8 1517 1389 1521 1641 1637 1520 1644 1755
8 1524 1638 1756 1648 1393 1514 1639 1523
8 1640 1526 1395 1516 1756 1648 1524 1638
8 1642 1525 1396 1518 1757 1649 1526 1640
8 1758 1645 1521 1641 1642 1525 1396 1518
8 1646 1531 1400 1522 1760 1650 1527 1643
8 1535 1407 1536 1658 1643 1527 1650 1760
8 1521 1399 1529 1645 1644 1528 1651 1761
8 1647 1530 1652 1762 1525 1404 1529 1645
8 1401 1523 1648 1532 1531 1646 1763 1655
8 1525 1404 1533 1649 1647 1530 1654 1765
8 1533 1649 1766 1656 1403 1526 1648 1532
8 1662 1542 1658 1774 1539 1414 1535 1657
8 1542 1415 1543 1664 1658 1536 1659 1775
8 1660 1540 1663 1777 1538 1413 1541 1661
8 1545 1421 1548 1666 1660 1540 1663 1777
8 1662 1542 1414 1539 1778 1664 1541 1661
8 1664 1543 1416 1541 1779 1665 1544 1663
8 1548 1425 1550 1668 1663 1544 1665 1779
8 1547 1423 1549 1667 1666 1548 1668 1781
8 1670 1551 1668 1781 1553 1427 1549 1667
8 1551 1426 1552 1671 1668 1550 1669 1782
8 1670 1551 1427 1553 1784 1671 1554 1674
8 1675 1555 1672 1785 1554 1428 1552 1671
8 1678 1556 1673 1789 1558 1429 1555 1675
8 1561 1431 1558 1681 1674 1554 1675 1790
8 1794 1677 1556 1678 1680 1557 1429 1558
8 1560 1430 1559 1683 1680 1557 1679 1797
8 1561 1431 1560 1684 1681 1558 1680 1798
8 1563 1433 1564 1686 1683 1559 1682 1800
8 1684 1560 1432 1562 1801 1683 1563 1685
8 1565 1435 1566 1688 1685 1563 1686 1802
8 1566 1436 1567 1689 1686 1564 1687 1803
8 1568 1438 1569 1691 1688 1566 1689 1805
8 1569 1439 1570 1692 1689 1567 1690 1806
8 1571 1441 1572 1694 1691 1569 1692 1808
8 1442 1572 1692 1570 1573 1695 1809 1693
8 1574 1444 1575 1696 1694 1572 1695 1810
8 1614 1485 1592 1712 1699 1577 1697 1813
8 1579 1449 1577 1699 1701 1578 1698 1815
8 1615 1486 1614 1735 1702 1579 1699 1816
8 1701 1578 1700 1818 1581 1450 1580 1704
8 1582 1451 1579 1702 1705 1581 1701 1819
8 1704 1580 1703 1820 1584 1452 1583 1706
8 1705 1581 1704 1821 1585 1453 1584 1707
8 1707 1584 1706 1822 1587 1456 1586 1708
8 1710 1589 1506 1633 1824 1709 1632 1751
8 1594 1463 1589 1710 1716 1593 1709 1824
8 1752 1633 1710 1825 1634 1507 1590 1711
8 1595 1464 1590 1711 1717 1594 1710 1825
8 1830 1714 1592 1712 1733 1611 1485 1614
8 1603 1477 1593 1716 1725 1607 1715 1834
8 1599 1473 1594 1717 1721 1603 1716 1835
8 1837 1722 1623 1736 1718 1600 1496 1616
8 1719 1601 1722 1837 1597 1471 1600 1718
8 1602 1720 1598 1472 1723 1838 1719 1601
8 1720 1602 1473 1599 1839 1724 1603 1721
8 1723 1605 1726 1840 1601 1475 1604 1722
8 1840 1726 1628 1743 1722 1604 1501 1623
8 1724 1606 1727 1841 1602 1476 1605 1723
8 1725 1607 1728 1842 1603 1477 1606 1724
8 1612 1482 1608 1731 1733 1611 1730 1849
8 1741 1627 1730 1849 1622 1504 1608 1731
8 1613 1483 1609 1732 1734 1612 1731 1850
8 1618 1495 1622 1738 1732 1609 1731 1850
8 1615 1486 1612 1734 1735 1614 1733 1851
8 1852 1743 1626 1737 1736 1623 1499 1617
8 1853 1745 1625 1739 1737 1626 1500 1619
8 1855 1742 1622 1738 1740 1624 1497 1621
8 1856 1744 1624 1740 1739 1625 1498 1620
8 1741 1627 1504 1622 1857 1746 1631 1742
8 1742 1631 1505 1624 1858 1749 1630 1744
8 1859 1747 1629 1745 1743 1628 1502 1626
8 1860 1748 1630 1744 1745 1629 1503 1625
8 1644 1528 1651 1761 1751 1632 1750 1865
8 1637 1520 1644 1755 1752 1633 1751 1866
8 1754 1646 1522 1636 1867 1760 1643 1753
8 1657 1535 1658 1774 1753 1643 1760 1867
8 1639 1523 1646 1754 1756 1648 1763 1868
8 1641 1521 1645 1758 1755 1644 1761 1869
8 1757 1649 1526 1640 1870 1766 1648 1756
8 1642 1525 1649 1757 1759 1647 1765 1871
8 1759 1647 1762 1872 1642 1525 1645 1758
8 1760 1650 1767 1874 1646 1531 1655 1763
8 1658 1536 1659 1775 1760 1650 1767 1874
8 1762 1652 1768 1875 1645 1529 1651 1761
8 1764 1653 1769 1876 1647 1530 1652 1762
8 1656 1766 1877 1773 1532 1648 1763 1655
8 1771 1879 1765 1654 1653 1764 1647 1530
8 1533 1649 1765 1654 1656 1766 1880 1772
8 1662 1542 1664 1778 1774 1658 1775 1887
8 1664 1543 1665 1779 1775 1659 1776 1888
8 1778 1664 1541 1661 1890 1779 1663 1777
8 1666 1548 1668 1781 1777 1663 1779 1890
8 1782 1669 1780 1891 1668 1550 1665 1779
8 1670 1551 1671 1784 1781 1668 1782 1893
8 1671 1552 1672 1785 1782 1669 1783 1894
8 1790 1675 1785 1896 1674 1554 1671 1784
8 1675 1555 1673 1789 1785 1672 1786 1897
8 1792 1676 1788 1903 1678 1556 1673 1789
8 1795 1678 1789 1904 1681 1558 1675 1790
8 1792 1676 1556 1678 1906 1791 1677 1794
8 1680 1557 1679 1797 1794 1677 1793 1909
8 1910 1794 1678 1795 1798 1680 1558 1681
8 1683 1559 1682 1800 1797 1679 1796 1912
8 1684 1560 1683 1801 1798 1680 1797 1913
8 1686 1564 1687 1803 1800 1682 1799 1915
8 1685 1563 1686 1802 1801 1683 1800 1916
8 1688 1566 1689 1805 1802 1686 1803 1917
8 1689 1567 1690 1806 1803 1687 1804 1918
8 1691 1569 1692 1808 1805 1689 1806 1920
8 1692 1570 1693 1809 1806 1690 1807 1921
8 1694 1572 1695 1810 1808 1692 1809 1922
8 1829 1713 1811 1926 1712 1592 1697 1813
8 1813 1697 1812 1928 1699 1577 1698 1815
8 1735 1614 1712 1828 1816 1699 1813 1929
8 1815 1698 1814 1931 1701 1578 1700 1818
8 1702 1579 1699 1816 1819 1701 1815 1932
8 1818 1700 1817 1933 1704 1580 1703 1820
8 1819 1701 1818 1934 1705 1581 1704 1821
8 1821 1704 1820 1935 1707 1584 1706 1822
8 1824 1709 1632 1751 1937 1823 1750 1865
8 1716 1593 1709 1824 1834 1715 1823 1937
8 1825 1710 1633 1752 1938 1824 1751 1866
8 1717 1594 1710 1825 1835 1716 1824 1938
8 1945 1830 1712 1828 1851 1733 1614 1735
8 1830 1714 1831 1946 1712 1592 1713 1829
8 1947 1832 1714 1830 1849 1730 1611 1733
8 1843 1729 1607 1725 1950 1833 1715 1834
8 1721 1603 1716 1835 1836 1725 1834 1951
8 1836 1725 1842 1953 1721 1603 1724 1839
8 1723 1838 1719 1601 1840 1954 1837 1722
8 1954 1840 1743 1852 1837 1722 1623 1736
8 1724 1839 1720 1602 1841 1955 1838 1723
8 1841 1727 1844 1956 1723 1605 1726 1840
8 1956 1844 1747 1859 1840 1726 1628 1743
8 1728 1842 1724 1606 1845 1957 1841 1727
8 1725 1607 1729 1843 1842 1728 1846 1958
8 1741 1627 1746 1857 1849 1730 1848 1965
8 1734 1612 1731 1850 1851 1733 1849 1966
8 1854 1741 1849 1966 1738 1622 1731 1850
8 1967 1859 1745 1853 1852 1743 1626 1737
8 1968 1860 1744 1856 1853 1745 1625 1739
8 1854 1741 1622 1738 1969 1857 1742 1855
8 1855 1742 1624 1740 1970 1858 1744 1856
8 1857 1746 1631 1742 1971 1861 1749 1858
8 1858 1749 1630 1744 1972 1863 1748 1860
8 1859 1747 1862 1973 1745 1629 1748 1860
8 1875 1768 1864 1977 1761 1651 1750 1865
8 1755 1644 1761 1869 1866 1751 1865 1978
8 1867 1760 1874 1979 1754 1646 1763 1868
8 1774 1658 1775 1887 1867 1760 1874 1979
8 1870 1766 1648 1756 1980 1877 1763 1868
8 1872 1762 1875 1981 1758 1645 1761 1869
8 1757 1649 1766 1870 1871 1765 1880 1982
8 1983 1879 1764 1873 1871 1765 1647 1759
8 1873 1764 1876 1984 1759 1647 1762 1872
8 1877 1773 1655 1763 1986 1881 1767 1874
8 1775 1659 1776 1888 1874 1767 1881 1986
8 1876 1769 1882 1987 1762 1652 1768 1875
8 1878 1770 1883 1988 1764 1653 1769 1876
8 1880 1772 1656 1766 1989 1886 1773 1877
8 1878 1770 1653 1764 1990 1884 1771 1879
8 1765 1654 1772 1880 1879 1771 1885 1991
8 1778 1664 1779 1890 1887 1775 1888 1997
8 1998 1889 1776 1888 1891 1780 1665 1779
8 1893 1782 1891 2000 1781 1668 1779 1890
8 1894 1783 1892 2001 1782 1669 1780 1891
8 1784 1671 1785 1896 1893 1782 1894 2003
8 1897 1786 1895 2004 1785 1672 1783 1894
8 1790 1675 1789 1904 1896 1785 1897 2006
8 1901 1787 1898 2007 1789 1673 1786 1897
8 1903 1788 1900 2013 1789 1673 1787 1901
8 1792 1676 1791 1906 1903 1788 1902 2016
8 1907 1792 1903 2017 1795 1678 1789 1904
8 1906 1791 1677 1794 2019 1905 1793 1909
8 1907 1792 1678 1795 2020 1906 1794 1910
8 1797 1679 1796 1912 1909 1793 1908 2022
8 1798 1680 1797 1913 1910 1794 1909 2023
8 1800 1682 1799 1915 1912 1796 1911 2025
8 1801 1683 1800 1916 1913 1797 1912 2026
8 1803 1687 1804 1918 1915 1799 1914 2028
8 1802 1686 1803 1917 1916 1800 1915 2029
8 1805 1689 1806 1920 1917 1803 1918 2030
8 1806 1690 1807 1921 1918 1804 1919 2031
8 1808 1692 1809 1922 1920 1806 1921 2032
8 1939 1826 1924 2037 1829 1713 1811 1926
8 1926 1811 1925 2039 1813 1697 1812 1928
8 1944 1829 1926 2040 1828 1712 1813 1929
8 1928 1812 1927 2042 1815 1698 1814 1931
8 1929 1813 1928 2043 1816 1699 1815 1932
8 1931 1814 1930 2044 1818 1700 1817 1933
8 1932 1815 1931 2045 1819 1701 1818 1934
8 1934 1818 1933 2046 1821 1704 1820 1935
8 2048 1936 1823 1937 1977 1864 1750 1865
8 1950 1833 1715 1834 2048 1936 1823 1937
8 1938 1824 1751 1866 2049 1937 1865 1978
8 1835 1716 1824 1938 1951 1834 1937 2049
8 1939 1826 1713 1829 2053 1942 1831 1946
8 1940 1827 1923 2035 2053 1942 1826 1939
8 1945 1830 1946 2058 1828 1712 1829 1944
8 2059 1947 1830 1945 1966 1849 1733 1851
8 1947 1832 1730 1849 2060 1948 1848 1965
8 1947 1832 1948 2060 1830 1714 1831 1946
8 1959 1847 1729 1843 2063 1949 1833 1950
8 1952 1843 1725 1836 2064 1950 1834 1951
8 1836 1725 1843 1952 1953 1842 1958 2066
8 1953 1842 1957 2067 1839 1724 1841 1955
8 1841 1955 1838 1723 1956 2068 1954 1840
8 2068 1956 1859 1967 1954 1840 1743 1852
8 1956 1844 1960 2069 1859 1747 1862 1973
8 1845 1957 1841 1727 1960 2069 1956 1844
8 1728 1842 1957 1845 1846 1958 2071 1961
8 1962 2072 1959 1847 1846 1958 1843 1729
8 1971 1861 1964 2077 1857 1746 1848 1965
8 1854 1741 1857 1969 1966 1849 1965 2078
8 1967 1859 1973 2079 1853 1745 1860 1968
8 1970 1858 1744 1856 2080 1972 1860 1968
8 1969 1857 1742 1855 2081 1971 1858 1970
8 1971 1861 1749 1858 2082 1974 1863 1972
8 1973 1862 1975 2083 1860 1748 1863 1972
8 1987 1882 1976 2086 1875 1768 1864 1977
8 1981 1875 1977 2087 1869 1761 1865 1978
8 1980 1877 1763 1868 2088 1986 1874 1979
8 1887 1775 1888 1997 1979 1874 1986 2088
8 1880 1982 2089 1989 1766 1870 1980 1877
8 1984 1876 1987 2090 1872 1762 1875 1981
8 1765 1871 1983 1879 1880 1982 2091 1991
8 1985 1878 1764 1873 2092 1990 1879 1983
8 1985 1878 1988 2093 1873 1764 1876 1984
8 2094 1992 1881 1986 1998 1889 1776 1888
8 1986 1881 1992 2094 1877 1773 1886 1989
8 1988 1883 1993 2095 1876 1769 1882 1987
8 1878 1770 1884 1990 1988 1883 1994 2096
8 1991 1885 1772 1880 2097 1996 1886 1989
8 1879 1771 1885 1991 1990 1884 1995 2098
8 2103 1998 1888 1997 2000 1891 1779 1890
8 2104 1999 1889 1998 2001 1892 1780 1891
8 2003 1894 2001 2106 1893 1782 1891 2000
8 2004 1895 2002 2107 1894 1783 1892 2001
8 2006 1897 2004 2109 1896 1785 1894 2003
8 2007 1898 2005 2110 1897 1786 1895 2004
8 2014 1901 2007 2112 1904 1789 1897 2006
8 2011 1899 2008 2113 1901 1787 1898 2007
8 2119 2010 1899 2011 2013 1900 1787 1901
8 2016 1902 2012 2122 1903 1788 1900 2013
8 2017 1903 2013 2123 1904 1789 1901 2014
8 1906 1791 1905 2019 2016 1902 2015 2125
8 1907 1792 1906 2020 2017 1903 2016 2126
8 1909 1793 1908 2022 2019 1905 2018 2128
8 2020 1906 1794 1910 2129 2019 1909 2023
8 1912 1796 1911 2025 2022 1908 2021 2131
8 1913 1797 1912 2026 2023 1909 2022 2132
8 1915 1799 1914 2028 2025 1911 2024 2134
8 1916 1800 1915 2029 2026 1912 2025 2135
8 1918 1804 1919 2031 2028 1914 2027 2136
8 1917 1803 1918 2030 2029 1915 2028 2137
8 1920 1806 1921 2032 2030 1918 2031 2138
8 1940 1827 1941 2054 2035 1923 2033 2140
8 2035 1923 2034 2143 1939 1826 1924 2037
8 2037 1924 2036 2146 1926 1811 1925 2039
8 2051 1939 2037 2147 1944 1829 1926 2040
8 2039 1925 2038 2149 1928 1812 1927 2042
8 2040 1926 2039 2150 1929 1813 1928 2043
8 2042 1927 2041 2151 1931 1814 1930 2044
8 2043 1928 2042 2152 1932 1815 1931 2045
8 2045 1931 2044 2153 1934 1818 1933 2046
8 2155 2047 1936 2048 2086 1976 1864 1977
8 2063 1949 1833 1950 2155 2047 1936 2048
8 2156 2048 1937 2049 2087 1977 1865 1978
8 2064 1950 1834 1951 2156 2048 1937 2049
8 2051 1939 1829 1944 2160 2053 1946 2058
8 2052 1940 2035 2144 2160 2053 1939 2051
8 2053 1942 1831 1946 2163 2057 1948 2060
8 2055 1943 1827 1940 2163 2057 1942 2053
8 2055 1943 2056 2164 1940 1827 1941 2054
8 2059 1947 1849 1966 2167 2060 1965 2078
8 2059 1947 2060 2167 1945 1830 1946 2058
8 2077 1964 2061 2168 1965 1848 1948 2060
8 2070 1963 1847 1959 2170 2062 1949 2063
8 2065 1959 1843 1952 2171 2063 1950 2064
8 2173 2072 1958 2066 2065 1959 1843 1952
8 1953 1842 1958 2066 2067 1957 2071 2174
8 2068 1956 2069 2175 1967 1859 1973 2079
8 2067 1957 2069 2175 1955 1841 1956 2068
8 1845 1957 2069 1960 1961 2071 2176 2073
8 2069 1960 2073 2176 1973 1862 1975 2083
8 2070 1963 2075 2177 1959 1847 1962 2072
8 1846 1958 2071 1961 1962 2072 2178 2074
8 2077 1964 1861 1971 2182 2076 1974 2082
8 2081 1971 2077 2183 1969 1857 1965 2078
8 2079 1973 2083 2184 1968 1860 1972 2080
8 2081 1971 1858 1970 2185 2082 1972 2080
8 2083 1975 2084 2186 1972 1863 1974 2082
8 2086 1976 1882 1987 2189 2085 1993 2095
8 2090 1987 2086 2190 1981 1875 1977 2087
8 2191 2094 1986 2088 2103 1998 1888 1997
8 2088 1986 2094 2191 1980 1877 1989 2089
8 1991 2091 2192 2097 1880 1982 2089 1989
8 2093 1988 2095 2193 1984 1876 1987 2090
8 1879 1983 2092 1990 1991 2091 2194 2098
8 1985 1878 1990 2092 2093 1988 2096 2195
8 2097 1996 1886 1989 2196 2099 1992 2094
8 2196 2099 1992 2094 2104 1999 1889 1998
8 1994 2096 1988 1883 2100 2197 2095 1993
8 2096 1994 1884 1990 2198 2101 1995 2098
8 1995 2098 2199 2102 1885 1991 2097 1996
8 2203 2104 1998 2103 2106 2001 1891 2000
8 2107 2002 2105 2204 2001 1892 1999 2104
8 2109 2004 2107 2206 2003 1894 2001 2106
8 2110 2005 2108 2207 2004 1895 2002 2107
8 2112 2007 2110 2209 2006 1897 2004 2109
8 2113 2008 2111 2210 2007 1898 2005 2110
8 2120 2011 2113 2212 2014 1901 2007 2112
8 2117 2009 2114 2213 2011 1899 2008 2113
8 2219 2116 2009 2117 2119 2010 1899 2011
8 2222 2118 2010 2119 2122 2012 1900 2013
8 2223 2119 2011 2120 2123 2013 1901 2014
8 2016 1902 2015 2125 2122 2012 2121 2225
8 2126 2016 2122 2226 2017 1903 2013 2123
8 2019 1905 2018 2128 2125 2015 2124 2228
8 2020 1906 2019 2129 2126 2016 2125 2229
8 2022 1908 2021 2131 2128 2018 2127 2231
8 2023 1909 2022 2132 2129 2019 2128 2232
8 2025 1911 2024 2134 2131 2021 2130 2234
8 2026 1912 2025 2135 2132 2022 2131 2235
8 1914 2028 2134 2024 2027 2136 2236 2133
8 2029 1915 2028 2137 2135 2025 2134 2237
8 2030 1918 2031 2138 2137 2028 2136 2238
8 2157 2050 2139 2240 2054 1941 2033 2140
8 2052 1940 2054 2161 2144 2035 2140 2242
8 2140 2033 2141 2243 2035 1923 2034 2143
8 2143 2034 2142 2246 2037 1924 2036 2146
8 2144 2035 2143 2247 2051 1939 2037 2147
8 2146 2036 2145 2249 2039 1925 2038 2149
8 2147 2037 2146 2250 2040 1926 2039 2150
8 2149 2038 2148 2251 2042 1927 2041 2151
8 2150 2039 2149 2252 2043 1928 2042 2152
8 2152 2042 2151 2253 2045 1931 2044 2153
8 2255 2154 2047 2155 2189 2085 1976 2086
8 2170 2062 1949 2063 2255 2154 2047 2155
8 2256 2155 2048 2156 2190 2086 1977 2087
8 2171 2063 1950 2064 2256 2155 2048 2156
8 2258 2159 2050 2157 2164 2056 1941 2054
8 2160 2053 1946 2058 2262 2163 2060 2167
8 2162 2055 1940 2052 2262 2163 2053 2160
8 2162 2055 2164 2263 2052 1940 2054 2161
8 2163 2057 1948 2060 2264 2165 2061 2168
8 2055 1943 2057 2163 2164 2056 2165 2264
8 2182 2076 2166 2268 2077 1964 2061 2168
8 2183 2077 2168 2269 2078 1965 2060 2167
8 2070 1963 2062 2170 2177 2075 2169 2271
8 2172 2070 1959 2065 2272 2170 2063 2171
8 2172 2070 2177 2273 2065 1959 2072 2173
8 2066 1958 2072 2173 2174 2071 2178 2274
8 2067 1957 2071 2174 2175 2069 2176 2275
8 2175 2069 2176 2275 2079 1973 2083 2184
8 2071 1961 2074 2178 2176 2073 2179 2276
8 2176 2073 2179 2276 2083 1975 2084 2186
8 2072 1962 2075 2177 2178 2074 2180 2277
8 2182 2076 1974 2082 2280 2181 2084 2186
8 2183 2077 1971 2081 2281 2182 2082 2185
8 2184 2083 2186 2282 2080 1972 2082 2185
8 2189 2085 1993 2095 2285 2188 2100 2197
8 2190 2086 1987 2090 2286 2189 2095 2193
8 2192 2097 1989 2089 2287 2196 2094 2191
8 2287 2196 2094 2191 2203 2104 1998 2103
8 2194 2098 1991 2091 2288 2199 2097 2192
8 2195 2096 2197 2289 2093 1988 2095 2193
8 2096 2195 2290 2198 1990 2092 2194 2098
8 2097 1996 2099 2196 2199 2102 2200 2291
8 2196 2099 1999 2104 2291 2200 2105 2204
8 2100 2197 2292 2201 1994 2096 2198 2101
8 1995 2098 2198 2101 2102 2199 2293 2202
8 2206 2107 2204 2296 2106 2001 2104 2203
8 2207 2108 2205 2297 2107 2002 2105 2204
8 2209 2110 2207 2299 2109 2004 2107 2206
8 2210 2111 2208 2300 2110 2005 2108 2207
8 2212 2113 2210 2302 2112 2007 2110 2209
8 2213 2114 2211 2303 2113 2008 2111 2210
8 2220 2117 2213 2305 2120 2011 2113 2212
8 2216 2115 2214 2306 2117 2009 2114 2213
8 2216 2115 2009 2117 2311 2217 2116 2219
8 2219 2116 2010 2119 2314 2218 2118 2222
8 2315 2219 2117 2220 2223 2119 2011 2120
8 2122 2012 2121 2225 2222 2118 2221 2317
8 2318 2222 2119 2223 2226 2122 2013 2123
8 2125 2015 2124 2228 2225 2121 2224 2320
8 2126 2016 2125 2229 2226 2122 2225 2321
8 2128 2018 2127 2231 2228 2124 2227 2323
8 2129 2019 2128 2232 2229 2125 2228 2324
8 2131 2021 2130 2234 2231 2127 2230 2326
8 2132 2022 2131 2235 2232 2128 2231 2327
8 2134 2024 2133 2236 2234 2130 2233 2328
8 2135 2025 2134 2237 2235 2131 2234 2329
8 2137 2028 2136 2238 2237 2134 2236 2330
8 2157 2050 2158 2259 2240 2139 2239 2332
8 2257 2157 2240 2334 2161 2054 2140 2242
8 2240 2139 2241 2335 2140 2033 2141 2243
8 2242 2140 2243 2337 2144 2035 2143 2247
8 2243 2141 2244 2338 2143 2034 2142 2246
8 2246 2142 2245 2341 2146 2036 2145 2249
8 2247 2143 2246 2342 2147 2037 2146 2250
8 2249 2145 2248 2343 2149 2038 2148 2251
8 2250 2146 2249 2344 2150 2039 2149 2252
8 2252 2149 2251 2345 2152 2042 2151 2253
8 2169 2271 2347 2254 2062 2170 2255 2154
8 2189 2085 2188 2285 2255 2154 2254 2347
8 2348 2255 2155 2256 2286 2189 2086 2190
8 2272 2170 2063 2171 2348 2255 2155 2256
8 2349 2258 2157 2257 2263 2164 2054 2161
8 2258 2159 2261 2351 2157 2050 2158 2259
8 2258 2159 2056 2164 2351 2261 2165 2264
8 2262 2163 2060 2167 2355 2264 2168 2269
8 2162 2055 2163 2262 2263 2164 2264 2355
8 2357 2266 2165 2264 2268 2166 2061 2168
8 2268 2166 2076 2182 2361 2267 2181 2280
8 2281 2182 2268 2362 2183 2077 2168 2269
8 2271 2169 2270 2364 2177 2075 2180 2277
8 2172 2070 2170 2272 2273 2177 2271 2365
8 2072 2173 2274 2178 2177 2273 2366 2277
8 2071 2174 2275 2176 2178 2274 2367 2276
8 2275 2176 2276 2367 2184 2083 2186 2282
8 2283 2187 2084 2186 2368 2278 2179 2276
8 2178 2074 2180 2277 2276 2179 2278 2368
8 2283 2187 2279 2370 2186 2084 2181 2280
8 2281 2182 2082 2185 2371 2280 2186 2282
8 2188 2285 2374 2284 2100 2197 2292 2201
8 2286 2189 2095 2193 2375 2285 2197 2289
8 2192 2097 2196 2287 2288 2199 2291 2376
8 2287 2196 2104 2203 2376 2291 2204 2296
8 2194 2098 2199 2288 2290 2198 2293 2377
8 2289 2197 2096 2195 2378 2292 2198 2290
8 2291 2200 2105 2204 2379 2294 2205 2297
8 2199 2102 2200 2291 2293 2202 2294 2379
8 2198 2101 2202 2293 2292 2201 2295 2380
8 2299 2207 2297 2383 2206 2107 2204 2296
8 2300 2208 2298 2384 2207 2108 2205 2297
8 2302 2210 2300 2386 2209 2110 2207 2299
8 2303 2211 2301 2387 2210 2111 2208 2300
8 2305 2213 2303 2389 2212 2113 2210 2302
8 2306 2214 2304 2390 2213 2114 2211 2303
8 2310 2216 2306 2392 2220 2117 2213 2305
8 2308 2215 2307 2393 2216 2115 2214 2306
8 2308 2215 2115 2216 2396 2309 2217 2311
8 2310 2216 2117 2220 2398 2311 2219 2315
8 2311 2217 2116 2219 2399 2312 2218 2314
8 2314 2218 2118 2222 2402 2313 2221 2317
8 2315 2219 2119 2223 2403 2314 2222 2318
8 2225 2121 2224 2320 2317 2221 2316 2405
8 2226 2122 2225 2321 2318 2222 2317 2406
8 2228 2124 2227 2323 2320 2224 2319 2408
8 2229 2125 2228 2324 2321 2225 2320 2409
8 2231 2127 2230 2326 2323 2227 2322 2411
8 2232 2128 2231 2327 2324 2228 2323 2412
8 2234 2130 2233 2328 2326 2230 2325 2413
8 2235 2131 2234 2329 2327 2231 2326 2414
8 2237 2134 2236 2330 2329 2234 2328 2415
8 2259 2158 2260 2352 2332 2239 2331 2417
8 2257 2157 2259 2350 2334 2240 2332 2419
8 2240 2139 2239 2332 2335 2241 2333 2420
8 2334 2240 2335 2422 2242 2140 2243 2337
8 2335 2241 2336 2423 2243 2141 2244 2338
8 2337 2243 2338 2425 2247 2143 2246 2342
8 2338 2244 2339 2426 2246 2142 2245 2341
8 2341 2245 2340 2428 2249 2145 2248 2343
8 2342 2246 2341 2429 2250 2146 2249 2344
8 2344 2249 2343 2430 2252 2149 2251 2345
8 2188 2285 2347 2254 2284 2374 2432 2346
8 2347 2254 2346 2432 2271 2169 2270 2364
8 2365 2271 2170 2272 2433 2347 2255 2348
8 2286 2189 2285 2375 2348 2255 2347 2433
8 2349 2258 2351 2435 2257 2157 2259 2350
8 2349 2258 2164 2263 2435 2351 2264 2355
8 2259 2158 2261 2351 2352 2260 2354 2437
8 2356 2265 2354 2437 2264 2165 2261 2351
8 2441 2357 2264 2355 2362 2268 2168 2269
8 2356 2265 2165 2264 2442 2358 2266 2357
8 2443 2359 2266 2357 2361 2267 2166 2268
8 2370 2279 2360 2446 2280 2181 2267 2361
8 2362 2268 2182 2281 2447 2361 2280 2371
8 2180 2277 2368 2278 2270 2364 2449 2363
8 2271 2365 2273 2177 2364 2450 2366 2277
8 2372 2283 2186 2282 2451 2368 2276 2367
8 2178 2274 2367 2276 2277 2366 2451 2368
8 2283 2187 2278 2368 2370 2279 2369 2452
8 2372 2283 2370 2453 2282 2186 2280 2371
8 2284 2374 2455 2373 2201 2292 2380 2295
8 2375 2285 2197 2289 2456 2374 2292 2378
8 2376 2291 2204 2296 2457 2379 2297 2383
8 2288 2199 2291 2376 2377 2293 2379 2457
8 2198 2290 2378 2292 2293 2377 2458 2380
8 2293 2202 2294 2379 2380 2295 2381 2459
8 2384 2298 2381 2459 2297 2205 2294 2379
8 2386 2300 2384 2463 2299 2207 2297 2383
8 2387 2301 2385 2464 2300 2208 2298 2384
8 2389 2303 2387 2466 2302 2210 2300 2386
8 2390 2304 2388 2467 2303 2211 2301 2387
8 2392 2306 2390 2469 2305 2213 2303 2389
8 2393 2307 2391 2470 2306 2214 2304 2390
8 2395 2308 2393 2472 2310 2216 2306 2392
8 2308 2215 2309 2396 2393 2307 2394 2473
8 2395 2308 2216 2310 2475 2396 2311 2398
8 2396 2309 2217 2311 2476 2397 2312 2399
8 2398 2311 2219 2315 2478 2399 2314 2403
8 2399 2312 2218 2314 2479 2400 2313 2402
8 2317 2221 2316 2405 2402 2313 2401 2482
8 2403 2314 2222 2318 2483 2402 2317 2406
8 2320 2224 2319 2408 2405 2316 2404 2485
8 2321 2225 2320 2409 2406 2317 2405 2486
8 2323 2227 2322 2411 2408 2319 2407 2488
8 2324 2228 2323 2412 2409 2320 2408 2489
8 2326 2230 2325 2413 2411 2322 2410 2490
8 2327 2231 2326 2414 2412 2323 2411 2491
8 2329 2234 2328 2415 2414 2326 2413 2492
8 2417 2331 2260 2352 2494 2416 2353 2438
8 2350 2259 2352 2436 2419 2332 2417 2496
8 2332 2239 2331 2417 2420 2333 2418 2497
8 2334 2240 2332 2419 2422 2335 2420 2499
8 2420 2333 2421 2500 2335 2241 2336 2423
8 2422 2335 2423 2502 2337 2243 2338 2425
8 2423 2336 2424 2503 2338 2244 2339 2426
8 2425 2338 2426 2505 2342 2246 2341 2429
8 2426 2339 2427 2506 2341 2245 2340 2428
8 2429 2341 2428 2507 2344 2249 2343 2430
8 2432 2346 2284 2374 2509 2431 2373 2455
8 2432 2346 2431 2509 2364 2270 2363 2449
8 2375 2285 2374 2456 2433 2347 2432 2510
8 2347 2433 2365 2271 2432 2510 2450 2364
8 2350 2259 2351 2435 2436 2352 2437 2514
8 2440 2356 2437 2514 2355 2264 2351 2435
8 2352 2260 2354 2437 2438 2353 2439 2516
8 2356 2265 2358 2442 2437 2354 2439 2516
8 2440 2356 2264 2355 2518 2442 2357 2441
8 2519 2443 2357 2441 2447 2361 2268 2362
8 2443 2359 2444 2520 2357 2266 2358 2442
8 2443 2359 2267 2361 2520 2444 2360 2446
8 2446 2360 2279 2370 2523 2445 2369 2452
8 2453 2370 2446 2524 2371 2280 2361 2447
8 2449 2363 2448 2525 2368 2278 2369 2452
8 2366 2277 2364 2450 2451 2368 2449 2526
8 2372 2283 2368 2451 2453 2370 2452 2527
8 2455 2373 2295 2380 2529 2454 2382 2460
8 2456 2374 2292 2378 2530 2455 2380 2458
8 2377 2293 2379 2457 2458 2380 2459 2531
8 2463 2384 2459 2531 2383 2297 2379 2457
8 2533 2461 2382 2460 2459 2381 2295 2380
8 2464 2385 2461 2533 2384 2298 2381 2459
8 2466 2387 2464 2537 2386 2300 2384 2463
8 2467 2388 2465 2538 2387 2301 2385 2464
8 2469 2390 2467 2540 2389 2303 2387 2466
8 2470 2391 2468 2541 2390 2304 2388 2467
8 2472 2393 2470 2543 2392 2306 2390 2469
8 2393 2307 2394 2473 2470 2391 2471 2544
8 2395 2308 2396 2475 2472 2393 2473 2546
8 2396 2309 2397 2476 2473 2394 2474 2547
8 2475 2396 2311 2398 2549 2476 2399 2478
8 2476 2397 2312 2399 2550 2477 2400 2479
8 2478 2399 2314 2403 2552 2479 2402 2483
8 2479 2400 2313 2402 2553 2480 2401 2482
8 2405 2316 2404 2485 2482 2401 2481 2556
8 2406 2317 2405 2486 2483 2402 2482 2557
8 2408 2319 2407 2488 2485 2404 2484 2559
8 2409 2320 2408 2489 2486 2405 2485 2560
8 2411 2322 2410 2490 2488 2407 2487 2561
8 2412 2323 2411 2491 2489 2408 2488 2562
8 2414 2326 2413 2492 2491 2411 2490 2563
8 2513 2434 2493 2565 2438 2353 2416 2494
8 2496 2417 2352 2436 2567 2494 2438 2515
8 2494 2416 2495 2568 2417 2331 2418 2497
8 2419 2332 2417 2496 2499 2420 2497 2570
8 2497 2418 2498 2571 2420 2333 2421 2500
8 2499 2420 2500 2573 2422 2335 2423 2502
8 2500 2421 2501 2574 2423 2336 2424 2503
8 2502 2423 2503 2576 2425 2338 2426 2505
8 2503 2424 2504 2577 2426 2339 2427 2506
8 2505 2426 2506 2578 2429 2341 2428 2507
8 2509 2431 2373 2455 2580 2508 2454 2529
8 2509 2431 2508 2580 2449 2363 2448 2525
8 2432 2510 2581 2509 2374 2456 2530 2455
8 2432 2510 2450 2364 2509 2581 2526 2449
8 2583 2511 2434 2513 2516 2439 2353 2438
8 2436 2352 2437 2514 2515 2438 2516 2588
8 2440 2356 2442 2518 2514 2437 2516 2588
8 2442 2358 2444 2520 2516 2439 2517 2589
8 2519 2443 2520 2591 2441 2357 2442 2518
8 2519 2443 2361 2447 2591 2520 2446 2524
8 2446 2360 2445 2523 2520 2444 2521 2592
8 2525 2448 2522 2593 2452 2369 2445 2523
8 2524 2446 2370 2453 2594 2523 2452 2527
8 2526 2449 2525 2595 2451 2368 2452 2527
8 2534 2462 2528 2597 2460 2382 2454 2529
8 2530 2455 2380 2458 2598 2529 2460 2532
8 2599 2533 2460 2532 2531 2459 2380 2458
8 2537 2464 2533 2599 2463 2384 2459 2531
8 2534 2462 2382 2460 2601 2535 2461 2533
8 2538 2465 2535 2601 2464 2385 2461 2533
8 2540 2467 2538 2604 2466 2387 2464 2537
8 2541 2468 2539 2605 2467 2388 2465 2538
8 2543 2470 2541 2607 2469 2390 2467 2540
8 2470 2391 2471 2544 2541 2468 2542 2608
8 2472 2393 2473 2546 2543 2470 2544 2610
8 2473 2394 2474 2547 2544 2471 2545 2611
8 2475 2396 2476 2549 2546 2473 2547 2613
8 2476 2397 2477 2550 2547 2474 2548 2614
8 2549 2476 2399 2478 2616 2550 2479 2552
8 2479 2400 2480 2553 2550 2477 2551 2617
8 2552 2479 2402 2483 2619 2553 2482 2557
8 2482 2401 2481 2556 2553 2480 2554 2620
8 2485 2404 2484 2559 2556 2481 2555 2623
8 2486 2405 2485 2560 2557 2482 2556 2624
8 2488 2407 2487 2561 2559 2484 2558 2625
8 2489 2408 2488 2562 2560 2485 2559 2626
8 2491 2411 2490 2563 2562 2488 2561 2627
8 2513 2434 2512 2585 2565 2493 2564 2630
8 2586 2513 2565 2632 2515 2438 2494 2567
8 2565 2493 2566 2633 2494 2416 2495 2568
8 2567 2494 2568 2635 2496 2417 2497 2570
8 2568 2495 2569 2636 2497 2418 2498 2571
8 2570 2497 2571 2638 2499 2420 2500 2573
8 2571 2498 2572 2639 2500 2421 2501 2574
8 2573 2500 2574 2641 2502 2423 2503 2576
8 2574 2501 2575 2642 2503 2424 2504 2577
8 2576 2503 2577 2643 2505 2426 2506 2578
8 2597 2528 2579 2645 2529 2454 2508 2580
8 2580 2508 2579 2645 2525 2448 2522 2593
8 2581 2509 2455 2530 2646 2580 2529 2598
8 2581 2509 2580 2646 2526 2449 2525 2595
8 2583 2511 2582 2648 2513 2434 2512 2585
8 2583 2511 2439 2516 2648 2582 2517 2589
8 2649 2583 2513 2586 2588 2516 2438 2515
8 2589 2517 2444 2520 2653 2587 2521 2592
8 2518 2442 2520 2591 2588 2516 2589 2654
8 2593 2522 2590 2655 2523 2445 2521 2592
8 2524 2446 2523 2594 2591 2520 2592 2656
8 2595 2525 2593 2657 2527 2452 2523 2594
8 2602 2536 2596 2659 2534 2462 2528 2597
8 2600 2534 2597 2660 2532 2460 2529 2598
8 2600 2534 2460 2532 2661 2601 2533 2599
8 2604 2538 2601 2661 2537 2464 2533 2599
8 2602 2536 2462 2534 2663 2603 2535 2601
8 2601 2535 2465 2538 2663 2603 2539 2605
8 2607 2541 2605 2665 2540 2467 2538 2604
8 2608 2542 2606 2666 2541 2468 2539 2605
8 2543 2470 2544 2610 2607 2541 2608 2668
8 2544 2471 2545 2611 2608 2542 2609 2669
8 2546 2473 2547 2613 2610 2544 2611 2671
8 2547 2474 2548 2614 2611 2545 2612 2672
8 2549 2476 2550 2616 2613 2547 2614 2674
8 2550 2477 2551 2617 2614 2548 2615 2675
8 2552 2479 2553 2619 2616 2550 2617 2677
8 2553 2480 2554 2620 2617 2551 2618 2678
8 2557 2482 2556 2624 2619 2553 2620 2680
8 2556 2481 2555 2623 2620 2554 2621 2681
8 2559 2484 2558 2625 2623 2555 2622 2683
8 2560 2485 2559 2626 2624 2556 2623 2684
8 2562 2488 2561 2627 2626 2559 2625 2685
8 2690 2629 2564 2630 2650 2584 2512 2585
8 2586 2513 2585 2651 2632 2565 2630 2691
8 2630 2564 2631 2692 2565 2493 2566 2633
8 2632 2565 2633 2694 2567 2494 2568 2635
8 2633 2566 2634 2695 2568 2495 2569 2636
8 2635 2568 2636 2697 2570 2497 2571 2638
8 2636 2569 2637 2698 2571 2498 2572 2639
8 2638 2571 2639 2700 2573 2500 2574 2641
8 2639 2572 2640 2701 2574 2501 2575 2642
8 2641 2574 2642 2702 2576 2503 2577 2643
8 2597 2528 2596 2659 2645 2579 2644 2704
8 2645 2579 2644 2704 2593 2522 2590 2655
8 2660 2597 2645 2705 2598 2529 2580 2646
8 2646 2580 2645 2705 2595 2525 2593 2657
8 2650 2584 2512 2585 2707 2647 2582 2648
8 2648 2582 2517 2589 2707 2647 2587 2653
8 2649 2583 2648 2708 2586 2513 2585 2651
8 2649 2583 2516 2588 2708 2648 2589 2654
8 2655 2590 2652 2710 2592 2521 2587 2653
8 2654 2589 2520 2591 2711 2653 2592 2656
8 2657 2593 2655 2712 2594 2523 2592 2656
8 2602 2536 2603 2663 2659 2596 2658 2714
8 2662 2602 2659 2715 2600 2534 2597 2660
8 2662 2602 2534 2600 2717 2663 2601 2661
8 2661 2601 2538 2604 2717 2663 2605 2665
8 2666 2606 2664 2718 2605 2539 2603 2663
8 2668 2608 2666 2720 2607 2541 2605 2665
8 2608 2542 2609 2669 2666 2606 2667 2721
8 2610 2544 2611 2671 2668 2608 2669 2723
8 2611 2545 2612 2672 2669 2609 2670 2724
8 2613 2547 2614 2674 2671 2611 2672 2726
8 2614 2548 2615 2675 2672 2612 2673 2727
8 2616 2550 2617 2677 2674 2614 2675 2729
8 2617 2551 2618 2678 2675 2615 2676 2730
8 2619 2553 2620 2680 2677 2617 2678 2732
8 2620 2554 2621 2681 2678 2618 2679 2733
8 2624 2556 2623 2684 2680 2620 2681 2735
8 2681 2621 2555 2623 2736 2682 2622 2683
8 2626 2559 2625 2685 2684 2623 2683 2737
8 2688 2628 2584 2650 2740 2686 2647 2707
8 2688 2628 2687 2742 2650 2584 2629 2690
8 2690 2629 2689 2745 2630 2564 2631 2692
8 2746 2690 2630 2691 2709 2650 2585 2651
8 2691 2630 2692 2747 2632 2565 2633 2694
8 2692 2631 2693 2748 2633 2566 2634 2695
8 2694 2633 2695 2750 2635 2568 2636 2697
8 2695 2634 2696 2751 2636 2569 2637 2698
8 2697 2636 2698 2753 2638 2571 2639 2700
8 2698 2637 2699 2754 2639 2572 2640 2701
8 2700 2639 2701 2755 2641 2574 2642 2702
8 2659 2596 2658 2714 2704 2644 2703 2757
8 2704 2644 2703 2757 2655 2590 2652 2710
8 2660 2597 2659 2715 2705 2645 2704 2758
8 2705 2645 2704 2758 2657 2593 2655 2712
8 2759 2706 2647 2707 2710 2652 2587 2653
8 2709 2650 2585 2651 2760 2707 2648 2708
8 2708 2648 2589 2654 2760 2707 2653 2711
8 2712 2655 2710 2761 2656 2592 2653 2711
8 2763 2713 2658 2714 2718 2664 2603 2663
8 2662 2602 2663 2717 2715 2659 2714 2764
8 2720 2666 2718 2767 2665 2605 2663 2717
8 2768 2719 2664 2718 2721 2667 2606 2666
8 2668 2608 2669 2723 2720 2666 2721 2770
8 2669 2609 2670 2724 2721 2667 2722 2771
8 2671 2611 2672 2726 2723 2669 2724 2773
8 2672 2612 2673 2727 2724 2670 2725 2774
8 2674 2614 2675 2729 2726 2672 2727 2776
8 2675 2615 2676 2730 2727 2673 2728 2777
8 2677 2617 2678 2732 2729 2675 2730 2779
8 2678 2618 2679 2733 2730 2676 2731 2780
8 2680 2620 2681 2735 2732 2678 2733 2782
8 2733 2679 2621 2681 2783 2734 2682 2736
8 2735 2681 2623 2684 2784 2736 2683 2737
8 2740 2686 2647 2707 2787 2738 2706 2759
8 2688 2628 2686 2740 2742 2687 2739 2789
8 2743 2688 2650 2709 2790 2740 2707 2760
8 2742 2687 2741 2792 2690 2629 2689 2745
8 2743 2688 2742 2793 2709 2650 2690 2746
8 2745 2689 2744 2795 2692 2631 2693 2748
8 2746 2690 2745 2796 2691 2630 2692 2747
8 2747 2692 2748 2797 2694 2633 2695 2750
8 2748 2693 2749 2798 2695 2634 2696 2751
8 2750 2695 2751 2800 2697 2636 2698 2753
8 2751 2696 2752 2801 2698 2637 2699 2754
8 2753 2698 2754 2802 2700 2639 2701 2755
8 2763 2713 2756 2804 2714 2658 2703 2757
8 2759 2706 2652 2710 2804 2756 2703 2757
8 2715 2659 2714 2764 2758 2704 2757 2805
8 2758 2704 2757 2805 2712 2655 2710 2761
8 2806 2759 2707 2760 2761 2710 2653 2711
8 2765 2716 2762 2808 2718 2664 2713 2763
8 2809 2763 2714 2764 2767 2718 2663 2717
8 2765 2716 2664 2718 2811 2766 2719 2768
8 2813 2768 2718 2767 2770 2721 2666 2720
8 2814 2769 2719 2768 2771 2722 2667 2721
8 2723 2669 2724 2773 2770 2721 2771 2816
8 2724 2670 2725 2774 2771 2722 2772 2817
8 2726 2672 2727 2776 2773 2724 2774 2819
8 2727 2673 2728 2777 2774 2725 2775 2820
8 2729 2675 2730 2779 2776 2727 2777 2822
8 2730 2676 2731 2780 2777 2728 2778 2823
8 2732 2678 2733 2782 2779 2730 2780 2825
8 2780 2731 2679 2733 2826 2781 2734 2783
8 2782 2733 2681 2735 2827 2783 2736 2784
8 2830 2785 2738 2787 2804 2756 2706 2759
8 2789 2739 2686 2740 2832 2786 2738 2787
8 2790 2740 2707 2760 2833 2787 2759 2806
8 2742 2687 2739 2789 2792 2741 2788 2835
8 2743 2688 2740 2790 2793 2742 2789 2836
8 2792 2741 2791 2838 2745 2689 2744 2795
8 2793 2742 2792 2839 2746 2690 2745 2796
8 2795 2744 2794 2841 2748 2693 2749 2798
8 2796 2745 2795 2842 2747 2692 2748 2797
8 2797 2748 2798 2843 2750 2695 2751 2800
8 2798 2749 2799 2844 2751 2696 2752 2801
8 2800 2751 2801 2845 2753 2698 2754 2802
8 2808 2762 2803 2847 2763 2713 2756 2804
8 2809 2763 2804 2848 2764 2714 2757 2805
8 2806 2759 2710 2761 2848 2804 2757 2805
8 2765 2716 2766 2811 2808 2762 2807 2850
8 2810 2765 2808 2851 2767 2718 2763 2809
8 2810 2765 2718 2767 2852 2811 2768 2813
8 2811 2766 2719 2768 2853 2812 2769 2814
8 2855 2814 2768 2813 2816 2771 2721 2770
8 2856 2815 2769 2814 2817 2772 2722 2771
8 2773 2724 2774 2819 2816 2771 2817 2858
8 2774 2725 2775 2820 2817 2772 2818 2859
8 2776 2727 2777 2822 2819 2774 2820 2861
8 2777 2728 2778 2823 2820 2775 2821 2862
8 2779 2730 2780 2825 2822 2777 2823 2864
8 2823 2778 2731 2780 2865 2824 2781 2826
8 2825 2780 2733 2782 2866 2826 2783 2827
8 2869 2828 2785 2830 2847 2803 2756 2804
8 2871 2829 2786 2832 2830 2785 2738 2787
8 2872 2830 2787 2833 2848 2804 2759 2806
8 2789 2739 2786 2832 2835 2788 2831 2874
8 2836 2789 2740 2790 2875 2832 2787 2833
8 2792 2741 2788 2835 2838 2791 2834 2877
8 2793 2742 2789 2836 2839 2792 2835 2878
8 2838 2791 2837 2880 2795 2744 2794 2841
8 2839 2792 2838 2881 2796 2745 2795 2842
8 2841 2794 2840 2882 2798 2749 2799 2844
8 2842 2795 2841 2883 2797 2748 2798 2843
8 2843 2798 2844 2884 2800 2751 2801 2845
8 2886 2846 2803 2847 2850 2807 2762 2808
8 2851 2808 2847 2887 2809 2763 2804 2848
8 2850 2807 2766 2811 2889 2849 2812 2853
8 2810 2765 2811 2852 2851 2808 2850 2890
8 2852 2811 2768 2813 2891 2853 2814 2855
8 2853 2812 2769 2814 2892 2854 2815 2856
8 2894 2856 2814 2855 2858 2817 2771 2816
8 2817 2772 2818 2859 2856 2815 2857 2895
8 2819 2774 2820 2861 2858 2817 2859 2897
8 2820 2775 2821 2862 2859 2818 2860 2898
8 2822 2777 2823 2864 2861 2820 2862 2900
8 2823 2778 2824 2865 2862 2821 2863 2901
8 2864 2823 2780 2825 2902 2865 2826 2866
8 2904 2867 2828 2869 2886 2846 2803 2847
8 2869 2828 2868 2906 2830 2785 2829 2871
8 2907 2869 2830 2872 2887 2847 2804 2848
8 2871 2829 2870 2909 2832 2786 2831 2874
8 2910 2871 2832 2875 2872 2830 2787 2833
8 2835 2788 2831 2874 2877 2834 2873 2912
8 2836 2789 2832 2875 2878 2835 2874 2913
8 2877 2834 2876 2915 2838 2791 2837 2880
8 2839 2792 2835 2878 2881 2838 2877 2916
8 2880 2837 2879 2917 2841 2794 2840 2882
8 2881 2838 2880 2918 2842 2795 2841 2883
8 2883 2841 2882 2919 2843 2798 2844 2884
8 2921 2885 2846 2886 2889 2849 2807 2850
8 2922 2886 2847 2887 2890 2850 2808 2851
8 2889 2849 2812 2853 2924 2888 2854 2892
8 2890 2850 2811 2852 2925 2889 2853 2891
8 2891 2853 2814 2855 2926 2892 2856 2894
8 2892 2854 2815 2856 2927 2893 2857 2895
8 2858 2817 2859 2897 2894 2856 2895 2929
8 2859 2818 2860 2898 2895 2857 2896 2930
8 2861 2820 2862 2900 2897 2859 2898 2932
8 2862 2821 2863 2901 2898 2860 2899 2933
8 2864 2823 2865 2902 2900 2862 2901 2934
8 2904 2867 2846 2886 2936 2903 2885 2921
8 2904 2867 2903 2936 2869 2828 2868 2906
8 2937 2904 2869 2907 2922 2886 2847 2887
8 2906 2868 2905 2939 2871 2829 2870 2909
8 2907 2869 2906 2940 2872 2830 2871 2910
8 2909 2870 2908 2942 2874 2831 2873 2912
8 2910 2871 2909 2943 2875 2832 2874 2913
8 2912 2873 2911 2945 2877 2834 2876 2915
8 2878 2835 2874 2913 2916 2877 2912 2946
8 2915 2876 2914 2947 2880 2837 2879 2917
8 2916 2877 2915 2948 2881 2838 2880 2918
8 2918 2880 2917 2949 2883 2841 2882 2919
8 2921 2885 2849 2889 2951 2920 2888 2924
8 2952 2921 2886 2922 2925 2889 2850 2890
8 2924 2888 2854 2892 2954 2923 2893 2927
8 2925 2889 2853 2891 2955 2924 2892 2926
8 2926 2892 2856 2894 2956 2927 2895 2929
8 2895 2857 2896 2930 2927 2893 2928 2957
8 2897 2859 2898 2932 2929 2895 2930 2959
8 2898 2860 2899 2933 2930 2896 2931 2960
8 2900 2862 2901 2934 2932 2898 2933 2961
8 2936 2903 2885 2921 2963 2935 2920 2951
8 2936 2903 2935 2963 2906 2868 2905 2939
8 2937 2904 2886 2922 2964 2936 2921 2952
8 2937 2904 2936 2964 2907 2869 2906 2940
8 2939 2905 2938 2966 2909 2870 2908 2942
8 2940 2906 2939 2967 2910 2871 2909 2943
8 2942 2908 2941 2969 2912 2873 2911 2945
8 2943 2909 2942 2970 2913 2874 2912 2946
8 2945 2911 2944 2971 2915 2876 2914 2947
8 2946 2912 2945 2972 2916 2877 2915 2948
8 2948 2915 2947 2973 2918 2880 2917 2949
8 2951 2920 2888 2924 2975 2950 2923 2954
8 2952 2921 2889 2925 2976 2951 2924 2955
8 2927 2893 2928 2957 2954 2923 2953 2978
8 2955 2924 2892 2926 2979 2954 2927 2956
8 2929 2895 2930 2959 2956 2927 2957 2980
8 2930 2896 2931 2960 2957 2928 2958 2981
8 2932 2898 2933 2961 2959 2930 2960 2982
8 2951 2920 2950 2975 2963 2935 2962 2984
8 2963 2935 2962 2984 2939 2905 2938 2966
8 2964 2936 2921 2952 2985 2963 2951 2976
8 2964 2936 2963 2985 2940 2906 2939 2967
8 2966 2938 2965 2987 2942 2908 2941 2969
8 2967 2939 2966 2988 2943 2909 2942 2970
8 2969 2941 2968 2989 2945 2911 2944 2971
8 2970 2942 2969 2990 2946 2912 2945 2972
8 2972 2945 2971 2991 2948 2915 2947 2973
8 2954 2923 2953 2978 2975 2950 2974 2993
8 2976 2951 2924 2955 2994 2975 2954 2979
8 2957 2928 2958 2981 2978 2953 2977 2995
8 2956 2927 2957 2980 2979 2954 2978 2996
8 2959 2930 2960 2982 2980 2957 2981 2997
8 2984 2962 2983 2999 2966 2938 2965 2987
8 2975 2950 2974 2993 2984 2962 2983 2999
8 2976 2951 2975 2994 2985 2963 2984 3000
8 2985 2963 2984 3000 2967 2939 2966 2988
8 2987 2965 2986 3001 2969 2941 2968 2989
8 2988 2966 2987 3002 2970 2942 2969 2990
8 2990 2969 2989 3003 2972 2945 2971 2991
8 2978 2953 2977 2995 2993 2974 2992 3004
8 2979 2954 2978 2996 2994 2975 2993 3005
8 2980 2957 2981 2997 2996 2978 2995 3006
8 2974 2993 2999 2983 2992 3004 3007 2998
8 2983 2999 2987 2965 2998 3007 3001 2986
8 3000 2984 2999 3008 2988 2966 2987 3002
8 2994 2975 2993 3005 3000 2984 2999 3008
8 3002 2987 3001 3009 2990 2969 2989 3003
8 2996 2978 2995 3006 3005 2993 3004 3010
8 3005 2993 3004 3010 3008 2999 3007 3011
8 3008 2999 3007 3011 3002 2987 3001 3009

CELL_TYPES 1910
12
12
12
12
12
12
12
12
12
12
12
12
12
12
12
12
12
12
12
12
12
12
12
12
12
12
12
12
12
12
12
12
12
12
12
12
12
12
12
12
12
12
12
12
12
12
12
12
12
12
12
12
12
12
12
12
12
12
12
12
12
12
12
12
12
12
12
12
12
12
12
12
12
12
12
12
12
12
12
12
12
12
12
12
12
12
12
12
12
12
12
12
12
12
12
12
12
12
12
12
12
12
12
12
12
12
12
12
12
12
12
12
12
12
12
12
12
12
12
12
12
12
12
12
12
12
12
12
12
12
12
12
12
12
12
12
12
12
12
12
12
12
12
12
12
12
12
12
12
12
12
12
12
12
12
12
12
12
12
12
12
12
12
12
12
12
12
12
12
12
12
12
12
12
12
12
12
12
12
12
12
12
12
12
12
12
12
12
12
12
12
12
12
12
12
12
12
12
12
12
12
12
12
12
12
12
12
12
12
12
12
12
12
12
12
12
12
12
12
12
12
12
12
12
12
12
12
12
12
12
12
12
12
12
12
12
12
12
12
12
12
12
12
12
12
12
12
12
12
12
12
12
12
12
12
12
12
12
12
12
12
12
12
12
12
12
12
12
12
12
12
12
12
12
12
12
12
12
12
12
12
12
12
12
12
12
12
12
12
12
12
12
12
12
12
12
12
12
12
12
12
12
12
12
12
12
12
12
12
12
12
12
12
12
12
12
12
12
12
12
12
12
12
12
12
12
12
12
12
12
12
12
12
12
12
12
12
12
12
12
12
12
12
12
12
12
12
12
12
12
12
12
12
12
12
12
12
12
12
12
12
12
12
12
12
12
12
12
12
12
12
12
12
12
12
12
12
12
12
12
12
12
12
12
12
12
12
12
12
12
12
12
12
12
12
12
12
12
12
12
12
12
12
12
12
12
12
12
12
12
12
12
12
12
12
12
12
12
12
12
12
12
12
12
12
12
12
12
12
12
12
12
12
12
12
12
12
12
12
12
12
12
12
12
12
12
12
12
12
12
12
12
12
12
12
12
12
12
12
12
12
12
12
12
12
12
12
12
12
12
12
12
12
12
12
12
12
12
12
12
12
12
12
12
12
12
12
12
12
12
12
12
12
12
12
12
12
12
12
12
12
12
12
12
12
12
12
12
12
12
12
12
12
12
12
12
12
12
12
12
12
12
12
12
12
12
12
12
12
12
12
12
12
12
12
12
12
12
12
12
12
12
12
12
12
12
12
12
12
12
12
12
12
12
12
12
12
12
12
12
12
12
12
12
12
12
12
12
12
12
12
12
12
12
12
12
12
12
12
12
12
12
12
12
12
12
12
12
12
12
12
12
12
12
12
12
12
12
12
12
12
12
12
12
12
12
12
12
12
12
12
12
12
12
12
12
12
12
12
12
12
12
12
12
12
12
12
12
12
12
12
12
12
12
12
12
12
12
12
12
12
12
12
12
12
12
12
12
12
12
12
12
12
12
12
12
12
12
12
12
12
12
12
12
12
12
12
12
12
12
12
12
12
12
12
12
12
12
12
12
12
12
12
12
12
12
12
12
12
12
12
12
12
12
12
12
12
12
12
12
12
12
12
12
12
12
12
12
12
12
12
12
12
12
12
12
12
12
12
12
12
12
12
12
12
12
12
12
12
12
12
12
12
12
12
12
12
12
12
12
12
12
12
12
12
12
12
12
12
12
12
12
12
12
12
12
12
12
12
12
12
12
12
12
12
12
12
12
12
12
12
12
12
12
12
12
12
12
12
12
12
12
12
12
12
12
12
12
12
12
12
12
12
12
12
12
12
12
12
12
12
12
12
12
12
12
12
12
12
12
12
12
12
12
12
12
12
12
12
12
12
12
12
12
12
12
12
12
12
12
12
12
12
12
12
12
12
12
12
12
12
12
12
12
12
12
12
12
12
12
12
12
12
12
12
12
12
12
12
12
12
12
12
12
12
12
12
12
12
12
12
12
12
12
12
12
12
12
12
12
12
12
12
12
12
12
12
12
12
12
12
12
12
12
12
12
12
12
12
12
12
12
12
12
12
12
12
12
12
12
12
12
12
12
12
12
12
12
12
12
12
12
12
12
12
12
12
12
12
12
12
12
12
12
12
12
12
12
12
12
12
12
12
12
12
12
12
12
12
12
12
12
12
12
12
12
12
12
12
12
12
12
12
12
12
12
12
12
12
12
12
12
12
12
12
12
12
12
12
12
12
12
12
12
12
12
12
12
12
12
12
12
12
12
12
12
12
12
12
12
12
12
12
12
12
12
12
12
12
12
12
12
12
12
12
12
12
12
12
12
12
12
12
12
12
12
12
12
12
12
12
12
12
12
12
12
12
12
12
12
12
12
12
12
12
12
12
12
12
12
12
12
12
12
12
12
12
12
12
12
12
12
12
12
12
12
12
12
12
12
12
12
12
12
12
12
12
12
12
12
12
12
12
12
12
12
12
12
12
12
12
12
12
12
12
12
12
12
12
12
12
12
12
12
12
12
12
12
12
12
12
12
12
12
12
12
12
12
12
12
12
12
12
12
12
12
12
12
12
12
12
12
12
12
12
12
12
12
12
12
12
12
12
12
12
12
12
12
12
12
12
12
12
12
12
12
12
12
12
12
12
12
12
12
12
12
12
12
12
12
12
12
12
12
12
12
12
12
12
12
12
12
12
12
12
12
12
12
12
12
12
12
12
12
12
12
12
12
12
12
12
12
12
12
12
12
12
12
12
12
12
12
12
12
12
12
12
12
12
12
12
12
12
12
12
12
12
12
12
12
12
12
12
12
12
12
12
12
12
12
12
12
12
12
12
12
12
12
12
12
12
12
12
12
12
12
12
12
12
12
12
12
12
12
12
12
12
12
12
12
12
12
12
12
12
12
12
12
12
12
12
12
12
12
12
12
12
12
12
12
12
12
12
12
12
12
12
12
12
12
12
12
12
12
12
12
12
12
12
12
12
12
12
12
12
12
12
12
12
12
12
12
12
12
12
12
12
12
12
12
12
12
12
12
12
12
12
12
12
12
12
12
12
12
12
12
12
12
12
12
12
12
12
12
12
12
12
12
12
12
12
12
12
12
12
12
12
12
12
12
12
12
12
12
12
12
12
12
12
12
12
12
12
12
12
12
12
12
12
12
12
12
12
12
12
12
12
12
12
12
12
12
12
12
12
12
12
12
12
12
12
12
12
12
12
12
12
12
12
12
12
12
12
12
12
12
12
12
12
12
12
12
12
12
12
12
12
12
12
12
12
12
12
12
12
12
12
12
12
12
12
12
12
12
12
12
12
12
12
12
12
12
12
12
12
12
12
12
12
12
12
12
12
12
12
12
12
12
12
12
12
12
12
12
12
12
12
12
12
12
12
12
12
12
12
12
12
12
12
12
12
12
12
12
12
12
12
12
12
12
12
12
12
12
12
12
12
12
12
12
12
12
12
12
12
12
12
12
12
12
12
12
12
12
12
12
12
12
12
12
12
12
12
12
12
12
12
12
12
12
12
12
12
12
12
12
12
12
12
12
12
12
12
12
12
12
12
12
12
12
12
12
12
12
12
12
12
12
12
12
12
12
12
12
12
12
12
12
12
12
12
12
12
12
12
12
12
12
12
12
12
12
12
12
12
12
12
12
12
12
12
12
12
12
12
12
12
12
12
12
12
12
12
12
12
12
12
12
12
12
12
12
12
12
12
12
12
12
12
12
12
12
12
12
12
12
12
12
12
12
12
12
12
12
12
12
12
12
12
12
12
12
12
12
12
12
12
12
12
12
12
12
12
12
12
12
12
12
12
12
12
12
12
12
12
12
12
12
12
12
12
12
12
12
12
12
12
12
12
12
12
12
12
12
12
12
12
12
12
12
12
12
12
12
12
12
12
12
12
12
12
12
12
12
12
12
12
12
12
12
12
12
12
12
12
12
12
12
12
12
12
12
12
12
12
12
12
12
12
12
12
12
12
12
12
12
12
12
12
12
12
12
12
12
12
12
12
12
12
12
12
12
12
12
12
12
12
12
12
12
12
12
12
12
12
12
12
12
12
12
12
12
12
12
12
12
12
12
12
12
12
12
12
12
12
12
12
12
12
12
12
12
12
12
12
12
12
12
12
12
12
12
12
12
12
12
12
12
12
12
12
12
12
12
12
12
12
12
12
12
12
12
12
12
12
12
12
12
12
12
12
12
12
12
12
12
12
12
12
12
12
12
12
12
12
12
12
12
12
12
12
12
12
12
12
12
12
12
12
12
12
12
12
12
12
12
12
12
12
12
12
12
12
12
12
12
12
12
12
12
12
12
12
12
12
12
12
12
12
12

POINT_DATA 3012
SCALARS Jp_lamdaP float 4
LOOKUP_TABLE default
1 1 1 1
1 1 1 1
1 1 1 1
0.999989 1 1 0.999989
0.999998 1 1 0.999998
1 1 1 1
0.999889 1 1 0.999889
1 1 1 1
1 1 1 1
1 1 1 1
1 1 1 1
0.999967 1 1 0.999967
0.999974 1 1 0.999974
0.999991 1 1 0.999991
1 1 1 1
0.999991 1 1 0.999991
1 1 1 1
0.999999 1 1 0.999999
0.99989 1 1 0.99989
1 1 1 1
0.999986 1 1 0.999986
0.999995 1 1 0.999995
0.999809 1 1 0.999809
0.999866 1 1 0.999866
1 1 1 1
0.999914 1 1 0.999914
0.999686 1 1 0.999686
1 1 1 1
0.999998 1 1 0.999998
1 1 1 1
1 1 1 1
0.999971 1 1 0.999971
0.999995 1 1 0.999995
1 1 1 1
0.999912 1 1 0.999912
1 1 1 1
0.999954 1 1 0.999954
0.999982 1 1 0.999982
0.999733 1 1 0.999733
1 1 1 1
1 1 1 1
0.999994 1 1 0.999994
1 1 1 1
0.999986 1 1 0.999986
0.999804 1 1 0.999804
1 1 1 1
0.999869 1 1 0.999869
0.999992 1 1 0.999992
0.999999 1 1 0.999999
1 1 1 1
0.999891 1 1 0.999891
0.999988 1 1 0.999988
0.999988 1 1 0.999988
1 1 1 1
0.999996 1 1 0.999996
0.999811 1 1 0.999811
0.999915 1 1 0.999915
0.999868 1 1 0.999868
0.999678 1 1 0.999678
1 1 1 1
0.999982 1 1 0.999982
0.999831 1 1 0.999831
0.999794 1 1 0.999794
0.999839 1 1 0.999839
0.999496 1 1 0.999496
0.999607 1 1 0.999607
1 1 1 1
0.999944 1 1 0.999944
0.999742 1 1 0.999742
0.999434 1 1 0.999434
1 1 1 1
1 1 1 1
1 1 1 1
0.999975 1 1 0.999975
1 1 1 1
1 1 1 1
0.999917 1 1 0.999917
1 1 1 1
0.999958 1 1 0.999958
0.999986 1 1 0.999986
0.999732 1 1 0.999732
1 1 1 1
1 1 1 1
0.99989 1 1 0.99989
0.999934 1 1 0.999934
0.999572 1 1 0.999572
0.999995 1 1 0.999995
0.999708 1 1 0.999708
0.999759 1 1 0.999759
0.999553 1 1 0.999553
1 1 1 1
1 1 1 1
1 1 1 1
1 1 1 1
1 1 1 1
0.999991 1 1 0.999991
0.999819 1 1 0.999819
0.999996 1 1 0.999996
0.999869 1 1 0.999869
1 1 1 1
0.999777 1 1 0.999777
0.99985 1 1 0.99985
0.999341 1 1 0.999341
0.999882 1 1 0.999882
0.999414 1 1 0.999414
0.999979 1 1 0.999979
0.999989 1 1 0.999989
1 1 1 1
0.999997 1 1 0.999997
0.999813 1 1 0.999813
0.99987 1 1 0.99987
0.999916 1 1 0.999916
0.999671 1 1 0.999671
1 1 1 1
0.999985 1 1 0.999985
0.999789 1 1 0.999789
0.999794 1 1 0.999794
1 1 1 1
0.999961 1 1 0.999961
0.999841 1 1 0.999841
0.99948 1 1 0.99948
0.999733 1 1 0.999733
0.999618 1 1 0.999618
0.999435 1 1 0.999435
0.99979 1 1 0.99979
0.999788 1 1 0.999788
0.999387 1 1 0.999387
0.999439 1 1 0.999439
0.999535 1 1 0.999535
0.999248 1 1 0.999248
1 1 1 1
0.999388 1 1 0.999388
0.999994 1 1 0.999994
0.999757 1 1 0.999757
0.999479 1 1 0.999479
0.999331 1 1 0.999331
1 1 1 1
0.999847 1 1 0.999847
1 1 1 1
1 1 1 1
0.999922 1 1 0.999922
1 1 1 1
0.999991 1 1 0.999991
0.999962 1 1 0.999962
0.999731 1 1 0.999731
1 1 1 1
1 1 1 1
0.999896 1 1 0.999896
0.99994 1 1 0.99994
0.999573 1 1 0.999573
0.999997 1 1 0.999997
0.999708 1 1 0.999708
0.999759 1 1 0.999759
0.999547 1 1 0.999547
1 1 1 1
1 1 1 1
0.999865 1 1 0.999865
0.999502 1 1 0.999502
0.999651 1 1 0.999651
0.99936 1 1 0.99936
0.999796 1 1 0.999796
0.999523 1 1 0.999523
0.999568 1 1 0.999568
0.999475 1 1 0.999475
1 1 1 1
1 1 1 1
1 1 1 1
1 1 1 1
1 1 1 1
1 1 1 1
1 1 1 1
0.999868 1 1 0.999868
0.999815 1 1 0.999815
1 1 1 1
1 1 1 1
0.999779 1 1 0.999779
0.99985 1 1 0.99985
0.999341 1 1 0.999341
0.99988 1 1 0.99988
0.999414 1 1 0.999414
0.999769 1 1 0.999769
0.999296 1 1 0.999296
0.999383 1 1 0.999383
0.999133 1 1 0.999133
0.99945 1 1 0.99945
0.999213 1 1 0.999213
1 1 1 1
0.999987 1 1 0.999987
0.999746 1 1 0.999746
0.999795 1 1 0.999795
1 1 1 1
0.999977 1 1 0.999977
0.999843 1 1 0.999843
0.999465 1 1 0.999465
0.999628 1 1 0.999628
0.999725 1 1 0.999725
0.999436 1 1 0.999436
0.999787 1 1 0.999787
0.999788 1 1 0.999788
0.999356 1 1 0.999356
0.99945 1 1 0.99945
1 1 1 1
0.999991 1 1 0.999991
0.99977 1 1 0.99977
0.999536 1 1 0.999536
0.999229 1 1 0.999229
0.999476 1 1 0.999476
0.999396 1 1 0.999396
0.999333 1 1 0.999333
1 1 1 1
0.999848 1 1 0.999848
0.999305 1 1 0.999305
0.999422 1 1 0.999422
0.999168 1 1 0.999168
0.999174 1 1 0.999174
0.999332 1 1 0.999332
0.999156 1 1 0.999156
0.999999 1 1 0.999999
0.999289 1 1 0.999289
0.99978 1 1 0.99978
0.999537 1 1 0.999537
0.999375 1 1 0.999375
0.9993 1 1 0.9993
0.99981 1 1 0.99981
0.999897 1 1 0.999897
0.99962 1 1 0.99962
0.999898 1 1 0.999898
1 1 1 1
1 1 1 1
0.999946 1 1 0.999946
0.999575 1 1 0.999575
0.999999 1 1 0.999999
0.999759 1 1 0.999759
0.999709 1 1 0.999709
0.999541 1 1 0.999541
1 1 1 1
1 1 1 1
0.999865 1 1 0.999865
0.999502 1 1 0.999502
0.999653 1 1 0.999653
0.99936 1 1 0.99936
0.999796 1 1 0.999796
0.99953 1 1 0.99953
0.999567 1 1 0.999567
0.999467 1 1 0.999467
1 1 1 1
0.999829 1 1 0.999829
0.999906 1 1 0.999906
0.999653 1 1 0.999653
0.99929 1 1 0.99929
0.999458 1 1 0.999458
0.999254 1 1 0.999254
0.999603 1 1 0.999603
0.999446 1 1 0.999446
0.999449 1 1 0.999449
0.999408 1 1 0.999408
0.999978 1 1 0.999978
1 1 1 1
1 1 1 1
1 1 1 1
1 1 1 1
1 1 1 1
1 1 1 1
1 1 1 1
1 1 1 1
0.999882 1 1 0.999882
0.999847 1 1 0.999847
0.999414 1 1 0.999414
0.999341 1 1 0.999341
0.999781 1 1 0.999781
1 1 1 1
0.999768 1 1 0.999768
0.999296 1 1 0.999296
0.999383 1 1 0.999383
0.999132 1 1 0.999132
0.999451 1 1 0.999451
0.999213 1 1 0.999213
0.999284 1 1 0.999284
0.999086 1 1 0.999086
0.999177 1 1 0.999177
0.999072 1 1 0.999072
0.999248 1 1 0.999248
0.999144 1 1 0.999144
0.999785 1 1 0.999785
0.999788 1 1 0.999788
0.999325 1 1 0.999325
0.999461 1 1 0.999461
1 1 1 1
0.999988 1 1 0.999988
0.999784 1 1 0.999784
0.999538 1 1 0.999538
0.99921 1 1 0.99921
0.999404 1 1 0.999404
0.999473 1 1 0.999473
0.999335 1 1 0.999335
1 1 1 1
0.999848 1 1 0.999848
0.999295 1 1 0.999295
0.999422 1 1 0.999422
0.99916 1 1 0.99916
0.999194 1 1 0.999194
0.999998 1 1 0.999998
0.99978 1 1 0.99978
0.99955 1 1 0.99955
0.999331 1 1 0.999331
0.999152 1 1 0.999152
0.999361 1 1 0.999361
0.99929 1 1 0.99929
0.999299 1 1 0.999299
0.999811 1 1 0.999811
0.999617 1 1 0.999617
0.999896 1 1 0.999896
0.999128 1 1 0.999128
0.999182 1 1 0.999182
0.999062 1 1 0.999062
0.999102 1 1 0.999102
0.999231 1 1 0.999231
0.999158 1 1 0.999158
0.999793 1 1 0.999793
0.999269 1 1 0.999269
0.999605 1 1 0.999605
0.999417 1 1 0.999417
0.999287 1 1 0.999287
0.999329 1 1 0.999329
0.999939 1 1 0.999939
0.999618 1 1 0.999618
0.999632 1 1 0.999632
0.999533 1 1 0.999533
0.999503 1 1 0.999503
1 1 1 1
1 1 1 1
0.999866 1 1 0.999866
0.999655 1 1 0.999655
0.99936 1 1 0.99936
0.999796 1 1 0.999796
0.999566 1 1 0.999566
0.999537 1 1 0.999537
0.999459 1 1 0.999459
1 1 1 1
0.999829 1 1 0.999829
0.999907 1 1 0.999907
0.999652 1 1 0.999652
0.999289 1 1 0.999289
0.999459 1 1 0.999459
0.999254 1 1 0.999254
0.999603 1 1 0.999603
0.999454 1 1 0.999454
0.999446 1 1 0.999446
0.999429 1 1 0.999429
1 1 1 1
0.999937 1 1 0.999937
0.999632 1 1 0.999632
0.999687 1 1 0.999687
0.999532 1 1 0.999532
0.999196 1 1 0.999196
0.999361 1 1 0.999361
0.999216 1 1 0.999216
0.999474 1 1 0.999474
0.999397 1 1 0.999397
0.999323 1 1 0.999323
0.999968 1 1 0.999968
0.999815 1 1 0.999815
0.999985 1 1 0.999985
0.99998 1 1 0.99998
1 1 1 1
1 1 1 1
1 1 1 1
1 1 1 1
1 1 1 1
1 1 1 1
1 1 1 1
1 1 1 1
1 1 1 1
1 1 1 1
1 1 1 1
0.999451 1 1 0.999451
0.999383 1 1 0.999383
0.999213 1 1 0.999213
0.999132 1 1 0.999132
0.999296 1 1 0.999296
0.999767 1 1 0.999767
0.999283 1 1 0.999283
0.999086 1 1 0.999086
0.999177 1 1 0.999177
0.999068 1 1 0.999068
0.999247 1 1 0.999247
0.999144 1 1 0.999144
0.999072 1 1 0.999072
0.999121 1.0001 1 0.999026
0.999106 1 1 0.999106
0.999127 1.00007 1 0.999058
0.999173 1 1 0.999173
0.99917 1 1 0.99917
0.999284 1 1 0.999284
0.999421 1 1 0.999421
0.999152 1 1 0.999152
0.999214 1 1 0.999214
0.999997 1 1 0.999997
0.99978 1 1 0.99978
0.999563 1 1 0.999563
0.999331 1 1 0.999331
0.999147 1 1 0.999147
0.99929 1 1 0.99929
0.999347 1 1 0.999347
0.999299 1 1 0.999299
0.999812 1 1 0.999812
0.999613 1 1 0.999613
0.999895 1 1 0.999895
0.999112 1 1 0.999112
0.999182 1 1 0.999182
0.999053 1 1 0.999053
0.999106 1 1 0.999106
0.999794 1 1 0.999794
0.999603 1 1 0.999603
0.999432 1 1 0.999432
0.999237 1 1 0.999237
0.999164 1 1 0.999164
0.999275 1 1 0.999275
0.999269 1 1 0.999269
0.999334 1 1 0.999334
0.99962 1 1 0.99962
0.999523 1 1 0.999523
0.999936 1 1 0.999936
0.999638 1 1 0.999638
0.99902 1 1 0.99902
0.999078 1 1 0.999078
0.999014 1 1 0.999014
0.99909 1 1 0.99909
0.999227 1 1 0.999227
0.999183 1 1 0.999183
0.999621 1 1 0.999621
0.99933 1 1 0.99933
0.999496 1 1 0.999496
0.999317 1 1 0.999317
0.999226 1 1 0.999226
0.999332 1 1 0.999332
0.999959 1 1 0.999959
0.99968 1 1 0.99968
0.999536 1 1 0.999536
0.999522 1 1 0.999522
0.999489 1 1 0.999489
1 1 1 1
0.999288 1 1 0.999288
0.999909 1 1 0.999909
0.999828 1 1 0.999828
0.999651 1 1 0.999651
0.999461 1 1 0.999461
0.999254 1 1 0.999254
0.999604 1 1 0.999604
0.999442 1 1 0.999442
0.999463 1 1 0.999463
0.99945 1 1 0.99945
1 1 1 1
0.999939 1 1 0.999939
0.999631 1 1 0.999631
0.999686 1 1 0.999686
0.999527 1 1 0.999527
0.999195 1 1 0.999195
0.999361 1 1 0.999361
0.999212 1 1 0.999212
0.999475 1 1 0.999475
0.999402 1 1 0.999402
0.999333 1 1 0.999333
0.999955 1 1 0.999955
0.999725 1 1 0.999725
0.999507 1 1 0.999507
0.999553 1 1 0.999553
0.999468 1 1 0.999468
0.999173 1 1 0.999173
0.999314 1 1 0.999314
0.999267 1 1 0.999267
0.999425 1 1.00007 0.999356
0.999262 1 1 0.999262
0.999971 1 1 0.999971
0.999768 1 1 0.999768
0.999803 1 1 0.999803
0.999691 1 1 0.999691
0.999826 1 1 0.999826
0.99999 1 1 0.99999
0.999987 1 1 0.999987
1 1 1 1
0.999982 1 1 0.999982
1 1 1 1
1 1 1 1
1 1 1 1
1 1 1 1
1 1 1 1
1 1 1 1
1 1 1 1
1 1 1 1
1 1 1 1
1 1 1 1
1 1 1 1
0.999246 1 1 0.999246
0.999177 1 1 0.999177
0.999145 1 1 0.999145
0.999064 1 1 0.999064
0.999087 1 1 0.999087
0.999283 1 1 0.999283
0.999072 1 1 0.999072
0.999115 1.0001 1 0.99902
0.999107 1 1 0.999107
0.999115 1.00006 1 0.999057
0.999171 1 1 0.999171
0.999169 1 1 0.999169
0.999074 1.00008 1 0.998999
0.999866 1.00086 1 0.999009
0.999102 1 1 0.999102
0.999325 1.00028 1 0.999049
0.999177 1 1 0.999177
0.999198 1.00001 1 0.999189
0.999096 1 1 0.999096
0.999182 1 1 0.999182
0.999045 1 1 0.999045
0.99911 1 1 0.99911
0.999794 1 1 0.999794
0.999602 1 1 0.999602
0.999447 1 1 0.999447
0.999244 1 1 0.999244
0.99917 1 1 0.99917
0.99927 1 1 0.99927
0.999264 1 1 0.999264
0.999339 1 1 0.999339
0.999622 1 1 0.999622
0.999513 1 1 0.999513
0.999933 1 1 0.999933
0.999645 1 1 0.999645
0.99905 1.00003 1 0.999021
0.999081 1 1 0.999081
0.999015 1 1 0.999015
0.999091 1 1 0.999091
0.999621 1 1 0.999621
0.999508 1 1 0.999508
0.999316 1 1 0.999316
0.999222 1 1 0.999222
0.999211 1 1 0.999211
0.99922 1 1 0.99922
0.999331 1 1 0.999331
0.999349 1 1 0.999349
0.999536 1 1 0.999536
0.999486 1 1 0.999486
0.99952 1 1 0.99952
0.999941 1 1 0.999941
0.999686 1 1 0.999686
0.999248 1.00026 1 0.998984
0.999014 1.00001 1 0.999009
0.999148 1.00004 1 0.999106
0.999265 1 1 0.999265
0.999544 1 1 0.999544
0.999387 1 1 0.999383
0.999422 1 1 0.999422
0.999187 1 1 0.999187
0.999172 1 1 0.999172
0.999941 1 1 0.999941
0.999753 1 1 0.999753
0.999565 1 1 0.999565
0.999508 1 1 0.999508
0.999438 1 1 0.999438
0.999456 1 1 0.999456
1 1 1 1
0.999941 1 1 0.999941
0.999193 1 1 0.999193
0.999686 1 1 0.999686
0.999631 1 1 0.999631
0.999522 1 1 0.999522
0.999362 1 1 0.999362
0.999209 1 1 0.999209
0.999477 1 1 0.999477
0.999343 1 1 0.999343
0.999408 1 1 0.999408
0.999958 1 1 0.999958
0.999725 1 1 0.999725
0.999514 1 1 0.999514
0.999552 1 1 0.999552
0.99946 1 1 0.99946
0.999171 1 1 0.999171
0.999311 1 1 0.999311
0.999274 1 1 0.999274
0.999386 1 1.00004 0.999349
0.999245 1 1 0.999245
0.99976 1 1 0.99976
0.999565 1 1 0.999565
0.999494 1 1.00007 0.999421
0.999451 1 1 0.999451
0.999407 1 1 0.999407
0.999297 1 1 0.999297
0.999229 1 1 0.999229
0.999257 1 1 0.999257
0.999674 1 1.0004 0.999271
0.999107 1 1 0.999107
0.999974 1 1 0.999974
0.999777 1 1 0.999777
0.999628 1 1 0.999628
0.999791 1 1 0.999791
0.999826 1 1 0.999826
0.999673 1 1 0.999673
0.999581 1 1 0.999581
0.99967 1 1 0.99967
0.999836 1 1 0.999836
0.999992 1 1 0.999992
0.999991 1 1 0.999991
1 1 1 1
0.999988 1 1 0.999988
1 1 1 1
1 1 1 1
1 1 1 1
1 1 1 1
1 1 1 1
1 1 1 1
1 1 1 1
1 1 1 1
1 1 1 1
1 1 1 1
1 1 1 1
0.999169 1 1 0.999169
0.999107 1 1 0.999107
0.999168 1 1 0.999168
0.999104 1.00005 1 0.999056
0.999109 1.0001 1 0.999013
0.999073 1 1 0.999073
0.999101 1.00011 1 0.998996
0.999734 1.00072 1 0.999011
0.999096 1 1 0.999096
0.999264 1.00022 1 0.999044
0.999177 1 1 0.999177
0.999206 1 1 0.999205
1.00029 1.00131 1 0.998983
1.00034 1.00132 1 0.999023
0.999435 1.00034 1 0.9991
0.999255 1 1 0.999255
0.999078 1.00006 1 0.999021
0.999084 1 1 0.999084
0.999016 1 1 0.999016
0.999093 1 1 0.999093
0.999621 1 1 0.999621
0.99952 1 1 0.99952
0.999315 1 1 0.999315
0.999218 1 1 0.999218
0.999238 1 1 0.999238
0.999333 1 1 0.999333
0.999214 1 1 0.999214
0.999367 1 1 0.999367
0.999537 1 1 0.999537
0.999483 1 1 0.999483
0.999518 1 1 0.999518
0.999923 1 1 0.999923
0.999693 1 1 0.999693
0.999211 1.00023 1 0.998987
0.999087 1.00007 1 0.999014
0.999181 1.00006 1 0.999117
0.999543 1 1 0.999543
0.999436 1 1 0.999436
0.999183 1 1 0.999183
0.999255 1 1 0.999255
0.999199 1 1 0.999199
0.999382 1 1 0.999382
0.999942 1 1 0.999942
0.999507 1 1 0.999507
0.999464 1 1 0.999464
0.999437 1 1 0.999437
0.999571 1 1 0.999571
0.99974 1 1 0.99974
0.999584 1.0006 1 0.998983
0.999331 1.00033 1 0.998999
0.999398 1.00024 1 0.999154
0.999617 1.00029 1 0.999327
0.999498 1 1 0.999498
0.99924 1 1 0.99924
0.999279 1 1 0.999279
0.999216 1 1.00013 0.999085
0.999956 1 1 0.999956
0.99979 1 1 0.99979
0.999614 1 1 0.999614
0.999436 1 1 0.999436
0.999466 1 1 0.999466
0.999404 1 1 0.999404
0.999961 1 1 0.999961
0.999725 1 1 0.999725
0.99917 1 1 0.99917
0.999551 1 1 0.999551
0.99952 1 1 0.99952
0.999451 1 1 0.999451
0.999307 1 1 0.999307
0.99928 1 1 0.99928
0.999343 1 1 0.999343
0.999227 1 1 0.999227
0.99976 1 1 0.99976
0.99957 1 1 0.99957
0.999467 1 1.00003 0.999432
0.999457 1 1 0.999457
0.999411 1 1 0.999411
0.999302 1.00001 1 0.999296
0.999233 1 1 0.999233
0.999307 1 1 0.999307
0.999681 1 1.00042 0.999262
0.999112 1 1.00003 0.999083
0.999601 1 1 0.999601
0.999449 1 1 0.999449
0.999718 1 1.00038 0.999341
0.999363 1 1 0.999363
1.00015 1.00088 1 0.999268
1.00038 1.00117 0.999872 0.999334
0.999087 1 1 0.999087
1.00104 1 1.00196 0.999077
0.999786 1 1 0.999786
0.999636 1 1 0.999636
0.999542 1 1 0.999542
0.999826 1 1 0.999826
0.999656 1 1 0.999656
0.999836 1 1 0.999836
0.999568 1 1 0.999568
0.999676 1 1 0.999676
0.999493 1 1 0.999493
0.999567 1 1 0.999567
0.999679 1 1 0.999679
0.99984 1 1 0.99984
0.999992 1 1 0.999992
0.999992 1 1 0.999992
1 1 1 1
0.999991 1 1 0.999991
1 1 1 1
1 1 1 1
1 1 1 1
1 1 1 1
1 1 1 1
1 1 1 1
1 1 1 1
1 1 1 1
1 1 1 1
1 1 1 1
1 1 1 1
0.999178 1 1 0.999178
0.999089 1 1 0.999089
0.999221 1 1 0.999221
0.999203 1.00016 1 0.999039
0.999589 1.00058 1 0.999012
0.999131 1.00014 1 0.998994
1.00011 1.00113 1 0.998987
1.00027 1.00125 1 0.999023
0.999519 1.00041 1 0.999106
0.999266 1.00002 1 0.99925
1.00098 1.00198 1 0.999002
1.00107 1.002 1 0.999069
0.999919 1.00075 1 0.999172
0.999176 1.00019 1 0.998989
0.999147 1.00013 1 0.999018
0.999213 1.00009 1 0.999127
0.999542 1 1 0.999542
0.999451 1 1 0.999451
0.999224 1 1.00004 0.99918
0.999259 1.00001 1 0.999245
0.99938 1 1 0.99938
0.999226 1 1 0.999226
0.999506 1 1 0.999506
0.999472 1 1 0.999472
0.999436 1 1 0.999436
0.999942 1 1 0.999942
0.999576 1 1 0.999576
0.999727 1 1 0.999727
0.999763 1.00078 1 0.998984
0.999232 1.00024 1 0.998997
0.999324 1.00018 1 0.999141
0.999495 1 1 0.999495
0.999303 1 1 0.999303
0.999245 1 1.00016 0.99909
1.00017 1.00083 1 0.99934
0.999238 1 1 0.999238
0.999969 1 1 0.999969
0.999791 1 1 0.999791
0.999465 1 1 0.999465
0.999411 1 1 0.999411
0.999441 1 1 0.999441
0.999604 1 1 0.999604
1.00037 1.00136 1 0.999011
1.00016 1.00114 1 0.999017
1.00128 1.0021 0.999905 0.999274
1.00117 1.00182 1 0.999354
0.999425 1 1 0.999425
1.0003 1 1.00127 0.999027
0.999452 1 1.00028 0.999176
0.999994 1 1 0.999994
0.999864 1 1 0.999864
0.999793 1 1 0.999793
0.999628 1 1 0.999628
0.999481 1 1 0.999481
0.999349 1 1 0.999349
0.999452 1 1 0.999452
0.99939 1 1 0.99939
0.99976 1 1 0.99976
0.999575 1 1 0.999575
0.999294 1 1 0.999294
0.999463 1 1 0.999463
0.999444 1 1 0.999444
0.999415 1 1 0.999415
0.999238 1 1 0.999238
0.999357 1 1 0.999357
0.999718 1 1.00047 0.999253
0.99906 1 1 0.99906
0.999596 1 1 0.999596
0.999457 1 1 0.999457
0.999785 1 1.00043 0.999351
0.999371 1 1 0.999371
1.00018 1.00092 1 0.999258
1.00008 1.0008 0.999949 0.999333
0.999171 1.00006 1 0.99911
1.0006 1 1.00154 0.999066
0.999508 1 1 0.999508
1.00017 1.00099 1 0.999183
0.999374 1 1 0.999374
0.999778 1 1.00053 0.99925
1.00301 1.00397 0.999722 0.999314
1.00023 1.00116 1 0.999074
1.0016 1 1.00261 0.998984
0.999645 1 1 0.999645
0.999542 1 1 0.999542
0.999461 1 1 0.999461
0.999836 1 1 0.999836
0.999683 1 1 0.999683
0.999554 1 1 0.999554
0.999841 1 1 0.999841
0.999678 1 1 0.999678
0.999483 1 1 0.999483
0.999581 1 1 0.999581
0.999429 1 1 0.999429
0.999481 1 1 0.999481
0.999593 1 1 0.999593
0.999698 1 1 0.999698
0.999839 1 1 0.999839
0.999991 1 1 0.999991
0.999991 1 1 0.999991
1 1 1 1
0.999992 1 1 0.999992
1 1 1 1
1 1 1 1
1 1 1 1
1 1 1 1
1 1 1 1
0.999998 1 1 0.999998
1 1 1 1
1 1 1 1
1 1 1 1
1 1 1 1
1 1 1 1
1 1 1 1
0.999267 1.00002 1 0.999245
0.999604 1.00049 1 0.999113
1.00022 1.00119 1 0.999023
0.999951 1.00096 1 0.998992
1.00106 1.00205 1 0.999007
1.00125 1.00219 1 0.999061
1.00002 1.00083 1 0.999186
1.00112 1.00207 1 0.999051
1.00146 1.00236 1 0.999104
1.00004 1.00083 1 0.999208
0.999965 1.00098 1 0.998986
0.999144 1.00015 1 0.998994
0.999258 1.00013 1 0.999128
0.999492 1 1 0.999492
0.999327 1 1 0.999327
0.999146 1 1.00005 0.999095
1.00067 1.00132 1 0.999353
0.999235 1 1 0.999235
0.999464 1 1 0.999464
0.999419 1 1 0.999419
0.999445 1 1 0.999445
0.999982 1 1 0.999982
0.999791 1 1 0.999791
0.999594 1 1 0.999594
1.00021 1.00119 1 0.999016
0.999991 1 1 0.999991
0.999854 1 1 0.999854
1.0002 1.00119 1 0.999017
1.00169 1.00244 1 0.999251
0.999438 1 1 0.999438
0.999893 1 1.00074 0.999154
0.99965 1 1.00062 0.999034
1.00073 1.00138 1 0.999353
0.999819 1 1 0.999819
0.999628 1 1 0.999628
0.999444 1 1 0.999444
0.999436 1 1.00001 0.999421
0.999333 1 1 0.999333
0.999483 1 1 0.999483
1.00112 1.00206 1 0.99906
1.00241 1.00332 1 0.999098
1.00338 1.00436 0.999601 0.999421
0.999211 1.00005 1 0.999158
0.999899 1 1.00052 0.999384
1.00227 1 1.00327 0.99901
0.999864 1 1 0.999864
0.999841 1 1 0.999841
0.999738 1 1 0.999738
0.999634 1 1 0.999634
0.999522 1 1 0.999522
0.999374 1 1 0.999374
0.99929 1 1.00002 0.999268
0.999427 1 1 0.999427
0.999592 1 1 0.999592
0.999466 1 1 0.999466
1.0003 1.00106 1 0.999249
0.999813 1.00048 1 0.999332
0.999379 1 1 0.999379
0.999822 1 1.00046 0.999361
0.999292 1.00013 1.00003 0.999132
1.00024 1 1.00118 0.999055
0.999507 1 1 0.999507
1.00025 1.00105 1 0.999199
0.999375 1 1 0.999375
0.999977 1 1.00074 0.999236
1.00222 1.00318 0.99974 0.999306
1.00063 1.00155 1 0.99908
1.00162 1 1.00264 0.998986
0.999411 1 1 0.999411
1.01051 1.01193 0.999335 0.999261
0.999306 1 1 0.999306
1.00145 1 1.00235 0.999111
1.00015 1.00383 0.997225 0.999113
1.00118 1.00008 1.00216 0.998942
1.00733 1.00973 0.998429 0.999192
0.999542 1 1 0.999542
0.999461 1 1 0.999461
0.999404 1 1 0.999404
0.999841 1 1 0.999841
0.999678 1 1 0.999678
0.999594 1 1 0.999594
0.999472 1 1 0.999472
0.999839 1 1 0.999839
0.999689 1 1 0.999689
0.999425 1 1 0.999425
0.999593 1 1 0.999593
0.999492 1 1 0.999492
0.999408 1 1 0.999408
0.999522 1 1 0.999522
0.999602 1 1 0.999602
0.999676 1 1 0.999676
0.999814 1 1 0.999814
0.999716 1 1 0.999716
0.999814 1 1 0.999814
0.99999 1 1 0.99999
0.99999 1 1 0.99999
1 1 1 1
0.999991 1 1 0.999991
1 1 1 1
1 1 1 1
1 1 1 1
1 1 1 1
1 1 1 1
1 1 1 1
0.999997 1 1 0.999997
1 1 1 1
1 1 1 1
1 1 1 1
1 1 1 1
1 1 1 1
1 1 1 1
1.00011 1.00091 1 0.9992
1.00146 1.00241 1 0.999052
1.00112 1.00211 1 0.999012
1.00128 1.00223 1 0.99905
1.00133 1.00222 1 0.99911
0.999871 1.00065 1 0.999217
1.0017 1.00256 1 0.999136
1.00738 1.01275 0.995376 0.999322
1.01024 1.0114 0.999518 0.999327
0.999897 1 1 0.999897
1.00006 1.00104 1 0.99902
1.00019 1.00118 1 0.999017
1.00202 1.00279 1 0.999227
0.999451 1 1 0.999451
1.00053 1 1.0014 0.999131
0.999196 1 1.00016 0.999041
1.00032 1.00097 1 0.999352
0.999437 1 1 0.999437
0.999453 1 1 0.999453
0.999318 1 1 0.999318
0.999989 1 1 0.999989
0.999486 1 1 0.999486
0.999844 1 1 0.999844
0.999627 1 1 0.999627
0.999845 1 1 0.999845
1.001 1.00194 1 0.999056
0.999876 1 1 0.999876
0.99984 1 1 0.99984
0.999718 1 1 0.999718
1.00279 1.0037 1 0.999102
1.00223 1.00338 0.999469 0.99939
0.999728 1 1.00034 0.999391
1.0025 1 1.0035 0.999
0.999401 1.00008 1.00016 0.999163
0.999647 1 1 0.999647
0.999516 1 1 0.999516
0.999411 1 1 0.999411
0.9994 1 1.00012 0.999284
0.999385 1 1 0.999385
1.00408 1.00499 1.00004 0.999056
1.00334 1.00675 0.997374 0.999238
1.00046 1.0015 0.999716 0.999243
1.00127 1 1.00222 0.999046
1.00211 1 1.00282 0.999291
0.99972 1 1 0.99972
0.999671 1 1 0.999671
0.999613 1 1 0.999613
0.999532 1 1 0.999532
0.999436 1 1 0.999436
0.999311 1 1 0.999311
1.00119 1 1.00195 0.999239
0.999506 1 1 0.999506
0.999376 1 1 0.999376
1.0003 1.00109 1 0.999215
1.00132 1.00231 0.999712 0.999297
1.00102 1.00194 1 0.999087
1.00015 1 1.00093 0.999221
1.00148 1 1.00249 0.998988
0.99942 1 1 0.99942
1.01003 1.01197 0.998822 0.999267
0.999309 1 1 0.999309
1.00131 1 1.0022 0.999114
1.00139 1.00442 0.99784 0.999145
1.00164 1.00005 1.00265 0.998937
1.00911 1.01184 0.998131 0.999164
0.999355 1 1 0.999355
0.999506 1.00924 0.991162 0.999182
0.999806 1 1.00053 0.999272
1.00482 1 1.00579 0.999043
1.0006 1.00053 1.00109 0.998978
0.958377 0.963843 0.998405 0.995917
1.00415 1.00064 1.00512 0.998386
0.991503 1.00982 0.98257 0.999274
0.92748 0.942943 0.98538 0.998194
0.931201 0.96448 0.966783 0.998667
0.999461 1 1 0.999461
0.999408 1 1 0.999408
0.999379 1 1 0.999379
0.999839 1 1 0.999839
0.999681 1 1 0.999681
0.999592 1 1 0.999592
0.999504 1 1 0.999504
0.999422 1 1 0.999422
0.999589 1 1 0.999589
0.999825 1 1 0.999825
0.999686 1 1 0.999686
0.999415 1 1 0.999415
0.999518 1 1 0.999518
0.99953 1 1 0.99953
0.999446 1 1 0.999446
0.999567 1 1 0.999567
0.999672 1 1 0.999672
0.999813 1 1 0.999813
0.999701 1 1 0.999701
0.999607 1 1 0.999607
0.999687 1 1 0.999687
0.999699 1 1 0.999699
0.999833 1 1 0.999833
0.999814 1 1 0.999814
0.999989 1 1 0.999989
0.999989 1 1 0.999989
1 1 1 1
0.99999 1 1 0.99999
1 1 1 1
1 1 1 1
1 1 1 1
1 1 1 1
1 1 1 1
1 1 1 1
1 1 1 1
1 1 1 1
0.999996 1 1 0.999996
1 1 1 1
1 1 1 1
1 1 1 1
1 1 1 1
1 1 1 1
1.00118 1.00207 1 0.999116
1.0014 1.00235 1 0.99905
0.999668 1.00044 1 0.999226
1.00879 1.01274 0.996763 0.999333
1.00165 1.00251 1 0.999134
1.01063 1.01165 0.999702 0.999291
1.00993 1.01086 1.00004 0.99904
0.978733 0.984914 0.99569 0.998026
1.01027 1.01169 0.999175 0.999423
0.999904 1 1 0.999904
0.999897 1 1 0.999897
0.99976 1 1 0.99976
0.999776 1 1 0.999776
1.0009 1.00185 1 0.999052
1.00325 1.00415 1 0.999106
1.00114 1.0023 0.999481 0.999359
0.999399 1 1 0.999399
1.00225 1 1.00326 0.998991
0.99939 1.00009 1.00013 0.999169
0.999395 1 1 0.999395
0.999556 1 1.00026 0.9993
0.999396 1 1 0.999396
0.999839 1 1 0.999839
0.99951 1 1 0.99951
0.999661 1 1 0.999661
0.999887 1 1 0.999887
0.999699 1 1 0.999699
1.00333 1.00423 1.00003 0.999073
0.99974 1 1 0.99974
0.999682 1 1 0.999682
0.999611 1 1 0.999611
1.00452 1.00699 0.998305 0.999245
0.99984 1.00106 0.999541 0.999242
1.00182 1 1.00253 0.99929
1.00116 1 1.00213 0.999037
0.999536 1 1 0.999536
0.99944 1 1 0.99944
1.00045 1 1.00121 0.999239
0.999426 1 1.00013 0.999298
1.01106 1.012 0.999954 0.99911
1.00245 1.00563 0.997624 0.999205
1.00016 1.00044 1.00073 0.99899
1.00124 1 1.00205 0.999195
0.999575 1 1 0.999575
0.999559 1 1 0.999559
0.999399 1 1 0.999399
1.00167 1 1.00249 0.999178
0.952349 0.963719 0.992372 0.995798
0.999429 1 1 0.999429
0.999312 1 1 0.999312
1.00954 1.01195 0.99834 0.999273
1.00272 1.00498 0.99857 0.999177
1.00223 1.00001 1.00329 0.998932
1.00139 1 1.00227 0.999116
1.01108 1.01382 0.998155 0.999135
0.999361 1 1 0.999361
0.999405 1.00929 0.99103 0.999172
0.99959 1 1.00032 0.999274
1.00469 1 1.00565 0.999047
0.999941 1.00063 1.00032 0.99899
0.957038 0.964303 0.9963 0.996152
0.998544 0.997095 1.00378 0.997682
0.99491 1.01148 0.9843 0.999305
0.933846 0.94553 0.989772 0.99785
0.924135 0.95962 0.964389 0.998583
0.999367 1 1 0.999367
0.934058 0.943832 0.992143 0.997482
0.949041 0.966792 0.982813 0.998806
0.979304 1.00214 0.978024 0.999171
1.00257 1 1.00331 0.999264
1.00904 1 1.00994 0.999104
0.994187 1.01017 0.984837 0.999334
0.969323 0.970711 1.00293 0.995653
1.00682 1.00281 1.00651 0.997504
0.926695 0.950017 0.977309 0.998098
0.9706 0.997708 0.973677 0.999129
0.999411 1 1 0.999411
0.99938 1 1 0.99938
0.999375 1 1 0.999375
0.999835 1 1 0.999835
0.999696 1 1 0.999696
0.999577 1 1 0.999577
0.999514 1 1 0.999514
0.999421 1 1 0.999421
0.999813 1 1 0.999813
0.999531 1 1 0.999531
0.999581 1 1 0.999581
0.999684 1 1 0.999684
0.999435 1 1 0.999435
0.999488 1 1 0.999488
0.999597 1 1.0002 0.9994
0.999582 1 1 0.999582
0.999694 1 1 0.999694
0.9997 1 1 0.9997
0.999593 1 1 0.999593
0.999594 1 1 0.999594
0.999579 1 1 0.999579
0.999526 1 1 0.999526
0.999514 1 1 0.999514
0.999665 1 1 0.999665
0.999687 1 1 0.999687
0.999826 1 1 0.999826
0.999682 1 1 0.999682
0.999823 1 1 0.999823
0.999987 1 1 0.999987
0.999814 1 1 0.999814
0.999988 1 1 0.999988
1 1 1 1
0.999989 1 1 0.999989
1 1 1 1
1 1 1 1
1 1 1 1
1 1 1 1
1 1 1 1
0.9999 1 1 0.9999
1 1 1 1
1 1 1 1
1 1 1 1
0.999999 1 1 0.999999
1 1 1 1
1 1 1 1
1 1 1 1
1 1 1 1
1 1 1 1
1.01035 1.01311 0.997936 0.999343
1.00162 1.00249 1 0.999131
1.01098 1.01188 0.999851 0.999255
0.980384 0.98446 0.997394 0.998462
1.01051 1.0115 0.999583 0.999437
1.0106 1.01155 1.00003 0.999025
1.01357 1.01282 1.00159 0.999148
0.986043 0.986526 1.00115 0.998361
0.960579 0.966912 0.998324 0.995118
0.920042 0.942653 0.978704 0.997251
0.926285 0.957061 0.969149 0.998653
0.999755 1 1 0.999755
0.999904 1 1 0.999904
0.999897 1 1 0.999897
0.999754 1 1 0.999754
0.999664 1 1 0.999664
0.999685 1 1 0.999685
0.999759 1 1 0.999759
0.999767 1 1 0.999767
1.00243 1.00332 1.00003 0.99909
1.00569 1.00733 0.999126 0.999251
0.999307 1.00075 0.999317 0.99924
1.00185 1 1.00256 0.999288
1.00152 1 1.00249 0.999027
0.999741 1 1.0005 0.99924
0.999517 1 1.00023 0.999285
0.999445 1 1 0.999445
0.999694 1 1 0.999694
0.99954 1 1 0.99954
0.99976 1 1 0.99976
0.999609 1 1 0.999609
1.01133 1.01279 0.999465 0.999089
0.999583 1 1 0.999583
0.99956 1 1 0.99956
1.00144 1.00497 0.997282 0.999203
1 1.00058 1.0004 0.999027
1.0019 1 1.00273 0.999171
0.999393 1 1 0.999393
1.00152 1 1.00234 0.999182
1.00418 1.01397 0.991293 0.999044
0.998211 1.00099 0.998165 0.999061
1.00012 1 1.00103 0.999089
1.00431 1 1.00515 0.999165
0.9995 1 1 0.9995
0.999434 1 1 0.999434
0.99981 1 1.00054 0.999267
0.927701 0.945651 0.983093 0.99789
0.959015 0.965575 0.99719 0.996005
0.999367 1 1 0.999367
0.999293 1 1.00002 0.999276
0.999746 1.00953 0.991136 0.999163
0.999179 1.00076 0.999421 0.999002
1.00433 1 1.00528 0.999051
0.958335 0.965013 0.997998 0.995072
0.998399 0.997745 1.0023 0.998363
0.998352 1.01342 0.985791 0.999336
0.928377 0.945873 0.984042 0.99742
0.916503 0.954212 0.961927 0.998498
0.999365 1 1 0.999365
0.928138 0.946107 0.983001 0.997972
0.951012 0.964877 0.986798 0.998816
0.981257 1.0023 0.979826 0.99916
1.00215 1 1.00288 0.999269
1.00822 1 1.00911 0.999119
0.98842 1.0073 0.981915 0.999328
0.970959 0.972512 1.00308 0.995342
1.002 0.998385 1.00539 0.998236
0.928315 0.949821 0.979948 0.997356
0.965245 0.995576 0.97045 0.999056
0.999355 1 1 0.999355
0.965886 0.969198 0.997464 0.999117
1.01237 1.01496 0.997914 0.999539
0.987222 1 0.9879 0.999314
1.00724 1 1.00784 0.999407
1.00827 1.00334 1.00529 0.999633
0.996187 0.994908 1.00241 0.998876
0.974925 0.972932 1.00659 0.995489
0.946065 0.971164 0.976772 0.997323
0.991627 1.01648 0.976186 0.999344
0.999381 1 1 0.999381
0.999367 1 1 0.999367
0.999804 1 1.00042 0.999383
0.999813 1 1 0.999813
0.999695 1 1 0.999695
0.999595 1 1 0.999595
0.999532 1 1 0.999532
0.999423 1 1 0.999423
0.999694 1 1 0.999694
0.999497 1 1 0.999497
0.999582 1 1 0.999582
0.999642 1 1.00024 0.999397
0.999941 1 1.00055 0.999387
0.999559 1 1.00009 0.999472
0.999586 1 1 0.999586
0.9997 1 1 0.9997
0.99958 1 1 0.99958
0.999594 1 1 0.999594
0.999579 1 1 0.999579
0.999523 1 1 0.999523
0.99955 1 1 0.99955
0.999518 1 1 0.999518
0.99948 1 1 0.99948
0.999431 1 1 0.999431
0.999421 1 1 0.999421
0.999487 1 1 0.999487
0.999514 1 1 0.999514
0.999636 1 1 0.999636
0.999664 1 1 0.999664
0.999813 1 1 0.999813
0.999686 1 1 0.999686
0.999826 1 1 0.999826
0.999985 1 1 0.999985
0.999814 1 1 0.999814
0.999987 1 1 0.999987
1 1 1 1
0.999988 1 1 0.999988
1 1 1 1
1 1 1 1
1 1 1 1
1 1 1 1
1 1 1 1
0.999909 1 1 0.999909
1 1 1 1
0.9999 1 1 0.9999
1 1 1 1
1 1 1 1
1 1 1 1
1 1 1 1
1 1 1 1
1 1 1 1
1 1 1 1
1 1 1 1
0.929097 0.944214 0.985835 0.998128
0.953104 0.965271 0.988376 0.999008
0.98341 0.98512 0.999464 0.9988
1.01058 1.01131 0.999828 0.999451
1.01133 1.0123 1.00003 0.99901
0.985664 0.985026 1.00152 0.999131
1.01254 1.01259 1.0008 0.999155
0.963303 0.969037 0.998114 0.995962
0.927869 0.943664 0.985135 0.998099
0.921643 0.956347 0.965088 0.998574
1.00072 0.998177 1.00317 0.999376
0.970098 0.97197 1.00223 0.995852
0.924072 0.94878 0.975832 0.998079
0.966025 0.992558 0.974321 0.99892
0.999628 1 1 0.999628
0.999763 1 1 0.999763
0.999903 1 1 0.999903
0.999748 1 1 0.999748
0.999675 1 1 0.999675
0.999645 1 1 0.999645
0.999688 1 1 0.999688
0.999705 1 1 0.999705
0.999748 1 1 0.999748
0.999759 1 1 0.999759
1.01164 1.01357 0.999025 0.999068
1.00046 1.00421 0.997063 0.999199
0.999859 1.00066 1.00013 0.999064
1.00233 1 1.00318 0.999146
1.00131 1 1.00213 0.999186
0.999387 1 1 0.999387
0.999561 1 1 0.999561
0.999591 1 1 0.999591
1.0056 1.01404 0.99265 0.999015
0.999495 1 1 0.999495
0.999419 1 1 0.999419
0.998025 1.00062 0.998375 0.999032
1.00046 1 1.00133 0.999124
1.00341 1 1.00426 0.999147
1.00044 1 1.00118 0.99926
1.00777 1.01274 0.996159 0.998928
1.00359 1 1.00436 0.999228
1.00399 1 1.00482 0.999173
0.999486 1 1 0.999486
0.9994 1 1 0.9994
0.999299 1 1 0.999299
0.965964 0.971502 0.99525 0.999046
0.93036 0.944947 0.98719 0.997339
0.955911 0.965399 0.994371 0.995778
0.999364 1 1 0.999364
1.00181 1 1.00254 0.999274
0.983197 1.0024 0.981681 0.99915
1.00763 1 1.0085 0.999134
0.926534 0.946258 0.981798 0.997309
0.969539 0.971749 1.00128 0.996451
1.00349 0.999714 1.00624 0.997552
0.986392 1.00492 0.982223 0.999329
0.931693 0.949386 0.983152 0.99818
0.951122 0.965112 0.986735 0.998752
0.957898 0.99031 0.968302 0.998936
0.999353 1 1 0.999353
0.962608 0.969123 0.994222 0.999049
1.01208 1.01471 0.997866 0.999543
0.990432 1 0.991103 0.999322
1.00738 1 1.00797 0.99941
1.00768 1.00315 1.00526 0.999247
0.997271 0.995425 1.00402 0.997843
0.973425 0.974421 1.00361 0.995383
0.951058 0.974014 0.978097 0.998297
0.984236 1.00979 0.975444 0.999231
0.999745 1 1.00021 0.999536
1.0185 1.01905 0.999791 0.999669
1.02377 1.0267 0.997399 0.999746
1.00791 1 1.00819 0.999716
0.997657 0.991673 1.00656 0.999474
0.980376 0.978867 1.0062 0.995366
0.974949 0.989622 0.98674 0.998412
0.986029 1.01213 0.974992 0.9992
0.999359 1 1 0.999359
0.999754 1 1.00036 0.999399
1.00076 1 1.0013 0.999459
0.999694 1 1 0.999694
0.999582 1 1 0.999582
0.999507 1 1 0.999507
0.999675 1 1.00028 0.999393
0.999586 1 1 0.999586
0.999503 1 1.00003 0.999472
1.00032 1 1.00093 0.99939
1.00031 1 1.00086 0.999458
0.999613 1 1.00021 0.9994
0.999507 1 1 0.999507
0.999594 1 1 0.999594
0.999578 1 1 0.999578
0.99952 1 1 0.99952
0.99952 1 1 0.99952
0.99955 1 1 0.99955
0.999484 1 1 0.999484
0.999452 1 1 0.999452
0.999454 1 1 0.999454
0.9994 1 1 0.9994
0.999435 1 1 0.999435
0.999405 1 1 0.999405
0.999352 1 1 0.999352
0.99951 1 1 0.99951
0.999453 1 1 0.999453
0.999499 1 1 0.999499
0.99959 1 1 0.99959
0.999514 1 1 0.999514
0.999635 1 1 0.999635
0.999791 1 1 0.999791
0.999663 1 1 0.999663
0.999812 1 1 0.999812
0.999981 1 1 0.999981
0.999826 1 1 0.999826
0.999984 1 1 0.999984
1 1 1 1
0.999986 1 1 0.999986
1 1 1 1
1 1 1 1
1 1 1 1
1 1 1 1
1 1 1 1
0.999863 1 1 0.999863
1 1 1 1
0.999889 1 1 0.999889
1 1 1 1
1 1 1 1
0.9999 1 1 0.9999
1 1 1 1
1 1 1 1
1 1 1 1
1 1 1 1
1 1 1 1
1 1 1 1
0.966982 0.970255 0.997426 0.999199
0.929168 0.94384 0.986743 0.997681
1.01101 1.0152 0.996358 0.999517
0.949813 0.96349 0.986842 0.99895
0.981687 0.983685 0.999732 0.998236
1.01159 1.01239 1.00004 0.999163
0.964467 0.968812 0.998684 0.996827
0.925856 0.945092 0.982293 0.997306
0.91699 0.95573 0.960912 0.998495
0.998166 0.998936 1.0002 0.99903
0.969951 0.970633 1.00368 0.995634
0.926266 0.952299 0.975295 0.997303
0.966527 0.99293 0.974467 0.998914
1.00034 1.00317 0.998025 0.999156
0.970531 0.970847 1.00424 0.99545
0.954236 0.976201 0.979218 0.998245
0.989251 1.01451 0.97582 0.999265
0.999552 1 1 0.999552
0.999641 1 1 0.999641
0.999772 1 1 0.999772
0.999685 1 1 0.999685
0.999573 1 1 0.999573
0.999654 1 1 0.999654
0.99969 1 1 0.99969
0.99969 1 1 0.99969
0.999717 1 1 0.999717
0.999736 1 1 0.999736
1.00726 1.01447 0.993897 0.998987
0.997559 1.00022 0.998339 0.999004
1.00075 1 1.00159 0.99916
1.00273 1 1.0036 0.999128
1.00112 1 1.00186 0.999253
0.999404 1 1 0.999404
0.999489 1 1 0.999489
0.999488 1 1 0.999488
1.00442 1.01036 0.995167 0.998948
0.999408 1 1 0.999408
0.999388 1 1.00009 0.999297
1.0021 1 1.00291 0.999189
1.00381 1 1.00464 0.999174
0.99838 1.01023 0.989112 0.999144
1.01522 1 1.01587 0.999364
1.00003 1 1.00078 0.99925
0.999421 1 1 0.999421
0.9993 1 1 0.9993
1.02111 1.02164 0.999768 0.999709
0.966863 0.970759 0.996845 0.99914
0.930113 0.945878 0.985211 0.998094
0.999351 1 1 0.999351
1.00729 1 1.00788 0.999413
0.992195 1 0.992861 0.99933
0.966651 0.96986 0.997512 0.999177
0.973237 0.972046 1.00593 0.995321
0.9989 0.995733 1.00451 0.99868
1.0023 1.002 1.00146 0.998837
0.947336 0.97061 0.97864 0.997325
1.01181 1.0146 0.997705 0.999548
0.981942 1.0072 0.97566 0.999246
0.999685 1 1.00014 0.999549
1.01876 1.01912 0.999921 0.999725
1.02454 1.02779 0.997088 0.99975
1.00753 0.999985 1.00794 0.999606
0.99783 0.99366 1.00503 0.999167
0.984156 0.980931 1.00805 0.995273
0.9899 1.01677 0.974261 0.999298
0.96531 0.983166 0.983861 0.997944
0.999975 1 1.00026 0.999711
1.02569 1.02748 0.998346 0.99991
1.02708 1.02994 0.997446 0.999776
0.990194 1.01373 0.977494 0.999268
1.00487 0.99325 1.01189 0.99981
0.98154 0.979736 1.00617 0.995701
0.960149 0.975538 0.985921 0.998281
0.999682 1 1.00027 0.999414
1.00051 1 1.00109 0.999423
1.00312 1 1.00355 0.999567
0.999586 1 1 0.999586
0.999473 1 1 0.999473
1.00077 1 1.00138 0.999393
0.999509 1 1 0.999509
0.999724 1 1.00033 0.999399
1.0007 1 1.00126 0.999433
0.999858 1 1.00035 0.999504
0.999423 1 1 0.999423
0.999521 1 1 0.999521
0.999549 1 1 0.999549
0.999489 1 1 0.999489
0.999454 1 1 0.999454
0.999455 1 1 0.999455
0.999425 1 1 0.999425
0.999423 1 1 0.999423
1.00046 1 1.00118 0.999274
0.999438 1 1 0.999438
0.999419 1 1.00002 0.999401
0.999254 1 1 0.999254
0.999361 1 1 0.999361
0.999489 1 1 0.999489
0.999354 1 1 0.999354
0.999584 1 1 0.999584
0.999501 1 1 0.999501
0.999485 1 1 0.999485
0.999512 1 1 0.999512
0.999601 1 1 0.999601
0.999763 1 1 0.999763
0.999635 1 1 0.999635
0.99979 1 1 0.99979
0.999976 1 1 0.999976
0.999812 1 1 0.999812
0.99998 1 1 0.99998
1 1 1 1
0.999983 1 1 0.999983
1 1 1 1
1 1 1 1
1 1 1 1
1 1 1 1
1 1 1 1
0.999803 1 1 0.999803
0.999973 1 1 0.999973
0.999862 1 1 0.999862
1 1 1 1
0.999989 1 1 0.999989
0.999869 1 1 0.999869
1 1 1 1
1 1 1 1
1 1 1 1
1 1 1 1
1 1 1 1
1 1 1 1
1.01929 1.01995 0.999662 0.99969
0.961569 0.969736 0.992563 0.999007
0.931822 0.944034 0.989625 0.997413
0.999644 1 1 0.999644
1.02594 1.02879 0.997425 0.999801
1.01186 1.01545 0.996948 0.999521
0.944462 0.963194 0.981721 0.998809
0.996522 0.999636 0.998233 0.998649
0.97087 0.971501 1.00358 0.99579
0.930389 0.955512 0.975539 0.998122
0.964446 0.990746 0.974595 0.998829
1.00223 1.00619 0.997854 0.998202
0.971345 0.971057 1.00475 0.995563
0.955456 0.976261 0.980791 0.997857
0.986889 1.01302 0.975012 0.999176
0.996096 0.997596 1.00068 0.997816
0.977112 0.973771 1.00889 0.994591
0.966227 0.985848 0.982526 0.997528
0.986962 1.01414 0.973997 0.999186
0.999479 1 1 0.999479
0.999545 1 1 0.999545
0.999653 1 1 0.999653
0.999558 1 1 0.999558
0.999588 1 1 0.999588
0.999663 1 1 0.999663
0.999694 1 1 0.999694
0.999729 1 1 0.999729
1.00094 1.00784 0.994176 0.998967
1.00055 1 1.0014 0.999151
0.999489 1 1 0.999489
1.00355 1 1.00438 0.999175
0.999462 1 1.00017 0.999295
0.999416 1 1 0.999416
0.999422 1 1 0.999422
1.00205 1.00952 0.993439 0.999154
0.999311 1 1 0.999311
1.00085 1 1.0016 0.999244
1.01288 1 1.01354 0.999346
0.999425 1 1 0.999425
0.996008 1.00235 0.994123 0.999543
1.01308 1 1.01363 0.999456
0.999321 1 1 0.999321
0.999359 1 1 0.999359
1.02632 1.02711 0.999312 0.999917
1.02053 1.02111 0.999723 0.999714
0.967696 0.969838 0.998555 0.999236
0.999563 1 1 0.999563
1.00797 0.999949 1.00853 0.999496
1.01914 1.01937 0.999995 0.99978
0.979767 0.976038 1.00848 0.995384
1.00179 0.995434 1.00819 0.998217
0.965325 0.984122 0.983324 0.997534
1.02507 1.02861 0.996807 0.999754
0.994326 1.02198 0.973528 0.999396
1.00014 0.999981 1.00048 0.999678
1.02626 1.02812 0.998278 0.99991
1.02737 1.02999 0.997638 0.999817
1.00625 0.994599 1.01179 0.999931
0.987041 1.012 0.976144 0.999176
0.980654 0.980398 1.00443 0.995853
0.962517 0.980362 0.984322 0.997434
1.00586 0.997513 1.0086 0.999771
1.02431 1.02628 0.998144 0.999932
1.02684 1.02907 0.998035 0.999799
0.96599 0.992573 0.974257 0.998933
0.964442 0.984562 0.981991 0.997529
1.00011 0.991217 1.00885 1.00012
0.977847 0.974464 1.00799 0.995522
1.00028 1 1.00089 0.999387
1.00223 1 1.00268 0.999551
1.01219 0.999989 1.01262 0.999581
0.999511 1 1 0.999511
0.999763 1 1.00037 0.999397
1.00095 1 1.00154 0.999409
0.999423 1 1 0.999423
0.999935 1 1.00043 0.999502
1.00281 1 1.00337 0.999433
0.999454 1 1 0.999454
0.999459 1 1 0.999459
0.999593 1 1.00018 0.999415
1.00252 1 1.00324 0.999283
0.999447 1 1 0.999447
1.00009 1 1.00079 0.999297
1.00112 1 1.00198 0.999147
0.999284 1 1.00008 0.999201
0.999436 1 1.00004 0.999397
0.999257 1 1.00002 0.999232
0.99942 1 1 0.99942
0.999464 1 1 0.999464
0.999377 1 1 0.999377
0.999577 1 1 0.999577
0.999486 1 1 0.999486
0.999356 1 1 0.999356
0.999735 1 1 0.999735
0.99958 1 1 0.99958
0.999493 1 1 0.999493
0.999612 1 1 0.999612
0.999762 1 1 0.999762
0.999966 1 1 0.999966
0.99979 1 1 0.99979
0.999973 1 1 0.999973
1 1 1 1
0.999979 1 1 0.999979
1 1 1 1
1 1 1 1
1 1 1 1
1 1 1 1
1 1 1 1
0.999775 1 1 0.999775
0.999955 1 1 0.999955
0.999814 1 1 0.999814
1 1 1 1
0.999972 1 1 0.999972
0.999861 1 1 0.999861
1 1 1 1
1 1 1 1
0.999978 1 1 0.999978
1 1 1 1
1 1 1 1
1 1 1 1
1.02709 1.02809 0.999119 0.999904
1.01918 1.02003 0.999473 0.999694
0.96231 0.969542 0.99352 0.999015
0.999649 1 1 0.999649
0.999616 1 1 0.999616
0.999562 1 1 0.999562
1.02614 1.02913 0.997318 0.999774
1.02663 1.02912 0.997777 0.999805
1.01317 1.01571 0.997973 0.999525
1.0088 1.00917 1.00062 0.999018
0.971986 0.970919 1.00561 0.995511
0.951188 0.973047 0.980169 0.997314
0.988458 1.0151 0.9745 0.99923
0.992034 0.995203 0.998124 0.99869
0.975928 0.973803 1.00677 0.995441
0.968206 0.984664 0.984957 0.998303
0.990113 1.018 0.973301 0.99929
0.983309 0.988764 0.995759 0.998718
0.982398 0.976212 1.01078 0.9956
0.964917 0.979189 0.987171 0.998231
0.989844 1.01487 0.975983 0.999338
0.999461 1 1 0.999461
0.999478 1 1 0.999478
0.999537 1 1 0.999537
0.999557 1 1 0.999557
0.999603 1 1 0.999603
0.999698 1 1 0.999698
1.0063 1.00883 0.998329 0.999163
1.01047 1 1.01114 0.999328
0.999424 1 1 0.999424
1.00155 1 1.00231 0.999238
0.999322 1 1 0.999322
0.999421 1 1 0.999421
0.999357 1 1 0.999357
1.00084 1.00373 0.997583 0.999534
0.99934 1 1 0.99934
1.01259 0.999013 1.01412 0.99948
0.9994 1 1 0.9994
1.01726 0.996321 1.02127 0.999754
0.997873 0.997814 1.00044 0.999623
0.999342 1 1 0.999342
1.02287 1.02391 0.99904 0.999948
1.02577 1.02666 0.99921 0.999924
1.01993 1.02057 0.99965 0.999719
1.00035 1 1.00071 0.999644
1.00136 0.994319 1.00711 0.99998
1.02677 1.02868 0.998226 0.999911
0.988395 0.984103 1.00701 0.997368
0.970152 0.984323 0.987187 0.998396
1.02792 1.03011 0.998015 0.999858
0.989017 1.0142 0.975919 0.999231
1.00486 0.998221 1.00687 0.999788
1.02391 1.02552 0.998493 0.999936
1.0277 1.0294 0.998548 0.999802
1.00123 0.989954 1.01234 0.999057
0.965946 0.993079 0.973728 0.998922
0.965727 0.983558 0.983551 0.998293
0.982931 0.977912 1.00941 0.995757
1.02417 0.998585 1.02574 0.999889
1.02714 1.02794 0.999325 0.999902
1.01302 1.01667 0.996903 0.999511
0.926016 0.956502 0.969427 0.99866
0.952236 0.974689 0.978644 0.998284
0.986963 0.979523 1.012 0.995649
0.97973 0.987511 0.993353 0.998759
1.00121 1 1.00167 0.999536
1.01325 0.999983 1.01369 0.999586
1.0195 1 1.01998 0.99953
0.999422 1 1 0.999422
1.00005 1 1.00055 0.9995
1.00225 1 1.00281 0.999443
1.01079 1 1.01149 0.999302
0.999723 1 1.00032 0.999405
1.00268 1 1.00343 0.999258
1.00667 1 1.0076 0.999073
0.999736 1 1.00042 0.99932
1.00168 1 1.00254 0.999143
1.00204 1 1.00301 0.999033
0.999194 1 1.0001 0.999092
0.999348 1 1 0.999348
0.999358 1 1.00017 0.999186
0.999257 1 1.00005 0.99921
0.999481 1 1 0.999481
0.999438 1 1 0.999438
0.999538 1 1 0.999538
0.999475 1 1 0.999475
0.999394 1 1 0.999394
0.999708 1 1 0.999708
0.999578 1 1 0.999578
0.999484 1 1 0.999484
0.999951 1 1 0.999951
0.999735 1 1 0.999735
0.999576 1 1 0.999576
0.999762 1 1 0.999762
0.999963 1 1 0.999963
1 1 1 1
0.999971 1 1 0.999971
1 1 1 1
1 1 1 1
1 1 1 1
1 1 1 1
1 1 1 1
0.999771 1 1 0.999771
0.99997 1 1 0.99997
0.999784 1 1 0.999784
1 1 1 1
0.99997 1 1 0.99997
0.999826 1 1 0.999826
1 1 1 1
1 1 1 1
0.999971 1 1 0.999971
1 1 1 1
1 1 1 1
1 1 1 1
1.02451 1.02615 0.998468 0.99993
1.02723 1.02832 0.999037 0.999905
1.01892 1.02007 0.999175 0.999697
0.999603 1 1 0.999603
0.999543 1 1 0.999543
0.999654 1 1 0.999654
0.999614 1 1 0.999614
0.99955 1 1 0.99955
0.99954 1 1 0.99954
0.999491 1 1 0.999491
1.02251 1.02499 0.997836 0.999744
1.02663 1.02948 0.997419 0.999815
1.02697 1.02946 0.997777 0.999808
0.994123 1.02256 0.972779 0.999394
0.992393 0.997806 0.996712 0.997856
0.979026 0.975385 1.00751 0.996247
0.968185 0.981054 0.989464 0.997391
0.984844 0.989069 0.997491 0.998234
0.980388 0.977399 1.00759 0.995506
0.967595 0.984222 0.985624 0.997445
0.98449 1.01 0.975513 0.999206
0.976288 0.982608 0.994468 0.999096
0.97647 0.979021 1.00198 0.995426
0.980906 0.993698 0.988766 0.998342
0.970875 0.996345 0.975297 0.999118
0.999447 1 1 0.999447
0.999459 1 1 0.999459
0.999478 1 1 0.999478
0.999555 1 1 0.999555
1.00483 1.00489 1.00041 0.999525
1.01235 0.997909 1.01497 0.999505
0.999417 1 1 0.999417
0.999354 1 1 0.999354
0.999359 1 1 0.999359
0.999401 1 1 0.999401
0.999333 1 1 0.999333
1.00877 0.994173 1.01494 0.999744
0.99897 0.998861 1.00044 0.999671
0.99936 1 1 0.99936
1.01599 0.989678 1.02665 0.999935
1.00335 1 1.00395 0.999402
1.02682 1.02727 0.999645 0.999915
1.02149 1.02237 0.999185 0.999954
1.02533 1.02623 0.999198 0.999931
1.00375 0.998844 1.00511 0.999805
1.00246 0.98983 1.01268 1.00008
1.02352 1.02482 0.998792 0.99994
0.977616 0.974365 1.00783 0.995542
0.964781 0.979185 0.987862 0.997397
1.02812 1.02974 0.998619 0.999806
0.964111 0.990601 0.974382 0.998846
1.0261 0.997668 1.02863 0.999873
1.02719 1.02812 0.999189 0.999903
1.01415 1.01695 0.99773 0.999516
0.984136 0.990229 0.993988 0.999859
0.921152 0.955758 0.96516 0.998582
0.951679 0.973271 0.979879 0.997894
0.989087 0.979923 1.01347 0.995939
1.01243 0.99667 1.01598 0.999834
1.02016 1.02045 1.00004 0.999684
0.953585 0.965781 0.988345 0.999016
0.92351 0.947266 0.976795 0.998083
0.980044 0.975388 1.00928 0.99554
0.978154 0.988034 0.991729 0.998257
1.01446 1 1.01487 0.99959
1.02018 1 1.02066 0.999527
1.01468 1 1.01526 0.999429
1.00175 1 1.0023 0.999453
1.01126 1 1.01194 0.999325
1.0087 1 1.00963 0.999081
1.00295 1 1.00372 0.999233
1.00674 1 1.00769 0.999051
1.00351 1 1.00458 0.99893
1.00224 1 1.00311 0.999139
1.00181 1 1.0028 0.999013
1.00106 1 1.00209 0.998972
0.999067 1 1 0.999067
0.999225 1 1 0.999225
0.999316 1 1.00024 0.999073
0.999441 1 1 0.999441
0.99936 1 1 0.99936
0.999428 1 1.00026 0.999171
0.999512 1 1 0.999512
0.999476 1 1 0.999476
0.999456 1 1 0.999456
0.999668 1 1 0.999668
0.999546 1 1 0.999546
0.999487 1 1 0.999487
0.999925 1 1 0.999925
0.999709 1 1 0.999709
0.999579 1 1 0.999579
1 1 1 1
0.999948 1 1 0.999948
0.999736 1 1 0.999736
0.99996 1 1 0.99996
1 1 1 1
1 1 1 1
1 1 1 1
1 1 1 1
1 1 1 1
0.999602 1 1 0.999602
0.999746 1 1 0.999746
0.99996 1 1 0.99996
0.99977 1 1 0.99977
1 1 1 1
0.999973 1 1 0.999973
0.999793 1 1 0.999793
1 1 1 1
1 1 1 1
0.999985 1 1 0.999985
1 1 1 1
1 1 1 1
1 1 1 1
1.02614 1.02691 0.999336 0.999908
1.0242 1.02544 0.998852 0.999934
1.02739 1.02854 0.998978 0.999905
0.999607 1 1 0.999607
0.999535 1 1 0.999535
0.999514 1 1 0.999514
0.99953 1 1 0.99953
0.999499 1 1 0.999499
0.999611 1 1 0.999611
0.999538 1 1 0.999538
0.999541 1 1 0.999541
0.999488 1 1 0.999488
0.99949 1 1 0.99949
1.01186 1.01317 0.999178 0.99953
1.02327 1.02602 0.997569 0.999748
1.02682 1.02958 0.997465 0.999856
0.98182 1.00722 0.975539 0.999223
0.972783 0.986077 0.988128 0.998371
0.982655 0.98706 0.99774 0.997792
0.979521 0.979537 1.0044 0.995607
0.980092 0.982798 0.99911 0.998135
0.980948 0.97895 1.00651 0.995561
0.970454 0.987207 0.985098 0.9979
0.966711 0.99441 0.973074 0.999045
0.994331 0.982033 1.01413 0.998414
0.978418 0.980323 1.00237 0.995699
0.948007 0.971948 0.977973 0.997337
0.93203 0.965053 0.96708 0.998657
0.999537 1 1 0.999537
0.999448 1 1 0.999448
0.999457 1 1 0.999457
1.00118 0.992592 1.00893 0.999734
1.00013 1 1.00041 0.999722
0.999402 1 1 0.999402
0.999324 1 1 0.999324
0.999402 1 1.00003 0.999369
1.00384 1 1.00444 0.999401
1.01564 0.991296 1.02462 0.999938
1.00377 1 1.00435 0.999422
1.01118 0.997506 1.01406 0.99966
1.02022 1.02053 1 0.9997
1.02619 1.02668 0.999593 0.999923
1.02005 1.02083 0.999277 0.999959
1.02787 0.996815 1.03131 0.999855
0.983007 0.989367 0.995028 0.998536
1.02727 1.0283 0.999098 0.999904
0.980569 0.977787 1.00824 0.994645
0.949209 0.971506 0.979607 0.997388
1.0157 1.01726 0.998948 0.99952
0.916841 0.955362 0.961117 0.998504
1.01294 0.997169 1.01598 0.999838
1.02018 1.02061 0.999899 0.999688
0.950373 0.963848 0.98705 0.998957
0.975726 0.98782 0.988941 0.998803
0.92649 0.951354 0.976475 0.997327
0.97878 0.976178 1.00766 0.995042
0.993261 0.996219 0.997414 0.999616
0.967199 0.97039 0.997503 0.999206
0.920933 0.942107 0.980203 0.997267
0.974468 0.972853 1.00622 0.99547
0.99664 0.994961 1.00287 0.998817
1.02042 1 1.02091 0.999523
1.01724 1 1.01782 0.999427
0.995837 1 0.996595 0.999239
1.01155 1 1.01221 0.999347
1.00824 1 1.00915 0.999101
1.00168 1 1.0027 0.998976
1.00668 1 1.00766 0.99903
1.00314 1 1.00422 0.998933
0.999034 1 1.00003 0.999
1.00157 1 1.00258 0.998993
1.00056 1 1.00158 0.99898
0.999084 1 1 0.999084
0.99916 1 1 0.99916
0.999158 1 1 0.999158
0.999073 1 1 0.999073
0.999346 1 1 0.999346
0.999232 1 1.00003 0.999202
0.999441 1 1.00039 0.999053
0.999515 1 1 0.999515
0.999456 1 1 0.999456
0.999372 1 1 0.999372
0.999626 1 1 0.999626
0.999515 1 1 0.999515
0.999472 1 1 0.999472
0.999884 1 1 0.999884
0.999668 1 1 0.999668
0.999555 1 1 0.999555
1 1 1 1
0.999924 1 1 0.999924
0.999709 1 1 0.999709
1 1 1 1
1 1 1 1
0.999946 1 1 0.999946
1 1 1 1
1 1 1 1
1 1 1 1
0.999574 1 1 0.999574
0.999721 1 1 0.999721
0.999597 1 1 0.999597
0.999951 1 1 0.999951
0.999746 1 1 0.999746
1 1 1 1
0.999963 1 1 0.999963
0.99977 1 1 0.99977
1 1 1 1
1 1 1 1
0.999977 1 1 0.999977
1 1 1 1
1 1 1 1
1 1 1 1
1.01824 1.01848 1 0.999758
1.02694 1.02774 0.999312 0.999909
1.02387 1.02477 0.999182 0.999939
0.999519 1 1 0.999519
0.999612 1 1 0.999612
0.999528 1 1 0.999528
0.999539 1 1 0.999539
0.999522 1 1 0.999522
0.999497 1 1 0.999497
0.999474 1 1 0.999474
0.999482 1 1 0.999482
0.999542 1 1 0.999542
0.999486 1 1 0.999486
0.999489 1 1 0.999489
0.999479 1 1 0.999479
0.951485 0.967351 0.984789 0.998791
1.01123 1.01265 0.99907 0.999534
1.02427 1.02727 0.997321 0.999752
0.960303 0.990456 0.970619 0.998905
0.972627 0.989612 0.985279 0.997522
0.97564 0.978421 1.00172 0.995442
0.981928 0.98016 1.00263 0.999171
0.993812 0.980428 1.01425 0.999411
0.925578 0.960037 0.965474 0.998584
0.981694 0.979172 1.00751 0.995102
0.948451 0.971933 0.977574 0.998226
0.990799 0.988556 1.00287 0.999402
0.975877 0.974732 1.00535 0.995847
0.924572 0.947654 0.977517 0.998083
1.00008 1 1.00041 0.999673
0.999538 1 1 0.999538
0.999449 1 1 0.999449
1.01518 0.992936 1.02247 0.999937
1.00446 1 1.00506 0.999399
0.999428 1 1.00005 0.999377
1.00407 1 1.00465 0.999425
1.01053 0.99837 1.01251 0.999672
1.00895 0.999891 1.00939 0.999676
0.965774 0.971003 0.995661 0.998949
1.02016 1.02043 0.999986 0.999756
1.02564 1.0261 0.999616 0.99993
1.01341 0.997645 1.01596 0.999843
0.977713 0.99027 0.988112 0.999198
1.02002 1.02068 0.999666 0.999692
0.980784 0.977454 1.00707 0.99636
0.930543 0.954371 0.976858 0.998132
0.944796 0.963638 0.981608 0.998817
0.992915 0.996824 0.996442 0.999636
0.961386 0.969701 0.992405 0.999013
0.92898 0.942741 0.987259 0.998121
0.995704 0.992499 1.00531 0.997926
0.97609 0.975438 1.00514 0.995552
0.985343 1.0041 0.981849 0.999465
0.928865 0.944149 0.985639 0.998145
0.972987 0.972805 1.00446 0.99575
1.00301 1.0021 1.00312 0.997796
1.02072 1 1.02131 0.999425
0.992661 1 0.993402 0.999254
0.986812 1.00024 0.987365 0.999201
1.00798 1 1.00887 0.999121
1.00176 1.00009 1.00269 0.99898
0.999658 1.00051 1 0.999149
1.00281 1 1.00388 0.998936
0.99934 1 1.00033 0.999011
0.999451 1.00022 1 0.999235
1.00006 1 1.00108 0.998988
0.99909 1 1 0.99909
0.999281 1 1 0.999281
0.999312 1 1 0.999312
0.999195 1 1 0.999195
0.999176 1 1 0.999176
0.999268 1 1 0.999268
0.999172 1 1 0.999172
0.999079 1 1 0.999079
0.999471 1 1 0.999471
0.999345 1 1 0.999345
0.999242 1 1.00006 0.99918
0.999605 1 1 0.999605
0.999514 1 1 0.999514
0.99947 1 1 0.99947
0.999835 1 1 0.999835
0.999628 1 1 0.999628
0.999517 1 1 0.999517
1 1 1 1
0.999883 1 1 0.999883
0.999668 1 1 0.999668
1 1 1 1
1 1 1 1
0.999922 1 1 0.999922
1 1 1 1
1 1 1 1
1 1 1 1
0.999577 1 1 0.999577
0.999576 1 1 0.999576
0.999694 1 1 0.999694
0.999938 1 1 0.999938
0.999721 1 1 0.999721
0.999591 1 1 0.999591
1 1 1 1
0.999953 1 1 0.999953
0.999746 1 1 0.999746
1 1 1 1
1 1 1 1
0.999966 1 1 0.999966
1 1 1 1
1 1 1 1
1 1 1 1
0.966414 0.969773 0.997414 0.999119
1.01842 1.01866 1 0.999763
1.02771 1.02852 0.999304 0.999909
0.999513 1 1 0.999513
0.999522 1 1 0.999522
0.999483 1 1 0.999483
0.999547 1 1 0.999547
0.999529 1 1 0.999529
0.999496 1 1 0.999496
0.999483 1 1 0.999483
0.999475 1 1 0.999475
0.999438 1 1 0.999438
0.999479 1 1 0.999479
0.999488 1 1 0.999488
0.999481 1 1 0.999481
0.928696 0.944532 0.985061 0.998145
0.951561 0.965489 0.986748 0.99881
1.01082 1.01223 0.99907 0.999538
0.919554 0.955425 0.963891 0.998511
0.946077 0.968638 0.979312 0.997342
0.989776 0.984146 1.00918 0.996573
0.998862 0.980352 1.02055 0.998363
0.990961 0.988092 1.00451 0.998401
0.927143 0.949052 0.979509 0.997352
0.980003 0.977454 1.00647 0.996159
0.992627 0.989571 1.00463 0.998462
0.976557 0.975338 1.00554 0.995733
1.00766 1 1.00819 0.999473
0.999933 1 1.00027 0.999667
0.999539 1 1 0.999539
1.00879 0.998233 1.0109 0.999684
1.00437 1 1.00494 0.999428
1.00858 0.999767 1.00918 0.999642
1.00153 1.00067 1.00146 0.999395
0.927062 0.946516 0.981485 0.997923
0.966286 0.969965 0.997113 0.999092
1.0199 1.02018 0.999918 0.999812
0.991427 0.997075 0.994674 0.999659
0.996335 0.992097 1.00551 0.998771
0.962277 0.969724 0.993294 0.99902
0.976739 0.973662 1.00768 0.995515
0.925837 0.943973 0.983426 0.997318
0.988307 1.00432 0.984607 0.999436
0.929073 0.943883 0.986602 0.997677
0.973132 0.971972 1.00563 0.995591
1.00261 0.998584 1.00539 0.998651
1.0076 1.01051 0.997869 0.999245
0.961636 0.967159 0.999216 0.99507
0.998271 1.00084 0.99848 0.998951
0.989452 1 0.990175 0.99927
0.988593 1.00038 0.98902 0.999186
0.990719 1.00115 0.990339 0.999236
1.00176 1.00017 1.00261 0.998983
0.99976 1.00077 0.999843 0.999145
1.00102 1.00228 0.999313 0.999429
0.999668 1 1.00065 0.999023
0.999514 1.00028 1 0.999236
1.00028 1.00085 1 0.999437
0.999096 1 1 0.999096
0.999281 1 1 0.999281
0.999416 1 1 0.999416
0.999391 1 1 0.999391
0.999329 1 1 0.999329
0.999299 1 1 0.999299
0.99926 1 1 0.99926
0.999198 1 1 0.999198
0.999192 1 1 0.999192
0.999378 1 1 0.999378
0.999285 1 1 0.999285
0.999187 1 1 0.999187
0.999577 1 1 0.999577
0.999469 1 1 0.999469
0.999344 1 1 0.999344
0.999795 1 1 0.999795
0.999606 1 1 0.999606
0.999512 1 1 0.999512
1 1 1 1
0.999835 1 1 0.999835
0.999629 1 1 0.999629
1 1 1 1
1 1 1 1
0.999882 1 1 0.999882
1 1 1 1
1 1 1 1
1 1 1 1
0.999563 1 1 0.999563
0.999568 1 1 0.999568
0.999668 1 1 0.999668
0.999579 1 1 0.999579
0.999693 1 1 0.999693
0.999915 1 1 0.999915
1 1 1 1
0.999939 1 1 0.999939
0.99972 1 1 0.99972
1 1 1 1
1 1 1 1
0.999955 1 1 0.999955
1 1 1 1
1 1 1 1
1 1 1 1
0.935565 0.945545 0.991921 0.997504
0.963892 0.969589 0.995114 0.999005
1.01871 1.01894 1 0.999767
0.999507 1 1 0.999507
0.999478 1 1 0.999478
0.999528 1 1 0.999528
0.999518 1 1 0.999518
0.999481 1 1 0.999481
0.999484 1 1 0.999484
0.999476 1 1 0.999476
0.999442 1 1 0.999442
0.99946 1 1 0.99946
0.999434 1 1 0.999434
0.999558 1 1.00026 0.999301
0.999478 1 1 0.999478
0.999482 1 1 0.999482
0.972209 0.97684 1.00026 0.995003
0.934409 0.94675 0.98914 0.997801
0.950937 0.964585 0.987096 0.998738
0.928328 0.949466 0.979542 0.998156
0.977741 0.974483 1.00859 0.994801
0.993738 0.989315 1.00505 0.999427
0.995341 0.992481 1.0039 0.998982
0.976442 0.976874 1.0037 0.995875
0.991426 0.998776 0.994196 0.998435
1.00601 1.00132 1.0057 0.998994
1.00612 1 1.00666 0.999461
0.99966 1 1 0.99966
1.00765 1 1.00804 0.99961
1.00057 1.00098 1.00017 0.999426
0.954261 0.965271 0.992744 0.995818
0.930764 0.945941 0.986519 0.997401
0.967308 0.969104 0.998909 0.999236
0.991359 1.00485 0.98716 0.999406
1.00596 1.00136 1.00679 0.997814
0.932467 0.943999 0.990363 0.997396
0.973874 0.971796 1.00644 0.995729
1.00207 1.01006 0.992844 0.999236
0.964073 0.968735 0.999286 0.9959
1.00011 1.00297 0.999056 0.998087
1.00631 1.01034 0.996986 0.999014
0.998539 0.995514 1.00373 0.999307
0.989417 1.00049 0.989754 0.99917
0.992456 1.00111 0.992128 0.999218
1.00245 1.00845 0.994764 0.999288
0.999701 1.00093 0.999629 0.999142
0.999989 1.00149 0.999078 0.999423
1.00185 1.00331 0.999057 0.999482
0.999562 1.00032 1 0.999238
1 1.00058 0.999994 0.999426
1.00014 1.00071 0.999987 0.999446
0.999281 1 1 0.999281
0.999408 1 1 0.999408
0.999403 1 1 0.999403
0.999411 1 1 0.999411
0.999344 1 1 0.999344
0.999346 1 1 0.999346
0.999296 1 1 0.999296
0.999291 1 1 0.999291
0.999328 1 1 0.999328
0.999257 1 1 0.999257
0.9992 1 1 0.9992
0.999521 1 1 0.999521
0.999389 1 1 0.999389
0.999301 1 1 0.999301
0.999765 1 1 0.999765
0.999576 1 1 0.999576
0.999466 1 1 0.999466
0.999998 1 1 0.999998
0.999796 1 1 0.999796
0.999607 1 1 0.999607
1 1 1 1
1 1 1 1
0.999835 1 1 0.999835
1 1 1 1
1 1 1 1
1 1 1 1
0.999536 1 1 0.999536
0.999564 1 1 0.999564
0.999631 1 1 0.999631
0.999558 1 1 0.999558
0.999659 1 1 0.999659
0.999877 1 1 0.999877
0.999693 1 1 0.999693
0.999915 1 1 0.999915
1 1 1 1
1 1 1 1
1 1 1 1
0.999941 1 1 0.999941
1 1 1 1
1 1 1 1
1 1 1 1
0.966277 0.970768 0.999521 0.995852
0.931193 0.948287 0.983909 0.998032
0.966036 0.969485 0.99736 0.999079
0.999473 1 1 0.999473
0.999534 1 1 0.999534
0.999485 1 1 0.999485
0.999519 1 1 0.999519
0.999485 1 1 0.999485
0.999498 1 1 0.999498
0.999446 1 1 0.999446
0.999446 1 1 0.999446
0.99943 1 1 0.99943
0.999427 1 1 0.999427
0.999334 1 1 0.999334
0.999084 1 1.00011 0.99897
0.99937 1 1.00006 0.999313
0.999476 1 1 0.999476
0.989617 0.994079 0.996808 0.9987
0.970876 0.973864 1.00124 0.995698
0.927932 0.946717 0.982794 0.997318
0.975212 0.974862 1.00474 0.99564
0.990533 0.990784 1.00026 0.999486
0.992614 0.997044 0.996317 0.999238
0.997202 1.00479 0.993324 0.99912
1.0031 1.00066 1.00337 0.999064
1.00507 1 1.00563 0.999449
0.998482 1.0011 0.997932 0.999454
0.986626 0.986386 1.00197 0.998279
0.961374 0.966874 0.998282 0.996023
0.929347 0.946429 0.983783 0.998138
0.998687 1.0095 0.990053 0.999228
1.00674 1.00608 1.00187 0.998798
0.965272 0.96842 0.999992 0.996757
1.001 1.00818 0.993837 0.999034
0.995289 0.995835 1.00049 0.998958
1.001 1.01356 0.988518 0.999077
1.01049 1.00897 1.00245 0.999055
0.994874 1.0012 0.99448 0.9992
1.00266 1.00811 0.995301 0.999288
1.00426 1.0077 0.997308 0.999279
0.999349 1.00102 0.998913 0.999416
1.00164 1.003 0.999169 0.999475
1.00093 1.00182 0.999799 0.999313
0.999752 1.00034 1 0.999415
0.9999 1.00046 1 0.999437
0.999408 1.00011 1 0.999299
0.9994 1 1 0.9994
0.99941 1 1 0.99941
0.999304 1 1 0.999304
0.99943 1 1 0.99943
0.999354 1 1 0.999354
0.999296 1 1 0.999296
0.999292 1 1 0.999292
0.999288 1 1 0.999288
0.999329 1 1 0.999329
0.999448 1 1 0.999448
0.999339 1 1 0.999339
0.999254 1 1 0.999254
0.999722 1 1 0.999722
0.999521 1 1 0.999521
0.9994 1 1 0.9994
0.999991 1 1 0.999991
0.999764 1 1 0.999764
0.999574 1 1 0.999574
1 1 1 1
0.999997 1 1 0.999997
0.999796 1 1 0.999796
1 1 1 1
1 1 1 1
1 1 1 1
0.999508 1 1 0.999508
0.999543 1 1 0.999543
0.999607 1 1 0.999607
0.999564 1 1 0.999564
0.999627 1 1 0.999627
0.999834 1 1 0.999834
0.99965 1 1 0.99965
0.999878 1 1 0.999878
1 1 1 1
0.999916 1 1 0.999916
1 1 1 1
1 1 1 1
1 1 1 1
1 1 1 1
1 1 1 1
0.983293 0.986272 0.998323 0.998654
0.95995 0.967849 0.996025 0.995798
0.929585 0.94865 0.982513 0.997343
0.999424 1 1 0.999424
0.999489 1 1 0.999489
0.999519 1 1 0.999519
0.999497 1 1 0.999497
0.999481 1 1 0.999481
0.999535 1 1 0.999535
0.999432 1 1 0.999432
0.999425 1 1 0.999425
0.999442 1 1 0.999442
0.999361 1 1 0.999361
0.999118 1 1 0.999118
1.00243 1.00372 1 0.998718
0.999102 1 1.00013 0.998973
0.999325 1 1 0.999325
0.999838 1.00464 0.995978 0.999241
0.990412 0.995444 0.996626 0.998313
0.972706 0.974818 1.00137 0.996465
0.994827 0.998303 0.998085 0.99843
1.00175 1.00607 0.996633 0.999072
1.00159 1.00015 1.00231 0.999136
1.00098 1.00162 1.00002 0.999333
0.987827 0.985341 1.00355 0.998976
0.958084 0.966699 0.995213 0.995855
0.994561 1.00592 0.989644 0.999054
0.992964 0.995869 0.998512 0.998568
1.00265 1.01362 0.990113 0.999059
1.00834 1.00784 1.00136 0.999143
1.01262 1.01412 0.999492 0.999034
1.0058 1.00683 1 0.998971
1.00244 1.00747 0.995718 0.999287
1.00571 1.00831 0.998138 0.999286
1.00063 1.00148 1 0.999157
1.00132 1.00247 0.999384 0.999468
1.00146 1.00219 0.999957 0.999311
0.999248 1.0001 1 0.999145
0.999644 1.00022 1 0.999428
0.99947 1.00015 1 0.99932
0.999188 1 1 0.999188
0.999418 1 1 0.999418
0.999304 1 1 0.999304
0.999243 1 1 0.999243
0.999365 1 1 0.999365
0.999299 1 1 0.999299
0.999297 1 1 0.999297
0.999285 1 1 0.999285
0.999321 1 1 0.999321
0.999415 1 1 0.999415
0.99967 1 1 0.99967
0.999459 1 1 0.999459
0.99935 1 1 0.99935
0.999975 1 1 0.999975
0.999721 1 1 0.999721
0.99952 1 1 0.99952
1 1 1 1
0.999987 1 1 0.999987
0.999764 1 1 0.999764
1 1 1 1
0.999995 1 1 0.999995
1 1 1 1
0.999452 1 1 0.999452
0.99951 1 1 0.99951
0.999585 1 1 0.999585
0.999549 1 1 0.999549
0.999612 1 1 0.999612
0.999794 1 1 0.999794
0.999624 1 1 0.999624
0.999833 1 1 0.999833
1 1 1 1
0.999878 1 1 0.999878
1 1 1 1
1 1 1 1
1 1 1 1
1 1 1 1
1 1 1 1
1.00205 1.00554 0.997094 0.999436
0.982934 0.987573 0.997377 0.99792
0.96363 0.968196 0.99937 0.995911
0.999458 1 1 0.999458
0.999296 1 1 0.999296
0.999434 1 1 0.999434
0.999496 1 1 0.999496
0.999478 1 1 0.999478
0.999522 1 1 0.999522
0.999428 1.00023 1 0.999197
0.999458 1 1 0.999458
0.999388 1 1 0.999388
0.9992 1.00007 1 0.999129
1 1.00119 1 0.99881
1.00502 1.00656 0.999519 0.99895
1.00166 1.00293 1 0.998732
0.998977 1 1 0.998977
1.00224 1.00681 0.996192 0.999271
0.988394 0.994916 0.995584 0.997851
1.00467 1.00708 0.998579 0.999024
1.00152 1.00216 1 0.999352
1.00155 1.00103 1.00116 0.999365
0.985953 0.98512 1.00274 0.998115
1.0047 1.01411 0.991667 0.999041
1.00603 1.00654 1.00027 0.999233
1.01261 1.0144 0.999187 0.999054
1.00683 1.00783 1 0.999005
1.00302 1.00397 1 0.999055
1.00342 1.00423 1 0.999197
1.00734 1.00912 0.998947 0.999293
1.00071 1.00155 1 0.999163
0.999676 1.00062 1 0.999054
1.00187 1.00257 1 0.999309
0.999314 1.00016 1 0.999158
0.999081 1 1 0.999081
0.999531 1.00019 1 0.999342
0.999186 1 1 0.999186
0.999147 1 1 0.999147
0.999305 1 1 0.999305
0.999242 1 1 0.999242
0.999243 1 1 0.999243
0.999303 1 1 0.999303
0.999298 1 1 0.999298
0.999378 1 1 0.999378
0.999314 1 1 0.999314
0.999411 1 1 0.999411
0.999622 1 1 0.999622
0.999955 1 1 0.999955
0.999669 1 1 0.999669
0.999471 1 1 0.999471
1 1 1 1
0.999969 1 1 0.999969
0.999721 1 1 0.999721
1 1 1 1
0.999983 1 1 0.999983
1 1 1 1
0.999348 1 1 0.999348
0.999441 1 1 0.999441
0.999538 1 1 0.999538
0.999511 1 1 0.999511
0.999586 1 1 0.999586
0.999762 1 1 0.999762
0.999616 1 1 0.999616
0.999794 1 1 0.999794
0.999997 1 1 0.999997
0.999833 1 1 0.999833
1 1 1 1
1 1 1 1
1 1 1 1
1 1 1 1
1 1 1 1
1.00215 1.00352 0.999381 0.999254
1.00107 1.00459 0.997079 0.999413
0.982604 0.986214 0.997784 0.998552
0.999394 1.00015 1 0.999245
0.999514 1 1 0.999514
0.999138 1 1 0.999138
0.999287 1 1 0.999287
0.999444 1 1 0.999444
1.00076 1.00184 1 0.998914
0.999508 1 1 0.999508
0.999336 1.00015 1 0.999188
1.00102 1.00213 1 0.99889
0.999267 1.00013 1 0.99914
1.00033 1.00154 1 0.998785
1.00393 1.00532 0.999671 0.998945
1.00052 1.00178 1 0.998746
1.00419 1.00837 0.996548 0.999301
1.00205 1.00273 1 0.999323
1.00123 1.00188 1 0.999349
1.00212 1.00048 1.00224 0.999398
1.01278 1.01482 0.998911 0.999074
1.0082 1.00917 1 0.99904
1.0038 1.00475 1 0.999052
1.00384 1.00465 1 0.999198
1.00197 1.00283 1 0.99914
1.00077 1.0016 1 0.999169
0.999593 1.00053 1 0.999059
0.999303 1.00026 1 0.999044
0.999388 1.00022 1 0.99917
0.999077 1 1 0.999077
0.999067 1 1 0.999067
0.999184 1 1 0.999184
0.999145 1 1 0.999145
0.999164 1 1 0.999164
0.999242 1 1 0.999242
0.999243 1 1 0.999243
0.999317 1 1 0.999317
0.999299 1 1 0.999299
0.999378 1 1 0.999378
0.999575 1 1 0.999575
0.999408 1 1 0.999408
0.999622 1 1 0.999622
0.999935 1 1 0.999935
1 1 1 1
0.999949 1 1 0.999949
0.999669 1 1 0.999669
1 1 1 1
0.999963 1 1 0.999963
1 1 1 1
0.999168 1 1 0.999168
0.999265 1 1 0.999265
0.999336 1 1 0.999336
0.999483 1 1 0.999483
0.99943 1 1 0.99943
0.99954 1 1 0.99954
0.999732 1 1 0.999732
0.999586 1 1 0.999586
0.999762 1 1 0.999762
0.999987 1 1 0.999987
0.999794 1 1 0.999794
0.999998 1 1 0.999998
1 1 1 1
1 1 1 1
1 1 1 1
1 1 1 1
1.00137 1.00222 1 0.999154
1.00354 1.00469 0.999567 0.999281
1.00088 1.00444 0.997069 0.99939
0.999632 1.00063 1 0.998998
0.999363 1.00007 1 0.999293
0.999569 1 1 0.999569
0.999175 1.00002 1 0.999157
0.999279 1 1 0.999279
1.0029 1.00406 1 0.998853
1.00049 1.0016 1 0.998891
0.999258 1.00008 1 0.99918
1.00136 1.00248 1 0.998883
1.00077 1.00201 1 0.998759
1.00368 1.00495 0.99979 0.99894
1.00321 1.00398 1 0.999229
1.00175 1.00244 1 0.999313
1.00093 1.00158 1 0.999346
1.0043 1.00525 1 0.999048
1.00404 1.00485 1 0.999199
1.00203 1.00289 1 0.999142
1.00117 1.00208 1 0.999095
0.999541 1.00048 1 0.999064
0.999215 1.00018 1 0.99904
0.999055 1.00001 1 0.99905
0.999073 1 1 0.999073
0.999066 1 1 0.999066
0.999102 1 1 0.999102
0.999143 1 1 0.999143
0.999163 1 1 0.999163
0.999246 1 1 0.999246
0.999242 1 1 0.999242
0.999317 1 1 0.999317
0.999516 1 1 0.999516
0.999379 1 1 0.999379
0.999574 1 1 0.999574
0.99992 1 1 0.99992
0.999621 1 1 0.999621
0.99993 1 1 0.99993
0.999999 1 1 0.999999
1 1 1 1
0.999943 1 1 0.999943
1 1 1 1
0.99905 1.00002 1 0.999029
0.999249 1 1 0.999249
0.999238 1 1 0.999238
0.999405 1 1 0.999405
0.999264 1 1 0.999264
0.999323 1 1 0.999323
0.999484 1 1 0.999484
0.999692 1 1 0.999692
0.999542 1 1 0.999542
0.999733 1 1 0.999733
0.999971 1 1 0.999971
0.999762 1 1 0.999762
0.99999 1 1 0.99999
1 1 1 1
1 1 1 1
1 1 1 1
1 1 1 1
1.00355 1.0045 1 0.999048
1.00142 1.00227 1 0.999152
1.00443 1.00533 0.999796 0.999308
1.00118 1.00228 1 0.998903
0.999581 1.00058 1 0.999001
0.999341 1 1 0.999341
0.999219 1.00004 1 0.999177
1.00285 1.004 1 0.998853
1.00032 1.00145 1 0.998868
1.00154 1.00266 1 0.998877
1.00371 1.00457 1 0.999138
1.00322 1.00402 1 0.999205
1.00143 1.00213 1 0.999302
1.00273 1.00366 1 0.99907
1.00217 1.00302 1 0.999145
1.0013 1.00221 1 0.999095
0.999691 1.00062 1 0.999071
0.99913 1.00009 1 0.999037
0.999179 1.00013 1 0.999051
0.999077 1 1 0.999077
0.999065 1 1 0.999065
0.999101 1 1 0.999101
0.999194 1 1 0.999194
0.999162 1 1 0.999162
0.999246 1 1 0.999246
0.999453 1 1 0.999453
0.999316 1 1 0.999316
0.999515 1 1 0.999515
0.999905 1 1 0.999905
0.999574 1 1 0.999574
0.999916 1 1 0.999916
0.999998 1 1 0.999998
0.999926 1 1 0.999926
0.999999 1 1 0.999999
1 1 1 1
0.999054 1.00011 1 0.998942
0.999111 1 1 0.999111
0.999064 1.00001 1 0.999053
0.99935 1 1 0.99935
0.999248 1 1 0.999248
0.999307 1 1 0.999307
0.999619 1 1 0.999619
0.999404 1 1 0.999404
0.999262 1 1 0.999262
0.999485 1 1 0.999485
0.999693 1 1 0.999693
0.999951 1 1 0.999951
0.999733 1 1 0.999733
0.999975 1 1 0.999975
1 1 1 1
0.999994 1 1 0.999994
1 1 1 1
1 1 1 1
1.00254 1.00353 1 0.999018
1.00374 1.00472 1 0.999029
1.00161 1.00246 1 0.99915
1.001 1.0021 1 0.9989
0.999516 1.00051 1 0.999004
1.00264 1.00379 1 0.998854
1.00351 1.00445 1 0.999064
1.00398 1.00484 1 0.999137
1.00324 1.00406 1 0.99918
1.0025 1.00343 1 0.999071
1.00099 1.00195 1 0.999046
1.00142 1.00233 1 0.999094
0.999829 1.00076 1 0.999071
0.999183 1.0001 1 0.999079
0.999295 1.00024 1 0.999052
0.999079 1 1 0.999079
0.999164 1 1 0.999164
0.999101 1 1 0.999101
0.999194 1 1 0.999194
0.99941 1 1 0.99941
0.999245 1 1 0.999245
0.999452 1 1 0.999452
0.999888 1 1 0.999888
0.999513 1 1 0.999513
0.999901 1 1 0.999901
0.999995 1 1 0.999995
0.999912 1 1 0.999912
0.999999 1 1 0.999999
1 1 1 1
0.999762 1.00075 1 0.999017
0.99901 1 1 0.99901
0.999009 1.00007 1 0.998935
0.99924 1 1 0.99924
0.999122 1 1 0.999122
0.999078 1 1 0.999078
0.999537 1 1 0.999537
0.999328 1 1 0.999328
0.999247 1 1 0.999247
0.999924 1 1 0.999924
0.99962 1 1 0.99962
0.999403 1 1 0.999403
0.999693 1 1 0.999693
0.999957 1 1 0.999957
1 1 1 1
0.99998 1 1 0.99998
1 1 1 1
1 1 1 1
1.00173 1.00272 1 0.999014
1.00252 1.00351 1 0.999013
1.00394 1.00494 1 0.99901
1.00088 1.00198 1 0.998898
1.00177 1.00276 1 0.999019
1.00365 1.00459 1 0.999069
1.00426 1.00513 1 0.999137
1.00226 1.00319 1 0.999073
1.00105 1.00201 1 0.999047
0.999303 1.00024 1 0.999065
0.999977 1.00091 1 0.999071
0.999185 1.0001 1 0.999084
0.999141 1 1 0.999141
0.99908 1 1 0.99908
0.999165 1 1 0.999165
0.999384 1 1 0.999384
0.999193 1 1 0.999193
0.999409 1 1 0.999409
0.99987 1 1 0.99987
0.999451 1 1 0.999451
0.999883 1 1 0.999883
1 1 1 1
0.999896 1 1 0.999896
0.999996 1 1 0.999996
0.999999 1 1 0.999999
0.999872 1.00084 1 0.999036
0.999041 1 1 0.999041
0.999765 1.00075 1 0.99902
0.999128 1 1 0.999128
0.999024 1 1 0.999024
0.998965 1.00004 1 0.998928
0.999425 1 1 0.999425
0.999239 1 1 0.999239
0.999132 1 1 0.999132
0.999893 1 1 0.999893
0.999517 1 1 0.999517
0.999306 1 1 0.999306
1 1 1 1
0.999932 1 1 0.999932
0.999622 1 1 0.999622
0.999963 1 1 0.999963
1 1 1 1
1 1 1 1
1.00079 1.00178 1 0.99902
1.00204 1.00302 1 0.999022
1.00244 1.00343 1 0.999008
0.999793 1.00077 1 0.99902
1.00169 1.00267 1 0.999016
1.0038 1.00473 1 0.999075
1.0011 1.00206 1 0.999047
0.999339 1.00027 1 0.999065
0.999142 1 1 0.999142
0.999189 1.0001 1 0.999089
0.999159 1 1 0.999159
0.999327 1 1 0.999327
0.999165 1 1 0.999165
0.999385 1 1 0.999385
0.999856 1 1 0.999856
0.999409 1 1 0.999409
0.999869 1 1 0.999869
1 1 1 1
0.999877 1 1 0.999877
0.999997 1 1 0.999997
0.999997 1 1 0.999997
0.999454 1.00041 1 0.999045
0.999075 1 1 0.999075
0.999886 1.00085 1 0.999037
0.999139 1 1 0.999139
0.99907 1.00002 1 0.999046
0.999771 1.00075 1 0.999023
0.999356 1 1 0.999356
0.999152 1 1 0.999152
0.999037 1 1 0.999037
0.99987 1 1 0.99987
0.999415 1 1 0.999415
0.999238 1 1 0.999238
1 1 1 1
0.9999 1 1 0.9999
0.999498 1 1 0.999498
1 1 1 1
0.999939 1 1 0.999939
1 1 1 1
0.999524 1.00049 1 0.999034
1.00058 1.00156 1 0.999021
1.00236 1.00334 1 0.99903
0.9991 1 1 0.9991
0.99968 1.00066 1 0.999023
1.00162 1.00261 1 0.999013
0.999379 1.00031 1 0.999066
0.999142 1 1 0.999142
0.999289 1 1 0.999289
0.999177 1 1 0.999177
0.999344 1 1 0.999344
0.999826 1 1 0.999826
0.999385 1 1 0.999385
0.999854 1 1 0.999854
1 1 1 1
0.999867 1 1 0.999867
1 1 1 1
0.999994 1 1 0.999994
0.999079 1 1 0.999079
0.999353 1.00031 1 0.999044
0.999143 1 1 0.999143
0.999097 1.00002 1 0.999075
0.999899 1.00086 1 0.999038
0.999358 1 1 0.999358
0.999137 1 1 0.999137
0.999096 1.00004 1 0.999052
0.999854 1 1 0.999854
0.999368 1 1 0.999368
0.999175 1 1 0.999175
1 1 1 1
0.999874 1 1 0.999874
0.999406 1 1 0.999406
1 1 1 1
0.999907 1 1 0.999907
1 1 1 1
0.999117 1 1 0.999117
0.999362 1.00033 1 0.999037
1.00034 1.00132 1 0.999023
0.999261 1 1 0.999261
0.9991 1 1 0.9991
0.999535 1.00051 1 0.999025
0.999143 1 1 0.999143
0.999294 1 1 0.999294
0.99979 1 1 0.99979
0.999361 1 1 0.999361
0.999824 1 1 0.999824
1 1 1 1
0.999852 1 1 0.999852
1 1 1 1
1 1 1 1
0.999133 1 1 0.999133
0.999074 1 1 0.999074
0.999251 1.00021 1 0.999043
0.999345 1 1 0.999345
0.999142 1 1 0.999142
0.999121 1.00005 1 0.999075
0.999841 1 1 0.999841
0.999357 1 1 0.999357
0.999135 1 1 0.999135
1 1 1 1
0.999857 1 1 0.999857
0.999379 1 1 0.999379
1 1 1 1
0.999878 1 1 0.999878
1 1 1 1
0.999296 1 1 0.999296
0.9991 1 1 0.9991
0.999228 1.00019 1 0.99904
0.999769 1 1 0.999769
0.999264 1 1 0.999264
0.9991 1 1 0.9991
0.999299 1 1 0.999299
0.999788 1 1 0.999788
1 1 1 1
0.999821 1 1 0.999821
1 1 1 1
1 1 1 1
0.999323 1 1 0.999323
0.999126 1 1 0.999126
0.999069 1 1 0.999069
0.999835 1 1 0.999835
0.999344 1 1 0.999344
0.999141 1 1 0.999141
1 1 1 1
0.999841 1 1 0.999841
0.999357 1 1 0.999357
1 1 1 1
0.999859 1 1 0.999859
1 1 1 1
0.999765 1 1 0.999765
0.999283 1 1 0.999283
0.999083 1 1 0.999083
1 1 1 1
0.999768 1 1 0.999768
0.999266 1 1 0.999266
0.999786 1 1 0.999786
1 1 1 1
1 1 1 1
0.999808 1 1 0.999808
0.999323 1 1 0.999323
0.999119 1 1 0.999119
1 1 1 1
0.999823 1 1 0.999823
0.999343 1 1 0.999343
1 1 1 1
0.999842 1 1 0.999842
1 1 1 1
0.999954 1 1 0.999954
0.999783 1 1 0.999783
0.99927 1 1 0.99927
1 1 1 1
0.999767 1 1 0.999767
1 1 1 1
0.999965 1 1 0.999965
0.999804 1 1 0.999804
0.999323 1 1 0.999323
0.999986 1 1 0.999986
0.999821 1 1 0.999821
1 1 1 1
1 1 1 1
0.999772 1 1 0.999772
1 1 1 1
0.99998 1 1 0.99998
0.999795 1 1 0.999795
1 1 1 1
1 1 1 1
1 1 1 1

VECTORS lamdaE float
0.998986 1.00019 0.996691
0.999179 0.999304 0.998669
0.998905 1.0003 0.996751
0.999423 1.00001 0.99629
0.999047 1.00028 0.996563
0.999069 0.999822 0.996849
0.999733 1.00075 0.994586
0.999204 0.999178 0.998708
0.998961 1.00034 0.998568
0.998919 0.999757 0.998716
0.999343 0.998811 0.997342
0.999731 1.00046 0.994614
0.999691 1.00001 0.995863
0.99933 0.999891 0.996383
0.998812 1.00046 0.996819
0.999322 1.00003 0.996377
0.998999 0.999903 0.996911
0.99895 1.00038 0.996642
0.999798 1.0007 0.994586
0.999574 0.999996 0.998217
0.999496 0.999948 0.996246
0.999229 1.00016 0.996425
1.00062 1 0.993819
1.00002 1.00054 0.994312
0.999244 0.999221 0.997116
0.999531 1.00077 0.994898
1.0011 1.00117 0.991723
0.999225 0.999045 0.99875
0.999021 1.00026 0.997533
0.998998 0.999818 0.997788
0.999321 0.998663 0.998827
0.999664 1.00055 0.994617
0.999276 1.0002 0.996388
0.99905 1.00035 0.996704
1.00026 1.00045 0.994602
0.999365 0.998136 0.999053
0.999829 1.00054 0.995167
0.999648 1.0002 0.994992
1.00042 1.00167 0.992158
0.999476 0.997663 0.999168
0.999675 1 0.998137
0.99941 0.999961 0.997336
0.999768 0.999998 0.998064
0.999384 0.999936 0.996263
1.00104 1.00002 0.992505
0.999265 1.00008 0.998489
1.0008 0.999945 0.994127
0.999221 1.00004 0.996463
0.998849 1.00053 0.996712
0.998928 0.999987 0.996985
0.999868 1.00061 0.994581
0.999545 0.99999 0.997164
0.999403 0.999926 0.996334
0.999195 0.99923 0.997176
0.999124 1.00023 0.996512
1.00065 0.999993 0.993791
0.999591 1.00072 0.994899
1.00008 1.0005 0.994306
1.00118 1.00119 0.991637
0.999661 1.00001 0.998143
0.99952 0.999973 0.996161
1.00085 1.00001 0.99389
1.00069 0.999902 0.993797
1.00034 1.00026 0.994036
1.00266 0.999939 0.990152
1.00166 1.00065 0.990946
0.999464 0.998514 0.99744
0.999398 1.00052 0.99537
1.00054 1.00159 0.992288
1.00188 1.00131 0.989759
0.999056 1.00019 0.99849
0.999343 0.998506 0.998906
0.999068 0.999579 0.998648
0.999597 1.00065 0.994619
0.999293 1.00018 0.998397
0.999015 1.00013 0.99854
1.00015 1.00048 0.993702
0.99939 0.998204 0.998363
0.999728 1.00067 0.994355
0.99961 1.00017 0.995441
1.00041 1.00166 0.992148
0.999449 0.997906 0.999084
0.999647 0.998839 0.996389
1.00052 1.00014 0.993396
0.999985 1.00063 0.993989
1.00184 1.00063 0.99047
0.999589 0.999665 0.996276
1.00076 1.00133 0.991861
1.00016 1.00187 0.992446
1.0009 1.00191 0.990932
0.999525 0.997375 0.999236
0.999468 0.997613 0.999192
0.99945 1.00001 0.998342
0.999616 1 0.99819
0.99975 1 0.998078
0.999477 0.999988 0.997226
1.00102 1.00002 0.993122
0.999317 1.00002 0.997406
1.00076 0.999943 0.993665
0.999758 0.999998 0.998073
1.00113 0.99997 0.992341
1.0009 0.999994 0.99391
1.00313 0.999776 0.988869
1.00068 0.999985 0.994281
1.00278 0.999853 0.989475
0.999619 0.999989 0.996001
0.999309 0.999887 0.996422
0.99914 0.999201 0.997247
0.999021 1.00032 0.996595
1.00069 0.999993 0.993765
1.00014 1.00042 0.994304
0.999653 1.00066 0.994894
1.00126 1.00123 0.991552
0.999704 1 0.998112
0.999422 0.999948 0.996263
1.00091 1 0.993036
1.00072 0.999886 0.993759
0.999398 0.998486 0.998166
0.99949 1.00046 0.99548
1.00039 1.00023 0.994024
1.00264 0.999936 0.990051
1.00062 1.00163 0.9922
1.0017 1.0007 0.991015
1.00188 1.00131 0.989762
1.00103 1.00002 0.99249
1.0007 0.999942 0.993713
1.00296 0.999823 0.989418
1.00273 0.999741 0.989934
1.00228 1.00022 0.990309
1.00367 0.999658 0.988289
0.999478 0.998029 0.999027
1.00249 1.0007 0.989175
0.999574 1.00004 0.995304
1.00009 1.00179 0.992542
1.00131 1.00195 0.990315
1.00238 1.00124 0.988894
0.999679 0.999134 0.995966
1.00008 1.00078 0.993654
0.999224 1.00017 0.998415
0.998975 0.999988 0.99858
1.00012 1.00049 0.993714
0.999408 0.998114 0.999044
0.999552 1.00024 0.995101
0.999652 1.00078 0.994347
1.00041 1.00165 0.992137
0.999439 0.997875 0.999112
0.999652 0.998785 0.996413
1.0005 1.00014 0.993916
0.999901 1.00064 0.994473
1.00184 1.00062 0.990486
0.999587 0.999636 0.995689
1.00074 1.00132 0.991871
1.00015 1.00187 0.992439
1.00091 1.00191 0.990885
0.999599 0.999245 0.996055
0.999725 0.998424 0.99667
1 1.00063 0.993909
1.00236 1.00018 0.989921
1.00123 1.00105 0.991245
1.0027 1.00066 0.988845
1.00011 1.00153 0.992863
1.00133 1.00146 0.990569
1.00056 1.00249 0.99114
1.00108 1.00219 0.990426
0.999603 0.99709 0.999282
0.999529 0.99732 0.999252
0.999463 0.997558 0.999214
0.999721 0.998771 0.996279
0.999504 0.997784 0.999112
0.999364 1.00007 0.998378
0.999513 0.999995 0.998282
1.00073 0.999921 0.993169
1.00097 1.00002 0.992612
0.999724 1 0.998098
0.999766 0.999999 0.998065
1.00112 0.999978 0.992348
1.00085 1 0.993454
1.00313 0.999778 0.988874
1.00062 0.999949 0.993318
1.00277 0.999861 0.989474
1.00114 0.999966 0.992312
1.00334 0.999721 0.988523
1.00292 0.999803 0.989263
1.00416 0.999448 0.987294
1.00263 0.999953 0.989639
1.00378 0.999508 0.987964
0.999735 1 0.998085
0.999323 0.999906 0.99637
1.00092 0.999984 0.992233
1.00076 0.999889 0.993722
0.9993 0.998426 0.998936
0.99958 1.00042 0.995587
1.00044 1.00019 0.994014
1.00263 0.999929 0.98995
1.00174 1.00076 0.991084
1.00071 1.00169 0.992113
1.00188 1.00131 0.989766
1.00104 1 0.99248
1.00074 0.999928 0.99368
1.00294 0.999807 0.989206
1.00274 0.999782 0.990035
0.999461 0.998074 0.998996
0.99958 0.999997 0.995639
1.00017 1.0018 0.992634
1.00226 1.00026 0.990314
1.00366 0.999594 0.988149
1.00124 1.00194 0.990302
1.00253 1.00072 0.989238
1.00237 1.00124 0.988902
0.999659 0.999203 0.995953
1.00008 1.00076 0.993649
1.00325 0.999757 0.988654
1.00273 0.99979 0.98987
1.00394 0.999581 0.987842
1.0038 0.999299 0.988002
1.00316 1.00011 0.988656
1.00423 0.999128 0.987643
0.999628 0.99955 0.995619
1.0031 1.00045 0.988297
1.00005 1.00164 0.992768
1.00059 1.00226 0.991003
1.0018 1.0021 0.989494
1.00276 1.001 0.988504
1.00011 1.00126 0.993146
1.0001 1.00022 0.99417
1.00027 1.00185 0.992237
1.00044 1.00015 0.993457
0.99943 0.99784 0.999139
0.999654 0.998741 0.996437
0.999798 1.00075 0.994069
1.00183 1.0006 0.990504
0.999582 0.999603 0.995657
1.00012 1.00187 0.992433
1.00072 1.00131 0.991881
1.00091 1.00191 0.990838
0.99961 0.999183 0.996073
0.999719 0.998402 0.996687
1 1.00065 0.993916
1.00235 1.00019 0.989926
1.0012 1.00104 0.991269
1.00269 1.00066 0.988845
1.00008 1.00157 0.992864
1.00135 1.00146 0.990608
1.00055 1.00249 0.991134
1.00105 1.00218 0.990386
0.999801 0.998099 0.996854
1.00008 1.00107 0.993333
1 1.00008 0.994479
1.00018 1.0017 0.992572
1.0033 1.00004 0.98831
1.00192 1.00121 0.989801
1.00321 1.0005 0.988025
1.00039 1.00237 0.991618
1.00165 1.00147 0.990055
1.00059 1.00326 0.990283
1.00123 1.00206 0.989992
1.00015 0.999068 0.995235
0.999926 0.997656 0.997052
0.999691 0.996842 0.999313
0.999615 0.997043 0.999292
0.999535 0.997265 0.999267
0.999782 0.998445 0.996503
0.999536 0.997532 0.999178
0.999718 0.998813 0.996257
0.999508 0.997815 0.999086
1.00063 0.999933 0.993316
1.00082 0.999992 0.992934
1.00277 0.999867 0.989473
1.00312 0.999781 0.988879
1.00112 0.999986 0.992354
0.999775 1 0.998059
1.00115 0.99997 0.992307
1.00334 0.999721 0.988524
1.0029 0.999816 0.989263
1.00416 0.999454 0.987293
1.00263 0.999967 0.98964
1.00378 0.999502 0.987965
1.00337 0.999708 0.988489
1.00439 0.99936 0.986933
1.00394 0.999453 0.987719
1.00463 0.999017 0.986858
1.0036 0.999687 0.98811
1.00431 0.998999 0.987472
1.00106 0.999995 0.992467
1.00079 0.999928 0.993645
1.00292 0.999785 0.988994
1.00274 0.999811 0.990136
0.999447 0.99813 0.998964
0.999601 0.99999 0.995956
1.00027 1.0018 0.992725
1.00223 1.0003 0.990319
1.00366 0.999527 0.988009
1.00258 1.00074 0.989301
1.00117 1.00194 0.990289
1.00236 1.00123 0.98891
0.999643 0.999267 0.995937
1.00008 1.00073 0.993645
1.00322 0.999746 0.988592
1.00275 0.999783 0.989865
1.00397 0.999557 0.987758
1.0038 0.999368 0.988139
0.99962 0.999605 0.995617
1.00008 1.00167 0.992768
1.0006 1.00223 0.99111
1.00319 1.00015 0.988653
1.00422 0.999041 0.987605
1.00174 1.00211 0.98938
1.00309 1.00046 0.988297
1.0027 1.00096 0.988532
1.00012 1.00119 0.993153
1.00027 1.00181 0.99225
1.00009 1.00023 0.994159
1.00423 0.999499 0.987377
1.00377 0.999468 0.988142
1.00445 0.999298 0.987057
1.00436 0.998839 0.987541
1.00375 0.999606 0.987767
1.00455 0.998503 0.987534
1.00009 1.00151 0.992895
1.00343 1.00011 0.987983
1.00043 1.00209 0.991713
1.00085 1.00272 0.990086
1.00207 1.00212 0.988769
1.00296 1.00053 0.988793
1.00013 0.999848 0.994477
1.00036 1.00187 0.992068
1.00026 1.00142 0.992627
1.00026 1.00241 0.991763
1.00235 1.0002 0.98993
0.999711 0.99838 0.996704
0.999623 0.999118 0.99609
1.00001 1.00064 0.993922
1.00117 1.00104 0.991294
1.00269 1.00067 0.988845
1.00004 1.00162 0.992865
1.00054 1.00249 0.991127
1.00137 1.00147 0.990649
1.00102 1.00218 0.990346
0.999792 0.998091 0.996862
1.00007 1.00111 0.993332
1.00001 1.00007 0.994491
1.00017 1.00173 0.992562
1.00331 1.00005 0.9883
1.0019 1.00121 0.989816
1.00321 1.0005 0.988027
1.00035 1.00237 0.991629
1.00168 1.00149 0.990102
1.00061 1.00328 0.990241
1.0012 1.00199 0.990227
0.999867 0.997855 0.996971
1.00005 0.999647 0.994841
1.00031 1.00199 0.992112
1.00017 1.00118 0.993113
1.00013 1.00258 0.991834
1.00385 0.99971 0.987597
1.0023 1.00117 0.989086
1.00347 1.00032 0.987716
1.00035 1.00343 0.99065
1.00183 1.00137 0.989777
1.00076 1.00339 0.989361
1.00012 0.999211 0.995151
1.00019 1.00005 0.994205
1.00018 0.998965 0.99529
1.00015 0.999088 0.995231
0.999964 0.99745 0.997557
0.999915 0.997637 0.997278
0.999821 0.996648 0.99846
0.999704 0.996801 0.999321
0.999627 0.996997 0.999302
0.999848 0.998191 0.996636
0.999601 0.997278 0.99922
0.999787 0.998464 0.996488
0.99954 0.997573 0.999158
0.999713 0.998858 0.996235
0.999511 0.997851 0.99906
1.00263 0.999979 0.98964
1.0029 0.999824 0.989263
1.00378 0.999504 0.987965
1.00416 0.99946 0.987293
1.00334 0.999721 0.988525
1.00115 0.999974 0.992303
1.00337 0.999705 0.988486
1.00439 0.999361 0.986934
1.00393 0.999467 0.987722
1.00465 0.998991 0.98682
1.00361 0.999682 0.988104
1.00431 0.999 0.987473
1.00442 0.999343 0.986907
1.00487 0.998928 0.986438
1.00446 0.998962 0.987214
1.00489 0.998666 0.986787
1.00412 0.999263 0.987559
1.00457 0.998387 0.98758
1.00319 0.999735 0.988531
1.00277 0.999768 0.98986
1.00398 0.999541 0.987674
1.0038 0.999438 0.988276
0.999614 0.999647 0.995614
1.0001 1.00168 0.992769
1.00062 1.00218 0.991218
1.00322 1.00019 0.988651
1.00422 0.998954 0.987568
1.00309 1.00046 0.988296
1.00168 1.00212 0.989265
1.00264 1.00092 0.98856
1.00013 1.00114 0.993161
1.00027 1.00178 0.992262
1.00009 1.00025 0.994148
1.00425 0.999481 0.987231
1.00379 0.999432 0.988144
1.00444 0.999245 0.987028
1.00436 0.998883 0.987561
1.00012 1.00146 0.992904
1.00048 1.00208 0.991694
1.00082 1.00271 0.990223
1.00374 0.999708 0.987834
1.00457 0.998407 0.98753
1.00198 1.00219 0.988702
1.00344 1.00009 0.987973
1.00291 1.00043 0.988833
1.00036 1.00188 0.992082
1.00027 1.00243 0.991708
1.00013 0.999865 0.994471
1.00026 1.00136 0.992699
1.0047 0.999149 0.986608
1.00428 0.999119 0.987493
1.00472 0.998811 0.986935
1.00467 0.998415 0.987318
1.00423 0.999055 0.987477
1.00481 0.998195 0.987321
1.0004 1.0019 0.991973
1.00354 0.999283 0.988444
1.00042 1.00263 0.991
1.00115 1.00316 0.989287
1.00223 1.00213 0.988288
1.00308 1.0004 0.988833
1.00015 0.999666 0.994626
1.00027 1.00094 0.993088
1.00037 1.00229 0.991656
1.00022 1.00217 0.992085
1.00027 1.00258 0.991553
0.999784 0.998083 0.996869
1.00331 1.00006 0.98829
1.00002 1.00005 0.994503
1.00005 1.00117 0.993332
1.00017 1.00176 0.992552
1.00187 1.00122 0.989831
1.0032 1.00051 0.988028
1.00032 1.00238 0.99164
1.00063 1.0033 0.9902
1.00171 1.00151 0.99015
1.00118 1.00191 0.99046
0.999861 0.997847 0.996976
1.00005 0.999638 0.994849
1.00029 1.00199 0.992111
1.00016 1.00119 0.993115
1.00012 1.00262 0.991767
1.00385 0.999727 0.987583
1.0023 1.00117 0.989094
1.00346 1.00034 0.9877
1.00031 1.00343 0.990664
1.00185 1.0014 0.989822
1.00088 1.00336 0.98945
1.00009 0.999393 0.995033
1.00018 1.00066 0.99361
1.00028 1.00294 0.991251
1.00009 1.00219 0.992284
1.00009 1.00327 0.991261
1.00416 0.999342 0.987361
1.00255 1.00097 0.988783
1.00332 0.999808 0.988329
1.00024 1.00449 0.989661
1.00162 1.00259 0.988989
1.00012 0.99922 0.99515
1.00017 1.00017 0.99402
1.00019 1.00006 0.994154
1.00015 1.00079 0.993671
1.00021 1.00002 0.994202
1.00021 0.998896 0.9953
1.00018 0.998969 0.995288
1.00002 0.997284 0.99761
1.00014 0.999106 0.995226
0.99997 0.997441 0.997565
0.999905 0.996434 0.998508
0.999906 0.997624 0.997502
0.999799 0.996611 0.998904
0.999716 0.996761 0.999329
0.999904 0.997989 0.996732
0.999853 0.998201 0.996629
0.99968 0.997053 0.999249
0.999597 0.997321 0.999208
0.999792 0.998483 0.996473
0.999544 0.997609 0.999138
1.00362 0.999676 0.988098
1.00393 0.999474 0.987724
1.00431 0.998999 0.987475
1.00466 0.998965 0.986783
1.0044 0.999362 0.986935
1.00337 0.999703 0.988483
1.00442 0.999342 0.986908
1.00488 0.998936 0.986406
1.00446 0.998973 0.987218
1.00489 0.998613 0.986797
1.00413 0.999257 0.987547
1.00459 0.998334 0.987571
1.00489 0.998985 0.986366
1.00507 0.998664 0.986398
1.00475 0.998386 0.987193
1.00498 0.998376 0.986852
1.00442 0.99867 0.98752
1.00482 0.997981 0.987605
1.00427 0.99946 0.987085
1.0038 0.999399 0.988146
1.00443 0.999191 0.986998
1.00436 0.998925 0.987582
1.00014 1.00141 0.992913
1.00052 1.00208 0.991674
1.00078 1.00271 0.990359
1.00374 0.99981 0.987902
1.0046 0.998312 0.987526
1.00346 1.00008 0.987964
1.00189 1.00225 0.988634
1.00285 1.00033 0.988872
1.00036 1.00188 0.992097
1.00028 1.00244 0.991653
1.00012 0.999879 0.994464
1.00026 1.00128 0.992771
1.00469 0.999152 0.986603
1.00429 0.999119 0.987497
1.00465 0.998783 0.987045
1.00468 0.998437 0.987318
1.00042 1.0019 0.99197
1.00042 1.00258 0.991111
1.00113 1.00322 0.989276
1.00423 0.999139 0.987488
1.00476 0.998104 0.987458
1.00221 1.0022 0.988242
1.00359 0.999311 0.988433
1.00301 1.00014 0.988918
1.00039 1.00228 0.991661
1.00028 1.00259 0.991538
1.00021 1.00218 0.992078
1.00015 0.999662 0.994554
1.00027 1.00089 0.993134
1.00498 0.99867 0.986526
1.00469 0.998562 0.987171
1.00491 0.998096 0.987133
1.00447 0.998448 0.987494
1.0004 1.00228 0.991578
1.00399 0.99869 0.988645
1.00031 1.00312 0.990488
1.00143 1.0037 0.988227
1.00261 1.00205 0.9878
1.00017 0.999516 0.994599
1.00026 1.00067 0.993515
1.0002 1.00169 0.992597
1.00036 1.00237 0.9916
1.0002 1.00269 0.991638
1.00035 1.00251 0.991427
0.999855 0.99784 0.99698
1.00005 0.999629 0.994858
1.00386 0.999743 0.987569
1.00016 1.00121 0.993117
1.00027 1.00198 0.992111
1.00012 1.00267 0.991699
1.00229 1.00117 0.989102
1.00344 1.00035 0.987685
1.00027 1.00342 0.990678
1.00101 1.00333 0.989537
1.00186 1.00143 0.989868
1.00008 0.999397 0.995036
1.00018 1.00065 0.993618
1.00025 1.00292 0.991288
1.00009 1.00218 0.992281
1.00008 1.00331 0.991179
1.00414 0.999385 0.98736
1.00257 1.00097 0.988762
1.00339 0.999652 0.988447
1.0002 1.00446 0.989656
1.00161 1.00279 0.988805
1.00016 1.00036 0.993942
1.00012 1.00163 0.992687
1.00015 1.00393 0.990528
1.00005 1.00304 0.991414
1.00021 1.00357 0.990718
1.00443 0.998031 0.9881
1.00269 1.00135 0.988376
1.00364 0.998489 0.98842
1.00057 1.00474 0.989245
1.00134 1.00357 0.98779
1.00011 0.999231 0.995149
1.00018 1.00016 0.994069
1.00015 1.00094 0.993339
1.00018 1.00009 0.994102
1.00021 1.00003 0.994202
1.00014 1.00079 0.993594
1.00008 1.00135 0.993205
1.00013 1.00074 0.993597
1.00024 0.999976 0.994209
1.00023 0.998895 0.99527
1.00021 0.998894 0.995301
1.00007 0.997184 0.997615
1.00018 0.998973 0.995286
1.00002 0.997282 0.997613
0.999965 0.996274 0.998543
0.999977 0.997429 0.997574
0.999896 0.996411 0.998508
0.999775 0.996566 0.999353
0.999957 0.997797 0.996828
0.999908 0.997997 0.996728
0.999755 0.996849 0.999273
0.999857 0.998212 0.996622
0.999671 0.997088 0.99924
0.999593 0.997359 0.999195
1.00414 0.999251 0.987535
1.00446 0.998986 0.987222
1.00461 0.99828 0.987562
1.00488 0.998557 0.986807
1.00489 0.998944 0.986374
1.00442 0.999342 0.98691
1.00488 0.999005 0.986365
1.00507 0.998688 0.986381
1.00476 0.998409 0.987154
1.005 0.998303 0.986851
1.00443 0.998668 0.987522
1.00476 0.997892 0.987703
1.00507 0.998727 0.98631
1.0051 0.998328 0.98664
1.00497 0.997877 0.987295
1.00473 0.997912 0.987771
1.00469 0.999154 0.986599
1.0043 0.999117 0.987501
1.00459 0.998756 0.987154
1.00469 0.998461 0.987319
1.00044 1.0019 0.991966
1.00043 1.00253 0.991222
1.0011 1.00328 0.989265
1.00424 0.999222 0.987498
1.0047 0.998019 0.987595
1.00363 0.999338 0.988421
1.00219 1.00226 0.988197
1.00295 0.999895 0.989004
1.00041 1.00227 0.991666
1.0003 1.00259 0.991523
1.00019 1.0022 0.992072
1.00015 0.999661 0.994482
1.00028 1.00085 0.99318
1.00494 0.998661 0.986591
1.00469 0.998592 0.987157
1.00489 0.998168 0.987185
1.00044 1.00228 0.991565
1.00042 1.00307 0.990605
1.00137 1.0038 0.988202
1.00455 0.998457 0.987505
1.00258 1.00186 0.987967
1.00376 0.998681 0.988757
1.00017 0.999494 0.994617
1.00038 1.00237 0.991598
1.00035 1.00251 0.991458
1.0002 1.00274 0.9916
1.00021 1.00168 0.992629
1.00026 1.00066 0.993455
1.00506 0.998349 0.986738
1.00493 0.99797 0.987325
1.0049 0.998003 0.987062
1.00501 0.997765 0.987311
1.00038 1.00254 0.991372
1.00346 1.00015 0.987952
1.00055 1.00412 0.989216
1.00172 1.0041 0.987451
1.00018 0.999362 0.994747
1.00026 1.00049 0.993715
1.00021 1.00144 0.992886
1.00016 1.00238 0.991986
1.00041 1.00249 0.991437
1.00033 1.00265 0.991351
1.00008 0.9994 0.995039
1.00018 1.00064 0.993625
1.00412 0.99943 0.987359
1.00009 1.00217 0.992279
1.00022 1.00291 0.991325
1.00007 1.00336 0.991097
1.00259 1.00097 0.988742
1.00345 0.999486 0.988565
1.00016 1.00443 0.989651
1.00161 1.00301 0.988622
1.00017 1.00034 0.993947
1.00013 1.00162 0.992718
1.0001 1.00391 0.990612
1.00005 1.00307 0.991428
1.00015 1.00364 0.990702
1.00448 0.998111 0.98806
1.00276 1.00118 0.988383
1.0035 0.998342 0.989197
1.00046 1.00469 0.989233
1.00151 1.00395 0.987431
1.00014 1.00114 0.993146
1.00008 1.00249 0.991868
1.00013 1.00438 0.990073
1.00008 1.00371 0.99052
1.00505 0.996931 0.988239
1.00469 0.996949 0.988635
1.00294 1.00157 0.987406
1.00067 1.00482 0.987996
1.00018 1.00016 0.994119
1.00015 1.00095 0.993376
1.00009 1.00159 0.99291
1.00021 1.00002 0.994203
1.00013 1.00077 0.993518
1.00024 0.999965 0.99421
1.00008 1.00136 0.993144
1.00013 1.00072 0.993618
1.00004 1.00179 0.992787
1.00009 1.00123 0.993193
1.00013 1.00067 0.993631
1.00025 0.999965 0.994186
1.00023 0.998938 0.99522
1.00023 0.998895 0.995269
1.0001 0.997155 0.997589
1.00021 0.998889 0.995302
1.00007 0.997199 0.997611
1.00001 0.996194 0.998534
1.00003 0.997282 0.997617
0.999959 0.996251 0.998544
0.999887 0.99639 0.998506
1.00001 0.997601 0.996934
0.99996 0.997803 0.996824
0.999823 0.996654 0.999299
0.999912 0.998006 0.996723
0.999745 0.996882 0.999266
0.999662 0.997124 0.999232
1.00444 0.998665 0.987523
1.00477 0.998432 0.987116
1.00471 0.997807 0.9878
1.00502 0.998234 0.986849
1.00507 0.998713 0.986365
1.00487 0.999026 0.986365
1.00506 0.998722 0.986345
1.0051 0.998344 0.986636
1.00497 0.997876 0.987303
1.00473 0.997864 0.987763
1.00511 0.998426 0.986551
1.00513 0.997755 0.987197
1.00502 0.997446 0.987614
1.00491 0.998653 0.986657
1.00469 0.998622 0.987143
1.00488 0.998234 0.987236
1.00048 1.00227 0.991552
1.00054 1.00303 0.990722
1.00132 1.0039 0.988177
1.00463 0.998465 0.987516
1.00355 0.998677 0.988867
1.00257 1.00167 0.988134
1.0004 1.00237 0.991597
1.00032 1.00251 0.991489
1.00019 1.00278 0.991561
1.00017 0.99947 0.994636
1.00021 1.00165 0.99266
1.00026 1.00064 0.993394
1.00507 0.998365 0.986689
1.00491 0.997959 0.987342
1.00496 0.998031 0.987069
1.00042 1.00255 0.99134
1.00048 1.00409 0.989472
1.00177 1.00406 0.987436
1.00486 0.997868 0.987562
1.00346 1.00008 0.987901
1.00018 0.999338 0.994836
1.00025 1.00049 0.993716
1.00036 1.00245 0.991432
1.00034 1.00255 0.991474
1.00016 1.00236 0.991953
1.0002 1.00146 0.992842
1.00511 0.997818 0.987127
1.00504 0.997443 0.987597
1.0051 0.997549 0.987202
1.00465 0.997611 0.988035
1.00014 1.00324 0.990947
1.00243 1.0031 0.986932
1.00091 1.00483 0.988455
1.00019 0.99918 0.995051
1.00018 1.00015 0.994123
1.00022 1.00043 0.993681
1.00019 1.00131 0.992992
1.00011 1.00214 0.992298
1.00005 1.00312 0.991341
1.00056 1.0017 0.991761
1.00025 1.0029 0.991863
1.00018 1.00033 0.993951
1.00014 1.00161 0.992749
1.0045 0.99821 0.988021
1.00005 1.00309 0.991442
1.00006 1.00389 0.990696
1.00008 1.00372 0.990686
1.00282 1.001 0.988388
1.00336 0.99818 0.989969
1.00035 1.00462 0.98922
1.00167 1.00429 0.987071
1.00015 1.00117 0.993103
1.00008 1.00253 0.991882
1.0001 1.00437 0.990134
1.00013 1.00374 0.990572
1.00506 0.996943 0.988168
1.00452 0.997082 0.988697
1.00302 1.00147 0.9877
1.00085 1.00486 0.987834
1.00009 1.00188 0.992589
1.00504 0.996618 0.988288
1.00006 1.0035 0.991174
1.0004 1.00439 0.989531
1.00513 0.996107 0.98873
1.00441 0.998231 0.987884
1.00184 1.00414 0.987172
1.00015 1.00096 0.993413
1.00009 1.00158 0.992904
1.00003 1.00213 0.992466
1.00024 0.999956 0.994211
1.00014 1.00072 0.99364
1.00008 1.00137 0.993083
1.00025 0.999958 0.994185
1.00014 1.00068 0.993629
1.00005 1.00181 0.992732
1.00009 1.00123 0.993249
1.00006 1.00207 0.992446
1.00007 1.00164 0.992804
1.00009 1.00115 0.99333
1.00019 1.00062 0.993642
1.00026 1.00001 0.99413
1.00022 0.998992 0.995176
1.00023 0.998941 0.99522
1.00011 0.997159 0.997553
1.00023 0.998898 0.995269
1.0001 0.997177 0.997584
1.00004 0.996158 0.998515
1.00007 0.997214 0.997608
1.00001 0.996164 0.998538
0.999953 0.99623 0.998544
1.0002 0.999015 0.995191
1.00005 0.997414 0.997034
1.00001 0.997609 0.996929
0.999884 0.996467 0.999326
0.999963 0.997812 0.99682
0.999814 0.996686 0.999291
0.999736 0.996915 0.999258
1.00474 0.997812 0.987756
1.00496 0.997873 0.987311
1.00509 0.998352 0.986632
1.00505 0.998719 0.986381
1.00511 0.998411 0.986567
1.00514 0.997772 0.987146
1.00503 0.997408 0.98763
1.0051 0.997847 0.987096
1.00516 0.997242 0.98769
1.00503 0.996387 0.988457
1.00508 0.998381 0.98664
1.0049 0.997951 0.987358
1.00502 0.998066 0.987077
1.00046 1.00255 0.991309
1.0004 1.00402 0.989728
1.00181 1.00401 0.987422
1.00471 0.997959 0.987813
1.00343 0.999992 0.98785
1.00031 1.0024 0.991427
1.00036 1.00246 0.991594
1.00015 1.00238 0.991919
1.00018 0.999314 0.994924
1.00025 1.00049 0.993716
1.00019 1.00149 0.992797
1.0051 0.997774 0.987223
1.0002 0.999174 0.995048
1.00017 1.00016 0.994081
1.00504 0.99749 0.987571
1.00508 0.997688 0.987134
1.0001 1.00321 0.991106
1.00088 1.00479 0.988313
1.00242 1.00297 0.986948
1.00465 0.99762 0.988065
1.00022 1.00042 0.993808
1.00018 1.0013 0.99299
1.00065 1.0018 0.991555
1.00013 1.00232 0.99228
1.00003 1.00322 0.991246
1.00012 1.0021 0.992308
1.00511 0.996929 0.987983
1.00513 0.997421 0.987574
1.0051 0.996469 0.988196
1.00368 0.999302 0.987928
1.00026 1.00316 0.991039
1.00147 1.0047 0.987471
1.00017 1.00002 0.994173
1.00019 1.00031 0.993932
1.0001 1.00102 0.993532
1.00016 1.00127 0.992966
1.00009 1.00202 0.992538
0.999933 1.00285 0.991706
0.999855 1.0042 0.990887
1.00025 1.00165 0.992388
1.00015 1.0012 0.993061
1.00008 1.00256 0.991897
1.00508 0.996932 0.988098
1.00439 0.99724 0.98876
1.00019 1.00376 0.990624
1.00008 1.00435 0.990194
1.0031 1.0014 0.987996
1.00104 1.00493 0.987673
1.00009 1.0019 0.992573
1.00507 0.996603 0.988316
1.00003 1.0034 0.991197
1.00038 1.00434 0.989491
1.00513 0.995999 0.988651
1.00447 0.998169 0.98798
1.00173 1.00434 0.987283
1.00003 1.00282 0.991838
1.00517 0.995836 0.989544
1.00038 1.00382 0.990533
1.00086 1.00471 0.988774
1.00496 0.996195 0.988678
1.00271 1.0018 0.987479
1.00092 1.00007 0.991874
1.00009 1.00159 0.992898
1.00003 1.00213 0.992462
1.0001 1.00233 0.992121
1.00026 0.999953 0.994184
1.00014 1.00069 0.993628
1.00008 1.00122 0.993306
1.00006 1.00183 0.992677
1.00026 1.00001 0.994127
1.00019 1.00061 0.993617
1.00006 1.00209 0.992423
1.0001 1.00114 0.993325
1.00007 1.00165 0.992853
1.00007 1.00195 0.992532
1.00007 1.00142 0.993091
1.00016 1.00104 0.993336
1.00026 1.00062 0.993495
1.00027 1.00005 0.993991
1.00021 1.00065 0.993659
1.00025 1.00006 0.993996
1.00022 0.999019 0.995157
1.00022 0.998992 0.995177
1.00014 0.997207 0.997084
1.00023 0.998944 0.99522
1.00012 0.997183 0.997334
1.00002 0.996102 0.999366
1.0001 0.997198 0.997579
1.00004 0.996123 0.998518
1.00001 0.996136 0.998541
1.00021 0.998901 0.995302
1.00021 0.999016 0.995187
1.00009 0.997267 0.997113
1.00005 0.997421 0.99725
0.999937 0.996308 0.999349
1.00001 0.997615 0.996924
0.999876 0.996499 0.999318
0.999805 0.996721 0.999283
1.00503 0.997372 0.987645
1.00514 0.997787 0.987095
1.00511 0.998402 0.986583
1.00512 0.997842 0.987086
1.00514 0.997242 0.987664
1.00504 0.996527 0.988413
1.00511 0.996804 0.988092
1.0021 1.00006 0.988576
1.00523 0.995564 0.989362
1.00018 0.999959 0.994335
1.00509 0.997729 0.987319
1.00503 0.997521 0.987544
1.00504 0.997851 0.987067
1.00006 1.00319 0.991265
1.00087 1.00479 0.98817
1.00242 1.00289 0.986963
1.00466 0.997673 0.988095
1.00074 1.00193 0.99135
1 1.00175 0.992702
1.00001 1.0033 0.991152
1.0002 0.999172 0.995046
1.00014 1.00206 0.992319
1.00023 1.00041 0.993936
1.00018 1.0013 0.992988
1.00017 1.00016 0.99404
1.00512 0.996902 0.988025
1.00017 1.00001 0.994229
1.00019 1.00032 0.993927
1.00011 1.001 0.993436
1.00514 0.997236 0.987578
1.00504 0.996704 0.988119
1.00036 1.00278 0.991113
1.00124 1.00474 0.987455
1.00371 0.999461 0.987925
1.00016 1.00127 0.99303
1.00009 1.002 0.992517
1.0002 1.00199 0.992135
0.999858 1.00395 0.991043
0.999957 1.00288 0.991772
1.00515 0.996559 0.988378
1.00516 0.997859 0.987093
1.00477 0.99685 0.988471
1.00222 1.00238 0.988256
1.00024 1.00333 0.990856
1.00013 1.00081 0.99347
1.00012 1.00117 0.993193
1.00011 1.00154 0.993001
1.00005 1.00187 0.992629
1.00002 1.00251 0.992168
0.999845 1.00354 0.991318
0.999788 1.00422 0.990661
1.00008 1.00193 0.992556
1.00001 1.00331 0.99122
1.00509 0.99659 0.988344
1.00512 0.995908 0.988571
1.00452 0.998057 0.988077
1.00035 1.00431 0.989453
1.00162 1.00451 0.987395
1.00001 1.00276 0.991936
1.00516 0.995676 0.989529
1.00024 1.00379 0.990565
1.00063 1.00473 0.988901
1.00502 0.995881 0.988821
1.00269 1.00196 0.98744
1.0009 1.00009 0.990737
1.00009 1.00314 0.991426
1.00505 0.995463 0.990524
1.00008 1.00407 0.990572
1.00074 1.00459 0.988623
1.00332 0.998145 0.988748
1.00113 0.995475 0.963402
0.996319 1.00108 0.980641
1.00034 0.999977 0.993153
0.998465 0.99762 0.954017
0.994395 0.998269 0.952709
1.00003 1.00214 0.992458
1.00007 1.00235 0.99217
1.00014 1.00211 0.992324
1.00025 1 0.994124
1.00019 1.0006 0.993591
1.00011 1.00113 0.99332
1.00007 1.00167 0.992902
1.00006 1.0021 0.9924
1.00015 1.00104 0.993297
1.00026 1.00005 0.994041
1.00026 1.0006 0.993528
1.00007 1.00196 0.992536
1.00008 1.00141 0.993084
1.0001 1.00129 0.993104
1.00009 1.00155 0.992938
1.00024 1.00097 0.993188
1.0003 1.00063 0.993383
1.00025 1.00006 0.993987
1.00027 1.00063 0.993508
1.00023 1.00098 0.993291
1.00015 1.00073 0.993597
1.00021 1.00066 0.993597
1.00024 1.00005 0.994105
1.00025 1.00007 0.993993
1.00022 0.999028 0.995154
1.00022 0.999017 0.995156
1.00013 0.997256 0.997065
1.00022 0.998991 0.995178
1.00014 0.997211 0.997083
1.00003 0.996109 0.999359
1.00013 0.997208 0.997115
1.00004 0.996105 0.998933
1.00005 0.996089 0.998521
1.00021 0.998817 0.995381
1.00021 0.998895 0.995301
1.00011 0.997157 0.997179
1.00021 0.999016 0.995183
1.00008 0.99726 0.997329
0.999979 0.996187 0.999367
1.00005 0.997441 0.997017
0.999929 0.996358 0.999339
0.999869 0.99653 0.999309
1.00513 0.997245 0.987637
1.00513 0.997838 0.987075
1.00504 0.99666 0.98837
1.00197 0.998946 0.988697
1.0051 0.99682 0.988137
1.00524 0.99589 0.989249
1.00527 0.996858 0.988186
0.998429 0.999717 0.977601
1.00335 0.997026 0.98904
1.00018 0.999923 0.994364
1.00018 0.999949 0.994335
1.00011 1.00073 0.993681
1.0001 1.00068 0.99376
1.00512 0.996882 0.988068
1.00515 0.997151 0.987581
1.00499 0.99688 0.988042
1.00045 1.00242 0.991188
1.00101 1.00476 0.987439
1.00375 0.999659 0.987922
1.00015 1.00235 0.991878
0.99987 1.0037 0.991199
0.99998 1.00291 0.991839
1.00019 1.00033 0.993923
1.00008 1.00198 0.992496
1.00017 1.00128 0.993094
1.00018 1.00001 0.994285
1.00011 1.00098 0.993339
1.00502 0.996597 0.988413
1.00013 1.00082 0.993569
1.00011 1.00116 0.993232
1.00012 1.00151 0.992932
1.00517 0.997467 0.987194
1.0047 0.997001 0.988393
1.00031 1.00317 0.990839
1.00217 1.00264 0.988129
1.00007 1.0019 0.992622
0.999974 1.00249 0.992214
0.999815 1.00425 0.990665
0.999898 1.00371 0.991176
1.00523 0.996829 0.987937
1.00506 0.996783 0.987697
1.00331 0.999818 0.988549
1.00026 1.00392 0.990296
1.00013 1.00151 0.992832
1.00004 1.00172 0.992829
0.999995 1.00248 0.992159
0.999915 1.00429 0.9904
1.00019 0.995033 0.960971
0.999979 1.00269 0.992034
1.0001 1.00375 0.990596
1.00515 0.995489 0.989515
1.00506 0.995569 0.988964
1.00266 1.00212 0.987402
1.0004 1.0047 0.989027
1.00086 1.00008 0.989591
1 1.00317 0.99148
1.00505 0.99526 0.99045
1.00001 1.00406 0.990604
1.00067 1.0047 0.988612
1.00363 0.998161 0.988742
1.00104 0.99577 0.961152
0.996209 1.00088 0.977074
1.00028 1.00002 0.99347
0.997621 0.998112 0.954204
0.994386 0.998264 0.949224
0.999974 1.00297 0.991832
0.999408 0.995165 0.95469
0.994437 0.999871 0.953777
1.00427 0.995391 0.991338
0.999716 1.00444 0.990895
1.00095 1.00296 0.989638
0.999487 0.999781 0.995853
0.998325 0.998734 0.963859
0.994898 1.00109 0.976437
0.996829 0.99955 0.955805
0.994277 0.999374 0.959858
1.00004 1.00238 0.992219
1.00011 1.00214 0.992317
1.00007 1.00171 0.992957
1.00025 1.00005 0.994092
1.00026 1.00059 0.993561
1.00016 1.00104 0.993258
1.00009 1.00141 0.993078
1.00007 1.00198 0.99254
1.00026 1.00006 0.993988
1.0001 1.00129 0.993129
1.00024 1.00098 0.993224
1.0003 1.00062 0.993445
1.00009 1.00155 0.992927
1.00021 1.00119 0.992988
1.00016 1.0012 0.99317
1.00031 1.00088 0.9932
1.0003 1.00061 0.993484
1.00028 1.00063 0.993506
1.00023 1.00097 0.993258
1.00031 1.00088 0.993177
1.00014 1.0011 0.993258
1.00025 1.0011 0.993129
0.999975 1.00182 0.992815
1.00011 1.00087 0.993532
1.00015 1.00074 0.993597
1.00022 1.00008 0.994117
1.00022 1.00066 0.993535
1.00024 1.00006 0.994069
1.00021 0.999042 0.995151
1.00025 1.00008 0.993989
1.00022 0.999023 0.995154
1.00009 0.997282 0.99751
1.00022 0.999016 0.995156
1.00012 0.997248 0.997287
1.00007 0.996136 0.998468
1.00014 0.997215 0.997082
1.00003 0.996116 0.999357
1.00007 0.99611 0.9985
1.00019 0.999909 0.99436
1.00021 0.998776 0.995427
1.00021 0.998815 0.995382
1.00013 0.997079 0.997234
1.00021 0.998891 0.9953
1.00012 0.997149 0.997181
1.00001 0.996094 0.999382
1.00007 0.997274 0.997533
0.99999 0.996231 0.998923
0.999964 0.99639 0.998451
1.00171 0.997963 0.988816
1.00509 0.996846 0.988182
1.00526 0.996213 0.989138
0.997941 0.998969 0.979629
1.00321 0.997634 0.989275
1.00529 0.996283 0.988254
1.00476 0.997426 0.988848
0.998866 0.997365 0.981534
0.999579 0.995673 0.962775
0.997634 0.998012 0.954576
0.994462 0.998084 0.952668
1.00009 1.00071 0.99366
1.00018 0.999924 0.994363
1.00018 0.999943 0.994335
1.00011 1.00073 0.993653
1.00006 1.00123 0.993269
1.00011 1.00109 0.993364
1.00011 1.00072 0.993719
1.0001 1.0007 0.993718
1.00493 0.996601 0.988448
1.00518 0.996975 0.987295
1.00461 0.997186 0.988315
1.00039 1.00298 0.990824
1.00213 1.00278 0.988001
0.999841 1.00427 0.990669
0.99995 1.00387 0.991033
0.999928 1.00247 0.99226
1.0001 1.00114 0.993272
1.00008 1.00193 0.992615
1.00013 1.00083 0.993667
1.00013 1.00147 0.992864
1.00515 0.997035 0.987818
1.00011 1.0015 0.992907
1.00005 1.00172 0.992792
1.00501 0.997077 0.987695
1.00296 0.999533 0.988898
1.00037 1.00393 0.990039
1.00003 1.0025 0.992105
0.999924 1.0044 0.990402
1.00428 1.00061 0.987199
1.00428 0.996664 0.989841
1.00075 1.00204 0.989957
1.00008 1.0039 0.990802
1.00008 1.00162 0.992747
1.0001 1.00209 0.992379
1.00002 1.00299 0.991577
0.999053 0.994859 0.953085
1.00076 0.995092 0.965544
0.999932 1.0032 0.991533
0.999954 1.00409 0.990636
1.00503 0.995092 0.990378
1.00397 0.998242 0.988736
1.0006 1.00484 0.988601
1.00079 0.995429 0.960525
0.996214 1.00093 0.978258
1.00005 1.00006 0.993793
0.997506 0.997685 0.95612
0.99436 0.998266 0.945726
0.999934 1.00299 0.991827
0.999402 0.995238 0.952867
0.994456 0.999956 0.95232
1.00446 0.9958 0.991247
0.999628 1.0044 0.990939
1.00084 1.00271 0.989787
0.99969 0.998698 0.996449
0.998516 0.998756 0.96154
0.995103 1.0022 0.979165
0.99646 0.999743 0.955245
0.994367 0.999604 0.957968
0.999804 1.00273 0.992453
0.994292 1.0003 0.957187
0.994463 1.00282 0.971533
1.00159 0.998279 0.993959
0.999407 1.00408 0.992119
0.998297 1.00151 0.996978
0.996181 1.00079 0.983209
0.996015 1.0008 0.961117
0.995895 0.999615 0.957291
0.994935 0.998483 0.96649
1.00008 1.00217 0.99231
1.00006 1.00176 0.992869
0.999832 1.00102 0.993787
1.00026 1.00007 0.993988
1.0003 1.0006 0.993507
1.00024 1.00099 0.99326
1.00009 1.00129 0.993154
1.00009 1.00155 0.992916
1.0003 1.0006 0.993485
1.0002 1.00124 0.993023
1.00031 1.00087 0.993195
1.00012 1.00115 0.993266
1.00017 1.00055 0.993904
1.00033 1.00086 0.993164
1.00034 1.00085 0.993165
1.00028 1.00063 0.993505
1.00023 1.00095 0.993225
1.0003 1.00089 0.993179
1.00014 1.0011 0.993254
1.00025 1.00107 0.993121
1.00006 1.00134 0.993142
1.0003 1.00099 0.99309
1.00017 1.00126 0.993056
1.00003 1.00247 0.992066
0.999802 1.00381 0.991106
0.999913 1.00237 0.992273
0.999966 1.00188 0.992798
1.00008 1.0011 0.993366
1.00011 1.00089 0.993526
1.00019 1.00014 0.99411
1.00015 1.00076 0.993596
1.00022 1.00008 0.994116
1.00019 0.999084 0.995145
1.00024 1.00006 0.994032
1.00021 0.999038 0.995152
1.00007 0.997325 0.997515
1.00022 0.999019 0.995154
1.0001 0.997276 0.997291
1.00004 0.996143 0.998474
1.00013 0.997237 0.997066
1.00002 0.996137 0.999353
1.00003 0.99612 0.999355
1.00019 0.999969 0.994456
1.0002 0.998788 0.995422
1.00018 0.999922 0.994358
1.00013 0.997049 0.997264
1.00021 0.998777 0.995427
1.00021 0.998811 0.995382
1.00013 0.997083 0.997232
1.00002 0.996032 0.999394
1.0001 0.997149 0.997599
1.00002 0.996109 0.998953
1.00001 0.996238 0.998495
0.998957 0.995938 0.953333
0.994354 0.999103 0.95628
0.998206 0.997953 0.98109
1.00307 0.998429 0.989507
1.00531 0.995774 0.988319
0.998688 0.997306 0.984286
1.00475 0.997717 0.988819
1.00008 0.995227 0.964648
0.997759 0.997677 0.953698
0.994396 0.998035 0.948988
1.00001 0.997046 0.988344
0.997765 0.998086 0.96631
0.99653 0.999878 0.955523
0.994517 0.999572 0.957108
1.00011 1.00128 0.993135
1.0001 1.0007 0.993691
1.00018 0.999918 0.994363
1.00011 1.00074 0.993625
1.00005 1.0012 0.993326
1.0001 1.00128 0.993177
1.00012 1.00108 0.993341
1.00014 1.00092 0.993433
1.00012 1.00072 0.993671
1.0001 1.0007 0.993676
1.00501 0.997229 0.987703
1.00489 0.99735 0.987697
1.00261 0.999217 0.98925
1.00047 1.00395 0.989783
0.999938 1.00448 0.990405
1.00007 1.00254 0.992051
1.00007 1.00173 0.992755
1.00008 1.00149 0.992982
1.00436 0.999851 0.987221
1.0001 1.00164 0.992729
1.00011 1.00207 0.992336
1.00408 0.996773 0.989812
1.00067 1.00255 0.990057
1.00017 1.00387 0.990496
1.00005 1.00297 0.991601
1.0014 1.00357 0.989884
1.00131 0.999337 0.992976
0.999971 1.00301 0.991621
1.00008 1.00183 0.992634
1.00018 1.00188 0.992356
1.00023 1.00231 0.99192
0.994953 0.999173 0.961731
0.999201 0.995379 0.954217
1.00042 0.995162 0.960357
0.999893 1.00303 0.991822
0.999549 1.00435 0.990985
1.00475 0.996124 0.991153
1.0007 1.00247 0.989931
0.999402 0.995263 0.954337
0.998202 0.998748 0.96332
0.995049 1.00185 0.976319
0.999857 0.997422 0.996983
0.996702 0.999892 0.954002
0.994484 1.00001 0.952293
0.994606 0.999679 0.957444
0.999726 1.00275 0.992456
0.994275 1.00009 0.958571
0.994342 1.00306 0.971348
1.00178 0.998344 0.993752
0.999182 1.00396 0.992169
0.998505 0.999298 0.998691
0.996066 1.00122 0.979304
0.996131 1.00183 0.964118
0.99673 0.999077 0.956931
0.995284 0.998653 0.966225
0.999258 1.00189 0.994535
0.995323 1.00198 0.976353
0.996774 1.00243 0.979221
0.997744 1.00155 0.997008
0.996826 1.00101 0.988905
0.995743 1.00082 0.963717
0.994951 0.999874 0.959231
0.996699 0.998704 0.96441
1.00004 1.0018 0.992783
0.999908 1.00096 0.993869
0.99958 0.999908 0.995274
1.0003 1.0006 0.993486
1.00032 1.00085 0.99319
1.00019 1.00128 0.993058
1.00008 1.00109 0.993362
1.00033 1.00085 0.993168
1.00031 1.0009 0.993143
1.00016 1.00036 0.994009
0.99986 1.00014 0.994785
1.00035 1.00035 0.993653
1.00033 1.00086 0.993117
1.0003 1.00089 0.993182
1.00014 1.00109 0.993251
1.00025 1.00104 0.993113
1.0003 1.00099 0.993091
1.00005 1.00139 0.993129
1.00018 1.00123 0.993065
1.00007 1.00166 0.992823
1.00023 1.00109 0.993103
0.99994 1.00261 0.992122
1.00004 1.00244 0.992123
0.999793 1.00358 0.991348
1.00015 1.00414 0.99022
0.999984 1.00294 0.991835
0.999778 1.00368 0.991289
0.999921 1.00238 0.992381
1.00005 1.00149 0.992934
0.999957 1.00193 0.992781
1.00008 1.00112 0.993356
1.00017 1.00025 0.994044
1.00011 1.0009 0.993521
1.00019 1.00014 0.994107
1.00016 0.999172 0.995126
1.00023 1.00008 0.994115
1.00019 0.999079 0.995146
1.00003 0.997396 0.997515
1.00021 0.999032 0.995153
1.00007 0.997325 0.997295
1 0.996212 0.998477
1.00012 0.997263 0.99707
1.00002 0.996156 0.998913
1.00002 0.996142 0.999353
1.00019 1.00008 0.994231
1.00019 0.998861 0.995374
1.00018 0.999972 0.994342
1.00012 0.997074 0.997258
1.0002 0.998791 0.995423
1.00018 0.99994 0.994357
1.00003 0.996013 0.999399
1.00013 0.997048 0.997264
1.00021 0.998777 0.995427
1.00013 0.997086 0.99723
1.00002 0.996041 0.999391
1.00001 0.996104 0.999378
0.994387 0.999134 0.961555
0.998976 0.995412 0.953687
0.994293 1.00306 0.970901
0.994376 0.999441 0.954952
0.999274 0.997265 0.980113
1.00476 0.997926 0.988749
0.999754 0.995578 0.966307
0.998189 0.998131 0.955376
0.994324 0.99818 0.945301
0.999533 0.997898 0.986454
0.998507 0.997701 0.961235
0.996562 0.999742 0.954483
0.994502 0.999412 0.955638
0.996302 0.99872 0.986478
0.997328 1.00011 0.961165
0.995537 0.999789 0.955431
0.995569 0.999257 0.962779
1.00012 1.00165 0.992791
1.0001 1.00128 0.993179
1.00011 1.0007 0.993722
1.00005 1.00118 0.993381
1.00014 1.00153 0.9928
1.0001 1.00126 0.993219
1.00012 1.00108 0.993319
1.00017 1.00101 0.993357
1.00014 1.00091 0.9935
1.00013 1.00071 0.993623
1.00445 0.999207 0.987246
1.00391 0.996949 0.989779
1.00063 1.00304 0.990156
1.00027 1.00384 0.990192
1.00007 1.00297 0.991624
1.00012 1.00205 0.992294
1.00012 1.00166 0.992712
1.00009 1.00184 0.992627
1.00191 1.00193 0.99015
1.00017 1.00192 0.992396
1.00024 1.00227 0.99194
1.00134 0.99946 0.992592
1.0002 1.0027 0.991617
0.999121 1.00123 0.994566
0.999602 1.00045 0.995436
1.00026 1.0016 0.992254
1.00021 1.00183 0.992386
1.00027 1.00217 0.99193
0.996638 1.00086 0.978335
0.994949 0.999757 0.961739
0.999066 0.995884 0.953169
0.999653 1.00279 0.992457
0.998984 1.00391 0.992221
1.0018 0.998455 0.993569
0.994203 0.999836 0.960683
0.996849 1.00088 0.960734
0.996099 1.00082 0.981299
0.99901 0.998153 1.00053
0.995848 0.999451 0.957169
0.994075 1.00341 0.971176
0.995433 0.998782 0.96654
0.999191 1.002 0.994407
0.994885 1.0015 0.978906
0.996713 1.00283 0.979461
0.997696 1.00218 0.997238
0.996542 1.00081 0.98894
0.996079 1.00111 0.960399
0.996299 0.998525 0.966351
0.994889 0.999563 0.959434
0.997816 1.00147 0.997655
0.999899 1.00272 0.984646
0.997687 1.00244 0.980849
0.995753 0.998671 0.963086
0.995003 1.00237 0.997205
0.995637 0.998966 0.966735
0.994586 1.00001 0.960614
0.999999 1.00087 0.99395
0.999722 1.00003 0.994963
0.999136 0.999386 0.996603
1.00034 1.00085 0.99317
1.00029 1.00095 0.993122
1.00018 1.00013 0.994115
1.00034 1.00088 0.993108
1.00034 1.00031 0.993644
1.00003 0.999915 0.994667
0.999551 0.99995 0.995339
1.00038 1.00064 0.99328
1.00029 1.001 0.993092
1.00004 1.00143 0.993117
1.00019 1.00119 0.993074
1.00023 1.00109 0.993087
1.00009 1.0016 0.992883
0.999751 1.00205 0.993004
0.999866 1.00266 0.992181
0.999837 1.004 0.990832
1.00006 1.00242 0.99218
0.99992 1.00355 0.991297
1.00007 1.00458 0.989652
1.00014 1.00436 0.989963
1.00002 1.00331 0.991325
1.00009 1.00418 0.990227
1.00006 1.00201 0.99251
0.999987 1.00297 0.991743
0.999753 1.00355 0.991472
0.999929 1.00239 0.992489
1.00005 1.00146 0.993019
1.00014 1.00047 0.993864
1.00008 1.00114 0.993347
1.00016 1.00027 0.994039
1.00011 0.99929 0.995085
1.0002 1.00015 0.994105
1.00016 0.99916 0.995128
0.999966 0.997513 0.997501
1.0002 0.999072 0.995147
1.00003 0.997404 0.997294
0.999953 0.996308 0.998478
1.00009 0.997315 0.997075
0.999989 0.996219 0.998915
0.999996 0.996183 0.999354
1.00021 1.00025 0.993886
1.00017 0.999011 0.995112
1.00019 1.00009 0.994227
1.0001 0.997164 0.99721
1.00019 0.998872 0.995291
1.00017 0.999975 0.994229
1.00001 0.996042 0.999395
1.00012 0.99707 0.997259
1.0002 0.998792 0.995424
1.00003 0.996014 0.999398
1.00013 0.997049 0.997263
1.00002 0.99605 0.999388
0.99571 1.00156 0.977671
0.994417 0.998845 0.960954
0.998934 0.995379 0.954296
1.00022 1.00101 0.993191
0.995698 1.00286 0.981529
0.994199 1.00291 0.970759
0.994359 0.999558 0.954965
0.999326 0.998883 0.9847
0.998422 0.998208 0.966146
0.996553 0.999904 0.953337
0.994604 0.999079 0.954882
0.996122 0.999525 0.981829
0.996184 1.00049 0.964924
0.996758 0.999789 0.956574
0.995596 0.999305 0.962121
0.995436 1.00136 0.977789
0.995473 1.00004 0.961655
0.995067 0.999795 0.959221
0.996358 0.99902 0.964319
1.00017 1.00179 0.992519
1.00012 1.00167 0.992768
1.00009 1.00128 0.993224
1.00018 1.00149 0.992806
1.00013 1.00153 0.992883
1.0001 1.00124 0.993261
1.00018 1.00101 0.993372
1.00015 1.0009 0.993567
1.00239 1.00031 0.990416
1.00139 0.999627 0.992208
1.00009 1.00184 0.992619
1.00042 1.0025 0.991613
1.00026 1.0022 0.99196
1.00016 1.00196 0.992436
1.0002 1.00188 0.992409
0.999934 1.00067 0.994869
1.00025 1.00215 0.992032
1.00038 1.00168 0.992259
0.999729 0.99971 0.995387
1.00024 1.00174 0.992543
0.997998 0.999097 0.997948
0.998673 1.00192 0.995907
1.00031 1.00127 0.992465
1.00027 1.00176 0.992407
1.00142 1.00244 0.984334
0.996749 1.00138 0.978183
0.994925 1.00032 0.961757
0.999098 1.00212 0.994284
0.997652 1.00215 0.997433
0.99447 1.00105 0.981439
0.995915 0.999855 0.964398
0.996533 1.00031 0.984692
0.994981 0.999799 0.958967
0.99678 1.0032 0.979702
0.995981 0.998515 0.968293
0.997952 1.00165 0.997045
0.999652 1.00281 0.984994
0.997889 1.00221 0.982367
0.995395 1.0031 0.999835
0.995859 0.998887 0.962146
0.99504 0.999195 0.96462
0.994694 0.999891 0.959824
0.996727 1.00131 0.999683
1.0029 1.00298 0.983349
0.995754 1.00215 0.982301
0.99456 0.999275 0.95718
0.994957 0.999757 0.95902
0.995539 0.999049 0.99677
0.995332 1.00012 0.960832
0.999844 1.0002 0.994659
0.999242 0.999675 0.99646
0.998164 0.998912 0.99931
1.00034 1.00092 0.993098
1.00033 1.0003 0.993634
1.00017 0.99979 0.994549
1.00033 1.00075 0.993254
0.99969 0.999612 0.99537
0.999416 1.00175 0.993888
1.00023 1.00111 0.993071
1.00011 1.00153 0.992942
0.99989 1.00205 0.992873
0.999349 1.0041 0.991606
0.999789 1.0027 0.992239
0.999725 1.0039 0.991064
1.00018 1.00496 0.989351
1.00078 1.00459 0.988588
1.00005 1.00351 0.991246
1.00019 1.00469 0.989421
1.00033 1.00399 0.990308
0.999898 1.00381 0.990831
1.00015 1.00422 0.99011
1.00006 1.00242 0.992113
1.00005 1.00329 0.99131
1.00003 1.00422 0.990234
1.00013 1.00084 0.993527
1.00006 1.00199 0.992483
0.99999 1.00299 0.991652
1.00006 1.00143 0.993104
1.00014 1.00049 0.993855
1.00007 0.999467 0.994998
1.00016 1.00028 0.994034
1.00012 0.999284 0.995085
0.999919 0.997672 0.997029
1.00017 0.999149 0.995129
0.999986 0.997519 0.997062
0.999847 0.996427 0.999354
1.00005 0.997396 0.997075
0.99994 0.99631 0.998915
0.999959 0.996249 0.999354
1.00024 1.00032 0.993756
1.00016 0.999197 0.994933
1.00022 1.00025 0.993948
1.00007 0.997306 0.997127
1.00017 0.999023 0.995091
1.0002 1.00009 0.994223
0.999989 0.996123 0.999381
1.0001 0.997155 0.997213
1.00018 0.998882 0.995207
1.00002 0.996034 0.999397
1.00012 0.997066 0.99726
1.00003 0.996015 0.999397
1.00033 1.00238 0.983918
0.995594 1.00191 0.977779
0.994376 0.998785 0.961065
1.00021 1.00103 0.993212
1.00024 1.00107 0.993074
1.00015 1.00151 0.992881
0.997559 1.00357 0.979885
0.99549 1.00259 0.981756
0.994111 1.00276 0.970598
0.995552 1.0003 0.985311
0.996771 1.00013 0.960969
0.995633 0.99981 0.956375
0.995486 0.999349 0.96199
0.995258 1.0005 0.981664
0.996093 1.00065 0.962154
0.995161 0.99991 0.960423
0.996097 0.999159 0.966115
0.995508 1.00125 0.97898
0.995026 1.00004 0.964897
0.994517 0.999957 0.961322
0.994815 0.998786 0.966232
1.00024 1.0017 0.992507
1.00017 1.0018 0.992503
1.00011 1.00168 0.992745
1.00017 1.0015 0.992801
1.00012 1.00153 0.992967
1.00019 1.00101 0.993388
1.00066 1.00001 0.995163
0.999696 0.999022 0.99534
1.00018 1.00196 0.992433
1.00051 1.00158 0.992264
1.00023 1.00218 0.992134
1.00026 1.00168 0.992471
1.00023 1.00178 0.992456
0.998223 1.00015 0.998036
1.00027 1.00128 0.992715
0.998427 1.00139 0.996897
1.0002 1.00135 0.992951
0.996633 0.998954 0.999535
0.998374 1.00045 0.998545
1.00005 1.00141 0.993042
1.00526 1.00351 0.981741
1.00214 1.00261 0.983657
0.996858 1.00194 0.978029
0.998105 1.00177 0.996423
0.995955 1.00138 0.998655
0.999405 1.00289 0.985343
0.995405 0.999616 0.971264
0.994595 0.999933 0.960463
0.998044 1.00193 0.983884
0.995761 0.999142 0.962039
0.996944 1.00137 0.99966
1.00369 1.0026 0.982717
0.995533 1.00185 0.982509
0.995102 1.00011 0.99142
0.994578 0.999406 0.955545
0.995396 0.999846 0.959527
0.99515 1.00008 0.965631
0.996126 1.0009 1.00238
1.0007 1.00201 0.983866
0.99439 1.00306 0.971
0.99452 0.997939 0.952474
0.995206 0.999791 0.955716
0.995206 1.00005 0.964645
0.99539 0.999191 0.987581
0.999342 1.00001 0.996322
0.99829 0.998655 0.999211
0.998561 1.00005 0.997833
1.00029 1.00084 0.993229
0.999833 0.99924 0.9954
0.999262 1.00185 0.994058
0.999099 1.00337 0.992918
1.00004 1.00208 0.992743
0.999676 1.00407 0.991343
1.00015 1.00509 0.989262
0.9996 1.00381 0.991297
1.0002 1.00498 0.989304
1.00113 1.00497 0.987823
1.0015 1.00453 0.987474
1.0005 1.00382 0.989716
1.00078 1.00458 0.98854
1.00031 1.00481 0.989191
1.0003 1.00346 0.990762
1.00023 1.00382 0.990463
0.999982 1.0031 0.99145
0.999953 1.00376 0.990933
1.00016 1.00407 0.990257
1.00013 1.00134 0.993033
1.00007 1.0024 0.99212
1.00009 1.00328 0.991295
1.00002 0.999731 0.994812
1.00013 1.00085 0.99352
1.00005 1.00196 0.992457
1.00014 1.00051 0.993845
1.00007 0.999466 0.994995
0.999844 0.997873 0.996968
1.00012 0.999277 0.995084
0.999923 0.997676 0.997027
0.999793 0.996584 0.999342
0.999992 0.997516 0.997061
0.999872 0.996445 0.99891
0.99991 0.996344 0.999352
1.00025 1.0004 0.993737
1.00016 0.999343 0.994929
1.00023 1.00033 0.993795
1.00003 0.997485 0.997027
1.00016 0.999206 0.994994
1.00023 1.00025 0.99401
0.999951 0.996247 0.99936
1.00007 0.997296 0.997132
1.00017 0.999038 0.995071
0.999993 0.996105 0.999386
1.0001 0.997146 0.997216
1.00002 0.996026 0.999399
1.00269 1.00366 0.982752
1.00017 1.00231 0.984234
0.995485 1.00211 0.977925
1.00022 1.00119 0.992969
1.00014 1.00179 0.992623
1.0002 1.00106 0.993232
1.00023 1.00109 0.993061
1.00016 1.00149 0.992835
1.00016 1.00157 0.992797
1.00014 1.00173 0.992639
0.996476 1.00309 0.978905
0.997697 1.00335 0.981388
0.995273 1.00229 0.981982
0.995787 0.999239 0.967912
0.994814 1.00029 0.978551
0.995957 1.00102 0.963046
0.994646 0.999906 0.959413
0.995458 0.999682 0.977587
0.995199 1.00007 0.961708
0.994647 0.999882 0.960768
0.995075 0.998999 0.965998
0.99547 0.997834 0.984061
0.995094 1.00011 0.961452
0.995252 0.99986 0.959264
0.994266 0.999124 0.959805
1.00023 1.00152 0.992765
1.00023 1.00166 0.992501
1.00016 1.0018 0.992488
1.00017 1.00151 0.992795
0.998631 1.00144 0.9981
0.998313 1.0009 0.997871
1.00029 1.00159 0.992398
1.0002 1.00177 0.992506
1.00023 1.00138 0.992964
1.00021 1.00136 0.992885
1.00003 1.00146 0.992979
0.99628 1.00049 0.9985
0.998105 1.0005 0.998915
0.999879 1.0014 0.993326
0.995819 0.997908 1.00012
0.998647 1.00178 0.996765
1.00154 1.00247 0.984182
1.00663 1.00308 0.980028
1.00286 1.00278 0.98298
0.997204 1.00144 0.999637
0.995513 0.999194 0.997227
1.00445 1.00226 0.982085
0.99544 1.00011 0.961176
0.99472 0.999907 0.958911
0.995304 1.00154 0.982717
0.994774 0.999294 0.955039
0.996175 1.00067 1.00255
1.00054 1.00186 0.984195
0.994283 1.0028 0.970863
0.995056 0.999168 0.992029
0.99445 0.998109 0.948973
0.996592 0.999837 0.956748
0.995357 1.00009 0.962732
0.996486 1.00126 0.99991
0.996168 1.00155 0.977175
0.994454 0.999223 0.956442
0.99676 1.00002 0.955175
0.995724 1.00069 0.964679
0.994851 0.999792 0.981909
0.998471 0.998401 0.999104
0.998371 1.00036 0.997832
1 0.99882 0.997034
0.99909 1.00197 0.994227
0.998764 1.00345 0.993146
1.00036 1.00382 0.990042
1.00002 1.00401 0.991078
1.00032 1.00509 0.989063
1.00142 1.00433 0.987548
1.00024 1.00499 0.989257
1.00116 1.00497 0.987705
1.00189 1.00402 0.986958
1.00232 1.00315 0.987159
1.00142 1.00396 0.988347
1.00153 1.00455 0.987291
1.0005 1.00308 0.990358
1.00051 1.00378 0.989793
1.00078 1.00456 0.988493
1.00029 1.00318 0.990955
1.00027 1.00351 0.990729
1.00014 1.00365 0.990619
1.00014 1.00192 0.992405
1.00001 1.00302 0.991557
1.00001 1.00371 0.991036
1 1.00012 0.994454
1.00013 1.00132 0.993034
1.00008 1.00237 0.992127
0.99978 0.998092 0.996882
1.00002 0.99974 0.994805
1.00013 1.00086 0.993513
1.00007 0.999464 0.994992
0.99985 0.997879 0.996964
0.999711 0.996773 0.999327
0.999927 0.997681 0.997025
0.999783 0.996612 0.999338
0.999847 0.996472 0.999346
1.00021 1.00131 0.99293
1.00026 1.0005 0.993628
1.00015 0.999473 0.99482
1.00026 1.00039 0.993736
0.999978 0.997675 0.996929
1.00016 0.999357 0.994929
1.00022 1.00034 0.993834
0.999902 0.996403 0.999336
1.00003 0.997474 0.997033
1.00017 0.999213 0.995055
0.999956 0.996224 0.999366
1.00007 0.997285 0.997137
0.999997 0.996088 0.99939
0.999777 1.00296 0.984574
1.00348 1.00338 0.982215
1.00002 1.00224 0.984549
1.00022 1.00119 0.992998
1.00014 1.0018 0.992577
1.0001 1.00216 0.992244
1.00013 1.00171 0.992631
1.00011 1.00216 0.99234
1.00023 1.00109 0.993049
1.00017 1.00148 0.992788
1.00014 1.00158 0.992801
1.00019 1.00171 0.992583
1.0001 1.00183 0.992678
0.994471 1.00266 0.971477
0.996513 1.00339 0.979147
0.997908 1.0033 0.982891
0.995305 0.999155 0.966374
0.994535 0.999868 0.961214
0.994986 0.99954 0.975912
0.994984 1.00008 0.964554
0.995396 0.997141 0.979216
0.995112 1.00005 0.964597
0.994716 0.999816 0.959746
0.994333 0.999325 0.957899
0.995364 0.994808 0.983895
0.995161 1.00003 0.96517
0.996053 0.999926 0.956713
0.994418 0.998242 0.952197
0.999825 1.00126 0.993649
1.00018 1.0016 0.992737
1.00023 1.00163 0.992496
0.995879 1.00183 0.997492
0.997814 1.0004 0.99931
1.00023 1.00136 0.992819
1.00001 1.00156 0.992917
0.999886 1.00134 0.993366
0.998501 1.00164 0.996515
0.995704 0.997598 1.0002
0.998599 1.00216 0.995074
0.996602 1.00054 0.997398
0.996358 1.00129 0.977981
1.00223 1.00253 0.983577
1.00802 1.00268 0.978315
0.996174 1.00048 1.00271
0.994938 0.999184 0.98544
1.00039 1.00172 0.984525
0.995583 1.00006 0.960927
0.99544 0.999842 0.957186
0.994182 1.00253 0.970716
0.994382 0.998232 0.945467
0.996498 1.00105 1.00015
0.996027 1.00183 0.977309
0.994482 0.999391 0.955081
0.994909 0.999634 0.983972
0.996408 0.999968 0.954554
0.995682 1.00001 0.961687
0.99793 0.99992 0.996535
0.994531 0.999146 0.961616
0.997314 0.998018 0.954559
0.997445 1.00114 0.960858
0.99494 1.00003 0.983677
0.99825 1.0006 0.997822
0.99981 0.998705 0.997069
1.00181 0.999118 0.992667
0.998441 1.0035 0.993374
0.999996 1.00388 0.990358
1.0023 1.00129 0.98849
1.00049 1.0051 0.988864
1.00147 1.00417 0.987576
1.00285 1.00183 0.987485
1.00118 1.00498 0.987586
1.00189 1.00399 0.987002
1.00301 1.00147 0.987418
1.00309 1.001 0.98775
1.00194 1.00317 0.987707
1.0023 1.00302 0.987199
1.00116 1.00328 0.989318
1.00134 1.00404 0.988174
1.00154 1.00457 0.987109
1.00056 1.00271 0.990845
1.00049 1.00306 0.990485
1.00052 1.00373 0.98987
1.00027 1.0023 0.991807
1.00027 1.00316 0.991006
1.00024 1.00357 0.990696
1 1.00071 0.993872
1.00016 1.00191 0.992406
1.00003 1.00294 0.991664
0.999694 0.998392 0.997186
0.999996 1.00014 0.994442
1.00014 1.00131 0.993034
0.999642 0.997025 0.998353
0.999776 0.998124 0.997091
1.00002 0.999749 0.994798
0.999856 0.997886 0.99696
0.9997 0.996811 0.99932
0.999772 0.996643 0.999333
1.00017 1.00165 0.992611
1.00026 1.00067 0.993457
1.0002 1.00135 0.992892
1.00011 0.99962 0.994745
1.00026 1.00051 0.993629
0.999922 0.997858 0.996848
1.00014 0.999495 0.994819
1.00026 1.00041 0.993736
0.999843 0.996577 0.999312
0.999974 0.99767 0.996933
1.00015 0.999378 0.994928
0.999908 0.996375 0.999343
1.00002 0.997464 0.997038
0.999962 0.996198 0.999373
0.995408 1.00121 0.980688
0.999529 1.00305 0.984884
1.00423 1.00315 0.981678
1.00005 1.00247 0.992097
1.00022 1.00122 0.993026
1.00015 1.00181 0.992531
1.00014 1.00172 0.992668
1.00013 1.00211 0.992292
1.00012 1.00214 0.992297
1.0001 1.00245 0.992015
1.00004 1.00215 0.992337
1.00012 1.00159 0.992804
1.00022 1.00169 0.992526
1.00008 1.00185 0.992653
1.00003 1.00219 0.992744
0.99444 0.9998 0.953501
0.994312 1.00296 0.97128
0.996486 1.00366 0.979386
0.99445 0.999554 0.957117
0.995277 0.999808 0.959646
0.995109 1.00012 0.961548
0.995102 0.996348 0.981335
0.995297 0.994806 0.987048
0.9944 0.998235 0.948806
0.99502 1.00008 0.96171
0.996514 0.999842 0.955993
0.995383 0.997168 0.986995
0.995899 0.999993 0.966069
0.996851 0.99993 0.954316
0.999387 1.00095 0.994714
0.999938 1.00121 0.993649
1.00013 1.00168 0.992709
0.995555 0.997291 1.00022
0.998584 1.00138 0.996278
0.999858 1.00128 0.993405
0.999023 1.00206 0.994893
0.99629 1.00071 0.997572
0.998017 1.00121 0.994987
0.994773 1.00007 0.957089
0.996775 1.0012 0.980187
1.00292 1.0026 0.982972
0.996429 1.00094 1.00044
0.994943 0.999616 0.985358
0.995943 1.00204 0.977476
0.99565 0.99988 0.964083
0.996685 0.999973 0.953252
0.994449 0.999494 0.955146
0.997729 0.9998 0.996641
0.994596 0.998881 0.960977
0.997534 0.998069 0.953966
0.994855 1.00017 0.979308
0.996054 1.00081 0.964266
0.998818 0.999427 0.996611
0.998869 0.995955 0.953602
0.997407 1.00034 0.964579
0.995025 1.00082 0.977466
0.999544 0.998598 0.997114
1.00141 0.998831 0.993479
1.00342 0.996892 0.991237
0.999634 1.00398 0.990674
1.00234 1.00134 0.988472
1.00415 0.997519 0.988882
1.00151 1.00402 0.987605
1.00277 1.0017 0.987548
1.00402 0.998415 0.988462
1.0019 1.00395 0.987046
1.00303 1.00133 0.987435
1.00387 0.998761 0.98848
1.00352 0.999324 0.988705
1.0027 1.00154 0.987959
1.00308 1.00092 0.987845
1.00158 1.00276 0.988578
1.00196 1.00312 0.987826
1.00229 1.00289 0.987238
1.00083 1.00273 0.990331
1.00103 1.00329 0.989333
1.00125 1.00411 0.987999
1.0005 1.00224 0.991456
1.00059 1.00272 0.990835
1.00048 1.00304 0.990611
1.00005 1.00134 0.993187
1.00029 1.00228 0.99182
1.00024 1.00315 0.991058
0.999646 0.998753 0.996442
1 1.0007 0.99386
1.00018 1.0019 0.992408
0.99951 0.99729 0.999274
0.999706 0.998435 0.996678
0.999991 1.00015 0.994431
0.999618 0.997021 0.999299
0.999784 0.998139 0.996848
0.999689 0.99685 0.999314
1.00011 1.00203 0.992442
1.00018 1.00164 0.992616
1.00023 1.00098 0.993197
1.00007 0.999776 0.994665
1.00025 1.00067 0.993461
1.0002 1.00137 0.992853
0.999863 0.998031 0.99679
1.00011 0.999622 0.994746
1.00026 1.0005 0.99363
0.999777 0.996754 0.999292
0.999917 0.997856 0.99685
1.00014 0.99951 0.994819
0.999849 0.99655 0.999319
0.999969 0.997663 0.996938
0.999914 0.996347 0.99935
0.994591 1.00016 0.957073
0.99521 1.00126 0.980817
0.999306 1.00314 0.985194
1.00003 1.00253 0.992049
1.00005 1.00286 0.991785
1.00003 1.00277 0.991826
1.00015 1.00172 0.992705
1.00014 1.00206 0.99234
1.0001 1.00212 0.992255
1.00006 1.00216 0.992309
1.00008 1.00247 0.991987
0.99994 1.00304 0.991778
1.00013 1.00173 0.992558
1.00007 1.00187 0.992628
0.999979 1.00205 0.992753
0.998456 0.998278 0.952969
0.994448 0.999998 0.95211
0.994089 1.00312 0.97111
0.994362 0.998231 0.945397
0.9954 0.999866 0.956334
0.995592 1.00011 0.96559
0.995252 0.994787 0.983454
0.995301 0.997185 0.983779
0.996504 0.999343 0.954051
0.995704 1.00005 0.963392
0.996451 0.997022 0.98337
0.997138 1.00095 0.96047
1.00089 1.00079 0.992788
0.999562 1.0008 0.99461
1.00004 1.00116 0.993651
0.995951 1.00098 0.997728
0.999355 1.00199 0.994703
0.998725 1.00152 0.994477
1.00149 0.999667 0.990678
0.999057 0.99491 0.953177
0.994788 1.00026 0.959506
0.997224 1.00109 0.982376
0.997598 0.999585 0.996794
0.994988 0.999986 0.98084
0.994524 0.998795 0.961102
0.996416 1.00123 0.960499
0.998177 0.99934 0.955356
0.99873 0.999623 0.995781
0.998913 0.995885 0.953773
0.998549 0.999083 0.960273
0.994911 1.00102 0.980712
0.999464 0.999567 0.995661
0.999482 0.997209 0.961825
0.996431 0.999688 0.983223
1.00103 0.998516 0.994289
1.00321 0.996998 0.991147
1.0049 0.994888 0.990129
1.00238 1.0013 0.988452
1.00411 0.997609 0.988837
1.00476 0.995645 0.989556
1.0027 1.00157 0.987611
1.00404 0.998367 0.988421
1.00476 0.996203 0.989077
1.00304 1.00119 0.987453
1.00384 0.998738 0.988459
1.00426 0.997322 0.98913
1.0038 0.99849 0.989171
1.00351 0.999195 0.988814
1.00315 1.00002 0.988647
1.00242 1.00165 0.988444
1.00271 1.00158 0.98798
1.00308 1.00084 0.987939
1.00131 1.0025 0.989439
1.00161 1.00278 0.988711
1.00199 1.00307 0.987944
1.00069 1.00221 0.991101
1.00086 1.00273 0.990311
1.00092 1.0033 0.989349
1.00015 1.0016 0.992692
1.00053 1.00222 0.99146
1.00062 1.00272 0.990824
0.999622 0.999174 0.996029
1.00006 1.00127 0.993187
1.00031 1.00227 0.991833
0.999475 0.99753 0.999219
0.999646 0.998796 0.996417
1.00001 1.00069 0.993848
0.999535 0.997312 0.998775
0.999716 0.998445 0.996671
0.999605 0.997091 0.999283
1.00012 1.00241 0.992026
1.0001 1.00207 0.992394
1.00014 1.00145 0.9929
1.0002 1.00163 0.992621
1.00022 1.00098 0.993198
1 1.00005 0.994502
0.999803 0.998186 0.996749
1.00007 0.999767 0.994671
1.00024 1.00069 0.993465
0.999703 0.99693 0.999276
0.999857 0.998026 0.996792
1.00011 0.999625 0.994748
0.999784 0.996731 0.999298
0.999911 0.997856 0.996853
0.999855 0.99652 0.999326
0.999198 0.996151 0.95448
0.994445 1.0005 0.956242
0.995035 1.00131 0.980943
1.00002 1.00261 0.992
1.00002 1.00288 0.991734
0.999993 1.00283 0.991852
1.00017 1.00292 0.991503
0.999958 1.00321 0.991544
1.00007 1.00218 0.992283
1.00008 1.00249 0.991958
0.999909 1.00292 0.991815
0.999815 1.00313 0.991398
1.00014 1.00241 0.991876
1.00175 1.0015 0.990211
0.999942 1.00207 0.992653
0.999958 1.00191 0.992762
0.999259 0.999309 0.960059
0.99765 0.998298 0.953311
0.994493 1.00005 0.952006
0.996887 0.999781 0.952776
0.995731 1.00071 0.961511
0.995088 0.99715 0.987862
0.996505 0.997154 0.985667
0.997099 0.999223 0.96488
0.999299 0.998613 0.980246
1.00324 0.99904 0.989656
1.00051 1.00061 0.992779
0.999698 1.00066 0.994503
0.999195 1.00178 0.993994
1.00222 1.00014 0.989828
1.00011 0.995587 0.960573
0.999205 0.995383 0.954523
0.994717 1.00051 0.961936
0.9986 0.99985 0.994931
0.994832 1.00142 0.977715
0.998932 0.995479 0.954229
0.997829 1.00018 0.964617
0.999689 0.999777 0.995754
1.00032 0.995968 0.963521
0.996279 1.00041 0.979614
1.00131 1.00188 0.991627
1.00025 0.996692 0.987001
1.00304 0.997067 0.991057
1.0047 0.995266 0.989861
1.00513 0.995648 0.989061
1.00408 0.997759 0.988794
1.00472 0.995896 0.989504
1.00513 0.995474 0.989158
1.00406 0.998308 0.988379
1.00478 0.996341 0.98902
1.00495 0.996334 0.988719
1.00382 0.998718 0.988438
1.00421 0.997462 0.989066
1.0044 0.997443 0.988908
1.00371 0.998304 0.989331
1.00362 0.999132 0.98879
1.0035 0.999077 0.988925
1.00316 1.00003 0.988619
1.00293 1.00053 0.988595
1.002 1.00172 0.988956
1.00241 1.00168 0.988417
1.00272 1.00162 0.988001
1.00102 1.00216 0.990538
1.0013 1.0025 0.989531
1.00164 1.0028 0.988843
1.00024 1.00169 0.99238
1.00073 1.00221 0.991084
1.00089 1.00273 0.990291
0.999639 0.999633 0.995523
1.00017 1.00157 0.992702
1.00055 1.00221 0.991464
0.999452 0.997811 0.999138
0.999612 0.999245 0.996007
1.00008 1.00122 0.993188
0.999483 0.99758 0.999197
0.999645 0.998844 0.996394
0.999534 0.997353 0.999241
1.00027 1.00262 0.991568
1.00011 1.00239 0.99203
1.00014 1.00189 0.992408
1.00009 1.0021 0.992346
1.00013 1.00152 0.992829
0.999958 1.00051 0.994118
1.00022 1.00098 0.993199
1.00002 1.00003 0.99451
0.999728 0.998402 0.996679
0.999621 0.997106 0.999266
0.999797 0.998184 0.996752
1.00008 0.999755 0.994677
0.999712 0.996907 0.999281
0.999853 0.998022 0.996794
0.99979 0.996707 0.999303
1.00096 0.996396 0.962726
0.998843 0.996224 0.953395
0.994309 1.00092 0.956069
0.99999 1.00299 0.991642
0.999941 1.00279 0.991919
0.999961 1.00321 0.991586
1.00015 1.0029 0.99151
1.00031 1.00318 0.990977
0.999925 1.00311 0.991496
0.99988 1.0028 0.991851
0.999965 1.00328 0.991206
1.00003 1.00268 0.991765
1.00047 1.00228 0.99091
1.00206 1.0015 0.990337
1.00343 0.999941 0.988076
1.0015 1.0014 0.990415
0.999751 1.00241 0.992747
0.999095 0.99878 0.978782
0.999089 0.999251 0.960859
0.997792 0.998635 0.954581
0.998134 1.00079 0.960452
0.996789 0.997255 0.987845
0.999652 0.998336 0.984543
1.0032 0.99769 0.990605
1.00328 0.99875 0.990018
1.00036 1.00044 0.992766
1.00345 1.00084 0.988958
0.999196 0.998416 0.980386
1.00069 0.995467 0.96508
0.999064 0.99586 0.953507
0.999889 0.999918 0.995825
0.996062 1.00112 0.981813
0.999912 0.995896 0.965263
1.00151 1.00097 0.991834
0.999698 0.997655 0.985283
1.00407 0.999878 0.988922
1.0047 0.997049 0.988796
1.00448 0.995661 0.989593
1.00506 0.995568 0.98903
1.00516 0.996174 0.988716
1.00464 0.996165 0.989451
1.0051 0.995602 0.989154
1.00508 0.996617 0.988322
1.00479 0.996462 0.988963
1.00492 0.996499 0.988677
1.00494 0.997406 0.987868
1.00415 0.997605 0.989002
1.00423 0.997507 0.989033
1.00406 0.998492 0.988342
1.00362 0.998115 0.989488
1.00359 0.999 0.988872
1.00346 0.999871 0.988412
1.00317 1.00003 0.988591
1.00293 1.00054 0.988571
1.00265 1.00087 0.988867
1.00151 1.00166 0.989879
1.00197 1.00175 0.989045
1.0024 1.00172 0.98839
1.00044 1.00175 0.991977
1.00104 1.00215 0.990531
1.00129 1.00251 0.989622
0.999629 1.00017 0.995027
1.00027 1.00171 0.992381
1.00077 1.0022 0.991067
0.999457 0.998098 0.999017
0.99964 0.999678 0.995512
1.00019 1.00153 0.992711
0.999467 0.997855 0.999102
0.999606 0.999306 0.995983
0.999492 0.997623 0.999173
1.00041 1.00285 0.991087
1.00027 1.00259 0.991605
1.00025 1.00219 0.99199
1.00011 1.00237 0.992033
1.00014 1.00195 0.99235
0.99998 1.00103 0.993558
1.00013 1.00158 0.992758
0.999964 1.00051 0.994125
0.999649 0.998725 0.996502
1.00003 1 0.994517
0.999725 0.998385 0.996687
0.999538 0.99732 0.999246
0.999633 0.997084 0.999269
0.999791 0.998181 0.996755
0.999721 0.996888 0.999286
0.999196 0.99829 0.979719
1.00083 0.99644 0.959173
0.998803 0.996089 0.954264
1.00092 1.00277 0.990238
0.999964 1.00322 0.991628
1.00012 1.00289 0.991519
0.999971 1.00319 0.991488
1.00025 1.00326 0.990942
1.00031 1.00213 0.991663
1.00012 1.00347 0.991014
0.999999 1.00297 0.991655
1.00063 1.00228 0.991059
1.00176 1.00153 0.990383
1.00316 1.00017 0.988414
1.0049 0.9983 0.986709
1.00335 0.999837 0.988026
1.00131 1.00123 0.990619
1.00255 0.997468 0.992681
0.998975 0.99935 0.977282
0.999214 0.998891 0.961976
0.999471 0.998203 0.982133
1.00326 0.997021 0.991665
1.00296 0.998315 0.990389
1.00351 0.998514 0.987997
0.998978 0.997316 0.982831
1.00046 0.995534 0.960238
1.00177 1.00002 0.992035
0.999653 0.998728 0.983552
1.00402 0.99887 0.989006
1.00464 0.997375 0.989042
1.00525 0.996168 0.988468
1.00514 0.99755 0.987862
1.00498 0.995525 0.988999
1.00518 0.995885 0.988768
1.00506 0.996688 0.988439
1.00512 0.995665 0.989149
1.00508 0.996566 0.988334
1.00495 0.997745 0.987502
1.00489 0.996666 0.988634
1.00484 0.997431 0.987999
1.00455 0.998324 0.987562
1.00406 0.997567 0.989158
1.00409 0.998497 0.988325
1.00391 0.999258 0.987955
1.00356 0.998871 0.988955
1.00343 0.999774 0.988437
1.00312 1.00031 0.988468
1.00294 1.00056 0.988547
1.00261 1.00087 0.988821
1.00215 1.00108 0.989552
1.00084 1.00147 0.991512
1.0015 1.00168 0.989972
1.00194 1.00178 0.989134
0.999632 1.00064 0.994556
1.00045 1.00176 0.991974
1.00107 1.00214 0.990524
0.999397 0.998467 0.998881
0.999676 1.00011 0.995021
1.00029 1.00172 0.992382
0.999452 0.998153 0.998974
0.999642 0.999716 0.995502
0.999481 0.997902 0.999063
1.00074 1.00273 0.99039
1.0004 1.00282 0.991098
1.00044 1.00232 0.99158
1.00028 1.00257 0.991642
1.00024 1.00218 0.992011
1.00004 1.00145 0.993044
1.00014 1.00201 0.992291
0.999966 1.00107 0.993556
0.999579 0.999152 0.996191
0.999968 1.0005 0.994131
0.999649 0.998688 0.996521
0.999474 0.997566 0.999202
0.999723 0.998371 0.996696
0.999549 0.997283 0.999254
0.999644 0.997063 0.999272
1.00276 0.998037 0.991071
0.999194 0.998485 0.976329
1.00028 0.996861 0.963171
1.00101 1.0019 0.990647
1.00222 1.00157 0.988953
1.0007 1.00279 0.990353
1.00003 1.00325 0.991478
1.0002 1.00335 0.990905
1.00053 1.0021 0.991518
1.00311 0.999837 0.988898
1.00075 1.0023 0.991209
1.00131 1.00155 0.990428
1.00309 1.00017 0.988572
1.00472 0.998897 0.986445
1.00511 0.996981 0.987521
1.00491 0.998339 0.986752
1.00337 0.999824 0.987976
1.00281 0.997433 0.992853
0.99875 1.0002 0.975108
1.00358 0.996497 0.99271
1.0051 0.997061 0.988561
1.00335 0.998306 0.988251
0.999518 0.996383 0.979012
1.00397 0.997991 0.989103
1.00459 0.997715 0.989248
1.00519 0.996077 0.988666
1.00517 0.997206 0.987845
1.00511 0.996725 0.988115
1.00514 0.996712 0.987757
1.00521 0.995517 0.98882
1.00505 0.996556 0.988432
1.00498 0.997475 0.987725
1.00507 0.996573 0.988346
1.00492 0.997751 0.987523
1.00479 0.998299 0.987188
1.00473 0.997466 0.988129
1.0046 0.998326 0.987534
1.00441 0.998747 0.987506
1.00412 0.998503 0.988309
1.00392 0.999253 0.987944
1.00359 0.999821 0.988024
1.0034 0.999677 0.988462
1.00307 1.00029 0.988481
1.00256 1.00062 0.989161
1.00256 1.00087 0.988774
1.00209 1.00107 0.989525
1.00131 1.001 0.991109
0.999726 1.00077 0.99419
1.00085 1.00148 0.991507
1.00149 1.0017 0.990066
0.999256 0.998985 0.998749
0.999706 1.00054 0.994546
1.00047 1.00178 0.991971
0.999375 0.998571 0.998839
0.999713 1.00009 0.995016
0.999453 0.99822 0.99893
1.00139 1.0023 0.989331
1.00075 1.00271 0.990287
1.0008 1.00223 0.990968
1.00038 1.00278 0.991109
1.0004 1.00231 0.991592
1.00011 1.00177 0.992648
1.00022 1.00217 0.992031
1.00001 1.00152 0.993039
0.999556 0.999615 0.995756
0.999953 1.00111 0.993555
0.999588 0.999091 0.996212
0.999437 0.997831 0.999121
0.99965 0.998649 0.99654
0.999476 0.997523 0.999218
0.99956 0.997253 0.99926
1.00507 0.9965 0.988115
1.0028 0.997804 0.99044
0.999256 0.997622 0.977766
1.00319 1.00021 0.988781
1.00081 1.00174 0.991193
1.00321 1.00011 0.987954
1.00226 1.00158 0.988887
1.00048 1.00284 0.990472
1.00471 0.998814 0.98678
1.00075 1.00206 0.991377
1.00324 0.999759 0.988781
1.00508 0.998286 0.986565
1.00305 1.00013 0.98873
1.0049 0.998869 0.986288
1.00506 0.997122 0.987551
1.00478 0.998432 0.986788
1.00292 0.997309 0.993041
1.00512 0.997147 0.987606
1.00512 0.997125 0.988519
1.00316 0.998117 0.988497
1.00511 0.995928 0.988868
1.00519 0.996955 0.987826
1.00505 0.996722 0.988221
1.00513 0.996794 0.987902
1.00513 0.997297 0.987524
1.00503 0.996473 0.988425
1.00496 0.997494 0.987724
1.00493 0.998084 0.987202
1.00489 0.997766 0.987544
1.00478 0.998355 0.987175
1.00461 0.998717 0.987191
1.00465 0.998327 0.987506
1.00442 0.998749 0.987489
1.00406 0.999258 0.987681
1.00393 0.999248 0.987933
1.00359 0.999818 0.988023
1.00306 1.00021 0.98864
1.00303 1.00026 0.988494
1.00256 1.00062 0.989164
1.00173 1.00063 0.990685
1.00204 1.00105 0.989498
1.00131 1.00102 0.9911
0.999836 1.00068 0.994887
0.999196 0.999616 0.996776
0.999799 1.00067 0.994628
1.00086 1.0015 0.991503
0.999239 0.999122 0.998703
0.999783 1.00045 0.994535
0.999358 0.99866 0.998792
1.00377 0.999226 0.988088
1.0022 1.00143 0.988705
1.00153 1.00227 0.989218
1.00124 1.00198 0.99034
1.00075 1.0027 0.990183
1.00075 1.00224 0.990989
1.00028 1.00184 0.992293
1.00037 1.0023 0.991604
1.00008 1.00178 0.992648
0.999595 1.00007 0.995246
0.999977 1.0016 0.993033
0.99956 0.999568 0.995771
0.999401 0.998147 0.998998
0.999597 0.999032 0.996234
0.999431 0.997788 0.999149
0.99948 0.997479 0.999233
1.00509 0.997604 0.987224
1.00509 0.996733 0.988604
1.00289 0.997759 0.989813
1.0046 0.998729 0.987116
1.00287 1.00025 0.989163
1.0006 1.00157 0.991733
1.0034 1.00006 0.98809
1.00231 1.00158 0.988822
1.00517 0.998637 0.986305
1.00472 0.998921 0.9866
1.00335 0.99971 0.988662
1.00509 0.998282 0.986556
1.0051 0.99884 0.986131
1.00503 0.997214 0.987594
1.00519 0.997547 0.987298
1.00512 0.997064 0.987669
1.00514 0.997113 0.988479
1.00503 0.996728 0.988326
1.00512 0.99685 0.988048
1.00515 0.997226 0.987609
1.00516 0.997991 0.986879
1.00493 0.99751 0.987724
1.00487 0.998115 0.987222
1.00478 0.998837 0.98677
1.00478 0.998404 0.987162
1.0046 0.998716 0.987201
1.00426 0.999089 0.987464
1.00444 0.998752 0.987473
1.00406 0.999259 0.987679
1.00349 0.999752 0.988279
1.00359 0.999815 0.988021
1.00305 1.00021 0.98864
1.00214 1.00035 0.99019
1.00255 1.00062 0.989167
1.00174 1.00063 0.990672
1.00003 1.00048 0.994775
1.00131 1.00103 0.991092
0.999945 1.00065 0.99484
0.999082 1.0001 0.996622
0.999119 0.999703 0.99767
0.999897 1.00059 0.995023
0.99922 0.999249 0.998651
1.0047 0.998524 0.987153
1.00308 1.00036 0.988549
1.00362 0.998926 0.988681
1.0018 1.0016 0.989629
1.00232 1.00147 0.988676
1.00167 1.00225 0.989105
1.0012 1.00202 0.990347
1.00058 1.00172 0.991837
1.00071 1.00224 0.99101
1.00025 1.00182 0.992297
0.999654 1.00047 0.994764
1.00005 1.00178 0.992649
0.999568 1.00007 0.995253
0.999313 0.998589 0.998851
0.999564 0.99951 0.995784
0.999399 0.998088 0.99904
0.999427 0.997742 0.999176
1.00519 0.99794 0.986842
1.00508 0.99759 0.987221
1.00511 0.996909 0.989082
1.00505 0.998526 0.986514
1.00456 0.998825 0.987148
1.00257 1.00028 0.989547
1.00357 0.999998 0.988228
1.00516 0.998578 0.986297
1.00474 0.999026 0.986421
1.00507 0.998283 0.986547
1.00517 0.997923 0.986909
1.00519 0.997555 0.987253
1.00511 0.997001 0.987733
1.00516 0.998204 0.986658
1.00516 0.997153 0.987695
1.00513 0.997992 0.986912
1.00503 0.998661 0.986503
1.00482 0.998156 0.987242
1.00474 0.998844 0.986789
1.00441 0.999308 0.986942
1.00458 0.998717 0.98721
1.00427 0.999094 0.987461
1.00369 0.999555 0.988082
1.00407 0.999261 0.987677
1.00349 0.999751 0.988282
1.00248 1.00008 0.989824
1.00305 1.00021 0.988641
1.00215 1.00034 0.990178
1.00028 1.00024 0.994632
1.00174 1.00064 0.990658
1.00013 1.00047 0.99472
0.999081 1.00022 0.996556
1.00006 1.00059 0.99479
0.999002 1.00021 0.996677
0.99899 0.999741 0.998662
1.00489 0.998788 0.986664
1.00416 0.999134 0.987595
1.00457 0.998625 0.987342
1.00255 1.00088 0.989169
1.00308 1.00022 0.988571
1.00349 0.998635 0.989265
1.00106 1.00144 0.991166
1.00179 1.00162 0.98962
1.00244 1.00152 0.988646
1.00116 1.00206 0.990354
1.00055 1.00171 0.991846
0.999727 1.00075 0.994357
1.00023 1.00179 0.992302
0.99959 1.00054 0.99477
0.999159 0.999176 0.998713
0.999541 1.00009 0.99526
0.999328 0.998495 0.9989
0.9994 0.998032 0.99908
1.00515 0.998044 0.986778
1.00518 0.997934 0.98682
1.0051 0.997576 0.987219
1.00508 0.998376 0.986599
1.00453 0.998927 0.987179
1.00516 0.998509 0.986289
1.00514 0.998202 0.986702
1.00518 0.997956 0.986889
1.00519 0.997565 0.987209
1.00517 0.99816 0.986694
1.00511 0.998566 0.986461
1.0051 0.997989 0.986946
1.00501 0.998703 0.986461
1.00473 0.999226 0.986416
1.00471 0.998848 0.986808
1.00442 0.999317 0.986947
1.00385 0.999726 0.987615
1.00427 0.999097 0.987459
1.0037 0.999554 0.988076
1.00264 0.999911 0.989669
1.00348 0.99975 0.988284
1.00249 1.00006 0.989821
1.00052 1.00001 0.994475
1.00216 1.00032 0.990166
1.00036 1.00024 0.994568
0.999204 1.00016 0.996459
1.00024 1.00043 0.994671
0.999 1.00031 0.99663
0.998913 1.00036 0.996738
1.00503 0.998443 0.98658
1.00451 0.998951 0.987118
1.00487 0.998753 0.986643
1.00342 0.999902 0.988356
1.00417 0.999209 0.987619
1.00443 0.998723 0.987538
1.00168 1.00087 0.990499
1.00253 1.00081 0.989016
1.00307 1.00008 0.988594
0.999872 1.00085 0.993972
1.00105 1.00142 0.99118
1.00179 1.00164 0.989611
1.00053 1.00171 0.991855
0.999633 1.00086 0.994371
0.999019 0.999789 0.998601
0.999521 1.00064 0.994775
0.999188 0.999045 0.998763
0.999349 0.9984 0.998947
1.00513 0.998243 0.986683
1.00516 0.998053 0.986773
1.00517 0.997929 0.986798
1.00511 0.998231 0.986683
1.0051 0.998504 0.986499
1.00515 0.998209 0.986704
1.00518 0.997987 0.986869
1.00517 0.998125 0.98673
1.0051 0.998524 0.986482
1.00493 0.998995 0.986411
1.00499 0.998744 0.986419
1.00472 0.999278 0.98645
1.00418 0.999657 0.986947
1.00442 0.999328 0.986952
1.00385 0.999727 0.987608
1.00278 0.99995 0.989349
1.0037 0.999557 0.98807
1.00266 0.999898 0.989666
1.00063 0.999928 0.993346
1.0025 1.00004 0.989818
1.00056 1.00001 0.993921
0.999333 1.00009 0.998404
1.00045 1.00024 0.994506
0.999116 1.00021 0.996539
0.998914 1.00043 0.99669
1.00498 0.99848 0.986676
1.00464 0.998846 0.98688
1.00504 0.998484 0.986626
1.00384 0.999359 0.987766
1.00451 0.998981 0.987111
1.00484 0.99872 0.986623
1.00233 1.00016 0.989684
1.00344 0.999894 0.988352
1.00418 0.999286 0.987642
1.00015 1.00063 0.993612
1.00169 1.00083 0.990363
1.00252 1.00074 0.988864
0.999014 1.00024 0.998501
0.999786 1.00093 0.993991
1.00104 1.00142 0.991195
0.999545 1.00096 0.994383
0.999029 0.99965 0.998641
0.999215 0.998907 0.998805
1.00508 0.99842 0.986568
1.00513 0.998225 0.98669
1.00516 0.998065 0.986768
1.00494 0.998909 0.986448
1.00509 0.998492 0.986514
1.00515 0.998209 0.986706
1.0051 0.998477 0.986502
1.00493 0.99897 0.986408
1.0045 0.99937 0.986888
1.00472 0.999333 0.986484
1.00417 0.999707 0.987105
1.00311 0.999905 0.988489
1.00386 0.999723 0.987601
1.0028 0.999947 0.989341
1.00072 1.00001 0.993094
1.00267 0.999885 0.989662
1.00063 0.999928 0.993343
0.999379 1.00002 0.998385
1.00057 1.00001 0.993411
0.999289 1.00008 0.997445
0.99903 1.00028 0.996614
1.0049 0.998645 0.986694
1.0047 0.998797 0.986957
1.00499 0.99847 0.986686
1.00402 0.999306 0.987654
1.00467 0.998827 0.986875
1.00504 0.998525 0.986671
1.00274 0.999743 0.98934
1.00385 0.999434 0.987928
1.0045 0.999008 0.987104
1.00045 1.00022 0.993393
1.00237 1.00015 0.989636
1.00345 0.999885 0.988347
0.999133 1.00038 0.998423
1.0001 1.00066 0.993638
1.0017 1.0008 0.990227
0.998972 1.00012 0.998536
0.99971 1.00098 0.994015
0.999036 0.999498 0.998685
1.00494 0.998838 0.986508
1.00508 0.99846 0.986564
1.00513 0.998205 0.986697
1.00451 0.999237 0.986981
1.00494 0.998891 0.986464
1.00509 0.998487 0.986528
1.00493 0.998948 0.986405
1.0045 0.999375 0.98688
1.00345 0.9997 0.988075
1.00417 0.999759 0.987262
1.00309 0.999934 0.988643
1.00095 1.00006 0.992597
1.00282 0.999938 0.989333
1.00073 1 0.993078
0.999439 1 0.998336
1.00062 0.999934 0.993341
0.999396 1.00001 0.998373
0.999324 1.00003 0.9964
1.00474 0.998934 0.986917
1.00492 0.998579 0.986703
1.00414 0.999217 0.98753
1.00469 0.998782 0.98695
1.00501 0.998459 0.986695
1.00294 0.999703 0.98931
1.00404 0.999306 0.987646
1.00469 0.998809 0.98687
1.00067 0.999928 0.993253
1.00274 0.999792 0.98944
1.00386 0.999514 0.988089
0.9993 1.00026 0.998375
1.00044 1.00022 0.993408
1.00241 1.00015 0.989588
0.999075 1.00031 0.998445
1.00004 1.00068 0.993664
0.998931 1.00002 0.998576
1.00445 0.999251 0.987078
1.00494 0.998869 0.986496
1.00507 0.9985 0.986559
1.00347 0.999595 0.988147
1.00451 0.999243 0.986982
1.00495 0.998869 0.986479
1.00449 0.999382 0.986872
1.00343 0.999715 0.988091
1.00118 1.00003 0.992207
1.00307 0.99996 0.988797
1.00097 1.00006 0.992576
0.999583 1.00001 0.998214
1.00075 1 0.993063
0.999486 0.999998 0.998299
0.999421 1 0.998358
1.00425 0.99924 0.987357
1.00472 0.998851 0.986881
1.00494 0.998512 0.986711
1.00307 0.999674 0.989079
1.00416 0.999219 0.987522
1.00468 0.998767 0.986943
1.00083 0.99984 0.993045
1.00293 0.999717 0.989307
1.00406 0.999306 0.987639
0.999452 1.00008 0.99833
1.00067 0.999917 0.993263
1.00275 0.999836 0.98954
0.99925 1.00026 0.998387
1.00042 1.00022 0.993421
0.999006 1.00028 0.998473
1.00342 0.999663 0.988445
1.00448 0.999231 0.986932
1.00494 0.998899 0.986484
1.00123 0.999964 0.992154
1.00347 0.999586 0.988137
1.00451 0.999247 0.986983
1.00342 0.999727 0.988108
1.00118 1.00002 0.992204
0.999756 1.00001 0.998072
1.00098 1.00006 0.992555
0.999645 1.00001 0.998157
0.999529 0.999992 0.998255
1.00324 0.999675 0.988759
1.00426 0.999206 0.987281
1.0047 0.998768 0.986845
1.00101 0.999907 0.993825
1.00307 0.999684 0.989069
1.00417 0.999223 0.987514
0.999571 0.999972 0.998255
1.00082 0.999844 0.993054
1.00293 0.999731 0.989303
0.999407 1.0001 0.998346
1.00067 0.999912 0.993272
0.999197 1.00025 0.998398
1.00123 0.999968 0.99218
1.00341 0.999629 0.988352
1.0045 0.999207 0.986785
0.999823 1 0.998027
1.00123 0.999968 0.992154
1.00348 0.999578 0.988127
1.00118 1.00001 0.992199
0.999792 1.00001 0.998047
0.999716 1.00001 0.998105
1.00118 0.999965 0.993492
1.00325 0.99967 0.988762
1.00428 0.999173 0.987205
0.999472 0.999974 0.998343
1.00094 0.999915 0.992782
1.00308 0.99969 0.98906
0.999528 0.999997 0.998285
1.00082 0.999853 0.993063
0.99937 1.00012 0.99836
0.9998 1.00001 0.995656
1.00122 0.999967 0.992803
1.00341 0.999599 0.988258
0.99982 0.999999 0.998028
1.00122 0.999971 0.992159
0.999813 1 0.998029
0.999546 0.999992 0.995977
1.00111 0.999974 0.99301
1.00324 0.999668 0.988766
0.999545 0.999978 0.997154
1.00094 0.999931 0.992769
0.999493 1.00002 0.998312
0.999806 0.999995 0.998037
1.00118 0.999965 0.992256
0.999818 0.999997 0.998029
0.999648 0.999997 0.997012
1.00107 0.999976 0.99247
0.999592 0.999986 0.998231
0.999775 0.99999 0.998067
0.99969 0.999986 0.998142

TENSORS stress float
0.00119136 -1.09291e-05 7.51119e-05
-1.09291e-05 0.000296402 -8.47834e-06
7.51119e-05 -8.47834e-06 0.000276856
0.00333864 -8.33345e-05 6.9652e-05
-8.33345e-05 0.00143175 3.68545e-06
6.9652e-05 3.68545e-06 0.00142685
0.00121483 3.26023e-05 3.61026e-05
3.26023e-05 0.000319407 -2.63422e-06
3.61026e-05 -2.63422e-06 0.000293628
0.00161216 -1.67324e-05 9.16994e-05
-1.67324e-05 0.00048987 -6.52767e-06
9.16994e-05 -6.52767e-06 0.000468579
0.00131258 -1.71062e-05 8.074e-05
-1.71062e-05 0.000358392 -8.56879e-06
8.074e-05 -8.56879e-06 0.000337043
0.00112518 1.8347e-05 6.37918e-05
1.8347e-05 0.000254768 -7.64371e-06
6.37918e-05 -7.64371e-06 0.000236458
0.00111329 -3.59178e-06 8.95881e-06
-3.59178e-06 0.000209969 -4.65763e-06
8.95881e-06 -4.65763e-06 0.000158588
0.00328366 -9.86897e-05 2.79479e-06
-9.86897e-05 0.00140088 -3.2303e-07
2.79479e-06 -3.2303e-07 0.00139513
0.00409136 -0.000174519 1.78338e-06
-0.000174519 0.00186465 2.37209e-06
1.78338e-06 2.37209e-06 0.00183948
0.00332321 -0.000148534 1.00711e-05
-0.000148534 0.00145156 1.78141e-06
1.00711e-05 1.78141e-06 0.00143321
0.00115837 -3.48193e-05 5.3937e-05
-3.48193e-05 0.000247305 4.28757e-06
5.3937e-05 4.28757e-06 0.000238002
0.000747519 2.86444e-05 7.84341e-06
2.86444e-05 6.13474e-06 5.09076e-06
7.84341e-06 5.09076e-06 -3.77001e-05
0.00175103 -9.61133e-06 0.000108744
-9.61133e-06 0.000546541 1.07136e-06
0.000108744 1.07136e-06 0.000523895
0.00130728 1.59973e-05 1.70491e-05
1.59973e-05 0.000331596 1.60098e-06
1.70491e-05 1.60098e-06 0.000305913
0.00128011 8.44584e-05 -2.04853e-06
8.44584e-05 0.000367149 3.30123e-06
-2.04853e-06 3.30123e-06 0.00033374
0.00147831 1.58514e-06 3.92304e-05
1.58514e-06 0.000424369 -2.36222e-06
3.92304e-05 -2.36222e-06 0.000400857
0.00113666 4.11544e-05 3.0067e-05
4.11544e-05 0.000268325 -2.55302e-06
3.0067e-05 -2.55302e-06 0.000246004
0.0013058 3.29043e-05 4.14676e-05
3.29043e-05 0.00036653 -2.4858e-06
4.14676e-05 -2.4858e-06 0.000338718
0.00123249 -1.72296e-05 -1.56722e-05
-1.72296e-05 0.000267318 3.83096e-07
-1.56722e-05 3.83096e-07 0.000218753
0.00484793 -1.7099e-05 0.000108901
-1.7099e-05 0.00220987 -1.26215e-06
0.000108901 -1.26215e-06 0.00220507
0.00166381 -1.00075e-05 9.496e-05
-1.00075e-05 0.000511779 -4.91253e-06
9.496e-05 -4.91253e-06 0.000491082
0.00146968 -1.80943e-05 8.60878e-05
-1.80943e-05 0.000428813 -7.89935e-06
8.60878e-05 -7.89935e-06 0.000407189
0.00146065 -2.79708e-05 1.94595e-05
-2.79708e-05 0.00032112 -3.44978e-06
1.94595e-05 -3.44978e-06 0.000270954
0.00123659 1.37174e-07 9.0604e-06
1.37174e-07 0.000256045 -5.13954e-06
9.0604e-06 -5.13954e-06 0.000202251
0.00114012 4.26635e-05 5.00029e-05
4.26635e-05 0.000247671 -6.95168e-06
5.00029e-05 -6.95168e-06 0.00023235
0.00101663 2.61053e-06 8.58565e-06
2.61053e-06 0.000170544 -3.81083e-06
8.58565e-06 -3.81083e-06 0.000123171
0.00153262 -9.57363e-05 4.30629e-06
-9.57363e-05 0.000337861 -1.88193e-06
4.30629e-06 -1.88193e-06 0.00025742
0.00320982 -0.000106681 -5.39708e-05
-0.000106681 0.00135949 -3.06778e-06
-5.39708e-05 -3.06778e-06 0.00135338
0.00263802 -5.69323e-05 -4.09108e-05
-5.69323e-05 0.00107287 -7.93094e-07
-4.09108e-05 -7.93094e-07 0.00105194
0.00228695 -8.35456e-05 -2.77322e-05
-8.35456e-05 0.00088694 -6.35772e-07
-2.77322e-05 -6.35772e-07 0.000868597
0.00303654 -9.43213e-05 1.67812e-06
-9.43213e-05 0.00125613 -1.86447e-07
1.67812e-06 -1.86447e-07 0.00125426
0.000686318 2.02213e-05 -1.13417e-07
2.02213e-05 -2.12062e-05 -1.76291e-07
-1.13417e-07 -1.76291e-07 -6.54115e-05
0.00160734 2.91218e-05 8.85009e-05
2.91218e-05 0.000498802 5.54062e-06
8.85009e-05 5.54062e-06 0.000477603
0.00164533 1.53058e-05 7.82498e-05
1.53058e-05 0.000536345 6.41444e-06
7.82498e-05 6.41444e-06 0.000515713
0.00223682 7.82799e-05 4.92691e-05
7.82799e-05 0.000769042 5.87297e-06
4.92691e-05 5.87297e-06 0.000725432
0.00272403 -9.69924e-05 1.4809e-05
-9.69924e-05 0.00108171 1.3461e-06
1.4809e-05 1.3461e-06 0.00108231
0.00194721 3.8566e-05 3.82469e-05
3.8566e-05 0.00064433 4.61712e-06
3.82469e-05 4.61712e-06 0.000604871
0.000675492 -8.57346e-06 7.83136e-06
-8.57346e-06 -2.77225e-05 7.05631e-06
7.83136e-06 7.05631e-06 -6.69627e-05
0.000918565 6.63413e-05 3.6878e-06
6.63413e-05 6.27105e-05 9.11685e-07
3.6878e-06 9.11685e-07 -1.59765e-05
0.00251459 -6.72923e-05 4.01353e-05
-6.72923e-05 0.000956975 3.19068e-06
4.01353e-05 3.19068e-06 0.00096574
0.00503396 -1.08074e-05 7.22124e-07
-1.08074e-05 0.0023031 -6.11996e-07
7.22124e-07 -6.11996e-07 0.0022978
0.00303409 1.71719e-05 -4.34329e-05
1.71719e-05 0.00124935 -1.03626e-06
-4.34329e-05 -1.03626e-06 0.00123398
0.00518732 2.29293e-05 0.000117376
2.29293e-05 0.00237887 4.86555e-07
0.000117376 4.86555e-07 0.00237402
0.00135098 1.46827e-07 1.32282e-05
1.46827e-07 0.000351494 9.90052e-07
1.32282e-05 9.90052e-07 0.000324628
0.000789673 -3.97643e-06 1.47125e-05
-3.97643e-06 -7.25365e-05 2.29382e-06
1.47125e-05 2.29382e-06 -0.000130364
0.00448728 -1.03795e-05 3.01816e-05
-1.03795e-05 0.0020329 1.34111e-06
3.01816e-05 1.34111e-06 0.00202309
0.00236388 1.18984e-05 5.71251e-05
1.18984e-05 0.000787778 3.5048e-06
5.71251e-05 3.5048e-06 0.000747225
0.00133589 -4.34205e-06 -1.7921e-05
-4.34205e-06 0.00035448 2.08073e-06
-1.7921e-05 2.08073e-06 0.000328838
0.00134234 5.57628e-05 -6.05166e-06
5.57628e-05 0.00039136 2.99007e-06
-6.05166e-06 2.99007e-06 0.000361202
0.0011647 7.57771e-05 -5.54058e-06
7.57771e-05 0.00029209 2.64259e-06
-5.54058e-06 2.64259e-06 0.000264295
0.00129631 -3.41408e-05 -3.98667e-05
-3.41408e-05 0.000293923 5.38381e-06
-3.98667e-05 5.38381e-06 0.000248996
0.0032077 4.05561e-05 -4.43572e-05
4.05561e-05 0.00133872 -1.07429e-06
-4.43572e-05 -1.07429e-06 0.00131929
0.00149472 -2.35691e-06 3.89143e-05
-2.35691e-06 0.000426931 -1.57253e-06
3.89143e-05 -1.57253e-06 0.00040408
0.00110272 5.23783e-05 2.25076e-05
5.23783e-05 0.000231782 -2.30801e-06
2.25076e-05 -2.30801e-06 0.000214828
0.00140145 1.3551e-05 4.01431e-05
1.3551e-05 0.000400031 -2.6913e-06
4.01431e-05 -2.6913e-06 0.000375097
0.00150803 -3.57209e-05 -1.42509e-05
-3.57209e-05 0.00034407 2.98375e-07
-1.42509e-05 2.98375e-07 0.00029561
0.00112583 -3.90413e-06 -1.24192e-05
-3.90413e-06 0.000223598 3.37282e-07
-1.24192e-05 3.37282e-07 0.00017832
0.0013357 -2.78006e-05 -1.55317e-05
-2.78006e-05 0.000299921 4.32779e-07
-1.55317e-05 4.32779e-07 0.000251105
0.00166058 -0.000101074 -2.37409e-06
-0.000101074 0.000401004 8.43503e-07
-2.37409e-06 8.43503e-07 0.000319398
0.00500542 4.20661e-05 0.000107308
4.20661e-05 0.00228908 1.66514e-07
0.000107308 1.66514e-07 0.00228367
0.00164049 5.88266e-07 9.73456e-05
5.88266e-07 0.000498167 -3.51541e-06
9.73456e-05 -3.51541e-06 0.000477009
0.0022687 4.59574e-05 1.283e-05
4.59574e-05 0.000736465 -1.09591e-06
1.283e-05 -1.09591e-06 0.000687137
0.0014848 -2.80761e-05 2.11363e-05
-2.80761e-05 0.000327037 -2.49846e-06
2.11363e-05 -2.49846e-06 0.000278117
0.00135811 -1.75864e-05 1.48952e-05
-1.75864e-05 0.000290584 -4.513e-06
1.48952e-05 -4.513e-06 0.000239273
0.00195981 -8.107e-05 6.88122e-06
-8.107e-05 0.000436886 -1.99909e-06
6.88122e-06 -1.99909e-06 0.000351986
0.00125749 -8.51081e-05 6.50825e-06
-8.51081e-05 0.000145402 -3.11044e-06
6.50825e-06 -3.11044e-06 6.11226e-05
0.00121383 4.67078e-05 4.4659e-05
4.67078e-05 0.000265878 -6.70064e-06
4.4659e-05 -6.70064e-06 0.000257159
0.000962319 2.79219e-05 7.01246e-06
2.79219e-05 0.000146453 -3.14391e-06
7.01246e-06 -3.14391e-06 0.00010661
0.00133907 -8.20377e-05 3.017e-06
-8.20377e-05 0.000276698 -1.23135e-06
3.017e-06 -1.23135e-06 0.000199936
0.00113306 -0.000101893 2.86238e-06
-0.000101893 6.67378e-05 -1.11102e-06
2.86238e-06 -1.11102e-06 -3.68106e-05
0.00402973 -7.36195e-05 -7.46357e-05
-7.36195e-05 0.00181384 -4.31554e-06
-7.46357e-05 -4.31554e-06 0.00180294
0.00298688 -9.59432e-05 -4.81177e-05
-9.59432e-05 0.00122686 -3.02928e-06
-4.81177e-05 -3.02928e-06 0.00122599
0.00339175 -0.000110581 -6.09693e-05
-0.000110581 0.00147297 -3.20088e-06
-6.09693e-05 -3.20088e-06 0.00146277
0.000631221 1.97904e-05 -6.74064e-06
1.97904e-05 -4.63424e-05 -5.68e-06
-6.74064e-06 -5.68e-06 -9.03867e-05
0.00457643 -1.84252e-05 -2.83537e-06
-1.84252e-05 0.00208353 -3.24352e-07
-2.83537e-06 -3.24352e-07 0.0020763
0.00390022 -9.70324e-05 2.71119e-06
-9.70324e-05 0.00175337 -2.60353e-07
2.71119e-06 -2.60353e-07 0.00173932
0.000630913 7.35322e-05 -6.76795e-07
7.35322e-05 -8.23499e-05 -1.63588e-07
-6.76795e-07 -1.63588e-07 -0.000135235
0.00189331 -6.86549e-05 -1.89224e-05
-6.86549e-05 0.000634181 -6.45131e-07
-1.89224e-05 -6.45131e-07 0.000632013
0.000655388 4.52263e-05 -2.74317e-07
4.52263e-05 -4.00035e-05 -9.71858e-08
-2.74317e-07 -9.71858e-08 -8.78116e-05
0.00117164 -2.21469e-05 1.05773e-05
-2.21469e-05 0.000240823 4.40491e-07
1.05773e-05 4.40491e-07 0.000205462
0.000867933 6.45661e-05 1.78586e-07
6.45661e-05 3.48673e-05 -2.0419e-07
1.78586e-07 -2.0419e-07 -4.31541e-05
0.00267012 -7.45535e-05 4.48359e-05
-7.45535e-05 0.00104423 3.189e-06
4.48359e-05 3.189e-06 0.00105048
0.000712047 -5.41582e-05 1.22531e-06
-5.41582e-05 -1.36967e-05 4.32301e-06
1.22531e-06 4.32301e-06 -3.47084e-05
0.000773232 6.09901e-05 1.46653e-05
6.09901e-05 -3.50869e-05 6.55833e-06
1.46653e-05 6.55833e-06 -8.87889e-05
0.000803578 6.87386e-05 1.38757e-05
6.87386e-05 2.24424e-05 8.18147e-06
1.38757e-05 8.18147e-06 -2.92462e-05
0.001054 8.29411e-05 6.71469e-06
8.29411e-05 2.20153e-05 3.02171e-06
6.71469e-06 3.02171e-06 -6.658e-05
0.00158385 -5.34326e-05 2.24895e-05
-5.34326e-05 0.000462008 3.75681e-06
2.24895e-05 3.75681e-06 0.000435517
0.000968195 8.03079e-05 4.11722e-06
8.03079e-05 6.29963e-05 1.70936e-06
4.11722e-06 1.70936e-06 -1.69536e-05
0.000894132 4.78866e-05 3.58627e-06
4.78866e-05 6.88669e-05 1.68341e-06
3.58627e-06 1.68341e-06 -8.14516e-06
0.000881169 9.31016e-05 1.76581e-06
9.31016e-05 1.20479e-05 -5.59473e-07
1.76581e-06 -5.59473e-07 -8.38091e-05
0.00233155 -6.02542e-05 3.43257e-05
-6.02542e-05 0.00085319 3.25318e-06
3.43257e-05 3.25318e-06 0.000864593
0.00245295 -6.76239e-05 9.12325e-07
-6.76239e-05 0.000924255 -1.04424e-07
9.12325e-07 -1.04424e-07 0.00093321
0.00469128 2.65365e-05 -0.000103941
2.65365e-05 0.00213242 -3.44489e-06
-0.000103941 -3.44489e-06 0.00212758
0.00493843 -4.20547e-07 -0.000106652
-4.20547e-07 0.00225465 -1.37316e-06
-0.000106652 -1.37316e-06 0.00224995
0.00515859 2.48403e-05 3.56063e-06
2.48403e-05 0.00236637 -5.77275e-07
3.56063e-06 -5.77275e-07 0.00236043
0.00310531 -1.02073e-05 -4.34676e-05
-1.02073e-05 0.00128439 -5.16925e-07
-4.34676e-05 -5.16925e-07 0.00126768
0.00164005 9.05631e-06 2.49981e-05
9.05631e-06 0.000384078 1.12956e-07
2.49981e-05 1.12956e-07 0.000333017
0.0029613 -1.5747e-07 -4.48455e-05
-1.5747e-07 0.00121687 -1.27512e-06
-4.48455e-05 -1.27512e-06 0.00120119
0.00156145 2.75357e-05 2.24257e-05
2.75357e-05 0.000363323 4.21382e-07
2.24257e-05 4.21382e-07 0.000316534
0.00516905 8.93782e-05 0.000109731
8.93782e-05 0.00237458 1.53337e-06
0.000109731 1.53337e-06 0.00236645
0.000752693 -2.10754e-06 1.34859e-05
-2.10754e-06 -0.000100489 4.12951e-07
1.34859e-05 4.12951e-07 -0.000159528
0.00242195 -1.2155e-05 5.93795e-05
-1.2155e-05 0.000810998 2.56591e-06
5.93795e-05 2.56591e-06 0.000768556
0.00124289 1.73243e-05 8.5851e-06
1.73243e-05 9.37919e-06 1.75632e-06
8.5851e-06 1.75632e-06 -8.47243e-05
0.00228629 5.47546e-05 5.45974e-05
5.47546e-05 0.000759363 4.04246e-06
5.45974e-05 4.04246e-06 0.000717807
0.00119912 4.79111e-05 8.27567e-06
4.79111e-05 1.77084e-05 1.94601e-06
8.27567e-06 1.94601e-06 -7.2004e-05
0.00171869 1.85478e-05 -0.000105371
1.85478e-05 0.000534215 4.11507e-07
-0.000105371 4.11507e-07 0.000512398
0.0012955 -1.63615e-05 -1.84363e-05
-1.63615e-05 0.000326778 1.55425e-06
-1.84363e-05 1.55425e-06 0.000301472
0.00100906 6.56445e-05 -7.8573e-06
6.56445e-05 0.000186639 2.05149e-06
-7.8573e-06 2.05149e-06 0.000167422
0.00135039 1.65427e-05 -1.34045e-05
1.65427e-05 0.000377695 2.4932e-06
-1.34045e-05 2.4932e-06 0.000351205
0.00156622 -3.14064e-05 -5.00367e-05
-3.14064e-05 0.000372757 4.19704e-06
-5.00367e-05 4.19704e-06 0.000325892
0.00139536 -4.10636e-05 -4.40756e-05
-4.10636e-05 0.000325772 5.58417e-06
-4.40756e-05 5.58417e-06 0.000280011
0.00120849 -1.65689e-05 -3.45946e-05
-1.65689e-05 0.000261729 4.59869e-06
-3.45946e-05 4.59869e-06 0.000219311
0.00182501 -0.000107417 -9.92153e-06
-0.000107417 0.000483502 3.91704e-06
-9.92153e-06 3.91704e-06 0.000400601
0.00507901 -3.01204e-06 -2.73254e-06
-3.01204e-06 0.0023253 -5.351e-07
-2.73254e-06 -5.351e-07 0.0023202
0.00147418 -2.79497e-06 4.09364e-05
-2.79497e-06 0.000415518 -9.04741e-07
4.09364e-05 -9.04741e-07 0.000391975
0.00115898 6.97907e-06 -2.66376e-05
6.97907e-06 0.000135841 3.0719e-07
-2.66376e-05 3.0719e-07 8.33163e-05
0.00151251 -2.87727e-05 -1.47636e-05
-2.87727e-05 0.000339473 2.91647e-07
-1.47636e-05 2.91647e-07 0.000292038
0.00204265 6.84588e-05 3.64091e-05
6.84588e-05 0.000715392 -1.33739e-06
3.64091e-05 -1.33739e-06 0.000711064
0.00129544 2.85122e-05 -7.51558e-06
2.85122e-05 0.000320244 2.14235e-07
-7.51558e-06 2.14235e-07 0.000280954
0.00143451 -3.57878e-05 -1.44397e-05
-3.57878e-05 0.000326475 3.77886e-07
-1.44397e-05 3.77886e-07 0.000278001
0.00176571 -7.49907e-05 -4.75845e-06
-7.49907e-05 0.000333792 6.90507e-07
-4.75845e-06 6.90507e-07 0.000247852
0.00151647 -9.18962e-05 -1.8727e-06
-9.18962e-05 0.000366401 7.88433e-07
-1.8727e-06 7.88433e-07 0.000287935
0.00154267 -9.33028e-05 -1.14406e-06
-9.33028e-05 0.000295366 1.17291e-07
-1.14406e-06 1.17291e-07 0.000211522
0.00114007 -0.000101487 -5.0142e-08
-0.000101487 7.00371e-05 7.82944e-08
-5.0142e-08 7.82944e-08 -3.33301e-05
0.00075007 2.70404e-06 1.33944e-05
2.70404e-06 -9.35185e-05 -1.46034e-06
1.33944e-05 -1.46034e-06 -0.00015153
0.00145495 -2.17395e-05 1.98669e-05
-2.17395e-05 0.000309693 -2.10575e-06
1.98669e-05 -2.10575e-06 0.000260286
0.00162047 -7.77771e-06 8.00732e-06
-7.77771e-06 0.000224715 -1.67761e-06
8.00732e-06 -1.67761e-06 0.000136091
0.00157451 -5.52725e-05 8.04762e-06
-5.52725e-05 0.000221056 -1.3346e-06
8.04762e-06 -1.3346e-06 0.000136169
0.00148175 -8.40384e-05 7.74462e-06
-8.40384e-05 0.000214912 -3.06787e-06
7.74462e-06 -3.06787e-06 0.000127997
0.0018327 -8.94219e-05 2.50228e-06
-8.94219e-05 0.000285167 -6.50132e-07
2.50228e-06 -6.50132e-07 0.000181389
0.00285285 8.47433e-05 4.56724e-05
8.47433e-05 0.00114101 -2.96624e-06
4.56724e-05 -2.96624e-06 0.00114508
0.00118035 -9.8052e-05 3.05121e-06
-9.8052e-05 3.98592e-05 -1.5454e-06
3.05121e-06 -1.5454e-06 -6.46463e-05
0.000670372 6.13157e-05 2.46946e-06
6.13157e-05 -2.12748e-05 -4.75792e-06
2.46946e-06 -4.75792e-06 -5.99787e-05
0.000689172 -5.48442e-05 2.69346e-06
-5.48442e-05 -3.81836e-05 -1.15582e-06
2.69346e-06 -1.15582e-06 -0.000112404
0.00123571 -0.000110451 2.63308e-06
-0.000110451 0.000170253 -1.14537e-06
2.63308e-06 -1.14537e-06 6.70073e-05
0.00126928 -0.00011412 1.29559e-06
-0.00011412 9.77093e-05 -5.16687e-07
1.29559e-06 -5.16687e-07 -1.56974e-05
0.000615253 5.73616e-05 1.99998e-06
5.73616e-05 -6.38095e-05 -4.7467e-06
1.99998e-06 -4.7467e-06 -9.06953e-05
0.000798208 3.73963e-05 6.62642e-07
3.73963e-05 1.30545e-05 -2.5274e-06
6.62642e-07 -2.5274e-06 -4.20065e-05
0.00438926 -1.77235e-05 -9.05734e-05
-1.77235e-05 0.00198738 -4.24446e-06
-9.05734e-05 -4.24446e-06 0.00198075
0.00362739 -0.000108444 -6.41922e-05
-0.000108444 0.00160965 -3.97713e-06
-6.41922e-05 -3.97713e-06 0.00159622
0.000575972 6.45299e-05 -1.08757e-05
6.45299e-05 -0.000109643 -6.46687e-06
-1.08757e-05 -6.46687e-06 -0.000162485
0.00279881 -8.47796e-05 -4.47586e-05
-8.47796e-05 0.00111809 -2.95721e-06
-4.47586e-05 -2.95721e-06 0.0011216
0.000610095 -3.59313e-05 -2.2002e-06
-3.59313e-05 -5.48354e-05 -5.59885e-06
-2.2002e-06 -5.59885e-06 -9.35711e-05
0.00058764 4.01553e-05 -8.04675e-06
4.01553e-05 -7.06755e-05 -5.64859e-06
-8.04675e-06 -5.64859e-06 -0.000118966
0.000833329 6.29458e-05 -3.65005e-06
6.29458e-05 1.55907e-05 -1.37334e-06
-3.65005e-06 -1.37334e-06 -6.20143e-05
0.00263912 -7.51647e-05 8.80718e-07
-7.51647e-05 0.00102817 -1.35546e-07
8.80718e-07 -1.35546e-07 0.00103453
0.000681609 -5.08475e-05 1.06362e-07
-5.08475e-05 -3.12284e-05 9.65283e-08
1.06362e-07 9.65283e-08 -5.13316e-05
0.00144752 6.53894e-05 2.01166e-05
6.53894e-05 0.000327406 3.06643e-07
2.01166e-05 3.06643e-07 0.000279234
0.00127672 5.99278e-05 1.67845e-05
5.99278e-05 0.000281263 3.091e-07
1.67845e-05 3.091e-07 0.000234924
0.00104124 8.32407e-05 4.09587e-07
8.32407e-05 1.61472e-05 -1.71489e-07
4.09587e-07 -1.71489e-07 -7.23617e-05
0.000681765 -5.47372e-05 -1.39222e-08
-5.47372e-05 -2.02852e-05 1.01505e-07
-1.39222e-08 1.01505e-07 -5.20984e-05
0.000910193 7.68619e-05 1.42176e-07
7.68619e-05 3.2829e-05 3.28321e-07
1.42176e-07 3.28321e-07 -4.66621e-05
0.000838073 4.1232e-05 3.1511e-07
4.1232e-05 3.96669e-05 -2.88314e-07
3.1511e-07 -2.88314e-07 -3.70515e-05
0.000831865 9.07419e-05 -9.30974e-08
9.07419e-05 -1.4943e-05 -1.33215e-07
-9.30974e-08 -1.33215e-07 -0.000111129
0.000678179 -5.63169e-05 1.72682e-06
-5.63169e-05 -2.50788e-05 4.5565e-06
1.72682e-06 4.5565e-06 -5.1642e-05
0.000741703 -4.50342e-05 2.16596e-06
-4.50342e-05 -8.76517e-06 3.81092e-06
2.16596e-06 3.81092e-06 -2.3597e-05
0.000741557 -7.1464e-06 2.34307e-06
-7.1464e-06 -1.08072e-05 2.24788e-06
2.34307e-06 2.24788e-06 -6.43381e-05
0.00109904 7.32113e-05 7.56476e-06
7.32113e-05 2.73539e-06 2.68231e-06
7.56476e-06 2.68231e-06 -8.70692e-05
0.00101682 8.56802e-05 5.33902e-06
8.56802e-05 5.23537e-05 2.85985e-06
5.33902e-06 2.85985e-06 -3.20947e-05
0.00125263 0.000104466 3.65039e-06
0.000104466 6.25685e-05 1.73709e-06
3.65039e-06 1.73709e-06 -4.58205e-05
0.000855288 2.87075e-05 2.82143e-06
2.87075e-05 5.05349e-05 2.11485e-06
2.82143e-06 2.11485e-06 -2.05037e-05
0.000924523 9.63638e-05 1.39344e-06
9.63638e-05 -4.08796e-07 1.50956e-07
1.39344e-06 1.50956e-07 -9.70882e-05
0.0010608 9.76934e-05 2.04266e-06
9.76934e-05 0.00013622 8.13521e-08
2.04266e-06 8.13521e-08 3.87712e-05
0.00107918 0.00011091 -1.09667e-06
0.00011091 0.000106153 -1.66085e-06
-1.09667e-06 -1.66085e-06 1.09876e-06
0.00220508 -5.36052e-05 2.97002e-05
-5.36052e-05 0.000777547 3.34571e-06
2.97002e-05 3.34571e-06 0.00079151
0.0022861 -6.03963e-05 6.98555e-07
-6.03963e-05 0.00082818 -8.45232e-08
6.98555e-07 -8.45232e-08 0.000839861
0.00239116 -6.76143e-05 -3.42321e-05
-6.76143e-05 0.000891181 -3.06394e-06
-3.42321e-05 -3.06394e-06 0.000900421
0.000662913 4.64345e-05 2.65407e-06
4.64345e-05 -4.68803e-05 -4.10868e-06
2.65407e-06 -4.10868e-06 -6.73279e-05
0.0026917 7.63149e-05 4.10457e-05
7.63149e-05 0.00105083 -3.06991e-06
4.10457e-05 -3.06991e-06 0.00105758
0.00459387 1.46053e-05 -0.000100235
1.46053e-05 0.00208573 -4.04494e-06
-0.000100235 -4.04494e-06 0.00208051
0.00476897 3.61745e-06 -0.000103503
3.61745e-06 0.00217002 -2.30537e-06
-0.000103503 -2.30537e-06 0.00216549
0.000717119 3.41563e-05 -1.27669e-05
3.41563e-05 -8.58711e-05 -3.31932e-06
-1.27669e-05 -3.31932e-06 -0.000138158
0.000730069 1.82598e-05 -1.32594e-05
1.82598e-05 -9.8217e-05 -2.10888e-06
-1.32594e-05 -2.10888e-06 -0.00015549
0.00511611 -3.92969e-05 -0.000109126
-3.92969e-05 0.00234423 -2.55189e-07
-0.000109126 -2.55189e-07 0.00233881
0.0051845 8.1456e-06 -1.17547e-06
8.1456e-06 0.00237812 4.88989e-07
-1.17547e-06 4.88989e-07 0.00237288
0.00075016 -2.69685e-07 -1.19406e-07
-2.69685e-07 -0.000100994 -3.61354e-07
-1.19406e-07 -3.61354e-07 -0.00016007
0.00159985 9.71552e-06 2.35999e-05
9.71552e-06 0.000376062 4.17071e-07
2.35999e-05 4.17071e-07 0.000327841
0.00124208 2.10978e-05 1.80487e-07
2.10978e-05 9.48017e-06 -4.38767e-08
1.80487e-07 -4.38767e-08 -8.46561e-05
0.000671155 4.40962e-05 1.03685e-07
4.40962e-05 -0.000100736 -6.40206e-08
1.03685e-07 -6.40206e-08 -0.000152586
0.00119342 4.97233e-05 -1.60871e-08
4.97233e-05 1.53672e-05 -1.56136e-07
-1.60871e-08 -1.56136e-07 -7.45875e-05
0.000732543 -8.39391e-06 1.37273e-05
-8.39391e-06 -0.000111912 -4.7333e-07
1.37273e-05 -4.7333e-07 -0.000171299
0.00127278 7.53706e-06 8.84685e-06
7.53706e-06 7.98026e-06 3.63249e-07
8.84685e-06 3.63249e-07 -8.9351e-05
0.00122215 3.24722e-05 8.31468e-06
3.24722e-05 1.69293e-05 1.94551e-06
8.31468e-06 1.94551e-06 -7.3784e-05
0.00150676 2.10578e-05 3.88157e-06
2.10578e-05 6.50984e-05 1.35536e-06
3.88157e-06 1.35536e-06 -4.41469e-05
0.00115508 6.0782e-05 8.00727e-06
6.0782e-05 8.16296e-06 2.4192e-06
8.00727e-06 2.4192e-06 -8.16014e-05
0.00144868 5.55521e-05 3.62759e-06
5.55521e-05 6.79853e-05 7.85262e-07
3.62759e-06 7.85262e-07 -3.61662e-05
0.00512719 5.16717e-07 -0.000118142
5.16717e-07 0.00234911 -8.08026e-07
-0.000118142 -8.08026e-07 0.00234412
0.00128585 -2.08048e-05 -1.52251e-05
-2.08048e-05 0.000321256 1.0982e-06
-1.52251e-05 1.0982e-06 0.000295198
-2.05376e-05 -3.04772e-07 -1.30671e-05
-3.04772e-07 -0.000495684 2.49606e-06
-1.30671e-05 2.49606e-06 -0.000557229
0.00157347 -1.94692e-05 -5.12248e-05
-1.94692e-05 0.000369369 2.81547e-06
-5.12248e-05 2.81547e-06 0.000323442
0.00279095 0.000105982 -1.57112e-05
0.000105982 0.0011247 1.26028e-06
-1.57112e-05 1.26028e-06 0.00112158
0.00166751 6.60838e-06 -2.77335e-05
6.60838e-06 0.000508607 4.03701e-06
-2.77335e-05 4.03701e-06 0.000474175
0.00150046 -3.9395e-05 -4.73387e-05
-3.9395e-05 0.000358079 5.18674e-06
-4.73387e-05 5.18674e-06 0.000311566
0.00156661 -6.90629e-05 -1.50505e-05
-6.90629e-05 0.000227978 3.18092e-06
-1.50505e-05 3.18092e-06 0.000141043
0.00184174 -0.000102427 -1.01157e-05
-0.000102427 0.000452989 3.67209e-06
-1.01157e-05 3.67209e-06 0.000369463
0.00171702 -0.00010166 -7.87754e-06
-0.00010166 0.000468516 3.14919e-06
-7.87754e-06 3.14919e-06 0.000388291
0.00114976 -0.00010124 -2.37695e-06
-0.00010124 7.47589e-05 1.11385e-06
-2.37695e-06 1.11385e-06 -2.84489e-05
0.000744815 4.70636e-06 -1.32314e-08
4.70636e-06 -9.73278e-05 -3.1321e-07
-1.32314e-08 -3.1321e-07 -0.000155313
0.00150913 -1.64395e-05 -1.62286e-05
-1.64395e-05 0.00033581 9.34368e-08
-1.62286e-05 9.34368e-08 0.000287988
0.00122267 -7.36372e-06 -3.05506e-06
-7.36372e-06 1.38535e-05 4.63982e-08
-3.05506e-06 4.63982e-08 -7.71906e-05
0.001795 -5.72016e-05 -2.34659e-06
-5.72016e-05 0.000338366 3.29227e-07
-2.34659e-06 3.29227e-07 0.000254717
0.00282446 8.35763e-05 -7.18877e-07
8.35763e-05 0.00112731 -1.56683e-07
-7.18877e-07 -1.56683e-07 0.00113109
0.00112108 3.71208e-05 1.9254e-06
3.71208e-05 0.000215075 2.36241e-07
1.9254e-06 2.36241e-07 0.000181469
0.00109946 -5.96405e-05 1.88987e-07
-5.96405e-05 0.000176035 -9.69119e-08
1.88987e-07 -9.69119e-08 0.000101769
0.00148657 -8.32601e-05 -2.1941e-06
-8.32601e-05 0.000218899 3.15561e-07
-2.1941e-06 3.15561e-07 0.000131941
0.00151326 -8.17618e-05 -1.88601e-06
-8.17618e-05 0.000114497 4.01396e-07
-1.88601e-06 4.01396e-07 9.40931e-06
0.00100298 -9.97234e-05 -3.7825e-07
-9.97234e-05 4.98786e-05 -1.42692e-07
-3.7825e-07 -1.42692e-07 -5.28294e-05
0.00143781 -0.000104916 8.81e-09
-0.000104916 0.000173958 -1.34559e-07
8.81e-09 -1.34559e-07 7.00743e-05
0.00125201 -0.000112826 1.06747e-07
-0.000112826 8.87651e-05 1.56691e-07
1.06747e-07 1.56691e-07 -2.43966e-05
0.000639276 5.99476e-05 -2.42393e-07
5.99476e-05 -4.89316e-05 5.03087e-08
-2.42393e-07 5.03087e-08 -7.67231e-05
0.000767927 3.11488e-05 -2.46098e-07
3.11488e-05 -4.0515e-06 1.56572e-07
-2.46098e-07 1.56572e-07 -5.87607e-05
0.00125401 -4.23625e-06 8.54203e-06
-4.23625e-06 5.34723e-06 -1.71685e-06
8.54203e-06 -1.71685e-06 -9.07255e-05
0.0015474 -2.55267e-05 7.59831e-06
-2.55267e-05 0.000204224 -1.38166e-06
7.59831e-06 -1.38166e-06 0.000119987
0.00186844 -1.25488e-05 2.64486e-06
-1.25488e-05 0.000275411 -9.51116e-07
2.64486e-06 -9.51116e-07 0.000171957
0.00126072 -5.50659e-05 4.45632e-06
-5.50659e-05 -3.56617e-05 -5.04287e-07
4.45632e-06 -5.04287e-07 -0.000138914
0.00151377 -0.000100892 3.15007e-06
-0.000100892 0.000161193 -1.21193e-06
3.15007e-06 -1.21193e-06 5.61094e-05
0.00177598 -8.73367e-05 3.84209e-07
-8.73367e-05 0.000202364 1.56717e-07
3.84209e-07 1.56717e-07 9.49911e-05
0.000570636 6.50587e-05 9.91512e-07
6.50587e-05 -7.93469e-05 -5.1004e-06
9.91512e-07 -5.1004e-06 -0.000113083
0.00135936 -0.000109747 1.02709e-06
-0.000109747 8.23847e-05 -1.13856e-06
1.02709e-06 -1.13856e-06 -3.06652e-05
0.000696745 -2.28772e-05 1.94991e-06
-2.28772e-05 -3.00024e-05 -1.16233e-06
1.94991e-06 -1.16233e-06 -0.000102074
0.000611525 -7.93961e-05 1.94268e-06
-7.93961e-05 -0.000109141 -1.53556e-06
1.94268e-06 -1.53556e-06 -0.000205868
0.00171875 -0.000140898 6.8915e-07
-0.000140898 0.000391107 -1.67885e-07
6.8915e-07 -1.67885e-07 0.000275796
0.00152166 -0.000127186 -8.15964e-07
-0.000127186 0.000195166 6.02074e-07
-8.15964e-07 6.02074e-07 7.8652e-05
0.000846563 4.58755e-06 1.45237e-06
4.58755e-06 4.24127e-05 -2.52482e-06
1.45237e-06 -2.52482e-06 -2.22588e-05
0.000785142 4.04693e-05 7.93511e-07
4.04693e-05 2.00928e-06 -1.93787e-06
7.93511e-07 -1.93787e-06 -4.49071e-05
0.000859834 -2.92798e-05 4.78137e-07
-2.92798e-05 4.47253e-05 -7.66789e-07
4.78137e-07 -7.66789e-07 -3.56751e-05
0.000629151 5.97985e-05 -1.17775e-05
5.97985e-05 -0.00010608 -5.58936e-06
-1.17775e-05 -5.58936e-06 -0.000159271
0.00259831 -7.57508e-05 -3.97241e-05
-7.57508e-05 0.00100684 -2.97943e-06
-3.97241e-05 -2.97943e-06 0.0010133
0.000657781 -4.69359e-05 -2.6997e-06
-4.69359e-05 -4.51426e-05 -3.9037e-06
-2.6997e-06 -3.9037e-06 -6.43303e-05
0.00055632 5.51343e-05 -9.17261e-06
5.51343e-05 -9.73441e-05 -6.24662e-06
-9.17261e-06 -6.24662e-06 -0.000148
0.00102184 8.34724e-05 -6.47863e-06
8.34724e-05 6.95475e-06 -3.46914e-06
-6.47863e-06 -3.46914e-06 -8.14935e-05
0.000568345 -6.43835e-05 -8.65648e-07
-6.43835e-05 -7.70961e-05 -5.14498e-06
-8.65648e-07 -5.14498e-06 -0.000110854
0.000748936 3.61977e-05 -2.26901e-06
3.61977e-05 -7.59298e-06 -1.96675e-06
-2.26901e-06 -1.96675e-06 -8.34513e-05
0.000865025 7.35487e-05 -3.83013e-06
7.35487e-05 9.52166e-06 -1.15522e-06
-3.83013e-06 -1.15522e-06 -6.9538e-05
0.000778695 8.82309e-05 -2.37194e-06
8.82309e-05 -4.40232e-05 2.00246e-07
-2.37194e-06 2.00246e-07 -0.000140516
0.000643754 -5.95665e-05 2.29361e-07
-5.95665e-05 -4.33552e-05 8.29669e-08
2.29361e-07 8.29669e-08 -7.00726e-05
0.000714933 -4.24394e-05 -4.16748e-08
-4.24394e-05 -2.32044e-05 9.29208e-08
-4.16748e-08 9.29208e-08 -3.75376e-05
0.00076831 -3.22066e-05 1.39845e-07
-3.22066e-05 1.16213e-06 1.78038e-07
1.39845e-07 1.78038e-07 -5.06077e-05
0.00111229 7.47831e-05 3.24042e-07
7.47831e-05 1.05255e-05 -2.05314e-07
3.24042e-07 -2.05314e-07 -7.94851e-05
0.000965235 8.34605e-05 3.11755e-07
8.34605e-05 2.66574e-05 1.98559e-07
3.11755e-07 1.98559e-07 -5.74315e-05
0.0012512 0.000105147 2.39222e-07
0.000105147 6.23272e-05 7.93503e-08
2.39222e-07 7.93503e-08 -4.62144e-05
0.000817758 2.54e-05 -2.5868e-07
2.54e-05 3.30114e-05 -1.51578e-09
-2.5868e-07 -1.51578e-09 -3.80326e-05
0.00105974 0.000102641 -9.65324e-08
0.000102641 7.12481e-05 -9.28361e-08
-9.65324e-08 -9.28361e-08 -2.5499e-05
0.00101844 9.54645e-05 2.54795e-07
9.54645e-05 0.000114124 -3.64524e-07
2.54795e-07 -3.64524e-07 1.6811e-05
0.000945265 0.000105531 -7.43807e-07
0.000105531 3.59082e-05 5.37709e-07
-7.43807e-07 5.37709e-07 -6.93216e-05
0.000755022 -3.79951e-05 2.58654e-06
-3.79951e-05 -1.11241e-05 3.43645e-06
2.58654e-06 3.43645e-06 -2.15642e-05
0.000771641 3.44125e-06 2.66018e-06
3.44125e-06 2.14634e-06 1.83816e-06
2.66018e-06 1.83816e-06 -5.92332e-05
0.000754199 -3.65685e-05 8.50208e-07
-3.65685e-05 -9.55456e-06 2.21212e-06
8.50208e-07 2.21212e-06 -5.27317e-05
0.000873408 2.14603e-05 8.24751e-07
2.14603e-05 5.66727e-05 7.0437e-07
8.24751e-07 7.0437e-07 -1.90229e-05
0.0013264 8.99159e-05 4.52259e-06
8.99159e-05 4.86354e-05 1.09207e-06
4.52259e-06 1.09207e-06 -5.89101e-05
0.00118229 0.000108955 2.57535e-06
0.000108955 8.98513e-05 1.75555e-06
2.57535e-06 1.75555e-06 -1.35152e-05
0.00136182 0.00011459 1.51333e-06
0.00011459 7.58978e-05 1.77572e-06
1.51333e-06 1.77572e-06 -4.13644e-05
0.00106774 6.70359e-05 1.94799e-06
6.70359e-05 0.000151344 1.02149e-06
1.94799e-06 1.02149e-06 6.05359e-05
0.0011558 0.000114398 -3.07857e-07
0.000114398 9.70353e-05 1.12952e-08
-3.07857e-07 1.12952e-08 -7.03175e-06
0.00104827 0.000109468 5.33758e-07
0.000109468 0.000130846 -1.49874e-06
5.33758e-07 -1.49874e-06 1.77591e-05
0.000723861 9.73719e-05 1.84286e-08
9.73719e-05 -0.000100072 -1.42975e-06
1.84286e-08 -1.42975e-06 -0.000208398
0.000818754 -1.91561e-05 1.06305e-06
-1.91561e-05 4.81169e-06 1.66273e-06
1.06305e-06 1.66273e-06 -2.3643e-05
0.000761621 -2.90686e-05 1.79454e-06
-2.90686e-05 -2.17196e-05 3.35164e-06
1.79454e-06 3.35164e-06 -2.68377e-05
0.00213864 -4.74155e-05 2.59798e-05
-4.74155e-05 0.000733623 3.49347e-06
2.59798e-05 3.49347e-06 0.000749807
0.002185 -5.36711e-05 8.88873e-07
-5.36711e-05 0.000765664 -8.46536e-08
8.88873e-07 -8.46536e-08 0.000779885
0.00224482 -6.00809e-05 -3.0459e-05
-6.00809e-05 0.000805272 -3.19469e-06
-3.0459e-05 -3.19469e-06 0.000817318
0.000693791 3.95427e-05 2.83669e-06
3.95427e-05 -3.91394e-05 -3.6762e-06
2.83669e-06 -3.6762e-06 -5.48502e-05
0.00250841 6.87562e-05 3.56876e-05
6.87562e-05 0.000948444 -3.18736e-06
3.56876e-05 -3.18736e-06 0.000957661
0.000682619 5.09634e-05 -1.72803e-07
5.09634e-05 -3.49594e-05 6.35013e-08
-1.72803e-07 6.35013e-08 -5.63862e-05
0.00271052 7.55266e-05 -7.04188e-07
7.55266e-05 0.00106074 -1.29508e-07
-7.04188e-07 -1.29508e-07 0.00106739
0.000671803 4.8129e-05 -1.23339e-05
4.8129e-05 -0.000100518 -4.35712e-06
-1.23339e-05 -4.35712e-06 -0.00015273
0.000742746 2.88167e-05 -1.29857e-05
2.88167e-05 -7.95814e-05 -2.5745e-06
-1.29857e-05 -2.5745e-06 -0.000134141
0.0011771 5.04109e-05 -8.107e-06
5.04109e-05 7.42893e-06 -2.14499e-06
-8.107e-06 -2.14499e-06 -8.26996e-05
0.00123904 2.27975e-05 -8.34953e-06
2.27975e-05 8.49404e-06 -1.83381e-06
-8.34953e-06 -1.83381e-06 -8.56445e-05
0.000755807 3.83638e-06 -1.38066e-05
3.83638e-06 -9.76015e-05 -1.19801e-06
-1.38066e-05 -1.19801e-06 -0.00015654
0.00520466 -3.41839e-05 -0.000115995
-3.41839e-05 0.00238794 8.20102e-07
-0.000115995 8.20102e-07 0.00238313
0.000756015 -1.2583e-06 1.00266e-07
-1.2583e-06 -0.000100276 -2.59566e-07
1.00266e-07 -2.59566e-07 -0.000159562
0.00127935 1.14802e-05 4.49849e-08
1.14802e-05 1.14363e-05 -4.61995e-07
4.49849e-08 -4.61995e-07 -8.58613e-05
0.00120674 3.27366e-05 -4.06846e-08
3.27366e-05 9.78239e-06 8.80252e-08
-4.06846e-08 8.80252e-08 -8.10673e-05
0.00152244 2.07402e-05 1.15112e-07
2.07402e-05 7.32598e-05 -5.02668e-08
1.15112e-07 -5.02668e-08 -3.59825e-05
0.00115955 6.28987e-05 1.20259e-07
6.28987e-05 1.14187e-05 -1.11524e-07
1.20259e-07 -1.11524e-07 -7.8657e-05
0.00145518 5.79568e-05 1.52195e-08
5.79568e-05 7.13045e-05 -5.99789e-08
1.52195e-08 -5.99789e-08 -3.29811e-05
0.00128181 -5.11772e-07 8.81798e-06
-5.11772e-07 1.05046e-05 -5.46446e-07
8.81798e-06 -5.46446e-07 -8.70327e-05
0.00154001 1.45982e-05 4.11587e-06
1.45982e-05 6.33103e-05 1.88988e-07
4.11587e-06 1.88988e-07 -4.92997e-05
0.00148643 3.78302e-05 3.7134e-06
3.78302e-05 7.3065e-05 1.32334e-06
3.7134e-06 1.32334e-06 -3.22602e-05
0.00165606 1.77974e-05 1.37384e-06
1.77974e-05 0.000100415 9.82258e-07
1.37384e-06 9.82258e-07 -1.06544e-05
0.00139601 7.42377e-05 3.49916e-06
7.42377e-05 5.77501e-05 8.05566e-07
3.49916e-06 8.05566e-07 -4.76587e-05
0.00158501 6.04599e-05 1.06363e-06
6.04599e-05 9.04866e-05 3.34114e-07
1.06363e-06 3.34114e-07 -1.58745e-05
0.000760496 8.42143e-06 -1.31788e-05
8.42143e-06 -9.02391e-05 7.56501e-07
-1.31788e-05 7.56501e-07 -0.000148366
0.00158334 -3.04814e-06 -5.2275e-05
-3.04814e-06 0.000372666 1.8836e-06
-5.2275e-05 1.8836e-06 0.000326425
0.000828 -5.35352e-06 -8.8651e-06
-5.35352e-06 -0.000195515 2.00586e-06
-8.8651e-06 2.00586e-06 -0.000289021
0.00199569 -5.79785e-05 -1.35128e-05
-5.79785e-05 0.000445005 2.02486e-06
-1.35128e-05 2.02486e-06 0.000362743
0.00282025 8.27465e-05 -4.79023e-05
8.27465e-05 0.00112639 3.14189e-06
-4.79023e-05 3.14189e-06 0.00112982
0.00163169 3.75903e-05 -2.41742e-05
3.75903e-05 0.000488231 3.26381e-06
-2.41742e-05 3.26381e-06 0.000457114
0.00151578 -7.23569e-05 -5.45517e-06
-7.23569e-05 0.000393234 1.94612e-06
-5.45517e-06 1.94612e-06 0.000318653
0.00149152 -8.26835e-05 -1.18622e-05
-8.26835e-05 0.000223017 3.65652e-06
-1.18622e-05 3.65652e-06 0.00013602
0.00118803 -7.39132e-05 -5.24798e-06
-7.39132e-05 -5.92077e-05 1.08142e-06
-5.24798e-06 1.08142e-06 -0.000165591
0.00169388 -0.000111785 -3.93193e-06
-0.000111785 0.000307378 1.52061e-06
-3.93193e-06 1.52061e-06 0.000204103
0.000765664 -8.86459e-05 -2.13863e-06
-8.86459e-05 -7.27399e-05 8.11166e-07
-2.13863e-06 8.11166e-07 -0.000174888
0.00123372 -0.000111494 -6.31025e-07
-0.000111494 7.93087e-05 7.53651e-07
-6.31025e-07 7.53651e-07 -3.36074e-05
0.000665822 5.45752e-05 -1.97844e-06
5.45752e-05 -3.49269e-05 4.71681e-06
-1.97844e-06 4.71681e-06 -6.22723e-05
0.000737798 1.97995e-05 -1.82157e-06
1.97995e-05 -2.02376e-05 2.21069e-06
-1.82157e-06 2.21069e-06 -7.52493e-05
0.00107013 -5.58276e-07 -4.18739e-07
-5.58276e-07 -9.06472e-05 -3.19185e-07
-4.18739e-07 -3.19185e-07 -0.000187691
0.00158503 -2.76785e-05 -2.56025e-06
-2.76785e-05 0.000222945 2.63937e-07
-2.56025e-06 2.63937e-07 0.0001387
0.00177671 -9.7661e-06 -1.8517e-06
-9.7661e-06 0.000224546 4.20617e-07
-1.8517e-06 4.20617e-07 0.000120202
0.00156177 -5.92617e-05 9.50843e-07
-5.92617e-05 0.000125222 -1.61097e-07
9.50843e-07 -1.61097e-07 2.34798e-05
0.000627099 5.4318e-05 -1.66208e-07
5.4318e-05 -5.17472e-05 6.93819e-08
-1.66208e-07 6.93819e-08 -8.39488e-05
0.000823793 -3.36606e-05 -1.27546e-07
-3.36606e-05 3.6402e-05 -8.62703e-08
-1.27546e-07 -8.62703e-08 -3.62302e-05
0.000740698 -8.54677e-05 7.86027e-07
-8.54677e-05 -4.03882e-05 -6.41608e-07
7.86027e-07 -6.41608e-07 -0.00013616
0.00166904 -0.000104049 -8.08417e-07
-0.000104049 0.000241584 1.55033e-07
-8.08417e-07 1.55033e-07 0.000136429
0.00159222 -8.19749e-05 -5.69959e-07
-8.19749e-05 0.00010349 4.46912e-07
-5.69959e-07 4.46912e-07 -3.77648e-06
0.00139469 -0.000126318 -1.06853e-06
-0.000126318 0.000221369 5.17525e-07
-1.06853e-06 5.17525e-07 0.000105554
0.00135359 -0.000109035 -6.90407e-08
-0.000109035 7.94982e-05 -7.89903e-08
-6.90407e-08 -7.89903e-08 -3.35043e-05
0.00133236 -0.000119261 3.88356e-07
-0.000119261 9.81653e-05 7.42345e-07
3.88356e-07 7.42345e-07 -1.75479e-05
0.000793291 -1.7358e-06 -2.71242e-07
-1.7358e-06 1.28341e-05 -8.47941e-08
-2.71242e-07 -8.47941e-08 -5.14865e-05
0.000821705 -6.79916e-06 -4.731e-07
-6.79916e-06 2.00568e-05 -2.5822e-07
-4.731e-07 -2.5822e-07 -5.73503e-05
0.000771715 3.71216e-05 1.77345e-07
3.71216e-05 -5.50497e-06 2.3672e-07
1.77345e-07 2.3672e-07 -5.22961e-05
0.00192128 2.26604e-06 2.87073e-06
2.26604e-06 0.0002797 -8.98185e-07
2.87073e-06 -8.98185e-07 0.000172004
0.00163222 -3.03316e-05 3.21252e-06
-3.03316e-05 0.000163258 -8.19793e-07
3.21252e-06 -8.19793e-07 6.26607e-05
0.0018262 -8.95637e-06 6.98613e-07
-8.95637e-06 0.000207634 -4.71526e-07
6.98613e-07 -4.71526e-07 9.71788e-05
0.00161564 -5.31544e-05 1.39815e-06
-5.31544e-05 0.000100403 -6.26597e-08
1.39815e-06 -6.26597e-08 -4.13777e-06
0.00125236 -9.78837e-05 1.9829e-06
-9.78837e-05 -3.29764e-05 -7.47171e-07
1.9829e-06 -7.47171e-07 -0.000144836
0.00169255 -7.78562e-05 -8.67701e-07
-7.78562e-05 0.000121774 6.42884e-07
-8.67701e-07 6.42884e-07 1.82192e-05
0.000803141 -1.7312e-05 2.39248e-06
-1.7312e-05 2.49044e-05 -1.80446e-06
2.39248e-06 -1.80446e-06 -4.59393e-05
0.00141541 -0.000113818 -1.2976e-06
-0.000113818 7.81249e-05 -9.11769e-07
-1.2976e-06 -9.11769e-07 -3.62105e-05
0.00091517 -8.79804e-05 1.11568e-06
-8.79804e-05 6.59954e-05 1.19387e-07
1.11568e-06 1.19387e-07 -2.27239e-05
0.0007267 -9.64867e-05 1.59264e-06
-9.64867e-05 -6.42164e-05 -2.07575e-06
1.59264e-06 -2.07575e-06 -0.00017567
0.00151832 -0.000138413 1.22998e-06
-0.000138413 0.000257529 5.84284e-07
1.22998e-06 5.84284e-07 0.000134094
0.00187554 -0.000142744 -2.57731e-06
-0.000142744 0.000358373 2.25398e-06
-2.57731e-06 2.25398e-06 0.000247441
0.000792094 3.25875e-05 1.42895e-06
3.25875e-05 -1.51818e-07 -1.67802e-06
1.42895e-06 -1.67802e-06 -4.10893e-05
0.000896415 -4.18521e-05 1.17136e-06
-4.18521e-05 5.70817e-05 3.58935e-08
1.17136e-06 3.58935e-08 -2.404e-05
0.000771561 -2.05065e-06 6.54589e-07
-2.05065e-06 -7.36338e-06 -1.38604e-06
6.54589e-07 -1.38604e-06 -7.95781e-05
0.000976841 -7.87356e-05 -1.70285e-07
-7.87356e-05 0.00011118 9.99173e-07
-1.70285e-07 9.99173e-07 2.12499e-05
0.0011194 7.6487e-05 -7.85313e-06
7.6487e-05 1.51518e-05 -3.14712e-06
-7.85313e-06 -3.14712e-06 -7.50876e-05
0.000686358 -4.03774e-05 -2.84313e-06
-4.03774e-05 -3.84503e-05 -3.50619e-06
-2.84313e-06 -3.50619e-06 -5.23624e-05
0.000610691 -5.6672e-05 -2.09541e-06
-5.6672e-05 -6.26419e-05 -4.49066e-06
-2.09541e-06 -4.49066e-06 -8.84529e-05
0.000784011 -4.18559e-05 -6.40927e-07
-4.18559e-05 1.03623e-05 -2.43101e-06
-6.40927e-07 -2.43101e-06 -4.18455e-05
0.000914388 8.1269e-05 -4.61067e-06
8.1269e-05 1.67103e-06 -2.54409e-06
-4.61067e-06 -2.54409e-06 -8.21092e-05
0.00124833 0.000105682 -3.54125e-06
0.000105682 6.1358e-05 -1.67053e-06
-3.54125e-06 -1.67053e-06 -4.7327e-05
0.000782247 1.95525e-05 -2.30578e-06
1.95525e-05 1.67812e-05 -1.89254e-06
-2.30578e-06 -1.89254e-06 -5.44774e-05
0.000984082 9.35248e-05 -2.13338e-06
9.35248e-05 9.62714e-05 -1.10721e-06
-2.13338e-06 -1.10721e-06 -9.47774e-07
0.00118741 0.00010861 -1.67675e-06
0.00010861 0.000139021 -3.17015e-07
-1.67675e-06 -3.17015e-07 4.22262e-05
0.000806717 9.98896e-05 -1.82097e-06
9.98896e-05 -3.66902e-05 1.06626e-06
-1.82097e-06 1.06626e-06 -0.000142078
0.000729898 -3.6848e-05 9.47434e-08
-3.6848e-05 -2.41827e-05 3.06734e-08
9.47434e-08 3.06734e-08 -3.44575e-05
0.000793017 6.92106e-06 5.50755e-08
6.92106e-06 1.67157e-05 -4.28833e-08
5.50755e-08 -4.28833e-08 -4.615e-05
0.000769944 -3.99878e-05 -1.2324e-07
-3.99878e-05 -1.19883e-06 2.41774e-07
-1.2324e-07 2.41774e-07 -4.44017e-05
0.000886316 1.0767e-05 2.53363e-07
1.0767e-05 6.26064e-05 -2.18367e-07
2.53363e-07 -2.18367e-07 -1.23034e-05
0.00134709 9.12329e-05 8.98156e-07
9.12329e-05 5.94315e-05 1.84936e-07
8.98156e-07 1.84936e-07 -4.84005e-05
0.00113744 0.000107798 8.72964e-08
0.000107798 6.81791e-05 4.81547e-08
8.72964e-08 4.81547e-08 -3.51493e-05
0.00136662 0.000114877 -2.47234e-08
0.000114877 7.87159e-05 6.4184e-07
-2.47234e-08 6.4184e-07 -3.85923e-05
0.000991255 6.88356e-05 3.30985e-07
6.88356e-05 0.000111614 2.64296e-07
3.30985e-07 2.64296e-07 2.17871e-05
0.00133756 0.000122448 -5.75139e-07
0.000122448 0.00019315 -1.00081e-06
-5.75139e-07 -1.00081e-06 8.89838e-05
0.00107105 0.00011107 2.36272e-07
0.00011107 0.000142107 -7.48655e-07
2.36272e-07 -7.48655e-07 2.8303e-05
0.000882009 0.000104919 -1.71189e-06
0.000104919 -1.3322e-05 -4.02059e-08
-1.71189e-06 -4.02059e-08 -0.000119315
0.000762301 -3.33678e-05 2.22067e-06
-3.33678e-05 -1.48209e-05 3.36485e-06
2.22067e-06 3.36485e-06 -2.22629e-05
0.000779548 -3.60199e-05 9.41883e-07
-3.60199e-05 -2.15009e-06 1.91768e-06
9.41883e-07 1.91768e-06 -3.90925e-05
0.00098619 3.38822e-05 1.37592e-06
3.38822e-05 0.000110515 4.83853e-07
1.37592e-06 4.83853e-07 2.82643e-05
0.000847749 5.24229e-06 6.30686e-07
5.24229e-06 3.81408e-05 1.23826e-06
6.30686e-07 1.23826e-06 -2.73287e-05
0.000940957 6.62687e-05 9.60349e-07
6.62687e-05 0.000101236 -2.06818e-07
9.60349e-07 -2.06818e-07 1.16359e-05
0.00145605 9.50624e-05 2.5451e-06
9.50624e-05 6.78429e-05 2.59088e-07
2.5451e-06 2.59088e-07 -4.56258e-05
0.00123082 0.000118628 6.51055e-07
0.000118628 8.23833e-05 1.79669e-06
6.51055e-07 1.79669e-06 -2.96946e-05
0.00148877 0.00012276 -7.11673e-07
0.00012276 0.00011444 1.53288e-06
-7.11673e-07 1.53288e-06 -5.6989e-06
0.00111714 0.000108439 2.72675e-06
0.000108439 0.000187287 2.45316e-06
2.72675e-06 2.45316e-06 7.73068e-05
0.00118647 0.000121485 1.18568e-06
0.000121485 9.36553e-05 2.29765e-07
1.18568e-06 2.29765e-07 -1.37565e-05
0.000398099 8.28757e-05 1.62335e-06
8.28757e-05 -0.000232642 -2.17341e-06
1.62335e-06 -2.17341e-06 -0.000355132
0.000812148 -2.32809e-05 1.23723e-06
-2.32809e-05 5.18782e-06 1.70429e-06
1.23723e-06 1.70429e-06 -2.5198e-05
0.000835158 4.0826e-06 4.2459e-07
4.0826e-06 2.33172e-05 6.86243e-07
4.2459e-07 6.86243e-07 -2.38735e-05
0.000831172 -1.38553e-05 7.95388e-07
-1.38553e-05 8.14754e-06 1.70654e-06
7.95388e-07 1.70654e-06 -1.89093e-05
0.000819717 -1.7813e-05 1.3461e-07
-1.7813e-05 5.96645e-06 5.33905e-10
1.3461e-07 5.33905e-10 -2.26101e-05
0.00129882 -3.10726e-05 1.91714e-06
-3.10726e-05 0.000262127 2.02157e-06
1.91714e-06 2.02157e-06 0.000262008
0.00102738 -3.17778e-05 7.92719e-07
-3.17778e-05 0.000121759 -2.47249e-08
7.92719e-07 -2.47249e-08 0.000118223
0.00100321 -2.81982e-05 2.13342e-05
-2.81982e-05 0.000112437 6.21536e-06
2.13342e-05 6.21536e-06 0.000124911
0.00212766 -4.74287e-05 1.03775e-06
-4.74287e-05 0.000726568 -7.78619e-08
1.03775e-06 -7.78619e-08 0.00074299
0.00216564 -5.3565e-05 -2.71453e-05
-5.3565e-05 0.000754139 -3.3435e-06
-2.71453e-05 -3.3435e-06 0.00076865
0.000708803 3.50712e-05 2.52968e-06
3.50712e-05 -3.88972e-05 -3.55579e-06
2.52968e-06 -3.55579e-06 -5.13948e-05
0.00238658 6.17727e-05 3.18983e-05
6.17727e-05 0.000876482 -3.34941e-06
3.18983e-05 -3.34941e-06 0.000888107
0.000714169 4.14522e-05 1.46479e-08
4.14522e-05 -2.80823e-05 5.8572e-08
1.46479e-08 5.8572e-08 -4.41828e-05
0.00255408 6.83906e-05 -8.96722e-07
6.83906e-05 0.000972771 -1.09632e-07
-8.96722e-07 -1.09632e-07 0.000981831
0.000703391 5.41127e-05 -9.76345e-07
5.41127e-05 -2.2682e-05 4.5568e-06
-9.76345e-07 4.5568e-06 -4.49542e-05
0.00273382 7.50539e-05 -4.50853e-05
7.50539e-05 0.00107315 3.24166e-06
-4.50853e-05 3.24166e-06 0.00107963
0.001169 6.51412e-05 -8.22374e-06
6.51412e-05 1.70824e-05 -2.58666e-06
-8.22374e-06 -2.58666e-06 -7.32785e-05
0.00120527 3.60262e-05 -8.07167e-06
3.60262e-05 9.68789e-06 -1.694e-06
-8.07167e-06 -1.694e-06 -8.13461e-05
0.00145518 5.6388e-05 -3.6147e-06
5.6388e-05 7.1306e-05 -9.02416e-07
-3.6147e-06 -9.02416e-07 -3.29405e-05
0.00153876 2.06876e-05 -3.87371e-06
2.06876e-05 8.17201e-05 -1.43523e-06
-3.87371e-06 -1.43523e-06 -2.75191e-05
0.00128042 1.40639e-05 -8.87981e-06
1.40639e-05 1.21235e-05 -1.32227e-06
-8.87981e-06 -1.32227e-06 -8.51777e-05
0.000763668 5.54193e-06 -1.374e-05
5.54193e-06 -9.62776e-05 -5.14066e-08
-1.374e-05 -5.14066e-08 -0.000155678
0.0012804 1.35022e-06 -1.87047e-08
1.35022e-06 9.52792e-06 -1.48082e-07
-1.87047e-08 -1.48082e-07 -8.80596e-05
0.00155623 1.63438e-05 -3.40966e-08
1.63438e-05 7.15963e-05 -4.31905e-07
-3.40966e-08 -4.31905e-07 -4.09949e-05
0.00148312 3.49198e-05 7.47389e-08
3.49198e-05 7.18904e-05 2.08598e-07
7.47389e-08 2.08598e-07 -3.33653e-05
0.00161552 1.69709e-05 -2.98666e-09
1.69709e-05 7.71508e-05 -6.36297e-08
-2.98666e-09 -6.36297e-08 -3.42543e-05
0.00140922 7.49196e-05 -1.14714e-07
7.49196e-05 6.39779e-05 1.04747e-08
-1.14714e-07 1.04747e-08 -4.14902e-05
0.00158491 6.00104e-05 -2.70887e-08
6.00104e-05 9.0473e-05 5.62357e-08
-2.70887e-08 5.62357e-08 -1.58559e-05
0.00155482 5.98751e-06 4.44128e-06
5.98751e-06 6.87928e-05 -4.80118e-07
4.44128e-06 -4.80118e-07 -4.39391e-05
0.00161609 1.30209e-05 1.32348e-06
1.30209e-05 5.9378e-05 5.45461e-07
1.32348e-06 5.45461e-07 -5.5947e-05
0.00160132 3.84777e-05 1.26886e-06
3.84777e-05 8.51235e-05 9.60437e-07
1.26886e-06 9.60437e-07 -2.26252e-05
0.00185017 1.3092e-05 4.022e-07
1.3092e-05 0.000175596 5.19356e-07
4.022e-07 5.19356e-07 6.64604e-05
0.00153354 7.52779e-05 7.35415e-07
7.52779e-05 8.19304e-05 -3.46981e-08
7.35415e-07 -3.46981e-08 -2.65234e-05
0.00166527 5.07434e-05 -1.71294e-06
5.07434e-05 0.000100635 5.24542e-07
-1.71294e-06 5.24542e-07 5.12813e-07
0.00087786 1.05226e-06 -8.50368e-06
1.05226e-06 -0.000190792 9.59083e-07
-8.50368e-06 9.59083e-07 -0.000288854
0.00161676 -3.16494e-05 -1.28674e-05
-3.16494e-05 0.000238256 1.74323e-06
-1.28674e-05 1.74323e-06 0.00015407
0.00167406 -3.3861e-06 -6.0954e-06
-3.3861e-06 0.000168356 1.87171e-06
-6.0954e-06 1.87171e-06 6.31425e-05
0.00186696 -6.36567e-05 -3.86408e-06
-6.36567e-05 0.000288287 3.68959e-07
-3.86408e-06 3.68959e-07 0.000188041
0.000670387 4.30082e-05 -3.94498e-06
4.30082e-05 -2.95709e-05 4.52352e-06
-3.94498e-06 4.52352e-06 -6.12747e-05
0.000888143 -3.87789e-05 -3.08893e-06
-3.87789e-05 7.00471e-05 1.5439e-06
-3.08893e-06 1.5439e-06 -2.89062e-06
0.000877785 -9.21534e-05 -6.53552e-07
-9.21534e-05 3.2138e-05 1.65208e-07
-6.53552e-07 1.65208e-07 -6.27042e-05
0.00183162 -0.000107458 -5.02137e-06
-0.000107458 0.000325802 1.78632e-06
-5.02137e-06 1.78632e-06 0.000220559
0.00140991 -7.66005e-05 -1.93044e-06
-7.66005e-05 5.33071e-06 2.28572e-07
-1.93044e-06 2.28572e-07 -0.000101822
0.00134899 -0.000108381 -1.27136e-06
-0.000108381 7.72251e-05 1.0167e-06
-1.27136e-06 1.0167e-06 -3.57336e-05
0.00106651 -0.000111584 -1.54826e-06
-0.000111584 4.94715e-05 1.14803e-06
-1.54826e-06 1.14803e-06 -6.68337e-05
0.00113475 -0.000110928 2.10366e-06
-0.000110928 -3.07671e-06 -3.57059e-09
2.10366e-06 -3.57059e-09 -0.000117963
0.000756433 -1.16341e-06 -2.50054e-06
-1.16341e-06 -8.61632e-06 1.91861e-06
-2.50054e-06 1.91861e-06 -7.21648e-05
0.000801226 -2.79528e-06 -1.11327e-06
-2.79528e-06 8.58962e-06 2.78647e-07
-1.11327e-06 2.78647e-07 -6.84524e-05
0.000757163 3.44366e-05 -7.61709e-07
3.44366e-05 -1.33943e-05 2.13442e-06
-7.61709e-07 2.13442e-06 -6.01358e-05
0.0017378 2.89829e-06 -1.87732e-06
2.89829e-06 0.00018037 1.86887e-07
-1.87732e-06 1.86887e-07 7.08359e-05
0.00163274 -3.5139e-05 -9.40621e-07
-3.5139e-05 0.000162088 8.9439e-08
-9.40621e-07 8.9439e-08 6.16332e-05
0.00167567 -6.21046e-06 -6.69042e-07
-6.21046e-06 0.000127896 6.98936e-07
-6.69042e-07 6.98936e-07 1.71661e-05
0.00170622 -5.20801e-05 2.97046e-07
-5.20801e-05 0.000148859 -1.02442e-07
2.97046e-07 -1.02442e-07 4.45198e-05
0.000810274 -2.0948e-05 1.83065e-07
-2.0948e-05 2.675e-05 -2.22197e-07
1.83065e-07 -2.22197e-07 -4.3677e-05
0.0010058 -9.29432e-05 -1.63838e-07
-9.29432e-05 0.000111756 3.12062e-07
-1.63838e-07 3.12062e-07 2.24981e-05
0.00082193 -9.98288e-05 5.97285e-07
-9.98288e-05 -1.09508e-05 -9.31019e-07
5.97285e-07 -9.31019e-07 -0.00012104
0.001495 -0.000104045 3.4015e-07
-0.000104045 9.72566e-05 -4.83194e-07
3.4015e-07 -4.83194e-07 -1.44085e-05
0.00161997 -7.5897e-05 1.98602e-07
-7.5897e-05 7.99761e-05 8.11824e-07
1.98602e-07 8.11824e-07 -2.29398e-05
0.00125449 -0.000126849 -6.07709e-08
-0.000126849 0.000123278 2.40892e-07
-6.07709e-08 2.40892e-07 -8.31097e-07
0.00142134 -0.000112637 -2.1931e-07
-0.000112637 7.98622e-05 7.96832e-08
-2.1931e-07 7.96832e-08 -3.42734e-05
0.00163639 -0.000133585 1.02984e-06
-0.000133585 0.000234301 6.36141e-07
1.02984e-06 6.36141e-07 0.000124692
0.00093841 -4.67553e-05 -1.9313e-07
-4.67553e-05 8.10214e-05 -2.09496e-07
-1.9313e-07 -2.09496e-07 -1.02274e-06
0.000948589 -8.19804e-05 -2.76631e-07
-8.19804e-05 9.6303e-05 3.59723e-07
-2.76631e-07 3.59723e-07 5.15075e-06
0.000788391 3.22768e-05 1.7248e-07
3.22768e-05 -1.79567e-06 8.35307e-08
1.7248e-07 8.35307e-08 -4.28622e-05
0.000774491 1.6081e-05 -1.10887e-07
1.6081e-05 -8.97338e-06 -5.00904e-07
-1.10887e-07 -5.00904e-07 -7.811e-05
0.00168212 9.59232e-07 1.56056e-06
9.59232e-07 0.000110453 -1.14422e-06
1.56056e-06 -1.14422e-06 -4.29175e-06
0.00171214 -2.90532e-05 1.08469e-06
-2.90532e-05 0.000158643 1.34461e-08
1.08469e-06 1.34461e-08 5.32432e-05
0.00174553 -5.08894e-06 4.71085e-07
-5.08894e-06 0.000137442 -3.79343e-07
4.71085e-07 -3.79343e-07 2.84543e-05
0.0015879 -4.32873e-05 -1.3178e-07
-4.32873e-05 5.42286e-05 -8.73013e-07
-1.3178e-07 -8.73013e-07 -4.93166e-05
0.00150062 -0.000101665 -9.96443e-07
-0.000101665 5.01124e-05 -6.32179e-08
-9.96443e-07 -6.32179e-08 -6.05013e-05
0.0017654 -7.37525e-05 8.21467e-07
-7.37525e-05 0.000129633 1.12307e-07
8.21467e-07 1.12307e-07 2.68312e-05
0.000915841 -8.45138e-05 1.24316e-06
-8.45138e-05 6.81513e-05 4.75091e-07
1.24316e-06 4.75091e-07 -1.64142e-05
0.0012545 -0.000109612 -3.6082e-06
-0.000109612 -2.91169e-05 3.81607e-08
-3.6082e-06 3.81607e-08 -0.000132789
0.000661119 -8.73868e-05 -1.08796e-07
-8.73868e-05 -6.62511e-05 -8.55518e-07
-1.08796e-07 -8.55518e-07 -0.000167086
0.00110686 -0.000120636 1.82791e-06
-0.000120636 0.00011682 -1.48673e-06
1.82791e-06 -1.48673e-06 -7.71108e-06
0.0013409 -0.000137424 1.11248e-06
-0.000137424 0.000144675 2.28856e-06
1.11248e-06 2.28856e-06 1.54566e-05
0.00212162 -0.000152838 -1.10533e-06
-0.000152838 0.000471743 1.76787e-06
-1.10533e-06 1.76787e-06 0.000361686
0.00080327 2.21641e-05 1.65642e-06
2.21641e-05 1.93929e-06 -1.69958e-06
1.65642e-06 -1.69958e-06 -3.57546e-05
0.000738517 5.07014e-06 5.39614e-07
5.07014e-06 -2.65481e-05 -1.26613e-06
5.39614e-07 -1.26613e-06 -9.18068e-05
0.000960507 -9.7044e-05 2.20077e-07
-9.7044e-05 9.82815e-05 1.28429e-06
2.20077e-07 1.28429e-06 5.63494e-06
0.000969765 -6.09778e-05 8.48706e-07
-6.09778e-05 0.000104825 3.95096e-08
8.48706e-07 3.95096e-08 2.1493e-05
0.000949306 -9.66052e-05 -5.54767e-07
-9.66052e-05 9.96828e-05 1.89892e-06
-5.54767e-07 1.89892e-06 3.97395e-06
0.000705655 -3.58402e-05 -2.51208e-06
-3.58402e-05 -3.67676e-05 -3.40765e-06
-2.51208e-06 -3.40765e-06 -4.68908e-05
0.00136926 9.26252e-05 -2.93331e-06
9.26252e-05 7.10308e-05 -7.52159e-07
-2.93331e-06 -7.52159e-07 -3.71026e-05
0.000781306 -4.28784e-05 -8.90981e-07
-4.28784e-05 4.89825e-06 -1.95387e-06
-8.90981e-07 -1.95387e-06 -3.83766e-05
0.000837874 -6.31835e-06 -1.20752e-06
-6.31835e-06 4.09409e-05 -2.24574e-06
-1.20752e-06 -2.24574e-06 -2.13774e-05
0.000897117 9.57377e-07 -5.5515e-08
9.57377e-07 6.73214e-05 -9.69328e-07
-5.5515e-08 -9.69328e-07 -6.73944e-06
0.00110285 0.00010714 -2.63916e-06
0.00010714 5.18042e-05 -1.75746e-06
-2.63916e-06 -1.75746e-06 -5.15199e-05
0.00136765 0.000115033 -1.47556e-06
0.000115033 7.96597e-05 -4.9809e-07
-1.47556e-06 -4.9809e-07 -3.77006e-05
0.000927189 8.42361e-05 -1.48729e-06
8.42361e-05 8.05155e-05 -4.5928e-07
-1.48729e-06 -4.5928e-07 -9.81791e-06
0.00110906 0.000113503 -2.09606e-06
0.000113503 0.000161339 -1.00861e-06
-2.09606e-06 -1.00861e-06 4.67327e-05
0.00152119 0.000130588 -1.43234e-06
0.000130588 0.00029017 -1.32612e-06
-1.43234e-06 -1.32612e-06 0.000185905
0.0010346 0.000112194 -3.15833e-06
0.000112194 7.04552e-05 2.14512e-06
-3.15833e-06 2.14512e-06 -3.31738e-05
0.00073933 -3.25735e-05 9.64787e-08
-3.25735e-05 -2.68211e-05 2.7678e-08
9.64787e-08 2.7678e-08 -3.41526e-05
0.000786925 -3.62235e-05 -1.0891e-07
-3.62235e-05 1.70209e-06 7.99561e-08
-1.0891e-07 7.99561e-08 -3.51598e-05
0.000942642 4.19535e-05 3.63522e-07
4.19535e-05 8.83728e-05 -8.11898e-08
3.63522e-07 -8.11898e-08 6.00409e-06
0.000856738 -1.04549e-05 -4.12693e-08
-1.04549e-05 4.18121e-05 8.06106e-08
-4.12693e-08 8.06106e-08 -2.26296e-05
0.00089599 5.36759e-05 4.37139e-07
5.36759e-05 7.55039e-05 -2.87421e-07
4.37139e-07 -2.87421e-07 -1.34774e-05
0.00146844 9.58589e-05 1.15651e-06
9.58589e-05 7.44002e-05 3.57677e-07
1.15651e-06 3.57677e-07 -3.93751e-05
0.00123419 0.000119492 1.33107e-07
0.000119492 8.4636e-05 3.92256e-08
1.33107e-07 3.92256e-08 -2.74987e-05
0.00144288 0.000122504 8.58271e-07
0.000122504 9.1508e-05 9.27612e-07
8.58271e-07 9.27612e-07 -2.91016e-05
0.001028 0.000104032 9.34422e-07
0.000104032 0.000142431 1.01354e-06
9.34422e-07 1.01354e-06 3.28168e-05
0.00132945 0.000127143 7.23609e-07
0.000127143 0.000169919 -9.77335e-07
7.23609e-07 -9.77335e-07 6.25719e-05
0.000851088 0.000105732 -1.58513e-06
0.000105732 1.27117e-06 -8.80247e-07
-1.58513e-06 -8.80247e-07 -0.000121558
0.000799966 -2.89338e-05 1.2053e-06
-2.89338e-05 3.40569e-06 1.76907e-06
1.2053e-06 1.76907e-06 -2.96008e-05
0.000845119 -6.50413e-06 5.16371e-07
-6.50413e-06 2.9867e-05 1.10764e-06
5.16371e-07 1.10764e-06 -2.54713e-05
0.00106141 9.98205e-05 3.84475e-07
9.98205e-05 0.000160694 -2.22025e-07
3.84475e-07 -2.22025e-07 6.05082e-05
0.000908821 1.49086e-05 5.40335e-07
1.49086e-05 7.77936e-05 4.73529e-07
5.40335e-07 4.73529e-07 -6.79062e-07
0.00102689 5.32502e-05 3.83312e-07
5.32502e-05 0.000149036 -1.18408e-06
3.83312e-07 -1.18408e-06 5.15528e-05
0.00153326 9.4761e-05 -1.48724e-06
9.4761e-05 7.58841e-05 -1.12076e-06
-1.48724e-06 -1.12076e-06 -3.73857e-05
0.0013007 0.000129605 6.06488e-07
0.000129605 9.10765e-05 1.63031e-06
6.06488e-07 1.63031e-06 -2.43583e-05
0.00125019 0.000127856 -4.56174e-06
0.000127856 -1.33254e-05 3.16658e-07
-4.56174e-06 3.16658e-07 -0.000125319
0.000955206 0.000105321 3.4805e-07
0.000105321 0.000111323 2.23016e-06
3.4805e-07 2.23016e-06 -1.57859e-05
0.00122274 0.00013368 3.55963e-06
0.00013368 0.000136586 -8.11463e-07
3.55963e-06 -8.11463e-07 1.10869e-05
0.000809992 -2.20851e-05 5.37738e-08
-2.20851e-05 4.38339e-06 1.79362e-09
5.37738e-08 1.79362e-09 -2.60153e-05
0.000691876 -1.8631e-05 6.36036e-07
-1.8631e-05 -5.46271e-05 1.39697e-06
6.36036e-07 1.39697e-06 -0.000102631
0.00077818 -1.44521e-05 -6.72086e-07
-1.44521e-05 -8.43148e-06 -1.35117e-08
-6.72086e-07 -1.35117e-08 -5.52957e-05
0.00104301 1.34328e-05 1.03478e-06
1.34328e-05 0.000141739 -8.87226e-08
1.03478e-06 -8.87226e-08 8.33448e-05
0.000850233 1.1316e-05 1.63212e-06
1.1316e-05 2.87187e-05 8.09884e-07
1.63212e-06 8.09884e-07 -1.75392e-05
0.000836351 -6.13609e-06 7.92634e-07
-6.13609e-06 7.75162e-06 1.70519e-06
7.92634e-07 1.70519e-06 -1.85608e-05
0.000827869 -1.4342e-05 1.71218e-08
-1.4342e-05 6.57435e-06 2.09953e-08
1.71218e-08 2.09953e-08 -2.05333e-05
0.00129317 -2.53021e-05 1.36525e-06
-2.53021e-05 0.000253254 1.9889e-06
1.36525e-06 1.9889e-06 0.000255001
0.000818196 -1.69187e-05 -1.05899e-06
-1.69187e-05 5.74304e-06 -1.76657e-06
-1.05899e-06 -1.76657e-06 -2.29549e-05
0.00131492 -2.93086e-05 -3.8305e-06
-2.93086e-05 0.000270308 -1.16627e-06
-3.8305e-06 -1.16627e-06 0.000270486
0.00100137 -2.40764e-05 1.81801e-05
-2.40764e-05 0.000103534 6.17511e-06
1.81801e-05 6.17511e-06 0.000118018
0.00130245 -3.25321e-05 -9.13846e-06
-3.25321e-05 0.000270294 -3.12629e-06
-9.13846e-06 -3.12629e-06 0.000268569
0.00152473 -3.48778e-05 1.64716e-05
-3.48778e-05 0.000394001 2.03187e-06
1.64716e-05 2.03187e-06 0.000409412
0.0021174 -4.73288e-05 -2.39124e-05
-4.73288e-05 0.000719895 -3.48397e-06
-2.39124e-05 -3.48397e-06 0.000736572
0.000715883 3.16878e-05 2.10467e-06
3.16878e-05 -4.1464e-05 -3.53459e-06
2.10467e-06 -3.53459e-06 -5.15218e-05
0.000726155 3.5825e-05 -1.33151e-07
3.5825e-05 -2.97218e-05 1.89358e-08
-1.33151e-07 1.89358e-08 -4.2367e-05
0.00232536 5.55184e-05 2.84073e-05
5.55184e-05 0.000836137 -3.52336e-06
2.84073e-05 -3.52336e-06 0.000849837
0.00241858 6.17804e-05 -8.19189e-07
6.17804e-05 0.000894187 -9.60314e-08
-8.19189e-07 -9.60314e-08 0.000905578
0.000731955 4.4115e-05 -2.04825e-06
4.4115e-05 -1.82423e-05 3.96487e-06
-2.04825e-06 3.96487e-06 -3.48389e-05
0.00258906 6.76895e-05 -4.07882e-05
6.76895e-05 0.000991371 3.29434e-06
-4.07882e-05 3.29434e-06 0.00100034
0.00142419 7.57742e-05 -3.76103e-06
7.57742e-05 7.10978e-05 -7.87885e-07
-3.76103e-06 -7.87885e-07 -3.44403e-05
0.00148309 3.56266e-05 -3.68786e-06
3.56266e-05 7.23968e-05 -8.84383e-07
-3.68786e-06 -8.84383e-07 -3.29538e-05
0.00158516 6.06569e-05 -8.65504e-07
6.06569e-05 9.0621e-05 -1.99863e-07
-8.65504e-07 -1.99863e-07 -1.57174e-05
0.00157439 1.60793e-05 -1.28106e-06
1.60793e-05 5.36008e-05 -1.10833e-06
-1.28106e-06 -1.10833e-06 -5.81397e-05
0.00157672 1.97556e-05 -4.033e-06
1.97556e-05 8.20992e-05 -1.02987e-06
-4.033e-06 -1.02987e-06 -3.05067e-05
0.00129046 6.19969e-06 -8.80348e-06
6.19969e-06 1.42955e-05 1.7857e-07
-8.80348e-06 1.7857e-07 -8.32714e-05
0.00156549 1.01999e-05 5.48304e-08
1.01999e-05 7.4297e-05 -1.47772e-07
5.48304e-08 -1.47772e-07 -3.8481e-05
0.0016103 4.95306e-06 1.63533e-07
4.95306e-06 5.54695e-05 4.2838e-08
1.63533e-07 4.2838e-08 -6.02504e-05
0.00161694 3.7718e-05 7.07411e-09
3.7718e-05 9.35228e-05 2.08883e-07
7.07411e-09 2.08883e-07 -1.41455e-05
0.00177513 1.25974e-05 -1.63811e-08
1.25974e-05 0.000135468 -4.03817e-07
-1.63811e-08 -4.03817e-07 2.66492e-05
0.00153717 7.64587e-05 -1.69423e-07
7.64587e-05 8.3132e-05 1.0713e-07
-1.69423e-07 1.0713e-07 -2.55079e-05
0.00163126 5.01757e-05 -2.70551e-08
5.01757e-05 8.04102e-05 5.83034e-07
-2.70551e-08 5.83034e-07 -1.94612e-05
0.00165155 -5.6219e-08 2.21256e-06
-5.6219e-08 7.73361e-05 -3.83446e-07
2.21256e-06 -3.83446e-07 -3.92239e-05
0.00177985 1.44421e-05 1.29471e-07
1.44421e-05 0.000120665 4.16744e-07
1.29471e-07 4.16744e-07 6.68218e-06
0.00161533 2.9608e-05 -3.76497e-07
2.9608e-05 5.96204e-05 1.65859e-06
-3.76497e-07 1.65859e-06 -4.40641e-05
0.00177753 8.94943e-06 1.33476e-07
8.94943e-06 0.000124463 2.53031e-07
1.33476e-07 2.53031e-07 1.78065e-05
0.00155648 6.93832e-05 -1.45937e-06
6.93832e-05 5.86284e-05 -7.30795e-07
-1.45937e-06 -7.30795e-07 -4.56434e-05
0.00186941 4.3037e-05 -2.74668e-07
4.3037e-05 0.000179893 2.08408e-07
-2.74668e-07 2.08408e-07 8.39233e-05
0.00155644 2.96316e-06 -5.86042e-06
2.96316e-06 8.20042e-05 1.24615e-06
-5.86042e-06 1.24615e-06 -2.93493e-05
0.00162302 -3.67351e-05 -5.11885e-06
-3.67351e-05 0.000155796 9.04299e-07
-5.11885e-06 9.04299e-07 5.55186e-05
0.00152947 -5.58959e-06 -2.23894e-06
-5.58959e-06 5.03176e-05 1.44576e-06
-2.23894e-06 1.44576e-06 -6.07116e-05
0.00179802 -5.15813e-05 -1.59124e-06
-5.15813e-05 0.000197882 -6.94114e-08
-1.59124e-06 -6.94114e-08 9.37414e-05
0.00082718 -2.46663e-05 -2.68185e-06
-2.46663e-05 3.35802e-05 1.58407e-06
-2.68185e-06 1.58407e-06 -3.64532e-05
0.00109151 -9.75925e-05 -1.55108e-06
-9.75925e-05 0.000155157 5.41867e-07
-1.55108e-06 5.41867e-07 6.53566e-05
0.000910938 -0.000102661 -3.33763e-07
-0.000102661 3.9224e-05 2.21295e-07
-3.33763e-07 2.21295e-07 -6.94609e-05
0.00173816 -0.000110151 -1.49385e-06
-0.000110151 0.000227758 3.49701e-07
-1.49385e-06 3.49701e-07 0.000116293
0.00154998 -7.39848e-05 2.46501e-07
-7.39848e-05 3.95182e-05 2.12655e-07
2.46501e-07 2.12655e-07 -6.27596e-05
0.00143004 -0.000111633 1.04907e-06
-0.000111633 8.30792e-05 1.05987e-06
1.04907e-06 1.05987e-06 -3.0874e-05
0.00099601 -0.000115575 -8.02893e-07
-0.000115575 -8.28615e-06 1.96178e-07
-8.02893e-07 1.96178e-07 -0.000133086
0.00139176 -0.000124222 4.06066e-06
-0.000124222 0.000107128 -2.41368e-06
4.06066e-06 -2.41368e-06 -1.10972e-06
0.000955413 -3.70852e-05 -1.28005e-06
-3.70852e-05 8.94574e-05 -3.61753e-07
-1.28005e-06 -3.61753e-07 8.10022e-06
0.000926174 -6.42897e-05 -7.30679e-07
-6.42897e-05 7.98165e-05 -5.45067e-07
-7.30679e-07 -5.45067e-07 -9.56336e-06
0.000779109 3.06393e-05 -1.0677e-06
3.06393e-05 -6.55337e-06 1.85989e-06
-1.0677e-06 1.85989e-06 -4.763e-05
0.000786875 2.83091e-05 -1.73582e-07
2.83091e-05 -3.99093e-06 3.42833e-07
-1.73582e-07 3.42833e-07 -7.13265e-05
0.00167024 1.61666e-06 -1.01803e-07
1.61666e-06 0.000104197 -2.53116e-07
-1.01803e-07 -2.53116e-07 -1.06396e-05
0.00173356 -2.64572e-05 -7.05533e-07
-2.64572e-05 0.000169517 1.55443e-07
-7.05533e-07 1.55443e-07 6.43183e-05
0.00166329 -5.74645e-06 -6.52995e-07
-5.74645e-06 9.89318e-05 7.89159e-07
-6.52995e-07 7.89159e-07 -8.89036e-06
0.00166585 -4.49826e-05 1.76728e-08
-4.49826e-05 9.45642e-05 -5.17647e-07
1.76728e-08 -5.17647e-07 -9.03863e-06
0.000978058 -6.93506e-05 -2.44992e-07
-6.93506e-05 9.8287e-05 1.07172e-07
-2.44992e-07 1.07172e-07 1.46647e-05
0.000753844 -9.09688e-05 5.23387e-07
-9.09688e-05 -1.71004e-05 -4.79538e-07
5.23387e-07 -4.79538e-07 -0.0001166
0.00110931 -0.000120026 1.11214e-07
-0.000120026 0.000119744 -1.749e-07
1.11214e-07 -1.749e-07 -5.10357e-06
0.0016463 -0.000105088 -3.97895e-07
-0.000105088 0.000128416 -4.8935e-07
-3.97895e-07 -4.8935e-07 1.74283e-05
0.0016635 -7.22683e-05 -4.75227e-07
-7.22683e-05 7.98292e-05 1.4655e-07
-4.75227e-07 1.4655e-07 -2.08345e-05
0.00133232 -0.0001356 -2.72668e-07
-0.0001356 0.000141321 6.15211e-07
-2.72668e-07 6.15211e-07 1.13482e-05
0.00143085 -0.00011359 -4.21526e-07
-0.00011359 6.00516e-05 1.24061e-06
-4.21526e-07 1.24061e-06 -4.37876e-05
0.00167814 -0.000136596 1.34958e-06
-0.000136596 0.000240007 -1.62291e-06
1.34958e-06 -1.62291e-06 0.000133187
0.00101126 -9.96452e-05 4.92661e-08
-9.96452e-05 0.000124058 -3.7651e-08
4.92661e-08 -3.7651e-08 3.13439e-05
0.000976289 -9.26032e-05 8.77472e-08
-9.26032e-05 0.000111899 1.7946e-07
8.77472e-08 1.7946e-07 1.68548e-05
0.000948367 -4.08709e-05 -3.27543e-07
-4.08709e-05 9.19721e-05 -1.77432e-08
-3.27543e-07 -1.77432e-08 9.9459e-06
0.000684579 2.69479e-05 -2.3618e-07
2.69479e-05 -6.10109e-05 4.75681e-09
-2.3618e-07 4.75681e-09 -9.98057e-05
0.000756551 2.26241e-05 6.69162e-08
2.26241e-05 -2.03408e-05 -3.4019e-07
6.69162e-08 -3.4019e-07 -8.29942e-05
0.00171493 2.57927e-06 7.64385e-07
2.57927e-06 9.69471e-05 -1.16186e-06
7.64385e-07 -1.16186e-06 -1.5761e-05
0.00165442 -1.22398e-05 1.05495e-06
-1.22398e-05 8.73028e-05 -4.92193e-07
1.05495e-06 -4.92193e-07 -1.78948e-05
0.00161965 -4.79406e-05 1.10356e-06
-4.79406e-05 4.31087e-05 -8.58566e-07
1.10356e-06 -8.58566e-07 -6.01024e-05
0.00140453 -8.73069e-05 1.86259e-07
-8.73069e-05 -3.34826e-05 -1.95838e-06
1.86259e-07 -1.95838e-06 -0.00013811
0.00092886 -9.71324e-05 -1.3651e-07
-9.71324e-05 7.87035e-05 1.22928e-06
-1.3651e-07 1.22928e-06 -1.47248e-05
0.00211017 -0.000141616 -1.48917e-06
-0.000141616 0.000369393 1.0113e-06
-1.48917e-06 1.0113e-06 0.000271408
0.000324255 -7.31795e-05 -1.66192e-07
-7.31795e-05 -0.000238534 -2.29772e-06
-1.66192e-07 -2.29772e-06 -0.000347062
0.00121164 -0.000133374 2.95523e-06
-0.000133374 0.0001496 -1.17426e-06
2.95523e-06 -1.17426e-06 9.11841e-06
0.00168576 -0.000154477 1.59546e-06
-0.000154477 0.000289747 2.45881e-06
1.59546e-06 2.45881e-06 0.000155149
0.000587405 2.03348e-05 1.29737e-06
2.03348e-05 -0.000115956 -2.40983e-06
1.29737e-06 -2.40983e-06 -0.000153246
0.000953249 7.41846e-07 1.40469e-06
7.41846e-07 8.68173e-05 -7.34492e-07
1.40469e-06 -7.34492e-07 2.81123e-05
0.000969251 -2.88611e-05 9.23967e-08
-2.88611e-05 0.000100442 -1.35843e-07
9.23967e-08 -1.35843e-07 2.69655e-05
0.000965278 -9.77867e-05 -5.53113e-07
-9.77867e-05 0.000100947 2.10129e-06
-5.53113e-07 2.10129e-06 6.99322e-06
0.00106678 -6.3162e-05 3.819e-07
-6.3162e-05 0.000157384 1.27686e-06
3.819e-07 1.27686e-06 6.68755e-05
0.000904689 -9.4428e-05 -2.63839e-07
-9.4428e-05 6.87237e-05 1.86692e-06
-2.63839e-07 1.86692e-06 -2.77831e-05
0.00071767 -3.18601e-05 -2.07604e-06
-3.18601e-05 -3.81143e-05 -3.39359e-06
-2.07604e-06 -3.39359e-06 -4.53442e-05
0.000794049 -3.53878e-05 -1.44263e-06
-3.53878e-05 5.29597e-06 -1.65856e-06
-1.44263e-06 -1.65856e-06 -3.1402e-05
0.00148429 9.68359e-05 -5.50007e-07
9.68359e-05 8.2685e-05 3.98359e-07
-5.50007e-07 3.98359e-07 -3.14006e-05
0.000875683 -2.81261e-05 1.37725e-09
-2.81261e-05 5.06462e-05 -1.15292e-06
1.37725e-09 -1.15292e-06 -1.27645e-05
0.000873472 3.66422e-05 -8.46234e-07
3.66422e-05 5.06318e-05 -3.24594e-07
-8.46234e-07 -3.24594e-07 -3.02924e-05
0.000853469 4.29878e-05 1.49889e-07
4.29878e-05 5.09685e-05 -1.11712e-09
1.49889e-07 -1.11712e-09 -3.737e-05
0.00123512 0.000120194 -1.01366e-06
0.000120194 8.56338e-05 -1.88896e-06
-1.01366e-06 -1.88896e-06 -2.65398e-05
0.00139102 0.000121912 8.03346e-07
0.000121912 6.55162e-05 5.8319e-08
8.03346e-07 5.8319e-08 -5.55309e-05
0.000933432 9.92616e-05 -3.73506e-07
9.92616e-05 9.42651e-05 -2.58618e-07
-3.73506e-07 -2.58618e-07 -1.48758e-05
0.00129427 0.000127813 -1.62017e-06
0.000127813 0.000230022 1.2172e-06
-1.62017e-06 1.2172e-06 0.000106945
0.0014753 0.000132979 -2.26964e-06
0.000132979 0.000247837 -1.27046e-06
-2.26964e-06 -1.27046e-06 0.000140521
0.0008016 -2.80404e-05 8.5554e-09
-2.80404e-05 4.49661e-06 2.42125e-08
8.5554e-09 2.42125e-08 -2.84761e-05
0.000847167 -2.03608e-05 -2.33301e-07
-2.03608e-05 3.07061e-05 1.79664e-07
-2.33301e-07 1.79664e-07 -2.44246e-05
0.00100809 9.7169e-05 -4.82644e-07
9.7169e-05 0.00013401 -2.85129e-07
-4.82644e-07 -2.85129e-07 3.44793e-05
0.00089743 7.4328e-06 1.82432e-07
7.4328e-06 6.93274e-05 5.7291e-09
1.82432e-07 5.7291e-09 -7.76084e-06
0.00094042 6.11639e-05 1.30871e-07
6.11639e-05 0.000105553 -6.73689e-07
1.30871e-07 -6.73689e-07 5.88941e-06
0.00153436 9.70203e-05 -6.62714e-07
9.70203e-05 7.83925e-05 -3.0526e-07
-6.62714e-07 -3.0526e-07 -3.54733e-05
0.0013172 0.000130137 9.7773e-07
0.000130137 9.89974e-05 -3.36081e-08
9.7773e-07 -3.36081e-08 -1.66561e-05
0.00138963 0.00013131 7.65668e-07
0.00013131 5.36873e-05 1.98843e-06
7.65668e-07 1.98843e-06 -5.58995e-05
0.00077659 9.6397e-05 7.13628e-07
9.6397e-05 1.82812e-05 1.81521e-06
7.13628e-07 1.81521e-06 -0.000108025
0.00124155 0.000134287 -4.7737e-07
0.000134287 0.000147965 -1.12344e-06
-4.7737e-07 -1.12344e-06 1.92243e-05
0.000840385 -7.90456e-06 7.61311e-07
-7.90456e-06 2.5915e-05 9.64455e-07
7.61311e-07 9.64455e-07 -2.37253e-05
0.000774387 -1.1705e-05 -9.67977e-08
-1.1705e-05 -2.41971e-06 1.274e-06
-9.67977e-08 1.274e-06 -7.16963e-05
0.0010905 0.000106929 -3.04961e-07
0.000106929 0.000190065 -9.22638e-07
-3.04961e-07 -9.22638e-07 7.52133e-05
0.000805349 2.92673e-05 1.35686e-07
2.92673e-05 2.83326e-05 1.78817e-07
1.35686e-07 1.78817e-07 -6.40509e-05
0.00103019 7.50325e-05 -2.22337e-07
7.50325e-05 0.000147023 -1.58692e-06
-2.22337e-07 -1.58692e-06 3.98905e-05
0.00157844 9.37812e-05 -2.45204e-06
9.37812e-05 5.48176e-05 9.94113e-07
-2.45204e-06 9.94113e-07 -4.07172e-05
0.00173489 0.000162881 -7.38714e-07
0.000162881 0.000305175 -9.40721e-07
-7.38714e-07 -9.40721e-07 0.000179721
0.000455133 0.000105702 -2.07437e-07
0.000105702 -0.000476215 -9.58903e-07
-2.07437e-07 -9.58903e-07 -0.000578326
0.00169533 0.000145838 3.93242e-06
0.000145838 0.000484203 2.84143e-06
3.93242e-06 2.84143e-06 0.000345744
0.00013588 8.89395e-05 -2.37799e-07
8.89395e-05 -0.00042132 -9.09978e-07
-2.37799e-07 -9.09978e-07 -0.000564572
0.000809981 -2.0136e-05 -1.40245e-06
-2.0136e-05 4.7182e-06 -1.67074e-06
-1.40245e-06 -1.67074e-06 -2.56748e-05
0.000776457 -1.27358e-05 1.38616e-07
-1.27358e-05 -9.24264e-06 5.40858e-07
1.38616e-07 5.40858e-07 -5.70269e-05
0.000773164 -2.69763e-05 1.10832e-07
-2.69763e-05 -6.64398e-06 1.03812e-06
1.10832e-07 1.03812e-06 -6.63935e-05
0.000732629 -3.11089e-05 -7.54693e-07
-3.11089e-05 -3.34542e-05 -6.20412e-07
-7.54693e-07 -6.20412e-07 -8.03845e-05
0.00085917 -4.27726e-06 2.22222e-07
-4.27726e-06 3.24771e-05 -3.5246e-08
2.22222e-07 -3.5246e-08 -1.30917e-05
0.000894975 -1.89803e-05 1.92228e-07
-1.89803e-05 5.96322e-05 -3.8202e-07
1.92228e-07 -3.8202e-07 2.79566e-06
0.000996524 5.84503e-06 1.95892e-07
5.84503e-06 0.000118613 -2.73714e-07
1.95892e-07 -2.73714e-07 5.45083e-05
0.000795542 -3.41615e-05 1.55011e-07
-3.41615e-05 8.28212e-06 3.75989e-07
1.55011e-07 3.75989e-07 -4.90862e-05
0.000878987 -1.5109e-05 2.00942e-07
-1.5109e-05 3.87497e-05 7.07243e-07
2.00942e-07 7.07243e-07 -5.05977e-06
0.00082761 6.33109e-07 8.20096e-07
6.33109e-07 2.04893e-06 1.57568e-06
8.20096e-07 1.57568e-06 -2.44246e-05
0.000830165 -1.02558e-05 -1.46804e-07
-1.02558e-05 4.67926e-06 1.60954e-08
-1.46804e-07 1.60954e-08 -2.16892e-05
0.00129064 -1.88475e-05 1.17544e-06
-1.88475e-05 0.000247299 1.92407e-06
1.17544e-06 1.92407e-06 0.000250058
0.000824628 -1.4634e-05 -7.20865e-07
-1.4634e-05 5.02613e-06 -1.75737e-06
-7.20865e-07 -1.75737e-06 -2.21222e-05
0.00130778 -2.36975e-05 -3.18792e-06
-2.36975e-05 0.000260829 -1.15598e-06
-3.18792e-06 -1.15598e-06 0.000262734
0.00099405 -1.99382e-05 1.46254e-05
-1.99382e-05 9.38039e-05 6.15159e-06
1.46254e-05 6.15159e-06 0.000109785
0.00132697 -2.79897e-05 -7.79669e-06
-2.79897e-05 0.00027632 -4.35485e-06
-7.79669e-06 -4.35485e-06 0.000276719
0.000945737 -2.53455e-05 5.9707e-06
-2.53455e-05 7.38375e-05 2.35584e-06
5.9707e-06 2.35584e-06 8.81091e-05
0.00203759 -4.55005e-05 -6.19621e-06
-4.55005e-05 0.000670815 -1.53232e-06
-6.19621e-06 -1.53232e-06 0.000688664
0.000728863 2.83329e-05 1.58016e-06
2.83329e-05 -4.05088e-05 -3.49677e-06
1.58016e-06 -3.49677e-06 -4.82355e-05
0.000732567 3.21204e-05 -1.27102e-07
3.21204e-05 -3.2684e-05 1.98092e-08
-1.27102e-07 1.98092e-08 -4.2833e-05
0.00227633 4.91464e-05 2.49043e-05
4.91464e-05 0.000802768 -3.67554e-06
2.49043e-05 -3.67554e-06 0.000818374
0.000744867 3.67374e-05 -2.68803e-06
3.67374e-05 -1.97899e-05 3.58719e-06
-2.68803e-06 3.58719e-06 -3.26005e-05
0.00233643 5.53686e-05 -1.07623e-06
5.53686e-05 0.000842985 -9.15372e-08
-1.07623e-06 -9.15372e-08 0.000856514
0.00244559 6.12179e-05 -3.55423e-05
6.12179e-05 0.000909138 3.36437e-06
-3.55423e-05 3.36437e-06 0.000920411
0.0015425 7.76158e-05 -1.55844e-06
7.76158e-05 8.52017e-05 1.55642e-07
-1.55844e-06 1.55642e-07 -2.36226e-05
0.00163364 3.60683e-05 -8.47765e-07
3.60683e-05 0.00010249 -4.81901e-07
-8.47765e-07 -4.81901e-07 -5.06054e-06
0.00159128 4.95309e-05 1.62008e-06
4.95309e-05 5.70725e-05 9.36695e-08
1.62008e-06 9.36695e-08 -4.25411e-05
0.00169304 1.20031e-05 -3.63252e-07
1.20031e-05 9.16891e-05 -1.3328e-06
-3.63252e-07 -1.3328e-06 -1.68104e-05
0.0016042 8.01652e-08 -1.33304e-06
8.01652e-08 5.14524e-05 -5.50975e-07
-1.33304e-06 -5.50975e-07 -6.46928e-05
0.00157323 1.35786e-05 -4.0859e-06
1.35786e-05 7.82709e-05 2.17798e-07
-4.0859e-06 2.17798e-07 -3.45204e-05
0.00166156 3.48733e-06 2.00085e-07
3.48733e-06 8.31172e-05 -1.60128e-07
2.00085e-07 -1.60128e-07 -3.35924e-05
0.00178755 1.03849e-05 1.20678e-07
1.03849e-05 0.000126197 -6.82828e-08
1.20678e-07 -6.82828e-08 1.19874e-05
0.00162386 2.79214e-05 -9.24989e-08
2.79214e-05 6.34092e-05 3.99045e-07
-9.24989e-08 3.99045e-07 -4.07794e-05
0.00172899 9.08184e-06 2.24382e-07
9.08184e-06 9.67323e-05 -5.90043e-07
2.24382e-07 -5.90043e-07 -9.56793e-06
0.00158155 7.07031e-05 -5.10466e-07
7.07031e-05 7.12792e-05 1.38033e-07
-5.10466e-07 1.38033e-07 -3.29848e-05
0.00172274 4.23652e-05 1.33899e-06
4.23652e-05 0.000105739 -3.59474e-07
1.33899e-06 -3.59474e-07 1.12817e-05
0.00175368 1.07106e-05 2.5799e-07
1.07106e-05 0.000103643 -1.38071e-07
2.5799e-07 -1.38071e-07 -1.2061e-05
0.00175464 9.48272e-06 -4.77633e-07
9.48272e-06 9.64082e-05 4.09334e-07
-4.77633e-07 4.09334e-07 -1.26758e-05
0.00172537 2.31324e-05 5.57933e-08
2.31324e-05 8.79526e-05 1.0674e-06
5.57933e-08 1.0674e-06 -1.06605e-05
0.00177811 6.33528e-05 -1.09024e-06
6.33528e-05 0.000135719 -2.82228e-07
-1.09024e-06 -2.82228e-07 4.09112e-05
0.00165711 2.24035e-06 -1.84607e-06
2.24035e-06 9.73243e-05 6.70681e-07
-1.84607e-06 6.70681e-07 -1.76043e-05
0.00176029 -2.55635e-05 -2.58821e-06
-2.55635e-05 0.000183071 5.62158e-07
-2.58821e-06 5.62158e-07 7.80375e-05
0.00158992 -6.35969e-06 -1.51837e-06
-6.35969e-06 6.49217e-05 1.93075e-06
-1.51837e-06 1.93075e-06 -4.17185e-05
0.00174189 -4.60916e-05 -4.40616e-07
-4.60916e-05 0.000133947 6.01725e-08
-4.40616e-07 6.01725e-08 3.02908e-05
0.00104237 -6.81886e-05 -1.43711e-06
-6.81886e-05 0.000131778 -2.97805e-07
-1.43711e-06 -2.97805e-07 4.76232e-05
0.000866422 -9.58036e-05 5.82129e-07
-9.58036e-05 4.22638e-05 -1.8544e-07
5.82129e-07 -1.8544e-07 -5.6016e-05
0.00110277 -0.000118981 -9.63003e-07
-0.000118981 0.000118021 1.64974e-06
-9.63003e-07 1.64974e-06 -7.10617e-06
0.00178955 -0.00010841 -3.42593e-07
-0.00010841 0.000205422 -6.93266e-08
-3.42593e-07 -6.93266e-08 9.40728e-05
0.00156959 -7.10291e-05 -1.62025e-06
-7.10291e-05 3.42455e-05 7.94388e-07
-1.62025e-06 7.94388e-07 -6.43102e-05
0.0015813 -0.000116897 2.47837e-06
-0.000116897 0.000136288 2.36352e-06
2.47837e-06 2.36352e-06 3.2276e-05
0.00130132 -0.000132773 -9.76199e-07
-0.000132773 0.000126392 -7.66684e-07
-9.76199e-07 -7.66684e-07 -4.26855e-06
0.00125972 -0.000121258 1.81259e-07
-0.000121258 2.1596e-05 -6.55824e-06
1.81259e-07 -6.55824e-06 -8.21202e-05
0.00105876 -0.000102125 -1.54497e-07
-0.000102125 0.000148328 -1.29286e-06
-1.54497e-07 -1.29286e-06 5.55241e-05
0.00101722 -9.26652e-05 -1.29814e-07
-9.26652e-05 0.000131687 -1.89669e-06
-1.29814e-07 -1.89669e-06 3.68235e-05
0.000917466 -2.33258e-05 1.43954e-07
-2.33258e-05 7.51684e-05 1.06107e-07
1.43954e-07 1.06107e-07 -6.03981e-06
0.00057164 2.732e-05 -1.20671e-06
2.732e-05 -0.000121312 1.7913e-06
-1.20671e-06 1.7913e-06 -0.000160973
0.000781032 3.5906e-05 -1.5334e-07
3.5906e-05 -9.5838e-06 3.57543e-07
-1.5334e-07 3.57543e-07 -7.04293e-05
0.00169172 2.19813e-06 -4.51004e-07
2.19813e-06 8.78453e-05 8.4701e-08
-4.51004e-07 8.4701e-08 -2.41422e-05
0.00167391 -1.3018e-05 -4.68105e-08
-1.3018e-05 9.77364e-05 -3.82469e-07
-4.68105e-08 -3.82469e-07 -7.76736e-06
0.00175456 -4.97534e-05 -8.51193e-07
-4.97534e-05 0.000116259 -1.44831e-07
-8.51193e-07 -1.44831e-07 1.33303e-05
0.00102373 -0.00010157 -1.75723e-08
-0.00010157 0.000126691 2.48647e-07
-1.75723e-08 2.48647e-07 3.29135e-05
0.000747237 -9.37201e-05 1.20504e-06
-9.37201e-05 -2.0057e-05 -1.10167e-06
1.20504e-06 -1.10167e-06 -0.000128282
0.00116276 -0.000130096 -1.57795e-07
-0.000130096 0.00012738 -8.34837e-08
-1.57795e-07 -8.34837e-08 -1.3628e-05
0.00165286 -9.29134e-05 5.23819e-07
-9.29134e-05 9.2279e-05 -1.33219e-06
5.23819e-07 -1.33219e-06 -1.21812e-05
0.00155663 -0.000146144 -2.35418e-07
-0.000146144 0.000223033 -1.20104e-07
-2.35418e-07 -1.20104e-07 9.21296e-05
0.00158004 -0.000128024 -1.51163e-06
-0.000128024 0.00010847 1.19439e-07
-1.51163e-06 1.19439e-07 1.15122e-05
0.000583015 2.33499e-05 8.49621e-08
2.33499e-05 -0.000118465 -5.86998e-07
8.49621e-08 -5.86998e-07 -0.000155481
0.00101676 -0.00010044 -7.29132e-09
-0.00010044 0.000127378 1.09354e-07
-7.29132e-09 1.09354e-07 3.31993e-05
0.000924959 -9.50897e-05 -5.34132e-07
-9.50897e-05 7.9941e-05 2.13523e-07
-5.34132e-07 2.13523e-07 -1.61858e-05
0.00105016 -6.66745e-05 -3.08368e-07
-6.66745e-05 0.000151612 7.94179e-07
-3.08368e-07 7.94179e-07 5.90623e-05
0.00099719 -2.44919e-05 2.11387e-08
-2.44919e-05 0.000115857 2.52879e-08
2.11387e-08 2.52879e-08 4.23085e-05
0.000846571 1.38262e-05 -2.06653e-07
1.38262e-05 2.73126e-05 1.95001e-07
-2.06653e-07 1.95001e-07 -3.03874e-05
0.0018133 -2.34305e-06 4.57387e-07
-2.34305e-06 0.000134986 -9.14665e-07
4.57387e-07 -9.14665e-07 2.69047e-05
0.00174563 -1.61693e-05 -1.2119e-07
-1.61693e-05 0.000105287 -1.10189e-07
-1.2119e-07 -1.10189e-07 5.73877e-06
0.00139398 -5.81175e-05 1.72266e-06
-5.81175e-05 -8.2554e-05 -3.84639e-07
1.72266e-06 -3.84639e-07 -0.000186653
0.00188301 -0.000115799 8.11637e-07
-0.000115799 0.000150063 -3.4276e-06
8.11637e-07 -3.4276e-06 4.75794e-05
0.000949781 -9.9277e-05 -8.03027e-07
-9.9277e-05 9.11481e-05 1.28468e-06
-8.03027e-07 1.28468e-06 -6.32344e-06
0.00169879 -0.000149627 3.01986e-06
-0.000149627 0.000203029 2.86544e-06
3.01986e-06 2.86544e-06 8.41697e-05
0.000664228 -9.70009e-05 -4.55695e-07
-9.70009e-05 -7.17827e-05 -2.86418e-06
-4.55695e-07 -2.86418e-06 -0.000201461
0.00154932 -0.000154612 9.12597e-07
-0.000154612 0.000303965 1.14533e-06
9.12597e-07 1.14533e-06 0.000150271
0.000600091 1.97335e-05 8.18819e-07
1.97335e-05 -0.000111492 -2.37936e-06
8.18819e-07 -2.37936e-06 -0.000146234
0.000965237 -1.19611e-06 1.15078e-06
-1.19611e-06 9.14065e-05 -8.71056e-07
1.15078e-06 -8.71056e-07 3.67578e-05
0.00103974 -2.95418e-05 2.5568e-07
-2.95418e-05 0.000138897 5.35852e-07
2.5568e-07 5.35852e-07 6.86049e-05
0.000965415 -2.64496e-05 4.99237e-07
-2.64496e-05 0.000102432 -7.85963e-07
4.99237e-07 -7.85963e-07 1.84615e-05
0.00106267 -0.000102984 -3.09284e-07
-0.000102984 0.000148684 2.20515e-06
-3.09284e-07 2.20515e-06 5.18614e-05
0.000959618 -9.87845e-05 -1.29342e-06
-9.87845e-05 9.89311e-05 3.10031e-06
-1.29342e-06 3.10031e-06 -3.22611e-08
0.000801989 -2.69499e-05 -1.52404e-06
-2.69499e-05 4.83402e-06 -1.63614e-06
-1.52404e-06 -1.63614e-06 -2.8057e-05
0.000843606 -3.10918e-05 -3.09585e-07
-3.10918e-05 2.88191e-05 -9.78119e-07
-3.09585e-07 -9.78119e-07 -2.62603e-05
0.00154031 9.94818e-05 6.41729e-07
9.94818e-05 8.34625e-05 7.71509e-07
6.41729e-07 7.71509e-07 -3.1026e-05
0.000897141 -2.39715e-06 -7.02455e-08
-2.39715e-06 6.68184e-05 -4.68764e-07
-7.02455e-08 -4.68764e-07 -8.95518e-06
0.000942943 9.39704e-05 -1.80367e-07
9.39704e-05 0.000101513 -1.80889e-07
-1.80367e-07 -1.80889e-07 2.63172e-06
0.000862083 4.83675e-05 -2.74089e-07
4.83675e-05 6.20525e-05 -6.06089e-08
-2.74089e-07 -6.06089e-08 -3.6939e-05
0.0013423 0.00013105 -5.78821e-07
0.00013105 0.000111266 -2.00481e-06
-5.78821e-07 -2.00481e-06 -4.62438e-06
0.00152686 0.000134862 2.14164e-06
0.000134862 0.00011912 -1.47518e-07
2.14164e-06 -1.47518e-07 1.20155e-05
0.000612641 8.84108e-05 3.0419e-07
8.84108e-05 -6.69277e-05 7.10655e-07
3.0419e-07 7.10655e-07 -0.00019252
0.00129757 0.000136821 -1.27053e-06
0.000136821 0.000179415 3.26764e-07
-1.27053e-06 3.26764e-07 4.71752e-05
0.000839256 -1.85439e-05 -2.56953e-07
-1.85439e-05 2.51591e-05 1.06933e-07
-2.56953e-07 1.06933e-07 -2.45632e-05
0.00082581 -3.96589e-06 4.4895e-08
-3.96589e-06 2.46689e-05 6.17095e-07
4.4895e-08 6.17095e-07 -4.44603e-05
0.00107103 0.000105756 8.0558e-08
0.000105756 0.000182624 -9.46903e-07
8.0558e-08 -9.46903e-07 6.90105e-05
0.000854021 7.54089e-06 -1.66692e-07
7.54089e-06 5.02417e-05 1.9929e-08
-1.66692e-07 1.9929e-08 -3.91116e-05
0.000940336 6.86242e-05 -9.77631e-07
6.86242e-05 0.00010247 -9.75959e-07
-9.77631e-07 -9.75959e-07 -4.47155e-06
0.00178554 9.76101e-05 -1.4388e-06
9.76101e-05 0.000160223 -3.27232e-07
-1.4388e-06 -3.27232e-07 6.39381e-05
0.00168808 0.00016009 1.68702e-06
0.00016009 0.000274586 2.7541e-07
1.68702e-06 2.7541e-07 0.000150469
0.000943472 0.000122867 -7.38208e-07
0.000122867 -0.000207103 6.33694e-07
-7.38208e-07 6.33694e-07 -0.000300657
0.00127993 0.000125517 1.12909e-06
0.000125517 0.000270255 1.27381e-06
1.12909e-06 1.27381e-06 0.00013269
0.000660262 0.000115422 -1.53974e-06
0.000115422 -0.000151599 -1.0075e-06
-1.53974e-06 -1.0075e-06 -0.000302544
0.000775765 -1.63363e-05 2.58895e-07
-1.63363e-05 -5.12066e-06 1.11508e-06
2.58895e-07 1.11508e-06 -6.73879e-05
0.000741841 2.98281e-05 1.78645e-07
2.98281e-05 -1.00818e-05 1.11268e-07
1.78645e-07 1.11268e-07 -9.55939e-05
0.00105747 0.000105566 3.80689e-07
0.000105566 0.000176267 -7.60598e-07
3.80689e-07 -7.60598e-07 5.16545e-05
0.000568161 4.47555e-05 1.45903e-08
4.47555e-05 -9.46702e-05 1.63846e-07
1.45903e-08 1.63846e-07 -0.000201795
0.00206854 7.63075e-05 -2.19916e-06
7.63075e-05 0.00023626 1.98083e-07
-2.19916e-06 1.98083e-07 0.000153066
0.00166633 0.000121316 1.98571e-06
0.000121316 4.77609e-05 1.30794e-06
1.98571e-06 1.30794e-06 -3.6208e-05
0.00144523 0.000161599 5.72559e-07
0.000161599 0.000126018 -4.00459e-06
5.72559e-07 -4.00459e-06 -1.27348e-05
0.000297021 8.35805e-05 -4.08875e-07
8.35805e-05 -0.000261138 1.4416e-06
-4.08875e-07 1.4416e-06 -0.000426998
0.000850626 2.56888e-06 -6.89938e-07
2.56888e-06 3.30571e-05 -4.11906e-07
-6.89938e-07 -4.11906e-07 -1.60792e-05
0.000857195 -1.01962e-05 -1.46721e-07
-1.01962e-05 3.95803e-05 3.77702e-07
-1.46721e-07 3.77702e-07 -2.07625e-05
0.00094714 -1.70779e-05 1.04144e-07
-1.70779e-05 9.06546e-05 5.36947e-07
1.04144e-07 5.36947e-07 2.34496e-05
0.000853135 -1.94989e-05 -7.40307e-07
-1.94989e-05 2.75853e-05 -6.95088e-07
-7.40307e-07 -6.95088e-07 -1.68489e-05
0.000748442 -3.60523e-05 1.84582e-07
-3.60523e-05 -1.83721e-05 -6.08668e-07
1.84582e-07 -6.08668e-07 -7.60068e-05
0.000865775 -1.29919e-05 4.97617e-08
-1.29919e-05 3.16296e-05 3.86494e-08
4.97617e-08 3.86494e-08 -1.21242e-05
0.000917963 1.50538e-05 -1.65984e-07
1.50538e-05 8.01446e-05 -3.33635e-07
-1.65984e-07 -3.33635e-07 1.30564e-05
0.000812839 -1.74218e-05 1.46165e-07
-1.74218e-05 1.97673e-05 2.96148e-07
1.46165e-07 2.96148e-07 -3.89475e-05
0.000946629 -2.45899e-06 3.20069e-07
-2.45899e-06 9.4244e-05 -3.40928e-08
3.20069e-07 -3.40928e-08 2.37935e-05
0.00081707 -3.67916e-05 -2.25675e-07
-3.67916e-05 2.4185e-05 4.04992e-07
-2.25675e-07 4.04992e-07 -4.09746e-05
0.000763478 1.05172e-05 3.68732e-07
1.05172e-05 -9.29838e-06 5.58926e-07
3.68732e-07 5.58926e-07 -6.61192e-05
0.000875454 2.09869e-06 3.81793e-07
2.09869e-06 3.54062e-05 6.39196e-07
3.81793e-07 6.39196e-07 -8.25985e-06
0.000820249 5.07423e-06 6.86889e-07
5.07423e-06 -1.55713e-06 1.51208e-06
6.86889e-07 1.51208e-06 -2.87396e-05
0.000826525 -5.98657e-06 -2.47582e-07
-5.98657e-06 1.59474e-06 5.38573e-09
-2.47582e-07 5.38573e-09 -2.49613e-05
0.0012976 -1.24642e-05 9.71076e-07
-1.24642e-05 0.000248279 1.85883e-06
9.71076e-07 1.85883e-06 0.000251244
0.000821118 -1.50792e-05 -3.74262e-07
-1.50792e-05 1.46382e-08 -1.66902e-06
-3.74262e-07 -1.66902e-06 -2.64006e-05
0.00131234 -1.74804e-05 -2.55176e-06
-1.74804e-05 0.000258994 -1.19231e-06
-2.55176e-06 -1.19231e-06 0.000261695
0.000997518 -1.53569e-05 1.16831e-05
-1.53569e-05 9.15399e-05 6.23985e-06
1.16831e-05 6.23985e-06 0.000108121
0.00132662 -2.2571e-05 -6.02926e-06
-2.2571e-05 0.000270679 -4.29612e-06
-6.02926e-06 -4.29612e-06 0.000272649
0.000947349 -2.08575e-05 4.5356e-06
-2.08575e-05 6.87201e-05 2.35909e-06
4.5356e-06 2.35909e-06 8.46224e-05
0.000888124 -2.56372e-05 -2.27292e-06
-2.56372e-05 4.31216e-05 -1.59741e-06
-2.27292e-06 -1.59741e-06 5.73696e-05
0.000739422 2.45652e-05 1.11199e-06
2.45652e-05 -4.05641e-05 -3.41071e-06
1.11199e-06 -3.41071e-06 -4.58734e-05
0.000741885 2.86337e-05 -1.62465e-07
2.86337e-05 -3.36729e-05 2.0178e-08
-1.62465e-07 2.0178e-08 -4.14707e-05
0.00222428 4.24959e-05 2.11622e-05
4.24959e-05 0.000768299 -3.78503e-06
2.11622e-05 -3.78503e-06 0.000785732
0.000751587 3.26144e-05 -2.33653e-06
3.26144e-05 -2.26702e-05 3.51061e-06
-2.33653e-06 3.51061e-06 -3.2919e-05
0.00228684 4.91631e-05 -1.20535e-06
4.91631e-05 0.000809304 -8.50606e-08
-1.20535e-06 -8.50606e-08 0.000824716
0.00235173 5.51096e-05 -3.11632e-05
5.51096e-05 0.000852018 3.49846e-06
-3.11632e-05 3.49846e-06 0.000865396
0.00160709 7.20914e-05 1.41587e-06
7.20914e-05 8.41228e-05 1.24963e-06
1.41587e-06 1.24963e-06 -2.01327e-05
0.00163624 2.61712e-05 -1.03444e-07
2.61712e-05 6.91756e-05 -5.51585e-07
-1.03444e-07 -5.51585e-07 -3.55121e-05
0.00159911 4.18165e-05 1.98591e-06
4.18165e-05 4.32731e-05 -1.16861e-06
1.98591e-06 -1.16861e-06 -4.96652e-05
0.0016978 9.25179e-06 4.29902e-07
9.25179e-06 7.79217e-05 -1.35172e-06
4.29902e-07 -1.35172e-06 -2.80163e-05
0.00179574 7.58944e-06 2.32982e-08
7.58944e-06 0.000132229 -5.61866e-07
2.32982e-08 -5.61866e-07 1.77125e-05
0.00166822 2.23264e-06 -1.62304e-06
2.23264e-06 8.71241e-05 4.33813e-08
-1.62304e-06 4.33813e-08 -2.97035e-05
0.00176761 1.15574e-05 -7.07591e-08
1.15574e-05 0.000113255 -3.22279e-09
-7.07591e-08 -3.22279e-09 -1.92517e-06
0.00176096 5.63763e-06 2.40198e-07
5.63763e-06 0.000100546 -7.90805e-08
2.40198e-07 -7.90805e-08 -8.59092e-06
0.00172347 2.39042e-05 7.53158e-07
2.39042e-05 8.66304e-05 -1.44483e-07
7.53158e-07 -1.44483e-07 -1.18924e-05
0.00170639 5.90884e-05 9.60741e-08
5.90884e-05 9.69428e-05 -1.795e-07
9.60741e-08 -1.795e-07 2.49864e-06
0.00180424 6.56053e-06 -1.02775e-06
6.56053e-06 0.000117564 4.04448e-08
-1.02775e-06 4.04448e-08 6.70999e-06
0.00188531 8.07304e-06 -6.06637e-07
8.07304e-06 0.000145069 3.59128e-07
-6.06637e-07 3.59128e-07 4.65154e-05
0.00175727 4.38337e-05 1.28857e-07
4.38337e-05 8.85404e-05 8.80021e-07
1.28857e-07 8.80021e-07 -3.9564e-06
0.00166573 1.99511e-06 -1.2235e-06
1.99511e-06 7.73154e-05 1.00044e-06
-1.2235e-06 1.00044e-06 -3.39594e-05
0.00169438 -1.38477e-05 -1.07562e-06
-1.38477e-05 0.000108775 2.81273e-07
-1.07562e-06 2.81273e-07 2.97175e-06
0.00188399 -5.16572e-05 -6.30873e-07
-5.16572e-05 0.000186351 8.61966e-08
-6.30873e-07 8.61966e-08 8.37369e-05
0.00110564 -0.00010521 -2.85423e-07
-0.00010521 0.000167838 -4.70176e-07
-2.85423e-07 -4.70176e-07 7.38083e-05
0.00118943 -0.000115297 2.40994e-07
-0.000115297 0.000208483 3.89072e-07
2.40994e-07 3.89072e-07 0.000100452
0.00112523 -0.00012712 -1.71315e-06
-0.00012712 0.000111227 1.94867e-06
-1.71315e-06 1.94867e-06 -3.06779e-05
0.00191458 -9.87895e-05 -6.59518e-07
-9.87895e-05 0.000224605 9.9554e-08
-6.59518e-07 9.9554e-08 0.000120325
0.0010941 -0.000115488 -3.7778e-06
-0.000115488 -0.000130577 2.368e-06
-3.7778e-06 2.368e-06 -0.000226544
0.00148076 -0.000140414 -2.01764e-06
-0.000140414 0.00018349 -3.20436e-06
-2.01764e-06 -3.20436e-06 5.61378e-05
0.00106493 -0.000102905 3.41036e-07
-0.000102905 0.00015212 -1.7636e-06
3.41036e-07 -1.7636e-06 5.77301e-05
0.000886356 -9.25411e-05 -1.44242e-06
-9.25411e-05 6.09355e-05 -2.04456e-06
-1.44242e-06 -2.04456e-06 -3.45732e-05
0.00102268 -7.90618e-05 3.90791e-07
-7.90618e-05 0.000141432 5.11407e-08
3.90791e-07 5.11407e-08 4.5973e-05
0.000568365 2.44817e-05 -9.74436e-07
2.44817e-05 -0.000126284 1.1832e-06
-9.74436e-07 1.1832e-06 -0.000163032
0.00102567 -1.26601e-05 2.26157e-08
-1.26601e-05 0.0001297 7.14487e-08
2.26157e-08 7.14487e-08 5.72439e-05
0.000732267 2.42961e-05 -1.84534e-07
2.42961e-05 -3.61425e-05 1.10525e-06
-1.84534e-07 1.10525e-06 -9.28538e-05
0.00179604 -5.59507e-07 -9.15493e-08
-5.59507e-07 0.000124007 -8.69166e-08
-9.15493e-08 -8.69166e-08 1.52438e-05
0.00171843 -1.77062e-05 7.27348e-07
-1.77062e-05 9.23642e-05 -1.2651e-07
7.27348e-07 -1.2651e-07 -7.04725e-06
0.00161525 -5.99581e-05 7.30072e-08
-5.99581e-05 3.05606e-05 -1.35513e-07
7.30072e-08 -1.35513e-07 -7.33325e-05
0.00103149 -0.000103257 -1.47712e-08
-0.000103257 0.000131982 7.19443e-07
-1.47712e-08 7.19443e-07 3.39399e-05
0.000784085 -0.000101701 -2.52477e-07
-0.000101701 -3.28766e-06 3.10827e-07
-2.52477e-07 3.10827e-07 -0.000130235
0.00162694 -0.000157621 -1.89702e-06
-0.000157621 0.00034064 1.3552e-06
-1.89702e-06 1.3552e-06 0.000186924
0.00196159 -0.000119233 -7.34984e-07
-0.000119233 0.00019934 3.54525e-07
-7.34984e-07 3.54525e-07 9.84272e-05
0.00151743 -0.000143263 2.13737e-06
-0.000143263 0.000107583 -1.49024e-06
2.13737e-06 -1.49024e-06 -1.11425e-05
0.000702603 1.96729e-05 1.66782e-07
1.96729e-05 -5.7042e-05 -5.70959e-07
1.66782e-07 -5.70959e-07 -9.06895e-05
0.000950236 9.33412e-06 -3.09723e-07
9.33412e-06 8.30453e-05 1.69073e-07
-3.09723e-07 1.69073e-07 2.89385e-05
0.000851202 -9.22553e-05 -8.68955e-07
-9.22553e-05 3.79314e-05 2.27448e-07
-8.68955e-07 2.27448e-07 -5.79293e-05
0.00100587 -9.66644e-05 1.2193e-06
-9.66644e-05 0.000121825 8.52354e-07
1.2193e-06 8.52354e-07 2.53107e-05
0.000915381 -2.89052e-05 7.66675e-09
-2.89052e-05 7.6813e-05 -3.58207e-07
7.66675e-09 -3.58207e-07 -8.32159e-06
0.000975109 -2.63487e-05 -5.85052e-07
-2.63487e-05 0.000104265 8.5111e-07
-5.85052e-07 8.5111e-07 3.40276e-05
0.00177262 -4.41754e-06 -2.18369e-06
-4.41754e-06 9.56791e-05 -1.29803e-07
-2.18369e-06 -1.29803e-07 -4.52307e-06
0.00175706 -2.83876e-05 8.8676e-08
-2.83876e-05 8.70776e-05 4.94007e-07
8.8676e-08 4.94007e-07 -6.22319e-06
0.00170276 -8.13001e-05 3.17867e-07
-8.13001e-05 2.77745e-05 -1.00278e-06
3.17867e-07 -1.00278e-06 -7.11312e-05
0.0017662 -0.000145411 3.25574e-07
-0.000145411 8.8461e-05 -2.78569e-06
3.25574e-07 -2.78569e-06 -9.55202e-06
0.000687969 -8.76231e-05 -1.55395e-06
-8.76231e-05 -3.08263e-05 9.38116e-07
-1.55395e-06 9.38116e-07 -0.000136276
0.00149233 -0.000158244 -1.181e-06
-0.000158244 0.000206785 3.90683e-06
-1.181e-06 3.90683e-06 4.38603e-05
0.00168501 -0.000153506 7.57448e-07
-0.000153506 0.000447608 -2.61851e-06
7.57448e-07 -2.61851e-06 0.000300011
0.000825544 1.58503e-05 5.7004e-07
1.58503e-05 5.82371e-06 -1.68808e-06
5.7004e-07 -1.68808e-06 -2.45639e-05
0.000833296 -4.56505e-05 9.11575e-07
-4.56505e-05 2.72942e-05 -8.9348e-07
9.11575e-07 -8.9348e-07 -2.29351e-05
0.00072319 9.93548e-06 5.03307e-07
9.93548e-06 -3.49655e-05 -1.41989e-06
5.03307e-07 -1.41989e-06 -9.01991e-05
0.000922276 -3.00371e-05 9.46089e-07
-3.00371e-05 7.80924e-05 -1.82769e-07
9.46089e-07 -1.82769e-07 9.33605e-06
0.000922806 1.21831e-05 -1.08367e-08
1.21831e-05 7.85638e-05 -2.46316e-07
-1.08367e-08 -2.46316e-07 2.01289e-06
0.000802201 -9.21802e-05 2.33471e-06
-9.21802e-05 3.6614e-05 1.87562e-06
2.33471e-06 1.87562e-06 -6.55801e-05
0.00080704 -8.92641e-05 -2.56073e-06
-8.92641e-05 -6.16582e-06 2.31149e-06
-2.56073e-06 2.31149e-06 -9.4023e-05
0.00183122 -0.000144598 -1.93385e-06
-0.000144598 0.000571893 2.84777e-06
-1.93385e-06 2.84777e-06 0.000472547
0.000848186 -3.04058e-05 -4.51866e-07
-3.04058e-05 2.97072e-05 -9.14712e-07
-4.51866e-07 -9.14712e-07 -2.00795e-05
0.000879192 4.79015e-06 -3.39457e-07
4.79015e-06 5.29321e-05 5.48736e-08
-3.39457e-07 5.48736e-08 -1.60935e-05
0.00195859 0.000100344 1.24449e-06
0.000100344 0.00024966 1.43055e-07
1.24449e-06 1.43055e-07 0.000152512
0.00090403 1.72173e-05 -3.20473e-07
1.72173e-05 7.81967e-05 -2.85554e-07
-3.20473e-07 -2.85554e-07 -1.18487e-05
0.00105048 0.000104552 -3.71699e-07
0.000104552 0.00017456 -2.17911e-06
-3.71699e-07 -2.17911e-06 6.21601e-05
0.000836827 6.17237e-05 -1.01492e-06
6.17237e-05 5.13196e-05 -3.59009e-08
-1.01492e-06 -3.59009e-08 -5.5424e-05
0.00161244 0.000156003 6.89316e-07
0.000156003 0.000228688 -3.30004e-07
6.89316e-07 -3.30004e-07 0.000106041
0.00141227 0.000139872 3.73417e-06
0.000139872 5.12887e-05 2.7432e-06
3.73417e-06 2.7432e-06 -3.36778e-05
0.000839806 0.000103789 7.4282e-07
0.000103789 4.33294e-05 1.1968e-06
7.4282e-07 1.1968e-06 -9.3415e-05
0.00112323 0.000139098 -3.58315e-06
0.000139098 8.49773e-05 -1.75982e-06
-3.58315e-06 -1.75982e-06 -7.293e-05
0.00077865 -2.62876e-06 1.91103e-07
-2.62876e-06 -1.51573e-06 4.68739e-07
1.91103e-07 4.68739e-07 -6.5904e-05
0.00081153 3.90051e-05 -1.18977e-07
3.90051e-05 2.79863e-05 -8.7962e-07
-1.18977e-07 -8.7962e-07 -5.79087e-05
0.0010487 0.000105482 -6.01367e-07
0.000105482 0.000174116 -1.03221e-06
-6.01367e-07 -1.03221e-06 4.95671e-05
0.000834546 5.77341e-05 -4.02497e-07
5.77341e-05 4.48537e-05 -2.65015e-07
-4.02497e-07 -2.65015e-07 -6.2648e-05
0.00200618 7.24651e-05 8.41927e-08
7.24651e-05 0.000202993 2.41035e-07
8.41927e-08 2.41035e-07 0.0001191
0.00145546 0.000115974 2.21155e-06
0.000115974 -4.35399e-05 -1.35948e-06
2.21155e-06 -1.35948e-06 -0.00012848
0.00198002 0.000181597 -3.27477e-06
0.000181597 0.000399865 -2.97067e-07
-3.27477e-06 -2.97067e-07 0.000264447
0.000670008 0.000105536 1.22143e-06
0.000105536 -8.01752e-05 5.01947e-07
1.22143e-06 5.01947e-07 -0.000244449
0.000926256 -4.4125e-06 2.59661e-07
-4.4125e-06 7.9518e-05 2.55324e-07
2.59661e-07 2.55324e-07 7.87359e-06
0.00161645 4.23481e-05 -2.51342e-06
4.23481e-05 -6.65168e-07 2.16984e-07
-2.51342e-06 2.16984e-07 -8.05169e-05
0.00115484 9.28416e-05 7.09096e-08
9.28416e-05 0.000224677 1.57836e-06
7.09096e-08 1.57836e-06 0.000120149
0.00107072 0.000109901 1.63973e-07
0.000109901 0.000163263 5.96244e-07
1.63973e-07 5.96244e-07 3.04936e-05
0.00216866 9.6426e-05 -1.99761e-06
9.6426e-05 0.000220738 1.82179e-07
-1.99761e-06 1.82179e-07 0.000148942
0.00171794 0.00017749 3.13952e-06
0.00017749 0.000103042 -3.56335e-06
3.13952e-06 -3.56335e-06 -8.89398e-06
0.00159112 0.000160758 -1.28602e-06
0.000160758 0.000332158 2.47158e-06
-1.28602e-06 2.47158e-06 0.000153461
0.000940497 -4.4281e-06 -1.23951e-06
-4.4281e-06 8.28393e-05 -2.41744e-07
-1.23951e-06 -2.41744e-07 2.35438e-05
0.000936451 -1.65945e-05 -6.96737e-08
-1.65945e-05 8.48218e-05 2.37789e-08
-6.96737e-08 2.37789e-08 1.76171e-05
0.000935192 -1.12787e-05 2.25656e-07
-1.12787e-05 8.90542e-05 7.11069e-07
2.25656e-07 7.11069e-07 1.4443e-05
0.000854968 -1.95973e-05 -3.10423e-07
-1.95973e-05 2.66429e-05 -7.05979e-07
-3.10423e-07 -7.05979e-07 -1.76006e-05
0.00085138 -8.56992e-06 1.32851e-08
-8.56992e-06 4.0636e-05 2.13356e-07
1.32851e-08 2.13356e-07 -1.82223e-05
0.000828811 1.40466e-06 -2.79443e-07
1.40466e-06 3.36303e-05 -6.61711e-07
-2.79443e-07 -6.61711e-07 -3.46459e-05
0.000864935 -1.7666e-05 -1.47005e-07
-1.7666e-05 3.16697e-05 1.77823e-08
-1.47005e-07 1.77823e-08 -1.32715e-05
0.000785336 -1.93378e-05 -5.07297e-07
-1.93378e-05 2.62409e-06 3.23999e-07
-5.07297e-07 3.23999e-07 -5.45924e-05
0.00091761 -2.12241e-05 2.93044e-07
-2.12241e-05 7.80524e-05 -3.75233e-07
2.93044e-07 -3.75233e-07 7.07096e-06
0.000900269 3.75956e-06 1.07415e-07
3.75956e-06 7.11922e-05 4.92309e-07
1.07415e-07 4.92309e-07 4.89698e-06
0.000901713 -6.22444e-06 5.11318e-07
-6.22444e-06 6.88622e-05 -5.75897e-07
5.11318e-07 -5.75897e-07 -5.84444e-06
0.000827168 -3.72058e-05 5.70777e-08
-3.72058e-05 2.94055e-05 2.25106e-07
5.70777e-08 2.25106e-07 -4.1195e-05
0.00093146 1.09799e-05 3.86147e-07
1.09799e-05 8.44633e-05 -2.22955e-09
3.86147e-07 -2.22955e-09 2.12091e-05
0.000868199 7.43441e-06 1.18136e-06
7.43441e-06 4.58878e-05 3.37629e-07
1.18136e-06 3.37629e-07 -1.25347e-05
0.000871781 3.42588e-06 4.67184e-07
3.42588e-06 3.35719e-05 6.02141e-07
4.67184e-07 6.02141e-07 -1.08427e-05
0.000816582 9.19272e-06 4.43452e-07
9.19272e-06 -2.48608e-06 1.46119e-06
4.43452e-07 1.46119e-06 -3.04505e-05
0.000823353 -1.60823e-06 -1.64018e-07
-1.60823e-06 1.92966e-07 1.01345e-09
-1.64018e-07 1.01345e-09 -2.70161e-05
0.00130214 -6.09416e-06 7.40341e-07
-6.09416e-06 0.000249273 1.81857e-06
7.40341e-07 1.81857e-06 0.000252066
0.000830012 -1.24088e-05 -2.82857e-07
-1.24088e-05 3.58533e-06 -1.57272e-06
-2.82857e-07 -1.57272e-06 -2.30561e-05
0.00132148 -1.12704e-05 -1.87836e-06
-1.12704e-05 0.000261397 -1.21911e-06
-1.87836e-06 -1.21911e-06 0.000264211
0.00100533 -1.06191e-05 8.64507e-06
-1.06191e-05 9.30914e-05 6.34991e-06
8.64507e-06 6.34991e-06 0.000109848
0.00133636 -1.65401e-05 -4.49385e-06
-1.65401e-05 0.000271898 -4.26602e-06
-4.49385e-06 -4.26602e-06 0.000274479
0.000958614 -1.59668e-05 3.21048e-06
-1.59668e-05 7.01803e-05 2.3972e-06
3.21048e-06 2.3972e-06 8.68493e-05
0.00089945 -2.09134e-05 -1.6719e-06
-2.09134e-05 4.29551e-05 -1.56804e-06
-1.6719e-06 -1.56804e-06 5.89321e-05
0.00081885 1.17861e-05 2.65247e-07
1.17861e-05 -2.99671e-07 -1.6331e-06
2.65247e-07 -1.6331e-06 -2.82886e-05
0.000751625 1.99504e-05 9.09303e-07
1.99504e-05 -3.95793e-05 -3.29638e-06
9.09303e-07 -3.29638e-06 -4.25643e-05
0.000755484 2.49114e-05 -1.40649e-07
2.49114e-05 -3.21613e-05 2.51832e-08
-1.40649e-07 2.51832e-08 -3.75526e-05
0.00216381 3.54517e-05 1.7487e-05
3.54517e-05 0.000729917 -3.84944e-06
1.7487e-05 -3.84944e-06 0.000749147
0.000758475 2.90201e-05 -1.88507e-06
2.90201e-05 -2.48986e-05 3.46428e-06
-1.88507e-06 3.46428e-06 -3.27848e-05
0.00223429 4.26236e-05 -1.43786e-06
4.26236e-05 0.000774523 -7.94622e-08
-1.43786e-06 -7.94622e-08 0.000791753
0.00229615 4.90352e-05 -2.72558e-05
4.90352e-05 0.000815194 3.67058e-06
-2.72558e-05 3.67058e-06 0.000830441
0.00164379 5.48647e-05 9.6523e-07
5.48647e-05 6.26245e-05 -3.47229e-07
9.6523e-07 -3.47229e-07 -3.14094e-05
0.00170478 2.46224e-05 4.0223e-07
2.46224e-05 7.6848e-05 -9.87957e-07
4.0223e-07 -9.87957e-07 -2.16065e-05
0.00175246 5.6783e-06 7.66828e-07
5.6783e-06 9.67971e-05 -5.74375e-07
7.66828e-07 -5.74375e-07 -1.23577e-05
0.00178364 1.2593e-05 -1.499e-07
1.2593e-05 0.000123775 6.07309e-09
-1.499e-07 6.07309e-09 9.19419e-06
0.00179854 6.4981e-06 -1.92403e-07
6.4981e-06 0.000113791 7.0763e-08
-1.92403e-07 7.0763e-08 3.35844e-06
0.00185837 7.94841e-06 2.57619e-07
7.94841e-06 0.000129058 -7.38421e-08
2.57619e-07 -7.38421e-08 2.97105e-05
0.00174763 4.54928e-05 9.59679e-08
4.54928e-05 8.17127e-05 2.3776e-07
9.59679e-08 2.3776e-07 -1.03263e-05
0.00177825 -1.62128e-06 -1.62323e-06
-1.62128e-06 9.24791e-05 1.54346e-07
-1.62323e-06 1.54346e-07 -7.93579e-06
0.00193205 2.05366e-05 -2.00266e-06
2.05366e-05 0.000158728 2.47201e-07
-2.00266e-06 2.47201e-07 6.89748e-05
0.00177259 1.61716e-05 -1.23576e-06
1.61716e-05 6.82651e-05 4.2152e-07
-1.23576e-06 4.2152e-07 -7.15474e-06
0.00177439 1.18978e-06 1.79417e-07
1.18978e-06 0.000110617 5.71183e-07
1.79417e-07 5.71183e-07 1.16247e-06
0.00169355 -1.93807e-05 4.47189e-07
-1.93807e-05 8.07235e-05 -2.22238e-07
4.47189e-07 -2.22238e-07 -1.85809e-05
0.00185525 -6.25298e-05 -1.20853e-06
-6.25298e-05 0.000153282 -5.06183e-07
-1.20853e-06 -5.06183e-07 4.95481e-05
0.00110505 -0.000106837 -1.40841e-07
-0.000106837 0.000168519 5.06412e-07
-1.40841e-07 5.06412e-07 6.99463e-05
0.000844748 -0.000103685 4.23557e-07
-0.000103685 3.37218e-05 3.22913e-06
4.23557e-07 3.22913e-06 -9.01964e-05
0.001639 -0.000157435 -2.46185e-06
-0.000157435 0.000343297 2.69298e-06
-2.46185e-06 2.69298e-06 0.000190739
0.0020304 -0.000122461 3.82087e-06
-0.000122461 0.000243895 1.99579e-06
3.82087e-06 1.99579e-06 0.000144649
0.00123614 -0.000133018 -2.33876e-06
-0.000133018 -3.85927e-05 -2.0698e-06
-2.33876e-06 -2.0698e-06 -0.000156927
0.000637042 -8.15046e-05 -1.41867e-06
-8.15046e-05 -7.44641e-05 -8.41004e-07
-1.41867e-06 -8.41004e-07 -0.000169331
0.00110517 -0.000100559 3.06073e-06
-0.000100559 0.000173341 -2.99727e-06
3.06073e-06 -2.99727e-06 7.83431e-05
0.000843792 9.70275e-06 -1.12595e-07
9.70275e-06 3.41188e-05 -3.76341e-07
-1.12595e-07 -3.76341e-07 -4.75206e-05
0.000810716 1.92479e-05 -7.53016e-07
1.92479e-05 1.81696e-07 1.1367e-06
-7.53016e-07 1.1367e-06 -3.23536e-05
0.000941898 2.46244e-05 -7.2968e-07
2.46244e-05 7.87425e-05 1.1285e-06
-7.2968e-07 1.1285e-06 2.4705e-05
0.000908419 -9.35481e-06 -6.36713e-07
-9.35481e-06 6.93939e-05 1.13659e-06
-6.36713e-07 1.13659e-06 -1.30859e-06
0.00181794 -4.04408e-06 1.1062e-07
-4.04408e-06 0.000121395 2.0901e-07
1.1062e-07 2.0901e-07 2.26226e-05
0.000824031 1.48861e-05 2.36568e-08
1.48861e-05 4.70998e-06 1.8047e-08
2.36568e-08 1.8047e-08 -2.56421e-05
0.000769173 -2.0597e-06 -2.71737e-07
-2.0597e-06 -1.15698e-05 7.32929e-08
-2.71737e-07 7.32929e-08 -5.91277e-05
0.00178389 -3.03383e-05 -1.6617e-07
-3.03383e-05 0.000100853 -4.01509e-07
-1.6617e-07 -4.01509e-07 6.91323e-06
0.00170684 -8.04481e-05 -3.13255e-07
-8.04481e-05 3.34324e-05 3.70847e-07
-3.13255e-07 3.70847e-07 -6.81437e-05
0.000742374 -8.96541e-05 7.98776e-08
-8.96541e-05 8.75508e-07 1.87316e-06
7.98776e-08 1.87316e-06 -0.000102872
0.00136552 -0.000137302 -8.12448e-07
-0.000137302 0.00028153 3.19836e-07
-8.12448e-07 3.19836e-07 0.00012914
0.00129844 -0.000147465 1.15457e-06
-0.000147465 0.000100777 9.72128e-07
1.15457e-06 9.72128e-07 -5.53979e-05
0.00183205 -0.000150337 5.76867e-07
-0.000150337 0.000126336 -4.24131e-07
5.76867e-07 -4.24131e-07 2.83765e-05
0.000906858 -1.56887e-05 1.01943e-06
-1.56887e-05 6.22757e-05 -5.17453e-07
1.01943e-06 -5.17453e-07 8.94092e-06
0.000907053 -1.60485e-05 -4.60652e-07
-1.60485e-05 7.13913e-05 4.46071e-07
-4.60652e-07 4.46071e-07 1.76864e-06
0.000920868 -9.24279e-05 5.43488e-07
-9.24279e-05 4.90319e-05 4.47332e-07
5.43488e-07 4.47332e-07 -4.13847e-05
0.00125978 -0.000115785 1.47706e-06
-0.000115785 0.000270348 -1.31268e-06
1.47706e-06 -1.31268e-06 0.000180202
0.000762512 -6.42517e-05 -1.97614e-07
-6.42517e-05 1.31051e-05 3.4036e-07
-1.97614e-07 3.4036e-07 -8.78835e-05
0.000920766 6.07703e-06 8.73298e-08
6.07703e-06 7.88982e-05 -2.88753e-07
8.73298e-08 -2.88753e-07 1.02693e-06
0.00178155 -8.92528e-06 -3.45468e-06
-8.92528e-06 7.98944e-05 -9.69192e-08
-3.45468e-06 -9.69192e-08 -4.70696e-06
0.00202981 -3.05504e-05 2.14652e-06
-3.05504e-05 0.000201219 1.73743e-06
2.14652e-06 1.73743e-06 0.000108357
0.00179883 -0.000131019 -3.09437e-06
-0.000131019 2.06978e-05 -4.04505e-06
-3.09437e-06 -4.04505e-06 -6.1156e-05
0.00118197 -0.000153338 -1.08778e-06
-0.000153338 -0.00010888 1.70254e-06
-1.08778e-06 1.70254e-06 -0.000225952
0.00106087 -8.92584e-05 -2.54573e-06
-8.92584e-05 0.000157397 -7.35722e-07
-2.54573e-06 -7.35722e-07 5.10244e-05
0.00180322 -0.000175817 -2.56748e-06
-0.000175817 0.000469979 -6.43666e-07
-2.56748e-06 -6.43666e-07 0.000286981
0.000687107 3.82373e-05 -1.07773e-06
3.82373e-05 -5.40442e-05 -1.27616e-06
-1.07773e-06 -1.27616e-06 -0.000101148
0.000835838 -1.71926e-05 4.18963e-07
-1.71926e-05 2.26018e-05 -9.6897e-07
4.18963e-07 -9.6897e-07 -2.64709e-05
0.00103356 -2.98131e-05 5.82921e-07
-2.98131e-05 0.000143606 -4.36197e-07
5.82921e-07 -4.36197e-07 8.19816e-05
0.000757208 1.83167e-05 -6.4877e-07
1.83167e-05 -5.029e-06 -5.46574e-07
-6.4877e-07 -5.46574e-07 -7.60238e-05
0.00105684 -5.15497e-06 2.06479e-07
-5.15497e-06 0.000153839 8.82406e-09
2.06479e-07 8.82406e-09 7.85221e-05
0.000615836 -1.4357e-05 3.27875e-07
-1.4357e-05 -6.54757e-05 3.32045e-07
3.27875e-07 3.32045e-07 -0.00015579
0.00119481 -7.41922e-05 5.49971e-06
-7.41922e-05 0.000258314 2.08132e-07
5.49971e-06 2.08132e-07 0.000146386
0.00078954 -9.60008e-05 -7.38449e-06
-9.60008e-05 1.53917e-06 2.74036e-06
-7.38449e-06 2.74036e-06 -8.22614e-05
0.000774274 1.18357e-05 -3.51121e-07
1.18357e-05 -1.94607e-06 -1.34412e-07
-3.51121e-07 -1.34412e-07 -6.84014e-05
0.000876221 4.47441e-05 -1.46703e-06
4.47441e-05 6.30746e-05 -1.55437e-06
-1.46703e-06 -1.55437e-06 -2.30118e-05
0.00193769 6.87924e-05 1.19641e-06
6.87924e-05 0.000164923 -2.94544e-07
1.19641e-06 -2.94544e-07 8.04617e-05
0.00135925 0.000113652 9.73053e-07
0.000113652 -7.70031e-05 7.66088e-07
9.73053e-07 7.66088e-07 -0.000162908
0.00111263 6.21377e-05 -1.65014e-06
6.21377e-05 0.000189014 -5.81663e-07
-1.65014e-06 -5.81663e-07 8.19121e-05
0.00105516 0.000106012 -1.34762e-06
0.000106012 0.000179262 -1.37851e-06
-1.34762e-06 -1.37851e-06 5.50263e-05
0.00253402 0.000202062 -3.83671e-07
0.000202062 0.000684469 1.5312e-06
-3.83671e-07 1.5312e-06 0.000552019
0.00110546 0.000130049 -9.06907e-07
0.000130049 0.000134695 -9.17032e-07
-9.06907e-07 -9.17032e-07 -2.8872e-05
0.000912101 1.34538e-05 1.96931e-07
1.34538e-05 7.50111e-05 -5.23551e-07
1.96931e-07 -5.23551e-07 1.51378e-06
0.00178465 4.1231e-05 -2.50021e-07
4.1231e-05 8.15019e-05 1.60681e-07
-2.50021e-07 1.60681e-07 2.34428e-06
0.000975851 7.28293e-05 6.89741e-08
7.28293e-05 0.000127143 8.46899e-07
6.89741e-08 8.46899e-07 2.55804e-05
0.000883949 9.94444e-05 9.25901e-08
9.94444e-05 6.74884e-05 -1.40744e-07
9.25901e-08 -1.40744e-07 -6.72671e-05
0.00187788 9.1254e-05 1.40672e-06
9.1254e-05 7.50175e-05 -8.32184e-08
1.40672e-06 -8.32184e-08 2.95129e-06
0.00195455 0.000184499 3.69164e-07
0.000184499 0.00021541 -1.02741e-06
3.69164e-07 -1.02741e-06 0.00010479
0.0017388 0.000169022 7.2745e-07
0.000169022 0.000419001 1.2878e-06
7.2745e-07 1.2878e-06 0.000240427
0.00102596 2.87121e-05 -3.50373e-07
2.87121e-05 0.000144984 6.09131e-07
-3.50373e-07 6.09131e-07 5.72767e-05
0.0020449 5.52335e-05 -6.60261e-06
5.52335e-05 0.000168489 -7.37534e-07
-6.60261e-06 -7.37534e-07 0.00010949
0.00163692 0.000116982 -2.02845e-06
0.000116982 0.000460337 8.87788e-09
-2.02845e-06 8.87788e-09 0.000345778
0.00184174 0.000159794 -2.82317e-06
0.000159794 0.000544791 6.05241e-07
-2.82317e-06 6.05241e-07 0.000387025
0.00194403 0.000174235 5.80956e-07
0.000174235 7.47525e-05 -2.69505e-07
5.80956e-07 -2.69505e-07 9.7676e-06
0.00125716 0.000159018 -2.37351e-06
0.000159018 4.98879e-05 8.23088e-08
-2.37351e-06 8.23088e-08 -0.000110695
0.000662378 7.21455e-05 1.1044e-05
7.21455e-05 -0.000271562 2.03353e-06
1.1044e-05 2.03353e-06 -0.000381228
0.000933536 -9.31028e-06 -1.39912e-07
-9.31028e-06 8.32148e-05 -5.46729e-07
-1.39912e-07 -5.46729e-07 1.59003e-05
0.000934215 -6.64999e-06 6.75405e-08
-6.64999e-06 8.86849e-05 3.59131e-08
6.75405e-08 3.59131e-08 1.39693e-05
0.000937054 5.19564e-06 1.77411e-07
5.19564e-06 8.5901e-05 -3.66495e-07
1.77411e-07 -3.66495e-07 6.31331e-06
0.000858315 -3.271e-05 -1.57082e-07
-3.271e-05 2.94822e-05 -7.06695e-07
-1.57082e-07 -7.06695e-07 -1.63744e-05
0.000800954 -4.56639e-05 -6.48457e-07
-4.56639e-05 1.12839e-05 1.30623e-07
-6.48457e-07 1.30623e-07 -4.62527e-05
0.000966016 4.52778e-05 -8.08329e-07
4.52778e-05 0.000109461 2.93135e-07
-8.08329e-07 2.93135e-07 4.18348e-05
0.000900798 -2.37051e-05 1.08621e-07
-2.37051e-05 6.90404e-05 -4.06039e-07
1.08621e-07 -4.06039e-07 -3.00864e-06
0.000856505 -1.97572e-05 -1.59927e-07
-1.97572e-05 2.90672e-05 3.90544e-08
-1.59927e-07 3.90544e-08 -1.77112e-05
0.000812757 -1.79705e-06 9.5283e-08
-1.79705e-06 1.17834e-05 -4.11194e-08
9.5283e-08 -4.11194e-08 -4.38707e-05
0.000905388 -9.51189e-06 3.91822e-07
-9.51189e-06 7.08822e-05 -5.33983e-07
3.91822e-07 -5.33983e-07 -4.22288e-06
0.00093282 -1.68198e-05 -1.31915e-07
-1.68198e-05 8.37132e-05 -7.96659e-08
-1.31915e-07 -7.96659e-08 2.09468e-05
0.000916798 -2.8193e-05 1.77834e-07
-2.8193e-05 7.71838e-05 -1.90658e-08
1.77834e-07 -1.90658e-08 7.22381e-06
0.000889075 -1.4651e-05 -4.21834e-08
-1.4651e-05 6.13648e-05 -4.18604e-07
-4.21834e-08 -4.18604e-07 -1.25649e-05
0.000907501 -3.73976e-06 4.76573e-07
-3.73976e-06 6.99335e-05 -4.64456e-07
4.76573e-07 -4.64456e-07 4.64514e-06
0.000962716 1.03886e-06 6.54818e-07
1.03886e-06 9.38623e-05 -2.6364e-07
6.54818e-07 -2.6364e-07 3.284e-05
0.000832842 1.23306e-05 4.62443e-08
1.23306e-05 2.27826e-05 3.24681e-07
4.62443e-08 3.24681e-07 -3.72355e-05
0.00075102 3.1341e-07 2.57443e-07
3.1341e-07 -3.15025e-05 1.00741e-06
2.57443e-07 1.00741e-06 -7.75712e-05
0.000992283 -3.51762e-06 3.5662e-07
-3.51762e-06 0.000117423 -8.96753e-08
3.5662e-07 -8.96753e-08 5.51924e-05
0.000732199 5.1101e-06 -3.78488e-07
5.1101e-06 -3.86368e-05 1.04031e-06
-3.78488e-07 1.04031e-06 -8.59414e-05
0.000817581 1.19216e-05 2.65025e-07
1.19216e-05 -1.34208e-06 1.44314e-06
2.65025e-07 1.44314e-06 -2.96955e-05
0.000816767 1.8358e-06 -2.11789e-07
1.8358e-06 -2.38947e-06 2.89203e-09
-2.11789e-07 2.89203e-09 -3.03149e-05
0.00076543 5.64603e-07 2.7732e-07
5.64603e-07 -4.05176e-05 3.03466e-06
2.7732e-07 3.03466e-06 -4.1152e-05
0.000826742 -8.51319e-06 8.28014e-09
-8.51319e-06 2.10952e-06 -1.4791e-06
8.28014e-09 -1.4791e-06 -2.51285e-05
0.00104964 -4.78427e-06 -1.19337e-06
-4.78427e-06 0.000113179 -1.26649e-06
-1.19337e-06 -1.26649e-06 0.000114365
0.00208854 -7.34025e-06 5.30475e-06
-7.34025e-06 0.000676124 3.98333e-06
5.30475e-06 3.98333e-06 0.000698914
0.00134637 -1.04978e-05 -2.78557e-06
-1.04978e-05 0.000275025 -4.27369e-06
-2.78557e-06 -4.27369e-06 0.000277644
0.000968088 -1.08988e-05 1.74035e-06
-1.08988e-05 7.22912e-05 2.44355e-06
1.74035e-06 2.44355e-06 8.92441e-05
0.000915675 -1.5733e-05 -1.18428e-06
-1.5733e-05 4.67476e-05 -1.54417e-06
-1.18428e-06 -1.54417e-06 6.36213e-05
0.000826177 8.03623e-06 1.92623e-07
8.03623e-06 2.06453e-06 -1.58316e-06
1.92623e-07 -1.58316e-06 -2.41722e-05
0.000826421 1.10893e-05 -3.61961e-08
1.10893e-05 3.46626e-06 1.45942e-08
-3.61961e-08 1.45942e-08 -2.4547e-05
0.000760454 1.50682e-05 4.88219e-07
1.50682e-05 -3.91656e-05 -3.23258e-06
4.88219e-07 -3.23258e-06 -4.03074e-05
0.00105141 2.24133e-05 -4.87969e-07
2.24133e-05 0.000122172 3.40449e-08
-4.87969e-07 3.40449e-08 0.000120531
0.00211859 2.81439e-05 1.4362e-05
2.81439e-05 0.000700484 -3.92527e-06
1.4362e-05 -3.92527e-06 0.000721261
0.000769508 2.52469e-05 -1.35047e-06
2.52469e-05 -2.48326e-05 3.39607e-06
-1.35047e-06 3.39607e-06 -3.03021e-05
0.00217819 3.57802e-05 -1.52441e-06
3.57802e-05 0.000738397 -7.1012e-08
-1.52441e-06 -7.1012e-08 0.000757383
0.00224879 4.27011e-05 -2.34864e-05
4.27011e-05 0.00078316 3.80659e-06
-2.34864e-05 3.80659e-06 0.000800177
0.00171794 4.69759e-05 -5.54813e-07
4.69759e-05 6.4999e-05 -4.74957e-07
-5.54813e-07 -4.74957e-07 -2.6629e-05
0.00182902 8.4845e-06 1.13976e-06
8.4845e-06 0.000111589 -4.03397e-07
1.13976e-06 -4.03397e-07 1.14479e-05
0.00180384 2.62318e-06 6.80794e-07
2.62318e-06 0.000115909 2.12956e-09
6.80794e-07 2.12956e-09 5.86844e-06
0.00178983 1.00894e-06 1.98893e-07
1.00894e-06 9.65809e-05 6.6818e-08
1.98893e-07 6.6818e-08 -3.9363e-06
0.00183233 1.99975e-05 -2.83265e-07
1.99975e-05 0.000109121 2.11484e-07
-2.83265e-07 2.11484e-07 1.89165e-05
0.00178481 1.30164e-05 1.9671e-06
1.30164e-05 8.56018e-05 1.38109e-07
1.9671e-06 1.38109e-07 9.07519e-06
0.0017064 7.13357e-06 -2.19366e-06
7.13357e-06 3.9505e-05 -5.04896e-07
-2.19366e-06 -5.04896e-07 -4.26954e-05
0.00366958 -6.12154e-05 5.73142e-06
-6.12154e-05 0.000912965 1.40929e-06
5.73142e-06 1.40929e-06 0.000868195
0.00153486 1.75759e-05 -3.5452e-06
1.75759e-05 -9.71762e-05 3.36554e-07
-3.5452e-06 3.36554e-07 -0.000153903
0.000860882 2.02354e-05 1.17804e-07
2.02354e-05 3.49966e-05 -6.9451e-07
1.17804e-07 -6.9451e-07 -8.02524e-06
0.00186761 -3.82904e-06 1.78836e-06
-3.82904e-06 0.000149182 2.45229e-07
1.78836e-06 2.45229e-07 5.18552e-05
0.00177697 -3.15388e-05 -1.11063e-06
-3.15388e-05 9.72853e-05 -8.29622e-07
-1.11063e-06 -8.29622e-07 2.78656e-06
0.00172511 -7.90958e-05 1.56274e-06
-7.90958e-05 4.64555e-05 5.71145e-07
1.56274e-06 5.71145e-07 -5.71056e-05
0.000832579 -9.34273e-05 1.62997e-06
-9.34273e-05 5.13425e-05 1.23549e-06
1.62997e-06 1.23549e-06 -5.08683e-05
0.00112866 -0.000124807 7.85933e-07
-0.000124807 0.000160435 3.41581e-06
7.85933e-07 3.41581e-06 1.02397e-06
0.00119395 -0.000141242 1.95067e-06
-0.000141242 4.24825e-05 -1.37775e-06
1.95067e-06 -1.37775e-06 -0.000108856
0.00198004 -0.000158197 1.68584e-06
-0.000158197 0.00020644 -5.37962e-07
1.68584e-06 -5.37962e-07 0.000108146
0.00105043 -9.74602e-05 4.26835e-06
-9.74602e-05 0.000113447 -3.36631e-06
4.26835e-06 -3.36631e-06 2.01682e-05
0.000642397 -8.56088e-05 -1.8963e-06
-8.56088e-05 -5.47751e-05 -7.61918e-06
-1.8963e-06 -7.61918e-06 -0.00013551
0.000691136 -5.93227e-05 -4.42288e-08
-5.93227e-05 -2.45717e-05 3.26207e-07
-4.42288e-08 3.26207e-07 -0.000126241
0.000825393 1.41525e-05 -7.06772e-07
1.41525e-05 5.23205e-06 1.74543e-06
-7.06772e-07 1.74543e-06 -2.51123e-05
0.000932251 -3.36577e-06 -1.37102e-07
-3.36577e-06 8.61023e-05 -4.03657e-07
-1.37102e-07 -4.03657e-07 6.89942e-06
0.0010834 -3.93765e-05 -4.60918e-07
-3.93765e-05 0.000159141 4.34332e-07
-4.60918e-07 4.34332e-07 0.000105552
0.00089946 -8.43294e-06 -6.64412e-07
-8.43294e-06 6.73178e-05 1.11371e-06
-6.64412e-07 1.11371e-06 -2.26579e-06
0.000698278 2.54272e-06 1.12506e-07
2.54272e-06 -5.21617e-05 8.5326e-07
1.12506e-07 8.5326e-07 -9.82952e-05
0.00180912 -9.28169e-06 -5.31206e-07
-9.28169e-06 9.54698e-05 -2.23656e-07
-5.31206e-07 -2.23656e-07 1.14724e-05
0.00077079 1.47169e-05 1.88363e-07
1.47169e-05 -9.44127e-06 -5.09092e-07
1.88363e-07 -5.09092e-07 -5.60263e-05
0.000842016 -2.92479e-05 -4.35126e-07
-2.92479e-05 2.92302e-05 3.43935e-08
-4.35126e-07 3.43935e-08 -2.22306e-05
0.000882781 -9.4618e-06 -7.0452e-07
-9.4618e-06 6.37856e-05 4.79591e-07
-7.0452e-07 4.79591e-07 3.41883e-07
0.00178196 -3.21201e-05 1.20184e-06
-3.21201e-05 6.3825e-05 -2.88291e-07
1.20184e-06 -2.88291e-07 -2.80817e-05
0.00181658 -0.000130555 -1.69397e-06
-0.000130555 4.62167e-05 6.6e-07
-1.69397e-06 6.6e-07 -3.73636e-05
0.000886528 -8.86778e-05 -4.12774e-07
-8.86778e-05 5.42622e-05 2.91601e-07
-4.12774e-07 2.91601e-07 -4.82239e-05
0.00113528 -0.00014018 1.22032e-07
-0.00014018 0.000142085 -7.04914e-07
1.22032e-07 -7.04914e-07 -4.49212e-05
0.00152144 -0.000167952 2.4848e-07
-0.000167952 6.63291e-05 3.84018e-07
2.4848e-07 3.84018e-07 -5.32344e-05
0.000860893 7.52412e-06 -1.65007e-07
7.52412e-06 5.08205e-05 5.1436e-09
-1.65007e-07 5.1436e-09 -1.97869e-05
0.000980567 -2.15532e-05 -1.29228e-07
-2.15532e-05 0.000116618 2.87452e-08
-1.29228e-07 2.87452e-08 3.91178e-05
0.000755471 -9.63193e-05 -4.46565e-06
-9.63193e-05 -1.04756e-05 1.02612e-06
-4.46565e-06 1.02612e-06 -9.90169e-05
0.00106412 -5.63835e-05 6.14763e-07
-5.63835e-05 0.000186207 -6.20938e-07
6.14763e-07 -6.20938e-07 7.81154e-05
0.000825674 -2.9423e-05 -6.95667e-08
-2.9423e-05 4.60779e-05 9.40904e-07
-6.95667e-08 9.40904e-07 -4.46267e-05
0.00205337 -3.43423e-05 -3.80557e-06
-3.43423e-05 0.000177592 6.73862e-07
-3.80557e-06 6.73862e-07 0.000100023
0.00235091 -6.93347e-05 1.14783e-06
-6.93347e-05 0.000297989 1.09342e-06
1.14783e-06 1.09342e-06 0.000216897
0.00187019 -0.000184203 1.23858e-06
-0.000184203 9.96912e-05 -3.88083e-06
1.23858e-06 -3.88083e-06 8.97559e-06
0.00178607 -0.00018334 -5.95174e-06
-0.00018334 0.000371317 1.71231e-07
-5.95174e-06 1.71231e-07 0.000217813
0.000988711 -0.000100031 -1.03343e-06
-0.000100031 0.000140077 -1.65287e-06
-1.03343e-06 -1.65287e-06 3.40479e-06
0.000712031 1.46115e-05 5.17621e-08
1.46115e-05 -2.95634e-05 -8.45612e-07
5.17621e-08 -8.45612e-07 -9.15524e-05
0.000810253 4.52738e-05 -1.95894e-07
4.52738e-05 2.58988e-05 -8.78237e-07
-1.95894e-07 -8.78237e-07 -4.18192e-05
0.00107216 1.58182e-05 6.28951e-07
1.58182e-05 0.000163628 3.87228e-07
6.28951e-07 3.87228e-07 9.32449e-05
0.000845051 -4.30174e-05 1.08495e-06
-4.30174e-05 4.86395e-05 -1.69703e-08
1.08495e-06 -1.69703e-08 -2.85889e-05
0.00104517 5.57822e-06 5.57551e-07
5.57822e-06 0.000150037 6.10259e-07
5.57551e-07 6.10259e-07 7.03156e-05
0.000828397 -1.26908e-05 2.12667e-07
-1.26908e-05 5.41849e-05 -1.52612e-06
2.12667e-07 -1.52612e-06 -4.35977e-05
0.000714786 -7.06518e-05 7.33327e-06
-7.06518e-05 1.82471e-05 1.01562e-06
7.33327e-06 1.01562e-06 -0.000112826
0.000896936 3.48474e-05 -3.21067e-07
3.48474e-05 7.05721e-05 -1.43965e-06
-3.21067e-07 -1.43965e-06 -5.10176e-06
0.000800194 5.3746e-05 -8.18299e-08
5.3746e-05 3.17031e-05 5.54324e-08
-8.18299e-08 5.54324e-08 -6.70082e-05
0.00193906 3.95505e-05 2.5643e-06
3.95505e-05 0.000157026 -3.75612e-07
2.5643e-06 -3.75612e-07 7.85388e-05
0.00159335 8.61761e-05 3.07666e-06
8.61761e-05 -6.6205e-05 -6.96814e-07
3.07666e-06 -6.96814e-07 -0.000138227
0.00211317 0.000188839 6.21254e-07
0.000188839 0.000286894 1.51433e-07
6.21254e-07 1.51433e-07 0.00017797
0.000692051 8.91304e-05 8.46675e-07
8.91304e-05 -3.09019e-05 -4.64294e-11
8.46675e-07 -4.64294e-11 -0.000167428
0.00182031 0.000174277 8.88329e-07
0.000174277 0.000470671 1.11856e-06
8.88329e-07 1.11856e-06 0.00029351
0.00102434 2.12174e-05 -1.27591e-07
2.12174e-05 0.000143079 5.25247e-08
-1.27591e-07 5.25247e-08 5.81563e-05
0.00181607 5.29826e-05 -1.61963e-06
5.29826e-05 3.70668e-05 -3.85009e-07
-1.61963e-06 -3.85009e-07 -1.55288e-05
0.00122075 9.85015e-05 -7.82814e-07
9.85015e-05 0.000247197 3.65849e-07
-7.82814e-07 3.65849e-07 0.000134568
0.00136864 0.000133269 -6.60044e-07
0.000133269 0.000312161 5.35955e-07
-6.60044e-07 5.35955e-07 0.000155999
0.00186881 0.000164024 9.9786e-07
0.000164024 2.85198e-05 -4.78945e-07
9.9786e-07 -4.78945e-07 -3.57586e-05
0.00137721 0.000167153 -1.34757e-06
0.000167153 0.000116255 1.23502e-06
-1.34757e-06 1.23502e-06 -4.89186e-05
0.00180259 6.81493e-05 5.05994e-06
6.81493e-05 0.000107482 1.22061e-06
5.05994e-06 1.22061e-06 -6.81609e-06
0.00107511 4.21389e-05 -7.4701e-07
4.21389e-05 0.000169105 -9.4674e-07
-7.4701e-07 -9.4674e-07 7.47586e-05
0.00249113 0.000115055 -6.93874e-06
0.000115055 0.00034819 -6.73966e-06
-6.93874e-06 -6.73966e-06 0.000345252
0.00119942 0.000117467 -3.25752e-06
0.000117467 0.000250282 -1.59346e-06
-3.25752e-06 -1.59346e-06 0.000129645
0.00112402 0.000127713 -4.7011e-06
0.000127713 0.000176754 -1.01374e-06
-4.7011e-06 -1.01374e-06 -8.68334e-06
2.93561e-05 0.000159022 -4.44039e-06
0.000159022 -0.000718307 -2.11091e-06
-4.44039e-06 -2.11091e-06 -0.000838816
0.00687663 -5.06149e-05 -4.45926e-05
-5.06149e-05 0.00228591 -1.1773e-05
-4.45926e-05 -1.1773e-05 0.00158072
0.00318702 2.19573e-05 7.55649e-05
2.19573e-05 0.000211395 6.23625e-06
7.55649e-05 6.23625e-06 -0.000273684
0.0006128 0.000161112 9.24544e-06
0.000161112 -0.000403152 1.95043e-05
9.24544e-06 1.95043e-05 -0.000433079
-0.00190087 -0.000310182 -8.77717e-06
-0.000310182 -0.000871995 -1.10139e-05
-8.77717e-06 -1.10139e-05 -0.000860148
0.00236956 -0.000494314 -2.71789e-05
-0.000494314 9.27896e-05 -5.11375e-06
-2.71789e-05 -5.11375e-06 0.00113388
0.000943329 -8.69846e-06 -9.27441e-08
-8.69846e-06 9.3356e-05 -6.3064e-07
-9.27441e-08 -6.3064e-07 1.86417e-05
0.000954571 -6.80587e-07 2.54453e-07
-6.80587e-07 9.69296e-05 -3.21184e-07
2.54453e-07 -3.21184e-07 1.79925e-05
0.00101781 2.96865e-05 -7.09976e-08
2.96865e-05 0.000129245 -9.92555e-07
-7.09976e-08 -9.92555e-07 5.00078e-05
0.000839333 -4.23753e-05 1.92253e-07
-4.23753e-05 2.33927e-05 -7.75645e-07
1.92253e-07 -7.75645e-07 -2.5652e-05
0.000744357 2.25196e-05 -7.03668e-07
2.25196e-05 -2.28632e-05 -2.85093e-07
-7.03668e-07 -2.85093e-07 -7.9915e-05
0.000937221 -3.87138e-05 -1.47437e-08
-3.87138e-05 8.52852e-05 -1.70606e-07
-1.47437e-08 -1.70606e-07 2.25257e-05
0.00100002 -1.75424e-05 -4.03494e-07
-1.75424e-05 0.000121141 9.97963e-08
-4.03494e-07 9.97963e-08 5.21805e-05
0.000880692 -1.39452e-05 4.99099e-07
-1.39452e-05 5.78842e-05 -8.49391e-07
4.99099e-07 -8.49391e-07 -1.7631e-05
0.000891666 1.90499e-05 -5.43744e-07
1.90499e-05 5.86475e-05 -2.96092e-07
-5.43744e-07 -2.96092e-07 -4.46507e-06
0.000794035 5.71859e-08 4.49478e-08
5.71859e-08 -4.63315e-06 4.68903e-07
4.49478e-08 4.68903e-07 -5.2209e-05
0.000861436 1.13904e-05 -2.51098e-07
1.13904e-05 3.79768e-05 -4.57439e-08
-2.51098e-07 -4.57439e-08 -2.15672e-05
0.000901516 -1.36062e-05 -7.49177e-08
-1.36062e-05 6.79085e-05 2.76485e-07
-7.49177e-08 2.76485e-07 -5.80885e-06
0.000913577 -7.63345e-06 5.71925e-08
-7.63345e-06 7.25831e-05 -1.2883e-07
5.71925e-08 -1.2883e-07 7.3075e-06
0.000837184 1.17013e-05 5.89025e-07
1.17013e-05 2.89844e-05 -4.81269e-07
5.89025e-07 -4.81269e-07 -3.50411e-05
0.00093427 1.7798e-06 7.45988e-07
1.7798e-06 8.1461e-05 -6.17699e-07
7.45988e-07 -6.17699e-07 1.40277e-05
0.000868921 5.37211e-06 9.88378e-07
5.37211e-06 3.81218e-05 2.41224e-07
9.88378e-07 2.41224e-07 -2.435e-05
0.000822894 1.23737e-06 9.23599e-07
1.23737e-06 1.18437e-05 3.92903e-08
9.23599e-07 3.92903e-08 -4.75366e-05
0.000718493 -3.51714e-05 -1.1881e-06
-3.51714e-05 -4.43678e-05 1.08629e-06
-1.1881e-06 1.08629e-06 -9.28894e-05
0.000925396 5.81852e-06 -1.61247e-07
5.81852e-06 7.28669e-05 2.66587e-07
-1.61247e-07 2.66587e-07 1.21969e-05
0.0010019 6.44822e-05 5.54464e-08
6.44822e-05 0.000116457 -2.83028e-07
5.54464e-08 -2.83028e-07 5.1065e-05
0.000843576 5.22795e-06 -4.09081e-07
5.22795e-06 3.73451e-05 2.95579e-07
-4.09081e-07 2.95579e-07 -2.29844e-05
0.000925021 9.71997e-06 4.7628e-07
9.71997e-06 7.62624e-05 -3.39887e-07
4.7628e-07 -3.39887e-07 1.64286e-05
0.000854836 -2.31883e-05 -1.20892e-06
-2.31883e-05 2.83858e-05 6.46991e-07
-1.20892e-06 6.46991e-07 -1.83229e-05
0.000740237 4.1581e-06 1.30491e-07
4.1581e-06 -3.15106e-05 3.83941e-07
1.30491e-07 3.83941e-07 -8.06776e-05
0.000822865 1.3161e-05 -7.86985e-08
1.3161e-05 1.60026e-06 1.51724e-06
-7.86985e-08 1.51724e-06 -2.68596e-05
0.000814825 4.3725e-06 -1.49836e-07
4.3725e-06 -2.99466e-06 1.72579e-09
-1.49836e-07 1.72579e-09 -3.12598e-05
0.000781407 5.18832e-06 -2.67599e-07
5.18832e-06 -3.08141e-05 4.31917e-06
-2.67599e-07 4.31917e-06 -3.19733e-05
0.000814915 -5.73393e-06 2.37696e-07
-5.73393e-06 -3.40753e-06 -1.42275e-06
2.37696e-07 -1.42275e-06 -3.1273e-05
0.000768881 6.37963e-07 1.69673e-07
6.37963e-07 -3.86547e-05 -8.34959e-09
1.69673e-07 -8.34959e-09 -3.93187e-05
0.00210457 -9.64468e-07 2.26926e-07
-9.64468e-07 0.000684345 4.03136e-06
2.26926e-07 4.03136e-06 0.000707019
0.000788396 -3.96197e-06 -5.66258e-07
-3.96197e-06 -2.75727e-05 -4.28553e-06
-5.66258e-07 -4.28553e-06 -2.80138e-05
0.00152979 -6.17512e-06 -2.94172e-07
-6.17512e-06 0.000374149 1.89678e-08
-2.94172e-07 1.89678e-08 0.000394034
0.000927848 -1.03263e-05 -6.9655e-07
-1.03263e-05 4.99578e-05 -1.53058e-06
-6.9655e-07 -1.53058e-06 6.71917e-05
0.000830598 3.67528e-06 -5.14437e-08
3.67528e-06 3.23197e-06 -1.63566e-06
-5.14437e-08 -1.63566e-06 -2.17389e-05
0.000826484 7.28982e-06 4.53531e-08
7.28982e-06 1.9299e-06 4.88602e-09
4.53531e-08 4.88602e-09 -2.42623e-05
0.000766501 1.00485e-05 2.7931e-07
1.00485e-05 -3.88415e-05 -3.17819e-06
2.7931e-07 -3.17819e-06 -3.85623e-05
0.000831345 1.03909e-05 -5.17969e-07
1.03909e-05 5.78981e-06 1.70338e-06
-5.17969e-07 1.70338e-06 -2.22319e-05
0.0010422 1.67708e-05 -2.53267e-07
1.67708e-05 0.000112685 -6.34588e-07
-2.53267e-07 -6.34588e-07 0.000113004
0.00208841 2.09969e-05 1.06509e-05
2.09969e-05 0.000680241 -3.98609e-06
1.06509e-05 -3.98609e-06 0.000702185
0.000770749 2.06293e-05 -9.49576e-07
2.06293e-05 -2.90871e-05 3.32083e-06
-9.49576e-07 3.32083e-06 -3.23873e-05
0.00215233 2.78287e-05 -5.96689e-06
2.78287e-05 0.000719798 1.11486e-06
-5.96689e-06 1.11486e-06 0.000740275
0.00218919 3.59796e-05 -1.94492e-05
3.59796e-05 0.000745077 3.90173e-06
-1.94492e-05 3.90173e-06 0.000763846
0.00174157 1.9729e-05 1.14656e-06
1.9729e-05 6.44163e-05 1.26238e-07
1.14656e-06 1.26238e-07 -2.62504e-05
0.00180123 2.873e-06 1.62344e-06
2.873e-06 0.000101026 3.51401e-08
1.62344e-06 3.51401e-08 4.06239e-07
0.00178321 1.08795e-05 5.09621e-06
1.08795e-05 9.58094e-05 -1.97267e-07
5.09621e-06 -1.97267e-07 1.8198e-05
0.00172728 -2.34788e-05 5.92157e-06
-2.34788e-05 -5.99519e-05 1.56879e-06
5.92157e-06 1.56879e-06 -0.000120837
0.00183721 5.98738e-06 -4.71265e-07
5.98738e-06 0.000105779 2.71173e-08
-4.71265e-07 2.71173e-08 2.4005e-05
0.00180848 2.03967e-05 1.392e-06
2.03967e-05 5.74905e-05 1.84249e-07
1.392e-06 1.84249e-07 -3.25338e-06
0.00230608 1.69805e-05 -1.57447e-06
1.69805e-05 0.000294444 1.58859e-06
-1.57447e-06 1.58859e-06 0.000212972
0.00319147 -0.000115642 0.000140738
-0.000115642 0.000548773 2.08868e-05
0.000140738 2.08868e-05 0.000265318
0.00130585 -4.17157e-05 -5.34359e-06
-4.17157e-05 -0.000254929 9.65761e-08
-5.34359e-06 9.65761e-08 -0.000323982
0.00086111 2.51478e-05 -7.4992e-07
2.51478e-05 3.5821e-05 -7.71502e-07
-7.4992e-07 -7.71502e-07 -7.4695e-06
0.000855396 -1.34267e-05 6.55151e-07
-1.34267e-05 3.45507e-05 -4.40624e-08
6.55151e-07 -4.40624e-08 -1.02645e-05
0.000859006 -3.53175e-05 -5.97536e-08
-3.53175e-05 4.31697e-05 -2.54223e-08
-5.97536e-08 -2.54223e-08 -1.1831e-05
0.000863543 -2.72954e-05 -1.03305e-06
-2.72954e-05 5.61226e-05 1.06494e-07
-1.03305e-06 1.06494e-07 -4.02834e-06
0.00185495 -1.02798e-05 3.59564e-06
-1.02798e-05 0.000120278 -5.39545e-07
3.59564e-06 -5.39545e-07 3.68643e-05
0.00169258 -3.57808e-05 -2.73153e-07
-3.57808e-05 1.0364e-05 -4.68814e-07
-2.73153e-07 -4.68814e-07 -8.11221e-05
0.00179425 -0.000129367 -1.35588e-06
-0.000129367 5.05597e-05 2.21672e-06
-1.35588e-06 2.21672e-06 -3.55827e-05
0.000737527 -8.9101e-05 2.67729e-06
-8.9101e-05 -3.58636e-05 2.32707e-06
2.67729e-06 2.32707e-06 -0.000133548
0.000437427 -0.00010321 3.68215e-06
-0.00010321 -0.000206511 -1.05538e-06
3.68215e-06 -1.05538e-06 -0.000392958
0.00191487 -0.000184686 1.734e-06
-0.000184686 0.000269769 -1.55643e-06
1.734e-06 -1.55643e-06 0.000148878
0.000768575 -9.19215e-05 -6.50523e-06
-9.19215e-05 -3.21072e-07 3.99166e-07
-6.50523e-06 3.99166e-07 -9.25286e-05
0.000962685 -4.13067e-05 -1.3516e-06
-4.13067e-05 0.000129595 -6.00372e-07
-1.3516e-06 -6.00372e-07 2.49326e-05
0.00103196 -4.64891e-05 -1.17861e-06
-4.64891e-05 0.000155803 1.63829e-06
-1.17861e-06 1.63829e-06 6.47286e-05
0.000855129 -5.18854e-06 -1.07015e-06
-5.18854e-06 3.58773e-05 1.02681e-06
-1.07015e-06 1.02681e-06 -1.55557e-05
0.000896874 -3.54465e-05 -3.76175e-07
-3.54465e-05 7.65941e-05 1.24357e-07
-3.76175e-07 1.24357e-07 -3.84697e-06
0.000970345 5.28704e-06 -7.00419e-07
5.28704e-06 0.000107329 5.77287e-07
-7.00419e-07 5.77287e-07 3.86262e-05
0.000856531 -3.61603e-06 2.54096e-08
-3.61603e-06 3.72457e-05 2.8421e-07
2.54096e-08 2.8421e-07 -9.46472e-06
0.000725258 2.09258e-05 2.9604e-07
2.09258e-05 -1.89898e-05 1.06601e-06
2.9604e-07 1.06601e-06 -8.44916e-05
0.00178055 -2.72151e-05 -6.10911e-07
-2.72151e-05 5.24824e-05 9.65652e-07
-6.10911e-07 9.65652e-07 -2.54666e-05
0.000867521 1.19662e-05 4.79989e-07
1.19662e-05 5.22894e-05 -4.63885e-07
4.79989e-07 -4.63885e-07 -7.79285e-06
0.00083069 2.30808e-05 5.23056e-07
2.30808e-05 3.71202e-05 9.17791e-09
5.23056e-07 9.17791e-09 -3.00092e-05
0.000946813 4.66846e-05 -3.14795e-07
4.66846e-05 9.7712e-05 6.81102e-07
-3.14795e-07 6.81102e-07 2.58388e-05
0.00199757 -6.47948e-05 -3.35549e-06
-6.47948e-05 0.000108209 2.72368e-07
-3.35549e-06 2.72368e-07 2.35108e-05
0.0017164 -0.000172882 9.3065e-07
-0.000172882 3.27884e-05 -1.38504e-06
9.3065e-07 -1.38504e-06 -5.78156e-05
0.000954014 -0.000105698 -7.88143e-07
-0.000105698 0.000107497 -2.25793e-07
-7.88143e-07 -2.25793e-07 -2.43707e-05
0.0018495 -0.000186167 -7.71833e-07
-0.000186167 0.000408942 -6.64536e-07
-7.71833e-07 -6.64536e-07 0.000250935
0.000924918 -1.07049e-05 -3.68436e-07
-1.07049e-05 8.77227e-05 1.18467e-07
-3.68436e-07 1.18467e-07 1.2011e-05
0.000938063 -4.56101e-06 1.75653e-07
-4.56101e-06 9.97219e-05 7.85755e-07
1.75653e-07 7.85755e-07 1.83706e-05
0.000855261 -7.53663e-05 3.37464e-06
-7.53663e-05 8.51276e-05 -8.16831e-07
3.37464e-06 -8.16831e-07 -4.0276e-05
0.00102113 -4.33614e-05 5.29494e-07
-4.33614e-05 0.0001584 -1.07643e-06
5.29494e-07 -1.07643e-06 5.46086e-05
0.00164449 -1.69383e-05 -2.51296e-06
-1.69383e-05 -7.94522e-05 2.18496e-06
-2.51296e-06 2.18496e-06 -0.00016315
0.00189453 -0.00015097 5.09661e-06
-0.00015097 1.4705e-05 -4.11451e-06
5.09661e-06 -4.11451e-06 -6.3381e-05
0.00186589 -0.000192677 -3.81901e-06
-0.000192677 0.000265116 -1.04896e-06
-3.81901e-06 -1.04896e-06 0.000141062
0.00117994 -0.000143083 -1.43721e-06
-0.000143083 0.000223016 -6.33477e-07
-1.43721e-06 -6.33477e-07 7.7704e-05
0.000838185 2.47194e-05 -8.06876e-07
2.47194e-05 4.1944e-05 -3.14647e-08
-8.06876e-07 -3.14647e-08 -3.36955e-05
0.000870686 -3.38204e-05 6.58915e-07
-3.38204e-05 6.51763e-05 -5.04872e-07
6.58915e-07 -5.04872e-07 -1.05253e-05
0.000918749 -2.07949e-05 6.10585e-08
-2.07949e-05 8.60657e-05 -5.698e-08
6.10585e-08 -5.698e-08 4.05375e-06
0.000800077 -8.34803e-06 -1.28012e-06
-8.34803e-06 5.55331e-05 7.33458e-09
-1.28012e-06 7.33458e-09 -7.77623e-05
0.000443617 -4.3239e-05 -3.57296e-06
-4.3239e-05 -0.000986339 -7.01338e-06
-3.57296e-06 -7.01338e-06 -0.00140615
0.000991764 1.03332e-05 3.01403e-07
1.03332e-05 0.000124768 -7.82323e-07
3.01403e-07 -7.82323e-07 4.29447e-05
0.000799795 7.66811e-05 1.33164e-06
7.66811e-05 3.06824e-05 1.11943e-06
1.33164e-06 1.11943e-06 -7.96207e-05
0.00158806 5.0933e-05 6.02795e-06
5.0933e-05 -9.61696e-05 6.96028e-07
6.02795e-06 6.96028e-07 -0.000142431
0.0017445 0.000151506 7.70311e-07
0.000151506 -4.0974e-05 -5.27118e-07
7.70311e-07 -5.27118e-07 -0.000104906
0.00149479 0.000175444 8.5411e-07
0.000175444 0.000183281 3.23727e-06
8.5411e-07 3.23727e-06 1.20096e-05
0.000853187 0.000104556 2.81628e-06
0.000104556 5.69429e-05 1.05784e-06
2.81628e-06 1.05784e-06 -9.85593e-05
0.00290684 6.89568e-05 1.44876e-06
6.89568e-05 0.000485715 -1.81881e-06
1.44876e-06 -1.81881e-06 0.000351966
0.000960539 3.8278e-05 6.96278e-07
3.8278e-05 0.000113458 -4.52641e-07
6.96278e-07 -4.52641e-07 1.98396e-05
0.00208787 0.000108352 -4.51428e-06
0.000108352 0.000137608 -2.45981e-06
-4.51428e-06 -2.45981e-06 0.000142597
0.00104356 0.00010899 2.92291e-07
0.00010899 0.000171222 -3.27593e-07
2.92291e-07 -3.27593e-07 5.27406e-05
0.00106838 0.000128313 -1.02016e-07
0.000128313 0.000156984 5.12944e-07
-1.02016e-07 5.12944e-07 -3.08367e-05
0.00100298 0.000197145 -2.84908e-06
0.000197145 -0.000253997 3.46841e-07
-2.84908e-06 3.46841e-07 -0.000368145
0.0020886 -0.000176765 -3.34126e-05
-0.000176765 -3.43493e-05 -1.18381e-05
-3.34126e-05 -1.18381e-05 -0.000656216
0.00354045 -4.84999e-05 4.70363e-06
-4.84999e-05 0.000308553 -1.18293e-05
4.70363e-06 -1.18293e-05 -0.000286061
0.000776288 0.000151746 5.69797e-06
0.000151746 -0.000317836 2.71249e-06
5.69797e-06 2.71249e-06 -0.000357038
-0.00189737 -0.000262474 2.4527e-05
-0.000262474 -0.000628946 5.97042e-06
2.4527e-05 5.97042e-06 -0.000884633
8.07593e-05 -0.000524325 1.14412e-05
-0.000524325 -0.0011406 -1.42233e-06
1.14412e-05 -1.42233e-06 4.33463e-05
0.00109156 6.53881e-05 -7.27827e-07
6.53881e-05 0.000187514 -1.6643e-06
-7.27827e-07 -1.6643e-06 9.55679e-05
0.000838554 7.41316e-05 -8.70408e-05
7.41316e-05 0.000687021 -2.19508e-05
-8.70408e-05 -2.19508e-05 0.000391113
0.0013742 -0.0002986 -4.3014e-05
-0.0002986 0.000400724 -2.70278e-05
-4.3014e-05 -2.70278e-05 0.000719088
0.00116698 0.000127506 -9.914e-06
0.000127506 -0.000268975 1.34468e-07
-9.914e-06 1.34468e-07 -0.000230496
0.00117804 6.47335e-05 -3.92042e-06
6.47335e-05 0.000267327 -2.33491e-06
-3.92042e-06 -2.33491e-06 0.000136179
0.00111968 0.000161219 -7.94241e-06
0.000161219 0.000152895 -3.63375e-06
-7.94241e-06 -3.63375e-06 -5.01584e-05
0.000691782 0.000184221 6.93942e-06
0.000184221 -0.000329894 3.54244e-05
6.93942e-06 3.54244e-05 -0.000287352
0.00651053 -0.000252276 -5.37176e-05
-0.000252276 0.00215104 -1.23141e-05
-5.37176e-05 -1.23141e-05 0.00110488
0.00213493 0.000111457 8.94574e-06
0.000111457 -0.000382066 2.3409e-05
8.94574e-06 2.3409e-05 -0.0012362
0.000175957 -0.000466291 -3.63137e-05
-0.000466291 -0.000266711 -1.04219e-05
-3.63137e-05 -1.04219e-05 5.67936e-05
0.000731785 -0.000259125 -3.53839e-05
-0.000259125 -0.00151723 5.3518e-06
-3.53839e-05 5.3518e-06 -0.000704225
0.000964942 -5.3938e-06 -5.52713e-08
-5.3938e-06 0.000104936 -4.32734e-07
-5.52713e-08 -4.32734e-07 2.64261e-05
0.000966359 1.94528e-05 -2.26977e-07
1.94528e-05 0.000102236 1.55516e-07
-2.26977e-07 1.55516e-07 2.399e-05
0.00115682 5.72657e-05 -1.52061e-07
5.72657e-05 0.00020866 -1.79165e-06
-1.52061e-07 -1.79165e-06 0.000135641
0.000841853 2.08862e-06 -1.69316e-07
2.08862e-06 2.63387e-05 -2.30565e-07
-1.69316e-07 -2.30565e-07 -2.38297e-05
0.000897794 4.22431e-06 -6.17212e-07
4.22431e-06 5.63918e-05 -2.9227e-07
-6.17212e-07 -2.9227e-07 -2.13102e-06
0.000838158 -2.64355e-05 -2.75724e-07
-2.64355e-05 2.66416e-05 -4.36094e-07
-2.75724e-07 -4.36094e-07 -3.47761e-05
0.000928879 -1.08476e-05 -9.78565e-08
-1.08476e-05 8.01048e-05 -6.58716e-08
-9.78565e-08 -6.58716e-08 1.47031e-05
0.000928465 -1.59544e-05 -4.24568e-08
-1.59544e-05 8.2568e-05 5.9617e-07
-4.24568e-08 5.9617e-07 8.75865e-06
0.000737969 -2.91467e-06 4.25361e-07
-2.91467e-06 -3.34485e-05 3.84745e-07
4.25361e-07 3.84745e-07 -8.24559e-05
0.000863739 -7.74021e-06 -9.09323e-08
-7.74021e-06 4.34045e-05 -2.6846e-07
-9.09323e-08 -2.6846e-07 -2.03432e-05
0.000939121 -2.15911e-05 -1.80824e-07
-2.15911e-05 7.74353e-05 3.21181e-07
-1.80824e-07 3.21181e-07 1.41012e-05
0.000895533 2.06673e-05 4.51572e-07
2.06673e-05 5.46751e-05 -1.87112e-07
4.51572e-07 -1.87112e-07 -6.65218e-06
0.000922979 3.75739e-06 5.18126e-08
3.75739e-06 7.54464e-05 1.56359e-08
5.18126e-08 1.56359e-08 7.76779e-06
0.000837712 -1.3333e-05 6.88466e-07
-1.3333e-05 2.05566e-05 -2.11739e-07
6.88466e-07 -2.11739e-07 -4.43059e-05
0.000982945 2.65513e-05 -2.11705e-08
2.65513e-05 0.000102967 -1.74829e-06
-2.11705e-08 -1.74829e-06 3.54038e-05
0.000951703 -5.60717e-05 1.77295e-07
-5.60717e-05 8.01784e-05 -5.19281e-08
1.77295e-07 -5.19281e-08 1.64444e-05
0.000940852 -3.64544e-05 -3.19427e-07
-3.64544e-05 7.97997e-05 -1.19446e-07
-3.19427e-07 -1.19446e-07 1.84252e-05
0.000942013 -4.35767e-06 -3.62203e-07
-4.35767e-06 8.09024e-05 -5.35478e-08
-3.62203e-07 -5.35478e-08 2.04538e-05
0.00094634 4.78693e-05 -3.23477e-07
4.78693e-05 8.35634e-05 -2.82191e-07
-3.23477e-07 -2.82191e-07 1.96709e-05
0.000928679 2.27924e-05 -4.44271e-09
2.27924e-05 7.4133e-05 -2.89443e-07
-4.44271e-09 -2.89443e-07 6.24424e-06
0.000892842 4.34172e-05 2.01262e-07
4.34172e-05 6.00904e-05 9.36811e-08
2.01262e-07 9.36811e-08 -3.83227e-06
0.00100458 6.19279e-05 -3.20485e-09
6.19279e-05 0.000113526 -3.37785e-07
-3.20485e-09 -3.37785e-07 4.68066e-05
0.000830672 2.22888e-05 1.0574e-06
2.22888e-05 3.71793e-05 1.45926e-06
1.0574e-06 1.45926e-06 -3.29065e-05
0.000846735 1.59021e-05 -2.88011e-08
1.59021e-05 3.5568e-05 3.68225e-07
-2.88011e-08 3.68225e-07 -2.21064e-05
0.000859838 1.5104e-06 -5.64953e-08
1.5104e-06 4.4101e-05 -2.67907e-08
-5.64953e-08 -2.67907e-08 -1.50286e-05
0.000847856 7.55563e-06 -8.30006e-07
7.55563e-06 2.40869e-05 5.9913e-07
-8.30006e-07 5.9913e-07 -2.13504e-05
0.000857634 1.14822e-05 3.44976e-07
1.14822e-05 3.42877e-05 -4.83841e-07
3.44976e-07 -4.83841e-07 -2.26521e-05
0.000807452 -1.46702e-05 8.59193e-09
-1.46702e-05 2.61927e-06 2.40178e-08
8.59193e-09 2.40178e-08 -4.42414e-05
0.000825045 1.42584e-05 -3.68053e-07
1.42584e-05 3.27498e-06 1.61797e-06
-3.68053e-07 1.61797e-06 -2.53576e-05
0.000751504 7.49243e-06 3.11709e-07
7.49243e-06 -2.40899e-05 -3.10235e-07
3.11709e-07 -3.10235e-07 -7.4229e-05
0.00081947 6.78845e-06 -1.5676e-07
6.78845e-06 -4.63942e-07 -4.72947e-09
-1.5676e-07 -4.72947e-09 -2.88144e-05
0.00135778 1.14007e-05 -2.79167e-06
1.14007e-05 0.000282063 4.28554e-06
-2.79167e-06 4.28554e-06 0.000283575
0.000813297 -3.12206e-06 4.98124e-07
-3.12206e-06 -3.93002e-06 -1.45981e-06
4.98124e-07 -1.45981e-06 -3.214e-05
0.00106421 5.94468e-06 -1.26167e-06
5.94468e-06 0.000121841 6.30845e-07
-1.26167e-06 6.30845e-07 0.000122217
0.000980991 3.11555e-06 -2.65057e-06
3.11555e-06 7.76791e-05 3.94302e-06
-2.65057e-06 3.94302e-06 9.42785e-05
0.000772822 7.04795e-07 -4.60032e-08
7.04795e-07 -3.65065e-05 -3.02517e-06
-4.60032e-08 -3.02517e-06 -3.72071e-05
0.00210994 -4.77374e-07 2.15593e-06
-4.77374e-07 0.00068727 -1.30553e-10
2.15593e-06 -1.30553e-10 0.000709889
0.000988377 -3.81028e-06 -1.92144e-06
-3.81028e-06 8.14494e-05 -3.92299e-06
-1.92144e-06 -3.92299e-06 9.84726e-05
0.000852301 4.26048e-05 3.97435e-07
4.26048e-05 3.38111e-05 -1.92731e-07
3.97435e-07 -1.92731e-07 -1.16039e-05
0.000831116 -7.56162e-07 -9.97283e-08
-7.56162e-07 3.24182e-06 -1.62175e-06
-9.97283e-08 -1.62175e-06 -2.10762e-05
0.000831323 2.96416e-06 -5.64368e-08
2.96416e-06 3.50102e-06 -1.86337e-09
-5.64368e-08 -1.86337e-09 -2.14443e-05
0.000774259 4.76523e-06 2.20237e-09
4.76523e-06 -3.65345e-05 -3.14417e-06
2.20237e-09 -3.14417e-06 -3.51974e-05
0.000828604 6.59512e-06 -2.11034e-07
6.59512e-06 2.76683e-06 1.57351e-06
-2.11034e-07 1.57351e-06 -2.33896e-05
0.000767632 1.02316e-05 5.24434e-08
1.02316e-05 -3.85747e-05 -6.4629e-07
5.24434e-08 -6.4629e-07 -3.82168e-05
0.00205622 1.37358e-05 7.07324e-06
1.37358e-05 0.000660148 -4.02542e-06
7.07324e-06 -4.02542e-06 0.000683014
0.00131749 1.96874e-05 -1.23268e-06
1.96874e-05 0.000261778 1.98156e-06
-1.23268e-06 1.98156e-06 0.000263285
0.001546 1.8112e-05 3.62285e-07
1.8112e-05 0.000388231 1.26319e-06
3.62285e-07 1.26319e-06 0.000406933
0.00102729 2.04323e-05 -1.48007e-05
2.04323e-05 0.000112596 6.52234e-06
-1.48007e-05 6.52234e-06 0.000127033
-0.000432848 2.03615e-05 8.66113e-06
2.03615e-05 -0.00114248 4.4061e-06
8.66113e-06 4.4061e-06 -0.00121563
0.0019783 4.61436e-06 2.7911e-06
4.61436e-06 0.000177499 -8.7167e-08
2.7911e-06 -8.7167e-08 9.60962e-05
0.00208186 2.27629e-05 2.09187e-06
2.27629e-05 0.000212664 -2.19024e-06
2.09187e-06 -2.19024e-06 0.00014803
0.00108935 -5.16208e-05 2.69348e-05
-5.16208e-05 -0.000316085 -1.73719e-06
2.69348e-05 -1.73719e-06 -0.000579237
0.0017352 -3.51656e-05 -1.67971e-06
-3.51656e-05 3.09258e-05 2.22251e-07
-1.67971e-06 2.22251e-07 -5.32932e-05
0.00182774 1.24643e-05 -3.68799e-06
1.24643e-05 6.71908e-06 -1.94974e-06
-3.68799e-06 -1.94974e-06 -7.17877e-05
0.00205284 2.11182e-05 -1.28072e-05
2.11182e-05 0.000225889 2.21094e-06
-1.28072e-05 2.21094e-06 0.000134612
0.00145385 -7.62509e-05 0.000128631
-7.62509e-05 -7.52136e-05 -3.80651e-06
0.000128631 -3.80651e-06 -0.000426472
0.00687249 7.4829e-05 -1.92905e-05
7.4829e-05 0.00219955 -2.125e-07
-1.92905e-05 -2.125e-07 0.00140549
0.00391693 0.000571293 -6.90802e-06
0.000571293 0.00173866 1.03602e-06
-6.90802e-06 1.03602e-06 0.00195561
0.00223732 0.000515144 -1.94831e-05
0.000515144 0.000497673 7.80695e-06
-1.94831e-05 7.80695e-06 0.00143986
0.000731418 -4.46202e-05 1.0827e-06
-4.46202e-05 -1.98893e-05 -5.81875e-07
1.0827e-06 -5.81875e-07 -7.73345e-05
0.000862291 -1.06841e-05 1.73519e-07
-1.06841e-05 3.74109e-05 -3.84893e-08
1.73519e-07 -3.84893e-08 -6.53747e-06
0.000854139 -4.84235e-05 -8.56501e-07
-4.84235e-05 3.64413e-05 8.23664e-07
-8.56501e-07 8.23664e-07 -1.02161e-05
0.000829209 -1.39809e-05 -3.22671e-07
-1.39809e-05 3.04154e-05 3.72944e-08
-3.22671e-07 3.72944e-08 -2.70381e-05
0.000849074 4.01732e-05 5.51305e-08
4.01732e-05 5.11117e-05 7.48962e-07
5.51305e-08 7.48962e-07 -1.70092e-05
0.000922951 5.76667e-05 2.54886e-07
5.76667e-05 8.33341e-05 8.03494e-07
2.54886e-07 8.03494e-07 1.94853e-05
0.000898667 -3.11466e-05 7.67999e-07
-3.11466e-05 6.87269e-05 -7.50302e-07
7.67999e-07 -7.50302e-07 1.13468e-05
0.000819044 -4.16432e-05 -5.46401e-07
-4.16432e-05 2.81041e-05 4.934e-07
-5.46401e-07 4.934e-07 -2.97559e-05
0.00158915 -1.83475e-05 3.71819e-06
-1.83475e-05 -3.19758e-05 -1.34292e-06
3.71819e-06 -1.34292e-06 -0.000109903
0.00150858 -5.97441e-05 -3.89156e-06
-5.97441e-05 -0.000156831 1.22244e-07
-3.89156e-06 1.22244e-07 -0.000244072
0.00156208 -0.000162596 -3.9063e-06
-0.000162596 -3.41424e-05 2.94846e-06
-3.9063e-06 2.94846e-06 -0.000124536
0.000872718 -0.000109016 1.32363e-06
-0.000109016 5.2264e-05 1.54542e-06
1.32363e-06 1.54542e-06 -7.70131e-05
0.00173742 -0.000181335 2.0866e-06
-0.000181335 0.000356658 -3.69633e-08
2.0866e-06 -3.69633e-08 0.000191444
0.000964568 -7.77678e-05 -6.14383e-07
-7.77678e-05 0.000135696 -7.40384e-07
-6.14383e-07 -7.40384e-07 1.60089e-05
0.00120508 -7.20633e-05 1.69566e-07
-7.20633e-05 0.000257868 -4.90434e-08
1.69566e-07 -4.90434e-08 0.000148214
0.000835022 -1.99711e-05 -7.7823e-07
-1.99711e-05 5.09833e-05 4.23037e-07
-7.7823e-07 4.23037e-07 -3.15993e-05
0.000839186 6.50794e-06 4.18161e-07
6.50794e-06 4.23424e-05 5.00241e-07
4.18161e-07 5.00241e-07 -2.43277e-05
0.0010049 8.44309e-06 -8.00562e-07
8.44309e-06 0.000126888 -9.56668e-09
-8.00562e-07 -9.56668e-09 5.26151e-05
0.00104026 6.4893e-07 4.53686e-07
6.4893e-07 0.000142872 4.34944e-08
4.53686e-07 4.34944e-08 8.47756e-05
0.000824333 7.60618e-05 1.15178e-06
7.60618e-05 3.31755e-05 1.36017e-06
1.15178e-06 1.36017e-06 -4.01833e-05
0.00160533 -1.36844e-05 -5.13895e-07
-1.36844e-05 -0.000100955 -2.91122e-06
-5.13895e-07 -2.91122e-06 -0.000182935
0.000864242 2.58428e-05 -3.12919e-07
2.58428e-05 5.64619e-05 3.51734e-07
-3.12919e-07 3.51734e-07 -1.7602e-05
0.000863591 -2.27183e-05 -3.49265e-07
-2.27183e-05 5.78395e-05 -3.43196e-07
-3.49265e-07 -3.43196e-07 -1.66183e-05
0.00221389 -0.000159737 8.68034e-07
-0.000159737 0.000184894 2.33935e-06
8.68034e-07 2.33935e-06 0.000106808
0.00102792 -0.000159402 1.39758e-06
-0.000159402 -0.000152791 -2.46771e-07
1.39758e-06 -2.46771e-07 -0.000267986
0.00116277 -0.000144078 5.82826e-07
-0.000144078 0.000207788 -1.12834e-06
5.82826e-07 -1.12834e-06 5.53446e-05
0.000978144 -2.37669e-05 1.12238e-07
-2.37669e-05 0.000118124 -3.52682e-07
1.12238e-07 -3.52682e-07 3.35426e-05
0.000989774 -2.49881e-05 5.9283e-07
-2.49881e-05 0.000157052 4.73996e-07
5.9283e-07 4.73996e-07 2.33972e-05
0.00283305 -0.000107344 -8.79828e-06
-0.000107344 0.000609037 9.50824e-06
-8.79828e-06 9.50824e-06 0.00052489
0.0024806 -0.00023612 -5.66029e-06
-0.00023612 0.000405085 -6.58004e-06
-5.66029e-06 -6.58004e-06 0.00033071
-0.000326894 -0.000108577 -4.22794e-06
-0.000108577 -0.000649778 -5.21007e-07
-4.22794e-06 -5.21007e-07 -0.000780119
0.00149392 -9.63353e-05 -4.18479e-06
-9.63353e-05 0.000404912 2.32477e-06
-4.18479e-06 2.32477e-06 0.000245022
0.000736832 -6.61445e-05 8.26054e-07
-6.61445e-05 -1.31791e-05 7.63457e-08
8.26054e-07 7.63457e-08 -8.84759e-05
0.000955413 -3.89753e-05 1.40218e-06
-3.89753e-05 0.000100935 1.15811e-07
1.40218e-06 1.15811e-07 2.08527e-05
0.000893466 -1.52173e-05 -2.43556e-06
-1.52173e-05 7.73655e-05 2.69508e-08
-2.43556e-06 2.69508e-08 -1.99511e-05
-0.00347511 -1.96815e-05 7.22702e-07
-1.96815e-05 -0.00159342 -2.37389e-07
7.22702e-07 -2.37389e-07 -0.00137319
0.00729663 -3.18627e-05 -2.43241e-05
-3.18627e-05 0.00248425 -5.43133e-07
-2.43241e-05 -5.43133e-07 0.0019073
0.000874887 3.60908e-05 1.59394e-06
3.60908e-05 7.2877e-05 -4.18244e-07
1.59394e-06 -4.18244e-07 -2.01629e-05
0.000963896 0.000104291 2.51194e-06
0.000104291 0.000132582 4.04575e-07
2.51194e-06 4.04575e-07 1.63141e-05
0.0016883 9.91142e-05 -3.5194e-07
9.91142e-05 -7.2852e-05 3.39054e-06
-3.5194e-07 3.39054e-06 -5.81158e-05
0.00213904 0.000241954 1.25306e-06
0.000241954 0.000290833 8.61509e-07
1.25306e-06 8.61509e-07 0.00018376
0.00104665 0.000129376 4.08889e-06
0.000129376 0.00015318 1.48008e-06
4.08889e-06 1.48008e-06 -3.48868e-05
0.00542359 6.46885e-05 4.06597e-05
6.46885e-05 0.00151494 -9.78979e-06
4.06597e-05 -9.78979e-06 0.000709169
0.00410682 -2.49311e-05 -7.22215e-05
-2.49311e-05 0.000521948 -2.33041e-05
-7.22215e-05 -2.33041e-05 5.39846e-05
0.000430415 0.000120491 -1.17498e-06
0.000120491 -0.000497818 -2.17179e-05
-1.17498e-06 -2.17179e-05 -0.000528969
0.00345225 -0.000452896 2.9276e-05
-0.000452896 0.00172003 1.57186e-05
2.9276e-05 1.57186e-05 0.00169224
-0.00226433 -0.000564857 8.22747e-06
-0.000564857 -0.00238314 -1.93349e-05
8.22747e-06 -1.93349e-05 -0.00104472
0.00100499 8.17608e-05 1.41053e-07
8.17608e-05 0.000148785 -3.54019e-07
1.41053e-07 -3.54019e-07 5.4111e-05
-0.00271917 -0.000118024 5.96193e-06
-0.000118024 -0.00129393 -8.76267e-07
5.96193e-06 -8.76267e-07 -0.00114356
-4.61724e-05 -0.000282029 -1.26888e-05
-0.000282029 -0.000192727 -3.62048e-06
-1.26888e-05 -3.62048e-06 -6.44776e-05
0.00225417 0.000164135 -2.15476e-06
0.000164135 0.000268371 -2.53651e-06
-2.15476e-06 -2.53651e-06 0.000305503
0.000910882 7.22564e-05 -6.37546e-08
7.22564e-05 0.00013862 -7.76585e-07
-6.37546e-08 -7.76585e-07 6.3498e-06
0.000602989 0.000126473 3.50601e-07
0.000126473 -0.000111197 4.04677e-07
3.50601e-07 4.04677e-07 -0.000310221
-7.54431e-05 0.000114112 1.55157e-05
0.000114112 -0.000656205 9.41287e-06
1.55157e-05 9.41287e-06 -0.000590493
0.00505983 -0.000191115 -1.99526e-06
-0.000191115 0.00132687 -1.2739e-06
-1.99526e-06 -1.2739e-06 0.000204026
0.0047351 0.000190917 -2.43457e-05
0.000190917 0.000987859 -1.70327e-05
-2.43457e-05 -1.70327e-05 0.000388396
0.00385444 -0.000643211 1.44334e-05
-0.000643211 0.00139552 -4.79163e-06
1.44334e-05 -4.79163e-06 0.00152603
0.000939961 -0.000319237 1.20579e-05
-0.000319237 -0.00157582 3.10958e-05
1.20579e-05 3.10958e-05 -0.000582807
0.00114709 5.16557e-05 -3.19213e-06
5.16557e-05 0.000229562 -3.19023e-06
-3.19213e-06 -3.19023e-06 0.000145961
-0.00116479 -9.66016e-05 -6.35825e-05
-9.66016e-05 -0.000409394 -1.17413e-05
-6.35825e-05 -1.17413e-05 -0.000674887
0.00197297 -2.95555e-05 -4.23684e-05
-2.95555e-05 0.000163138 -3.89991e-05
-4.23684e-05 -3.89991e-05 1.35435e-05
0.00101935 0.000123592 -1.37059e-05
0.000123592 -3.94117e-05 -7.13742e-06
-1.37059e-05 -7.13742e-06 -4.92408e-05
0.0015726 0.000134621 -1.31691e-05
0.000134621 0.000531932 -4.37186e-06
-1.31691e-05 -4.37186e-06 0.000375424
0.00117625 7.23464e-05 -2.18176e-05
7.23464e-05 0.00030365 -4.07696e-06
-2.18176e-05 -4.07696e-06 0.000243719
0.00366381 0.000429332 -9.9408e-05
0.000429332 0.000768479 1.2912e-05
-9.9408e-05 1.2912e-05 0.000265297
-0.000286334 -0.000241021 2.64848e-05
-0.000241021 -0.000831447 2.92279e-05
2.64848e-05 2.92279e-05 -0.00226455
0.00664911 -0.000642722 -5.37361e-05
-0.000642722 0.00178017 3.43438e-06
-5.37361e-05 3.43438e-06 0.00201631
0.000581202 -0.000148652 -1.17108e-05
-0.000148652 -0.00190842 -1.58334e-05
-1.17108e-05 -1.58334e-05 -0.00118269
0.000904485 2.81148e-05 3.48282e-07
2.81148e-05 7.33957e-05 1.40651e-06
3.48282e-07 1.40651e-06 -6.38675e-06
0.00107706 5.51558e-05 1.0984e-06
5.51558e-05 0.000166632 7.80045e-07
1.0984e-06 7.80045e-07 9.2693e-05
0.000657045 5.55043e-05 6.50238e-07
5.55043e-05 -4.12889e-05 -4.30109e-06
6.50238e-07 -4.30109e-06 -0.000108043
0.000751505 2.72985e-05 1.41071e-07
2.72985e-05 -2.62672e-05 -2.5637e-07
1.41071e-07 -2.5637e-07 -7.53245e-05
0.00095714 3.16268e-05 -6.38356e-07
3.16268e-05 9.0719e-05 -3.26178e-07
-6.38356e-07 -3.26178e-07 2.82104e-05
0.00100704 -3.5846e-05 -2.34496e-07
-3.5846e-05 0.000113998 2.42107e-07
-2.34496e-07 2.42107e-07 5.09168e-05
0.000864095 -1.45672e-05 -6.63678e-07
-1.45672e-05 4.4951e-05 -3.12179e-07
-6.63678e-07 -3.12179e-07 -1.88844e-05
0.000930792 6.89329e-07 -8.31089e-07
6.89329e-07 7.8839e-05 1.05555e-06
-8.31089e-07 1.05555e-06 1.12656e-05
0.000929425 1.79312e-05 3.99303e-07
1.79312e-05 7.44229e-05 -3.86367e-07
3.99303e-07 -3.86367e-07 1.26082e-05
0.000917621 -1.67289e-05 -5.17388e-08
-1.67289e-05 6.51153e-05 2.50376e-08
-5.17388e-08 2.50376e-08 2.25846e-08
0.000935173 -3.91827e-05 1.71699e-07
-3.91827e-05 7.24177e-05 9.08352e-08
1.71699e-07 9.08352e-08 7.84186e-06
0.000931917 9.50069e-06 1.40761e-07
9.50069e-06 7.69455e-05 -1.14563e-08
1.40761e-07 -1.14563e-08 1.12915e-05
0.00114314 -2.73185e-05 1.61315e-06
-2.73185e-05 0.000186978 -1.29312e-06
1.61315e-06 -1.29312e-06 0.00012493
0.000932587 -2.66651e-05 2.57588e-07
-2.66651e-05 6.48768e-05 -6.64765e-07
2.57588e-07 -6.64765e-07 2.71785e-07
0.000934521 3.09231e-06 2.66145e-07
3.09231e-06 7.60362e-05 -7.30623e-08
2.66145e-07 -7.30623e-08 7.59252e-06
0.000947859 -2.89785e-05 1.29357e-08
-2.89785e-05 8.65665e-05 -4.50126e-07
1.29357e-08 -4.50126e-07 2.42306e-05
0.000878744 2.10723e-05 -2.57207e-07
2.10723e-05 4.3298e-05 -3.33298e-07
-2.57207e-07 -3.33298e-07 -1.82468e-05
0.000919775 -2.06609e-06 2.41014e-07
-2.06609e-06 6.91104e-05 -2.35915e-07
2.41014e-07 -2.35915e-07 1.70373e-06
0.000877177 4.209e-05 -1.34842e-07
4.209e-05 5.13112e-05 -3.49656e-09
-1.34842e-07 -3.49656e-09 -1.22975e-05
0.000950613 3.89389e-05 -4.82026e-07
3.89389e-05 8.15644e-05 -2.76612e-07
-4.82026e-07 -2.76612e-07 1.69694e-05
0.000839293 3.8098e-05 8.63986e-07
3.8098e-05 3.57743e-05 7.18373e-07
8.63986e-07 7.18373e-07 -2.94511e-05
0.000935303 3.90002e-05 4.40059e-07
3.90002e-05 7.5824e-05 -2.3731e-07
4.40059e-07 -2.3731e-07 7.00563e-06
0.000903579 3.55101e-05 2.63034e-07
3.55101e-05 6.11865e-05 5.02341e-08
2.63034e-07 5.02341e-08 -4.61476e-06
0.000858666 1.07584e-05 1.44605e-06
1.07584e-05 5.00965e-05 5.72752e-07
1.44605e-06 5.72752e-07 -3.08109e-05
0.000768483 -4.97812e-05 5.32189e-08
-4.97812e-05 3.22304e-05 5.64592e-07
5.32189e-08 5.64592e-07 -7.02928e-05
0.000675032 9.61e-06 -6.01843e-08
9.61e-06 -3.929e-05 5.38195e-07
-6.01843e-08 5.38195e-07 -0.000117199
0.000862048 2.23012e-05 2.39828e-07
2.23012e-05 5.47819e-05 4.38213e-07
2.39828e-07 4.38213e-07 -1.57503e-05
0.000858661 2.45068e-05 3.78561e-07
2.45068e-05 4.38571e-05 9.69255e-07
3.78561e-07 9.69255e-07 -1.6336e-05
0.000866784 1.25525e-05 -1.8959e-07
1.25525e-05 4.73533e-05 -6.286e-08
-1.8959e-07 -6.286e-08 -1.12552e-05
0.000846861 2.3272e-05 -4.1453e-07
2.3272e-05 2.65683e-05 6.69377e-07
-4.1453e-07 6.69377e-07 -1.98765e-05
0.000881713 1.12422e-05 2.4128e-07
1.12422e-05 5.37351e-05 -1.80808e-07
2.4128e-07 -1.80808e-07 -4.12282e-06
0.000859078 3.12908e-06 -9.42981e-08
3.12908e-06 3.06851e-05 7.40421e-09
-9.42981e-08 7.40421e-09 -1.5294e-05
0.000820609 1.80941e-05 -7.18166e-07
1.80941e-05 2.88813e-06 1.63142e-06
-7.18166e-07 1.63142e-06 -2.62617e-05
0.000758613 -1.50085e-06 4.48088e-07
-1.50085e-06 -2.51269e-05 -5.95592e-07
4.48088e-07 -5.95592e-07 -7.13429e-05
0.000823403 1.00403e-05 -6.97563e-08
1.00403e-05 2.17361e-06 -3.09362e-09
-6.97563e-08 -3.09362e-09 -2.63646e-05
0.00135291 1.72319e-05 -4.51415e-06
1.72319e-05 0.000281904 4.29223e-06
-4.51415e-06 4.29223e-06 0.000283005
0.000817718 1.32303e-06 5.99979e-07
1.32303e-06 -1.64023e-06 -1.51246e-06
5.99979e-07 -1.51246e-06 -2.99006e-05
0.00106145 1.13601e-05 -1.99612e-06
1.13601e-05 0.000121971 6.1377e-07
-1.99612e-06 6.1377e-07 0.000122087
0.000932331 9.97281e-06 -6.02367e-07
9.97281e-06 5.28532e-05 1.54491e-06
-6.02367e-07 1.54491e-06 6.93494e-05
0.000767681 5.46941e-06 2.4892e-07
5.46941e-06 -3.86609e-05 -3.03969e-06
2.4892e-07 -3.03969e-06 -3.96685e-05
0.00211858 6.58089e-06 1.97338e-06
6.58089e-06 0.000692451 1.59301e-08
1.97338e-06 1.59301e-08 0.000714872
0.0021138 1.25343e-08 9.4303e-07
1.25343e-08 0.000689354 -4.05673e-06
9.4303e-07 -4.05673e-06 0.00071192
0.00109515 2.85061e-05 -9.80653e-07
2.85061e-05 0.000161541 -3.97605e-07
-9.80653e-07 -3.97605e-07 0.000118044
0.00083008 -4.68495e-06 -2.60532e-07
-4.68495e-06 3.23047e-06 -1.58837e-06
-2.60532e-07 -1.58837e-06 -2.12274e-05
0.000854518 2.43339e-06 6.82633e-07
2.43339e-06 3.47555e-05 4.57397e-07
6.82633e-07 4.57397e-07 -1.02911e-05
0.0007798 -6.57419e-07 -1.12392e-07
-6.57419e-07 -3.40123e-05 -3.11105e-06
-1.12392e-07 -3.11105e-06 -3.22062e-05
0.000833814 -1.25199e-06 3.60786e-08
-1.25199e-06 4.66002e-06 2.41814e-09
3.60786e-08 2.41814e-09 -1.96671e-05
0.000830126 2.29468e-06 -1.57901e-07
2.29468e-06 2.72727e-06 1.58282e-06
-1.57901e-07 1.58282e-06 -2.21837e-05
0.0007772 4.98298e-06 -1.41754e-07
4.98298e-06 -3.4951e-05 1.01914e-08
-1.41754e-07 1.01914e-08 -3.36501e-05
0.00202834 6.54617e-06 3.14617e-06
6.54617e-06 0.000643563 -4.03693e-06
3.14617e-06 -4.03693e-06 0.000667045
0.00130827 1.3264e-05 -7.28114e-07
1.3264e-05 0.000253565 1.92873e-06
-7.28114e-07 1.92873e-06 0.000256644
0.00150611 1.22682e-05 2.04058e-06
1.22682e-05 0.000363196 3.63528e-08
2.04058e-06 3.63528e-08 0.000383105
0.00101378 1.4997e-05 -1.24293e-05
1.4997e-05 0.000100368 6.49698e-06
-1.24293e-05 6.49698e-06 0.000116375
-0.00498784 0.000118221 -1.55257e-06
0.000118221 -0.00239947 3.89129e-06
-1.55257e-06 3.89129e-06 -0.00235385
-0.00126245 0.000244527 -8.17669e-06
0.000244527 -0.000715627 1.57313e-05
-8.17669e-06 1.57313e-05 -0.000585814
0.00102402 -2.01569e-05 -0.00010288
-2.01569e-05 -0.000398264 -1.19681e-05
-0.00010288 -1.19681e-05 -0.000643688
0.0024501 -3.71992e-05 6.38647e-06
-3.71992e-05 0.000463879 -1.16053e-07
6.38647e-06 -1.16053e-07 0.000366654
0.00143571 8.07841e-06 -8.35048e-06
8.07841e-06 -0.000234121 -1.03975e-06
-8.35048e-06 -1.03975e-06 -0.000309822
0.00130401 -1.14142e-05 2.33859e-05
-1.14142e-05 1.7009e-05 -2.3369e-06
2.33859e-05 -2.3369e-06 -0.000249582
0.0021478 2.70811e-05 -4.53095e-08
2.70811e-05 0.000280073 1.58747e-06
-4.53095e-08 1.58747e-06 0.000192193
0.00520695 0.000253822 -2.06765e-05
0.000253822 0.00131184 -9.0715e-06
-2.06765e-05 -9.0715e-06 0.000643161
-0.00331828 0.00026664 -1.39755e-05
0.00026664 -0.00135262 -9.38847e-07
-1.39755e-05 -9.38847e-07 -0.00137507
5.80226e-06 0.000544553 1.46665e-06
0.000544553 -0.00099616 -5.53647e-06
1.46665e-06 -5.53647e-06 0.000169085
0.00160499 -1.84919e-05 5.20771e-05
-1.84919e-05 0.000114582 -7.86632e-06
5.20771e-05 -7.86632e-06 -0.000125247
0.00677292 0.00041564 1.45558e-05
0.00041564 0.00216824 -5.21404e-06
1.45558e-05 -5.21404e-06 0.00124561
5.61761e-06 0.000476143 -3.62464e-05
0.000476143 -0.000317039 5.2332e-06
-3.62464e-05 5.2332e-06 7.77705e-05
0.00326987 0.00031218 -4.96488e-05
0.00031218 2.56596e-05 2.67329e-05
-4.96488e-05 2.67329e-05 0.000770268
0.000856063 3.72384e-05 -7.32233e-07
3.72384e-05 5.27463e-05 7.40972e-08
-7.32233e-07 7.40972e-08 -1.81037e-05
0.000781235 -9.7683e-06 4.77806e-08
-9.7683e-06 5.8211e-06 -3.23058e-07
4.77806e-08 -3.23058e-07 -5.09385e-05
0.000851926 -4.60824e-05 -8.24144e-07
-4.60824e-05 3.40907e-05 8.06524e-07
-8.24144e-07 8.06524e-07 -1.13388e-05
0.000773984 5.64144e-06 2.12004e-07
5.64144e-06 2.64923e-06 2.93949e-07
2.12004e-07 2.93949e-07 -5.60786e-05
0.000868238 4.65734e-05 7.45486e-07
4.65734e-05 6.22026e-05 7.32863e-07
7.45486e-07 7.32863e-07 -5.49428e-06
0.000905963 2.90209e-05 -7.40366e-07
2.90209e-05 7.90485e-05 3.97078e-07
-7.40366e-07 3.97078e-07 9.45639e-06
0.000887002 3.73907e-05 1.17267e-06
3.73907e-05 6.96789e-05 9.58482e-07
1.17267e-06 9.58482e-07 1.79816e-06
0.000845548 -2.54316e-05 5.78037e-07
-2.54316e-05 3.8978e-05 1.94558e-07
5.78037e-07 1.94558e-07 -2.26363e-05
0.000841213 -2.86494e-05 4.30394e-07
-2.86494e-05 4.03688e-05 -5.46395e-07
4.30394e-07 -5.46395e-07 -1.94652e-05
0.00076745 -3.88749e-05 -1.0883e-07
-3.88749e-05 1.82517e-06 5.06695e-07
-1.0883e-07 5.06695e-07 -5.74756e-05
0.00144136 -1.04997e-05 7.31244e-07
-1.04997e-05 -0.000187048 -1.83458e-06
7.31244e-07 -1.83458e-06 -0.000267898
0.00232871 -0.000161623 -1.75038e-06
-0.000161623 0.000254568 4.81951e-06
-1.75038e-06 4.81951e-06 0.000177585
0.000123397 -0.000122372 4.05456e-06
-0.000122372 -0.000604454 1.02953e-06
4.05456e-06 1.02953e-06 -0.000710328
0.00113306 -0.000144924 1.85345e-06
-0.000144924 0.000185989 3.36927e-07
1.85345e-06 3.36927e-07 2.81661e-05
0.00114733 -4.38669e-05 3.13972e-06
-4.38669e-05 0.000240644 -2.86271e-07
3.13972e-06 -2.86271e-07 0.000107186
0.00105434 -3.94512e-05 -1.35936e-07
-3.94512e-05 0.000157832 -4.39081e-07
-1.35936e-07 -4.39081e-07 7.15209e-05
0.00086081 -1.75487e-05 -9.90152e-07
-1.75487e-05 5.21014e-05 -1.85972e-07
-9.90152e-07 -1.85972e-07 -2.06313e-05
0.000885727 2.66956e-05 -5.69242e-07
2.66956e-05 6.87595e-05 6.68372e-08
-5.69242e-07 6.68372e-08 -3.81722e-06
0.0016672 -7.70883e-05 -6.24789e-06
-7.70883e-05 1.52577e-05 1.74987e-06
-6.24789e-06 1.74987e-06 -6.17803e-05
0.000798108 -3.04943e-05 -1.66314e-07
-3.04943e-05 1.88497e-05 1.01241e-07
-1.66314e-07 1.01241e-07 -5.72432e-05
0.000902196 -4.28882e-05 5.3333e-07
-4.28882e-05 7.21317e-05 -3.04659e-07
5.3333e-07 -3.04659e-07 -8.77429e-06
0.00214079 -0.000221491 1.27421e-06
-0.000221491 0.000243997 -1.36276e-06
1.27421e-06 -1.36276e-06 0.000168505
0.000283475 -0.000131801 1.00729e-06
-0.000131801 -0.000324067 8.62449e-07
1.00729e-06 8.62449e-07 -0.000456006
0.00120897 -8.71414e-05 2.84152e-06
-8.71414e-05 0.000249653 -5.15551e-07
2.84152e-06 -5.15551e-07 9.431e-05
0.000972395 -2.89522e-05 -9.12821e-07
-2.89522e-05 0.000123523 -4.96913e-07
-9.12821e-07 -4.96913e-07 2.07362e-05
0.00248236 -0.000196923 2.8346e-06
-0.000196923 0.000653573 -5.77218e-06
2.8346e-06 -5.77218e-06 0.000511318
0.00202541 -0.00021435 -1.03308e-05
-0.00021435 0.000473872 1.52867e-06
-1.03308e-05 1.52867e-06 0.000371939
0.000874258 -3.029e-06 -6.55028e-06
-3.029e-06 9.86106e-05 4.77835e-06
-6.55028e-06 4.77835e-06 -3.53824e-05
0.00088386 2.354e-05 4.75327e-07
2.354e-05 6.43119e-05 1.10149e-06
4.75327e-07 1.10149e-06 -1.2184e-05
0.000820446 -7.97273e-05 1.26611e-06
-7.97273e-05 2.72333e-05 3.49353e-07
1.26611e-06 3.49353e-07 -5.54892e-05
0.000986861 -3.74628e-05 3.63294e-08
-3.74628e-05 0.00010447 1.24545e-06
3.63294e-08 1.24545e-06 2.02502e-05
0.0010491 4.24978e-06 -6.21371e-05
4.24978e-06 0.000885358 1.13942e-06
-6.21371e-05 1.13942e-06 0.000767724
0.00133785 -2.05485e-05 1.41232e-05
-2.05485e-05 0.000790058 3.5079e-06
1.41232e-05 3.5079e-06 0.000762099
-1.4491e-07 0.000187375 -4.25718e-05
0.000187375 -0.00122208 1.9534e-05
-4.25718e-05 1.9534e-05 -0.00177123
0.000925414 7.95192e-05 1.50438e-06
7.95192e-05 0.000109904 1.17403e-06
1.50438e-06 1.17403e-06 1.50775e-05
0.000656993 7.88004e-05 4.1838e-06
7.88004e-05 1.63116e-05 1.23142e-06
4.1838e-06 1.23142e-06 -0.000117593
0.00351837 0.000202787 4.86862e-06
0.000202787 0.00090592 -1.70019e-06
4.86862e-06 -1.70019e-06 0.000926374
7.13833e-05 9.17201e-05 7.44653e-06
9.17201e-05 -0.000381137 3.6335e-06
7.44653e-06 3.6335e-06 -0.000579839
0.00297739 -0.000288154 5.06515e-05
-0.000288154 0.00130473 9.64509e-06
5.06515e-05 9.64509e-06 0.00148217
0.000952484 -0.00026875 2.96541e-06
-0.00026875 -0.000622229 1.1333e-05
2.96541e-06 1.1333e-05 -0.00151184
0.00402689 0.000215602 -7.92342e-05
0.000215602 0.000433736 -5.66637e-05
-7.92342e-05 -5.66637e-05 -0.0003309
-0.00133547 6.62797e-05 1.13382e-05
6.62797e-05 -0.00122847 -4.84054e-06
1.13382e-05 -4.84054e-06 -0.00118181
-0.00235817 -0.000372701 5.03417e-05
-0.000372701 -0.00131862 1.99439e-05
5.03417e-05 1.99439e-05 -0.00124505
0.00132109 -0.000283891 3.94946e-05
-0.000283891 0.00049446 1.95718e-05
3.94946e-05 1.95718e-05 0.000607862
0.00355907 -0.000381089 5.03269e-05
-0.000381089 -3.14762e-05 3.0241e-05
5.03269e-05 3.0241e-05 0.00105964
0.000956475 6.0484e-05 4.87533e-07
6.0484e-05 0.000134218 -5.01242e-07
4.87533e-07 -5.01242e-07 4.92963e-05
3.44633e-05 -0.000119937 -2.00301e-05
-0.000119937 0.000173183 -4.70787e-06
-2.00301e-05 -4.70787e-06 6.06142e-05
0.00210513 -2.73214e-05 -3.64105e-06
-2.73214e-05 0.000211997 -9.44596e-06
-3.64105e-06 -9.44596e-06 6.35889e-05
0.00135017 0.000106209 -4.81698e-06
0.000106209 0.000165861 -8.01581e-07
-4.81698e-06 -8.01581e-07 0.000105316
0.000788952 7.27539e-05 -2.02698e-06
7.27539e-05 0.000143455 -4.83506e-07
-2.02698e-06 -4.83506e-07 -1.91882e-05
-0.000720918 7.06293e-05 1.11379e-05
7.06293e-05 -0.000645401 -1.56319e-05
1.11379e-05 -1.56319e-05 -0.00067651
0.00551874 0.000546588 -2.82051e-05
0.000546588 0.0015271 -1.11088e-05
-2.82051e-05 -1.11088e-05 0.00080604
0.00803774 -0.000397049 8.00377e-06
-0.000397049 0.0027049 5.07977e-06
8.00377e-06 5.07977e-06 0.00151911
0.000469726 -0.000355772 5.15587e-06
-0.000355772 -0.00114477 4.51577e-06
5.15587e-06 4.51577e-06 -0.000864945
0.00382013 -0.000201204 3.56808e-06
-0.000201204 0.000190652 1.24218e-06
3.56808e-06 1.24218e-06 0.000938485
0.00142885 0.000111463 -7.78989e-06
0.000111463 0.000412191 -7.86097e-06
-7.78989e-06 -7.86097e-06 0.000344143
0.00172553 -1.01344e-05 -3.13726e-05
-1.01344e-05 0.000143718 -1.12166e-05
-3.13726e-05 -1.12166e-05 -1.1264e-05
0.00134954 -7.15051e-06 -1.11502e-05
-7.15051e-06 -0.000126292 -2.07882e-05
-1.11502e-05 -2.07882e-05 -0.000200823
-0.000618184 -2.68227e-05 -1.61683e-05
-2.68227e-05 -0.000459045 -1.43865e-05
-1.61683e-05 -1.43865e-05 -0.000567852
0.00316064 0.000295832 -1.12242e-05
0.000295832 0.00107385 4.71418e-05
-1.12242e-05 4.71418e-05 0.000666367
0.00856891 -0.000274928 2.15643e-05
-0.000274928 0.00265173 -2.83812e-06
2.15643e-05 -2.83812e-06 0.00122066
-0.00296479 -0.000199632 -4.91271e-05
-0.000199632 -0.00275176 -2.66019e-05
-4.91271e-05 -2.66019e-05 -0.00297054
0.00435811 3.01842e-05 -1.30117e-06
3.01842e-05 0.000499992 -3.01905e-05
-1.30117e-06 -3.01905e-05 0.00124152
0.000938947 5.3863e-05 2.36174e-07
5.3863e-05 9.43547e-05 2.27143e-06
2.36174e-07 2.27143e-06 1.95371e-05
0.000905132 6.86124e-05 -6.32255e-07
6.86124e-05 8.62425e-05 -1.01477e-06
-6.32255e-07 -1.01477e-06 2.0292e-05
0.000510068 4.19107e-05 1.15807e-06
4.19107e-05 -0.000105026 -3.00117e-06
1.15807e-06 -3.00117e-06 -0.000158868
0.000931382 5.405e-05 -1.05581e-06
5.405e-05 7.20646e-05 -6.72302e-07
-1.05581e-06 -6.72302e-07 1.23687e-05
0.000922543 -2.74825e-05 2.41833e-09
-2.74825e-05 6.82581e-05 3.05431e-07
2.41833e-09 3.05431e-07 1.76434e-06
0.000994442 -1.70304e-05 -9.11374e-07
-1.70304e-05 0.000107703 5.5146e-07
-9.11374e-07 5.5146e-07 4.25002e-05
0.000871874 -6.15775e-06 -8.25249e-07
-6.15775e-06 4.67116e-05 1.25811e-06
-8.25249e-07 1.25811e-06 -1.76068e-05
0.000936811 8.48465e-06 3.56793e-07
8.48465e-06 7.26825e-05 -7.88725e-09
3.56793e-07 -7.88725e-09 7.37847e-06
0.000923813 -1.47425e-05 -2.01538e-07
-1.47425e-05 6.14837e-05 5.45397e-08
-2.01538e-07 5.45397e-08 -3.36574e-06
0.000988472 -2.1954e-05 3.51382e-07
-2.1954e-05 0.00010587 5.50183e-07
3.51382e-07 5.50183e-07 4.34584e-05
0.000975795 -3.71199e-05 5.35562e-07
-3.71199e-05 0.000114128 4.22586e-08
5.35562e-07 4.22586e-08 6.1508e-05
0.000982711 -3.97984e-05 2.0448e-06
-3.97984e-05 8.43009e-05 -9.06975e-07
2.0448e-06 -9.06975e-07 2.60566e-05
0.000860189 3.75344e-05 1.12311e-06
3.75344e-05 3.33514e-05 -5.52064e-08
1.12311e-06 -5.52064e-08 -3.4918e-05
0.000920438 -1.9266e-05 7.51537e-07
-1.9266e-05 6.73963e-05 -1.74715e-07
7.51537e-07 -1.74715e-07 1.54524e-06
0.000860696 4.38714e-05 -3.61798e-07
4.38714e-05 4.25354e-05 -2.50238e-07
-3.61798e-07 -2.50238e-07 -2.10715e-05
0.000913805 3.14512e-05 -6.80413e-07
3.14512e-05 6.05723e-05 -7.42166e-08
-6.80413e-07 -7.42166e-08 -3.27664e-06
0.000931327 3.77743e-05 -2.08495e-07
3.77743e-05 7.19323e-05 -8.46222e-08
-2.08495e-07 -8.46222e-08 4.56112e-06
0.000857147 4.1068e-05 3.31792e-07
4.1068e-05 4.69302e-05 3.41819e-07
3.31792e-07 3.41819e-07 -1.91437e-05
0.00090238 4.43062e-05 8.11062e-09
4.43062e-05 6.07707e-05 -1.11046e-07
8.11062e-09 -1.11046e-07 -5.41219e-06
0.000892128 2.63625e-05 1.78448e-06
2.63625e-05 6.18606e-05 8.01097e-07
1.78448e-06 8.01097e-07 -8.02907e-06
0.000911967 3.21226e-05 4.38075e-07
3.21226e-05 5.93773e-05 1.09305e-07
4.38075e-07 1.09305e-07 -4.8298e-06
0.000888069 -4.78935e-05 5.31488e-07
-4.78935e-05 7.89441e-05 3.23307e-07
5.31488e-07 3.23307e-07 -7.3241e-06
0.000941821 6.7544e-07 -1.62179e-07
6.7544e-07 9.45519e-05 -4.24529e-08
-1.62179e-07 -4.24529e-08 1.34459e-05
0.000770362 -3.93038e-05 3.08344e-07
-3.93038e-05 2.98901e-05 2.46248e-06
3.08344e-07 2.46248e-06 -6.77276e-05
0.000999148 -0.000101909 -1.56092e-06
-0.000101909 0.000137538 3.69952e-06
-1.56092e-06 3.69952e-06 1.90707e-05
0.00107483 -2.8249e-05 6.96617e-07
-2.8249e-05 0.000175931 -2.84068e-07
6.96617e-07 -2.84068e-07 8.86403e-05
0.000773711 -5.33509e-05 3.63397e-07
-5.33509e-05 3.65734e-05 -2.06191e-06
3.63397e-07 -2.06191e-06 -6.3491e-05
0.000870738 9.76102e-06 -3.5658e-07
9.76102e-06 6.41146e-05 -5.79086e-07
-3.5658e-07 -5.79086e-07 -1.24705e-05
0.000722638 1.64065e-05 5.76669e-07
1.64065e-05 -2.55651e-05 1.08631e-06
5.76669e-07 1.08631e-06 -9.1937e-05
0.000894759 2.20921e-05 -4.65053e-07
2.20921e-05 7.31034e-05 -5.70498e-07
-4.65053e-07 -5.70498e-07 2.1402e-06
0.000876643 9.40333e-06 -6.3849e-08
9.40333e-06 5.36219e-05 3.35341e-07
-6.3849e-08 3.35341e-07 -6.83946e-06
0.000840467 2.58309e-05 -4.86118e-07
2.58309e-05 2.53529e-05 8.28108e-07
-4.86118e-07 8.28108e-07 -2.25427e-05
0.00088337 -7.0197e-06 1.56291e-07
-7.0197e-06 5.81551e-05 -4.54026e-07
1.56291e-07 -4.54026e-07 -1.9055e-06
0.000850555 3.74155e-06 -3.22328e-07
3.74155e-06 2.88705e-05 1.89864e-08
-3.22328e-07 1.89864e-08 -1.79391e-05
0.000815638 2.18312e-05 -9.25884e-07
2.18312e-05 3.92178e-06 1.65475e-06
-9.25884e-07 1.65475e-06 -2.61924e-05
0.000870635 -9.8868e-06 9.56726e-07
-9.8868e-06 3.73985e-05 -6.67456e-07
9.56726e-07 -6.67456e-07 -9.06779e-06
0.000823505 1.3757e-05 -1.47751e-07
1.3757e-05 4.03317e-06 -1.78667e-10
-1.47751e-07 -1.78667e-10 -2.4977e-05
0.00134651 2.3069e-05 -6.23581e-06
2.3069e-05 0.000282162 4.2874e-06
-6.23581e-06 4.2874e-06 0.000282566
0.000820809 5.041e-06 9.25356e-07
5.041e-06 5.19097e-07 -1.57084e-06
9.25356e-07 -1.57084e-06 -2.7896e-05
0.00105711 1.68118e-05 -2.66485e-06
1.68118e-05 0.000122359 5.90496e-07
-2.66485e-06 5.90496e-07 0.000122009
0.000927261 1.53841e-05 -1.12562e-06
1.53841e-05 5.36225e-05 1.56514e-06
-1.12562e-06 1.56514e-06 6.94707e-05
0.000764862 1.04471e-05 4.47891e-07
1.04471e-05 -3.86174e-05 -3.07979e-06
4.47891e-07 -3.07979e-06 -3.98834e-05
0.00152416 1.26013e-05 4.1171e-06
1.26013e-05 0.000372692 -1.20643e-06
4.1171e-06 -1.20643e-06 0.000392014
0.00211773 7.40646e-06 4.6718e-06
7.40646e-06 0.000692277 -4.01685e-06
4.6718e-06 -4.01685e-06 0.00071466
0.00091293 -2.71922e-05 7.01917e-07
-2.71922e-05 6.37976e-05 -3.55977e-07
7.01917e-07 -3.55977e-07 1.79992e-05
0.000829291 -8.8949e-06 -2.82156e-07
-8.8949e-06 4.60704e-06 -1.52178e-06
-2.82156e-07 -1.52178e-06 -2.08057e-05
0.000900194 -8.16328e-06 4.28846e-07
-8.16328e-06 5.77141e-05 1.5396e-07
4.28846e-07 1.5396e-07 1.32971e-05
0.000783079 -5.94107e-06 -3.53443e-07
-5.94107e-06 -3.13397e-05 -3.08142e-06
-3.53443e-07 -3.08142e-06 -2.97973e-05
0.000834158 -5.27467e-06 -3.32592e-08
-5.27467e-06 5.44421e-06 1.33454e-09
-3.32592e-08 1.33454e-09 -1.90358e-05
0.000862394 -3.18488e-05 -9.75892e-07
-3.18488e-05 3.66474e-05 1.11219e-06
-9.75892e-07 1.11219e-06 -6.64524e-06
0.00201455 -6.35935e-07 -6.50444e-07
-6.35935e-07 0.000635873 -4.03777e-06
-6.50444e-07 -4.03777e-06 0.000659558
0.000779042 -3.96923e-07 -7.21161e-08
-3.96923e-07 -3.44427e-05 3.86869e-09
-7.21161e-08 3.86869e-09 -3.26399e-05
0.000835178 -1.78394e-06 8.30445e-08
-1.78394e-06 5.34264e-06 1.59918e-06
8.30445e-08 1.59918e-06 -1.89828e-05
0.000780572 5.20254e-06 -1.81219e-07
5.20254e-06 -3.31257e-05 3.13499e-06
-1.81219e-07 3.13499e-06 -3.18661e-05
0.00203216 6.97731e-06 -2.1013e-06
6.97731e-06 0.00064581 -1.6278e-08
-2.1013e-06 -1.6278e-08 0.000669215
0.00206119 1.38045e-05 -9.25819e-06
1.38045e-05 0.000662991 4.00405e-06
-9.25819e-06 4.00405e-06 0.000685823
-0.00113268 0.000100858 -3.36943e-05
0.000100858 -0.000332953 2.85016e-06
-3.36943e-05 2.85016e-06 -0.000544854
-0.00108573 0.000245134 4.19246e-06
0.000245134 -0.000334777 2.10697e-06
4.19246e-06 2.10697e-06 -0.000358039
0.00170733 5.24041e-05 -5.70873e-05
5.24041e-05 -7.66807e-05 3.24029e-05
-5.70873e-05 3.24029e-05 -0.000187115
-0.00124792 0.000285386 3.74156e-05
0.000285386 -0.000678561 -1.47065e-05
3.74156e-05 -1.47065e-05 -0.000491253
0.00219635 5.75908e-05 -8.48047e-05
5.75908e-05 0.000307786 2.46617e-06
-8.48047e-05 2.46617e-06 -2.59215e-05
0.00186954 2.50566e-05 3.12185e-05
2.50566e-05 0.000144713 -4.44107e-06
3.12185e-05 -4.44107e-06 6.16457e-05
0.00142022 -0.000150252 -5.48882e-05
-0.000150252 -0.000363145 -1.30324e-05
-5.48882e-05 -1.30324e-05 -0.000951146
0.00625874 0.000461945 7.61017e-05
0.000461945 0.00303575 -2.12987e-05
7.61017e-05 -2.12987e-05 0.00313337
-0.00212144 0.000580012 1.27778e-05
0.000580012 -0.00244382 2.28038e-05
1.27778e-05 2.28038e-05 -0.00104635
0.00143417 5.64416e-05 -3.94616e-06
5.64416e-05 -0.000100463 1.24636e-06
-3.94616e-06 1.24636e-06 -0.000319983
0.00194625 0.000256965 1.30353e-05
0.000256965 -8.05515e-05 -1.60106e-05
1.30353e-05 -1.60106e-05 -0.00126218
0.00422235 0.000678866 -7.09063e-06
0.000678866 0.00116199 -7.87646e-06
-7.09063e-06 -7.87646e-06 0.00154831
0.00196387 0.000314157 -4.27879e-06
0.000314157 -0.0007766 7.02642e-06
-4.27879e-06 7.02642e-06 -5.42421e-05
0.00180281 -1.22828e-05 -1.61504e-05
-1.22828e-05 -0.000268257 2.97399e-06
-1.61504e-05 2.97399e-06 -0.000484542
0.00412475 0.000413569 6.36475e-05
0.000413569 0.00102791 -4.97914e-05
6.36475e-05 -4.97914e-05 -0.000241258
-0.00392158 0.00024423 -8.24309e-05
0.00024423 -0.00323872 1.07271e-05
-8.24309e-05 1.07271e-05 -0.00300197
0.00118771 0.000173141 -1.6365e-05
0.000173141 -0.00159484 2.12536e-05
-1.6365e-05 2.12536e-05 -0.000900829
0.000962422 -1.87736e-05 1.07431e-06
-1.87736e-05 0.00010903 4.49756e-07
1.07431e-06 4.49756e-07 3.22099e-05
0.000905996 3.32285e-05 -1.32065e-06
3.32285e-05 7.9064e-05 -3.52303e-07
-1.32065e-06 -3.52303e-07 9.37981e-06
0.000854245 9.62566e-06 6.89334e-07
9.62566e-06 4.43622e-05 -2.20082e-07
6.89334e-07 -2.20082e-07 -1.2105e-05
0.000907037 5.26757e-05 1.91239e-06
5.26757e-05 8.36104e-05 7.97556e-07
1.91239e-06 7.97556e-07 1.62702e-05
0.000825364 1.14207e-05 -1.90322e-07
1.14207e-05 3.68328e-05 6.48659e-07
-1.90322e-07 6.48659e-07 -4.01152e-05
0.000940392 2.96213e-05 1.40212e-07
2.96213e-05 9.8335e-05 5.24073e-07
1.40212e-07 5.24073e-07 2.87084e-05
0.000852386 -7.41007e-06 -2.21608e-07
-7.41007e-06 4.79964e-05 9.76857e-07
-2.21608e-07 9.76857e-07 -1.78671e-05
0.000954767 5.86178e-05 -6.9475e-07
5.86178e-05 0.000104435 3.17773e-07
-6.9475e-07 3.17773e-07 3.55037e-05
0.000937945 2.23244e-05 -3.55365e-07
2.23244e-05 9.46664e-05 3.16194e-07
-3.55365e-07 3.16194e-07 2.94221e-05
0.000792221 -2.20946e-05 -8.69591e-07
-2.20946e-05 1.53459e-05 -3.02732e-07
-8.69591e-07 -3.02732e-07 -4.63186e-05
0.000678957 -5.52759e-05 7.84432e-06
-5.52759e-05 -0.000482086 -1.16957e-07
7.84432e-06 -1.16957e-07 -0.00055508
0.00196826 -0.000210281 1.20903e-06
-0.000210281 0.000169418 4.17217e-06
1.20903e-06 4.17217e-06 9.28232e-05
0.000940092 -0.000157737 8.09233e-06
-0.000157737 2.52979e-05 4.15486e-07
8.09233e-06 4.15486e-07 -0.000109056
0.000944386 -7.53998e-05 6.21612e-06
-7.53998e-05 0.000106322 -1.35863e-06
6.21612e-06 -1.35863e-06 -4.67406e-05
0.00105302 -1.62171e-05 7.0811e-07
-1.62171e-05 0.000172354 -9.21271e-07
7.0811e-07 -9.21271e-07 6.32527e-05
0.000825303 -4.72571e-05 -4.96543e-07
-4.72571e-05 3.3891e-05 -4.18475e-07
-4.96543e-07 -4.18475e-07 -4.96337e-05
0.0008596 4.26952e-05 -9.06116e-08
4.26952e-05 5.14006e-05 -3.45354e-07
-9.06116e-08 -3.45354e-07 -2.57749e-05
0.000907945 -2.74954e-05 -1.34896e-07
-2.74954e-05 7.90726e-05 4.827e-07
-1.34896e-07 4.827e-07 9.1375e-07
0.00144043 -0.000154489 -1.43652e-06
-0.000154489 0.000120366 -5.19382e-07
-1.43652e-06 -5.19382e-07 1.75532e-05
0.000943419 1.14211e-07 -1.6127e-07
1.14211e-07 9.26787e-05 -3.32233e-07
-1.6127e-07 -3.32233e-07 1.02457e-05
0.000987969 -3.54947e-05 -4.61947e-07
-3.54947e-05 0.000108133 -1.06716e-07
-4.61947e-07 -1.06716e-07 2.12344e-05
0.00159999 -0.000192453 6.70657e-07
-0.000192453 0.000261662 -7.42601e-07
6.70657e-07 -7.42601e-07 0.000162814
0.00109902 -2.25789e-05 -1.99101e-06
-2.25789e-05 0.000197425 1.28844e-06
-1.99101e-06 1.28844e-06 6.62853e-05
-0.000506696 -0.000194105 1.63148e-06
-0.000194105 -0.000921837 -8.71204e-06
1.63148e-06 -8.71204e-06 -0.000863672
0.00166152 -7.46986e-05 -6.75022e-06
-7.46986e-05 0.000536933 9.32382e-06
-6.75022e-06 9.32382e-06 0.000386558
0.000580877 1.77762e-05 -2.25498e-06
1.77762e-05 -0.000116695 5.54867e-06
-2.25498e-06 5.54867e-06 -0.00020074
0.000898708 2.7124e-06 4.89729e-07
2.7124e-06 5.96318e-05 9.22924e-07
4.89729e-07 9.22924e-07 -1.76859e-05
0.00088715 2.10771e-05 -5.5655e-07
2.10771e-05 5.38346e-05 1.17062e-06
-5.5655e-07 1.17062e-06 -3.24978e-05
0.00144716 1.28734e-06 -1.27762e-05
1.28734e-06 -1.04661e-05 -1.67297e-07
-1.27762e-05 -1.67297e-07 -0.000140978
4.48985e-06 -3.30115e-06 -1.08032e-05
-3.30115e-06 0.0003608 -1.47416e-06
-1.08032e-05 -1.47416e-06 0.000175565
-0.00539302 -5.95504e-05 -8.82075e-06
-5.95504e-05 -0.0027251 4.43265e-06
-8.82075e-06 4.43265e-06 -0.00259732
0.000805892 7.2351e-05 2.91267e-06
7.2351e-05 6.0111e-05 2.03958e-06
2.91267e-06 2.03958e-06 -2.65268e-05
0.000186876 2.22887e-05 5.23246e-06
2.22887e-05 -0.000153648 3.05613e-06
5.23246e-06 3.05613e-06 -0.000320231
0.00129866 7.80408e-05 1.11176e-05
7.80408e-05 0.000157576 -2.59273e-06
1.11176e-05 -2.59273e-06 7.63661e-05
-0.00121886 -6.56047e-05 2.1511e-05
-6.56047e-05 -0.000396198 3.65389e-06
2.1511e-05 3.65389e-06 -0.000626686
0.0033842 -0.000422159 6.05537e-06
-0.000422159 0.000704039 -1.81199e-06
6.05537e-06 -1.81199e-06 -0.000700217
0.00520663 0.000508108 7.54871e-05
0.000508108 0.00133825 -3.01443e-05
7.54871e-05 -3.01443e-05 0.000798631
0.00028192 7.26793e-05 -1.47634e-05
7.26793e-05 -0.000122375 1.35892e-05
-1.47634e-05 1.35892e-05 -8.09356e-05
0.00551852 -0.000596471 4.14306e-05
-0.000596471 0.00149166 3.35003e-05
4.14306e-05 3.35003e-05 0.00162722
0.00217036 -2.65097e-05 3.69548e-05
-2.65097e-05 0.000211816 2.00289e-05
3.69548e-05 2.00289e-05 6.73259e-05
0.00393583 -0.000178991 2.19162e-05
-0.000178991 0.000433277 1.63472e-05
2.19162e-05 1.63472e-05 0.00115946
0.00118638 9.99439e-05 1.06162e-06
9.99439e-05 0.000291488 -1.07798e-06
1.06162e-06 -1.07798e-06 0.000223325
0.00157725 -6.612e-06 6.36862e-07
-6.612e-06 8.44702e-05 -4.52566e-06
6.36862e-07 -4.52566e-06 -4.62643e-05
0.00172145 -8.37744e-06 -1.01682e-06
-8.37744e-06 8.62798e-05 -9.0972e-07
-1.01682e-06 -9.0972e-07 1.65602e-05
0.000223911 2.60601e-05 2.36773e-07
2.60601e-05 -1.71828e-05 3.9131e-07
2.36773e-07 3.9131e-07 -0.000123661
0.00355188 0.000384946 -2.19622e-05
0.000384946 0.000944621 -2.43042e-05
-2.19622e-05 -2.43042e-05 0.000653685
0.00402794 0.00011538 3.93514e-05
0.00011538 0.00066736 1.30189e-05
3.93514e-05 1.30189e-05 -0.000964631
0.00265643 1.51788e-05 3.28868e-07
1.51788e-05 -0.0006461 -1.03344e-05
3.28868e-07 -1.03344e-05 0.000140249
0.000659149 -0.000221978 -1.11558e-05
-0.000221978 -0.000756274 1.8315e-05
-1.11558e-05 1.8315e-05 -0.000879566
0.00111504 4.82136e-05 -3.74677e-06
4.82136e-05 0.000347024 -1.01978e-05
-3.74677e-06 -1.01978e-05 0.000313366
0.00103588 -9.72897e-07 -2.07968e-06
-9.72897e-07 6.92007e-05 3.29214e-06
-2.07968e-06 3.29214e-06 1.78484e-05
0.00191093 3.2352e-06 -2.24249e-06
3.2352e-06 0.000260585 -1.37057e-05
-2.24249e-06 -1.37057e-05 0.000188172
0.00113239 0.000154623 1.61068e-05
0.000154623 -0.00154494 -2.31601e-05
1.61068e-05 -2.31601e-05 -0.000911021
-0.00142716 6.12684e-05 9.402e-06
6.12684e-05 -0.000718759 -9.28264e-06
9.402e-06 -9.28264e-06 -0.000946278
0.0077916 7.05267e-06 5.82907e-05
7.05267e-06 0.00237476 1.79414e-05
5.82907e-05 1.79414e-05 0.00104522
-0.00147113 -4.94524e-05 1.56268e-05
-4.94524e-05 -0.000811453 -4.67368e-05
1.56268e-05 -4.67368e-05 -0.0010212
0.00116285 8.8979e-05 2.65543e-06
8.8979e-05 0.000218464 4.31845e-06
2.65543e-06 4.31845e-06 0.000153002
0.000621487 5.76459e-05 -1.09815e-06
5.76459e-05 -5.37168e-05 1.88231e-06
-1.09815e-06 1.88231e-06 -0.000110616
0.000241617 1.34675e-05 -3.30157e-09
1.34675e-05 -0.00019575 -3.84559e-06
-3.30157e-09 -3.84559e-06 -0.0002542
0.000943878 7.02822e-05 -4.4739e-07
7.02822e-05 7.78026e-05 4.01785e-08
-4.4739e-07 4.01785e-08 1.14758e-05
0.000911896 3.60483e-07 -7.07972e-07
3.60483e-07 5.48149e-05 2.39651e-07
-7.07972e-07 2.39651e-07 -9.09382e-06
0.000840617 -3.50611e-05 -2.19018e-06
-3.50611e-05 2.76446e-05 3.12369e-06
-2.19018e-06 3.12369e-06 -3.57779e-05
0.00092237 4.19584e-05 1.54713e-07
4.19584e-05 6.27328e-05 2.2809e-08
1.54713e-07 2.2809e-08 -3.65565e-06
0.000872938 -4.85719e-05 9.86353e-08
-4.85719e-05 2.96083e-05 -4.65822e-07
9.86353e-08 -4.65822e-07 -3.06013e-05
0.000953591 -5.78408e-05 1.90158e-06
-5.78408e-05 9.38845e-05 1.41938e-06
1.90158e-06 1.41938e-06 3.66282e-05
0.000717848 -1.77699e-05 1.12241e-06
-1.77699e-05 -8.99845e-06 5.7957e-07
1.12241e-06 5.7957e-07 -5.3155e-05
0.000926454 -5.65727e-09 5.98786e-07
-5.65727e-09 5.37485e-05 -5.33055e-07
5.98786e-07 -5.33055e-07 -6.56038e-06
0.000927823 3.79448e-05 -6.30191e-07
3.79448e-05 6.77985e-05 2.05859e-07
-6.30191e-07 2.05859e-07 2.1392e-06
0.000872297 4.40588e-05 -2.61595e-07
4.40588e-05 5.65362e-05 -2.27196e-07
-2.61595e-07 -2.27196e-07 -1.0342e-05
0.000891649 4.73553e-05 -9.06752e-07
4.73553e-05 5.48627e-05 -3.4235e-07
-9.06752e-07 -3.4235e-07 -1.13564e-05
0.000901782 2.74905e-05 1.63289e-07
2.74905e-05 5.32405e-05 1.94246e-07
1.63289e-07 1.94246e-07 -1.08702e-05
0.000934544 2.76753e-05 6.45187e-07
2.76753e-05 8.31763e-05 3.01172e-07
6.45187e-07 3.01172e-07 1.40586e-05
0.000797464 -3.27615e-05 8.18889e-07
-3.27615e-05 3.94785e-05 1.02297e-06
8.18889e-07 1.02297e-06 -3.42744e-05
0.00083636 -2.58411e-05 -2.72837e-07
-2.58411e-05 5.30542e-05 -7.62604e-07
-2.72837e-07 -7.62604e-07 -3.01208e-05
0.000766372 -4.97406e-05 1.7692e-06
-4.97406e-05 3.48905e-05 1.47174e-06
1.7692e-06 1.47174e-06 -8.12983e-05
0.00102987 -8.39214e-06 -1.21276e-06
-8.39214e-06 0.000141076 -9.13925e-07
-1.21276e-06 -9.13925e-07 5.99763e-05
0.00101723 -5.31027e-05 -3.41674e-07
-5.31027e-05 0.00015346 7.9862e-07
-3.41674e-07 7.9862e-07 5.43152e-05
0.00058738 -8.41292e-05 -1.20556e-06
-8.41292e-05 -7.59985e-05 3.35916e-06
-1.20556e-06 3.35916e-06 -0.000202644
0.000897426 -9.74166e-05 -3.11707e-06
-9.74166e-05 8.6222e-05 9.43302e-07
-3.11707e-06 9.43302e-07 -3.55968e-05
0.000966788 -7.17223e-05 -8.06567e-07
-7.17223e-05 0.00012359 1.5458e-06
-8.06567e-07 1.5458e-06 2.53638e-05
0.000891981 -9.58066e-05 1.41614e-07
-9.58066e-05 8.45923e-05 2.73681e-07
1.41614e-07 2.73681e-07 -3.35604e-05
0.000909412 -4.2026e-06 4.46889e-07
-4.2026e-06 7.61361e-05 1.20421e-06
4.46889e-07 1.20421e-06 2.78481e-06
0.00098965 -3.07728e-05 -6.6476e-07
-3.07728e-05 0.000130668 -5.61996e-07
-6.6476e-07 -5.61996e-07 4.20584e-05
0.00077876 -5.64807e-05 6.89189e-07
-5.64807e-05 4.08656e-05 -3.43423e-06
6.89189e-07 -3.43423e-06 -5.67431e-05
0.00106981 9.72159e-06 -1.09478e-06
9.72159e-06 0.000169324 -1.57804e-06
-1.09478e-06 -1.57804e-06 9.40584e-05
0.000810311 1.42379e-05 5.99556e-08
1.42379e-05 2.07997e-05 -1.62228e-08
5.99556e-08 -1.62228e-08 -4.44823e-05
0.000840807 3.34911e-05 -1.40022e-07
3.34911e-05 2.88692e-05 1.03398e-06
-1.40022e-07 1.03398e-06 -2.26883e-05
0.00089313 1.05534e-08 5.2973e-08
1.05534e-08 6.35704e-05 -3.7733e-07
5.2973e-08 -3.7733e-07 2.13041e-06
0.000850641 1.42138e-05 -4.10732e-07
1.42138e-05 3.10426e-05 -6.627e-08
-4.10732e-07 -6.627e-08 -1.70343e-05
0.000808819 2.63737e-05 -1.12553e-06
2.63737e-05 4.71965e-06 1.67481e-06
-1.12553e-06 1.67481e-06 -2.68539e-05
0.000860463 -7.72788e-06 8.77281e-07
-7.72788e-06 3.41093e-05 -7.7795e-07
8.77281e-07 -7.7795e-07 -1.28829e-05
0.000818272 2.06655e-05 -9.17979e-08
2.06655e-05 4.75988e-06 1.36563e-09
-9.17979e-08 1.36563e-09 -2.5237e-05
0.00131526 2.88158e-05 -7.05069e-06
2.88158e-05 0.000271321 3.06815e-06
-7.05069e-06 3.06815e-06 0.000270538
0.000824151 1.00909e-05 1.02743e-06
1.00909e-05 3.96719e-06 -1.59647e-06
1.02743e-06 -1.59647e-06 -2.49072e-05
0.00105301 2.22439e-05 -3.30301e-06
2.22439e-05 0.000124112 5.55144e-07
-3.30301e-06 5.55144e-07 0.000122988
0.000918628 2.05765e-05 -1.67742e-06
2.05765e-05 5.3709e-05 1.57895e-06
-1.67742e-06 1.57895e-06 6.86441e-05
0.000764 1.55448e-05 7.08985e-07
1.55448e-05 -3.63193e-05 -3.12792e-06
7.08985e-07 -3.12792e-06 -3.80746e-05
0.00151829 1.89316e-05 5.47913e-06
1.89316e-05 0.000372753 -1.14793e-06
5.47913e-06 -1.14793e-06 0.000391492
0.00211232 1.47432e-05 8.17985e-06
1.47432e-05 0.000691437 -3.94746e-06
8.17985e-06 -3.94746e-06 0.000713474
0.000711756 -1.60794e-06 -2.28392e-07
-1.60794e-06 -3.91306e-05 -9.95373e-07
-2.28392e-07 -9.95373e-07 -9.26167e-05
0.000604733 -1.33909e-05 -2.32123e-07
-1.33909e-05 -0.000112231 -1.88273e-06
-2.32123e-07 -1.88273e-06 -0.000141219
0.000933871 -1.41039e-05 2.93838e-08
-1.41039e-05 7.66899e-05 4.10708e-08
2.93838e-08 4.10708e-08 2.95369e-05
0.000783844 -1.11927e-05 -4.20024e-07
-1.11927e-05 -2.84711e-05 -3.07212e-06
-4.20024e-07 -3.07212e-06 -2.80255e-05
0.000713348 -9.26186e-06 5.36478e-08
-9.26186e-06 -5.7025e-05 1.7726e-08
5.36478e-08 1.7726e-08 -8.33467e-05
0.000707258 -3.9453e-05 1.2259e-07
-3.9453e-05 -4.3785e-05 7.36217e-07
1.2259e-07 7.36217e-07 -8.99781e-05
0.00201773 -7.70368e-06 -4.62465e-06
-7.70368e-06 0.000638621 -4.01445e-06
-4.62465e-06 -4.01445e-06 0.000662054
0.000778211 -5.7217e-06 -1.57174e-07
-5.7217e-06 -3.40004e-05 -3.87752e-09
-1.57174e-07 -3.87752e-09 -3.24199e-05
0.000835903 -5.93874e-06 9.15125e-08
-5.93874e-06 6.39838e-06 1.58485e-06
9.15125e-08 1.58485e-06 -1.80935e-05
0.00201464 -1.8834e-07 -2.03952e-06
-1.8834e-07 0.000635913 -2.86051e-10
-2.03952e-06 -2.86051e-10 0.000659591
0.000779692 -1.40825e-07 7.92582e-08
-1.40825e-07 -3.41099e-05 3.11949e-06
7.92582e-08 3.11949e-06 -3.23195e-05
0.00203594 7.40009e-06 -4.59646e-06
7.40009e-06 0.000648029 4.05862e-06
-4.59646e-06 4.05862e-06 0.00067135
0.000971463 1.7163e-05 -3.28183e-05
1.7163e-05 -0.000278856 1.04322e-05
-3.28183e-05 1.04322e-05 -0.000421633
0.00115721 0.000147802 1.00563e-06
0.000147802 0.000822137 -3.54807e-06
1.00563e-06 -3.54807e-06 0.000811717
0.000553953 -1.78665e-05 4.70986e-05
-1.78665e-05 0.000477983 -1.33636e-05
4.70986e-05 -1.33636e-05 0.000312014
0.000882198 1.78605e-05 -3.78768e-08
1.78605e-05 5.90338e-05 1.93709e-07
-3.78768e-08 1.93709e-07 -1.00326e-05
0.00165637 3.0483e-05 -9.8954e-06
3.0483e-05 6.27316e-05 1.79324e-05
-9.8954e-06 1.79324e-05 2.81815e-06
0.00162084 4.72777e-05 -1.55267e-05
4.72777e-05 -0.000123466 5.05935e-06
-1.55267e-05 5.05935e-06 -0.000259619
0.00136147 0.000338814 5.6948e-05
0.000338814 0.000583501 -3.19468e-05
5.6948e-05 -3.19468e-05 0.000989487
0.00302224 4.2172e-05 -3.18233e-05
4.2172e-05 0.000512336 3.99381e-06
-3.18233e-05 3.99381e-06 0.000260779
0.00906341 0.000539658 1.69649e-05
0.000539658 0.0032545 -1.43254e-05
1.69649e-05 -1.43254e-05 0.00224717
-0.00234427 0.000420823 4.34549e-05
0.000420823 -0.00200139 -7.56153e-06
4.34549e-05 -7.56153e-06 -0.00151282
0.00266453 0.000327803 3.45264e-05
0.000327803 -0.000306027 -2.58057e-05
3.45264e-05 -2.58057e-05 0.000373889
0.00245112 -4.54835e-05 -4.60676e-05
-4.54835e-05 -0.000205908 3.70277e-06
-4.60676e-05 3.70277e-06 -0.00061161
0.00670035 0.000373821 3.07302e-05
0.000373821 0.00234289 -1.32662e-05
3.07302e-05 -1.32662e-05 0.00111954
0.00370181 0.000456906 -4.08581e-06
0.000456906 0.000167929 1.17192e-06
-4.08581e-06 1.17192e-06 0.000314557
0.00299172 0.000191037 -5.22239e-06
0.000191037 -0.00055696 2.75199e-06
-5.22239e-06 2.75199e-06 0.000157675
0.00401495 -0.000223665 4.05287e-05
-0.000223665 0.000564417 -2.73087e-05
4.05287e-05 -2.73087e-05 -3.37321e-05
0.006953 0.000391198 2.67382e-05
0.000391198 0.00246701 -4.56799e-06
2.67382e-05 -4.56799e-06 0.00074839
0.00243128 0.00026346 8.4862e-06
0.00026346 -0.000233477 4.05087e-05
8.4862e-06 4.05087e-05 -0.000322352
0.00427256 4.88761e-05 -1.78656e-06
4.88761e-05 0.0003309 1.7329e-05
-1.78656e-06 1.7329e-05 0.00110814
0.000907538 -2.0784e-05 4.90769e-07
-2.0784e-05 7.53257e-05 4.81606e-07
4.90769e-07 4.81606e-07 -4.52452e-06
0.000925667 -3.25715e-05 4.87828e-07
-3.25715e-05 9.16532e-05 1.45878e-08
4.87828e-07 1.45878e-08 1.33162e-05
0.000952988 4.30665e-05 -9.50075e-07
4.30665e-05 0.000105883 -1.12896e-07
-9.50075e-07 -1.12896e-07 3.58863e-05
0.000895856 -1.39269e-05 -2.26612e-07
-1.39269e-05 6.50305e-05 2.15823e-08
-2.26612e-07 2.15823e-08 -7.53282e-06
0.000916829 3.96815e-05 -5.59453e-07
3.96815e-05 8.60356e-05 3.43322e-07
-5.59453e-07 3.43322e-07 1.02511e-05
0.000967466 1.583e-05 5.99705e-07
1.583e-05 0.000114582 8.22474e-07
5.99705e-07 8.22474e-07 4.43956e-05
0.00100939 5.23567e-05 -4.82689e-07
5.23567e-05 0.000131769 1.18045e-07
-4.82689e-07 1.18045e-07 6.38435e-05
0.00104322 5.94501e-05 6.64823e-07
5.94501e-05 0.000153467 8.55684e-07
6.64823e-07 8.55684e-07 8.70638e-05
0.000333842 -0.000111068 2.15049e-05
-0.000111068 -0.000458326 -6.99198e-06
2.15049e-05 -6.99198e-06 -0.000516199
0.00131921 -0.000178009 5.64559e-06
-0.000178009 0.000117605 -2.02255e-06
5.64559e-06 -2.02255e-06 2.46293e-05
0.000916402 -9.77195e-05 -2.07121e-06
-9.77195e-05 9.01015e-05 -2.44595e-07
-2.07121e-06 -2.44595e-07 7.4678e-06
0.00146982 -4.69981e-05 3.09106e-06
-4.69981e-05 0.000373456 -2.19659e-06
3.09106e-06 -2.19659e-06 0.000246111
0.000970323 -4.3442e-05 -9.34686e-07
-4.3442e-05 9.90457e-05 -8.97714e-07
-9.34686e-07 -8.97714e-07 1.09934e-05
0.00104467 -1.64235e-05 -9.18952e-07
-1.64235e-05 0.000141719 -5.8279e-07
-9.18952e-07 -5.8279e-07 6.30138e-05
0.000973341 9.70825e-06 1.46359e-09
9.70825e-06 0.000103965 -1.55853e-07
1.46359e-09 -1.55853e-07 2.4356e-05
0.00125826 -0.000265528 -6.77218e-06
-0.000265528 -4.32797e-05 1.23224e-06
-6.77218e-06 1.23224e-06 -2.70474e-05
0.000958803 1.15807e-05 1.49527e-07
1.15807e-05 9.7593e-05 -4.49548e-07
1.49527e-07 -4.49548e-07 9.44251e-06
0.00106808 -2.64883e-05 -8.82627e-07
-2.64883e-05 0.000138221 7.03723e-08
-8.82627e-07 7.03723e-08 4.78505e-05
0.00086403 -6.18959e-05 -3.89288e-07
-6.18959e-05 0.000107908 2.08271e-06
-3.89288e-07 2.08271e-06 -2.45885e-05
0.00107349 -7.06058e-06 1.54244e-07
-7.06058e-06 0.000148046 8.59893e-07
1.54244e-07 8.59893e-07 7.46454e-05
-0.00127782 -0.000247897 1.74849e-05
-0.000247897 -0.00109938 -1.13462e-05
1.74849e-05 -1.13462e-05 -0.00104351
0.00147619 6.47545e-06 -8.64494e-06
6.47545e-06 0.000566597 1.38239e-05
-8.64494e-06 1.38239e-05 0.00042475
0.000562364 2.10063e-06 -8.72399e-07
2.10063e-06 -0.000133921 3.79582e-06
-8.72399e-07 3.79582e-06 -0.000208388
0.000967315 8.23657e-05 9.14179e-07
8.23657e-05 9.91031e-05 1.61864e-06
9.14179e-07 1.61864e-06 1.75154e-05
0.00127626 1.42307e-06 5.72124e-06
1.42307e-06 0.000273317 6.9901e-07
5.72124e-06 6.9901e-07 0.000211127
0.00128778 -5.26224e-06 1.616e-05
-5.26224e-06 -7.38028e-05 8.63963e-08
1.616e-05 8.63963e-08 -0.000207739
-0.00108369 -6.42853e-06 2.10705e-05
-6.42853e-06 -0.000185569 5.37809e-07
2.10705e-05 5.37809e-07 -0.00044411
0.000875831 8.1492e-05 6.97726e-06
8.1492e-05 0.000136101 4.01044e-06
6.97726e-06 4.01044e-06 6.90059e-05
-3.32136e-07 4.78162e-05 4.54458e-06
4.78162e-05 -0.000110364 8.6975e-06
4.54458e-06 8.6975e-06 -0.000223748
0.00146465 -6.64472e-06 2.58331e-05
-6.64472e-06 3.87086e-05 1.11004e-06
2.58331e-05 1.11004e-06 -6.55259e-05
0.00629742 -0.000508758 6.06709e-05
-0.000508758 0.00192718 2.22041e-05
6.06709e-05 2.22041e-05 0.000427105
0.00469605 0.000461672 -3.16254e-05
0.000461672 0.00134388 -7.06075e-05
-3.16254e-05 -7.06075e-05 0.000684156
0.00331764 -0.000325033 1.05805e-05
-0.000325033 0.00023959 6.10369e-05
1.05805e-05 6.10369e-05 8.92765e-05
0.00218936 -9.2588e-06 3.87592e-06
-9.2588e-06 0.000371003 1.77825e-05
3.87592e-06 1.77825e-05 0.000304132
0.00115846 1.35175e-05 1.32118e-06
1.35175e-05 -0.00168547 7.61127e-06
1.32118e-06 7.61127e-06 -0.000859451
0.00087509 6.53696e-05 2.33941e-06
6.53696e-05 0.000213311 5.79793e-07
2.33941e-06 5.79793e-07 0.000169688
0.00105192 -3.22672e-07 -8.99311e-07
-3.22672e-07 7.9593e-05 2.79735e-07
-8.99311e-07 2.79735e-07 2.98794e-05
0.00143738 1.99079e-06 6.92669e-07
1.99079e-06 4.58949e-05 1.55311e-06
6.92669e-07 1.55311e-06 -1.50096e-05
-0.000488452 8.22546e-05 -2.81557e-06
8.22546e-05 -0.000181142 -1.7097e-06
-2.81557e-06 -1.7097e-06 -0.000329233
0.00295788 0.000177463 4.749e-06
0.000177463 -0.00051377 -3.4545e-06
4.749e-06 -3.4545e-06 0.000166191
0.00526961 0.000312499 4.00788e-05
0.000312499 0.00101347 3.10084e-06
4.00788e-05 3.10084e-06 -0.000207848
0.00307772 0.000126224 -4.92719e-05
0.000126224 0.000799921 -4.06476e-06
-4.92719e-05 -4.06476e-06 0.000551675
-0.000530881 3.57928e-05 2.91723e-06
3.57928e-05 -0.00031894 -1.28263e-05
2.91723e-06 -1.28263e-05 -0.000402067
0.00125871 3.02421e-06 -2.64561e-06
3.02421e-06 0.000321962 7.68316e-06
-2.64561e-06 7.68316e-06 0.0002656
0.00171304 2.09287e-05 1.19851e-05
2.09287e-05 0.000108242 -1.72125e-05
1.19851e-05 -1.72125e-05 4.07721e-05
0.00312211 0.00032011 4.51366e-05
0.00032011 -8.2432e-05 -2.70191e-05
4.51366e-05 -2.70191e-05 0.000674695
0.00222192 0.000322174 -1.21706e-05
0.000322174 -0.000288679 -4.76388e-05
-1.21706e-05 -4.76388e-05 -0.000345565
0.00165202 0.000259578 1.39548e-05
0.000259578 0.000277055 -1.20163e-05
1.39548e-05 -1.20163e-05 0.000343664
0.00258337 -0.000178247 0.000100877
-0.000178247 0.00050686 1.27446e-05
0.000100877 1.27446e-05 -0.00101781
0.000766105 7.62294e-05 -9.72505e-07
7.62294e-05 1.6947e-05 7.18045e-06
-9.72505e-07 7.18045e-06 -4.32583e-05
0.000825886 9.57655e-06 1.91059e-06
9.57655e-06 9.85137e-05 2.54246e-06
1.91059e-06 2.54246e-06 4.52996e-05
0.00021478 -4.69122e-05 1.0502e-05
-4.69122e-05 -6.59294e-05 -5.7136e-06
1.0502e-05 -5.7136e-06 -0.000161265
0.00097706 2.10802e-05 -7.87594e-07
2.10802e-05 8.84309e-05 1.58359e-07
-7.87594e-07 1.58359e-07 2.40796e-05
0.000810268 -5.21015e-05 -1.33806e-06
-5.21015e-05 -1.63974e-06 7.45235e-07
-1.33806e-06 7.45235e-07 -6.26832e-05
0.000997313 -5.92634e-05 -1.98044e-06
-5.92634e-05 0.00010821 1.77776e-06
-1.98044e-06 1.77776e-06 4.83394e-05
0.000937537 -1.36573e-05 -1.38944e-07
-1.36573e-05 6.38054e-05 -2.59634e-07
-1.38944e-07 -2.59634e-07 2.27919e-06
0.000665055 -2.03162e-05 -9.50078e-07
-2.03162e-05 -4.99514e-05 1.647e-06
-9.50078e-07 1.647e-06 -9.16991e-05
0.000785828 -4.94681e-05 1.6927e-06
-4.94681e-05 8.25518e-05 -6.74467e-07
1.6927e-06 -6.74467e-07 -1.70363e-05
0.000897258 1.91953e-05 -3.04069e-07
1.91953e-05 5.08954e-05 1.95425e-07
-3.04069e-07 1.95425e-07 -1.3413e-05
0.000983743 3.96456e-05 -4.53741e-07
3.96456e-05 0.000108511 1.67833e-07
-4.53741e-07 1.67833e-07 3.97516e-05
0.00101226 -3.12595e-05 4.42314e-07
-3.12595e-05 0.000144379 3.49228e-07
4.42314e-07 3.49228e-07 6.81682e-05
0.000600593 -4.29787e-05 2.84277e-06
-4.29787e-05 1.33229e-07 1.9309e-06
2.84277e-06 1.9309e-06 -0.000128133
0.000765315 -5.7405e-06 -3.29983e-06
-5.7405e-06 1.75862e-05 -1.11673e-06
-3.29983e-06 -1.11673e-06 -6.28255e-05
0.000637186 -5.21478e-05 2.04183e-07
-5.21478e-05 -2.80618e-05 -1.69556e-07
2.04183e-07 -1.69556e-07 -0.000139012
0.00104243 -0.000115611 1.52246e-06
-0.000115611 0.000170317 1.74041e-06
1.52246e-06 1.74041e-06 2.00983e-05
0.00114667 -0.000119389 -4.11204e-06
-0.000119389 0.000169196 3.19366e-06
-4.11204e-06 3.19366e-06 2.86908e-05
0.00126587 -6.78906e-05 -8.80556e-07
-6.78906e-05 0.000277915 -1.35525e-06
-8.80556e-07 -1.35525e-06 0.000177128
0.000773301 -9.41406e-05 -7.02944e-07
-9.41406e-05 1.4601e-05 4.64458e-07
-7.02944e-07 4.64458e-07 -0.000115703
0.00140855 -0.000125853 -3.78637e-07
-0.000125853 0.000347357 -2.53713e-07
-3.78637e-07 -2.53713e-07 0.00022901
0.000644036 -7.24255e-05 -1.44321e-06
-7.24255e-05 -3.62197e-05 7.03864e-07
-1.44321e-06 7.03864e-07 -0.00014307
0.00093302 -9.9032e-05 2.33411e-07
-9.9032e-05 0.000103972 -5.01119e-07
2.33411e-07 -5.01119e-07 -1.56165e-05
0.000924803 -1.08091e-05 -4.28761e-07
-1.08091e-05 8.66547e-05 9.76878e-07
-4.28761e-07 9.76878e-07 7.42724e-06
0.00102204 -7.1333e-05 -1.14951e-06
-7.1333e-05 0.0001506 1.01139e-06
-1.14951e-06 1.01139e-06 5.21785e-05
0.000780418 -8.95073e-05 1.40079e-07
-8.95073e-05 2.91877e-05 -1.97707e-06
1.40079e-07 -1.97707e-06 -8.86171e-05
0.000855957 3.14001e-05 -6.83908e-08
3.14001e-05 4.01324e-05 1.21154e-06
-6.83908e-08 1.21154e-06 -1.70533e-05
0.000816555 -2.80158e-06 4.86871e-07
-2.80158e-06 2.71304e-05 4.25251e-08
4.86871e-07 4.25251e-08 -4.64544e-05
0.000904994 -3.32006e-05 7.77027e-07
-3.32006e-05 8.56951e-05 -2.04714e-06
7.77027e-07 -2.04714e-06 -4.24972e-06
0.000895991 1.07172e-05 -1.01919e-07
1.07172e-05 6.61057e-05 -9.9518e-07
-1.01919e-07 -9.9518e-07 1.93966e-06
0.000848237 2.21709e-05 -2.43521e-07
2.21709e-05 3.2348e-05 -1.15054e-07
-2.43521e-07 -1.15054e-07 -1.8946e-05
0.000802311 3.23447e-05 -1.1482e-06
3.23447e-05 6.7457e-06 1.69525e-06
-1.1482e-06 1.69525e-06 -2.72228e-05
0.000854486 2.54931e-06 5.50787e-07
2.54931e-06 3.33408e-05 -9.78678e-07
5.50787e-07 -9.78678e-07 -1.48554e-05
0.000810833 2.72776e-05 -2.50451e-08
2.72776e-05 5.54611e-06 -6.99738e-09
-2.50451e-08 -6.99738e-09 -2.60573e-05
0.000732247 2.93341e-05 -1.41896e-06
2.93341e-05 -3.69752e-05 3.2983e-06
-1.41896e-06 3.2983e-06 -4.24327e-05
0.000821555 1.90023e-05 9.7263e-07
1.90023e-05 5.91958e-06 -1.63153e-06
9.7263e-07 -1.63153e-06 -2.39439e-05
0.000752206 2.52418e-05 1.34367e-07
2.52418e-05 -3.28983e-05 1.36193e-08
1.34367e-07 1.36193e-08 -3.67193e-05
0.00204209 3.83836e-05 -4.81415e-06
3.83836e-05 0.00066661 1.53607e-06
-4.81415e-06 1.53607e-06 0.000685904
0.000763251 2.06019e-05 9.62665e-07
2.06019e-05 -3.26977e-05 -3.1692e-06
9.62665e-07 -3.1692e-06 -3.5262e-05
0.00151038 2.50488e-05 6.70744e-06
2.50488e-05 0.000372945 -1.08045e-06
6.70744e-06 -1.08045e-06 0.000390836
0.00210492 2.18867e-05 1.15776e-05
2.18867e-05 0.000690785 -3.85283e-06
1.15776e-05 -3.85283e-06 0.000712228
0.000736618 -2.17732e-05 5.75326e-08
-2.17732e-05 -3.17341e-05 -8.19888e-07
5.75326e-08 -8.19888e-07 -8.46332e-05
0.000577391 -1.69043e-05 -2.36324e-07
-1.69043e-05 -0.0001238 -1.87436e-06
-2.36324e-07 -1.87436e-06 -0.000155794
0.000828376 -3.46455e-06 -2.49189e-07
-3.46455e-06 2.24606e-05 -5.51548e-07
-2.49189e-07 -5.51548e-07 -3.0273e-05
0.000779388 -1.64354e-05 -4.99257e-07
-1.64354e-05 -2.70533e-05 -3.09565e-06
-4.99257e-07 -3.09565e-06 -2.8398e-05
0.000591666 -1.34662e-05 3.80964e-08
-1.34662e-05 -0.000119057 -5.6966e-07
3.80964e-08 -5.6966e-07 -0.000148337
0.000948606 -1.23645e-06 -1.90962e-07
-1.23645e-06 8.67216e-05 5.18262e-07
-1.90962e-07 5.18262e-07 3.79386e-05
0.00204446 -1.48944e-05 -8.16147e-06
-1.48944e-05 0.000655397 -3.99797e-06
-8.16147e-06 -3.99797e-06 0.000678065
0.000774184 -1.09514e-05 -1.03109e-07
-1.09514e-05 -3.37187e-05 -1.74107e-08
-1.03109e-07 -1.74107e-08 -3.31882e-05
0.000593585 -9.46514e-06 1.69253e-07
-9.46514e-06 -0.00012062 1.45373e-06
1.69253e-07 1.45373e-06 -0.000147843
0.00201564 -7.30402e-06 -2.17051e-06
-7.30402e-06 0.000637301 1.66158e-08
-2.17051e-06 1.66158e-08 0.000660796
0.000774152 -5.50752e-06 1.75604e-07
-5.50752e-06 -3.62121e-05 3.09819e-06
1.75604e-07 3.09819e-06 -3.46007e-05
0.00201597 2.62376e-07 -6.36122e-07
2.62376e-07 0.000636619 4.05508e-06
-6.36122e-07 4.05508e-06 0.000660277
0.00109345 9.48875e-06 2.27592e-06
9.48875e-06 8.0218e-05 2.10001e-06
2.27592e-06 2.10001e-06 1.5223e-05
0.00117172 1.27752e-05 -8.86585e-07
1.27752e-05 -0.000155267 4.85854e-07
-8.86585e-07 4.85854e-07 -0.000294047
0.00102651 0.000116024 4.31347e-05
0.000116024 0.000843212 -1.0656e-05
4.31347e-05 -1.0656e-05 0.000794887
0.000908676 1.66458e-05 1.44205e-07
1.66458e-05 7.08304e-05 5.54692e-08
1.44205e-07 5.54692e-08 4.03972e-06
0.000831195 -6.8043e-06 2.29341e-08
-6.8043e-06 2.51666e-05 2.5973e-08
2.29341e-08 2.5973e-08 -4.1528e-05
0.000966273 2.8661e-05 -4.34511e-07
2.8661e-05 0.000106247 7.53914e-07
-4.34511e-07 7.53914e-07 3.29769e-05
0.00190738 1.85458e-05 3.83609e-06
1.85458e-05 0.000266648 2.56371e-05
3.83609e-06 2.56371e-05 0.000193637
0.00148392 2.78669e-05 -4.39476e-06
2.78669e-05 -4.93608e-05 3.52993e-06
-4.39476e-06 3.52993e-06 -0.000115321
0.001535 4.20413e-05 2.58858e-05
4.20413e-05 -0.000164541 -2.5341e-05
2.58858e-05 -2.5341e-05 -0.000334504
0.00411952 -7.36013e-05 -4.12245e-05
-7.36013e-05 0.000714002 1.00267e-05
-4.12245e-05 1.00267e-05 0.000380321
0.000965178 0.000272129 -1.8216e-05
0.000272129 -0.000200637 1.16745e-05
-1.8216e-05 1.16745e-05 -0.00155525
0.00503024 0.00056666 6.00294e-05
0.00056666 0.00112947 -2.27976e-05
6.00294e-05 -2.27976e-05 0.00123475
0.00170176 0.000146039 9.94077e-06
0.000146039 -0.00137703 -2.11258e-05
9.94077e-06 -2.11258e-05 -0.000650325
0.00309201 -0.000228542 -1.09159e-05
-0.000228542 0.000296663 5.06388e-06
-1.09159e-05 5.06388e-06 7.03614e-06
0.00557171 0.000157481 3.0107e-05
0.000157481 0.00168038 -2.57299e-05
3.0107e-05 -2.57299e-05 0.000228226
0.000808076 8.24025e-05 -1.00497e-05
8.24025e-05 -0.000552027 5.18923e-06
-1.00497e-05 5.18923e-06 -0.000639888
0.00277737 3.34488e-05 -1.86787e-06
3.34488e-05 -0.000644425 9.33487e-07
-1.86787e-06 9.33487e-07 0.000165309
0.00477133 -0.000479465 6.83232e-06
-0.000479465 0.00102054 -5.95193e-05
6.83232e-06 -5.95193e-05 0.000690748
0.0074466 0.000131774 4.70751e-05
0.000131774 0.00284025 -1.37629e-05
4.70751e-05 -1.37629e-05 0.00114465
-0.00112859 6.54301e-05 1.76596e-05
6.54301e-05 -0.000755961 3.66843e-05
1.76596e-05 3.66843e-05 -0.00103136
0.000577524 -0.000125216 8.50051e-06
-0.000125216 -0.0018668 7.8503e-06
8.50051e-06 7.8503e-06 -0.00113805
0.000947714 -2.11793e-06 -4.10419e-09
-2.11793e-06 8.92915e-05 8.69808e-07
-4.10419e-09 8.69808e-07 1.12272e-05
0.000899929 -1.27985e-05 5.38918e-08
-1.27985e-05 7.35165e-05 -1.3034e-07
5.38918e-08 -1.3034e-07 -7.95857e-06
0.000901747 -4.0519e-05 -2.7569e-07
-4.0519e-05 7.9506e-05 -3.88991e-07
-2.7569e-07 -3.88991e-07 5.44337e-07
0.000900859 7.5403e-06 -2.59197e-07
7.5403e-06 6.82469e-05 -3.68583e-07
-2.59197e-07 -3.68583e-07 -4.70137e-06
0.00101368 7.43553e-05 1.16965e-06
7.43553e-05 0.000137728 5.06279e-08
1.16965e-06 5.06279e-08 6.32982e-05
0.00105631 5.79401e-05 -7.93131e-08
5.79401e-05 0.000158182 1.55326e-07
-7.93131e-08 1.55326e-07 8.91765e-05
0.00258606 -0.000317526 8.90332e-06
-0.000317526 0.000638199 -2.50076e-06
8.90332e-06 -2.50076e-06 0.000602199
-0.000352948 -3.73864e-05 7.71688e-06
-3.73864e-05 -0.000516238 -4.4371e-06
7.71688e-06 -4.4371e-06 -0.000643173
0.00106329 3.81699e-05 -1.72453e-08
3.81699e-05 0.000157235 -7.28914e-07
-1.72453e-08 -7.28914e-07 7.50372e-05
0.00130606 -6.93525e-05 2.57854e-06
-6.93525e-05 0.000260313 -5.86194e-06
2.57854e-06 -5.86194e-06 0.000163809
0.0010904 2.55985e-06 -3.48307e-07
2.55985e-06 0.00016754 -1.83044e-06
-3.48307e-07 -1.83044e-06 8.1197e-05
0.000957099 -1.01985e-05 3.20919e-07
-1.01985e-05 8.48522e-05 -2.65051e-07
3.20919e-07 -2.65051e-07 1.03317e-05
0.000945571 4.20462e-05 1.71837e-07
4.20462e-05 8.62239e-05 -2.58903e-08
1.71837e-07 -2.58903e-08 7.90117e-06
0.000857866 -0.000291289 -1.17221e-05
-0.000291289 -2.29454e-05 4.78138e-07
-1.17221e-05 4.78138e-07 -7.4605e-06
0.000874751 -1.8794e-05 9.04099e-07
-1.8794e-05 3.39208e-05 -1.4056e-06
9.04099e-07 -1.4056e-06 -3.90512e-05
0.000922888 9.48623e-06 3.056e-07
9.48623e-06 0.000316916 -1.76452e-06
3.056e-07 -1.76452e-06 0.00018379
0.000961407 4.7467e-06 1.36527e-06
4.7467e-06 9.24265e-05 6.20414e-07
1.36527e-06 6.20414e-07 2.3252e-05
-0.00201608 -0.000106583 9.67897e-06
-0.000106583 -0.000987747 -1.45013e-05
9.67897e-06 -1.45013e-05 -0.00124275
0.00112181 6.79386e-07 3.08795e-06
6.79386e-07 0.000363495 1.96231e-05
3.08795e-06 1.96231e-05 0.000332754
0.000976084 -1.66318e-05 6.63437e-07
-1.66318e-05 0.000101026 3.1271e-06
6.63437e-07 3.1271e-06 3.03202e-05
0.00122504 1.52988e-06 -6.14956e-07
1.52988e-06 0.000401277 3.8209e-07
-6.14956e-07 3.8209e-07 0.000330486
0.000909846 1.94123e-06 2.59822e-07
1.94123e-06 7.81958e-05 3.16742e-07
2.59822e-07 3.16742e-07 1.39683e-05
0.00114428 -1.11257e-05 4.55775e-05
-1.11257e-05 -0.000126238 6.31839e-07
4.55775e-05 6.31839e-07 -0.000264276
0.000603506 7.47092e-05 7.68845e-06
7.47092e-05 5.94745e-05 9.0441e-06
7.68845e-06 9.0441e-06 6.64285e-06
0.00145389 0.00019301 7.6846e-06
0.00019301 0.00055329 -1.41912e-05
7.6846e-06 -1.41912e-05 0.000449483
0.00105723 1.2001e-07 -2.80867e-06
1.2001e-07 8.36961e-05 -2.68329e-06
-2.80867e-06 -2.68329e-06 3.55588e-05
0.0024099 0.000119402 -3.3357e-05
0.000119402 0.00017449 -3.57257e-06
-3.3357e-05 -3.57257e-06 -0.00105555
-0.00418297 2.22401e-05 -2.13779e-05
2.22401e-05 -0.00277596 4.82741e-05
-2.13779e-05 4.82741e-05 -0.00304228
0.000885855 1.87198e-06 -9.59141e-09
1.87198e-06 -0.000219635 1.13564e-05
-9.59141e-09 1.13564e-05 -0.000272109
0.00180923 0.000130326 -8.51494e-06
0.000130326 -0.0012331 2.14347e-05
-8.51494e-06 2.14347e-05 -0.000557108
0.000279891 3.60214e-05 -2.83761e-06
3.60214e-05 6.68752e-05 -3.50428e-06
-2.83761e-06 -3.50428e-06 4.36775e-07
0.000909009 2.20543e-06 -1.23181e-06
2.20543e-06 0.000122391 1.33041e-06
-1.23181e-06 1.33041e-06 6.13144e-05
0.00149931 1.76026e-05 5.10028e-06
1.76026e-05 -2.97861e-05 -3.26868e-06
5.10028e-06 -3.26868e-06 -0.000104742
0.00200731 0.000302776 5.46141e-05
0.000302776 0.000183338 1.3656e-06
5.46141e-05 1.3656e-06 0.000124772
0.0019352 0.000315667 3.04369e-06
0.000315667 -0.000842967 -8.21194e-06
3.04369e-06 -8.21194e-06 -8.18575e-05
0.000749948 9.2848e-05 1.0477e-05
9.2848e-05 -0.0006503 -6.63045e-06
1.0477e-05 -6.63045e-06 -0.000651482
0.00723603 0.000179914 1.57805e-05
0.000179914 0.00280744 -1.84169e-05
1.57805e-05 -1.84169e-05 0.00117485
-0.000464649 9.88639e-06 -2.84065e-05
9.88639e-06 -7.58042e-05 -1.42648e-05
-2.84065e-05 -1.42648e-05 -0.000228941
0.00113966 7.20961e-06 -1.18959e-06
7.20961e-06 0.000111497 -8.87122e-07
-1.18959e-06 -8.87122e-07 4.50515e-05
0.00180545 4.51016e-05 5.57657e-05
4.51016e-05 -4.46381e-05 -2.98996e-05
5.57657e-05 -2.98996e-05 -0.000166093
0.00191847 0.000528203 1.94193e-05
0.000528203 0.000338152 -5.00135e-06
1.94193e-05 -5.00135e-06 0.00127153
-0.00483373 0.000257642 7.05038e-05
0.000257642 -0.00352206 -1.25138e-05
7.05038e-05 -1.25138e-05 -0.00327066
0.00777392 0.00021104 2.15864e-05
0.00021104 0.00279261 -4.72977e-05
2.15864e-05 -4.72977e-05 0.00103105
0.00324224 -9.46408e-05 -3.04524e-06
-9.46408e-05 0.000569774 0.000102762
-3.04524e-06 0.000102762 0.000560113
0.00147173 6.26735e-06 -7.58756e-06
6.26735e-06 0.000425064 9.15268e-06
-7.58756e-06 9.15268e-06 0.000378048
0.000130616 -3.8504e-05 3.01712e-06
-3.8504e-05 -0.000107028 1.64636e-06
3.01712e-06 1.64636e-06 -0.000217126
0.000454467 -6.6256e-05 4.09973e-06
-6.6256e-05 0.000107378 -5.596e-06
4.09973e-06 -5.596e-06 -5.68885e-05
0.000903922 -2.45149e-05 -3.32697e-07
-2.45149e-05 5.08933e-05 -3.22544e-07
-3.32697e-07 -3.22544e-07 -1.2443e-05
0.000571329 -1.95776e-05 -6.24629e-07
-1.95776e-05 -0.000112359 3.27286e-06
-6.24629e-07 3.27286e-06 -0.000151806
0.000738251 -1.33341e-05 2.28853e-07
-1.33341e-05 5.93529e-05 1.9473e-07
2.28853e-07 1.9473e-07 -3.03732e-05
0.000871701 -9.77742e-05 6.63438e-06
-9.77742e-05 0.000218826 -2.02895e-06
6.63438e-06 -2.02895e-06 2.86587e-05
0.00127326 -3.53727e-05 -1.16097e-06
-3.53727e-05 0.00027266 6.6585e-09
-1.16097e-06 6.6585e-09 0.000194515
0.00113807 -9.04533e-05 7.13879e-07
-9.04533e-05 0.000260826 4.28022e-07
7.13879e-07 4.28022e-07 0.000127811
0.00100074 -0.000116415 2.70427e-06
-0.000116415 0.000192439 3.71464e-06
2.70427e-06 3.71464e-06 -1.09512e-05
0.000477375 -5.03349e-05 -1.08089e-06
-5.03349e-05 -0.000107615 -1.74631e-06
-1.08089e-06 -1.74631e-06 -0.000212484
0.00107299 -0.000115157 -4.86642e-07
-0.000115157 0.000187019 1.32176e-07
-4.86642e-07 1.32176e-07 3.19211e-05
0.00168208 -0.000160614 -1.02037e-06
-0.000160614 0.000441617 2.37829e-06
-1.02037e-06 2.37829e-06 0.000262486
0.00159384 -0.000155338 -4.18195e-06
-0.000155338 0.000347442 2.70722e-06
-4.18195e-06 2.70722e-06 0.000191758
0.000786481 -9.95271e-05 -1.54613e-06
-9.95271e-05 -2.08483e-06 2.68707e-06
-1.54613e-06 2.68707e-06 -0.000124414
0.00104319 -0.000115484 -1.32975e-06
-0.000115484 0.000114072 8.90342e-07
-1.32975e-06 8.90342e-07 -2.75867e-05
0.000955453 -0.000103899 -1.18665e-06
-0.000103899 0.000103703 -1.31699e-06
-1.18665e-06 -1.31699e-06 -3.02883e-05
0.00118053 -0.000112054 6.59678e-07
-0.000112054 0.000225592 -8.43052e-07
6.59678e-07 -8.43052e-07 0.000116162
0.00109002 -0.000108552 1.88882e-06
-0.000108552 0.000182289 -9.48758e-07
1.88882e-06 -9.48758e-07 6.78288e-05
0.000729855 -3.58516e-05 -1.10749e-08
-3.58516e-05 -4.82133e-06 1.47644e-06
-1.10749e-08 1.47644e-06 -9.71311e-05
0.000880401 -7.93476e-05 4.99224e-07
-7.93476e-05 8.64081e-05 -1.62014e-07
4.99224e-07 -1.62014e-07 -1.96164e-05
0.000958979 -0.000100087 3.62287e-06
-0.000100087 0.000116704 -2.78962e-06
3.62287e-06 -2.78962e-06 -5.98542e-07
0.000863168 3.40956e-05 -8.72669e-08
3.40956e-05 4.79562e-05 1.42209e-06
-8.72669e-08 1.42209e-06 -1.75584e-05
0.000936786 -2.25077e-05 -1.80498e-07
-2.25077e-05 9.433e-05 -6.55168e-09
-1.80498e-07 -6.55168e-09 1.38209e-05
0.0010869 -7.05842e-05 7.79252e-08
-7.05842e-05 0.000182465 -6.3483e-07
7.79252e-08 -6.3483e-07 8.40346e-05
0.000789527 3.7936e-05 -9.96033e-07
3.7936e-05 5.79983e-06 1.8225e-06
-9.96033e-07 1.8225e-06 -3.20226e-05
0.000848934 2.51426e-05 -1.34786e-07
2.51426e-05 3.59773e-05 -1.41275e-07
-1.34786e-07 -1.41275e-07 -2.09044e-05
0.00072924 -2.26592e-06 3.24169e-07
-2.26592e-06 -1.89789e-05 -1.11586e-06
3.24169e-07 -1.11586e-06 -9.28064e-05
0.000856223 1.3736e-05 4.50972e-07
1.3736e-05 3.63374e-05 -1.22399e-06
4.50972e-07 -1.22399e-06 -1.4834e-05
0.000802451 3.47684e-05 -5.14335e-09
3.47684e-05 6.9749e-06 -3.03167e-08
-5.14335e-09 -3.03167e-08 -2.72336e-05
0.000717547 3.36671e-05 -1.73175e-06
3.36671e-05 -3.7135e-05 3.33948e-06
-1.73175e-06 3.33948e-06 -4.48279e-05
0.00081422 2.83457e-05 9.07556e-07
2.83457e-05 7.09097e-06 -1.74216e-06
9.07556e-07 -1.74216e-06 -2.45437e-05
0.000747 2.98468e-05 9.21914e-08
2.98468e-05 -2.92899e-05 -3.42285e-09
9.21914e-08 -3.42285e-09 -3.4798e-05
0.00209818 4.15209e-05 -1.94664e-05
4.15209e-05 0.000702387 3.53263e-06
-1.94664e-05 3.53263e-06 0.000720615
0.000764015 2.55784e-05 1.23826e-06
2.55784e-05 -2.70068e-05 -3.21494e-06
1.23826e-06 -3.21494e-06 -3.08092e-05
0.00150474 3.1224e-05 7.91026e-06
3.1224e-05 0.000376132 -1.00162e-06
7.91026e-06 -1.00162e-06 0.000392739
0.00209653 2.8812e-05 1.47401e-05
2.8812e-05 0.000690816 -3.73596e-06
1.47401e-05 -3.73596e-06 0.000711402
0.000856115 1.27212e-05 -5.10991e-07
1.27212e-05 3.26558e-05 -4.79792e-07
-5.10991e-07 -4.79792e-07 -2.13528e-05
0.000795759 -1.93134e-05 -6.51876e-07
-1.93134e-05 -5.64381e-06 -1.38889e-06
-6.51876e-07 -1.38889e-06 -3.84539e-05
0.000780384 1.05439e-05 -6.82269e-07
1.05439e-05 -4.42496e-06 -4.83811e-07
-6.82269e-07 -4.83811e-07 -5.88924e-05
0.000772089 -2.16153e-05 -5.1606e-07
-2.16153e-05 -2.58743e-05 -3.17362e-06
-5.1606e-07 -3.17362e-06 -2.94549e-05
0.000695633 -1.71814e-05 -9.57821e-08
-1.71814e-05 -6.08943e-05 -6.04847e-07
-9.57821e-08 -6.04847e-07 -9.22658e-05
0.000952207 -4.8017e-06 -1.90964e-08
-4.8017e-06 8.78617e-05 -8.58593e-08
-1.90964e-08 -8.58593e-08 3.58704e-05
0.00208614 -2.21124e-05 -1.15518e-05
-2.21124e-05 0.000681451 -3.95562e-06
-1.15518e-05 -3.95562e-06 0.000702943
0.00076735 -1.61612e-05 -1.4328e-07
-1.61612e-05 -3.35242e-05 -1.64309e-08
-1.4328e-07 -1.64309e-08 -3.47648e-05
0.000581001 -1.34567e-05 7.62168e-08
-1.34567e-05 -0.00012458 7.51824e-07
7.62168e-08 7.51824e-07 -0.00015416
0.00203572 -1.44599e-05 -1.96857e-06
-1.44599e-05 0.000650305 3.18299e-08
-1.96857e-06 3.18299e-08 0.000673128
0.000765524 -1.07245e-05 3.81542e-07
-1.07245e-05 -3.84213e-05 3.08302e-06
3.81542e-07 3.08302e-06 -3.78123e-05
0.00201257 -6.8924e-06 3.14327e-06
-6.8924e-06 0.000635437 4.02077e-06
3.14327e-06 4.02077e-06 0.000658991
0.0011252 3.64752e-06 1.93926e-06
3.64752e-06 0.000242276 -6.34462e-06
1.93926e-06 -6.34462e-06 0.000178337
0.00107832 8.53077e-06 -8.06782e-07
8.53077e-06 7.10471e-05 4.89623e-07
-8.06782e-07 4.89623e-07 9.19135e-06
0.00131037 7.87285e-06 3.13652e-05
7.87285e-06 -6.99295e-05 -6.01595e-07
3.13652e-05 -6.01595e-07 -0.00020205
0.000821115 -3.80557e-05 3.89443e-08
-3.80557e-05 1.64372e-05 -3.51094e-07
3.89443e-08 -3.51094e-07 -4.88703e-05
0.000964409 -1.51126e-05 -1.93278e-07
-1.51126e-05 9.89515e-05 -4.6777e-07
-1.93278e-07 -4.6777e-07 2.77777e-05
0.00093566 1.78785e-05 1.14894e-06
1.78785e-05 8.39038e-05 -1.29171e-07
1.14894e-06 -1.29171e-07 1.87466e-05
0.000837583 -2.12711e-05 2.36659e-08
-2.12711e-05 2.58932e-05 2.09941e-08
2.36659e-08 2.09941e-08 -3.91621e-05
0.000908031 7.84e-06 6.04531e-09
7.84e-06 7.21921e-05 3.0395e-07
6.04531e-09 3.0395e-07 -1.12187e-07
0.000945969 5.99041e-07 -7.60199e-07
5.99041e-07 9.03839e-05 2.25314e-07
-7.60199e-07 2.25314e-07 1.91832e-05
0.000912001 9.0324e-05 2.85478e-07
9.0324e-05 8.25335e-05 9.11376e-07
2.85478e-07 9.11376e-07 2.33264e-06
0.00130899 1.23152e-07 1.03245e-05
1.23152e-07 -0.000114866 3.26193e-05
1.03245e-05 3.26193e-05 -0.000196425
0.00137188 1.44327e-05 3.10582e-07
1.44327e-05 8.57116e-06 8.40747e-06
3.10582e-07 8.40747e-06 -5.44495e-05
0.00128292 2.52297e-05 1.82159e-06
2.52297e-05 -0.000186843 -1.41145e-05
1.82159e-06 -1.41145e-05 -0.000251359
0.00121871 2.06745e-05 1.06871e-06
2.06745e-05 -0.00167911 -1.66329e-05
1.06871e-06 -1.66329e-05 -0.000843245
0.00169116 -0.000235836 -3.70973e-05
-0.000235836 -0.00054706 6.17472e-05
-3.70973e-05 6.17472e-05 -0.000982971
0.00166563 0.000108605 4.17182e-05
0.000108605 -2.74687e-05 -1.75258e-05
4.17182e-05 -1.75258e-05 -0.0014359
0.00477154 0.000398228 3.13997e-05
0.000398228 0.0015835 -2.46643e-05
3.13997e-05 -2.46643e-05 0.00112388
0.00260505 -0.000376292 -2.33933e-05
-0.000376292 -3.59609e-05 7.89137e-06
-2.33933e-05 7.89137e-06 -0.000539085
0.00221701 -0.000117963 4.06342e-05
-0.000117963 8.82543e-05 -3.6859e-05
4.06342e-05 -3.6859e-05 -0.00137697
0.00357401 1.47077e-05 -1.85897e-05
1.47077e-05 0.000883526 1.51828e-06
-1.85897e-05 1.51828e-06 0.000575489
0.003837 -0.000171377 -5.08248e-06
-0.000171377 0.000192617 -1.26891e-05
-5.08248e-06 -1.26891e-05 0.00093372
0.00309129 -0.000252892 -8.0617e-06
-0.000252892 0.000397292 -8.10368e-06
-8.0617e-06 -8.10368e-06 0.000423366
0.00271505 -0.000339082 2.41188e-05
-0.000339082 -0.000295512 -7.83468e-05
2.41188e-05 -7.83468e-05 -0.00128979
-0.00196324 -0.00018084 4.28291e-05
-0.00018084 -0.00240898 2.58069e-05
4.28291e-05 2.58069e-05 -0.00270458
0.000682816 -0.00023293 2.96708e-05
-0.00023293 -0.00145745 2.36364e-07
2.96708e-05 2.36364e-07 -0.000698227
0.00103764 -4.59014e-05 -7.66146e-08
-4.59014e-05 0.00013018 1.52566e-06
-7.66146e-08 1.52566e-06 5.94899e-05
0.00085088 -1.07176e-06 9.90848e-08
-1.07176e-06 3.78683e-05 -4.82737e-08
9.90848e-08 -4.82737e-08 -3.99517e-05
0.000847251 -2.76987e-06 -4.90583e-07
-2.76987e-06 4.76972e-05 -1.20665e-06
-4.90583e-07 -1.20665e-06 -3.49379e-05
0.000901326 2.12172e-05 -5.3963e-08
2.12172e-05 6.96639e-05 -1.24713e-06
-5.3963e-08 -1.24713e-06 -4.04451e-06
0.00388934 -0.000349961 6.17777e-06
-0.000349961 0.00149766 4.88522e-06
6.17777e-06 4.88522e-06 0.00147936
0.000837582 -8.35196e-07 5.97956e-06
-8.35196e-07 0.000297063 -8.40538e-06
5.97956e-06 -8.40538e-06 0.000183206
0.00081527 -2.63846e-05 1.12285e-08
-2.63846e-05 4.64618e-06 -1.52399e-06
1.12285e-08 -1.52399e-06 -6.88717e-05
0.000915471 4.06465e-05 2.85223e-07
4.06465e-05 7.65645e-05 -1.69521e-06
2.85223e-07 -1.69521e-06 -3.88463e-06
0.001299 2.14943e-07 1.58351e-06
2.14943e-07 0.00026594 -6.77374e-06
1.58351e-06 -6.77374e-06 0.00019175
0.000912866 -1.66109e-06 -8.22702e-10
-1.66109e-06 6.45484e-05 1.02498e-07
-8.22702e-10 1.02498e-07 -4.62599e-06
0.000894283 -1.0913e-05 -1.29158e-06
-1.0913e-05 6.21313e-05 -2.90935e-07
-1.29158e-06 -2.90935e-07 -1.15814e-05
0.000198948 -0.000126224 -7.27897e-06
-0.000126224 0.000116935 -5.53984e-06
-7.27897e-06 -5.53984e-06 -0.000121507
0.00102932 -1.26844e-05 1.64862e-07
-1.26844e-05 0.000332744 4.87603e-06
1.64862e-07 4.87603e-06 0.000308817
0.000882818 -1.52656e-05 1.36835e-06
-1.52656e-05 6.27424e-05 -7.90614e-07
1.36835e-06 -7.90614e-07 -5.5798e-06
0.000491589 3.2315e-05 -9.83311e-06
3.2315e-05 0.000707348 -2.87322e-05
-9.83311e-06 -2.87322e-05 4.44587e-05
0.00146544 -4.06881e-05 -5.60187e-07
-4.06881e-05 0.000547002 1.41866e-05
-5.60187e-07 1.41866e-05 0.000474887
0.00129162 6.11982e-07 -5.82747e-06
6.11982e-07 0.000284817 -7.28555e-07
-5.82747e-06 -7.28555e-07 0.000218994
0.000780156 1.69961e-06 1.14979e-08
1.69961e-06 0.000127455 1.18706e-07
1.14979e-08 1.18706e-07 4.9369e-05
0.000544669 2.58611e-06 -3.71749e-06
2.58611e-06 -0.000115907 1.06924e-06
-3.71749e-06 1.06924e-06 -0.00018289
0.00127496 4.70077e-05 7.94493e-07
4.70077e-05 0.000540483 6.04371e-06
7.94493e-07 6.04371e-06 0.0004919
0.00181578 0.00019436 -6.81444e-05
0.00019436 0.000416737 1.19879e-05
-6.81444e-05 1.19879e-05 0.000469055
0.000560092 1.50536e-06 -2.08024e-06
1.50536e-06 -7.71008e-05 -4.33701e-06
-2.08024e-06 -4.33701e-06 -0.000142527
0.00309233 0.000184815 6.31795e-05
0.000184815 0.000658429 -8.37658e-05
6.31795e-05 -8.37658e-05 -0.00082416
0.00476933 0.000433229 -3.27929e-05
0.000433229 0.0015392 2.90051e-05
-3.27929e-05 2.90051e-05 0.00116167
0.00127163 1.41072e-05 -2.42011e-06
1.41072e-05 -0.000185548 1.37953e-05
-2.42011e-06 1.37953e-05 -0.000258609
0.00297204 0.000324594 -3.56943e-05
0.000324594 -0.000117842 2.38071e-05
-3.56943e-05 2.38071e-05 0.000565255
-0.000397497 -2.54983e-05 2.64866e-05
-2.54983e-05 -3.94115e-05 -3.35218e-06
2.64866e-05 -3.35218e-06 -0.000203735
0.00108401 6.39745e-06 1.31352e-06
6.39745e-06 7.54358e-05 -6.91802e-07
1.31352e-06 -6.91802e-07 1.26635e-05
0.00164921 3.71246e-05 1.43333e-05
3.71246e-05 -0.000128117 -5.31986e-06
1.43333e-05 -5.31986e-06 -0.00028456
0.00190285 -2.29955e-05 -1.32718e-05
-2.29955e-05 2.64834e-05 2.30697e-05
-1.32718e-05 2.30697e-05 0.00015755
-7.46155e-05 0.000555746 -2.0256e-06
0.000555746 -0.00101523 4.6632e-06
-2.0256e-06 4.6632e-06 0.000142633
0.00355564 0.000486025 1.74752e-06
0.000486025 0.000188179 3.1043e-06
1.74752e-06 3.1043e-06 0.000387362
0.0022658 -0.000110472 3.97704e-05
-0.000110472 0.000282514 -1.79196e-05
3.97704e-05 -1.79196e-05 -0.001579
0.000968875 -7.70868e-05 3.54578e-05
-7.70868e-05 0.000387893 -7.82542e-06
3.54578e-05 -7.82542e-06 0.000330475
0.00100426 1.01887e-05 3.02192e-05
1.01887e-05 -0.000265078 -9.06846e-06
3.02192e-05 -9.06846e-06 -0.000419117
-0.0011501 0.000247886 8.16078e-06
0.000247886 -0.000656937 -1.34737e-05
8.16078e-06 -1.34737e-05 -0.000524731
0.000185035 0.000490148 3.82007e-05
0.000490148 -0.000152899 2.33447e-06
3.82007e-05 2.33447e-06 0.000194809
0.00898531 0.000509156 2.59281e-05
0.000509156 0.00322381 -4.86594e-05
2.59281e-05 -4.86594e-05 0.00169019
0.00290898 -0.00030099 -5.87725e-05
-0.00030099 0.000274497 8.59904e-05
-5.87725e-05 8.59904e-05 -0.000127171
0.000203193 -4.29824e-05 -7.32036e-06
-4.29824e-05 -7.57636e-05 9.36284e-06
-7.32036e-06 9.36284e-06 -0.000197335
0.000401074 -3.3775e-05 -5.54767e-07
-3.3775e-05 9.1914e-05 -4.80813e-07
-5.54767e-07 -4.80813e-07 -7.52693e-05
0.00146315 -0.000156635 1.35232e-05
-0.000156635 0.000482297 -4.42573e-06
1.35232e-05 -4.42573e-06 0.000347237
0.000653545 1.63765e-05 -2.85001e-06
1.63765e-05 1.89677e-05 -9.20378e-07
-2.85001e-06 -9.20378e-07 -6.18138e-05
0.000332902 -5.42604e-05 9.53511e-07
-5.42604e-05 -3.52786e-05 -1.10293e-06
9.53511e-07 -1.10293e-06 -0.000229718
0.00110642 -0.000130959 6.1462e-06
-0.000130959 0.000213857 5.10329e-06
6.1462e-06 5.10329e-06 1.06802e-05
0.00167572 -0.000139292 -2.00895e-06
-0.000139292 0.000520834 -7.18515e-07
-2.00895e-06 -7.18515e-07 0.000382249
0.00125505 -0.000128306 3.1801e-07
-0.000128306 0.000307944 1.27815e-06
3.1801e-07 1.27815e-06 0.000105272
0.00123823 -0.000155139 -1.12163e-06
-0.000155139 0.000175636 1.22778e-07
-1.12163e-06 1.22778e-07 -2.02498e-05
0.00113448 -0.000116376 -1.45714e-06
-0.000116376 0.000218918 -2.07091e-06
-1.45714e-06 -2.07091e-06 5.90202e-05
0.00160237 -0.00015648 4.14409e-07
-0.00015648 0.000392236 2.75431e-07
4.14409e-07 2.75431e-07 0.000214865
0.00129021 -0.000151545 -8.29093e-07
-0.000151545 0.000156209 -1.02138e-06
-8.29093e-07 -1.02138e-06 -1.95927e-05
0.00149834 -0.000152927 -2.71556e-06
-0.000152927 0.000222438 -1.39722e-06
-2.71556e-06 -1.39722e-06 7.25384e-05
0.00172838 -0.000154896 -4.79513e-06
-0.000154896 0.000429164 4.12492e-06
-4.79513e-06 4.12492e-06 0.000287992
0.00142634 -0.000148545 -8.75996e-07
-0.000148545 0.000257055 4.6694e-07
-8.75996e-07 4.6694e-07 9.83534e-05
0.000623908 -8.87152e-05 1.17668e-07
-8.87152e-05 -9.10224e-05 -1.9765e-07
1.17668e-07 -1.9765e-07 -0.000201257
0.00087132 -0.00010315 1.66666e-06
-0.00010315 4.18798e-05 -4.44567e-07
1.66666e-06 -4.44567e-07 -7.94901e-05
0.000961389 -0.000112635 1.30072e-06
-0.000112635 6.99415e-05 -2.20367e-06
1.30072e-06 -2.20367e-06 -7.28672e-05
0.00102907 -9.9089e-05 -1.08071e-07
-9.9089e-05 0.000142742 6.43414e-07
-1.08071e-07 6.43414e-07 3.85572e-05
0.00113027 -0.000108872 -1.80215e-07
-0.000108872 0.000200561 -4.58388e-07
-1.80215e-07 -4.58388e-07 9.07813e-05
0.000793212 -9.24385e-05 3.44524e-06
-9.24385e-05 2.87536e-05 -4.2297e-07
3.44524e-06 -4.2297e-07 -8.19577e-05
0.000833631 1.29013e-05 3.81156e-07
1.29013e-05 3.87279e-05 1.44385e-06
3.81156e-07 1.44385e-06 -3.91968e-05
0.000837416 -4.08447e-05 4.43929e-08
-4.08447e-05 5.20779e-05 5.30214e-07
4.43929e-08 5.30214e-07 -3.97315e-05
0.00111001 -8.67922e-05 1.21892e-06
-8.67922e-05 0.000205704 -1.4849e-06
1.21892e-06 -1.4849e-06 0.000100305
0.000774927 4.84951e-05 -7.48022e-07
4.84951e-05 4.22289e-06 2.15119e-06
-7.48022e-07 2.15119e-06 -4.06023e-05
0.000847686 1.92523e-05 -1.55891e-07
1.92523e-05 4.09428e-05 -9.6886e-08
-1.55891e-07 -9.6886e-08 -2.55236e-05
0.000943229 -3.14859e-05 3.40874e-07
-3.14859e-05 9.89021e-05 -1.00638e-06
3.40874e-07 -1.00638e-06 1.72407e-05
0.000726595 3.7923e-05 -3.00403e-06
3.7923e-05 -2.50997e-05 4.62819e-06
-3.00403e-06 4.62819e-06 -3.53269e-05
0.000787727 4.30633e-05 1.04059e-07
4.30633e-05 5.87712e-06 -8.74692e-08
1.04059e-07 -8.74692e-08 -3.26815e-05
0.000841885 1.90787e-05 3.13342e-07
1.90787e-05 3.18791e-05 -1.33435e-06
3.13342e-07 -1.33435e-06 -2.47508e-05
0.000801636 3.73017e-05 6.72051e-07
3.73017e-05 6.68851e-06 -1.87267e-06
6.72051e-07 -1.87267e-06 -2.77529e-05
0.000739206 3.4431e-05 4.59805e-08
3.4431e-05 -2.58338e-05 -2.41293e-08
4.59805e-08 -2.41293e-08 -3.36218e-05
0.00211601 4.80245e-05 -2.21565e-05
4.80245e-05 0.000719557 3.39624e-06
-2.21565e-05 3.39624e-06 0.000736012
0.000764081 3.04197e-05 1.53349e-06
3.04197e-05 -2.0361e-05 -3.26756e-06
1.53349e-06 -3.26756e-06 -2.59287e-05
0.00210197 4.18371e-05 1.14207e-06
4.18371e-05 0.000705396 7.13737e-08
1.14207e-06 7.13737e-08 0.000723437
0.00209377 3.55233e-05 1.77636e-05
3.55233e-05 0.000695086 -3.62153e-06
1.77636e-05 -3.62153e-06 0.000714492
0.000895584 5.9107e-06 -1.26541e-07
5.9107e-06 6.08317e-05 -6.48427e-07
-1.26541e-07 -6.48427e-07 -7.51368e-06
0.000849653 2.65556e-05 -9.67315e-07
2.65556e-05 3.30848e-05 -1.01566e-06
-9.67315e-07 -1.01566e-06 -2.51356e-05
0.000791423 -2.63268e-05 -6.96729e-07
-2.63268e-05 -5.2901e-06 -1.58775e-06
-6.96729e-07 -1.58775e-06 -4.03038e-05
0.00085507 1.40746e-05 -1.32737e-07
1.40746e-05 3.15219e-05 -4.15256e-08
-1.32737e-07 -4.15256e-08 -2.22023e-05
0.00075897 -2.60088e-05 -8.74542e-07
-2.60088e-05 -2.70937e-05 -3.27066e-06
-8.74542e-07 -3.27066e-06 -3.29989e-05
0.000804081 -2.08422e-05 -1.21223e-07
-2.08422e-05 -7.29832e-07 3.12076e-09
-1.21223e-07 3.12076e-09 -3.36847e-05
0.000824564 3.48349e-06 1.2807e-07
3.48349e-06 1.41439e-05 -3.0747e-08
1.2807e-07 -3.0747e-08 -3.60732e-05
0.00213684 -2.92601e-05 -1.48736e-05
-2.92601e-05 0.000713435 -3.90923e-06
-1.48736e-05 -3.90923e-06 0.000733462
0.000757391 -2.12067e-05 -1.21686e-07
-2.12067e-05 -3.37407e-05 -1.80876e-08
-1.21686e-07 -1.80876e-08 -3.72045e-05
0.000811663 -1.77469e-05 9.15456e-08
-1.77469e-05 7.83253e-07 7.88488e-07
9.15456e-08 7.88488e-07 -2.99639e-05
0.00207599 -2.17212e-05 -1.88108e-06
-2.17212e-05 0.000675476 4.90043e-08
-1.88108e-06 4.90043e-08 0.000697165
0.000754364 -1.58927e-05 3.97797e-07
-1.58927e-05 -4.04814e-05 3.1034e-06
3.97797e-07 3.1034e-06 -4.16198e-05
0.00202903 -1.39994e-05 7.03905e-06
-1.39994e-05 0.000646304 3.98155e-06
7.03905e-06 3.98155e-06 0.000669272
0.00101605 -4.17074e-06 8.34719e-07
-4.17074e-06 7.67457e-05 -1.94015e-06
8.34719e-07 -1.94015e-06 1.32883e-05
0.000887961 2.85457e-06 1.26487e-06
2.85457e-06 0.000116778 -1.0586e-06
1.26487e-06 -1.0586e-06 4.82061e-05
0.00106295 7.53278e-06 -3.92874e-06
7.53278e-06 6.18553e-05 3.84738e-06
-3.92874e-06 3.84738e-06 2.80696e-06
0.000855235 -4.43808e-06 -2.70485e-07
-4.43808e-06 3.89138e-05 -2.06712e-08
-2.70485e-07 -2.06712e-08 -2.88252e-05
0.00091433 -2.04522e-05 -1.42675e-07
-2.04522e-05 7.19548e-05 2.63483e-07
-1.42675e-07 2.63483e-07 3.05237e-07
0.000856284 -1.83932e-05 2.00509e-07
-1.83932e-05 4.4652e-05 -1.59399e-06
2.00509e-07 -1.59399e-06 -3.20194e-05
0.000813438 -2.65472e-05 -1.03148e-07
-2.65472e-05 1.92077e-05 -6.61788e-07
-1.03148e-07 -6.61788e-07 -5.19152e-05
0.00102067 2.69043e-05 -5.34087e-07
2.69043e-05 0.000136879 -1.74093e-07
-5.34087e-07 -1.74093e-07 5.73498e-05
0.000819324 -2.95134e-05 -4.07042e-08
-2.95134e-05 1.41236e-05 1.38742e-07
-4.07042e-08 1.38742e-07 -4.97415e-05
0.00083707 -1.26386e-05 2.57188e-07
-1.26386e-05 3.13236e-05 -4.61869e-07
2.57188e-07 -4.61869e-07 -3.98618e-05
0.000907655 1.16951e-05 -1.86005e-07
1.16951e-05 7.17208e-05 -5.29018e-08
-1.86005e-07 -5.29018e-08 2.91245e-07
0.000928437 2.45863e-05 9.9958e-08
2.45863e-05 8.1898e-05 3.60713e-07
9.9958e-08 3.60713e-07 5.45819e-06
0.000992637 1.61889e-05 -1.07645e-07
1.61889e-05 0.000122086 5.3443e-07
-1.07645e-07 5.3443e-07 4.62236e-05
0.00184701 -3.74366e-05 3.77049e-05
-3.74366e-05 0.000174652 3.95343e-05
3.77049e-05 3.95343e-05 -1.44007e-05
0.00170921 -1.64476e-07 2.28295e-06
-1.64476e-07 0.000119558 1.2242e-05
2.28295e-06 1.2242e-05 4.26641e-05
0.000993873 1.14844e-05 1.21728e-06
1.14844e-05 -0.000143851 -2.63686e-06
1.21728e-06 -2.63686e-06 -0.000195152
0.00405837 -0.000155248 -1.92871e-05
-0.000155248 0.000491254 -3.11125e-05
-1.92871e-05 -3.11125e-05 0.00121963
-0.00385431 0.000126443 -1.20839e-05
0.000126443 -0.00266536 -3.72033e-05
-1.20839e-05 -3.72033e-05 -0.00298679
0.00179585 -0.000347221 -8.11895e-05
-0.000347221 -0.000408888 7.43158e-05
-8.11895e-05 7.43158e-05 -0.00101853
0.00759691 0.000129338 -3.36364e-05
0.000129338 0.00229629 -4.33004e-05
-3.36364e-05 -4.33004e-05 0.00110618
0.00274598 -0.000292635 -4.25037e-05
-0.000292635 0.000116227 4.09455e-05
-4.25037e-05 4.09455e-05 -0.000224562
0.00813927 -0.000170586 3.863e-05
-0.000170586 0.00281922 -1.48869e-06
3.863e-05 -1.48869e-06 0.00139447
0.000541775 -0.000197725 1.91303e-05
-0.000197725 -0.000891122 -1.28892e-05
1.91303e-05 -1.28892e-05 -0.00106894
0.000854804 -0.000276724 -1.13452e-05
-0.000276724 -0.00148977 -3.0321e-05
-1.13452e-05 -3.0321e-05 -0.000598502
0.00285891 -0.000118138 -7.82361e-05
-0.000118138 0.000442937 -3.83554e-05
-7.82361e-05 -3.83554e-05 4.82955e-05
0.00804506 -0.000388617 -1.95567e-05
-0.000388617 0.00229984 5.07593e-05
-1.95567e-05 5.07593e-05 0.00124805
0.00774307 -0.000667724 3.04993e-05
-0.000667724 0.0022495 1.02249e-05
3.04993e-05 1.02249e-05 0.00245723
0.00240949 -0.000455348 1.61728e-05
-0.000455348 0.0001364 6.56723e-07
1.61728e-05 6.56723e-07 0.00117089
0.000799872 1.45531e-05 9.49869e-07
1.45531e-05 3.37958e-05 1.4091e-06
9.49869e-07 1.4091e-06 -3.05106e-05
0.000986509 -3.5752e-05 -1.25227e-07
-3.5752e-05 0.000107307 3.556e-07
-1.25227e-07 3.556e-07 3.52732e-05
0.00081626 -1.58373e-06 1.68293e-07
-1.58373e-06 1.84448e-05 -9.78076e-07
1.68293e-07 -9.78076e-07 -5.89171e-05
0.00205042 -0.000134851 1.2867e-05
-0.000134851 0.00102019 2.21682e-06
1.2867e-05 2.21682e-06 0.00081147
0.000657737 -3.56159e-05 -4.08361e-06
-3.56159e-05 0.000160576 -6.49909e-06
-4.08361e-06 -6.49909e-06 0.000141308
0.000855048 -1.30718e-05 -7.54532e-07
-1.30718e-05 3.31777e-05 -2.88239e-07
-7.54532e-07 -2.88239e-07 -3.68553e-05
0.000890879 -4.791e-05 -1.37804e-06
-4.791e-05 5.83113e-05 -3.4861e-06
-1.37804e-06 -3.4861e-06 -1.41848e-05
0.000843332 -1.2197e-05 -5.31263e-07
-1.2197e-05 4.16904e-05 -4.2952e-07
-5.31263e-07 -4.2952e-07 -2.56774e-05
0.000483493 -3.48766e-05 1.46529e-06
-3.48766e-05 4.32074e-05 4.92765e-06
1.46529e-06 4.92765e-06 -3.06915e-05
-0.000167133 -1.03547e-05 2.32386e-05
-1.03547e-05 0.000277475 -2.48988e-05
2.32386e-05 -2.48988e-05 -0.000345016
-0.000226921 -1.51394e-05 -2.27365e-06
-1.51394e-05 -0.000345861 5.26059e-06
-2.27365e-06 5.26059e-06 -0.000438536
0.00117462 0.000126501 1.65325e-05
0.000126501 0.000517011 -1.60843e-05
1.65325e-05 -1.60843e-05 0.000184711
0.00132523 -1.65276e-06 2.42054e-05
-1.65276e-06 -5.3428e-05 -8.39861e-08
2.42054e-05 -8.39861e-08 -0.00019586
0.000875678 9.91783e-07 -1.06828e-09
9.91783e-07 5.86483e-05 -3.84305e-07
-1.06828e-09 -3.84305e-07 -9.0795e-06
0.000357225 1.74375e-06 3.38779e-07
1.74375e-06 -0.000131412 -1.54812e-07
3.38779e-07 -1.54812e-07 -0.000216593
-0.000829506 -4.03138e-05 -3.10926e-05
-4.03138e-05 -0.000204761 1.0908e-05
-3.10926e-05 1.0908e-05 -0.000394463
0.00135649 5.86011e-05 2.56087e-05
5.86011e-05 -0.000423892 -4.43644e-05
2.56087e-05 -4.43644e-05 -0.000577008
0.00103254 5.5804e-06 3.95936e-06
5.5804e-06 4.25936e-05 -4.8087e-06
3.95936e-06 -4.8087e-06 -1.70847e-05
0.00966272 0.000135426 6.5755e-05
0.000135426 0.00344187 6.79631e-06
6.5755e-05 6.79631e-06 0.00175163
0.00533531 0.000648191 -5.20462e-05
0.000648191 0.0013178 2.93158e-05
-5.20462e-05 2.93158e-05 0.00143745
0.00148064 3.14635e-05 -2.78349e-05
3.14635e-05 -0.000218485 2.36574e-05
-2.78349e-05 2.36574e-05 -0.000413883
-0.00209691 0.000588814 -1.12542e-05
0.000588814 -0.00239563 -2.14211e-05
-1.12542e-05 -2.14211e-05 -0.00101431
0.000289091 -4.08001e-05 -9.57249e-06
-4.08001e-05 9.30242e-05 -9.37182e-07
-9.57249e-06 -9.37182e-07 5.45856e-06
0.00115223 5.23294e-06 1.96916e-07
5.23294e-06 -0.000175227 -2.88556e-07
1.96916e-07 -2.88556e-07 -0.000326085
-0.00125298 0.00028739 -3.56787e-05
0.00028739 -0.00067506 1.30882e-05
-3.56787e-05 1.30882e-05 -0.000492662
0.00214012 -0.000267449 -1.10921e-05
-0.000267449 -3.02836e-05 2.86693e-05
-1.10921e-05 2.86693e-05 -0.000276093
0.0038882 0.000688345 8.80494e-06
0.000688345 0.00109547 8.06411e-06
8.80494e-06 8.06411e-06 0.00141252
0.00545778 9.68731e-05 3.78726e-05
9.68731e-05 0.00140014 -2.14286e-05
3.78726e-05 -2.14286e-05 -0.000222926
0.00258959 -0.000204095 2.73522e-05
-0.000204095 0.000731745 1.29351e-05
2.73522e-05 1.29351e-05 0.000838648
-0.00112081 9.3014e-05 3.21788e-05
9.3014e-05 -0.000325025 -2.49398e-06
3.21788e-05 -2.49398e-06 -0.00053611
0.00235159 0.000491886 1.15679e-05
0.000491886 0.00114582 -2.7188e-06
1.15679e-05 -2.7188e-06 0.00127167
0.0060384 0.00050098 -4.36286e-05
0.00050098 0.00178294 3.81553e-05
-4.36286e-05 3.81553e-05 0.000376022
0.00253524 -0.00043044 -1.24816e-05
-0.00043044 0.000249298 2.35094e-05
-1.24816e-05 2.35094e-05 -0.000351384
0.000454175 -2.76918e-06 -1.54113e-06
-2.76918e-06 0.000123605 6.20492e-06
-1.54113e-06 6.20492e-06 -4.10411e-05
0.000817516 -0.000129108 1.21386e-06
-0.000129108 0.000175813 -2.14004e-06
1.21386e-06 -2.14004e-06 1.89789e-05
0.0021498 -0.000178164 1.00241e-05
-0.000178164 0.000503214 1.87343e-06
1.00241e-05 1.87343e-06 0.000460219
-0.000215778 -1.00959e-05 -1.94049e-06
-1.00959e-05 -0.000296315 8.5949e-07
-1.94049e-06 8.5949e-07 -0.000493716
0.000606349 -0.000103283 3.41616e-06
-0.000103283 -2.18327e-05 -8.36307e-08
3.41616e-06 -8.36307e-08 -0.000223945
0.00110077 -0.000172283 -9.72981e-07
-0.000172283 -3.48561e-05 -1.10953e-06
-9.72981e-07 -1.10953e-06 -0.000190239
0.00145632 -0.000136964 -2.0966e-06
-0.000136964 0.000396902 -1.63708e-06
-2.0966e-06 -1.63708e-06 0.000195489
0.00118918 -0.000151674 -1.30305e-06
-0.000151674 0.000142271 -1.43844e-06
-1.30305e-06 -1.43844e-06 -4.83179e-05
0.00176172 -0.000186358 -7.94104e-07
-0.000186358 0.000281883 -2.52166e-06
-7.94104e-07 -2.52166e-06 0.000138859
0.00148612 -0.000150545 4.9589e-07
-0.000150545 0.000325305 -1.88441e-06
4.9589e-07 -1.88441e-06 0.000149456
0.00130095 -0.00014852 4.70921e-07
-0.00014852 0.000159189 -1.16583e-06
4.70921e-07 -1.16583e-06 -1.14068e-05
0.00153242 -0.00015481 -2.13624e-06
-0.00015481 0.000164538 -3.83136e-06
-2.13624e-06 -3.83136e-06 2.80441e-05
0.00146819 -0.000139919 -1.90363e-06
-0.000139919 0.000129938 -2.44484e-06
-1.90363e-06 -2.44484e-06 2.62489e-06
0.00116735 -0.000131227 -2.7227e-06
-0.000131227 8.25606e-05 1.59211e-07
-2.7227e-06 1.59211e-07 -5.96587e-05
0.00132091 -0.000143422 6.30951e-07
-0.000143422 0.000128771 -8.48977e-07
6.30951e-07 -8.48977e-07 -1.93486e-05
0.00134828 -0.000130073 -2.32789e-06
-0.000130073 0.000246576 2.74975e-06
-2.32789e-06 2.74975e-06 0.000121697
0.00134856 -0.000137283 -1.7345e-07
-0.000137283 0.000232228 6.96683e-07
-1.7345e-07 6.96683e-07 8.93358e-05
0.0012429 -0.00014093 1.62689e-06
-0.00014093 0.000158893 -1.10533e-06
1.62689e-06 -1.10533e-06 -2.84933e-06
0.000958979 -0.00010131 -4.87785e-07
-0.00010131 8.46068e-05 -6.36919e-07
-4.87785e-07 -6.36919e-07 -1.86985e-05
0.000742101 -9.38266e-05 -2.46954e-07
-9.38266e-05 -2.69568e-05 -1.24278e-06
-2.46954e-07 -1.24278e-06 -0.000136009
0.00094685 -0.000106371 4.90955e-06
-0.000106371 8.0803e-05 -3.59235e-06
4.90955e-06 -3.59235e-06 -3.95586e-05
0.000897871 -4.87284e-05 -2.44636e-07
-4.87284e-05 6.81451e-05 1.39546e-06
-2.44636e-07 1.39546e-06 -1.98213e-05
0.00100219 -9.00614e-05 3.3909e-07
-9.00614e-05 0.000128801 5.14033e-07
3.3909e-07 5.14033e-07 2.62245e-05
0.00107161 -0.000105275 6.48293e-07
-0.000105275 0.000171119 5.32175e-07
6.48293e-07 5.32175e-07 6.10291e-05
0.000789682 6.62074e-05 -1.14174e-07
6.62074e-05 1.92923e-05 2.68718e-06
-1.14174e-07 2.68718e-06 -3.69743e-05
0.000868517 5.44391e-07 -4.35553e-09
5.44391e-07 5.82369e-05 -4.37722e-08
-4.35553e-09 -4.37722e-08 -2.1095e-05
0.000951142 -4.95582e-05 -2.2941e-07
-4.95582e-05 0.000112469 -4.77002e-07
-2.2941e-07 -4.77002e-07 2.101e-05
0.00134936 4.9909e-05 -1.30592e-05
4.9909e-05 0.000319034 3.10099e-06
-1.30592e-05 3.10099e-06 0.000308411
0.000767823 4.637e-05 -5.68006e-09
4.637e-05 1.02119e-07 -1.90377e-07
-5.68006e-09 -1.90377e-07 -4.45446e-05
0.000833963 5.23234e-06 5.01797e-07
5.23234e-06 3.48502e-05 -1.48177e-06
5.01797e-07 -1.48177e-06 -3.25554e-05
0.000886079 3.22893e-05 -2.08874e-05
3.22893e-05 6.57622e-05 3.4766e-06
-2.08874e-05 3.4766e-06 7.42759e-05
0.00106271 4.30184e-05 -5.58511e-06
4.30184e-05 0.000156115 3.54356e-07
-5.58511e-06 3.54356e-07 0.000147081
0.000783678 4.7647e-05 3.00814e-07
4.7647e-05 4.50946e-06 -2.09718e-06
3.00814e-07 -2.09718e-06 -3.4617e-05
0.000762105 3.52946e-05 1.71876e-06
3.52946e-05 -1.38786e-05 -3.33512e-06
1.71876e-06 -3.33512e-06 -2.17715e-05
0.00213065 4.83648e-05 9.0553e-07
4.83648e-05 0.00072848 7.32941e-08
9.0553e-07 7.32941e-08 0.000744665
0.0021093 4.20937e-05 2.07687e-05
4.20937e-05 0.000710342 -3.49934e-06
2.07687e-05 -3.49934e-06 0.000728187
0.000826648 -1.11635e-05 1.22517e-08
-1.11635e-05 2.45217e-05 -1.30804e-06
1.22517e-08 -1.30804e-06 -4.6556e-05
0.000854552 5.38341e-06 -4.89834e-07
5.38341e-06 3.50946e-05 -1.4214e-06
-4.89834e-07 -1.4214e-06 -2.49595e-05
0.000888461 -1.2493e-05 6.72036e-09
-1.2493e-05 5.5582e-05 -2.41063e-08
6.72036e-09 -2.41063e-08 -1.21725e-05
0.000786606 -3.873e-05 -5.10127e-07
-3.873e-05 -2.34533e-06 -1.93699e-06
-5.10127e-07 -1.93699e-06 -4.00354e-05
0.000869359 -2.75974e-06 5.19273e-07
-2.75974e-06 4.13767e-05 -9.37439e-08
5.19273e-07 -9.37439e-08 -1.52618e-05
0.00074561 -2.99815e-05 -1.19612e-06
-2.99815e-05 -2.81073e-05 -3.41114e-06
-1.19612e-06 -3.41114e-06 -3.61884e-05
0.000801127 -2.28342e-05 -1.95694e-07
-2.28342e-05 4.26083e-07 1.64326e-08
-1.95694e-07 1.64326e-08 -3.46041e-05
0.000877443 3.2753e-05 1.00427e-06
3.2753e-05 4.83248e-05 6.82844e-07
1.00427e-06 6.82844e-07 -8.64817e-06
0.00218884 -3.60363e-05 -1.87186e-05
-3.60363e-05 0.000746936 -3.82818e-06
-1.87186e-05 -3.82818e-06 0.000765361
0.000746851 -2.56237e-05 -2.53333e-07
-2.56237e-05 -3.34193e-05 -3.04442e-09
-2.53333e-07 -3.04442e-09 -3.92538e-05
0.000820166 -2.08316e-05 2.93623e-07
-2.08316e-05 8.3226e-06 1.41775e-06
2.93623e-07 1.41775e-06 -2.47508e-05
0.00212402 -2.89457e-05 -1.69066e-06
-2.89457e-05 0.000705947 6.3079e-08
-1.69066e-06 6.3079e-08 0.000726186
0.000743631 -2.08411e-05 4.76958e-07
-2.08411e-05 -4.10712e-05 3.16088e-06
4.76958e-07 3.16088e-06 -4.44297e-05
0.00206267 -2.12691e-05 1.0359e-05
-2.12691e-05 0.000667766 3.93125e-06
1.0359e-05 3.93125e-06 0.000689672
0.00162485 -1.04695e-05 2.5666e-05
-1.04695e-05 0.000204911 1.10906e-05
2.5666e-05 1.10906e-05 9.37614e-05
0.0010136 -2.78831e-06 7.91698e-07
-2.78831e-06 7.26127e-05 -3.95401e-09
7.91698e-07 -3.95401e-09 1.02772e-05
0.000653379 2.15202e-06 2.77579e-06
2.15202e-06 -7.28706e-06 3.62806e-06
2.77579e-06 3.62806e-06 -7.99844e-05
0.000942708 3.44869e-05 -7.02925e-07
3.44869e-05 0.00010177 -1.1293e-07
-7.02925e-07 -1.1293e-07 1.85499e-05
0.00093412 -8.53556e-06 1.48492e-07
-8.53556e-06 8.11238e-05 3.50462e-07
1.48492e-07 3.50462e-07 1.37206e-05
0.00090476 -2.39923e-05 1.34762e-07
-2.39923e-05 6.60427e-05 4.90709e-07
1.34762e-07 4.90709e-07 -6.26283e-06
0.000916462 -2.8982e-05 1.19605e-07
-2.8982e-05 7.35654e-05 -1.70205e-07
1.19605e-07 -1.70205e-07 2.76655e-06
0.000925471 5.52812e-07 1.6969e-07
5.52812e-07 8.1727e-05 -4.22463e-07
1.6969e-07 -4.22463e-07 4.55984e-06
0.000943991 1.66466e-05 -7.26192e-08
1.66466e-05 9.39923e-05 5.23852e-07
-7.26192e-08 5.23852e-07 1.51715e-05
0.000956023 2.33101e-05 -2.6146e-07
2.33101e-05 0.000102641 -1.36495e-06
-2.6146e-07 -1.36495e-06 1.93344e-05
0.000789962 -8.10911e-06 2.33835e-07
-8.10911e-06 1.31532e-05 -5.20189e-08
2.33835e-07 -5.20189e-08 -6.29702e-05
0.000873403 3.58422e-05 4.10625e-07
3.58422e-05 5.77636e-05 -2.11168e-07
4.10625e-07 -2.11168e-07 -1.54825e-05
0.000917368 -4.15484e-05 3.99213e-07
-4.15484e-05 6.8172e-05 -4.83638e-07
3.99213e-07 -4.83638e-07 -5.10885e-06
0.000943314 6.0124e-06 -7.21698e-08
6.0124e-06 9.531e-05 1.25099e-07
-7.21698e-08 1.25099e-07 2.02344e-05
0.00142574 9.29246e-06 2.62778e-06
9.29246e-06 0.000357732 7.3008e-07
2.62778e-06 7.3008e-07 0.000281185
0.00128005 -0.000287113 4.35146e-05
-0.000287113 0.000417879 3.13917e-05
4.35146e-05 3.13917e-05 0.000649671
0.00196778 -3.15519e-05 3.8302e-06
-3.15519e-05 0.000217794 9.47795e-06
3.8302e-06 9.47795e-06 3.17663e-05
0.00204273 3.8293e-07 -1.79607e-06
3.8293e-07 0.000306658 -6.69806e-06
-1.79607e-06 -6.69806e-06 0.000233756
0.00337189 -0.000338221 -4.22449e-05
-0.000338221 -6.4312e-05 -3.43942e-05
-4.22449e-05 -3.43942e-05 0.000947017
0.00430535 -0.000269493 -5.76446e-06
-0.000269493 0.000513047 -4.9584e-05
-5.76446e-06 -4.9584e-05 0.000302231
0.00276556 -7.61541e-05 -0.000104931
-7.61541e-05 -0.00024426 7.91033e-05
-0.000104931 7.91033e-05 -0.00121592
0.00221112 -0.000284652 -5.98267e-05
-0.000284652 8.72575e-05 9.05102e-05
-5.98267e-05 9.05102e-05 -0.000251214
0.00279435 -0.000171203 -3.25912e-06
-0.000171203 0.000570123 2.01078e-05
-3.25912e-06 2.01078e-05 0.000318599
0.000152988 -0.000480891 -1.29005e-05
-0.000480891 -0.00104512 -9.66592e-07
-1.29005e-05 -9.66592e-07 9.49941e-05
0.00481707 -0.000111976 1.03822e-05
-0.000111976 0.00119332 4.15509e-05
1.03822e-05 4.15509e-05 -0.000283498
0.000354861 -0.000345033 -3.42255e-06
-0.000345033 -0.0011172 1.85502e-06
-3.42255e-06 1.85502e-06 -0.000810488
0.00286124 0.000130938 -6.84198e-05
0.000130938 0.000434359 -4.10192e-05
-6.84198e-05 -4.10192e-05 0.000273652
0.00920972 -0.000457011 -8.05413e-06
-0.000457011 0.00325849 4.20197e-05
-8.05413e-06 4.20197e-05 0.00201965
-3.61797e-05 -0.000428411 2.77554e-06
-0.000428411 -0.000212421 -1.5735e-05
2.77554e-06 -1.5735e-05 0.000102075
0.000656971 0.000108688 -1.14443e-06
0.000108688 -3.24143e-05 -9.59346e-07
-1.14443e-06 -9.59346e-07 -9.49501e-05
0.0010412 1.63201e-05 2.55548e-06
1.63201e-05 0.000154722 8.10366e-08
2.55548e-06 8.10366e-08 9.19217e-05
0.000929333 -1.75271e-05 -5.49871e-07
-1.75271e-05 8.112e-05 -6.10485e-07
-5.49871e-07 -6.10485e-07 7.86784e-06
-0.000980159 -2.96636e-05 -1.96845e-05
-2.96636e-05 -0.000230696 -1.92222e-05
-1.96845e-05 -1.92222e-05 -0.000811709
5.17277e-06 -9.04977e-06 1.46323e-07
-9.04977e-06 -0.000215361 -5.75491e-06
1.46323e-07 -5.75491e-06 -0.000291088
0.000711802 9.70066e-06 5.71093e-07
9.70066e-06 -2.56722e-05 8.70258e-07
5.71093e-07 8.70258e-07 -9.22869e-05
0.00074903 4.76042e-05 2.03091e-06
4.76042e-05 0.000121319 8.80744e-07
2.03091e-06 8.80744e-07 2.58158e-05
0.000613092 8.64487e-05 4.06098e-06
8.64487e-05 0.000152991 -1.53954e-05
4.06098e-06 -1.53954e-05 -0.000101396
-0.000741419 8.81493e-05 9.72568e-06
8.81493e-05 -0.00068083 9.0109e-06
9.72568e-06 9.0109e-06 -0.00081683
0.000807295 -1.3581e-05 6.08833e-05
-1.3581e-05 0.000677478 -1.27138e-06
6.08833e-05 -1.27138e-06 0.000492639
0.00124941 -2.72813e-06 -3.49915e-06
-2.72813e-06 -1.8988e-05 1.93905e-07
-3.49915e-06 1.93905e-07 -0.000135479
0.000467406 1.54744e-06 4.40393e-06
1.54744e-06 -0.000162372 -1.57753e-06
4.40393e-06 -1.57753e-06 -0.000232678
-3.05948e-05 -3.10491e-05 5.09292e-06
-3.10491e-05 -4.57457e-05 4.16707e-06
5.09292e-06 4.16707e-06 -0.0001467
0.00162636 -0.000264081 2.16032e-05
-0.000264081 -0.000323292 -3.40522e-05
2.16032e-05 -3.40522e-05 -0.000476137
0.00133241 1.06263e-06 -2.97905e-05
1.06263e-06 -6.0635e-05 -6.48825e-07
-2.97905e-05 -6.48825e-07 -0.00020627
0.00184324 0.000108651 3.7202e-06
0.000108651 -0.000210108 5.08534e-06
3.7202e-06 5.08534e-06 -0.0015875
-0.00235861 0.000433567 -4.08786e-05
0.000433567 -0.00190231 4.72767e-06
-4.08786e-05 4.72767e-06 -0.00148765
0.00136941 0.000340222 -5.63564e-05
0.000340222 0.00056476 2.96843e-05
-5.63564e-05 2.96843e-05 0.000978221
0.00167839 -0.000167016 -3.41776e-06
-0.000167016 0.000221232 4.29901e-06
-3.41776e-06 4.29901e-06 0.000396133
0.00117831 0.000140512 -1.81588e-06
0.000140512 0.00083733 3.72562e-06
-1.81588e-06 3.72562e-06 0.000837751
-0.00361227 0.000242494 1.181e-05
0.000242494 -0.00131171 -8.25307e-08
1.181e-05 -8.25307e-08 -0.00145252
0.0033347 -0.00043466 -7.5098e-06
-0.00043466 0.000646835 1.17893e-05
-7.5098e-06 1.17893e-05 -0.000228695
0.00657489 0.000389674 -1.33068e-05
0.000389674 0.00199459 9.22014e-07
-1.33068e-05 9.22014e-07 0.000714906
0.00018158 -0.000164247 -3.03318e-06
-0.000164247 -0.000483266 8.72445e-06
-3.03318e-06 8.72445e-06 -0.0004251
-0.00530234 0.000119545 9.27463e-07
0.000119545 -0.00254827 -8.13872e-06
9.27463e-07 -8.13872e-06 -0.00250267
0.00664351 0.000368336 -7.96867e-06
0.000368336 0.00227575 5.47449e-06
-7.96867e-06 5.47449e-06 0.00114611
0.00364267 -0.000243995 -1.57259e-05
-0.000243995 0.000147982 2.68696e-05
-1.57259e-05 2.68696e-05 -0.000550157
-3.86027e-05 -9.03311e-05 -1.03946e-05
-9.03311e-05 -0.000216996 6.7639e-07
-1.03946e-05 6.7639e-07 -0.000410756
0.00118646 -0.000136296 -5.40962e-07
-0.000136296 4.25966e-05 8.43053e-08
-5.40962e-07 8.43053e-08 2.65163e-05
0.00191564 -0.000168728 5.51938e-06
-0.000168728 0.000140787 -2.52882e-06
5.51938e-06 -2.52882e-06 0.000160779
0.000149087 -7.7698e-05 -1.77964e-06
-7.7698e-05 -0.000233728 -3.99485e-06
-1.77964e-06 -3.99485e-06 -0.000436553
0.00128663 -0.000178709 -2.55912e-06
-0.000178709 5.46671e-05 -2.03921e-06
-2.55912e-06 -2.03921e-06 -0.000100587
0.00172556 -0.000204344 -2.9572e-06
-0.000204344 7.61857e-05 -1.89454e-06
-2.9572e-06 -1.89454e-06 -2.35312e-05
0.00114238 -0.00014853 -5.22158e-07
-0.00014853 0.00011075 -2.92941e-06
-5.22158e-07 -2.92941e-06 -7.45573e-05
0.00142001 -0.000169324 1.37956e-06
-0.000169324 0.00011183 -5.69627e-07
1.37956e-06 -5.69627e-07 -3.13353e-05
0.00165435 -0.000160017 -1.98898e-06
-0.000160017 0.000104156 -3.70993e-06
-1.98898e-06 -3.70993e-06 9.81167e-07
0.0013205 -0.00014603 3.70124e-07
-0.00014603 0.000165954 -4.633e-07
3.70124e-07 -4.633e-07 7.88907e-07
0.00139508 -0.000147904 -4.5345e-07
-0.000147904 8.98728e-05 -5.45997e-07
-4.5345e-07 -5.45997e-07 -4.50191e-05
0.00165934 -0.00013904 -1.2874e-06
-0.00013904 0.00013793 -2.81186e-06
-1.2874e-06 -2.81186e-06 3.56378e-05
0.00168489 -0.000131027 -2.20589e-06
-0.000131027 0.000195644 -2.46443e-06
-2.20589e-06 -2.46443e-06 9.2953e-05
0.00138796 -0.000135632 -2.79971e-06
-0.000135632 0.00012861 -1.4373e-06
-2.79971e-06 -1.4373e-06 3.24794e-07
0.00147232 -0.00013724 7.08988e-07
-0.00013724 0.000132729 4.35884e-07
7.08988e-07 4.35884e-07 7.40166e-06
0.000728876 -0.000105088 -2.69805e-06
-0.000105088 -0.00012125 1.34959e-06
-2.69805e-06 1.34959e-06 -0.000249726
0.00133935 -0.000137505 1.30432e-06
-0.000137505 0.000171971 -1.07278e-06
1.30432e-06 -1.07278e-06 3.12818e-05
0.00113161 -0.000133427 2.75312e-06
-0.000133427 2.8996e-05 -1.22353e-09
2.75312e-06 -1.22353e-09 -0.000117302
0.00102593 -0.000109195 -8.18043e-07
-0.000109195 9.96731e-05 1.21946e-06
-8.18043e-07 1.21946e-06 -9.77437e-06
0.00101244 -0.000113435 5.33471e-07
-0.000113435 7.54887e-05 -2.44351e-07
5.33471e-07 -2.44351e-07 -4.83006e-05
0.000963756 -0.000119354 2.27904e-06
-0.000119354 3.27364e-05 -2.20064e-06
2.27904e-06 -2.20064e-06 -0.000111872
0.00097059 -8.66698e-05 -1.78168e-06
-8.66698e-05 9.07624e-05 5.16307e-07
-1.78168e-06 5.16307e-07 -5.7518e-07
0.00104312 -0.000104975 -1.95594e-07
-0.000104975 0.000127322 -4.71663e-07
-1.95594e-07 -4.71663e-07 2.37352e-05
0.000864366 -9.9148e-05 3.8698e-07
-9.9148e-05 3.91957e-05 -1.95682e-06
3.8698e-07 -1.95682e-06 -6.86837e-05
0.000852776 1.68933e-05 -2.78465e-07
1.68933e-05 5.10524e-05 3.03205e-06
-2.78465e-07 3.03205e-06 -1.41144e-05
0.000944816 -4.43716e-05 7.76364e-07
-4.43716e-05 9.19909e-05 3.79957e-07
7.76364e-07 3.79957e-07 4.29469e-06
0.00097044 -7.9673e-05 8.54138e-07
-7.9673e-05 0.00011225 4.49547e-07
8.54138e-07 4.49547e-07 1.13313e-05
0.000661237 4.75576e-05 -2.52604e-06
4.75576e-05 -4.27702e-05 3.97541e-06
-2.52604e-06 3.97541e-06 -6.20589e-05
0.000768496 3.03075e-05 -3.89668e-07
3.03075e-05 3.91533e-06 -2.65995e-07
-3.89668e-07 -2.65995e-07 -5.0085e-05
0.000901487 -1.26829e-05 2.00558e-07
-1.26829e-05 7.65721e-05 -1.6797e-06
2.00558e-07 -1.6797e-06 -4.06926e-06
0.00222127 6.74572e-05 -9.65535e-06
6.74572e-05 0.00079456 1.34959e-06
-9.65535e-06 1.34959e-06 0.00080503
0.000716462 4.33721e-05 1.22781e-07
4.33721e-05 -2.13132e-05 -2.40524e-08
1.22781e-07 -2.40524e-08 -3.60139e-05
0.000758823 4.32443e-05 8.48431e-07
4.32443e-05 -4.61662e-06 -2.31597e-06
8.48431e-07 -2.31597e-06 -4.93636e-05
0.00217186 5.43445e-05 9.32708e-07
5.43445e-05 0.000758204 6.92079e-08
9.32708e-07 6.92079e-08 0.00077246
0.000759068 4.02088e-05 2.0118e-06
4.02088e-05 -7.37511e-06 -3.48534e-06
2.0118e-06 -3.48534e-06 -1.83241e-05
0.00214539 4.85303e-05 2.38496e-05
4.85303e-05 0.000737451 -3.38418e-06
2.38496e-05 -3.38418e-06 0.000753393
0.000959639 3.02676e-05 -3.99614e-07
3.02676e-05 0.000104571 -2.0274e-07
-3.99614e-07 -2.0274e-07 2.781e-05
0.000856993 -3.35982e-06 8.06997e-08
-3.35982e-06 4.08581e-05 -3.14145e-07
8.06997e-08 -3.14145e-07 -3.09428e-05
0.000851636 -5.57865e-06 -4.14678e-07
-5.57865e-06 3.79852e-05 -1.61034e-06
-4.14678e-07 -1.61034e-06 -2.71819e-05
0.000775724 -4.55347e-05 -5.78607e-07
-4.55347e-05 -3.10006e-06 -2.22978e-06
-5.78607e-07 -2.22978e-06 -4.32983e-05
0.000839683 -1.3329e-05 5.99257e-07
-1.3329e-05 2.80025e-05 -6.67791e-08
5.99257e-07 -6.67791e-08 -3.22485e-05
0.000840606 8.9031e-07 5.23338e-07
8.9031e-07 3.30357e-05 8.21365e-07
5.23338e-07 8.21365e-07 -3.68529e-05
0.000741717 -3.36158e-05 -1.81737e-06
-3.36158e-05 -2.39458e-05 -3.53865e-06
-1.81737e-06 -3.53865e-06 -3.39633e-05
0.000791996 -3.08879e-05 -2.10905e-07
-3.08879e-05 -3.2262e-07 1.33398e-08
-2.10905e-07 1.33398e-08 -3.74243e-05
0.000849297 -1.04059e-05 1.04514e-06
-1.04059e-05 3.08389e-05 9.77943e-07
1.04514e-06 9.77943e-07 -2.57869e-05
0.00222801 -4.25389e-05 -2.21585e-05
-4.25389e-05 0.000774204 -3.72204e-06
-2.21585e-05 -3.72204e-06 0.000791004
0.000732915 -2.94253e-05 -1.71447e-07
-2.94253e-05 -3.46283e-05 7.63206e-09
-1.71447e-07 7.63206e-09 -4.26649e-05
0.000809727 -2.15496e-05 8.02551e-07
-2.15496e-05 5.24768e-06 1.56533e-06
8.02551e-07 1.56533e-06 -2.97463e-05
0.00217738 -3.58727e-05 -1.77863e-06
-3.58727e-05 0.000740172 7.99284e-08
-1.77863e-06 7.99284e-08 0.000758776
0.000731205 -2.51981e-05 5.83081e-07
-2.51981e-05 -4.16113e-05 3.29019e-06
5.83081e-07 3.29019e-06 -4.73663e-05
0.00211096 -2.85318e-05 1.35656e-05
-2.85318e-05 0.000698299 3.88565e-06
1.35656e-05 3.88565e-06 0.000718766
-0.00124307 -0.000121603 3.97889e-05
-0.000121603 -0.000476655 1.16226e-05
3.97889e-05 1.16226e-05 -0.000738633
0.00160034 -1.56275e-05 2.61726e-06
-1.56275e-05 0.000165394 4.92575e-06
2.61726e-06 4.92575e-06 5.6163e-05
0.00102382 -1.49537e-06 3.65402e-06
-1.49537e-06 7.63595e-05 2.0042e-06
3.65402e-06 2.0042e-06 1.50868e-05
0.000923098 1.44535e-05 -6.47815e-07
1.44535e-05 8.93963e-05 6.24221e-07
-6.47815e-07 6.24221e-07 7.42273e-06
0.00105919 8.99785e-05 -1.56256e-08
8.99785e-05 0.00017343 1.01647e-06
-1.56256e-08 1.01647e-06 7.99232e-05
0.000949345 3.44334e-05 -3.24057e-07
3.44334e-05 0.000107025 2.66753e-07
-3.24057e-07 2.66753e-07 1.95901e-05
0.00100994 -3.39671e-05 2.5627e-07
-3.39671e-05 0.000122838 -3.706e-07
2.5627e-07 -3.706e-07 5.2349e-05
0.000950786 1.59534e-05 4.65882e-07
1.59534e-05 9.30877e-05 5.71904e-07
4.65882e-07 5.71904e-07 1.75393e-05
0.000812633 -1.8073e-05 -7.07516e-07
-1.8073e-05 2.09367e-05 1.35029e-06
-7.07516e-07 1.35029e-06 -5.55966e-05
0.000821947 7.2949e-06 -4.68667e-07
7.2949e-06 3.30703e-05 -1.02784e-08
-4.68667e-07 -1.02784e-08 -4.6093e-05
0.000885064 1.12646e-05 2.17379e-07
1.12646e-05 6.44796e-05 -2.99085e-08
2.17379e-07 -2.99085e-08 -1.79794e-05
0.00100606 4.75769e-05 9.2535e-07
4.75769e-05 0.000146676 -1.09212e-06
9.2535e-07 -1.09212e-06 5.42132e-05
0.000811007 4.6415e-05 2.18244e-06
4.6415e-05 1.79876e-05 -2.04615e-06
2.18244e-06 -2.04615e-06 -6.16206e-05
0.000913832 2.9949e-05 -1.23215e-07
2.9949e-05 8.20709e-05 -6.06824e-07
-1.23215e-07 -6.06824e-07 5.43584e-06
0.00107981 2.8746e-05 5.94524e-07
2.8746e-05 0.000177472 3.86267e-07
5.94524e-07 3.86267e-07 0.000100897
-0.00164016 -0.000296082 1.03813e-05
-0.000296082 -0.000836089 2.40278e-05
1.03813e-05 2.40278e-05 -0.000834648
4.91571e-06 -0.000286462 1.14164e-05
-0.000286462 -0.000177283 4.17854e-06
1.14164e-05 4.17854e-06 -4.63415e-05
0.00195995 -3.15452e-05 -3.14242e-05
-3.15452e-05 0.000182132 -2.07487e-05
-3.14242e-05 -2.07487e-05 -3.12514e-06
-0.00212643 -0.000500545 -6.45115e-06
-0.000500545 -0.00224735 1.69272e-05
-6.45115e-06 1.69272e-05 -0.0010055
0.0043649 -0.000525725 -2.50377e-05
-0.000525725 0.00114601 -3.83e-05
-2.50377e-05 -3.83e-05 0.00126053
0.00369551 6.80211e-05 3.9394e-05
6.80211e-05 0.000695158 1.49929e-05
3.9394e-05 1.49929e-05 -0.000736228
0.00210548 -0.000157493 -8.43878e-05
-0.000157493 0.00021217 7.95457e-05
-8.43878e-05 7.95457e-05 -0.00038238
0.0031407 0.000110199 -3.57371e-05
0.000110199 0.000459934 -8.96337e-06
-3.57371e-05 -8.96337e-06 0.00016866
0.00311722 -0.00057055 -9.2074e-06
-0.00057055 0.00107799 1.17109e-05
-9.2074e-06 1.17109e-05 0.00122963
0.00208477 -5.14695e-05 1.51168e-05
-5.14695e-05 8.34691e-06 3.11441e-05
1.51168e-05 3.11441e-05 -0.00134812
0.00168139 0.000248478 -9.66809e-05
0.000248478 2.68101e-05 -8.66182e-05
-9.66809e-05 -8.66182e-05 -0.000583809
0.00270584 0.000176268 -0.000109852
0.000176268 0.000484632 -3.75147e-05
-0.000109852 -3.75147e-05 -0.000894269
0.00233424 0.000255847 1.17415e-05
0.000255847 0.000677782 -7.73032e-06
1.17415e-05 -7.73032e-06 0.000549463
0.000864005 0.000109223 -1.23482e-06
0.000109223 6.73048e-05 -2.26861e-08
-1.23482e-06 -2.26861e-08 6.45786e-06
0.0012346 2.29232e-05 -3.7579e-07
2.29232e-05 0.000253254 -2.02112e-06
-3.7579e-07 -2.02112e-06 0.000190019
0.000159251 6.93146e-05 -2.86943e-05
6.93146e-05 -0.000130972 -1.43549e-05
-2.86943e-05 -1.43549e-05 -0.000315193
0.00151722 8.88247e-05 -2.80963e-06
8.88247e-05 0.000483606 -4.36395e-06
-2.80963e-06 -4.36395e-06 0.000385295
0.00111368 0.000178293 1.30971e-05
0.000178293 0.000178185 9.65852e-08
1.30971e-05 9.65852e-08 6.05079e-05
0.000937897 0.00021963 4.04081e-05
0.00021963 -0.000253637 2.54705e-05
4.04081e-05 2.54705e-05 -0.00030707
-0.00338671 -1.779e-05 -1.46219e-05
-1.779e-05 -0.00168636 -7.90751e-06
-1.46219e-05 -7.90751e-06 -0.0013805
-8.58035e-05 -4.5768e-06 9.83856e-06
-4.5768e-06 0.000285916 1.15845e-06
9.83856e-06 1.15845e-06 6.72313e-05
0.00118437 -5.37404e-06 -2.10992e-05
-5.37404e-06 2.20983e-05 2.30612e-07
-2.10992e-05 2.30612e-07 -6.73221e-05
0.000832003 -0.000153264 -3.47604e-05
-0.000153264 -0.000206855 -1.11078e-05
-3.47604e-05 -1.11078e-05 -3.80707e-05
0.00380889 -0.000490997 -5.63334e-05
-0.000490997 0.000766285 -5.07671e-06
-5.63334e-05 -5.07671e-06 0.000106287
0.00104102 0.000112006 -4.17364e-05
0.000112006 0.000831695 1.07912e-05
-4.17364e-05 1.07912e-05 0.000796434
0.000967279 0.000233986 2.77183e-05
0.000233986 -0.000228535 -4.24454e-05
2.77183e-05 -4.24454e-05 -0.00174375
0.00732471 0.000482901 -9.08585e-05
0.000482901 0.00365069 1.39554e-05
-9.08585e-05 1.39554e-05 0.00368296
0.00129991 -0.000241992 9.73886e-06
-0.000241992 6.81963e-06 1.16275e-06
9.73886e-06 1.16275e-06 8.3148e-06
-0.000915747 0.000222229 -1.18863e-05
0.000222229 -0.000256418 -2.76057e-06
-1.18863e-05 -2.76057e-06 -0.000287251
0.00235239 0.000233283 -9.69662e-06
0.000233283 0.000190787 1.48655e-05
-9.69662e-06 1.48655e-05 -0.00114469
0.00401428 -0.000208045 -1.37506e-07
-0.000208045 0.000775168 6.10225e-06
-1.37506e-07 6.10225e-06 0.000176591
-0.000263022 -0.000116165 -4.16213e-06
-0.000116165 -0.000620889 -6.40153e-06
-4.16213e-06 -6.40153e-06 -0.000747557
0.00705142 4.84455e-05 3.67299e-05
4.84455e-05 0.00237362 3.55675e-06
3.67299e-05 3.55675e-06 0.00148542
0.00188259 4.29039e-05 2.49356e-06
4.29039e-05 -0.000311689 -4.90886e-06
2.49356e-06 -4.90886e-06 -0.000635274
0.000275602 -0.000101834 -8.14839e-06
-0.000101834 -0.0003913 6.25326e-07
-8.14839e-06 6.25326e-07 -0.000383969
0.00131444 -0.000156461 -6.91884e-07
-0.000156461 -0.000146774 -6.5305e-07
-6.91884e-07 -6.5305e-07 -0.000131861
0.00214035 -0.000206166 -6.01053e-07
-0.000206166 0.000104881 -3.4545e-06
-6.01053e-07 -3.4545e-06 0.000108074
0.00132547 -0.000179387 -3.57688e-06
-0.000179387 6.94613e-05 -3.09577e-06
-3.57688e-06 -3.09577e-06 -8.43698e-05
0.00165702 -0.000198178 -1.68391e-06
-0.000198178 4.36691e-05 1.78904e-06
-1.68391e-06 1.78904e-06 -5.50084e-05
0.00170714 -0.000166708 -4.97568e-06
-0.000166708 -9.95568e-06 1.63598e-06
-4.97568e-06 1.63598e-06 -7.35664e-05
0.00110578 -0.000153438 2.59704e-06
-0.000153438 -4.41369e-05 1.58383e-06
2.59704e-06 1.58383e-06 -0.000187958
0.00158575 -0.000155568 -1.24224e-06
-0.000155568 6.50685e-05 2.9892e-07
-1.24224e-06 2.9892e-07 -3.76962e-05
0.00157528 -0.000131031 -1.01237e-06
-0.000131031 -2.77004e-05 -1.69375e-08
-1.01237e-06 -1.69375e-08 -0.000102539
0.00126151 -0.000141455 2.17594e-06
-0.000141455 1.74815e-05 2.02226e-06
2.17594e-06 2.02226e-06 -0.000115853
0.00150075 -0.000132847 1.07063e-07
-0.000132847 5.68192e-05 8.67856e-07
1.07063e-07 8.67856e-07 -4.52864e-05
0.0016615 -0.000121912 -1.94751e-06
-0.000121912 9.31811e-05 -3.19681e-07
-1.94751e-06 -3.19681e-07 1.1278e-05
0.00195193 -0.000123125 -5.37222e-07
-0.000123125 0.00030766 -1.26974e-06
-5.37222e-07 -1.26974e-06 0.000218124
0.00160711 -0.000126219 -1.45029e-06
-0.000126219 0.000154925 1.60539e-06
-1.45029e-06 1.60539e-06 5.46915e-05
0.00147974 -0.000124278 -8.77007e-07
-0.000124278 0.000129804 -3.33788e-06
-8.77007e-07 -3.33788e-06 2.16358e-05
0.00137602 -0.000129337 -2.91207e-06
-0.000129337 0.000151452 -3.85135e-07
-2.91207e-06 -3.85135e-07 2.8537e-05
0.00149854 -0.00013865 1.05483e-06
-0.00013865 0.000187349 -2.76948e-07
1.05483e-06 -2.76948e-07 5.90731e-05
0.00146902 -0.000134442 2.80058e-06
-0.000134442 0.000131439 2.93532e-06
2.80058e-06 2.93532e-06 8.13378e-06
0.000798636 -0.000102448 -2.92246e-06
-0.000102448 -6.14831e-05 2.2934e-06
-2.92246e-06 2.2934e-06 -0.00017846
0.00106346 -0.000118749 2.11237e-07
-0.000118749 5.4787e-05 -7.7328e-08
2.11237e-07 -7.7328e-08 -7.28216e-05
0.00150629 -0.000143555 4.49131e-06
-0.000143555 0.00025878 -2.13829e-06
4.49131e-06 -2.13829e-06 0.000119652
0.000950508 -9.27663e-05 -1.63639e-06
-9.27663e-05 6.70806e-05 7.24239e-07
-1.63639e-06 7.24239e-07 -2.8647e-05
0.00108245 -0.000111164 1.58058e-07
-0.000111164 0.000127372 -2.05622e-07
1.58058e-07 -2.05622e-07 1.77579e-05
0.000716235 -9.87669e-05 1.30529e-06
-9.87669e-05 -7.52811e-05 -3.169e-06
1.30529e-06 -3.169e-06 -0.00019812
0.00081011 -2.21376e-05 -2.47967e-06
-2.21376e-05 2.32414e-05 2.63021e-06
-2.47967e-06 2.63021e-06 -4.89845e-05
0.00101973 -8.9634e-05 1.51215e-08
-8.9634e-05 0.000115429 -4.78843e-08
1.51215e-08 -4.78843e-08 2.39749e-05
0.00112158 -0.000108333 1.08262e-06
-0.000108333 0.000167048 -7.70343e-07
1.08262e-06 -7.70343e-07 6.3214e-05
0.000600643 5.72885e-05 -1.41769e-06
5.72885e-05 -6.76144e-05 4.77662e-06
-1.41769e-06 4.77662e-06 -9.43695e-05
0.00080017 2.88417e-06 -3.40526e-08
2.88417e-06 2.29631e-05 4.44579e-08
-3.40526e-08 4.44579e-08 -4.29986e-05
0.000996045 -4.9621e-05 1.53864e-06
-4.9621e-05 0.000118992 -6.09895e-07
1.53864e-06 -6.09895e-07 3.07533e-05
0.00238986 6.8653e-05 -3.23159e-05
6.8653e-05 0.000889565 2.99616e-06
-3.23159e-05 2.99616e-06 0.000898835
0.000687515 5.10926e-05 -1.42496e-07
5.10926e-05 -2.77721e-05 -1.34689e-07
-1.42496e-07 -1.34689e-07 -4.79121e-05
0.000742314 7.91232e-06 2.19766e-06
7.91232e-06 -1.10454e-05 -2.77352e-06
2.19766e-06 -2.77352e-06 -6.48171e-05
0.00160501 5.27489e-05 1.25584e-05
5.27489e-05 0.000461811 -7.11795e-07
1.25584e-05 -7.11795e-07 0.000469908
0.000747371 4.56602e-05 2.13545e-06
4.56602e-05 -5.00524e-06 -3.80939e-06
2.13545e-06 -3.80939e-06 -2.0002e-05
0.00221502 5.49016e-05 2.75693e-05
5.49016e-05 0.000782762 -3.26788e-06
2.75693e-05 -3.26788e-06 0.000796508
0.000945243 4.66398e-05 2.04824e-07
4.66398e-05 9.9279e-05 7.53713e-07
2.04824e-07 7.53713e-07 1.55276e-05
0.000928439 4.19435e-06 -1.77321e-07
4.19435e-06 8.50854e-05 5.24678e-07
-1.77321e-07 5.24678e-07 1.00386e-05
0.000867165 -2.59964e-05 -2.3624e-07
-2.59964e-05 5.23074e-05 -1.32532e-06
-2.3624e-07 -1.32532e-06 -1.72392e-05
0.000909714 8.25278e-06 2.4969e-07
8.25278e-06 6.93681e-05 6.66052e-07
2.4969e-07 6.66052e-07 -3.49238e-06
0.000849408 -2.96117e-05 2.33382e-07
-2.96117e-05 3.43058e-05 -5.84745e-08
2.33382e-07 -5.84745e-08 -2.91036e-05
0.000751327 -4.5038e-05 -8.89928e-07
-4.5038e-05 -1.0126e-05 -2.36639e-06
-8.89928e-07 -2.36639e-06 -5.36508e-05
0.000737812 -3.76356e-05 -2.31997e-06
-3.76356e-05 -1.98263e-05 -3.61623e-06
-2.31997e-06 -3.61623e-06 -3.16213e-05
0.000777681 -4.10653e-05 -1.20996e-07
-4.10653e-05 -2.81118e-06 -1.2741e-08
-1.20996e-07 -1.2741e-08 -4.24925e-05
0.000846929 -4.753e-05 -1.24696e-07
-4.753e-05 2.98906e-05 1.40876e-06
-1.24696e-07 1.40876e-06 -2.86227e-05
0.00224954 -4.86787e-05 -2.54126e-05
-4.86787e-05 0.000792601 -3.55699e-06
-2.54126e-05 -3.55699e-06 0.00080781
0.000722574 -3.29152e-05 -2.19923e-07
-3.29152e-05 -3.3912e-05 2.19662e-08
-2.19923e-07 2.19662e-08 -4.38597e-05
0.000797428 -2.23486e-05 1.49938e-06
-2.23486e-05 1.79555e-06 1.81961e-06
1.49938e-06 1.81961e-06 -3.47513e-05
0.00222442 -4.24837e-05 -1.41549e-06
-4.24837e-05 0.0007716 9.05609e-08
-1.41549e-06 9.05609e-08 0.000788525
0.000719769 -2.89137e-05 1.03681e-06
-2.89137e-05 -4.13351e-05 3.44258e-06
1.03681e-06 3.44258e-06 -4.934e-05
0.00216137 -3.56348e-05 1.66918e-05
-3.56348e-05 0.000730942 3.81658e-06
1.66918e-05 3.81658e-06 0.000749754
0.0015508 9.96567e-05 9.86573e-05
9.96567e-05 0.0009185 2.85381e-05
9.86573e-05 2.85381e-05 0.000611984
6.11475e-05 -0.00013652 4.99432e-06
-0.00013652 0.000160635 4.1573e-06
4.99432e-06 4.1573e-06 -1.80401e-05
0.00160231 -1.85489e-05 -2.21209e-05
-1.85489e-05 0.00014236 -1.74897e-06
-2.21209e-05 -1.74897e-06 3.5053e-05
0.000917927 -1.39284e-06 2.41825e-07
-1.39284e-06 8.54494e-05 7.103e-07
2.41825e-07 7.103e-07 4.23609e-06
0.000919853 1.39116e-05 -1.07748e-08
1.39116e-05 9.01361e-05 5.40082e-07
-1.07748e-08 5.40082e-07 3.08743e-06
0.000948423 8.47809e-05 -8.1e-08
8.47809e-05 0.000118248 9.57691e-08
-8.1e-08 9.57691e-08 2.54358e-05
0.00108887 0.000107357 7.94412e-07
0.000107357 0.000183651 9.12971e-07
7.94412e-07 9.12971e-07 8.44255e-05
0.000971269 7.19711e-05 -7.37027e-07
7.19711e-05 0.000132499 4.51178e-07
-7.37027e-07 4.51178e-07 3.53746e-05
0.000854255 2.00636e-05 2.2415e-07
2.00636e-05 4.98777e-05 9.06439e-07
2.2415e-07 9.06439e-07 -3.00596e-05
0.000856668 1.00643e-05 4.21097e-08
1.00643e-05 4.90595e-05 9.48414e-07
4.21097e-08 9.48414e-07 -3.32535e-05
0.000805599 4.97425e-05 -6.12712e-07
4.97425e-05 4.08821e-05 -6.77557e-07
-6.12712e-07 -6.77557e-07 -4.98755e-05
0.000231777 6.25234e-05 -3.45544e-07
6.25234e-05 -0.000253096 1.2828e-06
-3.45544e-07 1.2828e-06 -0.000351632
0.00085589 8.91261e-05 1.61325e-07
8.91261e-05 4.04416e-05 -1.77581e-06
1.61325e-07 -1.77581e-06 -5.2269e-05
0.00195903 0.000189411 3.7312e-06
0.000189411 0.000480651 -5.06454e-06
3.7312e-06 -5.06454e-06 0.000366594
0.000887905 5.3559e-05 -1.63668e-06
5.3559e-05 7.47929e-05 -3.18364e-07
-1.63668e-06 -3.18364e-07 -6.57437e-06
0.000835898 6.39254e-06 -3.00367e-07
6.39254e-06 4.49499e-05 -3.79557e-07
-3.00367e-07 -3.79557e-07 -2.86431e-05
0.00893655 -0.000109131 -3.56604e-05
-0.000109131 0.00275404 -1.38127e-05
-3.56604e-05 -1.38127e-05 0.00171206
-0.00208257 -0.000285556 -2.43147e-05
-0.000285556 -0.000840795 -4.21072e-07
-2.43147e-05 -4.21072e-07 -0.0010789
0.00129414 -0.000294093 -3.84027e-05
-0.000294093 0.000539298 -2.30118e-05
-3.84027e-05 -2.30118e-05 0.000639915
-0.00242002 -0.00034979 -2.14534e-05
-0.00034979 -0.00153229 -3.46721e-06
-2.14534e-05 -3.46721e-06 -0.00128359
0.00924306 -0.000383949 5.87734e-05
-0.000383949 0.0033214 1.8255e-05
5.87734e-05 1.8255e-05 0.00162676
0.00245795 7.12413e-05 5.83697e-06
7.12413e-05 0.000231016 1.8609e-05
5.83697e-06 1.8609e-05 0.000124698
0.00167058 0.000253323 -3.4705e-05
0.000253323 -8.81969e-05 -2.21943e-05
-3.4705e-05 -2.21943e-05 -0.000579605
0.00657611 -0.000304767 4.39662e-05
-0.000304767 0.00186524 1.76103e-05
4.39662e-05 1.76103e-05 0.000747033
0.0023562 0.000215225 -3.76901e-06
0.000215225 -5.91493e-05 -4.09643e-05
-3.76901e-06 -4.09643e-05 -0.000504712
0.00219179 0.000292766 1.43662e-05
0.000292766 0.000390931 1.1334e-05
1.43662e-05 1.1334e-05 0.000244597
0.000902481 0.000169959 6.13674e-07
0.000169959 2.44071e-05 -4.89936e-06
6.13674e-07 -4.89936e-06 -0.000115893
0.00094638 9.14628e-05 -3.63556e-06
9.14628e-05 0.000104461 2.44915e-06
-3.63556e-06 2.44915e-06 4.80299e-05
0.00191727 0.000225775 -3.63263e-05
0.000225775 0.000545191 -1.7712e-05
-3.63263e-05 -1.7712e-05 0.000437866
0.000498006 0.000213922 -1.38836e-05
0.000213922 -0.000446065 1.36941e-05
-1.38836e-05 1.36941e-05 -0.000511192
0.000390794 -5.45192e-05 3.11859e-06
-5.45192e-05 -0.00108832 -3.15239e-06
3.11859e-06 -3.15239e-06 -0.00153938
0.00158654 8.86254e-06 -6.52971e-06
8.86254e-06 0.000819337 -1.24408e-06
-6.52971e-06 -1.24408e-06 0.000829229
-0.00103124 3.69899e-06 -1.75348e-05
3.69899e-06 -0.000125976 8.78116e-08
-1.75348e-05 8.78116e-08 -0.000395524
0.00231116 -0.000298994 -3.92899e-05
-0.000298994 0.000446924 7.5369e-06
-3.92899e-05 7.5369e-06 0.00042007
0.00419615 -0.000239843 -1.41713e-06
-0.000239843 0.000739996 -1.98481e-05
-1.41713e-06 -1.98481e-05 -0.000110708
8.65345e-05 -2.72139e-05 -6.12883e-05
-2.72139e-05 0.00028352 2.08071e-05
-6.12883e-05 2.08071e-05 6.85299e-05
0.00798828 0.000449789 -2.88668e-05
0.000449789 0.00300821 1.91467e-05
-2.88668e-05 1.91467e-05 0.00176482
0.000696388 -0.000140152 7.00143e-07
-0.000140152 -0.000178098 -1.61893e-06
7.00143e-07 -1.61893e-06 -0.000261965
0.00523218 0.000194624 1.97108e-05
0.000194624 0.00140822 1.05207e-05
1.97108e-05 1.05207e-05 0.00064006
0.00341171 1.92563e-05 4.09937e-05
1.92563e-05 0.000243732 -1.37038e-06
4.09937e-05 -1.37038e-06 -0.000276751
0.00252147 -0.000145535 -5.93231e-06
-0.000145535 0.000705124 1.595e-06
-5.93231e-06 1.595e-06 0.000565722
0.00179215 1.44629e-05 -6.12552e-05
1.44629e-05 0.000196979 -3.79787e-07
-6.12552e-05 -3.79787e-07 -9.34002e-05
0.000771293 -0.000141161 -3.46801e-07
-0.000141161 -0.000417764 -7.70154e-07
-3.46801e-07 -7.70154e-07 -0.000399176
0.00173738 -0.00019731 -7.00472e-07
-0.00019731 -6.83929e-05 1.85196e-06
-7.00472e-07 1.85196e-06 -8.28598e-05
0.00230096 -0.000143496 -5.19135e-06
-0.000143496 0.000170182 -1.11525e-06
-5.19135e-06 -1.11525e-06 0.000139508
0.00171115 -0.000196164 5.85558e-06
-0.000196164 7.46627e-05 2.59098e-06
5.85558e-06 2.59098e-06 -2.30403e-05
0.00182809 -0.000164239 1.11815e-07
-0.000164239 6.78384e-05 5.07348e-07
1.11815e-07 5.07348e-07 4.09101e-06
0.00182117 -0.000106147 -7.33157e-07
-0.000106147 2.62041e-05 1.78549e-06
-7.33157e-07 1.78549e-06 -3.10977e-05
0.0015211 -0.000151123 1.46986e-06
-0.000151123 2.7366e-05 3.02239e-06
1.46986e-06 3.02239e-06 -7.48991e-05
0.00173637 -0.000134293 1.41804e-07
-0.000134293 5.9695e-05 1.45185e-06
1.41804e-07 1.45185e-06 -1.67159e-05
0.00174082 -0.000106847 1.00792e-06
-0.000106847 5.39635e-05 2.53866e-06
1.00792e-06 2.53866e-06 -2.20542e-05
0.00136279 -0.000127344 3.12459e-06
-0.000127344 -1.39477e-05 3.65315e-06
3.12459e-06 3.65315e-06 -0.0001159
0.00160183 -0.00012135 -7.38691e-07
-0.00012135 6.84064e-05 1.22709e-06
-7.38691e-07 1.22709e-06 -1.53153e-05
0.00184717 -0.000111791 4.68641e-07
-0.000111791 0.000188229 6.25307e-07
4.68641e-07 6.25307e-07 0.000104893
0.00164402 -0.000115562 -2.29157e-06
-0.000115562 0.000150285 7.9444e-07
-2.29157e-06 7.9444e-07 6.36548e-05
0.00176435 -0.000117313 2.03397e-06
-0.000117313 0.000235258 -2.00028e-06
2.03397e-06 -2.00028e-06 0.000137187
0.00155037 -0.000122183 1.82575e-06
-0.000122183 0.000125361 4.14324e-06
1.82575e-06 4.14324e-06 2.74838e-05
0.00146831 -0.000122787 2.60401e-07
-0.000122787 0.000123003 -5.33489e-07
2.60401e-07 -5.33489e-07 1.4609e-05
0.00144348 -0.000119698 -1.16399e-06
-0.000119698 0.000137879 -1.42316e-06
-1.16399e-06 -1.42316e-06 2.61719e-05
0.000953196 -0.00010727 -3.42756e-06
-0.00010727 -3.72989e-05 9.88781e-07
-3.42756e-06 9.88781e-07 -0.000153927
0.00136303 -0.000127743 1.15184e-07
-0.000127743 0.000145141 -2.93581e-07
1.15184e-07 -2.93581e-07 2.18526e-05
0.0016175 -0.000142088 3.76762e-06
-0.000142088 0.000250549 7.80544e-07
3.76762e-06 7.80544e-07 0.000122229
0.00101217 -0.00010133 -2.41151e-06
-0.00010133 7.53357e-05 1.3481e-06
-2.41151e-06 1.3481e-06 -2.66916e-05
0.0009022 -0.000106381 -7.32415e-07
-0.000106381 -5.18424e-06 8.06817e-07
-7.32415e-07 8.06817e-07 -0.00012132
0.00135788 -0.000130429 3.28513e-06
-0.000130429 0.000210279 -1.77965e-06
3.28513e-06 -1.77965e-06 8.36623e-05
0.000748502 -3.86454e-05 -2.67205e-06
-3.86454e-05 -1.71714e-05 1.88469e-06
-2.67205e-06 1.88469e-06 -9.20912e-05
0.00103891 -9.75626e-05 8.49767e-08
-9.75626e-05 0.0001117 -2.15893e-07
8.49767e-08 -2.15893e-07 1.54822e-05
0.00114621 -0.000113554 1.5658e-06
-0.000113554 0.000158951 -1.69244e-06
1.5658e-06 -1.69244e-06 4.91148e-05
0.000582977 5.86524e-05 -6.16129e-07
5.86524e-05 -7.48066e-05 5.40576e-06
-6.16129e-07 5.40576e-06 -0.000108725
0.000833182 -2.58112e-05 5.45345e-08
-2.58112e-05 3.42003e-05 2.68173e-07
5.45345e-08 2.68173e-07 -3.78471e-05
0.00106763 -8.35515e-05 1.81761e-06
-8.35515e-05 0.000138737 -5.63318e-07
1.81761e-06 -5.63318e-07 4.79278e-05
0.00262103 7.83137e-05 -3.64459e-05
7.83137e-05 0.00101729 2.94822e-06
-3.64459e-05 2.94822e-06 0.00102353
0.000646151 5.99339e-05 6.70483e-08
5.99339e-05 -4.20189e-05 -1.62984e-07
6.70483e-08 -1.62984e-07 -6.96714e-05
0.000772207 -2.29429e-05 2.33112e-06
-2.29429e-05 4.91768e-06 -2.59735e-06
2.33112e-06 -2.59735e-06 -5.9808e-05
0.0024541 6.93269e-05 5.80937e-07
6.93269e-05 0.00092369 9.64545e-08
5.80937e-07 9.64545e-08 0.000932596
0.000720533 5.41245e-05 8.50026e-07
5.41245e-05 -9.24742e-06 -4.46477e-06
8.50026e-07 -4.46477e-06 -3.02137e-05
0.00233228 6.16648e-05 3.19901e-05
6.16648e-05 0.000852826 -3.14236e-06
3.19901e-05 -3.14236e-06 0.000864162
0.00101249 9.63486e-05 2.52563e-07
9.63486e-05 0.000133175 3.57854e-07
2.52563e-07 3.57854e-07 3.82922e-05
0.000896244 6.56639e-05 3.44823e-07
6.56639e-05 7.60678e-05 1.22898e-07
3.44823e-07 1.22898e-07 -9.24668e-06
0.000801555 -1.73252e-05 -7.21682e-07
-1.73252e-05 2.10349e-05 -6.42472e-07
-7.21682e-07 -6.42472e-07 -5.69658e-05
0.000885112 -1.2663e-05 -3.89865e-08
-1.2663e-05 6.1377e-05 9.76747e-07
-3.89865e-08 9.76747e-07 -1.367e-05
0.000839414 -3.65313e-05 7.18956e-08
-3.65313e-05 3.71483e-05 9.11338e-08
7.18956e-08 9.11338e-08 -3.27354e-05
0.000739944 -4.11159e-05 -1.03688e-06
-4.11159e-05 -1.12751e-05 -2.3404e-06
-1.03688e-06 -2.3404e-06 -6.08774e-05
0.000831145 -4.51001e-05 4.21115e-08
-4.51001e-05 2.42937e-05 1.58775e-06
4.21115e-08 1.58775e-06 -3.87826e-05
0.00076499 -4.48644e-05 -2.77753e-09
-4.48644e-05 -3.86808e-06 -1.18135e-07
-2.77753e-09 -1.18135e-07 -4.71039e-05
0.000731057 -4.40715e-05 -2.27179e-06
-4.40715e-05 -1.5058e-05 -3.76137e-06
-2.27179e-06 -3.76137e-06 -2.95758e-05
0.00225522 -5.46391e-05 -2.80324e-05
-5.46391e-05 0.000803142 -3.3228e-06
-2.80324e-05 -3.3228e-06 0.000816727
0.000720249 -3.66908e-05 -6.96887e-08
-3.66908e-05 -2.88775e-05 2.53531e-08
-6.96887e-08 2.53531e-08 -4.05819e-05
0.000776719 -3.64905e-05 1.49322e-06
-3.64905e-05 -4.07115e-06 2.01775e-06
1.49322e-06 2.01775e-06 -4.32339e-05
0.00225096 -4.86518e-05 -1.25564e-06
-4.86518e-05 0.000792524 9.65023e-08
-1.25564e-06 9.65023e-08 0.000807837
0.000707488 -3.22568e-05 1.46981e-06
-3.22568e-05 -4.17535e-05 3.58884e-06
1.46981e-06 3.58884e-06 -5.16368e-05
0.00221464 -4.22944e-05 2.04371e-05
-4.22944e-05 0.00076573 3.73217e-06
2.04371e-05 3.73217e-06 0.000782808
0.00729976 6.22588e-05 5.56226e-05
6.22588e-05 0.00219767 1.02188e-05
5.56226e-05 1.02188e-05 0.00139375
-0.00234292 -9.38189e-05 -4.30167e-06
-9.38189e-05 -0.00114071 8.30489e-07
-4.30167e-06 8.30489e-07 -0.00104513
-0.00101955 -9.27003e-05 -3.90036e-05
-9.27003e-05 -0.000366906 -3.69789e-06
-3.90036e-05 -3.69789e-06 -0.000645272
0.000879884 -5.98067e-06 1.78266e-07
-5.98067e-06 6.84373e-05 9.31036e-07
1.78266e-07 9.31036e-07 -1.84235e-05
0.000836815 8.28535e-05 -2.67341e-07
8.28535e-05 6.1577e-05 -2.55335e-07
-2.67341e-07 -2.55335e-07 -2.9906e-05
0.00104116 7.66961e-05 4.86745e-07
7.66961e-05 0.000170062 -8.60087e-09
4.86745e-07 -8.60087e-09 7.298e-05
0.00101214 0.000103512 -8.61589e-07
0.000103512 0.000144123 -1.60864e-07
-8.61589e-07 -1.60864e-07 4.53026e-05
0.00113385 0.000112819 6.16316e-06
0.000112819 0.000196769 1.78338e-06
6.16316e-06 1.78338e-06 9.03971e-05
0.000649252 8.46508e-05 -8.62612e-07
8.46508e-05 -3.56179e-05 1.40993e-06
-8.62612e-07 1.40993e-06 -0.000134511
0.000582222 4.96243e-05 -3.18208e-07
4.96243e-05 -7.50463e-05 -9.92098e-08
-3.18208e-07 -9.92098e-08 -0.00016545
0.000602525 8.24215e-05 4.96948e-07
8.24215e-05 -6.36316e-05 1.93069e-08
4.96948e-07 1.93069e-08 -0.000166395
0.000792526 7.6267e-05 2.19582e-07
7.6267e-05 1.51352e-05 -2.41796e-08
2.19582e-07 -2.41796e-08 -7.9428e-05
0.000233668 8.22014e-05 1.50596e-06
8.22014e-05 -0.000310776 3.45302e-07
1.50596e-06 3.45302e-07 -0.000411994
0.00302582 0.000226005 1.31969e-06
0.000226005 0.00102049 -7.00704e-07
1.31969e-06 -7.00704e-07 0.000908805
0.00169422 0.000197635 3.26687e-06
0.000197635 0.000171216 -1.09646e-06
3.26687e-06 -1.09646e-06 4.37145e-05
0.00136248 0.00016182 1.31277e-06
0.00016182 0.000188167 -8.90604e-07
1.31277e-06 -8.90604e-07 7.87961e-05
0.00097231 5.70642e-05 -3.31748e-06
5.70642e-05 0.000131381 1.40449e-06
-3.31748e-06 1.40449e-06 4.96081e-05
0.00242988 -3.71911e-05 -2.41588e-05
-3.71911e-05 -0.000142248 -1.0176e-05
-2.41588e-05 -1.0176e-05 -0.000392488
0.00479099 -0.000108707 7.98263e-06
-0.000108707 0.00109078 1.33777e-06
7.98263e-06 1.33777e-06 8.59946e-05
0.00464962 -0.000485981 -3.70279e-05
-0.000485981 0.00218343 -2.90015e-05
-3.70279e-05 -2.90015e-05 0.00221099
0.00723382 -0.000148175 0.000191887
-0.000148175 0.0022341 5.81002e-05
0.000191887 5.81002e-05 0.00090728
0.0035277 0.000301156 4.69915e-05
0.000301156 0.000818797 4.77722e-05
4.69915e-05 4.77722e-05 0.000631281
0.00208307 0.000156156 -4.77016e-05
0.000156156 5.42923e-05 -1.56186e-05
-4.77016e-05 -1.56186e-05 -0.000212456
0.00191265 0.000218851 3.05928e-05
0.000218851 0.000106945 1.72068e-05
3.05928e-05 1.72068e-05 9.3092e-05
0.00197648 0.00028124 -2.04459e-06
0.00028124 0.000285627 5.22532e-06
-2.04459e-06 5.22532e-06 0.00015817
0.000242844 0.000127203 -2.69317e-06
0.000127203 -0.000291441 3.81766e-06
-2.69317e-06 3.81766e-06 -0.000427701
0.00201871 0.000295795 -6.94253e-05
0.000295795 0.000286715 -4.66282e-05
-6.94253e-05 -4.66282e-05 0.000223778
0.00328193 -9.08277e-05 -0.000141695
-9.08277e-05 0.000835866 -4.82709e-07
-0.000141695 -4.82709e-07 0.000433489
0.00715642 3.66918e-05 1.46555e-05
3.66918e-05 0.00242022 -2.41127e-06
1.46555e-05 -2.41127e-06 0.00177427
-0.00519889 -6.48738e-05 1.94474e-05
-6.48738e-05 -0.00274411 3.5941e-06
1.94474e-05 3.5941e-06 -0.00253776
0.00142193 -0.000160117 -1.02044e-06
-0.000160117 0.000169304 8.46522e-06
-1.02044e-06 8.46522e-06 0.00010587
0.00497484 -8.56008e-06 6.72089e-05
-8.56008e-06 0.00104883 -7.46916e-07
6.72089e-05 -7.46916e-07 0.000578904
0.000907505 -0.000164071 5.77259e-05
-0.000164071 -0.000524221 1.35797e-05
5.77259e-05 1.35797e-05 -0.00121802
0.0013547 -0.00010565 4.95962e-06
-0.00010565 0.000122288 9.98799e-08
4.95962e-06 9.98799e-08 3.34296e-05
0.00159959 7.78406e-05 -1.6279e-06
7.78406e-05 -1.55432e-05 -1.78095e-06
-1.6279e-06 -1.78095e-06 -0.000278074
0.00363143 -7.27327e-05 3.76232e-06
-7.27327e-05 0.00103598 -7.77472e-06
3.76232e-06 -7.77472e-06 0.000979282
0.00131303 4.47729e-05 2.15022e-05
4.47729e-05 -0.000132429 -1.65002e-06
2.15022e-05 -1.65002e-06 -0.000239151
0.00126441 -0.000190119 1.03352e-06
-0.000190119 -0.000271243 1.55387e-06
1.03352e-06 1.55387e-06 -0.000307451
0.00201186 -0.000140115 -2.14496e-07
-0.000140115 2.84726e-05 -8.44583e-07
-2.14496e-07 -8.44583e-07 -5.73425e-06
0.0022116 -4.00879e-05 2.27465e-06
-4.00879e-05 0.000205228 -1.78493e-06
2.27465e-06 -1.78493e-06 0.000156523
0.00185594 -0.000162246 6.55281e-06
-0.000162246 9.65034e-05 8.04625e-08
6.55281e-06 8.04625e-08 3.20775e-05
0.00189985 -0.000106939 2.0931e-06
-0.000106939 7.68376e-05 -3.32952e-07
2.0931e-06 -3.32952e-07 1.77992e-05
0.00190297 -5.65772e-05 1.72842e-06
-5.65772e-05 0.000127121 6.99e-07
1.72842e-06 6.99e-07 4.97415e-05
0.00185876 -0.000136536 3.76891e-06
-0.000136536 0.000127044 2.39157e-06
3.76891e-06 2.39157e-06 4.90853e-05
0.00180746 -0.000107598 8.69766e-07
-0.000107598 9.6837e-05 9.77965e-08
8.69766e-07 9.77965e-08 1.89895e-05
0.00189053 -8.51966e-05 -3.32579e-07
-8.51966e-05 0.00016398 2.3501e-06
-3.32579e-07 2.3501e-06 7.25421e-05
0.00153934 -0.000120515 1.48142e-06
-0.000120515 4.23372e-05 1.72014e-06
1.48142e-06 1.72014e-06 -4.32125e-05
0.00161935 -0.00010892 7.14066e-07
-0.00010892 8.2845e-05 -7.85676e-07
7.14066e-07 -7.85676e-07 -7.15386e-08
0.00147545 -9.84762e-05 2.83929e-06
-9.84762e-05 3.99397e-05 8.74701e-07
2.83929e-06 8.74701e-07 -5.71045e-05
0.00133521 -0.000107861 -9.02611e-07
-0.000107861 -7.82531e-06 2.83343e-06
-9.02611e-07 2.83343e-06 -9.15181e-05
0.00159593 -0.00011193 -1.32547e-06
-0.00011193 0.000146836 -1.10258e-06
-1.32547e-06 -1.10258e-06 5.06426e-05
0.00174829 -0.000115657 3.21481e-07
-0.000115657 0.000253178 -8.96874e-07
3.21481e-07 -8.96874e-07 0.000146115
0.00145458 -0.000121232 1.25178e-06
-0.000121232 0.000114881 2.0029e-06
1.25178e-06 2.0029e-06 6.28811e-06
0.00144176 -0.000118629 3.78769e-07
-0.000118629 0.000136703 -4.48812e-07
3.78769e-07 -4.48812e-07 2.47288e-05
0.00148738 -0.000117937 -1.98654e-06
-0.000117937 0.000191285 -1.99853e-07
-1.98654e-06 -1.99853e-07 8.05337e-05
0.000764666 -9.14958e-05 -4.14874e-06
-9.14958e-05 -9.8762e-05 1.63822e-06
-4.14874e-06 1.63822e-06 -0.000203742
0.00104966 -0.000110076 -5.80207e-07
-0.000110076 1.64101e-05 4.61908e-07
-5.80207e-07 4.61908e-07 -9.94834e-05
0.00135009 -0.000126164 2.85104e-06
-0.000126164 0.000138852 -3.25318e-07
2.85104e-06 -3.25318e-07 1.51917e-05
0.000829869 -6.39242e-05 -3.46353e-06
-6.39242e-05 1.24528e-05 2.00801e-06
-3.46353e-06 2.00801e-06 -6.7346e-05
0.00105818 -0.000102972 1.51966e-07
-0.000102972 9.7903e-05 6.21063e-08
1.51966e-07 6.21063e-08 -4.10956e-06
0.00101763 -0.000110821 1.20137e-06
-0.000110821 5.70733e-05 -6.21081e-07
1.20137e-06 -6.21081e-07 -5.8238e-05
0.000621464 3.91431e-05 -3.69272e-06
3.91431e-05 -5.44295e-05 5.16069e-06
-3.69272e-06 5.16069e-06 -9.33175e-05
0.0008565 -4.19833e-05 1.51341e-07
-4.19833e-05 4.02569e-05 1.72298e-08
1.51341e-07 1.72298e-08 -3.57205e-05
0.0011181 -0.000101757 2.27399e-06
-0.000101757 0.000151521 -1.3255e-06
2.27399e-06 -1.3255e-06 5.48688e-05
0.00287962 8.83491e-05 -4.23161e-05
8.83491e-05 0.00115772 2.96244e-06
-4.23161e-05 2.96244e-06 0.00116071
0.000642272 4.35813e-05 5.87065e-07
4.35813e-05 -4.6591e-05 -6.5992e-08
5.87065e-07 -6.5992e-08 -7.88756e-05
0.00084951 -2.9072e-05 3.02034e-06
-2.9072e-05 4.14026e-05 -2.21138e-06
3.02034e-06 -2.21138e-06 -3.04399e-05
0.00267465 7.80031e-05 7.34834e-07
7.80031e-05 0.00104519 1.18348e-07
7.34834e-07 1.18348e-07 0.00105117
0.000684841 5.33418e-05 1.59248e-06
5.33418e-05 -2.24855e-05 -4.88039e-06
1.59248e-06 -4.88039e-06 -4.95592e-05
0.00251066 6.92198e-05 3.70091e-05
6.92198e-05 0.000953595 -3.13139e-06
3.70091e-05 -3.13139e-06 0.000962284
0.00108236 0.000106002 -4.24358e-07
0.000106002 0.000160777 -9.31912e-07
-4.24358e-07 -9.31912e-07 5.86356e-05
0.0010555 9.87524e-05 2.56978e-07
9.87524e-05 0.000155898 1.47406e-07
2.56978e-07 1.47406e-07 6.13143e-05
0.000944734 4.69059e-05 -1.23474e-06
4.69059e-05 9.27776e-05 -3.78261e-07
-1.23474e-06 -3.78261e-07 7.52267e-06
0.000861871 8.35009e-05 1.89459e-07
8.35009e-05 6.15763e-05 -9.07355e-08
1.89459e-07 -9.07355e-08 -2.59602e-05
0.000802822 -3.05755e-06 -4.26789e-07
-3.05755e-06 2.25564e-05 -9.22545e-08
-4.26789e-07 -9.22545e-08 -5.68049e-05
0.000741212 -6.04784e-06 -2.16026e-06
-6.04784e-06 -7.65691e-06 -1.85729e-06
-2.16026e-06 -1.85729e-06 -6.67436e-05
0.000817248 -4.56572e-05 1.03956e-07
-4.56572e-05 2.62907e-05 1.26324e-06
1.03956e-07 1.26324e-06 -4.5004e-05
0.00075665 -4.11342e-05 1.35894e-07
-4.11342e-05 -2.46612e-06 -2.62899e-07
1.35894e-07 -2.62899e-07 -5.20489e-05
0.000714413 -5.3254e-05 -1.46525e-06
-5.3254e-05 -1.37005e-05 -4.10981e-06
-1.46525e-06 -4.10981e-06 -3.29897e-05
0.000780404 -4.52644e-05 1.0025e-06
-4.52644e-05 3.45202e-06 2.21902e-06
1.0025e-06 2.21902e-06 -3.95654e-05
0.000709533 -4.2029e-05 1.01075e-07
-4.2029e-05 -2.67997e-05 -3.06342e-08
1.01075e-07 -3.06342e-08 -4.09599e-05
0.00230387 -6.10166e-05 -3.1031e-05
-6.10166e-05 0.000836966 -3.09488e-06
-3.1031e-05 -3.09488e-06 0.000848562
0.00226408 -5.46707e-05 -7.39378e-07
-5.46707e-05 0.000806819 9.23847e-08
-7.39378e-07 9.23847e-08 0.000820503
0.000703118 -3.57821e-05 2.18606e-06
-3.57821e-05 -3.77637e-05 3.6385e-06
2.18606e-06 3.6385e-06 -4.93747e-05
0.00225422 -4.87094e-05 2.37506e-05
-4.87094e-05 0.000793543 3.60925e-06
2.37506e-05 3.60925e-06 0.000808929
0.00128998 -6.69768e-05 -5.77374e-05
-6.69768e-05 -0.000320429 -1.92315e-07
-5.77374e-05 -1.92315e-07 -0.000583432
0.00176299 -0.000138017 7.25278e-06
-0.000138017 -0.000440206 5.36044e-07
7.25278e-06 5.36044e-07 -0.0011367
0.00241096 -0.000306122 -4.60669e-05
-0.000306122 0.00100345 -1.1801e-05
-4.60669e-05 -1.1801e-05 0.00114908
0.00121487 0.000121478 6.38598e-06
0.000121478 0.000190788 1.72116e-06
6.38598e-06 1.72116e-06 7.88708e-05
0.00112525 7.98399e-05 2.97828e-07
7.98399e-05 0.000214998 -5.70304e-07
2.97828e-07 -5.70304e-07 0.000117996
0.000924711 9.902e-05 -7.04566e-07
9.902e-05 9.92469e-05 -4.1216e-07
-7.04566e-07 -4.1216e-07 8.71359e-07
0.000900721 9.78715e-05 2.56545e-07
9.78715e-05 9.68354e-05 2.95636e-07
2.56545e-07 2.95636e-07 -3.69574e-06
0.00102331 0.000107833 -1.93327e-07
0.000107833 0.000142631 -7.69715e-07
-1.93327e-07 -7.69715e-07 3.56271e-05
0.000616364 9.30541e-05 -3.47557e-07
9.30541e-05 -9.38868e-05 1.67904e-06
-3.47557e-07 1.67904e-06 -0.00018622
0.00104327 0.000106606 3.10197e-08
0.000106606 0.000163581 -1.55384e-06
3.10197e-08 -1.55384e-06 5.59534e-05
0.000957831 7.26475e-05 -1.50609e-06
7.26475e-05 0.000105813 1.64351e-06
-1.50609e-06 1.64351e-06 8.61659e-06
0.000946187 0.000116846 2.3196e-07
0.000116846 5.50829e-05 -1.87543e-07
2.3196e-07 -1.87543e-07 -4.68517e-05
0.00221668 0.000190269 6.552e-07
0.000190269 0.000620804 2.39251e-06
6.552e-07 2.39251e-06 0.000511352
0.00162882 0.000177475 1.48523e-06
0.000177475 0.000177937 -1.60638e-06
1.48523e-06 -1.60638e-06 5.67639e-05
0.00184791 0.00016488 8.33827e-06
0.00016488 8.94373e-05 7.19459e-06
8.33827e-06 7.19459e-06 -3.6675e-05
0.0012652 0.000179316 2.51907e-07
0.000179316 -4.44876e-05 1.43409e-08
2.51907e-07 1.43409e-08 -0.000171702
0.000831613 0.000134726 -1.48575e-06
0.000134726 -7.73765e-05 3.83163e-06
-1.48575e-06 3.83163e-06 -0.000181743
0.000356205 5.81032e-05 -6.20005e-06
5.81032e-05 -0.000431116 1.90812e-06
-6.20005e-06 1.90812e-06 -0.000437351
0.00395133 -2.14445e-05 -1.1886e-05
-2.14445e-05 0.000434668 1.34663e-06
-1.1886e-05 1.34663e-06 0.000115973
0.00132486 -0.000155905 9.27024e-06
-0.000155905 -0.000563845 7.17964e-06
9.27024e-06 7.17964e-06 -0.00148681
0.00287229 0.000236261 5.25729e-05
0.000236261 0.000239266 2.25399e-05
5.25729e-05 2.25399e-05 -0.000162671
0.00127934 0.000180917 -9.72809e-06
0.000180917 -0.000108203 1.84363e-08
-9.72809e-06 1.84363e-08 -0.000136876
0.000412896 0.000199724 -1.80038e-05
0.000199724 -0.000425349 -1.25578e-05
-1.80038e-05 -1.25578e-05 -0.000558676
0.0025866 -8.78871e-05 1.41933e-05
-8.78871e-05 0.000489505 -4.44141e-06
1.41933e-05 -4.44141e-06 0.00038476
0.00131399 -6.46618e-06 -2.24818e-05
-6.46618e-06 9.55097e-06 2.62584e-06
-2.24818e-05 2.62584e-06 -0.000348053
0.000707451 0.000220927 4.47817e-05
0.000220927 -0.000955353 -1.19984e-05
4.47817e-05 -1.19984e-05 -0.00155564
0.000352569 -6.56087e-05 -5.11177e-06
-6.56087e-05 -0.000407109 1.20719e-05
-5.11177e-06 1.20719e-05 -0.000434332
0.00354324 0.000133214 3.38095e-05
0.000133214 0.000810753 -3.08203e-06
3.38095e-05 -3.08203e-06 0.000504516
0.00171289 -4.36625e-05 4.33546e-06
-4.36625e-05 3.91483e-05 -1.66084e-06
4.33546e-06 -1.66084e-06 4.76081e-06
0.00204795 5.9749e-05 1.13427e-06
5.9749e-05 0.000251393 -2.35897e-06
1.13427e-06 -2.35897e-06 0.00015654
0.00114111 1.88957e-05 5.51135e-06
1.88957e-05 -0.000346081 -2.87821e-06
5.51135e-06 -2.87821e-06 -0.000419
0.00237445 2.97273e-05 -7.26521e-07
2.97273e-05 0.000368661 -3.06346e-06
-7.26521e-07 -3.06346e-06 0.000278806
0.00173823 -0.000134184 7.26579e-07
-0.000134184 -0.000100479 -5.02731e-07
7.26579e-07 -5.02731e-07 -0.000137247
0.00197205 -4.11742e-05 3.53186e-06
-4.11742e-05 7.14528e-05 3.06308e-07
3.53186e-06 3.06308e-07 1.81294e-05
0.00201408 -1.97293e-05 1.06785e-07
-1.97293e-05 0.000203446 -1.39824e-06
1.06785e-07 -1.39824e-06 0.000125887
0.00200324 -0.000108042 8.03103e-07
-0.000108042 0.000139101 -3.09656e-09
8.03103e-07 -3.09656e-09 7.76126e-05
0.00183333 -6.04779e-05 2.80294e-07
-6.04779e-05 8.87314e-05 -1.86977e-07
2.80294e-07 -1.86977e-07 1.01591e-05
0.0018131 -4.70487e-05 8.85907e-08
-4.70487e-05 0.000131626 -3.34542e-07
8.85907e-08 -3.34542e-07 3.54835e-05
0.00188961 -0.000108743 -1.15492e-06
-0.000108743 0.000147657 -5.39163e-08
-1.15492e-06 -5.39163e-08 6.80668e-05
0.00181055 -8.73304e-05 -4.6389e-07
-8.73304e-05 0.000130865 -5.94371e-07
-4.6389e-07 -5.94371e-07 4.03247e-05
0.00152462 -7.46437e-05 3.8009e-07
-7.46437e-05 2.53587e-05 2.23413e-06
3.8009e-07 2.23413e-06 -7.67536e-05
0.00138062 -0.000105757 1.45892e-07
-0.000105757 -2.8215e-05 -3.00332e-06
1.45892e-07 -3.00332e-06 -0.000110676
0.0015451 -9.98524e-05 7.06457e-07
-9.98524e-05 7.46058e-05 -7.26369e-07
7.06457e-07 -7.26369e-07 -2.25669e-05
0.00152179 -0.000100142 5.25556e-07
-0.000100142 9.07666e-05 4.99245e-07
5.25556e-07 4.99245e-07 -1.59787e-05
0.00142802 -0.000106624 -3.34154e-06
-0.000106624 5.87098e-05 1.09908e-06
-3.34154e-06 1.09908e-06 -3.5625e-05
0.00156117 -0.000109078 -2.56899e-07
-0.000109078 0.000154431 -7.48962e-07
-2.56899e-07 -7.48962e-07 4.84418e-05
0.00145503 -0.000104905 -1.8329e-06
-0.000104905 0.000131401 1.45465e-07
-1.8329e-06 1.45465e-07 2.21759e-05
0.00144032 -0.000117567 1.90531e-06
-0.000117567 0.000135623 5.77837e-07
1.90531e-06 5.77837e-07 2.33883e-05
0.00129382 -0.000110614 4.75853e-07
-0.000110614 9.06356e-05 -2.90407e-07
4.75853e-07 -2.90407e-07 -2.0408e-05
0.00128974 -0.00010468 -3.96107e-06
-0.00010468 0.00012879 9.5497e-07
-3.96107e-06 9.5497e-07 2.50043e-05
0.000911693 -7.61111e-05 -4.45331e-06
-7.61111e-05 2.63151e-05 2.17266e-06
-4.45331e-06 2.17266e-06 -5.74329e-05
0.000894244 -9.62993e-05 -9.22515e-07
-9.62993e-05 -2.86986e-05 5.98267e-07
-9.22515e-07 5.98267e-07 -0.000132895
0.00113252 -0.000112228 2.05116e-06
-0.000112228 6.31204e-05 -1.79406e-07
2.05116e-06 -1.79406e-07 -5.19882e-05
0.000628201 -1.87385e-05 -6.35632e-06
-1.87385e-05 -5.07514e-05 5.4432e-06
-6.35632e-06 5.4432e-06 -9.50481e-05
0.000885046 -6.65903e-05 1.91823e-07
-6.65903e-05 4.15038e-05 -1.05422e-08
1.91823e-07 -1.05422e-08 -3.88875e-05
0.00110647 -0.000104893 2.79898e-06
-0.000104893 0.000121504 -1.25986e-06
2.79898e-06 -1.25986e-06 1.94954e-05
0.00305038 9.76009e-05 -4.77665e-05
9.76009e-05 0.0012565 2.94709e-06
-4.77665e-05 2.94709e-06 0.00125558
0.000668518 9.52269e-06 -2.03885e-07
9.52269e-06 -3.46142e-05 -1.42126e-07
-2.03885e-07 -1.42126e-07 -7.23699e-05
0.000924207 -4.75599e-05 3.65122e-06
-4.75599e-05 7.56896e-05 -2.22696e-06
3.65122e-06 -2.22696e-06 -7.82355e-07
0.00288338 8.64989e-05 1.05683e-06
8.64989e-05 0.00116038 1.61382e-07
1.05683e-06 1.61382e-07 0.00116315
0.00068672 3.48973e-05 4.61404e-06
3.48973e-05 -2.26984e-05 -4.85631e-06
4.61404e-06 -4.85631e-06 -5.5513e-05
0.00272631 7.70356e-05 4.28272e-05
7.70356e-05 0.00107209 -3.27068e-06
4.28272e-05 -3.27068e-06 0.00107789
0.000874127 0.000102414 -4.64955e-07
0.000102414 2.19539e-05 -8.76272e-07
-4.64955e-07 -8.76272e-07 -8.66751e-05
0.00100311 0.000101614 -5.9329e-08
0.000101614 0.00011919 -5.81061e-07
-5.9329e-08 -5.81061e-07 1.76924e-05
0.00108755 9.21907e-05 -9.6947e-07
9.21907e-05 0.000157243 -2.88891e-07
-9.6947e-07 -2.88891e-07 6.60329e-05
0.00109696 0.0001012 -1.92576e-07
0.0001012 0.000177617 -5.26077e-07
-1.92576e-07 -5.26077e-07 8.33431e-05
0.000924045 4.90967e-05 -7.65906e-07
4.90967e-05 8.20111e-05 -3.5963e-07
-7.65906e-07 -3.5963e-07 -2.5477e-06
0.000792777 1.26778e-05 -2.18667e-06
1.26778e-05 1.96088e-05 -1.53794e-06
-2.18667e-06 -1.53794e-06 -4.80221e-05
0.000805018 1.23426e-05 1.13946e-07
1.23426e-05 2.37804e-05 6.26156e-08
1.13946e-07 6.26156e-08 -5.63628e-05
0.000765369 -3.24211e-05 -2.2024e-07
-3.24211e-05 5.70022e-06 -1.45595e-08
-2.2024e-07 -1.45595e-08 -5.30197e-05
0.000681536 -6.19975e-05 -7.83455e-07
-6.19975e-05 -2.11572e-05 -4.40866e-06
-7.83455e-07 -4.40866e-06 -4.70406e-05
0.000772612 -4.56337e-05 9.98281e-07
-4.56337e-05 6.57742e-06 2.36883e-06
9.98281e-07 2.36883e-06 -4.32983e-05
0.000689363 -5.02006e-05 8.98404e-08
-5.02006e-05 -2.79839e-05 -8.41585e-08
8.98404e-08 -8.41585e-08 -4.65115e-05
0.00241614 -6.80657e-05 -3.49578e-05
-6.80657e-05 0.000903757 -2.90873e-06
-3.49578e-05 -2.90873e-06 0.000912974
0.000696841 -4.05036e-05 2.68925e-06
-4.05036e-05 -3.38273e-05 3.63319e-06
2.68925e-06 3.63319e-06 -4.76972e-05
0.00229049 -6.09616e-05 -4.1974e-07
-6.09616e-05 0.000828803 8.04271e-08
-4.1974e-07 8.04271e-08 0.000840594
0.00227049 -5.45949e-05 2.70497e-05
-5.45949e-05 0.000809343 3.42811e-06
2.70497e-05 3.42811e-06 0.000823125
0.000506261 -2.17434e-05 1.07679e-06
-2.17434e-05 -0.000410089 -3.10062e-07
1.07679e-06 -3.10062e-07 -0.000446252
0.00323864 -5.02102e-05 2.127e-06
-5.02102e-05 0.000379106 1.09496e-05
2.127e-06 1.09496e-05 2.94638e-05
0.00586893 0.000151174 -7.57747e-05
0.000151174 0.00177292 -1.05551e-05
-7.57747e-05 -1.05551e-05 0.000984807
0.000828659 9.95911e-05 3.13428e-06
9.95911e-05 -3.36504e-05 1.23435e-06
3.13428e-06 1.23435e-06 -0.000134214
0.00143453 0.000135887 3.95649e-06
0.000135887 0.000195904 -1.60222e-06
3.95649e-06 -1.60222e-06 7.74901e-05
0.000804378 0.000103426 -1.55236e-08
0.000103426 -1.36315e-05 -7.8231e-07
-1.55236e-08 -7.8231e-07 -0.000123679
0.0011248 0.00010967 -1.1468e-06
0.00010967 0.000213872 -1.94518e-06
-1.1468e-06 -1.94518e-06 0.000112004
0.000946817 0.000104493 -8.92715e-07
0.000104493 0.000105742 -1.07667e-06
-8.92715e-07 -1.07667e-06 -2.00802e-06
0.00100664 0.000113538 2.4807e-06
0.000113538 9.83831e-05 1.30308e-06
2.4807e-06 1.30308e-06 3.21616e-06
0.00161504 0.000163514 -2.62629e-06
0.000163514 0.00018356 -3.77231e-06
-2.62629e-06 -3.77231e-06 7.15315e-05
0.00153172 0.000145075 1.00961e-06
0.000145075 0.000357412 -1.23797e-07
1.00961e-06 -1.23797e-07 0.00025507
0.000968343 0.000134493 -1.97519e-06
0.000134493 8.59415e-07 6.04849e-06
-1.97519e-06 6.04849e-06 -0.000105331
0.00164922 0.00017778 -1.16653e-06
0.00017778 0.000194803 8.47148e-08
-1.16653e-06 8.47148e-08 7.49568e-05
0.00167137 0.000155491 -1.99602e-06
0.000155491 4.93934e-05 -6.88674e-07
-1.99602e-06 -6.88674e-07 -8.18771e-05
0.00149175 4.91508e-05 1.0932e-05
4.91508e-05 -0.000137209 4.26384e-06
1.0932e-05 4.26384e-06 -0.000228236
0.00198839 0.000164471 5.24521e-06
0.000164471 0.000167584 2.3565e-06
5.24521e-06 2.3565e-06 4.24903e-05
0.00124234 0.000175425 -4.78002e-06
0.000175425 -5.60607e-05 1.50244e-06
-4.78002e-06 1.50244e-06 -0.000182756
0.00100595 5.09218e-05 -7.14785e-07
5.09218e-05 -0.000108556 -4.74502e-07
-7.14785e-07 -4.74502e-07 -0.000120657
0.00484116 -0.000123339 4.72729e-05
-0.000123339 0.000766198 2.01107e-05
4.72729e-05 2.01107e-05 0.000415155
0.00160029 0.000168913 2.18332e-06
0.000168913 0.00013525 -7.67843e-06
2.18332e-06 -7.67843e-06 9.71711e-05
0.00155675 -1.69635e-05 7.01182e-06
-1.69635e-05 1.81002e-05 -1.26691e-06
7.01182e-06 -1.26691e-06 -5.8486e-05
0.00189552 -5.24235e-05 -1.46714e-06
-5.24235e-05 0.000183956 6.0792e-07
-1.46714e-06 6.0792e-07 5.81537e-05
0.000722885 6.95165e-05 5.18803e-05
6.95165e-05 -0.000486273 -6.2076e-08
5.18803e-05 -6.2076e-08 -0.000921644
-0.000100652 -2.44195e-05 -9.40103e-06
-2.44195e-05 -0.000886888 5.37845e-06
-9.40103e-06 5.37845e-06 -0.000904054
0.00252933 6.15068e-05 -3.32542e-05
6.15068e-05 0.000511569 3.68849e-06
-3.32542e-05 3.68849e-06 0.000431993
0.00128796 8.81569e-06 3.29437e-07
8.81569e-06 -0.000280379 3.67504e-06
3.29437e-07 3.67504e-06 -0.000345496
0.00218046 2.05387e-05 1.06112e-06
2.05387e-05 0.000238033 7.35701e-07
1.06112e-06 7.35701e-07 0.000149649
0.00194483 -1.45466e-05 9.6188e-07
-1.45466e-05 0.000127029 -7.3103e-08
9.6188e-07 -7.3103e-08 4.55851e-05
0.00154372 -3.94778e-06 1.37108e-06
-3.94778e-06 -8.97666e-05 -1.27807e-06
1.37108e-06 -1.27807e-06 -0.000174709
0.00167745 -4.38363e-05 4.75371e-06
-4.38363e-05 -9.64641e-05 1.55818e-06
4.75371e-06 1.55818e-06 -0.000153875
0.00177534 -2.08155e-05 -1.74929e-06
-2.08155e-05 7.56888e-05 -5.67284e-08
-1.74929e-06 -5.67284e-08 -1.14736e-06
0.00179986 -2.02163e-05 7.09709e-07
-2.02163e-05 0.000116265 -6.79472e-07
7.09709e-07 -6.79472e-07 2.51299e-05
0.00184935 -6.48671e-05 -2.99467e-06
-6.48671e-05 9.51872e-05 -7.08318e-07
-2.99467e-06 -7.08318e-07 1.60067e-05
0.00176059 -4.67394e-05 -6.88506e-07
-4.67394e-05 0.000106212 -2.85702e-07
-6.88506e-07 -2.85702e-07 1.02458e-05
0.0016155 -3.9805e-05 -7.36286e-07
-3.9805e-05 5.44497e-05 -3.0828e-07
-7.36286e-07 -3.0828e-07 -4.94115e-05
0.0017304 -8.92778e-05 -3.22617e-06
-8.92778e-05 9.79679e-05 -2.06652e-06
-3.22617e-06 -2.06652e-06 8.25738e-06
0.00163603 -7.62802e-05 4.74294e-07
-7.62802e-05 8.02046e-05 8.66413e-07
4.74294e-07 8.66413e-07 -2.20514e-05
0.00158466 -7.87285e-05 -4.60392e-07
-7.87285e-05 7.9233e-05 5.59799e-07
-4.60392e-07 5.59799e-07 -2.68863e-05
0.00161692 -0.00010126 -1.04626e-06
-0.00010126 0.000110381 -2.29108e-06
-1.04626e-06 -2.29108e-06 1.30839e-05
0.00152536 -9.92989e-05 2.57478e-07
-9.92989e-05 9.18126e-05 -1.40515e-07
2.57478e-07 -1.40515e-07 -1.48958e-05
0.0014588 -9.80535e-05 -1.61198e-06
-9.80535e-05 9.23864e-05 7.11184e-07
-1.61198e-06 7.11184e-07 -1.74401e-05
0.00137495 -0.000102586 -3.62978e-07
-0.000102586 5.61466e-05 -8.34748e-08
-3.62978e-07 -8.34748e-08 -4.878e-05
0.00130366 -0.000100004 -1.54967e-07
-0.000100004 5.35823e-05 -2.68945e-07
-1.54967e-07 -2.68945e-07 -5.52858e-05
0.00125703 -9.52901e-05 -4.03163e-06
-9.52901e-05 7.46714e-05 1.07512e-06
-4.03163e-06 1.07512e-06 -2.87451e-05
0.0010968 -0.000103218 2.75341e-06
-0.000103218 -1.17055e-05 -2.82413e-07
2.75341e-06 -2.82413e-07 -0.000123059
0.00107579 -9.62042e-05 2.18111e-07
-9.62042e-05 1.77391e-05 -2.87124e-08
2.18111e-07 -2.87124e-08 -8.59397e-05
0.000974427 -7.82944e-05 -5.6676e-06
-7.82944e-05 2.28079e-05 2.35854e-06
-5.6676e-06 2.35854e-06 -6.18203e-05
0.000552244 -4.2324e-05 -7.87399e-06
-4.2324e-05 -9.52269e-05 5.88017e-06
-7.87399e-06 5.88017e-06 -0.000144445
0.000935314 -7.83927e-05 2.10697e-07
-7.83927e-05 3.88202e-05 3.96536e-08
2.10697e-07 3.96536e-08 -4.52473e-05
0.001028 -0.000101366 2.01555e-06
-0.000101366 4.35668e-05 -3.17161e-07
2.01555e-06 -3.17161e-07 -5.98803e-05
0.00320996 0.00010943 -5.03293e-05
0.00010943 0.00135687 2.88997e-06
-5.03293e-05 2.88997e-06 0.00135061
0.000691538 -1.16053e-05 -3.08508e-07
-1.16053e-05 -2.07747e-05 -2.76951e-08
-3.08508e-07 -2.76951e-08 -6.59363e-05
0.000963309 -6.72432e-05 4.05203e-06
-6.72432e-05 8.32624e-05 -2.04983e-06
4.05203e-06 -2.04983e-06 1.86094e-06
0.00307632 9.69803e-05 1.21422e-06
9.69803e-05 0.00127274 2.11244e-07
1.21422e-06 2.11244e-07 0.00127115
0.000734719 7.03587e-06 6.38138e-06
7.03587e-06 -2.35584e-06 -4.91704e-06
6.38138e-06 -4.91704e-06 -4.00834e-05
0.00291925 8.54818e-05 4.82034e-05
8.54818e-05 0.00117991 -3.24786e-06
4.82034e-05 -3.24786e-06 0.00118233
0.000607431 9.69338e-05 -4.28843e-07
9.69338e-05 -0.000175231 -7.87103e-07
-4.28843e-07 -7.87103e-07 -0.000292286
0.000701337 9.44269e-05 1.76213e-08
9.44269e-05 -7.0535e-05 -1.56816e-07
1.76213e-08 -1.56816e-07 -0.000179721
0.001129 0.00010238 -1.67756e-06
0.00010238 0.000152646 -4.4601e-07
-1.67756e-06 -4.4601e-07 5.47123e-05
0.000921997 9.71102e-05 -2.61564e-07
9.71102e-05 7.65691e-05 -4.73603e-07
-2.61564e-07 -4.73603e-07 -2.42594e-05
0.000987742 8.65824e-05 -2.26956e-07
8.65824e-05 0.00010565 -1.90708e-07
-2.26956e-07 -1.90708e-07 1.51182e-05
0.000890957 3.42328e-05 -2.83673e-06
3.42328e-05 6.99634e-05 -1.3206e-06
-2.83673e-06 -1.3206e-06 -4.35889e-06
0.000903288 5.08118e-05 1.80148e-07
5.08118e-05 7.13567e-05 -5.54822e-07
1.80148e-07 -5.54822e-07 -1.25784e-05
0.000791037 2.21672e-06 1.76566e-08
2.21672e-06 2.19751e-05 1.00896e-07
1.76566e-08 1.00896e-07 -4.65295e-05
0.000664826 -5.10621e-05 -2.80585e-06
-5.10621e-05 -2.7916e-05 -4.36319e-06
-2.80585e-06 -4.36319e-06 -5.89216e-05
0.000783527 -4.66123e-05 1.08255e-06
-4.66123e-05 1.69322e-05 2.35868e-06
1.08255e-06 2.35868e-06 -4.22107e-05
0.00065113 -5.9818e-05 -2.49571e-08
-5.9818e-05 -3.8666e-05 -1.23136e-07
-2.49571e-08 -1.23136e-07 -6.37682e-05
0.00258067 -7.59821e-05 -3.96135e-05
-7.59821e-05 0.000996741 -2.84839e-06
-3.96135e-05 -2.84839e-06 0.00100321
0.000663809 -4.70006e-05 2.74172e-06
-4.70006e-05 -4.2588e-05 3.74391e-06
2.74172e-06 3.74391e-06 -6.03514e-05
0.00238274 -6.80361e-05 -4.59166e-07
-6.80361e-05 0.000885445 8.34805e-08
-4.59166e-07 8.34805e-08 0.000894898
0.00228797 -6.07655e-05 2.94581e-05
-6.07655e-05 0.000826437 3.1844e-06
2.94581e-05 3.1844e-06 0.000838428
0.00146814 -9.04296e-06 1.19394e-05
-9.04296e-06 -0.000126419 7.71731e-07
1.19394e-05 7.71731e-07 -0.000201573
0.00108827 -4.85599e-05 -1.95292e-07
-4.85599e-05 -0.000184375 1.91546e-06
-1.95292e-07 1.91546e-06 -0.000235202
0.00244517 -9.84239e-05 7.36417e-05
-9.84239e-05 3.44318e-05 1.51452e-05
7.36417e-05 1.51452e-05 -0.000242658
0.00208913 0.000157512 2.06004e-06
0.000157512 0.000451237 -2.99907e-06
2.06004e-06 -2.99907e-06 0.000339686
0.000818413 0.000102435 -1.60129e-06
0.000102435 -2.50715e-05 6.67309e-07
-1.60129e-06 6.67309e-07 -0.000119917
0.00079384 0.00011159 -2.97525e-06
0.00011159 -0.000240276 1.40599e-06
-2.97525e-06 1.40599e-06 -0.00035915
0.00146467 0.000137573 4.95319e-07
0.000137573 0.000209779 1.63092e-07
4.95319e-07 1.63092e-07 9.05391e-05
0.000399828 8.5389e-05 -2.94178e-06
8.5389e-05 -0.000214198 8.3177e-07
-2.94178e-06 8.3177e-07 -0.000322464
0.00171421 0.000135303 -2.15163e-06
0.000135303 9.07024e-05 -4.27153e-06
-2.15163e-06 -4.27153e-06 -3.24495e-05
0.00138237 0.000133148 -1.3782e-06
0.000133148 0.00028365 -6.65683e-07
-1.3782e-06 -6.65683e-07 0.000185765
0.00168779 0.000163699 -4.24607e-07
0.000163699 0.000215082 3.60807e-07
-4.24607e-07 3.60807e-07 0.000102824
0.00175241 7.80435e-05 4.07217e-06
7.80435e-05 6.49506e-05 1.96116e-06
4.07217e-06 1.96116e-06 -4.9482e-05
0.00169559 0.000179932 1.83075e-06
0.000179932 0.000224005 3.27862e-06
1.83075e-06 3.27862e-06 0.000105468
0.0018668 0.000162842 -1.25368e-06
0.000162842 0.000136756 -9.4757e-07
-1.25368e-06 -9.4757e-07 3.82757e-06
0.0016093 5.84438e-05 -2.63659e-07
5.84438e-05 -5.98711e-05 -6.33237e-07
-2.63659e-07 -6.33237e-07 -0.000152676
0.00175209 0.000149347 -1.61987e-06
0.000149347 6.75333e-05 -1.30758e-06
-1.61987e-06 -1.30758e-06 -5.68517e-05
0.00106825 4.80302e-05 -4.65722e-06
4.80302e-05 -7.77804e-05 -6.5985e-06
-4.65722e-06 -6.5985e-06 -9.31093e-05
0.00168389 -9.50741e-06 3.923e-06
-9.50741e-06 1.4049e-05 -5.46723e-08
3.923e-06 -5.46723e-08 -7.37554e-05
0.00184156 -4.37572e-06 -1.08907e-06
-4.37572e-06 0.000160693 1.83293e-07
-1.08907e-06 1.83293e-07 8.36079e-05
0.0011211 -3.96851e-06 -1.34051e-05
-3.96851e-06 -0.000168053 2.74656e-06
-1.34051e-05 2.74656e-06 -0.000313234
0.00136482 9.00994e-08 -3.69967e-06
9.00994e-08 -0.000257952 3.02228e-06
-3.69967e-06 3.02228e-06 -0.000315343
0.00210663 1.30416e-05 6.76573e-06
1.30416e-05 0.000169503 2.30001e-06
6.76573e-06 2.30001e-06 8.23217e-05
0.00192858 -1.23853e-05 -2.85148e-06
-1.23853e-05 0.000117209 -1.8312e-07
-2.85148e-06 -1.8312e-07 3.66157e-05
0.00173071 -6.83172e-06 7.58331e-07
-6.83172e-06 1.44428e-05 4.33661e-07
7.58331e-07 4.33661e-07 -6.91029e-05
0.00171976 -1.10944e-05 1.41437e-06
-1.10944e-05 4.00941e-05 -5.1324e-07
1.41437e-06 -5.1324e-07 -5.10669e-05
0.00157895 -2.15999e-05 -2.9587e-06
-2.15999e-05 -2.83506e-05 2.44638e-07
-2.9587e-06 2.44638e-07 -0.000104811
0.00177153 -1.8341e-05 -4.68547e-08
-1.8341e-05 0.000103838 6.583e-08
-4.68547e-08 6.583e-08 1.24811e-05
0.00174478 -1.15934e-05 -3.90305e-07
-1.15934e-05 0.000104471 -5.32558e-07
-3.90305e-07 -5.32558e-07 3.54206e-06
0.00172886 -4.6842e-05 -2.29182e-06
-4.6842e-05 9.15245e-05 -1.21308e-07
-2.29182e-06 -1.21308e-07 -4.29621e-06
0.00166367 -4.05227e-05 -2.00958e-07
-4.05227e-05 8.07061e-05 3.04245e-07
-2.00958e-07 3.04245e-07 -2.36018e-05
0.00165965 -4.20844e-05 -1.41738e-06
-4.20844e-05 0.000100245 -4.22912e-07
-1.41738e-06 -4.22912e-07 -6.55494e-06
0.00175054 -7.79089e-05 6.65899e-07
-7.79089e-05 0.000136601 -4.45294e-07
6.65899e-07 -4.45294e-07 3.42096e-05
0.00161109 -7.83078e-05 2.12632e-07
-7.83078e-05 9.18632e-05 5.17274e-07
2.12632e-07 5.17274e-07 -1.43477e-05
0.00153386 -8.11851e-05 -2.00425e-06
-8.11851e-05 8.866e-05 2.45924e-07
-2.00425e-06 2.45924e-07 -1.93443e-05
0.00153127 -9.8566e-05 4.54233e-07
-9.8566e-05 9.40486e-05 -8.53816e-07
4.54233e-07 -8.53816e-07 -1.2626e-05
0.00145668 -9.73001e-05 1.40857e-07
-9.73001e-05 9.09533e-05 6.91314e-08
1.40857e-07 6.91314e-08 -1.87806e-05
0.00132982 -9.01067e-05 -3.90187e-06
-9.01067e-05 7.16004e-05 1.31989e-06
-3.90187e-06 1.31989e-06 -3.35821e-05
0.00115789 -9.52458e-05 1.61375e-06
-9.52458e-05 -2.14284e-05 -5.62148e-07
1.61375e-06 -5.62148e-07 -0.000129928
0.0012478 -9.42872e-05 2.55232e-08
-9.42872e-05 6.98884e-05 -1.09757e-07
2.55232e-08 -1.09757e-07 -3.33778e-05
0.00102975 -7.5143e-05 -6.77181e-06
-7.5143e-05 1.74058e-05 2.72016e-06
-6.77181e-06 2.72016e-06 -6.82054e-05
0.000863797 -8.77359e-05 3.45204e-06
-8.77359e-05 -9.23146e-05 -7.74534e-07
3.45204e-06 -7.74534e-07 -0.000195877
0.000987411 -7.90542e-05 2.40401e-07
-7.90542e-05 2.95092e-05 -2.96701e-08
2.40401e-07 -2.96701e-08 -5.52912e-05
0.00175268 -1.19159e-05 -7.99182e-06
-1.19159e-05 0.000543766 4.08089e-06
-7.99182e-06 4.08089e-06 0.000496229
0.00108166 3.33884e-05 -5.70678e-05
3.33884e-05 0.000221891 7.19463e-06
-5.70678e-05 7.19463e-06 0.000202575
0.0012672 -2.45942e-05 -1.09991e-06
-2.45942e-05 0.000283525 -8.75267e-08
-1.09991e-06 -8.75267e-08 0.000236151
0.000976096 -8.11179e-05 4.76808e-06
-8.11179e-05 6.04891e-05 -1.91153e-06
4.76808e-06 -1.91153e-06 -2.3963e-05
0.00329426 0.000105142 3.15557e-06
0.000105142 0.00140392 2.81214e-07
3.15557e-06 2.81214e-07 0.00139753
0.000765885 -2.76504e-05 7.79424e-06
-2.76504e-05 1.19525e-05 -5.30778e-06
7.79424e-06 -5.30778e-06 -3.23238e-05
0.00308975 9.1743e-05 5.53284e-05
9.1743e-05 0.00128151 -3.12198e-06
5.53284e-05 -3.12198e-06 0.00128002
0.00134274 0.000116642 -1.59443e-07
0.000116642 -1.78997e-07 2.43334e-07
-1.59443e-07 2.43334e-07 -0.000109403
0.000797496 0.000107262 2.3784e-06
0.000107262 -0.000142725 1.35109e-06
2.3784e-06 1.35109e-06 -0.000261504
0.000816765 0.000107109 -2.06046e-07
0.000107109 -7.30913e-05 -1.0676e-07
-2.06046e-07 -1.0676e-07 -0.000191809
0.00114573 0.000107875 -2.11287e-06
0.000107875 0.000126083 -6.43641e-07
-2.11287e-06 -6.43641e-07 2.28321e-05
0.000525865 8.63352e-05 4.01531e-08
8.63352e-05 -0.000164398 7.27652e-07
4.01531e-08 7.27652e-07 -0.000274141
0.00102745 9.6358e-05 -3.29415e-07
9.6358e-05 0.000101412 -8.68236e-08
-3.29415e-07 -8.68236e-08 4.16618e-06
0.000955674 5.55032e-05 -3.36114e-06
5.55032e-05 9.24674e-05 -1.1247e-06
-3.36114e-06 -1.1247e-06 1.42224e-05
0.000896893 8.13283e-05 9.2239e-07
8.13283e-05 5.88072e-05 1.32685e-07
9.2239e-07 1.32685e-07 -3.10873e-05
0.00082307 2.8295e-05 -1.26097e-07
2.8295e-05 3.54467e-05 1.84935e-07
-1.26097e-07 1.84935e-07 -3.87248e-05
0.000706053 -2.60839e-05 -5.09778e-06
-2.60839e-05 -7.77688e-06 -4.36697e-06
-5.09778e-06 -4.36697e-06 -4.48664e-05
0.000806369 -1.60627e-05 1.23466e-06
-1.60627e-05 3.18753e-05 1.70795e-06
1.23466e-06 1.70795e-06 -3.647e-05
0.000623538 -6.37747e-05 -4.8848e-08
-6.37747e-05 -4.73919e-05 -1.5657e-07
-4.8848e-08 -1.5657e-07 -7.97508e-05
0.00275876 -8.46102e-05 -4.44357e-05
-8.46102e-05 0.00109742 -2.88176e-06
-4.44357e-05 -2.88176e-06 0.00110048
0.000620513 -5.67206e-05 2.16557e-06
-5.67206e-05 -5.64496e-05 4.09919e-06
2.16557e-06 4.09919e-06 -8.06012e-05
0.0025402 -7.62886e-05 -5.3841e-07
-7.62886e-05 0.000975271 1.00114e-07
-5.3841e-07 1.00114e-07 0.000981959
0.00235166 -6.77295e-05 3.18163e-05
-6.77295e-05 0.000868216 2.9255e-06
3.18163e-05 2.9255e-06 0.000877967
0.00177089 2.27261e-05 5.81617e-06
2.27261e-05 6.35149e-05 8.72787e-07
5.81617e-06 8.72787e-07 -3.3497e-05
0.00202771 -1.28593e-05 -1.72761e-06
-1.28593e-05 0.000193479 -7.83169e-07
-1.72761e-06 -7.83169e-07 0.00012087
0.00221834 -9.1183e-05 -3.27451e-06
-9.1183e-05 0.000317378 2.06138e-07
-3.27451e-06 2.06138e-07 0.00024836
0.00167634 0.000124692 -5.63607e-06
0.000124692 9.71493e-05 -2.50821e-06
-5.63607e-06 -2.50821e-06 -1.96113e-05
0.00173242 0.000144312 -5.19404e-07
0.000144312 0.000290141 5.95145e-07
-5.19404e-07 5.95145e-07 0.000182611
0.000736598 0.000102743 -8.37742e-06
0.000102743 -5.43125e-05 8.68257e-07
-8.37742e-06 8.68257e-07 -0.000143213
0.0014777 0.000135326 2.31428e-06
0.000135326 0.000108173 1.47933e-06
2.31428e-06 1.47933e-06 -9.0753e-06
0.00151183 0.000140007 -2.84692e-06
0.000140007 0.000232553 6.45466e-07
-2.84692e-06 6.45466e-07 0.000112434
0.0020706 7.92593e-05 -1.30417e-06
7.92593e-05 0.000225751 1.24079e-06
-1.30417e-06 1.24079e-06 0.000106398
0.00166062 0.000136232 -2.72344e-06
0.000136232 6.31222e-05 -1.77809e-06
-2.72344e-06 -1.77809e-06 -6.33013e-05
0.00176086 0.000164407 2.16742e-06
0.000164407 0.000247129 5.64047e-06
2.16742e-06 5.64047e-06 0.000134387
0.00177333 7.95194e-05 -5.30715e-07
7.95194e-05 7.21736e-05 -4.73043e-08
-5.30715e-07 -4.73043e-08 -4.25247e-05
0.00211957 0.000171328 1.43897e-06
0.000171328 0.000251744 -2.51252e-07
1.43897e-06 -2.51252e-07 0.000117285
0.00177182 6.56343e-05 -1.28336e-05
6.56343e-05 2.97459e-05 -5.65091e-06
-1.28336e-05 -5.65091e-06 -6.39279e-05
0.00190489 -4.14252e-06 1.42408e-06
-4.14252e-06 0.000128652 1.20176e-07
1.42408e-06 1.20176e-07 3.43575e-05
0.00174812 -5.86107e-06 -4.44699e-07
-5.86107e-06 4.53433e-05 -4.5888e-07
-4.44699e-07 -4.5888e-07 -4.14502e-05
0.00200227 7.3303e-06 -7.63519e-06
7.3303e-06 0.000237543 2.62383e-06
-7.63519e-06 2.62383e-06 0.000160183
0.00199517 -1.08262e-05 -4.06728e-06
-1.08262e-05 0.000151581 1.10585e-06
-4.06728e-06 1.10585e-06 7.19427e-05
0.00190438 -9.5387e-06 2.31202e-06
-9.5387e-06 0.000111815 1.52053e-06
2.31202e-06 1.52053e-06 2.98393e-05
0.00179156 -1.01795e-05 -4.15994e-07
-1.01795e-05 7.59096e-05 -2.83577e-07
-4.15994e-07 -2.83577e-07 -1.37703e-05
0.0018022 -8.09931e-07 5.01805e-07
-8.09931e-07 0.000104348 -4.54874e-07
5.01805e-07 -4.54874e-07 1.07793e-06
0.00172684 -1.68337e-05 2.71326e-07
-1.68337e-05 8.2731e-05 6.86325e-07
2.71326e-07 6.86325e-07 -8.84269e-06
0.00165286 -1.32545e-05 -5.23303e-07
-1.32545e-05 6.12761e-05 6.41581e-08
-5.23303e-07 6.41581e-08 -3.99203e-05
0.00173007 -1.44627e-05 -1.34804e-06
-1.44627e-05 0.000122121 8.83289e-07
-1.34804e-06 8.83289e-07 1.14239e-05
0.00171153 -4.13196e-05 5.71905e-07
-4.13196e-05 0.000106509 6.89951e-07
5.71905e-07 6.89951e-07 1.79634e-06
0.00164089 -4.20825e-05 -8.35076e-08
-4.20825e-05 9.10565e-05 -3.64808e-07
-8.35076e-08 -3.64808e-07 -1.56897e-05
0.00155768 -4.98532e-05 -2.25936e-06
-4.98532e-05 8.06894e-05 -4.54351e-07
-2.25936e-06 -4.54351e-07 -2.61356e-05
0.00163275 -7.76936e-05 1.57504e-06
-7.76936e-05 0.000102076 3.93909e-07
1.57504e-06 3.93909e-07 -4.22263e-06
0.00153696 -8.06484e-05 5.63351e-08
-8.06484e-05 9.00314e-05 4.28937e-07
5.63351e-08 4.28937e-07 -1.79444e-05
0.00140296 -7.73154e-05 -4.13738e-06
-7.73154e-05 7.17068e-05 8.0115e-07
-4.13738e-06 8.0115e-07 -3.28532e-05
0.00145476 -9.65941e-05 2.01936e-06
-9.65941e-05 8.96251e-05 -5.89909e-07
2.01936e-06 -5.89909e-07 -2.00212e-05
0.00132661 -8.93089e-05 1.16099e-07
-8.93089e-05 6.96815e-05 1.19616e-07
1.16099e-07 1.19616e-07 -3.53805e-05
0.00109216 -7.13907e-05 -7.54094e-06
-7.13907e-05 1.72721e-05 2.92497e-06
-7.54094e-06 2.92497e-06 -7.08296e-05
0.00123879 -9.33029e-05 3.65684e-06
-9.33029e-05 6.52575e-05 -1.19526e-06
3.65684e-06 -1.19526e-06 -3.7866e-05
0.00104048 -7.51898e-05 3.01955e-07
-7.51898e-05 2.23193e-05 -1.04962e-07
3.01955e-07 -1.04962e-07 -6.33792e-05
0.00186923 -1.07071e-05 -7.6304e-06
-1.07071e-05 0.000592459 4.21369e-06
-7.6304e-06 4.21369e-06 0.000544243
0.000999399 -7.99145e-05 5.72673e-06
-7.99145e-05 3.60047e-05 -2.24151e-06
5.72673e-06 -2.24151e-06 -4.90266e-05
0.00195372 -3.25525e-05 1.78404e-05
-3.25525e-05 0.000642471 -1.11787e-06
1.78404e-05 -1.11787e-06 0.000596815
0.00124165 -7.51273e-06 -7.56014e-05
-7.51273e-06 0.000315892 8.41125e-06
-7.56014e-05 8.41125e-06 0.000296204
0.00229555 5.11168e-05 -5.80346e-05
5.11168e-05 0.000878709 1.40842e-06
-5.80346e-05 1.40842e-06 0.000865492
0.00200775 -3.8122e-05 3.86422e-05
-3.8122e-05 0.000672023 -4.63696e-06
3.86422e-05 -4.63696e-06 0.000630981
0.00335115 8.45103e-05 6.82539e-05
8.45103e-05 0.00143492 -3.60391e-06
6.82539e-05 -3.60391e-06 0.00143005
0.00168022 0.000110611 -4.04297e-06
0.000110611 9.89082e-05 -3.67429e-06
-4.04297e-06 -3.67429e-06 -1.34538e-05
0.00158927 0.000127589 4.39405e-06
0.000127589 0.000203055 3.81015e-07
4.39405e-06 3.81015e-07 9.07209e-05
0.00132134 0.000117551 1.46699e-06
0.000117551 -1.36712e-06 1.07901e-06
1.46699e-06 1.07901e-06 -0.000102296
0.00116624 0.00011246 -2.36235e-06
0.00011246 9.09585e-05 -1.09478e-06
-2.36235e-06 -1.09478e-06 -1.76478e-05
0.00116204 0.000123799 -5.05657e-07
0.000123799 4.33594e-05 2.30418e-07
-5.05657e-07 2.30418e-07 -7.67608e-05
0.00101073 0.00011693 5.4742e-07
0.00011693 2.10225e-05 6.35661e-07
5.4742e-07 6.35661e-07 -9.93354e-05
0.00109396 0.000105592 -2.18421e-07
0.000105592 0.000101742 -1.25413e-07
-2.18421e-07 -1.25413e-07 -1.6233e-06
0.000987081 7.66883e-05 -3.75071e-06
7.66883e-05 8.60455e-05 -1.48493e-06
-3.75071e-06 -1.48493e-06 3.9736e-06
0.00092257 9.02424e-05 1.00167e-06
9.02424e-05 4.8298e-05 2.25051e-07
1.00167e-06 2.25051e-07 -4.82375e-05
0.000856128 5.2325e-05 -2.71771e-07
5.2325e-05 3.96906e-05 1.29287e-08
-2.71771e-07 1.29287e-08 -3.74311e-05
0.000748553 6.11358e-06 -6.46814e-06
6.11358e-06 1.10812e-05 -4.48286e-06
-6.46814e-06 -4.48286e-06 -3.12169e-05
0.000731092 2.27945e-05 1.68604e-06
2.27945e-05 -1.22326e-05 1.26495e-06
1.68604e-06 1.26495e-06 -8.59214e-05
0.00063776 -3.71297e-05 -4.38982e-08
-3.71297e-05 -4.23177e-05 -1.24349e-07
-4.38982e-08 -1.24349e-07 -7.90422e-05
0.0029405 -9.32754e-05 -5.04766e-05
-9.32754e-05 0.00120486 -2.7806e-06
-5.04766e-05 -2.7806e-06 0.00120362
0.000566976 -6.50327e-05 1.00711e-06
-6.50327e-05 -7.70354e-05 4.67012e-06
1.00711e-06 4.67012e-06 -0.000109374
0.00273002 -8.55882e-05 -8.05351e-07
-8.55882e-05 0.00108178 1.38441e-07
-8.05351e-07 1.38441e-07 0.00108515
0.00250066 -7.61085e-05 3.52218e-05
-7.61085e-05 0.000954037 2.71932e-06
3.52218e-05 2.71932e-06 0.000961059
0.00186067 2.60942e-05 -1.18599e-06
2.60942e-05 0.000101192 8.45849e-07
-1.18599e-06 8.45849e-07 -2.88898e-06
0.00171516 2.24314e-05 4.61104e-07
2.24314e-05 3.56132e-05 -1.78143e-07
4.61104e-07 -1.78143e-07 -6.14449e-05
0.00245345 -1.63024e-05 -2.23428e-05
-1.63024e-05 0.000449782 -2.24302e-06
-2.23428e-05 -2.24302e-06 0.00037959
0.00183025 7.35131e-05 -7.30708e-07
7.35131e-05 0.000125328 4.67891e-07
-7.30708e-07 4.67891e-07 9.12872e-06
0.00176319 0.000126897 8.24502e-08
0.000126897 0.000147729 -1.11289e-06
8.24502e-08 -1.11289e-06 3.06544e-05
0.0014559 0.000134006 -3.49627e-06
0.000134006 0.000169242 2.20508e-06
-3.49627e-06 2.20508e-06 6.5701e-05
0.00209842 0.000156674 1.53422e-06
0.000156674 0.000424021 1.45749e-07
1.53422e-06 1.45749e-07 0.000308543
0.0019616 7.80111e-05 -4.27859e-07
7.80111e-05 0.000167731 -1.36203e-07
-4.27859e-07 -1.36203e-07 4.84487e-05
0.00162374 0.000137621 1.07258e-06
0.000137621 4.35817e-05 6.88951e-07
1.07258e-06 6.88951e-07 -8.6081e-05
0.00172515 8.07183e-05 -2.95583e-06
8.07183e-05 4.68738e-05 -2.00984e-06
-2.95583e-06 -2.00984e-06 -6.82859e-05
0.00184157 5.03085e-06 1.04132e-06
5.03085e-06 9.99977e-05 -6.95613e-08
1.04132e-06 -6.95613e-08 -2.28123e-06
0.00185075 -2.75498e-06 -4.63139e-07
-2.75498e-06 9.98945e-05 -5.87788e-08
-4.63139e-07 -5.87788e-08 4.75594e-06
0.00178761 -1.7922e-06 -4.62125e-06
-1.7922e-06 6.55835e-05 6.62028e-07
-4.62125e-06 6.62028e-07 -2.02996e-05
0.00179431 8.69572e-06 -4.07858e-07
8.69572e-06 9.36575e-05 -3.22692e-07
-4.07858e-07 -3.22692e-07 -1.39997e-05
0.0018419 -8.64477e-06 -1.82168e-06
-8.64477e-06 0.000100459 6.71421e-07
-1.82168e-06 6.71421e-07 1.22062e-05
0.00177659 -3.66839e-07 -2.06643e-07
-3.66839e-07 9.1809e-05 5.5284e-08
-2.06643e-07 5.5284e-08 -1.11853e-05
0.00181197 2.55793e-06 1.63204e-07
2.55793e-06 0.000141145 -6.64739e-07
1.63204e-07 -6.64739e-07 2.92011e-05
0.00157759 -1.46438e-05 1.02066e-07
-1.46438e-05 2.69222e-05 8.32382e-07
1.02066e-07 8.32382e-07 -7.45864e-05
0.00167089 -1.42471e-05 -2.48491e-07
-1.42471e-05 9.26273e-05 5.4715e-07
-2.48491e-07 5.4715e-07 -1.80474e-05
0.00156204 -1.86771e-05 -2.92422e-06
-1.86771e-05 7.00312e-05 1.92384e-06
-2.92422e-06 1.92384e-06 -4.22339e-05
0.00162174 -4.15977e-05 1.23018e-06
-4.15977e-05 8.17365e-05 -2.67347e-07
1.23018e-06 -2.67347e-07 -2.49513e-05
0.00157248 -4.82091e-05 -1.22955e-07
-4.82091e-05 8.81849e-05 -4.77506e-07
-1.22955e-07 -4.77506e-07 -1.86328e-05
0.0014284 -5.47999e-05 -4.21946e-06
-5.47999e-05 6.4835e-05 1.41218e-07
-4.21946e-06 1.41218e-07 -3.86098e-05
0.00154021 -8.00404e-05 2.54023e-06
-8.00404e-05 9.14701e-05 5.53855e-07
2.54023e-06 5.53855e-07 -1.64698e-05
0.00139828 -7.65378e-05 4.09563e-08
-7.65378e-05 6.9236e-05 3.60746e-07
4.09563e-08 3.60746e-07 -3.5213e-05
0.00115255 -6.30455e-05 -8.17762e-06
-6.30455e-05 2.02126e-05 2.33601e-06
-8.17762e-06 2.33601e-06 -6.89179e-05
0.00132285 -8.84523e-05 4.09642e-06
-8.84523e-05 6.74732e-05 -1.07276e-06
4.09642e-06 -1.07276e-06 -3.74638e-05
0.00109735 -7.0436e-05 3.84002e-07
-7.0436e-05 1.85078e-05 9.63493e-08
3.84002e-07 9.63493e-08 -6.94646e-05
0.00200696 -2.6909e-05 -1.24372e-05
-2.6909e-05 0.000642583 3.53441e-06
-1.24372e-05 3.53441e-06 0.000597607
0.00104387 -7.50024e-05 6.68715e-06
-7.50024e-05 2.35165e-05 -2.80906e-06
6.68715e-06 -2.80906e-06 -6.22683e-05
0.00205995 -4.13807e-05 1.81024e-05
-4.13807e-05 0.000684103 -1.30864e-06
1.81024e-05 -1.30864e-06 0.00063924
0.00132288 -1.27039e-05 -7.91761e-05
-1.27039e-05 0.000360887 8.17237e-06
-7.91761e-05 8.17237e-06 0.000339647
0.00213459 -5.70256e-05 4.56162e-05
-5.70256e-05 0.000728955 -6.92333e-06
4.56162e-05 -6.92333e-06 0.000685894
0.00125069 3.49786e-05 -3.58689e-05
3.49786e-05 0.000330998 2.60091e-06
-3.58689e-05 2.60091e-06 0.000305135
0.00342845 0.000150648 1.07167e-05
0.000150648 0.00150225 -1.76177e-06
1.07167e-05 -1.76177e-06 0.00148367
0.00190063 7.90209e-05 -2.08031e-06
7.90209e-05 0.000200477 -1.21946e-06
-2.08031e-06 -1.21946e-06 8.44303e-05
0.00156666 0.000105664 -6.70461e-07
0.000105664 9.40056e-05 -3.3035e-06
-6.70461e-07 -3.3035e-06 -1.73162e-05
0.00171376 0.000112958 -3.03135e-06
0.000112958 0.000128862 1.32943e-06
-3.03135e-06 1.32943e-06 1.76778e-05
0.00163411 0.00012408 -1.69922e-06
0.00012408 0.00027748 -3.90239e-07
-1.69922e-06 -3.90239e-07 0.000169264
0.00140657 0.000123867 5.61887e-07
0.000123867 0.000104558 -1.61161e-06
5.61887e-07 -1.61161e-06 -6.91642e-06
0.00133884 0.000119664 2.51634e-06
0.000119664 1.69854e-05 1.88414e-06
2.51634e-06 1.88414e-06 -7.57154e-05
0.00101338 8.73235e-05 -4.92231e-06
8.73235e-05 6.25126e-05 -2.44377e-06
-4.92231e-06 -2.44377e-06 -2.55787e-05
0.00117252 0.000113272 -1.48927e-07
0.000113272 9.50524e-05 -9.04095e-08
-1.48927e-07 -9.04095e-08 -1.39304e-05
0.00153861 0.000140605 2.12661e-06
0.000140605 0.000235761 7.2995e-07
2.12661e-06 7.2995e-07 0.000114264
0.00103311 0.000102905 1.63038e-06
0.000102905 7.27046e-05 3.71932e-07
1.63038e-06 3.71932e-07 -3.07413e-05
0.000913674 7.28234e-05 -2.55175e-07
7.28234e-05 4.81603e-05 -1.99532e-07
-2.55175e-07 -1.99532e-07 -3.34555e-05
0.000784159 4.35812e-05 -8.34923e-06
4.35812e-05 2.84874e-05 -5.20737e-06
-8.34923e-06 -5.20737e-06 -1.99464e-05
0.000761665 4.90773e-05 2.40715e-06
4.90773e-05 -1.03694e-05 9.20395e-07
2.40715e-06 9.20395e-07 -8.6555e-05
0.000680634 1.50021e-06 9.58948e-08
1.50021e-06 -1.92215e-05 -3.02639e-08
9.58948e-08 -3.02639e-08 -6.23148e-05
0.00315592 -8.88377e-05 -6.25693e-05
-8.88377e-05 0.00133517 -2.97127e-06
-6.25693e-05 -2.97127e-06 0.00133041
0.000580136 -5.9888e-05 9.79893e-07
-5.9888e-05 -6.65227e-05 4.93495e-06
9.79893e-07 4.93495e-06 -0.000105884
0.00291913 -9.61084e-05 -1.19658e-06
-9.61084e-05 0.00119174 2.00751e-07
-1.19658e-06 2.00751e-07 0.00119075
0.0027085 -8.62121e-05 3.92459e-05
-8.62121e-05 0.00106981 2.61568e-06
3.92459e-05 2.61568e-06 0.00107356
0.00177959 2.83042e-05 -2.2589e-07
2.83042e-05 7.51483e-05 4.82897e-07
-2.2589e-07 4.82897e-07 -3.08582e-05
0.00179775 2.83185e-05 -7.9664e-07
2.83185e-05 6.63748e-05 1.84038e-07
-7.9664e-07 1.84038e-07 -3.82434e-05
0.00175044 2.18742e-05 -5.05893e-06
2.18742e-05 5.15638e-05 -1.29335e-06
-5.05893e-06 -1.29335e-06 -4.53875e-05
0.00182832 7.31776e-05 9.63031e-07
7.31776e-05 0.000120872 -1.68428e-07
9.63031e-07 -1.68428e-07 6.64134e-06
0.00184354 0.000129247 1.00965e-06
0.000129247 0.000195478 -4.62276e-09
1.00965e-06 -4.62276e-09 7.79954e-05
0.00183729 7.62718e-05 1.22642e-06
7.62718e-05 0.000102875 -1.42621e-06
1.22642e-06 -1.42621e-06 -1.62766e-05
0.00182704 9.60827e-06 -7.83319e-07
9.60827e-06 0.000101755 9.41495e-09
-7.83319e-07 9.41495e-09 -5.40372e-06
0.00187103 7.13157e-06 2.53321e-07
7.13157e-06 0.000114021 -1.54117e-07
2.53321e-07 -1.54117e-07 1.1321e-05
0.0018201 -4.94778e-07 -8.17806e-07
-4.94778e-07 8.29221e-05 -1.37305e-07
-8.17806e-07 -1.37305e-07 -1.3025e-05
0.00178995 -1.95959e-07 -6.96461e-07
-1.95959e-07 9.26067e-05 1.01934e-07
-6.96461e-07 1.01934e-07 -1.43366e-05
0.00183499 5.11252e-06 3.32954e-07
5.11252e-06 0.000139303 -5.81008e-07
3.32954e-07 -5.81008e-07 2.70595e-05
0.00174055 -6.02738e-09 -5.57443e-07
-6.02738e-09 7.39804e-05 4.48768e-07
-5.57443e-07 4.48768e-07 -2.87273e-05
0.00175989 2.81291e-06 2.15933e-07
2.81291e-06 0.000114484 -1.84745e-07
2.15933e-07 -1.84745e-07 1.67406e-06
0.00160224 -9.4441e-07 -7.00735e-07
-9.4441e-07 6.53409e-05 -3.33767e-07
-7.00735e-07 -3.33767e-07 -5.15567e-05
0.00161797 -1.45893e-05 7.12497e-07
-1.45893e-05 6.62999e-05 2.17939e-07
7.12497e-07 2.17939e-07 -4.43463e-05
0.0016055 -1.93416e-05 -7.55658e-07
-1.93416e-05 9.26e-05 9.22486e-07
-7.55658e-07 9.22486e-07 -1.96385e-05
0.00146936 -2.5455e-05 -5.01396e-06
-2.5455e-05 7.26548e-05 1.76975e-06
-5.01396e-06 1.76975e-06 -3.51778e-05
0.0015886 -4.80849e-05 2.01164e-06
-4.80849e-05 9.62884e-05 -5.11965e-07
2.01164e-06 -5.11965e-07 -1.05532e-05
0.00144293 -5.38459e-05 -2.20576e-09
-5.38459e-05 7.17373e-05 -3.14572e-07
-2.20576e-09 -3.14572e-07 -3.16626e-05
0.00115768 -4.63081e-05 -8.32356e-06
-4.63081e-05 6.74214e-06 1.40201e-06
-8.32356e-06 1.40201e-06 -8.15472e-05
0.00139164 -7.56573e-05 4.30273e-06
-7.56573e-05 6.57436e-05 -8.83587e-08
4.30273e-06 -8.83587e-08 -3.8591e-05
0.00114815 -6.12087e-05 2.24448e-07
-6.12087e-05 1.67095e-05 3.33361e-07
2.24448e-07 3.33361e-07 -7.21272e-05
0.00214799 -3.46034e-05 -1.63803e-05
-3.46034e-05 0.000696061 2.59247e-06
-1.63803e-05 2.59247e-06 0.000652794
0.00109886 -6.9541e-05 7.67283e-06
-6.9541e-05 1.78034e-05 -2.70516e-06
7.67283e-06 -2.70516e-06 -7.00437e-05
0.00216172 -5.01997e-05 1.72631e-05
-5.01997e-05 0.000718316 -1.28224e-06
1.72631e-05 -1.28224e-06 0.000675102
0.0014402 -1.34071e-05 -8.29719e-05
-1.34071e-05 0.000414459 7.2585e-06
-8.29719e-05 7.2585e-06 0.00039293
0.00223694 -6.37589e-05 4.93544e-05
-6.37589e-05 0.000770203 -6.68756e-06
4.93544e-05 -6.68756e-06 0.000727413
0.00131915 3.37952e-05 -3.99643e-05
3.37952e-05 0.000368945 2.36394e-06
-3.99643e-05 2.36394e-06 0.000341702
0.00130352 8.49984e-05 2.80671e-06
8.49984e-05 0.000371744 -3.37158e-06
2.80671e-06 -3.37158e-06 0.000338394
0.00168123 3.14707e-05 -9.91829e-07
3.14707e-05 6.16711e-05 3.82709e-07
-9.91829e-07 3.82709e-07 -4.94031e-05
0.00162624 7.84199e-05 -3.13304e-06
7.84199e-05 9.26629e-05 -1.15184e-06
-3.13304e-06 -1.15184e-06 -1.98402e-05
0.00175231 7.69912e-05 -1.79422e-06
7.69912e-05 0.000123112 -7.37976e-07
-1.79422e-06 -7.37976e-07 6.69865e-06
0.00157791 0.000107217 -3.16447e-06
0.000107217 0.000169973 -1.15189e-06
-3.16447e-06 -1.15189e-06 6.18309e-05
0.00172717 0.000110717 1.37495e-06
0.000110717 0.000180108 5.82511e-07
1.37495e-06 5.82511e-07 6.85959e-05
0.00172704 0.000114675 4.38072e-06
0.000114675 0.000149033 2.72085e-06
4.38072e-06 2.72085e-06 3.90355e-05
0.000989987 8.71105e-05 -6.25774e-06
8.71105e-05 2.27217e-08 -2.63469e-06
-6.25774e-06 -2.63469e-06 -9.10758e-05
0.00126966 0.000112932 1.84151e-06
0.000112932 8.33669e-05 9.45609e-07
1.84151e-06 9.45609e-07 -2.60449e-05
0.00122225 0.000120144 8.08878e-07
0.000120144 4.98614e-06 1.42781e-06
8.08878e-07 1.42781e-06 -0.000105599
0.000780689 7.23557e-05 -1.16395e-05
7.23557e-05 1.8753e-05 -6.06262e-06
-1.16395e-05 -6.06262e-06 -3.44404e-05
0.00097603 8.46193e-05 -4.14973e-07
8.46193e-05 4.3433e-05 -2.09914e-07
-4.14973e-07 -2.09914e-07 -4.42285e-05
0.00118204 0.000114212 2.64691e-06
0.000114212 0.000100883 1.11053e-06
2.64691e-06 1.11053e-06 -8.4943e-06
0.000857752 6.92148e-05 3.30381e-06
6.92148e-05 1.96027e-05 1.22158e-06
3.30381e-06 1.22158e-06 -6.16056e-05
0.000689753 3.77738e-05 3.4785e-09
3.77738e-05 -1.51452e-05 9.27811e-09
3.4785e-09 9.27811e-09 -6.36872e-05
0.00349311 -7.19325e-05 -7.32973e-05
-7.19325e-05 0.00152982 -4.38999e-06
-7.32973e-05 -4.38999e-06 0.0015211
0.00062943 -4.99416e-06 4.37787e-06
-4.99416e-06 -4.26803e-05 4.78012e-06
4.37787e-06 4.78012e-06 -8.51531e-05
0.00312048 -0.000106862 -2.58419e-06
-0.000106862 0.00131476 2.96845e-07
-2.58419e-06 2.96845e-07 0.00130855
0.00290856 -9.71022e-05 4.37321e-05
-9.71022e-05 0.00118384 2.58464e-06
4.37321e-05 2.58464e-06 0.00118345
0.0018464 1.50393e-05 -2.34473e-07
1.50393e-05 0.000123843 -2.97568e-07
-2.34473e-07 -2.97568e-07 1.58891e-05
0.00180532 2.78928e-05 -2.73993e-07
2.78928e-05 8.82048e-05 1.36644e-07
-2.73993e-07 1.36644e-07 -1.78901e-05
0.00173677 3.01215e-05 1.33712e-06
3.01215e-05 3.25636e-05 -8.01568e-07
1.33712e-06 -8.01568e-07 -7.26002e-05
0.00184112 7.28879e-05 1.94629e-06
7.28879e-05 0.000123572 -2.76564e-07
1.94629e-06 -2.76564e-07 1.13309e-05
0.00180381 -5.05599e-07 -4.36674e-07
-5.05599e-07 0.000113616 -3.49976e-07
-4.36674e-07 -3.49976e-07 1.79083e-06
0.00185901 7.35346e-06 -1.86771e-07
7.35346e-06 0.000117499 -3.83105e-08
-1.86771e-07 -3.83105e-08 1.03511e-05
0.0018923 8.7272e-06 -1.04178e-07
8.7272e-06 0.000123846 1.97293e-07
-1.04178e-07 1.97293e-07 2.0698e-05
0.00180014 -5.24316e-06 -1.1544e-06
-5.24316e-06 9.94253e-05 2.09975e-07
-1.1544e-06 2.09975e-07 -6.87552e-06
0.00179674 1.02886e-05 -1.6964e-07
1.02886e-05 0.000118226 -4.13653e-08
-1.6964e-07 -4.13653e-08 6.37544e-06
0.00184247 9.10508e-06 -9.05168e-07
9.10508e-06 0.00017575 -4.31956e-07
-9.05168e-07 -4.31956e-07 6.05809e-05
0.00170453 3.07321e-06 5.9281e-07
3.07321e-06 8.60686e-05 1.94514e-07
5.9281e-07 1.94514e-07 -2.76129e-05
0.00172114 8.84657e-08 7.69255e-07
8.84657e-08 0.000129179 -5.08261e-07
7.69255e-07 -5.08261e-07 1.2573e-05
0.00135454 -2.84168e-06 -4.16117e-06
-2.84168e-06 -1.53811e-05 8.54923e-07
-4.16117e-06 8.54923e-07 -0.000129433
0.00164214 -1.84676e-05 9.77162e-07
-1.84676e-05 0.000111811 -1.51006e-08
9.77162e-07 -1.51006e-08 -3.82762e-07
0.00147082 -2.31207e-05 -5.59745e-07
-2.31207e-05 7.29473e-05 3.8379e-07
-5.59745e-07 3.8379e-07 -3.48442e-05
0.00117008 -2.46994e-05 -8.1999e-06
-2.46994e-05 4.05607e-07 1.62589e-06
-8.1999e-06 1.62589e-06 -9.02088e-05
0.00145262 -5.07694e-05 4.03592e-06
-5.07694e-05 7.62131e-05 -7.4136e-07
4.03592e-06 -7.4136e-07 -2.70561e-05
0.00117787 -4.63943e-05 -4.13996e-08
-4.63943e-05 1.61873e-05 5.70709e-09
-4.13996e-08 5.70709e-09 -7.19924e-05
0.000687021 -2.75115e-05 -1.25236e-05
-2.75115e-05 -9.46407e-05 2.67019e-06
-1.25236e-05 2.67019e-06 -0.000145145
0.00114403 -5.9569e-05 8.26434e-06
-5.9569e-05 1.32664e-05 -1.73637e-06
8.26434e-06 -1.73637e-06 -7.52789e-05
0.00146143 -4.68933e-05 2.13291e-05
-4.68933e-05 0.000326585 -8.28734e-07
2.13291e-05 -8.28734e-07 0.000280669
0.00457519 -2.82149e-06 -9.9087e-05
-2.82149e-06 0.00207776 3.66318e-06
-9.9087e-05 3.66318e-06 0.00207245
0.00231598 -5.8737e-05 5.21753e-05
-5.8737e-05 0.000795118 -5.87775e-06
5.21753e-05 -5.87775e-06 0.000752742
0.00139033 1.70393e-05 -3.81632e-05
1.70393e-05 0.000394409 2.48169e-06
-3.81632e-05 2.48169e-06 0.000369609
0.00135037 6.32539e-05 5.56445e-06
6.32539e-05 0.000391837 -2.97837e-06
5.56445e-06 -2.97837e-06 0.000361166
0.00169557 1.6036e-05 -1.59085e-07
1.6036e-05 7.51391e-05 -3.00023e-07
-1.59085e-07 -3.00023e-07 -3.4577e-05
0.00152236 4.07022e-05 -2.18466e-06
4.07022e-05 2.32646e-05 4.04967e-07
-2.18466e-06 4.04967e-07 -8.80517e-05
0.00182129 3.15229e-05 -4.34613e-07
3.15229e-05 0.000136393 -3.41126e-07
-4.34613e-07 -3.41126e-07 2.58194e-05
0.00117593 7.48514e-05 -4.64413e-06
7.48514e-05 -8.5575e-05 -1.81212e-06
-4.64413e-06 -1.81212e-06 -0.000194226
0.00165632 7.9351e-05 1.58774e-07
7.9351e-05 0.000109478 7.13714e-09
1.58774e-07 7.13714e-09 -3.21397e-06
0.00160784 7.52107e-05 3.04904e-07
7.52107e-05 4.77943e-05 -1.94688e-07
3.04904e-07 -1.94688e-07 -6.90147e-05
0.000651294 6.77915e-05 -9.01913e-06
6.77915e-05 -0.000236674 -3.06822e-06
-9.01913e-06 -3.06822e-06 -0.000330243
0.00160915 0.000109808 9.55554e-07
0.000109808 0.000185584 1.58936e-07
9.55554e-07 1.58936e-07 7.72417e-05
0.00190179 0.00011627 3.28638e-06
0.00011627 0.000273516 1.57447e-06
3.28638e-06 1.57447e-06 0.000161795
0.000729333 8.12706e-05 -1.28631e-05
8.12706e-05 -2.85364e-05 -5.99458e-06
-1.28631e-05 -5.99458e-06 -8.39522e-05
0.000777547 7.96914e-05 -7.05695e-08
7.96914e-05 -0.000114584 1.5249e-07
-7.05695e-08 1.5249e-07 -0.000206796
0.000902054 0.000101714 4.5109e-06
0.000101714 -0.000112435 2.36678e-06
4.5109e-06 2.36678e-06 -0.000223033
0.00399052 -6.95259e-05 -8.00806e-05
-6.95259e-05 0.0018013 -5.58962e-06
-8.00806e-05 -5.58962e-06 0.00178763
0.000669273 6.24271e-05 1.00805e-07
6.24271e-05 -3.47806e-05 4.11896e-08
1.00805e-07 4.11896e-08 -8.79001e-05
0.000938057 8.19383e-05 4.53852e-06
8.19383e-05 2.44807e-05 2.25649e-06
4.53852e-06 2.25649e-06 -6.28178e-05
0.000598021 3.19488e-05 6.69947e-06
3.19488e-05 -5.80215e-05 5.1229e-06
6.69947e-06 5.1229e-06 -0.000106623
0.00337443 -0.000101756 -4.63034e-06
-0.000101756 0.00146663 1.92619e-07
-4.63034e-06 1.92619e-07 0.00145668
0.00305993 -0.00010856 4.732e-05
-0.00010856 0.00127929 2.54274e-06
4.732e-05 2.54274e-06 0.0012736
0.00176404 2.19772e-06 -1.14977e-06
2.19772e-06 9.70036e-05 -4.13283e-07
-1.14977e-06 -4.13283e-07 -1.33934e-05
0.00183659 1.45709e-05 -4.37945e-07
1.45709e-05 0.00011584 3.76278e-08
-4.37945e-07 3.76278e-08 8.09178e-06
0.00183315 2.78028e-05 6.20709e-07
2.78028e-05 0.000102826 -2.35646e-07
6.20709e-07 -2.35646e-07 -3.35588e-06
0.00183039 1.0204e-05 -8.08853e-07
1.0204e-05 0.000161667 -2.55147e-07
-8.08853e-07 -2.55147e-07 4.69203e-05
0.00179125 3.25407e-06 -4.48662e-07
3.25407e-06 0.000107685 -2.99229e-08
-4.48662e-07 -2.99229e-08 -3.90404e-06
0.0018839 1.95042e-06 -3.70153e-07
1.95042e-06 0.000129322 2.47951e-07
-3.70153e-07 2.47951e-07 2.22468e-05
0.00174918 1.37366e-05 3.43245e-08
1.37366e-05 9.21194e-05 5.33379e-07
3.43245e-08 5.33379e-07 -1.92712e-05
0.00180336 1.16991e-05 7.71222e-07
1.16991e-05 0.000154526 -1.63364e-07
7.71222e-07 -1.63364e-07 3.93541e-05
0.00180429 5.60539e-06 -3.1781e-06
5.60539e-06 0.000196399 1.87012e-08
-3.1781e-06 1.87012e-08 8.43193e-05
0.00184774 1.1561e-06 2.41901e-06
1.1561e-06 0.000196954 -8.10166e-07
2.41901e-06 -8.10166e-07 8.06435e-05
0.00164364 -3.35093e-07 -1.86915e-09
-3.35093e-07 0.000139203 4.2891e-08
-1.86915e-09 4.2891e-08 2.71534e-05
0.000818003 -5.47887e-06 -9.97304e-06
-5.47887e-06 -0.000213966 2.3041e-06
-9.97304e-06 2.3041e-06 -0.000313284
0.00147892 -2.3114e-05 3.41205e-06
-2.3114e-05 7.66129e-05 -9.72983e-07
3.41205e-06 -9.72983e-07 -3.12339e-05
0.00119154 -2.24352e-05 -4.10139e-08
-2.24352e-05 1.05299e-05 -2.43775e-07
-4.10139e-08 -2.43775e-07 -8.00002e-05
0.000701377 -1.61221e-05 -1.24729e-05
-1.61221e-05 -9.47351e-05 1.98287e-06
-1.24729e-05 1.98287e-06 -0.000147287
0.00119135 -4.49841e-05 8.53419e-06
-4.49841e-05 2.21156e-05 -1.53939e-06
8.53419e-06 -1.53939e-06 -6.58663e-05
0.00068947 -2.35306e-05 -9.07127e-08
-2.35306e-05 -9.37219e-05 9.19912e-08
-9.07127e-08 9.19912e-08 -0.000144111
0.00457585 -8.16856e-06 -0.000100298
-8.16856e-06 0.00207491 2.761e-06
-0.000100298 2.761e-06 0.00207017
0.000753198 -4.42763e-05 1.42425e-05
-4.42763e-05 -5.30562e-05 -4.57232e-06
1.42425e-05 -4.57232e-06 -0.000104385
0.00301781 9.00845e-06 3.89251e-05
9.00845e-06 0.00124841 5.52666e-07
3.89251e-05 5.52666e-07 0.00123294
0.00134911 1.85659e-05 1.34718e-05
1.85659e-05 0.000376129 -2.32533e-06
1.34718e-05 -2.32533e-06 0.000349978
0.00172557 5.96756e-06 -3.46209e-07
5.96756e-06 0.00010387 -3.06523e-07
-3.46209e-07 -3.06523e-07 -6.41678e-06
0.00170726 2.1206e-05 -1.11222e-06
2.1206e-05 0.000116774 -5.97514e-07
-1.11222e-06 -5.97514e-07 8.18289e-06
0.00174267 1.51017e-05 7.77455e-08
1.51017e-05 9.85929e-05 -4.31253e-08
7.77455e-08 -4.31253e-08 -1.084e-05
0.0014429 5.00553e-05 -3.78657e-06
5.00553e-05 3.9875e-05 -5.06756e-07
-3.78657e-06 -5.06756e-07 -6.65157e-05
0.00155908 4.0439e-05 3.20394e-07
4.0439e-05 4.04994e-05 3.35693e-07
3.20394e-07 3.35693e-07 -7.05585e-05
0.00195918 3.14555e-05 8.62486e-08
3.14555e-05 0.000209928 -4.63266e-07
8.62486e-08 -4.63266e-07 9.98605e-05
0.00073794 5.66184e-05 -9.71336e-06
5.66184e-05 -0.000226648 -2.9092e-06
-9.71336e-06 -2.9092e-06 -0.000319623
0.00154705 8.46142e-05 -1.28495e-06
8.46142e-05 0.000112307 -4.78395e-07
-1.28495e-06 -4.78395e-07 5.13743e-06
0.00167345 7.99209e-05 3.2749e-06
7.99209e-05 0.000119645 5.27567e-07
3.2749e-06 5.27567e-07 6.76978e-06
0.000691064 7.18001e-05 -1.34076e-05
7.18001e-05 -7.45944e-05 -5.02344e-06
-1.34076e-05 -5.02344e-06 -0.000128702
0.000692374 6.97637e-05 -2.35274e-06
6.97637e-05 -0.000217374 -6.12752e-07
-2.35274e-06 -6.12752e-07 -0.000311581
0.00163981 0.000112394 5.15835e-06
0.000112394 0.000200859 1.44608e-06
5.15835e-06 1.44608e-06 9.2325e-05
0.00443762 -8.05242e-05 -8.28895e-05
-8.05242e-05 0.00203529 -5.98652e-06
-8.28895e-05 -5.98652e-06 0.00201837
0.00066196 7.48133e-05 7.39458e-07
7.48133e-05 -6.18693e-05 1.99161e-07
7.39458e-07 1.99161e-07 -0.000116811
0.000558086 7.19087e-05 6.0658e-06
7.19087e-05 -0.000232705 3.05448e-06
6.0658e-06 3.05448e-06 -0.000326028
0.00375385 -8.94666e-05 -5.02225e-06
-8.94666e-05 0.00167793 3.65556e-07
-5.02225e-06 3.65556e-07 0.00166423
0.000559104 5.48709e-05 8.61949e-06
5.48709e-05 -8.88443e-05 5.76662e-06
8.61949e-06 5.76662e-06 -0.000141579
0.00323237 -0.000119741 5.11553e-05
-0.000119741 0.00139066 2.52889e-06
5.11553e-05 2.52889e-06 0.00137939
0.0018149 8.54803e-06 -8.98706e-07
8.54803e-06 0.000153691 -5.37811e-07
-8.98706e-07 -5.37811e-07 4.01708e-05
0.00179828 3.03862e-06 7.98311e-08
3.03862e-06 0.000117723 1.44594e-07
7.98311e-08 1.44594e-07 7.12075e-06
0.00182351 1.43044e-05 -3.32718e-08
1.43044e-05 0.000106049 1.29908e-07
-3.32718e-08 1.29908e-07 -1.49397e-06
0.00177531 -2.0627e-06 -3.57172e-06
-2.0627e-06 0.000178036 -1.6794e-07
-3.57172e-06 -1.6794e-07 6.72611e-05
0.00182955 9.88763e-06 6.6943e-07
9.88763e-06 0.00016202 -1.95172e-08
6.6943e-07 -1.95172e-08 4.75867e-05
0.00179012 9.65867e-06 1.1967e-06
9.65867e-06 0.000107773 2.31252e-07
1.1967e-06 2.31252e-07 -3.67959e-06
0.00176741 1.30518e-05 1.94103e-06
1.30518e-05 0.00013495 3.66249e-07
1.94103e-06 3.66249e-07 1.97858e-05
0.00178996 5.90614e-06 1.07713e-06
5.90614e-06 0.000188979 -2.42667e-07
1.07713e-06 -2.42667e-07 7.6782e-05
0.000904778 -2.26121e-07 -9.77296e-06
-2.26121e-07 -0.000195675 9.51437e-07
-9.77296e-06 9.51437e-07 -0.000298021
0.00193502 1.99944e-06 4.96603e-06
1.99944e-06 0.000294987 -1.19222e-06
4.96603e-06 -1.19222e-06 0.000184947
0.00103277 -3.3415e-06 -1.96222e-06
-3.3415e-06 -9.81825e-05 6.82054e-07
-1.96222e-06 6.82054e-07 -0.000195582
0.000711892 -6.47006e-06 -1.29354e-05
-6.47006e-06 -0.00010604 1.87988e-06
-1.29354e-05 1.87988e-06 -0.000163463
0.0012242 -2.18298e-05 8.27107e-06
-2.18298e-05 2.62567e-05 -2.21257e-06
8.27107e-06 -2.21257e-06 -6.42335e-05
0.000715046 -7.003e-06 1.79806e-07
-7.003e-06 -8.8598e-05 -1.92958e-07
1.79806e-07 -1.92958e-07 -0.000141287
0.00464291 -5.7824e-06 -0.00010082
-5.7824e-06 0.00210746 1.80681e-06
-0.00010082 1.80681e-06 0.0021028
0.000678751 -1.8085e-05 1.19366e-05
-1.8085e-05 -9.95525e-05 -2.37804e-06
1.19366e-05 -2.37804e-06 -0.000149622
0.00459258 1.9092e-06 1.60754e-06
1.9092e-06 0.00208291 3.99541e-07
1.60754e-06 3.99541e-07 0.0020784
0.00151591 -1.1281e-05 8.77142e-05
-1.1281e-05 0.000446037 -3.59794e-06
8.77142e-05 -3.59794e-06 0.000425658
0.00195152 1.04075e-05 -7.41496e-07
1.04075e-05 0.000245879 -7.4535e-07
-7.41496e-07 -7.4535e-07 0.000136764
0.00170151 5.58196e-06 5.75631e-07
5.58196e-06 8.95598e-05 5.24256e-07
5.75631e-07 5.24256e-07 -2.02255e-05
0.00147567 2.09173e-05 -3.4166e-06
2.09173e-05 4.61164e-05 -8.28326e-07
-3.4166e-06 -8.28326e-07 -5.91872e-05
0.00165832 2.04039e-05 4.13454e-07
2.04039e-05 9.09324e-05 -4.62687e-07
4.13454e-07 -4.62687e-07 -1.77072e-05
0.00178896 1.41524e-05 1.34851e-06
1.41524e-05 0.000121612 -1.79766e-08
1.34851e-06 -1.79766e-08 1.24669e-05
0.00120929 4.45484e-05 -8.4072e-06
4.45484e-05 7.30006e-06 -2.00502e-06
-8.4072e-06 -2.00502e-06 -8.33458e-05
0.00148718 5.06556e-05 -1.278e-07
5.06556e-05 6.17575e-05 3.71214e-07
-1.278e-07 3.71214e-07 -4.46411e-05
0.0015982 4.02005e-05 1.66716e-06
4.02005e-05 5.89856e-05 4.97484e-07
1.66716e-06 4.97484e-07 -5.1818e-05
0.000687883 5.13527e-05 -1.33705e-05
5.13527e-05 -9.59461e-05 -4.07254e-06
-1.33705e-05 -4.07254e-06 -0.000148616
0.000966755 6.31046e-05 -2.57238e-06
6.31046e-05 -0.000104198 -5.60332e-07
-2.57238e-06 -5.60332e-07 -0.000196408
0.00192383 9.44467e-05 4.00893e-06
9.44467e-05 0.000313218 9.97667e-07
4.00893e-06 9.97667e-07 0.000207517
0.00468331 -1.71419e-05 -9.92619e-05
-1.71419e-05 0.00214061 -4.65293e-06
-9.92619e-05 -4.65293e-06 0.00213315
0.000655637 6.59943e-05 1.60519e-07
6.59943e-05 -9.17752e-05 2.34336e-07
1.60519e-07 2.34336e-07 -0.000146198
0.000735482 7.19905e-05 5.37023e-06
7.19905e-05 -0.000197067 2.08924e-06
5.37023e-06 2.08924e-06 -0.000291938
0.00420588 -4.90456e-05 3.40554e-06
-4.90456e-05 0.00190781 3.62475e-08
3.40554e-06 3.62475e-08 0.00189618
0.000563429 6.60346e-05 1.08609e-05
6.60346e-05 -0.000110457 5.98789e-06
1.08609e-05 5.98789e-06 -0.000165368
0.00353321 -0.00011292 5.96899e-05
-0.00011292 0.00156347 3.5964e-06
5.96899e-05 3.5964e-06 0.00154906
0.00178792 1.22151e-05 -3.03769e-06
1.22151e-05 0.000188455 -7.45958e-07
-3.03769e-06 -7.45958e-07 7.88108e-05
0.00183716 6.46596e-06 4.40854e-07
6.46596e-06 0.000167329 4.34629e-09
4.40854e-07 4.34629e-09 5.36034e-05
0.00183287 3.46401e-06 1.31096e-06
3.46401e-06 0.000138863 7.21577e-07
1.31096e-06 7.21577e-07 2.80588e-05
0.000919066 -1.21981e-05 -1.02418e-05
-1.21981e-05 -0.000190725 -2.42997e-07
-1.02418e-05 -2.42997e-07 -0.000292128
0.00179003 5.2349e-06 1.08272e-06
5.2349e-06 0.000185853 2.71584e-08
1.08272e-06 2.71584e-08 7.50721e-05
0.00182042 9.77136e-06 2.4531e-06
9.77136e-06 0.000158227 2.51625e-08
2.4531e-06 2.51625e-08 4.41256e-05
0.00177932 5.93825e-06 5.16988e-06
5.93825e-06 0.000183531 2.8317e-08
5.16988e-06 2.8317e-08 7.12056e-05
0.000903124 -7.91338e-07 -1.50418e-06
-7.91338e-07 -0.000195248 3.28596e-07
-1.50418e-06 3.28596e-07 -0.000297477
0.000770299 1.46467e-06 -1.37439e-05
1.46467e-06 -9.3289e-05 7.78661e-07
-1.37439e-05 7.78661e-07 -0.000153898
0.00123943 -3.72234e-07 6.64226e-06
-3.72234e-07 1.33777e-05 -1.27526e-06
6.64226e-06 -1.27526e-06 -8.21001e-05
0.000748028 2.97763e-06 3.01037e-07
2.97763e-06 -8.87575e-05 1.2117e-07
3.01037e-07 1.2117e-07 -0.000146211
0.00489151 -4.81039e-06 -0.000104616
-4.81039e-06 0.00223165 8.93971e-07
-0.000104616 8.93971e-07 0.00222641
0.0007429 2.74939e-06 1.2273e-05
2.74939e-06 -7.54591e-05 -2.04535e-06
1.2273e-05 -2.04535e-06 -0.000128045
0.00471645 3.94299e-05 5.40984e-06
3.94299e-05 0.00214663 1.70682e-07
5.40984e-06 1.70682e-07 0.00214029
0.00462185 6.80116e-06 0.000105441
6.80116e-06 0.00209703 -1.88972e-06
0.000105441 -1.88972e-06 0.00209288
0.00156409 1.07936e-05 -3.64317e-06
1.07936e-05 8.54223e-05 -1.49691e-06
-3.64317e-06 -1.49691e-06 -2.14459e-05
0.00172732 9.1541e-06 5.12693e-07
9.1541e-06 0.000127349 4.35492e-07
5.12693e-07 4.35492e-07 1.79286e-05
0.00167574 5.32552e-06 9.3008e-07
5.32552e-06 7.43961e-05 8.84544e-07
9.3008e-07 8.84544e-07 -3.48873e-05
0.00122333 1.79728e-05 -8.14152e-06
1.79728e-05 2.5373e-06 -1.78149e-06
-8.14152e-06 -1.78149e-06 -8.88272e-05
0.00151496 2.1263e-05 2.34054e-07
2.1263e-05 6.56471e-05 -1.79619e-07
2.34054e-07 -1.79619e-07 -3.96942e-05
0.00160618 1.95839e-05 1.53175e-06
1.95839e-05 6.34936e-05 -3.52951e-07
1.53175e-06 -3.52951e-07 -4.52045e-05
0.000709925 3.08384e-05 -1.30337e-05
3.08384e-05 -9.86514e-05 -3.22747e-06
-1.30337e-05 -3.22747e-06 -0.000151394
0.00121144 4.55342e-05 -4.59806e-08
4.55342e-05 8.95027e-06 2.19855e-07
-4.59806e-08 2.19855e-07 -8.19293e-05
0.00153156 5.12149e-05 3.99548e-06
5.12149e-05 8.36541e-05 1.32566e-06
3.99548e-06 1.32566e-06 -2.27511e-05
0.00478665 1.30917e-05 -0.000110383
1.30917e-05 0.00218237 -3.82354e-06
-0.000110383 -3.82354e-06 0.00217784
0.000677504 5.02549e-05 2.57467e-08
5.02549e-05 -0.000101142 9.06655e-08
2.57467e-08 9.06655e-08 -0.000153884
0.00118481 6.95516e-05 6.16685e-06
6.95516e-05 1.25915e-05 1.97158e-06
6.16685e-06 1.97158e-06 -7.88409e-05
0.00454445 -9.0965e-06 4.81772e-06
-9.0965e-06 0.0020709 3.77923e-07
4.81772e-06 3.77923e-07 0.00206289
0.000621449 6.0666e-05 1.18668e-05
6.0666e-05 -0.000108725 5.21824e-06
1.18668e-05 5.21824e-06 -0.000163147
0.00399111 -5.77501e-05 7.55792e-05
-5.77501e-05 0.00179559 4.38439e-06
7.55792e-05 4.38439e-06 0.0017854
0.00130102 4.813e-06 -8.94638e-06
4.813e-06 1.66302e-05 -6.88725e-07
-8.94638e-06 -6.88725e-07 -8.1104e-05
0.00160832 6.96805e-06 1.19554e-06
6.96805e-06 9.11179e-05 2.4258e-08
1.19554e-06 2.4258e-08 -2.03615e-05
0.00185894 3.28739e-06 1.98402e-06
3.28739e-06 0.000180451 7.99007e-07
1.98402e-06 7.99007e-07 6.65096e-05
0.000758048 1.5138e-05 -1.42149e-05
1.5138e-05 -0.000107655 -6.06628e-07
-1.42149e-05 -6.06628e-07 -0.000166739
0.000907057 -5.19302e-06 -1.70726e-06
-5.19302e-06 -0.000197672 1.5442e-08
-1.70726e-06 1.5442e-08 -0.000299063
0.00180346 1.21793e-05 5.67093e-06
1.21793e-05 0.000192966 1.2983e-07
5.67093e-06 1.2983e-07 8.21791e-05
0.000895871 -8.58115e-07 6.54123e-06
-8.58115e-07 -0.000197795 -4.53873e-08
6.54123e-06 -4.53873e-08 -0.000299895
0.000751952 5.94683e-06 9.79886e-08
5.94683e-06 -0.000103338 4.47831e-07
9.79886e-08 4.47831e-07 -0.000163914
0.00518561 2.49363e-05 -0.000109922
2.49363e-05 0.00237801 -3.86355e-07
-0.000109922 -3.86355e-07 0.00237254
0.00076779 1.20665e-05 1.29398e-05
1.20665e-05 -7.95928e-05 -1.31373e-06
1.29398e-05 -1.31373e-06 -0.000137246
0.00498705 8.23375e-07 1.49917e-06
8.23375e-07 0.00227874 4.53347e-07
1.49917e-06 4.53347e-07 0.0022737
0.00476916 8.79192e-06 0.00011098
8.79192e-06 0.00216928 -1.05749e-06
0.00011098 -1.05749e-06 0.00216507
0.0012694 7.09216e-06 -8.63599e-06
7.09216e-06 1.30958e-05 -1.9263e-06
-8.63599e-06 -1.9263e-06 -8.12487e-05
0.00145633 9.18659e-06 -4.92967e-08
9.18659e-06 2.63857e-05 -1.34873e-07
-4.92967e-08 -1.34873e-07 -8.1321e-05
0.00150471 7.85682e-06 1.83926e-06
7.85682e-06 9.63909e-06 1.46933e-06
1.83926e-06 1.46933e-06 -0.000100087
0.00247156 9.72872e-06 -6.06797e-05
9.72872e-06 0.000829137 -1.96579e-06
-6.06797e-05 -1.96579e-06 0.000786362
0.00123226 1.9319e-05 1.41921e-07
1.9319e-05 7.16565e-06 5.10028e-08
1.41921e-07 5.10028e-08 -8.44244e-05
0.00155606 2.14644e-05 3.81909e-06
2.14644e-05 8.61033e-05 4.58815e-07
3.81909e-06 4.58815e-07 -1.92764e-05
0.00486321 1.82891e-05 -0.000117356
1.82891e-05 0.00221548 -2.82412e-06
-0.000117356 -2.82412e-06 0.0022115
0.000715067 3.25195e-05 1.82433e-08
3.25195e-05 -9.53708e-05 6.89221e-08
1.82433e-08 6.89221e-08 -0.00014821
0.00121157 4.63849e-05 8.50518e-06
4.63849e-05 9.52942e-06 2.38998e-06
8.50518e-06 2.38998e-06 -8.15819e-05
0.00471299 2.02813e-05 1.81273e-06
2.02813e-05 0.00214695 5.32419e-07
1.81273e-06 5.32419e-07 0.00214172
0.000671938 4.97464e-05 1.26744e-05
4.97464e-05 -0.000103636 4.19333e-06
1.26744e-05 4.19333e-06 -0.000156441
0.00440313 2.08689e-06 9.40387e-05
2.08689e-06 0.00199693 4.65183e-06
9.40387e-05 4.65183e-06 0.00199027
0.000787707 7.07367e-06 -1.52569e-05
7.07367e-06 -8.89154e-05 -1.77416e-06
-1.52569e-05 -1.77416e-06 -0.000149341
0.00110504 1.77189e-06 3.59255e-07
1.77189e-06 -8.7581e-05 5.44609e-07
3.59255e-07 5.44609e-07 -0.00018648
0.00142275 1.70258e-06 5.11397e-06
1.70258e-06 -9.48351e-06 8.01973e-07
5.11397e-06 8.01973e-07 -0.000122743
0.00529415 -4.01012e-05 -0.000109995
-4.01012e-05 0.00243733 -1.77157e-06
-0.000109995 -1.77157e-06 0.00242852
0.000762805 9.86357e-06 -8.8842e-08
9.86357e-06 -0.000103362 1.54777e-07
-8.8842e-08 1.54777e-07 -0.00016357
0.000903988 1.46722e-06 6.71903e-06
1.46722e-06 -0.000199997 2.95899e-07
6.71903e-06 2.95899e-07 -0.000301378
0.000749758 1.43488e-05 1.34232e-05
1.43488e-05 -0.000104911 2.65825e-07
1.34232e-05 2.65825e-07 -0.000165644
0.0052468 5.06658e-05 4.2138e-06
5.06658e-05 0.00241114 4.77251e-07
4.2138e-06 4.77251e-07 0.00240394
0.00511042 8.54267e-05 0.000112851
8.54267e-05 0.00234489 2.08384e-07
0.000112851 2.08384e-07 0.00233646
0.00257329 -1.11349e-05 -6.43306e-05
-1.11349e-05 0.000870441 -2.0176e-06
-6.43306e-05 -2.0176e-06 0.000824688
0.00127112 8.97301e-06 -7.60023e-08
8.97301e-06 1.39626e-05 -4.18962e-08
-7.60023e-08 -4.18962e-08 -8.03494e-05
0.00134944 7.71986e-06 3.4861e-06
7.71986e-06 -3.21974e-05 1.11446e-06
3.4861e-06 1.11446e-06 -0.000140742
0.00471281 4.29302e-05 -3.19881e-05
4.29302e-05 0.00214252 -1.38784e-06
-3.19881e-05 -1.38784e-06 0.00213186
0.000762019 1.21962e-05 -1.36474e-07
1.21962e-05 -7.99834e-05 1.58204e-07
-1.36474e-07 1.58204e-07 -0.000134921
0.00125382 2.15e-05 8.39787e-06
2.15e-05 1.79831e-05 1.90417e-06
8.39787e-06 1.90417e-06 -7.3774e-05
0.00482027 2.6601e-05 -1.57714e-06
2.6601e-05 0.00219582 5.01388e-07
-1.57714e-06 5.01388e-07 0.0021914
0.000716028 3.45195e-05 1.3298e-05
3.45195e-05 -9.38473e-05 3.51537e-06
1.3298e-05 3.51537e-06 -0.000146842
0.00464972 3.0489e-05 0.00010525
3.0489e-05 0.00211578 4.54118e-06
0.00010525 4.54118e-06 0.00211028
0.00176329 -1.64105e-05 -0.000110122
-1.64105e-05 0.000545834 -3.4295e-08
-0.000110122 -3.4295e-08 0.000520969
0.00169062 8.51349e-06 -2.61309e-05
8.51349e-06 0.000393339 5.41019e-07
-2.61309e-05 5.41019e-07 0.000340878
0.000911094 2.03867e-06 8.70912e-06
2.03867e-06 -0.000190613 1.57804e-06
8.70912e-06 1.57804e-06 -0.000290689
0.00528044 -4.95838e-05 4.50717e-06
-4.95838e-05 0.00243214 -1.05509e-06
4.50717e-06 -1.05509e-06 0.00242229
0.000754003 6.57326e-06 1.41348e-05
6.57326e-06 -0.000106682 9.41847e-07
1.41348e-05 9.41847e-07 -0.000167446
0.00527827 4.06862e-06 0.00011961
4.06862e-06 0.0024241 1.00829e-06
0.00011961 1.00829e-06 0.00241863
0.00147688 -7.55944e-05 -8.1094e-06
-7.55944e-05 0.000414023 -8.1928e-07
-8.1094e-06 -8.1928e-07 0.000380522
0.00168338 6.01123e-06 -2.51821e-05
6.01123e-06 0.000399472 1.19578e-07
-2.51821e-05 1.19578e-07 0.000347885
0.00127259 8.74266e-06 8.25531e-06
8.74266e-06 1.4869e-05 1.88299e-06
8.25531e-06 1.88299e-06 -7.94423e-05
0.00318322 1.1414e-05 4.48086e-05
1.1414e-05 0.00132006 4.86088e-07
4.48086e-05 4.86088e-07 0.00130354
0.000772483 1.9566e-05 1.36467e-05
1.9566e-05 -7.43219e-05 3.03407e-06
1.36467e-05 3.03407e-06 -0.000129562
0.00478484 3.76497e-05 0.000110685
3.76497e-05 0.00217972 3.90358e-06
0.000110685 3.90358e-06 0.00217481
0.00525085 -4.07504e-05 -5.39281e-06
-4.07504e-05 0.0024125 4.52773e-07
-5.39281e-06 4.52773e-07 0.00240568
0.000758073 1.60418e-05 1.4221e-05
1.60418e-05 -0.000102721 1.95023e-06
1.4221e-05 1.95023e-06 -0.00016143
0.00527489 4.70924e-05 0.000113504
4.70924e-05 0.00242778 -1.16919e-06
0.000113504 -1.16919e-06 0.0024189
0.00329885 7.79441e-06 5.03429e-05
7.79441e-06 0.00137585 1.97922e-07
5.03429e-05 1.97922e-07 0.00135813
0.000766178 9.87458e-06 1.36412e-05
9.87458e-06 -8.75138e-05 2.57894e-06
1.36412e-05 2.57894e-06 -0.000145571
0.00490839 2.27686e-05 0.000110481
2.27686e-05 0.00223901 2.64927e-06
0.000110481 2.64927e-06 0.00223439
0.00519196 -0.000131786 0.000105899
-0.000131786 0.00239418 -3.91367e-08
0.000105899 -3.91367e-08 0.00237961
0.00505611 -7.88848e-05 0.000106257
-7.88848e-05 0.0023174 9.60844e-07
0.000106257 9.60844e-07 0.00230893
