# vtk DataFile Version 2.0
Wound Healing Simulation
ASCII
DATASET UNSTRUCTURED_GRID
POINTS 3012 float
69.9759 18.75 4
67.2507 60.3285 4
69.976 18.75 2
73.0099 25.446 4
71.1327 20.9142 4
68.6801 16.6661 4
67.8194 19.924 3.97015
67.2507 60.3286 2
71.1327 54.0858 4
68.6801 58.3339 4
65.6939 62.2254 4
65.3064 58.9993 3.96931
74.6784 42.3946 4
73.7221 47.2057 4
69.9759 18.75 0
73.0099 25.446 2
68.6801 16.6661 2
71.1327 20.9142 2
67.8196 19.9278 2
74.6792 32.6053 4
73.7222 27.7943 4
72.1454 23.1494 4
70.6103 26.2211 3.97091
68.8803 21.9561 3.97061
67.2507 14.6715 4
66.6302 17.9711 3.96928
65.7002 21.0566 3.96048
67.2507 60.3285 0
71.1327 54.0858 2
68.6801 58.3339 2
65.694 62.2255 2
65.3079 58.9935 2
72.1454 51.8506 4
69.9759 56.25 4
68.831 53.1148 3.97063
64.0165 64.0165 4
66.6043 57.1337 3.97008
63.8789 60.761 3.96593
63.4269 57.7386 3.95744
60.3285 67.2507 4
74.6792 42.3947 2
73.7222 47.2057 2
74.9194 39.9526 4
74.2788 44.8158 4
72.1654 42.0859 3.9735
73.0099 49.554 4
71.2459 46.5984 3.97186
73.0099 25.446 0
71.1327 20.9142 0
68.6801 16.6661 0
67.8194 19.924 0.0298458
74.6792 32.6053 2
73.7222 27.7943 2
67.2508 14.6715 2
72.1455 23.1494 2
70.6095 26.2223 2
66.6312 17.9753 2
68.8801 21.9588 2
65.701 21.0573 2
74.9197 35.0474 4
74.2794 30.1841 4
72.1821 32.9447 3.97348
71.275 28.4323 3.97162
69.811 24.0586 3.97069
68.2849 26.9694 3.96391
66.6765 22.9599 3.96213
65.694 12.7746 4
65.3172 16.1046 3.96876
64.6121 19.2299 3.95855
63.6438 22.1285 3.96574
71.1327 54.0858 0
65.6939 62.2254 0
68.6801 58.3339 0
65.3064 58.9993 0.0306913
72.1455 51.8506 2
69.9759 56.25 2
68.8312 53.1112 2
64.0165 64.0165 2
66.6057 57.1282 2
63.8804 60.7548 2
63.4188 57.7383 2
62.2254 65.694 4
58.8886 65.408 3.97311
69.7642 50.9902 3.97073
67.7777 55.1688 3.97041
66.5549 52.1809 3.96287
62.3297 62.422 3.96636
64.5677 55.9982 3.9596
62.1788 59.3763 3.9535
61.6201 56.5839 3.96105
58.3339 68.6801 4
60.3285 67.2508 2
73.7221 47.2057 0
74.6784 42.3946 0
74.9197 39.9526 2
74.2794 44.8159 2
72.1643 42.0848 2
73.0099 49.554 2
71.245 46.5967 2
75 37.5 4
72.4027 39.8028 3.97437
71.7794 44.3531 3.97287
69.7747 41.7858 3.96738
70.5711 48.8143 3.97121
68.8542 46.0016 3.96606
74.6792 32.6053 0
73.7222 27.7943 0
67.2507 14.6715 0
72.1454 23.1494 0
70.6103 26.2211 0.0290936
68.8803 21.9561 0.0293904
66.6302 17.9711 0.0307234
65.7002 21.0566 0.0395219
74.9197 35.0474 2
74.2794 30.1841 2
72.1807 32.9448 2
71.2739 28.4332 2
65.694 12.7745 2
65.3174 16.1099 2
69.8104 24.0604 2
68.288 26.9701 2
64.6053 19.2317 2
66.6785 22.9607 2
63.6439 22.1286 2
72.4106 35.2253 3.97429
71.801 30.6776 3.97291
69.8111 33.276 3.96644
68.9164 29.0524 3.96466
67.5384 24.934 3.96336
65.956 27.6997 3.97425
64.0165 10.9835 4
64.5038 23.9165 3.96879
63.882 14.3314 3.9653
63.4222 17.4834 3.95567
62.67 20.4208 3.96269
61.6975 23.1 3.97243
60.6785 11.105 3.97252
57.6021 11.4999 3.96375
72.1454 51.8506 0
69.9759 56.25 0
68.831 53.1148 0.0293739
64.0165 64.0165 0
63.8789 60.761 0.0340654
66.6043 57.1337 0.029924
63.4269 57.7386 0.0425643
62.2255 65.694 2
58.8924 65.4017 2
69.764 50.9875 2
67.7784 55.164 2
66.5563 52.18 2
62.3314 62.4132 2
64.5615 55.9971 2
62.1672 59.3757 2
61.6236 56.5849 2
60.6626 63.972 3.97266
57.0202 66.7311 3.9777
57.5415 63.6403 3.96736
67.4209 50.1528 3.96411
65.6054 54.1419 3.96115
64.2624 51.2956 3.96979
60.7608 60.9002 3.96086
62.5899 54.9724 3.96487
60.4749 58.0567 3.95581
60.015 55.6343 3.96709
56.25 69.9759 4
58.3339 68.6801 2
60.3285 67.2507 0
58.9176 9.66368 3.97263
62.2254 9.30607 4
73.0099 49.554 0
74.2788 44.8158 0
71.2459 46.5984 0.0281401
72.1654 42.0859 0.0265006
74.9194 39.9526 0
75 37.5 2
72.402 39.802 2
71.7787 44.3516 2
69.777 41.7854 2
70.5706 48.8123 2
68.8582 46.0011 2
72.4863 37.5129 3.9742
70.0191 39.6568 3.96737
69.3912 43.8998 3.9671
67.3661 41.4746 3.97665
68.1906 48.0882 3.9649
66.4505 45.3873 3.9764
74.9197 35.0474 0
74.2794 30.1841 0
72.1821 32.9447 0.0265177
71.275 28.4323 0.0283755
65.694 12.7746 0
65.3172 16.1046 0.031241
69.811 24.0586 0.0293144
68.2849 26.9694 0.0360854
66.6765 22.9599 0.0378743
64.6121 19.2299 0.0414536
63.6438 22.1285 0.0342597
72.4098 35.225 2
71.8002 30.6783 2
69.8144 33.2763 2
68.921 29.0527 2
64.0165 10.9835 2
63.8835 14.3384 2
63.4293 17.4804 2
67.5412 24.9347 2
65.9535 27.7008 2
62.6753 20.4193 2
64.5025 23.9171 2
61.6973 23.101 2
60.6811 11.1104 2
57.5996 11.4898 2
70.0345 35.3968 3.96683
69.4296 31.1602 3.96544
67.4348 33.618 3.97663
66.5377 29.6761 3.9756
65.2759 25.7754 3.97201
63.7101 28.3697 3.97523
62.3339 12.6611 3.96657
62.4437 24.7854 3.97448
62.1694 15.8131 3.95413
61.5791 18.7943 3.95917
60.8388 21.508 3.96872
59.8971 23.9462 3.97388
59.2348 12.8266 3.96377
55.8689 10.2759 3.97242
56.378 13.2043 3.96363
69.7642 50.9902 0.0292696
62.2254 65.694 0
58.8886 65.408 0.0268865
67.7777 55.1688 0.0295866
66.5549 52.1809 0.037127
62.3297 62.422 0.0336367
62.1788 59.3763 0.0464968
64.5677 55.9982 0.0403998
61.6201 56.5839 0.0389495
60.6664 63.9649 2
57.0243 66.7257 2
57.5449 63.6484 2
67.4224 50.1518 2
65.6044 54.1411 2
64.2609 51.2948 2
60.7522 60.902 2
62.5926 54.9732 2
60.4678 58.0549 2
60.0137 55.6343 2
55.0657 67.9292 3.98191
59.2109 62.3164 3.96841
55.7881 64.8603 3.96988
56.3079 62.0082 3.98121
65.0541 49.3282 3.9728
63.4443 53.197 3.96712
61.9822 50.4961 3.97378
59.2269 59.4686 3.95359
60.7098 54.1539 3.97134
58.9531 56.8418 3.96054
58.83 54.9912 3.97128
48.0973 68.5672 3.97876
50.9439 69.9302 3.98587
54.0858 71.1327 4
56.25 69.976 2
58.3339 68.6801 0
57.0559 8.33701 3.9799
60.3285 7.74928 4
58.9198 9.669 2
62.2255 9.30602 2
70.5711 48.8143 0.0287942
71.7794 44.3531 0.0271288
68.8542 46.0016 0.0339401
69.7747 41.7858 0.0326158
72.4027 39.8028 0.0256331
75 37.5 0
72.4849 37.5123 2
70.0221 39.6565 2
69.3929 43.8992 2
67.3632 41.4739 2
68.1914 48.0872 2
66.4467 45.386 2
70.1072 37.5237 3.96719
67.6139 39.5033 3.97658
66.9774 43.4322 3.97664
65.1475 41.1751 3.97642
65.7993 47.3511 3.97496
64.202 44.7678 3.97586
72.4106 35.2253 0.0257054
71.801 30.6776 0.0270911
69.8111 33.276 0.0335617
68.9164 29.0524 0.0353393
64.0165 10.9835 0
63.882 14.3314 0.0346972
63.4222 17.4834 0.0443309
67.5384 24.934 0.0366429
65.956 27.6997 0.0257486
64.5038 23.9165 0.031212
62.67 20.4208 0.0373104
61.6975 23.1 0.0275705
60.6785 11.105 0.0274752
57.6021 11.4999 0.0362517
70.0374 35.3969 2
69.433 31.1605 2
67.4326 33.6186 2
66.5346 29.6772 2
62.3364 12.6684 2
62.1682 15.8135 2
61.5894 18.7913 2
65.2739 25.7764 2
63.7087 28.3701 2
60.8386 21.509 2
62.443 24.7863 2
59.8954 23.9479 2
59.2336 12.8242 2
56.3732 13.1945 2
55.8686 10.2813 2
67.6566 35.5629 3.97668
67.0377 31.6627 3.9765
65.3055 33.9676 3.97662
64.2292 30.283 3.97567
63.113 26.5501 3.97469
61.6621 28.9334 3.9751
60.7576 14.2609 3.95801
60.4862 25.5465 3.97437
60.4257 17.2348 3.95508
59.8398 19.9976 3.96385
59.145 22.4879 3.97126
58.3385 24.594 3.97425
54.0371 9.15595 3.98726
57.854 14.419 3.95151
54.7756 12.0992 3.97415
55.2368 14.772 3.95035
67.4209 50.1528 0.0358853
57.0202 66.7311 0.0223009
60.6626 63.972 0.0273352
57.5415 63.6403 0.0326427
65.6054 54.1419 0.0388534
64.2624 51.2956 0.0302092
60.7608 60.9002 0.0391412
60.4749 58.0567 0.0441948
62.5899 54.9724 0.0351306
60.015 55.6343 0.0329122
55.0704 67.9238 2
59.2079 62.3229 2
55.7921 64.855 2
56.3049 62.0105 2
65.0518 49.3271 2
63.4441 53.1967 2
61.9813 50.4959 2
59.2526 59.4776 2
60.7087 54.1538 2
58.9604 56.8442 2
58.8391 54.9934 2
53.0376 68.9965 3.98255
53.9553 65.9875 3.97057
57.8405 60.7973 3.95434
54.657 63.1112 3.9648
55.168 60.5203 3.97643
62.7225 48.5202 3.97414
61.322 52.4165 3.97285
59.6386 49.7965 3.97296
57.7902 58.1166 3.95681
58.8543 53.7419 3.97247
57.6411 55.5869 3.96326
50.1028 67.8453 3.97475
47.4532 66.5601 3.9747
46.052 69.1486 3.98124
48.1014 68.5683 2
48.7979 70.7211 3.98756
50.9489 69.9268 2
51.8506 72.1454 4
54.0858 71.1327 2
56.25 69.9759 0
55.1011 7.14033 3.99216
58.3339 6.31992 4
57.0593 8.34293 2
60.3286 7.74926 2
58.9176 9.66368 0.0273724
62.2254 9.30607 0
68.1906 48.0882 0.0350961
69.3912 43.8998 0.0328953
66.4505 45.3873 0.023603
67.3661 41.4746 0.0233475
70.0191 39.6568 0.0326278
72.4863 37.5129 0.0258048
70.1109 37.5236 2
67.611 39.503 2
66.9753 43.431 2
65.147 41.1749 2
65.7968 47.3498 2
64.2012 44.7675 2
67.7173 37.5257 3.97654
65.3896 39.3543 3.97655
64.7518 42.9669 3.97623
63.2012 40.8809 3.97633
63.4934 46.6043 3.97491
62.1939 44.1099 3.97572
70.0345 35.3968 0.0331749
69.4296 31.1602 0.0345607
67.4348 33.618 0.0233688
66.5377 29.6761 0.0243991
62.3339 12.6611 0.03343
62.1694 15.8131 0.0458666
61.5791 18.7943 0.0408291
65.2759 25.7754 0.0279898
63.7101 28.3697 0.0247654
62.4437 24.7854 0.0255155
60.8388 21.508 0.0312815
59.8971 23.9462 0.0261231
59.2348 12.8266 0.0362265
56.378 13.2043 0.0363703
55.8689 10.2759 0.0275849
67.6544 35.5634 2
67.0355 31.6636 2
65.304 33.9678 2
64.2284 30.2833 2
60.7549 14.2608 2
60.418 17.2357 2
59.839 19.9986 2
63.1116 26.551 2
61.662 28.9332 2
59.1457 22.489 2
60.4854 25.5469 2
58.3344 24.5966 2
57.8532 14.4101 2
55.2266 14.7567 2
54.0412 9.15122 2
54.765 12.0936 2
65.4883 35.6902 3.97657
64.7655 32.2164 3.97597
63.7818 34.2987 3.97613
61.9871 30.7575 3.97541
61.0672 27.2517 3.97466
60.1339 29.3265 3.97555
59.1894 15.7662 3.95402
58.6354 26.0563 3.97474
58.7828 18.5382 3.96002
58.2314 21.097 3.9658
57.6669 23.3739 3.97175
57.2636 24.9707 3.97542
52.1022 8.18292 3.96844
53.0581 11.0597 3.97618
56.5413 15.8862 3.95568
53.7698 13.7857 3.96796
54.2254 16.1589 3.95683
55.0657 67.9292 0.018088
65.0541 49.3282 0.0271968
55.7881 64.8603 0.030117
59.2109 62.3164 0.0315903
56.3079 62.0082 0.0187928
63.4443 53.197 0.032881
61.9822 50.4961 0.0262182
59.2269 59.4686 0.0464119
58.9531 56.8418 0.0394595
60.7098 54.1539 0.0286565
58.83 54.9912 0.0287199
53.0427 68.9932 2
53.9595 65.9874 2
57.8418 60.8039 2
54.6549 63.1113 2
55.1655 60.5188 2
62.7218 48.5198 2
61.3215 52.4165 2
59.639 49.7963 2
57.7979 58.1212 2
58.8588 53.7425 2
57.6381 55.5856 2
52.0614 66.9814 3.97344
52.9311 64.1499 3.96858
56.5266 59.3698 3.95167
53.6242 61.4841 3.96543
54.1708 59.1877 3.96463
60.3208 47.6891 3.9738
59.1454 51.8867 3.97291
57.2455 49.3364 3.9736
56.4629 56.797 3.96074
56.4923 53.8472 3.96789
50.1068 67.8421 2
49.323 65.8825 3.9741
47.4571 66.5516 2
46.8775 64.6786 3.97808
45.5532 67.0785 3.97814
43.9704 69.5819 3.98306
46.056 69.1491 2
46.6052 71.3657 3.98919
48.0973 68.5672 0.0212403
48.8028 70.7204 2
49.554 73.0099 4
50.9439 69.9302 0.0141288
51.8506 72.1455 2
54.0858 71.1327 0
53.0625 6.08105 3.98061
55.1054 7.14279 2
56.25 5.02411 4
58.3339 6.3199 2
57.0559 8.33701 0.0201024
60.3285 7.74928 0
65.7993 47.3511 0.0250386
66.9774 43.4322 0.0233619
64.202 44.7678 0.0241371
65.1475 41.1751 0.0235848
67.6139 39.5033 0.023425
70.1072 37.5237 0.0328085
67.7147 37.5258 2
65.3891 39.3544 2
64.7505 42.9665 2
63.2018 40.881 2
63.4928 46.6036 2
62.1942 44.11 2
65.4994 37.5063 3.9765
63.3498 39.2466 3.97626
62.7471 42.4773 3.97609
61.7556 40.6413 3.97649
61.3151 45.7686 3.97501
60.7058 43.5612 3.97595
67.6566 35.5629 0.0233228
67.0377 31.6627 0.0234971
65.3055 33.9676 0.0233849
64.2292 30.283 0.0243328
60.7576 14.2609 0.0419861
60.4257 17.2348 0.0449238
59.8398 19.9976 0.0361461
63.113 26.5501 0.0253136
61.6621 28.9334 0.0248994
60.4862 25.5465 0.0256341
59.145 22.4879 0.0287352
58.3385 24.594 0.0257507
57.854 14.419 0.0484907
55.2368 14.772 0.0496511
54.0371 9.15595 0.0127356
54.7756 12.0992 0.0258512
65.4875 35.6902 2
64.7646 32.2168 2
63.7827 34.2987 2
61.9872 30.7572 2
59.2069 15.76 2
58.7804 18.5394 2
58.2294 21.099 2
61.0666 27.2519 2
60.1347 29.3262 2
57.6632 23.3769 2
58.6324 26.0571 2
57.2601 24.9745 2
56.5242 15.8901 2
54.2329 16.1585 2
53.7532 13.7714 2
52.1049 8.18931 2
53.0538 11.0578 2
63.5623 35.6639 3.97607
62.3209 33.1294 3.97588
59.8387 30.7814 3.97531
58.7984 28.1451 3.97494
57.6976 17.1479 3.95612
56.9431 26.0436 3.97472
57.25 19.7203 3.95926
56.7443 22.1414 3.96718
56.4641 24.2748 3.97408
50.1057 7.30368 3.97476
51.2009 10.2066 3.96478
52.1377 12.8677 3.97616
55.3077 17.1647 3.9563
52.8832 15.4035 3.96071
53.5541 17.1773 3.95492
53.0376 68.9965 0.0174517
53.9553 65.9875 0.0294258
62.7225 48.5202 0.0258612
54.657 63.1112 0.0352048
57.8405 60.7973 0.0456636
55.168 60.5203 0.0235731
61.322 52.4165 0.0271508
59.6386 49.7965 0.0270447
57.7902 58.1166 0.043194
57.6411 55.5869 0.0367445
58.8543 53.7419 0.027532
52.0655 66.9761 2
52.932 64.1497 2
56.5217 59.3706 2
53.6225 61.4834 2
54.164 59.1879 2
60.3211 47.6889 2
59.1475 51.8866 2
57.2463 49.3371 2
56.4594 56.8003 2
56.4897 53.8463 2
51.1504 65.0847 3.96781
52.0026 62.4354 3.96398
55.2848 58.0892 3.96046
52.7109 59.9611 3.9571
53.5033 58.3113 3.96174
57.3775 46.58 3.97468
56.862 51.5012 3.97257
55.3703 49.2182 3.97469
55.0765 55.5629 3.96216
54.6616 53.0812 3.96251
50.1028 67.8453 0.0252467
49.3255 65.8825 2
48.5961 64.0619 3.97812
47.4532 66.5601 0.0252999
45.555 67.0831 2
46.8798 64.6766 2
46.3585 62.9811 3.98258
45.1208 65.1661 3.98056
43.6286 67.4539 3.98011
41.8584 69.8688 3.98308
43.9729 69.5827 2
44.3732 71.8606 3.99001
46.052 69.1486 0.0187582
46.6086 71.3652 2
47.2057 73.7222 4
48.7979 70.7211 0.0124353
49.554 73.0099 2
51.8506 72.1454 0
50.9543 5.13701 3.98517
53.0652 6.08074 2
54.0858 3.86728 4
55.1011 7.14033 0.00784128
56.25 5.02406 2
58.3339 6.31992 0
63.4934 46.6043 0.0250948
64.7518 42.9669 0.0237656
62.1939 44.1099 0.0242794
63.2012 40.8809 0.0236703
65.3896 39.3543 0.0234509
67.7173 37.5257 0.0234629
65.4988 37.5063 2
63.3509 39.247 2
62.7478 42.477 2
61.7559 40.6414 2
61.3154 45.7682 2
60.7059 43.5612 2
63.4147 37.4622 3.97634
61.4502 39.3234 3.97664
60.4461 41.8607 3.97676
59.4136 44.5932 3.97535
65.4883 35.6902 0.0234291
64.7655 32.2164 0.0240336
63.7818 34.2987 0.0238708
61.9871 30.7575 0.0245855
59.1894 15.7662 0.0459757
58.7828 18.5382 0.039976
58.2314 21.097 0.0341952
61.0672 27.2517 0.0253433
60.1339 29.3265 0.0244469
58.6354 26.0563 0.0252558
57.6669 23.3739 0.0282549
57.2636 24.9707 0.0245773
56.5413 15.8862 0.0443189
54.2254 16.1589 0.0431743
53.7698 13.7857 0.0320391
52.1022 8.18292 0.0315642
53.0581 11.0597 0.0238211
63.5633 35.6635 2
62.3225 33.1297 2
59.8395 30.7813 2
57.7072 17.146 2
57.2479 19.7211 2
56.7434 22.1441 2
58.7986 28.1439 2
56.4727 24.2791 2
56.9412 26.0428 2
50.1109 7.29388 2
55.3039 17.1662 2
53.5606 17.1714 2
52.8745 15.3997 2
52.1443 12.8709 2
51.2061 10.2061 2
61.4927 35.407 3.97633
59.4462 32.8723 3.97581
57.6866 30.3055 3.97493
56.3867 27.6915 3.97508
56.2941 18.3758 3.9563
55.4476 25.4689 3.97425
55.8023 20.8188 3.96054
55.3831 23.2193 3.96788
48.0557 6.53622 3.98091
49.3027 9.38332 3.97302
50.3826 12.131 3.97076
51.3005 14.6019 3.97264
54.1348 18.1579 3.95972
52.1829 17.2389 3.95614
52.0614 66.9814 0.0265583
52.9311 64.1499 0.0314236
60.3208 47.6891 0.0262031
53.6242 61.4841 0.0345651
56.5266 59.3698 0.0483257
54.1708 59.1877 0.0353736
59.1454 51.8867 0.0270936
57.2455 49.3364 0.026395
56.4629 56.797 0.0392604
56.4923 53.8472 0.0321147
51.1519 65.0811 2
52.0027 62.4427 2
55.2773 58.0887 2
52.7138 59.9644 2
53.4966 58.3137 2
57.3778 46.5794 2
56.8608 51.5005 2
55.3695 49.2177 2
55.0751 55.5636 2
54.6607 53.0814 2
50.3149 63.3156 3.97076
51.1531 60.7931 3.97121
53.9748 57.079 3.96789
52.0926 58.4357 3.96959
55.5447 43.936 3.97522
54.4528 47.5348 3.97535
54.1663 51.0357 3.96578
53.5022 54.28 3.96496
49.323 65.8825 0.0258997
48.5942 64.0744 2
47.9244 62.4099 3.98965
45.5532 67.0785 0.0218625
46.8775 64.6786 0.021924
43.6295 67.4554 2
46.3581 62.9795 2
45.1242 65.1601 2
45.9506 61.5041 3.99272
44.7497 63.3952 3.97521
43.3516 65.4822 3.97885
41.6621 67.6716 3.97873
39.701 70.016 3.98279
41.86 69.8709 2
42.1083 72.2044 3.99049
43.9704 69.5819 0.016938
44.3758 71.86 2
44.8159 74.2794 4
46.6052 71.3657 0.0108089
47.2057 73.7222 2
49.554 73.0099 0
48.7852 4.32482 3.9865
50.9552 5.13553 2
51.8506 2.85458 4
53.0625 6.08105 0.0193854
54.0858 3.86728 2
56.25 5.02411 0
61.3151 45.7686 0.0249914
62.7471 42.4773 0.0239123
60.7058 43.5612 0.0240545
61.7556 40.6413 0.023514
63.3498 39.2466 0.0237405
65.4994 37.5063 0.0235005
63.4164 37.4622 2
61.4503 39.3242 2
60.4462 41.8605 2
59.4147 44.5929 2
61.2677 37.4511 3.97661
59.3577 39.7923 3.97668
58.0048 42.7689 3.97582
63.5623 35.6639 0.0239337
62.3209 33.1294 0.0241156
59.8387 30.7814 0.0246938
57.6976 17.1479 0.0438773
57.25 19.7203 0.0407362
56.7443 22.1414 0.0328172
58.7984 28.1451 0.0250589
56.9431 26.0436 0.0252802
56.4641 24.2748 0.0259221
55.3077 17.1647 0.0436981
53.5541 17.1773 0.0450791
52.8832 15.4035 0.0392948
50.1057 7.30368 0.0252405
52.1377 12.8677 0.0238383
51.2009 10.2066 0.0352244
61.4927 35.4067 2
59.4454 32.8724 2
57.688 30.306 2
56.2967 18.3755 2
55.8171 20.8148 2
55.4033 23.2223 2
56.3874 27.6906 2
55.4486 25.47 2
48.0523 6.54374 2
49.3054 9.38437 2
54.1352 18.1621 2
52.1762 17.2336 2
51.2948 14.5988 2
50.3867 12.1246 2
58.9754 35.188 3.9764
56.9299 32.4506 3.97508
55.4822 29.639 3.97507
54.457 26.9972 3.97408
54.9486 19.4525 3.96115
54.1345 24.4521 3.97187
54.3709 21.9067 3.96351
45.9619 5.89483 3.98139
43.3693 7.49089 3.97914
47.341 8.65472 3.97295
48.5638 11.3916 3.9693
49.6292 13.8972 3.9788
50.5012 16.3036 3.95824
52.8266 18.9443 3.96109
51.0944 18.342 3.95293
51.1504 65.0847 0.0321851
52.0026 62.4354 0.0360216
57.3775 46.58 0.0253224
52.7109 59.9611 0.0429004
55.2848 58.0892 0.0395446
53.5033 58.3113 0.038258
56.862 51.5012 0.0274252
55.3703 49.2182 0.0253128
55.0765 55.5629 0.0378423
54.6616 53.0812 0.0374933
50.3123 63.3138 2
51.1529 60.7929 2
53.9656 57.0795 2
52.0839 58.439 2
55.548 43.935 2
54.4536 47.5356 2
54.1614 51.0344 2
53.497 54.2814 2
49.5317 61.6747 3.97731
54.2212 41.571 3.97421
50.4085 59.1638 3.96854
51.8153 56.2603 3.96674
52.8653 45.1783 3.97244
52.2451 48.923 3.96947
51.9519 52.5332 3.95851
48.5961 64.0619 0.0218797
47.9233 62.4116 2
47.2728 60.9326 3.99098
43.6286 67.4539 0.0198931
45.1208 65.1661 0.019444
46.3585 62.9811 0.0174193
41.6635 67.6737 2
43.3576 65.4833 2
45.9528 61.506 2
44.7512 63.3867 2
45.7106 60.5473 4.00468
44.4563 61.7568 3.98207
43.1353 63.6805 3.97922
41.544 65.622 3.97407
39.632 67.7516 3.9783
37.5256 70.0405 3.98282
39.7019 70.0164 2
39.8161 72.4017 3.99081
41.8584 69.8688 0.0169167
42.1102 72.2052 2
42.3947 74.6792 4
44.3732 71.8606 0.00998638
44.8159 74.2794 2
47.2057 73.7222 0
43.8509 5.36829 3.98071
46.5699 3.65091 3.98783
48.7841 4.32834 2
49.554 1.99015 4
50.9543 5.13701 0.0148327
51.8506 2.85453 2
54.0858 3.86728 0
59.4136 44.5932 0.0246529
60.4461 41.8607 0.0232407
61.4502 39.3234 0.0233617
63.4147 37.4622 0.0236581
61.269 37.451 2
59.3556 39.792 2
58.0038 42.768 2
58.8193 37.5712 3.97669
56.9027 40.55 3.97748
53.6142 39.6142 3.97676
61.4927 35.407 0.0236685
59.4462 32.8723 0.0241883
57.6866 30.3055 0.0250689
56.2941 18.3758 0.0437007
55.8023 20.8188 0.0394622
55.3831 23.2193 0.0321213
56.3867 27.6915 0.0249155
55.4476 25.4689 0.025755
54.1348 18.1579 0.0402751
52.1829 17.2389 0.043864
51.3005 14.6019 0.0273554
48.0557 6.53622 0.0190902
49.3027 9.38332 0.0269806
50.3826 12.131 0.0292358
58.9733 35.1872 2
45.9611 5.89382 2
43.37 7.49373 2
56.9283 32.4504 2
55.485 29.6361 2
54.9393 19.4553 2
54.3992 21.9061 2
54.1284 24.4527 2
54.4586 26.9975 2
47.343 8.6491 2
48.5669 11.3803 2
52.8177 18.9146 2
51.0942 18.3452 2
50.5083 16.3025 2
49.6251 13.9002 2
56.235 34.8629 3.97719
54.4903 31.7828 3.97433
53.352 28.7837 3.97588
52.832 25.9277 3.97367
53.5316 20.445 3.96734
52.8961 23.1108 3.97041
41.3964 7.09066 3.98013
45.3509 8.01039 3.98389
42.8601 9.4428 3.97414
46.644 10.7213 3.97423
47.6785 13.2114 3.97297
48.8007 15.5552 3.97766
49.8088 17.9364 3.9617
51.3415 19.6528 3.978
50.3149 63.3156 0.0292401
51.1531 60.7931 0.0287937
55.5447 43.936 0.0247831
54.4528 47.5348 0.0246483
52.0926 58.4357 0.0304066
53.9748 57.079 0.0321083
54.1663 51.0357 0.0342156
53.5022 54.28 0.0350436
49.5319 61.6699 2
54.2163 41.5634 2
50.4066 59.1695 2
51.8197 56.2652 2
52.8595 45.1765 2
52.2404 48.9211 2
51.9571 52.5346 2
48.7435 60.1216 3.99714
50.8224 42.3882 3.98304
49.5417 57.446 3.96543
50.0743 54.1638 3.95982
50.5287 46.8178 3.97716
50.3242 50.5836 3.95216
46.581 43.3355 3.95794
47.9244 62.4099 0.0103497
47.2785 60.93 2
46.5379 59.7149 3.99416
41.6621 67.6716 0.0212652
43.3516 65.4822 0.0211461
44.7497 63.3952 0.024789
45.9506 61.5041 0.00728424
39.6337 67.7522 2
41.5487 65.6183 2
45.7137 60.5497 2
43.1349 63.6755 2
44.4568 61.7533 2
44.5789 60.2029 3.99448
42.9292 62.0171 3.97949
41.5908 63.7897 3.9807
39.6453 65.5913 3.97636
37.5628 67.7334 3.97693
31.7013 65.0982 3.97101
33.3937 67.4714 3.97834
35.3339 69.9514 3.98266
37.5256 70.0423 2
37.5092 72.4558 3.9913
39.701 70.016 0.017207
39.8173 72.4018 2
39.9526 74.9197 4
42.1083 72.2044 0.00951232
42.3947 74.6792 2
44.8159 74.2794 0
41.7358 4.97532 3.98494
43.8503 5.36939 2
44.3259 3.11293 3.98969
46.5708 3.65052 2
47.2057 1.27793 4
48.7852 4.32482 0.0134966
49.554 1.99013 2
51.8506 2.85458 0
58.0048 42.7689 0.0241766
59.3577 39.7923 0.0233206
61.2677 37.4511 0.0233942
58.8193 37.5719 2
56.9037 40.551 2
53.6125 39.6139 2
55.5758 37.8844 3.9772
47.8371 41.1214 3.96677
51.3653 39.2469 3.97904
39.4402 6.81485 3.97862
58.9754 35.188 0.0236027
56.9299 32.4506 0.0249236
55.4822 29.639 0.0249261
54.9486 19.4525 0.0388469
54.3709 21.9067 0.0364911
54.1345 24.4521 0.028131
54.457 26.9972 0.0259246
52.8266 18.9443 0.0389058
51.0944 18.342 0.047073
50.5012 16.3036 0.0417586
45.9619 5.89483 0.0186098
49.6292 13.8972 0.021202
47.341 8.65472 0.0270529
48.5638 11.3916 0.0307003
43.3693 7.49089 0.020857
56.2347 34.8669 2
41.3979 7.09238 2
45.3512 8.01246 2
42.8562 9.44474 2
54.4884 31.7831 2
53.3479 28.7834 2
53.5347 20.4511 2
52.8677 23.1198 2
52.8406 25.9304 2
46.6432 10.7112 2
47.681 13.201 2
51.3415 19.6524 2
49.8098 17.9349 2
48.811 15.583 2
53.3983 34.105 3.97542
52.1188 30.8575 3.97468
51.4853 27.6491 3.97488
51.327 24.5432 3.97129
51.9091 21.4244 3.97501
41.0093 9.06556 3.97586
44.7157 10.0312 3.97868
42.447 10.929 4.00476
45.9467 12.8019 3.9701
47.5827 14.7368 3.97324
47.9404 17.1499 3.98219
49.5836 20.0551 3.98871
49.5317 61.6747 0.022693
50.4085 59.1638 0.03146
54.2212 41.571 0.025785
52.8653 45.1783 0.0275615
52.2451 48.923 0.0305302
51.8153 56.2603 0.0332602
51.9519 52.5332 0.041486
48.7423 60.1184 2
50.8469 42.4111 2
49.5392 57.4443 2
50.0745 54.1665 2
50.5293 46.8174 2
50.3271 50.5836 2
46.5914 43.3787 2
47.841 58.5951 3.99037
48.5821 44.901 3.9816
48.249 55.7123 3.95304
48.4865 52.2995 3.97916
48.6348 48.6404 3.97167
44.2459 39.6817 3.81292
44.808 42.2751 3.86123
45.1658 45.2655 3.97621
42.1534 40.9489 3.57604
41.1932 41.4782 3.3743
47.2728 60.9326 0.00902375
46.5372 59.7178 2
45.3803 58.6978 3.99407
39.632 67.7516 0.0216998
41.544 65.622 0.0259318
43.1353 63.6805 0.0207784
44.4563 61.7568 0.0179301
45.7106 60.5473 -0.00468202
41.5943 63.7821 2
37.5644 67.7354 2
39.6498 65.5925 2
44.5759 60.2051 2
42.9296 62.007 2
41.7387 62.4363 3.98649
42.4476 59.8957 3.98861
39.8867 63.5276 3.98013
37.6404 65.4883 3.975
35.4634 67.6422 3.97584
33.5772 65.3138 3.97326
31.9673 63.2481 3.98454
29.8924 64.6873 3.97814
31.6966 65.1069 2
31.3809 67.1844 3.97853
33.3953 67.4756 2
33.1579 69.7455 3.98341
35.3335 69.9531 2
35.1963 72.3708 3.9916
37.5256 70.0405 0.0171824
37.5098 72.4564 2
37.5 75 4
39.8161 72.4017 0.00919005
39.9526 74.9197 2
42.3947 74.6792 0
39.6242 4.72191 3.98577
41.7353 4.97567 2
42.0625 2.71994 3.99062
43.8509 5.36829 0.0192916
44.326 3.11332 2
44.8158 0.721173 4
46.5699 3.65091 0.0121724
47.2057 1.27779 2
49.554 1.99015 0
56.9027 40.55 0.0225151
58.8193 37.5712 0.0233127
53.6142 39.6142 0.0232401
47.8781 41.1416 2
55.5705 37.8825 2
51.3798 39.232 2
52.2974 36.6343 3.97662
45.7614 40.2196 3.88072
48.7114 38.4683 3.96649
37.5149 6.68243 3.98258
39.4415 6.81437 2
39.208 8.71385 3.98003
35.9419 8.50646 3.97875
56.235 34.8629 0.0228096
54.4903 31.7828 0.025672
53.352 28.7837 0.0241244
53.5316 20.445 0.0326567
52.8961 23.1108 0.0295923
52.832 25.9277 0.026334
51.3415 19.6528 0.0219956
49.8088 17.9364 0.0382965
48.8007 15.5552 0.0223437
45.3509 8.01039 0.0161134
47.6785 13.2114 0.0270282
46.644 10.7213 0.0257677
41.3964 7.09066 0.0198707
42.8601 9.4428 0.0258582
53.3999 34.1096 2
41.0067 9.06937 2
44.7132 10.0284 2
42.4441 10.9368 2
52.1236 30.8529 2
51.4889 27.6498 2
51.9137 21.426 2
51.3168 24.5541 2
45.9495 12.7915 2
47.5778 14.7215 2
49.5957 20.0769 2
47.9418 17.1503 2
50.7933 33.1004 3.97519
49.9346 29.6395 3.97639
49.7851 26.1623 3.97058
49.4538 22.6277 3.9741
40.5508 11.6239 3.98889
43.8104 11.9549 3.96588
45.7062 15.6077 3.99745
47.2994 19.6446 3.97965
44.5687 37.5025 3.82305
48.7435 60.1216 0.00285995
49.5417 57.446 0.0345681
50.8224 42.3882 0.0169583
50.5287 46.8178 0.0228404
50.3242 50.5836 0.0478366
50.0743 54.1638 0.0401848
46.581 43.3355 0.0420644
47.8319 58.5991 2
48.5965 44.9148 2
48.2441 55.715 2
48.4866 52.3045 2
48.6385 48.6412 2
44.3717 39.7006 2
44.8432 42.3135 2
45.1729 45.2894 2
42.2186 41.0133 2
41.2333 41.5038 2
46.6325 57.1895 3.9919
42.7684 39.3832 3.56779
41.5716 40.4733 3.35493
46.8534 46.8819 3.991
46.7248 53.9964 3.95746
46.8113 50.4306 3.97266
43.8318 46.8872 3.98288
43.4783 41.6632 3.8183
43.7137 44.0473 3.84767
41.4824 42.1589 3.60893
40.3426 41.7514 3.29801
46.5379 59.7149 0.00584388
45.3698 58.6975 2
43.7872 57.5628 3.99362
37.5628 67.7334 0.0230675
39.6453 65.5913 0.0236439
41.5908 63.7897 0.0193046
42.9292 62.0171 0.0205104
44.5789 60.2029 0.0055209
35.4647 67.6436 2
41.7383 62.4301 2
39.8889 63.5297 2
37.6438 65.4907 2
42.4454 59.8975 2
40.6101 61.5855 3.9869
40.4181 58.0709 3.99262
37.8342 63.1793 3.97372
35.5726 65.4065 3.97431
33.5746 65.3065 2
31.9682 63.2342 2
33.6329 63.3044 3.98436
30.3971 62.7975 3.98541
32.1481 61.951 4.00247
26.9192 61.383 3.98793
28.0816 64.0979 3.98849
29.8912 64.6837 2
29.4123 66.7398 3.97922
31.7013 65.0982 0.0289933
31.3822 67.186 2
31.0162 69.4118 3.98387
33.3937 67.4714 0.0216573
33.1568 69.7479 2
32.8947 72.1453 3.99148
35.3339 69.9514 0.0173388
35.1959 72.3717 2
35.0474 74.9194 4
37.5092 72.4558 0.00870396
37.5 75 2
39.9526 74.9197 0
35.6195 6.73414 3.98021
37.5242 4.62063 3.98683
39.6234 4.72144 2
39.7892 2.47607 3.99149
41.7358 4.97532 0.0150601
42.0625 2.72008 2
42.3946 0.32156 4
44.3259 3.11293 0.0103052
44.8159 0.72056 2
47.2057 1.27793 0
47.8371 41.1214 0.033228
55.5758 37.8844 0.0228016
51.3653 39.2469 0.0209559
45.816 40.209 2
48.7458 38.4606 2
52.298 36.6305 2
49.5498 35.6059 3.97829
46.3432 37.7063 3.84808
44.2715 35.284 3.8162
42.204 34.0007 3.57792
41.2355 33.4716 3.37719
37.4571 8.54506 3.98086
37.5159 6.68316 2
39.4402 6.81485 0.0213806
39.2083 8.71308 2
38.968 10.149 3.99314
35.8969 9.79012 3.98207
34.1518 8.83718 3.97695
35.9414 8.50733 2
53.3983 34.105 0.0245836
52.1188 30.8575 0.0253231
51.4853 27.6491 0.0251239
51.9091 21.4244 0.0249924
51.327 24.5432 0.0287127
49.5836 20.0551 0.0112863
47.9404 17.1499 0.0178055
47.5827 14.7368 0.0267627
44.7157 10.0312 0.0213215
45.9467 12.8019 0.0298965
41.0093 9.06556 0.0241377
42.447 10.929 -0.00476283
50.8147 33.0824 2
40.5541 11.638 2
43.8113 11.9378 2
49.9463 29.6365 2
49.786 26.1745 2
49.4444 22.5965 2
45.6907 15.5529 2
47.3096 19.683 2
48.394 31.6616 3.98015
48.1064 27.9437 3.9747
48.6281 24.7731 3.97074
46.8424 22.4456 3.99255
38.294 12.7739 3.98108
42.047 14.421 3.99083
44.6454 18.7171 3.99829
43.0619 37.4848 3.5686
44.6839 37.4892 2
47.841 58.5951 0.00963321
48.249 55.7123 0.0469567
48.5821 44.901 0.0183993
48.6348 48.6404 0.0283279
48.4865 52.2995 0.0208352
44.2459 39.6817 0.187076
44.808 42.2751 0.138771
45.1658 45.2655 0.023787
42.1534 40.9489 0.423957
41.1932 41.4782 0.625696
46.627 57.1947 2
42.8615 39.4001 2
41.5959 40.4815 2
46.8588 46.8847 2
46.7178 53.9999 2
46.8108 50.4433 2
43.8739 46.9015 2
43.5505 41.7229 2
43.7749 44.0844 2
41.5388 42.2553 2
40.4166 41.7691 2
45.1366 55.749 4.00236
41.8894 39.0572 3.36456
40.1959 40.4124 3.40572
45.189 48.5209 4.0028
44.9533 52.2262 3.99523
42.6623 47.8639 3.98877
42.509 45.5206 3.85702
42.5644 43.3531 3.79363
40.622 43.0505 3.57534
39.104 42.0434 3.38608
45.3803 58.6978 0.00593386
43.7786 57.5768 2
42.0114 56.102 3.99581
35.4634 67.6422 0.0241621
37.6404 65.4883 0.0250009
39.8867 63.5276 0.019869
41.7387 62.4363 0.0135055
42.4476 59.8957 0.0113942
35.5749 65.4111 2
40.6105 61.573 2
37.8373 63.1803 2
40.4158 58.0813 2
38.9088 56.2467 3.99605
38.2429 60.2677 3.98742
35.6073 63.1728 3.97402
33.5772 65.3138 0.02674
31.9673 63.2481 0.0154553
33.6339 63.3062 2
30.3969 62.7859 2
32.1546 61.9399 2
28.7129 62.1372 3.99221
33.3628 61.4668 3.99112
31.1228 61.1671 4.01032
27.6651 59.4814 3.96405
23.9124 58.9285 3.97845
25.1024 60.7311 3.98002
26.9195 61.3867 2
26.2598 63.4248 3.9759
28.0836 64.0975 2
27.4744 66.1531 3.97822
29.8924 64.6873 0.0218592
29.4122 66.75 2
28.911 68.9327 3.98224
31.3809 67.1844 0.0214701
31.0144 69.4125 2
30.6181 71.7774 3.99117
33.1579 69.7455 0.0165857
32.8934 72.1463 2
32.6054 74.6784 4
35.1963 72.3708 0.00839971
35.0474 74.9197 2
37.5 75 0
33.7221 6.98985 3.97846
35.4364 4.69049 3.98647
35.6207 6.73498 2
37.5153 2.38852 3.99176
37.5231 4.6205 2
39.6242 4.72191 0.0142335
39.7888 2.47592 2
39.9526 0.0806499 4
42.0625 2.71994 0.00938316
42.3947 0.320817 2
44.8158 0.721173 0
42.8035 35.5768 3.57514
41.6118 34.4636 3.34041
45.7614 40.2196 0.119284
48.7114 38.4683 0.0335124
52.2974 36.6343 0.0233821
46.3675 37.7145 2
49.5875 35.6291 2
44.3901 35.2689 2
42.2629 33.9336 2
41.2525 33.4433 2
46.6541 34.5045 3.92412
43.5338 33.2892 3.81038
41.5226 32.7944 3.61211
40.3608 33.2061 3.29623
37.3057 10.6458 3.98068
37.4573 8.54644 2
37.5149 6.68243 0.0174155
39.208 8.71385 0.0199671
38.9713 10.1539 2
34.7548 10.4017 3.97496
35.9006 9.79082 2
32.3799 9.38677 3.97175
34.1507 8.83974 2
35.9419 8.50646 0.0212502
50.7933 33.1004 0.0248085
49.9346 29.6395 0.0236124
49.7851 26.1623 0.0294153
49.4538 22.6277 0.0258967
47.2994 19.6446 0.0203495
45.7062 15.6077 0.00254994
43.8104 11.9549 0.0341242
40.5508 11.6239 0.0111135
48.414 31.6412 2
38.2937 12.7773 2
42.0599 14.4153 2
48.102 27.9416 2
48.6287 24.7791 2
46.8352 22.4347 2
44.6521 18.7804 2
46.3843 29.9752 3.97696
46.3223 25.4761 3.97694
44.0609 21.7178 3.98392
36.5873 12.9877 3.98168
38.6523 14.9302 3.97935
41.6482 18.0452 3.99186
42.0416 37.4535 3.38059
43.1458 37.4856 2
44.5687 37.5025 0.176953
46.6325 57.1895 0.00810144
46.7248 53.9964 0.0425405
46.8534 46.8819 0.0090023
46.8113 50.4306 0.0273402
42.7684 39.3832 0.432211
43.4783 41.6632 0.181699
43.7137 44.0473 0.15233
43.8318 46.8872 0.0171175
41.4824 42.1589 0.39107
41.5716 40.4733 0.645073
40.3426 41.7514 0.701988
45.1318 55.7513 2
41.9158 39.0647 2
40.2862 40.403 2
45.187 48.5467 2
44.9453 52.229 2
42.7134 47.8884 2
42.5806 45.5957 2
42.6147 43.3871 2
40.6947 43.1411 2
39.0653 42.085 2
43.4533 54.1704 4.00554
40.2456 38.9349 3.4399
39.0083 40.5138 3.39989
43.0062 49.9751 4.00366
41.3669 46.9967 3.9112
41.2739 44.5862 3.79162
39.3662 43.7105 3.57059
37.506 42.2005 3.45577
43.7872 57.5628 0.00637597
42.0125 56.0929 2
40.3113 54.6595 3.99713
35.5726 65.4065 0.0256927
37.8342 63.1793 0.026284
40.6101 61.5855 0.0131002
40.4181 58.0709 0.00738214
35.61 63.1722 2
38.2424 60.2525 2
38.9076 56.2394 2
37.9761 54.9253 3.99453
36.9357 57.4731 3.99665
35.3689 60.8598 3.98854
33.6329 63.3044 0.015635
30.3971 62.7975 0.0145932
32.1481 61.951 -0.00247399
33.3725 61.4612 2
28.7105 62.144 2
31.1253 61.1604 2
29.4892 60.2719 3.9788
32.3906 59.6022 3.99311
28.1572 58.2632 4.00597
27.6674 59.484 2
25.5076 58.4552 3.97379
22.9236 58.0745 3.96867
23.4806 60.1987 3.9711
23.9143 58.9292 2
25.1032 60.7289 2
24.4749 62.6871 3.97257
26.9192 61.383 0.0120703
26.2607 63.4282 2
25.5651 65.4531 3.97374
28.0816 64.0979 0.0115137
27.4698 66.1422 2
26.8431 68.3233 3.98093
29.4123 66.7398 0.0207806
28.9072 68.9343 2
28.3741 71.2614 3.98836
31.0162 69.4118 0.0161347
30.6161 71.7768 2
30.1842 74.2788 4
32.8947 72.1453 0.00852179
32.6053 74.6792 2
35.0474 74.9194 0
31.7863 7.43201 3.976
33.3487 4.92985 3.98508
33.7236 6.99121 2
35.2459 2.46445 3.99157
35.4348 4.69117 2
35.6195 6.73414 0.0197904
37.5 0 4
37.5143 2.38858 2
37.5242 4.62063 0.0131668
39.7892 2.47607 0.00851297
39.9526 0.0802889 2
42.3946 0.32156 0
41.8887 35.8491 3.31427
42.9116 35.5599 2
40.255 34.5149 3.42344
41.6317 34.4485 2
46.3432 37.7063 0.151916
49.5498 35.6059 0.0217095
44.2715 35.284 0.183797
42.204 34.0007 0.422082
41.2355 33.4716 0.622813
46.7006 34.5074 2
43.5953 33.2285 2
41.5688 32.7017 2
40.4154 33.189 2
44.8381 31.9864 3.87724
42.5999 31.597 3.78259
40.6589 31.9051 3.58038
39.1009 32.9217 3.38514
35.6951 11.808 3.97473
37.3117 10.6473 2
37.4571 8.54506 0.0191441
38.968 10.149 0.00686456
33.1035 11.2491 3.97249
34.7581 10.4006 2
35.8969 9.79012 0.0179315
30.4879 10.0445 3.97287
32.3788 9.3908 2
34.1518 8.83718 0.0230463
48.394 31.6616 0.0198531
48.1064 27.9437 0.0252951
48.6281 24.7731 0.0292615
46.8424 22.4456 0.00744859
44.6454 18.7171 0.00171401
42.047 14.421 0.00916569
38.294 12.7739 0.0189226
36.5826 12.9848 2
46.3678 29.9176 2
38.663 14.9038 2
41.6323 18.0335 2
46.326 25.463 2
44.054 21.7094 2
44.4918 28.1405 3.99196
43.2793 24.3798 4.0062
41.1754 21.0764 3.99518
35.7729 14.8174 3.99396
38.6066 17.8051 3.99247
40.3032 37.4106 3.47064
42.0756 37.4607 2
43.0619 37.4848 0.431398
45.1366 55.749 -0.00236249
44.9533 52.2262 0.00476542
45.189 48.5209 -0.00280403
41.8894 39.0572 0.635438
42.5644 43.3531 0.206369
42.509 45.5206 0.142976
42.6623 47.8639 0.011226
40.622 43.0505 0.424663
40.1959 40.4124 0.594279
39.104 42.0434 0.613917
43.4468 54.1675 2
40.3 38.9393 2
38.9802 40.5183 2
42.9907 49.9963 2
41.3598 47.0211 2
41.298 44.6338 2
37.4966 42.2254 2
39.3849 43.8041 2
41.6115 52.6197 4.00381
39.0221 39.0004 3.38487
37.4995 40.5517 3.47389
35.9005 42.0651 3.38361
40.6127 49.1335 3.98858
39.5705 45.2768 3.76085
37.5013 44.0236 3.62101
42.0114 56.102 0.00419422
40.3076 54.6682 2
38.6793 53.3948 3.99854
35.6073 63.1728 0.0259764
38.2429 60.2677 0.0125833
38.9088 56.2467 0.00394809
35.3763 60.8494 2
36.9379 57.4881 2
37.9706 54.9217 2
36.3334 55.0361 3.99766
34.5243 58.4039 3.99914
33.3628 61.4668 0.00887783
28.7129 62.1372 0.00778672
31.1228 61.1671 -0.0103151
32.3925 59.6001 2
29.4914 60.2784 2
30.4056 57.6475 3.98009
28.1561 58.2589 2
27.167 56.688 3.96296
27.6651 59.4814 0.0359478
25.5112 58.455 2
24.1024 56.6206 3.95937
21.609 57.2013 3.96077
22.0932 59.476 3.97359
22.9258 58.075 2
22.7898 61.8975 3.97151
23.481 60.1987 2
23.9124 58.9285 0.0215454
25.1024 60.7311 0.0199757
24.4759 62.6915 2
23.7036 64.6639 3.96631
26.2598 63.4248 0.0240958
25.5607 65.4551 2
24.8168 67.5821 3.97343
27.4744 66.1531 0.0217826
26.8397 68.3247 2
26.1697 70.6031 3.98856
28.911 68.9327 0.0177635
28.3713 71.2616 2
27.7943 73.7221 4
30.6181 71.7774 0.00883351
30.1841 74.2794 2
32.6054 74.6784 0
29.8095 8.01135 3.97156
31.2539 5.33815 3.9834
31.7881 7.43189 2
32.9819 2.70245 3.99109
33.347 4.93079 2
33.7221 6.98985 0.021541
35.0474 0.080333 4
35.2445 2.46485 2
35.4364 4.69049 0.0135259
37.5 0 2
37.5153 2.38852 0.0082372
39.9526 0.0806499 0
40.3805 35.9452 3.47656
41.9327 35.8487 2
42.8035 35.5768 0.424863
28.5507 10.7239 3.97278
39.0031 34.4685 3.38281
40.2627 34.5088 2
41.6118 34.4636 0.659594
46.6541 34.5045 0.0758847
43.5338 33.2892 0.189625
41.5226 32.7944 0.387886
40.3608 33.2061 0.703773
44.866 31.9582 2
42.6561 31.5538 2
40.7269 31.8156 2
39.0763 32.8784 2
43.3504 30.2798 3.86049
41.2926 30.3519 3.7928
39.3686 31.2501 3.57692
37.5088 32.788 3.45328
34.1011 12.9728 3.98186
35.6988 11.8001 2
37.3057 10.6458 0.0193204
31.1957 12.0234 3.97459
33.1054 11.2445 2
34.7548 10.4017 0.0250421
30.4839 10.0409 2
32.3799 9.38677 0.0282518
46.3843 29.9752 0.0230364
46.3223 25.4761 0.0230555
36.5873 12.9877 0.0183175
44.0609 21.7178 0.0160843
41.6482 18.0452 0.00814404
38.6523 14.9302 0.0206504
35.7642 14.8393 2
44.4886 28.1436 2
38.6213 17.792 2
41.1806 21.0594 2
43.2721 24.3553 2
33.6347 15.9405 3.99026
42.4214 26.9194 3.96513
40.729 23.7926 4.00347
38.3547 20.6314 3.99493
35.8164 17.7092 3.98386
39.0322 37.4893 3.37054
40.3364 37.42 2
42.0416 37.4535 0.619411
43.4533 54.1704 -0.00554458
43.0062 49.9751 -0.00366332
40.2456 38.9349 0.560099
41.2739 44.5862 0.20838
41.3669 46.9967 0.0887996
39.3662 43.7105 0.429408
39.0083 40.5138 0.600114
37.506 42.2005 0.544229
41.599 52.6164 2
38.9928 38.9952 2
37.4875 40.5565 2
40.5964 49.138 2
35.9329 42.1021 2
39.6025 45.3498 2
37.4922 44.1036 2
39.6746 51.3612 3.99981
37.5008 38.9967 3.44812
36.0268 40.5374 3.39384
34.6666 41.7822 3.29578
35.6385 43.7298 3.57033
38.579 47.9498 3.9188
37.4885 45.5637 3.79395
40.3113 54.6595 0.00286982
38.6751 53.4054 2
36.7691 52.7551 3.99824
35.3689 60.8598 0.0114645
36.9357 57.4731 0.0033471
37.9761 54.9253 0.00547468
34.518 58.4098 2
36.3404 55.0358 2
33.3838 55.2404 4.00754
32.3906 59.6022 0.00689125
29.4892 60.2719 0.0212044
30.4065 57.6356 2
29.0012 55.2049 3.99048
28.1572 58.2632 -0.00596611
27.1697 56.6851 2
25.6874 54.9468 3.9585
22.2489 55.104 3.9593
25.5076 58.4552 0.0262132
24.1061 56.6212 2
20.5027 56.8321 3.96211
20.7853 58.6252 3.96203
21.6128 57.2025 2
21.2312 61.0314 3.96913
22.0924 59.4754 2
22.9236 58.0745 0.0313302
21.9256 63.7568 3.97016
22.7914 61.9036 2
23.4806 60.1987 0.0288959
24.4749 62.6871 0.0274284
23.7001 64.6588 2
22.8457 66.7202 3.97066
25.5651 65.4531 0.0262642
24.8131 67.5781 2
24.0143 69.8042 3.98634
26.8431 68.3233 0.0190655
26.1655 70.6024 2
25.446 73.0099 4
28.3741 71.2614 0.0116373
27.7943 73.7222 2
30.1842 74.2788 0
27.8207 8.67897 3.97313
29.1558 5.88548 3.98048
29.8098 8.00868 2
30.7275 3.0999 3.99043
31.2522 5.3378 2
31.7863 7.43201 0.0240002
32.6053 0.320823 4
32.9802 2.70301 2
33.3487 4.92985 0.0149245
35.0474 0.0802903 2
35.2459 2.46445 0.00842776
37.5 0 0
38.924 35.9856 3.38722
40.3562 35.9422 2
41.8887 35.8491 0.685732
28.5478 10.7254 2
26.6348 11.427 3.9732
29.2401 12.6743 3.97859
37.5186 34.4423 3.4743
39.0229 34.4783 2
40.255 34.5149 0.576559
44.8381 31.9864 0.122755
42.5999 31.597 0.217413
40.6589 31.9051 0.419622
39.1009 32.9217 0.614862
43.3942 30.2434 2
41.3347 30.2995 2
39.3859 31.1548 2
37.519 32.7604 2
41.7076 29.0125 3.85066
39.5853 29.6808 3.78346
37.5023 30.9518 3.62328
35.9093 32.9376 3.39041
31.9441 14.5254 3.98545
34.1043 12.9742 2
35.6951 11.808 0.0252702
31.1948 12.0117 2
33.1035 11.2491 0.0275104
30.4879 10.0445 0.0271253
44.4918 28.1405 0.00804438
43.2793 24.3798 -0.00619874
35.7729 14.8174 0.00604297
41.1754 21.0764 0.00481649
38.6066 17.8051 0.00753013
33.6159 15.9246 2
35.84 17.5988 2
42.4838 26.8795 2
38.3091 20.6631 2
40.7046 23.8043 2
33.573 17.4798 3.99086
40.1696 26.295 3.96267
37.9985 23.5697 3.99582
35.5094 20.4503 3.99521
37.5277 37.4823 3.46775
38.993 37.4828 2
40.3032 37.4106 0.529362
41.6115 52.6197 -0.00380856
40.6127 49.1335 0.0114184
39.0221 39.0004 0.61513
39.5705 45.2768 0.239152
37.5013 44.0236 0.378989
37.4995 40.5517 0.526107
35.9005 42.0651 0.61639
39.6606 51.3528 2
37.4885 39.0008 2
36.0114 40.5144 2
38.6045 48.0183 2
34.6031 41.8007 2
35.6129 43.8252 2
37.4963 45.6339 2
37.6706 50.321 3.98957
36.0857 39.0247 3.39365
34.7789 40.4508 3.4237
33.7957 41.5175 3.3776
34.389 43.0824 3.57165
35.3816 45.3513 3.79138
36.9413 47.5762 3.87142
38.6793 53.3948 0.00145671
36.7906 52.7043 2
34.5271 52.0993 4.00015
34.5243 58.4039 0.000860283
36.3334 55.0361 0.00234442
33.3884 55.2409 2
30.8785 53.2107 3.99617
30.4056 57.6475 0.0199071
29.0057 55.2142 2
27.3678 53.2105 3.95351
27.167 56.688 0.0370408
25.6921 54.946 2
24.1523 53.1955 3.9532
21.1635 52.914 3.9586
20.3522 55.599 3.96034
22.2505 55.1043 2
24.1024 56.6206 0.040625
19.6546 57.7185 3.96172
20.4946 56.837 2
19.7699 60.086 3.97435
20.7731 58.6314 2
21.609 57.2013 0.0392327
20.2502 62.7409 3.97141
21.2388 61.0348 2
22.0932 59.476 0.0264093
20.9505 65.7297 3.96724
21.9228 63.7519 2
22.7898 61.8975 0.0284888
23.7036 64.6639 0.0336871
22.8427 66.7187 2
21.9178 68.8688 3.98286
24.8168 67.5821 0.0265683
24.0104 69.8012 2
23.1494 72.1454 4
26.1697 70.6031 0.0114412
25.446 73.0099 2
27.7943 73.7221 0
25.8611 9.41235 3.97223
27.0703 6.55187 3.9776
27.8194 8.67356 2
28.4899 3.64567 3.98923
29.1539 5.88583 2
29.8095 8.01135 0.028441
30.1841 0.720592 4
30.7248 3.1001 2
31.2539 5.33815 0.0165958
32.6053 0.320817 2
32.9819 2.70245 0.00891428
35.0474 0.080333 0
37.5178 35.9738 3.43576
38.9002 35.9484 2
40.3805 35.9452 0.523444
24.7986 12.1037 3.96764
23.7985 14.5126 3.97952
28.5507 10.7239 0.0272173
26.6304 11.426 2
29.2376 12.6843 2
27.3055 13.4491 3.97543
29.8184 14.229 3.99799
36.0026 34.4676 3.40714
37.54 34.4307 2
39.0031 34.4685 0.617187
37.5088 32.788 0.546725
43.3504 30.2798 0.139507
41.2926 30.3519 0.207202
39.3686 31.2501 0.423076
41.738 28.9361 2
39.6021 29.6079 2
37.5062 30.8745 2
35.9424 32.8979 2
39.7701 28.3011 3.84848
37.4661 29.3911 3.77976
35.6476 31.2733 3.57363
34.656 33.2273 3.30292
30.9857 16.8868 3.99672
31.9359 14.5038 2
34.1011 12.9728 0.0181385
31.1957 12.0234 0.0254073
42.4214 26.9194 0.0348747
40.729 23.7926 -0.00347181
33.6347 15.9405 0.00974247
35.8164 17.7092 0.016145
38.3547 20.6314 0.00507043
33.5355 17.5327 2
35.4725 20.5261 2
40.1716 26.2793 2
38.0497 23.56 2
33.0025 20.0185 3.99798
37.7624 25.97 3.95558
35.397 23.2075 4.00862
36.0446 37.4813 3.37791
37.5019 37.4827 2
39.0322 37.4893 0.629457
39.6746 51.3612 0.00019248
38.579 47.9498 0.0812024
37.5008 38.9967 0.55188
37.4885 45.5637 0.206054
35.6385 43.7298 0.429671
36.0268 40.5374 0.606161
34.6666 41.7822 0.704216
37.6398 50.3576 2
36.1361 39.0086 2
34.7249 40.4664 2
36.9288 47.6459 2
33.7581 41.5472 2
34.3171 43.1671 2
35.353 45.4094 2
35.5858 49.5201 3.98102
34.6828 39.002 3.47114
33.417 40.5235 3.34024
33.514 42.1953 3.61026
33.7644 44.6159 3.78222
34.6865 46.7508 3.85004
36.7691 52.7551 0.00175904
34.5151 52.1278 2
32.4223 50.8868 4.00388
33.3838 55.2404 -0.00754114
30.8783 53.2083 2
28.9907 51.2388 3.98476
29.0012 55.2049 0.00951858
27.3736 53.2121 2
25.7715 51.4114 3.95418
25.6874 54.9468 0.0414992
24.1575 53.1983 2
22.7556 51.4644 3.95549
20.0786 51.2906 3.96544
19.5243 54.0326 3.96124
21.1667 52.9125 2
18.7981 56.5196 3.96148
20.352 55.6012 2
22.2489 55.104 0.0406995
18.4962 58.976 3.95458
19.6478 57.7229 2
20.5027 56.8321 0.0378892
18.6513 61.6869 3.97776
19.7723 60.089 2
20.7853 58.6252 0.0379702
19.1453 64.6146 3.96629
20.2488 62.74 2
21.2312 61.0314 0.0308719
19.8912 67.8084 3.98154
20.9466 65.726 2
21.9256 63.7568 0.0298372
22.8457 66.7202 0.0293355
21.9131 68.8666 2
20.9142 71.1327 4
24.0143 69.8042 0.0136601
23.1494 72.1455 2
25.446 73.0099 0
23.1189 12.9149 3.97482
23.9783 10.1904 3.97218
25.0239 7.32411 3.97456
25.8608 9.413 2
26.2819 4.33051 3.98798
27.0677 6.55222 2
27.8207 8.67897 0.0268732
27.7943 1.27781 4
28.4864 3.6472 2
29.1558 5.88548 0.0195208
30.1841 0.720551 2
30.7275 3.0999 0.00956934
32.6053 0.320823 0
36.0085 35.973 3.39008
37.561 35.9875 2
38.924 35.9856 0.612776
24.7851 12.1438 2
23.795 14.5223 2
22.5496 15.1828 3.98618
25.3869 14.054 3.97711
24.1164 15.7664 4.01571
26.6348 11.427 0.0267982
29.2401 12.6743 0.0214075
27.3165 13.4236 2
29.8068 14.2402 2
28.432 15.989 3.98961
34.8035 34.5588 3.41048
36.0363 34.466 2
37.5186 34.4423 0.525705
35.9093 32.9376 0.609588
37.5023 30.9518 0.376718
41.7076 29.0125 0.149335
39.5853 29.6808 0.216541
39.8163 28.2416 2
37.4735 29.3427 2
35.6278 31.1798 2
34.5908 33.2099 2
37.6212 28.0117 3.84403
35.4366 29.6941 3.77891
34.3707 31.926 3.57678
33.796 33.4969 3.37744
30.3458 19.6672 3.9832
30.9498 16.888 2
31.9441 14.5254 0.0145501
40.1696 26.295 0.0373326
37.9985 23.5697 0.00418372
33.573 17.4798 0.00913739
35.5094 20.4503 0.00479294
33.0022 20.0389 2
35.3486 23.1913 2
37.7384 25.9417 2
32.6448 22.7808 4.00439
35.2548 25.8276 3.98285
34.6794 37.5197 3.49123
36.0373 37.504 2
37.5277 37.4823 0.532255
37.6706 50.321 0.0104311
36.9413 47.5762 0.128576
36.0857 39.0247 0.606346
35.3816 45.3513 0.208619
34.389 43.0824 0.428349
34.7789 40.4508 0.576302
33.7957 41.5175 0.622397
35.5704 49.5319 2
34.656 39.0132 2
33.3959 40.5289 2
34.627 46.826 2
33.4588 42.2919 2
33.7188 44.6676 2
33.6299 48.6501 3.97054
33.1184 39.1224 3.31787
32.8174 40.9855 3.57609
32.4286 43.3917 3.78978
33.0025 45.7501 3.84611
34.5271 52.0993 -0.000146703
32.4381 50.8854 2
30.6027 49.3893 4.00308
30.8785 53.2107 0.00382789
28.9965 51.2296 2
27.3374 49.6064 3.97996
27.3678 53.2105 0.0464932
25.7789 51.4106 2
24.243 49.8082 3.96947
24.1523 53.1955 0.0468028
22.7576 51.4618 2
21.4544 49.9345 3.96766
18.7928 50.0169 3.97352
18.5745 52.4913 3.9668
20.0731 51.2905 2
17.9522 55.1006 3.96242
19.5192 54.0338 2
21.1635 52.914 0.0414021
17.3851 57.7121 3.9588
18.7999 56.5206 2
20.3522 55.599 0.039665
17.198 60.4599 3.95126
18.4915 58.9812 2
19.6546 57.7185 0.0382812
17.4129 63.4164 3.97299
18.6507 61.6835 2
19.7699 60.086 0.0256548
17.9483 66.6086 3.9731
19.139 64.6114 2
20.2502 62.7409 0.0285927
18.75 69.9759 4
19.8872 67.8035 2
20.9505 65.7297 0.0327557
21.9178 68.8688 0.0171353
20.9142 71.1327 2
23.1494 72.1454 0
21.6226 13.7348 3.96841
22.2026 11.0868 3.96547
23.1188 12.9038 2
23.0419 8.19447 3.97197
23.9749 10.2166 2
24.1198 5.14515 3.98739
25.0202 7.32539 2
25.8611 9.41235 0.0277748
25.446 1.99014 4
26.2773 4.33207 2
27.0703 6.55187 0.0224029
27.7943 1.27778 2
28.4899 3.64567 0.010765
30.1841 0.720592 0
34.7604 36.017 3.4463
36.0429 35.9798 2
37.5178 35.9738 0.56424
21.4123 15.9861 3.96249
24.7986 12.1037 0.0323641
23.7985 14.5126 0.0204768
25.3854 14.0195 2
22.5506 15.1762 2
24.1165 15.7779 2
23.4002 16.3864 3.96769
25.4644 16.2711 3.98928
27.3055 13.4491 0.0245746
29.8184 14.229 0.00201309
28.4166 16.0365 2
27.5937 19.0791 3.98975
33.4195 34.497 3.35999
34.7166 34.5684 2
36.0026 34.4676 0.592856
34.656 33.2273 0.697075
35.6476 31.2733 0.426367
37.4661 29.3911 0.220236
39.7701 28.3011 0.151521
37.5739 27.9796 2
33.7612 33.4739 2
35.4272 29.6284 2
34.3102 31.8394 2
35.3184 28.1036 3.86209
33.7393 30.3806 3.78874
33.5022 32.8089 3.6154
29.9763 22.2808 4.00848
30.3321 19.6761 2
30.9857 16.8868 0.0032819
37.7624 25.97 0.0444154
35.397 23.2075 -0.00862035
33.0025 20.0185 0.00202435
32.636 22.7433 2
35.2663 25.819 2
32.2982 26.1021 4.01538
32.9571 37.5101 3.36987
34.6696 37.5115 2
36.0446 37.4813 0.622094
35.5858 49.5201 0.0189766
34.6865 46.7508 0.149963
34.6828 39.002 0.52886
33.7644 44.6159 0.217779
33.514 42.1953 0.389736
33.417 40.5235 0.659756
33.5943 48.6398 2
33.1101 39.1289 2
32.7582 41.0522 2
32.9896 45.8157 2
32.382 43.4203 2
31.9755 47.4472 3.98543
32.2187 39.4111 3.5777
31.4916 41.7031 3.81325
31.5483 44.4217 3.8487
32.4223 50.8868 -0.0038847
30.6149 49.4099 2
28.8774 47.8068 3.97228
28.9907 51.2388 0.0152378
27.3423 49.6054 2
25.7256 48.0475 3.97563
25.7715 51.4114 0.0458225
24.245 49.8067 2
22.7791 48.3654 3.97262
22.7556 51.4644 0.0445064
21.4537 49.9321 2
19.9612 48.746 3.97519
17.6647 49.0517 3.97624
17.4675 51.1321 3.97257
18.794 50.0155 2
16.9727 53.6237 3.96789
18.5732 52.491 2
20.0786 51.2906 0.0345641
16.3571 56.2875 3.962
17.9478 55.1021 2
19.5243 54.0326 0.0387643
15.8516 59.109 3.95412
17.3868 57.7133 2
18.7981 56.5196 0.0385158
15.7966 62.0713 3.96951
17.1957 60.4616 2
18.4962 58.976 0.0454158
16.0945 65.2988 3.97989
17.4116 63.4253 2
18.6513 61.6869 0.0222397
16.6661 68.6801 4
17.944 66.6046 2
19.1453 64.6146 0.0337113
18.75 69.9759 2
19.8912 67.8084 0.0184581
20.9142 71.1327 0
20.2746 14.7349 3.96546
21.629 13.7362 2
20.5511 12.1023 3.97118
21.1463 9.17337 3.97265
22.195 11.1007 2
23.1189 12.9149 0.0251797
22.0202 6.08536 3.98546
23.0383 8.19867 2
23.9783 10.1904 0.0278178
23.1494 2.85457 4
24.1146 5.14872 2
25.0239 7.32411 0.0254373
25.446 1.99012 2
26.2819 4.33051 0.0120248
27.7943 1.27781 0
33.0971 35.909 3.36418
34.7006 36.0173 2
36.0085 35.973 0.609925
21.4217 15.9816 2
20.4907 17.1575 3.96092
22.2434 16.7926 3.96098
25.3869 14.054 0.022891
22.5496 15.1828 0.0138172
24.1164 15.7664 -0.0157141
25.462 16.2687 2
23.4037 16.3933 2
24.3863 18.7323 3.98278
27.4258 21.8769 3.99228
28.432 15.989 0.0103936
27.5805 19.0811 2
32.8239 34.0152 3.57324
33.3962 34.4937 2
34.8035 34.5588 0.589522
33.796 33.4969 0.622557
34.3707 31.926 0.423225
35.4366 29.6941 0.221086
37.6212 28.0117 0.155969
35.3002 28.054 2
33.4586 32.7212 2
33.6943 30.321 2
33.2073 28.7351 3.87312
32.4311 31.6039 3.78642
29.4644 24.7546 4.01598
29.9613 22.26 2
30.3458 19.6672 0.0168014
35.2548 25.8276 0.0171543
32.6448 22.7808 -0.00438539
32.2847 26.0639 2
30.5693 27.7776 3.99016
31.9495 37.4931 3.56404
32.941 37.5105 2
34.6794 37.5197 0.508772
33.6299 48.6501 0.0294622
33.0025 45.7501 0.153888
33.1184 39.1224 0.682134
32.4286 43.3917 0.210222
32.8174 40.9855 0.423913
31.9315 47.4765 2
32.1215 39.4182 2
31.4238 41.7657 2
31.48 44.4795 2
30.3395 46.0647 3.97959
30.7455 39.7113 3.8195
30.183 42.7625 3.87062
30.6027 49.3893 -0.00308051
28.8817 47.8118 2
27.1934 46.2229 3.98425
27.3374 49.6064 0.0200359
25.7306 48.0465 2
24.0876 46.6266 3.97611
24.243 49.8082 0.0305324
22.779 48.3644 2
21.0444 47.2516 3.97555
21.4544 49.9345 0.0323383
19.9601 48.745 2
18.5602 47.8773 3.97603
16.9094 48.4233 3.97592
17.6644 49.0519 2
16.5143 49.9212 3.97504
15.9417 52.1885 3.97274
17.4691 51.1311 2
18.7928 50.0169 0.0264838
15.2935 54.7891 3.96682
16.9734 53.6234 2
18.5745 52.4913 0.0331979
14.6504 57.6254 3.96016
16.3554 56.2886 2
17.9522 55.1006 0.0375763
14.2795 60.6504 3.96578
15.8528 59.1111 2
17.3851 57.7121 0.041197
14.3382 63.852 3.96861
15.8005 62.0717 2
17.198 60.4599 0.0487353
14.6715 67.2507 4
16.0899 65.2927 2
17.4129 63.4164 0.0270133
16.6661 68.6801 2
17.9483 66.6086 0.0268968
18.75 69.9759 0
19.0357 15.9342 3.95651
20.2825 14.7241 2
19.0089 13.2268 3.96747
21.6226 13.7348 0.0315877
20.5444 12.1063 2
19.3515 10.2737 3.97033
19.9949 7.14824 3.98366
21.1418 9.16721 2
22.2026 11.0868 0.0345287
20.9142 3.86727 4
22.0133 6.08772 2
23.0419 8.19447 0.0280348
23.1494 2.85451 2
24.1198 5.14515 0.0126105
25.446 1.99014 0
32.2367 35.5863 3.56414
33.0839 35.9028 2
34.7604 36.017 0.553699
21.4123 15.9861 0.037511
22.2532 16.7918 2
20.5007 17.1546 2
19.5571 18.6429 3.96565
21.9647 18.1343 3.98606
25.4644 16.2711 0.0107196
23.4002 16.3864 0.0323075
24.3901 18.7385 2
22.6744 20.1819 3.97044
25.0305 21.7142 3.99181
27.1085 24.0282 3.98035
27.4336 21.7803 2
27.5937 19.0791 0.0102512
31.506 33.3025 3.81178
32.7667 33.9625 2
33.4195 34.497 0.640006
33.5022 32.8089 0.384603
33.7393 30.3806 0.211263
35.3184 28.1036 0.137911
33.1655 28.691 2
32.3573 31.5433 2
31.2455 30.0921 3.89054
28.8654 26.9472 4.01388
29.4538 24.7569 2
29.9763 22.2808 -0.00847971
32.2982 26.1021 -0.0153841
30.5627 27.7603 2
30.4373 37.4816 3.8226
31.8478 37.492 2
32.9571 37.5101 0.630126
31.9755 47.4472 0.014567
31.5483 44.4217 0.151297
32.2187 39.4111 0.422298
31.4916 41.7031 0.18675
30.3523 46.0792 2
30.6424 39.7192 2
30.1518 42.7957 2
28.7085 44.4287 3.9608
28.493 40.3801 3.91608
28.8774 47.8068 0.0277151
27.1957 46.2218 2
25.4413 44.7624 3.97993
25.7256 48.0475 0.0243735
24.0883 46.6257 2
22.1385 45.5723 3.97684
22.7791 48.3654 0.0273802
21.0457 47.2514 2
19.3454 46.4424 3.97543
19.9612 48.746 0.0248084
18.5609 47.8777 2
17.1767 47.4559 3.97531
16.9109 48.4239 2
15.8859 48.7802 3.97512
17.6647 49.0517 0.023758
16.5159 49.9206 2
15.0416 50.7763 3.97452
14.2433 53.2641 3.9713
15.9421 52.1882 2
17.4675 51.1321 0.0274316
13.5071 56.0503 3.96215
15.2938 54.7892 2
16.9727 53.6237 0.0321072
12.8917 59.0889 3.95181
14.6508 57.6269 2
16.3571 56.2875 0.038004
12.686 62.2921 3.96525
14.2812 60.6522 2
15.8516 59.109 0.045884
12.7746 65.6939 4
14.335 63.8445 2
15.7966 62.0713 0.0304931
14.6714 67.2507 2
16.0945 65.2988 0.0201091
16.6661 68.6801 0
17.9007 17.3381 3.95853
19.0505 15.9275 2
17.5526 14.4753 3.96176
20.2746 14.7349 0.0345421
19.0037 13.2149 2
17.6559 11.5274 3.97024
20.5511 12.1023 0.0288164
19.3461 10.2916 2
18.0545 8.34236 3.98043
18.75 5.0241 4
19.9881 7.15631 2
21.1463 9.17337 0.027347
20.9142 3.86727 2
22.0202 6.08536 0.0145353
23.1494 2.85457 0
30.7492 35.3021 3.81375
32.1351 35.5715 2
33.0971 35.909 0.635819
22.2434 16.7926 0.0390158
20.4907 17.1575 0.0390759
21.9754 18.1248 2
19.5566 18.6382 2
18.4767 20.2109 3.96763
21.2367 19.6585 3.97505
24.3863 18.7323 0.01722
22.682 20.1782 2
25.0488 21.6752 2
22.9448 22.0554 3.97639
25.4325 23.3518 3.97928
26.5 26.3206 3.98341
27.1101 24.0314 2
27.4258 21.8769 0.00771611
29.9344 32.6896 3.86936
31.4293 33.2511 2
32.8239 34.0152 0.426761
32.4311 31.6039 0.21358
33.2073 28.7351 0.126877
31.2246 30.0602 2
28.3281 29.5619 4.00638
28.8492 26.96 2
29.4644 24.7546 -0.0159764
30.5693 27.7776 0.00984479
28.7522 37.4196 3.84817
30.3313 37.4935 2
31.9495 37.4931 0.435958
30.3395 46.0647 0.0204131
30.183 42.7625 0.129379
30.7455 39.7113 0.180496
28.7131 44.4871 2
28.4466 40.3992 2
26.8735 42.9251 3.98073
25.8235 39.3848 3.97768
27.1934 46.2229 0.0157519
25.4328 44.7714 2
23.3951 43.6181 3.97516
24.0876 46.6266 0.0238892
22.1366 45.5734 2
20.1826 44.6909 3.97491
21.0444 47.2516 0.0244534
19.3454 46.4435 2
17.5625 45.9652 3.97517
18.5602 47.8773 0.0239665
17.1772 47.4565 2
15.6695 47.4543 3.9752
16.9094 48.4233 0.0240832
15.8878 48.7803 2
14.3635 49.3516 3.97478
16.5143 49.9212 0.0249649
15.0426 50.7758 2
13.3098 51.7187 3.9741
12.3994 54.4203 3.96529
14.2433 53.2641 2
15.9417 52.1885 0.027265
11.6309 57.4148 3.95701
13.5088 56.0502 2
15.2935 54.7891 0.0331843
11.1409 60.6208 3.96571
12.886 59.09 2
14.6504 57.6254 0.0398385
10.9835 64.0165 4
12.6838 62.2845 2
14.2795 60.6504 0.0342227
12.7745 65.694 2
14.3382 63.852 0.031386
14.6715 67.2507 0
16.7536 18.8552 3.96145
17.9046 17.3334 2
16.2042 15.8939 3.95525
19.0357 15.9342 0.0434895
17.558 14.473 2
16.0319 12.8736 3.9634
19.0089 13.2268 0.032529
17.6478 11.5287 2
16.2071 9.67059 3.97241
19.3515 10.2737 0.0296735
18.0487 8.34992 2
16.6661 6.31991 4
18.75 5.02404 2
19.9949 7.14824 0.0163386
20.9142 3.86727 0
29.1462 34.935 3.88212
30.6258 35.2698 2
32.2367 35.5863 0.435862
17.2164 21.6372 3.97122
21.9647 18.1343 0.0139373
19.5571 18.6429 0.0343509
21.2402 19.6542 2
18.468 20.2045 2
20.37 21.9057 3.97386
22.6744 20.1819 0.029562
25.0305 21.7142 0.00818836
22.9475 22.0515 2
25.4168 23.4017 2
23.8095 24.9749 3.97094
25.9011 28.932 3.98425
26.489 26.337 2
27.1085 24.0282 0.0196544
27.8096 32.0455 3.97574
29.8847 32.6693 2
31.506 33.3025 0.188225
31.2455 30.0921 0.109456
28.3409 29.5207 2
28.8654 26.9472 -0.0138781
26.5482 36.8911 3.95602
28.7055 37.3935 2
30.4373 37.4816 0.177399
28.7085 44.4287 0.0391996
28.493 40.3801 0.0839223
26.8479 42.9575 2
25.7755 39.3722 2
24.6515 41.6161 3.9771
23.5151 38.5182 3.97594
25.4413 44.7624 0.0200667
23.3923 43.6243 2
21.0944 42.6637 3.97458
22.1385 45.5723 0.0231566
20.1837 44.692 2
17.9911 44.163 3.97511
19.3454 46.4424 0.024567
17.5627 45.9662 2
15.6421 45.8939 3.97521
17.1767 47.4559 0.0246897
15.6699 47.4546 2
13.9031 47.8341 3.97497
15.8859 48.7802 0.0248764
14.3647 49.3514 2
12.5495 50.1071 3.97475
15.0416 50.7763 0.0254779
13.3106 51.7184 2
11.3926 52.7417 3.96779
10.4326 55.6705 3.95979
12.3983 54.4206 2
14.2433 53.2641 0.0286968
9.70728 58.8459 3.96858
11.6361 57.4142 2
13.5071 56.0503 0.0378469
9.30605 62.2254 4
11.1395 60.6135 2
12.8917 59.0889 0.0481858
10.9835 64.0165 2
12.686 62.2921 0.0347522
12.7746 65.6939 0
15.5497 20.3872 3.96667
16.7666 18.8537 2
14.9471 17.4328 3.95768
17.9007 17.3381 0.0414711
16.1998 15.8867 2
14.4951 14.3463 3.96348
17.5526 14.4753 0.038238
16.0355 12.8694 2
14.4511 11.1214 3.97174
17.6559 11.5274 0.0297597
16.2017 9.67983 2
14.6715 7.74927 4
18.0545 8.34236 0.0195744
16.6661 6.31988 2
18.75 5.0241 0
27.1019 34.4491 3.97465
29.111 34.9446 2
30.7492 35.3021 0.18625
18.5191 22.6323 3.97439
16.1139 23.1727 3.97282
17.2146 21.6331 2
21.2367 19.6585 0.0249532
18.4767 20.2109 0.0323704
20.3749 21.9039 2
20.5439 24.7613 3.97204
22.9448 22.0554 0.0236052
25.4325 23.3518 0.0207157
23.8051 24.9694 2
23.2755 28.2668 3.97111
25.3832 31.5446 3.98319
25.9128 28.8724 2
26.5 26.3206 0.0165902
27.7755 32.0163 2
29.9344 32.6896 0.130636
28.3281 29.5619 -0.00638487
24.251 36.3459 3.97858
26.5035 36.8889 2
28.7522 37.4196 0.151833
26.8735 42.9251 0.0192721
25.8235 39.3848 0.0223244
24.6199 41.6242 2
23.5114 38.5181 2
22.2712 40.5074 3.97545
21.5611 37.7905 3.97814
23.3951 43.6181 0.0248445
21.0947 42.6624 2
18.4848 41.9472 3.97574
20.1826 44.6909 0.0250896
17.991 44.1633 2
15.691 44.0355 3.97526
17.5625 45.9652 0.0248261
15.6415 45.8943 2
13.6026 46.1444 3.97521
15.6695 47.4543 0.0247955
13.9032 47.834 2
11.9407 48.4182 3.97488
14.3635 49.3516 0.025224
12.5506 50.1066 2
10.5274 50.9945 3.97043
13.3098 51.7187 0.0258984
11.3934 52.7411 2
9.33474 53.8553 3.9617
8.39112 56.9815 3.96945
10.4349 55.6695 2
12.3994 54.4203 0.0347136
7.74927 60.3285 4
9.70632 58.8406 2
11.6309 57.4148 0.0429879
9.306 62.2255 2
11.1409 60.6208 0.0342865
10.9835 64.0165 0
14.38 21.9385 3.97158
15.5519 20.3838 2
13.6848 19.0256 3.96193
16.7536 18.8552 0.0385468
14.9462 17.4276 2
13.0498 15.9255 3.95708
16.2042 15.8939 0.0447463
14.5041 14.3394 2
12.7879 12.6958 3.96693
16.0319 12.8736 0.0366029
14.4467 11.1325 2
12.7746 9.30605 4
16.2071 9.67059 0.0275908
14.6715 7.74924 2
16.6661 6.31991 0
24.7756 33.9561 3.98127
27.0742 34.4183 2
29.1462 34.935 0.117876
18.4062 24.373 3.97277
18.528 22.6316 2
14.9259 24.6698 3.97407
16.1135 23.1689 2
17.2164 21.6372 0.0287766
20.114 27.5533 3.97298
20.37 21.9057 0.0261393
20.5481 24.7603 2
22.6563 30.9827 3.97388
23.8095 24.9749 0.0290554
23.2695 28.2754 2
25.3332 31.596 2
25.9011 28.932 0.0157483
27.8096 32.0455 0.0242622
21.6472 35.9967 3.97794
24.2509 36.353 2
26.5482 36.8911 0.0439848
24.6515 41.6161 0.0229008
23.5151 38.5182 0.0240596
22.2755 40.5084 2
21.5634 37.7888 2
19.2761 38.9619 3.97715
21.0944 42.6637 0.0254198
18.4847 41.9471 2
15.6773 41.8148 3.97589
17.9911 44.163 0.0248856
15.69 44.0357 2
13.3604 44.2715 3.97537
15.6421 45.8939 0.0247886
13.6019 46.1446 2
11.4554 46.6217 3.97566
13.9031 47.8341 0.0250279
11.9421 48.4177 2
9.79324 49.1639 3.97362
12.5495 50.1071 0.0252481
10.5286 50.9937 2
8.35887 51.9743 3.96343
11.3926 52.7417 0.0322085
9.333 53.8546 2
7.19961 55.0337 3.9704
6.31991 58.3339 4
8.38994 56.9767 2
10.4326 55.6705 0.0402095
7.74924 60.3285 2
9.70728 58.8459 0.0314172
9.30605 62.2254 0
13.7655 25.5508 3.97591
13.2696 23.4518 3.97432
14.3806 21.9354 2
12.4991 20.6664 3.96497
15.5497 20.3872 0.033333
13.676 19.0196 2
11.7299 17.6075 3.95606
14.9471 17.4328 0.0423221
13.0617 15.9226 2
11.2267 14.3825 3.96451
14.4951 14.3463 0.0365151
12.7874 12.7063 2
10.9835 10.9835 4
14.4511 11.1214 0.0282554
12.7745 9.306 2
14.6715 7.74927 0
22.0243 33.5959 3.97675
24.7714 33.9164 2
27.1019 34.4491 0.0253456
16.7181 26.6584 3.97398
18.4091 24.3718 2
18.5191 22.6323 0.0256143
14.9224 24.6685 2
16.1139 23.1727 0.0271753
19.5083 30.4371 3.97477
20.1143 27.5504 2
20.5439 24.7613 0.0279575
22.6712 30.9736 2
23.2755 28.2668 0.0288851
25.3832 31.5446 0.0168148
18.8456 36.0315 3.97756
21.6535 35.9971 2
24.251 36.3459 0.0214179
22.2712 40.5074 0.0245477
21.5611 37.7905 0.0218639
19.2751 38.9603 2
15.158 39.1434 3.9769
18.4848 41.9472 0.0242606
15.677 41.8147 2
13.0469 42.1981 3.9759
15.691 44.0355 0.0247405
13.3595 44.2715 2
11.0366 44.7167 3.97597
13.6026 46.1444 0.0247854
11.4565 46.6213 2
9.17638 47.2538 3.97532
11.9407 48.4182 0.02512
9.79514 49.1629 2
7.51621 50.0128 3.96437
10.5274 50.9945 0.0295696
8.35687 51.9734 2
6.1397 53.009 3.97079
9.33474 53.8553 0.038296
7.19912 55.0294 2
5.0241 56.25 4
6.31988 58.3339 2
8.39112 56.9815 0.0305498
7.74927 60.3285 0
14.0731 26.9955 3.97482
12.3712 24.937 3.97491
13.7629 25.5493 2
11.4213 22.3407 3.96847
13.2689 23.4491 2
14.38 21.9385 0.0284156
12.4944 20.6623 2
10.5062 19.3657 3.95894
13.6848 19.0256 0.0380722
11.7462 17.607 2
9.7672 16.1629 3.96815
13.0498 15.9255 0.042924
11.2266 14.3889 2
9.30607 12.7746 4
12.7879 12.6958 0.0330695
10.9835 10.9835 2
12.7746 9.30605 0
19.008 33.2558 3.97576
22.0184 33.6033 2
24.7756 33.9561 0.0187273
16.3471 29.8417 3.97502
16.716 26.6592 2
18.4062 24.373 0.0272349
14.9259 24.6698 0.0259251
19.5028 30.438 2
20.114 27.5533 0.0270197
22.6563 30.9827 0.0261248
15.8097 36.0613 3.97711
18.847 36.0317 2
21.6472 35.9967 0.0220558
13.2838 37.8304 3.97704
19.2761 38.9619 0.0228483
15.1574 39.1434 2
12.5327 40.1013 3.97642
15.6773 41.8148 0.0241147
13.0459 42.1979 2
10.6273 42.7199 3.97595
13.3604 44.2715 0.0246305
11.0373 44.7165 2
8.65342 45.2683 3.97648
11.4554 46.6217 0.0243403
9.17896 47.2528 2
6.79702 47.9827 3.96485
9.79324 49.1639 0.0263756
7.51404 50.012 2
5.21586 50.9118 3.9709
8.35887 51.9743 0.036566
6.13966 53.0058 2
3.86727 54.0858 4
7.19961 55.0337 0.029598
5.02404 56.25 2
6.31991 58.3339 0
13.5463 29.1768 3.97429
11.8194 26.6148 3.97483
14.0718 26.9958 2
10.4584 24.0558 3.97279
12.3723 24.936 2
13.7655 25.5508 0.024085
9.35543 21.1775 3.96197
11.4201 22.3385 2
13.2696 23.4518 0.0256775
12.4991 20.6664 0.03503
10.5167 19.3659 2
8.42331 18.0311 3.96945
11.7299 17.6075 0.0439377
9.76688 16.1678 2
7.74928 14.6715 4
11.2267 14.3825 0.0354881
9.30602 12.7745 2
10.9835 10.9835 0
15.3185 32.9676 3.97629
19.0084 33.2571 2
22.0243 33.5959 0.0232546
16.3477 29.8417 2
16.7181 26.6584 0.0260179
19.5083 30.4371 0.0252333
13.5962 36.2354 3.97667
15.8105 36.061 2
18.8456 36.0315 0.0224435
13.283 37.8302 2
11.8386 38.303 3.9765
15.158 39.1434 0.0231042
12.5316 40.1016 2
10.1935 40.7209 3.97639
13.0469 42.1981 0.0240989
10.6282 42.7194 2
8.19701 43.2314 3.9765
11.0366 44.7167 0.0240298
8.65686 45.2672 2
6.19175 45.8925 3.96579
9.17638 47.2538 0.0246767
6.7952 47.982 2
4.42666 48.752 3.9713
7.51621 50.0128 0.0356348
5.21614 50.9095 2
2.85457 51.8506 4
6.1397 53.009 0.0292052
3.86727 54.0858 2
5.0241 56.25 0
12.663 31.3513 3.97563
11.2261 28.5206 3.97512
13.5464 29.1767 2
9.66508 25.8727 3.97439
11.8197 26.615 2
14.0731 26.9955 0.0251758
8.32001 23.0526 3.96388
10.4603 24.0549 2
12.3712 24.937 0.0250889
7.20525 19.9787 3.97056
9.3615 21.1783 2
11.4213 22.3407 0.0315275
10.5062 19.3657 0.0410628
8.42288 18.0354 2
6.31992 16.6661 4
9.7672 16.1629 0.0318484
7.74926 14.6714 2
9.30607 12.7746 0
12.706 34.3516 3.97664
15.3181 32.968 2
19.008 33.2558 0.024244
16.3471 29.8417 0.024978
11.3587 36.629 3.97649
13.596 36.2354 2
15.8097 36.0613 0.0228917
13.2838 37.8304 0.0229631
11.8376 38.3029 2
9.76253 38.8131 3.97671
12.5327 40.1013 0.0235754
10.1939 40.7208 2
7.79623 41.1892 3.97644
10.6273 42.7199 0.0240503
8.19925 43.2301 2
5.68982 43.7601 3.96676
8.65342 45.2683 0.0235248
6.18857 45.892 2
3.77174 46.5372 3.97181
6.79702 47.9827 0.0351529
4.42728 48.7502 2
1.99014 49.554 4
5.21586 50.9118 0.0290985
2.85451 51.8506 2
3.86727 54.0858 0
11.4373 32.9855 3.97641
10.5209 30.4585 3.9757
12.6618 31.3515 2
8.96748 27.7939 3.97505
11.2267 28.5207 2
13.5463 29.1768 0.0257107
7.43137 25.0051 3.96444
9.66694 25.8725 2
11.8194 26.6148 0.0251739
6.12172 22.0012 3.97101
8.32113 23.0532 2
10.4584 24.0558 0.0272069
5.02411 18.75 4
7.20513 19.9821 2
9.35543 21.1775 0.0380289
8.42331 18.0311 0.0305529
6.3199 16.6661 2
7.74928 14.6715 0
10.9308 35.0333 3.97625
12.705 34.3515 2
15.3185 32.9676 0.0237055
9.40947 36.9929 3.97689
11.3577 36.6292 2
13.5962 36.2354 0.0233278
11.8386 38.303 0.0234984
9.76334 38.8131 2
7.45894 39.1742 3.97672
10.1935 40.7209 0.0236071
7.79952 41.1886 2
5.29589 41.6098 3.96723
8.19701 43.2314 0.0234964
5.68758 43.7598 2
3.24914 44.2819 3.97278
6.19175 45.8925 0.0342138
3.77262 46.5358 2
1.27781 47.2057 4
4.42666 48.752 0.0287028
1.99012 49.554 2
2.85457 51.8506 0
10.5476 33.9248 3.97613
9.77857 32.2082 3.97644
11.4367 32.9856 2
8.30106 29.7436 3.97557
10.5216 30.4589 2
12.663 31.3513 0.0243714
6.65953 27.0256 3.96483
8.97 27.7941 2
11.2261 28.5206 0.0248771
5.17625 24.0942 3.97121
7.42966 25.0054 2
9.66508 25.8727 0.0256147
3.86728 20.9142 4
6.12195 22.0036 2
8.32001 23.0526 0.0361242
5.02406 18.75 2
7.20525 19.9787 0.0294439
6.31992 16.6661 0
9.21522 35.3031 3.9771
10.9302 35.0331 2
12.706 34.3516 0.0233587
7.22524 37.2095 3.97676
9.41061 36.9929 2
11.3587 36.629 0.0235094
9.76253 38.8131 0.0232941
7.46209 39.1742 2
5.01776 39.4666 3.96721
7.79623 41.1892 0.0235599
5.2938 41.6094 2
2.85933 42.0023 3.9734
5.68982 43.7601 0.0332375
3.24985 44.2809 2
0.720592 44.8159 4
3.77174 46.5372 0.0281927
1.27778 47.2057 2
1.99014 49.554 0
9.24921 33.7341 3.97708
10.5475 33.9247 2
7.72563 31.6442 3.97616
9.78043 32.2083 2
11.4373 32.9855 0.0235855
5.9926 29.0827 3.96507
8.30397 29.7441 2
10.5209 30.4585 0.0243032
4.36313 26.2476 3.97146
6.65675 27.0259 2
8.96748 27.7939 0.0249502
2.85458 23.1494 4
5.17681 24.0959 2
7.43137 25.0051 0.0355615
3.86728 20.9142 2
6.12172 22.0012 0.028986
5.02411 18.75 0
7.16548 35.3198 3.97673
9.21704 35.3031 2
10.9308 35.0333 0.0237454
4.86168 37.3421 3.96691
7.22817 37.2097 2
9.40947 36.9929 0.0231109
7.45894 39.1742 0.023277
5.0153 39.4664 2
2.60717 39.7142 3.97376
5.29589 41.6098 0.0327736
2.86034 42.0017 2
0.320823 42.3947 4
3.24914 44.2819 0.0272189
0.720551 44.8159 2
1.27781 47.2057 0
7.32713 33.4846 3.97664
9.25128 33.7344 2
10.5476 33.9248 0.0238652
5.45135 31.1433 3.9655
7.72846 31.6448 2
9.77857 32.2082 0.0235606
3.68427 28.4444 3.97201
5.98888 29.0829 2
8.30106 29.7436 0.024426
1.99015 25.446 4
4.36386 26.2488 2
6.65953 27.0256 0.0351723
2.85453 23.1494 2
5.17625 24.0942 0.0287924
3.86728 20.9142 0
4.87394 35.2563 3.96636
7.16755 35.3201 2
9.21522 35.3031 0.0228989
2.49861 37.4291 3.97444
4.85807 37.342 2
7.22524 37.2095 0.0232402
5.01776 39.4666 0.0327874
2.60831 39.7142 2
0.080333 39.9526 4
2.85933 42.0023 0.0265967
0.320817 42.3947 2
0.720592 44.8159 0
5.07142 33.1972 3.96594
7.32919 33.485 2
9.24921 33.7341 0.0229203
3.14828 30.6676 3.97279
5.44673 31.1435 2
7.72563 31.6442 0.023835
1.27793 27.7943 4
3.68525 28.4454 2
5.9926 29.0827 0.0349274
1.99013 25.446 2
4.36313 26.2476 0.0285427
2.85458 23.1494 0
2.55059 35.1601 3.97421
4.87087 35.2565 2
7.16548 35.3198 0.0232661
0 37.5 4
2.49938 37.4294 2
4.86168 37.3421 0.0330874
2.60717 39.7142 0.0262352
0.0802903 39.9526 2
0.320823 42.3947 0
2.76831 32.9071 3.97387
5.0681 33.1975 2
7.32713 33.4846 0.0233589
0.721173 30.1842 4
3.14947 30.6685 2
5.45135 31.1433 0.0345002
1.27779 27.7943 2
3.68427 28.4444 0.0279905
1.99015 25.446 0
0.0806499 35.0474 4
2.55194 35.1604 2
4.87394 35.2563 0.0336426
0 37.5 2
2.49861 37.4291 0.0255613
0.080333 39.9526 0
0.32156 32.6054 4
2.76914 32.9079 2
5.07142 33.1972 0.0340577
0.72056 30.1841 2
3.14828 30.6676 0.027209
1.27793 27.7943 0
0.0802889 35.0474 2
2.55059 35.1601 0.0257922
0 37.5 0
0.320817 32.6053 2
2.76831 32.9071 0.0261302
0.721173 30.1842 0
0.0806499 35.0474 0
0.32156 32.6054 0
CELLS 1910 17190
8 18 6 25 56 2 0 5 16
8 57 23 6 18 17 4 0 2
8 78 36 9 29 31 11 1 7
8 31 11 1 7 79 37 10 30
8 110 57 18 50 48 17 2 14
8 50 18 56 111 14 2 16 49
8 116 62 22 55 52 20 3 15
8 56 25 67 118 16 5 24 53
8 119 63 23 57 54 21 4 17
8 55 22 63 119 15 3 21 54
8 58 26 68 121 18 6 25 56
8 122 65 26 58 57 23 6 18
8 73 31 7 27 142 79 30 71
8 143 78 29 72 73 31 7 27
8 83 147 76 34 32 74 28 8
8 84 148 78 36 33 75 29 9
8 76 34 8 28 148 84 33 75
8 37 79 150 86 10 30 77 35
8 151 87 36 78 80 38 11 31
8 80 38 11 31 152 88 37 79
8 175 100 42 94 96 44 12 40
8 44 96 176 101 12 40 95 43
8 101 176 98 46 43 95 41 13
8 46 98 178 103 13 41 97 45
8 178 103 45 97 147 83 32 74
8 189 116 55 109 106 52 15 47
8 111 56 118 191 49 16 53 107
8 192 119 57 110 108 54 17 48
8 109 55 119 192 47 15 54 108
8 194 122 58 112 110 57 18 50
8 112 58 121 195 50 18 56 111
8 115 61 19 51 197 124 59 113
8 115 61 125 198 51 19 60 114
8 198 125 62 116 114 60 20 52
8 200 127 64 120 116 62 22 55
8 118 67 132 202 53 24 66 117
8 121 68 133 203 56 25 67 118
8 120 64 128 204 55 22 63 119
8 204 128 65 122 119 63 23 57
8 206 134 68 121 123 69 26 58
8 123 69 26 58 207 131 65 122
8 226 147 74 138 140 76 28 70
8 229 148 75 139 143 78 29 72
8 140 76 28 70 229 148 75 139
8 142 79 30 71 231 150 77 141
8 144 80 31 73 232 152 79 142
8 233 151 78 143 144 80 31 73
8 150 86 35 77 235 154 81 145
8 235 154 81 145 146 82 39 91
8 146 82 39 91 236 155 90 165
8 238 157 83 147 149 85 34 76
8 239 158 84 148 151 87 36 78
8 149 85 34 76 239 158 84 148
8 152 88 37 79 241 160 86 150
8 242 161 87 151 153 89 38 80
8 153 89 38 80 243 162 88 152
8 171 98 41 92 265 178 97 169
8 265 178 97 169 226 147 74 138
8 172 96 40 93 266 176 95 170
8 266 176 95 170 171 98 41 92
8 269 175 94 173 172 96 40 93
8 271 180 99 174 175 100 42 94
8 197 124 59 113 271 180 99 174
8 272 181 100 175 177 102 44 96
8 273 182 101 176 179 104 46 98
8 177 102 44 96 273 182 101 176
8 179 104 46 98 275 184 103 178
8 275 184 103 178 238 157 83 147
8 188 115 51 105 283 197 113 186
8 188 115 198 284 105 51 114 187
8 284 198 116 189 187 114 52 106
8 286 200 120 193 189 116 55 109
8 191 118 202 288 107 53 117 190
8 195 121 203 289 111 56 118 191
8 193 120 204 290 109 55 119 192
8 290 204 122 194 192 119 57 110
8 196 123 58 112 292 207 122 194
8 293 206 121 195 196 123 58 112
8 199 126 61 115 297 211 124 197
8 298 212 127 200 198 125 62 116
8 199 126 212 298 115 61 125 198
8 205 129 64 120 300 214 127 200
8 301 217 130 201 202 132 66 117
8 209 136 168 264 301 217 130 201
8 302 219 132 202 203 133 67 118
8 303 220 133 203 206 134 68 121
8 205 129 215 304 120 64 128 204
8 304 215 131 207 204 128 65 122
8 306 221 134 206 208 135 69 123
8 208 135 69 123 307 218 131 207
8 210 137 167 263 309 223 136 209
8 328 238 147 226 230 149 76 140
8 228 146 91 166 329 236 165 260
8 231 150 77 141 330 235 145 227
8 330 235 145 227 228 146 91 166
8 332 239 148 229 233 151 78 143
8 230 149 76 140 332 239 148 229
8 232 152 79 142 334 241 150 231
8 234 153 80 144 335 243 152 232
8 336 242 151 233 234 153 80 144
8 236 155 90 165 338 245 164 259
8 241 160 86 150 339 246 154 235
8 339 246 154 235 237 156 82 146
8 237 156 82 146 340 247 155 236
8 342 249 157 238 240 159 85 149
8 343 250 158 239 242 161 87 151
8 240 159 85 149 343 250 158 239
8 243 162 88 152 345 252 160 241
8 244 163 253 346 153 89 161 242
8 244 163 89 153 347 254 162 243
8 311 224 261 371 210 137 167 263
8 263 167 262 372 209 136 168 264
8 267 179 98 171 375 275 178 265
8 375 275 178 265 328 238 147 226
8 376 273 176 266 267 179 98 171
8 268 177 96 172 376 273 176 266
8 379 272 175 269 268 177 96 172
8 380 271 174 270 269 175 94 173
8 283 197 113 186 380 271 174 270
8 381 277 180 271 272 181 100 175
8 297 211 124 197 381 277 180 271
8 382 278 181 272 274 183 102 177
8 274 183 102 177 383 279 182 273
8 383 279 182 273 276 185 104 179
8 385 281 184 275 342 249 157 238
8 276 185 104 179 385 281 184 275
8 285 199 115 188 393 297 197 283
8 394 298 200 286 284 198 116 189
8 285 199 298 394 188 115 198 284
8 291 205 120 193 396 300 200 286
8 397 301 201 287 288 202 117 190
8 295 209 264 374 397 301 201 287
8 398 302 202 288 289 203 118 191
8 399 303 203 289 293 206 121 195
8 291 205 304 400 193 120 204 290
8 400 304 207 292 290 204 122 194
8 294 208 123 196 402 307 207 292
8 403 306 206 293 294 208 123 196
8 296 210 263 373 405 309 209 295
8 408 312 213 299 297 211 126 199
8 299 213 313 409 199 126 212 298
8 409 313 214 300 298 212 127 200
8 305 216 129 205 411 315 214 300
8 412 318 217 301 302 219 132 202
8 309 223 136 209 412 318 217 301
8 413 320 219 302 303 220 133 203
8 306 221 321 414 206 134 220 303
8 307 218 131 207 415 316 215 304
8 305 216 316 415 205 129 215 304
8 417 322 221 306 308 222 135 208
8 308 222 135 208 418 319 218 307
8 310 225 137 210 420 325 223 309
8 423 326 224 311 310 225 137 210
8 329 236 165 260 441 338 259 368
8 442 342 238 328 333 240 149 230
8 331 237 146 228 443 340 236 329
8 334 241 150 231 444 339 235 330
8 444 339 235 330 331 237 146 228
8 446 343 239 332 336 242 151 233
8 333 240 149 230 446 343 239 332
8 335 243 152 232 448 345 241 334
8 337 244 153 234 449 347 243 335
8 337 244 346 450 234 153 242 336
8 338 245 164 259 452 349 258 367
8 340 247 155 236 453 350 245 338
8 345 252 160 241 454 351 246 339
8 454 351 246 339 341 248 156 237
8 341 248 156 237 455 352 247 340
8 240 159 251 344 342 249 354 457
8 242 161 253 346 343 250 355 458
8 343 250 355 458 240 159 251 344
8 347 254 162 243 460 357 252 345
8 348 255 358 461 244 163 253 346
8 348 255 163 244 462 359 254 347
8 473 360 257 365 363 256 364 482
8 452 349 258 367 365 257 366 485
8 422 324 369 488 311 224 261 371
8 371 261 370 490 263 167 262 372
8 407 311 371 491 296 210 263 373
8 373 263 372 492 295 209 264 374
8 493 385 275 375 442 342 238 328
8 377 276 179 267 493 385 275 375
8 378 274 177 268 494 383 273 376
8 494 383 273 376 377 276 179 267
8 497 382 272 379 378 274 177 268
8 498 381 271 380 379 272 175 269
8 393 297 197 283 498 381 271 380
8 499 387 277 381 382 278 181 272
8 408 312 211 297 499 387 277 381
8 500 388 278 382 384 280 183 274
8 501 389 279 383 386 282 185 276
8 384 280 183 274 501 389 279 383
8 386 282 185 276 503 391 281 385
8 503 391 281 385 457 354 249 342
8 511 408 299 395 393 297 199 285
8 395 299 409 512 285 199 298 394
8 512 409 300 396 394 298 200 286
8 401 305 205 291 514 411 300 396
8 515 412 301 397 398 302 202 288
8 405 309 209 295 515 412 301 397
8 516 413 302 398 399 303 203 289
8 403 306 414 517 293 206 303 399
8 402 307 207 292 518 415 304 400
8 401 305 415 518 291 205 304 400
8 404 308 208 294 520 418 307 402
8 521 417 306 403 404 308 208 294
8 406 310 210 296 523 420 309 405
8 526 423 311 407 406 310 210 296
8 410 314 213 299 527 424 312 408
8 528 425 315 411 409 313 214 300
8 410 314 425 528 299 213 313 409
8 416 317 216 305 530 427 315 411
8 531 430 318 412 413 320 219 302
8 420 325 223 309 531 430 318 412
8 532 432 320 413 414 321 220 303
8 417 322 433 533 306 221 321 414
8 418 319 218 307 534 428 316 415
8 416 317 428 534 305 216 316 415
8 419 323 434 536 308 222 322 417
8 419 323 222 308 537 431 319 418
8 421 327 225 310 539 438 325 420
8 421 327 439 541 310 225 326 423
8 543 437 324 422 423 326 224 311
8 441 338 259 368 559 452 367 486
8 443 340 236 329 560 453 338 441
8 333 240 344 447 442 342 457 561
8 445 341 237 331 562 455 340 443
8 448 345 241 334 563 454 339 444
8 563 454 339 444 445 341 237 331
8 336 242 346 450 446 343 458 565
8 446 343 458 565 333 240 344 447
8 449 347 243 335 567 460 345 448
8 451 348 244 337 568 462 347 449
8 451 348 461 569 337 244 346 450
8 570 463 349 452 473 360 257 365
8 453 350 245 338 570 463 349 452
8 455 352 247 340 571 464 350 453
8 460 357 252 345 572 465 351 454
8 572 465 351 454 456 353 248 341
8 456 353 248 341 573 466 352 455
8 344 251 356 459 457 354 468 575
8 458 355 469 576 344 251 356 459
8 346 253 358 461 458 355 469 576
8 462 359 254 347 578 471 357 460
8 348 255 359 462 461 358 472 579
8 591 474 360 473 475 361 256 363
8 475 361 256 363 594 477 362 479
8 363 256 364 482 479 362 480 603
8 590 473 365 484 481 363 482 605
8 482 364 257 365 606 483 366 485
8 559 452 367 486 484 365 485 607
8 542 436 487 609 422 324 369 488
8 525 422 488 611 407 311 371 491
8 488 369 489 612 371 261 370 490
8 491 371 490 613 373 263 372 492
8 495 386 276 377 614 503 385 493
8 614 503 385 493 561 457 342 442
8 615 501 383 494 495 386 276 377
8 496 384 274 378 615 501 383 494
8 618 500 382 497 496 384 274 378
8 619 499 381 498 497 382 272 379
8 511 408 297 393 619 499 381 498
8 620 505 387 499 500 388 278 382
8 527 424 312 408 620 505 387 499
8 502 390 506 621 384 280 388 500
8 622 507 389 501 504 392 282 386
8 502 390 280 384 622 507 389 501
8 504 392 282 386 624 509 391 503
8 624 509 391 503 575 468 354 457
8 513 410 299 395 630 527 408 511
8 631 528 411 514 512 409 300 396
8 513 410 528 631 395 299 409 512
8 519 416 305 401 633 530 411 514
8 634 531 412 515 516 413 302 398
8 523 420 309 405 634 531 412 515
8 635 532 413 516 517 414 303 399
8 521 417 533 636 403 306 414 517
8 520 418 307 402 637 534 415 518
8 519 416 534 637 401 305 415 518
8 522 419 308 404 639 537 418 520
8 522 419 536 640 404 308 417 521
8 524 421 310 406 642 539 420 523
8 524 421 541 644 406 310 423 526
8 646 543 422 525 526 423 311 407
8 529 426 314 410 647 544 424 527
8 528 425 545 648 411 315 427 530
8 529 426 545 648 410 314 425 528
8 535 429 317 416 649 546 427 530
8 650 548 430 531 532 432 320 413
8 539 438 325 420 650 548 430 531
8 533 433 550 651 414 321 432 532
8 536 434 551 652 417 322 433 533
8 537 431 319 418 653 547 428 534
8 535 429 547 653 416 317 428 534
8 538 435 552 654 419 323 434 536
8 538 435 323 419 655 549 431 537
8 540 440 327 421 657 556 438 539
8 540 440 557 659 421 327 439 541
8 541 439 555 660 423 326 437 543
8 661 554 436 542 543 437 324 422
8 676 570 452 559 590 473 365 484
8 560 453 338 441 676 570 452 559
8 562 455 340 443 677 571 453 560
8 447 344 459 566 561 457 575 678
8 564 456 341 445 679 573 455 562
8 567 460 345 448 680 572 454 563
8 680 572 454 563 564 456 341 445
8 565 458 576 682 447 344 459 566
8 450 346 461 569 565 458 576 682
8 568 462 347 449 684 578 460 567
8 451 348 462 568 569 461 579 685
8 686 580 463 570 591 474 360 473
8 571 464 350 453 686 580 463 570
8 573 466 352 455 687 581 464 571
8 572 465 582 688 460 357 471 578
8 574 467 582 688 456 353 465 572
8 574 467 353 456 689 583 466 573
8 459 356 470 577 575 468 585 691
8 576 469 586 692 459 356 470 577
8 461 358 472 579 576 469 586 692
8 462 359 471 578 579 472 588 694
8 704 591 473 590 593 475 363 481
8 595 476 592 705 475 361 474 591
8 593 475 363 481 707 594 479 602
8 594 477 362 479 709 598 478 600
8 595 476 361 475 711 597 477 594
8 479 362 480 603 600 478 601 720
8 481 363 482 605 602 479 603 722
8 603 480 364 482 723 604 483 606
8 605 482 365 484 724 606 485 607
8 656 553 608 726 542 436 487 609
8 645 542 609 728 525 422 488 611
8 609 487 610 729 488 369 489 612
8 611 488 612 730 491 371 490 613
8 616 504 386 495 731 624 503 614
8 731 624 503 614 678 575 457 561
8 732 622 501 615 616 504 386 495
8 617 502 384 496 732 622 501 615
8 617 502 621 735 496 384 500 618
8 736 620 499 619 618 500 382 497
8 630 527 408 511 736 620 499 619
8 621 506 626 737 500 388 505 620
8 647 544 424 527 737 626 505 620
8 623 508 627 738 502 390 506 621
8 623 508 390 502 739 628 507 622
8 625 510 628 739 504 392 507 622
8 740 629 509 624 691 585 468 575
8 625 510 392 504 740 629 509 624
8 632 529 410 513 744 647 527 630
8 631 528 648 745 514 411 530 633
8 632 529 648 745 513 410 528 631
8 638 535 416 519 746 649 530 633
8 747 650 531 634 635 532 413 516
8 642 539 420 523 747 650 531 634
8 636 533 651 748 517 414 532 635
8 640 536 652 749 521 417 533 636
8 639 537 418 520 750 653 534 637
8 638 535 653 750 519 416 534 637
8 641 538 419 522 751 655 537 639
8 641 538 654 752 522 419 536 640
8 643 540 421 524 753 657 539 642
8 643 540 659 755 524 421 541 644
8 644 541 660 757 526 423 543 646
8 758 661 542 645 646 543 422 525
8 529 426 544 647 648 545 662 759
8 530 427 545 648 649 546 663 760
8 535 429 546 649 653 547 664 761
8 762 666 548 650 651 550 432 532
8 657 556 438 539 762 666 548 650
8 652 551 668 763 533 433 550 651
8 654 552 669 764 536 434 551 652
8 655 549 431 537 765 665 547 653
8 538 435 549 655 654 552 667 766
8 661 554 671 768 542 436 553 656
8 658 558 440 540 769 674 556 657
8 658 558 675 770 540 440 557 659
8 659 557 673 771 541 439 555 660
8 660 555 672 772 543 437 554 661
8 788 686 570 676 704 591 473 590
8 677 571 453 560 788 686 570 676
8 679 573 455 562 789 687 571 677
8 566 459 577 683 678 575 691 790
8 681 574 456 564 791 689 573 679
8 680 572 688 792 567 460 578 684
8 681 574 688 792 564 456 572 680
8 682 576 692 794 566 459 577 683
8 569 461 579 685 682 576 692 794
8 568 462 578 684 685 579 694 796
8 687 581 464 571 798 696 580 686
8 798 696 580 686 705 592 474 591
8 689 583 466 573 799 697 581 687
8 688 582 698 800 578 471 588 694
8 690 584 698 800 574 467 582 688
8 690 584 467 574 801 699 583 689
8 693 587 701 803 577 470 585 691
8 693 587 470 577 804 702 586 692
8 695 589 702 804 579 472 586 692
8 695 589 472 579 805 703 588 694
8 708 595 705 813 593 475 591 704
8 710 596 706 814 595 476 592 705
8 707 594 479 602 816 709 600 719
8 708 595 475 593 817 711 594 707
8 709 598 478 600 819 715 599 717
8 711 597 477 594 820 714 598 709
8 710 596 476 595 822 713 597 711
8 600 478 601 720 717 599 718 832
8 602 479 603 722 719 600 720 834
8 720 601 480 603 835 721 604 723
8 722 603 482 605 836 723 606 724
8 767 670 725 839 656 553 608 726
8 756 656 726 841 645 542 609 728
8 726 608 727 842 609 487 610 729
8 728 609 729 843 611 488 612 730
8 844 740 624 731 790 691 575 678
8 733 625 504 616 844 740 624 731
8 734 623 502 617 845 739 622 732
8 733 625 739 845 616 504 622 732
8 734 623 738 846 617 502 621 735
8 735 621 737 847 618 500 620 736
8 744 647 527 630 847 737 620 736
8 621 506 627 738 737 626 741 848
8 647 544 626 737 759 662 741 848
8 623 508 628 739 738 627 742 849
8 740 629 585 691 850 743 700 802
8 625 510 629 740 739 628 743 850
8 632 529 647 744 745 648 759 854
8 633 530 648 745 746 649 760 855
8 638 535 649 746 750 653 761 856
8 857 762 650 747 748 651 532 635
8 753 657 539 642 857 762 650 747
8 749 652 763 858 636 533 651 748
8 752 654 764 859 640 536 652 749
8 751 655 537 639 860 765 653 750
8 641 538 655 751 752 654 766 861
8 754 658 540 643 862 769 657 753
8 754 658 770 863 643 540 659 755
8 755 659 771 864 644 541 660 757
8 758 661 768 866 645 542 656 756
8 757 660 772 867 646 543 661 758
8 759 662 773 868 648 545 663 760
8 649 546 663 760 761 664 774 871
8 765 665 547 653 872 775 664 761
8 873 777 666 762 763 668 550 651
8 769 674 556 657 873 777 666 762
8 764 669 779 874 652 551 668 763
8 654 552 667 766 764 669 778 875
8 655 549 665 765 766 667 776 876
8 768 671 782 877 656 553 670 767
8 772 672 783 878 661 554 671 768
8 658 558 674 769 770 675 786 879
8 659 557 675 770 771 673 785 881
8 882 784 672 772 771 673 555 660
8 789 687 571 677 897 798 686 788
8 897 798 686 788 813 705 591 704
8 791 689 573 679 898 799 687 789
8 795 693 803 900 683 577 691 790
8 793 690 574 681 901 801 689 791
8 792 688 800 902 684 578 694 796
8 793 690 800 902 681 574 688 792
8 795 693 577 683 903 804 692 794
8 797 695 804 903 685 579 692 794
8 797 695 579 685 904 805 694 796
8 905 806 697 799 798 696 581 687
8 814 706 806 905 705 592 696 798
8 689 583 697 799 801 699 808 907
8 800 698 809 908 694 588 703 805
8 690 584 699 801 800 698 809 908
8 803 701 810 909 691 585 700 802
8 693 587 702 804 803 701 811 910
8 695 589 703 805 804 702 812 911
8 818 710 814 919 708 595 705 813
8 821 712 815 920 710 596 706 814
8 816 709 600 719 922 819 717 831
8 817 711 594 707 923 820 709 816
8 818 710 595 708 924 822 711 817
8 819 715 599 717 926 827 716 829
8 820 714 598 709 927 826 715 819
8 929 825 713 822 820 714 597 711
8 821 712 596 710 930 824 713 822
8 717 599 718 832 829 716 830 942
8 719 600 720 834 831 717 832 944
8 832 718 601 720 945 833 721 835
8 834 720 603 722 946 835 723 836
8 869 780 838 950 767 670 725 839
8 865 767 839 952 756 656 726 841
8 839 725 840 953 726 608 727 842
8 841 726 842 954 728 609 729 843
8 844 740 691 790 955 850 802 899
8 733 625 740 844 845 739 850 955
8 734 623 739 845 846 738 849 956
8 735 621 738 846 847 737 848 957
8 744 647 737 847 854 759 848 957
8 738 627 742 849 848 741 851 958
8 848 741 851 958 759 662 773 868
8 850 743 700 802 959 852 807 906
8 849 742 628 739 959 852 743 850
8 854 759 868 965 745 648 760 855
8 746 649 760 855 856 761 871 966
8 860 765 653 750 967 872 761 856
8 968 873 762 857 858 763 651 748
8 862 769 657 753 968 873 762 857
8 859 764 874 969 749 652 763 858
8 752 654 766 861 859 764 875 970
8 751 655 765 860 861 766 876 971
8 754 658 769 862 863 770 879 972
8 755 659 770 863 864 771 881 974
8 976 882 772 867 864 771 660 757
8 866 768 877 977 756 656 767 865
8 867 772 878 978 758 661 768 866
8 760 663 773 868 871 774 883 980
8 870 781 837 948 982 890 780 869
8 982 890 780 869 877 782 670 767
8 761 664 774 871 872 775 884 984
8 876 776 665 765 985 885 775 872
8 873 777 668 763 986 887 779 874
8 769 674 777 873 879 786 887 986
8 764 669 778 875 874 779 888 987
8 766 667 776 876 875 778 886 988
8 878 783 892 989 768 671 782 877
8 878 783 672 772 990 893 784 882
8 880 787 675 770 991 896 786 879
8 880 787 895 992 770 675 785 881
8 881 785 894 993 771 673 784 882
8 1006 905 799 898 897 798 687 789
8 919 814 905 1006 813 705 798 897
8 791 689 799 898 901 801 907 1007
8 900 803 909 1009 790 691 802 899
8 795 693 804 903 900 803 910 1010
8 902 800 908 1011 796 694 805 904
8 793 690 801 901 902 800 908 1011
8 797 695 805 904 903 804 911 1012
8 799 697 806 905 907 808 912 1013
8 920 815 912 1013 814 706 806 905
8 802 700 810 909 906 807 913 1014
8 801 699 808 907 908 809 914 1015
8 805 703 809 908 911 812 915 1016
8 803 701 811 910 909 810 916 1017
8 911 812 917 1018 804 702 811 910
8 925 821 920 1030 818 710 814 919
8 928 823 921 1031 821 712 815 920
8 922 819 717 831 1033 926 829 941
8 923 820 709 816 1034 927 819 922
8 1035 929 822 924 923 820 711 817
8 925 821 710 818 1036 930 822 924
8 1038 933 825 929 927 826 714 820
8 926 827 716 829 1039 935 828 939
8 927 826 715 819 1040 934 827 926
8 928 823 712 821 1041 931 824 930
8 1042 932 824 930 929 825 713 822
8 829 716 830 942 939 828 940 1058
8 831 717 832 944 941 829 942 1060
8 942 830 718 832 1061 943 833 945
8 944 832 720 834 1062 945 835 946
8 981 889 947 1064 870 781 837 948
8 948 837 949 1067 869 780 838 950
8 975 869 950 1069 865 767 839 952
8 950 838 951 1070 839 725 840 953
8 952 839 953 1071 841 726 842 954
8 955 850 802 899 1072 959 906 1008
8 956 849 739 845 1072 959 850 955
8 846 738 849 956 957 848 958 1073
8 957 848 958 1073 854 759 868 965
8 849 742 852 959 958 851 961 1076
8 960 853 961 1076 906 807 852 959
8 958 851 961 1076 868 773 883 980
8 960 853 807 906 1077 963 913 1014
8 855 760 868 965 966 871 980 1085
8 856 761 871 966 967 872 984 1086
8 971 876 765 860 1087 985 872 967
8 968 873 763 858 1088 986 874 969
8 862 769 873 968 972 879 986 1088
8 859 764 875 970 969 874 987 1089
8 861 766 876 971 970 875 988 1090
8 973 880 770 863 1091 991 879 972
8 973 880 992 1092 863 770 881 974
8 974 881 993 1093 864 771 882 976
8 979 870 948 1066 1094 982 869 975
8 1094 982 869 975 977 877 767 865
8 978 878 772 867 1095 990 882 976
8 978 878 989 1096 866 768 877 977
8 871 774 883 980 984 884 994 1099
8 983 891 999 1100 870 781 889 981
8 1101 1000 890 982 989 892 782 877
8 983 891 781 870 1101 1000 890 982
8 872 775 884 984 985 885 995 1103
8 876 776 885 985 988 886 996 1104
8 986 887 779 874 1105 998 888 987
8 879 786 887 986 991 896 998 1105
8 875 778 886 988 987 888 997 1106
8 990 893 1002 1107 878 783 892 989
8 1108 1003 893 990 993 894 784 882
8 880 787 896 991 992 895 1005 1109
8 993 894 785 881 1110 1004 895 992
8 898 799 905 1006 1007 907 1013 1120
8 1030 920 1013 1120 919 814 905 1006
8 901 801 907 1007 1011 908 1015 1121
8 899 802 909 1009 1008 906 1014 1122
8 900 803 910 1010 1009 909 1017 1123
8 1012 911 1018 1124 903 804 910 1010
8 904 805 908 1011 1012 911 1016 1125
8 1013 912 1020 1127 907 808 914 1015
8 1031 921 1020 1127 920 815 912 1013
8 1019 918 962 1075 1128 1021 913 1014
8 1128 1021 913 1014 1017 916 810 909
8 1015 914 1022 1129 908 809 915 1016
8 1016 915 1023 1130 911 812 917 1018
8 1018 917 1024 1131 910 811 916 1017
8 1037 928 1031 1148 925 821 920 1030
8 928 823 931 1041 1031 921 1032 1149
8 1033 926 829 941 1151 1039 939 1057
8 1034 927 819 922 1152 1040 926 1033
8 1153 1038 929 1035 1034 927 820 923
8 1154 1042 930 1036 1035 929 822 924
8 1037 928 821 925 1155 1041 930 1036
8 1039 935 828 939 1156 1047 938 1055
8 1157 1043 932 1042 1038 933 825 929
8 1038 933 826 927 1158 1045 934 1040
8 1040 934 827 926 1159 1046 935 1039
8 930 824 932 1042 1041 931 1044 1160
8 1051 936 1048 1165 1175 1052 937 1053
8 1156 1047 938 1055 1053 937 1054 1178
8 939 828 940 1058 1055 938 1056 1181
8 941 829 942 1060 1057 939 1058 1183
8 942 830 943 1061 1058 940 1059 1184
8 1060 942 832 944 1185 1061 945 1062
8 1082 964 1063 1188 981 889 947 1064
8 1097 981 1064 1190 979 870 948 1066
8 1064 947 1065 1191 948 837 949 1067
8 1066 948 1067 1193 975 869 950 1069
8 1067 949 1068 1194 950 838 951 1070
8 1069 950 1070 1195 952 839 953 1071
8 956 849 959 1072 1073 958 1076 1197
8 1074 960 1076 1197 1008 906 959 1072
8 1073 958 1076 1197 965 868 980 1085
8 1074 960 906 1008 1198 1077 1014 1122
8 1133 1026 1079 1199 1019 918 962 1075
8 1077 963 913 1014 1200 1080 962 1075
8 960 853 963 1077 1076 961 1078 1201
8 980 883 961 1076 1099 994 1078 1201
8 1210 1083 964 1082 1100 999 889 981
8 966 871 980 1085 1086 984 1099 1215
8 967 872 984 1086 1087 985 1103 1216
8 971 876 985 1087 1090 988 1104 1217
8 1088 986 874 969 1218 1105 987 1089
8 972 879 986 1088 1091 991 1105 1218
8 970 875 988 1090 1089 987 1106 1219
8 973 880 991 1091 1092 992 1109 1220
8 1093 993 881 974 1221 1110 992 1092
8 1222 1108 990 1095 1093 993 882 976
8 1223 1101 982 1094 1096 989 877 977
8 1098 983 870 979 1223 1101 982 1094
8 1095 990 1107 1224 978 878 989 1096
8 1098 983 1100 1225 979 870 981 1097
8 984 884 994 1099 1103 995 1111 1227
8 1102 1001 1115 1228 983 891 999 1100
8 1101 1000 892 989 1229 1116 1002 1107
8 1102 1001 891 983 1229 1116 1000 1101
8 985 885 995 1103 1104 996 1112 1230
8 988 886 996 1104 1106 997 1113 1231
8 1105 998 888 987 1232 1114 997 1106
8 991 896 998 1105 1109 1005 1114 1232
8 1108 1003 1117 1233 990 893 1002 1107
8 1108 1003 894 993 1233 1117 1004 1110
8 992 895 1005 1109 1110 1004 1118 1234
8 1120 1013 1127 1244 1007 907 1015 1121
8 1148 1031 1127 1244 1030 920 1013 1120
8 1121 1015 1129 1245 1011 908 1016 1125
8 1126 1019 1075 1196 1246 1128 1014 1122
8 1246 1128 1014 1122 1123 1017 909 1009
8 1124 1018 1131 1247 1010 910 1017 1123
8 1125 1016 1130 1248 1012 911 1018 1124
8 1127 1020 1137 1254 1015 914 1022 1129
8 1031 921 1032 1149 1127 1020 1137 1254
8 1134 1027 918 1019 1257 1140 1021 1128
8 1257 1140 1021 1128 1131 1024 916 1017
8 1129 1022 1141 1258 1016 915 1023 1130
8 1130 1023 1142 1259 1018 917 1024 1131
8 1261 1144 1025 1132 1133 1026 1079 1199
8 1255 1138 1025 1132 1135 1028 1144 1261
8 1133 1026 918 1019 1262 1145 1027 1134
8 1136 1029 1139 1256 1263 1146 1028 1135
8 1037 928 1041 1155 1148 1031 1149 1275
8 1041 931 1044 1160 1149 1032 1150 1276
8 1151 1039 939 1057 1278 1156 1055 1180
8 1152 1040 926 1033 1279 1159 1039 1151
8 1153 1038 927 1034 1280 1158 1040 1152
8 1281 1157 1042 1154 1153 1038 929 1035
8 1036 930 1042 1154 1155 1041 1160 1282
8 1283 1164 1046 1159 1156 1047 935 1039
8 1165 1048 1164 1283 1053 937 1047 1156
8 1157 1043 933 1038 1284 1161 1045 1158
8 1157 1043 1161 1284 1042 932 1044 1160
8 1040 934 1046 1159 1158 1045 1163 1285
8 1166 1049 1167 1292 1051 936 1048 1165
8 1166 1049 936 1051 1293 1168 1050 1172
8 1051 936 1052 1175 1172 1050 1173 1306
8 1174 1051 1165 1290 1308 1175 1053 1177
8 1053 937 1054 1178 1175 1052 1176 1309
8 1278 1156 1055 1180 1177 1053 1178 1311
8 1055 938 1056 1181 1178 1054 1179 1312
8 1057 939 1058 1183 1180 1055 1181 1314
8 1058 940 1059 1184 1181 1056 1182 1315
8 1060 942 1061 1185 1183 1058 1184 1316
8 1208 1081 1187 1321 1082 964 1063 1188
8 1209 1082 1188 1322 1097 981 1064 1190
8 1188 1063 1189 1323 1064 947 1065 1191
8 1190 1064 1191 1325 1066 948 1067 1193
8 1191 1065 1192 1326 1067 949 1068 1194
8 1067 1193 1069 950 1194 1327 1195 1070
8 1250 1133 1199 1330 1126 1019 1075 1196
8 1198 1077 1014 1122 1331 1200 1075 1196
8 1074 960 1077 1198 1197 1076 1201 1332
8 1085 980 1076 1197 1215 1099 1201 1332
8 1199 1079 1203 1333 1075 962 1080 1200
8 1132 1025 1119 1243 1199 1079 1203 1333
8 1201 1078 963 1077 1334 1202 1080 1200
8 1099 994 1078 1201 1227 1111 1202 1334
8 1343 1207 1081 1208 1210 1083 964 1082
8 1214 1084 1186 1319 1343 1207 1081 1208
8 1345 1210 1082 1209 1225 1100 981 1097
8 1346 1211 1083 1210 1228 1115 999 1100
8 1086 984 1099 1215 1216 1103 1227 1352
8 1087 985 1103 1216 1217 1104 1230 1353
8 1090 988 1104 1217 1219 1106 1231 1354
8 1218 1105 987 1089 1355 1232 1106 1219
8 1091 991 1105 1218 1220 1109 1232 1355
8 1092 992 1109 1220 1221 1110 1234 1356
8 1222 1108 1233 1357 1095 990 1107 1224
8 1222 1108 993 1093 1357 1233 1110 1221
8 1223 1101 989 1096 1358 1229 1107 1224
8 1226 1102 983 1098 1358 1229 1101 1223
8 1226 1102 1228 1359 1098 983 1100 1225
8 1103 995 1111 1227 1230 1112 1235 1360
8 1107 1002 1117 1233 1229 1116 1240 1362
8 1102 1001 1116 1229 1228 1115 1240 1362
8 1104 996 1112 1230 1231 1113 1236 1363
8 1364 1237 1114 1232 1231 1113 997 1106
8 1109 1005 1114 1232 1234 1118 1238 1365
8 1110 1004 1118 1234 1233 1117 1241 1366
8 1242 1374 1255 1138 1119 1243 1132 1025
8 1244 1127 1254 1376 1121 1015 1129 1245
8 1148 1031 1149 1275 1244 1127 1254 1376
8 1245 1129 1258 1377 1125 1016 1130 1248
8 1251 1134 1019 1126 1378 1257 1128 1246
8 1378 1257 1128 1246 1247 1131 1017 1123
8 1248 1130 1259 1379 1124 1018 1131 1247
8 1261 1381 1250 1133 1132 1249 1330 1199
8 1255 1380 1252 1135 1132 1249 1381 1261
8 1250 1133 1019 1126 1382 1262 1134 1251
8 1253 1136 1256 1385 1384 1263 1135 1252
8 1254 1137 1265 1387 1129 1022 1141 1258
8 1149 1032 1150 1276 1254 1137 1265 1387
8 1028 1135 1255 1138 1139 1256 1388 1266
8 1136 1029 1147 1264 1256 1139 1267 1389
8 1390 1268 1140 1257 1259 1142 1024 1131
8 1260 1143 1027 1134 1390 1268 1140 1257
8 1258 1141 1269 1391 1130 1023 1142 1259
8 1262 1145 1027 1134 1393 1271 1143 1260
8 1261 1144 1026 1133 1394 1272 1145 1262
8 1135 1028 1144 1261 1263 1146 1272 1394
8 1136 1029 1146 1263 1264 1147 1273 1395
8 1155 1041 1160 1282 1275 1149 1276 1405
8 1276 1150 1044 1160 1406 1277 1162 1286
8 1408 1283 1159 1279 1278 1156 1039 1151
8 1290 1165 1283 1408 1177 1053 1156 1278
8 1152 1040 1159 1279 1280 1158 1285 1409
8 1281 1157 1038 1153 1410 1284 1158 1280
8 1281 1157 1284 1410 1154 1042 1160 1282
8 1159 1046 1164 1283 1285 1163 1289 1412
8 1292 1167 1289 1412 1165 1048 1164 1283
8 1158 1045 1163 1285 1284 1161 1288 1413
8 1284 1161 1288 1413 1160 1044 1162 1286
8 1291 1166 1292 1418 1174 1051 1165 1290
8 1291 1166 1051 1174 1419 1293 1172 1305
8 1294 1169 1296 1421 1166 1049 1167 1292
8 1293 1168 1050 1172 1422 1295 1171 1303
8 1294 1169 1049 1166 1423 1297 1168 1293
8 1422 1295 1171 1303 1301 1170 1302 1435
8 1172 1050 1173 1306 1303 1171 1304 1438
8 1174 1051 1175 1308 1305 1172 1306 1440
8 1175 1052 1176 1309 1306 1173 1307 1441
8 1177 1053 1178 1311 1308 1175 1309 1443
8 1178 1054 1179 1312 1309 1176 1310 1444
8 1180 1055 1181 1314 1311 1178 1312 1446
8 1056 1181 1312 1179 1182 1315 1447 1313
8 1183 1058 1184 1316 1314 1181 1315 1448
8 1319 1186 1084 1214 1451 1317 1213 1350
8 1319 1186 1318 1453 1208 1081 1187 1321
8 1321 1187 1320 1456 1188 1063 1189 1323
8 1344 1208 1321 1457 1209 1082 1188 1322
8 1322 1188 1323 1458 1190 1064 1191 1325
8 1323 1189 1324 1459 1191 1065 1192 1326
8 1191 1325 1193 1067 1326 1460 1327 1194
8 1242 1374 1243 1119 1328 1462 1335 1204
8 1330 1199 1333 1465 1196 1075 1200 1331
8 1132 1249 1330 1199 1243 1375 1465 1333
8 1332 1201 1077 1198 1466 1334 1200 1331
8 1215 1099 1201 1332 1352 1227 1334 1466
8 1119 1243 1333 1203 1204 1335 1470 1338
8 1333 1203 1338 1470 1200 1080 1202 1334
8 1227 1111 1202 1334 1360 1235 1338 1470
8 1328 1462 1335 1204 1205 1336 1471 1339
8 1337 1206 1340 1472 1464 1329 1205 1336
8 1346 1211 1342 1479 1210 1083 1207 1343
8 1346 1211 1115 1228 1479 1342 1239 1361
8 1348 1212 1084 1214 1479 1342 1207 1343
8 1480 1343 1208 1344 1345 1210 1082 1209
8 1351 1214 1319 1454 1480 1343 1208 1344
8 1481 1346 1210 1345 1359 1228 1100 1225
8 1348 1212 1347 1483 1214 1084 1213 1350
8 1216 1103 1227 1352 1353 1230 1360 1488
8 1217 1104 1230 1353 1354 1231 1363 1489
8 1490 1364 1232 1355 1354 1231 1106 1219
8 1220 1109 1232 1355 1356 1234 1365 1491
8 1221 1110 1234 1356 1357 1233 1366 1492
8 1224 1107 1233 1357 1358 1229 1362 1493
8 1226 1102 1229 1358 1359 1228 1362 1493
8 1230 1112 1235 1360 1363 1236 1367 1496
8 1361 1239 1115 1228 1497 1371 1240 1362
8 1366 1241 1372 1498 1233 1117 1240 1362
8 1364 1237 1113 1231 1499 1368 1236 1363
8 1364 1237 1368 1499 1232 1114 1238 1365
8 1234 1118 1238 1365 1366 1241 1369 1500
8 1507 1373 1242 1374 1388 1266 1138 1255
8 1508 1374 1243 1375 1380 1255 1132 1249
8 1376 1254 1387 1509 1245 1129 1258 1377
8 1275 1149 1276 1405 1376 1254 1387 1509
8 1377 1258 1391 1510 1248 1130 1259 1379
8 1511 1390 1257 1378 1379 1259 1131 1247
8 1383 1260 1134 1251 1511 1390 1257 1378
8 1252 1135 1256 1385 1380 1255 1388 1512
8 1261 1381 1513 1394 1133 1250 1382 1262
8 1135 1252 1384 1263 1261 1381 1513 1394
8 1382 1262 1134 1251 1514 1393 1260 1383
8 1253 1136 1263 1384 1386 1264 1395 1516
8 1253 1136 1264 1386 1385 1256 1389 1517
8 1387 1265 1397 1519 1258 1141 1269 1391
8 1276 1150 1277 1406 1387 1265 1397 1519
8 1256 1139 1267 1389 1388 1266 1398 1520
8 1264 1147 1274 1396 1389 1267 1399 1521
8 1392 1270 1143 1260 1522 1400 1268 1390
8 1390 1268 1142 1259 1522 1400 1269 1391
8 1392 1270 1401 1523 1260 1143 1271 1393
8 1272 1394 1524 1402 1145 1262 1393 1271
8 1395 1273 1146 1263 1524 1402 1272 1394
8 1273 1395 1264 1147 1403 1526 1396 1274
8 1405 1276 1160 1282 1534 1406 1286 1411
8 1414 1287 1407 1535 1286 1162 1277 1406
8 1279 1159 1283 1408 1409 1285 1412 1537
8 1418 1292 1412 1537 1290 1165 1283 1408
8 1280 1158 1285 1409 1410 1284 1413 1538
8 1410 1284 1413 1538 1282 1160 1286 1411
8 1285 1163 1289 1412 1413 1288 1417 1540
8 1421 1296 1417 1540 1292 1167 1289 1412
8 1414 1287 1162 1286 1541 1416 1288 1413
8 1420 1294 1421 1545 1291 1166 1292 1418
8 1419 1293 1172 1305 1546 1422 1303 1437
8 1420 1294 1166 1291 1547 1423 1293 1419
8 1294 1169 1297 1423 1421 1296 1425 1548
8 1423 1297 1168 1293 1549 1424 1295 1422
8 1301 1170 1298 1427 1422 1295 1424 1549
8 1432 1300 1428 1554 1301 1170 1298 1427
8 1431 1299 1428 1554 1560 1430 1300 1432
8 1563 1433 1300 1432 1435 1302 1170 1301
8 1546 1422 1303 1437 1434 1301 1435 1565
8 1303 1171 1304 1438 1435 1302 1436 1566
8 1305 1172 1306 1440 1437 1303 1438 1568
8 1306 1173 1307 1441 1438 1304 1439 1569
8 1308 1175 1309 1443 1440 1306 1441 1571
8 1309 1176 1310 1444 1441 1307 1442 1572
8 1311 1178 1312 1446 1443 1309 1444 1574
8 1179 1312 1444 1310 1313 1447 1575 1445
8 1314 1181 1315 1448 1446 1312 1447 1576
8 1350 1213 1349 1486 1451 1317 1449 1579
8 1451 1317 1450 1581 1319 1186 1318 1453
8 1454 1319 1214 1351 1582 1451 1350 1487
8 1453 1318 1452 1584 1321 1187 1320 1456
8 1454 1319 1453 1585 1344 1208 1321 1457
8 1456 1320 1455 1586 1323 1189 1324 1459
8 1457 1321 1456 1587 1322 1188 1323 1458
8 1458 1323 1459 1588 1325 1191 1326 1460
8 1205 1336 1464 1329 1328 1462 1590 1461
8 1507 1373 1461 1590 1374 1242 1328 1462
8 1508 1374 1462 1591 1375 1243 1335 1467
8 1337 1206 1329 1464 1473 1341 1463 1594
8 1375 1243 1335 1467 1465 1333 1470 1596
8 1465 1333 1470 1596 1331 1200 1334 1466
8 1352 1227 1334 1466 1488 1360 1470 1596
8 1591 1462 1336 1468 1467 1335 1471 1597
8 1469 1337 1472 1598 1595 1464 1336 1468
8 1471 1339 1474 1600 1335 1204 1338 1470
8 1600 1474 1367 1496 1470 1338 1235 1360
8 1336 1205 1340 1472 1471 1339 1475 1601
8 1337 1206 1341 1473 1472 1340 1476 1602
8 1495 1370 1478 1609 1361 1239 1342 1479
8 1348 1212 1342 1479 1483 1347 1478 1609
8 1481 1346 1479 1610 1345 1210 1343 1480
8 1481 1346 1228 1359 1610 1479 1361 1494
8 1484 1348 1214 1351 1610 1479 1343 1480
8 1483 1347 1482 1612 1350 1213 1349 1486
8 1484 1348 1483 1613 1351 1214 1350 1487
8 1353 1230 1360 1488 1489 1363 1496 1616
8 1490 1364 1231 1354 1617 1499 1363 1489
8 1490 1364 1499 1617 1355 1232 1365 1491
8 1356 1234 1365 1491 1492 1366 1500 1619
8 1492 1366 1498 1620 1357 1233 1362 1493
8 1494 1361 1228 1359 1621 1497 1362 1493
8 1495 1370 1239 1361 1622 1504 1371 1497
8 1363 1236 1367 1496 1499 1368 1501 1623
8 1497 1371 1240 1362 1624 1505 1372 1498
8 1625 1503 1372 1498 1500 1369 1241 1366
8 1365 1238 1368 1499 1500 1369 1502 1626
8 1520 1398 1506 1633 1388 1266 1373 1507
8 1634 1507 1374 1508 1512 1388 1255 1380
8 1509 1387 1519 1635 1377 1258 1391 1510
8 1405 1276 1406 1534 1509 1387 1519 1635
8 1515 1392 1260 1383 1636 1522 1390 1511
8 1511 1390 1259 1379 1636 1522 1391 1510
8 1385 1256 1389 1517 1512 1388 1520 1637
8 1513 1394 1262 1382 1638 1524 1393 1514
8 1395 1516 1638 1524 1263 1384 1513 1394
8 1515 1392 1523 1639 1383 1260 1393 1514
8 1516 1395 1526 1640 1386 1264 1396 1518
8 1386 1264 1396 1518 1517 1389 1521 1641
8 1519 1397 1527 1643 1391 1269 1400 1522
8 1535 1407 1527 1643 1406 1277 1397 1519
8 1389 1267 1399 1521 1520 1398 1528 1644
8 1645 1529 1399 1521 1525 1404 1274 1396
8 1392 1270 1400 1522 1523 1401 1531 1646
8 1524 1402 1271 1393 1648 1532 1401 1523
8 1403 1526 1648 1532 1273 1395 1524 1402
8 1525 1404 1274 1396 1649 1533 1403 1526
8 1539 1414 1535 1657 1411 1286 1406 1534
8 1542 1415 1536 1658 1414 1287 1407 1535
8 1409 1285 1412 1537 1538 1413 1540 1660
8 1545 1421 1540 1660 1418 1292 1412 1537
8 1539 1414 1286 1411 1661 1541 1413 1538
8 1540 1417 1544 1663 1413 1288 1416 1541
8 1421 1296 1425 1548 1540 1417 1544 1663
8 1542 1415 1287 1414 1664 1543 1416 1541
8 1420 1294 1423 1547 1545 1421 1548 1666
8 1547 1423 1293 1419 1667 1549 1422 1546
8 1434 1301 1427 1553 1546 1422 1549 1667
8 1423 1297 1424 1549 1548 1425 1550 1668
8 1551 1426 1550 1668 1427 1298 1424 1549
8 1551 1426 1298 1427 1671 1552 1428 1554
8 1562 1432 1554 1674 1434 1301 1427 1553
8 1431 1299 1429 1558 1554 1428 1555 1675
8 1431 1299 1430 1560 1558 1429 1557 1680
8 1560 1430 1300 1432 1683 1559 1433 1563
8 1561 1431 1554 1674 1684 1560 1432 1562
8 1685 1563 1432 1562 1565 1435 1301 1434
8 1435 1302 1436 1566 1563 1433 1564 1686
8 1437 1303 1438 1568 1565 1435 1566 1688
8 1438 1304 1439 1569 1566 1436 1567 1689
8 1440 1306 1441 1571 1568 1438 1569 1691
8 1441 1307 1442 1572 1569 1439 1570 1692
8 1443 1309 1444 1574 1571 1441 1572 1694
8 1310 1444 1572 1442 1445 1575 1695 1573
8 1446 1312 1447 1576 1574 1444 1575 1696
8 1486 1349 1485 1614 1579 1449 1577 1699
8 1451 1317 1449 1579 1581 1450 1578 1701
8 1487 1350 1486 1615 1582 1451 1579 1702
8 1581 1450 1580 1704 1453 1318 1452 1584
8 1582 1451 1581 1705 1454 1319 1453 1585
8 1584 1452 1583 1706 1456 1320 1455 1586
8 1585 1453 1584 1707 1457 1321 1456 1587
8 1587 1456 1586 1708 1458 1323 1459 1588
8 1633 1506 1589 1710 1507 1373 1461 1590
8 1464 1329 1461 1590 1594 1463 1589 1710
8 1468 1336 1462 1591 1595 1464 1590 1711
8 1634 1507 1590 1711 1508 1374 1462 1591
8 1473 1341 1463 1594 1603 1477 1593 1716
8 1469 1337 1464 1595 1599 1473 1594 1717
8 1471 1597 1467 1335 1600 1718 1596 1470
8 1718 1600 1496 1616 1596 1470 1360 1488
8 1336 1468 1597 1471 1472 1598 1719 1601
8 1469 1337 1473 1599 1598 1472 1602 1720
8 1722 1604 1501 1623 1600 1474 1367 1496
8 1475 1601 1471 1339 1604 1722 1600 1474
8 1602 1476 1605 1723 1472 1340 1475 1601
8 1476 1602 1724 1606 1341 1473 1603 1477
8 1483 1347 1478 1609 1612 1482 1608 1731
8 1495 1370 1504 1622 1609 1478 1608 1731
8 1618 1495 1609 1732 1494 1361 1479 1610
8 1484 1348 1479 1610 1613 1483 1609 1732
8 1486 1349 1482 1612 1614 1485 1611 1733
8 1613 1483 1612 1734 1487 1350 1486 1615
8 1489 1363 1496 1616 1617 1499 1623 1736
8 1491 1365 1499 1617 1619 1500 1626 1737
8 1618 1495 1361 1494 1738 1622 1497 1621
8 1739 1625 1498 1620 1619 1500 1366 1492
8 1621 1497 1362 1493 1740 1624 1498 1620
8 1742 1631 1504 1622 1624 1505 1371 1497
8 1743 1628 1502 1626 1623 1501 1368 1499
8 1744 1630 1505 1624 1625 1503 1372 1498
8 1745 1629 1503 1625 1626 1502 1369 1500
8 1520 1398 1528 1644 1633 1506 1632 1751
8 1637 1520 1633 1752 1512 1388 1507 1634
8 1635 1519 1643 1753 1510 1391 1522 1636
8 1657 1535 1643 1753 1534 1406 1519 1635
8 1515 1392 1522 1636 1639 1523 1646 1754
8 1517 1389 1521 1641 1637 1520 1644 1755
8 1524 1638 1756 1648 1393 1514 1639 1523
8 1640 1526 1395 1516 1756 1648 1524 1638
8 1642 1525 1396 1518 1757 1649 1526 1640
8 1758 1645 1521 1641 1642 1525 1396 1518
8 1646 1531 1400 1522 1760 1650 1527 1643
8 1535 1407 1536 1658 1643 1527 1650 1760
8 1521 1399 1529 1645 1644 1528 1651 1761
8 1647 1530 1652 1762 1525 1404 1529 1645
8 1401 1523 1648 1532 1531 1646 1763 1655
8 1525 1404 1533 1649 1647 1530 1654 1765
8 1533 1649 1766 1656 1403 1526 1648 1532
8 1662 1542 1658 1774 1539 1414 1535 1657
8 1542 1415 1543 1664 1658 1536 1659 1775
8 1660 1540 1663 1777 1538 1413 1541 1661
8 1545 1421 1548 1666 1660 1540 1663 1777
8 1662 1542 1414 1539 1778 1664 1541 1661
8 1664 1543 1416 1541 1779 1665 1544 1663
8 1548 1425 1550 1668 1663 1544 1665 1779
8 1547 1423 1549 1667 1666 1548 1668 1781
8 1670 1551 1668 1781 1553 1427 1549 1667
8 1551 1426 1552 1671 1668 1550 1669 1782
8 1670 1551 1427 1553 1784 1671 1554 1674
8 1675 1555 1672 1785 1554 1428 1552 1671
8 1678 1556 1673 1789 1558 1429 1555 1675
8 1561 1431 1558 1681 1674 1554 1675 1790
8 1794 1677 1556 1678 1680 1557 1429 1558
8 1560 1430 1559 1683 1680 1557 1679 1797
8 1561 1431 1560 1684 1681 1558 1680 1798
8 1563 1433 1564 1686 1683 1559 1682 1800
8 1684 1560 1432 1562 1801 1683 1563 1685
8 1565 1435 1566 1688 1685 1563 1686 1802
8 1566 1436 1567 1689 1686 1564 1687 1803
8 1568 1438 1569 1691 1688 1566 1689 1805
8 1569 1439 1570 1692 1689 1567 1690 1806
8 1571 1441 1572 1694 1691 1569 1692 1808
8 1442 1572 1692 1570 1573 1695 1809 1693
8 1574 1444 1575 1696 1694 1572 1695 1810
8 1614 1485 1592 1712 1699 1577 1697 1813
8 1579 1449 1577 1699 1701 1578 1698 1815
8 1615 1486 1614 1735 1702 1579 1699 1816
8 1701 1578 1700 1818 1581 1450 1580 1704
8 1582 1451 1579 1702 1705 1581 1701 1819
8 1704 1580 1703 1820 1584 1452 1583 1706
8 1705 1581 1704 1821 1585 1453 1584 1707
8 1707 1584 1706 1822 1587 1456 1586 1708
8 1710 1589 1506 1633 1824 1709 1632 1751
8 1594 1463 1589 1710 1716 1593 1709 1824
8 1752 1633 1710 1825 1634 1507 1590 1711
8 1595 1464 1590 1711 1717 1594 1710 1825
8 1830 1714 1592 1712 1733 1611 1485 1614
8 1603 1477 1593 1716 1725 1607 1715 1834
8 1599 1473 1594 1717 1721 1603 1716 1835
8 1837 1722 1623 1736 1718 1600 1496 1616
8 1719 1601 1722 1837 1597 1471 1600 1718
8 1602 1720 1598 1472 1723 1838 1719 1601
8 1720 1602 1473 1599 1839 1724 1603 1721
8 1723 1605 1726 1840 1601 1475 1604 1722
8 1840 1726 1628 1743 1722 1604 1501 1623
8 1724 1606 1727 1841 1602 1476 1605 1723
8 1725 1607 1728 1842 1603 1477 1606 1724
8 1612 1482 1608 1731 1733 1611 1730 1849
8 1741 1627 1730 1849 1622 1504 1608 1731
8 1613 1483 1609 1732 1734 1612 1731 1850
8 1618 1495 1622 1738 1732 1609 1731 1850
8 1615 1486 1612 1734 1735 1614 1733 1851
8 1852 1743 1626 1737 1736 1623 1499 1617
8 1853 1745 1625 1739 1737 1626 1500 1619
8 1855 1742 1622 1738 1740 1624 1497 1621
8 1856 1744 1624 1740 1739 1625 1498 1620
8 1741 1627 1504 1622 1857 1746 1631 1742
8 1742 1631 1505 1624 1858 1749 1630 1744
8 1859 1747 1629 1745 1743 1628 1502 1626
8 1860 1748 1630 1744 1745 1629 1503 1625
8 1644 1528 1651 1761 1751 1632 1750 1865
8 1637 1520 1644 1755 1752 1633 1751 1866
8 1754 1646 1522 1636 1867 1760 1643 1753
8 1657 1535 1658 1774 1753 1643 1760 1867
8 1639 1523 1646 1754 1756 1648 1763 1868
8 1641 1521 1645 1758 1755 1644 1761 1869
8 1757 1649 1526 1640 1870 1766 1648 1756
8 1642 1525 1649 1757 1759 1647 1765 1871
8 1759 1647 1762 1872 1642 1525 1645 1758
8 1760 1650 1767 1874 1646 1531 1655 1763
8 1658 1536 1659 1775 1760 1650 1767 1874
8 1762 1652 1768 1875 1645 1529 1651 1761
8 1764 1653 1769 1876 1647 1530 1652 1762
8 1656 1766 1877 1773 1532 1648 1763 1655
8 1771 1879 1765 1654 1653 1764 1647 1530
8 1533 1649 1765 1654 1656 1766 1880 1772
8 1662 1542 1664 1778 1774 1658 1775 1887
8 1664 1543 1665 1779 1775 1659 1776 1888
8 1778 1664 1541 1661 1890 1779 1663 1777
8 1666 1548 1668 1781 1777 1663 1779 1890
8 1782 1669 1780 1891 1668 1550 1665 1779
8 1670 1551 1671 1784 1781 1668 1782 1893
8 1671 1552 1672 1785 1782 1669 1783 1894
8 1790 1675 1785 1896 1674 1554 1671 1784
8 1675 1555 1673 1789 1785 1672 1786 1897
8 1792 1676 1788 1903 1678 1556 1673 1789
8 1795 1678 1789 1904 1681 1558 1675 1790
8 1792 1676 1556 1678 1906 1791 1677 1794
8 1680 1557 1679 1797 1794 1677 1793 1909
8 1910 1794 1678 1795 1798 1680 1558 1681
8 1683 1559 1682 1800 1797 1679 1796 1912
8 1684 1560 1683 1801 1798 1680 1797 1913
8 1686 1564 1687 1803 1800 1682 1799 1915
8 1685 1563 1686 1802 1801 1683 1800 1916
8 1688 1566 1689 1805 1802 1686 1803 1917
8 1689 1567 1690 1806 1803 1687 1804 1918
8 1691 1569 1692 1808 1805 1689 1806 1920
8 1692 1570 1693 1809 1806 1690 1807 1921
8 1694 1572 1695 1810 1808 1692 1809 1922
8 1829 1713 1811 1926 1712 1592 1697 1813
8 1813 1697 1812 1928 1699 1577 1698 1815
8 1735 1614 1712 1828 1816 1699 1813 1929
8 1815 1698 1814 1931 1701 1578 1700 1818
8 1702 1579 1699 1816 1819 1701 1815 1932
8 1818 1700 1817 1933 1704 1580 1703 1820
8 1819 1701 1818 1934 1705 1581 1704 1821
8 1821 1704 1820 1935 1707 1584 1706 1822
8 1824 1709 1632 1751 1937 1823 1750 1865
8 1716 1593 1709 1824 1834 1715 1823 1937
8 1825 1710 1633 1752 1938 1824 1751 1866
8 1717 1594 1710 1825 1835 1716 1824 1938
8 1945 1830 1712 1828 1851 1733 1614 1735
8 1830 1714 1831 1946 1712 1592 1713 1829
8 1947 1832 1714 1830 1849 1730 1611 1733
8 1843 1729 1607 1725 1950 1833 1715 1834
8 1721 1603 1716 1835 1836 1725 1834 1951
8 1836 1725 1842 1953 1721 1603 1724 1839
8 1723 1838 1719 1601 1840 1954 1837 1722
8 1954 1840 1743 1852 1837 1722 1623 1736
8 1724 1839 1720 1602 1841 1955 1838 1723
8 1841 1727 1844 1956 1723 1605 1726 1840
8 1956 1844 1747 1859 1840 1726 1628 1743
8 1728 1842 1724 1606 1845 1957 1841 1727
8 1725 1607 1729 1843 1842 1728 1846 1958
8 1741 1627 1746 1857 1849 1730 1848 1965
8 1734 1612 1731 1850 1851 1733 1849 1966
8 1854 1741 1849 1966 1738 1622 1731 1850
8 1967 1859 1745 1853 1852 1743 1626 1737
8 1968 1860 1744 1856 1853 1745 1625 1739
8 1854 1741 1622 1738 1969 1857 1742 1855
8 1855 1742 1624 1740 1970 1858 1744 1856
8 1857 1746 1631 1742 1971 1861 1749 1858
8 1858 1749 1630 1744 1972 1863 1748 1860
8 1859 1747 1862 1973 1745 1629 1748 1860
8 1875 1768 1864 1977 1761 1651 1750 1865
8 1755 1644 1761 1869 1866 1751 1865 1978
8 1867 1760 1874 1979 1754 1646 1763 1868
8 1774 1658 1775 1887 1867 1760 1874 1979
8 1870 1766 1648 1756 1980 1877 1763 1868
8 1872 1762 1875 1981 1758 1645 1761 1869
8 1757 1649 1766 1870 1871 1765 1880 1982
8 1983 1879 1764 1873 1871 1765 1647 1759
8 1873 1764 1876 1984 1759 1647 1762 1872
8 1877 1773 1655 1763 1986 1881 1767 1874
8 1775 1659 1776 1888 1874 1767 1881 1986
8 1876 1769 1882 1987 1762 1652 1768 1875
8 1878 1770 1883 1988 1764 1653 1769 1876
8 1880 1772 1656 1766 1989 1886 1773 1877
8 1878 1770 1653 1764 1990 1884 1771 1879
8 1765 1654 1772 1880 1879 1771 1885 1991
8 1778 1664 1779 1890 1887 1775 1888 1997
8 1998 1889 1776 1888 1891 1780 1665 1779
8 1893 1782 1891 2000 1781 1668 1779 1890
8 1894 1783 1892 2001 1782 1669 1780 1891
8 1784 1671 1785 1896 1893 1782 1894 2003
8 1897 1786 1895 2004 1785 1672 1783 1894
8 1790 1675 1789 1904 1896 1785 1897 2006
8 1901 1787 1898 2007 1789 1673 1786 1897
8 1903 1788 1900 2013 1789 1673 1787 1901
8 1792 1676 1791 1906 1903 1788 1902 2016
8 1907 1792 1903 2017 1795 1678 1789 1904
8 1906 1791 1677 1794 2019 1905 1793 1909
8 1907 1792 1678 1795 2020 1906 1794 1910
8 1797 1679 1796 1912 1909 1793 1908 2022
8 1798 1680 1797 1913 1910 1794 1909 2023
8 1800 1682 1799 1915 1912 1796 1911 2025
8 1801 1683 1800 1916 1913 1797 1912 2026
8 1803 1687 1804 1918 1915 1799 1914 2028
8 1802 1686 1803 1917 1916 1800 1915 2029
8 1805 1689 1806 1920 1917 1803 1918 2030
8 1806 1690 1807 1921 1918 1804 1919 2031
8 1808 1692 1809 1922 1920 1806 1921 2032
8 1939 1826 1924 2037 1829 1713 1811 1926
8 1926 1811 1925 2039 1813 1697 1812 1928
8 1944 1829 1926 2040 1828 1712 1813 1929
8 1928 1812 1927 2042 1815 1698 1814 1931
8 1929 1813 1928 2043 1816 1699 1815 1932
8 1931 1814 1930 2044 1818 1700 1817 1933
8 1932 1815 1931 2045 1819 1701 1818 1934
8 1934 1818 1933 2046 1821 1704 1820 1935
8 2048 1936 1823 1937 1977 1864 1750 1865
8 1950 1833 1715 1834 2048 1936 1823 1937
8 1938 1824 1751 1866 2049 1937 1865 1978
8 1835 1716 1824 1938 1951 1834 1937 2049
8 1939 1826 1713 1829 2053 1942 1831 1946
8 1940 1827 1923 2035 2053 1942 1826 1939
8 1945 1830 1946 2058 1828 1712 1829 1944
8 2059 1947 1830 1945 1966 1849 1733 1851
8 1947 1832 1730 1849 2060 1948 1848 1965
8 1947 1832 1948 2060 1830 1714 1831 1946
8 1959 1847 1729 1843 2063 1949 1833 1950
8 1952 1843 1725 1836 2064 1950 1834 1951
8 1836 1725 1843 1952 1953 1842 1958 2066
8 1953 1842 1957 2067 1839 1724 1841 1955
8 1841 1955 1838 1723 1956 2068 1954 1840
8 2068 1956 1859 1967 1954 1840 1743 1852
8 1956 1844 1960 2069 1859 1747 1862 1973
8 1845 1957 1841 1727 1960 2069 1956 1844
8 1728 1842 1957 1845 1846 1958 2071 1961
8 1962 2072 1959 1847 1846 1958 1843 1729
8 1971 1861 1964 2077 1857 1746 1848 1965
8 1854 1741 1857 1969 1966 1849 1965 2078
8 1967 1859 1973 2079 1853 1745 1860 1968
8 1970 1858 1744 1856 2080 1972 1860 1968
8 1969 1857 1742 1855 2081 1971 1858 1970
8 1971 1861 1749 1858 2082 1974 1863 1972
8 1973 1862 1975 2083 1860 1748 1863 1972
8 1987 1882 1976 2086 1875 1768 1864 1977
8 1981 1875 1977 2087 1869 1761 1865 1978
8 1980 1877 1763 1868 2088 1986 1874 1979
8 1887 1775 1888 1997 1979 1874 1986 2088
8 1880 1982 2089 1989 1766 1870 1980 1877
8 1984 1876 1987 2090 1872 1762 1875 1981
8 1765 1871 1983 1879 1880 1982 2091 1991
8 1985 1878 1764 1873 2092 1990 1879 1983
8 1985 1878 1988 2093 1873 1764 1876 1984
8 2094 1992 1881 1986 1998 1889 1776 1888
8 1986 1881 1992 2094 1877 1773 1886 1989
8 1988 1883 1993 2095 1876 1769 1882 1987
8 1878 1770 1884 1990 1988 1883 1994 2096
8 1991 1885 1772 1880 2097 1996 1886 1989
8 1879 1771 1885 1991 1990 1884 1995 2098
8 2103 1998 1888 1997 2000 1891 1779 1890
8 2104 1999 1889 1998 2001 1892 1780 1891
8 2003 1894 2001 2106 1893 1782 1891 2000
8 2004 1895 2002 2107 1894 1783 1892 2001
8 2006 1897 2004 2109 1896 1785 1894 2003
8 2007 1898 2005 2110 1897 1786 1895 2004
8 2014 1901 2007 2112 1904 1789 1897 2006
8 2011 1899 2008 2113 1901 1787 1898 2007
8 2119 2010 1899 2011 2013 1900 1787 1901
8 2016 1902 2012 2122 1903 1788 1900 2013
8 2017 1903 2013 2123 1904 1789 1901 2014
8 1906 1791 1905 2019 2016 1902 2015 2125
8 1907 1792 1906 2020 2017 1903 2016 2126
8 1909 1793 1908 2022 2019 1905 2018 2128
8 2020 1906 1794 1910 2129 2019 1909 2023
8 1912 1796 1911 2025 2022 1908 2021 2131
8 1913 1797 1912 2026 2023 1909 2022 2132
8 1915 1799 1914 2028 2025 1911 2024 2134
8 1916 1800 1915 2029 2026 1912 2025 2135
8 1918 1804 1919 2031 2028 1914 2027 2136
8 1917 1803 1918 2030 2029 1915 2028 2137
8 1920 1806 1921 2032 2030 1918 2031 2138
8 1940 1827 1941 2054 2035 1923 2033 2140
8 2035 1923 2034 2143 1939 1826 1924 2037
8 2037 1924 2036 2146 1926 1811 1925 2039
8 2051 1939 2037 2147 1944 1829 1926 2040
8 2039 1925 2038 2149 1928 1812 1927 2042
8 2040 1926 2039 2150 1929 1813 1928 2043
8 2042 1927 2041 2151 1931 1814 1930 2044
8 2043 1928 2042 2152 1932 1815 1931 2045
8 2045 1931 2044 2153 1934 1818 1933 2046
8 2155 2047 1936 2048 2086 1976 1864 1977
8 2063 1949 1833 1950 2155 2047 1936 2048
8 2156 2048 1937 2049 2087 1977 1865 1978
8 2064 1950 1834 1951 2156 2048 1937 2049
8 2051 1939 1829 1944 2160 2053 1946 2058
8 2052 1940 2035 2144 2160 2053 1939 2051
8 2053 1942 1831 1946 2163 2057 1948 2060
8 2055 1943 1827 1940 2163 2057 1942 2053
8 2055 1943 2056 2164 1940 1827 1941 2054
8 2059 1947 1849 1966 2167 2060 1965 2078
8 2059 1947 2060 2167 1945 1830 1946 2058
8 2077 1964 2061 2168 1965 1848 1948 2060
8 2070 1963 1847 1959 2170 2062 1949 2063
8 2065 1959 1843 1952 2171 2063 1950 2064
8 2173 2072 1958 2066 2065 1959 1843 1952
8 1953 1842 1958 2066 2067 1957 2071 2174
8 2068 1956 2069 2175 1967 1859 1973 2079
8 2067 1957 2069 2175 1955 1841 1956 2068
8 1845 1957 2069 1960 1961 2071 2176 2073
8 2069 1960 2073 2176 1973 1862 1975 2083
8 2070 1963 2075 2177 1959 1847 1962 2072
8 1846 1958 2071 1961 1962 2072 2178 2074
8 2077 1964 1861 1971 2182 2076 1974 2082
8 2081 1971 2077 2183 1969 1857 1965 2078
8 2079 1973 2083 2184 1968 1860 1972 2080
8 2081 1971 1858 1970 2185 2082 1972 2080
8 2083 1975 2084 2186 1972 1863 1974 2082
8 2086 1976 1882 1987 2189 2085 1993 2095
8 2090 1987 2086 2190 1981 1875 1977 2087
8 2191 2094 1986 2088 2103 1998 1888 1997
8 2088 1986 2094 2191 1980 1877 1989 2089
8 1991 2091 2192 2097 1880 1982 2089 1989
8 2093 1988 2095 2193 1984 1876 1987 2090
8 1879 1983 2092 1990 1991 2091 2194 2098
8 1985 1878 1990 2092 2093 1988 2096 2195
8 2097 1996 1886 1989 2196 2099 1992 2094
8 2196 2099 1992 2094 2104 1999 1889 1998
8 1994 2096 1988 1883 2100 2197 2095 1993
8 2096 1994 1884 1990 2198 2101 1995 2098
8 1995 2098 2199 2102 1885 1991 2097 1996
8 2203 2104 1998 2103 2106 2001 1891 2000
8 2107 2002 2105 2204 2001 1892 1999 2104
8 2109 2004 2107 2206 2003 1894 2001 2106
8 2110 2005 2108 2207 2004 1895 2002 2107
8 2112 2007 2110 2209 2006 1897 2004 2109
8 2113 2008 2111 2210 2007 1898 2005 2110
8 2120 2011 2113 2212 2014 1901 2007 2112
8 2117 2009 2114 2213 2011 1899 2008 2113
8 2219 2116 2009 2117 2119 2010 1899 2011
8 2222 2118 2010 2119 2122 2012 1900 2013
8 2223 2119 2011 2120 2123 2013 1901 2014
8 2016 1902 2015 2125 2122 2012 2121 2225
8 2126 2016 2122 2226 2017 1903 2013 2123
8 2019 1905 2018 2128 2125 2015 2124 2228
8 2020 1906 2019 2129 2126 2016 2125 2229
8 2022 1908 2021 2131 2128 2018 2127 2231
8 2023 1909 2022 2132 2129 2019 2128 2232
8 2025 1911 2024 2134 2131 2021 2130 2234
8 2026 1912 2025 2135 2132 2022 2131 2235
8 1914 2028 2134 2024 2027 2136 2236 2133
8 2029 1915 2028 2137 2135 2025 2134 2237
8 2030 1918 2031 2138 2137 2028 2136 2238
8 2157 2050 2139 2240 2054 1941 2033 2140
8 2052 1940 2054 2161 2144 2035 2140 2242
8 2140 2033 2141 2243 2035 1923 2034 2143
8 2143 2034 2142 2246 2037 1924 2036 2146
8 2144 2035 2143 2247 2051 1939 2037 2147
8 2146 2036 2145 2249 2039 1925 2038 2149
8 2147 2037 2146 2250 2040 1926 2039 2150
8 2149 2038 2148 2251 2042 1927 2041 2151
8 2150 2039 2149 2252 2043 1928 2042 2152
8 2152 2042 2151 2253 2045 1931 2044 2153
8 2255 2154 2047 2155 2189 2085 1976 2086
8 2170 2062 1949 2063 2255 2154 2047 2155
8 2256 2155 2048 2156 2190 2086 1977 2087
8 2171 2063 1950 2064 2256 2155 2048 2156
8 2258 2159 2050 2157 2164 2056 1941 2054
8 2160 2053 1946 2058 2262 2163 2060 2167
8 2162 2055 1940 2052 2262 2163 2053 2160
8 2162 2055 2164 2263 2052 1940 2054 2161
8 2163 2057 1948 2060 2264 2165 2061 2168
8 2055 1943 2057 2163 2164 2056 2165 2264
8 2182 2076 2166 2268 2077 1964 2061 2168
8 2183 2077 2168 2269 2078 1965 2060 2167
8 2070 1963 2062 2170 2177 2075 2169 2271
8 2172 2070 1959 2065 2272 2170 2063 2171
8 2172 2070 2177 2273 2065 1959 2072 2173
8 2066 1958 2072 2173 2174 2071 2178 2274
8 2067 1957 2071 2174 2175 2069 2176 2275
8 2175 2069 2176 2275 2079 1973 2083 2184
8 2071 1961 2074 2178 2176 2073 2179 2276
8 2176 2073 2179 2276 2083 1975 2084 2186
8 2072 1962 2075 2177 2178 2074 2180 2277
8 2182 2076 1974 2082 2280 2181 2084 2186
8 2183 2077 1971 2081 2281 2182 2082 2185
8 2184 2083 2186 2282 2080 1972 2082 2185
8 2189 2085 1993 2095 2285 2188 2100 2197
8 2190 2086 1987 2090 2286 2189 2095 2193
8 2192 2097 1989 2089 2287 2196 2094 2191
8 2287 2196 2094 2191 2203 2104 1998 2103
8 2194 2098 1991 2091 2288 2199 2097 2192
8 2195 2096 2197 2289 2093 1988 2095 2193
8 2096 2195 2290 2198 1990 2092 2194 2098
8 2097 1996 2099 2196 2199 2102 2200 2291
8 2196 2099 1999 2104 2291 2200 2105 2204
8 2100 2197 2292 2201 1994 2096 2198 2101
8 1995 2098 2198 2101 2102 2199 2293 2202
8 2206 2107 2204 2296 2106 2001 2104 2203
8 2207 2108 2205 2297 2107 2002 2105 2204
8 2209 2110 2207 2299 2109 2004 2107 2206
8 2210 2111 2208 2300 2110 2005 2108 2207
8 2212 2113 2210 2302 2112 2007 2110 2209
8 2213 2114 2211 2303 2113 2008 2111 2210
8 2220 2117 2213 2305 2120 2011 2113 2212
8 2216 2115 2214 2306 2117 2009 2114 2213
8 2216 2115 2009 2117 2311 2217 2116 2219
8 2219 2116 2010 2119 2314 2218 2118 2222
8 2315 2219 2117 2220 2223 2119 2011 2120
8 2122 2012 2121 2225 2222 2118 2221 2317
8 2318 2222 2119 2223 2226 2122 2013 2123
8 2125 2015 2124 2228 2225 2121 2224 2320
8 2126 2016 2125 2229 2226 2122 2225 2321
8 2128 2018 2127 2231 2228 2124 2227 2323
8 2129 2019 2128 2232 2229 2125 2228 2324
8 2131 2021 2130 2234 2231 2127 2230 2326
8 2132 2022 2131 2235 2232 2128 2231 2327
8 2134 2024 2133 2236 2234 2130 2233 2328
8 2135 2025 2134 2237 2235 2131 2234 2329
8 2137 2028 2136 2238 2237 2134 2236 2330
8 2157 2050 2158 2259 2240 2139 2239 2332
8 2257 2157 2240 2334 2161 2054 2140 2242
8 2240 2139 2241 2335 2140 2033 2141 2243
8 2242 2140 2243 2337 2144 2035 2143 2247
8 2243 2141 2244 2338 2143 2034 2142 2246
8 2246 2142 2245 2341 2146 2036 2145 2249
8 2247 2143 2246 2342 2147 2037 2146 2250
8 2249 2145 2248 2343 2149 2038 2148 2251
8 2250 2146 2249 2344 2150 2039 2149 2252
8 2252 2149 2251 2345 2152 2042 2151 2253
8 2169 2271 2347 2254 2062 2170 2255 2154
8 2189 2085 2188 2285 2255 2154 2254 2347
8 2348 2255 2155 2256 2286 2189 2086 2190
8 2272 2170 2063 2171 2348 2255 2155 2256
8 2349 2258 2157 2257 2263 2164 2054 2161
8 2258 2159 2261 2351 2157 2050 2158 2259
8 2258 2159 2056 2164 2351 2261 2165 2264
8 2262 2163 2060 2167 2355 2264 2168 2269
8 2162 2055 2163 2262 2263 2164 2264 2355
8 2357 2266 2165 2264 2268 2166 2061 2168
8 2268 2166 2076 2182 2361 2267 2181 2280
8 2281 2182 2268 2362 2183 2077 2168 2269
8 2271 2169 2270 2364 2177 2075 2180 2277
8 2172 2070 2170 2272 2273 2177 2271 2365
8 2072 2173 2274 2178 2177 2273 2366 2277
8 2071 2174 2275 2176 2178 2274 2367 2276
8 2275 2176 2276 2367 2184 2083 2186 2282
8 2283 2187 2084 2186 2368 2278 2179 2276
8 2178 2074 2180 2277 2276 2179 2278 2368
8 2283 2187 2279 2370 2186 2084 2181 2280
8 2281 2182 2082 2185 2371 2280 2186 2282
8 2188 2285 2374 2284 2100 2197 2292 2201
8 2286 2189 2095 2193 2375 2285 2197 2289
8 2192 2097 2196 2287 2288 2199 2291 2376
8 2287 2196 2104 2203 2376 2291 2204 2296
8 2194 2098 2199 2288 2290 2198 2293 2377
8 2289 2197 2096 2195 2378 2292 2198 2290
8 2291 2200 2105 2204 2379 2294 2205 2297
8 2199 2102 2200 2291 2293 2202 2294 2379
8 2198 2101 2202 2293 2292 2201 2295 2380
8 2299 2207 2297 2383 2206 2107 2204 2296
8 2300 2208 2298 2384 2207 2108 2205 2297
8 2302 2210 2300 2386 2209 2110 2207 2299
8 2303 2211 2301 2387 2210 2111 2208 2300
8 2305 2213 2303 2389 2212 2113 2210 2302
8 2306 2214 2304 2390 2213 2114 2211 2303
8 2310 2216 2306 2392 2220 2117 2213 2305
8 2308 2215 2307 2393 2216 2115 2214 2306
8 2308 2215 2115 2216 2396 2309 2217 2311
8 2310 2216 2117 2220 2398 2311 2219 2315
8 2311 2217 2116 2219 2399 2312 2218 2314
8 2314 2218 2118 2222 2402 2313 2221 2317
8 2315 2219 2119 2223 2403 2314 2222 2318
8 2225 2121 2224 2320 2317 2221 2316 2405
8 2226 2122 2225 2321 2318 2222 2317 2406
8 2228 2124 2227 2323 2320 2224 2319 2408
8 2229 2125 2228 2324 2321 2225 2320 2409
8 2231 2127 2230 2326 2323 2227 2322 2411
8 2232 2128 2231 2327 2324 2228 2323 2412
8 2234 2130 2233 2328 2326 2230 2325 2413
8 2235 2131 2234 2329 2327 2231 2326 2414
8 2237 2134 2236 2330 2329 2234 2328 2415
8 2259 2158 2260 2352 2332 2239 2331 2417
8 2257 2157 2259 2350 2334 2240 2332 2419
8 2240 2139 2239 2332 2335 2241 2333 2420
8 2334 2240 2335 2422 2242 2140 2243 2337
8 2335 2241 2336 2423 2243 2141 2244 2338
8 2337 2243 2338 2425 2247 2143 2246 2342
8 2338 2244 2339 2426 2246 2142 2245 2341
8 2341 2245 2340 2428 2249 2145 2248 2343
8 2342 2246 2341 2429 2250 2146 2249 2344
8 2344 2249 2343 2430 2252 2149 2251 2345
8 2188 2285 2347 2254 2284 2374 2432 2346
8 2347 2254 2346 2432 2271 2169 2270 2364
8 2365 2271 2170 2272 2433 2347 2255 2348
8 2286 2189 2285 2375 2348 2255 2347 2433
8 2349 2258 2351 2435 2257 2157 2259 2350
8 2349 2258 2164 2263 2435 2351 2264 2355
8 2259 2158 2261 2351 2352 2260 2354 2437
8 2356 2265 2354 2437 2264 2165 2261 2351
8 2441 2357 2264 2355 2362 2268 2168 2269
8 2356 2265 2165 2264 2442 2358 2266 2357
8 2443 2359 2266 2357 2361 2267 2166 2268
8 2370 2279 2360 2446 2280 2181 2267 2361
8 2362 2268 2182 2281 2447 2361 2280 2371
8 2180 2277 2368 2278 2270 2364 2449 2363
8 2271 2365 2273 2177 2364 2450 2366 2277
8 2372 2283 2186 2282 2451 2368 2276 2367
8 2178 2274 2367 2276 2277 2366 2451 2368
8 2283 2187 2278 2368 2370 2279 2369 2452
8 2372 2283 2370 2453 2282 2186 2280 2371
8 2284 2374 2455 2373 2201 2292 2380 2295
8 2375 2285 2197 2289 2456 2374 2292 2378
8 2376 2291 2204 2296 2457 2379 2297 2383
8 2288 2199 2291 2376 2377 2293 2379 2457
8 2198 2290 2378 2292 2293 2377 2458 2380
8 2293 2202 2294 2379 2380 2295 2381 2459
8 2384 2298 2381 2459 2297 2205 2294 2379
8 2386 2300 2384 2463 2299 2207 2297 2383
8 2387 2301 2385 2464 2300 2208 2298 2384
8 2389 2303 2387 2466 2302 2210 2300 2386
8 2390 2304 2388 2467 2303 2211 2301 2387
8 2392 2306 2390 2469 2305 2213 2303 2389
8 2393 2307 2391 2470 2306 2214 2304 2390
8 2395 2308 2393 2472 2310 2216 2306 2392
8 2308 2215 2309 2396 2393 2307 2394 2473
8 2395 2308 2216 2310 2475 2396 2311 2398
8 2396 2309 2217 2311 2476 2397 2312 2399
8 2398 2311 2219 2315 2478 2399 2314 2403
8 2399 2312 2218 2314 2479 2400 2313 2402
8 2317 2221 2316 2405 2402 2313 2401 2482
8 2403 2314 2222 2318 2483 2402 2317 2406
8 2320 2224 2319 2408 2405 2316 2404 2485
8 2321 2225 2320 2409 2406 2317 2405 2486
8 2323 2227 2322 2411 2408 2319 2407 2488
8 2324 2228 2323 2412 2409 2320 2408 2489
8 2326 2230 2325 2413 2411 2322 2410 2490
8 2327 2231 2326 2414 2412 2323 2411 2491
8 2329 2234 2328 2415 2414 2326 2413 2492
8 2417 2331 2260 2352 2494 2416 2353 2438
8 2350 2259 2352 2436 2419 2332 2417 2496
8 2332 2239 2331 2417 2420 2333 2418 2497
8 2334 2240 2332 2419 2422 2335 2420 2499
8 2420 2333 2421 2500 2335 2241 2336 2423
8 2422 2335 2423 2502 2337 2243 2338 2425
8 2423 2336 2424 2503 2338 2244 2339 2426
8 2425 2338 2426 2505 2342 2246 2341 2429
8 2426 2339 2427 2506 2341 2245 2340 2428
8 2429 2341 2428 2507 2344 2249 2343 2430
8 2432 2346 2284 2374 2509 2431 2373 2455
8 2432 2346 2431 2509 2364 2270 2363 2449
8 2375 2285 2374 2456 2433 2347 2432 2510
8 2347 2433 2365 2271 2432 2510 2450 2364
8 2350 2259 2351 2435 2436 2352 2437 2514
8 2440 2356 2437 2514 2355 2264 2351 2435
8 2352 2260 2354 2437 2438 2353 2439 2516
8 2356 2265 2358 2442 2437 2354 2439 2516
8 2440 2356 2264 2355 2518 2442 2357 2441
8 2519 2443 2357 2441 2447 2361 2268 2362
8 2443 2359 2444 2520 2357 2266 2358 2442
8 2443 2359 2267 2361 2520 2444 2360 2446
8 2446 2360 2279 2370 2523 2445 2369 2452
8 2453 2370 2446 2524 2371 2280 2361 2447
8 2449 2363 2448 2525 2368 2278 2369 2452
8 2366 2277 2364 2450 2451 2368 2449 2526
8 2372 2283 2368 2451 2453 2370 2452 2527
8 2455 2373 2295 2380 2529 2454 2382 2460
8 2456 2374 2292 2378 2530 2455 2380 2458
8 2377 2293 2379 2457 2458 2380 2459 2531
8 2463 2384 2459 2531 2383 2297 2379 2457
8 2533 2461 2382 2460 2459 2381 2295 2380
8 2464 2385 2461 2533 2384 2298 2381 2459
8 2466 2387 2464 2537 2386 2300 2384 2463
8 2467 2388 2465 2538 2387 2301 2385 2464
8 2469 2390 2467 2540 2389 2303 2387 2466
8 2470 2391 2468 2541 2390 2304 2388 2467
8 2472 2393 2470 2543 2392 2306 2390 2469
8 2393 2307 2394 2473 2470 2391 2471 2544
8 2395 2308 2396 2475 2472 2393 2473 2546
8 2396 2309 2397 2476 2473 2394 2474 2547
8 2475 2396 2311 2398 2549 2476 2399 2478
8 2476 2397 2312 2399 2550 2477 2400 2479
8 2478 2399 2314 2403 2552 2479 2402 2483
8 2479 2400 2313 2402 2553 2480 2401 2482
8 2405 2316 2404 2485 2482 2401 2481 2556
8 2406 2317 2405 2486 2483 2402 2482 2557
8 2408 2319 2407 2488 2485 2404 2484 2559
8 2409 2320 2408 2489 2486 2405 2485 2560
8 2411 2322 2410 2490 2488 2407 2487 2561
8 2412 2323 2411 2491 2489 2408 2488 2562
8 2414 2326 2413 2492 2491 2411 2490 2563
8 2513 2434 2493 2565 2438 2353 2416 2494
8 2496 2417 2352 2436 2567 2494 2438 2515
8 2494 2416 2495 2568 2417 2331 2418 2497
8 2419 2332 2417 2496 2499 2420 2497 2570
8 2497 2418 2498 2571 2420 2333 2421 2500
8 2499 2420 2500 2573 2422 2335 2423 2502
8 2500 2421 2501 2574 2423 2336 2424 2503
8 2502 2423 2503 2576 2425 2338 2426 2505
8 2503 2424 2504 2577 2426 2339 2427 2506
8 2505 2426 2506 2578 2429 2341 2428 2507
8 2509 2431 2373 2455 2580 2508 2454 2529
8 2509 2431 2508 2580 2449 2363 2448 2525
8 2432 2510 2581 2509 2374 2456 2530 2455
8 2432 2510 2450 2364 2509 2581 2526 2449
8 2583 2511 2434 2513 2516 2439 2353 2438
8 2436 2352 2437 2514 2515 2438 2516 2588
8 2440 2356 2442 2518 2514 2437 2516 2588
8 2442 2358 2444 2520 2516 2439 2517 2589
8 2519 2443 2520 2591 2441 2357 2442 2518
8 2519 2443 2361 2447 2591 2520 2446 2524
8 2446 2360 2445 2523 2520 2444 2521 2592
8 2525 2448 2522 2593 2452 2369 2445 2523
8 2524 2446 2370 2453 2594 2523 2452 2527
8 2526 2449 2525 2595 2451 2368 2452 2527
8 2534 2462 2528 2597 2460 2382 2454 2529
8 2530 2455 2380 2458 2598 2529 2460 2532
8 2599 2533 2460 2532 2531 2459 2380 2458
8 2537 2464 2533 2599 2463 2384 2459 2531
8 2534 2462 2382 2460 2601 2535 2461 2533
8 2538 2465 2535 2601 2464 2385 2461 2533
8 2540 2467 2538 2604 2466 2387 2464 2537
8 2541 2468 2539 2605 2467 2388 2465 2538
8 2543 2470 2541 2607 2469 2390 2467 2540
8 2470 2391 2471 2544 2541 2468 2542 2608
8 2472 2393 2473 2546 2543 2470 2544 2610
8 2473 2394 2474 2547 2544 2471 2545 2611
8 2475 2396 2476 2549 2546 2473 2547 2613
8 2476 2397 2477 2550 2547 2474 2548 2614
8 2549 2476 2399 2478 2616 2550 2479 2552
8 2479 2400 2480 2553 2550 2477 2551 2617
8 2552 2479 2402 2483 2619 2553 2482 2557
8 2482 2401 2481 2556 2553 2480 2554 2620
8 2485 2404 2484 2559 2556 2481 2555 2623
8 2486 2405 2485 2560 2557 2482 2556 2624
8 2488 2407 2487 2561 2559 2484 2558 2625
8 2489 2408 2488 2562 2560 2485 2559 2626
8 2491 2411 2490 2563 2562 2488 2561 2627
8 2513 2434 2512 2585 2565 2493 2564 2630
8 2586 2513 2565 2632 2515 2438 2494 2567
8 2565 2493 2566 2633 2494 2416 2495 2568
8 2567 2494 2568 2635 2496 2417 2497 2570
8 2568 2495 2569 2636 2497 2418 2498 2571
8 2570 2497 2571 2638 2499 2420 2500 2573
8 2571 2498 2572 2639 2500 2421 2501 2574
8 2573 2500 2574 2641 2502 2423 2503 2576
8 2574 2501 2575 2642 2503 2424 2504 2577
8 2576 2503 2577 2643 2505 2426 2506 2578
8 2597 2528 2579 2645 2529 2454 2508 2580
8 2580 2508 2579 2645 2525 2448 2522 2593
8 2581 2509 2455 2530 2646 2580 2529 2598
8 2581 2509 2580 2646 2526 2449 2525 2595
8 2583 2511 2582 2648 2513 2434 2512 2585
8 2583 2511 2439 2516 2648 2582 2517 2589
8 2649 2583 2513 2586 2588 2516 2438 2515
8 2589 2517 2444 2520 2653 2587 2521 2592
8 2518 2442 2520 2591 2588 2516 2589 2654
8 2593 2522 2590 2655 2523 2445 2521 2592
8 2524 2446 2523 2594 2591 2520 2592 2656
8 2595 2525 2593 2657 2527 2452 2523 2594
8 2602 2536 2596 2659 2534 2462 2528 2597
8 2600 2534 2597 2660 2532 2460 2529 2598
8 2600 2534 2460 2532 2661 2601 2533 2599
8 2604 2538 2601 2661 2537 2464 2533 2599
8 2602 2536 2462 2534 2663 2603 2535 2601
8 2601 2535 2465 2538 2663 2603 2539 2605
8 2607 2541 2605 2665 2540 2467 2538 2604
8 2608 2542 2606 2666 2541 2468 2539 2605
8 2543 2470 2544 2610 2607 2541 2608 2668
8 2544 2471 2545 2611 2608 2542 2609 2669
8 2546 2473 2547 2613 2610 2544 2611 2671
8 2547 2474 2548 2614 2611 2545 2612 2672
8 2549 2476 2550 2616 2613 2547 2614 2674
8 2550 2477 2551 2617 2614 2548 2615 2675
8 2552 2479 2553 2619 2616 2550 2617 2677
8 2553 2480 2554 2620 2617 2551 2618 2678
8 2557 2482 2556 2624 2619 2553 2620 2680
8 2556 2481 2555 2623 2620 2554 2621 2681
8 2559 2484 2558 2625 2623 2555 2622 2683
8 2560 2485 2559 2626 2624 2556 2623 2684
8 2562 2488 2561 2627 2626 2559 2625 2685
8 2690 2629 2564 2630 2650 2584 2512 2585
8 2586 2513 2585 2651 2632 2565 2630 2691
8 2630 2564 2631 2692 2565 2493 2566 2633
8 2632 2565 2633 2694 2567 2494 2568 2635
8 2633 2566 2634 2695 2568 2495 2569 2636
8 2635 2568 2636 2697 2570 2497 2571 2638
8 2636 2569 2637 2698 2571 2498 2572 2639
8 2638 2571 2639 2700 2573 2500 2574 2641
8 2639 2572 2640 2701 2574 2501 2575 2642
8 2641 2574 2642 2702 2576 2503 2577 2643
8 2597 2528 2596 2659 2645 2579 2644 2704
8 2645 2579 2644 2704 2593 2522 2590 2655
8 2660 2597 2645 2705 2598 2529 2580 2646
8 2646 2580 2645 2705 2595 2525 2593 2657
8 2650 2584 2512 2585 2707 2647 2582 2648
8 2648 2582 2517 2589 2707 2647 2587 2653
8 2649 2583 2648 2708 2586 2513 2585 2651
8 2649 2583 2516 2588 2708 2648 2589 2654
8 2655 2590 2652 2710 2592 2521 2587 2653
8 2654 2589 2520 2591 2711 2653 2592 2656
8 2657 2593 2655 2712 2594 2523 2592 2656
8 2602 2536 2603 2663 2659 2596 2658 2714
8 2662 2602 2659 2715 2600 2534 2597 2660
8 2662 2602 2534 2600 2717 2663 2601 2661
8 2661 2601 2538 2604 2717 2663 2605 2665
8 2666 2606 2664 2718 2605 2539 2603 2663
8 2668 2608 2666 2720 2607 2541 2605 2665
8 2608 2542 2609 2669 2666 2606 2667 2721
8 2610 2544 2611 2671 2668 2608 2669 2723
8 2611 2545 2612 2672 2669 2609 2670 2724
8 2613 2547 2614 2674 2671 2611 2672 2726
8 2614 2548 2615 2675 2672 2612 2673 2727
8 2616 2550 2617 2677 2674 2614 2675 2729
8 2617 2551 2618 2678 2675 2615 2676 2730
8 2619 2553 2620 2680 2677 2617 2678 2732
8 2620 2554 2621 2681 2678 2618 2679 2733
8 2624 2556 2623 2684 2680 2620 2681 2735
8 2681 2621 2555 2623 2736 2682 2622 2683
8 2626 2559 2625 2685 2684 2623 2683 2737
8 2688 2628 2584 2650 2740 2686 2647 2707
8 2688 2628 2687 2742 2650 2584 2629 2690
8 2690 2629 2689 2745 2630 2564 2631 2692
8 2746 2690 2630 2691 2709 2650 2585 2651
8 2691 2630 2692 2747 2632 2565 2633 2694
8 2692 2631 2693 2748 2633 2566 2634 2695
8 2694 2633 2695 2750 2635 2568 2636 2697
8 2695 2634 2696 2751 2636 2569 2637 2698
8 2697 2636 2698 2753 2638 2571 2639 2700
8 2698 2637 2699 2754 2639 2572 2640 2701
8 2700 2639 2701 2755 2641 2574 2642 2702
8 2659 2596 2658 2714 2704 2644 2703 2757
8 2704 2644 2703 2757 2655 2590 2652 2710
8 2660 2597 2659 2715 2705 2645 2704 2758
8 2705 2645 2704 2758 2657 2593 2655 2712
8 2759 2706 2647 2707 2710 2652 2587 2653
8 2709 2650 2585 2651 2760 2707 2648 2708
8 2708 2648 2589 2654 2760 2707 2653 2711
8 2712 2655 2710 2761 2656 2592 2653 2711
8 2763 2713 2658 2714 2718 2664 2603 2663
8 2662 2602 2663 2717 2715 2659 2714 2764
8 2720 2666 2718 2767 2665 2605 2663 2717
8 2768 2719 2664 2718 2721 2667 2606 2666
8 2668 2608 2669 2723 2720 2666 2721 2770
8 2669 2609 2670 2724 2721 2667 2722 2771
8 2671 2611 2672 2726 2723 2669 2724 2773
8 2672 2612 2673 2727 2724 2670 2725 2774
8 2674 2614 2675 2729 2726 2672 2727 2776
8 2675 2615 2676 2730 2727 2673 2728 2777
8 2677 2617 2678 2732 2729 2675 2730 2779
8 2678 2618 2679 2733 2730 2676 2731 2780
8 2680 2620 2681 2735 2732 2678 2733 2782
8 2733 2679 2621 2681 2783 2734 2682 2736
8 2735 2681 2623 2684 2784 2736 2683 2737
8 2740 2686 2647 2707 2787 2738 2706 2759
8 2688 2628 2686 2740 2742 2687 2739 2789
8 2743 2688 2650 2709 2790 2740 2707 2760
8 2742 2687 2741 2792 2690 2629 2689 2745
8 2743 2688 2742 2793 2709 2650 2690 2746
8 2745 2689 2744 2795 2692 2631 2693 2748
8 2746 2690 2745 2796 2691 2630 2692 2747
8 2747 2692 2748 2797 2694 2633 2695 2750
8 2748 2693 2749 2798 2695 2634 2696 2751
8 2750 2695 2751 2800 2697 2636 2698 2753
8 2751 2696 2752 2801 2698 2637 2699 2754
8 2753 2698 2754 2802 2700 2639 2701 2755
8 2763 2713 2756 2804 2714 2658 2703 2757
8 2759 2706 2652 2710 2804 2756 2703 2757
8 2715 2659 2714 2764 2758 2704 2757 2805
8 2758 2704 2757 2805 2712 2655 2710 2761
8 2806 2759 2707 2760 2761 2710 2653 2711
8 2765 2716 2762 2808 2718 2664 2713 2763
8 2809 2763 2714 2764 2767 2718 2663 2717
8 2765 2716 2664 2718 2811 2766 2719 2768
8 2813 2768 2718 2767 2770 2721 2666 2720
8 2814 2769 2719 2768 2771 2722 2667 2721
8 2723 2669 2724 2773 2770 2721 2771 2816
8 2724 2670 2725 2774 2771 2722 2772 2817
8 2726 2672 2727 2776 2773 2724 2774 2819
8 2727 2673 2728 2777 2774 2725 2775 2820
8 2729 2675 2730 2779 2776 2727 2777 2822
8 2730 2676 2731 2780 2777 2728 2778 2823
8 2732 2678 2733 2782 2779 2730 2780 2825
8 2780 2731 2679 2733 2826 2781 2734 2783
8 2782 2733 2681 2735 2827 2783 2736 2784
8 2830 2785 2738 2787 2804 2756 2706 2759
8 2789 2739 2686 2740 2832 2786 2738 2787
8 2790 2740 2707 2760 2833 2787 2759 2806
8 2742 2687 2739 2789 2792 2741 2788 2835
8 2743 2688 2740 2790 2793 2742 2789 2836
8 2792 2741 2791 2838 2745 2689 2744 2795
8 2793 2742 2792 2839 2746 2690 2745 2796
8 2795 2744 2794 2841 2748 2693 2749 2798
8 2796 2745 2795 2842 2747 2692 2748 2797
8 2797 2748 2798 2843 2750 2695 2751 2800
8 2798 2749 2799 2844 2751 2696 2752 2801
8 2800 2751 2801 2845 2753 2698 2754 2802
8 2808 2762 2803 2847 2763 2713 2756 2804
8 2809 2763 2804 2848 2764 2714 2757 2805
8 2806 2759 2710 2761 2848 2804 2757 2805
8 2765 2716 2766 2811 2808 2762 2807 2850
8 2810 2765 2808 2851 2767 2718 2763 2809
8 2810 2765 2718 2767 2852 2811 2768 2813
8 2811 2766 2719 2768 2853 2812 2769 2814
8 2855 2814 2768 2813 2816 2771 2721 2770
8 2856 2815 2769 2814 2817 2772 2722 2771
8 2773 2724 2774 2819 2816 2771 2817 2858
8 2774 2725 2775 2820 2817 2772 2818 2859
8 2776 2727 2777 2822 2819 2774 2820 2861
8 2777 2728 2778 2823 2820 2775 2821 2862
8 2779 2730 2780 2825 2822 2777 2823 2864
8 2823 2778 2731 2780 2865 2824 2781 2826
8 2825 2780 2733 2782 2866 2826 2783 2827
8 2869 2828 2785 2830 2847 2803 2756 2804
8 2871 2829 2786 2832 2830 2785 2738 2787
8 2872 2830 2787 2833 2848 2804 2759 2806
8 2789 2739 2786 2832 2835 2788 2831 2874
8 2836 2789 2740 2790 2875 2832 2787 2833
8 2792 2741 2788 2835 2838 2791 2834 2877
8 2793 2742 2789 2836 2839 2792 2835 2878
8 2838 2791 2837 2880 2795 2744 2794 2841
8 2839 2792 2838 2881 2796 2745 2795 2842
8 2841 2794 2840 2882 2798 2749 2799 2844
8 2842 2795 2841 2883 2797 2748 2798 2843
8 2843 2798 2844 2884 2800 2751 2801 2845
8 2886 2846 2803 2847 2850 2807 2762 2808
8 2851 2808 2847 2887 2809 2763 2804 2848
8 2850 2807 2766 2811 2889 2849 2812 2853
8 2810 2765 2811 2852 2851 2808 2850 2890
8 2852 2811 2768 2813 2891 2853 2814 2855
8 2853 2812 2769 2814 2892 2854 2815 2856
8 2894 2856 2814 2855 2858 2817 2771 2816
8 2817 2772 2818 2859 2856 2815 2857 2895
8 2819 2774 2820 2861 2858 2817 2859 2897
8 2820 2775 2821 2862 2859 2818 2860 2898
8 2822 2777 2823 2864 2861 2820 2862 2900
8 2823 2778 2824 2865 2862 2821 2863 2901
8 2864 2823 2780 2825 2902 2865 2826 2866
8 2904 2867 2828 2869 2886 2846 2803 2847
8 2869 2828 2868 2906 2830 2785 2829 2871
8 2907 2869 2830 2872 2887 2847 2804 2848
8 2871 2829 2870 2909 2832 2786 2831 2874
8 2910 2871 2832 2875 2872 2830 2787 2833
8 2835 2788 2831 2874 2877 2834 2873 2912
8 2836 2789 2832 2875 2878 2835 2874 2913
8 2877 2834 2876 2915 2838 2791 2837 2880
8 2839 2792 2835 2878 2881 2838 2877 2916
8 2880 2837 2879 2917 2841 2794 2840 2882
8 2881 2838 2880 2918 2842 2795 2841 2883
8 2883 2841 2882 2919 2843 2798 2844 2884
8 2921 2885 2846 2886 2889 2849 2807 2850
8 2922 2886 2847 2887 2890 2850 2808 2851
8 2889 2849 2812 2853 2924 2888 2854 2892
8 2890 2850 2811 2852 2925 2889 2853 2891
8 2891 2853 2814 2855 2926 2892 2856 2894
8 2892 2854 2815 2856 2927 2893 2857 2895
8 2858 2817 2859 2897 2894 2856 2895 2929
8 2859 2818 2860 2898 2895 2857 2896 2930
8 2861 2820 2862 2900 2897 2859 2898 2932
8 2862 2821 2863 2901 2898 2860 2899 2933
8 2864 2823 2865 2902 2900 2862 2901 2934
8 2904 2867 2846 2886 2936 2903 2885 2921
8 2904 2867 2903 2936 2869 2828 2868 2906
8 2937 2904 2869 2907 2922 2886 2847 2887
8 2906 2868 2905 2939 2871 2829 2870 2909
8 2907 2869 2906 2940 2872 2830 2871 2910
8 2909 2870 2908 2942 2874 2831 2873 2912
8 2910 2871 2909 2943 2875 2832 2874 2913
8 2912 2873 2911 2945 2877 2834 2876 2915
8 2878 2835 2874 2913 2916 2877 2912 2946
8 2915 2876 2914 2947 2880 2837 2879 2917
8 2916 2877 2915 2948 2881 2838 2880 2918
8 2918 2880 2917 2949 2883 2841 2882 2919
8 2921 2885 2849 2889 2951 2920 2888 2924
8 2952 2921 2886 2922 2925 2889 2850 2890
8 2924 2888 2854 2892 2954 2923 2893 2927
8 2925 2889 2853 2891 2955 2924 2892 2926
8 2926 2892 2856 2894 2956 2927 2895 2929
8 2895 2857 2896 2930 2927 2893 2928 2957
8 2897 2859 2898 2932 2929 2895 2930 2959
8 2898 2860 2899 2933 2930 2896 2931 2960
8 2900 2862 2901 2934 2932 2898 2933 2961
8 2936 2903 2885 2921 2963 2935 2920 2951
8 2936 2903 2935 2963 2906 2868 2905 2939
8 2937 2904 2886 2922 2964 2936 2921 2952
8 2937 2904 2936 2964 2907 2869 2906 2940
8 2939 2905 2938 2966 2909 2870 2908 2942
8 2940 2906 2939 2967 2910 2871 2909 2943
8 2942 2908 2941 2969 2912 2873 2911 2945
8 2943 2909 2942 2970 2913 2874 2912 2946
8 2945 2911 2944 2971 2915 2876 2914 2947
8 2946 2912 2945 2972 2916 2877 2915 2948
8 2948 2915 2947 2973 2918 2880 2917 2949
8 2951 2920 2888 2924 2975 2950 2923 2954
8 2952 2921 2889 2925 2976 2951 2924 2955
8 2927 2893 2928 2957 2954 2923 2953 2978
8 2955 2924 2892 2926 2979 2954 2927 2956
8 2929 2895 2930 2959 2956 2927 2957 2980
8 2930 2896 2931 2960 2957 2928 2958 2981
8 2932 2898 2933 2961 2959 2930 2960 2982
8 2951 2920 2950 2975 2963 2935 2962 2984
8 2963 2935 2962 2984 2939 2905 2938 2966
8 2964 2936 2921 2952 2985 2963 2951 2976
8 2964 2936 2963 2985 2940 2906 2939 2967
8 2966 2938 2965 2987 2942 2908 2941 2969
8 2967 2939 2966 2988 2943 2909 2942 2970
8 2969 2941 2968 2989 2945 2911 2944 2971
8 2970 2942 2969 2990 2946 2912 2945 2972
8 2972 2945 2971 2991 2948 2915 2947 2973
8 2954 2923 2953 2978 2975 2950 2974 2993
8 2976 2951 2924 2955 2994 2975 2954 2979
8 2957 2928 2958 2981 2978 2953 2977 2995
8 2956 2927 2957 2980 2979 2954 2978 2996
8 2959 2930 2960 2982 2980 2957 2981 2997
8 2984 2962 2983 2999 2966 2938 2965 2987
8 2975 2950 2974 2993 2984 2962 2983 2999
8 2976 2951 2975 2994 2985 2963 2984 3000
8 2985 2963 2984 3000 2967 2939 2966 2988
8 2987 2965 2986 3001 2969 2941 2968 2989
8 2988 2966 2987 3002 2970 2942 2969 2990
8 2990 2969 2989 3003 2972 2945 2971 2991
8 2978 2953 2977 2995 2993 2974 2992 3004
8 2979 2954 2978 2996 2994 2975 2993 3005
8 2980 2957 2981 2997 2996 2978 2995 3006
8 2974 2993 2999 2983 2992 3004 3007 2998
8 2983 2999 2987 2965 2998 3007 3001 2986
8 3000 2984 2999 3008 2988 2966 2987 3002
8 2994 2975 2993 3005 3000 2984 2999 3008
8 3002 2987 3001 3009 2990 2969 2989 3003
8 2996 2978 2995 3006 3005 2993 3004 3010
8 3005 2993 3004 3010 3008 2999 3007 3011
8 3008 2999 3007 3011 3002 2987 3001 3009

CELL_TYPES 1910
12
12
12
12
12
12
12
12
12
12
12
12
12
12
12
12
12
12
12
12
12
12
12
12
12
12
12
12
12
12
12
12
12
12
12
12
12
12
12
12
12
12
12
12
12
12
12
12
12
12
12
12
12
12
12
12
12
12
12
12
12
12
12
12
12
12
12
12
12
12
12
12
12
12
12
12
12
12
12
12
12
12
12
12
12
12
12
12
12
12
12
12
12
12
12
12
12
12
12
12
12
12
12
12
12
12
12
12
12
12
12
12
12
12
12
12
12
12
12
12
12
12
12
12
12
12
12
12
12
12
12
12
12
12
12
12
12
12
12
12
12
12
12
12
12
12
12
12
12
12
12
12
12
12
12
12
12
12
12
12
12
12
12
12
12
12
12
12
12
12
12
12
12
12
12
12
12
12
12
12
12
12
12
12
12
12
12
12
12
12
12
12
12
12
12
12
12
12
12
12
12
12
12
12
12
12
12
12
12
12
12
12
12
12
12
12
12
12
12
12
12
12
12
12
12
12
12
12
12
12
12
12
12
12
12
12
12
12
12
12
12
12
12
12
12
12
12
12
12
12
12
12
12
12
12
12
12
12
12
12
12
12
12
12
12
12
12
12
12
12
12
12
12
12
12
12
12
12
12
12
12
12
12
12
12
12
12
12
12
12
12
12
12
12
12
12
12
12
12
12
12
12
12
12
12
12
12
12
12
12
12
12
12
12
12
12
12
12
12
12
12
12
12
12
12
12
12
12
12
12
12
12
12
12
12
12
12
12
12
12
12
12
12
12
12
12
12
12
12
12
12
12
12
12
12
12
12
12
12
12
12
12
12
12
12
12
12
12
12
12
12
12
12
12
12
12
12
12
12
12
12
12
12
12
12
12
12
12
12
12
12
12
12
12
12
12
12
12
12
12
12
12
12
12
12
12
12
12
12
12
12
12
12
12
12
12
12
12
12
12
12
12
12
12
12
12
12
12
12
12
12
12
12
12
12
12
12
12
12
12
12
12
12
12
12
12
12
12
12
12
12
12
12
12
12
12
12
12
12
12
12
12
12
12
12
12
12
12
12
12
12
12
12
12
12
12
12
12
12
12
12
12
12
12
12
12
12
12
12
12
12
12
12
12
12
12
12
12
12
12
12
12
12
12
12
12
12
12
12
12
12
12
12
12
12
12
12
12
12
12
12
12
12
12
12
12
12
12
12
12
12
12
12
12
12
12
12
12
12
12
12
12
12
12
12
12
12
12
12
12
12
12
12
12
12
12
12
12
12
12
12
12
12
12
12
12
12
12
12
12
12
12
12
12
12
12
12
12
12
12
12
12
12
12
12
12
12
12
12
12
12
12
12
12
12
12
12
12
12
12
12
12
12
12
12
12
12
12
12
12
12
12
12
12
12
12
12
12
12
12
12
12
12
12
12
12
12
12
12
12
12
12
12
12
12
12
12
12
12
12
12
12
12
12
12
12
12
12
12
12
12
12
12
12
12
12
12
12
12
12
12
12
12
12
12
12
12
12
12
12
12
12
12
12
12
12
12
12
12
12
12
12
12
12
12
12
12
12
12
12
12
12
12
12
12
12
12
12
12
12
12
12
12
12
12
12
12
12
12
12
12
12
12
12
12
12
12
12
12
12
12
12
12
12
12
12
12
12
12
12
12
12
12
12
12
12
12
12
12
12
12
12
12
12
12
12
12
12
12
12
12
12
12
12
12
12
12
12
12
12
12
12
12
12
12
12
12
12
12
12
12
12
12
12
12
12
12
12
12
12
12
12
12
12
12
12
12
12
12
12
12
12
12
12
12
12
12
12
12
12
12
12
12
12
12
12
12
12
12
12
12
12
12
12
12
12
12
12
12
12
12
12
12
12
12
12
12
12
12
12
12
12
12
12
12
12
12
12
12
12
12
12
12
12
12
12
12
12
12
12
12
12
12
12
12
12
12
12
12
12
12
12
12
12
12
12
12
12
12
12
12
12
12
12
12
12
12
12
12
12
12
12
12
12
12
12
12
12
12
12
12
12
12
12
12
12
12
12
12
12
12
12
12
12
12
12
12
12
12
12
12
12
12
12
12
12
12
12
12
12
12
12
12
12
12
12
12
12
12
12
12
12
12
12
12
12
12
12
12
12
12
12
12
12
12
12
12
12
12
12
12
12
12
12
12
12
12
12
12
12
12
12
12
12
12
12
12
12
12
12
12
12
12
12
12
12
12
12
12
12
12
12
12
12
12
12
12
12
12
12
12
12
12
12
12
12
12
12
12
12
12
12
12
12
12
12
12
12
12
12
12
12
12
12
12
12
12
12
12
12
12
12
12
12
12
12
12
12
12
12
12
12
12
12
12
12
12
12
12
12
12
12
12
12
12
12
12
12
12
12
12
12
12
12
12
12
12
12
12
12
12
12
12
12
12
12
12
12
12
12
12
12
12
12
12
12
12
12
12
12
12
12
12
12
12
12
12
12
12
12
12
12
12
12
12
12
12
12
12
12
12
12
12
12
12
12
12
12
12
12
12
12
12
12
12
12
12
12
12
12
12
12
12
12
12
12
12
12
12
12
12
12
12
12
12
12
12
12
12
12
12
12
12
12
12
12
12
12
12
12
12
12
12
12
12
12
12
12
12
12
12
12
12
12
12
12
12
12
12
12
12
12
12
12
12
12
12
12
12
12
12
12
12
12
12
12
12
12
12
12
12
12
12
12
12
12
12
12
12
12
12
12
12
12
12
12
12
12
12
12
12
12
12
12
12
12
12
12
12
12
12
12
12
12
12
12
12
12
12
12
12
12
12
12
12
12
12
12
12
12
12
12
12
12
12
12
12
12
12
12
12
12
12
12
12
12
12
12
12
12
12
12
12
12
12
12
12
12
12
12
12
12
12
12
12
12
12
12
12
12
12
12
12
12
12
12
12
12
12
12
12
12
12
12
12
12
12
12
12
12
12
12
12
12
12
12
12
12
12
12
12
12
12
12
12
12
12
12
12
12
12
12
12
12
12
12
12
12
12
12
12
12
12
12
12
12
12
12
12
12
12
12
12
12
12
12
12
12
12
12
12
12
12
12
12
12
12
12
12
12
12
12
12
12
12
12
12
12
12
12
12
12
12
12
12
12
12
12
12
12
12
12
12
12
12
12
12
12
12
12
12
12
12
12
12
12
12
12
12
12
12
12
12
12
12
12
12
12
12
12
12
12
12
12
12
12
12
12
12
12
12
12
12
12
12
12
12
12
12
12
12
12
12
12
12
12
12
12
12
12
12
12
12
12
12
12
12
12
12
12
12
12
12
12
12
12
12
12
12
12
12
12
12
12
12
12
12
12
12
12
12
12
12
12
12
12
12
12
12
12
12
12
12
12
12
12
12
12
12
12
12
12
12
12
12
12
12
12
12
12
12
12
12
12
12
12
12
12
12
12
12
12
12
12
12
12
12
12
12
12
12
12
12
12
12
12
12
12
12
12
12
12
12
12
12
12
12
12
12
12
12
12
12
12
12
12
12
12
12
12
12
12
12
12
12
12
12
12
12
12
12
12
12
12
12
12
12
12
12
12
12
12
12
12
12
12
12
12
12
12
12
12
12
12
12
12
12
12
12
12
12
12
12
12
12
12
12
12
12
12
12
12
12
12
12
12
12
12
12
12
12
12
12
12
12
12
12
12
12
12
12
12
12
12
12
12
12
12
12
12
12
12
12
12
12
12
12
12
12
12
12
12
12
12
12
12
12
12
12
12
12
12
12
12
12
12
12
12
12
12
12
12
12
12
12
12
12
12
12
12
12
12
12
12
12
12
12
12
12
12
12
12
12
12
12
12
12
12
12
12
12
12
12
12
12
12
12
12
12
12
12
12
12
12
12
12
12
12
12
12
12
12
12
12
12
12
12
12
12
12
12
12
12
12
12
12
12
12
12
12
12
12
12
12
12
12
12
12
12
12
12
12
12
12
12
12
12
12
12
12
12
12
12
12
12
12
12
12
12
12
12
12
12
12
12
12
12
12
12
12
12
12
12
12
12
12
12
12
12
12
12
12
12
12
12
12
12
12
12
12
12
12
12
12
12
12
12
12
12
12
12
12
12
12
12
12
12
12
12
12
12
12
12
12
12
12
12
12
12
12
12
12
12
12
12
12
12
12
12
12
12
12
12
12
12
12
12
12
12
12
12
12
12
12
12
12
12
12
12
12
12
12
12
12
12
12
12
12
12
12
12
12
12
12
12
12
12
12
12
12
12
12
12
12
12
12
12
12
12
12
12
12
12
12
12
12
12
12
12
12
12
12
12
12
12
12
12
12
12
12
12
12
12
12
12
12
12
12
12
12

POINT_DATA 3012
SCALARS Jp_lamdaP float 4
LOOKUP_TABLE default
0.999367 1 1 0.999367
1 1 1 1
0.999387 1 1 0.999387
0.999311 1 1 0.999311
0.99937 1 1 0.99937
0.999334 1 1 0.999334
1.01682 1.01867 1 0.998179
1 1 1 1
1 1 1 1
1 1 1 1
0.999402 1 1 0.999402
1.01245 1.01435 1 0.998133
0.999376 1 1 0.999376
0.99935 1 1 0.99935
0.999396 1 1 0.999396
0.999352 1 1 0.999352
0.999347 1 1 0.999347
0.9994 1 1 0.9994
1.01669 1.01855 1 0.998175
1 1 1 1
0.999304 1 1 0.999304
0.999344 1 1 0.999344
1.00935 1.01127 1 0.998104
1.01463 1.01648 1 0.99818
0.999317 1 1 0.999317
1.0173 1.01919 1 0.998152
1.04908 1.05283 1 0.99644
1 1 1 1
0.999688 1 1 0.999688
0.999699 1 1 0.999699
1 1 1 1
1.01029 1.01218 1 0.998142
0.999368 1 1 0.999368
0.999396 1 1 0.999396
1.01555 1.01717 1 0.998413
1 1 1 1
1.01647 1.01804 1 0.998463
1.00508 1.00691 1 0.998178
1.03401 1.03786 1 0.99629
1 1 1 1
1 1 1 1
0.999679 1 1 0.999679
1 1 1 1
0.999376 1 1 0.999376
1.00187 1.00386 1 0.998021
1 1 1 1
1.00719 1.00887 1 0.998336
0.999388 1 1 0.999388
0.999424 1 1 0.999424
0.999352 1 1 0.999352
1.01664 1.0185 1 0.998176
0.999663 1 1 0.999663
0.999341 1 1 0.999341
0.999331 1 1 0.999331
0.999382 1 1 0.999382
1.00908 1.01101 1 0.998092
1.01728 1.01916 1 0.99815
1.01442 1.01627 1 0.998174
1.04975 1.0535 1 0.996435
1 1 1 1
0.999328 1 1 0.999328
1.00257 1.00413 1 0.99844
1.0068 1.00872 1 0.998095
1.0118 1.01368 1 0.998145
1.04745 1.05131 1 0.996329
1.04993 1.05374 1 0.996388
0.999335 1 1 0.999335
1.00859 1.01042 1 0.998182
1.04797 1.0517 1 0.996452
1.06897 1.07364 1 0.995644
1 1 1 1
1 1 1 1
1 1 1 1
1.00816 1.01003 1 0.998149
1 1 1 1
1 1 1 1
1.01565 1.0176 1 0.998083
0.999755 1 1 0.999755
1.01548 1.01736 1 0.998153
1.00351 1.00485 1.00026 0.998409
1.03708 1.04095 1 0.996285
1 1 1 1
1.00406 1 1.0048 0.999268
1.01324 1.01527 1 0.997997
1.01639 1.01832 1 0.998102
1.05526 1.05947 1 0.996032
1.0011 1.00109 1.00119 0.998817
1.0461 1.05004 1 0.996247
1.02687 1.03018 1.00034 0.996445
1.06027 1.06499 1 0.995561
1 1 1 1
1 1 1 1
1 1 1 1
1 1 1 1
1 1 1 1
0.99969 1 1 0.99969
1.00261 1.0044 1 0.998219
0.999674 1 1 0.999674
1.00823 1.01008 1 0.998172
1 1 1 1
1.00093 1.00286 1 0.998074
1.00422 1.00587 1 0.99836
1.04624 1.05038 1 0.996067
1.0109 1.01256 1 0.998363
1.05288 1.05708 1 0.996036
0.999401 1 1 0.999401
0.999374 1 1 0.999374
0.999339 1 1 0.999339
0.999416 1 1 0.999416
1.0088 1.01074 1 0.998084
1.01421 1.01607 1 0.998172
1.01693 1.01881 1 0.998151
1.05071 1.05448 1 0.996429
1 1 1 1
0.999362 1 1 0.999362
1.00212 1.004 1 0.998123
1.00645 1.00839 1 0.998081
0.999674 1 1 0.999674
1.01022 1.01193 1.00001 0.998295
1.01158 1.01347 1 0.998137
1.04785 1.05172 1 0.996324
1.04751 1.05125 1 0.996446
1.05082 1.05462 1 0.996396
1.06833 1.07299 1 0.995654
1.00147 1.00338 1 0.998097
1.00437 1.00626 1 0.998124
1.04289 1.04669 0.999961 0.996412
1.04505 1.04889 1 0.996343
1.04965 1.05349 1 0.996354
1.08248 1.08763 0.999384 0.995878
1 1 1 1
1.07394 1.07855 1 0.995728
1.00109 1.00231 1.00054 0.998247
1.03895 1.04282 1 0.996289
1.06507 1.06983 1 0.995555
1.07178 1.07643 0.999869 0.995806
1.00248 1 1.00369 0.998793
1.01015 1.00133 1.01148 0.997364
1 1 1 1
1 1 1 1
1.016 1.01795 1 0.998087
1 1 1 1
1.00185 1.00289 1.00068 0.998281
1.01494 1.01681 1 0.99816
1.03977 1.04365 1 0.996279
1 1 1 1
1.00444 1 1.00515 0.999293
1.01408 1.01592 1 0.998191
1.01668 1.01843 1 0.998281
1.05425 1.05846 1 0.996029
1.00122 1.00082 1.00178 0.998621
1.0459 1.04984 1 0.996246
1.02685 1.03028 1.00023 0.996441
1.05976 1.06447 1 0.995576
1.0022 1 1.00325 0.998952
1.00551 1 1.00599 0.999517
1.01105 1.00251 1.01075 0.997798
1.05503 1.05928 1 0.995987
1.0532 1.05728 1 0.996137
1.07793 1.08264 1 0.995649
1.01991 1.02123 1.00188 0.996834
1.06283 1.06741 1 0.995712
1.04804 1.05204 1.00065 0.995554
1.06838 1.07312 1 0.99558
1 1 1 1
1 1 1 1
1 1 1 1
1.00356 1 1.00453 0.999038
1 1 1 1
1 1 1 1
1 1 1 1
1.00905 1.01106 1 0.998013
1.00296 1.0049 1 0.998064
1 1 1 1
1 1 1 1
1.00112 1.00305 1 0.998075
1.00488 1.00669 1 0.998198
1.04592 1.05005 1 0.996068
1.01133 1.01335 1 0.998004
1.05109 1.05528 1 0.996034
1.00081 1.00274 1 0.998081
1.04365 1.04779 1 0.996052
1.04947 1.05361 1 0.996068
1.08199 1.08867 0.997798 0.996057
1.05404 1.05827 1 0.995997
1.08227 1.08842 0.99837 0.995975
1 1 1 1
0.999397 1 1 0.999397
1.00161 1.00385 1 0.997767
1.00613 1.00807 1 0.998068
1 1 1 1
1.01205 1.01366 1 0.998411
1.01138 1.01327 1 0.998132
1.04819 1.05206 1 0.996319
1.05182 1.05561 1 0.996404
1.0466 1.05034 1 0.996441
1.06714 1.07178 1 0.995665
1.00122 1.00314 1 0.998095
1.0041 1.006 1 0.99811
1.04348 1.04747 0.999936 0.996259
1.04601 1.04986 1 0.996332
1 1 1 1
1.0035 1.00485 1.00026 0.998391
1.03692 1.04057 1.00008 0.99641
1.05014 1.054 1 0.996345
1.081 1.0868 0.998749 0.995911
1.06486 1.06961 1 0.995558
1.07396 1.07854 1 0.995752
1.07138 1.07604 0.999857 0.995815
1.00208 1 1.0033 0.99878
1.0095 1.00243 1.00972 0.99736
1.04229 1.04641 1 0.996069
1.04411 1.04793 0.999966 0.996388
1.08158 1.08738 0.998632 0.996023
1.08122 1.088 0.997778 0.99598
1.07742 1.08329 0.998708 0.995872
1.07678 1.0873 0.994103 0.996198
1.00094 1.0004 1.00203 0.998511
1.07326 1.07912 0.998542 0.996023
1.02778 1.03127 1.00013 0.996489
1.06219 1.067 1 0.995488
1.07146 1.07623 1 0.995563
1.06836 1.07494 0.997699 0.996173
1.00889 1.00608 1.00582 0.996988
1.00941 1.00013 1.0115 0.997813
1.01086 1.00829 1.00603 0.996543
1.01454 1.01654 1 0.998036
1 1 1 1
1.0044 1 1.00509 0.999317
1.01653 1.01843 1 0.99814
1.05341 1.05761 1 0.996026
1.0013 1.00046 1.00223 0.998618
1.02785 1.03148 1.00004 0.996437
1.04536 1.0493 1 0.996245
1.06053 1.06522 1 0.995591
1.00263 1 1.00366 0.998977
1.00461 1 1.00508 0.999536
1.00973 1.00114 1.01081 0.997798
1.05416 1.05841 1 0.995982
1.05177 1.05585 1 0.996137
1.07794 1.08266 1 0.995643
1.01614 1.01779 1.00154 0.996836
1.064 1.06859 1 0.995704
1.05298 1.05706 1.0006 0.99554
1.06908 1.0738 1 0.995605
1.00335 1 1.00367 0.999682
1.01236 1.00906 1.006 0.99729
1.01191 1 1.01367 0.998267
1.01294 1.00917 1.0066 0.997158
1.08158 1.08673 0.999532 0.995727
1.07088 1.07555 1 0.995659
1.07599 1.08245 0.998199 0.995823
1.03209 1.03389 1.00239 0.995878
1.06605 1.07048 1 0.995866
1.05981 1.06305 1.00158 0.995384
1.08213 1.08684 1 0.995664
1.00122 1 1.00197 0.999246
1.00007 1 1.00021 0.999859
1 1 1 1
1 1 1 1
1 1 1 1
1.00413 1 1.00484 0.999292
1 1 1 1
1.00382 1 1.0048 0.999016
1 1 1 1
1.01229 1.01431 1 0.998005
1.00566 1.00763 1 0.998042
1.0498 1.05398 1 0.996032
1.04565 1.04978 1 0.996069
1.00136 1.00329 1 0.998077
1 1 1 1
1.00082 1.00274 1 0.998081
1.04371 1.04784 1 0.996053
1.04878 1.05292 1 0.996068
1.08183 1.08849 0.997815 0.996056
1.05304 1.05728 1 0.995991
1.08364 1.08971 0.998453 0.995972
1.04226 1.04639 1 0.996054
1.08155 1.0881 0.997931 0.996038
1.08266 1.08897 0.998152 0.996041
1.07189 1.08344 0.99288 0.99643
1.08253 1.08847 0.998686 0.995857
1.07529 1.08804 0.991958 0.996297
1.00106 1.00297 1 0.998094
1.00382 1.00573 1 0.998096
1.04408 1.04828 0.999884 0.996108
1.04701 1.05087 1 0.99632
1 1 1 1
1.00585 1.00726 1.00006 0.998541
1.03546 1.03895 1.00011 0.996529
1.05062 1.05449 1 0.996335
1.07964 1.08611 0.998087 0.995943
1.07382 1.07837 1 0.995776
1.06572 1.07047 1 0.995561
1.07135 1.076 0.999852 0.995824
1.00193 1.00007 1.0031 0.998766
1.01021 1.0037 1.00916 0.997357
1.04255 1.04669 0.999967 0.996083
1.04477 1.04859 0.999976 0.996381
1.0808 1.08702 0.998224 0.996052
1.08133 1.08757 0.99831 0.995944
1.00086 1.00078 1.00159 0.998499
1.02713 1.03048 1.00026 0.99649
1.0641 1.06892 1 0.995498
1.07811 1.08337 0.999293 0.995842
1.07619 1.08752 0.993302 0.996253
1.07095 1.07571 1 0.995573
1.07302 1.07899 0.998443 0.996025
1.06879 1.07533 0.997756 0.996157
1.01124 1.00861 1.00564 0.996985
1.01189 1.00787 1.00748 0.996537
1.01123 1.00022 1.01322 0.997816
1.0814 1.08727 0.998583 0.996012
1.08153 1.0882 0.997828 0.996038
1.07213 1.0822 0.994324 0.996357
1.07488 1.08755 0.992027 0.996289
1.07335 1.08291 0.99496 0.996185
1.06692 1.08422 0.987445 0.996556
1.0135 1.01578 1.00101 0.996741
1.06497 1.07839 0.991155 0.996365
1.05439 1.05901 1 0.995639
1.06606 1.07115 1 0.995255
1.06619 1.07082 0.999973 0.995702
1.05982 1.07139 0.992731 0.996449
1.01453 1.00236 1.01403 0.998141
1.01856 1.01874 1.0036 0.996233
1.0123 1.00111 1.0143 0.996924
1.01941 1.01478 1.00848 0.996116
1.05337 1.05762 1 0.995976
1.00424 1 1.00469 0.999554
1.00311 1 1.00411 0.999002
1.01033 1.00032 1.01224 0.997797
1.05064 1.05471 1 0.996137
1.07785 1.08257 1 0.995637
1.01036 1.01238 1.00117 0.996839
1.05407 1.05838 1.0004 0.995525
1.06521 1.06981 1 0.995696
1.06776 1.07245 1 0.995631
1.0027 1 1.003 0.999696
1.00936 1.00573 1.00632 0.997303
1.01313 1.00014 1.01475 0.998266
1.01122 1.00695 1.0071 0.997159
1.08134 1.08641 0.999613 0.99572
1.07157 1.07624 1 0.995655
1.07572 1.08214 0.998233 0.995822
1.0301 1.03194 1.00235 0.995877
1.06516 1.06962 1 0.995836
1.05627 1.05936 1.00173 0.99537
1.08171 1.08631 1 0.995772
1.00084 1 1.00105 0.999784
1.00972 1 1.01112 0.998619
1.01624 1.0163 1.00342 0.996537
1.01662 1.00427 1.01481 0.997516
1.01072 1.0103 1.00348 0.996944
1.07608 1.08649 0.994437 0.995963
1.07136 1.07601 0.99988 0.995802
1.06694 1.07838 0.993352 0.996018
1.02865 1.03081 1.0024 0.995516
1.06965 1.07466 0.999378 0.995957
1.048 1.05203 1.00086 0.995312
1.00217 1 1.00308 0.999096
1.00537 1 1.00687 0.998513
0.999463 1 1.00009 0.999373
1.00032 1 1.00107 0.999248
0.999914 1 1 0.999914
1.00002 1 1.00015 0.999869
0.999997 1 1 0.999997
1 1 1 1
1 1 1 1
1.00253 1 1.00297 0.99956
1 1 1 1
1.00426 1 1.00499 0.999271
1 1 1 1
1.00344 1 1.00445 0.998995
1 1 1 1
1.05172 1.05596 1 0.995985
1.04779 1.05193 1 0.996067
1.08458 1.09054 0.99856 0.99597
1.08159 1.08824 0.997833 0.996054
1.04373 1.04786 1 0.996055
1.00073 1.00265 1 0.99808
1.04243 1.04656 1 0.996054
1.08123 1.0878 0.997918 0.996038
1.08276 1.0891 0.998136 0.996039
1.07141 1.08361 0.992269 0.996446
1.08288 1.08866 0.998833 0.995853
1.075 1.08767 0.992023 0.996297
1.0811 1.0874 0.998171 0.996026
1.07087 1.08322 0.992118 0.996454
1.07357 1.08516 0.992896 0.99639
1.07119 1.08679 0.988963 0.996647
1.07454 1.08801 0.991435 0.996147
1.07116 1.09083 0.985299 0.99662
1.04269 1.04684 0.999929 0.996098
1.04546 1.04927 1 0.996375
1.08008 1.08667 0.997845 0.996082
1.08132 1.08702 0.998836 0.995909
1.00083 1.00122 1.00113 0.998487
1.02689 1.03012 1.00038 0.996493
1.06664 1.07146 1 0.995509
1.07882 1.08346 0.999905 0.995812
1.07557 1.08767 0.992539 0.996308
1.0728 1.07887 0.998336 0.996027
1.07007 1.07481 1 0.995584
1.06906 1.07557 0.997794 0.996141
1.01395 1.01156 1.0054 0.996983
1.0111 1.00749 1.00707 0.996532
1.01143 1.00039 1.01324 0.997818
1.08099 1.08687 0.99856 0.996023
1.0808 1.08773 0.997581 0.996037
1.07173 1.08258 0.993555 0.996402
1.07526 1.08736 0.992585 0.996263
1.01826 1.02024 1.00131 0.996743
1.05359 1.0582 1 0.995643
1.06621 1.07124 1.00003 0.995267
1.0739 1.08276 0.995663 0.996132
1.06667 1.08464 0.986792 0.996602
1.06681 1.07149 0.999978 0.995662
1.0655 1.07892 0.991167 0.996365
1.06025 1.07181 0.9927 0.996488
1.01843 1.01931 1.00291 0.996234
1.01601 1.01252 1.00741 0.996061
1.01203 1.00188 1.01201 0.998144
1.01023 1.00093 1.01236 0.996979
1.07163 1.08222 0.993782 0.996407
1.0746 1.08622 0.992953 0.996322
1.06609 1.08173 0.988943 0.996564
1.06446 1.08561 0.983832 0.996635
1.06488 1.08217 0.98746 0.996521
1.06792 1.089 0.983829 0.996765
1.03456 1.03841 1.00038 0.995909
1.05686 1.07744 0.98412 0.996726
1.05069 1.05564 1 0.995315
1.06043 1.06541 1.00018 0.99515
1.06367 1.0689 0.999361 0.995742
1.06242 1.07612 0.990727 0.996516
1.01158 1.0025 1.01068 0.998396
1.01908 1.0075 1.01432 0.99722
1.02363 1.02509 1.00276 0.995828
1.01183 1.00508 1.01015 0.996598
1.01696 1.01016 1.01089 0.995888
1.00163 1 1.00192 0.999711
1.0811 1.08609 0.999693 0.995714
1.01246 1.00021 1.01401 0.998266
1.00728 1.00302 1.00695 0.997316
1.00897 1.00458 1.00723 0.997158
1.07219 1.07687 1 0.995652
1.07542 1.0818 0.998268 0.99582
1.03222 1.03506 1.00139 0.995875
1.05606 1.05894 1.00193 0.995356
1.06458 1.06907 1 0.995807
1.08209 1.08656 1 0.99588
1.00035 1 1.00055 0.999795
1.01009 1 1.01148 0.998629
1.01474 1.0155 1.00271 0.99655
1.01655 1.00363 1.01541 0.997506
1.01159 1.01086 1.00389 0.996844
1.07617 1.08656 0.994453 0.995959
1.07096 1.07562 0.999864 0.995801
1.0662 1.07778 0.993221 0.996007
1.02957 1.03171 1.00243 0.995512
1.07392 1.07895 0.99941 0.99593
1.04821 1.05208 1.00096 0.995362
1.00455 1 1.00566 0.998898
1.01492 1.00135 1.01572 0.997859
1.00889 1.01159 1.0012 0.996135
1.02211 1.01187 1.01302 0.997137
1.01911 1.01962 1.00286 0.996646
1.06969 1.08695 0.987873 0.996199
1.06599 1.0721 0.998333 0.995957
1.05816 1.07289 0.990006 0.996235
1.00789 1.00864 1.00379 0.995473
1.04435 1.04921 0.999958 0.995406
1.00228 1 1.00318 0.999098
1.00453 1 1.00615 0.998381
1.00571 1 1.00722 0.998492
1.00539 1 1.00711 0.998285
1.0023 1 1.00368 0.998626
0.999449 1 1 0.999449
0.999685 1 1.00031 0.999377
0.999952 1 1 0.999952
1.00031 1 1.00106 0.999251
0.999926 1 1 0.999926
1 1 1 1
0.99988 1 1 0.99988
0.999998 1 1 0.999998
1 1 1 1
1.00133 1 1.00155 0.999781
1.00365 1 1.00411 0.999543
1 1 1 1
1 1 1 1
1.00497 1 1.00573 0.99925
1 1 1 1
1.08345 1.08907 0.998983 0.995848
1.08319 1.08958 0.998093 0.996038
1.07486 1.08746 0.992082 0.996297
1.07101 1.08386 0.991653 0.996462
1.0809 1.08748 0.997904 0.996039
1.04276 1.04689 1 0.996054
1.08087 1.08716 0.998176 0.996026
1.07107 1.08313 0.992392 0.996449
1.07375 1.08537 0.992877 0.996391
1.07026 1.08661 0.98824 0.996674
1.07476 1.08838 0.991313 0.996143
1.07115 1.09087 0.985228 0.996642
1.07113 1.08288 0.992693 0.996425
1.06971 1.08664 0.987748 0.99663
1.07174 1.08835 0.987999 0.996703
1.07274 1.0943 0.983453 0.996791
1.07053 1.0903 0.985365 0.996446
1.07537 1.09821 0.982306 0.996837
1.08061 1.0865 0.99854 0.996035
1.08005 1.08724 0.997334 0.996035
1.07126 1.08291 0.992774 0.996448
1.07566 1.08718 0.99315 0.996236
1.02144 1.02308 1.00165 0.996745
1.05026 1.05486 1 0.995646
1.06583 1.07069 1.00018 0.995279
1.07437 1.08257 0.99633 0.996079
1.06647 1.08505 0.986189 0.996648
1.06616 1.07956 0.991185 0.996365
1.06745 1.07214 1 0.995623
1.06037 1.07211 0.992495 0.996527
1.01977 1.01927 1.00426 0.996236
1.01471 1.01004 1.00865 0.996005
1.01131 1.0016 1.01157 0.998146
1.0092 1.00103 1.01117 0.997034
1.0719 1.08249 0.99379 0.996407
1.0743 1.08589 0.992991 0.996306
1.06574 1.08159 0.988722 0.996593
1.06576 1.08594 0.984748 0.996618
1.03401 1.03635 1.00183 0.995906
1.04962 1.0545 1.00003 0.99534
1.05976 1.06452 1.00039 0.995137
1.06575 1.08238 0.988122 0.996472
1.06576 1.08768 0.982971 0.996821
1.06181 1.06691 0.999485 0.995728
1.05782 1.07846 0.984084 0.996726
1.06098 1.07493 0.990393 0.996591
1.0226 1.023 1.0038 0.995835
1.01607 1.00945 1.01074 0.995871
1.0132 1.00418 1.01242 0.996597
1.01156 1.00198 1.0112 0.998379
1.01619 1.00339 1.01554 0.997255
1.06833 1.0851 0.987895 0.996609
1.06873 1.08794 0.985678 0.996617
1.06507 1.09338 0.977228 0.996805
1.06086 1.08466 0.981176 0.996818
1.03178 1.03633 1.00001 0.995591
1.05901 1.08174 0.982029 0.996895
1.03295 1.03773 1.00029 0.995104
1.05094 1.05568 1.00049 0.995015
1.05884 1.06708 0.996512 0.995753
1.00647 1 1.0077 0.99878
1.0159 1 1.01833 0.997616
1.0169 1.01124 1.0087 0.996923
1.01638 1.01569 1.00497 0.995728
1.01909 1.00561 1.01739 0.996094
1.01898 1.00854 1.01468 0.995738
1.0002 1 1.00039 0.999805
1.01105 1 1.01243 0.99864
1.07621 1.08659 0.994472 0.995955
1.01728 1.00266 1.01713 0.997495
1.01211 1.01248 1.00308 0.996563
1.01309 1.01206 1.00429 0.996744
1.07032 1.075 0.999846 0.995801
1.06567 1.0774 0.993094 0.995996
1.02858 1.03056 1.00258 0.995509
1.04739 1.05141 1.00077 0.995412
1.07851 1.08355 0.999442 0.995902
1.00432 1 1.00542 0.998904
1.01554 1.00052 1.01719 0.997863
1.01292 1.01537 1.00154 0.996062
1.02269 1.01064 1.01483 0.99714
1.02 1.02068 1.00273 0.996623
1.06841 1.08555 0.987967 0.996195
1.06889 1.07496 0.998405 0.995943
1.06117 1.07597 0.98995 0.996256
1.01042 1.01175 1.00324 0.995454
1.04203 1.04687 1.00001 0.995368
1.00799 1 1.0098 0.998207
1.02065 1.00244 1.02078 0.997441
1.00732 1.00896 1.00242 0.995972
1.03008 1.02127 1.01187 0.996789
1.03802 1.04056 1.00111 0.996452
1.05867 1.08565 0.978392 0.996683
1.07 1.07784 0.996937 0.995775
1.06908 1.08157 0.992251 0.996177
1.0132 1.01343 1.00433 0.995469
1.01942 1.0244 1 0.995141
1.0019 1 1.0028 0.999101
1.00383 1 1.00545 0.998388
1.00041 1 1.00211 0.998297
1.00371 1 1.00525 0.99847
1.00154 1 1.00292 0.998623
1.0066 1 1.00833 0.998278
1.00154 1 1.00321 0.998342
1.00571 1 1.00751 0.998219
0.999602 1 1.0009 0.998706
0.999451 1 1 0.999451
0.999449 1 1 0.999449
0.999976 1 1 0.999976
0.999425 1 1.00004 0.99938
0.999959 1 1 0.999959
1 1 1 1
0.999937 1 1 0.999937
1 1 1 1
1 1 1 1
0.999975 1 1.00007 0.999909
1.0015 1 1.00174 0.999756
1 1 1 1
1.00392 1 1.00439 0.999527
1 1 1 1
1 1 1 1
1.07495 1.08871 0.991185 0.996139
1.07373 1.08536 0.992869 0.996391
1.07113 1.09092 0.985144 0.996665
1.06926 1.08639 0.987492 0.996702
1.07131 1.08306 0.992685 0.996444
1.08057 1.08686 0.998184 0.996027
1.0714 1.08289 0.99296 0.996408
1.07025 1.08662 0.988275 0.996623
1.07122 1.08772 0.988101 0.996689
1.0707 1.09327 0.982496 0.9968
1.07071 1.09024 0.985591 0.996448
1.07245 1.09645 0.981179 0.996872
1.0709 1.08676 0.988763 0.996602
1.07346 1.09644 0.982193 0.996794
1.07302 1.09733 0.980906 0.996874
1.0664 1.0969 0.975249 0.996873
1.07222 1.08281 0.993798 0.996406
1.07403 1.0856 0.993022 0.99629
1.06551 1.08155 0.988507 0.996622
1.06709 1.08634 0.985633 0.996601
1.03489 1.03705 1.00203 0.995904
1.04933 1.05421 1 0.995366
1.05898 1.06355 1.00058 0.995124
1.06649 1.0825 0.988745 0.996423
1.06356 1.08636 0.982076 0.996876
1.05863 1.07929 0.984081 0.996725
1.06036 1.06515 0.999787 0.995714
1.0609 1.07477 0.990405 0.996664
1.01872 1.01898 1.00391 0.995842
1.01421 1.00926 1.00909 0.995854
1.01528 1.00382 1.01488 0.996595
1.00935 1.00132 1.00967 0.998364
1.01336 1.00018 1.01593 0.99729
1.0681 1.08484 0.987919 0.99661
1.06937 1.08856 0.98571 0.996613
1.06601 1.09279 0.978624 0.996798
1.03188 1.03629 1.00016 0.99559
1.03325 1.03803 1.00026 0.995135
1.04897 1.05343 1.00076 0.995004
1.0611 1.08444 0.981617 0.996805
1.06126 1.06978 0.99614 0.995884
1.05583 1.07893 0.981672 0.996862
1.00684 1 1.008 0.998846
1.01389 1.01282 1.00535 0.995725
1.01782 1.00653 1.01545 0.995829
1.0216 1.00778 1.0177 0.996082
1.01868 1.01169 1.00998 0.996955
1.01826 1.00283 1.01785 0.997575
1.07219 1.09434 0.983027 0.996677
1.06999 1.10008 0.975806 0.996759
1.05901 1.09216 0.972691 0.996873
1.05197 1.08492 0.972537 0.997005
1.01722 1.02155 1.0003 0.995458
1.05004 1.06784 0.986832 0.996449
1.01806 1.02172 1.00165 0.994781
1.0366 1.04127 1.00062 0.994893
1.00115 1 1.00187 0.999273
1.01456 1 1.01647 0.998114
1.01562 1.00658 1.01177 0.997252
1.02521 1.00956 1.0192 0.996372
1.01166 1.00576 1.01018 0.995731
1.02424 1.00696 1.02172 0.995538
1.00385 1 1.00494 0.99891
1.01546 1 1.01763 0.997867
1.06715 1.08417 0.98806 0.99619
1.02199 1.0089 1.01587 0.997144
1.01698 1.01945 1.0016 0.995988
1.01928 1.02044 1.00227 0.996599
1.07192 1.07794 0.998479 0.995929
1.06383 1.07881 0.989804 0.996276
1.01341 1.01528 1.00273 0.995435
1.03951 1.04415 1.00022 0.995329
1.00796 1.00006 1.00971 0.998214
1.02067 1.00217 1.02112 0.997398
1.0077 1.00923 1.00253 0.995968
1.02882 1.02144 1.01047 0.996781
1.04246 1.04556 1.00055 0.996484
1.0614 1.08813 0.978634 0.99673
1.06988 1.07766 0.996945 0.995826
1.06986 1.08162 0.992836 0.996265
1.01529 1.01529 1.00458 0.995434
1.01859 1.02364 1.00003 0.995041
1.0063 1 1.00834 0.997976
1.0196 1.00224 1.02025 0.997125
1.02356 1.02378 1.00378 0.996011
1.03573 1.03639 1.00301 0.996376
1.06088 1.11154 0.957326 0.996966
1.05899 1.08272 0.9813 0.996723
1.05164 1.05726 0.999372 0.995306
1.02598 1.0267 1.00426 0.995061
1.00348 1 1.0051 0.998394
1.00148 1 1.0032 0.998283
1.00008 0.999978 1.00161 0.9985
1.00228 1 1.00367 0.99862
1.00867 1 1.01042 0.998271
0.99971 1 1.00101 0.9987
1.00156 0.999941 1.00324 0.998376
1.00753 1 1.00931 0.99823
0.999702 1 1.00108 0.99862
1.00722 1 1.00911 0.998124
1.0029 1 1.00473 0.998179
0.999039 1 1.00037 0.99867
0.999406 1 1 0.999406
0.999448 1 1 0.999448
0.999986 1 1 0.999986
0.999449 1 1 0.999449
0.999979 1 1 0.999979
1 1 1 1
0.999967 1 1 0.999967
1 1 1 1
1 1 1 1
0.999962 1 1 0.999962
1.00073 1 1.00084 0.999887
1 1 1 1
1.00295 1 1.00322 0.999732
1 1 1 1
1 1 1 1
1.07081 1.0901 0.985811 0.996451
1.07077 1.08716 0.98821 0.996675
1.06962 1.09474 0.980079 0.996907
1.06875 1.09232 0.981554 0.996809
1.07076 1.08656 0.98881 0.996616
1.07166 1.08289 0.99321 0.996391
1.07042 1.0865 0.98856 0.996603
1.07287 1.09579 0.982248 0.996784
1.07199 1.09664 0.980589 0.996869
1.0662 1.09656 0.975349 0.996886
1.07496 1.09685 0.983248 0.996739
1.07144 1.10208 0.975188 0.996939
1.07407 1.1083 0.972069 0.996961
1.06779 1.0845 0.987938 0.996611
1.06996 1.0891 0.985766 0.99661
1.0669 1.09219 0.979985 0.996792
1.03325 1.03738 1.00043 0.99559
1.03268 1.03751 1.00018 0.995166
1.04725 1.05163 1.00085 0.994993
1.06146 1.0844 0.981993 0.996793
1.05222 1.07588 0.981125 0.996828
1.06328 1.07237 0.995485 0.996016
1.01196 1.00992 1.00633 0.995722
1.01433 1.00393 1.01449 0.995922
1.02296 1.00974 1.01709 0.99607
1.00733 1 1.00843 0.998913
1.0172 1.01019 1.00998 0.996986
1.02109 1.00528 1.01824 0.997532
1.07331 1.09498 0.983466 0.996686
1.06886 1.10004 0.974812 0.996761
1.05946 1.09206 0.973197 0.996865
1.01651 1.02087 1.00028 0.995449
1.01726 1.02109 1.0014 0.994859
1.03836 1.04362 0.999947 0.995009
1.05298 1.08534 0.973098 0.997006
1.04637 1.06466 0.986346 0.996423
1.00135 1 1.00199 0.999361
1.0137 1 1.01562 0.998108
1.00859 1.00444 1.00841 0.995756
1.0271 1.00665 1.02469 0.995735
1.02356 1.00984 1.01725 0.996407
1.01727 1.00906 1.01095 0.997214
1.07093 1.1024 0.974521 0.996854
1.06021 1.10588 0.961744 0.996832
1.05374 1.09221 0.967629 0.99705
1.03669 1.06773 0.97386 0.996991
1.00308 1.00644 1.00133 0.995333
1.0308 1.04291 0.992871 0.995485
1.01448 1.01723 1.00264 0.99467
0.999623 1 1 0.999623
0.999153 1 1.00014 0.999013
1.00662 1 1.00804 0.998593
1.01021 1 1.0127 0.997541
1.01197 1 1.01516 0.99686
1.03523 1.01384 1.0252 0.996
1.00906 1.00198 1.01105 0.996064
1.04853 1.00546 1.04669 0.996318
1.00838 1 1.01018 0.998221
1.02193 1.00227 1.02232 0.997356
1.06446 1.09086 0.978952 0.996777
1.02956 1.02347 1.0092 0.996774
1.00804 1.00913 1.00296 0.995964
1.04621 1.04983 1.00004 0.996517
1.06977 1.07748 0.996952 0.995877
1.07086 1.08184 0.993469 0.996354
1.01673 1.01653 1.00482 0.995399
1.01745 1.02262 1 0.994941
1.00749 1 1.0096 0.99791
1.01801 1.00188 1.01907 0.997087
1.02966 1.02951 1.00415 0.996013
1.03352 1.03498 1.00219 0.996404
1.06218 1.11358 0.956724 0.996985
1.06463 1.08677 0.982908 0.996667
1.04757 1.05334 0.99915 0.995369
1.0275 1.02877 1.00377 0.995012
1.00645 0.999755 1.00881 0.997902
1.07321 1.12316 0.958403 0.997004
1.01066 1.00217 1.01178 0.996731
1.02957 1.03114 1.00268 0.995813
1.04077 1.09348 0.95454 0.997124
1.03963 1.04803 0.996528 0.995441
1.01791 1.01998 1.00323 0.994762
1.00296 1 1.0047 0.998269
0.998726 0.998864 1.00137 0.998492
1.00006 0.998082 1.00327 0.998723
0.999374 1 1.00068 0.998694
1.00843 1 1.0102 0.998241
1.00181 0.999458 1.00395 0.99841
0.998806 1 1.00014 0.998665
1.00313 1 1.00495 0.99819
0.999735 0.999729 1.00134 0.998669
1.00616 1 1.00805 0.998127
0.998815 1 1 0.998815
1.00219 1 1.00376 0.998438
1.00765 1 1.0097 0.99797
0.998956 1 1.00093 0.998029
0.998559 1 1 0.998559
0.999357 1 1 0.999357
0.999401 1 1 0.999401
0.999991 1 1 0.999991
0.999444 1 1 0.999444
0.999988 1 1 0.999988
1 1 1 1
0.999983 1 1 0.999983
1 1 1 1
1 1 1 1
0.999685 1 1 0.999685
0.999985 1 1 0.999985
0.999953 1 1 0.999953
1 1 1 1
1.00089 1 1.00102 0.999864
1 1 1 1
1 1 1 1
1.06589 1.09613 0.975443 0.996898
1.07097 1.09592 0.980309 0.996864
1.07223 1.09508 0.982302 0.996774
1.07001 1.08627 0.988382 0.996605
1.07474 1.09701 0.982889 0.996758
1.07115 1.10178 0.975194 0.99693
1.07055 1.10474 0.972 0.996964
1.07201 1.10346 0.974499 0.996921
1.08318 1.12032 0.969737 0.99702
1.09621 1.14114 0.963256 0.997277
1.07443 1.09564 0.983898 0.996696
1.0679 1.09999 0.973981 0.996764
1.06016 1.09193 0.973969 0.996857
1.01664 1.02107 1.00022 0.995441
1.01755 1.02143 1.00126 0.994941
1.0406 1.0463 0.999423 0.995124
1.05376 1.08533 0.973833 0.997007
1.04229 1.06071 0.986188 0.996398
1.00893 1.00384 1.00933 0.995782
1.03218 1.00735 1.02884 0.995925
1.02333 1.00892 1.01791 0.996442
1.00061 1 1.00116 0.999448
1.01301 1 1.01494 0.998103
1.01987 1.01209 1.01055 0.997174
1.07028 1.10231 0.973996 0.996863
0.999616 1 1 0.999616
0.999323 1 1.00036 0.998963
1.06185 1.10514 0.963875 0.996834
1.05225 1.09066 0.967664 0.99702
1.00434 1.00703 1.00192 0.995414
1.01512 1.01715 1.00332 0.9947
1.02897 1.04068 0.993253 0.995469
1.0359 1.06732 0.973527 0.99696
1.00598 1 1.00729 0.998692
1.01073 1 1.01324 0.997526
1.01013 1.00217 1.01205 0.995936
1.04326 1.00655 1.04026 0.99635
1.03333 1.01076 1.02643 0.996004
1.01283 1.00241 1.01355 0.996892
1.08048 1.12443 0.963849 0.996957
1.04407 1.10431 0.948355 0.996945
1.0374 1.07991 0.96334 0.997195
1.02035 1.04433 0.980311 0.996661
1.00597 1.00334 1.0069 0.99575
1.0144 1.01684 1.0027 0.994913
0.999071 1 1.00017 0.998903
1.00111 1 1.00213 0.998976
0.999754 1.00021 1.00094 0.99861
1.00558 1 1.00773 0.997859
1.01395 1 1.01675 0.997242
1.01011 1.0004 1.01315 0.996595
1.07455 1.00605 1.07214 0.996227
0.993269 1.00049 0.995538 0.997229
1.0078 1 1.00997 0.997844
1.01576 1.00144 1.0173 0.997048
1.06254 1.11415 0.956541 0.997004
1.06979 1.09031 0.984519 0.996612
1.03233 1.03394 1.00202 0.996431
1.03707 1.03664 1.00441 0.996013
1.04393 1.04977 0.999004 0.995431
1.03 1.03176 1.00335 0.994964
1.00612 0.999337 1.00892 0.997886
1.07459 1.12662 0.956611 0.997083
1.01185 1.00113 1.01394 0.996813
1.02529 1.02692 1.00269 0.995738
1.04167 1.09396 0.954961 0.997104
1.03591 1.04516 0.995584 0.995544
1.01971 1.02151 1.00348 0.994774
1.0141 0.998017 1.01846 0.997704
1.00394 1.07138 0.939447 0.997458
1.00576 1.00022 1.00905 0.996523
1.00862 1.0097 1.00379 0.995165
1.01157 1.04277 0.973367 0.996625
1.00383 1.00657 1.00221 0.995076
0.938034 1.00136 0.940698 0.995809
0.996647 0.996982 1.00118 0.998483
0.998963 0.99581 1.00444 0.998728
1.00199 0.997652 1.00568 0.998668
0.998936 1 1.00028 0.998661
1.00507 1 1.00688 0.998201
1.00476 1 1.00664 0.99813
0.999879 0.999868 1.00129 0.998721
0.99869 1 1.00013 0.998559
0.999516 1 1.00148 0.998043
0.997896 0.999096 1.00002 0.998781
1.00832 1 1.01037 0.997968
1.00201 1 1.00362 0.998398
1.00021 0.998454 1.00299 0.99877
1.00533 1 1.00751 0.997831
1.00699 1 1.00908 0.997931
0.99825 1 1.00034 0.997907
0.998381 1 1.00001 0.998369
1.00537 1 1.00728 0.998108
1.00004 1 1.00171 0.998337
0.999337 1 1 0.999337
0.999353 1 1 0.999353
0.999996 1 1 0.999996
0.999395 1 1 0.999395
0.999993 1 1 0.999993
1 1 1 1
0.999989 1 1 0.999989
1 1 1 1
1 1 1 1
0.999757 1 1 0.999757
0.999689 1 1 0.999689
0.999996 1 1 0.999996
0.99998 1 1 0.99998
1 1 1 1
0.999944 1 1 0.999944
1 1 1 1
1 1 1 1
1.06725 1.10157 0.971797 0.996967
1.07098 1.10174 0.975086 0.996921
1.07453 1.09719 0.982517 0.996777
1.0718 1.10336 0.974399 0.99692
1.08004 1.1177 0.969208 0.997012
1.09731 1.14112 0.964318 0.997188
1.09048 1.13519 0.963422 0.997087
0.936494 1.01611 0.927744 0.993428
1.04144 1.09051 0.956973 0.997934
0.999267 1 1.00015 0.999116
1.06973 1.10247 0.973352 0.996871
1.06312 1.10437 0.9657 0.996836
1.05032 1.08909 0.967315 0.996991
1.00185 1.00557 1.00082 0.99549
1.01565 1.01697 1.004 0.994729
1.02663 1.03831 0.993266 0.995453
1.03553 1.06765 0.972906 0.996928
1.00564 1.00221 1.00764 0.995816
1.03657 1.00716 1.03293 0.996393
1.03137 1.00769 1.0276 0.996006
1.00045 1 1.00084 0.999609
1.01299 1.00386 1.01221 0.996922
1.00605 1 1.00727 0.998788
1.01135 1 1.01387 0.997511
0.999776 1 1.00086 0.998914
1.07907 1.12493 0.962153 0.996964
0.999044 1 1.00008 0.998968
1.00195 1 1.00297 0.99898
0.999602 1.00057 1.00046 0.99857
1.04798 1.10484 0.951448 0.996943
1.03472 1.07753 0.963028 0.997144
1.00213 1.00237 1.00399 0.995788
1.01781 1.02077 1.00204 0.995065
1.0193 1.04322 0.98037 0.996642
1.00535 1 1.00744 0.997925
1.01259 1 1.01543 0.997198
1.00455 1.00031 1.00726 0.997001
1.06245 1.0046 1.06161 0.996213
1.01029 1.00339 1.01026 0.996649
1.0547 1.1175 0.946586 0.997056
1.01582 1.08811 0.936261 0.997112
1.02642 1.05599 0.975102 0.996814
1.00247 1.0238 0.982686 0.996416
1.0003 1 1.00355 0.996756
0.998505 1 1 0.998505
1.00279 1.00038 1.00416 0.998262
1.00299 1 1.00461 0.998383
1.01504 1 1.01742 0.997662
1.01389 1 1.01666 0.997279
1.04581 0.999932 1.04913 0.996903
1.02728 1.00214 1.02784 0.997318
1.00638 0.999627 1.0089 0.997868
1.01242 0.999934 1.01563 0.996898
1.07531 1.13082 0.953622 0.99716
1.04321 1.09548 0.955074 0.997081
1.03242 1.04262 0.994551 0.995648
1.01953 1.02123 1.00268 0.995665
1.02064 1.02231 1.0036 0.994787
1.01499 0.998853 1.01838 0.997816
1.00649 1.07316 0.940211 0.997519
1.00273 1.0007 1.00552 0.996528
1.00643 1.00718 1.00411 0.995158
1.00927 1.04063 0.973 0.996772
1.00476 1.00698 1.00273 0.995076
0.936397 0.99955 0.942048 0.994449
1.01479 0.996232 1.02099 0.997683
0.978731 1.02792 0.954587 0.997446
1.00067 1.00137 1.00312 0.99619
1.00423 1.00241 1.00614 0.995708
0.989091 1.00748 0.985144 0.99655
0.874877 0.970645 0.934694 0.964312
0.847502 0.950167 0.909022 0.98122
0.94007 0.974457 0.968276 0.996319
0.619781 0.777831 0.867788 0.918203
0.531813 0.707059 0.844529 0.890612
0.998557 0.993952 1.00591 0.998733
1.00337 0.995254 1.00945 0.998721
1.00437 0.997591 1.00811 0.998703
0.998559 1 1 0.998559
0.9993 1 1.00125 0.998058
1.00766 1 1.00972 0.997966
1.00184 1 1.00349 0.998356
0.996628 0.997879 1 0.998747
1.00732 1 1.00942 0.997924
0.998411 1 1 0.998411
0.998292 1 1.00037 0.997923
0.999818 0.998905 1.00222 0.998695
1.0055 1 1.0076 0.997916
1.0106 1 1.01268 0.997954
1.00972 0.998798 1.01269 0.998272
1.00665 1 1.00876 0.997905
0.998983 1 1.0012 0.997781
0.998808 1 1.00048 0.998332
1.00179 1 1.00385 0.997946
1.00535 1 1.00725 0.998114
1.00469 1 1.00646 0.998239
1.00497 1 1.00691 0.998078
1.0003 1 1.00182 0.998481
1.00072 1 1.00239 0.998334
0.99933 1 1 0.99933
0.999337 1 1 0.999337
0.999999 1 1 0.999999
0.999348 1 1 0.999348
0.999997 1 1 0.999997
1 1 1 1
0.999994 1 1 0.999994
1 1 1 1
1 1 1 1
0.99983 1 1 0.99983
0.999755 1 1 0.999755
0.999999 1 1 0.999999
0.999692 1 1 0.999692
0.999993 1 1 0.999993
1 1 1 1
0.999975 1 1 0.999975
1 1 1 1
1 1 1 1
1.07681 1.11489 0.968749 0.997003
1.07111 1.10275 0.974313 0.996918
1.10049 1.14216 0.966318 0.9971
0.94077 1.01578 0.932197 0.993515
1.0892 1.13463 0.962768 0.997083
1.04842 1.09281 0.961483 0.997806
1.06553 1.11103 0.961732 0.997208
0.891071 0.969992 0.936864 0.980546
0.973541 1.02506 0.955187 0.994301
0.999172 1 1 0.999172
0.999232 1 1.00012 0.999108
0.998948 1 1.00035 0.998601
0.998731 1 1 0.998731
1.07749 1.12521 0.960495 0.996971
1.05171 1.10547 0.954291 0.996941
1.03242 1.07521 0.963005 0.997092
1.00163 1.00217 1.00365 0.995826
1.02009 1.02445 1.00053 0.995221
1.01806 1.04137 0.980932 0.996623
1.01668 1 1.01998 0.996764
1.0524 1.00439 1.0518 0.996199
1.01255 1.00659 1.00925 0.996703
1.00203 1 1.00305 0.998984
1.0117 1.00061 1.01397 0.997156
1.00492 1 1.00695 0.997991
0.999033 1 1 0.999033
0.999491 1.00071 1.00025 0.99853
1.05391 1.11893 0.944662 0.99707
0.998723 1 1.00021 0.998511
1.00186 1.0006 1.0029 0.99836
1.00289 0.999108 1.0051 0.998691
1.02382 1.09204 0.940255 0.997099
1.02621 1.05563 0.975239 0.996813
0.997702 1.00158 0.999385 0.996746
1.00378 1.02251 0.985143 0.996487
1.01422 1 1.01673 0.997539
1.01409 1.00003 1.01702 0.997089
1.03326 1.00304 1.03293 0.9973
1.04728 1.00294 1.04759 0.996774
1.00467 1.07179 0.939995 0.997212
0.99774 1.05693 0.946725 0.997119
1.011 1.02388 0.990946 0.996446
0.970962 1.00162 0.971665 0.997659
1.00787 0.999928 1.0095 0.998454
1.00827 1 1.0105 0.997794
1.02176 0.999267 1.02443 0.998121
1.06555 1.00126 1.06706 0.997321
0.864312 0.967924 0.931882 0.958227
1.0157 0.998539 1.01929 0.99793
1.00075 1.00091 1.00332 0.996531
1.00897 1.07455 0.941243 0.997586
1.00685 1.03817 0.972828 0.996919
1.00589 1.00755 1.0033 0.995072
1.005 1.0053 1.00457 0.995149
0.935969 0.99952 0.942989 0.993033
1.01171 0.996054 1.01801 0.997743
0.977697 1.02826 0.953291 0.997418
1.00065 1.0015 1.00296 0.996201
1.00572 1.00416 1.00585 0.995728
0.992351 1.00858 0.987333 0.996528
0.864391 0.972599 0.927375 0.958344
0.84693 0.947626 0.914151 0.977671
0.94245 0.974562 0.970552 0.996391
0.615634 0.774375 0.863717 0.92045
0.525295 0.70903 0.837523 0.884591
1.00383 0.996159 1.00992 0.997802
0.656993 0.798632 0.88993 0.924396
0.569669 0.731252 0.875082 0.890239
0.981414 1.00558 0.978234 0.997683
1.00987 1.00184 1.01099 0.99706
1.01545 1.00616 1.01217 0.997099
0.930833 0.960693 0.971892 0.99694
0.819999 0.939505 0.907146 0.962138
0.812489 0.915067 0.910572 0.975103
0.593916 0.755931 0.84712 0.927466
0.57915 0.780384 0.840304 0.883174
1.00423 0.992723 1.01283 0.998773
1.00337 0.995604 1.00914 0.998676
1.01395 0.996997 1.01819 0.998837
0.998452 1 1 0.998452
0.998565 1 1.00063 0.99794
1.00755 1 1.00965 0.997918
1.00649 1 1.00851 0.998002
0.999157 0.999275 1.00126 0.998619
0.998758 1 1.00043 0.998332
1.01129 1 1.01339 0.997934
1.00673 1 1.00886 0.997883
0.998664 1 1.00083 0.997833
1.00986 0.998662 1.01291 0.998328
1.01008 1 1.01191 0.998195
1.02799 0.998154 1.03144 0.998495
1.00413 1 1.00641 0.997736
0.999307 1 1.00144 0.997874
1.00086 1 1.00293 0.997938
1.00475 0.999881 1.00672 0.998165
1.00132 0.999994 1.00342 0.997913
1.0007 1.00005 1.00241 0.998244
1.00972 0.998708 1.01266 0.99839
1.01349 0.999713 1.01576 0.998053
1.00565 1 1.00742 0.998245
1.00553 1 1.0073 0.998242
1.00472 1 1.00622 0.998514
1.00615 1 1.00812 0.998048
1.00059 1 1.00215 0.998443
0.999302 1 1 0.999302
1.00134 1 1.00301 0.99833
0.999333 1 1 0.999333
0.999993 1 1 0.999993
0.999338 1 1 0.999338
0.999998 1 1 0.999998
1 1 1 1
0.999998 1 1 0.999998
1 1 1 1
1 1 1 1
0.999101 1 1 0.999101
0.999854 1 1 0.999854
0.999826 1 1 0.999826
1 1 1 1
0.999753 1 1 0.999753
0.999999 1 1 0.999999
1 1 1 1
0.99999 1 1 0.99999
1 1 1 1
1 1 1 1
0.943341 1.01513 0.93526 0.993603
1.08825 1.13394 0.96252 0.997079
1.0541 1.09457 0.965267 0.997675
0.877616 0.967901 0.923505 0.981826
0.969669 1.02476 0.951427 0.994552
1.06735 1.11377 0.961039 0.997166
0.981227 1.04321 0.944809 0.995534
0.896542 0.975503 0.934472 0.983503
0.873442 0.975339 0.931048 0.961849
0.628732 0.782772 0.865236 0.928315
0.493784 0.670159 0.828322 0.889528
0.998962 1 1.00026 0.998703
0.999186 1 1.00002 0.999169
0.999135 1 1.00003 0.9991
0.999035 1 1.00041 0.998626
1.00001 1 1.00152 0.99849
0.998529 1 1.00017 0.998359
0.998947 1 1.00045 0.998499
0.998682 1 1 0.998682
1.05517 1.12051 0.944447 0.997082
1.03222 1.0961 0.944473 0.997086
1.02619 1.056 0.974875 0.996812
0.996591 1.00267 0.997186 0.996738
1.00561 1.02155 0.98779 0.996556
1.04147 1.00376 1.04041 0.997279
1.04829 1.00548 1.04608 0.996647
1.01154 1.00036 1.01432 0.996899
1.00099 1.00077 1.00176 0.998457
1.01483 1 1.01746 0.997409
0.998697 1 1.00018 0.99852
1.00226 0.998899 1.00437 0.999002
1.00136 1.07177 0.936865 0.99727
1.00706 0.99967 1.00898 0.998422
1.01023 1 1.01226 0.997997
0.99627 1.05494 0.947142 0.997091
1.01022 1.026 0.987971 0.996611
0.974951 1.00185 0.975577 0.997512
1.03183 1.00071 1.03343 0.997746
1.05814 1.00257 1.05821 0.997368
0.961613 1.03386 0.932916 0.997006
0.996925 1.01955 0.980644 0.997109
0.974334 1.00266 0.974464 0.997211
0.971789 0.99716 0.976569 0.99794
1.01059 1 1.01278 0.997835
1.02238 0.999351 1.02508 0.998011
1.05409 0.999243 1.05732 0.997702
0.678584 0.806859 0.906827 0.927431
0.875751 0.974107 0.931125 0.965531
1.00883 0.997263 1.01382 0.997805
1.00032 1.00132 1.0028 0.996214
0.97796 1.02864 0.953219 0.997389
0.995642 1.01 0.989238 0.99651
1.00741 1.00596 1.00571 0.995754
0.866907 0.972563 0.926548 0.962026
0.852707 0.959322 0.908587 0.978292
0.942555 0.97294 0.972194 0.996478
0.630809 0.775374 0.876062 0.92865
0.519335 0.712131 0.830281 0.878341
1.00424 0.997935 1.00852 0.997811
0.670457 0.80918 0.89537 0.925386
0.541818 0.704282 0.868319 0.885987
0.980699 1.00671 0.976453 0.997657
1.0098 1.00252 1.01023 0.997059
1.01321 1.00394 1.01202 0.997242
0.926581 0.955165 0.972759 0.99724
0.825033 0.949136 0.907402 0.957951
0.81085 0.911448 0.909791 0.977838
0.610994 0.763781 0.86453 0.925312
0.586108 0.793998 0.83713 0.88179
1.00536 0.99745 1.00946 0.998482
0.58113 0.741906 0.881532 0.888559
0.635682 0.817622 0.86871 0.894978
0.983662 0.989201 0.995785 0.998609
1.01738 1.00251 1.01632 0.998533
0.937733 0.945309 0.995678 0.996291
0.831211 0.903931 0.938493 0.979816
0.762773 0.888626 0.898715 0.955112
0.636451 0.763761 0.899275 0.926649
0.659253 0.864284 0.858538 0.888456
1.00412 0.996575 1.00893 0.99865
1.01199 0.998418 1.01482 0.998787
1.01063 0.996343 1.01528 0.999074
0.998525 1 1.00019 0.998332
0.998348 1 1.00046 0.997886
1.00748 1 1.00964 0.997861
1.01175 1 1.01386 0.997914
1.0095 0.998511 1.01264 0.998385
0.998819 1 1.00095 0.997869
1.01049 1 1.01238 0.998132
1.00352 1 1.0058 0.997738
1.02495 0.996099 1.03045 0.998559
1.04263 0.993624 1.05027 0.999094
1.01865 1 1.0205 0.998189
1.00182 1 1.00413 0.997707
0.999753 1 1.00183 0.997931
1.00321 0.99988 1.00512 0.998216
1.00136 1 1.00346 0.997903
1.00161 1.00018 1.00321 0.99822
1.00614 0.998221 1.00942 0.998518
1.00714 0.999485 1.00947 0.998201
1.01469 0.998254 1.01827 0.998234
1.00412 0.995734 1.00987 0.998564
1.00705 1 1.00895 0.998114
1.00302 1.00483 1.00093 0.997275
1.01306 1 1.01523 0.997864
1.0123 0.999761 1.01451 0.998056
1.01274 1 1.01475 0.998018
1.00642 1 1.00818 0.998248
1.0028 1 1.00434 0.998463
1.00478 1 1.00654 0.998244
1.00215 1 1.00363 0.998524
0.999286 1 1.00003 0.999253
0.999993 1 1.00159 0.998405
0.999305 1 1 0.999305
0.999975 1 1 0.999975
0.999336 1 1 0.999336
0.999989 1 1 0.999989
1 1 1 1
0.999997 1 1 0.999997
1 1 1 1
1 1 1 1
0.999079 1 1 0.999079
0.99981 1 1 0.99981
0.999104 1 1 0.999104
1 1 1 1
0.999853 1 1 0.999853
0.999821 1 1 0.999821
1 1 1 1
1 1 1 1
0.999998 1 1 0.999998
1 1 1 1
1 1 1 1
0.656378 0.798928 0.894351 0.918625
0.552245 0.723684 0.861355 0.885933
0.876847 0.966509 0.923375 0.982517
0.968097 1.02437 0.949979 0.994827
1.06765 1.11711 0.958479 0.997125
0.888673 0.959075 0.941004 0.984686
0.982157 1.04095 0.947495 0.995804
0.881915 0.98268 0.9328 0.962113
0.612277 0.77839 0.854396 0.920643
0.506177 0.691691 0.828255 0.88354
0.907329 0.992657 0.92431 0.988889
0.845423 0.955452 0.91893 0.962903
0.602128 0.763407 0.850905 0.926941
0.585561 0.785017 0.843092 0.884744
1.00088 1 1.00266 0.99823
0.99891 1 1.00016 0.998746
0.999265 1 1.0001 0.999167
0.999279 1 1.00063 0.998652
0.999517 1 1.00089 0.998624
0.999774 1 1.00176 0.998016
0.998844 1 1.00049 0.998349
0.999113 1 1.00108 0.99803
0.998685 1 1.00024 0.998445
0.998632 1 1 0.998632
0.995545 1.07149 0.931611 0.997324
0.994172 1.05256 0.947306 0.997066
1.01029 1.02803 0.985918 0.996778
0.977197 1.0019 0.977923 0.997364
1.04816 1.00413 1.04655 0.997416
1.04298 1.00173 1.04392 0.997376
1.01111 1 1.01293 0.998198
1.00637 0.999228 1.00878 0.998388
0.961321 1.03461 0.931813 0.997155
1.01348 1 1.01574 0.997776
1.02174 0.998552 1.02529 0.997984
0.987022 1.01549 0.97485 0.997046
0.972004 1.00206 0.972638 0.997298
0.973291 0.998519 0.976775 0.997911
1.04722 0.999043 1.0507 0.997644
0.946005 1.00218 0.946651 0.997147
0.968502 0.997113 0.973094 0.998162
1.0108 0.991103 1.02175 0.998168
1.0108 1 1.01314 0.997694
1.02431 0.999074 1.0276 0.997723
1.03002 0.999134 1.03315 0.997838
0.606607 0.753402 0.892245 0.902394
0.676314 0.804607 0.905302 0.928477
0.868184 0.97424 0.929792 0.958429
1.00332 0.997017 1.00853 0.997816
1.00942 1.00271 1.00967 0.997053
0.981879 1.00796 0.976444 0.99763
1.01115 1.00227 1.01151 0.997379
0.676852 0.803469 0.905908 0.929909
0.829448 0.950155 0.910976 0.958269
0.806097 0.909062 0.909262 0.975224
0.92772 0.952544 0.97637 0.997511
0.60797 0.771033 0.858337 0.918652
0.531315 0.694152 0.861443 0.888527
0.593373 0.797383 0.837373 0.888672
1.0048 0.997067 1.00934 0.998432
0.584212 0.741019 0.882166 0.893697
0.653408 0.836174 0.873556 0.894534
0.980774 0.986466 0.995499 0.998725
1.01642 1.00104 1.01692 0.998477
0.935234 0.943459 0.994119 0.997146
0.818918 0.909179 0.922073 0.976845
0.792967 0.900332 0.916619 0.960868
0.639067 0.77257 0.89978 0.919332
0.652972 0.856065 0.853767 0.893406
1.00627 0.994831 1.01207 0.999431
0.67826 0.840708 0.892448 0.904
0.664853 0.848204 0.872299 0.898586
0.970932 0.950343 1.02196 0.999715
0.869622 0.904394 0.975398 0.985806
0.795751 0.869721 0.954561 0.958504
0.731477 0.858985 0.92996 0.915695
0.707166 0.909507 0.867213 0.896581
1.00994 0.999004 1.01222 0.998736
1.01305 0.996129 1.01795 0.999059
1.02458 0.98473 1.04114 0.999354
0.998894 1 1.00103 0.997863
1.00265 1 1.00492 0.99774
1.01053 1 1.01249 0.998069
1.02288 0.994518 1.02993 0.998624
1.00221 1 1.00452 0.997707
1.01747 0.999461 1.01987 0.998178
1.04761 0.9934 1.05545 0.999173
1.04143 0.982329 1.06076 0.999446
1.04557 0.994802 1.05202 0.999068
1.01169 0.999562 1.01408 0.99808
1.00111 1 1.00322 0.997891
1.00226 1.00021 1.00387 0.998197
1.00178 0.996794 1.00637 0.998643
1.01359 0.998329 1.01705 0.998259
1.00405 0.999985 1.00588 0.998195
1.00826 0.995828 1.01391 0.998598
1.01392 0.999021 1.01663 0.998309
1.0217 0.992373 1.03063 0.998962
1.00051 1.00158 1.00063 0.998301
1.00568 1.00071 1.00685 0.998121
0.999414 1.00116 1.00069 0.997561
1.009 1.01135 1.00153 0.996157
1.00684 1.00235 1.00691 0.997578
1.00145 1.00307 1.00075 0.997634
1.01236 1 1.01454 0.997857
1.02079 1 1.02306 0.997781
1.00999 1 1.01195 0.998059
1.01263 1 1.01464 0.998019
1.00513 1 1.00688 0.998262
1.0073 1 1.00907 0.998251
1.00456 1 1.0061 0.99846
1.00165 1 1.00248 0.999169
1.00199 1 1.00346 0.998534
1.00009 1 1.00084 0.999254
0.999946 1 1 0.999946
0.999309 1 1 0.999309
0.999967 1 1 0.999967
1 1 1 1
0.999985 1 1 0.999985
1 1 1 1
1 1 1 1
0.998756 1 1.00004 0.998716
0.999728 1 1 0.999728
0.998983 1 1 0.998983
1 1 1 1
0.999816 1 1 0.999816
0.999107 1 1 0.999107
1 1 1 1
1 1 1 1
0.999854 1 1 0.999854
1 1 1 1
1 1 1 1
1 1 1 1
0.565954 0.731331 0.868382 0.891161
0.666202 0.805886 0.894921 0.923736
0.651023 0.837582 0.869329 0.894098
0.549698 0.725473 0.856579 0.884577
0.888052 0.963844 0.938344 0.981905
0.984244 1.03859 0.951392 0.996089
0.879199 0.984458 0.928419 0.961935
0.626906 0.775024 0.871482 0.928173
0.519783 0.717721 0.825331 0.877481
0.912944 0.987309 0.936152 0.987745
0.821802 0.945301 0.910246 0.955076
0.615922 0.770134 0.864856 0.924732
0.573745 0.776712 0.838907 0.880532
0.86678 0.958139 0.919727 0.983607
0.760602 0.873275 0.912983 0.95399
0.667985 0.81175 0.898867 0.91548
0.650934 0.855029 0.859091 0.886169
1.00437 1 1.00659 0.997795
1.00065 1 1.00237 0.99829
0.998788 1 1 0.998788
0.998785 1 1.00003 0.998759
0.998974 1 1.0014 0.997581
0.999194 1 1.00111 0.998083
0.99901 1 1.00067 0.99834
0.998713 1 1.00071 0.998003
0.998853 1 1.00079 0.998069
0.998536 1 1.00015 0.99839
0.962118 1.03575 0.931427 0.997299
0.979092 1.01185 0.970544 0.996989
0.967864 1.00129 0.969154 0.997384
0.975356 1.00024 0.97719 0.997884
1.03827 0.999336 1.04148 0.997584
1.02117 0.998609 1.02469 0.997958
1.01532 1 1.01764 0.997717
1.0102 1 1.01259 0.997635
0.947433 1.0021 0.948048 0.997253
1.0197 0.999109 1.02298 0.997681
1.02909 0.998888 1.03249 0.997816
0.967637 0.998532 0.970841 0.998164
1.0042 0.994157 1.012 0.998124
0.94052 0.970384 0.97173 0.997422
0.957259 0.958925 0.999031 0.999231
1.04245 0.987464 1.0574 0.998377
1.00889 0.999471 1.01162 0.997827
1.03303 0.997437 1.03775 0.998004
0.693052 0.854941 0.891148 0.909663
0.600373 0.752484 0.886006 0.900508
0.66693 0.80002 0.90462 0.921538
1.00481 0.997563 1.00889 0.998386
1.01571 0.999151 1.01818 0.998419
0.975681 0.983957 0.992733 0.998848
0.577269 0.735741 0.8779 0.893734
0.765745 0.88054 0.911082 0.954504
0.823801 0.906405 0.928802 0.978537
0.924531 0.937163 0.98845 0.998048
0.650386 0.785607 0.893119 0.92695
0.666278 0.848045 0.878399 0.894427
0.651142 0.852592 0.854259 0.894014
1.0038 0.99456 1.00992 0.999376
0.680697 0.843498 0.890734 0.905987
0.661477 0.843484 0.872388 0.898934
0.973101 0.95532 1.01913 0.999495
0.881646 0.916651 0.975722 0.985745
0.768507 0.868016 0.929826 0.95218
0.700476 0.903981 0.864931 0.895886
0.74817 0.8611 0.945204 0.919223
0.990928 0.956848 1.03592 0.999711
0.672091 0.834754 0.885552 0.909192
0.707647 0.88846 0.881187 0.903879
0.648861 0.853567 0.857631 0.886367
0.927386 0.918458 1.01354 0.996232
0.859853 0.902452 0.992137 0.960348
0.808832 0.926676 0.944462 0.924158
1.0161 0.996107 1.02105 0.999043
1.02757 0.989085 1.03966 0.99927
1.0379 0.978802 1.06084 0.999566
1.00268 1 1.00499 0.997708
1.01624 0.999157 1.01897 0.998166
1.05203 0.991812 1.06151 0.999251
1.01407 0.999491 1.01653 0.998089
1.04543 0.994699 1.05197 0.999079
1.04846 0.98273 1.0675 0.999421
1.0342 0.975166 1.06107 0.999489
1.03026 0.994066 1.03739 0.999058
1.01248 0.99839 1.01585 0.998287
1.00293 1.0004 1.00434 0.99819
1.01315 0.99687 1.01772 0.998633
1.02096 0.994521 1.02768 0.998933
1.01809 0.999704 1.0201 0.998321
1.00693 0.999274 1.00885 0.99882
1.00087 0.999897 1.00231 0.998664
1.00407 1.00123 1.00585 0.997007
1.00432 1.00201 1.00417 0.998139
1.00097 1.00304 1.00051 0.997436
1.00252 1.00453 1.00227 0.99574
1.02429 1.02757 1.00129 0.995531
1.00963 1.00981 1.00273 0.997094
1.00554 1.00796 1.00138 0.996221
1.01506 1.00026 1.01737 0.997468
1.00812 1.0033 1.00722 0.997604
1.00007 1.0015 1.00059 0.997987
1.01211 1 1.01429 0.99785
1.01972 1 1.02196 0.997805
1.01151 1 1.01351 0.998028
1.01271 1 1.01472 0.998022
1.00458 1 1.00633 0.998261
1.00248 1 1.00348 0.999004
1.00324 1 1.00479 0.998456
1.00141 1 1.00225 0.999165
0.999918 1 1 0.999918
1.00028 1 1.00102 0.999255
0.999938 1 1 0.999938
1 1 1 1
0.999959 1 1 0.999959
1 1 1 1
1 1 1 1
0.998795 1 1.00043 0.998367
0.999438 1 1 0.999438
0.998847 1 1.00013 0.998714
0.999999 1 1 0.999999
0.999659 1 1 0.999659
0.998889 1 1 0.998889
1 1 1 1
1 1 1 1
0.999822 1 1 0.999822
1 1 1 1
1 1 1 1
1 1 1 1
0.691417 0.862687 0.88661 0.903969
0.577166 0.733861 0.876629 0.897163
0.653689 0.798271 0.887543 0.922638
0.999193 1 1.0013 0.9979
0.662553 0.840122 0.873883 0.902454
0.651839 0.83685 0.871366 0.893906
0.566439 0.745113 0.853746 0.890435
0.920702 0.992186 0.940686 0.986464
0.822655 0.936508 0.913061 0.96207
0.609467 0.777923 0.853675 0.917743
0.562108 0.755138 0.841243 0.884856
0.862941 0.954054 0.922969 0.979989
0.78709 0.891197 0.919689 0.960305
0.65506 0.789938 0.904668 0.916639
0.652198 0.855068 0.859249 0.887686
0.804783 0.899423 0.917245 0.975505
0.773351 0.858166 0.94231 0.956338
0.758609 0.867798 0.94978 0.9204
0.705928 0.90509 0.869926 0.896575
1.00202 1 1.00432 0.99771
1.00499 1 1.00724 0.997767
1.00053 1 1.00218 0.998351
0.998725 1 1.00096 0.997771
0.999529 1 1.00187 0.99766
0.99937 1 1.00122 0.998149
0.998665 1 1.00066 0.998002
0.998857 1 1.00075 0.998107
0.949269 1.00301 0.948954 0.997332
0.967992 1.00115 0.968649 0.998176
1.00922 1 1.01168 0.997574
0.997389 0.99686 1.00246 0.998079
1.02876 0.997374 1.03375 0.997793
1.02002 1 1.02244 0.997638
1.0133 0.999993 1.01554 0.997806
0.941723 0.968725 0.974475 0.997589
1.03032 0.998567 1.03386 0.998003
1.03352 0.991728 1.04379 0.998422
0.96097 0.963685 0.997904 0.999276
1.01628 0.999914 1.01834 0.998065
0.924198 0.934619 0.991991 0.996834
0.988846 0.960782 1.02975 0.999476
1.06944 0.99456 1.07687 0.998536
1.05761 0.996812 1.0629 0.998211
0.672484 0.830587 0.886245 0.913574
0.692073 0.854264 0.891519 0.908718
0.595033 0.750426 0.882442 0.898559
1.00038 0.994403 1.00669 0.999322
0.976111 0.959081 1.01849 0.999277
0.686339 0.849391 0.890025 0.90788
0.787858 0.853906 0.961297 0.959799
0.87015 0.914451 0.969511 0.98148
0.738391 0.852673 0.94429 0.917062
0.660751 0.842311 0.872382 0.899204
0.698383 0.902165 0.864768 0.895176
0.999647 0.968507 1.03249 0.999669
0.673409 0.836628 0.885268 0.909225
0.711967 0.888251 0.884689 0.906012
0.943829 0.930159 1.01591 0.998806
0.650372 0.85361 0.858204 0.887792
0.827441 0.88076 0.98239 0.956303
0.806574 0.918464 0.950731 0.923685
0.992782 0.958662 1.03597 0.999635
0.713879 0.874836 0.892355 0.914451
0.663917 0.838357 0.876817 0.903183
0.582711 0.78229 0.841841 0.884821
0.753638 0.863337 0.949138 0.919714
0.925954 0.927379 1.00766 0.990875
0.874238 0.909528 1.01112 0.950627
1.02901 0.994352 1.0357 0.999188
1.03361 0.973706 1.06201 0.999534
1.01771 0.953503 1.06778 0.999582
1.01573 0.998904 1.01878 0.998098
1.04652 0.993418 1.05441 0.999091
1.05693 0.984438 1.07429 0.999396
1.02442 0.993816 1.03178 0.999045
1.03079 0.976533 1.0561 0.999488
0.993556 0.97442 1.02042 0.999235
1.02002 0.996047 1.02519 0.998903
1.02224 0.999124 1.02484 0.998334
1.01267 0.9992 1.0147 0.998793
1.00689 0.997946 1.01097 0.99801
1.00049 0.998487 1.00299 0.999027
0.998114 1.00101 0.999851 0.997257
1.00733 1.00286 1.00945 0.995055
1.00778 1.01016 1.00283 0.994825
1.00247 1.00492 1.00026 0.9973
1.00293 1.00541 1.00205 0.9955
1.02305 1.02707 1.00053 0.995562
1.02037 1.02153 1.00261 0.996266
1.02086 1.02404 1.00125 0.995646
1.01287 1.00579 1.00982 0.997251
1.01279 1.01244 1.00331 0.997051
1.00102 1.00346 1.00128 0.996289
1.01895 1 1.02119 0.997803
1.01443 1.00041 1.01656 0.997501
1.00927 1.00416 1.00748 0.99763
1.01841 1 1.02063 0.997828
1.01167 1 1.01366 0.99803
1.00694 1 1.00818 0.998764
1.00577 1 1.00752 0.99826
1.00315 1 1.00415 0.998998
0.999878 1 1 0.999878
1.00231 1 1.00316 0.999161
0.999911 1 1 0.999911
1 1 1 1
0.99993 1 1 0.99993
1 1 1 1
1 1 1 1
0.999285 1 1.00102 0.99827
0.999704 1 1.00051 0.999193
0.999021 1 1.00059 0.998433
0.99999 1 1 0.99999
0.999411 1 1 0.999411
0.998869 1 1.00016 0.998712
1 1 1 1
1 1 1 1
0.999589 1 1 0.999589
1 1 1 1
1 1 1 1
1 1 1 1
0.677588 0.837739 0.88623 0.912663
0.691335 0.86037 0.888842 0.904022
0.578652 0.732254 0.880788 0.89719
0.999365 1 1.00143 0.997942
1.00509 1 1.00728 0.997824
0.998507 1 1.00056 0.997949
0.71207 0.892285 0.883451 0.903309
0.661409 0.841882 0.870229 0.902787
0.649824 0.838168 0.867442 0.893766
0.868032 0.96082 0.919801 0.9822
0.755886 0.880827 0.89953 0.954004
0.664166 0.779697 0.919499 0.926402
0.655258 0.862389 0.858826 0.884716
0.811242 0.904832 0.916035 0.978747
0.78959 0.868982 0.950595 0.955863
0.749472 0.860317 0.945582 0.921293
0.70093 0.902629 0.866909 0.89576
0.828618 0.898215 0.945277 0.975921
0.829308 0.885311 0.978071 0.957745
0.809948 0.923014 0.949104 0.92456
0.663368 0.866294 0.861531 0.88883
0.9997 0.99988 1.00186 0.997962
1.00174 1 1.00408 0.997664
1.00412 1 1.00639 0.997739
0.998494 1 1.00074 0.997752
0.999403 1 1.00167 0.997739
0.998436 1 1.00044 0.998001
0.938386 0.961842 0.977785 0.997779
0.962957 0.963918 0.999707 0.999296
1.01247 1 1.01472 0.997787
1.02876 0.997723 1.03269 0.998466
1.02637 0.999873 1.02855 0.998002
1.01471 0.998917 1.01776 0.998083
1.03985 0.991377 1.05074 0.998248
0.927973 0.932857 0.997811 0.996946
1.06363 0.990375 1.07539 0.998678
0.989286 0.94945 1.04274 0.999249
1.02509 0.988396 1.03876 0.998418
0.947852 0.931911 1.02077 0.996412
1.00971 0.958467 1.05444 0.999075
1.02772 0.960964 1.07076 0.998792
0.732385 0.888056 0.900682 0.915647
0.678258 0.834219 0.889646 0.913898
0.690336 0.853806 0.890677 0.907781
1.00881 0.979784 1.03001 0.999627
0.932445 0.929151 1.00677 0.996797
0.673656 0.836853 0.885321 0.909261
0.823564 0.866152 0.989718 0.960708
0.798644 0.92194 0.943426 0.918212
0.714269 0.889551 0.884183 0.908132
0.655265 0.861431 0.859525 0.88499
0.985827 0.952559 1.03521 0.999726
0.711374 0.870072 0.893307 0.915255
0.667204 0.846251 0.872582 0.903552
0.920915 0.922903 1.012 0.986018
0.570807 0.772238 0.839177 0.880816
0.748933 0.859145 0.947338 0.920177
0.865602 0.906079 0.996326 0.95885
1.00584 0.945994 1.0656 0.997811
0.679341 0.836432 0.889413 0.913174
0.662865 0.844624 0.877095 0.894778
0.496204 0.668731 0.833463 0.890272
0.654984 0.800187 0.894546 0.915033
0.836938 0.881963 0.991461 0.957122
0.88882 0.908304 0.996434 0.982052
1.02812 0.970318 1.0601 0.999501
1.02738 0.967314 1.06255 0.999575
1.00278 0.963602 1.04124 0.999439
1.01868 0.994834 1.02496 0.999032
1.02714 0.978229 1.05054 0.999487
0.998808 0.971112 1.02922 0.999319
1.01138 0.993313 1.01946 0.998754
1.01982 0.999748 1.02134 0.998764
1.00406 0.999455 1.00693 0.997689
1.02965 1.00104 1.0331 0.995626
0.992254 1.00049 0.994241 0.997511
1.00854 1.0025 1.01094 0.995139
1.00801 1.00401 1.00985 0.9942
1.01378 1.01745 1.00191 0.994491
1.0145 1.01828 1.00108 0.995218
1.00762 1.00977 1.00312 0.994767
1.00304 1.00612 1.00169 0.995263
1.01612 1.01919 1.0011 0.995891
1.02503 1.02901 1.00048 0.995658
1.01216 1.01046 1.00505 0.996652
1.02222 1.02316 1.00274 0.996356
1.01949 1.02263 1.00117 0.995763
1.01747 1.00313 1.01682 0.997524
1.01384 1.00658 1.01001 0.997237
1.01624 1.0154 1.00383 0.997004
1.01402 1 1.01553 0.998511
1.0175 1 1.01974 0.997801
1.01479 1.00069 1.0166 0.997534
1.01131 1 1.0133 0.998032
1.00614 1 1.00738 0.998761
1.00021 1 1.00042 0.999796
1.00261 1 1.00362 0.998992
0.999867 1 1 0.999867
1 1 1 1
0.999904 1 1 0.999904
1 1 1 1
1 1 1 1
0.999206 1 1.00102 0.99819
1.0002 1 1.00107 0.999126
0.999576 1 1.00128 0.998298
0.999964 1 1 0.999964
0.999527 1 1.00028 0.999246
0.999135 1 1.00064 0.998499
1 1 1 1
0.999993 1 1 0.999993
0.999384 1 1 0.999384
1 1 1 1
1 1 1 1
1 1 1 1
0.710845 0.872413 0.8917 0.913764
0.684 0.839329 0.892875 0.912712
0.693593 0.859771 0.892276 0.904113
1.02216 1 1.02452 0.997693
1.00642 1.00069 1.00798 0.997764
0.998954 1 1.00097 0.997986
1.00478 1 1.00699 0.9978
0.999042 1 1.00107 0.997979
1.00562 1 1.00771 0.997917
0.997148 0.998992 1 0.998154
0.671302 0.856329 0.87225 0.898745
0.715178 0.890787 0.886679 0.90547
0.667018 0.84048 0.878748 0.903121
0.699139 0.902145 0.865949 0.894943
0.815252 0.911061 0.91696 0.975876
0.796268 0.867758 0.96083 0.955023
0.755436 0.874524 0.933317 0.925543
0.815026 0.900449 0.928566 0.974764
0.832935 0.878748 0.996659 0.951044
0.805536 0.916507 0.950845 0.924357
0.656277 0.859627 0.854222 0.893731
0.86552 0.906474 0.976024 0.978275
0.853299 0.892146 1.00585 0.950893
0.735112 0.861828 0.930877 0.916306
0.583829 0.786585 0.840306 0.883289
1.04478 0.997776 1.04881 0.998375
1.00165 0.999618 1.00405 0.997997
1.0028 1 1.0052 0.997617
0.998506 1 1.00077 0.997735
0.937769 0.936281 1.00453 0.997076
0.988377 0.941886 1.05039 0.999015
1.01256 0.997995 1.01652 0.998101
1.02942 0.990956 1.0406 0.998285
1.04818 0.976979 1.07414 0.998821
1.02696 0.993998 1.0348 0.99842
1.03845 0.961219 1.08167 0.998779
0.947473 0.930753 1.02362 0.994471
1.0103 0.951095 1.06306 0.999244
1.01196 0.96957 1.04486 0.998906
0.93732 0.914931 1.0314 0.993283
0.986322 0.933882 1.05695 0.999244
0.678128 0.831365 0.892252 0.914182
0.727699 0.882508 0.898133 0.918105
0.68596 0.837952 0.895432 0.914213
0.977056 0.942699 1.03665 0.999805
0.928061 0.92688 1.00995 0.991413
0.707273 0.864564 0.893017 0.916073
0.880798 0.916604 1.00972 0.951685
0.750871 0.869305 0.934212 0.924587
0.673969 0.847409 0.879916 0.903869
0.560362 0.750375 0.843792 0.885023
1.00652 0.948089 1.06365 0.998102
0.684939 0.842602 0.890112 0.91324
0.656199 0.83631 0.877072 0.894608
0.890901 0.908091 0.996047 0.984964
0.509483 0.692523 0.831884 0.884367
0.645608 0.779988 0.903774 0.915843
0.834646 0.882831 0.993317 0.951781
0.989078 0.947745 1.04842 0.995411
0.697321 0.869373 0.886949 0.904332
0.548939 0.716425 0.864025 0.886803
0.601946 0.762757 0.85076 0.927608
0.776637 0.846267 0.958085 0.95787
0.838601 0.881162 0.974096 0.977007
1.03519 0.973201 1.06414 0.99959
1.00736 0.961544 1.04823 0.999452
0.982182 0.967588 1.0159 0.999199
1.00414 0.967689 1.03829 0.999402
1.01188 0.981662 1.03195 0.998869
1.01766 1.0008 1.01933 0.997575
1.00059 1.0009 1.00233 0.997371
1.0294 1.00135 1.03273 0.995435
1.01689 1.00326 1.01921 0.994485
1.01003 1.00243 1.01242 0.995222
1.00925 1.0042 1.01099 0.994104
1.00461 1.00612 1.00448 0.994049
1.04862 1.05413 0.99992 0.994854
1.02786 1.03238 1.00077 0.994862
1.01375 1.0172 1.00218 0.994434
1.01625 1.02068 1.00013 0.995532
1.01248 1.01652 1.00074 0.995282
1.00744 1.00919 1.00357 0.994708
1.01848 1.02083 1.00179 0.995919
1.0164 1.01951 1.00108 0.995864
1.02587 1.0298 1.00043 0.995754
1.01024 1.00489 1.00827 0.99707
1.01312 1.01034 1.006 0.996772
1.02275 1.02343 1.00289 0.996447
1.01671 1.00226 1.01627 0.998188
1.01692 1.00387 1.0155 0.997531
1.01415 1.00755 1.00935 0.997223
1.00284 1 1.00316 0.999679
1.01365 1.00015 1.01501 0.99851
1.01573 1 1.01797 0.997799
1.00605 1 1.0073 0.998758
1.00079 1 1.00101 0.999782
1 1 1 1
0.999856 1 1 0.999856
1 1 1 1
1 1 1 1
1.01621 1.00019 1.01833 0.997715
1.00937 1 1.01143 0.997963
1.00003 1 1.00112 0.998911
1.00076 1 1.00258 0.998185
0.999925 1 1 0.999925
1.00013 1 1.001 0.999128
1.0005 1 1.00218 0.998326
1 1 1 1
0.999972 1 1 0.999972
0.999344 1 1.00005 0.999297
1 1 1 1
0.999997 1 1 0.999997
1 1 1 1
0.677358 0.837928 0.888856 0.909453
0.705522 0.86759 0.88913 0.9146
0.6839 0.842988 0.888832 0.91275
1.02437 1 1.02675 0.997687
1.00963 1.00069 1.01117 0.997794
0.998059 1.00131 0.999192 0.997557
1.02622 0.999969 1.02854 0.997778
1.00696 1.0018 1.00735 0.997823
1.00697 1 1.00922 0.997776
0.999683 1 1.00168 0.998008
1.00666 0.999608 1.00915 0.997923
0.998471 0.999958 1.0003 0.99821
1.02586 0.999647 1.02803 0.998242
0.640642 0.824783 0.867884 0.894981
0.668208 0.849329 0.874979 0.899163
0.713667 0.890208 0.883279 0.907625
0.653939 0.858126 0.852095 0.89433
0.800458 0.919246 0.947865 0.918671
0.810016 0.893901 0.931285 0.97302
0.835826 0.879479 0.993034 0.957031
0.855885 0.910444 0.965113 0.974055
0.856313 0.90554 0.987806 0.957311
0.751781 0.860634 0.948993 0.920471
0.590077 0.79882 0.837674 0.88183
0.880633 0.906751 0.994159 0.976902
0.836958 0.871043 1.00286 0.958131
0.645342 0.76856 0.906248 0.926543
0.535182 0.710595 0.845967 0.89028
1.03579 0.998801 1.03814 0.998928
1.04639 0.997277 1.05095 0.998382
1.00631 1 1.00829 0.998034
0.945184 0.928989 1.02521 0.992413
1.01223 0.947146 1.06938 0.999383
1.02814 0.997184 1.03268 0.998422
1.05283 0.960223 1.09779 0.998767
1.01691 0.974875 1.04425 0.998912
0.99237 0.943547 1.05253 0.999257
0.936083 0.915793 1.02905 0.9933
1.008 0.982474 1.02665 0.999345
0.955716 0.941622 1.02042 0.99466
0.700403 0.860448 0.895242 0.909249
0.688651 0.839978 0.896516 0.914478
0.721637 0.877036 0.893766 0.920613
1.01022 0.958924 1.05526 0.998324
0.886284 0.908698 0.995458 0.979785
0.694112 0.850726 0.893364 0.913295
0.839211 0.883873 0.994883 0.954355
0.650494 0.767696 0.915708 0.925331
0.646103 0.832375 0.867726 0.894541
0.521478 0.717687 0.827219 0.878376
0.98628 0.946726 1.04621 0.995766
0.694582 0.862456 0.890559 0.904324
0.549061 0.721069 0.859959 0.885454
0.852854 0.896461 0.97191 0.978852
0.614985 0.769618 0.863653 0.925231
0.772116 0.858855 0.942397 0.953958
0.932229 0.929969 1.00899 0.993502
0.567732 0.731516 0.870264 0.891802
0.631258 0.784529 0.866117 0.929012
0.76235 0.877108 0.911033 0.954042
0.811728 0.887834 0.933163 0.979764
1.01053 0.961634 1.05141 0.999468
0.985117 0.958936 1.02816 0.999169
0.995602 0.986837 1.01051 0.998391
1.01198 0.968346 1.04613 0.998979
1.0106 0.998937 1.01403 0.997672
0.992101 1.0043 0.991395 0.996432
1.02858 1.00129 1.03217 0.995239
1.01541 1.00447 1.01651 0.994478
1.00349 1.0074 1.00112 0.995001
1.01001 1.0043 1.01175 0.994008
1.00418 1.00643 1.0037 0.994091
1.04087 1.0483 0.997764 0.995134
1.07339 1.08289 0.995513 0.995699
1.06205 1.06741 1.00002 0.994958
1.04949 1.05513 0.999764 0.994889
1.03716 1.04221 1 0.99516
1.0266 1.03086 1.00107 0.994801
1.0146 1.01786 1.00244 0.994377
1.0316 1.03615 1 0.995607
1.01425 1.0187 1.00002 0.995602
1.01029 1.01469 1.00032 0.995346
1.01544 1.01422 1.00481 0.996406
1.01523 1.01671 1.00256 0.995994
1.0176 1.02074 1.0011 0.995836
1.01715 1.0029 1.01652 0.997721
1.01405 1.00707 1.00989 0.997066
1.01409 1.01032 1.00686 0.996891
1.00505 1 1.00551 0.999543
1.0173 1.00277 1.01633 0.998187
1.01702 1.0047 1.01475 0.997538
0.999919 1 1 0.999919
1.00401 1 1.00435 0.999663
1.01315 1.00007 1.01459 0.998508
1.0014 1 1.00164 0.999769
1 1 1 1
1 1 1 1
1.01047 1.00288 1.01007 0.997521
1.01561 1.00009 1.01782 0.997737
1.01912 1.00003 1.02146 0.997687
1.0033 1 1.00463 0.998682
1.00774 1.00005 1.00976 0.997958
0.999924 1 1.00005 0.999874
1.00071 1 1.0018 0.998916
1.00164 1 1.00347 0.998179
1 1 1 1
0.999937 1 1 0.999937
0.999845 1 1.00071 0.999131
1 1 1 1
0.999981 1 1 0.999981
1 1 1 1
0.683507 0.846881 0.887921 0.908962
0.681334 0.842072 0.889617 0.909511
0.706358 0.860644 0.896567 0.915417
1.00791 1.00439 1.00619 0.997326
1.02169 1 1.02406 0.997681
1.00607 1 1.00826 0.997827
1.01914 1 1.02147 0.997716
1.00031 1.00315 0.999594 0.997582
1.0024 1.00083 1.00354 0.998038
1.01683 1.00257 1.01723 0.997049
1.01958 0.993185 1.02856 0.998072
1.00693 0.999265 1.00976 0.99793
0.998267 1 1 0.998267
1.02745 0.998086 1.03124 0.998227
1.04503 1.00132 1.04524 0.998474
0.569855 0.732531 0.874138 0.889935
0.656873 0.841629 0.872481 0.89455
0.668052 0.846484 0.877399 0.899486
0.596602 0.801966 0.83718 0.888608
0.742564 0.854593 0.945664 0.918834
0.857939 0.898084 1.00451 0.951012
0.860103 0.90907 0.970559 0.974835
0.876369 0.903437 0.990606 0.979239
0.528658 0.712413 0.83915 0.884308
0.828967 0.877108 0.991861 0.95287
0.647865 0.777257 0.906937 0.919057
0.875809 0.9108 0.979653 0.981554
0.798322 0.866652 0.959373 0.960165
0.601626 0.760096 0.854401 0.926394
0.986854 1.0013 0.986027 0.99954
1.03798 0.999518 1.03959 0.998934
1.04595 0.997103 1.05068 0.998386
0.939661 0.919383 1.0289 0.993346
0.99964 0.955384 1.04708 0.999273
1.02414 0.984023 1.04189 0.998919
1.00432 0.979439 1.02607 0.999348
0.951213 0.940718 1.01652 0.99472
0.977256 0.975209 1.00548 0.996638
0.60244 0.750062 0.894453 0.897963
0.69618 0.85756 0.890877 0.911253
0.693253 0.846602 0.895214 0.914714
0.985814 0.945369 1.047 0.995972
0.847705 0.894578 0.967198 0.979741
0.690265 0.854453 0.893191 0.904447
0.788648 0.857706 0.963888 0.953934
0.610419 0.779171 0.852999 0.918432
0.569084 0.743397 0.859003 0.891171
0.930926 0.923288 1.01483 0.993536
0.579325 0.734153 0.879032 0.897699
0.615189 0.779039 0.857108 0.921328
0.809828 0.893948 0.928799 0.975346
0.789781 0.897286 0.916523 0.960357
0.92484 0.94472 0.98188 0.997022
0.656483 0.796899 0.896447 0.918957
0.849032 0.95842 0.920021 0.962876
0.805744 0.906939 0.911247 0.974952
0.989389 0.952491 1.03963 0.999144
0.982209 0.985972 0.997709 0.998471
0.98968 1.00033 0.992023 0.997306
1.00371 0.997559 1.00842 0.997769
0.994602 1.00422 0.994014 0.99639
0.998057 1.00954 0.992326 0.996267
1.01488 1.00623 1.0142 0.994471
1.00341 1.00707 1.00138 0.994998
1.0351 1.05003 0.989591 0.996151
1.00379 1.0065 1.00319 0.994132
1.0393 1.04717 0.997336 0.99514
1.06945 1.08554 0.98877 0.996375
1.0656 1.08053 0.989637 0.996508
1.07583 1.08331 0.997475 0.995611
1.0754 1.08494 0.995437 0.99575
1.0685 1.07366 1 0.995191
1.05968 1.06497 1 0.995038
1.04908 1.05486 0.999596 0.994923
1.05414 1.05901 1 0.9954
1.03754 1.04242 1.00014 0.995179
1.02496 1.02886 1.00148 0.994739
1.03524 1.03862 1.00087 0.995875
1.02861 1.03315 1 0.995604
1.01214 1.01654 1 0.995671
1.01187 1.00633 1.00832 0.997211
1.01835 1.017 1.00495 0.996396
1.01188 1.01232 1.0035 0.996071
1.0052 1 1.00597 0.999241
1.01588 1.00464 1.01351 0.997715
1.01702 1.00933 1.01059 0.997061
1 1 1 1
1.00526 1 1.00582 0.999451
1.01746 1.00339 1.01588 0.998185
1 1 1 1
1.00511 1 1.00548 0.99963
1 1 1 1
1.00731 1.0078 1.0023 0.99722
1.00865 1.00245 1.00873 0.99747
1.01612 1.00118 1.0174 0.997567
1.00962 1 1.01117 0.998464
1.01813 1.0001 1.02034 0.997734
1.02531 1 1.02772 0.997658
1.00055 1 1.00076 0.999796
1.00242 1 1.00374 0.998687
1.00658 1 1.00865 0.997952
1 1 1 1
0.999962 1 1.00007 0.999887
1.00097 1 1.00205 0.99892
1 1 1 1
0.999948 1 1 0.999948
1 1 1 1
0.579261 0.739797 0.880162 0.889608
0.688183 0.852821 0.88768 0.909054
0.685564 0.847123 0.889729 0.909587
1.01464 1.00298 1.01438 0.997295
1.02778 1.0107 1.02011 0.996854
1.03293 1.00228 1.0335 0.997185
1.01957 1 1.02197 0.997652
1.00239 1.00585 0.998959 0.997607
1.0002 0.999015 1.00294 0.998246
1.02123 0.997047 1.02633 0.997975
1.01878 1.00265 1.01891 0.997233
1.01895 0.999085 1.02252 0.997429
0.97188 1.00094 0.971971 0.998965
1.02855 0.999239 1.03118 0.998211
1.04002 1.00005 1.04159 0.998437
0.623984 0.780118 0.87193 0.917343
0.543631 0.706875 0.868247 0.885763
0.668701 0.852267 0.877207 0.894447
0.523405 0.71548 0.833086 0.878113
0.659166 0.78809 0.902631 0.926635
0.81697 0.871241 0.982662 0.954252
0.872376 0.898426 0.994787 0.976094
0.861292 0.901442 0.976423 0.978532
0.618118 0.767214 0.871558 0.924399
0.779122 0.862153 0.946943 0.954328
0.839603 0.907944 0.942848 0.980784
0.762608 0.897392 0.889842 0.955007
0.994976 1 0.995907 0.999065
0.986635 1.00074 0.986417 0.999481
1.03859 0.998671 1.04108 0.998939
0.939648 0.932972 1.01242 0.994803
0.997953 0.973536 1.02575 0.999351
0.979328 0.978158 1.00461 0.996598
0.959216 0.98481 0.978599 0.995313
0.681381 0.808081 0.909591 0.92702
0.596871 0.74817 0.888711 0.897675
0.699236 0.859588 0.890829 0.913143
0.932869 0.930679 1.00863 0.99378
0.813987 0.893002 0.934215 0.975704
0.580679 0.733517 0.881911 0.897638
0.758416 0.886348 0.896442 0.954512
0.628517 0.774521 0.873611 0.928893
0.923096 0.948435 0.977826 0.995355
0.668899 0.806851 0.897073 0.924144
0.824661 0.947765 0.910696 0.955436
0.808431 0.90642 0.91203 0.977923
0.930713 0.972219 0.960514 0.996663
0.875672 0.975355 0.933244 0.962019
0.864089 0.957402 0.919205 0.981865
0.967904 0.983545 0.985545 0.998531
0.984218 1.00034 0.986579 0.997269
0.976735 1.00912 0.970779 0.997041
0.996513 1.00379 0.996386 0.99635
0.997535 1.00893 0.992424 0.996255
1.01807 1.05372 0.96913 0.996948
1.00283 1.00632 1.00154 0.994996
1.03173 1.04802 0.988286 0.996123
1.04868 1.08444 0.969936 0.996995
1.03838 1.04665 0.996933 0.995146
1.06791 1.08497 0.987869 0.996362
1.05486 1.0813 0.978478 0.997009
1.06136 1.08065 0.985208 0.996895
1.06562 1.08122 0.988948 0.996585
1.06719 1.07778 0.993795 0.996358
1.07918 1.08481 0.999132 0.995675
1.07649 1.08347 0.997901 0.995645
1.07804 1.08767 0.995327 0.995802
1.07376 1.07875 1 0.995377
1.06982 1.07496 1 0.995215
1.05791 1.0631 1 0.995118
1.05573 1.06038 1 0.99561
1.05563 1.06051 1 0.995398
1.03808 1.04291 1.00017 0.995198
1.0128 1.01557 1.00052 0.996748
1.03516 1.03895 1.00048 0.995881
1.02568 1.0302 1.00001 0.995602
1.00461 1 1.00574 0.998879
1.01435 1.00877 1.00835 0.997205
1.02215 1.02006 1.00568 0.996386
1 1 1 1
1.00561 1 1.0064 0.999217
1.01615 1.00636 1.01205 0.997708
0.999936 1 1 0.999936
1.00604 1 1.0066 0.999446
1 1 1 1
1.01733 1.01438 1.00604 0.996888
1.00674 1.00385 1.00566 0.99723
1.00913 1.00333 1.00841 0.997394
1.00542 1.00161 1.0064 0.997419
1.01559 1.001 1.01704 0.997572
1.01538 1 1.01717 0.99824
1.00187 1 1.00219 0.99968
1.00856 1 1.01011 0.998464
1.01849 1 1.0208 0.997732
1 1 1 1
0.999997 1 1.00018 0.999813
1.00155 1 1.00286 0.998693
1 1 1 1
0.999903 1 1 0.999903
1 1 1 1
0.656237 0.79836 0.889623 0.923967
0.581609 0.739789 0.881588 0.891779
0.68956 0.855551 0.886506 0.909169
1.01993 1.00163 1.02106 0.997264
1.0407 1.00195 1.04191 0.996901
1.02251 1.00997 1.01558 0.996892
1.01406 1.01579 1.00242 0.995886
1.03111 1.0039 1.02986 0.99733
1.0195 0.99998 1.02168 0.997884
1.02012 1.00327 1.01943 0.997417
1.01998 1.00073 1.02174 0.997552
0.995598 1.00782 0.990718 0.99713
0.960943 1.00124 0.961243 0.99845
0.968734 1.00058 0.97045 0.997657
0.977613 1.00118 0.977451 0.998984
1.03417 0.998959 1.0369 0.998402
0.824214 0.942085 0.911296 0.960042
0.617789 0.775893 0.865673 0.919781
0.53297 0.696232 0.861866 0.888195
0.615309 0.776134 0.863757 0.917836
0.784062 0.866274 0.946056 0.956705
0.870485 0.902087 0.983083 0.981573
0.837358 0.905222 0.941034 0.982992
0.796957 0.901664 0.918991 0.961787
0.853916 0.951698 0.913726 0.981975
0.98925 1.00086 0.990153 0.998231
0.996087 0.999723 0.997323 0.999037
0.986972 1.00037 0.987172 0.999424
0.983772 0.983267 1.0039 0.996629
0.968529 0.987712 0.98448 0.996036
0.864467 0.96509 0.93483 0.958183
0.679375 0.806308 0.907691 0.928262
0.589867 0.743873 0.883572 0.897456
0.926669 0.956768 0.97481 0.993569
0.814028 0.917537 0.909703 0.97525
0.658138 0.800836 0.890289 0.923086
0.827513 0.941721 0.913341 0.962098
0.939306 0.97392 0.967581 0.996774
0.883629 0.983065 0.934372 0.961984
0.86094 0.954095 0.921982 0.978721
0.935932 1.00011 0.939533 0.996054
0.905631 0.98857 0.92772 0.987477
0.981882 1.00215 0.98247 0.997262
0.970916 1.00902 0.965138 0.996998
0.9766 1.04357 0.938316 0.997346
0.996666 1.00837 0.992121 0.996241
1.02134 1.05568 0.970466 0.996912
1.0386 1.089 0.956285 0.997313
1.02826 1.04593 0.986962 0.996095
1.0488 1.08416 0.970331 0.996966
1.04433 1.08343 0.966588 0.997232
1.06577 1.08379 0.986973 0.99635
1.05464 1.0806 0.978931 0.996986
1.05722 1.08509 0.977168 0.997082
1.05934 1.0796 0.984238 0.996952
1.06285 1.08033 0.98708 0.996703
1.06536 1.08155 0.988325 0.996663
1.06682 1.07763 0.993599 0.99635
1.06904 1.07661 0.996842 0.996112
1.0782 1.08307 0.999879 0.995617
1.07952 1.08493 0.999351 0.995662
1.07702 1.0835 0.998336 0.995679
1.06863 1.07346 1 0.995505
1.07553 1.08054 1 0.995367
1.07113 1.07626 1 0.995239
1.02555 1.02927 1 0.996386
1.05497 1.05962 1 0.995616
1.05693 1.06182 1 0.995396
1.00112 1.00018 1.00247 0.99847
1.01632 1.01869 1.00093 0.996752
1.03508 1.03913 1.00022 0.995887
1 1 1 1
1.00394 1 1.0051 0.998851
1.01563 1.01117 1.00724 0.997199
1 1 1 1
1.0053 1 1.00611 0.999193
1 1 1 1
1.02711 1.03043 1.00082 0.995961
1.01674 1.01676 1.00311 0.996878
1.00957 1.00664 1.00592 0.997011
1.00685 1.00032 1.00931 0.99724
1.00818 1.00188 1.00896 0.997347
1.01432 1.00187 1.01453 0.997918
1.01782 1.00073 1.01956 0.997576
1.01664 1 1.01844 0.998234
1.0064 1 1.0069 0.999503
1 1 1 1
1.00198 1 1.00229 0.999695
1.00985 1 1.0114 0.998464
1 1 1 1
1.0001 1 1.00027 0.999827
1 1 1 1
0.874324 0.972811 0.932181 0.964148
0.669843 0.808484 0.89564 0.925056
0.576563 0.737889 0.879147 0.88878
1.05015 1.00153 1.05211 0.996615
1.01786 1.01073 1.01015 0.99693
1.02613 1.00411 1.02484 0.997157
1.01298 1.01478 1.00224 0.995989
1.03593 1.04025 1.00016 0.995687
0.999767 1.0102 0.992847 0.9968
1.02402 1.0027 1.02365 0.99767
0.997292 1.00961 0.990869 0.996907
0.970243 1.00227 0.969569 0.998432
0.997321 1.00535 0.994854 0.997144
0.972055 1.00345 0.971065 0.997578
0.992844 1.00162 0.994101 0.997125
0.967601 1.00091 0.968891 0.997756
0.984032 0.999927 0.985086 0.999004
0.8667 0.964439 0.915285 0.981834
0.830064 0.951637 0.909453 0.959091
0.633908 0.776436 0.880101 0.927658
0.768786 0.889528 0.905665 0.954285
0.849641 0.907592 0.951247 0.984128
0.859397 0.940741 0.92587 0.986675
0.956083 1.00366 0.956118 0.996321
0.986202 1.00016 0.987897 0.998125
0.996514 0.999072 0.998428 0.99901
0.97375 0.989404 0.987393 0.996744
0.895352 0.973451 0.936123 0.982531
0.875568 0.971284 0.933765 0.965397
0.668884 0.801338 0.906074 0.921238
0.937207 0.969292 0.9699 0.996905
0.861713 0.956488 0.918796 0.980537
0.880379 0.983576 0.930719 0.961708
0.933891 0.998164 0.939182 0.996195
0.909405 0.985825 0.935155 0.986447
0.944757 1.02547 0.924497 0.99653
0.957161 1.02461 0.939016 0.994836
0.964404 1.00887 0.958855 0.996946
0.974085 1.04044 0.93871 0.997348
1.00703 1.08485 0.930794 0.997284
1.02548 1.05823 0.972083 0.996877
1.03837 1.08847 0.956574 0.997287
1.05325 1.09303 0.966326 0.99718
1.04934 1.08428 0.970749 0.996937
1.04571 1.08324 0.968055 0.997212
1.06349 1.09374 0.975232 0.997038
1.05466 1.08021 0.979321 0.996963
1.05578 1.08289 0.977826 0.997076
1.06326 1.08624 0.98198 0.996808
1.05754 1.07879 0.98324 0.997009
1.06224 1.08011 0.986669 0.996749
1.06773 1.07985 0.992367 0.996374
1.06652 1.07756 0.993389 0.996342
1.06977 1.07717 0.997014 0.996103
1.07427 1.0797 0.999067 0.995905
1.07126 1.07601 1 0.995578
1.07885 1.0837 0.999941 0.995586
1.07982 1.08498 0.999595 0.99565
1.04246 1.04644 1 0.996191
1.0675 1.07232 1 0.995512
1.07753 1.08255 1 0.995356
1.00155 1.00307 1.00031 0.998171
1.02566 1.02922 1.00016 0.996386
1.05358 1.05822 1 0.995622
1 1 1 1
1.00112 1.00089 1.00178 0.998446
1.01984 1.02168 1.00145 0.996756
1 1 1 1
1.00367 1 1.00485 0.998825
1 1 1 1
1.04599 1.05055 1 0.995654
1.02764 1.03127 1.00049 0.995989
1.0254 1.0271 1.00204 0.996313
1.01655 1.01822 1.0015 0.996869
1.01111 1.00922 1.00495 0.996935
1.0138 1.00895 1.00733 0.997491
1.00668 1 1.00941 0.997301
1.01367 1.00133 1.01443 0.99792
1.00653 1 1.00727 0.999268
1.01512 1 1.01692 0.99823
1.00463 1 1.00511 0.999514
1 1 1 1
1 1 1 1
1.00084 1 1.00113 0.999711
1 1 1 1
0.889802 0.964965 0.937877 0.983187
0.864954 0.969037 0.932339 0.957368
0.67483 0.801375 0.905939 0.929522
1.06126 1.06583 1.00001 0.995703
1.02 1.00371 1.01929 0.996988
1.01268 1.01453 1.00208 0.996093
1.00019 1.01073 0.992737 0.996812
1.03516 1.03923 1.00042 0.99567
1.02077 1.02495 0.999168 0.996752
1.00048 1.01149 0.992406 0.996684
0.97709 1.00234 0.976356 0.998412
0.996127 1.00716 0.991867 0.997158
0.964001 1.00261 0.963967 0.997432
1.02254 1.02324 1.00291 0.996406
0.978833 1.00771 0.974047 0.997223
0.99169 1.00223 0.992348 0.997115
0.967928 1.00134 0.968715 0.997855
0.942401 1.00537 0.940238 0.996942
0.855003 0.956442 0.91207 0.980124
0.831122 0.955913 0.907202 0.958391
0.858325 0.934455 0.93327 0.984207
0.958951 1.00365 0.957843 0.997517
0.985231 0.999948 0.987252 0.998005
0.964195 1.01256 0.95854 0.993424
0.890249 0.95838 0.944185 0.983822
0.866313 0.971113 0.930853 0.958348
0.936824 0.996943 0.943159 0.996329
0.91684 0.988346 0.941537 0.985252
0.947575 1.02741 0.925312 0.996738
0.963944 1.02514 0.944812 0.995232
0.990657 1.05715 0.939885 0.997034
1.05687 1.10929 0.955649 0.99696
0.970436 1.03666 0.938604 0.99735
1.0134 1.08651 0.935268 0.997265
1.04761 1.10853 0.947856 0.997032
1.03783 1.08748 0.956965 0.997262
1.04941 1.09072 0.964845 0.997177
1.06564 1.10349 0.968692 0.996919
1.04688 1.08282 0.969531 0.997192
1.06086 1.09167 0.974654 0.997052
1.06732 1.09126 0.981239 0.996759
1.0543 1.0806 0.978534 0.997071
1.0638 1.08673 0.982031 0.996806
1.06743 1.08439 0.987814 0.996501
1.06154 1.07979 0.986257 0.996795
1.0674 1.07996 0.991917 0.99642
1.07587 1.08282 0.997482 0.996087
1.07049 1.07775 0.997167 0.996093
1.07438 1.07957 0.999285 0.995903
1.07255 1.07719 1 0.995697
1.04968 1.05374 1 0.996141
1.07066 1.07543 1 0.995567
1.07942 1.08424 1 0.995554
1.01079 1.01276 1 0.998056
1.0401 1.04408 1 0.996191
1.0666 1.0714 1 0.995519
1 1 1 1
1.00453 1.00629 1.0001 0.998154
1.02671 1.03037 1.00006 0.996387
1 1 1 1
1.00122 1.00194 1.00086 0.998421
1 1 1 1
1.06225 1.06703 1 0.995521
1.04517 1.04973 1 0.995646
1.04969 1.05402 1 0.99589
1.0278 1.03166 1.00024 0.996017
1.03026 1.03188 1.00215 0.996279
1.02198 1.02155 1.00335 0.997078
1.01217 1.0118 1.00352 0.996859
1.01102 1.00564 1.00787 0.997496
1.00366 1 1.00466 0.999004
1.01424 1.00037 1.01598 0.997919
1.00621 1 1.00693 0.999283
1 1 1 1
1.00405 1 1.00453 0.999526
1 1 1 1
1 1 1 1
0.948095 1.01049 0.941661 0.996375
0.880725 0.964495 0.932124 0.979639
0.863912 0.967503 0.925798 0.964497
1.05784 1.06198 0.999798 0.996308
1.0689 1.07735 0.996148 0.995991
1.0602 1.06475 0.999931 0.9958
1.00053 1.01141 0.992402 0.996822
1.03396 1.03771 1.00073 0.995653
1.02394 1.02898 0.998354 0.996743
1.04773 1.0647 0.987685 0.996325
0.995579 1.00892 0.989573 0.997174
0.958787 1.00214 0.959338 0.997287
1.02588 1.02683 1.00252 0.996561
1.0257 1.05814 0.972912 0.99633
0.981787 1.03075 0.955034 0.997347
0.989137 1.01102 0.981147 0.99715
0.993747 1.00275 0.993899 0.997104
0.94183 1.00655 0.938223 0.997308
0.863382 0.960874 0.918372 0.978404
0.959494 1.00257 0.958222 0.998757
1.03863 1.07977 0.964354 0.997461
0.959777 1.0113 0.955172 0.99359
0.892287 0.965255 0.941979 0.981345
0.950552 1.02974 0.925946 0.99693
0.9691 1.02553 0.949104 0.995651
0.984766 1.0573 0.93398 0.997238
1.05346 1.10795 0.953681 0.996993
1.05703 1.12189 0.945029 0.99699
1.10403 1.14906 0.963546 0.997159
1.01985 1.08921 0.938907 0.997247
1.05369 1.11174 0.950602 0.997032
1.06742 1.11326 0.961852 0.996847
1.04537 1.08849 0.963105 0.997174
1.06567 1.10297 0.969166 0.996921
1.06618 1.09659 0.975459 0.996731
1.05821 1.08961 0.974045 0.997066
1.06837 1.09226 0.981314 0.996756
1.06916 1.08768 0.986414 0.996516
1.06436 1.08726 0.982076 0.996803
1.06802 1.08494 0.98786 0.996499
1.07693 1.0871 0.994453 0.99617
1.06703 1.08005 0.991455 0.996465
1.07499 1.08227 0.997166 0.996097
1.07723 1.08181 1 0.995771
1.07449 1.07943 0.999523 0.995902
1.07222 1.07684 1 0.99571
1.05022 1.05429 1 0.996137
1.01707 1.01904 1 0.998061
1.04972 1.05378 1 0.996143
1.07038 1.07516 1 0.995557
1 1 1 1
1.01227 1.01425 1 0.998047
1.03693 1.04077 1.00012 0.996191
1 1 1 1
1.00659 1.00847 1 0.998136
1 1 1 1
1.07107 1.07636 0.999379 0.995696
1.06145 1.06621 1 0.99554
1.06391 1.06852 1 0.995692
1.04396 1.04854 1 0.995636
1.05081 1.05515 1 0.995888
1.02742 1.0301 1.0007 0.996712
1.03498 1.03659 1.00221 0.996246
1.01731 1.01692 1.00331 0.99708
1.00134 1.00065 1.00204 0.998659
1.00862 1.00321 1.00791 0.997503
1.00421 1 1.00519 0.999024
1 1 1 1
1.00555 1 1.00625 0.999298
1 1 1 1
1 1 1 1
0.988483 1.05615 0.938112 0.997677
0.947098 1.00894 0.943316 0.99511
0.883293 0.967668 0.930907 0.980556
1.06167 1.07531 0.991046 0.996238
1.05674 1.06107 0.999388 0.99653
1.07642 1.0908 0.990611 0.996171
1.06832 1.07808 0.994961 0.995969
1.05884 1.06339 0.999816 0.995898
1.0693 1.09879 0.976924 0.996146
1.02737 1.03321 0.997609 0.996734
1.04593 1.06187 0.988676 0.996262
1.04882 1.10171 0.955366 0.996472
1.02424 1.03011 0.997577 0.996714
1.02645 1.05938 0.972576 0.996233
0.978283 1.03617 0.946604 0.997393
0.995595 1.01275 0.985944 0.997073
0.94137 1.00718 0.936895 0.997618
1.08963 1.13857 0.959702 0.997199
1.04519 1.08418 0.966465 0.997489
0.959685 1.0094 0.956713 0.993764
0.979264 1.05689 0.92893 0.997439
1.05031 1.10657 0.951989 0.997027
1.04993 1.11798 0.941948 0.997011
1.11107 1.1549 0.964796 0.997158
1.08454 1.1285 0.963897 0.997041
1.05957 1.11444 0.953586 0.997033
1.06818 1.11218 0.963462 0.996857
1.06689 1.10085 0.972275 0.996784
1.06577 1.10243 0.969731 0.996923
1.06688 1.09676 0.975965 0.996712
1.06833 1.08902 0.984442 0.996513
1.06945 1.09327 0.981399 0.996752
1.06961 1.08812 0.986434 0.996511
1.07631 1.08902 0.992066 0.996229
1.06861 1.0855 0.987906 0.996496
1.07686 1.08701 0.994473 0.99617
1.08225 1.0871 0.999709 0.995835
1.07414 1.08176 0.996834 0.996107
1.07719 1.08176 1 0.995777
1.05093 1.05502 1 0.996118
1.0717 1.07631 1 0.995723
1.05129 1.05537 1 0.996139
1.01745 1.01903 1 0.998447
0.999325 1 1 0.999325
1.01727 1.01908 1 0.998222
1.04946 1.05352 1 0.996145
1 1 1 1
1.01452 1.01651 1 0.998037
1 1 1 1
1.08013 1.09285 0.99204 0.996295
1.07391 1.08178 0.996735 0.995981
1.07061 1.07656 0.998738 0.995726
1.06365 1.06827 1 0.99568
1.0612 1.06593 1 0.99556
1.06203 1.06664 1 0.995682
1.03088 1.0345 1.00009 0.996417
1.05181 1.05615 1 0.995886
1.02632 1.02892 1.00077 0.99671
1.00404 1.00555 1.0002 0.998288
1.01243 1.01198 1.00337 0.997082
1.00197 1.00051 1.00278 0.998679
1 1 1 1
1.00461 1 1.00557 0.999044
1 1 1 1
1 1 1 1
1.07551 1.12929 0.955304 0.996933
0.999534 1.06703 0.938938 0.997666
0.944139 1.00902 0.941473 0.993871
1.06986 1.09218 0.983292 0.99621
1.05733 1.07142 0.990534 0.996281
1.05568 1.06016 0.999019 0.99675
1.07562 1.08879 0.991691 0.996185
1.06768 1.07866 0.99385 0.995948
1.075 1.11613 0.966579 0.99645
1.06341 1.09368 0.976133 0.996103
1.04454 1.05953 0.989614 0.9962
1.04345 1.09559 0.955781 0.996473
1.03231 1.06313 0.974773 0.996136
0.977053 1.04566 0.936778 0.997449
1.08019 1.1177 0.969205 0.997151
1.0908 1.13917 0.960192 0.997237
1.05072 1.08931 0.966982 0.997517
1.04309 1.11469 0.938551 0.997029
1.11846 1.16124 0.965909 0.997158
1.08656 1.13079 0.963739 0.997044
1.07458 1.10193 0.978199 0.996913
1.0689 1.11104 0.965098 0.996868
1.06759 1.10071 0.97306 0.996767
1.06974 1.09024 0.984578 0.996566
1.0676 1.09695 0.976479 0.996692
1.06902 1.08966 0.984486 0.996512
1.07471 1.08846 0.991077 0.996264
1.07009 1.08859 0.986454 0.996507
1.07657 1.08925 0.992104 0.996227
1.08479 1.09031 0.999057 0.995882
1.07673 1.08685 0.994492 0.996169
1.08232 1.08719 0.999677 0.995839
1.05152 1.05567 1 0.99607
1.07717 1.08173 1 0.995784
1.05228 1.05637 1 0.996121
1.01577 1.01733 1 0.998472
1.05271 1.05678 1 0.99614
1.01699 1.01858 1 0.99844
0.999359 1 1 0.999359
0.99968 1 1 0.99968
1.01757 1.0192 1 0.998399
1 1 1 1
1.0712 1.08982 0.986559 0.99631
1.07688 1.085 0.996407 0.996097
1.07814 1.09134 0.991452 0.996426
1.07289 1.07747 1 0.995758
1.0763 1.08372 0.997168 0.995976
1.07012 1.07682 0.998013 0.995756
1.06433 1.06896 1 0.995668
1.04542 1.04935 1 0.996257
1.06105 1.06566 1 0.995672
1.03528 1.03898 1.00002 0.996418
1.01262 1.01455 1 0.998102
1.0255 1.02835 1.00052 0.99671
1.00274 1.0037 1.00074 0.998312
1 1 1 1
1.00233 1.00014 1.0035 0.9987
1 1 1 1
1 1 1 1
1.07442 1.11314 0.968303 0.996812
1.06661 1.1194 0.95577 0.996935
1.01008 1.0753 0.941562 0.997649
1.07184 1.09974 0.978162 0.996385
1.06719 1.08979 0.982997 0.996205
1.05274 1.0673 0.989998 0.996325
1.07454 1.08668 0.992602 0.9962
1.07503 1.11497 0.967636 0.996424
1.05693 1.08773 0.975526 0.99606
1.0343 1.08455 0.957044 0.996474
1.07816 1.10451 0.979104 0.996979
1.07892 1.11583 0.969729 0.997107
1.09161 1.13912 0.96091 0.997275
1.07351 1.09461 0.983857 0.996821
1.0883 1.1328 0.963562 0.997048
1.07418 1.10166 0.978094 0.996899
1.07211 1.09091 0.986037 0.996684
1.06831 1.10055 0.973871 0.99675
1.07003 1.09055 0.984555 0.996569
1.07437 1.08723 0.991842 0.996298
1.06965 1.09026 0.984531 0.996511
1.07499 1.08874 0.991078 0.996263
1.08522 1.09125 0.998539 0.995924
1.07679 1.08943 0.992143 0.996224
1.08427 1.08985 0.998989 0.995885
1.05078 1.05498 1 0.996022
1.08237 1.08728 0.999646 0.995844
1.05257 1.05672 1 0.996075
1.01373 1.01531 1 0.998449
1.05362 1.05772 1 0.996124
1.01512 1.01669 1 0.998456
0.999361 1 1 0.999361
1.01639 1.01798 1 0.998436
0.999377 1 1 0.999377
1 1 1 1
1.07021 1.08895 0.986517 0.996223
1.07635 1.08871 0.992496 0.996118
1.07313 1.09099 0.987282 0.996309
1.081 1.08577 0.999755 0.995852
1.07712 1.08684 0.994887 0.996151
1.07633 1.08996 0.990904 0.996557
1.05608 1.06013 1 0.996181
1.07323 1.07782 1 0.995746
1.07906 1.08591 0.99771 0.995971
1.0649 1.06955 1 0.995656
1.04614 1.05007 1 0.996256
1.01881 1.02077 1 0.998078
1.03845 1.04218 1 0.996418
1.00976 1.01166 1 0.998118
1 1 1 1
1.00155 1.00195 1.00127 0.998334
1 1 1 1
1 1 1 1
1.0735 1.09952 0.979564 0.996703
1.07554 1.11514 0.967599 0.996788
1.05986 1.11267 0.95546 0.996939
1.07144 1.0992 0.978259 0.996403
1.06443 1.08737 0.982643 0.9962
1.07595 1.11498 0.968488 0.996398
1.07581 1.09602 0.98469 0.996819
1.07819 1.10432 0.979305 0.996974
1.0781 1.1144 0.970274 0.997063
1.07382 1.09461 0.984114 0.996843
1.07067 1.0868 0.988467 0.99665
1.07377 1.1014 0.977958 0.996884
1.07257 1.09077 0.986627 0.996646
1.07326 1.08591 0.991931 0.996391
1.07033 1.09088 0.984535 0.996572
1.07434 1.08723 0.991811 0.9963
1.08404 1.0908 0.997845 0.995951
1.07538 1.08913 0.991076 0.996262
1.08453 1.09064 0.998462 0.995925
1.04963 1.05384 1 0.996
1.08383 1.08948 0.998921 0.995888
1.05187 1.05606 1 0.996026
1.01147 1.01309 1 0.998399
1.05365 1.0578 1 0.996078
1.01304 1.01463 1 0.998427
0.999335 1 1 0.999335
1.01447 1.01605 1 0.998445
0.999392 1 1 0.999392
0.999388 1 1 0.999388
1.07159 1.08989 0.986663 0.996496
1.07681 1.08886 0.99282 0.996082
1.06966 1.08979 0.985231 0.996247
1.08241 1.08916 0.997881 0.995913
1.07693 1.08842 0.993317 0.996102
1.07506 1.09215 0.988 0.996308
1.0555 1.05959 1 0.996138
1.08009 1.08556 0.99909 0.995867
1.07723 1.0886 0.993328 0.996206
1.01819 1.02012 1 0.998106
1.05441 1.05845 1 0.99618
1.07345 1.07805 1 0.995735
1.04697 1.05091 1 0.996255
1.01757 1.01952 1 0.998087
1 1 1 1
1.00719 1.00905 1.00002 0.998135
1 1 1 1
1 1 1 1
1.07214 1.09152 0.985495 0.996709
1.07364 1.09961 0.979618 0.996691
1.07583 1.11627 0.966898 0.996764
1.0714 1.09886 0.978514 0.99642
1.07139 1.08478 0.991021 0.996608
1.07589 1.09629 0.984507 0.996831
1.07821 1.1041 0.979512 0.99697
1.0742 1.09465 0.984399 0.996864
1.07073 1.08724 0.988122 0.996659
1.07389 1.08515 0.993224 0.996377
1.07308 1.09064 0.987244 0.996609
1.07423 1.08613 0.992676 0.99634
1.08206 1.08959 0.997048 0.996031
1.07433 1.08725 0.991781 0.996302
1.08341 1.09013 0.997873 0.995953
1.04819 1.05241 1 0.99599
1.0836 1.08977 0.998403 0.995927
1.05061 1.05483 1 0.996002
1.00862 1.01062 1 0.998024
1.05282 1.05702 1 0.996029
1.01055 1.01235 1 0.99822
1 1 1 1
1.01233 1.01395 1 0.998407
0.999372 1 1 0.999372
0.999414 1 1 0.999414
1.07109 1.08586 0.989762 0.996602
1.07533 1.08777 0.992308 0.996227
1.07204 1.08932 0.987607 0.99649
1.08225 1.08877 0.998109 0.995894
1.07617 1.08833 0.992712 0.996082
1.06916 1.09066 0.983953 0.996272
1.05174 1.05589 1 0.99607
1.08253 1.08891 0.998219 0.995914
1.07759 1.08817 0.994172 0.996087
1.01452 1.01642 1 0.998131
1.05396 1.05806 1 0.996123
1.07891 1.08504 0.998462 0.995882
1 1 1 1
1.01895 1.02087 1 0.998114
1.05269 1.05672 1 0.996178
1.01629 1.01823 1 0.998098
1 1 1 1
1 1 1 1
1.06996 1.08266 0.991634 0.99661
1.07306 1.09199 0.985905 0.996715
1.07364 1.09957 0.97967 0.996679
1.07476 1.08449 0.994692 0.99632
1.07052 1.08445 0.990497 0.996618
1.07596 1.09658 0.984302 0.996842
1.07074 1.08766 0.987732 0.996669
1.07381 1.08516 0.993143 0.996378
1.08213 1.0887 0.997928 0.996026
1.07512 1.08628 0.993418 0.996288
1.08232 1.08939 0.997516 0.995986
1.04613 1.05048 0.99985 0.996009
1.08288 1.08958 0.997882 0.995955
1.04898 1.0532 1 0.995991
1.00614 1.00814 1 0.998018
1.05183 1.05605 1 0.996004
1.0079 1.0099 1 0.998022
1 1 1 1
1.00967 1.01168 1 0.99801
0.999658 1 1 0.999658
0.999405 1 1 0.999405
1.06703 1.0798 0.991571 0.996572
1.07534 1.08528 0.994503 0.996317
1.07053 1.08513 0.989897 0.996611
1.08177 1.08762 0.998716 0.995893
1.07579 1.08795 0.992584 0.996215
1.07242 1.08866 0.988555 0.996483
1.04923 1.05343 1 0.996014
1.08255 1.08859 0.998572 0.99587
1.07545 1.08775 0.99258 0.996081
1.01101 1.01292 1 0.99811
1.05082 1.05498 1 0.996061
1.08258 1.08865 0.998501 0.995914
1 1 1 1
1.01569 1.01758 1 0.998139
1.05275 1.05686 1 0.996108
1 1 1 1
1.01975 1.02166 1 0.998123
1 1 1 1
1.07552 1.08472 0.995144 0.996353
1.06915 1.08197 0.991525 0.996597
1.07396 1.09241 0.986337 0.996721
1.08237 1.08865 0.998206 0.996019
1.07428 1.0844 0.994309 0.996338
1.06964 1.08413 0.989976 0.996628
1.07376 1.08517 0.993083 0.996378
1.08146 1.0882 0.997772 0.996026
1.04352 1.04771 0.999975 0.99602
1.08255 1.08922 0.997933 0.99594
1.04685 1.05116 0.999909 0.995993
1.00402 1.00603 1 0.998004
1.04962 1.05385 1 0.995992
1.00544 1.00744 1 0.998016
1 1 1 1
1.00707 1.00907 1 0.99802
1 1 1 1
0.999377 1 1 0.999377
1.07531 1.08431 0.995358 0.996327
1.06593 1.07957 0.990749 0.996586
1.0817 1.08735 0.998842 0.995956
1.07579 1.08571 0.994525 0.996317
1.06995 1.08443 0.99 0.996619
1.04691 1.05112 1 0.995997
1.08229 1.08804 0.998817 0.99589
1.07637 1.08824 0.992856 0.996203
1.00797 1.00993 1 0.998059
1.04881 1.05302 1 0.996005
1.08292 1.08846 0.999056 0.995846
1 1 1 1
1.01197 1.01388 1 0.998115
1.04997 1.05413 1 0.996053
1 1 1 1
1.0168 1.01869 1 0.998147
1 1 1 1
1.08239 1.08836 0.998479 0.996032
1.07552 1.0846 0.995269 0.996344
1.06834 1.08127 0.991431 0.996584
1.04157 1.04571 1 0.996038
1.08178 1.08811 0.998155 0.996019
1.07376 1.08428 0.993919 0.996356
1.08083 1.0877 0.997648 0.996027
1.04418 1.04849 0.999872 0.996017
1.00259 1.00459 1 0.998009
1.04762 1.05185 1 0.995977
1.00358 1.00559 1 0.998003
1 1 1 1
1.00478 1.00678 1 0.998015
1 1 1 1
1 1 1 1
1.08259 1.088 0.999029 0.995992
1.07495 1.08441 0.99488 0.996376
1.06492 1.07942 0.989932 0.996601
1.04477 1.04894 1 0.996023
1.08215 1.08772 0.998924 0.995953
1.07623 1.08611 0.994564 0.996316
1.00528 1.00727 1 0.998026
1.04613 1.05034 1 0.995995
1.08275 1.08839 0.998921 0.995887
1 1 1 1
1.00881 1.01076 1 0.998062
1.04834 1.05256 1 0.995996
1 1 1 1
1.01287 1.01477 1 0.998121
1 1 1 1
1.0414 1.04555 1 0.996031
1.08188 1.08796 0.998363 0.996039
1.07552 1.08451 0.995364 0.996334
1.00145 1.00341 1 0.99805
1.04221 1.04641 0.999957 0.996035
1.08121 1.08758 0.998111 0.99602
1.04481 1.04926 0.99975 0.996013
1.00224 1.00423 1 0.99801
1 1 1 1
1.00316 1.00517 1 0.998001
1 1 1 1
1 1 1 1
1.04257 1.04672 1 0.99604
1.08219 1.08783 0.998779 0.996024
1.07453 1.08444 0.994417 0.996424
1.00328 1.00489 1 0.99839
1.04393 1.0481 1 0.996022
1.08249 1.08798 0.999002 0.99595
1 1 1 1
1.00601 1.008 1 0.998027
1.04537 1.04958 1 0.995992
1 1 1 1
1.00965 1.01161 1 0.998065
1 1 1 1
1.00083 1.00281 1 0.998026
1.04132 1.04547 0.999986 0.996041
1.08141 1.08757 0.998276 0.996045
1 1 1 1
1.00123 1.00319 1 0.998048
1.04287 1.04712 0.999905 0.996033
1.00189 1.00389 1 0.998009
1 1 1 1
1 1 1 1
1.00169 1.00333 1 0.998373
1.04226 1.04641 1 0.996041
1.08188 1.08777 0.99852 0.996056
1 1 1 1
1.00363 1.0056 1 0.998033
1.0433 1.04747 1 0.996022
1 1 1 1
1.00674 1.00873 1 0.998028
1 1 1 1
0.999389 1 1 0.999389
1.00112 1.0029 1 0.998223
1.04122 1.04539 0.99996 0.99605
1 1 1 1
1.00099 1.00294 1 0.998049
1 1 1 1
0.999394 1 1 0.999394
1.00194 1.00373 1 0.998217
1.04183 1.04597 1 0.996041
0.999688 1 1 0.999688
1.00425 1.00622 1 0.998037
1 1 1 1
1 1 1 1
1.00104 1.00297 1 0.99807
1 1 1 1
0.999698 1 1 0.999698
1.00225 1.0042 1 0.998064
1 1 1 1
1 1 1 1
1 1 1 1

VECTORS lamdaE float
1.00299 0.999692 0.992169
1.00241 1.00069 0.996031
1.00244 0.999837 0.992613
1.00254 1.00011 0.992306
1.00286 0.999806 0.992219
1.00307 0.999733 0.992077
1.00368 1.00067 0.989353
1.00248 1.00076 0.995956
1.00193 1.00004 0.996768
1.00166 1.00074 0.996754
1.00217 1.00125 0.991535
1.00359 1.00166 0.987123
1.00183 0.999965 0.993262
1.00149 1.00009 0.993504
1.00192 1.00001 0.99303
1.00211 1.00012 0.992762
1.00241 1.00005 0.992494
1.00238 0.999844 0.992671
1.00394 1.00061 0.989103
1.00191 1.00001 0.996399
1.00234 1.00015 0.992499
1.00272 0.999974 0.992232
1.00352 1.00029 0.990055
1.00363 1.00047 0.989667
1.00293 0.999974 0.991967
1.00368 1.00108 0.988922
1.00538 1.00149 0.985081
1.00257 1.0008 0.995868
1.00223 0.999946 0.994656
1.00207 1.00042 0.994576
1.0025 1.00123 0.995765
1.00358 1.00175 0.98707
1.00238 0.999857 0.992579
1.00247 0.999882 0.992479
1.00392 1.00048 0.989779
1.00094 1.00274 0.996478
1.00387 1.00113 0.989348
1.00372 1.00241 0.98619
1.00534 1.00312 0.982944
1.00098 1.00131 0.996766
1.00187 0.999987 0.996426
1.00179 1.00004 0.994909
1.00178 0.999966 0.996489
1.00132 1.00008 0.993717
1.00344 0.999857 0.989451
1.00174 1 0.996805
1.00381 1.00019 0.9903
1.00169 1.00009 0.993217
1.00192 0.999868 0.99311
1.00183 1.00032 0.992896
1.00418 1.00052 0.988869
1.00168 1.00004 0.995001
1.00191 1.00018 0.992956
1.00238 1.00039 0.992321
1.00227 0.999972 0.992687
1.00373 1.00025 0.989802
1.00397 1.00094 0.988687
1.00387 1.00042 0.989413
1.00539 1.00142 0.985211
1.0018 0.999991 0.996455
1.00216 1.00009 0.992786
1.00321 0.99993 0.991231
1.00339 1.00017 0.990345
1.00359 1.00036 0.989874
1.00536 0.99971 0.987017
1.00537 1.00015 0.98642
1.00306 1.00049 0.991401
1.00358 1.00201 0.988143
1.00538 1.00237 0.984109
1.00536 0.998674 0.98721
1.00265 0.999897 0.996114
1.00244 1.00129 0.995763
1.00253 1.00035 0.99607
1.00357 1.00176 0.987013
1.00247 0.999908 0.996131
1.00262 0.999983 0.996121
1.00375 1.00049 0.988156
1.0013 1.00203 0.994113
1.00365 1.00107 0.987689
1.00373 1.00257 0.987153
1.00538 1.00305 0.982906
1.00147 1.00156 0.996288
1.00168 1.00319 0.988864
1.00386 1.00034 0.988241
1.00391 1.00053 0.987909
1.00534 1.00007 0.986124
1.00331 1.00347 0.988382
1.0054 1.00174 0.984244
1.00499 1.00426 0.982201
1.00552 1.00093 0.984587
1.00058 1.00073 0.997212
1.00075 1.00122 0.996929
1.0022 0.999998 0.996221
1.00193 0.999985 0.996393
1.00183 0.999969 0.996482
1.00166 1 0.995059
1.00347 0.999856 0.990187
1.002 0.999998 0.994773
1.00368 1.0002 0.989565
1.00181 0.999969 0.996495
1.00328 0.999722 0.989756
1.00369 1.00005 0.990598
1.00537 0.998049 0.988351
1.00382 1.00025 0.990131
1.00541 0.998535 0.98778
1.00185 0.99997 0.993229
1.00147 1.00021 0.993416
1.00175 1.00079 0.992665
1.00184 0.999949 0.993139
1.00394 1.00025 0.989551
1.00409 1.00039 0.989167
1.00422 1.0009 0.988459
1.00541 1.00137 0.985337
1.00184 0.999976 0.996473
1.00174 1.00009 0.993239
1.00344 0.999808 0.990086
1.0036 1.00014 0.990089
1.00262 1.00111 0.993596
1.00386 1.00181 0.98837
1.0038 1.00033 0.989622
1.00537 0.999395 0.987409
1.0054 1.00236 0.984249
1.00537 1.00045 0.9862
1.00535 0.998719 0.987216
1.00331 0.999765 0.989684
1.00328 0.999939 0.990703
1.0054 0.997887 0.988935
1.00539 0.998631 0.988129
1.00532 0.999546 0.987296
1.00534 0.996227 0.990045
1.0018 1.00165 0.996217
1.00538 0.997454 0.988359
1.0035 1.00304 0.985908
1.00544 1.00339 0.982247
1.00533 0.999984 0.986012
1.00534 0.995771 0.989921
1.00207 1.00349 0.987812
1.00314 1.00389 0.985989
1.00255 0.999897 0.996122
1.00268 1.00003 0.996104
1.00373 1.00052 0.988131
1.00173 1.00161 0.996215
1.00339 1.00285 0.986276
1.0037 1.00099 0.987662
1.00543 1.003 0.982865
1.00128 1.00156 0.996502
1.00177 1.00334 0.988844
1.00387 1.00039 0.989076
1.00395 1.00062 0.988711
1.00534 1.00009 0.986085
1.0027 1.00357 0.986585
1.00539 1.00178 0.984205
1.00511 1.00402 0.982183
1.0055 1.00063 0.984895
1.00222 1.00341 0.98783
1.00141 1.00283 0.990019
1.00272 1.00317 0.986686
1.00533 0.999476 0.986814
1.0054 1.00081 0.985229
1.00539 0.996898 0.989054
1.00379 1.00458 0.983628
1.00533 0.998973 0.987012
1.00552 1.00305 0.982988
1.00555 0.998325 0.986768
1.00032 0.999881 0.997765
1.00037 1.00057 0.997444
1.00046 1.00117 0.997121
1.00137 1.00374 0.989143
1.00097 1.00181 0.996591
1.0024 0.999941 0.996149
1.00203 0.999995 0.996303
1.00347 1.00025 0.988892
1.0033 0.999867 0.989551
1.00181 0.999967 0.996469
1.00177 0.999963 0.996497
1.00326 0.999731 0.989755
1.00356 1.00003 0.989885
1.00536 0.998061 0.988363
1.00364 1.00033 0.988567
1.00539 0.998547 0.987779
1.00326 0.999689 0.989794
1.00537 0.99801 0.988406
1.00539 0.998208 0.988152
1.00532 0.994952 0.991722
1.00539 0.998972 0.987317
1.00527 0.995087 0.991482
1.0018 0.999972 0.996483
1.00129 1.00016 0.993691
1.00347 0.999744 0.989121
1.00382 1.00013 0.989833
1.00167 1.0019 0.996339
1.00419 1.00123 0.988606
1.00402 1.00031 0.989372
1.00538 0.999071 0.987799
1.00538 1.00072 0.985977
1.0054 1.00226 0.9844
1.00533 0.998764 0.987221
1.00329 0.999755 0.989687
1.00348 0.99996 0.990452
1.0054 0.9978 0.988813
1.0054 0.998965 0.987773
1.00208 1.00155 0.996003
1.00353 1.00273 0.987055
1.00536 1.00366 0.982699
1.00532 0.99956 0.98726
1.00532 0.995957 0.990422
1.00532 0.999862 0.986109
1.00538 0.997757 0.988175
1.00534 0.995823 0.98989
1.00218 1.00336 0.987779
1.00305 1.004 0.985869
1.00538 0.998177 0.988223
1.00543 0.998196 0.988589
1.0053 0.995648 0.990959
1.00533 0.9953 0.991105
1.00535 0.99698 0.989118
1.00525 0.994932 0.991265
1.0029 1.00321 0.986594
1.00536 0.995046 0.990734
1.00545 1.00422 0.981764
1.0054 1.00113 0.984406
1.00534 0.997485 0.988338
1.00539 0.99502 0.990625
1.00415 1.00338 0.984234
1.00088 1.00463 0.989342
1.00448 1.0037 0.983955
1.00368 1.00044 0.988329
1.00102 1.00154 0.996659
1.00163 1.00349 0.988828
1.00376 1.00063 0.987927
1.00535 1.00009 0.986048
1.00271 1.00347 0.986703
1.0054 1.00381 0.982157
1.00537 1.00181 0.984163
1.00547 1.00033 0.98521
1.00208 1.00352 0.987874
1.00115 1.00299 0.990019
1.00285 1.00368 0.986729
1.00533 0.99949 0.986784
1.00538 1.00085 0.985193
1.00538 0.996874 0.989074
1.00429 1.00415 0.983564
1.00535 0.999062 0.986915
1.00549 1.00293 0.982914
1.00553 0.997993 0.98707
1.00086 1.00243 0.991281
1.00307 1.0038 0.985616
1.00225 1.0045 0.987031
1.00273 1.0014 0.987642
1.00531 0.995999 0.990155
1.00537 0.998042 0.987871
1.00536 0.994962 0.990696
1.00509 1.00462 0.98188
1.00539 0.996109 0.989571
1.00536 1.001 0.985121
1.00552 0.996772 0.988308
1.0006 1.00395 0.990274
1.00035 1.00144 0.99298
1.00024 0.999247 0.998075
1.00024 0.999721 0.997891
1.00025 1.0003 0.997654
1.00032 1.00208 0.992084
1.00023 1.00116 0.997151
1.00148 1.00341 0.98908
1.00124 1.00178 0.996483
1.00359 1.00036 0.988576
1.0034 1.00002 0.989238
1.00538 0.998558 0.987786
1.00535 0.998075 0.988374
1.00327 0.999742 0.98976
1.00182 0.999954 0.996497
1.00328 0.99969 0.989801
1.00536 0.99802 0.988412
1.00537 0.998223 0.988164
1.00532 0.994954 0.991722
1.00537 0.998988 0.987307
1.00528 0.995054 0.991491
1.00537 0.998067 0.988348
1.00533 0.994949 0.991731
1.0053 0.994962 0.991679
1.00518 0.994936 0.991742
1.00525 0.995439 0.990987
1.00517 0.994977 0.99154
1.0033 0.999752 0.989698
1.0037 0.999924 0.990202
1.0054 0.997693 0.988699
1.00541 0.999286 0.987417
1.00227 1.00158 0.995824
1.00383 1.00267 0.987939
1.00519 1.00362 0.983136
1.00532 0.999562 0.987223
1.00529 0.995682 0.990798
1.00539 0.998061 0.987994
1.00533 0.999758 0.986203
1.00535 0.995877 0.989858
1.00225 1.00323 0.987748
1.00304 1.00378 0.985751
1.00539 0.997855 0.988552
1.00543 0.998165 0.988595
1.00531 0.995642 0.990935
1.00531 0.99569 0.990743
1.00289 1.00333 0.986519
1.0052 1.00414 0.981785
1.00545 1.00145 0.984107
1.00536 0.996957 0.989133
1.00526 0.994933 0.991247
1.00535 0.99721 0.988621
1.00535 0.995061 0.990691
1.00538 0.994977 0.99054
1.00414 1.00377 0.984208
1.00416 1.00396 0.983944
1.00085 1.00417 0.989405
1.00532 0.995608 0.991036
1.00531 0.995755 0.990708
1.00514 0.994955 0.991872
1.00518 0.994963 0.991459
1.00537 0.99489 0.990971
1.00531 0.994926 0.991016
1.00483 1.00413 0.982588
1.00538 0.994807 0.990776
1.00551 1.00336 0.98234
1.0054 0.998758 0.986649
1.00536 0.996016 0.989705
1.00544 0.994825 0.99059
1.00129 1.00063 0.991274
1.00533 1.00487 0.981544
1.00052 1.00435 0.988059
1.00521 1.00415 0.981992
1.00532 0.9995 0.986757
1.00095 1.00319 0.990018
1.00193 1.00365 0.987918
1.0028 1.00394 0.986759
1.00538 1.00086 0.985159
1.00537 0.996851 0.989093
1.00454 1.00373 0.983503
1.00547 1.00291 0.982828
1.00536 0.999158 0.986817
1.0055 0.997675 0.987374
1.00065 1.00254 0.99129
1.00339 1.00363 0.985763
1.002 1.00452 0.986871
1.00346 1.00142 0.987738
1.00533 0.99596 0.990168
1.00538 0.997984 0.98788
1.00536 0.994962 0.990734
1.00524 1.00474 0.981695
1.00538 0.996388 0.989319
1.00533 1.00082 0.985118
1.00553 0.996662 0.98865
1.0005 1.00208 0.992146
1.00187 1.00511 0.987264
1.00376 1.00393 0.983954
1.00327 1.00241 0.987367
1.00294 1.00209 0.988196
1.00533 0.994877 0.990992
1.00535 0.995351 0.990192
1.00538 0.994869 0.990578
1.0052 1.00364 0.982804
1.00548 0.99537 0.989984
1.00517 0.999317 0.986678
1.00097 1.00462 0.988984
1.00035 1.00507 0.989568
1.00024 1.00325 0.991393
1.00035 1.00407 0.990278
1.00026 1.00049 0.994822
1.00027 1.00133 0.993557
1.00043 0.998394 0.996351
1.0002 0.999203 0.998159
1.00021 0.99968 0.997982
1.0003 1.00047 0.993842
0.999733 0.999641 0.998278
1.0005 1.00223 0.991911
1.00059 1.00139 0.996911
1.00152 1.0031 0.989018
1.00153 1.00168 0.996314
1.00535 0.999006 0.987294
1.00536 0.998237 0.988174
1.0053 0.995023 0.991501
1.00532 0.994956 0.991723
1.00536 0.998033 0.988417
1.00326 0.999683 0.989805
1.00537 0.998073 0.988346
1.00534 0.994949 0.991728
1.00529 0.99496 0.991687
1.00518 0.994935 0.991722
1.00529 0.995366 0.990994
1.00516 0.994982 0.991545
1.00533 0.994951 0.991735
1.00519 0.994933 0.991747
1.00516 0.99497 0.99169
1.00532 0.994925 0.991485
1.00525 0.994924 0.991271
1.00529 0.994946 0.991159
1.00539 0.997543 0.988878
1.00543 0.998156 0.988601
1.00532 0.995641 0.990911
1.00528 0.996087 0.990379
1.00296 1.00339 0.986442
1.00516 1.00449 0.981808
1.00549 1.00171 0.983816
1.00536 0.996933 0.989147
1.00528 0.994933 0.991229
1.00534 0.995078 0.990646
1.00536 0.996916 0.988904
1.00538 0.994938 0.990455
1.004 1.00405 0.98419
1.00366 1.00487 0.983933
1.00084 1.00398 0.989468
1.00532 0.995287 0.991382
1.00531 0.995762 0.990715
1.00514 0.994954 0.991807
1.0052 0.994962 0.991492
1.0047 1.0043 0.982671
1.00555 1.00333 0.982415
1.00541 0.999001 0.98629
1.00535 0.994891 0.990919
1.00531 0.994929 0.990977
1.00535 0.995851 0.989736
1.00538 0.994804 0.990763
1.00544 0.994769 0.990608
1.00509 1.00492 0.981637
1.00515 1.00462 0.981834
1.0016 1.00086 0.991333
1.00133 1.00394 0.988651
1.00516 0.994947 0.991824
1.00513 0.994964 0.991656
1.00531 0.994951 0.991505
1.0053 0.994929 0.991069
1.00534 0.994891 0.990807
1.00536 0.994921 0.99079
1.0055 1.00478 0.981184
1.00542 0.994768 0.990589
1.00537 1.00115 0.984358
1.00536 0.99774 0.987596
1.00541 0.995283 0.990158
1.00542 0.994702 0.990652
1.00311 1.00092 0.988744
1.00178 1.00022 0.990182
1.00523 1.00463 0.981405
1.00227 1.00466 0.986955
1.00497 1.00448 0.982105
1.00045 1.00258 0.991307
1.00536 0.995921 0.990182
1.0024 1.0047 0.986709
1.00334 1.00352 0.985928
1.00391 1.00125 0.987837
1.00538 0.997926 0.98789
1.00537 0.994962 0.990772
1.00535 1.00474 0.981521
1.00535 1.00066 0.98511
1.00538 0.996655 0.989067
1.00555 0.99654 0.988988
1.0004 1.00211 0.99217
1.00164 1.00513 0.987239
1.00429 1.00374 0.984037
1.0031 1.00257 0.987258
1.00343 1.00169 0.987172
1.00532 0.994874 0.99102
1.00536 0.995344 0.990227
1.00538 0.994867 0.990582
1.0052 1.00369 0.982785
1.0055 0.99546 0.989855
1.00518 0.999404 0.987004
1.00133 1.0051 0.987963
1.00322 1.00499 0.985934
1.00375 1.00439 0.984093
1.00394 1.0023 0.986404
1.00452 1.00317 0.985433
1.00536 0.994873 0.99077
1.0054 0.994911 0.990367
1.00536 0.994827 0.990455
1.00504 1.00146 0.984751
1.00517 0.997803 0.988019
1.0008 1.0047 0.989004
1.00071 1.00513 0.988539
0.999622 1.00507 0.989686
1.00013 1.00479 0.990857
1.00027 1.00466 0.990555
1.00006 1.00281 0.992078
1.00005 1.00348 0.991411
1.0001 1.00007 0.995441
1.00017 1.00428 0.99028
1.00023 1.00046 0.994924
1.00032 0.9978 0.996914
1.00023 1.00132 0.99412
1.00022 0.998582 0.997407
1.00014 0.999007 0.998246
1.00028 1.00195 0.992724
1.00034 1.0003 0.993901
0.999826 0.999454 0.998452
1.00004 0.999956 0.997811
1.00079 1.00229 0.991756
1.00083 1.00169 0.996748
1.00534 0.99529 0.991
1.00529 0.994958 0.991694
1.00515 0.994989 0.99155
1.00518 0.994936 0.991703
1.00534 0.994949 0.991726
1.00538 0.998076 0.988345
1.00534 0.994951 0.991731
1.00519 0.994932 0.991753
1.00516 0.994974 0.991686
1.00531 0.994925 0.991463
1.00523 0.994923 0.991287
1.00529 0.994943 0.991164
1.00517 0.994939 0.991783
1.00533 0.994926 0.991559
1.00529 0.994941 0.991368
1.00533 0.994912 0.991443
1.00532 0.994926 0.990988
1.00533 0.994929 0.991082
1.00533 0.994957 0.991729
1.00531 0.995767 0.990722
1.00514 0.994952 0.991742
1.00521 0.99496 0.991525
1.00441 1.00458 0.98275
1.00556 1.00333 0.982482
1.00541 0.999209 0.985938
1.00534 0.994894 0.990867
1.00531 0.994935 0.990937
1.00538 0.994802 0.990751
1.00535 0.995676 0.989766
1.00544 0.994701 0.990628
1.00495 1.00475 0.981724
1.00492 1.00517 0.981672
1.00198 1.00094 0.991382
1.00138 1.00279 0.989231
1.00515 0.994949 0.991827
1.00514 0.994964 0.991691
1.0053 0.994948 0.991466
1.00531 0.99493 0.991069
1.00544 1.00468 0.981291
1.00537 1.00129 0.984215
1.00537 0.997671 0.987591
1.00534 0.994891 0.990845
1.00535 0.994916 0.990789
1.0054 0.995278 0.990178
1.00542 0.994771 0.990579
1.00541 0.994685 0.990728
1.00526 1.00476 0.981471
1.00477 1.00492 0.982152
1.00221 1.00424 0.986984
1.00253 1.00146 0.988858
1.00184 1.00188 0.989933
1.00532 0.994937 0.991483
1.00532 0.994938 0.991307
1.00537 0.994892 0.990805
1.00537 0.994902 0.990618
1.00531 1.00342 0.982662
1.00538 0.994799 0.990437
1.00531 1.0003 0.984686
1.00537 0.996808 0.988384
1.00544 0.994907 0.990376
1.00095 1.00502 0.988376
1.00386 1.00322 0.987752
1.00249 1.00015 0.989656
1.00502 1.00489 0.982432
1.00311 1.00482 0.98554
1.00453 1.00496 0.982901
1.00031 1.0022 0.992192
1.00142 1.00514 0.987215
1.00531 0.99487 0.991047
1.00258 1.00296 0.987145
1.00518 1.00365 0.984119
1.00403 1.00117 0.986161
1.00537 0.995338 0.990261
1.00537 0.994865 0.990587
1.00516 1.00369 0.982785
1.00517 0.999529 0.987333
1.00551 0.995546 0.989724
1.00127 1.00511 0.987968
1.00261 1.00502 0.985947
1.0043 1.00465 0.983097
1.00395 1.00181 0.986557
1.00434 1.00227 0.985308
1.00536 0.994876 0.99077
1.00542 0.994913 0.990356
1.00538 0.994809 0.99044
1.00501 1.00147 0.98503
1.00517 0.997928 0.987887
1.00248 1.00511 0.986734
1.00181 1.00509 0.986168
1.00454 1.00281 0.984729
1.00248 1.00209 0.985489
1.00528 1.00131 0.986233
1.00537 0.994823 0.990596
1.00545 0.995494 0.989453
1.0054 0.994848 0.989888
1.00501 1.00003 0.986566
1.00508 0.998746 0.987445
1.00068 1.0047 0.989027
1.00107 1.00512 0.988392
0.99913 1.00429 0.991418
0.999392 1.00508 0.989782
0.999775 1.00476 0.990525
0.999182 1.00473 0.991129
0.999313 1.00404 0.992355
0.999115 1.00503 0.99112
0.999732 1.00442 0.991103
1.00011 1.00255 0.992255
1.00007 1.00272 0.992069
1.00004 0.999715 0.995831
0.999901 1.00348 0.991422
1.00014 0.99994 0.995509
1.00021 0.997574 0.997302
1.00025 1.00032 0.995027
1.00027 0.997877 0.996878
0.999961 0.998736 0.998487
1.0001 1.00207 0.992684
1.00057 1.00112 0.992847
0.999664 0.999899 0.998277
1.0007 1.00003 0.99394
0.999803 0.999183 0.998486
1.00038 1.00044 0.997376
1.00521 0.994921 0.991304
1.00516 0.994976 0.991683
1.00529 0.994938 0.991169
1.00531 0.994925 0.991442
1.00519 0.994931 0.991759
1.00534 0.994951 0.991726
1.00517 0.994941 0.991808
1.00533 0.994925 0.991551
1.00529 0.994943 0.991378
1.00533 0.994907 0.991431
1.00532 0.994927 0.990989
1.00534 0.994926 0.991056
1.00532 0.994929 0.991548
1.00536 0.994918 0.991473
1.00532 0.994904 0.991376
1.00538 0.994884 0.990754
1.00514 0.994951 0.99183
1.00514 0.994966 0.991726
1.00529 0.994944 0.991427
1.00531 0.994932 0.991069
1.00543 1.00456 0.981405
1.0054 1.00146 0.984068
1.00537 0.997639 0.987583
1.00534 0.994889 0.990884
1.00534 0.994912 0.990787
1.00542 0.994773 0.990569
1.00538 0.995228 0.990197
1.00539 0.994665 0.990805
1.0053 1.00486 0.981537
1.00437 1.00493 0.9822
1.00276 1.0041 0.98701
1.00228 1.00218 0.989002
1.00243 1.00357 0.989696
1.00532 0.994938 0.991473
1.00532 0.994937 0.991318
1.00537 0.994899 0.990821
1.00531 1.0036 0.982657
1.00534 1.00048 0.984576
1.0053 0.996762 0.988408
1.00537 0.994905 0.990638
1.00538 0.994805 0.990474
1.00539 0.994802 0.99047
1.00049 1.00456 0.988678
1.00471 1.00466 0.98244
1.0046 1.00477 0.982446
1.00321 1.00474 0.985257
1.00236 1.00094 0.98998
1.00371 1.00268 0.987184
1.00536 0.994921 0.991398
1.00537 0.994896 0.991114
1.00538 0.994881 0.990626
1.00535 0.994884 0.990441
1.00509 1.00355 0.983201
1.00534 0.994753 0.990425
1.00528 0.999279 0.986051
1.00524 0.99607 0.988877
1.00004 1.00368 0.99022
1.00137 1.00514 0.988064
1.00365 1.00258 0.988126
1.00167 1.00274 0.989116
1.0042 1.00402 0.984089
1.00473 1.0044 0.982928
1.00111 1.00513 0.987973
1.00208 1.00492 0.985957
1.00535 0.99488 0.990769
1.00396 1.00147 0.986698
1.00499 1.0049 0.982086
1.00374 1.00262 0.985173
1.00543 0.994915 0.990345
1.0054 0.994792 0.990425
1.005 1.00152 0.98531
1.00517 0.998062 0.987755
1.00195 1.00512 0.986803
1.00268 1.00493 0.985842
1.00449 1.00303 0.984461
1.00378 1.00313 0.9849
1.00519 1.00162 0.985739
1.00538 0.994825 0.990593
1.00545 0.995348 0.989707
1.00538 0.994932 0.990136
1.00504 0.999934 0.986549
1.00499 0.999104 0.987173
1.00004 1.00446 0.988745
0.999628 1.00486 0.987943
1.00488 1.00038 0.986614
1.00435 1.00049 0.987107
1.00546 0.994788 0.990437
1.00536 0.994732 0.990401
1.00528 0.997422 0.98785
1.00518 0.999302 0.986666
1.00145 1.0051 0.988249
0.999422 1.00469 0.991051
0.997305 1.00474 0.994418
0.999385 1.005 0.990504
0.997995 1.00508 0.991395
0.999808 1.00438 0.991043
0.998755 1.0043 0.992726
0.99926 1.00504 0.991212
0.998647 1.00127 0.995871
0.999021 1.00508 0.991591
0.999044 1.00497 0.990987
1.00002 1.00423 0.99087
0.999982 1.00272 0.992217
1.00003 1.00261 0.992236
0.999963 0.999547 0.996029
0.999987 1.00282 0.992063
1.00005 0.999648 0.995861
1.00011 0.997472 0.997506
1.00013 0.999846 0.995576
1.00018 0.99762 0.99727
1.00016 0.997999 0.996828
1.00039 1.0006 0.993684
1.00017 1.00198 0.99261
0.999803 0.998802 0.998449
1.00044 1.00047 0.992975
0.999805 0.999724 0.998318
0.999932 0.998767 0.998398
1.00533 0.994929 0.99099
1.0053 0.994945 0.991388
1.00534 0.994923 0.991031
1.00532 0.994902 0.991418
1.00533 0.994924 0.991543
1.00517 0.994942 0.991833
1.00532 0.994928 0.991553
1.00535 0.994915 0.991467
1.00533 0.994909 0.991321
1.00536 0.994881 0.990794
1.00537 0.994918 0.991474
1.00534 0.994897 0.991437
1.00537 0.994874 0.991058
1.00532 0.994939 0.991463
1.00532 0.994937 0.991329
1.00537 0.994903 0.990837
1.0053 1.00374 0.982657
1.00537 1.00068 0.98447
1.00526 0.996779 0.988429
1.00537 0.994909 0.990657
1.0054 0.994807 0.990504
1.00538 0.994777 0.990578
1.00465 1.00461 0.982447
1.00488 1.00487 0.982007
1.00348 1.00509 0.984984
1.00063 1.00461 0.988981
1.00242 1.00153 0.990305
1.00303 1.00223 0.986596
1.00537 0.994924 0.991411
1.00537 0.994892 0.991079
1.00538 0.994885 0.990636
1.00503 1.00341 0.983183
1.00527 0.999268 0.985962
1.00537 0.995867 0.989111
1.00536 0.99488 0.99041
1.00538 0.994749 0.990405
0.999908 1.00423 0.990481
1.00121 1.00511 0.987997
1.00425 1.00396 0.983852
1.00445 1.00457 0.983153
1.00235 1.00333 0.988598
1.00302 1.00134 0.988509
1.00537 0.99489 0.991352
1.00541 0.994871 0.990748
1.00537 0.99486 0.990472
1.00529 0.994899 0.990258
1.00439 1.00177 0.985528
1.00538 0.994631 0.990459
1.00489 0.998655 0.987385
0.999999 1.00367 0.991252
1.00025 1.00378 0.990948
0.999536 1.00513 0.989474
1.00098 1.00508 0.988234
1.00187 1.00453 0.989904
1.00456 1.00125 0.985439
1.00361 1.00405 0.985472
1.00401 1.00395 0.98558
1.00167 1.00514 0.986878
1.00329 1.00503 0.985516
1.00539 0.994827 0.990591
1.0053 1.00284 0.984324
1.00449 1.00312 0.984196
1.00535 1.00192 0.985259
1.00544 0.995187 0.989962
1.00537 0.995005 0.990382
1.00505 0.999807 0.986532
1.0049 0.999424 0.986901
1.00077 1.00429 0.988318
1.00131 1.00495 0.987297
1.00488 1.00049 0.986289
1.00481 1.00103 0.98665
1.00544 0.994792 0.990442
1.00539 0.994763 0.990403
1.00522 0.997334 0.987964
1.00517 0.999419 0.986669
0.998381 1.004 0.992173
1.00549 0.994745 0.9908
1.00252 1.00419 0.988817
1.0047 0.99953 0.987229
1.0054 0.994768 0.990633
1.00512 0.996904 0.987614
1.00513 1.00051 0.986024
0.999544 1.0047 0.990688
0.997672 1.00413 0.99454
0.995996 1.00362 0.997091
0.999612 1.00426 0.990981
0.999127 1.00505 0.991299
0.997546 1.00511 0.993121
0.999983 1.00407 0.990859
0.999216 1.00498 0.991062
0.997014 1.00298 0.996469
0.999072 1.0051 0.991436
0.996696 1.00188 0.998593
0.996777 1.00454 0.994927
0.998958 1.00504 0.991718
1.00019 1.00464 0.989999
1.00023 1.00397 0.990573
0.999991 1.00268 0.992191
0.99997 1.00273 0.9922
0.999826 0.999665 0.99617
0.99996 1.00272 0.992218
0.99997 0.999609 0.99604
0.999981 0.99765 0.997626
1.00006 0.999586 0.995897
1.00011 0.997528 0.997491
1.0002 0.997666 0.997233
1.00022 1.00302 0.991556
0.999984 1.00051 0.994269
1.00024 1.00075 0.993643
1 0.998535 0.998613
1.00027 1.00159 0.992539
0.999807 0.99948 0.998359
0.999889 0.999464 0.998398
1.00535 0.994877 0.990835
1.00534 0.994914 0.991266
1.00534 0.994912 0.991462
1.00532 0.994928 0.991559
1.00536 0.994918 0.991476
1.00534 0.994887 0.991431
1.00536 0.994877 0.990997
1.00537 0.994891 0.99139
1.00533 0.994864 0.991443
1.00561 0.994712 0.991308
1.00537 0.994926 0.991426
1.00537 0.99489 0.991045
1.00538 0.994889 0.990645
1.00502 1.00326 0.983166
1.00526 0.99929 0.985883
1.00539 0.99573 0.989336
1.00537 0.994879 0.990378
1.0054 0.994742 0.990382
1.00433 1.00435 0.98361
1.00399 1.00466 0.983349
1.00225 1.00455 0.98808
1.00009 1.00406 0.990747
1.00075 1.00506 0.987926
1.00259 1.00023 0.988881
1.00536 0.994894 0.991338
1.00032 1.00324 0.991235
0.999855 1.00422 0.990907
1.00541 0.994864 0.990751
1.00538 0.994863 0.990491
1.0046 1.00186 0.985401
1.00521 0.998017 0.987796
1.00526 0.994672 0.990425
1.00529 0.994883 0.990194
1.00007 1.00504 0.98959
1.00122 1.00502 0.988118
1.00314 1.00441 0.985307
1.00406 1.00377 0.984002
1.00423 1.00267 0.985239
1.00101 1.00293 0.990648
1.00543 0.994806 0.991249
1.0054 0.995093 0.990403
1.00533 0.994871 0.990462
1.00523 0.994865 0.989872
1.00331 1.00104 0.987688
1.00527 0.995807 0.989979
1.00005 1.00417 0.990608
0.999535 1.00412 0.990859
1.00093 1.00321 0.990991
1.00071 1.00486 0.988806
1.00099 1.00459 0.989202
1.00079 1.00097 0.991735
1.00244 1.00211 0.987061
1.00181 1.00157 0.990549
1.00103 1.00474 0.987906
1.0033 1.00496 0.986638
1.00541 0.994805 0.990447
1.00542 0.994796 0.990406
1.00518 1.00159 0.986182
1.00484 1.0007 0.985952
1.00515 0.99726 0.988079
1.00517 0.999532 0.986673
0.999143 1.00411 0.992132
1.00548 0.994735 0.990979
1.0014 1.00406 0.989546
1.00468 0.999804 0.987011
1.00541 0.994756 0.990724
1.00515 0.997093 0.98783
1.00514 1.00017 0.985985
0.997992 1.00456 0.994488
1.00503 0.994701 0.990298
1.00165 1.00339 0.989426
1.00429 1.0019 0.985027
1.00505 0.995284 0.990857
1.00367 1.00085 0.986823
0.99889 0.99477 0.981802
0.997935 1.00388 0.994635
0.996825 1.00294 0.997013
0.995777 1.00292 0.998229
1.00001 1.00395 0.990842
0.998865 1.00496 0.991145
0.999673 1.00512 0.991285
0.995637 1.00361 0.997076
1.00024 1.00395 0.990577
0.99992 1.00461 0.990326
0.995548 1.00154 1.00004
0.998711 1.00505 0.99164
0.997524 1.00464 0.994341
0.994955 1.0048 0.998146
0.998325 1.0052 0.99265
0.999167 1.00462 0.991904
1.00053 1.00388 0.990344
1.00011 1.00426 0.990204
1.0005 1.00516 0.989808
1.00004 1.0042 0.990317
0.999853 1.00281 0.992223
0.999946 1.00278 0.992172
0.99971 0.999644 0.995643
1 1.00262 0.992186
0.999819 0.999655 0.995838
0.999977 0.997619 0.999029
0.999974 0.999615 0.996057
1.00001 0.997578 0.997617
1.00012 0.99757 0.997471
0.999937 1.00254 0.99237
1.00038 1.00281 0.991604
1.00008 0.999793 0.99492
1.00009 1.0004 0.994701
0.99994 0.998114 0.998778
1.00008 1.00127 0.993602
0.999919 0.998369 0.998585
0.999842 0.999774 0.998235
1.00536 0.994876 0.990936
1.00534 0.994878 0.991425
1.00536 0.994918 0.991477
1.00537 0.994895 0.991392
1.00537 0.99485 0.991376
1.00561 0.994736 0.991298
1.00544 0.994845 0.991442
1.00072 0.994625 0.9799
1.0055 0.994739 0.98987
1.00012 1.00352 0.99115
1.00536 0.994896 0.991325
1.00541 0.994864 0.990754
1.00538 0.994873 0.99051
1.00463 1.00167 0.985264
1.00532 0.997161 0.988184
1.00509 0.994724 0.990366
1.00529 0.994869 0.990128
1.00348 1.00433 0.985194
1.00462 1.00513 0.982474
1.00389 1.00339 0.985014
1.00041 1.00308 0.99122
1.0011 1.00217 0.991354
1.00059 1.00492 0.989687
1.00097 1.00513 0.988009
0.999763 1.00421 0.990868
1.00542 0.994834 0.991256
1.00013 1.00389 0.990738
1.00003 1.0042 0.990855
0.999915 1.00372 0.991452
1.00539 0.994923 0.990426
1.0053 0.994874 0.99042
1.00316 1.00196 0.9877
1.00499 0.995566 0.990027
1.00527 0.994956 0.989904
1.00064 1.00486 0.988819
1.0008 1.00465 0.989559
1.00283 1.00196 0.989635
1.00308 1.00418 0.986263
1.00266 0.999685 0.9918
1.00547 0.994801 0.990817
1.00535 0.994909 0.990478
1.00525 0.99491 0.990235
1.00464 0.997424 0.9897
1.00289 0.999894 0.989476
0.999833 1.00298 0.992038
1.0005 1.00394 0.98953
0.999465 1.00291 0.992586
1.00067 1.00428 0.990424
1.00049 1.00194 0.992862
0.999694 1.00062 0.994153
1.00172 0.999661 0.993211
1.00058 1.0036 0.992027
0.999732 1.0041 0.990291
1.00549 0.994707 0.991147
1.00543 0.994741 0.9908
1.00518 0.997297 0.988046
1.0046 1.00002 0.986797
1.00515 0.999826 0.985958
0.997768 1.00465 0.995492
1.00463 0.994682 0.990442
1.00154 1.00332 0.989309
1.00462 1.00187 0.984881
1.00482 0.99521 0.991144
1.00403 1.00078 0.98687
0.998753 0.99476 0.98016
0.997359 1.00477 0.994637
1.00354 0.994739 0.990371
1.00247 1.00276 0.986899
1.00337 1.00068 0.987612
1.00346 0.997489 0.99175
0.999966 0.994853 0.935566
0.994869 0.994699 0.958061
0.996817 0.995036 0.985504
0.995438 0.994916 0.843194
0.994698 0.996824 0.802516
0.99792 1.0025 0.996953
0.996135 1.00298 0.998454
0.994906 1.00485 0.998502
1.00032 1.00385 0.990587
0.999733 1.00471 0.990655
0.998887 1.00508 0.991552
0.997957 1.00466 0.993719
0.995023 1.00138 1.00145
0.998921 1.0045 0.99225
1.00033 1.00403 0.990254
1.00036 1.00424 0.990281
0.995391 1.00425 0.997995
0.997824 1.00518 0.993125
0.998093 1.00496 0.99359
0.996282 1.00518 0.995622
0.999004 1.00417 0.992665
1.00027 1.00457 0.989725
1.0001 1.00441 0.989993
0.999318 1.00487 0.99055
0.999021 1.00344 0.99369
0.99918 1.00513 0.99157
1.00007 1.00516 0.99006
1.00018 1.00382 0.990729
0.999913 1.00421 0.990287
0.999977 1.00252 0.992442
0.999999 1.00269 0.99223
0.999681 0.999614 0.995747
0.999911 1.0029 0.99215
0.999699 0.999675 0.995644
0.999939 0.997609 0.999065
0.999809 0.999667 0.995513
0.999929 0.997625 0.998371
1.00006 0.997519 0.997604
0.999904 1.00193 0.993074
1.00009 1.00238 0.992389
1.00005 0.999333 0.995493
1.00049 1.00257 0.991648
1.00006 0.999834 0.995314
0.999973 0.99771 0.998929
1.00024 1.0003 0.994175
0.999966 0.998335 0.998704
0.999882 0.998824 0.998551
1.00539 0.994838 0.99131
1.00536 0.994898 0.991393
1.00563 0.994778 0.991313
0.999581 0.994692 0.979747
1.00548 0.994823 0.991409
1.0055 0.994782 0.98995
1.00549 0.994746 0.991183
0.995186 0.994788 0.960631
1.00442 0.994734 0.976551
1.00032 1.00288 0.991547
1.00027 1.00344 0.991143
0.999504 1.00411 0.991601
1.00023 1.00355 0.991015
1.00543 0.994846 0.991262
1.0054 0.994872 0.990452
1.00529 0.994862 0.990378
1.00381 1.00196 0.987713
1.00506 0.995399 0.990128
1.00528 0.994845 0.989961
1.00273 1.00114 0.988667
1.00371 1.00473 0.985483
1.00288 0.997389 0.991931
1.00006 1.00463 0.990858
1.00014 1.00393 0.989944
1.00072 1.00488 0.988828
1.00032 1.00363 0.990867
0.999134 1.00443 0.992006
1.00551 0.994809 0.990797
0.999815 1.00351 0.991543
1.00077 1.00389 0.98974
0.997063 1.00371 0.995341
1.00536 0.994946 0.99046
1.00524 0.994894 0.990215
1.0038 0.998724 0.989635
1.00459 0.997135 0.989587
1.0011 1.0042 0.989846
0.999634 1.00214 0.992054
1.00144 0.999277 0.993319
1.00138 0.999783 0.993347
1.00395 0.996841 0.989772
1.00522 0.994799 0.990708
1.00409 0.998456 0.989585
1.00434 0.998032 0.990265
0.996465 1.00471 0.995739
1.00145 1.00388 0.988881
0.997988 1.00082 0.997819
0.997647 1.00294 0.995354
0.999817 0.996562 0.919136
0.997781 1.00445 0.996549
1.0011 1.00342 0.989182
1.00409 0.994682 0.990629
1.00455 0.995125 0.991421
1.00428 1.00059 0.986886
1.00484 1.00194 0.984721
0.998501 0.994725 0.978221
0.997549 1.00445 0.994945
1.00314 0.994704 0.990291
1.00262 1.00321 0.986872
1.00381 1.0005 0.98779
1.00349 0.997788 0.991635
0.998981 0.99486 0.920986
0.995228 0.994743 0.954819
0.996683 0.995532 0.985969
0.996527 0.995039 0.849386
0.994763 0.996587 0.799009
0.997901 1.00388 0.993935
0.997616 0.994842 0.853516
0.994807 0.995793 0.796523
1.00134 0.994998 0.993728
1.00173 1.0015 0.990362
1.00128 1.00107 0.992578
0.995146 0.995916 0.989318
0.997431 0.994686 0.933981
0.994908 0.99476 0.949958
0.994723 0.996719 0.862347
0.994779 0.995238 0.779038
0.996208 1.00274 0.998677
0.995087 1.00496 0.998296
0.995302 1.00499 0.998855
1.00049 1.00387 0.990299
1.00015 1.00438 0.990213
0.998397 1.00446 0.992602
0.997659 1.00518 0.993603
0.995825 1.00379 0.997867
1.00023 1.00443 0.989972
0.997715 1.00477 0.994069
0.998792 1.00444 0.992274
1.00046 1.00451 0.989816
0.996171 1.00518 0.995991
0.996868 1.00489 0.995108
0.995207 1.00499 0.997146
0.998982 1.00507 0.991199
1.00031 1.0047 0.989649
0.999913 1.00468 0.990496
0.998191 1.00329 0.99468
0.997813 1.00416 0.993677
0.999043 1.00114 0.995802
0.99673 1.00159 0.999249
0.998693 1.00181 0.993994
0.998142 1.00414 0.993127
0.999073 1.00517 0.991629
0.999101 1.00511 0.990912
0.999617 1.00524 0.990317
1.00018 1.00425 0.990575
1.00004 1.0026 0.992469
1.00011 1.00433 0.990251
0.999931 1.00255 0.992466
0.999859 0.999463 0.996369
0.999802 1.00297 0.992241
0.999741 0.999564 0.996047
0.99991 0.99751 0.99788
0.999676 0.999695 0.995638
0.999928 0.997615 0.999075
0.999936 0.997662 0.997709
1.00036 1.00317 0.991286
0.9999 1.00163 0.993382
0.999958 1.00192 0.993069
1.00002 0.999008 0.99585
1.00019 1.00231 0.992412
1.00007 0.999329 0.995482
0.999987 0.997411 0.999035
1.00004 1.00003 0.995591
0.999955 0.997846 0.998103
0.999945 0.998158 0.996991
0.998916 0.994718 0.979567
1.0055 0.99481 0.991377
1.00548 0.994856 0.99002
0.996196 0.994754 0.960636
1.0043 0.994683 0.976767
1.00548 0.99485 0.991249
1.00394 0.994629 0.984836
0.999159 0.994748 0.959301
0.998555 0.994936 0.934992
0.996571 0.994764 0.870742
0.994825 0.996842 0.802591
0.999382 1.0038 0.9917
1.00025 1.00303 0.991559
1.00036 1.00341 0.991127
0.999666 1.00351 0.991949
0.997854 1.00502 0.993598
0.999742 1.0045 0.990976
1.00018 1.00464 0.990037
1.00008 1.00373 0.991043
1.00551 0.994828 0.990771
1.00537 0.994858 0.990439
1.00524 0.994895 0.990193
1.00392 0.998624 0.989794
1.0047 0.997079 0.989454
1.00123 0.999478 0.993421
1.00362 0.998517 0.992532
1.00087 1.00332 0.991238
1.00093 1.00346 0.98991
1.00118 1.00422 0.989218
0.999816 1.00423 0.991045
0.995429 1.00432 0.997777
1.00423 0.995753 0.990154
0.996767 1.00467 0.995423
1.00062 1.00339 0.990812
1.00501 0.994818 0.990677
1.00388 0.998837 0.989605
1.00362 0.997748 0.990579
0.998747 1.00083 0.99631
0.998794 1.0018 0.995514
1.00281 0.996541 0.988345
1.00286 0.999322 0.990595
1.0036 1.0001 0.989929
1.00135 0.998674 0.99409
0.998124 1.0048 0.993642
0.996762 1.00342 0.995836
0.996666 1.00232 0.997922
0.999832 0.998802 0.849026
1.00073 0.994883 0.935368
0.998014 1.00402 0.995257
1.00301 1.00352 0.986863
1.00273 0.994714 0.990196
1.0036 0.997941 0.991541
1.00414 1.00031 0.988012
0.999988 0.994829 0.93317
0.995721 0.994759 0.954309
0.99654 0.996283 0.986659
0.995055 0.995132 0.868753
0.994826 0.995223 0.79514
0.998374 1.00384 0.993995
0.99977 0.994932 0.850646
0.994754 0.995077 0.790382
1.0011 0.995841 0.993517
1.00163 1.0017 0.990413
1.0013 1.00066 0.993402
0.995443 0.996786 0.990349
0.996207 0.994664 0.92704
0.995003 0.994766 0.95068
0.994782 0.995552 0.865432
0.994812 0.995589 0.776372
0.99689 1.00468 0.996609
0.994785 0.994814 0.783334
0.994735 0.994739 0.773471
0.99696 1.00113 0.996884
0.99898 1.00195 0.997289
0.994862 0.998446 0.987288
0.994915 0.994799 0.955503
0.994883 0.994617 0.918692
0.994818 0.995198 0.868805
0.994897 0.994898 0.79329
0.995294 1.00515 0.998114
0.995277 1.00483 0.99888
0.994924 1.00453 0.999251
1.00035 1.00435 0.989944
1.00066 1.0045 0.98991
0.998758 1.00478 0.991884
0.997248 1.00455 0.994543
0.995901 1.00519 0.996358
1.00051 1.00473 0.989589
0.997028 1.005 0.994767
0.999289 1.00504 0.991171
0.995247 1.00507 0.997338
0.994965 1.0048 0.998506
0.996564 1.00513 0.995086
0.999544 1.00489 0.991459
1.00052 1.00427 0.990448
0.997934 1.00294 0.995645
0.998168 1.00434 0.993565
0.999476 1.00046 0.995514
0.995541 1.00138 1.00019
0.999111 0.998863 0.996143
0.995344 1.00494 0.996876
0.997715 0.99962 1.00003
1.00164 1.00507 0.988326
1.00512 0.999645 0.988873
0.998366 1.00466 0.991408
0.998724 1.00264 0.994085
0.998796 1.00399 0.991261
0.998561 1.0042 0.993185
1.0001 1.00477 0.990548
0.999145 1.00495 0.991687
0.999541 1.0046 0.99106
0.999527 1.00337 0.992059
1.00023 1.00435 0.990416
0.999899 1.0025 0.992497
0.999945 0.999416 0.996213
1.00007 1.00233 0.992486
0.999844 0.9994 0.996057
1.00002 0.997241 0.997856
0.99972 0.999579 0.995751
0.999958 0.997482 0.999101
0.999924 0.997597 0.999087
1.00063 1.00339 0.990974
0.999959 1.00175 0.99324
1.00046 1.00295 0.991298
1.00003 0.998839 0.995997
0.999965 1.00158 0.993367
1.00005 1.00179 0.993062
1.00003 0.99902 0.995835
0.999998 0.997214 0.999103
1.00007 0.999369 0.996109
1 0.997479 0.998317
0.99998 0.997793 0.997443
0.999084 0.996658 0.836698
0.994812 0.994897 0.781058
0.9957 0.994771 0.961493
1.00413 0.994658 0.977182
1.00552 0.994903 0.991306
1.0015 0.994775 0.956386
1.00333 0.994728 0.985563
0.99972 0.994873 0.93029
0.995055 0.994747 0.849443
0.99483 0.995976 0.799467
0.998459 0.994783 0.968627
0.995639 0.994705 0.936018
0.99473 0.994816 0.864246
0.994835 0.996474 0.7913
0.999412 1.00461 0.992111
0.999793 1.00357 0.991589
1.00018 1.00312 0.991582
0.999673 1.00306 0.992315
0.997291 1.00446 0.994716
1.00037 1.00461 0.989855
0.999285 1.00459 0.991452
1.00085 1.00488 0.988691
1.0003 1.00458 0.98993
0.999584 1.00428 0.991081
1.00433 0.99486 0.990509
1.00488 0.994833 0.990644
1.00341 0.999257 0.989623
1.00296 0.997664 0.990897
0.999259 1.00196 0.995677
0.999036 1.0007 0.994852
0.999522 1.00318 0.992973
0.996927 1.00457 0.99508
1.00219 0.99577 0.988997
0.997904 1.00501 0.993458
0.996799 1.00355 0.996233
1.00269 0.999218 0.990609
1.00322 1.00071 0.989299
1.00063 0.998776 0.994962
0.997083 1.00217 0.998347
0.999509 0.995461 0.987409
1.00075 1.00141 0.992912
0.996663 1.00375 0.99698
0.998693 1.00362 0.993576
0.996281 1.00514 0.995162
0.995379 1.00402 0.99819
0.99476 0.994785 0.798481
0.999807 0.994933 0.858627
0.999902 0.996705 0.919381
0.998665 1.00385 0.994034
1.00182 1.00196 0.99041
1.00082 0.996445 0.993291
1.00119 1.00009 0.994231
0.999688 0.996874 0.865769
0.995569 0.994705 0.920596
0.994933 0.994714 0.950068
0.995644 0.997733 0.991145
0.994779 0.995121 0.848646
0.994705 0.994887 0.796764
0.994842 0.996873 0.792148
0.996932 1.00457 0.996312
0.994782 0.994825 0.790698
0.994768 0.994755 0.773059
0.997289 0.99941 0.997527
0.998711 1.00187 0.997206
0.994844 0.997179 0.989133
0.995128 0.994782 0.952445
0.995036 0.994633 0.931391
0.994791 0.996031 0.848115
0.995289 0.994892 0.802219
0.99581 1.00404 1.00061
0.994734 0.994782 0.781165
0.99482 0.994832 0.777289
0.994803 1.00215 1.00035
0.994851 0.996599 0.963809
0.994802 0.994781 0.92898
0.994906 0.994906 0.849301
0.995877 0.994907 0.822401
0.995325 1.00466 0.998895
0.995099 1.00477 0.999486
0.994885 1.00459 0.999902
1.0003 1.00498 0.989531
0.999666 1.00492 0.991142
0.997087 1.00505 0.994427
0.995289 1.00512 0.997528
0.999162 1.00487 0.99141
0.996681 1.00512 0.995107
0.995061 1.00466 0.998568
0.995048 1.00476 0.999008
0.995049 1.00427 0.999055
0.997054 1.00508 0.994912
0.998396 1.00479 0.99344
0.999433 1.00005 0.995232
0.994751 1.00156 1.00113
0.995684 1.00428 0.997289
0.99931 1.00025 0.99582
0.996406 0.999666 1.00054
1.00083 1.00266 0.992534
0.994812 1.00409 0.999912
1.00294 1.00045 0.990262
1.00135 1.00314 0.989811
1.00298 1.00126 0.988585
1.00501 0.99954 0.987362
1.00368 1.00107 0.98875
1.00434 0.999298 0.989339
0.999502 1.00414 0.991421
0.999096 1.00506 0.989419
0.998835 1.0038 0.994171
0.999676 1.0042 0.991253
1.00076 1.00519 0.988632
0.998924 1.00433 0.993231
0.999459 1.00501 0.990603
0.999731 1.00413 0.990902
0.999792 1.0045 0.991208
0.999794 1.00327 0.992082
1.00013 0.999823 0.995631
0.999863 1.00258 0.992528
0.999926 0.999555 0.995754
1.00009 0.997385 0.997675
0.999853 0.99935 0.995768
1.00002 0.99729 0.998483
0.999973 0.997415 0.999103
1.00044 1.00441 0.989669
1.00005 1.00205 0.992847
1.00033 1.00369 0.99075
1.00007 0.998878 0.995904
0.999944 1.00173 0.993261
1.00033 1.00301 0.991308
1.00002 0.997155 0.999119
1.00001 0.998879 0.995991
0.999938 1.0017 0.993357
1.00004 0.999024 0.995821
1 0.997268 0.999086
0.999995 0.997452 0.999009
0.994755 0.994819 0.777666
0.998847 0.994989 0.851042
0.994798 0.994772 0.776266
0.994835 0.994884 0.783018
0.999188 0.994868 0.957213
1.00254 0.994787 0.986319
0.999201 0.994775 0.924967
0.995828 0.994774 0.869968
0.994845 0.995014 0.796573
0.998321 0.994806 0.967332
0.996099 0.994672 0.920388
0.994742 0.995491 0.866517
0.994812 0.995774 0.783878
0.994919 0.994799 0.959959
0.994757 0.994654 0.91645
0.994792 0.995279 0.842171
0.99486 0.994899 0.798857
1.00026 1.00426 0.991004
0.998654 1.00455 0.992283
0.999938 1.00366 0.991473
0.996537 1.00398 0.995811
1.00079 1.00392 0.989468
0.999952 1.00495 0.990038
0.998821 1.0044 0.991918
1.00125 1.00473 0.988407
1.00103 1.00494 0.988622
1.00032 1.00452 0.989818
1.00226 0.99481 0.989582
1.00239 0.999154 0.99065
1.00305 1.00119 0.988676
0.999792 0.998612 0.995837
0.997467 1.00269 0.998753
0.997165 1.00349 0.996625
0.998103 1.00506 0.993288
0.99906 1.0031 0.993545
0.999433 0.99639 0.988086
0.997331 1.00506 0.99458
0.996693 1.00283 0.998398
1.00053 1.00104 0.993093
0.997464 1.00241 0.996963
0.996517 1.00049 0.986578
0.996642 1.00279 0.997714
0.994643 1.00538 0.998351
0.996179 1.00406 0.997197
0.995249 1.00476 0.997484
0.994747 0.994771 0.787251
0.99477 0.994742 0.793487
0.999807 0.998831 0.837519
0.996923 1.00451 0.996063
0.998826 1.00161 0.997147
0.997801 0.998307 0.998151
0.994765 0.994809 0.786429
0.994788 0.994631 0.916995
0.994922 0.994769 0.952985
0.994845 0.995682 0.991492
0.994778 0.996003 0.866914
0.994809 0.994772 0.773623
0.995847 0.994882 0.804373
0.996092 1.00379 1.00068
0.994752 0.994799 0.78211
0.994799 0.994831 0.778531
0.994834 1.00256 0.999103
0.994851 0.995707 0.965598
0.995185 0.994783 0.914952
0.99563 0.9949 0.816885
0.995357 0.996492 0.858703
0.994727 1.00486 1.00151
0.994768 0.994829 0.76863
0.994866 0.994849 0.796037
0.994864 0.994894 0.798367
0.99472 0.999797 0.987752
0.994839 0.99544 0.9341
0.997378 0.994876 0.872626
0.995354 1.00497 0.999725
0.995181 1.00456 0.999709
0.994951 1.00515 0.999459
0.999162 1.00466 0.991375
0.99663 1.00515 0.995126
0.995169 1.00437 0.998628
0.996533 1.00509 0.995043
0.994969 1.00408 0.999169
0.995162 1.00454 0.998696
0.995042 1.00398 1.00013
0.994866 1.00401 0.999234
0.995827 1.00341 0.99776
0.999336 1.00112 0.995497
0.99521 0.999727 1.001
0.994863 1.00417 0.999599
0.999814 1.00153 0.99331
1.00069 1.00129 0.993969
0.999696 1.00195 0.99365
1.00328 1.00003 0.988698
1.00129 1.00143 0.991176
1.00311 1.00131 0.988491
1.00474 1.00115 0.986154
1.0051 1.00074 0.985681
1.00489 0.998625 0.988082
1.00474 0.999468 0.987327
1.00217 1.00413 0.988045
1.00276 1.00154 0.988886
1.00336 0.998937 0.989806
1.00063 1.00364 0.991433
0.99998 1.00505 0.989183
1.00154 1.00506 0.986788
1.00034 1.00441 0.991254
1.00112 1.0049 0.988581
1.00061 1.00481 0.988838
0.999562 1.00514 0.990643
1.00011 1.00388 0.990862
1.00019 1.00025 0.995135
1.00006 1.00283 0.9921
1.00012 0.999871 0.995175
1.0003 0.997595 0.997126
0.999889 0.999654 0.995434
1.0001 0.997338 0.998408
1.00006 0.997235 0.999085
1.00096 1.00495 0.988189
1.00021 1.00249 0.991754
1.00065 1.00428 0.989683
1.00012 0.999059 0.995652
1.00013 1.00198 0.992627
1.00042 1.00356 0.990528
1.00004 0.997175 0.999091
1.00006 0.998873 0.995917
1.00002 1.00157 0.993277
1.00001 0.997182 0.999118
1 0.998909 0.995984
1 0.997286 0.999069
0.994799 0.994816 0.779659
0.99477 0.994849 0.7929
0.999166 0.994862 0.850108
1.00071 1.00508 0.988754
0.99478 0.994801 0.780822
0.99479 0.994797 0.776168
0.994875 0.994906 0.797077
0.998035 0.994752 0.967145
0.995626 0.99471 0.935245
0.994668 0.996173 0.84926
0.994789 0.995195 0.79571
0.995399 0.994784 0.957304
0.994865 0.994658 0.930795
0.994782 0.99579 0.84729
0.994879 0.994899 0.799905
0.994937 0.994762 0.951449
0.9948 0.994829 0.926829
0.996434 0.994919 0.862008
0.995353 0.994914 0.822731
0.998514 1.00357 0.993668
0.999388 1.00439 0.991452
0.99871 1.00393 0.992458
1.00118 1.00276 0.990369
1.001 1.00429 0.989382
0.999828 1.00506 0.990218
1.00137 1.00499 0.988362
1.00127 1.00476 0.988552
0.998665 0.997304 0.988604
0.999939 1.0008 0.993205
0.998181 1.00346 0.993495
0.998287 1.00099 0.996913
0.997488 1.0021 0.998579
0.998031 1.00474 0.993896
0.996516 1.00386 0.996051
0.996181 1.00037 0.986692
0.996096 1.00484 0.997208
0.995663 1.00392 0.998344
0.996092 1.00312 0.997826
0.995175 1.00512 0.996788
0.995268 1.00445 0.983481
0.994606 1.00374 0.999486
0.994986 1.00498 0.998779
0.99549 1.00546 0.99711
0.994735 0.99481 0.770465
0.99474 0.994773 0.783662
0.994775 0.994695 0.788255
0.996009 1.00403 1.00073
0.994851 1.00194 0.997799
0.994768 0.994817 0.782899
0.994759 0.994835 0.93027
0.994847 0.995502 0.962125
0.995657 0.994909 0.857646
0.99478 0.99483 0.779526
0.994893 0.994901 0.811207
0.994777 1.00487 1.00141
0.99477 0.994827 0.769104
0.994875 0.994859 0.794169
0.994754 1.0005 0.991416
0.99488 0.994939 0.799384
0.994835 0.996741 0.927283
0.996731 0.997125 0.874238
0.994822 1.00409 0.9973
0.994835 0.994845 0.783981
0.994792 0.994816 0.782765
0.994813 0.996555 0.790102
0.996551 0.99495 0.861789
0.994886 1.00139 0.969825
0.994876 0.995048 0.920127
0.99542 1.00483 0.99954
0.995003 1.00514 0.999461
0.994743 1.00514 0.998155
0.996266 1.00502 0.995163
0.994875 1.00404 0.99929
0.995289 1.0047 0.998417
0.994873 1.0042 0.999089
0.994888 1.00441 0.999898
0.997272 1.00235 1.00019
0.994918 1.00415 0.999288
0.997979 1.00047 0.994177
0.999326 1.00149 0.99493
1.00034 0.99949 0.992702
0.996333 1.00386 0.996685
1.00281 0.999979 0.989409
1.00442 1.00285 0.984161
1.0047 1.00218 0.98471
1.00344 1.00116 0.988321
1.00465 1.0012 0.985774
1.00507 1.00154 0.984936
1.00476 1.00074 0.986386
1.00496 1.00084 0.985744
1.00416 1.00013 0.988402
1.00422 0.99957 0.98797
1.00481 0.999322 0.987307
1.0014 1.0051 0.986918
1.00148 1.00424 0.988066
1.00164 1.00205 0.989003
1.0009 1.00515 0.98895
1.00201 1.00512 0.986789
1.00124 1.00526 0.987064
1.00121 1.00474 0.988529
1.00087 1.00476 0.988817
1.00025 1.00109 0.993342
1.00051 1.00386 0.99085
1.00028 1.00021 0.99426
1.00012 0.997724 0.998764
1.00014 0.999899 0.994828
1.00021 0.997577 0.998037
1.00014 0.997463 0.998949
1.00089 1.00498 0.988301
1.00046 1.0034 0.990484
1.00081 1.00502 0.988485
1.0002 0.999347 0.995252
1.00028 1.00254 0.991616
1.00065 1.00434 0.989689
1.00005 0.99728 0.999034
1.00014 0.998998 0.995673
1.0001 1.00197 0.992408
1.00003 0.997179 0.999102
1.00005 0.998877 0.995931
1 0.997201 0.999117
0.994754 0.994815 0.777602
0.994793 0.994803 0.780031
0.994765 0.994969 0.791566
1.00086 1.0049 0.988866
1.00018 1.00509 0.988815
1.00129 1.00311 0.991003
0.994878 0.994863 0.794762
0.994795 0.994799 0.78201
0.994798 0.994784 0.776246
0.99614 0.994767 0.957805
0.99486 0.994641 0.91738
0.994784 0.996253 0.867413
0.994881 0.994883 0.794252
0.994919 0.994792 0.953302
0.994904 0.99479 0.922435
0.9961 0.995182 0.861867
0.99535 0.994907 0.817057
0.994903 0.994848 0.95262
0.994816 0.995019 0.929555
0.997025 0.994906 0.872681
0.994888 0.994904 0.795455
0.997648 1.00319 0.994961
0.998644 1.00361 0.993569
0.999086 1.00499 0.991902
1.0009 1.00308 0.990279
1.00065 1.00481 0.989305
1.00129 1.00499 0.988313
0.995891 1.00001 0.987169
0.996109 1.00334 0.997964
0.997946 1.00294 0.994974
0.996823 1.0029 0.9982
0.997364 1.00423 0.996976
0.995507 1.00501 0.99676
0.995607 1.00533 0.996759
0.995118 1.0037 0.98359
0.994885 1.00521 0.998943
0.994542 1.00457 0.997929
0.995278 1.00533 0.99801
0.994645 1.00227 0.98286
0.994768 1.00502 0.99492
0.99486 1.00271 0.999121
0.994865 0.994854 0.772422
0.994747 0.994817 0.769856
0.994734 0.994772 0.780059
0.99483 1.00474 1.00128
0.994791 1.00116 0.986832
0.994769 0.994825 0.769593
0.994819 0.996591 0.927707
0.996182 0.994875 0.860141
0.994888 0.994855 0.792279
0.994883 0.994877 0.793919
0.994788 1.00412 0.997826
0.994816 0.994846 0.782824
0.994812 0.994801 0.784148
0.994896 1.00194 0.96647
0.9948 0.996092 0.782796
0.995994 0.996864 0.860632
0.994857 0.997195 0.933983
0.994861 1.00511 0.988083
0.994763 0.994818 0.780129
0.994784 0.994788 0.776503
0.99482 0.997425 0.801444
0.994786 0.99563 0.840048
0.994792 0.994902 0.931546
0.994814 1.00156 0.959952
0.995201 1.00485 0.999413
0.994795 1.00509 0.998336
0.994871 1.00476 0.998656
0.994869 1.00437 0.998946
0.994721 1.00452 0.999543
0.996249 1.00178 1.00067
0.997931 1.00235 0.998619
0.997934 1.00144 0.995837
1.00241 0.99928 0.991925
1.00175 1.00447 0.986661
1.00208 1.00021 0.990601
1.00442 1.00291 0.984307
1.0044 1.00275 0.983845
1.00518 0.999909 0.985744
1.00512 1.00143 0.984908
1.00481 1.00207 0.984678
1.00474 1.00122 0.985406
1.00496 1.00265 0.984497
1.0051 1.00144 0.984975
1.00469 1.00058 0.986613
1.00463 1.00112 0.986534
1.00455 1.00098 0.985806
1.00221 1.00263 0.988485
1.00362 1.00053 0.988287
1.00373 1.0005 0.987841
1.00204 1.00523 0.985995
1.00192 1.00508 0.986926
1.00065 1.0042 0.98809
1.00246 1.00505 0.986805
1.00183 1.00512 0.987079
1.00044 1.00191 0.992133
1.00148 1.00447 0.988774
1.00032 1.0011 0.993278
1.00027 0.998153 0.998591
1.00044 1.00009 0.994201
1.00029 0.99779 0.997886
1.00023 0.997552 0.998795
1.00163 1.00478 0.98811
1.00078 1.00382 0.989953
1.00101 1.00501 0.988271
1.00022 0.999856 0.994711
1.00042 1.00344 0.990629
1.00071 1.00507 0.988789
1.00007 0.997406 0.998941
1.0002 0.99929 0.995278
1.00043 1.00255 0.991481
1.00005 0.997231 0.999051
1.00016 0.998957 0.995694
1.00003 0.997197 0.999113
0.994831 0.994845 0.78132
0.994757 0.994832 0.778108
0.994802 0.994793 0.780184
1.00032 1.00491 0.988706
1.0025 1.00227 0.992508
1.00048 1.00504 0.988986
1.0004 1.00508 0.98873
1.00025 1.00222 0.99171
1.00069 1.00256 0.991459
0.998401 1.00224 0.995065
0.994833 0.994835 0.779731
0.994874 0.994861 0.792788
0.994805 0.994827 0.783143
0.994892 0.994903 0.811198
0.995178 0.994789 0.951294
0.994823 0.994811 0.917405
0.995977 0.994889 0.873104
0.995068 0.994895 0.951293
0.994806 0.997409 0.915679
0.996464 0.996224 0.873478
0.995106 0.994906 0.804193
0.994843 0.99539 0.955631
0.994836 0.99798 0.916834
0.994898 0.994931 0.850012
0.994797 0.995676 0.781429
0.995435 1.00528 0.996913
0.99734 1.00368 0.995502
0.998387 1.00395 0.993469
1.00069 1.0039 0.990188
0.995126 1.00247 0.983513
0.994494 1.00534 0.996517
0.995608 1.00513 0.996746
0.996571 1.00527 0.996402
0.994596 1.00537 0.99938
0.995099 1.00531 0.997935
0.99604 1.0036 0.999367
0.994968 1.0021 0.979942
0.994875 1.00518 0.994822
0.995838 1.00285 0.999893
0.996189 1.00059 0.975197
0.994756 1.00332 0.999315
0.994742 0.994832 0.773886
0.994842 0.994854 0.7783
0.994758 0.994835 0.769236
0.99468 1.00442 0.998347
0.994889 1.00142 0.970756
0.994796 0.994848 0.781663
0.994909 0.995077 0.921312
0.995861 0.994924 0.872683
0.994801 0.994828 0.785258
0.994773 0.995532 0.794266
0.994844 1.00505 0.989125
0.994765 0.994831 0.780733
0.994776 0.994809 0.776464
0.994814 1.00195 0.959991
0.994826 0.995869 0.798431
0.994777 0.996004 0.845211
0.994839 0.995661 0.91777
0.995204 1.00404 0.982571
0.994822 0.99482 0.780247
0.99479 0.994906 0.780321
0.994723 0.994846 0.862886
0.994825 0.994885 0.92828
0.99482 0.999342 0.955654
0.994778 1.00495 0.999031
0.99481 1.00471 0.998699
0.994835 1.00485 0.998095
0.995331 1.00113 1.00116
0.996625 1.00259 0.999181
1.00055 1.00116 0.994134
1.0045 0.998849 0.991163
1.00288 1.00467 0.985792
1.00429 1.00185 0.985433
1.00434 1.00291 0.984448
1.00458 1.00286 0.983737
1.00482 1.00122 0.985332
1.00532 0.99719 0.987991
1.00524 0.999698 0.986359
1.00518 1.0001 0.985762
1.00512 1.00162 0.985056
1.00507 1.00123 0.984948
1.00488 1.00195 0.984644
1.00492 1.00412 0.982967
1.00492 1.00248 0.984589
1.00506 1.00142 0.985026
1.00421 1.00193 0.987775
1.00374 1.00121 0.98742
1.00462 1.00157 0.986687
1.00326 1.00286 0.986503
1.00243 1.00236 0.988461
1.00302 1.00135 0.98817
1.00095 1.00212 0.99116
1.00232 1.00522 0.986107
1.0023 1.00514 0.986934
1.00203 1.00505 0.987092
1.00056 1.00186 0.992116
1.00032 0.998719 0.998283
1.00028 1.00123 0.99322
1.00028 0.99824 0.998493
1.00029 0.997694 0.998673
1.00282 1.00411 0.988656
1.00248 1.00512 0.987448
1.00106 1.00436 0.988958
1.00145 1.00467 0.988108
1.00019 1.00047 0.994156
1.00072 1.00396 0.989929
1.00106 1.00516 0.988236
1.00006 0.997777 0.998811
1.00022 0.999815 0.994738
1.00044 1.00352 0.990771
1.00006 0.99743 0.99897
1.0002 0.999275 0.995309
1.00006 0.997221 0.99907
0.994782 0.994848 0.771182
0.994822 0.994835 0.780218
0.994756 0.994824 0.778608
1.00105 1.00499 0.988196
0.999688 1.00154 0.993379
1.00186 0.999837 0.990648
0.997745 1.00389 0.992587
1.0015 0.998564 0.99494
1.00061 1.00507 0.988626
0.999571 1.00285 0.992469
1.0004 1.00327 0.991454
0.998635 1.0009 0.996579
0.998891 1.00291 0.995595
0.994765 0.994749 0.776351
0.994812 0.994842 0.781134
0.994871 0.994843 0.790894
0.99532 0.994881 0.806365
0.996204 0.994904 0.860281
0.994966 0.994864 0.950019
0.994777 0.995673 0.928684
0.994877 0.996348 0.950639
0.994858 0.997942 0.929309
0.995075 0.99644 0.859658
0.994823 0.995692 0.778855
0.994961 0.998238 0.951748
0.994785 0.99648 0.928865
0.994812 0.995388 0.870336
0.994724 0.997011 0.805106
0.998309 1.00025 0.997695
0.995401 1.00508 0.99722
0.997565 1.00322 0.996067
0.994741 1.0024 0.976558
0.994834 1.00514 0.993904
0.995142 1.00527 0.997787
0.994788 1.00445 0.999608
0.995409 1.00354 0.999709
0.994787 1.00181 0.999867
0.994812 1.00183 0.976041
0.995527 1.00187 1.00259
0.994847 1.00004 0.983817
0.994776 0.994793 0.789175
0.994763 0.994843 0.773042
0.994825 0.994845 0.784467
0.994886 1.00509 0.989498
0.994852 0.999857 0.957851
0.994782 0.994839 0.781335
0.994809 0.994925 0.930019
0.994775 0.996452 0.864707
0.994801 0.994784 0.776801
0.994844 0.995014 0.795695
0.995121 1.00443 0.983465
0.994814 0.99481 0.780292
0.994812 0.995064 0.782066
0.994843 0.998381 0.95688
0.994735 0.995582 0.865526
0.995005 0.994817 0.919407
0.994726 1.00254 0.981387
0.994743 0.99482 0.77734
0.996193 0.994786 0.870474
0.994789 0.994663 0.91592
0.994932 0.994847 0.956353
0.995036 1.00478 0.998776
0.994742 1.00516 0.997862
0.997829 1.00018 0.996956
0.995353 1.00296 0.999724
0.999403 1.00174 0.995005
1.00428 0.995396 0.992829
1.004 1.00504 0.984899
1.00419 1.00173 0.985383
1.00493 0.997835 0.9884
1.00477 1.00297 0.98363
1.00478 1.00101 0.985382
1.00501 0.99759 0.988411
1.00533 0.995025 0.990202
1.00535 0.996992 0.987959
1.00534 0.997129 0.988021
1.0053 0.999637 0.986512
1.00523 0.999731 0.986304
1.00512 1.00023 0.985783
1.00536 1.00249 0.983633
1.00508 1.00156 0.984932
1.00507 1.00105 0.984985
1.00505 1.00502 0.983578
1.00423 1.00389 0.983728
1.00498 1.0022 0.984679
1.00249 1.00349 0.987827
1.00287 1.00245 0.987642
1.00309 1.00154 0.988219
1.0015 1.00278 0.991366
1.00311 1.00309 0.986596
1.00266 1.0024 0.988432
1.00057 0.999687 0.995075
1.00105 1.00247 0.991367
1.00271 1.00522 0.986227
1.00075 1.00183 0.992083
1.0004 0.998827 0.998184
1.00032 0.998526 0.998392
1.00181 1.00158 0.988494
1.0027 1.00506 0.98688
1.00051 1.00436 0.988752
1.00123 1.00492 0.988225
1.00156 1.00495 0.987447
0.999945 1.00128 0.993639
1.00093 1.00453 0.98894
1.00126 1.00496 0.9881
1.00004 0.998104 0.998694
1.00018 1.00038 0.994196
1.00056 1.00405 0.989907
1.00005 0.997667 0.998851
1.00023 0.999703 0.994762
1.00006 0.997343 0.998998
0.994764 0.994826 0.787697
0.994787 0.994844 0.771757
0.9948 0.994855 0.778951
1.00225 1.00415 0.986522
1.00067 1.00504 0.987721
0.998257 1.00201 0.994522
0.99957 1.00509 0.9918
1.00315 0.999315 0.99034
0.999467 0.99729 0.99885
1.00335 0.99961 0.990197
0.995063 1.00522 0.996321
0.999273 1.00393 0.991415
0.998527 0.998165 0.998036
0.997122 1.00336 0.995687
0.997658 1.00208 0.996458
0.994815 0.995884 0.797955
0.99479 0.994764 0.775907
0.994797 0.99485 0.782209
0.994857 0.997406 0.79443
0.995253 0.994909 0.858271
0.994857 0.997975 0.917203
0.995391 0.995029 0.951055
0.995518 0.99872 0.952499
0.994781 0.997221 0.801517
0.994817 0.996441 0.920369
0.994797 0.996366 0.849719
0.994865 0.996571 0.958861
0.994794 0.99482 0.930593
0.994716 0.996949 0.865117
0.999457 0.995927 1.00197
0.998375 1.0003 0.997589
0.994901 1.00538 0.997505
0.994936 1.0025 0.976299
0.996095 1.00033 1.00038
0.995854 1.00281 0.999624
0.996051 1.00008 1.00296
0.994938 0.999276 0.983954
0.995508 0.997889 0.994074
0.99474 0.994764 0.794007
0.994769 0.994805 0.788791
0.994789 0.994838 0.771931
0.994745 1.00485 0.983543
0.994824 0.999865 0.956175
0.994795 0.99481 0.78064
0.994836 0.994827 0.91549
0.994665 0.995978 0.848172
0.994853 0.995202 0.796051
0.994767 1.00465 0.981073
0.99476 0.994854 0.792542
0.995192 0.994755 0.848666
0.995043 0.994856 0.951008
0.994951 0.994663 0.930352
0.995562 0.998758 0.988619
0.999049 0.996767 0.835998
0.995573 0.994725 0.936229
0.994947 0.994752 0.949076
0.994692 1.00534 0.997676
0.997513 1.00176 0.996649
1.00089 0.99798 0.993766
0.998346 1.00257 0.995877
1.00352 0.996565 0.992591
1.00493 0.994797 0.991828
1.0041 1.00155 0.985337
1.00489 0.99762 0.98826
1.00507 0.995786 0.990105
1.00473 1.00065 0.985433
1.00497 0.997462 0.988335
1.00534 0.994791 0.990408
1.00528 0.994793 0.991107
1.0053 0.995125 0.99015
1.00534 0.995023 0.990213
1.0054 0.99684 0.988095
1.00534 0.996911 0.988148
1.00537 0.997062 0.98805
1.00545 1.00004 0.985637
1.00529 0.999488 0.986403
1.00521 0.999761 0.986245
1.00539 1.00405 0.981939
1.00535 1.00274 0.983576
1.00502 1.0015 0.984807
1.00317 1.00248 0.987028
1.00399 1.00499 0.983508
1.00336 1.00385 0.984506
1.00143 1.00305 0.989473
1.00287 1.00263 0.987696
1.00165 1.00256 0.987494
1.00003 1.00168 0.997334
1.00152 1.00295 0.989534
1.00337 1.00263 0.986667
1.00047 0.999195 0.997888
1.00119 1.00241 0.990664
1.00045 0.998717 0.998081
1.00454 1.00289 0.98572
1.00313 1.00136 0.988015
1.00249 1.00455 0.986882
1.00158 1.00513 0.987921
1.00219 1.00506 0.98687
1.00021 1.00467 0.988839
1.00004 1.00194 0.993022
1.00105 1.00503 0.988241
1.00153 1.00425 0.987437
1.00002 0.998655 0.998556
0.999996 1.00126 0.993644
1.00084 1.00475 0.988921
1.00002 0.998108 0.998728
1.00017 1.00041 0.994228
1.00004 0.997648 0.998891
0.994764 0.994816 0.783772
0.994775 0.994815 0.787926
0.994792 0.994837 0.772432
1.00266 1.00377 0.986686
1.00441 1.00364 0.985941
1.00129 1.00488 0.988286
0.999236 1.00514 0.990982
1.00473 0.999045 0.990058
0.995948 0.997353 1.00238
0.997411 1.0021 0.996345
1.00161 1.00073 0.99191
1.00073 1.00012 0.993834
0.998504 0.9999 0.996828
0.997159 1.00316 0.995741
0.99857 1.002 0.996407
0.995874 0.994871 0.843875
0.994767 0.995078 0.792204
0.994813 0.99478 0.776379
0.994835 0.995258 0.797493
0.994779 0.996147 0.868577
0.994824 0.995582 0.9172
0.994812 0.998886 0.95175
0.994888 0.997509 0.955611
0.994785 0.995715 0.866696
0.994915 0.994803 0.916922
0.994929 0.996329 0.96066
0.994889 0.994599 0.919092
0.998643 0.995409 1.00577
0.999458 0.995755 1.00181
0.998179 1.00033 0.997578
0.994833 0.999408 0.984273
0.996112 0.999611 1.00329
0.995636 0.998005 0.993745
0.99495 0.995471 0.991802
0.999507 0.999575 0.847588
0.994755 0.994735 0.790375
0.994765 0.994822 0.788109
0.994813 1.00432 0.981593
0.99502 0.99483 0.950206
0.994756 0.994869 0.790968
0.994884 0.994637 0.917719
0.995824 0.994894 0.869325
0.995438 0.998445 0.984982
0.998922 0.994897 0.851021
0.995985 0.994671 0.920668
0.994989 0.994794 0.950435
0.996628 0.996836 0.984671
0.998554 0.99487 0.935355
0.994921 0.994787 0.958198
0.997049 1.00255 0.996365
1.00039 0.997828 0.993694
1.00333 0.996966 0.992337
1.00274 0.997459 0.992366
1.00472 0.994807 0.991759
1.0051 0.994658 0.991229
1.00488 0.997494 0.988124
1.00499 0.995863 0.98999
1.00531 0.994746 0.990449
1.00492 0.99736 0.988258
1.00534 0.994789 0.99036
1.00529 0.994815 0.990784
1.00531 0.994863 0.990875
1.00526 0.994798 0.991101
1.0053 0.994838 0.991094
1.00532 0.995321 0.990311
1.00531 0.995188 0.990295
1.00536 0.995015 0.990225
1.00545 0.99745 0.987802
1.0054 0.996828 0.988068
1.00534 0.99682 0.988338
1.0054 1.00182 0.983808
1.00545 1.00006 0.985627
1.00527 0.999381 0.986299
1.00482 1.00228 0.984433
1.0054 1.00376 0.982131
1.00527 1.00287 0.983516
1.0016 1.00407 0.987982
1.00309 1.00308 0.986958
1.00289 1.00456 0.983455
1.00076 1.00067 0.997189
1.0016 1.00284 0.989521
1.0028 1.00229 0.98757
1.00047 1.00081 0.995667
1.00149 1.00247 0.989821
1.00057 1.00007 0.997546
1.00482 1.00441 0.982792
1.0035 1.00338 0.985718
1.00316 1.00267 0.986414
1.00398 1.00206 0.987542
1.0025 1.0043 0.986951
1.00169 1.00514 0.987604
1.00047 1.00217 0.992244
1.00127 1.00513 0.987889
1.00065 1.00511 0.986876
1.00007 0.998764 0.998336
0.999942 1.00183 0.993025
1.00105 1.00513 0.988255
0.999965 0.998438 0.9986
1.00003 1.00099 0.99368
0.999995 0.997981 0.998762
0.997822 0.994847 0.852542
0.994774 0.994806 0.789533
0.994783 0.994808 0.788315
1.00275 1.00315 0.986858
1.00183 1.00501 0.987171
1.00426 1.00336 0.985231
1.00504 0.999577 0.987042
1.00196 1.00008 0.991777
0.998781 1.00219 0.996404
1.00129 1.00014 0.993611
1.00107 1.00013 0.993957
1.0048 0.995347 0.991737
1.00179 0.997903 0.995337
1.00176 0.998452 0.995036
1.00024 0.998612 0.99677
0.999316 1.00146 0.996414
0.997438 0.994682 0.932068
0.996632 0.995085 0.849397
0.994728 0.994883 0.798109
0.994764 0.995548 0.85086
0.994795 0.99483 0.928135
0.995013 0.997075 0.958189
0.994972 0.99576 0.962649
0.994884 0.994644 0.933132
0.995669 0.994793 0.959404
0.997053 0.995751 1.00528
0.997523 0.996142 1.00584
0.999684 0.995471 1.00158
0.995274 0.997457 0.993591
0.996118 0.994953 0.993407
0.999782 0.997333 0.918876
0.99975 0.995016 0.857059
0.994771 0.994707 0.786739
0.995368 0.997546 0.980865
0.994911 0.994765 0.949608
0.999108 0.994854 0.850062
0.995574 0.994694 0.93544
0.996712 0.99607 0.984867
0.999618 0.994853 0.930425
0.995344 0.994793 0.955608
0.999692 0.994671 0.983932
0.997838 0.994804 0.967689
0.999977 0.998062 0.993595
1.00238 0.996213 0.992394
1.00489 0.994656 0.991942
1.00445 0.994821 0.991683
1.00504 0.994664 0.991149
1.00528 0.994677 0.990741
1.0049 0.995919 0.989873
1.0053 0.994757 0.990406
1.00534 0.994825 0.99047
1.00536 0.994788 0.990311
1.00529 0.994818 0.990786
1.00533 0.994857 0.990633
1.00529 0.994863 0.990864
1.00533 0.99485 0.990831
1.00524 0.994804 0.991095
1.00529 0.994819 0.991099
1.00526 0.994903 0.991019
1.00534 0.996065 0.989744
1.00533 0.995362 0.990316
1.00531 0.995262 0.99044
1.00537 1.00009 0.985551
1.00548 0.997531 0.987645
1.00539 0.996801 0.988039
1.00525 1.0042 0.982474
1.00541 1.00189 0.983925
1.00551 1.00007 0.985616
1.00288 1.00372 0.986352
1.0043 1.00293 0.984529
1.00542 1.00384 0.982314
1.00073 1.00131 0.996871
1.00188 1.00378 0.987924
1.0029 1.00377 0.986897
1.00069 1.00068 0.997156
1.00184 1.00265 0.989574
1.00072 1.0004 0.997286
1.00513 1.00307 0.984192
1.00485 1.00444 0.98292
1.00308 1.00493 0.983813
1.00289 1.00356 0.985702
1.00266 1.00391 0.986162
1.00189 1.00432 0.986513
1.00224 1.0036 0.987003
1.00142 1.00514 0.987505
1.00104 1.00276 0.990762
1.00009 0.999497 0.998018
1.00023 1.00235 0.992232
1.00083 1.00514 0.987863
0.999999 0.999013 0.998418
0.999842 1.00205 0.992983
0.999947 0.998428 0.998644
0.999965 0.994828 0.935488
0.999851 0.995188 0.849364
0.994764 0.994774 0.783431
1.00207 1.00548 0.986033
1.00409 1.00358 0.984517
1.00291 1.00009 0.990506
1.00502 1.00007 0.986685
1.00511 0.997737 0.988216
1.00474 0.995221 0.99102
1.00174 0.998355 0.994045
1.00503 0.995634 0.99089
1.00176 0.997874 0.995229
1.00436 0.998141 0.990471
1.0021 0.998789 0.993041
1.00198 0.998811 0.994469
1.00161 0.998946 0.995198
1.0011 0.998036 0.996701
0.994948 0.994773 0.958561
0.99667 0.99466 0.926881
0.995285 0.995148 0.868087
0.994791 0.994616 0.918217
0.994868 0.995896 0.963337
0.995729 0.994978 0.965724
0.9986 0.99477 0.990278
0.998482 0.995347 1.00381
0.996913 0.996992 1.00593
0.997608 0.995309 0.995101
0.999023 0.994754 0.958705
1.00066 0.994872 0.935149
0.999496 0.999928 0.835762
0.996646 0.995994 0.985305
0.995902 0.994783 0.955755
0.998812 0.994788 0.925186
0.999424 0.995325 0.984543
0.997632 0.994812 0.966452
1.00199 0.996706 0.987261
1.00357 0.994715 0.984298
1.00135 0.995911 0.992461
1.00422 0.994664 0.992053
1.00522 0.994819 0.990866
1.00498 0.994671 0.991069
1.00529 0.994687 0.990704
1.00539 0.994791 0.990483
1.00528 0.99476 0.990361
1.00535 0.994819 0.990476
1.00536 0.994849 0.99055
1.00528 0.994818 0.990787
1.00533 0.994856 0.99066
1.00533 0.994877 0.990768
1.00527 0.994861 0.990854
1.00533 0.994851 0.990825
1.00531 0.994871 0.990999
1.00529 0.9948 0.991104
1.00527 0.994887 0.991035
1.00527 0.995621 0.990349
1.00532 0.998508 0.987364
1.00535 0.996295 0.989408
1.00533 0.995403 0.990321
1.00528 1.00312 0.982852
1.00535 1.00028 0.985556
1.0055 0.997627 0.987489
1.00347 1.00291 0.986224
1.00473 1.00431 0.982509
1.00539 1.00202 0.984056
1.00167 1.00207 0.995938
1.00282 1.00369 0.986224
1.00373 1.00357 0.984641
1.00116 1.00161 0.996443
1.00216 1.00345 0.987873
1.00087 1.0006 0.996961
1.00535 1.00048 0.9854
1.00507 1.00306 0.983874
1.00485 1.00407 0.982861
1.00484 1.00355 0.983043
1.00437 1.00426 0.983523
1.00333 1.00365 0.985092
1.00317 1.00511 0.985927
1.0027 1.00438 0.986555
1.00152 1.00343 0.988874
1.00142 1.00515 0.987429
1.0007 1.00297 0.990769
1.00024 1.00068 0.997386
1.00004 0.999266 0.998147
0.999992 1.00232 0.992236
0.999909 0.99882 0.998486
0.995148 0.994826 0.962741
0.998932 0.99488 0.918997
0.999673 0.997721 0.864837
1.00535 0.996164 0.989131
1.00394 1.00008 0.989269
1.00506 1.00035 0.986329
1.00501 0.995483 0.990998
1.00526 0.997611 0.9883
1.00535 0.995604 0.990031
1.00508 0.995797 0.990058
1.00119 0.997664 0.995154
1.0045 0.996797 0.990506
1.00185 0.998866 0.99294
1.00345 0.998917 0.990165
1.00333 0.99461 0.994587
1.00133 0.998449 0.994856
1.00126 0.999247 0.995367
0.998053 0.99474 0.988495
0.995417 0.994757 0.956872
0.996006 0.994692 0.920793
0.995212 0.994804 0.967152
0.998649 0.99476 0.9925
0.999199 0.994866 1.00232
1.00419 0.994719 0.975738
1.00032 0.994838 0.956211
0.999917 0.996512 0.919147
0.998798 0.995901 0.985106
0.996894 0.994808 0.966125
1.0014 0.995768 0.98799
1.0026 0.994724 0.984858
1.00321 0.996783 0.990173
1.00541 0.994614 0.990749
1.00362 0.99467 0.992167
1.00519 0.994802 0.990859
1.00539 0.994922 0.99052
1.0053 0.994706 0.990668
1.00539 0.994805 0.990493
1.00539 0.994839 0.99061
1.00535 0.994819 0.990482
1.00536 0.994848 0.990548
1.00533 0.994881 0.990824
1.00533 0.994858 0.990686
1.00533 0.994877 0.99076
1.00529 0.994889 0.99098
1.00534 0.994853 0.99082
1.0053 0.994863 0.990971
1.00531 0.994924 0.991064
1.00527 0.994871 0.991051
1.00527 0.995432 0.990548
1.00531 0.99776 0.988333
1.00528 1.00173 0.984354
1.0053 0.998814 0.987081
1.00536 0.996508 0.989072
1.00365 1.00174 0.986848
1.00529 1.00312 0.982862
1.00535 1.00043 0.985557
1.00249 1.00159 0.99573
1.00345 1.00272 0.986149
1.00437 1.00443 0.982525
1.00193 1.00206 0.995812
1.00278 1.00363 0.986081
1.00144 1.00205 0.9961
1.00537 0.997991 0.987357
1.00528 1.00056 0.98542
1.00545 1.0026 0.983457
1.00494 1.00342 0.983563
1.00494 1.00429 0.982587
1.00387 1.00393 0.983888
1.00522 1.00382 0.983241
1.00335 1.00396 0.985125
1.00204 1.00387 0.987545
1.00262 1.00442 0.986535
1.00148 1.0037 0.988918
1.00056 1.00191 0.996787
1.00049 1.00324 0.990776
1.00003 1.00046 0.997647
0.99998 0.999419 0.998252
0.998843 0.994572 0.985605
0.996379 0.994784 0.957382
0.999993 0.994837 0.935213
1.00542 0.99502 0.989966
1.00533 0.995014 0.990283
1.00537 0.995893 0.989302
1.00529 0.995843 0.990971
1.00538 0.9974 0.988389
1.00535 0.995642 0.990034
1.00537 0.995038 0.98996
1.00479 0.995787 0.990538
1.00244 0.999086 0.992857
1.00357 0.998247 0.990788
1.00521 0.994794 0.991174
1.00353 0.994852 0.993215
1.00254 0.994717 0.994498
1.00137 0.998176 0.995244
0.998778 0.994658 0.988338
0.996184 0.994794 0.955995
0.999238 0.994784 0.994854
1.00498 0.995476 0.989404
1.00405 0.995039 0.975776
0.999106 0.994824 0.957002
1.00147 0.994824 0.988605
1.00174 0.994706 0.985449
1.00356 0.99583 0.990533
1.00537 0.994599 0.990942
1.00545 0.994742 0.991015
1.0055 0.994699 0.991436
1.0052 0.994775 0.990848
1.0054 0.994872 0.990534
1.0054 0.994842 0.990901
1.00538 0.99481 0.990502
1.00539 0.994838 0.990625
1.00534 0.994857 0.990928
1.00536 0.994846 0.990547
1.00533 0.994882 0.990823
1.00527 0.994907 0.991078
1.00534 0.994876 0.990753
1.00529 0.994889 0.990976
1.00526 0.994875 0.991254
1.00529 0.994856 0.990943
1.00531 0.994931 0.990996
1.00532 0.996767 0.989313
1.00526 0.995252 0.990748
1.00532 0.997662 0.988453
1.00529 1.0008 0.985388
1.00372 1.00108 0.987521
1.0053 1.00168 0.984385
1.00529 0.999139 0.986798
1.0027 1.0008 0.995865
1.00362 1.00185 0.986919
1.00529 1.00321 0.98287
1.00249 1.00145 0.995759
1.00343 1.00282 0.986087
1.0021 1.00213 0.995727
1.00532 0.995909 0.98949
1.00538 0.997822 0.987645
1.00537 1.00087 0.985152
1.00526 1.00066 0.985437
1.00544 1.00262 0.983339
1.00447 1.00422 0.982837
1.00538 1.00431 0.982307
1.00421 1.00396 0.983861
1.00245 1.00406 0.986427
1.00392 1.00416 0.985188
1.0019 1.00396 0.987586
1.00094 1.00243 0.996332
1.00113 1.00398 0.988961
1.00033 1.00167 0.996986
0.999995 1.00001 0.997874
1.00372 0.994724 0.992228
0.998388 0.994737 0.982976
0.995997 0.994779 0.958788
1.00537 0.994832 0.99029
1.00539 0.995051 0.990005
1.00528 0.994836 0.990843
1.00533 0.995131 0.990242
1.0054 0.995672 0.98946
1.00541 0.994825 0.990443
1.00535 0.995598 0.99003
1.00535 0.995029 0.989979
1.00532 0.994716 0.990913
1.00361 0.997326 0.991407
1.00521 0.99474 0.990822
1.00297 0.994669 0.99343
1.00145 0.994771 0.994442
0.999507 0.99458 0.987952
1.00542 0.994751 0.991616
1.0053 0.994744 0.989423
1.00395 0.994809 0.9759
1.00373 0.994888 0.990867
1.00535 0.99462 0.991126
1.00541 0.994737 0.990964
1.00553 0.994726 0.991559
1.00542 0.994794 0.991436
1.00542 0.994832 0.990549
1.0054 0.994838 0.990899
1.00534 0.994866 0.991204
1.0054 0.994839 0.990641
1.00534 0.994862 0.990929
1.00528 0.994906 0.991204
1.00533 0.994882 0.990822
1.00527 0.994907 0.991074
1.00515 0.994905 0.991492
1.00529 0.994889 0.990972
1.00528 0.994877 0.99122
1.00533 0.995889 0.990377
1.0053 0.994938 0.990928
1.00534 0.996793 0.989292
1.00529 1.00008 0.986197
1.00532 0.997555 0.988572
1.0053 1.00077 0.985415
1.0036 1.00091 0.98984
1.00306 0.999844 0.992126
1.00372 1.00111 0.988512
1.00532 1.00163 0.984415
1.00261 1.00075 0.995938
1.00358 1.00166 0.986991
1.00245 1.00141 0.995814
1.00529 0.994886 0.991064
1.00534 0.995034 0.990595
1.00532 0.9959 0.989693
1.00532 0.999104 0.986818
1.00536 0.997619 0.987933
1.00534 1.00081 0.985096
1.0051 1.00346 0.982794
1.00541 1.00271 0.98322
1.00488 1.00388 0.982798
1.00308 1.00338 0.985937
1.00454 1.00405 0.98384
1.00252 1.00405 0.986469
1.00165 1.00265 0.995828
1.00203 1.00399 0.98764
1.00082 1.00227 0.996519
0.999962 1.0015 0.997237
1.00536 0.99481 0.99138
1.00336 0.994831 0.991702
0.998348 0.994916 0.980374
1.00531 0.994869 0.990755
1.00538 0.994901 0.990239
1.00537 0.995056 0.990057
1.00528 0.994853 0.990877
1.00532 0.995277 0.990201
1.00536 0.994829 0.990937
1.00538 0.994813 0.990392
1.00532 0.995084 0.99
1.00528 0.994716 0.99096
1.00519 0.994739 0.990468
1.00254 0.994453 0.99359
1.00538 0.994822 0.991477
1.00541 0.994754 0.991618
1.00535 0.99462 0.989444
1.00538 0.994718 0.990903
1.00559 0.994717 0.99168
1.00544 0.994801 0.991414
1.00535 0.994879 0.99147
1.00539 0.994834 0.990897
1.00534 0.994868 0.991164
1.00529 0.994916 0.991358
1.00534 0.994866 0.990931
1.00528 0.994907 0.991209
1.00511 0.994946 0.991646
1.00528 0.994907 0.991071
1.00518 0.994908 0.991475
1.00531 0.995298 0.991158
1.0053 0.994879 0.991187
1.00529 0.995909 0.990368
1.00529 0.999538 0.98681
1.00536 0.996819 0.989272
1.00528 1.00007 0.986234
1.00358 1.00069 0.990063
1.00532 1.00073 0.985445
1.00385 1.00075 0.989682
1.00297 0.999636 0.992277
1.00267 1.00017 0.994189
1.00393 1.00112 0.989282
1.00258 1.00062 0.995992
1.00527 0.994907 0.991042
1.00533 0.994886 0.990979
1.00529 0.994897 0.99109
1.00535 0.997462 0.988423
1.00533 0.994982 0.990722
1.00532 0.995909 0.989895
1.00532 0.999009 0.986818
1.00534 1.00192 0.984025
1.00532 1.00072 0.985044
1.00513 1.00349 0.982783
1.00343 1.00224 0.98671
1.00521 1.00372 0.982765
1.00309 1.00345 0.986006
1.00214 1.00203 0.99575
1.00252 1.00392 0.986514
1.00144 1.00237 0.996025
1.00058 1.00227 0.996644
1.00534 0.994846 0.991209
1.00533 0.994806 0.99143
1.00258 0.994907 0.991205
1.0053 0.994904 0.991011
1.00531 0.99486 0.990716
1.00538 0.994922 0.990192
1.00528 0.994867 0.990909
1.00538 0.994843 0.990893
1.00535 0.994805 0.990341
1.00526 0.994734 0.991003
1.00536 0.994874 0.991473
1.00536 0.994829 0.991448
1.00538 0.994778 0.991616
1.00532 0.9949 0.991525
1.00544 0.994816 0.991392
1.00535 0.99488 0.991457
1.00531 0.994917 0.99149
1.00534 0.994871 0.991123
1.00529 0.994915 0.991364
1.00514 0.994955 0.991709
1.00527 0.994908 0.991213
1.00512 0.994943 0.991643
1.00527 0.995032 0.991587
1.0052 0.99491 0.991458
1.00526 0.995348 0.991153
1.00534 0.999076 0.987276
1.00526 0.995929 0.99036
1.0053 0.99953 0.986838
1.00355 1.00053 0.990213
1.00527 1.00005 0.986273
1.00382 1.00056 0.989877
1.00286 0.999729 0.992315
1.0041 1.00058 0.989529
1.00243 0.999788 0.992695
1.00188 1.00053 0.99669
1.00525 0.994942 0.991127
1.00522 0.994911 0.991249
1.00527 0.994912 0.991063
1.00533 0.996933 0.989081
1.00532 0.994871 0.991035
1.00529 0.99491 0.991119
1.00535 1.00059 0.985455
1.00537 0.997396 0.988447
1.00532 0.994935 0.990849
1.00532 0.99892 0.986817
1.00534 1.00199 0.983991
1.00351 1.0014 0.987579
1.00532 1.00346 0.982757
1.0034 1.0023 0.98668
1.00228 1.00122 0.995961
1.00312 1.00351 0.986054
1.00209 1.00207 0.995742
1.00132 1.00228 0.996259
1.00531 0.9949 0.991341
1.00537 0.994838 0.991149
1.0053 0.994778 0.991487
1.00529 0.994906 0.991017
1.00531 0.994848 0.990678
1.00539 0.994852 0.99085
1.00533 0.994906 0.991524
1.00536 0.994875 0.99148
1.00537 0.994835 0.991419
1.00532 0.994901 0.991543
1.00529 0.994925 0.991617
1.00535 0.994881 0.991444
1.0053 0.994918 0.991514
1.00515 0.994932 0.991739
1.00529 0.994915 0.991371
1.00513 0.994956 0.991715
1.00528 0.994948 0.991721
1.00512 0.99494 0.99164
1.00526 0.995048 0.991573
1.00537 0.998638 0.987729
1.00521 0.995397 0.991147
1.00536 0.999063 0.987287
1.00345 1.00042 0.990438
1.0053 0.999523 0.986867
1.00378 1.00044 0.990018
1.00273 0.999867 0.992349
1.00405 1.00045 0.989699
1.00237 0.999793 0.992753
1.0019 0.999972 0.993099
1.00525 0.994935 0.991349
1.00517 0.99496 0.991419
1.00526 0.994937 0.991098
1.00528 0.996239 0.990035
1.00522 0.994918 0.991237
1.00526 0.994918 0.991082
1.0053 0.999846 0.9864
1.00534 0.996556 0.989475
1.00532 0.994853 0.991092
1.0036 1.0008 0.988054
1.00533 1.00066 0.985406
1.00537 0.99732 0.988472
1.00532 1.00204 0.983956
1.00352 1.00136 0.987522
1.00234 1.00068 0.996097
1.00337 1.00245 0.986663
1.00232 1.00134 0.995883
1.00198 1.00201 0.99579
1.00528 0.994924 0.991524
1.00531 0.994897 0.9913
1.00538 0.994831 0.991088
1.00528 0.994911 0.991022
1.00525 0.994942 0.991654
1.00533 0.994906 0.991528
1.00536 0.99488 0.991487
1.00533 0.994902 0.991562
1.00529 0.994925 0.991626
1.00513 0.994934 0.991912
1.0053 0.994919 0.991538
1.00515 0.994933 0.991797
1.00531 0.994934 0.991671
1.00512 0.994957 0.991721
1.00528 0.994951 0.991712
1.00536 0.998287 0.988134
1.00526 0.995063 0.991559
1.00539 0.998625 0.987722
1.00346 1.00031 0.988864
1.00538 0.999051 0.987295
1.00367 1.00037 0.989364
1.00228 0.999954 0.99619
1.00401 1.00037 0.989823
1.00227 0.999897 0.992782
1.0019 0.999841 0.993174
1.00524 0.994942 0.991508
1.00513 0.994949 0.991581
1.00525 0.994941 0.991388
1.00526 0.995371 0.991104
1.00516 0.994957 0.991406
1.00526 0.994932 0.991069
1.00534 0.998696 0.987644
1.00529 0.996206 0.990031
1.00522 0.994927 0.991225
1.00366 1.00049 0.988296
1.0053 0.99952 0.986731
1.00534 0.99618 0.989866
1.00239 1.00027 0.996163
1.00362 1.00077 0.988012
1.00532 1.00072 0.985357
1.00355 1.00133 0.987468
1.00239 1.00072 0.996059
1.00237 1.00142 0.995792
1.00523 0.994957 0.991571
1.00529 0.994923 0.99151
1.0053 0.994892 0.991259
1.00507 0.994946 0.992059
1.00525 0.99494 0.991627
1.00533 0.994904 0.991531
1.00529 0.994924 0.991635
1.00513 0.994933 0.991914
1.00529 0.995503 0.991104
1.00515 0.994933 0.991855
1.00531 0.995238 0.991382
1.00536 0.997489 0.989003
1.00529 0.994954 0.991701
1.00538 0.998267 0.988121
1.00339 1.00007 0.98922
1.00541 0.998613 0.987719
1.00349 1.00027 0.988878
1.00217 1.00001 0.99623
1.00373 1.00034 0.988478
1.00209 0.999995 0.994632
1.00182 0.999908 0.993212
1.00519 0.994959 0.991666
1.00506 0.994959 0.991826
1.00523 0.994945 0.99152
1.00525 0.995315 0.991327
1.00512 0.994948 0.99162
1.00524 0.994946 0.991427
1.00537 0.998325 0.987971
1.00527 0.995663 0.990751
1.00515 0.994955 0.991392
1.00365 1.00039 0.98844
1.00533 0.998629 0.98769
1.0053 0.996176 0.990028
1.00239 1.00005 0.996172
1.00365 1.0005 0.988279
1.00531 0.999194 0.987066
1.00245 1.00029 0.996142
1.00364 1.00075 0.987967
1.00239 1.00077 0.996029
1.00504 0.994963 0.992
1.00523 0.994953 0.991608
1.0053 0.994923 0.991496
1.00527 0.995549 0.991117
1.00507 0.994948 0.99203
1.00525 0.99494 0.9916
1.00513 0.994934 0.991917
1.00529 0.995544 0.991096
1.00536 0.997386 0.989063
1.00531 0.995553 0.991092
1.00536 0.997788 0.988674
1.00332 0.999869 0.989516
1.00539 0.998249 0.988106
1.00338 1.00007 0.98923
1.00202 1 0.996304
1.0035 1.00025 0.988889
1.00211 1.00002 0.996252
1.00219 0.999994 0.992702
1.00501 0.994978 0.992009
1.00519 0.994954 0.991596
1.00524 0.995192 0.991536
1.00507 0.994963 0.991831
1.00523 0.994946 0.991533
1.00538 0.998837 0.987434
1.00526 0.995232 0.991325
1.00512 0.994945 0.991659
1.00357 1.00037 0.988618
1.00536 0.998664 0.987625
1.00528 0.995968 0.9904
1.00231 1.00002 0.996164
1.00363 1.00043 0.988434
1.00533 0.998558 0.987738
1.00244 1.00007 0.99617
1.00364 1.00053 0.988256
1.00252 1.00029 0.996116
1.00524 0.995646 0.991044
1.00504 0.994963 0.992043
1.00523 0.994949 0.991644
1.00537 0.997482 0.988959
1.00527 0.995591 0.991106
1.00508 0.994949 0.992001
1.00529 0.995582 0.991088
1.00536 0.997432 0.989063
1.00328 0.999753 0.989713
1.00536 0.998075 0.988347
1.00333 0.999866 0.989518
1.00193 0.999986 0.996389
1.00339 1.00008 0.989244
1.00197 1.00003 0.996344
1.00206 1.00003 0.996283
1.00522 0.99511 0.991701
1.00502 0.994977 0.991949
1.00518 0.994949 0.991525
1.00538 0.998678 0.987627
1.00524 0.995128 0.991535
1.00507 0.994967 0.991836
1.00348 1.00029 0.988867
1.00537 0.998867 0.987439
1.00528 0.995149 0.991323
1.00217 1.00007 0.996177
1.00355 1.00041 0.988615
1.00535 0.998992 0.987278
1.00236 1.00002 0.996166
1.00361 1.00048 0.988425
1.00251 1.00005 0.996164
1.00538 0.998328 0.988037
1.00524 0.995326 0.991412
1.00504 0.994961 0.992087
1.00326 0.999722 0.98981
1.00537 0.997498 0.988975
1.00526 0.995625 0.991095
1.00535 0.997476 0.989063
1.0033 0.999731 0.989709
1.00186 0.999974 0.996434
1.00333 0.999865 0.989521
1.0019 0.999992 0.996402
1.00191 1.00004 0.996373
1.00539 0.998515 0.987842
1.00523 0.995075 0.991689
1.00503 0.994977 0.99189
1.00356 1.00014 0.990617
1.00538 0.9987 0.987633
1.00525 0.995064 0.991534
1.00204 1.0001 0.996232
1.00346 1.00033 0.988869
1.00536 0.998899 0.987444
1.00223 1.00006 0.996173
1.00353 1.00045 0.988613
1.00242 1.00001 0.996167
1.00341 0.999734 0.989616
1.00538 0.997998 0.98842
1.00524 0.994996 0.99178
1.00178 0.999977 0.996486
1.00327 0.999695 0.989795
1.00537 0.997524 0.988993
1.00331 0.999707 0.989702
1.00184 0.999967 0.996452
1.00187 1 0.996419
1.00362 0.999939 0.990797
1.00538 0.998523 0.987849
1.00523 0.995038 0.991677
1.00135 1.00014 0.996987
1.00338 1.00016 0.989164
1.00537 0.99872 0.987642
1.00207 1.0001 0.996219
1.00343 1.00038 0.988869
1.00228 1.00004 0.996168
1.0018 0.999868 0.993404
1.00343 0.999768 0.990337
1.00537 0.997676 0.9888
1.00181 0.999972 0.996487
1.00329 0.999675 0.989788
1.00184 0.999963 0.996463
1.00116 1.00006 0.993937
1.00349 0.999887 0.990121
1.00537 0.998535 0.987854
1.00161 1.00011 0.995034
1.00335 1.00017 0.989188
1.00211 1.00009 0.996207
1.00181 0.999976 0.99647
1.00327 0.99977 0.989721
1.00179 0.999959 0.99648
1.00156 0.999959 0.995197
1.00335 0.999869 0.989506
1.00196 1.0001 0.996278
1.00181 1 0.996458
1.00186 1.00003 0.996376

TENSORS stress float
0.00280353 -0.000197832 0.000324801
-0.000197832 0.00149556 -6.14663e-05
0.000324801 -6.14663e-05 0.00146761
0.00850156 0.000201252 0.000405552
0.000201252 0.00522776 5.4257e-05
0.000405552 5.4257e-05 0.00524726
0.00240038 -0.000127383 0.000126826
-0.000127383 0.00122465 -2.33426e-05
0.000126826 -2.33426e-05 0.00118077
0.00255598 -0.000109534 0.000301316
-0.000109534 0.00132442 -3.44196e-05
0.000301316 -3.44196e-05 0.00130886
0.00274515 -0.000171219 0.00031404
-0.000171219 0.00145338 -5.32691e-05
0.00031404 -5.32691e-05 0.00142907
0.00292118 -0.000208768 0.000339759
-0.000208768 0.00156908 -6.506e-05
0.000339759 -6.506e-05 0.00154227
0.00227548 -0.000251662 6.50315e-05
-0.000251662 0.000955525 -1.61163e-05
6.50315e-05 -1.61163e-05 0.000792055
0.0086561 0.000196182 -1.00143e-05
0.000196182 0.00531893 -3.75456e-06
-1.00143e-05 -3.75456e-06 0.0053427
0.00747677 0.000295498 0.000196845
0.000295498 0.00458811 2.3595e-05
0.000196845 2.3595e-05 0.00455131
0.00793695 0.000120015 0.000141132
0.000120015 0.00483481 1.10169e-05
0.000141132 1.10169e-05 0.00481252
0.00228275 0.0002706 0.000363995
0.0002706 0.00118637 5.98973e-05
0.000363995 5.98973e-05 0.00115997
0.000231489 0.000324002 2.57879e-05
0.000324002 -0.000291176 2.51373e-05
2.57879e-05 2.51373e-05 -0.000502682
0.00205922 -2.62215e-05 0.000286849
-2.62215e-05 0.00100114 6.11194e-06
0.000286849 6.11194e-06 0.00100849
0.00181132 1.07536e-05 8.30362e-05
1.07536e-05 0.00086628 3.86891e-06
8.30362e-05 3.86891e-06 0.000812407
0.00206811 -0.000123993 -8.28131e-05
-0.000123993 0.00102279 1.55154e-05
-8.28131e-05 1.55154e-05 0.00095254
0.00220986 -0.000106109 9.64284e-05
-0.000106109 0.00111913 -6.70279e-06
9.64284e-05 -6.70279e-06 0.00107881
0.00248807 -0.000121472 0.00013998
-0.000121472 0.0012812 -2.68082e-05
0.00013998 -2.68082e-05 0.00123598
0.0023454 -0.000127038 0.000113887
-0.000127038 0.00119409 -1.72202e-05
0.000113887 -1.72202e-05 0.00115146
0.00240525 -0.000288766 -5.00476e-05
-0.000288766 0.00104338 8.95662e-06
-5.00476e-05 8.95662e-06 0.00089018
0.00683087 -0.000177491 0.000383957
-0.000177491 0.00417056 -2.09361e-05
0.000383957 -2.09361e-05 0.0042005
0.0024099 -8.29172e-05 0.00029292
-8.29172e-05 0.00123182 -2.59225e-05
0.00029292 -2.59225e-05 0.00122047
0.00267212 -0.000140056 0.000307824
-0.000140056 0.0014013 -4.38428e-05
0.000307824 -4.38428e-05 0.00138158
0.00213978 -0.000188319 7.89124e-05
-0.000188319 0.000914718 -1.2862e-05
7.89124e-05 -1.2862e-05 0.000793724
0.00224271 -0.000237591 7.17672e-05
-0.000237591 0.000947909 -1.57325e-05
7.17672e-05 -1.57325e-05 0.00080166
0.0028071 -0.000190632 0.000345132
-0.000190632 0.00149016 -6.27793e-05
0.000345132 -6.27793e-05 0.00146784
0.00232258 -0.000266219 6.25891e-05
-0.000266219 0.000988762 -1.72898e-05
6.25891e-05 -1.72898e-05 0.00080366
0.00224748 -0.000508719 1.62628e-05
-0.000508719 0.000591337 -5.29994e-06
1.62628e-05 -5.29994e-06 0.000280156
0.00881165 0.000197538 -0.000441399
0.000197538 0.00540701 -4.79096e-05
-0.000441399 -4.79096e-05 0.00543884
0.00500307 0.00021677 -0.00017361
0.00021677 0.0029501 -2.22649e-05
-0.00017361 -2.22649e-05 0.00292333
0.00524316 0.000165664 -0.000185455
0.000165664 0.00309768 -2.40313e-05
-0.000185455 -2.40313e-05 0.00307459
0.00911225 0.000141141 -5.58355e-06
0.000141141 0.00561404 -2.71601e-06
-5.58355e-06 -2.71601e-06 0.00564003
0.000255615 0.000307887 -1.2293e-06
0.000307887 -0.000267421 -1.08834e-06
-1.2293e-06 -1.08834e-06 -0.000476279
0.00222487 8.58948e-05 0.000302083
8.58948e-05 0.00110538 3.21057e-05
0.000302083 3.21057e-05 0.00109556
0.00234562 0.000178772 0.000318047
0.000178772 0.0012097 5.09654e-05
0.000318047 5.09654e-05 0.00118566
0.00307516 0.000287706 0.000183711
0.000287706 0.00149993 2.96415e-05
0.000183711 2.96415e-05 0.00138329
0.00877599 -0.000180509 7.69049e-05
-0.000180509 0.00543703 4.55809e-06
7.69049e-05 4.55809e-06 0.00539347
0.00329819 0.000399438 0.000203099
0.000399438 0.00169207 4.01749e-05
0.000203099 4.01749e-05 0.0015391
0.000233895 0.000293849 2.6618e-05
0.000293849 -0.000266076 3.43234e-05
2.6618e-05 3.43234e-05 -0.00048009
0.00148066 0.000549551 3.11202e-05
0.000549551 0.000226813 4.67365e-06
3.11202e-05 4.67365e-06 -0.000165523
0.00709687 -7.65441e-05 0.000277134
-7.65441e-05 0.00442325 3.67284e-05
0.000277134 3.67284e-05 0.00441882
0.00674363 9.46062e-05 2.79657e-06
9.46062e-05 0.00409741 -2.26736e-06
2.79657e-06 -2.26736e-06 0.00413722
0.00446365 0.000110028 -0.000144713
0.000110028 0.00260067 -7.36377e-06
-0.000144713 -7.36377e-06 0.00259131
0.00661551 5.79013e-05 0.000371689
5.79013e-05 0.00401563 5.52425e-06
0.000371689 5.52425e-06 0.00405684
0.00170294 9.31543e-05 8.48335e-05
9.31543e-05 0.000801021 7.06514e-06
8.48335e-05 7.06514e-06 0.000750762
0.000393335 1.8683e-05 1.20883e-05
1.8683e-05 -0.000212543 3.0929e-06
1.20883e-05 3.0929e-06 -0.000312067
0.00699724 0.000258786 0.000216664
0.000258786 0.00429944 2.28245e-05
0.000216664 2.28245e-05 0.00427228
0.00299734 0.000110907 0.000166171
0.000110907 0.0014601 1.29662e-05
0.000166171 1.29662e-05 0.00139267
0.00184693 -0.000106999 -9.94548e-05
-0.000106999 0.000903992 1.38507e-05
-9.94548e-05 1.38507e-05 0.000838284
0.00193832 -0.000141165 -9.44897e-05
-0.000141165 0.00095632 1.77142e-05
-9.44897e-05 1.77142e-05 0.000883364
0.00216461 -8.96875e-05 -7.09229e-05
-8.96875e-05 0.00107084 1.2986e-05
-7.09229e-05 1.2986e-05 0.00100384
0.00248797 -0.000290416 -0.000172454
-0.000290416 0.00108658 3.4058e-05
-0.000172454 3.4058e-05 0.000949407
0.00434224 -4.75618e-05 -0.000147478
-4.75618e-05 0.00252854 -5.76291e-07
-0.000147478 -5.76291e-07 0.00252021
0.00212127 -8.41098e-05 9.90293e-05
-8.41098e-05 0.00106051 -5.21781e-06
9.90293e-05 -5.21781e-06 0.00102565
0.002693 -9.67637e-05 0.000143606
-9.67637e-05 0.00140968 -2.54826e-05
0.000143606 -2.54826e-05 0.00136418
0.00228903 -0.000116799 0.000103845
-0.000116799 0.00116379 -1.12353e-05
0.000103845 -1.12353e-05 0.00112222
0.0022325 -0.000167222 -4.09862e-05
-0.000167222 0.000960708 3.78113e-06
-4.09862e-05 3.78113e-06 0.000855542
0.00243824 -0.0003146 -5.77381e-05
-0.0003146 0.00106526 1.04679e-05
-5.77381e-05 1.04679e-05 0.000892082
0.00233732 -0.00025146 -4.47057e-05
-0.00025146 0.00100666 6.76441e-06
-4.47057e-05 6.76441e-06 0.000872244
0.00238692 -0.000520237 -1.02615e-05
-0.000520237 0.000681376 2.71895e-06
-1.02615e-05 2.71895e-06 0.00037078
0.0066515 -2.35832e-05 0.000370761
-2.35832e-05 0.00403489 -5.91196e-06
0.000370761 -5.91196e-06 0.00407756
0.00231958 -5.60523e-05 0.000286114
-5.60523e-05 0.00117646 -1.84188e-05
0.000286114 -1.84188e-05 0.00117051
0.00253182 -3.58526e-05 6.1481e-05
-3.58526e-05 0.00120082 -1.32734e-06
6.1481e-05 -1.32734e-06 0.00112278
0.00205741 -0.000147562 7.07317e-05
-0.000147562 0.000869553 -8.62397e-06
7.07317e-05 -8.62397e-06 0.000763571
0.00220236 -0.000214458 7.67109e-05
-0.000214458 0.000940663 -1.48888e-05
7.67109e-05 -1.48888e-05 0.000807856
0.00208638 -0.000313825 1.58897e-06
-0.000313825 0.000419055 -1.28338e-06
1.58897e-06 -1.28338e-06 0.000221021
0.00217558 -0.000448373 1.1141e-05
-0.000448373 0.000492398 -2.26932e-06
1.1141e-05 -2.26932e-06 0.000233345
0.00303498 -0.000167074 0.000360485
-0.000167074 0.0016305 -5.88083e-05
0.000360485 -5.88083e-05 0.00160893
0.0023511 -0.000222423 5.26666e-05
-0.000222423 0.00104863 -1.53907e-05
5.26666e-05 -1.53907e-05 0.000858097
0.00223632 -0.000574817 1.82702e-05
-0.000574817 0.000618887 -4.95951e-06
1.82702e-05 -4.95951e-06 0.000254894
0.00221916 -0.000679694 9.90612e-08
-0.000679694 0.000314917 4.18945e-06
9.90612e-08 4.18945e-06 -3.04313e-05
0.00798945 0.00035091 -0.000438642
0.00035091 0.00491404 -5.78829e-05
-0.000438642 -5.78829e-05 0.00492558
0.00904533 0.000105531 -0.000411128
0.000105531 0.00557212 -4.16971e-05
-0.000411128 -4.16971e-05 0.00559896
0.00834288 0.000252614 -0.000424282
0.000252614 0.00511108 -5.11093e-05
-0.000424282 -5.11093e-05 0.0051371
0.00016256 0.000288118 -2.5832e-05
0.000288118 -0.000319231 -2.49837e-05
-2.5832e-05 -2.49837e-05 -0.000526472
0.00759943 0.000288025 -2.04948e-06
0.000288025 0.00465547 -2.90995e-06
-2.04948e-06 -2.90995e-06 0.0046752
0.00805659 0.000324007 -7.78195e-06
0.000324007 0.00494465 -4.17994e-06
-7.78195e-06 -4.17994e-06 0.0049585
0.000367475 0.000195365 2.90922e-08
0.000195365 -0.000278925 -2.9557e-07
2.90922e-08 -2.9557e-07 -0.000439953
0.00513503 8.99658e-06 -0.000180586
8.99658e-06 0.00306747 -1.44788e-05
-0.000180586 -1.44788e-05 0.00303338
0.000328884 0.000284574 1.8278e-06
0.000284574 -0.000255736 -4.19254e-07
1.8278e-06 -4.19254e-07 -0.000453096
0.00187585 0.000329285 9.13377e-05
0.000329285 0.00081068 6.82976e-06
9.13377e-05 6.82976e-06 0.000630627
0.00141887 0.000563451 7.77921e-07
0.000563451 0.000166214 4.40391e-07
7.77921e-07 4.40391e-07 -0.000234822
0.00791957 -2.96423e-05 0.000336223
-2.96423e-05 0.00492902 4.45761e-05
0.000336223 4.45761e-05 0.00493221
0.000374388 0.000225733 3.48475e-05
0.000225733 -0.000137992 1.81611e-05
3.48475e-05 1.81611e-05 -0.000261257
0.000471406 0.000155903 1.4067e-05
0.000155903 -0.000216935 1.26361e-05
1.4067e-05 1.26361e-05 -0.00036173
0.000464733 0.000231928 1.8098e-05
0.000231928 -0.000208565 2.15146e-05
1.8098e-05 2.15146e-05 -0.000384515
0.00163322 0.000431554 1.20152e-05
0.000431554 8.0195e-05 3.77775e-06
1.20152e-05 3.77775e-06 -0.00018684
0.00396035 0.000364272 0.000211883
0.000364272 0.00218872 3.93138e-05
0.000211883 3.93138e-05 0.00205127
0.00158408 0.00053371 2.53879e-05
0.00053371 0.00017461 5.57905e-06
2.53879e-05 5.57905e-06 -0.000178762
0.00107558 0.000509992 3.24165e-05
0.000509992 6.78034e-05 4.36828e-06
3.24165e-05 4.36828e-06 -0.000343884
0.00205455 0.000794896 2.08534e-06
0.000794896 0.000368582 -6.79867e-06
2.08534e-06 -6.79867e-06 -0.000106243
0.00596397 -0.000153988 0.000197516
-0.000153988 0.00369816 2.46521e-05
0.000197516 2.46521e-05 0.003679
0.0066609 -0.00014787 7.17254e-06
-0.00014787 0.0041479 4.82087e-06
7.17254e-06 4.82087e-06 0.00413043
0.00724137 9.21184e-05 -0.000394129
9.21184e-05 0.00440381 -2.32229e-05
-0.000394129 -2.32229e-05 0.00444184
0.00684427 8.70646e-05 -0.000383849
8.70646e-05 0.00415802 -1.42776e-05
-0.000383849 -1.42776e-05 0.00419931
0.00670152 8.41176e-05 -4.15421e-07
8.41176e-05 0.0040756 -4.66406e-06
-4.15421e-07 -4.66406e-06 0.00411465
0.00432478 5.27397e-05 -0.000155291
5.27397e-05 0.00250883 -9.31267e-06
-0.000155291 -9.31267e-06 0.00250575
0.00152344 4.81338e-05 7.3795e-05
4.81338e-05 0.000526013 2.46472e-06
7.3795e-05 2.46472e-06 0.00044892
0.00469288 0.000175192 -0.00014948
0.000175192 0.00275556 -9.98905e-06
-0.00014948 -9.98905e-06 0.00273666
0.00165419 0.000123122 7.51863e-05
0.000123122 0.000581275 4.4405e-06
7.51863e-05 4.4405e-06 0.000485772
0.00667394 0.000104639 0.000376374
0.000104639 0.0040643 7.26546e-06
0.000376374 7.26546e-06 0.00409955
0.000256161 1.0782e-05 1.52683e-05
1.0782e-05 -0.000292925 1.88657e-06
1.52683e-05 1.88657e-06 -0.000387997
0.00292104 6.25814e-05 0.000164346
6.25814e-05 0.00142613 9.08824e-06
0.000164346 9.08824e-06 0.00136895
0.00143761 0.000103073 3.90125e-06
0.000103073 -6.06053e-05 1.137e-06
3.90125e-06 1.137e-06 -0.000189536
0.00292171 0.000170038 0.000172603
0.000170038 0.00139821 1.68619e-05
0.000172603 1.68619e-05 0.00131611
0.00153382 0.000219648 2.35761e-06
0.000219648 -2.56173e-05 9.91749e-07
2.35761e-06 9.91749e-07 -0.000188172
0.00208038 3.26994e-05 -0.000287812
3.26994e-05 0.00100904 5.42543e-06
-0.000287812 5.42543e-06 0.00101957
0.00180439 -3.59077e-05 -8.52605e-05
-3.59077e-05 0.000866097 5.19336e-06
-8.52605e-05 5.19336e-06 0.000809853
0.00233487 -5.90728e-05 -6.59658e-05
-5.90728e-05 0.00117579 1.17982e-05
-6.59658e-05 1.17982e-05 0.00110922
0.0018803 -0.000126332 -0.000101839
-0.000126332 0.000924259 1.68498e-05
-0.000101839 1.68498e-05 0.000854959
0.00235159 -0.000145251 -0.000155831
-0.000145251 0.00102468 1.63415e-05
-0.000155831 1.63415e-05 0.000935398
0.00246063 -0.000237581 -0.000165155
-0.000237581 0.00107204 2.80499e-05
-0.000165155 2.80499e-05 0.000955125
0.00260865 -0.000346035 -0.000182941
-0.000346035 0.00118214 3.76979e-05
-0.000182941 3.76979e-05 0.0010197
0.00254508 -0.000535463 -3.38258e-05
-0.000535463 0.000783967 9.82667e-06
-3.38258e-05 9.82667e-06 0.000472837
0.00673078 -0.000127797 2.515e-06
-0.000127797 0.00410307 -2.19919e-06
2.515e-06 -2.19919e-06 0.00413643
0.00201016 7.84372e-06 0.000105262
7.84372e-06 0.000977059 -6.21545e-06
0.000105262 -6.21545e-06 0.000954815
0.00123064 -2.593e-05 -7.74026e-05
-2.593e-05 0.000333357 3.37835e-06
-7.74026e-05 3.37835e-06 0.000256647
0.00215076 -0.000113119 -4.27124e-05
-0.000113119 0.000918749 4.27741e-06
-4.27124e-05 4.27741e-06 0.000827214
0.00611646 -0.000154664 0.000347835
-0.000154664 0.00365108 -3.71697e-05
0.000347835 -3.71697e-05 0.00365141
0.0029762 -0.000317374 -5.35189e-05
-0.000317374 0.00146584 6.70774e-06
-5.35189e-05 6.70774e-06 0.00129125
0.00229744 -0.00020929 -4.16127e-05
-0.00020929 0.000992719 5.01304e-06
-4.16127e-05 5.01304e-06 0.000874449
0.0022205 -0.000319157 -8.75218e-06
-0.000319157 0.000505804 1.79857e-06
-8.75218e-06 1.79857e-06 0.000315092
0.00249332 -0.000603959 -7.99942e-06
-0.000603959 0.000801099 2.59492e-06
-7.99942e-06 2.59492e-06 0.000432063
0.00227748 -0.000455563 -1.07366e-05
-0.000455563 0.000563472 3.22263e-06
-1.07366e-05 3.22263e-06 0.000299483
0.00225111 -0.000681725 1.0751e-06
-0.000681725 0.000342567 -1.35337e-07
1.0751e-06 -1.35337e-07 -3.31852e-06
0.000283383 8.02884e-07 1.62517e-05
8.02884e-07 -0.000284057 9.63643e-08
1.62517e-05 9.63643e-08 -0.000376773
0.00197374 -3.62555e-05 6.25241e-05
-3.62555e-05 0.000813726 -3.16942e-06
6.25241e-05 -3.16942e-06 0.00072791
0.0020976 -0.000116297 8.34341e-09
-0.000116297 0.000405657 3.81066e-07
8.34341e-09 3.81066e-07 0.000290328
0.00210044 -0.000254548 -5.14965e-07
-0.000254548 0.000424846 9.19946e-08
-5.14965e-07 9.19946e-08 0.000265476
0.00228451 -0.00038726 5.9228e-06
-0.00038726 0.000553522 -1.1332e-06
5.9228e-06 -1.1332e-06 0.000336398
0.00217614 -0.00044012 1.16456e-06
-0.00044012 0.000108353 -2.04008e-07
1.16456e-06 -2.04008e-07 -6.67855e-05
0.00874922 -4.80512e-05 0.000356493
-4.80512e-05 0.00540481 -3.64331e-05
0.000356493 -3.64331e-05 0.00542126
0.00209502 -0.00060615 1.68086e-06
-0.00060615 0.000153328 3.03625e-06
1.68086e-06 3.03625e-06 -0.000132094
0.000314299 -0.000259841 2.20894e-05
-0.000259841 -0.000243034 -2.87089e-05
2.20894e-05 -2.87089e-05 -0.000433354
0.0012401 -0.000595511 1.16719e-05
-0.000595511 3.22825e-05 -2.61057e-06
1.16719e-05 -2.61057e-06 -0.000402316
0.00240838 -0.000753982 -3.02441e-06
-0.000753982 0.000517063 6.04974e-06
-3.02441e-06 6.04974e-06 0.000106641
0.00227059 -0.000744715 -3.49043e-07
-0.000744715 0.00025833 3.36731e-06
-3.49043e-07 3.36731e-06 -5.64928e-05
0.000288982 -0.000233457 2.43649e-05
-0.000233457 -0.000194142 -2.3687e-05
2.43649e-05 -2.3687e-05 -0.000357543
0.000952663 -0.000222705 1.82001e-06
-0.000222705 0.000309677 8.84166e-07
1.82001e-06 8.84166e-07 -1.02223e-05
0.00775283 0.000316458 -0.000434573
0.000316458 0.00476027 -5.12932e-05
-0.000434573 -5.12932e-05 0.00477687
0.00825185 0.000326092 -0.000439716
0.000326092 0.00506933 -5.78468e-05
-0.000439716 -5.78468e-05 0.00508754
0.000340482 0.000196683 -1.72625e-05
0.000196683 -0.000297277 -1.55323e-05
-1.72625e-05 -1.55323e-05 -0.000460332
0.00849606 9.44889e-06 -0.000347002
9.44889e-06 0.00525616 -3.36917e-05
-0.000347002 -3.36917e-05 0.00527308
0.0002498 0.000270151 -2.6651e-05
0.000270151 -0.000257485 -2.79316e-05
-2.6651e-05 -2.79316e-05 -0.000453064
0.000280325 0.000275436 -2.09556e-05
0.000275436 -0.000286451 -2.34836e-05
-2.09556e-05 -2.34836e-05 -0.000484773
0.00141211 0.000578741 -3.54268e-05
0.000578741 0.000142529 -4.95835e-06
-3.54268e-05 -4.95835e-06 -0.00026691
0.00778713 -3.00975e-05 -1.13333e-05
-3.00975e-05 0.00483734 1.36002e-06
-1.13333e-05 1.36002e-06 0.00484352
0.000749513 0.000198081 1.87233e-06
0.000198081 0.000100632 3.91405e-07
1.87233e-06 3.91405e-07 -1.81977e-05
0.00177197 0.00020662 8.02343e-05
0.00020662 0.000637407 8.01534e-06
8.02343e-05 8.01534e-06 0.000511965
0.00184048 0.000292977 8.55896e-05
0.000292977 0.000701577 1.03925e-05
8.55896e-05 1.03925e-05 0.000543282
0.00160422 0.000429399 -2.76108e-07
0.000429399 6.81013e-05 -2.59956e-07
-2.76108e-07 -2.59956e-07 -0.000200017
0.00010727 0.000263039 -3.75679e-07
0.000263039 -0.000323314 -7.89715e-07
-3.75679e-07 -7.89715e-07 -0.000508152
0.00155204 0.000529146 4.29021e-07
0.000529146 0.000155531 -1.09126e-08
4.29021e-07 -1.09126e-08 -0.000197969
0.000968718 0.000499034 4.32527e-06
0.000499034 -1.25837e-05 -1.7913e-06
4.32527e-06 -1.7913e-06 -0.000417806
0.00204457 0.000800649 -9.97711e-07
0.000800649 0.000357363 2.59228e-07
-9.97711e-07 2.59228e-07 -0.000114438
0.000540867 0.000257244 2.4893e-05
0.000257244 -4.3919e-05 2.62346e-05
2.4893e-05 2.62346e-05 -0.000196316
0.000802201 0.000132357 1.92906e-05
0.000132357 0.000182724 1.93316e-05
1.92906e-05 1.93316e-05 6.73161e-05
-0.00020238 0.000333283 1.04753e-06
0.000333283 -0.000436094 -1.64862e-06
1.04753e-06 -1.64862e-06 -0.000730363
0.00161828 0.000365579 8.40252e-06
0.000365579 4.81258e-05 2.91811e-06
8.40252e-06 2.91811e-06 -0.000179121
0.00165018 0.000491591 1.8618e-05
0.000491591 0.000135895 4.96534e-06
1.8618e-05 4.96534e-06 -0.000175034
0.00235523 0.000640508 2.83404e-06
0.000640508 0.000305339 -1.82762e-06
2.83404e-06 -1.82762e-06 2.08706e-05
0.00044579 0.000410576 1.3522e-05
0.000410576 -0.00016482 5.28326e-06
1.3522e-05 5.28326e-06 -0.000546414
0.00236261 0.000799448 -1.19825e-06
0.000799448 0.000492921 -5.83067e-06
-1.19825e-06 -5.83067e-06 7.99353e-05
0.00241808 0.000948028 -2.12071e-06
0.000948028 0.000788531 -9.55685e-06
-2.12071e-06 -9.55685e-06 0.000185789
0.0019651 0.000818898 -1.0945e-05
0.000818898 0.000187747 -9.37678e-06
-1.0945e-05 -9.37678e-06 -0.000253274
0.00496397 -0.000158259 0.000123136
-0.000158259 0.00301946 1.4107e-05
0.000123136 1.4107e-05 0.00300252
0.00560721 -0.000183298 1.37767e-05
-0.000183298 0.00345182 1.06654e-06
1.37767e-05 1.06654e-06 0.00342769
0.00623447 -0.000187069 -0.000167208
-0.000187069 0.0038587 -1.49594e-05
-0.000167208 -1.49594e-05 0.00383468
0.000848718 -0.000226029 2.41736e-05
-0.000226029 0.000210446 -2.25837e-05
2.41736e-05 -2.25837e-05 6.75769e-05
0.00758317 2.24626e-05 0.000286833
2.24626e-05 0.00469804 -3.21675e-05
0.000286833 -3.21675e-05 0.00470116
0.00751458 0.000254444 -0.000424526
0.000254444 0.00459849 -4.10937e-05
-0.000424526 -4.10937e-05 0.00462434
0.00695562 0.000119142 -0.00038588
0.000119142 0.00422734 -2.00472e-05
-0.00038588 -2.00472e-05 0.0042656
0.000295449 0.0001241 -1.55249e-05
0.0001241 -0.000309611 -7.67269e-06
-1.55249e-05 -7.67269e-06 -0.00042902
0.000233187 5.0385e-05 -1.52541e-05
5.0385e-05 -0.000316832 -3.96108e-06
-1.52541e-05 -3.96108e-06 -0.000417726
0.00664671 6.57399e-07 -0.000369723
6.57399e-07 0.00403149 -4.27473e-06
-0.000369723 -4.27473e-06 0.00407398
0.00660063 -5.9404e-06 1.87779e-08
-5.9404e-06 0.00400241 -1.39466e-06
1.87779e-08 -1.39466e-06 0.00404528
0.000230286 3.5209e-06 -1.62573e-07
3.5209e-06 -0.00031326 2.09329e-07
-1.62573e-07 2.09329e-07 -0.000406816
0.00156593 6.10714e-05 7.47279e-05
6.10714e-05 0.00053752 3.8181e-06
7.47279e-05 3.8181e-06 0.000455242
0.00143688 0.000106194 4.57568e-08
0.000106194 -5.33799e-05 -2.07525e-09
4.57568e-08 -2.07525e-09 -0.000183155
0.000360391 0.000126892 -8.78485e-07
0.000126892 -0.00027828 -4.0233e-07
-8.78485e-07 -4.0233e-07 -0.000410129
0.00151226 0.000219718 -1.95174e-07
0.000219718 -2.28368e-05 -9.49379e-08
-1.95174e-07 -9.49379e-08 -0.000186493
0.000225603 -3.29318e-05 1.60823e-05
-3.29318e-05 -0.00031773 1.42458e-08
1.60823e-05 1.42458e-08 -0.000408694
0.00139222 4.6948e-05 2.92275e-06
4.6948e-05 -7.32443e-05 8.53676e-07
2.92275e-06 8.53676e-07 -0.000195596
0.00147137 0.000162481 3.06863e-06
0.000162481 -5.30759e-05 1.23534e-06
3.06863e-06 1.23534e-06 -0.000195522
0.00225399 0.000161281 1.52875e-06
0.000161281 9.21389e-05 9.79782e-07
1.52875e-06 9.79782e-07 3.45162e-05
0.00159959 0.000293882 5.14803e-06
0.000293882 2.43628e-05 1.72645e-06
5.14803e-06 1.72645e-06 -0.000167855
0.00227494 0.000352007 2.68761e-06
0.000352007 0.000137933 9.73559e-07
2.68761e-06 9.73559e-07 2.72378e-05
0.0066386 -9.06974e-05 -0.000374016
-9.06974e-05 0.0040374 6.48171e-06
-0.000374016 6.48171e-06 0.00407435
0.00169321 -0.000168802 -8.47635e-05
-0.000168802 0.000819963 1.15733e-05
-8.47635e-05 1.15733e-05 0.000754612
-0.000176998 -1.4088e-05 -7.96321e-06
-1.4088e-05 -0.000585209 1.11918e-06
-7.96321e-06 1.11918e-06 -0.000692171
0.00226388 -0.00010316 -0.000150734
-0.00010316 0.000983575 1.15349e-05
-0.000150734 1.15349e-05 0.000905426
0.00907488 0.000120291 -9.58586e-05
0.000120291 0.00556534 4.42258e-06
-9.58586e-05 4.42258e-06 0.0055318
0.00315288 -0.000371998 -0.000184338
-0.000371998 0.00159221 3.85365e-05
-0.000184338 3.85365e-05 0.00143012
0.00242022 -0.000188847 -0.000160384
-0.000188847 0.00105655 2.19319e-05
-0.000160384 2.19319e-05 0.000955435
0.00234386 -0.000323531 -2.16758e-05
-0.000323531 0.000585603 3.99825e-06
-2.16758e-05 3.99825e-06 0.000402435
0.00234448 -0.000460572 -2.91524e-05
-0.000460572 0.000609477 8.67304e-06
-2.91524e-05 8.67304e-06 0.000341031
0.0025953 -0.0006155 -3.85097e-05
-0.0006155 0.000877645 1.10713e-05
-3.85097e-05 1.10713e-05 0.000508408
0.00226109 -0.00067993 9.42401e-07
-0.00067993 0.000359659 -4.16987e-06
9.42401e-07 -4.16987e-06 1.43051e-05
0.000235071 -2.07567e-06 3.25129e-08
-2.07567e-06 -0.000312626 3.87485e-07
3.25129e-08 3.87485e-07 -0.000406036
0.00209443 -0.000112221 -4.11062e-05
-0.000112221 0.000902303 1.01649e-06
-4.11062e-05 1.01649e-06 0.000818693
0.00181663 -0.000112597 -1.43022e-05
-0.000112597 0.000212952 9.23988e-07
-1.43022e-05 9.23988e-07 9.52187e-05
0.00209414 -0.000251668 -1.32464e-05
-0.000251668 0.000413688 2.22529e-06
-1.32464e-05 2.22529e-06 0.000249129
0.00895782 -5.50531e-05 3.51802e-06
-5.50531e-05 0.00553458 -8.46053e-07
3.51802e-06 -8.46053e-07 0.00555191
0.00159543 -0.000255826 1.11471e-05
-0.000255826 0.000608759 4.31845e-07
1.11471e-05 4.31845e-07 0.000414004
0.00205508 -0.000616457 3.69128e-06
-0.000616457 0.00057853 -2.25904e-06
3.69128e-06 -2.25904e-06 0.000161586
0.00227952 -0.000390771 -1.10117e-05
-0.000390771 0.000544668 3.25385e-06
-1.10117e-05 3.25385e-06 0.000326088
0.00229482 -0.000449876 2.90804e-06
-0.000449876 0.000188828 -1.05656e-06
2.90804e-06 -1.05656e-06 2.42453e-05
0.00233641 -0.00074827 1.38135e-06
-0.00074827 0.000470508 -7.66666e-08
1.38135e-06 -7.66666e-08 6.24869e-05
0.0022388 -0.000611975 1.53159e-07
-0.000611975 0.000259073 -1.78348e-07
1.53159e-07 -1.78348e-07 -3.00082e-05
0.00230237 -0.000746656 4.43058e-07
-0.000746656 0.000283169 6.37746e-07
4.43058e-07 6.37746e-07 -3.26903e-05
0.000337619 -0.000258179 2.79589e-06
-0.000258179 -0.000174778 9.41744e-07
2.79589e-06 9.41744e-07 -0.000336556
0.000763698 -0.000294356 2.23045e-07
-0.000294356 0.000182332 -1.14625e-06
2.23045e-07 -1.14625e-06 -0.000142097
0.00139153 -5.47066e-05 2.61009e-06
-5.47066e-05 -5.68124e-05 7.04834e-08
2.61009e-06 7.04834e-08 -0.000182221
0.00217439 -0.000185082 -1.37531e-06
-0.000185082 0.000457882 3.4383e-07
-1.37531e-06 3.4383e-07 0.000325692
0.00215568 -0.000175772 1.12365e-06
-0.000175772 4.30393e-05 -6.25848e-07
1.12365e-06 -6.25848e-07 -3.86763e-05
0.00224136 -0.000371022 -1.7719e-07
-0.000371022 0.000109262 7.04614e-07
-1.7719e-07 7.04614e-07 -5.7062e-06
0.00222511 -0.000535343 -9.11555e-07
-0.000535343 0.000185468 1.33427e-06
-9.11555e-07 1.33427e-06 -3.77035e-05
0.00227143 -0.000475426 5.08953e-06
-0.000475426 7.17633e-05 -7.66559e-07
5.08953e-06 -7.66559e-07 -3.81079e-05
0.000130147 -0.000241335 1.55957e-05
-0.000241335 -0.000335435 -3.02249e-05
1.55957e-05 -3.02249e-05 -0.000518306
0.00235758 -0.000676762 3.97496e-07
-0.000676762 0.000253447 1.06516e-06
3.97496e-07 1.06516e-06 7.32763e-06
0.00158936 -0.000533609 1.32487e-05
-0.000533609 0.000329792 -7.7578e-06
1.32487e-05 -7.7578e-06 -7.82609e-05
0.00201067 -0.000836939 4.09216e-06
-0.000836939 0.00031464 7.28155e-06
4.09216e-06 7.28155e-06 -0.000191557
0.0025702 -0.000828514 -2.04538e-06
-0.000828514 0.000521606 3.62347e-06
-2.04538e-06 3.62347e-06 0.000127921
0.0024725 -0.00077966 6.46266e-07
-0.00077966 0.000347972 1.00791e-06
6.46266e-07 1.00791e-06 6.34588e-05
0.000256979 -0.000270265 5.11173e-06
-0.000270265 -0.000193538 1.05568e-06
5.11173e-06 1.05568e-06 -0.00053676
0.00138583 -0.000207557 -4.46976e-06
-0.000207557 0.000679919 -8.45009e-06
-4.46976e-06 -8.45009e-06 0.000409555
0.00123757 -0.000421994 4.02742e-06
-0.000421994 0.000450041 7.34545e-06
4.02742e-06 7.34545e-06 3.35257e-05
0.000335321 0.000164527 -1.57617e-05
0.000164527 -0.000303573 -1.20716e-05
-1.57617e-05 -1.20716e-05 -0.000452417
0.00739457 -7.46369e-05 -0.000276456
-7.46369e-05 0.0045837 -2.42865e-05
-0.000276456 -2.42865e-05 0.00458787
0.000596832 0.000159762 -2.03213e-05
0.000159762 1.70517e-05 -2.02919e-05
-2.03213e-05 -2.02919e-05 -0.000102036
0.000290359 0.000233366 -1.86936e-05
0.000233366 -0.000314558 -1.96954e-05
-1.86936e-05 -1.96954e-05 -0.000493941
0.00156874 0.000427489 -1.40268e-05
0.000427489 5.0261e-05 -4.09008e-06
-1.40268e-05 -4.09008e-06 -0.000219043
0.000152888 0.00023987 -1.86491e-05
0.00023987 -0.000305845 -3.00982e-05
-1.86491e-05 -3.00982e-05 -0.000484338
0.00131667 0.000518363 -3.13563e-05
0.000518363 0.000181063 -1.07135e-05
-3.13563e-05 -1.07135e-05 -0.000219888
0.0014814 0.00052046 -2.68327e-05
0.00052046 0.000112464 -5.6104e-06
-2.68327e-05 -5.6104e-06 -0.000240229
0.00204626 0.000812998 -6.43891e-06
0.000812998 0.000344462 6.89241e-06
-6.43891e-06 6.89241e-06 -0.000127013
0.000423435 0.000250483 -9.93617e-06
0.000250483 -0.000122943 2.1809e-06
-9.93617e-06 2.1809e-06 -0.000268996
0.000406853 0.000100599 -1.17802e-06
0.000100599 -6.03798e-05 1.53886e-06
-1.17802e-06 1.53886e-06 -0.000172547
0.000929075 0.000303763 -9.22372e-07
0.000303763 0.000257179 9.21229e-08
-9.22372e-07 9.21229e-08 -6.47107e-06
0.00157909 0.000363848 -3.37954e-07
0.000363848 2.87943e-05 -1.55816e-07
-3.37954e-07 -1.55816e-07 -0.000199697
0.00159754 0.00048433 -7.64283e-09
0.00048433 0.000111388 -4.02567e-07
-7.64283e-09 -4.02567e-07 -0.000199082
0.00232056 0.00063678 -1.01943e-06
0.00063678 0.000281995 -3.85733e-07
-1.01943e-06 -3.85733e-07 -1.27178e-06
0.000909994 0.000400322 2.35247e-06
0.000400322 0.000113707 3.73095e-07
2.35247e-06 3.73095e-07 -0.000246888
0.00238382 0.000796367 -1.37417e-06
0.000796367 0.000503594 -5.05232e-07
-1.37417e-06 -5.05232e-07 9.0824e-05
0.00213918 0.000924334 -2.41735e-06
0.000924334 0.000568278 -2.89175e-06
-2.41735e-06 -2.89175e-06 -3.07839e-05
0.00193139 0.000823456 -6.43274e-07
0.000823456 0.000145739 4.35505e-06
-6.43274e-07 4.35505e-06 -0.000291241
0.000708676 7.51232e-05 1.1952e-05
7.51232e-05 0.00015869 1.72052e-05
1.1952e-05 1.72052e-05 6.49845e-05
0.000144502 0.000350616 4.37595e-06
0.000350616 -0.000243997 2.21043e-07
4.37595e-06 2.21043e-07 -0.000563763
0.00100401 0.000220162 -3.86944e-07
0.000220162 0.000395977 1.6295e-06
-3.86944e-07 1.6295e-06 0.000107801
-0.00122623 0.000215048 -9.0253e-06
0.000215048 -0.00109588 5.76844e-06
-9.0253e-06 5.76844e-06 -0.00140721
0.00228236 0.000546975 2.39423e-06
0.000546975 0.000189843 -1.66698e-06
2.39423e-06 -1.66698e-06 -2.69034e-05
0.00234518 0.000723734 8.7327e-07
0.000723734 0.000391436 -3.00542e-06
8.7327e-07 -3.00542e-06 3.83321e-05
0.00228681 0.000692145 5.38584e-07
0.000692145 0.000180857 -9.50859e-07
5.38584e-07 -9.50859e-07 -7.44153e-05
0.00162465 0.000781477 -1.37297e-05
0.000781477 0.000466664 -1.00812e-05
-1.37297e-05 -1.00812e-05 -0.000121221
0.00261631 0.000897063 -6.01166e-06
0.000897063 0.000553115 -4.04432e-06
-6.01166e-06 -4.04432e-06 0.000155515
0.00254872 0.00106988 -1.73706e-05
0.00106988 0.000739714 -1.81052e-05
-1.73706e-05 -1.81052e-05 0.000105501
0.00211914 0.000844715 -4.79806e-06
0.000844715 0.000136175 -4.81216e-06
-4.79806e-06 -4.81216e-06 -0.000271952
0.000878103 0.000130176 -2.79172e-06
0.000130176 0.000336739 7.24498e-06
-2.79172e-06 7.24498e-06 0.000194079
0.000525659 4.36976e-05 4.30881e-06
4.36976e-05 5.75889e-05 1.47838e-05
4.30881e-06 1.47838e-05 -3.24149e-06
0.00431159 -0.000134508 9.19418e-05
-0.000134508 0.00257397 9.62e-06
9.19418e-05 9.62e-06 0.00256374
0.00472699 -0.000185848 1.76675e-05
-0.000185848 0.00287176 -1.94675e-06
1.76675e-05 -1.94675e-06 0.00284663
0.00521689 -0.000248076 -9.52765e-05
-0.000248076 0.00322633 -1.47718e-05
-9.52765e-05 -1.47718e-05 0.00318043
0.000167154 -0.000177433 1.75811e-05
-0.000177433 -0.000182684 -1.82258e-05
1.75811e-05 -1.82258e-05 -0.000290384
0.00574538 8.10822e-05 0.000179584
8.10822e-05 0.00352201 -2.41227e-05
0.000179584 -2.41227e-05 0.00351275
0.000550346 -0.000232247 1.26822e-06
-0.000232247 6.99904e-06 7.69592e-07
1.26822e-06 7.69592e-07 -0.000138612
0.00802095 -1.33295e-05 4.44744e-06
-1.33295e-05 0.00497338 -1.52695e-07
4.44744e-06 -1.52695e-07 0.00498152
0.000325562 0.000149961 -1.60255e-05
0.000149961 -0.000301658 -9.76658e-06
-1.60255e-05 -9.76658e-06 -0.000437149
0.000261889 5.14854e-05 -1.40304e-05
5.14854e-05 -0.000317456 -4.84133e-06
-1.40304e-05 -4.84133e-06 -0.00042411
0.00150052 0.000219751 -2.91767e-06
0.000219751 -1.84764e-05 -9.083e-07
-2.91767e-06 -9.083e-07 -0.00018318
0.0014417 0.000108815 -3.69436e-06
0.000108815 -4.30837e-05 -9.84787e-07
-3.69436e-06 -9.84787e-07 -0.000173548
0.000273832 -2.76748e-06 -1.56903e-05
-2.76748e-06 -0.000288351 -1.82628e-06
-1.56903e-05 -1.82628e-06 -0.00038059
0.00669161 -0.000105585 -0.000381156
-0.000105585 0.00407578 7.10377e-06
-0.000381156 7.10377e-06 0.00411212
0.000269251 -3.86618e-06 -4.12337e-08
-3.86618e-06 -0.000289905 -6.69394e-07
-4.12337e-08 -6.69394e-07 -0.000380586
0.00140445 5.23278e-05 -2.84273e-09
5.23278e-05 -6.14925e-05 6.10864e-08
-2.84273e-09 6.10864e-08 -0.000184273
0.00147895 0.000162572 1.05998e-08
0.000162572 -3.89002e-05 1.35514e-07
1.05998e-08 1.35514e-07 -0.000181949
0.00226594 0.000159167 -6.42714e-08
0.000159167 0.000101544 1.3215e-07
-6.42714e-08 1.3215e-07 4.41403e-05
0.00155199 0.000291253 -3.66791e-07
0.000291253 1.33087e-06 -2.74082e-07
-3.66791e-07 -2.74082e-07 -0.000191897
0.00226791 0.000353598 -3.33079e-07
0.000353598 0.000124248 3.48011e-07
-3.33079e-07 3.48011e-07 1.27913e-05
0.00137847 -6.14237e-06 2.19956e-06
-6.14237e-06 -6.9195e-05 3.80905e-07
2.19956e-06 3.80905e-07 -0.000191247
0.00225274 7.60674e-05 1.79177e-06
7.60674e-05 9.03101e-05 4.88825e-07
1.79177e-06 4.88825e-07 4.0667e-05
0.00224955 0.000251362 1.50519e-06
0.000251362 0.000101626 1.28342e-06
1.50519e-06 1.28342e-06 2.29739e-05
0.00216724 0.000167032 4.63797e-06
0.000167032 -7.79882e-07 5.72716e-07
4.63797e-06 5.72716e-07 -9.00765e-06
0.00226399 0.000450445 3.18601e-06
0.000450445 0.000144948 2.87894e-09
3.18601e-06 2.87894e-09 -1.0694e-05
0.00227886 0.000350351 4.79228e-06
0.000350351 4.5794e-05 8.59445e-07
4.79228e-06 8.59445e-07 1.83575e-07
0.000274267 -7.87771e-06 -1.52565e-05
-7.87771e-06 -0.000282764 5.07613e-08
-1.52565e-05 5.07613e-08 -0.000378208
0.00219 -6.82335e-05 -0.000148219
-6.82335e-05 0.000950657 7.91498e-06
-0.000148219 7.91498e-06 0.00088247
0.00151731 -0.000108848 -1.37665e-05
-0.000108848 6.9799e-06 1.14812e-06
-1.37665e-05 1.14812e-06 -0.000113326
0.0020772 -0.000249478 -1.92034e-05
-0.000249478 0.000393865 3.18089e-06
-1.92034e-05 3.18089e-06 0.000223959
0.00918785 -8.06125e-05 -0.000399081
-8.06125e-05 0.00567421 4.72109e-05
-0.000399081 4.72109e-05 0.00569213
0.00344829 -0.000375823 -0.000212607
-0.000375823 0.0018218 3.85118e-05
-0.000212607 3.85118e-05 0.00166208
0.00217677 -0.000619158 -2.59287e-05
-0.000619158 0.000713715 7.95716e-06
-2.59287e-05 7.95716e-06 0.000303729
0.00225852 -0.000393331 -2.70787e-05
-0.000393331 0.000524057 6.70094e-06
-2.70787e-05 6.70094e-06 0.000304263
0.00240927 -0.000459538 -5.54199e-08
-0.000459538 0.00026482 -1.62479e-06
-5.54199e-08 -1.62479e-06 0.000111039
0.00239166 -0.000618434 -5.84174e-07
-0.000618434 0.000372294 -1.99451e-06
-5.84174e-07 -1.99451e-06 7.94374e-05
0.00233879 -0.000751938 5.05641e-06
-0.000751938 0.000466675 -6.08029e-06
5.05641e-06 -6.08029e-06 5.87712e-05
0.00234424 -0.000750917 1.51755e-06
-0.000750917 0.000311995 -2.2346e-06
1.51755e-06 -2.2346e-06 -5.66862e-06
0.00028505 -0.000283866 -2.47876e-05
-0.000283866 -0.000211533 2.58625e-05
-2.47876e-05 2.58625e-05 -0.000375518
0.000277764 -0.000300243 -5.71961e-06
-0.000300243 -0.000119536 1.575e-08
-5.71961e-06 1.575e-08 -0.000456269
0.00143387 -5.13722e-05 8.59402e-07
-5.13722e-05 -3.31941e-05 -1.14839e-07
8.59402e-07 -1.14839e-07 -0.000151846
0.00213133 -0.00018565 -1.23764e-05
-0.00018565 0.000424222 1.57873e-06
-1.23764e-05 1.57873e-06 0.000292061
0.00215208 -0.000171233 2.72269e-06
-0.000171233 3.58836e-05 -3.63876e-07
2.72269e-06 -3.63876e-07 -4.08304e-05
0.00217884 -0.000366671 -1.62062e-06
-0.000366671 8.22564e-05 5.01225e-07
-1.62062e-06 5.01225e-07 -4.47542e-05
0.000184651 -0.000264162 -9.02711e-07
-0.000264162 -0.000288959 -6.38541e-07
-9.02711e-07 -6.38541e-07 -0.000476832
0.000889221 -0.000505373 -3.48657e-06
-0.000505373 -8.24312e-05 -5.3777e-07
-3.48657e-06 -5.3777e-07 -0.000498564
0.0021711 -0.000856147 -2.91954e-07
-0.000856147 0.000412511 1.82211e-06
-2.91954e-07 1.82211e-06 -0.000103682
0.00221526 -0.000532431 -3.61213e-07
-0.000532431 0.000181585 4.53843e-08
-3.61213e-07 4.53843e-08 -4.59479e-05
0.00232781 -0.000483415 6.43806e-07
-0.000483415 9.79762e-05 -4.58638e-07
6.43806e-07 -4.58638e-07 -5.85246e-06
0.00261657 -0.000833569 1.57801e-06
-0.000833569 0.000550099 -1.9243e-06
1.57801e-06 -1.9243e-06 0.000160492
0.00229627 -0.000670068 -1.26753e-07
-0.000670068 0.000211304 7.71448e-07
-1.26753e-07 7.71448e-07 -3.30114e-05
0.00231839 -0.000774324 2.16627e-07
-0.000774324 0.000237211 9.68311e-07
2.16627e-07 9.68311e-07 -4.91242e-05
0.000743583 -0.000310562 8.21526e-07
-0.000310562 0.000109133 4.17155e-07
8.21526e-07 4.17155e-07 -0.000240875
0.000861652 -0.000361129 -1.80028e-06
-0.000361129 0.000188175 7.4849e-07
-1.80028e-06 7.4849e-07 -0.000213242
0.000736517 -0.000198494 -2.2904e-06
-0.000198494 0.00030766 4.10012e-07
-2.2904e-06 4.10012e-07 8.1776e-06
0.00215214 -8.58264e-05 1.48465e-06
-8.58264e-05 3.8046e-05 -5.30433e-07
1.48465e-06 -5.30433e-07 -3.13126e-05
0.00212924 -0.000262592 -4.03282e-07
-0.000262592 1.34339e-05 -3.45364e-07
-4.03282e-07 -3.45364e-07 -8.01951e-05
0.00227431 -0.00016574 6.81481e-06
-0.00016574 0.000100753 -5.33856e-07
6.81481e-06 -5.33856e-07 7.93388e-05
0.0022872 -0.000384069 3.5262e-06
-0.000384069 4.82292e-05 -2.12984e-07
3.5262e-06 -2.12984e-07 -7.15725e-06
0.00237994 -0.000603185 1.10882e-06
-0.000603185 0.000190732 -1.6298e-07
1.10882e-06 -1.6298e-07 2.02009e-05
0.0024089 -0.000505159 1.60658e-06
-0.000505159 8.53022e-05 3.90992e-07
1.60658e-06 3.90992e-07 3.16181e-05
0.000821819 -0.000389975 8.52043e-06
-0.000389975 4.25468e-05 -9.46248e-06
8.52043e-06 -9.46248e-06 -0.000322399
0.00240363 -0.000718595 1.47453e-06
-0.000718595 0.000189496 -5.97472e-07
1.47453e-06 -5.97472e-07 3.65323e-06
0.00217946 -0.0009447 1.16628e-06
-0.0009447 0.000580007 3.70082e-06
1.16628e-06 3.70082e-06 -3.4643e-05
0.00246568 -0.000954975 7.08635e-06
-0.000954975 0.00050443 5.00513e-06
7.08635e-06 5.00513e-06 -4.81847e-06
0.00267339 -0.000851589 3.91266e-06
-0.000851589 0.000570278 1.76564e-06
3.91266e-06 1.76564e-06 0.000199554
0.00252689 -0.000830837 3.35378e-06
-0.000830837 0.000326351 -1.4061e-06
3.35378e-06 -1.4061e-06 7.23437e-05
-0.000835513 -1.24553e-05 4.06422e-06
-1.24553e-05 -0.000746966 -1.06914e-06
4.06422e-06 -1.06914e-06 -0.00101464
0.00187863 -0.000610355 -9.98344e-07
-0.000610355 0.000709405 5.02948e-06
-9.98344e-07 5.02948e-06 0.000212626
-0.00179369 -8.46749e-05 1.1997e-05
-8.46749e-05 -0.00118097 4.4519e-06
1.1997e-05 4.4519e-06 -0.00158568
0.00111971 -0.000590976 1.16713e-05
-0.000590976 0.000363563 1.5834e-05
1.16713e-05 1.5834e-05 -0.0002172
0.00154061 0.000362531 -1.03855e-05
0.000362531 9.29275e-06 -3.23926e-06
-1.03855e-05 -3.23926e-06 -0.000220472
0.000234754 9.09142e-05 -1.25787e-05
9.09142e-05 -0.000166181 -1.90048e-05
-1.25787e-05 -1.90048e-05 -0.00027586
0.00029631 0.000206985 -2.8804e-05
0.000206985 -0.000196798 -2.22592e-05
-2.8804e-05 -2.22592e-05 -0.000338702
0.00120869 0.000262116 -6.72012e-06
0.000262116 0.00042885 6.08541e-06
-6.72012e-06 6.08541e-06 0.000173441
0.00153915 0.000478112 -1.98352e-05
0.000478112 8.05933e-05 -5.32939e-06
-1.98352e-05 -5.32939e-06 -0.000229849
0.00228925 0.000633025 -2.77243e-06
0.000633025 0.000261631 1.84029e-06
-2.77243e-06 1.84029e-06 -2.0383e-05
0.000726417 0.000349521 -1.55173e-05
0.000349521 1.26846e-05 -7.7363e-06
-1.55173e-05 -7.7363e-06 -0.000322445
0.00199122 0.000894649 -2.24034e-06
0.000894649 0.00046086 5.04996e-06
-2.24034e-06 5.04996e-06 -0.000127211
0.00241046 0.000794067 1.97412e-06
0.000794067 0.000518219 5.34296e-06
1.97412e-06 5.34296e-06 0.000105425
0.00188956 0.00082157 1.04917e-05
0.00082157 0.000112103 1.57242e-05
1.04917e-05 1.57242e-05 -0.000318285
0.000401289 5.96182e-05 -2.35387e-06
5.96182e-05 -3.09317e-05 3.69773e-07
-2.35387e-06 3.69773e-07 -0.000124092
0.000830446 0.000280643 -1.36096e-06
0.000280643 0.000212101 1.34108e-06
-1.36096e-06 1.34108e-06 -9.85733e-05
0.000218165 0.000216821 5.63626e-06
0.000216821 -0.000106315 -1.94048e-06
5.63626e-06 -1.94048e-06 -0.00040074
0.000692411 0.000297403 -6.24407e-06
0.000297403 0.000105959 7.61537e-06
-6.24407e-06 7.61537e-06 -0.000207382
0.00230321 0.000547776 -1.75727e-06
0.000547776 0.000206824 -1.10801e-06
-1.75727e-06 -1.10801e-06 -1.01742e-05
0.00229341 0.000721084 -9.01844e-07
0.000721084 0.000351537 -3.41819e-07
-9.01844e-07 -3.41819e-07 -1.07742e-06
0.00235541 0.000697839 2.87968e-07
0.000697839 0.000230904 -2.89122e-08
2.87968e-07 -2.89122e-08 -2.53782e-05
0.00185362 0.000814281 2.29837e-06
0.000814281 0.000625112 -1.10784e-06
2.29837e-06 -1.10784e-06 2.53826e-05
0.00258195 0.00088743 1.33148e-06
0.00088743 0.000545067 9.73332e-07
1.33148e-06 9.73332e-07 0.000145455
0.00226732 0.00101778 -9.71139e-07
0.00101778 0.000578891 -2.10052e-06
-9.71139e-07 -2.10052e-06 -3.8805e-05
0.00238837 0.000844477 -8.37545e-06
0.000844477 0.00033498 3.23235e-06
-8.37545e-06 3.23235e-06 -6.00613e-05
0.00061852 5.26044e-05 7.21998e-06
5.26044e-05 0.000114241 1.61595e-05
7.21998e-06 1.61595e-05 3.99931e-05
0.00124618 0.000158989 -3.28157e-06
0.000158989 0.000581921 1.19209e-05
-3.28157e-06 1.19209e-05 0.000323375
-3.87623e-05 0.000445314 -1.09274e-05
0.000445314 -0.00042487 -5.25308e-06
-1.09274e-05 -5.25308e-06 -0.000858032
0.000991353 0.000325149 1.17976e-05
0.000325149 0.000389637 -4.90538e-06
1.17976e-05 -4.90538e-06 3.68485e-05
0.00117617 0.000243362 -2.16227e-06
0.000243362 0.0003248 1.73711e-05
-2.16227e-06 1.73711e-05 1.68207e-05
0.00239309 0.000600025 4.71544e-07
0.000600025 0.000164099 -8.09051e-07
4.71544e-07 -8.09051e-07 -2.6135e-06
0.00228926 0.000796496 -1.48093e-06
0.000796496 0.000266538 -2.48699e-06
-1.48093e-06 -2.48699e-06 -6.97675e-05
0.00242186 0.000767048 -2.55059e-06
0.000767048 0.000219327 -3.00077e-07
-2.55059e-06 -3.00077e-07 -1.8248e-05
0.00221692 0.00110932 -4.99903e-06
0.00110932 0.000826732 -1.48275e-05
-4.99903e-06 -1.48275e-05 8.10249e-05
0.00278025 0.000946565 -6.41768e-06
0.000946565 0.000569615 -3.46403e-06
-6.41768e-06 -3.46403e-06 0.00017445
0.00202437 0.00107841 4.96844e-06
0.00107841 0.000311532 -9.62343e-06
4.96844e-06 -9.62343e-06 -0.000296879
0.000848579 0.000130561 -1.83476e-06
0.000130561 0.000314392 1.18558e-05
-1.83476e-06 1.18558e-05 0.000146083
0.000884464 0.000158424 -8.11168e-06
0.000158424 0.000473209 6.81568e-06
-8.11168e-06 6.81568e-06 0.00021349
0.000635295 9.18684e-05 -2.55165e-06
9.18684e-05 0.000173507 5.19243e-06
-2.55165e-06 5.19243e-06 6.20938e-05
0.000461398 4.55111e-05 -2.3803e-06
4.55111e-05 6.35735e-05 1.53599e-07
-2.3803e-06 1.53599e-07 -7.00033e-05
0.0015737 5.58486e-06 1.17182e-06
5.58486e-06 0.000750084 7.85596e-06
1.17182e-06 7.85596e-06 0.000706153
0.00101513 2.64185e-05 -5.56034e-07
2.64185e-05 0.000383579 -3.96972e-07
-5.56034e-07 -3.96972e-07 0.000326601
0.00106094 -1.55542e-05 7.80844e-05
-1.55542e-05 0.000407801 1.64872e-05
7.80844e-05 1.64872e-05 0.000399792
0.00426478 -0.000150132 1.54569e-05
-0.000150132 0.00254935 -1.61336e-06
1.54569e-05 -1.61336e-06 0.00253449
0.0047099 -0.000203509 -8.17098e-05
-0.000203509 0.00286625 -1.12018e-05
-8.17098e-05 -1.12018e-05 0.00283636
0.000274202 -0.000118604 2.67271e-05
-0.000118604 -0.000108566 -8.60297e-06
2.67271e-05 -8.60297e-06 -0.000178846
0.00401398 0.000126263 9.7998e-05
0.000126263 0.00240833 -1.43523e-05
9.7998e-05 -1.43523e-05 0.00239421
0.00055301 -0.000145149 -2.07308e-06
-0.000145149 7.88645e-05 1.56964e-06
-2.07308e-06 1.56964e-06 -4.14304e-05
0.00655304 4.00914e-05 -2.86481e-06
4.00914e-05 0.00405558 1.15028e-06
-2.86481e-06 1.15028e-06 0.00405266
0.000144423 -0.000224511 -2.2527e-05
-0.000224511 -0.000254704 2.16394e-05
-2.2527e-05 2.16394e-05 -0.000404552
0.00830661 -1.61498e-05 -0.000348797
-1.61498e-05 0.00515391 4.38721e-05
-0.000348797 4.38721e-05 0.00516289
0.00150207 0.000287688 -6.42325e-06
0.000287688 -2.04383e-05 -2.21228e-06
-6.42325e-06 -2.21228e-06 -0.000214407
0.00147588 0.000163566 -2.92957e-06
0.000163566 -2.84176e-05 -6.70742e-07
-2.92957e-06 -6.70742e-07 -0.000172317
0.002276 0.00035252 -2.88512e-06
0.00035252 0.000121888 -1.78188e-07
-2.88512e-06 -1.78188e-07 1.04329e-05
0.00227918 0.000157182 -1.77708e-06
0.000157182 0.000112718 -7.22412e-07
-1.77708e-06 -7.22412e-07 5.5495e-05
0.00141648 5.78094e-05 -2.92357e-06
5.78094e-05 -4.96219e-05 -7.0154e-07
-2.92357e-06 -7.0154e-07 -0.000172833
0.000233796 2.74123e-05 -1.59094e-05
2.74123e-05 -0.000315242 -1.60269e-06
-1.59094e-05 -1.60269e-06 -0.000403918
0.00138686 -9.15653e-07 -3.90669e-08
-9.15653e-07 -6.25509e-05 1.13939e-08
-3.90669e-08 1.13939e-08 -0.000184598
0.00225778 7.48255e-05 -9.10244e-08
7.48255e-05 9.6027e-05 9.70375e-08
-9.10244e-08 9.70375e-08 4.66312e-05
0.00227146 0.000250477 4.87462e-08
0.000250477 0.000113345 1.96911e-07
4.87462e-08 1.96911e-07 3.55113e-05
0.00215172 0.000162976 -4.10224e-07
0.000162976 -2.06554e-05 -2.4509e-08
-4.10224e-07 -2.4509e-08 -2.23574e-05
0.00228399 0.00045336 -8.92616e-07
0.00045336 0.000156108 6.87342e-09
-8.92616e-07 6.87342e-09 -6.78745e-07
0.00226938 0.000349798 -1.26945e-08
0.000349798 4.28644e-05 2.45586e-07
-1.26945e-08 2.45586e-07 -2.98819e-06
0.00224633 -6.73888e-06 1.27291e-06
-6.73888e-06 9.15274e-05 -1.29243e-07
1.27291e-06 -1.29243e-07 4.23102e-05
0.00211048 7.61364e-05 3.07726e-06
7.61364e-05 -4.9666e-05 -1.99383e-08
3.07726e-06 -1.99383e-08 -3.97269e-05
0.0021918 0.000242016 5.24323e-06
0.000242016 1.17904e-05 8.92755e-07
5.24323e-06 8.92755e-07 -1.16798e-05
0.00224655 0.000157878 2.1004e-06
0.000157878 -3.02513e-05 1.36428e-07
2.1004e-06 1.36428e-07 9.80572e-07
0.00242736 0.000493256 3.00288e-06
0.000493256 0.000137873 3.72159e-07
3.00288e-06 3.72159e-07 4.77292e-05
0.00233178 0.000365355 6.93885e-07
0.000365355 -4.89028e-05 -2.24348e-07
6.93885e-07 -2.24348e-07 -3.33383e-05
0.00147929 -4.8369e-05 -4.66832e-06
-4.8369e-05 -5.32022e-06 2.0566e-07
-4.66832e-06 2.0566e-07 -0.000117232
0.00210945 -0.00018601 -2.24997e-05
-0.00018601 0.00040547 2.5339e-06
-2.24997e-05 2.5339e-06 0.000273279
0.00215491 -0.00016522 4.06663e-06
-0.00016522 3.147e-05 -3.965e-07
4.06663e-06 -3.965e-07 -4.01611e-05
0.00211896 -0.000361368 4.0431e-07
-0.000361368 5.83177e-05 3.30844e-07
4.0431e-07 3.30844e-07 -8.04458e-05
0.000327279 -0.00028616 -2.44138e-05
-0.00028616 -0.000195321 2.95961e-05
-2.44138e-05 2.95961e-05 -0.000385064
0.00139325 -0.000537718 -1.48491e-05
-0.000537718 0.000237482 4.56404e-06
-1.48491e-05 4.56404e-06 -0.000183661
0.00223844 -0.000870082 5.46548e-06
-0.000870082 0.000443318 -5.81437e-06
5.46548e-06 -5.81437e-06 -8.25541e-05
0.00220244 -0.000529007 -5.89566e-07
-0.000529007 0.000176093 -1.49987e-06
-5.89566e-07 -1.49987e-06 -5.58804e-05
0.00238012 -0.000490984 -2.33209e-06
-0.000490984 0.000122093 -3.62001e-07
-2.33209e-06 -3.62001e-07 2.40566e-05
0.00222606 -0.000662528 -1.96374e-07
-0.000662528 0.000163126 5.70878e-08
-1.96374e-07 5.70878e-08 -7.91681e-05
0.00263669 -0.000835079 2.07139e-06
-0.000835079 0.000563737 -6.61772e-06
2.07139e-06 -6.61772e-06 0.000179237
0.00216657 -0.000767417 -5.38233e-07
-0.000767417 0.000129799 8.73075e-07
-5.38233e-07 8.73075e-07 -0.000157499
0.000773033 -0.000322797 -6.03956e-06
-0.000322797 0.000114078 2.42136e-06
-6.03956e-06 2.42136e-06 -0.000239625
0.000936959 -0.000329577 -6.22971e-06
-0.000329577 0.000242664 -1.00267e-05
-6.22971e-06 -1.00267e-05 -0.000140633
0.000543452 -0.000276196 6.98282e-07
-0.000276196 0.000191626 5.42702e-06
6.98282e-07 5.42702e-06 -0.000121831
0.00220307 -8.23152e-05 3.86019e-06
-8.23152e-05 7.28273e-05 -2.58117e-07
3.86019e-06 -2.58117e-07 1.05629e-05
0.00212557 -0.000267777 1.94213e-06
-0.000267777 1.71212e-05 -6.02007e-07
1.94213e-06 -6.02007e-07 -7.53554e-05
0.00221339 -0.000159162 2.31409e-07
-0.000159162 4.10275e-05 4.65497e-08
2.31409e-07 4.65497e-08 2.80493e-05
0.00232963 -0.000379235 -6.73044e-07
-0.000379235 8.71069e-05 1.75192e-07
-6.73044e-07 1.75192e-07 2.77253e-05
0.000960966 -0.000419285 -1.37156e-06
-0.000419285 0.000104042 -4.47364e-07
-1.37156e-06 -4.47364e-07 -0.000274545
0.00231997 -0.000976728 6.56143e-07
-0.000976728 0.000672973 -1.65289e-06
6.56143e-07 -1.65289e-06 4.8198e-05
0.00230671 -0.000937753 1.48869e-06
-0.000937753 0.000403304 2.0279e-06
1.48869e-06 2.0279e-06 -0.000109491
0.00224109 -0.000586629 -9.19364e-07
-0.000586629 0.000105154 3.94275e-07
-9.19364e-07 3.94275e-07 -6.96008e-05
0.00239758 -0.000508623 9.06263e-08
-0.000508623 6.40635e-05 8.30527e-08
9.06263e-08 8.30527e-08 1.57753e-05
0.00251955 -0.000839453 -6.96919e-07
-0.000839453 0.000457736 1.04617e-08
-6.96919e-07 1.04617e-08 8.97385e-05
0.00238429 -0.00071765 -7.26681e-07
-0.00071765 0.000172304 4.7614e-07
-7.26681e-07 4.7614e-07 -1.31413e-05
0.00242486 -0.000822604 1.43663e-06
-0.000822604 0.00025607 -6.1246e-07
1.43663e-06 -6.1246e-07 6.99637e-06
0.00150873 -0.000600345 -4.73253e-06
-0.000600345 0.000496815 -1.5593e-06
-4.73253e-06 -1.5593e-06 -7.45386e-06
0.00141598 -0.000609103 -3.39492e-06
-0.000609103 0.000562181 -6.90996e-07
-3.39492e-06 -6.90996e-07 -8.0474e-06
0.000335644 -5.29213e-05 4.38591e-06
-5.29213e-05 -5.48693e-06 2.19266e-06
4.38591e-06 2.19266e-06 -0.000248812
0.00042168 -0.000173146 -3.84371e-07
-0.000173146 0.000142665 -5.59444e-06
-3.84371e-07 -5.59444e-06 -0.000207913
0.00216981 -8.91455e-05 5.60029e-06
-8.91455e-05 1.78804e-05 -2.98399e-07
5.60029e-06 -2.98399e-07 1.05563e-05
0.00218783 -0.00026268 4.00041e-06
-0.00026268 -7.53376e-06 -9.30177e-07
4.00041e-06 -9.30177e-07 -3.69861e-05
0.00226643 -0.000161108 2.82212e-06
-0.000161108 2.58336e-05 -1.43833e-07
2.82212e-06 -1.43833e-07 5.55042e-05
0.00234911 -0.000399798 -9.88835e-07
-0.000399798 -1.75087e-05 6.21509e-07
-9.88835e-07 6.21509e-07 4.34243e-07
0.00237645 -0.000625201 -2.82678e-07
-0.000625201 9.30842e-05 9.729e-07
-2.82678e-07 9.729e-07 -1.21647e-05
0.0024666 -0.000545999 1.18096e-06
-0.000545999 2.62052e-05 5.81876e-07
1.18096e-06 5.81876e-07 -4.01399e-06
0.00193961 -0.000889464 -4.90782e-06
-0.000889464 0.000646051 8.54349e-06
-4.90782e-06 8.54349e-06 1.14577e-05
0.00250776 -0.000787885 1.08632e-06
-0.000787885 0.000159571 -2.77713e-07
1.08632e-06 -2.77713e-07 1.72728e-05
0.00222735 -0.00108846 3.64315e-06
-0.00108846 0.000556758 6.08796e-06
3.64315e-06 6.08796e-06 -0.000101216
0.00262534 -0.000989776 8.09942e-06
-0.000989776 0.000576868 2.67883e-06
8.09942e-06 2.67883e-06 7.46093e-05
0.00258939 -0.000862901 -1.91872e-06
-0.000862901 0.000479471 3.36654e-07
-1.91872e-06 3.36654e-07 0.000121489
0.00247156 -0.000896186 -1.03719e-06
-0.000896186 0.000208497 -4.21959e-06
-1.03719e-06 -4.21959e-06 -4.44328e-05
0.000211037 -0.000214411 8.61381e-06
-0.000214411 -0.00016996 -1.01629e-05
8.61381e-06 -1.01629e-05 -0.000416797
-0.00168128 -1.91611e-05 1.08315e-05
-1.91611e-05 -0.00131196 2.82059e-06
1.08315e-05 2.82059e-06 -0.00163846
0.00139323 -0.000816532 1.56707e-05
-0.000816532 0.000427727 1.05829e-05
1.56707e-05 1.05829e-05 -0.000225603
0.00139223 -0.000418109 1.45172e-05
-0.000418109 0.000743223 7.06818e-06
1.45172e-05 7.06818e-06 0.000317804
0.00134817 -0.00073553 -8.80829e-06
-0.00073553 0.00057386 7.59634e-06
-8.80829e-06 7.59634e-06 -0.000112212
6.83123e-06 4.76129e-05 -8.40681e-06
4.76129e-05 -0.000281992 -1.71764e-05
-8.40681e-06 -1.71764e-05 -0.000369129
0.00232543 0.000548463 -3.97959e-06
0.000548463 0.000224969 2.55249e-07
-3.97959e-06 2.55249e-07 7.7808e-06
0.00116965 0.000106738 4.37486e-06
0.000106738 0.000491807 -6.50762e-06
4.37486e-06 -6.50762e-06 0.000203688
0.000798453 0.000334108 -5.21389e-06
0.000334108 0.00017772 8.37358e-06
-5.21389e-06 8.37358e-06 -0.000114626
0.00165081 0.00033357 -4.48008e-06
0.00033357 0.000718345 1.07776e-05
-4.48008e-06 1.07776e-05 0.000403375
0.00223999 0.000718229 -7.27122e-07
0.000718229 0.000311103 2.87546e-06
-7.27122e-07 2.87546e-06 -4.10194e-05
0.00242084 0.000703225 -3.90417e-07
0.000703225 0.000279058 5.33984e-07
-3.90417e-07 5.33984e-07 2.18192e-05
0.00181151 0.000869941 1.26069e-05
0.000869941 0.000606484 6.99617e-06
1.26069e-05 6.99617e-06 -2.72085e-05
0.00215139 0.00100458 7.99919e-06
0.00100458 0.000503355 1.23629e-05
7.99919e-06 1.23629e-05 -0.00011199
0.00254904 0.000875764 5.7335e-06
0.000875764 0.000535758 6.78686e-06
5.7335e-06 6.78686e-06 0.000135263
0.00268626 0.000853891 1.50706e-05
0.000853891 0.000548873 1.85154e-05
1.50706e-05 1.85154e-05 0.00016295
0.000448576 5.82124e-05 -1.06565e-06
5.82124e-05 6.21253e-06 2.73909e-07
-1.06565e-06 2.73909e-07 -6.49047e-05
0.000657505 0.000128168 -1.81382e-06
0.000128168 0.000219567 -3.02343e-07
-1.81382e-06 -3.02343e-07 -4.72202e-05
0.00101915 0.00053014 9.81554e-06
0.00053014 0.00026833 -1.5036e-06
9.81554e-06 -1.5036e-06 -0.000177165
0.000622222 0.000204487 1.14435e-06
0.000204487 0.000143656 -5.37859e-06
1.14435e-06 -5.37859e-06 -0.00019592
0.000327537 0.00023174 -2.42028e-06
0.00023174 -0.000225803 4.85845e-06
-2.42028e-06 4.85845e-06 -0.000556437
0.00241163 0.000602367 -9.83095e-07
0.000602367 0.000176419 -7.28104e-07
-9.83095e-07 -7.28104e-07 9.26753e-06
0.002348 0.000799848 3.84491e-07
0.000799848 0.000310404 -9.13798e-08
3.84491e-07 -9.13798e-08 -2.55875e-05
0.00241582 0.000767207 1.37721e-06
0.000767207 0.000219458 4.77298e-07
1.37721e-06 4.77298e-07 -1.76546e-05
0.00223631 0.00111299 1.1912e-06
0.00111299 0.00085722 -2.68983e-06
1.1912e-06 -2.68983e-06 0.000107332
0.00274358 0.000943004 3.46337e-06
0.000943004 0.000521682 1.72521e-07
3.46337e-06 1.72521e-07 0.000125683
0.00260833 0.00114078 -5.30316e-06
0.00114078 0.000715123 5.77024e-07
-5.30316e-06 5.77024e-07 9.76993e-05
0.000950379 0.000166366 -5.20638e-07
0.000166366 0.000370222 1.26599e-05
-5.20638e-07 1.26599e-05 0.000173432
0.00245204 0.000468339 9.07583e-08
0.000468339 0.00141897 5.27036e-06
9.07583e-08 5.27036e-06 0.0010219
0.00102716 0.000731623 -8.22902e-07
0.000731623 0.000301473 -1.36252e-06
-8.22902e-07 -1.36252e-06 -0.000271209
0.00137676 0.000253356 1.0156e-05
0.000253356 0.000390892 -1.669e-06
1.0156e-05 -1.669e-06 8.42968e-05
0.00308243 0.000768165 1.44146e-06
0.000768165 0.00137017 -1.21399e-06
1.44146e-06 -1.21399e-06 0.000891994
0.00245198 0.000641691 -3.28927e-06
0.000641691 0.000105706 -1.48625e-06
-3.28927e-06 -1.48625e-06 -1.28264e-05
0.00245914 0.000874884 -3.65654e-06
0.000874884 0.000333667 -1.01794e-06
-3.65654e-06 -1.01794e-06 -1.14562e-05
0.00247498 0.000855329 -1.94027e-07
0.000855329 0.000220413 -1.14607e-06
-1.94027e-07 -1.14607e-06 -2.0467e-05
0.0016724 0.00114824 9.3641e-06
0.00114824 0.000553955 -1.03476e-05
9.3641e-06 -1.03476e-05 -0.000206888
0.0023135 0.00109356 1.48249e-05
0.00109356 0.000392364 -4.60238e-06
1.48249e-05 -4.60238e-06 -0.000153002
0.000606619 0.000111159 -3.76405e-07
0.000111159 0.000157171 -8.00376e-08
-3.76405e-07 -8.00376e-08 -8.69508e-06
0.000352703 0.000247218 -4.53633e-06
0.000247218 6.55144e-05 1.14084e-06
-4.53633e-06 1.14084e-06 -0.000183599
-0.000624958 0.000103225 3.01644e-07
0.000103225 -0.000516498 -2.7781e-06
3.01644e-07 -2.7781e-06 -0.000760583
0.00185302 0.000314586 -9.14291e-06
0.000314586 0.00114889 5.02127e-07
-9.14291e-06 5.02127e-07 0.000855785
0.00155387 0.00026361 -3.8797e-06
0.00026361 0.000883656 1.61766e-06
-3.8797e-06 1.61766e-06 0.000664261
0.000544478 9.82591e-05 -6.30487e-07
9.82591e-05 0.000122548 3.17512e-06
-6.30487e-07 3.17512e-06 1.86214e-05
0.000542124 4.47216e-05 -1.33279e-06
4.47216e-05 0.000119577 -3.08652e-07
-1.33279e-06 -3.08652e-07 6.8828e-06
0.00149268 1.77974e-05 1.53809e-06
1.77974e-05 0.00070075 5.76965e-06
1.53809e-06 5.76965e-06 0.00066443
0.000366364 6.57116e-05 5.26561e-06
6.57116e-05 -4.29881e-06 -6.92071e-06
5.26561e-06 -6.92071e-06 -0.000130905
0.00160653 2.5662e-06 -1.6431e-05
2.5662e-06 0.000772269 -2.32461e-06
-1.6431e-05 -2.32461e-06 0.00073227
0.000749821 -1.30022e-05 5.80292e-05
-1.30022e-05 0.000202195 1.26124e-05
5.80292e-05 1.26124e-05 0.000199791
0.00170397 3.00298e-05 -3.25966e-05
3.00298e-05 0.000840133 -1.10781e-05
-3.25966e-05 -1.10781e-05 0.00079163
0.00236892 -7.4244e-05 6.9578e-05
-7.4244e-05 0.0012835 1.39841e-06
6.9578e-05 1.39841e-06 0.0012736
0.00396779 -0.000152106 -6.49321e-05
-0.000152106 0.00235591 -9.24803e-06
-6.49321e-05 -9.24803e-06 0.00233986
0.000742081 3.34042e-05 9.69368e-07
3.34042e-05 0.00020866 -9.14644e-06
9.69368e-07 -9.14644e-06 0.000131823
0.000218396 -9.01691e-05 5.09738e-06
-9.01691e-05 -0.000139187 1.65074e-06
5.09738e-06 1.65074e-06 -0.000219453
0.004208 0.000174005 5.75745e-05
0.000174005 0.0025414 -9.83986e-06
5.75745e-05 -9.83986e-06 0.00251369
0.00448506 0.000102541 -1.72034e-05
0.000102541 0.00271853 1.61645e-06
-1.72034e-05 1.61645e-06 0.00270577
0.00111039 -0.000150881 -1.43012e-05
-0.000150881 0.000432531 2.10858e-05
-1.43012e-05 2.10858e-05 0.000303007
0.00730588 4.0455e-05 -0.000288487
4.0455e-05 0.004554 4.05601e-05
-0.000288487 4.05601e-05 0.00454825
0.00229777 0.000456746 -3.00834e-06
0.000456746 0.000161195 5.42174e-07
-3.00834e-06 5.42174e-07 3.0289e-06
0.00228026 0.000251627 -2.06425e-06
0.000251627 0.000115679 -9.4849e-07
-2.06425e-06 -9.4849e-07 3.81234e-05
0.00225889 0.000350046 -4.47209e-06
0.000350046 3.87313e-05 -3.62643e-07
-4.47209e-06 -3.62643e-07 -7.53385e-06
0.00213647 0.000158782 -3.95931e-06
0.000158782 -4.11556e-05 -2.96593e-07
-3.95931e-06 -2.96593e-07 -3.62852e-05
0.00226345 7.4269e-05 -1.88454e-06
7.4269e-05 0.000102408 -2.53026e-07
-1.88454e-06 -2.53026e-07 5.32561e-05
0.00140383 4.34681e-06 -2.14351e-06
4.34681e-06 -5.17437e-05 -4.17275e-07
-2.14351e-06 -4.17275e-07 -0.000173722
0.00224721 -5.61412e-06 -1.28426e-08
-5.61412e-06 9.40743e-05 5.75869e-08
-1.28426e-08 5.75869e-08 4.47512e-05
0.00211132 6.82768e-05 -4.81886e-07
6.82768e-05 -4.60837e-05 -4.847e-08
-4.81886e-07 -4.847e-08 -3.82684e-05
0.00219508 0.00024134 -1.44977e-07
0.00024134 1.17939e-05 4.19043e-08
-1.44977e-07 4.19043e-08 -1.12875e-05
0.00223097 0.000159647 6.12827e-08
0.000159647 -4.83169e-05 4.84578e-08
6.12827e-08 4.84578e-08 -1.03752e-05
0.00239833 0.000491831 1.58166e-07
0.000491831 0.00011425 9.08742e-08
1.58166e-07 9.08742e-08 2.58811e-05
0.00232319 0.000355455 2.31184e-07
0.000355455 -5.75627e-05 2.13136e-07
2.31184e-07 2.13136e-07 -3.8236e-05
0.0021105 -1.0362e-05 3.49373e-06
-1.0362e-05 -4.09995e-05 -1.45396e-07
3.49373e-06 -1.45396e-07 -3.39996e-05
0.00228707 6.73398e-05 1.28775e-06
6.73398e-05 -8.37217e-06 -6.02748e-07
1.28775e-06 -6.02748e-07 4.3149e-05
0.00224235 0.000229137 -1.77775e-07
0.000229137 -6.28764e-05 -3.32802e-07
-1.77775e-07 -3.32802e-07 -3.59321e-05
0.00235932 0.000169727 5.5143e-07
0.000169727 -7.13144e-05 -3.73131e-07
5.5143e-07 -3.73131e-07 1.12228e-05
0.00242416 0.000494079 -3.45346e-07
0.000494079 2.73285e-05 -3.5285e-07
-3.45346e-07 -3.5285e-07 -2.59836e-06
0.00245204 0.000349762 3.11715e-07
0.000349762 -7.49734e-05 1.12395e-07
3.11715e-07 1.12395e-07 -2.45227e-05
0.00225365 -7.89326e-05 2.01025e-06
-7.89326e-05 0.000106792 3.69154e-07
2.01025e-06 3.69154e-07 5.16107e-05
0.0021375 -0.000272394 4.33659e-06
-0.000272394 2.91246e-05 -7.37932e-07
4.33659e-06 -7.37932e-07 -6.19667e-05
0.00215371 -0.000152884 -3.65267e-06
-0.000152884 -1.65149e-05 1.73894e-07
-3.65267e-06 1.73894e-07 -2.10923e-05
0.00237053 -0.00037504 -5.42935e-06
-0.00037504 0.000125354 9.01545e-07
-5.42935e-06 9.01545e-07 6.17898e-05
0.000793171 -0.000434593 -9.12341e-06
-0.000434593 5.04853e-06 7.11219e-06
-9.12341e-06 7.11219e-06 -0.00038884
0.0024223 -0.000992204 -3.01895e-06
-0.000992204 0.000758237 -5.55373e-06
-3.01895e-06 -5.55373e-06 0.000129946
0.00208672 -0.000910249 1.3265e-06
-0.000910249 0.000265345 -3.84473e-06
1.3265e-06 -3.84473e-06 -0.000248198
0.00210744 -0.000570465 -3.38602e-06
-0.000570465 2.31004e-05 6.30983e-07
-3.38602e-06 6.30983e-07 -0.000155639
0.00238812 -0.000511836 7.65358e-08
-0.000511836 4.47058e-05 -1.02062e-06
7.65358e-08 -1.02062e-06 1.37409e-06
0.00236298 -0.000717012 -1.61646e-06
-0.000717012 0.000153093 8.30285e-07
-1.61646e-06 8.30285e-07 -3.20305e-05
0.00237106 -0.000832161 -1.78096e-06
-0.000832161 0.00034678 -2.34719e-06
-1.78096e-06 -2.34719e-06 -2.07558e-05
0.00233809 -0.000823679 -2.65281e-07
-0.000823679 0.000191881 1.07982e-06
-2.65281e-07 1.07982e-06 -5.40721e-05
0.00108043 -0.00056131 3.44686e-08
-0.00056131 0.000207348 -1.2887e-05
3.44686e-08 -1.2887e-05 -0.000296861
0.00140624 -0.000563247 -1.96978e-05
-0.000563247 0.000547958 -6.36417e-06
-1.96978e-05 -6.36417e-06 -2.63346e-06
0.00144171 -9.24877e-05 6.44224e-06
-9.24877e-05 0.000707848 7.55121e-06
6.44224e-06 7.55121e-06 0.000468647
-0.000298026 -8.80917e-05 -1.09477e-05
-8.80917e-05 -0.000367108 -7.68166e-06
-1.09477e-05 -7.68166e-06 -0.000669068
0.00216457 -8.85133e-05 -1.24616e-07
-8.85133e-05 1.22403e-05 1.22657e-08
-1.24616e-07 1.22657e-08 4.91717e-06
0.00225292 -0.000266228 1.46585e-06
-0.000266228 4.14526e-05 -3.423e-07
1.46585e-06 -3.423e-07 1.10922e-05
0.00220529 -0.000158544 -6.36482e-08
-0.000158544 -2.07073e-05 -1.94556e-07
-6.36482e-08 -1.94556e-07 1.1838e-05
0.00233332 -0.000398432 -3.36046e-07
-0.000398432 -2.05299e-05 2.63966e-07
-3.36046e-07 2.63966e-07 -1.10263e-05
0.00185584 -0.000830185 -1.24197e-06
-0.000830185 0.00057029 -3.53011e-07
-1.24197e-06 -3.53011e-07 -3.59183e-05
0.002166 -0.00108579 3.88819e-06
-0.00108579 0.00051715 3.17412e-08
3.88819e-06 3.17412e-08 -0.000143656
0.0025642 -0.000998944 -5.81207e-07
-0.000998944 0.00053545 8.94491e-07
-5.81207e-07 8.94491e-07 2.51108e-05
0.0023996 -0.000626309 -9.36881e-07
-0.000626309 0.000117559 1.08488e-07
-9.36881e-07 1.08488e-07 5.50758e-06
0.00244527 -0.00054288 7.66769e-07
-0.00054288 1.32137e-05 -3.95397e-07
7.66769e-07 -3.95397e-07 -7.66639e-06
0.00262129 -0.00087203 -2.00129e-06
-0.00087203 0.000509428 8.90842e-07
-2.00129e-06 8.90842e-07 0.000146209
0.00250796 -0.000792771 -1.22603e-06
-0.000792771 0.000152279 5.14774e-07
-1.22603e-06 5.14774e-07 8.77693e-06
0.00249995 -0.000894935 7.19684e-06
-0.000894935 0.000227866 -3.50394e-06
7.19684e-06 -3.50394e-06 -1.95442e-05
0.00174035 -0.000868767 2.41552e-06
-0.000868767 0.000669936 -1.03402e-06
2.41552e-06 -1.03402e-06 -8.32414e-06
0.00161841 -0.000765349 -2.94155e-07
-0.000765349 0.000734967 -7.94499e-07
-2.94155e-07 -7.94499e-07 5.06686e-05
0.00068694 -0.00038133 -1.14733e-06
-0.00038133 0.000306156 -6.13395e-07
-1.14733e-06 -6.13395e-07 -0.000130566
-0.000210684 -0.000117364 -5.30649e-06
-0.000117364 -0.000397293 -9.05931e-07
-5.30649e-06 -9.05931e-07 -0.000657584
0.000444884 8.57758e-05 -3.36759e-06
8.57758e-05 0.000105376 -1.38589e-06
-3.36759e-06 -1.38589e-06 -0.000222487
0.00221003 -0.000100041 6.08798e-07
-0.000100041 -5.18408e-05 4.16681e-07
6.08798e-07 4.16681e-07 -4.43654e-06
0.00227746 -0.000238915 -6.67824e-07
-0.000238915 -6.04939e-05 -2.01113e-07
-6.67824e-07 -2.01113e-07 -1.4546e-05
0.00248483 -0.000485822 -9.85147e-07
-0.000485822 -7.03047e-05 7.80873e-08
-9.85147e-07 7.80873e-08 -1.40688e-05
0.00247544 -0.000664326 1.07285e-06
-0.000664326 4.28138e-05 1.70266e-06
1.07285e-06 1.70266e-06 -1.13868e-05
0.0020295 -0.00110259 -6.92298e-07
-0.00110259 0.000675737 2.45863e-06
-6.92298e-07 2.45863e-06 -5.25843e-05
0.00270848 -0.000930289 3.43312e-07
-0.000930289 0.000174335 -3.07817e-07
3.43312e-07 -3.07817e-07 -7.41043e-08
0.00174585 -0.0010986 1.27492e-06
-0.0010986 0.000266807 7.08504e-06
1.27492e-06 7.08504e-06 -0.000405745
0.00279894 -0.00106946 -5.27301e-06
-0.00106946 0.000660541 2.21794e-06
-5.27301e-06 2.21794e-06 0.000139952
0.00257464 -0.000900055 -1.58184e-05
-0.000900055 0.000417899 -4.25513e-06
-1.58184e-05 -4.25513e-06 8.10655e-05
0.000522898 -0.000188452 3.88156e-07
-0.000188452 0.000163793 -5.84734e-06
3.88156e-07 -5.84734e-06 -7.84082e-05
0.00397834 -0.000283773 -3.13844e-06
-0.000283773 0.0024063 2.79047e-06
-3.13844e-06 2.79047e-06 0.00201452
-0.000723637 -7.20361e-05 -2.7653e-06
-7.20361e-05 -0.000859376 3.70258e-06
-2.7653e-06 3.70258e-06 -0.00110781
0.00288653 -0.0011009 -9.04491e-06
-0.0011009 0.00140767 3.249e-06
-9.04491e-06 3.249e-06 0.000652346
0.00196716 -0.000565414 7.88136e-06
-0.000565414 0.00106416 6.29379e-06
7.88136e-06 6.29379e-06 0.000511218
0.0023472 -0.000918213 -9.12125e-06
-0.000918213 0.00117593 1.12586e-05
-9.12125e-06 1.12586e-05 0.00042567
0.000399776 5.77809e-05 -7.7156e-06
5.77809e-05 -2.279e-05 -1.65704e-05
-7.7156e-06 -1.65704e-05 -9.32239e-05
0.000112116 0.000111454 7.89144e-07
0.000111454 -0.000113469 -1.20844e-05
7.89144e-07 -1.20844e-05 -0.000392115
0.002427 0.000604549 -3.54734e-06
0.000604549 0.000186966 -1.07554e-06
-3.54734e-06 -1.07554e-06 1.93578e-05
-0.000273652 2.66038e-05 -2.70327e-06
2.66038e-05 -0.000400131 4.19755e-08
-2.70327e-06 4.19755e-08 -0.000749852
0.00313385 0.000638371 1.85862e-05
0.000638371 0.00159127 -5.54748e-06
1.85862e-05 -5.54748e-06 0.00115181
-0.000382601 0.000273848 -1.57971e-05
0.000273848 -0.000703868 -2.6397e-06
-1.57971e-05 -2.6397e-06 -0.00107127
0.00239792 0.000801372 1.7054e-06
0.000801372 0.000350498 1.9747e-06
1.7054e-06 1.9747e-06 1.53834e-05
0.00240832 0.000767679 2.73877e-06
0.000767679 0.000217295 6.49624e-07
2.73877e-06 6.49624e-07 -1.94541e-05
0.00208812 0.00108598 8.85989e-06
0.00108598 0.000787556 1.20364e-05
8.85989e-06 1.20364e-05 4.27509e-05
0.00315872 0.00119138 -4.1488e-06
0.00119138 0.00109772 9.63893e-06
-4.1488e-06 9.63893e-06 0.000476894
0.00269959 0.00094183 4.0837e-06
0.00094183 0.000464756 4.64052e-06
4.0837e-06 4.64052e-06 6.68007e-05
0.00082475 0.000167935 6.60586e-07
0.000167935 0.000292647 -9.85565e-08
6.60586e-07 -9.85565e-08 9.55065e-05
0.00101204 0.000270984 -3.54739e-06
0.000270984 0.000491394 2.1311e-08
-3.54739e-06 2.1311e-08 0.00011079
0.00137212 0.000794127 -2.71881e-07
0.000794127 0.000498655 -2.61918e-07
-2.71881e-07 -2.61918e-07 -0.000112277
0.000882289 0.000231105 8.99404e-07
0.000231105 7.38909e-05 -1.59848e-06
8.99404e-07 -1.59848e-06 -0.000232336
0.00122561 0.000525663 2.15092e-06
0.000525663 9.72494e-05 -5.63396e-06
2.15092e-06 -5.63396e-06 -0.000319247
0.00244576 0.000640686 -2.09415e-06
0.000640686 0.000114973 -1.06031e-06
-2.09415e-06 -1.06031e-06 -5.22457e-06
0.0024978 0.000882746 2.58552e-06
0.000882746 0.000339267 3.58796e-07
2.58552e-06 3.58796e-07 -8.24806e-06
0.0025126 0.00086255 1.06118e-06
0.00086255 0.00021617 8.97838e-07
1.06118e-06 8.97838e-07 -2.41506e-05
0.00202179 0.00121348 2.67598e-06
0.00121348 0.000739059 1.13171e-06
2.67598e-06 1.13171e-06 -3.23234e-05
0.00229791 0.0011086 -2.8635e-06
0.0011086 0.000419954 -3.21071e-06
-2.8635e-06 -3.21071e-06 -0.000139925
0.00190403 0.000450465 2.82397e-06
0.000450465 0.00104974 7.06028e-06
2.82397e-06 7.06028e-06 0.000736472
-0.000339007 0.00024753 -9.58505e-08
0.00024753 -0.000380006 -1.45498e-06
-9.58505e-08 -1.45498e-06 -0.000789579
0.00186948 0.000959302 7.0523e-06
0.000959302 0.000802581 -7.62638e-06
7.0523e-06 -7.62638e-06 0.000145182
-0.00339827 0.000390225 1.13461e-05
0.000390225 -0.00272421 -5.32838e-06
1.13461e-05 -5.32838e-06 -0.00314677
0.00378995 0.00103596 7.79025e-06
0.00103596 0.00167383 -8.32747e-06
7.79025e-06 -8.32747e-06 0.0011257
0.00261573 0.00075468 -3.38451e-06
0.00075468 7.41079e-05 -6.80534e-07
-3.38451e-06 -6.80534e-07 1.02335e-05
0.00253485 0.00094028 9.39205e-06
0.00094028 0.000295031 -3.20327e-06
9.39205e-06 -3.20327e-06 -8.29128e-05
0.00227048 0.000833064 7.2531e-06
0.000833064 -1.83264e-05 -3.0785e-07
7.2531e-06 -3.0785e-07 -0.00027568
0.00231846 0.00128017 2.01938e-05
0.00128017 0.0008275 8.49899e-07
2.01938e-05 8.49899e-07 7.19011e-05
0.00272867 0.00132627 8.52747e-06
0.00132627 0.000753763 -1.1196e-06
8.52747e-06 -1.1196e-06 8.95636e-05
0.000338927 8.58568e-05 6.36245e-06
8.58568e-05 -1.78506e-05 -1.18744e-05
6.36245e-06 -1.18744e-05 -0.000179418
0.000971088 0.000216443 -4.55448e-07
0.000216443 0.000455211 3.35781e-07
-4.55448e-07 3.35781e-07 0.000212566
-0.000353449 0.000115874 -5.45774e-06
0.000115874 -0.000401021 -1.91519e-05
-5.45774e-06 -1.91519e-05 -0.000569183
-0.000992861 -2.69722e-05 8.47811e-06
-2.69722e-05 -0.000796107 -3.88074e-06
8.47811e-06 -3.88074e-06 -0.000998701
0.00051994 0.000118541 -1.9731e-06
0.000118541 0.000181911 1.07417e-07
-1.9731e-06 1.07417e-07 -5.26633e-06
-3.97387e-05 0.000107744 4.36594e-06
0.000107744 -0.000117566 3.49624e-07
4.36594e-06 3.49624e-07 -0.000357338
0.00102779 0.000258284 -4.20909e-06
0.000258284 0.00057962 -3.33463e-06
-4.20909e-06 -3.33463e-06 0.000349541
0.000249212 -7.14857e-06 -9.05595e-06
-7.14857e-06 5.73918e-05 6.38657e-06
-9.05595e-06 6.38657e-06 -0.000169955
0.000760416 0.000138849 -2.25942e-06
0.000138849 0.00030617 -1.73623e-06
-2.25942e-06 -1.73623e-06 0.000154301
0.000528927 0.000100367 1.60493e-06
0.000100367 0.000110733 2.77574e-06
1.60493e-06 2.77574e-06 8.88706e-06
0.000428377 3.97836e-05 -3.19522e-06
3.97836e-05 3.85347e-05 1.61944e-07
-3.19522e-06 1.61944e-07 -6.03662e-05
0.00140892 7.30312e-06 1.61829e-06
7.30312e-06 0.000643874 5.04199e-06
1.61829e-06 5.04199e-06 0.000614342
0.000227821 -8.93386e-05 9.39704e-06
-8.93386e-05 -7.48289e-05 -4.02371e-06
9.39704e-06 -4.02371e-06 -0.000189833
0.00148492 5.59223e-06 -1.46832e-05
5.59223e-06 0.000691887 -2.15109e-06
-1.46832e-05 -2.15109e-06 0.000659929
0.000749857 -1.07213e-05 4.64075e-05
-1.07213e-05 0.000201913 1.15414e-05
4.64075e-05 1.15414e-05 0.000202574
0.00158447 3.75736e-06 -2.08271e-05
3.75736e-06 0.000754468 -1.06959e-05
-2.08271e-05 -1.06959e-05 0.000718422
0.000730026 -2.9742e-05 2.39459e-05
-2.9742e-05 0.000188937 4.66435e-06
2.39459e-05 4.66435e-06 0.000180277
0.00353758 -0.00015667 1.02479e-05
-0.00015667 0.00206384 -5.96201e-06
1.02479e-05 -5.96201e-06 0.00204575
0.000412681 0.000105955 -3.7789e-06
0.000105955 4.18457e-05 -9.59511e-06
-3.7789e-06 -9.59511e-06 -5.09216e-05
0.000380766 -4.4253e-05 -6.76293e-06
-4.4253e-05 -3.03663e-05 -1.77064e-06
-6.76293e-06 -1.77064e-06 -0.000111301
0.00422964 0.000236138 -2.56783e-05
0.000236138 0.00257039 -1.34315e-05
-2.56783e-05 -1.34315e-05 0.00252713
0.000700046 -0.000128765 -9.54796e-06
-0.000128765 0.000170177 1.39475e-05
-9.54796e-06 1.39475e-05 8.42346e-05
0.00380282 0.000145518 -1.90171e-05
0.000145518 0.00227662 3.45037e-07
-1.90171e-05 3.45037e-07 0.00225677
0.0053044 6.93074e-05 -0.000219351
6.93074e-05 0.00327731 3.84747e-05
-0.000219351 3.84747e-05 0.00326297
0.00237157 0.000490359 -3.85748e-06
0.000490359 9.23286e-05 -5.42324e-07
-3.85748e-06 -5.42324e-07 5.81173e-06
0.00219917 0.000239997 -4.89274e-06
0.000239997 1.35165e-05 -6.58021e-07
-4.89274e-06 -6.58021e-07 -9.10256e-06
0.00231662 0.000345845 7.17089e-07
0.000345845 -6.50726e-05 5.89657e-07
7.17089e-07 5.89657e-07 -4.19787e-05
0.00221397 0.000161876 3.19016e-07
0.000161876 -6.73278e-05 2.95623e-07
3.19016e-07 2.95623e-07 -2.24679e-05
0.00211209 6.12882e-05 -3.87367e-06
6.12882e-05 -4.23463e-05 2.0628e-07
-3.87367e-06 2.0628e-07 -3.68688e-05
0.00224408 -4.88684e-06 -1.18043e-06
-4.88684e-06 9.40989e-05 3.27743e-07
-1.18043e-06 3.27743e-07 4.46771e-05
0.00213094 -1.17808e-05 2.62398e-07
-1.17808e-05 -2.275e-05 -1.91271e-08
2.62398e-07 -1.91271e-08 -1.82998e-05
0.00226773 6.9874e-05 5.31402e-07
6.9874e-05 -1.64903e-05 -5.91779e-09
5.31402e-07 -5.91779e-09 3.00516e-05
0.002268 0.000230179 -5.86439e-07
0.000230179 -3.93578e-05 -6.03692e-08
-5.86439e-07 -6.03692e-08 -1.37551e-05
0.0023348 0.000171084 6.48788e-07
0.000171084 -9.14059e-05 1.40236e-07
6.48788e-07 1.40236e-07 6.73725e-07
0.002427 0.000495869 -3.41865e-07
0.000495869 3.29725e-05 5.31144e-08
-3.41865e-07 5.31144e-08 4.36742e-07
0.00245149 0.000353634 1.96329e-06
0.000353634 -7.51201e-05 7.05194e-07
1.96329e-06 7.05194e-07 -1.54147e-05
0.00221163 -1.68192e-05 -9.87963e-07
-1.68192e-05 -5.20726e-05 4.90043e-08
-9.87963e-07 4.90043e-08 -7.98313e-06
0.00237743 8.64643e-05 -7.17247e-08
8.64643e-05 -8.39407e-05 -1.03745e-06
-7.17247e-08 -1.03745e-06 1.9687e-05
0.00244408 0.000240317 -4.56642e-07
0.000240317 -7.07994e-05 -1.35265e-07
-4.56642e-07 -1.35265e-07 2.45648e-05
0.00256113 0.000513526 -1.71429e-06
0.000513526 -6.49616e-05 2.59831e-07
-1.71429e-06 2.59831e-07 -1.36669e-06
0.00215327 -8.7773e-05 -5.56833e-06
-8.7773e-05 1.78213e-06 3.66324e-07
-5.56833e-06 3.66324e-07 -5.53426e-06
0.00231249 -0.000270357 -3.86803e-06
-0.000270357 8.74053e-05 7.33958e-07
-3.86803e-06 7.33958e-07 5.61141e-05
0.00214413 -0.000156883 -9.84913e-07
-0.000156883 -6.77581e-05 1.15144e-08
-9.84913e-07 1.15144e-08 -3.25034e-05
0.0023242 -0.000397855 -2.12934e-06
-0.000397855 -2.03332e-05 -2.26106e-07
-2.12934e-06 -2.26106e-07 -1.92569e-05
0.00186786 -0.000812341 6.03677e-06
-0.000812341 0.000568974 -8.38692e-06
6.03677e-06 -8.38692e-06 -2.61379e-05
0.00220922 -0.00109845 3.72835e-06
-0.00109845 0.000541299 -4.55002e-06
3.72835e-06 -4.55002e-06 -0.000126222
0.00252561 -0.00101368 -6.03673e-06
-0.00101368 0.000509742 -3.15746e-06
-6.03673e-06 -3.15746e-06 -1.12262e-05
0.00242304 -0.000627242 -3.21992e-06
-0.000627242 0.000142408 4.80023e-07
-3.21992e-06 4.80023e-07 2.39657e-05
0.0024231 -0.000540335 2.13458e-06
-0.000540335 -3.8134e-07 -1.39045e-06
2.13458e-06 -1.39045e-06 -1.17457e-05
0.00250648 -0.0007957 -3.97606e-06
-0.0007957 0.000145862 9.63734e-07
-3.97606e-06 9.63734e-07 1.58171e-06
0.00249608 -0.000858424 4.95846e-07
-0.000858424 0.000441807 9.35029e-07
4.95846e-07 9.35029e-07 7.8576e-05
0.00248762 -0.000886702 4.79747e-06
-0.000886702 0.000218508 3.07898e-06
4.79747e-06 3.07898e-06 -2.32502e-05
0.00208618 -0.000906713 -1.83068e-05
-0.000906713 0.000910539 -7.2019e-06
-1.83068e-05 -7.2019e-06 0.000225592
0.000715508 -0.000637147 1.48671e-05
-0.000637147 0.000168927 -9.71823e-06
1.48671e-05 -9.71823e-06 -0.00047503
0.00182835 -0.000466617 -1.08293e-05
-0.000466617 0.001027 -7.8277e-06
-1.08293e-05 -7.8277e-06 0.000568817
0.000465578 -4.82756e-05 -1.70036e-06
-4.82756e-05 6.36079e-05 3.07706e-06
-1.70036e-06 3.07706e-06 -0.000189262
0.00391686 0.000183113 1.54688e-06
0.000183113 0.00235227 4.34692e-07
1.54688e-06 4.34692e-07 0.00202563
0.00219856 -0.000107894 2.52482e-07
-0.000107894 -5.75265e-05 -7.65207e-08
2.52482e-07 -7.65207e-08 -1.12325e-05
0.00229315 -0.000240832 1.90596e-06
-0.000240832 -5.30218e-05 4.51106e-08
1.90596e-06 4.51106e-08 -8.19233e-06
0.00247244 -0.000479336 -9.79465e-07
-0.000479336 -5.85755e-05 2.12649e-07
-9.79465e-07 2.12649e-07 -1.42081e-05
0.00233341 -0.00111809 -2.16473e-06
-0.00111809 0.000866564 -2.00406e-07
-2.16473e-06 -2.00406e-07 0.00013917
0.00186574 -0.00110476 5.32835e-06
-0.00110476 0.000338835 -3.77795e-07
5.32835e-06 -3.77795e-07 -0.000333873
0.00257607 -0.00106248 -1.49303e-06
-0.00106248 0.000530712 -1.25628e-07
-1.49303e-06 -1.25628e-07 4.13095e-06
0.00248707 -0.000656669 2.52781e-07
-0.000656669 5.75518e-05 -4.87349e-07
2.52781e-07 -4.87349e-07 1.78625e-06
0.0024602 -0.000903068 5.69471e-06
-0.000903068 0.000314819 -4.1205e-06
5.69471e-06 -4.1205e-06 -1.73472e-05
0.00270211 -0.000920503 -9.23954e-07
-0.000920503 0.000198116 -8.18879e-07
-9.23954e-07 -8.18879e-07 2.88618e-05
-0.000788661 -2.54399e-05 -8.86236e-07
-2.54399e-05 -0.000712462 -2.30221e-07
-8.86236e-07 -2.30221e-07 -0.000927051
0.00172493 -0.000931019 1.28369e-06
-0.000931019 0.000705109 1.09172e-06
1.28369e-06 1.09172e-06 -1.34576e-05
0.00165823 -0.000842335 -7.18751e-06
-0.000842335 0.00075365 1.02186e-06
-7.18751e-06 1.02186e-06 -4.3141e-06
0.00165752 -0.000576149 2.0104e-07
-0.000576149 0.000887984 5.32378e-06
2.0104e-07 5.32378e-06 0.00030537
0.000549991 -0.000183726 -2.87806e-06
-0.000183726 -6.20505e-06 -3.16666e-06
-2.87806e-06 -3.16666e-06 -0.000281783
0.00203871 -8.24245e-05 -4.09188e-06
-8.24245e-05 0.00110234 4.7333e-06
-4.09188e-06 4.7333e-06 0.000712381
0.00231379 -0.000139642 -7.91291e-07
-0.000139642 -0.00010667 6.21955e-07
-7.91291e-07 6.21955e-07 -1.70889e-05
0.00249395 -0.000318812 1.61016e-06
-0.000318812 -0.000121345 4.35669e-07
1.61016e-06 4.35669e-07 1.97228e-06
0.00258889 -0.00060464 -1.19778e-06
-0.00060464 -4.47045e-05 1.36106e-06
-1.19778e-06 1.36106e-06 1.13402e-05
0.00261989 -0.000792635 -8.69088e-07
-0.000792635 2.47124e-05 2.77048e-06
-8.69088e-07 2.77048e-06 3.06602e-06
0.00272018 -0.00124606 -4.91424e-06
-0.00124606 0.00112781 2.31796e-06
-4.91424e-06 2.31796e-06 0.000353605
0.00265438 -0.00105554 1.76756e-06
-0.00105554 0.000254263 -1.51489e-06
1.76756e-06 -1.51489e-06 -3.4361e-05
0.00243824 -0.00130291 -4.24434e-05
-0.00130291 0.000687384 1.09209e-05
-4.24434e-05 1.09209e-05 -4.80791e-05
0.002302 -0.00108855 -3.55861e-05
-0.00108855 0.000381962 2.16671e-06
-3.55861e-05 2.16671e-06 -0.000152552
-0.000921412 -7.28495e-06 -1.22717e-06
-7.28495e-06 -0.000835572 -4.35282e-06
-1.22717e-06 -4.35282e-06 -0.000968228
0.00122774 -0.000176924 -2.43958e-06
-0.000176924 0.000734586 4.12687e-06
-2.43958e-06 4.12687e-06 0.000361845
0.00323682 -0.000311863 -1.12596e-05
-0.000311863 0.0018124 1.06649e-05
-1.12596e-05 1.06649e-05 0.00146619
0.000255522 -9.99572e-05 -1.77842e-06
-9.99572e-05 -0.000100942 -1.22396e-05
-1.77842e-06 -1.22396e-05 -0.000484882
0.00213709 -0.000992538 -2.55401e-06
-0.000992538 0.000970964 1.73753e-05
-2.55401e-06 1.73753e-05 0.000227004
0.00201028 -0.00090056 -5.03056e-07
-0.00090056 0.000995613 1.80419e-05
-5.03056e-07 1.80419e-05 0.00017138
0.000462285 0.000149589 2.44223e-06
0.000149589 5.80879e-05 -1.22241e-05
2.44223e-06 -1.22241e-05 -0.000134413
-0.000437885 0.000102429 5.93716e-07
0.000102429 -0.000456444 -2.83889e-06
5.93716e-07 -2.83889e-06 -0.000813558
0.00243989 0.000639761 -7.45983e-07
0.000639761 0.000124147 -4.34056e-07
-7.45983e-07 -4.34056e-07 2.25608e-06
0.000612153 0.000202675 -5.09951e-06
0.000202675 -8.8747e-05 4.07567e-06
-5.09951e-06 4.07567e-06 -0.000392963
0.00200057 0.000892589 7.98107e-06
0.000892589 0.000884001 -1.44456e-06
7.98107e-06 -1.44456e-06 0.000226938
2.74227e-05 0.000292247 -1.45785e-05
0.000292247 -0.000635709 3.0718e-06
-1.45785e-05 3.0718e-06 -0.000978791
0.00253951 0.000890976 4.05875e-06
0.000890976 0.00034613 5.27154e-07
4.05875e-06 5.27154e-07 -3.86327e-06
0.00255158 0.000868546 -3.43182e-06
0.000868546 0.000214513 4.38566e-07
-3.43182e-06 4.38566e-07 -2.41578e-05
0.00246566 0.00129032 -7.19914e-06
0.00129032 0.00098349 7.10403e-06
-7.19914e-06 7.10403e-06 0.000198671
0.002301 0.00112433 -8.92599e-06
0.00112433 0.000466976 3.30414e-06
-8.92599e-06 3.30414e-06 -0.000108717
0.000740828 0.000291739 -2.05367e-07
0.000291739 0.000300758 -7.30493e-07
-2.05367e-07 -7.30493e-07 -2.81586e-06
0.00105631 0.000364597 2.65302e-07
0.000364597 0.000496353 -2.92325e-06
2.65302e-07 -2.92325e-06 7.55759e-05
0.00164538 0.000911791 -2.99396e-06
0.000911791 0.00066912 7.48792e-08
-2.99396e-06 7.48792e-08 2.27967e-05
0.000476151 0.000468676 -3.50402e-06
0.000468676 -0.00031814 -5.28645e-07
-3.50402e-06 -5.28645e-07 -0.000700016
0.00330081 0.000938023 1.76234e-06
0.000938023 0.00136238 2.70255e-06
1.76234e-06 2.70255e-06 0.000840376
0.00265376 0.000763628 -2.56298e-06
0.000763628 8.03523e-05 -3.38375e-07
-2.56298e-06 -3.38375e-07 1.19864e-05
0.00264283 0.000916111 2.86204e-06
0.000916111 0.000372088 -8.06277e-07
2.86204e-06 -8.06277e-07 1.29174e-05
0.00267282 0.00086951 5.58791e-07
0.00086951 0.000250646 2.87236e-06
5.58791e-07 2.87236e-06 -1.6622e-05
0.00228024 0.00128995 5.22085e-06
0.00128995 0.000792962 1.56648e-06
5.22085e-06 1.56648e-06 2.9351e-05
0.00260495 0.00137626 -5.78143e-06
0.00137626 0.000685369 8.82001e-07
-5.78143e-06 8.82001e-07 -1.27667e-05
-0.0018332 6.86935e-05 -9.91545e-06
6.86935e-05 -0.00135331 -3.82327e-06
-9.91545e-06 -3.82327e-06 -0.00159561
-0.00346029 0.000477241 -1.52917e-06
0.000477241 -0.0019972 -2.7717e-06
-1.52917e-06 -2.7717e-06 -0.00262588
0.00217428 0.00103763 1.64548e-05
0.00103763 0.000850193 -4.82321e-06
1.64548e-05 -4.82321e-06 0.000203685
0.001577 0.000586954 3.57944e-06
0.000586954 0.000269361 -1.48109e-05
3.57944e-06 -1.48109e-05 -0.000105621
0.0028047 0.000699808 4.77063e-07
0.000699808 -0.000179749 2.99614e-06
4.77063e-07 2.99614e-06 -1.69169e-05
0.00270021 0.000924453 6.41698e-06
0.000924453 0.000111367 -2.07635e-07
6.41698e-06 -2.07635e-07 -4.50419e-05
0.00284827 0.00116822 1.20608e-05
0.00116822 0.000507963 -4.76278e-06
1.20608e-05 -4.76278e-06 -2.82455e-05
0.00244195 0.00143144 6.30597e-06
0.00143144 0.000675951 -1.2858e-06
6.30597e-06 -1.2858e-06 -0.00012255
0.00158532 0.000263785 6.56556e-06
0.000263785 0.000893028 -1.95669e-06
6.56556e-06 -1.95669e-06 0.00061894
0.000354469 0.000222577 -5.05124e-06
0.000222577 9.99774e-05 1.37897e-06
-5.05124e-06 1.37897e-06 -0.000107348
0.000284719 0.000124669 -5.57434e-06
0.000124669 7.43712e-05 -7.42423e-06
-5.57434e-06 -7.42423e-06 -5.85648e-05
-4.61259e-05 4.37439e-05 3.97924e-06
4.37439e-05 -0.000210583 -1.7452e-06
3.97924e-06 -1.7452e-06 -0.000378537
-0.00195497 3.94185e-05 1.83312e-06
3.94185e-05 -0.0013018 -2.94827e-06
1.83312e-06 -2.94827e-06 -0.00155451
0.000790374 9.40104e-05 -1.2012e-06
9.40104e-05 0.00032888 -1.10212e-07
-1.2012e-06 -1.10212e-07 0.000173134
0.000611973 0.00024417 6.54977e-06
0.00024417 0.000346783 2.67803e-06
6.54977e-06 2.67803e-06 0.000119419
0.000713949 9.67431e-05 1.65366e-06
9.67431e-05 0.000396384 2.22632e-06
1.65366e-06 2.22632e-06 0.000134622
0.000574179 0.000140678 -6.84283e-06
0.000140678 0.000168069 -9.15862e-06
-6.84283e-06 -9.15862e-06 6.74613e-05
0.000768044 4.44997e-05 -7.16557e-06
4.44997e-05 0.000447012 1.6036e-06
-7.16557e-06 1.6036e-06 0.000175479
-0.000193861 7.85939e-05 -4.53046e-06
7.85939e-05 -0.00026747 3.55466e-06
-4.53046e-06 3.55466e-06 -0.0004596
0.000808273 0.000155319 1.79626e-06
0.000155319 0.000335938 1.35228e-06
1.79626e-06 1.35228e-06 0.00017949
0.000443593 0.00010111 2.37913e-06
0.00010111 6.36529e-05 3.62869e-06
2.37913e-06 3.62869e-06 -4.24066e-05
0.000409601 2.24014e-05 -1.95912e-06
2.24014e-05 2.8486e-05 -4.18588e-07
-1.95912e-06 -4.18588e-07 -6.94128e-05
0.00126683 2.51046e-05 4.97452e-07
2.51046e-05 0.000555853 3.5062e-06
4.97452e-07 3.5062e-06 0.000527273
0.000389898 -5.24816e-05 3.96567e-06
-5.24816e-05 9.94247e-06 -2.78843e-06
3.96567e-06 -2.78843e-06 -8.52175e-05
0.00136454 8.67009e-06 -1.28176e-05
8.67009e-06 0.000617409 -1.98121e-06
-1.28176e-05 -1.98121e-06 0.000588442
0.00065707 -2.21093e-06 4.15578e-05
-2.21093e-06 0.000143088 1.10959e-05
4.15578e-05 1.10959e-05 0.000145667
0.00142676 -3.94751e-05 -1.27132e-05
-3.94751e-05 0.000656979 -9.41361e-06
-1.27132e-05 -9.41361e-06 0.000625501
0.00070532 -2.04148e-05 1.97342e-05
-2.04148e-05 0.000171616 4.23793e-06
1.97342e-05 4.23793e-06 0.000168441
0.000595789 -3.60924e-05 5.01275e-06
-3.60924e-05 0.000103466 -4.92236e-06
5.01275e-06 -4.92236e-06 9.15411e-05
0.000407496 2.81155e-05 2.38997e-06
2.81155e-05 -1.77556e-05 -9.65186e-06
2.38997e-06 -9.65186e-06 -6.85338e-05
0.00036906 3.60998e-05 -1.84756e-06
3.60998e-05 -2.02751e-05 3.65401e-07
-1.84756e-06 3.65401e-07 -9.7644e-05
0.00319787 0.000174271 -2.10725e-05
0.000174271 0.00186308 -1.21402e-05
-2.10725e-05 -1.21402e-05 0.00183884
-0.000655437 -7.35449e-05 -2.1682e-05
-7.35449e-05 -0.000705967 5.20684e-06
-2.1682e-05 5.20684e-06 -0.00078786
0.00436762 0.00016492 -2.77168e-05
0.00016492 0.00263486 -1.80493e-06
-2.77168e-05 -1.80493e-06 0.00260986
0.00335577 7.07811e-05 -0.000113859
7.07811e-05 0.00197008 2.23047e-05
-0.000113859 2.23047e-05 0.00196914
0.00242597 0.00049712 8.03574e-07
0.00049712 3.66917e-05 6.58761e-07
8.03574e-07 6.58761e-07 1.77707e-06
0.0022958 0.000231258 -8.21033e-07
0.000231258 -1.48623e-05 -2.39531e-07
-8.21033e-07 -2.39531e-07 9.32826e-06
0.00245118 0.00035669 1.73888e-06
0.00035669 -7.52123e-05 1.6366e-06
1.73888e-06 1.6366e-06 -6.20992e-06
0.00231063 0.000172467 1.10785e-06
0.000172467 -0.00011159 4.23788e-07
1.10785e-06 4.23788e-07 -1.01022e-05
0.00224612 7.24704e-05 -4.60674e-07
7.24704e-05 -2.59175e-05 6.86033e-07
-4.60674e-07 6.86033e-07 1.5625e-05
0.00214991 -1.4222e-05 -5.21964e-06
-1.4222e-05 -5.89945e-06 1.64857e-07
-5.21964e-06 1.64857e-07 -3.78514e-06
0.00221941 -1.63849e-05 8.23939e-07
-1.63849e-05 -4.56105e-05 -1.80182e-08
8.23939e-07 -1.80182e-08 1.57253e-07
0.00234287 9.15451e-05 4.3005e-07
9.15451e-05 -0.000102381 2.05525e-07
4.3005e-07 2.05525e-07 6.23606e-07
0.00243861 0.000245818 7.63141e-07
0.000245818 -7.63874e-05 5.40287e-08
7.63141e-07 5.40287e-08 1.9771e-05
0.00254977 0.000496088 5.84217e-07
0.000496088 -7.26337e-05 2.50124e-07
5.84217e-07 2.50124e-07 -3.57725e-06
0.00235012 -1.61445e-05 -1.68901e-06
-1.61445e-05 -9.34963e-05 -4.65373e-08
-1.68901e-06 -4.65373e-08 2.5569e-06
0.00248278 0.000147755 2.44517e-07
0.000147755 -0.00013305 -3.91379e-07
2.44517e-07 -3.91379e-07 3.17444e-05
0.00268769 0.000348865 1.30712e-07
0.000348865 -0.000102162 1.80553e-07
1.30712e-07 1.80553e-07 4.27605e-05
0.00218494 -0.000115461 -2.41525e-07
-0.000115461 -6.41374e-05 -6.83123e-07
-2.41525e-07 -6.83123e-07 -1.88653e-05
0.00231075 -0.000241744 -1.29375e-06
-0.000241744 -4.32057e-05 -4.11763e-07
-1.29375e-06 -4.11763e-07 3.78883e-07
0.00245262 -0.000471909 1.34199e-07
-0.000471909 -5.23569e-05 -2.66033e-07
1.34199e-07 -2.66033e-07 -1.8999e-05
0.00252802 -0.00112708 -2.20107e-06
-0.00112708 0.000980406 -4.11654e-06
-2.20107e-06 -4.11654e-06 0.000252862
0.00199817 -0.00110291 5.22477e-06
-0.00110291 0.000422854 -4.81682e-06
5.22477e-06 -4.81682e-06 -0.0002453
0.00253818 -0.00107027 7.49388e-06
-0.00107027 0.000512533 -2.0472e-06
7.49388e-06 -2.0472e-06 -2.06549e-05
0.00250632 -0.000650254 -7.60823e-07
-0.000650254 7.51918e-05 -7.93209e-07
-7.60823e-07 -7.93209e-07 1.79735e-05
0.00271847 -0.000911848 -1.08479e-06
-0.000911848 0.000236243 8.96479e-07
-1.08479e-06 8.96479e-07 7.27874e-05
0.00262193 -0.000937456 1.24689e-05
-0.000937456 0.000385654 -2.36238e-06
1.24689e-05 -2.36238e-06 5.2035e-05
0.00146148 -0.000893872 2.05e-06
-0.000893872 0.000563954 -2.75978e-06
2.05e-06 -2.75978e-06 -0.000149284
0.00201294 -0.000909953 1.42956e-05
-0.000909953 0.000973967 -1.67509e-05
1.42956e-05 -1.67509e-05 0.000197488
0.00238618 -0.000762182 -7.04032e-06
-0.000762182 0.00140603 2.35646e-06
-7.04032e-06 2.35646e-06 0.0007648
2.58996e-05 3.31174e-05 6.37105e-06
3.31174e-05 -0.000160871 1.41894e-06
6.37105e-06 1.41894e-06 -0.000386757
0.00199842 -0.000276855 4.11134e-06
-0.000276855 0.000924067 -8.29595e-07
4.11134e-06 -8.29595e-07 0.000657841
-0.0010274 0.000145328 7.0117e-06
0.000145328 -0.000921066 -1.31219e-06
7.0117e-06 -1.31219e-06 -0.00130187
0.00234642 -0.000131365 -4.17157e-07
-0.000131365 -8.33808e-05 9.98657e-08
-4.17157e-07 9.98657e-08 2.54345e-06
0.00248052 -0.000332904 2.57474e-07
-0.000332904 -0.000139877 -2.10185e-07
2.57474e-07 -2.10185e-07 -1.06511e-05
0.0025809 -0.000591268 -4.67872e-07
-0.000591268 -4.49889e-05 -2.74843e-07
-4.67872e-07 -2.74843e-07 1.06363e-05
0.00239359 -0.00119462 -3.50283e-06
-0.00119462 0.000915142 3.81181e-07
-3.50283e-06 3.81181e-07 0.000157976
0.00222694 -0.00125847 8.38238e-06
-0.00125847 0.00057413 -2.20563e-06
8.38238e-06 -2.20563e-06 -0.000145754
0.00267081 -0.00112843 -1.71413e-06
-0.00112843 0.000581456 -2.67616e-06
-1.71413e-06 -2.67616e-06 5.27666e-05
0.00262262 -0.000806094 7.61406e-07
-0.000806094 2.37698e-05 -5.50878e-07
7.61406e-07 -5.50878e-07 -8.60039e-06
0.0027152 -0.00104545 2.04508e-06
-0.00104545 0.000309444 -1.47948e-06
2.04508e-06 -1.47948e-06 2.88556e-05
-2.6809e-05 3.87221e-05 -1.45845e-07
3.87221e-05 -0.000238235 -4.28496e-06
-1.45845e-07 -4.28496e-06 -0.000373143
0.000712919 -0.000168915 -3.41176e-06
-0.000168915 0.00038241 1.22097e-06
-3.41176e-06 1.22097e-06 2.60153e-05
0.00179269 -0.000956189 -5.40414e-06
-0.000956189 0.000766139 -6.45856e-07
-5.40414e-06 -6.45856e-07 4.15354e-05
0.00176217 -0.000815187 -5.83886e-07
-0.000815187 0.000892665 -1.1496e-06
-5.83886e-07 -1.1496e-06 8.0251e-05
0.0020947 -0.000221074 -4.71723e-06
-0.000221074 0.00106452 -4.55598e-06
-4.71723e-06 -4.55598e-06 0.00066854
0.000505231 -0.000195025 1.90463e-06
-0.000195025 2.42296e-05 -3.72997e-06
1.90463e-06 -3.72997e-06 -0.000306601
0.00244643 -0.000173342 1.59716e-06
-0.000173342 -0.000166252 1.74935e-07
1.59716e-06 1.74935e-07 1.26029e-06
0.0027024 -0.000493127 1.99015e-06
-0.000493127 -0.000171802 2.34772e-07
1.99015e-06 2.34772e-07 2.96842e-05
0.00264692 -0.000749475 -2.05128e-07
-0.000749475 -8.15504e-05 3.27217e-06
-2.05128e-07 3.27217e-06 -2.65031e-05
0.00284094 -0.00103729 4.51104e-07
-0.00103729 0.000193751 -1.39872e-06
4.51104e-07 -1.39872e-06 4.59748e-05
0.0018364 -0.00116461 -5.65703e-06
-0.00116461 0.000620279 -1.5599e-06
-5.65703e-06 -1.5599e-06 -0.000104439
0.00306898 -0.00130416 9.85776e-06
-0.00130416 0.000671017 -1.84471e-06
9.85776e-06 -1.84471e-06 0.000183421
0.00249414 -0.0014127 -5.569e-05
-0.0014127 0.000691035 5.34724e-06
-5.569e-05 5.34724e-06 -7.82904e-05
0.00046714 3.9751e-05 2.31812e-06
3.9751e-05 6.09523e-05 -5.58595e-06
2.31812e-06 -5.58595e-06 -3.91242e-05
0.000740701 -0.000174244 4.00412e-06
-0.000174244 0.000320605 -7.96906e-06
4.00412e-06 -7.96906e-06 0.00015167
-0.0010296 3.63586e-05 -7.06892e-06
3.63586e-05 -0.00077988 6.54165e-07
-7.06892e-06 6.54165e-07 -0.00102674
0.000514321 -0.000279514 -9.05112e-06
-0.000279514 0.000286094 1.51314e-05
-9.05112e-06 1.51314e-05 -8.45583e-05
0.00434923 -7.70714e-06 -1.49162e-05
-7.70714e-06 0.0025975 -6.40249e-06
-1.49162e-05 -6.40249e-06 0.00228547
-7.88767e-05 -0.000282129 -8.17819e-06
-0.000282129 -0.000350004 -5.58768e-06
-8.17819e-06 -5.58768e-06 -0.000900752
0.00253964 -0.00113269 -2.04856e-05
-0.00113269 0.00113073 4.12089e-05
-2.04856e-05 4.12089e-05 0.000372723
0.00346506 -0.00113531 -2.6775e-05
-0.00113531 0.00192712 1.94628e-05
-2.6775e-05 1.94628e-05 0.000938059
0.000229041 0.000161911 6.72937e-06
0.000161911 -6.16833e-05 -4.67694e-06
6.72937e-06 -4.67694e-06 -0.000336114
0.00224105 0.000532487 2.85649e-06
0.000532487 0.00122161 5.76804e-06
2.85649e-06 5.76804e-06 0.000796146
0.00269394 0.000774087 2.16269e-07
0.000774087 8.59975e-05 -8.19955e-07
2.16269e-07 -8.19955e-07 1.21666e-05
0.00301204 0.000425723 5.08453e-06
0.000425723 0.0011652 3.74414e-06
5.08453e-06 3.74414e-06 0.000818541
0.00135399 0.000856581 -1.08594e-06
0.000856581 0.000493835 7.46937e-08
-1.08594e-06 7.46937e-08 -0.000141888
0.00347263 0.000933115 -6.78554e-06
0.000933115 0.00146612 1.13116e-05
-6.78554e-06 1.13116e-05 0.00094399
0.00273047 0.000887883 -5.54089e-06
0.000887883 0.000436345 -1.70414e-07
-5.54089e-06 -1.70414e-07 9.76048e-05
0.00305981 0.000905246 -4.0887e-06
0.000905246 0.00050902 7.17055e-06
-4.0887e-06 7.17055e-06 0.000231532
0.00219214 0.0012933 -8.35556e-06
0.0012933 0.000726799 2.65168e-06
-8.35556e-06 2.65168e-06 -4.18554e-05
0.00239754 0.00141938 -1.61477e-05
0.00141938 0.000565668 -4.29543e-07
-1.61477e-05 -4.29543e-07 -0.000164096
-0.000986068 0.000168459 1.17819e-06
0.000168459 -0.000756145 7.79462e-07
1.17819e-06 7.79462e-07 -0.00105993
-0.000193234 0.00054582 4.46248e-06
0.00054582 -1.12335e-05 -1.73175e-06
4.46248e-06 -1.73175e-06 -0.000584585
0.00192583 0.00103707 -3.07886e-07
0.00103707 0.000641935 -7.2835e-07
-3.07886e-07 -7.2835e-07 -1.7185e-05
0.00277406 0.000727284 -7.53812e-06
0.000727284 0.00109272 -4.63396e-07
-7.53812e-06 -4.63396e-07 0.000672861
0.00273712 0.000664353 1.37024e-07
0.000664353 -0.000260312 1.99643e-07
1.37024e-07 1.99643e-07 -7.06843e-05
0.00287632 0.000935026 3.512e-06
0.000935026 0.000216799 -8.773e-07
3.512e-06 -8.773e-07 3.93363e-05
0.00262275 0.0011176 -4.48143e-06
0.0011176 0.000430411 -5.50751e-07
-4.48143e-06 -5.50751e-07 -8.66256e-05
0.00264285 0.00142883 1.56457e-06
0.00142883 0.000784087 5.60411e-07
1.56457e-06 5.60411e-07 6.26091e-08
-0.00156024 -1.85952e-05 -5.50405e-06
-1.85952e-05 -0.00108038 -3.21962e-06
-5.50405e-06 -3.21962e-06 -0.00130183
0.00271314 0.000456925 3.96246e-07
0.000456925 -0.000301066 4.94147e-06
3.96246e-07 4.94147e-06 -6.97374e-05
0.00410992 0.000990249 -7.58941e-06
0.000990249 0.0026687 9.27242e-06
-7.58941e-06 9.27242e-06 0.00201514
0.00180561 0.000927062 3.09877e-06
0.000927062 0.000457845 -3.86064e-06
3.09877e-06 -3.86064e-06 -0.000109371
0.00285289 0.00091602 -2.17494e-05
0.00091602 -3.36534e-05 -1.38152e-05
-2.17494e-05 -1.38152e-05 3.76335e-05
0.00171348 0.00104033 8.90697e-06
0.00104033 -0.000220133 -1.25003e-05
8.90697e-06 -1.25003e-05 -0.000683018
0.00361779 0.00158077 4.23e-06
0.00158077 0.00129592 4.07249e-06
4.23e-06 4.07249e-06 0.000469773
9.97426e-05 0.000169518 2.90017e-06
0.000169518 -3.851e-05 7.49239e-06
2.90017e-06 7.49239e-06 -0.000267295
0.000423437 0.000164514 -2.36048e-06
0.000164514 0.000176771 -2.23377e-07
-2.36048e-06 -2.23377e-07 3.24418e-05
-0.000675263 5.84919e-05 -9.87089e-06
5.84919e-05 -0.000474519 -9.8503e-07
-9.87089e-06 -9.8503e-07 -0.000586409
6.67296e-05 -4.34852e-07 3.05649e-06
-4.34852e-07 -0.000157733 -1.67746e-07
3.05649e-06 -1.67746e-07 -0.000297489
0.000550606 0.000136554 5.2045e-06
0.000136554 0.000289008 -7.32309e-06
5.2045e-06 -7.32309e-06 2.87432e-05
-0.00047783 0.0001534 -5.86441e-06
0.0001534 -0.000335747 5.41454e-06
-5.86441e-06 5.41454e-06 -0.00053607
0.000473578 3.58973e-05 -1.61712e-06
3.58973e-05 0.000112829 -2.65842e-07
-1.61712e-06 -2.65842e-07 -3.78503e-05
0.000322402 8.72765e-08 -6.33477e-08
8.72765e-08 9.68292e-05 -5.46798e-07
-6.33477e-08 -5.46798e-07 -0.000118737
4.31233e-05 0.000106214 -7.83742e-06
0.000106214 -0.000104578 4.25364e-06
-7.83742e-06 4.25364e-06 -0.000200065
0.000677428 0.00017461 2.81398e-06
0.00017461 0.000400032 -3.57149e-06
2.81398e-06 -3.57149e-06 0.000122126
0.000700153 0.000154353 -8.11724e-08
0.000154353 0.000310909 -5.10226e-06
-8.11724e-08 -5.10226e-06 0.000244113
-0.000467827 6.44702e-05 8.39884e-06
6.44702e-05 -0.000398079 -1.02004e-05
8.39884e-06 -1.02004e-05 -0.000535723
0.000732444 0.000109688 -6.63493e-06
0.000109688 0.00043967 8.35906e-06
-6.63493e-06 8.35906e-06 0.000162408
0.000557191 5.16843e-05 -4.80308e-06
5.16843e-05 0.000212261 3.0587e-06
-4.80308e-06 3.0587e-06 5.02297e-06
0.000483234 4.75558e-05 6.86484e-07
4.75558e-05 9.87095e-05 2.2438e-06
6.86484e-07 2.2438e-06 -4.75331e-05
0.000382703 -7.97696e-05 -2.05711e-06
-7.97696e-05 1.32671e-05 3.27264e-06
-2.05711e-06 3.27264e-06 -8.8026e-05
0.000418329 1.91967e-05 4.25318e-07
1.91967e-05 2.83893e-05 -4.06736e-07
4.25318e-07 -4.06736e-07 -6.67098e-05
0.00133251 3.00845e-05 3.88366e-06
3.00845e-05 0.000603925 4.07348e-06
3.88366e-06 4.07348e-06 0.00057555
0.000420334 1.71869e-05 2.62965e-06
1.71869e-05 1.73323e-05 -2.4967e-06
2.62965e-06 -2.4967e-06 -6.89974e-05
0.0013846 2.15737e-05 -1.26013e-05
2.15737e-05 0.000636471 -2.17401e-06
-1.26013e-05 -2.17401e-06 0.000606858
0.000800475 3.64703e-06 3.79608e-05
3.64703e-06 0.000242309 1.00992e-05
3.79608e-05 1.00992e-05 0.000243927
0.00133414 -2.08818e-05 -1.14725e-05
-2.08818e-05 0.000596039 -8.49928e-06
-1.14725e-05 -8.49928e-06 0.000569469
0.000745351 -1.17895e-05 1.63734e-05
-1.17895e-05 0.000197591 4.20325e-06
1.63734e-05 4.20325e-06 0.000197084
0.000793743 -2.92793e-05 3.77633e-06
-2.92793e-05 0.000224996 -3.868e-06
3.77633e-06 -3.868e-06 0.000219726
0.000470628 -2.65571e-05 3.87109e-07
-2.65571e-05 4.48072e-05 -5.99586e-06
3.87109e-07 -5.99586e-06 -4.39973e-05
0.000190309 3.20493e-05 1.2435e-07
3.20493e-05 -0.000145225 -8.95896e-06
1.2435e-07 -8.95896e-06 -0.00019243
0.000229433 3.20381e-05 1.57394e-06
3.20381e-05 -0.000124993 9.11377e-07
1.57394e-06 9.11377e-07 -0.000180849
0.00351402 0.00014617 -3.02473e-06
0.00014617 0.00205063 -9.17783e-06
-3.02473e-06 -9.17783e-06 0.00203657
-8.36723e-05 -2.00341e-06 -2.93363e-06
-2.00341e-06 -0.000330614 9.82469e-06
-2.93363e-06 9.82469e-06 -0.000404205
0.00407024 0.000207393 -1.51842e-05
0.000207393 0.00244685 -1.92721e-06
-1.51842e-05 -1.92721e-06 0.00241424
0.00429501 0.000143583 -6.28721e-05
0.000143583 0.00258205 9.04527e-06
-6.28721e-05 9.04527e-06 0.00256445
0.00253502 0.000479677 1.66812e-06
0.000479677 -8.19198e-05 4.48859e-07
1.66812e-06 4.48859e-07 -7.65293e-06
0.00243082 0.000252265 -1.10171e-07
0.000252265 -8.27951e-05 3.2845e-07
-1.10171e-07 3.2845e-07 1.35585e-05
0.00230032 9.66587e-05 1.06628e-06
9.66587e-05 -0.000125995 5.91852e-07
1.06628e-06 5.91852e-07 -2.34238e-05
0.00223076 -1.60581e-05 -5.50533e-07
-1.60581e-05 -3.67158e-05 -6.59957e-08
-5.50533e-07 -6.59957e-08 1.04407e-05
0.00233433 -1.29443e-05 -6.03515e-07
-1.29443e-05 -0.000109376 -2.31537e-08
-6.03515e-07 -2.31537e-08 -9.27837e-06
0.00244438 0.000146066 9.12783e-07
0.000146066 -0.000156655 2.61682e-07
9.12783e-07 2.61682e-07 9.17143e-06
0.00259473 0.000363857 -6.82691e-07
0.000363857 -0.000141505 -1.70119e-07
-6.82691e-07 -1.70119e-07 1.98358e-06
0.00240725 -1.38085e-05 1.8123e-06
-1.38085e-05 -0.000204913 -3.05218e-07
1.8123e-06 -3.05218e-07 -2.38356e-05
0.00272529 0.00018052 2.68131e-06
0.00018052 -0.000174048 -4.78293e-07
2.68131e-06 -4.78293e-07 4.26354e-05
0.00247011 0.000180912 -9.41406e-07
0.000180912 -0.000452669 1.03346e-05
-9.41406e-07 1.03346e-05 -0.000196082
0.00236198 -0.000123593 5.78559e-07
-0.000123593 -7.27824e-05 -6.56652e-07
5.78559e-07 -6.56652e-07 9.91302e-06
0.00246993 -0.000347648 -2.51035e-06
-0.000347648 -0.000154999 -4.98599e-07
-2.51035e-06 -4.98599e-07 -2.17856e-05
0.00256914 -0.000577541 1.55089e-06
-0.000577541 -4.42881e-05 -2.54777e-07
1.55089e-06 -2.54777e-07 8.48811e-06
0.00217696 -0.00116221 -3.47448e-06
-0.00116221 0.000760404 -1.75604e-06
-3.47448e-06 -1.75604e-06 1.53277e-05
0.00205108 -0.00123543 2.68295e-05
-0.00123543 0.000474075 -5.05268e-06
2.68295e-05 -5.05268e-06 -0.000240566
0.00278937 -0.00114513 2.67439e-05
-0.00114513 0.000630442 -2.88148e-06
2.67439e-05 -2.88148e-06 0.000109243
0.00260761 -0.000816489 1.99052e-06
-0.000816489 1.59516e-05 -2.68667e-06
1.99052e-06 -2.68667e-06 -2.73716e-05
0.00267277 -0.00101936 1.90766e-06
-0.00101936 0.000310446 -2.33809e-06
1.90766e-06 -2.33809e-06 4.04357e-05
0.00217666 -0.00101178 -6.25695e-07
-0.00101178 0.001012 -1.91968e-05
-6.25695e-07 -1.91968e-05 0.000261375
0.000833532 -0.000633847 6.37232e-06
-0.000633847 0.000413807 -1.50343e-05
6.37232e-06 -1.50343e-05 -0.000393836
0.00288552 -0.000407609 2.04493e-06
-0.000407609 0.00155507 5.24097e-06
2.04493e-06 5.24097e-06 0.00117188
0.000524026 -6.39629e-05 -3.69615e-06
-6.39629e-05 0.000120857 8.15763e-06
-3.69615e-06 8.15763e-06 -7.81122e-06
-0.000510778 -2.87299e-05 7.97384e-06
-2.87299e-05 -0.000427298 -5.37988e-06
7.97384e-06 -5.37988e-06 -0.000766341
-0.00155563 -6.59247e-05 -4.71172e-08
-6.59247e-05 -0.00134207 -1.19475e-05
-4.71172e-08 -1.19475e-05 -0.0016619
0.00244554 -0.000175448 8.72539e-08
-0.000175448 -0.000173785 -6.25711e-07
8.72539e-08 -6.25711e-07 -2.51175e-06
0.000537492 -4.0904e-05 1.57813e-06
-4.0904e-05 0.000104294 3.11512e-07
1.57813e-06 3.11512e-07 4.01214e-07
0.000435005 -0.000108806 -3.31826e-06
-0.000108806 9.38711e-05 -4.70322e-07
-3.31826e-06 -4.70322e-07 -5.29244e-05
0.00264756 -0.00048189 -6.35571e-08
-0.00048189 -0.000185488 2.16815e-07
-6.35571e-08 2.16815e-07 1.44024e-06
0.00264851 -0.000736033 -1.65944e-06
-0.000736033 -6.25292e-05 2.88369e-07
-1.65944e-06 2.88369e-07 -4.39535e-06
0.0023854 -0.00127129 1.1131e-06
-0.00127129 0.000926103 1.56758e-06
1.1131e-06 1.56758e-06 0.00016087
0.00306974 -0.00151788 1.0784e-05
-0.00151788 0.00100098 -2.13066e-06
1.0784e-05 -2.13066e-06 0.000208728
0.00269012 -0.001243 4.04794e-06
-0.001243 0.000473824 -8.15585e-07
4.04794e-06 -8.15585e-07 4.55796e-07
0.00274632 -0.00103069 2.36584e-06
-0.00103069 0.000138153 -1.30548e-06
2.36584e-06 -1.30548e-06 -4.32071e-06
0.00025376 -2.84379e-05 -3.13546e-06
-2.84379e-05 5.10571e-05 -1.93766e-06
-3.13546e-06 -1.93766e-06 -0.000198007
0.000838505 -0.0002171 -1.0799e-06
-0.0002171 0.000497554 7.63735e-07
-1.0799e-06 7.63735e-07 0.000117107
0.00147833 -0.000938368 1.51345e-05
-0.000938368 0.000576845 7.64867e-06
1.51345e-05 7.64867e-06 -0.000149034
0.000896128 -0.000736074 1.3744e-05
-0.000736074 0.000473369 -1.65119e-05
1.3744e-05 -1.65119e-05 -0.000489739
0.000743791 -0.000352267 1.69719e-07
-0.000352267 0.000286137 1.17116e-06
1.69719e-07 1.17116e-06 -0.000307003
0.00103096 -0.000165152 6.63162e-06
-0.000165152 0.000450511 -1.16877e-06
6.63162e-06 -1.16877e-06 0.000171054
0.00250412 -0.000204534 2.18602e-06
-0.000204534 -0.000400022 -2.75956e-06
2.18602e-06 -2.75956e-06 -0.000124317
0.00284123 -0.000648084 -2.38656e-06
-0.000648084 -0.000179712 3.97341e-06
-2.38656e-06 3.97341e-06 8.35801e-05
0.00307302 -0.00108231 -1.91295e-06
-0.00108231 0.000128145 2.06946e-06
-1.91295e-06 2.06946e-06 8.25706e-05
0.00257407 -0.00122549 4.21609e-07
-0.00122549 0.000173063 -9.75066e-06
4.21609e-07 -9.75066e-06 -0.000141908
0.000808461 -0.00113329 1.20309e-06
-0.00113329 6.68994e-05 -5.81399e-06
1.20309e-06 -5.81399e-06 -0.000685661
0.00366603 -0.00173271 3.82714e-06
-0.00173271 0.00117505 -6.29186e-06
3.82714e-06 -6.29186e-06 0.000369816
0.000384468 5.3049e-05 -2.45699e-06
5.3049e-05 4.24458e-05 -7.75108e-06
-2.45699e-06 -7.75108e-06 -9.82561e-05
-0.000521726 -6.85984e-05 4.96849e-06
-6.85984e-05 -0.000516614 -3.38264e-06
4.96849e-06 -3.38264e-06 -0.000673503
0.00165486 -0.000246163 -7.14706e-06
-0.000246163 0.000882002 1.22567e-05
-7.14706e-06 1.22567e-05 0.000693754
0.000358249 -6.00176e-05 -5.12838e-06
-6.00176e-05 0.000130881 1.64146e-05
-5.12838e-06 1.64146e-05 -0.0001649
0.00126078 -0.000312968 -1.13688e-05
-0.000312968 0.000746852 2.55367e-05
-1.13688e-05 2.55367e-05 0.000374946
-0.000763258 -0.000100959 -1.03252e-05
-0.000100959 -0.000689463 -2.31049e-05
-1.03252e-05 -2.31049e-05 -0.000930574
-0.00167339 -0.000260425 -2.79663e-05
-0.000260425 -0.00067975 3.64862e-06
-2.79663e-05 3.64862e-06 -0.00177321
0.00111748 -0.00125026 -4.68002e-05
-0.00125026 0.000109269 2.33857e-05
-4.68002e-05 2.33857e-05 -0.000473978
-0.000383093 0.000341615 1.66055e-06
0.000341615 -0.00027133 8.20116e-07
1.66055e-06 8.20116e-07 -0.0006555
0.00374423 0.0007083 -7.0447e-06
0.0007083 0.00237069 -2.45063e-06
-7.0447e-06 -2.45063e-06 0.0018791
0.0026419 0.000626215 -2.58091e-06
0.000626215 -0.000349036 -4.13749e-06
-2.58091e-06 -4.13749e-06 -0.000135185
0.00305027 0.000944402 -5.19953e-06
0.000944402 0.000324935 -1.04551e-07
-5.19953e-06 -1.04551e-07 0.000126614
0.00380525 0.000800777 -7.86686e-06
0.000800777 0.00176217 3.98293e-06
-7.86686e-06 3.98293e-06 0.0013323
0.00171548 0.00104275 -1.66193e-05
0.00104275 0.000456128 -1.48409e-06
-1.66193e-05 -1.48409e-06 -0.000217571
0.00241746 0.0010682 -6.56842e-06
0.0010682 0.000365793 3.52843e-06
-6.56842e-06 3.52843e-06 -0.000133084
0.00286258 0.00142237 -1.12426e-05
0.00142237 0.000901537 -1.02875e-06
-1.12426e-05 -1.02875e-06 0.00013321
0.000353553 0.000291997 3.41546e-06
0.000291997 0.000220044 6.83675e-07
3.41546e-06 6.83675e-07 -9.15366e-05
0.00266463 0.000446601 -3.41619e-06
0.000446601 -0.000336383 -4.08134e-06
-3.41619e-06 -4.08134e-06 -8.57194e-05
0.00214265 0.000689079 3.0685e-06
0.000689079 0.00145001 6.37335e-06
3.0685e-06 6.37335e-06 0.000896234
0.00175769 0.000899835 4.17293e-06
0.000899835 0.000494185 2.19462e-06
4.17293e-06 2.19462e-06 -7.13413e-05
0.00297571 0.000883447 3.31799e-07
0.000883447 9.02935e-05 7.27974e-07
3.31799e-07 7.27974e-07 0.000157739
0.0023201 0.00113305 -2.90977e-06
0.00113305 0.000142456 -6.46681e-06
-2.90977e-06 -6.46681e-06 -0.000336035
0.00313139 0.00147256 -2.28895e-06
0.00147256 0.0010356 -2.88757e-07
-2.28895e-06 -2.88757e-07 0.000244445
0.00166867 0.000518758 -8.07691e-06
0.000518758 0.00118158 -2.29514e-06
-8.07691e-06 -2.29514e-06 0.000747158
0.00449159 0.000915815 -0.000131072
0.000915815 0.000575712 -4.89981e-05
-0.000131072 -4.89981e-05 0.00102189
0.00188515 0.00078294 -4.87677e-06
0.00078294 0.0011233 1.25528e-05
-4.87677e-06 1.25528e-05 0.000537666
0.00141826 0.000966289 -2.43222e-06
0.000966289 0.00030523 -1.04179e-05
-2.43222e-06 -1.04179e-05 -0.000351632
0.00365884 0.0012688 -4.88178e-05
0.0012688 0.000746934 -2.59732e-05
-4.88178e-05 -2.59732e-05 0.000472097
0.00144551 0.00120849 -3.14903e-05
0.00120849 8.83987e-05 -5.4691e-06
-3.14903e-05 -5.4691e-06 -0.000603241
0.00131441 0.00192981 -4.8425e-07
0.00192981 -0.00315028 -7.49612e-05
-4.8425e-07 -7.49612e-05 -0.00141632
0.000779646 0.000251578 1.08244e-05
0.000251578 0.000455824 1.18686e-05
1.08244e-05 1.18686e-05 0.000286769
0.000161146 0.000158821 -9.35215e-07
0.000158821 9.14958e-05 -8.99052e-07
-9.35215e-07 -8.99052e-07 -5.16063e-05
-0.000716315 7.24119e-05 -1.61862e-06
7.24119e-05 -0.000456685 1.15655e-06
-1.61862e-06 1.15655e-06 -0.00059301
0.000329915 -6.25637e-05 3.10964e-06
-6.25637e-05 2.12679e-05 -1.67513e-06
3.10964e-06 -1.67513e-06 -0.000131602
-0.000402556 1.37431e-07 3.76996e-06
1.37431e-07 -0.000369553 -4.07697e-06
3.76996e-06 -4.07697e-06 -0.000585057
0.00189635 0.000344841 3.85242e-07
0.000344841 0.00120879 -9.20833e-06
3.85242e-07 -9.20833e-06 0.00090665
-0.001432 3.1502e-05 -6.59914e-06
3.1502e-05 -0.000989002 1.50331e-05
-6.59914e-06 1.50331e-05 -0.00107238
0.000465221 -2.36465e-06 -3.52336e-07
-2.36465e-06 0.000103728 -3.64814e-07
-3.52336e-07 -3.64814e-07 -5.32848e-05
0.000365748 9.801e-05 4.0594e-07
9.801e-05 5.1619e-05 -4.59896e-07
4.0594e-07 -4.59896e-07 -0.000124793
-0.000434504 9.22646e-05 1.46679e-06
9.22646e-05 -0.000366083 3.22551e-06
1.46679e-06 3.22551e-06 -0.000413302
8.10695e-05 9.10814e-05 8.58798e-07
9.10814e-05 -1.28865e-05 -2.75982e-07
8.58798e-07 -2.75982e-07 -0.000266258
0.000617137 0.000108384 -3.82033e-08
0.000108384 0.000277621 -4.81787e-07
-3.82033e-08 -4.81787e-07 0.000129272
4.75482e-05 0.000101453 1.34455e-05
0.000101453 1.31413e-05 -1.18679e-05
1.34455e-05 -1.18679e-05 -9.72725e-05
0.000854024 0.000172049 -7.12043e-06
0.000172049 0.000473552 9.30868e-06
-7.12043e-06 9.30868e-06 0.000250581
0.000912856 0.000141019 -4.30316e-06
0.000141019 0.000484784 3.67309e-06
-4.30316e-06 3.67309e-06 0.000254775
0.000721216 0.000147521 -7.0449e-06
0.000147521 0.000296451 -1.706e-06
-7.0449e-06 -1.706e-06 0.000102707
0.000119655 5.04866e-06 -2.50594e-06
5.04866e-06 -0.000148047 9.37039e-07
-2.50594e-06 9.37039e-07 -0.000291414
0.00170367 -0.000198208 5.38582e-06
-0.000198208 0.00108269 -9.85911e-06
5.38582e-06 -9.85911e-06 0.000760555
1.80381e-05 -8.14582e-05 -3.23511e-06
-8.14582e-05 -0.000195769 3.63559e-06
-3.23511e-06 3.63559e-06 -0.00035691
0.000292949 4.29894e-06 -2.45989e-06
4.29894e-06 -3.6432e-05 2.86872e-06
-2.45989e-06 2.86872e-06 -0.000140853
0.000397886 5.1624e-05 2.25362e-06
5.1624e-05 2.98379e-05 -1.15894e-07
2.25362e-06 -1.15894e-07 -7.50153e-05
0.000293736 2.04114e-05 -3.18358e-06
2.04114e-05 -6.92519e-05 5.43367e-06
-3.18358e-06 5.43367e-06 -0.000103936
0.000294664 -1.57703e-06 -6.99521e-07
-1.57703e-06 -4.01758e-05 -3.75793e-06
-6.99521e-07 -3.75793e-06 -0.000143418
0.000828188 1.81678e-05 -5.09932e-06
1.81678e-05 0.000276889 -1.56608e-06
-5.09932e-06 -1.56608e-06 0.000245506
0.00273127 8.78223e-06 3.43119e-05
8.78223e-06 0.00150979 6.61547e-06
3.43119e-05 6.61547e-06 0.00152115
0.00141736 6.49116e-05 -2.11017e-05
6.49116e-05 0.00066288 -8.4835e-06
-2.11017e-05 -8.4835e-06 0.000631463
0.000765949 -2.66401e-06 1.58277e-05
-2.66401e-06 0.00021508 4.11943e-06
1.58277e-05 4.11943e-06 0.000215366
0.000809807 -1.83789e-05 2.99187e-06
-1.83789e-05 0.000236243 -3.50771e-06
2.99187e-06 -3.50771e-06 0.00023437
0.000293613 1.06804e-05 -2.43179e-06
1.06804e-05 -4.91803e-05 -6.58224e-06
-2.43179e-06 -6.58224e-06 -0.000136791
0.000581621 -5.77287e-05 3.86851e-07
-5.77287e-05 0.000131024 -5.00283e-07
3.86851e-07 -5.00283e-07 3.23754e-05
0.000319629 2.87648e-05 -5.58086e-07
2.87648e-05 -7.00254e-05 -6.95441e-06
-5.58086e-07 -6.95441e-06 -0.000106546
0.000899842 4.75091e-05 -8.50914e-09
4.75091e-05 0.000316773 1.66348e-07
-8.50914e-09 1.66348e-07 0.000272656
0.00299859 0.00010941 -6.07289e-06
0.00010941 0.0017027 -8.01923e-06
-6.07289e-06 -8.01923e-06 0.00169795
0.000561617 4.7607e-05 1.8282e-06
4.7607e-05 0.000102861 1.06702e-05
1.8282e-06 1.06702e-05 4.30972e-05
0.00303455 0.000142813 -5.23913e-06
0.000142813 0.00173929 -5.20483e-07
-5.23913e-06 -5.20483e-07 0.0017255
0.00441226 0.000156734 -2.38186e-05
0.000156734 0.00265391 9.16431e-06
-2.38186e-05 9.16431e-06 0.00263059
0.00251363 0.000377722 -5.61273e-07
0.000377722 -0.000177053 -5.78447e-07
-5.61273e-07 -5.78447e-07 -3.35056e-05
0.00240428 0.000144813 -6.45208e-07
0.000144813 -0.000184513 1.43694e-07
-6.45208e-07 1.43694e-07 -1.62304e-05
0.00233793 -9.51013e-06 1.15684e-06
-9.51013e-06 -0.000111458 1.18307e-07
1.15684e-06 1.18307e-07 -7.60686e-06
0.00239815 -5.08971e-06 -6.02228e-09
-5.08971e-06 -0.000211316 9.62158e-08
-6.02228e-09 9.62158e-08 -2.87324e-05
0.00271504 0.000194756 1.36198e-06
0.000194756 -0.000162705 1.04697e-08
1.36198e-06 1.04697e-08 5.25962e-05
0.00264605 0.000153292 4.39096e-06
0.000153292 -0.000342333 -1.99407e-06
4.39096e-06 -1.99407e-06 -9.47523e-05
0.00283103 4.52589e-05 4.3241e-06
4.52589e-05 -0.000235754 2.54245e-06
4.3241e-06 2.54245e-06 4.6999e-05
0.00655021 0.00210755 3.62109e-05
0.00210755 -0.00132833 2.63491e-05
3.62109e-05 2.63491e-05 0.000728018
0.00278464 0.000181725 -6.49899e-05
0.000181725 -0.000296172 1.64478e-05
-6.49899e-05 1.64478e-05 0.000169381
0.00036645 0.000120302 -4.99916e-06
0.000120302 3.97965e-05 -4.1138e-06
-4.99916e-06 -4.1138e-06 -9.91344e-05
0.00245194 -0.000176074 -1.34231e-06
-0.000176074 -0.000178911 2.61926e-07
-1.34231e-06 2.61926e-07 -2.70447e-06
0.00258806 -0.00046982 -2.3139e-06
-0.00046982 -0.0002054 -5.44762e-07
-2.3139e-06 -5.44762e-07 -3.01239e-05
0.00265941 -0.000720071 2.41856e-06
-0.000720071 -3.93472e-05 -2.79964e-06
2.41856e-06 -2.79964e-06 2.54063e-05
0.00198028 -0.00123001 -9.49869e-06
-0.00123001 0.000691232 1.08936e-06
-9.49869e-06 1.08936e-06 -6.4979e-05
0.00275948 -0.00144953 2.61391e-05
-0.00144953 0.000821954 1.74146e-06
2.61391e-05 1.74146e-06 5.98084e-05
0.00216309 -0.00115135 -8.63591e-06
-0.00115135 0.00020251 3.44635e-07
-8.63591e-06 3.44635e-07 -0.000246389
0.00266797 -0.00102908 4.35905e-06
-0.00102908 8.4989e-05 -6.85812e-07
4.35905e-06 -6.85812e-07 -5.18403e-05
0.00220209 -0.000996929 3.3687e-05
-0.000996929 0.000950064 -5.29206e-05
3.3687e-05 -5.29206e-05 0.000260579
0.00212762 -0.000939486 3.48478e-05
-0.000939486 0.00112032 -4.24365e-05
3.48478e-05 -4.24365e-05 0.000197401
0.000574991 -0.000392889 2.11345e-05
-0.000392889 0.000270351 1.08596e-05
2.11345e-05 1.08596e-05 -0.000371364
0.000495823 -1.96324e-05 -1.5957e-07
-1.96324e-05 7.78704e-05 6.71475e-06
-1.5957e-07 6.71475e-06 -3.1571e-05
0.00124518 -0.000195893 -6.13797e-07
-0.000195893 0.000597868 4.65587e-06
-6.13797e-07 4.65587e-06 0.000300523
0.00138932 -0.000178643 8.40313e-06
-0.000178643 0.000843856 -2.36415e-06
8.40313e-06 -2.36415e-06 0.0005555
0.000251957 -0.000136636 6.08435e-06
-0.000136636 8.5535e-05 -1.47599e-05
6.08435e-06 -1.47599e-05 -0.000272806
0.000156313 -8.44514e-05 -6.84051e-06
-8.44514e-05 -8.48193e-05 6.32388e-06
-6.84051e-06 6.32388e-06 -0.000233198
0.00262233 -0.000228238 -1.44347e-06
-0.000228238 -0.00032806 -1.6438e-06
-1.44347e-06 -1.6438e-06 -4.7974e-05
0.000347815 4.31189e-05 1.06239e-06
4.31189e-05 3.30233e-05 -2.40226e-06
1.06239e-06 -2.40226e-06 -0.000116068
0.000699239 -0.000169887 2.23495e-06
-0.000169887 0.000351934 2.67705e-06
2.23495e-06 2.67705e-06 0.000138143
0.000733776 -0.000136207 9.83828e-06
-0.000136207 0.000278895 7.38724e-07
9.83828e-06 7.38724e-07 0.000118884
0.00269651 -0.000650824 2.46633e-06
-0.000650824 -0.000282899 -6.63475e-07
2.46633e-06 -6.63475e-07 -3.41618e-05
0.00295957 -0.0010513 -9.62247e-07
-0.0010513 8.36169e-05 -5.37009e-07
-9.62247e-07 -5.37009e-07 5.10245e-05
0.00170013 -0.00115062 -1.76538e-07
-0.00115062 0.000537055 7.51913e-07
-1.76538e-07 7.51913e-07 -0.00014734
0.00250458 -0.0015513 1.14523e-05
-0.0015513 0.00052904 1.5712e-07
1.14523e-05 1.5712e-07 -0.000217906
0.00286144 -0.0012735 -1.99728e-07
-0.0012735 0.00034616 3.54181e-07
-1.99728e-07 3.54181e-07 7.06973e-06
0.00020773 -7.23689e-05 -1.26767e-06
-7.23689e-05 2.50181e-05 -1.28934e-06
-1.26767e-06 -1.28934e-06 -0.000261202
0.00141415 -0.000306273 6.82782e-06
-0.000306273 0.000866939 -4.23622e-07
6.82782e-06 -4.23622e-07 0.000490627
0.00325347 -0.0015571 -3.69221e-06
-0.0015571 0.00136076 8.53976e-06
-3.69221e-06 8.53976e-06 0.000582044
0.00202598 -0.000607388 -1.90777e-06
-0.000607388 0.00121151 9.16819e-06
-1.90777e-06 9.16819e-06 0.000377554
0.00196445 -0.000211469 1.33853e-05
-0.000211469 0.00101152 1.06618e-05
1.33853e-05 1.06618e-05 0.000731882
0.00293922 -0.000450325 -2.14994e-05
-0.000450325 -0.000256744 3.60126e-06
-2.14994e-05 3.60126e-06 9.05067e-05
0.00255589 -0.00076204 -2.4592e-05
-0.00076204 -0.000370407 1.17107e-05
-2.4592e-05 1.17107e-05 -2.30598e-05
0.00299032 -0.00127951 -7.81787e-06
-0.00127951 0.000268911 -3.73249e-06
-7.81787e-06 -3.73249e-06 5.02619e-06
0.00374022 -0.00159732 1.1058e-05
-0.00159732 0.00110203 -1.76021e-06
1.1058e-05 -1.76021e-06 0.000515562
0.000999436 -0.00127911 -2.61669e-06
-0.00127911 -3.19874e-05 1.66861e-05
-2.61669e-06 1.66861e-05 -0.000733819
0.000237319 -2.87002e-05 1.94044e-07
-2.87002e-05 -4.25454e-05 1.03015e-06
1.94044e-07 1.03015e-06 -0.000180192
-0.00037772 -5.2479e-05 -5.01773e-06
-5.2479e-05 -0.000471357 1.67379e-05
-5.01773e-06 1.67379e-05 -0.000658661
0.000122639 -0.000234143 -6.46326e-06
-0.000234143 -5.40378e-05 1.97431e-06
-6.46326e-06 1.97431e-06 -0.000243455
0.0018551 -0.000413409 -4.84008e-05
-0.000413409 0.00110215 4.61426e-05
-4.84008e-05 4.61426e-05 0.000743019
0.00149593 -0.000283835 1.56688e-06
-0.000283835 0.000861405 2.264e-05
1.56688e-06 2.264e-05 0.000568225
-0.000796504 -0.000102778 -1.17081e-05
-0.000102778 -0.000175146 -6.92816e-07
-1.17081e-05 -6.92816e-07 -0.000840091
0.00232125 -0.00166447 -1.40021e-05
-0.00166447 0.00117767 -1.93716e-05
-1.40021e-05 -1.93716e-05 0.000217135
0.00293849 0.000684703 6.67294e-06
0.000684703 0.00187434 1.51462e-06
6.67294e-06 1.51462e-06 0.00149027
-0.000968405 0.000250976 -2.73058e-06
0.000250976 -0.000463387 -1.0655e-06
-2.73058e-06 -1.0655e-06 -0.00089879
0.00261963 0.00043056 1.43105e-05
0.00043056 -0.000376105 1.81839e-06
1.43105e-05 1.81839e-06 -9.59864e-05
0.00310603 0.000852182 2.08171e-05
0.000852182 0.000208897 1.26864e-05
2.08171e-05 1.26864e-05 0.000278553
0.00291436 0.0012229 4.01345e-06
0.0012229 0.000496626 5.10037e-06
4.01345e-06 5.10037e-06 4.34859e-06
0.0014834 0.00084213 -5.63923e-06
0.00084213 0.000396691 2.43019e-06
-5.63923e-06 2.43019e-06 -0.000158303
0.00266311 0.00137176 3.657e-06
0.00137176 0.000788315 6.53053e-06
3.657e-06 6.53053e-06 3.02642e-05
0.0026249 0.00056185 -7.08563e-07
0.00056185 0.00175887 4.14365e-07
-7.08563e-07 4.14365e-07 0.00135649
0.00323909 0.000723153 1.83535e-05
0.000723153 -0.000127089 6.07891e-06
1.83535e-05 6.07891e-06 0.000409136
0.00129545 0.000647328 -6.48807e-06
0.000647328 0.000696024 5.12334e-06
-6.48807e-06 5.12334e-06 0.000191861
0.00207031 0.00108293 3.32274e-06
0.00108293 0.000717079 -2.02803e-06
3.32274e-06 -2.02803e-06 1.25985e-05
0.00306489 0.00117481 -2.99924e-06
0.00117481 0.00046344 -4.06957e-06
-2.99924e-06 -4.06957e-06 0.000240082
0.00251219 0.00137501 -5.40916e-06
0.00137501 0.000673677 8.54087e-06
-5.40916e-06 8.54087e-06 -6.47169e-05
0.0031046 0.00235823 6.04765e-05
0.00235823 -0.00248836 8.60119e-06
6.04765e-05 8.60119e-06 -0.00092802
0.000451453 0.000398172 4.99482e-06
0.000398172 0.000513648 1.188e-06
4.99482e-06 1.188e-06 1.41681e-05
0.00467868 0.0015221 -0.000138464
0.0015221 0.000762259 -5.84307e-05
-0.000138464 -5.84307e-05 0.000862064
6.5499e-05 0.000632295 -1.9194e-05
0.000632295 -0.000310713 8.09527e-06
-1.9194e-05 8.09527e-06 -0.00083049
0.000921435 0.00104123 -4.86332e-06
0.00104123 3.35578e-06 -2.31399e-05
-4.86332e-06 -2.31399e-05 -0.000680753
0.00317915 0.00159719 -5.53931e-05
0.00159719 0.000744247 -2.96212e-05
-5.53931e-05 -2.96212e-05 0.000199801
0.0158269 0.001115 -0.000923008
0.001115 -0.00036646 -8.1967e-05
-0.000923008 -8.1967e-05 0.00120812
0.00268743 0.00359201 -0.000179104
0.00359201 -0.00528788 -0.000168852
-0.000179104 -0.000168852 -0.000717942
0.000545152 0.00270017 3.14946e-05
0.00270017 -0.00171644 -1.03198e-05
3.14946e-05 -1.03198e-05 -0.00154694
0.00560488 -0.00670767 0.00373061
-0.00670767 0.00434202 -0.000106458
0.00373061 -0.000106458 -0.00368346
0.0353332 -0.0180158 -0.000167207
-0.0180158 0.0237059 -5.65143e-06
-0.000167207 -5.65143e-06 0.00951143
0.00205138 0.000298805 1.15933e-05
0.000298805 0.00129957 6.80532e-06
1.15933e-05 6.80532e-06 0.00112345
0.000587209 0.00014596 1.04813e-06
0.00014596 0.000406477 2.65931e-06
1.04813e-06 2.65931e-06 0.000236063
6.72339e-06 0.000187873 1.39427e-05
0.000187873 9.70854e-05 -1.57283e-06
1.39427e-05 -1.57283e-06 -0.000122898
0.000528395 -5.48615e-05 1.67923e-06
-5.48615e-05 0.00015552 -1.20644e-06
1.67923e-06 -1.20644e-06 -9.18602e-06
0.000547269 8.22724e-05 5.43233e-06
8.22724e-05 0.000192937 -3.64087e-06
5.43233e-06 -3.64087e-06 1.1421e-05
0.000406656 -3.40421e-05 3.55902e-06
-3.40421e-05 0.000190608 -8.59762e-06
3.55902e-06 -8.59762e-06 -5.94542e-05
0.000777763 0.000125995 6.50203e-06
0.000125995 0.000360172 5.39865e-06
6.50203e-06 5.39865e-06 0.000208786
0.000111645 0.000109225 6.32708e-06
0.000109225 1.3556e-06 1.09267e-05
6.32708e-06 1.09267e-05 -3.42351e-05
0.000637819 0.000153094 -3.17034e-06
0.000153094 0.00034957 1.8712e-06
-3.17034e-06 1.8712e-06 0.000100023
0.000359066 -2.64787e-06 5.63263e-07
-2.64787e-06 1.84507e-05 7.5168e-07
5.63263e-07 7.5168e-07 -0.00013507
0.00075429 9.02064e-05 -1.18697e-06
9.02064e-05 0.000326326 5.53734e-08
-1.18697e-06 5.53734e-08 0.000131187
0.000106678 0.000106161 -2.32715e-06
0.000106161 2.25467e-05 -5.68414e-06
-2.32715e-06 -5.68414e-06 -7.73528e-05
0.000328973 0.000103597 1.61437e-06
0.000103597 0.000133703 5.21281e-07
1.61437e-06 5.21281e-07 -7.0627e-05
0.00129182 0.000181525 -2.75611e-06
0.000181525 0.00080024 1.12272e-05
-2.75611e-06 1.12272e-05 0.000543255
9.03545e-06 7.31513e-05 2.5203e-06
7.31513e-05 5.44106e-05 -2.36572e-06
2.5203e-06 -2.36572e-06 -0.000178581
0.000961424 0.000119625 -3.62517e-07
0.000119625 0.000533672 7.31441e-07
-3.62517e-07 7.31441e-07 0.000306815
0.000265505 2.03494e-05 -3.71219e-06
2.03494e-05 -2.77165e-05 -2.29709e-06
-3.71219e-06 -2.29709e-06 -0.000209401
-1.22798e-06 -4.25845e-05 -1.65928e-06
-4.25845e-05 -0.000217719 2.33094e-08
-1.65928e-06 2.33094e-08 -0.000371771
-0.000326688 -1.27249e-05 1.0044e-06
-1.27249e-05 -0.000376521 -3.50149e-06
1.0044e-06 -3.50149e-06 -0.000562915
0.00144987 -0.000147695 1.11359e-05
-0.000147695 0.000832471 -1.13428e-06
1.11359e-05 -1.13428e-06 0.000621044
0.00116953 -0.000109859 -1.23883e-06
-0.000109859 0.000712276 -4.98172e-06
-1.23883e-06 -4.98172e-06 0.000450746
0.00111902 -0.00020377 3.30813e-06
-0.00020377 0.000633447 6.99914e-07
3.30813e-06 6.99914e-07 0.000368699
0.000369223 -0.000141613 -4.10831e-06
-0.000141613 6.49379e-05 -1.41433e-06
-4.10831e-06 -1.41433e-06 -0.000113589
-0.000300543 -5.02768e-05 -7.63748e-07
-5.02768e-05 -0.000391442 1.88662e-06
-7.63748e-07 1.88662e-06 -0.000560214
0.000477971 -8.55577e-05 -2.67376e-06
-8.55577e-05 6.97312e-05 2.83579e-06
-2.67376e-06 2.83579e-06 -2.62876e-05
0.000470254 -5.49033e-05 2.81158e-06
-5.49033e-05 7.6497e-05 5.61444e-08
2.81158e-06 5.61444e-08 -2.91904e-05
0.00032603 4.86622e-06 4.77328e-06
4.86622e-06 -4.46749e-05 7.3153e-06
4.77328e-06 7.3153e-06 -8.01617e-05
0.000461573 7.54829e-05 -1.67668e-06
7.54829e-05 6.19376e-05 -3.90492e-06
-1.67668e-06 -3.90492e-06 -3.70533e-05
0.00031642 3.01337e-05 5.84704e-07
3.01337e-05 -5.48238e-05 1.68907e-07
5.84704e-07 1.68907e-07 -8.92136e-05
0.00268242 1.59674e-05 2.06272e-05
1.59674e-05 0.00147898 6.22191e-06
2.06272e-05 6.22191e-06 0.00148928
0.000353096 7.56253e-05 -6.02104e-06
7.56253e-05 -2.72288e-05 -8.84855e-06
-6.02104e-06 -8.84855e-06 -6.70734e-05
0.00170712 1.59313e-06 -1.25344e-05
1.59313e-06 0.000835885 -2.01695e-08
-1.25344e-05 -2.01695e-08 0.000840849
0.000779226 -7.96416e-06 2.00474e-06
-7.96416e-06 0.00021742 -2.37079e-06
2.00474e-06 -2.37079e-06 0.000217386
0.000361289 2.25249e-05 -2.09594e-07
2.25249e-05 -2.49919e-05 -4.31036e-06
-2.09594e-07 -4.31036e-06 -9.15764e-05
0.000444294 -5.2146e-05 1.58554e-06
-5.2146e-05 4.6657e-05 8.85129e-08
1.58554e-06 8.85129e-08 -4.19081e-05
0.000396711 8.33987e-07 2.38182e-06
8.33987e-07 -2.60962e-05 -6.12577e-06
2.38182e-06 -6.12577e-06 -5.3286e-05
0.000536687 -8.00338e-05 -1.73188e-06
-8.00338e-05 0.000103598 3.86989e-06
-1.73188e-06 3.86989e-06 2.50682e-06
0.000891759 3.69683e-05 4.92332e-07
3.69683e-05 0.000306014 -1.01106e-06
4.92332e-07 -1.01106e-06 0.00027159
0.00270697 7.7414e-05 -2.28111e-06
7.7414e-05 0.00150077 -6.92661e-06
-2.28111e-06 -6.92661e-06 0.00150393
0.000337576 2.7466e-05 -1.56564e-06
2.7466e-05 -6.06477e-05 8.33915e-06
-1.56564e-06 8.33915e-06 -0.000106562
0.0032656 0.000125072 -1.74927e-06
0.000125072 0.00188561 1.96638e-06
-1.74927e-06 1.96638e-06 0.00187731
0.00356466 0.000164343 2.86633e-05
0.000164343 0.00209728 1.31529e-05
2.86633e-05 1.31529e-05 0.00207794
0.00268322 0.000210787 -3.16979e-06
0.000210787 -0.000166225 -1.50879e-06
-3.16979e-06 -1.50879e-06 4.77385e-05
0.0023846 4.20352e-07 -1.53783e-06
4.20352e-07 -0.00021674 -5.52707e-08
-1.53783e-06 -5.52707e-08 -3.30194e-05
0.00289134 0.000121598 5.90019e-06
0.000121598 -0.000165546 -4.05866e-06
5.90019e-06 -4.05866e-06 5.65898e-05
0.0027947 0.0015863 0.000156306
0.0015863 -0.0033094 5.70885e-05
0.000156306 5.70885e-05 -0.00115455
0.00279929 7.39696e-06 -3.15248e-06
7.39696e-06 -0.000248472 -6.73159e-08
-3.15248e-06 -6.73159e-08 3.50751e-05
0.00287644 0.000147713 2.4213e-07
0.000147713 -0.000196331 -3.67785e-06
2.4213e-07 -3.67785e-06 0.000201256
0.00303303 -9.05122e-05 -4.67858e-05
-9.05122e-05 2.43677e-05 -1.85999e-06
-4.67858e-05 -1.85999e-06 0.000316203
0.00328768 0.00131312 -0.000215342
0.00131312 -0.00347673 4.95185e-06
-0.000215342 4.95185e-06 -0.000646559
0.00390014 0.00047952 0.000144705
0.00047952 -0.00151316 6.47656e-05
0.000144705 6.47656e-05 -0.000206559
0.000437611 9.05664e-05 2.64343e-07
9.05664e-05 8.48737e-05 -4.55692e-06
2.64343e-07 -4.55692e-06 -5.01881e-05
0.000572561 -3.46084e-05 -6.28645e-08
-3.46084e-05 0.000191339 -3.77359e-07
-6.28645e-08 -3.77359e-07 3.87607e-05
0.000509744 -0.000138254 -3.96929e-06
-0.000138254 0.000156429 4.41214e-06
-3.96929e-06 4.41214e-06 2.79859e-06
0.000473673 -0.000103589 -9.4048e-07
-0.000103589 0.000137703 -4.54604e-07
-9.4048e-07 -4.54604e-07 -2.81805e-05
0.00275143 -0.000251524 -2.60977e-06
-0.000251524 -0.00024629 5.24754e-06
-2.60977e-06 5.24754e-06 3.74034e-05
0.00270758 -0.000657419 1.09503e-06
-0.000657419 -0.000261345 -1.89225e-06
1.09503e-06 -1.89225e-06 -4.31166e-05
0.00282683 -0.00102207 -5.9911e-07
-0.00102207 2.48972e-05 -1.53667e-06
-5.9911e-07 -1.53667e-06 4.12913e-06
0.00362096 -0.00141794 2.0551e-05
-0.00141794 0.00163393 1.78226e-06
2.0551e-05 1.78226e-06 0.000882073
0.00251507 -0.00161558 -2.42275e-05
-0.00161558 0.000496331 1.01134e-05
-2.42275e-05 1.01134e-05 -0.000252471
0.00283066 -0.00128353 3.9826e-06
-0.00128353 0.000335712 5.63165e-06
3.9826e-06 5.63165e-06 -1.30589e-05
0.00042091 -0.00114672 1.66646e-05
-0.00114672 -0.000136236 -1.71717e-05
1.66646e-05 -1.71717e-05 -0.000986523
0.00337548 -0.000646716 3.04449e-05
-0.000646716 0.00182471 -9.8596e-06
3.04449e-05 -9.8596e-06 0.00116176
-0.000651532 -0.000218213 1.7693e-05
-0.000218213 -0.000702519 1.19409e-05
1.7693e-05 1.19409e-05 -0.000986623
0.0014293 -0.000112648 7.53899e-06
-0.000112648 0.000809884 3.13009e-06
7.53899e-06 3.13009e-06 0.00060399
-0.000697084 -2.48123e-05 -1.31465e-05
-2.48123e-05 -0.000438739 -1.86945e-05
-1.31465e-05 -1.86945e-05 -0.000821412
0.000449915 -5.28706e-05 1.82841e-06
-5.28706e-05 0.000164113 -1.22248e-05
1.82841e-06 -1.22248e-05 -0.000109291
0.000564622 -3.47785e-05 1.37564e-06
-3.47785e-05 0.000200172 5.60666e-06
1.37564e-06 5.60666e-06 3.3117e-05
0.000759183 -0.000112529 -1.01238e-05
-0.000112529 0.000305594 6.85664e-06
-1.01238e-05 6.85664e-06 0.000151358
0.00285302 -0.000439204 3.84505e-06
-0.000439204 -0.000316619 4.9056e-07
3.84505e-06 4.9056e-07 5.62633e-05
0.000247775 -6.84338e-05 -1.21966e-06
-6.84338e-05 -1.57653e-05 4.77733e-06
-1.21966e-06 4.77733e-06 -0.000170243
0.000503452 -0.000133916 4.89128e-06
-0.000133916 0.000125687 -4.61621e-06
4.89128e-06 -4.61621e-06 -8.4744e-05
-0.000418491 -9.62946e-05 1.57724e-05
-9.62946e-05 -0.000337851 -5.28168e-06
1.57724e-05 -5.28168e-06 -0.000481363
0.00260692 -0.000806184 1.26371e-06
-0.000806184 -0.000340463 -1.02738e-06
1.26371e-06 -1.02738e-06 -4.66988e-05
0.00292132 -0.00126851 1.63893e-06
-0.00126851 0.000224174 -1.96362e-06
1.63893e-06 -1.96362e-06 -3.28808e-05
0.00218535 -0.00154654 -1.20227e-05
-0.00154654 0.000591495 -3.5464e-08
-1.20227e-05 -3.5464e-08 -0.0001665
0.00312042 -0.00157862 -5.1206e-06
-0.00157862 0.00072163 -3.06575e-06
-5.1206e-06 -3.06575e-06 0.000135935
0.0018978 -0.000302586 2.10774e-05
-0.000302586 0.00114332 -8.44931e-06
2.10774e-05 -8.44931e-06 0.000774939
-0.00145572 -5.54436e-05 1.14745e-05
-5.54436e-05 -0.000952874 8.36992e-07
1.14745e-05 8.36992e-07 -0.00130423
0.000988812 -0.00146927 -8.28035e-07
-0.00146927 0.000547785 1.0801e-06
-8.28035e-07 1.0801e-06 -0.000444127
0.00144314 -0.000529069 -1.8428e-05
-0.000529069 0.000811381 -4.20721e-08
-1.8428e-05 -4.20721e-08 0.000231625
0.00405186 -0.000670585 -8.02063e-05
-0.000670585 0.000464755 2.62869e-05
-8.02063e-05 2.62869e-05 0.000830246
0.00292126 -0.00110683 -4.44798e-05
-0.00110683 2.33917e-05 2.17608e-05
-4.44798e-05 2.17608e-05 0.00013533
0.00317688 -0.00144572 3.3715e-06
-0.00144572 0.000769824 -1.59467e-05
3.3715e-06 -1.59467e-05 0.000211065
0.00372933 -0.00185362 -1.51106e-06
-0.00185362 0.00123564 3.38847e-05
-1.51106e-06 3.38847e-05 0.000592068
0.00014702 -0.000231616 6.63831e-08
-0.000231616 0.000156424 -1.62874e-05
6.63831e-08 -1.62874e-05 -8.29601e-05
0.000958051 -0.00037288 -1.72929e-05
-0.00037288 0.000478794 1.98928e-05
-1.72929e-05 1.98928e-05 0.000130141
0.000818593 -0.000335181 -2.35221e-05
-0.000335181 0.00067985 6.89985e-05
-2.35221e-05 6.89985e-05 0.000288751
-0.000813392 -0.000934506 1.20812e-05
-0.000934506 0.000169211 -4.28972e-05
1.20812e-05 -4.28972e-05 -0.000903483
0.00699552 -0.000615124 3.28378e-05
-0.000615124 -0.00692785 3.07792e-05
3.28378e-05 3.07792e-05 -0.00747587
0.00386796 0.000552413 1.39855e-05
0.000552413 0.00252411 -5.02395e-06
1.39855e-05 -5.02395e-06 0.0021291
9.59284e-05 0.000470098 -4.37066e-06
0.000470098 -5.03325e-05 -4.03079e-06
-4.37066e-06 -4.03079e-06 -0.000502816
0.00175638 0.00055992 8.27628e-05
0.00055992 -0.00101463 3.40138e-05
8.27628e-05 3.40138e-05 -0.000377293
0.00230805 0.0010638 2.88322e-05
0.0010638 8.97046e-05 1.44394e-05
2.88322e-05 1.44394e-05 -7.3619e-05
0.00303485 0.00145568 1.2591e-05
0.00145568 0.000963073 1.73019e-05
1.2591e-05 1.73019e-05 0.000199445
0.00260475 0.00118281 1.58805e-05
0.00118281 0.00104791 1.3992e-05
1.58805e-05 1.3992e-05 0.000300607
0.00428635 0.0027507 0.000123042
0.0027507 -0.00221817 6.10408e-05
0.000123042 6.10408e-05 -0.000874847
0.000864319 0.000392192 2.48283e-06
0.000392192 0.000709854 -6.02217e-06
2.48283e-06 -6.02217e-06 0.000275006
0.00314984 0.0013159 -6.09835e-06
0.0013159 -0.000117155 4.35687e-06
-6.09835e-06 4.35687e-06 0.00013879
0.00104496 0.00077947 -1.0417e-05
0.00077947 0.000303615 8.61298e-06
-1.0417e-05 8.61298e-06 -0.000265468
0.00215587 0.001253 1.58838e-06
0.001253 0.000703051 -1.03267e-05
1.58838e-06 -1.03267e-05 -3.55878e-05
0.00355298 0.00157877 -1.3221e-05
0.00157877 0.000994139 -9.80537e-07
-1.3221e-05 -9.80537e-07 0.00043414
0.00459836 0.000291222 -0.000259096
0.000291222 -0.00881326 -0.000183129
-0.000259096 -0.000183129 -0.0080349
0.00674417 0.00395102 -0.000216159
0.00395102 -0.00264618 -0.000109548
-0.000216159 -0.000109548 0.000897721
0.00121161 0.00263683 -2.09188e-05
0.00263683 -0.0012952 -6.34033e-06
-2.09188e-05 -6.34033e-06 -0.00120613
0.0122412 -0.00484205 0.00102386
-0.00484205 0.00753105 0.000233934
0.00102386 0.000233934 0.00159631
0.0339953 -0.0209976 -0.000488152
-0.0209976 0.0230943 -0.000556306
-0.000488152 -0.000556306 0.00793513
-0.000346086 0.000331339 1.25322e-06
0.000331339 -0.000258373 -3.35044e-06
1.25322e-06 -3.35044e-06 -0.00062193
0.00192675 -0.00164826 0.00221113
-0.00164826 0.00430892 -1.84596e-05
0.00221113 -1.84596e-05 0.00110179
0.0127171 -0.010717 0.000203001
-0.010717 0.0149015 -0.000237041
0.000203001 -0.000237041 0.000986519
0.00378127 0.00225606 -8.61852e-05
0.00225606 0.000537648 -3.24566e-05
-8.61852e-05 -3.24566e-05 7.20356e-05
0.00124797 0.000846989 -3.66248e-05
0.000846989 0.000329577 -6.43325e-06
-3.66248e-05 -6.43325e-06 -0.000226598
0.00209169 0.0013339 -5.79447e-05
0.0013339 0.000650197 -4.92932e-05
-5.79447e-05 -4.92932e-05 -3.65317e-05
-0.000221453 0.00247697 0.0001725
0.00247697 -0.00132291 0.000138919
0.0001725 0.000138919 -0.0014618
0.0161511 0.00599887 0.000291614
0.00599887 -0.0021669 -8.49594e-06
0.000291614 -8.49594e-06 0.000989561
0.00695026 0.00598677 -0.000159326
0.00598677 -0.00123524 -0.000176934
-0.000159326 -0.000176934 0.000994522
0.0272739 -0.0103369 0.0013478
-0.0103369 0.0132443 0.0001236
0.0013478 0.0001236 0.00277089
0.0220802 -0.00282395 -0.000750577
-0.00282395 0.0113882 0.000822586
-0.000750577 0.000822586 0.00547233
0.000758493 0.000142075 6.05546e-06
0.000142075 0.000552249 1.64322e-06
6.05546e-06 1.64322e-06 0.000366157
0.000366151 0.000220333 2.15255e-06
0.000220333 0.000340542 1.04078e-06
2.15255e-06 1.04078e-06 0.000111698
0.00106831 0.000385067 9.25699e-06
0.000385067 0.000814259 -8.90933e-06
9.25699e-06 -8.90933e-06 0.000446206
0.000508667 7.30577e-06 3.26268e-06
7.30577e-06 0.000144137 7.68839e-07
3.26268e-06 7.68839e-07 -2.86674e-05
0.00038281 0.00012292 4.48716e-06
0.00012292 5.80723e-05 1.84306e-07
4.48716e-06 1.84306e-07 -0.000117376
-0.000105693 3.07291e-05 4.49748e-06
3.07291e-05 -0.000165128 -1.85095e-06
4.49748e-06 -1.85095e-06 -0.000378134
0.000618309 0.000122114 -3.12842e-06
0.000122114 0.000337171 -5.46346e-06
-3.12842e-06 -5.46346e-06 0.000126567
0.000343275 0.000117404 -7.43434e-06
0.000117404 0.000144388 2.55341e-06
-7.43434e-06 2.55341e-06 5.49946e-05
0.000286779 1.94722e-05 -1.67791e-08
1.94722e-05 -1.37598e-05 9.53675e-07
-1.67791e-08 9.53675e-07 -0.000180569
0.000817871 0.000107386 2.34254e-06
0.000107386 0.00048474 2.54807e-06
2.34254e-06 2.54807e-06 0.00024368
0.000302738 7.25102e-05 -4.04607e-07
7.25102e-05 9.85621e-05 -2.51277e-06
-4.04607e-07 -2.51277e-06 -0.000123381
0.000702133 8.81828e-05 1.35861e-06
8.81828e-05 0.000305938 -1.12246e-08
1.35861e-06 -1.12246e-08 9.14463e-05
0.000298866 9.47565e-05 -1.62902e-06
9.47565e-05 0.000235895 -3.27644e-06
-1.62902e-06 -3.27644e-06 4.42542e-06
0.000443385 5.20072e-05 1.82606e-06
5.20072e-05 0.000254804 6.74047e-06
1.82606e-06 6.74047e-06 4.58724e-05
-0.000919506 -1.06134e-05 4.79667e-06
-1.06134e-05 -0.0002986 -4.47129e-06
4.79667e-06 -4.47129e-06 -0.000709475
9.00523e-05 -8.47786e-05 -3.91354e-06
-8.47786e-05 -4.45125e-05 3.08188e-06
-3.91354e-06 3.08188e-06 -0.000271049
0.000406774 -5.31224e-05 -6.50999e-06
-5.31224e-05 9.98584e-05 -4.25115e-06
-6.50999e-06 -4.25115e-06 -0.000105945
0.000673948 -2.84902e-05 7.33041e-07
-2.84902e-05 0.000310466 -4.58574e-06
7.33041e-07 -4.58574e-06 9.24741e-05
0.000711745 -0.000165055 -5.58726e-06
-0.000165055 0.000364258 5.23169e-06
-5.58726e-06 5.23169e-06 0.000175578
-0.000379632 0.000166521 -1.4696e-05
0.000166521 -0.000356508 -2.41858e-06
-1.4696e-05 -2.41858e-06 -0.000512265
0.00124947 -0.000287809 1.2484e-05
-0.000287809 0.000602815 -4.12715e-06
1.2484e-05 -4.12715e-06 0.000486163
0.00134015 -0.000114737 -3.57625e-06
-0.000114737 0.000841726 7.81262e-06
-3.57625e-06 7.81262e-06 0.00067248
-0.00135032 -5.91174e-06 2.93157e-06
-5.91174e-06 -0.000878342 -2.14465e-06
2.93157e-06 -2.14465e-06 -0.00118279
-0.000415695 -4.2793e-05 -2.54774e-06
-4.2793e-05 -0.00036489 -5.20998e-06
-2.54774e-06 -5.20998e-06 -0.000556653
0.00106618 -0.000262423 -7.6054e-07
-0.000262423 0.000629842 1.42259e-06
-7.6054e-07 1.42259e-06 0.000376001
2.93862e-05 -3.99867e-05 -1.95637e-06
-3.99867e-05 -0.000122911 -9.29384e-07
-1.95637e-06 -9.29384e-07 -0.000315875
0.000582866 -0.00021135 -1.40605e-07
-0.00021135 0.000238771 1.24015e-06
-1.40605e-07 1.24015e-06 1.0642e-05
0.000780859 -0.000165908 1.9685e-06
-0.000165908 0.000339521 -1.70803e-07
1.9685e-06 -1.70803e-07 0.000153654
0.000786266 -8.33315e-05 -1.5135e-06
-8.33315e-05 0.000272198 2.9945e-06
-1.5135e-06 2.9945e-06 0.000174267
0.000262878 1.38498e-05 1.92798e-06
1.38498e-05 1.16252e-05 -7.77647e-07
1.92798e-06 -7.77647e-07 -0.00018581
0.000452355 -8.13486e-06 3.02324e-06
-8.13486e-06 6.71026e-05 1.11634e-07
3.02324e-06 1.11634e-07 -3.6238e-05
0.00139086 -4.22726e-05 -1.82163e-05
-4.22726e-05 0.000643559 7.38396e-06
-1.82163e-05 7.38396e-06 0.000617529
0.000445898 9.61692e-05 -1.84104e-06
9.61692e-05 6.58633e-05 -2.65422e-06
-1.84104e-06 -2.65422e-06 -3.92794e-05
0.000813163 -3.15761e-05 -6.66798e-06
-3.15761e-05 0.000275565 8.68877e-07
-6.66798e-06 8.68877e-07 0.000242087
0.000821396 -4.4063e-06 -1.5458e-05
-4.4063e-06 0.000256827 5.02285e-06
-1.5458e-05 5.02285e-06 0.000259459
0.000282071 -5.25662e-05 6.87768e-06
-5.25662e-05 -7.58076e-05 -6.12787e-06
6.87768e-06 -6.12787e-06 -0.000110389
0.0026822 3.30367e-06 1.84138e-05
3.30367e-06 0.00147892 5.21512e-08
1.84138e-05 5.21512e-08 0.00148908
0.000853343 9.59806e-06 -1.83786e-05
9.59806e-06 0.000278384 -5.97601e-06
-1.83786e-05 -5.97601e-06 0.000278668
0.000597561 8.36365e-05 2.44497e-06
8.36365e-05 0.000205921 -4.34139e-06
2.44497e-06 -4.34139e-06 5.62988e-05
0.000341875 7.2562e-05 -1.92912e-06
7.2562e-05 -1.68036e-05 -5.45126e-06
-1.92912e-06 -5.45126e-06 -9.23011e-05
0.000439215 6.2494e-07 2.40231e-06
6.2494e-07 4.64366e-05 2.22931e-07
2.40231e-06 2.22931e-07 -3.35779e-05
0.000370374 9.59836e-06 1.50842e-06
9.59836e-06 -4.48327e-05 -5.25788e-06
1.50842e-06 -5.25788e-06 -6.70513e-05
0.000590428 -0.000101996 -2.44183e-06
-0.000101996 0.00015739 5.83334e-06
-2.44183e-06 5.83334e-06 5.80503e-05
0.000425294 5.96228e-06 1.14866e-06
5.96228e-06 -8.23328e-06 -1.02444e-06
1.14866e-06 -1.02444e-06 -3.55274e-05
0.00245633 5.0985e-05 -1.28123e-06
5.0985e-05 0.0013298 -6.24993e-06
-1.28123e-06 -6.24993e-06 0.00133838
0.00151633 5.23204e-05 2.40276e-06
5.23204e-05 0.000720457 4.795e-06
2.40276e-06 4.795e-06 0.000684763
0.00168791 5.95028e-05 -2.09119e-06
5.95028e-05 0.000833029 2.38592e-06
-2.09119e-06 2.38592e-06 0.000830316
0.000524476 5.61454e-05 1.59714e-05
5.61454e-05 7.80481e-05 1.6287e-05
1.59714e-05 1.6287e-05 6.29083e-05
0.000291653 0.00121711 0.000160291
0.00121711 -0.00468518 3.03102e-05
0.000160291 3.03102e-05 -0.00234632
0.00271647 -2.70269e-05 -1.3215e-06
-2.70269e-05 -0.000295997 -2.28477e-06
-1.3215e-06 -2.28477e-06 -1.18832e-05
0.0028756 0.000117332 5.96354e-05
0.000117332 -0.000124384 -1.18861e-05
5.96354e-05 -1.18861e-05 0.00019606
0.00548729 0.00141641 -0.000120094
0.00141641 -0.003283 -4.67207e-05
-0.000120094 -4.67207e-05 0.000634194
0.0035701 0.000237709 0.000121411
0.000237709 -0.00190119 -1.14303e-05
0.000121411 -1.14303e-05 -0.000374758
0.00309102 -0.00011202 -1.92407e-06
-0.00011202 6.6725e-05 2.24123e-06
-1.92407e-06 2.24123e-06 0.000337142
0.00588441 -0.000933847 -9.01532e-05
-0.000933847 0.000147488 -3.9236e-05
-9.01532e-05 -3.9236e-05 0.00134865
0.00489981 -0.00086387 -0.000100384
-0.00086387 -0.00305347 -4.58452e-05
-0.000100384 -4.58452e-05 0.000252602
0.0195384 -0.00149914 8.0324e-05
-0.00149914 0.000159338 -0.000134291
8.0324e-05 -0.000134291 0.00115751
0.0244799 0.0112975 0.00263057
0.0112975 0.0114977 -9.5829e-05
0.00263057 -9.5829e-05 0.00240709
0.0433154 0.015755 0.000204716
0.015755 0.0277494 0.000226699
0.000204716 0.000226699 0.0143321
-0.000101756 -0.000100737 4.87171e-06
-0.000100737 -0.000238151 -4.19887e-07
4.87171e-06 -4.19887e-07 -0.000382077
0.000533512 -2.67041e-05 2.33268e-06
-2.67041e-05 0.000158815 7.06535e-08
2.33268e-06 7.06535e-08 1.80497e-05
0.000712479 -0.000139448 -1.49745e-06
-0.000139448 0.000301721 5.58498e-06
-1.49745e-06 5.58498e-06 0.000136127
0.000518437 -7.74829e-05 4.47594e-06
-7.74829e-05 0.000138637 -1.20797e-06
4.47594e-06 -1.20797e-06 9.11827e-07
0.000883833 0.000152748 -4.03088e-06
0.000152748 0.000482863 -5.6954e-06
-4.03088e-06 -5.6954e-06 0.000315437
0.0007022 0.000167776 4.04628e-07
0.000167776 0.000304378 7.10282e-07
4.04628e-07 7.10282e-07 0.000130013
0.00056832 2.19697e-05 4.31486e-06
2.19697e-05 0.000197336 -5.28748e-06
4.31486e-06 -5.28748e-06 1.49457e-05
0.00045848 -1.24907e-05 -4.14016e-07
-1.24907e-05 0.000112422 5.62613e-07
-4.14016e-07 5.62613e-07 -4.34006e-05
0.00274757 -0.000434772 1.93055e-05
-0.000434772 -0.000382183 -4.97234e-06
1.93055e-05 -4.97234e-06 1.40356e-06
0.00251623 -0.000850624 2.29507e-05
-0.000850624 -0.000427423 -9.75337e-06
2.29507e-05 -9.75337e-06 -0.000173679
0.00288109 -0.00126153 1.45796e-06
-0.00126153 0.000191784 4.64189e-06
1.45796e-06 4.64189e-06 -5.63876e-05
0.00264492 -0.00156562 1.03526e-05
-0.00156562 0.000822314 -2.5517e-06
1.03526e-05 -2.5517e-06 0.000119014
0.00325643 -0.00161778 -2.40993e-05
-0.00161778 0.000802061 1.47723e-05
-2.40993e-05 1.47723e-05 0.000171808
0.000747022 -0.00146052 1.83172e-05
-0.00146052 0.000455025 2.18144e-05
1.83172e-05 2.18144e-05 -0.00058396
0.00431324 -0.000946534 2.05489e-05
-0.000946534 0.00225042 7.969e-06
2.05489e-05 7.969e-06 0.00171906
0.00213844 -0.000491399 2.62611e-05
-0.000491399 0.00136686 -4.64409e-05
2.62611e-05 -4.64409e-05 0.000917287
0.000500397 -4.28558e-05 -2.17497e-06
-4.28558e-05 0.000107615 1.76962e-06
-2.17497e-06 1.76962e-06 -8.78059e-05
0.00118884 -0.000130344 1.71112e-05
-0.000130344 0.000654693 -3.73092e-05
1.71112e-05 -3.73092e-05 0.000306918
0.000611893 -0.000135786 1.40041e-06
-0.000135786 0.000223372 5.44022e-06
1.40041e-06 5.44022e-06 5.75673e-05
0.000179156 9.16451e-06 -1.50517e-05
9.16451e-06 6.30228e-05 -1.75071e-06
-1.50517e-05 -1.75071e-06 -2.62976e-05
0.00285079 -0.000594525 2.20021e-06
-0.000594525 -0.000299235 5.33951e-06
2.20021e-06 5.33951e-06 0.000186612
0.000354892 -0.000121656 -7.53596e-06
-0.000121656 0.000229899 3.85702e-06
-7.53596e-06 3.85702e-06 2.09367e-05
0.001017 -0.000284793 -2.23039e-06
-0.000284793 0.000525317 1.65201e-06
-2.23039e-06 1.65201e-06 0.000225974
0.00217628 -0.00104304 9.4179e-06
-0.00104304 -0.000409758 -5.48535e-06
9.4179e-06 -5.48535e-06 -0.000243782
0.00296737 -0.0013997 7.94904e-07
-0.0013997 0.000634296 5.81802e-06
7.94904e-07 5.81802e-06 0.000126592
0.00170445 -0.00152087 1.9547e-06
-0.00152087 9.79793e-05 -1.7293e-05
1.9547e-06 -1.7293e-05 -0.000440301
0.000689118 -0.000398766 -2.74883e-06
-0.000398766 0.000524453 -2.45635e-05
-2.74883e-06 -2.45635e-05 1.87997e-05
0.000732877 -0.000985737 1.60852e-05
-0.000985737 0.000991849 -4.44223e-08
1.60852e-05 -4.44223e-08 7.25163e-07
0.00646673 -0.00148963 -6.18751e-05
-0.00148963 0.00136434 4.55203e-05
-6.18751e-05 4.55203e-05 0.0018672
0.00276149 -0.00144349 -4.20546e-05
-0.00144349 0.000435984 2.29784e-05
-4.20546e-05 2.29784e-05 2.62787e-05
0.00353265 -0.00181639 6.61802e-07
-0.00181639 0.0010302 1.86312e-05
6.61802e-07 1.86312e-05 0.000415849
0.00117942 -0.00110936 -3.43507e-05
-0.00110936 0.000248112 2.23807e-05
-3.43507e-05 2.23807e-05 -4.26851e-05
0.00108501 -0.000266981 6.77882e-06
-0.000266981 0.000791519 -1.91349e-06
6.77882e-06 -1.91349e-06 0.000438035
-0.00119645 -5.67209e-05 7.69556e-06
-5.67209e-05 -0.000576632 1.77451e-05
7.69556e-06 1.77451e-05 -0.000963556
-0.000597974 -0.000325458 -8.5448e-06
-0.000325458 0.000190085 -2.00494e-05
-8.5448e-06 -2.00494e-05 -0.000576007
-0.0074631 -0.000834745 0.00147436
-0.000834745 -0.000241421 -3.31999e-05
0.00147436 -3.31999e-05 -0.00561231
0.0139823 -0.000537433 4.39632e-06
-0.000537433 -0.00197433 5.05686e-05
4.39632e-06 5.05686e-05 0.000123741
0.00185402 0.000448404 3.95827e-06
0.000448404 0.00120655 -1.1843e-05
3.95827e-06 -1.1843e-05 0.000842408
0.00243124 0.00098636 -3.13456e-06
0.00098636 0.00117655 6.88659e-06
-3.13456e-06 6.88659e-06 0.000538934
0.00162524 0.00106381 0.000131941
0.00106381 -0.000958146 6.59785e-05
0.000131941 6.59785e-05 -0.000572876
0.00394663 0.00156992 3.66441e-05
0.00156992 0.00125118 2.11112e-05
3.66441e-05 2.11112e-05 0.000665939
0.00311878 0.00142091 2.48924e-05
0.00142091 0.00123495 7.71266e-06
2.48924e-05 7.71266e-06 0.000454329
0.0201558 0.00105234 7.92962e-05
0.00105234 0.000494243 -0.00024552
7.92962e-05 -0.00024552 0.00211434
0.00866069 0.00475707 -0.000345323
0.00475707 -0.00357419 6.99827e-06
-0.000345323 6.99827e-06 0.000666002
0.00238603 0.00271228 -2.13787e-05
0.00271228 -0.00052399 -4.01119e-05
-2.13787e-05 -4.01119e-05 -0.000600462
0.0183613 -0.00893296 -0.00146546
-0.00893296 0.00985542 0.000350345
-0.00146546 0.000350345 0.00145587
0.0297524 -0.024195 -0.00285509
-0.024195 0.0224398 -0.00173543
-0.00285509 -0.00173543 0.00665003
0.000664537 0.0004896 8.00953e-06
0.0004896 0.00041078 -6.74377e-06
8.00953e-06 -6.74377e-06 -5.03158e-06
0.00313822 -0.00674994 0.0012875
-0.00674994 0.00085497 4.03344e-05
0.0012875 4.03344e-05 -0.00640447
0.00523406 -0.00815763 -0.00123038
-0.00815763 0.0154731 5.85215e-06
-0.00123038 5.85215e-06 0.00343452
0.00411564 0.00212892 -2.07976e-05
0.00212892 0.000649098 6.69458e-06
-2.07976e-05 6.69458e-06 0.000273528
0.00118069 0.000887713 -1.45253e-05
0.000887713 0.000360891 9.71382e-06
-1.45253e-05 9.71382e-06 -0.000240737
0.00286237 0.0015217 -2.49211e-06
0.0015217 0.00103586 -7.07954e-07
-2.49211e-06 -7.07954e-07 0.0002899
0.00224256 0.00261793 9.91584e-05
0.00261793 0.000296956 6.65831e-05
9.91584e-05 6.65831e-05 6.87571e-05
0.014157 0.00656151 -0.000302073
0.00656151 -0.00414525 -0.000134423
-0.000302073 -0.000134423 -0.00197041
0.00321301 0.005615 -6.03079e-05
0.005615 -0.00174342 -8.58461e-05
-6.03079e-05 -8.58461e-05 0.000366358
0.031202 -0.00927985 0.00104414
-0.00927985 0.0150706 -0.000262353
0.00104414 -0.000262353 0.00462536
0.0307304 -0.00686318 -0.000352082
-0.00686318 0.0120817 0.00103513
-0.000352082 0.00103513 0.00298748
0.00110784 0.000619315 -1.19975e-05
0.000619315 0.000602213 -1.61319e-05
-1.19975e-05 -1.61319e-05 0.00019676
-0.00239623 5.4372e-06 0.000242728
5.4372e-06 0.00795472 -0.000213652
0.000242728 -0.000213652 -0.00246784
0.0098299 0.00368491 -0.00104039
0.00368491 0.00742316 -0.000640021
-0.00104039 -0.000640021 0.00167885
0.00296993 0.00168534 -5.96236e-05
0.00168534 0.000550027 -3.53225e-05
-5.96236e-05 -3.53225e-05 0.000291365
0.00251897 0.00148852 -9.24226e-05
0.00148852 0.00110479 -4.09551e-05
-9.24226e-05 -4.09551e-05 0.000374543
0.00179397 0.00201386 -0.000124526
0.00201386 0.00125248 -5.30484e-05
-0.000124526 -5.30484e-05 0.000292041
-0.00229512 0.00428162 9.48614e-05
0.00428162 -0.000655014 -4.65138e-05
9.48614e-05 -4.65138e-05 -0.000768496
0.00592661 0.00958729 0.00121792
0.00958729 -0.00399104 0.00015635
0.00121792 0.00015635 -0.00322035
0.0321108 -0.0115708 -0.00101968
-0.0115708 0.0191946 0.00121781
-0.00101968 0.00121781 0.00712436
0.0100349 0.00116625 -0.000142757
0.00116625 -0.00142297 -0.000278954
-0.000142757 -0.000278954 -0.00301912
0.000874088 0.000288522 -1.11391e-05
0.000288522 0.000664496 3.89176e-06
-1.11391e-05 3.89176e-06 0.000413334
0.000816644 0.00037354 5.96171e-06
0.00037354 0.00063341 3.33712e-07
5.96171e-06 3.33712e-07 0.000292006
-0.00034037 0.000288311 2.80395e-06
0.000288311 -1.32545e-05 -2.09063e-06
2.80395e-06 -2.09063e-06 -0.000364677
0.000388591 9.20047e-05 5.47796e-06
9.20047e-05 5.84452e-05 2.12074e-06
5.47796e-06 2.12074e-06 -0.000113542
0.00126951 0.000178389 1.4144e-06
0.000178389 0.000703287 1.19424e-06
1.4144e-06 1.19424e-06 0.0004695
0.000159132 3.44625e-05 1.40916e-06
3.44625e-05 7.36354e-06 3.80321e-07
1.40916e-06 3.80321e-07 -0.000220832
6.40959e-05 6.82702e-05 9.34309e-06
6.82702e-05 2.51041e-05 -6.05993e-06
9.34309e-06 -6.05993e-06 -0.000218674
0.00019851 8.44274e-05 -5.52365e-06
8.44274e-05 0.00017201 3.31286e-06
-5.52365e-06 3.31286e-06 -4.83884e-05
0.000820169 7.79759e-05 -8.61458e-07
7.79759e-05 0.000388356 -1.26267e-06
-8.61458e-07 -1.26267e-06 0.00016631
0.000493668 5.07016e-05 1.38589e-06
5.07016e-05 0.000289679 -2.71659e-06
1.38589e-06 -2.71659e-06 6.87554e-05
0.000734417 -2.69497e-06 3.05914e-07
-2.69497e-06 0.000383227 2.95896e-06
3.05914e-07 2.95896e-06 0.000145377
-0.000422477 6.49367e-05 -2.04617e-06
6.49367e-05 1.60996e-05 -8.83125e-07
-2.04617e-06 -8.83125e-07 -0.000381574
-0.000151554 3.52968e-05 3.00246e-06
3.52968e-05 0.000346349 -2.31269e-06
3.00246e-06 -2.31269e-06 -0.000194637
2.04582e-06 -5.31462e-05 2.40564e-07
-5.31462e-05 0.000114987 1.18065e-06
2.40564e-07 1.18065e-06 -0.000208989
0.00148041 -6.44866e-05 -9.25251e-06
-6.44866e-05 0.000917385 -1.67734e-06
-9.25251e-06 -1.67734e-06 0.000649382
0.0013861 -0.000191885 -2.1215e-06
-0.000191885 0.000798342 -3.42953e-06
-2.1215e-06 -3.42953e-06 0.000554484
0.00100627 -0.000242054 -7.09804e-06
-0.000242054 0.000521074 5.81152e-06
-7.09804e-06 5.81152e-06 0.000371865
0.000538986 -0.00010975 1.31668e-06
-0.00010975 0.000259238 -3.5259e-07
1.31668e-06 -3.5259e-07 7.91053e-05
0.000888176 -0.000392061 4.93919e-07
-0.000392061 0.000328408 -1.66135e-06
4.93919e-07 -1.66135e-06 0.000216583
-0.00046583 -4.69592e-05 -7.30314e-06
-4.69592e-05 -0.00026257 9.60519e-06
-7.30314e-06 9.60519e-06 -0.000401982
-0.00150205 -0.000101897 8.14049e-06
-0.000101897 -0.00108572 -5.29638e-06
8.14049e-06 -5.29638e-06 -0.00126721
-0.000523685 -2.61825e-05 -1.68925e-05
-2.61825e-05 -0.000230963 7.63972e-06
-1.68925e-05 7.63972e-06 -0.000483863
0.00170531 -0.000280639 4.20918e-06
-0.000280639 0.000992435 -1.01967e-06
4.20918e-06 -1.01967e-06 0.000858116
0.00249116 -0.000112275 1.29406e-05
-0.000112275 0.00129425 -1.64471e-05
1.29406e-05 -1.64471e-05 0.00105324
0.00436903 -0.000776414 -3.46985e-06
-0.000776414 0.00237372 4.37085e-06
-3.46985e-06 4.37085e-06 0.00198573
-0.00168487 -0.000282286 -4.07815e-07
-0.000282286 -0.00111441 1.62128e-06
-4.07815e-07 1.62128e-06 -0.00143536
8.13419e-05 3.35253e-05 2.21876e-06
3.35253e-05 4.20234e-05 -2.66714e-06
2.21876e-06 -2.66714e-06 -0.000264317
-0.00186056 4.55353e-05 1.1181e-05
4.55353e-05 -0.00123411 -8.14796e-06
1.1181e-05 -8.14796e-06 -0.00153367
0.000762371 -0.0002304 -5.42669e-06
-0.0002304 0.000411909 -1.73958e-06
-5.42669e-06 -1.73958e-06 0.000184995
0.00132969 -6.9379e-05 7.34439e-06
-6.9379e-05 0.000715247 3.81709e-06
7.34439e-06 3.81709e-06 0.000500886
0.00100776 -0.000223251 4.63786e-06
-0.000223251 0.000554536 4.20318e-06
4.63786e-06 4.20318e-06 0.000325675
0.00051908 -5.79483e-05 -1.28663e-06
-5.79483e-05 0.000185638 5.84261e-07
-1.28663e-06 5.84261e-07 9.75919e-07
0.000137742 5.79889e-05 4.60448e-06
5.79889e-05 -0.000131361 1.83854e-06
4.60448e-06 1.83854e-06 -0.000236766
0.00082282 -0.000168588 1.50816e-06
-0.000168588 0.000355324 4.31592e-06
1.50816e-06 4.31592e-06 0.000174825
0.000359536 -5.14732e-05 -9.55626e-07
-5.14732e-05 -1.49906e-05 1.31193e-07
-9.55626e-07 1.31193e-07 -0.000104106
0.00129412 3.92271e-05 -8.90732e-06
3.92271e-05 0.000574398 8.00494e-06
-8.90732e-06 8.00494e-06 0.000549159
0.000474495 -9.6662e-05 2.09829e-06
-9.6662e-05 7.04718e-05 -2.14759e-06
2.09829e-06 -2.14759e-06 -2.84218e-05
0.000830153 -2.89881e-05 -1.29475e-05
-2.89881e-05 0.000276284 1.04032e-06
-1.29475e-05 1.04032e-06 0.000247579
0.000656713 8.6217e-06 2.11903e-06
8.6217e-06 0.000136294 1.81525e-06
2.11903e-06 1.81525e-06 0.000140104
0.000382053 -5.18792e-05 5.77395e-06
-5.18792e-05 -1.44573e-05 -5.28466e-06
5.77395e-06 -5.28466e-06 -4.67622e-05
0.00259472 2.33521e-06 6.51846e-06
2.33521e-06 0.00141916 -2.64864e-09
6.51846e-06 -2.64864e-09 0.00143067
0.00266342 -7.52955e-06 1.60322e-05
-7.52955e-06 0.00146601 -5.47426e-06
1.60322e-05 -5.47426e-06 0.00147629
0.00108202 8.04457e-05 -1.22074e-06
8.04457e-05 0.000514562 -5.56014e-06
-1.22074e-06 -5.56014e-06 0.000359475
0.000449878 8.36721e-05 -7.90672e-07
8.36721e-05 5.99287e-05 -6.86464e-06
-7.90672e-07 -6.86464e-06 -2.28226e-05
0.000512986 -2.3917e-05 -8.46536e-07
-2.3917e-05 0.00014418 9.61682e-07
-8.46536e-07 9.61682e-07 -3.35322e-06
0.000363721 1.73306e-05 1.29704e-06
1.73306e-05 -5.02786e-05 -5.37521e-06
1.29704e-06 -5.37521e-06 -7.07497e-05
0.000400301 -1.48352e-05 2.37107e-06
-1.48352e-05 1.78185e-05 -2.20115e-07
2.37107e-06 -2.20115e-07 -5.67346e-05
0.000456791 -8.52684e-05 -4.23839e-06
-8.52684e-05 6.17213e-05 5.25714e-06
-4.23839e-06 5.25714e-06 -2.22749e-05
0.000396009 -2.29489e-06 -5.64771e-07
-2.29489e-06 -2.865e-05 1.08963e-07
-5.64771e-07 1.08963e-07 -5.10022e-05
0.00229339 3.22723e-05 -6.5998e-06
3.22723e-05 0.00121907 -6.05649e-06
-6.5998e-06 -6.05649e-06 0.00123099
0.00137379 2.17586e-05 -7.1272e-07
2.17586e-05 0.000615564 4.59403e-06
-7.1272e-07 4.59403e-06 0.000591812
0.00157667 3.78475e-05 -5.7271e-06
3.78475e-05 0.00074926 8.55286e-08
-5.7271e-06 8.55286e-08 0.000752894
0.000738337 4.40644e-05 3.86708e-06
4.40644e-05 0.000207028 1.24493e-05
3.86708e-06 1.24493e-05 0.000200503
-0.00228838 0.0046808 0.00150992
0.0046808 0.00113812 -9.0734e-05
0.00150992 -9.0734e-05 -0.00655903
0.00630879 0.00527231 0.00299528
0.00527231 0.0136452 -0.000144644
0.00299528 -0.000144644 0.00339883
0.00189271 0.00155132 -8.46985e-05
0.00155132 -0.00478893 -8.57036e-05
-8.46985e-05 -8.57036e-05 -0.000440158
0.0032608 -1.84264e-06 8.27691e-05
-1.84264e-06 -0.00223689 -1.09524e-06
8.27691e-05 -1.09524e-06 -0.000543046
0.0032285 -0.000129156 4.48677e-05
-0.000129156 0.000124792 -7.28806e-07
4.48677e-05 -7.28806e-07 0.000391739
0.00214856 -4.12775e-05 -9.29747e-05
-4.12775e-05 -0.00254648 -3.8964e-05
-9.29747e-05 -3.8964e-05 0.000377852
0.00480346 -0.000888445 1.93143e-05
-0.000888445 -0.000300687 1.55797e-06
1.93143e-05 1.55797e-06 0.000701384
0.0130391 -0.00117315 0.000418397
-0.00117315 -0.00413668 -0.000160638
0.000418397 -0.000160638 -0.00330312
0.00962623 0.00744148 -4.4674e-05
0.00744148 0.00389469 -0.000109182
-4.4674e-05 -0.000109182 -0.00282673
0.0381879 0.0197485 -0.000827864
0.0197485 0.0255033 0.000301966
-0.000827864 0.000301966 0.0110958
0.00373056 -0.00215424 -7.38092e-05
-0.00215424 -0.00382853 -3.05896e-05
-7.38092e-05 -3.05896e-05 -0.000285994
0.0151543 -0.00582784 0.000511113
-0.00582784 -0.00280245 -8.70681e-05
0.000511113 -8.70681e-05 -0.00169773
0.0281584 0.00992914 0.00043741
0.00992914 0.0131321 -0.000478211
0.00043741 -0.000478211 0.00247786
0.0344493 0.0067162 -0.000489901
0.0067162 0.0154438 0.000454804
-0.000489901 0.000454804 0.00757759
0.00174405 0.000203378 -4.58659e-06
0.000203378 0.00109183 -8.54516e-07
-4.58659e-06 -8.54516e-07 0.000831869
0.000363468 3.3598e-05 1.26379e-06
3.3598e-05 4.6945e-05 -6.56595e-07
1.26379e-06 -6.56595e-07 -9.62029e-05
0.000538563 -0.000132041 2.61813e-06
-0.000132041 0.000176754 3.86527e-06
2.61813e-06 3.86527e-06 2.81571e-05
0.000388104 -1.15474e-05 4.56869e-06
-1.15474e-05 6.24063e-05 -7.5857e-07
4.56869e-06 -7.5857e-07 -7.60626e-05
0.00039198 5.94354e-05 4.91633e-06
5.94354e-05 0.000143452 -1.48273e-06
4.91633e-06 -1.48273e-06 1.95824e-05
0.000730516 0.000121277 1.38099e-06
0.000121277 0.000328354 6.7744e-07
1.38099e-06 6.7744e-07 0.000108
0.000469567 7.6537e-05 -1.84056e-06
7.6537e-05 0.00016488 9.888e-07
-1.84056e-06 9.888e-07 -6.58045e-06
0.000545875 0.000123279 5.79886e-06
0.000123279 0.000156301 1.42225e-06
5.79886e-06 1.42225e-06 -4.57274e-05
0.000590479 2.09665e-05 1.17072e-06
2.09665e-05 0.000219994 -1.17343e-06
1.17072e-06 -1.17343e-06 2.95885e-05
0.000190631 -2.78367e-05 3.84463e-07
-2.78367e-05 -7.60185e-05 2.65051e-06
3.84463e-07 2.65051e-06 -0.000213356
0.00142081 -0.000503982 6.1019e-05
-0.000503982 -0.00126079 -2.54681e-05
6.1019e-05 -2.54681e-05 -0.000595341
0.00162362 -0.000975988 2.99458e-05
-0.000975988 -0.000694061 -1.69175e-05
2.99458e-05 -1.69175e-05 -0.000493155
0.00205668 -0.00125848 7.38497e-06
-0.00125848 0.000116612 4.65396e-06
7.38497e-06 4.65396e-06 -0.000310738
0.000144367 -0.00126474 -6.72422e-06
-0.00126474 -0.000771982 -1.01776e-05
-6.72422e-06 -1.01776e-05 -0.00125122
0.00252505 -0.000988596 -5.28598e-06
-0.000988596 0.00191644 5.52611e-05
-5.28598e-06 5.52611e-05 0.00103923
-0.000759348 -0.000659228 -7.82054e-06
-0.000659228 -0.000300108 -2.07572e-05
-7.82054e-06 -2.07572e-05 -0.000999772
0.00118598 -0.000331773 1.46575e-05
-0.000331773 0.000670819 -1.64579e-05
1.46575e-05 -1.64579e-05 0.000409159
9.54757e-05 -6.54863e-05 -1.84408e-06
-6.54863e-05 1.31196e-05 3.61724e-06
-1.84408e-06 3.61724e-06 -0.000165929
0.00332449 -0.00116866 1.14848e-05
-0.00116866 -0.000514886 -1.10571e-05
1.14848e-05 -1.10571e-05 0.000233023
0.000608642 -0.000125798 1.90562e-07
-0.000125798 0.000476513 2.49797e-06
1.90562e-07 2.49797e-06 0.000127239
-0.00029958 -0.000245415 -1.32878e-05
-0.000245415 9.32201e-06 1.22295e-06
-1.32878e-05 1.22295e-06 -0.000387535
0.00198719 -0.00128306 2.12062e-05
-0.00128306 -1.03391e-05 -1.91399e-06
2.12062e-05 -1.91399e-06 -0.000268239
0.00260219 -0.0016244 -1.27071e-06
-0.0016244 0.000544568 -6.04591e-06
-1.27071e-06 -6.04591e-06 -6.92488e-06
0.000510762 -0.00105328 2.10109e-05
-0.00105328 -9.56263e-05 -1.69868e-05
2.10109e-05 -1.69868e-05 -0.000435836
0.00110432 -0.000548539 2.58856e-05
-0.000548539 0.00114476 -3.05587e-05
2.58856e-05 -3.05587e-05 0.000451482
0.00201453 -0.00190394 -4.0407e-05
-0.00190394 -0.000919967 5.19519e-05
-4.0407e-05 5.19519e-05 -0.000650156
0.00219751 -0.00140847 -4.78984e-05
-0.00140847 0.0005319 3.30604e-05
-4.78984e-05 3.30604e-05 0.000118727
6.60244e-05 -0.000583764 -5.74324e-05
-0.000583764 0.000315616 2.57221e-05
-5.74324e-05 2.57221e-05 -0.000161884
0.000679281 9.27651e-05 -2.99642e-06
9.27651e-05 0.000459058 -2.8086e-08
-2.99642e-06 -2.8086e-08 0.000143365
-0.000750429 -1.13363e-05 -7.58115e-06
-1.13363e-05 -0.000241783 1.73544e-05
-7.58115e-06 1.73544e-05 -0.00067608
-0.00035366 -8.28706e-05 8.78631e-06
-8.28706e-05 3.47316e-05 8.08844e-06
8.78631e-06 8.08844e-06 -0.000366292
-0.00261098 0.00158225 -0.000791176
0.00158225 0.0088099 -6.94452e-06
-0.000791176 -6.94452e-06 0.000979991
0.000169503 -0.00260003 -1.81117e-05
-0.00260003 0.00552598 -7.91464e-05
-1.81117e-05 -7.91464e-05 0.00156717
0.00729842 0.00031676 -0.000122441
0.00031676 -0.00757377 -3.37529e-05
-0.000122441 -3.37529e-05 -0.00762295
0.00132938 0.000577225 1.57965e-05
0.000577225 0.00087648 -1.04187e-05
1.57965e-05 -1.04187e-05 0.000431744
0.00198399 0.00106642 2.27112e-05
0.00106642 0.000885411 3.20566e-05
2.27112e-05 3.20566e-05 0.000202048
0.00400281 0.0018783 0.000105394
0.0018783 0.000540375 5.27218e-05
0.000105394 5.27218e-05 0.000290845
0.00290947 0.00160038 4.06299e-05
0.00160038 0.00107278 3.72267e-05
4.06299e-05 3.72267e-05 0.000289733
0.0179562 -0.00796641 0.00035572
-0.00796641 0.011376 0.000130461
0.00035572 0.000130461 0.00298983
0.00276766 0.00489763 -0.000853592
0.00489763 -0.0106975 -0.000161376
-0.000853592 -0.000161376 -0.00897877
0.00654738 0.00605337 -1.36513e-05
0.00605337 -0.000313991 2.47415e-05
-1.36513e-05 2.47415e-05 0.00144414
0.00428474 0.00260937 0.000116464
0.00260937 0.00165423 2.68253e-05
0.000116464 2.68253e-05 0.00135695
0.0219792 -0.00614685 -0.000770227
-0.00614685 0.00989256 -0.000184467
-0.000770227 -0.000184467 0.000739781
0.00585934 -0.00938978 -0.00193102
-0.00938978 0.0168194 -0.000116633
-0.00193102 -0.000116633 0.00527597
0.0431839 -0.0112892 0.00176243
-0.0112892 0.0164514 0.000506657
0.00176243 0.000506657 0.00557226
0.000631781 0.000581544 1.50065e-05
0.000581544 0.000372608 -4.85962e-06
1.50065e-05 -4.85962e-06 -5.3448e-05
0.000744403 -0.00152191 -8.9655e-05
-0.00152191 0.0105679 1.20237e-06
-8.9655e-05 1.20237e-06 0.00062906
0.0097959 0.00418946 -0.000335837
0.00418946 0.00517531 -0.000213063
-0.000335837 -0.000213063 -0.00161139
0.00275284 0.00181449 1.31294e-05
0.00181449 0.000581865 4.82446e-06
1.31294e-05 4.82446e-06 0.000180218
0.00129254 0.00124804 7.63703e-06
0.00124804 0.000547741 7.78076e-06
7.63703e-06 7.78076e-06 -0.000152308
0.000720013 0.00199765 -0.000157656
0.00199765 0.000622686 -0.000108192
-0.000157656 -0.000108192 -0.000132107
0.00384328 0.00646312 0.000103548
0.00646312 0.000764091 5.76193e-05
0.000103548 5.76193e-05 0.000761988
0.0121378 0.0101613 -4.00301e-05
0.0101613 -0.000717054 -1.48974e-05
-4.00301e-05 -1.48974e-05 -0.00169052
0.0153992 -0.00674614 0.000101163
-0.00674614 0.0126259 -0.000185329
0.000101163 -0.000185329 0.00108846
0.0203182 -0.00232463 -0.00012747
-0.00232463 0.00396402 -4.10024e-05
-0.00012747 -4.10024e-05 0.00254641
0.00146273 0.00110337 -1.70827e-05
0.00110337 0.000856065 -1.51272e-05
-1.70827e-05 -1.51272e-05 0.00024445
0.00166126 0.00103644 -0.000713749
0.00103644 0.00430958 -0.000195392
-0.000713749 -0.000195392 -0.0031218
0.00386466 0.00168967 -0.000134494
0.00168967 0.00124786 -0.000218793
-0.000134494 -0.000218793 -0.00231194
-0.00102685 0.000735992 -5.26298e-06
0.000735992 -6.5329e-05 -3.3131e-05
-5.26298e-06 -3.3131e-05 -0.000607256
-0.00268082 0.00182645 -0.000120352
0.00182645 0.000704234 3.75218e-05
-0.000120352 3.75218e-05 -0.000267682
0.0079147 0.00899599 0.000426644
0.00899599 0.00410217 4.4496e-05
0.000426644 4.4496e-05 -0.0014768
0.0117989 -0.0067151 1.03992e-05
-0.0067151 0.00421244 0.000228022
1.03992e-05 0.000228022 -0.00495507
0.0188157 -0.000991512 0.000110591
-0.000991512 0.000288707 -0.000348214
0.000110591 -0.000348214 0.000563106
0.000771272 0.000357316 -2.53591e-06
0.000357316 0.000580622 2.26266e-05
-2.53591e-06 2.26266e-05 0.000273837
0.000890732 0.000414607 -3.51559e-06
0.000414607 0.00074523 -4.82112e-06
-3.51559e-06 -4.82112e-06 0.000361053
9.57078e-05 0.000341339 6.53327e-06
0.000341339 0.000430549 -5.06583e-06
6.53327e-06 -5.06583e-06 -8.598e-05
0.00064265 0.000128408 2.00735e-06
0.000128408 0.000249489 1.7833e-06
2.00735e-06 1.7833e-06 4.61875e-05
0.00138807 -1.9428e-05 -2.04148e-07
-1.9428e-05 0.000821714 2.8361e-06
-2.04148e-07 2.8361e-06 0.000570279
0.000218782 6.94963e-05 3.88603e-06
6.94963e-05 0.000121334 -4.30242e-06
3.88603e-06 -4.30242e-06 -0.000113316
7.97903e-06 0.00013039 1.83232e-07
0.00013039 0.000285808 3.67987e-06
1.83232e-07 3.67987e-06 -0.000106537
0.000519526 -2.4295e-05 2.57959e-06
-2.4295e-05 0.00023454 1.12015e-06
2.57959e-06 1.12015e-06 1.1784e-05
0.00030337 -9.14119e-08 -2.30254e-07
-9.14119e-08 0.000292198 -3.78431e-06
-2.30254e-07 -3.78431e-06 -1.72445e-05
-3.73303e-06 5.07298e-05 -8.45488e-07
5.07298e-05 0.000471317 4.64985e-07
-8.45488e-07 4.64985e-07 -0.000100943
-0.0002828 0.000104543 -1.07227e-06
0.000104543 0.000421677 2.18439e-06
-1.07227e-06 2.18439e-06 -0.000204348
0.000530849 -6.55528e-05 3.47736e-06
-6.55528e-05 0.000774581 -1.08573e-05
3.47736e-06 -1.08573e-05 0.000252289
0.00087967 3.80661e-06 -1.32398e-05
3.80661e-06 0.000652044 2.98561e-06
-1.32398e-05 2.98561e-06 0.000357635
0.00153989 -0.000232475 4.44004e-06
-0.000232475 0.000927756 4.28054e-06
4.44004e-06 4.28054e-06 0.00072556
-0.000193579 -0.000441466 -3.73242e-06
-0.000441466 -0.000376644 -5.37058e-06
-3.73242e-06 -5.37058e-06 -0.000495437
-0.000738029 -4.1462e-05 2.56197e-05
-4.1462e-05 -0.000408141 3.39111e-06
2.56197e-05 3.39111e-06 -0.000520563
-9.93241e-05 2.15241e-06 3.30382e-06
2.15241e-06 4.31154e-05 3.90587e-06
3.30382e-06 3.90587e-06 -0.000209259
0.000570478 -0.000147793 -3.22121e-06
-0.000147793 0.00019761 3.95288e-06
-3.22121e-06 3.95288e-06 3.89579e-05
-0.000588343 -0.000211302 -1.03575e-05
-0.000211302 -0.000414878 -4.95444e-06
-1.03575e-05 -4.95444e-06 -0.000545539
0.00280446 -0.000273162 6.7922e-06
-0.000273162 0.00158458 8.95148e-06
6.7922e-06 8.95148e-06 0.00132488
0.0010109 -0.000132233 3.79212e-06
-0.000132233 0.000875547 7.90851e-06
3.79212e-06 7.90851e-06 0.000556273
0.00199706 -0.000619107 -1.20748e-05
-0.000619107 0.000998554 8.47306e-06
-1.20748e-05 8.47306e-06 0.000602357
0.00117362 -0.000168133 -1.79065e-05
-0.000168133 0.000472945 1.36704e-06
-1.79065e-05 1.36704e-06 0.000237412
0.00104803 -0.000450432 1.31212e-05
-0.000450432 0.000304618 1.5372e-06
1.31212e-05 1.5372e-06 1.97368e-06
0.0021702 -0.000918202 -1.37719e-05
-0.000918202 0.000959219 1.77467e-05
-1.37719e-05 1.77467e-05 0.000395467
0.0024013 -0.000345271 1.67501e-05
-0.000345271 0.00113917 -7.13945e-06
1.67501e-05 -7.13945e-06 0.000890975
0.00251225 -0.000596699 1.29543e-07
-0.000596699 0.00123997 -8.19064e-06
1.29543e-07 -8.19064e-06 0.000905885
0.000338047 -0.000270121 9.22187e-07
-0.000270121 0.000128031 -1.69131e-06
9.22187e-07 -1.69131e-06 -0.000185218
-0.00227909 -0.000203268 4.62553e-06
-0.000203268 -0.00145655 -7.84392e-06
4.62553e-06 -7.84392e-06 -0.00185492
0.00218092 -1.068e-06 1.84166e-06
-1.068e-06 0.00138881 -1.53398e-06
1.84166e-06 -1.53398e-06 0.00108264
0.000628862 -0.000299856 5.21986e-06
-0.000299856 0.000297783 -1.83898e-06
5.21986e-06 -1.83898e-06 9.23885e-06
0.000738595 -0.000124316 1.23852e-05
-0.000124316 0.00028888 3.60657e-06
1.23852e-05 3.60657e-06 5.50293e-05
0.0019054 -0.000478956 -8.5785e-06
-0.000478956 0.00115421 5.26408e-06
-8.5785e-06 5.26408e-06 0.000900863
0.000271765 -0.000174082 -1.64475e-07
-0.000174082 5.91438e-05 -5.58592e-07
-1.64475e-07 -5.58592e-07 -0.000168736
3.68224e-05 -3.68283e-05 5.10595e-06
-3.68283e-05 -0.000195272 5.54572e-06
5.10595e-06 5.54572e-06 -0.000328686
0.00115518 -0.000212646 -2.71209e-06
-0.000212646 0.000627366 5.07522e-06
-2.71209e-06 5.07522e-06 0.000423337
0.000637012 -9.87082e-05 -4.11988e-08
-9.87082e-05 0.000193373 3.50665e-07
-4.11988e-08 3.50665e-07 8.09425e-05
0.00146137 -2.77904e-06 -1.66222e-05
-2.77904e-06 0.000682379 8.65821e-06
-1.66222e-05 8.65821e-06 0.000649199
0.000431925 -9.6946e-05 1.05731e-07
-9.6946e-05 5.5038e-05 -2.15107e-06
1.05731e-07 -2.15107e-06 -4.71562e-05
0.000806341 -1.89219e-05 -1.54676e-05
-1.89219e-05 0.000255933 7.86557e-07
-1.54676e-05 7.86557e-07 0.000225575
0.000764729 1.75549e-05 3.03941e-06
1.75549e-05 0.000205933 3.11086e-06
3.03941e-06 3.11086e-06 0.000206921
0.000380972 -5.48069e-05 4.7711e-06
-5.48069e-05 -2.1196e-05 -5.38242e-06
4.7711e-06 -5.38242e-06 -5.21579e-05
0.00160038 1.19644e-05 1.77343e-05
1.19644e-05 0.000760416 -1.82416e-06
1.77343e-05 -1.82416e-06 0.000769006
0.00253093 -1.45321e-06 2.50046e-05
-1.45321e-06 0.00137625 -5.37556e-06
2.50046e-05 -5.37556e-06 0.00138861
0.000302229 9.8138e-05 1.01857e-06
9.8138e-05 -3.60446e-05 -6.03945e-06
1.01857e-06 -6.03945e-06 -0.000181597
0.000527985 8.57726e-05 9.7497e-08
8.57726e-05 0.000109126 -7.40926e-06
9.7497e-08 -7.40926e-06 2.06433e-05
0.000506208 2.30084e-05 8.72513e-07
2.30084e-05 0.000127784 5.84612e-07
8.72513e-07 5.84612e-07 -1.83972e-05
0.00037799 1.20396e-05 3.18262e-06
1.20396e-05 -4.24848e-05 -6.0871e-06
3.18262e-06 -6.0871e-06 -6.35699e-05
0.000417199 6.99566e-05 4.2688e-07
6.99566e-05 2.96541e-05 1.45032e-08
4.2688e-07 1.45032e-08 -4.6924e-05
0.00034183 -0.000119878 -3.47588e-06
-0.000119878 1.24079e-05 6.60266e-06
-3.47588e-06 6.60266e-06 -0.00012059
0.00227071 1.61122e-05 -1.18293e-05
1.61122e-05 0.00120214 -6.13287e-06
-1.18293e-05 -6.13287e-06 0.00121556
0.000383383 1.02512e-05 -5.03582e-07
1.02512e-05 -3.73354e-05 7.13463e-09
-5.03582e-07 7.13463e-09 -5.77152e-05
0.000502112 -6.0768e-07 -2.67593e-06
-6.0768e-07 7.24378e-05 5.02104e-06
-2.67593e-06 5.02104e-06 5.36996e-06
0.000411216 -5.88189e-06 -3.18105e-06
-5.88189e-06 -1.9649e-05 5.5129e-06
-3.18105e-06 5.5129e-06 -4.20922e-05
0.00235087 3.36821e-05 -6.70295e-06
3.36821e-05 0.00125742 -1.87793e-07
-6.70295e-06 -1.87793e-07 0.00126874
0.00249496 5.34497e-05 2.21489e-06
5.34497e-05 0.00135583 6.71901e-06
2.21489e-06 6.71901e-06 0.00136371
0.00144488 -0.00154434 -0.000469117
-0.00154434 0.0113386 7.20871e-05
-0.000469117 7.20871e-05 0.00464858
0.00709946 0.00519049 -0.000535443
0.00519049 0.00485803 0.000177964
-0.000535443 0.000177964 -0.00233785
0.00532631 -0.00204342 -0.000565588
-0.00204342 0.00213151 0.000345516
-0.000565588 0.000345516 -0.00333775
0.0110917 0.00604646 0.00170323
0.00604646 0.0136107 -0.000123662
0.00170323 -0.000123662 0.00293914
0.00504358 0.00100177 3.85472e-05
0.00100177 -0.00165392 3.92636e-06
3.85472e-05 3.92636e-06 0.000787517
0.00319072 -0.000906989 0.000122012
-0.000906989 -0.00112224 1.10793e-05
0.000122012 1.10793e-05 -0.000251668
0.00304077 -0.000884974 0.000620463
-0.000884974 -0.0103508 -2.52024e-05
0.000620463 -2.52024e-05 -0.00859229
0.0241716 0.00763801 -0.002427
0.00763801 0.0142997 -0.000215043
-0.002427 -0.000215043 0.00598747
0.0305822 0.0236376 -0.0029282
0.0236376 0.0213387 0.00177921
-0.0029282 0.00177921 0.00617107
0.00565167 -0.00159724 8.57019e-05
-0.00159724 -0.00233881 -1.83242e-06
8.57019e-05 -1.83242e-06 0.000261035
0.00806109 -0.00594274 0.000348142
-0.00594274 -0.0072863 -0.000232085
0.000348142 -0.000232085 -0.00605196
0.0308548 0.00983433 -0.000599693
0.00983433 0.0145648 -0.000316765
-0.000599693 -0.000316765 0.00362962
0.0256179 0.00623172 0.000435589
0.00623172 0.0117849 0.000582643
0.000435589 0.000582643 0.00412275
0.00273634 -0.00371096 -0.000110564
-0.00371096 -0.00469604 0.000110845
-0.000110564 0.000110845 -0.00124781
0.00225043 -0.00893274 0.00108418
-0.00893274 -0.00359933 -0.000298533
0.00108418 -0.000298533 -0.00435689
0.0175608 0.00452276 -0.000606663
0.00452276 0.00873929 -0.00132217
-0.000606663 -0.00132217 -0.00151603
0.0117632 -0.00119818 -0.000422249
-0.00119818 0.00136093 5.99888e-05
-0.000422249 5.99888e-05 -0.000733923
0.00167101 -3.92958e-05 1.73598e-07
-3.92958e-05 0.00102594 1.3282e-05
1.73598e-07 1.3282e-05 0.000719765
0.00015093 2.74287e-05 -5.68551e-07
2.74287e-05 -2.29636e-05 -9.42925e-07
-5.68551e-07 -9.42925e-07 -0.000199234
0.000651922 0.000138341 1.61561e-06
0.000138341 0.000228796 2.38477e-06
1.61561e-06 2.38477e-06 8.6315e-05
-0.000435306 -0.00011543 -8.47293e-06
-0.00011543 -0.00047743 -1.13434e-06
-8.47293e-06 -1.13434e-06 -0.000511577
0.00018133 0.000160641 4.6416e-06
0.000160641 -7.59424e-05 1.47834e-05
4.6416e-06 1.47834e-05 -0.000285223
0.000513691 9.77464e-05 -7.42279e-07
9.77464e-05 0.000197962 -8.73721e-07
-7.42279e-07 -8.73721e-07 -1.40454e-05
-0.000181326 -3.29777e-05 -3.5585e-09
-3.29777e-05 -0.000272283 3.00688e-06
-3.5585e-09 3.00688e-06 -0.000422196
0.00078839 0.000179421 8.41335e-06
0.000179421 0.00035805 8.03065e-06
8.41335e-06 8.03065e-06 0.000119215
0.000935249 0.00020982 -4.19906e-07
0.00020982 0.000461838 -1.44428e-06
-4.19906e-07 -1.44428e-06 0.000221874
0.000406149 4.81436e-05 -3.84693e-06
4.81436e-05 9.26285e-05 2.91484e-06
-3.84693e-06 2.91484e-06 -9.44113e-05
0.00161779 -0.00103392 0.000139718
-0.00103392 -0.00150463 -8.33862e-05
0.000139718 -8.33862e-05 -0.000683952
0.000925447 -0.00113123 4.0538e-06
-0.00113123 -0.000650911 -1.51509e-05
4.0538e-06 -1.51509e-05 -0.000758762
0.00199975 -0.00149753 1.01291e-05
-0.00149753 0.000241496 5.06592e-06
1.01291e-05 5.06592e-06 -0.000252762
-0.000863659 -0.000941988 8.90356e-06
-0.000941988 -0.000912081 -9.14753e-06
8.90356e-06 -9.14753e-06 -0.00122488
0.00356993 -0.000755843 -7.53626e-05
-0.000755843 0.00247476 7.20561e-05
-7.53626e-05 7.20561e-05 0.00195161
0.00108476 -0.000338079 -6.61501e-07
-0.000338079 0.000889473 -1.57132e-05
-6.61501e-07 -1.57132e-05 0.000466093
0.000923909 3.66503e-05 2.16559e-06
3.66503e-05 0.000655709 -8.7295e-06
2.16559e-06 -8.7295e-06 0.000303775
0.000793589 3.40877e-05 -6.57519e-06
3.40877e-05 0.000496795 6.81762e-07
-6.57519e-06 6.81762e-07 0.000189628
0.00330866 -0.00194152 -3.24967e-05
-0.00194152 -0.000214728 3.72891e-06
-3.24967e-05 3.72891e-06 0.000170164
0.00088159 -9.1312e-05 -1.01182e-06
-9.1312e-05 0.000713437 5.24897e-06
-1.01182e-06 5.24897e-06 0.000311188
0.00140049 -0.000366562 1.20055e-05
-0.000366562 0.00106596 -7.18902e-06
1.20055e-05 -7.18902e-06 0.000650341
0.00142059 -0.00132387 1.72753e-05
-0.00132387 7.42176e-05 -2.29427e-06
1.72753e-05 -2.29427e-06 -0.000298788
0.00016755 -0.000636409 -9.28377e-06
-0.000636409 0.00021675 3.62969e-06
-9.28377e-06 3.62969e-06 -0.000160647
0.00277293 -0.0030413 4.18311e-05
-0.0030413 0.00047706 -6.04966e-06
4.18311e-05 -6.04966e-06 -0.000287951
0.000224511 -0.000891701 -8.03025e-06
-0.000891701 0.000332835 1.98517e-05
-8.03025e-06 1.98517e-05 -0.000109196
-0.0010728 -0.000185183 4.35155e-06
-0.000185183 -8.69004e-05 -7.25352e-07
4.35155e-06 -7.25352e-07 -0.000710232
0.000540657 0.000136154 7.79817e-06
0.000136154 0.000400372 -1.83138e-06
7.79817e-06 -1.83138e-06 0.000169671
-0.000627077 -0.000184594 -1.1081e-05
-0.000184594 -0.000102774 3.14368e-05
-1.1081e-05 3.14368e-05 -0.000550619
0.00287709 0.000399961 -0.000194432
0.000399961 0.00270296 -7.01334e-05
-0.000194432 -7.01334e-05 -0.00272655
-0.0072197 0.000340214 -0.000953882
0.000340214 0.00772835 1.39037e-05
-0.000953882 1.39037e-05 0.00132285
-0.0103263 -0.00455211 -0.00178268
-0.00455211 -0.000717349 4.59487e-05
-0.00178268 4.59487e-05 -0.00654675
7.4895e-05 0.000545865 1.69478e-05
0.000545865 0.000109428 -5.49345e-06
1.69478e-05 -5.49345e-06 -0.000350576
0.00104596 0.00116655 6.49292e-06
0.00116655 0.000490617 1.26862e-05
6.49292e-06 1.26862e-05 -0.0002066
0.00405232 0.00221152 7.38994e-05
0.00221152 0.00129002 7.15014e-05
7.38994e-05 7.15014e-05 0.000706712
-0.000430227 0.00092818 0.000221128
0.00092818 0.011665 8.74391e-05
0.000221128 8.74391e-05 0.0040961
0.0027364 0.00921258 -0.00101885
0.00921258 -0.00426356 -0.000227329
-0.00101885 -0.000227329 -0.00453517
0.000596222 0.00457872 0.00058512
0.00457872 -0.000706052 0.000284727
0.00058512 0.000284727 -0.000290724
2.90825e-05 0.00186783 -9.57866e-06
0.00186783 0.000242265 -5.40024e-05
-9.57866e-06 -5.40024e-05 -0.000108192
0.0341063 -0.00655379 0.000249309
-0.00655379 0.0154238 -0.000701842
0.000249309 -0.000701842 0.00573836
0.0103835 0.00501144 0.00139789
0.00501144 0.00441862 0.000408284
0.00139789 0.000408284 -0.00331131
0.0145371 -0.000943349 9.18008e-05
-0.000943349 0.00355606 9.06424e-05
9.18008e-05 9.06424e-05 0.00374763
0.00196606 0.00114397 9.25486e-06
0.00114397 0.00117292 -6.43645e-07
9.25486e-06 -6.43645e-07 0.000564947
0.00415437 0.00217684 -0.000142638
0.00217684 0.00535972 -3.09194e-05
-0.000142638 -3.09194e-05 -0.00100203
0.0036788 0.00127341 0.000184652
0.00127341 0.00192218 -2.45261e-05
0.000184652 -2.45261e-05 -0.00132914
0.000157075 0.00121959 -2.36632e-05
0.00121959 0.000440797 -9.73233e-06
-2.36632e-05 -9.73233e-06 -0.000285275
-0.00128138 0.002974 -0.00017496
0.002974 0.00040528 -0.000123529
-0.00017496 -0.000123529 -0.00115461
0.00308018 0.00973496 0.000576136
0.00973496 0.00217376 0.000201974
0.000576136 0.000201974 -0.00308922
0.0144902 -0.000803718 2.37426e-05
-0.000803718 -0.00194972 -0.000219272
2.37426e-05 -0.000219272 -0.00128387
0.0107421 -0.00370577 -0.000160679
-0.00370577 0.00671594 -0.000271532
-0.000160679 -0.000271532 -0.00198105
0.00143758 0.000964222 -2.21912e-06
0.000964222 0.0013122 -1.68522e-05
-2.21912e-06 -1.68522e-05 0.000584229
-0.00380843 0.0012473 0.000107919
0.0012473 0.00250971 9.95927e-05
0.000107919 9.95927e-05 -0.00125148
0.00903677 -0.00161731 0.000456594
-0.00161731 0.00087551 -5.37598e-05
0.000456594 -5.37598e-05 -0.00180132
0.0118311 -0.00122991 0.000404164
-0.00122991 0.00128585 -3.07608e-05
0.000404164 -3.07608e-05 -0.000569143
-0.00321847 0.000716959 7.64366e-05
0.000716959 0.000598384 -6.72887e-06
7.64366e-05 -6.72887e-06 -0.000805632
0.00718931 0.0048287 0.000509884
0.0048287 0.00632823 0.000275675
0.000509884 0.000275675 -0.00146457
0.011258 -0.000733074 -4.20413e-05
-0.000733074 0.00374653 0.000453557
-4.20413e-05 0.000453557 -0.00112556
0.00225286 0.000559603 1.84451e-05
0.000559603 0.00158339 1.49051e-05
1.84451e-05 1.49051e-05 0.00116066
0.000347372 0.000426988 -8.63135e-06
0.000426988 0.000567636 -3.39621e-06
-8.63135e-06 -3.39621e-06 -3.4625e-06
8.10063e-05 0.000337878 4.53237e-06
0.000337878 0.00062858 -1.06e-05
4.53237e-06 -1.06e-05 -0.000146427
0.000165637 0.000111146 7.64875e-06
0.000111146 5.05304e-06 1.61596e-06
7.64875e-06 1.61596e-06 -0.00021662
0.000263044 5.36784e-05 3.98041e-06
5.36784e-05 0.000238751 -4.06778e-06
3.98041e-06 -4.06778e-06 -4.64019e-05
4.22583e-05 3.95183e-05 1.94209e-06
3.95183e-05 0.000566644 3.37443e-06
1.94209e-06 3.37443e-06 -4.43743e-05
-0.000135879 -2.9335e-05 -1.11059e-06
-2.9335e-05 -2.58385e-06 1.35234e-07
-1.11059e-06 1.35234e-07 -0.000290027
0.00014907 -5.5947e-05 -1.22905e-06
-5.5947e-05 0.000569018 -1.60198e-06
-1.22905e-06 -1.60198e-06 2.91229e-05
-0.000308539 3.37208e-05 2.37433e-06
3.37208e-05 0.000475216 1.05554e-06
2.37433e-06 1.05554e-06 -0.000184076
0.000536671 -0.000139589 -1.28697e-05
-0.000139589 0.000869899 1.25473e-05
-1.28697e-05 1.25473e-05 0.000355742
9.21912e-05 -2.57832e-05 2.52527e-06
-2.57832e-05 0.000414852 -1.0193e-05
2.52527e-06 -1.0193e-05 1.52834e-06
-0.000342369 -8.93071e-06 1.40648e-05
-8.93071e-06 -0.000126815 -2.65006e-06
1.40648e-05 -2.65006e-06 -0.000362085
0.00149956 -0.000156327 -6.01204e-06
-0.000156327 0.00074402 1.66875e-06
-6.01204e-06 1.66875e-06 0.000608136
-0.00267489 -9.26258e-05 4.94323e-07
-9.26258e-05 -0.00166304 -1.51321e-05
4.94323e-07 -1.51321e-05 -0.00181932
0.00084783 -0.000119965 9.38179e-08
-0.000119965 0.000747563 5.54531e-06
9.38179e-08 5.54531e-06 0.00044381
-0.000271315 -7.07808e-05 -1.23242e-05
-7.07808e-05 -0.000204363 1.99234e-06
-1.23242e-05 1.99234e-06 -0.000551852
0.00291787 -0.000714754 2.33093e-06
-0.000714754 0.00166211 1.22206e-05
2.33093e-06 1.22206e-05 0.0012964
0.000919604 -0.000396025 4.30814e-06
-0.000396025 0.000400146 -1.79643e-06
4.30814e-06 -1.79643e-06 0.000155292
0.000288957 -0.000481251 8.11486e-06
-0.000481251 -7.83994e-05 1.43226e-05
8.11486e-06 1.43226e-05 -0.000478677
0.000503822 -0.000172127 2.91656e-07
-0.000172127 5.08097e-05 -2.5691e-06
2.91656e-07 -2.5691e-06 -0.000161608
0.0012989 -0.000484782 -6.68473e-06
-0.000484782 0.000472439 6.40829e-06
-6.68473e-06 6.40829e-06 0.000156357
0.00245832 -0.000970466 -1.30262e-05
-0.000970466 0.00109917 1.28711e-05
-1.30262e-05 1.28711e-05 0.000493341
0.00191589 -0.0010334 -4.41403e-06
-0.0010334 0.000668681 -7.01741e-07
-4.41403e-06 -7.01741e-07 1.05231e-05
0.00107657 -0.000485593 4.46685e-06
-0.000485593 0.000237508 1.30685e-06
4.46685e-06 1.30685e-06 -9.64965e-05
0.00125986 -0.000768134 5.74212e-06
-0.000768134 0.00040608 -1.79392e-06
5.74212e-06 -1.79392e-06 -0.000108678
0.00189516 -0.000332741 1.98415e-06
-0.000332741 0.00106352 -8.75852e-06
1.98415e-06 -8.75852e-06 0.000677287
0.00101619 -0.000280274 -5.51825e-06
-0.000280274 0.000322787 2.37446e-06
-5.51825e-06 2.37446e-06 4.95873e-05
0.000157795 -0.000369383 1.66659e-05
-0.000369383 -0.000215592 -1.22061e-05
1.66659e-05 -1.22061e-05 -0.000484684
0.00235488 -0.000274774 -3.70184e-06
-0.000274774 0.00136703 2.74815e-06
-3.70184e-06 2.74815e-06 0.00105671
-0.000479401 -0.000299499 1.39327e-06
-0.000299499 -0.000359279 -6.89325e-07
1.39327e-06 -6.89325e-07 -0.000741021
-0.00030697 -5.36758e-05 9.97376e-06
-5.36758e-05 -0.000356556 5.77101e-06
9.97376e-06 5.77101e-06 -0.000680286
0.00262482 -0.000706778 -7.87031e-06
-0.000706778 0.00152038 6.77011e-06
-7.87031e-06 6.77011e-06 0.00123806
0.00109906 -0.000297466 -5.39392e-07
-0.000297466 0.000529623 -6.73231e-07
-5.39392e-07 -6.73231e-07 0.000277156
9.64422e-05 -9.03504e-05 9.05183e-06
-9.03504e-05 -0.000169115 1.10792e-05
9.05183e-06 1.10792e-05 -0.000340598
0.000764981 -0.000258428 -6.73616e-06
-0.000258428 0.000373605 -3.23578e-06
-6.73616e-06 -3.23578e-06 0.000153133
0.000468293 -3.42306e-05 -3.42706e-06
-3.42306e-05 9.64004e-05 -7.89332e-07
-3.42706e-06 -7.89332e-07 -4.97684e-05
0.0015176 -4.15842e-05 -2.74857e-05
-4.15842e-05 0.000717334 7.29426e-06
-2.74857e-05 7.29426e-06 0.000680273
0.000629575 -0.000103506 -1.13188e-06
-0.000103506 0.00018466 -2.6917e-06
-1.13188e-06 -2.6917e-06 6.95315e-05
0.000879392 -3.32203e-05 -1.42276e-05
-3.32203e-05 0.000298619 9.0842e-07
-1.42276e-05 9.0842e-07 0.000262881
0.000760794 2.63484e-05 2.55549e-06
2.63484e-05 0.00019854 3.20656e-06
2.55549e-06 3.20656e-06 0.000193256
0.000425235 -4.81864e-05 3.47826e-06
-4.81864e-05 4.92551e-06 -6.39014e-06
3.47826e-06 -6.39014e-06 -2.88765e-05
0.00173951 2.4346e-05 2.08062e-05
2.4346e-05 0.000848946 -1.34907e-06
2.08062e-05 -1.34907e-06 0.000856473
0.00243909 9.99706e-06 2.87959e-05
9.99706e-06 0.00131138 -5.52924e-06
2.87959e-05 -5.52924e-06 0.00132527
0.000121047 4.25106e-05 7.09747e-07
4.25106e-05 -0.000126644 1.41498e-06
7.09747e-07 1.41498e-06 -0.000322248
-4.22358e-05 2.72245e-05 5.6426e-07
2.72245e-05 -0.000280136 -9.35175e-06
5.6426e-07 -9.35175e-06 -0.000377295
0.000580017 8.003e-05 -2.08782e-07
8.003e-05 0.000170418 1.04826e-06
-2.08782e-07 1.04826e-06 5.05073e-06
0.000385358 1.55629e-05 3.15066e-06
1.55629e-05 -3.76866e-05 -6.62826e-06
3.15066e-06 -6.62826e-06 -6.19919e-05
0.000277999 4.84248e-06 1.59949e-06
4.84248e-06 -7.22618e-05 4.46024e-08
1.59949e-06 4.46024e-08 -0.000154184
0.000227668 -0.000119918 6.35328e-08
-0.000119918 -5.57309e-05 7.60712e-06
6.35328e-08 7.60712e-06 -0.000206149
0.00230499 4.52153e-07 -1.59404e-05
4.52153e-07 0.00122379 -6.28578e-06
-1.59404e-05 -6.28578e-06 0.00123735
0.000378507 1.16743e-05 8.96505e-07
1.16743e-05 -4.17379e-05 -5.9183e-08
8.96505e-07 -5.9183e-08 -6.2869e-05
0.000380927 -1.59798e-05 -5.79764e-06
-1.59798e-05 -2.00519e-06 6.0961e-06
-5.79764e-06 6.0961e-06 -7.43289e-05
0.00229474 1.70966e-05 -5.7682e-06
1.70966e-05 0.00121856 -2.46226e-08
-5.7682e-06 -2.46226e-08 0.00123164
0.000387086 2.00605e-06 -3.45565e-06
2.00605e-06 -3.42947e-05 5.43066e-06
-3.45565e-06 5.43066e-06 -5.48277e-05
0.00235831 3.52281e-05 7.85645e-06
3.52281e-05 0.00126274 6.64754e-06
7.85645e-06 6.64754e-06 0.0012736
-0.00131981 -0.00234608 -0.000386047
-0.00234608 -7.27882e-05 0.000156601
-0.000386047 0.000156601 -0.00523072
0.00661545 0.00374404 -0.000398183
0.00374404 0.0139476 8.55001e-05
-0.000398183 8.55001e-05 0.00491374
0.00842354 0.00215463 -0.00205784
0.00215463 0.00690063 0.000360207
-0.00205784 0.000360207 0.00316317
0.000567707 0.000122343 9.7555e-06
0.000122343 0.000220254 3.29605e-06
9.7555e-06 3.29605e-06 -9.78508e-06
0.00801472 -0.00193044 -0.000254009
-0.00193044 0.00565082 0.0003788
-0.000254009 0.0003788 0.00184882
0.0049496 -0.00191205 -0.000316968
-0.00191205 0.00285284 3.68843e-05
-0.000316968 3.68843e-05 -0.00285692
0.0257611 0.0123892 7.49461e-05
0.0123892 0.0162331 -0.000699457
7.49461e-05 -0.000699457 0.00332395
0.00714945 -0.00245256 0.000202827
-0.00245256 -0.00194816 -3.2327e-05
0.000202827 -3.2327e-05 0.000309792
0.0134391 -0.00528639 0.000428444
-0.00528639 -0.00306058 -0.000337417
0.000428444 -0.000337417 -0.000787106
0.0219647 0.00773049 -0.00124284
0.00773049 0.00922092 0.000221747
-0.00124284 0.000221747 -0.000858354
0.0189292 0.00559612 0.000517504
0.00559612 0.0130649 0.000360192
0.000517504 0.000360192 0.00733336
0.00757892 -0.00454802 -9.61859e-05
-0.00454802 -0.00173321 -1.53224e-06
-9.61859e-05 -1.53224e-06 0.000628828
0.0112226 -0.00929418 2.23309e-05
-0.00929418 -0.000348458 -7.8315e-05
2.23309e-05 -7.8315e-05 -0.00157545
0.0150241 0.00236585 8.75391e-05
0.00236585 0.0107241 -0.000556689
8.75391e-05 -0.000556689 0.00138621
0.0178163 0.00140889 -3.33471e-05
0.00140889 0.00386935 9.28529e-05
-3.33471e-05 9.28529e-05 0.000136001
0.00472711 -0.00573383 8.50583e-06
-0.00573383 0.000579796 4.71244e-05
8.50583e-06 4.71244e-05 0.00155911
0.00907367 -0.00861234 0.000415084
-0.00861234 0.00462705 -0.00024673
0.000415084 -0.00024673 0.000472688
0.00787817 0.000664592 -0.000110169
0.000664592 0.00724549 -0.000521707
-0.000110169 -0.000521707 0.00098711
0.0176217 -0.00083041 -0.000292757
-0.00083041 0.000981313 0.000344601
-0.000292757 0.000344601 0.000656334
0.00036454 0.000252515 1.96161e-05
0.000252515 0.000164445 1.92144e-05
1.96161e-05 1.92144e-05 -5.95333e-05
0.000435385 -9.48438e-05 -4.66998e-07
-9.48438e-05 0.000213789 -2.39923e-06
-4.66998e-07 -2.39923e-06 -5.04593e-05
-0.00036168 -1.71609e-05 3.48748e-06
-1.71609e-05 -0.000394773 1.9568e-06
3.48748e-06 1.9568e-06 -0.000537619
0.000721238 0.000241495 1.43253e-05
0.000241495 0.000247305 2.39255e-05
1.43253e-05 2.39255e-05 5.66618e-05
0.00107282 0.000281322 -3.05902e-06
0.000281322 0.000561167 -3.74044e-06
-3.05902e-06 -3.74044e-06 0.000303558
0.000651265 0.000127483 6.63264e-07
0.000127483 0.000295233 1.30504e-06
6.63264e-07 1.30504e-06 8.17812e-05
0.00138322 0.00024621 -1.71908e-06
0.00024621 0.000776738 6.84602e-08
-1.71908e-06 6.84602e-08 0.000514572
0.00109899 0.000238758 1.19243e-06
0.000238758 0.000584909 6.00298e-06
1.19243e-06 6.00298e-06 0.000328651
0.00243355 -0.00172319 0.000175474
-0.00172319 -0.000760798 -0.00011225
0.000175474 -0.00011225 -0.000110068
-0.000364414 -0.0010978 -5.99749e-06
-0.0010978 -0.000951746 -2.10877e-05
-5.99749e-06 -2.10877e-05 -0.00122178
-0.000867281 3.85293e-05 -6.73211e-06
3.85293e-05 -0.000624894 -1.28713e-05
-6.73211e-06 -1.28713e-05 -0.000850272
9.22586e-05 -0.000682616 1.92178e-05
-0.000682616 4.71445e-05 -1.48818e-05
1.92178e-05 -1.48818e-05 -0.000260793
0.00264706 -0.000530179 -3.25322e-05
-0.000530179 0.00176836 9.89366e-06
-3.25322e-05 9.89366e-06 0.00135747
0.00113255 -0.000136903 1.66431e-05
-0.000136903 0.000856685 -2.94654e-05
1.66431e-05 -2.94654e-05 0.0004227
-0.000646166 0.000174332 2.21419e-06
0.000174332 -0.000358545 1.6644e-05
2.21419e-06 1.6644e-05 -0.000619917
0.00174745 -0.0027515 -1.68278e-05
-0.0027515 -9.41468e-06 -3.61964e-06
-1.68278e-05 -3.61964e-06 -0.000641066
0.00109837 -0.000238189 -5.7337e-06
-0.000238189 0.00094908 3.2593e-06
-5.7337e-06 3.2593e-06 0.000489534
-0.000497437 -0.000211791 -2.67972e-06
-0.000211791 8.12054e-05 8.15661e-06
-2.67972e-06 8.15661e-06 -0.000445791
-0.000659442 -0.000791592 6.63957e-06
-0.000791592 -0.000341151 1.09839e-06
6.63957e-06 1.09839e-06 -0.000630728
-0.000915415 -2.65291e-05 1.47038e-05
-2.65291e-05 -0.000460527 -5.48903e-06
1.47038e-05 -5.48903e-06 -0.000726118
0.00263313 -0.00287396 -0.000109319
-0.00287396 0.0020955 -1.03952e-05
-0.000109319 -1.03952e-05 0.000728416
-0.000663742 -0.000725933 1.06775e-05
-0.000725933 5.03419e-05 -2.07903e-06
1.06775e-05 -2.07903e-06 -0.000538845
0.000134153 1.55379e-05 1.39729e-05
1.55379e-05 0.000624414 -6.58019e-06
1.39729e-05 -6.58019e-06 -4.4365e-05
9.24216e-05 4.36523e-06 6.20418e-06
4.36523e-06 0.000643016 2.25202e-05
6.20418e-06 2.25202e-05 -8.69832e-05
0.000657677 -0.000119265 0.000370373
-0.000119265 0.00573085 9.24912e-05
0.000370373 9.24912e-05 0.00168843
-0.000287693 0.000103153 0.000222598
0.000103153 0.00138695 -2.01313e-05
0.000222598 -2.01313e-05 -0.00434905
-0.0139618 -0.000694296 -0.000956628
-0.000694296 0.00620001 2.38537e-05
-0.000956628 2.38537e-05 0.000876936
0.00209322 0.00110101 2.34594e-05
0.00110101 0.00129578 6.71328e-06
2.34594e-05 6.71328e-06 0.000725183
-0.000436667 0.00148516 2.69554e-05
0.00148516 0.000145343 1.67893e-05
2.69554e-05 1.67893e-05 -0.000763711
0.00578906 0.0027725 0.000813539
0.0027725 0.00543577 0.000207045
0.000813539 0.000207045 -0.000112093
0.00417115 0.00623331 0.00023865
0.00623331 0.00349182 0.000256932
0.00023865 0.000256932 -0.000533627
0.00131276 0.00448139 -0.000247561
0.00448139 0.0016404 -0.000225534
-0.000247561 -0.000225534 -0.000594875
0.00707608 -0.00191065 -0.000135748
-0.00191065 0.00684684 -0.000543425
-0.000135748 -0.000543425 0.000339114
0.00442476 0.000546935 8.593e-05
0.000546935 0.00247733 0.000120014
8.593e-05 0.000120014 -0.000655691
0.0111285 -0.000144819 -3.88157e-05
-0.000144819 -0.00388616 -0.000290664
-3.88157e-05 -0.000290664 -0.00345853
0.000692524 0.00103054 5.07448e-06
0.00103054 0.000812697 -8.58422e-07
5.07448e-06 -8.58422e-07 1.94525e-05
-0.00247812 0.000789777 1.28284e-05
0.000789777 0.00287729 6.2692e-06
1.28284e-05 6.2692e-06 -0.00109143
0.00769475 -0.000627822 0.000286431
-0.000627822 0.000765519 8.32986e-06
0.000286431 8.32986e-06 -0.00205295
-0.00208949 0.00124203 -3.48255e-05
0.00124203 0.000286384 -1.81073e-05
-3.48255e-05 -1.81073e-05 -0.00107269
0.0187263 0.00177636 3.85292e-05
0.00177636 0.0038213 -0.000102594
3.85292e-05 -0.000102594 2.15889e-05
0.00415128 0.00338153 0.000418211
0.00338153 0.00639602 0.000272799
0.000418211 0.000272799 -0.00102854
0.015997 0.000660242 -0.000224763
0.000660242 0.00598482 -2.66524e-05
-0.000224763 -2.66524e-05 0.000226987
0.000323689 0.000950875 -1.87105e-06
0.000950875 0.000838514 -1.79752e-05
-1.87105e-06 -1.79752e-05 -0.000147617
0.00454621 1.67082e-05 0.0001023
1.67082e-05 0.00313561 6.30889e-05
0.0001023 6.30889e-05 8.30534e-05
0.00387262 -0.00373034 0.000384234
-0.00373034 0.00477382 -0.000274988
0.000384234 -0.000274988 0.00156047
0.0363765 0.00807791 0.000616687
0.00807791 0.0160451 -0.000430369
0.000616687 -0.000430369 0.00721777
0.0095101 -5.56971e-05 -1.15119e-05
-5.56971e-05 0.00829107 0.000646113
-1.15119e-05 0.000646113 0.00182172
-0.00193638 0.00116272 -0.000211426
0.00116272 0.00125273 -0.000132011
-0.000211426 -0.000132011 -0.00025935
0.000905123 9.24388e-05 0.000172774
9.24388e-05 0.0057086 -2.06367e-05
0.000172774 -2.06367e-05 -0.00473407
0.000894215 0.000568614 4.80786e-06
0.000568614 0.000857421 1.61423e-05
4.80786e-06 1.61423e-05 0.000241523
0.000471286 0.000367085 5.63191e-06
0.000367085 0.000895455 5.20944e-06
5.63191e-06 5.20944e-06 0.000170062
0.000442177 -0.000162905 -7.81673e-06
-0.000162905 0.00131803 2.01899e-05
-7.81673e-06 2.01899e-05 0.000598948
-0.000702845 -2.42424e-05 1.42646e-05
-2.42424e-05 -0.000351869 -3.06495e-06
1.42646e-05 -3.06495e-06 -0.000646102
2.29857e-06 -1.90016e-05 3.56554e-06
-1.90016e-05 0.000494747 9.65982e-06
3.56554e-06 9.65982e-06 -4.93315e-05
0.000150406 5.45858e-05 -3.63797e-06
5.45858e-05 0.000760033 -2.07073e-06
-3.63797e-06 -2.07073e-06 8.83125e-05
0.000186429 -2.97697e-05 7.03115e-07
-2.97697e-05 0.000417851 3.69982e-07
7.03115e-07 3.69982e-07 6.17746e-05
0.000290962 -9.74241e-05 1.35471e-06
-9.74241e-05 0.000741037 2.43585e-06
1.35471e-06 2.43585e-06 0.000210807
0.00402195 -0.00077503 2.02889e-05
-0.00077503 0.00259179 -1.06461e-05
2.02889e-05 -1.06461e-05 0.00219505
0.000569031 -0.000101491 -5.66221e-06
-0.000101491 0.000545315 -3.43231e-06
-5.66221e-06 -3.43231e-06 0.000262038
-0.00503809 6.0213e-05 6.40323e-06
6.0213e-05 -0.00305112 -7.09873e-06
6.40323e-06 -7.09873e-06 -0.00346814
0.001131 -0.000552614 -1.49772e-06
-0.000552614 0.000677159 3.80442e-06
-1.49772e-06 3.80442e-06 0.00021209
-0.0030523 -9.14779e-05 2.42048e-05
-9.14779e-05 -0.00183574 1.4147e-05
2.42048e-05 1.4147e-05 -0.00223557
-0.000358251 -0.000199438 -5.35173e-06
-0.000199438 -0.000306134 -1.75275e-06
-5.35173e-06 -1.75275e-06 -0.000444777
0.000181142 -0.000517397 -1.31597e-05
-0.000517397 -0.000175189 -4.78497e-06
-1.31597e-05 -4.78497e-06 -0.000551996
0.00186015 -0.000979379 -3.8451e-06
-0.000979379 0.000730854 4.19657e-06
-3.8451e-06 4.19657e-06 -8.46971e-06
0.00229824 -0.00121645 -1.56187e-05
-0.00121645 0.000826868 3.6278e-06
-1.56187e-05 3.6278e-06 7.23579e-05
0.00167094 -0.000542851 8.47029e-06
-0.000542851 0.000700236 -9.56662e-06
8.47029e-06 -9.56662e-06 0.000367275
0.00179872 -0.000882706 -1.98739e-06
-0.000882706 0.000691621 1.06792e-06
-1.98739e-06 1.06792e-06 0.00010284
0.0018943 -0.00108527 1.0021e-05
-0.00108527 0.000591081 -8.23328e-06
1.0021e-05 -8.23328e-06 -8.67653e-05
0.0015633 -0.000766536 7.24014e-06
-0.000766536 0.000560215 2.43691e-06
7.24014e-06 2.43691e-06 3.2957e-05
0.00172815 -0.00100183 4.68692e-06
-0.00100183 0.000572877 -4.81182e-06
4.68692e-06 -4.81182e-06 -7.46333e-05
0.00152803 -0.000319507 -4.55114e-06
-0.000319507 0.000589456 -5.97753e-06
-4.55114e-06 -5.97753e-06 0.0002981
0.000686882 -0.000459904 -5.86911e-07
-0.000459904 1.89721e-06 2.01029e-07
-5.86911e-07 2.01029e-07 -0.000347883
0.00114689 -0.000728235 5.66638e-06
-0.000728235 0.000362876 -8.45238e-06
5.66638e-06 -8.45238e-06 -0.0001344
-0.000364784 -0.000136787 5.36684e-06
-0.000136787 -0.000337524 2.06598e-06
5.36684e-06 2.06598e-06 -0.00073567
0.000395171 -0.000266116 3.39472e-08
-0.000266116 0.000154313 2.75303e-07
3.39472e-08 2.75303e-07 -0.000241064
-0.000812175 -0.000183927 4.49775e-06
-0.000183927 -0.000755034 -9.38175e-07
4.49775e-06 -9.38175e-07 -0.00105412
0.00158875 -0.000383134 -5.42538e-06
-0.000383134 0.000908189 1.02647e-05
-5.42538e-06 1.02647e-05 0.000546458
0.000919533 -0.000274693 1.8543e-06
-0.000274693 0.000425212 6.03731e-07
1.8543e-06 6.03731e-07 9.02129e-05
-0.000353417 -6.78989e-05 5.2172e-06
-6.78989e-05 -0.000452307 1.10189e-05
5.2172e-06 1.10189e-05 -0.000687508
0.00101541 -0.000484144 -1.24168e-05
-0.000484144 0.000510557 -3.67017e-06
-1.24168e-05 -3.67017e-06 0.000216378
0.000585538 -9.95999e-05 -8.71699e-07
-9.95999e-05 0.000137979 2.0588e-09
-8.71699e-07 2.0588e-09 -3.46291e-05
0.0003087 3.27209e-05 3.24874e-06
3.27209e-05 -7.27453e-05 1.22574e-05
3.24874e-06 1.22574e-05 -0.000132819
0.00136194 -0.000161085 -6.16523e-06
-0.000161085 0.00067258 -6.14329e-06
-6.16523e-06 -6.14329e-06 0.000519367
0.000431634 -4.57124e-05 -2.61508e-06
-4.57124e-05 -2.89835e-06 6.72638e-08
-2.61508e-06 6.72638e-08 -4.7753e-05
0.00284066 9.70455e-05 3.5076e-06
9.70455e-05 0.00157927 3.63203e-06
3.5076e-06 3.63203e-06 0.00157872
0.000488602 -5.71806e-05 3.80615e-06
-5.71806e-05 3.97399e-05 -7.17886e-06
3.80615e-06 -7.17886e-06 -1.17738e-06
0.00179554 3.61255e-05 2.70229e-05
3.61255e-05 0.000887354 -1.48053e-06
2.70229e-05 -1.48053e-06 0.000890327
0.00275709 2.52558e-05 3.93805e-05
2.52558e-05 0.00151995 -6.4932e-06
3.93805e-05 -6.4932e-06 0.00153184
0.000173962 8.23798e-05 1.75541e-06
8.23798e-05 -9.98934e-05 1.42385e-06
1.75541e-06 1.42385e-06 -0.000292467
3.48795e-05 2.43255e-05 2.49404e-06
2.43255e-05 -0.00022415 -8.42084e-06
2.49404e-06 -8.42084e-06 -0.000348303
0.00031847 6.74386e-05 -8.26526e-08
6.74386e-05 1.04399e-05 8.69502e-09
-8.26526e-08 8.69502e-09 -0.00018345
0.00041912 1.39602e-05 3.92998e-06
1.39602e-05 -1.67516e-05 -7.57761e-06
3.92998e-06 -7.57761e-06 -4.58675e-05
-1.13665e-05 3.34323e-05 -1.003e-06
3.34323e-05 -0.000258586 -2.65555e-06
-1.003e-06 -2.65555e-06 -0.000359249
0.00067468 0.000101656 8.87491e-07
0.000101656 0.000260847 7.46719e-06
8.87491e-07 7.46719e-06 7.73164e-05
0.00241671 -1.52068e-05 -2.18921e-05
-1.52068e-05 0.00129747 -6.32966e-06
-2.18921e-05 -6.32966e-06 0.00131013
0.000391626 1.17586e-05 -9.01093e-07
1.17586e-05 -3.52507e-05 -1.49469e-07
-9.01093e-07 -1.49469e-07 -5.87973e-05
-0.000111585 1.60816e-05 3.39857e-07
1.60816e-05 -0.000329086 6.93563e-06
3.39857e-07 6.93563e-06 -0.000412415
0.00231686 9.58451e-07 -4.54247e-06
9.58451e-07 0.00123184 1.03789e-07
-4.54247e-06 1.03789e-07 0.00124531
0.000386993 1.42109e-05 -2.60404e-06
1.42109e-05 -3.60585e-05 5.80702e-06
-2.60404e-06 5.80702e-06 -5.69685e-05
0.00231024 1.8143e-05 1.23473e-05
1.8143e-05 0.00122931 6.32911e-06
1.23473e-05 6.32911e-06 0.00124206
0.00108084 -0.000247755 0.000352156
-0.000247755 0.00599137 0.000205593
0.000352156 0.000205593 0.00312786
-0.00130365 -0.000818779 -7.24046e-05
-0.000818779 0.00045681 9.48472e-06
-7.24046e-05 9.48472e-06 -0.00528602
0.0027112 0.00368367 -0.000655529
0.00368367 0.0128978 -0.000167755
-0.000655529 -0.000167755 0.00361719
0.000806453 0.000191458 1.59207e-08
0.000191458 0.000354408 1.38133e-06
1.59207e-08 1.38133e-06 0.000135361
-0.000545549 0.000154076 8.99765e-06
0.000154076 -0.000465546 3.9205e-06
8.99765e-06 3.9205e-06 -0.000729559
0.00232608 0.000356889 2.67171e-05
0.000356889 0.0013706 1.10147e-05
2.67171e-05 1.10147e-05 0.00114217
0.0100524 -0.00132801 -0.000449951
-0.00132801 0.000749056 9.76751e-05
-0.000449951 9.76751e-05 -0.00266997
0.00887362 -0.00343996 0.000215227
-0.00343996 0.00505825 5.22474e-05
0.000215227 5.22474e-05 0.00232254
0.00482024 -0.00487652 0.000374523
-0.00487652 0.00210548 -0.000365625
0.000374523 -0.000365625 -0.00313398
0.00893101 -0.00524731 1.83413e-05
-0.00524731 -0.00181855 -9.49937e-05
1.83413e-05 -9.49937e-05 0.000775999
0.00390405 -0.00893341 -0.00117175
-0.00893341 -0.00391913 7.34752e-05
-0.00117175 7.34752e-05 -0.00339168
0.0322256 0.00813221 0.000943576
0.00813221 0.0181772 0.000369784
0.000943576 0.000369784 0.00620719
0.00972861 -0.00169922 0.000513293
-0.00169922 -0.000724449 -0.000341275
0.000513293 -0.000341275 -0.00376651
0.00328428 -0.00542031 7.33083e-06
-0.00542031 -0.000645731 1.36344e-05
7.33083e-06 1.36344e-05 0.000881337
0.00441839 -0.00898104 -0.000329784
-0.00898104 0.00278828 1.15239e-05
-0.000329784 1.15239e-05 -0.00276102
0.00935092 0.00501885 -0.000189866
0.00501885 0.00830201 -0.000434738
-0.000189866 -0.000434738 0.000581487
0.0144617 -0.000526855 -0.000192894
-0.000526855 -0.00124368 0.000190522
-0.000192894 0.000190522 -0.00116326
0.000275079 -0.00450898 -0.000204787
-0.00450898 0.00156761 0.000117839
-0.000204787 0.000117839 0.000334879
0.00829701 -0.00462128 -0.000448842
-0.00462128 0.00646984 0.000323926
-0.000448842 0.000323926 3.13917e-06
0.010722 -0.000230447 5.39684e-05
-0.000230447 0.00443962 -0.000409911
5.39684e-05 -0.000409911 -0.0008665
0.0102927 0.00112894 -1.91722e-05
0.00112894 -0.000691158 0.000237597
-1.91722e-05 0.000237597 -0.0029005
-0.000388725 0.000106556 1.35185e-05
0.000106556 -0.000319072 3.06512e-05
1.35185e-05 3.06512e-05 -0.000481461
0.000585697 3.38465e-06 -3.71397e-06
3.38465e-06 0.000305415 1.34757e-06
-3.71397e-06 1.34757e-06 8.56563e-05
0.00125085 -0.000353534 1.20505e-05
-0.000353534 0.000746773 -1.00296e-05
1.20505e-05 -1.00296e-05 0.000476216
0.000388844 0.000193482 -3.28995e-07
0.000193482 3.02826e-05 4.00904e-06
-3.28995e-07 4.00904e-06 -0.00015122
0.000887054 0.000287439 -2.81426e-06
0.000287439 0.000455514 -1.05665e-05
-2.81426e-06 -1.05665e-05 0.000198983
0.00113555 0.000287408 -7.65804e-06
0.000287408 0.000609814 -5.34652e-06
-7.65804e-06 -5.34652e-06 0.000351876
0.000976944 -0.00229433 8.18818e-05
-0.00229433 -0.000156859 -4.17169e-05
8.18818e-05 -4.17169e-05 -0.000599088
0.000170489 -0.000800911 1.25427e-05
-0.000800911 -1.59146e-05 -3.40907e-05
1.25427e-05 -3.40907e-05 -0.000221827
-0.000109717 0.000274378 -8.31501e-06
0.000274378 -5.51198e-05 -3.24726e-05
-8.31501e-06 -3.24726e-05 -0.000345109
0.00086216 -0.000370115 2.65298e-05
-0.000370115 0.000706911 -2.25022e-05
2.65298e-05 -2.25022e-05 0.000242812
0.00297528 -0.000153291 8.15586e-06
-0.000153291 0.00205385 -3.78671e-05
8.15586e-06 -3.78671e-05 0.00161395
-0.00036263 7.09096e-05 1.13722e-05
7.09096e-05 -0.000100019 6.5549e-06
1.13722e-05 6.5549e-06 -0.000375755
-0.000361834 3.27864e-05 3.31999e-06
3.27864e-05 0.000328017 1.76071e-05
3.31999e-06 1.76071e-05 -0.000326937
0.00182367 -0.00255805 -4.03989e-05
-0.00255805 0.00167377 -7.19101e-06
-4.03989e-05 -7.19101e-06 0.000384582
0.000230564 -3.12969e-05 -1.11562e-06
-3.12969e-05 0.00074814 -1.75725e-06
-1.11562e-06 -1.75725e-06 3.06136e-05
0.000208359 -0.00066329 -1.26233e-06
-0.00066329 0.000858145 4.82043e-06
-1.26233e-06 4.82043e-06 6.20059e-05
0.000445157 0.000268169 3.62039e-05
0.000268169 0.00068718 -4.8319e-05
3.62039e-05 -4.8319e-05 0.000158094
-0.00312784 -0.000406672 -0.000217513
-0.000406672 0.000179713 2.27519e-05
-0.000217513 2.27519e-05 -0.00104822
-0.000500553 -0.000312783 -5.85356e-05
-0.000312783 0.00114934 -1.80327e-05
-5.85356e-05 -1.80327e-05 0.000215875
-0.00386061 -0.000122597 -1.64917e-05
-0.000122597 -0.0012952 -1.21064e-05
-1.64917e-05 -1.21064e-05 -0.00209394
0.00173669 0.000796161 5.35258e-06
0.000796161 0.000106958 -1.13485e-05
5.35258e-06 -1.13485e-05 -0.00536812
-0.0013055 0.00127839 0.000239649
0.00127839 0.00532053 2.12248e-05
0.000239649 2.12248e-05 0.00149718
-0.00234671 0.000286945 0.000517528
0.000286945 0.000546618 4.9967e-05
0.000517528 4.9967e-05 -0.00491459
-0.000306999 0.00105284 1.20454e-05
0.00105284 0.000171934 2.85861e-05
1.20454e-05 2.85861e-05 -0.000683095
0.00132021 0.00190271 -5.4763e-08
0.00190271 0.00152423 -4.34729e-05
-5.4763e-08 -4.34729e-05 0.000169244
-0.0017967 0.000838855 -0.00030826
0.000838855 0.00335967 -9.21204e-05
-0.00030826 -9.21204e-05 -0.000746294
-0.00326792 0.00156384 0.000275692
0.00156384 0.0050332 0.000287892
0.000275692 0.000287892 -0.00171426
0.0074791 0.000422108 -0.000220404
0.000422108 -0.000510803 -0.000539466
-0.000220404 -0.000539466 -0.00692809
0.00762882 0.000191696 0.000118398
0.000191696 0.000227537 -6.23624e-06
0.000118398 -6.23624e-06 -0.00190338
0.00875113 -0.00155073 -0.000518534
-0.00155073 -0.00115565 0.000320963
-0.000518534 0.000320963 -0.00396279
0.000624861 0.000842886 -1.73159e-05
0.000842886 0.00104265 -3.60798e-06
-1.73159e-05 -3.60798e-06 0.00017534
0.00243745 0.000694625 9.3436e-05
0.000694625 0.00309143 5.626e-05
9.3436e-05 5.626e-05 0.000123428
0.00797487 -0.00242379 -0.00020618
-0.00242379 0.00463667 -3.93828e-05
-0.00020618 -3.93828e-05 0.00213857
-8.44754e-05 0.00126169 -0.000174237
0.00126169 0.00309365 -2.92339e-05
-0.000174237 -2.92339e-05 0.000387574
0.0260249 0.0077542 -0.00047255
0.0077542 0.0126203 -0.000580999
-0.00047255 -0.000580999 0.00429692
0.0134673 0.00391787 0.000119958
0.00391787 0.00962266 0.000488298
0.000119958 0.000488298 0.000819195
0.00777188 0.00267356 0.000116655
0.00267356 0.00828806 1.65461e-06
0.000116655 1.65461e-06 0.000450892
-2.82792e-05 6.56174e-05 3.58882e-05
6.56174e-05 0.00184267 -1.6623e-05
3.58882e-05 -1.6623e-05 3.8026e-05
0.00179394 0.000265792 -0.000360863
0.000265792 0.00748236 -9.63375e-06
-0.000360863 -9.63375e-06 0.00431295
0.000827582 -0.00119419 0.00082675
-0.00119419 0.000875959 -0.000282578
0.00082675 -0.000282578 -0.00542767
0.041419 0.0167875 -7.9067e-05
0.0167875 0.0282855 -0.000201401
-7.9067e-05 -0.000201401 0.0140385
0.0182404 0.00625193 0.000800032
0.00625193 0.00942462 0.00135386
0.000800032 0.00135386 -0.0011425
0.0119515 -0.00651273 0.000652401
-0.00651273 0.00847784 -0.000422829
0.000652401 -0.000422829 -0.000247802
0.000176558 -0.000849426 -9.68863e-05
-0.000849426 0.00382415 5.98474e-05
-9.68863e-05 5.98474e-05 0.0019576
0.000886047 0.000365937 -5.90123e-06
0.000365937 0.0011451 3.27032e-06
-5.90123e-06 3.27032e-06 0.000483712
-0.000130564 -0.000121776 -6.77515e-06
-0.000121776 0.000765636 -7.91164e-06
-6.77515e-06 -7.91164e-06 -3.0252e-05
0.000772046 -0.000817479 6.39189e-05
-0.000817479 0.00101486 -1.81596e-05
6.39189e-05 -1.81596e-05 9.23847e-05
0.000185868 -3.60152e-05 -1.71544e-06
-3.60152e-05 0.000369855 8.03682e-06
-1.71544e-06 8.03682e-06 6.00874e-05
-0.000641532 -7.80606e-05 1.54913e-05
-7.80606e-05 0.000226921 -1.47792e-05
1.54913e-05 -1.47792e-05 -0.000329664
0.00116863 -0.000464449 -7.74723e-06
-0.000464449 0.00103778 2.77714e-07
-7.74723e-06 2.77714e-07 0.000660047
0.00196888 -0.00108244 4.19838e-05
-0.00108244 0.00120389 -1.37562e-05
4.19838e-05 -1.37562e-05 0.000491386
-0.00117622 -0.000331833 3.62184e-06
-0.000331833 -0.00063569 -2.78678e-06
3.62184e-06 -2.78678e-06 -0.00120065
0.00159023 -0.000866832 2.0573e-05
-0.000866832 0.000673843 -7.39633e-06
2.0573e-05 -7.39633e-06 0.000133109
-3.53307e-05 -0.000753981 2.8258e-07
-0.000753981 -0.000110977 -5.70582e-06
2.8258e-07 -5.70582e-06 -0.00108086
0.000541804 -0.000552722 -7.80335e-06
-0.000552722 2.17901e-05 2.58917e-06
-7.80335e-06 2.58917e-06 -0.000311118
0.00216876 -0.00103128 -1.33486e-06
-0.00103128 0.000876568 -1.35674e-06
-1.33486e-06 -1.35674e-06 0.000136239
0.00192774 -0.00125659 -1.95909e-05
-0.00125659 0.000546154 1.40345e-06
-1.95909e-05 1.40345e-06 -0.000327207
0.00276159 -0.00145328 -1.57866e-05
-0.00145328 0.000810307 -1.22776e-06
-1.57866e-05 -1.22776e-06 2.07013e-05
0.00243677 -0.00134959 -6.53936e-06
-0.00134959 0.000834062 -9.43823e-07
-6.53936e-06 -9.43823e-07 4.76769e-05
0.00244605 -0.00123449 -4.91486e-06
-0.00123449 0.000901917 1.04708e-06
-4.91486e-06 1.04708e-06 0.000142987
0.00161473 -0.000870489 5.2512e-06
-0.000870489 0.000556219 -6.61725e-06
5.2512e-06 -6.61725e-06 -3.41102e-05
0.0023389 -0.00110812 1.94608e-05
-0.00110812 0.000971656 -1.0614e-05
1.94608e-05 -1.0614e-05 0.000276765
0.00191533 -0.00109983 1.05885e-05
-0.00109983 0.000601024 -4.24422e-06
1.05885e-05 -4.24422e-06 -8.1506e-05
0.00107995 -0.00044717 1.66169e-06
-0.00044717 0.000246911 -2.34083e-06
1.66169e-06 -2.34083e-06 -0.000129627
0.00201932 -0.00082077 4.56274e-06
-0.00082077 0.000835986 -4.46019e-06
4.56274e-06 -4.46019e-06 0.000298598
0.000887704 -0.000882711 -3.3395e-06
-0.000882711 6.05219e-05 -3.53439e-06
-3.3395e-06 -3.53439e-06 -0.000553045
0.000354919 2.01529e-05 2.46879e-07
2.01529e-05 6.03089e-06 -5.15166e-07
2.46879e-07 -5.15166e-07 -0.00032416
0.000643795 -0.000330877 3.30046e-07
-0.000330877 3.62236e-05 -1.55577e-07
3.30046e-07 -1.55577e-07 -0.000266714
0.000704429 -0.000475274 -9.78568e-06
-0.000475274 5.86289e-06 5.40936e-07
-9.78568e-06 5.40936e-07 -0.000362874
-2.23643e-05 -0.00021248 3.36961e-06
-0.00021248 -0.000228576 1.19474e-05
3.36961e-06 1.19474e-05 -0.000539029
0.000904537 -0.000303767 -2.51894e-07
-0.000303767 0.000456888 9.04688e-07
-2.51894e-07 9.04688e-07 6.25909e-05
-0.00165466 -0.000376712 6.90617e-08
-0.000376712 -0.00114015 7.21695e-06
6.90617e-08 7.21695e-06 -0.00153532
0.00194 -0.000426987 -6.02081e-06
-0.000426987 0.00107134 -3.74631e-06
-6.02081e-06 -3.74631e-06 0.000735
0.000861211 -0.000164855 -7.89117e-07
-0.000164855 0.00031027 5.3591e-07
-7.89117e-07 5.3591e-07 8.50177e-05
0.00020042 -1.49818e-05 1.39288e-06
-1.49818e-05 -0.000141957 1.66296e-05
1.39288e-06 1.66296e-05 -0.000222117
0.0015188 -0.000166159 -1.54033e-06
-0.000166159 0.000731172 -1.10726e-05
-1.54033e-06 -1.10726e-05 0.0005575
0.000389268 -2.1181e-05 -6.48642e-06
-2.1181e-05 -2.16144e-05 -8.62586e-07
-6.48642e-06 -8.62586e-07 -8.38195e-05
0.00353141 0.000107126 -5.22869e-05
0.000107126 0.00204236 7.1366e-06
-5.22869e-05 7.1366e-06 0.00204027
0.000550386 -5.56261e-05 3.3965e-06
-5.56261e-05 6.83384e-05 -1.04849e-05
3.3965e-06 -1.04849e-05 2.27461e-05
0.00207286 6.20085e-05 3.20083e-05
6.20085e-05 0.00107019 -5.96108e-07
3.20083e-05 -5.96108e-07 0.00106828
0.00287537 4.45617e-05 4.60614e-05
4.45617e-05 0.00159654 -6.25073e-06
4.60614e-05 -6.25073e-06 0.00160643
0.00132053 0.000207772 1.38428e-06
0.000207772 0.000678742 -1.38068e-05
1.38428e-06 -1.38068e-05 0.000444117
0.000578366 0.000104853 2.99193e-06
0.000104853 0.000142279 -7.05731e-06
2.99193e-06 -7.05731e-06 -2.71112e-06
0.00043805 9.31477e-05 -7.59957e-07
9.31477e-05 0.000108129 8.81063e-07
-7.59957e-07 8.81063e-07 -0.000108991
0.000424882 3.34223e-05 -3.80527e-07
3.34223e-05 -5.05856e-06 -9.9428e-06
-3.80527e-07 -9.9428e-06 -4.41342e-05
0.000190834 5.8637e-05 -2.61728e-06
5.8637e-05 -0.000118747 -3.56825e-06
-2.61728e-06 -3.56825e-06 -0.000240903
0.000594296 0.000100228 -1.54415e-06
0.000100228 0.000207141 -1.28961e-06
-1.54415e-06 -1.28961e-06 8.4615e-06
0.00250057 -3.25638e-05 -2.51541e-05
-3.25638e-05 0.00135402 -6.69466e-06
-2.51541e-05 -6.69466e-06 0.00136482
0.000378859 1.93392e-06 9.30252e-07
1.93392e-06 -4.16539e-05 -3.30602e-07
9.30252e-07 -3.30602e-07 -7.0632e-05
0.00014496 2.27181e-05 -2.34275e-06
2.27181e-05 -0.000152222 4.26411e-06
-2.34275e-06 4.26411e-06 -0.000259447
0.00236835 -1.50709e-05 -6.62027e-06
-1.50709e-05 0.00126548 1.5081e-07
-6.62027e-06 1.5081e-07 0.00127841
0.00040439 4.9981e-06 -5.34554e-06
4.9981e-06 -2.75411e-05 6.31164e-06
-5.34554e-06 6.31164e-06 -5.05885e-05
0.0023499 2.30448e-06 1.714e-05
2.30448e-06 0.00125404 6.3018e-06
1.714e-05 6.3018e-06 0.00126731
0.00345407 -0.000204879 -0.000259332
-0.000204879 0.00262822 -3.70544e-06
-0.000259332 -3.70544e-06 -0.000470514
-0.00213006 0.000157164 0.000223109
0.000157164 0.00558251 -3.17175e-06
0.000223109 -3.17175e-06 0.00180618
-0.000205953 -0.000521056 8.56652e-05
-0.000521056 0.00162069 -0.000302949
8.56652e-05 -0.000302949 -0.00489705
-0.000659966 -4.34071e-05 5.53907e-06
-4.34071e-05 -0.000451697 -4.71345e-06
5.53907e-06 -4.71345e-06 -0.000860019
0.00631082 0.000604009 1.93383e-05
0.000604009 0.00387465 2.22584e-05
1.93383e-05 2.22584e-05 0.00356138
0.000305683 0.000179098 -5.62355e-06
0.000179098 5.27973e-05 -4.96119e-06
-5.62355e-06 -4.96119e-06 -0.000169894
-0.000175879 8.95576e-05 8.70772e-07
8.95576e-05 -0.000261104 -3.40463e-06
8.70772e-07 -3.40463e-06 -0.000516831
-0.000302865 6.88501e-05 1.08624e-06
6.88501e-05 -0.000423525 -5.07614e-06
1.08624e-06 -5.07614e-06 -0.000566112
0.000818202 0.000175246 1.09797e-05
0.000175246 0.000366351 3.81302e-06
1.09797e-05 3.81302e-06 0.000141516
0.000184006 0.000125863 2.20336e-05
0.000125863 -6.30925e-06 -6.81534e-06
2.20336e-05 -6.81534e-06 -0.000133521
0.00583279 0.00218751 0.000249059
0.00218751 0.000706771 0.000235204
0.000249059 0.000235204 -0.00245161
0.00862378 -0.000430567 -0.00016852
-0.000430567 0.000924774 3.48797e-05
-0.00016852 3.48797e-05 -0.00266647
0.00661921 -0.00109785 0.00056806
-0.00109785 0.00585603 -0.000128327
0.00056806 -0.000128327 0.00214561
0.0115838 0.000242911 -5.3505e-05
0.000242911 -0.00345964 0.000224188
-5.3505e-05 0.000224188 -0.00334359
0.00677278 -0.00671456 -0.000149815
-0.00671456 0.000516541 2.81241e-05
-0.000149815 2.81241e-05 0.00128535
-8.16869e-05 -0.00749171 -0.000498351
-0.00749171 0.00249344 0.000212749
-0.000498351 0.000212749 -0.00488184
0.0268619 0.00450185 0.000354797
0.00450185 0.0107121 -0.000351687
0.000354797 -0.000351687 0.0030742
0.00341002 -0.00598578 -0.000121422
-0.00598578 0.00134788 7.67852e-05
-0.000121422 7.67852e-05 0.000900525
-0.000104643 -0.00207439 -0.000137226
-0.00207439 0.00629401 7.7723e-05
-0.000137226 7.7723e-05 -0.00285944
0.0155607 0.000299809 0.000452377
0.000299809 0.0060567 -4.43116e-05
0.000452377 -4.43116e-05 -0.000131616
0.0204074 -0.00197829 -6.38851e-05
-0.00197829 0.00367098 1.36337e-06
-6.38851e-05 1.36337e-06 0.00245286
-0.00613617 -0.00073681 -0.000223249
-0.00073681 -0.000317818 0.000255043
-0.000223249 0.000255043 -0.00133911
0.000803174 0.000399292 -0.000228839
0.000399292 0.0062845 -0.000218503
-0.000228839 -0.000218503 -0.00281173
0.0122669 -0.0061823 -7.53028e-05
-0.0061823 0.00437272 -0.000260707
-7.53028e-05 -0.000260707 -0.00472776
0.0229846 -0.00241385 0.000706738
-0.00241385 0.0110855 -0.000818814
0.000706738 -0.000818814 0.00541619
-0.000109437 0.000103152 4.38159e-05
0.000103152 0.000349088 -1.6904e-05
4.38159e-05 -1.6904e-05 -0.000219867
0.000398041 0.000208999 -2.6457e-06
0.000208999 0.000217059 -5.61055e-06
-2.6457e-06 -5.61055e-06 3.02868e-05
0.000337244 -4.29703e-06 6.9299e-07
-4.29703e-06 0.000164546 -1.25413e-05
6.9299e-07 -1.25413e-05 -7.14638e-05
0.000952953 0.000173826 -7.3426e-06
0.000173826 0.000430541 -1.29379e-05
-7.3426e-06 -1.29379e-05 0.000228113
0.000253046 -0.00233057 5.4835e-05
-0.00233057 0.000824191 1.7389e-05
5.4835e-05 1.7389e-05 -0.00049011
0.00136677 -0.000659899 -9.27156e-06
-0.000659899 0.00167504 -7.18475e-06
-9.27156e-06 -7.18475e-06 0.000741636
5.18178e-05 6.23497e-05 -3.9685e-05
6.23497e-05 0.000139552 -1.26895e-05
-3.9685e-05 -1.26895e-05 -0.000111836
0.00137609 -0.000357029 2.03943e-05
-0.000357029 0.00111927 -6.57206e-05
2.03943e-05 -6.57206e-05 0.00066056
0.000529687 -1.94287e-05 -1.70669e-05
-1.94287e-05 0.00100126 9.66183e-06
-1.70669e-05 9.66183e-06 0.000376381
0.000215751 0.000162887 -2.48027e-06
0.000162887 0.000443338 1.3598e-05
-2.48027e-06 1.3598e-05 -9.67521e-06
0.00114556 -0.000197301 1.69104e-06
-0.000197301 0.00135529 -1.42045e-06
1.69104e-06 -1.42045e-06 0.000687088
0.000261364 -0.00141271 5.88219e-05
-0.00141271 0.00192724 -1.75977e-05
5.88219e-05 -1.75977e-05 -1.32003e-05
0.000246259 -0.000141603 -1.57855e-05
-0.000141603 0.00151726 -1.76842e-05
-1.57855e-05 -1.76842e-05 0.00066061
0.00038503 0.000146534 2.51921e-05
0.000146534 0.000530592 -2.46393e-05
2.51921e-05 -2.46393e-05 0.000103582
-0.00160715 -3.73102e-05 -0.000285968
-3.73102e-05 0.00243588 1.63861e-05
-0.000285968 1.63861e-05 -0.000215474
0.00117351 0.00057753 2.38659e-05
0.00057753 0.00161287 -8.51688e-06
2.38659e-05 -8.51688e-06 0.000869639
-0.0044026 -0.000302385 -5.13188e-05
-0.000302385 0.00523649 -0.000133297
-5.13188e-05 -0.000133297 0.00179235
0.00295055 0.000191508 4.75905e-05
0.000191508 0.00187292 2.58677e-05
4.75905e-05 2.58677e-05 -0.0018741
-0.00463855 0.00215428 -0.000155129
0.00215428 0.0046775 -0.000114722
-0.000155129 -0.000114722 0.00026898
0.0010381 0.000709172 -6.1033e-06
0.000709172 0.00140014 -2.52805e-07
-6.1033e-06 -2.52805e-07 0.000667401
-0.00127988 0.0015896 0.000334459
0.0015896 0.00159214 0.00012221
0.000334459 0.00012221 -3.30585e-05
0.00108292 1.9557e-05 0.000102593
1.9557e-05 0.00353592 -1.01685e-05
0.000102593 -1.01685e-05 0.000750614
0.00514546 -0.00173649 0.000421899
-0.00173649 0.00627489 -0.000238159
0.000421899 -0.000238159 -0.0041825
0.0286837 0.00421194 -0.000458017
0.00421194 0.0112449 0.000331747
-0.000458017 0.000331747 0.00262147
0.00353283 -0.00104618 -0.000562061
-0.00104618 0.00404875 3.77627e-05
-0.000562061 3.77627e-05 0.000682993
0.0185685 0.00652834 -0.000582778
0.00652834 0.014179 -0.000363494
-0.000582778 -0.000363494 0.00747588
0.000633154 0.000266887 -7.05025e-05
0.000266887 0.00197403 3.51024e-06
-7.05025e-05 3.51024e-06 0.000211382
-0.00107983 -0.000898438 -0.000196505
-0.000898438 0.00539793 6.19595e-06
-0.000196505 6.19595e-06 0.00247244
0.00163554 -0.00250051 0.000288276
-0.00250051 0.00264822 -6.92701e-05
0.000288276 -6.92701e-05 -0.00356816
-0.003848 7.06419e-05 0.000103004
7.06419e-05 0.00134285 4.89698e-05
0.000103004 4.89698e-05 7.51544e-05
0.0367968 0.0202386 0.000906904
0.0202386 0.0258457 -0.000272046
0.000906904 -0.000272046 0.0105882
0.0157607 0.00373754 -9.75309e-05
0.00373754 0.0114949 0.000549975
-9.75309e-05 0.000549975 0.00154727
-0.000412886 -0.00221461 0.000384645
-0.00221461 0.00512643 -0.000246456
0.000384645 -0.000246456 -0.00452191
-0.00207879 -0.00103172 -3.78579e-05
-0.00103172 0.000986436 -5.42052e-05
-3.78579e-05 -5.42052e-05 -0.000912125
0.00205211 -0.00156423 0.000480764
-0.00156423 0.0003264 -0.000119829
0.000480764 -0.000119829 -0.00518923
0.00541402 0.00575023 -0.00295986
0.00575023 0.0150164 0.00016578
-0.00295986 0.00016578 0.00441921
0.0275071 0.0105729 -0.00048386
0.0105729 0.0131911 0.000452184
-0.00048386 0.000452184 0.00245502
0.00604803 -0.00667217 -0.000380334
-0.00667217 0.00433714 0.00019346
-0.000380334 0.00019346 3.66032e-05
0.00317444 -0.00346135 8.55279e-05
-0.00346135 0.00495742 6.35803e-05
8.55279e-05 6.35803e-05 0.00259893
-0.000152651 -0.000125513 2.09213e-05
-0.000125513 0.000680988 -1.86454e-05
2.09213e-05 -1.86454e-05 -0.000193444
0.000505789 -0.000663572 -1.29654e-05
-0.000663572 0.00099023 1.64704e-06
-1.29654e-05 1.64704e-06 3.5013e-06
-0.000103487 -0.00143934 1.10971e-05
-0.00143934 0.00028637 1.42415e-05
1.10971e-05 1.42415e-05 -0.000669213
-0.00153055 -0.000203247 4.18321e-06
-0.000203247 -0.000382348 4.27942e-06
4.18321e-06 4.27942e-06 -0.000750314
-0.000258401 -0.000667109 -9.27802e-06
-0.000667109 0.000127442 3.88415e-06
-9.27802e-06 3.88415e-06 -0.000479043
0.00196127 -0.00115007 3.86309e-05
-0.00115007 0.000833309 -1.1734e-05
3.86309e-05 -1.1734e-05 9.61583e-05
0.0059662 -0.00163506 -1.18819e-05
-0.00163506 0.00301718 1.17007e-05
-1.18819e-05 1.17007e-05 0.00234518
0.00249786 -0.00119793 1.17224e-05
-0.00119793 0.00116416 -4.09374e-06
1.17224e-05 -4.09374e-06 0.000177329
0.002786 -0.00157503 1.2242e-06
-0.00157503 0.000927672 -2.21826e-05
1.2242e-06 -2.21826e-05 -9.10478e-05
0.00214704 -0.00103356 -2.26347e-06
-0.00103356 0.000825276 -8.26795e-06
-2.26347e-06 -8.26795e-06 9.16851e-05
0.00249283 -0.00135085 1.44282e-06
-0.00135085 0.000851016 -2.8806e-06
1.44282e-06 -2.8806e-06 -5.00874e-05
0.00338359 -0.00160082 -4.6215e-06
-0.00160082 0.00115755 -1.10624e-05
-4.6215e-06 -1.10624e-05 0.000280082
0.00255465 -0.00107498 -1.67062e-06
-0.00107498 0.000420447 -5.98461e-06
-1.67062e-06 -5.98461e-06 -9.9906e-05
0.00336963 -0.00149222 -9.09215e-06
-0.00149222 0.00112331 -3.03315e-06
-9.09215e-06 -3.03315e-06 0.000356954
0.00308745 -0.00150177 -4.82374e-06
-0.00150177 0.000985799 -6.82711e-07
-4.82374e-06 -6.82711e-07 0.000180943
0.0027185 -0.00135659 1.21012e-05
-0.00135659 0.00102762 -8.88856e-06
1.21012e-05 -8.88856e-06 0.000256439
0.00202126 -0.0012585 4.60737e-06
-0.0012585 0.000601263 -1.81023e-06
4.60737e-06 -1.81023e-06 -0.000147679
0.00249281 -0.00123226 1.1543e-05
-0.00123226 0.00091074 -4.49117e-06
1.1543e-05 -4.49117e-06 0.000154338
0.00202123 -0.000943641 2.36848e-05
-0.000943641 0.000848768 -4.92187e-07
2.36848e-05 -4.92187e-07 0.000187125
0.00217259 -0.00108437 -2.62724e-06
-0.00108437 0.000867512 -2.36214e-06
-2.62724e-06 -2.36214e-06 0.000180574
0.00183917 -0.00109769 -7.18979e-06
-0.00109769 0.000560382 6.11566e-06
-7.18979e-06 6.11566e-06 -0.000121726
0.00324492 -0.000338678 6.85641e-06
-0.000338678 0.00176049 1.97625e-06
6.85641e-06 1.97625e-06 0.0014098
0.000750975 -0.000343007 -8.80182e-06
-0.000343007 0.00011007 4.06277e-06
-8.80182e-06 4.06277e-06 -0.000265948
0.00283493 -0.000906934 -1.17159e-05
-0.000906934 0.0013501 -6.83108e-06
-1.17159e-05 -6.83108e-06 0.000795341
0.000226657 -0.000201685 -6.25593e-08
-0.000201685 -0.000166369 1.64287e-06
-6.25593e-08 1.64287e-06 -0.000468702
0.00047694 -0.000162584 -2.37757e-06
-0.000162584 5.86202e-05 6.02753e-07
-2.37757e-06 6.02753e-07 -0.00026886
0.000206314 -0.00015734 8.03889e-06
-0.00015734 -0.00018734 4.14942e-06
8.03889e-06 4.14942e-06 -0.000517131
0.000264457 -9.58736e-05 -1.68635e-05
-9.58736e-05 -0.000129973 2.27447e-05
-1.68635e-05 2.27447e-05 -0.000226088
0.000819379 -0.000206566 2.49503e-06
-0.000206566 0.000284541 1.38954e-06
2.49503e-06 1.38954e-06 -5.95051e-06
0.00192514 -0.000461133 -3.69836e-06
-0.000461133 0.00109271 -3.60436e-06
-3.69836e-06 -3.60436e-06 0.00070516
0.00125769 -0.000174811 -3.43284e-06
-0.000174811 0.000554289 -1.11621e-05
-3.43284e-06 -1.11621e-05 0.00033387
0.000372598 -5.29344e-05 -8.152e-08
-5.29344e-05 -4.68308e-05 -4.56605e-07
-8.152e-08 -4.56605e-07 -0.000122084
0.00402677 0.000144978 -6.22437e-05
0.000144978 0.0023807 8.08437e-06
-6.22437e-05 8.08437e-06 0.00236845
0.000411919 -5.68927e-05 5.54508e-06
-5.68927e-05 -1.46062e-05 -1.35923e-05
5.54508e-06 -1.35923e-05 -7.23968e-05
0.00354167 0.000105181 1.07769e-05
0.000105181 0.00204914 1.04984e-06
1.07769e-05 1.04984e-06 0.00204715
0.00304297 6.77012e-05 5.30914e-05
6.77012e-05 0.00170902 -6.79988e-06
5.30914e-05 -6.79988e-06 0.00171603
0.0041014 0.000187817 1.33956e-05
0.000187817 0.00262356 -6.33602e-06
1.33956e-05 -6.33602e-06 0.00215534
0.00287133 0.000260188 1.28749e-05
0.000260188 0.00182866 -3.13855e-05
1.28749e-05 -3.13855e-05 0.00143641
0.000594591 9.54424e-05 4.97639e-06
9.54424e-05 0.0001454 -1.12399e-05
4.97639e-06 -1.12399e-05 -1.42899e-05
0.000741337 0.00018773 5.5065e-07
0.00018773 0.000310379 1.46474e-06
5.5065e-07 1.46474e-06 6.94244e-05
0.000453806 -2.49247e-05 6.71188e-06
-2.49247e-05 1.70959e-05 -1.16992e-05
6.71188e-06 -1.16992e-05 -2.9125e-05
0.000614883 0.000105199 -4.59449e-07
0.000105199 0.000168398 -3.67329e-07
-4.59449e-07 -3.67329e-07 2.34106e-05
0.000719854 0.00010725 -5.02199e-06
0.00010725 0.000286697 -4.00488e-06
-5.02199e-06 -4.00488e-06 6.90354e-05
0.0028318 -4.99849e-05 -3.70637e-05
-4.99849e-05 0.00157709 -7.31347e-06
-3.70637e-05 -7.31347e-06 0.00158473
0.000407541 1.60979e-06 -2.93943e-06
1.60979e-06 -1.77288e-05 -3.13237e-07
-2.93943e-06 -3.13237e-07 -5.52671e-05
0.000570192 9.87092e-05 -5.55798e-06
9.87092e-05 0.000137926 4.99657e-06
-5.55798e-06 4.99657e-06 1.37063e-05
0.00256065 -3.47271e-05 -6.37637e-06
-3.47271e-05 0.00139393 4.06559e-07
-6.37637e-06 4.06559e-07 0.00140431
0.000398314 -2.05475e-06 -5.41575e-06
-2.05475e-06 -3.00162e-05 7.16002e-06
-5.41575e-06 7.16002e-06 -5.80864e-05
0.00238945 -1.51243e-05 2.02296e-05
-1.51243e-05 0.00127915 6.31981e-06
2.02296e-05 6.31981e-06 0.00129195
-0.0018601 0.00142745 -7.05362e-05
0.00142745 0.00387236 -0.000171006
-7.05362e-05 -0.000171006 -0.000247354
0.00562782 -0.000500085 -5.11408e-05
-0.000500085 0.00401203 -9.02621e-05
-5.11408e-05 -9.02621e-05 0.00110399
0.000283936 -0.000599085 0.000105427
-0.000599085 0.00562242 -8.79482e-05
0.000105427 -8.79482e-05 0.00233387
0.000421968 2.32414e-05 2.39919e-06
2.32414e-05 0.000359049 -9.6748e-06
2.39919e-06 -9.6748e-06 -0.000161226
-0.000279644 0.000347429 8.08885e-06
0.000347429 -0.000264205 -1.08044e-05
8.08885e-06 -1.08044e-05 -0.000557904
-0.00145623 0.000170681 3.19637e-05
0.000170681 -0.00128057 -2.74549e-05
3.19637e-05 -2.74549e-05 -0.00143636
-0.0027431 -2.05005e-05 2.41755e-06
-2.05005e-05 -0.00155289 3.5968e-05
2.41755e-06 3.5968e-05 -0.00208012
0.00227428 0.000635425 7.05632e-06
0.000635425 0.0012611 -7.16972e-06
7.05632e-06 -7.16972e-06 0.000883841
0.000141533 8.97049e-05 -8.27e-06
8.97049e-05 -4.70864e-05 1.00285e-06
-8.27e-06 1.00285e-06 -0.000326002
0.000130208 0.000111521 -1.54663e-05
0.000111521 -0.000107151 -5.59422e-06
-1.54663e-05 -5.59422e-06 -0.000257145
0.00115671 8.68315e-06 8.84623e-06
8.68315e-06 0.000588796 1.98766e-06
8.84623e-06 1.98766e-06 0.000359224
0.00101631 0.0001979 -5.71005e-06
0.0001979 0.000509688 -8.55765e-06
-5.71005e-06 -8.55765e-06 0.000397062
0.00293566 0.000257541 -3.40201e-06
0.000257541 0.00195634 -3.05613e-05
-3.40201e-06 -3.05613e-05 0.00156648
0.0112516 0.00405913 0.00103957
0.00405913 0.00697594 0.000639256
0.00103957 0.000639256 0.00155545
0.00504067 0.00179238 2.65443e-05
0.00179238 0.00221442 7.12639e-05
2.65443e-05 7.12639e-05 -0.00134568
0.00900166 -0.000410211 0.000225417
-0.000410211 0.00064092 4.67818e-06
0.000225417 4.67818e-06 -0.00189914
0.0156117 -0.000512553 -0.000271369
-0.000512553 0.002623 -0.000132942
-0.000271369 -0.000132942 0.00357314
0.00701006 0.000760813 0.00017639
0.000760813 7.30433e-05 0.000481029
0.00017639 0.000481029 -0.0065714
0.00365689 -0.006008 -0.000144013
-0.006008 0.00207821 4.98412e-05
-0.000144013 4.98412e-05 0.00129015
0.00386573 -0.00252128 -0.000515572
-0.00252128 0.00621005 0.000151175
-0.000515572 0.000151175 -0.000578845
-0.00121794 -0.00218937 -0.000126591
-0.00218937 0.00135938 0.000160251
-0.000126591 0.000160251 -8.07972e-05
0.0123364 -0.000354531 -0.000428627
-0.000354531 0.00937987 -4.0306e-06
-0.000428627 -4.0306e-06 0.000930598
0.0099856 -0.00366659 0.000180384
-0.00366659 0.00675962 0.000289444
0.000180384 0.000289444 -0.00155397
0.031141 -0.00646913 0.000337663
-0.00646913 0.0118636 -0.00104658
0.000337663 -0.00104658 0.00302801
-0.00153007 0.000506504 -0.000261225
0.000506504 0.00261786 0.000143684
-0.000261225 0.000143684 9.94644e-05
0.00444152 0.00216197 -0.000390791
0.00216197 0.00743123 -0.000149945
-0.000390791 -0.000149945 0.000214737
0.0319593 -0.0115264 0.00105542
-0.0115264 0.0190536 -0.001233
0.00105542 -0.001233 0.00682471
0.0359687 -0.0178617 0.000127542
-0.0178617 0.0236857 -5.97161e-05
0.000127542 -5.97161e-05 0.00962633
0.000477164 0.000492593 4.79828e-05
0.000492593 0.000516481 1.46967e-05
4.79828e-05 1.46967e-05 -7.15978e-05
-0.000139157 8.49082e-05 1.47688e-05
8.49082e-05 0.000386952 4.27723e-06
1.47688e-05 4.27723e-06 -0.000226016
0.00108184 0.00019722 -3.87422e-05
0.00019722 0.00065361 -1.51792e-05
-3.87422e-05 -1.51792e-05 0.000457512
0.00198463 -0.0018714 8.83076e-05
-0.0018714 0.0025933 1.83793e-06
8.83076e-05 1.83793e-06 0.00020568
-0.00165949 -0.000184689 0.000147926
-0.000184689 0.000641418 1.59003e-05
0.000147926 1.59003e-05 -0.000323542
0.000240273 0.000170159 -3.02774e-05
0.000170159 0.000418892 1.67714e-05
-3.02774e-05 1.67714e-05 -1.26878e-05
-0.000299601 -0.000250901 -8.53028e-06
-0.000250901 0.000701281 1.1712e-06
-8.53028e-06 1.1712e-06 -0.000168378
-2.81663e-05 0.000245187 -1.27079e-05
0.000245187 0.000325135 3.37634e-06
-1.27079e-05 3.37634e-06 -0.000118139
-0.000351014 0.000429401 3.20233e-05
0.000429401 0.0005543 7.74555e-06
3.20233e-05 7.74555e-06 -0.000198126
-0.00322979 6.44715e-05 0.000202575
6.44715e-05 0.00152451 -0.000107055
0.000202575 -0.000107055 -0.000850069
0.00237961 0.00114068 7.3676e-05
0.00114068 0.00131595 6.71872e-05
7.3676e-05 6.71872e-05 0.000711271
0.00110746 0.00126782 -0.000112946
0.00126782 0.001981 -0.000141858
-0.000112946 -0.000141858 -0.000144451
-0.00015642 -0.00091729 0.000360614
-0.00091729 0.00154677 0.00013957
0.000360614 0.00013957 -0.00416643
-0.00364414 0.000895964 -0.000250243
0.000895964 0.00510984 -1.48542e-05
-0.000250243 -1.48542e-05 0.000716029
0.00604178 -0.000655006 -0.000181915
-0.000655006 0.00421531 1.42159e-05
-0.000181915 1.42159e-05 0.00229089
0.000565184 0.000814361 9.10319e-05
0.000814361 0.00157206 2.50639e-05
9.10319e-05 2.50639e-05 -0.000284945
-0.000278334 0.000451011 -8.02418e-05
0.000451011 0.00329734 0.000118809
-8.02418e-05 0.000118809 0.00084061
-0.00165353 -0.000146579 -7.70996e-05
-0.000146579 0.00420852 -9.43737e-05
-7.70996e-05 -9.43737e-05 0.000727061
0.0141043 -0.00696755 0.00054418
-0.00696755 0.0101472 -0.000324228
0.00054418 -0.000324228 0.000544626
0.0315757 0.00989974 -0.000967829
0.00989974 0.0185949 -0.000407618
-0.000967829 -0.000407618 0.0062895
0.00771312 -0.00341619 -0.000600308
-0.00341619 0.0042835 0.000365359
-0.000600308 0.000365359 -0.000759915
0.029806 0.0241909 0.00275351
0.0241909 0.02166 -0.00178963
0.00275351 -0.00178963 0.00592835
-0.000675372 -0.000917959 3.20137e-05
-0.000917959 0.00152755 -5.96805e-06
3.20137e-05 -5.96805e-06 -0.00043738
0.000506301 -0.00106491 0.000118287
-0.00106491 0.00139259 4.91209e-06
0.000118287 4.91209e-06 -0.00463996
0.0100177 0.00636012 -0.0017072
0.00636012 0.0143724 0.000101242
-0.0017072 0.000101242 0.00330478
-1.06783e-05 -0.00208751 4.9851e-05
-0.00208751 0.00248882 3.66488e-05
4.9851e-05 3.66488e-05 0.000772504
0.0311905 0.0105741 0.000617034
0.0105741 0.0147308 0.000317121
0.000617034 0.000317121 0.00379607
0.00494188 -0.0096289 0.000505651
-0.0096289 0.00325647 -0.000157717
0.000505651 -0.000157717 -0.00215173
-0.000726951 -0.00252559 3.68365e-05
-0.00252559 0.000758853 5.66843e-05
3.68365e-05 5.66843e-05 -0.00107938
0.00114726 -0.00103495 0.000207719
-0.00103495 0.0116366 -0.000149703
0.000207719 -0.000149703 0.00480675
0.0239743 0.0114632 -0.00259212
0.0114632 0.0113687 0.000153288
-0.00259212 0.000153288 0.00212476
0.00291609 -0.00869539 -0.0010639
-0.00869539 -0.00395979 0.000277511
-0.0010639 0.000277511 -0.00429867
-0.000405424 -0.00372063 0.000241799
-0.00372063 0.000110755 -0.000201363
0.000241799 -0.000201363 0.000784788
0.00120013 -0.000658505 -0.000109211
-0.000658505 0.00125218 4.02818e-05
-0.000109211 4.02818e-05 0.000286658
4.69077e-05 -0.00117412 -1.8053e-05
-0.00117412 0.000497125 1.44265e-05
-1.8053e-05 1.44265e-05 -0.00043254
-0.000339789 -0.00115249 -2.23706e-06
-0.00115249 -0.000325868 -1.43281e-05
-2.23706e-06 -1.43281e-05 -0.00103892
-0.00221484 -0.000282562 1.19356e-05
-0.000282562 -0.000780124 2.19667e-06
1.19356e-05 2.19667e-06 -0.00129461
0.000576297 -0.000975231 4.46703e-06
-0.000975231 0.000101396 -6.06412e-06
4.46703e-06 -6.06412e-06 -0.000559629
0.003507 -0.00173031 9.65689e-07
-0.00173031 0.0010249 -2.92815e-06
9.65689e-07 -2.92815e-06 0.000375128
0.00518327 -0.00164659 -3.1996e-05
-0.00164659 0.00255486 9.01169e-06
-3.1996e-05 9.01169e-06 0.00154566
0.00229058 -0.00144497 -3.40549e-06
-0.00144497 0.000646324 -1.91928e-06
-3.40549e-06 -1.91928e-06 -0.000310881
0.00354934 -0.00174755 4.25788e-06
-0.00174755 0.000984062 -1.1398e-05
4.25788e-06 -1.1398e-05 0.000195132
0.00307087 -0.00144133 7.71703e-06
-0.00144133 0.00117006 1.83472e-06
7.71703e-06 1.83472e-06 0.000242888
0.00298882 -0.00153062 3.56166e-06
-0.00153062 0.000937318 -4.06791e-06
3.56166e-06 -4.06791e-06 9.06994e-05
0.00307651 -0.0012093 3.58446e-07
-0.0012093 0.000677788 -6.31748e-06
3.58446e-07 -6.31748e-06 0.000146031
0.00217938 -0.000706565 -8.00037e-07
-0.000706565 2.87612e-05 -1.47622e-06
-8.00037e-07 -1.47622e-06 -0.000214593
0.00229084 -0.00105126 9.1826e-07
-0.00105126 0.000200687 -4.00815e-06
9.1826e-07 -4.00815e-06 -0.00031633
0.00260924 -0.00109455 4.46584e-06
-0.00109455 0.000432203 -1.57801e-06
4.46584e-06 -1.57801e-06 -9.19327e-05
0.00324731 -0.00133791 -1.53076e-06
-0.00133791 0.0011062 -4.69785e-06
-1.53076e-06 -4.69785e-06 0.000415031
0.00331077 -0.00148954 -4.71e-06
-0.00148954 0.00109387 -6.01048e-07
-4.71e-06 -6.01048e-07 0.000321198
0.00319394 -0.00152299 1.0714e-05
-0.00152299 0.0010342 -3.91029e-06
1.0714e-05 -3.91029e-06 0.000219638
0.00226341 -0.00118495 4.80794e-06
-0.00118495 0.000774967 -1.39584e-05
4.80794e-06 -1.39584e-05 4.53868e-05
0.00228425 -0.00129801 2.16666e-06
-0.00129801 0.000778873 -1.01075e-06
2.16666e-06 -1.01075e-06 2.2455e-05
0.00175537 -0.00119695 3.92858e-06
-0.00119695 0.000458173 2.40377e-06
3.92858e-06 2.40377e-06 -0.000263143
0.00413543 -0.000754178 9.25814e-06
-0.000754178 0.00226987 1.39075e-05
9.25814e-06 1.39075e-05 0.00177131
0.00106703 -0.000819043 3.18066e-06
-0.000819043 0.000293355 5.24134e-06
3.18066e-06 5.24134e-06 -0.000335446
0.00208297 -0.00106324 -1.8955e-05
-0.00106324 0.000802186 1.15048e-05
-1.8955e-05 1.15048e-05 0.000126
0.00140026 -0.000319631 5.09766e-06
-0.000319631 0.000532143 -5.73913e-06
5.09766e-06 -5.73913e-06 0.00026611
0.000602865 -0.000317595 -1.01937e-06
-0.000317595 0.00011018 -7.09957e-06
-1.01937e-06 -7.09957e-06 -0.000248192
0.000737769 -0.000244405 -5.37332e-06
-0.000244405 0.00014941 -2.28617e-06
-5.37332e-06 -2.28617e-06 -0.00021887
0.00283969 -0.000112217 -0.000106032
-0.000112217 0.00152939 1.5437e-05
-0.000106032 1.5437e-05 0.00144157
0.000410467 -0.000193157 -3.15565e-06
-0.000193157 -4.60985e-05 1.33113e-06
-3.15565e-06 1.33113e-06 -0.000346274
0.00110039 -0.00033204 -4.68179e-06
-0.00033204 0.000448102 -9.33157e-07
-4.68179e-06 -9.33157e-07 0.000108566
0.00142936 1.13003e-05 -0.000102795
1.13003e-05 0.000653948 1.09017e-05
-0.000102795 1.09017e-05 0.000630918
0.0013133 -7.4681e-05 -3.04325e-05
-7.4681e-05 0.000570022 -9.89479e-07
-3.04325e-05 -9.89479e-07 0.000465305
0.00195433 -0.000250611 7.43925e-07
-0.000250611 0.000973128 -9.14851e-06
7.43925e-07 -9.14851e-06 0.000709525
0.000736025 -7.27588e-05 1.27364e-05
-7.27588e-05 0.000179723 -1.58523e-05
1.27364e-05 -1.58523e-05 0.000103079
0.00422752 0.000134323 1.33684e-05
0.000134323 0.00251001 1.06015e-06
1.33684e-05 1.06015e-06 0.00250125
0.00391547 0.000101128 7.56663e-05
0.000101128 0.00229446 -7.61637e-06
7.56663e-05 -7.61637e-06 0.00229333
-0.0021093 7.22718e-05 3.30823e-06
7.22718e-05 -0.001565 1.23036e-05
3.30823e-06 1.23036e-05 -0.0018798
0.00252921 0.000365208 6.38688e-06
0.000365208 0.00162325 -2.41408e-05
6.38688e-06 -2.41408e-05 0.00116744
-0.000935491 9.18865e-05 4.44323e-06
9.18865e-05 -0.00058767 -1.50922e-07
4.44323e-06 -1.50922e-07 -0.00103768
0.000798031 0.000134364 -7.37392e-07
0.000134364 0.000283472 -1.27126e-05
-7.37392e-07 -1.27126e-05 8.87585e-05
0.000459855 0.000201105 6.02384e-06
0.000201105 0.000209253 -9.05121e-07
6.02384e-06 -9.05121e-07 -0.000135904
0.000313271 2.39728e-05 -4.49665e-06
2.39728e-05 -5.54366e-05 -1.48298e-05
-4.49665e-06 -1.48298e-05 -0.000115101
0.000527384 9.47422e-05 6.14475e-07
9.47422e-05 0.000113685 5.39276e-07
6.14475e-07 5.39276e-07 -5.45108e-05
0.000687406 0.000135852 -4.12406e-06
0.000135852 0.000303875 1.10671e-05
-4.12406e-06 1.10671e-05 4.73946e-05
0.00308243 -6.94174e-05 -4.91263e-05
-6.94174e-05 0.00174882 -7.70646e-06
-4.91263e-05 -7.70646e-06 0.00175335
0.00034553 1.31375e-05 -7.14887e-07
1.31375e-05 -4.91803e-05 5.17417e-09
-7.14887e-07 5.17417e-09 -9.64047e-05
0.000353707 9.15621e-05 -2.82911e-06
9.15621e-05 -3.86445e-06 8.33673e-06
-2.82911e-06 8.33673e-06 -0.00014436
0.00270348 -5.44862e-05 -9.00606e-06
-5.44862e-05 0.00149236 5.89132e-07
-9.00606e-06 5.89132e-07 0.00149938
0.000301859 -2.35938e-05 -8.93535e-06
-2.35938e-05 -8.66384e-05 9.03698e-06
-8.93535e-06 9.03698e-06 -0.000123066
0.00246192 -3.28195e-05 2.46586e-05
-3.28195e-05 0.00132874 6.49897e-06
2.46586e-05 6.49897e-06 0.00133986
0.00655767 0.00189146 0.000716255
0.00189146 0.00588742 0.000177037
0.000716255 0.000177037 0.00146662
-0.00180864 0.00135007 -3.42347e-05
0.00135007 0.00330705 -1.24272e-05
-3.42347e-05 -1.24272e-05 -0.00105718
0.000589563 0.00172892 -1.66075e-06
0.00172892 0.00409935 -2.75152e-05
-1.66075e-06 -2.75152e-05 0.000307876
-2.97106e-05 0.00041539 -1.87955e-05
0.00041539 -0.000218 6.95911e-06
-1.87955e-05 6.95911e-06 -0.0006185
-0.00107274 9.98882e-06 -1.88547e-05
9.98882e-06 -0.000701796 3.04008e-05
-1.88547e-05 3.04008e-05 -0.00115294
-0.00138601 8.33178e-05 -2.59864e-05
8.33178e-05 -0.000993364 -1.71938e-05
-2.59864e-05 -1.71938e-05 -0.0011807
0.00237914 0.000170515 1.13946e-05
0.000170515 0.00148916 -2.04875e-07
1.13946e-05 -2.04875e-07 0.00114019
0.000547557 0.000330764 3.13612e-06
0.000330764 -4.0009e-05 -9.19155e-06
3.13612e-06 -9.19155e-06 -0.000228129
0.000923368 0.00049737 -2.3252e-05
0.00049737 0.000411487 -9.15072e-06
-2.3252e-05 -9.15072e-06 0.0001969
0.00138827 0.000508221 2.15509e-05
0.000508221 0.00057945 -4.22562e-05
2.15509e-05 -4.22562e-05 0.000184248
-0.00197293 0.00014406 -2.27318e-05
0.00014406 -0.000900718 9.31402e-06
-2.27318e-05 9.31402e-06 -0.00132278
-0.00061332 2.46644e-05 -6.21297e-06
2.46644e-05 -0.000462562 -1.07998e-05
-6.21297e-06 -1.07998e-05 -0.000725188
-0.00110149 3.75167e-05 -1.68399e-05
3.75167e-05 -0.000943988 5.25372e-06
-1.68399e-05 5.25372e-06 -0.000976708
-0.000588629 5.6483e-05 -7.75461e-06
5.6483e-05 -0.000158758 3.48317e-06
-7.75461e-06 3.48317e-06 -0.000582697
-0.000284083 0.000411164 -4.36965e-06
0.000411164 0.000182771 2.23695e-05
-4.36965e-06 2.23695e-05 -0.000554482
0.013941 -0.0108214 -0.000280419
-0.0108214 0.0148758 0.000222887
-0.000280419 0.000222887 0.00110741
0.0110458 0.00452016 0.000328374
0.00452016 0.00486013 0.000211241
0.000328374 0.000211241 -0.00150031
0.00521457 0.00106035 0.000155502
0.00106035 0.00329345 -6.26116e-05
0.000155502 -6.26116e-05 -0.000691273
0.043618 -0.0109948 -0.00167187
-0.0109948 0.0162652 -0.000504009
-0.00167187 -0.000504009 0.0057072
0.00694059 -0.00116846 0.000341135
-0.00116846 0.00607929 0.000637706
0.000341135 0.000637706 -1.59038e-05
0.00177138 -0.000570115 -0.000266236
-0.000570115 0.0062637 0.000194594
-0.000266236 0.000194594 -0.00287708
-0.000330971 -0.00268956 -4.1614e-05
-0.00268956 0.00247151 0.000111708
-4.1614e-05 0.000111708 0.000159499
-0.0011275 -0.000304189 0.000222566
-0.000304189 0.00256912 3.77848e-05
0.000222566 3.77848e-05 0.000729765
0.035448 -0.0209186 0.00042511
-0.0209186 0.0233347 0.000559592
0.00042511 0.000559592 0.0081417
0.00338888 0.00279046 -0.000254434
0.00279046 0.0064988 -0.000155137
-0.000254434 -0.000155137 -0.00194042
0.0151197 -0.00641739 -0.000143129
-0.00641739 0.0126515 0.000211761
-0.000143129 0.000211761 0.00074651
-0.000526198 0.00144632 1.06402e-05
0.00144632 0.00204575 -1.16358e-05
1.06402e-05 -1.16358e-05 0.000483792
0.0054758 0.00727337 -0.000296087
0.00727337 0.00328637 5.31125e-06
-0.000296087 5.31125e-06 -0.00124549
0.0289593 -0.010197 -0.00119809
-0.010197 0.0137737 -0.000210397
-0.00119809 -0.000210397 0.00250933
0.00191024 0.0010749 1.80405e-05
0.0010749 0.000834454 3.69681e-05
1.80405e-05 3.69681e-05 0.000508915
0.000429633 0.000478001 7.59424e-06
0.000478001 0.000563356 3.14279e-06
7.59424e-06 3.14279e-06 -0.00010736
-0.000659916 4.22696e-05 -5.89418e-05
4.22696e-05 0.000101603 1.05737e-05
-5.89418e-05 1.05737e-05 -0.000545345
-0.00173839 -0.000336054 -0.000155295
-0.000336054 0.00226967 -3.33504e-05
-0.000155295 -3.33504e-05 5.37006e-05
0.00182145 0.000557689 -6.30985e-05
0.000557689 0.00122846 1.94706e-07
-6.30985e-05 1.94706e-07 0.000657346
-0.000136511 0.000274924 -1.59553e-05
0.000274924 0.000257371 1.10806e-05
-1.59553e-05 1.10806e-05 -0.000225741
0.00126163 0.000956789 -3.33851e-06
0.000956789 0.000688838 -2.60897e-06
-3.33851e-06 -2.60897e-06 0.000126128
0.000107211 0.00123817 -4.12669e-05
0.00123817 0.0014967 -6.83661e-05
-4.12669e-05 -6.83661e-05 -0.00039407
0.00309229 0.00304379 0.000126848
0.00304379 0.0014906 4.40531e-05
0.000126848 4.40531e-05 -0.000169538
-0.00682353 0.00119991 0.000690373
0.00119991 0.00670892 -5.93884e-05
0.000690373 -5.93884e-05 -0.00300195
0.00146537 -0.00108902 -5.24019e-05
-0.00108902 0.00273152 0.000103516
-5.24019e-05 0.000103516 -0.00136266
-0.00272176 0.000287369 -6.61911e-05
0.000287369 0.00414454 0.000130685
-6.61911e-05 0.000130685 -8.48867e-05
-0.00169058 -0.00056963 -6.9438e-05
-0.00056963 0.000964005 7.54424e-06
-6.9438e-05 7.54424e-06 -0.00100261
-0.00153603 -0.00138922 -3.21622e-05
-0.00138922 0.00113338 1.5075e-05
-3.21622e-05 1.5075e-05 0.000525133
-0.00270442 -0.00179915 -0.000305501
-0.00179915 0.00144396 0.000210456
-0.000305501 0.000210456 -0.00482659
-0.00131749 -0.00744307 0.000413247
-0.00744307 0.003354 -0.000257311
0.000413247 -0.000257311 -0.00477798
0.0223309 0.00859528 0.00111005
0.00859528 0.00923932 -0.000283773
0.00111005 -0.000283773 -0.000942367
0.0251479 0.0122051 -0.00033302
0.0122051 0.0170054 0.000673059
-0.00033302 0.000673059 0.00317906
0.000411126 -0.00187363 -4.83657e-05
-0.00187363 0.0018834 1.50374e-05
-4.83657e-05 1.50374e-05 0.000171585
0.00717632 0.00346249 0.000486267
0.00346249 0.0142401 -7.80418e-05
0.000486267 -7.80418e-05 0.00480692
0.00943684 0.00775007 5.73681e-05
0.00775007 0.00438032 0.000121776
5.73681e-05 0.000121776 -0.00276006
0.00236511 -0.00582483 7.80418e-05
-0.00582483 0.00105212 -5.90023e-05
7.80418e-05 -5.90023e-05 0.00062718
0.0121278 -0.00931685 -7.35594e-08
-0.00931685 -0.00094202 2.15796e-05
-7.35594e-08 2.15796e-05 -0.00157222
0.00252416 -0.0030559 3.98873e-05
-0.0030559 0.00120798 6.74426e-06
3.98873e-05 6.74426e-06 0.000385212
-0.00229387 0.00447434 -0.00168767
0.00447434 0.00182751 0.000152721
-0.00168767 0.000152721 -0.00614121
0.0154093 -0.00602684 -0.000481874
-0.00602684 -0.00251528 7.9709e-05
-0.000481874 7.9709e-05 -0.00153877
0.00494701 -0.00583636 0.00012039
-0.00583636 -0.000699161 -0.000101983
0.00012039 -0.000101983 0.00101558
0.000313148 -0.000912864 -1.40829e-05
-0.000912864 0.000785861 -6.23917e-06
-1.40829e-05 -6.23917e-06 -0.000156961
0.00236216 -0.00178403 3.57425e-05
-0.00178403 0.000904731 -1.67584e-05
3.57425e-05 -1.67584e-05 0.000161865
0.00241849 -0.00150881 2.61547e-06
-0.00150881 0.00043285 -1.38346e-05
2.61547e-06 -1.38346e-05 -0.000115347
-0.000152703 -0.000927252 -3.73364e-06
-0.000927252 -0.000302596 3.79733e-06
-3.73364e-06 3.79733e-06 -0.000908951
0.00242567 -0.00162096 -5.77741e-06
-0.00162096 0.000469784 1.40777e-06
-5.77741e-06 1.40777e-06 -0.000167041
0.00392792 -0.00174504 -1.38135e-06
-0.00174504 0.0010088 -4.05014e-06
-1.38135e-06 -4.05014e-06 0.000413483
0.00177112 -0.00132611 -1.15761e-06
-0.00132611 0.000339344 1.14588e-05
-1.15761e-06 1.14588e-05 -0.000561404
0.00295516 -0.0016619 -9.5354e-07
-0.0016619 0.000665819 4.28707e-06
-9.5354e-07 4.28707e-06 -0.000106805
0.00311943 -0.00130597 -4.20688e-07
-0.00130597 0.000478518 -3.20208e-06
-4.20688e-07 -3.20208e-06 6.04966e-05
0.00234824 -0.00142559 6.1677e-06
-0.00142559 0.000579831 4.04335e-06
6.1677e-06 4.04335e-06 -0.000229306
0.00263146 -0.00113924 -2.69326e-06
-0.00113924 0.000422365 3.26366e-06
-2.69326e-06 3.26366e-06 -8.5348e-05
0.00249878 -0.000806013 7.90441e-07
-0.000806013 9.58757e-05 -8.14007e-07
7.90441e-07 -8.14007e-07 -9.82001e-05
0.00251529 -0.000767719 -2.81125e-06
-0.000767719 0.000230535 4.80374e-07
-2.81125e-06 4.80374e-07 5.30949e-05
0.00203836 -0.000700472 -3.7523e-06
-0.000700472 -1.60251e-05 -1.27383e-06
-3.7523e-06 -1.27383e-06 -0.000286714
0.00219353 -0.000703542 9.493e-07
-0.000703542 2.3565e-05 2.69323e-06
9.493e-07 2.69323e-06 -0.000216399
0.00211657 -0.000908547 -3.8611e-06
-0.000908547 0.000160857 -5.59248e-06
-3.8611e-06 -5.59248e-06 -0.000291206
0.0023919 -0.00104797 4.18017e-06
-0.00104797 0.000293029 6.44475e-07
4.18017e-06 6.44475e-07 -0.000216848
0.00265866 -0.00110641 3.56354e-06
-0.00110641 0.000449791 5.07558e-06
3.56354e-06 5.07558e-06 -7.48633e-05
0.00258904 -0.00117323 -3.16244e-06
-0.00117323 0.000718379 -6.92939e-06
-3.16244e-06 -6.92939e-06 7.01468e-05
0.002882 -0.00130093 1.24699e-06
-0.00130093 0.000874964 -9.28204e-07
1.24699e-06 -9.28204e-07 0.000188281
0.00323117 -0.00147871 1.14863e-06
-0.00147871 0.00105592 8.34203e-08
1.14863e-06 8.34203e-08 0.000279922
0.00185138 -0.000846797 -1.00371e-05
-0.000846797 0.00053521 -3.12517e-06
-1.00371e-05 -3.12517e-06 -5.56187e-05
0.00249853 -0.00120766 1.16301e-06
-0.00120766 0.000927 -4.40536e-07
1.16301e-06 -4.40536e-07 0.000192656
0.0018148 -0.00123447 -9.45653e-07
-0.00123447 0.000512826 6.77616e-06
-9.45653e-07 6.77616e-06 -0.000228171
0.000682291 -0.000419584 -1.36651e-05
-0.000419584 -4.03069e-05 -2.45064e-06
-1.36651e-05 -2.45064e-06 -0.000275821
0.00149985 -0.000737142 3.90149e-06
-0.000737142 0.000584591 2.1554e-06
3.90149e-06 2.1554e-06 8.9636e-05
-8.8529e-05 -0.000690794 -9.47615e-06
-0.000690794 -0.000376566 1.15396e-05
-9.47615e-06 1.15396e-05 -0.000978534
0.000428931 -0.000171624 -3.01827e-05
-0.000171624 -8.51473e-05 1.47307e-05
-3.01827e-05 1.47307e-05 -0.00020273
0.00085112 -0.000422543 4.12781e-06
-0.000422543 0.000246705 1.58302e-07
4.12781e-06 1.58302e-07 -6.78121e-05
-0.00231552 -0.000344021 -5.72519e-06
-0.000344021 -0.00175858 -9.88866e-06
-5.72519e-06 -9.88866e-06 -0.00210586
0.0062822 0.000412119 4.08052e-05
0.000412119 0.00396657 1.43379e-05
4.08052e-05 1.43379e-05 0.00387013
0.000537087 -0.000160657 6.92348e-06
-0.000160657 3.24452e-06 2.00793e-06
6.92348e-06 2.00793e-06 -0.00011616
0.000502847 -0.00014858 -5.03628e-06
-0.00014858 -9.86774e-06 1.4414e-07
-5.03628e-06 1.4414e-07 -0.000298693
0.00446447 0.000158809 2.09173e-05
0.000158809 0.00267845 1.06201e-06
2.09173e-05 1.06201e-06 0.00266253
0.000562108 -9.75796e-05 1.00616e-05
-9.75796e-05 7.46979e-05 -1.82743e-05
1.00616e-05 -1.82743e-05 -4.77338e-05
0.00402354 0.00011946 8.28143e-05
0.00011946 0.00236952 -1.02675e-05
8.28143e-05 -1.02675e-05 0.00236419
0.00256333 0.00051592 -1.2614e-06
0.00051592 0.00125655 1.08609e-05
-1.2614e-06 1.08609e-05 0.000908448
5.52595e-05 0.000214576 4.42518e-06
0.000214576 -0.000239874 1.19502e-06
4.42518e-06 1.19502e-06 -0.000543297
0.00143964 0.000773001 -5.02349e-06
0.000773001 0.000819541 -4.03802e-06
-5.02349e-06 -4.03802e-06 0.000381866
0.001592 0.000308332 -3.61912e-06
0.000308332 0.000770595 -1.15205e-05
-3.61912e-06 -1.15205e-05 0.000545722
0.0012895 0.000200713 -3.70866e-07
0.000200713 0.00084451 9.7236e-07
-3.70866e-07 9.7236e-07 0.000365527
-0.00111108 0.000123049 -2.59747e-06
0.000123049 -0.000629429 5.15726e-06
-2.59747e-06 5.15726e-06 -0.00111324
0.000608981 1.54459e-05 -5.342e-06
1.54459e-05 0.000140596 -1.62546e-05
-5.342e-06 -1.62546e-05 6.50532e-05
0.000582165 0.000123667 5.24248e-07
0.000123667 0.000141071 8.76139e-07
5.24248e-07 8.76139e-07 -4.59083e-05
-0.000655572 5.77607e-05 -9.06395e-06
5.77607e-05 -0.00058554 3.1173e-05
-9.06395e-06 3.1173e-05 -0.000879418
0.00363793 -9.35319e-05 -6.70414e-05
-9.35319e-05 0.00212491 -8.69397e-06
-6.70414e-05 -8.69397e-06 0.00212493
0.000404886 -3.16326e-05 9.86561e-07
-3.16326e-05 3.71233e-06 -4.84844e-07
9.86561e-07 -4.84844e-07 -5.6205e-05
0.000620954 9.08218e-05 -3.53336e-06
9.08218e-05 0.000185546 1.07868e-05
-3.53336e-06 1.07868e-05 1.13418e-05
0.00309388 -7.66583e-05 -1.0549e-05
-7.66583e-05 0.00175764 8.71429e-07
-1.0549e-05 8.71429e-07 0.00176011
0.000402183 3.25864e-05 4.0789e-07
3.25864e-05 -1.38593e-05 1.11796e-05
4.0789e-07 1.11796e-05 -5.96339e-05
0.00271364 -5.66421e-05 2.50208e-05
-5.66421e-05 0.00149906 6.89142e-06
2.50208e-05 6.89142e-06 0.0015057
-0.00308778 -0.00062356 -0.000618757
-0.00062356 0.00714542 0.000103597
-0.000618757 0.000103597 -0.00264138
0.00674037 0.0016702 0.000107272
0.0016702 0.00487441 6.28115e-06
0.000107272 6.28115e-06 0.000782615
-0.000686838 0.00150263 0.000298067
0.00150263 0.00327706 0.00012616
0.000298067 0.00012616 -0.00114242
0.000583948 0.000379281 -1.14594e-05
0.000379281 0.000231273 8.51051e-06
-1.14594e-05 8.51051e-06 -0.000256722
0.00428172 0.0012486 1.33332e-05
0.0012486 0.00237305 3.43381e-05
1.33332e-05 3.43381e-05 0.00167498
0.000909081 0.000367141 -2.18705e-05
0.000367141 0.00082029 3.69292e-06
-2.18705e-05 3.69292e-06 7.53834e-05
0.00039157 0.000234557 -1.32403e-05
0.000234557 0.000289146 -1.82379e-05
-1.32403e-05 -1.82379e-05 -9.95695e-05
0.00364371 0.000605854 -5.15035e-06
0.000605854 0.0018814 -5.3988e-06
-5.15035e-06 -5.3988e-06 0.00162438
-0.00258285 0.000111446 -9.769e-06
0.000111446 -0.00181363 2.18478e-05
-9.769e-06 2.18478e-05 -0.00183942
-0.000683721 0.00028437 -4.97681e-07
0.00028437 -0.000283262 1.03601e-05
-4.97681e-07 1.03601e-05 -0.000684294
0.000990979 0.000380715 -1.44144e-05
0.000380715 0.000533939 -1.2504e-06
-1.44144e-05 -1.2504e-06 7.81803e-05
0.00128995 0.000989467 -2.74094e-05
0.000989467 0.000780373 -7.52022e-06
-2.74094e-05 -7.52022e-06 9.01073e-05
-0.00151257 0.000762541 -5.40884e-05
0.000762541 -0.00119244 8.32807e-05
-5.40884e-05 8.32807e-05 -0.00147291
-0.000773563 9.19451e-05 -1.41987e-05
9.19451e-05 -0.000361092 1.80135e-05
-1.41987e-05 1.80135e-05 -0.00074792
0.00168962 0.000748966 2.74758e-05
0.000748966 0.00123009 -2.3447e-06
2.74758e-05 -2.3447e-06 0.000599709
0.00780167 -0.00649804 -0.00365596
-0.00649804 0.00530781 0.000121544
-0.00365596 0.000121544 -0.00357017
0.00683323 -0.00839675 0.0011692
-0.00839675 0.0153026 -3.52489e-06
0.0011692 -3.52489e-06 0.00323203
0.0112518 0.00516256 -0.00136285
0.00516256 0.00404425 -0.000389831
-0.00136285 -0.000389831 -0.00315525
0.0310975 -0.0238709 0.00278645
-0.0238709 0.0225625 0.00173764
0.00278645 0.00173764 0.00661136
0.0330676 -0.00619492 -0.000274795
-0.00619492 0.0154624 0.000635111
-0.000274795 0.000635111 0.00567693
-0.000868952 0.0021442 -0.000195295
0.0021442 0.00494694 -0.000256869
-0.000195295 -0.000256869 -0.0023663
-0.000308349 -0.000140516 -0.000195062
-0.000140516 0.00411688 3.73349e-05
-0.000195062 3.73349e-05 0.00157118
0.000378555 0.00156746 6.99868e-05
0.00156746 0.00285517 5.78774e-05
6.99868e-05 5.78774e-05 0.00133055
0.0314631 -0.0091067 -0.00106461
-0.0091067 0.0151882 0.000266484
-0.00106461 0.000266484 0.00418885
-0.00111664 0.00723454 -0.000394257
0.00723454 0.00140496 -4.94791e-05
-0.000394257 -4.94791e-05 -0.00384257
0.00276135 0.00462349 3.36238e-05
0.00462349 0.00134377 -0.000121216
3.36238e-05 -0.000121216 0.00141763
0.00741971 0.0121052 -0.00117873
0.0121052 -0.00323626 -0.000123617
-0.00117873 -0.000123617 -0.00384983
0.00422535 0.00201225 4.0484e-05
0.00201225 0.00183685 1.35244e-05
4.0484e-05 1.35244e-05 0.00117341
0.00159486 0.000995205 -8.18826e-06
0.000995205 0.000604752 -5.22807e-06
-8.18826e-06 -5.22807e-06 0.00034738
-2.08251e-05 0.000387636 -5.36869e-05
0.000387636 0.000291748 -1.29515e-05
-5.36869e-05 -1.29515e-05 -0.000362469
-0.000231942 0.00127166 -0.000163178
0.00127166 0.00148119 -8.74861e-05
-0.000163178 -8.74861e-05 -0.000197887
0.00102099 0.00102043 -8.06021e-05
0.00102043 0.000546536 -6.69673e-05
-8.06021e-05 -6.69673e-05 1.50028e-05
0.00323761 0.00309167 2.11371e-06
0.00309167 0.00138467 -1.53099e-05
2.11371e-06 -1.53099e-05 -0.00018047
-0.000899033 0.00314087 0.000166911
0.00314087 -0.00196787 0.00011202
0.000166911 0.00011202 -0.00254541
-0.00715188 -0.000790759 -0.00144256
-0.000790759 0.000154607 7.0348e-05
-0.00144256 7.0348e-05 -0.00580386
-0.0103503 0.000610311 0.000999157
0.000610311 0.00715054 -2.14193e-05
0.000999157 -2.14193e-05 -0.000587905
0.00157259 0.000525672 -0.000278177
0.000525672 0.00270597 4.20204e-05
-0.000278177 4.20204e-05 -0.000214524
0.00106675 -0.00213098 -0.000117335
-0.00213098 0.00161214 -7.52546e-05
-0.000117335 -7.52546e-05 -8.35752e-05
0.000625134 -0.00487808 0.0002143
-0.00487808 0.000676952 4.14571e-05
0.0002143 4.14571e-05 8.80098e-05
0.00380211 0.00357472 0.00078007
0.00357472 0.0133585 0.000196271
0.00078007 0.000196271 0.00386008
0.0059518 -0.00929295 0.00122167
-0.00929295 -0.00404435 -0.000153806
0.00122167 -0.000153806 -0.00315668
0.0237228 0.00784115 0.00236132
0.00784115 0.0145256 0.000169288
0.00236132 0.000169288 0.00608373
0.00349108 -0.00391988 -2.25605e-05
-0.00391988 0.0013466 -5.56207e-06
-2.25605e-05 -5.56207e-06 9.31335e-05
0.00752612 0.00538712 0.0005653
0.00538712 0.00517869 -0.000171687
0.0005653 -0.000171687 -0.00240683
0.00823544 -0.00597552 -0.000357274
-0.00597552 -0.00720994 0.000225895
-0.000357274 0.000225895 -0.00597192
0.00281565 -0.00512218 -5.48217e-05
-0.00512218 -0.00161116 6.24114e-05
-5.48217e-05 6.24114e-05 0.000604097
0.00294502 -0.00291582 4.66265e-05
-0.00291582 -0.000133636 -2.58425e-05
4.66265e-05 -2.58425e-05 -0.000129998
0.0189165 -0.00154981 -0.000130659
-0.00154981 0.000321186 0.000150973
-0.000130659 0.000150973 0.00120932
0.00332837 -0.0037054 0.000145351
-0.0037054 -0.00488721 -0.000174099
0.000145351 -0.000174099 -0.00118671
0.0033834 -0.00214303 -8.15565e-05
-0.00214303 0.00134803 4.80173e-05
-8.15565e-05 4.80173e-05 0.000635292
0.000570186 -0.00125413 -1.60978e-05
-0.00125413 -0.000555744 2.23075e-06
-1.60978e-05 2.23075e-06 -0.000916268
0.00583991 -0.00174306 5.4873e-05
-0.00174306 0.00191643 -2.77537e-05
5.4873e-05 -2.77537e-05 0.00154854
0.000891463 -0.00141616 -8.32921e-06
-0.00141616 -0.000308986 3.01653e-06
-8.32921e-06 3.01653e-06 -0.000917185
0.00309566 -0.00162465 1.06557e-06
-0.00162465 0.000592699 -1.76951e-06
1.06557e-06 -1.76951e-06 3.61521e-05
0.00329895 -0.00128568 -2.26376e-07
-0.00128568 0.000396703 -3.03458e-06
-2.26376e-07 -3.03458e-06 0.000208977
0.00257561 -0.00160455 9.25113e-06
-0.00160455 0.000464256 1.25936e-05
9.25113e-06 1.25936e-05 -0.000297943
0.00289181 -0.00126173 -4.11413e-06
-0.00126173 0.000355279 1.96914e-06
-4.11413e-06 1.96914e-06 -3.98186e-05
0.00266146 -0.000868708 -4.82901e-07
-0.000868708 6.65814e-06 -9.57796e-07
-4.82901e-07 -9.57796e-07 -2.44644e-05
0.00222154 -0.00107805 5.77333e-06
-0.00107805 0.000182189 6.82725e-06
5.77333e-06 6.82725e-06 -0.000304736
0.00240628 -0.000789728 -8.08144e-08
-0.000789728 3.48568e-05 2.48132e-06
-8.08144e-08 2.48132e-06 -0.00014737
0.00257466 -0.000837961 -1.97787e-06
-0.000837961 8.57299e-05 7.74416e-07
-1.97787e-06 7.74416e-07 -4.32291e-06
0.00250076 -0.000804696 -4.08649e-06
-0.000804696 0.000131717 -5.23774e-08
-4.08649e-06 -5.23774e-08 -9.20307e-06
0.00245565 -0.000765107 -3.69142e-06
-0.000765107 0.000179934 2.03212e-06
-3.69142e-06 2.03212e-06 1.12907e-05
0.00248073 -0.000733383 -7.32866e-07
-0.000733383 0.000292295 -1.78922e-06
-7.32866e-07 -1.78922e-06 8.11983e-05
0.00244841 -0.00075741 -5.67901e-06
-0.00075741 0.000298404 -2.6924e-06
-5.67901e-06 -2.6924e-06 -6.7721e-06
0.00230044 -0.000715318 1.25681e-06
-0.000715318 0.00016823 1.47454e-06
1.25681e-06 1.47454e-06 -0.000106133
0.00220112 -0.000703179 2.07636e-06
-0.000703179 7.71183e-06 7.03895e-06
2.07636e-06 7.03895e-06 -0.000229548
0.0023495 -0.000909508 -5.85489e-06
-0.000909508 0.000353473 -7.44461e-06
-5.85489e-06 -7.44461e-06 -0.000102611
0.0020697 -0.000919892 -4.65271e-07
-0.000919892 0.00011136 3.43232e-08
-4.65271e-07 3.43232e-08 -0.000346742
0.00250245 -0.0010509 7.61231e-06
-0.0010509 0.000383561 5.65263e-06
7.61231e-06 5.65263e-06 -0.00012151
0.00183371 -0.000969162 -9.72756e-06
-0.000969162 0.000276657 -6.68441e-06
-9.72756e-06 -6.68441e-06 -0.000318451
0.00264167 -0.00118518 -7.04858e-07
-0.00118518 0.000726681 5.79006e-07
-7.04858e-07 5.79006e-07 7.50534e-05
0.00255272 -0.0012697 4.46986e-06
-0.0012697 0.000662926 4.01459e-06
4.46986e-06 4.01459e-06 -2.0764e-05
0.000797977 -0.000354105 -7.30535e-06
-0.000354105 -4.18e-05 8.84688e-06
-7.30535e-06 8.84688e-06 -0.000344989
0.00173853 -0.000841921 -1.07135e-06
-0.000841921 0.000452905 2.84937e-06
-1.07135e-06 2.84937e-06 -0.00013108
0.00239247 -0.0011873 -4.66961e-07
-0.0011873 0.000860062 1.0744e-05
-4.66961e-07 1.0744e-05 0.00013283
0.000267066 -0.000209804 -1.87518e-05
-0.000209804 -0.000182421 2.51348e-05
-1.87518e-05 2.51348e-05 -0.000353776
0.00124904 -0.000444061 -1.11143e-05
-0.000444061 0.000370871 9.39938e-07
-1.11143e-05 9.39938e-07 9.15208e-05
-0.00179163 -0.000670558 1.61165e-06
-0.000670558 -0.00150257 -2.8219e-06
1.61165e-06 -2.8219e-06 -0.00199738
0.00627274 0.00018768 -0.000180961
0.00018768 0.00387762 1.54356e-05
-0.000180961 1.54356e-05 0.00385536
0.000607915 -0.00018629 -5.3191e-06
-0.00018629 3.0757e-05 -1.85121e-06
-5.3191e-06 -1.85121e-06 -9.75034e-05
-1.36164e-05 -0.0004006 1.78013e-05
-0.0004006 -0.000251382 -2.31447e-06
1.78013e-05 -2.31447e-06 -0.000599116
0.00366159 0.00014691 9.5477e-05
0.00014691 0.00216396 -1.54031e-06
9.5477e-05 -1.54031e-06 0.00211721
0.0001908 -0.000171702 2.88495e-05
-0.000171702 -0.000217592 -1.51414e-05
2.88495e-05 -1.51414e-05 -0.000344343
0.00548881 0.000122349 0.000172973
0.000122349 0.00334862 -1.44031e-05
0.000172973 -1.44031e-05 0.00334236
0.00154757 0.000629878 -1.51403e-05
0.000629878 0.000530693 1.29759e-05
-1.51403e-05 1.29759e-05 2.79854e-05
0.000698027 0.000340894 -6.39889e-06
0.000340894 0.000144044 1.19932e-06
-6.39889e-06 1.19932e-06 -0.000202392
-0.000184137 0.000200601 8.48337e-06
0.000200601 -0.00043492 6.15355e-06
8.48337e-06 6.15355e-06 -0.000734407
0.00238289 0.000437539 4.43588e-06
0.000437539 0.00127454 -5.98873e-06
4.43588e-06 -5.98873e-06 0.000933535
0.00120046 0.000185572 1.76856e-07
0.000185572 0.000634684 -3.30268e-07
1.76856e-07 -3.30268e-07 0.000241117
0.00141402 0.000173867 9.35471e-07
0.000173867 0.000731514 -1.66854e-05
9.35471e-07 -1.66854e-05 0.000415074
0.000830604 0.000121878 -1.91938e-05
0.000121878 0.000263483 -2.10097e-05
-1.91938e-05 -2.10097e-05 0.000174598
0.00075115 0.00016764 -1.91711e-06
0.00016764 0.000287541 5.3166e-07
-1.91711e-06 5.3166e-07 3.56063e-05
-0.00225797 -4.36026e-05 -1.67554e-05
-4.36026e-05 -0.0014725 2.84891e-05
-1.67554e-05 2.84891e-05 -0.00192056
0.00358763 -9.79869e-05 -8.52318e-05
-9.79869e-05 0.00209832 -1.1689e-05
-8.52318e-05 -1.1689e-05 0.00209815
0.000228061 6.47284e-05 1.08828e-06
6.47284e-05 -0.000106263 -4.41508e-07
1.08828e-06 -4.41508e-07 -0.000177508
0.000731262 0.000150505 -3.34602e-06
0.000150505 0.000249426 1.19176e-05
-3.34602e-06 1.19176e-05 6.0166e-05
0.00326757 -9.50036e-05 -1.11547e-05
-9.50036e-05 0.00188191 9.41737e-07
-1.11547e-05 9.41737e-07 0.00188052
0.000143797 -1.8123e-06 1.81736e-06
-1.8123e-06 -0.000164343 1.3396e-05
1.81736e-06 1.3396e-05 -0.00022351
0.00290798 -7.82261e-05 3.18885e-05
-7.82261e-05 0.00163485 7.62654e-06
3.18885e-05 7.62654e-06 0.00163671
0.00272672 -0.00224546 -0.00233767
-0.00224546 0.00458582 1.34792e-05
-0.00233767 1.34792e-05 0.00104466
-0.00142599 -0.00195051 -0.000131426
-0.00195051 0.00893205 -7.60459e-05
-0.000131426 -7.60459e-05 -0.00142852
0.00719216 0.00118992 -0.000698251
0.00118992 0.00447314 -0.000183116
-0.000698251 -0.000183116 0.000601819
9.83079e-05 0.00020642 -2.97115e-06
0.00020642 -7.88866e-05 9.15066e-06
-2.97115e-06 9.15066e-06 -0.000555068
0.000932806 0.000286286 1.44775e-05
0.000286286 0.000697324 3.43774e-06
1.44775e-05 3.43774e-06 -2.38586e-06
0.0024351 0.00100009 -4.53467e-06
0.00100009 0.00121261 -1.06069e-06
-4.53467e-06 -1.06069e-06 0.000529935
0.00223052 0.00122711 1.42127e-05
0.00122711 0.000864103 2.07131e-05
1.42127e-05 2.07131e-05 0.00013873
0.00124043 0.000963885 -1.90847e-05
0.000963885 0.000784523 2.09736e-05
-1.90847e-05 2.09736e-05 4.67907e-05
0.00279714 0.000493935 3.70488e-06
0.000493935 0.00177626 1.1812e-06
3.70488e-06 1.1812e-06 0.00144412
0.0016769 0.00046161 2.23752e-05
0.00046161 0.00108511 1.55263e-05
2.23752e-05 1.55263e-05 0.000582913
0.0022287 0.000990369 -6.07467e-06
0.000990369 0.00132641 -2.57969e-07
-6.07467e-06 -2.57969e-07 0.000650334
0.00222332 0.00141631 -1.57667e-05
0.00141631 0.000774758 7.25093e-06
-1.57667e-05 7.25093e-06 0.000140858
0.00288026 0.00141999 -6.41528e-06
0.00141999 0.00109874 6.0305e-05
-6.41528e-06 6.0305e-05 0.000731527
0.00217781 0.00182819 4.5304e-05
0.00182819 0.000284145 -5.58137e-06
4.5304e-05 -5.58137e-06 -0.000173677
0.00144785 0.00113625 1.68198e-05
0.00113625 0.000542102 9.09485e-06
1.68198e-05 9.09485e-06 9.87892e-05
0.00304634 0.000961648 -9.19068e-06
0.000961648 0.00204017 -6.89692e-07
-9.19068e-06 -6.89692e-07 0.00128352
0.0182449 0.00658152 -0.000185791
0.00658152 -0.000148642 7.93197e-05
-0.000185791 7.93197e-05 0.00109711
0.0134632 -0.00513719 -0.000978967
-0.00513719 0.00780401 -0.000236429
-0.000978967 -0.000236429 0.00131101
0.00715756 -0.00961249 0.00195571
-0.00961249 0.0168034 0.000145081
0.00195571 0.000145081 0.00506743
0.0233936 -0.00552948 0.000784049
-0.00552948 0.0102376 0.000162372
0.000784049 0.000162372 0.000558478
0.0100316 0.0092266 -0.000268602
0.0092266 0.00467785 -0.000107506
-0.000268602 -0.000107506 -5.23637e-05
-0.00105577 0.00146237 1.34246e-05
0.00146237 0.00231333 2.98721e-05
1.34246e-05 2.98721e-05 0.000668573
0.00175961 0.00419797 -0.000158476
0.00419797 0.000798015 -8.42722e-05
-0.000158476 -8.42722e-05 0.00131202
0.011126 0.0101062 6.78278e-05
0.0101062 -0.000661463 8.53838e-05
6.78278e-05 8.53838e-05 -0.00211663
0.00808211 0.00717938 -0.000215826
0.00717938 -0.000874434 -0.000160314
-0.000215826 -0.000160314 0.000413298
0.00160385 0.00196512 1.72563e-05
0.00196512 0.00010095 -2.03948e-05
1.72563e-05 -2.03948e-05 -0.00038607
0.00185438 0.0015708 1.86433e-05
0.0015708 0.00061127 2.95363e-06
1.86433e-05 2.95363e-06 8.91672e-05
0.00142001 0.000900449 -2.85197e-05
0.000900449 0.000571239 -3.89922e-05
-2.85197e-05 -3.89922e-05 0.000349896
0.00141521 0.00288845 -9.17745e-05
0.00288845 0.000239976 -5.60069e-05
-9.17745e-05 -5.60069e-05 -0.00120203
0.00297779 0.00361093 0.000127978
0.00361093 -0.000128405 6.27472e-05
0.000127978 6.27472e-05 -0.0010662
0.00760019 -0.000455185 -7.36337e-05
-0.000455185 -0.00599696 2.43243e-05
-7.36337e-05 2.43243e-05 -0.00663515
-0.000148985 -0.00283355 -2.10347e-05
-0.00283355 0.00537061 0.000109708
-2.10347e-05 0.000109708 0.000905561
-0.014014 -0.000206906 0.00116741
-0.000206906 0.00834959 1.63308e-05
0.00116741 1.63308e-05 0.00263535
0.00270642 -0.00454899 -0.000144836
-0.00454899 0.000459396 8.91502e-05
-0.000144836 8.91502e-05 -0.00104622
0.00682813 -0.00671337 1.26697e-06
-0.00671337 -0.000706379 0.000119515
1.26697e-06 0.000119515 0.000955769
0.00852832 0.00235052 0.00233653
0.00235052 0.00700924 -0.000395351
0.00233653 -0.000395351 0.00289173
0.0138862 -0.00561906 -0.000473181
-0.00561906 -0.0033266 0.000346286
-0.000473181 0.000346286 -0.00100908
0.00242016 -0.00288913 -3.68055e-05
-0.00288913 -0.000463283 1.41604e-05
-3.68055e-05 1.41604e-05 -0.000576856
0.0133157 -0.00110299 -0.000419673
-0.00110299 -0.00383551 0.000139848
-0.000419673 0.000139848 -0.00315025
0.00768887 -0.00434967 0.000114907
-0.00434967 -0.00215618 -1.08386e-06
0.000114907 -1.08386e-06 0.000569519
0.00340516 -0.00226511 5.61163e-05
-0.00226511 -0.000979702 -7.1217e-05
5.61163e-05 -7.1217e-05 -0.000324538
0.00366636 -0.00176001 0.000122485
-0.00176001 -0.00401079 -3.02608e-05
0.000122485 -3.02608e-05 -0.00041446
-0.000455224 -0.0011507 -1.7956e-07
-0.0011507 -0.00119163 1.89391e-05
-1.7956e-07 1.89391e-05 -0.00140503
0.00189708 -0.00128878 -3.01544e-05
-0.00128878 -0.000384135 8.84733e-06
-3.01544e-05 8.84733e-06 -0.000369976
0.00449369 -0.00125676 4.98098e-05
-0.00125676 0.000877647 -2.52914e-05
4.98098e-05 -2.52914e-05 0.00100088
0.00210875 -0.00148011 -7.48925e-06
-0.00148011 9.5241e-05 1.02531e-05
-7.48925e-06 1.02531e-05 -0.000411442
0.00297899 -0.00126922 -4.73636e-06
-0.00126922 0.00020869 1.9643e-06
-4.73636e-06 1.9643e-06 2.19069e-05
0.00299571 -0.000958294 5.09403e-06
-0.000958294 3.95702e-06 -2.49768e-06
5.09403e-06 -2.49768e-06 8.60807e-05
0.0025501 -0.00119783 -1.08777e-05
-0.00119783 0.000177104 9.63503e-06
-1.08777e-05 9.63503e-06 -0.000189791
0.00256572 -0.000859403 -5.30874e-08
-0.000859403 -5.42326e-05 1.41679e-06
-5.30874e-08 1.41679e-06 -8.34585e-05
0.00273604 -0.000839636 -1.10067e-06
-0.000839636 2.11902e-05 -1.28797e-06
-1.10067e-06 -1.28797e-06 4.19786e-05
0.00232945 -0.000771421 1.70674e-06
-0.000771421 -1.10177e-05 4.58944e-06
1.70674e-06 4.58944e-06 -0.000180698
0.00255404 -0.000828785 -1.39554e-07
-0.000828785 8.76115e-05 6.74941e-07
-1.39554e-07 6.74941e-07 -4.44146e-06
0.00265826 -0.000816888 -2.1274e-06
-0.000816888 8.57205e-05 -4.59167e-07
-2.1274e-06 -4.59167e-07 1.63591e-05
0.00246602 -0.0008072 -5.07606e-06
-0.0008072 0.000104819 5.02131e-07
-5.07606e-06 5.02131e-07 -2.78584e-05
0.00242231 -0.000754833 -1.104e-06
-0.000754833 0.000129677 -9.00827e-07
-1.104e-06 -9.00827e-07 -1.94093e-05
0.00240308 -0.000762861 2.0601e-07
-0.000762861 0.000137634 3.47279e-06
2.0601e-07 3.47279e-06 -2.31709e-05
0.00246362 -0.000729384 9.56871e-07
-0.000729384 0.000280227 -5.60702e-07
9.56871e-07 -5.60702e-07 7.19123e-05
0.0023864 -0.000725686 -2.65675e-06
-0.000725686 0.00027887 -6.41e-07
-2.65675e-06 -6.41e-07 3.26938e-05
0.00249921 -0.000774156 -1.19153e-06
-0.000774156 0.000399828 -6.4687e-06
-1.19153e-06 -6.4687e-06 6.46398e-05
0.00253774 -0.000766165 -4.20512e-07
-0.000766165 0.000359764 7.01476e-08
-4.20512e-07 7.01476e-08 5.00725e-05
0.00257426 -0.000729269 7.54269e-06
-0.000729269 0.000364162 4.03769e-06
7.54269e-06 4.03769e-06 8.65146e-05
0.00211091 -0.000873391 -8.48854e-06
-0.000873391 0.000302039 -3.78442e-06
-8.48854e-06 -3.78442e-06 -0.000188984
0.00230286 -0.000919588 -3.08419e-06
-0.000919588 0.000305587 -9.78573e-07
-3.08419e-06 -9.78573e-07 -0.000159029
0.00197261 -0.000923771 4.67402e-06
-0.000923771 3.11468e-05 5.2382e-06
4.67402e-06 5.2382e-06 -0.000430852
0.00205236 -0.00062022 -1.40722e-05
-0.00062022 0.000675027 1.29712e-05
-1.40722e-05 1.29712e-05 0.000249148
0.00212186 -0.000996543 -1.74837e-06
-0.000996543 0.000477084 1.16121e-06
-1.74837e-06 1.16121e-06 -0.00012238
0.00280726 -0.00121043 3.13791e-06
-0.00121043 0.000807022 7.59928e-06
3.13791e-06 7.59928e-06 0.000148938
0.000482288 -0.000279493 -1.83302e-05
-0.000279493 -9.46214e-05 2.80364e-05
-1.83302e-05 2.80364e-05 -0.000293219
0.00068534 -0.000357301 3.39796e-06
-0.000357301 -0.00011946 -3.5845e-06
3.39796e-06 -3.5845e-06 -0.000435928
0.0021586 -0.000883603 1.10094e-05
-0.000883603 0.000715009 3.88451e-06
1.10094e-05 3.88451e-06 0.000131366
0.00670556 5.76894e-05 -0.000233905
5.76894e-05 0.00412103 2.016e-05
-0.000233905 2.016e-05 0.00412292
0.000412177 -0.00022509 -4.16677e-06
-0.00022509 -8.89922e-05 -5.43635e-07
-4.16677e-06 -5.43635e-07 -0.000266947
0.0016612 -0.000587132 1.06558e-05
-0.000587132 0.000740002 -4.02984e-06
1.06558e-05 -4.02984e-06 0.000387445
0.00609381 0.000141834 1.2175e-05
0.000141834 0.0037524 -3.62986e-06
1.2175e-05 -3.62986e-06 0.00373755
0.00100301 -0.000213935 2.26085e-05
-0.000213935 0.000279814 -1.98593e-05
2.26085e-05 -1.98593e-05 0.000147505
0.0059129 0.000204226 0.000143573
0.000204226 0.0036589 -2.0404e-05
0.000143573 -2.0404e-05 0.00362791
0.00307312 0.00120561 -1.04843e-05
0.00120561 0.0013928 1.64515e-05
-1.04843e-05 1.64515e-05 0.000665063
0.00182055 0.000736031 -1.42072e-06
0.000736031 0.00074687 2.7495e-06
-1.42072e-06 2.7495e-06 0.000198531
-0.000712696 0.000370642 -2.88602e-06
0.000370642 -0.00073837 3.19991e-06
-2.88602e-06 3.19991e-06 -0.0011443
-0.000621478 0.000184133 4.35869e-06
0.000184133 -0.000630636 -1.11316e-05
4.35869e-06 -1.11316e-05 -0.000971057
4.30005e-05 0.000400466 3.69348e-06
0.000400466 -0.000273377 -3.66375e-06
3.69348e-06 -3.66375e-06 -0.000577015
-0.000727693 0.000480982 -1.20065e-05
0.000480982 -0.000767422 -7.5681e-06
-1.20065e-05 -7.5681e-06 -0.00106698
-0.000387243 9.60234e-05 -9.70713e-06
9.60234e-05 -0.000377577 2.32306e-06
-9.70713e-06 2.32306e-06 -0.000786577
0.000658312 0.000297985 3.968e-06
0.000297985 0.000226346 4.93076e-07
3.968e-06 4.93076e-07 -8.87959e-05
0.000918517 0.000167153 -2.32932e-05
0.000167153 0.000296973 -2.41219e-05
-2.32932e-05 -2.41219e-05 0.000172184
0.00424144 -0.000126846 -0.000106744
-0.000126846 0.00254758 -1.76952e-05
-0.000106744 -1.76952e-05 0.002539
0.00049595 7.38622e-05 4.93273e-06
7.38622e-05 6.28234e-05 -1.89303e-07
4.93273e-06 -1.89303e-07 -3.08255e-05
-0.000342189 3.01623e-05 -5.64965e-06
3.01623e-05 -0.00037249 1.39132e-05
-5.64965e-06 1.39132e-05 -0.000653671
0.00391302 -0.000129325 -1.42619e-05
-0.000129325 0.00232062 1.66121e-06
-1.42619e-05 1.66121e-06 0.00231173
0.00024651 -7.67708e-05 -1.23961e-05
-7.67708e-05 -7.39076e-05 1.7348e-05
-1.23961e-05 1.7348e-05 -0.000156193
0.0032751 -0.00010267 4.37196e-05
-0.00010267 0.00188784 8.54707e-06
4.37196e-05 8.54707e-06 0.00188424
0.0162688 0.00106301 0.000834864
0.00106301 -0.00064844 0.000168075
0.000834864 0.000168075 0.00120355
0.0038507 -0.00701978 -0.0013303
-0.00701978 0.00138911 -3.11279e-05
-0.0013303 -3.11279e-05 -0.00632922
-0.00457694 0.000498284 -0.000299472
0.000498284 0.00840209 -8.37987e-05
-0.000299472 -8.37987e-05 -0.000900264
0.000589819 0.000145375 9.80789e-06
0.000145375 0.000436211 -2.15254e-05
9.80789e-06 -2.15254e-05 -0.000284512
0.00119521 0.00084783 8.25911e-06
0.00084783 0.000471923 -2.08999e-05
8.25911e-06 -2.08999e-05 -0.000232251
0.00191377 0.000961159 -1.39111e-05
0.000961159 0.00105009 -1.0792e-05
-1.39111e-05 -1.0792e-05 0.000348226
0.00232229 0.00125806 -1.73092e-06
0.00125806 0.000937906 -4.4253e-07
-1.73092e-06 -4.4253e-07 0.000190146
0.00195954 0.00114921 2.675e-05
0.00114921 0.000443659 2.77861e-05
2.675e-05 2.77861e-05 -0.000182396
0.000824573 0.00122951 7.55454e-06
0.00122951 -0.000103965 1.55492e-05
7.55454e-06 1.55492e-05 -0.000679497
0.00128783 0.000822396 -9.35467e-06
0.000822396 0.000688921 -1.48214e-05
-9.35467e-06 -1.48214e-05 3.10429e-05
0.00209994 0.00141641 3.62922e-07
0.00141641 0.000658582 3.82218e-06
3.62922e-07 3.82218e-06 2.88349e-05
0.00258071 0.00133451 3.0464e-05
0.00133451 0.00104018 6.19769e-06
3.0464e-05 6.19769e-06 0.000564792
0.00382177 0.0014986 1.13799e-05
0.0014986 0.00159801 1.17344e-05
1.13799e-05 1.17344e-05 0.000940953
0.00147807 0.00140955 5.75025e-06
0.00140955 5.1806e-05 1.07398e-05
5.75025e-06 1.07398e-05 -0.000342666
0.00322122 0.00186887 2.60926e-05
0.00186887 0.000902602 1.53559e-05
2.60926e-05 1.53559e-05 0.000217798
0.0026093 0.00182599 1.44301e-05
0.00182599 0.000595587 3.12045e-06
1.44301e-05 3.12045e-06 0.000120674
0.00295046 0.00121755 -3.83387e-05
0.00121755 0.0013573 -0.000112972
-3.83387e-05 -0.000112972 0.000893154
0.00458021 0.00354395 3.23441e-05
0.00354395 -0.00470177 7.02947e-05
3.23441e-05 7.02947e-05 -0.000442172
0.0136084 0.00753618 0.000552259
0.00753618 -0.00377714 0.000281162
0.000552259 0.000281162 -0.00254816
0.0188814 -0.0090094 0.00146276
-0.0090094 0.0102867 -0.000353023
0.00146276 -0.000353023 0.00124215
0.00535634 0.0118122 0.00135863
0.0118122 -0.00286523 0.000500067
0.00135863 0.000500067 -0.00488242
-0.000934828 0.00307211 -2.29165e-05
0.00307211 0.000226485 3.97935e-05
-2.29165e-05 3.97935e-05 0.000473375
0.00355773 0.00430029 -0.000117923
0.00430029 -0.0015562 -9.33644e-05
-0.000117923 -9.33644e-05 0.000428987
0.00736028 0.00374316 5.63877e-05
0.00374316 0.000890593 2.81462e-05
5.63877e-05 2.81462e-05 0.000734718
0.00614762 0.00285651 2.57233e-05
0.00285651 0.00214334 9.81547e-06
2.57233e-05 9.81547e-06 0.00141384
0.00129391 0.00142314 -3.89572e-05
0.00142314 0.000300596 -1.18045e-05
-3.89572e-05 -1.18045e-05 -0.000164589
0.00940645 0.00456937 -0.000192167
0.00456937 0.00286717 2.20649e-05
-0.000192167 2.20649e-05 0.00151215
0.00615922 -0.00117222 0.000118251
-0.00117222 -0.00268229 6.99594e-05
0.000118251 6.99594e-05 0.000522971
0.013911 -0.000454753 -2.88625e-05
-0.000454753 -0.00162613 -4.96505e-05
-2.88625e-05 -4.96505e-05 0.000209362
-0.00993936 -0.00486427 0.00180488
-0.00486427 -0.000259017 -7.74648e-05
0.00180488 -7.74648e-05 -0.00678554
0.00262569 -0.00280214 -0.000142909
-0.00280214 -0.000294844 7.4562e-05
-0.000142909 7.4562e-05 -0.000325222
0.00806377 -0.00479589 -0.000125925
-0.00479589 -0.00250105 0.000181997
-0.000125925 0.000181997 0.000552925
0.00296515 -0.00071259 -0.00054865
-0.00071259 -0.00989773 1.45688e-05
-0.00054865 1.45688e-05 -0.00847694
0.00368085 -0.00214428 5.29067e-05
-0.00214428 -0.000801186 -3.61299e-07
5.29067e-05 -3.61299e-07 7.34917e-05
0.00521703 -0.00180801 -0.000108238
-0.00180801 -0.00282501 8.04285e-06
-0.000108238 8.04285e-06 1.62293e-05
0.00690944 -0.00162481 7.39621e-05
-0.00162481 0.00109312 -6.15029e-05
7.39621e-05 -6.15029e-05 0.00192879
0.00825219 -0.00116519 0.000184372
-0.00116519 0.00121536 1.45598e-05
0.000184372 1.45598e-05 0.00258181
-0.00145286 -0.000956198 3.37973e-05
-0.000956198 -0.00248381 1.20549e-05
3.37973e-05 1.20549e-05 -0.00204426
0.00257575 -0.00107914 -1.53016e-05
-0.00107914 -0.000310689 3.14525e-06
-1.53016e-05 3.14525e-06 3.98744e-05
0.00284221 -0.000762956 3.26021e-05
-0.000762956 -0.000289734 -1.61585e-05
3.26021e-05 -1.61585e-05 0.000123842
0.00265139 -0.00125877 -3.03987e-06
-0.00125877 1.21312e-05 5.37259e-06
-3.03987e-06 5.37259e-06 -0.000178646
0.00296653 -0.000956477 5.67314e-07
-0.000956477 -2.12167e-06 1.19506e-06
5.67314e-07 1.19506e-06 7.73133e-05
0.00285413 -0.000784433 4.67187e-07
-0.000784433 -6.45696e-05 -2.2063e-06
4.67187e-07 -2.2063e-06 3.98426e-06
0.0024533 -0.000852273 1.45095e-06
-0.000852273 -0.00013149 3.90687e-06
1.45095e-06 3.90687e-06 -0.000159045
0.0027034 -0.00083729 2.3991e-08
-0.00083729 1.27137e-05 3.07246e-07
2.3991e-08 3.07246e-07 2.31274e-05
0.00262328 -0.000699274 -1.52491e-06
-0.000699274 -2.93945e-05 -1.49166e-06
-1.52491e-06 -1.49166e-06 -2.9811e-05
0.00253101 -0.000821706 1.58785e-06
-0.000821706 8.30888e-05 1.10492e-06
1.58785e-06 1.10492e-06 -1.05644e-05
0.00265782 -0.0008159 -1.00869e-07
-0.0008159 0.0001129 -1.69162e-07
-1.00869e-07 -1.69162e-07 3.66846e-05
0.00254351 -0.000703409 1.17644e-06
-0.000703409 9.99619e-05 -1.20008e-06
1.17644e-06 -1.20008e-06 2.24914e-05
0.00242514 -0.000809497 -2.41972e-06
-0.000809497 7.19794e-05 9.20424e-07
-2.41972e-06 9.20424e-07 -5.19744e-05
0.00240576 -0.000759314 -1.52182e-06
-0.000759314 0.000112387 2.06199e-07
-1.52182e-06 2.06199e-07 -3.24648e-05
0.00244182 -0.000706234 -2.08874e-06
-0.000706234 0.000227245 1.41762e-07
-2.08874e-06 1.41762e-07 4.1742e-05
0.00243755 -0.000723472 3.1917e-06
-0.000723472 0.000262445 1.03051e-06
3.1917e-06 1.03051e-06 5.77011e-05
0.0023985 -0.000718667 3.23501e-07
-0.000718667 0.000284596 -3.01077e-08
3.23501e-07 -3.01077e-08 3.9675e-05
0.0023572 -0.000719171 -1.32536e-06
-0.000719171 0.000288948 -1.56423e-06
-1.32536e-06 -1.56423e-06 6.82492e-06
0.0022031 -0.000726928 -3.57788e-06
-0.000726928 0.000308336 -5.75602e-06
-3.57788e-06 -5.75602e-06 -6.29103e-05
0.00240743 -0.000772774 -8.53168e-07
-0.000772774 0.000333221 -1.57165e-06
-8.53168e-07 -1.57165e-06 -1.03552e-05
0.00263095 -0.000776018 4.42036e-06
-0.000776018 0.000424293 3.27851e-06
4.42036e-06 3.27851e-06 0.000109441
0.00141431 -0.000596011 -2.16577e-05
-0.000596011 9.88155e-05 2.47602e-06
-2.16577e-05 2.47602e-06 -0.00031851
0.00231521 -0.000889289 -4.63881e-07
-0.000889289 0.000452546 2.12681e-07
-4.63881e-07 2.12681e-07 -4.1711e-05
0.00226721 -0.00093139 8.0498e-07
-0.00093139 0.000264308 5.26853e-06
8.0498e-07 5.26853e-06 -0.000209497
0.000495894 -0.000293578 -1.98332e-05
-0.000293578 -0.00011155 2.71542e-05
-1.98332e-05 2.71542e-05 -0.000312432
0.00104155 -0.000540537 1.00094e-05
-0.000540537 5.1567e-05 1.53439e-06
1.00094e-05 1.53439e-06 -0.000366864
0.00241421 -0.00102119 7.78746e-06
-0.00102119 0.000685793 5.91638e-06
7.78746e-06 5.91638e-06 8.28349e-05
0.00865703 -4.53098e-05 -0.000340641
-4.53098e-05 0.00534789 3.258e-05
-0.000340641 3.258e-05 0.00535887
0.000114758 -0.000287779 3.9808e-06
-0.000287779 -0.000323143 5.32548e-07
3.9808e-06 5.32548e-07 -0.000524286
0.000425254 -0.000328995 -5.53002e-06
-0.000328995 -0.000285323 -6.59375e-06
-5.53002e-06 -6.59375e-06 -0.000612077
0.00751569 2.51145e-05 -1.90544e-05
2.51145e-05 0.00465517 -2.02437e-06
-1.90544e-05 -2.02437e-06 0.00465391
0.000539062 -0.000209151 8.85531e-06
-0.000209151 -9.54156e-06 -2.63151e-05
8.85531e-06 -2.63151e-05 -0.000193722
0.00609038 6.87773e-05 0.00025009
6.87773e-05 0.00375873 -3.53121e-05
0.00025009 -3.53121e-05 0.00375203
0.00231599 0.00109068 -1.56415e-05
0.00109068 0.0006614 1.69291e-05
-1.56415e-05 1.69291e-05 2.53718e-05
0.00239824 0.00110311 -5.14167e-07
0.00110311 0.000962514 1.06193e-07
-5.14167e-07 1.06193e-07 0.000265689
0.00148213 0.000786264 -1.17302e-05
0.000786264 0.000416137 1.07808e-05
-1.17302e-05 1.07808e-05 -0.000151413
0.000720783 0.000666963 1.97508e-05
0.000666963 3.42806e-05 -8.8904e-06
1.97508e-05 -8.8904e-06 -0.000508829
0.00112145 0.000425776 -3.8835e-06
0.000425776 0.000279117 -2.38553e-06
-3.8835e-06 -2.38553e-06 -0.000108497
-0.00024114 0.000285755 -6.88474e-06
0.000285755 -0.000473046 -1.09547e-06
-6.88474e-06 -1.09547e-06 -0.000820391
0.00270055 0.00030209 1.11227e-06
0.00030209 0.0014097 -5.00754e-06
1.11227e-06 -5.00754e-06 0.00111157
0.00132283 0.000246014 3.85609e-06
0.000246014 0.00057404 -1.66286e-06
3.85609e-06 -1.66286e-06 0.000263449
0.000368302 0.000226909 -3.31906e-05
0.000226909 -0.000117287 -2.45619e-05
-3.31906e-05 -2.45619e-05 -0.000260202
0.000529218 0.000233009 1.04696e-07
0.000233009 0.000157977 1.85059e-05
1.04696e-07 1.85059e-05 -0.000158867
0.000412434 0.000153464 -9.741e-07
0.000153464 -1.84708e-05 -4.6398e-07
-9.741e-07 -4.6398e-07 -0.000138003
0.00536886 -0.000129596 -0.000178301
-0.000129596 0.00330817 -2.61985e-05
-0.000178301 -2.61985e-05 0.00329223
0.00397697 -0.000143823 -1.43782e-05
-0.000143823 0.00237666 1.71814e-06
-1.43782e-05 1.71814e-06 0.00236275
-8.98769e-05 0.000128723 2.05093e-05
0.000128723 -0.000320222 2.00768e-05
2.05093e-05 2.00768e-05 -0.000402704
0.00352722 -0.000127908 5.46619e-05
-0.000127908 0.00206729 9.71916e-06
5.46619e-05 9.71916e-06 0.00205722
0.00134679 0.000898983 0.000166
0.000898983 -0.00396079 4.06e-05
0.000166 4.06e-05 -0.000670961
0.00450711 0.00010307 0.000305859
0.00010307 -0.00824053 0.00018827
0.000305859 0.00018827 -0.00821582
0.0192741 -0.00801332 -0.000387227
-0.00801332 0.0125039 -0.000154425
-0.000387227 -0.000154425 0.00382876
0.00210235 0.000981379 1.42484e-05
0.000981379 0.000285535 1.63165e-05
1.42484e-05 1.63165e-05 -0.000194493
0.0028524 0.00103475 -1.47384e-06
0.00103475 0.00147245 -1.7435e-05
-1.47384e-06 -1.7435e-05 0.000788218
0.00224066 0.00127257 -5.8101e-06
0.00127257 0.000891138 -2.34107e-05
-5.8101e-06 -2.34107e-05 0.000125718
0.00196621 0.00135657 2.44175e-06
0.00135657 0.00059826 2.27704e-06
2.44175e-06 2.27704e-06 -2.75154e-05
0.00232472 0.00120174 1.21481e-06
0.00120174 0.000677622 3.73612e-06
1.21481e-06 3.73612e-06 3.40417e-05
0.00267434 0.00133925 1.30225e-05
0.00133925 0.000788157 1.7666e-05
1.30225e-05 1.7666e-05 0.000170091
0.00133026 0.00129965 -4.86985e-06
0.00129965 0.000172273 -7.1616e-06
-4.86985e-06 -7.1616e-06 -0.000428398
0.00064336 0.00104752 1.90867e-05
0.00104752 -2.01766e-05 -6.00897e-05
1.90867e-05 -6.00897e-05 -0.00044307
0.00229213 0.0014155 1.9075e-06
0.0014155 0.000605995 -1.18248e-06
1.9075e-06 -1.18248e-06 1.86819e-05
0.00057022 0.00133384 1.35079e-05
0.00133384 -0.000516725 -3.32109e-05
1.35079e-05 -3.32109e-05 -0.000798316
0.00276713 0.00135736 2.40996e-05
0.00135736 0.000738213 1.31509e-06
2.40996e-05 1.31509e-06 7.02623e-05
0.0029342 0.00125306 5.22493e-05
0.00125306 0.000620563 5.8181e-05
5.22493e-05 5.8181e-05 0.0004078
0.00127828 0.0014927 -1.33516e-05
0.0014927 -9.04293e-05 -1.54063e-05
-1.33516e-05 -1.54063e-05 -0.000603433
0.00231706 0.00170072 -4.18529e-05
0.00170072 0.000482284 -1.38745e-05
-4.18529e-05 -1.38745e-05 8.77984e-05
0.0029501 0.0016805 1.90397e-05
0.0016805 -0.00183492 5.51928e-05
1.90397e-05 5.51928e-05 -0.000237659
0.00648389 0.00388954 -0.000157969
0.00388954 -0.00359135 -6.94227e-05
-0.000157969 -6.94227e-05 0.000557585
0.00378517 0.00542172 0.0010618
0.00542172 -0.0102223 0.00030466
0.0010618 0.00030466 -0.00876882
0.0027692 0.00394014 -0.000296108
0.00394014 -0.000860791 -0.00014841
-0.000296108 -0.00014841 0.000571729
0.00600083 0.00309547 -3.24609e-05
0.00309547 0.000703139 -1.44351e-05
-3.24609e-05 -1.44351e-05 0.000732904
0.00834595 0.00331861 -0.000245689
0.00331861 0.00303594 -7.69518e-05
-0.000245689 -7.69518e-05 0.0021988
0.00453177 -0.000142299 -4.56037e-05
-0.000142299 -0.00100236 -2.19644e-05
-4.56037e-05 -2.19644e-05 0.00010954
0.00150287 -0.000626735 0.000129215
-0.000626735 -0.00281525 3.32991e-05
0.000129215 3.32991e-05 -0.000125774
0.00842532 -0.000132159 0.000247597
-0.000132159 -0.00670065 -3.86699e-05
0.000247597 -3.86699e-05 -0.00697358
0.00282307 -0.0019147 -8.64147e-05
-0.0019147 -0.00116551 0.000124556
-8.64147e-05 0.000124556 -0.000173462
0.00560628 -0.00181133 -0.000254356
-0.00181133 -0.00304903 8.13944e-05
-0.000254356 8.13944e-05 -0.000544229
0.00368831 -0.00132774 -2.10665e-05
-0.00132774 -0.000784224 1.29362e-05
-2.10665e-05 1.29362e-05 0.000258712
0.00493416 -0.000963999 -5.82051e-05
-0.000963999 -0.00045461 -3.03413e-08
-5.82051e-05 -3.03413e-08 0.000716036
0.0046542 -0.000665645 0.000123399
-0.000665645 0.000705214 -2.562e-05
0.000123399 -2.562e-05 0.00115123
0.00307181 -0.000133892 5.97117e-05
-0.000133892 -7.98905e-05 1.85928e-06
5.97117e-05 1.85928e-06 0.000276294
0.000754597 -0.000871952 -1.81287e-05
-0.000871952 -0.00135625 1.81935e-05
-1.81287e-05 1.81935e-05 -0.000811449
0.0027728 -0.000790856 -5.00911e-06
-0.000790856 -0.000314198 8.6391e-07
-5.00911e-06 8.6391e-07 5.58582e-05
0.00281717 -0.000573906 5.40853e-06
-0.000573906 -0.00026961 -3.4383e-06
5.40853e-06 -3.4383e-06 3.76491e-05
0.00293597 -0.000950536 -3.80557e-06
-0.000950536 -1.19993e-06 3.53516e-06
-3.80557e-06 3.53516e-06 7.52109e-05
0.00286661 -0.000759474 -3.37868e-07
-0.000759474 -1.96051e-05 -3.4474e-07
-3.37868e-07 -3.4474e-07 6.05511e-05
0.00263667 -0.000562101 -8.0006e-07
-0.000562101 -0.000151184 -1.23505e-06
-8.0006e-07 -1.23505e-06 -3.61203e-05
0.00267218 -0.000832928 -1.03546e-07
-0.000832928 9.48931e-06 1.62529e-06
-1.03546e-07 1.62529e-06 9.38441e-06
0.00261455 -0.000701397 -6.99129e-07
-0.000701397 -1.8377e-05 -5.97437e-09
-6.99129e-07 -5.97437e-09 -1.66064e-05
0.00250366 -0.000575062 6.89709e-07
-0.000575062 1.76078e-05 -7.9059e-07
6.89709e-07 -7.9059e-07 -3.87893e-07
0.00265622 -0.000813582 5.05082e-07
-0.000813582 0.000141068 4.18052e-07
5.05082e-07 4.18052e-07 5.78074e-05
0.00255521 -0.000705119 1.02417e-06
-0.000705119 0.000104601 -2.41166e-07
1.02417e-06 -2.41166e-07 2.61252e-05
0.00241269 -0.000627274 -1.23949e-07
-0.000627274 0.000118901 -3.82579e-07
-1.23949e-07 -3.82579e-07 1.13395e-05
0.00239232 -0.000764462 -1.31333e-06
-0.000764462 9.74123e-05 1.6014e-06
-1.31333e-06 1.6014e-06 -4.3424e-05
0.00237303 -0.000706171 -1.11997e-06
-0.000706171 0.000171925 3.07013e-07
-1.11997e-06 3.07013e-07 -8.48119e-06
0.00243661 -0.000679383 -1.4075e-06
-0.000679383 0.000273327 -5.87928e-07
-1.4075e-06 -5.87928e-07 4.65798e-05
0.00241484 -0.000712002 3.3561e-06
-0.000712002 0.000292675 6.00264e-07
3.3561e-06 6.00264e-07 4.90712e-05
0.00236228 -0.000717416 -5.55847e-07
-0.000717416 0.000293486 6.13153e-07
-5.55847e-07 6.13153e-07 1.33544e-05
0.00229608 -0.000662774 -2.24864e-06
-0.000662774 0.000333495 -2.98099e-06
-2.24864e-06 -2.98099e-06 2.15251e-05
0.00155245 -0.00052112 -2.10138e-05
-0.00052112 0.000107506 4.77861e-06
-2.10138e-05 4.77861e-06 -0.000238999
0.00217516 -0.000722828 9.78238e-08
-0.000722828 0.000298897 -1.7566e-06
9.78238e-08 -1.7566e-06 -7.72084e-05
0.00228862 -0.000768831 1.21816e-07
-0.000768831 0.000247838 3.59791e-06
1.21816e-07 3.59791e-06 -0.000103458
0.000127481 -0.000297254 -2.18193e-05
-0.000297254 -0.00037088 2.41995e-05
-2.18193e-05 2.41995e-05 -0.000583768
0.00144353 -0.000590666 -3.3449e-07
-0.000590666 0.000130023 -4.80815e-08
-3.3449e-07 -4.80815e-08 -0.000282192
0.00249123 -0.000903726 4.86195e-06
-0.000903726 0.000580858 5.38565e-06
4.86195e-06 5.38565e-06 8.37528e-05
0.00957003 -0.000122474 -0.000428634
-0.000122474 0.00590377 4.24874e-05
-0.000428634 4.24874e-05 0.0059289
5.64743e-05 -0.000306468 9.09877e-07
-0.000306468 -0.000382472 2.17787e-06
9.09877e-07 2.17787e-06 -0.000598217
0.000428834 -0.000499657 1.10528e-05
-0.000499657 -0.000340169 -2.66705e-06
1.10528e-05 -2.66705e-06 -0.000754711
0.00906367 -8.94016e-05 -7.3809e-06
-8.94016e-05 0.00561375 1.36117e-06
-7.3809e-06 1.36117e-06 0.00563048
-0.000299873 -0.000325642 2.29061e-05
-0.000325642 -0.000579618 -3.01262e-05
2.29061e-05 -3.01262e-05 -0.000784149
0.00831616 -9.5976e-06 0.000355753
-9.5976e-06 0.00518043 -4.68695e-05
0.000355753 -4.68695e-05 0.00518249
0.00195325 0.000900141 -6.51983e-06
0.000900141 0.000235053 1.53897e-05
-6.51983e-06 1.53897e-05 -0.000249237
0.00224863 0.00106721 -5.75809e-07
0.00106721 0.000635034 2.39131e-06
-5.75809e-07 2.39131e-06 7.76087e-06
0.00224196 0.000951747 -3.5849e-06
0.000951747 0.000663401 1.5793e-05
-3.5849e-06 1.5793e-05 7.05125e-05
0.0020847 0.00103613 6.3669e-06
0.00103613 0.000775511 -1.42208e-05
6.3669e-06 -1.42208e-05 9.97412e-05
0.00163 0.000807646 -1.22657e-06
0.000807646 0.000490571 1.99584e-07
-1.22657e-06 1.99584e-07 -8.57199e-05
-3.37321e-05 0.000371098 -1.49474e-05
0.000371098 -0.000488718 1.99921e-06
-1.49474e-05 1.99921e-06 -0.000858064
0.00219407 0.00051512 6.64878e-06
0.00051512 0.000906941 -8.06998e-06
6.64878e-06 -8.06998e-06 0.000503453
0.000312454 0.000334521 3.82963e-06
0.000334521 -0.000165848 -1.34898e-06
3.82963e-06 -1.34898e-06 -0.000473516
0.000402795 0.000275688 -3.74307e-05
0.000275688 -0.000151581 -2.62154e-05
-3.74307e-05 -2.62154e-05 -0.000294493
0.00116726 0.000297354 3.46789e-06
0.000297354 0.00045867 7.87895e-06
3.46789e-06 7.87895e-06 0.000151056
0.000723361 0.000228998 -2.20233e-07
0.000228998 0.000107918 -1.57981e-06
-2.20233e-07 -1.57981e-06 -2.42868e-05
0.00701912 -0.000209629 -0.000213481
-0.000209629 0.00442489 -3.48914e-05
-0.000213481 -3.48914e-05 0.00437962
0.000313063 0.000149195 2.2587e-05
0.000149195 -7.12751e-05 2.41757e-05
2.2587e-05 2.41757e-05 -0.00018968
0.00495457 -0.00020013 -2.10554e-05
-0.00020013 0.00305584 2.22474e-06
-2.10554e-05 2.22474e-06 0.00302067
0.00420985 -0.000170866 7.3343e-05
-0.000170866 0.0025358 1.24537e-05
7.3343e-05 1.24537e-05 0.00251458
0.000665706 0.000711056 3.65639e-05
0.000711056 -0.00341961 4.14675e-05
3.65639e-05 4.14675e-05 -0.00135655
0.00569692 0.000803676 8.01342e-05
0.000803676 -0.00269489 3.0014e-05
8.01342e-05 3.0014e-05 0.000805566
0.0180369 0.00103135 3.41705e-05
0.00103135 -0.000304646 0.000174431
3.41705e-05 0.000174431 0.00191535
0.00234794 0.00109724 -5.86948e-08
0.00109724 0.000344161 8.89649e-06
-5.86948e-08 8.89649e-06 -0.000145903
0.00252139 0.00101352 1.75407e-06
0.00101352 0.000311837 9.01434e-06
1.75407e-06 9.01434e-06 -7.87598e-05
0.00207609 0.000985018 -1.44738e-06
0.000985018 0.000266947 -4.29322e-06
-1.44738e-06 -4.29322e-06 -0.000210493
0.00323753 0.00149724 8.33369e-06
0.00149724 0.00137612 -5.75526e-06
8.33369e-06 -5.75526e-06 0.000699483
0.00250462 0.00122515 -1.47362e-05
0.00122515 0.000795647 -1.73481e-05
-1.47362e-05 -1.73481e-05 0.000143991
0.0027387 0.00139187 7.66497e-06
0.00139187 0.000776384 2.13672e-06
7.66497e-06 2.13672e-06 0.000148369
0.0030009 0.00129931 -1.16807e-05
0.00129931 0.00045058 1.11954e-06
-1.16807e-05 1.11954e-06 2.64718e-05
0.00165157 0.00143861 3.81495e-06
0.00143861 0.000155487 -1.08493e-05
3.81495e-06 -1.08493e-05 -0.000415516
0.00203479 0.00157971 -1.31336e-05
0.00157971 0.000348713 9.61595e-05
-1.31336e-05 9.61595e-05 -9.02972e-05
0.00282883 0.00144986 4.69747e-06
0.00144986 0.00070739 -5.66603e-06
4.69747e-06 -5.66603e-06 3.32228e-05
0.00348916 0.00126831 3.66882e-06
0.00126831 0.000584884 2.11294e-05
3.66882e-06 2.11294e-05 0.000344035
0.00246709 0.00062455 8.0845e-05
0.00062455 0.000151815 7.94365e-06
8.0845e-05 7.94365e-06 0.000405047
0.000354147 0.000947344 1.37961e-06
0.000947344 -0.000734785 -2.16769e-05
1.37961e-06 -2.16769e-05 -0.000877516
0.00144735 0.001452 -5.44685e-05
0.001452 5.46903e-05 1.9062e-06
-5.44685e-05 1.9062e-06 -0.000454303
0.00449532 0.00183996 4.08954e-05
0.00183996 -0.000961204 1.68024e-05
4.08954e-05 1.68024e-05 0.000527875
0.0107027 0.00398312 -0.000103252
0.00398312 -0.00100678 -6.86036e-05
-0.000103252 -6.86036e-05 0.00214397
0.00644276 0.00267728 -0.00010878
0.00267728 0.00150671 -0.000112557
-0.00010878 -0.000112557 0.00159843
0.00384339 -1.40384e-05 9.04023e-05
-1.40384e-05 0.000445549 7.83179e-06
9.04023e-05 7.83179e-06 0.000824703
0.0042653 -0.000251741 -0.00014151
-0.000251741 -0.00148882 1.20082e-05
-0.00014151 1.20082e-05 3.6257e-05
0.00531947 0.000500685 -6.35706e-05
0.000500685 -0.00137881 -4.1323e-05
-6.35706e-05 -4.1323e-05 0.000917423
0.00205982 -0.00122541 -0.000129836
-0.00122541 -0.001719 9.35451e-05
-0.000129836 9.35451e-05 -0.000628544
0.00190243 -0.000886363 -0.000114131
-0.000886363 -0.00206757 1.19164e-05
-0.000114131 1.19164e-05 -0.000999427
0.00359496 -0.000612652 4.25487e-06
-0.000612652 1.33562e-05 -8.29142e-06
4.25487e-06 -8.29142e-06 0.00059675
0.00264407 -0.000136563 -1.95869e-05
-0.000136563 -0.000333135 -2.74238e-06
-1.95869e-05 -2.74238e-06 4.23344e-05
0.00277632 -0.000351645 1.08701e-05
-0.000351645 -0.000365111 -2.767e-06
1.08701e-05 -2.767e-06 1.35158e-05
0.0025374 0.000122716 1.48724e-06
0.000122716 -0.000508674 -2.10071e-07
1.48724e-06 -2.10071e-07 -0.000227478
0.00278839 -0.0008284 -2.33248e-05
-0.0008284 -0.000296791 1.28624e-05
-2.33248e-05 1.28624e-05 2.82282e-05
0.00284855 -0.000604204 -3.26018e-06
-0.000604204 -0.000273295 8.08839e-07
-3.26018e-06 8.08839e-07 2.77015e-07
0.00271976 -0.000415462 -4.89394e-07
-0.000415462 -0.000215183 -4.70315e-07
-4.89394e-07 -4.70315e-07 1.50798e-05
0.00287068 -0.000734058 -3.32089e-06
-0.000734058 1.40288e-05 1.88779e-06
-3.32089e-06 1.88779e-06 0.000109462
0.00264766 -0.000566504 2.12077e-07
-0.000566504 -0.000135476 -2.47404e-07
2.12077e-07 -2.47404e-07 -2.70572e-05
0.00253337 -0.000460997 1.14509e-06
-0.000460997 -7.70037e-05 -6.41321e-07
1.14509e-06 -6.41321e-07 4.30435e-06
0.00260803 -0.000704139 -6.28375e-07
-0.000704139 -7.24193e-06 1.58808e-06
-6.28375e-07 1.58808e-06 -3.04905e-06
0.00250839 -0.000573621 4.22708e-07
-0.000573621 1.33925e-05 -7.14769e-08
4.22708e-07 -7.14769e-08 -4.2975e-06
0.00236703 -0.000509078 1.10956e-07
-0.000509078 3.34923e-05 -3.78716e-07
1.10956e-07 -3.78716e-07 -1.22739e-05
0.00256803 -0.000707208 1.58371e-06
-0.000707208 0.000109569 6.35998e-07
1.58371e-06 6.35998e-07 3.00393e-05
0.00241297 -0.000628018 6.23887e-07
-0.000628018 0.000115076 -1.08086e-07
6.23887e-07 -1.08086e-07 7.08747e-06
0.0023959 -0.000592454 -2.91676e-06
-0.000592454 0.000182521 3.13316e-07
-2.91676e-06 3.13316e-07 2.45524e-05
0.00230547 -0.000706404 6.41794e-07
-0.000706404 0.000117252 4.90673e-07
6.41794e-07 4.90673e-07 -5.80488e-05
0.00234841 -0.000675068 5.14896e-07
-0.000675068 0.00021324 -4.3849e-07
5.14896e-07 -4.3849e-07 -1.10314e-05
0.00225993 -0.000609364 -2.08676e-06
-0.000609364 0.000240328 -2.36595e-06
-2.08676e-06 -2.36595e-06 -2.40173e-05
0.00237721 -0.000716504 -3.85843e-07
-0.000716504 0.000305538 3.15668e-06
-3.85843e-07 3.15668e-06 2.697e-05
0.00233853 -0.000668581 -4.62205e-07
-0.000668581 0.000364523 -1.56531e-07
-4.62205e-07 -1.56531e-07 5.29073e-05
0.00154847 -0.000451985 -1.42782e-05
-0.000451985 7.82355e-05 4.30464e-06
-1.42782e-05 4.30464e-06 -0.000214817
0.000327486 -0.000283347 -1.87426e-05
-0.000283347 -0.000280552 2.18389e-05
-1.87426e-05 2.18389e-05 -0.000481527
0.00157842 -0.000523463 4.60274e-08
-0.000523463 0.000123714 1.40743e-07
4.60274e-08 1.40743e-07 -0.000221925
0.00218958 -0.000723614 2.46681e-06
-0.000723614 0.000316801 2.81604e-06
2.46681e-06 2.81604e-06 -6.54208e-05
0.00910242 -0.000193158 -0.000433409
-0.000193158 0.00558362 4.49898e-05
-0.000433409 4.49898e-05 0.00561195
0.000342969 -0.000313593 -1.28966e-06
-0.000313593 -0.000243155 1.0898e-06
-1.28966e-06 1.0898e-06 -0.000453854
0.00156962 -0.000583019 2.01504e-05
-0.000583019 0.000228875 -3.75875e-06
2.01504e-05 -3.75875e-06 -0.00017615
0.00941011 -0.000143432 -3.18033e-06
-0.000143432 0.00579928 2.58011e-06
-3.18033e-06 2.58011e-06 0.00582185
8.2294e-05 -0.000319228 2.39482e-05
-0.000319228 -0.000366736 -2.78983e-05
2.39482e-05 -2.78983e-05 -0.000587405
0.00945802 -0.00011998 0.000413159
-0.00011998 0.0058584 -4.77813e-05
0.000413159 -4.77813e-05 0.00587481
0.00216231 0.000921513 3.54716e-06
0.000921513 0.000211592 1.39744e-05
3.54716e-06 1.39744e-05 -0.000207494
0.00213748 0.000924902 2.62384e-06
0.000924902 0.000367726 -1.02795e-07
2.62384e-06 -1.02795e-07 -0.00011928
0.0024169 0.000898747 4.0875e-06
0.000898747 0.00060361 1.58473e-05
4.0875e-06 1.58473e-05 9.25237e-05
0.00234342 0.00106229 1.4125e-05
0.00106229 0.000721028 -1.2447e-05
1.4125e-05 -1.2447e-05 9.73414e-05
0.00209823 0.000932747 2.58011e-07
0.000932747 0.000564027 1.63412e-06
2.58011e-07 1.63412e-06 -2.51161e-05
0.000629239 0.000462577 -2.77351e-05
0.000462577 -0.000206042 2.25516e-06
-2.77351e-05 2.25516e-06 -0.000598764
0.00235131 0.000838824 -2.13944e-07
0.000838824 0.000877855 -1.08225e-05
-2.13944e-07 -1.08225e-05 0.000309747
0.000772099 0.000367218 -3.29692e-07
0.000367218 2.42013e-05 -7.36577e-07
-3.29692e-07 -7.36577e-07 -0.000322539
8.88456e-05 0.00029632 -3.30959e-05
0.00029632 -0.000340949 -3.01583e-05
-3.30959e-05 -3.01583e-05 -0.000519247
0.00207072 0.00024809 3.71906e-06
0.00024809 0.00092056 1.43035e-06
3.71906e-06 1.43035e-06 0.00064629
0.000255493 0.00025136 5.37894e-06
0.00025136 -0.000233473 -1.44994e-06
5.37894e-06 -1.44994e-06 -0.000380291
0.00803794 -0.00013645 -0.000280382
-0.00013645 0.00503821 -3.7603e-05
-0.000280382 -3.7603e-05 0.00501444
0.000348735 0.000209439 3.0093e-05
0.000209439 -0.00010832 2.6469e-05
3.0093e-05 2.6469e-05 -0.000244329
0.00645767 -0.000183306 -5.08545e-06
-0.000183306 0.0040307 -1.12878e-06
-5.08545e-06 -1.12878e-06 0.00399962
0.00453389 -0.00020842 8.94499e-05
-0.00020842 0.00277714 1.80582e-05
8.94499e-05 1.80582e-05 0.0027409
0.00143381 0.000430426 6.01505e-05
0.000430426 -0.000859844 3.26493e-05
6.01505e-05 3.26493e-05 -0.000309585
0.00151051 0.000828707 3.36816e-05
0.000828707 -0.00330621 -9.80756e-06
3.36816e-05 -9.80756e-06 -0.00127241
0.00577052 0.00156319 0.000300947
0.00156319 -0.00286415 0.000131093
0.000300947 0.000131093 0.00105309
0.00277434 0.00106278 -7.98064e-06
0.00106278 0.000364691 2.24473e-06
-7.98064e-06 2.24473e-06 1.6105e-05
0.00245027 0.00112765 -1.01051e-05
0.00112765 0.000400093 -4.34615e-06
-1.01051e-05 -4.34615e-06 -9.47465e-05
0.00250085 0.000795679 6.51387e-06
0.000795679 0.000169553 4.83962e-06
6.51387e-06 4.83962e-06 -5.28328e-05
0.00258951 0.00101125 1.282e-06
0.00101125 0.000353079 2.37181e-07
1.282e-06 2.37181e-07 -2.52602e-05
0.00212281 0.000990135 -7.27194e-06
0.000990135 0.000302471 -1.78894e-05
-7.27194e-06 -1.78894e-05 -0.000171937
0.00299388 0.000969057 -4.71698e-06
0.000969057 0.000206647 2.5673e-06
-4.71698e-06 2.5673e-06 5.11432e-05
0.00265652 0.00142742 1.98443e-06
0.00142742 0.000677154 -9.08944e-06
1.98443e-06 -9.08944e-06 4.36282e-05
0.00296179 0.00124427 -1.15667e-06
0.00124427 0.000461573 -1.27956e-06
-1.15667e-06 -1.27956e-06 5.05157e-05
0.00239719 0.000596977 -6.80511e-06
0.000596977 -0.000376216 1.17542e-06
-6.80511e-06 1.17542e-06 -0.000174169
0.00229075 0.00147238 -1.48783e-05
0.00147238 0.000317879 1.9065e-05
-1.48783e-05 1.9065e-05 -0.000306787
0.00300493 0.00121096 2.80022e-06
0.00121096 0.000313709 -5.55617e-06
2.80022e-06 -5.55617e-06 8.61693e-05
0.000792178 0.000611684 -3.40829e-05
0.000611684 -0.00101588 -2.23594e-06
-3.40829e-05 -2.23594e-06 -0.000584582
-0.00314967 0.000568759 -2.41398e-05
0.000568759 -0.00260484 -1.36357e-05
-2.41398e-05 -1.36357e-05 -0.00264222
0.00580789 0.0020038 -0.000223942
0.0020038 -0.000200442 -8.79758e-05
-0.000223942 -8.79758e-05 0.00114127
0.00277224 0.000227642 -4.71003e-06
0.000227642 -0.000271533 -3.93861e-06
-4.71003e-06 -3.93861e-06 1.86385e-05
0.00332569 1.84312e-05 -4.5779e-06
1.84312e-05 7.4942e-05 -2.40711e-06
-4.5779e-06 -2.40711e-06 0.000438704
0.00336635 -0.000399129 -0.000179945
-0.000399129 -0.00207521 -2.16091e-05
-0.000179945 -2.16091e-05 -0.000425709
0.00214424 -0.000531014 -0.000117071
-0.000531014 -0.000924387 2.98001e-05
-0.000117071 2.98001e-05 -0.000182905
0.00230695 -0.000148228 -1.91946e-05
-0.000148228 -0.000514576 -1.03136e-06
-1.91946e-05 -1.03136e-06 -0.000129759
0.00266835 -0.000371991 6.25105e-06
-0.000371991 -0.000465249 -1.16281e-06
6.25105e-06 -1.16281e-06 -3.70841e-05
0.0028473 0.000142467 -2.08022e-06
0.000142467 -0.000291955 2.0062e-06
-2.08022e-06 2.0062e-06 -3.3569e-05
0.00271916 -6.89102e-05 -1.55839e-06
-6.89102e-05 -0.000271658 3.41356e-07
-1.55839e-06 3.41356e-07 8.06679e-06
0.00287353 -0.000629952 -4.51339e-06
-0.000629952 -0.000271836 2.75746e-06
-4.51339e-06 2.75746e-06 -3.33144e-05
0.00264754 -0.000397776 3.32967e-07
-0.000397776 -0.000245623 -3.1458e-07
3.32967e-07 -3.1458e-07 -2.40818e-05
0.00255202 -0.000297581 1.3786e-06
-0.000297581 -0.000124682 -5.15646e-07
1.3786e-06 -5.15646e-07 3.6349e-05
0.00266363 -0.000571339 -1.31557e-07
-0.000571339 -0.000114636 1.48698e-06
-1.31557e-07 1.48698e-06 -1.42322e-05
0.00252169 -0.000459627 3.11817e-07
-0.000459627 -8.10326e-05 1.39463e-07
3.11817e-07 1.39463e-07 -3.87791e-06
0.00235652 -0.00038649 4.98054e-07
-0.00038649 -2.19412e-05 -8.87192e-08
4.98054e-07 -8.87192e-08 -5.02483e-06
0.00251325 -0.000571879 4.43444e-09
-0.000571879 9.17719e-06 6.63089e-07
4.43444e-09 6.63089e-07 -8.18552e-06
0.00238332 -0.000510356 4.03478e-07
-0.000510356 4.03399e-05 -1.14045e-07
4.03478e-07 -1.14045e-07 -5.92659e-06
0.00232482 -0.000479134 -3.89333e-06
-0.000479134 8.91372e-05 1.64558e-07
-3.89333e-06 1.64558e-07 2.19477e-07
0.00241533 -0.000628936 1.24334e-06
-0.000628936 0.00011267 1.35317e-07
1.24334e-06 1.35317e-07 4.18792e-06
0.00239768 -0.000592171 6.46124e-07
-0.000592171 0.000183896 -1.13722e-07
6.46124e-07 -1.13722e-07 2.54531e-05
0.00234419 -0.00053814 -2.08238e-06
-0.00053814 0.000243725 -1.86466e-06
-2.08238e-06 -1.86466e-06 3.51077e-05
0.00225992 -0.000670744 1.01156e-06
-0.000670744 0.000152345 3.14515e-07
1.01156e-06 3.14515e-07 -6.92482e-05
0.00230352 -0.000613055 -7.4381e-07
-0.000613055 0.000270151 2.23137e-07
-7.4381e-07 2.23137e-07 4.88957e-06
0.00153868 -0.000396993 -1.07465e-05
-0.000396993 4.75366e-05 3.48255e-06
-1.07465e-05 3.48255e-06 -0.000206066
0.00236314 -0.000672175 1.49814e-06
-0.000672175 0.000384224 2.95881e-06
1.49814e-06 2.95881e-06 7.35828e-05
0.00156917 -0.000455166 2.13494e-08
-0.000455166 8.32647e-05 2.58972e-07
2.13494e-08 2.58972e-07 -0.000209387
0.00308904 -0.000293745 -6.32855e-05
-0.000293745 0.00151311 1.61508e-05
-6.32855e-05 1.61508e-05 0.00135472
0.00314234 -0.000165946 -0.000344717
-0.000165946 0.00169378 5.55395e-05
-0.000344717 5.55395e-05 0.00167685
0.00178469 -0.000310025 -2.03179e-05
-0.000310025 0.00066911 6.0084e-07
-2.03179e-05 6.0084e-07 0.000481388
0.00157433 -0.0005226 1.87309e-05
-0.0005226 0.000121236 -4.62172e-06
1.87309e-05 -4.62172e-06 -0.000222789
0.00891549 -0.000196102 -8.5752e-06
-0.000196102 0.0054743 3.17877e-06
-8.5752e-06 3.17877e-06 0.0054972
7.61905e-05 -0.000328982 2.35486e-05
-0.000328982 -0.000418119 -2.42648e-05
2.35486e-05 -2.42648e-05 -0.000634251
0.00933704 -0.000153451 0.000411818
-0.000153451 0.00575843 -4.9022e-05
0.000411818 -4.9022e-05 0.00577617
0.00236959 0.000622892 3.95493e-06
0.000622892 0.000102499 2.18513e-06
3.95493e-06 2.18513e-06 -4.76002e-05
0.00237637 0.00080847 7.92041e-06
0.00080847 0.000260365 9.32672e-06
7.92041e-06 9.32672e-06 -4.27555e-05
0.0024355 0.000941565 8.12811e-07
0.000941565 0.000389532 1.64276e-08
8.12811e-07 1.64276e-08 -2.30508e-05
0.00236001 0.000832379 5.36258e-06
0.000832379 0.000486155 1.37641e-05
5.36258e-06 1.37641e-05 5.12794e-05
0.0022471 0.000946518 5.78543e-06
0.000946518 0.000442944 -1.55193e-05
5.78543e-06 -1.55193e-05 -4.68551e-05
0.002202 0.000873197 7.95207e-07
0.000873197 0.000465052 2.83076e-07
7.95207e-07 2.83076e-07 -3.99307e-05
0.0012617 0.000558334 -3.80565e-05
0.000558334 0.000104094 -4.78398e-07
-3.80565e-05 -4.78398e-07 -0.000301552
0.00196803 0.000915144 5.71534e-06
0.000915144 0.000472351 -1.35158e-05
5.71534e-06 -1.35158e-05 -0.000113498
0.0010392 0.000491618 -5.03685e-06
0.000491618 4.93145e-05 2.09094e-07
-5.03685e-06 2.09094e-07 -0.000343581
-0.000143607 0.000329031 -3.13273e-05
0.000329031 -0.000496411 -2.67595e-05
-3.13273e-05 -2.67595e-05 -0.000705759
0.00162829 0.000371699 1.79722e-05
0.000371699 0.000585746 -3.62974e-06
1.79722e-05 -3.62974e-06 0.000256545
0.000275957 0.000266119 2.28609e-06
0.000266119 -0.000227462 -5.95541e-07
2.28609e-06 -5.95541e-07 -0.00040333
0.00931598 6.33544e-06 -0.000373218
6.33544e-06 0.00579797 -4.42595e-05
-0.000373218 -4.42595e-05 0.00579892
0.000651754 0.000244656 3.56989e-05
0.000244656 1.0446e-05 2.6612e-05
3.56989e-05 2.6612e-05 -0.000127391
0.0077895 -0.000134874 9.47143e-06
-0.000134874 0.00486251 -3.67531e-06
9.47143e-06 -3.67531e-06 0.00484439
0.00571924 -0.00022684 0.000130793
-0.00022684 0.00356455 2.17571e-05
0.000130793 2.17571e-05 0.00352036
0.00255438 0.000267125 -4.09559e-06
0.000267125 -0.000416028 7.57873e-07
-4.09559e-06 7.57873e-07 -9.23288e-05
0.00160518 0.000351926 -8.55599e-07
0.000351926 -0.00108666 -7.64309e-06
-8.55599e-07 -7.64309e-06 -0.000344239
0.00335902 0.000997785 -0.000184349
0.000997785 -0.00271787 -4.59955e-05
-0.000184349 -4.59955e-05 -0.000552717
0.00261475 0.000750535 7.76201e-07
0.000750535 0.000124439 8.32294e-07
7.76201e-07 8.32294e-07 1.53733e-07
0.00272923 0.00104945 -4.90558e-06
0.00104945 0.000372279 -6.98138e-07
-4.90558e-06 -6.98138e-07 3.15974e-05
0.00254055 0.00115881 -1.96064e-07
0.00115881 0.000446717 -1.01295e-05
-1.96064e-07 -1.01295e-05 -5.27244e-05
0.00252252 0.000780648 1.53503e-06
0.000780648 0.000205461 1.14264e-06
1.53503e-06 1.14264e-06 -1.91125e-05
0.00268782 0.0010146 -1.9312e-06
0.0010146 0.000415223 -1.06057e-05
-1.9312e-06 -1.06057e-05 4.61708e-05
0.00284958 0.000588615 5.44437e-06
0.000588615 -4.79164e-05 2.68578e-07
5.44437e-06 2.68578e-07 7.15004e-05
0.00287586 0.000957639 -1.73119e-06
0.000957639 0.000152844 1.03591e-06
-1.73119e-06 1.03591e-06 7.57186e-06
0.00301122 0.00120486 6.14653e-06
0.00120486 0.000520993 -4.64676e-06
6.14653e-06 -4.64676e-06 0.000118725
0.00230705 0.000548419 -2.00125e-07
0.000548419 -0.000354486 4.89145e-07
-2.00125e-07 4.89145e-07 -0.000142734
0.00253804 0.00112556 5.69715e-06
0.00112556 4.6373e-05 -3.56842e-06
5.69715e-06 -3.56842e-06 -0.000164663
-0.000701744 0.000530654 -4.11762e-05
0.000530654 -0.00211666 -6.62822e-06
-4.11762e-05 -6.62822e-06 -0.00140752
0.00264353 0.000125857 -1.89555e-06
0.000125857 -0.00019792 7.26289e-07
-1.89555e-06 7.26289e-07 2.96739e-05
0.0027068 0.000210902 9.23683e-07
0.000210902 -0.000318686 7.68959e-07
9.23683e-07 7.68959e-07 -2.69363e-05
0.00303017 3.21116e-05 -5.78015e-05
3.21116e-05 -0.00013464 1.73345e-06
-5.78015e-05 1.73345e-06 0.000198042
0.00254911 -0.000398452 -2.79731e-05
-0.000398452 -0.00058772 5.99086e-06
-2.79731e-05 5.99086e-06 -0.000105366
0.00315238 0.000167741 4.11871e-06
0.000167741 -8.6599e-05 -6.25594e-07
4.11871e-06 -6.25594e-07 0.000151514
0.0027314 -7.25253e-05 -1.18972e-06
-7.25253e-05 -0.000271237 -7.19583e-07
-1.18972e-06 -7.19583e-07 4.66848e-06
0.0024147 -8.35321e-05 1.25387e-06
-8.35321e-05 -0.000148166 1.16877e-07
1.25387e-06 1.16877e-07 -5.20542e-06
0.00256696 -0.000379094 7.20945e-07
-0.000379094 -0.000281375 -4.3761e-07
7.20945e-07 -4.3761e-07 -6.80899e-05
0.00251194 -0.000307098 -4.02332e-08
-0.000307098 -0.000145052 -2.47781e-08
-4.02332e-08 -2.47781e-08 6.17103e-06
0.00230623 -0.000254228 1.60192e-06
-0.000254228 -6.79e-05 -7.31487e-07
1.60192e-06 -7.31487e-07 -1.51355e-05
0.00250875 -0.00045815 -1.55616e-06
-0.00045815 -8.58603e-05 9.35872e-07
-1.55616e-06 9.35872e-07 -1.28554e-05
0.00235382 -0.000385258 3.32551e-08
-0.000385258 -2.80945e-05 7.68672e-08
3.32551e-08 7.68672e-08 -1.10629e-05
0.00230104 -0.000363133 -4.41898e-06
-0.000363133 4.96754e-05 7.50379e-07
-4.41898e-06 7.50379e-07 1.0545e-05
0.00239787 -0.000511565 5.84756e-07
-0.000511565 4.56829e-05 7.46769e-08
5.84756e-07 7.46769e-08 -1.038e-06
0.00235544 -0.000482084 3.00558e-07
-0.000482084 0.000108826 -2.40171e-07
3.00558e-07 -2.40171e-07 1.85676e-05
0.00232245 -0.000451567 -2.22514e-06
-0.000451567 0.000189444 -4.97769e-07
-2.22514e-06 -4.97769e-07 3.43362e-05
0.00239774 -0.000591709 3.19344e-06
-0.000591709 0.000184617 -2.03449e-07
3.19344e-06 -2.03449e-07 2.57515e-05
0.00228487 -0.000534592 -9.72182e-07
-0.000534592 0.000201176 -2.14552e-07
-9.72182e-07 -2.14552e-07 -7.0086e-06
0.00148116 -0.000339021 -8.17601e-06
-0.000339021 -1.05886e-05 2.8893e-06
-8.17601e-06 2.8893e-06 -0.000231263
0.00234814 -0.000616833 2.59875e-06
-0.000616833 0.000300672 1.91899e-06
2.59875e-06 1.91899e-06 3.44786e-05
0.00155354 -0.000400061 -9.67353e-08
-0.000400061 4.69002e-05 9.62847e-08
-9.67353e-08 9.62847e-08 -0.000206335
0.0029794 -0.000265054 -6.88413e-05
-0.000265054 0.00144504 1.51171e-05
-6.88413e-05 1.51171e-05 0.00130427
0.00159308 -0.000460034 1.29899e-05
-0.000460034 8.8046e-05 -4.05352e-06
1.29899e-05 -4.05352e-06 -0.000204751
0.00318755 -0.000324004 5.98192e-05
-0.000324004 0.0015816 -1.06758e-05
5.98192e-05 -1.06758e-05 0.00143563
0.00284407 -0.000180478 -0.000324309
-0.000180478 0.0015141 5.7163e-05
-0.000324309 5.7163e-05 0.00149224
0.00569453 -0.000208859 -0.000314987
-0.000208859 0.00338195 4.18292e-05
-0.000314987 4.18292e-05 0.0033825
0.00337208 -0.00039064 0.000199759
-0.00039064 0.00171557 -3.68875e-05
0.000199759 -3.68875e-05 0.00156354
0.00874293 -0.000203788 0.000405401
-0.000203788 0.00537051 -5.21256e-05
0.000405401 -5.21256e-05 0.00538943
0.00245269 0.000596027 5.38959e-07
0.000596027 0.000101421 -7.97991e-07
5.38959e-07 -7.97991e-07 1.75653e-05
0.00224662 0.000647502 2.3916e-06
0.000647502 0.000143198 4.26846e-06
2.3916e-06 4.26846e-06 -6.99732e-05
0.00237975 0.00061259 7.12571e-07
0.00061259 0.000116694 1.33398e-07
7.12571e-07 1.33398e-07 -2.29489e-05
0.00228506 0.00071664 9.18879e-07
0.00071664 0.000327807 1.02634e-05
9.18879e-07 1.02634e-05 -1.26506e-05
0.00245441 0.000814428 -2.36052e-08
0.000814428 0.000301777 -5.32292e-07
-2.36052e-08 -5.32292e-07 -2.80742e-06
0.00274035 0.000965095 -3.10885e-06
0.000965095 0.000587322 -1.32305e-05
-3.10885e-06 -1.32305e-05 0.000181204
0.00222797 0.00082197 8.46144e-07
0.00082197 0.000390525 2.31501e-07
8.46144e-07 2.31501e-07 -4.23947e-05
0.00158019 0.000575379 -3.47391e-05
0.000575379 0.00016149 -2.07221e-06
-3.47391e-05 -2.07221e-06 -0.000214665
0.00194662 0.00084633 -3.68002e-07
0.00084633 0.000295371 -1.49564e-05
-3.68002e-07 -1.49564e-05 -0.000203786
0.00133728 0.0005845 -3.99044e-06
0.0005845 0.000126155 -3.09876e-08
-3.99044e-06 -3.09876e-08 -0.000289038
0.000171949 0.000338316 -2.85322e-05
0.000338316 -0.000334352 -2.3316e-05
-2.85322e-05 -2.3316e-05 -0.00055387
0.00149976 0.000506531 3.10955e-05
0.000506531 0.00032733 2.16547e-06
3.10955e-05 2.16547e-06 -5.6961e-05
0.00010504 0.000297096 1.24595e-06
0.000297096 -0.00034918 2.31599e-06
1.24595e-06 2.31599e-06 -0.00054852
0.0094607 0.000108248 -0.000395425
0.000108248 0.00585287 -4.91488e-05
-0.000395425 -4.91488e-05 0.00586072
0.000137503 0.000223238 2.70278e-05
0.000223238 -0.000328536 2.9174e-05
2.70278e-05 2.9174e-05 -0.000495847
0.00868893 -4.0701e-05 1.28163e-05
-4.0701e-05 0.00539243 -1.75125e-06
1.28163e-05 -1.75125e-06 0.00539182
0.00742198 -0.000159837 0.000227031
-0.000159837 0.00462135 2.19067e-05
0.000227031 2.19067e-05 0.0046018
0.00266314 0.000346551 1.78196e-06
0.000346551 -0.000170127 -8.11545e-07
1.78196e-06 -8.11545e-07 1.69293e-05
0.00244895 0.000276582 2.65062e-06
0.000276582 -0.000402284 -1.78171e-06
2.65062e-06 -1.78171e-06 -8.23512e-05
0.000721252 0.000299396 -6.0514e-05
0.000299396 -0.00195458 -7.20519e-06
-6.0514e-05 -7.20519e-06 -0.00102154
0.00254193 0.00051612 3.92126e-06
0.00051612 -2.97191e-05 4.70665e-07
3.92126e-06 4.70665e-07 1.97223e-06
0.00255897 0.000742878 -1.51681e-06
0.000742878 0.000100548 6.47468e-07
-1.51681e-06 6.47468e-07 -1.81361e-05
0.002603 0.00102487 7.73545e-06
0.00102487 0.000328306 -4.61037e-06
7.73545e-06 -4.61037e-06 -4.59177e-07
0.0025396 0.000765321 -5.25255e-06
0.000765321 0.000236284 -4.48706e-06
-5.25255e-06 -4.48706e-06 1.13769e-05
0.00277968 0.00057552 -2.27535e-06
0.00057552 -8.10342e-05 2.20483e-07
-2.27535e-06 2.20483e-07 3.36694e-05
0.0027702 0.000943964 3.99733e-07
0.000943964 0.000116281 -4.02195e-06
3.99733e-07 -4.02195e-06 -2.03037e-05
0.00220881 0.000539387 5.0488e-06
0.000539387 -0.00029474 -3.25584e-06
5.0488e-06 -3.25584e-06 -9.24459e-05
0.00247495 9.95418e-05 7.91976e-07
9.95418e-05 -0.000117775 5.63259e-07
7.91976e-07 5.63259e-07 1.52508e-05
0.00257061 0.000127505 6.0601e-07
0.000127505 -0.000232591 -4.99875e-07
6.0601e-07 -4.99875e-07 -1.00382e-05
0.00261908 0.00020378 -4.87581e-06
0.00020378 -0.000372314 1.67643e-06
-4.87581e-06 1.67643e-06 -8.26663e-05
0.00228083 -1.31791e-05 3.72285e-07
-1.31791e-05 -0.000123047 1.59399e-07
3.72285e-07 1.59399e-07 -2.92423e-05
0.00273978 -8.09362e-05 2.90477e-06
-8.09362e-05 -0.000273205 -1.11936e-06
2.90477e-06 -1.11936e-06 -5.45152e-07
0.00242294 -8.82786e-05 -4.9384e-07
-8.82786e-05 -0.000142741 4.14498e-07
-4.9384e-07 4.14498e-07 -7.57213e-07
0.00227125 -0.000132175 7.01288e-07
-0.000132175 -7.81817e-05 -3.3965e-07
7.01288e-07 -3.3965e-07 -1.62953e-05
0.00247239 -0.00031656 -1.15492e-06
-0.00031656 -0.000164754 6.81435e-07
-1.15492e-06 6.81435e-07 -2.36103e-05
0.00230613 -0.000250538 6.25791e-07
-0.000250538 -6.97406e-05 -3.70164e-07
6.25791e-07 -3.70164e-07 -1.59912e-05
0.00225114 -0.000247472 -3.5677e-06
-0.000247472 1.74986e-05 7.02943e-07
-3.5677e-06 7.02943e-07 2.32191e-06
0.00235235 -0.000383682 -1.78752e-07
-0.000383682 -3.35657e-05 1.69136e-07
-1.78752e-07 1.69136e-07 -1.63387e-05
0.00230494 -0.000363144 1.91257e-07
-0.000363144 4.971e-05 -1.74274e-07
1.91257e-07 -1.74274e-07 1.04887e-05
0.00227174 -0.000351869 -2.15351e-06
-0.000351869 0.000125732 3.25303e-07
-2.15351e-06 3.25303e-07 1.50439e-05
0.00239348 -0.000485264 4.18893e-06
-0.000485264 0.000133978 -6.19258e-07
4.18893e-06 -6.19258e-07 4.23281e-05
0.00227313 -0.000446399 -6.34105e-07
-0.000446399 0.000159206 -9.65582e-08
-6.34105e-07 -9.65582e-08 5.11127e-06
0.00146921 -0.000279939 -5.40984e-06
-0.000279939 -2.88325e-05 2.08288e-06
-5.40984e-06 2.08288e-06 -0.000220577
0.00222611 -0.000530943 2.09225e-06
-0.000530943 0.000159042 6.9623e-07
2.09225e-06 6.9623e-07 -4.86672e-05
0.00152846 -0.000341563 -2.49753e-07
-0.000341563 1.28854e-05 4.826e-08
-2.49753e-07 4.826e-08 -0.000206805
0.00284364 -0.000235433 -7.34535e-05
-0.000235433 0.00136434 1.40284e-05
-7.34535e-05 1.40284e-05 0.00123752
0.00155969 -0.000402743 8.88218e-06
-0.000402743 4.03239e-05 -3.32862e-06
8.88218e-06 -3.32862e-06 -0.000212453
0.00307055 -0.000280637 5.43e-05
-0.000280637 0.00150481 -8.28628e-06
5.43e-05 -8.28628e-06 0.00137707
0.00276988 -0.000150979 -0.000312994
-0.000150979 0.00146183 4.87692e-05
-0.000312994 4.87692e-05 0.00144324
0.00327166 -0.000325047 0.000186342
-0.000325047 0.00163176 -3.57856e-05
0.000186342 -3.57856e-05 0.00150239
0.00242176 -0.000115349 -0.00012283
-0.000115349 0.00123713 2.05261e-05
-0.00012283 2.05261e-05 0.00119701
0.00802826 -0.000136669 0.000149834
-0.000136669 0.00489192 -1.18205e-05
0.000149834 -1.18205e-05 0.00486988
0.00243228 0.000496951 3.28875e-08
0.000496951 7.03763e-05 3.55176e-08
3.28875e-08 3.55176e-08 2.56335e-05
0.00238221 0.000576357 -2.22867e-06
0.000576357 0.000143769 -5.55869e-07
-2.22867e-06 -5.55869e-07 8.17526e-06
0.00245605 0.000591601 -2.56962e-06
0.000591601 0.000105385 2.04684e-07
-2.56962e-06 2.04684e-07 1.66066e-05
0.00214094 0.000599065 -2.07716e-06
0.000599065 0.000152946 3.99309e-06
-2.07716e-06 3.99309e-06 -0.000113853
0.00234643 0.000667304 -1.07319e-06
0.000667304 0.000184891 -1.82851e-06
-1.07319e-06 -1.82851e-06 -1.87048e-05
0.00238532 0.000600879 -7.25981e-06
0.000600879 0.00012891 -4.10007e-06
-7.25981e-06 -4.10007e-06 -1.64771e-08
0.00163285 0.000497348 -2.48912e-05
0.000497348 8.89597e-05 -2.38533e-06
-2.48912e-05 -2.38533e-06 -0.000220232
0.00226245 0.000715396 1.52133e-06
0.000715396 0.000310301 4.90888e-07
1.52133e-06 4.90888e-07 -2.95694e-05
0.00254991 0.000822469 -2.28775e-06
0.000822469 0.000354808 -9.2591e-06
-2.28775e-06 -9.2591e-06 4.70697e-05
0.00212078 0.000813124 -3.82087e-06
0.000813124 0.00031334 -1.30935e-05
-3.82087e-06 -1.30935e-05 -0.000117818
0.00161914 0.0005806 -6.42152e-07
0.0005806 0.000186424 2.89428e-07
-6.42152e-07 2.89428e-07 -0.000192756
0.000404721 0.000326225 -2.60748e-05
0.000326225 -0.000216769 -2.03059e-05
-2.60748e-05 -2.03059e-05 -0.00042801
0.00170948 0.000629208 4.15755e-05
0.000629208 0.000342939 3.0131e-06
4.15755e-05 3.0131e-06 -8.30624e-05
0.000143186 0.000319444 7.65612e-07
0.000319444 -0.000341476 1.24756e-06
7.65612e-07 1.24756e-06 -0.000557233
0.00889296 0.00019533 -0.000391986
0.00019533 0.00548132 -5.54132e-05
-0.000391986 -5.54132e-05 0.0054873
0.000328469 0.000271502 2.81198e-05
0.000271502 -0.000210664 2.63296e-05
2.81198e-05 2.63296e-05 -0.000404192
0.00937217 6.96549e-05 8.84746e-06
6.96549e-05 0.00579106 1.44994e-06
8.84746e-06 1.44994e-06 0.00580398
0.00862642 -7.42635e-05 0.000305712
-7.42635e-05 0.00534823 2.47006e-05
0.000305712 2.47006e-05 0.0053498
0.00244866 0.00028173 1.17188e-06
0.00028173 -9.26489e-05 3.87671e-07
1.17188e-06 3.87671e-07 1.44939e-06
0.00264308 0.00035481 -5.17361e-07
0.00035481 -0.000208843 3.71859e-07
-5.17361e-07 3.71859e-07 -1.39635e-05
0.00236088 0.000262828 -2.42874e-06
0.000262828 -0.000417417 1.14327e-06
-2.42874e-06 1.14327e-06 -8.95952e-05
0.00252617 0.000510863 -6.07374e-07
0.000510863 -3.7646e-05 1.13524e-07
-6.07374e-07 1.13524e-07 -3.90033e-06
0.00251363 0.000737924 -1.79909e-06
0.000737924 8.29132e-05 -2.44645e-06
-1.79909e-06 -2.44645e-06 -3.07447e-05
0.00269903 0.000559203 -8.06302e-07
0.000559203 -0.000133659 -8.33626e-07
-8.06302e-07 -8.33626e-07 -1.96107e-05
0.00235898 9.36451e-05 1.05203e-06
9.36451e-05 -7.08991e-05 3.70214e-07
1.05203e-06 3.70214e-07 8.72972e-06
0.00246127 9.92034e-05 1.06186e-07
9.92034e-05 -0.000121488 -1.59166e-07
1.06186e-07 -1.59166e-07 1.03312e-05
0.00254021 0.000129071 6.80749e-07
0.000129071 -0.000237268 3.4343e-08
6.80749e-07 3.4343e-08 -2.1495e-05
0.00231461 -9.1518e-06 -6.1393e-07
-9.1518e-06 -9.64265e-05 9.45178e-08
-6.1393e-07 9.45178e-08 -5.25509e-06
0.00226216 -3.13173e-05 -9.75571e-07
-3.13173e-05 -2.10875e-05 3.07847e-08
-9.75571e-07 3.07847e-08 2.62899e-05
0.0024326 -9.27162e-05 -1.31294e-06
-9.27162e-05 -0.000136769 8.5578e-08
-1.31294e-06 8.5578e-08 4.42473e-06
0.00228099 -0.000134287 -9.93427e-07
-0.000134287 -6.2296e-05 2.07021e-07
-9.93427e-07 2.07021e-07 -6.22314e-06
0.00213559 -0.00015092 -3.83052e-06
-0.00015092 -5.72989e-05 4.70357e-07
-3.83052e-06 4.70357e-07 -5.40536e-05
0.0023017 -0.000247178 -3.17575e-08
-0.000247178 -7.41346e-05 -5.13511e-08
-3.17575e-08 -5.13511e-08 -1.94599e-05
0.00223322 -0.000246048 1.08403e-06
-0.000246048 5.90299e-06 -2.3407e-07
1.08403e-06 -2.3407e-07 -8.88065e-06
0.00229601 -0.000256386 -1.54213e-06
-0.000256386 0.000115584 1.18283e-06
-1.54213e-06 1.18283e-06 3.90817e-05
0.0023034 -0.000363953 4.49034e-06
-0.000363953 4.62151e-05 -1.02441e-06
4.49034e-06 -1.02441e-06 6.71837e-06
0.0022617 -0.000349976 -2.38594e-07
-0.000349976 0.000122017 -3.023e-07
-2.38594e-07 -3.023e-07 1.20276e-05
0.00149608 -0.00022218 -3.49568e-06
-0.00022218 -1.76263e-05 1.02676e-06
-3.49568e-06 1.02676e-06 -0.000183565
0.00221185 -0.000440891 2.24128e-06
-0.000440891 0.000119698 -2.24854e-08
2.24128e-06 -2.24854e-08 -3.34037e-05
0.00152203 -0.000282373 -3.06563e-07
-0.000282373 -2.10781e-06 2.44844e-07
-3.06563e-07 2.44844e-07 -0.000192941
0.0027288 -0.000214595 -7.38355e-05
-0.000214595 0.00129964 1.19494e-05
-7.38355e-05 1.19494e-05 0.00118554
0.00157789 -0.000344471 6.65544e-06
-0.000344471 3.74606e-05 -2.74988e-06
6.65544e-06 -2.74988e-06 -0.000181255
0.00296395 -0.000233564 5.13946e-05
-0.000233564 0.00143733 -6.28611e-06
5.13946e-05 -6.28611e-06 0.00132517
0.00269728 -0.000123032 -0.000305892
-0.000123032 0.00141163 3.99965e-05
-0.000305892 3.99965e-05 0.00139606
0.00317167 -0.000269719 0.000179968
-0.000269719 0.00156127 -2.96753e-05
0.000179968 -2.96753e-05 0.00145069
0.00236372 -0.000107953 -0.000112032
-0.000107953 0.00120213 1.57502e-05
-0.000112032 1.57502e-05 0.00116405
0.00204641 -0.000107297 8.59474e-05
-0.000107297 0.00100922 -1.5069e-05
8.59474e-05 -1.5069e-05 0.00094325
0.00231705 0.000311405 8.54778e-07
0.000311405 -3.51988e-05 3.67899e-07
8.54778e-07 3.67899e-07 -1.8938e-05
0.00235013 0.000456044 -3.80123e-06
0.000456044 0.000100979 -2.43647e-07
-3.80123e-06 -2.43647e-07 1.14102e-05
0.00241556 0.000497931 -6.15318e-07
0.000497931 3.85184e-05 -2.76792e-07
-6.15318e-07 -2.76792e-07 5.99167e-06
0.00231428 0.000544806 -5.36217e-07
0.000544806 0.000197879 1.30284e-06
-5.36217e-07 1.30284e-06 -3.26183e-06
0.00235977 0.000570791 -5.85434e-07
0.000570791 0.00013686 -2.38407e-07
-5.85434e-07 -2.38407e-07 -4.87849e-06
0.00246548 0.000588857 -6.55181e-07
0.000588857 0.000113302 1.27216e-07
-6.55181e-07 1.27216e-07 1.89236e-05
0.00155803 0.000412746 -1.65427e-05
0.000412746 3.07093e-05 -2.66143e-06
-1.65427e-05 -2.66143e-06 -0.000225275
0.00221771 0.000610592 2.18665e-07
0.000610592 0.000195545 -1.59917e-06
2.18665e-07 -1.59917e-06 -6.11438e-05
0.00244912 0.000688374 -4.25068e-06
0.000688374 0.00022736 -5.44818e-06
-4.25068e-06 -5.44818e-06 3.30565e-05
0.000401894 0.000258622 -2.20684e-05
0.000258622 -0.000239845 -1.64817e-05
-2.20684e-05 -1.64817e-05 -0.000423528
0.00160188 0.000488015 5.98728e-08
0.000488015 8.36769e-05 1.59835e-07
5.98728e-08 1.59835e-07 -0.000224126
0.0022085 0.000710939 -2.35714e-07
0.000710939 0.000271708 -1.03735e-05
-2.35714e-07 -1.03735e-05 -6.6732e-05
0.00158018 0.000581127 3.69937e-05
0.000581127 0.000156881 2.48081e-06
3.69937e-05 2.48081e-06 -0.00022497
0.000299898 0.000311985 1.28687e-07
0.000311985 -0.00028172 1.03074e-06
1.28687e-07 1.03074e-06 -0.000492381
0.00843113 0.000282139 -0.000389238
0.000282139 0.00518234 -5.9205e-05
-0.000389238 -5.9205e-05 0.0051845
0.000254371 0.00030584 2.67934e-05
0.00030584 -0.000264645 2.17817e-05
2.67934e-05 2.17817e-05 -0.000475865
0.009054 0.000175187 1.01579e-05
0.000175187 0.00557175 2.35886e-06
1.01579e-05 2.35886e-06 0.00558665
0.00909448 3.30542e-05 0.000362258
3.30542e-05 0.00560541 3.22419e-05
0.000362258 3.22419e-05 0.00561884
0.0023492 0.000174343 9.53522e-07
0.000174343 -3.54352e-05 1.41629e-07
9.53522e-07 1.41629e-07 2.70358e-05
0.002415 0.000286115 4.78601e-07
0.000286115 -0.000121826 2.83076e-07
4.78601e-07 2.83076e-07 -2.83225e-05
0.00261035 0.000365745 -6.97183e-07
0.000365745 -0.000250092 1.27356e-06
-6.97183e-07 1.27356e-06 -4.80515e-05
0.00251187 0.000504296 -3.95084e-07
0.000504296 -4.47872e-05 -4.36694e-07
-3.95084e-07 -4.36694e-07 -9.9022e-06
0.00222435 4.27292e-05 -1.46572e-06
4.27292e-05 -5.36197e-06 2.49977e-07
-1.46572e-06 2.49977e-07 1.72462e-05
0.00235916 8.29022e-05 9.01737e-08
8.29022e-05 -7.41835e-05 -6.53202e-08
9.01737e-08 -6.53202e-08 8.41148e-06
0.00244926 9.85781e-05 -5.54583e-09
9.85781e-05 -0.000123519 -4.68143e-07
-5.54583e-09 -4.68143e-07 6.93533e-06
0.00234237 -4.67677e-06 -3.02073e-06
-4.67677e-06 -7.39922e-05 -3.11834e-07
-3.02073e-06 -3.11834e-07 1.43688e-05
0.00227386 -2.51214e-05 -6.20685e-07
-2.51214e-05 -1.94053e-05 -1.18862e-07
-6.20685e-07 -1.18862e-07 3.15289e-05
0.00218864 -5.78903e-05 -4.65931e-06
-5.78903e-05 6.02972e-06 1.24632e-07
-4.65931e-06 1.24632e-07 7.19494e-06
0.00229388 -0.000136317 -3.7649e-07
-0.000136317 -4.41294e-05 6.1352e-07
-3.7649e-07 6.1352e-07 5.8274e-06
0.00219643 -0.000152051 -1.61217e-06
-0.000152051 -5.55171e-06 3.14841e-07
-1.61217e-06 3.14841e-07 -9.77284e-06
0.00222122 -0.000166859 -1.71928e-06
-0.000166859 4.3361e-05 5.49479e-07
-1.71928e-06 5.49479e-07 -8.01215e-06
0.002219 -0.000243814 5.66246e-06
-0.000243814 -4.48342e-06 -1.15145e-06
5.66246e-06 -1.15145e-06 -1.86733e-05
0.00228628 -0.000253656 7.39948e-07
-0.000253656 0.000112655 -1.47717e-07
7.39948e-07 -1.47717e-07 3.64347e-05
0.00149541 -0.000165667 -3.39704e-06
-0.000165667 -2.26673e-05 6.71186e-07
-3.39704e-06 6.71186e-07 -0.000167852
0.00226346 -0.000346857 2.3424e-06
-0.000346857 0.00012706 -1.11954e-06
2.3424e-06 -1.11954e-06 1.81398e-05
0.00150567 -0.00022231 -1.24721e-07
-0.00022231 -1.89974e-05 1.04046e-07
-1.24721e-07 1.04046e-07 -0.000184206
0.000298706 -0.000114803 -1.63317e-05
-0.000114803 -0.000303227 6.98488e-06
-1.63317e-05 6.98488e-06 -0.000422253
0.00157959 -0.000284703 4.52085e-06
-0.000284703 2.91157e-05 -1.71398e-06
4.52085e-06 -1.71398e-06 -0.000160692
0.00161836 -0.000155867 7.60665e-05
-0.000155867 0.00055646 -6.55236e-06
7.60665e-05 -6.55236e-06 0.000448842
0.00732368 -0.00019706 -0.000401492
-0.00019706 0.0044676 3.40666e-05
-0.000401492 3.40666e-05 0.00449828
0.00309128 -0.000215801 0.000174654
-0.000215801 0.0015093 -2.31801e-05
0.000174654 -2.31801e-05 0.00141401
0.0023085 -9.78199e-05 -0.000102109
-9.78199e-05 0.00117097 1.02517e-05
-0.000102109 1.02517e-05 0.00113383
0.00194955 -0.000118613 9.62863e-05
-0.000118613 0.000957286 -1.627e-05
9.62863e-05 -1.627e-05 0.000891117
0.00224827 0.000207841 5.34749e-08
0.000207841 -1.97032e-05 -3.21612e-07
5.34749e-08 -3.21612e-07 -5.20283e-06
0.00228645 0.000344518 -2.90105e-06
0.000344518 3.89161e-05 1.25358e-07
-2.90105e-06 1.25358e-07 -7.23968e-06
0.00234116 0.000303588 -4.78125e-07
0.000303588 -3.46429e-06 -1.03359e-07
-4.78125e-07 -1.03359e-07 5.78219e-06
0.00231222 0.000436533 -2.5539e-07
0.000436533 0.000173325 1.3412e-06
-2.5539e-07 1.3412e-06 3.12651e-05
0.00231231 0.000454916 4.08964e-07
0.000454916 7.74196e-05 5.89142e-09
4.08964e-07 5.89142e-09 -1.10328e-05
0.00239398 0.000498442 -6.60856e-07
0.000498442 3.2816e-06 -3.11866e-07
-6.60856e-07 -3.11866e-07 -1.69862e-05
0.00167575 0.000362558 -8.29426e-06
0.000362558 0.000109618 -3.48588e-07
-8.29426e-06 -3.48588e-07 -0.000101083
0.00226494 0.000536749 -9.69287e-07
0.000536749 0.00016697 -6.50692e-07
-9.69287e-07 -6.50692e-07 -3.47678e-05
0.00233064 0.000563612 1.54251e-06
0.000563612 0.00012641 -8.85838e-07
1.54251e-06 -8.85838e-07 -2.12283e-05
0.000372156 0.00019042 -1.85367e-05
0.00019042 -0.000265296 -1.23206e-05
-1.85367e-05 -1.23206e-05 -0.000422707
0.00156972 0.00041043 5.64724e-07
0.00041043 4.70518e-05 2.87163e-07
5.64724e-07 2.87163e-07 -0.000202522
0.00228903 0.000620068 3.75295e-07
0.000620068 0.000237017 -8.75874e-06
3.75295e-07 -8.75874e-06 -9.14518e-06
0.00804633 0.00033144 -0.00039117
0.00033144 0.00493595 -5.73915e-05
-0.00039117 -5.73915e-05 0.00493827
0.000351217 0.000257061 4.50953e-07
0.000257061 -0.000278107 7.19045e-07
4.50953e-07 7.19045e-07 -0.000464167
0.00157229 0.000479213 2.73636e-05
0.000479213 7.98649e-05 2.54683e-06
2.73636e-05 2.54683e-06 -0.000226709
0.000239663 0.000300338 2.35416e-05
0.000300338 -0.000317147 2.08379e-05
2.35416e-05 2.08379e-05 -0.000527778
0.00854412 0.000280774 9.24224e-06
0.000280774 0.0052522 3.19914e-06
9.24224e-06 3.19914e-06 0.0052603
0.00915599 0.000151714 0.000415528
0.000151714 0.0056211 4.09264e-05
0.000415528 4.09264e-05 0.00564495
0.0021643 0.000110061 -2.37706e-06
0.000110061 -3.2608e-05 1.27298e-07
-2.37706e-06 1.27298e-07 -2.12739e-05
0.00234479 0.000168662 -1.31771e-07
0.000168662 -3.95449e-05 5.18303e-08
-1.31771e-07 5.18303e-08 1.99756e-05
0.00238096 0.000290156 -5.90423e-07
0.000290156 -0.000150486 1.66769e-07
-5.90423e-07 1.66769e-07 -5.76043e-05
0.00222919 2.28346e-05 -6.52076e-06
2.28346e-05 5.97698e-05 -2.05545e-07
-6.52076e-06 -2.05545e-07 4.88888e-05
0.00219645 4.99849e-05 8.18208e-07
4.99849e-05 -2.89534e-05 4.26973e-08
8.18208e-07 4.26973e-08 -1.76906e-06
0.00235822 7.13367e-05 -1.36924e-06
7.13367e-05 -7.87921e-05 -2.87598e-07
-1.36924e-06 -2.87598e-07 7.08425e-06
0.00228963 -1.91839e-05 7.95757e-08
-1.91839e-05 -1.51952e-05 1.78243e-08
7.95757e-08 1.78243e-08 3.96683e-05
0.00219325 -5.67122e-05 -3.6211e-07
-5.67122e-05 8.6634e-06 2.56958e-08
-3.6211e-07 2.56958e-08 1.08037e-05
0.00206417 -7.63223e-05 -1.61787e-06
-7.63223e-05 -4.81934e-05 -1.13982e-07
-1.61787e-06 -1.13982e-07 -0.000109181
0.00225388 -0.000153369 4.2619e-06
-0.000153369 4.45669e-05 -3.39574e-07
4.2619e-06 -3.39574e-07 3.29444e-05
0.00221579 -0.000169471 7.66943e-07
-0.000169471 5.16404e-05 -2.34089e-08
7.66943e-07 -2.34089e-08 -1.05357e-05
0.00156504 -0.000104954 -3.94728e-06
-0.000104954 2.24904e-05 2.23593e-07
-3.94728e-06 2.23593e-07 -9.46149e-05
0.00227336 -0.000252353 2.62906e-06
-0.000252353 0.000108417 -1.46392e-06
2.62906e-06 -1.46392e-06 3.21471e-05
0.00148219 -0.000161968 9.5252e-08
-0.000161968 -4.09027e-05 -2.48624e-08
9.5252e-08 -2.48624e-08 -0.00018509
0.000275467 -4.35008e-05 -1.49649e-05
-4.35008e-05 -0.000312857 3.90895e-06
-1.49649e-05 3.90895e-06 -0.00041876
0.00151807 -0.000221203 2.90855e-06
-0.000221203 -2.15855e-05 -1.06598e-06
2.90855e-06 -1.06598e-06 -0.000185797
0.00031969 -9.98255e-05 -3.98626e-07
-9.98255e-05 -0.000285665 5.12852e-07
-3.98626e-07 5.12852e-07 -0.000403666
0.00719504 -8.88192e-05 -0.000388734
-8.88192e-05 0.00437581 2.20185e-05
-0.000388734 2.20185e-05 0.00441358
0.00044054 -0.00011467 1.26284e-05
-0.00011467 -0.000217058 -9.15846e-06
1.26284e-05 -9.15846e-06 -0.000346469
0.00469132 -0.00013018 0.000164736
-0.00013018 0.0027459 -1.02681e-05
0.000164736 -1.02681e-05 0.00273093
0.00189785 -0.000104316 0.000100524
-0.000104316 0.000927581 -1.49968e-05
0.000100524 -1.49968e-05 0.000864148
0.0022752 0.000175179 -4.7277e-06
0.000175179 7.1195e-05 -3.94241e-07
-4.7277e-06 -3.94241e-07 7.46342e-05
0.00224508 0.000245389 -5.60862e-06
0.000245389 4.912e-05 -1.71891e-07
-5.60862e-06 -1.71891e-07 1.07675e-05
0.00224058 0.000199459 -7.22465e-07
0.000199459 -1.82974e-05 -3.06109e-07
-7.22465e-07 -3.06109e-07 -3.24559e-06
0.00235719 0.00035021 -7.86378e-07
0.00035021 0.000199624 9.13466e-07
-7.86378e-07 9.13466e-07 8.42534e-05
0.00230964 0.000341431 -1.51138e-07
0.000341431 5.6975e-05 -1.29014e-07
-1.51138e-07 -1.29014e-07 9.69108e-06
0.00236486 0.000296165 3.45463e-07
0.000296165 2.85248e-05 -2.86839e-07
3.45463e-07 -2.86839e-07 3.06586e-05
0.00156783 0.00028925 -3.56346e-06
0.00028925 3.27431e-05 -1.42247e-07
-3.56346e-06 -1.42247e-07 -0.000146626
0.00222559 0.000431313 1.53382e-06
0.000431313 0.000122257 2.98131e-07
1.53382e-06 2.98131e-07 -3.00958e-05
0.00227402 0.000453968 3.42813e-06
0.000453968 5.36753e-05 -1.10912e-07
3.42813e-06 -1.10912e-07 -3.34565e-05
0.000338249 0.000140489 -1.61396e-05
0.000140489 -0.000284098 -8.97927e-06
-1.61396e-05 -8.97927e-06 -0.000423542
0.00161701 0.000353862 2.09195e-06
0.000353862 7.77162e-05 1.20253e-06
2.09195e-06 1.20253e-06 -0.000130262
0.00222536 0.000529908 -8.60636e-07
0.000529908 0.000142547 -2.63665e-06
-8.60636e-07 -2.63665e-06 -5.96282e-05
0.00771603 0.000352108 -0.000400212
0.000352108 0.00473626 -5.34871e-05
-0.000400212 -5.34871e-05 0.00473887
0.000351994 0.000194827 5.13656e-07
0.000194827 -0.000283468 5.10957e-07
5.13656e-07 5.10957e-07 -0.000443854
0.00159744 0.000411088 1.72855e-05
0.000411088 7.20446e-05 1.64764e-06
1.72855e-05 1.64764e-06 -0.000171923
0.00815955 0.000354132 1.14386e-05
0.000354132 0.00501983 5.59515e-06
1.14386e-05 5.59515e-06 0.00501883
0.000304612 0.000254908 1.98713e-05
0.000254908 -0.000314393 1.70315e-05
1.98713e-05 1.70315e-05 -0.000502847
0.00860574 0.00025729 0.000413023
0.00025729 0.00527552 4.9831e-05
0.000413023 4.9831e-05 0.00529374
0.00216095 8.90607e-05 -6.40276e-06
8.90607e-05 9.19475e-06 -8.10576e-08
-6.40276e-06 -8.10576e-08 -9.26223e-06
0.00219426 0.000118359 -7.55453e-07
0.000118359 -4.13385e-06 -2.72206e-07
-7.55453e-07 -2.72206e-07 7.45558e-06
0.00234488 0.000163398 -6.49838e-07
0.000163398 -3.95987e-05 -7.45938e-08
-6.49838e-07 -7.45938e-08 1.66108e-05
0.00206175 1.13846e-06 -3.87243e-07
1.13846e-06 -4.4862e-05 -3.08299e-07
-3.87243e-07 -3.08299e-07 -0.000105717
0.00220454 2.52213e-05 -4.36191e-07
2.52213e-05 3.80207e-05 5.71198e-08
-4.36191e-07 5.71198e-08 3.0793e-05
0.00216641 5.79244e-05 1.27014e-06
5.79244e-05 -5.39705e-05 1.26877e-08
1.27014e-06 1.26877e-08 -2.22462e-05
0.00219987 -5.56561e-05 3.68953e-06
-5.56561e-05 1.30464e-05 4.56792e-08
3.68953e-06 4.56792e-08 1.59727e-05
0.00210258 -7.53012e-05 -1.66443e-06
-7.53012e-05 -1.63183e-05 2.21795e-07
-1.66443e-06 2.21795e-07 -7.55647e-05
0.00145099 -4.22377e-05 -2.58842e-06
-4.22377e-05 -3.46735e-05 -6.42257e-08
-2.58842e-06 -6.42257e-08 -0.000145234
0.00222389 -0.000172318 5.37948e-07
-0.000172318 6.93447e-05 -8.16096e-07
5.37948e-07 -8.16096e-07 -3.18823e-06
0.00152093 -0.000106623 3.36004e-06
-0.000106623 -1.18917e-05 -3.5316e-07
3.36004e-06 -3.5316e-07 -0.000135558
0.000241236 -1.93312e-05 -1.50572e-05
-1.93312e-05 -0.000324158 2.43327e-06
-1.50572e-05 2.43327e-06 -0.000423351
0.00146422 -0.000159992 3.35349e-06
-0.000159992 -6.01195e-05 -9.15379e-07
3.35349e-06 -9.15379e-07 -0.000203625
0.000273097 -5.2963e-05 4.48312e-07
-5.2963e-05 -0.000310032 -3.67847e-07
4.48312e-07 -3.67847e-07 -0.000415055
0.00694996 -0.000177485 -0.000386108
-0.000177485 0.00423777 2.36791e-05
-0.000386108 2.36791e-05 0.00426767
0.00032455 -8.43818e-05 1.47486e-05
-8.43818e-05 -0.000279199 -5.46111e-06
1.47486e-05 -5.46111e-06 -0.000395357
0.00710445 -0.000123545 6.73244e-06
-0.000123545 0.00432269 2.72957e-07
6.73244e-06 2.72957e-07 0.00435867
0.00214322 -5.44132e-05 0.00029422
-5.44132e-05 0.00105534 -2.32334e-05
0.00029422 -2.32334e-05 0.00104865
0.00221253 0.000171272 -7.93715e-06
0.000171272 5.25313e-05 -6.02005e-07
-7.93715e-06 -6.02005e-07 2.12538e-05
0.00218055 0.00017589 -7.35331e-07
0.00017589 -5.28565e-06 -1.29259e-08
-7.35331e-07 -1.29259e-08 5.90992e-06
0.00236242 0.000259601 6.38886e-07
0.000259601 0.00018592 6.99431e-07
6.38886e-07 6.99431e-07 9.68894e-05
0.00226665 0.000245575 6.61089e-07
0.000245575 6.0849e-05 6.35925e-09
6.61089e-07 6.35925e-09 2.25944e-05
0.00223305 0.000190885 5.9897e-07
0.000190885 -1.73946e-05 -2.27363e-07
5.9897e-07 -2.27363e-07 -1.43417e-06
0.0014355 0.00021543 -9.60214e-07
0.00021543 -4.96467e-05 -4.97101e-07
-9.60214e-07 -4.97101e-07 -0.000217966
0.00228668 0.0003481 4.12487e-07
0.0003481 0.000143681 5.48622e-08
4.12487e-07 5.48622e-08 2.78169e-05
0.0023368 0.000338333 4.22809e-06
0.000338333 7.69236e-05 2.52557e-07
4.22809e-06 2.52557e-07 2.85638e-05
0.00032756 0.00010444 -1.50449e-05
0.00010444 -0.000280928 -6.67279e-06
-1.50449e-05 -6.67279e-06 -0.000407619
0.00151619 0.000283786 3.15959e-06
0.000283786 7.53028e-06 1.078e-06
3.15959e-06 1.078e-06 -0.000177595
0.00216175 0.000427494 3.19309e-07
0.000427494 8.73037e-05 -9.03957e-07
3.19309e-07 -9.03957e-07 -7.5762e-05
0.00743755 0.000332789 -0.00040899
0.000332789 0.00456908 -4.75959e-05
-0.00040899 -4.75959e-05 0.00457501
0.000349613 0.000147704 5.64132e-07
0.000147704 -0.000279701 2.86629e-07
5.64132e-07 2.86629e-07 -0.000421935
0.00155061 0.000344452 9.47816e-06
0.000344452 3.97172e-05 2.43778e-06
9.47816e-06 2.43778e-06 -0.000165232
0.00784145 0.000380891 8.33837e-06
0.000380891 0.00482922 5.8539e-06
8.33837e-06 5.8539e-06 0.00482633
0.000341746 0.000198367 1.70242e-05
0.000198367 -0.000295212 1.31159e-05
1.70242e-05 1.31159e-05 -0.000458482
0.00830062 0.00037049 0.000424411
0.00037049 0.00510792 6.08e-05
0.000424411 6.08e-05 0.0051108
0.00205528 8.60479e-05 1.10865e-06
8.60479e-05 -4.06243e-05 -2.99842e-07
1.10865e-06 -2.99842e-07 -0.000108992
0.00220958 8.99094e-05 -2.27478e-06
8.99094e-05 4.84849e-05 -7.54299e-08
-2.27478e-06 -7.54299e-08 2.90199e-05
0.00222443 0.000126447 3.3516e-06
0.000126447 2.46416e-05 -8.31627e-08
3.3516e-06 -8.31627e-08 3.63877e-05
0.00143301 -3.73854e-06 -1.70106e-06
-3.73854e-06 -2.68942e-05 -2.47335e-08
-1.70106e-06 -2.47335e-08 -0.000137331
0.00208934 3.40123e-06 -1.57836e-06
3.40123e-06 -1.88502e-05 4.89798e-08
-1.57836e-06 4.89798e-08 -7.93289e-05
0.00218251 2.71114e-05 4.10635e-06
2.71114e-05 1.82774e-05 2.41345e-07
4.10635e-06 2.41345e-07 1.47743e-05
0.00213733 -7.4494e-05 -2.18347e-06
-7.4494e-05 1.31395e-05 4.95958e-07
-2.18347e-06 4.95958e-07 -4.46984e-05
0.00151364 -4.54681e-05 2.66934e-06
-4.54681e-05 8.22272e-07 -1.44915e-07
2.66934e-06 -1.44915e-07 -0.000108807
0.000253843 -3.40065e-05 -1.56911e-05
-3.40065e-05 -0.000308694 1.56786e-06
-1.56911e-05 1.56786e-06 -0.000403401
0.00146551 -0.000107268 6.79631e-06
-0.000107268 -5.51961e-05 -1.17812e-06
6.79631e-06 -1.17812e-06 -0.000185616
0.000258067 -8.44396e-06 -5.44691e-08
-8.44396e-06 -0.00031292 3.00878e-08
-5.44691e-08 3.00878e-08 -0.000410422
0.00683705 -0.000143162 -0.000385013
-0.000143162 0.00416287 1.81092e-05
-0.000385013 1.81092e-05 0.00419706
0.000307486 -5.92311e-05 1.5573e-05
-5.92311e-05 -0.000281769 -3.85702e-06
1.5573e-05 -3.85702e-06 -0.000387082
0.00693769 -7.66761e-05 -2.72851e-06
-7.66761e-05 0.00421503 3.76006e-06
-2.72851e-06 3.76006e-06 0.00425417
0.00706246 -0.000136834 0.000385102
-0.000136834 0.00429852 -2.16349e-05
0.000385102 -2.16349e-05 0.00433403
0.00227315 0.000169174 1.42901e-06
0.000169174 0.000120777 -6.68991e-08
1.42901e-06 -6.68991e-08 4.91621e-05
0.00218513 0.000172074 -1.04252e-06
0.000172074 2.24498e-05 -8.33455e-08
-1.04252e-06 -8.33455e-08 -4.1372e-06
0.00208693 0.000176829 3.23166e-06
0.000176829 -8.15818e-05 3.27852e-07
3.23166e-06 3.27852e-07 -6.27368e-05
0.00140491 0.000147349 -1.67545e-07
0.000147349 -6.40799e-05 -1.41801e-07
-1.67545e-07 -1.41801e-07 -0.000213318
0.0022873 0.000256441 3.30749e-07
0.000256441 0.000127747 -9.85904e-08
3.30749e-07 -9.85904e-08 3.84293e-05
0.00228988 0.00024588 5.20771e-06
0.00024588 7.41652e-05 -7.07005e-08
5.20771e-06 -7.07005e-08 3.58453e-05
0.000313448 7.24703e-05 -1.4272e-05
7.24703e-05 -0.000278381 -4.91812e-06
-1.4272e-05 -4.91812e-06 -0.000394321
0.00146441 0.000216873 9.61269e-08
0.000216873 -1.86175e-05 2.20979e-07
9.61269e-08 2.20979e-07 -0.000187956
0.00221467 0.000345748 8.86728e-07
0.000345748 8.70901e-05 -9.53161e-07
8.86728e-07 -9.53161e-07 -2.92511e-05
0.00719158 0.000269232 -0.000412131
0.000269232 0.00440693 -3.81639e-05
-0.000412131 -3.81639e-05 0.00442498
0.000336529 0.000113205 6.32825e-07
0.000113205 -0.000276998 2.03783e-07
6.32825e-07 2.03783e-07 -0.000406472
0.00144381 0.000276649 4.76975e-06
0.000276649 -3.22396e-05 1.99519e-06
4.76975e-06 1.99519e-06 -0.000222766
0.00755499 0.000353201 4.80826e-06
0.000353201 0.00464935 3.71346e-06
4.80826e-06 3.71346e-06 0.00465306
0.000357642 0.000156145 1.55737e-05
0.000156145 -0.000276099 9.92814e-06
1.55737e-05 9.92814e-06 -0.000421728
0.00796926 0.000422329 0.000427935
0.000422329 0.00492604 6.50933e-05
0.000427935 6.50933e-05 0.00491642
0.00133424 4.78344e-05 -2.72832e-06
4.78344e-05 -8.45959e-05 -1.73934e-08
-2.72832e-06 -1.73934e-08 -0.000213237
0.00213219 8.32847e-05 -2.54841e-06
8.32847e-05 1.26865e-05 -2.29787e-07
-2.54841e-06 -2.29787e-07 -4.73543e-05
0.00225271 9.10992e-05 4.85384e-06
9.10992e-05 8.30883e-05 2.79559e-07
4.85384e-06 2.79559e-07 6.28995e-05
0.000297354 3.29836e-05 -1.64485e-05
3.29836e-05 -0.000282218 -6.04723e-07
-1.64485e-05 -6.04723e-07 -0.000369041
0.00148326 -2.9685e-07 2.78682e-06
-2.9685e-07 3.24393e-07 1.37486e-08
2.78682e-06 1.37486e-08 -0.000109469
0.00210987 7.32334e-06 -3.026e-06
7.32334e-06 1.60866e-06 3.60284e-07
-3.026e-06 3.60284e-07 -5.85954e-05
0.00157186 -4.82622e-05 8.70711e-06
-4.82622e-05 3.35766e-05 -6.86299e-07
8.70711e-06 -6.86299e-07 -7.49408e-05
0.000263372 -8.19352e-06 1.21592e-07
-8.19352e-06 -0.000301188 4.13161e-07
1.21592e-07 4.13161e-07 -0.000395617
0.00673625 -3.245e-06 -0.000386502
-3.245e-06 0.00408706 4.39524e-06
-0.000386502 4.39524e-06 0.00413055
0.000260611 3.07818e-06 1.53868e-05
3.07818e-06 -0.000311331 -1.55149e-06
1.53868e-05 -1.55149e-06 -0.000407004
0.0067875 -0.000140167 -7.1236e-06
-0.000140167 0.00413293 2.37289e-06
-7.1236e-06 2.37289e-06 0.00416651
0.0068638 -6.00332e-05 0.000370672
-6.00332e-05 0.00416712 -1.28157e-05
0.000370672 -1.28157e-05 0.00420654
0.00138883 9.2964e-05 -1.72767e-06
9.2964e-05 -5.61461e-05 -3.38829e-07
-1.72767e-06 -3.38829e-07 -0.000192332
0.00222934 0.000164005 -2.06633e-07
0.000164005 8.41589e-05 -2.94585e-07
-2.06633e-07 -2.94585e-07 1.58651e-05
0.00215417 0.00017247 3.18633e-06
0.00017247 -9.40703e-06 -2.64104e-07
3.18633e-06 -2.64104e-07 -3.14436e-05
0.00277404 8.57129e-05 -0.000169616
8.57129e-05 0.0013419 -7.51094e-06
-0.000169616 -7.51094e-06 0.00128264
0.00142781 0.000148813 -3.00579e-09
0.000148813 -3.76111e-05 1.08378e-07
-3.00579e-09 1.08378e-07 -0.000187652
0.00220518 0.000252744 3.20447e-07
0.000252744 6.54686e-05 -9.07022e-07
3.20447e-07 -9.07022e-07 -2.40623e-05
0.00701832 0.000199091 -0.000409097
0.000199091 0.00428677 -2.78043e-05
-0.000409097 -2.78043e-05 0.00431658
0.000322949 9.22854e-05 8.5738e-07
9.22854e-05 -0.00027221 4.89117e-07
8.5738e-07 4.89117e-07 -0.000391197
0.00149408 0.000217927 1.43917e-06
0.000217927 1.29695e-05 7.4435e-07
1.43917e-06 7.4435e-07 -0.000157376
0.00730729 0.000286875 2.02907e-06
0.000286875 0.00448272 1.93508e-06
2.02907e-06 1.93508e-06 0.00449897
0.000355071 0.000124179 1.53675e-05
0.000124179 -0.000265849 7.80447e-06
1.53675e-05 7.80447e-06 -0.000398697
0.00767423 0.000389111 0.000428346
0.000389111 0.00473962 5.99348e-05
0.000428346 5.99348e-05 0.00473716
0.000391082 1.87323e-05 -1.23912e-05
1.87323e-05 -0.000207594 -1.75616e-06
-1.23912e-05 -1.75616e-06 -0.000304372
0.00140761 4.79436e-05 -8.47176e-07
4.79436e-05 -3.77728e-05 -6.68787e-09
-8.47176e-07 -6.68787e-09 -0.000159596
0.00219431 7.91525e-05 -2.32502e-06
7.91525e-05 5.51548e-05 1.75639e-07
-2.32502e-06 1.75639e-07 3.18074e-06
0.00661363 -0.000104178 -0.000370983
-0.000104178 0.00402534 6.66187e-06
-0.000370983 6.66187e-06 0.0040582
0.000256028 1.31569e-05 -7.35469e-07
1.31569e-05 -0.000304212 -2.43761e-07
-7.35469e-07 -2.43761e-07 -0.000393658
0.00154748 1.74971e-06 8.03058e-06
1.74971e-06 3.71818e-05 -2.34251e-07
8.03058e-06 -2.34251e-07 -7.18531e-05
0.000251133 1.69474e-05 1.56544e-05
1.69474e-05 -0.000309706 -1.48009e-07
1.56544e-05 -1.48009e-07 -0.000402731
0.00668386 -3.62651e-05 1.69528e-06
-3.62651e-05 0.00406024 -2.07802e-06
1.69528e-06 -2.07802e-06 0.00409829
0.00676293 -6.82011e-05 0.000374628
-6.82011e-05 0.00410335 -9.65393e-06
0.000374628 -9.65393e-06 0.0041436
0.00287394 3.28714e-05 -0.000164368
3.28714e-05 0.00141047 -3.99428e-06
-0.000164368 -3.99428e-06 0.00135807
0.00139043 9.57292e-05 -1.49545e-07
9.57292e-05 -5.14883e-05 -6.10425e-08
-1.49545e-07 -6.10425e-08 -0.000188427
0.0021877 0.000159178 -2.63394e-07
0.000159178 4.83888e-05 -6.14402e-07
-2.63394e-07 -6.14402e-07 -1.65109e-05
0.00657268 1.03065e-06 -0.00018012
1.03065e-06 0.00400802 -1.59446e-06
-0.00018012 -1.59446e-06 0.00399938
0.000294212 7.39931e-05 6.37746e-07
7.39931e-05 -0.000281423 2.34658e-07
6.37746e-07 2.34658e-07 -0.000389529
0.00145554 0.000151373 8.02332e-07
0.000151373 -1.00004e-05 1.96286e-07
8.02332e-07 1.96286e-07 -0.000160946
0.0070845 0.000176869 -7.9304e-06
0.000176869 0.00432253 -1.73314e-06
-7.9304e-06 -1.73314e-06 0.00435363
0.000329474 0.000113798 1.62688e-05
0.000113798 -0.00026914 6.66567e-06
1.62688e-05 6.66567e-06 -0.000390419
0.00739206 0.000308518 0.000424626
0.000308518 0.00454172 4.84844e-05
0.000424626 4.84844e-05 0.00455652
0.00205644 -4.91691e-05 -0.000285896
-4.91691e-05 0.00100166 1.84819e-06
-0.000285896 1.84819e-06 0.00100896
0.00152057 4.04704e-05 -7.31645e-05
4.04704e-05 0.000524734 -3.21347e-07
-7.31645e-05 -3.21347e-07 0.000455798
0.00149192 5.07145e-05 4.83063e-06
5.07145e-05 1.77393e-05 1.55778e-07
4.83063e-06 1.55778e-07 -9.7204e-05
0.00667341 -5.02363e-05 6.57056e-06
-5.02363e-05 0.00405748 3.66519e-06
6.57056e-06 3.66519e-06 0.0040965
0.000264004 -4.89241e-06 1.6194e-05
-4.89241e-06 -0.0002916 4.77465e-07
1.6194e-05 4.77465e-07 -0.000384815
0.00670417 -9.52367e-05 0.000387573
-9.52367e-05 0.004079 -7.95791e-06
0.000387573 -7.95791e-06 0.00411652
0.00162793 3.18767e-05 -8.40813e-05
3.18767e-05 0.000756991 -2.16404e-06
-8.40813e-05 -2.16404e-06 0.000710548
0.00152071 3.4035e-05 -7.39774e-05
3.4035e-05 0.000523796 -2.25769e-06
-7.39774e-05 -2.25769e-06 0.000448373
0.00139498 9.67389e-05 2.00915e-06
9.67389e-05 -4.38623e-05 3.87568e-08
2.00915e-06 3.87568e-08 -0.000181439
0.00431389 8.95245e-05 0.000145797
8.95245e-05 0.00250712 5.53807e-06
0.000145797 5.53807e-06 0.00250228
0.000271507 8.51053e-05 1.63987e-05
8.51053e-05 -0.000298788 5.12003e-06
1.63987e-05 5.12003e-06 -0.000407427
0.00715445 0.000164863 0.000403345
0.000164863 0.00435891 2.99722e-05
0.000403345 2.99722e-05 0.00439378
0.00665488 -1.03148e-05 -8.03606e-06
-1.03148e-05 0.00405044 -4.13467e-06
-8.03606e-06 -4.13467e-06 0.00408737
0.000255442 5.7273e-05 1.79474e-05
5.7273e-05 -0.000306582 2.55161e-06
1.79474e-05 2.55161e-06 -0.000394461
0.00659938 3.28893e-05 0.000377416
3.28893e-05 0.00400475 5.04311e-07
0.000377416 5.04311e-07 0.00404715
0.00422037 4.94575e-05 0.000156443
4.94575e-05 0.00244764 7.30628e-06
0.000156443 7.30628e-06 0.00244701
0.000281298 2.28222e-05 1.59572e-05
2.28222e-05 -0.000287243 2.75713e-06
1.59572e-05 2.75713e-06 -0.000385766
0.00692341 3.42406e-05 0.00038832
3.42406e-05 0.00420646 1.4753e-05
0.00038832 1.4753e-05 0.00424614
0.00668691 -0.000101132 0.000377586
-0.000101132 0.00407308 -4.08905e-06
0.000377586 -4.08905e-06 0.00410687
0.00672124 3.51281e-05 0.000380478
3.51281e-05 0.00407582 9.42452e-06
0.000380478 9.42452e-06 0.00411871
