# vtk DataFile Version 2.0
Wound Healing Simulation
ASCII
DATASET UNSTRUCTURED_GRID
POINTS 3012 float
69.9759 18.75 4
67.2507 60.3285 4
69.976 18.75 2
73.0099 25.446 4
71.1327 20.9142 4
68.6801 16.6661 4
67.8229 19.9266 3.97611
67.2507 60.3286 2
71.1327 54.0858 4
68.6801 58.3339 4
65.6939 62.2254 4
65.3097 58.9998 3.97542
74.6784 42.3946 4
73.7221 47.2057 4
69.9759 18.75 0
73.0099 25.446 2
68.6801 16.6661 2
71.1327 20.9142 2
67.8233 19.9301 2
74.6792 32.6053 4
73.7222 27.7943 4
72.1454 23.1494 4
70.6121 26.2215 3.9761
68.8832 21.9583 3.97658
67.2507 14.6715 4
66.6342 17.9731 3.97497
65.7896 21.0288 3.96489
67.2507 60.3285 0
71.1327 54.0858 2
68.6801 58.3339 2
65.694 62.2255 2
65.3109 58.9949 2
72.1454 51.8506 4
69.9759 56.25 4
68.8337 53.1132 3.97591
64.0165 64.0165 4
66.6081 57.1328 3.97583
63.8828 60.7637 3.97524
63.4938 57.7646 3.96643
60.3285 67.2507 4
74.6792 42.3947 2
73.7222 47.2057 2
74.9194 39.9526 4
74.2788 44.8158 4
72.1667 42.0857 3.97717
73.0099 49.554 4
71.2472 46.598 3.97578
73.0099 25.446 0
71.1327 20.9142 0
68.6801 16.6661 0
67.8229 19.9266 0.0238863
74.6792 32.6053 2
73.7222 27.7943 2
67.2508 14.6715 2
72.1455 23.1494 2
70.6118 26.2221 2
66.6351 17.9777 2
68.8833 21.9605 2
65.7887 21.03 2
74.9197 35.0474 4
74.2794 30.1841 4
72.1834 32.9442 3.97736
71.2764 28.4322 3.97614
69.8132 24.0599 3.97652
68.3409 26.9542 3.96514
66.7555 22.9361 3.96468
65.694 12.7746 4
65.3205 16.1055 3.97403
64.7058 19.2004 3.96528
63.8154 22.0634 3.96445
71.1327 54.0858 0
65.6939 62.2254 0
68.6801 58.3339 0
65.3097 58.9998 0.0245765
72.1455 51.8506 2
69.9759 56.25 2
68.8338 53.1109 2
64.0165 64.0165 2
66.6089 57.1284 2
63.8845 60.7586 2
63.4924 57.7642 2
62.2254 65.694 4
58.8921 65.413 3.98453
69.7664 50.9891 3.97562
67.781 55.167 3.97605
66.6419 52.2073 3.96469
62.3329 62.4244 3.97785
64.6534 56.0272 3.96588
62.1966 59.3923 3.96656
61.7856 56.6581 3.96232
58.3339 68.6801 4
60.3285 67.2508 2
73.7221 47.2057 0
74.6784 42.3946 0
74.9197 39.9526 2
74.2794 44.8159 2
72.166 42.0854 2
73.0099 49.554 2
71.2469 46.5975 2
75 37.5 4
72.4041 39.8026 3.97806
71.7808 44.3529 3.97678
69.7994 41.79 3.96724
70.5728 48.8135 3.97543
68.9062 46.014 3.96577
74.6792 32.6053 0
73.7222 27.7943 0
67.2507 14.6715 0
72.1454 23.1494 0
70.6121 26.2215 0.0239024
68.8832 21.9583 0.0234213
66.6342 17.9731 0.0250312
65.7896 21.0288 0.0351126
74.9197 35.0474 2
74.2794 30.1841 2
72.1827 32.9445 2
71.276 28.4327 2
65.694 12.7745 2
65.3219 16.1108 2
69.8132 24.0611 2
68.3405 26.9552 2
64.7048 19.2015 2
66.7549 22.9373 2
63.8153 22.064 2
72.4119 35.2248 3.97809
71.8023 30.6771 3.97705
69.8355 33.2708 3.96712
68.9607 29.041 3.96571
67.6049 24.9147 3.96489
66.1085 27.6569 3.96797
64.0165 10.9835 4
64.6767 23.8567 3.96572
63.8864 14.3303 3.97472
63.5051 17.4563 3.96577
62.8409 20.3507 3.9628
61.9396 23.0006 3.96796
60.6814 11.1014 3.97936
57.6067 11.4699 3.9703
72.1454 51.8506 0
69.9759 56.25 0
68.8337 53.1132 0.0240903
64.0165 64.0165 0
63.8828 60.7637 0.0247571
66.6081 57.1328 0.0241724
63.4938 57.7646 0.0335706
62.2255 65.694 2
58.8945 65.4099 2
69.7661 50.9878 2
67.7814 55.1636 2
66.641 52.2062 2
62.3354 62.4201 2
64.6522 56.0265 2
62.1946 59.3921 2
61.7864 56.6584 2
60.6662 63.974 3.98067
57.0233 66.7339 3.98751
57.5538 63.6796 3.97158
67.4999 50.1751 3.96467
65.6945 54.1706 3.96525
64.4454 51.3584 3.96571
60.7677 60.919 3.9687
62.7628 55.0436 3.96375
60.6354 58.1347 3.96114
60.2427 55.7418 3.96455
56.25 69.9759 4
58.3339 68.6801 2
60.3285 67.2507 0
58.9187 9.65892 3.98088
62.2254 9.30607 4
73.0099 49.554 0
74.2788 44.8158 0
71.2472 46.598 0.0242239
72.1667 42.0857 0.022827
74.9194 39.9526 0
75 37.5 2
72.4039 39.8024 2
71.7806 44.3523 2
69.7986 41.7896 2
70.5725 48.813 2
68.906 46.0133 2
72.4875 37.5126 3.97767
70.037 39.6583 3.96764
69.4251 43.9073 3.96659
67.5115 41.4903 3.9711
68.2593 48.106 3.96506
66.6093 45.4223 3.96959
74.9197 35.0474 0
74.2794 30.1841 0
72.1834 32.9442 0.0226359
71.2764 28.4322 0.0238647
65.694 12.7746 0
65.3205 16.1055 0.0259708
69.8132 24.0599 0.0234828
68.3409 26.9542 0.0348592
66.7555 22.9361 0.0353219
64.7058 19.2004 0.0347237
63.8154 22.0634 0.0355464
72.4118 35.2249 2
71.8022 30.6777 2
69.8347 33.2714 2
68.9604 29.0418 2
64.0165 10.9835 2
63.8885 14.3354 2
63.5038 17.4573 2
67.6045 24.9158 2
66.108 27.6575 2
62.841 20.351 2
64.6762 23.8574 2
61.9388 23.0016 2
60.6839 11.1053 2
57.6077 11.4627 2
70.0538 35.3939 3.96758
69.4623 31.1522 3.96638
67.5782 33.6014 3.97042
66.6853 29.6418 3.96866
65.4385 25.7242 3.96669
63.9526 28.3009 3.97415
62.3384 12.6589 3.97727
62.6874 24.692 3.97024
62.1915 15.8001 3.96704
61.7625 18.7164 3.96159
61.0755 21.4027 3.96528
60.1932 23.8127 3.97188
59.2403 12.8085 3.96816
55.8697 10.25 3.97335
56.395 13.1667 3.96864
69.7664 50.9891 0.0243751
62.2254 65.694 0
58.8921 65.413 0.015469
67.781 55.167 0.0239492
66.6419 52.2073 0.035307
62.3329 62.4244 0.0221544
62.1966 59.3923 0.0334368
64.6534 56.0272 0.0341161
61.7856 56.6581 0.0376791
60.6686 63.9709 2
57.0254 66.7326 2
57.5546 63.682 2
67.4999 50.1743 2
65.6935 54.1697 2
64.4453 51.358 2
60.7668 60.9205 2
62.7633 55.0437 2
60.6389 58.136 2
60.2422 55.7415 2
55.0691 67.9312 3.98887
59.2134 62.3394 3.96953
55.8016 64.902 3.97689
56.3173 62.0488 3.97023
65.2293 49.3827 3.967
63.6274 53.2659 3.96455
62.2451 50.5972 3.9692
59.3199 59.5295 3.96383
60.9498 54.26 3.96669
59.2162 56.9651 3.96222
59.1142 55.1242 3.96733
48.1001 68.5752 3.98502
50.947 69.9313 3.99032
54.0858 71.1327 4
56.25 69.976 2
58.3339 68.6801 0
57.0558 8.33832 3.98266
60.3285 7.74928 4
58.9214 9.66303 2
62.2255 9.30602 2
70.5728 48.8135 0.0245737
71.7808 44.3529 0.0232203
68.9062 46.014 0.0342262
69.7994 41.79 0.0327561
72.4041 39.8026 0.0219402
75 37.5 0
72.4868 37.5125 2
70.0367 39.6581 2
69.4248 43.9067 2
67.5101 41.4901 2
68.2589 48.1051 2
66.6072 45.4218 2
70.1251 37.523 3.96765
67.7563 39.5098 3.97159
67.1283 43.4575 3.97019
65.3519 41.1911 3.97702
65.9639 47.3958 3.96843
64.4271 44.8108 3.97502
72.4119 35.2248 0.0219083
71.8023 30.6771 0.0229547
69.8355 33.2708 0.0328838
68.9607 29.041 0.0342938
64.0165 10.9835 0
63.8864 14.3303 0.0252824
63.5051 17.4563 0.0342252
67.6049 24.9147 0.0351141
66.1085 27.6569 0.0320271
64.6767 23.8567 0.0342848
62.8409 20.3507 0.0371992
61.9396 23.0006 0.0320427
60.6814 11.1014 0.0206356
57.6067 11.4699 0.0296968
70.0535 35.3943 2
69.462 31.1528 2
67.5769 33.6017 2
66.6842 29.6424 2
62.3409 12.6635 2
62.19 15.8007 2
61.7629 18.7162 2
65.4381 25.7249 2
63.9505 28.3019 2
61.0744 21.4035 2
62.6861 24.693 2
60.1923 23.8137 2
59.2409 12.8083 2
56.3962 13.164 2
55.8715 10.2488 2
67.7958 35.5537 3.97119
67.1855 31.6371 3.96957
65.5083 33.9473 3.97715
64.4676 30.2306 3.97556
63.3551 26.4651 3.9723
61.965 28.8489 3.97612
60.7689 14.2456 3.96806
60.7906 25.4195 3.9745
60.583 17.1604 3.96135
60.0922 19.8811 3.96217
59.4388 22.349 3.96771
58.6808 24.4304 3.97437
54.0346 9.14634 3.97433
57.8982 14.3748 3.96693
54.7773 12.0584 3.96972
55.2952 14.7113 3.96723
67.4999 50.1751 0.0353344
57.0233 66.7339 0.012493
60.6662 63.974 0.0193282
57.5538 63.6796 0.0284232
65.6945 54.1706 0.0347531
64.4454 51.3584 0.034292
60.7677 60.919 0.0313044
60.6354 58.1347 0.0388552
62.7628 55.0436 0.0362545
60.2427 55.7418 0.035454
55.0709 67.9301 2
59.2137 62.3408 2
55.8019 64.902 2
56.316 62.0493 2
65.2291 49.3822 2
63.6276 53.2657 2
62.2447 50.5966 2
59.3196 59.531 2
60.9503 54.2598 2
59.2208 56.9659 2
59.1171 55.1243 2
53.0412 68.9993 3.99008
53.9641 66.0061 3.97952
57.8687 60.8352 3.96879
54.6764 63.1856 3.97169
55.1941 60.5664 3.96888
62.9819 48.6095 3.97121
61.5764 52.5217 3.96787
59.979 49.9378 3.97159
57.9836 58.2223 3.96198
59.1468 53.8788 3.96867
57.9768 55.7432 3.96291
50.1068 67.8532 3.98416
47.4613 66.5727 3.98021
46.054 69.1544 3.98576
48.1005 68.5756 2
48.8008 70.7226 3.99072
50.9482 69.9307 2
51.8506 72.1454 4
54.0858 71.1327 2
56.25 69.9759 0
55.1009 7.14238 3.98672
58.3339 6.31992 4
57.0589 8.34158 2
60.3286 7.74926 2
58.9187 9.65892 0.0191228
62.2254 9.30607 0
68.2593 48.106 0.0349383
69.4251 43.9073 0.033415
66.6093 45.4223 0.0304127
67.5115 41.4903 0.0289009
70.037 39.6583 0.0323648
72.4875 37.5126 0.0223323
70.1243 37.5231 2
67.7546 39.5097 2
67.1277 43.4571 2
65.3488 41.1903 2
65.9633 47.3953 2
64.4249 44.8098 2
67.8572 37.5239 3.97158
65.5905 39.3621 3.97686
64.968 42.9974 3.9767
63.4545 40.9035 3.97683
63.7378 46.6705 3.97304
62.4789 44.1574 3.9766
70.0538 35.3939 0.0324239
69.4623 31.1522 0.0336202
67.5782 33.6014 0.0295766
66.6853 29.6418 0.0313387
62.3384 12.6589 0.0227305
62.1915 15.8001 0.0329576
61.7625 18.7164 0.0384081
65.4385 25.7242 0.0333109
63.9526 28.3009 0.0258487
62.6874 24.692 0.0297552
61.0755 21.4027 0.0347232
60.1932 23.8127 0.0281164
59.2403 12.8085 0.0318352
56.395 13.1667 0.0313555
55.8697 10.25 0.0266524
67.7939 35.5539 2
67.1852 31.6375 2
65.5048 33.9482 2
64.4652 30.2315 2
60.7686 14.2461 2
60.5825 17.1599 2
60.0908 19.8819 2
63.3533 26.4662 2
61.9626 28.85 2
59.4406 22.3496 2
60.789 25.4206 2
58.6802 24.4315 2
57.897 14.3746 2
55.2956 14.7092 2
54.0365 9.14607 2
54.7779 12.0554 2
65.6889 35.6783 3.97701
64.9884 32.1839 3.97646
64.0176 34.2759 3.9769
62.2823 30.6955 3.97618
61.374 27.1499 3.97576
60.4914 29.2281 3.9764
59.2949 15.7043 3.96266
58.998 25.9074 3.97606
59.0385 18.4167 3.96092
58.5426 20.9476 3.96344
57.999 23.2084 3.96926
57.6398 24.7914 3.97503
52.1098 8.1618 3.97787
53.0504 11.048 3.97113
56.6537 15.7995 3.96307
53.7925 13.7474 3.96608
54.3407 16.0755 3.96131
55.0691 67.9312 0.0111292
65.2293 49.3827 0.0329988
55.8016 64.902 0.0231146
59.2134 62.3394 0.0304724
56.3173 62.0488 0.0297738
63.6274 53.2659 0.0354541
62.2451 50.5972 0.0308036
59.3199 59.5295 0.0361707
59.2162 56.9651 0.0377799
60.9498 54.26 0.0333058
59.1142 55.1242 0.0326659
53.0427 68.9988 2
53.9647 66.0064 2
57.867 60.836 2
54.676 63.1869 2
55.1919 60.5667 2
62.9809 48.6087 2
61.5764 52.5214 2
59.9799 49.9372 2
57.9807 58.223 2
59.1504 53.8788 2
57.9735 55.7415 2
52.068 66.9955 3.98283
52.9489 64.205 3.97651
56.6272 59.448 3.96858
53.6661 61.5781 3.97173
54.2323 59.271 3.97517
60.6565 47.8005 3.97295
59.4618 52.0268 3.96958
57.6515 49.5101 3.97328
56.7007 56.9295 3.96406
56.896 54.0331 3.96647
50.1071 67.8532 2
49.335 65.9129 3.98019
47.4613 66.5729 2
46.8895 64.723 3.97894
45.5566 67.09 3.98067
43.9716 69.5864 3.98655
46.0544 69.1547 2
46.6072 71.367 3.99104
48.1001 68.5752 0.0149816
48.802 70.7224 2
49.554 73.0099 4
50.947 69.9313 0.00967535
51.8506 72.1455 2
54.0858 71.1327 0
53.0632 6.07308 3.98924
55.104 7.14368 2
56.25 5.02411 4
58.3339 6.3199 2
57.0558 8.33832 0.0173393
60.3285 7.74928 0
65.9639 47.3958 0.0315652
67.1283 43.4575 0.0298095
64.4271 44.8108 0.0249813
65.3519 41.1911 0.022984
67.7563 39.5098 0.0284065
70.1251 37.523 0.0323521
67.856 37.524 2
65.5871 39.3618 2
64.9647 42.9964 2
63.4529 40.9032 2
63.736 46.6696 2
62.4769 44.1564 2
65.699 37.504 3.97684
63.6041 39.2553 3.9768
63.0102 42.5093 3.97663
62.0573 40.6645 3.9766
61.6238 45.8489 3.97506
61.0396 43.6149 3.97636
67.7958 35.5537 0.0288121
67.1855 31.6371 0.0304276
65.5083 33.9473 0.0228516
64.4676 30.2306 0.0244358
60.7689 14.2456 0.0319395
60.583 17.1604 0.0386486
60.0922 19.8811 0.0378311
63.3551 26.4651 0.0277003
61.965 28.8489 0.0238754
60.7906 25.4195 0.0255023
59.4388 22.349 0.0322866
58.6808 24.4304 0.0256319
57.8982 14.3748 0.0330714
55.2952 14.7113 0.0327721
54.0346 9.14634 0.0256685
54.7773 12.0584 0.0302816
65.6855 35.6789 2
64.9851 32.1849 2
64.0156 34.2765 2
62.2804 30.6959 2
59.2933 15.7038 2
59.0436 18.4153 2
58.5434 20.9483 2
61.3724 27.151 2
60.4903 29.2285 2
57.993 23.2106 2
58.997 25.9087 2
57.6444 24.7933 2
56.6519 15.7988 2
54.3441 16.0727 2
53.7915 13.7386 2
52.1114 8.1615 2
53.0514 11.0459 2
63.8125 35.6477 3.97668
62.6045 33.0888 3.97647
60.2085 30.6951 3.9761
59.1939 28.0186 3.97617
57.8987 17.0394 3.96015
57.3601 25.8636 3.97602
57.566 19.5661 3.96032
57.1034 21.9627 3.96363
56.832 24.0874 3.97022
50.1108 7.29085 3.98301
51.2275 10.1427 3.97428
52.1571 12.8473 3.972
55.4942 17.0466 3.95992
52.9492 15.3442 3.96428
53.7097 17.0712 3.95983
53.0412 68.9993 0.00992243
53.9641 66.0061 0.0204764
62.9819 48.6095 0.0287908
54.6764 63.1856 0.0283073
57.8687 60.8352 0.031205
55.1941 60.5664 0.0311235
61.5764 52.5217 0.0321279
59.979 49.9378 0.0284116
57.9836 58.2223 0.0380158
57.9768 55.7432 0.0370936
59.1468 53.8788 0.0313342
52.0685 66.996 2
52.9485 64.2057 2
56.6256 59.4489 2
53.6645 61.5806 2
54.2297 59.2717 2
60.6561 47.7997 2
59.4625 52.0262 2
57.6492 49.5089 2
56.6972 56.9327 2
56.893 54.0315 2
51.1654 65.1181 3.97879
52.0358 62.5183 3.97344
55.4387 58.2012 3.96376
52.8066 60.0711 3.97108
53.5998 58.4182 3.96808
57.8407 46.7337 3.97582
57.2541 51.6862 3.96984
55.8045 49.4285 3.97237
55.3503 55.7179 3.96472
55.0879 53.2824 3.96303
50.1068 67.8532 0.0158391
49.3349 65.9128 2
48.6142 64.1101 3.97902
47.4613 66.5727 0.0197901
45.5567 67.0905 2
46.89 64.7228 2
46.3764 63.0364 3.98225
45.1307 65.1839 3.97849
43.6301 67.4615 3.98212
41.8593 69.8734 3.98618
43.9718 69.5869 2
44.3745 71.8616 3.99128
46.054 69.1544 0.0142364
46.6083 71.3669 2
47.2057 73.7222 4
48.8008 70.7226 0.00928273
49.554 73.0099 2
51.8506 72.1454 0
50.9539 5.13359 3.99077
53.0655 6.074 2
54.0858 3.86728 4
55.1009 7.14238 0.0132841
56.25 5.02406 2
58.3339 6.31992 0
63.7378 46.6705 0.0269563
64.968 42.9974 0.023296
62.4789 44.1574 0.0234013
63.4545 40.9035 0.0231713
65.5905 39.3621 0.0231433
67.8572 37.5239 0.0284175
65.6954 37.5042 2
63.6028 39.2552 2
63.0087 42.5087 2
62.0575 40.6642 2
61.6221 45.8479 2
61.0385 43.6146 2
63.6678 37.4581 3.97674
61.7677 39.336 3.9768
60.7848 41.9032 3.97665
59.8058 44.6766 3.97666
65.6889 35.6783 0.0229899
64.9884 32.1839 0.0235413
64.0176 34.2759 0.0230978
62.2823 30.6955 0.0238181
59.2949 15.7043 0.037337
59.0385 18.4167 0.0390818
58.5426 20.9476 0.0365593
61.374 27.1499 0.0242372
60.4914 29.2281 0.0235951
58.998 25.9074 0.023938
57.999 23.2084 0.0307421
57.6398 24.7914 0.0249665
56.6537 15.7995 0.0369336
54.3407 16.0755 0.0386931
53.7925 13.7474 0.033924
52.1098 8.1618 0.022132
53.0504 11.048 0.0288749
63.8111 35.6477 2
62.6041 33.0893 2
60.2088 30.6953 2
57.8955 17.0396 2
57.5778 19.5627 2
57.0985 21.965 2
59.1926 28.0194 2
56.8466 24.0887 2
57.3607 25.8668 2
50.1124 7.28922 2
55.4937 17.0454 2
53.7137 17.0638 2
52.9487 15.3375 2
52.158 12.8514 2
51.2288 10.1407 2
61.8097 35.3813 3.97644
59.8313 32.8098 3.97621
58.1386 30.1842 3.976
56.8455 27.5287 3.97664
56.5562 18.2353 3.96094
55.8892 25.2626 3.97524
56.1622 20.6372 3.96085
55.7806 23.017 3.96378
48.056 6.53056 3.98718
49.322 9.34362 3.9774
50.4225 12.0297 3.97393
51.3521 14.5621 3.96591
54.341 18.0148 3.95982
52.3184 17.1429 3.95934
52.068 66.9955 0.0171725
52.9489 64.205 0.0234866
60.6565 47.8005 0.0270466
53.6661 61.5781 0.028266
56.6272 59.448 0.0314217
54.2323 59.271 0.0248298
59.4618 52.0268 0.0304236
57.6515 49.5101 0.0267239
56.7007 56.9295 0.0359395
56.896 54.0331 0.0335348
51.1652 65.1188 2
52.0345 62.5198 2
55.4371 58.2018 2
52.8052 60.0746 2
53.5981 58.42 2
57.8398 46.7327 2
57.2508 51.6847 2
55.798 49.4265 2
55.3481 55.7177 2
55.089 53.2824 2
50.3404 63.3671 3.97977
51.2237 60.8916 3.97478
54.1544 57.2101 3.96792
52.2597 58.5688 3.97068
56.0803 44.0479 3.9767
54.9637 47.7541 3.97454
54.6821 51.2675 3.96564
53.8229 54.4575 3.96557
49.335 65.9129 0.0198054
48.6144 64.1094 2
47.9532 62.4584 3.98029
45.5566 67.09 0.0193261
46.8895 64.723 0.021062
43.63 67.4621 2
46.3765 63.0363 2
45.1312 65.1841 2
45.979 61.5663 3.98889
44.7635 63.4349 3.97772
43.3559 65.495 3.97892
41.6624 67.6797 3.98172
39.7016 70.0191 3.98568
41.8595 69.874 2
42.1091 72.206 3.99168
43.9716 69.5864 0.013454
44.3754 71.8616 2
44.8159 74.2794 4
46.6072 71.367 0.00896314
47.2057 73.7222 2
49.554 73.0099 0
48.7852 4.32381 3.99185
50.9556 5.13342 2
51.8506 2.85458 4
53.0632 6.07308 0.0107565
54.0858 3.86728 2
56.25 5.02411 0
61.6238 45.8489 0.024942
63.0102 42.5093 0.0233749
61.0396 43.6149 0.0236387
62.0573 40.6645 0.023397
63.6041 39.2553 0.0232004
65.699 37.504 0.0231571
63.6665 37.4581 2
61.7683 39.3362 2
60.7855 41.9031 2
59.8055 44.6758 2
61.5977 37.4442 3.9769
59.7472 39.8113 3.97684
58.4376 42.8323 3.97626
63.8125 35.6477 0.0233166
62.6045 33.0888 0.0235319
60.2085 30.6951 0.0239023
57.8987 17.0394 0.0398506
57.566 19.5661 0.0396764
57.1034 21.9627 0.0363678
59.1939 28.0186 0.0238326
57.3601 25.8636 0.0239842
56.832 24.0874 0.0297794
55.4942 17.0466 0.0400767
53.7097 17.0712 0.0401711
52.9492 15.3442 0.0357187
50.1108 7.29085 0.0169863
52.1571 12.8473 0.0280011
51.2275 10.1427 0.0257182
61.8104 35.3814 2
59.8316 32.8098 2
58.1396 30.1837 2
56.5588 18.2342 2
56.1756 20.6316 2
55.7861 23.0223 2
56.845 27.5301 2
55.8905 25.2671 2
48.057 6.52952 2
49.3234 9.34212 2
54.3497 18.0128 2
52.3131 17.1329 2
51.3493 14.561 2
50.424 12.0291 2
59.3843 35.1517 3.97657
57.4166 32.3581 3.97566
56.0096 29.4835 3.97633
54.9491 26.7902 3.97568
55.228 19.2889 3.96191
54.5587 24.233 3.96961
54.7556 21.7024 3.96011
45.9625 5.88484 3.98867
43.3742 7.4781 3.98444
47.3545 8.63071 3.98171
48.5931 11.3151 3.97418
49.6911 13.7865 3.9703
50.5933 16.2114 3.96513
53.0334 18.7789 3.96168
51.2405 18.191 3.9653
51.1654 65.1181 0.0212052
52.0358 62.5183 0.0265571
57.8407 46.7337 0.0241822
52.8066 60.0711 0.0289227
55.4387 58.2012 0.0362415
53.5998 58.4182 0.031921
57.2541 51.6862 0.0301598
55.8045 49.4285 0.0276315
55.3503 55.7179 0.0352793
55.0879 53.2824 0.0369653
50.34 63.3663 2
51.2219 60.8901 2
54.1532 57.2112 2
52.2578 58.5702 2
56.081 44.0471 2
54.9605 47.7526 2
54.6807 51.2663 2
53.8226 54.4589 2
49.5789 61.7292 3.97641
54.8389 41.6396 3.9741
50.5257 59.2797 3.96967
52.0827 56.4236 3.9681
53.4981 45.3938 3.97416
52.8311 49.1838 3.96963
52.3763 52.7456 3.96069
48.6142 64.1101 0.0209795
47.9527 62.4566 2
47.3139 60.9893 3.98906
43.6301 67.4615 0.0178819
45.1307 65.1839 0.02151
46.3764 63.0364 0.017747
41.6627 67.6795 2
43.3565 65.4956 2
45.9777 61.5669 2
44.7638 63.4351 2
45.7493 60.6118 3.98709
44.4779 61.8104 3.97957
43.1446 63.7093 3.97844
41.5456 65.6326 3.97759
39.632 67.757 3.98104
37.5259 70.0434 3.98448
39.7017 70.0194 2
39.8163 72.4025 3.9915
41.8593 69.8734 0.0138163
42.1097 72.2063 2
42.3947 74.6792 4
44.3745 71.8616 0.00872464
44.8159 74.2794 2
47.2057 73.7222 0
43.8518 5.36187 3.98783
46.5713 3.64827 3.9922
48.7861 4.32359 2
49.554 1.99015 4
50.9539 5.13359 0.00922712
51.8506 2.85453 2
54.0858 3.86728 0
59.8058 44.6766 0.0233379
60.7848 41.9032 0.02335
61.7677 39.336 0.0231989
63.6678 37.4581 0.0232634
61.5982 37.4442 2
59.7481 39.8111 2
58.4379 42.832 2
59.2385 37.5656 3.97723
57.3688 40.5978 3.97716
54.2403 39.6526 3.97513
61.8097 35.3813 0.0235569
59.8313 32.8098 0.0237884
58.1386 30.1842 0.0239994
56.5562 18.2353 0.0390564
56.1622 20.6372 0.0391516
55.7806 23.017 0.0362197
56.8455 27.5287 0.0233609
55.8892 25.2626 0.0247631
54.341 18.0148 0.0401777
52.3184 17.1429 0.0406583
51.3521 14.5621 0.0340938
48.056 6.53056 0.0128194
49.322 9.34362 0.0226004
50.4225 12.0297 0.0260737
59.3852 35.1514 2
45.9631 5.8835 2
43.3746 7.47631 2
57.4178 32.3585 2
56.0093 29.4828 2
55.2183 19.2931 2
54.7794 21.705 2
54.5535 24.2376 2
54.9468 26.7929 2
47.3557 8.62828 2
48.5945 11.3142 2
53.0416 18.7584 2
51.2465 18.1877 2
50.5913 16.2121 2
49.6901 13.7887 2
56.7469 34.805 3.9771
55.0785 31.6366 3.97566
53.9294 28.5907 3.97708
53.3268 25.7077 3.97506
53.8205 20.2568 3.96122
53.2966 22.8912 3.95607
41.3998 7.08296 3.9838
45.3602 7.99772 3.98713
42.8663 9.42338 3.97925
46.6645 10.6647 3.97999
47.7273 13.129 3.97514
48.8972 15.4597 3.96936
49.944 17.776 3.9599
51.5464 19.4736 3.9703
50.3404 63.3671 0.0202275
51.2237 60.8916 0.0252181
56.0803 44.0479 0.0232998
54.9637 47.7541 0.0254551
52.2597 58.5688 0.0293187
54.1544 57.2101 0.0320774
54.6821 51.2675 0.0343601
53.8229 54.4575 0.0344301
49.5773 61.7281 2
54.829 41.6354 2
50.5238 59.2805 2
52.0851 56.4262 2
53.4942 45.3915 2
52.8321 49.1823 2
52.3774 52.7452 2
48.8209 60.1815 3.97641
51.609 42.5071 3.98329
49.7172 57.5766 3.9664
50.4044 54.3524 3.96196
51.1722 47.1012 3.97497
50.8231 50.8221 3.95486
47.2903 43.5819 3.9753
47.9532 62.4584 0.0197056
47.3121 60.9879 2
46.5927 59.779 3.994
41.6624 67.6797 0.0182792
43.3559 65.495 0.0210781
44.7635 63.4349 0.022284
45.979 61.5663 0.0111126
39.6325 67.7577 2
41.5461 65.6312 2
45.7485 60.612 2
43.1447 63.7092 2
44.4763 61.8118 2
44.6058 60.2685 3.99499
42.946 62.0613 3.97479
41.5997 63.8024 3.97755
39.647 65.5968 3.97661
37.5632 67.7373 3.97903
31.698 65.1137 3.97665
33.3928 67.4752 3.97891
35.334 69.9537 3.98461
37.5257 70.0447 2
37.509 72.4568 3.99198
39.7016 70.0191 0.0143182
39.8168 72.4027 2
39.9526 74.9197 4
42.1091 72.206 0.008323
42.3947 74.6792 2
44.8159 74.2794 0
41.7365 4.97012 3.98827
43.8522 5.36039 2
44.3268 3.11137 3.99261
46.572 3.64784 2
47.2057 1.27793 4
48.7852 4.32381 0.00815024
49.554 1.99013 2
51.8506 2.85458 0
58.4376 42.8323 0.0237426
59.7472 39.8113 0.0231604
61.5977 37.4442 0.0230962
59.2398 37.5665 2
57.3684 40.5993 2
54.231 39.659 2
56.1059 37.8779 3.97678
48.6366 41.2272 3.97363
52.202 39.2925 3.98324
39.4434 6.80615 3.98494
59.3843 35.1517 0.0234296
57.4166 32.3581 0.0243361
56.0096 29.4835 0.0236735
55.228 19.2889 0.038086
54.7556 21.7024 0.0398863
54.5587 24.233 0.0303925
54.9491 26.7902 0.0243204
53.0334 18.7789 0.0383223
51.2405 18.191 0.0347008
50.5933 16.2114 0.0348714
45.9625 5.88484 0.0113259
49.6911 13.7865 0.0296996
47.3545 8.63071 0.018287
48.5931 11.3151 0.0258241
43.3742 7.4781 0.0155572
56.7465 34.8059 2
41.4001 7.08305 2
45.3607 7.9958 2
42.8671 9.42179 2
55.0809 31.6346 2
53.9281 28.5912 2
53.824 20.2729 2
53.2862 22.8904 2
53.324 25.7079 2
46.6657 10.6607 2
47.7273 13.1257 2
51.5635 19.474 2
49.9438 17.7771 2
48.892 15.47 2
54.0624 34.0029 3.97495
52.7905 30.6853 3.97572
52.0357 27.438 3.97486
51.8065 24.3286 3.9787
52.2159 21.2163 3.97349
41.0132 9.05685 3.97779
44.7262 9.99801 3.98589
42.4626 10.9074 3.99916
45.99 12.7411 3.97147
47.6522 14.6332 3.9683
48.0512 17.0361 3.9654
49.747 19.8586 3.97506
49.5789 61.7292 0.0235877
50.5257 59.2797 0.0303317
54.8389 41.6396 0.0258959
53.4981 45.3938 0.0258428
52.8311 49.1838 0.0303712
52.0827 56.4236 0.0319011
52.3763 52.7456 0.0393093
48.818 60.1792 2
51.6245 42.5198 2
49.7154 57.5767 2
50.4043 54.3538 2
51.174 47.0996 2
50.8251 50.8217 2
47.3044 43.6153 2
47.9385 58.704 3.98092
49.2748 45.1196 3.98084
48.477 55.8651 3.96006
48.8656 52.5063 3.97608
49.1868 48.9024 3.97085
45.0357 39.7934 3.85586
45.5237 42.4947 3.89414
45.7844 45.5832 3.98302
42.8629 41.0131 3.68108
41.5761 41.8133 3.48376
47.3139 60.9893 0.0109353
46.5907 59.776 2
45.4319 58.7801 3.99492
39.632 67.757 0.0189626
41.5456 65.6326 0.0224101
43.1446 63.7093 0.0215574
44.4779 61.8104 0.0204303
45.7493 60.6118 0.0129061
41.5997 63.8012 2
37.5634 67.7386 2
39.6476 65.5977 2
44.606 60.2694 2
42.9443 62.0615 2
41.7493 62.4687 3.977
42.4679 59.9541 3.98084
39.8944 63.5334 3.9761
37.642 65.4924 3.97589
35.4636 67.6468 3.97879
33.5759 65.3255 3.97517
31.9604 63.2771 3.9762
29.8856 64.7048 3.98032
31.6977 65.1142 2
31.3778 67.1859 3.97936
33.3926 67.4762 2
33.1575 69.7473 3.98469
35.3335 69.9549 2
35.1957 72.3714 3.99199
37.5259 70.0434 0.0155173
37.5091 72.4574 2
37.5 75 4
39.8163 72.4025 0.00849607
39.9526 74.9197 2
42.3947 74.6792 0
39.6245 4.7179 3.98935
41.7368 4.96988 2
42.0632 2.71841 3.99301
43.8518 5.36187 0.012171
44.327 3.1106 2
44.8158 0.721173 4
46.5713 3.64827 0.0078048
47.2057 1.27779 2
49.554 1.99015 0
57.3688 40.5978 0.0228445
59.2385 37.5656 0.0227691
54.2403 39.6526 0.0248718
48.6621 41.2384 2
56.1061 37.875 2
52.1977 39.2574 2
53.0618 36.6163 3.97796
46.5661 40.3087 3.8975
49.5821 38.5073 3.98448
37.5174 6.67623 3.98549
39.4442 6.80463 2
39.2109 8.69778 3.98202
35.9433 8.49673 3.98397
56.7469 34.805 0.0228993
55.0785 31.6366 0.0243418
53.9294 28.5907 0.0229249
53.8205 20.2568 0.0387849
53.2966 22.8912 0.0439308
53.3268 25.7077 0.0249437
51.5464 19.4736 0.0296971
49.944 17.776 0.0401003
48.8972 15.4597 0.0306367
45.3602 7.99772 0.0128692
47.7273 13.129 0.0248645
46.6645 10.6647 0.0200051
41.3998 7.08296 0.0162026
42.8663 9.42338 0.0207521
54.0614 34.0019 2
41.0147 9.05892 2
44.7268 9.99631 2
42.464 10.9081 2
52.7856 30.683 2
52.0425 27.4383 2
52.2158 21.2228 2
51.7976 24.3334 2
45.99 12.735 2
47.6462 14.6084 2
49.7628 19.8481 2
48.0478 17.043 2
51.5706 32.9149 3.98239
50.6184 29.398 3.97754
50.333 25.9408 3.97062
49.7767 22.4544 3.98487
40.5645 11.6189 3.98252
43.8463 11.9119 3.97987
45.769 15.4715 3.98773
47.4489 19.4699 3.97866
45.4957 37.481 3.85247
48.8209 60.1815 0.0235915
49.7172 57.5766 0.0335981
51.609 42.5071 0.0167086
51.1722 47.1012 0.025027
50.8231 50.8221 0.0451352
50.4044 54.3524 0.0380437
47.2903 43.5819 0.0247005
47.9362 58.7071 2
49.2918 45.134 2
48.4729 55.8673 2
48.8646 52.5094 2
49.1892 48.9035 2
45.1213 39.8115 2
45.5541 42.5227 2
45.7917 45.5992 2
42.9074 41.059 2
41.6116 41.8384 2
46.7668 57.3102 3.97842
43.5891 39.3492 3.68118
41.9477 40.7387 3.5019
47.4533 47.1491 3.98352
46.9975 54.1739 3.96063
47.2475 50.6514 3.97845
44.307 47.2104 3.98072
44.1741 41.8327 3.85278
44.2768 44.3202 3.89342
41.8814 42.4392 3.72152
40.5911 42.1091 3.47292
46.5927 59.779 0.00599888
45.4321 58.7778 2
43.8396 57.6692 3.9824
37.5632 67.7373 0.0209712
39.647 65.5968 0.0233909
41.5997 63.8024 0.0224465
42.946 62.0613 0.0252087
44.6058 60.2685 0.00500749
35.4637 67.6481 2
41.748 62.4716 2
39.8938 63.534 2
37.6423 65.4937 2
42.4699 59.9518 2
40.6199 61.6112 3.98058
40.432 58.1332 3.98274
37.8375 63.1889 3.9732
35.5731 65.4147 3.97623
33.576 65.3265 2
31.9612 63.2793 2
33.6295 63.3166 3.97462
30.3799 62.8391 3.98059
32.1282 61.98 3.9868
26.8802 61.4627 3.97853
28.0662 64.134 3.97867
29.8847 64.7061 2
29.4078 66.7494 3.98018
31.698 65.1137 0.0233475
31.3775 67.1864 2
31.0154 69.4129 3.9846
33.3928 67.4752 0.0210936
33.1569 69.7482 2
32.8937 72.1458 3.99144
35.334 69.9537 0.0153858
35.1953 72.3721 2
35.0474 74.9194 4
37.509 72.4568 0.00801564
37.5 75 2
39.9526 74.9197 0
35.622 6.72774 3.98492
37.5243 4.61698 3.98966
39.6247 4.71647 2
39.7897 2.47515 3.99308
41.7365 4.97012 0.0117291
42.0632 2.71815 2
42.3946 0.32156 4
44.3268 3.11137 0.00739473
44.8159 0.72056 2
47.2057 1.27793 0
48.6366 41.2272 0.0263692
56.1059 37.8779 0.0232236
52.202 39.2925 0.0167621
46.589 40.3111 2
49.5815 38.505 2
53.0604 36.6412 2
50.3863 35.5657 3.97402
47.2324 37.7632 3.90791
45.0578 35.1795 3.85485
42.9021 33.9431 3.67841
41.609 33.1482 3.48217
37.4586 8.53696 3.98462
37.5181 6.67555 2
39.4434 6.80615 0.0150583
39.2131 8.69583 2
38.9758 10.1341 3.98394
35.8996 9.77948 3.9797
34.1533 8.82907 3.98197
35.9443 8.49392 2
54.0624 34.0029 0.0250481
52.7905 30.6853 0.0242774
52.0357 27.438 0.0251389
52.2159 21.2163 0.0265081
51.8065 24.3286 0.0213043
49.747 19.8586 0.0249407
48.0512 17.0361 0.0345969
47.6522 14.6332 0.0316978
44.7262 9.99801 0.0141135
45.99 12.7411 0.0285338
41.0132 9.05685 0.0222131
42.4626 10.9074 0.000838011
51.5808 32.9127 2
40.567 11.6237 2
43.845 11.9102 2
50.6373 29.396 2
50.3288 25.9439 2
49.768 22.4495 2
45.7588 15.4228 2
47.451 19.4981 2
49.1528 31.5436 3.9867
48.7115 27.7095 3.97731
49.0712 24.5914 3.97826
47.0855 22.2328 3.98986
38.2997 12.7494 3.97699
42.0853 14.3138 3.97935
44.7603 18.5991 3.97616
44.0112 37.4854 3.69297
45.5909 37.4855 2
47.9385 58.704 0.0190834
48.477 55.8651 0.0399413
49.2748 45.1196 0.0191585
49.1868 48.9024 0.0291493
48.8656 52.5063 0.0239212
45.0357 39.7934 0.144137
45.5237 42.4947 0.105864
45.7844 45.5832 0.0169772
42.8629 41.0131 0.318917
41.5761 41.8133 0.516239
46.7641 57.313 2
43.6541 39.3755 2
41.9532 40.7528 2
47.4603 47.1457 2
46.9924 54.1775 2
47.2475 50.658 2
44.3406 47.2026 2
44.223 41.8664 2
44.3257 44.3491 2
41.9368 42.4919 2
40.6221 42.122 2
45.3015 55.8925 3.99906
42.2918 39.2097 3.51214
40.4794 40.6172 3.6175
45.6619 48.7929 4.00251
45.2917 52.4392 3.9833
43.0497 48.2046 3.99428
42.9519 45.849 3.88576
43.0436 43.5969 3.8339
40.6981 43.4524 3.7008
39.1747 42.3673 3.51564
45.4319 58.7801 0.00508069
43.8375 57.6752 2
42.0636 56.2569 3.98637
35.4636 67.6468 0.0212083
37.642 65.4924 0.0241145
39.8944 63.5334 0.0239022
41.7493 62.4687 0.023002
42.4679 59.9541 0.0191618
35.5735 65.4162 2
40.62 61.6105 2
37.8377 63.1893 2
40.4321 58.137 2
38.9091 56.4041 3.99349
38.248 60.295 3.98015
35.6074 63.183 3.97328
33.5759 65.3255 0.0248349
31.9604 63.2771 0.0238009
33.6304 63.318 2
30.3804 62.8407 2
32.1294 61.982 2
28.6877 62.1761 3.98001
33.348 61.4863 3.97816
31.0769 61.2041 3.9811
27.5913 59.5542 3.97992
23.8255 59.038 3.99196
25.0494 60.8334 3.97715
26.8808 61.4631 2
26.2353 63.463 3.97662
28.0656 64.1324 2
27.4648 66.1737 3.97976
29.8856 64.7048 0.0196824
29.4072 66.7495 2
28.908 68.9384 3.98399
31.3778 67.1859 0.0206374
31.0146 69.4131 2
30.6166 71.7773 3.99093
33.1575 69.7473 0.0153149
32.8929 72.1462 2
32.6054 74.6784 4
35.1957 72.3714 0.00800787
35.0474 74.9197 2
37.5 75 0
33.7252 6.98412 3.98364
35.4364 4.6872 3.98934
35.6225 6.72631 2
37.5155 2.38751 3.99321
37.5245 4.61631 2
39.6245 4.7179 0.0106455
39.7896 2.47438 2
39.9526 0.0806499 4
42.0632 2.71841 0.00698979
42.3947 0.320817 2
44.8158 0.721173 0
43.6043 35.622 3.68475
41.9681 34.2184 3.49105
46.5661 40.3087 0.102495
49.5821 38.5073 0.0155214
53.0618 36.6163 0.0220358
47.2272 37.7367 2
50.3951 35.5599 2
45.1324 35.1577 2
42.9437 33.8988 2
41.6371 33.1227 2
47.4276 34.34 3.94427
44.2231 33.1288 3.83634
41.9295 32.5252 3.72002
40.6193 32.8628 3.47208
37.3115 10.6343 3.9811
37.4603 8.53635 2
37.5174 6.67623 0.0145148
39.2109 8.69778 0.0179777
38.9794 10.1323 2
34.7563 10.3893 3.98051
35.9015 9.77389 2
32.3803 9.3754 3.97795
34.1525 8.82435 2
35.9433 8.49673 0.0160332
51.5706 32.9149 0.0176093
50.6184 29.398 0.0224645
50.333 25.9408 0.0293832
49.7767 22.4544 0.0151269
47.4489 19.4699 0.0213377
45.769 15.4715 0.0122706
43.8463 11.9119 0.0201262
40.5645 11.6189 0.0174807
49.1725 31.5321 2
38.3007 12.7445 2
42.0901 14.3255 2
48.7153 27.7123 2
49.0652 24.5922 2
47.0708 22.2281 2
44.7628 18.6619 2
47.0601 29.6995 3.98446
46.7532 25.3178 3.97026
44.2159 21.6043 3.97954
36.5859 12.9622 3.97402
38.6803 14.8613 3.97449
41.7294 17.9383 3.97913
42.4512 37.468 3.54853
44.068 37.4858 2
45.4957 37.481 0.147529
46.7668 57.3102 0.0215751
46.9975 54.1739 0.0393694
47.4533 47.1491 0.0164792
47.2475 50.6514 0.0215453
43.5891 39.3492 0.318815
44.1741 41.8327 0.147216
44.2768 44.3202 0.106578
44.307 47.2104 0.0192812
41.8814 42.4392 0.278481
41.9477 40.7387 0.498103
40.5911 42.1091 0.527083
45.2978 55.8943 2
42.2934 39.2158 2
40.5099 40.6023 2
45.6607 48.8104 2
45.2867 52.441 2
43.0839 48.2219 2
43.008 45.8965 2
43.0944 43.6294 2
40.7382 43.5159 2
39.1723 42.3821 2
43.6262 54.356 3.99378
40.5835 39.0581 3.63576
39.0692 40.6912 3.58705
43.3786 50.2905 4.00358
41.6862 47.3591 3.92729
41.5987 44.9435 3.84583
39.3401 44.1051 3.66631
37.4987 42.4786 3.55536
43.8396 57.6692 0.0175968
42.0665 56.2488 2
40.3768 54.8177 3.99495
35.5731 65.4147 0.0237735
37.8375 63.1889 0.0268032
40.6199 61.6112 0.0194245
40.432 58.1332 0.0172648
35.6078 63.1825 2
38.2472 60.2972 2
38.9109 56.3915 2
37.9842 55.0867 3.99495
36.9317 57.5892 3.99148
35.365 60.887 3.97905
33.6295 63.3166 0.025375
30.3799 62.8391 0.0194116
32.1282 61.98 0.0131988
33.3488 61.4865 2
28.6882 62.1793 2
31.0781 61.2074 2
29.4201 60.2568 3.97588
32.3684 59.705 3.99161
28.0614 58.3392 4.0093
27.5932 59.554 2
25.4135 58.5559 3.98042
22.8098 58.1926 3.96806
23.4192 60.3031 3.97856
23.8274 59.0379 2
25.0505 60.8324 2
24.4408 62.7466 3.97704
26.8802 61.4627 0.0214748
26.2356 63.4636 2
25.55 65.4816 3.9784
28.0662 64.134 0.0213302
27.4643 66.1737 2
26.8378 68.3268 3.98404
29.4078 66.7494 0.0198166
28.9071 68.9382 2
28.3718 71.2626 3.99025
31.0154 69.4129 0.0154029
30.6156 71.7772 2
30.1842 74.2788 4
32.8937 72.1458 0.00856337
32.6053 74.6792 2
35.0474 74.9194 0
31.7897 7.42338 3.98209
33.349 4.92715 3.98831
33.725 6.98124 2
35.2459 2.46346 3.99322
35.4364 4.68649 2
35.622 6.72774 0.0150757
37.5 0 4
37.5151 2.38713 2
37.5243 4.61698 0.0103436
39.7897 2.47515 0.00692274
39.9526 0.0802889 2
42.3946 0.32156 0
42.2859 35.7246 3.50069
43.6803 35.591 2
40.5159 34.3456 3.61746
41.9667 34.2013 2
47.2324 37.7632 0.0920934
50.3863 35.5657 0.0259756
45.0578 35.1795 0.145153
42.9021 33.9431 0.321586
41.609 33.1482 0.517831
47.4534 34.3606 2
44.2633 33.1001 2
41.982 32.4702 2
40.6475 32.8494 2
45.5324 31.7515 3.9056
43.0883 31.3663 3.82816
40.7386 31.5165 3.69935
39.1953 32.6209 3.5111
35.6956 11.7869 3.97642
37.3154 10.6321 2
37.4586 8.53696 0.015384
38.9758 10.1341 0.0160575
33.1014 11.2279 3.97255
34.7553 10.3812 2
35.8996 9.77948 0.0202963
30.4859 10.0274 3.97731
32.3798 9.37448 2
34.1533 8.82907 0.0180279
49.1528 31.5436 0.0132957
48.7115 27.7095 0.0226918
49.0712 24.5914 0.0217412
47.0855 22.2328 0.0101377
44.7603 18.5991 0.0238418
42.0853 14.3138 0.0206501
38.2997 12.7494 0.023012
36.5825 12.9402 2
47.0703 29.6467 2
38.6775 14.8389 2
41.721 17.9386 2
46.7558 25.3179 2
44.2009 21.5779 2
45.0236 27.8408 4.00285
43.5896 24.2442 4.02834
41.29 20.9537 3.98647
35.7721 14.8033 3.9768
38.6692 17.6687 3.98277
40.64 37.4536 3.65108
42.4617 37.4723 2
44.0112 37.4854 0.307031
45.3015 55.8925 0.000941043
45.2917 52.4392 0.0166972
45.6619 48.7929 -0.00251121
42.2918 39.2097 0.487858
43.0436 43.5969 0.166104
42.9519 45.849 0.114243
43.0497 48.2046 0.00572272
40.6981 43.4524 0.299197
40.4794 40.6172 0.382501
39.1747 42.3673 0.484358
43.6238 54.3524 2
40.5899 39.0576 2
39.0702 40.6849 2
43.3702 50.3041 2
41.6902 47.394 2
41.6225 44.9879 2
37.4947 42.4989 2
39.3559 44.1687 2
41.7789 52.8307 3.99845
39.0793 39.092 3.59802
37.503 40.747 3.61709
35.8299 42.3778 3.5146
40.8144 49.4364 3.99458
39.7274 45.6912 3.81748
37.4986 44.3675 3.69864
42.0636 56.2569 0.0136317
40.3754 54.826 2
38.7234 53.6368 3.99627
35.6074 63.183 0.0267225
38.248 60.295 0.0198539
38.9091 56.4041 0.00650718
35.365 60.8833 2
36.9325 57.5901 2
37.9853 55.0863 2
36.3211 55.1579 3.99744
34.4966 58.4922 3.9949
33.348 61.4863 0.0218428
28.6877 62.1761 0.0199885
31.0769 61.2041 0.0188953
32.3691 59.7086 2
29.4213 60.2557 2
30.3339 57.7799 3.98451
28.0642 58.3382 2
27.0244 56.7898 3.96715
27.5913 59.5542 0.0200775
25.4162 58.5555 2
23.9317 56.7505 3.95914
21.419 57.3373 3.95904
22.0203 59.5739 3.97649
22.8118 58.1939 2
22.7473 61.9949 3.97334
23.4202 60.3025 2
23.8255 59.038 0.00804337
25.0494 60.8334 0.0228517
24.4415 62.7498 2
23.6856 64.6977 3.97594
26.2353 63.463 0.0233794
25.5493 65.4831 2
24.8103 67.5877 3.9828
27.4648 66.1737 0.0202405
26.8368 68.3276 2
26.167 70.6035 3.99017
28.908 68.9384 0.0160061
28.3707 71.2623 2
27.7943 73.7221 4
30.6166 71.7773 0.00907471
30.1841 74.2794 2
32.6054 74.6784 0
29.8126 7.99953 3.98011
31.2545 5.33372 3.98734
31.7893 7.42203 2
32.982 2.70176 3.99279
33.3486 4.92546 2
33.7252 6.98412 0.016358
35.0474 0.080333 4
35.2454 2.46321 2
35.4364 4.6872 0.0106571
37.5 0 2
37.5155 2.38751 0.00679461
39.9526 0.0806499 0
40.6251 35.8721 3.63804
42.2897 35.7259 2
43.6043 35.622 0.315247
28.5464 10.7028 3.97709
39.08 34.2962 3.58505
40.5249 34.3556 2
41.9681 34.2184 0.508946
47.4276 34.34 0.055731
44.2231 33.1288 0.163655
41.9295 32.5252 0.279978
40.6193 32.8628 0.527916
45.5663 31.7325 2
43.1325 31.3323 2
40.7804 31.4522 2
39.1991 32.6073 2
43.8952 29.9645 3.8993
41.617 30.017 3.84729
39.3689 30.8726 3.66506
37.5298 32.5195 3.55391
34.0983 12.9526 3.97354
35.6951 11.7729 2
37.3115 10.6343 0.0189028
31.1913 11.9998 3.97728
33.1018 11.2278 2
34.7563 10.3893 0.0194904
30.4845 10.0234 2
32.3803 9.3754 0.0220491
47.0601 29.6995 0.0155424
46.7532 25.3178 0.0297356
36.5859 12.9622 0.0259777
44.2159 21.6043 0.020457
41.7294 17.9383 0.0208692
38.6803 14.8613 0.0255125
35.7758 14.8128 2
45.0213 27.8381 2
38.6674 17.6734 2
41.2733 20.9433 2
43.5789 24.2282 2
33.6146 15.9092 3.98327
42.7477 26.6785 3.98483
40.7831 23.5506 3.99591
38.396 20.4374 3.99354
35.8475 17.5622 3.98091
39.0975 37.4868 3.61227
40.6394 37.4568 2
42.4512 37.468 0.451468
43.6262 54.356 0.00622062
43.3786 50.2905 -0.00358298
40.5835 39.0581 0.364238
41.5987 44.9435 0.154167
41.6862 47.3591 0.0727138
39.3401 44.1051 0.333694
39.0692 40.6912 0.412949
37.4987 42.4786 0.444637
41.77 52.8314 2
39.0727 39.0789 2
37.5002 40.7358 2
40.8003 49.4557 2
35.8272 42.3906 2
39.7446 45.7491 2
37.4913 44.4276 2
39.7281 51.6302 4.00304
37.507 39.0966 3.6345
35.944 40.7065 3.58783
34.409 42.1268 3.4742
35.6581 44.1235 3.65557
38.6644 48.3391 3.93989
37.527 45.9815 3.8477
40.3768 54.8177 0.0050537
38.724 53.6257 2
36.7557 52.9405 3.99656
35.365 60.887 0.0209532
36.9317 57.5892 0.0085171
37.9842 55.0867 0.00505103
34.4954 58.4883 2
36.3241 55.1469 2
33.2644 55.3536 3.99286
32.3684 59.705 0.0083893
29.4201 60.2568 0.0241209
30.3362 57.7762 2
28.8137 55.2823 3.98663
28.0614 58.3392 -0.00929622
27.0276 56.7888 2
25.4548 55.0795 3.95803
21.9628 55.2708 3.95966
25.4135 58.5559 0.0195839
23.934 56.752 2
20.2904 56.969 3.96281
20.6796 58.729 3.96828
21.4212 57.3387 2
21.1821 61.1263 3.97427
22.0212 59.5746 2
22.8098 58.1926 0.0319355
21.901 63.8199 3.9755
22.7484 61.9966 2
23.4192 60.3031 0.0214401
24.4408 62.7466 0.0229605
23.6851 64.6974 2
22.8388 66.7299 3.98019
25.55 65.4816 0.0215985
24.8092 67.5883 2
24.0113 69.8049 3.99003
26.8378 68.3268 0.0159578
26.1655 70.6035 2
25.446 73.0099 4
28.3718 71.2626 0.00975331
27.7943 73.7222 2
30.1842 74.2788 0
27.8225 8.65968 3.98013
29.1567 5.88065 3.98545
29.8115 7.99642 2
30.7275 3.09852 3.99253
31.2539 5.33242 2
31.7897 7.42338 0.0179116
32.6053 0.320823 4
32.9812 2.70112 2
33.349 4.92715 0.0116919
35.0474 0.0802903 2
35.2459 2.46346 0.00678277
37.5 0 0
39.0683 35.8914 3.60651
40.6076 35.8722 2
42.2859 35.7246 0.499311
28.545 10.7 2
26.6251 11.3989 3.97766
29.2321 12.6527 3.98096
37.5213 34.2565 3.6159
39.094 34.3128 2
40.5159 34.3456 0.382539
45.5324 31.7515 0.094405
43.0883 31.3663 0.171836
40.7386 31.5165 0.300648
39.1953 32.6209 0.488898
43.9277 29.931 2
41.6474 29.9759 2
39.3762 30.8104 2
37.5305 32.4996 2
42.0435 28.6555 3.86954
39.7239 29.2771 3.83938
37.5237 30.6327 3.69855
35.8501 32.6247 3.51738
31.9261 14.4997 3.9797
34.0995 12.9591 2
35.6956 11.7869 0.0235802
31.1902 11.9938 2
33.1014 11.2279 0.0274465
30.4859 10.0274 0.0226907
45.0236 27.8408 -0.00285444
43.5896 24.2442 -0.0283432
35.7721 14.8033 0.023197
41.29 20.9537 0.0135282
38.6692 17.6687 0.0172256
33.6106 15.8988 2
35.8409 17.5688 2
42.7791 26.66 2
38.3799 20.5045 2
40.7747 23.526 2
33.5518 17.446 3.98134
40.2097 25.9532 3.95509
38.0328 23.2834 3.99861
35.5706 20.1857 3.99548
37.5124 37.4904 3.65015
39.0872 37.4799 2
40.64 37.4536 0.348924
41.7789 52.8307 0.00155191
40.8144 49.4364 0.00542144
39.0793 39.092 0.401984
39.7274 45.6912 0.182517
37.4986 44.3675 0.301356
37.503 40.747 0.382913
35.8299 42.3778 0.485395
39.7129 51.6371 2
37.5087 39.0919 2
35.9415 40.6956 2
38.6797 48.3964 2
34.3818 42.1399 2
35.6369 44.1852 2
37.5223 46.0383 2
37.6791 50.6407 3.99597
35.9497 39.1051 3.60557
34.5297 40.6433 3.62013
33.4183 41.8337 3.48626
34.302 43.4655 3.69592
35.238 45.7101 3.83534
36.9237 47.9481 3.90463
38.7234 53.6368 0.00372972
36.7601 52.9248 2
34.4475 52.2705 3.998
34.4966 58.4922 0.00509627
36.3211 55.1579 0.00255578
33.2698 55.363 2
30.6528 53.2602 3.99301
30.3339 57.7799 0.0154893
28.8159 55.2782 2
27.0867 53.3674 3.95781
27.0244 56.7898 0.0328451
25.4582 55.0814 2
23.8088 53.3873 3.95574
20.7546 53.1142 3.9584
20.057 55.7596 3.96203
21.961 55.273 2
23.9317 56.7505 0.0408567
19.4842 57.8366 3.96416
20.2876 56.9712 2
19.7247 60.1522 3.97274
20.6781 58.7306 2
21.419 57.3373 0.0409636
20.2154 62.8345 3.97188
21.1829 61.1274 2
22.0203 59.5739 0.0235115
20.941 65.7561 3.97755
21.9009 63.8232 2
22.7473 61.9949 0.0266598
23.6856 64.6977 0.0240577
22.8377 66.7299 2
21.914 68.872 3.98935
24.8103 67.5877 0.0171962
24.0093 69.8044 2
23.1494 72.1454 4
26.167 70.6035 0.00983202
25.446 73.0099 2
27.7943 73.7221 0
25.8617 9.38872 3.97938
27.0715 6.54515 3.984
27.8209 8.65764 2
28.49 3.64453 3.99162
29.1558 5.87871 2
29.8126 7.99953 0.0198909
30.1841 0.720592 4
30.7262 3.09816 2
31.2545 5.33372 0.0126575
32.6053 0.320817 2
32.982 2.70176 0.00720644
35.0474 0.080333 0
37.5098 35.8901 3.63063
39.0533 35.8886 2
40.6251 35.8721 0.361956
24.782 12.0879 3.97601
23.7636 14.3856 3.97529
28.5464 10.7028 0.022911
26.6236 11.3964 2
29.2303 12.6505 2
27.2999 13.3853 3.97879
29.793 14.2133 3.9814
35.9512 34.2994 3.58774
37.5286 34.267 2
39.08 34.2962 0.414951
37.5298 32.5195 0.446088
43.8952 29.9645 0.100698
41.617 30.017 0.152707
39.3689 30.8726 0.334944
42.075 28.5985 2
39.7458 29.2221 2
37.5261 30.5735 2
35.8505 32.6116 2
39.887 27.9126 3.8812
37.4866 29.0103 3.84042
35.6848 30.8909 3.66853
34.4298 32.8765 3.4761
30.9408 16.8577 3.98653
31.9232 14.4892 2
34.0983 12.9526 0.0264643
31.1913 11.9998 0.022723
42.7477 26.6785 0.0151719
40.7831 23.5506 0.00409488
33.6146 15.9092 0.0167341
35.8475 17.5622 0.0190915
38.396 20.4374 0.00645941
33.5475 17.4592 2
35.5862 20.173 2
40.2821 25.9393 2
38.0157 23.242 2
32.8808 19.8438 3.99505
37.6543 25.5941 3.96871
35.2298 22.9364 4.00102
35.9297 37.4893 3.61452
37.5061 37.4902 2
39.0975 37.4868 0.387725
39.7281 51.6302 -0.00303659
38.6644 48.3391 0.0601149
37.507 39.0966 0.365502
37.527 45.9815 0.152297
35.6581 44.1235 0.34443
35.944 40.7065 0.412171
34.409 42.1268 0.525797
37.6644 50.6743 2
35.9656 39.0929 2
34.4994 40.6345 2
36.908 48.0076 2
33.384 41.8599 2
34.2637 43.5263 2
35.2171 45.762 2
35.5618 49.828 3.98683
34.4236 39.1 3.63698
33.0564 40.7645 3.49631
33.1086 42.4552 3.72496
33.4273 44.9517 3.83744
34.4587 47.0921 3.87692
36.7557 52.9405 0.00343837
34.4429 52.2816 2
32.2174 51.0618 4.01248
33.2644 55.3536 0.00714418
30.6564 53.2631 2
28.6801 51.48 3.98782
28.8137 55.2823 0.0133748
27.0886 53.3665 2
25.3803 51.6265 3.9537
25.4548 55.0795 0.0419657
23.8091 53.3923 2
22.3176 51.6791 3.9513
19.5997 51.507 3.9611
19.145 54.2158 3.96124
20.7558 53.1134 2
18.5349 56.6607 3.96333
20.0544 55.7615 2
21.9628 55.2708 0.0403415
18.3922 59.0648 3.96657
19.4817 57.8382 2
20.2904 56.969 0.0371909
18.6301 61.7228 3.97187
19.7248 60.1546 2
20.6796 58.729 0.0317219
19.1302 64.6664 3.97663
20.2158 62.8371 2
21.1821 61.1263 0.0257321
19.8882 67.8083 3.9874
20.9396 65.7553 2
21.901 63.8199 0.0245041
22.8388 66.7299 0.019809
21.9116 68.8708 2
20.9142 71.1327 4
24.0113 69.8049 0.00996827
23.1494 72.1455 2
25.446 73.0099 0
23.1042 12.8055 3.97728
23.975 10.1784 3.97723
25.0251 7.31605 3.98275
25.8598 9.38706 2
26.2819 4.32866 3.99072
27.0701 6.54389 2
27.8225 8.65968 0.0198711
27.7943 1.27781 4
28.4881 3.64426 2
29.1567 5.88065 0.0145485
30.1841 0.720551 2
30.7275 3.09852 0.00746535
32.6053 0.320823 0
35.937 35.8818 3.59682
37.5257 35.899 2
39.0683 35.8914 0.393488
24.7788 12.0823 2
23.764 14.3903 2
22.4962 15.0731 3.97935
25.3679 13.9289 3.97201
24.0495 15.6462 3.98481
26.6251 11.3989 0.022343
29.2321 12.6527 0.0190383
27.2998 13.3832 2
29.7886 14.2104 2
28.3766 15.983 3.98353
34.5458 34.3656 3.61639
35.9482 34.3051 2
37.5213 34.2565 0.384097
35.8501 32.6247 0.482621
37.5237 30.6327 0.301449
42.0435 28.6555 0.130464
39.7239 29.2771 0.160617
39.921 27.8704 2
37.4833 28.9533 2
35.669 30.8224 2
34.3982 32.8661 2
37.6181 27.6434 3.87723
35.284 29.2949 3.83756
34.311 31.5361 3.69534
33.4373 33.1663 3.4839
30.2273 19.4285 3.98301
30.9362 16.8465 2
31.9261 14.4997 0.020303
40.2097 25.9532 0.044914
38.0328 23.2834 0.00138544
33.5518 17.446 0.0186598
35.5706 20.1857 0.00451901
32.8796 19.867 2
35.2324 22.9203 2
37.7136 25.57 2
32.406 22.5788 3.99766
35.1051 25.5115 3.99092
34.378 37.5078 3.65385
35.9314 37.4966 2
37.5124 37.4904 0.34985
37.6791 50.6407 0.00402906
36.9237 47.9481 0.0953681
35.9497 39.1051 0.394429
35.238 45.7101 0.164664
34.302 43.4655 0.304076
34.5297 40.6433 0.379867
33.4183 41.8337 0.513744
35.5445 49.8398 2
34.4228 39.097 2
33.0522 40.778 2
34.4441 47.1413 2
33.0665 42.5095 2
33.401 44.9952 2
33.4016 48.9078 3.97487
32.7277 39.25 3.50432
32.121 41.0374 3.68062
31.9443 43.6134 3.83326
32.6206 46.0745 3.87952
34.4475 52.2705 0.00200049
32.2234 51.0737 2
30.2095 49.6379 4.0016
30.6528 53.2602 0.0069898
28.6813 51.4738 2
26.8869 49.8487 3.97231
27.0867 53.3674 0.0421856
25.3799 51.6283 2
23.7621 50.0372 3.96205
23.8088 53.3873 0.0442614
22.3179 51.6772 2
20.9218 50.1681 3.96457
18.3901 50.2073 3.96946
18.1591 52.683 3.96361
19.5987 51.5061 2
17.6103 55.2616 3.96229
19.1428 54.2157 2
20.7546 53.1142 0.0416023
17.1818 57.8246 3.96098
18.5305 56.6622 2
20.057 55.7596 0.0379656
17.1478 60.507 3.96695
18.3916 59.066 2
19.4842 57.8366 0.0358422
17.4125 63.4501 3.96986
18.6308 61.7243 2
19.7247 60.1522 0.0272561
17.9445 66.6158 3.98582
19.1294 64.6641 2
20.2154 62.8345 0.02812
18.75 69.9759 4
19.8859 67.8062 2
20.941 65.7561 0.0224493
21.914 68.872 0.0106479
20.9142 71.1327 2
23.1494 72.1454 0
21.5989 13.6327 3.97507
22.1946 11.0416 3.97375
23.102 12.8105 2
23.0428 8.18285 3.98063
23.9721 10.1762 2
24.1195 5.14346 3.99003
25.0233 7.31519 2
25.8617 9.38872 0.0206199
25.446 1.99014 4
26.2795 4.32899 2
27.0715 6.54515 0.015998
27.7943 1.27778 2
28.49 3.64453 0.0083806
30.1841 0.720592 0
34.4424 35.9107 3.63448
35.9471 35.8973 2
37.5098 35.8901 0.369372
21.3304 15.8805 3.98201
24.782 12.0879 0.0239926
23.7636 14.3856 0.0247077
25.3671 13.9186 2
22.4977 15.0691 2
24.053 15.6525 2
23.2972 16.2805 3.96974
25.4061 16.1163 3.9832
27.2999 13.3853 0.0212085
29.793 14.2133 0.0186034
28.3719 15.9901 2
27.4696 18.8492 3.98262
33.0684 34.243 3.5035
34.5153 34.3799 2
35.9512 34.2994 0.412257
34.4298 32.8765 0.523897
35.6848 30.8909 0.331475
37.4866 29.0103 0.159576
39.887 27.9126 0.118801
37.5918 27.6047 2
33.4065 33.1427 2
35.2846 29.2318 2
34.2698 31.4706 2
35.1842 27.7423 3.89162
33.4259 30.0422 3.83883
33.1339 32.5426 3.72057
29.7184 22.0292 4.00499
30.2295 19.4324 2
30.9408 16.8577 0.0134654
37.6543 25.5941 0.0312868
35.2298 22.9364 -0.00102249
32.8808 19.8438 0.0049471
32.4131 22.5709 2
35.136 25.5008 2
31.9761 25.8396 4.00622
32.5592 37.5064 3.54828
34.3902 37.5027 2
35.9297 37.4893 0.385483
35.5618 49.828 0.0131743
34.4587 47.0921 0.123079
34.4236 39.1 0.363023
33.4273 44.9517 0.162556
33.1086 42.4552 0.275042
33.0564 40.7645 0.503694
33.3891 48.9086 2
32.7369 39.256 2
32.0815 41.078 2
32.586 46.1232 2
31.8986 43.6454 2
31.5534 47.7554 3.97963
31.4171 39.3664 3.68495
30.806 41.8598 3.84208
31.0041 44.7102 3.89244
32.2174 51.0618 -0.0124779
30.2155 49.6657 2
28.3561 48.0238 3.96316
28.6801 51.48 0.0121775
26.8861 49.8498 2
25.1626 48.2941 3.9664
25.3803 51.6265 0.0463021
23.7631 50.0359 2
22.2024 48.6173 3.97094
22.3176 51.6791 0.0486987
20.9202 50.1672 2
19.5019 48.9524 3.97337
17.2693 49.2205 3.97461
17.1074 51.3022 3.96843
18.3926 50.2058 2
16.6176 53.7849 3.96497
18.1577 52.6825 2
19.5997 51.507 0.0388958
16.0736 56.4191 3.96241
17.6087 55.2622 2
19.145 54.2158 0.0387616
15.7637 59.1765 3.96485
17.1782 57.8265 2
18.5349 56.6607 0.0366722
15.7935 62.1057 3.96837
17.1486 60.5092 2
18.3922 59.0648 0.0334266
16.0914 65.2985 3.98393
17.4112 63.4559 2
18.6301 61.7228 0.0281346
16.6661 68.6801 4
17.942 66.6138 2
19.1302 64.6664 0.0233654
18.75 69.9759 2
19.8882 67.8083 0.0126002
20.9142 71.1327 0
20.2334 14.6445 3.96918
21.5973 13.6439 2
20.5357 12.02 3.97473
21.1461 9.15518 3.97855
22.1915 11.0404 2
23.1042 12.8055 0.022725
22.0187 6.0823 3.98963
23.0403 8.18175 2
23.975 10.1784 0.0227681
23.1494 2.85457 4
24.1166 5.1443 2
25.0251 7.31605 0.0172493
25.446 1.99012 2
26.2819 4.32866 0.00927601
27.7943 1.27781 0
32.719 35.7668 3.51181
34.4345 35.9112 2
35.937 35.8818 0.403185
21.3331 15.8736 2
20.3416 17.0079 3.96969
22.1295 16.6787 3.96748
25.3679 13.9289 0.0279863
22.4962 15.0731 0.0206489
24.0495 15.6462 0.0151888
25.409 16.1074 2
23.3013 16.2784 2
24.2462 18.5499 3.96803
27.1524 21.6368 3.99441
28.3766 15.983 0.0164667
27.4654 18.8971 2
32.159 33.9701 3.67562
33.0676 34.2256 2
34.5458 34.3656 0.383614
33.4373 33.1663 0.5161
34.311 31.5361 0.304655
35.284 29.2949 0.162442
37.6181 27.6434 0.122773
35.187 27.6929 2
33.0598 32.4913 2
33.3969 30.0028 2
32.8709 28.3947 3.9009
31.9538 31.3898 3.82438
29.1038 24.5235 4.00115
29.715 22.0436 2
30.2273 19.4285 0.0169858
35.1051 25.5115 0.00908187
32.406 22.5788 0.00233996
31.9678 25.8121 2
30.0861 27.4906 3.97825
31.0021 37.4989 3.6899
32.565 37.5053 2
34.378 37.5078 0.34615
33.4016 48.9078 0.0251344
32.6206 46.0745 0.120478
32.7277 39.25 0.495681
31.9443 43.6134 0.166736
32.121 41.0374 0.319379
31.5064 47.7786 2
31.3438 39.3904 2
30.7669 41.8886 2
30.9596 44.7497 2
29.7747 46.3642 3.99222
29.9584 39.8142 3.85775
29.49 42.9714 3.89985
30.2095 49.6379 -0.00160213
28.351 48.0202 2
26.5686 46.4642 3.98268
26.8869 49.8487 0.0276859
25.1635 48.2923 2
23.4461 46.8825 3.9738
23.7621 50.0372 0.0379492
22.201 48.6175 2
20.5025 47.4624 3.97657
20.9218 50.1681 0.0354252
19.5025 48.9509 2
18.0983 48.0544 3.97698
16.5024 48.5805 3.97656
17.2707 49.2193 2
16.1764 50.0732 3.97276
15.6307 52.3315 3.96833
17.1091 51.3012 2
18.3901 50.2073 0.0305439
15.0214 54.9137 3.96372
16.6193 53.7844 2
18.1591 52.683 0.0363913
14.4898 57.7078 3.96214
16.0739 56.4195 2
17.6103 55.2616 0.0377072
14.2713 60.67 3.96809
15.7658 59.1775 2
17.1818 57.8246 0.0390163
14.3361 63.8555 3.9796
15.794 62.108 2
17.1478 60.507 0.0330507
14.6715 67.2507 4
16.0886 65.2951 2
17.4125 63.4501 0.030138
16.6661 68.6801 2
17.9445 66.6158 0.0141771
18.75 69.9759 0
18.953 15.8275 3.97613
20.2345 14.6414 2
18.9889 13.1418 3.97399
21.5989 13.6327 0.0249291
20.5341 12.0224 2
19.3463 10.2457 3.97627
19.9937 7.14737 3.9881
21.1428 9.15487 2
22.1946 11.0416 0.026252
20.9142 3.86727 4
22.0151 6.08363 2
23.0428 8.18285 0.019371
23.1494 2.85451 2
24.1195 5.14346 0.00997107
25.446 1.99014 0
31.4411 35.6399 3.68078
32.7241 35.7593 2
34.4424 35.9107 0.365523
21.3304 15.8805 0.0179863
22.1324 16.6721 2
20.3438 17.0027 2
19.3292 18.4715 3.95654
21.8221 17.9293 3.97892
25.4061 16.1163 0.0168003
23.2972 16.2805 0.0302574
24.238 18.5731 2
22.4085 19.9949 3.96823
24.7343 21.5099 3.98618
26.7221 23.8099 3.98029
27.1621 21.5638 2
27.4696 18.8492 0.0173818
30.8614 33.1533 3.84923
32.12 33.9192 2
33.0684 34.243 0.496495
33.1339 32.5426 0.279427
33.4259 30.0422 0.161172
35.1842 27.7423 0.108383
32.8314 28.3647 2
31.8973 31.3493 2
30.6948 29.781 3.92777
28.3492 26.6789 3.99657
29.0889 24.5299 2
29.7184 22.0292 -0.00498884
31.9761 25.8396 -0.00622063
30.0784 27.4679 2
29.5093 37.4982 3.85342
30.9424 37.4974 2
32.5592 37.5064 0.451722
31.5534 47.7554 0.0203745
31.0041 44.7102 0.107557
31.4171 39.3664 0.31505
30.806 41.8598 0.157922
29.7793 46.3633 2
29.8869 39.8273 2
29.4591 43.0074 2
28.0383 44.6899 3.97055
27.7185 40.5399 3.93362
28.3561 48.0238 0.0368409
26.5663 46.4621 2
24.7493 44.9977 3.97864
25.1626 48.2941 0.033604
23.4444 46.8821 2
21.5226 45.7375 3.97782
22.2024 48.6173 0.0290591
20.5027 47.4614 2
18.8259 46.6044 3.97679
19.5019 48.9524 0.0266317
18.099 48.0531 2
16.7378 47.6036 3.97651
16.5039 48.5795 2
15.5215 48.9244 3.97566
17.2693 49.2205 0.0253871
16.1784 50.0721 2
14.7456 50.907 3.9717
13.9948 53.3741 3.96633
15.6321 52.3309 2
17.1074 51.3022 0.031572
13.3175 56.1339 3.96225
15.0218 54.9137 2
16.6176 53.7849 0.0350285
12.8571 59.109 3.96675
14.4935 57.7075 2
16.0736 56.4191 0.0375869
12.682 62.2972 3.97668
14.2728 60.6701 2
15.7637 59.1765 0.0351532
12.7746 65.6939 4
14.3337 63.8517 2
15.7935 62.1057 0.0316317
14.6714 67.2507 2
16.0914 65.2985 0.0160652
16.6661 68.6801 0
17.7084 17.2038 3.96389
18.9531 15.8252 2
17.5247 14.4118 3.96956
20.2334 14.6445 0.0308153
18.988 13.1459 2
17.6427 11.4655 3.97354
20.5357 12.02 0.0252691
19.3429 10.2469 2
18.0539 8.34043 3.98604
18.75 5.0241 4
19.9893 7.1496 2
21.1461 9.15518 0.0214521
20.9142 3.86727 2
22.0187 6.0823 0.0103723
23.1494 2.85457 0
29.9866 35.1999 3.85647
31.3711 35.6163 2
32.719 35.7668 0.488194
22.1295 16.6787 0.0325157
20.3416 17.0079 0.0303123
21.821 17.9287 2
19.325 18.4658 2
18.1585 20.0255 3.96168
20.9912 19.4661 3.96606
24.2462 18.5499 0.0319728
22.402 20.0022 2
24.7427 21.4927 2
22.573 21.8397 3.9817
24.996 23.249 3.97263
25.9511 26.056 3.97892
26.72 23.8026 2
27.1524 21.6368 0.00558873
29.2509 32.4997 3.90044
30.7973 33.118 2
32.159 33.9701 0.324379
31.9538 31.3898 0.175625
32.8709 28.3947 0.0990977
30.6724 29.7707 2
27.6979 29.2581 4.01477
28.3357 26.6893 2
29.1038 24.5235 -0.00114703
30.0861 27.4906 0.0217503
27.8531 37.3595 3.90372
29.4379 37.4901 2
31.0021 37.4989 0.310095
29.7747 46.3642 0.00777924
29.49 42.9714 0.100152
29.9584 39.8142 0.142252
28.0325 44.7464 2
27.6882 40.534 2
26.1187 43.0402 3.98877
24.9846 39.4445 3.97242
26.5686 46.4642 0.0173217
24.7389 44.9999 2
22.6602 43.7774 3.9767
23.4461 46.8825 0.0261989
21.5193 45.7388 2
19.5884 44.8423 3.97645
20.5025 47.4624 0.0234341
18.8259 46.6048 2
17.0919 46.1011 3.9764
18.0983 48.0544 0.0230197
16.7391 47.6028 2
15.2844 47.5783 3.97625
16.5024 48.5805 0.0234412
15.5234 48.9234 2
14.0547 49.4731 3.97413
16.1764 50.0732 0.0272386
14.7469 50.9063 2
13.0659 51.8187 3.96861
12.2222 54.4943 3.96357
13.9955 53.3737 2
15.6307 52.3315 0.0316722
11.5438 57.4468 3.9658
13.3179 56.1339 2
15.0214 54.9137 0.0362794
11.1369 60.6229 3.9745
12.8589 59.1085 2
14.4898 57.7078 0.0378612
10.9835 64.0165 4
12.6802 62.2926 2
14.2713 60.67 0.0319147
12.7745 65.694 2
14.3361 63.8555 0.020398
14.6715 67.2507 0
16.5051 18.7108 3.96159
17.708 17.2017 2
16.1194 15.8188 3.96662
18.953 15.8275 0.0238653
17.5239 14.4084 2
16.0266 12.8331 3.97169
18.9889 13.1418 0.0260066
17.6408 11.4706 2
16.2048 9.66457 3.98388
19.3463 10.2457 0.0237264
18.0492 8.34447 2
16.6661 6.31991 4
18.75 5.02404 2
19.9937 7.14737 0.0118972
20.9142 3.86727 0
28.3801 34.8436 3.90039
29.9068 35.1677 2
31.4411 35.6399 0.319217
16.8923 21.4616 3.96705
21.8221 17.9293 0.0210819
19.3292 18.4715 0.0434555
20.9856 19.4627 2
18.1558 20.0227 2
19.9693 21.6787 3.97104
22.4085 19.9949 0.0317689
24.7343 21.5099 0.0138241
22.5683 21.8459 2
24.9901 23.2502 2
23.2684 24.7198 3.97208
25.2466 28.6552 3.98355
25.9436 26.06 2
26.7221 23.8099 0.0197092
27.1034 31.8574 3.98235
29.2164 32.479 2
30.8614 33.1533 0.150772
30.6948 29.781 0.072229
27.7097 29.2373 2
28.3492 26.6789 0.00342644
25.6786 36.8514 3.97004
27.8355 37.3651 2
29.5093 37.4982 0.146581
28.0383 44.6899 0.0294534
27.7185 40.5399 0.0663786
26.0961 43.0613 2
24.9615 39.4489 2
23.8697 41.7894 3.9824
22.7046 38.5231 3.97904
24.7493 44.9977 0.0213647
22.6582 43.7773 2
20.463 42.7918 3.97554
21.5226 45.7375 0.0221786
19.5887 44.8429 2
17.4971 44.28 3.97584
18.8259 46.6044 0.0232122
17.0927 46.1012 2
15.2452 46.0009 3.97599
16.7378 47.6036 0.0234862
15.286 47.5774 2
13.584 47.9388 3.9756
15.5215 48.9244 0.0243405
14.0563 49.4724 2
12.2964 50.2013 3.97055
14.7456 50.907 0.0283004
13.0668 51.8181 2
11.2199 52.8074 3.96498
10.335 55.7036 3.9653
12.2226 54.494 2
13.9948 53.3741 0.0336686
9.7037 58.846 3.97415
11.5448 57.4463 2
13.3175 56.1339 0.0377528
9.30605 62.2254 4
11.1355 60.6187 2
12.8571 59.109 0.0332505
10.9835 64.0165 2
12.682 62.2972 0.0233247
12.7746 65.6939 0
15.2916 20.2496 3.96353
16.5048 18.7102 2
14.7767 17.3392 3.96358
17.7084 17.2038 0.0361137
16.1207 15.8172 2
14.4901 14.3202 3.96745
17.5247 14.4118 0.0304366
16.0257 12.8288 2
14.4473 11.1165 3.98148
17.6427 11.4655 0.0264573
16.2007 9.67003 2
14.6715 7.74927 4
18.0539 8.34043 0.0139567
16.6661 6.31988 2
18.75 5.0241 0
26.3407 34.3505 3.97658
28.3623 34.8512 2
29.9866 35.1999 0.143533
18.1406 22.4249 3.97389
15.7932 23.0058 3.97055
16.8938 21.4611 2
20.9912 19.4661 0.0339444
18.1585 20.0255 0.0383166
19.9672 21.6766 2
20.0802 24.5157 3.97207
22.573 21.8397 0.0182996
24.996 23.249 0.0273699
23.2649 24.7211 2
22.6099 27.9828 3.97169
24.6683 31.3446 3.98175
25.2517 28.648 2
25.9511 26.056 0.0210816
27.0788 31.8201 2
29.2509 32.4997 0.0995556
27.6979 29.2581 -0.0147736
23.4318 36.2905 3.98315
25.6612 36.8501 2
27.8531 37.3595 0.0962833
26.1187 43.0402 0.0112308
24.9846 39.4445 0.0275794
23.8503 41.7884 2
22.6928 38.5204 2
21.5574 40.6079 3.97495
20.9142 37.8028 3.97717
22.6602 43.7774 0.023297
20.4618 42.7928 2
17.9745 42.0277 3.97577
19.5884 44.8423 0.0235532
17.4972 44.2805 2
15.2937 44.1202 3.97569
17.0919 46.1011 0.0236022
15.246 46.0007 2
13.2822 46.2285 3.97579
15.2844 47.5783 0.0237549
13.5856 47.938 2
11.6862 48.5016 3.97234
14.0547 49.4731 0.025874
12.2978 50.2006 2
10.351 51.054 3.96616
13.0659 51.8187 0.0313864
11.2207 52.8068 2
9.24387 53.8851 3.965
8.38732 56.98 3.97499
10.3361 55.7028 2
12.2222 54.4943 0.0364264
7.74927 60.3285 4
9.70259 58.8417 2
11.5438 57.4468 0.0342001
9.306 62.2255 2
11.1369 60.6229 0.0254993
10.9835 64.0165 0
14.1237 21.8132 3.96673
15.2895 20.2487 2
13.5023 18.9361 3.96328
16.5051 18.7108 0.0384102
14.7779 17.338 2
13.0348 15.9066 3.96973
16.1194 15.8188 0.0333802
14.491 14.3184 2
12.7851 12.6921 3.97854
16.0266 12.8331 0.0283102
14.4444 11.1231 2
12.7746 9.30605 4
16.2048 9.66457 0.0161165
14.6715 7.74924 2
16.6661 6.31991 0
24.0153 33.8798 3.98166
26.3201 34.3468 2
28.3801 34.8436 0.0996089
18.0118 24.1572 3.97219
18.1477 22.4251 2
14.6299 24.5363 3.97265
15.7955 23.0057 2
16.8923 21.4616 0.0329521
19.6017 27.3529 3.97425
19.9693 21.6787 0.0289591
20.0761 24.515 2
21.9785 30.8136 3.97471
23.2684 24.7198 0.0279168
22.6096 27.9847 2
24.6371 31.3402 2
25.2466 28.6552 0.016447
27.1034 31.8574 0.0176542
21.038 35.9658 3.97643
23.4321 36.2911 2
25.6786 36.8514 0.029961
23.8697 41.7894 0.0176044
22.7046 38.5231 0.020965
21.5611 40.6093 2
20.9147 37.8008 2
18.7325 38.9899 3.977
20.463 42.7918 0.0244633
17.9736 42.028 2
15.2794 41.8671 3.97613
17.4971 44.28 0.0241587
15.2935 44.1203 2
13.0476 44.3327 3.97598
15.2452 46.0009 0.0240083
13.2837 46.2278 2
11.2016 46.6903 3.97419
13.584 47.9388 0.0243959
11.6881 48.5008 2
9.62165 49.2161 3.96713
12.2964 50.2013 0.0294475
10.3514 51.0533 2
8.27652 51.9996 3.96477
11.2199 52.8074 0.0350198
9.24499 53.8839 2
7.19636 55.0317 3.97611
6.31991 58.3339 4
8.38647 56.9761 2
10.335 55.7036 0.0347014
7.74924 60.3285 2
9.7037 58.846 0.0258479
9.30605 62.2254 0
13.4962 25.4328 3.97564
13.0258 23.3407 3.96976
14.1224 21.8127 2
12.3123 20.584 3.96389
15.2916 20.2496 0.0364677
13.5032 18.9352 2
11.6674 17.5805 3.96787
14.7767 17.3392 0.0364184
13.0376 15.906 2
11.2233 14.3781 3.97484
14.4901 14.3202 0.0325506
12.7827 12.6975 2
10.9835 10.9835 4
14.4473 11.1165 0.0185181
12.7745 9.306 2
14.6715 7.74927 0
21.3893 33.4893 3.9762
24.0185 33.8664 2
26.3407 34.3505 0.0234226
16.3433 26.5114 3.97385
18.0158 24.1575 2
18.1406 22.4249 0.026108
14.6294 24.5364 2
15.7932 23.0058 0.029449
19.0031 30.3105 3.97475
19.6019 27.3531 2
20.0802 24.5157 0.0279266
21.9942 30.8143 2
22.6099 27.9828 0.0283067
24.6683 31.3446 0.0182487
18.341 35.997 3.97756
21.04 35.966 2
23.4318 36.2905 0.0168467
21.5574 40.6079 0.0250491
20.9142 37.8028 0.0228296
18.7306 38.989 2
14.7765 39.1616 3.97702
17.9745 42.0277 0.0242292
15.2787 41.8668 2
12.7444 42.2374 3.97648
15.2937 44.1202 0.0243071
13.0487 44.3323 2
10.7875 44.7655 3.97586
13.2822 46.2285 0.0242126
11.2038 46.6895 2
9.00793 47.298 3.96828
11.6862 48.5016 0.027661
9.62226 49.2154 2
7.44274 50.0335 3.96483
10.351 51.054 0.0338422
8.27688 51.9985 2
6.13695 53.0073 3.97639
9.24387 53.8851 0.0350037
7.19578 55.0285 2
5.0241 56.25 4
6.31988 58.3339 2
8.38732 56.98 0.0250092
7.74927 60.3285 0
13.7742 26.8891 3.97557
12.1366 24.8408 3.97236
13.4951 25.4328 2
11.2392 22.2674 3.96557
13.0265 23.3409 2
14.1237 21.8132 0.0332699
12.3133 20.5835 2
10.4001 19.3292 3.96657
13.5023 18.9361 0.0367229
11.6699 17.5804 2
9.76392 16.1612 3.97439
13.0348 15.9066 0.0302656
11.2217 14.3837 2
9.30607 12.7746 4
12.7851 12.6921 0.021462
10.9835 10.9835 2
12.7746 9.30605 0
18.4998 33.1849 3.97623
21.3886 33.4926 2
24.0153 33.8798 0.0183448
15.9654 29.7426 3.97559
16.3426 26.5116 2
18.0118 24.1572 0.027811
14.6299 24.5363 0.0273522
19.0016 30.3106 2
19.6017 27.3529 0.0257466
21.9785 30.8136 0.0252871
15.4088 36.0364 3.97721
18.3401 35.9976 2
21.038 35.9658 0.0235746
12.9744 37.8293 3.97708
18.7325 38.9899 0.0229972
14.7759 39.1615 2
12.246 40.1204 3.97679
15.2794 41.8671 0.0238666
12.7451 42.237 2
10.3894 42.7502 3.97653
13.0476 44.3327 0.0240189
10.7897 44.7647 2
8.48678 45.3035 3.96897
11.2016 46.6903 0.0258117
9.00835 47.2974 2
6.73353 47.9988 3.96499
9.62165 49.2161 0.032873
7.44313 50.0324 2
5.2136 50.9108 3.97624
8.27652 51.9996 0.0352278
6.13678 53.0051 2
3.86727 54.0858 4
7.19636 55.0317 0.0238889
5.02404 56.25 2
6.31991 58.3339 0
13.2578 29.1012 3.97517
11.5837 26.5366 3.97318
13.7732 26.8891 2
10.2959 23.9953 3.96733
12.1385 24.8413 2
13.4962 25.4328 0.0243587
9.25306 21.1432 3.96566
11.2406 22.2675 2
13.0258 23.3407 0.0302378
12.3123 20.584 0.0361054
10.4023 19.3293 2
8.41996 18.0318 3.97452
11.6674 17.5805 0.0321296
9.7629 16.1664 2
7.74928 14.6715 4
11.2233 14.3781 0.0251556
9.30602 12.7745 2
10.9835 10.9835 0
14.9544 32.9202 3.97646
18.4985 33.1842 2
21.3893 33.4893 0.0237967
15.9663 29.7429 2
16.3433 26.5114 0.0261486
19.0031 30.3105 0.025248
13.2738 36.2214 3.97677
15.4079 36.0363 2
18.341 35.997 0.0224416
12.9746 37.8291 2
11.5754 38.3055 3.97715
14.7765 39.1616 0.0229834
12.2473 40.1202 2
9.96881 40.7376 3.9769
12.7444 42.2374 0.0235155
10.3929 42.7493 2
8.03391 43.2567 3.96952
10.7875 44.7655 0.0241368
8.48872 45.3029 2
6.13913 45.904 3.96539
9.00793 47.298 0.0317219
6.73392 47.9979 2
4.4249 48.7514 3.97582
7.44274 50.0335 0.0351744
5.21361 50.9094 2
2.85457 51.8506 4
6.13695 53.0073 0.0236086
3.86727 54.0858 2
5.0241 56.25 0
12.3884 31.3048 3.97605
10.996 28.4566 3.97432
13.2582 29.1016 2
9.51271 25.8219 3.96809
11.5854 26.5371 2
13.7742 26.8891 0.0244319
8.24026 23.0256 3.96535
10.2966 23.9956 2
12.1366 24.8408 0.0276436
7.20232 19.9802 3.97587
9.25785 21.1444 2
11.2392 22.2674 0.0344274
10.4001 19.3292 0.0334287
8.4195 18.0361 2
6.31992 16.6661 4
9.76392 16.1612 0.0256121
7.74926 14.6714 2
9.30607 12.7746 0
12.4271 34.3227 3.97648
14.954 32.9209 2
18.4998 33.1849 0.0237702
15.9654 29.7426 0.0244121
11.1129 36.6188 3.97687
13.2737 36.2214 2
15.4088 36.0364 0.0227884
12.9744 37.8293 0.0229167
11.5772 38.305 2
9.5502 38.8173 3.97699
12.246 40.1204 0.0232083
9.9719 40.737 2
7.64036 41.2029 3.97024
10.3894 42.7502 0.0234674
8.03419 43.2563 2
5.65035 43.7671 3.9661
8.48678 45.3035 0.0310292
6.13943 45.9032 2
3.77026 46.5369 3.97585
6.73353 47.9988 0.035013
4.42518 48.7506 2
1.99014 49.554 4
5.2136 50.9108 0.0237558
2.85451 51.8506 2
3.86727 54.0858 0
11.2017 32.9515 3.97663
10.3006 30.4147 3.97517
12.3893 31.3054 2
8.82124 27.7522 3.96858
10.998 28.4572 2
13.2578 29.1012 0.0248275
7.36395 24.9834 3.96516
9.51324 25.8222 2
11.5837 26.5366 0.0268177
6.11918 22.0025 3.97662
8.24163 23.0265 2
10.2959 23.9953 0.0326712
5.02411 18.75 4
7.20186 19.9834 2
9.25306 21.1432 0.0343422
8.41996 18.0318 0.0254799
6.3199 16.6661 2
7.74928 14.6715 0
10.7009 35.0154 3.97671
12.4272 34.323 2
14.9544 32.9202 0.0235409
9.20868 36.9872 3.97693
11.1149 36.6189 2
13.2738 36.2214 0.0232305
11.5754 38.3055 0.0228546
9.55345 38.8172 2
7.31513 39.1783 3.97066
9.96881 40.7376 0.0231036
7.64151 41.2025 2
5.26515 41.6131 3.96652
8.03391 43.2567 0.0304843
5.65066 43.7665 2
3.2477 44.2816 3.97646
6.13913 45.904 0.0346115
3.77061 46.5362 2
1.27781 47.2057 4
4.4249 48.7514 0.0241763
1.99012 49.554 2
2.85457 51.8506 0
10.3362 33.9023 3.97653
9.57937 32.1776 3.97594
11.2039 32.952 2
8.16263 29.7113 3.96912
10.3031 30.4153 2
12.3884 31.3048 0.0239522
6.60675 27.0092 3.96531
8.822 27.7525 2
10.996 28.4566 0.0256788
5.17442 24.0948 3.9765
7.36433 24.9841 2
9.51271 25.8219 0.0319095
3.86728 20.9142 4
6.11919 22.0045 2
8.24026 23.0256 0.0346474
5.02406 18.75 2
7.20232 19.9802 0.024129
6.31992 16.6661 0
9.02335 35.2886 3.9771
10.7031 35.0156 2
12.4271 34.3227 0.02352
7.0911 37.2063 3.97063
9.21189 36.9873 2
11.1129 36.6188 0.0231279
9.5502 38.8173 0.0230112
7.31673 39.1781 2
4.99245 39.467 3.96702
7.64036 41.2029 0.0297551
5.26586 41.6127 2
2.85798 42.0018 3.97679
5.65035 43.7671 0.0338969
3.24792 44.2811 2
0.720592 44.8159 4
3.77026 46.5369 0.0241527
1.27778 47.2057 2
1.99014 49.554 0
9.06366 33.7132 3.97684
10.3392 33.9026 2
7.59252 31.6206 3.96973
9.58231 32.1781 2
11.2017 32.9515 0.0233735
5.95116 29.0704 3.96576
8.16326 29.7117 2
10.3006 30.4147 0.0248328
4.3618 26.2473 3.97624
6.60711 27.0099 2
8.82124 27.7522 0.03142
2.85458 23.1494 4
5.17464 24.0957 2
7.36395 24.9834 0.0348369
3.86728 20.9142 2
6.11918 22.0025 0.0233772
5.02411 18.75 0
7.03847 35.3101 3.97041
9.02679 35.2888 2
10.7009 35.0154 0.0232937
4.84256 37.3399 3.96734
7.09312 37.2062 2
9.20868 36.9872 0.0230684
7.31513 39.1783 0.0293435
4.99315 39.4668 2
2.60589 39.7135 3.9771
5.26515 41.6131 0.0334808
2.85852 42.0016 2
0.320823 42.3947 4
3.2477 44.2816 0.0235421
0.720551 44.8159 2
1.27781 47.2057 0
7.20184 33.4685 3.97008
9.06696 33.7136 2
10.3362 33.9023 0.0234682
5.42137 31.1344 3.96649
7.59364 31.6209 2
9.57937 32.1776 0.0240638
3.68318 28.4434 3.97627
5.95153 29.071 2
8.16263 29.7113 0.0308784
1.99015 25.446 4
4.36208 26.2477 2
6.60675 27.0092 0.0346855
2.85453 23.1494 2
5.17442 24.0948 0.0234999
3.86728 20.9142 0
4.85687 35.2521 3.9672
7.03973 35.3101 2
9.02335 35.2886 0.0228995
2.49733 37.4282 3.97792
4.84274 37.34 2
7.0911 37.2063 0.0293742
4.99245 39.467 0.0329811
2.60655 39.7138 2
0.080333 39.9526 4
2.85798 42.0018 0.0232076
0.320817 42.3947 2
0.720592 44.8159 0
5.05035 33.1909 3.96699
7.20318 33.4687 2
9.06366 33.7132 0.0231565
3.14722 30.6662 3.97676
5.42172 31.135 2
7.59252 31.6206 0.0302709
1.27793 27.7943 4
3.6836 28.4438 2
5.95116 29.0704 0.0342376
1.99013 25.446 2
4.3618 26.2473 0.0237554
2.85458 23.1494 0
2.54943 35.1589 3.97763
4.85767 35.2524 2
7.03847 35.3101 0.0295893
0 37.5 4
2.49749 37.4286 2
4.84256 37.3399 0.0326591
2.60589 39.7135 0.0228993
0.0802903 39.9526 2
0.320823 42.3947 0
2.76711 32.9057 3.97768
5.05066 33.1914 2
7.20184 33.4685 0.0299175
0.721173 30.1842 4
3.14765 30.6667 2
5.42137 31.1344 0.0335071
1.27779 27.7943 2
3.68318 28.4434 0.023731
1.99015 25.446 0
0.0806499 35.0474 4
2.55017 35.1594 2
4.85687 35.2521 0.0327978
0 37.5 2
2.49733 37.4282 0.0220809
0.080333 39.9526 0
0.32156 32.6054 4
2.76734 32.9064 2
5.05035 33.1909 0.033014
0.72056 30.1841 2
3.14722 30.6662 0.0232404
1.27793 27.7943 0
0.0802889 35.0474 2
2.54943 35.1589 0.0223743
0 37.5 0
0.320817 32.6053 2
2.76711 32.9057 0.0223227
0.721173 30.1842 0
0.0806499 35.0474 0
0.32156 32.6054 0
CELLS 1910 17190
8 18 6 25 56 2 0 5 16
8 57 23 6 18 17 4 0 2
8 78 36 9 29 31 11 1 7
8 31 11 1 7 79 37 10 30
8 110 57 18 50 48 17 2 14
8 50 18 56 111 14 2 16 49
8 116 62 22 55 52 20 3 15
8 56 25 67 118 16 5 24 53
8 119 63 23 57 54 21 4 17
8 55 22 63 119 15 3 21 54
8 58 26 68 121 18 6 25 56
8 122 65 26 58 57 23 6 18
8 73 31 7 27 142 79 30 71
8 143 78 29 72 73 31 7 27
8 83 147 76 34 32 74 28 8
8 84 148 78 36 33 75 29 9
8 76 34 8 28 148 84 33 75
8 37 79 150 86 10 30 77 35
8 151 87 36 78 80 38 11 31
8 80 38 11 31 152 88 37 79
8 175 100 42 94 96 44 12 40
8 44 96 176 101 12 40 95 43
8 101 176 98 46 43 95 41 13
8 46 98 178 103 13 41 97 45
8 178 103 45 97 147 83 32 74
8 189 116 55 109 106 52 15 47
8 111 56 118 191 49 16 53 107
8 192 119 57 110 108 54 17 48
8 109 55 119 192 47 15 54 108
8 194 122 58 112 110 57 18 50
8 112 58 121 195 50 18 56 111
8 115 61 19 51 197 124 59 113
8 115 61 125 198 51 19 60 114
8 198 125 62 116 114 60 20 52
8 200 127 64 120 116 62 22 55
8 118 67 132 202 53 24 66 117
8 121 68 133 203 56 25 67 118
8 120 64 128 204 55 22 63 119
8 204 128 65 122 119 63 23 57
8 206 134 68 121 123 69 26 58
8 123 69 26 58 207 131 65 122
8 226 147 74 138 140 76 28 70
8 229 148 75 139 143 78 29 72
8 140 76 28 70 229 148 75 139
8 142 79 30 71 231 150 77 141
8 144 80 31 73 232 152 79 142
8 233 151 78 143 144 80 31 73
8 150 86 35 77 235 154 81 145
8 235 154 81 145 146 82 39 91
8 146 82 39 91 236 155 90 165
8 238 157 83 147 149 85 34 76
8 239 158 84 148 151 87 36 78
8 149 85 34 76 239 158 84 148
8 152 88 37 79 241 160 86 150
8 242 161 87 151 153 89 38 80
8 153 89 38 80 243 162 88 152
8 171 98 41 92 265 178 97 169
8 265 178 97 169 226 147 74 138
8 172 96 40 93 266 176 95 170
8 266 176 95 170 171 98 41 92
8 269 175 94 173 172 96 40 93
8 271 180 99 174 175 100 42 94
8 197 124 59 113 271 180 99 174
8 272 181 100 175 177 102 44 96
8 273 182 101 176 179 104 46 98
8 177 102 44 96 273 182 101 176
8 179 104 46 98 275 184 103 178
8 275 184 103 178 238 157 83 147
8 188 115 51 105 283 197 113 186
8 188 115 198 284 105 51 114 187
8 284 198 116 189 187 114 52 106
8 286 200 120 193 189 116 55 109
8 191 118 202 288 107 53 117 190
8 195 121 203 289 111 56 118 191
8 193 120 204 290 109 55 119 192
8 290 204 122 194 192 119 57 110
8 196 123 58 112 292 207 122 194
8 293 206 121 195 196 123 58 112
8 199 126 61 115 297 211 124 197
8 298 212 127 200 198 125 62 116
8 199 126 212 298 115 61 125 198
8 205 129 64 120 300 214 127 200
8 301 217 130 201 202 132 66 117
8 209 136 168 264 301 217 130 201
8 302 219 132 202 203 133 67 118
8 303 220 133 203 206 134 68 121
8 205 129 215 304 120 64 128 204
8 304 215 131 207 204 128 65 122
8 306 221 134 206 208 135 69 123
8 208 135 69 123 307 218 131 207
8 210 137 167 263 309 223 136 209
8 328 238 147 226 230 149 76 140
8 228 146 91 166 329 236 165 260
8 231 150 77 141 330 235 145 227
8 330 235 145 227 228 146 91 166
8 332 239 148 229 233 151 78 143
8 230 149 76 140 332 239 148 229
8 232 152 79 142 334 241 150 231
8 234 153 80 144 335 243 152 232
8 336 242 151 233 234 153 80 144
8 236 155 90 165 338 245 164 259
8 241 160 86 150 339 246 154 235
8 339 246 154 235 237 156 82 146
8 237 156 82 146 340 247 155 236
8 342 249 157 238 240 159 85 149
8 343 250 158 239 242 161 87 151
8 240 159 85 149 343 250 158 239
8 243 162 88 152 345 252 160 241
8 244 163 253 346 153 89 161 242
8 244 163 89 153 347 254 162 243
8 311 224 261 371 210 137 167 263
8 263 167 262 372 209 136 168 264
8 267 179 98 171 375 275 178 265
8 375 275 178 265 328 238 147 226
8 376 273 176 266 267 179 98 171
8 268 177 96 172 376 273 176 266
8 379 272 175 269 268 177 96 172
8 380 271 174 270 269 175 94 173
8 283 197 113 186 380 271 174 270
8 381 277 180 271 272 181 100 175
8 297 211 124 197 381 277 180 271
8 382 278 181 272 274 183 102 177
8 274 183 102 177 383 279 182 273
8 383 279 182 273 276 185 104 179
8 385 281 184 275 342 249 157 238
8 276 185 104 179 385 281 184 275
8 285 199 115 188 393 297 197 283
8 394 298 200 286 284 198 116 189
8 285 199 298 394 188 115 198 284
8 291 205 120 193 396 300 200 286
8 397 301 201 287 288 202 117 190
8 295 209 264 374 397 301 201 287
8 398 302 202 288 289 203 118 191
8 399 303 203 289 293 206 121 195
8 291 205 304 400 193 120 204 290
8 400 304 207 292 290 204 122 194
8 294 208 123 196 402 307 207 292
8 403 306 206 293 294 208 123 196
8 296 210 263 373 405 309 209 295
8 408 312 213 299 297 211 126 199
8 299 213 313 409 199 126 212 298
8 409 313 214 300 298 212 127 200
8 305 216 129 205 411 315 214 300
8 412 318 217 301 302 219 132 202
8 309 223 136 209 412 318 217 301
8 413 320 219 302 303 220 133 203
8 306 221 321 414 206 134 220 303
8 307 218 131 207 415 316 215 304
8 305 216 316 415 205 129 215 304
8 417 322 221 306 308 222 135 208
8 308 222 135 208 418 319 218 307
8 310 225 137 210 420 325 223 309
8 423 326 224 311 310 225 137 210
8 329 236 165 260 441 338 259 368
8 442 342 238 328 333 240 149 230
8 331 237 146 228 443 340 236 329
8 334 241 150 231 444 339 235 330
8 444 339 235 330 331 237 146 228
8 446 343 239 332 336 242 151 233
8 333 240 149 230 446 343 239 332
8 335 243 152 232 448 345 241 334
8 337 244 153 234 449 347 243 335
8 337 244 346 450 234 153 242 336
8 338 245 164 259 452 349 258 367
8 340 247 155 236 453 350 245 338
8 345 252 160 241 454 351 246 339
8 454 351 246 339 341 248 156 237
8 341 248 156 237 455 352 247 340
8 240 159 251 344 342 249 354 457
8 242 161 253 346 343 250 355 458
8 343 250 355 458 240 159 251 344
8 347 254 162 243 460 357 252 345
8 348 255 358 461 244 163 253 346
8 348 255 163 244 462 359 254 347
8 473 360 257 365 363 256 364 482
8 452 349 258 367 365 257 366 485
8 422 324 369 488 311 224 261 371
8 371 261 370 490 263 167 262 372
8 407 311 371 491 296 210 263 373
8 373 263 372 492 295 209 264 374
8 493 385 275 375 442 342 238 328
8 377 276 179 267 493 385 275 375
8 378 274 177 268 494 383 273 376
8 494 383 273 376 377 276 179 267
8 497 382 272 379 378 274 177 268
8 498 381 271 380 379 272 175 269
8 393 297 197 283 498 381 271 380
8 499 387 277 381 382 278 181 272
8 408 312 211 297 499 387 277 381
8 500 388 278 382 384 280 183 274
8 501 389 279 383 386 282 185 276
8 384 280 183 274 501 389 279 383
8 386 282 185 276 503 391 281 385
8 503 391 281 385 457 354 249 342
8 511 408 299 395 393 297 199 285
8 395 299 409 512 285 199 298 394
8 512 409 300 396 394 298 200 286
8 401 305 205 291 514 411 300 396
8 515 412 301 397 398 302 202 288
8 405 309 209 295 515 412 301 397
8 516 413 302 398 399 303 203 289
8 403 306 414 517 293 206 303 399
8 402 307 207 292 518 415 304 400
8 401 305 415 518 291 205 304 400
8 404 308 208 294 520 418 307 402
8 521 417 306 403 404 308 208 294
8 406 310 210 296 523 420 309 405
8 526 423 311 407 406 310 210 296
8 410 314 213 299 527 424 312 408
8 528 425 315 411 409 313 214 300
8 410 314 425 528 299 213 313 409
8 416 317 216 305 530 427 315 411
8 531 430 318 412 413 320 219 302
8 420 325 223 309 531 430 318 412
8 532 432 320 413 414 321 220 303
8 417 322 433 533 306 221 321 414
8 418 319 218 307 534 428 316 415
8 416 317 428 534 305 216 316 415
8 419 323 434 536 308 222 322 417
8 419 323 222 308 537 431 319 418
8 421 327 225 310 539 438 325 420
8 421 327 439 541 310 225 326 423
8 543 437 324 422 423 326 224 311
8 441 338 259 368 559 452 367 486
8 443 340 236 329 560 453 338 441
8 333 240 344 447 442 342 457 561
8 445 341 237 331 562 455 340 443
8 448 345 241 334 563 454 339 444
8 563 454 339 444 445 341 237 331
8 336 242 346 450 446 343 458 565
8 446 343 458 565 333 240 344 447
8 449 347 243 335 567 460 345 448
8 451 348 244 337 568 462 347 449
8 451 348 461 569 337 244 346 450
8 570 463 349 452 473 360 257 365
8 453 350 245 338 570 463 349 452
8 455 352 247 340 571 464 350 453
8 460 357 252 345 572 465 351 454
8 572 465 351 454 456 353 248 341
8 456 353 248 341 573 466 352 455
8 344 251 356 459 457 354 468 575
8 458 355 469 576 344 251 356 459
8 346 253 358 461 458 355 469 576
8 462 359 254 347 578 471 357 460
8 348 255 359 462 461 358 472 579
8 591 474 360 473 475 361 256 363
8 475 361 256 363 594 477 362 479
8 363 256 364 482 479 362 480 603
8 590 473 365 484 481 363 482 605
8 482 364 257 365 606 483 366 485
8 559 452 367 486 484 365 485 607
8 542 436 487 609 422 324 369 488
8 525 422 488 611 407 311 371 491
8 488 369 489 612 371 261 370 490
8 491 371 490 613 373 263 372 492
8 495 386 276 377 614 503 385 493
8 614 503 385 493 561 457 342 442
8 615 501 383 494 495 386 276 377
8 496 384 274 378 615 501 383 494
8 618 500 382 497 496 384 274 378
8 619 499 381 498 497 382 272 379
8 511 408 297 393 619 499 381 498
8 620 505 387 499 500 388 278 382
8 527 424 312 408 620 505 387 499
8 502 390 506 621 384 280 388 500
8 622 507 389 501 504 392 282 386
8 502 390 280 384 622 507 389 501
8 504 392 282 386 624 509 391 503
8 624 509 391 503 575 468 354 457
8 513 410 299 395 630 527 408 511
8 631 528 411 514 512 409 300 396
8 513 410 528 631 395 299 409 512
8 519 416 305 401 633 530 411 514
8 634 531 412 515 516 413 302 398
8 523 420 309 405 634 531 412 515
8 635 532 413 516 517 414 303 399
8 521 417 533 636 403 306 414 517
8 520 418 307 402 637 534 415 518
8 519 416 534 637 401 305 415 518
8 522 419 308 404 639 537 418 520
8 522 419 536 640 404 308 417 521
8 524 421 310 406 642 539 420 523
8 524 421 541 644 406 310 423 526
8 646 543 422 525 526 423 311 407
8 529 426 314 410 647 544 424 527
8 528 425 545 648 411 315 427 530
8 529 426 545 648 410 314 425 528
8 535 429 317 416 649 546 427 530
8 650 548 430 531 532 432 320 413
8 539 438 325 420 650 548 430 531
8 533 433 550 651 414 321 432 532
8 536 434 551 652 417 322 433 533
8 537 431 319 418 653 547 428 534
8 535 429 547 653 416 317 428 534
8 538 435 552 654 419 323 434 536
8 538 435 323 419 655 549 431 537
8 540 440 327 421 657 556 438 539
8 540 440 557 659 421 327 439 541
8 541 439 555 660 423 326 437 543
8 661 554 436 542 543 437 324 422
8 676 570 452 559 590 473 365 484
8 560 453 338 441 676 570 452 559
8 562 455 340 443 677 571 453 560
8 447 344 459 566 561 457 575 678
8 564 456 341 445 679 573 455 562
8 567 460 345 448 680 572 454 563
8 680 572 454 563 564 456 341 445
8 565 458 576 682 447 344 459 566
8 450 346 461 569 565 458 576 682
8 568 462 347 449 684 578 460 567
8 451 348 462 568 569 461 579 685
8 686 580 463 570 591 474 360 473
8 571 464 350 453 686 580 463 570
8 573 466 352 455 687 581 464 571
8 572 465 582 688 460 357 471 578
8 574 467 582 688 456 353 465 572
8 574 467 353 456 689 583 466 573
8 459 356 470 577 575 468 585 691
8 576 469 586 692 459 356 470 577
8 461 358 472 579 576 469 586 692
8 462 359 471 578 579 472 588 694
8 704 591 473 590 593 475 363 481
8 595 476 592 705 475 361 474 591
8 593 475 363 481 707 594 479 602
8 594 477 362 479 709 598 478 600
8 595 476 361 475 711 597 477 594
8 479 362 480 603 600 478 601 720
8 481 363 482 605 602 479 603 722
8 603 480 364 482 723 604 483 606
8 605 482 365 484 724 606 485 607
8 656 553 608 726 542 436 487 609
8 645 542 609 728 525 422 488 611
8 609 487 610 729 488 369 489 612
8 611 488 612 730 491 371 490 613
8 616 504 386 495 731 624 503 614
8 731 624 503 614 678 575 457 561
8 732 622 501 615 616 504 386 495
8 617 502 384 496 732 622 501 615
8 617 502 621 735 496 384 500 618
8 736 620 499 619 618 500 382 497
8 630 527 408 511 736 620 499 619
8 621 506 626 737 500 388 505 620
8 647 544 424 527 737 626 505 620
8 623 508 627 738 502 390 506 621
8 623 508 390 502 739 628 507 622
8 625 510 628 739 504 392 507 622
8 740 629 509 624 691 585 468 575
8 625 510 392 504 740 629 509 624
8 632 529 410 513 744 647 527 630
8 631 528 648 745 514 411 530 633
8 632 529 648 745 513 410 528 631
8 638 535 416 519 746 649 530 633
8 747 650 531 634 635 532 413 516
8 642 539 420 523 747 650 531 634
8 636 533 651 748 517 414 532 635
8 640 536 652 749 521 417 533 636
8 639 537 418 520 750 653 534 637
8 638 535 653 750 519 416 534 637
8 641 538 419 522 751 655 537 639
8 641 538 654 752 522 419 536 640
8 643 540 421 524 753 657 539 642
8 643 540 659 755 524 421 541 644
8 644 541 660 757 526 423 543 646
8 758 661 542 645 646 543 422 525
8 529 426 544 647 648 545 662 759
8 530 427 545 648 649 546 663 760
8 535 429 546 649 653 547 664 761
8 762 666 548 650 651 550 432 532
8 657 556 438 539 762 666 548 650
8 652 551 668 763 533 433 550 651
8 654 552 669 764 536 434 551 652
8 655 549 431 537 765 665 547 653
8 538 435 549 655 654 552 667 766
8 661 554 671 768 542 436 553 656
8 658 558 440 540 769 674 556 657
8 658 558 675 770 540 440 557 659
8 659 557 673 771 541 439 555 660
8 660 555 672 772 543 437 554 661
8 788 686 570 676 704 591 473 590
8 677 571 453 560 788 686 570 676
8 679 573 455 562 789 687 571 677
8 566 459 577 683 678 575 691 790
8 681 574 456 564 791 689 573 679
8 680 572 688 792 567 460 578 684
8 681 574 688 792 564 456 572 680
8 682 576 692 794 566 459 577 683
8 569 461 579 685 682 576 692 794
8 568 462 578 684 685 579 694 796
8 687 581 464 571 798 696 580 686
8 798 696 580 686 705 592 474 591
8 689 583 466 573 799 697 581 687
8 688 582 698 800 578 471 588 694
8 690 584 698 800 574 467 582 688
8 690 584 467 574 801 699 583 689
8 693 587 701 803 577 470 585 691
8 693 587 470 577 804 702 586 692
8 695 589 702 804 579 472 586 692
8 695 589 472 579 805 703 588 694
8 708 595 705 813 593 475 591 704
8 710 596 706 814 595 476 592 705
8 707 594 479 602 816 709 600 719
8 708 595 475 593 817 711 594 707
8 709 598 478 600 819 715 599 717
8 711 597 477 594 820 714 598 709
8 710 596 476 595 822 713 597 711
8 600 478 601 720 717 599 718 832
8 602 479 603 722 719 600 720 834
8 720 601 480 603 835 721 604 723
8 722 603 482 605 836 723 606 724
8 767 670 725 839 656 553 608 726
8 756 656 726 841 645 542 609 728
8 726 608 727 842 609 487 610 729
8 728 609 729 843 611 488 612 730
8 844 740 624 731 790 691 575 678
8 733 625 504 616 844 740 624 731
8 734 623 502 617 845 739 622 732
8 733 625 739 845 616 504 622 732
8 734 623 738 846 617 502 621 735
8 735 621 737 847 618 500 620 736
8 744 647 527 630 847 737 620 736
8 621 506 627 738 737 626 741 848
8 647 544 626 737 759 662 741 848
8 623 508 628 739 738 627 742 849
8 740 629 585 691 850 743 700 802
8 625 510 629 740 739 628 743 850
8 632 529 647 744 745 648 759 854
8 633 530 648 745 746 649 760 855
8 638 535 649 746 750 653 761 856
8 857 762 650 747 748 651 532 635
8 753 657 539 642 857 762 650 747
8 749 652 763 858 636 533 651 748
8 752 654 764 859 640 536 652 749
8 751 655 537 639 860 765 653 750
8 641 538 655 751 752 654 766 861
8 754 658 540 643 862 769 657 753
8 754 658 770 863 643 540 659 755
8 755 659 771 864 644 541 660 757
8 758 661 768 866 645 542 656 756
8 757 660 772 867 646 543 661 758
8 759 662 773 868 648 545 663 760
8 649 546 663 760 761 664 774 871
8 765 665 547 653 872 775 664 761
8 873 777 666 762 763 668 550 651
8 769 674 556 657 873 777 666 762
8 764 669 779 874 652 551 668 763
8 654 552 667 766 764 669 778 875
8 655 549 665 765 766 667 776 876
8 768 671 782 877 656 553 670 767
8 772 672 783 878 661 554 671 768
8 658 558 674 769 770 675 786 879
8 659 557 675 770 771 673 785 881
8 882 784 672 772 771 673 555 660
8 789 687 571 677 897 798 686 788
8 897 798 686 788 813 705 591 704
8 791 689 573 679 898 799 687 789
8 795 693 803 900 683 577 691 790
8 793 690 574 681 901 801 689 791
8 792 688 800 902 684 578 694 796
8 793 690 800 902 681 574 688 792
8 795 693 577 683 903 804 692 794
8 797 695 804 903 685 579 692 794
8 797 695 579 685 904 805 694 796
8 905 806 697 799 798 696 581 687
8 814 706 806 905 705 592 696 798
8 689 583 697 799 801 699 808 907
8 800 698 809 908 694 588 703 805
8 690 584 699 801 800 698 809 908
8 803 701 810 909 691 585 700 802
8 693 587 702 804 803 701 811 910
8 695 589 703 805 804 702 812 911
8 818 710 814 919 708 595 705 813
8 821 712 815 920 710 596 706 814
8 816 709 600 719 922 819 717 831
8 817 711 594 707 923 820 709 816
8 818 710 595 708 924 822 711 817
8 819 715 599 717 926 827 716 829
8 820 714 598 709 927 826 715 819
8 929 825 713 822 820 714 597 711
8 821 712 596 710 930 824 713 822
8 717 599 718 832 829 716 830 942
8 719 600 720 834 831 717 832 944
8 832 718 601 720 945 833 721 835
8 834 720 603 722 946 835 723 836
8 869 780 838 950 767 670 725 839
8 865 767 839 952 756 656 726 841
8 839 725 840 953 726 608 727 842
8 841 726 842 954 728 609 729 843
8 844 740 691 790 955 850 802 899
8 733 625 740 844 845 739 850 955
8 734 623 739 845 846 738 849 956
8 735 621 738 846 847 737 848 957
8 744 647 737 847 854 759 848 957
8 738 627 742 849 848 741 851 958
8 848 741 851 958 759 662 773 868
8 850 743 700 802 959 852 807 906
8 849 742 628 739 959 852 743 850
8 854 759 868 965 745 648 760 855
8 746 649 760 855 856 761 871 966
8 860 765 653 750 967 872 761 856
8 968 873 762 857 858 763 651 748
8 862 769 657 753 968 873 762 857
8 859 764 874 969 749 652 763 858
8 752 654 766 861 859 764 875 970
8 751 655 765 860 861 766 876 971
8 754 658 769 862 863 770 879 972
8 755 659 770 863 864 771 881 974
8 976 882 772 867 864 771 660 757
8 866 768 877 977 756 656 767 865
8 867 772 878 978 758 661 768 866
8 760 663 773 868 871 774 883 980
8 870 781 837 948 982 890 780 869
8 982 890 780 869 877 782 670 767
8 761 664 774 871 872 775 884 984
8 876 776 665 765 985 885 775 872
8 873 777 668 763 986 887 779 874
8 769 674 777 873 879 786 887 986
8 764 669 778 875 874 779 888 987
8 766 667 776 876 875 778 886 988
8 878 783 892 989 768 671 782 877
8 878 783 672 772 990 893 784 882
8 880 787 675 770 991 896 786 879
8 880 787 895 992 770 675 785 881
8 881 785 894 993 771 673 784 882
8 1006 905 799 898 897 798 687 789
8 919 814 905 1006 813 705 798 897
8 791 689 799 898 901 801 907 1007
8 900 803 909 1009 790 691 802 899
8 795 693 804 903 900 803 910 1010
8 902 800 908 1011 796 694 805 904
8 793 690 801 901 902 800 908 1011
8 797 695 805 904 903 804 911 1012
8 799 697 806 905 907 808 912 1013
8 920 815 912 1013 814 706 806 905
8 802 700 810 909 906 807 913 1014
8 801 699 808 907 908 809 914 1015
8 805 703 809 908 911 812 915 1016
8 803 701 811 910 909 810 916 1017
8 911 812 917 1018 804 702 811 910
8 925 821 920 1030 818 710 814 919
8 928 823 921 1031 821 712 815 920
8 922 819 717 831 1033 926 829 941
8 923 820 709 816 1034 927 819 922
8 1035 929 822 924 923 820 711 817
8 925 821 710 818 1036 930 822 924
8 1038 933 825 929 927 826 714 820
8 926 827 716 829 1039 935 828 939
8 927 826 715 819 1040 934 827 926
8 928 823 712 821 1041 931 824 930
8 1042 932 824 930 929 825 713 822
8 829 716 830 942 939 828 940 1058
8 831 717 832 944 941 829 942 1060
8 942 830 718 832 1061 943 833 945
8 944 832 720 834 1062 945 835 946
8 981 889 947 1064 870 781 837 948
8 948 837 949 1067 869 780 838 950
8 975 869 950 1069 865 767 839 952
8 950 838 951 1070 839 725 840 953
8 952 839 953 1071 841 726 842 954
8 955 850 802 899 1072 959 906 1008
8 956 849 739 845 1072 959 850 955
8 846 738 849 956 957 848 958 1073
8 957 848 958 1073 854 759 868 965
8 849 742 852 959 958 851 961 1076
8 960 853 961 1076 906 807 852 959
8 958 851 961 1076 868 773 883 980
8 960 853 807 906 1077 963 913 1014
8 855 760 868 965 966 871 980 1085
8 856 761 871 966 967 872 984 1086
8 971 876 765 860 1087 985 872 967
8 968 873 763 858 1088 986 874 969
8 862 769 873 968 972 879 986 1088
8 859 764 875 970 969 874 987 1089
8 861 766 876 971 970 875 988 1090
8 973 880 770 863 1091 991 879 972
8 973 880 992 1092 863 770 881 974
8 974 881 993 1093 864 771 882 976
8 979 870 948 1066 1094 982 869 975
8 1094 982 869 975 977 877 767 865
8 978 878 772 867 1095 990 882 976
8 978 878 989 1096 866 768 877 977
8 871 774 883 980 984 884 994 1099
8 983 891 999 1100 870 781 889 981
8 1101 1000 890 982 989 892 782 877
8 983 891 781 870 1101 1000 890 982
8 872 775 884 984 985 885 995 1103
8 876 776 885 985 988 886 996 1104
8 986 887 779 874 1105 998 888 987
8 879 786 887 986 991 896 998 1105
8 875 778 886 988 987 888 997 1106
8 990 893 1002 1107 878 783 892 989
8 1108 1003 893 990 993 894 784 882
8 880 787 896 991 992 895 1005 1109
8 993 894 785 881 1110 1004 895 992
8 898 799 905 1006 1007 907 1013 1120
8 1030 920 1013 1120 919 814 905 1006
8 901 801 907 1007 1011 908 1015 1121
8 899 802 909 1009 1008 906 1014 1122
8 900 803 910 1010 1009 909 1017 1123
8 1012 911 1018 1124 903 804 910 1010
8 904 805 908 1011 1012 911 1016 1125
8 1013 912 1020 1127 907 808 914 1015
8 1031 921 1020 1127 920 815 912 1013
8 1019 918 962 1075 1128 1021 913 1014
8 1128 1021 913 1014 1017 916 810 909
8 1015 914 1022 1129 908 809 915 1016
8 1016 915 1023 1130 911 812 917 1018
8 1018 917 1024 1131 910 811 916 1017
8 1037 928 1031 1148 925 821 920 1030
8 928 823 931 1041 1031 921 1032 1149
8 1033 926 829 941 1151 1039 939 1057
8 1034 927 819 922 1152 1040 926 1033
8 1153 1038 929 1035 1034 927 820 923
8 1154 1042 930 1036 1035 929 822 924
8 1037 928 821 925 1155 1041 930 1036
8 1039 935 828 939 1156 1047 938 1055
8 1157 1043 932 1042 1038 933 825 929
8 1038 933 826 927 1158 1045 934 1040
8 1040 934 827 926 1159 1046 935 1039
8 930 824 932 1042 1041 931 1044 1160
8 1051 936 1048 1165 1175 1052 937 1053
8 1156 1047 938 1055 1053 937 1054 1178
8 939 828 940 1058 1055 938 1056 1181
8 941 829 942 1060 1057 939 1058 1183
8 942 830 943 1061 1058 940 1059 1184
8 1060 942 832 944 1185 1061 945 1062
8 1082 964 1063 1188 981 889 947 1064
8 1097 981 1064 1190 979 870 948 1066
8 1064 947 1065 1191 948 837 949 1067
8 1066 948 1067 1193 975 869 950 1069
8 1067 949 1068 1194 950 838 951 1070
8 1069 950 1070 1195 952 839 953 1071
8 956 849 959 1072 1073 958 1076 1197
8 1074 960 1076 1197 1008 906 959 1072
8 1073 958 1076 1197 965 868 980 1085
8 1074 960 906 1008 1198 1077 1014 1122
8 1133 1026 1079 1199 1019 918 962 1075
8 1077 963 913 1014 1200 1080 962 1075
8 960 853 963 1077 1076 961 1078 1201
8 980 883 961 1076 1099 994 1078 1201
8 1210 1083 964 1082 1100 999 889 981
8 966 871 980 1085 1086 984 1099 1215
8 967 872 984 1086 1087 985 1103 1216
8 971 876 985 1087 1090 988 1104 1217
8 1088 986 874 969 1218 1105 987 1089
8 972 879 986 1088 1091 991 1105 1218
8 970 875 988 1090 1089 987 1106 1219
8 973 880 991 1091 1092 992 1109 1220
8 1093 993 881 974 1221 1110 992 1092
8 1222 1108 990 1095 1093 993 882 976
8 1223 1101 982 1094 1096 989 877 977
8 1098 983 870 979 1223 1101 982 1094
8 1095 990 1107 1224 978 878 989 1096
8 1098 983 1100 1225 979 870 981 1097
8 984 884 994 1099 1103 995 1111 1227
8 1102 1001 1115 1228 983 891 999 1100
8 1101 1000 892 989 1229 1116 1002 1107
8 1102 1001 891 983 1229 1116 1000 1101
8 985 885 995 1103 1104 996 1112 1230
8 988 886 996 1104 1106 997 1113 1231
8 1105 998 888 987 1232 1114 997 1106
8 991 896 998 1105 1109 1005 1114 1232
8 1108 1003 1117 1233 990 893 1002 1107
8 1108 1003 894 993 1233 1117 1004 1110
8 992 895 1005 1109 1110 1004 1118 1234
8 1120 1013 1127 1244 1007 907 1015 1121
8 1148 1031 1127 1244 1030 920 1013 1120
8 1121 1015 1129 1245 1011 908 1016 1125
8 1126 1019 1075 1196 1246 1128 1014 1122
8 1246 1128 1014 1122 1123 1017 909 1009
8 1124 1018 1131 1247 1010 910 1017 1123
8 1125 1016 1130 1248 1012 911 1018 1124
8 1127 1020 1137 1254 1015 914 1022 1129
8 1031 921 1032 1149 1127 1020 1137 1254
8 1134 1027 918 1019 1257 1140 1021 1128
8 1257 1140 1021 1128 1131 1024 916 1017
8 1129 1022 1141 1258 1016 915 1023 1130
8 1130 1023 1142 1259 1018 917 1024 1131
8 1261 1144 1025 1132 1133 1026 1079 1199
8 1255 1138 1025 1132 1135 1028 1144 1261
8 1133 1026 918 1019 1262 1145 1027 1134
8 1136 1029 1139 1256 1263 1146 1028 1135
8 1037 928 1041 1155 1148 1031 1149 1275
8 1041 931 1044 1160 1149 1032 1150 1276
8 1151 1039 939 1057 1278 1156 1055 1180
8 1152 1040 926 1033 1279 1159 1039 1151
8 1153 1038 927 1034 1280 1158 1040 1152
8 1281 1157 1042 1154 1153 1038 929 1035
8 1036 930 1042 1154 1155 1041 1160 1282
8 1283 1164 1046 1159 1156 1047 935 1039
8 1165 1048 1164 1283 1053 937 1047 1156
8 1157 1043 933 1038 1284 1161 1045 1158
8 1157 1043 1161 1284 1042 932 1044 1160
8 1040 934 1046 1159 1158 1045 1163 1285
8 1166 1049 1167 1292 1051 936 1048 1165
8 1166 1049 936 1051 1293 1168 1050 1172
8 1051 936 1052 1175 1172 1050 1173 1306
8 1174 1051 1165 1290 1308 1175 1053 1177
8 1053 937 1054 1178 1175 1052 1176 1309
8 1278 1156 1055 1180 1177 1053 1178 1311
8 1055 938 1056 1181 1178 1054 1179 1312
8 1057 939 1058 1183 1180 1055 1181 1314
8 1058 940 1059 1184 1181 1056 1182 1315
8 1060 942 1061 1185 1183 1058 1184 1316
8 1208 1081 1187 1321 1082 964 1063 1188
8 1209 1082 1188 1322 1097 981 1064 1190
8 1188 1063 1189 1323 1064 947 1065 1191
8 1190 1064 1191 1325 1066 948 1067 1193
8 1191 1065 1192 1326 1067 949 1068 1194
8 1067 1193 1069 950 1194 1327 1195 1070
8 1250 1133 1199 1330 1126 1019 1075 1196
8 1198 1077 1014 1122 1331 1200 1075 1196
8 1074 960 1077 1198 1197 1076 1201 1332
8 1085 980 1076 1197 1215 1099 1201 1332
8 1199 1079 1203 1333 1075 962 1080 1200
8 1132 1025 1119 1243 1199 1079 1203 1333
8 1201 1078 963 1077 1334 1202 1080 1200
8 1099 994 1078 1201 1227 1111 1202 1334
8 1343 1207 1081 1208 1210 1083 964 1082
8 1214 1084 1186 1319 1343 1207 1081 1208
8 1345 1210 1082 1209 1225 1100 981 1097
8 1346 1211 1083 1210 1228 1115 999 1100
8 1086 984 1099 1215 1216 1103 1227 1352
8 1087 985 1103 1216 1217 1104 1230 1353
8 1090 988 1104 1217 1219 1106 1231 1354
8 1218 1105 987 1089 1355 1232 1106 1219
8 1091 991 1105 1218 1220 1109 1232 1355
8 1092 992 1109 1220 1221 1110 1234 1356
8 1222 1108 1233 1357 1095 990 1107 1224
8 1222 1108 993 1093 1357 1233 1110 1221
8 1223 1101 989 1096 1358 1229 1107 1224
8 1226 1102 983 1098 1358 1229 1101 1223
8 1226 1102 1228 1359 1098 983 1100 1225
8 1103 995 1111 1227 1230 1112 1235 1360
8 1107 1002 1117 1233 1229 1116 1240 1362
8 1102 1001 1116 1229 1228 1115 1240 1362
8 1104 996 1112 1230 1231 1113 1236 1363
8 1364 1237 1114 1232 1231 1113 997 1106
8 1109 1005 1114 1232 1234 1118 1238 1365
8 1110 1004 1118 1234 1233 1117 1241 1366
8 1242 1374 1255 1138 1119 1243 1132 1025
8 1244 1127 1254 1376 1121 1015 1129 1245
8 1148 1031 1149 1275 1244 1127 1254 1376
8 1245 1129 1258 1377 1125 1016 1130 1248
8 1251 1134 1019 1126 1378 1257 1128 1246
8 1378 1257 1128 1246 1247 1131 1017 1123
8 1248 1130 1259 1379 1124 1018 1131 1247
8 1261 1381 1250 1133 1132 1249 1330 1199
8 1255 1380 1252 1135 1132 1249 1381 1261
8 1250 1133 1019 1126 1382 1262 1134 1251
8 1253 1136 1256 1385 1384 1263 1135 1252
8 1254 1137 1265 1387 1129 1022 1141 1258
8 1149 1032 1150 1276 1254 1137 1265 1387
8 1028 1135 1255 1138 1139 1256 1388 1266
8 1136 1029 1147 1264 1256 1139 1267 1389
8 1390 1268 1140 1257 1259 1142 1024 1131
8 1260 1143 1027 1134 1390 1268 1140 1257
8 1258 1141 1269 1391 1130 1023 1142 1259
8 1262 1145 1027 1134 1393 1271 1143 1260
8 1261 1144 1026 1133 1394 1272 1145 1262
8 1135 1028 1144 1261 1263 1146 1272 1394
8 1136 1029 1146 1263 1264 1147 1273 1395
8 1155 1041 1160 1282 1275 1149 1276 1405
8 1276 1150 1044 1160 1406 1277 1162 1286
8 1408 1283 1159 1279 1278 1156 1039 1151
8 1290 1165 1283 1408 1177 1053 1156 1278
8 1152 1040 1159 1279 1280 1158 1285 1409
8 1281 1157 1038 1153 1410 1284 1158 1280
8 1281 1157 1284 1410 1154 1042 1160 1282
8 1159 1046 1164 1283 1285 1163 1289 1412
8 1292 1167 1289 1412 1165 1048 1164 1283
8 1158 1045 1163 1285 1284 1161 1288 1413
8 1284 1161 1288 1413 1160 1044 1162 1286
8 1291 1166 1292 1418 1174 1051 1165 1290
8 1291 1166 1051 1174 1419 1293 1172 1305
8 1294 1169 1296 1421 1166 1049 1167 1292
8 1293 1168 1050 1172 1422 1295 1171 1303
8 1294 1169 1049 1166 1423 1297 1168 1293
8 1422 1295 1171 1303 1301 1170 1302 1435
8 1172 1050 1173 1306 1303 1171 1304 1438
8 1174 1051 1175 1308 1305 1172 1306 1440
8 1175 1052 1176 1309 1306 1173 1307 1441
8 1177 1053 1178 1311 1308 1175 1309 1443
8 1178 1054 1179 1312 1309 1176 1310 1444
8 1180 1055 1181 1314 1311 1178 1312 1446
8 1056 1181 1312 1179 1182 1315 1447 1313
8 1183 1058 1184 1316 1314 1181 1315 1448
8 1319 1186 1084 1214 1451 1317 1213 1350
8 1319 1186 1318 1453 1208 1081 1187 1321
8 1321 1187 1320 1456 1188 1063 1189 1323
8 1344 1208 1321 1457 1209 1082 1188 1322
8 1322 1188 1323 1458 1190 1064 1191 1325
8 1323 1189 1324 1459 1191 1065 1192 1326
8 1191 1325 1193 1067 1326 1460 1327 1194
8 1242 1374 1243 1119 1328 1462 1335 1204
8 1330 1199 1333 1465 1196 1075 1200 1331
8 1132 1249 1330 1199 1243 1375 1465 1333
8 1332 1201 1077 1198 1466 1334 1200 1331
8 1215 1099 1201 1332 1352 1227 1334 1466
8 1119 1243 1333 1203 1204 1335 1470 1338
8 1333 1203 1338 1470 1200 1080 1202 1334
8 1227 1111 1202 1334 1360 1235 1338 1470
8 1328 1462 1335 1204 1205 1336 1471 1339
8 1337 1206 1340 1472 1464 1329 1205 1336
8 1346 1211 1342 1479 1210 1083 1207 1343
8 1346 1211 1115 1228 1479 1342 1239 1361
8 1348 1212 1084 1214 1479 1342 1207 1343
8 1480 1343 1208 1344 1345 1210 1082 1209
8 1351 1214 1319 1454 1480 1343 1208 1344
8 1481 1346 1210 1345 1359 1228 1100 1225
8 1348 1212 1347 1483 1214 1084 1213 1350
8 1216 1103 1227 1352 1353 1230 1360 1488
8 1217 1104 1230 1353 1354 1231 1363 1489
8 1490 1364 1232 1355 1354 1231 1106 1219
8 1220 1109 1232 1355 1356 1234 1365 1491
8 1221 1110 1234 1356 1357 1233 1366 1492
8 1224 1107 1233 1357 1358 1229 1362 1493
8 1226 1102 1229 1358 1359 1228 1362 1493
8 1230 1112 1235 1360 1363 1236 1367 1496
8 1361 1239 1115 1228 1497 1371 1240 1362
8 1366 1241 1372 1498 1233 1117 1240 1362
8 1364 1237 1113 1231 1499 1368 1236 1363
8 1364 1237 1368 1499 1232 1114 1238 1365
8 1234 1118 1238 1365 1366 1241 1369 1500
8 1507 1373 1242 1374 1388 1266 1138 1255
8 1508 1374 1243 1375 1380 1255 1132 1249
8 1376 1254 1387 1509 1245 1129 1258 1377
8 1275 1149 1276 1405 1376 1254 1387 1509
8 1377 1258 1391 1510 1248 1130 1259 1379
8 1511 1390 1257 1378 1379 1259 1131 1247
8 1383 1260 1134 1251 1511 1390 1257 1378
8 1252 1135 1256 1385 1380 1255 1388 1512
8 1261 1381 1513 1394 1133 1250 1382 1262
8 1135 1252 1384 1263 1261 1381 1513 1394
8 1382 1262 1134 1251 1514 1393 1260 1383
8 1253 1136 1263 1384 1386 1264 1395 1516
8 1253 1136 1264 1386 1385 1256 1389 1517
8 1387 1265 1397 1519 1258 1141 1269 1391
8 1276 1150 1277 1406 1387 1265 1397 1519
8 1256 1139 1267 1389 1388 1266 1398 1520
8 1264 1147 1274 1396 1389 1267 1399 1521
8 1392 1270 1143 1260 1522 1400 1268 1390
8 1390 1268 1142 1259 1522 1400 1269 1391
8 1392 1270 1401 1523 1260 1143 1271 1393
8 1272 1394 1524 1402 1145 1262 1393 1271
8 1395 1273 1146 1263 1524 1402 1272 1394
8 1273 1395 1264 1147 1403 1526 1396 1274
8 1405 1276 1160 1282 1534 1406 1286 1411
8 1414 1287 1407 1535 1286 1162 1277 1406
8 1279 1159 1283 1408 1409 1285 1412 1537
8 1418 1292 1412 1537 1290 1165 1283 1408
8 1280 1158 1285 1409 1410 1284 1413 1538
8 1410 1284 1413 1538 1282 1160 1286 1411
8 1285 1163 1289 1412 1413 1288 1417 1540
8 1421 1296 1417 1540 1292 1167 1289 1412
8 1414 1287 1162 1286 1541 1416 1288 1413
8 1420 1294 1421 1545 1291 1166 1292 1418
8 1419 1293 1172 1305 1546 1422 1303 1437
8 1420 1294 1166 1291 1547 1423 1293 1419
8 1294 1169 1297 1423 1421 1296 1425 1548
8 1423 1297 1168 1293 1549 1424 1295 1422
8 1301 1170 1298 1427 1422 1295 1424 1549
8 1432 1300 1428 1554 1301 1170 1298 1427
8 1431 1299 1428 1554 1560 1430 1300 1432
8 1563 1433 1300 1432 1435 1302 1170 1301
8 1546 1422 1303 1437 1434 1301 1435 1565
8 1303 1171 1304 1438 1435 1302 1436 1566
8 1305 1172 1306 1440 1437 1303 1438 1568
8 1306 1173 1307 1441 1438 1304 1439 1569
8 1308 1175 1309 1443 1440 1306 1441 1571
8 1309 1176 1310 1444 1441 1307 1442 1572
8 1311 1178 1312 1446 1443 1309 1444 1574
8 1179 1312 1444 1310 1313 1447 1575 1445
8 1314 1181 1315 1448 1446 1312 1447 1576
8 1350 1213 1349 1486 1451 1317 1449 1579
8 1451 1317 1450 1581 1319 1186 1318 1453
8 1454 1319 1214 1351 1582 1451 1350 1487
8 1453 1318 1452 1584 1321 1187 1320 1456
8 1454 1319 1453 1585 1344 1208 1321 1457
8 1456 1320 1455 1586 1323 1189 1324 1459
8 1457 1321 1456 1587 1322 1188 1323 1458
8 1458 1323 1459 1588 1325 1191 1326 1460
8 1205 1336 1464 1329 1328 1462 1590 1461
8 1507 1373 1461 1590 1374 1242 1328 1462
8 1508 1374 1462 1591 1375 1243 1335 1467
8 1337 1206 1329 1464 1473 1341 1463 1594
8 1375 1243 1335 1467 1465 1333 1470 1596
8 1465 1333 1470 1596 1331 1200 1334 1466
8 1352 1227 1334 1466 1488 1360 1470 1596
8 1591 1462 1336 1468 1467 1335 1471 1597
8 1469 1337 1472 1598 1595 1464 1336 1468
8 1471 1339 1474 1600 1335 1204 1338 1470
8 1600 1474 1367 1496 1470 1338 1235 1360
8 1336 1205 1340 1472 1471 1339 1475 1601
8 1337 1206 1341 1473 1472 1340 1476 1602
8 1495 1370 1478 1609 1361 1239 1342 1479
8 1348 1212 1342 1479 1483 1347 1478 1609
8 1481 1346 1479 1610 1345 1210 1343 1480
8 1481 1346 1228 1359 1610 1479 1361 1494
8 1484 1348 1214 1351 1610 1479 1343 1480
8 1483 1347 1482 1612 1350 1213 1349 1486
8 1484 1348 1483 1613 1351 1214 1350 1487
8 1353 1230 1360 1488 1489 1363 1496 1616
8 1490 1364 1231 1354 1617 1499 1363 1489
8 1490 1364 1499 1617 1355 1232 1365 1491
8 1356 1234 1365 1491 1492 1366 1500 1619
8 1492 1366 1498 1620 1357 1233 1362 1493
8 1494 1361 1228 1359 1621 1497 1362 1493
8 1495 1370 1239 1361 1622 1504 1371 1497
8 1363 1236 1367 1496 1499 1368 1501 1623
8 1497 1371 1240 1362 1624 1505 1372 1498
8 1625 1503 1372 1498 1500 1369 1241 1366
8 1365 1238 1368 1499 1500 1369 1502 1626
8 1520 1398 1506 1633 1388 1266 1373 1507
8 1634 1507 1374 1508 1512 1388 1255 1380
8 1509 1387 1519 1635 1377 1258 1391 1510
8 1405 1276 1406 1534 1509 1387 1519 1635
8 1515 1392 1260 1383 1636 1522 1390 1511
8 1511 1390 1259 1379 1636 1522 1391 1510
8 1385 1256 1389 1517 1512 1388 1520 1637
8 1513 1394 1262 1382 1638 1524 1393 1514
8 1395 1516 1638 1524 1263 1384 1513 1394
8 1515 1392 1523 1639 1383 1260 1393 1514
8 1516 1395 1526 1640 1386 1264 1396 1518
8 1386 1264 1396 1518 1517 1389 1521 1641
8 1519 1397 1527 1643 1391 1269 1400 1522
8 1535 1407 1527 1643 1406 1277 1397 1519
8 1389 1267 1399 1521 1520 1398 1528 1644
8 1645 1529 1399 1521 1525 1404 1274 1396
8 1392 1270 1400 1522 1523 1401 1531 1646
8 1524 1402 1271 1393 1648 1532 1401 1523
8 1403 1526 1648 1532 1273 1395 1524 1402
8 1525 1404 1274 1396 1649 1533 1403 1526
8 1539 1414 1535 1657 1411 1286 1406 1534
8 1542 1415 1536 1658 1414 1287 1407 1535
8 1409 1285 1412 1537 1538 1413 1540 1660
8 1545 1421 1540 1660 1418 1292 1412 1537
8 1539 1414 1286 1411 1661 1541 1413 1538
8 1540 1417 1544 1663 1413 1288 1416 1541
8 1421 1296 1425 1548 1540 1417 1544 1663
8 1542 1415 1287 1414 1664 1543 1416 1541
8 1420 1294 1423 1547 1545 1421 1548 1666
8 1547 1423 1293 1419 1667 1549 1422 1546
8 1434 1301 1427 1553 1546 1422 1549 1667
8 1423 1297 1424 1549 1548 1425 1550 1668
8 1551 1426 1550 1668 1427 1298 1424 1549
8 1551 1426 1298 1427 1671 1552 1428 1554
8 1562 1432 1554 1674 1434 1301 1427 1553
8 1431 1299 1429 1558 1554 1428 1555 1675
8 1431 1299 1430 1560 1558 1429 1557 1680
8 1560 1430 1300 1432 1683 1559 1433 1563
8 1561 1431 1554 1674 1684 1560 1432 1562
8 1685 1563 1432 1562 1565 1435 1301 1434
8 1435 1302 1436 1566 1563 1433 1564 1686
8 1437 1303 1438 1568 1565 1435 1566 1688
8 1438 1304 1439 1569 1566 1436 1567 1689
8 1440 1306 1441 1571 1568 1438 1569 1691
8 1441 1307 1442 1572 1569 1439 1570 1692
8 1443 1309 1444 1574 1571 1441 1572 1694
8 1310 1444 1572 1442 1445 1575 1695 1573
8 1446 1312 1447 1576 1574 1444 1575 1696
8 1486 1349 1485 1614 1579 1449 1577 1699
8 1451 1317 1449 1579 1581 1450 1578 1701
8 1487 1350 1486 1615 1582 1451 1579 1702
8 1581 1450 1580 1704 1453 1318 1452 1584
8 1582 1451 1581 1705 1454 1319 1453 1585
8 1584 1452 1583 1706 1456 1320 1455 1586
8 1585 1453 1584 1707 1457 1321 1456 1587
8 1587 1456 1586 1708 1458 1323 1459 1588
8 1633 1506 1589 1710 1507 1373 1461 1590
8 1464 1329 1461 1590 1594 1463 1589 1710
8 1468 1336 1462 1591 1595 1464 1590 1711
8 1634 1507 1590 1711 1508 1374 1462 1591
8 1473 1341 1463 1594 1603 1477 1593 1716
8 1469 1337 1464 1595 1599 1473 1594 1717
8 1471 1597 1467 1335 1600 1718 1596 1470
8 1718 1600 1496 1616 1596 1470 1360 1488
8 1336 1468 1597 1471 1472 1598 1719 1601
8 1469 1337 1473 1599 1598 1472 1602 1720
8 1722 1604 1501 1623 1600 1474 1367 1496
8 1475 1601 1471 1339 1604 1722 1600 1474
8 1602 1476 1605 1723 1472 1340 1475 1601
8 1476 1602 1724 1606 1341 1473 1603 1477
8 1483 1347 1478 1609 1612 1482 1608 1731
8 1495 1370 1504 1622 1609 1478 1608 1731
8 1618 1495 1609 1732 1494 1361 1479 1610
8 1484 1348 1479 1610 1613 1483 1609 1732
8 1486 1349 1482 1612 1614 1485 1611 1733
8 1613 1483 1612 1734 1487 1350 1486 1615
8 1489 1363 1496 1616 1617 1499 1623 1736
8 1491 1365 1499 1617 1619 1500 1626 1737
8 1618 1495 1361 1494 1738 1622 1497 1621
8 1739 1625 1498 1620 1619 1500 1366 1492
8 1621 1497 1362 1493 1740 1624 1498 1620
8 1742 1631 1504 1622 1624 1505 1371 1497
8 1743 1628 1502 1626 1623 1501 1368 1499
8 1744 1630 1505 1624 1625 1503 1372 1498
8 1745 1629 1503 1625 1626 1502 1369 1500
8 1520 1398 1528 1644 1633 1506 1632 1751
8 1637 1520 1633 1752 1512 1388 1507 1634
8 1635 1519 1643 1753 1510 1391 1522 1636
8 1657 1535 1643 1753 1534 1406 1519 1635
8 1515 1392 1522 1636 1639 1523 1646 1754
8 1517 1389 1521 1641 1637 1520 1644 1755
8 1524 1638 1756 1648 1393 1514 1639 1523
8 1640 1526 1395 1516 1756 1648 1524 1638
8 1642 1525 1396 1518 1757 1649 1526 1640
8 1758 1645 1521 1641 1642 1525 1396 1518
8 1646 1531 1400 1522 1760 1650 1527 1643
8 1535 1407 1536 1658 1643 1527 1650 1760
8 1521 1399 1529 1645 1644 1528 1651 1761
8 1647 1530 1652 1762 1525 1404 1529 1645
8 1401 1523 1648 1532 1531 1646 1763 1655
8 1525 1404 1533 1649 1647 1530 1654 1765
8 1533 1649 1766 1656 1403 1526 1648 1532
8 1662 1542 1658 1774 1539 1414 1535 1657
8 1542 1415 1543 1664 1658 1536 1659 1775
8 1660 1540 1663 1777 1538 1413 1541 1661
8 1545 1421 1548 1666 1660 1540 1663 1777
8 1662 1542 1414 1539 1778 1664 1541 1661
8 1664 1543 1416 1541 1779 1665 1544 1663
8 1548 1425 1550 1668 1663 1544 1665 1779
8 1547 1423 1549 1667 1666 1548 1668 1781
8 1670 1551 1668 1781 1553 1427 1549 1667
8 1551 1426 1552 1671 1668 1550 1669 1782
8 1670 1551 1427 1553 1784 1671 1554 1674
8 1675 1555 1672 1785 1554 1428 1552 1671
8 1678 1556 1673 1789 1558 1429 1555 1675
8 1561 1431 1558 1681 1674 1554 1675 1790
8 1794 1677 1556 1678 1680 1557 1429 1558
8 1560 1430 1559 1683 1680 1557 1679 1797
8 1561 1431 1560 1684 1681 1558 1680 1798
8 1563 1433 1564 1686 1683 1559 1682 1800
8 1684 1560 1432 1562 1801 1683 1563 1685
8 1565 1435 1566 1688 1685 1563 1686 1802
8 1566 1436 1567 1689 1686 1564 1687 1803
8 1568 1438 1569 1691 1688 1566 1689 1805
8 1569 1439 1570 1692 1689 1567 1690 1806
8 1571 1441 1572 1694 1691 1569 1692 1808
8 1442 1572 1692 1570 1573 1695 1809 1693
8 1574 1444 1575 1696 1694 1572 1695 1810
8 1614 1485 1592 1712 1699 1577 1697 1813
8 1579 1449 1577 1699 1701 1578 1698 1815
8 1615 1486 1614 1735 1702 1579 1699 1816
8 1701 1578 1700 1818 1581 1450 1580 1704
8 1582 1451 1579 1702 1705 1581 1701 1819
8 1704 1580 1703 1820 1584 1452 1583 1706
8 1705 1581 1704 1821 1585 1453 1584 1707
8 1707 1584 1706 1822 1587 1456 1586 1708
8 1710 1589 1506 1633 1824 1709 1632 1751
8 1594 1463 1589 1710 1716 1593 1709 1824
8 1752 1633 1710 1825 1634 1507 1590 1711
8 1595 1464 1590 1711 1717 1594 1710 1825
8 1830 1714 1592 1712 1733 1611 1485 1614
8 1603 1477 1593 1716 1725 1607 1715 1834
8 1599 1473 1594 1717 1721 1603 1716 1835
8 1837 1722 1623 1736 1718 1600 1496 1616
8 1719 1601 1722 1837 1597 1471 1600 1718
8 1602 1720 1598 1472 1723 1838 1719 1601
8 1720 1602 1473 1599 1839 1724 1603 1721
8 1723 1605 1726 1840 1601 1475 1604 1722
8 1840 1726 1628 1743 1722 1604 1501 1623
8 1724 1606 1727 1841 1602 1476 1605 1723
8 1725 1607 1728 1842 1603 1477 1606 1724
8 1612 1482 1608 1731 1733 1611 1730 1849
8 1741 1627 1730 1849 1622 1504 1608 1731
8 1613 1483 1609 1732 1734 1612 1731 1850
8 1618 1495 1622 1738 1732 1609 1731 1850
8 1615 1486 1612 1734 1735 1614 1733 1851
8 1852 1743 1626 1737 1736 1623 1499 1617
8 1853 1745 1625 1739 1737 1626 1500 1619
8 1855 1742 1622 1738 1740 1624 1497 1621
8 1856 1744 1624 1740 1739 1625 1498 1620
8 1741 1627 1504 1622 1857 1746 1631 1742
8 1742 1631 1505 1624 1858 1749 1630 1744
8 1859 1747 1629 1745 1743 1628 1502 1626
8 1860 1748 1630 1744 1745 1629 1503 1625
8 1644 1528 1651 1761 1751 1632 1750 1865
8 1637 1520 1644 1755 1752 1633 1751 1866
8 1754 1646 1522 1636 1867 1760 1643 1753
8 1657 1535 1658 1774 1753 1643 1760 1867
8 1639 1523 1646 1754 1756 1648 1763 1868
8 1641 1521 1645 1758 1755 1644 1761 1869
8 1757 1649 1526 1640 1870 1766 1648 1756
8 1642 1525 1649 1757 1759 1647 1765 1871
8 1759 1647 1762 1872 1642 1525 1645 1758
8 1760 1650 1767 1874 1646 1531 1655 1763
8 1658 1536 1659 1775 1760 1650 1767 1874
8 1762 1652 1768 1875 1645 1529 1651 1761
8 1764 1653 1769 1876 1647 1530 1652 1762
8 1656 1766 1877 1773 1532 1648 1763 1655
8 1771 1879 1765 1654 1653 1764 1647 1530
8 1533 1649 1765 1654 1656 1766 1880 1772
8 1662 1542 1664 1778 1774 1658 1775 1887
8 1664 1543 1665 1779 1775 1659 1776 1888
8 1778 1664 1541 1661 1890 1779 1663 1777
8 1666 1548 1668 1781 1777 1663 1779 1890
8 1782 1669 1780 1891 1668 1550 1665 1779
8 1670 1551 1671 1784 1781 1668 1782 1893
8 1671 1552 1672 1785 1782 1669 1783 1894
8 1790 1675 1785 1896 1674 1554 1671 1784
8 1675 1555 1673 1789 1785 1672 1786 1897
8 1792 1676 1788 1903 1678 1556 1673 1789
8 1795 1678 1789 1904 1681 1558 1675 1790
8 1792 1676 1556 1678 1906 1791 1677 1794
8 1680 1557 1679 1797 1794 1677 1793 1909
8 1910 1794 1678 1795 1798 1680 1558 1681
8 1683 1559 1682 1800 1797 1679 1796 1912
8 1684 1560 1683 1801 1798 1680 1797 1913
8 1686 1564 1687 1803 1800 1682 1799 1915
8 1685 1563 1686 1802 1801 1683 1800 1916
8 1688 1566 1689 1805 1802 1686 1803 1917
8 1689 1567 1690 1806 1803 1687 1804 1918
8 1691 1569 1692 1808 1805 1689 1806 1920
8 1692 1570 1693 1809 1806 1690 1807 1921
8 1694 1572 1695 1810 1808 1692 1809 1922
8 1829 1713 1811 1926 1712 1592 1697 1813
8 1813 1697 1812 1928 1699 1577 1698 1815
8 1735 1614 1712 1828 1816 1699 1813 1929
8 1815 1698 1814 1931 1701 1578 1700 1818
8 1702 1579 1699 1816 1819 1701 1815 1932
8 1818 1700 1817 1933 1704 1580 1703 1820
8 1819 1701 1818 1934 1705 1581 1704 1821
8 1821 1704 1820 1935 1707 1584 1706 1822
8 1824 1709 1632 1751 1937 1823 1750 1865
8 1716 1593 1709 1824 1834 1715 1823 1937
8 1825 1710 1633 1752 1938 1824 1751 1866
8 1717 1594 1710 1825 1835 1716 1824 1938
8 1945 1830 1712 1828 1851 1733 1614 1735
8 1830 1714 1831 1946 1712 1592 1713 1829
8 1947 1832 1714 1830 1849 1730 1611 1733
8 1843 1729 1607 1725 1950 1833 1715 1834
8 1721 1603 1716 1835 1836 1725 1834 1951
8 1836 1725 1842 1953 1721 1603 1724 1839
8 1723 1838 1719 1601 1840 1954 1837 1722
8 1954 1840 1743 1852 1837 1722 1623 1736
8 1724 1839 1720 1602 1841 1955 1838 1723
8 1841 1727 1844 1956 1723 1605 1726 1840
8 1956 1844 1747 1859 1840 1726 1628 1743
8 1728 1842 1724 1606 1845 1957 1841 1727
8 1725 1607 1729 1843 1842 1728 1846 1958
8 1741 1627 1746 1857 1849 1730 1848 1965
8 1734 1612 1731 1850 1851 1733 1849 1966
8 1854 1741 1849 1966 1738 1622 1731 1850
8 1967 1859 1745 1853 1852 1743 1626 1737
8 1968 1860 1744 1856 1853 1745 1625 1739
8 1854 1741 1622 1738 1969 1857 1742 1855
8 1855 1742 1624 1740 1970 1858 1744 1856
8 1857 1746 1631 1742 1971 1861 1749 1858
8 1858 1749 1630 1744 1972 1863 1748 1860
8 1859 1747 1862 1973 1745 1629 1748 1860
8 1875 1768 1864 1977 1761 1651 1750 1865
8 1755 1644 1761 1869 1866 1751 1865 1978
8 1867 1760 1874 1979 1754 1646 1763 1868
8 1774 1658 1775 1887 1867 1760 1874 1979
8 1870 1766 1648 1756 1980 1877 1763 1868
8 1872 1762 1875 1981 1758 1645 1761 1869
8 1757 1649 1766 1870 1871 1765 1880 1982
8 1983 1879 1764 1873 1871 1765 1647 1759
8 1873 1764 1876 1984 1759 1647 1762 1872
8 1877 1773 1655 1763 1986 1881 1767 1874
8 1775 1659 1776 1888 1874 1767 1881 1986
8 1876 1769 1882 1987 1762 1652 1768 1875
8 1878 1770 1883 1988 1764 1653 1769 1876
8 1880 1772 1656 1766 1989 1886 1773 1877
8 1878 1770 1653 1764 1990 1884 1771 1879
8 1765 1654 1772 1880 1879 1771 1885 1991
8 1778 1664 1779 1890 1887 1775 1888 1997
8 1998 1889 1776 1888 1891 1780 1665 1779
8 1893 1782 1891 2000 1781 1668 1779 1890
8 1894 1783 1892 2001 1782 1669 1780 1891
8 1784 1671 1785 1896 1893 1782 1894 2003
8 1897 1786 1895 2004 1785 1672 1783 1894
8 1790 1675 1789 1904 1896 1785 1897 2006
8 1901 1787 1898 2007 1789 1673 1786 1897
8 1903 1788 1900 2013 1789 1673 1787 1901
8 1792 1676 1791 1906 1903 1788 1902 2016
8 1907 1792 1903 2017 1795 1678 1789 1904
8 1906 1791 1677 1794 2019 1905 1793 1909
8 1907 1792 1678 1795 2020 1906 1794 1910
8 1797 1679 1796 1912 1909 1793 1908 2022
8 1798 1680 1797 1913 1910 1794 1909 2023
8 1800 1682 1799 1915 1912 1796 1911 2025
8 1801 1683 1800 1916 1913 1797 1912 2026
8 1803 1687 1804 1918 1915 1799 1914 2028
8 1802 1686 1803 1917 1916 1800 1915 2029
8 1805 1689 1806 1920 1917 1803 1918 2030
8 1806 1690 1807 1921 1918 1804 1919 2031
8 1808 1692 1809 1922 1920 1806 1921 2032
8 1939 1826 1924 2037 1829 1713 1811 1926
8 1926 1811 1925 2039 1813 1697 1812 1928
8 1944 1829 1926 2040 1828 1712 1813 1929
8 1928 1812 1927 2042 1815 1698 1814 1931
8 1929 1813 1928 2043 1816 1699 1815 1932
8 1931 1814 1930 2044 1818 1700 1817 1933
8 1932 1815 1931 2045 1819 1701 1818 1934
8 1934 1818 1933 2046 1821 1704 1820 1935
8 2048 1936 1823 1937 1977 1864 1750 1865
8 1950 1833 1715 1834 2048 1936 1823 1937
8 1938 1824 1751 1866 2049 1937 1865 1978
8 1835 1716 1824 1938 1951 1834 1937 2049
8 1939 1826 1713 1829 2053 1942 1831 1946
8 1940 1827 1923 2035 2053 1942 1826 1939
8 1945 1830 1946 2058 1828 1712 1829 1944
8 2059 1947 1830 1945 1966 1849 1733 1851
8 1947 1832 1730 1849 2060 1948 1848 1965
8 1947 1832 1948 2060 1830 1714 1831 1946
8 1959 1847 1729 1843 2063 1949 1833 1950
8 1952 1843 1725 1836 2064 1950 1834 1951
8 1836 1725 1843 1952 1953 1842 1958 2066
8 1953 1842 1957 2067 1839 1724 1841 1955
8 1841 1955 1838 1723 1956 2068 1954 1840
8 2068 1956 1859 1967 1954 1840 1743 1852
8 1956 1844 1960 2069 1859 1747 1862 1973
8 1845 1957 1841 1727 1960 2069 1956 1844
8 1728 1842 1957 1845 1846 1958 2071 1961
8 1962 2072 1959 1847 1846 1958 1843 1729
8 1971 1861 1964 2077 1857 1746 1848 1965
8 1854 1741 1857 1969 1966 1849 1965 2078
8 1967 1859 1973 2079 1853 1745 1860 1968
8 1970 1858 1744 1856 2080 1972 1860 1968
8 1969 1857 1742 1855 2081 1971 1858 1970
8 1971 1861 1749 1858 2082 1974 1863 1972
8 1973 1862 1975 2083 1860 1748 1863 1972
8 1987 1882 1976 2086 1875 1768 1864 1977
8 1981 1875 1977 2087 1869 1761 1865 1978
8 1980 1877 1763 1868 2088 1986 1874 1979
8 1887 1775 1888 1997 1979 1874 1986 2088
8 1880 1982 2089 1989 1766 1870 1980 1877
8 1984 1876 1987 2090 1872 1762 1875 1981
8 1765 1871 1983 1879 1880 1982 2091 1991
8 1985 1878 1764 1873 2092 1990 1879 1983
8 1985 1878 1988 2093 1873 1764 1876 1984
8 2094 1992 1881 1986 1998 1889 1776 1888
8 1986 1881 1992 2094 1877 1773 1886 1989
8 1988 1883 1993 2095 1876 1769 1882 1987
8 1878 1770 1884 1990 1988 1883 1994 2096
8 1991 1885 1772 1880 2097 1996 1886 1989
8 1879 1771 1885 1991 1990 1884 1995 2098
8 2103 1998 1888 1997 2000 1891 1779 1890
8 2104 1999 1889 1998 2001 1892 1780 1891
8 2003 1894 2001 2106 1893 1782 1891 2000
8 2004 1895 2002 2107 1894 1783 1892 2001
8 2006 1897 2004 2109 1896 1785 1894 2003
8 2007 1898 2005 2110 1897 1786 1895 2004
8 2014 1901 2007 2112 1904 1789 1897 2006
8 2011 1899 2008 2113 1901 1787 1898 2007
8 2119 2010 1899 2011 2013 1900 1787 1901
8 2016 1902 2012 2122 1903 1788 1900 2013
8 2017 1903 2013 2123 1904 1789 1901 2014
8 1906 1791 1905 2019 2016 1902 2015 2125
8 1907 1792 1906 2020 2017 1903 2016 2126
8 1909 1793 1908 2022 2019 1905 2018 2128
8 2020 1906 1794 1910 2129 2019 1909 2023
8 1912 1796 1911 2025 2022 1908 2021 2131
8 1913 1797 1912 2026 2023 1909 2022 2132
8 1915 1799 1914 2028 2025 1911 2024 2134
8 1916 1800 1915 2029 2026 1912 2025 2135
8 1918 1804 1919 2031 2028 1914 2027 2136
8 1917 1803 1918 2030 2029 1915 2028 2137
8 1920 1806 1921 2032 2030 1918 2031 2138
8 1940 1827 1941 2054 2035 1923 2033 2140
8 2035 1923 2034 2143 1939 1826 1924 2037
8 2037 1924 2036 2146 1926 1811 1925 2039
8 2051 1939 2037 2147 1944 1829 1926 2040
8 2039 1925 2038 2149 1928 1812 1927 2042
8 2040 1926 2039 2150 1929 1813 1928 2043
8 2042 1927 2041 2151 1931 1814 1930 2044
8 2043 1928 2042 2152 1932 1815 1931 2045
8 2045 1931 2044 2153 1934 1818 1933 2046
8 2155 2047 1936 2048 2086 1976 1864 1977
8 2063 1949 1833 1950 2155 2047 1936 2048
8 2156 2048 1937 2049 2087 1977 1865 1978
8 2064 1950 1834 1951 2156 2048 1937 2049
8 2051 1939 1829 1944 2160 2053 1946 2058
8 2052 1940 2035 2144 2160 2053 1939 2051
8 2053 1942 1831 1946 2163 2057 1948 2060
8 2055 1943 1827 1940 2163 2057 1942 2053
8 2055 1943 2056 2164 1940 1827 1941 2054
8 2059 1947 1849 1966 2167 2060 1965 2078
8 2059 1947 2060 2167 1945 1830 1946 2058
8 2077 1964 2061 2168 1965 1848 1948 2060
8 2070 1963 1847 1959 2170 2062 1949 2063
8 2065 1959 1843 1952 2171 2063 1950 2064
8 2173 2072 1958 2066 2065 1959 1843 1952
8 1953 1842 1958 2066 2067 1957 2071 2174
8 2068 1956 2069 2175 1967 1859 1973 2079
8 2067 1957 2069 2175 1955 1841 1956 2068
8 1845 1957 2069 1960 1961 2071 2176 2073
8 2069 1960 2073 2176 1973 1862 1975 2083
8 2070 1963 2075 2177 1959 1847 1962 2072
8 1846 1958 2071 1961 1962 2072 2178 2074
8 2077 1964 1861 1971 2182 2076 1974 2082
8 2081 1971 2077 2183 1969 1857 1965 2078
8 2079 1973 2083 2184 1968 1860 1972 2080
8 2081 1971 1858 1970 2185 2082 1972 2080
8 2083 1975 2084 2186 1972 1863 1974 2082
8 2086 1976 1882 1987 2189 2085 1993 2095
8 2090 1987 2086 2190 1981 1875 1977 2087
8 2191 2094 1986 2088 2103 1998 1888 1997
8 2088 1986 2094 2191 1980 1877 1989 2089
8 1991 2091 2192 2097 1880 1982 2089 1989
8 2093 1988 2095 2193 1984 1876 1987 2090
8 1879 1983 2092 1990 1991 2091 2194 2098
8 1985 1878 1990 2092 2093 1988 2096 2195
8 2097 1996 1886 1989 2196 2099 1992 2094
8 2196 2099 1992 2094 2104 1999 1889 1998
8 1994 2096 1988 1883 2100 2197 2095 1993
8 2096 1994 1884 1990 2198 2101 1995 2098
8 1995 2098 2199 2102 1885 1991 2097 1996
8 2203 2104 1998 2103 2106 2001 1891 2000
8 2107 2002 2105 2204 2001 1892 1999 2104
8 2109 2004 2107 2206 2003 1894 2001 2106
8 2110 2005 2108 2207 2004 1895 2002 2107
8 2112 2007 2110 2209 2006 1897 2004 2109
8 2113 2008 2111 2210 2007 1898 2005 2110
8 2120 2011 2113 2212 2014 1901 2007 2112
8 2117 2009 2114 2213 2011 1899 2008 2113
8 2219 2116 2009 2117 2119 2010 1899 2011
8 2222 2118 2010 2119 2122 2012 1900 2013
8 2223 2119 2011 2120 2123 2013 1901 2014
8 2016 1902 2015 2125 2122 2012 2121 2225
8 2126 2016 2122 2226 2017 1903 2013 2123
8 2019 1905 2018 2128 2125 2015 2124 2228
8 2020 1906 2019 2129 2126 2016 2125 2229
8 2022 1908 2021 2131 2128 2018 2127 2231
8 2023 1909 2022 2132 2129 2019 2128 2232
8 2025 1911 2024 2134 2131 2021 2130 2234
8 2026 1912 2025 2135 2132 2022 2131 2235
8 1914 2028 2134 2024 2027 2136 2236 2133
8 2029 1915 2028 2137 2135 2025 2134 2237
8 2030 1918 2031 2138 2137 2028 2136 2238
8 2157 2050 2139 2240 2054 1941 2033 2140
8 2052 1940 2054 2161 2144 2035 2140 2242
8 2140 2033 2141 2243 2035 1923 2034 2143
8 2143 2034 2142 2246 2037 1924 2036 2146
8 2144 2035 2143 2247 2051 1939 2037 2147
8 2146 2036 2145 2249 2039 1925 2038 2149
8 2147 2037 2146 2250 2040 1926 2039 2150
8 2149 2038 2148 2251 2042 1927 2041 2151
8 2150 2039 2149 2252 2043 1928 2042 2152
8 2152 2042 2151 2253 2045 1931 2044 2153
8 2255 2154 2047 2155 2189 2085 1976 2086
8 2170 2062 1949 2063 2255 2154 2047 2155
8 2256 2155 2048 2156 2190 2086 1977 2087
8 2171 2063 1950 2064 2256 2155 2048 2156
8 2258 2159 2050 2157 2164 2056 1941 2054
8 2160 2053 1946 2058 2262 2163 2060 2167
8 2162 2055 1940 2052 2262 2163 2053 2160
8 2162 2055 2164 2263 2052 1940 2054 2161
8 2163 2057 1948 2060 2264 2165 2061 2168
8 2055 1943 2057 2163 2164 2056 2165 2264
8 2182 2076 2166 2268 2077 1964 2061 2168
8 2183 2077 2168 2269 2078 1965 2060 2167
8 2070 1963 2062 2170 2177 2075 2169 2271
8 2172 2070 1959 2065 2272 2170 2063 2171
8 2172 2070 2177 2273 2065 1959 2072 2173
8 2066 1958 2072 2173 2174 2071 2178 2274
8 2067 1957 2071 2174 2175 2069 2176 2275
8 2175 2069 2176 2275 2079 1973 2083 2184
8 2071 1961 2074 2178 2176 2073 2179 2276
8 2176 2073 2179 2276 2083 1975 2084 2186
8 2072 1962 2075 2177 2178 2074 2180 2277
8 2182 2076 1974 2082 2280 2181 2084 2186
8 2183 2077 1971 2081 2281 2182 2082 2185
8 2184 2083 2186 2282 2080 1972 2082 2185
8 2189 2085 1993 2095 2285 2188 2100 2197
8 2190 2086 1987 2090 2286 2189 2095 2193
8 2192 2097 1989 2089 2287 2196 2094 2191
8 2287 2196 2094 2191 2203 2104 1998 2103
8 2194 2098 1991 2091 2288 2199 2097 2192
8 2195 2096 2197 2289 2093 1988 2095 2193
8 2096 2195 2290 2198 1990 2092 2194 2098
8 2097 1996 2099 2196 2199 2102 2200 2291
8 2196 2099 1999 2104 2291 2200 2105 2204
8 2100 2197 2292 2201 1994 2096 2198 2101
8 1995 2098 2198 2101 2102 2199 2293 2202
8 2206 2107 2204 2296 2106 2001 2104 2203
8 2207 2108 2205 2297 2107 2002 2105 2204
8 2209 2110 2207 2299 2109 2004 2107 2206
8 2210 2111 2208 2300 2110 2005 2108 2207
8 2212 2113 2210 2302 2112 2007 2110 2209
8 2213 2114 2211 2303 2113 2008 2111 2210
8 2220 2117 2213 2305 2120 2011 2113 2212
8 2216 2115 2214 2306 2117 2009 2114 2213
8 2216 2115 2009 2117 2311 2217 2116 2219
8 2219 2116 2010 2119 2314 2218 2118 2222
8 2315 2219 2117 2220 2223 2119 2011 2120
8 2122 2012 2121 2225 2222 2118 2221 2317
8 2318 2222 2119 2223 2226 2122 2013 2123
8 2125 2015 2124 2228 2225 2121 2224 2320
8 2126 2016 2125 2229 2226 2122 2225 2321
8 2128 2018 2127 2231 2228 2124 2227 2323
8 2129 2019 2128 2232 2229 2125 2228 2324
8 2131 2021 2130 2234 2231 2127 2230 2326
8 2132 2022 2131 2235 2232 2128 2231 2327
8 2134 2024 2133 2236 2234 2130 2233 2328
8 2135 2025 2134 2237 2235 2131 2234 2329
8 2137 2028 2136 2238 2237 2134 2236 2330
8 2157 2050 2158 2259 2240 2139 2239 2332
8 2257 2157 2240 2334 2161 2054 2140 2242
8 2240 2139 2241 2335 2140 2033 2141 2243
8 2242 2140 2243 2337 2144 2035 2143 2247
8 2243 2141 2244 2338 2143 2034 2142 2246
8 2246 2142 2245 2341 2146 2036 2145 2249
8 2247 2143 2246 2342 2147 2037 2146 2250
8 2249 2145 2248 2343 2149 2038 2148 2251
8 2250 2146 2249 2344 2150 2039 2149 2252
8 2252 2149 2251 2345 2152 2042 2151 2253
8 2169 2271 2347 2254 2062 2170 2255 2154
8 2189 2085 2188 2285 2255 2154 2254 2347
8 2348 2255 2155 2256 2286 2189 2086 2190
8 2272 2170 2063 2171 2348 2255 2155 2256
8 2349 2258 2157 2257 2263 2164 2054 2161
8 2258 2159 2261 2351 2157 2050 2158 2259
8 2258 2159 2056 2164 2351 2261 2165 2264
8 2262 2163 2060 2167 2355 2264 2168 2269
8 2162 2055 2163 2262 2263 2164 2264 2355
8 2357 2266 2165 2264 2268 2166 2061 2168
8 2268 2166 2076 2182 2361 2267 2181 2280
8 2281 2182 2268 2362 2183 2077 2168 2269
8 2271 2169 2270 2364 2177 2075 2180 2277
8 2172 2070 2170 2272 2273 2177 2271 2365
8 2072 2173 2274 2178 2177 2273 2366 2277
8 2071 2174 2275 2176 2178 2274 2367 2276
8 2275 2176 2276 2367 2184 2083 2186 2282
8 2283 2187 2084 2186 2368 2278 2179 2276
8 2178 2074 2180 2277 2276 2179 2278 2368
8 2283 2187 2279 2370 2186 2084 2181 2280
8 2281 2182 2082 2185 2371 2280 2186 2282
8 2188 2285 2374 2284 2100 2197 2292 2201
8 2286 2189 2095 2193 2375 2285 2197 2289
8 2192 2097 2196 2287 2288 2199 2291 2376
8 2287 2196 2104 2203 2376 2291 2204 2296
8 2194 2098 2199 2288 2290 2198 2293 2377
8 2289 2197 2096 2195 2378 2292 2198 2290
8 2291 2200 2105 2204 2379 2294 2205 2297
8 2199 2102 2200 2291 2293 2202 2294 2379
8 2198 2101 2202 2293 2292 2201 2295 2380
8 2299 2207 2297 2383 2206 2107 2204 2296
8 2300 2208 2298 2384 2207 2108 2205 2297
8 2302 2210 2300 2386 2209 2110 2207 2299
8 2303 2211 2301 2387 2210 2111 2208 2300
8 2305 2213 2303 2389 2212 2113 2210 2302
8 2306 2214 2304 2390 2213 2114 2211 2303
8 2310 2216 2306 2392 2220 2117 2213 2305
8 2308 2215 2307 2393 2216 2115 2214 2306
8 2308 2215 2115 2216 2396 2309 2217 2311
8 2310 2216 2117 2220 2398 2311 2219 2315
8 2311 2217 2116 2219 2399 2312 2218 2314
8 2314 2218 2118 2222 2402 2313 2221 2317
8 2315 2219 2119 2223 2403 2314 2222 2318
8 2225 2121 2224 2320 2317 2221 2316 2405
8 2226 2122 2225 2321 2318 2222 2317 2406
8 2228 2124 2227 2323 2320 2224 2319 2408
8 2229 2125 2228 2324 2321 2225 2320 2409
8 2231 2127 2230 2326 2323 2227 2322 2411
8 2232 2128 2231 2327 2324 2228 2323 2412
8 2234 2130 2233 2328 2326 2230 2325 2413
8 2235 2131 2234 2329 2327 2231 2326 2414
8 2237 2134 2236 2330 2329 2234 2328 2415
8 2259 2158 2260 2352 2332 2239 2331 2417
8 2257 2157 2259 2350 2334 2240 2332 2419
8 2240 2139 2239 2332 2335 2241 2333 2420
8 2334 2240 2335 2422 2242 2140 2243 2337
8 2335 2241 2336 2423 2243 2141 2244 2338
8 2337 2243 2338 2425 2247 2143 2246 2342
8 2338 2244 2339 2426 2246 2142 2245 2341
8 2341 2245 2340 2428 2249 2145 2248 2343
8 2342 2246 2341 2429 2250 2146 2249 2344
8 2344 2249 2343 2430 2252 2149 2251 2345
8 2188 2285 2347 2254 2284 2374 2432 2346
8 2347 2254 2346 2432 2271 2169 2270 2364
8 2365 2271 2170 2272 2433 2347 2255 2348
8 2286 2189 2285 2375 2348 2255 2347 2433
8 2349 2258 2351 2435 2257 2157 2259 2350
8 2349 2258 2164 2263 2435 2351 2264 2355
8 2259 2158 2261 2351 2352 2260 2354 2437
8 2356 2265 2354 2437 2264 2165 2261 2351
8 2441 2357 2264 2355 2362 2268 2168 2269
8 2356 2265 2165 2264 2442 2358 2266 2357
8 2443 2359 2266 2357 2361 2267 2166 2268
8 2370 2279 2360 2446 2280 2181 2267 2361
8 2362 2268 2182 2281 2447 2361 2280 2371
8 2180 2277 2368 2278 2270 2364 2449 2363
8 2271 2365 2273 2177 2364 2450 2366 2277
8 2372 2283 2186 2282 2451 2368 2276 2367
8 2178 2274 2367 2276 2277 2366 2451 2368
8 2283 2187 2278 2368 2370 2279 2369 2452
8 2372 2283 2370 2453 2282 2186 2280 2371
8 2284 2374 2455 2373 2201 2292 2380 2295
8 2375 2285 2197 2289 2456 2374 2292 2378
8 2376 2291 2204 2296 2457 2379 2297 2383
8 2288 2199 2291 2376 2377 2293 2379 2457
8 2198 2290 2378 2292 2293 2377 2458 2380
8 2293 2202 2294 2379 2380 2295 2381 2459
8 2384 2298 2381 2459 2297 2205 2294 2379
8 2386 2300 2384 2463 2299 2207 2297 2383
8 2387 2301 2385 2464 2300 2208 2298 2384
8 2389 2303 2387 2466 2302 2210 2300 2386
8 2390 2304 2388 2467 2303 2211 2301 2387
8 2392 2306 2390 2469 2305 2213 2303 2389
8 2393 2307 2391 2470 2306 2214 2304 2390
8 2395 2308 2393 2472 2310 2216 2306 2392
8 2308 2215 2309 2396 2393 2307 2394 2473
8 2395 2308 2216 2310 2475 2396 2311 2398
8 2396 2309 2217 2311 2476 2397 2312 2399
8 2398 2311 2219 2315 2478 2399 2314 2403
8 2399 2312 2218 2314 2479 2400 2313 2402
8 2317 2221 2316 2405 2402 2313 2401 2482
8 2403 2314 2222 2318 2483 2402 2317 2406
8 2320 2224 2319 2408 2405 2316 2404 2485
8 2321 2225 2320 2409 2406 2317 2405 2486
8 2323 2227 2322 2411 2408 2319 2407 2488
8 2324 2228 2323 2412 2409 2320 2408 2489
8 2326 2230 2325 2413 2411 2322 2410 2490
8 2327 2231 2326 2414 2412 2323 2411 2491
8 2329 2234 2328 2415 2414 2326 2413 2492
8 2417 2331 2260 2352 2494 2416 2353 2438
8 2350 2259 2352 2436 2419 2332 2417 2496
8 2332 2239 2331 2417 2420 2333 2418 2497
8 2334 2240 2332 2419 2422 2335 2420 2499
8 2420 2333 2421 2500 2335 2241 2336 2423
8 2422 2335 2423 2502 2337 2243 2338 2425
8 2423 2336 2424 2503 2338 2244 2339 2426
8 2425 2338 2426 2505 2342 2246 2341 2429
8 2426 2339 2427 2506 2341 2245 2340 2428
8 2429 2341 2428 2507 2344 2249 2343 2430
8 2432 2346 2284 2374 2509 2431 2373 2455
8 2432 2346 2431 2509 2364 2270 2363 2449
8 2375 2285 2374 2456 2433 2347 2432 2510
8 2347 2433 2365 2271 2432 2510 2450 2364
8 2350 2259 2351 2435 2436 2352 2437 2514
8 2440 2356 2437 2514 2355 2264 2351 2435
8 2352 2260 2354 2437 2438 2353 2439 2516
8 2356 2265 2358 2442 2437 2354 2439 2516
8 2440 2356 2264 2355 2518 2442 2357 2441
8 2519 2443 2357 2441 2447 2361 2268 2362
8 2443 2359 2444 2520 2357 2266 2358 2442
8 2443 2359 2267 2361 2520 2444 2360 2446
8 2446 2360 2279 2370 2523 2445 2369 2452
8 2453 2370 2446 2524 2371 2280 2361 2447
8 2449 2363 2448 2525 2368 2278 2369 2452
8 2366 2277 2364 2450 2451 2368 2449 2526
8 2372 2283 2368 2451 2453 2370 2452 2527
8 2455 2373 2295 2380 2529 2454 2382 2460
8 2456 2374 2292 2378 2530 2455 2380 2458
8 2377 2293 2379 2457 2458 2380 2459 2531
8 2463 2384 2459 2531 2383 2297 2379 2457
8 2533 2461 2382 2460 2459 2381 2295 2380
8 2464 2385 2461 2533 2384 2298 2381 2459
8 2466 2387 2464 2537 2386 2300 2384 2463
8 2467 2388 2465 2538 2387 2301 2385 2464
8 2469 2390 2467 2540 2389 2303 2387 2466
8 2470 2391 2468 2541 2390 2304 2388 2467
8 2472 2393 2470 2543 2392 2306 2390 2469
8 2393 2307 2394 2473 2470 2391 2471 2544
8 2395 2308 2396 2475 2472 2393 2473 2546
8 2396 2309 2397 2476 2473 2394 2474 2547
8 2475 2396 2311 2398 2549 2476 2399 2478
8 2476 2397 2312 2399 2550 2477 2400 2479
8 2478 2399 2314 2403 2552 2479 2402 2483
8 2479 2400 2313 2402 2553 2480 2401 2482
8 2405 2316 2404 2485 2482 2401 2481 2556
8 2406 2317 2405 2486 2483 2402 2482 2557
8 2408 2319 2407 2488 2485 2404 2484 2559
8 2409 2320 2408 2489 2486 2405 2485 2560
8 2411 2322 2410 2490 2488 2407 2487 2561
8 2412 2323 2411 2491 2489 2408 2488 2562
8 2414 2326 2413 2492 2491 2411 2490 2563
8 2513 2434 2493 2565 2438 2353 2416 2494
8 2496 2417 2352 2436 2567 2494 2438 2515
8 2494 2416 2495 2568 2417 2331 2418 2497
8 2419 2332 2417 2496 2499 2420 2497 2570
8 2497 2418 2498 2571 2420 2333 2421 2500
8 2499 2420 2500 2573 2422 2335 2423 2502
8 2500 2421 2501 2574 2423 2336 2424 2503
8 2502 2423 2503 2576 2425 2338 2426 2505
8 2503 2424 2504 2577 2426 2339 2427 2506
8 2505 2426 2506 2578 2429 2341 2428 2507
8 2509 2431 2373 2455 2580 2508 2454 2529
8 2509 2431 2508 2580 2449 2363 2448 2525
8 2432 2510 2581 2509 2374 2456 2530 2455
8 2432 2510 2450 2364 2509 2581 2526 2449
8 2583 2511 2434 2513 2516 2439 2353 2438
8 2436 2352 2437 2514 2515 2438 2516 2588
8 2440 2356 2442 2518 2514 2437 2516 2588
8 2442 2358 2444 2520 2516 2439 2517 2589
8 2519 2443 2520 2591 2441 2357 2442 2518
8 2519 2443 2361 2447 2591 2520 2446 2524
8 2446 2360 2445 2523 2520 2444 2521 2592
8 2525 2448 2522 2593 2452 2369 2445 2523
8 2524 2446 2370 2453 2594 2523 2452 2527
8 2526 2449 2525 2595 2451 2368 2452 2527
8 2534 2462 2528 2597 2460 2382 2454 2529
8 2530 2455 2380 2458 2598 2529 2460 2532
8 2599 2533 2460 2532 2531 2459 2380 2458
8 2537 2464 2533 2599 2463 2384 2459 2531
8 2534 2462 2382 2460 2601 2535 2461 2533
8 2538 2465 2535 2601 2464 2385 2461 2533
8 2540 2467 2538 2604 2466 2387 2464 2537
8 2541 2468 2539 2605 2467 2388 2465 2538
8 2543 2470 2541 2607 2469 2390 2467 2540
8 2470 2391 2471 2544 2541 2468 2542 2608
8 2472 2393 2473 2546 2543 2470 2544 2610
8 2473 2394 2474 2547 2544 2471 2545 2611
8 2475 2396 2476 2549 2546 2473 2547 2613
8 2476 2397 2477 2550 2547 2474 2548 2614
8 2549 2476 2399 2478 2616 2550 2479 2552
8 2479 2400 2480 2553 2550 2477 2551 2617
8 2552 2479 2402 2483 2619 2553 2482 2557
8 2482 2401 2481 2556 2553 2480 2554 2620
8 2485 2404 2484 2559 2556 2481 2555 2623
8 2486 2405 2485 2560 2557 2482 2556 2624
8 2488 2407 2487 2561 2559 2484 2558 2625
8 2489 2408 2488 2562 2560 2485 2559 2626
8 2491 2411 2490 2563 2562 2488 2561 2627
8 2513 2434 2512 2585 2565 2493 2564 2630
8 2586 2513 2565 2632 2515 2438 2494 2567
8 2565 2493 2566 2633 2494 2416 2495 2568
8 2567 2494 2568 2635 2496 2417 2497 2570
8 2568 2495 2569 2636 2497 2418 2498 2571
8 2570 2497 2571 2638 2499 2420 2500 2573
8 2571 2498 2572 2639 2500 2421 2501 2574
8 2573 2500 2574 2641 2502 2423 2503 2576
8 2574 2501 2575 2642 2503 2424 2504 2577
8 2576 2503 2577 2643 2505 2426 2506 2578
8 2597 2528 2579 2645 2529 2454 2508 2580
8 2580 2508 2579 2645 2525 2448 2522 2593
8 2581 2509 2455 2530 2646 2580 2529 2598
8 2581 2509 2580 2646 2526 2449 2525 2595
8 2583 2511 2582 2648 2513 2434 2512 2585
8 2583 2511 2439 2516 2648 2582 2517 2589
8 2649 2583 2513 2586 2588 2516 2438 2515
8 2589 2517 2444 2520 2653 2587 2521 2592
8 2518 2442 2520 2591 2588 2516 2589 2654
8 2593 2522 2590 2655 2523 2445 2521 2592
8 2524 2446 2523 2594 2591 2520 2592 2656
8 2595 2525 2593 2657 2527 2452 2523 2594
8 2602 2536 2596 2659 2534 2462 2528 2597
8 2600 2534 2597 2660 2532 2460 2529 2598
8 2600 2534 2460 2532 2661 2601 2533 2599
8 2604 2538 2601 2661 2537 2464 2533 2599
8 2602 2536 2462 2534 2663 2603 2535 2601
8 2601 2535 2465 2538 2663 2603 2539 2605
8 2607 2541 2605 2665 2540 2467 2538 2604
8 2608 2542 2606 2666 2541 2468 2539 2605
8 2543 2470 2544 2610 2607 2541 2608 2668
8 2544 2471 2545 2611 2608 2542 2609 2669
8 2546 2473 2547 2613 2610 2544 2611 2671
8 2547 2474 2548 2614 2611 2545 2612 2672
8 2549 2476 2550 2616 2613 2547 2614 2674
8 2550 2477 2551 2617 2614 2548 2615 2675
8 2552 2479 2553 2619 2616 2550 2617 2677
8 2553 2480 2554 2620 2617 2551 2618 2678
8 2557 2482 2556 2624 2619 2553 2620 2680
8 2556 2481 2555 2623 2620 2554 2621 2681
8 2559 2484 2558 2625 2623 2555 2622 2683
8 2560 2485 2559 2626 2624 2556 2623 2684
8 2562 2488 2561 2627 2626 2559 2625 2685
8 2690 2629 2564 2630 2650 2584 2512 2585
8 2586 2513 2585 2651 2632 2565 2630 2691
8 2630 2564 2631 2692 2565 2493 2566 2633
8 2632 2565 2633 2694 2567 2494 2568 2635
8 2633 2566 2634 2695 2568 2495 2569 2636
8 2635 2568 2636 2697 2570 2497 2571 2638
8 2636 2569 2637 2698 2571 2498 2572 2639
8 2638 2571 2639 2700 2573 2500 2574 2641
8 2639 2572 2640 2701 2574 2501 2575 2642
8 2641 2574 2642 2702 2576 2503 2577 2643
8 2597 2528 2596 2659 2645 2579 2644 2704
8 2645 2579 2644 2704 2593 2522 2590 2655
8 2660 2597 2645 2705 2598 2529 2580 2646
8 2646 2580 2645 2705 2595 2525 2593 2657
8 2650 2584 2512 2585 2707 2647 2582 2648
8 2648 2582 2517 2589 2707 2647 2587 2653
8 2649 2583 2648 2708 2586 2513 2585 2651
8 2649 2583 2516 2588 2708 2648 2589 2654
8 2655 2590 2652 2710 2592 2521 2587 2653
8 2654 2589 2520 2591 2711 2653 2592 2656
8 2657 2593 2655 2712 2594 2523 2592 2656
8 2602 2536 2603 2663 2659 2596 2658 2714
8 2662 2602 2659 2715 2600 2534 2597 2660
8 2662 2602 2534 2600 2717 2663 2601 2661
8 2661 2601 2538 2604 2717 2663 2605 2665
8 2666 2606 2664 2718 2605 2539 2603 2663
8 2668 2608 2666 2720 2607 2541 2605 2665
8 2608 2542 2609 2669 2666 2606 2667 2721
8 2610 2544 2611 2671 2668 2608 2669 2723
8 2611 2545 2612 2672 2669 2609 2670 2724
8 2613 2547 2614 2674 2671 2611 2672 2726
8 2614 2548 2615 2675 2672 2612 2673 2727
8 2616 2550 2617 2677 2674 2614 2675 2729
8 2617 2551 2618 2678 2675 2615 2676 2730
8 2619 2553 2620 2680 2677 2617 2678 2732
8 2620 2554 2621 2681 2678 2618 2679 2733
8 2624 2556 2623 2684 2680 2620 2681 2735
8 2681 2621 2555 2623 2736 2682 2622 2683
8 2626 2559 2625 2685 2684 2623 2683 2737
8 2688 2628 2584 2650 2740 2686 2647 2707
8 2688 2628 2687 2742 2650 2584 2629 2690
8 2690 2629 2689 2745 2630 2564 2631 2692
8 2746 2690 2630 2691 2709 2650 2585 2651
8 2691 2630 2692 2747 2632 2565 2633 2694
8 2692 2631 2693 2748 2633 2566 2634 2695
8 2694 2633 2695 2750 2635 2568 2636 2697
8 2695 2634 2696 2751 2636 2569 2637 2698
8 2697 2636 2698 2753 2638 2571 2639 2700
8 2698 2637 2699 2754 2639 2572 2640 2701
8 2700 2639 2701 2755 2641 2574 2642 2702
8 2659 2596 2658 2714 2704 2644 2703 2757
8 2704 2644 2703 2757 2655 2590 2652 2710
8 2660 2597 2659 2715 2705 2645 2704 2758
8 2705 2645 2704 2758 2657 2593 2655 2712
8 2759 2706 2647 2707 2710 2652 2587 2653
8 2709 2650 2585 2651 2760 2707 2648 2708
8 2708 2648 2589 2654 2760 2707 2653 2711
8 2712 2655 2710 2761 2656 2592 2653 2711
8 2763 2713 2658 2714 2718 2664 2603 2663
8 2662 2602 2663 2717 2715 2659 2714 2764
8 2720 2666 2718 2767 2665 2605 2663 2717
8 2768 2719 2664 2718 2721 2667 2606 2666
8 2668 2608 2669 2723 2720 2666 2721 2770
8 2669 2609 2670 2724 2721 2667 2722 2771
8 2671 2611 2672 2726 2723 2669 2724 2773
8 2672 2612 2673 2727 2724 2670 2725 2774
8 2674 2614 2675 2729 2726 2672 2727 2776
8 2675 2615 2676 2730 2727 2673 2728 2777
8 2677 2617 2678 2732 2729 2675 2730 2779
8 2678 2618 2679 2733 2730 2676 2731 2780
8 2680 2620 2681 2735 2732 2678 2733 2782
8 2733 2679 2621 2681 2783 2734 2682 2736
8 2735 2681 2623 2684 2784 2736 2683 2737
8 2740 2686 2647 2707 2787 2738 2706 2759
8 2688 2628 2686 2740 2742 2687 2739 2789
8 2743 2688 2650 2709 2790 2740 2707 2760
8 2742 2687 2741 2792 2690 2629 2689 2745
8 2743 2688 2742 2793 2709 2650 2690 2746
8 2745 2689 2744 2795 2692 2631 2693 2748
8 2746 2690 2745 2796 2691 2630 2692 2747
8 2747 2692 2748 2797 2694 2633 2695 2750
8 2748 2693 2749 2798 2695 2634 2696 2751
8 2750 2695 2751 2800 2697 2636 2698 2753
8 2751 2696 2752 2801 2698 2637 2699 2754
8 2753 2698 2754 2802 2700 2639 2701 2755
8 2763 2713 2756 2804 2714 2658 2703 2757
8 2759 2706 2652 2710 2804 2756 2703 2757
8 2715 2659 2714 2764 2758 2704 2757 2805
8 2758 2704 2757 2805 2712 2655 2710 2761
8 2806 2759 2707 2760 2761 2710 2653 2711
8 2765 2716 2762 2808 2718 2664 2713 2763
8 2809 2763 2714 2764 2767 2718 2663 2717
8 2765 2716 2664 2718 2811 2766 2719 2768
8 2813 2768 2718 2767 2770 2721 2666 2720
8 2814 2769 2719 2768 2771 2722 2667 2721
8 2723 2669 2724 2773 2770 2721 2771 2816
8 2724 2670 2725 2774 2771 2722 2772 2817
8 2726 2672 2727 2776 2773 2724 2774 2819
8 2727 2673 2728 2777 2774 2725 2775 2820
8 2729 2675 2730 2779 2776 2727 2777 2822
8 2730 2676 2731 2780 2777 2728 2778 2823
8 2732 2678 2733 2782 2779 2730 2780 2825
8 2780 2731 2679 2733 2826 2781 2734 2783
8 2782 2733 2681 2735 2827 2783 2736 2784
8 2830 2785 2738 2787 2804 2756 2706 2759
8 2789 2739 2686 2740 2832 2786 2738 2787
8 2790 2740 2707 2760 2833 2787 2759 2806
8 2742 2687 2739 2789 2792 2741 2788 2835
8 2743 2688 2740 2790 2793 2742 2789 2836
8 2792 2741 2791 2838 2745 2689 2744 2795
8 2793 2742 2792 2839 2746 2690 2745 2796
8 2795 2744 2794 2841 2748 2693 2749 2798
8 2796 2745 2795 2842 2747 2692 2748 2797
8 2797 2748 2798 2843 2750 2695 2751 2800
8 2798 2749 2799 2844 2751 2696 2752 2801
8 2800 2751 2801 2845 2753 2698 2754 2802
8 2808 2762 2803 2847 2763 2713 2756 2804
8 2809 2763 2804 2848 2764 2714 2757 2805
8 2806 2759 2710 2761 2848 2804 2757 2805
8 2765 2716 2766 2811 2808 2762 2807 2850
8 2810 2765 2808 2851 2767 2718 2763 2809
8 2810 2765 2718 2767 2852 2811 2768 2813
8 2811 2766 2719 2768 2853 2812 2769 2814
8 2855 2814 2768 2813 2816 2771 2721 2770
8 2856 2815 2769 2814 2817 2772 2722 2771
8 2773 2724 2774 2819 2816 2771 2817 2858
8 2774 2725 2775 2820 2817 2772 2818 2859
8 2776 2727 2777 2822 2819 2774 2820 2861
8 2777 2728 2778 2823 2820 2775 2821 2862
8 2779 2730 2780 2825 2822 2777 2823 2864
8 2823 2778 2731 2780 2865 2824 2781 2826
8 2825 2780 2733 2782 2866 2826 2783 2827
8 2869 2828 2785 2830 2847 2803 2756 2804
8 2871 2829 2786 2832 2830 2785 2738 2787
8 2872 2830 2787 2833 2848 2804 2759 2806
8 2789 2739 2786 2832 2835 2788 2831 2874
8 2836 2789 2740 2790 2875 2832 2787 2833
8 2792 2741 2788 2835 2838 2791 2834 2877
8 2793 2742 2789 2836 2839 2792 2835 2878
8 2838 2791 2837 2880 2795 2744 2794 2841
8 2839 2792 2838 2881 2796 2745 2795 2842
8 2841 2794 2840 2882 2798 2749 2799 2844
8 2842 2795 2841 2883 2797 2748 2798 2843
8 2843 2798 2844 2884 2800 2751 2801 2845
8 2886 2846 2803 2847 2850 2807 2762 2808
8 2851 2808 2847 2887 2809 2763 2804 2848
8 2850 2807 2766 2811 2889 2849 2812 2853
8 2810 2765 2811 2852 2851 2808 2850 2890
8 2852 2811 2768 2813 2891 2853 2814 2855
8 2853 2812 2769 2814 2892 2854 2815 2856
8 2894 2856 2814 2855 2858 2817 2771 2816
8 2817 2772 2818 2859 2856 2815 2857 2895
8 2819 2774 2820 2861 2858 2817 2859 2897
8 2820 2775 2821 2862 2859 2818 2860 2898
8 2822 2777 2823 2864 2861 2820 2862 2900
8 2823 2778 2824 2865 2862 2821 2863 2901
8 2864 2823 2780 2825 2902 2865 2826 2866
8 2904 2867 2828 2869 2886 2846 2803 2847
8 2869 2828 2868 2906 2830 2785 2829 2871
8 2907 2869 2830 2872 2887 2847 2804 2848
8 2871 2829 2870 2909 2832 2786 2831 2874
8 2910 2871 2832 2875 2872 2830 2787 2833
8 2835 2788 2831 2874 2877 2834 2873 2912
8 2836 2789 2832 2875 2878 2835 2874 2913
8 2877 2834 2876 2915 2838 2791 2837 2880
8 2839 2792 2835 2878 2881 2838 2877 2916
8 2880 2837 2879 2917 2841 2794 2840 2882
8 2881 2838 2880 2918 2842 2795 2841 2883
8 2883 2841 2882 2919 2843 2798 2844 2884
8 2921 2885 2846 2886 2889 2849 2807 2850
8 2922 2886 2847 2887 2890 2850 2808 2851
8 2889 2849 2812 2853 2924 2888 2854 2892
8 2890 2850 2811 2852 2925 2889 2853 2891
8 2891 2853 2814 2855 2926 2892 2856 2894
8 2892 2854 2815 2856 2927 2893 2857 2895
8 2858 2817 2859 2897 2894 2856 2895 2929
8 2859 2818 2860 2898 2895 2857 2896 2930
8 2861 2820 2862 2900 2897 2859 2898 2932
8 2862 2821 2863 2901 2898 2860 2899 2933
8 2864 2823 2865 2902 2900 2862 2901 2934
8 2904 2867 2846 2886 2936 2903 2885 2921
8 2904 2867 2903 2936 2869 2828 2868 2906
8 2937 2904 2869 2907 2922 2886 2847 2887
8 2906 2868 2905 2939 2871 2829 2870 2909
8 2907 2869 2906 2940 2872 2830 2871 2910
8 2909 2870 2908 2942 2874 2831 2873 2912
8 2910 2871 2909 2943 2875 2832 2874 2913
8 2912 2873 2911 2945 2877 2834 2876 2915
8 2878 2835 2874 2913 2916 2877 2912 2946
8 2915 2876 2914 2947 2880 2837 2879 2917
8 2916 2877 2915 2948 2881 2838 2880 2918
8 2918 2880 2917 2949 2883 2841 2882 2919
8 2921 2885 2849 2889 2951 2920 2888 2924
8 2952 2921 2886 2922 2925 2889 2850 2890
8 2924 2888 2854 2892 2954 2923 2893 2927
8 2925 2889 2853 2891 2955 2924 2892 2926
8 2926 2892 2856 2894 2956 2927 2895 2929
8 2895 2857 2896 2930 2927 2893 2928 2957
8 2897 2859 2898 2932 2929 2895 2930 2959
8 2898 2860 2899 2933 2930 2896 2931 2960
8 2900 2862 2901 2934 2932 2898 2933 2961
8 2936 2903 2885 2921 2963 2935 2920 2951
8 2936 2903 2935 2963 2906 2868 2905 2939
8 2937 2904 2886 2922 2964 2936 2921 2952
8 2937 2904 2936 2964 2907 2869 2906 2940
8 2939 2905 2938 2966 2909 2870 2908 2942
8 2940 2906 2939 2967 2910 2871 2909 2943
8 2942 2908 2941 2969 2912 2873 2911 2945
8 2943 2909 2942 2970 2913 2874 2912 2946
8 2945 2911 2944 2971 2915 2876 2914 2947
8 2946 2912 2945 2972 2916 2877 2915 2948
8 2948 2915 2947 2973 2918 2880 2917 2949
8 2951 2920 2888 2924 2975 2950 2923 2954
8 2952 2921 2889 2925 2976 2951 2924 2955
8 2927 2893 2928 2957 2954 2923 2953 2978
8 2955 2924 2892 2926 2979 2954 2927 2956
8 2929 2895 2930 2959 2956 2927 2957 2980
8 2930 2896 2931 2960 2957 2928 2958 2981
8 2932 2898 2933 2961 2959 2930 2960 2982
8 2951 2920 2950 2975 2963 2935 2962 2984
8 2963 2935 2962 2984 2939 2905 2938 2966
8 2964 2936 2921 2952 2985 2963 2951 2976
8 2964 2936 2963 2985 2940 2906 2939 2967
8 2966 2938 2965 2987 2942 2908 2941 2969
8 2967 2939 2966 2988 2943 2909 2942 2970
8 2969 2941 2968 2989 2945 2911 2944 2971
8 2970 2942 2969 2990 2946 2912 2945 2972
8 2972 2945 2971 2991 2948 2915 2947 2973
8 2954 2923 2953 2978 2975 2950 2974 2993
8 2976 2951 2924 2955 2994 2975 2954 2979
8 2957 2928 2958 2981 2978 2953 2977 2995
8 2956 2927 2957 2980 2979 2954 2978 2996
8 2959 2930 2960 2982 2980 2957 2981 2997
8 2984 2962 2983 2999 2966 2938 2965 2987
8 2975 2950 2974 2993 2984 2962 2983 2999
8 2976 2951 2975 2994 2985 2963 2984 3000
8 2985 2963 2984 3000 2967 2939 2966 2988
8 2987 2965 2986 3001 2969 2941 2968 2989
8 2988 2966 2987 3002 2970 2942 2969 2990
8 2990 2969 2989 3003 2972 2945 2971 2991
8 2978 2953 2977 2995 2993 2974 2992 3004
8 2979 2954 2978 2996 2994 2975 2993 3005
8 2980 2957 2981 2997 2996 2978 2995 3006
8 2974 2993 2999 2983 2992 3004 3007 2998
8 2983 2999 2987 2965 2998 3007 3001 2986
8 3000 2984 2999 3008 2988 2966 2987 3002
8 2994 2975 2993 3005 3000 2984 2999 3008
8 3002 2987 3001 3009 2990 2969 2989 3003
8 2996 2978 2995 3006 3005 2993 3004 3010
8 3005 2993 3004 3010 3008 2999 3007 3011
8 3008 2999 3007 3011 3002 2987 3001 3009

CELL_TYPES 1910
12
12
12
12
12
12
12
12
12
12
12
12
12
12
12
12
12
12
12
12
12
12
12
12
12
12
12
12
12
12
12
12
12
12
12
12
12
12
12
12
12
12
12
12
12
12
12
12
12
12
12
12
12
12
12
12
12
12
12
12
12
12
12
12
12
12
12
12
12
12
12
12
12
12
12
12
12
12
12
12
12
12
12
12
12
12
12
12
12
12
12
12
12
12
12
12
12
12
12
12
12
12
12
12
12
12
12
12
12
12
12
12
12
12
12
12
12
12
12
12
12
12
12
12
12
12
12
12
12
12
12
12
12
12
12
12
12
12
12
12
12
12
12
12
12
12
12
12
12
12
12
12
12
12
12
12
12
12
12
12
12
12
12
12
12
12
12
12
12
12
12
12
12
12
12
12
12
12
12
12
12
12
12
12
12
12
12
12
12
12
12
12
12
12
12
12
12
12
12
12
12
12
12
12
12
12
12
12
12
12
12
12
12
12
12
12
12
12
12
12
12
12
12
12
12
12
12
12
12
12
12
12
12
12
12
12
12
12
12
12
12
12
12
12
12
12
12
12
12
12
12
12
12
12
12
12
12
12
12
12
12
12
12
12
12
12
12
12
12
12
12
12
12
12
12
12
12
12
12
12
12
12
12
12
12
12
12
12
12
12
12
12
12
12
12
12
12
12
12
12
12
12
12
12
12
12
12
12
12
12
12
12
12
12
12
12
12
12
12
12
12
12
12
12
12
12
12
12
12
12
12
12
12
12
12
12
12
12
12
12
12
12
12
12
12
12
12
12
12
12
12
12
12
12
12
12
12
12
12
12
12
12
12
12
12
12
12
12
12
12
12
12
12
12
12
12
12
12
12
12
12
12
12
12
12
12
12
12
12
12
12
12
12
12
12
12
12
12
12
12
12
12
12
12
12
12
12
12
12
12
12
12
12
12
12
12
12
12
12
12
12
12
12
12
12
12
12
12
12
12
12
12
12
12
12
12
12
12
12
12
12
12
12
12
12
12
12
12
12
12
12
12
12
12
12
12
12
12
12
12
12
12
12
12
12
12
12
12
12
12
12
12
12
12
12
12
12
12
12
12
12
12
12
12
12
12
12
12
12
12
12
12
12
12
12
12
12
12
12
12
12
12
12
12
12
12
12
12
12
12
12
12
12
12
12
12
12
12
12
12
12
12
12
12
12
12
12
12
12
12
12
12
12
12
12
12
12
12
12
12
12
12
12
12
12
12
12
12
12
12
12
12
12
12
12
12
12
12
12
12
12
12
12
12
12
12
12
12
12
12
12
12
12
12
12
12
12
12
12
12
12
12
12
12
12
12
12
12
12
12
12
12
12
12
12
12
12
12
12
12
12
12
12
12
12
12
12
12
12
12
12
12
12
12
12
12
12
12
12
12
12
12
12
12
12
12
12
12
12
12
12
12
12
12
12
12
12
12
12
12
12
12
12
12
12
12
12
12
12
12
12
12
12
12
12
12
12
12
12
12
12
12
12
12
12
12
12
12
12
12
12
12
12
12
12
12
12
12
12
12
12
12
12
12
12
12
12
12
12
12
12
12
12
12
12
12
12
12
12
12
12
12
12
12
12
12
12
12
12
12
12
12
12
12
12
12
12
12
12
12
12
12
12
12
12
12
12
12
12
12
12
12
12
12
12
12
12
12
12
12
12
12
12
12
12
12
12
12
12
12
12
12
12
12
12
12
12
12
12
12
12
12
12
12
12
12
12
12
12
12
12
12
12
12
12
12
12
12
12
12
12
12
12
12
12
12
12
12
12
12
12
12
12
12
12
12
12
12
12
12
12
12
12
12
12
12
12
12
12
12
12
12
12
12
12
12
12
12
12
12
12
12
12
12
12
12
12
12
12
12
12
12
12
12
12
12
12
12
12
12
12
12
12
12
12
12
12
12
12
12
12
12
12
12
12
12
12
12
12
12
12
12
12
12
12
12
12
12
12
12
12
12
12
12
12
12
12
12
12
12
12
12
12
12
12
12
12
12
12
12
12
12
12
12
12
12
12
12
12
12
12
12
12
12
12
12
12
12
12
12
12
12
12
12
12
12
12
12
12
12
12
12
12
12
12
12
12
12
12
12
12
12
12
12
12
12
12
12
12
12
12
12
12
12
12
12
12
12
12
12
12
12
12
12
12
12
12
12
12
12
12
12
12
12
12
12
12
12
12
12
12
12
12
12
12
12
12
12
12
12
12
12
12
12
12
12
12
12
12
12
12
12
12
12
12
12
12
12
12
12
12
12
12
12
12
12
12
12
12
12
12
12
12
12
12
12
12
12
12
12
12
12
12
12
12
12
12
12
12
12
12
12
12
12
12
12
12
12
12
12
12
12
12
12
12
12
12
12
12
12
12
12
12
12
12
12
12
12
12
12
12
12
12
12
12
12
12
12
12
12
12
12
12
12
12
12
12
12
12
12
12
12
12
12
12
12
12
12
12
12
12
12
12
12
12
12
12
12
12
12
12
12
12
12
12
12
12
12
12
12
12
12
12
12
12
12
12
12
12
12
12
12
12
12
12
12
12
12
12
12
12
12
12
12
12
12
12
12
12
12
12
12
12
12
12
12
12
12
12
12
12
12
12
12
12
12
12
12
12
12
12
12
12
12
12
12
12
12
12
12
12
12
12
12
12
12
12
12
12
12
12
12
12
12
12
12
12
12
12
12
12
12
12
12
12
12
12
12
12
12
12
12
12
12
12
12
12
12
12
12
12
12
12
12
12
12
12
12
12
12
12
12
12
12
12
12
12
12
12
12
12
12
12
12
12
12
12
12
12
12
12
12
12
12
12
12
12
12
12
12
12
12
12
12
12
12
12
12
12
12
12
12
12
12
12
12
12
12
12
12
12
12
12
12
12
12
12
12
12
12
12
12
12
12
12
12
12
12
12
12
12
12
12
12
12
12
12
12
12
12
12
12
12
12
12
12
12
12
12
12
12
12
12
12
12
12
12
12
12
12
12
12
12
12
12
12
12
12
12
12
12
12
12
12
12
12
12
12
12
12
12
12
12
12
12
12
12
12
12
12
12
12
12
12
12
12
12
12
12
12
12
12
12
12
12
12
12
12
12
12
12
12
12
12
12
12
12
12
12
12
12
12
12
12
12
12
12
12
12
12
12
12
12
12
12
12
12
12
12
12
12
12
12
12
12
12
12
12
12
12
12
12
12
12
12
12
12
12
12
12
12
12
12
12
12
12
12
12
12
12
12
12
12
12
12
12
12
12
12
12
12
12
12
12
12
12
12
12
12
12
12
12
12
12
12
12
12
12
12
12
12
12
12
12
12
12
12
12
12
12
12
12
12
12
12
12
12
12
12
12
12
12
12
12
12
12
12
12
12
12
12
12
12
12
12
12
12
12
12
12
12
12
12
12
12
12
12
12
12
12
12
12
12
12
12
12
12
12
12
12
12
12
12
12
12
12
12
12
12
12
12
12
12
12
12
12
12
12
12
12
12
12
12
12
12
12
12
12
12
12
12
12
12
12
12
12
12
12
12
12
12
12
12
12
12
12
12
12
12
12
12
12
12
12
12
12
12
12
12
12
12
12
12
12
12
12
12
12
12
12
12
12
12
12
12
12
12
12
12
12
12
12
12
12
12
12
12
12
12
12
12
12
12
12
12
12
12
12
12
12
12
12
12
12
12
12
12
12
12
12
12
12
12
12
12
12
12
12
12
12
12
12
12
12
12
12
12
12
12
12
12
12
12
12
12
12
12
12
12
12
12
12
12
12
12
12
12
12
12
12
12
12
12
12
12
12
12
12
12
12
12
12
12
12
12
12
12
12
12
12
12
12
12
12
12
12
12
12
12
12
12
12
12
12
12
12
12
12
12
12
12
12
12
12
12
12
12
12
12
12
12
12
12
12
12
12
12
12
12
12
12
12
12
12
12
12
12
12
12
12
12
12
12
12
12
12
12
12
12
12
12
12
12
12
12
12
12
12
12
12
12
12
12
12
12
12
12
12
12
12
12
12
12
12
12
12
12
12
12
12
12
12
12
12
12
12
12
12
12
12
12
12
12
12
12
12
12
12
12
12
12
12
12
12
12
12
12
12
12
12
12
12
12
12
12
12
12
12
12
12
12
12
12
12
12
12
12
12
12
12
12
12
12
12
12
12
12
12
12
12
12
12
12
12
12
12
12
12
12
12
12
12
12
12
12
12
12
12
12
12
12
12
12
12
12
12
12
12
12
12
12
12
12
12
12
12
12
12
12
12
12
12
12
12
12
12
12
12
12
12
12
12
12
12
12
12
12
12
12
12
12
12
12
12
12
12
12
12
12
12

POINT_DATA 3012
SCALARS Jp_lamdaP float 4
LOOKUP_TABLE default
0.999689 1 1 0.999689
1 1 1 1
0.999699 1 1 0.999699
0.999636 1 1 0.999636
0.999691 1 1 0.999691
0.999672 1 1 0.999672
0.998888 1 1 0.998888
1 1 1 1
1 1 1 1
1 1 1 1
0.999765 1 1 0.999765
0.999003 1 1 0.999003
0.999627 1 1 0.999627
0.999638 1 1 0.999638
0.9997 1 1 0.9997
0.999661 1 1 0.999661
0.999679 1 1 0.999679
0.999707 1 1 0.999707
0.998894 1 1 0.998889
1 1 1 1
0.999616 1 1 0.999616
0.999668 1 1 0.999668
0.998762 1 1 0.998762
0.998865 1 1 0.998865
0.999679 1 1 0.999679
0.998905 1 1 0.998905
1.0112 1.01357 1 0.997661
1 1 1 1
0.999836 1 1 0.999836
0.999849 1 1 0.999849
1 1 1 1
0.999012 1 1 0.999012
0.999664 1 1 0.999664
0.999691 1 1 0.999691
0.999096 1.00007 1 0.99903
1 1 1 1
0.999114 1 1 0.999114
0.999104 1 1 0.999104
1.00473 1.0071 1 0.997646
1 1 1 1
1 1 1 1
0.999819 1 1 0.999819
1 1 1 1
0.999642 1 1 0.999642
0.998691 1 1 0.998691
1 1 1 1
0.998931 1 1 0.998931
0.999683 1 1 0.999683
0.999718 1 1 0.999718
0.99968 1 1 0.99968
0.9989 1.00001 1 0.998895
0.999803 1 1 0.999803
0.99964 1 1 0.99964
0.999693 1 1 0.999693
0.999691 1 1 0.999691
0.99876 1 1 0.99876
0.998908 1 1 0.998908
0.998866 1 1 0.998866
1.01162 1.014 1 0.997646
1 1 1 1
0.999616 1 1 0.999616
0.998953 1 1 0.998953
0.998731 1 1 0.998731
0.998816 1 1 0.998816
1.01461 1.01727 1 0.99739
1.0127 1.01523 1 0.997506
0.999744 1 1 0.999744
0.999009 1 1 0.999009
1.00868 1.01095 1 0.997754
1.0299 1.03323 1 0.996778
1 1 1 1
1 1 1 1
1 1 1 1
0.99902 1 1 0.99902
1 1 1 1
1 1 1 1
0.998902 1.00004 1 0.998862
0.999915 1 1 0.999915
0.998967 1 1 0.998967
0.999233 1 1.00002 0.999213
1.00352 1.00589 1 0.997643
1 1 1 1
1.00109 1 1.0013 0.999788
0.998805 1.00002 1 0.998786
0.998916 1.00002 1 0.998896
1.01561 1.01844 1 0.99722
0.999787 1 1.00033 0.999456
1.00928 1.01176 1 0.997545
1.00087 1.00308 1 0.997794
1.01179 1.0149 1 0.996937
1 1 1 1
1 1 1 1
1 1 1 1
1 1 1 1
1 1 1 1
0.999819 1 1 0.999819
0.998814 1 1 0.998814
0.999821 1 1 0.999821
0.998843 1 1 0.998843
1 1 1 1
0.998702 1 1 0.998702
0.998921 1 1 0.998921
1.0144 1.01743 1 0.997021
0.998966 1 1 0.998966
1.01711 1.02011 1 0.997061
0.999649 1 1 0.999649
0.999661 1 1 0.999661
0.999703 1 1 0.999703
0.99971 1 1 0.99971
0.998759 1 1 0.998759
0.99887 1 1 0.99887
0.998914 1 1 0.998914
1.01202 1.01442 1 0.997632
1 1 1 1
0.999638 1 1 0.999638
0.99873 1 1 0.99873
0.998726 1 1 0.998726
0.999872 1 1 0.999872
0.999084 1 1 0.999084
0.998816 1 1 0.998816
1.0146 1.01729 1 0.997352
1.00936 1.01165 1 0.997736
1.01299 1.01549 1 0.997534
1.02983 1.03315 1 0.996785
0.998725 1 1 0.998725
0.998725 1 1 0.998725
1.0132 1.01599 1 0.997256
1.01459 1.01735 1 0.997294
1.01441 1.01705 1 0.997402
1.03878 1.04223 1 0.996699
1 1 1 1
1.03288 1.03625 1 0.996748
0.999459 1 1.00024 0.999219
1.00432 1.0066 1 0.997738
1.0264 1.02969 1 0.996807
1.03663 1.04012 1 0.996639
1.0013 1 1.00177 0.999536
1.00646 1 1.00799 0.998487
1 1 1 1
1 1 1 1
0.998905 1.00004 1 0.998868
1 1 1 1
0.999304 1 1.00013 0.999172
0.998973 1 1 0.998973
1.0024 1.00477 1 0.997639
1 1 1 1
1.00065 1 1.00084 0.999811
0.998954 1.00006 1 0.998893
0.999007 1.00001 1 0.998995
1.01502 1.01785 1 0.997221
1.00005 1 1.00065 0.999408
1.00801 1.01048 1 0.997548
1.00016 1.00236 1.00001 0.997793
1.01283 1.01595 1 0.996924
1.00116 1 1.00156 0.999606
0.999904 1 1 0.999904
1.00325 1 1.00448 0.998773
1.0172 1.02014 1 0.997117
1.01309 1.01575 1 0.997382
1.03623 1.03975 1 0.996614
0.99954 1.00091 1.00056 0.998071
1.0217 1.0249 1 0.996876
1.00808 1.01051 1.00057 0.997028
1.02146 1.02477 1 0.996764
1 1 1 1
1 1 1 1
1 1 1 1
1.00056 1 1.00088 0.999673
1 1 1 1
1 1 1 1
1 1 1 1
0.998754 1 1 0.998754
0.998723 1 1 0.998723
1 1 1 1
1 1 1 1
0.998703 1 1 0.998703
0.998833 1 1 0.998833
1.01491 1.01794 1 0.997021
0.998778 1.00001 1 0.998772
1.01729 1.02029 1 0.99706
0.998699 1 1 0.998699
1.01312 1.01618 1 0.996986
1.01595 1.01895 1 0.997052
1.04368 1.04722 1 0.996616
1.01751 1.02049 1 0.997071
1.04505 1.04859 1 0.996624
1 1 1 1
0.999661 1 1 0.999661
0.998484 1 1 0.998484
0.998722 1 1 0.998722
1 1 1 1
0.999161 1 1 0.999161
0.998818 1 1 0.998818
1.01455 1.01728 1 0.997314
1.0133 1.01578 1 0.997562
1.01006 1.01237 1 0.997718
1.02974 1.03305 1 0.996792
0.998722 1 1 0.998722
0.99872 1 1 0.99872
1.01309 1.016 1 0.997132
1.01463 1.01736 1 0.997318
1 1 1 1
0.999364 1 1.00011 0.999259
1.00566 1.00786 1 0.997814
1.01436 1.01701 1 0.997398
1.03859 1.04205 1 0.996681
1.02582 1.02911 1 0.9968
1.03311 1.03644 1 0.996784
1.03624 1.03972 1 0.996648
1.00121 1 1.00168 0.999525
1.00483 1 1.00635 0.998489
1.01275 1.01579 1 0.997007
1.0135 1.01627 1 0.997282
1.0408 1.04427 1 0.996686
1.03908 1.04257 1 0.996653
1.03606 1.03941 1 0.996776
1.04675 1.05015 0.999998 0.996757
1.00052 1 1.00114 0.999379
1.03903 1.04245 1 0.996711
1.00048 1.00246 1.00011 0.997923
1.01894 1.02211 1 0.996891
1.03415 1.03768 1 0.996592
1.03726 1.04058 1 0.996812
1.00308 1.00012 1.00471 0.998264
1.00338 1 1.00462 0.998768
1.00328 1.00002 1.00546 0.997814
0.998863 1.00005 1 0.998814
1 1 1 1
1.00014 1 1.00031 0.999834
0.998933 1 1 0.998929
1.01437 1.0172 1 0.997222
1.0002 1 1.00079 0.999412
0.999161 1.00133 1.00004 0.997792
1.00673 1.00921 1 0.997551
1.01391 1.01705 1 0.996911
1.00097 1 1.00135 0.999627
0.99992 1 1 0.99992
1.0038 1 1.00503 0.998774
1.01678 1.01972 1 0.997115
1.0121 1.01475 1 0.997386
1.03634 1.03987 1 0.99661
0.998988 1.00043 1.00048 0.998075
1.02288 1.02608 1 0.996881
1.00723 1.00976 1.00047 0.997023
1.02218 1.0255 1 0.996757
0.999959 1 1 0.999959
1.00136 1.0001 1.00287 0.998395
1.00184 1 1.00268 0.999156
1.0037 1 1.00561 0.998099
1.04058 1.04416 1 0.996575
1.03036 1.03373 1 0.996741
1.0409 1.04451 1 0.996537
1.00322 1.00539 1.00049 0.997353
1.0287 1.03204 1 0.996764
1.01744 1.0192 1.00158 0.996702
1.0298 1.03325 1 0.996665
0.999696 1 1 0.999696
0.999994 1 1 0.999994
1 1 1 1
1 1 1 1
1 1 1 1
0.999854 1 1.00006 0.999797
1 1 1 1
1.00107 1 1.00141 0.999659
1 1 1 1
0.998815 1.00004 1 0.998773
0.998742 1 1 0.998742
1.01759 1.02059 1 0.997059
1.0154 1.01843 1 0.997021
0.998705 1 1 0.998705
1 1 1 1
0.998698 1 1 0.998698
1.01345 1.01652 1 0.996987
1.01637 1.01938 1 0.997052
1.04298 1.04652 1 0.996614
1.01757 1.02056 1 0.997069
1.04515 1.0487 1 0.996621
1.01258 1.01564 1 0.996983
1.04236 1.04593 1 0.996586
1.04442 1.04795 1 0.996633
1.05048 1.05517 0.998672 0.996877
1.04454 1.0481 1 0.996595
1.05251 1.05625 0.999676 0.996787
0.99872 1 1 0.99872
0.998714 1 1 0.998714
1.01299 1.01603 1 0.997009
1.01469 1.0174 1 0.997341
1 1 1 1
0.999299 1 1 0.999299
1.00695 1.00908 1 0.997889
1.01431 1.01696 1 0.997393
1.03845 1.04192 1 0.996663
1.03329 1.03659 1 0.996819
1.02526 1.02856 1 0.996792
1.03599 1.03947 1 0.996657
1.00131 1 1.00179 0.999513
1.00397 1 1.00549 0.998491
1.01265 1.01571 1 0.996987
1.01353 1.0163 1 0.997277
1.04073 1.04417 1 0.996705
1.03913 1.0426 1 0.996667
1.00022 1 1.00085 0.999369
1.00161 1.00362 1.00007 0.99792
1.01855 1.02169 1 0.996925
1.03635 1.03972 1 0.996761
1.04698 1.05037 0.999976 0.996795
1.03374 1.03729 1 0.99657
1.03891 1.04234 1 0.996716
1.03749 1.04081 1 0.99681
1.00274 1.00017 1.00431 0.998266
1.00392 1.00017 1.00594 0.997817
1.00391 1 1.00515 0.998766
1.04062 1.04411 1 0.996651
1.04006 1.04348 1 0.996721
1.05038 1.05476 0.999027 0.996819
1.04811 1.05177 0.999737 0.996783
1.04201 1.04538 1 0.996783
1.04329 1.04869 0.997768 0.997075
0.999213 1.00051 1.0006 0.998107
1.03958 1.04281 0.999969 0.996935
1.00782 1.01065 1 0.997204
1.02534 1.02895 1 0.996485
1.03363 1.03722 1 0.996534
1.03237 1.03542 1 0.997057
1.0013 1 1.00227 0.999033
0.999078 1.00069 1.00067 0.997719
1.00811 1 1.01016 0.997973
1.00188 1.00165 1.00266 0.997571
1.01644 1.01938 1 0.997113
0.999937 1 1 0.999937
1.00092 1 1.00127 0.999649
1.00479 1 1.00602 0.998775
1.01113 1.01377 1 0.99739
1.03648 1.04001 1 0.996605
0.998564 1.00008 1.00041 0.99808
1.0064 1.00908 1.00033 0.997017
1.02404 1.02724 1 0.996886
1.02222 1.02556 1 0.996749
0.999968 1 1 0.999968
1.00222 1.00004 1.00379 0.998396
1.00137 1 1.00221 0.999165
1.00436 1 1.00628 0.998093
1.04045 1.04404 1 0.99657
1.03058 1.03395 1 0.996739
1.04051 1.04413 1 0.996534
1.00172 1.00392 1.00045 0.99736
1.02841 1.03175 1 0.996767
1.01713 1.01875 1.00173 0.99669
1.02958 1.03294 1 0.996744
0.999985 1 1 0.999985
0.999921 1 1.00049 0.999427
1.00083 1.00119 1.00188 0.99776
1.00436 1 1.00592 0.998451
1.00108 1.00015 1.00315 0.997789
1.04547 1.04906 1 0.996582
1.03476 1.03827 1 0.996621
1.0364 1.03989 1 0.99665
1.007 1.00805 1.00199 0.996969
1.02724 1.03059 1 0.996753
1.01698 1.01972 1.00086 0.996455
0.999656 1 1 0.999656
0.999153 1 1 0.999153
0.999727 1 1 0.999727
0.999698 1 1 0.999698
0.999998 1 1 0.999998
0.999995 1 1 0.999995
1 1 1 1
1 1 1 1
1 1 1 1
0.999904 1 1 0.999904
1 1 1 1
1.00015 1 1.00037 0.99978
1 1 1 1
1.00116 1 1.00152 0.999645
1 1 1 1
1.01754 1.02054 1 0.997066
1.01674 1.01974 1 0.997051
1.04498 1.04853 1 0.996618
1.04226 1.0458 1 0.996613
1.01385 1.01692 1 0.996987
0.998698 1 1 0.998698
1.01271 1.01577 1 0.996983
1.04203 1.0456 1 0.996586
1.04398 1.04751 1 0.99663
1.05077 1.05575 0.998376 0.996895
1.04385 1.04742 1 0.996591
1.05213 1.05579 0.999741 0.996784
1.04104 1.04461 1 0.996578
1.04961 1.05524 0.997764 0.996899
1.05212 1.05628 0.999208 0.996849
1.0473 1.05518 0.995406 0.997112
1.04875 1.05223 1 0.99669
1.04889 1.05561 0.996495 0.997127
1.01259 1.01567 1 0.996968
1.01358 1.01635 1 0.997272
1.04068 1.0441 1 0.996724
1.03915 1.04261 1 0.996681
0.999918 1 1.00056 0.999358
1.00268 1.00474 1.00003 0.997918
1.01849 1.0216 1 0.996958
1.03666 1.04005 1 0.996746
1.04723 1.05059 0.999968 0.996834
1.03886 1.04228 1 0.996721
1.03317 1.03675 1 0.996548
1.0377 1.04102 1 0.996808
1.00207 1.00024 1.00357 0.998269
1.00443 1.00033 1.00629 0.99782
1.0042 1 1.00544 0.998764
1.04071 1.04423 1 0.996624
1.04026 1.04369 1 0.996718
1.04988 1.05441 0.998836 0.99686
1.04828 1.052 0.99969 0.99677
0.999856 1.00101 1.00074 0.998105
1.00905 1.01188 1 0.997199
1.02407 1.0276 1.00003 0.996529
1.04215 1.04555 1 0.996755
1.04303 1.04865 0.997503 0.997124
1.03419 1.03783 1 0.996497
1.03954 1.04275 0.999978 0.996938
1.03312 1.03614 1 0.997091
1.00024 1.00135 1.00117 0.99772
1.00197 1.00167 1.00277 0.997542
1.00186 1 1.00283 0.99903
1.00753 1 1.00954 0.998012
1.04987 1.05455 0.998715 0.996848
1.05036 1.05463 0.999138 0.996818
1.04374 1.05147 0.995611 0.997026
1.04314 1.05146 0.994926 0.997148
1.04123 1.04498 0.999346 0.997061
1.03975 1.04762 0.995165 0.997307
1.00105 1.00355 1 0.997513
1.03423 1.03829 0.998788 0.997291
1.01311 1.0164 1 0.996762
1.02351 1.02715 1.00018 0.996281
1.03516 1.03878 1 0.996511
1.03394 1.03692 1 0.997126
0.999677 1 1.00043 0.999249
1.00702 1 1.00879 0.998252
1.00044 1.003 1 0.99745
1.00414 1 1.00645 0.997707
1.00214 1.00251 1.00217 0.997465
0.999977 1 1 0.999977
1.04026 1.04384 1 0.996564
1.00054 1 1.00137 0.999174
1.00301 1.00003 1.00459 0.998397
1.00492 1 1.00684 0.998086
1.03079 1.03417 1 0.996738
1.04016 1.04378 1 0.996531
1.00037 1.00251 1.00051 0.997366
1.01803 1.01945 1.00193 0.996678
1.02825 1.03158 1 0.996769
1.02989 1.03317 1 0.996822
0.999988 1 1 0.999988
0.999703 1 1.00027 0.999436
0.999915 1.00082 1.00134 0.997763
1.00537 1 1.00693 0.99845
1.00147 1.0001 1.00361 0.997774
1.04537 1.04896 1 0.996576
1.03468 1.03819 1 0.99662
1.03643 1.03993 1 0.996639
1.00696 1.00787 1.00213 0.996973
1.02964 1.033 1 0.996749
1.0172 1.01982 1.00096 0.996477
0.999579 1 1 0.999579
1.00098 1 1.00219 0.998795
1.00085 1.00296 1.00048 0.997421
1.00614 1 1.00807 0.99808
1.00109 1.00133 1.00203 0.997727
1.04205 1.04543 1 0.996769
1.03086 1.0343 1 0.99667
1.03572 1.03898 1 0.996857
1.00306 1.00249 1.00379 0.996787
1.0155 1.01916 1 0.996403
0.999659 1 1 0.999659
0.999076 1 1 0.999076
0.999128 1 1 0.999128
0.998878 1 1 0.998878
0.999172 1 1 0.999172
0.999743 1 1 0.999743
0.999729 1 1 0.999729
1 1 1 1
0.9997 1 1 0.9997
0.999998 1 1 0.999998
1 1 1 1
0.999996 1 1 0.999996
1 1 1 1
1 1 1 1
0.999972 1 1 0.999972
0.999916 1 1.00003 0.999885
1 1 1 1
1 1 1 1
1.0005 1 1.00073 0.999764
1 1 1 1
1.0433 1.04687 1 0.996587
1.04376 1.04729 1 0.996628
1.05195 1.05555 0.999807 0.996782
1.05111 1.05639 0.998089 0.996913
1.04161 1.04517 1 0.996586
1.01276 1.01583 1 0.996982
1.041 1.04458 1 0.996579
1.04953 1.05509 0.99783 0.996894
1.05233 1.05641 0.99929 0.996849
1.04649 1.05491 0.994865 0.997143
1.04949 1.05299 1 0.996683
1.04882 1.05551 0.996497 0.997149
1.04965 1.05484 0.998208 0.996868
1.04518 1.05353 0.994981 0.997086
1.04741 1.05596 0.994702 0.997187
1.04554 1.05643 0.992399 0.997268
1.04755 1.05149 0.999277 0.996974
1.04572 1.05595 0.992933 0.997358
1.04069 1.04424 1 0.996598
1.04043 1.04385 1 0.996716
1.04936 1.05404 0.998647 0.9969
1.04833 1.05213 0.999628 0.996756
1.00055 1.00157 1.00088 0.998102
1.00972 1.01257 1 0.997194
1.02252 1.02585 1.00018 0.996573
1.04225 1.04567 1 0.996727
1.04273 1.04861 0.997214 0.997174
1.03942 1.04262 0.999987 0.996941
1.03472 1.0384 1 0.996459
1.03322 1.0362 1 0.997126
1.00136 1.00185 1.00179 0.997721
1.00189 1.00149 1.0029 0.997512
1.00229 1 1.00327 0.999026
1.00653 1 1.00849 0.998052
1.04966 1.05432 0.998726 0.996847
1.04993 1.05408 0.999269 0.996796
1.04391 1.05174 0.995489 0.997058
1.04365 1.0515 0.995391 0.99713
1.00197 1.00447 1 0.997505
1.01161 1.01482 1.00003 0.996805
1.02384 1.02727 1.00039 0.99627
1.04113 1.04471 0.999558 0.997013
1.03869 1.04691 0.994778 0.997365
1.03198 1.03561 1 0.996496
1.03516 1.03915 0.998864 0.997293
1.03448 1.0374 1 0.997184
1.00045 1.003 1 0.997448
1.00188 1.00297 1.00146 0.997464
1.00494 1.00021 1.00704 0.997701
1.00005 1 1.00084 0.999212
1.00652 1 1.00824 0.998289
1.0439 1.05264 0.994605 0.997073
1.04412 1.05314 0.994317 0.997104
1.0394 1.05134 0.991269 0.997351
1.03554 1.04359 0.994893 0.997373
1.004 1.00683 1 0.997189
1.03915 1.04329 0.998558 0.99747
1.00726 1.01049 1.00029 0.996508
1.02067 1.02417 1.00051 0.996073
1.02927 1.03289 1 0.996494
0.999405 1 1 0.999405
1.00313 1 1.00454 0.998598
1.00577 1 1.00779 0.998003
1.002 1.00467 1 0.997346
1.00382 1 1.0064 0.997433
1.00205 1.00351 1.00123 0.997321
0.999991 1 1 0.999991
0.999496 1 1.00005 0.999446
1.04527 1.04887 1 0.99657
1.00651 1 1.00807 0.998449
0.998827 1.00032 1.00074 0.997765
1.00165 1 1.0039 0.997758
1.03445 1.03796 1 0.996618
1.03633 1.03984 1 0.996627
1.00633 1.00707 1.00229 0.996978
1.01639 1.01918 1.00077 0.996498
1.03196 1.03533 1 0.996745
0.999585 1 1 0.999585
1.00083 1 1.00204 0.998799
1.0006 1.00278 1.00041 0.997419
1.00732 1 1.00927 0.998074
1.00092 1.00146 1.00174 0.997728
1.04203 1.04541 1 0.996762
1.03128 1.03474 1 0.996658
1.03561 1.03885 1 0.996883
1.00403 1.00404 1.00324 0.996749
1.01436 1.01799 1.00006 0.996374
0.999033 1 1.00001 0.999018
1.00667 1 1.00832 0.998362
1.00227 1.00299 1.002 0.997292
1.00599 1.00154 1.00661 0.997846
1.00433 1.00574 1.001 0.997605
1.04119 1.04575 0.998382 0.997253
1.03038 1.03393 1 0.996569
1.03243 1.03566 1 0.996881
1.00586 1.00493 1.00433 0.996616
1.00577 1.00962 1 0.996185
0.999661 1 1 0.999661
0.999094 1 1 0.999094
0.9988 1 1 0.9988
0.999103 1 1 0.999103
0.999171 1 1 0.999171
0.998848 1 1 0.998848
0.998744 1 1 0.998744
0.998802 1 1.00001 0.998793
0.999187 1 1 0.999187
0.999737 1 1 0.999737
0.999743 1 1 0.999743
1 1 1 1
0.99973 1 1 0.99973
1 1 1 1
1 1 1 1
0.999999 1 1 0.999999
1 1 1 1
1 1 1 1
0.999996 1 1 0.999996
0.999958 1 1 0.999958
1 1 1 1
1.00008 1 1.00021 0.999866
1 1 1 1
1 1 1 1
1.0502 1.0537 1 0.996676
1.05232 1.05631 0.999368 0.996849
1.04872 1.05538 0.996515 0.997172
1.04563 1.0546 0.994305 0.997174
1.04949 1.05497 0.997913 0.996888
1.04111 1.04468 1 0.996579
1.04959 1.05468 0.998323 0.996849
1.04573 1.05366 0.995384 0.997079
1.04698 1.05552 0.994726 0.997171
1.04456 1.056 0.991867 0.99728
1.04712 1.05085 0.999474 0.996975
1.04392 1.0549 0.992168 0.997398
1.04584 1.05345 0.995707 0.997061
1.04582 1.05753 0.991648 0.997264
1.04574 1.05811 0.990917 0.997369
1.04134 1.05196 0.992454 0.997426
1.04952 1.05417 0.998738 0.996847
1.04961 1.05364 0.999401 0.996775
1.04413 1.05202 0.995393 0.997091
1.04426 1.05165 0.995845 0.997113
1.00327 1.00579 1 0.997497
1.01067 1.01386 1 0.996849
1.02415 1.02739 1.00058 0.99626
1.04106 1.04446 0.999786 0.996965
1.03758 1.04614 0.994379 0.997422
1.03641 1.04033 0.998928 0.997294
1.02958 1.03322 1 0.996481
1.03652 1.03939 1 0.997242
1.00086 1.00342 1 0.997447
1.00217 1.00403 1.00069 0.997463
1.0064 1.00039 1.00833 0.997694
1.00038 1 1.0012 0.999176
1.00631 1 1.00799 0.998327
1.04441 1.05308 0.99467 0.997075
1.04456 1.05357 0.994331 0.997099
1.0392 1.05058 0.991799 0.997342
1.00424 1.00707 1 0.997183
1.00782 1.01105 1.00026 0.996551
1.01933 1.02258 1.00076 0.996061
1.03608 1.04385 0.99518 0.997359
1.03181 1.03533 1 0.996599
1.03569 1.04009 0.998324 0.997438
0.999437 1 1 0.999437
1.00254 1.00521 1 0.997336
1.00065 1.00269 1.00052 0.99745
1.00524 1.0005 1.00733 0.997423
1.00601 1 1.008 0.998026
1.00314 1 1.00458 0.998563
1.04419 1.05568 0.991941 0.997154
1.04257 1.05763 0.988451 0.997275
1.03307 1.04888 0.98746 0.997435
1.03447 1.04653 0.990874 0.997576
1.00486 1.0079 1 0.996991
1.03072 1.03406 0.999717 0.997044
1.00389 1.00618 1.00165 0.996092
1.01098 1.01408 1.00104 0.995908
0.999656 1 1 0.999656
0.999922 1 1.00104 0.99888
1.00406 1 1.00581 0.998262
1.00596 1 1.00838 0.997598
1.00278 1.00443 1.0012 0.997162
1.00704 1.00153 1.00838 0.997141
0.99959 1 1 0.99959
1.00066 1 1.00185 0.998803
1.04223 1.04562 1 0.996755
1.00848 1 1.01043 0.998068
1.00037 1.0027 1.00027 0.997416
1.00039 1.00114 1.00152 0.99773
1.03194 1.03541 1 0.996647
1.0358 1.03901 1 0.996909
1.00532 1.00589 1.00273 0.99671
1.01327 1.01672 1.00027 0.996345
0.999021 1 1 0.999021
1.00673 1 1.00839 0.998355
1.00274 1.00346 1.00198 0.997301
1.00518 1.00102 1.00632 0.997855
1.00439 1.00624 1.00048 0.997684
1.04219 1.0469 0.998192 0.997298
1.02996 1.03348 1 0.996589
1.03399 1.03715 1 0.996954
1.00578 1.00463 1.00458 0.996581
1.00612 1.01001 1.00003 0.996117
0.999441 1 1.00075 0.99869
1.00715 1 1.00919 0.997977
1.00677 1.00582 1.00378 0.997174
1.00382 1.00474 1.00161 0.997487
1.03903 1.05993 0.982685 0.997553
1.03532 1.03907 0.999054 0.997335
1.01847 1.02226 1 0.996289
1.00827 1.00782 1.00426 0.996199
0.999113 1 1 0.999113
0.998813 1 1 0.998813
0.998736 1 1 0.998736
0.999169 1 1 0.999169
0.998818 1 1 0.998818
0.999185 1 1 0.999185
0.998745 1 1 0.998745
0.998824 1 1.00002 0.998805
0.998757 1 1 0.998757
0.998767 1 1.00013 0.998632
0.998755 1 1 0.998755
0.999167 1 1 0.999167
0.999712 1 1 0.999712
0.999736 1 1 0.999736
1 1 1 1
0.999743 1 1 0.999743
1 1 1 1
1 1 1 1
1 1 1 1
1 1 1 1
1 1 1 1
1 1 1 1
0.999991 1 1 0.999991
1 1 1 1
0.999943 1 1 0.999943
1 1 1 1
1 1 1 1
1.04658 1.05009 0.999684 0.996976
1.04662 1.05517 0.994725 0.997156
1.0422 1.05393 0.991405 0.997439
1.04366 1.05564 0.991331 0.997291
1.04629 1.05381 0.99578 0.997072
1.04945 1.05446 0.998413 0.996829
1.0456 1.05335 0.995569 0.997061
1.04569 1.05719 0.991841 0.997255
1.04463 1.0573 0.990622 0.997368
1.04272 1.05299 0.992792 0.997436
1.04682 1.05758 0.992597 0.997208
1.0475 1.06387 0.987156 0.997418
1.0464 1.06291 0.986945 0.997491
1.0449 1.05353 0.994714 0.997077
1.04493 1.05394 0.99434 0.997094
1.0391 1.04984 0.992422 0.997333
1.004 1.00684 1 0.997178
1.0078 1.01106 1.00018 0.996594
1.0177 1.02087 1.00085 0.996049
1.03661 1.0441 0.99547 0.997345
1.03161 1.03628 0.998085 0.997406
1.03298 1.0364 1 0.996705
1.00146 1.00414 1 0.997325
0.998291 1.00071 1 0.997579
1.00633 1.00096 1.00797 0.997413
0.999469 1 1 0.999469
1.00533 1 1.00729 0.998048
1.00319 1 1.00467 0.998528
1.04496 1.0562 0.992174 0.997161
1.04202 1.05738 0.988157 0.997282
1.03325 1.04846 0.988035 0.997427
1.0026 1.00563 1 0.996983
1.00396 1.00641 1.0014 0.996171
1.01129 1.01446 1.0009 0.995982
1.03463 1.04625 0.991298 0.997581
1.02861 1.03245 0.999256 0.997025
0.999715 1 1 0.999715
0.999911 1 1.00103 0.998879
1.00017 1.00289 1.00009 0.997211
1.00907 1.00129 1.01051 0.997288
1.0056 1 1.00798 0.997641
1.00401 1 1.00579 0.998229
1.04511 1.06128 0.987398 0.997339
1.03444 1.05771 0.980554 0.997391
1.03022 1.04847 0.984933 0.997624
1.02467 1.03506 0.992358 0.997589
1.00228 1.00433 1.0013 0.996668
1.01057 1.013 1.0014 0.996209
1.00401 1.0055 1.00264 0.99588
0.999857 1 1 0.999857
0.999378 1 1 0.999378
0.999116 1 1 0.999116
1.00065 1 1.00223 0.998427
1.00529 1 1.0074 0.997904
1.00863 1 1.01122 0.997437
0.999195 1.00192 1.00001 0.997275
1.0314 1.00089 1.03305 0.997516
0.999024 1 1 0.999024
1.00712 1 1.00879 0.998349
1.04317 1.04802 0.998028 0.997344
1.00515 1.00106 1.00624 0.997864
1.00347 1.00401 1.00215 0.99731
1.00431 1.00653 1.00004 0.997763
1.02917 1.03267 1 0.996608
1.03537 1.03846 1 0.997027
1.00566 1.0043 1.00482 0.996547
1.00638 1.01037 1 0.996049
0.999809 1 1.00115 0.998658
1.00676 1 1.00879 0.997991
1.0081 1.00674 1.00415 0.997202
1.0034 1.00446 1.00142 0.997524
1.04131 1.06199 0.982911 0.997572
1.03583 1.03934 0.999333 0.997285
1.01893 1.02268 1 0.996336
1.00937 1.00946 1.00377 0.996147
1.00093 1 1.00249 0.998446
1.04117 1.06584 0.979226 0.997578
1.00194 1 1.00431 0.997642
1.00703 1.00743 1.00268 0.996935
1.03498 1.04942 0.98854 0.997671
1.01643 1.02007 1 0.99643
1.00713 1.00796 1.00323 0.995955
0.998825 1 1 0.998825
0.998725 1 1 0.998725
0.998764 1 1 0.998764
0.999183 1 1 0.999183
0.998817 1 1 0.998817
0.998745 1 1 0.998745
0.999164 1 1 0.999164
0.998775 1 1.00001 0.99876
0.998763 1 1 0.998763
0.998681 1 1.00003 0.998651
0.998815 1 1 0.998815
0.998714 1 1.00005 0.998664
0.99884 1 1.00031 0.998532
0.998705 1 1 0.998705
0.999107 1 1 0.999107
0.999678 1 1 0.999678
0.999709 1 1 0.999709
1 1 1 1
0.999734 1 1 0.999734
1 1 1 1
1 1 1 1
1 1 1 1
1 1 1 1
1 1 1 1
0.999882 1 1 0.999882
1 1 1 1
1 1 1 1
1 1 1 1
0.999987 1 1 0.999987
1 1 1 1
1 1 1 1
1.04405 1.05402 0.993086 0.997445
1.04348 1.05638 0.990399 0.997367
1.0455 1.0568 0.992034 0.997246
1.04538 1.05325 0.995458 0.99706
1.04646 1.05749 0.992322 0.997227
1.04737 1.06332 0.987551 0.997409
1.04451 1.0611 0.986833 0.9975
1.04719 1.06374 0.987012 0.997398
1.05576 1.07375 0.985694 0.997513
1.0456 1.06755 0.981634 0.997772
1.04571 1.05668 0.99242 0.997169
1.04145 1.05715 0.987827 0.997289
1.03332 1.04806 0.988489 0.997419
1.00227 1.00526 1.00006 0.996975
1.00457 1.00708 1.00126 0.996251
1.01326 1.01648 1.00078 0.996056
1.03482 1.04596 0.991748 0.997585
1.02684 1.03113 0.998831 0.997006
1.00026 1.003 1.00001 0.997261
1.0117 1.00163 1.01266 0.997433
1.00631 1 1.00864 0.997684
0.999773 1 1 0.999773
0.999815 1 1.00094 0.998878
1.00417 1 1.00599 0.998196
1.04501 1.06155 0.987035 0.99735
0.999852 1 1 0.999852
0.999347 1 1 0.999347
1.03484 1.05692 0.981671 0.997392
1.02893 1.04773 0.984431 0.997593
1.00258 1.00418 1.00166 0.996755
1.00443 1.00526 1.00332 0.995869
1.0113 1.01431 1.00084 0.996201
1.02353 1.03445 0.991857 0.997565
0.9992 1 1.00001 0.999194
1.00054 1 1.00213 0.99842
1.00086 1.00174 1.00196 0.997174
1.02669 1.00088 1.02817 0.997682
1.00677 1.00002 1.00932 0.997455
1.00519 1 1.00728 0.997922
1.0536 1.0725 0.984872 0.99747
1.01653 1.05503 0.965895 0.99753
1.01997 1.04091 0.982066 0.997778
1.00556 1.01654 0.991901 0.997282
1.00353 1.00173 1.00499 0.99682
1.00417 1.00286 1.0055 0.995827
0.999322 1 1 0.999322
0.999337 1 1 0.999337
0.999049 1 1 0.999049
0.99859 1 1 0.998589
1.00276 1 1.00459 0.998177
1.00467 1.00016 1.00694 0.997583
1.04385 1 1.04651 0.997458
1.00195 1.00049 1.00371 0.997751
1.00007 1 1.00144 0.998627
1.00596 1 1.00797 0.998004
1.04282 1.06301 0.983377 0.997591
1.03605 1.03938 0.999557 0.997235
1.003 1.00429 1.00115 0.99756
1.00952 1.00788 1.00441 0.997231
1.01973 1.0234 1.00004 0.996383
1.01062 1.01119 1.00335 0.996095
1.00118 1 1.00275 0.99843
1.04352 1.06884 0.978631 0.997629
1.00241 1 1.00475 0.997666
1.00603 1.00647 1.00269 0.996879
1.03362 1.04852 0.988119 0.997645
1.01595 1.01951 1 0.996508
1.00792 1.00849 1.00348 0.995971
1.00315 1 1.00505 0.998111
1.0156 1.04334 0.975316 0.998054
1.00327 1.00294 1.00296 0.997374
1.00403 1.00377 1.00379 0.996474
1.0168 1.0261 0.99369 0.997233
1.00195 1.0036 1.00221 0.996159
0.983183 1.004 0.981619 0.997605
0.998715 1 1 0.998715
0.999212 0.999925 1.00053 0.998762
0.99894 1 1.00027 0.998671
0.999161 1 1 0.999161
0.998834 1 1.00007 0.998765
0.99867 1 1 0.99867
0.998769 1 1 0.998769
0.999106 1 1 0.999106
0.998697 1 1 0.998697
0.998781 1 1 0.998781
0.998685 1 1.00015 0.998533
0.9987 1 1.00005 0.998653
0.99877 1 1 0.99877
0.998816 1 1.00046 0.998354
0.999433 1 1.00092 0.998511
0.998592 1 1 0.998592
0.99898 1 1 0.99898
0.998961 1 1.0002 0.998763
0.998956 1 1 0.998956
0.99966 1 1 0.99966
0.999675 1 1 0.999675
1 1 1 1
0.999706 1 1 0.999706
1 1 1 1
1 1 1 1
1 1 1 1
1 1 1 1
1 1 1 1
0.999905 1 1 0.999905
0.999882 1 1 0.999882
1 1 1 1
1 1 1 1
1 1 1 1
0.999999 1 1 0.999999
1 1 1 1
1 1 1 1
1.04288 1.05966 0.98662 0.997509
1.04715 1.06282 0.987826 0.997399
1.04615 1.05744 0.992049 0.997246
1.04722 1.06371 0.98707 0.997396
1.05343 1.07158 0.985509 0.99751
1.04518 1.06614 0.982603 0.997704
1.05678 1.07798 0.982706 0.997578
0.978122 1.01605 0.966454 0.996081
1.01186 1.04052 0.973972 0.998446
0.999445 1 1 0.999445
1.04492 1.06184 0.986669 0.997361
1.0354 1.05616 0.982899 0.997393
1.02769 1.04706 0.983903 0.997562
1.00021 1.00256 1.00082 0.996841
1.00407 1.00421 1.00402 0.995858
1.01146 1.01486 1.00045 0.996195
1.02249 1.03388 0.991416 0.99754
0.998866 1.00174 1.00006 0.997074
1.01994 1 1.02214 0.997851
1.00486 1 1.00741 0.997473
0.999847 1 1 0.999847
1.00607 1 1.00815 0.99794
0.999278 1 1.00001 0.999272
1.00048 1 1.00207 0.998413
0.999316 1 1 0.999316
1.05057 1.07277 0.981779 0.997478
0.999363 1 1 0.999363
0.999336 1 1 0.999336
0.999014 1 1 0.999014
1.02045 1.05521 0.969454 0.997529
1.02057 1.04141 0.982215 0.997732
1.00093 1.00157 1.00252 0.996847
1.00608 1.0046 1.00556 0.995937
1.00499 1.01452 0.993323 0.997267
0.998669 1 1.00003 0.99864
1.00299 1 1.00487 0.998133
1.00718 1.00031 1.00924 0.997653
1.03489 1 1.03749 0.997489
1.00359 1 1.00598 0.997627
1.03426 1.06206 0.976187 0.997579
1.00294 1.04764 0.959564 0.997675
1.01281 1.02592 0.989747 0.997445
0.993119 1.00572 0.990418 0.997025
1.0035 1 1.00616 0.997355
0.998905 1 1 0.998905
0.998837 1 1 0.998837
0.999585 1 1.00085 0.998737
1.00203 1 1.00367 0.99837
1.00548 1 1.0075 0.997995
1.03294 1 1.03539 0.997626
1.02793 1.00097 1.0294 0.997616
1.00118 1 1.00277 0.998414
1.00284 1 1.00516 0.99769
1.0451 1.07271 0.976531 0.997678
1.03271 1.0483 0.987478 0.997618
1.01552 1.019 1 0.996585
1.00482 1.00533 1.00268 0.996824
1.00841 1.00884 1.0036 0.995988
1.00298 1 1.00483 0.998152
1.01434 1.04344 0.97398 0.998086
1.00119 1.00192 1.00189 0.997389
1.00336 1.00281 1.00408 0.996479
1.01628 1.02639 0.992785 0.997343
1.00215 1.00328 1.00273 0.99615
0.983014 1.00399 0.982327 0.996722
1.0031 1.00065 1.00448 0.997975
1.00549 1.02276 0.985051 0.998031
1.00065 1.00137 1.00198 0.997304
1.00443 1.00134 1.00644 0.996671
0.993378 1.00605 0.990295 0.997078
0.927463 0.979754 0.968095 0.977826
0.928382 0.973828 0.964278 0.98865
0.974138 0.986842 0.989417 0.997685
0.761484 0.853395 0.929972 0.95949
0.687697 0.824542 0.879851 0.947928
0.999434 0.999844 1.00083 0.998761
0.999676 0.999922 1.00103 0.998722
0.999104 1 1.00039 0.998711
0.999105 1 1 0.999105
0.998688 1 1 0.998688
0.998534 1 1 0.998534
0.998642 1 1 0.998642
0.998747 1 1 0.998747
1.00014 1 1.00166 0.998487
0.999013 1 1 0.999013
0.998612 1 1 0.998612
0.998736 1 1 0.998736
0.999119 1 1.00073 0.998387
1.00123 1 1.00284 0.998399
1.00173 1 1.00327 0.998464
1.00048 1 1.00206 0.998416
0.998681 1 1.00015 0.998532
0.99895 1 1 0.99895
0.998615 1 1 0.998615
0.998708 1 1.00012 0.998588
0.998785 1 1.00001 0.998771
0.998902 1 1.00018 0.998724
0.999063 1 1 0.999063
0.998953 1 1 0.998953
0.999654 1 1 0.999654
0.99966 1 1 0.99966
1 1 1 1
0.999673 1 1 0.999673
1 1 1 1
1 1 1 1
1 1 1 1
1 1 1 1
1 1 1 1
0.999927 1 1 0.999927
0.999902 1 1 0.999902
1 1 1 1
0.999881 1 1 0.999881
1 1 1 1
1 1 1 1
1 1 1 1
1 1 1 1
1 1 1 1
1.05077 1.06912 0.9853 0.997508
1.04727 1.06367 0.987161 0.997394
1.04537 1.06512 0.983791 0.997637
0.980281 1.01587 0.968698 0.996151
1.05369 1.07529 0.982296 0.997578
1.02314 1.04375 0.981894 0.998322
1.04043 1.05399 0.989415 0.997698
0.936223 0.981392 0.965784 0.987772
0.995219 1.01935 0.979379 0.996882
0.999459 1 1 0.999459
0.999441 1 1 0.999441
0.999015 1 1 0.999015
0.999088 1 1 0.999088
1.04837 1.07307 0.979444 0.997485
1.0239 1.05494 0.972988 0.997528
1.021 1.04167 0.982426 0.997685
1.00017 1.00076 1.00255 0.996873
1.00812 1.00673 1.00536 0.996045
1.004 1.01254 0.994299 0.997251
1.01557 1 1.01805 0.997555
1.02756 1.00003 1.03008 0.99752
1.00194 1 1.00428 0.997672
0.999335 1 1 0.999335
1.00182 1 1.00374 0.998089
0.9987 1 1.00001 0.99869
0.999404 1 1 0.999404
0.998978 1 1 0.998978
1.03189 1.06186 0.974118 0.997594
0.998948 1 1 0.998948
0.998892 1 1 0.998892
0.998954 1 1.00008 0.99887
1.00739 1.05012 0.961553 0.997668
1.01201 1.02572 0.989163 0.997444
1.00348 1.00022 1.00593 0.997337
0.995307 1.00589 0.992365 0.99709
1.00074 1 1.00241 0.998328
1.00438 1 1.00649 0.997907
1.0333 1.00105 1.0347 0.997598
1.03317 1.00012 1.03557 0.997563
0.997797 1.04113 0.960525 0.997764
0.995749 1.03138 0.96772 0.997655
1.00433 1.01009 0.997176 0.997119
0.987066 1.00088 0.988254 0.997923
0.998708 1 1.00012 0.998592
1.00042 1 1.00191 0.998514
1.01172 1 1.01346 0.998288
1.0516 1 1.05412 0.997609
0.903074 0.969119 0.955394 0.975357
1.00335 1 1.00517 0.998193
0.999345 1.00085 1.00109 0.997404
1.01433 1.04319 0.974173 0.99812
1.01599 1.02641 0.992378 0.997452
1.00248 1.00306 1.0033 0.996139
1.00308 1.00215 1.00447 0.996482
0.983784 1.00494 0.983056 0.995816
1.00199 1.0003 1.00367 0.998033
1.00549 1.02397 0.983903 0.998019
1.00026 1.00138 1.00157 0.997319
1.00451 1.00174 1.00611 0.996672
0.996638 1.00693 0.992682 0.99708
0.926203 0.986005 0.963039 0.975401
0.922433 0.971017 0.963396 0.98606
0.97729 0.987067 0.992371 0.997706
0.760152 0.849863 0.931457 0.96026
0.673174 0.81375 0.87642 0.943897
1.00055 1.00013 1.00219 0.998231
0.790576 0.871891 0.942291 0.962269
0.727241 0.830091 0.922925 0.949263
0.989235 1.00656 0.984787 0.997972
1.00725 1.00138 1.00816 0.997715
1.01262 1.0047 1.01052 0.997387
0.968998 0.980647 0.990158 0.997942
0.914707 0.964188 0.971894 0.976116
0.897469 0.944825 0.964696 0.98464
0.748193 0.85142 0.913184 0.962303
0.747688 0.875689 0.900896 0.947755
1.00067 0.999849 1.00205 0.998773
1.00033 0.999952 1.00169 0.998687
1.00189 1 1.00304 0.998855
0.999045 1 1 0.999045
0.998631 1 1 0.998631
1.0005 1 1.00204 0.998462
0.999648 1 1.00123 0.99842
0.998703 1 1 0.998703
0.998951 1 1 0.998951
1.00126 1 1.00288 0.998389
1.00088 1 1.00246 0.998429
0.998604 1 1.00004 0.998568
1.00158 1 1.0031 0.998484
1.00353 1 1.00511 0.998431
1.00762 1 1.00906 0.998572
0.999106 1 1.00074 0.998368
0.998684 1 1.00011 0.998579
0.998616 1 1 0.998611
0.998805 1 1.00022 0.99859
0.998781 1 1.00035 0.998432
0.999154 1 1.00054 0.998612
0.999706 1 1.00112 0.998584
1.00308 1 1.00468 0.998408
0.999509 1 1.00078 0.998732
0.998902 1 1.00013 0.998772
0.999097 1 1 0.999097
0.998787 1 1.0001 0.998685
0.999036 1 1 0.999036
0.999645 1 1 0.999645
0.99895 1 1 0.99895
0.999655 1 1 0.999655
1 1 1 1
0.999659 1 1 0.999659
1 1 1 1
1 1 1 1
1 1 1 1
1 1 1 1
1 1 1 1
0.999418 1 1 0.999418
0.99993 1 1 0.99993
0.999924 1 1 0.999924
1 1 1 1
0.999898 1 1 0.999898
1 1 1 1
1 1 1 1
1 1 1 1
1 1 1 1
1 1 1 1
0.98267 1.01574 0.971105 0.996225
1.05126 1.07229 0.982766 0.997577
1.02948 1.04678 0.98525 0.998196
0.92976 0.974878 0.964458 0.988865
0.995136 1.01907 0.979414 0.997039
1.04064 1.05758 0.986298 0.997653
1.00784 1.02691 0.984349 0.997035
0.944006 0.975751 0.977132 0.990108
0.925117 0.978263 0.969155 0.975771
0.756589 0.850381 0.924831 0.96202
0.657876 0.787247 0.882295 0.94715
0.999033 1 1 0.999033
0.999457 1 1 0.999457
0.999438 1 1 0.999438
0.999005 1 1 0.999005
0.99877 1 1 0.99877
0.998796 1 1 0.998796
0.998978 1 1 0.998978
0.99905 1 1 0.99905
1.02817 1.06193 0.970525 0.997608
1.01241 1.05365 0.963115 0.997662
1.01153 1.02563 0.988779 0.997443
1.00265 1.00086 1.00448 0.99732
0.997698 1.00589 0.994687 0.997156
1.03619 1.00055 1.03813 0.997579
1.03283 1.00013 1.03529 0.997501
1.00493 1 1.00713 0.99782
0.998947 1 1 0.998947
1.00067 1 1.00238 0.998286
0.998992 1 1 0.998992
0.999002 1 1 0.999002
0.997172 1.04185 0.959252 0.997774
0.999024 1 1.00041 0.998617
1.00029 1 1.00174 0.998559
0.994809 1.03012 0.968015 0.99763
1.00164 1.01029 0.994172 0.997251
0.989332 1.00118 0.990335 0.99781
1.01926 1.00005 1.02112 0.998123
1.04748 1.00076 1.04916 0.997636
0.9847 1.02701 0.960977 0.997741
0.985394 1.00965 0.978258 0.997663
0.981065 1.00166 0.98171 0.997687
0.990605 1.00118 0.99136 0.998065
1.00363 1 1.00539 0.998244
1.00863 1 1.01036 0.998288
1.04764 1 1.04981 0.997934
0.788607 0.881105 0.928661 0.963775
0.920759 0.976011 0.963863 0.978759
1.00046 1 1.00237 0.998091
0.99972 1.00117 1.00122 0.997335
1.0056 1.02547 0.982574 0.998007
0.999326 1.00811 0.994192 0.997083
1.0047 1.00233 1.00571 0.996675
0.921239 0.975442 0.967511 0.976147
0.927474 0.977682 0.961454 0.986678
0.978068 0.98573 0.994494 0.997721
0.762218 0.851573 0.929447 0.963014
0.660442 0.803168 0.875017 0.939749
1.00028 0.999957 1.0021 0.99823
0.788209 0.877668 0.932619 0.962957
0.715399 0.818851 0.922449 0.947112
0.989079 1.0074 0.983807 0.997969
1.00732 1.00178 1.00781 0.997739
1.0109 1.00304 1.01032 0.997539
0.96158 0.974971 0.988148 0.998095
0.923268 0.975013 0.972401 0.973805
0.89593 0.945647 0.95987 0.987034
0.752842 0.848365 0.92391 0.960488
0.746187 0.880856 0.894683 0.946834
1.00275 1 1.00409 0.998669
0.759587 0.842013 0.949017 0.950571
0.832401 0.912763 0.952102 0.957835
0.989076 0.997565 0.992805 0.998676
1.01444 1.00244 1.01337 0.998619
0.971063 0.966208 1.00717 0.997868
0.898975 0.932261 0.975814 0.988195
0.886103 0.934883 0.974463 0.972661
0.756927 0.845068 0.931772 0.961285
0.790843 0.917906 0.906127 0.950829
1.00123 0.99976 1.00281 0.998665
1.00136 1 1.00255 0.998819
1.00527 0.999924 1.00627 0.999081
0.998952 1 1 0.998952
0.998604 1 1 0.998604
1.00154 1 1.00311 0.998441
1.00166 1 1.00329 0.998379
1.0012 1 1.0027 0.998503
0.998619 1 1.00004 0.998578
1.00213 1 1.00372 0.998417
0.999143 1 1.00077 0.99837
1.00802 0.999944 1.00946 0.998627
1.02578 0.999082 1.02765 0.999098
1.00362 1 1.00519 0.99844
0.998524 1 1.00019 0.99833
0.998607 1 1 0.998607
0.999036 1 1.00045 0.998591
0.999062 1 1.00064 0.998426
0.999432 1 1.00083 0.998602
0.999304 1 1.00065 0.998654
1.00208 1 1.00355 0.998538
1.00002 1 1.00153 0.998489
1.00157 1 1.00291 0.998662
0.999091 1 1.00067 0.998422
0.99878 1 1.00093 0.997854
1.00245 1 1.00416 0.998303
1.00269 1 1.00429 0.998407
1.00229 1 1.00367 0.998632
1.0002 1 1.00147 0.998729
0.999079 1 1 0.999079
0.999214 1 1.00044 0.998773
0.999098 1 1 0.999098
0.999639 1 1 0.999639
0.999009 1 1 0.999009
0.999647 1 1 0.999647
0.999998 1 1 0.999998
0.999656 1 1 0.999656
1 1 1 1
1 1 1 1
1 1 1 1
1 1 1 1
1 1 1 1
0.999428 1 1 0.999428
0.999911 1 1 0.999911
0.999419 1 1 0.999419
1 1 1 1
0.999931 1 1 0.999931
0.999921 1 1 0.999921
1 1 1 1
1 1 1 1
1 1 1 1
1 1 1 1
1 1 1 1
0.783408 0.868643 0.939045 0.960419
0.721985 0.826866 0.920136 0.948945
0.931164 0.978895 0.961455 0.989376
0.996554 1.01874 0.980969 0.997201
1.0439 1.06148 0.985796 0.997608
0.925757 0.959979 0.972614 0.991504
1.00808 1.02633 0.985011 0.997166
0.936341 0.989719 0.968415 0.976923
0.758073 0.853149 0.925515 0.960068
0.656898 0.794577 0.876629 0.943075
0.958682 0.996245 0.968453 0.993642
0.923991 0.971224 0.974153 0.976609
0.745231 0.849487 0.912286 0.961619
0.732014 0.865678 0.893319 0.946579
0.999849 1 1.00122 0.99863
0.999066 1 1 0.999066
0.999456 1 1 0.999456
0.998996 1 1 0.998996
0.998821 1 1 0.998821
0.99969 1 1.00109 0.998605
0.998776 1 1 0.998776
0.998694 1 1 0.998694
0.998939 1 1 0.998939
0.999013 1 1 0.999013
0.997777 1.04205 0.959641 0.997783
0.992148 1.02763 0.967784 0.997608
0.999157 1.01076 0.991113 0.997383
0.99133 1.00128 0.992352 0.997697
1.04236 1.0021 1.04261 0.997663
1.02717 1.00007 1.0292 0.997958
0.998911 1 1.00031 0.998605
0.999232 1 1.00059 0.998641
0.985491 1.0273 0.96142 0.997798
1.00456 1 1.00635 0.998212
1.00826 1 1.01003 0.998245
0.983463 1.0079 0.978104 0.997596
0.979098 1.00127 0.980034 0.997779
0.99282 1.002 0.992835 0.997991
1.04152 1 1.04372 0.997894
0.982993 1.00395 0.981009 0.998081
0.973917 0.999864 0.975546 0.998465
1.01369 1.00091 1.0146 0.998202
1.00854 1 1.01039 0.998169
1.0079 1 1.00987 0.998052
1.02597 1 1.02799 0.998033
0.782676 0.856969 0.953827 0.957519
0.797265 0.879981 0.939971 0.963861
0.909455 0.972625 0.958581 0.975455
1.00026 0.999903 1.00213 0.998228
1.00704 1.00174 1.00754 0.997761
0.991543 1.00846 0.985226 0.997968
1.00932 1.00164 1.01 0.997687
0.782981 0.872648 0.930718 0.964038
0.918367 0.971128 0.969452 0.975469
0.891433 0.94217 0.960806 0.984745
0.958716 0.971085 0.988997 0.998246
0.748408 0.847988 0.920908 0.958367
0.716042 0.820729 0.920566 0.947728
0.736105 0.871051 0.890649 0.948834
1.00307 0.999869 1.00454 0.998665
0.761252 0.844881 0.945525 0.952927
0.843093 0.922373 0.9545 0.957618
0.989338 0.995615 0.994925 0.998764
1.01429 1.00142 1.0143 0.998578
0.968488 0.965212 1.00517 0.998229
0.893551 0.935882 0.968379 0.985945
0.898448 0.941914 0.978045 0.975265
0.778078 0.867707 0.934661 0.959393
0.778122 0.905961 0.901656 0.95257
1.00712 0.999012 1.00869 0.999432
0.855955 0.92693 0.958499 0.963412
0.82754 0.916806 0.938328 0.96196
0.989267 0.975066 1.01485 0.999715
0.919929 0.931974 0.995026 0.992009
0.905313 0.933022 0.996103 0.974097
0.818312 0.894189 0.955422 0.957843
0.812316 0.941262 0.906646 0.951868
1.00135 1 1.00257 0.998782
1.00512 0.999646 1.00641 0.999077
1.02276 0.998402 1.02506 0.999354
0.998692 1 1.00012 0.998576
0.999119 1 1.00075 0.998372
1.00039 1 1.00199 0.998403
1.00828 0.999846 1.00976 0.998683
0.998737 1 1.00041 0.998329
1.00373 1 1.00531 0.998431
1.0305 0.999691 1.03167 0.999175
1.04224 0.996636 1.04634 0.999446
1.03208 0.999528 1.03353 0.999068
0.998672 1 1.00028 0.99839
0.99932 1 1.0009 0.998419
0.999299 1 1.00071 0.998592
0.998724 1 1 0.998724
0.999635 1 1.00113 0.998506
1.00142 1 1.00289 0.998539
1.00202 1 1.00335 0.998677
1.00097 1 1.00244 0.998534
1.00649 0.999692 1.00783 0.998971
0.997825 1.00015 0.999159 0.998517
0.999652 1.00041 1.0008 0.998445
0.998751 1 1.00069 0.998058
1.00045 1.00182 1.00153 0.99711
1.00194 1 1.00374 0.998202
0.99884 1 1.00079 0.998049
1.00212 1 1.00381 0.998322
1.00386 1 1.00539 0.998478
1.00204 1 1.00364 0.998407
1.00196 1 1.00333 0.998631
0.999154 1 1.00016 0.998991
1.00041 1 1.00168 0.998727
0.999077 1 1 0.999077
0.999626 1 1 0.999626
0.999099 1 1 0.999099
0.999639 1 1 0.999639
0.999993 1 1 0.999993
0.999649 1 1 0.999649
0.999996 1 1 0.999996
1 1 1 1
0.999999 1 1 0.999999
1 1 1 1
1 1 1 1
0.999209 1 1 0.999209
0.999876 1 1 0.999876
0.999359 1 1 0.999359
1 1 1 1
0.999915 1 1 0.999915
0.99942 1 1 0.99942
1 1 1 1
1 1 1 1
0.999932 1 1 0.999932
1 1 1 1
1 1 1 1
1 1 1 1
0.755996 0.841928 0.94188 0.953342
0.789201 0.875893 0.936778 0.961832
0.838242 0.921715 0.950079 0.957223
0.717288 0.823251 0.919422 0.947647
0.926683 0.969118 0.966722 0.989129
1.0059 1.02587 0.983178 0.997305
0.942077 0.987491 0.975579 0.977892
0.766736 0.856715 0.930103 0.962229
0.660067 0.805344 0.87292 0.938928
0.957015 0.991388 0.972325 0.992804
0.918846 0.971316 0.972482 0.972749
0.758093 0.857936 0.920491 0.959949
0.733973 0.870601 0.892531 0.944577
0.935417 0.978109 0.965412 0.990616
0.901137 0.939138 0.987045 0.97213
0.779752 0.875952 0.929496 0.957698
0.784702 0.915976 0.903496 0.948188
1.00155 1 1.00318 0.998375
0.999202 1 1.00053 0.998674
0.999098 1 1 0.999098
0.998872 1 1 0.998872
0.998687 1 1.0004 0.998286
0.998996 1 1.00035 0.998646
0.998758 1 1 0.998758
0.998661 1 1 0.998661
0.998738 1 1.00001 0.99873
0.998901 1 1 0.998901
0.986837 1.02853 0.961525 0.997856
0.983945 1.00699 0.979534 0.997533
0.977282 1.00129 0.978106 0.997871
0.997187 1.00326 0.996022 0.997919
1.03426 1 1.03649 0.997853
1.00743 1 1.00924 0.998204
1.00503 1 1.00687 0.99818
1.00754 1 1.00943 0.998134
0.980514 1.00424 0.978241 0.998086
1.00657 1 1.00854 0.998045
1.02681 1 1.02885 0.99802
0.97231 1.00019 0.973644 0.998436
1.0109 1.00196 1.01078 0.99816
0.954715 0.984051 0.971636 0.998511
0.987905 0.993317 0.995316 0.999232
1.0382 0.999668 1.04019 0.998412
1.00414 1 1.00609 0.998055
1.01613 1 1.01808 0.998085
0.864973 0.931671 0.960584 0.966506
0.784775 0.856567 0.95732 0.957032
0.785996 0.874159 0.934729 0.96193
1.00344 0.999938 1.00485 0.998662
1.01464 1.00042 1.01571 0.998536
0.986328 0.993456 0.993965 0.998853
0.765565 0.847757 0.946832 0.953757
0.899645 0.939018 0.985286 0.972377
0.896234 0.933806 0.971993 0.987419
0.960048 0.96177 0.999633 0.998576
0.776894 0.868771 0.929962 0.961593
0.850005 0.9277 0.956956 0.957462
0.782871 0.90948 0.903508 0.952719
1.00572 0.99894 1.0074 0.999388
0.852794 0.925589 0.95496 0.964808
0.827881 0.917077 0.938393 0.962005
0.992054 0.979077 1.01371 0.999552
0.931058 0.941287 0.997363 0.991749
0.882149 0.925856 0.981038 0.971209
0.813459 0.941322 0.907169 0.952598
0.832573 0.901806 0.962843 0.958858
1.0043 0.983107 1.02185 0.999711
0.836008 0.911771 0.944114 0.971181
0.848902 0.937394 0.93996 0.963443
0.784534 0.915014 0.904059 0.94839
0.968081 0.956489 1.01425 0.997901
0.929687 0.945818 1.00788 0.975257
0.871659 0.931821 0.974175 0.960235
1.00545 0.999325 1.00707 0.999072
1.02252 0.998126 1.02519 0.999271
1.02276 0.986654 1.03704 0.999566
0.998803 1 1.00047 0.998329
1.0036 1 1.00519 0.998422
1.03582 0.999887 1.03672 0.999251
0.998883 1 1.00049 0.998396
1.03144 0.999613 1.03279 0.999079
1.04328 0.996523 1.04753 0.999421
1.032 0.993436 1.03935 0.999489
1.02147 0.999343 1.0231 0.999058
0.999488 1 1.00097 0.998524
1.0012 1 1.00267 0.99854
1.00264 1 1.00395 0.998693
1.00581 0.999907 1.00697 0.998944
1.00041 1 1.00188 0.998534
1.00247 1 1.00361 0.998865
0.998341 1.00004 0.999523 0.998773
1.00167 1.0001 1.00391 0.997668
1.0001 1.00081 1.00082 0.998471
0.999106 1.00056 1.00057 0.997979
0.998445 1.00056 1.00101 0.996874
1.01092 1.0128 1.00129 0.996856
1.00174 1.00111 1.00276 0.997872
0.999739 1.00121 1.00138 0.997155
1.00641 1 1.00813 0.998292
1.00281 1.00022 1.00442 0.998189
0.998888 1 1.00065 0.998243
1.00194 1 1.00361 0.998342
1.00333 1 1.00483 0.998512
0.999489 1 1.00062 0.998872
1.00183 1 1.0032 0.99863
0.99922 1 1.00023 0.998991
0.999576 1 1 0.999576
0.999074 1 1 0.999074
0.999623 1 1 0.999623
0.999989 1 1 0.999989
0.999639 1 1 0.999639
0.999992 1 1 0.999992
1 1 1 1
0.999995 1 1 0.999995
1 1 1 1
1 1 1 1
0.998981 1 1 0.998981
0.9997 1 1 0.9997
0.999207 1 1 0.999207
1 1 1 1
0.999829 1 1 0.999829
0.99929 1 1 0.99929
1 1 1 1
1 1 1 1
0.99992 1 1 0.99992
1 1 1 1
1 1 1 1
1 1 1 1
0.85163 0.928709 0.951201 0.964048
0.752401 0.841388 0.936394 0.95498
0.786228 0.872036 0.937738 0.961462
0.998541 1 1 0.998541
0.833355 0.914534 0.94514 0.964127
0.836955 0.921272 0.949207 0.957091
0.719842 0.82935 0.914321 0.949294
0.964401 0.994021 0.978282 0.99174
0.917429 0.965471 0.973591 0.976016
0.762709 0.869784 0.915584 0.957743
0.729183 0.859875 0.896775 0.945622
0.93344 0.975235 0.968973 0.987792
0.897284 0.938553 0.980516 0.975026
0.790108 0.878898 0.938331 0.958059
0.780848 0.910133 0.904358 0.948684
0.896999 0.939969 0.968819 0.984999
0.895406 0.925213 0.995116 0.972533
0.846128 0.914183 0.965004 0.959121
0.812979 0.940508 0.908169 0.951809
1.00115 1 1.00301 0.998146
1.00277 1 1.00444 0.998332
0.998781 1 1.00006 0.998717
0.998357 1 1.00002 0.998341
0.998912 1 1.00056 0.998349
0.998686 1 1 0.998686
0.998668 1 1 0.998668
0.998791 1 1.00003 0.998766
0.976708 1.00488 0.973832 0.998088
0.970041 1.00072 0.97088 0.998412
1.00693 1 1.00884 0.998099
1.0086 1.00297 1.00751 0.998117
1.02866 1 1.03071 0.998006
1.00593 1 1.0079 0.998039
1.00435 1 1.0063 0.998065
0.959755 0.985062 0.975674 0.998601
1.01436 1 1.01628 0.998117
1.02756 1.00032 1.02884 0.998441
0.984825 0.993989 0.99149 0.999284
1.00563 1 1.00747 0.998175
0.953954 0.972452 0.982555 0.998395
1.00222 0.989698 1.01319 0.99947
1.0468 0.997268 1.0512 0.998539
1.0056 1 1.00734 0.998275
0.846871 0.914945 0.950731 0.973565
0.864258 0.931482 0.960006 0.966485
0.788434 0.856126 0.962775 0.956539
1.00373 0.998648 1.00574 0.999348
0.995534 0.982403 1.01398 0.999394
0.851616 0.926046 0.951821 0.966175
0.907705 0.929208 1.00211 0.974798
0.920901 0.938633 0.99238 0.988642
0.832969 0.903269 0.962989 0.957613
0.828617 0.918066 0.938187 0.962035
0.815632 0.942319 0.907932 0.953329
1.00778 0.988821 1.01951 0.999669
0.837581 0.912987 0.944658 0.971152
0.847763 0.9353 0.93888 0.965413
0.976989 0.962127 1.01596 0.999493
0.780038 0.908862 0.90457 0.948802
0.909107 0.930351 1.00393 0.973342
0.878993 0.939916 0.974387 0.959765
1.00458 0.979307 1.02605 0.999758
0.858762 0.93172 0.947115 0.973161
0.831267 0.912194 0.945 0.964321
0.72975 0.864161 0.891939 0.946769
0.845331 0.91424 0.964482 0.958677
0.955134 0.954099 1.00562 0.995489
0.936144 0.943033 1.02337 0.970025
1.01962 0.998439 1.02204 0.999188
1.02511 0.988066 1.03797 0.999534
1.01061 0.976443 1.03542 0.999582
0.998975 1 1.00057 0.998403
1.03296 0.999673 1.03424 0.999091
1.0442 0.997783 1.04715 0.999396
1.01612 0.999447 1.01766 0.999045
1.03203 0.995114 1.03763 0.999488
1.01217 0.991137 1.022 0.999235
1.00456 1 1.00565 0.998917
0.999923 1 1.00139 0.998534
1.00453 1 1.00569 0.998845
1.00911 1 1.01095 0.998186
0.999028 1 1 0.999028
1.00021 1.00012 1.00225 0.997846
1.00161 1.00077 1.00423 0.996623
1.00537 1.0073 1.00188 0.996206
0.999499 1.0012 1.0004 0.997897
0.998799 1.00101 1.00109 0.996702
1.01214 1.0147 1.00053 0.996948
1.00654 1.00651 1.00261 0.997423
1.01012 1.01195 1.00125 0.996941
1.00665 1 1.00858 0.998093
1.0035 1.00235 1.0033 0.997851
0.99873 1.00025 1.00128 0.997201
1.00178 1 1.00309 0.998694
1.00591 1 1.00762 0.998304
1.00366 1.00035 1.00514 0.998177
1.00307 1 1.00453 0.998547
0.999874 1 1.001 0.998871
0.999482 1 1 0.999482
0.999394 1 1.0004 0.998992
0.999572 1 1 0.999572
0.999985 1 1 0.999985
0.99962 1 1 0.99962
0.999989 1 1 0.999989
1 1 1 1
0.999991 1 1 0.999991
1 1 1 1
1 1 1 1
0.998895 1 1 0.998895
0.999566 1 1 0.999566
0.999023 1 1 0.999023
1 1 1 1
0.999686 1 1 0.999686
0.999205 1 1 0.999205
1 1 1 1
1 1 1 1
0.999783 1 1 0.999783
1 1 1 1
1 1 1 1
1 1 1 1
0.841742 0.914373 0.947185 0.971897
0.85444 0.928397 0.954678 0.964031
0.752679 0.841614 0.93633 0.955141
0.998572 1 1 0.998572
0.998502 1 1 0.998502
0.998432 1 1 0.998432
0.847935 0.938697 0.937775 0.963248
0.830032 0.914042 0.941831 0.964175
0.836492 0.920727 0.949368 0.956966
0.937828 0.978948 0.967917 0.98975
0.886894 0.934583 0.976287 0.972023
0.779477 0.862061 0.940563 0.961341
0.793339 0.919406 0.910666 0.947528
0.89989 0.943723 0.965522 0.987603
0.899769 0.928529 0.995917 0.972999
0.824692 0.890783 0.964328 0.960053
0.812807 0.941422 0.906451 0.952486
0.894044 0.93271 0.97262 0.985528
0.914761 0.934316 1.00521 0.973991
0.871286 0.929958 0.9755 0.96044
0.79457 0.920437 0.907952 0.950769
0.998778 1 1.00058 0.998198
1.00183 1 1.00372 0.99812
1.00272 1 1.00444 0.998289
0.998343 1 1.00001 0.998332
0.998751 1 1.00034 0.998413
0.998674 1 1 0.998674
0.963508 0.983419 0.981054 0.998673
0.980286 0.993212 0.987655 0.999322
1.00461 1 1.00655 0.998075
1.01936 1.00052 1.02039 0.99847
1.01523 1 1.01711 0.998149
1.0073 1 1.00916 0.998157
1.00638 1 1.0081 0.9983
0.960471 0.972622 0.989003 0.998487
1.04582 0.997121 1.05022 0.99868
1.0064 0.985699 1.02162 0.999398
1.00679 1 1.00836 0.998451
0.978285 0.964183 1.01636 0.998296
1.00664 0.979591 1.02821 0.999418
1.03452 0.993117 1.04295 0.998797
0.871392 0.936396 0.953977 0.975475
0.848045 0.915363 0.951125 0.974065
0.863695 0.931241 0.959652 0.966461
1.01266 0.994696 1.01844 0.999627
0.965986 0.959151 1.00873 0.998406
0.839202 0.914071 0.945393 0.971123
0.904218 0.918799 1.00695 0.977338
0.873595 0.936935 0.972811 0.958457
0.847706 0.933696 0.938515 0.967383
0.794386 0.918784 0.912279 0.947743
1.00022 0.9765 1.02451 0.999783
0.859918 0.931628 0.94778 0.973884
0.831361 0.914112 0.943076 0.96437
0.951595 0.949805 1.01006 0.991904
0.73223 0.868998 0.891784 0.944865
0.81987 0.889536 0.960681 0.959406
0.945601 0.948414 1.02349 0.974149
1.00172 0.962661 1.04159 0.999018
0.842495 0.913843 0.948452 0.972032
0.844473 0.92614 0.952245 0.957549
0.656574 0.784813 0.882807 0.947658
0.774501 0.871173 0.928334 0.957664
0.912604 0.931219 1.00686 0.973331
0.930388 0.945323 0.994789 0.989357
1.02884 0.989427 1.04035 0.999501
1.01437 0.982863 1.03248 0.999586
1.01291 0.988007 1.0257 0.99952
1.01064 0.999696 1.01193 0.999032
1.03059 0.99628 1.03496 0.999487
1.01553 0.989394 1.02712 0.999319
1.00863 1 1.00982 0.998818
1.00672 1 1.00791 0.998824
1.00781 1.00002 1.00979 0.998022
1.01788 1.00082 1.02035 0.996758
0.99867 1.00005 1.0006 0.998027
1.00309 1.00116 1.00534 0.996608
1.00421 1.00251 1.00596 0.995757
1.00515 1.00748 1.00191 0.995788
1.00717 1.00956 1.00108 0.996556
1.00518 1.00715 1.00189 0.996157
0.999031 1.00127 1.00124 0.996531
1.00513 1.00681 1.0011 0.997238
1.01222 1.01474 1.00048 0.997033
1.00234 1 1.00464 0.997708
1.00763 1.00741 1.00274 0.997485
1.00992 1.01175 1.00117 0.997025
1.00645 1 1.00806 0.998403
1.00582 1.00004 1.0077 0.998092
1.00542 1.00379 1.0038 0.99783
0.99941 1 1.00006 0.999353
1.00147 1 1.00278 0.998692
1.00513 1 1.00682 0.998315
0.999742 1 1.00087 0.99887
0.999479 1 1 0.999477
0.999973 1 1 0.999973
0.999568 1 1 0.999568
0.999982 1 1 0.999982
1 1 1 1
0.999988 1 1 0.999988
1 1 1 1
1 1 1 1
0.998864 1 1 0.998864
0.999551 1 1 0.999551
0.998921 1 1 0.998921
0.999999 1 1 0.999999
0.999607 1 1 0.999607
0.999066 1 1 0.999066
1 1 1 1
1 1 1 1
0.999672 1 1 0.999672
1 1 1 1
1 1 1 1
1 1 1 1
0.858323 0.93169 0.946805 0.973013
0.843566 0.915064 0.948543 0.971874
0.855805 0.927565 0.95705 0.964042
0.999136 1 1.00073 0.998408
0.999254 1 1.00099 0.998268
0.998605 1 1 0.998605
0.998492 1 1 0.998492
0.998421 1 1 0.998421
0.998413 1 1 0.998413
0.998369 1 1 0.998369
0.827702 0.919126 0.936353 0.961743
0.849279 0.936532 0.939489 0.965242
0.827979 0.912758 0.940774 0.964225
0.813262 0.942478 0.905286 0.953177
0.892815 0.938164 0.965856 0.985304
0.899612 0.925301 0.998727 0.973476
0.833663 0.901548 0.962325 0.960904
0.886104 0.933335 0.964228 0.984617
0.911867 0.927495 1.01244 0.971066
0.878154 0.939377 0.973389 0.960383
0.779866 0.90772 0.901974 0.95252
0.907737 0.936948 0.981472 0.987112
0.9234 0.936104 1.01618 0.970719
0.82358 0.898259 0.956879 0.95818
0.748528 0.877888 0.899914 0.947475
1.0112 1 1.01279 0.998433
1 1 1.00179 0.998211
1.00294 1 1.00486 0.998094
0.998322 1 1 0.998322
0.966938 0.972752 0.995411 0.998606
1.00857 0.983574 1.02611 0.999321
1.00636 1 1.00823 0.99814
1.00622 1 1.00791 0.998326
1.03883 0.995754 1.04449 0.998821
1.00541 1 1.00698 0.998446
1.03483 0.992811 1.04359 0.998784
0.976253 0.96352 1.01615 0.997114
1.00463 0.971149 1.03494 0.999558
1.01307 0.992954 1.02137 0.998911
0.956736 0.93591 1.02553 0.996801
1.01734 0.972698 1.04663 0.999296
0.847768 0.914579 0.952042 0.973643
0.869301 0.935674 0.95144 0.976482
0.848805 0.915495 0.951354 0.974563
0.994681 0.971918 1.02362 0.999805
0.957904 0.95449 1.00781 0.995797
0.859269 0.930591 0.947409 0.974614
0.943618 0.951654 1.02156 0.970626
0.824544 0.896075 0.958219 0.960295
0.830717 0.915528 0.940842 0.964417
0.728477 0.858403 0.897186 0.945892
1.00344 0.965123 1.04056 0.999181
0.843027 0.915737 0.947107 0.972012
0.839516 0.922532 0.950486 0.957419
0.932923 0.945314 0.995027 0.991825
0.656689 0.793397 0.877129 0.943638
0.782831 0.872793 0.936452 0.957792
0.91159 0.927788 1.01147 0.971402
0.996492 0.970435 1.02926 0.997661
0.85258 0.929836 0.950841 0.964319
0.722086 0.825994 0.920715 0.949481
0.747153 0.851031 0.91252 0.962104
0.886399 0.915694 0.993968 0.973882
0.899405 0.928741 0.982236 0.985927
1.01781 0.986845 1.0318 0.99959
1.01331 0.985041 1.0292 0.999517
0.987489 0.982799 1.00545 0.99933
1.01951 0.987897 1.03262 0.999402
1.00642 0.993639 1.01398 0.9989
1.00193 1.0008 1.00331 0.997827
1.00681 1.00002 1.00896 0.997857
1.01591 1.00074 1.01856 0.996665
1.00901 1.00044 1.01278 0.995848
1.00471 1.00184 1.0063 0.996593
1.00475 1.00228 1.00683 0.995668
1.00209 1.0022 1.00448 0.995441
1.01723 1.0214 1 0.995925
1.01147 1.01469 1.00077 0.996058
1.00552 1.00764 1.00218 0.995732
1.00381 1.00686 1.00013 0.99685
1.00605 1.00872 1.00074 0.996619
1.00494 1.00695 1.0019 0.996108
1.00165 1.00326 1.00112 0.997284
1.00521 1.00693 1.00108 0.997216
1.01202 1.01452 1.00043 0.997118
1.00548 1 1.00748 0.99802
1.00268 1.00031 1.00461 0.997768
1.00851 1.00808 1.00288 0.997548
1.00056 1 1.00145 0.999112
1.00528 1 1.00689 0.998407
1.00496 1.00006 1.00682 0.998091
0.999952 1 1 0.999952
0.999736 1 1.00039 0.999346
1.00152 1 1.00283 0.99869
0.999613 1 1.00014 0.999473
0.999967 1 1 0.999967
1 1 1 1
0.999979 1 1 0.999979
1 1 1 1
1 1 1 1
1.00073 1 1.00234 0.998395
0.998739 1 1 0.998739
0.999444 1 1 0.999444
0.998861 1 1 0.998861
0.999991 1 1 0.999991
0.999554 1 1 0.999554
0.998947 1 1 0.998947
1 1 1 1
1 1 1 1
0.999648 1 1 0.999648
1 1 1 1
1 1 1 1
1 1 1 1
0.835227 0.91181 0.943311 0.971058
0.857085 0.930122 0.946317 0.97375
0.844471 0.916915 0.947672 0.971847
0.999064 1 1.00064 0.99842
0.999938 1 1.00167 0.998267
1.00002 1 1.00172 0.998301
0.998769 1 1.00049 0.998277
1.00468 1 1.00646 0.998225
0.998482 1 1 0.998482
0.99841 1 1 0.99841
0.998415 1 1 0.998415
0.998373 1 1 0.998373
1.00661 1 1.0082 0.998425
0.832706 0.91419 0.951252 0.957547
0.828814 0.918945 0.937726 0.961814
0.850589 0.935593 0.93995 0.967227
0.782291 0.910442 0.90192 0.952682
0.874376 0.93582 0.97454 0.958751
0.87944 0.928227 0.963528 0.983304
0.920355 0.93571 1.0102 0.973657
0.90475 0.939563 0.978364 0.984243
0.933303 0.94613 1.01309 0.973698
0.835904 0.902757 0.96487 0.959658
0.747767 0.883376 0.894369 0.946465
0.918427 0.932758 0.99818 0.986431
0.916938 0.930258 1.01169 0.974295
0.75898 0.847264 0.93223 0.960923
0.687228 0.824222 0.880377 0.947084
1.01086 1 1.01188 0.998985
1.01243 1 1.01401 0.998439
1.00232 1 1.0041 0.998224
0.977326 0.965946 1.01596 0.995887
1.00728 0.965472 1.0436 0.999707
1.0053 1 1.00687 0.998441
1.03702 0.992724 1.04591 0.998771
1.0143 0.995724 1.01976 0.998918
1.0224 0.978871 1.04521 0.999285
0.962761 0.945854 1.02118 0.996765
1.01832 0.994053 1.02508 0.999345
0.974899 0.961187 1.01722 0.997093
0.863439 0.931215 0.959671 0.966183
0.849663 0.915637 0.952586 0.974135
0.867197 0.934788 0.949056 0.977491
1.00573 0.970666 1.03683 0.999325
0.929979 0.943875 0.997445 0.987801
0.845839 0.917667 0.948293 0.971985
0.915671 0.936336 1.00703 0.971099
0.770938 0.854276 0.939021 0.961049
0.834977 0.918884 0.949211 0.957306
0.659721 0.804265 0.87306 0.939542
0.995581 0.969247 1.02937 0.99786
0.854047 0.928033 0.95435 0.964297
0.717517 0.823244 0.919182 0.948205
0.906182 0.935972 0.980613 0.987313
0.759276 0.858645 0.920765 0.960367
0.879549 0.919821 0.983923 0.971843
0.958947 0.958837 1.0038 0.996323
0.756219 0.84275 0.940795 0.953792
0.756385 0.850155 0.924332 0.962535
0.897595 0.938786 0.983441 0.972221
0.877857 0.925361 0.960094 0.988095
1.01201 0.982347 1.0307 0.999515
0.991535 0.981747 1.01067 0.999304
0.996407 0.994541 1.0034 0.998481
1.00403 0.986691 1.01861 0.998979
1.00133 1.00086 1.00256 0.99791
0.998061 1.00199 0.999119 0.996962
1.01384 1.00067 1.01665 0.99657
1.00764 1.00065 1.01118 0.995855
0.999144 1.00174 1.00137 0.996047
1.00499 1.00195 1.00749 0.995579
1.00223 1.00308 1.0037 0.995473
1.01575 1.01969 1 0.996136
1.03684 1.04051 1 0.996473
1.02656 1.03067 1.00002 0.996001
1.01719 1.02133 1 0.995952
1.01254 1.01626 1 0.996339
1.00999 1.01295 1.00107 0.996006
1.00602 1.00794 1.00244 0.995677
1.0047 1.00771 1 0.997011
1.00238 1.00545 1.00002 0.996924
1.00473 1.00775 1.00032 0.996683
1.00039 1.00068 1.00208 0.997643
1.00186 1.00326 1.0013 0.997318
1.00544 1.00716 1.0011 0.997194
1.00561 1 1.00692 0.998698
1.00553 1.00011 1.00742 0.998023
1.00303 1.00052 1.00469 0.997827
0.999908 1 1 0.999908
1.00144 1 1.00234 0.999104
1.00464 1 1.00624 0.998411
1 1 1 1
0.999942 1 1 0.999942
0.999941 1 1.0006 0.999339
0.999962 1 1 0.999962
1 1 1 1
1 1 1 1
1.00382 1 1.00552 0.998308
0.999622 1 1.00102 0.998606
1.00109 1 1.00272 0.998377
0.999337 1 1 0.999337
0.998886 1 1.00015 0.998738
0.999971 1 1 0.999971
0.999448 1 1 0.999448
0.998858 1 1 0.998858
1 1 1 1
0.999994 1 1 0.999994
0.999557 1 1 0.999557
1 1 1 1
1 1 1 1
1 1 1 1
0.851815 0.927271 0.950472 0.966494
0.838198 0.913872 0.944553 0.971034
0.857176 0.92821 0.947646 0.97449
0.998762 1.00006 1.00039 0.998311
0.999533 1 1.0011 0.998431
1.00029 1 1.00203 0.998266
0.998827 1 1.00055 0.998276
0.999872 1 1.00155 0.998323
1.00284 1 1.00455 0.998298
1.01073 1 1.01277 0.997991
1.01267 1 1.01444 0.998255
0.998417 1 1 0.998417
0.998378 1 1 0.998378
1.0062 1 1.0078 0.998411
1.01909 0.999748 1.02075 0.998622
0.727821 0.829654 0.924625 0.948773
0.842883 0.923703 0.953172 0.957334
0.829757 0.918772 0.938918 0.961868
0.738919 0.874866 0.890523 0.948441
0.838295 0.9075 0.963407 0.958827
0.92673 0.938984 1.01665 0.970782
0.906137 0.933095 0.985949 0.984949
0.916843 0.932042 0.995239 0.988397
0.673968 0.815174 0.876601 0.943164
0.91087 0.927758 1.01056 0.971538
0.777786 0.867877 0.934606 0.958901
0.915999 0.939677 0.985251 0.989394
0.902809 0.928983 0.996395 0.975341
0.748377 0.852501 0.913741 0.960733
0.998809 1 0.999267 0.999542
1.01042 1 1.01144 0.998992
1.01242 1 1.014 0.998443
0.96116 0.946136 1.01915 0.996793
1.02732 0.984793 1.04395 0.999273
1.01469 0.997712 1.01811 0.998926
1.01823 0.995333 1.02368 0.999344
0.971992 0.960259 1.01512 0.997138
0.993737 0.987317 1.00847 0.99805
0.78397 0.856946 0.958358 0.954592
0.860842 0.930457 0.9558 0.967966
0.84939 0.916059 0.951367 0.974621
0.996591 0.968123 1.03147 0.998002
0.89632 0.93125 0.974014 0.98817
0.853115 0.926274 0.955112 0.964304
0.88459 0.912333 0.996442 0.973053
0.765835 0.872562 0.915924 0.958251
0.720463 0.829577 0.914349 0.949824
0.959787 0.956701 1.00686 0.996395
0.752657 0.841906 0.935727 0.955399
0.759007 0.8533 0.925971 0.96061
0.879122 0.926252 0.963546 0.985025
0.89571 0.940929 0.976277 0.975074
0.9506 0.966852 0.984957 0.998207
0.78011 0.865894 0.937724 0.960762
0.925797 0.973658 0.973738 0.976489
0.890234 0.939777 0.961911 0.984792
0.995249 0.980297 1.01598 0.999282
0.988423 0.994331 0.995475 0.998577
0.994105 1.00148 0.99496 0.997661
1.00142 1.00097 1.00247 0.997993
1.00136 1.00242 1.002 0.996945
1.00019 1.00381 0.999428 0.996965
1.00631 1.00082 1.00966 0.995862
0.999014 1.0013 1.00167 0.996058
1.02082 1.0247 0.999301 0.99691
1.00265 1.00398 1.00319 0.995505
1.01474 1.01867 1 0.996147
1.03736 1.04068 0.999764 0.997049
1.04033 1.04337 1 0.997086
1.03947 1.04324 1 0.99639
1.03691 1.04053 1 0.996516
1.0276 1.0315 1 0.99622
1.02512 1.02918 1 0.996057
1.01696 1.02107 1 0.995979
1.01627 1.01965 1 0.996693
1.01271 1.01627 1.00014 0.996366
1.00865 1.01126 1.00148 0.995954
1.00122 1.0039 1 0.997331
1.00502 1.00804 1 0.997005
1.00106 1.00408 1 0.996997
1.00322 1.00008 1.00488 0.998271
1.00148 1.00151 1.00234 0.997641
1.00185 1.00306 1.00145 0.997352
1.00029 1 1.00049 0.999795
1.00394 1 1.00525 0.998695
1.00479 1.00028 1.0065 0.998026
1 1 1 1
0.999891 1 1 0.999891
1.00162 1 1.00253 0.999095
1 1 1 1
0.999934 1 1 0.999934
1 1 1 1
0.99973 1 1.00152 0.998212
1.0026 1 1.00431 0.998297
1.00259 1 1.00412 0.998471
0.999736 1 1.00051 0.999223
0.999962 1 1.00136 0.998604
1.00057 1 1.00221 0.998359
0.999944 1 1 0.999944
0.999341 1 1 0.999341
0.998778 1 1.00004 0.998736
1 1 1 1
0.999978 1 1 0.999978
0.999452 1 1 0.999452
1 1 1 1
0.999997 1 1 0.999997
1 1 1 1
0.759333 0.842051 0.948213 0.951015
0.852216 0.927555 0.950618 0.966504
0.841479 0.916231 0.945831 0.971012
1.00122 1 1.00293 0.998291
1.0044 1.0015 1.00488 0.998023
1.00888 1 1.01075 0.998147
0.999688 1 1.00142 0.998274
0.999606 1 1.00127 0.998343
1.00292 1 1.00455 0.998371
1.01111 1 1.01291 0.998226
1.01019 1 1.01218 0.998029
1.0118 1.00015 1.01378 0.997906
0.989296 1.0006 0.989717 0.998976
1.00478 1 1.0064 0.998397
1.0153 0.999794 1.01694 0.998594
0.75863 0.849474 0.931568 0.958662
0.714658 0.81776 0.923209 0.946611
0.849915 0.929437 0.955337 0.957191
0.66184 0.804993 0.875444 0.939146
0.779287 0.868286 0.933838 0.961087
0.900573 0.92341 1.00176 0.973559
0.923504 0.938098 0.998549 0.985874
0.907157 0.933553 0.984271 0.987253
0.7494 0.84614 0.92303 0.959522
0.885873 0.918899 0.99081 0.973001
0.897526 0.939273 0.966772 0.988397
0.885886 0.940545 0.968319 0.972702
1.00375 1 1.00474 0.999021
0.998396 1 0.99891 0.999485
1.01018 1 1.0112 0.998998
0.970081 0.960424 1.01291 0.997183
1.01812 0.996501 1.02236 0.999344
0.99458 0.988382 1.00831 0.997983
0.981913 0.992302 0.99242 0.997089
0.789356 0.882987 0.927587 0.963749
0.784648 0.855811 0.959707 0.955341
0.86161 0.931541 0.953811 0.96972
0.962229 0.963148 1.00251 0.996542
0.881401 0.926316 0.965436 0.985578
0.753346 0.842641 0.935634 0.955534
0.883025 0.933628 0.972733 0.972311
0.769075 0.859214 0.929701 0.962773
0.954491 0.969354 0.987375 0.997257
0.78898 0.875458 0.936647 0.962177
0.922007 0.974267 0.972685 0.972935
0.895058 0.942031 0.962401 0.987257
0.96048 0.985599 0.976373 0.998096
0.929102 0.9804 0.97115 0.97583
0.93295 0.978252 0.963982 0.989325
0.979431 0.993004 0.987655 0.99866
0.990786 1.00184 0.991314 0.997634
0.981652 1.00751 0.976754 0.997527
1.00326 1.00278 1.00356 0.996928
0.999561 1.00396 0.998648 0.996962
1.02201 1.03247 0.992253 0.997591
0.998706 1.00078 1.00186 0.996069
1.02006 1.02454 0.998731 0.996892
1.03505 1.04305 0.994701 0.997612
1.01373 1.01764 1 0.996158
1.03656 1.04028 0.999377 0.997043
1.04005 1.04443 0.998228 0.997569
1.03764 1.04038 0.999913 0.997446
1.04125 1.04425 0.999968 0.997154
1.0399 1.04309 1 0.996939
1.0408 1.0445 1 0.996455
1.03956 1.04331 1 0.996405
1.03715 1.04073 1 0.996558
1.02832 1.03196 1 0.99647
1.02922 1.0331 1 0.996251
1.02365 1.02764 1 0.996113
1.00977 1.01277 1 0.997044
1.01527 1.01864 1 0.996689
1.01282 1.01631 1.00017 0.996394
0.998742 1.0005 1.00026 0.997981
1.00285 1.00554 1 0.997327
1.00574 1.00877 1 0.996998
1.00121 1 1.00164 0.999576
1.00272 1.0002 1.00425 0.998272
1.00301 1.0024 1.00298 0.99764
1 1 1 1
1.00096 1 1.00119 0.999771
1.0034 1 1.00472 0.998691
0.999999 1 1 0.999999
1.00014 1 1.00026 0.999877
1 1 1 1
0.998522 1.00041 1 0.998113
1.00096 1.00003 1.00271 0.998226
1.00329 1 1.00496 0.998338
1.0009 1 1.00261 0.998285
1.00267 1 1.00421 0.99847
1.00096 1 1.00189 0.999078
0.999909 1 1 0.999909
0.999599 1 1.00037 0.999226
1.00069 1 1.00209 0.998602
1 1 1 1
0.999953 1 1 0.999953
0.999345 1 1 0.999345
1 1 1 1
0.999984 1 1 0.999984
1 1 1 1
0.788969 0.871313 0.941168 0.962097
0.762145 0.844804 0.948194 0.951447
0.851783 0.927447 0.950244 0.966507
1.00394 1 1.00568 0.998272
1.01113 1 1.01315 0.998008
1.00256 1.00092 1.00354 0.998097
1.00066 1.00262 1.00076 0.997287
1.011 1.00094 1.01208 0.998
1.01004 1 1.01186 0.998199
1.00833 1 1.01028 0.998068
1.01504 1.00038 1.01672 0.997975
0.998987 1.0013 1 0.997692
0.979091 1.00112 0.97936 0.998603
0.979455 1.00035 0.981336 0.997733
0.98958 1.00054 0.990014 0.999017
1.00963 1 1.01108 0.998566
0.911751 0.965924 0.968389 0.974727
0.756116 0.84573 0.931577 0.959705
0.714336 0.819154 0.920651 0.947202
0.747427 0.848496 0.920221 0.957253
0.897282 0.929833 0.992161 0.972616
0.91061 0.929768 0.9898 0.989487
0.898607 0.938316 0.967368 0.989986
0.900844 0.943702 0.978039 0.97602
0.925417 0.971676 0.962888 0.989099
0.99486 1.00132 0.995324 0.998218
1.00355 1 1.00455 0.998999
0.99823 1 0.998801 0.999428
0.996159 0.990679 1.0076 0.997951
0.987797 0.995853 0.994647 0.997249
0.90507 0.967489 0.959099 0.975379
0.797772 0.881409 0.938963 0.963947
0.7848 0.853379 0.961846 0.956117
0.96063 0.974669 0.989302 0.996255
0.897857 0.945067 0.964557 0.984956
0.787798 0.872451 0.93884 0.961794
0.91709 0.965614 0.973156 0.975947
0.968381 0.985386 0.984544 0.99817
0.937943 0.989631 0.970304 0.976777
0.929467 0.974552 0.966378 0.98692
0.982202 1.00416 0.980521 0.997562
0.955275 0.99375 0.968448 0.992602
0.991856 1.00442 0.98984 0.997627
0.981151 1.00717 0.976627 0.997477
0.997647 1.03349 0.967447 0.997805
0.999035 1.00397 0.998123 0.996957
1.02267 1.03279 0.992614 0.997566
1.0329 1.05088 0.984968 0.997888
1.01923 1.02438 0.998094 0.996874
1.03451 1.04321 0.994061 0.99759
1.03097 1.0433 0.990342 0.99781
1.03561 1.03979 0.998944 0.997038
1.04003 1.04491 0.997773 0.997549
1.03767 1.04317 0.997074 0.997643
1.03808 1.04087 0.999819 0.9975
1.03641 1.03936 0.999907 0.997258
1.04205 1.04504 0.999915 0.997222
1.03981 1.04301 1 0.99693
1.04196 1.04536 1 0.996745
1.03779 1.04143 1 0.996506
1.0406 1.04432 1 0.996443
1.03964 1.04338 1 0.99642
1.02197 1.02522 1 0.996828
1.02784 1.03147 1 0.996482
1.03091 1.03476 1 0.996282
1.00046 1.0027 1 0.997764
1.01044 1.01343 1 0.997041
1.01413 1.0175 1 0.996685
1.00022 1 1.0009 0.99932
0.999493 1.00104 1.00048 0.997981
1.00429 1.00699 1 0.997324
1 1 1 1
1.00117 1 1.00162 0.999551
1.00183 1.00032 1.00324 0.998274
1 1 1 1
1.00124 1 1.00149 0.999746
1 1 1 1
1.00207 1.00469 1 0.9974
0.998665 1.00056 1 0.998102
1.00021 1 1.00207 0.998139
1.00264 1 1.0044 0.998241
1.00277 1 1.00447 0.998309
1.00232 1 1.00346 0.998863
1.00305 1 1.00459 0.99847
1.0005 1 1.00142 0.999079
0.999864 1 1 0.999864
1 1 1 1
0.999919 1 1 0.999919
0.999406 1 1.00018 0.999228
1 1 1 1
0.99996 1 1 0.99996
1 1 1 1
0.929301 0.981532 0.968323 0.977758
0.787684 0.877135 0.932664 0.962853
0.768154 0.848673 0.952423 0.950339
1.0126 1 1.01476 0.997869
1.00048 1.00047 1.00183 0.998171
1.00901 1.00083 1.01023 0.997966
1.00209 1.0037 1.00104 0.997361
1.01032 1.01332 1.00016 0.996879
0.999308 1.00171 1 0.997601
1.01944 1.00069 1.02074 0.998042
0.999292 1.0018 1 0.997493
0.985029 1.0014 0.985048 0.998585
0.995362 1.00117 0.996497 0.997691
0.976077 1.00319 0.975076 0.997847
0.995475 1.00129 0.996853 0.997332
0.980846 1.00082 0.982141 0.997865
0.993502 1.0004 0.994036 0.99906
0.930503 0.977208 0.962654 0.989146
0.916698 0.970521 0.968771 0.97499
0.759122 0.847108 0.931182 0.962362
0.905031 0.947218 0.982748 0.972235
0.902988 0.937373 0.972114 0.990951
0.928529 0.969093 0.965569 0.992308
0.987604 1.00377 0.986313 0.997551
0.992778 1.00067 0.993903 0.9982
1.00336 1 1.00438 0.998978
0.989524 0.99836 0.993743 0.99739
0.94146 0.974163 0.976766 0.989417
0.920521 0.974245 0.965401 0.978719
0.785718 0.875319 0.933129 0.961964
0.968249 0.981403 0.988339 0.998237
0.932228 0.978568 0.96367 0.98856
0.942887 0.988054 0.976085 0.977667
0.974353 1.00243 0.974328 0.997602
0.953962 0.989871 0.971643 0.991849
0.975719 1.02434 0.954879 0.997543
0.996607 1.01661 0.983717 0.99655
0.979953 1.00684 0.97581 0.997422
0.996042 1.03204 0.96725 0.997799
1.00463 1.05261 0.956504 0.997821
1.02392 1.03368 0.992998 0.997541
1.03267 1.05068 0.984961 0.997869
1.02758 1.04699 0.983659 0.997762
1.03437 1.04357 0.993596 0.997567
1.03066 1.04264 0.990702 0.997792
1.03697 1.04832 0.991542 0.997613
1.04016 1.04545 0.997412 0.997528
1.03572 1.04125 0.997053 0.997635
1.03769 1.04224 0.998268 0.997363
1.03856 1.04136 0.999759 0.997553
1.03677 1.03966 0.999919 0.997303
1.04039 1.04358 1 0.996941
1.03978 1.04299 1 0.996922
1.04196 1.04537 1 0.996734
1.04023 1.0437 1 0.996677
1.02995 1.03334 1 0.996723
1.03782 1.04146 1 0.996511
1.04035 1.04408 1 0.996432
1.00532 1.00777 1 0.99757
1.02114 1.02439 1 0.996831
1.02736 1.03098 1 0.996493
0.999204 1 1.0001 0.999109
1.00178 1.00402 1 0.997761
1.01093 1.01393 1 0.997039
1 1 1 1
0.99998 1 1.00068 0.999303
1.00013 1.00153 1.00063 0.997981
1 1 1 1
1.00126 1 1.00173 0.999527
1 1 1 1
1.01178 1.01484 1 0.996977
1.0036 1.00619 1 0.997425
1.00359 1.00525 1.00066 0.99769
0.998727 1.00064 1 0.998091
1.00005 1 1.00196 0.998097
1.00156 1 1.00299 0.998577
1.00227 1 1.00399 0.99828
1.00218 1 1.00332 0.998865
1.00054 1 1.00075 0.999793
1.00014 1 1.00106 0.999081
0.999873 1 1 0.999873
1 1 1 1
1 1 1 1
0.99993 1 1 0.99993
1 1 1 1
0.932575 0.977361 0.964019 0.989791
0.921296 0.980932 0.963416 0.97487
0.780287 0.870109 0.930369 0.963885
1.02494 1.0283 1.00007 0.996668
1.00717 1.00055 1.0087 0.997932
1.00358 1.00482 1.00133 0.997435
0.999035 1.00146 1 0.99758
1.00979 1.01254 1.00042 0.996861
1.00246 1.00506 0.999905 0.997506
0.999341 1.00205 1 0.997294
0.987194 1.00117 0.987454 0.998566
0.993256 1.0014 0.994146 0.997704
0.969955 1.00215 0.970053 0.997752
1.00199 1.00897 0.996021 0.997046
1.00075 1.00686 0.99657 0.997347
0.996313 1.00195 0.997069 0.997294
0.98138 1.00134 0.982037 0.997997
0.986027 1.00613 0.981942 0.998046
0.926193 0.975635 0.960938 0.987913
0.918613 0.972151 0.968489 0.975673
0.922113 0.963193 0.966841 0.990184
0.990406 1.00541 0.986842 0.99821
0.99278 1.0002 0.994394 0.998176
0.986644 1.00668 0.983774 0.99626
0.927528 0.960322 0.974774 0.990847
0.907876 0.971018 0.958458 0.975497
0.970442 1.0004 0.972351 0.997643
0.961216 0.991834 0.978072 0.990857
0.979203 1.0254 0.957207 0.99764
0.998115 1.01624 0.985328 0.996793
0.993582 1.03874 0.958771 0.997655
1.04187 1.05343 0.991494 0.99751
0.99341 1.03 0.966608 0.997793
1.00838 1.05395 0.958869 0.997808
1.01645 1.05734 0.963623 0.997619
1.03165 1.04995 0.984689 0.99785
1.02605 1.04598 0.983153 0.997758
1.03589 1.05387 0.985398 0.997498
1.03007 1.04183 0.990915 0.997773
1.03579 1.04724 0.991428 0.997626
1.0398 1.04763 0.995204 0.997312
1.03375 1.03933 0.996988 0.997627
1.03823 1.04272 0.998329 0.997361
1.04252 1.04583 0.999803 0.997036
1.0371 1.03993 0.999932 0.997349
1.04074 1.04389 1 0.996981
1.04217 1.04559 1 0.996727
1.04194 1.04537 1 0.996723
1.04001 1.04349 1 0.996658
1.03296 1.03633 1 0.996744
1.0104 1.01298 1 0.997448
1.02923 1.0326 1 0.996741
1.03785 1.04148 1 0.996517
0.998962 1 1 0.998962
1.00691 1.00936 1 0.99757
1.02053 1.02377 1 0.996834
1 1 1 1
0.999096 1 1 0.999096
1.00324 1.00549 1 0.997759
1 1 1 1
0.999638 1 1.00035 0.999287
1 1 1 1
1.02386 1.02728 1 0.996669
1.01305 1.01612 1 0.996977
1.01084 1.01358 1 0.997296
1.00505 1.00761 1.00001 0.99745
1.00235 1.00412 1.00056 0.997684
1.00122 1.00109 1.00187 0.998266
0.999782 1 1.00173 0.998056
1.0025 1 1.00393 0.998578
1.00105 1 1.00138 0.999673
1.00165 1 1.00278 0.998866
1.00004 1 1.00023 0.999804
1 1 1 1
0.999883 1 1 0.999883
1 1 1 1
1 1 1 1
0.981506 1.01057 0.973344 0.997843
0.927012 0.974412 0.96346 0.987436
0.918295 0.971102 0.966784 0.97811
1.01709 1.02007 1.00001 0.997064
1.03474 1.03816 1 0.996706
1.02285 1.02606 1.00013 0.996733
0.998974 1.00142 1 0.997558
1.00931 1.01176 1.00073 0.996842
1.00325 1.00676 0.999034 0.997477
1.01844 1.023 0.998537 0.996999
0.992147 1.00207 0.992358 0.997718
0.966305 1.00159 0.967035 0.997656
1.00329 1.01071 0.995516 0.99713
1.02155 1.02898 0.995915 0.99685
1.00696 1.02449 0.985256 0.997591
1.00313 1.00864 0.99721 0.997311
0.997592 1.00262 0.99772 0.997254
0.990377 1.00799 0.98423 0.998271
0.929677 0.977727 0.9638 0.98657
0.990362 1.00588 0.985671 0.998889
1.02201 1.04117 0.98344 0.998125
0.984801 1.00539 0.983079 0.99638
0.931544 0.970921 0.970406 0.988703
0.98226 1.02681 0.958783 0.997732
0.999517 1.01629 0.986407 0.997049
0.99205 1.03935 0.956615 0.997782
1.04163 1.05481 0.989964 0.997525
1.03618 1.0638 0.976462 0.997514
1.0672 1.08137 0.989227 0.997646
1.01242 1.05609 0.960776 0.997795
1.02155 1.05822 0.967649 0.99762
1.03919 1.06289 0.980249 0.997402
1.02485 1.04513 0.982809 0.997754
1.03571 1.05306 0.985986 0.997497
1.04021 1.0531 0.990456 0.997278
1.03467 1.04617 0.991349 0.997639
1.04029 1.0481 0.995234 0.997308
1.04519 1.04981 0.998551 0.997038
1.03873 1.04316 0.998389 0.997359
1.04283 1.04611 0.999827 0.997036
1.04515 1.04856 1 0.996745
1.04109 1.0442 1 0.997022
1.04171 1.04511 1 0.99674
1.03543 1.03883 1 0.996722
1.03982 1.04332 1 0.99664
1.03286 1.03624 1 0.99674
1.01258 1.01524 1 0.997381
0.998932 1.00003 1 0.998898
1.01099 1.01357 1 0.997448
1.02853 1.03188 1 0.996758
1 1 1 1
0.99895 1 1 0.99895
1.0084 1.01086 1 0.99757
1 1 1 1
0.999083 1 1 0.999083
1 1 1 1
1.03237 1.0359 1 0.996585
1.0237 1.02714 1 0.996657
1.0172 1.02027 1 0.996992
1.01405 1.01712 1 0.996976
1.00948 1.01221 1 0.997303
1.0023 1.00398 1.00035 0.99798
1.00096 1.00282 1.00046 0.997678
1.00135 1.00066 1.00243 0.998268
1.00051 1 1.00104 0.999473
1.00402 1 1.00544 0.998579
1.0009 1 1.00121 0.99969
1 1 1 1
0.999818 1 1 0.999815
1 1 1 1
1 1 1 1
1.00645 1.03682 0.972593 0.998068
0.97871 1.00952 0.972271 0.997129
0.927045 0.976207 0.961025 0.988153
1.0302 1.03343 1 0.996881
1.01835 1.02115 1 0.997255
1.0499 1.05331 1 0.996757
1.03538 1.03882 1 0.99669
1.0209 1.02399 1.00018 0.996799
1.04183 1.04682 0.998476 0.996753
1.00388 1.0085 0.997966 0.997449
1.01806 1.02211 0.999104 0.996937
1.04026 1.05756 0.986573 0.997024
1.00353 1.0122 0.994208 0.997215
1.02201 1.02957 0.995852 0.996796
1.00813 1.02609 0.984838 0.997624
1.00352 1.00894 0.997347 0.997271
0.995194 1.00982 0.987015 0.998484
1.05279 1.07302 0.983416 0.997695
1.02292 1.04077 0.98468 0.998146
0.983185 1.00409 0.982623 0.996496
0.991277 1.03928 0.955808 0.997907
1.04038 1.05515 0.988431 0.99754
1.03195 1.06299 0.973201 0.997536
1.06798 1.08328 0.988206 0.997641
1.05661 1.07586 0.984537 0.997531
1.02622 1.05873 0.971606 0.997621
1.03986 1.06227 0.981444 0.997411
1.04163 1.05834 0.98687 0.997301
1.03546 1.05222 0.986545 0.997496
1.04009 1.05281 0.990632 0.997258
1.04516 1.05295 0.995573 0.997021
1.04082 1.0486 0.995267 0.997305
1.0453 1.04989 0.998596 0.997034
1.04831 1.05173 1 0.996748
1.04316 1.04642 0.999852 0.997035
1.04494 1.04835 1 0.996748
1.03884 1.04231 1 0.996674
1.04124 1.04464 1 0.996754
1.03554 1.03894 1 0.996727
1.01361 1.01635 1 0.997308
1.03272 1.03611 1 0.996736
1.01281 1.01547 1 0.997379
0.999134 1.00005 1 0.99908
0.999654 1 1 0.999654
0.999 1.00002 1 0.998977
1.01157 1.01416 1 0.997447
1 1 1 1
0.998939 1 1 0.998939
1 1 1 1
1.05604 1.05939 1 0.996841
1.04165 1.04512 1 0.99668
1.03333 1.03687 1 0.996587
1.02469 1.02794 1 0.996841
1.02388 1.02733 1 0.996645
1.01809 1.02116 1 0.996992
1.00623 1.00851 1 0.997741
1.00829 1.01101 1 0.997311
1.00141 1.00297 1.00047 0.997982
0.999342 1 1.00012 0.99922
1.00139 1.0003 1.00282 0.99827
1.00062 1 1.00113 0.999493
1 1 1 1
1.00034 1 1.00064 0.999706
1 1 1 1
1 1 1 1
1.04693 1.07154 0.979535 0.997443
1.01075 1.04225 0.971604 0.998126
0.976051 1.00962 0.970222 0.996425
1.04696 1.05063 0.999733 0.996776
1.02791 1.03108 1 0.996934
1.01935 1.02196 1 0.997443
1.04857 1.05197 1 0.996774
1.03604 1.03949 1 0.996674
1.05001 1.06557 0.988356 0.997004
1.03835 1.04367 0.998185 0.996712
1.01768 1.02097 0.9999 0.996874
1.03903 1.05616 0.986721 0.997019
1.02495 1.03224 0.996185 0.996742
1.01294 1.03167 0.984143 0.997664
1.05661 1.07388 0.986255 0.99763
1.05576 1.07502 0.984314 0.997727
1.02356 1.04061 0.985423 0.998168
1.02906 1.06332 0.97015 0.997556
1.06967 1.086 0.987296 0.997636
1.05654 1.0768 0.983607 0.997539
1.04759 1.06028 0.990611 0.997393
1.04048 1.06158 0.982657 0.997421
1.04186 1.05803 0.987395 0.997288
1.04611 1.05545 0.994074 0.997055
1.04 1.05256 0.990806 0.997239
1.04565 1.05343 0.995584 0.99702
1.05068 1.05453 0.999597 0.996747
1.0454 1.04994 0.998641 0.997031
1.04862 1.05204 0.999998 0.996748
1.0415 1.04504 1 0.996618
1.04473 1.04813 1 0.996751
1.03907 1.04254 1 0.996678
1.01494 1.01778 1 0.997213
1.03568 1.03907 1 0.996733
1.01398 1.01671 1 0.997307
0.999119 1.00003 1 0.99909
1.01301 1.01568 1 0.997377
0.999115 1.00004 1 0.999075
0.999676 1 1 0.999676
0.999834 1 1 0.999834
0.999075 1.00001 1 0.999063
1 1 1 1
1.05112 1.0547 0.999778 0.996829
1.04692 1.05034 1 0.996742
1.05504 1.05826 1 0.996963
1.03471 1.03807 1 0.996765
1.04369 1.04717 1 0.996668
1.03425 1.03779 1 0.996589
1.02566 1.02892 1 0.996834
1.01147 1.01395 1 0.997548
1.01892 1.022 1 0.996991
1.00482 1.0071 1 0.997742
0.99902 1 1 0.99902
1.00039 1.00188 1.00052 0.997985
0.999617 1 1.00038 0.999239
1 1 1 1
1.00091 1 1.0014 0.999513
1 1 1 1
1 1 1 1
1.04809 1.06827 0.983731 0.997332
1.04481 1.06926 0.979644 0.997438
1.01341 1.0451 0.971454 0.998176
1.05051 1.05957 0.994517 0.996919
1.04451 1.04835 0.999553 0.996777
1.02587 1.02897 1 0.996989
1.04706 1.05043 1 0.996792
1.04856 1.06388 0.988586 0.99698
1.03475 1.04037 0.997918 0.996672
1.03379 1.05053 0.987005 0.997014
1.05099 1.0639 0.990389 0.997454
1.05521 1.07232 0.986429 0.99759
1.05849 1.07671 0.985289 0.997759
1.04626 1.05571 0.993743 0.99729
1.05608 1.07741 0.982618 0.997547
1.0475 1.06038 0.990451 0.997379
1.04773 1.05632 0.994692 0.997157
1.04215 1.05772 0.987964 0.997276
1.04625 1.05561 0.99405 0.997057
1.05146 1.05585 0.999082 0.99676
1.04609 1.05385 0.9956 0.997019
1.05065 1.05452 0.99958 0.996748
1.04256 1.04614 1 0.996579
1.04884 1.05226 0.999999 0.996749
1.04165 1.04519 1 0.996621
1.01585 1.01879 1 0.99712
1.03929 1.04275 1 0.996681
1.0152 1.01804 1 0.997213
0.999078 1.00001 1 0.999065
1.01438 1.01712 1 0.997306
0.999117 1.00004 1 0.99908
0.999681 1 1 0.999681
0.999124 1.00005 1 0.999072
0.999683 1 1 0.999683
1 1 1 1
1.05066 1.05562 0.998567 0.996732
1.04895 1.05244 1 0.996684
1.05282 1.05644 0.999752 0.996829
1.04089 1.04425 1 0.996789
1.04815 1.05154 1 0.996773
1.05419 1.05727 1 0.997084
1.01506 1.01771 1 0.997391
1.0347 1.03807 1 0.996756
1.04593 1.04943 1 0.996656
1.02651 1.02978 1 0.996827
1.00989 1.01237 1 0.997549
0.998985 1.00007 1 0.998915
1.00339 1.00566 1 0.997743
0.999034 1 1 0.999034
1 1 1 1
0.999843 1 1.00059 0.999257
1 1 1 1
1 1 1 1
1.0466 1.05972 0.990386 0.997201
1.04801 1.06847 0.983491 0.997315
1.04478 1.0693 0.979587 0.997434
1.04975 1.05893 0.994383 0.996935
1.04176 1.0458 0.999363 0.996777
1.04803 1.06314 0.988793 0.996956
1.04773 1.05779 0.993181 0.997291
1.05134 1.06404 0.99059 0.997448
1.05386 1.07086 0.986537 0.997551
1.04668 1.05601 0.993833 0.997311
1.04768 1.05499 0.995958 0.997103
1.0474 1.0605 0.990255 0.997365
1.04802 1.05634 0.994999 0.997116
1.05118 1.05615 0.998446 0.996847
1.04639 1.05579 0.994022 0.997059
1.05128 1.05572 0.99903 0.996762
1.04266 1.04627 1 0.996553
1.05084 1.05473 0.999557 0.996749
1.04293 1.04651 1 0.996581
1.0161 1.0191 1 0.997056
1.04195 1.04548 1 0.996624
1.01593 1.01887 1 0.997121
0.99901 1 1 0.99901
1.01548 1.01831 1 0.997213
0.99905 1 1 0.999049
0.99966 1 1 0.99966
0.99908 1.00001 1 0.999072
0.999697 1 1 0.999697
0.999686 1 1 0.999686
1.05005 1.05766 0.995805 0.996986
1.05103 1.05463 0.999995 0.996588
1.05112 1.05691 0.997753 0.99676
1.04307 1.04651 1 0.996708
1.04812 1.05162 1 0.996673
1.05448 1.05813 0.999727 0.996829
1.01664 1.01941 1 0.997283
1.04072 1.0441 1 0.996757
1.04919 1.05255 1 0.996804
0.999265 1.00038 1 0.998884
1.01465 1.0173 1 0.997393
1.03484 1.03822 1 0.996747
1.00854 1.01102 1 0.99755
0.999051 1.00012 1 0.998927
1 1 1 1
0.999048 1 1 0.999048
1 1 1 1
1 1 1 1
1.04501 1.05495 0.993377 0.997185
1.04669 1.05974 0.990462 0.997193
1.04749 1.06815 0.983312 0.997298
1.04904 1.05832 0.994261 0.996951
1.048 1.05408 0.99717 0.997061
1.04801 1.05787 0.993365 0.997301
1.05174 1.06416 0.990859 0.997441
1.04713 1.05633 0.993944 0.997332
1.04768 1.0551 0.995844 0.997113
1.05123 1.05598 0.99866 0.996837
1.0484 1.05639 0.995341 0.997075
1.05127 1.05598 0.998734 0.996799
1.04274 1.04634 0.999964 0.996595
1.05101 1.0555 0.998981 0.996765
1.04304 1.04665 1 0.996556
1.01569 1.01873 1 0.997007
1.04301 1.04659 1 0.996582
1.01595 1.01895 1 0.997057
0.998778 1 1 0.998778
1.01595 1.01888 1 0.997121
0.998912 1 1 0.998912
1 1 1 1
0.999035 1 1 0.999035
0.999682 1 1 0.999682
0.999707 1 1 0.999707
1.04793 1.05478 0.996421 0.997077
1.05062 1.05486 0.999258 0.996715
1.05044 1.05748 0.996359 0.996977
1.04293 1.04652 1 0.996566
1.04997 1.05384 0.999719 0.996606
1.05162 1.05825 0.996939 0.996788
1.01679 1.01974 1 0.997107
1.04326 1.04671 1 0.996708
1.04734 1.05085 1 0.996662
0.999129 1.00025 1 0.998884
1.01636 1.01918 1 0.997241
1.04052 1.04394 1 0.996725
1 1 1 1
0.99914 1.00025 1 0.998895
1.01382 1.01647 1 0.997395
0.999014 1.00008 1 0.998939
1 1 1 1
1 1 1 1
1.04677 1.05285 0.997138 0.997074
1.04535 1.05517 0.993487 0.997192
1.0467 1.05973 0.990489 0.997185
1.05132 1.05545 0.999308 0.996775
1.04735 1.05375 0.996845 0.997074
1.04829 1.05795 0.993542 0.997312
1.04762 1.05521 0.995675 0.997123
1.05086 1.05574 0.99853 0.996838
1.04184 1.04534 1 0.996657
1.05121 1.05573 0.998965 0.996752
1.04277 1.04636 0.999968 0.996596
1.01502 1.01816 1 0.996913
1.04357 1.04717 1 0.996558
1.01554 1.01859 1 0.997008
0.998737 1 1 0.998737
1.01592 1.01892 1 0.997057
0.998776 1 1 0.998776
1 1 1 1
0.998798 1 1 0.998798
0.999821 1 1 0.999821
0.9997 1 1 0.9997
1.04771 1.05344 0.997515 0.99703
1.05133 1.05507 0.999675 0.996781
1.04803 1.05482 0.996471 0.997084
1.04267 1.04627 1 0.996562
1.05142 1.05537 0.999559 0.996699
1.05084 1.0573 0.996916 0.996967
1.01621 1.01926 1 0.997015
1.04277 1.04634 1 0.99659
1.04889 1.05303 0.999436 0.996623
0.998887 1.00003 1 0.99886
1.01671 1.01967 1 0.997094
1.04345 1.04689 1 0.996708
1 1 1 1
0.999197 1.0003 1 0.998893
1.01626 1.01911 1 0.997199
1 1 1 1
0.999234 1.00033 1 0.998907
1 1 1 1
1.0512 1.05541 0.999191 0.996822
1.04624 1.05229 0.997185 0.997058
1.04564 1.05533 0.993606 0.997198
1.04125 1.04475 1 0.996653
1.05088 1.05528 0.999032 0.996797
1.0467 1.05342 0.99653 0.997087
1.05056 1.0555 0.998472 0.996839
1.04184 1.04539 0.99995 0.996657
1.01415 1.0173 1 0.996898
1.04285 1.04641 1 0.996597
1.01493 1.01805 1 0.996939
0.998688 1 1 0.998688
1.01532 1.01837 1 0.997009
0.998735 1 1 0.998735
1 1 1 1
0.998773 1 1 0.998773
1 1 1 1
0.999675 1 1 0.999675
1.05253 1.05646 0.999477 0.9968
1.04702 1.05326 0.997015 0.997052
1.04214 1.0457 1 0.996597
1.05175 1.05539 0.999766 0.99678
1.04817 1.05492 0.996505 0.997092
1.01522 1.01823 1 0.997043
1.04218 1.04578 1 0.996558
1.05221 1.05585 0.999867 0.996683
0.998809 1 1 0.998809
1.01647 1.01949 1 0.99704
1.04259 1.04613 1 0.996614
1 1 1 1
0.998959 1.00009 1 0.998866
1.01667 1.01965 1 0.997081
1 1 1 1
0.99918 1.00028 1 0.998902
1 1 1 1
1.04115 1.04461 1 0.996682
1.0512 1.05527 0.999332 0.996809
1.04574 1.05175 0.997234 0.997043
1.01317 1.01631 1 0.996911
1.04122 1.04474 0.999983 0.996653
1.05044 1.0551 0.998762 0.996818
1.04181 1.04544 0.99987 0.996657
1.0142 1.01735 1 0.996897
0.998659 1 1 0.998659
1.01487 1.01796 1 0.996965
0.998686 1 1 0.998686
1 1 1 1
0.998732 1 1 0.998732
1 1 1 1
1 1 1 1
1.04191 1.04545 1 0.996614
1.05217 1.05619 0.999351 0.996841
1.0463 1.05303 0.996525 0.997075
1.01438 1.01739 1 0.997039
1.04178 1.04534 1 0.996594
1.05216 1.05571 0.99986 0.996779
0.998759 1 1 0.998759
1.01561 1.01863 1 0.997041
1.04173 1.04533 1 0.996555
1 1 1 1
0.998812 1 1 0.998812
1.01672 1.01972 1 0.997064
1 1 1 1
0.998994 1.00012 1 0.998872
1 1 1 1
1.01309 1.01616 1 0.996985
1.04106 1.04455 0.999999 0.996653
1.05122 1.05515 0.999482 0.996796
0.998674 1 1 0.998674
1.01328 1.01643 1 0.996908
1.04119 1.04474 0.999947 0.996654
1.01425 1.01741 1 0.996897
0.998659 1 1 0.998659
1 1 1 1
0.998683 1 1 0.998683
1 1 1 1
1 1 1 1
1.01365 1.01668 1 0.99702
1.04162 1.04514 1 0.996633
1.05182 1.05593 0.999224 0.996882
0.998939 1 1 0.998939
1.01464 1.01766 1 0.997037
1.04141 1.04497 1 0.99659
1 1 1 1
0.99876 1 1 0.99876
1.01598 1.019 1 0.997038
1 1 1 1
0.998821 1.00001 1 0.998815
1 1 1 1
0.998665 1 1 0.998665
1.01323 1.01632 1 0.996961
1.04098 1.04451 0.999987 0.996625
1 1 1 1
0.998673 1 1 0.998673
1.0134 1.01654 1 0.996905
0.998658 1 1 0.998658
1 1 1 1
1 1 1 1
0.998899 1 1 0.998899
1.01388 1.01691 1 0.997021
1.04132 1.04482 1 0.996651
1 1 1 1
0.998732 1 1 0.998732
1.01492 1.01794 1 0.997036
1 1 1 1
0.998762 1 1 0.998762
1 1 1 1
0.999619 1 1 0.999619
0.998791 1 1 0.998791
1.01335 1.01646 1 0.996936
1 1 1 1
0.998674 1 1 0.998674
1 1 1 1
0.999634 1 1 0.999634
0.998809 1 1 0.998809
1.01414 1.01717 1 0.997021
0.999816 1 1 0.999816
0.998733 1 1 0.998733
1 1 1 1
1 1 1 1
0.998696 1 1 0.998696
1 1 1 1
0.999815 1 1 0.999815
0.998717 1 1 0.998717
1 1 1 1
1 1 1 1
1 1 1 1

VECTORS lamdaE float
1.00134 1.00013 0.99367
1.0009 1.00075 0.99692
1.00089 1.00033 0.993971
1.00144 1.00003 0.993613
1.00141 0.999967 0.993736
1.00129 1.00037 0.993479
1.00272 1.00044 0.990652
1.00091 1.00069 0.99692
1.00088 1.00015 0.997371
1.00035 1.00094 0.997404
1.00076 1.00086 0.993697
1.00237 1.00131 0.989457
1.001 0.999974 0.99414
1.00078 1.00003 0.994245
1.00049 1.00053 0.994243
1.0011 1.00002 0.993948
1.00079 1.00073 0.993753
1.00104 1.00002 0.994048
1.00294 1.00025 0.990517
1.00103 1.00002 0.997029
1.00137 1.00008 0.993647
1.00144 0.999962 0.993702
1.00279 1.00014 0.990829
1.00283 1.00015 0.990763
1.00126 1.00052 0.993327
1.00253 1.00095 0.990437
1.00518 1.00071 0.986099
1.00091 1.00064 0.996935
1.00109 1.00004 0.995572
1.00067 1.00066 0.99558
1.00083 1.0007 0.996984
1.00227 1.00146 0.98947
1.00138 0.999818 0.993698
1.00112 1.00023 0.993797
1.00314 1.00005 0.991038
0.999935 1.00097 0.997659
1.00281 1.00076 0.99098
1.00205 1.00186 0.989437
1.00448 1.00147 0.985754
1.00014 0.999463 0.998008
1.00104 0.999988 0.997026
1.001 1.00002 0.995592
1.00095 0.999974 0.997077
1.00062 1.00005 0.994462
1.0027 0.999931 0.990348
1.00096 0.999967 0.997299
1.0031 1.00007 0.991103
1.00078 0.999957 0.994283
1.00069 1.00005 0.994346
1.0003 1.00112 0.994009
1.00314 1.00007 0.990395
1.00084 1.00004 0.995737
1.00102 1.0001 0.993983
1.00072 1.00099 0.993578
1.00111 0.999936 0.994025
1.00294 1.00011 0.990669
1.0028 1.00069 0.990305
1.003 1.00005 0.990621
1.00515 1.00071 0.986115
1.00093 1 0.997073
1.00123 1.00007 0.993849
1.00246 1 0.992015
1.0027 1.00015 0.990961
1.00282 1.00009 0.990819
1.00504 1.00024 0.986684
1.00515 1.00028 0.986419
1.00102 1.00047 0.993618
1.00202 1.0019 0.99028
1.00512 1.001 0.985922
1.00529 1.0003 0.985527
1.00135 1.00007 0.996911
1.00075 1.00063 0.997126
1.001 1.00054 0.996923
1.00219 1.00156 0.989477
1.00143 0.999946 0.996854
1.00122 1.00027 0.996934
1.00301 0.999996 0.989626
1.0002 1.00075 0.995953
1.00256 1.0008 0.989575
1.00192 1.00211 0.990294
1.00456 1.00132 0.985741
1.00041 1.00011 0.997569
1.00027 1.0019 0.992512
1.00317 0.999957 0.98946
1.00299 1.00016 0.989587
1.00519 1.00029 0.985784
1.0014 1.00254 0.991582
1.00488 1.00081 0.985745
1.00366 1.00272 0.985901
1.00525 1.00136 0.984451
0.999971 0.998619 0.998446
0.999997 0.999245 0.998192
1.00131 0.999996 0.996859
1.00109 0.999986 0.997002
1.00099 0.999979 0.997074
1.00088 0.999997 0.995739
1.00274 0.999922 0.991021
1.00115 0.99998 0.995506
1.00303 1.00008 0.990407
1.00096 0.999987 0.997089
1.00254 0.999849 0.990634
1.00294 1.00003 0.991399
1.00493 0.999365 0.987246
1.00316 1.00001 0.991018
1.00515 0.999744 0.986512
1.00098 0.999999 0.994164
1.00066 1.00011 0.994322
1.00018 1.0015 0.993828
1.00078 0.999886 0.994345
1.00308 1.00011 0.990509
1.00316 0.999977 0.990487
1.00306 1.00039 0.990184
1.00512 1.0007 0.986132
1.00098 0.999987 0.997081
1.00088 1.00007 0.994181
1.00263 0.999961 0.990867
1.00284 1.00013 0.990791
1.00078 1.00089 0.995272
1.00238 1.00169 0.990358
1.00298 1.00004 0.99067
1.00506 1.00011 0.986807
1.00507 1.00101 0.985944
1.00515 1.00042 0.986331
1.00529 1.00029 0.985562
1.00253 0.999897 0.990624
1.00255 1.00005 0.991244
1.00485 0.999245 0.988001
1.00499 0.999795 0.987176
1.00508 1.00009 0.986705
1.00529 0.998829 0.987256
1.00039 1.00068 0.997363
1.0053 0.99969 0.986132
1.00148 1.00281 0.989282
1.00471 1.00138 0.985429
1.0053 1.00097 0.98491
1.00524 0.998555 0.987225
1.00072 1.00292 0.99063
1.00165 1.00473 0.987198
1.00144 0.999968 0.996873
1.00119 1.00029 0.996925
1.00302 0.999979 0.989618
1.00038 1.00044 0.997465
1.00158 1.00242 0.989593
1.00256 1.0008 0.989591
1.00465 1.00119 0.985728
1.00023 1.00002 0.997729
1.00012 1.00208 0.992545
1.00319 0.999992 0.990231
1.00301 1.00021 0.990308
1.00518 1.0003 0.985762
1.00103 1.00274 0.990268
1.00492 1.00076 0.985729
1.00387 1.00237 0.985898
1.00528 1.00127 0.984568
1.00057 1.00252 0.991246
1.00005 1.00119 0.993693
1.0015 1.00478 0.987963
1.00521 1.00013 0.985927
1.00511 1.00045 0.985737
1.00532 0.999491 0.986386
1.00309 1.00324 0.986354
1.0053 1.00051 0.98538
1.00502 1.00188 0.984311
1.0053 1.00053 0.985144
0.99992 0.998151 0.998716
0.999898 0.998572 0.998559
0.999883 0.999092 0.998355
1.00046 1.00269 0.991301
1.00019 1.00036 0.997624
1.00142 0.999966 0.996838
1.00118 0.999994 0.996925
1.00289 1.00011 0.989768
1.00263 0.99992 0.990406
1.00097 0.999978 0.997065
1.00094 0.999981 0.997086
1.00253 0.99986 0.990627
1.00287 1.00001 0.990713
1.00492 0.999365 0.987245
1.00303 1.00005 0.989567
1.00511 0.999758 0.986509
1.00249 0.999859 0.990687
1.00485 0.999263 0.987472
1.00505 0.999524 0.986893
1.00536 0.997117 0.988949
1.00519 0.999963 0.986179
1.00535 0.997844 0.988176
1.00095 0.999987 0.99708
1.00052 1.00012 0.994513
1.00265 0.999959 0.989858
1.00299 1.00013 0.990619
1.0001 1.00141 0.997339
1.00285 1.00129 0.99044
1.00313 1.00002 0.990523
1.00508 0.999969 0.98693
1.00514 1.00056 0.986242
1.00502 1.00105 0.985966
1.00529 1.00029 0.985598
1.00251 0.99989 0.990628
1.0027 1.00007 0.991072
1.00488 0.999231 0.987705
1.00502 0.999933 0.987041
1.00054 1.00072 0.997252
1.00173 1.00254 0.990118
1.00455 1.00174 0.985667
1.0051 1.00013 0.986663
1.00529 0.998485 0.987596
1.0053 1.00088 0.984985
1.0053 0.9998 0.986116
1.00523 0.998574 0.987246
1.00079 1.00282 0.990616
1.00176 1.00469 0.9872
1.00483 0.999336 0.987441
1.00492 0.999542 0.987603
1.00536 0.997657 0.988421
1.00531 0.997747 0.988293
1.00532 0.998967 0.986949
1.00525 0.996342 0.989694
1.00103 1.00303 0.989902
1.00523 0.997543 0.988301
1.00391 1.00238 0.985666
1.00531 1.00146 0.984258
1.00523 0.999918 0.986009
1.0052 0.99683 0.989116
1.00265 1.00382 0.986498
1.00101 1.00509 0.987999
1.00335 1.00303 0.98631
1.00307 0.999979 0.989554
1.00005 0.999859 0.997912
1 1.00209 0.992577
1.00285 1.00024 0.989647
1.00519 1.0003 0.985738
1.00096 1.00295 0.990211
1.00402 1.00199 0.985895
1.00495 1.00072 0.985714
1.00529 1.00117 0.984685
1.00054 1.00265 0.991252
1 1.00101 0.993738
1.00117 1.00497 0.987929
1.0052 1.00016 0.985904
1.00511 1.00045 0.985719
1.00532 0.999497 0.98636
1.00319 1.00302 0.986369
1.0053 1.0006 0.985297
1.00513 1.00185 0.984282
1.0053 1.00031 0.985309
1.00004 1.00027 0.994518
1.00239 1.00406 0.986982
1.00083 1.00436 0.989311
1.00244 1.00392 0.987103
1.00533 0.998887 0.987026
1.00531 1.00008 0.985767
1.00526 0.997756 0.988031
1.00466 1.0019 0.984957
1.00525 0.99923 0.986678
1.00527 1.0013 0.984705
1.00529 0.999563 0.986118
1.00022 1.00164 0.992853
1.00026 0.999063 0.995322
0.99995 0.997712 0.998869
0.999897 0.99804 0.998776
0.999857 0.99843 0.998651
1.00011 1.00236 0.992187
1.00009 0.999963 0.997863
1.00053 1.00263 0.99127
1.00029 1.00046 0.997532
1.00301 1.00009 0.989571
1.00278 0.999999 0.990088
1.00508 0.999773 0.986507
1.0049 0.999371 0.987244
1.00254 0.999875 0.990626
1.00099 0.99997 0.997084
1.00251 0.999855 0.99069
1.00484 0.999273 0.987471
1.00503 0.999537 0.986893
1.00535 0.997124 0.988957
1.00517 0.999985 0.986163
1.00535 0.997837 0.988163
1.00482 0.999268 0.987514
1.00533 0.996923 0.989186
1.00537 0.997438 0.988593
1.00523 0.994956 0.991226
1.00534 0.998324 0.987646
1.00525 0.995631 0.990432
1.00252 0.999888 0.990638
1.00286 1.00005 0.990901
1.00491 0.999196 0.987411
1.00505 1.00006 0.986906
1.00066 1.00078 0.99713
1.00207 1.00234 0.990758
1.00451 1.00203 0.985902
1.00511 1.00017 0.986622
1.00529 0.998136 0.987936
1.0053 0.99991 0.986101
1.00531 1.00078 0.985061
1.00523 0.998591 0.987267
1.00083 1.00274 0.990602
1.00182 1.0046 0.987201
1.00484 0.999165 0.987576
1.00495 0.999521 0.987581
1.00536 0.997431 0.988666
1.0053 0.998119 0.987927
1.00111 1.00294 0.989902
1.00385 1.00258 0.985682
1.00529 1.00157 0.984178
1.00532 0.999172 0.986787
1.00525 0.996044 0.989953
1.00524 0.999716 0.986205
1.00522 0.997562 0.988309
1.0052 0.996781 0.989057
1.00261 1.0039 0.986476
1.00314 1.00303 0.986277
1.00108 1.00503 0.988026
1.00534 0.997404 0.98873
1.00535 0.99762 0.988487
1.00521 0.995398 0.990835
1.00524 0.995464 0.990537
1.00523 0.996485 0.989298
1.00526 0.995159 0.990713
1.00331 1.00313 0.986043
1.00519 0.995704 0.990004
1.00521 1.00222 0.983822
1.00524 1.0009 0.984782
1.0052 0.998404 0.987469
1.00518 0.996096 0.989802
1.00061 1.00487 0.988846
1.00437 1.00223 0.985402
1.00223 1.00434 0.986566
1.00475 1.00193 0.985428
1.00518 1.00019 0.985881
0.999985 1.00099 0.993782
1.00038 1.00282 0.991266
1.00082 1.00511 0.987894
1.00512 1.00044 0.9857
1.00532 0.999504 0.986334
1.00329 1.00284 0.986386
1.00522 1.00189 0.984251
1.00531 1.00068 0.985213
1.00529 1.00009 0.985472
1.00005 1.00018 0.994555
1.00227 1.00401 0.986986
1.00063 1.00447 0.989317
1.00232 1.00392 0.987077
1.00533 0.998891 0.987004
1.00531 1.00008 0.98574
1.00525 0.997746 0.988026
1.00476 1.00184 0.984975
1.00525 0.999372 0.986496
1.00524 1.00118 0.984681
1.00528 0.999463 0.986271
1.00017 0.999539 0.995039
1.00051 1.00347 0.990661
1.00368 1.00237 0.986189
1.00155 1.00498 0.987961
1.00368 1.00179 0.987229
1.00528 0.996965 0.988854
1.00525 0.998515 0.987228
1.00523 0.996603 0.989024
1.00477 1.00155 0.984923
1.00524 0.998337 0.987399
1.005 1.00054 0.985621
1.00032 1.00189 0.992469
1.00032 1.00319 0.991186
1.00011 1.00153 0.993168
1.0002 1.00166 0.99285
1.00024 0.998811 0.996187
1.00024 0.999018 0.995696
1.00013 0.997359 0.997564
0.999951 0.997653 0.998897
0.999885 0.997954 0.998824
0.999871 1.00151 0.993418
0.999922 0.999451 0.998229
1.0002 1.00229 0.992174
1.00016 1.00004 0.997771
1.0006 1.00254 0.991244
1.00041 1.00051 0.997438
1.00515 1 0.986147
1.005 0.999545 0.986893
1.00535 0.997856 0.988149
1.00533 0.997133 0.988965
1.00483 0.999284 0.987471
1.0025 0.999845 0.99069
1.00481 0.999269 0.987518
1.00533 0.996929 0.989191
1.00536 0.997451 0.988591
1.00523 0.994958 0.991207
1.00534 0.998326 0.987629
1.00526 0.995593 0.990436
1.00532 0.996917 0.989213
1.00525 0.994957 0.99122
1.00522 0.995151 0.990988
1.00518 0.994955 0.991258
1.00528 0.996257 0.989672
1.00525 0.994924 0.990872
1.00484 0.998997 0.987712
1.00497 0.999514 0.987559
1.00535 0.997235 0.988911
1.0053 0.998494 0.987562
1.00119 1.00287 0.989906
1.00366 1.00291 0.985702
1.00528 1.0017 0.984098
1.00532 0.999377 0.986625
1.00525 0.995735 0.990213
1.00521 0.997581 0.988317
1.00525 0.999522 0.9864
1.0052 0.996728 0.988999
1.00262 1.00406 0.986452
1.0031 1.00297 0.986245
1.00117 1.00491 0.988054
1.00533 0.997241 0.988905
1.00535 0.997594 0.98849
1.00522 0.995188 0.991025
1.00522 0.995697 0.990323
1.00324 1.0033 0.986035
1.00518 1.00222 0.983862
1.00524 1.00105 0.984643
1.00523 0.996806 0.989007
1.00526 0.995052 0.990745
1.00521 0.998326 0.987428
1.00521 0.995731 0.989982
1.00519 0.995985 0.989862
1.00423 1.00247 0.985363
1.00469 1.00191 0.985208
1.00077 1.00473 0.988865
1.00204 1.00438 0.986645
1.00522 0.994947 0.991311
1.00525 0.995585 0.990454
1.00513 0.99495 0.991331
1.00523 0.994915 0.990913
1.00521 0.99514 0.990548
1.00526 0.994929 0.990743
1.00511 1.00214 0.984265
1.00523 0.995036 0.990467
1.00519 1.00212 0.983719
1.00521 1.00024 0.985373
1.00521 0.997616 0.987988
1.0052 0.996113 0.989739
1.0004 1.00421 0.989911
1.00115 1.0051 0.987467
1.00506 1.00235 0.98416
1.00373 1.00367 0.98569
1.00503 1.00315 0.983635
1.00004 1.00007 0.99459
1.00533 0.998892 0.986983
1.00043 1.00462 0.989324
1.00219 1.00399 0.98699
1.00224 1.00387 0.987052
1.00531 1.00009 0.985713
1.00525 0.997737 0.988022
1.00511 1.00151 0.984993
1.00523 1.00107 0.984658
1.00525 0.99951 0.986316
1.00528 0.999374 0.986424
1.00016 0.999471 0.995071
1.00036 1.00359 0.990686
1.00394 1.00212 0.986216
1.00112 1.00506 0.987935
1.0034 1.00174 0.987326
1.00527 0.996943 0.988854
1.00525 0.998497 0.987223
1.00523 0.996558 0.989015
1.00495 1.00157 0.984867
1.00524 0.998421 0.987243
1.00507 1.00054 0.985717
1.00038 1.00251 0.991766
1.00082 1.0048 0.989248
1.00461 1.00109 0.985863
1.00198 1.00419 0.987813
1.00426 1.00026 0.988037
1.00526 0.995904 0.989779
1.00522 0.997383 0.988148
1.00524 0.995938 0.989319
1.00486 1.00109 0.985208
1.00506 0.999185 0.986494
1.00032 1.00187 0.992472
1.00035 1.00317 0.990964
1.00013 1.00336 0.991148
1.0005 1.00347 0.990846
1.00019 1.00319 0.991432
1.00004 1.00139 0.993407
1.0001 1.00151 0.993177
1.00021 0.998696 0.996333
1.00019 1.00169 0.992846
1.00025 0.998799 0.996209
1.0002 0.997104 0.99767
1.00023 0.998995 0.996061
1.00006 0.997368 0.998262
0.999957 0.997559 0.998922
0.999806 1.00044 0.994599
0.99991 1.00153 0.993403
0.999768 0.998717 0.998643
1.00004 0.999518 0.998077
1.00029 1.00225 0.992158
1.00024 1.00017 0.997681
1.00534 0.998325 0.987613
1.00535 0.997441 0.98859
1.00527 0.99555 0.990439
1.00524 0.994958 0.991188
1.00533 0.996936 0.989195
1.00481 0.999271 0.987521
1.00533 0.996922 0.98921
1.00525 0.994956 0.991224
1.00524 0.995129 0.990998
1.00517 0.994954 0.991218
1.00528 0.996214 0.98967
1.00524 0.994935 0.990874
1.00525 0.994954 0.991251
1.00519 0.994949 0.991288
1.00521 0.994935 0.991085
1.00525 0.994942 0.991074
1.00526 0.995302 0.990412
1.00527 0.994884 0.990859
1.00533 0.997072 0.98908
1.00535 0.99758 0.988493
1.00523 0.99496 0.991215
1.00521 0.995938 0.990109
1.00318 1.00343 0.986028
1.00516 1.00219 0.983899
1.00523 1.00113 0.984503
1.00522 0.997129 0.988715
1.00526 0.994947 0.990777
1.00522 0.995761 0.98996
1.00521 0.998241 0.987387
1.00518 0.995848 0.989926
1.0039 1.00287 0.985326
1.00453 1.00194 0.984989
1.00094 1.00462 0.988885
1.00195 1.0044 0.986725
1.00523 0.994946 0.991301
1.00524 0.995577 0.990506
1.00512 0.99495 0.991319
1.00524 0.99492 0.990906
1.00487 1.00242 0.984264
1.00518 1.00218 0.983647
1.00519 1.00022 0.985353
1.00522 0.995256 0.990452
1.00525 0.994924 0.990723
1.00517 0.997665 0.987984
1.00522 0.995044 0.990449
1.0052 0.995906 0.989851
1.00494 1.0024 0.984203
1.005 1.00333 0.983406
1.00344 1.00354 0.985712
1.0004 1.00404 0.989951
1.00102 1.0051 0.987619
1.00517 0.994951 0.99125
1.00519 0.994944 0.991098
1.00526 0.99492 0.990677
1.00526 0.994912 0.990668
1.00513 1.00292 0.983347
1.00523 0.995073 0.990405
1.00502 1.00173 0.98394
1.00515 0.999687 0.985831
1.00514 0.997307 0.988183
0.999891 1.00317 0.99148
1.00069 1.00509 0.988747
1.00167 1.00503 0.98722
1.00497 1.00372 0.982939
1.00425 1.0034 0.984597
1.00509 1.00317 0.982837
1.00016 0.999418 0.995103
1.00025 1.00372 0.990711
1.00527 0.996922 0.988854
1.00071 1.00513 0.987907
1.00394 1.00211 0.986244
1.00321 1.00183 0.987424
1.00524 0.998481 0.987217
1.00523 0.996516 0.989006
1.00513 1.00157 0.98481
1.0051 1.00057 0.985813
1.00524 0.99849 0.987088
1.00033 1.00255 0.991777
1.00045 1.00492 0.98926
1.00479 1.00096 0.985895
1.00171 1.0044 0.987768
1.00402 0.999789 0.988011
1.00525 0.995858 0.989789
1.00523 0.997397 0.988126
1.00525 0.995982 0.989305
1.00484 1.00112 0.985238
1.00508 0.999284 0.986482
1.00047 1.00397 0.990421
1.00009 1.0051 0.989009
1.00497 1.00094 0.985558
1.00209 1.002 0.988321
1.00523 0.999412 0.987431
1.00524 0.995159 0.990221
1.00526 0.997398 0.987907
1.00529 0.996229 0.988812
1.00484 1.00015 0.986053
1.00513 0.99926 0.986403
1.00031 1.00185 0.992475
1.00036 1.00328 0.990966
1.00003 1.00362 0.990961
1 1.00346 0.991112
1.00009 1.00331 0.991422
1.00013 1.00373 0.990896
0.999982 1.00325 0.991746
0.999997 1.00398 0.990677
1.00006 1.00311 0.991722
1.00002 1.00145 0.993391
1.00003 1.00138 0.993409
1.00013 0.998679 0.996457
1.00008 1.00146 0.993185
1.00022 0.998688 0.996353
1.0002 0.996984 0.997753
1.00026 0.998777 0.996235
1.00017 0.997115 0.997672
0.999977 0.997363 0.998979
0.999842 0.999512 0.995478
0.999829 1.00052 0.994552
0.999717 0.998182 0.998891
0.999994 1.0015 0.99339
0.999862 0.99891 0.998494
1.00013 0.999653 0.99794
1.00529 0.996171 0.989669
1.00525 0.995113 0.991008
1.00523 0.994946 0.990877
1.00517 0.994953 0.991179
1.00525 0.994955 0.991228
1.00533 0.996927 0.989208
1.00525 0.994955 0.99127
1.00519 0.994949 0.991299
1.00519 0.994926 0.991118
1.00525 0.994935 0.991045
1.00527 0.995295 0.990436
1.00526 0.994881 0.990808
1.00519 0.994947 0.991294
1.00526 0.994932 0.991124
1.00526 0.994929 0.990917
1.00527 0.994881 0.99064
1.00524 0.994944 0.991291
1.00523 0.995563 0.990557
1.00512 0.99495 0.991307
1.00525 0.994923 0.990899
1.00471 1.00254 0.984264
1.0052 1.00225 0.983579
1.00518 1.00028 0.985333
1.00523 0.995369 0.990357
1.00525 0.994917 0.990703
1.00522 0.995054 0.99043
1.00514 0.997674 0.987977
1.00523 0.995707 0.98996
1.00474 1.00249 0.984247
1.00507 1.00321 0.983177
1.00297 1.00366 0.985734
1.00042 1.00383 0.99
1.00098 1.0051 0.987773
1.00517 0.994949 0.991251
1.00521 0.994943 0.991099
1.00526 0.994922 0.990701
1.00506 1.00292 0.983401
1.00508 1.00189 0.983869
1.00512 0.999777 0.985823
1.00525 0.994916 0.990667
1.00519 0.997127 0.988448
1.00522 0.99511 0.990347
0.999932 1.00293 0.991716
1.00492 1.0035 0.983022
1.00489 1.00404 0.982617
1.00422 1.00337 0.984668
1.00172 1.00502 0.987322
1.00054 1.00509 0.988722
1.00525 0.994946 0.991101
1.00528 0.994911 0.990821
1.00527 0.99491 0.990599
1.00523 0.994882 0.99059
1.00508 1.00291 0.983262
1.00521 0.995475 0.989883
1.00503 1.00146 0.984398
1.00506 0.999915 0.985904
1.00001 1.00118 0.993293
1.00003 1.00468 0.990228
1.00118 1.00505 0.98851
1.00244 1.00504 0.985687
1.00478 1.00399 0.983124
1.00503 1.00333 0.983232
1.00026 1.0026 0.991788
1.00009 1.00497 0.989273
1.00525 0.99581 0.989799
1.00139 1.0045 0.987722
1.00499 1.00081 0.985926
1.00363 0.999602 0.987973
1.00524 0.997412 0.988104
1.00525 0.996021 0.989288
1.00487 1.00119 0.985265
1.00512 0.999399 0.986471
1.00031 1.00401 0.990425
1.00049 1.00511 0.988795
1.00503 1.00082 0.985545
1.00243 1.00204 0.988233
1.00499 0.999555 0.987102
1.00525 0.995172 0.990281
1.00527 0.997309 0.988099
1.00528 0.996326 0.988862
1.00482 1.00017 0.986125
1.0051 0.999474 0.986167
0.999643 1.00419 0.990472
1.00047 1.00475 0.988741
1.00495 1.00014 0.986258
1.00394 0.999815 0.987393
1.00532 0.99486 0.990317
1.00525 0.995847 0.989779
1.00521 0.998438 0.98676
1.00514 0.999467 0.986117
1.00043 1.00326 0.990967
1.00017 1.00358 0.990952
0.999508 1.00381 0.992222
0.999987 1.00345 0.991412
0.999727 1.004 0.990947
1.00003 1.00312 0.991712
0.999698 1.00326 0.992042
1.00005 1.00408 0.990629
0.999616 1.00171 0.993787
0.999777 1.00426 0.991056
0.999914 1.00413 0.990635
1.00015 1.00299 0.991689
0.999976 1.00171 0.993134
0.999979 1.00146 0.993383
1.00002 0.998742 0.996553
1.00002 1.00136 0.993412
1.00014 0.998695 0.996472
1.00014 0.997002 0.997825
1.00023 0.998688 0.996376
1.00019 0.99699 0.997753
1.00014 0.997134 0.997666
0.999977 0.998767 0.996044
0.999844 0.999634 0.995411
0.99972 0.997718 0.999047
0.999819 1.00063 0.994502
0.999758 0.998256 0.998829
0.999984 0.998972 0.998328
1.00527 0.995287 0.990459
1.00518 0.994916 0.991151
1.00525 0.994878 0.990757
1.00525 0.994926 0.991016
1.00519 0.994949 0.99131
1.00524 0.994956 0.991289
1.00519 0.994949 0.991301
1.00526 0.994934 0.991124
1.00526 0.994917 0.990913
1.00526 0.994877 0.990669
1.00526 0.994943 0.991151
1.00528 0.994921 0.991009
1.0053 0.994864 0.99074
1.00516 0.994947 0.991251
1.00522 0.994943 0.9911
1.00526 0.994927 0.990724
1.00499 1.00291 0.983454
1.0051 1.00197 0.983795
1.00507 0.999751 0.985813
1.00524 0.994922 0.990666
1.00521 0.99516 0.990289
1.00521 0.996919 0.988707
1.00488 1.00347 0.983102
1.00486 1.00406 0.982409
1.00423 1.00327 0.984737
0.99998 1.00274 0.991957
1.00176 1.00496 0.987422
1.00032 1.0051 0.98869
1.00525 0.994944 0.99111
1.00528 0.99491 0.990792
1.00527 0.994911 0.990593
1.00498 1.00302 0.983299
1.0049 1.00137 0.984324
1.00507 0.99955 0.986255
1.00523 0.994883 0.990545
1.00516 0.995591 0.989829
1.00001 1.00115 0.993523
0.999983 1.0047 0.990201
1.00479 1.00321 0.983029
1.0046 1.0036 0.983532
1.00276 1.00487 0.985853
1.00097 1.00506 0.988328
1.00529 0.994912 0.990994
1.00532 0.994874 0.99052
1.00528 0.994885 0.990548
1.0052 0.99497 0.990319
1.00441 1.00257 0.983886
1.00515 0.99768 0.987954
1.00489 1.00178 0.984415
1.00018 1.0003 0.994263
1.00035 1.00137 0.993028
0.999742 1.00288 0.99221
1.00038 1.00504 0.989266
1.00113 1.0051 0.987449
1.00323 1.00425 0.984367
1.00402 1.00388 0.984133
1.00399 1.00439 0.98454
1.00012 1.00419 0.990429
1.00075 1.00512 0.988581
1.00527 0.995189 0.990341
1.00279 1.00174 0.988153
1.00505 1.00066 0.985537
1.00487 0.999782 0.986785
1.00527 0.997194 0.988294
1.00527 0.996412 0.988916
1.00487 1.00014 0.986196
1.00507 0.999628 0.985933
0.999961 1.00408 0.990317
1.00065 1.00475 0.988593
1.0051 1.00006 0.986212
1.00438 1.00017 0.987391
1.00533 0.994847 0.990336
1.00527 0.995764 0.989694
1.00517 0.998391 0.986876
1.00515 0.999554 0.986076
0.999846 1.00416 0.990319
1.00536 0.994901 0.990321
1.00244 1.00393 0.98796
1.00485 0.999486 0.986853
1.00528 0.99509 0.990537
1.00516 0.997512 0.986805
1.00501 1.00073 0.985487
1.00027 1.00361 0.990942
0.99948 1.00362 0.992132
0.998739 1.00291 0.994659
1.00003 1.00307 0.991704
1.00009 1.00421 0.990581
0.998949 1.00379 0.992335
1.00013 1.00297 0.991681
0.999863 1.00426 0.990642
0.998897 1.00223 0.994117
0.999915 1.00417 0.990967
0.999179 1.0003 0.996635
0.999094 1.00295 0.993308
0.999683 1.00486 0.990292
1.00035 1.00403 0.990236
1.00018 1.00329 0.991278
0.999907 1.00212 0.992839
0.999912 1.00185 0.993114
0.999903 0.998982 0.996572
0.999943 1.00154 0.993375
1.00004 0.998796 0.99655
1.00004 0.997087 0.997904
1.00015 0.998701 0.996488
1.00016 0.996995 0.997821
1.00018 0.996997 0.997748
1.00019 1.0004 0.994227
1.00006 0.998379 0.996304
0.999974 0.998843 0.996
0.999801 0.997348 0.999135
0.999843 0.999753 0.995346
0.99975 0.997832 0.999008
0.999817 0.998394 0.998739
1.00524 0.994871 0.990698
1.00526 0.994906 0.99091
1.00526 0.994936 0.991123
1.00519 0.99495 0.991309
1.00526 0.994945 0.99115
1.00528 0.99492 0.991023
1.00528 0.994872 0.990713
1.00528 0.994926 0.991054
1.00534 0.994917 0.990824
1.00544 0.995004 0.991115
1.00526 0.994943 0.991118
1.00528 0.994908 0.990762
1.00527 0.994911 0.990587
1.00487 1.00316 0.98334
1.00488 1.0018 0.98427
1.00489 0.999282 0.986606
1.00522 0.994887 0.990501
1.00504 0.99579 0.989775
1.0046 1.00345 0.982936
1.00425 1.00432 0.983808
1.00276 1.00457 0.986019
0.99999 1.00107 0.993752
1.00004 1.0047 0.990173
1.00088 1.00505 0.988143
1.00529 0.99491 0.990977
1.00016 1.00032 0.994251
1.00026 1.00145 0.992894
1.00532 0.994884 0.990533
1.00526 0.994889 0.99056
1.0048 1.00279 0.983794
1.00467 1.00175 0.984607
1.00513 0.997401 0.987856
1.00521 0.994922 0.990247
0.999766 1.00294 0.992377
1.00042 1.00503 0.989225
1.00417 1.00374 0.983966
1.00369 1.00408 0.984459
1.00356 1.00451 0.984419
1.00128 1.00506 0.987378
1.00537 0.994882 0.99073
1.00533 0.994844 0.990445
1.00522 0.994866 0.990382
1.00518 0.994953 0.990307
1.00405 1.00254 0.984923
1.00445 1.0014 0.985792
1.00008 1.00213 0.992338
1.0001 1.0015 0.99323
1.00132 1.00038 0.992724
1.00036 1.00357 0.990638
1.00059 1.00507 0.988828
1.00232 1.0045 0.986477
1.00227 1.00502 0.984701
1.00324 1.00079 0.987382
1.00038 1.00396 0.990164
1.00103 1.00478 0.988445
1.00534 0.994834 0.990355
1.00528 0.995725 0.989611
1.00481 1.00046 0.987383
1.00518 1.00002 0.986163
1.00512 0.998359 0.986989
1.00516 0.999658 0.986039
1.00032 1.00395 0.990226
1.00538 0.994913 0.990552
1.00192 1.00391 0.988121
1.005 0.999656 0.986629
1.00527 0.995076 0.990556
1.00514 0.997695 0.987014
1.00492 1.00055 0.985479
0.999977 1.00488 0.990369
1.00492 0.994812 0.990927
1.00283 1.00257 0.987738
1.00473 1.00129 0.985055
1.00504 0.99575 0.989763
1.00372 1.00116 0.98608
0.998801 0.995604 0.986594
0.999302 1.0036 0.992047
0.998216 1.00316 0.994651
0.998801 1.00209 0.99577
1.00003 1.00305 0.991673
0.999817 1.00442 0.990649
1.00029 1.00377 0.990881
0.998477 1.00241 0.99446
1.00011 1.00338 0.991279
1.00025 1.00409 0.990276
0.999216 1.0003 0.996179
0.999812 1.00481 0.990303
0.999467 1.00287 0.992911
0.998453 1.00121 0.996957
1.00029 1.00441 0.990075
1.00015 1.0047 0.990121
1.00066 1.00413 0.989836
1.00013 1.00381 0.990629
1.00034 1.00438 0.990212
1.00012 1.00401 0.990393
0.999909 1.00223 0.992715
0.999929 1.00211 0.992819
0.99978 0.999126 0.995999
0.999914 1.00184 0.993093
0.999892 0.999038 0.996248
1 0.997257 0.999107
1.00004 0.998847 0.996548
1.00007 0.997058 0.997903
1.00017 0.996987 0.997813
1.00007 1.00039 0.994326
1.00019 1.00029 0.99426
1.0001 0.998212 0.996454
1.00005 0.998385 0.996578
0.999871 0.997107 0.999185
0.999963 0.998939 0.995956
0.999802 0.997428 0.999115
0.99978 0.997878 0.998971
1.00526 0.994881 0.990685
1.00527 0.994919 0.991037
1.00526 0.994946 0.99115
1.00528 0.994925 0.991053
1.00534 0.994916 0.990811
1.00542 0.994955 0.9908
1.0054 0.994895 0.990832
1.00134 0.99488 0.982308
1.00467 0.9949 0.992422
1.00007 1.00166 0.99305
1.00529 0.994908 0.990961
1.00532 0.994891 0.990546
1.00524 0.99489 0.990572
1.00475 1.00242 0.983684
1.00488 1.00137 0.984785
1.00513 0.997243 0.987761
1.00523 0.994902 0.990175
1.00454 1.00336 0.983827
1.00389 1.00367 0.984418
1.00351 1.00451 0.984473
1.00015 1.00034 0.994241
1.00171 1.00507 0.987306
0.999777 1.00297 0.992531
1.0004 1.00503 0.989181
1.00025 1.00142 0.992761
1.00536 0.99487 0.990728
1.00004 1.0022 0.99247
1.00008 1.00152 0.993242
1.00103 1.00034 0.993013
1.00534 0.994853 0.990413
1.00521 0.994864 0.99035
1.00333 1.00334 0.985007
1.00471 1.00023 0.986315
1.00517 0.994963 0.990224
1.00012 1.00363 0.990819
1.00082 1.00507 0.988637
1.00328 1.00224 0.986931
1.00292 1.00477 0.98453
1.00257 1.00421 0.986667
1.00532 0.994834 0.990925
1.00522 0.994786 0.990755
1.00517 0.994979 0.989928
1.00497 0.997082 0.990013
1.00195 1.00229 0.988523
0.999547 1.00354 0.991742
1.00107 1.00082 0.992361
1.00009 1.00013 0.99312
1.00031 1.00448 0.990773
1.00033 1.00514 0.989295
1.0009 1.00443 0.987772
1.0024 1.00016 0.989715
1.001 1.00367 0.990131
1.00115 1.00386 0.988285
1.0054 0.994906 0.990772
1.00527 0.995023 0.990568
1.00513 0.997834 0.987223
1.00507 0.99978 0.986404
1.00486 1.00038 0.985474
1.0004 1.00466 0.990363
1.00467 0.994826 0.991131
1.00293 1.00231 0.987641
1.00481 1.00136 0.984933
1.00505 0.995634 0.990013
1.004 1.00103 0.986162
0.99858 0.996692 0.984721
0.9997 1.00433 0.990952
1.00301 0.996364 0.991085
1.00347 1.00237 0.985899
1.00308 1.00111 0.986913
1.0033 0.99757 0.990733
0.999954 0.994875 0.945264
0.995367 0.994808 0.966117
0.995597 0.999949 0.988278
0.999362 0.99479 0.864296
0.994716 0.994822 0.827468
0.997827 1.00335 0.994644
0.997942 1.00255 0.996067
0.997948 1.00285 0.99652
1.00008 1.00341 0.99128
1.0003 1.00387 0.990315
0.999963 1.00472 0.990316
0.999709 1.00291 0.992502
0.999193 1.00025 0.995716
1.00014 1.00454 0.990131
1.00015 1.00379 0.990716
1.00057 1.0041 0.989881
0.998684 1.00056 0.996384
0.999962 1.00452 0.990415
1.00039 1.00453 0.990421
0.998869 1.00461 0.991935
1.00013 1.00464 0.990188
1.00051 1.00458 0.989291
1.00023 1.0039 0.990419
1.00039 1.00484 0.989445
1.00047 1.004 0.990478
0.999698 1.00468 0.990752
1.0002 1.00449 0.990155
1.00026 1.00368 0.990804
1.00017 1.00401 0.990381
0.999931 1.00222 0.992714
0.999921 1.00223 0.992719
0.999751 0.999216 0.996003
0.999901 1.00219 0.992801
0.999769 0.999168 0.99599
0.999952 0.997267 0.999133
0.999875 0.999105 0.995926
0.999983 0.997255 0.998506
1.00009 0.997031 0.9979
0.999941 1.00026 0.99464
1.00007 1.00042 0.99433
1.0001 0.99808 0.996611
1.00021 1.00019 0.994291
1.00009 0.998161 0.996733
0.999927 0.996859 0.99923
1.00007 0.998419 0.996271
0.999869 0.997208 0.999166
0.999811 0.99752 0.999095
1.00533 0.994913 0.990798
1.00528 0.994925 0.991053
1.00541 0.99495 0.990495
1.00077 0.994831 0.982446
1.0054 0.994895 0.990844
1.00456 0.994964 0.992155
1.00512 0.99621 0.991234
0.996292 0.994888 0.965331
1.00121 0.99572 0.984582
1.00011 1.00141 0.993311
1.00005 1.0018 0.993014
0.999454 1.00373 0.99189
0.999876 1.00229 0.992711
1.00537 0.994865 0.990727
1.00534 0.994868 0.990381
1.00521 0.994868 0.990318
1.00427 1.00363 0.985094
1.00463 0.998432 0.986852
1.00517 0.994954 0.990139
1.00287 1.00311 0.986461
1.00425 1.00492 0.98435
1.00271 1.00292 0.98685
1.00002 1.00164 0.993257
1.00082 1.00498 0.988455
1.00006 1.00367 0.991002
0.999938 1.00242 0.992601
1.00055 1.00063 0.993282
1.00532 0.994835 0.990932
0.999847 1.00346 0.991609
1.0012 1.00045 0.992584
0.998782 1.00114 0.995095
1.00523 0.994811 0.990663
1.00517 0.995049 0.98994
1.00314 1.0011 0.988503
1.00465 0.996162 0.990382
1.00046 1.00444 0.990181
1.00061 1.00494 0.98857
1.00209 1.0019 0.9896
1.00232 1.00376 0.98721
1.00434 0.995055 0.991684
1.00508 0.994926 0.99113
1.00498 0.995995 0.989596
1.00328 0.997167 0.992617
0.998365 1.00456 0.992739
1.00089 1.00115 0.992152
0.998212 1.00486 0.992803
0.999273 1.00454 0.990806
0.999978 0.994895 0.932563
1.0006 1.00452 0.990353
1.00294 1.0024 0.987542
1.00434 0.994861 0.991364
1.0051 0.995574 0.990259
1.00415 1.0009 0.986229
1.00463 1.0015 0.984806
0.998476 0.997336 0.982712
0.99991 1.00426 0.991319
1.00294 0.996504 0.991006
1.00339 1.00259 0.985957
1.00359 1.00108 0.987002
1.00373 0.997636 0.990451
1.00008 0.99487 0.932874
0.995778 0.994794 0.962522
0.995579 1.00046 0.988439
0.998432 0.994766 0.869042
0.99472 0.994828 0.817621
0.999619 1.00419 0.991288
0.999788 0.994824 0.87539
0.994718 0.994804 0.820407
1.00031 0.999787 0.992547
1.00164 1.00208 0.989385
1.00143 0.999452 0.992541
0.995126 0.9992 0.990652
0.997982 0.994828 0.943835
0.994916 0.994765 0.958671
0.996643 0.994859 0.88567
0.994726 0.994808 0.811254
0.997306 1.00293 0.996374
0.997665 1.00222 0.996362
0.997915 1.00438 0.994999
1.00021 1.00371 0.990802
1.00052 1.00408 0.989928
0.999678 1.00487 0.990143
0.999722 1.00459 0.990754
0.999112 0.999709 0.995815
1.00023 1.00389 0.990425
1.00012 1.00472 0.990331
1.00001 1.00476 0.990066
1.00066 1.00444 0.98942
0.998808 1.00449 0.992218
0.999512 1.00472 0.991476
0.997754 1.00509 0.992966
1.00016 1.00502 0.989493
1.00054 1.00461 0.989466
1.00047 1.00475 0.989432
1.00028 1.00374 0.990718
1.00038 1.00495 0.989597
0.999875 1.00393 0.991227
0.999404 1.00293 0.99166
0.999358 1.00504 0.990763
0.999571 1.00473 0.990658
0.999862 1.00438 0.990778
1.00012 1.00362 0.990991
1.00008 1.00449 0.990099
1.00026 1.00366 0.990745
1.00001 1.00219 0.992642
1.00024 1.00396 0.990368
0.999938 1.0022 0.992726
0.99992 0.999184 0.996456
0.999901 1.00225 0.992722
0.999791 0.999185 0.996266
0.999902 0.997265 0.997974
0.999761 0.999186 0.995982
0.999948 0.997285 0.99914
0.999981 0.997279 0.997903
1.0002 1.00139 0.993114
0.999923 1.00015 0.994787
0.999951 1.00028 0.994632
1.00006 0.998016 0.996714
1.00005 1.00046 0.994333
1.0001 0.998043 0.996611
0.999968 0.996758 0.999259
1.00008 0.998157 0.996977
0.999934 0.997006 0.998672
0.999903 0.997257 0.998048
1.00025 0.99481 0.98257
1.0054 0.994896 0.990855
1.00428 0.995721 0.991877
0.996485 0.99488 0.965975
1.00126 0.995413 0.984946
1.00515 0.995637 0.991203
1.00346 0.996402 0.986683
0.997149 0.995103 0.968724
0.999974 0.994874 0.943113
0.998474 0.994827 0.88701
0.99466 0.99479 0.826265
0.99975 1.00241 0.992609
1.00015 1.00134 0.993296
1.00015 1.00171 0.992975
0.999779 1.00321 0.992003
0.999334 1.00402 0.992161
1.00055 1.00196 0.991878
1.00012 1.00291 0.992023
1.00008 1.00213 0.992559
1.00533 0.994826 0.990931
1.00524 0.994824 0.990574
1.00516 0.995047 0.989948
1.0031 1.0013 0.988483
1.00446 0.99569 0.990753
1.00202 1.00263 0.989466
1.00379 1.00401 0.986655
1.00117 1.00514 0.987853
1.00119 1.00008 0.992806
1.00052 1.00452 0.989562
1.00041 1.00305 0.99149
0.998038 1.00121 0.99704
1.00429 0.994824 0.991951
0.998829 1.00405 0.992703
1.00069 1.00154 0.992498
1.00484 0.994897 0.991097
1.00478 0.995734 0.989891
1.00273 0.99708 0.992295
0.999465 1.00514 0.991288
1.00059 1.00343 0.991023
1.00325 0.994796 0.991538
1.00397 0.998453 0.990548
1.00473 0.995513 0.990733
1.00095 0.998337 0.993701
0.999462 1.00492 0.990629
0.998979 1.00422 0.992227
0.999306 1.00512 0.991875
0.999793 0.994908 0.8781
1.00028 0.994871 0.945923
1.00026 1.0039 0.991683
1.00355 1.00268 0.986022
1.00284 0.997067 0.990922
1.0041 0.997716 0.990179
1.00403 1.00119 0.987111
0.999991 0.994894 0.943666
0.995967 0.994762 0.962057
0.995648 1.00107 0.988639
0.997914 0.994817 0.886075
0.994722 0.994822 0.807222
0.999811 1.00406 0.991254
0.99981 0.994854 0.874783
0.994681 0.994787 0.813685
1.00045 0.999786 0.992536
1.00162 1.0022 0.989373
1.00137 0.999587 0.992926
0.995021 1.00033 0.991345
0.998735 0.995406 0.937743
0.994847 0.994783 0.960478
0.99617 0.99612 0.885073
0.994747 0.9948 0.809827
0.998743 1.00403 0.994075
0.994712 0.994809 0.811939
0.994745 0.994781 0.822103
0.997166 1.00218 0.996697
0.999808 1.00213 0.99423
0.995085 0.999754 0.988652
0.995001 0.994893 0.961626
0.995739 0.994784 0.932613
0.994758 0.99737 0.889781
0.994832 0.994832 0.815157
0.997623 1.00181 0.996206
0.998321 1.00363 0.994789
0.997112 1.00384 0.995231
1.00021 1.00391 0.99043
1.00079 1.00426 0.989548
1.00002 1.00486 0.989941
0.999862 1.00477 0.990242
0.998409 1.00441 0.992503
1.00049 1.0047 0.989457
0.999557 1.0045 0.991181
1.00035 1.00494 0.989499
0.997348 1.00501 0.993361
0.995929 1.0052 0.996261
0.998941 1.00498 0.991676
1.00049 1.00504 0.98939
1.00055 1.00466 0.989419
1.00022 1.00334 0.990954
1.00032 1.00492 0.989548
0.999972 1.00383 0.99114
0.999266 1.00299 0.992428
0.999051 1.00492 0.991174
0.999029 1.00488 0.991281
0.998934 1.00356 0.992705
1.00047 1.00178 0.992497
1.00193 1.00012 0.990925
0.999088 1.00489 0.991042
0.999522 1.00485 0.990811
0.999623 1.005 0.990083
0.999631 1.00486 0.990658
1.00004 1.00385 0.990865
0.999864 1.00444 0.990802
1.00015 1.00363 0.991009
1.00004 1.00217 0.992533
1.00026 1.0037 0.990687
0.99999 1.00219 0.992659
1.00004 0.999147 0.996276
0.99993 1.00219 0.992737
0.999898 0.99916 0.996113
1 0.997209 0.997844
0.999784 0.999174 0.995976
0.999954 0.997258 0.999147
0.999945 0.997283 0.999148
1.00024 1.00183 0.992961
0.999933 1.00032 0.994635
1.00011 1.00156 0.993124
1.00006 0.99798 0.996754
0.999921 1.00016 0.994787
0.999956 1.00032 0.994625
1.00007 0.99801 0.996703
0.999994 0.996675 0.999273
1.00008 0.998058 0.997098
0.999981 0.996754 0.998742
0.999954 0.997022 0.998161
0.999809 0.994829 0.863135
0.994686 0.994766 0.812256
0.996622 0.994875 0.96636
1.00119 0.994957 0.985395
1.00522 0.994842 0.991178
0.996797 0.995298 0.96855
1.00355 0.995529 0.987193
1.00092 0.994885 0.940002
0.998822 0.994786 0.869101
0.994697 0.994809 0.816627
0.998136 0.99486 0.974097
0.998967 0.994869 0.943017
0.996687 0.994859 0.885584
0.994738 0.994788 0.817168
1.00018 1.00329 0.991522
0.999888 1.00216 0.992748
1.00013 1.00139 0.993283
0.999933 1.00291 0.992115
0.999191 1.00399 0.992405
1.00015 1.00371 0.990801
1.00032 1.00277 0.991675
1.00041 1.00369 0.99039
1.0001 1.0029 0.991903
0.999994 1.00241 0.9924
1.00411 0.994798 0.992204
1.00471 0.994836 0.991065
1.00453 0.995553 0.990186
1.00233 0.997558 0.99197
1.00109 1.00324 0.991241
0.999509 1.00523 0.989791
1.00033 1.00195 0.992899
0.998989 1.00397 0.992656
1.00253 0.994904 0.991962
0.999547 1.00503 0.990412
0.998672 1.00455 0.992023
1.00379 0.997152 0.990769
1.00453 0.995586 0.990781
1.00108 0.998348 0.994066
0.999136 1.0051 0.991703
1.00029 0.995123 0.991469
1.00149 0.99858 0.993427
0.999292 1.00134 0.994827
0.998594 1.00497 0.989928
0.99878 1.00511 0.990708
0.998562 1.00509 0.992176
0.994727 0.994843 0.834874
0.999793 0.994883 0.883056
0.999989 0.994876 0.932874
0.999588 1.00399 0.991204
1.00184 1.00233 0.98934
1.00054 0.999609 0.992522
1.00128 0.999755 0.993317
0.999813 0.994871 0.886622
0.998304 0.994838 0.93302
0.994848 0.99486 0.958745
0.994889 1.00123 0.991953
0.996865 0.994826 0.870734
0.994655 0.994789 0.818933
0.994773 0.994811 0.823455
0.998552 1.00344 0.993787
0.994704 0.994817 0.821715
0.994771 0.994786 0.821567
0.997134 1.0008 0.997365
0.999416 1.00212 0.994102
0.995053 0.998589 0.9911
0.995463 0.994852 0.960311
0.996511 0.997653 0.943467
0.994742 0.997401 0.8738
0.994933 0.994826 0.825309
0.997162 1.00416 0.996164
0.994787 0.994832 0.830414
0.994814 0.99479 0.81879
0.995017 1.00248 0.999898
0.99534 0.997083 0.968843
0.994849 0.999175 0.94273
0.99528 0.996304 0.865697
0.995153 0.994872 0.83176
0.998719 1.00268 0.994541
0.997424 1.00426 0.995413
0.995729 1.00423 0.99772
1.00041 1.00474 0.989447
1.00047 1.00491 0.989507
0.999692 1.00422 0.990885
0.997134 1.00491 0.993756
1.00029 1.00503 0.989399
0.998916 1.00499 0.991666
0.995791 1.00516 0.99664
0.995047 1.00501 0.998242
0.995809 1.00505 0.996842
0.999436 1.00483 0.991211
1.00028 1.00494 0.989496
1.00002 1.00364 0.99105
0.998989 1.00322 0.993178
0.999035 1.00486 0.991337
0.999227 1.00492 0.991192
0.998916 1.00377 0.992826
0.998935 1.00463 0.991798
0.996775 1.00497 0.995324
1.00239 0.997451 0.993058
1.00014 1.00155 0.992977
1.00106 1.00105 0.991635
1.00452 1.00063 0.986952
1.00138 1.00246 0.990774
1.00087 1.00009 0.992736
0.999612 1.00463 0.990783
0.999681 1.00513 0.989696
0.999745 1.00461 0.990859
0.999888 1.00502 0.990091
1.00005 1.00449 0.990228
1 1.0047 0.990658
1.00024 1.00367 0.99085
1.00012 1.00227 0.992363
1.00033 1.00338 0.991029
1.00012 1.00214 0.992541
1.00015 0.999164 0.996082
1.00002 1.00213 0.992677
1.00003 0.999149 0.995905
1.00009 0.997232 0.997708
0.999901 0.999137 0.995818
0.99999 0.997222 0.998493
0.999965 0.99724 0.99913
1.00019 1.00251 0.992001
1.00007 1.00045 0.994336
1.00016 1.00185 0.992783
1.00004 0.998046 0.996699
0.999953 1.00027 0.994641
1.00012 1.00154 0.993133
1.00002 0.996637 0.999281
1.00005 0.99798 0.996754
0.999925 1.00017 0.994788
1.00008 0.997995 0.996693
0.999995 0.99671 0.99927
0.999965 0.996747 0.999256
0.994685 0.994781 0.815877
0.999804 0.994844 0.874646
0.994757 0.99477 0.819416
0.994705 0.994769 0.811163
0.996781 0.994895 0.966502
1.00346 0.994883 0.987711
0.999936 0.99487 0.936238
0.999181 0.994819 0.886925
0.994731 0.994825 0.806668
0.99851 0.994881 0.973301
1.00003 0.996002 0.929383
0.996384 0.997043 0.883632
0.994722 0.994787 0.810109
0.995294 0.994839 0.966147
0.996473 0.996794 0.931107
0.994822 0.997388 0.86637
0.994818 0.994851 0.813347
1.00081 1.00457 0.990226
0.999885 1.00328 0.991633
1.00002 1.00191 0.992885
0.998922 1.00375 0.99265
1.00077 1.00417 0.989272
1.00011 1.00356 0.991018
0.999924 1.00329 0.99148
1.00088 1.00324 0.990399
1.00049 1.00377 0.990499
1.00014 1.00273 0.991786
1.00212 0.9948 0.992385
1.00373 0.996127 0.991011
1.00424 0.995697 0.990833
1.00095 0.997316 0.994454
1.00009 1.0051 0.991518
0.999059 1.00495 0.99183
0.999696 1.00494 0.990189
1.00013 1.00499 0.989674
0.999873 0.995202 0.991885
0.999652 1.0051 0.990469
0.999267 1.00508 0.992054
1.00147 0.998067 0.994179
0.999972 1.00032 0.994636
0.9966 0.998571 0.991672
0.996761 0.998923 1.00087
0.997414 1.00328 0.995276
0.999663 1.00505 0.990461
0.997989 1.00513 0.993206
0.994816 0.994817 0.836253
0.994719 0.994826 0.83103
0.999799 0.994889 0.866794
0.998484 1.00295 0.993552
0.999144 1.00187 0.993964
0.997257 1.00005 0.998034
0.99468 0.994801 0.820499
0.99667 0.996799 0.932384
0.99562 0.99488 0.960296
0.99489 0.997333 0.993806
0.994806 0.997315 0.891624
0.99478 0.994789 0.82158
0.99505 0.994836 0.826264
0.997448 1.00417 0.996007
0.994793 0.994828 0.83331
0.994806 0.99479 0.819542
0.995227 1.00181 0.999016
0.995301 0.996344 0.970798
0.994867 0.996807 0.931344
0.995018 0.994863 0.828234
0.994983 0.998823 0.873619
0.995007 1.00488 0.999615
0.994795 0.994826 0.827033
0.994866 0.994827 0.826075
0.994808 0.994846 0.814023
0.99481 0.998981 0.990462
0.99487 0.998765 0.94626
0.996854 0.996939 0.881221
0.997843 1.00484 0.995622
0.995925 1.0047 0.997542
0.995074 1.00491 0.999175
1.0002 1.00504 0.989409
0.99888 1.00498 0.991654
0.995636 1.00516 0.997013
0.999151 1.00496 0.991173
0.995984 1.00502 0.996838
0.995213 1.00491 0.998217
0.994985 1.00517 0.998433
0.995913 1.00484 0.996827
0.998979 1.00482 0.991405
0.999347 1.00499 0.99121
0.998949 1.00408 0.99297
0.997022 1.00485 0.995178
0.998973 1.00484 0.99168
0.999148 1.00222 0.993929
1.00008 0.998002 0.996329
1.00251 1.00047 0.988958
0.999812 1.00136 0.993424
1.00161 1.00115 0.991132
1.00433 1.00189 0.985911
1.00505 1.0021 0.984203
1.00309 1.00029 0.989589
1.00377 1.0006 0.987307
1.00072 1.00511 0.988902
1.00082 1.00267 0.991155
0.99982 1.00014 0.994524
1.00014 1.00441 0.990525
0.999845 1.00511 0.989735
1.0002 1.0049 0.989499
1.00011 1.00506 0.9901
1.0002 1.0043 0.990244
1.00013 1.00271 0.991837
1.00033 1.00363 0.990832
1.00015 1.00222 0.992352
1.00017 0.999207 0.995979
1.00013 1.00211 0.992549
1.00014 0.999166 0.995715
1.00016 0.997272 0.997566
1.00004 0.999152 0.995585
1.00007 0.997227 0.998396
1.00002 0.997209 0.999078
1.00052 1.00277 0.991066
1.00009 1.00084 0.99361
1.00032 1.00239 0.991992
1.0001 0.998107 0.996542
1.00004 1.00047 0.994186
1.00014 1.00185 0.992607
1.00004 0.996669 0.999265
1.00006 0.998012 0.99671
0.999974 1.00019 0.994647
1.00002 0.996655 0.999279
1.00004 0.997992 0.996755
0.999996 0.996683 0.999268
0.994822 0.994821 0.82699
0.994695 0.994811 0.828014
0.9998 0.994823 0.873902
1.00109 1.00278 0.990349
0.994819 0.994798 0.82568
0.994757 0.99477 0.819379
0.994735 0.99478 0.823004
0.999099 0.994889 0.972422
0.998573 0.994849 0.941845
0.996457 0.99486 0.86819
0.994698 0.994802 0.818171
0.996493 0.994852 0.963525
0.996593 0.998857 0.94175
0.994757 0.997311 0.869478
0.994822 0.994838 0.817621
0.994846 0.994938 0.958299
0.994843 0.997156 0.940377
0.995376 0.999964 0.876771
0.995109 0.994883 0.831497
0.999792 1.00499 0.990076
1.00029 1.0044 0.990111
1.00005 1.00331 0.991746
1.00059 1.00345 0.990326
1.00053 1.00452 0.98957
1.0001 1.00381 0.991231
1.00087 1.00336 0.990361
1.00047 1.00381 0.990601
0.998811 0.996502 0.992131
1.00117 0.997469 0.994844
1.00041 1.00503 0.989417
1.00068 0.999831 0.994453
0.999492 1.00505 0.991932
1.00007 1.0051 0.990241
0.999323 1.00492 0.990573
0.996012 0.998022 0.992376
0.998288 1.00513 0.993196
0.997894 1.00311 0.995546
0.996344 0.999699 1.00104
0.998995 1.00489 0.991875
0.994786 1.00069 0.988267
0.995323 1.00259 0.999338
0.996133 1.00498 0.996507
0.998162 1.00538 0.993688
0.994783 0.994806 0.832661
0.994821 0.994818 0.83414
0.994708 0.994815 0.827103
0.997714 1.00424 0.995828
0.995434 1.00078 0.998129
0.994807 0.994826 0.836035
0.994821 0.99887 0.943135
0.995586 0.996167 0.968153
0.995022 0.998838 0.872088
0.994806 0.994789 0.820115
0.994877 0.994854 0.824744
0.995423 1.00469 0.999283
0.994797 0.994824 0.827035
0.994861 0.994833 0.827484
0.994778 0.999514 0.994194
0.994814 0.994832 0.817998
0.994852 0.996381 0.938691
0.995919 0.997562 0.883267
0.994776 1.00339 0.998593
0.994833 0.994844 0.832754
0.9948 0.994802 0.826626
0.994731 0.994792 0.817558
0.995319 0.999973 0.876095
0.994918 1.00045 0.975895
0.99547 0.997969 0.931722
0.996251 1.00503 0.997373
0.995086 1.00506 0.999146
0.994876 1.00521 0.998483
0.998855 1.00508 0.991135
0.995938 1.00511 0.996838
0.995078 1.00516 0.998185
0.996004 1.00475 0.996754
0.994945 1.00517 0.998475
0.997804 1.00201 0.997458
0.997248 1.00463 0.995022
0.998979 1.00497 0.991576
0.99901 1.00248 0.994562
0.998933 1.00244 0.992424
0.997893 0.998505 0.999468
1.00229 1.00005 0.990116
1.00426 1.00413 0.982931
1.00477 1.00281 0.983599
1.00213 1.00119 0.990592
1.00429 1.0022 0.985163
1.00512 1.00212 0.98413
1.00458 1.00013 0.986702
1.0048 1.0019 0.984587
1.00132 1.00362 0.988787
1.00288 1.00075 0.98937
1.0031 1.00052 0.987676
1.00033 1.00512 0.9888
1.00027 1.00508 0.989161
1.00032 1.00279 0.991536
0.999944 1.00511 0.989774
1.00028 1.00492 0.989514
1.00019 1.00367 0.990876
1.00036 1.00426 0.99026
1.00017 1.00276 0.991819
1.00014 0.999418 0.995131
1.00022 1.00224 0.992344
1.0002 0.999206 0.995266
1.00007 0.997259 0.99896
1.00014 0.999196 0.995381
1.00012 0.997267 0.998286
1.00008 0.997222 0.999012
1.00052 1.00285 0.990951
1.00025 1.00134 0.992885
1.00045 1.00284 0.991213
1.00016 0.998282 0.996289
1.00017 1.00083 0.993528
1.00035 1.00239 0.991979
1.00007 0.996666 0.99923
1.00011 0.998087 0.996557
1.00004 1.00047 0.994037
1.00004 0.996642 0.999271
1.00007 0.997975 0.99672
1.00001 0.996692 0.999277
0.994799 0.99483 0.833142
0.99482 0.994821 0.827228
0.994688 0.994826 0.827982
1.00096 1.00284 0.990532
1.00078 1.00299 0.990438
1.00106 1.00223 0.991169
0.99487 0.99483 0.825265
0.994818 0.99479 0.826294
0.994756 0.99476 0.819411
0.996789 0.994853 0.964515
0.996357 0.9948 0.930211
0.994786 0.999194 0.889978
0.994819 0.994832 0.812205
0.994986 0.994903 0.961183
0.994887 0.998421 0.936771
0.995289 0.998321 0.873098
0.995045 0.99487 0.827759
0.995682 0.995077 0.95794
0.994874 0.997376 0.941329
0.996534 0.997187 0.881234
0.994842 0.994833 0.815961
0.999883 1.00343 0.9914
1.00035 1.00447 0.989872
1.00045 1.00397 0.989994
1.00078 1.00331 0.990264
1.00022 1.00469 0.98987
1.00085 1.00355 0.990324
0.995851 0.996709 0.993197
0.996162 1.00041 1.00134
0.999685 1.00426 0.990679
0.998672 1.00252 0.995746
0.998424 1.00512 0.99318
0.998577 1.00457 0.992309
0.997517 1.00534 0.993755
0.994959 1.00096 0.988162
0.995922 1.00513 0.996962
0.995875 1.00262 0.998571
0.997691 1.00506 0.994127
0.994934 1.00269 0.984939
0.995542 1.00441 0.995666
0.995572 1.00501 0.997705
0.994838 0.994831 0.832324
0.994786 0.994816 0.832131
0.994825 0.994814 0.832056
0.995719 1.00413 0.998916
0.994779 0.999884 0.990266
0.994796 0.994823 0.827048
0.994839 0.998212 0.938399
0.996422 0.996945 0.868446
0.99486 0.994833 0.828874
0.994814 0.99483 0.812994
0.994782 1.0032 0.999048
0.994826 0.994845 0.833234
0.994816 0.994802 0.827273
0.994873 0.999536 0.973276
0.994717 0.994793 0.810836
0.995783 0.999613 0.870709
0.995139 0.995642 0.944925
0.994855 1.00514 0.991189
0.994792 0.99484 0.833338
0.994776 0.994788 0.820558
0.994663 0.994798 0.827655
0.994791 0.997391 0.865825
0.99486 0.999019 0.940052
0.994882 1.00088 0.967517
0.995129 1.00493 0.999102
0.994908 1.00522 0.99847
0.996573 1.00333 0.997592
0.996178 1.00468 0.996681
0.994951 1.00512 0.998482
0.996418 1.00378 0.997537
0.999408 0.998246 0.998347
0.998842 1.00292 0.995182
1.00123 1.00188 0.991599
1.00227 1.00473 0.985854
1.00191 0.999698 0.991456
1.00425 1.00393 0.983475
1.00433 1.00487 0.982268
1.00503 1.0017 0.983926
1.00507 1.00188 0.984164
1.00471 1.0029 0.983532
1.00451 1.00242 0.98443
1.00509 1.00133 0.985042
1.00512 1.00208 0.984106
1.00336 1.00127 0.98765
1.00443 1.00023 0.987005
1.00444 1.00173 0.984974
1.00065 1.00514 0.988087
1.00152 1.00381 0.988737
1.00255 1.00136 0.989141
1.00031 1.00444 0.989964
1.00062 1.00511 0.988807
0.999996 1.00502 0.989421
1.00043 1.00487 0.989531
1.00029 1.00352 0.99088
1.00004 0.999983 0.994695
1.00027 1.00265 0.9918
1.00015 0.99946 0.995106
1.00007 0.997395 0.998926
1.00021 0.999227 0.99526
1.00013 0.997289 0.998241
1.00011 0.997261 0.998962
1.00058 1.00325 0.990745
1.00037 1.00161 0.992616
1.00062 1.00275 0.991007
1.00023 0.998547 0.99591
1.00024 1.00134 0.992969
1.00043 1.00285 0.991363
1.0001 0.996749 0.999171
1.00016 0.998233 0.996309
1.0002 1.00081 0.993446
1.00007 0.996686 0.999241
1.00011 0.998062 0.996572
1.00004 0.996652 0.999278
0.994833 0.99484 0.832031
0.994802 0.994844 0.833151
0.994816 0.994833 0.827523
1.00032 1.00435 0.989642
1.00119 1.00407 0.989732
1.00076 1.00297 0.990719
1.00069 1.00324 0.990337
1.00061 1.00242 0.991334
1.00038 1.00293 0.991215
1.00033 1.00196 0.992268
0.994831 0.994801 0.818982
0.994874 0.994838 0.826786
0.994811 0.994812 0.826923
0.994883 0.994861 0.824115
0.995136 0.994855 0.95858
0.994858 0.999405 0.931927
0.995439 0.995985 0.886916
0.995367 0.994919 0.956962
0.994852 0.998904 0.929134
0.995486 0.997802 0.883457
0.994891 0.994829 0.825944
0.996009 0.996326 0.960579
0.995056 0.999607 0.930414
0.995369 0.996576 0.865686
0.994734 0.994813 0.812091
0.998151 1.00482 0.993369
0.999687 1.00387 0.991649
1.00041 1.00475 0.989669
1.00088 1.00349 0.990207
0.9952 1.00115 0.988259
0.99605 1.00316 0.997656
0.998335 1.00509 0.992744
0.997319 1.00529 0.993829
0.995774 1.00516 0.997458
0.997567 1.00467 0.994141
0.995633 1.00498 0.997705
0.995962 1.00267 0.981535
0.995044 1.00509 0.995966
0.995991 1.00408 0.997135
0.994825 1.00486 0.980886
0.995304 1.00338 0.998764
0.99478 0.994816 0.833028
0.994836 0.994832 0.835313
0.99479 0.994829 0.831586
0.994785 1.0031 0.999478
0.994842 0.999239 0.976682
0.994818 0.994843 0.833763
0.995329 0.997497 0.932662
0.995913 0.996957 0.885543
0.994826 0.994819 0.827867
0.994694 0.994807 0.818747
0.994875 1.00442 0.992032
0.994807 0.994839 0.833371
0.994759 0.994784 0.820572
0.994892 0.9999 0.967476
0.994701 0.994814 0.818142
0.994745 0.99749 0.868107
0.995267 0.998794 0.928403
0.994984 1.00481 0.98597
0.994833 0.99482 0.827196
0.994677 0.994773 0.813757
0.996456 0.994862 0.887019
0.994799 0.998563 0.939866
0.994835 0.999987 0.960471
0.994929 1.00528 0.998799
0.995771 1.00399 0.997678
0.996963 0.99988 0.999289
0.995316 1.00503 0.997605
0.997773 1 0.998604
1.00195 0.998914 0.993779
1.00359 1.0012 0.990784
1.00316 1.00479 0.985133
1.00363 1.0043 0.983456
1.00399 1.00394 0.984014
1.00447 1.00468 0.982211
1.00437 1.00427 0.98276
1.00519 1.00007 0.9853
1.00513 1.00107 0.984839
1.00502 1.00192 0.983896
1.00509 1.00167 0.984534
1.00506 1.00177 0.984166
1.00456 1.00308 0.983463
1.0051 1.00109 0.985566
1.00496 1.00158 0.984889
1.00513 1.00205 0.984086
1.0022 1.00397 0.987349
1.00322 1.00144 0.987889
1.00428 1.00024 0.987309
1.00048 1.00482 0.988899
1.00103 1.00502 0.988137
1.00158 1.00401 0.988688
1.00009 1.00053 0.994072
1.00041 1.00423 0.989968
1.00083 1.0051 0.988815
1.00033 1.00345 0.990882
1.00006 1.00004 0.994661
1.00002 0.997654 0.998859
1.00017 0.999494 0.995081
1.00007 0.997414 0.998913
1.00011 0.997269 0.99894
1.00008 1.00507 0.989805
1.00072 1.00393 0.989915
1.00048 1.00206 0.992019
1.00061 1.00315 0.99073
1.00026 0.998881 0.995508
1.00036 1.00164 0.992606
1.00064 1.00275 0.991063
1.00012 0.996915 0.999078
1.00022 0.998525 0.995934
1.00025 1.00136 0.993051
1.00009 0.996735 0.99919
1.00017 0.998206 0.996331
1.00007 0.99666 0.999252
0.994797 0.994833 0.82704
0.994816 0.994836 0.832548
0.994811 0.994833 0.833153
1.00045 1.00461 0.989622
1.00071 1.00357 0.989899
1.0001 1.00282 0.990301
0.999914 1.00449 0.989885
1.00156 1.00341 0.990285
1.00078 1.00339 0.990234
1.00042 1.00256 0.991498
1.00047 1.00291 0.991236
1.00038 1.00218 0.992281
0.999074 1.00397 0.992604
0.994751 0.994778 0.822373
0.994816 0.994798 0.819784
0.994875 0.994828 0.828237
0.995043 0.994841 0.826842
0.99604 0.997192 0.868869
0.995109 0.995411 0.955606
0.994884 0.997949 0.940983
0.995399 0.996805 0.956943
0.994889 0.996254 0.942089
0.99497 0.999196 0.874261
0.994753 0.994802 0.810675
0.994855 0.998916 0.96049
0.994821 1.00077 0.942002
0.994772 0.998345 0.889234
0.994702 0.994822 0.828399
0.998324 1.00239 0.995712
0.997803 1.00471 0.99359
0.999632 1.00375 0.991905
0.99665 1.0024 0.977837
0.994943 1.00513 0.996329
0.997358 1.00464 0.994153
0.995245 1.005 0.997704
0.996309 1.00407 0.997132
0.995208 1.00309 0.999057
0.994915 1.00254 0.980169
0.995802 1.00132 0.999948
0.995726 1.0006 0.986293
0.994817 0.99482 0.835233
0.99479 0.994825 0.832515
0.994831 0.994832 0.838334
0.994882 1.00384 0.992389
0.994845 0.999545 0.96495
0.994821 0.994843 0.833387
0.994857 0.99938 0.939989
0.994766 0.999201 0.888254
0.994743 0.994764 0.820715
0.994729 0.994826 0.808277
0.995331 1.00459 0.986689
0.994816 0.994826 0.827342
0.994702 0.994775 0.812759
0.995033 0.999394 0.961469
0.996221 0.99647 0.884642
0.994861 0.998294 0.934756
0.995138 1.00329 0.983758
0.994685 0.994785 0.816632
0.998446 0.994836 0.888203
0.996337 0.996876 0.931341
0.994855 0.996613 0.962932
0.995494 1.00497 0.997758
0.996474 1.00075 0.999263
0.99895 1.00214 0.995769
0.996092 1.00184 0.99883
1.00084 0.99937 0.994362
1.00348 0.999402 0.989744
1.00399 1.00465 0.984395
1.00361 1.00433 0.983335
1.00422 1.00142 0.985101
1.00476 1.00448 0.982157
1.00445 1.00383 0.982846
1.00495 1.00013 0.985814
1.00527 0.99752 0.98759
1.00524 0.999572 0.985647
1.00518 0.999979 0.985385
1.00519 1.00092 0.985049
1.00513 1.00111 0.984751
1.00503 1.00207 0.983863
1.00516 1.00202 0.98442
1.00497 1.00159 0.984566
1.00505 1.00168 0.984167
1.00424 1.00177 0.986233
1.00458 1.00148 0.98565
1.00485 1.00186 0.984738
1.00092 1.00512 0.98748
1.00216 1.00389 0.987352
1.00323 1.00159 0.988126
1.00009 1.00139 0.99418
1.00071 1.00478 0.988905
1.00137 1.00486 0.988189
1.00004 0.998136 0.99683
1.00009 1.00073 0.994415
1.00053 1.00409 0.989972
1.00009 1.00012 0.994627
1.00003 0.997726 0.998813
1.00007 0.997426 0.998898
1.00043 1.00511 0.989271
1.00079 1.00488 0.989112
0.999818 1.00508 0.989691
1.00053 1.00281 0.991211
1.00053 1.00423 0.989892
1.00023 0.99926 0.995178
1.00047 1.00205 0.992029
1.00072 1.00306 0.990713
1.00012 0.99716 0.998985
1.00025 0.99886 0.995525
1.00035 1.00169 0.992597
1.00011 0.996902 0.999108
1.00021 0.998488 0.995957
1.00009 0.996735 0.999208
0.994787 0.994823 0.836726
0.994806 0.994835 0.827055
0.994803 0.994851 0.833089
1.00133 1.00184 0.990049
1.00007 1.00501 0.9896
1.00054 1.00338 0.990077
1.00051 1.00469 0.989631
1.00097 1.00247 0.990365
1.00076 1.00319 0.991306
1.00288 1.00225 0.98795
0.998593 1.00492 0.991301
1.00056 1.00283 0.991254
1.00008 1.00209 0.992292
0.998906 1.00382 0.992518
0.998096 1.00511 0.993197
0.99471 0.994798 0.820555
0.994773 0.994782 0.821877
0.994816 0.994795 0.820432
0.994774 0.994809 0.823811
0.994906 0.999117 0.873202
0.995412 0.99852 0.930543
0.994976 0.996098 0.956919
0.994887 0.999188 0.959722
0.994713 0.994826 0.818456
0.994856 0.996838 0.934435
0.99477 0.998725 0.873067
0.994921 0.996569 0.965237
0.994872 0.999557 0.942994
0.996214 0.994917 0.886082
0.999439 0.996304 0.99932
0.998234 1.0022 0.995651
0.997761 1.00452 0.993799
0.994917 1.00168 0.979943
0.994883 1.00267 0.999317
0.9968 1.00393 0.997114
0.99687 1.00094 1.00009
0.995229 0.999393 0.986475
0.996493 0.998162 0.992319
0.994716 0.994847 0.829501
0.994815 0.994811 0.836773
0.994798 0.994826 0.831935
0.995015 1.00436 0.98699
0.994866 0.999979 0.961212
0.9948 0.994833 0.827663
0.994838 0.999477 0.930508
0.996332 0.99486 0.869556
0.994739 0.994791 0.824299
0.994785 1.00448 0.983742
0.994696 0.994817 0.828582
0.998482 0.994797 0.870205
0.994866 0.995887 0.958675
0.996364 0.998415 0.942185
0.994868 1.00287 0.989605
0.9998 0.99484 0.863324
0.998801 0.994883 0.944014
0.994852 0.99485 0.957823
0.995973 1.00127 0.999298
0.99827 1.00124 0.995472
1.00145 1.00324 0.991166
0.999784 0.99968 0.994951
1.00278 1.00005 0.989572
1.00423 0.999554 0.987849
1.00367 1.00444 0.983213
1.00423 1.00154 0.98503
1.00505 0.996984 0.987994
1.00445 1.0033 0.982934
1.0048 0.99998 0.985828
1.00528 0.996075 0.989
1.00525 0.995932 0.989583
1.00527 0.997723 0.98749
1.00528 0.997449 0.987709
1.00527 0.999382 0.985858
1.00523 0.999539 0.985831
1.00517 0.999917 0.985472
1.00525 1.00125 0.984484
1.00519 1.00084 0.985009
1.00513 1.00112 0.984661
1.00513 1.00123 0.985057
1.005 1.00194 0.984449
1.00484 1.00149 0.984597
1.00244 1.00397 0.986594
1.00396 1.0021 0.986155
1.004 1.00185 0.985735
1.00013 1.00228 0.99217
1.00144 1.00505 0.987499
1.00211 1.00399 0.98735
0.999832 0.998874 0.998498
1.00012 1.00144 0.993132
1.00093 1.00474 0.988911
1.00003 0.998108 0.998653
1.00008 1.00077 0.993944
1.00005 0.997779 0.998763
1.00245 1.00346 0.988238
1.00048 1.00508 0.989103
1.00087 1.00508 0.988725
1.0005 1.00373 0.990334
1.00056 1.00492 0.989088
1.00001 1.00508 0.989579
1.00016 0.999776 0.994802
1.00049 1.00283 0.991236
1.00031 1.00435 0.989866
1.0001 0.997384 0.998913
1.00024 0.999202 0.995194
1.00046 1.00203 0.992039
1.00011 0.997124 0.999012
1.00025 0.998847 0.99554
1.00011 0.996857 0.999137
0.994715 0.99481 0.814197
0.994806 0.994824 0.836994
0.994812 0.994837 0.82709
1.00119 1.00251 0.990002
1.00451 1.00168 0.987184
1.00174 1.00341 0.989116
1.00053 1.00458 0.989375
1.00206 1.0022 0.990425
0.999554 1.00254 0.992304
0.999361 1.00471 0.990924
1.00198 1.00277 0.988651
1.00205 1.00324 0.988714
0.999318 0.999917 0.995628
0.999588 1.00372 0.992425
0.998463 1.00496 0.993095
0.999027 0.994816 0.86371
0.99468 0.99479 0.814118
0.994784 0.994785 0.82192
0.994728 0.994819 0.807977
0.994812 0.997455 0.890751
0.994829 0.998779 0.929966
0.995003 0.996856 0.958194
0.994881 0.996836 0.963167
0.996453 0.99777 0.884153
0.994857 0.99795 0.93127
0.994876 0.997162 0.966362
0.996182 0.995391 0.931344
1.00041 0.995691 1.00035
0.999267 0.99756 0.999274
0.998071 1.00208 0.995613
0.994934 0.998981 0.986777
0.997651 1.00034 1.00025
0.996971 0.998195 0.992001
0.996948 0.995773 0.990893
0.999792 0.994917 0.877069
0.994707 0.994833 0.827191
0.994822 0.994811 0.838167
0.994806 1.00481 0.984061
0.994862 0.994899 0.957133
0.994691 0.994831 0.828406
0.996218 0.994796 0.931517
0.998943 0.994833 0.88832
0.994873 1.00087 0.986414
0.999793 0.994857 0.87495
0.999305 0.995542 0.930809
0.994853 0.994816 0.959931
0.996991 0.998022 0.988006
0.999951 0.994888 0.94391
0.995313 0.994828 0.964459
0.997922 1.00024 0.995143
1.00047 1.00128 0.99125
1.00372 0.999588 0.990676
1.00211 1.00096 0.989415
1.00405 0.999464 0.98784
1.00515 0.996227 0.989196
1.00431 1.00169 0.984964
1.00498 0.997469 0.98793
1.00525 0.995102 0.989946
1.00469 0.999831 0.98584
1.00527 0.996155 0.988947
1.00524 0.99506 0.990365
1.00524 0.995281 0.990384
1.00525 0.995849 0.989744
1.00523 0.99634 0.989428
1.00529 0.99806 0.987449
1.00526 0.99778 0.987614
1.0053 0.99737 0.987831
1.00529 1.00009 0.985547
1.00527 0.999426 0.985822
1.00522 0.999483 0.986014
1.00525 1.00155 0.984474
1.00526 1.00127 0.98452
1.00519 1.00079 0.984969
1.00346 1.00273 0.986205
1.00502 1.00136 0.985039
1.0048 1.00189 0.984478
1.00057 1.0029 0.990884
1.00251 1.00396 0.986586
1.00388 1.00216 0.986082
1 0.999176 0.998235
1.00029 1.0022 0.992132
1.00186 1.00484 0.987518
0.999962 0.998821 0.997445
1.00018 1.00152 0.99313
1.00005 0.998342 0.998553
1.0038 1.00103 0.987944
1.00168 1.00342 0.988422
1.00077 1.00507 0.988368
1.00045 1.00504 0.988928
1.0006 1.00508 0.988755
1.00069 1.00442 0.989446
1.00013 1.00049 0.994182
1.00043 1.00385 0.990323
1.00022 1.00505 0.989066
1.00007 0.997659 0.998806
1.00015 0.999713 0.994825
1.00043 1.00286 0.99126
1.00009 0.997355 0.998933
1.00025 0.999155 0.995215
1.00011 0.997095 0.99904
0.999794 0.994832 0.874677
0.994702 0.994819 0.819705
0.994815 0.994823 0.837266
1.00098 1.00276 0.989959
1.00166 1.00373 0.988308
1.00379 1.0023 0.987284
1.00505 1.00359 0.983122
1.00166 1.00302 0.988651
0.999687 1.00483 0.990578
1.00141 1.00319 0.989349
1.00117 1.0034 0.989283
1.00417 0.997905 0.988512
1.00189 0.999651 0.992606
1.00302 0.995793 0.993564
1.00016 0.999379 0.995479
0.999346 1.00389 0.993002
0.998144 0.994873 0.941615
0.999171 0.994779 0.868413
0.994655 0.99479 0.819173
0.996527 0.995427 0.870593
0.994873 0.999402 0.940194
0.994898 0.995562 0.964472
0.994892 0.996859 0.968035
0.996816 0.998895 0.943242
0.99573 0.994807 0.967538
0.999801 0.995985 0.999334
0.999773 0.996083 1.00038
0.99901 0.998837 0.999205
0.997567 0.997775 0.991803
0.997707 0.996398 0.99114
0.999976 0.994897 0.932426
0.999793 0.99489 0.882499
0.994692 0.994817 0.824994
0.99487 0.99962 0.982944
0.995055 0.994809 0.958004
0.9998 0.994829 0.87434
0.998524 0.994855 0.94289
0.996697 0.997996 0.988241
1.00057 0.994892 0.940245
0.996306 0.994852 0.962156
1.00055 0.994822 0.988196
0.998436 0.99487 0.972167
0.999265 0.999359 0.991403
1.00313 0.997823 0.990706
1.00493 0.99517 0.991576
1.00389 0.999152 0.987823
1.00509 0.996114 0.989065
1.00524 0.994877 0.990353
1.00482 0.997924 0.987867
1.00525 0.995159 0.989895
1.00523 0.994875 0.99049
1.00527 0.996227 0.988894
1.00523 0.995095 0.990331
1.00525 0.994913 0.990603
1.00524 0.995202 0.990452
1.00521 0.995499 0.990354
1.00525 0.995772 0.989906
1.00523 0.996325 0.989425
1.00523 0.99692 0.988791
1.0053 0.999002 0.986721
1.00529 0.998122 0.987428
1.00526 0.997838 0.987739
1.00532 1.00113 0.984609
1.0053 1.00016 0.985419
1.00527 0.999471 0.985786
1.0041 1.00198 0.985833
1.00513 1.00159 0.984517
1.00526 1.0013 0.984556
1.00113 1.003 0.989852
1.0033 1.00295 0.986205
1.00473 1.00163 0.985023
1.00012 0.999935 0.997832
1.0007 1.00273 0.99088
1.0027 1.00401 0.986577
1.00009 0.999324 0.998098
1.00047 1.00205 0.992093
1.00008 0.99876 0.998319
1.00501 1.00258 0.984208
1.00358 1.00103 0.987819
1.00192 1.00366 0.987603
1.00101 1.00349 0.988621
1.00084 1.00503 0.988193
1.00096 1.00491 0.988496
1.00046 1.00508 0.98878
1.00048 1.0046 0.989411
1.0002 1.00122 0.993328
1.00005 0.99809 0.998605
1.00009 1.00044 0.994202
1.00032 1.00397 0.990313
1.00005 0.997629 0.998845
1.00015 0.999644 0.99484
1.00009 0.99733 0.998954
0.999974 0.99488 0.945111
0.999813 0.994856 0.87432
0.994681 0.99481 0.814103
1.00142 1.00459 0.987495
1.0031 1.00274 0.987388
1.00274 1.00287 0.988109
1.00462 1.00333 0.983722
1.00517 1.00117 0.984512
1.00351 1.00045 0.986867
1.00039 1.00365 0.989829
1.0044 0.998059 0.988063
1.00193 0.999316 0.992738
1.00379 0.996297 0.990267
1.00413 0.996621 0.991792
1.00277 0.996602 0.99312
1.00258 0.996033 0.99364
0.999658 0.999913 0.995327
0.995939 0.994865 0.965635
0.999101 0.996119 0.937381
0.998029 0.994836 0.884665
0.996265 0.996994 0.931
0.994931 0.996741 0.968505
0.995477 0.995671 0.973409
0.999238 0.994939 0.992913
1.00046 0.995422 0.998906
0.99914 0.996263 1.00044
0.998787 0.998226 0.991423
0.997254 0.995798 0.966801
1.00009 0.994878 0.945701
0.999797 0.994893 0.866117
0.996161 0.998026 0.988549
0.996763 0.994859 0.96287
0.999902 0.994876 0.936257
1.00002 0.995208 0.988485
0.998554 0.994879 0.97145
1.00289 0.994994 0.99042
1.00317 0.997091 0.985109
1.00226 0.996193 0.990717
1.00445 0.995162 0.991594
1.00517 0.994782 0.990961
1.00499 0.996165 0.988935
1.00524 0.994877 0.990304
1.00526 0.994905 0.990503
1.00525 0.995233 0.989841
1.00523 0.994884 0.990469
1.00527 0.994904 0.990538
1.00524 0.995133 0.990296
1.00524 0.994917 0.990595
1.00525 0.994955 0.99063
1.00524 0.99512 0.990517
1.00522 0.995407 0.990389
1.00523 0.996106 0.989792
1.00522 0.996314 0.989423
1.00524 0.99696 0.988778
1.00527 0.998199 0.987649
1.00532 1.00034 0.985427
1.0053 0.999162 0.98651
1.00529 0.998185 0.987406
1.00484 1.00096 0.985599
1.00531 1.00114 0.984649
1.0053 1.00024 0.985293
1.00163 1.00265 0.989242
1.00396 1.00224 0.985831
1.005 1.00163 0.984557
1.00047 1.00054 0.997357
1.00119 1.00285 0.989848
1.00314 1.00319 0.986204
1.0003 1.0001 0.997638
1.00074 1.00258 0.990886
1.00022 0.99949 0.997928
1.00497 1.00181 0.984445
1.00502 1.00231 0.984408
1.00418 1.00209 0.985545
1.00329 1.00157 0.987694
1.00197 1.00364 0.987403
1.00188 1.00463 0.98742
1.00083 1.00491 0.988021
1.00083 1.00501 0.988501
1.00029 1.00202 0.992407
1.00036 1.00484 0.989379
1.00011 1.00129 0.993357
1.00001 0.99876 0.998343
1.00002 0.998053 0.998681
1.00004 1.00042 0.994226
1.00004 0.997574 0.998878
0.996913 0.994876 0.96719
0.999957 0.994871 0.931878
0.99981 0.994865 0.885935
1.00523 0.999057 0.986299
1.00392 1.00277 0.987579
1.00416 1.00309 0.984322
1.00431 1.00027 0.987105
1.00514 1.00138 0.984468
1.00482 0.998069 0.988113
1.00478 0.99947 0.987618
1.00172 0.998572 0.992877
1.0044 0.996932 0.990098
1.00396 0.996782 0.990935
1.00479 0.99611 0.989675
1.00326 0.995025 0.994199
1.00279 0.996218 0.993178
1.00242 0.996279 0.993707
0.998816 0.994907 0.991284
0.995855 0.994873 0.964008
0.998779 0.99485 0.932582
0.995111 0.996175 0.972289
0.998863 0.994894 0.995579
1.00053 0.994978 0.998425
1.00183 0.995715 0.982197
0.997294 0.995231 0.96703
0.999983 0.994893 0.932475
0.999357 0.9951 0.988794
0.9989 0.994888 0.970698
1.00205 0.994852 0.990924
1.00304 0.996335 0.98594
1.00395 0.994972 0.991227
1.00467 0.997137 0.990875
1.00408 0.995019 0.991598
1.00513 0.994805 0.990853
1.00532 0.994849 0.990442
1.00524 0.994872 0.990255
1.00525 0.994895 0.9905
1.0053 0.994898 0.990475
1.00523 0.994893 0.990449
1.00526 0.994901 0.990548
1.00527 0.9949 0.990668
1.00523 0.99492 0.990586
1.00525 0.994944 0.990617
1.00525 0.995251 0.990487
1.00522 0.995315 0.990424
1.00523 0.995973 0.98992
1.00528 0.997361 0.988572
1.00524 0.996996 0.988765
1.00527 0.998136 0.987716
1.00532 0.999946 0.985945
1.00511 1.00055 0.985583
1.00533 1.00047 0.985289
1.0053 0.999317 0.9863
1.0024 1.00154 0.989113
1.00473 1.00111 0.985607
1.00529 1.00115 0.984688
1.00078 1.00077 0.997026
1.00188 1.00234 0.989233
1.00382 1.00242 0.985833
1.0006 1.0006 0.997217
1.00132 1.00272 0.989845
1.00045 1.00026 0.997461
1.00528 1.00044 0.985162
1.00514 1.00184 0.984339
1.00509 1.0013 0.984934
1.00515 1.00199 0.984605
1.00438 1.00199 0.985494
1.00285 1.00379 0.986605
1.00217 1.00332 0.987201
1.00161 1.00477 0.987433
1.0005 1.00259 0.9914
1.00066 1.00504 0.988502
1.00015 1.00207 0.992434
0.999988 0.999483 0.998045
1.00001 1.00128 0.993386
0.999984 0.998642 0.998441
0.999992 0.997963 0.998749
1.00051 0.994884 0.987123
0.996714 0.994888 0.963711
0.999978 0.994878 0.944913
1.00512 0.997594 0.988099
1.00528 0.997156 0.988313
1.00524 0.998833 0.986565
1.00506 0.999644 0.987336
1.00513 1.00165 0.984426
1.00486 0.997921 0.988398
1.00516 0.995628 0.989381
1.00489 0.99685 0.989937
1.00383 0.997324 0.990083
1.0046 0.996636 0.990085
1.00506 0.995165 0.990742
1.00367 0.995036 0.993015
1.00292 0.995226 0.993892
1.00307 0.995785 0.99325
0.999502 0.994944 0.991374
0.995776 0.994864 0.962543
0.99882 0.994907 0.998364
1.00455 0.994876 0.990835
1.0017 0.996131 0.98233
0.997396 0.994863 0.965371
1.00169 0.994786 0.991389
1.0029 0.995554 0.986792
1.00397 0.994928 0.991889
1.0047 0.996314 0.990979
1.00531 0.994817 0.99089
1.0054 0.994884 0.99113
1.00508 0.994826 0.990748
1.00534 0.994855 0.990413
1.00534 0.994873 0.990498
1.00524 0.994884 0.990497
1.0053 0.994899 0.990497
1.00527 0.994899 0.990663
1.00525 0.994899 0.990557
1.00527 0.994899 0.990663
1.00526 0.994977 0.990785
1.00525 0.994934 0.990604
1.00525 0.995256 0.990462
1.00528 0.99657 0.989282
1.00523 0.995838 0.990047
1.00528 0.997289 0.988624
1.00533 0.999438 0.986424
1.00527 0.998074 0.987783
1.00531 0.999861 0.986053
1.00518 1.00042 0.985627
1.00277 1.0007 0.989292
1.00509 1.00059 0.98559
1.00533 1.0006 0.98515
1.00101 1.00077 0.996849
1.00244 1.00148 0.989105
1.00462 1.00134 0.985616
1.00087 1.00083 0.996938
1.00202 1.00213 0.989223
1.00071 1.00075 0.997086
1.00528 0.998678 0.986858
1.00527 1.00031 0.985356
1.00526 1.00089 0.985032
1.00519 1.00182 0.984233
1.00515 1.00124 0.984934
1.00351 1.00253 0.986469
1.00457 1.00191 0.985448
1.00275 1.00354 0.986605
1.00086 1.00294 0.990344
1.00129 1.00487 0.987448
1.00041 1.0027 0.991433
1.00009 1.00029 0.997695
1.00007 1.00219 0.99246
0.999951 0.999346 0.99816
0.999943 0.998539 0.998531
1.00434 0.994821 0.992193
1.00071 0.994875 0.984929
0.996575 0.994906 0.963133
1.00521 0.996504 0.989242
1.00511 0.997156 0.988403
1.00526 0.995998 0.989573
1.00528 0.997185 0.988281
1.00524 0.998575 0.986826
1.00528 0.994926 0.99005
1.00498 0.997954 0.988673
1.00518 0.995955 0.989393
1.00526 0.994842 0.990527
1.0045 0.996993 0.990492
1.00505 0.995225 0.990426
1.0034 0.995098 0.993278
1.00234 0.995651 0.993589
0.999972 0.99493 0.991282
1.00536 0.994886 0.99086
1.00453 0.995836 0.991071
1.00153 0.996597 0.982522
1.00385 0.994797 0.992534
1.00469 0.995522 0.991089
1.0053 0.994811 0.990948
1.00541 0.994897 0.991068
1.00538 0.994875 0.990893
1.00536 0.994862 0.990387
1.00534 0.994878 0.99051
1.00526 0.994905 0.9908
1.0053 0.994901 0.99052
1.00527 0.994903 0.990659
1.00522 0.994903 0.990965
1.00527 0.994899 0.990658
1.00527 0.994964 0.990756
1.00527 0.995849 0.990075
1.00525 0.995261 0.990437
1.00528 0.996604 0.989276
1.00535 0.998912 0.986996
1.00527 0.997216 0.988676
1.00533 0.999442 0.986449
1.00517 1.00039 0.985706
1.00532 0.999774 0.986161
1.00519 1.00042 0.985639
1.00284 1.0003 0.991247
1.00138 1.00024 0.993485
1.00281 1.00068 0.990119
1.00506 1.00064 0.985597
1.00104 1.00078 0.996829
1.00257 1.00128 0.989093
1.00092 1.00087 0.996864
1.00523 0.995887 0.989961
1.00526 0.997481 0.988299
1.00529 0.998668 0.987047
1.00531 1.00028 0.985521
1.00525 1.00019 0.98555
1.00528 1.00092 0.984969
1.00419 1.00135 0.986329
1.0052 1.00121 0.984932
1.00366 1.00209 0.98646
1.0015 1.00276 0.989503
1.00274 1.00329 0.986601
1.00084 1.00305 0.990334
1.00035 1.00088 0.997266
1.00029 1.00274 0.991463
0.999989 1.00003 0.997835
0.999905 0.999213 0.998266
1.00535 0.994838 0.990801
1.0044 0.994792 0.991936
1.00118 0.994852 0.982798
1.00529 0.995317 0.990092
1.00514 0.996474 0.989119
1.00512 0.996734 0.988712
1.00526 0.996162 0.989536
1.00528 0.997219 0.988249
1.00536 0.994834 0.99052
1.00529 0.994945 0.990073
1.0052 0.996255 0.989405
1.00523 0.994846 0.990564
1.00506 0.995271 0.990109
1.00324 0.994944 0.993541
1.00534 0.994916 0.990949
1.00538 0.994887 0.991047
1.00454 0.996527 0.991304
1.00529 0.994806 0.990989
1.00542 0.994901 0.991011
1.00538 0.994875 0.990857
1.00527 0.994932 0.991058
1.00534 0.994883 0.990523
1.00527 0.994908 0.990769
1.00517 0.994931 0.991126
1.00528 0.994906 0.990654
1.00523 0.994904 0.990949
1.00527 0.995312 0.990704
1.00527 0.994951 0.990728
1.00527 0.995873 0.990063
1.00534 0.998423 0.987553
1.00529 0.996636 0.989269
1.00534 0.998917 0.987019
1.00514 1.00032 0.985852
1.00533 0.999445 0.986474
1.00519 1.00036 0.985724
1.00291 1.00007 0.991355
1.00519 1.00042 0.98565
1.00304 1.00019 0.991119
1.00144 0.999968 0.993694
1.00112 1.00053 0.995229
1.00302 1.00063 0.990774
1.00105 1.00081 0.99682
1.00525 0.995151 0.990704
1.00525 0.997119 0.988672
1.00523 0.995747 0.99012
1.00532 0.999557 0.986263
1.00526 0.997535 0.988289
1.00529 0.998648 0.987236
1.00531 1.00032 0.985463
1.0049 1.00042 0.986033
1.0053 1.00095 0.984905
1.00434 1.00108 0.986323
1.00215 1.00192 0.98917
1.00376 1.00171 0.986455
1.00132 1.00292 0.989495
1.00059 1.00126 0.996935
1.00068 1.0032 0.990342
1.00019 1.00074 0.997438
0.999939 0.999876 0.997966
1.00532 0.994895 0.990745
1.00532 0.994837 0.990819
1.00434 0.99478 0.991674
1.00529 0.994864 0.990665
1.00527 0.995378 0.990071
1.00507 0.99645 0.989003
1.00526 0.996326 0.9895
1.00534 0.994843 0.990523
1.00531 0.994961 0.990096
1.00518 0.99485 0.990601
1.00528 0.994958 0.991046
1.00533 0.994916 0.990933
1.00539 0.994895 0.991232
1.00523 0.994958 0.991181
1.00538 0.994874 0.990821
1.00527 0.994933 0.991049
1.00517 0.994955 0.991208
1.00527 0.99491 0.990738
1.00518 0.994929 0.991125
1.00527 0.995023 0.991079
1.00524 0.994905 0.990933
1.00524 0.995325 0.990699
1.00534 0.998 0.988009
1.00528 0.995896 0.990051
1.00533 0.998427 0.987572
1.0051 1.00019 0.986066
1.00533 0.998923 0.987041
1.00516 1.00029 0.985873
1.0029 1.00008 0.991347
1.00521 1.00033 0.98574
1.00308 1 0.991204
1.0015 0.99986 0.993709
1.00323 1.00007 0.991001
1.00102 1.00013 0.993982
1.00053 1.00087 0.997316
1.00526 0.994926 0.990791
1.00529 0.996277 0.989607
1.00525 0.995215 0.9906
1.00534 0.999187 0.98669
1.00526 0.996805 0.988926
1.00522 0.995602 0.990278
1.00519 1.00006 0.985969
1.00532 0.999554 0.98622
1.00526 0.997588 0.988279
1.00531 1.00035 0.985405
1.00496 1.00034 0.986024
1.00257 1.00102 0.989288
1.00449 1.0008 0.986317
1.002 1.00212 0.989192
1.00075 1.00131 0.996826
1.00128 1.00304 0.989476
1.0005 1.00113 0.997052
1.00005 1.00053 0.9976
1.00527 0.994907 0.990951
1.00531 0.994895 0.990713
1.0053 0.994834 0.990839
1.0053 0.994868 0.990695
1.00525 0.99544 0.99005
1.00534 0.994851 0.990525
1.00524 0.99497 0.991101
1.00529 0.994954 0.991054
1.00532 0.994917 0.990917
1.00523 0.994958 0.991174
1.00514 0.994956 0.991396
1.00527 0.994935 0.99104
1.00516 0.994954 0.991249
1.00525 0.994938 0.991175
1.00519 0.994928 0.991125
1.00524 0.99502 0.991072
1.00537 0.997636 0.988367
1.00522 0.995332 0.990694
1.00535 0.997995 0.988017
1.00507 0.99999 0.986352
1.00533 0.998431 0.987592
1.00512 1.00017 0.986082
1.00284 1.00018 0.991318
1.00518 1.00026 0.985894
1.00306 1.00003 0.991187
1.00152 0.999896 0.993657
1.00323 0.999947 0.991063
1.00113 0.999909 0.994022
1.00062 1.00031 0.994254
1.00526 0.994909 0.990998
1.00526 0.995657 0.990276
1.00526 0.994914 0.990804
1.00536 0.998342 0.987554
1.00529 0.996349 0.989501
1.00525 0.995282 0.990495
1.00525 0.999947 0.986028
1.00534 0.998851 0.986962
1.00526 0.996498 0.989182
1.00282 1.00028 0.9896
1.0052 1.00003 0.985958
1.00532 0.999554 0.986176
1.005 1.00027 0.986019
1.00252 1.00111 0.989307
1.0009 1.00107 0.996868
1.00184 1.00232 0.989214
1.00072 1.00123 0.996858
1.00037 1.00105 0.997189
1.00524 0.994959 0.991066
1.00527 0.994911 0.990925
1.0053 0.994896 0.990681
1.00531 0.994872 0.990725
1.00515 0.994972 0.991367
1.00524 0.994966 0.991111
1.00529 0.994949 0.991062
1.00523 0.994958 0.991166
1.00514 0.994958 0.991376
1.00524 0.995342 0.990837
1.00516 0.994955 0.99129
1.00525 0.995155 0.990982
1.00538 0.996964 0.98906
1.00522 0.995024 0.991064
1.00539 0.997633 0.988364
1.00501 0.999771 0.986679
1.00536 0.998004 0.988024
1.00508 0.99997 0.986356
1.00282 1.00024 0.989754
1.00515 1.00014 0.986099
1.00299 1.00015 0.990372
1.00131 0.999967 0.996892
1.0032 0.999992 0.991029
1.00118 0.999882 0.993975
1.00078 0.999949 0.994318
1.00523 0.994955 0.991094
1.00525 0.99548 0.990621
1.00526 0.994919 0.990994
1.00531 0.99773 0.988267
1.00525 0.995813 0.990086
1.00526 0.994903 0.990818
1.00522 0.999618 0.986389
1.00536 0.998321 0.987571
1.00528 0.996415 0.989395
1.00293 0.99987 0.989824
1.00523 0.999804 0.986134
1.00534 0.998506 0.987235
1.00105 1.0006 0.996961
1.00283 1.00025 0.989609
1.00523 0.999991 0.985943
1.00245 1.00119 0.989326
1.00089 1.00103 0.996841
1.00067 1.00118 0.996905
1.00514 0.994976 0.991274
1.00524 0.994961 0.99107
1.00528 0.994915 0.9909
1.00522 0.995388 0.99088
1.00515 0.99497 0.99134
1.00524 0.994962 0.99112
1.00515 0.994958 0.991356
1.00524 0.99538 0.990837
1.00537 0.997152 0.988948
1.00525 0.995382 0.990789
1.00539 0.997344 0.988685
1.00494 0.999265 0.987296
1.0054 0.997615 0.988361
1.00502 0.99976 0.986681
1.00275 1.00015 0.989978
1.00511 0.999953 0.986361
1.00283 1.00022 0.989765
1.00125 1.00002 0.99689
1.00302 1.00013 0.989564
1.00116 0.999972 0.995462
1.00084 0.999845 0.994292
1.00516 0.994968 0.991272
1.00521 0.99536 0.990865
1.00522 0.994955 0.991111
1.0053 0.997925 0.988114
1.00525 0.995418 0.990633
1.00526 0.994928 0.99099
1.00515 0.999551 0.986606
1.00531 0.998074 0.987922
1.00525 0.995968 0.989896
1.00299 0.999776 0.989852
1.0052 0.999607 0.986406
1.00536 0.998304 0.987588
1.00122 1.00019 0.996984
1.00297 0.999826 0.989828
1.00523 0.999661 0.986238
1.00108 1.00062 0.996923
1.00285 1.00023 0.989621
1.00085 1.00103 0.996841
1.00521 0.995432 0.990795
1.00514 0.994974 0.991297
1.00523 0.994962 0.991074
1.00536 0.997136 0.988991
1.00522 0.995412 0.990857
1.00516 0.994968 0.991312
1.00523 0.995403 0.990837
1.00537 0.99715 0.988956
1.00488 0.999099 0.987559
1.00539 0.997717 0.988312
1.00496 0.999416 0.987121
1.00268 1.00003 0.990209
1.00503 0.999745 0.986682
1.00272 1.00017 0.989989
1.00116 1.00003 0.996914
1.00282 1.00021 0.989773
1.00122 1.00003 0.996893
1.00126 0.999938 0.993753
1.0052 0.995592 0.99065
1.00515 0.994966 0.991235
1.00531 0.997706 0.988362
1.00523 0.995288 0.99087
1.0052 0.994954 0.991128
1.00507 0.999783 0.986549
1.0053 0.997934 0.988114
1.00526 0.995356 0.990646
1.00294 0.999897 0.989845
1.00512 0.999719 0.986463
1.00531 0.998422 0.987577
1.00132 0.999969 0.996941
1.003 0.999777 0.989851
1.00518 0.999588 0.986423
1.00121 1.00023 0.99698
1.003 0.999789 0.98983
1.00108 1.00063 0.99688
1.00536 0.997219 0.988891
1.0052 0.995448 0.990821
1.00515 0.994972 0.991319
1.00487 0.999048 0.987631
1.00536 0.997136 0.988993
1.00522 0.995421 0.990834
1.00537 0.997168 0.988964
1.0049 0.999085 0.987529
1.00258 0.999969 0.990433
1.00496 0.999565 0.986945
1.00266 1.00004 0.990218
1.0011 1.00002 0.996959
1.00271 1.00018 0.990002
1.00112 1.00005 0.996936
1.00119 1.00004 0.996904
1.00534 0.997519 0.988548
1.00521 0.995353 0.990844
1.00514 0.994965 0.991199
1.00499 0.999665 0.986836
1.00531 0.997716 0.988363
1.00525 0.995217 0.990874
1.00284 1.00001 0.989942
1.00504 0.999812 0.986547
1.00529 0.997942 0.988115
1.0013 0.999935 0.996898
1.00295 0.999912 0.98984
1.0051 0.999882 0.986319
1.00131 1.00001 0.996959
1.00301 0.999795 0.989849
1.00125 1.00023 0.996967
1.00489 0.999408 0.987261
1.00535 0.997051 0.989046
1.0052 0.995455 0.990847
1.00254 0.999893 0.990606
1.00488 0.999025 0.987626
1.00536 0.997146 0.988996
1.00493 0.999067 0.9875
1.00259 0.999943 0.990441
1.00105 1.00002 0.996989
1.00264 1.00005 0.990226
1.00108 1.00003 0.996964
1.00108 1.00007 0.996951
1.00493 0.999522 0.987098
1.00534 0.997302 0.988782
1.00522 0.995112 0.991038
1.00283 1.00002 0.991515
1.00496 0.999678 0.986841
1.0053 0.997728 0.988363
1.00122 0.999966 0.996904
1.00284 1.00002 0.989937
1.00501 0.999842 0.986545
1.00132 0.999955 0.996914
1.00295 0.999933 0.989836
1.00131 1.00003 0.996973
1.00264 0.999892 0.990498
1.00488 0.999244 0.987406
1.00535 0.996892 0.9892
1.00097 0.999983 0.997049
1.00253 0.999889 0.9906
1.00489 0.999006 0.987621
1.00259 0.999918 0.990445
1.00102 1.00001 0.997009
1.00105 1.00005 0.996977
1.00281 0.99996 0.991676
1.00491 0.999527 0.9871
1.00533 0.997083 0.989016
1.00065 1.00001 0.997458
1.00272 1.00003 0.99016
1.00493 0.999688 0.986847
1.00124 0.999973 0.996906
1.00284 1.00004 0.98993
1.00133 0.99997 0.996929
1.00096 0.999945 0.994247
1.00266 0.999896 0.991182
1.00488 0.99908 0.98755
1.001 0.999985 0.997055
1.00254 0.99989 0.990602
1.00103 0.999996 0.997025
1.00049 0.999993 0.994691
1.00271 0.999943 0.991041
1.00489 0.999537 0.987101
1.00087 0.999996 0.995747
1.00271 1.00003 0.990177
1.00127 0.999977 0.996912
1.00099 0.999971 0.997048
1.00254 0.999887 0.990595
1.00096 0.999986 0.997053
1.00076 0.999967 0.995874
1.00261 0.999935 0.990447
1.00115 0.999989 0.996938
1.00101 0.999972 0.997054
1.00104 0.999978 0.997007

TENSORS stress float
0.00215413 -0.000147088 0.00025048
-0.000147088 0.00101185 -4.15481e-05
0.00025048 -4.15481e-05 0.000985838
0.00670906 4.06973e-05 0.00028233
4.06973e-05 0.0038679 3.16426e-05
0.00028233 3.16426e-05 0.00387104
0.00183085 -7.82328e-05 0.000105787
-7.82328e-05 0.000808232 -1.65568e-05
0.000105787 -1.65568e-05 0.000771174
0.00218053 -8.38653e-05 0.000242819
-8.38653e-05 0.00100399 -2.41362e-05
0.000242819 -2.41362e-05 0.000987455
0.00220183 -0.000129722 0.000245082
-0.000129722 0.00103139 -3.65105e-05
0.000245082 -3.65105e-05 0.00100898
0.00210786 -0.000149309 0.000258823
-0.000149309 0.000984433 -4.30937e-05
0.000258823 -4.30937e-05 0.000958713
0.00182763 -0.00013468 4.82777e-05
-0.00013468 0.000718155 -1.30629e-05
4.82777e-05 -1.30629e-05 0.000608471
0.00665151 3.07408e-05 -7.37289e-06
3.07408e-05 0.00382286 -1.25566e-06
-7.37289e-06 -1.25566e-06 0.00383057
0.00645324 0.000201011 0.000141911
0.000201011 0.00369279 1.33545e-05
0.000141911 1.33545e-05 0.00366796
0.00640291 -4.59524e-05 7.59442e-05
-4.59524e-05 0.00365267 3.74312e-06
7.59442e-05 3.74312e-06 0.00363218
0.00187496 0.000190146 0.000262459
0.000190146 0.000840251 3.30745e-05
0.000262459 3.30745e-05 0.000832712
0.000469593 0.00025046 2.61975e-05
0.00025046 -9.54089e-05 1.98559e-05
2.61975e-05 1.98559e-05 -0.000226994
0.00178406 -3.36957e-05 0.00023954
-3.36957e-05 0.00075507 3.96018e-06
0.00023954 3.96018e-06 0.000755373
0.00146422 1.38075e-06 6.08652e-05
1.38075e-06 0.0005775 1.7606e-06
6.08652e-05 1.7606e-06 0.000531936
0.00155638 -7.77166e-05 -5.50908e-05
-7.77166e-05 0.000645202 9.59843e-06
-5.50908e-05 9.59843e-06 0.000592903
0.00182217 -8.38751e-05 8.00293e-05
-8.38751e-05 0.000797613 -4.88415e-06
8.00293e-05 -4.88415e-06 0.00076409
0.0018447 -6.55206e-05 0.000114881
-6.55206e-05 0.000823328 -1.76983e-05
0.000114881 -1.76983e-05 0.000782503
0.0018376 -8.66162e-05 9.42762e-05
-8.66162e-05 0.000805755 -1.28177e-05
9.42762e-05 -1.28177e-05 0.000771961
0.0018783 -0.000170364 -4.01021e-05
-0.000170364 0.000747664 5.68545e-06
-4.01021e-05 5.68545e-06 0.000647248
0.00609156 -0.000140926 0.000309659
-0.000140926 0.00347774 -1.29386e-05
0.000309659 -1.29386e-05 0.00349431
0.00211908 -6.14366e-05 0.000241181
-6.14366e-05 0.000965236 -1.79654e-05
0.000241181 -1.79654e-05 0.000951421
0.00221369 -0.000107731 0.000243207
-0.000107731 0.00103014 -3.0519e-05
0.000243207 -3.0519e-05 0.00101121
0.00177293 -0.000135473 6.88174e-05
-0.000135473 0.00067551 -1.05214e-05
6.88174e-05 -1.05214e-05 0.000579341
0.00181749 -0.000141227 5.7859e-05
-0.000141227 0.000702053 -1.25445e-05
5.7859e-05 -1.25445e-05 0.000599982
0.00203736 -0.000125936 0.000257487
-0.000125936 0.000932933 -3.97016e-05
0.000257487 -3.97016e-05 0.000910786
0.00182522 -0.000130441 4.03645e-05
-0.000130441 0.000733762 -1.37373e-05
4.03645e-05 -1.37373e-05 0.000612956
0.002088 -0.000314572 1.65993e-05
-0.000314572 0.000666533 -7.1205e-06
1.65993e-05 -7.1205e-06 0.000461126
0.00660966 1.61854e-05 -0.000280142
1.61854e-05 0.00378697 -2.21029e-05
-0.000280142 -2.21029e-05 0.0037995
0.00419125 0.000150211 -0.000142636
0.000150211 0.00227722 -1.58103e-05
-0.000142636 -1.58103e-05 0.0022551
0.00410543 6.01812e-05 -0.000140355
6.01812e-05 0.00223506 -1.30729e-05
-0.000140355 -1.30729e-05 0.00221362
0.00655324 -4.02567e-05 -3.92125e-06
-4.02567e-05 0.003773 -3.39282e-07
-3.92125e-06 -3.39282e-07 0.0037763
0.000459728 0.000233598 -1.39393e-06
0.000233598 -9.902e-05 -1.09315e-06
-1.39393e-06 -1.09315e-06 -0.000230481
0.00184448 6.79581e-05 0.000248894
6.79581e-05 0.000793559 2.26187e-05
0.000248894 2.26187e-05 0.00078061
0.001972 0.00015727 0.000254889
0.00015727 0.000906102 3.51552e-05
0.000254889 3.51552e-05 0.000881656
0.00281612 0.000207194 0.000153068
0.000207194 0.00131674 2.1816e-05
0.000153068 2.1816e-05 0.00123584
0.00576168 -0.000310736 6.10238e-06
-0.000310736 0.00334873 5.52499e-06
6.10238e-06 5.52499e-06 0.00328912
0.00294234 0.00028292 0.000157377
0.00028292 0.00143654 2.70788e-05
0.000157377 2.70788e-05 0.00134045
0.000456755 0.000217131 2.67601e-05
0.000217131 -9.88755e-05 2.60718e-05
2.67601e-05 2.60718e-05 -0.000228669
0.000902477 0.000247926 1.29331e-05
0.000247926 3.35188e-05 6.35319e-06
1.29331e-05 6.35319e-06 -0.000179703
0.00453999 -0.000106205 0.000172975
-0.000106205 0.0025605 1.47775e-05
0.000172975 1.47775e-05 0.0025601
0.0060697 8.13016e-05 3.36077e-06
8.13016e-05 0.00345143 -1.80438e-06
3.36077e-06 -1.80438e-06 0.00347509
0.00395931 8.90257e-05 -0.000119212
8.90257e-05 0.00213042 -5.27802e-06
-0.000119212 -5.27802e-06 0.00211871
0.00592539 5.81455e-05 0.000300829
5.81455e-05 0.00336434 4.20767e-06
0.000300829 4.20767e-06 0.00338859
0.00141696 8.73804e-05 6.32614e-05
8.73804e-05 0.000550763 4.23371e-06
6.32614e-05 4.23371e-06 0.000510212
0.000527417 1.13127e-05 1.53219e-05
1.13127e-05 -0.000129595 1.98289e-06
1.53219e-05 1.98289e-06 -0.000214087
0.00625041 0.000230367 0.000172458
0.000230367 0.0035912 1.65059e-05
0.000172458 1.65059e-05 0.00356581
0.00282005 7.55136e-05 0.000143802
7.55136e-05 0.00129064 9.20072e-06
0.000143802 9.20072e-06 0.00123225
0.00141833 -8.54271e-05 -7.51365e-05
-8.54271e-05 0.000563659 9.48485e-06
-7.51365e-05 9.48485e-06 0.00051245
0.00146152 -0.000106874 -6.78066e-05
-0.000106874 0.000592758 1.14879e-05
-6.78066e-05 1.14879e-05 0.000538166
0.00164084 -3.47162e-05 -4.32521e-05
-3.47162e-05 0.000696772 8.45923e-06
-4.32521e-05 8.45923e-06 0.000643848
0.00191413 -0.000172903 -0.000134898
-0.000172903 0.000762664 2.43423e-05
-0.000134898 2.43423e-05 0.000673234
0.00381465 -1.73268e-05 -0.000121128
-1.73268e-05 0.00205022 -1.77665e-06
-0.000121128 -1.77665e-06 0.00203808
0.00178744 -6.53838e-05 8.50233e-05
-6.53838e-05 0.000772242 -3.92891e-06
8.50233e-05 -3.92891e-06 0.000742652
0.00179944 -4.28976e-05 0.000119142
-4.28976e-05 0.000798257 -1.61832e-05
0.000119142 -1.61832e-05 0.000756364
0.00183279 -8.60216e-05 8.55015e-05
-8.60216e-05 0.00080187 -8.35705e-06
8.55015e-05 -8.35705e-06 0.000768965
0.00184649 -0.00011364 -3.2158e-05
-0.00011364 0.000710915 2.16277e-06
-3.2158e-05 2.16277e-06 0.000625942
0.00187156 -0.000172383 -4.64048e-05
-0.000172383 0.000754885 6.45557e-06
-4.64048e-05 6.45557e-06 0.000647122
0.00187316 -0.000158383 -3.46028e-05
-0.000158383 0.000736307 4.02841e-06
-3.46028e-05 4.02841e-06 0.00064193
0.00206752 -0.000313877 -9.48704e-06
-0.000313877 0.000649021 2.55718e-06
-9.48704e-06 2.55718e-06 0.000444051
0.00591304 8.78097e-06 0.000296816
8.78097e-06 0.00335463 -2.00814e-06
0.000296816 -2.00814e-06 0.00338014
0.00205207 -3.73899e-05 0.000236857
-3.73899e-05 0.000927325 -1.23843e-05
0.000236857 -1.23843e-05 0.000917031
0.00245054 -6.55964e-06 5.07489e-05
-6.55964e-06 0.00108643 -9.79671e-07
5.07489e-05 -9.79671e-07 0.00101874
0.00174128 -0.000110181 6.14463e-05
-0.000110181 0.000649679 -6.99067e-06
6.14463e-05 -6.99067e-06 0.000561547
0.00178703 -0.000139682 6.48536e-05
-0.000139682 0.000682858 -1.19446e-05
6.48536e-05 -1.19446e-05 0.000584331
0.00189507 -0.000202308 1.10183e-05
-0.000202308 0.000474333 -2.822e-06
1.10183e-05 -2.822e-06 0.000311574
0.00189795 -0.000274792 1.63209e-05
-0.000274792 0.000508373 -5.33213e-06
1.63209e-05 -5.33213e-06 0.000320196
0.00181206 -8.29349e-05 0.000233355
-8.29349e-05 0.000794034 -3.1293e-05
0.000233355 -3.1293e-05 0.000776512
0.00174172 -9.70051e-05 3.11165e-05
-9.70051e-05 0.000699741 -1.32584e-05
3.11165e-05 -1.32584e-05 0.000576953
0.00210167 -0.000340026 1.68359e-05
-0.000340026 0.000718258 -8.23263e-06
1.68359e-05 -8.23263e-06 0.000498453
0.00164336 -0.000402972 5.98791e-06
-0.000402972 0.000172407 -5.11645e-07
5.98791e-06 -5.11645e-07 -8.01183e-05
0.00681029 0.000257668 -0.000335306
0.000257668 0.00391567 -3.67332e-05
-0.000335306 -3.67332e-05 0.00392076
0.00646424 -6.63886e-05 -0.000251748
-6.63886e-05 0.00371906 -1.76683e-05
-0.000251748 -1.76683e-05 0.00372401
0.00665428 9.38384e-05 -0.000296427
9.38384e-05 0.00380729 -2.67272e-05
-0.000296427 -2.67272e-05 0.00382226
0.000422107 0.000224257 -2.48981e-05
0.000224257 -0.000116673 -2.0177e-05
-2.48981e-05 -2.0177e-05 -0.000250408
0.00671556 0.000235336 -2.35515e-06
0.000235336 0.00385253 -2.34921e-06
-2.35515e-06 -2.34921e-06 0.00386172
0.00682104 0.000205352 -9.04688e-06
0.000205352 0.00391554 -2.83589e-06
-9.04688e-06 -2.83589e-06 0.00392363
0.000369701 0.000130592 2.94993e-07
0.000130592 -0.000212526 -2.90262e-07
2.94993e-07 -2.90262e-07 -0.000324281
0.00359609 -0.000101138 -0.000115559
-0.000101138 0.00196541 -4.18527e-06
-0.000115559 -4.18527e-06 0.00193131
0.000368432 0.000207892 3.08303e-07
0.000207892 -0.000166076 -4.6573e-07
3.08303e-07 -4.6573e-07 -0.000295379
0.00174326 0.000223363 5.59078e-05
0.000223363 0.000707294 3.14112e-06
5.59078e-05 3.14112e-06 0.000599146
0.000841166 0.000241117 3.43671e-07
0.000241117 5.2668e-07 1.26402e-09
3.43671e-07 1.26402e-09 -0.000210553
0.00549025 -0.000130775 0.000204292
-0.000130775 0.00316385 2.14279e-05
0.000204292 2.14279e-05 0.00315211
0.000586635 4.75729e-05 1.3902e-05
4.75729e-05 4.12161e-05 1.32454e-05
1.3902e-05 1.32454e-05 -3.11259e-05
0.000474494 0.00010061 1.53773e-05
0.00010061 -0.000166364 1.01092e-05
1.53773e-05 1.01092e-05 -0.000272302
0.000490194 0.000159119 1.98422e-05
0.000159119 -0.000124024 1.78264e-05
1.98422e-05 1.78264e-05 -0.000243116
0.00112445 0.00023574 1.4866e-05
0.00023574 4.83315e-08 5.42559e-06
1.4866e-05 5.42559e-06 -0.000194368
0.00297495 0.000197776 0.000140225
0.000197776 0.00148958 1.94599e-05
0.000140225 1.94599e-05 0.00141152
0.00097353 0.000258139 1.44531e-05
0.000258139 9.74887e-06 6.62089e-06
1.44531e-05 6.62089e-06 -0.000200549
0.000821414 0.000243831 1.20472e-05
0.000243831 6.92009e-05 6.10815e-06
1.20472e-05 6.10815e-06 -0.000148739
0.00119704 0.000388265 1.73207e-06
0.000388265 0.000116833 -1.11324e-06
1.73207e-06 -1.11324e-06 -0.000169272
0.00353243 -0.000122249 0.000107785
-0.000122249 0.00192039 6.38427e-06
0.000107785 6.38427e-06 0.00191954
0.00413269 -0.000161629 2.2583e-05
-0.000161629 0.00231475 -5.15331e-07
2.2583e-05 -5.15331e-07 0.00230171
0.00652022 5.94914e-05 -0.000318805
5.94914e-05 0.00371693 -1.57436e-05
-0.000318805 -1.57436e-05 0.00373929
0.00617001 7.24662e-05 -0.000311569
7.24662e-05 0.00350973 -9.62266e-06
-0.000311569 -9.62266e-06 0.0035346
0.00601512 8.37924e-05 -4.59852e-08
8.37924e-05 0.00342529 -3.7325e-06
-4.59852e-08 -3.7325e-06 0.00344626
0.00383279 3.15915e-05 -0.000130382
3.15915e-05 0.00205134 -6.71304e-06
-0.000130382 -6.71304e-06 0.00204487
0.00160148 3.83029e-05 6.19014e-05
3.83029e-05 0.000541026 1.67738e-06
6.19014e-05 1.67738e-06 0.000473327
0.00413411 0.000147202 -0.000121934
0.000147202 0.00224385 -7.17029e-06
-0.000121934 -7.17029e-06 0.00222436
0.00166652 9.22258e-05 6.33687e-05
9.22258e-05 0.000575289 3.0983e-06
6.33687e-05 3.0983e-06 0.000496808
0.00597077 0.000123192 0.000303705
0.000123192 0.00340671 7.23041e-06
0.000303705 7.23041e-06 0.00342258
0.000431803 1.05489e-05 1.85333e-05
1.05489e-05 -0.000183767 9.90927e-07
1.85333e-05 9.90927e-07 -0.000265169
0.00280114 3.89239e-05 0.000141507
3.89239e-05 0.00128183 6.22675e-06
0.000141507 6.22675e-06 0.00122936
0.00111124 6.21748e-05 1.19478e-05
6.21748e-05 -3.30407e-05 9.14313e-07
1.19478e-05 9.14313e-07 -0.000165648
0.00276093 0.000119886 0.000149234
0.000119886 0.00125791 1.21547e-05
0.000149234 1.21547e-05 0.00119295
0.00120244 0.000141392 1.22455e-05
0.000141392 5.05719e-06 2.05107e-06
1.22455e-05 2.05107e-06 -0.000149956
0.00180755 4.25362e-05 -0.00023882
4.25362e-05 0.000768177 2.93123e-06
-0.00023882 2.93123e-06 0.000770175
0.00141899 -1.59861e-05 -6.16425e-05
-1.59861e-05 0.00055558 2.77721e-06
-6.16425e-05 2.77721e-06 0.000510105
0.00164238 1.90765e-06 -3.50733e-05
1.90765e-06 0.000702266 8.07225e-06
-3.50733e-05 8.07225e-06 0.000647805
0.001416 -0.000100562 -7.60758e-05
-0.000100562 0.000564621 1.14414e-05
-7.60758e-05 1.14414e-05 0.000511898
0.00196968 -9.26812e-05 -0.000128922
-9.26812e-05 0.000777458 1.20365e-05
-0.000128922 1.20365e-05 0.000703719
0.00195885 -0.000145649 -0.00013162
-0.000145649 0.000779386 2.04572e-05
-0.00013162 2.04572e-05 0.000696961
0.00187531 -0.0001875 -0.000138351
-0.0001875 0.000749653 2.62356e-05
-0.000138351 2.62356e-05 0.000653407
0.00203474 -0.000311903 -3.24529e-05
-0.000311903 0.000624174 1.10869e-05
-3.24529e-05 1.10869e-05 0.000420066
0.00600954 -0.000104195 2.30345e-06
-0.000104195 0.00342636 -1.84969e-06
2.30345e-06 -1.84969e-06 0.00344445
0.00169518 3.08083e-05 9.21052e-05
3.08083e-05 0.000709004 -4.45236e-06
9.21052e-05 -4.45236e-06 0.000687608
0.00115441 -1.00117e-05 -6.50728e-05
-1.00117e-05 0.000268139 1.89474e-06
-6.50728e-05 1.89474e-06 0.000199134
0.00181544 -7.43128e-05 -3.5355e-05
-7.43128e-05 0.000688457 2.79656e-06
-3.5355e-05 2.79656e-06 0.000609649
0.00425637 -2.95692e-05 0.000240478
-2.95692e-05 0.00233776 -1.5112e-05
0.000240478 -1.5112e-05 0.00232987
0.00240967 -0.000176784 -4.16962e-05
-0.000176784 0.00110324 3.42737e-06
-4.16962e-05 3.42737e-06 0.000992922
0.00186181 -0.000137402 -3.17893e-05
-0.000137402 0.000724173 2.84436e-06
-3.17893e-05 2.84436e-06 0.000635082
0.00195362 -0.000202288 -9.96605e-06
-0.000202288 0.000506635 1.85716e-06
-9.96605e-06 1.85716e-06 0.00034674
0.00205408 -0.000340165 -8.24742e-06
-0.000340165 0.000683035 2.43024e-06
-8.24742e-06 2.43024e-06 0.000462685
0.00197607 -0.000278137 -8.04638e-06
-0.000278137 0.000557929 2.13186e-06
-8.04638e-06 2.13186e-06 0.000368606
0.00168119 -0.000405135 7.11386e-07
-0.000405135 0.000197339 -1.87706e-07
7.11386e-07 -1.87706e-07 -5.47545e-05
0.000471827 9.9954e-06 1.9356e-05
9.9954e-06 -0.000162809 -6.98322e-07
1.9356e-05 -6.98322e-07 -0.000240924
0.00165614 -2.12015e-06 5.1974e-05
-2.12015e-06 0.000587822 -2.7239e-06
5.1974e-05 -2.7239e-06 0.000511983
0.00180535 -6.55915e-05 1.08634e-05
-6.55915e-05 0.000405542 -4.2492e-07
1.08634e-05 -4.2492e-07 0.000285846
0.00181044 -0.000159254 1.08547e-05
-0.000159254 0.000409443 -1.67425e-06
1.08547e-05 -1.67425e-06 0.000263372
0.00186532 -0.000237475 1.38516e-05
-0.000237475 0.000461089 -3.58627e-06
1.38516e-05 -3.58627e-06 0.000288803
0.00186457 -0.000281668 2.37589e-07
-0.000281668 0.000189888 -1.06011e-08
2.37589e-07 -1.06011e-08 1.66993e-05
0.00601555 0.000116388 0.000208201
0.000116388 0.00346494 -1.57993e-05
0.000208201 -1.57993e-05 0.00345779
0.00165032 -0.000371429 4.48621e-06
-0.000371429 0.000128734 -4.16449e-07
4.48621e-06 -4.16449e-07 -9.79225e-05
0.000271479 -0.000173484 2.05028e-05
-0.000173484 -0.000220812 -1.99514e-05
2.05028e-05 -1.99514e-05 -0.000334743
0.000904822 -0.000259452 1.34625e-05
-0.000259452 2.97069e-05 -8.61116e-06
1.34625e-05 -8.61116e-06 -0.000190722
0.00171663 -0.000447376 7.59087e-06
-0.000447376 0.000279855 -1.23714e-06
7.59087e-06 -1.23714e-06 -5.37284e-06
0.00188789 -0.000476064 2.23736e-06
-0.000476064 0.000215115 2.04868e-06
2.23736e-06 2.04868e-06 -2.86179e-05
0.000469343 -0.000136697 2.21005e-05
-0.000136697 -6.04421e-05 -1.58958e-05
2.21005e-05 -1.58958e-05 -0.000156849
0.000482186 -0.000115231 -1.82952e-07
-0.000115231 7.63712e-06 -4.43503e-07
-1.82952e-07 -4.43503e-07 -0.000228126
0.00679553 0.000258979 -0.000344944
0.000258979 0.00390799 -3.51226e-05
-0.000344944 -3.51226e-05 0.00391401
0.0067632 0.000190993 -0.000318352
0.000190993 0.00387774 -3.30086e-05
-0.000318352 -3.30086e-05 0.00388936
0.000370876 0.000128536 -1.84355e-05
0.000128536 -0.000213781 -1.25346e-05
-1.84355e-05 -1.25346e-05 -0.000325882
0.00575574 -0.000139494 -0.000196966
-0.000139494 0.00331273 -1.4187e-05
-0.000196966 -1.4187e-05 0.00330411
0.000367545 0.000195879 -2.34065e-05
0.000195879 -0.000154842 -1.9814e-05
-2.34065e-05 -1.9814e-05 -0.000269881
0.000375068 0.000195457 -2.08714e-05
0.000195457 -0.000160555 -1.8395e-05
-2.08714e-05 -1.8395e-05 -0.00029113
0.000847828 0.000238354 -1.39553e-05
0.000238354 8.50124e-06 -7.07274e-06
-1.39553e-05 -7.07274e-06 -0.000200971
0.0051616 -0.000129905 2.44509e-06
-0.000129905 0.00295097 4.14198e-07
2.44509e-06 4.14198e-07 0.0029438
0.000533582 3.6262e-05 1.35443e-06
3.6262e-05 1.31099e-05 4.94394e-07
1.35443e-06 4.94394e-07 -5.50636e-05
0.00167507 0.000141184 6.51727e-05
0.000141184 0.000586857 5.56914e-06
6.51727e-05 5.56914e-06 0.000495809
0.00166082 0.00020323 6.58351e-05
0.00020323 0.000612809 6.19742e-06
6.58351e-05 6.19742e-06 0.000507189
0.00109588 0.000234424 1.87005e-07
0.000234424 -1.15799e-05 -2.96421e-07
1.87005e-07 -2.96421e-07 -0.000206649
0.000453066 0.000168718 -1.47106e-08
0.000168718 -8.48469e-05 -4.39199e-07
-1.47106e-08 -4.39199e-07 -0.000186305
0.000958366 0.000253427 7.48162e-07
0.000253427 8.80395e-06 5.04594e-08
7.48162e-07 5.04594e-08 -0.000200194
0.000835084 0.000235293 1.75246e-07
0.000235293 7.00435e-05 -7.05056e-07
1.75246e-07 -7.05056e-07 -0.000143663
0.00133189 0.000408987 -1.92155e-07
0.000408987 0.000188614 -3.5504e-07
-1.92155e-07 -3.5504e-07 -0.000101013
0.00042003 0.000118225 1.81677e-05
0.000118225 -7.54487e-05 1.60884e-05
1.81677e-05 1.60884e-05 -0.000169674
0.000712233 3.08346e-07 7.763e-06
3.08346e-07 0.000127975 1.11085e-05
7.763e-06 1.11085e-05 7.70736e-05
0.0012639 0.000176406 5.03467e-06
0.000176406 0.000501582 5.28688e-06
5.03467e-06 5.28688e-06 0.000292252
0.00116907 0.000208838 1.35794e-05
0.000208838 -1.63645e-06 4.10753e-06
1.35794e-05 4.10753e-06 -0.000183888
0.00106708 0.000254947 1.51846e-05
0.000254947 7.78849e-06 6.372e-06
1.51846e-05 6.372e-06 -0.000196509
0.00184145 0.00039919 3.75039e-06
0.00039919 0.000221475 5.71292e-08
3.75039e-06 5.71292e-08 -9.40323e-06
0.000736765 0.000217592 9.39518e-06
0.000217592 7.04258e-05 6.10561e-06
9.39518e-06 6.10561e-06 -0.000141753
0.00168784 0.000451654 3.51387e-06
0.000451654 0.000297212 -5.05207e-07
3.51387e-06 -5.05207e-07 1.8273e-05
0.00102374 0.000355282 9.3146e-07
0.000355282 8.67818e-05 -8.44587e-07
9.3146e-07 -8.44587e-07 -0.000204959
0.00151524 0.000499961 -6.18504e-06
0.000499961 0.000204137 -3.73197e-06
-6.18504e-06 -3.73197e-06 -0.000108602
0.00312313 -0.000131148 6.64583e-05
-0.000131148 0.00165913 3.65515e-06
6.64583e-05 3.65515e-06 0.00165603
0.00345147 -0.000157484 1.3359e-05
-0.000157484 0.00187663 -8.358e-07
1.3359e-05 -8.358e-07 0.00186612
0.00387288 -0.000194821 -7.98666e-05
-0.000194821 0.00215737 -5.57732e-06
-7.98666e-05 -5.57732e-06 0.0021355
0.00045706 -0.0001158 2.03401e-05
-0.0001158 -5.17773e-05 -1.43972e-05
2.03401e-05 -1.43972e-05 -0.000133638
0.00539909 0.000161244 0.000168119
0.000161244 0.0031118 -1.65118e-05
0.000168119 -1.65118e-05 0.00309235
0.00670122 0.000218339 -0.000343216
0.000218339 0.0038442 -2.91346e-05
-0.000343216 -2.91346e-05 0.00385622
0.00628269 9.40225e-05 -0.000314241
9.40225e-05 0.00357609 -1.35424e-05
-0.000314241 -1.35424e-05 0.00359942
0.00043819 9.76971e-05 -1.94749e-05
9.76971e-05 -0.000188705 -5.66048e-06
-1.94749e-05 -5.66048e-06 -0.000283507
0.000432643 4.34942e-05 -1.91384e-05
4.34942e-05 -0.000184377 -2.85021e-06
-1.91384e-05 -2.85021e-06 -0.000269683
0.00596085 -6.51539e-06 -0.000298211
-6.51539e-06 0.00338248 -2.55541e-06
-0.000298211 -2.55541e-06 0.00340823
0.00590648 6.72373e-06 -1.53731e-07
6.72373e-06 0.00335003 -9.739e-07
-1.53731e-07 -9.739e-07 0.00337583
0.000413303 8.77482e-07 -9.63108e-08
8.77482e-07 -0.000198074 1.32612e-07
-9.63108e-08 1.32612e-07 -0.00027766
0.00159784 3.98298e-05 6.27948e-05
3.98298e-05 0.000532539 2.77137e-06
6.27948e-05 2.77137e-06 0.000462359
0.0010805 6.5721e-05 -8.65685e-08
6.5721e-05 -5.54207e-05 -6.48836e-08
-8.65685e-08 -6.48836e-08 -0.000188885
0.000404264 8.39355e-05 -5.28235e-07
8.39355e-05 -0.000209565 -4.23868e-07
-5.28235e-07 -4.23868e-07 -0.000310814
0.00112368 0.000141539 -2.34138e-07
0.000141539 -4.37217e-05 -1.5229e-07
-2.34138e-07 -1.5229e-07 -0.000199945
0.000406905 -3.13956e-05 1.91377e-05
-3.13956e-05 -0.000203484 -7.27679e-07
1.91377e-05 -7.27679e-07 -0.000280512
0.00106409 2.6792e-05 1.16544e-05
2.6792e-05 -5.16234e-05 5.19097e-07
1.16544e-05 5.19097e-07 -0.000179047
0.00114085 0.000101568 1.18541e-05
0.000101568 -2.61481e-05 1.4555e-06
1.18541e-05 1.4555e-06 -0.000168525
0.00182864 0.000106398 1.35463e-07
0.000106398 8.71966e-05 -4.18035e-07
1.35463e-07 -4.18035e-07 -2.11667e-05
0.00119828 0.000176468 1.27061e-05
0.000176468 4.6627e-06 2.90628e-06
1.27061e-05 2.90628e-06 -0.000163978
0.00189394 0.000237619 8.9757e-07
0.000237619 0.000134762 -6.03361e-07
8.9757e-07 -6.03361e-07 -1.01317e-05
0.00592564 -6.55006e-05 -0.000302665
-6.55006e-05 0.0033684 2.89297e-06
-0.000302665 2.89297e-06 0.0033905
0.0013549 -0.000155269 -6.2612e-05
-0.000155269 0.000531296 7.51755e-06
-6.2612e-05 7.51755e-06 0.000481758
-0.000259699 -5.95986e-06 -1.20447e-05
-5.95986e-06 -0.000609252 1.7979e-06
-1.20447e-05 1.7979e-06 -0.000703443
0.00192794 -6.61204e-05 -0.000127142
-6.61204e-05 0.000751722 8.50395e-06
-0.000127142 8.50395e-06 0.00068215
0.00637424 0.000273929 -2.50622e-05
0.000273929 0.00369387 3.97743e-06
-2.50622e-05 3.97743e-06 0.00364178
0.00305277 -0.00026333 -0.000142384
-0.00026333 0.00150065 2.72982e-05
-0.000142384 2.72982e-05 0.00139553
0.00197641 -0.000118693 -0.000129868
-0.000118693 0.000784085 1.60712e-05
-0.000129868 1.60712e-05 0.000706943
0.00198682 -0.000200806 -3.0177e-05
-0.000200806 0.000523001 5.52326e-06
-3.0177e-05 5.52326e-06 0.000366246
0.00202723 -0.000279514 -3.15331e-05
-0.000279514 0.000590079 9.53462e-06
-3.15331e-05 9.53462e-06 0.000400086
0.00202622 -0.000341293 -3.02738e-05
-0.000341293 0.000661161 1.18913e-05
-3.02738e-05 1.18913e-05 0.000440133
0.00172195 -0.000407538 -4.3318e-06
-0.000407538 0.000224219 2.50147e-07
-4.3318e-06 2.50147e-07 -2.74848e-05
0.00041124 4.81677e-06 -4.47745e-08
4.81677e-06 -0.000198385 2.97041e-07
-4.47745e-08 2.97041e-07 -0.000277495
0.00178935 -8.51325e-05 -3.41047e-05
-8.51325e-05 0.00067654 4.67988e-07
-3.41047e-05 4.67988e-07 0.000602337
0.0014448 -6.11785e-05 -1.03365e-05
-6.11785e-05 0.000181139 6.59189e-07
-1.03365e-05 6.59189e-07 5.70113e-05
0.00189431 -0.00015986 -8.75258e-06
-0.00015986 0.000461109 1.38223e-06
-8.75258e-06 1.38223e-06 0.000313964
0.00625298 0.000115163 5.3992e-06
0.000115163 0.00361573 6.81144e-07
5.3992e-06 6.81144e-07 0.00360644
0.0016921 -0.000175365 4.02414e-06
-0.000175365 0.000677438 5.77541e-07
4.02414e-06 5.77541e-07 0.000553821
0.00137286 -0.000294199 1.3578e-06
-0.000294199 0.000323177 -1.08481e-06
1.3578e-06 -1.08481e-06 9.93394e-05
0.0019111 -0.000240398 -8.74354e-06
-0.000240398 0.000489017 2.17883e-06
-8.74354e-06 2.17883e-06 0.000316102
0.00187859 -0.000285008 -6.84489e-07
-0.000285008 0.000194418 4.19646e-08
-6.84489e-07 4.19646e-08 2.63756e-05
0.00171625 -0.000446161 1.15078e-06
-0.000446161 0.000283058 -3.37931e-07
1.15078e-06 -3.37931e-07 -5.11311e-07
0.00177852 -0.000376691 5.80845e-07
-0.000376691 0.000211293 -1.57025e-07
5.80845e-07 -1.57025e-07 -1.55954e-05
0.00192175 -0.000477028 7.68595e-07
-0.000477028 0.000240752 5.0983e-08
7.68595e-07 5.0983e-08 -2.71737e-06
0.000474365 -0.000145346 1.86154e-06
-0.000145346 -6.07761e-05 5.76497e-07
1.86154e-06 5.76497e-07 -0.000158487
0.000711806 -0.000153036 6.22724e-07
-0.000153036 0.000133249 1.45802e-07
6.22724e-07 1.45802e-07 -8.99442e-05
0.00106437 -3.01027e-05 1.18478e-05
-3.01027e-05 -4.59589e-05 -5.05807e-07
1.18478e-05 -5.05807e-07 -0.000173867
0.00186064 -0.000108981 9.85443e-06
-0.000108981 0.000440919 -9.03539e-07
9.85443e-06 -9.03539e-07 0.000310721
0.00182491 -0.000110196 -1.40406e-07
-0.000110196 0.000112777 3.22318e-07
-1.40406e-07 3.22318e-07 -3.83862e-06
0.00179656 -0.000230538 -4.56328e-07
-0.000230538 0.00011973 8.53847e-07
-4.56328e-07 8.53847e-07 -2.20797e-05
0.00179377 -0.000336132 8.77948e-07
-0.000336132 0.000174077 4.78308e-07
8.77948e-07 4.78308e-07 -2.16284e-05
0.00206826 -0.000330414 1.74518e-06
-0.000330414 0.000195811 -1.68886e-07
1.74518e-06 -1.68886e-07 5.62198e-05
0.000376733 -0.000158831 2.01569e-05
-0.000158831 -0.000132742 -1.89649e-05
2.01569e-05 -1.89649e-05 -0.000242153
0.00194045 -0.000438848 8.04003e-07
-0.000438848 0.000201849 1.66932e-06
8.04003e-07 1.66932e-06 -3.19368e-06
0.000594065 -0.000228149 9.54056e-06
-0.000228149 -7.68759e-05 -8.04275e-06
9.54056e-06 -8.04275e-06 -0.000294169
0.00140228 -0.000451228 1.01923e-05
-0.000451228 0.000180801 -1.84631e-06
1.01923e-05 -1.84631e-06 -0.000131142
0.00208259 -0.000536921 2.5082e-06
-0.000536921 0.0004015 1.29193e-06
2.5082e-06 1.29193e-06 0.000106897
0.00220238 -0.000513706 -1.83584e-06
-0.000513706 0.000368066 4.27027e-06
-1.83584e-06 4.27027e-06 0.000152928
0.000639487 -0.000205533 2.02076e-06
-0.000205533 6.89742e-05 -3.3818e-06
2.02076e-06 -3.3818e-06 -0.000175232
0.00057172 -0.000113196 7.47059e-07
-0.000113196 6.15056e-05 -2.05302e-06
7.47059e-07 -2.05302e-06 -0.000125501
0.000969288 -0.000267469 -1.40051e-06
-0.000267469 0.000289497 2.43851e-06
-1.40051e-06 2.43851e-06 1.47943e-06
0.000386465 0.000106266 -1.77459e-05
0.000106266 -0.00021586 -9.5752e-06
-1.77459e-05 -9.5752e-06 -0.000322875
0.00474188 -0.000193191 -0.000131256
-0.000193191 0.00270995 -1.10291e-05
-0.000131256 -1.10291e-05 0.00268687
0.00028917 2.61441e-05 -8.85619e-06
2.61441e-05 -0.000134354 -1.28097e-05
-8.85619e-06 -1.28097e-05 -0.000198142
0.000360486 0.000160684 -1.97252e-05
0.000160684 -0.000197086 -1.5713e-05
-1.97252e-05 -1.5713e-05 -0.000317681
0.00108234 0.000234082 -1.58218e-05
0.000234082 -1.40236e-05 -6.11621e-06
-1.58218e-05 -6.11621e-06 -0.000209777
0.000516326 0.000158026 -2.30743e-05
0.000158026 -4.67715e-05 -1.81744e-05
-2.30743e-05 -1.81744e-05 -0.000146746
0.000613934 0.000216149 -1.06125e-05
0.000216149 -6.83386e-05 -7.34371e-06
-1.06125e-05 -7.34371e-06 -0.00027703
0.00093893 0.000248523 -1.4536e-05
0.000248523 5.19047e-06 -7.05647e-06
-1.4536e-05 -7.05647e-06 -0.000202502
0.00142649 0.000425708 -3.39507e-06
0.000425708 0.00023474 2.33383e-07
-3.39507e-06 2.33383e-07 -5.75662e-05
0.000531316 0.000110677 2.60429e-07
0.000110677 -1.21126e-05 1.18195e-06
2.60429e-07 1.18195e-06 -9.99179e-05
0.000388161 -1.9637e-05 2.76866e-07
-1.9637e-05 -6.47527e-05 6.04953e-07
2.76866e-07 6.04953e-07 -0.000117624
0.000704276 0.000107211 2.82603e-06
0.000107211 0.000140708 -6.82177e-07
2.82603e-06 -6.82177e-07 -5.24128e-05
0.00113996 0.000208967 -9.30907e-08
0.000208967 -1.48194e-05 -3.12717e-07
-9.30907e-08 -3.12717e-07 -0.000198231
0.00104232 0.000251428 3.55389e-07
0.000251428 7.56301e-07 -1.53391e-07
3.55389e-07 -1.53391e-07 -0.000203239
0.00180885 0.000397055 -1.85763e-07
0.000397055 0.000199683 -1.35447e-07
-1.85763e-07 -1.35447e-07 -3.13873e-05
0.000681762 0.000218915 -3.6098e-07
0.000218915 3.78827e-05 -1.0305e-07
-3.6098e-07 -1.0305e-07 -0.000173243
0.00168492 0.000449613 -2.52187e-07
0.000449613 0.000289808 -3.20739e-07
-2.52187e-07 -3.20739e-07 1.01537e-05
0.0011853 0.000371154 7.52482e-07
0.000371154 0.000191746 -9.73894e-07
7.52482e-07 -9.73894e-07 -0.000102533
0.0014987 0.000509861 -4.11732e-07
0.000509861 0.000177862 1.5103e-06
-4.11732e-07 1.5103e-06 -0.000135584
0.00053825 -2.82498e-05 2.01645e-06
-2.82498e-05 2.39945e-05 9.00369e-06
2.01645e-06 9.00369e-06 -1.8143e-05
0.00103448 0.000178615 5.28261e-06
0.000178615 0.000313691 4.42423e-06
5.28261e-06 4.42423e-06 9.65325e-05
0.00093142 6.75353e-05 8.92712e-07
6.75353e-05 0.000270251 6.29471e-06
8.92712e-07 6.29471e-06 0.000126706
0.00112139 0.000179921 1.88508e-06
0.000179921 0.000429207 2.60466e-07
1.88508e-06 2.60466e-07 0.000156659
0.0018921 0.00035531 1.42381e-06
0.00035531 0.000193022 -1.31711e-06
1.42381e-06 -1.31711e-06 -7.58369e-06
0.00174863 0.000431395 4.31437e-06
0.000431395 0.00023964 2.64925e-07
4.31437e-06 2.64925e-07 -1.94344e-05
0.002047 0.000468283 2.429e-07
0.000468283 0.000250218 -7.73816e-07
2.429e-07 -7.73816e-07 2.8805e-05
0.000882763 0.000283797 2.41774e-06
0.000283797 5.34145e-05 2.04449e-06
2.41774e-06 2.04449e-06 -0.00020282
0.0021699 0.000580431 -3.60267e-06
0.000580431 0.000475476 -1.53764e-06
-3.60267e-06 -1.53764e-06 0.000179359
0.00175332 0.000531537 -3.61718e-06
0.000531537 0.000460307 -4.79032e-06
-3.61718e-06 -4.79032e-06 0.000103643
0.00179498 0.000555917 -1.01388e-06
0.000555917 0.000265178 -9.5805e-07
-1.01388e-06 -9.5805e-07 -4.2475e-05
0.000562389 4.165e-05 2.51665e-06
4.165e-05 4.64034e-05 3.98881e-06
2.51665e-06 3.98881e-06 -2.4576e-05
0.000480486 -2.31245e-05 1.80718e-06
-2.31245e-05 -2.98421e-05 6.66703e-06
1.80718e-06 6.66703e-06 -5.74676e-05
0.00277934 -0.000121451 4.21744e-05
-0.000121451 0.00143597 3.89395e-06
4.21744e-05 3.89395e-06 0.00143519
0.00299046 -0.000143515 8.11185e-06
-0.000143515 0.00157861 -8.04781e-07
8.11185e-06 -8.04781e-07 0.00157176
0.00327951 -0.000171335 -5.33124e-05
-0.000171335 0.00177176 -3.77352e-06
-5.33124e-05 -3.77352e-06 0.00175675
0.000387251 -9.38783e-05 1.51943e-05
-9.38783e-05 -7.47775e-05 -1.42929e-05
1.51943e-05 -1.42929e-05 -0.000144185
0.00491915 0.00017674 0.000138012
0.00017674 0.00282016 -1.52062e-05
0.000138012 -1.52062e-05 0.00279751
0.000502306 -0.0001145 2.52684e-07
-0.0001145 -2.34523e-05 3.25394e-07
2.52684e-07 3.25394e-07 -0.000110915
0.00565193 0.000138528 2.93221e-06
0.000138528 0.00326095 6.11771e-07
2.93221e-06 6.11771e-07 0.00324607
0.000427568 0.000109315 -1.91029e-05
0.000109315 -0.000192383 -7.56918e-06
-1.91029e-05 -7.56918e-06 -0.000295693
0.000451937 3.50374e-05 -1.81661e-05
3.50374e-05 -0.000180116 -3.58425e-06
-1.81661e-05 -3.58425e-06 -0.000267808
0.00107974 0.000142082 -1.21116e-05
0.000142082 -7.27482e-05 -2.29965e-06
-1.21116e-05 -2.29965e-06 -0.000230003
0.00105534 6.81016e-05 -1.19652e-05
6.81016e-05 -7.41698e-05 -9.63808e-07
-1.19652e-05 -9.63808e-07 -0.000208298
0.000467583 -7.61157e-06 -1.92253e-05
-7.61157e-06 -0.000167598 -9.66542e-07
-1.92253e-05 -9.66542e-07 -0.000245383
0.00599937 -9.96329e-05 -0.000309543
-9.96329e-05 0.00341915 5.31661e-06
-0.000309543 5.31661e-06 0.00343904
0.000454504 -2.191e-06 8.09551e-08
-2.191e-06 -0.00017473 -6.602e-07
8.09551e-08 -6.602e-07 -0.00025169
0.00104986 3.21251e-05 -7.97815e-08
3.21251e-05 -6.21524e-05 5.02679e-08
-7.97815e-08 5.02679e-08 -0.000190041
0.00111724 0.000103411 -2.01695e-07
0.000103411 -4.36831e-05 -8.48275e-08
-2.01695e-07 -8.48275e-08 -0.000186932
0.00181543 0.000104436 -9.91554e-08
0.000104436 8.45827e-05 1.94719e-07
-9.91554e-08 1.94719e-07 -2.36601e-05
0.0011476 0.00017745 -3.22022e-07
0.00017745 -2.59085e-05 -2.63028e-07
-3.22022e-07 -2.63028e-07 -0.000196002
0.00186688 0.000236267 -1.83102e-07
0.000236267 0.00011663 1.3315e-07
-1.83102e-07 1.3315e-07 -2.85283e-05
0.00104428 -3.38359e-06 1.16823e-05
-3.38359e-06 -5.81989e-05 -1.83474e-07
1.16823e-05 -1.83474e-07 -0.000184732
0.00177958 4.9465e-05 6.71853e-07
4.9465e-05 6.20974e-05 -4.06178e-08
6.71853e-07 -4.06178e-08 -3.77993e-05
0.00184747 0.000169326 -7.41512e-08
0.000169326 0.000102129 -6.79227e-07
-7.41512e-08 -6.79227e-07 -2.14062e-05
0.00195949 0.000132339 3.33069e-06
0.000132339 5.14714e-05 1.13488e-06
3.33069e-06 1.13488e-06 -7.01745e-06
0.00192329 0.000302893 1.4685e-06
0.000302893 0.000166707 -7.8246e-07
1.4685e-06 -7.8246e-07 -4.80002e-06
0.00204514 0.000269531 2.57059e-06
0.000269531 0.000115905 -5.49911e-07
2.57059e-06 -5.49911e-07 8.64826e-06
0.000439018 -2.43871e-06 -1.83815e-05
-2.43871e-06 -0.000177835 8.70797e-07
-1.83815e-05 8.70797e-07 -0.000259145
0.00188502 -4.09459e-05 -0.000124887
-4.09459e-05 0.000726862 5.67156e-06
-0.000124887 5.67156e-06 0.000662743
0.00104631 -5.58711e-05 -1.77097e-05
-5.58711e-05 -6.65474e-05 1.59725e-06
-1.77097e-05 1.59725e-06 -0.000195489
0.00195899 -0.000159575 -2.80265e-05
-0.000159575 0.000500213 4.20461e-06
-2.80265e-05 4.20461e-06 0.000352131
0.00646127 9.50041e-05 -0.000240766
9.50041e-05 0.0037396 2.32159e-05
-0.000240766 2.32159e-05 0.00373226
0.00315821 -0.000247636 -0.000149577
-0.000247636 0.00158293 2.24519e-05
-0.000149577 2.24519e-05 0.0014878
0.00205353 -0.000349944 -2.56004e-05
-0.000349944 0.000745543 1.08003e-05
-2.56004e-05 1.08003e-05 0.000514241
0.00193581 -0.000241692 -3.07514e-05
-0.000241692 0.000503392 7.60067e-06
-3.07514e-05 7.60067e-06 0.000330236
0.00188818 -0.000288201 -2.51764e-06
-0.000288201 0.000195377 -3.66352e-07
-2.51764e-06 -3.66352e-07 3.24965e-05
0.0019082 -0.000382054 -3.76969e-06
-0.000382054 0.000295395 6.51694e-07
-3.76969e-06 6.51694e-07 6.825e-05
0.00169841 -0.000443533 -6.33838e-06
-0.000443533 0.000274179 4.13776e-07
-6.33838e-06 4.13776e-07 -7.41584e-06
0.00195489 -0.000478441 -4.54643e-07
-0.000478441 0.000264509 -2.01951e-06
-4.54643e-07 -2.01951e-06 2.11588e-05
0.000448179 -0.000152178 -2.00391e-05
-0.000152178 -7.16509e-05 1.73538e-05
-2.00391e-05 1.73538e-05 -0.000175593
0.000738926 -0.000180176 -8.57957e-07
-0.000180176 0.000148781 1.47923e-07
-8.57957e-07 1.47923e-07 -7.29806e-05
0.00103686 -2.49988e-05 2.48349e-07
-2.49988e-05 -6.54596e-05 6.82586e-08
2.48349e-07 6.82586e-08 -0.000190905
0.00186284 -0.000109535 -8.90292e-06
-0.000109535 0.000440394 1.04483e-06
-8.90292e-06 1.04483e-06 0.000310412
0.00184918 -0.000107103 1.80337e-08
-0.000107103 0.000125631 -1.37028e-07
1.80337e-08 -1.37028e-07 1.39867e-05
0.00177926 -0.000229446 -2.41512e-06
-0.000229446 0.000114632 7.41788e-07
-2.41512e-06 7.41788e-07 -3.33709e-05
0.000443099 -0.000179723 1.02005e-07
-0.000179723 -9.38503e-05 1.15875e-07
1.02005e-07 1.15875e-07 -0.000203973
0.000802608 -0.000241903 -4.01629e-07
-0.000241903 4.44686e-05 -8.49201e-08
-4.01629e-07 -8.49201e-08 -0.000175435
0.00138209 -0.000447575 1.85323e-06
-0.000447575 0.000174459 -3.91187e-07
1.85323e-06 -3.91187e-07 -0.000137778
0.00184042 -0.000337192 -3.127e-06
-0.000337192 0.000205151 8.80422e-07
-3.127e-06 8.80422e-07 6.4973e-06
0.00203856 -0.00033179 2.11985e-06
-0.00033179 0.000167097 -1.03483e-06
2.11985e-06 -1.03483e-06 3.24859e-05
0.00212838 -0.000545374 -6.83134e-07
-0.000545374 0.000426028 -5.37697e-07
-6.83134e-07 -5.37697e-07 0.000132297
0.00194936 -0.000439395 6.11855e-07
-0.000439395 0.000208847 4.13653e-08
6.11855e-07 4.13653e-08 3.661e-06
0.00207558 -0.000508085 7.4701e-07
-0.000508085 0.000282305 8.46741e-07
7.4701e-07 8.46741e-07 6.67121e-05
0.000643881 -0.000197184 3.2706e-07
-0.000197184 7.2451e-05 -3.77503e-07
3.2706e-07 -3.77503e-07 -0.000168345
0.000427349 -0.000177747 6.19256e-07
-0.000177747 -7.27352e-05 2.96758e-07
6.19256e-07 2.96758e-07 -0.00033756
0.000700213 -0.000130966 6.91932e-07
-0.000130966 0.000144619 -1.32223e-09
6.91932e-07 -1.32223e-09 -4.99484e-05
0.00180421 -4.91162e-05 -8.43713e-08
-4.91162e-05 9.78191e-05 1.61524e-07
-8.43713e-08 1.61524e-07 -9.10023e-06
0.00191812 -0.000166954 -2.45286e-06
-0.000166954 0.000180631 9.34813e-07
-2.45286e-06 9.34813e-07 5.77141e-05
0.00195843 -0.00012628 5.06667e-06
-0.00012628 6.28752e-05 -8.83961e-07
5.06667e-06 -8.83961e-07 -5.38331e-06
0.00194626 -0.000270357 3.23627e-07
-0.000270357 8.31643e-05 5.49218e-07
3.23627e-07 5.49218e-07 -2.25926e-05
0.00182089 -0.000389346 -9.86059e-07
-0.000389346 7.75843e-05 1.73394e-06
-9.86059e-07 1.73394e-06 -8.99821e-05
0.00219727 -0.000363309 3.60798e-06
-0.000363309 0.000210431 -1.25412e-06
3.60798e-06 -1.25412e-06 0.000107659
0.00065642 -0.000234313 6.13062e-06
-0.000234313 2.60223e-05 -6.62214e-06
6.13062e-06 -6.62214e-06 -0.00019636
0.00192333 -0.000466133 -7.4018e-07
-0.000466133 0.000135037 1.63994e-06
-7.4018e-07 1.63994e-06 -4.34902e-05
0.00130821 -0.000412731 7.65862e-06
-0.000412731 0.000265573 -3.47921e-06
7.65862e-06 -3.47921e-06 -4.69171e-05
0.00179085 -0.000598196 6.54098e-06
-0.000598196 0.00031584 1.4994e-06
6.54098e-06 1.4994e-06 -4.37333e-05
0.00220962 -0.000576951 3.46841e-06
-0.000576951 0.000428329 4.3269e-06
3.46841e-06 4.3269e-06 0.0001489
0.00226513 -0.000537334 -2.82632e-06
-0.000537334 0.000407379 2.54599e-06
-2.82632e-06 2.54599e-06 0.000201368
0.000456423 -0.00010091 -1.71111e-07
-0.00010091 1.28446e-06 -6.12251e-06
-1.71111e-07 -6.12251e-06 -0.000156903
0.00112944 -0.000287711 1.01318e-06
-0.000287711 0.000277612 -1.36346e-06
1.01318e-06 -1.36346e-06 2.97125e-05
0.000411063 -0.000177284 7.63032e-07
-0.000177284 1.75198e-05 3.63986e-06
7.63032e-07 3.63986e-06 -0.000291611
0.00168431 -0.000369281 -1.87625e-06
-0.000369281 0.000645964 2.03631e-06
-1.87625e-06 2.03631e-06 0.000354286
0.00110188 0.000209172 -1.44614e-05
0.000209172 -3.39259e-05 -4.69754e-06
-1.44614e-05 -4.69754e-06 -0.000218569
0.000366255 -4.54011e-05 2.83332e-06
-4.54011e-05 -6.36795e-05 -1.16663e-05
2.83332e-06 -1.16663e-05 -0.000123427
0.000408812 9.11161e-05 -1.87927e-05
9.11161e-05 -8.7459e-05 -1.44484e-05
-1.87927e-05 -1.44484e-05 -0.000169052
-1.9253e-05 8.26233e-05 -1.82582e-06
8.26233e-05 -0.000296562 -5.41937e-06
-1.82582e-06 -5.41937e-06 -0.000490857
0.00100247 0.000247305 -1.55994e-05
0.000247305 -1.54515e-05 -6.84343e-06
-1.55994e-05 -6.84343e-06 -0.000219169
0.00179017 0.000395812 -3.72468e-06
0.000395812 0.000186399 -6.72033e-08
-3.72468e-06 -6.72033e-08 -4.49344e-05
0.000656064 0.000218331 -6.12913e-06
0.000218331 2.17642e-05 -4.58519e-06
-6.12913e-06 -4.58519e-06 -0.000187882
0.0014118 0.000393341 -3.70485e-06
0.000393341 0.000338404 -2.76322e-06
-3.70485e-06 -2.76322e-06 4.03078e-05
0.00169126 0.00044856 -3.62903e-06
0.00044856 0.000288503 9.93323e-08
-3.62903e-06 9.93323e-08 7.92484e-06
0.00146362 0.000515676 2.90466e-06
0.000515676 0.000145678 4.76759e-06
2.90466e-06 4.76759e-06 -0.0001673
0.000462918 -4.2696e-05 -3.61268e-06
-4.2696e-05 -1.52401e-05 9.00224e-07
-3.61268e-06 9.00224e-07 -6.09227e-05
0.000664403 0.000197176 -1.14165e-06
0.000197176 9.94524e-05 -6.78388e-07
-1.14165e-06 -6.78388e-07 -0.000127125
0.000613632 5.58952e-05 1.09107e-07
5.58952e-05 7.35155e-05 4.52619e-07
1.09107e-07 4.52619e-07 -6.22413e-05
0.00080154 0.000160688 1.0411e-06
0.000160688 0.000221131 -8.8472e-07
1.0411e-06 -8.8472e-07 -4.48227e-05
0.00186848 0.000353511 -1.09291e-06
0.000353511 0.000178692 -9.41335e-07
-1.09291e-06 -9.41335e-07 -2.20528e-05
0.00172459 0.000430737 -2.07882e-07
0.000430737 0.000223367 -1.88884e-07
-2.07882e-07 -1.88884e-07 -3.64272e-05
0.00201349 0.000464298 2.95043e-07
0.000464298 0.000232899 2.02084e-07
2.95043e-07 2.02084e-07 1.224e-05
0.00103769 0.000300966 2.71577e-06
0.000300966 0.000165703 4.24843e-07
2.71577e-06 4.24843e-07 -9.27947e-05
0.00206206 0.000561958 -2.38854e-07
0.000561958 0.000417869 2.84393e-07
-2.38854e-07 2.84393e-07 0.000123714
0.00151619 0.000511313 -1.09798e-06
0.000511313 0.000312231 -1.74285e-06
-1.09798e-06 -1.74285e-06 -4.32528e-05
0.00182834 0.000550604 -3.97717e-06
0.000550604 0.000290893 1.78329e-06
-3.97717e-06 1.78329e-06 -1.02242e-05
0.000527258 -3.00518e-05 1.51908e-06
-3.00518e-05 8.11656e-06 7.6918e-06
1.51908e-06 7.6918e-06 -2.54406e-05
0.000762476 4.75525e-05 2.2791e-06
4.75525e-05 0.000168027 5.94351e-06
2.2791e-06 5.94351e-06 6.16222e-05
0.000721895 0.000231038 1.66383e-06
0.000231038 4.93193e-05 2.26884e-06
1.66383e-06 2.26884e-06 -0.000186317
0.00167505 0.00016554 -1.22955e-08
0.00016554 0.00080986 2.44032e-06
-1.22955e-08 2.44032e-06 0.000555018
0.00138951 0.000354891 -8.7904e-07
0.000354891 0.000525145 -2.82476e-06
-8.7904e-07 -2.82476e-06 0.000257595
0.00210371 0.000419266 -3.50043e-07
0.000419266 0.000220916 -2.61346e-06
-3.50043e-07 -2.61346e-06 3.79164e-05
0.00200603 0.000522006 -5.50717e-07
0.000522006 0.000295296 -8.90571e-07
-5.50717e-07 -8.90571e-07 3.37341e-05
0.00204328 0.000507942 -1.76105e-06
0.000507942 0.000229173 -8.60983e-07
-1.76105e-06 -8.60983e-07 1.48099e-05
0.000975667 0.000411711 4.90737e-06
0.000411711 0.000100502 1.84649e-06
4.90737e-06 1.84649e-06 -0.000230531
0.00224717 0.000628352 -2.00267e-06
0.000628352 0.000474513 -8.58071e-07
-2.00267e-06 -8.58071e-07 0.000177272
0.00159415 0.000571382 6.07965e-06
0.000571382 0.000292807 -2.88773e-06
6.07965e-06 -2.88773e-06 -6.30172e-05
0.000600014 3.82618e-05 2.47709e-06
3.82618e-05 6.82503e-05 4.29814e-06
2.47709e-06 4.29814e-06 -8.33164e-06
0.000629105 8.57343e-05 -1.60702e-08
8.57343e-05 0.000125444 2.24656e-06
-1.60702e-08 2.24656e-06 3.81698e-06
0.000588477 5.14191e-05 2.51176e-06
5.14191e-05 6.84373e-05 3.87776e-06
2.51176e-06 3.87776e-06 -2.40053e-07
0.000534678 6.97668e-06 -6.37761e-07
6.97668e-06 3.00674e-05 -2.55185e-08
-6.37761e-07 -2.55185e-08 -4.10104e-05
0.00129773 -3.87693e-05 1.37975e-06
-3.87693e-05 0.00048109 3.81317e-06
1.37975e-06 3.81317e-06 0.000460199
0.000897049 -3.4897e-05 3.2172e-07
-3.4897e-05 0.000232434 -1.63058e-07
3.2172e-07 -1.63058e-07 0.000206768
0.000856151 -5.12386e-05 3.18206e-05
-5.12386e-05 0.000212621 8.96597e-06
3.18206e-05 8.96597e-06 0.000210998
0.00273566 -0.0001223 6.71378e-06
-0.0001223 0.00140824 -6.41791e-07
6.71378e-06 -6.41791e-07 0.0014072
0.00290722 -0.000144209 -4.28685e-05
-0.000144209 0.00152659 -3.75514e-06
-4.28685e-05 -3.75514e-06 0.00151947
0.00033528 -5.02405e-05 7.49892e-06
-5.02405e-05 -9.40607e-05 -1.1399e-05
7.49892e-06 -1.1399e-05 -0.000149218
0.00431447 0.000165769 0.00010039
0.000165769 0.002429 -9.0489e-06
0.00010039 -9.0489e-06 0.00241174
0.000478739 -9.14135e-05 -1.82581e-06
-9.14135e-05 -1.9634e-05 4.85934e-07
-1.82581e-06 4.85934e-07 -9.22091e-05
0.00507345 0.000148209 -1.04866e-05
0.000148209 0.00290811 -1.25536e-06
-1.04866e-05 -1.25536e-06 0.00289168
0.000511115 -0.000120683 -1.97866e-05
-0.000120683 -2.22093e-05 1.5119e-05
-1.97866e-05 1.5119e-05 -0.000111229
0.00587655 0.000144317 -0.000202407
0.000144317 0.00340851 2.2865e-05
-0.000202407 2.2865e-05 0.00338965
0.00109846 0.000178179 -1.31338e-05
0.000178179 -5.51425e-05 -3.37179e-06
-1.31338e-05 -3.37179e-06 -0.000226536
0.00106814 0.000106476 -1.18845e-05
0.000106476 -7.59112e-05 -1.54235e-06
-1.18845e-05 -1.54235e-06 -0.000220367
0.00187343 0.000232237 -2.15431e-06
0.000232237 0.000121049 7.70184e-07
-2.15431e-06 7.70184e-07 -2.36129e-05
0.00179906 0.000102663 -2.24665e-07
0.000102663 8.01799e-05 8.93593e-07
-2.24665e-07 8.93593e-07 -2.79914e-05
0.00103829 3.69419e-05 -1.1762e-05
3.69419e-05 -7.15787e-05 -4.40459e-07
-1.1762e-05 -4.40459e-07 -0.000199948
0.000418334 2.89659e-05 -1.91282e-05
2.89659e-05 -0.000198958 -6.69151e-07
-1.91282e-05 -6.69151e-07 -0.000274622
0.00103581 2.83674e-07 -6.37236e-08
2.83674e-07 -6.39427e-05 -7.02851e-08
-6.37236e-08 -7.02851e-08 -0.000190529
0.00178608 5.02529e-05 -1.11833e-07
5.02529e-05 6.96039e-05 2.2349e-07
-1.11833e-07 2.2349e-07 -3.03353e-05
0.00184664 0.000166516 -5.21375e-08
0.000166516 0.00010342 3.09108e-08
-5.21375e-08 3.09108e-08 -1.98202e-05
0.00196431 0.000131057 -9.28299e-08
0.000131057 4.49172e-05 1.1164e-07
-9.28299e-08 1.1164e-07 -1.06467e-05
0.00189665 0.000299822 -4.27282e-07
0.000299822 0.000154284 -5.06952e-08
-4.27282e-07 -5.06952e-08 -1.70059e-05
0.00202242 0.000267383 -5.49333e-07
0.000267383 0.000105069 9.52667e-08
-5.49333e-07 9.52667e-08 -2.13646e-06
0.00176345 -7.64047e-07 7.14644e-07
-7.64047e-07 6.18752e-05 1.94126e-07
7.14644e-07 1.94126e-07 -3.62827e-05
0.00195292 6.22123e-05 2.72622e-06
6.22123e-05 3.76834e-05 5.26043e-07
2.72622e-06 5.26043e-07 -5.0675e-06
0.00196277 0.000196577 3.16216e-06
0.000196577 5.49389e-05 5.33696e-07
3.16216e-06 5.33696e-07 -2.2882e-05
0.00202074 0.000123073 6.79168e-06
0.000123073 4.49413e-05 1.06964e-06
6.79168e-06 1.06964e-06 2.04789e-05
0.00213149 0.000357029 1.01117e-06
0.000357029 0.000200238 -1.11714e-06
1.01117e-06 -1.11714e-06 5.43787e-05
0.00203659 0.00028475 3.09992e-06
0.00028475 3.21476e-05 1.13221e-06
3.09992e-06 1.13221e-06 -3.5921e-05
0.00100834 -2.11014e-05 -1.21241e-05
-2.11014e-05 -8.55322e-05 5.74624e-07
-1.21241e-05 5.74624e-07 -0.000208616
0.0018862 -0.000110779 -2.74311e-05
-0.000110779 0.000453173 2.98867e-06
-2.74311e-05 2.98867e-06 0.000323328
0.0019186 -0.000102648 -2.21103e-06
-0.000102648 0.000166724 -4.47713e-07
-2.21103e-06 -4.47713e-07 6.0428e-05
0.00176528 -0.000227936 -2.5933e-06
-0.000227936 0.000112132 6.14336e-07
-2.5933e-06 6.14336e-07 -4.19852e-05
0.00055037 -0.000204804 -2.52402e-05
-0.000204804 -2.78203e-05 1.90026e-05
-2.52402e-05 1.90026e-05 -0.000140079
0.000846538 -0.00024571 -1.14111e-05
-0.00024571 7.12917e-05 7.86795e-06
-1.14111e-05 7.86795e-06 -0.000150533
0.00140843 -0.000449711 -5.69671e-06
-0.000449711 0.000195707 1.41243e-06
-5.69671e-06 1.41243e-06 -0.000118311
0.00188852 -0.000338248 -5.34733e-06
-0.000338248 0.000237098 1.10399e-06
-5.34733e-06 1.10399e-06 3.55162e-05
0.00199894 -0.000332858 2.33778e-07
-0.000332858 0.000131861 -1.20326e-06
2.33778e-07 -1.20326e-06 2.18266e-06
0.00195878 -0.000440085 -3.78186e-07
-0.000440085 0.000215748 -1.3023e-06
-3.78186e-07 -1.3023e-06 1.03833e-05
0.00218126 -0.000553476 -2.60027e-06
-0.000553476 0.00045713 -3.46111e-06
-2.60027e-06 -3.46111e-06 0.00016448
0.00193761 -0.000498773 2.75095e-06
-0.000498773 0.000190378 -2.95475e-06
2.75095e-06 -2.95475e-06 -2.45199e-05
0.000840952 -0.000197112 -5.27309e-06
-0.000197112 0.000185189 4.14626e-06
-5.27309e-06 4.14626e-06 -4.62935e-05
0.0001868 -0.000146337 1.48635e-07
-0.000146337 -0.000228604 -1.86306e-06
1.48635e-07 -1.86306e-06 -0.000489895
0.000797473 -0.000155637 -7.45523e-07
-0.000155637 0.000200707 1.93306e-06
-7.45523e-07 1.93306e-06 4.2829e-06
0.00182107 -4.62584e-05 -1.91392e-08
-4.62584e-05 0.000106134 3.05227e-08
-1.91392e-08 3.05227e-08 2.16895e-06
0.00188317 -0.000173518 -2.97334e-06
-0.000173518 0.000157402 4.37923e-07
-2.97334e-06 4.37923e-07 3.3123e-05
0.00197522 -0.000123661 2.81309e-06
-0.000123661 6.84771e-05 -4.05351e-07
2.81309e-06 -4.05351e-07 6.56964e-06
0.00192008 -0.000262945 -1.1139e-06
-0.000262945 6.74126e-05 5.28674e-07
-1.1139e-06 5.28674e-07 -4.06342e-05
0.000738811 -0.000236298 7.66237e-07
-0.000236298 7.64411e-05 -3.26185e-07
7.66237e-07 -3.26185e-07 -0.000148068
0.00129165 -0.0004148 -1.12547e-06
-0.0004148 0.000244997 -2.70506e-07
-1.12547e-06 -2.70506e-07 -6.76787e-05
0.00175815 -0.000590623 9.56899e-07
-0.000590623 0.000311159 7.07487e-07
9.56899e-07 7.07487e-07 -4.93664e-05
0.00182449 -0.000387117 -1.37794e-06
-0.000387117 8.53091e-05 1.03733e-06
-1.37794e-06 1.03733e-06 -8.75759e-05
0.00211918 -0.000362398 1.06264e-06
-0.000362398 0.000153933 -4.16053e-07
1.06264e-06 -4.16053e-07 5.50653e-05
0.00209194 -0.000574505 -2.78826e-07
-0.000574505 0.000344986 5.45517e-07
-2.78826e-07 5.45517e-07 6.36808e-05
0.0019613 -0.00046799 -1.77221e-07
-0.00046799 0.000158005 6.23683e-07
-1.77221e-07 6.23683e-07 -2.10109e-05
0.00219806 -0.000522575 9.50724e-07
-0.000522575 0.000356733 -5.9521e-07
9.50724e-07 -5.9521e-07 0.000156984
0.00107091 -0.000287061 -2.68536e-07
-0.000287061 0.000249501 9.74103e-07
-2.68536e-07 9.74103e-07 -7.11567e-06
0.00120579 -0.00032843 -7.52635e-07
-0.00032843 0.00034554 1.59506e-06
-7.52635e-07 1.59506e-06 5.52292e-05
0.000671134 -0.000118129 -4.26496e-07
-0.000118129 0.000133618 -5.28302e-07
-4.26496e-07 -5.28302e-07 -3.05302e-05
9.89925e-05 -0.000103218 7.15408e-07
-0.000103218 -0.00019694 -2.19558e-06
7.15408e-07 -2.19558e-06 -0.000481166
0.00197851 -6.41021e-05 4.04466e-06
-6.41021e-05 7.08283e-05 -8.37361e-07
4.04466e-06 -8.37361e-07 1.95707e-05
0.00191095 -0.000200438 3.05132e-06
-0.000200438 2.92448e-05 -7.30452e-07
3.05132e-06 -7.30452e-07 -5.67168e-05
0.00195785 -0.000117386 6.79719e-06
-0.000117386 3.95674e-05 -1.23796e-06
6.79719e-06 -1.23796e-06 1.41383e-05
0.00206455 -0.000295461 1.20628e-06
-0.000295461 6.30964e-05 -6.75694e-07
1.20628e-06 -6.75694e-07 8.24727e-06
0.00187948 -0.000416696 -9.98344e-07
-0.000416696 6.24484e-05 2.51151e-07
-9.98344e-07 2.51151e-07 -7.88762e-05
0.00207268 -0.000372963 4.42001e-06
-0.000372963 8.83116e-05 -1.54327e-06
4.42001e-06 -1.54327e-06 1.15996e-05
0.00130509 -0.000360001 5.54585e-06
-0.000360001 0.000345299 -5.11188e-06
5.54585e-06 -5.11188e-06 6.092e-05
0.00195371 -0.000493552 -2.83087e-06
-0.000493552 0.000132282 9.28852e-08
-2.83087e-06 9.28852e-08 -2.88171e-05
0.00152289 -0.000579087 -3.03294e-07
-0.000579087 0.000322204 2.13238e-06
-3.03294e-07 2.13238e-06 -6.66654e-05
0.00198165 -0.000660907 4.92666e-06
-0.000660907 0.000387316 2.71126e-06
4.92666e-06 2.71126e-06 1.61274e-05
0.00204677 -0.00058368 -2.36579e-08
-0.00058368 0.000271235 4.77463e-06
-2.36579e-08 4.77463e-06 -1.05487e-06
0.00228771 -0.000553524 -8.57035e-06
-0.000553524 0.000383611 -1.68466e-06
-8.57035e-06 -1.68466e-06 0.000175348
0.000507289 -9.9507e-05 -1.07453e-06
-9.9507e-05 3.28588e-05 -6.67616e-06
-1.07453e-06 -6.67616e-06 -9.74309e-05
0.000109377 -0.0001275 -3.80151e-06
-0.0001275 -0.000129214 -1.39563e-06
-3.80151e-06 -1.39563e-06 -0.000410528
0.00139396 -0.000394271 8.83213e-07
-0.000394271 0.000422621 -3.67212e-06
8.83213e-07 -3.67212e-06 0.00011731
0.00198284 -0.000350013 -2.82691e-06
-0.000350013 0.000922638 7.18371e-06
-2.82691e-06 7.18371e-06 0.000609454
0.00172786 -0.000422319 -9.39448e-06
-0.000422319 0.000665397 5.14077e-06
-9.39448e-06 5.14077e-06 0.000325695
0.000323892 -4.8394e-05 -4.1545e-07
-4.8394e-05 -0.00010065 -8.55157e-06
-4.1545e-07 -8.55157e-06 -0.000145442
0.00183261 0.000350694 -3.32743e-06
0.000350694 0.000157214 -4.00539e-07
-3.32743e-06 -4.00539e-07 -4.35452e-05
0.000333178 2.46942e-05 -7.96002e-07
2.46942e-05 -9.37292e-05 -5.93472e-06
-7.96002e-07 -5.93472e-06 -0.000224373
0.000458202 0.000192076 -5.97145e-06
0.000192076 -4.79683e-05 -2.50272e-06
-5.97145e-06 -2.50272e-06 -0.000263402
0.000478978 0.00014931 -9.51122e-08
0.00014931 8.82156e-06 1.44441e-07
-9.51122e-08 1.44441e-07 -0.000249516
0.00170017 0.000430143 -4.33888e-06
0.000430143 0.000206781 -3.38498e-07
-4.33888e-06 -3.38498e-07 -5.37687e-05
0.001982 0.000460603 9.7836e-07
0.000460603 0.000216474 1.31993e-06
9.7836e-07 1.31993e-06 -3.49687e-06
0.00142706 0.000348655 -2.73714e-06
0.000348655 0.000424434 -3.51267e-06
-2.73714e-06 -3.51267e-06 0.000154503
0.00135579 0.00050534 2.56054e-07
0.00050534 0.000203108 1.84461e-06
2.56054e-07 1.84461e-06 -0.00015561
0.00195495 0.000543298 1.78224e-06
0.000543298 0.000359464 2.55695e-06
1.78224e-06 2.55695e-06 6.73885e-05
0.00190637 0.000554077 2.68538e-06
0.000554077 0.000342026 7.9402e-06
2.68538e-06 7.9402e-06 4.46312e-05
0.000466542 -2.67698e-05 -9.12433e-07
-2.67698e-05 -2.96902e-05 2.60387e-07
-9.12433e-07 2.60387e-07 -6.24545e-05
0.0006101 3.26013e-05 9.57605e-08
3.26013e-05 7.77222e-05 3.01049e-07
9.57605e-08 3.01049e-07 -2.64599e-05
0.00100779 0.000268167 6.85032e-07
0.000268167 0.000226848 1.37037e-06
6.85032e-07 1.37037e-06 -1.21081e-05
0.000701134 0.000101848 -2.56564e-07
0.000101848 0.000196768 -7.67094e-07
-2.56564e-07 -7.67094e-07 -4.34125e-05
0.000779162 0.000265128 -9.00265e-07
0.000265128 0.000112394 1.5117e-06
-9.00265e-07 1.5117e-06 -0.000121914
0.00207327 0.00041794 -1.51341e-06
0.00041794 0.000202022 -1.69499e-06
-1.51341e-06 -1.69499e-06 1.91122e-05
0.00197253 0.000519 5.73497e-07
0.000519 0.000276231 1.86496e-07
5.73497e-07 1.86496e-07 1.51993e-05
0.00198386 0.000504555 1.69692e-06
0.000504555 0.000194252 1.59007e-07
1.69692e-06 1.59007e-07 -2.00434e-05
0.00135815 0.000450815 2.34404e-06
0.000450815 0.000347449 6.74324e-07
2.34404e-06 6.74324e-07 5.58163e-06
0.00212624 0.000614155 2.15449e-06
0.000614155 0.000387535 3.08001e-07
2.15449e-06 3.08001e-07 9.1259e-05
0.00192765 0.000604182 -3.22898e-06
0.000604182 0.000500069 -6.16625e-08
-3.22898e-06 -6.16625e-08 0.00013962
0.00064409 3.44313e-05 9.81216e-07
3.44313e-05 9.61798e-05 4.82523e-06
9.81216e-07 4.82523e-06 8.90247e-06
0.00144409 0.000170314 6.4952e-07
0.000170314 0.00064865 2.66481e-06
6.4952e-07 2.66481e-06 0.000461785
0.000955938 0.000331665 -2.46191e-06
0.000331665 0.000143092 4.23987e-06
-2.46191e-06 4.23987e-06 -0.000122854
0.00144007 0.000203975 9.48286e-07
0.000203975 0.000647505 -3.56757e-06
9.48286e-07 -3.56757e-06 0.000369176
0.00189951 0.000304075 -4.77558e-06
0.000304075 0.000718701 5.70457e-07
-4.77558e-06 5.70457e-07 0.000502914
0.00205643 0.000437839 -4.06364e-06
0.000437839 0.000171364 -2.25847e-06
-4.06364e-06 -2.25847e-06 2.90202e-06
0.00203785 0.000572335 -1.00642e-06
0.000572335 0.000279248 -1.63366e-07
-1.00642e-06 -1.63366e-07 1.87973e-05
0.00187367 0.000546881 6.22463e-06
0.000546881 8.5949e-05 1.12585e-07
6.22463e-06 1.12585e-07 -0.000134332
0.00125779 0.000521143 8.77839e-06
0.000521143 0.000298599 -1.8941e-06
8.77839e-06 -1.8941e-06 -8.97381e-05
0.00157561 0.000597917 1.06945e-05
0.000597917 0.000178025 -6.21065e-07
1.06945e-05 -6.21065e-07 -0.000150406
0.000572437 3.15605e-05 -3.42675e-07
3.15605e-05 4.84575e-05 2.03581e-07
-3.42675e-07 2.03581e-07 -2.63484e-05
0.000362473 5.54361e-05 5.58941e-07
5.54361e-05 -5.83127e-05 2.57847e-06
5.58941e-07 2.57847e-06 -0.000172667
0.000379651 5.34357e-05 -5.90812e-07
5.34357e-05 -4.60099e-05 -2.49764e-07
-5.90812e-07 -2.49764e-07 -0.000153871
0.00100835 0.000149745 -1.42653e-06
0.000149745 0.000364908 -1.03099e-06
-1.42653e-06 -1.03099e-06 0.000225719
0.000681909 0.000111375 1.85049e-06
0.000111375 0.000161063 2.5804e-06
1.85049e-06 2.5804e-06 4.31288e-05
0.000544217 6.07061e-05 2.7478e-06
6.07061e-05 4.66677e-05 3.56697e-06
2.7478e-06 3.56697e-06 -2.12288e-05
0.00053242 1.31219e-05 -6.7962e-07
1.31219e-05 3.35263e-05 -3.97429e-08
-6.7962e-07 -3.97429e-08 -3.46379e-05
0.00126707 -2.39275e-05 1.22487e-06
-2.39275e-05 0.000460573 3.44401e-06
1.22487e-06 3.44401e-06 0.000442683
0.000550052 2.16581e-05 -1.7837e-06
2.16581e-05 3.45773e-05 -4.08241e-06
-1.7837e-06 -4.08241e-06 -3.32445e-05
0.00132998 -3.39167e-05 -7.80407e-06
-3.39167e-05 0.000500799 -1.54901e-06
-7.80407e-06 -1.54901e-06 0.000481198
0.00080326 -3.72721e-05 3.17752e-05
-3.72721e-05 0.000171443 8.86752e-06
3.17752e-05 8.86752e-06 0.000174347
0.00135568 -4.15316e-05 -1.38499e-05
-4.15316e-05 0.000521642 -5.1675e-06
-1.38499e-05 -5.1675e-06 0.00049906
0.00169661 -7.53925e-05 3.07111e-05
-7.53925e-05 0.000743615 1.54899e-06
3.07111e-05 1.54899e-06 0.000744814
0.00264828 -0.000117936 -3.72255e-05
-0.000117936 0.00135191 -4.12554e-06
-3.72255e-05 -4.12554e-06 0.00135189
0.000302012 8.14135e-05 -6.65128e-06
8.14135e-05 -8.67599e-05 -9.3626e-06
-6.65128e-06 -9.3626e-06 -0.000142912
0.0004446 -3.31495e-05 9.75619e-08
-3.31495e-05 -2.10991e-05 7.77079e-07
9.75619e-08 7.77079e-07 -8.18185e-05
0.0034783 0.000182232 1.16804e-05
0.000182232 0.00189987 -6.98042e-06
1.16804e-05 -6.98042e-06 0.00187864
0.00447545 0.000130311 -1.50265e-05
0.000130311 0.00252484 -1.33406e-06
-1.50265e-05 -1.33406e-06 0.00251557
0.000641156 -9.37257e-05 -1.51832e-05
-9.37257e-05 7.75564e-05 1.34744e-05
-1.51832e-05 1.34744e-05 1.9002e-06
0.00532461 0.000130733 -0.000177734
0.000130733 0.00306111 1.98964e-05
-0.000177734 1.98964e-05 0.00304771
0.00186895 0.000297148 -2.47723e-06
0.000297148 0.000140203 7.31133e-07
-2.47723e-06 7.31133e-07 -3.09883e-05
0.00181511 0.000166041 -7.74085e-07
0.000166041 8.44293e-05 7.29975e-07
-7.74085e-07 7.29975e-07 -3.91816e-05
0.00199488 0.000266488 -2.35762e-06
0.000266488 9.00005e-05 1.06916e-06
-2.35762e-06 1.06916e-06 -1.74526e-05
0.00196888 0.000129555 -3.11186e-06
0.000129555 3.77646e-05 -3.84284e-07
-3.11186e-06 -3.84284e-07 -1.49012e-05
0.00179333 5.23177e-05 -5.73047e-07
5.23177e-05 7.8408e-05 4.98612e-07
-5.73047e-07 4.98612e-07 -2.15833e-05
0.00103658 5.0937e-06 -1.13818e-05
5.0937e-06 -6.36074e-05 -5.25521e-08
-1.13818e-05 -5.25521e-08 -0.000190145
0.00177717 2.73751e-06 7.05372e-08
2.73751e-06 7.19033e-05 1.92857e-07
7.05372e-08 1.92857e-07 -2.63099e-05
0.00194736 5.3583e-05 -6.62354e-07
5.3583e-05 3.59898e-05 -1.47993e-08
-6.62354e-07 -1.47993e-08 -6.93509e-06
0.00198329 0.000196717 -4.5719e-07
0.000196717 6.68145e-05 3.72356e-07
-4.5719e-07 3.72356e-07 -1.11897e-05
0.00197741 0.000120688 3.98109e-07
0.000120688 1.13739e-05 -7.15151e-08
3.98109e-07 -7.15151e-08 -7.70187e-06
0.00208728 0.000356765 -4.35431e-07
0.000356765 0.000165631 -1.13964e-07
-4.35431e-07 -1.13964e-07 1.95875e-05
0.00202104 0.000278557 9.55783e-08
0.000278557 2.35051e-05 3.2842e-07
9.55783e-08 3.2842e-07 -4.26853e-05
0.00194375 -5.09503e-06 3.54051e-06
-5.09503e-06 4.07593e-05 -2.34872e-07
3.54051e-06 -2.34872e-07 -4.15012e-06
0.00197665 5.18833e-05 5.95186e-06
5.18833e-05 3.12977e-05 1.76419e-07
5.95186e-06 1.76419e-07 1.74013e-05
0.00204105 0.000196401 3.34454e-06
0.000196401 2.99142e-05 8.14916e-07
3.34454e-06 8.14916e-07 -6.3267e-07
0.00206958 0.00012198 3.36348e-06
0.00012198 2.03399e-05 3.9634e-07
3.36348e-06 3.9634e-07 2.34538e-05
0.00198919 0.000349232 1.38664e-06
0.000349232 6.44229e-05 -1.94508e-07
1.38664e-06 -1.94508e-07 -5.48953e-05
0.00220998 0.000286642 3.54878e-06
0.000286642 8.15752e-05 1.34254e-06
3.54878e-06 1.34254e-06 4.90204e-05
0.00183114 -4.34113e-05 -1.4694e-06
-4.34113e-05 0.000111028 -4.05389e-07
-1.4694e-06 -4.05389e-07 1.00426e-05
0.00186965 -0.000178698 -3.41506e-06
-0.000178698 0.000146909 3.73467e-08
-3.41506e-06 3.73467e-08 2.16286e-05
0.00196731 -0.000121812 -2.82547e-07
-0.000121812 5.84585e-05 1.76335e-07
-2.82547e-07 1.76335e-07 2.69932e-06
0.00189747 -0.00025636 -2.17211e-06
-0.00025636 5.5299e-05 3.69782e-07
-2.17211e-06 3.69782e-07 -5.51139e-05
0.000780806 -0.000235951 -9.10632e-06
-0.000235951 9.98427e-05 7.72077e-06
-9.10632e-06 7.72077e-06 -0.000125923
0.00128449 -0.000415604 -7.84123e-06
-0.000415604 0.000233392 2.26384e-06
-7.84123e-06 2.26384e-06 -7.86898e-05
0.00158536 -0.000568688 9.80462e-07
-0.000568688 0.000222743 -1.48766e-06
9.80462e-07 -1.48766e-06 -0.000136446
0.00182974 -0.000384827 -1.23717e-06
-0.000384827 9.42495e-05 -1.3164e-08
-1.23717e-06 -1.3164e-08 -8.39353e-05
0.00203663 -0.000360478 -9.57618e-07
-0.000360478 9.47747e-05 5.38939e-07
-9.57618e-07 5.38939e-07 2.34312e-07
0.00200397 -0.000470164 3.34513e-07
-0.000470164 0.00018438 -3.75164e-07
3.34513e-07 -3.75164e-07 4.8144e-06
0.00196264 -0.000574529 -2.27846e-06
-0.000574529 0.000253998 -3.69835e-06
-2.27846e-06 -3.69835e-06 -3.02492e-05
0.00207235 -0.000509148 8.11569e-06
-0.000509148 0.000275865 -4.54541e-06
8.11569e-06 -4.54541e-06 8.11164e-05
0.000815811 -0.000260756 -1.25204e-06
-0.000260756 0.000100937 2.20758e-06
-1.25204e-06 2.20758e-06 -0.00015805
0.000544864 -0.000242026 1.49255e-06
-0.000242026 -9.01376e-05 1.93953e-08
1.49255e-06 1.93953e-08 -0.000361156
0.000963056 -0.000126263 -7.60566e-07
-0.000126263 0.000311948 5.56087e-06
-7.60566e-07 5.56087e-06 0.000143232
2.7139e-05 -6.84703e-05 1.99349e-06
-6.84703e-05 -0.000261012 -4.64612e-06
1.99349e-06 -4.64612e-06 -0.000522512
0.0019784 -6.38452e-05 -2.29169e-07
-6.38452e-05 7.23687e-05 1.36744e-07
-2.29169e-07 1.36744e-07 2.09436e-05
0.00193911 -0.000200519 2.90692e-06
-0.000200519 5.36184e-05 -8.76656e-07
2.90692e-06 -8.76656e-07 -3.3056e-05
0.00194241 -0.000116413 9.41658e-07
-0.000116413 2.44837e-05 -2.49023e-07
9.41658e-07 -2.49023e-07 5.4733e-07
0.00205417 -0.000293492 -1.04434e-06
-0.000293492 6.34812e-05 2.64536e-07
-1.04434e-06 2.64536e-07 4.46916e-06
0.00112829 -0.000331946 -2.48939e-06
-0.000331946 0.000223557 1.67381e-07
-2.48939e-06 1.67381e-07 -5.25383e-05
0.00144602 -0.000558787 2.20352e-06
-0.000558787 0.000288661 -6.12246e-07
2.20352e-06 -6.12246e-07 -9.40958e-05
0.00188589 -0.000662227 -2.5131e-07
-0.000662227 0.000324913 3.83388e-07
-2.5131e-07 3.83388e-07 -5.12641e-05
0.00191292 -0.000414828 -1.23313e-06
-0.000414828 9.07793e-05 6.35628e-07
-1.23313e-06 6.35628e-07 -5.41792e-05
0.00203833 -0.000373545 1.26563e-06
-0.000373545 6.76964e-05 -1.49926e-07
1.26563e-06 -1.49926e-07 -5.40837e-06
0.00200811 -0.00058392 -2.37412e-07
-0.00058392 0.000271134 3.90596e-07
-2.37412e-07 3.90596e-07 -2.97708e-06
0.00191696 -0.000493023 -9.7277e-07
-0.000493023 0.000103343 9.44401e-07
-9.7277e-07 9.44401e-07 -5.88897e-05
0.00214943 -0.00053749 3.52959e-06
-0.00053749 0.000294897 -4.93131e-06
3.52959e-06 -4.93131e-06 9.40089e-05
0.00124933 -0.000377158 -9.45243e-07
-0.000377158 0.000332653 2.11823e-08
-9.45243e-07 2.11823e-08 3.18043e-05
0.00161561 -0.000404992 -7.40356e-07
-0.000404992 0.000574387 1.55145e-06
-7.40356e-07 1.55145e-06 0.000243685
0.00112421 -0.000272408 5.321e-07
-0.000272408 0.00038153 -1.53443e-07
5.321e-07 -1.53443e-07 7.93258e-05
0.000310572 -6.97937e-05 -2.2766e-06
-6.97937e-05 -9.1517e-05 8.91854e-07
-2.2766e-06 8.91854e-07 -0.000222017
3.2713e-05 -7.48614e-05 -7.59287e-07
-7.48614e-05 -0.000194854 -8.32068e-07
-7.59287e-07 -8.32068e-07 -0.00045647
0.00191165 -6.28981e-05 5.15715e-06
-6.28981e-05 -9.51005e-06 -4.91163e-07
5.15715e-06 -4.91163e-07 -2.09736e-05
0.00198873 -0.000179168 4.14464e-06
-0.000179168 1.40399e-05 -1.0673e-06
4.14464e-06 -1.0673e-06 -9.65187e-06
0.00210025 -0.000343321 1.01464e-06
-0.000343321 2.2914e-05 -5.00303e-07
1.01464e-06 -5.00303e-07 -9.19091e-06
0.00205248 -0.000434093 2.23083e-06
-0.000434093 0.000102358 -1.75222e-06
2.23083e-06 -1.75222e-06 7.76112e-06
0.00148433 -0.000472863 1.87567e-06
-0.000472863 0.000435899 -2.34752e-06
1.87567e-06 -2.34752e-06 8.26776e-05
0.0022235 -0.000593951 -3.07477e-06
-0.000593951 0.000203468 -4.72296e-06
-3.07477e-06 -4.72296e-06 2.01747e-05
0.00121226 -0.00061915 -1.12488e-05
-0.00061915 0.00012937 5.28488e-06
-1.12488e-05 5.28488e-06 -0.000285523
0.00200798 -0.000725464 3.43533e-06
-0.000725464 0.000358282 6.00812e-07
3.43533e-06 6.00812e-07 -3.13775e-05
0.00181553 -0.000549491 -1.17427e-05
-0.000549491 0.000146572 1.05578e-06
-1.17427e-05 1.05578e-06 -0.000111438
9.41944e-06 -1.02842e-05 -2.73231e-06
-1.02842e-05 -0.00026632 -6.15198e-06
-2.73231e-06 -6.15198e-06 -0.000368864
0.000812657 -0.000142434 -2.17803e-06
-0.000142434 0.000298186 -6.39695e-07
-2.17803e-06 -6.39695e-07 7.2231e-05
0.000993809 -0.000199855 -1.80204e-06
-0.000199855 0.000394972 -3.72578e-06
-1.80204e-06 -3.72578e-06 0.00011121
0.00161784 -0.000463449 -7.27034e-06
-0.000463449 0.000548988 1.97111e-06
-7.27034e-06 1.97111e-06 0.00019508
0.00146672 -0.000294747 -2.13095e-06
-0.000294747 0.000540412 9.54243e-06
-2.13095e-06 9.54243e-06 0.000227284
0.00104045 -0.000388751 -8.83876e-06
-0.000388751 0.000187642 1.3979e-05
-8.83876e-06 1.3979e-05 -0.000154826
0.000417177 -2.47626e-05 -2.18863e-06
-2.47626e-05 -6.05585e-05 -6.96094e-06
-2.18863e-06 -6.96094e-06 -9.26066e-05
0.000568532 2.29711e-05 -7.46541e-07
2.29711e-05 5.67163e-05 -5.89046e-06
-7.46541e-07 -5.89046e-06 -4.65992e-05
0.00204205 0.000416525 -2.12537e-06
0.000416525 0.0001829 -5.91623e-07
-2.12537e-06 -5.91623e-07 8.74293e-08
-0.000260749 8.60073e-06 2.28458e-07
8.60073e-06 -0.000399424 -2.20364e-06
2.28458e-07 -2.20364e-06 -0.000631786
0.00104229 0.000270465 -2.30688e-06
0.000270465 0.000247333 -6.74312e-07
-2.30688e-06 -6.74312e-07 1.48899e-05
0.000585393 0.000214665 3.67107e-07
0.000214665 -3.71661e-05 1.25357e-06
3.67107e-07 1.25357e-06 -0.000245536
0.00193399 0.000515164 1.49776e-06
0.000515164 0.000255256 1.17318e-06
1.49776e-06 1.17318e-06 -5.04485e-06
0.00193179 0.000501413 2.07879e-06
0.000501413 0.000164564 5.55047e-07
2.07879e-06 5.55047e-07 -4.96349e-05
0.00169017 0.000481781 -8.13434e-07
0.000481781 0.000567372 -1.29623e-06
-8.13434e-07 -1.29623e-06 0.000216194
0.00217036 0.000621381 -4.14298e-06
0.000621381 0.000656766 1.98913e-06
-4.14298e-06 1.98913e-06 0.000298007
0.00199301 0.000599373 5.14651e-07
0.000599373 0.000292804 1.63891e-06
5.14651e-07 1.63891e-06 -2.48412e-06
0.000581781 3.20998e-05 -4.51188e-07
3.20998e-05 6.03601e-05 5.73393e-07
-4.51188e-07 5.73393e-07 -2.70572e-05
0.000756624 8.6058e-05 -9.10461e-07
8.6058e-05 0.000212147 2.57013e-07
-9.10461e-07 2.57013e-07 4.26399e-05
0.00123093 0.000359504 2.87827e-07
0.000359504 0.000313835 6.45556e-07
2.87827e-07 6.45556e-07 4.4156e-05
0.00099307 0.000150386 1.70691e-06
0.000150386 0.000358422 -3.03734e-08
1.70691e-06 -3.03734e-08 9.18868e-05
0.000584898 0.000211028 2.3578e-06
0.000211028 -9.51053e-05 3.28011e-07
2.3578e-06 3.28011e-07 -0.000293588
0.00200668 0.000437752 -2.35737e-06
0.000437752 0.00014325 -1.59744e-06
-2.35737e-06 -1.59744e-06 -2.59374e-05
0.0020493 0.000572924 1.89062e-06
0.000572924 0.000284794 6.4428e-07
1.89062e-06 6.4428e-07 2.41412e-05
0.00194745 0.000547943 8.65389e-07
0.000547943 0.000129263 9.55015e-08
8.65389e-07 9.55015e-08 -9.0022e-05
0.00131773 0.000537834 2.2675e-06
0.000537834 0.000317707 1.48761e-06
2.2675e-06 1.48761e-06 -7.07332e-05
0.0017455 0.000618961 -2.18285e-06
0.000618961 0.000294191 -1.97642e-06
-2.18285e-06 -1.97642e-06 -4.17347e-05
0.00104665 0.000113492 1.19997e-06
0.000113492 0.000386429 2.8481e-06
1.19997e-06 2.8481e-06 0.000247283
-0.000221004 -5.00616e-06 -2.27503e-06
-5.00616e-06 -0.000337841 1.16936e-06
-2.27503e-06 1.16936e-06 -0.000568933
0.0014304 0.000430645 -1.56993e-06
0.000430645 0.000423591 -1.54792e-06
-1.56993e-06 -1.54792e-06 0.000107471
-0.000648721 0.000102682 4.55943e-06
0.000102682 -0.000739217 -7.93356e-07
4.55943e-06 -7.93356e-07 -0.000962827
0.00245307 0.000449837 -2.64869e-06
0.000449837 0.000985934 -1.91379e-06
-2.64869e-06 -1.91379e-06 0.000734017
0.00195809 0.00047198 1.06829e-06
0.00047198 3.07087e-05 -4.08821e-07
1.06829e-06 -4.08821e-07 -0.000116013
0.00211965 0.000633972 8.5442e-06
0.000633972 0.000297211 -1.43983e-06
8.5442e-06 -1.43983e-06 1.05821e-05
0.00195437 0.000578639 9.05825e-06
0.000578639 0.000107739 1.76753e-06
9.05825e-06 1.76753e-06 -0.000127866
0.00128148 0.000557444 9.79915e-06
0.000557444 0.000248573 1.78558e-06
9.79915e-06 1.78558e-06 -0.000140256
0.00197657 0.000701517 2.24055e-06
0.000701517 0.000439627 1.70454e-07
2.24055e-06 1.70454e-07 7.4008e-05
0.000528949 2.36844e-05 -2.03319e-06
2.36844e-05 1.97437e-05 -4.26219e-06
-2.03319e-06 -4.26219e-06 -5.37304e-05
0.000535808 6.89173e-05 1.3392e-06
6.89173e-05 5.38448e-05 4.33433e-07
1.3392e-06 4.33433e-07 -6.32246e-05
0.000290956 5.45926e-05 -4.48349e-07
5.45926e-05 -0.000107309 1.38736e-06
-4.48349e-07 1.38736e-06 -0.000218484
0.00015946 -2.0778e-05 -2.02566e-07
-2.0778e-05 -0.000177186 -2.93457e-06
-2.02566e-07 -2.93457e-06 -0.000286266
0.000598533 6.19446e-05 -3.6987e-07
6.19446e-05 0.000108365 5.67693e-08
-3.6987e-07 5.67693e-08 -6.83168e-06
0.000575268 9.10522e-05 -6.9274e-07
9.10522e-05 8.23711e-05 -8.97406e-08
-6.9274e-07 -8.97406e-08 -3.90071e-05
0.000756784 0.000132984 -3.37793e-06
0.000132984 0.000212707 -4.23227e-06
-3.37793e-06 -4.23227e-06 8.76082e-05
0.000303103 1.23677e-05 -6.87616e-07
1.23677e-05 -6.93564e-05 -1.75979e-07
-6.87616e-07 -1.75979e-07 -0.000201402
0.000677794 9.5929e-05 9.00016e-07
9.5929e-05 0.000149639 2.70343e-06
9.00016e-07 2.70343e-06 4.32e-05
0.00056712 6.8786e-05 3.43338e-06
6.8786e-05 6.40653e-05 3.47986e-06
3.43338e-06 3.47986e-06 -5.90218e-06
0.000527374 2.14016e-05 -2.38505e-06
2.14016e-05 3.42473e-05 9.02731e-09
-2.38505e-06 9.02731e-09 -3.24012e-05
0.00124061 -8.52235e-06 1.64959e-06
-8.52235e-06 0.000446613 3.11426e-06
1.64959e-06 3.11426e-06 0.000430301
0.000436086 -6.32325e-05 1.94718e-06
-6.32325e-05 -1.93684e-05 -3.80814e-06
1.94718e-06 -3.80814e-06 -9.13173e-05
0.00130473 -1.90658e-05 -6.80794e-06
-1.90658e-05 0.000483771 -1.61468e-06
-6.80794e-06 -1.61468e-06 0.000466827
0.00076136 -2.7252e-05 2.76637e-05
-2.7252e-05 0.000142452 9.05231e-06
2.76637e-05 9.05231e-06 0.000147501
0.00135861 -3.07315e-05 -1.22719e-05
-3.07315e-05 0.000518281 -6.89738e-06
-1.22719e-05 -6.89738e-06 0.000499367
0.000763499 -4.1131e-05 1.09456e-05
-4.1131e-05 0.000146224 3.35995e-06
1.09456e-05 3.35995e-06 0.000147271
0.00250463 -0.000111232 -2.0901e-06
-0.000111232 0.00125326 -2.72171e-06
-2.0901e-06 -2.72171e-06 0.00125434
0.000327347 6.07923e-05 -4.14901e-06
6.07923e-05 -9.0217e-05 -5.97732e-06
-4.14901e-06 -5.97732e-06 -0.000127024
0.000425965 1.57752e-05 -3.39906e-06
1.57752e-05 -2.92596e-05 8.83907e-08
-3.39906e-06 8.83907e-08 -7.59786e-05
0.00293678 0.000147506 7.61587e-06
0.000147506 0.00155207 -5.89747e-06
7.61587e-06 -5.89747e-06 0.00154131
0.000597463 -6.42886e-05 -9.81397e-06
-6.42886e-05 6.48346e-05 1.16632e-05
-9.81397e-06 1.16632e-05 5.65724e-06
0.00377052 0.000138489 -3.3535e-05
0.000138489 0.00207481 -3.08069e-07
-3.3535e-05 -3.08069e-07 0.00206503
0.00468448 0.000105042 -0.000157851
0.000105042 0.00264946 1.5991e-05
-0.000157851 1.5991e-05 0.00264534
0.00204697 0.000356544 -2.39373e-06
0.000356544 0.000133817 9.2795e-07
-2.39373e-06 9.2795e-07 -1.23819e-05
0.00200714 0.000195709 -2.50219e-06
0.000195709 8.21804e-05 4.63003e-07
-2.50219e-06 4.63003e-07 4.25813e-06
0.00200494 0.000271721 -1.68784e-06
0.000271721 1.4941e-05 3.32467e-07
-1.68784e-06 3.32467e-07 -4.93731e-05
0.00193363 0.000118503 -3.54515e-06
0.000118503 -2.24141e-05 -6.08071e-07
-3.54515e-06 -6.08071e-07 -3.59894e-05
0.00193964 4.65437e-05 -4.41559e-06
4.65437e-05 3.30191e-05 -1.96902e-07
-4.41559e-06 -1.96902e-07 -1.03106e-05
0.00179136 5.53822e-06 -6.49086e-07
5.53822e-06 8.08846e-05 1.73469e-07
-6.49086e-07 1.73469e-07 -1.7332e-05
0.00195554 -5.58304e-06 -3.24743e-07
-5.58304e-06 5.21214e-05 -5.07983e-08
-3.24743e-07 -5.07983e-08 6.17827e-06
0.00198544 5.24167e-05 1.28684e-06
5.24167e-05 4.10022e-05 5.91546e-08
1.28684e-06 5.91546e-08 2.33124e-05
0.00204187 0.000193844 9.85151e-09
0.000193844 3.39113e-05 6.40356e-08
9.85151e-09 6.40356e-08 3.87507e-06
0.00203631 0.000123078 6.55991e-07
0.000123078 -5.41645e-06 1.57031e-07
6.55991e-07 1.57031e-07 2.6411e-06
0.0019995 0.000348718 -5.61723e-07
0.000348718 8.0412e-05 4.34542e-08
-5.61723e-07 4.34542e-08 -4.00457e-05
0.00213484 0.0002871 3.03753e-06
0.0002871 3.16864e-05 4.25775e-07
3.03753e-06 4.25775e-07 5.8877e-06
0.00193727 -1.0999e-05 5.27373e-06
-1.0999e-05 1.68574e-05 5.44144e-08
5.27373e-06 5.44144e-08 -2.80399e-06
0.00203356 5.86038e-05 1.54769e-06
5.86038e-05 -1.06327e-05 -3.23855e-07
1.54769e-06 -3.23855e-07 5.37863e-06
0.0021036 0.000190998 1.07965e-06
0.000190998 -4.99662e-06 4.29194e-07
1.07965e-06 4.29194e-07 1.19965e-06
0.0021268 0.000382615 -1.06657e-07
0.000382615 3.77284e-05 9.84662e-07
-1.06657e-07 9.84662e-07 -1.63463e-05
0.00197852 -6.34618e-05 -4.38589e-06
-6.34618e-05 7.3537e-05 1.04861e-06
-4.38589e-06 1.04861e-06 2.19378e-05
0.00195603 -0.000201182 5.26627e-07
-0.000201182 7.0486e-05 -7.01627e-07
5.26627e-07 -7.01627e-07 -1.70695e-05
0.00192738 -0.000115454 -5.05364e-06
-0.000115454 1.01975e-05 1.2984e-06
-5.05364e-06 1.2984e-06 -1.25383e-05
0.00205373 -0.000292157 -5.1894e-06
-0.000292157 6.8508e-05 1.24227e-06
-5.1894e-06 1.24227e-06 5.38453e-06
0.000945162 -0.000317349 -6.16027e-06
-0.000317349 0.000101642 3.2699e-06
-6.16027e-06 3.2699e-06 -0.000173142
0.00144989 -0.00054833 4.29568e-06
-0.00054833 0.000299512 -2.1897e-06
4.29568e-06 -2.1897e-06 -7.87655e-05
0.00191851 -0.000677141 -3.14271e-06
-0.000677141 0.000340248 -2.18686e-06
-3.14271e-06 -2.18686e-06 -4.4038e-05
0.00194135 -0.000413157 -2.5373e-06
-0.000413157 0.000115691 8.04962e-07
-2.5373e-06 8.04962e-07 -3.31133e-05
0.0020035 -0.000374741 -1.09395e-06
-0.000374741 4.71897e-05 1.00392e-06
-1.09395e-06 1.00392e-06 -2.23638e-05
0.00189322 -0.000494405 8.61621e-07
-0.000494405 7.87769e-05 1.62055e-06
8.61621e-07 1.62055e-06 -8.48215e-05
0.00195547 -0.000573457 -3.41632e-07
-0.000573457 0.000257858 -3.25557e-06
-3.41632e-07 -3.25557e-06 -1.41723e-05
0.00208773 -0.000525093 1.30057e-05
-0.000525093 0.000240984 -6.23371e-06
1.30057e-05 -6.23371e-06 4.73454e-05
0.000936075 -0.00034337 -1.08744e-06
-0.00034337 0.000135166 1.78975e-06
-1.08744e-06 1.78975e-06 -0.000158096
0.00133964 -0.000382315 7.57722e-06
-0.000382315 0.000372357 -2.43704e-06
7.57722e-06 -2.43704e-06 5.128e-05
0.000129865 -0.000171804 2.01156e-06
-0.000171804 -0.000223623 -7.83334e-06
2.01156e-06 -7.83334e-06 -0.000521863
0.000124024 -5.235e-05 2.51509e-07
-5.235e-05 -0.00020757 5.52115e-06
2.51509e-07 5.52115e-06 -0.000339843
0.000158704 -2.92852e-05 3.81458e-06
-2.92852e-05 -0.000128236 3.35703e-07
3.81458e-06 3.35703e-07 -0.000377758
0.00190293 -7.09185e-05 -3.59433e-08
-7.09185e-05 -1.83225e-05 -1.81079e-07
-3.59433e-08 -1.81079e-07 -3.09769e-05
0.00202197 -0.000180526 1.22143e-06
-0.000180526 3.22493e-05 -1.45396e-07
1.22143e-06 -1.45396e-07 7.82125e-06
0.00208986 -0.000337462 -6.92931e-07
-0.000337462 3.16549e-05 1.11939e-07
-6.92931e-07 1.11939e-07 -4.21816e-06
0.00139166 -0.000466247 -1.62474e-06
-0.000466247 0.000373646 -8.24205e-07
-1.62474e-06 -8.24205e-07 2.20945e-05
0.00146743 -0.000632917 3.03875e-06
-0.000632917 0.000279223 -9.57853e-07
3.03875e-06 -9.57853e-07 -0.000135448
0.00205099 -0.000734122 -3.7148e-08
-0.000734122 0.000392225 -1.33883e-07
-3.7148e-08 -1.33883e-07 -3.56132e-06
0.0020291 -0.000430696 2.00459e-07
-0.000430696 8.93222e-05 2.15624e-07
2.00459e-07 2.15624e-07 -7.22498e-06
0.00207289 -0.000590204 1.14507e-06
-0.000590204 0.000275366 -3.48605e-06
1.14507e-06 -3.48605e-06 1.43234e-05
0.00212496 -0.000574711 -1.42634e-06
-0.000574711 0.000175322 -3.44258e-07
-1.42634e-06 -3.44258e-07 -3.34651e-06
9.83086e-05 4.45261e-05 -1.89581e-06
4.45261e-05 -0.000221141 -8.28114e-07
-1.89581e-06 -8.28114e-07 -0.000315501
0.00128214 -0.00042774 -1.25011e-07
-0.00042774 0.000328074 -1.66121e-06
-1.25011e-07 -1.66121e-06 -1.50331e-05
0.00148481 -0.000442453 -1.00571e-06
-0.000442453 0.000475493 9.95682e-07
-1.00571e-06 9.95682e-07 0.000118815
0.00144213 -0.000333761 -8.41744e-07
-0.000333761 0.000548405 1.77893e-06
-8.41744e-07 1.77893e-06 0.000212809
0.00125025 -0.000206442 1.52758e-06
-0.000206442 0.000549033 -2.91487e-06
1.52758e-06 -2.91487e-06 0.000267426
0.000431658 -6.17894e-05 -8.04685e-07
-6.17894e-05 5.06946e-05 1.30836e-06
-8.04685e-07 1.30836e-06 -0.000164958
0.00202206 -9.17495e-05 2.30545e-06
-9.17495e-05 -1.38457e-06 -1.75289e-07
2.30545e-06 -1.75289e-07 8.1586e-06
0.00216021 -0.000235116 4.75052e-07
-0.000235116 -4.12296e-06 -1.38956e-07
4.75052e-07 -1.38956e-07 1.56216e-05
0.00215546 -0.000412453 1.1414e-06
-0.000412453 2.79168e-05 -4.32386e-07
1.1414e-06 -4.32386e-07 1.25501e-05
0.00221061 -0.00051411 2.23522e-06
-0.00051411 0.000102853 -2.5088e-06
2.23522e-06 -2.5088e-06 2.35089e-05
0.00157133 -0.000566155 -7.33255e-06
-0.000566155 0.000443145 3.47639e-06
-7.33255e-06 3.47639e-06 4.83822e-05
0.00211065 -0.00065295 1.72333e-07
-0.00065295 0.000210572 -4.47539e-06
1.72333e-07 -4.47539e-06 -2.54692e-05
0.00188871 -0.000753073 -2.46799e-05
-0.000753073 0.000495716 4.55281e-06
-2.46799e-05 4.55281e-06 3.62873e-05
0.00238293 -0.000802983 -1.50306e-05
-0.000802983 0.000601012 -6.41931e-07
-1.50306e-05 -6.41931e-07 0.000183186
4.29822e-06 5.40831e-05 -5.41435e-06
5.40831e-05 -0.000285767 -3.00698e-06
-5.41435e-06 -3.00698e-06 -0.000357127
0.000747453 1.85682e-06 -2.1813e-06
1.85682e-06 0.000234098 -1.44646e-06
-2.1813e-06 -1.44646e-06 7.51461e-05
0.00164253 -0.000232376 -4.89752e-06
-0.000232376 0.00082471 3.44982e-07
-4.89752e-06 3.44982e-07 0.000563618
0.000767513 -0.000111287 -3.97036e-07
-0.000111287 0.000198781 -3.51307e-06
-3.97036e-07 -3.51307e-06 -9.77307e-05
0.00212977 -0.000570905 -1.04241e-05
-0.000570905 0.000826878 9.73523e-06
-1.04241e-05 9.73523e-06 0.000431046
0.00165312 -0.000449859 -6.7234e-06
-0.000449859 0.000626835 2.2144e-05
-6.7234e-06 2.2144e-05 0.000215809
0.000508588 2.21111e-05 -1.62428e-06
2.21111e-05 1.58528e-05 -4.66335e-06
-1.62428e-06 -4.66335e-06 -7.03534e-05
-3.67093e-05 2.20284e-05 1.40417e-06
2.20284e-05 -0.000295559 -1.63577e-06
1.40417e-06 -1.63577e-06 -0.000443635
0.00195884 0.000438455 -1.87867e-06
0.000438455 0.000114305 -1.07048e-06
-1.87867e-06 -1.07048e-06 -5.57974e-05
0.000276646 8.02591e-05 1.06448e-07
8.02591e-05 -9.97729e-05 1.80887e-06
1.06448e-07 1.80887e-06 -0.000350607
0.00152407 0.000389388 -3.67874e-06
0.000389388 0.000494479 -2.61685e-06
-3.67874e-06 -2.61685e-06 0.000221784
-0.000696879 8.76e-05 -9.255e-07
8.76e-05 -0.000903137 3.45536e-06
-9.255e-07 3.45536e-06 -0.00106699
0.00205617 0.000573533 2.00095e-06
0.000573533 0.000285948 8.5726e-07
2.00095e-06 8.5726e-07 2.50176e-05
0.00199847 0.000547071 -6.9077e-06
0.000547071 0.00015662 -9.39317e-08
-6.9077e-06 -9.39317e-08 -6.13906e-05
0.00153017 0.000571722 -4.06838e-06
0.000571722 0.00043004 2.72791e-06
-4.06838e-06 2.72791e-06 3.69682e-05
0.00200944 0.000649692 -6.15528e-06
0.000649692 0.000468166 -2.53566e-08
-6.15528e-06 -2.53566e-08 0.000121608
0.000726491 6.74567e-05 -7.74893e-07
6.74567e-05 0.000178686 1.27572e-07
-7.74893e-07 1.27572e-07 4.98892e-05
0.000473136 6.52081e-05 1.22287e-06
6.52081e-05 9.14888e-05 3.46781e-07
1.22287e-06 3.46781e-07 -0.00015336
0.00132365 0.000415658 -2.69669e-06
0.000415658 0.000354305 -1.52113e-06
-2.69669e-06 -1.52113e-06 4.29392e-05
0.000136538 0.000122494 3.0742e-07
0.000122494 -0.000282942 -2.28048e-06
3.0742e-07 -2.28048e-06 -0.000497379
0.00159308 0.000359216 3.07685e-06
0.000359216 0.000441109 -2.79587e-06
3.07685e-06 -2.79587e-06 0.000210086
0.00211183 0.000485008 -2.80012e-06
0.000485008 0.000112617 -1.0564e-06
-2.80012e-06 -1.0564e-06 -3.31526e-05
0.00225631 0.000635135 2.78776e-06
0.000635135 0.0003829 -4.60756e-07
2.78776e-06 -4.60756e-07 0.00010198
0.00215526 0.000603414 2.70982e-06
0.000603414 0.000217803 2.89232e-06
2.70982e-06 2.89232e-06 -2.25889e-05
0.00139894 0.000574225 3.95506e-06
0.000574225 0.000324065 1.53935e-06
3.95506e-06 1.53935e-06 -7.05562e-05
0.00187399 0.000710908 -4.68807e-06
0.000710908 0.000378699 1.03039e-07
-4.68807e-06 1.03039e-07 1.68612e-06
-0.000528884 8.00323e-06 -2.53233e-06
8.00323e-06 -0.000592346 5.17854e-06
-2.53233e-06 5.17854e-06 -0.000718299
-0.00017872 0.000193962 1.45252e-06
0.000193962 -0.000247363 2.00625e-06
1.45252e-06 2.00625e-06 -0.000549444
0.00137401 0.000449731 2.91953e-06
0.000449731 0.000364847 -9.40667e-07
2.91953e-06 -9.40667e-07 3.31205e-05
-0.000266893 0.000160327 1.58561e-06
0.000160327 -0.000672312 -1.2902e-06
1.58561e-06 -1.2902e-06 -0.000871474
0.00229943 0.000489439 4.53306e-06
0.000489439 -5.49901e-05 2.41066e-06
4.53306e-06 2.41066e-06 -4.93567e-05
0.00274022 0.000611759 7.91532e-06
0.000611759 0.000499909 1.35268e-06
7.91532e-06 1.35268e-06 0.000302909
0.00211 0.000716236 3.69936e-06
0.000716236 0.000322583 -2.99375e-06
3.69936e-06 -2.99375e-06 -2.00124e-05
0.00165442 0.000680913 1.77278e-06
0.000680913 0.000357264 9.35119e-07
1.77278e-06 9.35119e-07 -6.35972e-05
0.000691093 0.000108734 -9.12053e-07
0.000108734 0.000159202 -1.87943e-06
-9.12053e-07 -1.87943e-06 3.53339e-05
0.000549346 9.52991e-05 -7.40924e-07
9.52991e-05 6.72939e-05 -4.63894e-07
-7.40924e-07 -4.63894e-07 -5.57971e-05
0.00114815 9.5338e-05 -6.77157e-06
9.5338e-05 0.000440896 -3.08775e-06
-6.77157e-06 -3.08775e-06 0.000336396
0.000559288 4.22244e-05 -1.2138e-06
4.22244e-05 6.16632e-05 -2.9074e-06
-1.2138e-06 -2.9074e-06 -3.76187e-05
7.58464e-05 3.87099e-05 -4.11213e-08
3.87099e-05 -0.00022655 -8.36281e-07
-4.11213e-08 -8.36281e-07 -0.000338514
0.000607827 5.01658e-05 -5.55766e-07
5.01658e-05 0.00010802 1.62139e-07
-5.55766e-07 1.62139e-07 1.03719e-06
0.000511633 0.000123704 -4.84884e-07
0.000123704 7.83139e-05 6.77878e-07
-4.84884e-07 6.77878e-07 -4.72195e-05
0.000493938 5.21703e-05 1.03756e-06
5.21703e-05 5.59984e-05 6.79609e-08
1.03756e-06 6.79609e-08 -8.23431e-05
0.000614796 9.85041e-05 3.8428e-06
9.85041e-05 0.000101733 -2.43757e-06
3.8428e-06 -2.43757e-06 1.57834e-05
0.000740739 1.1126e-05 3.22687e-06
1.1126e-05 0.000208382 -4.76157e-06
3.22687e-06 -4.76157e-06 7.55569e-05
0.000258682 6.51601e-05 7.52113e-08
6.51601e-05 -9.2645e-05 2.11052e-06
7.52113e-08 2.11052e-06 -0.000226343
0.000671403 0.000108764 2.45282e-06
0.000108764 0.000148342 3.39671e-06
2.45282e-06 3.39671e-06 3.7472e-05
0.000471236 7.50873e-05 3.36605e-06
7.50873e-05 1.15777e-05 3.46709e-06
3.36605e-06 3.46709e-06 -6.50156e-05
0.000469783 1.39232e-05 -1.54064e-06
1.39232e-05 2.54966e-06 -2.89676e-07
-1.54064e-06 -2.89676e-07 -6.60476e-05
0.00120592 6.69441e-06 1.67834e-06
6.69441e-06 0.000430789 2.815e-06
1.67834e-06 2.815e-06 0.000414584
0.00046469 -4.34467e-05 6.81599e-09
-4.34467e-05 -5.83609e-06 -3.08683e-06
6.81599e-09 -3.08683e-06 -7.14469e-05
0.00129663 -6.41501e-06 -6.39459e-06
-6.41501e-06 0.000481713 -1.67907e-06
-6.39459e-06 -1.67907e-06 0.000465929
0.00075144 -1.73471e-05 2.51486e-05
-1.73471e-05 0.000137892 9.04861e-06
2.51486e-05 9.04861e-06 0.000143835
0.00134516 -2.02165e-05 -1.04315e-05
-2.02165e-05 0.000509221 -6.60092e-06
-1.04315e-05 -6.60092e-06 0.00049268
0.000750821 -3.05788e-05 9.52351e-06
-3.05788e-05 0.000134499 3.42012e-06
9.52351e-06 3.42012e-06 0.000138204
0.000717891 -4.16476e-05 5.62108e-08
-4.16476e-05 0.000117217 -2.98538e-06
5.62108e-08 -2.98538e-06 0.000117612
0.000402239 4.17528e-05 -1.6288e-06
4.17528e-05 -6.51843e-05 -4.04674e-06
-1.6288e-06 -4.04674e-06 -8.81486e-05
0.000412219 7.27592e-05 -2.58385e-07
7.27592e-05 -3.2426e-05 3.39312e-07
-2.58385e-07 3.39312e-07 -7.3351e-05
0.00249582 0.000114421 9.65593e-06
0.000114421 0.00126558 -4.90049e-06
9.65593e-06 -4.90049e-06 0.00126404
0.000491598 1.85921e-05 -4.99147e-06
1.85921e-05 1.58884e-05 9.85693e-06
-4.99147e-06 9.85693e-06 -3.46125e-05
0.00305331 0.000151564 -1.01349e-05
0.000151564 0.00162481 -1.10751e-06
-1.01349e-05 -1.10751e-06 0.00161286
0.00390965 8.35407e-05 -0.000130278
8.35407e-05 0.00215625 1.18563e-05
-0.000130278 1.18563e-05 0.00215948
0.00200511 0.000347819 -1.03526e-06
0.000347819 9.45337e-05 6.88659e-07
-1.03526e-06 6.88659e-07 -2.71254e-05
0.00204721 0.000191855 -5.12522e-06
0.000191855 3.98125e-05 -9.82231e-07
-5.12522e-06 -9.82231e-07 1.04212e-05
0.00206183 0.000287762 -5.88889e-07
0.000287762 -1.74092e-05 -4.44342e-07
-5.88889e-07 -4.44342e-07 -3.64999e-05
0.00200218 0.000124358 -1.65041e-06
0.000124358 -3.23025e-05 -3.06215e-07
-1.65041e-06 -3.06215e-07 -1.92759e-05
0.00199524 5.32727e-05 -4.90628e-06
5.32727e-05 5.11656e-05 -4.17527e-07
-4.90628e-06 -4.17527e-07 2.97528e-05
0.00196817 -8.22492e-06 -5.37702e-06
-8.22492e-06 6.41004e-05 4.96993e-07
-5.37702e-06 4.96993e-07 1.73912e-05
0.00194408 -8.9315e-06 -1.10691e-07
-8.9315e-06 2.15762e-05 -7.24122e-08
-1.10691e-07 -7.24122e-08 3.13197e-06
0.00203496 6.13194e-05 1.13485e-06
6.13194e-05 -4.65445e-06 1.89999e-07
1.13485e-06 1.89999e-07 9.25261e-06
0.00210755 0.000197371 1.04271e-06
0.000197371 -1.30334e-06 2.20353e-07
1.04271e-06 2.20353e-07 6.25567e-06
0.00212846 0.000373857 6.56357e-07
0.000373857 3.18327e-05 2.13221e-07
6.56357e-07 2.13221e-07 -2.19001e-05
0.00200967 -1.51352e-05 7.35624e-07
-1.51352e-05 -1.03141e-05 -1.89736e-07
7.35624e-07 -1.89736e-07 -1.48465e-06
0.00216542 0.00011174 -2.37443e-07
0.00011174 -3.78086e-05 -6.46742e-07
-2.37443e-07 -6.46742e-07 1.46542e-05
0.00231844 0.000299948 2.57017e-06
0.000299948 1.94391e-05 7.65326e-07
2.57017e-06 7.65326e-07 3.80128e-05
0.00189349 -7.89953e-05 -4.81145e-06
-7.89953e-05 -2.78537e-05 5.65152e-07
-4.81145e-06 5.65152e-07 -4.15062e-05
0.0020548 -0.000181497 -3.35236e-06
-0.000181497 5.07817e-05 5.60515e-07
-3.35236e-06 5.60515e-07 2.57144e-05
0.0020781 -0.000331099 -2.61381e-06
-0.000331099 4.03747e-05 6.53531e-07
-2.61381e-06 6.53531e-07 -2.27426e-09
0.00129524 -0.000456669 -3.80881e-06
-0.000456669 0.000311711 5.27223e-07
-3.80881e-06 5.27223e-07 -3.68163e-05
0.00147735 -0.000614656 1.48292e-05
-0.000614656 0.000288517 -5.59823e-06
1.48292e-05 -5.59823e-06 -0.000117416
0.00186576 -0.000718846 -2.89171e-06
-0.000718846 0.000298858 7.03521e-07
-2.89171e-06 7.03521e-07 -9.72659e-05
0.00201577 -0.000427639 -1.86604e-06
-0.000427639 8.23271e-05 1.45388e-06
-1.86604e-06 1.45388e-06 -1.61945e-05
0.00204407 -0.000555087 4.44786e-06
-0.000555087 0.000161706 2.49542e-06
4.44786e-06 2.49542e-06 -1.22996e-05
0.00219596 -0.000620014 1.2292e-05
-0.000620014 0.000335479 -7.09436e-06
1.2292e-05 -7.09436e-06 7.27421e-05
0.00126409 -0.000418665 1.09785e-06
-0.000418665 0.000322111 -2.12778e-06
1.09785e-06 -2.12778e-06 -1.57758e-05
0.00112655 -0.000411567 2.85705e-06
-0.000411567 0.000263527 -1.06581e-05
2.85705e-06 -1.06581e-05 -8.60222e-05
0.0013825 -0.000380322 -1.10482e-06
-0.000380322 0.000540627 -8.21547e-06
-1.10482e-06 -8.21547e-06 0.00018243
0.000292629 4.43439e-05 3.31017e-06
4.43439e-05 -0.000103508 2.37651e-06
3.31017e-06 2.37651e-06 -0.000194259
0.00141921 -0.00022102 3.15493e-06
-0.00022102 0.000629399 3.4309e-06
3.15493e-06 3.4309e-06 0.000365336
-0.000128176 1.33811e-05 5.45344e-06
1.33811e-05 -0.000309297 1.06329e-06
5.45344e-06 1.06329e-06 -0.000511836
0.00203249 -9.02172e-05 -5.06629e-07
-9.02172e-05 4.08932e-06 1.31591e-07
-5.06629e-07 1.31591e-07 1.17705e-05
0.00212761 -0.000241955 9.96514e-08
-0.000241955 -2.67929e-05 -8.49634e-08
9.96514e-08 -8.49634e-08 -5.85578e-06
0.00214409 -0.000405507 -7.20761e-07
-0.000405507 2.81487e-05 2.76806e-07
-7.20761e-07 2.76806e-07 9.22801e-06
0.00150977 -0.000552483 -7.47632e-07
-0.000552483 0.0004235 5.5654e-07
-7.47632e-07 5.5654e-07 3.2617e-05
0.00128836 -0.000677406 3.48083e-06
-0.000677406 0.000150248 -1.87531e-06
3.48083e-06 -1.87531e-06 -0.00029126
0.00235223 -0.000787246 -4.81351e-06
-0.000787246 0.000577128 1.48487e-07
-4.81351e-06 1.48487e-07 0.000174536
0.00216441 -0.000521095 4.45374e-07
-0.000521095 7.70771e-05 -6.0941e-07
4.45374e-07 -6.0941e-07 -8.87461e-06
0.00205767 -0.000639589 2.01606e-06
-0.000639589 0.000191219 -2.13986e-06
2.01606e-06 -2.13986e-06 -3.88611e-05
0.000284272 5.93971e-05 -1.45535e-06
5.93971e-05 -0.00011325 -1.24933e-06
-1.45535e-06 -1.24933e-06 -0.000180595
0.000632864 -2.05258e-05 -7.79594e-07
-2.05258e-05 0.000156598 5.93031e-07
-7.79594e-07 5.93031e-07 2.73027e-06
0.000899639 -0.000436561 -3.35682e-06
-0.000436561 7.1985e-05 2.03908e-06
-3.35682e-06 2.03908e-06 -0.000284613
0.00136747 -0.000389945 -1.57899e-06
-0.000389945 0.000472564 -8.55256e-07
-1.57899e-06 -8.55256e-07 6.88302e-05
0.00156382 -0.000194905 -4.69004e-07
-0.000194905 0.000691399 -1.77535e-06
-4.69004e-07 -1.77535e-06 0.000386746
0.000889976 -0.000169018 -6.56944e-07
-0.000169018 0.000348667 1.38341e-06
-6.56944e-07 1.38341e-06 9.67533e-05
0.00211813 -0.000125067 -1.55731e-06
-0.000125067 -4.3224e-05 3.17215e-07
-1.55731e-06 3.17215e-07 5.66551e-06
0.00225697 -0.000346136 -2.00526e-06
-0.000346136 -6.07544e-05 1.04618e-06
-2.00526e-06 1.04618e-06 6.23552e-06
0.00223465 -0.000486203 2.71506e-06
-0.000486203 3.37718e-05 -5.85877e-07
2.71506e-06 -5.85877e-07 2.49868e-05
0.00237031 -0.000681291 7.54887e-06
-0.000681291 0.000202987 -3.40455e-06
7.54887e-06 -3.40455e-06 5.03008e-05
0.000625908 -0.000500841 -3.02266e-06
-0.000500841 -0.000116568 -7.16828e-06
-3.02266e-06 -7.16828e-06 -0.000513639
0.00257408 -0.00085448 1.23087e-06
-0.00085448 0.000619688 6.11844e-06
1.23087e-06 6.11844e-06 0.000238631
0.00228475 -0.000860703 -2.72239e-05
-0.000860703 0.000669251 -4.63293e-06
-2.72239e-05 -4.63293e-06 0.000167041
0.000550925 4.60809e-05 -1.53716e-07
4.60809e-05 3.56187e-05 -2.5077e-07
-1.53716e-07 -2.5077e-07 -1.46891e-05
0.000673499 -0.000140327 3.96791e-06
-0.000140327 0.000165574 -1.35863e-06
3.96791e-06 -1.35863e-06 5.98049e-05
0.000272735 7.6102e-05 -7.57621e-06
7.6102e-05 -8.14376e-05 -8.37921e-07
-7.57621e-06 -8.37921e-07 -0.000190323
0.000767452 -5.50549e-05 -3.31028e-06
-5.50549e-05 0.000263877 1.82455e-06
-3.31028e-06 1.82455e-06 6.02395e-05
0.000115303 -0.000114886 2.45531e-06
-0.000114886 -0.000174604 -6.70698e-06
2.45531e-06 -6.70698e-06 -0.000424823
-0.000343623 -9.50377e-05 5.05202e-06
-9.50377e-05 -0.000448369 -1.34077e-06
5.05202e-06 -1.34077e-06 -0.000823872
0.00153918 -0.00053595 -2.8544e-05
-0.00053595 0.000470052 2.15135e-05
-2.8544e-05 2.15135e-05 0.000104286
0.00263987 -0.000500979 -2.61824e-05
-0.000500979 0.00142146 1.52836e-05
-2.61824e-05 1.52836e-05 0.000802998
0.000554127 3.15425e-05 -4.55361e-07
3.15425e-05 6.16672e-05 -1.68371e-06
-4.55361e-07 -1.68371e-06 -5.58921e-05
0.000824761 0.000186499 -7.192e-07
0.000186499 0.000300865 4.25296e-07
-7.192e-07 4.25296e-07 4.84096e-05
0.00226799 0.000498284 -3.19969e-06
0.000498284 0.000196982 -1.86386e-06
-3.19969e-06 -1.86386e-06 5.19337e-05
0.000449644 0.000200701 -4.40166e-06
0.000200701 -6.5496e-05 2.59687e-06
-4.40166e-06 2.59687e-06 -0.000307604
0.00111731 0.000391339 -3.09122e-06
0.000391339 0.000221918 3.68062e-07
-3.09122e-06 3.68062e-07 -8.45158e-05
0.0011773 0.000303975 -5.57757e-06
0.000303975 0.00016984 -7.38127e-06
-5.57757e-06 -7.38127e-06 -4.78892e-05
0.00236983 0.000632048 -7.10051e-06
0.000632048 0.000457739 -8.07364e-07
-7.10051e-06 -8.07364e-07 0.000183888
0.00234789 0.00062689 -1.18133e-05
0.00062689 0.00032499 4.29578e-06
-1.18133e-05 4.29578e-06 8.03172e-05
0.00163823 0.000609128 -3.5202e-06
0.000609128 0.000468179 7.84999e-07
-3.5202e-06 7.84999e-07 6.54178e-05
0.00170243 0.000714093 -4.28268e-06
0.000714093 0.000274709 -9.22188e-07
-4.28268e-06 -9.22188e-07 -0.000111581
-0.000147901 6.21004e-05 5.72074e-07
6.21004e-05 -0.000351317 1.39489e-06
5.72074e-07 1.39489e-06 -0.000492671
4.72451e-05 0.000215562 -4.31913e-07
0.000215562 -0.000114606 -2.99474e-06
-4.31913e-07 -2.99474e-06 -0.00041405
0.00160028 0.000485468 1.61939e-06
0.000485468 0.000487938 -6.07003e-08
1.61939e-06 -6.07003e-08 0.000146093
0.00132861 0.000313089 -2.29817e-06
0.000313089 0.0003284 1.40789e-06
-2.29817e-06 1.40789e-06 0.000100458
0.00231521 0.000472039 7.20653e-07
0.000472039 -6.12363e-05 -7.29403e-07
7.20653e-07 -7.29403e-07 -4.93741e-05
0.00257258 0.000609456 3.42827e-06
0.000609456 0.000402222 2.13508e-07
3.42827e-06 2.13508e-07 0.000199606
0.00206474 0.000699251 -1.4377e-06
0.000699251 0.000306047 1.89934e-07
-1.4377e-06 1.89934e-07 -2.9289e-05
0.00176977 0.000689958 8.72746e-07
0.000689958 0.000407642 3.24858e-07
8.72746e-07 3.24858e-07 -8.95606e-06
-0.000281316 4.34769e-05 -1.94947e-06
4.34769e-05 -0.000433321 4.64503e-06
-1.94947e-06 4.64503e-06 -0.000581635
0.0022204 0.000365648 1.10761e-05
0.000365648 -0.000168987 3.65166e-06
1.10761e-05 3.65166e-06 -9.87552e-05
0.00251759 0.000482784 6.83984e-06
0.000482784 0.00134617 8.3844e-06
6.83984e-06 8.3844e-06 0.00101762
0.00133281 0.000471233 2.4095e-06
0.000471233 0.000264823 -2.26391e-07
2.4095e-06 -2.26391e-07 -5.25664e-05
0.0025959 0.000590463 -1.49273e-05
0.000590463 0.000252682 -7.63461e-06
-1.49273e-05 -7.63461e-06 0.000169513
0.00117879 0.000649072 1.04828e-06
0.000649072 -0.000301728 -8.08178e-06
1.04828e-06 -8.08178e-06 -0.000616887
0.00262294 0.000807742 1.0885e-06
0.000807742 0.000841372 4.33038e-06
1.0885e-06 4.33038e-06 0.000395585
0.000793508 0.000112575 -1.26621e-06
0.000112575 0.000219124 -1.94261e-06
-1.26621e-06 -1.94261e-06 9.42653e-05
0.000641078 0.000106342 -3.32864e-06
0.000106342 0.000141732 -1.24584e-06
-3.32864e-06 -1.24584e-06 3.07628e-05
0.00148195 0.000111542 -3.79066e-06
0.000111542 0.000668076 -9.91417e-07
-3.79066e-06 -9.91417e-07 0.000586908
0.000508077 7.07752e-06 3.91815e-07
7.07752e-06 4.81635e-05 -3.45574e-06
3.91815e-07 -3.45574e-06 -5.9817e-05
0.000710764 8.39132e-05 2.05779e-06
8.39132e-05 0.000195912 -6.93184e-07
2.05779e-06 -6.93184e-07 5.2564e-05
-0.000127553 7.12109e-05 -1.90934e-06
7.12109e-05 -0.000296543 4.69266e-06
-1.90934e-06 4.69266e-06 -0.000412263
0.000556943 2.15142e-05 -1.37689e-06
2.15142e-05 8.38772e-05 7.32614e-09
-1.37689e-06 7.32614e-09 -3.04573e-05
0.000324397 -1.39346e-05 -1.00795e-06
-1.39346e-05 -3.73588e-05 -2.18801e-08
-1.00795e-06 -2.18801e-08 -0.000178822
9.35509e-05 4.6897e-05 8.22255e-08
4.6897e-05 -0.000199275 1.14097e-06
8.22255e-08 1.14097e-06 -0.000274802
0.000807146 9.0247e-05 9.62506e-07
9.0247e-05 0.00026406 -1.18813e-06
9.62506e-07 -1.18813e-06 0.000118472
0.00162554 0.000124892 -4.50311e-07
0.000124892 0.00072003 -2.57014e-06
-4.50311e-07 -2.57014e-06 0.000670388
0.000452782 2.00094e-05 9.78273e-06
2.00094e-05 1.75051e-05 -6.45937e-06
9.78273e-06 -6.45937e-06 -7.07293e-05
0.000272125 9.85364e-05 5.46132e-07
9.85364e-05 -6.10599e-05 2.09119e-06
5.46132e-07 2.09119e-06 -0.000213518
0.000573899 4.81257e-05 1.79824e-06
4.81257e-05 0.000115055 3.23934e-06
1.79824e-06 3.23934e-06 -4.12872e-05
0.000580756 3.45187e-05 2.77088e-06
3.45187e-05 9.05711e-05 3.02566e-06
2.77088e-06 3.02566e-06 -2.52948e-05
0.000478694 -5.52378e-05 -2.60698e-07
-5.52378e-05 1.42937e-05 3.13369e-06
-2.60698e-07 3.13369e-06 -6.35106e-05
0.000495825 9.37943e-06 1.73252e-07
9.37943e-06 1.92525e-05 -3.36022e-07
1.73252e-07 -3.36022e-07 -5.17519e-05
0.00128746 2.58269e-05 3.13804e-06
2.58269e-05 0.000490149 2.99286e-06
3.13804e-06 2.99286e-06 0.000471364
0.000498373 -2.70976e-07 1.85604e-08
-2.70976e-07 1.19271e-05 -3.19401e-06
1.85604e-08 -3.19401e-06 -5.09663e-05
0.00130277 9.61323e-06 -5.81563e-06
9.61323e-06 0.000491563 -1.69258e-06
-5.81563e-06 -1.69258e-06 0.000475142
0.000747305 -9.56903e-06 2.02491e-05
-9.56903e-06 0.000139717 8.77638e-06
2.02491e-05 8.77638e-06 0.000145588
0.00134794 -9.90351e-06 -8.06673e-06
-9.90351e-06 0.000513645 -6.48108e-06
-8.06673e-06 -6.48108e-06 0.000498145
0.00077488 -2.10895e-05 7.29776e-06
-2.10895e-05 0.000149639 3.47052e-06
7.29776e-06 3.47052e-06 0.000154513
0.000749928 -3.17496e-05 4.98865e-08
-3.17496e-05 0.000131856 -2.80225e-06
4.98865e-08 -2.80225e-06 0.000135118
0.000648545 -8.48255e-06 1.49011e-06
-8.48255e-06 9.14671e-05 -1.58784e-06
1.49011e-06 -1.58784e-06 4.36466e-05
0.000430678 2.8145e-05 -2.3575e-07
2.8145e-05 -5.88802e-05 -3.59244e-06
-2.3575e-07 -3.59244e-06 -7.51923e-05
0.000442006 4.61633e-05 4.38447e-07
4.61633e-05 -3.78259e-05 2.58801e-07
4.38447e-07 2.58801e-07 -6.24048e-05
0.00228027 8.91759e-05 1.2868e-05
8.91759e-05 0.00111963 -4.42419e-06
1.2868e-05 -4.42419e-06 0.00112506
0.000494277 6.61624e-05 5.7522e-06
6.61624e-05 1.38663e-05 7.67909e-06
5.7522e-06 7.67909e-06 -2.54983e-05
0.00267714 0.000123436 -5.27056e-06
0.000123436 0.00138056 -5.73303e-07
-5.27056e-06 -5.73303e-07 0.00137686
0.00327099 0.000120099 -4.59918e-05
0.000120099 0.00175208 5.54779e-06
-4.59918e-05 5.54779e-06 0.00174693
0.00212873 0.000365648 -2.45487e-07
0.000365648 2.45488e-05 -5.48393e-07
-2.45487e-07 -5.48393e-07 -2.85577e-05
0.0021106 0.00020355 -1.85799e-06
0.00020355 3.21972e-06 -3.60214e-07
-1.85799e-06 -3.60214e-07 1.14825e-05
0.00203504 6.51621e-05 -1.59645e-06
6.51621e-05 1.24124e-06 4.5416e-08
-1.59645e-06 4.5416e-08 1.30103e-05
0.00194946 -6.78078e-06 -4.92554e-06
-6.78078e-06 2.57054e-05 -6.07558e-08
-4.92554e-06 -6.07558e-08 8.27678e-06
0.00201024 -1.00969e-05 -9.1681e-07
-1.00969e-05 -1.17568e-05 -3.50086e-08
-9.1681e-07 -3.50086e-08 -2.47083e-07
0.0021433 0.00010475 -9.9914e-08
0.00010475 -4.18924e-05 2.03055e-07
-9.9914e-08 2.03055e-07 7.83712e-06
0.00225607 0.000306463 -1.18753e-06
0.000306463 -8.05055e-06 4.7508e-08
-1.18753e-06 4.7508e-08 1.03278e-05
0.00212209 -1.07347e-05 -1.48836e-06
-1.07347e-05 -5.77581e-05 -5.03259e-07
-1.48836e-06 -5.03259e-07 1.78788e-06
0.00233423 0.000158424 5.50165e-06
0.000158424 -4.90852e-05 -1.14331e-06
5.50165e-06 -1.14331e-06 1.19991e-05
0.00251196 0.000110788 1.06547e-05
0.000110788 0.000139537 1.21266e-05
1.06547e-05 1.21266e-05 0.000215157
0.0020417 -8.91059e-05 -2.06857e-06
-8.91059e-05 9.1432e-06 2.90913e-07
-2.06857e-06 2.90913e-07 1.4845e-05
0.00209881 -0.000250218 -8.049e-07
-0.000250218 -4.80234e-05 5.4017e-08
-8.049e-07 5.4017e-08 -2.58974e-05
0.00212998 -0.000397867 -7.02647e-07
-0.000397867 2.63059e-05 -1.72089e-08
-7.02647e-07 -1.72089e-08 5.00286e-06
0.0015102 -0.000555457 3.96029e-06
-0.000555457 0.000424206 -1.97843e-06
3.96029e-06 -1.97843e-06 3.10984e-05
0.00173017 -0.000722335 1.68031e-05
-0.000722335 0.000407479 -2.5285e-07
1.68031e-05 -2.5285e-07 -4.31843e-05
0.00193355 -0.000723235 5.48932e-06
-0.000723235 0.000343329 -2.20171e-07
5.48932e-06 -2.20171e-07 -3.6213e-05
0.00208166 -0.00052433 -2.05919e-07
-0.00052433 3.11846e-05 3.07671e-06
-2.05919e-07 3.07671e-06 -6.07038e-05
0.00189904 -0.000615934 -2.9858e-07
-0.000615934 0.000116107 1.2911e-06
-2.9858e-07 1.2911e-06 -0.000107092
0.000616177 -0.000401515 4.67965e-06
-0.000401515 -9.85842e-05 -1.45434e-05
4.67965e-06 -1.45434e-05 -0.000448401
0.00185362 -0.000417462 1.7404e-05
-0.000417462 0.000821057 -1.62553e-05
1.7404e-05 -1.62553e-05 0.000395703
0.00134778 -0.00012842 -1.44652e-06
-0.00012842 0.000524408 2.7888e-06
-1.44652e-06 2.7888e-06 0.000244536
0.000463052 1.9305e-05 2.76617e-06
1.9305e-05 -3.15085e-06 1.01147e-06
2.76617e-06 1.01147e-06 -6.61141e-05
0.00072786 3.36389e-05 6.05126e-06
3.36389e-05 0.000211422 2.2227e-06
6.05126e-06 2.2227e-06 5.85439e-05
0.000408632 -0.000114286 8.06445e-07
-0.000114286 3.82786e-05 5.89068e-06
8.06445e-07 5.89068e-06 -0.000207221
0.0021276 -0.000127974 5.81028e-07
-0.000127974 -4.5841e-05 -7.77473e-08
5.81028e-07 -7.77473e-08 5.37727e-06
0.000495324 1.11119e-05 1.69627e-06
1.11119e-05 1.02907e-06 2.98419e-07
1.69627e-06 2.98419e-07 -4.90141e-05
0.000403187 -7.15237e-05 -2.16541e-06
-7.15237e-05 -3.34596e-05 -5.58765e-07
-2.16541e-06 -5.58765e-07 -0.000119894
0.00223673 -0.000335976 -2.03439e-07
-0.000335976 -5.15049e-05 1.56654e-07
-2.03439e-07 1.56654e-07 6.96414e-06
0.00218236 -0.000475256 -1.75597e-06
-0.000475256 9.45534e-06 2.80411e-07
-1.75597e-06 2.80411e-07 7.7199e-06
0.00184954 -0.000649274 -1.51163e-06
-0.000649274 0.000594959 1.85515e-06
-1.51163e-06 1.85515e-06 0.000162778
0.00187909 -0.00080822 6.02788e-06
-0.00080822 0.000462611 1.07897e-06
6.02788e-06 1.07897e-06 -3.50323e-05
0.00196277 -0.000789623 3.7697e-06
-0.000789623 0.000264184 -4.71467e-06
3.7697e-06 -4.71467e-06 -0.00010016
0.00224094 -0.000668478 2.99273e-06
-0.000668478 0.000132256 -1.17753e-06
2.99273e-06 -1.17753e-06 -1.4515e-05
0.000660452 9.79751e-06 -7.92381e-07
9.79751e-06 0.000171691 -1.09627e-06
-7.92381e-07 -1.09627e-06 5.77176e-05
0.000770992 -4.9796e-05 8.62656e-07
-4.9796e-05 0.000267269 1.8931e-06
8.62656e-07 1.8931e-06 6.24131e-05
0.00146551 -0.000512684 3.52526e-06
-0.000512684 0.00044129 3.92903e-06
3.52526e-06 3.92903e-06 6.32982e-05
0.00123277 -0.000375277 1.06933e-05
-0.000375277 0.000536594 -7.40243e-06
1.06933e-05 -7.40243e-06 1.02581e-05
0.000946001 -0.000131267 -1.2827e-06
-0.000131267 0.000279135 -1.20401e-06
-1.2827e-06 -1.20401e-06 -5.27184e-05
0.000327612 -8.73281e-05 6.46461e-07
-8.73281e-05 -3.54831e-05 -1.69681e-06
6.46461e-07 -1.69681e-06 -0.000295398
0.00214162 -0.000148231 1.31189e-06
-0.000148231 -0.000169072 -9.37429e-07
1.31189e-06 -9.37429e-07 -9.90441e-05
0.00222802 -0.000430633 -1.18282e-06
-0.000430633 -0.000201941 3.12017e-06
-1.18282e-06 3.12017e-06 -1.29537e-05
0.00241053 -0.000652963 -3.38123e-06
-0.000652963 8.30985e-05 -3.00334e-07
-3.38123e-06 -3.00334e-07 4.41444e-05
0.00244442 -0.000870494 1.0483e-05
-0.000870494 0.00033374 -3.77351e-06
1.0483e-05 -3.77351e-06 0.000103368
0.00117435 -0.000607297 -1.67702e-06
-0.000607297 0.0002437 -1.78611e-05
-1.67702e-06 -1.78611e-05 -0.000199222
0.002882 -0.0010068 -7.734e-06
-0.0010068 0.000931275 9.25241e-06
-7.734e-06 9.25241e-06 0.000393241
0.0001567 4.91853e-05 -2.51616e-06
4.91853e-05 -0.000178361 -4.93742e-06
-2.51616e-06 -4.93742e-06 -0.000272752
0.000572742 -4.69919e-05 4.25166e-06
-4.69919e-05 7.81763e-05 6.02925e-07
4.25166e-06 6.02925e-07 -4.94818e-06
0.00120201 -0.00015181 -1.74784e-06
-0.00015181 0.000444333 1.11885e-05
-1.74784e-06 1.11885e-05 0.000333652
0.000523384 2.06205e-05 -3.80592e-06
2.06205e-05 8.79572e-05 3.5174e-06
-3.80592e-06 3.5174e-06 -7.14809e-05
0.000736218 -8.95013e-05 -3.41197e-06
-8.95013e-05 0.000224404 6.86863e-06
-3.41197e-06 6.86863e-06 8.89556e-06
0.000772457 -6.22346e-05 9.3299e-06
-6.22346e-05 0.000159988 -1.04625e-05
9.3299e-06 -1.04625e-05 -8.88153e-05
-0.000979856 -0.000265664 1.45605e-06
-0.000265664 -0.000488072 -2.27251e-06
1.45605e-06 -2.27251e-06 -0.00124693
2.94178e-05 -0.000502313 -4.92274e-05
-0.000502313 -0.000471676 1.8631e-05
-4.92274e-05 1.8631e-05 -0.000814543
0.000455611 6.8518e-05 -8.37228e-07
6.8518e-05 4.02185e-05 -1.53683e-06
-8.37228e-07 -1.53683e-06 -0.000126466
0.000810199 0.000244361 -1.02124e-05
0.000244361 0.000333863 -5.79895e-06
-1.02124e-05 -5.79895e-06 4.29575e-05
0.00232624 0.000454437 -8.54476e-06
0.000454437 -6.20816e-05 -3.63452e-06
-8.54476e-06 -3.63452e-06 -4.65728e-05
0.00245129 0.000609816 -8.42906e-06
0.000609816 0.0003343 -8.88436e-07
-8.42906e-06 -8.88436e-07 0.000125707
0.00280179 0.000422663 -6.73008e-06
0.000422663 0.00122267 -1.20782e-06
-6.73008e-06 -1.20782e-06 0.000985061
0.00169176 0.000503044 -4.51625e-06
0.000503044 0.000533995 -4.32288e-06
-4.51625e-06 -4.32288e-06 0.000185403
0.00202018 0.000683092 -4.38534e-06
0.000683092 0.000289184 1.26798e-06
-4.38534e-06 1.26798e-06 -3.96416e-05
0.00190614 0.000698762 -3.43442e-06
0.000698762 0.000472168 -1.81163e-06
-3.43442e-06 -1.81163e-06 5.92965e-05
0.000431786 0.000101683 1.05466e-06
0.000101683 2.9452e-05 -1.28066e-06
1.05466e-06 -1.28066e-06 -0.000150264
0.00238532 0.000349979 -2.47482e-06
0.000349979 -6.59159e-05 -1.91687e-06
-2.47482e-06 -1.91687e-06 8.91445e-06
0.00142551 0.0003219 1.12172e-06
0.0003219 0.000647061 1.8101e-06
1.12172e-06 1.8101e-06 0.000361997
0.00156519 0.000492432 2.35325e-06
0.000492432 0.000432843 1.06844e-06
2.35325e-06 1.06844e-06 0.000104919
0.00257745 0.000585926 1.84224e-06
0.000585926 0.000255749 3.76951e-07
1.84224e-06 3.76951e-07 0.000172612
0.00165831 0.000689621 -1.66417e-06
0.000689621 -1.92074e-05 -4.6547e-06
-1.66417e-06 -4.6547e-06 -0.00033828
0.00210069 0.000741946 2.73959e-07
0.000741946 0.00055551 5.56486e-07
2.73959e-07 5.56486e-07 0.000121129
0.00119638 0.000259892 -4.1529e-06
0.000259892 0.00056757 3.62256e-06
-4.1529e-06 3.62256e-06 0.000325274
0.00341847 0.000494605 -7.75616e-05
0.000494605 0.000558543 -2.10457e-05
-7.75616e-05 -2.10457e-05 0.000680818
0.00148799 0.00047343 -5.36445e-06
0.00047343 0.00059801 4.30859e-06
-5.36445e-06 4.30859e-06 0.000274907
0.00158287 0.000577704 -1.95933e-06
0.000577704 0.000368507 -4.4144e-06
-1.95933e-06 -4.4144e-06 -2.47073e-05
0.00212787 0.000757563 -3.08173e-05
0.000757563 9.70423e-05 -1.83793e-05
-3.08173e-05 -1.83793e-05 -0.000119384
0.00110787 0.00065154 -2.08174e-05
0.00065154 -5.75782e-05 -2.04533e-06
-2.08174e-05 -2.04533e-06 -0.000457817
0.000380142 0.000746705 2.69184e-05
0.000746705 -0.00164672 -3.83197e-05
2.69184e-05 -3.83197e-05 -0.00138229
2.47563e-05 0.000118762 3.01814e-06
0.000118762 -0.000212962 -8.36847e-07
3.01814e-06 -8.36847e-07 -0.000332314
0.000509486 0.000113507 -3.66211e-08
0.000113507 0.000113862 1.45441e-06
-3.66211e-08 1.45441e-06 2.24134e-05
0.00204318 0.00016926 1.41328e-06
0.00016926 0.00101223 -1.06546e-06
1.41328e-06 -1.06546e-06 0.000931283
0.000435835 -6.38759e-05 4.3813e-07
-6.38759e-05 1.73938e-05 -3.89556e-06
4.3813e-07 -3.89556e-06 -0.000100451
0.000455414 -4.16497e-05 -7.72739e-07
-4.16497e-05 4.09135e-05 -1.12e-06
-7.72739e-07 -1.12e-06 -9.76169e-05
0.00100232 0.000179628 9.70048e-08
0.000179628 0.000388275 1.14332e-06
9.70048e-08 1.14332e-06 0.000230804
-0.000193125 2.19829e-05 -5.63817e-06
2.19829e-05 -0.000355 1.2912e-05
-5.63817e-06 1.2912e-05 -0.000428488
0.000533179 -1.42637e-05 -3.63986e-07
-1.42637e-05 7.75195e-05 -1.03744e-07
-3.63986e-07 -1.03744e-07 -4.71004e-05
0.00049216 6.55605e-05 1.50313e-07
6.55605e-05 4.52202e-05 -6.45787e-07
1.50313e-07 -6.45787e-07 -9.60178e-05
0.00105205 0.00010469 2.71223e-06
0.00010469 0.000363561 4.44651e-06
2.71223e-06 4.44651e-06 0.00031171
0.000547932 6.33505e-05 1.57749e-06
6.33505e-05 9.21639e-05 7.50411e-07
1.57749e-06 7.50411e-07 -5.24358e-05
0.000673483 4.65317e-05 -1.42097e-06
4.65317e-05 0.000146259 -2.0435e-06
-1.42097e-06 -2.0435e-06 4.91379e-05
0.00161754 0.000126746 -2.1446e-06
0.000126746 0.000737118 -1.20067e-05
-2.1446e-06 -1.20067e-05 0.000685473
0.000849059 0.000132047 -2.0996e-06
0.000132047 0.000243593 -2.59018e-06
-2.0996e-06 -2.59018e-06 9.85142e-05
0.000947271 0.000129876 1.7021e-06
0.000129876 0.000330309 1.31166e-06
1.7021e-06 1.31166e-06 0.000176954
0.000888298 8.66403e-05 3.27173e-07
8.66403e-05 0.000312925 1.70135e-06
3.27173e-07 1.70135e-06 0.000141984
0.000285411 -2.37412e-05 -6.42356e-09
-2.37412e-05 -9.51661e-05 2.75209e-06
-6.42356e-09 2.75209e-06 -0.000216957
0.00102249 -7.08701e-05 2.77916e-07
-7.08701e-05 0.000430467 -1.59644e-06
2.77916e-07 -1.59644e-06 0.000250073
0.000217656 -3.92533e-05 -1.40759e-06
-3.92533e-05 -0.00013404 3.16267e-06
-1.40759e-06 3.16267e-06 -0.00026087
0.000463105 3.78448e-06 -1.7856e-06
3.78448e-06 1.01324e-05 3.23655e-06
-1.7856e-06 3.23655e-06 -7.27995e-05
0.000481433 3.75067e-05 2.45975e-06
3.75067e-05 1.88753e-05 -1.49326e-07
2.45975e-06 -1.49326e-07 -6.14409e-05
0.000388309 2.155e-05 3.20696e-07
2.155e-05 -6.59861e-05 4.43937e-06
3.20696e-07 4.43937e-06 -8.91114e-05
0.000443138 7.07683e-06 -3.00245e-06
7.07683e-06 -5.74587e-06 -3.5472e-06
-3.00245e-06 -3.5472e-06 -8.1851e-05
0.000883827 1.61695e-05 -3.36361e-06
1.61695e-05 0.000237519 -1.54985e-06
-3.36361e-06 -1.54985e-06 0.000217508
0.00260146 -5.69453e-06 1.81209e-05
-5.69453e-06 0.00130076 5.48269e-06
1.81209e-05 5.48269e-06 0.00131375
0.00139054 1.98277e-05 -9.40978e-06
1.98277e-05 0.000547343 -6.51951e-06
-9.40978e-06 -6.51951e-06 0.000530345
0.000768629 -1.13263e-05 6.23222e-06
-1.13263e-05 0.000149528 3.39216e-06
6.23222e-06 3.39216e-06 0.000154999
0.000787951 -2.18218e-05 5.12729e-07
-2.18218e-05 0.000154608 -2.62618e-06
5.12729e-07 -2.62618e-06 0.000159317
0.000504894 1.39229e-05 -2.19316e-06
1.39229e-05 9.6861e-06 -2.48112e-06
-2.19316e-06 -2.48112e-06 -3.89757e-05
0.000555962 -2.22595e-05 8.4455e-07
-2.22595e-05 3.6743e-05 -3.33972e-07
8.4455e-07 -3.33972e-07 -1.24132e-05
0.000504995 2.29314e-05 2.16315e-08
2.29314e-05 -1.7335e-05 -3.58455e-06
2.16315e-08 -3.58455e-06 -3.07307e-05
0.000801582 3.76355e-05 -1.4547e-07
3.76355e-05 0.000174995 1.06216e-07
-1.4547e-07 1.06216e-07 0.000159926
0.00217236 6.99381e-05 1.00345e-05
6.99381e-05 0.00104383 -4.4488e-06
1.00345e-05 -4.4488e-06 0.0010537
0.000491131 5.40303e-05 4.7925e-06
5.40303e-05 -2.81697e-06 5.46017e-06
4.7925e-06 5.46017e-06 -3.02133e-05
0.00236923 9.51241e-05 -2.88127e-06
9.51241e-05 0.00117677 -2.78371e-07
-2.88127e-06 -2.78371e-07 0.0011807
0.00276249 0.000130017 1.58982e-06
0.000130017 0.00143513 6.81631e-06
1.58982e-06 6.81631e-06 0.00142983
0.00220143 0.000313095 -2.53476e-06
0.000313095 -3.38424e-05 -9.25321e-07
-2.53476e-06 -9.25321e-07 -1.47003e-05
0.00211708 9.93977e-05 1.56865e-06
9.93977e-05 -4.99178e-05 7.01259e-07
1.56865e-06 7.01259e-07 -1.80709e-06
0.00201357 -5.84668e-06 -9.3845e-07
-5.84668e-06 -1.19212e-05 -1.31702e-08
-9.3845e-07 -1.31702e-08 2.26979e-06
0.00211168 -7.28897e-06 1.39598e-07
-7.28897e-06 -6.32479e-05 -2.21183e-07
1.39598e-07 -2.21183e-07 -3.88134e-06
0.00231422 0.000163685 -4.00199e-07
0.000163685 -4.59153e-05 4.56968e-07
-4.00199e-07 4.56968e-07 1.43484e-05
0.00221711 8.75206e-05 8.17529e-06
8.75206e-05 -5.97867e-05 -5.34723e-06
8.17529e-06 -5.34723e-06 1.14862e-05
0.00235185 -3.91535e-06 1.72408e-06
-3.91535e-06 -8.73597e-05 -1.62267e-06
1.72408e-06 -1.62267e-06 1.0166e-05
0.00445868 0.000769294 5.35366e-05
0.000769294 -0.000403632 1.0756e-05
5.35366e-05 1.0756e-05 0.000203737
0.0026897 6.68447e-05 -2.51087e-05
6.68447e-05 0.000393671 2.91718e-05
-2.51087e-05 2.91718e-05 0.000588666
0.000487524 0.000107527 -2.85064e-06
0.000107527 3.9492e-05 -1.26238e-06
-2.85064e-06 -1.26238e-06 -5.31315e-05
0.00213425 -0.000128993 7.83476e-07
-0.000128993 -5.00717e-05 -2.69853e-07
7.83476e-07 -2.69853e-07 3.67055e-06
0.00220961 -0.00032529 2.05999e-06
-0.00032529 -4.67226e-05 -8.11489e-07
2.05999e-06 -8.11489e-07 2.67495e-06
0.00213799 -0.000466946 -5.05741e-07
-0.000466946 -1.22009e-05 3.84148e-07
-5.05741e-07 3.84148e-07 -7.2642e-06
0.000971293 -0.000553696 -4.37779e-06
-0.000553696 8.18709e-05 9.00021e-06
-4.37779e-06 9.00021e-06 -0.000325833
0.00218373 -0.000838022 1.61494e-05
-0.000838022 0.000629036 9.42435e-06
1.61494e-05 9.42435e-06 0.00012981
0.00161747 -0.000753018 -9.01969e-06
-0.000753018 6.09198e-05 -5.7999e-06
-9.01969e-06 -5.7999e-06 -0.000292574
0.0021943 -0.0006642 -5.65865e-06
-0.0006642 0.000107974 1.20798e-06
-5.65865e-06 1.20798e-06 -3.59999e-05
0.00169036 -0.000511263 3.42979e-05
-0.000511263 0.000518332 -2.94853e-05
3.42979e-05 -2.94853e-05 0.000167275
0.00107022 -0.000364176 2.53421e-05
-0.000364176 0.000397517 -2.48965e-05
2.53421e-05 -2.48965e-05 -6.41917e-05
0.000905124 -7.22201e-05 6.93991e-07
-7.22201e-05 0.000216457 5.34851e-06
6.93991e-07 5.34851e-06 -8.1192e-05
0.000495352 9.94773e-06 1.93268e-06
9.94773e-06 1.49623e-06 1.03805e-06
1.93268e-06 1.03805e-06 -4.89824e-05
0.00129493 -9.4533e-05 8.06173e-07
-9.4533e-05 0.000570588 6.12103e-06
8.06173e-07 6.12103e-06 0.000289801
0.000941669 -2.56631e-05 6.98027e-06
-2.56631e-05 0.000362166 -9.93591e-07
6.98027e-06 -9.93591e-07 0.00024182
0.000694575 -4.42654e-05 2.37348e-06
-4.42654e-05 0.000210892 -6.58524e-07
2.37348e-06 -6.58524e-07 1.13008e-05
0.000142018 -4.29692e-05 -3.44335e-06
-4.29692e-05 -0.000204723 -1.49801e-08
-3.44335e-06 -1.49801e-08 -0.000287084
0.00221028 -0.000165687 -5.00527e-07
-0.000165687 -0.000158856 -1.3197e-08
-5.00527e-07 -1.3197e-08 -6.32727e-05
0.000345844 2.52705e-05 3.72121e-07
2.52705e-05 -4.68537e-05 -2.35957e-06
3.72121e-07 -2.35957e-06 -0.00014719
0.000583581 -5.58206e-05 2.57728e-06
-5.58206e-05 9.93879e-05 9.90773e-07
2.57728e-06 9.90773e-07 7.44291e-06
0.000888781 -0.000123292 3.14895e-06
-0.000123292 0.000246568 1.86551e-07
3.14895e-06 1.86551e-07 0.00014591
0.00225014 -0.000442107 2.01075e-06
-0.000442107 -0.000168291 -7.16203e-07
2.01075e-06 -7.16203e-07 -1.61255e-05
0.00231736 -0.000647696 4.88524e-07
-0.000647696 3.1416e-05 -8.16718e-07
4.88524e-07 -8.16718e-07 -7.41642e-06
0.000476546 -0.000461031 7.06394e-06
-0.000461031 -0.000159277 3.80501e-09
7.06394e-06 3.80501e-09 -0.000540762
0.00259719 -0.000983591 1.61065e-05
-0.000983591 0.00075536 3.18065e-07
1.61065e-05 3.18065e-07 0.00023658
0.00232289 -0.00086105 -9.49824e-07
-0.00086105 0.000284469 2.20559e-06
-9.49824e-07 2.20559e-06 4.28049e-05
0.000296845 -3.10943e-05 -9.97937e-07
-3.10943e-05 -5.36398e-05 4.82564e-08
-9.97937e-07 4.82564e-08 -0.000203646
0.00100314 -0.000114134 -9.46763e-07
-0.000114134 0.000407178 3.43402e-06
-9.46763e-07 3.43402e-06 0.000169596
0.00156818 -0.000680386 -2.17173e-06
-0.000680386 0.000441176 1.85183e-06
-2.17173e-06 1.85183e-06 1.64641e-05
0.000142008 -0.000194429 -8.00789e-07
-0.000194429 -2.67548e-05 1.02805e-06
-8.00789e-07 1.02805e-06 -0.000615404
0.00122979 -0.000118482 1.31015e-06
-0.000118482 0.000452762 5.68902e-06
1.31015e-06 5.68902e-06 0.000198566
0.00265941 -0.000313455 -6.43441e-06
-0.000313455 0.0001069 2.06838e-07
-6.43441e-06 2.06838e-07 0.000210714
0.00201502 -0.000488277 -1.62504e-05
-0.000488277 -0.000287828 7.6469e-06
-1.62504e-05 7.6469e-06 -6.72757e-05
0.00216555 -0.000783756 -6.67286e-06
-0.000783756 5.81461e-05 3.66686e-07
-6.67286e-06 3.66686e-07 -0.000115693
0.00426215 -0.00114175 -1.05127e-05
-0.00114175 0.00149568 -1.64135e-06
-1.05127e-05 -1.64135e-06 0.00115479
0.000288316 -0.000589953 -2.09857e-05
-0.000589953 -0.000297424 -6.82389e-06
-2.09857e-05 -6.82389e-06 -0.000718151
9.13532e-05 -2.84432e-05 3.64752e-07
-2.84432e-05 -0.000200617 -5.61313e-07
3.64752e-07 -5.61313e-07 -0.000308992
0.000726023 1.74742e-05 -2.68087e-06
1.74742e-05 0.000132628 9.55814e-06
-2.68087e-06 9.55814e-06 3.18201e-05
-0.00153474 -0.000107818 -5.16361e-06
-0.000107818 -0.00125618 -1.04366e-06
-5.16361e-06 -1.04366e-06 -0.0013315
0.00196356 -0.000268385 -1.82511e-05
-0.000268385 0.00100224 2.10218e-05
-1.82511e-05 2.10218e-05 0.000799309
0.000861807 -9.0589e-05 -4.91957e-06
-9.0589e-05 0.000298377 2.37213e-05
-4.91957e-06 2.37213e-05 7.67618e-05
-0.00147587 -0.00011496 4.84262e-06
-0.00011496 -0.00057726 -6.18634e-07
4.84262e-06 -6.18634e-07 -0.0013129
0.000246563 -0.000755597 -1.76232e-05
-0.000755597 -2.11507e-05 5.91866e-06
-1.76232e-05 5.91866e-06 -0.000664174
0.00156374 0.0002073 -2.72454e-06
0.0002073 0.000739289 -6.74335e-06
-2.72454e-06 -6.74335e-06 0.000528985
-0.000317473 9.21462e-05 -4.38021e-06
9.21462e-05 -0.00045489 -2.32042e-06
-4.38021e-06 -2.32042e-06 -0.000681181
0.00250811 0.000325085 2.45087e-06
0.000325085 9.63977e-07 1.18206e-06
2.45087e-06 1.18206e-06 9.15187e-05
0.0025178 0.000579173 1.30704e-05
0.000579173 0.000228204 5.97309e-06
1.30704e-05 5.97309e-06 0.000149656
0.00211457 0.000727605 7.75588e-06
0.000727605 0.000249079 3.08245e-06
7.75588e-06 3.08245e-06 -7.29778e-05
0.00156383 0.000488051 -1.78317e-06
0.000488051 0.000454777 1.52469e-07
-1.78317e-06 1.52469e-07 0.000122777
0.00168447 0.000689569 9.00509e-07
0.000689569 0.000329549 1.87503e-06
9.00509e-07 1.87503e-06 -9.47478e-05
0.00194029 0.000277905 4.90983e-07
0.000277905 0.000971977 -2.40378e-07
4.90983e-07 -2.40378e-07 0.000750477
0.0027095 0.000401319 4.70879e-06
0.000401319 0.000186068 2.49618e-06
4.70879e-06 2.49618e-06 0.000337785
0.00120815 0.000390762 -3.42004e-06
0.000390762 0.000398202 2.4299e-06
-3.42004e-06 2.4299e-06 0.000110408
0.00168539 0.000594407 3.28577e-06
0.000594407 0.00046644 -1.87251e-07
3.28577e-06 -1.87251e-07 5.63976e-05
0.00224697 0.000750169 -3.2185e-06
0.000750169 0.000176358 -3.49982e-06
-3.2185e-06 -3.49982e-06 -2.33255e-05
0.00180246 0.000738275 -4.45313e-06
0.000738275 0.000335648 5.12178e-06
-4.45313e-06 5.12178e-06 -8.41806e-05
0.00308427 0.00104419 4.40659e-05
0.00104419 -0.000484003 7.52523e-06
4.40659e-05 7.52523e-06 -0.000390897
0.000587704 0.00027071 -4.33729e-06
0.00027071 0.000206168 2.82101e-06
-4.33729e-06 2.82101e-06 -3.86156e-05
0.00286561 0.000737408 -8.38804e-05
0.000737408 0.000388286 -3.70382e-05
-8.38804e-05 -3.70382e-05 0.000345421
0.000773431 0.000399887 -6.96349e-06
0.000399887 -2.59481e-05 3.29852e-06
-6.96349e-06 3.29852e-06 -0.000338426
-1.28586e-05 0.000444188 9.79466e-07
0.000444188 -0.000539193 -1.39457e-05
9.79466e-07 -1.39457e-05 -0.000921815
0.0011377 0.000776957 -3.45184e-05
0.000776957 -0.000228185 -1.08825e-05
-3.45184e-05 -1.08825e-05 -0.000482321
0.0143959 0.000375191 -0.000465482
0.000375191 0.00232242 -6.09069e-05
-0.000465482 -6.09069e-05 0.00174448
0.00390243 0.00162198 -4.44295e-05
0.00162198 -0.00168113 -7.72106e-05
-4.44295e-05 -7.72106e-05 -0.000595696
0.000179781 0.00117694 6.6624e-06
0.00117694 -0.000918014 -1.05512e-07
6.6624e-06 -1.05512e-07 -0.00117148
0.00132026 -0.00205275 0.00139056
-0.00205275 0.00159587 0.000295898
0.00139056 0.000295898 -0.00153411
0.020566 -0.00791503 -2.80248e-05
-0.00791503 0.00763704 7.95319e-05
-2.80248e-05 7.95319e-05 0.00566539
-0.00021196 0.000107667 7.81609e-06
0.000107667 -0.000293415 2.18144e-06
7.81609e-06 2.18144e-06 -0.000393096
0.00100545 0.000117859 -2.37097e-07
0.000117859 0.000422257 -2.6117e-06
-2.37097e-07 -2.6117e-06 0.000342049
0.00207117 0.000258498 8.46965e-07
0.000258498 0.00109653 -4.29252e-07
8.46965e-07 -4.29252e-07 0.000981118
0.000500231 -5.57723e-05 -8.37464e-07
-5.57723e-05 6.65871e-05 -2.74055e-06
-8.37464e-07 -2.74055e-06 -6.30904e-05
0.000347152 6.4259e-05 -1.20494e-06
6.4259e-05 -4.55909e-05 -2.91769e-06
-1.20494e-06 -2.91769e-06 -0.000186984
0.000797928 -1.75434e-05 -8.24207e-08
-1.75434e-05 0.000246868 -9.63033e-07
-8.24207e-08 -9.63033e-07 9.88803e-05
0.000737101 7.19775e-05 -4.21807e-06
7.19775e-05 0.000179462 1.00195e-05
-4.21807e-06 1.00195e-05 7.67366e-05
0.000249838 7.46081e-05 3.30416e-06
7.46081e-05 -0.000131676 9.51019e-06
3.30416e-06 9.51019e-06 -0.000184311
0.000705013 0.000136963 -1.53829e-06
0.000136963 0.00020547 -4.4606e-07
-1.53829e-06 -4.4606e-07 3.42485e-05
0.000413734 -8.64589e-06 4.34215e-07
-8.64589e-06 -6.38089e-06 9.71046e-07
4.34215e-07 9.71046e-07 -0.00013299
0.000701117 5.00601e-05 -6.19952e-07
5.00601e-05 0.000188549 -1.44958e-08
-6.19952e-07 -1.44958e-08 2.58116e-05
0.000390139 8.5229e-05 -1.30332e-06
8.5229e-05 -2.32918e-05 -1.14883e-06
-1.30332e-06 -1.14883e-06 -7.40863e-05
0.000673191 0.000113067 -1.4385e-06
0.000113067 0.000149568 -1.83356e-07
-1.4385e-06 -1.83356e-07 7.32375e-06
0.00173286 0.000208811 -1.33858e-06
0.000208811 0.000834421 -1.14296e-06
-1.33858e-06 -1.14296e-06 0.000651884
0.000270576 0.00010063 5.02378e-07
0.00010063 -2.70756e-05 -3.38075e-06
5.02378e-07 -3.38075e-06 -0.000183248
0.000918793 0.000107737 3.19006e-06
0.000107737 0.000324383 -2.30219e-08
3.19006e-06 -2.30219e-08 0.000161291
0.000423562 -1.88801e-05 1.34638e-06
-1.88801e-05 -1.15691e-06 1.55428e-07
1.34638e-06 1.55428e-07 -0.000159352
0.000346706 -7.10872e-05 -9.16881e-07
-7.10872e-05 -4.97899e-05 2.23984e-06
-9.16881e-07 2.23984e-06 -0.000181185
0.000733495 -3.21376e-05 -8.42378e-07
-3.21376e-05 0.000207367 -8.07172e-07
-8.42378e-07 -8.07172e-07 4.42568e-05
0.00120956 1.49432e-06 2.67056e-07
1.49432e-06 0.000495569 -9.7218e-06
2.67056e-07 -9.7218e-06 0.00034047
0.000694283 -4.57388e-05 -1.2141e-06
-4.57388e-05 0.000220319 -8.46306e-07
-1.2141e-06 -8.46306e-07 6.49737e-05
0.000767736 -6.56983e-05 1.90499e-06
-6.56983e-05 0.000244196 -6.71389e-07
1.90499e-06 -6.71389e-07 8.38837e-05
0.00066178 -0.00012229 -1.93729e-06
-0.00012229 0.000152102 2.66817e-06
-1.93729e-06 2.66817e-06 2.1253e-05
0.000302748 -2.40875e-05 1.26019e-07
-2.40875e-05 -7.7535e-05 1.12393e-06
1.26019e-07 1.12393e-06 -0.000207903
0.00050478 -5.39897e-05 -1.89594e-06
-5.39897e-05 2.64274e-05 3.7449e-06
-1.89594e-06 3.7449e-06 -5.11582e-05
0.000503669 -3.67858e-05 1.92552e-06
-3.67858e-05 3.28297e-05 8.92989e-08
1.92552e-06 8.92989e-08 -4.88253e-05
0.000451114 3.18317e-06 2.66144e-06
3.18317e-06 -2.3789e-05 6.40273e-06
2.66144e-06 6.40273e-06 -4.83442e-05
0.000519601 4.97087e-05 -1.95528e-06
4.97087e-05 3.68379e-05 -3.44279e-06
-1.95528e-06 -3.44279e-06 -3.96783e-05
0.000412097 3.07823e-05 3.80142e-07
3.07823e-05 -4.93977e-05 7.1688e-08
3.80142e-07 7.1688e-08 -7.35043e-05
0.00253023 4.15763e-06 4.58869e-06
4.15763e-06 0.00125837 5.37305e-06
4.58869e-06 5.37305e-06 0.00127098
0.000477861 3.71288e-05 -3.49636e-06
3.71288e-05 -1.32998e-05 -7.12128e-06
-3.49636e-06 -7.12128e-06 -3.77474e-05
0.00170475 -5.71353e-06 -3.03192e-06
-5.71353e-06 0.000739141 1.60278e-07
-3.03192e-06 1.60278e-07 0.000747426
0.000801988 -1.16451e-05 5.0327e-07
-1.16451e-05 0.000166018 -2.30121e-06
5.0327e-07 -2.30121e-06 0.000171599
0.000453332 3.21386e-06 -3.5819e-07
3.21386e-06 -2.52501e-05 -1.76403e-06
-3.5819e-07 -1.76403e-06 -6.62185e-05
0.000542372 -3.70997e-05 8.00263e-08
-3.70997e-05 3.61807e-05 -1.24939e-09
8.00263e-08 -1.24939e-09 -1.45268e-05
0.000528393 1.24748e-05 7.71684e-07
1.24748e-05 -4.85835e-06 -3.36538e-06
7.71684e-07 -3.36538e-06 -1.54198e-05
0.000478653 -3.5773e-05 -1.49823e-06
-3.5773e-05 -1.07629e-05 5.4953e-07
-1.49823e-06 5.4953e-07 -6.02015e-05
0.000799691 2.74665e-05 -1.74759e-07
2.74665e-05 0.000168019 -7.21198e-07
-1.74759e-07 -7.21198e-07 0.000156744
0.00200758 5.16331e-05 6.53835e-06
5.16331e-05 0.000934136 -4.5441e-06
6.53835e-06 -4.5441e-06 0.000947875
0.000464919 3.3032e-05 8.91072e-07
3.3032e-05 -3.62199e-05 3.68899e-06
8.91072e-07 3.68899e-06 -5.35258e-05
0.00228449 7.51527e-05 -5.91992e-06
7.51527e-05 0.00111693 1.14161e-06
-5.91992e-06 1.14161e-06 0.00112551
0.00249743 0.000102865 -2.94823e-06
0.000102865 0.00125913 5.48268e-06
-2.94823e-06 5.48268e-06 0.00126125
0.00228522 0.000170708 -3.22014e-06
0.000170708 -4.66718e-05 -8.79142e-07
-3.22014e-06 -8.79142e-07 1.30625e-05
0.00210489 -6.56697e-06 1.66223e-06
-6.56697e-06 -6.60147e-05 5.24304e-08
1.66223e-06 5.24304e-08 -7.17228e-06
0.00201251 6.35742e-05 -5.40376e-06
6.35742e-05 -0.000210528 2.61012e-06
-5.40376e-06 2.61012e-06 -0.000142808
0.00254551 0.000571286 8.8798e-05
0.000571286 -0.00135071 1.90336e-05
8.8798e-05 1.90336e-05 -0.000696016
0.00233868 -3.0663e-05 -5.53831e-07
-3.0663e-05 -7.34946e-05 -2.70551e-06
-5.53831e-07 -2.70551e-06 2.37542e-05
0.0021995 6.35155e-05 6.91911e-07
6.35155e-05 0.000107289 -9.20071e-06
6.91911e-07 -9.20071e-06 0.000241977
0.00327021 -3.95514e-05 -2.48426e-05
-3.95514e-05 0.000862674 4.22624e-07
-2.48426e-05 4.22624e-07 0.000883549
0.00318361 7.60905e-05 -1.34794e-05
7.60905e-05 -0.00181189 -3.20318e-05
-1.34794e-05 -3.20318e-05 -0.000819877
0.00259168 0.000198977 0.000119846
0.000198977 -0.000756566 5.14153e-05
0.000119846 5.14153e-05 -0.00025708
0.00058907 8.65233e-05 -4.16633e-07
8.65233e-05 0.000104787 -6.88228e-07
-4.16633e-07 -6.88228e-07 1.30475e-05
0.000579281 -3.5381e-06 5.02655e-07
-3.5381e-06 0.000109004 -1.13058e-07
5.02655e-07 -1.13058e-07 8.59507e-06
0.000365795 -9.16567e-05 -6.23504e-06
-9.16567e-05 -1.2556e-05 4.90638e-07
-6.23504e-06 4.90638e-07 -0.000127432
0.000440023 -5.3363e-05 -3.91825e-06
-5.3363e-05 3.94019e-05 2.23588e-06
-3.91825e-06 2.23588e-06 -7.72434e-05
0.00229267 -0.00018536 -3.36641e-06
-0.00018536 -0.000132744 2.39778e-07
-3.36641e-06 2.39778e-07 -1.96361e-05
0.00225282 -0.000448384 1.07984e-06
-0.000448384 -0.000140112 -2.45428e-06
1.07984e-06 -2.45428e-06 -2.31361e-05
0.002227 -0.000639391 -3.55834e-06
-0.000639391 -1.59558e-05 7.58139e-07
-3.55834e-06 7.58139e-07 -5.44087e-05
0.00358379 -0.000814592 1.54154e-05
-0.000814592 0.00162307 1.28768e-05
1.54154e-05 1.28768e-05 0.00117756
0.000475124 -0.000755776 -1.64544e-06
-0.000755776 -0.000429613 -9.48258e-07
-1.64544e-06 -9.48258e-07 -0.000903618
0.00218506 -0.000848883 7.8525e-07
-0.000848883 0.000224188 -2.75831e-06
7.8525e-07 -2.75831e-06 -2.44417e-05
0.0011337 -0.000684172 1.64683e-05
-0.000684172 0.000168057 -1.69155e-05
1.64683e-05 -1.69155e-05 -0.0002951
0.00366881 -0.000301085 9.19424e-06
-0.000301085 0.00181541 -3.42121e-06
9.19424e-06 -3.42121e-06 0.00142586
-8.77325e-06 -1.98723e-05 -5.48098e-06
-1.98723e-05 -0.000379038 5.30103e-06
-5.48098e-06 5.30103e-06 -0.000581382
0.000636418 -5.18275e-05 3.53896e-06
-5.18275e-05 0.000131617 -4.78691e-07
3.53896e-06 -4.78691e-07 4.07671e-05
0.000595814 -0.000126599 -2.97728e-06
-0.000126599 0.00016662 -1.12846e-05
-2.97728e-06 -1.12846e-05 -7.5107e-05
0.000497135 -3.04445e-05 4.99359e-06
-3.04445e-05 7.13582e-05 -5.52539e-07
4.99359e-06 -5.52539e-07 -7.57499e-05
0.000617133 1.38411e-06 6.47171e-07
1.38411e-06 0.000148913 2.04959e-06
6.47171e-07 2.04959e-06 3.56568e-05
0.000550968 -6.69097e-05 -7.6506e-06
-6.69097e-05 3.58201e-05 -2.90967e-08
-7.6506e-06 -2.90967e-08 -5.13378e-05
0.00260306 -0.000295904 1.93195e-06
-0.000295904 8.40553e-05 1.34467e-06
1.93195e-06 1.34467e-06 0.00020418
0.000506442 -2.48661e-05 -6.26117e-07
-2.48661e-05 7.70466e-05 1.66086e-06
-6.26117e-07 1.66086e-06 -5.12997e-05
0.000840073 -3.85158e-05 6.32372e-06
-3.85158e-05 0.000216309 -1.02051e-07
6.32372e-06 -1.02051e-07 0.000105527
-0.00039487 -3.19733e-05 3.111e-06
-3.19733e-05 -0.000498914 1.37524e-07
3.111e-06 1.37524e-07 -0.000559386
0.00201649 -0.000500461 6.10688e-07
-0.000500461 -0.000311027 -1.22524e-06
6.10688e-07 -1.22524e-06 -0.000103982
0.00225501 -0.000790623 2.16687e-06
-0.000790623 0.000104156 -1.28661e-06
2.16687e-06 -1.28661e-06 -6.34202e-05
0.00185314 -0.00080687 -3.86152e-06
-0.00080687 0.000571533 1.1325e-07
-3.86152e-06 1.1325e-07 0.000113748
0.00257108 -0.000978976 -6.12068e-06
-0.000978976 0.000573075 1.72989e-06
-6.12068e-06 1.72989e-06 0.000250237
0.00143407 -0.000148565 2.20948e-06
-0.000148565 0.000653786 -2.11202e-06
2.20948e-06 -2.11202e-06 0.000462105
0.000229842 -3.23807e-05 6.91993e-06
-3.23807e-05 -0.000119332 7.86362e-06
6.91993e-06 7.86362e-06 -0.00033326
0.00177073 -0.000970711 2.70023e-06
-0.000970711 0.000901724 -2.73224e-06
2.70023e-06 -2.73224e-06 0.000191138
0.000979517 -0.000373458 -6.39191e-06
-0.000373458 0.000405514 -1.03688e-06
-6.39191e-06 -1.03688e-06 -8.81591e-05
0.00332829 -0.000431191 -4.09776e-05
-0.000431191 0.00041282 3.08525e-06
-4.09776e-05 3.08525e-06 0.000664078
0.0025422 -0.000649527 -4.14736e-05
-0.000649527 0.00018697 1.35392e-05
-4.14736e-05 1.35392e-05 0.000247751
0.00249396 -0.00091901 2.12765e-06
-0.00091901 0.000419416 -6.75481e-06
2.12765e-06 -6.75481e-06 0.000107908
0.00293125 -0.000969308 1.02687e-06
-0.000969308 0.000981078 4.33125e-06
1.02687e-06 4.33125e-06 0.000650199
0.000163271 -4.89856e-05 -1.8938e-06
-4.89856e-05 -8.33728e-05 -7.86527e-06
-1.8938e-06 -7.86527e-06 -0.000206091
0.000499581 -0.000125881 -1.00908e-05
-0.000125881 7.21931e-05 -6.02032e-06
-1.00908e-05 -6.02032e-06 -0.000100113
0.000104372 -0.000175382 -5.64522e-06
-0.000175382 9.85085e-05 4.66419e-05
-5.64522e-06 4.66419e-05 -0.000221587
-0.000757466 -0.000777631 -3.85685e-06
-0.000777631 8.70537e-05 -2.71269e-05
-3.85685e-06 -2.71269e-05 -0.000937827
0.00240799 -0.000467801 5.39421e-05
-0.000467801 -0.00509258 -1.44397e-05
5.39421e-05 -1.44397e-05 -0.00513363
0.00222116 0.00026708 -4.37693e-07
0.00026708 0.00112409 -4.33184e-06
-4.37693e-07 -4.33184e-06 0.000906322
0.00118674 0.000338545 -7.28334e-07
0.000338545 0.000374491 -8.08736e-07
-7.28334e-07 -8.08736e-07 0.000108383
0.00191192 0.000330102 6.00835e-05
0.000330102 -0.000255071 1.84016e-05
6.00835e-05 1.84016e-05 -8.11389e-05
0.00254116 0.000759609 2.38185e-05
0.000759609 0.000349027 9.62229e-06
2.38185e-05 9.62229e-06 0.000159779
0.00213481 0.000780439 7.8393e-06
0.000780439 0.000534108 1.07277e-05
7.8393e-06 1.07277e-05 0.000101473
0.00122051 0.000543854 5.69314e-06
0.000543854 0.000225938 6.14142e-06
5.69314e-06 6.14142e-06 -0.000187002
0.00534105 0.00134185 0.000118722
0.00134185 0.000386352 3.82064e-05
0.000118722 3.82064e-05 0.000274494
0.00155538 0.000308601 5.18528e-06
0.000308601 0.000772539 -9.1381e-08
5.18528e-06 -9.1381e-08 0.000539069
0.00260683 0.000694188 -2.25553e-05
0.000694188 0.000237844 7.10189e-07
-2.25553e-05 7.10189e-07 0.000225335
0.000922094 0.000418907 -4.41894e-06
0.000418907 0.000102043 3.32218e-06
-4.41894e-06 3.32218e-06 -0.00022044
0.00143914 0.000632937 9.63708e-07
0.000632937 0.000301798 -6.20996e-06
9.63708e-07 -6.20996e-06 -0.000118435
0.00215527 0.000864291 -1.1328e-05
0.000864291 0.000315734 -4.72997e-07
-1.1328e-05 -4.72997e-07 3.17108e-05
0.00455411 -0.000648717 -0.000161529
-0.000648717 -0.00454437 -8.00887e-05
-0.000161529 -8.00887e-05 -0.00544926
0.0071011 0.001658 -0.000131866
0.001658 -0.00014887 -6.08974e-05
-0.000131866 -6.08974e-05 0.000691572
0.000964285 0.00116478 -2.94868e-06
0.00116478 -0.000462772 6.59062e-06
-2.94868e-06 6.59062e-06 -0.000814326
0.000342538 -0.00183193 0.000501777
-0.00183193 0.00270583 0.00020195
0.000501777 0.00020195 -0.000137424
0.0123201 -0.00798602 -0.000458356
-0.00798602 0.00572231 -0.000420678
-0.000458356 -0.000420678 0.00360384
0.000931855 0.000265309 -1.55995e-05
0.000265309 0.000309767 7.04295e-07
-1.55995e-05 7.04295e-07 0.000100772
0.00104387 0.000543631 0.000703418
0.000543631 0.0039527 7.33477e-05
0.000703418 7.33477e-05 0.0020082
0.0032628 -0.00280367 -0.000176129
-0.00280367 0.0053582 -0.000227439
-0.000176129 -0.000227439 0.000537064
0.00288711 0.00108852 -5.14432e-05
0.00108852 0.000517303 -1.29299e-05
-5.14432e-05 -1.29299e-05 0.000347595
0.000787193 0.000330839 -2.57094e-05
0.000330839 3.17603e-05 -4.20206e-06
-2.57094e-05 -4.20206e-06 -0.000250928
0.000696966 0.00064608 -2.91235e-05
0.00064608 -4.6963e-05 -2.61546e-05
-2.91235e-05 -2.61546e-05 -0.000401537
-2.21149e-05 0.00108769 5.07764e-05
0.00108769 -0.000766618 9.45462e-05
5.07764e-05 9.45462e-05 -0.00114007
0.0123684 0.00229623 5.28404e-05
0.00229623 0.00147898 -2.89584e-05
5.28404e-05 -2.89584e-05 0.000445529
0.00449542 0.00242874 -3.43017e-05
0.00242874 -9.3883e-05 -5.23999e-05
-3.43017e-05 -5.23999e-05 0.000287021
0.0141685 -0.00624671 0.000969507
-0.00624671 0.00433554 0.000514246
0.000969507 0.000514246 0.00112908
0.0124307 -0.00288824 -7.70543e-05
-0.00288824 0.00321108 0.000594002
-7.70543e-05 0.000594002 0.00182051
0.00042014 0.000104126 6.12484e-06
0.000104126 9.91966e-05 -2.74617e-06
6.12484e-06 -2.74617e-06 1.46089e-05
0.000190646 0.000126415 8.41585e-06
0.000126415 -4.11964e-05 8.86078e-07
8.41585e-06 8.86078e-07 -0.00014401
0.0019053 0.000290588 2.7589e-06
0.000290588 0.00101318 -8.51503e-07
2.7589e-06 -8.51503e-07 0.000841893
0.000576814 9.1612e-06 8.08052e-07
9.1612e-06 0.000119468 -4.41149e-07
8.08052e-07 -4.41149e-07 -2.26819e-05
0.00061895 6.83619e-05 -8.56309e-07
6.83619e-05 0.000130172 -1.99722e-06
-8.56309e-07 -1.99722e-06 -2.60119e-05
8.27829e-05 3.32854e-05 -1.86385e-06
3.32854e-05 -0.000197227 8.93563e-07
-1.86385e-06 8.93563e-07 -0.000346609
0.000679525 0.000108789 -7.62382e-06
0.000108789 0.000171389 2.01358e-06
-7.62382e-06 2.01358e-06 2.60718e-05
-0.000620059 5.09937e-05 -3.84142e-06
5.09937e-05 -0.000659328 6.13263e-07
-3.84142e-06 6.13263e-07 -0.000708571
0.000358067 -1.38625e-05 1.88146e-07
-1.38625e-05 -3.64365e-05 9.33222e-07
1.88146e-07 9.33222e-07 -0.000171802
0.00125143 0.000135046 1.68901e-06
0.000135046 0.000521159 5.36565e-08
1.68901e-06 5.36565e-08 0.000353704
0.000599837 5.59302e-05 2.03434e-07
5.59302e-05 0.000136407 2.09765e-07
2.03434e-07 2.09765e-07 -3.21172e-05
0.000746349 3.4623e-05 1.26412e-06
3.4623e-05 0.000224977 -4.50292e-07
1.26412e-06 -4.50292e-07 4.91726e-05
0.000353608 0.000103153 -4.55304e-07
0.000103153 2.3338e-05 -2.54497e-06
-4.55304e-07 -2.54497e-06 -0.000129553
0.00140718 0.000128907 -1.83885e-06
0.000128907 0.000643951 -3.10211e-06
-1.83885e-06 -3.10211e-06 0.000477432
-0.00034561 5.08056e-05 -5.74124e-06
5.08056e-05 -0.000287867 -5.84063e-06
-5.74124e-06 -5.84063e-06 -0.0004957
0.000516876 -8.55202e-05 1.59642e-07
-8.55202e-05 7.77426e-05 -6.57567e-07
1.59642e-07 -6.57567e-07 -8.91297e-05
0.000769113 -8.0128e-05 -1.03052e-06
-8.0128e-05 0.000246038 -4.86364e-07
-1.03052e-06 -4.86364e-07 6.92051e-05
0.00076932 -5.00074e-05 -2.15375e-07
-5.00074e-05 0.000243995 -5.82309e-07
-2.15375e-07 -5.82309e-07 6.9937e-05
0.000728656 -2.50844e-05 -3.5054e-06
-2.50844e-05 0.000181399 2.94398e-07
-3.5054e-06 2.94398e-07 4.38089e-05
0.00107564 7.66986e-07 -6.03705e-06
7.66986e-07 0.000464053 -5.24526e-06
-6.03705e-06 -5.24526e-06 0.000268684
0.000763827 -5.48115e-05 2.2755e-06
-5.48115e-05 0.000221076 -8.89601e-06
2.2755e-06 -8.89601e-06 8.58466e-05
-0.00124092 -3.68611e-06 -3.00304e-06
-3.68611e-06 -0.00101952 -6.09561e-06
-3.00304e-06 -6.09561e-06 -0.00113448
0.000472398 -4.46682e-05 1.80643e-06
-4.46682e-05 6.7093e-05 -1.88596e-06
1.80643e-06 -1.88596e-06 -0.000101579
0.000347049 -7.68991e-05 1.94227e-06
-7.68991e-05 -3.30738e-05 4.10951e-07
1.94227e-06 4.10951e-07 -0.000167368
0.00070037 -9.75899e-05 -1.22844e-06
-9.75899e-05 0.000206901 -9.86733e-08
-1.22844e-06 -9.86733e-08 5.7362e-05
0.000515587 -8.26417e-05 -1.36727e-06
-8.26417e-05 4.34887e-05 1.99343e-06
-1.36727e-06 1.99343e-06 -7.05678e-05
0.000421694 -7.83257e-05 3.40675e-06
-7.83257e-05 -4.19098e-06 7.10177e-07
3.40675e-06 7.10177e-07 -0.000141293
0.00054351 -0.00011201 2.51469e-08
-0.00011201 7.51706e-05 2.04598e-07
2.51469e-08 2.04598e-07 -5.43317e-05
0.00054174 -5.32255e-05 -2.03176e-06
-5.32255e-05 4.65837e-05 4.39116e-06
-2.03176e-06 4.39116e-06 -3.16191e-05
0.000396188 -1.06514e-05 9.9132e-07
-1.06514e-05 -4.44959e-06 -8.34366e-07
9.9132e-07 -8.34366e-07 -0.000146143
0.000497026 1.06749e-06 2.14581e-06
1.06749e-06 2.91766e-05 1.12645e-07
2.14581e-06 1.12645e-07 -5.30791e-05
0.0014493 -2.65394e-05 -8.62005e-06
-2.65394e-05 0.000592558 6.72479e-06
-8.62005e-06 6.72479e-06 0.000572052
0.000489491 6.52668e-05 -1.88827e-06
6.52668e-05 2.42496e-05 -3.34837e-06
-1.88827e-06 -3.34837e-06 -5.70665e-05
0.000874483 -1.48346e-05 -3.70312e-06
-1.48346e-05 0.000240013 7.28189e-07
-3.70312e-06 7.28189e-07 0.000217534
0.000780845 3.37952e-06 -2.97081e-06
3.37952e-06 0.00016755 4.84287e-06
-2.97081e-06 4.84287e-06 0.000172177
0.00040554 -1.53787e-05 3.06827e-06
-1.53787e-05 -5.41499e-05 -4.87896e-06
3.06827e-06 -4.87896e-06 -7.76171e-05
0.00255892 3.33522e-06 6.62926e-06
3.33522e-06 0.00127661 -1.28016e-08
6.62926e-06 -1.28016e-08 0.00128913
0.000890522 2.16157e-06 -8.30708e-06
2.16157e-06 0.00023183 -5.34249e-06
-8.30708e-06 -5.34249e-06 0.000235952
0.000491889 6.29612e-05 2.00687e-06
6.29612e-05 4.6781e-05 1.11438e-06
2.00687e-06 1.11438e-06 -5.10904e-05
0.000465375 5.06233e-05 -2.58079e-06
5.06233e-05 -6.98893e-06 -2.1897e-06
-2.58079e-06 -2.1897e-06 -5.28023e-05
0.00048713 -4.95483e-06 1.60091e-06
-4.95483e-06 7.00214e-06 1.13363e-07
1.60091e-06 1.13363e-07 -4.11671e-05
0.000490187 8.92041e-06 6.8481e-07
8.92041e-06 -2.7774e-05 -3.1106e-06
6.8481e-07 -3.1106e-06 -3.69284e-05
0.000557423 -6.0399e-05 -1.69556e-06
-6.0399e-05 5.31541e-05 2.25877e-06
-1.69556e-06 2.25877e-06 -1.79879e-06
0.000484196 1.3291e-05 7.94538e-08
1.3291e-05 -3.27999e-05 -7.14814e-07
7.94538e-08 -7.14814e-07 -4.31415e-05
0.00200424 3.58123e-05 4.46255e-06
3.58123e-05 0.000927883 -4.61563e-06
4.46255e-06 -4.61563e-06 0.000943796
0.00109253 3.52671e-05 -1.23277e-07
3.52671e-05 0.000353287 1.65523e-06
-1.23277e-07 1.65523e-06 0.000343189
0.00145663 4.45199e-05 -2.4459e-07
4.45199e-05 0.00058921 1.42425e-06
-2.4459e-07 1.42425e-06 0.000598242
0.00086484 4.80103e-05 -7.3041e-06
4.80103e-05 0.000223596 7.89099e-06
-7.3041e-06 7.89099e-06 0.000225463
0.000836976 0.000390522 8.14337e-05
0.000390522 -0.00217037 1.62023e-05
8.14337e-05 1.62023e-05 -0.00149663
0.00230362 -4.99398e-05 -4.41377e-06
-4.99398e-05 -6.26701e-05 5.70647e-06
-4.41377e-06 5.70647e-06 2.71248e-05
0.00220637 7.05049e-05 3.2223e-05
7.05049e-05 0.000139641 -1.34114e-05
3.2223e-05 -1.34114e-05 0.000254328
0.00262802 0.000348791 -4.9782e-05
0.000348791 -0.00170595 -3.31693e-05
-4.9782e-05 -3.31693e-05 -0.000483953
0.0023277 0.000111443 4.09766e-05
0.000111443 -0.000690478 -1.85319e-06
4.09766e-05 -1.85319e-06 -0.000307601
0.00258377 -4.90609e-05 3.33808e-06
-4.90609e-05 0.00036456 -9.20259e-06
3.33808e-06 -9.20259e-06 0.000413047
0.00468457 -0.000324404 -5.57087e-05
-0.000324404 0.00110794 -1.72146e-05
-5.57087e-05 -1.72146e-05 0.00120988
0.00291882 -0.000205381 2.54126e-05
-0.000205381 -0.000362067 1.01331e-05
2.54126e-05 1.01331e-05 0.000133807
0.0154181 -0.00080954 3.85006e-05
-0.00080954 0.00269878 -5.58676e-06
3.85006e-05 -5.58676e-06 0.00155969
0.015013 0.00515193 0.00133128
0.00515193 0.00588914 -0.000450737
0.00133128 -0.000450737 0.00320442
0.0175601 0.00598331 3.16961e-05
0.00598331 0.0113759 8.87482e-06
3.16961e-05 8.87482e-06 0.00883037
0.000178687 -9.8979e-05 -5.07973e-07
-9.8979e-05 -0.000132726 -6.11076e-07
-5.07973e-07 -6.11076e-07 -0.000242604
0.000553101 -8.53641e-06 1.49675e-06
-8.53641e-06 8.16996e-05 -1.29039e-07
1.49675e-06 -1.29039e-07 -1.04659e-05
0.000631359 -8.76756e-05 6.93988e-08
-8.76756e-05 0.000147765 3.36192e-06
6.93988e-08 3.36192e-06 4.08109e-05
0.000545098 -3.38336e-05 6.43772e-07
-3.38336e-05 8.88597e-05 5.03761e-07
6.43772e-07 5.03761e-07 -2.60561e-05
0.000906379 0.000105118 -4.98736e-06
0.000105118 0.000354079 7.16193e-07
-4.98736e-06 7.16193e-07 0.000218181
0.00042772 0.000124521 6.5616e-07
0.000124521 -1.18096e-05 8.21177e-06
6.5616e-07 8.21177e-06 -0.000130438
0.000974567 -1.08413e-05 2.65304e-06
-1.08413e-05 0.000376655 4.15772e-06
2.65304e-06 4.15772e-06 0.000239749
0.000504242 -2.84269e-05 -1.55211e-06
-2.84269e-05 6.04134e-05 1.40834e-06
-1.55211e-06 1.40834e-06 -5.2104e-05
0.00254291 -0.000279545 1.06975e-05
-0.000279545 4.19907e-05 -1.95799e-07
1.06975e-05 -1.95799e-07 0.00019248
0.00205262 -0.000522795 1.49485e-05
-0.000522795 -0.000326851 -7.28607e-06
1.49485e-05 -7.28607e-06 -0.000133305
0.00222568 -0.000788972 4.31912e-07
-0.000788972 8.39821e-05 1.72576e-06
4.31912e-07 1.72576e-06 -7.69864e-05
0.00208023 -0.000802167 1.74672e-05
-0.000802167 0.000671334 7.1948e-06
1.74672e-05 7.1948e-06 0.000240601
0.00190973 -0.000933147 -1.33753e-05
-0.000933147 0.000206051 4.0702e-06
-1.33753e-05 4.0702e-06 -0.000117303
0.00239658 -0.00105683 3.31882e-05
-0.00105683 0.00132368 -8.81681e-06
3.31882e-05 -8.81681e-06 0.000537323
0.00468771 -0.0007219 6.34633e-06
-0.0007219 0.00236038 3.54241e-06
6.34633e-06 3.54241e-06 0.00196718
0.000853533 -0.000196479 6.53563e-06
-0.000196479 0.000322148 -3.88877e-05
6.53563e-06 -3.88877e-05 4.46821e-05
0.000605855 -7.3437e-05 3.03935e-06
-7.3437e-05 5.44505e-05 1.10551e-06
3.03935e-06 1.10551e-06 -4.34333e-05
0.000812916 -8.20096e-05 9.1816e-06
-8.20096e-05 0.000231243 -1.67964e-05
9.1816e-06 -1.67964e-05 6.03196e-05
0.00109468 -5.06061e-05 3.55617e-06
-5.06061e-05 0.000434384 2.31418e-06
3.55617e-06 2.31418e-06 0.000295704
0.000739475 2.51697e-05 5.98768e-06
2.51697e-05 0.000216439 -4.02484e-06
5.98768e-06 -4.02484e-06 0.000180098
0.00238653 -0.000384772 -5.95241e-07
-0.000384772 -7.16568e-05 3.2217e-06
-5.95241e-07 3.2217e-06 0.000196239
0.000488662 -7.7047e-05 -3.07427e-06
-7.7047e-05 0.000107301 -1.20447e-07
-3.07427e-06 -1.20447e-07 -2.33486e-05
0.00111261 -0.000163608 -7.3842e-06
-0.000163608 0.000432295 5.10282e-06
-7.3842e-06 5.10282e-06 0.000279768
0.00174758 -0.000607692 7.03792e-06
-0.000607692 -0.000276904 -3.33767e-06
7.03792e-06 -3.33767e-06 -0.000174821
0.00177899 -0.000816952 1.1594e-06
-0.000816952 1.73475e-05 -2.22165e-07
1.1594e-06 -2.22165e-07 -0.000225861
0.000868896 -0.000732511 -5.8997e-07
-0.000732511 -0.00019637 -3.77638e-06
-5.8997e-07 -3.77638e-06 -0.000477969
0.00164937 -0.000334204 4.39056e-07
-0.000334204 0.000922881 -2.37918e-05
4.39056e-07 -2.37918e-05 0.000558324
0.00160257 -0.000637984 3.53348e-06
-0.000637984 0.00123028 3.37099e-06
3.53348e-06 3.37099e-06 0.000413363
0.00485789 -0.000763259 -4.98125e-05
-0.000763259 0.00113093 2.06114e-05
-4.98125e-05 2.06114e-05 0.00131798
0.00420423 -0.000944 -5.0177e-05
-0.000944 0.00136755 1.44885e-05
-5.0177e-05 1.44885e-05 0.0011841
0.00206061 -0.000936755 6.18574e-06
-0.000936755 0.000271542 -2.06376e-06
6.18574e-06 -2.06376e-06 1.48793e-05
-0.000637876 -0.00044611 -7.39523e-06
-0.00044611 -0.000757242 1.62745e-05
-7.39523e-06 1.62745e-05 -0.000900815
0.000299051 -0.000135226 1.29909e-06
-0.000135226 3.23476e-05 9.21946e-06
1.29909e-06 9.21946e-06 -0.000187854
0.00037902 -0.000172563 5.33672e-06
-0.000172563 0.000139011 1.01799e-07
5.33672e-06 1.01799e-07 -0.000113308
0.00188416 -0.000256591 -5.27575e-06
-0.000256591 0.00137625 -2.27988e-05
-5.27575e-06 -2.27988e-05 0.00071725
-0.00660524 -0.000340654 0.00052306
-0.000340654 -0.00436163 -2.39815e-05
0.00052306 -2.39815e-05 -0.00380901
0.0115548 -0.000325973 6.27629e-05
-0.000325973 0.00139822 1.59349e-05
6.27629e-05 1.59349e-05 0.00136791
0.00246449 0.000332551 8.86133e-06
0.000332551 0.0012774 -8.33712e-06
8.86133e-06 -8.33712e-06 0.0010722
0.00149896 0.000488326 -3.29907e-06
0.000488326 0.000483903 3.73195e-06
-3.29907e-06 3.73195e-06 0.000140609
0.00282195 0.000653313 9.6556e-05
0.000653313 0.000380444 4.14619e-05
9.6556e-05 4.14619e-05 0.000384988
0.00296298 0.000940328 2.29827e-05
0.000940328 0.000746135 9.07934e-06
2.29827e-05 9.07934e-06 0.000441641
0.00289507 0.000818164 1.60749e-05
0.000818164 0.00113922 4.33084e-06
1.60749e-05 4.33084e-06 0.000684654
0.0154399 0.000710212 7.88638e-05
0.000710212 0.00305918 -4.28018e-05
7.88638e-05 -4.28018e-05 0.00227642
0.00858569 0.0021715 -0.00020587
0.0021715 -0.000332385 -5.30833e-06
-0.00020587 -5.30833e-06 0.000713725
0.00207157 0.00120184 6.63717e-06
0.00120184 0.000237108 -3.056e-05
6.63717e-06 -3.056e-05 -0.000231664
0.0129146 -0.00398139 -0.000464982
-0.00398139 0.005495 -1.03953e-05
-0.000464982 -1.03953e-05 0.00299498
0.00237357 -0.00827969 -0.00228192
-0.00827969 0.00362952 -0.00144722
-0.00228192 -0.00144722 0.00104396
0.00104789 0.00031226 1.62355e-06
0.00031226 0.000440236 -6.59976e-07
1.62355e-06 -6.59976e-07 0.000200931
-0.00182887 -0.00233974 0.000439515
-0.00233974 -0.00267823 7.39781e-05
0.000439515 7.39781e-05 -0.00437546
-0.0027158 -0.00212048 -0.000468466
-0.00212048 0.00510218 -0.000194818
-0.000468466 -0.000194818 3.99215e-05
0.00337329 0.00104014 -1.61699e-05
0.00104014 0.000742649 1.55161e-06
-1.61699e-05 1.55161e-06 0.000616491
0.000830947 0.000403761 -8.02502e-06
0.000403761 0.000111274 8.01442e-06
-8.02502e-06 8.01442e-06 -0.000218028
0.00122202 0.000751762 5.87358e-06
0.000751762 0.000231169 1.92072e-06
5.87358e-06 1.92072e-06 -0.000159376
0.0013001 0.0010887 5.13577e-05
0.0010887 0.000162989 3.34242e-05
5.13577e-05 3.34242e-05 -0.000117889
0.0137857 0.00238564 -0.000144227
0.00238564 0.00111754 -8.68895e-05
-0.000144227 -8.68895e-05 -0.000680965
0.00460705 0.00281108 -4.85489e-05
0.00281108 -0.000376999 -4.42555e-05
-4.85489e-05 -4.42555e-05 0.000292392
0.0169584 -0.00476728 0.000514578
-0.00476728 0.00685954 -1.12286e-05
0.000514578 -1.12286e-05 0.00346658
0.0148101 -0.00402445 0.000168437
-0.00402445 0.00243293 0.000693265
0.000168437 0.000693265 0.000775026
0.0022338 0.000383616 -2.02558e-05
0.000383616 0.00112881 -1.25556e-05
-2.02558e-05 -1.25556e-05 0.000918929
-0.01045 0.00118688 -0.000143163
0.00118688 0.00341159 -0.000136084
-0.000143163 -0.000136084 -0.00283988
0.00479931 0.000808898 -0.000354844
0.000808898 0.00381217 -0.000472597
-0.000354844 -0.000472597 -0.000850859
0.00281669 0.000795902 -2.83361e-05
0.000795902 0.000765966 -4.79974e-07
-2.83361e-05 -4.79974e-07 0.000723969
0.00222847 0.00077026 -6.8255e-05
0.00077026 0.000932101 -2.57776e-05
-6.8255e-05 -2.57776e-05 0.000558982
0.000817639 0.000767433 -9.89668e-05
0.000767433 0.000732772 -2.32417e-05
-9.89668e-05 -2.32417e-05 3.52952e-05
-0.00247594 0.00159055 -3.92078e-05
0.00159055 -0.00116703 -3.98202e-05
-3.92078e-05 -3.98202e-05 -0.0013807
0.00016386 0.0028313 0.000362926
0.0028313 -0.00204614 0.000128945
0.000362926 0.000128945 -0.00454537
0.0184744 -0.00579071 0.000231757
-0.00579071 0.00918348 0.000676386
0.000231757 0.000676386 0.00523703
0.00862479 -0.00102535 -0.000164809
-0.00102535 -0.00203507 -0.000142938
-0.000164809 -0.000142938 -0.000978122
-0.000794289 0.000110803 3.8351e-06
0.000110803 -0.000597017 -7.50953e-06
3.8351e-06 -7.50953e-06 -0.000724795
0.0015385 0.000273919 1.07974e-05
0.000273919 0.000773412 2.5616e-06
1.07974e-05 2.5616e-06 0.000607913
-0.000742334 5.12332e-05 -8.11669e-07
5.12332e-05 -0.00052707 -1.06118e-06
-8.11669e-07 -1.06118e-06 -0.000683659
0.000333722 5.29328e-05 1.71863e-06
5.29328e-05 -5.16586e-05 -2.38782e-07
1.71863e-06 -2.38782e-07 -0.000186317
0.000976297 8.794e-05 -1.11656e-06
8.794e-05 0.000376744 -1.67878e-06
-1.11656e-06 -1.67878e-06 0.00019414
0.000580703 1.08899e-05 -2.07285e-06
1.08899e-05 0.00013256 1.9457e-06
-2.07285e-06 1.9457e-06 -4.46963e-05
0.000551622 8.75368e-05 4.83987e-06
8.75368e-05 9.79175e-05 4.62745e-06
4.83987e-06 4.62745e-06 -7.04026e-05
-0.000355201 5.67541e-05 -4.15054e-06
5.67541e-05 -0.000398114 7.49132e-07
-4.15054e-06 7.49132e-07 -0.000540272
0.00077526 4.45928e-05 1.41693e-07
4.45928e-05 0.000253178 -9.59095e-07
1.41693e-07 -9.59095e-07 7.54049e-05
0.000760078 8.43325e-05 7.81757e-07
8.43325e-05 0.000235821 -1.08172e-07
7.81757e-07 -1.08172e-07 7.80416e-05
0.000854549 -4.99287e-05 -9.77643e-07
-4.99287e-05 0.000292284 1.99012e-06
-9.77643e-07 1.99012e-06 0.000117391
-0.000902368 1.87994e-05 2.43754e-06
1.87994e-05 -0.000609638 3.44607e-07
2.43754e-06 3.44607e-07 -0.000812657
-0.000109241 4.09456e-05 -2.51051e-06
4.09456e-05 8.65258e-05 4.62994e-06
-2.51051e-06 4.62994e-06 -0.000246244
0.000622521 -3.72256e-05 -2.01251e-06
-3.72256e-05 0.000220694 -9.06739e-06
-2.01251e-06 -9.06739e-06 4.03303e-05
0.00116447 -2.32189e-05 -1.31358e-07
-2.32189e-05 0.000518865 -5.00141e-07
-1.31358e-07 -5.00141e-07 0.000319591
0.000795527 -7.88462e-05 -3.87612e-07
-7.88462e-05 0.000266489 -9.22069e-07
-3.87612e-07 -9.22069e-07 8.65842e-05
0.00033331 -7.55177e-05 3.98514e-06
-7.55177e-05 -7.51309e-05 6.46552e-06
3.98514e-06 6.46552e-06 -0.000202173
0.000815812 -8.64315e-05 6.97148e-07
-8.64315e-05 0.000285249 -1.39916e-06
6.97148e-07 -1.39916e-06 0.000101315
0.000723461 -5.77719e-05 -1.76128e-06
-5.77719e-05 0.000186645 6.02311e-08
-1.76128e-06 6.02311e-08 5.25412e-05
-0.000380204 -5.85685e-05 2.01644e-06
-5.85685e-05 -0.000479564 3.52385e-06
2.01644e-06 3.52385e-06 -0.000590686
0.000117661 -4.69263e-05 2.65388e-07
-4.69263e-05 -0.000139398 -2.06028e-06
2.65388e-07 -2.06028e-06 -0.000292811
0.000116974 -2.97063e-05 -6.92423e-06
-2.97063e-05 -0.000100631 -4.11852e-06
-6.92423e-06 -4.11852e-06 -0.000267439
2.54327e-05 -8.23211e-05 3.38075e-06
-8.23211e-05 -0.000195188 -4.49637e-06
3.38075e-06 -4.49637e-06 -0.000329548
0.00101534 -0.00011102 8.44242e-06
-0.00011102 0.000290606 -1.51846e-05
8.44242e-06 -1.51846e-05 0.000188543
0.000119253 -0.000115958 5.46808e-07
-0.000115958 -0.000292475 4.10873e-06
5.46808e-07 4.10873e-06 -0.000437732
-1.55349e-05 -5.52416e-05 -6.15381e-06
-5.52416e-05 -0.000226712 -2.63053e-06
-6.15381e-06 -2.63053e-06 -0.000389321
0.000674423 -5.87216e-05 1.16058e-06
-5.87216e-05 0.00018547 -9.97653e-07
1.16058e-06 -9.97653e-07 1.68942e-05
4.77558e-05 -3.68878e-05 1.39963e-06
-3.68878e-05 -0.000206059 -1.47291e-06
1.39963e-06 -1.47291e-06 -0.000368043
0.000684081 -0.000103512 3.67068e-08
-0.000103512 0.000200501 -1.75024e-07
3.67068e-08 -1.75024e-07 4.51076e-05
0.000472655 -2.40806e-05 1.21376e-06
-2.40806e-05 2.29231e-05 1.44299e-06
1.21376e-06 1.44299e-06 -9.55278e-05
0.000833272 -9.81846e-05 -1.50322e-06
-9.81846e-05 0.000282714 1.00466e-06
-1.50322e-06 1.00466e-06 0.000135569
0.000633725 -8.08346e-05 -8.96788e-07
-8.08346e-05 0.0001313 1.15732e-07
-8.96788e-07 1.15732e-07 7.44344e-06
0.0004285 3.17181e-05 -7.10083e-08
3.17181e-05 -2.51736e-05 3.99969e-06
-7.10083e-08 3.99969e-06 -0.000104198
0.000515456 -0.000104539 1.36383e-06
-0.000104539 5.19239e-05 -1.35477e-06
1.36383e-06 -1.35477e-06 -7.48662e-05
0.000520175 -3.62756e-05 -3.81755e-07
-3.62756e-05 2.99709e-05 1.1358e-07
-3.81755e-07 1.1358e-07 -4.56456e-05
0.00142385 9.16549e-06 -7.26823e-06
9.16549e-06 0.000569453 7.06664e-06
-7.26823e-06 7.06664e-06 0.000549109
0.000493503 -5.81296e-05 1.22588e-06
-5.81296e-05 2.21891e-05 -3.43297e-06
1.22588e-06 -3.43297e-06 -5.67898e-05
0.00087771 -1.53433e-05 -6.4566e-06
-1.53433e-05 0.000235557 8.00447e-07
-6.4566e-06 8.00447e-07 0.000213242
0.000761496 1.26224e-05 9.73757e-07
1.26224e-05 0.000146811 2.2092e-06
9.73757e-07 2.2092e-06 0.000150622
0.000436006 -1.36604e-05 2.37388e-06
-1.36604e-05 -3.71193e-05 -4.61391e-06
2.37388e-06 -4.61391e-06 -6.02141e-05
0.00254327 1.31342e-05 6.84737e-06
1.31342e-05 0.00126655 3.67621e-08
6.84737e-06 3.67621e-08 0.00127929
0.00256109 2.05589e-06 6.31998e-07
2.05589e-06 0.00127796 -5.0893e-06
6.31998e-07 -5.0893e-06 0.00129049
0.00102125 7.8629e-05 -8.45546e-07
7.8629e-05 0.000377172 1.16777e-06
-8.45546e-07 1.16777e-06 0.000275208
0.000516343 5.94667e-05 -1.88011e-06
5.94667e-05 2.90286e-05 -2.2481e-06
-1.88011e-06 -2.2481e-06 -2.18056e-05
0.000546388 -1.54629e-05 -8.1981e-08
-1.54629e-05 8.44146e-05 7.8615e-07
-8.1981e-08 7.8615e-07 -1.39342e-05
0.000491953 6.63293e-06 7.36204e-07
6.63293e-06 -2.69021e-05 -3.31379e-06
7.36204e-07 -3.31379e-06 -3.53872e-05
0.000470606 -1.32233e-05 8.73071e-07
-1.32233e-05 -4.7413e-06 -1.62015e-07
8.73071e-07 -1.62015e-07 -4.99479e-05
0.000545517 -5.79685e-05 -1.16949e-06
-5.79685e-05 4.63262e-05 2.17097e-06
-1.16949e-06 2.17097e-06 -4.09545e-06
0.000490453 7.24174e-06 -4.41787e-07
7.24174e-06 -2.80714e-05 -7.55919e-09
-4.41787e-07 -7.55919e-09 -3.71892e-05
0.00196476 2.17061e-05 -7.32423e-07
2.17061e-05 0.00090047 -4.68338e-06
-7.32423e-07 -4.68338e-06 0.000917839
0.00112756 2.35174e-05 -4.9786e-07
2.35174e-05 0.000372381 2.0803e-06
-4.9786e-07 2.0803e-06 0.000364852
0.00130601 2.89634e-05 -1.1721e-06
2.89634e-05 0.000488343 2.59684e-08
-1.1721e-06 2.59684e-08 0.000500956
0.000810428 3.46723e-05 -8.95081e-06
3.46723e-05 0.000182787 7.34915e-06
-8.95081e-06 7.34915e-06 0.000188845
-0.00887316 0.00113974 0.000486456
0.00113974 -0.0031562 -3.58398e-05
0.000486456 -3.58398e-05 -0.00578122
-0.00124302 0.000138981 0.0010283
0.000138981 0.00589131 -0.000262358
0.0010283 -0.000262358 0.00235838
0.00237741 0.000320441 -0.000160647
0.000320441 -0.00213406 -2.74502e-05
-0.000160647 -2.74502e-05 -0.000622158
0.0016558 1.99607e-05 1.59899e-05
1.99607e-05 -0.00100569 -3.16491e-05
1.59899e-05 -3.16491e-05 -0.000590279
0.00168846 -7.24038e-05 6.35363e-06
-7.24038e-05 -0.000261972 1.73369e-05
6.35363e-06 1.73369e-05 -0.000211064
-0.0012212 3.6264e-05 -9.11236e-05
3.6264e-05 -0.00151299 -2.50081e-05
-9.11236e-05 -2.50081e-05 -0.000531148
0.00382216 -0.000374298 3.5559e-06
-0.000374298 0.000445348 5.65767e-06
3.5559e-06 5.65767e-06 0.000570108
0.0119532 -7.06093e-05 0.000176618
-7.06093e-05 -0.000463947 -7.05489e-05
0.000176618 -7.05489e-05 -0.00124194
0.00101409 0.00341043 -1.90769e-06
0.00341043 0.00074273 -6.15652e-05
-1.90769e-06 -6.15652e-05 -0.00248358
0.0112941 0.00679543 -0.000480205
0.00679543 0.0078337 0.000244244
-0.000480205 0.000244244 0.00548995
0.0019134 -0.000719748 3.76301e-05
-0.000719748 -0.0020715 -4.05064e-05
3.76301e-05 -4.05064e-05 -0.00101979
0.0151787 -0.00214182 0.000211902
-0.00214182 0.0018858 -7.47655e-05
0.000211902 -7.47655e-05 0.000392711
0.0148058 0.00600345 0.000373535
0.00600345 0.00451651 -0.00052605
0.000373535 -0.00052605 0.00136855
0.0183784 0.00403401 -0.00031608
0.00403401 0.00536606 0.000260537
-0.00031608 0.000260537 0.00351422
0.000942588 0.000165458 -3.00952e-06
0.000165458 0.000379684 4.65023e-06
-3.00952e-06 4.65023e-06 0.000207291
0.000360796 3.66249e-05 3.32357e-07
3.66249e-05 -3.41898e-05 -1.03672e-06
3.32357e-07 -1.03672e-06 -0.000136579
0.00056571 -9.58549e-05 1.67892e-06
-9.58549e-05 9.90303e-05 1.39398e-06
1.67892e-06 1.39398e-06 1.16517e-06
0.000648496 1.23669e-05 6.91918e-06
1.23669e-05 0.00015809 -8.12746e-08
6.91918e-06 -8.12746e-08 3.80536e-05
0.000850053 8.61811e-05 2.34609e-06
8.61811e-05 0.000333496 1.39711e-06
2.34609e-06 1.39711e-06 0.000195185
0.000463619 4.5633e-06 -2.29286e-07
4.5633e-06 6.34364e-05 7.9334e-06
-2.29286e-07 7.9334e-06 -9.99862e-05
0.000748374 9.28926e-05 1.11798e-06
9.28926e-05 0.000215596 3.32804e-06
1.11798e-06 3.32804e-06 8.12845e-05
0.000464831 6.17824e-05 4.73613e-06
6.17824e-05 2.20591e-05 8.43635e-07
4.73613e-06 8.43635e-07 -0.000117934
0.000722728 -3.79689e-05 2.84416e-06
-3.79689e-05 0.000219423 -1.27641e-06
2.84416e-06 -1.27641e-06 8.3041e-05
0.000477005 -1.6217e-05 2.07136e-06
-1.6217e-05 3.2988e-05 -3.10768e-06
2.07136e-06 -3.10768e-06 -7.30533e-05
0.00140906 -0.000329335 3.21793e-05
-0.000329335 -0.000558328 -4.41734e-06
3.21793e-05 -4.41734e-06 -0.000290334
0.00114041 -0.000562968 3.16813e-05
-0.000562968 -0.000610393 -1.05496e-05
3.16813e-05 -1.05496e-05 -0.000476166
0.00103159 -0.000710133 3.08955e-06
-0.000710133 -0.000405681 1.85794e-06
3.08955e-06 1.85794e-06 -0.00057646
3.21281e-05 -0.000641576 -1.03422e-05
-0.000641576 -0.000645297 2.19504e-06
-1.03422e-05 2.19504e-06 -0.000912645
0.00311179 -0.000496539 8.80308e-06
-0.000496539 0.001918 3.40798e-05
8.80308e-06 3.40798e-05 0.00127763
-0.000155056 -0.000474556 -1.9243e-06
-0.000474556 -0.000159334 -4.72277e-06
-1.9243e-06 -4.72277e-06 -0.000634552
0.00140832 -0.000222955 5.0495e-06
-0.000222955 0.000606709 -1.81316e-06
5.0495e-06 -1.81316e-06 0.000478222
0.000700271 -4.55675e-05 -5.73808e-07
-4.55675e-05 0.000233063 3.35143e-06
-5.73808e-07 3.35143e-06 9.85122e-05
0.00237178 -0.000556464 1.00412e-05
-0.000556464 -0.000176575 -8.35936e-06
1.00412e-05 -8.35936e-06 6.61851e-05
0.000356144 -4.79717e-05 5.23952e-07
-4.79717e-05 7.22961e-05 1.68668e-06
5.23952e-07 1.68668e-06 -0.000160612
-0.000206959 -0.000171541 -8.72127e-07
-0.000171541 -0.000207703 -5.40032e-06
-8.72127e-07 -5.40032e-06 -0.000459963
0.00186266 -0.000745197 1.94333e-05
-0.000745197 3.78612e-05 -2.62466e-06
1.94333e-05 -2.62466e-06 -2.16557e-05
0.00187609 -0.000928538 -6.55457e-07
-0.000928538 9.63345e-05 3.5064e-06
-6.55457e-07 3.5064e-06 -9.49256e-05
0.000307561 -0.000681002 1.96324e-05
-0.000681002 -0.000198394 -1.38097e-05
1.96324e-05 -1.38097e-05 -0.000454729
0.00118131 -0.000348022 3.84358e-06
-0.000348022 0.000979633 -1.78898e-05
3.84358e-06 -1.78898e-05 0.000312169
0.00270729 -0.000912913 -6.06806e-05
-0.000912913 0.000421418 3.49595e-05
-6.06806e-05 3.49595e-05 0.000158437
0.000980369 -0.000662177 -3.61099e-05
-0.000662177 -0.000200394 7.26999e-06
-3.61099e-05 7.26999e-06 -0.000229953
0.000612155 -0.000645279 -7.45392e-05
-0.000645279 0.000354566 4.96272e-05
-7.45392e-05 4.96272e-05 -6.91932e-05
-0.00281177 -0.000259275 -6.88009e-06
-0.000259275 -0.00185909 1.11729e-05
-6.88009e-06 1.11729e-05 -0.00210215
-0.00101614 -5.26928e-05 3.38932e-06
-5.26928e-05 -0.000688492 9.00921e-06
3.38932e-06 9.00921e-06 -0.00096667
0.000541377 -6.93143e-05 8.83111e-06
-6.93143e-05 0.000344826 -1.31489e-05
8.83111e-06 -1.31489e-05 -2.85696e-05
-0.00226189 0.00119087 -0.000384776
0.00119087 0.00684193 1.89485e-05
-0.000384776 1.89485e-05 0.00224692
0.000396161 -0.00139933 -9.22505e-06
-0.00139933 0.00222109 1.58097e-05
-9.22505e-06 1.58097e-05 0.00143968
0.00228943 0.00102649 -0.000117072
0.00102649 -0.00513586 -3.27703e-05
-0.000117072 -3.27703e-05 -0.00538264
0.000208405 0.000240621 1.20795e-05
0.000240621 -3.92823e-05 -4.57387e-06
1.20795e-05 -4.57387e-06 -0.000273362
0.00150992 0.000554055 1.06137e-05
0.000554055 0.000554753 1.84454e-05
1.06137e-05 1.84454e-05 0.000164334
0.00349869 0.000925646 6.51871e-05
0.000925646 0.000798705 1.99497e-05
6.51871e-05 1.99497e-05 0.000708718
0.00165104 0.000826812 1.43559e-05
0.000826812 0.000480917 2.11933e-05
1.43559e-05 2.11933e-05 5.67495e-05
0.0123058 -0.00270096 0.000204119
-0.00270096 0.00451603 6.41207e-05
0.000204119 6.41207e-05 0.00362843
0.00371268 0.00124617 -0.000361517
0.00124617 -0.0041002 -6.61867e-05
-0.000361517 -6.61867e-05 -0.0058017
0.0051465 0.00267506 1.22499e-05
0.00267506 0.000203108 2.98974e-05
1.22499e-05 2.98974e-05 0.000617764
0.00230027 0.00104741 5.0288e-05
0.00104741 0.000886825 -1.5475e-05
5.0288e-05 -1.5475e-05 0.000666915
0.00625945 -0.00308104 -0.000379144
-0.00308104 0.0030538 -0.000357611
-0.000379144 -0.000357611 -7.94177e-05
-0.000406497 -0.00312232 -0.000628305
-0.00312232 0.005588 -0.000204338
-0.000628305 -0.000204338 0.000401614
0.0225532 -0.00511432 0.000662867
-0.00511432 0.00616501 0.000357955
0.000662867 0.000357955 0.00427421
0.000430363 0.000231921 1.68259e-05
0.000231921 7.49832e-05 -4.07734e-06
1.68259e-05 -4.07734e-06 -0.000127162
-0.00414155 0.000441434 -0.000177137
0.000441434 0.00527302 -3.57345e-05
-0.000177137 -3.57345e-05 -8.54079e-06
0.00545363 0.00110047 -0.000115445
0.00110047 0.00317575 -0.000165815
-0.000115445 -0.000165815 -0.00192772
0.00169483 0.000798189 1.13612e-05
0.000798189 0.000268905 3.61637e-06
1.13612e-05 3.61637e-06 0.000166581
0.000726671 0.000590232 1.18631e-05
0.000590232 0.00020917 4.27553e-06
1.18631e-05 4.27553e-06 -0.000173014
0.000675984 0.000888149 -5.21694e-05
0.000888149 0.000455427 -6.07327e-05
-5.21694e-05 -6.07327e-05 -0.000101384
0.00406694 0.00295738 2.5757e-05
0.00295738 0.00121312 2.62679e-05
2.5757e-05 2.62679e-05 0.000990503
0.0166625 0.00384102 5.11314e-05
0.00384102 0.00393714 1.39708e-05
5.11314e-05 1.39708e-05 0.00179484
0.00724212 -0.00351856 8.26697e-05
-0.00351856 0.00286827 -8.15921e-05
8.26697e-05 -8.15921e-05 -0.00166537
0.0148073 -0.0022081 -7.12315e-06
-0.0022081 0.00210649 -6.71431e-05
-7.12315e-06 -6.71431e-05 0.00332273
0.000797136 0.000439653 -1.45198e-05
0.000439653 0.000315554 -7.56494e-06
-1.45198e-05 -7.56494e-06 3.96001e-05
0.00199106 0.000206533 -0.000323124
0.000206533 0.0020643 -7.43239e-05
-0.000323124 -7.43239e-05 -0.00236625
0.000809667 0.000687727 -0.00011838
0.000687727 -0.000188196 -0.00016838
-0.00011838 -0.00016838 -0.00175198
-0.000678526 0.000277084 -3.80738e-06
0.000277084 -0.000168274 -2.04125e-05
-3.80738e-06 -2.04125e-05 -0.000416902
-0.000737816 0.000592035 -0.000180873
0.000592035 0.00100068 -8.79453e-06
-0.000180873 -8.79453e-06 0.000201289
0.0140748 0.00453205 9.78107e-05
0.00453205 0.00453608 -4.00415e-05
9.78107e-05 -4.00415e-05 0.000332455
-0.00233935 -0.00490575 4.2448e-06
-0.00490575 -0.000356215 0.000227494
4.2448e-06 0.000227494 -0.00496212
0.0115352 0.000371031 5.83049e-05
0.000371031 -0.00156306 -0.000319931
5.83049e-05 -0.000319931 0.00100146
0.000832519 0.000176999 -4.54209e-06
0.000176999 0.000302581 1.40481e-05
-4.54209e-06 1.40481e-05 0.000170417
0.000945878 0.000222085 -9.83394e-06
0.000222085 0.000507902 -5.39192e-06
-9.83394e-06 -5.39192e-06 0.000314955
-0.00045834 9.29905e-05 1.32456e-06
9.29905e-05 -0.000139244 1.11379e-07
1.32456e-06 1.11379e-07 -0.000436982
0.000637655 8.73729e-05 -1.77388e-06
8.73729e-05 0.000149873 -1.70154e-06
-1.77388e-06 -1.70154e-06 -1.52247e-05
0.0011117 -3.8721e-05 -1.9469e-06
-3.8721e-05 0.000461324 4.68892e-06
-1.9469e-06 4.68892e-06 0.00027759
0.000252317 7.19295e-05 2.52122e-06
7.19295e-05 -8.93738e-05 2.63532e-06
2.52122e-06 2.63532e-06 -0.000238958
-0.00102895 2.67769e-05 1.77493e-06
2.67769e-05 -0.000670243 2.95174e-06
1.77493e-06 2.95174e-06 -0.000873161
0.000704415 -2.68456e-05 1.2269e-06
-2.68456e-05 0.000199457 1.97144e-07
1.2269e-06 1.97144e-07 2.57348e-05
0.000563 2.11066e-05 1.78127e-07
2.11066e-05 0.000179075 -2.34799e-06
1.78127e-07 -2.34799e-06 1.96811e-06
9.31629e-06 2.33874e-05 1.82585e-06
2.33874e-05 0.000194547 2.94748e-06
1.82585e-06 2.94748e-06 -0.000165096
-0.000344689 5.62476e-05 -4.12698e-06
5.62476e-05 0.00016523 1.22463e-05
-4.12698e-06 1.22463e-05 -0.000315946
0.000294933 -7.20466e-07 -3.01756e-06
-7.20466e-07 0.000389996 -1.4664e-06
-3.01756e-06 -1.4664e-06 1.07453e-05
0.000946234 1.73094e-05 -1.67948e-06
1.73094e-05 0.00038982 -5.62595e-06
-1.67948e-06 -5.62595e-06 0.000230027
0.000682817 -0.000142541 2.34443e-06
-0.000142541 0.000187141 1.78009e-06
2.34443e-06 1.78009e-06 1.30182e-05
0.000429706 -3.51307e-05 1.06877e-06
-3.51307e-05 -8.37423e-06 2.88151e-06
1.06877e-06 2.88151e-06 -0.000135269
0.000380225 -9.18579e-05 8.8375e-07
-9.18579e-05 -5.04094e-06 1.18909e-05
8.8375e-07 1.18909e-05 -0.000105213
0.00018886 -3.88173e-05 2.48166e-06
-3.88173e-05 -7.89136e-05 3.45964e-06
2.48166e-06 3.45964e-06 -0.000229349
0.000579504 -4.56466e-05 3.14653e-08
-4.56466e-05 0.000136477 6.0909e-07
3.14653e-08 6.0909e-07 -1.37581e-05
0.000480443 -4.97922e-05 -7.40358e-08
-4.97922e-05 8.04356e-05 -2.11042e-06
-7.40358e-08 -2.11042e-06 -5.11607e-05
0.000315212 -5.20029e-05 -8.1734e-06
-5.20029e-05 -2.92558e-05 -4.76113e-06
-8.1734e-06 -4.76113e-06 -0.000163201
0.000517328 -7.31457e-05 9.32702e-06
-7.31457e-05 0.000260695 -6.72497e-06
9.32702e-06 -6.72497e-06 9.59241e-05
0.000475722 -0.000183639 8.45122e-07
-0.000183639 -0.00013546 3.86915e-06
8.45122e-07 3.86915e-06 -0.000225895
0.000619206 -0.00013556 -1.05719e-05
-0.00013556 7.06558e-05 -6.62857e-07
-1.05719e-05 -6.62857e-07 -4.01808e-05
0.000310735 -0.000173484 7.58971e-06
-0.000173484 -0.000134318 7.36288e-06
7.58971e-06 7.36288e-06 -0.000285536
0.00189276 -0.00049189 1.34502e-06
-0.00049189 0.00072635 2.0145e-05
1.34502e-06 2.0145e-05 0.000411662
0.00177262 -0.000235402 3.59851e-06
-0.000235402 0.000800172 -7.89078e-06
3.59851e-06 -7.89078e-06 0.000609253
-1.53526e-05 -0.000110998 -9.59333e-06
-0.000110998 -0.000331808 -5.71255e-06
-9.59333e-06 -5.71255e-06 -0.000457036
0.000532063 -7.71753e-05 -1.01861e-08
-7.71753e-05 8.19236e-05 -6.72915e-07
-1.01861e-08 -6.72915e-07 -7.90545e-05
-0.000186508 -4.86472e-05 -6.34501e-07
-4.86472e-05 -0.000336094 -2.85491e-06
-6.34501e-07 -2.85491e-06 -0.000522317
0.000948253 -7.17529e-05 -3.89684e-07
-7.17529e-05 0.000346536 1.54126e-06
-3.89684e-07 1.54126e-06 0.000178901
0.000734239 -0.000119707 -4.89019e-07
-0.000119707 0.000227178 5.15836e-07
-4.89019e-07 5.15836e-07 5.22409e-05
0.000535039 -6.03205e-05 8.84943e-07
-6.03205e-05 4.96525e-05 1.63417e-06
8.84943e-07 1.63417e-06 -7.13984e-05
0.0013416 -0.000178422 -1.85956e-06
-0.000178422 0.000628213 -3.80412e-07
-1.85956e-06 -3.80412e-07 0.0004483
0.000672562 -0.000101067 -5.00356e-07
-0.000101067 0.000148396 2.97369e-08
-5.00356e-07 2.97369e-08 2.38242e-05
0.000505799 9.27755e-06 -1.35048e-06
9.27755e-06 1.83665e-05 3.34099e-06
-1.35048e-06 3.34099e-06 -6.14532e-05
0.000722735 -0.000128267 9.06332e-07
-0.000128267 0.000187214 -2.03298e-06
9.06332e-07 -2.03298e-06 5.90982e-05
0.000590251 -5.25319e-05 -1.83484e-07
-5.25319e-05 7.16262e-05 1.68217e-07
-1.83484e-07 1.68217e-07 -6.7433e-06
0.0014386 1.221e-05 -1.19e-05
1.221e-05 0.000573968 7.33009e-06
-1.19e-05 7.33009e-06 0.000552237
0.000542105 -6.58971e-05 1.85676e-06
-6.58971e-05 5.13908e-05 -3.96e-06
1.85676e-06 -3.96e-06 -2.95087e-05
0.000874196 -9.55743e-06 -7.71771e-06
-9.55743e-06 0.000226768 6.95694e-07
-7.71771e-06 6.95694e-07 0.000203621
0.000801913 2.20066e-05 1.01868e-06
2.20066e-05 0.000169114 2.77966e-06
1.01868e-06 2.77966e-06 0.000171243
0.000438866 -2.70086e-05 2.20698e-06
-2.70086e-05 -4.03669e-05 -4.96402e-06
2.20698e-06 -4.96402e-06 -6.47663e-05
0.00165687 2.16602e-05 1.02572e-05
2.16602e-05 0.000710104 -1.48248e-06
1.02572e-05 -1.48248e-06 0.000718353
0.00251774 1.28588e-05 1.03729e-05
1.28588e-05 0.00125001 -5.16936e-06
1.03729e-05 -5.16936e-06 0.00126282
0.000502351 4.90542e-05 1.52631e-06
4.90542e-05 3.30929e-05 -1.28535e-06
1.52631e-06 -1.28535e-06 -6.73638e-05
0.00060331 6.00129e-05 -1.24933e-06
6.00129e-05 7.73818e-05 -1.63067e-06
-1.24933e-06 -1.63067e-06 2.35781e-05
0.000591678 -1.08724e-07 1.02376e-06
-1.08724e-07 0.000102376 7.59559e-07
1.02376e-06 7.59559e-07 4.61777e-06
0.000479433 3.22242e-06 1.40607e-06
3.22242e-06 -3.3372e-05 -3.55865e-06
1.40607e-06 -3.55865e-06 -4.26452e-05
0.000498553 4.98034e-05 8.51431e-08
4.98034e-05 1.32011e-05 -1.60997e-07
8.51431e-08 -1.60997e-07 -3.48565e-05
0.000544771 -0.000112826 -2.63278e-06
-0.000112826 7.41852e-05 4.81229e-07
-2.63278e-06 4.81229e-07 -1.86058e-05
0.00198632 8.03952e-06 -5.85186e-06
8.03952e-06 0.000911995 -4.73388e-06
-5.85186e-06 -4.73388e-06 0.000930153
0.000469164 5.08634e-06 -2.40064e-07
5.08634e-06 -4.06822e-05 2.5974e-08
-2.40064e-07 2.5974e-08 -4.91524e-05
0.000502649 -1.38629e-05 -1.47343e-06
-1.38629e-05 1.24432e-05 2.06196e-06
-1.47343e-06 2.06196e-06 -3.10647e-05
0.000476932 5.80724e-06 -1.1554e-06
5.80724e-06 -3.71868e-05 3.37579e-06
-1.1554e-06 3.37579e-06 -4.62724e-05
0.00201574 2.32841e-05 -5.20417e-06
2.32841e-05 0.000932636 -1.05015e-07
-5.20417e-06 -1.05015e-07 0.000949681
0.00197737 3.68506e-05 -5.51305e-06
3.68506e-05 0.000911164 4.61416e-06
-5.51305e-06 4.61416e-06 0.000927135
-0.00652884 -0.00162007 -0.000170021
-0.00162007 0.00524485 5.41926e-05
-0.000170021 5.41926e-05 0.00118486
0.0016873 0.00129702 -0.000246792
0.00129702 0.000513549 7.54167e-05
-0.000246792 7.54167e-05 -0.00142629
0.00293647 -0.000962043 -0.000589666
-0.000962043 0.00122658 0.000256252
-0.000589666 0.000256252 -0.00333025
-0.000754777 0.000551335 0.00103905
0.000551335 0.00582882 -0.000329354
0.00103905 -0.000329354 0.00186206
0.00215659 0.000551223 -3.75554e-05
0.000551223 -0.00114611 -5.4061e-06
-3.75554e-05 -5.4061e-06 -0.000325307
0.00268136 -0.000440951 8.86833e-05
-0.000440951 -0.000288717 6.71869e-06
8.86833e-05 6.71869e-06 -0.000177536
0.000737749 -0.00036397 0.000263286
-0.00036397 -0.00464682 -6.34107e-05
0.000263286 -6.34107e-05 -0.00638869
0.0203074 0.00305799 -0.000746656
0.00305799 0.00905256 6.25899e-05
-0.000746656 6.25899e-05 0.0063344
0.00356028 0.00785433 -0.00218283
0.00785433 0.00352894 0.00143222
-0.00218283 0.00143222 0.00104566
0.00454794 -0.000587309 2.59137e-05
-0.000587309 -0.000406459 7.21888e-06
2.59137e-05 7.21888e-06 0.000247833
0.00894338 -0.00202873 0.000150579
-0.00202873 -0.00131557 -0.000129941
0.000150579 -0.000129941 -0.00359798
0.019797 0.00521099 -0.000306056
0.00521099 0.00618652 -0.000107661
-0.000306056 -0.000107661 0.00312006
0.0137633 0.00415437 -2.93067e-05
0.00415437 0.00244453 0.000384653
-2.93067e-05 0.000384653 0.000363762
0.0017414 -0.00161843 -0.000111701
-0.00161843 -0.00294327 2.55077e-05
-0.000111701 2.55077e-05 -0.0019145
0.00591635 -0.00335062 0.000393722
-0.00335062 -0.000156327 -0.000218802
0.000393722 -0.000218802 -0.00396375
0.00529377 0.00326187 9.75213e-05
0.00326187 0.000752041 -0.000768333
9.75213e-05 -0.000768333 -0.00280085
0.00841724 0.000892829 -0.000264334
0.000892829 -0.0023975 5.01033e-06
-0.000264334 5.01033e-06 -0.00142004
0.00250397 -9.22266e-05 1.35016e-06
-9.22266e-05 0.00141412 1.68266e-05
1.35016e-06 1.68266e-05 0.00114601
0.000385495 0.000109072 -1.62159e-06
0.000109072 8.99124e-06 -2.39105e-06
-1.62159e-06 -2.39105e-06 -0.000133871
0.000519791 9.84173e-05 2.98552e-06
9.84173e-05 5.30215e-05 -1.3703e-06
2.98552e-06 -1.3703e-06 -4.34911e-05
0.000210876 1.33702e-05 7.37539e-06
1.33702e-05 -7.87227e-05 -1.23352e-06
7.37539e-06 -1.23352e-06 -0.000194754
0.000440607 9.48089e-05 3.30148e-06
9.48089e-05 2.67871e-05 2.7554e-06
3.30148e-06 2.7554e-06 -0.000158213
0.000444414 3.37145e-05 -2.23424e-07
3.37145e-05 3.83101e-05 2.47693e-06
-2.23424e-07 2.47693e-06 -0.000110649
0.00027269 3.29008e-05 1.54643e-06
3.29008e-05 -7.65991e-05 -3.98061e-06
1.54643e-06 -3.98061e-06 -0.000206371
0.000922922 0.000177219 3.30882e-06
0.000177219 0.000342899 6.76187e-06
3.30882e-06 6.76187e-06 0.000168272
0.000911295 0.000128241 -1.52928e-07
0.000128241 0.000343336 -1.53869e-07
-1.52928e-07 -1.53869e-07 0.000173578
0.000396086 -2.09648e-05 -4.15076e-06
-2.09648e-05 2.32164e-06 -6.74123e-06
-4.15076e-06 -6.74123e-06 -0.000127607
0.000458528 -0.000433773 7.91864e-05
-0.000433773 -0.00119781 -3.96194e-05
7.91864e-05 -3.96194e-05 -0.000911601
0.000270628 -0.000621958 1.77583e-05
-0.000621958 -0.000862488 -9.50385e-06
1.77583e-05 -9.50385e-06 -0.000856713
0.00144659 -0.000884436 -1.03794e-05
-0.000884436 -0.000191194 1.39268e-05
-1.03794e-05 1.39268e-05 -0.000307437
-0.000956004 -0.000664204 4.68261e-06
-0.000664204 -0.000870955 -8.99266e-06
4.68261e-06 -8.99266e-06 -0.00121876
0.00350275 -0.000454617 -2.35375e-05
-0.000454617 0.00215863 6.32702e-05
-2.35375e-05 6.32702e-05 0.00165512
0.0010633 -0.000206479 -3.54103e-06
-0.000206479 0.000584474 6.3376e-06
-3.54103e-06 6.3376e-06 0.000308757
0.000284968 0.000130081 -3.43472e-06
0.000130081 1.20175e-05 -1.58627e-05
-3.43472e-06 -1.58627e-05 -0.000217064
0.000682495 -8.50863e-05 -2.5462e-06
-8.50863e-05 0.000274 9.80789e-06
-2.5462e-06 9.80789e-06 -3.66682e-07
0.00170612 -0.000765393 -4.38265e-06
-0.000765393 -0.000209787 -4.52758e-06
-4.38265e-06 -4.52758e-06 -0.000260011
0.000818913 -6.81664e-05 1.23896e-06
-6.81664e-05 0.000377455 5.08987e-06
1.23896e-06 5.08987e-06 0.000115011
0.00214659 -0.000285288 1.87009e-06
-0.000285288 0.00129843 -1.42849e-06
1.87009e-06 -1.42849e-06 0.00090719
0.00143709 -0.000712529 6.85379e-06
-0.000712529 3.61718e-05 4.56438e-06
6.85379e-06 4.56438e-06 -3.07076e-06
0.00065765 -0.000643332 -2.7104e-05
-0.000643332 0.000305342 7.10056e-06
-2.7104e-05 7.10056e-06 -7.77264e-05
0.00206274 -0.00129776 2.69217e-05
-0.00129776 1.44965e-05 -1.39257e-05
2.69217e-05 -1.39257e-05 3.12525e-05
-0.000282008 -0.00044327 -6.90448e-06
-0.00044327 -0.000458664 2.28738e-05
-6.90448e-06 2.28738e-05 -0.000487343
-0.0010521 -8.81627e-05 1.53803e-05
-8.81627e-05 -0.0004308 -9.39251e-07
1.53803e-05 -9.39251e-07 -0.000906093
0.000758953 1.65052e-06 -4.41744e-06
1.65052e-06 0.000298474 -2.97969e-06
-4.41744e-06 -2.97969e-06 7.21701e-05
0.000701733 -1.23638e-05 7.20462e-06
-1.23638e-05 0.000430692 -8.04137e-06
7.20462e-06 -8.04137e-06 0.000122195
0.00131056 0.000109651 -3.88293e-05
0.000109651 0.00182596 -1.51925e-05
-3.88293e-05 -1.51925e-05 -0.0020117
-0.00630234 0.000409897 -0.000335289
0.000409897 0.0061915 -1.7826e-05
-0.000335289 -1.7826e-05 0.00128557
-0.0130529 -0.00227565 -0.000663461
-0.00227565 -0.00543842 -1.11147e-05
-0.000663461 -1.11147e-05 -0.00606566
-0.000858892 0.000152333 9.416e-06
0.000152333 -0.000642719 -6.36184e-06
9.416e-06 -6.36184e-06 -0.000864238
-0.000729038 0.000441114 -3.81691e-06
0.000441114 -0.000524734 8.54105e-06
-3.81691e-06 8.54105e-06 -0.000915777
0.00192971 0.000903225 2.87827e-05
0.000903225 0.000416623 2.46516e-05
2.87827e-05 2.46516e-05 0.000284728
-0.00557657 0.0018093 6.42375e-05
0.0018093 0.00569908 5.43643e-05
6.42375e-05 5.43643e-05 0.00121782
0.00669716 0.0032931 -0.000266382
0.0032931 0.000193222 -0.000154094
-0.000266382 -0.000154094 -0.0032644
0.00211434 0.0020577 0.00039786
0.0020577 0.000489383 0.000143864
0.00039786 0.000143864 0.000308936
0.000175581 0.000867384 2.44093e-05
0.000867384 2.74252e-05 -4.23568e-05
2.44093e-05 -4.23568e-05 -0.000235127
0.025325 -0.00354927 -0.000164446
-0.00354927 0.00815559 -0.000339917
-0.000164446 -0.000339917 0.00517344
0.00602874 0.00141707 0.000495994
0.00141707 0.0030367 0.00018039
0.000495994 0.00018039 -0.0024822
0.0137382 -0.00191358 0.000163575
-0.00191358 0.0023303 3.19932e-05
0.000163575 3.19932e-05 0.00365527
0.00126575 0.000485023 2.58576e-06
0.000485023 0.000654965 -2.00995e-06
2.58576e-06 -2.00995e-06 0.000364726
0.00379397 0.000509931 -5.90274e-06
0.000509931 0.00296508 1.44921e-05
-5.90274e-06 1.44921e-05 -0.000352703
0.00151825 0.000632339 6.25729e-05
0.000632339 6.74394e-05 2.90251e-06
6.25729e-05 2.90251e-06 -0.00152784
-0.000423761 0.000452553 -2.97286e-06
0.000452553 -0.000148496 -5.25683e-06
-2.97286e-06 -5.25683e-06 -0.00046199
0.000326785 0.0011597 -0.000118033
0.0011597 0.000875488 -5.65322e-05
-0.000118033 -5.65322e-05 -0.000321224
0.000958238 0.00417785 0.000189894
0.00417785 0.00053383 0.000104991
0.000189894 0.000104991 -0.00381739
0.00922369 5.94391e-05 -6.3706e-06
5.94391e-05 -0.00339353 -0.000206276
-6.3706e-06 -0.000206276 -0.000562776
0.00495867 -0.00252576 -6.94565e-05
-0.00252576 0.0031288 -0.000158249
-6.94565e-05 -0.000158249 -0.00146797
0.000955545 0.000384366 -7.03181e-06
0.000384366 0.000765598 -1.44192e-05
-7.03181e-06 -1.44192e-05 0.000426216
-0.00270042 0.00017781 1.13903e-05
0.00017781 -3.65446e-05 1.91457e-05
1.13903e-05 1.91457e-05 -0.000337767
0.00465251 -0.000110812 0.00010184
-0.000110812 -0.000221961 -0.000154684
0.00010184 -0.000154684 -0.00139683
0.00831556 0.00108929 0.000272888
0.00108929 -0.00209789 -1.86254e-05
0.000272888 -1.86254e-05 -0.00124521
-0.0023739 0.00013286 2.86782e-05
0.00013286 -0.000111459 -3.12163e-05
2.86782e-05 -3.12163e-05 -0.000903248
0.0131757 0.00324313 0.000289344
0.00324313 0.00617243 6.74301e-05
0.000289344 6.74301e-05 0.0010687
0.000498415 -0.000507043 5.16663e-05
-0.000507043 0.00242997 0.000376647
5.16663e-05 0.000376647 -0.00105799
0.00316658 0.000445623 2.61336e-05
0.000445623 0.00188088 9.90989e-06
2.61336e-05 9.90989e-06 0.00163354
0.00038932 0.00019611 -5.86148e-06
0.00019611 0.000396131 -1.69326e-06
-5.86148e-06 -1.69326e-06 5.66435e-05
0.000218252 0.000167048 9.95442e-07
0.000167048 0.000473726 1.73465e-06
9.95442e-07 1.73465e-06 4.71461e-05
0.000512621 0.00014454 1.22453e-06
0.00014454 9.33155e-05 5.86621e-07
1.22453e-06 5.86621e-07 -8.59626e-05
0.00046061 6.31523e-05 9.31654e-07
6.31523e-05 9.85175e-05 3.75189e-06
9.31654e-07 3.75189e-06 -6.65855e-05
0.000187993 -2.32741e-05 6.2618e-06
-2.32741e-05 0.000331778 -2.44225e-06
6.2618e-06 -2.44225e-06 -4.89432e-05
0.000401446 1.97145e-05 2.62822e-07
1.97145e-05 4.06793e-05 -5.91905e-07
2.62822e-07 -5.91905e-07 -0.000104939
0.000661614 -3.50547e-05 -1.21077e-06
-3.50547e-05 0.00061021 -2.42509e-06
-1.21077e-06 -2.42509e-06 0.00023203
9.02071e-05 5.31967e-05 -1.07486e-08
5.31967e-05 0.000416449 -1.49524e-06
-1.07486e-08 -1.49524e-06 -5.70817e-05
4.67262e-05 -2.87143e-06 -7.84265e-06
-2.87143e-06 0.000335284 7.51935e-06
-7.84265e-06 7.51935e-06 -5.62371e-05
0.000307044 -2.23821e-05 3.42132e-07
-2.23821e-05 0.000332274 -4.39055e-06
3.42132e-07 -4.39055e-06 2.69478e-05
0.000112737 -6.33812e-05 2.74717e-06
-6.33812e-05 -0.000152786 8.77896e-06
2.74717e-06 8.77896e-06 -0.000284271
0.00100649 -5.22283e-05 -8.25072e-07
-5.22283e-05 0.000394009 2.85063e-06
-8.25072e-07 2.85063e-06 0.000244517
0.00123737 -5.57671e-05 -1.30111e-05
-5.57671e-05 0.000546153 1.04394e-05
-1.30111e-05 1.04394e-05 0.000412188
0.000760596 -8.24334e-05 3.42562e-06
-8.24334e-05 0.000387763 -5.92981e-07
3.42562e-06 -5.92981e-07 0.000230979
0.000536114 -5.28358e-05 -7.99793e-07
-5.28358e-05 0.000102403 -7.65045e-07
-7.99793e-07 -7.65045e-07 -2.98503e-05
0.000361538 -0.000167617 5.74223e-08
-0.000167617 7.90614e-07 2.59472e-06
5.74223e-08 2.59472e-06 -0.000140454
0.000136998 -0.000149439 -1.14148e-05
-0.000149439 -0.000236973 -1.55232e-06
-1.14148e-05 -1.55232e-06 -0.000296184
-0.00071277 -0.000295975 1.02424e-05
-0.000295975 -0.000696661 1.84486e-05
1.02424e-05 1.84486e-05 -0.000984282
0.000182756 -0.000169364 5.73475e-06
-0.000169364 -0.000173567 -9.56603e-07
5.73475e-06 -9.56603e-07 -0.000290364
0.00114779 -0.000274222 -3.53945e-06
-0.000274222 0.000365176 1.08797e-05
-3.53945e-06 1.08797e-05 0.000184622
0.0019786 -0.000535101 -7.48556e-06
-0.000535101 0.000797416 1.39793e-05
-7.48556e-06 1.39793e-05 0.000445826
0.00153128 -0.000487636 -6.20282e-06
-0.000487636 0.000397628 1.21077e-07
-6.20282e-06 1.21077e-07 3.97153e-05
0.00122259 -0.000323874 1.40257e-06
-0.000323874 0.000416343 2.85903e-06
1.40257e-06 2.85903e-06 0.000179942
0.000446289 -0.000311745 9.78455e-06
-0.000311745 -0.000155575 -4.18919e-06
9.78455e-06 -4.18919e-06 -0.000421703
0.00123181 -0.000160285 2.79821e-06
-0.000160285 0.000528361 -3.89157e-06
2.79821e-06 -3.89157e-06 0.000292903
0.00124772 -0.000217942 -7.89174e-06
-0.000217942 0.000517997 5.3547e-07
-7.89174e-06 5.3547e-07 0.000314967
-2.39239e-05 -0.0001218 1.08383e-05
-0.0001218 -0.000298113 -1.64869e-05
1.08383e-05 -1.64869e-05 -0.000406471
0.00115931 -0.000104211 -1.06274e-06
-0.000104211 0.00043993 2.30324e-06
-1.06274e-06 2.30324e-06 0.000278918
0.000261951 -8.29776e-05 8.2765e-07
-8.29776e-05 -6.40744e-05 -5.9648e-07
8.2765e-07 -5.9648e-07 -0.000249663
0.00045171 -5.17095e-05 1.74982e-06
-5.17095e-05 -7.38538e-06 6.08023e-07
1.74982e-06 6.08023e-07 -0.000141082
0.00135993 -0.000203208 -1.47703e-06
-0.000203208 0.000625435 9.74607e-07
-1.47703e-06 9.74607e-07 0.000435766
0.00064696 -9.13837e-05 -3.81373e-07
-9.13837e-05 0.000132566 -1.36043e-07
-3.81373e-07 -1.36043e-07 -1.2529e-06
0.000441949 1.40482e-05 2.76501e-06
1.40482e-05 -1.07591e-05 4.27341e-06
2.76501e-06 4.27341e-06 -0.000104129
0.000788774 -0.000128467 -4.77092e-07
-0.000128467 0.000233411 -2.25715e-06
-4.77092e-07 -2.25715e-06 9.81583e-05
0.000494648 7.90058e-06 -2.07896e-06
7.90058e-06 1.88714e-05 -2.0872e-07
-2.07896e-06 -2.0872e-07 -6.63652e-05
0.00141014 1.24211e-05 -1.55702e-05
1.24211e-05 0.000556525 5.10116e-06
-1.55702e-05 5.10116e-06 0.000533532
0.000586737 -6.11213e-05 2.16775e-06
-6.11213e-05 7.31958e-05 -4.04541e-06
2.16775e-06 -4.04541e-06 -7.64921e-06
0.000887536 -5.08313e-06 -7.83526e-06
-5.08313e-06 0.000229996 5.86627e-07
-7.83526e-06 5.86627e-07 0.000205711
0.000839145 3.21445e-05 2.79397e-07
3.21445e-05 0.000190439 3.00193e-06
2.79397e-07 3.00193e-06 0.000190392
0.00045376 -1.90144e-05 2.20933e-06
-1.90144e-05 -3.81931e-05 -5.68366e-06
2.20933e-06 -5.68366e-06 -6.37937e-05
0.00170941 3.37473e-05 1.32818e-05
3.37473e-05 0.000740549 -1.26742e-06
1.32818e-05 -1.26742e-06 0.000747602
0.00253395 2.72257e-05 1.50518e-05
2.72257e-05 0.00125819 -5.40259e-06
1.50518e-05 -5.40259e-06 0.00127061
0.000313253 1.6599e-05 1.08434e-06
1.6599e-05 -6.8183e-05 7.14473e-07
1.08434e-06 7.14473e-07 -0.000199303
0.000155738 1.88804e-05 7.21188e-08
1.88804e-05 -0.000204407 -3.61511e-06
7.21188e-08 -3.61511e-06 -0.000266223
0.000629503 4.88805e-05 7.90859e-08
4.88805e-05 0.000123215 1.01723e-07
7.90859e-08 1.01723e-07 1.26085e-05
0.000478525 2.6295e-06 1.24768e-06
2.6295e-06 -3.56548e-05 -3.67296e-06
1.24768e-06 -3.67296e-06 -4.65172e-05
0.00033489 5.55149e-06 1.57852e-06
5.55149e-06 -9.49017e-05 -8.99016e-09
1.57852e-06 -8.99016e-09 -0.000146592
0.000279026 -9.4329e-05 -1.21358e-06
-9.4329e-05 -9.44654e-05 -1.09036e-06
-1.21358e-06 -1.09036e-06 -0.000192766
0.00205317 -5.87138e-06 -1.05914e-05
-5.87138e-06 0.000953257 -4.75255e-06
-1.05914e-05 -4.75255e-06 0.000971223
0.000473097 2.43058e-06 -7.40396e-09
2.43058e-06 -3.82534e-05 -7.32196e-08
-7.40396e-09 -7.32196e-08 -4.72301e-05
0.000448188 -1.61023e-05 -2.37746e-06
-1.61023e-05 -2.32003e-05 2.09862e-06
-2.37746e-06 2.09862e-06 -6.82611e-05
0.00200185 9.40176e-06 -4.55559e-06
9.40176e-06 0.000922058 8.71573e-09
-4.55559e-06 8.71573e-09 0.000940025
0.000462948 4.27575e-06 -1.04252e-06
4.27575e-06 -4.39994e-05 3.24554e-06
-1.04252e-06 3.24554e-06 -5.25255e-05
0.00197397 2.42563e-05 8.45942e-07
2.42563e-05 0.000906345 4.75578e-06
8.45942e-07 4.75578e-06 0.000923471
-0.000193943 -0.000695272 -0.000227337
-0.000695272 -0.000146579 8.20233e-05
-0.000227337 8.20233e-05 -0.00312447
0.00163967 0.000540519 -0.000100725
0.000540519 0.00708055 1.6677e-05
-0.000100725 1.6677e-05 0.00326116
0.00196755 -8.48463e-05 -0.000774127
-8.48463e-05 0.00364374 0.000149168
-0.000774127 0.000149168 0.0018353
0.000707262 0.000123573 4.0672e-06
0.000123573 0.000171573 6.063e-06
4.0672e-06 6.063e-06 1.4672e-05
0.00477167 -0.000816393 -7.20915e-05
-0.000816393 0.00311738 0.000220137
-7.20915e-05 0.000220137 0.00109476
0.00403522 -0.00118987 -0.000259022
-0.00118987 0.00166236 2.28092e-05
-0.000259022 2.28092e-05 -0.00286516
0.00977369 0.00286871 0.00034241
0.00286871 0.00722081 -0.000317222
0.00034241 -0.000317222 0.00342217
0.00693297 -0.000928216 0.000109231
-0.000928216 0.000807317 -2.33248e-05
0.000109231 -2.33248e-05 0.00102112
0.0128692 -0.00207571 0.000250959
-0.00207571 0.00106409 -0.000119227
0.000250959 -0.000119227 -0.000220466
0.00680006 0.00445868 -0.000581326
0.00445868 -0.000192093 0.00040209
-0.000581326 0.00040209 -0.00303058
0.013098 0.00405327 8.4428e-05
0.00405327 0.00429385 0.000210313
8.4428e-05 0.000210313 0.00185225
0.00704525 -0.00201618 -0.000123608
-0.00201618 0.000168699 -6.82639e-06
-0.000123608 -6.82639e-06 0.000516192
0.0172835 -0.00362129 3.98332e-05
-0.00362129 0.00435104 -3.11558e-05
3.98332e-05 -3.11558e-05 0.0019066
0.00807185 0.00267001 0.00015384
0.00267001 0.0024485 -0.000328141
0.00015384 -0.000328141 -0.00132353
0.0113482 0.00123109 1.34697e-05
0.00123109 -0.00058691 3.8194e-05
1.34697e-05 3.8194e-05 -0.000195243
0.00307811 -0.0023108 -5.20199e-05
-0.0023108 -7.00425e-06 6.96002e-05
-5.20199e-05 6.96002e-05 -0.000164234
0.011322 -0.00400279 0.000144598
-0.00400279 0.00473348 -0.000102393
0.000144598 -0.000102393 0.000413742
0.00920148 -0.000216387 0.000131866
-0.000216387 0.00417588 -0.00042671
0.000131866 -0.00042671 0.00156477
0.0115363 0.000548718 -0.000121313
0.000548718 -0.00135927 0.000229666
-0.000121313 0.000229666 0.00091477
0.000418116 5.90258e-05 3.13119e-06
5.90258e-05 9.4682e-05 7.06329e-06
3.13119e-06 7.06329e-06 -0.000126728
0.000799578 -0.00013325 5.33336e-07
-0.00013325 0.000347018 -4.39e-07
5.33336e-07 -4.39e-07 0.000100316
0.000993787 0.000153069 1.42076e-06
0.000153069 0.00040806 -5.55331e-06
1.42076e-06 -5.55331e-06 0.00025038
0.00048787 0.000122036 2.87202e-07
0.000122036 2.39173e-05 8.96423e-06
2.87202e-07 8.96423e-06 -0.000121944
0.000816263 0.000182762 5.94564e-07
0.000182762 0.000288437 1.03653e-06
5.94564e-07 1.03653e-06 9.3298e-05
0.00110992 9.70971e-05 -5.3005e-06
9.70971e-05 0.000468015 -4.84223e-06
-5.3005e-06 -4.84223e-06 0.000311914
0.00103838 0.000167567 -1.45492e-06
0.000167567 0.000416465 -1.57444e-07
-1.45492e-06 -1.57444e-07 0.000240296
0.00106894 0.000179507 1.43662e-06
0.000179507 0.000459262 2.88415e-06
1.43662e-06 2.88415e-06 0.000279971
0.000245013 -0.00053801 0.000106148
-0.00053801 -0.00103629 -6.11454e-05
0.000106148 -6.11454e-05 -0.000896072
0.000854709 -0.000684595 -1.84675e-05
-0.000684595 -0.000369072 -6.77639e-06
-1.84675e-05 -6.77639e-06 -0.000333309
0.00104971 -0.000237046 1.35092e-06
-0.000237046 0.000518135 -2.74624e-05
1.35092e-06 -2.74624e-05 0.000224672
0.0015637 -0.000683811 1.81606e-05
-0.000683811 0.000768569 -2.70003e-05
1.81606e-05 -2.70003e-05 0.000422644
0.00259553 -0.000441083 -1.94502e-05
-0.000441083 0.0015069 1.90346e-05
-1.94502e-05 1.90346e-05 0.00112827
0.00153767 -0.000147669 1.49366e-06
-0.000147669 0.000803756 -2.20903e-05
1.49366e-06 -2.20903e-05 0.000530979
-8.73802e-05 -5.73471e-05 3.41602e-06
-5.73471e-05 -0.000234101 7.29045e-06
3.41602e-06 7.29045e-06 -0.000443586
0.000352282 -0.00106959 -3.53966e-06
-0.00106959 -0.000770978 -3.10605e-06
-3.53966e-06 -3.10605e-06 -0.000771763
0.00137172 2.73166e-05 -8.22036e-07
2.73166e-05 0.00083745 -2.02131e-06
-8.22036e-07 -2.02131e-06 0.000523851
0.000442073 -0.000230075 3.81226e-06
-0.000230075 0.000359174 3.268e-06
3.81226e-06 3.268e-06 -6.65035e-05
-0.000111088 -0.000368451 2.3517e-05
-0.000368451 -0.000364618 1.39103e-06
2.3517e-05 1.39103e-06 -0.000343387
0.000948092 0.000114625 -8.71884e-07
0.000114625 0.000411963 -1.20427e-06
-8.71884e-07 -1.20427e-06 0.000219285
-0.000567851 -0.000896127 -4.62314e-05
-0.000896127 -0.000709543 -2.65652e-05
-4.62314e-05 -2.65652e-05 -0.000863284
-0.000831536 -0.000375967 -1.35966e-05
-0.000375967 -0.00048169 3.16951e-05
-1.35966e-05 3.16951e-05 -0.000703866
-2.41428e-05 0.00014844 2.01406e-05
0.00014844 0.000362395 -2.96268e-05
2.01406e-05 -2.96268e-05 -0.000186232
0.00214127 0.000323679 -5.09569e-06
0.000323679 0.00126554 -4.50153e-06
-5.09569e-06 -4.50153e-06 0.00102119
-0.00110919 8.81085e-05 9.39514e-05
8.81085e-05 0.00132983 1.62976e-05
9.39514e-05 1.62976e-05 0.000504606
0.000538466 -2.01642e-05 0.000146245
-2.01642e-05 0.00125717 -3.20264e-05
0.000146245 -3.20264e-05 -0.00257328
-0.0108503 -0.00031554 -0.000249359
-0.00031554 0.00567116 2.50019e-05
-0.000249359 2.50019e-05 0.000300388
0.00169482 0.000513485 1.96314e-05
0.000513485 0.000985317 2.40642e-06
1.96314e-05 2.40642e-06 0.000685927
-0.00076651 0.000627335 1.1946e-05
0.000627335 -0.000373077 1.19068e-05
1.1946e-05 1.19068e-05 -0.00079646
0.00537576 0.000666313 0.000281044
0.000666313 0.00357152 5.11475e-05
0.000281044 5.11475e-05 0.00130486
0.0104163 0.00349548 0.000274408
0.00349548 0.00354608 0.000188948
0.000274408 0.000188948 -0.000539264
0.00406433 0.00215726 -7.583e-05
0.00215726 0.00236687 -8.89718e-05
-7.583e-05 -8.89718e-05 0.0010178
0.00493367 -0.0021771 -0.000175416
-0.0021771 0.0039774 -0.000429662
-0.000175416 -0.000429662 0.000387793
0.00252564 0.00053678 0.000125331
0.00053678 0.000309627 0.000183544
0.000125331 0.000183544 -0.00125681
0.00714167 -0.000186691 -4.72389e-05
-0.000186691 -0.00532976 -0.000229425
-4.72389e-05 -0.000229425 -0.00207165
0.000964915 0.000449697 6.29143e-06
0.000449697 0.000736245 1.90632e-06
6.29143e-06 1.90632e-06 0.00037404
-0.0023169 7.24849e-05 -2.52705e-06
7.24849e-05 2.06729e-05 1.264e-06
-2.52705e-06 1.264e-06 -0.000407024
0.00416922 -2.44486e-05 0.000103129
-2.44486e-05 -0.000250451 2.41063e-05
0.000103129 2.41063e-05 -0.000775466
-0.00172182 0.000386301 -1.26689e-05
0.000386301 -0.000330002 -1.01273e-05
-1.26689e-05 -1.01273e-05 -0.0010249
0.0110648 0.00135379 -6.08553e-06
0.00135379 -0.000504135 -3.81355e-05
-6.08553e-06 -3.81355e-05 -0.000203116
0.00251978 0.00176539 0.000201606
0.00176539 0.0036038 0.00012811
0.000201606 0.00012811 -0.0019483
0.0065998 0.000651783 -0.000162494
0.000651783 0.00310874 3.13401e-06
-0.000162494 3.13401e-06 -0.000348008
0.000428286 0.000396958 -5.12355e-07
0.000396958 0.000532431 -2.35409e-05
-5.12355e-07 -2.35409e-05 3.44169e-05
0.00136265 -8.09292e-06 8.72013e-06
-8.09292e-06 9.712e-05 -1.92405e-05
8.72013e-06 -1.92405e-05 -0.000139615
0.00385002 -0.000986962 5.7882e-05
-0.000986962 0.00307879 -0.000222591
5.7882e-05 -0.000222591 0.00127301
0.0181966 0.00439387 0.000298271
0.00439387 0.0052282 -0.000261207
0.000298271 -0.000261207 0.00339982
0.00839288 -9.98883e-05 -0.00010827
-9.98883e-05 0.00418182 0.000432714
-0.00010827 0.000432714 0.0013112
0.000389545 0.000405092 -1.58288e-05
0.000405092 0.00063138 -0.000128742
-1.58288e-05 -0.000128742 4.24875e-05
0.00386404 0.00150387 0.000252067
0.00150387 0.00574388 3.15277e-05
0.000252067 3.15277e-05 -0.00223819
0.00143093 0.000328753 8.79215e-06
0.000328753 0.000997321 1.00278e-05
8.79215e-06 1.00278e-05 0.00064746
0.000620603 0.000225608 3.97269e-06
0.000225608 0.000696428 8.74187e-07
3.97269e-06 8.74187e-07 0.000282946
0.000358355 -2.55306e-05 -1.636e-05
-2.55306e-05 0.000660393 -1.20901e-06
-1.636e-05 -1.20901e-06 0.000313539
-0.000190575 -4.85839e-05 1.15598e-06
-4.85839e-05 -0.000339606 4.91408e-06
1.15598e-06 4.91408e-06 -0.000469317
0.000668477 -1.33474e-05 4.75134e-06
-1.33474e-05 0.000616492 -3.24644e-06
4.75134e-06 -3.24644e-06 0.000233879
0.000157788 5.08246e-05 5.21379e-06
5.08246e-05 0.000450484 -4.40629e-06
5.21379e-06 -4.40629e-06 -1.49972e-05
0.000310189 -3.21227e-05 6.45874e-07
-3.21227e-05 0.000272293 7.70953e-08
6.45874e-07 7.70953e-08 2.34992e-05
-5.00426e-06 -2.30952e-05 4.08577e-06
-2.30952e-05 0.000304587 6.55429e-07
4.08577e-06 6.55429e-07 -9.1911e-05
0.001252 -0.000321002 2.76612e-06
-0.000321002 0.000838384 -1.16077e-05
2.76612e-06 -1.16077e-05 0.00051723
0.000780469 -8.59657e-05 -6.38913e-06
-8.59657e-05 0.000373227 7.3254e-06
-6.38913e-06 7.3254e-06 0.000230362
0.000596225 -1.40037e-05 -1.2707e-06
-1.40037e-05 0.000136427 1.77153e-06
-1.2707e-06 1.77153e-06 6.31246e-06
0.00135896 -0.000260843 1.37617e-06
-0.000260843 0.000599782 5.24239e-06
1.37617e-06 5.24239e-06 0.00042939
-0.0023765 -0.00015474 1.79925e-05
-0.00015474 -0.00147908 1.72428e-05
1.79925e-05 1.72428e-05 -0.00180241
-0.000133938 -0.000115958 8.3998e-06
-0.000115958 -0.000314918 -2.65327e-06
8.3998e-06 -2.65327e-06 -0.000343766
-8.25318e-05 -0.000327164 -9.19385e-07
-0.000327164 -0.000363016 -4.4391e-06
-9.19385e-07 -4.4391e-06 -0.000615998
0.00126921 -0.000514372 9.76492e-08
-0.000514372 0.000319549 -1.16943e-06
9.76492e-08 -1.16943e-06 -0.000112693
0.00166031 -0.000604869 -5.51064e-06
-0.000604869 0.000435434 -5.5067e-07
-5.51064e-06 -5.5067e-07 1.42088e-05
0.00176886 -0.000357032 5.00374e-06
-0.000357032 0.000732039 -3.34541e-06
5.00374e-06 -3.34541e-06 0.000525528
0.0012905 -0.000456737 1.24629e-06
-0.000456737 0.000360419 7.69002e-07
1.24629e-06 7.69002e-07 1.5645e-05
0.00163088 -0.000505627 4.55875e-06
-0.000505627 0.000439378 -3.494e-06
4.55875e-06 -3.494e-06 8.64602e-05
0.000722971 -0.000311997 -1.78641e-06
-0.000311997 -2.18368e-05 6.00761e-06
-1.78641e-06 6.00761e-06 -0.000292301
0.00112896 -0.000434927 2.20621e-06
-0.000434927 0.00016602 -5.38398e-06
2.20621e-06 -5.38398e-06 -0.000172972
0.000377333 -0.000140328 8.18318e-07
-0.000140328 -1.27304e-05 -4.98778e-06
8.18318e-07 -4.98778e-06 -0.000261
0.00109748 -0.000331741 -6.38811e-06
-0.000331741 0.00035226 4.19281e-06
-6.38811e-06 4.19281e-06 9.86767e-05
-0.000826908 -0.000151173 -5.67016e-07
-0.000151173 -0.000927905 -9.89425e-06
-5.67016e-07 -9.89425e-06 -0.00114933
0.000106588 -5.37292e-05 1.0422e-06
-5.37292e-05 -0.000206741 -1.79867e-06
1.0422e-06 -1.79867e-06 -0.000374187
0.000442112 -0.000132446 2.34892e-07
-0.000132446 6.46733e-05 4.64919e-07
2.34892e-07 4.64919e-07 -0.000167993
0.000724456 -0.000211676 8.69701e-06
-0.000211676 0.000239979 -7.86926e-07
8.69701e-06 -7.86926e-07 2.07311e-05
0.000551972 -0.000117871 1.37263e-07
-0.000117871 0.000111546 3.11883e-06
1.37263e-07 3.11883e-06 -7.33904e-05
0.000715102 -0.000102344 -9.88977e-08
-0.000102344 0.000173799 3.47601e-07
-9.88977e-08 3.47601e-07 2.42677e-05
0.000583022 -6.01301e-07 1.99373e-06
-6.01301e-07 6.86347e-05 5.82912e-06
1.99373e-06 5.82912e-06 -3.29342e-05
0.000973743 -0.000129834 -1.75944e-06
-0.000129834 0.000350065 -1.02679e-06
-1.75944e-06 -1.02679e-06 0.000202005
0.000579999 -2.95e-06 -1.1955e-06
-2.95e-06 6.57313e-05 -3.37162e-07
-1.1955e-06 -3.37162e-07 -2.3185e-05
0.000417548 4.35193e-05 1.59793e-06
4.35193e-05 -5.65484e-05 6.66773e-06
1.59793e-06 6.66773e-06 -9.08574e-05
0.000686433 -5.97496e-05 1.12511e-06
-5.97496e-05 0.000130817 -3.66423e-06
1.12511e-06 -3.66423e-06 4.82138e-05
0.000461613 6.00912e-06 -1.02204e-06
6.00912e-06 -3.92737e-05 -4.93611e-08
-1.02204e-06 -4.93611e-08 -6.77285e-05
0.00255784 8.97766e-05 -2.4453e-06
8.97766e-05 0.00127586 2.5346e-06
-2.4453e-06 2.5346e-06 0.00128107
0.000473593 -9.97874e-06 2.37271e-06
-9.97874e-06 -3.06888e-05 -5.87715e-06
2.37271e-06 -5.87715e-06 -5.7692e-05
0.00174397 4.7261e-05 1.60276e-05
4.7261e-05 0.000761735 -1.04601e-06
1.60276e-05 -1.04601e-06 0.000766829
0.00259351 4.31393e-05 2.1817e-05
4.31393e-05 0.00129448 -5.55624e-06
2.1817e-05 -5.55624e-06 0.0013059
0.000278936 2.02816e-05 8.34282e-07
2.02816e-05 -0.000108716 6.0096e-07
8.34282e-07 6.0096e-07 -0.000229896
0.000223742 1.06507e-05 1.17763e-06
1.06507e-05 -0.000163166 -2.97e-06
1.17763e-06 -2.97e-06 -0.000236868
0.000469467 3.65476e-05 -5.90754e-07
3.65476e-05 2.5712e-05 -1.19763e-06
-5.90754e-07 -1.19763e-06 -9.96086e-05
0.000502795 1.45203e-06 1.58829e-06
1.45203e-06 -2.07076e-05 -4.20407e-06
1.58829e-06 -4.20407e-06 -3.46469e-05
0.000201663 1.48666e-05 -5.68798e-07
1.48666e-05 -0.000176312 -1.77969e-06
-5.68798e-07 -1.77969e-06 -0.000240325
0.000668991 5.63517e-05 -1.40774e-07
5.63517e-05 0.000160226 1.68534e-06
-1.40774e-07 1.68534e-06 4.11072e-05
0.00207391 -1.9236e-05 -1.58763e-05
-1.9236e-05 0.000965216 -4.65791e-06
-1.58763e-05 -4.65791e-06 0.000982917
0.000479937 7.40942e-07 -6.04413e-07
7.40942e-07 -3.50873e-05 -6.62133e-08
-6.04413e-07 -6.62133e-08 -4.56503e-05
0.000123295 1.36928e-05 1.366e-06
1.36928e-05 -0.000223857 1.47794e-06
1.366e-06 1.47794e-06 -0.000279259
0.0020259 -4.60583e-06 -4.01882e-06
-4.60583e-06 0.000935944 4.27648e-08
-4.01882e-06 4.27648e-08 0.00095412
0.0004616 1.98422e-06 -1.30398e-06
1.98422e-06 -4.61226e-05 3.40256e-06
-1.30398e-06 3.40256e-06 -5.47372e-05
0.00204537 1.09454e-05 6.28136e-06
1.09454e-05 0.000949735 4.81469e-06
6.28136e-06 4.81469e-06 0.000967311
0.000419335 -3.64658e-05 0.000113898
-3.64658e-05 0.00190258 4.04335e-05
0.000113898 4.04335e-05 0.00137952
-0.000180457 -0.000351382 -4.48858e-05
-0.000351382 0.000353919 -1.20311e-05
-4.48858e-05 -1.20311e-05 -0.00323609
0.00023141 0.000521132 -1.54347e-05
0.000521132 0.00674185 -4.18358e-05
-1.54347e-05 -4.18358e-05 0.00284963
0.000760706 0.000130975 4.34589e-07
0.000130975 0.000196749 8.36907e-08
4.34589e-07 8.36907e-08 4.99118e-05
0.000410204 9.25189e-05 5.14936e-06
9.25189e-05 -3.73917e-05 4.70697e-06
5.14936e-06 4.70697e-06 -0.000171217
0.00105315 0.000187466 6.80101e-06
0.000187466 0.000379112 7.56232e-06
6.80101e-06 7.56232e-06 0.000230662
0.00547386 -0.000237664 -6.99665e-05
-0.000237664 -0.000410965 0.000227475
-6.99665e-05 0.000227475 -0.00136481
0.00471163 -0.00091175 8.33662e-05
-0.00091175 0.00281853 2.1371e-06
8.33662e-05 2.1371e-06 0.00138648
0.00458601 -0.00157268 0.000172088
-0.00157268 0.00194171 -0.00023852
0.000172088 -0.00023852 -0.00268574
0.00839365 -0.00243038 -3.20992e-05
-0.00243038 0.000367756 -3.19394e-05
-3.20992e-05 -3.19394e-05 0.000937644
0.000617628 -0.00286976 -0.000367745
-0.00286976 -0.00195417 9.97971e-05
-0.000367745 9.97971e-05 -0.00483328
0.0249934 0.00384022 0.000196571
0.00384022 0.0100647 0.000156211
0.000196571 0.000156211 0.00591233
0.00687861 -5.45898e-05 0.000264976
-5.45898e-05 -0.00285185 -0.000217364
0.000264976 -0.000217364 -0.00290566
0.00456003 -0.00263529 -3.23607e-05
-0.00263529 0.000156724 1.69401e-05
-3.23607e-05 1.69401e-05 0.000382654
0.00723939 -0.00372543 -0.00010455
-0.00372543 0.00274832 2.10603e-05
-0.00010455 2.10603e-05 -0.00185282
-0.00262679 0.00350125 -8.69338e-05
0.00350125 0.00344099 -0.000294216
-8.69338e-05 -0.000294216 -0.00116043
0.0094592 0.000163779 -6.8903e-05
0.000163779 -0.00354938 0.000133167
-6.8903e-05 0.000133167 -0.000596175
0.00174997 -0.00181297 -0.00011917
-0.00181297 0.000944247 4.86074e-05
-0.00011917 4.86074e-05 0.000555848
0.0104589 -0.00281634 -0.000278987
-0.00281634 0.00556332 0.000166907
-0.000278987 0.000166907 0.000556826
-0.000895713 -6.367e-05 4.21315e-05
-6.367e-05 0.0022468 -0.000342351
4.21315e-05 -0.000342351 -0.001354
0.00869694 -0.00100281 0.000112516
-0.00100281 -0.00198292 5.57275e-05
0.000112516 5.57275e-05 -0.00115851
0.000284644 9.51178e-05 4.33527e-06
9.51178e-05 -5.71525e-05 1.60176e-05
4.33527e-06 1.60176e-05 -0.000208795
0.000748118 -1.39869e-05 2.71305e-06
-1.39869e-05 0.000278171 -3.3473e-06
2.71305e-06 -3.3473e-06 4.7769e-05
0.000464628 -0.000149071 9.25466e-07
-0.000149071 6.12794e-05 -1.08885e-05
9.25466e-07 -1.08885e-05 -0.000147885
0.000664095 0.000131743 -2.05902e-06
0.000131743 0.000136519 1.28877e-06
-2.05902e-06 1.28877e-06 -1.69479e-05
0.000715203 0.000131895 2.35245e-06
0.000131895 0.000226018 -4.07296e-06
2.35245e-06 -4.07296e-06 4.45137e-05
0.0011911 0.000195093 -3.37903e-06
0.000195093 0.000516797 -3.4025e-06
-3.37903e-06 -3.4025e-06 0.000336936
-0.000900519 -0.000897397 2.95022e-05
-0.000897397 -0.00137244 -1.22479e-05
2.95022e-05 -1.22479e-05 -0.0013721
0.000892332 -0.000352404 2.61997e-05
-0.000352404 0.00020714 -2.55992e-05
2.61997e-05 -2.55992e-05 0.00024655
-1.69986e-05 1.88683e-05 -1.36241e-06
1.88683e-05 -0.00018391 -1.14258e-05
-1.36241e-06 -1.14258e-05 -0.000402499
0.00201838 -0.000448492 5.45813e-05
-0.000448492 0.00121076 -2.35604e-05
5.45813e-05 -2.35604e-05 0.000816852
0.00167126 -0.00010375 -3.43011e-06
-0.00010375 0.000979506 8.72254e-06
-3.43011e-06 8.72254e-06 0.000690922
4.5181e-05 9.37842e-05 3.59773e-06
9.37842e-05 -9.44967e-05 3.98415e-06
3.59773e-06 3.98415e-06 -0.00030447
0.00063463 0.000130938 9.89593e-07
0.000130938 0.000333438 -3.21072e-06
9.89593e-07 -3.21072e-06 0.000123148
0.000168792 -0.00104535 -1.2143e-05
-0.00104535 -0.00039146 -4.60912e-06
-1.2143e-05 -4.60912e-06 -0.000647894
0.000194816 -2.68816e-05 -6.66708e-06
-2.68816e-05 0.000475878 5.26664e-06
-6.66708e-06 5.26664e-06 -4.50829e-05
0.00137885 -0.000327701 9.07132e-07
-0.000327701 0.000734364 -9.7969e-06
9.07132e-07 -9.7969e-06 0.000449299
0.00122839 0.000179926 -1.63977e-06
0.000179926 0.000679096 -1.3246e-05
-1.63977e-06 -1.3246e-05 0.000477129
-0.00259938 -0.000216175 -7.10085e-05
-0.000216175 -0.000568929 -1.4327e-05
-7.10085e-05 -1.4327e-05 -0.00141418
0.000245996 -0.00016832 -2.36742e-05
-0.00016832 0.000509791 8.15252e-06
-2.36742e-05 8.15252e-06 0.000147233
0.000141461 0.000113744 -8.38158e-06
0.000113744 0.000441077 1.22129e-05
-8.38158e-06 1.22129e-05 1.62072e-05
-0.000198743 0.000148221 -8.75316e-06
0.000148221 -0.000611982 2.12262e-06
-8.75316e-06 2.12262e-06 -0.00156195
-0.00164584 0.000146049 4.21099e-05
0.000146049 0.00104942 -1.44879e-05
4.21099e-05 -1.44879e-05 0.000250696
-0.000275943 -0.000150165 0.000312714
-0.000150165 0.000705425 2.20034e-05
0.000312714 2.20034e-05 -0.00313058
2.20585e-05 0.000407927 -1.19005e-07
0.000407927 0.000169491 1.54561e-05
-1.19005e-07 1.54561e-05 -0.000211729
0.000601082 0.000770794 -1.54661e-05
0.000770794 0.000454336 -6.49852e-06
-1.54661e-05 -6.49852e-06 -0.000141665
-0.00211073 3.18334e-05 -2.61677e-05
3.18334e-05 5.62132e-05 -1.57297e-05
-2.61677e-05 -1.57297e-05 -0.000504816
-0.0044621 0.000711082 5.86386e-05
0.000711082 0.0023299 0.000174818
5.86386e-05 0.000174818 -0.00291597
-0.0021347 0.00131068 -0.000189029
0.00131068 -0.00197509 -0.000449478
-0.000189029 -0.000449478 -0.0062358
0.00347655 3.99536e-05 7.88571e-05
3.99536e-05 -0.000332148 0.000100279
7.88571e-05 0.000100279 -0.000329286
0.00647963 8.36883e-05 -0.000267412
8.36883e-05 -0.00258994 0.000221675
-0.000267412 0.000221675 -0.00288887
0.000254594 0.000321584 6.93603e-07
0.000321584 0.000483037 -1.01506e-06
6.93603e-07 -1.01506e-06 5.0738e-05
0.00100133 -3.62048e-06 2.93716e-05
-3.62048e-06 1.42691e-05 -1.95879e-05
2.93716e-05 -1.95879e-05 -0.000198498
0.00398998 -0.000725145 -8.25346e-05
-0.000725145 0.0027679 3.37327e-06
-8.25346e-05 3.37327e-06 0.00131049
-0.00011632 0.000626485 -0.000122841
0.000626485 0.00106614 -6.08315e-06
-0.000122841 -6.08315e-06 -0.000230446
0.013195 0.00449194 3.63114e-05
0.00449194 0.00240521 -0.00038054
3.63114e-05 -0.00038054 0.000377452
-0.000237288 0.00279787 7.158e-05
0.00279787 0.00377068 0.000302769
7.158e-05 0.000302769 -0.000785246
0.00541406 0.000553746 5.48272e-05
0.000553746 0.00587912 -2.33435e-05
5.48272e-05 -2.33435e-05 -0.00122826
0.000803742 -1.90168e-05 4.12159e-05
-1.90168e-05 0.00141643 -2.77908e-05
4.12159e-05 -2.77908e-05 0.00046699
5.65855e-05 -0.000125437 -9.86869e-05
-0.000125437 0.00192945 3.76898e-06
-9.86869e-05 3.76898e-06 0.0012901
0.00215353 -0.000873706 0.000659832
-0.000873706 0.000751341 -0.000248126
0.000659832 -0.000248126 -0.00397579
0.0169247 0.00644 -5.62294e-05
0.00644 0.0114795 2.44964e-06
-5.62294e-05 2.44964e-06 0.00881539
0.0044803 0.00345841 -0.000161178
0.00345841 0.000819461 0.000741571
-0.000161178 0.000741571 -0.00264543
0.0119093 -0.00309994 0.000251903
-0.00309994 0.00575235 -0.000209611
0.000251903 -0.000209611 0.000315857
0.00361349 -0.000714136 -7.2285e-05
-0.000714136 0.00296755 4.05812e-05
-7.2285e-05 4.05812e-05 0.00213475
0.000664923 0.000242 4.39694e-07
0.000242 0.000745044 2.63423e-06
4.39694e-07 2.63423e-06 0.00031793
5.02573e-05 -4.68571e-05 -8.52678e-06
-4.68571e-05 0.000407356 -2.72907e-06
-8.52678e-06 -2.72907e-06 4.37056e-05
0.00139703 -0.000484201 3.43248e-05
-0.000484201 0.000968542 -1.42475e-05
3.43248e-05 -1.42475e-05 0.000493296
0.000534705 -7.98481e-05 -1.16865e-06
-7.98481e-05 0.000364645 2.76633e-06
-1.16865e-06 2.76633e-06 0.000159252
-6.98315e-06 -3.09668e-05 1.28133e-06
-3.09668e-05 0.000280291 -1.034e-05
1.28133e-06 -1.034e-05 -9.81649e-05
0.000384473 -0.00026957 -4.00898e-06
-0.00026957 0.000447643 3.42532e-07
-4.00898e-06 3.42532e-07 0.000112531
0.000837737 -0.00052808 2.37437e-05
-0.00052808 0.000294489 -2.26031e-05
2.37437e-05 -2.26031e-05 4.25525e-05
0.00251599 -0.000366629 -2.27008e-06
-0.000366629 0.0013129 1.5853e-06
-2.27008e-06 1.5853e-06 0.00110093
0.00196843 -0.000632107 1.45167e-05
-0.000632107 0.000900883 -3.47142e-06
1.45167e-05 -3.47142e-06 0.000520118
0.00110884 -0.000537544 8.96237e-06
-0.000537544 0.000392858 2.00176e-07
8.96237e-06 2.00176e-07 -0.000186436
0.000473926 -0.000328099 -5.20376e-06
-0.000328099 -6.84713e-05 -4.64256e-06
-5.20376e-06 -4.64256e-06 -0.000274469
0.00183258 -0.000579337 -2.21225e-06
-0.000579337 0.00060597 -3.30239e-07
-2.21225e-06 -3.30239e-07 0.000170344
0.00224122 -0.000748188 -4.271e-06
-0.000748188 0.000757104 5.2784e-07
-4.271e-06 5.2784e-07 0.000222833
0.00189843 -0.00077546 -9.82152e-06
-0.00077546 0.000417614 1.77059e-06
-9.82152e-06 1.77059e-06 -5.14098e-05
0.00170432 -0.000638023 -1.4629e-06
-0.000638023 0.000448313 -6.28966e-07
-1.4629e-06 -6.28966e-07 3.53302e-05
0.00155404 -0.000596155 -4.9388e-06
-0.000596155 0.000364121 1.48165e-06
-4.9388e-06 1.48165e-06 -5.7093e-05
0.00117726 -0.000448531 -1.9317e-06
-0.000448531 0.000260948 -5.28625e-06
-1.9317e-06 -5.28625e-06 -9.20623e-05
0.00155489 -0.000462103 8.82789e-06
-0.000462103 0.000464456 -6.39117e-07
8.82789e-06 -6.39117e-07 0.00013954
0.00155626 -0.000503565 5.51442e-06
-0.000503565 0.000395938 -2.64509e-06
5.51442e-06 -2.64509e-06 4.28338e-05
0.000486724 -0.000214077 3.20736e-06
-0.000214077 -6.01116e-05 3.59607e-07
3.20736e-06 3.59607e-07 -0.000302196
0.000917229 -0.000343776 3.36575e-06
-0.000343776 0.000110013 -1.96153e-06
3.36575e-06 -1.96153e-06 -0.00016675
0.000485561 -0.000355326 -1.48382e-06
-0.000355326 -0.000217697 -8.89704e-06
-1.48382e-06 -8.89704e-06 -0.000532383
-0.000107001 -4.47087e-05 3.83718e-07
-4.47087e-05 -0.000305397 -1.89244e-06
3.83718e-07 -1.89244e-06 -0.000535054
0.00106654 -0.000218316 -4.84983e-07
-0.000218316 0.000424756 -1.46124e-07
-4.84983e-07 -1.46124e-07 0.000163782
0.000842073 -0.000324374 -2.16307e-06
-0.000324374 0.000208832 -2.08652e-06
-2.16307e-06 -2.08652e-06 -5.88548e-05
0.000698958 -3.71385e-05 1.83552e-07
-3.71385e-05 0.000137519 7.08398e-06
1.83552e-07 7.08398e-06 2.22808e-05
0.000799738 -0.000109699 -2.99825e-07
-0.000109699 0.000220617 -1.4217e-07
-2.99825e-07 -1.4217e-07 4.69174e-05
4.81141e-05 -0.000106803 9.34285e-07
-0.000106803 -0.000171039 3.37835e-06
9.34285e-07 3.37835e-06 -0.000393445
0.00101398 -0.000124122 -1.77262e-07
-0.000124122 0.000369239 -6.39459e-07
-1.77262e-07 -6.39459e-07 0.000209971
0.00060786 -4.4972e-05 -8.1887e-08
-4.4972e-05 8.10746e-05 -3.46141e-07
-8.1887e-08 -3.46141e-07 -2.11174e-05
0.000376004 2.78133e-05 1.64778e-06
2.78133e-05 -7.52281e-05 8.67814e-06
1.64778e-06 8.67814e-06 -0.000115722
0.000640285 -5.00612e-05 -7.2362e-08
-5.00612e-05 9.92897e-05 -4.38729e-06
-7.2362e-08 -4.38729e-06 1.02104e-05
0.000485472 1.78961e-05 -2.37297e-06
1.78961e-05 -1.85871e-05 -2.23857e-07
-2.37297e-06 -2.23857e-07 -5.10957e-05
0.00270497 9.67265e-05 -3.59409e-05
9.67265e-05 0.00137505 4.56932e-06
-3.59409e-05 4.56932e-06 0.00137965
0.000504931 -9.82585e-07 2.23055e-06
-9.82585e-07 -1.39996e-05 -6.04114e-06
2.23055e-06 -6.04114e-06 -4.1972e-05
0.00173356 6.31275e-05 1.85703e-05
6.31275e-05 0.000757797 -7.61207e-07
1.85703e-05 -7.61207e-07 0.00076071
0.00265285 6.18565e-05 2.69415e-05
6.18565e-05 0.00133275 -5.21036e-06
2.69415e-05 -5.21036e-06 0.00134242
0.000725493 9.59388e-05 3.70468e-06
9.59388e-05 0.000182825 1.15881e-06
3.70468e-06 1.15881e-06 4.76149e-05
0.000520286 4.73232e-05 1.48942e-06
4.73232e-05 2.19152e-05 -2.2131e-06
1.48942e-06 -2.2131e-06 -5.75314e-05
0.000457804 5.38213e-05 -1.08096e-06
5.38213e-05 1.74686e-05 -1.23676e-06
-1.08096e-06 -1.23676e-06 -0.000114625
0.000497034 2.5291e-06 8.00357e-07
2.5291e-06 -2.37483e-05 -5.1232e-06
8.00357e-07 -5.1232e-06 -4.25754e-05
0.000332911 3.74978e-05 -2.19209e-06
3.74978e-05 -9.35737e-05 -1.82069e-06
-2.19209e-06 -1.82069e-06 -0.000166663
0.000664787 7.59529e-05 -7.58651e-07
7.59529e-05 0.000151356 -2.25273e-06
-7.58651e-07 -2.25273e-06 2.5771e-05
0.00217939 -3.45895e-05 -2.00105e-05
-3.45895e-05 0.00103152 -4.77282e-06
-2.00105e-05 -4.77282e-06 0.00104775
0.000472978 -3.5502e-06 -1.55465e-08
-3.5502e-06 -3.99519e-05 -1.34955e-07
-1.55465e-08 -1.34955e-07 -5.34304e-05
0.000133096 1.38822e-05 -1.48518e-06
1.38822e-05 -0.000219378 4.35538e-07
-1.48518e-06 4.35538e-07 -0.00028463
0.00211416 -1.86393e-05 -5.30506e-06
-1.86393e-05 0.000990615 1.24486e-07
-5.30506e-06 1.24486e-07 0.00100819
0.000466591 -2.22124e-06 -2.1629e-06
-2.22124e-06 -4.36808e-05 3.46935e-06
-2.1629e-06 3.46935e-06 -5.39882e-05
0.00205681 -3.17902e-06 1.10992e-05
-3.17902e-06 0.000955256 4.79466e-06
1.10992e-05 4.79466e-06 0.000973318
0.00132363 -0.000214713 -5.12391e-05
-0.000214713 8.56124e-06 3.33209e-05
-5.12391e-05 3.33209e-05 -0.000259895
-0.000495085 -0.000203923 5.67043e-05
-0.000203923 0.00159698 -3.18493e-06
5.67043e-05 -3.18493e-06 0.000951468
-0.000717629 -0.000363815 0.000151937
-0.000363815 0.000559355 -0.000128422
0.000151937 -0.000128422 -0.00341072
0.000151239 4.88314e-05 2.78767e-06
4.88314e-05 -0.000199123 3.99033e-06
2.78767e-06 3.99033e-06 -0.000336051
0.00207017 0.000102214 1.12988e-06
0.000102214 0.000981159 1.89967e-06
1.12988e-06 1.89967e-06 0.000816547
0.000731204 0.000144128 -2.18184e-06
0.000144128 0.000182773 -4.51132e-06
-2.18184e-06 -4.51132e-06 4.01367e-05
0.000426076 7.7893e-05 8.37964e-07
7.7893e-05 -4.13043e-05 9.06393e-07
8.37964e-07 9.06393e-07 -0.000165741
0.000470276 9.55426e-05 3.63277e-07
9.55426e-05 5.22729e-06 -6.41327e-07
3.63277e-07 -6.41327e-07 -0.000122344
0.000495834 8.87015e-05 5.41177e-06
8.87015e-05 1.41283e-05 3.06664e-06
5.41177e-06 3.06664e-06 -0.000105657
0.000476706 0.00015894 9.70766e-06
0.00015894 5.06568e-05 7.25307e-06
9.70766e-06 7.25307e-06 -8.77584e-05
0.00142296 0.000773636 0.000183377
0.000773636 -0.000461106 0.000241942
0.000183377 0.000241942 -0.00174867
0.0045358 -0.000168391 -4.34874e-05
-0.000168391 -0.000215567 5.65586e-05
-4.34874e-05 5.65586e-05 -0.000955268
0.00390734 -0.000639695 0.000173865
-0.000639695 0.00263814 -0.000103935
0.000173865 -0.000103935 0.00146643
0.00738477 -0.000123557 -1.43593e-06
-0.000123557 -0.00577304 0.000166573
-1.43593e-06 0.000166573 -0.00206998
0.00403788 -0.0025226 -0.000105712
-0.0025226 0.000495919 4.29582e-05
-0.000105712 4.29582e-05 0.000540224
0.00129031 -0.0035967 -0.000224393
-0.0035967 0.0014844 7.70096e-05
-0.000224393 7.70096e-05 -0.00397936
0.0144611 0.00398577 0.000107485
0.00398577 0.00692319 -0.000139289
0.000107485 -0.000139289 0.00271148
0.00243643 -0.00212773 -6.27108e-05
-0.00212773 0.000201351 2.45106e-05
-6.27108e-05 2.45106e-05 0.000374956
-0.00124461 -0.000720601 -5.15372e-05
-0.000720601 0.00356615 5.14556e-05
-5.15372e-05 5.14556e-05 -0.00316047
0.00735305 0.000560532 0.000178607
0.000560532 0.00305395 -2.33025e-05
0.000178607 -2.33025e-05 -0.0001996
0.0146601 -0.00208658 -7.0821e-05
-0.00208658 0.00194654 -2.06505e-05
-7.0821e-05 -2.06505e-05 0.00322269
-0.00168145 -0.000435213 -0.000191529
-0.000435213 -0.000142915 0.000140046
-0.000191529 0.000140046 -0.000155325
0.00354558 0.00199566 -0.000175632
0.00199566 0.00512058 -8.72975e-05
-0.000175632 -8.72975e-05 -0.00172262
-0.00230453 -0.00465723 1.62925e-05
-0.00465723 -0.000616569 -0.000236759
1.62925e-05 -0.000236759 -0.00523073
0.0127161 -0.00275005 0.000110173
-0.00275005 0.00303712 -0.000585288
0.000110173 -0.000585288 0.00186038
0.000924598 2.56668e-05 1.07669e-05
2.56668e-05 0.000459685 2.86665e-06
1.07669e-05 2.86665e-06 0.000251698
0.000808082 0.000180708 -1.18838e-06
0.000180708 0.000288561 -2.7301e-06
-1.18838e-06 -2.7301e-06 0.000122809
0.00100121 -2.70633e-05 1.20824e-06
-2.70633e-05 0.000456225 -1.67608e-06
1.20824e-06 -1.67608e-06 0.000199381
0.00108569 0.000160192 -3.48339e-06
0.000160192 0.000427183 -8.50709e-06
-3.48339e-06 -8.50709e-06 0.000250311
0.0011345 -0.00093984 2.92921e-05
-0.00093984 0.000151785 3.22829e-05
2.92921e-05 3.22829e-05 -0.000172378
0.00295957 -0.000317585 -3.13457e-06
-0.000317585 0.00170022 -2.76139e-05
-3.13457e-06 -2.76139e-05 0.00133317
0.000846897 9.44663e-05 -7.02881e-06
9.44663e-05 0.000381159 -1.21638e-05
-7.02881e-06 -1.21638e-05 0.000193898
0.000181418 0.000152073 -2.22932e-06
0.000152073 5.74846e-05 -1.11662e-06
-2.22932e-06 -1.11662e-06 -0.000153255
0.000466853 3.45106e-05 -3.9645e-06
3.45106e-05 0.000605786 1.884e-05
-3.9645e-06 1.884e-05 0.000162433
0.000385321 5.38331e-05 3.70442e-06
5.38331e-05 0.000120414 3.97648e-06
3.70442e-06 3.97648e-06 -4.43411e-05
0.000241226 0.000178573 2.76907e-06
0.000178573 0.000515587 1.56419e-06
2.76907e-06 1.56419e-06 6.98598e-05
0.00128987 -0.000380615 1.59021e-06
-0.000380615 0.00134446 4.1438e-06
1.59021e-06 4.1438e-06 0.000272907
6.81942e-05 -0.000116132 1.25684e-05
-0.000116132 0.000593506 2.0284e-06
1.25684e-05 2.0284e-06 0.000198021
-0.000613118 9.34003e-05 2.11147e-08
9.34003e-05 -0.000254351 -1.0119e-05
2.11147e-08 -1.0119e-05 -0.000489547
0.00218762 -4.01298e-05 -6.86236e-05
-4.01298e-05 0.00343066 -3.23956e-05
-6.86236e-05 -3.23956e-05 0.00174619
0.000936036 0.000329493 -2.53739e-05
0.000329493 0.00106658 2.12975e-05
-2.53739e-05 2.12975e-05 0.000543245
-0.00157799 5.95422e-05 -6.8854e-05
5.95422e-05 0.00138714 -5.86342e-06
-6.8854e-05 -5.86342e-06 0.000457717
0.000883845 3.51149e-05 1.13115e-05
3.51149e-05 -0.00013978 4.03156e-06
1.13115e-05 4.03156e-06 -0.000469744
-0.002313 0.000184551 -9.15215e-06
0.000184551 0.000695813 -5.26534e-05
-9.15215e-06 -5.26534e-05 -4.82735e-05
0.000180063 0.000230798 -1.85195e-05
0.000230798 0.000538219 7.45222e-06
-1.85195e-05 7.45222e-06 0.000191037
-0.00152114 0.000766839 0.000131681
0.000766839 -0.000337893 0.000100166
0.000131681 0.000100166 -0.00101703
0.000679771 1.40309e-05 5.28229e-05
1.40309e-05 -7.08426e-05 -5.77241e-06
5.28229e-05 -5.77241e-06 -0.000101065
0.00522817 -0.00192726 0.000207163
-0.00192726 0.00537217 -0.000175165
0.000207163 -0.000175165 -0.00251493
0.0166048 0.003499 -0.00015368
0.003499 0.00738259 0.000138938
-0.00015368 0.000138938 0.00337219
0.00336674 -0.000549425 -0.0001619
-0.000549425 0.00220099 0.000111334
-0.0001619 0.000111334 0.00116813
0.0123535 0.0042646 -5.35938e-05
0.0042646 0.0043566 -0.000197907
-5.35938e-05 -0.000197907 0.00179639
0.000375806 0.000190103 -5.71603e-05
0.000190103 0.00106188 1.37594e-05
-5.71603e-05 1.37594e-05 0.000140337
9.18431e-05 -0.000166025 -6.60747e-05
-0.000166025 0.00157983 1.1545e-06
-6.60747e-05 1.1545e-06 0.00115597
0.00335079 -0.0012647 0.00025523
-0.0012647 0.00150604 -3.10019e-05
0.00025523 -3.10019e-05 -0.00305813
-0.00212329 -0.000134688 3.79369e-05
-0.000134688 -0.000429443 2.99977e-05
3.79369e-05 2.99977e-05 -0.000826711
0.0105871 0.00718029 0.000521208
0.00718029 0.0078471 -0.000243503
0.000521208 -0.000243503 0.0054393
0.00693974 0.00280338 -0.000161537
0.00280338 0.00228364 0.000334118
-0.000161537 0.000334118 -0.00143907
-0.00263343 -0.0011787 0.000155713
-0.0011787 0.0025834 -0.000129451
0.000155713 -0.000129451 -0.0045446
-0.000391251 -0.000365833 2.50985e-05
-0.000365833 0.000601368 -2.52145e-05
2.50985e-05 -2.52145e-05 -0.000309767
0.00018275 -0.000653293 0.000253427
-0.000653293 -0.000227492 -6.05713e-05
0.000253427 -6.05713e-05 -0.00315569
-0.0013237 0.000305988 -0.000980675
0.000305988 0.00604972 0.000272025
-0.000980675 0.000272025 0.00251379
0.0149276 0.0063067 -0.000538109
0.0063067 0.00445003 0.000530227
-0.000538109 0.000530227 0.00131273
0.00875443 -0.00307658 -0.000127603
-0.00307658 0.00353086 4.83166e-05
-0.000127603 4.83166e-05 -8.54499e-05
0.00288879 -0.00131493 1.7058e-06
-0.00131493 0.00232809 1.33312e-05
1.7058e-06 1.33312e-05 0.001597
0.000381476 -5.03712e-05 8.12509e-06
-5.03712e-05 0.000539273 2.59968e-06
8.12509e-06 2.59968e-06 0.000172262
0.000138776 -0.000345923 1.43081e-07
-0.000345923 0.000355728 -7.45807e-07
1.43081e-07 -7.45807e-07 -0.000127436
0.000696888 -0.000638809 5.71006e-06
-0.000638809 0.000374157 -4.54317e-06
5.71006e-06 -4.54317e-06 0.000129211
-0.000527088 -0.000208145 1.7428e-06
-0.000208145 1.86699e-05 7.99756e-06
1.7428e-06 7.99756e-06 -0.000326558
-0.000562612 -0.00036003 -8.10768e-07
-0.00036003 -0.000344703 -1.16359e-06
-8.10768e-07 -1.16359e-06 -0.000600534
0.00287459 -0.00080272 3.97583e-05
-0.00080272 0.00118014 -7.85026e-06
3.97583e-05 -7.85026e-06 0.000841962
0.00633867 -0.00113663 -1.39091e-05
-0.00113663 0.00329316 4.22958e-07
-1.39091e-05 4.22958e-07 0.00284503
0.00277301 -0.000749949 9.31743e-06
-0.000749949 0.00122652 -1.61128e-06
9.31743e-06 -1.61128e-06 0.000651122
0.00160561 -0.000738366 8.9125e-06
-0.000738366 0.00038315 -1.24063e-05
8.9125e-06 -1.24063e-05 -0.00020129
0.00200536 -0.000593433 -9.29708e-06
-0.000593433 0.000674001 -6.23402e-06
-9.29708e-06 -6.23402e-06 0.000245042
0.0023309 -0.000768794 2.55083e-06
-0.000768794 0.000784248 -1.11544e-06
2.55083e-06 -1.11544e-06 0.000241679
0.00244131 -0.000838999 -1.46932e-07
-0.000838999 0.000762936 -1.0402e-05
-1.46932e-07 -1.0402e-05 0.000224949
0.00212941 -0.000705228 -5.16662e-06
-0.000705228 0.00039491 -5.06022e-06
-5.16662e-06 -5.06022e-06 1.73105e-05
0.00236283 -0.000827769 -6.81306e-06
-0.000827769 0.000656997 1.69582e-06
-6.81306e-06 1.69582e-06 0.000205744
0.00219474 -0.000810676 -2.68403e-06
-0.000810676 0.000580608 -1.39276e-07
-2.68403e-06 -1.39276e-07 0.000101073
0.00176571 -0.000616431 8.91704e-06
-0.000616431 0.000521759 -2.0924e-06
8.91704e-06 -2.0924e-06 0.000135994
0.00146034 -0.000600796 2.39094e-06
-0.000600796 0.000308188 -5.32095e-07
2.39094e-06 -5.32095e-07 -8.99855e-05
0.00135203 -0.000573919 2.4311e-06
-0.000573919 0.000236185 -5.67035e-08
2.4311e-06 -5.67035e-08 -0.000181494
0.00181523 -0.000435324 6.83723e-06
-0.000435324 0.000662738 2.64908e-06
6.83723e-06 2.64908e-06 0.000362644
0.00138405 -0.000441259 -1.11176e-06
-0.000441259 0.000362398 -1.54343e-06
-1.11176e-06 -1.54343e-06 3.95212e-05
0.00149037 -0.000501648 6.76628e-06
-0.000501648 0.000358704 1.75332e-07
6.76628e-06 1.75332e-07 5.86159e-06
0.000988445 -0.000199691 2.77438e-06
-0.000199691 0.000346775 -4.13648e-06
2.77438e-06 -4.13648e-06 7.07652e-05
0.000730224 -0.000241905 -1.9722e-06
-0.000241905 0.000105514 1.42304e-06
-1.9722e-06 1.42304e-06 -0.000139533
0.00100311 -0.000358223 2.20378e-06
-0.000358223 0.000170861 -9.00334e-06
2.20378e-06 -9.00334e-06 -0.000107031
0.000138364 -5.13793e-05 -5.69955e-07
-5.13793e-05 -0.000217387 5.22987e-06
-5.69955e-07 5.22987e-06 -0.000354246
0.000734936 -9.93367e-05 -4.04893e-07
-9.93367e-05 0.000213239 8.04053e-07
-4.04893e-07 8.04053e-07 -2.15414e-05
0.00144206 -0.000307353 1.93561e-06
-0.000307353 0.000679558 1.18706e-06
1.93561e-06 1.18706e-06 0.000401669
0.000364514 1.28427e-07 -4.69929e-06
1.28427e-07 -8.865e-05 1.31192e-05
-4.69929e-06 1.31192e-05 -0.000133172
0.000640331 -5.51919e-05 4.68153e-07
-5.51919e-05 9.38266e-05 5.9932e-08
4.68153e-07 5.9932e-08 -2.06811e-05
0.00132243 -0.000180317 -1.15012e-06
-0.000180317 0.000546453 1.37958e-06
-1.15012e-06 1.37958e-06 0.000363592
0.000626987 -5.17018e-05 -3.27656e-07
-5.17018e-05 9.11816e-05 -5.22912e-06
-3.27656e-07 -5.22912e-06 -1.16204e-05
0.000459006 1.7901e-05 -3.33719e-07
1.7901e-05 -2.8017e-05 -3.65628e-07
-3.33719e-07 -3.65628e-07 -6.70168e-05
0.00284637 0.000121191 -3.69502e-05
0.000121191 0.00147315 4.43382e-06
-3.69502e-05 4.43382e-06 0.00147198
0.000532656 1.10967e-05 1.29924e-06
1.10967e-05 7.4483e-06 -7.16958e-06
1.29924e-06 -7.16958e-06 -2.39123e-05
0.00271008 9.97836e-05 4.41251e-06
9.97836e-05 0.00137877 5.0262e-07
4.41251e-06 5.0262e-07 0.00138279
0.00262425 8.00908e-05 3.02521e-05
8.00908e-05 0.00131838 -4.73485e-06
3.02521e-05 -4.73485e-06 0.00132609
0.000851264 9.02827e-05 3.40819e-06
9.02827e-05 0.000318443 -4.62055e-06
3.40819e-06 -4.62055e-06 0.000127592
0.000856175 0.000136562 6.30026e-06
0.000136562 0.000285142 8.41647e-07
6.30026e-06 8.41647e-07 0.000121477
0.000582503 4.09186e-05 2.77108e-06
4.09186e-05 5.82044e-05 -3.19336e-06
2.77108e-06 -3.19336e-06 -2.99448e-05
0.000623127 0.000103497 2.42199e-07
0.000103497 0.00011351 -2.29312e-07
2.42199e-07 -2.29312e-07 -1.84892e-05
0.000479535 -4.23028e-07 3.26449e-07
-4.23028e-07 -3.23307e-05 -6.24599e-06
3.26449e-07 -6.24599e-06 -5.65631e-05
0.000539863 5.00589e-05 1.79312e-07
5.00589e-05 3.46267e-05 -1.29789e-07
1.79312e-07 -1.29789e-07 -4.49501e-05
0.000580555 5.62218e-05 -3.7308e-06
5.62218e-05 8.00825e-05 -1.82073e-06
-3.7308e-06 -1.82073e-06 -4.3019e-05
0.00233518 -5.07664e-05 -2.61554e-05
-5.07664e-05 0.00113084 -4.93293e-06
-2.61554e-05 -4.93293e-06 0.00114462
0.000479859 -2.77787e-06 -7.6215e-07
-2.77787e-06 -3.41441e-05 -1.59359e-07
-7.6215e-07 -1.59359e-07 -5.24944e-05
0.000486114 5.52411e-05 -3.17593e-06
5.52411e-05 3.42272e-06 3.74429e-07
-3.17593e-06 3.74429e-07 -6.92168e-05
0.0021764 -3.38418e-05 -4.70408e-06
-3.38418e-05 0.00102959 2.2662e-07
-4.70408e-06 2.2662e-07 0.00104596
0.000474806 -3.24908e-06 -2.25638e-06
-3.24908e-06 -3.91885e-05 3.86526e-06
-2.25638e-06 3.86526e-06 -5.23162e-05
0.00209223 -1.78952e-05 1.51799e-05
-1.78952e-05 0.000976678 4.66054e-06
1.51799e-05 4.66054e-06 0.000994367
-0.00210197 0.000136697 -1.42011e-05
0.000136697 0.00013096 -2.87623e-05
-1.42011e-05 -2.87623e-05 -9.18634e-05
0.00133234 -0.000182909 -1.56453e-05
-0.000182909 0.000129391 1.39122e-05
-1.56453e-05 1.39122e-05 2.31995e-05
3.67833e-05 -0.000187527 7.47448e-06
-0.000187527 0.00149463 -3.45337e-05
7.47448e-06 -3.45337e-05 0.000960795
0.000809517 9.97896e-05 -2.84954e-07
9.97896e-05 0.000250414 1.09598e-06
-2.84954e-07 1.09598e-06 8.35803e-05
0.00038207 8.78778e-05 4.74446e-06
8.78778e-05 -6.31944e-05 -1.27285e-06
4.74446e-06 -1.27285e-06 -0.000214611
-0.00162194 -1.48954e-05 -4.06993e-06
-1.48954e-05 -0.00127738 -6.99528e-06
-4.06993e-06 -6.99528e-06 -0.00141531
-0.000265659 3.43155e-05 1.0418e-06
3.43155e-05 -0.000440016 1.18799e-05
1.0418e-06 1.18799e-05 -0.000577388
0.00289243 0.000395756 -3.33443e-06
0.000395756 0.00152521 -6.20721e-07
-3.33443e-06 -6.20721e-07 0.00127602
0.000727678 4.69278e-05 -5.38494e-06
4.69278e-05 0.000135607 -4.80164e-06
-5.38494e-06 -4.80164e-06 1.35396e-05
0.000457437 9.68292e-05 -6.2305e-06
9.68292e-05 -6.02378e-06 -9.63791e-06
-6.2305e-06 -9.63791e-06 -0.000125798
0.000718602 7.11643e-05 2.43847e-07
7.11643e-05 0.000153477 -4.28865e-07
2.43847e-07 -4.28865e-07 3.18528e-05
0.000960846 0.000159865 -4.84581e-07
0.000159865 0.000331662 -1.86542e-06
-4.84581e-07 -1.86542e-06 0.000201234
0.00079201 0.000120314 6.73297e-06
0.000120314 0.000355097 -1.45688e-05
6.73297e-06 -1.45688e-05 0.000146578
0.00515109 0.000836675 0.000364028
0.000836675 0.00369729 0.000457928
0.000364028 0.000457928 -0.000890442
0.00204018 0.000641855 1.93849e-05
0.000641855 1.18972e-05 8.73044e-05
1.93849e-05 8.73044e-05 -0.00151169
0.00395651 -0.000122748 2.85974e-05
-0.000122748 -0.000183595 -1.82357e-05
2.85974e-05 -1.82357e-05 -0.000523344
0.013884 -0.0017994 -0.000251693
-0.0017994 0.00209767 -0.000131134
-0.000251693 -0.000131134 0.00372712
-0.00358498 0.00158203 6.91537e-05
0.00158203 -0.00215377 0.000424305
6.91537e-05 0.000424305 -0.00649102
0.00270753 -0.00215892 -5.03532e-05
-0.00215892 0.000838494 -2.55907e-05
-5.03532e-05 -2.55907e-05 0.000878545
0.00908565 -0.00202073 -0.000124275
-0.00202073 0.00522519 2.55732e-05
-0.000124275 2.55732e-05 0.000262898
0.00120575 -0.000807101 -8.1895e-05
-0.000807101 0.000865879 0.00010261
-8.1895e-05 0.00010261 0.000563724
0.00935922 -0.00012143 -0.000139037
-0.00012143 0.00618121 8.22933e-07
-0.000139037 8.22933e-07 -9.13834e-05
0.0048754 -0.00251344 0.000100243
-0.00251344 0.00324062 0.00017482
0.000100243 0.00017482 -0.00126205
0.0149371 -0.0038458 -0.000163187
-0.0038458 0.00225631 -0.000682429
-0.000163187 -0.000682429 0.000726863
0.00321237 -3.61164e-05 -0.000123458
-3.61164e-05 0.00294558 0.000108657
-0.000123458 0.000108657 0.0019302
0.0130694 0.00245853 -0.000168521
0.00245853 0.00709101 1.84919e-05
-0.000168521 1.84919e-05 0.00214587
0.018825 -0.00586902 -0.000179803
-0.00586902 0.00902739 -0.00066017
-0.000179803 -0.00066017 0.00517946
0.0206751 -0.00753089 7.96328e-05
-0.00753089 0.00776791 -6.72164e-05
7.96328e-05 -6.72164e-05 0.00580075
0.00097551 0.000273169 1.2333e-05
0.000273169 0.000543588 -2.72306e-08
1.2333e-05 -2.72306e-08 0.0002715
0.000155391 4.74404e-05 2.9848e-06
4.74404e-05 5.64026e-05 2.45699e-06
2.9848e-06 2.45699e-06 -0.000192059
0.000872182 0.000177735 -8.66441e-06
0.000177735 0.000340537 -1.21477e-05
-8.66441e-06 -1.21477e-05 0.000164323
0.0037746 -0.000570718 8.98107e-06
-0.000570718 0.00216457 2.72506e-05
8.98107e-06 2.72506e-05 0.000942617
0.000119622 -9.18273e-05 3.67525e-06
-9.18273e-05 0.000760892 -4.03027e-05
3.67525e-06 -4.03027e-05 0.000323118
-0.000139563 2.40966e-05 -5.12521e-06
2.40966e-05 -0.000199729 2.51566e-06
-5.12521e-06 2.51566e-06 -0.000359586
-0.000585304 4.96856e-05 9.1881e-06
4.96856e-05 2.3611e-05 -7.30974e-06
9.1881e-06 -7.30974e-06 -0.000417347
0.000184479 0.000120525 1.41457e-06
0.000120525 0.000195881 -1.2683e-06
1.41457e-06 -1.2683e-06 -5.05796e-05
0.000514758 0.000339977 1.10217e-05
0.000339977 0.00070397 -7.58999e-07
1.10217e-05 -7.58999e-07 0.000184632
-0.00191678 -9.73057e-05 0.000265873
-9.73057e-05 0.000855395 -1.85801e-05
0.000265873 -1.85801e-05 -0.000945143
-0.00138327 0.000283838 -1.42576e-05
0.000283838 -0.000708467 1.38074e-05
-1.42576e-05 1.38074e-05 -0.00106326
0.00303326 0.000872074 -0.000140869
0.000872074 0.00228926 -7.10119e-05
-0.000140869 -7.10119e-05 0.000944854
0.00136501 0.000197881 0.000167217
0.000197881 0.0016777 5.51316e-05
0.000167217 5.51316e-05 -0.00216071
-0.00191434 0.000145524 -4.49409e-05
0.000145524 0.00110821 1.6431e-05
-4.49409e-05 1.6431e-05 0.00015467
0.00214318 -0.000211813 -2.02882e-05
-0.000211813 0.000470856 -1.59245e-06
-2.02882e-05 -1.59245e-06 0.000688563
-0.000616183 0.000482398 0.000125358
0.000482398 0.000385799 1.33369e-05
0.000125358 1.33369e-05 -0.000608889
0.00133938 0.000306704 -8.60783e-05
0.000306704 0.0020543 8.51668e-05
-8.60783e-05 8.51668e-05 0.000750974
-0.000102149 -0.000232596 -1.17385e-05
-0.000232596 0.00142413 -1.71273e-06
-1.17385e-05 -1.71273e-06 0.000847402
0.0164041 -0.00372463 0.000210736
-0.00372463 0.00802786 -0.000101144
0.000210736 -0.000101144 0.00220744
0.0225593 0.00423586 -0.000100347
0.00423586 0.00981315 -0.00014282
-0.000100347 -0.00014282 0.00567273
0.0048327 -0.00141966 -0.000227154
-0.00141966 0.00238682 0.00023123
-0.000227154 0.00023123 -0.00205708
0.00309727 0.00820483 0.00227053
0.00820483 0.00352166 -0.00146427
0.00227053 -0.00146427 0.00109742
0.00107692 -0.000448793 3.47204e-05
-0.000448793 0.001354 -1.0382e-05
3.47204e-05 -1.0382e-05 0.000359687
-0.000224219 -0.000473404 3.85184e-05
-0.000473404 0.000314416 1.42151e-05
3.85184e-05 1.42151e-05 -0.00316866
-0.000760195 0.000697516 -0.00105913
0.000697516 0.00580688 0.000330125
-0.00105913 0.000330125 0.0019632
0.000835767 -0.000758662 5.70902e-06
-0.000758662 0.00116093 3.22364e-05
5.70902e-06 3.22364e-05 0.000513777
0.0190203 0.00561088 0.000316849
0.00561088 0.00580718 9.12522e-05
0.000316849 9.12522e-05 0.00271879
0.0074192 -0.00432064 0.00017567
-0.00432064 0.0024361 -7.24886e-05
0.00017567 -7.24886e-05 -0.00136495
0.00165598 -0.00116024 -1.28783e-05
-0.00116024 0.000973969 2.94989e-05
-1.28783e-05 2.94989e-05 0.00026483
-0.00642789 -0.0015913 0.000129768
-0.0015913 0.0050273 -7.03299e-05
0.000129768 -7.03299e-05 0.0012033
0.0153354 0.00532318 -0.00138559
0.00532318 0.00600824 0.000505203
-0.00138559 0.000505203 0.00343955
0.0059332 -0.00317253 -0.00040222
-0.00317253 -0.000383687 0.000182651
-0.00040222 0.000182651 -0.00377579
0.00149511 -0.00186514 0.000189273
-0.00186514 0.000119531 -0.000113004
0.000189273 -0.000113004 0.00100139
0.000842224 -0.000452047 -8.54442e-05
-0.000452047 0.000662384 3.13325e-05
-8.54442e-05 3.13325e-05 0.000230023
0.000761488 -0.000574874 -7.48165e-06
-0.000574874 0.000437807 1.23537e-05
-7.48165e-06 1.23537e-05 0.000126467
0.00328812 -0.000856591 2.28654e-05
-0.000856591 0.00150339 -8.74321e-06
2.28654e-05 -8.74321e-06 0.00115614
-0.00200933 -0.000189209 7.146e-06
-0.000189209 -0.000995546 1.17452e-05
7.146e-06 1.17452e-05 -0.00125213
0.00113478 -0.00059112 5.08012e-06
-0.00059112 0.000269823 -1.70949e-06
5.08012e-06 -1.70949e-06 -4.83868e-05
0.00277956 -0.000891179 9.71133e-06
-0.000891179 0.000835222 -6.43146e-07
9.71133e-06 -6.43146e-07 0.000467099
0.00391818 -0.000895083 -2.8414e-05
-0.000895083 0.00178775 3.39568e-06
-2.8414e-05 3.39568e-06 0.00122106
0.0013772 -0.000686305 -2.23888e-07
-0.000686305 0.000243239 -1.06717e-06
-2.23888e-07 -1.06717e-06 -0.000320515
0.00173539 -0.000839736 2.47047e-06
-0.000839736 0.000206317 -1.19963e-05
2.47047e-06 -1.19963e-05 -0.000247404
0.00281288 -0.000838321 -2.63351e-07
-0.000838321 0.00102314 4.28255e-06
-2.63351e-07 4.28255e-06 0.000467546
0.00215971 -0.000811935 6.36719e-07
-0.000811935 0.000581497 -4.82799e-06
6.36719e-07 -4.82799e-06 6.22817e-05
0.00259326 -0.000762758 4.63048e-07
-0.000762758 0.00060512 -9.51905e-06
4.63048e-07 -9.51905e-06 0.00023225
0.00172413 -0.000497642 -5.2795e-06
-0.000497642 9.65173e-06 -3.04889e-06
-5.2795e-06 -3.04889e-06 -0.000234495
0.00186205 -0.000701344 -1.65679e-06
-0.000701344 0.000192228 -1.26657e-06
-1.65679e-06 -1.26657e-06 -0.000183245
0.00210068 -0.000703194 2.90527e-06
-0.000703194 0.000371675 -2.90074e-06
2.90527e-06 -2.90074e-06 -3.31286e-06
0.00219981 -0.000725371 -2.81664e-06
-0.000725371 0.000626441 -5.25188e-07
-2.81664e-06 -5.25188e-07 0.000221985
0.002308 -0.00082046 -2.78347e-06
-0.00082046 0.000636153 2.34874e-08
-2.78347e-06 2.34874e-08 0.000181001
0.00242786 -0.000839565 5.95718e-06
-0.000839565 0.000705477 -3.53552e-06
5.95718e-06 -3.53552e-06 0.000216577
0.00194456 -0.000538749 6.73096e-06
-0.000538749 0.000687526 1.09813e-06
6.73096e-06 1.09813e-06 0.000336481
0.00136024 -0.000562293 2.44197e-06
-0.000562293 0.000291406 -1.40534e-07
2.44197e-06 -1.40534e-07 -7.89269e-05
0.00125566 -0.000570423 2.42591e-06
-0.000570423 0.000190811 1.43607e-06
2.42591e-06 1.43607e-06 -0.000193919
0.00135828 -0.000348161 -5.8644e-07
-0.000348161 0.000450653 -1.61843e-07
-5.8644e-07 -1.61843e-07 0.000185101
0.00120034 -0.000360616 6.27662e-07
-0.000360616 0.000292914 -5.01171e-07
6.27662e-07 -5.01171e-07 8.8962e-06
0.00130472 -0.000429186 -6.83827e-06
-0.000429186 0.00031803 -9.21258e-07
-6.83827e-06 -9.21258e-07 -4.95694e-06
-0.000349147 -8.41525e-05 -2.24289e-06
-8.41525e-05 -0.000506817 2.51904e-06
-2.24289e-06 2.51904e-06 -0.000709144
0.000763718 -0.00022182 9.71031e-07
-0.00022182 0.000214255 -2.57914e-07
9.71031e-07 -2.57914e-07 -6.51478e-05
0.00130072 -0.000293056 -4.25409e-06
-0.000293056 0.000475121 1.64927e-06
-4.25409e-06 1.64927e-06 0.000219116
0.00178103 3.40588e-05 -4.22459e-05
3.40588e-05 0.000805667 8.20525e-06
-4.22459e-05 8.20525e-06 0.000758005
0.000685814 -0.000102822 3.49128e-07
-0.000102822 0.000115881 -5.96701e-07
3.49128e-07 -5.96701e-07 -2.88043e-05
0.00142448 -0.000150263 -1.58833e-06
-0.000150263 0.000640851 2.00977e-06
-1.58833e-06 2.00977e-06 0.000398046
0.000707775 3.69514e-05 -4.79785e-05
3.69514e-05 0.000130706 5.70204e-06
-4.79785e-05 5.70204e-06 0.000121259
0.00115612 2.203e-05 -1.588e-05
2.203e-05 0.000409763 -5.54729e-07
-1.588e-05 -5.54729e-07 0.000366183
0.000748797 -6.61058e-05 2.01926e-06
-6.61058e-05 0.000155433 -6.55322e-06
2.01926e-06 -6.55322e-06 4.04326e-05
0.000592662 1.27689e-05 2.03382e-06
1.27689e-05 5.19937e-05 -9.04664e-06
2.03382e-06 -9.04664e-06 1.33492e-05
0.00291895 0.000122324 7.67415e-06
0.000122324 0.00151878 6.98252e-07
7.67415e-06 6.98252e-07 0.00151746
0.00270701 0.000100337 3.39889e-05
0.000100337 0.00137718 -4.55198e-06
3.39889e-05 -4.55198e-06 0.0013812
0.00100135 0.000135087 9.89069e-06
0.000135087 0.000394044 -1.07823e-06
9.89069e-06 -1.07823e-06 0.000184798
0.00126556 0.000156568 4.41603e-06
0.000156568 0.000558174 -2.09226e-06
4.41603e-06 -2.09226e-06 0.000363211
7.19722e-05 5.98328e-05 1.9028e-07
5.98328e-05 -0.000193247 6.00473e-07
1.9028e-07 6.00473e-07 -0.000361743
0.000632482 3.73297e-05 3.14004e-06
3.73297e-05 8.9065e-05 -4.49944e-06
3.14004e-06 -4.49944e-06 -1.07538e-05
0.000806762 0.000109475 6.82086e-07
0.000109475 0.000242967 6.22307e-08
6.82086e-07 6.22307e-08 8.98015e-05
0.000469441 1.0159e-05 -1.83865e-06
1.0159e-05 -3.346e-05 -7.64941e-06
-1.83865e-06 -7.64941e-06 -6.30233e-05
0.000544693 4.24344e-05 -1.04936e-07
4.24344e-05 3.72998e-05 -3.92425e-07
-1.04936e-07 -3.92425e-07 -5.17131e-05
0.00071978 6.9993e-05 -3.0511e-06
6.9993e-05 0.000197079 -4.55892e-07
-3.0511e-06 -4.55892e-07 4.80407e-05
0.00255913 -6.90226e-05 -3.43844e-05
-6.90226e-05 0.00127508 -4.89847e-06
-3.43844e-05 -4.89847e-06 0.0012856
0.000456888 2.68172e-06 -6.14087e-07
2.68172e-06 -4.56816e-05 -1.4061e-07
-6.14087e-07 -1.4061e-07 -6.96934e-05
0.000556941 5.40191e-05 -7.65425e-07
5.40191e-05 4.66046e-05 2.6715e-06
-7.65425e-07 2.6715e-06 -3.34752e-05
0.00234496 -5.09787e-05 -5.91917e-06
-5.09787e-05 0.001137 3.49031e-07
-5.91917e-06 3.49031e-07 0.00115078
0.000442764 -1.06623e-05 -3.72728e-06
-1.06623e-05 -5.7013e-05 4.8235e-06
-3.72728e-06 4.8235e-06 -7.5071e-05
0.0022013 -3.26516e-05 2.07673e-05
-3.26516e-05 0.00104519 4.6224e-06
2.07673e-05 4.6224e-06 0.00106165
0.00641347 0.000566357 0.000296994
0.000566357 0.00355982 6.3302e-05
0.000296994 6.3302e-05 0.00144512
-0.00183741 8.30707e-05 -2.12533e-06
8.30707e-05 0.000104908 -6.27972e-06
-2.12533e-06 -6.27972e-06 -0.000332315
0.000677396 4.9571e-05 -1.52748e-05
4.9571e-05 0.000202212 -6.24016e-06
-1.52748e-05 -6.24016e-06 6.39087e-05
-0.000375137 0.000103579 -7.49454e-06
0.000103579 -0.000550722 2.11627e-06
-7.49454e-06 2.11627e-06 -0.000698263
0.000446972 6.84298e-05 -5.96513e-06
6.84298e-05 1.3048e-05 -3.69489e-06
-5.96513e-06 -3.69489e-06 -0.000137966
-3.58832e-05 5.98157e-05 -6.67997e-08
5.98157e-05 -0.000319085 -2.53655e-06
-6.67997e-08 -2.53655e-06 -0.000467019
0.00114894 7.00695e-05 1.2654e-06
7.00695e-05 0.000420338 -3.16311e-07
1.2654e-06 -3.16311e-07 0.000270177
0.000102352 8.7112e-05 -2.42175e-06
8.7112e-05 -0.000243477 -2.06627e-06
-2.42175e-06 -2.06627e-06 -0.000384723
0.00205325 0.000289052 -2.34644e-06
0.000289052 0.00101331 -3.64949e-06
-2.34644e-06 -3.64949e-06 0.000815535
0.00105938 0.000242059 -8.1139e-06
0.000242059 0.000363927 -1.43713e-05
-8.1139e-06 -1.43713e-05 7.17782e-05
-0.000943095 8.34294e-05 5.54409e-07
8.34294e-05 -0.00060535 4.6386e-07
5.54409e-07 4.6386e-07 -0.000920924
0.000832371 0.000152458 -5.26348e-06
0.000152458 0.000249437 -4.55067e-06
-5.26348e-06 -4.55067e-06 0.00010921
0.000136259 5.39631e-05 -7.25407e-06
5.39631e-05 -0.000221699 -7.9807e-06
-7.25407e-06 -7.9807e-06 -0.000316062
4.08532e-05 4.97494e-05 1.8311e-07
4.97494e-05 -0.000120774 1.00307e-06
1.8311e-07 1.00307e-06 -0.000315988
0.000916286 0.000266816 1.50589e-05
0.000266816 0.000572713 -2.83187e-06
1.50589e-05 -2.83187e-06 0.000211323
0.00278235 -0.00270001 0.000134625
-0.00270001 0.00538784 0.000252938
0.000134625 0.000252938 0.000315649
0.00592829 0.00116447 0.000117568
0.00116447 0.00306889 0.000163083
0.000117568 0.000163083 -0.0018888
0.00279043 0.00042584 -3.18619e-05
0.00042584 0.000518035 -7.89505e-05
-3.18619e-05 -7.89505e-05 -0.0012285
0.0224833 -0.00483392 -0.000666403
-0.00483392 0.00587823 -0.000353538
-0.000666403 -0.000353538 0.00411643
0.0058798 -0.00171127 0.000252106
-0.00171127 0.00356981 0.000462856
0.000252106 0.000462856 0.000242261
0.00366856 -0.00147352 -0.000226873
-0.00147352 0.0049357 9.25412e-05
-0.000226873 9.25412e-05 -0.00201792
-0.000901875 -0.000490638 0.000134647
-0.000490638 0.000955846 1.23118e-05
0.000134647 1.23118e-05 2.63404e-05
-0.000295553 -0.000149628 8.08056e-05
-0.000149628 0.000919414 5.48472e-05
8.08056e-05 5.48472e-05 0.000281152
0.0126561 -0.00781499 0.000426
-0.00781499 0.00569522 0.000402298
0.000426 0.000402298 0.00350835
0.00183505 0.00140538 -9.12845e-05
0.00140538 0.00398727 -7.90575e-05
-9.12845e-05 -7.90575e-05 -0.00226289
0.00751314 -0.00347855 -0.000121987
-0.00347855 0.00308486 9.81142e-05
-0.000121987 9.81142e-05 -0.00135371
0.000548293 0.000652749 -1.92889e-05
0.000652749 0.00104118 7.04343e-05
-1.92889e-05 7.04343e-05 0.000739115
0.0116174 0.00357036 -0.000103638
0.00357036 0.00402979 6.66431e-06
-0.000103638 6.66431e-06 0.000324247
0.0130447 -0.00620226 -0.000772432
-0.00620226 0.00378885 -0.000499484
-0.000772432 -0.000499484 0.000333454
-0.000253682 0.000425659 -3.54597e-07
0.000425659 -0.000534444 -4.79631e-06
-3.54597e-07 -4.79631e-06 -0.000674234
0.000450203 0.000141202 8.00551e-06
0.000141202 0.000195051 3.49913e-06
8.00551e-06 3.49913e-06 -2.02032e-05
6.85584e-05 5.95621e-05 -7.65355e-06
5.95621e-05 -1.23124e-05 -4.76851e-06
-7.65355e-06 -4.76851e-06 -0.000250095
-0.00394137 -0.000356779 -0.000130131
-0.000356779 -0.000335311 -6.74588e-05
-0.000130131 -6.74588e-05 -0.00208048
-0.000896222 0.000255004 1.90828e-05
0.000255004 -0.000210274 -2.31361e-05
1.90828e-05 -2.31361e-05 -0.000721721
0.00116456 0.000171177 -5.15278e-06
0.000171177 0.00074136 9.85651e-06
-5.15278e-06 9.85651e-06 0.000488486
0.00101413 0.000603005 1.58675e-05
0.000603005 0.000538799 4.16773e-06
1.58675e-05 4.16773e-06 0.000153539
-0.000421227 0.000464307 4.08169e-05
0.000464307 0.000618007 -2.97544e-05
4.08169e-05 -2.97544e-05 -0.00053819
0.000659635 0.00119135 5.80254e-05
0.00119135 -6.86791e-05 6.68809e-06
5.80254e-05 6.68809e-06 -0.000819368
-0.00561394 0.00104899 0.000325263
0.00104899 0.00521842 8.3588e-06
0.000325263 8.3588e-06 -0.00113551
0.00227598 -0.000117634 -7.81942e-06
-0.000117634 0.00192377 6.06145e-05
-7.81942e-06 6.06145e-05 -0.000738806
-0.00229128 -5.27218e-05 -1.05401e-05
-5.27218e-05 0.000653827 4.58212e-05
-1.05401e-05 4.58212e-05 -6.09557e-05
-0.000343932 -0.000257468 -6.0372e-05
-0.000257468 0.000699364 1.5416e-05
-6.0372e-05 1.5416e-05 -0.00034077
-0.00141611 -0.00037156 -5.61681e-05
-0.00037156 -0.000467899 4.33024e-05
-5.61681e-05 4.33024e-05 -0.000211463
-0.000118431 -0.000386473 -0.000172977
-0.000386473 0.000661058 0.000105835
-0.000172977 0.000105835 -0.00304196
0.000172917 -0.00351036 0.000252014
-0.00351036 0.00205425 -8.51122e-05
0.000252014 -8.51122e-05 -0.00341151
0.00774666 0.00476908 0.000627251
0.00476908 -0.00013676 -0.000423785
0.000627251 -0.000423785 -0.00295572
0.00914353 0.00291177 -0.000384049
0.00291177 0.0070331 0.000295794
-0.000384049 0.000295794 0.00326077
0.00115638 -0.000711956 -1.0709e-05
-0.000711956 0.00112509 -2.2318e-06
-1.0709e-05 -2.2318e-06 0.000456961
0.00168868 0.000476561 0.00011063
0.000476561 0.00685208 -1.65464e-05
0.00011063 -1.65464e-05 0.00316545
0.000205671 0.0036322 1.05388e-05
0.0036322 0.000526343 6.46332e-05
1.05388e-05 6.46332e-05 -0.00274546
0.00246654 -0.00235074 8.60646e-05
-0.00235074 0.000689227 -3.83337e-05
8.60646e-05 -3.83337e-05 0.000859671
0.0169029 -0.0034632 2.06435e-05
-0.0034632 0.00362349 -5.66522e-06
2.06435e-05 -5.66522e-06 0.00173046
0.00319008 -0.00146968 9.14377e-06
-0.00146968 0.00127203 1.97439e-05
9.14377e-06 1.97439e-05 0.000974029
-0.00863039 0.00109721 -0.000518601
0.00109721 -0.00281596 7.61067e-05
-0.000518601 7.61067e-05 -0.00529448
0.0157556 -0.00222313 -0.000216267
-0.00222313 0.00227423 7.07372e-05
-0.000216267 7.07372e-05 0.000831981
0.00385439 -0.00253868 9.99908e-05
-0.00253868 -0.000113109 -6.97261e-05
9.99908e-05 -6.97261e-05 0.000278658
0.000303372 -0.00044343 -1.12448e-05
-0.00044343 0.000279365 1.82884e-05
-1.12448e-05 1.82884e-05 -9.65105e-05
0.000861471 -0.000716276 -1.67921e-06
-0.000716276 8.3918e-05 -8.82896e-07
-1.67921e-06 -8.82896e-07 -0.000135142
0.00581339 -0.00103663 2.56513e-05
-0.00103663 0.00251453 -9.64482e-06
2.56513e-05 -9.64482e-06 0.00213934
-0.000670425 -0.000381689 -8.05042e-06
-0.000381689 -0.0006622 7.03028e-06
-8.05042e-06 7.03028e-06 -0.000971898
0.0013514 -0.000731763 -4.43472e-06
-0.000731763 0.000112381 -1.2565e-06
-4.43472e-06 -1.2565e-06 -0.000259976
0.00280661 -0.000951346 5.54804e-06
-0.000951346 0.000659127 -7.5378e-06
5.54804e-06 -7.5378e-06 0.00028079
0.00155702 -0.000685306 -1.32798e-05
-0.000685306 0.000310895 7.09983e-06
-1.32798e-05 7.09983e-06 -0.00023579
0.00184277 -0.000840325 -1.52339e-06
-0.000840325 0.000266579 3.39467e-07
-1.52339e-06 3.39467e-07 -0.00019425
0.00166952 -0.000684217 2.08641e-07
-0.000684217 -6.42334e-05 -6.74862e-06
2.08641e-07 -6.74862e-06 -0.00035012
0.0014966 -0.000740261 -3.75298e-06
-0.000740261 0.000194786 2.52532e-06
-3.75298e-06 2.52532e-06 -0.000301343
0.00192905 -0.000679851 -9.00755e-07
-0.000679851 0.000248076 1.46871e-06
-9.00755e-07 1.46871e-06 -0.000107052
0.00195717 -0.000517168 -1.04653e-06
-0.000517168 7.71306e-05 -4.30269e-06
-1.04653e-06 -4.30269e-06 -0.000129294
0.00185761 -0.000426881 -5.40226e-06
-0.000426881 7.4433e-05 -1.05323e-06
-5.40226e-06 -1.05323e-06 -9.65367e-05
0.00168051 -0.000510417 -5.87747e-06
-0.000510417 5.03677e-07 -1.92694e-06
-5.87747e-06 -1.92694e-06 -0.00025495
0.00178703 -0.000496558 1.42899e-06
-0.000496558 5.02685e-05 2.70682e-06
1.42899e-06 2.70682e-06 -0.000190147
0.00164375 -0.000605508 -5.78867e-06
-0.000605508 0.000120083 -2.23887e-06
-5.78867e-06 -2.23887e-06 -0.000217491
0.00202857 -0.00070817 2.71094e-06
-0.00070817 0.000308821 -3.67014e-07
2.71094e-06 -3.67014e-07 -6.28386e-05
0.00208663 -0.000701378 5.37946e-06
-0.000701378 0.000359114 1.46994e-06
5.37946e-06 1.46994e-06 -1.32176e-05
0.00158836 -0.000589812 -1.56326e-06
-0.000589812 0.000307834 -1.94418e-06
-1.56326e-06 -1.94418e-06 -6.26604e-05
0.0020351 -0.000712597 1.85494e-06
-0.000712597 0.000525266 -6.63726e-07
1.85494e-06 -6.63726e-07 0.000120775
0.00221112 -0.000807056 1.03105e-06
-0.000807056 0.000590943 -1.69439e-06
1.03105e-06 -1.69439e-06 0.000132826
0.00128029 -0.000352044 -5.72157e-06
-0.000352044 0.00029675 1.89243e-06
-5.72157e-06 1.89243e-06 3.1345e-05
0.00145915 -0.000483308 2.13859e-06
-0.000483308 0.000377776 1.17991e-06
2.13859e-06 1.17991e-06 4.12925e-05
0.0008779 -0.000498407 -5.08235e-06
-0.000498407 1.42575e-05 1.42012e-06
-5.08235e-06 1.42012e-06 -0.000338682
0.000516699 -0.000196742 -6.22822e-06
-0.000196742 -3.26263e-05 -1.36647e-07
-6.22822e-06 -1.36647e-07 -0.000252333
0.00105776 -0.000332311 3.00047e-07
-0.000332311 0.000253437 -4.92134e-07
3.00047e-07 -4.92134e-07 -3.29597e-06
0.000382473 -0.000269903 -9.22009e-06
-0.000269903 -0.000199599 -1.71102e-07
-9.22009e-06 -1.71102e-07 -0.000464703
0.000285149 -3.94867e-05 -9.34593e-06
-3.94867e-05 -0.000143468 1.30183e-05
-9.34593e-06 1.30183e-05 -0.000212239
0.000879429 -0.000154453 2.3686e-06
-0.000154453 0.000253604 1.00422e-06
2.3686e-06 1.00422e-06 4.15719e-05
0.000798565 -0.000242101 5.31044e-07
-0.000242101 0.00023381 1.76574e-06
5.31044e-07 1.76574e-06 -4.0123e-05
0.00365636 0.000217519 2.10441e-06
0.000217519 0.00201478 4.56501e-06
2.10441e-06 4.56501e-06 0.00198398
0.000427042 -1.59408e-05 1.48161e-07
-1.59408e-05 -5.12682e-05 -3.75999e-07
1.48161e-07 -3.75999e-07 -0.000107299
0.00118134 -0.000105475 -1.72526e-07
-0.000105475 0.000428497 -6.43526e-06
-1.72526e-07 -6.43526e-06 0.000273231
0.00323383 0.000140843 8.25996e-06
0.000140843 0.0017236 6.6672e-07
8.25996e-06 6.6672e-07 0.0017177
0.000526502 2.77895e-07 3.88342e-06
2.77895e-07 1.30403e-05 -1.04656e-05
3.88342e-06 -1.04656e-05 -3.42828e-05
0.0029552 0.000118184 4.8932e-05
0.000118184 0.00154063 -4.58197e-06
4.8932e-05 -4.58197e-06 0.00154042
0.00209264 0.000304699 7.06058e-06
0.000304699 0.000998198 3.50917e-06
7.06058e-06 3.50917e-06 0.000775553
0.00082345 0.000148548 6.15599e-07
0.000148548 0.000292567 -3.6063e-06
6.15599e-07 -3.6063e-06 7.75203e-05
0.00122256 0.000159245 1.267e-06
0.000159245 0.000548518 -6.78025e-06
1.267e-06 -6.78025e-06 0.000320156
0.000646632 5.28902e-05 2.75794e-06
5.28902e-05 0.000102545 -5.57283e-06
2.75794e-06 -5.57283e-06 -1.44962e-05
0.000730515 9.90397e-05 1.60585e-07
9.90397e-05 0.000211865 1.38829e-06
1.60585e-07 1.38829e-06 3.06139e-05
0.000368459 0.000110102 -1.00535e-06
0.000110102 7.05988e-06 4.80131e-06
-1.00535e-06 4.80131e-06 -0.000175963
0.000506603 -9.57946e-07 -1.73782e-06
-9.57946e-07 -4.23757e-06 -9.14499e-06
-1.73782e-06 -9.14499e-06 -4.04055e-05
0.00059937 4.18373e-05 -4.0321e-08
4.18373e-05 7.36275e-05 -3.08256e-07
-4.0321e-08 -3.08256e-07 -2.81412e-05
0.000426305 8.44425e-05 -4.62649e-06
8.44425e-05 -8.95708e-06 -3.97836e-07
-4.62649e-06 -3.97836e-07 -0.00014668
0.00272733 -8.64178e-05 -4.31162e-05
-8.64178e-05 0.00138596 -4.644e-06
-4.31162e-05 -4.644e-06 0.00139349
0.00043022 -1.85338e-05 2.6326e-06
-1.85338e-05 -5.63575e-05 -1.27945e-07
2.6326e-06 -1.27945e-07 -8.65966e-05
0.000512655 4.67646e-05 -2.02415e-06
4.67646e-05 1.88215e-05 3.2835e-06
-2.02415e-06 3.2835e-06 -7.06878e-05
0.00253551 -6.9199e-05 -6.45477e-06
-6.9199e-05 0.0012601 4.74241e-07
-6.45477e-06 4.74241e-07 0.00127055
0.000443904 -4.4846e-06 -2.08831e-06
-4.4846e-06 -5.35727e-05 5.99234e-06
-2.08831e-06 5.99234e-06 -7.72479e-05
0.00230953 -5.01574e-05 2.32837e-05
-5.01574e-05 0.00111461 4.65217e-06
2.32837e-05 4.65217e-06 0.00112869
-0.00961736 0.00101656 -9.0856e-05
0.00101656 0.00355357 8.04562e-05
-9.0856e-05 8.04562e-05 -0.00243843
0.00603244 0.000389131 3.80766e-07
0.000389131 0.00346681 -2.06881e-06
3.80766e-07 -2.06881e-06 0.00145115
-0.00149341 2.73603e-05 3.47884e-05
2.73603e-05 0.000120641 1.40326e-05
3.47884e-05 1.40326e-05 -0.000534529
0.000177295 0.000122784 -1.16922e-06
0.000122784 -0.000174983 1.99018e-06
-1.16922e-06 1.99018e-06 -0.000356083
0.00340906 0.000637011 1.23513e-05
0.000637011 0.00174332 1.05141e-05
1.23513e-05 1.05141e-05 0.00140329
0.00151521 0.000188315 -8.64917e-06
0.000188315 0.000732064 1.36075e-06
-8.64917e-06 1.36075e-06 0.000441046
0.000632418 7.24318e-05 -6.97565e-06
7.24318e-05 9.90774e-05 -1.23652e-05
-6.97565e-06 -1.23652e-05 -5.3741e-05
0.00249249 0.000267122 3.54131e-06
0.000267122 0.0012035 -1.56531e-06
3.54131e-06 -1.56531e-06 0.00104309
-0.000501731 4.33625e-05 -8.31853e-06
4.33625e-05 -0.00054845 8.49722e-06
-8.31853e-06 8.49722e-06 -0.000691849
0.000184262 9.05073e-05 -1.3808e-06
9.05073e-05 -5.06506e-06 5.29924e-06
-1.3808e-06 5.29924e-06 -0.000271828
0.000551811 0.000152448 -2.76382e-06
0.000152448 0.000104352 -5.47186e-06
-2.76382e-06 -5.47186e-06 -0.00018976
0.00187067 0.000458571 7.01095e-06
0.000458571 0.000925808 -2.77605e-05
7.01095e-06 -2.77605e-05 0.000507618
0.000213918 0.000444435 -1.54683e-05
0.000444435 -0.000207022 4.64962e-05
-1.54683e-05 4.64962e-05 -0.000359812
0.00145884 3.91538e-05 -1.15773e-05
3.91538e-05 0.000713278 1.42248e-05
-1.15773e-05 1.42248e-05 0.000527164
0.00135218 0.000235512 4.49337e-06
0.000235512 0.000840306 -1.03749e-05
4.49337e-06 -1.03749e-05 0.000492085
-0.00098691 -0.00215148 -0.00139074
-0.00215148 0.00117832 -0.000243015
-0.00139074 -0.000243015 -0.00231201
-0.00280636 -0.0020403 0.000475037
-0.0020403 0.0051891 0.000192236
0.000475037 0.000192236 -5.2416e-05
0.00665873 0.00146423 -0.000494211
0.00146423 0.00288809 -0.000172662
-0.000494211 -0.000172662 -0.00243355
0.0024776 -0.00820352 0.0022324
-0.00820352 0.00349257 0.00142811
0.0022324 0.00142811 0.000722494
0.0235548 -0.00363333 5.96569e-05
-0.00363333 0.00797019 0.00033189
5.96569e-05 0.00033189 0.0048947
-0.00293239 0.00142681 -1.4038e-05
0.00142681 0.00209296 -0.000183764
-1.4038e-05 -0.000183764 -0.00342735
-0.00256683 0.000165838 -0.000393555
0.000165838 0.000508309 -6.79307e-05
-0.000393555 -6.79307e-05 -0.00110209
0.00117199 0.000698463 7.21468e-05
0.000698463 0.00152555 4.98815e-05
7.21468e-05 4.98815e-05 0.00122404
0.0187426 -0.00455376 -0.000585122
-0.00455376 0.00767215 7.3658e-06
-0.000585122 7.3658e-06 0.00434786
-0.00238549 0.00268249 -0.000101733
0.00268249 0.000360466 -4.57699e-05
-0.000101733 -4.57699e-05 -0.00424168
0.00294119 0.0019459 8.99108e-06
0.0019459 0.000862753 -7.05206e-05
8.99108e-06 -7.05206e-05 0.00147148
0.00246662 0.00419101 -0.000361622
0.00419101 -0.00202247 -0.000106107
-0.000361622 -0.000106107 -0.0046875
0.00322064 0.00111912 2.22531e-05
0.00111912 0.0011785 -1.28779e-05
2.22531e-05 -1.28779e-05 0.000842642
0.000995593 0.000537298 -6.30288e-06
0.000537298 0.000276752 -1.14755e-06
-6.30288e-06 -1.14755e-06 0.000114187
-0.00014598 0.000139314 -4.62049e-06
0.000139314 -0.000158175 1.0985e-07
-4.62049e-06 1.0985e-07 -0.000379729
-0.00181194 0.000312364 -6.92263e-05
0.000312364 -0.000117331 -7.44356e-05
-6.92263e-05 -7.44356e-05 -0.00112233
0.00227945 0.000769653 -2.98173e-05
0.000769653 0.0011598 -2.16005e-05
-2.98173e-05 -2.16005e-05 0.000757853
0.00168451 0.00131113 1.16714e-05
0.00131113 0.000384951 -7.95504e-06
1.16714e-05 -7.95504e-06 -0.00035568
-0.000532728 0.00146693 9.85068e-05
0.00146693 -0.00157243 4.40419e-05
9.85068e-05 4.40419e-05 -0.0018622
-0.00606361 -0.000414545 -0.000543816
-0.000414545 -0.00449276 4.04413e-05
-0.000543816 4.04413e-05 -0.00395839
-0.00805042 0.000473142 0.000352326
0.000473142 0.0053485 1.54397e-05
0.000352326 1.54397e-05 -0.000583173
0.00292964 -0.000105844 -0.000115218
-0.000105844 0.00203633 3.38213e-05
-0.000115218 3.38213e-05 0.000305136
0.00234988 -0.000889825 -4.59746e-05
-0.000889825 0.00134693 -4.77496e-05
-4.59746e-05 -4.77496e-05 0.000697791
-0.000482361 -0.00180904 1.52342e-05
-0.00180904 -0.000690258 4.69168e-05
1.52342e-05 4.69168e-05 -0.000450417
0.000636441 0.000545118 3.88445e-05
0.000545118 0.00656422 3.98676e-05
3.88445e-05 3.98676e-05 0.00279514
0.00192959 -0.00294853 0.000429742
-0.00294853 -0.0016243 -0.000122504
0.000429742 -0.000122504 -0.00403486
0.0204762 0.00318931 0.000750736
0.00318931 0.00900881 -9.43703e-05
0.000750736 -9.43703e-05 0.00633663
0.00158756 -0.00150586 -1.63762e-05
-0.00150586 0.000331988 5.19874e-06
-1.63762e-05 5.19874e-06 -0.000207846
0.00169757 0.00132201 0.000238267
0.00132201 0.000482983 -7.17611e-05
0.000238267 -7.17611e-05 -0.00142982
0.00776423 -0.00194309 -0.000149664
-0.00194309 -0.00200771 0.000133779
-0.000149664 0.000133779 -0.00422078
0.00408874 -0.00255491 -1.27264e-05
-0.00255491 -0.000229748 2.65821e-05
-1.27264e-05 2.65821e-05 0.000327194
0.00248024 -0.00128857 7.14373e-05
-0.00128857 0.000204638 -1.82214e-05
7.14373e-05 -1.82214e-05 9.21764e-05
0.0158979 -0.00079579 -5.41226e-05
-0.00079579 0.00316868 3.81484e-05
-5.41226e-05 3.81484e-05 0.00189481
0.00232468 -0.00161533 0.000119986
-0.00161533 -0.00299372 -9.04554e-05
0.000119986 -9.04554e-05 -0.00182863
-0.000761307 -0.000584094 -3.07306e-05
-0.000584094 -0.000893295 2.82753e-05
-3.07306e-05 2.82753e-05 -0.000981047
0.000171536 -0.000532961 -3.86802e-05
-0.000532961 -0.000583712 3.26709e-06
-3.86802e-05 3.26709e-06 -0.000712301
0.00605126 -0.00108137 6.33012e-05
-0.00108137 0.00228608 -2.1583e-05
6.33012e-05 -2.1583e-05 0.00207983
0.000443143 -0.000618514 -1.69485e-05
-0.000618514 -0.000332466 -2.8944e-06
-1.69485e-05 -2.8944e-06 -0.000709615
0.00210548 -0.000866233 -1.75384e-06
-0.000866233 0.000296766 -3.16534e-06
-1.75384e-06 -3.16534e-06 -5.88948e-05
0.00271034 -0.000795796 1.40769e-06
-0.000795796 0.000325021 -4.7398e-06
1.40769e-06 -4.7398e-06 0.000123635
0.00222685 -0.000872104 -2.45271e-06
-0.000872104 0.000470237 8.5022e-06
-2.45271e-06 8.5022e-06 -1.32426e-06
0.00213173 -0.000725328 -7.49042e-07
-0.000725328 0.000187647 1.33435e-06
-7.49042e-07 1.33435e-06 -0.000104289
0.00210417 -0.000540984 3.51877e-07
-0.000540984 4.27433e-05 -1.39988e-06
3.51877e-07 -1.39988e-06 -9.08344e-05
0.00138513 -0.000610204 5.63891e-06
-0.000610204 -4.51187e-05 7.71902e-06
5.63891e-06 7.71902e-06 -0.00038485
0.00196411 -0.000510362 -4.21394e-07
-0.000510362 8.48368e-05 2.13531e-06
-4.21394e-07 2.13531e-06 -0.000116693
0.00202038 -0.000470807 -2.73626e-06
-0.000470807 8.22016e-05 1.21011e-06
-2.73626e-06 1.21011e-06 -5.82726e-05
0.00202269 -0.00044376 -4.82222e-06
-0.00044376 0.000174141 9.78247e-07
-4.82222e-06 9.78247e-07 2.25988e-05
0.00196339 -0.000434258 -2.98452e-06
-0.000434258 0.000132644 3.33872e-06
-2.98452e-06 3.33872e-06 -3.51904e-05
0.00203841 -0.000448898 -3.02703e-06
-0.000448898 0.000221137 -4.06882e-06
-3.02703e-06 -4.06882e-06 3.69237e-05
0.00197389 -0.00053729 -6.78729e-06
-0.00053729 0.000203889 -2.60161e-06
-6.78729e-06 -2.60161e-06 -5.91479e-05
0.00190327 -0.000527133 1.77314e-06
-0.000527133 0.000142002 8.69561e-07
1.77314e-06 8.69561e-07 -0.000114309
0.00185198 -0.000495775 6.75498e-06
-0.000495775 9.04486e-05 7.52261e-06
6.75498e-06 7.52261e-06 -0.000146227
0.00186682 -0.000594666 -7.61293e-06
-0.000594666 0.000320054 -1.87575e-06
-7.61293e-06 -1.87575e-06 -1.69036e-05
0.0016622 -0.000613649 -4.95655e-07
-0.000613649 0.000118279 1.11203e-07
-4.95655e-07 1.11203e-07 -0.000222389
0.00216636 -0.000713226 7.94378e-06
-0.000713226 0.000407325 7.93877e-07
7.94378e-06 7.93877e-07 3.96616e-05
0.00144272 -0.000432589 -1.01139e-05
-0.000432589 0.000310525 4.14982e-06
-1.01139e-05 4.14982e-06 6.63667e-06
0.00168132 -0.000596635 -7.11174e-07
-0.000596635 0.000368631 7.19311e-07
-7.11174e-07 7.19311e-07 -2.0922e-06
0.00192497 -0.00070711 2.56144e-06
-0.00070711 0.000455194 3.88749e-07
2.56144e-06 3.88749e-07 4.94042e-05
0.000715283 -0.000215988 -7.86269e-06
-0.000215988 3.31244e-05 4.47287e-06
-7.86269e-06 4.47287e-06 -0.000175225
0.00117619 -0.000349428 8.95587e-07
-0.000349428 0.000224906 -3.84616e-07
8.95587e-07 -3.84616e-07 -4.30132e-05
0.000938542 -0.000425371 -9.39202e-07
-0.000425371 4.39775e-05 1.26866e-06
-9.39202e-07 1.26866e-06 -0.000277892
0.000445582 -0.000117176 -2.08054e-05
-0.000117176 -7.49827e-05 1.52165e-05
-2.08054e-05 1.52165e-05 -0.00016377
0.000651691 -0.000189656 -1.41815e-06
-0.000189656 7.07532e-05 1.17596e-06
-1.41815e-06 1.17596e-06 -0.000161568
0.000855509 -0.000354614 1.57418e-06
-0.000354614 0.000125764 2.44724e-07
1.57418e-06 2.44724e-07 -0.000137683
0.00411556 0.000200549 -8.42118e-05
0.000200549 0.00230388 5.81947e-06
-8.42118e-05 5.81947e-06 0.00228082
0.000516743 -5.58647e-05 9.62479e-07
-5.58647e-05 -4.97187e-06 -4.64542e-07
9.62479e-07 -4.64542e-07 -7.9314e-05
0.00163929 -0.000234705 4.69269e-06
-0.000234705 0.000719371 -3.03965e-06
4.69269e-06 -3.03965e-06 0.000498433
0.002385 0.00012614 4.81784e-05
0.00012614 0.00120246 1.28776e-06
4.81784e-05 1.28776e-06 0.00118207
0.000701935 -2.41962e-05 9.32467e-06
-2.41962e-05 0.000115888 -1.21828e-05
9.32467e-06 -1.21828e-05 5.81754e-05
0.00347568 0.000134639 7.64682e-05
0.000134639 0.00187488 -4.38522e-06
7.64682e-05 -4.38522e-06 0.00187084
0.00158126 0.000313598 4.52282e-06
0.000313598 0.000579085 -2.25329e-06
4.52282e-06 -2.25329e-06 0.000372877
0.00043846 0.000130984 -2.83003e-06
0.000130984 -4.5347e-05 -1.32634e-07
-2.83003e-06 -1.32634e-07 -0.00023102
0.00047877 0.000149433 2.02916e-06
0.000149433 5.36894e-05 -7.25285e-06
2.02916e-06 -7.25285e-06 -0.000164589
0.000460846 0.000123247 -2.61238e-06
0.000123247 4.99156e-05 1.02005e-05
-2.61238e-06 1.02005e-05 -0.000147516
0.0005982 9.09993e-05 8.06948e-07
9.09993e-05 0.000131565 2.19133e-07
8.06948e-07 2.19133e-07 -7.08922e-05
0.000889264 9.69626e-05 1.21799e-06
9.69626e-05 0.000245324 -8.45182e-06
1.21799e-06 -8.45182e-06 0.000108187
0.000583585 2.4361e-05 -4.34373e-06
2.4361e-05 4.5999e-05 -1.13507e-05
-4.34373e-06 -1.13507e-05 1.08883e-06
0.000635373 4.91415e-05 4.28352e-07
4.91415e-05 0.000101545 2.5327e-08
4.28352e-07 2.5327e-08 -1.68506e-05
9.48593e-05 4.09073e-05 -5.86808e-06
4.09073e-05 -0.000210117 1.7839e-06
-5.86808e-06 1.7839e-06 -0.0003688
0.00290689 -0.000100245 -5.88752e-05
-0.000100245 0.00150547 -4.6933e-06
-5.88752e-05 -4.6933e-06 0.00151059
0.000429998 1.12652e-05 8.38801e-07
1.12652e-05 -5.03691e-05 -2.56902e-07
8.38801e-07 -2.56902e-07 -8.64256e-05
0.000528149 4.23686e-05 -3.254e-06
4.23686e-05 3.55386e-05 4.35673e-06
-3.254e-06 4.35673e-06 -6.8267e-05
0.00270034 -8.69654e-05 -7.06713e-06
-8.69654e-05 0.00136916 5.66487e-07
-7.06713e-06 5.66487e-07 0.00137627
0.000411292 -1.00391e-05 4.90171e-07
-1.00391e-05 -6.7794e-05 7.25286e-06
4.90171e-07 7.25286e-06 -9.76084e-05
0.00252237 -6.87645e-05 2.95132e-05
-6.87645e-05 0.00125164 4.82621e-06
2.95132e-05 4.82621e-06 0.0012621
0.000907216 0.000125149 -0.000760483
0.000125149 0.00354065 -5.27637e-05
-0.000760483 -5.27637e-05 0.00150588
-0.00570911 0.000176414 3.71881e-05
0.000176414 0.0045039 -2.91672e-07
3.71881e-05 -2.91672e-07 -0.0016895
0.0056908 0.000178564 -0.000219703
0.000178564 0.00337516 -5.81286e-05
-0.000219703 -5.81286e-05 0.00150283
-3.85216e-05 4.29217e-05 2.20643e-06
4.29217e-05 -0.000307982 -9.53042e-06
2.20643e-06 -9.53042e-06 -0.000490779
0.000631798 7.7813e-05 5.87973e-06
7.7813e-05 0.000150584 7.39519e-06
5.87973e-06 7.39519e-06 -0.000127914
0.00260031 0.00053563 -3.18746e-06
0.00053563 0.00127907 4.17045e-06
-3.18746e-06 4.17045e-06 0.000957817
0.00218787 0.000634868 1.35465e-05
0.000634868 0.000889743 5.92579e-06
1.35465e-05 5.92579e-06 0.000465427
0.000382514 0.000326419 3.62738e-06
0.000326419 4.62088e-05 4.6689e-07
3.62738e-06 4.6689e-07 -0.00030327
0.000644896 0.000129596 -6.08522e-06
0.000129596 0.000274051 9.10877e-06
-6.08522e-06 9.10877e-06 2.22069e-07
0.000703339 0.000150673 1.07334e-05
0.000150673 0.000225614 1.07038e-05
1.07334e-05 1.07038e-05 -5.22403e-05
0.000581089 0.000380837 -5.95369e-06
0.000380837 0.000216108 -1.86546e-06
-5.95369e-06 -1.86546e-06 -0.000213173
-0.000426514 0.000479456 1.03833e-05
0.000479456 -0.000734709 -1.22877e-05
1.03833e-05 -1.22877e-05 -0.00104635
0.00240659 0.000776549 -1.02077e-05
0.000776549 0.000884085 2.51383e-05
-1.02077e-05 2.51383e-05 0.000672705
0.00138516 0.000828151 2.5038e-05
0.000828151 3.3678e-06 1.07814e-05
2.5038e-05 1.07814e-05 -0.00013927
0.00139151 0.000598182 -7.37371e-06
0.000598182 0.000509604 -3.64665e-06
-7.37371e-06 -3.64665e-06 0.000280069
0.00198133 0.000321765 -8.52498e-06
0.000321765 0.0010891 3.54864e-05
-8.52498e-06 3.54864e-05 0.000793854
0.0136715 0.00232137 -0.000114183
0.00232137 0.00183367 6.60816e-05
-0.000114183 6.60816e-05 0.00054283
0.00188356 -0.00180584 -0.00051774
-0.00180584 0.00357116 -0.000192723
-0.00051774 -0.000192723 0.000655306
-0.000383614 -0.00314443 0.000674486
-0.00314443 0.00567927 0.000188048
0.000674486 0.000188048 0.000355866
0.00596672 -0.00277771 0.000272301
-0.00277771 0.00272572 0.000317686
0.000272301 0.000317686 -0.000397527
0.0138174 0.00427253 -0.000103959
0.00427253 0.00464031 -4.80877e-05
-0.000103959 -4.80877e-05 0.000719133
-0.00301377 0.000203878 -5.14447e-05
0.000203878 -0.000288588 -5.84403e-05
-5.14447e-05 -5.84403e-05 -0.00063498
0.00226516 0.00175516 -4.74179e-05
0.00175516 0.000592851 -1.86516e-05
-4.74179e-05 -1.86516e-05 0.001267
0.0172272 0.00407326 1.77132e-05
0.00407326 0.00409241 3.76292e-05
1.77132e-05 3.76292e-05 0.00175344
0.00629173 0.00329722 -6.6501e-05
0.00329722 -5.62524e-05 -9.90066e-05
-6.6501e-05 -9.90066e-05 0.000245544
0.00162197 0.00112844 1.02229e-05
0.00112844 0.000115628 -5.05158e-06
1.02229e-05 -5.05158e-06 -0.000120882
0.00158282 0.000879376 9.16744e-06
0.000879376 0.000422975 -3.33869e-06
9.16744e-06 -3.33869e-06 0.000126669
0.00204905 0.000596965 -2.26056e-05
0.000596965 0.000961158 1.90408e-06
-2.26056e-05 1.90408e-06 0.000785013
0.00274775 0.00151015 -6.42133e-05
0.00151015 0.00080186 -2.48834e-05
-6.42133e-05 -2.48834e-05 7.58449e-05
0.00140572 0.0016831 6.59801e-05
0.0016831 -0.000777197 3.4727e-05
6.59801e-05 3.4727e-05 -0.00114171
0.0020679 -0.000322764 -0.000113992
-0.000322764 -0.00475643 5.36401e-05
-0.000113992 5.36401e-05 -0.00499094
0.000905074 -0.00152231 9.31053e-06
-0.00152231 0.00199528 -2.63058e-06
9.31053e-06 -2.63058e-06 0.0012439
-0.0110365 -0.00023204 0.000289631
-0.00023204 0.00568744 -2.38154e-05
0.000289631 -2.38154e-05 0.000240732
0.000251255 -0.0016189 -5.46895e-05
-0.0016189 -0.00064463 1.46503e-05
-5.46895e-05 1.46503e-05 -0.00138331
0.00509388 -0.00286169 2.61288e-05
-0.00286169 0.000321309 4.25201e-05
2.61288e-05 4.25201e-05 0.00045413
0.00209403 -7.52292e-05 0.000817396
-7.52292e-05 0.00375029 -0.000189089
0.000817396 -0.000189089 0.00191645
0.0136904 -0.00220122 -0.000260182
-0.00220122 0.00158918 0.000133237
-0.000260182 0.000133237 0.00041732
0.00172326 -0.00128993 -3.08574e-05
-0.00128993 -0.000110895 -5.39206e-07
-3.08574e-05 -5.39206e-07 -0.000377834
0.0112441 -8.34645e-05 -0.000183503
-8.34645e-05 -0.000678061 5.94055e-05
-0.000183503 5.94055e-05 -0.00156137
0.00700626 -0.00190277 0.000101625
-0.00190277 -0.000208333 1.31392e-05
0.000101625 1.31392e-05 0.000400643
0.00368462 -0.00111814 6.11799e-05
-0.00111814 0.000492285 -4.18657e-05
6.11799e-05 -4.18657e-05 0.000264636
0.00280136 -0.000731616 -2.31989e-05
-0.000731616 -0.00167824 1.29347e-05
-2.31989e-05 1.29347e-05 -0.000652902
-0.00597374 2.9674e-06 1.04492e-05
2.9674e-06 -0.00390815 6.98575e-06
1.04492e-05 6.98575e-06 -0.00386246
0.00158584 -0.000696316 -1.59167e-05
-0.000696316 -0.000169684 1.80774e-06
-1.59167e-05 1.80774e-06 -0.000191711
0.00347489 -0.000718428 3.44794e-05
-0.000718428 0.000636483 -1.3267e-05
3.44794e-05 -1.3267e-05 0.000689973
0.00114624 -0.000758169 -9.5214e-06
-0.000758169 -0.000203154 7.23957e-06
-9.5214e-06 7.23957e-06 -0.000532694
0.00213761 -0.000741489 -3.58393e-06
-0.000741489 2.39191e-05 3.04852e-06
-3.58393e-06 3.04852e-06 -0.000171694
0.00235466 -0.000601086 5.38144e-06
-0.000601086 -1.8201e-06 -1.39229e-06
5.38144e-06 -1.39229e-06 -3.74278e-05
0.00224918 -0.000728421 -3.95789e-06
-0.000728421 0.000259014 1.08487e-05
-3.95789e-06 1.08487e-05 -3.14974e-05
0.00208496 -0.000537167 3.56684e-07
-0.000537167 2.96973e-05 1.45148e-06
3.56684e-07 1.45148e-06 -9.88121e-05
0.0022221 -0.000527125 -7.24041e-07
-0.000527125 9.01026e-05 3.5409e-07
-7.24041e-07 3.5409e-07 1.61896e-05
0.00193766 -0.000500555 3.55952e-06
-0.000500555 7.37332e-05 6.47615e-06
3.55952e-06 6.47615e-06 -0.000122124
0.00200931 -0.000471492 -7.30132e-08
-0.000471492 7.20073e-05 1.31328e-06
-7.30132e-08 1.31328e-06 -6.60595e-05
0.00215552 -0.000504066 -2.55336e-06
-0.000504066 0.000154138 1.54149e-06
-2.55336e-06 1.54149e-06 2.27561e-05
0.00201296 -0.00044945 -4.15648e-06
-0.00044945 0.000160543 2.68366e-06
-4.15648e-06 2.68366e-06 1.00122e-05
0.00214323 -0.000452013 -1.37263e-06
-0.000452013 0.000280363 -1.32379e-06
-1.37263e-06 -1.32379e-06 0.000121659
0.00206544 -0.00044178 3.98986e-06
-0.00044178 0.000189649 6.12685e-06
3.98986e-06 6.12685e-06 2.49296e-05
0.00202277 -0.000448131 5.77374e-07
-0.000448131 0.000209966 -6.59804e-07
5.77374e-07 -6.59804e-07 2.5885e-05
0.00191873 -0.000463751 -3.25459e-06
-0.000463751 0.000149762 -3.04817e-06
-3.25459e-06 -3.04817e-06 -5.50829e-05
0.00200424 -0.000516329 -4.93279e-06
-0.000516329 0.000296544 -3.5907e-06
-4.93279e-06 -3.5907e-06 2.55648e-05
0.00203777 -0.000545005 -3.64704e-07
-0.000545005 0.000245464 -6.23201e-08
-3.64704e-07 -6.23201e-08 -2.02454e-05
0.00212912 -0.000543726 8.3036e-06
-0.000543726 0.000286363 4.04761e-06
8.3036e-06 4.04761e-06 2.92703e-05
0.00149124 -0.000467275 -9.75166e-06
-0.000467275 0.000199366 2.16479e-06
-9.75166e-06 2.16479e-06 -0.000108423
0.00178425 -0.000583555 -1.63863e-06
-0.000583555 0.000273052 -1.89999e-07
-1.63863e-06 -1.89999e-07 -6.34666e-05
0.00168276 -0.000621069 6.02443e-06
-0.000621069 0.000118008 1.68888e-06
6.02443e-06 1.68888e-06 -0.000225539
0.00073925 -0.000233108 -1.0492e-05
-0.000233108 -7.67068e-06 6.93789e-06
-1.0492e-05 6.93789e-06 -0.000220093
0.00127665 -0.000420686 1.31754e-06
-0.000420686 0.000204636 3.76086e-07
1.31754e-06 3.76086e-07 -9.76866e-05
0.00177301 -0.000602319 3.41802e-06
-0.000602319 0.000430462 1.77416e-06
3.41802e-06 1.77416e-06 5.99184e-05
0.000474864 -0.000177796 -2.23447e-05
-0.000177796 -7.17854e-05 1.86682e-05
-2.23447e-05 1.86682e-05 -0.000184284
0.000658282 -0.000219335 -6.09659e-07
-0.000219335 5.60345e-06 3.20086e-07
-6.09659e-07 3.20086e-07 -0.000207504
0.00085624 -0.000316038 5.22081e-06
-0.000316038 1.77815e-05 -1.47068e-06
5.22081e-06 -1.47068e-06 -0.000244144
0.00492936 0.000185764 -0.000131411
0.000185764 0.0028123 9.04169e-06
-0.000131411 9.04169e-06 0.00279209
0.000515402 -0.00013233 -1.84618e-06
-0.00013233 -2.79294e-05 -8.00908e-07
-1.84618e-06 -8.00908e-07 -0.000124302
0.00118073 -0.00022823 5.39446e-06
-0.00022823 0.000408854 -1.88255e-06
5.39446e-06 -1.88255e-06 0.00016679
0.00433942 0.000174728 2.08582e-05
0.000174728 0.00244018 7.57867e-07
2.08582e-05 7.57867e-07 0.00242372
0.000711458 -7.46401e-05 1.68624e-05
-7.46401e-05 0.000109968 -1.40791e-05
1.68624e-05 -1.40791e-05 3.12892e-05
0.00382932 0.000136195 0.000106773
0.000136195 0.00210194 -5.98517e-06
0.000106773 -5.98517e-06 0.00209768
0.00181329 0.000500266 2.50608e-06
0.000500266 0.000670297 -3.73956e-06
2.50608e-06 -3.73956e-06 0.000326116
0.000857952 0.000254816 -6.6127e-08
0.000254816 0.000139066 -2.99436e-06
-6.6127e-08 -2.99436e-06 -6.23615e-05
0.000204681 0.000145143 4.4313e-06
0.000145143 -0.000198396 3.60017e-06
4.4313e-06 3.60017e-06 -0.000397774
-0.000837737 2.53088e-05 -2.25941e-06
2.53088e-05 -0.000809449 -2.17701e-07
-2.25941e-06 -2.17701e-07 -0.000995768
0.000365503 0.000100479 -3.84293e-07
0.000100479 -4.25621e-05 2.2834e-06
-3.84293e-07 2.2834e-06 -0.00024549
0.000897981 0.000101354 4.39721e-07
0.000101354 0.000252069 -8.80399e-06
4.39721e-07 -8.80399e-06 8.48222e-05
0.000311681 5.52849e-05 -3.02782e-06
5.52849e-05 -6.49696e-05 4.63847e-06
-3.02782e-06 4.63847e-06 -0.000252484
0.000560354 7.6068e-05 6.38476e-08
7.6068e-05 4.94376e-05 3.16315e-08
6.38476e-08 3.16315e-08 -8.53802e-05
0.000585503 2.84014e-05 -5.91131e-06
2.84014e-05 4.46182e-05 -1.44894e-05
-5.91131e-06 -1.44894e-05 -1.09669e-05
0.00317593 -0.000109853 -8.09624e-05
-0.000109853 0.00168262 -5.90935e-06
-8.09624e-05 -5.90935e-06 0.00168538
0.000441781 9.29537e-06 1.31234e-06
9.29537e-06 -3.76535e-05 -3.65209e-07
1.31234e-06 -3.65209e-07 -8.31859e-05
0.000541305 3.96872e-05 -3.67676e-06
3.96872e-05 4.96524e-05 6.17264e-06
-3.67676e-06 6.17264e-06 -6.93627e-05
0.00287315 -0.000106053 -7.89707e-06
-0.000106053 0.00148533 6.96731e-07
-7.89707e-06 6.96731e-07 0.00148842
0.000341509 -4.85811e-05 -5.72314e-06
-4.85811e-05 -9.84128e-05 8.69728e-06
-5.72314e-06 8.69728e-06 -0.000137895
0.00269813 -8.7869e-05 3.67977e-05
-8.7869e-05 0.00136739 4.84894e-06
3.67977e-05 4.84894e-06 0.00137408
0.0145774 0.000567489 0.000452642
0.000567489 0.00208541 0.000110716
0.000452642 0.000110716 0.00165454
-0.00148058 -0.00261791 -0.000455247
-0.00261791 -0.00257502 -7.73771e-05
-0.000455247 -7.73771e-05 -0.00446267
-0.00926271 0.00136875 -0.000190086
0.00136875 0.00385844 -0.000120708
-0.000190086 -0.000120708 -0.00271371
0.000116076 1.97756e-05 1.82811e-05
1.97756e-05 -0.000153967 -4.75571e-06
1.82811e-05 -4.75571e-06 -0.000453974
0.00160238 0.000408542 -9.96731e-06
0.000408542 0.000684807 -3.20452e-07
-9.96731e-06 -3.20452e-07 0.000393462
0.00215811 0.000526772 -9.82848e-06
0.000526772 0.00108166 -2.37902e-06
-9.82848e-06 -2.37902e-06 0.000686628
0.0015344 0.000559503 1.15932e-06
0.000559503 0.000497392 -5.25874e-07
1.15932e-06 -5.25874e-07 9.43289e-05
0.0013907 0.000596205 1.12439e-05
0.000596205 0.000235918 1.80053e-05
1.12439e-05 1.80053e-05 -0.000151259
-0.000781646 0.000373805 2.21489e-05
0.000373805 -0.000923131 4.20457e-06
2.21489e-05 4.20457e-06 -0.00123675
-0.000401284 0.000266727 -9.78221e-06
0.000266727 -0.000277896 1.21443e-05
-9.78221e-06 1.21443e-05 -0.000746967
-0.000180877 0.000500001 1.11855e-05
0.000500001 -0.000605278 -4.90474e-07
1.11855e-05 -4.90474e-07 -0.000927455
0.00219634 0.000740419 4.31418e-06
0.000740419 0.000818477 6.87841e-06
4.31418e-06 6.87841e-06 0.000560005
-0.000645877 0.000482705 4.50055e-06
0.000482705 -0.000994964 -2.91902e-06
4.50055e-06 -2.91902e-06 -0.00122147
0.00339596 0.000955803 1.16951e-06
0.000955803 0.00107783 1.50633e-05
1.16951e-06 1.50633e-05 0.000914891
0.00132574 0.0008301 1.83565e-05
0.0008301 -5.68086e-06 6.92965e-06
1.83565e-05 6.92965e-06 -0.000278476
0.000622306 0.000733407 3.00791e-06
0.000733407 -0.000446143 7.27317e-08
3.00791e-06 7.27317e-08 -0.000521832
0.000608032 0.000484466 4.95111e-06
0.000484466 6.07241e-05 -4.6164e-05
4.95111e-06 -4.6164e-05 -0.000144605
0.00532078 0.00160528 1.84723e-05
0.00160528 -0.0011574 2.37515e-05
1.84723e-05 2.37515e-05 0.00013011
0.0135449 0.0026365 0.000260337
0.0026365 0.0011677 0.000137969
0.000260337 0.000137969 -0.000429633
0.0110237 -0.00383951 0.000461223
-0.00383951 0.00524606 -4.04495e-05
0.000461223 -4.04495e-05 0.00238879
0.00549369 0.00433255 0.000506572
0.00433255 -0.00091624 0.000297406
0.000506572 0.000297406 -0.00502567
0.000131854 0.00116539 -5.71473e-05
0.00116539 9.52455e-05 -1.84043e-06
-5.71473e-05 -1.84043e-06 0.000702187
0.00398448 0.00238189 -0.000111952
0.00238189 -0.0004778 -5.27448e-05
-0.000111952 -5.27448e-05 0.000128307
0.00587848 0.00202474 7.54856e-05
0.00202474 0.00116689 2.95077e-05
7.54856e-05 2.95077e-05 0.00091221
0.00410135 0.00146311 1.82426e-05
0.00146311 0.00121988 7.71771e-06
1.82426e-05 7.71771e-06 0.00092085
-0.000159505 0.000648368 -2.60021e-05
0.000648368 -0.000471983 1.06455e-05
-2.60021e-05 1.06455e-05 -0.000711165
0.0063896 0.00227136 -0.00017423
0.00227136 0.00153407 -1.849e-05
-0.00017423 -1.849e-05 0.00103326
0.00299628 -0.000471105 1.60219e-05
-0.000471105 -0.000347407 9.98166e-06
1.60219e-05 9.98166e-06 0.000161968
0.0112685 -0.000528929 -4.08735e-05
-0.000528929 0.00142481 -5.32134e-06
-4.08735e-05 -5.32134e-06 0.00126898
-0.01238 -0.00243608 0.000700659
-0.00243608 -0.00547347 3.81683e-06
0.000700659 3.81683e-06 -0.0061115
0.000486223 -0.00108732 -0.000101261
-0.00108732 -0.000634929 2.91373e-05
-0.000101261 2.91373e-05 -0.000876069
0.00887128 -0.00238074 1.64594e-05
-0.00238074 0.000144886 9.11211e-05
1.64594e-05 9.11211e-05 0.00105835
0.00102034 -0.000282222 -0.000261609
-0.000282222 -0.00445683 3.40514e-05
-0.000261609 3.40514e-05 -0.00626992
0.00256338 -0.000935591 2.92849e-05
-0.000935591 -0.000159699 1.30413e-06
2.92849e-05 1.30413e-06 -9.46505e-05
0.00489055 -0.000645378 -4.34922e-05
-0.000645378 -0.000421952 -3.92545e-06
-4.34922e-05 -3.92545e-06 0.000264622
0.00556262 -0.000816064 3.9212e-05
-0.000816064 0.0012428 -3.10632e-05
3.9212e-05 -3.10632e-05 0.0015499
0.00545294 -0.000404381 0.000100424
-0.000404381 0.00136213 3.3735e-06
0.000100424 3.3735e-06 0.00148087
-0.00337684 -0.000315911 6.73943e-06
-0.000315911 -0.00299327 9.0394e-06
6.73943e-06 9.0394e-06 -0.00274235
0.00201007 -0.000620695 -5.79661e-06
-0.000620695 -0.000221425 1.18366e-06
-5.79661e-06 1.18366e-06 -6.94573e-05
0.00228367 -0.00047163 2.38588e-05
-0.00047163 -0.000213299 -5.44534e-06
2.38588e-05 -5.44534e-06 4.08068e-05
0.00169617 -0.000703291 -7.55488e-07
-0.000703291 -0.000209167 6.93224e-06
-7.55488e-07 6.93224e-06 -0.000403756
0.00229484 -0.000597622 1.47216e-06
-0.000597622 -2.97334e-05 1.38853e-06
1.47216e-06 1.38853e-06 -6.7241e-05
0.00231747 -0.000520927 1.9792e-06
-0.000520927 1.56994e-05 -6.91432e-07
1.9792e-06 -6.91432e-07 1.98849e-05
0.00210019 -0.000537664 1.96894e-06
-0.000537664 3.58572e-05 5.22997e-06
1.96894e-06 5.22997e-06 -8.98474e-05
0.00216435 -0.000517691 3.86884e-07
-0.000517691 6.88577e-05 4.20976e-07
3.86884e-07 4.20976e-07 -6.36697e-06
0.00215746 -0.000463183 -2.40295e-06
-0.000463183 5.37242e-05 1.37372e-07
-2.40295e-06 1.37372e-07 -1.16398e-05
0.0020142 -0.00047354 3.75828e-06
-0.00047354 7.09113e-05 1.83283e-06
3.75828e-06 1.83283e-06 -6.56167e-05
0.00208799 -0.000495948 -1.47266e-07
-0.000495948 0.000134008 9.93059e-08
-1.47266e-07 9.93059e-08 3.47729e-06
0.0020174 -0.000449355 -1.43643e-07
-0.000449355 0.000127874 3.23408e-07
-1.43643e-07 3.23408e-07 -5.24528e-06
0.00199587 -0.000454624 -1.25495e-10
-0.000454624 0.000142733 2.53305e-06
-1.25495e-10 2.53305e-06 -6.97961e-06
0.00207287 -0.000442535 -1.89832e-06
-0.000442535 0.000231334 3.09865e-07
-1.89832e-06 3.09865e-07 7.63283e-05
0.00212061 -0.000447688 -1.35391e-06
-0.000447688 0.000267929 -1.18772e-06
-1.35391e-06 -1.18772e-06 9.44021e-05
0.00201073 -0.000446708 4.95037e-06
-0.000446708 0.000201382 2.99661e-06
4.95037e-06 2.99661e-06 1.769e-05
0.00197262 -0.000468308 -1.69176e-07
-0.000468308 0.000183164 -2.35449e-07
-1.69176e-07 -2.35449e-07 -2.29498e-05
0.00200773 -0.000459459 -1.45153e-06
-0.000459459 0.000258409 -2.6025e-06
-1.45153e-06 -2.6025e-06 3.29737e-05
0.00165419 -0.00044039 -8.68015e-06
-0.00044039 0.000195147 -6.23148e-08
-8.68015e-06 -6.23148e-08 -7.69796e-05
0.00193873 -0.000516207 -8.03101e-07
-0.000516207 0.00025579 -9.86743e-07
-8.03101e-07 -9.86743e-07 -2.0246e-05
0.00210024 -0.000552991 5.48893e-06
-0.000552991 0.000286725 2.32678e-06
5.48893e-06 2.32678e-06 1.82216e-05
0.000848312 -0.000252588 -1.33996e-05
-0.000252588 -2.8707e-05 7.31256e-06
-1.33996e-05 7.31256e-06 -0.000243327
0.00153017 -0.000465571 -1.99438e-07
-0.000465571 0.00022973 6.25871e-07
-1.99438e-07 6.25871e-07 -7.58379e-05
0.00169898 -0.000572195 3.42297e-06
-0.000572195 0.000224372 1.57657e-06
3.42297e-06 1.57657e-06 -0.000111645
0.000328538 -0.000182353 -2.00179e-05
-0.000182353 -0.000179514 1.89575e-05
-2.00179e-05 1.89575e-05 -0.000300666
0.000797277 -0.000241098 6.62844e-07
-0.000241098 2.54066e-05 2.22515e-07
6.62844e-07 2.22515e-07 -0.00019044
0.00107841 -0.000404689 1.04006e-05
-0.000404689 8.03682e-05 -2.13456e-06
1.04006e-05 -2.13456e-06 -0.000219407
0.00597668 0.000116134 -0.000204201
0.000116134 0.00343331 1.23929e-05
-0.000204201 1.23929e-05 0.0034283
0.000407433 -0.00018287 -6.14281e-07
-0.00018287 -0.000112966 6.43011e-08
-6.14281e-07 6.43011e-08 -0.000226244
0.000629444 -0.00022208 9.43684e-06
-0.00022208 -5.92804e-06 -5.70093e-06
9.43684e-06 -5.70093e-06 -0.000222362
0.00532936 0.000128506 -1.33215e-07
0.000128506 0.0030464 -1.04667e-06
-1.33215e-07 -1.04667e-06 0.00303806
0.000422363 -0.0001342 1.84936e-05
-0.0001342 -8.02509e-05 -1.68076e-05
1.84936e-05 -1.68076e-05 -0.000182148
0.00464381 0.000113097 0.000165813
0.000113097 0.00261858 -1.37284e-05
0.000165813 -1.37284e-05 0.0026155
0.00134059 0.000515619 -4.01452e-06
0.000515619 0.000246903 2.26812e-06
-4.01452e-06 2.26812e-06 -0.000106204
0.00170821 0.000485559 -1.00724e-06
0.000485559 0.000594822 -1.56992e-06
-1.00724e-06 -1.56992e-06 0.000259049
0.000729339 0.000283095 -1.57989e-06
0.000283095 -1.7604e-06 -3.06304e-06
-1.57989e-06 -3.06304e-06 -0.000253758
0.000733347 0.000259008 -7.55378e-06
0.000259008 9.24175e-05 -3.80771e-06
-7.55378e-06 -3.80771e-06 -0.000121626
1.84071e-05 0.000141177 1.97844e-06
0.000141177 -0.000309281 -5.13036e-07
1.97844e-06 -5.13036e-07 -0.000513133
0.00118719 0.000254118 -2.17686e-06
0.000254118 0.000446507 -5.1876e-06
-2.17686e-06 -5.1876e-06 0.000226737
-9.11282e-05 5.35836e-05 -1.54417e-06
5.35836e-05 -0.000341091 2.92613e-06
-1.54417e-06 2.92613e-06 -0.000532545
0.000722616 0.000111313 3.72779e-07
0.000111313 0.000153694 -1.61366e-07
3.72779e-07 -1.61366e-07 -1.66352e-05
0.000658236 5.63101e-05 -1.1886e-05
5.63101e-05 8.40537e-05 -1.63982e-05
-1.1886e-05 -1.63982e-05 1.47151e-05
0.000583282 4.96513e-05 -2.69562e-06
4.96513e-05 7.38346e-05 9.51712e-06
-2.69562e-06 9.51712e-06 -6.29393e-05
0.000509773 3.47879e-05 1.65561e-07
3.47879e-05 2.26179e-06 -2.47527e-07
1.65561e-07 -2.47527e-07 -5.28035e-05
0.00368047 -0.000126193 -0.000105734
-0.000126193 0.00201081 -7.59151e-06
-0.000105734 -7.59151e-06 0.00200846
0.00316755 -0.00012514 -9.46307e-06
-0.00012514 0.00167994 8.56282e-07
-9.46307e-06 8.56282e-07 0.00167839
0.000334289 3.41151e-05 4.96427e-06
3.41151e-05 -0.000103164 1.11903e-05
4.96427e-06 1.11903e-05 -0.000147306
0.00281494 -0.000105637 4.49662e-05
-0.000105637 0.00144883 4.73295e-06
4.49662e-05 4.73295e-06 0.00145169
0.00403614 0.000151685 8.6982e-05
0.000151685 -0.00112574 2.59965e-05
8.6982e-05 2.59965e-05 0.000210433
0.0048699 -0.000916309 0.000158843
-0.000916309 -0.00410418 7.48154e-05
0.000158843 7.48154e-05 -0.00508075
0.011992 -0.00280998 -0.000206158
-0.00280998 0.00466325 -9.2325e-05
-0.000206158 -9.2325e-05 0.00373708
0.00136044 0.000581309 9.07573e-06
0.000581309 2.93111e-05 8.79753e-06
9.07573e-06 8.79753e-06 -0.000301104
0.00431195 0.000758582 -1.02297e-05
0.000758582 0.00233583 2.39303e-06
-1.02297e-05 2.39303e-06 0.00190108
0.000833633 0.00047632 -6.08748e-06
0.00047632 8.14847e-05 -5.72411e-06
-6.08748e-06 -5.72411e-06 -0.000299313
0.00140202 0.000628946 2.16412e-06
0.000628946 0.000381468 -6.3028e-07
2.16412e-06 -6.3028e-07 1.1015e-05
0.00155129 0.000613126 -1.59229e-06
0.000613126 0.00035354 3.85221e-06
-1.59229e-06 3.85221e-06 -4.31901e-05
0.00164213 0.000707092 2.26242e-05
0.000707092 0.000341864 1.38732e-05
2.26242e-05 1.38732e-05 -4.78839e-06
0.00228341 0.000759655 -3.28314e-05
0.000759655 0.000867324 7.13758e-08
-3.28314e-05 7.13758e-08 0.000471723
0.000740844 0.000599684 2.11693e-05
0.000599684 2.50749e-05 -3.23558e-05
2.11693e-05 -3.23558e-05 -0.000240142
0.00167731 0.000763227 1.47888e-06
0.000763227 0.000324821 -2.52038e-06
1.47888e-06 -2.52038e-06 4.04943e-05
0.00191379 0.000815074 8.09985e-06
0.000815074 0.000172742 2.18335e-07
8.09985e-06 2.18335e-07 0.000136777
0.00196613 0.000837719 1.35063e-05
0.000837719 0.000201957 -2.30936e-06
1.35063e-05 -2.30936e-06 -8.40705e-05
0.00172043 0.000733894 2.28357e-05
0.000733894 0.000160021 1.80441e-05
2.28357e-05 1.80441e-05 -2.63901e-05
0.000833486 0.000780543 -5.48978e-06
0.000780543 -0.000269299 -5.33274e-06
-5.48978e-06 -5.33274e-06 -0.000525236
0.000579583 0.00071893 -1.15809e-05
0.00071893 -0.000459414 -2.51954e-05
-1.15809e-05 -2.51954e-05 -0.000519364
0.00103342 0.000710647 4.88005e-05
0.000710647 -0.00110482 3.53739e-05
4.88005e-05 3.53739e-05 -0.000812151
0.00610341 0.00166081 -8.92661e-05
0.00166081 -0.0010574 -2.63956e-05
-8.92661e-05 -2.63956e-05 0.000217516
0.0040684 0.00173215 0.000521843
0.00173215 -0.00410194 9.8037e-05
0.000521843 9.8037e-05 -0.00588511
0.00160165 0.00182716 -0.00014744
0.00182716 -0.000990312 -5.6527e-05
-0.00014744 -5.6527e-05 -0.000385723
0.00435322 0.00164261 -2.99873e-05
0.00164261 0.00077409 -8.99145e-06
-2.99873e-05 -8.99145e-06 0.00059855
0.00478082 0.00154948 -0.000138768
0.00154948 0.00148758 -3.52485e-05
-0.000138768 -3.52485e-05 0.00117091
0.00242181 -0.000254085 -6.1533e-05
-0.000254085 -0.000618445 -2.16953e-05
-6.1533e-05 -2.16953e-05 -0.000301818
-0.000308605 -0.000264526 7.52721e-05
-0.000264526 -0.000959182 1.61425e-05
7.52721e-05 1.61425e-05 -0.000240056
0.00277144 0.000835192 0.000196139
0.000835192 -0.00487847 -1.29289e-05
0.000196139 -1.29289e-05 -0.0050773
0.00026727 -0.000711387 -4.50505e-05
-0.000711387 -0.00133215 7.02037e-05
-4.50505e-05 7.02037e-05 -0.00108482
0.0065141 -0.00071625 -0.00015166
-0.00071625 0.000527463 4.31837e-05
-0.00015166 4.31837e-05 0.000752912
0.00248827 -0.000597303 -1.69308e-05
-0.000597303 -0.000397858 1.17187e-05
-1.69308e-05 1.17187e-05 -3.45728e-05
0.00425038 -0.000418063 -6.32224e-06
-0.000418063 0.000634322 -3.15418e-06
-6.32224e-06 -3.15418e-06 0.000739728
0.00262645 -0.000349313 5.82957e-05
-0.000349313 -0.000119898 -6.9092e-06
5.82957e-05 -6.9092e-06 0.000213195
0.00362018 -0.000104025 4.31023e-05
-0.000104025 0.00107144 -6.93884e-07
4.31023e-05 -6.93884e-07 0.00106664
0.00058903 -0.000508796 -2.47125e-05
-0.000508796 -0.00101646 1.17038e-05
-2.47125e-05 1.17038e-05 -0.00077927
0.002127 -0.000487087 -2.19616e-06
-0.000487087 -0.000332823 1.90852e-06
-2.19616e-06 1.90852e-06 -8.36528e-05
0.00237651 -0.000420614 5.29727e-06
-0.000420614 -0.000167486 -1.40294e-06
5.29727e-06 -1.40294e-06 3.64574e-05
0.00222126 -0.000588388 -2.41531e-06
-0.000588388 -6.0427e-05 3.8317e-06
-2.41531e-06 3.8317e-06 -9.65477e-05
0.00230417 -0.000512059 8.4953e-08
-0.000512059 2.26721e-05 -2.65547e-07
8.4953e-08 -2.65547e-07 2.97502e-05
0.00223465 -0.000408773 -4.90478e-07
-0.000408773 -6.3051e-06 -5.98502e-07
-4.90478e-07 -5.98502e-07 1.57148e-07
0.00210165 -0.000506767 1.56796e-07
-0.000506767 4.58008e-05 1.06531e-06
1.56796e-07 1.06531e-06 -2.93395e-05
0.00215483 -0.000469459 -9.02581e-07
-0.000469459 6.20375e-05 1.30866e-07
-9.02581e-07 1.30866e-07 -4.8957e-06
0.00207242 -0.000402046 -1.6816e-06
-0.000402046 8.2048e-05 9.94952e-07
-1.6816e-06 9.94952e-07 -5.26412e-06
0.00201701 -0.000487521 9.45448e-07
-0.000487521 0.000111574 -8.5012e-07
9.45448e-07 -8.5012e-07 -1.76777e-05
0.00198624 -0.000448326 1.03641e-06
-0.000448326 0.000105066 -6.04625e-07
1.03641e-06 -6.04625e-07 -2.85942e-05
0.00199342 -0.00041667 -2.77148e-07
-0.00041667 0.000141155 -8.5122e-07
-2.77148e-07 -8.5122e-07 -5.12479e-06
0.00200099 -0.000433 -1.60452e-06
-0.000433 0.000181742 2.3296e-06
-1.60452e-06 2.3296e-06 3.04243e-05
0.0021223 -0.000445577 -1.85596e-06
-0.000445577 0.000262517 7.07345e-07
-1.85596e-06 7.07345e-07 9.27751e-05
0.00210986 -0.000436754 -9.50615e-07
-0.000436754 0.000284899 -2.0248e-06
-9.50615e-07 -2.0248e-06 8.9677e-05
0.00202575 -0.000473214 3.13973e-06
-0.000473214 0.000215752 2.72868e-06
3.13973e-06 2.72868e-06 8.26399e-06
0.00202427 -0.000462578 4.28286e-07
-0.000462578 0.000269003 -4.75561e-07
4.28286e-07 -4.75561e-07 4.35817e-05
0.00176482 -0.000396475 -6.50473e-06
-0.000396475 0.000218555 4.4812e-07
-6.50473e-06 4.4812e-07 -2.07475e-05
0.000969523 -0.000258652 -1.46678e-05
-0.000258652 -2.03267e-05 7.07832e-06
-1.46678e-05 7.07832e-06 -0.000231027
0.00163039 -0.000435952 -9.98604e-07
-0.000435952 0.000188475 -3.46769e-07
-9.98604e-07 -3.46769e-07 -8.48237e-05
0.00187278 -0.000516169 3.10062e-06
-0.000516169 0.000214323 1.17629e-06
3.10062e-06 1.17629e-06 -6.68078e-05
0.000400486 -0.000226758 -2.25337e-05
-0.000226758 -0.000142704 1.88618e-05
-2.25337e-05 1.88618e-05 -0.000279992
0.000857512 -0.000257966 7.65668e-07
-0.000257966 -3.04547e-05 2.98066e-08
7.65668e-07 2.98066e-08 -0.00024751
0.00155732 -0.000463733 8.8886e-06
-0.000463733 0.000250965 -9.26475e-07
8.8886e-06 -9.26475e-07 -5.2515e-05
0.00660638 7.05851e-05 -0.000248396
7.05851e-05 0.00380321 1.65426e-05
-0.000248396 1.65426e-05 0.00380496
0.000469298 -0.000233096 -1.22399e-06
-0.000233096 -8.61262e-05 6.24033e-07
-1.22399e-06 6.24033e-07 -0.000217243
0.000758043 -0.000246865 1.22496e-05
-0.000246865 -1.66711e-06 -6.86445e-06
1.22496e-05 -6.86445e-06 -0.000221258
0.00618324 9.82015e-05 -5.33283e-06
9.82015e-05 0.00356471 -4.21083e-07
-5.33283e-06 -4.21083e-07 0.00355899
0.000546296 -0.000217558 2.48748e-05
-0.000217558 -2.61911e-05 -1.90025e-05
2.48748e-05 -1.90025e-05 -0.000143369
0.00565129 0.000132278 0.000199562
0.000132278 0.00326248 -2.21956e-05
0.000199562 -2.21956e-05 0.00324637
0.00151926 0.000536671 9.75782e-08
0.000536671 0.000187856 4.98377e-06
9.75782e-08 4.98377e-06 -0.000144503
0.0016577 0.000555505 -2.50784e-06
0.000555505 0.000434942 8.46364e-08
-2.50784e-06 8.46364e-08 7.04039e-05
0.0011892 0.000390893 -7.09707e-06
0.000390893 0.000170458 -4.58977e-07
-7.09707e-06 -4.58977e-07 -0.000114608
0.00183795 0.000498245 3.29881e-07
0.000498245 0.000660556 1.16939e-06
3.29881e-07 1.16939e-06 0.000327349
0.000968571 0.000296312 -3.37064e-06
0.000296312 0.000151354 -2.11942e-06
-3.37064e-06 -2.11942e-06 -0.000100183
0.00124858 0.000244018 -8.0202e-06
0.000244018 0.000421303 -2.04668e-06
-8.0202e-06 -2.04668e-06 0.000198643
-0.000257756 0.00010564 -3.60913e-06
0.00010564 -0.000495849 -2.29906e-06
-3.60913e-06 -2.29906e-06 -0.000694062
0.000776723 0.00014611 -8.36931e-07
0.00014611 0.000177054 -6.91653e-07
-8.36931e-07 -6.91653e-07 -2.76706e-05
0.000578793 9.9209e-05 -1.94834e-05
9.9209e-05 1.8645e-05 -1.73297e-05
-1.94834e-05 -1.73297e-05 -6.47548e-05
0.000367417 7.92286e-05 1.84897e-08
7.92286e-05 -7.38976e-05 8.92826e-06
1.84897e-08 8.92826e-06 -0.000232085
0.000427648 5.08934e-05 -5.44325e-07
5.08934e-05 -5.40204e-05 -3.99033e-07
-5.44325e-07 -3.99033e-07 -0.000119901
0.00425283 -0.000146968 -0.000127096
-0.000146968 0.00238317 -1.02664e-05
-0.000127096 -1.02664e-05 0.00237308
0.000288505 3.82803e-05 6.36647e-06
3.82803e-05 -0.000130131 1.41644e-05
6.36647e-06 1.41644e-05 -0.000184692
0.00359272 -0.000144655 -9.64692e-06
-0.000144655 0.00195912 9.77287e-07
-9.64692e-06 9.77287e-07 0.0019519
0.00307363 -0.000129493 5.36231e-05
-0.000129493 0.00162167 4.84788e-06
5.36231e-05 4.84788e-06 0.00161845
0.000395873 0.000132323 -3.06322e-07
0.000132323 -0.00178449 1.1011e-05
-3.06322e-07 1.1011e-05 -0.00116244
0.00515157 2.4143e-05 6.60297e-05
2.4143e-05 -0.00049177 1.60114e-05
6.60297e-05 1.60114e-05 0.000705998
0.0136957 0.000813181 -3.24811e-05
0.000813181 0.00237385 8.49004e-06
-3.24811e-05 8.49004e-06 0.00200928
0.00185944 0.000700794 1.45096e-06
0.000700794 0.000302258 5.02138e-06
1.45096e-06 5.02138e-06 -2.45775e-05
0.00213139 0.000687865 1.45497e-07
0.000687865 0.000302286 3.57756e-06
1.45497e-07 3.57756e-06 3.10929e-06
0.00147663 0.000597268 -2.9897e-07
0.000597268 0.000112222 -3.49959e-06
-2.9897e-07 -3.49959e-06 -0.000217975
0.00280335 0.000796592 -8.68474e-06
0.000796592 0.00120792 4.76533e-06
-8.68474e-06 4.76533e-06 0.00080436
0.001839 0.000643551 -6.89767e-06
0.000643551 0.000549178 -9.73751e-06
-6.89767e-06 -9.73751e-06 0.000139237
0.00194853 0.000753265 7.36466e-06
0.000753265 0.000482023 2.99594e-06
7.36466e-06 2.99594e-06 0.000137321
0.00182047 0.000763485 -2.33935e-06
0.000763485 7.34624e-05 -3.72497e-06
-2.33935e-06 -3.72497e-06 -0.000212676
0.00263131 0.000887057 -1.78723e-05
0.000887057 0.000825637 5.6844e-06
-1.78723e-05 5.6844e-06 0.000519446
0.00114898 0.000737274 -5.48314e-06
0.000737274 -0.000324324 9.9837e-06
-5.48314e-06 9.9837e-06 -0.000259796
0.00269085 0.000913946 -2.07574e-07
0.000913946 0.000618028 3.47074e-06
-2.07574e-07 3.47074e-06 0.0003156
0.002702 0.000795478 -4.73203e-06
0.000795478 0.000445907 3.14326e-06
-4.73203e-06 3.14326e-06 0.000215051
0.00119367 0.000386921 3.49453e-05
0.000386921 -0.000313667 1.74635e-05
3.49453e-05 1.74635e-05 -0.000277917
0.000529381 0.000625732 9.46371e-06
0.000625732 -0.000459935 -2.9858e-06
9.46371e-06 -2.9858e-06 -0.000634516
0.00107074 0.000804041 -3.22777e-05
0.000804041 -0.000145294 -6.8394e-06
-3.22777e-05 -6.8394e-06 -0.000407694
0.00287934 0.000850008 3.31563e-06
0.000850008 -0.000121156 7.7032e-06
3.31563e-06 7.7032e-06 5.26578e-05
0.00668533 0.0012462 -1.88027e-05
0.0012462 -0.000731477 -3.87495e-05
-1.88027e-05 -3.87495e-05 0.000184603
0.00406509 0.0013742 -3.78414e-05
0.0013742 0.00100509 -5.04336e-05
-3.78414e-05 -5.04336e-05 0.000900285
0.00138986 -6.6626e-05 3.05653e-05
-6.6626e-05 -0.000400012 2.61851e-06
3.05653e-05 2.61851e-06 -0.000262638
0.00254426 -0.000223749 -5.17663e-05
-0.000223749 -0.000460625 3.24797e-06
-5.17663e-05 3.24797e-06 -0.000164121
0.00321413 0.000335693 1.97615e-05
0.000335693 -0.000440482 -1.12403e-05
1.97615e-05 -1.12403e-05 4.86185e-05
0.000813759 -0.000496201 -6.26704e-05
-0.000496201 -0.00125738 4.81957e-05
-6.26704e-05 4.81957e-05 -0.000883704
0.00289018 -0.000474263 -9.79914e-05
-0.000474263 -0.000153329 -4.00722e-06
-9.79914e-05 -4.00722e-06 -7.39665e-05
0.00259343 -0.000354432 8.19942e-06
-0.000354432 -4.68523e-05 -3.61428e-06
8.19942e-06 -3.61428e-06 0.000274237
0.00250395 -9.97627e-05 -1.39945e-05
-9.97627e-05 0.000340158 5.52021e-07
-1.39945e-05 5.52021e-07 0.000353645
0.00236025 -0.00023708 1.32369e-05
-0.00023708 -4.53218e-05 -4.53928e-07
1.32369e-05 -4.53928e-07 7.38442e-05
0.00231498 -4.40819e-07 9.6757e-06
-4.40819e-07 -2.97728e-05 1.69276e-06
9.6757e-06 1.69276e-06 1.41893e-05
0.00195034 -0.000507482 -1.66826e-05
-0.000507482 -0.000479211 4.93128e-06
-1.66826e-05 4.93128e-06 -0.000230082
0.00239209 -0.000433163 -2.64645e-06
-0.000433163 -0.000150443 6.06651e-07
-2.64645e-06 6.06651e-07 1.80132e-05
0.00231186 -0.000302148 1.05332e-06
-0.000302148 -7.53062e-05 -1.2049e-06
1.05332e-06 -1.2049e-06 4.79997e-06
0.00228571 -0.000504215 -3.75176e-06
-0.000504215 2.39465e-05 1.15875e-06
-3.75176e-06 1.15875e-06 3.30256e-05
0.00223694 -0.000405762 -1.25815e-07
-0.000405762 7.76081e-06 -6.56904e-08
-1.25815e-07 -6.56904e-08 9.51722e-06
0.00213769 -0.00033938 -7.39029e-07
-0.00033938 1.75409e-05 2.86982e-07
-7.39029e-07 2.86982e-07 -7.31957e-06
0.00215498 -0.000476057 -1.47946e-07
-0.000476057 7.16189e-05 -6.71951e-07
-1.47946e-07 -6.71951e-07 2.8213e-06
0.00206526 -0.000400604 5.24774e-07
-0.000400604 7.39102e-05 -1.2115e-07
5.24774e-07 -1.2115e-07 -1.32236e-05
0.00205961 -0.000369198 -1.81176e-06
-0.000369198 0.000124076 7.29095e-07
-1.81176e-06 7.29095e-07 1.18589e-05
0.00195861 -0.000447437 2.16998e-06
-0.000447437 8.46116e-05 -1.38686e-06
2.16998e-06 -1.38686e-06 -4.95828e-05
0.00197727 -0.000415814 4.99878e-07
-0.000415814 0.000127379 -6.48658e-07
4.99878e-07 -6.48658e-07 -1.92813e-05
0.00196794 -0.000391128 -6.68699e-07
-0.000391128 0.0001556 -1.52385e-06
-6.68699e-07 -1.52385e-06 -1.15371e-05
0.00212072 -0.000443298 -1.04452e-06
-0.000443298 0.000254807 3.03291e-06
-1.04452e-06 3.03291e-06 8.88764e-05
0.00208016 -0.00043549 -5.83905e-07
-0.00043549 0.000267776 -1.69654e-07
-5.83905e-07 -1.69654e-07 7.36161e-05
0.00172754 -0.000364133 -4.74995e-06
-0.000364133 0.000154592 2.53808e-07
-4.74995e-06 2.53808e-07 -6.22602e-05
0.00204273 -0.00046579 3.08616e-06
-0.00046579 0.000280721 1.98898e-06
3.08616e-06 1.98898e-06 5.531e-05
0.00179807 -0.000400782 -6.44903e-07
-0.000400782 0.000239365 2.27651e-08
-6.44903e-07 2.27651e-08 7.7389e-07
0.00102595 -0.000241013 -1.54411e-05
-0.000241013 -2.12562e-05 6.83922e-06
-1.54411e-05 6.83922e-06 -0.000221507
0.000320028 -0.000195812 -1.96594e-05
-0.000195812 -0.000211287 1.72807e-05
-1.96594e-05 1.72807e-05 -0.00034231
0.000998325 -0.00026216 3.36757e-07
-0.00026216 -7.12177e-06 3.774e-08
3.36757e-07 3.774e-08 -0.000218594
0.0016072 -0.000431616 6.02571e-06
-0.000431616 0.00018209 -9.19702e-07
6.02571e-06 -9.19702e-07 -9.23964e-05
0.00691535 -1.04388e-05 -0.000281891
-1.04388e-05 0.00397162 2.00425e-05
-0.000281891 2.00425e-05 0.00398228
0.000395926 -0.00022134 -1.2891e-06
-0.00022134 -0.000153519 1.14851e-06
-1.2891e-06 1.14851e-06 -0.000285811
0.000934101 -0.000266081 1.33181e-05
-0.000266081 1.04503e-05 -6.46904e-06
1.33181e-05 -6.46904e-06 -0.000209216
0.00676916 4.30028e-05 -1.35022e-06
4.30028e-05 0.00390265 4.55386e-07
-1.35022e-06 4.55386e-07 0.00390529
0.000478026 -0.000235109 2.46372e-05
-0.000235109 -8.6111e-05 -1.9531e-05
2.46372e-05 -1.9531e-05 -0.000217181
0.00648491 6.75913e-05 0.000249574
6.75913e-05 0.00374457 -2.20388e-05
0.000249574 -2.20388e-05 0.00374254
0.00177027 0.000596327 -8.85797e-08
0.000596327 0.000196623 5.51375e-06
-8.85797e-08 5.51375e-06 -0.000111844
0.00156633 0.000547798 1.68361e-07
0.000547798 0.000219291 7.92713e-07
1.68361e-07 7.92713e-07 -0.000113708
0.00142654 0.000440414 -7.5663e-06
0.000440414 0.00022299 4.8352e-07
-7.5663e-06 4.8352e-07 -7.04726e-05
0.00157828 0.000551303 3.28477e-07
0.000551303 0.000379386 -1.19598e-06
3.28477e-07 -1.19598e-06 1.35266e-05
0.0012291 0.000388025 -1.63758e-06
0.000388025 0.00020308 4.21949e-08
-1.63758e-06 4.21949e-08 -7.9449e-05
0.000960841 0.00023306 -1.12098e-05
0.00023306 0.000158335 -4.38523e-06
-1.12098e-05 -4.38523e-06 -5.03504e-05
0.00123293 0.000313697 1.20476e-07
0.000313697 0.000323113 -1.38048e-06
1.20476e-07 -1.38048e-06 7.05071e-05
0.000621844 0.0002024 5.5967e-07
0.0002024 3.51761e-05 1.6375e-06
5.5967e-07 1.6375e-06 -0.000184172
0.000467091 0.000171954 -2.62278e-05
0.000171954 -6.78829e-05 -1.79581e-05
-2.62278e-05 -1.79581e-05 -0.000168833
0.000135796 9.12083e-05 4.21023e-07
9.12083e-05 -0.000210902 3.84512e-06
4.21023e-07 3.84512e-06 -0.000417705
0.000552074 8.55112e-05 -1.35859e-06
8.55112e-05 5.94771e-06 -3.64311e-07
-1.35859e-06 -3.64311e-07 -7.48882e-05
0.00516275 -0.000161911 -0.000167654
-0.000161911 0.00296569 -1.45893e-05
-0.000167654 -1.45893e-05 0.00294814
0.000439028 4.90163e-05 1.03794e-05
4.90163e-05 -4.29696e-05 1.67115e-05
1.03794e-05 1.67115e-05 -0.000107534
0.00412892 -0.000168539 -8.79479e-06
-0.000168539 0.00231068 1.02872e-06
-8.79479e-06 1.02872e-06 0.00229541
0.00347468 -0.000154263 7.16711e-05
-0.000154263 0.00188708 5.55756e-06
7.16711e-05 5.55756e-06 0.00187673
0.00126986 0.000149173 2.7945e-05
0.000149173 -0.000415705 1.91126e-05
2.7945e-05 1.91126e-05 -0.000210142
0.00268584 0.000173445 -1.43566e-05
0.000173445 -0.000832855 -2.7838e-06
-1.43566e-05 -2.7838e-06 -0.000163798
0.00403655 0.000253125 0.00020668
0.000253125 -0.00159459 6.05477e-05
0.00020668 6.05477e-05 0.000100026
0.00264527 0.000749369 -7.78655e-06
0.000749369 0.000564275 -1.23437e-07
-7.78655e-06 -1.23437e-07 0.000276055
0.00172176 0.000706739 -6.33077e-06
0.000706739 0.000202834 -4.50438e-06
-6.33077e-06 -4.50438e-06 -0.000119718
0.0021344 0.000558443 9.40977e-07
0.000558443 0.000170893 4.48204e-06
9.40977e-07 4.48204e-06 -5.01765e-05
0.00210788 0.000675922 1.30078e-06
0.000675922 0.000289283 4.05417e-07
1.30078e-06 4.05417e-07 -6.64765e-06
0.00152959 0.000606277 3.11187e-07
0.000606277 0.000155161 -1.11263e-05
3.11187e-07 -1.11263e-05 -0.000173317
0.00193481 0.000590996 -2.78566e-06
0.000590996 -2.49565e-05 8.75398e-07
-2.78566e-06 8.75398e-07 -0.000226615
0.0027021 0.00085244 -8.74413e-06
0.00085244 0.000886998 -3.17054e-06
-8.74413e-06 -3.17054e-06 0.00053164
0.00233943 0.0007987 -2.51276e-08
0.0007987 0.000385589 -7.40903e-08
-2.51276e-08 -7.40903e-08 8.76847e-05
0.0020431 0.000414858 -1.16139e-05
0.000414858 -0.000127943 1.46579e-07
-1.16139e-05 1.46579e-07 -0.000148936
0.00339574 0.00099885 -3.53603e-06
0.00099885 0.00100794 5.76959e-06
-3.53603e-06 5.76959e-06 0.000693739
0.00243509 0.000774631 2.84622e-07
0.000774631 0.000295403 -2.42743e-07
2.84622e-07 -2.42743e-07 6.43714e-05
0.000673992 0.000375821 9.09278e-07
0.000375821 -0.000583313 1.79401e-06
9.09278e-07 1.79401e-06 -0.000544612
-0.0010463 0.000485639 -2.36446e-05
0.000485639 -0.00127753 -8.80381e-06
-2.36446e-05 -8.80381e-06 -0.00142784
0.00381549 0.00096259 -0.000118137
0.00096259 0.000343968 -3.81259e-05
-0.000118137 -3.81259e-05 0.000418375
0.00209191 8.63093e-05 -8.17589e-07
8.63093e-05 -0.000192736 -6.30689e-07
-8.17589e-07 -6.30689e-07 -0.000106819
0.00262794 -7.75076e-05 9.26834e-06
-7.75076e-05 0.000431694 -2.92867e-07
9.26834e-06 -2.92867e-07 0.00052884
0.00275593 -0.000233888 -8.77779e-05
-0.000233888 -0.00028318 7.61199e-06
-8.77779e-05 7.61199e-06 1.08783e-05
0.00214921 -0.000349557 -6.78298e-05
-0.000349557 -0.00022221 6.32679e-06
-6.78298e-05 6.32679e-06 8.50168e-05
0.00135054 -0.000107521 -1.29776e-05
-0.000107521 -0.000409564 2.38804e-06
-1.29776e-05 2.38804e-06 -0.000378494
0.00236569 -0.000239118 1.144e-06
-0.000239118 -5.68589e-05 -1.64993e-06
1.144e-06 -1.64993e-06 8.40934e-05
0.00236075 8.31405e-07 -3.17103e-06
8.31405e-07 -3.15687e-05 1.50943e-06
-3.17103e-06 1.50943e-06 1.92872e-05
0.00235462 -7.57821e-05 8.41483e-07
-7.57821e-05 -5.4341e-05 -3.59766e-07
8.41483e-07 -3.59766e-07 2.47241e-05
0.00240696 -0.000442344 -6.86595e-06
-0.000442344 -0.000128135 9.56922e-07
-6.86595e-06 9.56922e-07 5.70374e-06
0.00227164 -0.00029148 3.62767e-07
-0.00029148 -8.11224e-05 -2.39216e-07
3.62767e-07 -2.39216e-07 -9.69433e-06
0.00218635 -0.00022501 4.52226e-07
-0.00022501 -2.17044e-05 -2.55256e-07
4.52226e-07 -2.55256e-07 1.36115e-05
0.00224164 -0.00040299 -2.09291e-07
-0.00040299 2.37574e-05 3.60287e-07
-2.09291e-07 3.60287e-07 2.07988e-05
0.00213962 -0.000336759 1.0881e-07
-0.000336759 2.32223e-05 1.56205e-07
1.0881e-07 1.56205e-07 -2.77684e-06
0.00206603 -0.000290331 -2.79167e-06
-0.000290331 6.52191e-05 6.79289e-07
-2.79167e-06 6.79289e-07 4.74924e-06
0.00205888 -0.000399182 2.18243e-06
-0.000399182 6.59816e-05 -1.04902e-06
2.18243e-06 -1.04902e-06 -2.09732e-05
0.00201846 -0.000365831 6.75026e-07
-0.000365831 9.6179e-05 -1.72237e-07
6.75026e-07 -1.72237e-07 -1.60791e-05
0.00198123 -0.000333623 -9.5523e-07
-0.000333623 0.000124721 -1.04718e-06
-9.5523e-07 -1.04718e-06 -9.71093e-06
0.00196194 -0.000415174 1.23056e-06
-0.000415174 0.000113888 -3.8459e-07
1.23056e-06 -3.8459e-07 -3.31982e-05
0.00201941 -0.000393936 -3.30596e-07
-0.000393936 0.000189533 -7.15436e-08
-3.30596e-07 -7.15436e-08 2.19375e-05
0.00179581 -0.000330153 -2.8643e-06
-0.000330153 0.000155927 -4.59733e-08
-2.8643e-06 -4.59733e-08 -3.76182e-05
0.002047 -0.00043389 5.49401e-07
-0.00043389 0.000248361 1.74676e-06
5.49401e-07 1.74676e-06 5.53418e-05
0.00176893 -0.000366711 -5.28911e-07
-0.000366711 0.000180563 7.9253e-08
-5.28911e-07 7.9253e-08 -3.61323e-05
0.00104795 -0.000217693 -1.49819e-05
-0.000217693 -2.76365e-05 6.11627e-06
-1.49819e-05 6.11627e-06 -0.000217791
0.00183962 -0.000405603 5.39728e-06
-0.000405603 0.000265383 -1.50424e-07
5.39728e-06 -1.50424e-07 2.74692e-05
0.00106315 -0.000242755 1.72354e-07
-0.000242755 -1.62063e-06 7.535e-08
1.72354e-07 7.535e-08 -0.000201542
0.00274605 -0.00017726 -4.791e-05
-0.00017726 0.00128208 1.16255e-05
-4.791e-05 1.16255e-05 0.0011803
0.00214907 -9.75421e-05 -0.000251652
-9.75421e-05 0.000991892 3.37409e-05
-0.000251652 3.37409e-05 0.00097242
0.0016004 -0.000202723 -1.28284e-05
-0.000202723 0.000580738 -9.03454e-08
-1.28284e-05 -9.03454e-08 0.000460058
0.00101918 -0.000265101 1.44536e-05
-0.000265101 1.59779e-06 -6.38023e-06
1.44536e-05 -6.38023e-06 -0.000210622
0.00697323 -2.84598e-05 -7.43697e-06
-2.84598e-05 0.00401468 1.03729e-06
-7.43697e-06 1.03729e-06 0.00402195
0.000400289 -0.000246897 2.47931e-05
-0.000246897 -0.000150162 -1.85534e-05
2.47931e-05 -1.85534e-05 -0.000285006
0.00686902 2.05813e-05 0.000275197
2.05813e-05 0.00396952 -2.60322e-05
0.000275197 -2.60322e-05 0.00396956
0.00212229 0.000429702 8.31511e-07
0.000429702 0.000155134 8.88725e-07
8.31511e-07 8.88725e-07 -1.07147e-05
0.00209147 0.000561197 3.31813e-06
0.000561197 0.000286363 5.29972e-06
3.31813e-06 5.29972e-06 3.1547e-05
0.002069 0.000621046 1.94818e-07
0.000621046 0.000373753 1.97521e-07
1.94818e-07 1.97521e-07 6.44015e-05
0.00165243 0.000473902 -7.19297e-06
0.000473902 0.000252075 1.47203e-06
-7.19297e-06 1.47203e-06 -3.45805e-05
0.00166367 0.000565503 2.70043e-06
0.000565503 0.00027952 -3.45966e-06
2.70043e-06 -3.45966e-06 -5.59154e-05
0.0014275 0.000443872 -1.04721e-07
0.000443872 0.000215568 4.92034e-07
-1.04721e-07 4.92034e-07 -8.00642e-05
0.000861166 0.00025221 -1.32274e-05
0.00025221 9.21328e-06 -5.27793e-06
-1.32274e-05 -5.27793e-06 -0.000198708
0.00126177 0.000384693 7.379e-06
0.000384693 0.000231499 2.18246e-06
7.379e-06 2.18246e-06 -4.86106e-05
0.000665968 0.000211959 1.21855e-06
0.000211959 -2.79003e-05 5.24832e-09
1.21855e-06 5.24832e-09 -0.000231073
0.000569122 0.000246221 -2.83301e-05
0.000246221 -1.8882e-05 -1.89714e-05
-2.83301e-05 -1.89714e-05 -0.000139944
0.000225395 0.000165584 3.71301e-06
0.000165584 -0.000221409 2.80308e-06
3.71301e-06 2.80308e-06 -0.000432411
0.00053489 0.000155871 5.13098e-07
0.000155871 -2.98036e-05 -7.78579e-07
5.13098e-07 -7.78579e-07 -0.000126673
0.00603939 -0.000146557 -0.000211927
-0.000146557 0.00351102 -2.14252e-05
-0.000211927 -2.14252e-05 0.00348889
0.000347008 7.69081e-05 1.60421e-05
7.69081e-05 -0.00011843 1.71422e-05
1.60421e-05 1.71422e-05 -0.00019373
0.00473916 -0.000186363 -9.29636e-06
-0.000186363 0.00270283 5.20776e-07
-9.29636e-06 5.20776e-07 0.00268044
0.00397681 -0.000181874 9.20399e-05
-0.000181874 0.00221854 7.30776e-06
9.20399e-05 7.30776e-06 0.00219963
0.00220772 0.000213729 -4.8522e-06
0.000213729 -0.000157082 -7.5841e-07
-4.8522e-06 -7.5841e-07 -5.20102e-05
0.00212163 0.000101134 2.31127e-05
0.000101134 -3.12725e-05 -2.94105e-06
2.31127e-05 -2.94105e-06 0.000196065
0.00575309 0.000265833 -0.000111635
0.000265833 0.000581438 -2.70065e-06
-0.000111635 -2.70065e-06 0.00127233
0.00214523 0.000511225 -3.11402e-06
0.000511225 0.000131721 1.26254e-06
-3.11402e-06 1.26254e-06 -5.28134e-05
0.00217257 0.000694533 -3.37562e-06
0.000694533 0.000320546 -1.97073e-07
-3.37562e-06 -1.97073e-07 4.11836e-05
0.0016666 0.000721076 -6.42884e-06
0.000721076 0.000151482 -1.02215e-05
-6.42884e-06 -1.02215e-05 -0.000167967
0.00226201 0.00055333 3.02698e-06
0.00055333 0.000266297 1.47404e-06
3.02698e-06 1.47404e-06 4.78718e-05
0.00209511 0.00066538 4.09561e-07
0.00066538 0.000283637 -4.61194e-06
4.09561e-07 -4.61194e-06 -9.43734e-06
0.00238128 0.000409613 -3.73991e-07
0.000409613 4.44841e-05 3.46993e-07
-3.73991e-07 3.46993e-07 1.53471e-05
0.00204472 0.000604854 -7.05338e-07
0.000604854 5.71514e-05 3.4201e-07
-7.05338e-07 3.4201e-07 -0.000145179
0.00282858 0.000830349 -4.19034e-06
0.000830349 0.0006847 -1.47299e-06
-4.19034e-06 -1.47299e-06 0.000373735
0.00203154 0.000406991 -9.25279e-08
0.000406991 -0.000117832 -4.62164e-07
-9.25279e-08 -4.62164e-07 -0.000137798
0.00221043 0.000754094 1.23611e-05
0.000754094 0.000157249 2.34617e-06
1.23611e-05 2.34617e-06 -7.44184e-05
0.000151194 0.00034407 -3.87254e-05
0.00034407 -0.000869667 -1.85687e-05
-3.87254e-05 -1.85687e-05 -0.000823753
0.00234436 8.55658e-05 1.02282e-06
8.55658e-05 -2.14675e-05 3.34181e-07
1.02282e-06 3.34181e-07 4.16789e-05
0.002277 9.6898e-05 -2.06843e-06
9.6898e-05 -5.92617e-05 3.62022e-07
-2.06843e-06 3.62022e-07 1.89655e-05
0.0035698 -7.91192e-05 -4.62502e-05
-7.91192e-05 0.00108613 1.47025e-06
-4.62502e-05 1.47025e-06 0.00114661
0.00235737 -0.000237602 -2.1164e-05
-0.000237602 -8.12582e-05 2.26165e-06
-2.1164e-05 2.26165e-06 8.05226e-05
0.0024107 5.70977e-06 -5.77879e-06
5.70977e-06 -3.59247e-05 -3.8044e-06
-5.77879e-06 -3.8044e-06 2.12614e-05
0.00232087 -8.33094e-05 -3.91371e-07
-8.33094e-05 -9.14473e-05 -5.68677e-08
-3.91371e-07 -5.68677e-08 -4.9488e-06
0.00207601 -6.87799e-05 1.99417e-07
-6.87799e-05 -2.69514e-05 1.45619e-07
1.99417e-07 1.45619e-07 -2.24987e-06
0.002227 -0.000279874 -8.74799e-07
-0.000279874 -8.84994e-05 5.0898e-07
-8.74799e-07 5.0898e-07 -2.57087e-05
0.00214424 -0.000229456 -1.77504e-07
-0.000229456 -4.0257e-05 6.28333e-09
-1.77504e-07 6.28333e-09 -1.09602e-05
0.00203535 -0.000193651 -2.20965e-06
-0.000193651 1.98697e-05 1.3413e-07
-2.20965e-06 1.3413e-07 -4.71286e-06
0.00214148 -0.000334154 9.90214e-07
-0.000334154 2.88312e-05 6.71792e-08
9.90214e-07 6.71792e-08 1.69248e-06
0.00206832 -0.000290165 3.37772e-07
-0.000290165 6.29534e-05 -3.91312e-09
3.37772e-07 -3.91312e-09 2.27796e-06
0.00206309 -0.000272072 -1.979e-06
-0.000272072 0.000133264 -3.89385e-07
-1.979e-06 -3.89385e-07 3.14567e-05
0.00197471 -0.000362123 2.59635e-06
-0.000362123 6.68059e-05 -8.84477e-07
2.59635e-06 -8.84477e-07 -4.54201e-05
0.00201011 -0.000335936 -2.99999e-07
-0.000335936 0.000139603 -8.68949e-08
-2.99999e-07 -8.68949e-08 4.61819e-06
0.00181614 -0.000283171 -2.04255e-06
-0.000283171 0.000133702 -3.64198e-07
-2.04255e-06 -3.64198e-07 -3.55834e-05
0.00206915 -0.000396678 9.19855e-07
-0.000396678 0.000222433 1.09206e-06
9.19855e-07 1.09206e-06 5.43752e-05
0.00182017 -0.000332061 -3.72101e-07
-0.000332061 0.000170442 1.05927e-07
-3.72101e-07 1.05927e-07 -2.29975e-05
0.00105612 -0.000194023 -1.41085e-05
-0.000194023 -4.21611e-05 4.92984e-06
-1.41085e-05 4.92984e-06 -0.000222867
0.00180906 -0.000369275 3.65099e-06
-0.000369275 0.000205647 -1.71882e-07
3.65099e-06 -1.71882e-07 -1.09093e-05
0.00109311 -0.000218852 2.83822e-09
-0.000218852 -5.05265e-06 2.27843e-07
2.83822e-09 2.27843e-07 -0.000194321
0.00274111 -0.000171895 -5.60607e-05
-0.000171895 0.00127012 1.12946e-05
-5.60607e-05 1.12946e-05 0.00117683
0.00108842 -0.000243788 1.52112e-05
-0.000243788 1.07661e-05 -6.37855e-06
1.52112e-05 -6.37855e-06 -0.000188743
0.00286858 -0.000215237 4.81898e-05
-0.000215237 0.00135896 -7.46862e-06
4.81898e-05 -7.46862e-06 0.00126499
0.00220644 -0.000133921 -0.000251734
-0.000133921 0.00103378 3.85675e-05
-0.000251734 3.85675e-05 0.00101233
0.00446714 -0.000108216 -0.000247542
-0.000108216 0.00245433 2.48972e-05
-0.000247542 2.48972e-05 0.00244763
0.00297586 -0.000275549 0.000158317
-0.000275549 0.00144119 -2.51765e-05
0.000158317 -2.51765e-05 0.00134634
0.00703152 -4.35639e-05 0.000290331
-4.35639e-05 0.00405958 -3.04858e-05
0.000290331 -3.04858e-05 0.00406278
0.00230443 0.000425939 -1.43569e-06
0.000425939 0.000260095 -3.06538e-07
-1.43569e-06 -3.06538e-07 0.000116109
0.00188356 0.000433005 2.44717e-06
0.000433005 0.000114054 1.6953e-06
2.44717e-06 1.6953e-06 -8.33848e-05
0.0021238 0.000420759 3.65346e-07
0.000420759 0.000163071 -1.61001e-06
3.65346e-07 -1.61001e-06 4.03405e-06
0.00180443 0.000456813 -5.84647e-06
0.000456813 0.00023435 1.73647e-06
-5.84647e-06 1.73647e-06 -2.4176e-05
0.00215938 0.000567529 6.26501e-07
0.000567529 0.000313866 2.46484e-07
6.26501e-07 2.46484e-07 5.82321e-05
0.00234267 0.00064455 4.52407e-07
0.00064455 0.000535744 -4.70945e-06
4.52407e-07 -4.70945e-06 0.000225629
0.00162424 0.000475465 2.00152e-07
0.000475465 0.00022815 5.67859e-07
2.00152e-07 5.67859e-07 -6.08082e-05
0.00095365 0.000275593 -1.60195e-05
0.000275593 -2.62712e-05 -5.55173e-06
-1.60195e-05 -5.55173e-06 -0.000237788
0.00142695 0.000446915 8.8701e-06
0.000446915 0.000207828 1.03944e-06
8.8701e-06 1.03944e-06 -8.98956e-05
0.00079446 0.000243844 -7.36716e-07
0.000243844 -2.88463e-05 -3.8809e-08
-7.36716e-07 -3.8809e-08 -0.000233155
0.000427957 0.00024865 -2.55986e-05
0.00024865 -0.000116492 -1.93526e-05
-2.55986e-05 -1.93526e-05 -0.000250403
0.000314072 0.00018807 8.74346e-06
0.00018807 -0.000244729 2.21528e-06
8.74346e-06 2.21528e-06 -0.000442495
0.00033679 0.000203191 2.98855e-06
0.000203191 -0.0001636 3.77056e-07
2.98855e-06 3.77056e-07 -0.000278986
0.00671427 -6.64977e-05 -0.000253356
-6.64977e-05 0.00390104 -2.61535e-05
-0.000253356 -2.61535e-05 0.00388894
0.000369715 0.000118339 2.15836e-05
0.000118339 -0.000130002 1.68152e-05
2.15836e-05 1.68152e-05 -0.000221995
0.00571463 -0.000166316 2.24742e-06
-0.000166316 0.00330165 -1.78495e-06
2.24742e-06 -1.78495e-06 0.00328205
0.00458489 -0.000216753 0.000110432
-0.000216753 0.0026165 9.77722e-06
0.000110432 9.77722e-06 0.00258613
0.00236555 0.000248826 1.22511e-07
0.000248826 -1.89035e-05 5.17498e-07
1.22511e-07 5.17498e-07 4.00946e-05
0.00214787 0.000220342 1.63819e-06
0.000220342 -0.000175016 -3.77578e-08
1.63819e-06 -3.77578e-08 -7.13188e-05
0.0026688 6.13561e-05 -7.96067e-05
6.13561e-05 0.000187436 -9.69451e-06
-7.96067e-05 -9.69451e-06 0.000440597
0.00211068 0.000363491 4.88307e-07
0.000363491 8.27615e-06 1.39779e-07
4.88307e-07 1.39779e-07 -6.67783e-05
0.00213396 0.000506742 -8.96437e-07
0.000506742 0.000148653 4.0115e-07
-8.96437e-07 4.0115e-07 -3.39553e-05
0.00168795 0.000637232 5.7833e-06
0.000637232 6.97181e-05 -2.39317e-06
5.7833e-06 -2.39317e-06 -0.000200175
0.0023894 0.000547902 -8.08838e-07
0.000547902 0.000362116 -2.95793e-06
-8.08838e-07 -2.95793e-06 0.000146477
0.00233037 0.000394358 -9.12099e-07
0.000394358 2.99245e-05 2.83908e-08
-9.12099e-07 2.83908e-08 2.20106e-06
0.00215621 0.00061928 -1.8184e-06
0.00061928 0.000139855 -9.08468e-08
-1.8184e-06 -9.08468e-08 -6.34494e-05
0.001928 0.000394015 1.13561e-05
0.000394015 -0.000129999 -4.10274e-07
1.13561e-05 -4.10274e-07 -0.000148861
0.0021529 6.70765e-05 1.92301e-06
6.70765e-05 -7.64355e-06 3.73919e-07
1.92301e-06 3.73919e-07 1.90565e-05
0.00226639 8.04436e-05 8.37374e-08
8.04436e-05 -5.75243e-05 2.04561e-08
8.37374e-08 2.04561e-08 4.29402e-06
0.00245205 0.00011313 -9.0644e-06
0.00011313 7.14932e-05 -7.14081e-07
-9.0644e-06 -7.14081e-07 0.000141433
0.00201311 -1.19071e-05 -3.28356e-06
-1.19071e-05 1.58176e-05 3.69965e-07
-3.28356e-06 3.69965e-07 1.49139e-05
0.00228531 -9.68868e-05 -2.63838e-07
-9.68868e-05 -0.000128656 -6.20427e-07
-2.63838e-07 -6.20427e-07 -3.44898e-05
0.00209683 -7.17764e-05 -7.06136e-07
-7.17764e-05 -1.84991e-05 3.0027e-07
-7.06136e-07 3.0027e-07 6.49154e-06
0.00195527 -0.000106604 -3.72598e-06
-0.000106604 -1.89665e-05 4.54993e-07
-3.72598e-06 4.54993e-07 -3.51989e-05
0.00210005 -0.000233701 8.02757e-08
-0.000233701 -6.00073e-05 2.2308e-07
8.02757e-08 2.2308e-07 -3.70776e-05
0.00204348 -0.000192732 1.12147e-06
-0.000192732 2.40556e-05 -3.31983e-07
1.12147e-06 -3.31983e-07 -2.14004e-07
0.00207834 -0.000194993 -1.77121e-07
-0.000194993 0.000118475 -3.01352e-07
-1.77121e-07 -3.01352e-07 4.43511e-05
0.00207487 -0.000289669 3.06647e-06
-0.000289669 6.35053e-05 -6.54418e-07
3.06647e-06 -6.54418e-07 2.70276e-06
0.0020097 -0.000267895 -2.67892e-07
-0.000267895 9.88248e-05 -2.49053e-07
-2.67892e-07 -2.49053e-07 -2.61536e-06
0.00179207 -0.000224149 -1.28945e-06
-0.000224149 9.55848e-05 -2.21931e-07
-1.28945e-06 -2.21931e-07 -5.0642e-05
0.00203842 -0.000338079 1.72849e-06
-0.000338079 0.000154689 5.59554e-07
1.72849e-06 5.59554e-07 1.91813e-05
0.00182843 -0.000283151 -3.47847e-07
-0.000283151 0.000141633 -7.39795e-08
-3.47847e-07 -7.39795e-08 -2.72266e-05
0.0010716 -0.000167523 -1.32329e-05
-0.000167523 -4.85539e-05 3.82459e-06
-1.32329e-05 3.82459e-06 -0.000218913
0.00184265 -0.000333709 1.99932e-06
-0.000333709 0.000183945 1.9226e-07
1.99932e-06 1.9226e-07 -9.34326e-06
0.00110992 -0.000194524 -2.46267e-07
-0.000194524 -1.30519e-05 2.38328e-07
-2.46267e-07 2.38328e-07 -0.000192576
0.00270296 -0.000166336 -6.32674e-05
-0.000166336 0.00124601 1.09257e-05
-6.32674e-05 1.09257e-05 0.00115646
0.00113218 -0.000219814 1.48451e-05
-0.000219814 1.3452e-05 -5.66754e-06
1.48451e-05 -5.66754e-06 -0.000174883
0.00281464 -0.000194431 4.40809e-05
-0.000194431 0.00131635 -5.85165e-06
4.40809e-05 -5.85165e-06 0.00123015
0.00221783 -0.000113964 -0.000245449
-0.000113964 0.00103258 3.37269e-05
-0.000245449 3.37269e-05 0.00101367
0.00298239 -0.000223467 0.000152436
-0.000223467 0.00142502 -2.62147e-05
0.000152436 -2.62147e-05 0.00134068
0.00185187 -7.12238e-05 -0.000102739
-7.12238e-05 0.000814341 1.48072e-05
-0.000102739 1.48072e-05 0.000780318
0.00660392 2.28533e-05 8.73334e-05
2.28533e-05 0.00377279 -4.07823e-06
8.73334e-05 -4.07823e-06 0.00375334
0.00205674 0.000360619 -7.40298e-08
0.000360619 7.00779e-05 -3.76851e-08
-7.40298e-08 -3.76851e-08 -4.26737e-05
0.00219802 0.000404883 -4.9974e-07
0.000404883 0.000251953 -3.21591e-07
-4.9974e-07 -3.21591e-07 8.80852e-05
0.00223946 0.000425175 -3.78976e-06
0.000425175 0.000209246 -1.37022e-07
-3.78976e-06 -1.37022e-07 6.32494e-05
0.00187975 0.00039888 -2.55504e-06
0.00039888 0.000214485 4.88436e-07
-2.55504e-06 4.88436e-07 -8.68091e-06
0.0018761 0.000439562 -8.34947e-07
0.000439562 9.08663e-05 -2.12747e-06
-8.34947e-07 -2.12747e-06 -0.000103326
0.0021083 0.00041104 -4.89405e-06
0.00041104 0.000160213 -4.76471e-06
-4.89405e-06 -4.76471e-06 8.09521e-06
0.00109716 0.000274081 -1.85452e-05
0.000274081 1.93077e-06 -5.81894e-06
-1.85452e-05 -5.81894e-06 -0.000203481
0.00172887 0.000450992 9.52537e-07
0.000450992 0.000186159 4.22376e-07
9.52537e-07 4.22376e-07 -7.22448e-05
0.00223977 0.000574371 1.88754e-06
0.000574371 0.00034807 -4.10937e-06
1.88754e-06 -4.10937e-06 9.16126e-05
0.00158008 0.000475431 8.4346e-06
0.000475431 0.000194836 -1.48189e-07
8.4346e-06 -1.48189e-07 -9.60938e-05
0.000949771 0.000270023 -1.11271e-06
0.000270023 -1.84761e-05 -7.77431e-08
-1.11271e-06 -7.77431e-08 -0.00022776
0.000333251 0.000243306 -2.51668e-05
0.000243306 -0.000187133 -1.78195e-05
-2.51668e-05 -1.78195e-05 -0.00032173
0.000720274 0.000233507 1.28321e-05
0.000233507 -7.1746e-05 5.91415e-06
1.28321e-05 5.91415e-06 -0.000272001
0.000389885 0.000238275 2.01713e-06
0.000238275 -0.000134291 8.37685e-07
2.01713e-06 8.37685e-07 -0.000268544
0.00702413 2.37531e-05 -0.000277845
2.37531e-05 0.00407761 -3.29782e-05
-0.000277845 -3.29782e-05 0.00406857
0.000402441 0.00018538 2.44104e-05
0.00018538 -0.000127576 1.91787e-05
2.44104e-05 1.91787e-05 -0.0002403
0.00648661 -0.000105994 3.98738e-06
-0.000105994 0.00375656 -8.89135e-07
3.98738e-06 -8.89135e-07 0.00374571
0.00527755 -0.000201406 0.000147597
-0.000201406 0.00303666 9.95532e-06
0.000147597 9.95532e-06 0.00301049
0.00211653 0.000198052 -3.46106e-07
0.000198052 -1.19371e-05 -2.72504e-07
-3.46106e-07 -2.72504e-07 -3.91889e-06
0.00232597 0.000251536 -4.81036e-08
0.000251536 -4.99314e-05 5.67185e-07
-4.81036e-08 5.67185e-07 1.13602e-05
0.00215279 0.000225847 3.16041e-06
0.000225847 -0.000173793 -1.07599e-07
3.16041e-06 -1.07599e-07 -7.05207e-05
0.00216048 0.000361255 -3.40927e-07
0.000361255 4.39442e-05 9.24663e-08
-3.40927e-07 9.24663e-08 -2.78098e-05
0.00211675 0.000501463 5.51049e-07
0.000501463 0.000164381 -6.35331e-07
5.51049e-07 -6.35331e-07 -1.61342e-05
0.00229903 0.000380747 1.86862e-06
0.000380747 2.06311e-05 -3.36128e-07
1.86862e-06 -3.36128e-07 -5.80361e-06
0.00202216 6.27225e-05 -1.18643e-06
6.27225e-05 -6.78843e-06 2.59003e-07
-1.18643e-06 2.59003e-07 -5.32626e-06
0.00213614 6.1873e-05 3.31004e-07
6.1873e-05 -1.53339e-05 -1.11167e-07
3.31004e-07 -1.11167e-07 1.02473e-05
0.00219342 7.54079e-05 -1.10582e-06
7.54079e-05 -9.16182e-05 -2.83759e-07
-1.10582e-06 -2.83759e-07 -3.04515e-05
0.00199787 -1.07187e-05 -9.32569e-07
-1.07187e-05 3.45619e-06 3.59511e-08
-9.32569e-07 3.59511e-08 2.12302e-06
0.0019971 -3.70372e-05 -6.47665e-06
-3.70372e-05 4.51107e-05 5.57794e-07
-6.47665e-06 5.57794e-07 2.38418e-05
0.00211861 -7.44757e-05 -1.46779e-08
-7.44757e-05 -9.946e-06 8.75245e-08
-1.46779e-08 8.75245e-08 1.56269e-05
0.00199314 -0.000106644 -1.44767e-06
-0.000106644 1.08736e-05 1.97645e-07
-1.44767e-06 1.97645e-07 -8.18578e-06
0.00194223 -0.000121038 -5.29898e-06
-0.000121038 2.39106e-05 7.09286e-07
-5.29898e-06 7.09286e-07 -3.12583e-05
0.00205012 -0.000192199 4.40302e-06
-0.000192199 2.7628e-05 -8.23698e-07
4.40302e-06 -8.23698e-07 3.57512e-06
0.00200209 -0.000192794 2.91139e-06
-0.000192794 7.14292e-05 -7.56017e-07
2.91139e-06 -7.56017e-07 -2.6211e-06
0.00182232 -0.000164433 1.88468e-06
-0.000164433 9.7283e-05 -8.7428e-07
1.88468e-06 -8.7428e-07 -2.99555e-05
0.00194338 -0.000264922 2.22874e-06
-0.000264922 5.50552e-05 -2.59869e-07
2.22874e-06 -2.59869e-07 -4.63344e-05
0.0018283 -0.000226446 -1.58938e-07
-0.000226446 0.00011567 -5.81848e-08
-1.58938e-07 -5.81848e-08 -3.04854e-05
0.0010866 -0.000134908 -1.25306e-05
-0.000134908 -5.10231e-05 2.74716e-06
-1.25306e-05 2.74716e-06 -0.000209349
0.00184187 -0.000283408 9.88183e-07
-0.000283408 0.000149091 1.8966e-07
9.88183e-07 1.8966e-07 -1.93971e-05
0.00111704 -0.000166516 -3.37267e-07
-0.000166516 -2.27846e-05 2.40948e-07
-3.37267e-07 2.40948e-07 -0.000191822
0.00263513 -0.000168324 -6.55972e-05
-0.000168324 0.00120489 9.58925e-06
-6.55972e-05 9.58925e-06 0.00111777
0.00115769 -0.00019474 1.39036e-05
-0.00019474 1.21794e-05 -4.57683e-06
1.39036e-05 -4.57683e-06 -0.000166108
0.00277032 -0.000167562 4.21735e-05
-0.000167562 0.00128303 -4.50956e-06
4.21735e-05 -4.50956e-06 0.00120216
0.00222668 -9.49956e-05 -0.000242932
-9.49956e-05 0.00103189 2.83141e-05
-0.000242932 2.83141e-05 0.00101469
0.00290507 -0.000187714 0.000148919
-0.000187714 0.00136511 -2.23423e-05
0.000148919 -2.23423e-05 0.00128946
0.00184924 -7.47392e-05 -9.29638e-05
-7.47392e-05 0.000807367 1.18824e-05
-9.29638e-05 1.18824e-05 0.000775866
0.00155986 -6.87474e-05 5.89092e-05
-6.87474e-05 0.000642718 -9.09157e-06
5.89092e-05 -9.09157e-06 0.000592776
0.002094 0.000237062 -1.62164e-06
0.000237062 5.15462e-05 -3.39925e-07
-1.62164e-06 -3.39925e-07 1.92706e-06
0.00210372 0.000330478 -1.91174e-06
0.000330478 0.000160235 6.13431e-07
-1.91174e-06 6.13431e-07 3.0442e-05
0.00209089 0.000365111 -3.60308e-07
0.000365111 7.22528e-05 -4.64077e-08
-3.60308e-07 -4.64077e-08 -3.31964e-05
0.00199376 0.000364581 -1.02958e-07
0.000364581 0.000232426 7.97633e-07
-1.02958e-07 7.97633e-07 4.07997e-05
0.00212282 0.000397431 -1.03034e-06
0.000397431 0.000213024 -5.55214e-07
-1.03034e-06 -5.55214e-07 4.86649e-05
0.00218573 0.000425412 5.96023e-07
0.000425412 0.000165419 -6.53988e-09
5.96023e-07 -6.53988e-09 1.72036e-05
0.00118116 0.000247112 -1.75761e-05
0.000247112 2.21252e-05 -5.53155e-06
-1.75761e-05 -5.53155e-06 -0.000170047
0.00182178 0.00040018 2.35107e-06
0.00040018 0.000170926 -6.47917e-08
2.35107e-06 -6.47917e-08 -4.85811e-05
0.00188188 0.000446925 -2.24444e-06
0.000446925 7.65402e-05 -4.34371e-06
-2.24444e-06 -4.34371e-06 -0.000114527
0.000313035 0.000186776 -2.27078e-05
0.000186776 -0.000224247 -1.48708e-05
-2.27078e-05 -1.48708e-05 -0.000346828
0.00105006 0.00026834 -8.66724e-07
0.00026834 -2.36124e-05 3.74561e-08
-8.66724e-07 3.74561e-08 -0.000227901
0.00167836 0.000447644 7.82448e-06
0.000447644 0.000152481 -9.83157e-07
7.82448e-06 -9.83157e-07 -0.000106256
0.000905946 0.000262693 1.63749e-05
0.000262693 -3.60128e-05 6.38005e-06
1.63749e-05 6.38005e-06 -0.000243223
0.000370802 0.000228315 5.05281e-07
0.000228315 -0.000161758 1.01699e-06
5.05281e-07 1.01699e-06 -0.000297818
0.00712749 0.000124323 -0.000290114
0.000124323 0.0041234 -3.72549e-05
-0.000290114 -3.72549e-05 0.00411753
0.000330343 0.000220493 2.22566e-05
0.000220493 -0.00016874 1.83413e-05
2.22566e-05 1.83413e-05 -0.000300964
0.00689493 -7.06419e-06 7.21759e-06
-7.06419e-06 0.0039847 -5.24545e-09
7.21759e-06 -5.24545e-09 0.00398304
0.00625342 -0.000137755 0.000206324
-0.000137755 0.00360917 1.19277e-05
0.000206324 1.19277e-05 0.00359793
0.00204151 0.000126225 -3.74954e-06
0.000126225 2.31459e-05 -8.60307e-07
-3.74954e-06 -8.60307e-07 1.59658e-05
0.00212552 0.000202313 8.18144e-07
0.000202313 -8.03997e-06 3.37396e-07
8.18144e-07 3.37396e-07 -1.70952e-06
0.00227579 0.000254615 -4.65818e-07
0.000254615 -8.36919e-05 -8.4015e-07
-4.65818e-07 -8.4015e-07 -2.06707e-05
0.00220865 0.000357833 2.45611e-06
0.000357833 7.85355e-05 1.21178e-07
2.45611e-06 1.21178e-07 1.03129e-05
0.00197018 1.66318e-05 -6.15921e-06
1.66318e-05 4.77497e-05 2.97859e-07
-6.15921e-06 2.97859e-07 1.50817e-05
0.0020068 5.31832e-05 -1.43876e-08
5.31832e-05 -1.46796e-05 6.47021e-08
-1.43876e-08 6.47021e-08 -1.40629e-05
0.00211929 5.654e-05 -1.17292e-06
5.654e-05 -2.22717e-05 -1.9331e-07
-1.17292e-06 -1.9331e-07 1.54485e-06
0.00198287 -8.45647e-06 7.27025e-07
-8.45647e-06 -8.3591e-06 -6.06167e-07
7.27025e-07 -6.06167e-07 -1.03716e-05
0.00199675 -3.13184e-05 -7.12267e-07
-3.13184e-05 4.20328e-05 -2.04536e-07
-7.12267e-07 -2.04536e-07 2.18832e-05
0.00188424 -5.12673e-05 -3.93953e-06
-5.12673e-05 1.52951e-06 2.33895e-07
-3.93953e-06 2.33895e-07 -5.64435e-05
0.00203509 -0.000106927 3.80685e-06
-0.000106927 4.33577e-05 -3.34903e-07
3.80685e-06 -3.34903e-07 2.11389e-05
0.00196099 -0.000121521 -2.16944e-06
-0.000121521 4.47095e-05 5.30045e-07
-2.16944e-06 5.30045e-07 -1.72198e-05
0.00186155 -0.000106881 -7.91585e-07
-0.000106881 0.000105678 -3.37612e-07
-7.91585e-07 -3.37612e-07 2.85568e-07
0.00194058 -0.000189682 6.33647e-06
-0.000189682 3.37479e-05 -1.22947e-06
6.33647e-06 -1.22947e-06 -3.99543e-05
0.00184946 -0.000163439 2.1114e-06
-0.000163439 0.000110531 -5.35644e-07
2.1114e-06 -5.35644e-07 -1.6121e-05
0.0010938 -9.98222e-05 -1.22275e-05
-9.98222e-05 -5.09692e-05 1.82006e-06
-1.22275e-05 1.82006e-06 -0.000197917
0.00188301 -0.000226945 7.93642e-07
-0.000226945 0.000149289 9.54489e-08
7.93642e-07 9.54489e-08 3.7039e-06
0.00110613 -0.000134219 -1.80866e-07
-0.000134219 -3.81805e-05 2.09646e-07
-1.80866e-07 2.09646e-07 -0.000195754
0.000420753 -8.95694e-05 -1.98662e-05
-8.95694e-05 -0.000194721 5.90257e-06
-1.98662e-05 5.90257e-06 -0.000289458
0.00116276 -0.000165427 1.31377e-05
-0.000165427 3.60971e-06 -3.45296e-06
1.31377e-05 -3.45296e-06 -0.000164057
0.00158177 -0.000110116 6.20175e-05
-0.000110116 0.000533148 -4.69729e-06
6.20175e-05 -4.69729e-06 0.000449615
0.00651609 -0.000161188 -0.000322338
-0.000161188 0.00372318 2.37324e-05
-0.000322338 2.37324e-05 0.00374029
0.00284719 -0.000150842 0.000145998
-0.000150842 0.00132081 -1.7638e-05
0.000145998 -1.7638e-05 0.00125103
0.00184731 -7.38678e-05 -8.41918e-05
-7.38678e-05 0.000805532 7.68911e-06
-8.41918e-05 7.68911e-06 0.000774293
0.00148141 -9.51816e-05 7.08457e-05
-9.51816e-05 0.000598413 -1.08492e-05
7.08457e-05 -1.08492e-05 0.000547198
0.00203318 0.000169422 -3.87519e-06
0.000169422 5.12586e-05 -8.18329e-07
-3.87519e-06 -8.18329e-07 1.00749e-05
0.00215292 0.000254887 -1.11409e-06
0.000254887 0.000175448 7.8316e-07
-1.11409e-06 7.8316e-07 7.97369e-05
0.00207482 0.000230328 2.1175e-07
0.000230328 4.71054e-05 1.78644e-07
2.1175e-07 1.78644e-07 -6.86272e-06
0.00191984 0.000289427 1.53218e-07
0.000289427 0.000166635 1.40432e-06
1.53218e-07 1.40432e-06 8.76743e-06
0.00203262 0.000324997 1.08179e-06
0.000324997 0.000119485 1.54878e-07
1.08179e-06 1.54878e-07 -1.00268e-05
0.0021233 0.000370081 6.30931e-07
0.000370081 7.29997e-05 3.60396e-07
6.30931e-07 3.60396e-07 -2.53239e-05
0.00115999 0.000216534 -1.57995e-05
0.000216534 -1.25898e-05 -3.86554e-06
-1.57995e-05 -3.86554e-06 -0.000189257
0.00197958 0.000361285 2.32533e-06
0.000361285 0.000222455 6.38176e-07
2.32533e-06 6.38176e-07 3.19783e-05
0.00203147 0.000388772 -1.13128e-06
0.000388772 0.000164454 -1.72689e-06
-1.13128e-06 -1.72689e-06 -2.40228e-07
0.000318039 0.000132993 -1.95564e-05
0.000132993 -0.000243199 -1.13005e-05
-1.95564e-05 -1.13005e-05 -0.00035236
0.00108779 0.000243029 2.92082e-07
0.000243029 -3.56586e-05 3.88213e-07
2.92082e-07 3.88213e-07 -0.000226385
0.00174516 0.00039995 6.80216e-06
0.00039995 0.000115354 -1.22043e-06
6.80216e-06 -1.22043e-06 -0.000100203
0.00694961 0.000201154 -0.000297576
0.000201154 0.00399832 -3.68664e-05
-0.000297576 -3.68664e-05 0.00399789
0.000308428 0.000180191 3.29344e-07
0.000180191 -0.000227115 8.22351e-07
3.29344e-07 8.22351e-07 -0.000350598
0.00104474 0.000264452 1.93708e-05
0.000264452 -2.13292e-05 6.70402e-06
1.93708e-05 6.70402e-06 -0.000224401
0.000328963 0.000211944 2.13031e-05
0.000211944 -0.000183888 1.75247e-05
2.13031e-05 1.75247e-05 -0.000320979
0.00699977 0.000114871 1.03259e-05
0.000114871 0.00403802 1.08007e-06
1.03259e-05 1.08007e-06 0.00403895
0.00676763 -4.06283e-05 0.000258995
-4.06283e-05 0.00389646 1.71495e-05
0.000258995 1.71495e-05 0.00389958
0.0019408 6.95048e-05 -8.14462e-06
6.95048e-05 2.52807e-05 -3.42187e-07
-8.14462e-06 -3.42187e-07 -1.0463e-05
0.0020322 0.000123024 1.61774e-07
0.000123024 1.70943e-05 8.67217e-09
1.61774e-07 8.67217e-09 9.33502e-06
0.0021369 0.000206706 8.38439e-07
0.000206706 -2.89076e-06 3.79405e-07
8.38439e-07 3.79405e-07 2.14589e-06
0.0019311 5.93723e-06 -4.53047e-06
5.93723e-06 4.72283e-05 -2.54816e-07
-4.53047e-06 -2.54816e-07 -1.57272e-05
0.00195348 2.16336e-05 2.44783e-07
2.16336e-05 3.45959e-05 5.50754e-08
2.44783e-07 5.50754e-08 4.61761e-06
0.00199307 4.2606e-05 5.06732e-07
4.2606e-05 -2.17969e-05 -2.6158e-07
5.06732e-07 -2.6158e-07 -2.19423e-05
0.00199195 -2.632e-05 3.99587e-06
-2.632e-05 3.54334e-05 -3.8989e-07
3.99587e-06 -3.8989e-07 1.69605e-05
0.00192887 -4.97329e-05 -1.533e-06
-4.97329e-05 3.25827e-05 3.02356e-07
-1.533e-06 3.02356e-07 -2.40632e-05
0.00187048 -4.94276e-05 1.32562e-06
-4.94276e-05 0.00012468 -6.24016e-07
1.32562e-06 -6.24016e-07 2.22851e-05
0.0019894 -0.000121934 3.59209e-07
-0.000121934 7.23278e-05 2.42084e-07
3.59209e-07 2.42084e-07 4.18041e-06
0.00186516 -0.000108306 4.99558e-07
-0.000108306 0.000112969 2.97611e-08
4.99558e-07 2.97611e-08 1.01809e-06
0.0010797 -5.96693e-05 -1.26964e-05
-5.96693e-05 -6.36155e-05 8.83168e-07
-1.26964e-05 8.83168e-07 -0.000196204
0.00185378 -0.000164113 2.37583e-06
-0.000164113 0.00010879 -2.47139e-07
2.37583e-06 -2.47139e-07 -1.77576e-05
0.00109865 -9.59148e-05 -7.18656e-08
-9.59148e-05 -4.72213e-05 7.629e-08
-7.18656e-08 7.629e-08 -0.000193257
0.000430043 -2.36732e-05 -1.8481e-05
-2.36732e-05 -0.000192069 3.43945e-06
-1.8481e-05 3.43945e-06 -0.000280642
0.0011495 -0.000133135 1.24681e-05
-0.000133135 -1.22145e-05 -2.40683e-06
1.24681e-05 -2.40683e-06 -0.00016881
0.000425631 -7.42263e-05 -1.53096e-07
-7.42263e-05 -0.000190302 4.69416e-07
-1.53096e-07 4.69416e-07 -0.000285664
0.00644108 -5.25618e-05 -0.000311749
-5.25618e-05 0.00367091 1.46674e-05
-0.000311749 1.46674e-05 0.00369284
0.000468785 -7.62233e-05 1.46664e-05
-7.62233e-05 -0.00016583 -7.81971e-06
1.46664e-05 -7.81971e-06 -0.000266154
0.0040928 -0.000105194 0.00013822
-0.000105194 0.00221285 -7.10334e-06
0.00013822 -7.10334e-06 0.00219685
0.00143706 -8.84653e-05 7.63506e-05
-8.84653e-05 0.000570904 -1.05971e-05
7.63506e-05 -1.05971e-05 0.000520544
0.00203185 0.000130567 -7.81927e-06
0.000130567 7.94944e-05 -7.69618e-07
-7.81927e-06 -7.69618e-07 3.40989e-05
0.00207283 0.000186403 -1.65634e-06
0.000186403 0.000132106 9.55002e-07
-1.65634e-06 9.55002e-07 5.07049e-05
0.00201351 0.000163849 -5.81492e-07
0.000163849 3.91847e-05 -9.78023e-08
-5.81492e-07 -9.78023e-08 -1.29827e-06
0.0018425 0.000220442 1.8052e-07
0.000220442 0.000111517 1.03555e-06
1.8052e-07 1.03555e-06 -3.15244e-05
0.00209375 0.000251909 2.8296e-07
0.000251909 0.000134499 1.09992e-07
2.8296e-07 1.09992e-07 3.68138e-05
0.00205102 0.000223304 2.87118e-06
0.000223304 3.96873e-05 6.61953e-07
2.87118e-06 6.61953e-07 -1.85844e-05
0.00115355 0.000176596 -1.42829e-05
0.000176596 -2.15422e-05 -2.71534e-06
-1.42829e-05 -2.71534e-06 -0.000184129
0.00188998 0.000286659 1.70868e-06
0.000286659 0.000154534 6.78945e-07
1.70868e-06 6.78945e-07 -8.8325e-06
0.00196198 0.000319407 5.95947e-07
0.000319407 7.90753e-05 -7.18634e-07
5.95947e-07 -7.18634e-07 -5.00423e-05
0.000352461 9.49449e-05 -1.83767e-05
9.49449e-05 -0.000237436 -8.1006e-06
-1.83767e-05 -8.1006e-06 -0.000337688
0.00110916 0.000212621 -9.96788e-07
0.000212621 -4.24147e-05 2.90915e-07
-9.96788e-07 2.90915e-07 -0.000218518
0.00197182 0.00035857 4.93695e-06
0.00035857 0.000216666 4.81186e-07
4.93695e-06 4.81186e-07 2.72143e-05
0.00678142 0.000258509 -0.000313797
0.000258509 0.00389427 -3.55226e-05
-0.000313797 -3.55226e-05 0.00389574
0.000352791 0.000132029 4.6087e-08
0.000132029 -0.00022449 4.29438e-07
4.6087e-08 4.29438e-07 -0.000334071
0.00102218 0.000241474 1.70922e-05
0.000241474 -7.74727e-05 5.48652e-06
1.70922e-05 5.48652e-06 -0.000267103
0.0069702 0.0002194 1.35314e-05
0.0002194 0.00401821 3.57793e-06
1.35314e-05 3.57793e-06 0.00401588
0.000364271 0.000174368 2.00913e-05
0.000174368 -0.000194512 1.45967e-05
2.00913e-05 1.45967e-05 -0.000319061
0.00690021 7.74213e-05 0.000285464
7.74213e-05 0.00396249 2.49418e-05
0.000285464 2.49418e-05 0.00397136
0.00189244 5.17873e-05 -5.11295e-06
5.17873e-05 1.47428e-05 -1.53248e-07
-5.11295e-06 -1.53248e-07 -4.91927e-05
0.00196415 7.44467e-05 -8.27882e-07
7.44467e-05 4.78446e-05 -1.88031e-07
-8.27882e-07 -1.88031e-07 1.12952e-05
0.00202038 0.000120035 3.20979e-06
0.000120035 1.01463e-05 5.40674e-07
3.20979e-06 5.40674e-07 1.71118e-06
0.00187345 -5.17799e-06 1.86251e-06
-5.17799e-06 0.000132062 -5.69939e-07
1.86251e-06 -5.69939e-07 3.16662e-05
0.00193027 6.85791e-06 -1.99494e-06
6.85791e-06 4.51187e-05 2.73699e-07
-1.99494e-06 2.73699e-07 -1.53698e-05
0.0019377 2.78753e-05 7.04005e-06
2.78753e-05 2.2157e-05 -5.89853e-09
7.04005e-06 -5.89853e-09 -5.29585e-06
0.00195261 -4.81651e-05 6.56674e-07
-4.81651e-05 5.02328e-05 4.04372e-07
6.56674e-07 4.04372e-07 -5.74298e-06
0.00187712 -4.87092e-05 2.82634e-06
-4.87092e-05 0.00012815 -1.48117e-07
2.82634e-06 -1.48117e-07 2.64629e-05
0.00106216 -2.4737e-05 -1.22594e-05
-2.4737e-05 -6.74388e-05 1.73432e-07
-1.22594e-05 1.73432e-07 -0.000193616
0.00186228 -0.000109866 -5.71108e-08
-0.000109866 0.000115744 4.2606e-07
-5.71108e-08 4.2606e-07 -3.02877e-06
0.00107911 -5.95452e-05 -3.17261e-07
-5.95452e-05 -6.20422e-05 -3.77269e-08
-3.17261e-07 -3.77269e-08 -0.000197022
0.000434677 -8.4682e-06 -1.87167e-05
-8.4682e-06 -0.000189224 2.15129e-06
-1.87167e-05 2.15129e-06 -0.000274396
0.00110308 -9.32709e-05 1.16356e-05
-9.32709e-05 -4.2928e-05 -1.70315e-06
1.16356e-05 -1.70315e-06 -0.000188215
0.000408477 -3.60131e-05 8.53232e-07
-3.60131e-05 -0.000205376 -2.68598e-07
8.53232e-07 -2.68598e-07 -0.000293245
0.00626073 -0.000147798 -0.000314161
-0.000147798 0.00357451 1.59461e-05
-0.000314161 1.59461e-05 0.00359067
0.00039344 -5.76148e-05 1.78716e-05
-5.76148e-05 -0.000210154 -4.45266e-06
1.78716e-05 -4.45266e-06 -0.000304964
0.0063821 -8.88758e-05 7.57621e-06
-8.88758e-05 0.00363733 -8.63774e-09
7.57621e-06 -8.63774e-09 0.00365865
0.00179014 -3.47142e-05 0.000243984
-3.47142e-05 0.000760445 -1.60341e-05
0.000243984 -1.60341e-05 0.000750464
0.00195842 0.000123684 -4.31472e-06
0.000123684 5.30136e-05 -8.67733e-08
-4.31472e-06 -8.67733e-08 -2.26359e-05
0.0019969 0.000131879 -2.18473e-06
0.000131879 4.93014e-05 -3.42981e-07
-2.18473e-06 -3.42981e-07 8.18245e-06
0.00183279 0.000157245 1.03418e-06
0.000157245 9.98371e-05 9.94984e-07
1.03418e-06 9.94984e-07 -2.54817e-05
0.00202937 0.000185176 8.88407e-07
0.000185176 9.95398e-05 1.02043e-07
8.88407e-07 1.02043e-07 1.78486e-05
0.00199401 0.000158159 4.72481e-06
0.000158159 2.64653e-05 4.77424e-07
4.72481e-06 4.77424e-07 -1.31506e-05
0.00115071 0.000131846 -1.26429e-05
0.000131846 -1.54861e-05 -2.01193e-06
-1.26429e-05 -2.01193e-06 -0.000168968
0.00184406 0.000219195 1.664e-07
0.000219195 0.000116674 5.50525e-08
1.664e-07 5.50525e-08 -2.62635e-05
0.00203766 0.000248959 2.10497e-06
0.000248959 9.58443e-05 -7.26826e-07
2.10497e-06 -7.26826e-07 -3.86892e-06
0.000383419 6.96104e-05 -1.79042e-05
6.96104e-05 -0.000223797 -5.77975e-06
-1.79042e-05 -5.77975e-06 -0.000319338
0.00111966 0.000175626 -8.06414e-07
0.000175626 -3.97994e-05 3.04413e-07
-8.06414e-07 3.04413e-07 -0.000205039
0.0018643 0.000283904 2.41913e-06
0.000283904 0.000145516 2.72722e-07
2.41913e-06 2.72722e-07 -2.33234e-05
0.00662499 0.000273381 -0.00032988
0.000273381 0.0038071 -3.30503e-05
-0.00032988 -3.30503e-05 0.00380797
0.000378461 9.71982e-05 6.32987e-08
9.71982e-05 -0.000222808 2.19485e-07
6.32987e-08 2.19485e-07 -0.000323643
0.00104255 0.00020773 1.19988e-05
0.00020773 -8.25292e-05 4.10575e-06
1.19988e-05 4.10575e-06 -0.000257887
0.00678664 0.000281997 1.10682e-05
0.000281997 0.00390984 4.77638e-06
1.10682e-05 4.77638e-06 0.00390557
0.000363001 0.000128782 1.86207e-05
0.000128782 -0.000220791 1.15479e-05
1.86207e-05 1.15479e-05 -0.000330387
0.00693257 0.000219975 0.000313797
0.000219975 0.00398653 3.49394e-05
0.000313797 3.49394e-05 0.00399048
0.00184062 4.66283e-05 3.3457e-06
4.66283e-05 0.000113157 -6.7562e-08
3.3457e-06 -6.7562e-08 1.00804e-05
0.00192955 5.20549e-05 -3.34828e-06
5.20549e-05 4.46673e-05 -6.34331e-08
-3.34828e-06 -6.34331e-08 -2.03912e-05
0.00198662 7.88042e-05 7.06999e-06
7.88042e-05 6.97138e-05 2.52134e-07
7.06999e-06 2.52134e-07 3.24343e-05
0.00104479 -9.76942e-06 -1.26395e-05
-9.76942e-06 -6.94794e-05 -1.61103e-07
-1.26395e-05 -1.61103e-07 -0.000193903
0.00186748 -4.80492e-07 3.16841e-06
-4.80492e-07 0.000128468 -1.10306e-07
3.16841e-06 -1.10306e-07 2.8226e-05
0.00190866 7.22482e-06 5.24336e-07
7.22482e-06 2.9223e-05 5.29502e-07
5.24336e-07 5.29502e-07 -2.88155e-05
0.00190867 -4.85788e-05 4.06775e-06
-4.85788e-05 0.000148231 2.56091e-07
4.06775e-06 2.56091e-07 4.74909e-05
0.00105022 -2.59859e-05 -1.27118e-07
-2.59859e-05 -7.70531e-05 -3.47053e-08
-1.27118e-07 -3.47053e-08 -0.000203514
0.000437718 -3.23315e-05 -1.92377e-05
-3.23315e-05 -0.000186056 9.35852e-07
-1.92377e-05 9.35852e-07 -0.000267939
0.00105321 -5.83853e-05 1.16844e-05
-5.83853e-05 -7.60572e-05 -1.25744e-06
1.16844e-05 -1.25744e-06 -0.000213466
0.000413165 2.95059e-06 3.80531e-07
2.95059e-06 -0.000203459 6.54307e-08
3.80531e-07 6.54307e-08 -0.000287499
0.0061795 -0.000118829 -0.000314752
-0.000118829 0.00352293 1.1825e-05
-0.000314752 1.1825e-05 0.00354206
0.000421893 -4.34043e-05 1.86747e-05
-4.34043e-05 -0.000194515 -3.12659e-06
1.86747e-05 -3.12659e-06 -0.000283532
0.00625309 -4.24549e-05 -3.07294e-06
-4.24549e-05 0.0035577 2.71494e-06
-3.07294e-06 2.71494e-06 0.00358127
0.00634325 -0.000103192 0.000312799
-0.000103192 0.00361427 -1.41644e-05
0.000312799 -1.41644e-05 0.00363577
0.00178228 9.79677e-05 1.03087e-06
9.79677e-05 7.07253e-05 4.65655e-07
1.03087e-06 4.65655e-07 -4.34231e-05
0.00195861 0.000122016 -3.46545e-06
0.000122016 4.65439e-05 -7.1136e-07
-3.46545e-06 -7.1136e-07 -2.34423e-05
0.00196777 0.000133809 5.59957e-06
0.000133809 2.33773e-05 3.44973e-07
5.59957e-06 3.44973e-07 -1.36697e-05
0.00114177 8.66033e-05 -1.21312e-05
8.66033e-05 -1.59292e-05 -1.42666e-06
-1.21312e-05 -1.42666e-06 -0.000157555
0.00183115 0.000155688 2.54085e-07
0.000155688 0.000102144 -1.20259e-07
2.54085e-07 -1.20259e-07 -2.32169e-05
0.00198659 0.000183917 1.97105e-06
0.000183917 6.75551e-05 -1.09998e-06
1.97105e-06 -1.09998e-06 -1.44485e-05
0.00040504 4.68917e-05 -1.73813e-05
4.68917e-05 -0.000209936 -4.12486e-06
-1.73813e-05 -4.12486e-06 -0.000301434
0.0011179 0.000133397 3.66434e-07
0.000133397 -3.6607e-05 2.88151e-07
3.66434e-07 2.88151e-07 -0.000191279
0.00184365 0.000217876 4.84004e-07
0.000217876 0.000120197 -8.72554e-07
4.84004e-07 -8.72554e-07 -2.26509e-05
0.00645178 0.000230483 -0.000337958
0.000230483 0.00369973 -2.7148e-05
-0.000337958 -2.7148e-05 0.00370747
0.000407961 7.52314e-05 4.72469e-07
7.52314e-05 -0.000208448 1.84171e-07
4.72469e-07 1.84171e-07 -0.000305154
0.00107849 0.000174203 1.17877e-05
0.000174203 -6.28493e-05 3.39105e-06
1.17877e-05 3.39105e-06 -0.000230662
0.00667437 0.000289516 5.70619e-06
0.000289516 0.0038432 3.39932e-06
5.70619e-06 3.39932e-06 0.00384175
0.000421116 0.000102254 1.81342e-05
0.000102254 -0.000196628 8.8554e-06
1.81342e-05 8.8554e-06 -0.000298696
0.00686391 0.000316399 0.000329957
0.000316399 0.00396498 4.1604e-05
0.000329957 4.1604e-05 0.00395697
0.00105992 2.48143e-05 -1.24588e-05
2.48143e-05 -5.36551e-05 -6.31288e-07
-1.24588e-05 -6.31288e-07 -0.000184132
0.00182391 4.37932e-05 3.44236e-06
4.37932e-05 0.000100136 2.99981e-08
3.44236e-06 2.99981e-08 -3.9589e-07
0.00195427 5.24249e-05 -1.0453e-06
5.24249e-05 6.60515e-05 3.14863e-07
-1.0453e-06 3.14863e-07 -2.64761e-07
0.000475465 3.21155e-05 -1.97959e-05
3.21155e-05 -0.000170658 -8.14722e-07
-1.97959e-05 -8.14722e-07 -0.000244363
0.0010248 -4.09707e-06 -2.86814e-07
-4.09707e-06 -8.41355e-05 2.28083e-08
-2.86814e-07 2.28083e-08 -0.000208612
0.00187811 5.61258e-06 4.39553e-06
5.61258e-06 0.000135771 2.07432e-07
4.39553e-06 2.07432e-07 3.58258e-05
0.00103975 -2.68143e-05 1.20467e-05
-2.68143e-05 -8.60427e-05 -5.11825e-07
1.20467e-05 -5.11825e-07 -0.000212754
0.000434547 -5.69102e-06 4.20233e-07
-5.69102e-06 -0.00018816 3.84151e-07
4.20233e-07 3.84151e-07 -0.000270063
0.00608894 1.64644e-05 -0.00031741
1.64644e-05 0.00345949 1.38385e-06
-0.00031741 1.38385e-06 0.00348549
0.000393043 1.45797e-05 1.82014e-05
1.45797e-05 -0.000217584 -1.15608e-06
1.82014e-05 -1.15608e-06 -0.000300231
0.00614231 -0.00011666 -7.78681e-06
-0.00011666 0.00350142 1.96262e-06
-7.78681e-06 1.96262e-06 0.00352008
0.00618576 -2.43265e-05 0.000300158
-2.43265e-05 0.00351614 -7.38511e-06
0.000300158 -7.38511e-06 0.0035398
0.00110933 5.09978e-05 -1.23131e-05
5.09978e-05 -2.83631e-05 -1.21386e-06
-1.23131e-05 -1.21386e-06 -0.000162266
0.00181503 9.5091e-05 -3.51183e-07
9.5091e-05 9.05256e-05 -3.17781e-07
-3.51183e-07 -3.17781e-07 -1.91612e-05
0.00195431 0.000119802 -1.91244e-06
0.000119802 3.70688e-05 -1.33436e-06
-1.91244e-06 -1.33436e-06 -2.72029e-05
0.00268755 6.34261e-05 -0.000146515
6.34261e-05 0.00121559 -5.27463e-06
-0.000146515 -5.27463e-06 0.001163
0.00109308 8.80226e-05 3.36676e-07
8.80226e-05 -4.67636e-05 1.0806e-07
3.36676e-07 1.0806e-07 -0.000189293
0.00183083 0.000154096 4.36338e-07
0.000154096 0.000105398 -1.10512e-06
4.36338e-07 -1.10512e-06 -2.00124e-05
0.00629331 0.000168127 -0.000335753
0.000168127 0.00359565 -1.94154e-05
-0.000335753 -1.94154e-05 0.0036121
0.000440362 6.6408e-05 8.76423e-07
6.6408e-05 -0.000185798 4.51086e-07
8.76423e-07 4.51086e-07 -0.000279406
0.00109044 0.000134971 1.26091e-05
0.000134971 -5.43201e-05 2.44205e-06
1.26091e-05 2.44205e-06 -0.000210149
0.00654864 0.000246418 1.25935e-06
0.000246418 0.00376111 1.60984e-06
1.25935e-06 1.60984e-06 0.00376747
0.00045194 8.41609e-05 1.8386e-05
8.41609e-05 -0.000180018 6.8814e-06
1.8386e-05 6.8814e-06 -0.000278597
0.00672053 0.000324229 0.000338095
0.000324229 0.00388503 4.12301e-05
0.000338095 4.12301e-05 0.00387656
0.000550393 1.19581e-05 -1.57809e-05
1.19581e-05 -0.000113392 -2.00023e-06
-1.57809e-05 -2.00023e-06 -0.000196416
0.00103028 2.42474e-05 2.338e-07
2.42474e-05 -7.65657e-05 2.1886e-07
2.338e-07 2.1886e-07 -0.00020496
0.0018183 3.98321e-05 3.91357e-06
3.98321e-05 9.43657e-05 -5.11517e-08
3.91357e-06 -5.11517e-08 -3.48369e-06
0.00593181 -0.000101605 -0.000300186
-0.000101605 0.00338012 3.78366e-06
-0.000300186 3.78366e-06 0.00339512
0.000430673 9.55751e-06 -5.81909e-07
9.55751e-06 -0.000194033 -8.66844e-08
-5.81909e-07 -8.66844e-08 -0.000270411
0.00102155 3.5294e-07 1.20135e-05
3.5294e-07 -8.84765e-05 3.67642e-09
1.20135e-05 3.67642e-09 -0.000212951
0.000389848 2.09343e-05 1.84723e-05
2.09343e-05 -0.000217389 3.17654e-07
1.84723e-05 3.17654e-07 -0.000298135
0.00603182 -1.91039e-05 2.01604e-06
-1.91039e-05 0.0034301 -1.58733e-06
2.01604e-06 -1.58733e-06 0.00345153
0.00613293 -3.85492e-05 0.000306249
-3.85492e-05 0.00348368 -5.11557e-06
0.000306249 -5.11557e-06 0.00350839
0.00277513 1.64444e-05 -0.000140931
1.64444e-05 0.00126899 -3.02797e-06
-0.000140931 -3.02797e-06 0.00121989
0.00108251 5.41153e-05 7.82956e-08
5.41153e-05 -4.64744e-05 -1.2045e-08
7.82956e-08 -1.2045e-08 -0.000181078
0.00184598 9.24474e-05 8.45297e-07
9.24474e-05 0.00010939 -8.0597e-07
8.45297e-07 -8.0597e-07 4.16723e-06
0.0057822 -3.46389e-05 -0.000130718
-3.46389e-05 0.00328991 3.19853e-07
-0.000130718 3.19853e-07 0.00327849
0.000448418 5.85209e-05 1.65927e-07
5.85209e-05 -0.000179198 2.3521e-07
1.65927e-07 2.3521e-07 -0.000267062
0.00106092 9.01081e-05 1.21147e-05
9.01081e-05 -6.79507e-05 1.5862e-06
1.21147e-05 1.5862e-06 -0.000211333
0.00637339 0.000143989 -1.0437e-05
0.000143989 0.00363981 -1.75538e-06
-1.0437e-05 -1.75538e-06 0.0036576
0.00046683 8.93993e-05 1.96951e-05
8.93993e-05 -0.000168676 5.83685e-06
1.96951e-05 5.83685e-06 -0.00026337
0.00660727 0.000270219 0.000345054
0.000270219 0.00380378 3.50722e-05
0.000345054 3.50722e-05 0.00380748
0.00179556 -5.35865e-05 -0.000238893
-5.35865e-05 0.000765936 1.3072e-06
-0.000238893 1.3072e-06 0.000765112
0.00160265 3.14176e-05 -6.04542e-05
3.14176e-05 0.000535814 1.04165e-07
-6.04542e-05 1.04165e-07 0.000475014
0.00099712 2.63072e-05 1.26279e-05
2.63072e-05 -0.000101206 7.33148e-07
1.26279e-05 7.33148e-07 -0.000227589
0.00600787 -4.82153e-05 6.91097e-06
-4.82153e-05 0.00342079 2.5915e-06
6.91097e-06 2.5915e-06 0.00344127
0.000446731 -1.16973e-05 1.91015e-05
-1.16973e-05 -0.000177542 8.33197e-07
1.91015e-05 8.33197e-07 -0.000257869
0.00607058 -8.2421e-05 0.000318779
-8.2421e-05 0.00345788 -4.83369e-06
0.000318779 -4.83369e-06 0.003479
0.00135671 2.22536e-05 -6.16143e-05
2.22536e-05 0.000519877 -1.10501e-06
-6.16143e-05 -1.10501e-06 0.000481367
0.00159278 1.8934e-05 -6.12482e-05
1.8934e-05 0.000532421 -1.37737e-06
-6.12482e-05 -1.37737e-06 0.000467186
0.00104648 5.57567e-05 1.22028e-05
5.57567e-05 -7.01435e-05 1.18783e-06
1.22028e-05 1.18783e-06 -0.000205467
0.00381946 6.82313e-05 0.000118749
6.82313e-05 0.00204582 3.53458e-06
0.000118749 3.53458e-06 0.00203822
0.000458844 6.89337e-05 1.99197e-05
6.89337e-05 -0.000172754 4.44352e-06
1.99197e-05 4.44352e-06 -0.000260584
0.0064626 0.000131927 0.000328746
0.000131927 0.00368725 2.10173e-05
0.000328746 2.10173e-05 0.00370879
0.00596189 -1.99359e-05 -8.8579e-06
-1.99359e-05 0.00339546 -3.16467e-06
-8.8579e-06 -3.16467e-06 0.00341465
0.000441591 5.04466e-05 2.07193e-05
5.04466e-05 -0.000191852 2.52961e-06
2.07193e-05 2.52961e-06 -0.000265171
0.00592024 3.73871e-05 0.000306802
3.73871e-05 0.0033619 2.31872e-07
0.000306802 2.31872e-07 0.00338606
0.00369788 3.22894e-05 0.000130647
3.22894e-05 0.00197504 5.10375e-06
0.000130647 5.10375e-06 0.00196945
0.000471224 9.0907e-06 1.90696e-05
9.0907e-06 -0.000164599 2.72601e-06
1.90696e-05 2.72601e-06 -0.000246646
0.00623756 1.16197e-06 0.000315391
1.16197e-06 0.00354905 9.33744e-06
0.000315391 9.33744e-06 0.00357238
0.00601256 -0.000118485 0.000304762
-0.000118485 0.00343113 -4.22508e-06
0.000304762 -4.22508e-06 0.00344593
0.00603284 9.09421e-06 0.000307308
9.09421e-06 0.00342254 5.38278e-06
0.000307308 5.38278e-06 0.00344883
