# vtk DataFile Version 2.0
Wound Healing Simulation
ASCII
DATASET UNSTRUCTURED_GRID
POINTS 3012 float
69.9759 18.75 4
67.2507 60.3285 4
69.976 18.75 2
73.0099 25.446 4
71.1327 20.9142 4
68.6801 16.6661 4
67.8232 19.9266 3.97677
67.2507 60.3286 2
71.1327 54.0858 4
68.6801 58.3339 4
65.6939 62.2254 4
65.3099 59 3.97612
74.6784 42.3946 4
73.7221 47.2057 4
69.9759 18.75 0
73.0099 25.446 2
68.6801 16.6661 2
71.1327 20.9142 2
67.8236 19.9301 2
74.6792 32.6053 4
73.7222 27.7943 4
72.1454 23.1494 4
70.6123 26.2215 3.97671
68.8835 21.9583 3.97725
67.2507 14.6715 4
66.6345 17.973 3.97567
65.7904 21.0287 3.96561
67.2507 60.3285 0
71.1327 54.0858 2
68.6801 58.3339 2
65.694 62.2255 2
65.3112 58.9952 2
72.1454 51.8506 4
69.9759 56.25 4
68.8339 53.1131 3.97643
64.0165 64.0165 4
66.6083 57.1329 3.97643
63.883 60.7638 3.97606
63.4944 57.7652 3.96703
60.3285 67.2507 4
74.6792 42.3947 2
73.7222 47.2057 2
74.9194 39.9526 4
74.2788 44.8158 4
72.1669 42.0858 3.9775
73.0099 49.554 4
71.2474 46.598 3.97628
73.0099 25.446 0
71.1327 20.9142 0
68.6801 16.6661 0
67.8232 19.9266 0.023231
74.6792 32.6053 2
73.7222 27.7943 2
67.2508 14.6715 2
72.1455 23.1494 2
70.612 26.2221 2
66.6354 17.9776 2
68.8836 21.9605 2
65.7894 21.0298 2
74.9197 35.0474 4
74.2794 30.1841 4
72.1836 32.9441 3.97771
71.2766 28.4321 3.97663
69.8135 24.0599 3.9771
68.3414 26.954 3.96572
66.7562 22.936 3.96541
65.694 12.7746 4
65.3208 16.1053 3.97483
64.7066 19.2002 3.96601
63.8246 22.0599 3.96461
71.1327 54.0858 0
65.6939 62.2254 0
68.6801 58.3339 0
65.3099 59 0.0238768
72.1455 51.8506 2
69.9759 56.25 2
68.834 53.111 2
64.0165 64.0165 2
66.6091 57.1286 2
63.8847 60.7591 2
63.4931 57.7647 2
62.2254 65.694 4
58.8926 65.4131 3.98548
69.7666 50.989 3.9762
67.7813 55.167 3.97664
66.6427 52.2074 3.96527
62.3332 62.4245 3.97833
64.654 56.0275 3.96648
62.197 59.3931 3.96722
61.7932 56.6616 3.96271
58.3339 68.6801 4
60.3285 67.2508 2
73.7221 47.2057 0
74.6784 42.3946 0
74.9197 39.9526 2
74.2794 44.8159 2
72.1662 42.0854 2
73.0099 49.554 2
71.2471 46.5975 2
75 37.5 4
72.4042 39.8026 3.97836
71.7809 44.353 3.97714
69.7997 41.7901 3.9674
70.573 48.8135 3.97604
68.9066 46.0142 3.96616
74.6792 32.6053 0
73.7222 27.7943 0
67.2507 14.6715 0
72.1454 23.1494 0
70.6123 26.2215 0.0232892
68.8835 21.9583 0.0227542
66.6345 17.973 0.0243265
65.7904 21.0287 0.034386
74.9197 35.0474 2
74.2794 30.1841 2
72.1828 32.9444 2
71.2762 28.4326 2
65.694 12.7745 2
65.3223 16.1106 2
69.8134 24.0611 2
68.3411 26.9549 2
64.7055 19.2012 2
66.7556 22.937 2
63.8246 22.0603 2
72.4121 35.2248 3.97838
71.8025 30.6771 3.97741
69.8358 33.2707 3.96733
68.9611 29.0408 3.96614
67.6054 24.9146 3.96545
66.1185 27.6542 3.96772
64.0165 10.9835 4
64.6866 23.8534 3.96579
63.8868 14.3301 3.97552
63.506 17.456 3.96653
62.8505 20.3468 3.96317
61.9551 22.9946 3.96777
60.6816 11.101 3.97988
57.6072 11.4674 3.97079
72.1454 51.8506 0
69.9759 56.25 0
68.8339 53.1131 0.0235707
64.0165 64.0165 0
63.883 60.7638 0.023939
66.6083 57.1329 0.0235666
63.4944 57.7652 0.032968
62.2255 65.694 2
58.8949 65.4103 2
69.7664 50.9878 2
67.7817 55.1637 2
66.642 52.2064 2
62.3355 62.4205 2
64.6529 56.0268 2
62.1953 59.393 2
61.7945 56.6622 2
60.6665 63.9741 3.98151
57.0235 66.7342 3.98782
57.5546 63.6823 3.97257
67.501 50.1753 3.9652
65.6951 54.1708 3.96577
64.4564 51.3621 3.96558
60.768 60.92 3.96899
62.7723 55.0474 3.96388
60.6413 58.138 3.96169
60.2569 55.7481 3.96444
56.25 69.9759 4
58.3339 68.6801 2
60.3285 67.2507 0
58.9188 9.65853 3.98159
62.2254 9.30607 4
73.0099 49.554 0
74.2788 44.8158 0
71.2474 46.598 0.0237196
72.1669 42.0858 0.0224986
74.9194 39.9526 0
75 37.5 2
72.404 39.8025 2
71.7807 44.3523 2
69.7989 41.7897 2
70.5727 48.813 2
68.9064 46.0135 2
72.4876 37.5126 3.97794
70.0373 39.6583 3.96775
69.4254 43.9074 3.96683
67.5212 41.4912 3.97032
68.2598 48.1061 3.96559
66.6208 45.4246 3.96923
74.9197 35.0474 0
74.2794 30.1841 0
72.1836 32.9441 0.0222865
71.2766 28.4321 0.0233681
65.694 12.7746 0
65.3208 16.1053 0.0251671
69.8135 24.0599 0.0229007
68.3414 26.954 0.0342778
66.7562 22.936 0.0345859
64.7066 19.2002 0.033991
63.8246 22.0599 0.0353856
72.4119 35.2248 2
71.8023 30.6777 2
69.8351 33.2713 2
68.9609 29.0415 2
64.0165 10.9835 2
63.8889 14.3353 2
63.5046 17.4569 2
67.605 24.9155 2
66.1182 27.6547 2
62.8508 20.3471 2
64.6862 23.854 2
61.954 22.9954 2
60.6842 11.1053 2
57.6085 11.4601 2
70.054 35.3939 3.96768
69.4626 31.152 3.96663
67.5884 33.6002 3.96987
66.6963 29.6395 3.96844
65.4487 25.7211 3.96663
63.9686 28.2966 3.97357
62.3386 12.6588 3.97778
62.7036 24.6864 3.96984
62.1923 15.7996 3.96787
61.7722 18.7124 3.96216
61.0912 21.3962 3.96525
60.2134 23.8044 3.97149
59.2408 12.8076 3.96864
55.8703 10.2454 3.97331
56.3957 13.1638 3.96819
69.7666 50.989 0.0237956
62.2254 65.694 0
58.8926 65.4131 0.0145208
67.7813 55.167 0.02336
66.6427 52.2074 0.0347251
62.3332 62.4245 0.0216742
62.197 59.3931 0.0327764
64.654 56.0275 0.0335204
61.7932 56.6616 0.0372934
60.6686 63.9713 2
57.0256 66.7328 2
57.5553 63.6834 2
67.5005 50.1744 2
65.6942 54.1699 2
64.4565 51.3618 2
60.767 60.9218 2
62.7726 55.0475 2
60.6431 58.1391 2
60.2566 55.748 2
55.0694 67.9313 3.9895
59.214 62.3423 3.97036
55.802 64.9024 3.97774
56.3185 62.054 3.97059
65.241 49.3861 3.96674
63.6379 53.2697 3.96457
62.2641 50.6034 3.9687
59.3214 59.5318 3.96531
60.9663 54.2665 3.96636
59.2304 56.9717 3.96258
59.1335 55.1322 3.9671
48.1004 68.5757 3.98543
50.9472 69.9314 3.99061
54.0858 71.1327 4
56.25 69.976 2
58.3339 68.6801 0
57.0561 8.33816 3.98382
60.3285 7.74928 4
58.9218 9.66268 2
62.2255 9.30602 2
70.573 48.8135 0.0239607
71.7809 44.353 0.0228558
68.9066 46.0142 0.0338398
69.7997 41.7901 0.0326007
72.4042 39.8026 0.021637
75 37.5 0
72.4869 37.5125 2
70.037 39.6582 2
69.4251 43.9068 2
67.5203 41.491 2
68.2595 48.1053 2
66.6192 45.424 2
70.1253 37.523 3.96774
67.7647 39.5102 3.97076
67.1403 43.4592 3.96982
65.3714 41.1936 3.97709
65.975 47.3986 3.96805
64.4468 44.815 3.97455
72.4121 35.2248 0.021616
71.8025 30.6771 0.0225873
69.8358 33.2707 0.0326729
68.9611 29.0408 0.0338576
64.0165 10.9835 0
63.8868 14.3301 0.0244791
63.506 17.456 0.0334653
67.6054 24.9146 0.0345528
66.1185 27.6542 0.0322816
64.6866 23.8534 0.0342059
62.8505 20.3468 0.0368286
61.9551 22.9946 0.0322313
60.6816 11.101 0.0201179
57.6072 11.4674 0.0292103
70.0538 35.3941 2
69.4623 31.1526 2
67.5876 33.6005 2
66.6955 29.64 2
62.3412 12.6634 2
62.1907 15.8002 2
61.7728 18.7122 2
65.4484 25.7217 2
63.9663 28.2975 2
61.0895 21.3969 2
62.7021 24.6873 2
60.2124 23.8054 2
59.2413 12.8077 2
56.3969 13.1612 2
55.8721 10.2458 2
67.8052 35.5531 3.97042
67.196 31.6354 3.96925
65.528 33.9448 3.97684
64.4846 30.2265 3.97513
63.3728 26.4599 3.97187
61.9875 28.8417 3.97618
60.7693 14.2452 3.96855
60.8111 25.4117 3.97408
60.5901 17.1569 3.96203
60.1089 19.874 3.96235
59.4587 22.3402 3.96748
58.7044 24.4199 3.97419
54.0346 9.14553 3.97573
57.8988 14.3731 3.96742
54.7784 12.0517 3.97071
55.2959 14.7082 3.9665
67.501 50.1753 0.0348042
57.0235 66.7342 0.0121757
60.6665 63.9741 0.0184881
57.5546 63.6823 0.0274345
65.6951 54.1708 0.0342286
64.4564 51.3621 0.0344161
60.768 60.92 0.0310057
60.6413 58.138 0.0383053
62.7723 55.0474 0.0361153
60.2569 55.7481 0.0355564
55.0711 67.9304 2
59.2144 62.3435 2
55.8022 64.903 2
56.3172 62.055 2
65.2406 49.3856 2
63.6381 53.2696 2
62.2635 50.6028 2
59.3206 59.5329 2
60.9664 54.2663 2
59.2342 56.9724 2
59.1357 55.1322 2
53.0415 68.9994 3.99033
53.9647 66.0073 3.98071
57.8698 60.8378 3.96876
54.6779 63.1908 3.97274
55.1962 60.5705 3.96764
63.0013 48.6151 3.97067
61.5937 52.5281 3.96744
60.0041 49.9462 3.97101
57.9904 58.2273 3.96295
59.1673 53.887 3.96833
57.9969 55.7519 3.96283
50.1071 67.8537 3.98459
47.4616 66.5737 3.98081
46.0542 69.1549 3.98612
48.1006 68.5761 2
48.8011 70.7226 3.99095
50.9484 69.9308 2
51.8506 72.1454 4
54.0858 71.1327 2
56.25 69.9759 0
55.1012 7.14207 3.98721
58.3339 6.31992 4
57.0593 8.34058 2
60.3286 7.74926 2
58.9188 9.65853 0.018412
62.2254 9.30607 0
68.2598 48.1061 0.0344145
69.4254 43.9074 0.0331728
66.6208 45.4246 0.0307742
67.5212 41.4912 0.0296807
70.0373 39.6583 0.0322536
72.4876 37.5126 0.0220588
70.1246 37.5231 2
67.7634 39.5101 2
67.1401 43.4589 2
65.3683 41.1928 2
65.9748 47.3981 2
64.4446 44.8141 2
67.8659 37.5238 3.97077
65.6089 39.3631 3.9771
64.9877 43.0006 3.97629
63.476 40.9053 3.97703
63.7575 46.6754 3.97245
62.5046 44.1638 3.97647
70.054 35.3939 0.0323222
69.4626 31.152 0.0333651
67.5884 33.6002 0.0301268
66.6963 29.6395 0.0315633
62.3386 12.6588 0.0222172
62.1923 15.7996 0.0321294
61.7722 18.7124 0.0378444
65.4487 25.7211 0.0333731
63.9686 28.2966 0.0264263
62.7036 24.6864 0.0301643
61.0912 21.3962 0.0347456
60.2134 23.8044 0.0285071
59.2408 12.8076 0.0313553
56.3957 13.1638 0.0318118
55.8703 10.2454 0.0266869
67.8036 35.5533 2
67.196 31.6357 2
65.5245 33.9455 2
64.4823 30.2273 2
60.7692 14.2456 2
60.5896 17.1566 2
60.1073 19.8746 2
63.371 26.4608 2
61.9851 28.8428 2
59.4598 22.3409 2
60.8093 25.4128 2
58.7033 24.4212 2
57.8976 14.3729 2
55.2961 14.7067 2
54.0365 9.14499 2
54.779 12.0498 2
65.7073 35.6767 3.9771
65.0077 32.1806 3.97611
64.0382 34.2736 3.97695
62.3066 30.6906 3.97622
61.3947 27.1423 3.97535
60.5188 29.221 3.97636
59.2968 15.702 3.96412
59.0226 25.8967 3.97614
59.054 18.4097 3.96139
58.5629 20.9381 3.96348
58.0214 23.1976 3.96903
57.6659 24.7797 3.97503
52.1101 8.16081 3.97899
53.0515 11.0435 3.97191
56.6567 15.7956 3.96474
53.7948 13.741 3.96695
54.3441 16.0695 3.96156
55.0694 67.9313 0.0105017
65.241 49.3861 0.0332595
55.802 64.9024 0.0222596
59.214 62.3423 0.0296442
56.3185 62.054 0.0294097
63.6379 53.2697 0.0354327
62.2641 50.6034 0.0313004
59.3214 59.5318 0.034687
59.2304 56.9717 0.037417
60.9663 54.2665 0.0336386
59.1335 55.1322 0.0328977
53.0428 68.9989 2
53.965 66.0079 2
57.8683 60.8386 2
54.6773 63.1921 2
55.1944 60.571 2
63.0001 48.6144 2
61.5936 52.5278 2
60.0046 49.9456 2
57.9887 58.2282 2
59.1703 53.8869 2
57.9936 55.7503 2
52.0684 66.996 3.98345
52.95 64.2069 3.97755
56.6293 59.4511 3.96928
53.6686 61.5859 3.97277
54.235 59.2743 3.97594
60.6836 47.8086 3.97252
59.4843 52.0352 3.96908
57.682 49.521 3.9729
56.7138 56.9369 3.96401
56.9219 54.0434 3.96628
50.1072 67.8538 2
49.3354 65.9138 3.9808
47.4617 66.5739 2
46.8902 64.7246 3.97944
45.5569 67.0909 3.98122
43.9717 69.5868 3.98681
46.0545 69.1552 2
46.6075 71.3671 3.99121
48.1004 68.5757 0.0145655
48.8022 70.7225 2
49.554 73.0099 4
50.9472 69.9314 0.00939056
51.8506 72.1455 2
54.0858 71.1327 0
53.0634 6.07301 3.98974
55.1039 7.14322 2
56.25 5.02411 4
58.3339 6.3199 2
57.0561 8.33816 0.0161751
60.3285 7.74928 0
65.975 47.3986 0.0319475
67.1403 43.4592 0.030176
64.4468 44.815 0.0254502
65.3714 41.1936 0.0229103
67.7647 39.5102 0.0292438
70.1253 37.523 0.0322617
67.8651 37.5238 2
65.6056 39.3627 2
64.9846 42.9997 2
63.4741 40.9049 2
63.7557 46.6745 2
62.5025 44.1628 2
65.7172 37.5036 3.97704
63.6258 39.2563 3.97692
63.0337 42.5122 3.97659
62.0826 40.6671 3.97665
61.6509 45.8561 3.97477
61.0694 43.62 3.97637
67.8052 35.5531 0.0295789
67.196 31.6354 0.0307495
65.528 33.9448 0.0231558
64.4846 30.2265 0.0248738
60.7693 14.2452 0.0314453
60.5901 17.1569 0.0379746
60.1089 19.874 0.0376462
63.3728 26.4599 0.0281263
61.9875 28.8417 0.0238201
60.8111 25.4117 0.0259215
59.4587 22.3402 0.0325152
58.7044 24.4199 0.0258071
57.8988 14.3731 0.0325758
55.2959 14.7082 0.0335022
54.0346 9.14553 0.0242674
54.7784 12.0517 0.0292937
65.704 35.6773 2
65.0047 32.1813 2
64.0358 34.2743 2
62.3044 30.6911 2
59.2952 15.7021 2
59.0561 18.4089 2
58.5646 20.9388 2
61.3931 27.1433 2
60.5177 29.2215 2
58.0158 23.1998 2
59.0214 25.8981 2
57.6685 24.7818 2
56.6544 15.795 2
54.3462 16.0699 2
53.7938 13.7335 2
52.1117 8.16032 2
53.0525 11.0413 2
63.8333 35.6463 3.97683
62.6286 33.0858 3.97649
60.2389 30.6887 3.97613
59.2229 28.0093 3.97628
57.9075 17.034 3.96076
57.3894 25.8509 3.97604
57.5859 19.5565 3.96075
57.1275 21.9511 3.96363
56.8589 24.075 3.96997
50.1111 7.29004 3.98367
51.2281 10.1398 3.97451
52.1589 12.8402 3.9728
55.501 17.0399 3.96156
52.9525 15.3357 3.96694
53.7163 17.0637 3.96287
53.0415 68.9994 0.00966836
53.9647 66.0073 0.0192919
63.0013 48.6151 0.0293345
54.6779 63.1908 0.0272639
57.8698 60.8378 0.0312417
55.1962 60.5705 0.0323617
61.5937 52.5281 0.0325571
60.0041 49.9462 0.0289941
57.9904 58.2273 0.0370492
57.9969 55.7519 0.0371691
59.1673 53.887 0.0316739
52.0686 66.9965 2
52.9497 64.2073 2
56.6279 59.4521 2
53.667 61.5878 2
54.2328 59.2754 2
60.683 47.8078 2
59.485 52.0346 2
57.679 49.5197 2
56.7105 56.9403 2
56.9187 54.0418 2
51.166 65.1192 3.97951
52.0376 62.5216 3.97456
55.4441 58.2064 3.96528
52.8118 60.0776 3.97313
53.6033 58.4235 3.9682
57.8764 46.7456 3.97567
57.2822 51.6968 3.96941
55.8392 49.4411 3.9718
55.3667 55.7265 3.96492
55.1175 53.294 3.96323
50.1071 67.8537 0.0154054
49.3353 65.9137 2
48.6151 64.1115 3.97945
47.4616 66.5737 0.0191933
45.5569 67.0914 2
46.8906 64.7244 2
46.3775 63.0385 3.9823
45.1311 65.1855 3.97907
43.6302 67.4623 3.98242
41.8594 69.8738 3.98642
43.9718 69.5873 2
44.3747 71.8617 3.99139
46.0542 69.1549 0.0138751
46.6085 71.367 2
47.2057 73.7222 4
48.8011 70.7226 0.00904687
49.554 73.0099 2
51.8506 72.1454 0
50.9541 5.13342 3.99104
53.0654 6.07367 2
54.0858 3.86728 4
55.1012 7.14207 0.0127898
56.25 5.02406 2
58.3339 6.31992 0
63.7575 46.6754 0.0275456
64.9877 43.0006 0.023713
62.5046 44.1638 0.0235314
63.476 40.9053 0.0229712
65.6089 39.3631 0.0229
67.8659 37.5238 0.0292278
65.7138 37.5039 2
63.6241 39.2562 2
63.032 42.5116 2
62.0825 40.6667 2
61.6492 45.8551 2
61.0682 43.6196 2
63.6892 37.458 3.97684
61.7946 39.3373 3.97685
60.8141 41.9077 3.97669
59.8399 44.6865 3.9767
65.7073 35.6767 0.0229003
65.0077 32.1806 0.0238898
64.0382 34.2736 0.0230487
62.3066 30.6906 0.0237842
59.2968 15.702 0.0358837
59.054 18.4097 0.0386139
58.5629 20.9381 0.0365194
61.3947 27.1423 0.0246468
60.5188 29.221 0.0236377
59.0226 25.8967 0.0238641
58.0214 23.1976 0.0309713
57.6659 24.7797 0.0249651
56.6567 15.7956 0.0352561
54.3441 16.0695 0.0384411
53.7948 13.741 0.0330473
52.1101 8.16081 0.0210072
53.0515 11.0435 0.0280903
63.8315 35.6464 2
62.6277 33.0863 2
60.2388 30.6889 2
57.9045 17.034 2
57.594 19.5542 2
57.1233 21.9533 2
59.2215 28.0102 2
56.869 24.0768 2
57.3892 25.8537 2
50.1125 7.2885 2
55.5002 17.0401 2
53.7173 17.0585 2
52.9525 15.3317 2
52.1598 12.8444 2
51.2296 10.1382 2
61.8358 35.38 3.97651
59.8629 32.8052 3.97629
58.1747 30.1756 3.9761
56.878 27.5167 3.97672
56.5692 18.2274 3.96144
55.9205 25.2488 3.97526
56.184 20.626 3.96079
55.8075 23.0043 3.96342
48.0562 6.53 3.98771
49.3224 9.34229 3.97831
50.4239 12.025 3.97453
51.3554 14.5552 3.96692
54.3532 18.0054 3.96011
52.3232 17.1346 3.95846
52.0684 66.996 0.0165478
52.95 64.2069 0.0224527
60.6836 47.8086 0.0274818
53.6686 61.5859 0.0272275
56.6293 59.4511 0.0307155
54.235 59.2743 0.0240623
59.4843 52.0352 0.0309217
57.682 49.521 0.0271015
56.7138 56.9369 0.0359921
56.9219 54.0434 0.0337172
51.1658 65.1198 2
52.0363 62.5231 2
55.4428 58.2072 2
52.8103 60.0809 2
53.602 58.4254 2
57.8755 46.7446 2
57.2796 51.6955 2
55.8329 49.4394 2
55.3646 55.7262 2
55.1191 53.2941 2
50.3416 63.3683 3.98005
51.2277 60.8984 3.97437
54.1623 57.2165 3.96796
52.2702 58.5755 3.97075
56.1243 44.057 3.97685
55.0048 47.7682 3.97436
54.7183 51.2808 3.96564
53.8447 54.4674 3.96563
49.3354 65.9138 0.0192045
48.6153 64.1109 2
47.9549 62.4599 3.98003
45.5569 67.0909 0.0187778
46.8902 64.7246 0.0205564
43.6302 67.4628 2
46.3775 63.0385 2
45.1315 65.1857 2
45.9808 61.5687 3.98826
44.7643 63.4372 3.97835
43.3561 65.4961 3.97934
41.6625 67.6804 3.98197
39.7017 70.0195 3.98597
41.8594 69.8743 2
42.1092 72.2061 3.99175
43.9717 69.5868 0.013193
44.3756 71.8617 2
44.8159 74.2794 4
46.6075 71.3671 0.00879334
47.2057 73.7222 2
49.554 73.0099 0
48.7853 4.32369 3.99208
50.9556 5.13323 2
51.8506 2.85458 4
53.0634 6.07301 0.0102604
54.0858 3.86728 2
56.25 5.02411 0
61.6509 45.8561 0.0252306
63.0337 42.5122 0.0234102
61.0694 43.62 0.0236313
62.0826 40.6671 0.0233457
63.6258 39.2563 0.0230834
65.7172 37.5036 0.0229577
63.6876 37.4579 2
61.7949 39.3375 2
60.8147 41.9075 2
59.8396 44.6857 2
61.6249 37.444 3.97693
59.7807 39.8133 3.97688
58.475 42.8381 3.97635
63.8333 35.6463 0.0231714
62.6286 33.0858 0.0235108
60.2389 30.6887 0.0238727
57.9075 17.034 0.0392358
57.5859 19.5565 0.0392512
57.1275 21.9511 0.0363685
59.2229 28.0093 0.0237214
57.3894 25.8509 0.0239569
56.8589 24.075 0.0300339
55.501 17.0399 0.0384384
53.7163 17.0637 0.0371271
52.9525 15.3357 0.0330553
50.1111 7.29004 0.0163313
52.1589 12.8402 0.0271968
51.2281 10.1398 0.0254856
61.8362 35.3801 2
59.8629 32.8052 2
58.1755 30.175 2
56.5719 18.2265 2
56.1934 20.6214 2
55.8121 23.0089 2
56.8774 27.5179 2
55.9197 25.2528 2
48.0571 6.52872 2
49.3237 9.34058 2
54.3569 18.0052 2
52.3203 17.1265 2
51.3532 14.5532 2
50.4254 12.0237 2
59.4194 35.1494 3.97659
57.4564 32.3512 3.97576
56.0503 29.4731 3.97648
54.9835 26.7752 3.97582
55.2424 19.2796 3.96181
54.5856 24.2201 3.96872
54.7799 21.6905 3.95985
45.9627 5.88418 3.98891
43.3744 7.47712 3.98479
47.3548 8.62949 3.98253
48.5942 11.3116 3.97418
49.6943 13.7812 3.97125
50.5974 16.2024 3.96765
53.0455 18.7683 3.96011
51.2481 18.1818 3.96807
51.166 65.1192 0.0204914
52.0376 62.5216 0.0254393
57.8764 46.7456 0.0243347
52.8118 60.0776 0.0268652
55.4441 58.2064 0.0347191
53.6033 58.4235 0.0317971
57.2822 51.6968 0.0305926
55.8392 49.4411 0.0282003
55.3667 55.7265 0.0350797
55.1175 53.294 0.0367673
50.3413 63.3676 2
51.2258 60.8964 2
54.1616 57.2177 2
52.2683 58.577 2
56.1251 44.0565 2
55.0023 47.767 2
54.7189 51.2802 2
53.844 54.4687 2
49.5815 61.7307 3.97697
54.8924 41.6444 3.9742
50.5335 59.2852 3.96956
52.0988 56.4317 3.96824
53.5491 45.4094 3.97428
52.8712 49.1982 3.96947
52.4076 52.7577 3.96104
48.6151 64.1115 0.0205535
47.9543 62.4587 2
47.3166 60.9907 3.98692
43.6302 67.4623 0.0175809
45.1311 65.1855 0.0209306
46.3775 63.0385 0.0176983
41.6628 67.6802 2
43.3565 65.4968 2
45.9795 61.5692 2
44.7645 63.4373 2
45.7526 60.6141 3.98508
44.4791 61.8136 3.97967
43.145 63.7108 3.97876
41.5457 65.6335 3.97793
39.6321 67.7577 3.98137
37.5259 70.0438 3.98471
39.7017 70.0198 2
39.8164 72.4026 3.99153
41.8594 69.8738 0.0135795
42.1099 72.2064 2
42.3947 74.6792 4
44.3747 71.8617 0.00860959
44.8159 74.2794 2
47.2057 73.7222 0
43.8519 5.36136 3.98814
46.5714 3.64806 3.9924
48.7861 4.32333 2
49.554 1.99015 4
50.9541 5.13342 0.00895783
51.8506 2.85453 2
54.0858 3.86728 0
59.8399 44.6865 0.0232952
60.8141 41.9077 0.0233068
61.7946 39.3373 0.023146
63.6892 37.458 0.0231597
61.6253 37.444 2
59.7815 39.8131 2
58.4756 42.8376 2
59.2731 37.5657 3.97721
57.4093 40.6017 3.97713
54.2959 39.6579 3.97512
61.8358 35.38 0.0234915
59.8629 32.8052 0.0237067
58.1747 30.1756 0.0238953
56.5692 18.2274 0.0385634
56.184 20.626 0.0392145
55.8075 23.0043 0.0365785
56.878 27.5167 0.0232782
55.9205 25.2488 0.0247424
54.3532 18.0054 0.0398877
52.3232 17.1346 0.041543
51.3554 14.5552 0.0330778
48.0562 6.53 0.0122925
49.3224 9.34229 0.021691
50.4239 12.025 0.0254689
59.4202 35.149 2
45.963 5.88312 2
43.3746 7.47567 2
57.4574 32.3515 2
56.0502 29.4723 2
55.2326 19.2826 2
54.7981 21.6925 2
54.5795 24.2234 2
54.9808 26.7776 2
47.3558 8.62664 2
48.5956 11.3098 2
53.0505 18.7538 2
51.2528 18.1783 2
50.5965 16.2025 2
49.6934 13.7831 2
56.7909 34.8014 3.97708
55.126 31.6266 3.97577
53.971 28.5785 3.97726
53.3625 25.6932 3.97526
53.8367 20.247 3.96116
53.3216 22.8784 3.95567
41.3998 7.08238 3.98421
45.3605 7.99666 3.98744
42.8664 9.42172 3.9802
46.6649 10.6631 3.98066
47.7299 13.1263 3.97548
48.9009 15.4516 3.96931
49.9507 17.7665 3.96172
51.5581 19.4631 3.96854
50.3416 63.3683 0.0199534
51.2277 60.8984 0.0256296
56.1243 44.057 0.0231488
55.0048 47.7682 0.0256394
52.2702 58.5755 0.0292461
54.1623 57.2165 0.032042
54.7183 51.2808 0.034357
53.8447 54.4674 0.0343716
49.5798 61.7297 2
54.884 41.6407 2
50.5313 59.2854 2
52.1015 56.4345 2
53.5455 45.4077 2
52.8763 49.1972 2
52.4085 52.7578 2
48.8262 60.1836 3.97592
51.6725 42.5134 3.98326
49.7288 57.5821 3.9671
50.4276 54.3616 3.96251
51.2212 47.1173 3.9747
50.8594 50.8359 3.95484
47.3518 43.5987 3.97631
47.9549 62.4599 0.0199727
47.3148 60.9899 2
46.5972 59.779 3.99295
41.6625 67.6804 0.0180285
43.3561 65.4961 0.0206558
44.7643 63.4372 0.0216458
45.9808 61.5687 0.0117371
39.6325 67.7584 2
41.546 65.6321 2
45.7513 60.614 2
43.1453 63.711 2
44.4777 61.8141 2
44.6088 60.2719 3.99396
42.947 62.0631 3.97482
41.5999 63.8036 3.97786
39.6472 65.5978 3.97697
37.5632 67.738 3.97934
31.6978 65.1142 3.97712
33.3926 67.4758 3.97927
35.3339 69.9541 3.98481
37.5257 70.0449 2
37.509 72.457 3.99198
39.7017 70.0195 0.014029
39.8169 72.4028 2
39.9526 74.9197 4
42.1092 72.2061 0.00824801
42.3947 74.6792 2
44.8159 74.2794 0
41.7365 4.96987 3.9885
43.8522 5.36008 2
44.3268 3.11122 3.99273
46.5719 3.6477 2
47.2057 1.27793 4
48.7853 4.32369 0.00791576
49.554 1.99013 2
51.8506 2.85458 0
58.475 42.8381 0.0236455
59.7807 39.8133 0.0231202
61.6249 37.444 0.0230735
59.2743 37.5666 2
57.4091 40.6029 2
54.2881 39.6634 2
56.1522 37.8794 3.97683
48.7006 41.2287 3.97538
52.2668 39.2984 3.98369
39.4434 6.80572 3.98522
59.4194 35.1494 0.0234061
57.4564 32.3512 0.0242397
56.0503 29.4731 0.0235172
55.2424 19.2796 0.0381942
54.7799 21.6905 0.0401509
54.5856 24.2201 0.0312758
54.9835 26.7752 0.0241783
53.0455 18.7683 0.039887
51.2481 18.1818 0.0319278
50.5974 16.2024 0.0323527
45.9627 5.88418 0.0110931
49.6943 13.7812 0.0287494
47.3548 8.62949 0.0174741
48.5942 11.3116 0.0258165
43.3744 7.47712 0.0152146
56.7904 34.8022 2
41.4 7.08216 2
45.3607 7.99531 2
42.8669 9.42065 2
55.1286 31.6248 2
53.9701 28.5778 2
53.839 20.2601 2
53.314 22.8756 2
53.3584 25.6934 2
46.6659 10.6582 2
47.7301 13.122 2
51.5699 19.4627 2
49.9508 17.7654 2
48.8969 15.4586 2
54.1195 33.9979 3.97513
52.8437 30.6723 3.97604
52.0741 27.4219 3.97487
51.8346 24.312 3.9784
52.2323 21.2044 3.9722
41.0134 9.05593 3.97866
44.7264 9.99626 3.98619
42.4637 10.9059 3.99698
45.9925 12.74 3.97245
47.6551 14.6232 3.96943
48.0576 17.0296 3.96558
49.7543 19.8426 3.9727
49.5815 61.7307 0.0230287
50.5335 59.2852 0.0304397
54.8924 41.6444 0.0258005
53.5491 45.4094 0.0257214
52.8712 49.1982 0.030526
52.0988 56.4317 0.0317555
52.4076 52.7577 0.0389552
48.8231 60.1815 2
51.69 42.5246 2
49.7266 57.5823 2
50.4273 54.3636 2
51.2245 47.1163 2
50.8616 50.835 2
47.3673 43.6308 2
47.9464 58.7085 3.97924
49.3329 45.1331 3.98095
48.4932 55.8716 3.96129
48.8929 52.5173 3.97607
49.2274 48.9175 3.97167
45.1002 39.8012 3.85947
45.5847 42.5019 3.89641
45.834 45.6017 3.98262
42.9256 41.0221 3.69197
41.6095 41.8367 3.49705
47.3166 60.9907 0.0130784
46.5947 59.7774 2
45.4377 58.7833 3.99482
39.6321 67.7577 0.018625
41.5457 65.6335 0.0220662
43.145 63.7108 0.0212364
44.4791 61.8136 0.0203343
45.7526 60.6141 0.0149194
41.6002 63.8024 2
37.5634 67.739 2
39.6475 65.5987 2
44.6086 60.2717 2
42.9456 62.0632 2
41.7502 62.4708 3.97717
42.4707 59.9553 3.97996
39.8946 63.5344 3.97617
37.6422 65.4934 3.9762
35.4635 67.6475 3.97913
33.5757 65.3265 3.97571
31.9605 63.2788 3.97592
29.8852 64.7057 3.98051
31.6978 65.1148 2
31.3776 67.1862 3.97963
33.3927 67.477 2
33.1573 69.7476 3.98493
35.3336 69.955 2
35.1955 72.3715 3.99197
37.5259 70.0438 0.0152879
37.5092 72.4575 2
37.5 75 4
39.8164 72.4026 0.00847083
39.9526 74.9197 2
42.3947 74.6792 0
39.6245 4.71768 3.98941
41.7368 4.96949 2
42.0632 2.71835 3.9931
43.8519 5.36136 0.0118581
44.327 3.1105 2
44.8158 0.721173 4
46.5714 3.64806 0.00760335
47.2057 1.27779 2
49.554 1.99015 0
57.4093 40.6017 0.0228714
59.2731 37.5657 0.0227936
54.2959 39.6579 0.0248831
48.7279 41.2433 2
56.1521 37.8764 2
52.2638 39.2635 2
53.1263 36.6183 3.97809
46.6293 40.3149 3.89917
49.6474 38.508 3.9846
37.5174 6.67624 3.98552
39.444 6.80432 2
39.2111 8.69703 3.98237
35.9433 8.49631 3.98417
56.7909 34.8014 0.0229178
55.126 31.6266 0.0242296
53.971 28.5785 0.0227416
53.8367 20.247 0.0388405
53.3216 22.8784 0.0443327
53.3625 25.6932 0.0247384
51.5581 19.4631 0.0314577
49.9507 17.7665 0.0382789
48.9009 15.4516 0.0306926
45.3605 7.99666 0.0125557
47.7299 13.1263 0.0245207
46.6649 10.6631 0.0193409
41.3998 7.08238 0.0157932
42.8664 9.42172 0.0197992
54.1178 33.998 2
41.0145 9.05716 2
44.7262 9.99538 2
42.4649 10.9069 2
52.8402 30.6702 2
52.0805 27.4218 2
52.2342 21.2093 2
51.8288 24.3178 2
45.9926 12.7329 2
47.6509 14.6073 2
49.767 19.8382 2
48.054 17.0312 2
51.6321 32.9085 3.98236
50.667 29.3807 3.97757
50.3683 25.9265 3.97064
49.7917 22.4385 3.98479
40.5651 11.6176 3.98227
43.8488 11.9106 3.97999
45.7721 15.4603 3.98722
47.4545 19.4507 3.97905
45.5575 37.4786 3.85536
48.8262 60.1836 0.0240769
49.7288 57.5821 0.0329044
51.6725 42.5134 0.0167441
51.2212 47.1173 0.0253042
50.8594 50.8359 0.0451598
50.4276 54.3616 0.0374872
47.3518 43.5987 0.0236919
47.9436 58.7111 2
49.3498 45.1479 2
48.4883 55.874 2
48.8923 52.5207 2
49.2306 48.9186 2
45.1811 39.8149 2
45.6164 42.5373 2
45.8426 45.6162 2
42.9632 41.0626 2
41.6424 41.8618 2
46.7772 57.3142 3.97777
43.6549 39.3487 3.6928
41.9767 40.7541 3.52033
47.4997 47.1604 3.98286
47.0169 54.1824 3.96144
47.2799 50.6627 3.97872
44.3412 47.2312 3.9776
44.2363 41.8416 3.85445
44.3258 44.3434 3.89803
41.9254 42.4572 3.73057
40.6126 42.1353 3.49353
46.5972 59.779 0.0070523
45.437 58.7799 2
43.8456 57.6741 3.98151
37.5632 67.738 0.0206553
39.6472 65.5978 0.0230344
41.5999 63.8036 0.022142
42.947 62.0631 0.025184
44.6088 60.2719 0.00603779
35.4638 67.6483 2
41.7492 62.4733 2
39.8942 63.5352 2
37.6422 65.4943 2
42.4719 59.9531 2
40.621 61.6141 3.98029
40.4347 58.1368 3.98097
37.8378 63.1903 3.97348
35.573 65.4159 3.97632
33.576 65.3276 2
31.961 63.2804 2
33.6298 63.3178 3.97468
30.3796 62.8404 3.98014
32.1277 61.9816 3.98576
26.8788 61.4672 3.97783
28.0657 64.1348 3.97839
29.8847 64.7068 2
29.4076 66.75 3.98058
31.6978 65.1142 0.02288
31.3776 67.1868 2
31.0152 69.413 3.98472
33.3926 67.4758 0.0207277
33.157 69.7486 2
32.8935 72.1458 3.9915
35.3339 69.9541 0.0151916
35.1952 72.3721 2
35.0474 74.9194 4
37.509 72.457 0.00802274
37.5 75 2
39.9526 74.9197 0
35.622 6.7275 3.98514
37.5242 4.6169 3.98964
39.6247 4.71634 2
39.7897 2.47507 3.99311
41.7365 4.96987 0.0114966
42.0632 2.71802 2
42.3946 0.32156 4
44.3268 3.11122 0.00726971
44.8159 0.72056 2
47.2057 1.27793 0
48.7006 41.2287 0.0246211
56.1522 37.8794 0.02317
52.2668 39.2984 0.016309
46.6543 40.3143 2
49.648 38.5037 2
53.1246 36.6407 2
50.4514 35.5665 3.97434
47.2982 37.7651 3.91158
45.1206 35.1725 3.85831
42.9585 33.9345 3.68873
41.639 33.125 3.49529
37.4586 8.5372 3.98461
37.5179 6.67535 2
39.4434 6.80572 0.0147822
39.2128 8.69539 2
38.9759 10.133 3.98372
35.8995 9.77891 3.97981
34.1533 8.82852 3.98216
35.944 8.49363 2
54.1195 33.9979 0.0248695
52.8437 30.6723 0.0239619
52.0741 27.4219 0.0251325
52.2323 21.2044 0.0278
51.8346 24.312 0.0216008
49.7543 19.8426 0.0273
48.0576 17.0296 0.0344196
47.6551 14.6232 0.0305662
44.7264 9.99626 0.0138076
45.9925 12.74 0.027548
41.0134 9.05593 0.0213448
42.4637 10.9059 0.00302372
51.6407 32.9067 2
40.5675 11.6211 2
43.8475 11.9111 2
50.6877 29.3783 2
50.3654 25.9287 2
49.788 22.4378 2
45.7639 15.4194 2
47.4586 19.4749 2
49.21 31.5367 3.98704
48.7524 27.6944 3.97774
49.0977 24.5799 3.9767
47.095 22.2106 3.98956
38.3 12.7473 3.97692
42.0876 14.3102 3.97955
44.7653 18.5867 3.97609
44.0732 37.4846 3.70366
45.6507 37.4825 2
47.9464 58.7085 0.0207648
48.4932 55.8716 0.0387125
49.3329 45.1331 0.01905
49.2274 48.9175 0.0283275
48.8929 52.5173 0.0239311
45.1002 39.8012 0.140533
45.5847 42.5019 0.103586
45.834 45.6017 0.0173843
42.9256 41.0221 0.308034
41.6095 41.8367 0.502948
46.7737 57.3166 2
43.7159 39.3748 2
41.9803 40.7687 2
47.5068 47.1602 2
47.0116 54.1863 2
47.28 50.6708 2
44.3721 47.2181 2
44.277 41.8754 2
44.3709 44.3697 2
41.9775 42.5075 2
40.6412 42.1471 2
45.3139 55.8978 3.99738
42.3198 39.2173 3.53039
40.4995 40.6327 3.63636
45.6977 48.8075 4.00293
45.3168 52.4503 3.98205
43.0798 48.2231 3.99438
42.988 45.8676 3.8901
43.0832 43.6068 3.83588
40.7148 43.485 3.70954
39.1828 42.3956 3.53072
45.4377 58.7833 0.00517746
43.8425 57.6797 2
42.071 56.2607 3.98606
35.4635 67.6475 0.0208732
37.6422 65.4934 0.0238032
39.8946 63.5344 0.0238274
41.7502 62.4708 0.0228344
42.4707 59.9553 0.0200355
35.5734 65.4164 2
40.6213 61.6127 2
37.838 63.1904 2
40.4345 58.1377 2
38.9106 56.4165 3.99405
38.2491 60.2997 3.97999
35.6076 63.1846 3.97432
33.5757 65.3265 0.0242878
31.9605 63.2788 0.0240799
33.6303 63.319 2
30.3801 62.8414 2
32.1289 61.983 2
28.6871 62.177 3.98003
33.3479 61.4884 3.97745
31.0756 61.2051 3.98063
27.5882 59.5584 3.97974
23.821 59.0448 3.9902
25.0472 60.8395 3.97726
26.8796 61.4671 2
26.2344 63.4637 3.977
28.0655 64.133 2
27.4646 66.1745 3.98012
29.8852 64.7057 0.0194889
29.4073 66.75 2
28.9078 68.9386 3.98425
31.3776 67.1862 0.0203697
31.0147 69.4134 2
30.6164 71.7773 3.99097
33.1573 69.7476 0.0150738
32.8928 72.1463 2
32.6054 74.6784 4
35.1955 72.3715 0.00802945
35.0474 74.9197 2
37.5 75 0
33.7252 6.98379 3.9839
35.4364 4.68708 3.98942
35.6224 6.7261 2
37.5154 2.38747 3.99322
37.5244 4.61615 2
39.6245 4.71768 0.0105865
39.7896 2.47434 2
39.9526 0.0806499 4
42.0632 2.71835 0.00689725
42.3947 0.320817 2
44.8158 0.721173 0
43.668 35.6214 3.69591
41.9947 34.2033 3.51048
46.6293 40.3149 0.100828
49.6474 38.508 0.0153962
53.1263 36.6183 0.0219087
47.2937 37.7345 2
50.4586 35.5594 2
45.1921 35.1498 2
42.9985 33.8929 2
41.6667 33.0999 2
47.4904 34.3291 3.94595
44.2788 33.1154 3.83747
41.9682 32.5076 3.72909
40.6381 32.8373 3.49269
37.3112 10.6346 3.98113
37.46 8.53617 2
37.5174 6.67624 0.0144815
39.2111 8.69703 0.0176285
38.979 10.1316 2
34.756 10.3886 3.98085
35.901 9.77365 2
32.3802 9.37507 3.97815
34.1522 8.82403 2
35.9433 8.49631 0.015834
51.6321 32.9085 0.0176368
50.667 29.3807 0.0224338
50.3683 25.9265 0.029357
49.7917 22.4385 0.01521
47.4545 19.4507 0.0209519
45.7721 15.4603 0.0127769
43.8488 11.9106 0.0200141
40.5651 11.6176 0.0177261
49.2294 31.5287 2
38.3004 12.7434 2
42.0916 14.3205 2
48.7595 27.6981 2
49.0938 24.5793 2
47.0817 22.1988 2
44.7675 18.6456 2
47.1071 29.6823 3.98507
46.7791 25.3103 3.96813
44.223 21.5862 3.97933
36.5853 12.958 3.97405
38.6812 14.8548 3.97461
41.7331 17.9264 3.97869
42.4744 37.4684 3.56598
44.1269 37.4842 2
45.5575 37.4786 0.14464
46.7772 57.3142 0.0222275
47.0169 54.1824 0.0385553
47.4997 47.1604 0.0171389
47.2799 50.6627 0.0212797
43.6549 39.3487 0.307202
44.2363 41.8416 0.145548
44.3258 44.3434 0.101968
44.3412 47.2312 0.0223986
41.9254 42.4572 0.269426
41.9767 40.7541 0.479666
40.6126 42.1353 0.506465
45.3091 55.9 2
42.3198 39.2225 2
40.5254 40.6174 2
45.6971 48.8258 2
45.3119 52.4521 2
43.1076 48.2414 2
43.0413 45.9129 2
43.1315 43.6392 2
40.7543 43.5462 2
39.1809 42.409 2
43.6388 54.3654 3.99483
40.6046 39.0682 3.65338
39.0751 40.7055 3.60719
43.4083 50.3069 4.00374
41.7118 47.3841 3.92917
41.6244 44.9647 3.84791
39.3392 44.1398 3.67659
37.5 42.5021 3.56808
43.8456 57.6741 0.0184854
42.0718 56.2568 2
40.3818 54.8287 3.99417
35.573 65.4159 0.0236805
37.8378 63.1903 0.0265225
40.621 61.6141 0.0197059
40.4347 58.1368 0.0190272
35.6079 63.1842 2
38.2489 60.3005 2
38.9117 56.4065 2
37.9866 55.1041 3.99494
36.9335 57.5966 3.99158
35.3655 60.8897 3.97927
33.6298 63.3178 0.0253166
30.3796 62.8404 0.0198644
32.1277 61.9816 0.0142377
33.349 61.4884 2
28.6876 62.1795 2
31.077 61.2074 2
29.4181 60.2578 3.97597
32.367 59.7079 3.98988
28.0568 58.3422 4.00637
27.5907 59.558 2
25.409 58.5619 3.98023
22.8029 58.1991 3.96851
23.4166 60.3105 3.97914
23.8232 59.0448 2
25.0484 60.8387 2
24.4397 62.7497 3.97722
26.8788 61.4672 0.0221669
26.2351 63.4645 2
25.5496 65.4822 3.97866
28.0657 64.1348 0.0216054
27.4645 66.1743 2
26.8374 68.3272 3.98436
29.4076 66.75 0.0194205
28.9072 68.9385 2
28.3716 71.2626 3.99034
31.0152 69.413 0.0152764
30.6155 71.7773 2
30.1842 74.2788 4
32.8935 72.1458 0.00849935
32.6053 74.6792 2
35.0474 74.9194 0
31.7897 7.42309 3.98232
33.349 4.92698 3.98845
33.7248 6.98098 2
35.2458 2.46342 3.99322
35.4363 4.68639 2
35.622 6.7275 0.0148614
37.5 0 4
37.515 2.38706 2
37.5242 4.6169 0.0103597
39.7897 2.47507 0.00688883
39.9526 0.0802889 2
42.3946 0.32156 0
42.3133 35.7183 3.52104
43.7407 35.5904 2
40.5314 34.3323 3.63615
41.9926 34.1864 2
47.2982 37.7651 0.0884177
50.4514 35.5665 0.0256584
45.1206 35.1725 0.141692
42.9585 33.9345 0.311274
41.639 33.125 0.504713
47.512 34.3507 2
44.3166 33.0902 2
42.0209 32.4553 2
40.6651 32.8252 2
45.585 31.7362 3.90848
43.1231 31.3559 3.83048
40.7514 31.4849 3.70792
39.2022 32.5935 3.52667
35.695 11.7858 3.97711
37.3146 10.6319 2
37.4586 8.5372 0.0153886
38.9759 10.133 0.0162845
33.1011 11.2275 3.97289
34.7548 10.381 2
35.8995 9.77891 0.0201873
30.4856 10.0265 3.97769
32.3795 9.37413 2
34.1533 8.82852 0.0178404
49.21 31.5367 0.0129568
48.7524 27.6944 0.0222646
49.0977 24.5799 0.0233043
47.095 22.2106 0.0104415
44.7653 18.5867 0.0239094
42.0876 14.3102 0.0204506
38.3 12.7473 0.0230815
36.5818 12.9381 2
47.1201 29.6288 2
38.6781 14.8326 2
41.725 17.9262 2
46.7839 25.3093 2
44.2083 21.561 2
45.0598 27.8247 4.00558
43.6041 24.2334 4.02755
41.2949 20.9406 3.98528
35.7726 14.7988 3.97635
38.672 17.659 3.98166
40.6607 37.4562 3.66798
42.4839 37.4726 2
44.0732 37.4846 0.296337
45.3139 55.8978 0.00262385
45.3168 52.4503 0.0179466
45.6977 48.8075 -0.002927
42.3198 39.2173 0.469613
43.0832 43.6068 0.164124
42.988 45.8676 0.109903
43.0798 48.2231 0.00561774
40.7148 43.485 0.290458
40.4995 40.6327 0.363641
39.1828 42.3956 0.469281
43.6359 54.3617 2
40.6078 39.0673 2
39.0764 40.698 2
43.4004 50.3219 2
41.7122 47.4171 2
41.6504 45.0082 2
37.4968 42.5208 2
39.3543 44.2002 2
41.7933 52.846 3.99795
39.0857 39.0988 3.6202
37.5039 40.761 3.63455
35.8225 42.4057 3.53058
40.8265 49.4578 3.99496
39.7388 45.7237 3.82201
37.4995 44.3976 3.70694
42.071 56.2607 0.0139392
40.3796 54.8376 2
38.7233 53.656 3.99575
35.6076 63.1846 0.0256834
38.2491 60.2997 0.0200108
38.9106 56.4165 0.0059481
35.3659 60.888 2
36.9338 57.5952 2
37.9872 55.1047 2
36.3229 55.1668 3.99604
34.496 58.4964 3.99466
33.3479 61.4884 0.0225521
28.6871 62.177 0.0199724
31.0756 61.2051 0.0193675
32.3684 59.711 2
29.4197 60.2568 2
30.3299 57.7813 3.98461
28.06 58.3412 2
27.0156 56.7945 3.96659
27.5882 59.5584 0.0202571
25.4121 58.5619 2
23.9208 56.7581 3.95961
21.4071 57.3455 3.95985
22.0167 59.5802 3.97443
22.8054 58.2 2
22.7457 62.0013 3.9736
23.4178 60.3098 2
23.821 59.0448 0.00980084
25.0472 60.8395 0.0227447
24.4407 62.7525 2
23.685 64.6985 3.97621
26.2344 63.4637 0.0229965
25.5494 65.4837 2
24.8099 67.5879 3.98321
27.4646 66.1745 0.0198793
26.837 68.3279 2
26.1667 70.6035 3.99033
28.9078 68.9386 0.015754
28.3706 71.2624 2
27.7943 73.7221 4
30.6164 71.7773 0.00903073
30.1841 74.2794 2
32.6054 74.6784 0
29.8126 7.99887 3.98052
31.2545 5.33354 3.98749
31.7892 7.42176 2
32.9819 2.70172 3.99282
33.3485 4.92533 2
33.7252 6.98379 0.0161026
35.0474 0.080333 4
35.2453 2.46318 2
35.4364 4.68708 0.010581
37.5 0 2
37.5154 2.38747 0.00677643
39.9526 0.0806499 0
40.6401 35.8652 3.65442
42.3153 35.7199 2
43.668 35.6214 0.304091
28.5461 10.7019 3.97733
39.0841 34.2827 3.60576
40.5391 34.3435 2
41.9947 34.2033 0.489515
47.4904 34.3291 0.0540466
44.2788 33.1154 0.162533
41.9682 32.5076 0.270907
40.6381 32.8373 0.507312
45.6182 31.7169 2
43.1665 31.3226 2
40.7926 31.4227 2
39.2059 32.5819 2
43.9334 29.9397 3.90282
41.6396 29.9963 3.84962
39.3654 30.8399 3.67524
37.5285 32.4979 3.56709
34.0974 12.9527 3.97348
35.6942 11.7728 2
37.3112 10.6346 0.0188731
31.1906 11.9986 3.97745
33.1013 11.2272 2
34.756 10.3886 0.0191542
30.4841 10.023 2
32.3802 9.37507 0.0218482
47.1071 29.6823 0.0149333
46.7791 25.3103 0.0318689
36.5853 12.958 0.0259451
44.223 21.5862 0.0206713
41.7331 17.9264 0.0213082
38.6812 14.8548 0.0253921
35.776 14.8094 2
45.0597 27.8217 2
38.6698 17.6633 2
41.2796 20.9326 2
43.5977 24.2171 2
33.6135 15.9065 3.98175
42.7594 26.6604 3.98358
40.7912 23.5331 3.99906
38.3996 20.425 3.99366
35.8474 17.5551 3.98086
39.1025 37.4857 3.63597
40.6574 37.4587 2
42.4744 37.4684 0.434022
43.6388 54.3654 0.00517051
43.4083 50.3069 -0.00373789
40.6046 39.0682 0.346616
41.6244 44.9647 0.152094
41.7118 47.3841 0.0708281
39.3392 44.1398 0.32341
39.0751 40.7055 0.392808
37.5 42.5021 0.431915
41.7835 52.8481 2
39.0793 39.0855 2
37.5016 40.7483 2
40.8161 49.4782 2
35.8199 42.4172 2
39.7553 45.781 2
37.4911 44.4542 2
39.735 51.6524 4.00277
37.5071 39.1045 3.65499
35.9392 40.7208 3.60776
34.3893 42.1533 3.49468
35.6628 44.1576 3.66653
38.6653 48.3705 3.94228
37.5239 46.0132 3.85048
40.3818 54.8287 0.00583135
38.7247 53.6433 2
36.7508 52.9545 3.99675
35.3655 60.8897 0.0207291
36.9335 57.5966 0.00841524
37.9866 55.1041 0.00506275
34.4966 58.4934 2
36.3254 55.1566 2
33.2572 55.3583 3.99192
32.367 59.7079 0.0101196
29.4181 60.2578 0.0240263
30.3329 57.7783 2
28.8004 55.2812 3.98542
28.0568 58.3422 -0.00637251
27.0188 56.7934 2
25.4389 55.0877 3.95961
21.9434 55.2816 3.95985
25.409 58.5619 0.0197706
23.9236 56.7598 2
20.2786 56.9772 3.96298
20.6751 58.7342 3.9694
21.4094 57.3469 2
21.1799 61.1338 3.97436
22.018 59.5805 2
22.8029 58.1991 0.0314915
21.9001 63.8226 3.97598
22.747 62.0022 2
23.4166 60.3105 0.0208646
24.4397 62.7497 0.0227785
23.6849 64.6984 2
22.8385 66.7304 3.98096
25.5496 65.4822 0.0213396
24.8094 67.5888 2
24.0109 69.8048 3.99019
26.8374 68.3272 0.0156438
26.1655 70.6036 2
25.446 73.0099 4
28.3716 71.2626 0.00965562
27.7943 73.7222 2
30.1842 74.2788 0
27.8225 8.65892 3.98048
29.1567 5.8803 3.98571
29.8115 7.99612 2
30.7274 3.09849 3.99257
31.2538 5.33228 2
31.7897 7.42309 0.0176776
32.6053 0.320823 4
32.9811 2.7011 2
33.349 4.92698 0.0115494
35.0474 0.0802903 2
35.2458 2.46342 0.00678076
37.5 0 0
39.0776 35.8834 3.62737
40.6232 35.8658 2
42.3133 35.7183 0.478959
28.5447 10.6994 2
26.6246 11.3981 3.9778
29.2312 12.652 3.98083
37.519 34.2433 3.63318
39.0962 34.2992 2
40.5314 34.3323 0.363852
45.585 31.7362 0.0915151
43.1231 31.3559 0.16952
40.7514 31.4849 0.292078
39.2022 32.5935 0.473327
43.9657 29.9084 2
41.6695 29.9562 2
39.3726 30.7801 2
37.5284 32.4796 2
42.0673 28.6348 3.87488
39.7308 29.246 3.84304
37.5221 30.605 3.70484
35.8419 32.5993 3.53208
31.9245 14.4983 3.97964
34.0988 12.9577 2
35.695 11.7858 0.0228887
31.1897 11.9934 2
33.1011 11.2275 0.0271117
30.4856 10.0265 0.0223067
45.0598 27.8247 -0.00558395
43.6041 24.2334 -0.0275469
35.7726 14.7988 0.0236543
41.2949 20.9406 0.0147153
38.672 17.659 0.0183436
33.6102 15.898 2
35.8413 17.5624 2
42.7849 26.6496 2
38.3837 20.486 2
40.778 23.5095 2
33.5522 17.4359 3.98152
40.2102 25.9244 3.95563
38.0377 23.2597 3.99963
35.5761 20.161 3.99333
37.5116 37.4911 3.67093
39.0934 37.4798 2
40.6607 37.4562 0.332019
41.7933 52.846 0.002048
40.8265 49.4578 0.00504236
39.0857 39.0988 0.379801
39.7388 45.7237 0.177991
37.4995 44.3976 0.293057
37.5039 40.761 0.365447
35.8225 42.4057 0.469421
39.7237 51.6607 2
37.5086 39.0988 2
35.9367 40.7098 2
38.6792 48.4267 2
34.3634 42.1654 2
35.6407 44.2174 2
37.5215 46.068 2
37.6766 50.6705 3.99653
35.9412 39.1133 3.62638
34.5121 40.6589 3.63869
33.3869 41.8579 3.49931
34.2851 43.4975 3.70544
35.229 45.7399 3.83944
36.9247 47.9793 3.90757
38.7233 53.656 0.0042528
36.7581 52.9459 2
34.4392 52.2865 3.99811
34.496 58.4964 0.00533985
36.3229 55.1668 0.00396024
33.2627 55.3669 2
30.6383 53.2666 3.99626
30.3299 57.7813 0.0153872
28.8029 55.279 2
27.0659 53.3744 3.95853
27.0156 56.7945 0.0334147
25.4419 55.0899 2
23.7851 53.3996 3.95674
20.726 53.1277 3.95878
20.0378 55.7697 3.96227
21.9414 55.2842 2
23.9208 56.7581 0.0403855
19.476 57.8438 3.96556
20.2767 56.9791 2
19.7224 60.1574 3.97188
20.6742 58.7356 2
21.4071 57.3455 0.0401495
20.2141 62.841 3.97258
21.1809 61.1347 2
22.0167 59.5802 0.0255735
20.9406 65.7567 3.97844
21.9003 63.8244 2
22.7457 62.0013 0.0264013
23.685 64.6985 0.0237877
22.8381 66.7306 2
21.9136 68.872 3.98954
24.8099 67.5879 0.0167904
24.0093 69.8045 2
23.1494 72.1454 4
26.1667 70.6035 0.00967078
25.446 73.0099 2
27.7943 73.7221 0
25.8616 9.38794 3.97968
27.0715 6.5447 3.98434
27.8209 8.65714 2
28.4898 3.64448 3.9917
29.1557 5.87858 2
29.8126 7.99887 0.0194844
30.1841 0.720592 4
30.7261 3.09814 2
31.2545 5.33354 0.0125064
32.6053 0.320817 2
32.9819 2.70172 0.00718116
35.0474 0.080333 0
37.5098 35.8836 3.65176
39.0632 35.883 2
40.6401 35.8652 0.345576
24.7812 12.0864 3.9763
23.762 14.382 3.97501
28.5461 10.7019 0.0226699
26.6231 11.3958 2
29.2296 12.6499 2
27.2988 13.3846 3.97903
29.7915 14.2127 3.98127
35.9448 34.2871 3.60733
37.5261 34.2562 2
39.0841 34.2827 0.39424
37.5285 32.4979 0.432907
43.9334 29.9397 0.0971841
41.6396 29.9963 0.150376
39.3654 30.8399 0.324761
42.096 28.5817 2
39.7493 29.192 2
37.525 30.5488 2
35.8419 32.5865 2
39.8923 27.8811 3.88256
37.4884 28.9812 3.84456
35.6855 30.8599 3.67929
34.4093 32.8518 3.4961
30.939 16.8571 3.98539
31.9221 14.4892 2
34.0974 12.9527 0.0265185
31.1906 11.9986 0.0225477
42.7594 26.6604 0.0164206
40.7912 23.5331 0.000937619
33.6135 15.9065 0.0182472
35.8474 17.5551 0.0191448
38.3996 20.425 0.00634466
33.5478 17.4477 2
35.5891 20.1498 2
40.2798 25.9111 2
38.0173 23.2198 2
32.8782 19.836 3.9941
37.6508 25.5671 3.97069
35.222 22.9175 3.99957
35.9219 37.4914 3.63807
37.5063 37.4911 2
39.1025 37.4857 0.364032
39.735 51.6524 -0.00276849
38.6653 48.3705 0.0577249
37.5071 39.1045 0.345011
37.5239 46.0132 0.14952
35.6628 44.1576 0.333471
35.9392 40.7208 0.392244
34.3893 42.1533 0.505322
37.6649 50.7031 2
35.9553 39.1007 2
34.4859 40.6484 2
36.9067 48.0363 2
33.3538 41.8835 2
34.2489 43.5559 2
35.2084 45.7902 2
35.5538 49.8559 3.98641
34.4057 39.1094 3.65389
33.0286 40.7804 3.51537
33.0673 42.4737 3.73378
33.4016 44.9729 3.84095
34.4412 47.1192 3.87968
36.7508 52.9545 0.00324827
34.4363 52.2963 2
32.1962 51.0725 4.01564
33.2572 55.3583 0.00808011
30.6417 53.2704 2
28.6559 51.4923 3.9905
28.8004 55.2812 0.0145841
27.0682 53.3751 2
25.3528 51.6426 3.95439
25.4389 55.0877 0.0403867
23.7847 53.4046 2
22.2853 51.6937 3.9514
19.563 51.5219 3.96095
19.1193 54.2274 3.96147
20.7261 53.127 2
18.5185 56.6698 3.9633
20.0353 55.7715 2
21.9434 55.2816 0.0401496
18.3891 59.0695 3.96782
19.4748 57.8449 2
20.2786 56.9772 0.0370244
18.6288 61.7292 3.97207
19.7228 60.1594 2
20.6751 58.7342 0.0305994
19.13 64.6664 3.97739
20.2147 62.8425 2
21.1799 61.1338 0.0256408
19.8879 67.8081 3.98804
20.9398 65.7572 2
21.9001 63.8226 0.0240197
22.8385 66.7304 0.0190383
21.9117 68.871 2
20.9142 71.1327 4
24.0109 69.8048 0.00981372
23.1494 72.1455 2
25.446 73.0099 0
23.103 12.8031 3.97714
23.9747 10.1774 3.97761
25.0251 7.31555 3.98311
25.8597 9.38645 2
26.2817 4.32861 3.99087
27.0701 6.54363 2
27.8225 8.65892 0.0195178
27.7943 1.27781 4
28.488 3.64427 2
29.1567 5.8803 0.0142875
30.1841 0.720551 2
30.7274 3.09849 0.00742597
32.6053 0.320823 0
35.9297 35.8768 3.6185
37.5227 35.8931 2
39.0776 35.8834 0.372629
24.7781 12.0814 2
23.7622 14.3864 2
22.4941 15.0662 3.97981
25.3667 13.9268 3.97266
24.0469 15.6433 3.9841
26.6246 11.3981 0.0222026
29.2312 12.652 0.0191672
27.2988 13.3824 2
29.7876 14.2099 2
28.3744 15.983 3.98294
34.5259 34.3522 3.63542
35.9417 34.2939 2
37.519 34.2433 0.36682
35.8419 32.5993 0.467923
37.5221 30.605 0.295159
42.0673 28.6348 0.125123
39.7308 29.246 0.156962
39.9289 27.8398 2
37.4861 28.9249 2
35.6686 30.7929 2
34.3794 32.8429 2
37.6076 27.6151 3.88238
35.2678 29.2661 3.84222
34.2951 31.5065 3.7044
33.4051 33.1441 3.49712
30.225 19.4176 3.98281
30.9346 16.8464 2
31.9245 14.4983 0.0203599
40.2102 25.9244 0.0443692
38.0377 23.2597 0.000373748
33.5522 17.4359 0.0184813
35.5761 20.161 0.00666899
32.8772 19.856 2
35.2226 22.9001 2
37.7105 25.5447 2
32.3892 22.5694 3.99683
35.0901 25.4872 3.99229
34.3582 37.5082 3.67026
35.9244 37.4973 2
37.5116 37.4911 0.329073
37.6766 50.6705 0.00346859
36.9247 47.9793 0.0924291
35.9412 39.1133 0.373619
35.229 45.7399 0.160562
34.2851 43.4975 0.294558
34.5121 40.6589 0.361308
33.3869 41.8579 0.500693
35.5413 49.8658 2
34.4074 39.106 2
33.0256 40.7939 2
34.4328 47.166 2
33.0259 42.5248 2
33.3757 45.0151 2
33.3885 48.9266 3.97574
32.6999 39.2574 3.52427
32.0636 41.0459 3.69101
31.9062 43.6245 3.83544
32.592 46.0981 3.8829
34.4392 52.2865 0.00188718
32.2012 51.0854 2
30.1789 49.6525 4.00207
30.6383 53.2666 0.00374107
28.6568 51.4862 2
26.8534 49.863 3.97083
27.0659 53.3744 0.0414729
25.3511 51.6432 2
23.7263 50.0536 3.9615
23.7851 53.3996 0.04326
22.2849 51.6921 2
20.8817 50.1843 3.96476
18.3586 50.2205 3.96916
18.128 52.6958 3.96358
19.5618 51.521 2
17.5887 55.2717 3.96236
19.1166 54.2274 2
20.726 53.1277 0.0412249
17.1705 57.8317 3.9616
18.515 56.6708 2
20.0378 55.7697 0.0377334
17.1473 60.5104 3.96674
18.3891 59.0699 2
19.476 57.8438 0.0344376
17.4116 63.4554 3.97072
18.6296 61.7304 2
19.7224 60.1574 0.0281227
17.9443 66.6161 3.98632
19.1295 64.6657 2
20.2141 62.841 0.0274235
18.75 69.9759 4
19.8859 67.8067 2
20.9406 65.7567 0.0215635
21.9136 68.872 0.0104626
20.9142 71.1327 2
23.1494 72.1454 0
21.5972 13.63 3.97566
22.1937 11.0401 3.97449
23.101 12.8078 2
23.0429 8.18225 3.98116
23.9719 10.1753 2
24.1193 5.14339 3.99021
25.0233 7.31481 2
25.8616 9.38794 0.02032
25.446 1.99014 4
26.2794 4.32895 2
27.0715 6.5447 0.0156569
27.7943 1.27778 2
28.4898 3.64448 0.0083015
30.1841 0.720592 0
34.4206 35.9028 3.65208
35.9392 35.8917 2
37.5098 35.8836 0.348244
21.3278 15.8734 3.98261
24.7812 12.0864 0.0237031
23.762 14.382 0.0249928
25.3657 13.9175 2
22.4952 15.0643 2
24.0497 15.6491 2
23.2936 16.2747 3.97121
25.4032 16.1138 3.98298
27.2988 13.3846 0.0209735
29.7915 14.2127 0.0187331
28.3698 15.989 2
27.4657 18.8429 3.98117
33.0392 34.2291 3.52154
34.5001 34.3669 2
35.9448 34.2871 0.392667
34.4093 32.8518 0.5039
35.6855 30.8599 0.320709
37.4884 28.9812 0.155439
39.8923 27.8811 0.117437
37.5825 27.5767 2
33.3758 33.1211 2
35.2692 29.2039 2
34.2531 31.4427 2
35.1679 27.7129 3.89382
33.3998 30.0236 3.8423
33.0921 32.5253 3.72644
29.6994 22.0177 4.00269
30.2271 19.4213 2
30.939 16.8571 0.014615
37.6508 25.5671 0.0293101
35.222 22.9175 0.000427938
32.8782 19.836 0.00589986
32.3959 22.5608 2
35.1211 25.4769 2
31.9513 25.8251 4.00634
32.5347 37.5071 3.56618
34.3715 37.5037 2
35.9219 37.4914 0.36193
35.5538 49.8559 0.0135893
34.4412 47.1192 0.12032
34.4057 39.1094 0.346106
33.4016 44.9729 0.159047
33.0673 42.4737 0.266215
33.0286 40.7804 0.484632
33.3773 48.9267 2
32.7097 39.2624 2
32.0253 41.0842 2
32.5547 46.145 2
31.8628 43.6555 2
31.5227 47.7745 3.97934
31.3522 39.3674 3.69599
30.7486 41.8728 3.84279
30.9596 44.7332 3.89691
32.1962 51.0725 -0.0156355
30.1839 49.6787 2
28.3176 48.038 3.96185
28.6559 51.4923 0.00949892
26.8525 49.8644 2
25.1202 48.3111 3.96652
25.3528 51.6426 0.045609
23.7261 50.052 2
22.1584 48.6359 3.97111
22.2853 51.6937 0.0485964
20.8798 50.1831 2
19.4653 48.9675 3.97332
17.2391 49.2325 3.9744
17.0787 51.314 3.96813
18.3609 50.219 2
16.5924 53.7955 3.96487
18.1268 52.6953 2
19.563 51.5219 0.0390456
16.0583 56.4269 3.96266
17.5864 55.2721 2
19.1193 54.2274 0.0385334
15.7623 59.1801 3.96581
17.169 57.8328 2
18.5185 56.6698 0.0366996
15.7933 62.1089 3.96891
17.1482 60.5123 2
18.3891 59.0695 0.0321848
16.0912 65.2985 3.98473
17.4107 63.4577 2
18.6288 61.7292 0.0279261
16.6661 68.6801 4
17.942 66.6144 2
19.13 64.6664 0.0226145
18.75 69.9759 2
19.8879 67.8081 0.0119645
20.9142 71.1327 0
20.2319 14.6384 3.97065
21.596 13.6381 2
20.5348 12.0176 3.97526
21.146 9.15422 3.9792
22.1911 11.0393 2
23.103 12.8031 0.0228635
22.0185 6.08225 3.98984
23.0403 8.18118 2
23.9747 10.1774 0.0223941
23.1494 2.85457 4
24.1166 5.1442 2
25.0251 7.31555 0.0168857
25.446 1.99012 2
26.2817 4.32861 0.00912892
27.7943 1.27781 0
32.6912 35.7606 3.5298
34.4167 35.9037 2
35.9297 35.8768 0.381504
21.3299 15.8683 2
20.3372 17.0027 3.97137
22.1257 16.6718 3.96791
25.3667 13.9268 0.0273409
22.4941 15.0662 0.0201871
24.0469 15.6433 0.0159012
25.4054 16.1056 2
23.297 16.274 2
24.2395 18.5387 3.96781
27.1328 21.6175 3.99471
28.3744 15.983 0.0170646
27.4622 18.8863 2
32.0984 33.966 3.68666
33.0402 34.2115 2
34.5259 34.3522 0.364581
33.4051 33.1441 0.502878
34.2951 31.5065 0.295602
35.2678 29.2661 0.157784
37.6076 27.6151 0.117623
35.173 27.6654 2
33.0184 32.4771 2
33.3727 29.9848 2
32.8401 28.3716 3.90394
31.9147 31.3821 3.82712
29.0762 24.5123 3.99813
29.6966 22.0306 2
30.225 19.4176 0.0171942
35.0901 25.4872 0.00771241
32.3892 22.5694 0.00317465
31.9441 25.7982 2
30.0479 27.4738 3.97791
30.9386 37.5016 3.70094
32.5414 37.5059 2
34.3582 37.5082 0.329744
33.3885 48.9266 0.0242576
32.592 46.0981 0.117099
32.6999 39.2574 0.475733
31.9062 43.6245 0.16456
32.0636 41.0459 0.308992
31.4784 47.7956 2
31.2816 39.392 2
30.712 41.8971 2
30.9153 44.7719 2
29.7306 46.3836 3.99369
29.8947 39.8227 3.86115
29.4345 42.9861 3.90241
30.1789 49.6525 -0.00207334
28.3112 48.0327 2
26.5211 46.4826 3.98302
26.8534 49.863 0.0291709
25.121 48.3092 2
23.3967 46.9011 3.97406
23.7263 50.0536 0.0385037
22.1565 48.6348 2
20.4618 47.4789 3.97655
20.8817 50.1843 0.0352442
19.4664 48.9658 2
18.0642 48.0679 3.97696
16.4729 48.5919 3.97654
17.2407 49.2314 2
16.1501 50.0837 3.97245
15.607 52.3412 3.96796
17.0803 51.3129 2
18.3586 50.2205 0.0308373
15.0031 54.9218 3.96361
16.5943 53.7949 2
18.128 52.6958 0.0364201
14.4834 57.7118 3.96233
16.0585 56.4271 2
17.5887 55.2717 0.0376421
14.2717 60.6714 3.96819
15.7644 59.1809 2
17.1705 57.8317 0.0383967
14.3359 63.856 3.98049
15.7934 62.1108 2
17.1473 60.5104 0.0332579
14.6715 67.2507 4
16.0883 65.2957 2
17.4116 63.4554 0.0292825
16.6661 68.6801 2
17.9443 66.6161 0.0136766
18.75 69.9759 0
18.9513 15.8228 3.97481
20.2328 14.6357 2
18.9878 13.138 3.97439
21.5972 13.63 0.0243406
20.5334 12.0194 2
19.3461 10.2447 3.97693
19.9934 7.14722 3.98845
21.1428 9.15424 2
22.1937 11.0401 0.0255115
20.9142 3.86727 4
22.0151 6.08348 2
23.0429 8.18225 0.0188364
23.1494 2.85451 2
24.1193 5.14339 0.00978913
25.446 1.99014 0
31.3745 35.6408 3.69213
32.6974 35.7535 2
34.4206 35.9028 0.347924
21.3278 15.8734 0.0173876
22.1282 16.6676 2
20.3393 16.9971 2
19.3152 18.4627 3.95673
21.8164 17.9206 3.97973
25.4032 16.1138 0.0170185
23.2936 16.2747 0.0287854
24.233 18.5604 2
22.3913 19.9836 3.96544
24.7151 21.4944 3.98624
26.6915 23.8026 3.97916
27.141 21.5546 2
27.4657 18.8429 0.0188296
30.8023 33.1445 3.85203
32.0622 33.9161 2
33.0392 34.2291 0.47846
33.0921 32.5253 0.273562
33.3998 30.0236 0.157703
35.1679 27.7129 0.106176
32.8055 28.3437 2
31.8585 31.343 2
30.65 29.7618 3.93094
28.3089 26.665 3.99606
29.0628 24.5189 2
29.6994 22.0177 -0.00268728
31.9513 25.8251 -0.00634433
30.0396 27.4501 2
29.4459 37.5016 3.85618
30.8824 37.5005 2
32.5347 37.5071 0.433816
31.5227 47.7745 0.0206568
30.9596 44.7332 0.103087
31.3522 39.3674 0.304005
30.7486 41.8728 0.157207
29.7346 46.3806 2
29.8255 39.8366 2
29.4045 43.0248 2
27.9859 44.7083 3.97193
27.656 40.5525 3.93549
28.3176 48.038 0.0381538
26.5178 46.4794 2
24.6956 45.0183 3.97891
25.1202 48.3111 0.0334769
23.3954 46.9011 2
21.477 45.7517 3.97793
22.1584 48.6359 0.0288924
20.4619 47.4775 2
18.7868 46.6172 3.97688
19.4653 48.9675 0.0266777
18.0651 48.0667 2
16.7049 47.6155 3.97657
16.4746 48.5909 2
15.4943 48.9346 3.97574
17.2391 49.2325 0.0256047
16.1522 50.0827 2
14.723 50.9157 3.9712
13.9776 53.3813 3.96606
15.6083 52.3405 2
17.0787 51.314 0.0318742
13.3071 56.1385 3.96269
15.0034 54.9217 2
16.5924 53.7955 0.0351295
12.8566 59.1104 3.96747
14.4868 57.7116 2
16.0583 56.4269 0.0373421
12.6819 62.2972 3.97693
14.2728 60.6712 2
15.7623 59.1801 0.0341917
12.7746 65.6939 4
14.3336 63.8524 2
15.7933 62.1089 0.0310878
14.6714 67.2507 2
16.0912 65.2985 0.015266
16.6661 68.6801 0
17.7032 17.1983 3.96533
18.9514 15.8205 2
17.5233 14.4071 3.97064
20.2319 14.6384 0.02935
18.987 13.1411 2
17.6422 11.4643 3.97429
20.5348 12.0176 0.0247355
19.3429 10.2462 2
18.0536 8.34027 3.98646
18.75 5.0241 4
19.9894 7.1494 2
21.146 9.15422 0.0208028
20.9142 3.86727 2
22.0185 6.08225 0.0101615
23.1494 2.85457 0
29.9213 35.1964 3.86009
31.3079 35.618 2
32.6912 35.7606 0.470203
22.1257 16.6718 0.0320903
20.3372 17.0027 0.0286326
21.8159 17.9203 2
19.3134 18.4579 2
18.1372 20.0155 3.96147
20.9757 19.4553 3.9649
24.2395 18.5387 0.0321876
22.3864 19.9904 2
24.7222 21.4803 2
22.5473 21.827 3.98212
24.9636 23.243 3.97378
25.9085 26.0456 3.97898
26.6902 23.7951 2
27.1328 21.6175 0.00528909
29.1912 32.4921 3.90388
30.7414 33.1092 2
32.0984 33.966 0.313337
31.9147 31.3821 0.17288
32.8401 28.3716 0.0960621
30.6267 29.7537 2
27.6453 29.2484 4.01403
28.295 26.6745 2
29.0762 24.5123 0.00187066
30.0479 27.4738 0.022087
27.7847 37.3575 3.90786
29.3762 37.4934 2
30.9386 37.5016 0.299064
29.7306 46.3836 0.00630976
29.4345 42.9861 0.0975898
29.8947 39.8227 0.138845
27.9794 44.7628 2
27.6274 40.5437 2
26.0588 43.0478 3.98884
24.9188 39.4475 3.97304
26.5211 46.4826 0.0169843
24.6854 45.0198 2
22.6023 43.7911 3.97699
23.3967 46.9011 0.0259426
21.4739 45.7527 2
19.5422 44.8549 3.97654
20.4618 47.4789 0.0234509
18.7869 46.6175 2
17.0553 46.112 3.9765
18.0642 48.0679 0.0230395
16.7064 47.6146 2
15.2555 47.5888 3.97622
16.4729 48.5919 0.0234596
15.4964 48.9336 2
14.0312 49.4813 3.97367
16.1501 50.0837 0.0275534
14.7243 50.915 2
13.0489 51.8252 3.96824
12.2118 54.4985 3.96386
13.9781 53.3809 2
15.607 52.3412 0.0320376
11.5432 57.4476 3.96634
13.3076 56.1384 2
15.0031 54.9218 0.036385
11.1368 60.6234 3.97556
12.8579 59.1097 2
14.4834 57.7118 0.0376736
10.9835 64.0165 4
12.6801 62.293 2
14.2717 60.6714 0.0318134
12.7745 65.694 2
14.3359 63.856 0.0195083
14.6715 67.2507 0
16.4876 18.7029 3.9614
17.7024 17.1965 2
16.1183 15.816 3.96656
18.9513 15.8228 0.0251877
17.5224 14.4042 2
16.0259 12.8295 3.97208
18.9878 13.138 0.02561
17.6404 11.4693 2
16.2046 9.66447 3.98466
19.3461 10.2447 0.0230676
18.0493 8.34421 2
16.6661 6.31991 4
18.75 5.02404 2
19.9934 7.14722 0.0115547
20.9142 3.86727 0
28.315 34.8394 3.9022
29.8456 35.1663 2
31.3745 35.6408 0.307867
16.8673 21.4513 3.96697
21.8164 17.9206 0.0202704
19.3152 18.4627 0.0432684
20.9727 19.4527 2
18.1344 20.0131 2
19.9407 21.6667 3.97156
22.3913 19.9836 0.0345646
24.7151 21.4944 0.0137607
22.5434 21.8331 2
24.9593 23.243 2
23.228 24.709 3.97278
25.1932 28.6415 3.98268
25.9003 26.0484 2
26.6915 23.8026 0.0208403
27.0434 31.8454 3.98111
29.1583 32.4723 2
30.8023 33.1445 0.147968
30.65 29.7618 0.0690584
27.6564 29.2281 2
28.3089 26.665 0.00393663
25.6115 36.8535 3.97047
27.7688 37.3655 2
29.4459 37.5016 0.143822
27.9859 44.7083 0.0280693
27.656 40.5525 0.064513
26.0373 43.0684 2
24.8975 39.4524 2
23.8066 41.7981 3.98242
22.6392 38.5231 3.97883
24.6956 45.0183 0.0210863
22.6013 43.7913 2
20.4108 42.8026 3.97572
21.477 45.7517 0.0220661
19.5428 44.8555 2
17.4568 44.2899 3.97597
18.7868 46.6172 0.0231163
17.0564 46.112 2
15.2137 46.0098 3.97606
16.7049 47.6155 0.0234287
15.2574 47.5879 2
13.5593 47.9467 3.97535
15.4943 48.9346 0.0242598
14.0329 49.4805 2
12.2786 50.2073 3.97009
14.723 50.9157 0.0287997
13.0498 51.8246 2
11.21 52.8112 3.96511
10.3342 55.7041 3.96595
12.2121 54.4982 2
13.9776 53.3813 0.0339389
9.70349 58.8464 3.97489
11.5439 57.4469 2
13.3071 56.1385 0.0373096
9.30605 62.2254 4
11.1352 60.6193 2
12.8566 59.1104 0.0325319
10.9835 64.0165 2
12.6819 62.2972 0.0230716
12.7746 65.6939 0
15.2731 20.242 3.96342
16.4879 18.7025 2
14.7707 17.3356 3.96383
17.7032 17.1983 0.0346719
16.1191 15.8141 2
14.4896 14.3188 3.96826
17.5233 14.4071 0.029359
16.025 12.825 2
14.4473 11.1162 3.98208
17.6422 11.4643 0.0257142
16.2006 9.66924 2
14.6715 7.74927 4
18.0536 8.34027 0.01354
16.6661 6.31988 2
18.75 5.0241 0
26.2758 34.3436 3.97802
28.2963 34.8465 2
29.9213 35.1964 0.139912
18.1094 22.4126 3.97351
15.766 22.9956 3.9701
16.868 21.4508 2
20.9757 19.4553 0.0350951
18.1372 20.0155 0.0385298
19.9385 21.6641 2
20.0471 24.5015 3.97214
22.5473 21.827 0.0178773
24.9636 23.243 0.0262164
23.2238 24.7087 2
22.5555 27.9677 3.97177
24.6069 31.3301 3.98042
25.1977 28.6348 2
25.9085 26.0456 0.0210158
27.0206 31.8099 2
29.1912 32.4921 0.0961241
27.6453 29.2484 -0.0140342
23.365 36.2894 3.98322
25.595 36.8529 2
27.7847 37.3575 0.0921351
26.0588 43.0478 0.0111641
24.9188 39.4475 0.0269632
23.789 41.7978 2
22.6287 38.5207 2
21.4972 40.6146 3.97514
20.8581 37.8036 3.97715
22.6023 43.7911 0.0230074
20.4096 42.8039 2
17.9323 42.0346 3.97587
19.5422 44.8549 0.0234554
17.4571 44.2905 2
15.2607 44.1272 3.97581
17.0553 46.112 0.0235038
15.2147 46.0095 2
13.2573 46.2362 3.97591
15.2555 47.5888 0.0237753
13.561 47.946 2
11.6668 48.5071 3.97191
14.0312 49.4813 0.0263291
12.28 50.2066 2
10.3404 51.0575 3.96617
13.0489 51.8252 0.0317605
11.2106 52.8106 2
9.24301 53.8852 3.96571
8.38704 56.9803 3.97568
10.335 55.7031 2
12.2118 54.4985 0.0361374
7.74927 60.3285 4
9.70224 58.8421 2
11.5432 57.4476 0.033664
9.306 62.2255 2
11.1368 60.6234 0.0244443
10.9835 64.0165 0
14.1044 21.8061 3.96641
15.2714 20.2413 2
13.4921 18.932 3.96351
16.4876 18.7029 0.038604
14.7715 17.3341 2
13.0344 15.9058 3.97012
16.1183 15.816 0.0334446
14.4902 14.3164 2
12.7848 12.6916 3.97933
16.0259 12.8295 0.0279171
14.4443 11.1227 2
12.7746 9.30605 4
16.2046 9.66447 0.015338
14.6715 7.74924 2
16.6661 6.31991 0
23.9511 33.8776 3.98207
26.2546 34.3376 2
28.315 34.8394 0.0978025
17.9778 24.1445 3.9719
18.1169 22.413 2
14.6053 24.5274 3.97202
15.7683 22.9956 2
16.8673 21.4513 0.0330307
19.5579 27.3368 3.97423
19.9407 21.6667 0.0284395
20.0442 24.5011 2
21.9194 30.801 3.9749
23.228 24.709 0.0272217
22.5556 27.9692 2
24.5779 31.3254 2
25.1932 28.6415 0.0173172
27.0434 31.8454 0.0188921
20.9819 35.9643 3.97652
23.3658 36.2901 2
25.6115 36.8535 0.0295276
23.8066 41.7981 0.0175758
22.6392 38.5231 0.0211684
21.5012 40.6158 2
20.8586 37.8018 2
18.6873 38.9927 3.97703
20.4108 42.8026 0.0242792
17.9314 42.035 2
15.2465 41.8716 3.97623
17.4568 44.2899 0.0240282
15.2607 44.1274 2
13.0212 44.3384 3.97609
15.2137 46.0098 0.0239429
13.2589 46.2355 2
11.1833 46.695 3.97361
13.5593 47.9467 0.0246515
11.6686 48.5064 2
9.61049 49.2193 3.96701
12.2786 50.2073 0.0299081
10.3409 51.0569 2
8.27564 51.9997 3.96556
11.21 52.8112 0.0348898
9.24365 53.8841 2
7.19605 55.0317 3.97667
6.31991 58.3339 4
8.38612 56.9762 2
10.3342 55.7041 0.0340527
7.74924 60.3285 2
9.70349 58.8464 0.025108
9.30605 62.2254 0
13.4736 25.4254 3.97524
13.0066 23.3342 3.96934
14.1035 21.8057 2
12.3006 20.5799 3.96411
15.2731 20.242 0.03658
13.4925 18.9309 2
11.6666 17.5799 3.96832
14.7707 17.3356 0.0361686
13.0372 15.905 2
11.2231 14.3778 3.97542
14.4896 14.3188 0.0317392
12.7825 12.6969 2
10.9835 10.9835 4
14.4473 11.1162 0.0179244
12.7745 9.306 2
14.6715 7.74927 0
21.3379 33.4835 3.97605
23.954 33.8648 2
26.2758 34.3436 0.0219751
16.3112 26.4999 3.9737
17.9828 24.145 2
18.1094 22.4126 0.0264892
14.6046 24.5275 2
15.766 22.9956 0.0299005
18.9578 30.3005 3.97489
19.5584 27.3369 2
20.0471 24.5015 0.0278646
21.934 30.8015 2
22.5555 27.9677 0.0282251
24.6069 31.3301 0.0195801
18.2967 35.9946 3.97757
20.9841 35.9647 2
23.365 36.2894 0.0167838
21.4972 40.6146 0.0248605
20.8581 37.8036 0.022848
18.6853 38.9917 2
14.7452 39.1634 3.97707
17.9323 42.0346 0.0241254
15.2459 41.8713 2
12.7179 42.2401 3.97643
15.2607 44.1272 0.0241909
13.0224 44.3379 2
10.7677 44.77 3.97522
13.2573 46.2362 0.0240935
11.1855 46.6943 2
8.99657 47.3008 3.96793
11.6668 48.5071 0.0280858
9.61095 49.2187 2
7.44217 50.0336 3.96547
10.3404 51.0575 0.0338322
8.27611 51.9986 2
6.13667 53.0073 3.97709
9.24301 53.8852 0.0342855
7.19551 55.0284 2
5.0241 56.25 4
6.31988 58.3339 2
8.38704 56.9803 0.0243242
7.74927 60.3285 0
13.749 26.8809 3.97562
12.1173 24.8351 3.97172
13.4724 25.4254 2
11.2269 22.2635 3.96546
13.0069 23.3344 2
14.1044 21.8061 0.0335875
12.3013 20.5793 2
10.3991 19.3291 3.96705
13.4921 18.932 0.036489
11.669 17.5797 2
9.76366 16.161 3.97518
13.0344 15.9058 0.0298794
11.2214 14.3834 2
9.30607 12.7746 4
12.7848 12.6916 0.020673
10.9835 10.9835 2
12.7746 9.30605 0
18.4575 33.1818 3.97634
21.3376 33.4864 2
23.9511 33.8776 0.0179305
15.934 29.7328 3.97558
16.3112 26.5002 2
17.9778 24.1445 0.0281003
14.6053 24.5274 0.0279781
18.9562 30.3007 2
19.5579 27.3368 0.025772
21.9194 30.801 0.0250978
15.375 36.0359 3.97724
18.2959 35.9951 2
20.9819 35.9643 0.0234808
12.9488 37.8297 3.97717
18.6873 38.9927 0.022971
14.7446 39.1632 2
12.2207 40.1223 3.97687
15.2465 41.8716 0.023769
12.7189 42.2397 2
10.3669 42.7537 3.97602
13.0212 44.3384 0.0239112
10.7698 44.7694 2
8.47435 45.3059 3.96865
11.1833 46.695 0.0263909
8.99673 47.3003 2
6.73293 47.999 3.96559
9.61049 49.2193 0.0329878
7.44253 50.0326 2
5.21336 50.9108 3.97687
8.27564 51.9997 0.0344401
6.13643 53.0051 2
3.86727 54.0858 4
7.19605 55.0317 0.0233303
5.02404 56.25 2
6.31991 58.3339 0
13.2341 29.0943 3.9755
11.5637 26.5317 3.97231
13.7479 26.8809 2
10.2841 23.9921 3.96706
12.119 24.8355 2
13.4736 25.4254 0.0247577
9.25172 21.1434 3.96623
11.227 22.2633 2
13.0066 23.3342 0.0306587
12.3006 20.5799 0.035889
10.4011 19.3292 2
8.41961 18.0315 3.97528
11.6666 17.5799 0.0316767
9.76255 16.1661 2
7.74928 14.6715 4
11.2231 14.3778 0.024575
9.30602 12.7745 2
10.9835 10.9835 0
14.9221 32.9183 3.97664
18.4561 33.181 2
21.3379 33.4835 0.0239548
15.9349 29.7332 2
16.3112 26.4999 0.0262959
18.9578 30.3005 0.0251149
13.2467 36.2216 3.97681
15.3741 36.0357 2
18.2967 35.9946 0.0224276
12.9493 37.8295 2
11.5526 38.3065 3.97722
14.7452 39.1634 0.0229255
12.2224 40.122 2
9.94622 40.7397 3.97661
12.7179 42.2401 0.0235679
10.3701 42.753 2
8.02172 43.2585 3.96912
10.7677 44.77 0.0247787
8.47591 45.3053 2
6.13866 45.9042 3.96582
8.99657 47.3008 0.0320739
6.73331 47.9982 2
4.42466 48.7514 3.97647
7.44217 50.0336 0.0345324
5.21334 50.9094 2
2.85457 51.8506 4
6.13667 53.0073 0.0229081
3.86727 54.0858 2
5.0241 56.25 0
12.365 31.3021 3.97617
10.9791 28.4533 3.97308
13.2344 29.0946 2
9.50175 25.8193 3.96779
11.5652 26.5321 2
13.749 26.8809 0.0243805
8.23833 23.0257 3.96587
10.2846 23.9922 2
12.1173 24.8351 0.0282757
7.20186 19.9804 3.97626
9.25354 21.1438 2
11.2269 22.2635 0.0345401
10.3991 19.3291 0.0329485
8.41911 18.036 2
6.31992 16.6661 4
9.76366 16.161 0.0248171
7.74926 14.6714 2
9.30607 12.7746 0
12.403 34.3223 3.97661
14.9218 32.919 2
18.4575 33.1818 0.0236622
15.934 29.7328 0.024422
11.0911 36.6192 3.97696
13.2467 36.2215 2
15.375 36.0359 0.0227602
12.9488 37.8297 0.0228269
11.5546 38.3061 2
9.52904 38.8181 3.97685
12.2207 40.1223 0.0231298
9.94924 40.7392 2
7.62909 41.204 3.96958
10.3669 42.7537 0.0239799
8.02176 43.2581 2
5.65009 43.7672 3.9663
8.47435 45.3059 0.0313482
6.13895 45.9035 2
3.77006 46.5369 3.97637
6.73293 47.999 0.0344056
4.4249 48.7506 2
1.99014 49.554 4
5.21336 50.9108 0.023131
2.85451 51.8506 2
3.86727 54.0858 0
11.1808 32.9503 3.97676
10.2856 30.4125 3.97428
12.366 31.3026 2
8.81094 27.7501 3.96829
10.9808 28.4537 2
13.2341 29.0943 0.0244988
7.36326 24.9837 3.96571
9.50197 25.8194 2
11.5637 26.5317 0.0276881
6.11883 22.0028 3.97718
8.23921 23.0261 2
10.2841 23.9921 0.0329432
5.02411 18.75 4
7.20178 19.9835 2
9.25172 21.1434 0.0337689
8.41961 18.0315 0.0247217
6.3199 16.6661 2
7.74928 14.6715 0
10.6809 35.0153 3.97672
12.4034 34.3227 2
14.9221 32.9183 0.0233645
9.18899 36.9874 3.97676
11.0934 36.6192 2
13.2467 36.2216 0.0231894
11.5526 38.3065 0.0227766
9.53206 38.8178 2
7.3044 39.1788 3.97
9.94622 40.7397 0.0233887
7.63001 41.2036 2
5.26484 41.6133 3.96672
8.02172 43.2585 0.0308809
5.65036 43.7667 2
3.24758 44.2817 3.97681
6.13866 45.9042 0.0341755
3.77039 46.5363 2
1.27781 47.2057 4
4.42466 48.7514 0.0235317
1.99012 49.554 2
2.85457 51.8506 0
10.3171 33.9019 3.97635
9.56421 32.1761 3.97527
11.1831 32.9508 2
8.15291 29.7097 3.96887
10.2878 30.413 2
12.365 31.3021 0.0238268
6.60619 27.0093 3.96587
8.81126 27.7503 2
10.9791 28.4533 0.026919
5.17412 24.095 3.97713
7.36382 24.9841 2
9.50175 25.8193 0.0322069
3.86728 20.9142 4
6.11892 22.0045 2
8.23833 23.0257 0.0341269
5.02406 18.75 2
7.20186 19.9804 0.0237405
6.31992 16.6661 0
9.00529 35.2883 3.97668
10.6834 35.0154 2
12.403 34.3223 0.0233911
7.08046 37.2063 3.97011
9.19197 36.9873 2
11.0911 36.6192 0.0230429
9.52904 38.8181 0.0231459
7.30583 39.1786 2
4.99217 39.4671 3.96715
7.62909 41.204 0.0304212
5.26549 41.6129 2
2.85785 42.0019 3.97718
5.65009 43.7672 0.0337048
3.24778 44.2811 2
0.720592 44.8159 4
3.77006 46.5369 0.023629
1.27778 47.2057 2
1.99014 49.554 0
9.047 33.7122 3.97634
10.3202 33.9021 2
7.58361 31.6195 3.96937
9.56685 32.1765 2
11.1808 32.9503 0.0232396
5.95063 29.0704 3.96632
8.15315 29.7099 2
10.2856 30.4125 0.0257235
4.36155 26.2474 3.97686
6.60657 27.0098 2
8.81094 27.7501 0.0317084
2.85458 23.1494 4
5.17434 24.0958 2
7.36326 24.9837 0.0342853
3.86728 20.9142 2
6.11883 22.0028 0.0228234
5.02411 18.75 0
7.02795 35.3097 3.97004
9.00834 35.2884 2
10.6809 35.0153 0.0232822
4.84229 37.3399 3.96748
7.08219 37.2061 2
9.18899 36.9874 0.0232446
7.3044 39.1788 0.0299968
4.99283 39.4669 2
2.60577 39.7135 3.97743
5.26484 41.6133 0.0332849
2.85835 42.0017 2
0.320823 42.3947 4
3.24758 44.2817 0.0231907
0.720551 44.8159 2
1.27781 47.2057 0
7.19193 33.4678 3.96984
9.0498 33.7125 2
10.3171 33.9019 0.0236485
5.42099 31.1343 3.96687
7.58433 31.6197 2
9.56421 32.1761 0.0247287
3.68297 28.4434 3.97683
5.95101 29.0708 2
8.15291 29.7097 0.0311312
1.99015 25.446 4
4.36186 26.2477 2
6.60619 27.0093 0.0341272
2.85453 23.1494 2
5.17412 24.095 0.0228656
3.86728 20.9142 0
4.8566 35.252 3.96737
7.02892 35.3097 2
9.00529 35.2883 0.023321
2.49722 37.4282 3.97822
4.84242 37.34 2
7.08046 37.2063 0.0298906
4.99217 39.4671 0.0328509
2.6064 39.7138 2
0.080333 39.9526 4
2.85785 42.0019 0.0228242
0.320817 42.3947 2
0.720592 44.8159 0
5.05003 33.1909 3.96724
7.19296 33.4679 2
9.047 33.7122 0.0236615
3.14705 30.6662 3.97718
5.42134 31.1347 2
7.58361 31.6195 0.0306309
1.27793 27.7943 4
3.68339 28.4437 2
5.95063 29.0704 0.0336809
1.99013 25.446 2
4.36155 26.2474 0.0231412
2.85458 23.1494 0
2.54931 35.1589 3.97793
4.85736 35.2523 2
7.02795 35.3097 0.029958
0 37.5 4
2.49735 37.4286 2
4.84229 37.3399 0.0325215
2.60577 39.7135 0.0225748
0.0802903 39.9526 2
0.320823 42.3947 0
2.76697 32.9058 3.97801
5.05034 33.1912 2
7.19193 33.4678 0.0301608
0.721173 30.1842 4
3.14748 30.6667 2
5.42099 31.1343 0.0331251
1.27779 27.7943 2
3.68297 28.4434 0.0231671
1.99015 25.446 0
0.0806499 35.0474 4
2.55002 35.1593 2
4.8566 35.252 0.0326274
0 37.5 2
2.49722 37.4282 0.0217838
0.080333 39.9526 0
0.32156 32.6054 4
2.7672 32.9063 2
5.05003 33.1909 0.0327601
0.72056 30.1841 2
3.14705 30.6662 0.0228177
1.27793 27.7943 0
0.0802889 35.0474 2
2.54931 35.1589 0.022071
0 37.5 0
0.320817 32.6053 2
2.76697 32.9058 0.0219882
0.721173 30.1842 0
0.0806499 35.0474 0
0.32156 32.6054 0
CELLS 1910 17190
8 18 6 25 56 2 0 5 16
8 57 23 6 18 17 4 0 2
8 78 36 9 29 31 11 1 7
8 31 11 1 7 79 37 10 30
8 110 57 18 50 48 17 2 14
8 50 18 56 111 14 2 16 49
8 116 62 22 55 52 20 3 15
8 56 25 67 118 16 5 24 53
8 119 63 23 57 54 21 4 17
8 55 22 63 119 15 3 21 54
8 58 26 68 121 18 6 25 56
8 122 65 26 58 57 23 6 18
8 73 31 7 27 142 79 30 71
8 143 78 29 72 73 31 7 27
8 83 147 76 34 32 74 28 8
8 84 148 78 36 33 75 29 9
8 76 34 8 28 148 84 33 75
8 37 79 150 86 10 30 77 35
8 151 87 36 78 80 38 11 31
8 80 38 11 31 152 88 37 79
8 175 100 42 94 96 44 12 40
8 44 96 176 101 12 40 95 43
8 101 176 98 46 43 95 41 13
8 46 98 178 103 13 41 97 45
8 178 103 45 97 147 83 32 74
8 189 116 55 109 106 52 15 47
8 111 56 118 191 49 16 53 107
8 192 119 57 110 108 54 17 48
8 109 55 119 192 47 15 54 108
8 194 122 58 112 110 57 18 50
8 112 58 121 195 50 18 56 111
8 115 61 19 51 197 124 59 113
8 115 61 125 198 51 19 60 114
8 198 125 62 116 114 60 20 52
8 200 127 64 120 116 62 22 55
8 118 67 132 202 53 24 66 117
8 121 68 133 203 56 25 67 118
8 120 64 128 204 55 22 63 119
8 204 128 65 122 119 63 23 57
8 206 134 68 121 123 69 26 58
8 123 69 26 58 207 131 65 122
8 226 147 74 138 140 76 28 70
8 229 148 75 139 143 78 29 72
8 140 76 28 70 229 148 75 139
8 142 79 30 71 231 150 77 141
8 144 80 31 73 232 152 79 142
8 233 151 78 143 144 80 31 73
8 150 86 35 77 235 154 81 145
8 235 154 81 145 146 82 39 91
8 146 82 39 91 236 155 90 165
8 238 157 83 147 149 85 34 76
8 239 158 84 148 151 87 36 78
8 149 85 34 76 239 158 84 148
8 152 88 37 79 241 160 86 150
8 242 161 87 151 153 89 38 80
8 153 89 38 80 243 162 88 152
8 171 98 41 92 265 178 97 169
8 265 178 97 169 226 147 74 138
8 172 96 40 93 266 176 95 170
8 266 176 95 170 171 98 41 92
8 269 175 94 173 172 96 40 93
8 271 180 99 174 175 100 42 94
8 197 124 59 113 271 180 99 174
8 272 181 100 175 177 102 44 96
8 273 182 101 176 179 104 46 98
8 177 102 44 96 273 182 101 176
8 179 104 46 98 275 184 103 178
8 275 184 103 178 238 157 83 147
8 188 115 51 105 283 197 113 186
8 188 115 198 284 105 51 114 187
8 284 198 116 189 187 114 52 106
8 286 200 120 193 189 116 55 109
8 191 118 202 288 107 53 117 190
8 195 121 203 289 111 56 118 191
8 193 120 204 290 109 55 119 192
8 290 204 122 194 192 119 57 110
8 196 123 58 112 292 207 122 194
8 293 206 121 195 196 123 58 112
8 199 126 61 115 297 211 124 197
8 298 212 127 200 198 125 62 116
8 199 126 212 298 115 61 125 198
8 205 129 64 120 300 214 127 200
8 301 217 130 201 202 132 66 117
8 209 136 168 264 301 217 130 201
8 302 219 132 202 203 133 67 118
8 303 220 133 203 206 134 68 121
8 205 129 215 304 120 64 128 204
8 304 215 131 207 204 128 65 122
8 306 221 134 206 208 135 69 123
8 208 135 69 123 307 218 131 207
8 210 137 167 263 309 223 136 209
8 328 238 147 226 230 149 76 140
8 228 146 91 166 329 236 165 260
8 231 150 77 141 330 235 145 227
8 330 235 145 227 228 146 91 166
8 332 239 148 229 233 151 78 143
8 230 149 76 140 332 239 148 229
8 232 152 79 142 334 241 150 231
8 234 153 80 144 335 243 152 232
8 336 242 151 233 234 153 80 144
8 236 155 90 165 338 245 164 259
8 241 160 86 150 339 246 154 235
8 339 246 154 235 237 156 82 146
8 237 156 82 146 340 247 155 236
8 342 249 157 238 240 159 85 149
8 343 250 158 239 242 161 87 151
8 240 159 85 149 343 250 158 239
8 243 162 88 152 345 252 160 241
8 244 163 253 346 153 89 161 242
8 244 163 89 153 347 254 162 243
8 311 224 261 371 210 137 167 263
8 263 167 262 372 209 136 168 264
8 267 179 98 171 375 275 178 265
8 375 275 178 265 328 238 147 226
8 376 273 176 266 267 179 98 171
8 268 177 96 172 376 273 176 266
8 379 272 175 269 268 177 96 172
8 380 271 174 270 269 175 94 173
8 283 197 113 186 380 271 174 270
8 381 277 180 271 272 181 100 175
8 297 211 124 197 381 277 180 271
8 382 278 181 272 274 183 102 177
8 274 183 102 177 383 279 182 273
8 383 279 182 273 276 185 104 179
8 385 281 184 275 342 249 157 238
8 276 185 104 179 385 281 184 275
8 285 199 115 188 393 297 197 283
8 394 298 200 286 284 198 116 189
8 285 199 298 394 188 115 198 284
8 291 205 120 193 396 300 200 286
8 397 301 201 287 288 202 117 190
8 295 209 264 374 397 301 201 287
8 398 302 202 288 289 203 118 191
8 399 303 203 289 293 206 121 195
8 291 205 304 400 193 120 204 290
8 400 304 207 292 290 204 122 194
8 294 208 123 196 402 307 207 292
8 403 306 206 293 294 208 123 196
8 296 210 263 373 405 309 209 295
8 408 312 213 299 297 211 126 199
8 299 213 313 409 199 126 212 298
8 409 313 214 300 298 212 127 200
8 305 216 129 205 411 315 214 300
8 412 318 217 301 302 219 132 202
8 309 223 136 209 412 318 217 301
8 413 320 219 302 303 220 133 203
8 306 221 321 414 206 134 220 303
8 307 218 131 207 415 316 215 304
8 305 216 316 415 205 129 215 304
8 417 322 221 306 308 222 135 208
8 308 222 135 208 418 319 218 307
8 310 225 137 210 420 325 223 309
8 423 326 224 311 310 225 137 210
8 329 236 165 260 441 338 259 368
8 442 342 238 328 333 240 149 230
8 331 237 146 228 443 340 236 329
8 334 241 150 231 444 339 235 330
8 444 339 235 330 331 237 146 228
8 446 343 239 332 336 242 151 233
8 333 240 149 230 446 343 239 332
8 335 243 152 232 448 345 241 334
8 337 244 153 234 449 347 243 335
8 337 244 346 450 234 153 242 336
8 338 245 164 259 452 349 258 367
8 340 247 155 236 453 350 245 338
8 345 252 160 241 454 351 246 339
8 454 351 246 339 341 248 156 237
8 341 248 156 237 455 352 247 340
8 240 159 251 344 342 249 354 457
8 242 161 253 346 343 250 355 458
8 343 250 355 458 240 159 251 344
8 347 254 162 243 460 357 252 345
8 348 255 358 461 244 163 253 346
8 348 255 163 244 462 359 254 347
8 473 360 257 365 363 256 364 482
8 452 349 258 367 365 257 366 485
8 422 324 369 488 311 224 261 371
8 371 261 370 490 263 167 262 372
8 407 311 371 491 296 210 263 373
8 373 263 372 492 295 209 264 374
8 493 385 275 375 442 342 238 328
8 377 276 179 267 493 385 275 375
8 378 274 177 268 494 383 273 376
8 494 383 273 376 377 276 179 267
8 497 382 272 379 378 274 177 268
8 498 381 271 380 379 272 175 269
8 393 297 197 283 498 381 271 380
8 499 387 277 381 382 278 181 272
8 408 312 211 297 499 387 277 381
8 500 388 278 382 384 280 183 274
8 501 389 279 383 386 282 185 276
8 384 280 183 274 501 389 279 383
8 386 282 185 276 503 391 281 385
8 503 391 281 385 457 354 249 342
8 511 408 299 395 393 297 199 285
8 395 299 409 512 285 199 298 394
8 512 409 300 396 394 298 200 286
8 401 305 205 291 514 411 300 396
8 515 412 301 397 398 302 202 288
8 405 309 209 295 515 412 301 397
8 516 413 302 398 399 303 203 289
8 403 306 414 517 293 206 303 399
8 402 307 207 292 518 415 304 400
8 401 305 415 518 291 205 304 400
8 404 308 208 294 520 418 307 402
8 521 417 306 403 404 308 208 294
8 406 310 210 296 523 420 309 405
8 526 423 311 407 406 310 210 296
8 410 314 213 299 527 424 312 408
8 528 425 315 411 409 313 214 300
8 410 314 425 528 299 213 313 409
8 416 317 216 305 530 427 315 411
8 531 430 318 412 413 320 219 302
8 420 325 223 309 531 430 318 412
8 532 432 320 413 414 321 220 303
8 417 322 433 533 306 221 321 414
8 418 319 218 307 534 428 316 415
8 416 317 428 534 305 216 316 415
8 419 323 434 536 308 222 322 417
8 419 323 222 308 537 431 319 418
8 421 327 225 310 539 438 325 420
8 421 327 439 541 310 225 326 423
8 543 437 324 422 423 326 224 311
8 441 338 259 368 559 452 367 486
8 443 340 236 329 560 453 338 441
8 333 240 344 447 442 342 457 561
8 445 341 237 331 562 455 340 443
8 448 345 241 334 563 454 339 444
8 563 454 339 444 445 341 237 331
8 336 242 346 450 446 343 458 565
8 446 343 458 565 333 240 344 447
8 449 347 243 335 567 460 345 448
8 451 348 244 337 568 462 347 449
8 451 348 461 569 337 244 346 450
8 570 463 349 452 473 360 257 365
8 453 350 245 338 570 463 349 452
8 455 352 247 340 571 464 350 453
8 460 357 252 345 572 465 351 454
8 572 465 351 454 456 353 248 341
8 456 353 248 341 573 466 352 455
8 344 251 356 459 457 354 468 575
8 458 355 469 576 344 251 356 459
8 346 253 358 461 458 355 469 576
8 462 359 254 347 578 471 357 460
8 348 255 359 462 461 358 472 579
8 591 474 360 473 475 361 256 363
8 475 361 256 363 594 477 362 479
8 363 256 364 482 479 362 480 603
8 590 473 365 484 481 363 482 605
8 482 364 257 365 606 483 366 485
8 559 452 367 486 484 365 485 607
8 542 436 487 609 422 324 369 488
8 525 422 488 611 407 311 371 491
8 488 369 489 612 371 261 370 490
8 491 371 490 613 373 263 372 492
8 495 386 276 377 614 503 385 493
8 614 503 385 493 561 457 342 442
8 615 501 383 494 495 386 276 377
8 496 384 274 378 615 501 383 494
8 618 500 382 497 496 384 274 378
8 619 499 381 498 497 382 272 379
8 511 408 297 393 619 499 381 498
8 620 505 387 499 500 388 278 382
8 527 424 312 408 620 505 387 499
8 502 390 506 621 384 280 388 500
8 622 507 389 501 504 392 282 386
8 502 390 280 384 622 507 389 501
8 504 392 282 386 624 509 391 503
8 624 509 391 503 575 468 354 457
8 513 410 299 395 630 527 408 511
8 631 528 411 514 512 409 300 396
8 513 410 528 631 395 299 409 512
8 519 416 305 401 633 530 411 514
8 634 531 412 515 516 413 302 398
8 523 420 309 405 634 531 412 515
8 635 532 413 516 517 414 303 399
8 521 417 533 636 403 306 414 517
8 520 418 307 402 637 534 415 518
8 519 416 534 637 401 305 415 518
8 522 419 308 404 639 537 418 520
8 522 419 536 640 404 308 417 521
8 524 421 310 406 642 539 420 523
8 524 421 541 644 406 310 423 526
8 646 543 422 525 526 423 311 407
8 529 426 314 410 647 544 424 527
8 528 425 545 648 411 315 427 530
8 529 426 545 648 410 314 425 528
8 535 429 317 416 649 546 427 530
8 650 548 430 531 532 432 320 413
8 539 438 325 420 650 548 430 531
8 533 433 550 651 414 321 432 532
8 536 434 551 652 417 322 433 533
8 537 431 319 418 653 547 428 534
8 535 429 547 653 416 317 428 534
8 538 435 552 654 419 323 434 536
8 538 435 323 419 655 549 431 537
8 540 440 327 421 657 556 438 539
8 540 440 557 659 421 327 439 541
8 541 439 555 660 423 326 437 543
8 661 554 436 542 543 437 324 422
8 676 570 452 559 590 473 365 484
8 560 453 338 441 676 570 452 559
8 562 455 340 443 677 571 453 560
8 447 344 459 566 561 457 575 678
8 564 456 341 445 679 573 455 562
8 567 460 345 448 680 572 454 563
8 680 572 454 563 564 456 341 445
8 565 458 576 682 447 344 459 566
8 450 346 461 569 565 458 576 682
8 568 462 347 449 684 578 460 567
8 451 348 462 568 569 461 579 685
8 686 580 463 570 591 474 360 473
8 571 464 350 453 686 580 463 570
8 573 466 352 455 687 581 464 571
8 572 465 582 688 460 357 471 578
8 574 467 582 688 456 353 465 572
8 574 467 353 456 689 583 466 573
8 459 356 470 577 575 468 585 691
8 576 469 586 692 459 356 470 577
8 461 358 472 579 576 469 586 692
8 462 359 471 578 579 472 588 694
8 704 591 473 590 593 475 363 481
8 595 476 592 705 475 361 474 591
8 593 475 363 481 707 594 479 602
8 594 477 362 479 709 598 478 600
8 595 476 361 475 711 597 477 594
8 479 362 480 603 600 478 601 720
8 481 363 482 605 602 479 603 722
8 603 480 364 482 723 604 483 606
8 605 482 365 484 724 606 485 607
8 656 553 608 726 542 436 487 609
8 645 542 609 728 525 422 488 611
8 609 487 610 729 488 369 489 612
8 611 488 612 730 491 371 490 613
8 616 504 386 495 731 624 503 614
8 731 624 503 614 678 575 457 561
8 732 622 501 615 616 504 386 495
8 617 502 384 496 732 622 501 615
8 617 502 621 735 496 384 500 618
8 736 620 499 619 618 500 382 497
8 630 527 408 511 736 620 499 619
8 621 506 626 737 500 388 505 620
8 647 544 424 527 737 626 505 620
8 623 508 627 738 502 390 506 621
8 623 508 390 502 739 628 507 622
8 625 510 628 739 504 392 507 622
8 740 629 509 624 691 585 468 575
8 625 510 392 504 740 629 509 624
8 632 529 410 513 744 647 527 630
8 631 528 648 745 514 411 530 633
8 632 529 648 745 513 410 528 631
8 638 535 416 519 746 649 530 633
8 747 650 531 634 635 532 413 516
8 642 539 420 523 747 650 531 634
8 636 533 651 748 517 414 532 635
8 640 536 652 749 521 417 533 636
8 639 537 418 520 750 653 534 637
8 638 535 653 750 519 416 534 637
8 641 538 419 522 751 655 537 639
8 641 538 654 752 522 419 536 640
8 643 540 421 524 753 657 539 642
8 643 540 659 755 524 421 541 644
8 644 541 660 757 526 423 543 646
8 758 661 542 645 646 543 422 525
8 529 426 544 647 648 545 662 759
8 530 427 545 648 649 546 663 760
8 535 429 546 649 653 547 664 761
8 762 666 548 650 651 550 432 532
8 657 556 438 539 762 666 548 650
8 652 551 668 763 533 433 550 651
8 654 552 669 764 536 434 551 652
8 655 549 431 537 765 665 547 653
8 538 435 549 655 654 552 667 766
8 661 554 671 768 542 436 553 656
8 658 558 440 540 769 674 556 657
8 658 558 675 770 540 440 557 659
8 659 557 673 771 541 439 555 660
8 660 555 672 772 543 437 554 661
8 788 686 570 676 704 591 473 590
8 677 571 453 560 788 686 570 676
8 679 573 455 562 789 687 571 677
8 566 459 577 683 678 575 691 790
8 681 574 456 564 791 689 573 679
8 680 572 688 792 567 460 578 684
8 681 574 688 792 564 456 572 680
8 682 576 692 794 566 459 577 683
8 569 461 579 685 682 576 692 794
8 568 462 578 684 685 579 694 796
8 687 581 464 571 798 696 580 686
8 798 696 580 686 705 592 474 591
8 689 583 466 573 799 697 581 687
8 688 582 698 800 578 471 588 694
8 690 584 698 800 574 467 582 688
8 690 584 467 574 801 699 583 689
8 693 587 701 803 577 470 585 691
8 693 587 470 577 804 702 586 692
8 695 589 702 804 579 472 586 692
8 695 589 472 579 805 703 588 694
8 708 595 705 813 593 475 591 704
8 710 596 706 814 595 476 592 705
8 707 594 479 602 816 709 600 719
8 708 595 475 593 817 711 594 707
8 709 598 478 600 819 715 599 717
8 711 597 477 594 820 714 598 709
8 710 596 476 595 822 713 597 711
8 600 478 601 720 717 599 718 832
8 602 479 603 722 719 600 720 834
8 720 601 480 603 835 721 604 723
8 722 603 482 605 836 723 606 724
8 767 670 725 839 656 553 608 726
8 756 656 726 841 645 542 609 728
8 726 608 727 842 609 487 610 729
8 728 609 729 843 611 488 612 730
8 844 740 624 731 790 691 575 678
8 733 625 504 616 844 740 624 731
8 734 623 502 617 845 739 622 732
8 733 625 739 845 616 504 622 732
8 734 623 738 846 617 502 621 735
8 735 621 737 847 618 500 620 736
8 744 647 527 630 847 737 620 736
8 621 506 627 738 737 626 741 848
8 647 544 626 737 759 662 741 848
8 623 508 628 739 738 627 742 849
8 740 629 585 691 850 743 700 802
8 625 510 629 740 739 628 743 850
8 632 529 647 744 745 648 759 854
8 633 530 648 745 746 649 760 855
8 638 535 649 746 750 653 761 856
8 857 762 650 747 748 651 532 635
8 753 657 539 642 857 762 650 747
8 749 652 763 858 636 533 651 748
8 752 654 764 859 640 536 652 749
8 751 655 537 639 860 765 653 750
8 641 538 655 751 752 654 766 861
8 754 658 540 643 862 769 657 753
8 754 658 770 863 643 540 659 755
8 755 659 771 864 644 541 660 757
8 758 661 768 866 645 542 656 756
8 757 660 772 867 646 543 661 758
8 759 662 773 868 648 545 663 760
8 649 546 663 760 761 664 774 871
8 765 665 547 653 872 775 664 761
8 873 777 666 762 763 668 550 651
8 769 674 556 657 873 777 666 762
8 764 669 779 874 652 551 668 763
8 654 552 667 766 764 669 778 875
8 655 549 665 765 766 667 776 876
8 768 671 782 877 656 553 670 767
8 772 672 783 878 661 554 671 768
8 658 558 674 769 770 675 786 879
8 659 557 675 770 771 673 785 881
8 882 784 672 772 771 673 555 660
8 789 687 571 677 897 798 686 788
8 897 798 686 788 813 705 591 704
8 791 689 573 679 898 799 687 789
8 795 693 803 900 683 577 691 790
8 793 690 574 681 901 801 689 791
8 792 688 800 902 684 578 694 796
8 793 690 800 902 681 574 688 792
8 795 693 577 683 903 804 692 794
8 797 695 804 903 685 579 692 794
8 797 695 579 685 904 805 694 796
8 905 806 697 799 798 696 581 687
8 814 706 806 905 705 592 696 798
8 689 583 697 799 801 699 808 907
8 800 698 809 908 694 588 703 805
8 690 584 699 801 800 698 809 908
8 803 701 810 909 691 585 700 802
8 693 587 702 804 803 701 811 910
8 695 589 703 805 804 702 812 911
8 818 710 814 919 708 595 705 813
8 821 712 815 920 710 596 706 814
8 816 709 600 719 922 819 717 831
8 817 711 594 707 923 820 709 816
8 818 710 595 708 924 822 711 817
8 819 715 599 717 926 827 716 829
8 820 714 598 709 927 826 715 819
8 929 825 713 822 820 714 597 711
8 821 712 596 710 930 824 713 822
8 717 599 718 832 829 716 830 942
8 719 600 720 834 831 717 832 944
8 832 718 601 720 945 833 721 835
8 834 720 603 722 946 835 723 836
8 869 780 838 950 767 670 725 839
8 865 767 839 952 756 656 726 841
8 839 725 840 953 726 608 727 842
8 841 726 842 954 728 609 729 843
8 844 740 691 790 955 850 802 899
8 733 625 740 844 845 739 850 955
8 734 623 739 845 846 738 849 956
8 735 621 738 846 847 737 848 957
8 744 647 737 847 854 759 848 957
8 738 627 742 849 848 741 851 958
8 848 741 851 958 759 662 773 868
8 850 743 700 802 959 852 807 906
8 849 742 628 739 959 852 743 850
8 854 759 868 965 745 648 760 855
8 746 649 760 855 856 761 871 966
8 860 765 653 750 967 872 761 856
8 968 873 762 857 858 763 651 748
8 862 769 657 753 968 873 762 857
8 859 764 874 969 749 652 763 858
8 752 654 766 861 859 764 875 970
8 751 655 765 860 861 766 876 971
8 754 658 769 862 863 770 879 972
8 755 659 770 863 864 771 881 974
8 976 882 772 867 864 771 660 757
8 866 768 877 977 756 656 767 865
8 867 772 878 978 758 661 768 866
8 760 663 773 868 871 774 883 980
8 870 781 837 948 982 890 780 869
8 982 890 780 869 877 782 670 767
8 761 664 774 871 872 775 884 984
8 876 776 665 765 985 885 775 872
8 873 777 668 763 986 887 779 874
8 769 674 777 873 879 786 887 986
8 764 669 778 875 874 779 888 987
8 766 667 776 876 875 778 886 988
8 878 783 892 989 768 671 782 877
8 878 783 672 772 990 893 784 882
8 880 787 675 770 991 896 786 879
8 880 787 895 992 770 675 785 881
8 881 785 894 993 771 673 784 882
8 1006 905 799 898 897 798 687 789
8 919 814 905 1006 813 705 798 897
8 791 689 799 898 901 801 907 1007
8 900 803 909 1009 790 691 802 899
8 795 693 804 903 900 803 910 1010
8 902 800 908 1011 796 694 805 904
8 793 690 801 901 902 800 908 1011
8 797 695 805 904 903 804 911 1012
8 799 697 806 905 907 808 912 1013
8 920 815 912 1013 814 706 806 905
8 802 700 810 909 906 807 913 1014
8 801 699 808 907 908 809 914 1015
8 805 703 809 908 911 812 915 1016
8 803 701 811 910 909 810 916 1017
8 911 812 917 1018 804 702 811 910
8 925 821 920 1030 818 710 814 919
8 928 823 921 1031 821 712 815 920
8 922 819 717 831 1033 926 829 941
8 923 820 709 816 1034 927 819 922
8 1035 929 822 924 923 820 711 817
8 925 821 710 818 1036 930 822 924
8 1038 933 825 929 927 826 714 820
8 926 827 716 829 1039 935 828 939
8 927 826 715 819 1040 934 827 926
8 928 823 712 821 1041 931 824 930
8 1042 932 824 930 929 825 713 822
8 829 716 830 942 939 828 940 1058
8 831 717 832 944 941 829 942 1060
8 942 830 718 832 1061 943 833 945
8 944 832 720 834 1062 945 835 946
8 981 889 947 1064 870 781 837 948
8 948 837 949 1067 869 780 838 950
8 975 869 950 1069 865 767 839 952
8 950 838 951 1070 839 725 840 953
8 952 839 953 1071 841 726 842 954
8 955 850 802 899 1072 959 906 1008
8 956 849 739 845 1072 959 850 955
8 846 738 849 956 957 848 958 1073
8 957 848 958 1073 854 759 868 965
8 849 742 852 959 958 851 961 1076
8 960 853 961 1076 906 807 852 959
8 958 851 961 1076 868 773 883 980
8 960 853 807 906 1077 963 913 1014
8 855 760 868 965 966 871 980 1085
8 856 761 871 966 967 872 984 1086
8 971 876 765 860 1087 985 872 967
8 968 873 763 858 1088 986 874 969
8 862 769 873 968 972 879 986 1088
8 859 764 875 970 969 874 987 1089
8 861 766 876 971 970 875 988 1090
8 973 880 770 863 1091 991 879 972
8 973 880 992 1092 863 770 881 974
8 974 881 993 1093 864 771 882 976
8 979 870 948 1066 1094 982 869 975
8 1094 982 869 975 977 877 767 865
8 978 878 772 867 1095 990 882 976
8 978 878 989 1096 866 768 877 977
8 871 774 883 980 984 884 994 1099
8 983 891 999 1100 870 781 889 981
8 1101 1000 890 982 989 892 782 877
8 983 891 781 870 1101 1000 890 982
8 872 775 884 984 985 885 995 1103
8 876 776 885 985 988 886 996 1104
8 986 887 779 874 1105 998 888 987
8 879 786 887 986 991 896 998 1105
8 875 778 886 988 987 888 997 1106
8 990 893 1002 1107 878 783 892 989
8 1108 1003 893 990 993 894 784 882
8 880 787 896 991 992 895 1005 1109
8 993 894 785 881 1110 1004 895 992
8 898 799 905 1006 1007 907 1013 1120
8 1030 920 1013 1120 919 814 905 1006
8 901 801 907 1007 1011 908 1015 1121
8 899 802 909 1009 1008 906 1014 1122
8 900 803 910 1010 1009 909 1017 1123
8 1012 911 1018 1124 903 804 910 1010
8 904 805 908 1011 1012 911 1016 1125
8 1013 912 1020 1127 907 808 914 1015
8 1031 921 1020 1127 920 815 912 1013
8 1019 918 962 1075 1128 1021 913 1014
8 1128 1021 913 1014 1017 916 810 909
8 1015 914 1022 1129 908 809 915 1016
8 1016 915 1023 1130 911 812 917 1018
8 1018 917 1024 1131 910 811 916 1017
8 1037 928 1031 1148 925 821 920 1030
8 928 823 931 1041 1031 921 1032 1149
8 1033 926 829 941 1151 1039 939 1057
8 1034 927 819 922 1152 1040 926 1033
8 1153 1038 929 1035 1034 927 820 923
8 1154 1042 930 1036 1035 929 822 924
8 1037 928 821 925 1155 1041 930 1036
8 1039 935 828 939 1156 1047 938 1055
8 1157 1043 932 1042 1038 933 825 929
8 1038 933 826 927 1158 1045 934 1040
8 1040 934 827 926 1159 1046 935 1039
8 930 824 932 1042 1041 931 1044 1160
8 1051 936 1048 1165 1175 1052 937 1053
8 1156 1047 938 1055 1053 937 1054 1178
8 939 828 940 1058 1055 938 1056 1181
8 941 829 942 1060 1057 939 1058 1183
8 942 830 943 1061 1058 940 1059 1184
8 1060 942 832 944 1185 1061 945 1062
8 1082 964 1063 1188 981 889 947 1064
8 1097 981 1064 1190 979 870 948 1066
8 1064 947 1065 1191 948 837 949 1067
8 1066 948 1067 1193 975 869 950 1069
8 1067 949 1068 1194 950 838 951 1070
8 1069 950 1070 1195 952 839 953 1071
8 956 849 959 1072 1073 958 1076 1197
8 1074 960 1076 1197 1008 906 959 1072
8 1073 958 1076 1197 965 868 980 1085
8 1074 960 906 1008 1198 1077 1014 1122
8 1133 1026 1079 1199 1019 918 962 1075
8 1077 963 913 1014 1200 1080 962 1075
8 960 853 963 1077 1076 961 1078 1201
8 980 883 961 1076 1099 994 1078 1201
8 1210 1083 964 1082 1100 999 889 981
8 966 871 980 1085 1086 984 1099 1215
8 967 872 984 1086 1087 985 1103 1216
8 971 876 985 1087 1090 988 1104 1217
8 1088 986 874 969 1218 1105 987 1089
8 972 879 986 1088 1091 991 1105 1218
8 970 875 988 1090 1089 987 1106 1219
8 973 880 991 1091 1092 992 1109 1220
8 1093 993 881 974 1221 1110 992 1092
8 1222 1108 990 1095 1093 993 882 976
8 1223 1101 982 1094 1096 989 877 977
8 1098 983 870 979 1223 1101 982 1094
8 1095 990 1107 1224 978 878 989 1096
8 1098 983 1100 1225 979 870 981 1097
8 984 884 994 1099 1103 995 1111 1227
8 1102 1001 1115 1228 983 891 999 1100
8 1101 1000 892 989 1229 1116 1002 1107
8 1102 1001 891 983 1229 1116 1000 1101
8 985 885 995 1103 1104 996 1112 1230
8 988 886 996 1104 1106 997 1113 1231
8 1105 998 888 987 1232 1114 997 1106
8 991 896 998 1105 1109 1005 1114 1232
8 1108 1003 1117 1233 990 893 1002 1107
8 1108 1003 894 993 1233 1117 1004 1110
8 992 895 1005 1109 1110 1004 1118 1234
8 1120 1013 1127 1244 1007 907 1015 1121
8 1148 1031 1127 1244 1030 920 1013 1120
8 1121 1015 1129 1245 1011 908 1016 1125
8 1126 1019 1075 1196 1246 1128 1014 1122
8 1246 1128 1014 1122 1123 1017 909 1009
8 1124 1018 1131 1247 1010 910 1017 1123
8 1125 1016 1130 1248 1012 911 1018 1124
8 1127 1020 1137 1254 1015 914 1022 1129
8 1031 921 1032 1149 1127 1020 1137 1254
8 1134 1027 918 1019 1257 1140 1021 1128
8 1257 1140 1021 1128 1131 1024 916 1017
8 1129 1022 1141 1258 1016 915 1023 1130
8 1130 1023 1142 1259 1018 917 1024 1131
8 1261 1144 1025 1132 1133 1026 1079 1199
8 1255 1138 1025 1132 1135 1028 1144 1261
8 1133 1026 918 1019 1262 1145 1027 1134
8 1136 1029 1139 1256 1263 1146 1028 1135
8 1037 928 1041 1155 1148 1031 1149 1275
8 1041 931 1044 1160 1149 1032 1150 1276
8 1151 1039 939 1057 1278 1156 1055 1180
8 1152 1040 926 1033 1279 1159 1039 1151
8 1153 1038 927 1034 1280 1158 1040 1152
8 1281 1157 1042 1154 1153 1038 929 1035
8 1036 930 1042 1154 1155 1041 1160 1282
8 1283 1164 1046 1159 1156 1047 935 1039
8 1165 1048 1164 1283 1053 937 1047 1156
8 1157 1043 933 1038 1284 1161 1045 1158
8 1157 1043 1161 1284 1042 932 1044 1160
8 1040 934 1046 1159 1158 1045 1163 1285
8 1166 1049 1167 1292 1051 936 1048 1165
8 1166 1049 936 1051 1293 1168 1050 1172
8 1051 936 1052 1175 1172 1050 1173 1306
8 1174 1051 1165 1290 1308 1175 1053 1177
8 1053 937 1054 1178 1175 1052 1176 1309
8 1278 1156 1055 1180 1177 1053 1178 1311
8 1055 938 1056 1181 1178 1054 1179 1312
8 1057 939 1058 1183 1180 1055 1181 1314
8 1058 940 1059 1184 1181 1056 1182 1315
8 1060 942 1061 1185 1183 1058 1184 1316
8 1208 1081 1187 1321 1082 964 1063 1188
8 1209 1082 1188 1322 1097 981 1064 1190
8 1188 1063 1189 1323 1064 947 1065 1191
8 1190 1064 1191 1325 1066 948 1067 1193
8 1191 1065 1192 1326 1067 949 1068 1194
8 1067 1193 1069 950 1194 1327 1195 1070
8 1250 1133 1199 1330 1126 1019 1075 1196
8 1198 1077 1014 1122 1331 1200 1075 1196
8 1074 960 1077 1198 1197 1076 1201 1332
8 1085 980 1076 1197 1215 1099 1201 1332
8 1199 1079 1203 1333 1075 962 1080 1200
8 1132 1025 1119 1243 1199 1079 1203 1333
8 1201 1078 963 1077 1334 1202 1080 1200
8 1099 994 1078 1201 1227 1111 1202 1334
8 1343 1207 1081 1208 1210 1083 964 1082
8 1214 1084 1186 1319 1343 1207 1081 1208
8 1345 1210 1082 1209 1225 1100 981 1097
8 1346 1211 1083 1210 1228 1115 999 1100
8 1086 984 1099 1215 1216 1103 1227 1352
8 1087 985 1103 1216 1217 1104 1230 1353
8 1090 988 1104 1217 1219 1106 1231 1354
8 1218 1105 987 1089 1355 1232 1106 1219
8 1091 991 1105 1218 1220 1109 1232 1355
8 1092 992 1109 1220 1221 1110 1234 1356
8 1222 1108 1233 1357 1095 990 1107 1224
8 1222 1108 993 1093 1357 1233 1110 1221
8 1223 1101 989 1096 1358 1229 1107 1224
8 1226 1102 983 1098 1358 1229 1101 1223
8 1226 1102 1228 1359 1098 983 1100 1225
8 1103 995 1111 1227 1230 1112 1235 1360
8 1107 1002 1117 1233 1229 1116 1240 1362
8 1102 1001 1116 1229 1228 1115 1240 1362
8 1104 996 1112 1230 1231 1113 1236 1363
8 1364 1237 1114 1232 1231 1113 997 1106
8 1109 1005 1114 1232 1234 1118 1238 1365
8 1110 1004 1118 1234 1233 1117 1241 1366
8 1242 1374 1255 1138 1119 1243 1132 1025
8 1244 1127 1254 1376 1121 1015 1129 1245
8 1148 1031 1149 1275 1244 1127 1254 1376
8 1245 1129 1258 1377 1125 1016 1130 1248
8 1251 1134 1019 1126 1378 1257 1128 1246
8 1378 1257 1128 1246 1247 1131 1017 1123
8 1248 1130 1259 1379 1124 1018 1131 1247
8 1261 1381 1250 1133 1132 1249 1330 1199
8 1255 1380 1252 1135 1132 1249 1381 1261
8 1250 1133 1019 1126 1382 1262 1134 1251
8 1253 1136 1256 1385 1384 1263 1135 1252
8 1254 1137 1265 1387 1129 1022 1141 1258
8 1149 1032 1150 1276 1254 1137 1265 1387
8 1028 1135 1255 1138 1139 1256 1388 1266
8 1136 1029 1147 1264 1256 1139 1267 1389
8 1390 1268 1140 1257 1259 1142 1024 1131
8 1260 1143 1027 1134 1390 1268 1140 1257
8 1258 1141 1269 1391 1130 1023 1142 1259
8 1262 1145 1027 1134 1393 1271 1143 1260
8 1261 1144 1026 1133 1394 1272 1145 1262
8 1135 1028 1144 1261 1263 1146 1272 1394
8 1136 1029 1146 1263 1264 1147 1273 1395
8 1155 1041 1160 1282 1275 1149 1276 1405
8 1276 1150 1044 1160 1406 1277 1162 1286
8 1408 1283 1159 1279 1278 1156 1039 1151
8 1290 1165 1283 1408 1177 1053 1156 1278
8 1152 1040 1159 1279 1280 1158 1285 1409
8 1281 1157 1038 1153 1410 1284 1158 1280
8 1281 1157 1284 1410 1154 1042 1160 1282
8 1159 1046 1164 1283 1285 1163 1289 1412
8 1292 1167 1289 1412 1165 1048 1164 1283
8 1158 1045 1163 1285 1284 1161 1288 1413
8 1284 1161 1288 1413 1160 1044 1162 1286
8 1291 1166 1292 1418 1174 1051 1165 1290
8 1291 1166 1051 1174 1419 1293 1172 1305
8 1294 1169 1296 1421 1166 1049 1167 1292
8 1293 1168 1050 1172 1422 1295 1171 1303
8 1294 1169 1049 1166 1423 1297 1168 1293
8 1422 1295 1171 1303 1301 1170 1302 1435
8 1172 1050 1173 1306 1303 1171 1304 1438
8 1174 1051 1175 1308 1305 1172 1306 1440
8 1175 1052 1176 1309 1306 1173 1307 1441
8 1177 1053 1178 1311 1308 1175 1309 1443
8 1178 1054 1179 1312 1309 1176 1310 1444
8 1180 1055 1181 1314 1311 1178 1312 1446
8 1056 1181 1312 1179 1182 1315 1447 1313
8 1183 1058 1184 1316 1314 1181 1315 1448
8 1319 1186 1084 1214 1451 1317 1213 1350
8 1319 1186 1318 1453 1208 1081 1187 1321
8 1321 1187 1320 1456 1188 1063 1189 1323
8 1344 1208 1321 1457 1209 1082 1188 1322
8 1322 1188 1323 1458 1190 1064 1191 1325
8 1323 1189 1324 1459 1191 1065 1192 1326
8 1191 1325 1193 1067 1326 1460 1327 1194
8 1242 1374 1243 1119 1328 1462 1335 1204
8 1330 1199 1333 1465 1196 1075 1200 1331
8 1132 1249 1330 1199 1243 1375 1465 1333
8 1332 1201 1077 1198 1466 1334 1200 1331
8 1215 1099 1201 1332 1352 1227 1334 1466
8 1119 1243 1333 1203 1204 1335 1470 1338
8 1333 1203 1338 1470 1200 1080 1202 1334
8 1227 1111 1202 1334 1360 1235 1338 1470
8 1328 1462 1335 1204 1205 1336 1471 1339
8 1337 1206 1340 1472 1464 1329 1205 1336
8 1346 1211 1342 1479 1210 1083 1207 1343
8 1346 1211 1115 1228 1479 1342 1239 1361
8 1348 1212 1084 1214 1479 1342 1207 1343
8 1480 1343 1208 1344 1345 1210 1082 1209
8 1351 1214 1319 1454 1480 1343 1208 1344
8 1481 1346 1210 1345 1359 1228 1100 1225
8 1348 1212 1347 1483 1214 1084 1213 1350
8 1216 1103 1227 1352 1353 1230 1360 1488
8 1217 1104 1230 1353 1354 1231 1363 1489
8 1490 1364 1232 1355 1354 1231 1106 1219
8 1220 1109 1232 1355 1356 1234 1365 1491
8 1221 1110 1234 1356 1357 1233 1366 1492
8 1224 1107 1233 1357 1358 1229 1362 1493
8 1226 1102 1229 1358 1359 1228 1362 1493
8 1230 1112 1235 1360 1363 1236 1367 1496
8 1361 1239 1115 1228 1497 1371 1240 1362
8 1366 1241 1372 1498 1233 1117 1240 1362
8 1364 1237 1113 1231 1499 1368 1236 1363
8 1364 1237 1368 1499 1232 1114 1238 1365
8 1234 1118 1238 1365 1366 1241 1369 1500
8 1507 1373 1242 1374 1388 1266 1138 1255
8 1508 1374 1243 1375 1380 1255 1132 1249
8 1376 1254 1387 1509 1245 1129 1258 1377
8 1275 1149 1276 1405 1376 1254 1387 1509
8 1377 1258 1391 1510 1248 1130 1259 1379
8 1511 1390 1257 1378 1379 1259 1131 1247
8 1383 1260 1134 1251 1511 1390 1257 1378
8 1252 1135 1256 1385 1380 1255 1388 1512
8 1261 1381 1513 1394 1133 1250 1382 1262
8 1135 1252 1384 1263 1261 1381 1513 1394
8 1382 1262 1134 1251 1514 1393 1260 1383
8 1253 1136 1263 1384 1386 1264 1395 1516
8 1253 1136 1264 1386 1385 1256 1389 1517
8 1387 1265 1397 1519 1258 1141 1269 1391
8 1276 1150 1277 1406 1387 1265 1397 1519
8 1256 1139 1267 1389 1388 1266 1398 1520
8 1264 1147 1274 1396 1389 1267 1399 1521
8 1392 1270 1143 1260 1522 1400 1268 1390
8 1390 1268 1142 1259 1522 1400 1269 1391
8 1392 1270 1401 1523 1260 1143 1271 1393
8 1272 1394 1524 1402 1145 1262 1393 1271
8 1395 1273 1146 1263 1524 1402 1272 1394
8 1273 1395 1264 1147 1403 1526 1396 1274
8 1405 1276 1160 1282 1534 1406 1286 1411
8 1414 1287 1407 1535 1286 1162 1277 1406
8 1279 1159 1283 1408 1409 1285 1412 1537
8 1418 1292 1412 1537 1290 1165 1283 1408
8 1280 1158 1285 1409 1410 1284 1413 1538
8 1410 1284 1413 1538 1282 1160 1286 1411
8 1285 1163 1289 1412 1413 1288 1417 1540
8 1421 1296 1417 1540 1292 1167 1289 1412
8 1414 1287 1162 1286 1541 1416 1288 1413
8 1420 1294 1421 1545 1291 1166 1292 1418
8 1419 1293 1172 1305 1546 1422 1303 1437
8 1420 1294 1166 1291 1547 1423 1293 1419
8 1294 1169 1297 1423 1421 1296 1425 1548
8 1423 1297 1168 1293 1549 1424 1295 1422
8 1301 1170 1298 1427 1422 1295 1424 1549
8 1432 1300 1428 1554 1301 1170 1298 1427
8 1431 1299 1428 1554 1560 1430 1300 1432
8 1563 1433 1300 1432 1435 1302 1170 1301
8 1546 1422 1303 1437 1434 1301 1435 1565
8 1303 1171 1304 1438 1435 1302 1436 1566
8 1305 1172 1306 1440 1437 1303 1438 1568
8 1306 1173 1307 1441 1438 1304 1439 1569
8 1308 1175 1309 1443 1440 1306 1441 1571
8 1309 1176 1310 1444 1441 1307 1442 1572
8 1311 1178 1312 1446 1443 1309 1444 1574
8 1179 1312 1444 1310 1313 1447 1575 1445
8 1314 1181 1315 1448 1446 1312 1447 1576
8 1350 1213 1349 1486 1451 1317 1449 1579
8 1451 1317 1450 1581 1319 1186 1318 1453
8 1454 1319 1214 1351 1582 1451 1350 1487
8 1453 1318 1452 1584 1321 1187 1320 1456
8 1454 1319 1453 1585 1344 1208 1321 1457
8 1456 1320 1455 1586 1323 1189 1324 1459
8 1457 1321 1456 1587 1322 1188 1323 1458
8 1458 1323 1459 1588 1325 1191 1326 1460
8 1205 1336 1464 1329 1328 1462 1590 1461
8 1507 1373 1461 1590 1374 1242 1328 1462
8 1508 1374 1462 1591 1375 1243 1335 1467
8 1337 1206 1329 1464 1473 1341 1463 1594
8 1375 1243 1335 1467 1465 1333 1470 1596
8 1465 1333 1470 1596 1331 1200 1334 1466
8 1352 1227 1334 1466 1488 1360 1470 1596
8 1591 1462 1336 1468 1467 1335 1471 1597
8 1469 1337 1472 1598 1595 1464 1336 1468
8 1471 1339 1474 1600 1335 1204 1338 1470
8 1600 1474 1367 1496 1470 1338 1235 1360
8 1336 1205 1340 1472 1471 1339 1475 1601
8 1337 1206 1341 1473 1472 1340 1476 1602
8 1495 1370 1478 1609 1361 1239 1342 1479
8 1348 1212 1342 1479 1483 1347 1478 1609
8 1481 1346 1479 1610 1345 1210 1343 1480
8 1481 1346 1228 1359 1610 1479 1361 1494
8 1484 1348 1214 1351 1610 1479 1343 1480
8 1483 1347 1482 1612 1350 1213 1349 1486
8 1484 1348 1483 1613 1351 1214 1350 1487
8 1353 1230 1360 1488 1489 1363 1496 1616
8 1490 1364 1231 1354 1617 1499 1363 1489
8 1490 1364 1499 1617 1355 1232 1365 1491
8 1356 1234 1365 1491 1492 1366 1500 1619
8 1492 1366 1498 1620 1357 1233 1362 1493
8 1494 1361 1228 1359 1621 1497 1362 1493
8 1495 1370 1239 1361 1622 1504 1371 1497
8 1363 1236 1367 1496 1499 1368 1501 1623
8 1497 1371 1240 1362 1624 1505 1372 1498
8 1625 1503 1372 1498 1500 1369 1241 1366
8 1365 1238 1368 1499 1500 1369 1502 1626
8 1520 1398 1506 1633 1388 1266 1373 1507
8 1634 1507 1374 1508 1512 1388 1255 1380
8 1509 1387 1519 1635 1377 1258 1391 1510
8 1405 1276 1406 1534 1509 1387 1519 1635
8 1515 1392 1260 1383 1636 1522 1390 1511
8 1511 1390 1259 1379 1636 1522 1391 1510
8 1385 1256 1389 1517 1512 1388 1520 1637
8 1513 1394 1262 1382 1638 1524 1393 1514
8 1395 1516 1638 1524 1263 1384 1513 1394
8 1515 1392 1523 1639 1383 1260 1393 1514
8 1516 1395 1526 1640 1386 1264 1396 1518
8 1386 1264 1396 1518 1517 1389 1521 1641
8 1519 1397 1527 1643 1391 1269 1400 1522
8 1535 1407 1527 1643 1406 1277 1397 1519
8 1389 1267 1399 1521 1520 1398 1528 1644
8 1645 1529 1399 1521 1525 1404 1274 1396
8 1392 1270 1400 1522 1523 1401 1531 1646
8 1524 1402 1271 1393 1648 1532 1401 1523
8 1403 1526 1648 1532 1273 1395 1524 1402
8 1525 1404 1274 1396 1649 1533 1403 1526
8 1539 1414 1535 1657 1411 1286 1406 1534
8 1542 1415 1536 1658 1414 1287 1407 1535
8 1409 1285 1412 1537 1538 1413 1540 1660
8 1545 1421 1540 1660 1418 1292 1412 1537
8 1539 1414 1286 1411 1661 1541 1413 1538
8 1540 1417 1544 1663 1413 1288 1416 1541
8 1421 1296 1425 1548 1540 1417 1544 1663
8 1542 1415 1287 1414 1664 1543 1416 1541
8 1420 1294 1423 1547 1545 1421 1548 1666
8 1547 1423 1293 1419 1667 1549 1422 1546
8 1434 1301 1427 1553 1546 1422 1549 1667
8 1423 1297 1424 1549 1548 1425 1550 1668
8 1551 1426 1550 1668 1427 1298 1424 1549
8 1551 1426 1298 1427 1671 1552 1428 1554
8 1562 1432 1554 1674 1434 1301 1427 1553
8 1431 1299 1429 1558 1554 1428 1555 1675
8 1431 1299 1430 1560 1558 1429 1557 1680
8 1560 1430 1300 1432 1683 1559 1433 1563
8 1561 1431 1554 1674 1684 1560 1432 1562
8 1685 1563 1432 1562 1565 1435 1301 1434
8 1435 1302 1436 1566 1563 1433 1564 1686
8 1437 1303 1438 1568 1565 1435 1566 1688
8 1438 1304 1439 1569 1566 1436 1567 1689
8 1440 1306 1441 1571 1568 1438 1569 1691
8 1441 1307 1442 1572 1569 1439 1570 1692
8 1443 1309 1444 1574 1571 1441 1572 1694
8 1310 1444 1572 1442 1445 1575 1695 1573
8 1446 1312 1447 1576 1574 1444 1575 1696
8 1486 1349 1485 1614 1579 1449 1577 1699
8 1451 1317 1449 1579 1581 1450 1578 1701
8 1487 1350 1486 1615 1582 1451 1579 1702
8 1581 1450 1580 1704 1453 1318 1452 1584
8 1582 1451 1581 1705 1454 1319 1453 1585
8 1584 1452 1583 1706 1456 1320 1455 1586
8 1585 1453 1584 1707 1457 1321 1456 1587
8 1587 1456 1586 1708 1458 1323 1459 1588
8 1633 1506 1589 1710 1507 1373 1461 1590
8 1464 1329 1461 1590 1594 1463 1589 1710
8 1468 1336 1462 1591 1595 1464 1590 1711
8 1634 1507 1590 1711 1508 1374 1462 1591
8 1473 1341 1463 1594 1603 1477 1593 1716
8 1469 1337 1464 1595 1599 1473 1594 1717
8 1471 1597 1467 1335 1600 1718 1596 1470
8 1718 1600 1496 1616 1596 1470 1360 1488
8 1336 1468 1597 1471 1472 1598 1719 1601
8 1469 1337 1473 1599 1598 1472 1602 1720
8 1722 1604 1501 1623 1600 1474 1367 1496
8 1475 1601 1471 1339 1604 1722 1600 1474
8 1602 1476 1605 1723 1472 1340 1475 1601
8 1476 1602 1724 1606 1341 1473 1603 1477
8 1483 1347 1478 1609 1612 1482 1608 1731
8 1495 1370 1504 1622 1609 1478 1608 1731
8 1618 1495 1609 1732 1494 1361 1479 1610
8 1484 1348 1479 1610 1613 1483 1609 1732
8 1486 1349 1482 1612 1614 1485 1611 1733
8 1613 1483 1612 1734 1487 1350 1486 1615
8 1489 1363 1496 1616 1617 1499 1623 1736
8 1491 1365 1499 1617 1619 1500 1626 1737
8 1618 1495 1361 1494 1738 1622 1497 1621
8 1739 1625 1498 1620 1619 1500 1366 1492
8 1621 1497 1362 1493 1740 1624 1498 1620
8 1742 1631 1504 1622 1624 1505 1371 1497
8 1743 1628 1502 1626 1623 1501 1368 1499
8 1744 1630 1505 1624 1625 1503 1372 1498
8 1745 1629 1503 1625 1626 1502 1369 1500
8 1520 1398 1528 1644 1633 1506 1632 1751
8 1637 1520 1633 1752 1512 1388 1507 1634
8 1635 1519 1643 1753 1510 1391 1522 1636
8 1657 1535 1643 1753 1534 1406 1519 1635
8 1515 1392 1522 1636 1639 1523 1646 1754
8 1517 1389 1521 1641 1637 1520 1644 1755
8 1524 1638 1756 1648 1393 1514 1639 1523
8 1640 1526 1395 1516 1756 1648 1524 1638
8 1642 1525 1396 1518 1757 1649 1526 1640
8 1758 1645 1521 1641 1642 1525 1396 1518
8 1646 1531 1400 1522 1760 1650 1527 1643
8 1535 1407 1536 1658 1643 1527 1650 1760
8 1521 1399 1529 1645 1644 1528 1651 1761
8 1647 1530 1652 1762 1525 1404 1529 1645
8 1401 1523 1648 1532 1531 1646 1763 1655
8 1525 1404 1533 1649 1647 1530 1654 1765
8 1533 1649 1766 1656 1403 1526 1648 1532
8 1662 1542 1658 1774 1539 1414 1535 1657
8 1542 1415 1543 1664 1658 1536 1659 1775
8 1660 1540 1663 1777 1538 1413 1541 1661
8 1545 1421 1548 1666 1660 1540 1663 1777
8 1662 1542 1414 1539 1778 1664 1541 1661
8 1664 1543 1416 1541 1779 1665 1544 1663
8 1548 1425 1550 1668 1663 1544 1665 1779
8 1547 1423 1549 1667 1666 1548 1668 1781
8 1670 1551 1668 1781 1553 1427 1549 1667
8 1551 1426 1552 1671 1668 1550 1669 1782
8 1670 1551 1427 1553 1784 1671 1554 1674
8 1675 1555 1672 1785 1554 1428 1552 1671
8 1678 1556 1673 1789 1558 1429 1555 1675
8 1561 1431 1558 1681 1674 1554 1675 1790
8 1794 1677 1556 1678 1680 1557 1429 1558
8 1560 1430 1559 1683 1680 1557 1679 1797
8 1561 1431 1560 1684 1681 1558 1680 1798
8 1563 1433 1564 1686 1683 1559 1682 1800
8 1684 1560 1432 1562 1801 1683 1563 1685
8 1565 1435 1566 1688 1685 1563 1686 1802
8 1566 1436 1567 1689 1686 1564 1687 1803
8 1568 1438 1569 1691 1688 1566 1689 1805
8 1569 1439 1570 1692 1689 1567 1690 1806
8 1571 1441 1572 1694 1691 1569 1692 1808
8 1442 1572 1692 1570 1573 1695 1809 1693
8 1574 1444 1575 1696 1694 1572 1695 1810
8 1614 1485 1592 1712 1699 1577 1697 1813
8 1579 1449 1577 1699 1701 1578 1698 1815
8 1615 1486 1614 1735 1702 1579 1699 1816
8 1701 1578 1700 1818 1581 1450 1580 1704
8 1582 1451 1579 1702 1705 1581 1701 1819
8 1704 1580 1703 1820 1584 1452 1583 1706
8 1705 1581 1704 1821 1585 1453 1584 1707
8 1707 1584 1706 1822 1587 1456 1586 1708
8 1710 1589 1506 1633 1824 1709 1632 1751
8 1594 1463 1589 1710 1716 1593 1709 1824
8 1752 1633 1710 1825 1634 1507 1590 1711
8 1595 1464 1590 1711 1717 1594 1710 1825
8 1830 1714 1592 1712 1733 1611 1485 1614
8 1603 1477 1593 1716 1725 1607 1715 1834
8 1599 1473 1594 1717 1721 1603 1716 1835
8 1837 1722 1623 1736 1718 1600 1496 1616
8 1719 1601 1722 1837 1597 1471 1600 1718
8 1602 1720 1598 1472 1723 1838 1719 1601
8 1720 1602 1473 1599 1839 1724 1603 1721
8 1723 1605 1726 1840 1601 1475 1604 1722
8 1840 1726 1628 1743 1722 1604 1501 1623
8 1724 1606 1727 1841 1602 1476 1605 1723
8 1725 1607 1728 1842 1603 1477 1606 1724
8 1612 1482 1608 1731 1733 1611 1730 1849
8 1741 1627 1730 1849 1622 1504 1608 1731
8 1613 1483 1609 1732 1734 1612 1731 1850
8 1618 1495 1622 1738 1732 1609 1731 1850
8 1615 1486 1612 1734 1735 1614 1733 1851
8 1852 1743 1626 1737 1736 1623 1499 1617
8 1853 1745 1625 1739 1737 1626 1500 1619
8 1855 1742 1622 1738 1740 1624 1497 1621
8 1856 1744 1624 1740 1739 1625 1498 1620
8 1741 1627 1504 1622 1857 1746 1631 1742
8 1742 1631 1505 1624 1858 1749 1630 1744
8 1859 1747 1629 1745 1743 1628 1502 1626
8 1860 1748 1630 1744 1745 1629 1503 1625
8 1644 1528 1651 1761 1751 1632 1750 1865
8 1637 1520 1644 1755 1752 1633 1751 1866
8 1754 1646 1522 1636 1867 1760 1643 1753
8 1657 1535 1658 1774 1753 1643 1760 1867
8 1639 1523 1646 1754 1756 1648 1763 1868
8 1641 1521 1645 1758 1755 1644 1761 1869
8 1757 1649 1526 1640 1870 1766 1648 1756
8 1642 1525 1649 1757 1759 1647 1765 1871
8 1759 1647 1762 1872 1642 1525 1645 1758
8 1760 1650 1767 1874 1646 1531 1655 1763
8 1658 1536 1659 1775 1760 1650 1767 1874
8 1762 1652 1768 1875 1645 1529 1651 1761
8 1764 1653 1769 1876 1647 1530 1652 1762
8 1656 1766 1877 1773 1532 1648 1763 1655
8 1771 1879 1765 1654 1653 1764 1647 1530
8 1533 1649 1765 1654 1656 1766 1880 1772
8 1662 1542 1664 1778 1774 1658 1775 1887
8 1664 1543 1665 1779 1775 1659 1776 1888
8 1778 1664 1541 1661 1890 1779 1663 1777
8 1666 1548 1668 1781 1777 1663 1779 1890
8 1782 1669 1780 1891 1668 1550 1665 1779
8 1670 1551 1671 1784 1781 1668 1782 1893
8 1671 1552 1672 1785 1782 1669 1783 1894
8 1790 1675 1785 1896 1674 1554 1671 1784
8 1675 1555 1673 1789 1785 1672 1786 1897
8 1792 1676 1788 1903 1678 1556 1673 1789
8 1795 1678 1789 1904 1681 1558 1675 1790
8 1792 1676 1556 1678 1906 1791 1677 1794
8 1680 1557 1679 1797 1794 1677 1793 1909
8 1910 1794 1678 1795 1798 1680 1558 1681
8 1683 1559 1682 1800 1797 1679 1796 1912
8 1684 1560 1683 1801 1798 1680 1797 1913
8 1686 1564 1687 1803 1800 1682 1799 1915
8 1685 1563 1686 1802 1801 1683 1800 1916
8 1688 1566 1689 1805 1802 1686 1803 1917
8 1689 1567 1690 1806 1803 1687 1804 1918
8 1691 1569 1692 1808 1805 1689 1806 1920
8 1692 1570 1693 1809 1806 1690 1807 1921
8 1694 1572 1695 1810 1808 1692 1809 1922
8 1829 1713 1811 1926 1712 1592 1697 1813
8 1813 1697 1812 1928 1699 1577 1698 1815
8 1735 1614 1712 1828 1816 1699 1813 1929
8 1815 1698 1814 1931 1701 1578 1700 1818
8 1702 1579 1699 1816 1819 1701 1815 1932
8 1818 1700 1817 1933 1704 1580 1703 1820
8 1819 1701 1818 1934 1705 1581 1704 1821
8 1821 1704 1820 1935 1707 1584 1706 1822
8 1824 1709 1632 1751 1937 1823 1750 1865
8 1716 1593 1709 1824 1834 1715 1823 1937
8 1825 1710 1633 1752 1938 1824 1751 1866
8 1717 1594 1710 1825 1835 1716 1824 1938
8 1945 1830 1712 1828 1851 1733 1614 1735
8 1830 1714 1831 1946 1712 1592 1713 1829
8 1947 1832 1714 1830 1849 1730 1611 1733
8 1843 1729 1607 1725 1950 1833 1715 1834
8 1721 1603 1716 1835 1836 1725 1834 1951
8 1836 1725 1842 1953 1721 1603 1724 1839
8 1723 1838 1719 1601 1840 1954 1837 1722
8 1954 1840 1743 1852 1837 1722 1623 1736
8 1724 1839 1720 1602 1841 1955 1838 1723
8 1841 1727 1844 1956 1723 1605 1726 1840
8 1956 1844 1747 1859 1840 1726 1628 1743
8 1728 1842 1724 1606 1845 1957 1841 1727
8 1725 1607 1729 1843 1842 1728 1846 1958
8 1741 1627 1746 1857 1849 1730 1848 1965
8 1734 1612 1731 1850 1851 1733 1849 1966
8 1854 1741 1849 1966 1738 1622 1731 1850
8 1967 1859 1745 1853 1852 1743 1626 1737
8 1968 1860 1744 1856 1853 1745 1625 1739
8 1854 1741 1622 1738 1969 1857 1742 1855
8 1855 1742 1624 1740 1970 1858 1744 1856
8 1857 1746 1631 1742 1971 1861 1749 1858
8 1858 1749 1630 1744 1972 1863 1748 1860
8 1859 1747 1862 1973 1745 1629 1748 1860
8 1875 1768 1864 1977 1761 1651 1750 1865
8 1755 1644 1761 1869 1866 1751 1865 1978
8 1867 1760 1874 1979 1754 1646 1763 1868
8 1774 1658 1775 1887 1867 1760 1874 1979
8 1870 1766 1648 1756 1980 1877 1763 1868
8 1872 1762 1875 1981 1758 1645 1761 1869
8 1757 1649 1766 1870 1871 1765 1880 1982
8 1983 1879 1764 1873 1871 1765 1647 1759
8 1873 1764 1876 1984 1759 1647 1762 1872
8 1877 1773 1655 1763 1986 1881 1767 1874
8 1775 1659 1776 1888 1874 1767 1881 1986
8 1876 1769 1882 1987 1762 1652 1768 1875
8 1878 1770 1883 1988 1764 1653 1769 1876
8 1880 1772 1656 1766 1989 1886 1773 1877
8 1878 1770 1653 1764 1990 1884 1771 1879
8 1765 1654 1772 1880 1879 1771 1885 1991
8 1778 1664 1779 1890 1887 1775 1888 1997
8 1998 1889 1776 1888 1891 1780 1665 1779
8 1893 1782 1891 2000 1781 1668 1779 1890
8 1894 1783 1892 2001 1782 1669 1780 1891
8 1784 1671 1785 1896 1893 1782 1894 2003
8 1897 1786 1895 2004 1785 1672 1783 1894
8 1790 1675 1789 1904 1896 1785 1897 2006
8 1901 1787 1898 2007 1789 1673 1786 1897
8 1903 1788 1900 2013 1789 1673 1787 1901
8 1792 1676 1791 1906 1903 1788 1902 2016
8 1907 1792 1903 2017 1795 1678 1789 1904
8 1906 1791 1677 1794 2019 1905 1793 1909
8 1907 1792 1678 1795 2020 1906 1794 1910
8 1797 1679 1796 1912 1909 1793 1908 2022
8 1798 1680 1797 1913 1910 1794 1909 2023
8 1800 1682 1799 1915 1912 1796 1911 2025
8 1801 1683 1800 1916 1913 1797 1912 2026
8 1803 1687 1804 1918 1915 1799 1914 2028
8 1802 1686 1803 1917 1916 1800 1915 2029
8 1805 1689 1806 1920 1917 1803 1918 2030
8 1806 1690 1807 1921 1918 1804 1919 2031
8 1808 1692 1809 1922 1920 1806 1921 2032
8 1939 1826 1924 2037 1829 1713 1811 1926
8 1926 1811 1925 2039 1813 1697 1812 1928
8 1944 1829 1926 2040 1828 1712 1813 1929
8 1928 1812 1927 2042 1815 1698 1814 1931
8 1929 1813 1928 2043 1816 1699 1815 1932
8 1931 1814 1930 2044 1818 1700 1817 1933
8 1932 1815 1931 2045 1819 1701 1818 1934
8 1934 1818 1933 2046 1821 1704 1820 1935
8 2048 1936 1823 1937 1977 1864 1750 1865
8 1950 1833 1715 1834 2048 1936 1823 1937
8 1938 1824 1751 1866 2049 1937 1865 1978
8 1835 1716 1824 1938 1951 1834 1937 2049
8 1939 1826 1713 1829 2053 1942 1831 1946
8 1940 1827 1923 2035 2053 1942 1826 1939
8 1945 1830 1946 2058 1828 1712 1829 1944
8 2059 1947 1830 1945 1966 1849 1733 1851
8 1947 1832 1730 1849 2060 1948 1848 1965
8 1947 1832 1948 2060 1830 1714 1831 1946
8 1959 1847 1729 1843 2063 1949 1833 1950
8 1952 1843 1725 1836 2064 1950 1834 1951
8 1836 1725 1843 1952 1953 1842 1958 2066
8 1953 1842 1957 2067 1839 1724 1841 1955
8 1841 1955 1838 1723 1956 2068 1954 1840
8 2068 1956 1859 1967 1954 1840 1743 1852
8 1956 1844 1960 2069 1859 1747 1862 1973
8 1845 1957 1841 1727 1960 2069 1956 1844
8 1728 1842 1957 1845 1846 1958 2071 1961
8 1962 2072 1959 1847 1846 1958 1843 1729
8 1971 1861 1964 2077 1857 1746 1848 1965
8 1854 1741 1857 1969 1966 1849 1965 2078
8 1967 1859 1973 2079 1853 1745 1860 1968
8 1970 1858 1744 1856 2080 1972 1860 1968
8 1969 1857 1742 1855 2081 1971 1858 1970
8 1971 1861 1749 1858 2082 1974 1863 1972
8 1973 1862 1975 2083 1860 1748 1863 1972
8 1987 1882 1976 2086 1875 1768 1864 1977
8 1981 1875 1977 2087 1869 1761 1865 1978
8 1980 1877 1763 1868 2088 1986 1874 1979
8 1887 1775 1888 1997 1979 1874 1986 2088
8 1880 1982 2089 1989 1766 1870 1980 1877
8 1984 1876 1987 2090 1872 1762 1875 1981
8 1765 1871 1983 1879 1880 1982 2091 1991
8 1985 1878 1764 1873 2092 1990 1879 1983
8 1985 1878 1988 2093 1873 1764 1876 1984
8 2094 1992 1881 1986 1998 1889 1776 1888
8 1986 1881 1992 2094 1877 1773 1886 1989
8 1988 1883 1993 2095 1876 1769 1882 1987
8 1878 1770 1884 1990 1988 1883 1994 2096
8 1991 1885 1772 1880 2097 1996 1886 1989
8 1879 1771 1885 1991 1990 1884 1995 2098
8 2103 1998 1888 1997 2000 1891 1779 1890
8 2104 1999 1889 1998 2001 1892 1780 1891
8 2003 1894 2001 2106 1893 1782 1891 2000
8 2004 1895 2002 2107 1894 1783 1892 2001
8 2006 1897 2004 2109 1896 1785 1894 2003
8 2007 1898 2005 2110 1897 1786 1895 2004
8 2014 1901 2007 2112 1904 1789 1897 2006
8 2011 1899 2008 2113 1901 1787 1898 2007
8 2119 2010 1899 2011 2013 1900 1787 1901
8 2016 1902 2012 2122 1903 1788 1900 2013
8 2017 1903 2013 2123 1904 1789 1901 2014
8 1906 1791 1905 2019 2016 1902 2015 2125
8 1907 1792 1906 2020 2017 1903 2016 2126
8 1909 1793 1908 2022 2019 1905 2018 2128
8 2020 1906 1794 1910 2129 2019 1909 2023
8 1912 1796 1911 2025 2022 1908 2021 2131
8 1913 1797 1912 2026 2023 1909 2022 2132
8 1915 1799 1914 2028 2025 1911 2024 2134
8 1916 1800 1915 2029 2026 1912 2025 2135
8 1918 1804 1919 2031 2028 1914 2027 2136
8 1917 1803 1918 2030 2029 1915 2028 2137
8 1920 1806 1921 2032 2030 1918 2031 2138
8 1940 1827 1941 2054 2035 1923 2033 2140
8 2035 1923 2034 2143 1939 1826 1924 2037
8 2037 1924 2036 2146 1926 1811 1925 2039
8 2051 1939 2037 2147 1944 1829 1926 2040
8 2039 1925 2038 2149 1928 1812 1927 2042
8 2040 1926 2039 2150 1929 1813 1928 2043
8 2042 1927 2041 2151 1931 1814 1930 2044
8 2043 1928 2042 2152 1932 1815 1931 2045
8 2045 1931 2044 2153 1934 1818 1933 2046
8 2155 2047 1936 2048 2086 1976 1864 1977
8 2063 1949 1833 1950 2155 2047 1936 2048
8 2156 2048 1937 2049 2087 1977 1865 1978
8 2064 1950 1834 1951 2156 2048 1937 2049
8 2051 1939 1829 1944 2160 2053 1946 2058
8 2052 1940 2035 2144 2160 2053 1939 2051
8 2053 1942 1831 1946 2163 2057 1948 2060
8 2055 1943 1827 1940 2163 2057 1942 2053
8 2055 1943 2056 2164 1940 1827 1941 2054
8 2059 1947 1849 1966 2167 2060 1965 2078
8 2059 1947 2060 2167 1945 1830 1946 2058
8 2077 1964 2061 2168 1965 1848 1948 2060
8 2070 1963 1847 1959 2170 2062 1949 2063
8 2065 1959 1843 1952 2171 2063 1950 2064
8 2173 2072 1958 2066 2065 1959 1843 1952
8 1953 1842 1958 2066 2067 1957 2071 2174
8 2068 1956 2069 2175 1967 1859 1973 2079
8 2067 1957 2069 2175 1955 1841 1956 2068
8 1845 1957 2069 1960 1961 2071 2176 2073
8 2069 1960 2073 2176 1973 1862 1975 2083
8 2070 1963 2075 2177 1959 1847 1962 2072
8 1846 1958 2071 1961 1962 2072 2178 2074
8 2077 1964 1861 1971 2182 2076 1974 2082
8 2081 1971 2077 2183 1969 1857 1965 2078
8 2079 1973 2083 2184 1968 1860 1972 2080
8 2081 1971 1858 1970 2185 2082 1972 2080
8 2083 1975 2084 2186 1972 1863 1974 2082
8 2086 1976 1882 1987 2189 2085 1993 2095
8 2090 1987 2086 2190 1981 1875 1977 2087
8 2191 2094 1986 2088 2103 1998 1888 1997
8 2088 1986 2094 2191 1980 1877 1989 2089
8 1991 2091 2192 2097 1880 1982 2089 1989
8 2093 1988 2095 2193 1984 1876 1987 2090
8 1879 1983 2092 1990 1991 2091 2194 2098
8 1985 1878 1990 2092 2093 1988 2096 2195
8 2097 1996 1886 1989 2196 2099 1992 2094
8 2196 2099 1992 2094 2104 1999 1889 1998
8 1994 2096 1988 1883 2100 2197 2095 1993
8 2096 1994 1884 1990 2198 2101 1995 2098
8 1995 2098 2199 2102 1885 1991 2097 1996
8 2203 2104 1998 2103 2106 2001 1891 2000
8 2107 2002 2105 2204 2001 1892 1999 2104
8 2109 2004 2107 2206 2003 1894 2001 2106
8 2110 2005 2108 2207 2004 1895 2002 2107
8 2112 2007 2110 2209 2006 1897 2004 2109
8 2113 2008 2111 2210 2007 1898 2005 2110
8 2120 2011 2113 2212 2014 1901 2007 2112
8 2117 2009 2114 2213 2011 1899 2008 2113
8 2219 2116 2009 2117 2119 2010 1899 2011
8 2222 2118 2010 2119 2122 2012 1900 2013
8 2223 2119 2011 2120 2123 2013 1901 2014
8 2016 1902 2015 2125 2122 2012 2121 2225
8 2126 2016 2122 2226 2017 1903 2013 2123
8 2019 1905 2018 2128 2125 2015 2124 2228
8 2020 1906 2019 2129 2126 2016 2125 2229
8 2022 1908 2021 2131 2128 2018 2127 2231
8 2023 1909 2022 2132 2129 2019 2128 2232
8 2025 1911 2024 2134 2131 2021 2130 2234
8 2026 1912 2025 2135 2132 2022 2131 2235
8 1914 2028 2134 2024 2027 2136 2236 2133
8 2029 1915 2028 2137 2135 2025 2134 2237
8 2030 1918 2031 2138 2137 2028 2136 2238
8 2157 2050 2139 2240 2054 1941 2033 2140
8 2052 1940 2054 2161 2144 2035 2140 2242
8 2140 2033 2141 2243 2035 1923 2034 2143
8 2143 2034 2142 2246 2037 1924 2036 2146
8 2144 2035 2143 2247 2051 1939 2037 2147
8 2146 2036 2145 2249 2039 1925 2038 2149
8 2147 2037 2146 2250 2040 1926 2039 2150
8 2149 2038 2148 2251 2042 1927 2041 2151
8 2150 2039 2149 2252 2043 1928 2042 2152
8 2152 2042 2151 2253 2045 1931 2044 2153
8 2255 2154 2047 2155 2189 2085 1976 2086
8 2170 2062 1949 2063 2255 2154 2047 2155
8 2256 2155 2048 2156 2190 2086 1977 2087
8 2171 2063 1950 2064 2256 2155 2048 2156
8 2258 2159 2050 2157 2164 2056 1941 2054
8 2160 2053 1946 2058 2262 2163 2060 2167
8 2162 2055 1940 2052 2262 2163 2053 2160
8 2162 2055 2164 2263 2052 1940 2054 2161
8 2163 2057 1948 2060 2264 2165 2061 2168
8 2055 1943 2057 2163 2164 2056 2165 2264
8 2182 2076 2166 2268 2077 1964 2061 2168
8 2183 2077 2168 2269 2078 1965 2060 2167
8 2070 1963 2062 2170 2177 2075 2169 2271
8 2172 2070 1959 2065 2272 2170 2063 2171
8 2172 2070 2177 2273 2065 1959 2072 2173
8 2066 1958 2072 2173 2174 2071 2178 2274
8 2067 1957 2071 2174 2175 2069 2176 2275
8 2175 2069 2176 2275 2079 1973 2083 2184
8 2071 1961 2074 2178 2176 2073 2179 2276
8 2176 2073 2179 2276 2083 1975 2084 2186
8 2072 1962 2075 2177 2178 2074 2180 2277
8 2182 2076 1974 2082 2280 2181 2084 2186
8 2183 2077 1971 2081 2281 2182 2082 2185
8 2184 2083 2186 2282 2080 1972 2082 2185
8 2189 2085 1993 2095 2285 2188 2100 2197
8 2190 2086 1987 2090 2286 2189 2095 2193
8 2192 2097 1989 2089 2287 2196 2094 2191
8 2287 2196 2094 2191 2203 2104 1998 2103
8 2194 2098 1991 2091 2288 2199 2097 2192
8 2195 2096 2197 2289 2093 1988 2095 2193
8 2096 2195 2290 2198 1990 2092 2194 2098
8 2097 1996 2099 2196 2199 2102 2200 2291
8 2196 2099 1999 2104 2291 2200 2105 2204
8 2100 2197 2292 2201 1994 2096 2198 2101
8 1995 2098 2198 2101 2102 2199 2293 2202
8 2206 2107 2204 2296 2106 2001 2104 2203
8 2207 2108 2205 2297 2107 2002 2105 2204
8 2209 2110 2207 2299 2109 2004 2107 2206
8 2210 2111 2208 2300 2110 2005 2108 2207
8 2212 2113 2210 2302 2112 2007 2110 2209
8 2213 2114 2211 2303 2113 2008 2111 2210
8 2220 2117 2213 2305 2120 2011 2113 2212
8 2216 2115 2214 2306 2117 2009 2114 2213
8 2216 2115 2009 2117 2311 2217 2116 2219
8 2219 2116 2010 2119 2314 2218 2118 2222
8 2315 2219 2117 2220 2223 2119 2011 2120
8 2122 2012 2121 2225 2222 2118 2221 2317
8 2318 2222 2119 2223 2226 2122 2013 2123
8 2125 2015 2124 2228 2225 2121 2224 2320
8 2126 2016 2125 2229 2226 2122 2225 2321
8 2128 2018 2127 2231 2228 2124 2227 2323
8 2129 2019 2128 2232 2229 2125 2228 2324
8 2131 2021 2130 2234 2231 2127 2230 2326
8 2132 2022 2131 2235 2232 2128 2231 2327
8 2134 2024 2133 2236 2234 2130 2233 2328
8 2135 2025 2134 2237 2235 2131 2234 2329
8 2137 2028 2136 2238 2237 2134 2236 2330
8 2157 2050 2158 2259 2240 2139 2239 2332
8 2257 2157 2240 2334 2161 2054 2140 2242
8 2240 2139 2241 2335 2140 2033 2141 2243
8 2242 2140 2243 2337 2144 2035 2143 2247
8 2243 2141 2244 2338 2143 2034 2142 2246
8 2246 2142 2245 2341 2146 2036 2145 2249
8 2247 2143 2246 2342 2147 2037 2146 2250
8 2249 2145 2248 2343 2149 2038 2148 2251
8 2250 2146 2249 2344 2150 2039 2149 2252
8 2252 2149 2251 2345 2152 2042 2151 2253
8 2169 2271 2347 2254 2062 2170 2255 2154
8 2189 2085 2188 2285 2255 2154 2254 2347
8 2348 2255 2155 2256 2286 2189 2086 2190
8 2272 2170 2063 2171 2348 2255 2155 2256
8 2349 2258 2157 2257 2263 2164 2054 2161
8 2258 2159 2261 2351 2157 2050 2158 2259
8 2258 2159 2056 2164 2351 2261 2165 2264
8 2262 2163 2060 2167 2355 2264 2168 2269
8 2162 2055 2163 2262 2263 2164 2264 2355
8 2357 2266 2165 2264 2268 2166 2061 2168
8 2268 2166 2076 2182 2361 2267 2181 2280
8 2281 2182 2268 2362 2183 2077 2168 2269
8 2271 2169 2270 2364 2177 2075 2180 2277
8 2172 2070 2170 2272 2273 2177 2271 2365
8 2072 2173 2274 2178 2177 2273 2366 2277
8 2071 2174 2275 2176 2178 2274 2367 2276
8 2275 2176 2276 2367 2184 2083 2186 2282
8 2283 2187 2084 2186 2368 2278 2179 2276
8 2178 2074 2180 2277 2276 2179 2278 2368
8 2283 2187 2279 2370 2186 2084 2181 2280
8 2281 2182 2082 2185 2371 2280 2186 2282
8 2188 2285 2374 2284 2100 2197 2292 2201
8 2286 2189 2095 2193 2375 2285 2197 2289
8 2192 2097 2196 2287 2288 2199 2291 2376
8 2287 2196 2104 2203 2376 2291 2204 2296
8 2194 2098 2199 2288 2290 2198 2293 2377
8 2289 2197 2096 2195 2378 2292 2198 2290
8 2291 2200 2105 2204 2379 2294 2205 2297
8 2199 2102 2200 2291 2293 2202 2294 2379
8 2198 2101 2202 2293 2292 2201 2295 2380
8 2299 2207 2297 2383 2206 2107 2204 2296
8 2300 2208 2298 2384 2207 2108 2205 2297
8 2302 2210 2300 2386 2209 2110 2207 2299
8 2303 2211 2301 2387 2210 2111 2208 2300
8 2305 2213 2303 2389 2212 2113 2210 2302
8 2306 2214 2304 2390 2213 2114 2211 2303
8 2310 2216 2306 2392 2220 2117 2213 2305
8 2308 2215 2307 2393 2216 2115 2214 2306
8 2308 2215 2115 2216 2396 2309 2217 2311
8 2310 2216 2117 2220 2398 2311 2219 2315
8 2311 2217 2116 2219 2399 2312 2218 2314
8 2314 2218 2118 2222 2402 2313 2221 2317
8 2315 2219 2119 2223 2403 2314 2222 2318
8 2225 2121 2224 2320 2317 2221 2316 2405
8 2226 2122 2225 2321 2318 2222 2317 2406
8 2228 2124 2227 2323 2320 2224 2319 2408
8 2229 2125 2228 2324 2321 2225 2320 2409
8 2231 2127 2230 2326 2323 2227 2322 2411
8 2232 2128 2231 2327 2324 2228 2323 2412
8 2234 2130 2233 2328 2326 2230 2325 2413
8 2235 2131 2234 2329 2327 2231 2326 2414
8 2237 2134 2236 2330 2329 2234 2328 2415
8 2259 2158 2260 2352 2332 2239 2331 2417
8 2257 2157 2259 2350 2334 2240 2332 2419
8 2240 2139 2239 2332 2335 2241 2333 2420
8 2334 2240 2335 2422 2242 2140 2243 2337
8 2335 2241 2336 2423 2243 2141 2244 2338
8 2337 2243 2338 2425 2247 2143 2246 2342
8 2338 2244 2339 2426 2246 2142 2245 2341
8 2341 2245 2340 2428 2249 2145 2248 2343
8 2342 2246 2341 2429 2250 2146 2249 2344
8 2344 2249 2343 2430 2252 2149 2251 2345
8 2188 2285 2347 2254 2284 2374 2432 2346
8 2347 2254 2346 2432 2271 2169 2270 2364
8 2365 2271 2170 2272 2433 2347 2255 2348
8 2286 2189 2285 2375 2348 2255 2347 2433
8 2349 2258 2351 2435 2257 2157 2259 2350
8 2349 2258 2164 2263 2435 2351 2264 2355
8 2259 2158 2261 2351 2352 2260 2354 2437
8 2356 2265 2354 2437 2264 2165 2261 2351
8 2441 2357 2264 2355 2362 2268 2168 2269
8 2356 2265 2165 2264 2442 2358 2266 2357
8 2443 2359 2266 2357 2361 2267 2166 2268
8 2370 2279 2360 2446 2280 2181 2267 2361
8 2362 2268 2182 2281 2447 2361 2280 2371
8 2180 2277 2368 2278 2270 2364 2449 2363
8 2271 2365 2273 2177 2364 2450 2366 2277
8 2372 2283 2186 2282 2451 2368 2276 2367
8 2178 2274 2367 2276 2277 2366 2451 2368
8 2283 2187 2278 2368 2370 2279 2369 2452
8 2372 2283 2370 2453 2282 2186 2280 2371
8 2284 2374 2455 2373 2201 2292 2380 2295
8 2375 2285 2197 2289 2456 2374 2292 2378
8 2376 2291 2204 2296 2457 2379 2297 2383
8 2288 2199 2291 2376 2377 2293 2379 2457
8 2198 2290 2378 2292 2293 2377 2458 2380
8 2293 2202 2294 2379 2380 2295 2381 2459
8 2384 2298 2381 2459 2297 2205 2294 2379
8 2386 2300 2384 2463 2299 2207 2297 2383
8 2387 2301 2385 2464 2300 2208 2298 2384
8 2389 2303 2387 2466 2302 2210 2300 2386
8 2390 2304 2388 2467 2303 2211 2301 2387
8 2392 2306 2390 2469 2305 2213 2303 2389
8 2393 2307 2391 2470 2306 2214 2304 2390
8 2395 2308 2393 2472 2310 2216 2306 2392
8 2308 2215 2309 2396 2393 2307 2394 2473
8 2395 2308 2216 2310 2475 2396 2311 2398
8 2396 2309 2217 2311 2476 2397 2312 2399
8 2398 2311 2219 2315 2478 2399 2314 2403
8 2399 2312 2218 2314 2479 2400 2313 2402
8 2317 2221 2316 2405 2402 2313 2401 2482
8 2403 2314 2222 2318 2483 2402 2317 2406
8 2320 2224 2319 2408 2405 2316 2404 2485
8 2321 2225 2320 2409 2406 2317 2405 2486
8 2323 2227 2322 2411 2408 2319 2407 2488
8 2324 2228 2323 2412 2409 2320 2408 2489
8 2326 2230 2325 2413 2411 2322 2410 2490
8 2327 2231 2326 2414 2412 2323 2411 2491
8 2329 2234 2328 2415 2414 2326 2413 2492
8 2417 2331 2260 2352 2494 2416 2353 2438
8 2350 2259 2352 2436 2419 2332 2417 2496
8 2332 2239 2331 2417 2420 2333 2418 2497
8 2334 2240 2332 2419 2422 2335 2420 2499
8 2420 2333 2421 2500 2335 2241 2336 2423
8 2422 2335 2423 2502 2337 2243 2338 2425
8 2423 2336 2424 2503 2338 2244 2339 2426
8 2425 2338 2426 2505 2342 2246 2341 2429
8 2426 2339 2427 2506 2341 2245 2340 2428
8 2429 2341 2428 2507 2344 2249 2343 2430
8 2432 2346 2284 2374 2509 2431 2373 2455
8 2432 2346 2431 2509 2364 2270 2363 2449
8 2375 2285 2374 2456 2433 2347 2432 2510
8 2347 2433 2365 2271 2432 2510 2450 2364
8 2350 2259 2351 2435 2436 2352 2437 2514
8 2440 2356 2437 2514 2355 2264 2351 2435
8 2352 2260 2354 2437 2438 2353 2439 2516
8 2356 2265 2358 2442 2437 2354 2439 2516
8 2440 2356 2264 2355 2518 2442 2357 2441
8 2519 2443 2357 2441 2447 2361 2268 2362
8 2443 2359 2444 2520 2357 2266 2358 2442
8 2443 2359 2267 2361 2520 2444 2360 2446
8 2446 2360 2279 2370 2523 2445 2369 2452
8 2453 2370 2446 2524 2371 2280 2361 2447
8 2449 2363 2448 2525 2368 2278 2369 2452
8 2366 2277 2364 2450 2451 2368 2449 2526
8 2372 2283 2368 2451 2453 2370 2452 2527
8 2455 2373 2295 2380 2529 2454 2382 2460
8 2456 2374 2292 2378 2530 2455 2380 2458
8 2377 2293 2379 2457 2458 2380 2459 2531
8 2463 2384 2459 2531 2383 2297 2379 2457
8 2533 2461 2382 2460 2459 2381 2295 2380
8 2464 2385 2461 2533 2384 2298 2381 2459
8 2466 2387 2464 2537 2386 2300 2384 2463
8 2467 2388 2465 2538 2387 2301 2385 2464
8 2469 2390 2467 2540 2389 2303 2387 2466
8 2470 2391 2468 2541 2390 2304 2388 2467
8 2472 2393 2470 2543 2392 2306 2390 2469
8 2393 2307 2394 2473 2470 2391 2471 2544
8 2395 2308 2396 2475 2472 2393 2473 2546
8 2396 2309 2397 2476 2473 2394 2474 2547
8 2475 2396 2311 2398 2549 2476 2399 2478
8 2476 2397 2312 2399 2550 2477 2400 2479
8 2478 2399 2314 2403 2552 2479 2402 2483
8 2479 2400 2313 2402 2553 2480 2401 2482
8 2405 2316 2404 2485 2482 2401 2481 2556
8 2406 2317 2405 2486 2483 2402 2482 2557
8 2408 2319 2407 2488 2485 2404 2484 2559
8 2409 2320 2408 2489 2486 2405 2485 2560
8 2411 2322 2410 2490 2488 2407 2487 2561
8 2412 2323 2411 2491 2489 2408 2488 2562
8 2414 2326 2413 2492 2491 2411 2490 2563
8 2513 2434 2493 2565 2438 2353 2416 2494
8 2496 2417 2352 2436 2567 2494 2438 2515
8 2494 2416 2495 2568 2417 2331 2418 2497
8 2419 2332 2417 2496 2499 2420 2497 2570
8 2497 2418 2498 2571 2420 2333 2421 2500
8 2499 2420 2500 2573 2422 2335 2423 2502
8 2500 2421 2501 2574 2423 2336 2424 2503
8 2502 2423 2503 2576 2425 2338 2426 2505
8 2503 2424 2504 2577 2426 2339 2427 2506
8 2505 2426 2506 2578 2429 2341 2428 2507
8 2509 2431 2373 2455 2580 2508 2454 2529
8 2509 2431 2508 2580 2449 2363 2448 2525
8 2432 2510 2581 2509 2374 2456 2530 2455
8 2432 2510 2450 2364 2509 2581 2526 2449
8 2583 2511 2434 2513 2516 2439 2353 2438
8 2436 2352 2437 2514 2515 2438 2516 2588
8 2440 2356 2442 2518 2514 2437 2516 2588
8 2442 2358 2444 2520 2516 2439 2517 2589
8 2519 2443 2520 2591 2441 2357 2442 2518
8 2519 2443 2361 2447 2591 2520 2446 2524
8 2446 2360 2445 2523 2520 2444 2521 2592
8 2525 2448 2522 2593 2452 2369 2445 2523
8 2524 2446 2370 2453 2594 2523 2452 2527
8 2526 2449 2525 2595 2451 2368 2452 2527
8 2534 2462 2528 2597 2460 2382 2454 2529
8 2530 2455 2380 2458 2598 2529 2460 2532
8 2599 2533 2460 2532 2531 2459 2380 2458
8 2537 2464 2533 2599 2463 2384 2459 2531
8 2534 2462 2382 2460 2601 2535 2461 2533
8 2538 2465 2535 2601 2464 2385 2461 2533
8 2540 2467 2538 2604 2466 2387 2464 2537
8 2541 2468 2539 2605 2467 2388 2465 2538
8 2543 2470 2541 2607 2469 2390 2467 2540
8 2470 2391 2471 2544 2541 2468 2542 2608
8 2472 2393 2473 2546 2543 2470 2544 2610
8 2473 2394 2474 2547 2544 2471 2545 2611
8 2475 2396 2476 2549 2546 2473 2547 2613
8 2476 2397 2477 2550 2547 2474 2548 2614
8 2549 2476 2399 2478 2616 2550 2479 2552
8 2479 2400 2480 2553 2550 2477 2551 2617
8 2552 2479 2402 2483 2619 2553 2482 2557
8 2482 2401 2481 2556 2553 2480 2554 2620
8 2485 2404 2484 2559 2556 2481 2555 2623
8 2486 2405 2485 2560 2557 2482 2556 2624
8 2488 2407 2487 2561 2559 2484 2558 2625
8 2489 2408 2488 2562 2560 2485 2559 2626
8 2491 2411 2490 2563 2562 2488 2561 2627
8 2513 2434 2512 2585 2565 2493 2564 2630
8 2586 2513 2565 2632 2515 2438 2494 2567
8 2565 2493 2566 2633 2494 2416 2495 2568
8 2567 2494 2568 2635 2496 2417 2497 2570
8 2568 2495 2569 2636 2497 2418 2498 2571
8 2570 2497 2571 2638 2499 2420 2500 2573
8 2571 2498 2572 2639 2500 2421 2501 2574
8 2573 2500 2574 2641 2502 2423 2503 2576
8 2574 2501 2575 2642 2503 2424 2504 2577
8 2576 2503 2577 2643 2505 2426 2506 2578
8 2597 2528 2579 2645 2529 2454 2508 2580
8 2580 2508 2579 2645 2525 2448 2522 2593
8 2581 2509 2455 2530 2646 2580 2529 2598
8 2581 2509 2580 2646 2526 2449 2525 2595
8 2583 2511 2582 2648 2513 2434 2512 2585
8 2583 2511 2439 2516 2648 2582 2517 2589
8 2649 2583 2513 2586 2588 2516 2438 2515
8 2589 2517 2444 2520 2653 2587 2521 2592
8 2518 2442 2520 2591 2588 2516 2589 2654
8 2593 2522 2590 2655 2523 2445 2521 2592
8 2524 2446 2523 2594 2591 2520 2592 2656
8 2595 2525 2593 2657 2527 2452 2523 2594
8 2602 2536 2596 2659 2534 2462 2528 2597
8 2600 2534 2597 2660 2532 2460 2529 2598
8 2600 2534 2460 2532 2661 2601 2533 2599
8 2604 2538 2601 2661 2537 2464 2533 2599
8 2602 2536 2462 2534 2663 2603 2535 2601
8 2601 2535 2465 2538 2663 2603 2539 2605
8 2607 2541 2605 2665 2540 2467 2538 2604
8 2608 2542 2606 2666 2541 2468 2539 2605
8 2543 2470 2544 2610 2607 2541 2608 2668
8 2544 2471 2545 2611 2608 2542 2609 2669
8 2546 2473 2547 2613 2610 2544 2611 2671
8 2547 2474 2548 2614 2611 2545 2612 2672
8 2549 2476 2550 2616 2613 2547 2614 2674
8 2550 2477 2551 2617 2614 2548 2615 2675
8 2552 2479 2553 2619 2616 2550 2617 2677
8 2553 2480 2554 2620 2617 2551 2618 2678
8 2557 2482 2556 2624 2619 2553 2620 2680
8 2556 2481 2555 2623 2620 2554 2621 2681
8 2559 2484 2558 2625 2623 2555 2622 2683
8 2560 2485 2559 2626 2624 2556 2623 2684
8 2562 2488 2561 2627 2626 2559 2625 2685
8 2690 2629 2564 2630 2650 2584 2512 2585
8 2586 2513 2585 2651 2632 2565 2630 2691
8 2630 2564 2631 2692 2565 2493 2566 2633
8 2632 2565 2633 2694 2567 2494 2568 2635
8 2633 2566 2634 2695 2568 2495 2569 2636
8 2635 2568 2636 2697 2570 2497 2571 2638
8 2636 2569 2637 2698 2571 2498 2572 2639
8 2638 2571 2639 2700 2573 2500 2574 2641
8 2639 2572 2640 2701 2574 2501 2575 2642
8 2641 2574 2642 2702 2576 2503 2577 2643
8 2597 2528 2596 2659 2645 2579 2644 2704
8 2645 2579 2644 2704 2593 2522 2590 2655
8 2660 2597 2645 2705 2598 2529 2580 2646
8 2646 2580 2645 2705 2595 2525 2593 2657
8 2650 2584 2512 2585 2707 2647 2582 2648
8 2648 2582 2517 2589 2707 2647 2587 2653
8 2649 2583 2648 2708 2586 2513 2585 2651
8 2649 2583 2516 2588 2708 2648 2589 2654
8 2655 2590 2652 2710 2592 2521 2587 2653
8 2654 2589 2520 2591 2711 2653 2592 2656
8 2657 2593 2655 2712 2594 2523 2592 2656
8 2602 2536 2603 2663 2659 2596 2658 2714
8 2662 2602 2659 2715 2600 2534 2597 2660
8 2662 2602 2534 2600 2717 2663 2601 2661
8 2661 2601 2538 2604 2717 2663 2605 2665
8 2666 2606 2664 2718 2605 2539 2603 2663
8 2668 2608 2666 2720 2607 2541 2605 2665
8 2608 2542 2609 2669 2666 2606 2667 2721
8 2610 2544 2611 2671 2668 2608 2669 2723
8 2611 2545 2612 2672 2669 2609 2670 2724
8 2613 2547 2614 2674 2671 2611 2672 2726
8 2614 2548 2615 2675 2672 2612 2673 2727
8 2616 2550 2617 2677 2674 2614 2675 2729
8 2617 2551 2618 2678 2675 2615 2676 2730
8 2619 2553 2620 2680 2677 2617 2678 2732
8 2620 2554 2621 2681 2678 2618 2679 2733
8 2624 2556 2623 2684 2680 2620 2681 2735
8 2681 2621 2555 2623 2736 2682 2622 2683
8 2626 2559 2625 2685 2684 2623 2683 2737
8 2688 2628 2584 2650 2740 2686 2647 2707
8 2688 2628 2687 2742 2650 2584 2629 2690
8 2690 2629 2689 2745 2630 2564 2631 2692
8 2746 2690 2630 2691 2709 2650 2585 2651
8 2691 2630 2692 2747 2632 2565 2633 2694
8 2692 2631 2693 2748 2633 2566 2634 2695
8 2694 2633 2695 2750 2635 2568 2636 2697
8 2695 2634 2696 2751 2636 2569 2637 2698
8 2697 2636 2698 2753 2638 2571 2639 2700
8 2698 2637 2699 2754 2639 2572 2640 2701
8 2700 2639 2701 2755 2641 2574 2642 2702
8 2659 2596 2658 2714 2704 2644 2703 2757
8 2704 2644 2703 2757 2655 2590 2652 2710
8 2660 2597 2659 2715 2705 2645 2704 2758
8 2705 2645 2704 2758 2657 2593 2655 2712
8 2759 2706 2647 2707 2710 2652 2587 2653
8 2709 2650 2585 2651 2760 2707 2648 2708
8 2708 2648 2589 2654 2760 2707 2653 2711
8 2712 2655 2710 2761 2656 2592 2653 2711
8 2763 2713 2658 2714 2718 2664 2603 2663
8 2662 2602 2663 2717 2715 2659 2714 2764
8 2720 2666 2718 2767 2665 2605 2663 2717
8 2768 2719 2664 2718 2721 2667 2606 2666
8 2668 2608 2669 2723 2720 2666 2721 2770
8 2669 2609 2670 2724 2721 2667 2722 2771
8 2671 2611 2672 2726 2723 2669 2724 2773
8 2672 2612 2673 2727 2724 2670 2725 2774
8 2674 2614 2675 2729 2726 2672 2727 2776
8 2675 2615 2676 2730 2727 2673 2728 2777
8 2677 2617 2678 2732 2729 2675 2730 2779
8 2678 2618 2679 2733 2730 2676 2731 2780
8 2680 2620 2681 2735 2732 2678 2733 2782
8 2733 2679 2621 2681 2783 2734 2682 2736
8 2735 2681 2623 2684 2784 2736 2683 2737
8 2740 2686 2647 2707 2787 2738 2706 2759
8 2688 2628 2686 2740 2742 2687 2739 2789
8 2743 2688 2650 2709 2790 2740 2707 2760
8 2742 2687 2741 2792 2690 2629 2689 2745
8 2743 2688 2742 2793 2709 2650 2690 2746
8 2745 2689 2744 2795 2692 2631 2693 2748
8 2746 2690 2745 2796 2691 2630 2692 2747
8 2747 2692 2748 2797 2694 2633 2695 2750
8 2748 2693 2749 2798 2695 2634 2696 2751
8 2750 2695 2751 2800 2697 2636 2698 2753
8 2751 2696 2752 2801 2698 2637 2699 2754
8 2753 2698 2754 2802 2700 2639 2701 2755
8 2763 2713 2756 2804 2714 2658 2703 2757
8 2759 2706 2652 2710 2804 2756 2703 2757
8 2715 2659 2714 2764 2758 2704 2757 2805
8 2758 2704 2757 2805 2712 2655 2710 2761
8 2806 2759 2707 2760 2761 2710 2653 2711
8 2765 2716 2762 2808 2718 2664 2713 2763
8 2809 2763 2714 2764 2767 2718 2663 2717
8 2765 2716 2664 2718 2811 2766 2719 2768
8 2813 2768 2718 2767 2770 2721 2666 2720
8 2814 2769 2719 2768 2771 2722 2667 2721
8 2723 2669 2724 2773 2770 2721 2771 2816
8 2724 2670 2725 2774 2771 2722 2772 2817
8 2726 2672 2727 2776 2773 2724 2774 2819
8 2727 2673 2728 2777 2774 2725 2775 2820
8 2729 2675 2730 2779 2776 2727 2777 2822
8 2730 2676 2731 2780 2777 2728 2778 2823
8 2732 2678 2733 2782 2779 2730 2780 2825
8 2780 2731 2679 2733 2826 2781 2734 2783
8 2782 2733 2681 2735 2827 2783 2736 2784
8 2830 2785 2738 2787 2804 2756 2706 2759
8 2789 2739 2686 2740 2832 2786 2738 2787
8 2790 2740 2707 2760 2833 2787 2759 2806
8 2742 2687 2739 2789 2792 2741 2788 2835
8 2743 2688 2740 2790 2793 2742 2789 2836
8 2792 2741 2791 2838 2745 2689 2744 2795
8 2793 2742 2792 2839 2746 2690 2745 2796
8 2795 2744 2794 2841 2748 2693 2749 2798
8 2796 2745 2795 2842 2747 2692 2748 2797
8 2797 2748 2798 2843 2750 2695 2751 2800
8 2798 2749 2799 2844 2751 2696 2752 2801
8 2800 2751 2801 2845 2753 2698 2754 2802
8 2808 2762 2803 2847 2763 2713 2756 2804
8 2809 2763 2804 2848 2764 2714 2757 2805
8 2806 2759 2710 2761 2848 2804 2757 2805
8 2765 2716 2766 2811 2808 2762 2807 2850
8 2810 2765 2808 2851 2767 2718 2763 2809
8 2810 2765 2718 2767 2852 2811 2768 2813
8 2811 2766 2719 2768 2853 2812 2769 2814
8 2855 2814 2768 2813 2816 2771 2721 2770
8 2856 2815 2769 2814 2817 2772 2722 2771
8 2773 2724 2774 2819 2816 2771 2817 2858
8 2774 2725 2775 2820 2817 2772 2818 2859
8 2776 2727 2777 2822 2819 2774 2820 2861
8 2777 2728 2778 2823 2820 2775 2821 2862
8 2779 2730 2780 2825 2822 2777 2823 2864
8 2823 2778 2731 2780 2865 2824 2781 2826
8 2825 2780 2733 2782 2866 2826 2783 2827
8 2869 2828 2785 2830 2847 2803 2756 2804
8 2871 2829 2786 2832 2830 2785 2738 2787
8 2872 2830 2787 2833 2848 2804 2759 2806
8 2789 2739 2786 2832 2835 2788 2831 2874
8 2836 2789 2740 2790 2875 2832 2787 2833
8 2792 2741 2788 2835 2838 2791 2834 2877
8 2793 2742 2789 2836 2839 2792 2835 2878
8 2838 2791 2837 2880 2795 2744 2794 2841
8 2839 2792 2838 2881 2796 2745 2795 2842
8 2841 2794 2840 2882 2798 2749 2799 2844
8 2842 2795 2841 2883 2797 2748 2798 2843
8 2843 2798 2844 2884 2800 2751 2801 2845
8 2886 2846 2803 2847 2850 2807 2762 2808
8 2851 2808 2847 2887 2809 2763 2804 2848
8 2850 2807 2766 2811 2889 2849 2812 2853
8 2810 2765 2811 2852 2851 2808 2850 2890
8 2852 2811 2768 2813 2891 2853 2814 2855
8 2853 2812 2769 2814 2892 2854 2815 2856
8 2894 2856 2814 2855 2858 2817 2771 2816
8 2817 2772 2818 2859 2856 2815 2857 2895
8 2819 2774 2820 2861 2858 2817 2859 2897
8 2820 2775 2821 2862 2859 2818 2860 2898
8 2822 2777 2823 2864 2861 2820 2862 2900
8 2823 2778 2824 2865 2862 2821 2863 2901
8 2864 2823 2780 2825 2902 2865 2826 2866
8 2904 2867 2828 2869 2886 2846 2803 2847
8 2869 2828 2868 2906 2830 2785 2829 2871
8 2907 2869 2830 2872 2887 2847 2804 2848
8 2871 2829 2870 2909 2832 2786 2831 2874
8 2910 2871 2832 2875 2872 2830 2787 2833
8 2835 2788 2831 2874 2877 2834 2873 2912
8 2836 2789 2832 2875 2878 2835 2874 2913
8 2877 2834 2876 2915 2838 2791 2837 2880
8 2839 2792 2835 2878 2881 2838 2877 2916
8 2880 2837 2879 2917 2841 2794 2840 2882
8 2881 2838 2880 2918 2842 2795 2841 2883
8 2883 2841 2882 2919 2843 2798 2844 2884
8 2921 2885 2846 2886 2889 2849 2807 2850
8 2922 2886 2847 2887 2890 2850 2808 2851
8 2889 2849 2812 2853 2924 2888 2854 2892
8 2890 2850 2811 2852 2925 2889 2853 2891
8 2891 2853 2814 2855 2926 2892 2856 2894
8 2892 2854 2815 2856 2927 2893 2857 2895
8 2858 2817 2859 2897 2894 2856 2895 2929
8 2859 2818 2860 2898 2895 2857 2896 2930
8 2861 2820 2862 2900 2897 2859 2898 2932
8 2862 2821 2863 2901 2898 2860 2899 2933
8 2864 2823 2865 2902 2900 2862 2901 2934
8 2904 2867 2846 2886 2936 2903 2885 2921
8 2904 2867 2903 2936 2869 2828 2868 2906
8 2937 2904 2869 2907 2922 2886 2847 2887
8 2906 2868 2905 2939 2871 2829 2870 2909
8 2907 2869 2906 2940 2872 2830 2871 2910
8 2909 2870 2908 2942 2874 2831 2873 2912
8 2910 2871 2909 2943 2875 2832 2874 2913
8 2912 2873 2911 2945 2877 2834 2876 2915
8 2878 2835 2874 2913 2916 2877 2912 2946
8 2915 2876 2914 2947 2880 2837 2879 2917
8 2916 2877 2915 2948 2881 2838 2880 2918
8 2918 2880 2917 2949 2883 2841 2882 2919
8 2921 2885 2849 2889 2951 2920 2888 2924
8 2952 2921 2886 2922 2925 2889 2850 2890
8 2924 2888 2854 2892 2954 2923 2893 2927
8 2925 2889 2853 2891 2955 2924 2892 2926
8 2926 2892 2856 2894 2956 2927 2895 2929
8 2895 2857 2896 2930 2927 2893 2928 2957
8 2897 2859 2898 2932 2929 2895 2930 2959
8 2898 2860 2899 2933 2930 2896 2931 2960
8 2900 2862 2901 2934 2932 2898 2933 2961
8 2936 2903 2885 2921 2963 2935 2920 2951
8 2936 2903 2935 2963 2906 2868 2905 2939
8 2937 2904 2886 2922 2964 2936 2921 2952
8 2937 2904 2936 2964 2907 2869 2906 2940
8 2939 2905 2938 2966 2909 2870 2908 2942
8 2940 2906 2939 2967 2910 2871 2909 2943
8 2942 2908 2941 2969 2912 2873 2911 2945
8 2943 2909 2942 2970 2913 2874 2912 2946
8 2945 2911 2944 2971 2915 2876 2914 2947
8 2946 2912 2945 2972 2916 2877 2915 2948
8 2948 2915 2947 2973 2918 2880 2917 2949
8 2951 2920 2888 2924 2975 2950 2923 2954
8 2952 2921 2889 2925 2976 2951 2924 2955
8 2927 2893 2928 2957 2954 2923 2953 2978
8 2955 2924 2892 2926 2979 2954 2927 2956
8 2929 2895 2930 2959 2956 2927 2957 2980
8 2930 2896 2931 2960 2957 2928 2958 2981
8 2932 2898 2933 2961 2959 2930 2960 2982
8 2951 2920 2950 2975 2963 2935 2962 2984
8 2963 2935 2962 2984 2939 2905 2938 2966
8 2964 2936 2921 2952 2985 2963 2951 2976
8 2964 2936 2963 2985 2940 2906 2939 2967
8 2966 2938 2965 2987 2942 2908 2941 2969
8 2967 2939 2966 2988 2943 2909 2942 2970
8 2969 2941 2968 2989 2945 2911 2944 2971
8 2970 2942 2969 2990 2946 2912 2945 2972
8 2972 2945 2971 2991 2948 2915 2947 2973
8 2954 2923 2953 2978 2975 2950 2974 2993
8 2976 2951 2924 2955 2994 2975 2954 2979
8 2957 2928 2958 2981 2978 2953 2977 2995
8 2956 2927 2957 2980 2979 2954 2978 2996
8 2959 2930 2960 2982 2980 2957 2981 2997
8 2984 2962 2983 2999 2966 2938 2965 2987
8 2975 2950 2974 2993 2984 2962 2983 2999
8 2976 2951 2975 2994 2985 2963 2984 3000
8 2985 2963 2984 3000 2967 2939 2966 2988
8 2987 2965 2986 3001 2969 2941 2968 2989
8 2988 2966 2987 3002 2970 2942 2969 2990
8 2990 2969 2989 3003 2972 2945 2971 2991
8 2978 2953 2977 2995 2993 2974 2992 3004
8 2979 2954 2978 2996 2994 2975 2993 3005
8 2980 2957 2981 2997 2996 2978 2995 3006
8 2974 2993 2999 2983 2992 3004 3007 2998
8 2983 2999 2987 2965 2998 3007 3001 2986
8 3000 2984 2999 3008 2988 2966 2987 3002
8 2994 2975 2993 3005 3000 2984 2999 3008
8 3002 2987 3001 3009 2990 2969 2989 3003
8 2996 2978 2995 3006 3005 2993 3004 3010
8 3005 2993 3004 3010 3008 2999 3007 3011
8 3008 2999 3007 3011 3002 2987 3001 3009

CELL_TYPES 1910
12
12
12
12
12
12
12
12
12
12
12
12
12
12
12
12
12
12
12
12
12
12
12
12
12
12
12
12
12
12
12
12
12
12
12
12
12
12
12
12
12
12
12
12
12
12
12
12
12
12
12
12
12
12
12
12
12
12
12
12
12
12
12
12
12
12
12
12
12
12
12
12
12
12
12
12
12
12
12
12
12
12
12
12
12
12
12
12
12
12
12
12
12
12
12
12
12
12
12
12
12
12
12
12
12
12
12
12
12
12
12
12
12
12
12
12
12
12
12
12
12
12
12
12
12
12
12
12
12
12
12
12
12
12
12
12
12
12
12
12
12
12
12
12
12
12
12
12
12
12
12
12
12
12
12
12
12
12
12
12
12
12
12
12
12
12
12
12
12
12
12
12
12
12
12
12
12
12
12
12
12
12
12
12
12
12
12
12
12
12
12
12
12
12
12
12
12
12
12
12
12
12
12
12
12
12
12
12
12
12
12
12
12
12
12
12
12
12
12
12
12
12
12
12
12
12
12
12
12
12
12
12
12
12
12
12
12
12
12
12
12
12
12
12
12
12
12
12
12
12
12
12
12
12
12
12
12
12
12
12
12
12
12
12
12
12
12
12
12
12
12
12
12
12
12
12
12
12
12
12
12
12
12
12
12
12
12
12
12
12
12
12
12
12
12
12
12
12
12
12
12
12
12
12
12
12
12
12
12
12
12
12
12
12
12
12
12
12
12
12
12
12
12
12
12
12
12
12
12
12
12
12
12
12
12
12
12
12
12
12
12
12
12
12
12
12
12
12
12
12
12
12
12
12
12
12
12
12
12
12
12
12
12
12
12
12
12
12
12
12
12
12
12
12
12
12
12
12
12
12
12
12
12
12
12
12
12
12
12
12
12
12
12
12
12
12
12
12
12
12
12
12
12
12
12
12
12
12
12
12
12
12
12
12
12
12
12
12
12
12
12
12
12
12
12
12
12
12
12
12
12
12
12
12
12
12
12
12
12
12
12
12
12
12
12
12
12
12
12
12
12
12
12
12
12
12
12
12
12
12
12
12
12
12
12
12
12
12
12
12
12
12
12
12
12
12
12
12
12
12
12
12
12
12
12
12
12
12
12
12
12
12
12
12
12
12
12
12
12
12
12
12
12
12
12
12
12
12
12
12
12
12
12
12
12
12
12
12
12
12
12
12
12
12
12
12
12
12
12
12
12
12
12
12
12
12
12
12
12
12
12
12
12
12
12
12
12
12
12
12
12
12
12
12
12
12
12
12
12
12
12
12
12
12
12
12
12
12
12
12
12
12
12
12
12
12
12
12
12
12
12
12
12
12
12
12
12
12
12
12
12
12
12
12
12
12
12
12
12
12
12
12
12
12
12
12
12
12
12
12
12
12
12
12
12
12
12
12
12
12
12
12
12
12
12
12
12
12
12
12
12
12
12
12
12
12
12
12
12
12
12
12
12
12
12
12
12
12
12
12
12
12
12
12
12
12
12
12
12
12
12
12
12
12
12
12
12
12
12
12
12
12
12
12
12
12
12
12
12
12
12
12
12
12
12
12
12
12
12
12
12
12
12
12
12
12
12
12
12
12
12
12
12
12
12
12
12
12
12
12
12
12
12
12
12
12
12
12
12
12
12
12
12
12
12
12
12
12
12
12
12
12
12
12
12
12
12
12
12
12
12
12
12
12
12
12
12
12
12
12
12
12
12
12
12
12
12
12
12
12
12
12
12
12
12
12
12
12
12
12
12
12
12
12
12
12
12
12
12
12
12
12
12
12
12
12
12
12
12
12
12
12
12
12
12
12
12
12
12
12
12
12
12
12
12
12
12
12
12
12
12
12
12
12
12
12
12
12
12
12
12
12
12
12
12
12
12
12
12
12
12
12
12
12
12
12
12
12
12
12
12
12
12
12
12
12
12
12
12
12
12
12
12
12
12
12
12
12
12
12
12
12
12
12
12
12
12
12
12
12
12
12
12
12
12
12
12
12
12
12
12
12
12
12
12
12
12
12
12
12
12
12
12
12
12
12
12
12
12
12
12
12
12
12
12
12
12
12
12
12
12
12
12
12
12
12
12
12
12
12
12
12
12
12
12
12
12
12
12
12
12
12
12
12
12
12
12
12
12
12
12
12
12
12
12
12
12
12
12
12
12
12
12
12
12
12
12
12
12
12
12
12
12
12
12
12
12
12
12
12
12
12
12
12
12
12
12
12
12
12
12
12
12
12
12
12
12
12
12
12
12
12
12
12
12
12
12
12
12
12
12
12
12
12
12
12
12
12
12
12
12
12
12
12
12
12
12
12
12
12
12
12
12
12
12
12
12
12
12
12
12
12
12
12
12
12
12
12
12
12
12
12
12
12
12
12
12
12
12
12
12
12
12
12
12
12
12
12
12
12
12
12
12
12
12
12
12
12
12
12
12
12
12
12
12
12
12
12
12
12
12
12
12
12
12
12
12
12
12
12
12
12
12
12
12
12
12
12
12
12
12
12
12
12
12
12
12
12
12
12
12
12
12
12
12
12
12
12
12
12
12
12
12
12
12
12
12
12
12
12
12
12
12
12
12
12
12
12
12
12
12
12
12
12
12
12
12
12
12
12
12
12
12
12
12
12
12
12
12
12
12
12
12
12
12
12
12
12
12
12
12
12
12
12
12
12
12
12
12
12
12
12
12
12
12
12
12
12
12
12
12
12
12
12
12
12
12
12
12
12
12
12
12
12
12
12
12
12
12
12
12
12
12
12
12
12
12
12
12
12
12
12
12
12
12
12
12
12
12
12
12
12
12
12
12
12
12
12
12
12
12
12
12
12
12
12
12
12
12
12
12
12
12
12
12
12
12
12
12
12
12
12
12
12
12
12
12
12
12
12
12
12
12
12
12
12
12
12
12
12
12
12
12
12
12
12
12
12
12
12
12
12
12
12
12
12
12
12
12
12
12
12
12
12
12
12
12
12
12
12
12
12
12
12
12
12
12
12
12
12
12
12
12
12
12
12
12
12
12
12
12
12
12
12
12
12
12
12
12
12
12
12
12
12
12
12
12
12
12
12
12
12
12
12
12
12
12
12
12
12
12
12
12
12
12
12
12
12
12
12
12
12
12
12
12
12
12
12
12
12
12
12
12
12
12
12
12
12
12
12
12
12
12
12
12
12
12
12
12
12
12
12
12
12
12
12
12
12
12
12
12
12
12
12
12
12
12
12
12
12
12
12
12
12
12
12
12
12
12
12
12
12
12
12
12
12
12
12
12
12
12
12
12
12
12
12
12
12
12
12
12
12
12
12
12
12
12
12
12
12
12
12
12
12
12
12
12
12
12
12
12
12
12
12
12
12
12
12
12
12
12
12
12
12
12
12
12
12
12
12
12
12
12
12
12
12
12
12
12
12
12
12
12
12
12
12
12
12
12
12
12
12
12
12
12
12
12
12
12
12
12
12
12
12
12
12
12
12
12
12
12
12
12
12
12
12
12
12
12
12
12
12
12
12
12
12
12
12
12
12
12
12
12
12
12
12
12
12
12
12
12
12
12
12
12
12
12
12
12
12
12
12
12
12
12
12
12
12
12
12
12
12
12
12
12
12
12
12
12
12
12
12
12
12
12
12
12
12
12
12
12
12
12
12
12
12
12
12
12
12
12
12
12
12
12
12
12
12
12
12
12
12
12
12
12
12
12
12
12
12
12
12
12
12
12
12
12
12
12
12
12
12
12
12
12
12
12
12
12
12
12
12
12
12
12
12
12
12
12
12
12
12
12
12
12
12
12
12
12
12
12
12
12
12
12
12
12
12
12
12
12
12
12
12
12
12
12
12
12
12
12
12
12
12
12
12
12
12
12
12
12
12
12
12
12
12
12
12
12
12
12
12
12
12
12
12
12
12
12
12
12
12
12
12
12
12
12
12
12
12
12
12
12
12
12
12
12
12
12
12
12
12
12
12
12
12
12
12
12
12
12
12
12
12
12
12
12
12
12
12
12
12
12
12
12
12
12
12
12
12
12
12
12
12
12
12
12
12
12
12
12
12
12
12
12
12
12
12
12
12
12
12
12
12
12
12
12
12
12
12
12
12
12
12
12
12
12
12
12
12
12
12
12
12
12
12
12
12
12
12
12
12
12
12
12
12
12
12
12
12
12
12
12
12
12
12
12
12
12
12
12
12
12
12
12
12
12
12
12
12
12
12
12
12
12
12
12
12
12
12
12
12
12
12
12
12
12
12
12
12
12
12
12
12
12
12
12
12
12
12
12
12
12
12
12
12
12
12
12
12
12
12
12
12
12
12
12
12
12
12
12
12
12
12
12
12
12
12
12
12

POINT_DATA 3012
SCALARS Jp_lamdaP float 4
LOOKUP_TABLE default
0.999714 1 1 0.999714
1 1 1 1
0.999722 1 1 0.999722
0.999661 1 1 0.999661
0.999715 1 1 0.999715
0.999698 1 1 0.999698
0.998947 1 1 0.998947
1 1 1 1
1 1 1 1
1 1 1 1
0.999789 1 1 0.999789
0.999069 1 1 0.999069
0.999647 1 1 0.999647
0.999662 1 1 0.999662
0.999724 1 1 0.999724
0.999685 1 1 0.999685
0.999704 1 1 0.999704
0.99973 1 1 0.99973
0.998949 1 1 0.998949
1 1 1 1
0.999641 1 1 0.999641
0.999693 1 1 0.999693
0.99882 1 1 0.99882
0.998923 1 1 0.998923
0.999707 1 1 0.999707
0.998966 1 1 0.998966
1.00921 1.01147 1 0.997768
1 1 1 1
0.999847 1 1 0.999847
0.999861 1 1 0.999861
1 1 1 1
0.999078 1 1 0.999078
0.999688 1 1 0.999688
0.999714 1 1 0.999714
0.999081 1 1 0.999081
1 1 1 1
0.999166 1 1 0.999166
0.99917 1 1 0.99917
1.00304 1.0053 1 0.997758
1 1 1 1
1 1 1 1
0.99983 1 1 0.99983
1 1 1 1
0.999663 1 1 0.999663
0.998747 1 1 0.998747
1 1 1 1
0.998982 1 1 0.998982
0.999706 1 1 0.999706
0.999741 1 1 0.999741
0.999706 1 1 0.999706
0.998954 1 1 0.998954
0.999814 1 1 0.999814
0.999663 1 1 0.999663
0.99972 1 1 0.99972
0.999714 1 1 0.999714
0.998817 1 1 0.998817
0.998969 1 1 0.998969
0.998924 1 1 0.998924
1.00963 1.01191 1 0.997753
1 1 1 1
0.999638 1 1 0.999638
0.998997 1 1 0.998997
0.998787 1 1 0.998787
0.998874 1 1 0.998874
1.01256 1.01511 1 0.997491
1.0107 1.01312 1 0.997609
0.999771 1 1 0.999771
0.999072 1 1 0.999072
1.00666 1.00882 1 0.997863
1.02637 1.02956 1 0.996894
1 1 1 1
1 1 1 1
1 1 1 1
0.999086 1 1 0.999086
1 1 1 1
1 1 1 1
0.998927 1 1 0.998927
0.999925 1 1 0.999925
0.999032 1 1 0.999032
0.999272 1 1 0.999272
1.002 1.00426 1 0.997754
1 1 1 1
1.0009 1 1.00108 0.999816
0.998852 1 1 0.998852
0.998961 1 1 0.998961
1.01337 1.01608 1 0.997332
0.99977 1 1.00027 0.999503
1.00724 1.00961 1 0.997657
0.999847 1.00195 1 0.997904
1.00881 1.01178 1 0.997065
1 1 1 1
1 1 1 1
1 1 1 1
1 1 1 1
1 1 1 1
0.999829 1 1 0.999829
0.998864 1 1 0.998864
0.999833 1 1 0.999833
0.9989 1 1 0.9989
1 1 1 1
0.998755 1 1 0.998755
0.998969 1 1 0.998969
1.01237 1.0153 1 0.997115
0.999018 1 1 0.999018
1.0147 1.01759 1 0.997164
0.999669 1 1 0.999669
0.999684 1 1 0.999684
0.99973 1 1 0.99973
0.999732 1 1 0.999732
0.998817 1 1 0.998817
0.998928 1 1 0.998928
0.998975 1 1 0.998975
1.01004 1.01233 1 0.997739
1 1 1 1
0.99966 1 1 0.99966
0.998782 1 1 0.998782
0.998782 1 1 0.998782
0.999886 1 1 0.999886
0.999145 1 1 0.999145
0.998874 1 1 0.998874
1.0125 1.01509 1 0.997451
1.00736 1.00954 1 0.997845
1.01096 1.01336 1 0.997638
1.0263 1.02949 1 0.9969
0.998777 1 1 0.998777
0.998778 1 1 0.998778
1.01102 1.01372 1 0.997341
1.01244 1.01509 1 0.99739
1.01231 1.01485 1 0.997502
1.03521 1.03854 1 0.996794
1 1 1 1
1.0293 1.03255 1 0.996857
0.999517 1 1.00023 0.999287
1.00258 1.00473 1 0.997853
1.02283 1.02598 1 0.99693
1.03382 1.03721 1 0.996735
1.00123 1 1.00165 0.999588
1.00636 1 1.00778 0.998582
1 1 1 1
1 1 1 1
0.998933 1 1 0.998933
1 1 1 1
0.999323 1 1.00009 0.999237
0.999038 1 1 0.999038
1.00093 1.00319 1 0.997751
1 1 1 1
1.00047 1 1.00063 0.999839
0.998953 1 1 0.998953
0.999054 1 1 0.999054
1.01276 1.01547 1 0.997333
0.999991 1 1.00053 0.999465
1.00603 1.00838 1 0.99766
0.999276 1.00138 1 0.997903
1.00947 1.01245 1 0.997051
1.00094 1 1.00129 0.99965
0.99992 1 1 0.99992
1.00263 1 1.00378 0.998856
1.01486 1.01768 1 0.997227
1.01093 1.01346 1 0.997494
1.03224 1.03563 1 0.99672
0.99901 1.00037 1.00046 0.998176
1.018 1.02107 1 0.996993
1.0058 1.00809 1.00057 0.997157
1.0178 1.02098 1 0.996885
1 1 1 1
1 1 1 1
1 1 1 1
1.00023 1 1.00051 0.999717
1 1 1 1
1 1 1 1
1 1 1 1
0.998817 1 1 0.998817
0.998779 1 1 0.998779
1 1 1 1
1 1 1 1
0.998756 1 1 0.998756
0.998887 1 1 0.998887
1.01277 1.0157 1 0.997116
0.998837 1 1 0.998837
1.01492 1.0178 1 0.997163
0.998751 1 1 0.998751
1.01125 1.01421 1 0.997078
1.01361 1.01651 1 0.997151
1.03908 1.04253 1 0.996692
1.0152 1.01808 1 0.997178
1.04089 1.04433 1 0.996709
1 1 1 1
0.999681 1 1 0.999681
0.998546 1 1 0.998546
0.998779 1 1 0.998779
1 1 1 1
0.99922 1 1 0.99922
0.998876 1 1 0.998876
1.01242 1.01505 1 0.997412
1.01126 1.01362 1 0.997667
1.00807 1.01027 1 0.997827
1.02621 1.02939 1 0.996907
0.998775 1 1 0.998775
0.998773 1 1 0.998773
1.0109 1.01371 1 0.997222
1.01243 1.01506 1 0.997414
1 1 1 1
0.999416 1 1.0001 0.99932
1.00384 1.00593 1 0.997926
1.01226 1.0148 1 0.997499
1.03505 1.0384 1 0.996772
1.02219 1.02535 1 0.996922
1.02951 1.03272 1 0.996892
1.03346 1.03684 1 0.996744
1.00119 1 1.00161 0.999577
1.00462 1 1.00604 0.998584
1.01071 1.01365 1 0.9971
1.01131 1.01397 1 0.997372
1.03628 1.03964 1 0.996767
1.03542 1.03881 1 0.996736
1.03225 1.03548 1 0.996875
1.04376 1.04708 1 0.996823
1.00056 1 1.00112 0.99944
1.03628 1.03961 1 0.996795
0.99957 1.00143 1.00011 0.998035
1.01529 1.01833 1 0.997022
1.03138 1.03479 1 0.996702
1.03486 1.03809 1 0.996886
1.00312 1.00005 1.00471 0.998367
1.00232 1 1.00347 0.998852
1.00337 1 1.00546 0.997921
0.998879 1 1 0.998879
1 1 1 1
1.00001 1 1.00015 0.999862
0.998993 1 1 0.998993
1.01215 1.01485 1 0.997334
1.00009 1 1.00062 0.999469
0.998541 1.0006 1.00004 0.997902
1.00484 1.0072 1 0.997663
1.01033 1.01333 1 0.997037
1.00073 1 1.00106 0.999671
0.999936 1 1 0.999936
1.00309 1 1.00423 0.998858
1.01449 1.01732 1 0.997226
1.00995 1.01249 1 0.997498
1.03235 1.03576 1 0.996716
0.998703 1.0001 1.00043 0.99818
1.01911 1.02218 1 0.997
1.00497 1.00736 1.00047 0.997152
1.01855 1.02175 1 0.996875
0.999969 1 1 0.999969
1.00101 1 1.00252 0.998492
1.00116 1 1.00193 0.999223
1.00323 1 1.00504 0.998194
1.03647 1.03993 1 0.996674
1.02646 1.0297 1 0.996854
1.03767 1.04119 1 0.996624
1.00194 1.00399 1.00049 0.997474
1.02552 1.02874 1 0.996867
1.0145 1.01613 1.00158 0.996827
1.02658 1.0299 1 0.996775
0.999721 1 1 0.999721
0.999997 1 1 0.999997
1 1 1 1
1 1 1 1
1 1 1 1
0.999829 1 1 0.999829
1 1 1 1
1.00093 1 1.00123 0.999703
1 1 1 1
0.998838 1 1 0.998838
0.998801 1 1 0.998801
1.01524 1.01813 1 0.997163
1.01315 1.01608 1 0.997116
0.998758 1 1 0.998758
1 1 1 1
0.998751 1 1 0.998751
1.01155 1.01452 1 0.997079
1.01399 1.01688 1 0.997151
1.03856 1.04201 1 0.99669
1.01526 1.01813 1 0.997176
1.04092 1.04436 1 0.996706
1.01064 1.01361 1 0.997075
1.03805 1.04153 1 0.996659
1.03994 1.04337 1 0.996712
1.04833 1.05243 0.999181 0.996923
1.04036 1.04382 1 0.996686
1.0495 1.05296 0.999872 0.996844
0.998772 1 1 0.998772
0.998768 1 1 0.998768
1.01078 1.01372 1 0.997102
1.01245 1.01504 1 0.997439
1 1 1 1
0.999354 1 1 0.999354
1.00504 1.00706 1 0.997998
1.0122 1.01474 1 0.997495
1.03494 1.03831 1 0.99675
1.02968 1.03285 1 0.996928
1.02158 1.02475 1 0.996913
1.03323 1.0366 1 0.996752
1.00135 1 1.00178 0.999566
1.00381 1 1.00523 0.998586
1.01063 1.01359 1 0.997079
1.01132 1.01399 1 0.997368
1.03626 1.0396 1 0.996784
1.03552 1.03889 1 0.996754
1.00027 1 1.00084 0.999429
1.00046 1.00236 1.00007 0.998032
1.01514 1.01813 1 0.997056
1.03254 1.03579 1 0.996862
1.04399 1.04728 1 0.996858
1.03087 1.03431 1 0.996678
1.03627 1.0396 1 0.996799
1.03506 1.03829 1 0.996884
1.00271 1.00007 1.00428 0.998369
1.00388 1.00004 1.00593 0.997923
1.0032 1 1.00436 0.99885
1.03629 1.03969 1 0.996729
1.03584 1.03917 1 0.996801
1.04819 1.05209 0.999423 0.996871
1.04533 1.04877 0.999886 0.996839
1.03927 1.04255 1 0.996854
1.04085 1.04535 0.998564 0.997128
0.999031 1.00022 1.0006 0.998215
1.03723 1.04035 1 0.996997
1.0054 1.00808 1 0.997339
1.02248 1.02596 1 0.99661
1.03131 1.0348 1 0.996627
1.03021 1.03318 1 0.997121
1.00049 1 1.00138 0.999106
0.998868 1.00036 1.00067 0.997835
1.00769 1 1.00964 0.998075
1.0013 1.00096 1.00266 0.997688
1.01415 1.01698 1 0.997224
0.999951 1 1 0.999951
1.00062 1 1.00093 0.999693
1.00359 1 1.00474 0.998859
1.00898 1.01151 1 0.997502
1.03248 1.03588 1 0.996712
0.998571 1 1.00039 0.998184
1.00398 1.00652 1.00033 0.997147
1.02017 1.02324 1 0.997006
1.01869 1.02189 1 0.996866
0.999976 1 1 0.999976
1.00181 1 1.00332 0.998493
1.00066 1 1.00143 0.999232
1.00383 1 1.00565 0.998188
1.03637 1.03983 1 0.996669
1.02664 1.02988 1 0.996853
1.03733 1.04085 1 0.996621
1.00062 1.00269 1.00045 0.99748
1.0253 1.02851 1 0.996872
1.0144 1.01589 1.00173 0.996815
1.02643 1.02967 1 0.996852
0.99999 1 1 0.99999
0.999601 1 1.00012 0.999477
1.00032 1.0007 1.00175 0.997867
1.00326 1 1.00473 0.998534
1.00097 1.00003 1.00306 0.997885
1.04203 1.04553 1 0.996659
1.03164 1.03504 1 0.996718
1.03361 1.037 1 0.996725
1.00604 1.00697 1.00199 0.99709
1.0244 1.02764 1 0.996847
1.01519 1.01781 1.00086 0.996571
0.999685 1 1 0.999685
0.999198 1 1 0.999198
0.999748 1 1 0.999748
0.999723 1 1 0.999723
0.999999 1 1 0.999999
0.999997 1 1 0.999997
1 1 1 1
1 1 1 1
1 1 1 1
0.999922 1 1 0.999922
1 1 1 1
0.999864 1 1.00005 0.999813
1 1 1 1
1.00103 1 1.00134 0.999689
1 1 1 1
1.01525 1.01813 1 0.997174
1.01431 1.0172 1 0.99715
1.0407 1.04414 1 0.996703
1.03804 1.04149 1 0.996688
1.01193 1.01489 1 0.997079
0.99875 1 1 0.99875
1.01081 1.01377 1 0.997074
1.03775 1.04123 1 0.996659
1.03962 1.04305 1 0.99671
1.04847 1.05287 0.998871 0.996942
1.03968 1.04314 1 0.996682
1.04902 1.05242 0.999921 0.996842
1.03686 1.04035 1 0.996651
1.04721 1.05207 0.998424 0.996945
1.04977 1.05354 0.999528 0.996899
1.04589 1.05302 0.996067 0.997158
1.04526 1.04866 1 0.996757
1.04681 1.05237 0.997533 0.997178
1.01059 1.01357 1 0.997057
1.01135 1.01402 1 0.997363
1.03625 1.03957 1 0.9968
1.03559 1.03895 1 0.996772
0.999965 1 1.00055 0.999419
1.00128 1.00324 1.00001 0.99803
1.01523 1.0182 1 0.99709
1.03285 1.03612 1 0.996849
1.04421 1.04747 1 0.996894
1.03632 1.03964 1 0.996804
1.0302 1.03366 1 0.996653
1.03527 1.0385 1 0.996882
1.00196 1.00009 1.0035 0.998372
1.00425 1.0001 1.00624 0.997927
1.00362 1 1.00477 0.998848
1.03638 1.03981 1 0.996701
1.03607 1.0394 1 0.996799
1.04756 1.05164 0.999211 0.996909
1.04563 1.04911 0.999855 0.996828
0.999453 1.00051 1.00073 0.998213
1.00676 1.00945 1 0.997334
1.02123 1.02462 1.00003 0.996656
1.03949 1.0428 1 0.99683
1.04067 1.04532 0.998368 0.997177
1.03178 1.03531 1 0.99659
1.03701 1.04013 1 0.997
1.03088 1.03383 1 0.997155
0.999732 1.00073 1.00117 0.997836
1.00142 1.001 1.00277 0.997661
1.00107 1 1.00197 0.999102
1.00716 1 1.00906 0.998113
1.0477 1.05176 0.999243 0.996893
1.04754 1.05142 0.999434 0.996874
1.04296 1.04997 0.996242 0.997071
1.04125 1.0484 0.995976 0.997198
1.03897 1.04237 0.999621 0.997117
1.03738 1.04419 0.996111 0.99736
0.999826 1.00219 1 0.997642
1.03188 1.03534 0.999311 0.997347
1.01103 1.01418 1 0.996899
1.02121 1.02472 1.00018 0.996399
1.0327 1.03623 1 0.996598
1.03141 1.03432 1 0.997191
0.999479 1 1.00017 0.999308
1.00584 1 1.00751 0.998342
0.999736 1.00216 1 0.99758
1.0042 1 1.0064 0.997818
1.00128 1.00152 1.00217 0.997602
0.999983 1 1 0.999983
1.0362 1.03967 1 0.996663
1.00006 1 1.00082 0.999241
1.00258 1 1.0041 0.998493
1.00448 1 1.00631 0.998182
1.02683 1.03007 1 0.996852
1.03702 1.04054 1 0.996619
0.999399 1.00141 1.00051 0.997486
1.01533 1.01662 1.00193 0.996804
1.02519 1.0284 1 0.996876
1.02671 1.02987 1 0.996928
0.999992 1 1 0.999992
0.999536 1 1.00005 0.999487
0.999598 1.00042 1.00131 0.997869
1.00412 1 1.0056 0.998534
1.00145 1.00003 1.00356 0.997868
1.04198 1.04548 1 0.996653
1.03159 1.03499 1 0.996716
1.03359 1.037 1 0.996714
1.00567 1.00646 1.00213 0.997095
1.02683 1.03008 1 0.996845
1.01529 1.01778 1.00096 0.996591
0.999617 1 1 0.999617
1.00032 1 1.00146 0.998862
1.00049 1.00248 1.00048 0.997532
1.00556 1 1.00741 0.998166
1.00036 1.00052 1.00203 0.997811
1.03893 1.04223 1 0.996834
1.0281 1.03145 1 0.996756
1.0327 1.03588 1 0.996928
1.00281 1.00213 1.00379 0.996906
1.01356 1.01711 1 0.996507
0.999688 1 1 0.999688
0.999123 1 1 0.999123
0.999174 1 1 0.999174
0.998928 1 1 0.998928
0.999214 1 1 0.999214
0.999762 1 1 0.999762
0.99975 1 1 0.99975
1 1 1 1
0.999725 1 1 0.999725
0.999999 1 1 0.999999
1 1 1 1
0.999998 1 1 0.999998
1 1 1 1
1 1 1 1
0.999979 1 1 0.999979
0.999904 1 1 0.999904
1 1 1 1
1 1 1 1
1.00027 1 1.00048 0.999797
1 1 1 1
1.03913 1.0426 1 0.996678
1.0395 1.04294 1 0.996708
1.04873 1.05208 0.999973 0.996839
1.04863 1.05334 0.998566 0.99696
1.03735 1.04082 1 0.996659
1.01089 1.01386 1 0.997074
1.03677 1.04025 1 0.996652
1.04716 1.05195 0.998503 0.99694
1.04974 1.05342 0.999611 0.996899
1.04514 1.05279 0.995532 0.997189
1.04598 1.04939 1 0.99675
1.04661 1.05232 0.997364 0.9972
1.04729 1.05177 0.99882 0.996914
1.04377 1.05132 0.99567 0.997132
1.04562 1.05321 0.995552 0.997235
1.04324 1.05325 0.993159 0.997316
1.04454 1.04812 0.999545 0.997031
1.0438 1.05245 0.994359 0.997409
1.03637 1.03983 1 0.996672
1.03627 1.0396 1 0.996796
1.04691 1.05116 0.999008 0.996947
1.04585 1.04938 0.999823 0.996817
0.999949 1.00089 1.00085 0.99821
1.00778 1.01048 1 0.997328
1.01984 1.02303 1.00018 0.996701
1.03968 1.04301 1 0.996805
1.04046 1.0453 0.998143 0.997226
1.0367 1.03982 1 0.997004
1.03226 1.03583 1 0.996553
1.03104 1.03395 1 0.997188
1.00066 1.00104 1.00179 0.997838
1.00158 1.00105 1.0029 0.997634
1.00158 1 1.00248 0.999098
1.00616 1 1.00803 0.998151
1.04743 1.05147 0.999257 0.996893
1.04727 1.05103 0.999565 0.996852
1.04313 1.05024 0.99612 0.997104
1.04166 1.04837 0.996413 0.997181
1.0009 1.00328 1 0.997634
1.00959 1.01265 1.00003 0.996943
1.02169 1.02499 1.00039 0.996389
1.03867 1.04196 0.99978 0.99707
1.03644 1.04349 0.995808 0.997417
1.03004 1.03357 1 0.996583
1.03293 1.03631 0.999385 0.997349
1.03205 1.0349 1 0.997248
0.999998 1.00243 1 0.997578
1.00113 1.00208 1.00146 0.997604
1.00466 1 1.00686 0.997812
0.999751 1 1.00048 0.999272
1.00531 1 1.00694 0.998378
1.04258 1.05063 0.995211 0.997119
1.04245 1.05059 0.995084 0.997152
1.03719 1.04793 0.992327 0.997404
1.03344 1.04025 0.996016 0.997426
1.00263 1.00532 1 0.997329
1.03679 1.04034 0.999057 0.997526
1.0064 1.0095 1.00029 0.996643
1.01893 1.02231 1.00051 0.996186
1.0276 1.03113 1 0.996578
0.999446 1 1 0.999446
1.00221 1 1.00354 0.998673
1.00513 1 1.00704 0.998096
1.00155 1.00407 1 0.997492
1.00394 1 1.0064 0.997557
1.00056 1.00209 1.001 0.997469
0.999994 1 1 0.999994
0.999496 1 1 0.999496
1.04193 1.04544 1 0.996647
1.0051 1 1.00658 0.998533
0.998722 1.00011 1.00074 0.997871
1.00175 1 1.0039 0.99785
1.03142 1.03482 1 0.996714
1.03341 1.03683 1 0.996702
1.00486 1.00548 1.00229 0.9971
1.01451 1.01717 1.00077 0.996611
1.02915 1.03241 1 0.996843
0.999622 1 1 0.999622
1.00012 1 1.00125 0.998866
1.00003 1.0021 1.00041 0.997529
1.00664 1 1.00849 0.998161
1.00013 1.00059 1.00174 0.997812
1.03892 1.04223 1 0.996827
1.02844 1.03179 1 0.996744
1.0325 1.03566 1 0.996954
1.00367 1.00356 1.00324 0.996868
1.01244 1.01596 1.00006 0.996479
0.999072 1 1 0.999072
1.00546 1 1.00704 0.998433
1.00206 1.00267 1.002 0.997406
1.00493 1.0008 1.00621 0.997926
1.0015 1.00281 1.001 0.997697
1.03875 1.04261 0.998986 0.997312
1.02721 1.03066 1 0.996657
1.02891 1.03205 1 0.996958
1.00523 1.00418 1.00433 0.996726
1.00436 1.0081 1 0.99629
0.999691 1 1 0.999691
0.999142 1 1 0.999142
0.998849 1 1 0.998849
0.999149 1 1 0.999149
0.999213 1 1 0.999213
0.998897 1 1 0.998897
0.998784 1 1 0.998784
0.998844 1 1 0.998844
0.999226 1 1 0.999226
0.999756 1 1 0.999756
0.999762 1 1 0.999762
1 1 1 1
0.999752 1 1 0.999752
1 1 1 1
1 1 1 1
1 1 1 1
1 1 1 1
1 1 1 1
0.999998 1 1 0.999998
0.999966 1 1 0.999966
1 1 1 1
0.999886 1 1 0.999886
1 1 1 1
1 1 1 1
1.04666 1.05008 1 0.996743
1.04952 1.05311 0.999691 0.996899
1.04639 1.05224 0.99721 0.997223
1.04435 1.05254 0.994977 0.997221
1.04718 1.05187 0.998604 0.996934
1.03682 1.0403 1 0.996652
1.04728 1.05164 0.998956 0.996894
1.04428 1.05143 0.99606 0.997124
1.0455 1.05295 0.995697 0.997219
1.04237 1.05284 0.992707 0.997328
1.044 1.04744 0.999682 0.997032
1.04218 1.05152 0.993644 0.99745
1.04435 1.05123 0.996346 0.997106
1.04358 1.05429 0.992514 0.997311
1.04347 1.05476 0.991861 0.997419
1.03973 1.0486 0.994046 0.997479
1.04721 1.05125 0.99927 0.996893
1.04708 1.05073 0.999692 0.996831
1.04331 1.05049 0.996015 0.997136
1.04214 1.04841 0.99685 0.997163
1.00211 1.00449 1 0.997626
1.00846 1.0115 1 0.996987
1.02207 1.02519 1.00058 0.996379
1.03842 1.04156 0.999959 0.997023
1.03543 1.04274 0.995501 0.997475
1.03424 1.03756 0.99945 0.99735
1.02795 1.03149 1 0.996568
1.03387 1.03666 1 0.997304
1.00054 1.00297 1 0.997576
1.00098 1.00269 1.00069 0.997606
1.00607 1 1.00828 0.997805
0.999989 1 1.00075 0.999235
1.00513 1 1.00673 0.998414
1.04318 1.05114 0.995295 0.997121
1.04274 1.05088 0.995101 0.997147
1.03698 1.0472 0.992834 0.997395
1.00306 1.00575 1 0.997323
1.00686 1.00995 1.00026 0.996687
1.01769 1.02082 1.00076 0.996174
1.034 1.04061 0.99623 0.997412
1.02951 1.03294 1 0.99668
1.03344 1.03723 0.998851 0.997495
0.999475 1 1 0.999475
1.00208 1.00461 1 0.997481
0.999641 1.00153 1.00051 0.997599
1.00479 1 1.00726 0.997546
1.00536 1 1.00726 0.998117
1.00217 1 1.00353 0.998638
1.04189 1.05256 0.992647 0.997201
1.04028 1.05407 0.98957 0.997326
1.03101 1.0455 0.988623 0.997489
1.0332 1.04362 0.992367 0.99763
1.00405 1.00693 1 0.997133
1.02835 1.03147 0.999874 0.997108
1.00363 1.00578 1.00165 0.996223
1.00983 1.01281 1.00104 0.996021
0.999675 1 1 0.999675
0.999517 1 1.00058 0.998937
1.00331 1 1.00498 0.99834
1.00542 1 1.00772 0.997708
1.00211 1.00406 1.00075 0.997308
1.00652 1.00087 1.00838 0.997285
0.999628 1 1 0.999628
0.999821 1 1.00095 0.99887
1.03914 1.04246 1 0.996821
1.00761 1 1.00947 0.998155
0.999576 1.00178 1.00027 0.997526
0.999558 1.00022 1.00152 0.997814
1.02903 1.0324 1 0.996733
1.03265 1.03578 1 0.99698
1.00481 1.00526 1.00273 0.996828
1.01136 1.01469 1.00027 0.99645
0.999075 1 1 0.999075
1.00543 1 1.00701 0.998429
1.00232 1.00293 1.00198 0.997415
1.00423 1.00023 1.00608 0.997935
1.00132 1.00307 1.00048 0.99778
1.03957 1.04362 0.998764 0.997357
1.02672 1.03015 1 0.996674
1.03057 1.03364 1 0.99703
1.005 1.00374 1.00458 0.99669
1.00478 1.00856 1.00003 0.996225
0.999175 1 1.00043 0.998745
1.00624 1 1.0082 0.998054
1.00538 1.00433 1.00378 0.99728
1.00132 1.00214 1.00161 0.997579
1.037 1.05585 0.984494 0.99761
1.03267 1.03594 0.99944 0.9974
1.01612 1.0198 1 0.99639
1.00661 1.00606 1.00426 0.996307
0.999161 1 1 0.999161
0.998862 1 1 0.998862
0.998772 1 1 0.998772
0.999212 1 1 0.999212
0.998867 1 1 0.998867
0.999224 1 1 0.999224
0.998781 1 1 0.998781
0.998857 1 1 0.998857
0.998774 1 1 0.998774
0.998682 1 1 0.99868
0.998807 1 1 0.998807
0.999206 1 1 0.999206
0.999734 1 1 0.999734
0.999755 1 1 0.999755
1 1 1 1
0.999762 1 1 0.999762
1 1 1 1
1 1 1 1
1 1 1 1
1 1 1 1
1 1 1 1
1 1 1 1
0.999994 1 1 0.999994
1 1 1 1
0.999953 1 1 0.999953
1 1 1 1
1 1 1 1
1.04338 1.04667 0.99983 0.997032
1.04543 1.05276 0.995818 0.997203
1.04062 1.05067 0.992926 0.997491
1.04156 1.0525 0.992252 0.99734
1.04478 1.05155 0.996442 0.997117
1.04719 1.05146 0.999063 0.996874
1.04414 1.05116 0.996209 0.997106
1.0434 1.05393 0.992682 0.997302
1.04251 1.05398 0.991684 0.997418
1.04122 1.04977 0.994353 0.997489
1.0444 1.05432 0.993323 0.997255
1.04512 1.06029 0.988193 0.997467
1.04457 1.05916 0.98866 0.997543
1.04377 1.05166 0.995359 0.997123
1.04298 1.05111 0.995111 0.997142
1.03687 1.04647 0.99342 0.997385
1.00315 1.00584 1 0.997317
1.00672 1.00984 1.00018 0.99673
1.01625 1.01931 1.00085 0.996163
1.03455 1.04095 0.996444 0.997398
1.02959 1.03361 0.998644 0.997464
1.03041 1.03374 1 0.996782
1.00143 1.00398 1 0.997469
0.998271 1.00054 1 0.997728
1.00529 1.00001 1.00776 0.997534
0.999504 1 1 0.999504
1.00463 1 1.0065 0.998139
1.00211 1 1.00351 0.998604
1.04263 1.05304 0.992887 0.997209
1.03979 1.05387 0.989272 0.997334
1.03117 1.04508 0.989182 0.997481
1.00224 1.00513 1 0.997124
1.00366 1.00598 1.0014 0.996302
1.01015 1.01321 1.0009 0.99609
1.03334 1.04335 0.992755 0.997635
1.02684 1.03038 0.999474 0.997089
0.999731 1 1 0.999731
0.999452 1 1.00052 0.998936
1.00005 1.0027 1 0.997358
1.00871 1.00079 1.01051 0.997426
1.00521 1 1.00748 0.997749
1.0032 1 1.0049 0.998309
1.04268 1.05759 0.988485 0.997388
1.03221 1.0537 0.982118 0.997445
1.0284 1.04502 0.986381 0.997678
1.02327 1.03274 0.993172 0.997647
1.00192 1.00407 1.00106 0.996805
1.00885 1.01118 1.0014 0.996297
1.00331 1.00467 1.00264 0.996011
0.999865 1 1 0.999865
0.999401 1 1 0.999401
0.999148 1 1 0.999148
1.00014 1 1.00165 0.998496
1.00394 1 1.00596 0.997995
1.00845 1 1.01091 0.997564
0.999309 1.0019 1 0.99741
1.03136 1.00072 1.03305 0.997643
0.999078 1 1 0.999078
1.0057 1 1.00728 0.998425
1.04036 1.04457 0.998565 0.997402
1.00432 1.00019 1.00621 0.997944
1.00281 1.00323 1.00215 0.997424
1.00097 1.00308 1.00004 0.997863
1.02583 1.02924 1 0.996692
1.03201 1.03501 1 0.997103
1.00478 1.00332 1.00482 0.996654
1.00522 1.00909 1 0.99616
0.999431 1 1.00072 0.998715
1.00603 1 1.00797 0.998068
1.00625 1.0048 1.00415 0.997309
1.00116 1.00213 1.00142 0.997616
1.03929 1.05777 0.984862 0.997629
1.03283 1.03595 0.999642 0.99735
1.0169 1.02054 1 0.996436
1.00766 1.00764 1.00377 0.996256
1.00047 1 1.00197 0.998503
1.03814 1.06134 0.980461 0.997635
1.00184 1 1.00412 0.997729
1.00498 1.00528 1.00268 0.997034
1.03394 1.04606 0.990669 0.997725
1.01471 1.01824 1 0.996531
1.00646 1.00717 1.00323 0.996071
0.998874 1 1 0.998874
0.998762 1 1 0.998762
0.998777 1 1 0.998777
0.999223 1 1 0.999223
0.998869 1 1 0.998869
0.998778 1 1 0.998778
0.999204 1 1 0.999204
0.998812 1 1 0.998812
0.998776 1 1 0.998776
0.9987 1 1 0.998699
0.998815 1 1 0.998815
0.998689 1 1 0.998687
0.998801 1 1.00021 0.998589
0.998763 1 1 0.998763
0.999151 1 1 0.999151
0.999703 1 1 0.999703
0.999731 1 1 0.999731
1 1 1 1
0.999753 1 1 0.999753
1 1 1 1
1 1 1 1
1 1 1 1
1 1 1 1
1 1 1 1
0.999891 1 1 0.999891
1 1 1 1
1 1 1 1
1 1 1 1
0.999991 1 1 0.999991
1 1 1 1
1 1 1 1
1.04269 1.05095 0.99463 0.997498
1.04152 1.05309 0.991574 0.997417
1.04315 1.05352 0.992849 0.997293
1.04395 1.05108 0.996103 0.997105
1.04405 1.05425 0.993032 0.997274
1.04506 1.0598 0.988602 0.997458
1.04284 1.05763 0.988439 0.997552
1.04473 1.06014 0.987988 0.997446
1.05271 1.06948 0.986731 0.997565
1.0412 1.06222 0.982349 0.997819
1.04336 1.0535 0.993141 0.997217
1.03928 1.0537 0.988944 0.997341
1.03121 1.04466 0.989628 0.997473
1.00214 1.00498 1.00006 0.997116
1.00427 1.00665 1.00126 0.996383
1.01155 1.01466 1.00078 0.99616
1.03354 1.04313 0.993147 0.99764
1.02554 1.02948 0.999102 0.99707
0.999932 1.00253 1 0.997408
1.0113 1.00111 1.01265 0.997566
1.00601 1 1.00824 0.99779
0.999787 1 1 0.999787
0.99932 1 1.00039 0.998935
1.00339 1 1.00512 0.998279
1.04262 1.05788 0.988146 0.9974
0.99986 1 1 0.99986
0.999371 1 1 0.999371
1.03247 1.05289 0.983112 0.997446
1.0273 1.04451 0.985851 0.997647
1.00212 1.00384 1.0014 0.996893
1.00386 1.00457 1.00332 0.995998
1.00954 1.01244 1.00084 0.996291
1.02216 1.03197 0.992854 0.997623
0.999225 1 1 0.999225
1.00007 1 1.00158 0.998489
1.00038 1.00169 1.00139 0.997312
1.02634 1.00072 1.02785 0.997809
1.00662 1 1.00906 0.99758
1.00416 1 1.00616 0.998013
1.05067 1.06791 0.986301 0.997523
1.0147 1.05098 0.967825 0.997585
1.01917 1.03828 0.98372 0.997834
1.0042 1.01448 0.992511 0.997339
1.00265 1.00136 1.00436 0.996945
1.00373 1.00231 1.0055 0.995942
0.999353 1 1 0.999353
0.999357 1 1 0.999357
0.999076 1 1 0.999076
0.998641 1 1 0.998641
1.00178 1 1.00353 0.998252
1.00292 1.00013 1.00512 0.997687
1.04269 1 1.04522 0.997581
1.00224 1.00049 1.00391 0.997848
0.999655 1 1.00097 0.998685
1.00539 1 1.00732 0.998083
1.04082 1.05869 0.98544 0.997648
1.03279 1.0358 0.99979 0.997301
1.00101 1.00221 1.00115 0.997653
1.00726 1.00551 1.00441 0.997338
1.01802 1.02158 1.00004 0.996481
1.0088 1.00926 1.00335 0.996204
1.00071 1 1.00223 0.998489
1.04029 1.06411 0.979893 0.997683
1.00217 1 1.00443 0.997751
1.00435 1.00469 1.00269 0.996981
1.0326 1.04521 0.990214 0.997699
1.01454 1.018 1 0.996606
1.00703 1.00748 1.00348 0.996087
1.00242 1 1.00426 0.998169
1.01626 1.04131 0.977799 0.998104
1.00287 1.00274 1.00267 0.997464
1.0038 1.00343 1.00379 0.996595
1.01641 1.02482 0.994484 0.997297
1.00185 1.00338 1.00221 0.996268
0.986223 1.0043 0.984238 0.99773
0.998753 1 1 0.998753
0.999214 1 1.00044 0.998776
0.998804 1 1.00013 0.998679
0.999201 1 1 0.999201
0.998817 1 1 0.998817
0.998719 1 1 0.998719
0.998779 1 1 0.998779
0.999151 1 1 0.999151
0.998753 1 1 0.998753
0.998781 1 1 0.998781
0.99867 1 1.00008 0.998589
0.998681 1 1 0.99868
0.99877 1 1 0.99877
0.998845 1 1.00043 0.998415
0.99933 1 1.00076 0.99857
0.998655 1 1 0.998655
0.999033 1 1 0.999033
0.998925 1 1.0001 0.998821
0.999012 1 1 0.999012
0.999687 1 1 0.999687
0.999701 1 1 0.999701
1 1 1 1
0.999729 1 1 0.999729
1 1 1 1
1 1 1 1
1 1 1 1
1 1 1 1
1 1 1 1
0.999913 1 1 0.999913
0.99989 1 1 0.99989
1 1 1 1
1 1 1 1
1 1 1 1
1 1 1 1
1 1 1 1
1 1 1 1
1.04131 1.05641 0.988115 0.997562
1.04493 1.05937 0.988899 0.997448
1.04373 1.05421 0.992744 0.997293
1.04477 1.06011 0.988049 0.997444
1.05045 1.06732 0.9866 0.997562
1.04094 1.06101 0.983286 0.997755
1.0533 1.07298 0.983997 0.997629
0.980118 1.01605 0.968222 0.996292
1.01113 1.03825 0.975362 0.998476
0.999468 1 1 0.999468
1.04256 1.05817 0.987806 0.997411
1.03291 1.05214 0.984232 0.997448
1.02628 1.04403 0.985346 0.997616
1.00025 1.00245 1.00082 0.99698
1.0039 1.00391 1.00402 0.995984
1.00998 1.01328 1.00045 0.996285
1.02099 1.03112 0.992559 0.997599
0.998864 1.0016 1.00006 0.997214
1.01983 1 1.0219 0.997976
1.00459 1 1.00701 0.997597
0.999856 1 1 0.999856
1.0047 1 1.00668 0.998032
0.999301 1 1 0.999301
1 1 1.00152 0.998483
0.999342 1 1 0.999342
1.04785 1.06818 0.983394 0.99753
0.999393 1 1 0.999393
0.999356 1 1 0.999356
0.99904 1 1 0.99904
1.01839 1.05104 0.971282 0.997585
1.01991 1.03889 0.983903 0.997788
1.00065 1.00136 1.00233 0.99697
1.00485 1.00327 1.00556 0.996045
1.00374 1.01252 0.993988 0.997325
0.998703 1 1.00001 0.998689
1.00193 1 1.00373 0.99821
1.00742 1.00031 1.00937 0.997755
1.0342 1 1.03667 0.997614
1.00222 1 1.0045 0.997729
1.03266 1.05809 0.978287 0.997629
1.00327 1.04504 0.962223 0.997726
1.01194 1.02398 0.990712 0.997507
0.993487 1.00488 0.991548 0.997087
1.00347 1 1.00605 0.997436
0.998944 1 1 0.998944
0.998868 1 1 0.998868
0.999265 1 1.00051 0.99876
1.00086 1 1.00245 0.998421
1.00327 1 1.00521 0.998064
1.03099 1 1.03335 0.997715
1.02734 1.00034 1.02938 0.997684
1.00072 1 1.00225 0.998474
1.00251 1 1.00475 0.997773
1.04171 1.06768 0.977896 0.99773
1.03159 1.04493 0.989543 0.997672
1.0142 1.01758 1 0.99668
1.0035 1.00391 1.00268 0.996928
1.00729 1.0076 1.0036 0.996104
1.00236 1 1.00415 0.99821
1.01471 1.04135 0.976239 0.998134
1.00102 1.00178 1.00176 0.99748
1.00312 1.00245 1.00408 0.996601
1.01591 1.025 0.993708 0.997404
1.00189 1.00291 1.00273 0.996258
0.98586 1.00427 0.984733 0.996889
1.00232 1.00058 1.00371 0.998028
1.00629 1.02202 0.9865 0.998081
1.00071 1.00136 1.00194 0.997415
1.00445 1.00126 1.00644 0.996769
0.994188 1.00598 0.991127 0.997129
0.932006 0.980741 0.970826 0.978865
0.934462 0.975845 0.968029 0.98922
0.976642 0.988307 0.990385 0.99779
0.773053 0.858844 0.935146 0.962533
0.701968 0.833332 0.884691 0.952155
0.999465 1 1.00069 0.998775
0.99945 1 1.00072 0.998726
0.999036 1 1.00032 0.998715
0.99915 1 1 0.99915
0.998744 1 1 0.998744
0.99859 1 1 0.99859
0.998672 1 1 0.998672
0.998747 1 1 0.998747
1.00002 1 1.00148 0.998546
0.999064 1 1 0.999064
0.998673 1 1 0.998673
0.998741 1 1 0.998741
0.999142 1 1.0007 0.998443
1.00117 1 1.00272 0.998455
1.00144 1 1.00294 0.998503
1.00025 1 1.00178 0.998474
0.998691 1 1.00009 0.998601
0.999005 1 1 0.999005
0.998682 1 1 0.998682
0.998693 1 1.00005 0.998644
0.998837 1 1.00001 0.998823
0.998873 1 1.00009 0.998783
0.999114 1 1 0.999114
0.999009 1 1 0.999009
0.999682 1 1 0.999682
0.999687 1 1 0.999687
1 1 1 1
0.999699 1 1 0.999699
1 1 1 1
1 1 1 1
1 1 1 1
1 1 1 1
1 1 1 1
0.999932 1 1 0.999932
0.99991 1 1 0.99991
1 1 1 1
0.999889 1 1 0.999889
1 1 1 1
1 1 1 1
1 1 1 1
1 1 1 1
1 1 1 1
1.04791 1.0649 0.986453 0.997559
1.04481 1.06005 0.988142 0.997443
1.04129 1.06018 0.984452 0.997692
0.98307 1.01587 0.971252 0.996359
1.05027 1.07032 0.983609 0.997628
1.02163 1.04136 0.982665 0.998356
1.03869 1.05096 0.990565 0.997744
0.939146 0.98178 0.967849 0.988352
0.996362 1.01935 0.980336 0.997052
0.999479 1 1 0.999479
0.999465 1 1 0.999465
0.999052 1 1 0.999052
0.999115 1 1 0.999115
1.0457 1.06845 0.981124 0.997537
1.02155 1.05067 0.974638 0.997584
1.02034 1.03925 0.984029 0.997742
0.999733 1.00073 1.00201 0.996996
1.00595 1.00446 1.00536 0.996147
1.00294 1.0108 0.9949 0.997311
1.01476 1 1.01714 0.997662
1.02685 1 1.02926 0.997647
1.00136 1 1.00359 0.99777
0.999355 1 1 0.999355
1.00135 1 1.00319 0.998168
0.998737 1 1 0.998737
0.999432 1 1 0.999432
0.999004 1 1 0.999004
1.03021 1.05786 0.97616 0.997644
0.998988 1 1 0.998988
0.99892 1 1 0.99892
0.998881 1 1 0.998881
1.00731 1.04739 0.963928 0.997721
1.01107 1.0238 0.990039 0.997505
1.00322 1.00008 1.00574 0.997419
0.995294 1.00518 0.992998 0.997147
1 1 1.00162 0.998386
1.00266 1 1.00469 0.997984
1.03207 1.00062 1.03384 0.997667
1.03138 1.00006 1.03374 0.997659
0.998451 1.03971 0.962429 0.997805
0.996201 1.03004 0.969371 0.997701
1.004 1.00946 0.997403 0.997186
0.987992 1.00079 0.989232 0.997954
0.998621 1 1 0.998621
1.00008 1 1.00154 0.998549
1.01097 1 1.01268 0.998315
1.04954 1 1.052 0.997661
0.90706 0.96973 0.957747 0.976639
1.00275 1 1.00451 0.998251
0.999349 1.00076 1.00109 0.997495
1.0144 1.04111 0.976142 0.998164
1.01589 1.0252 0.993395 0.99751
1.00223 1.0027 1.0033 0.996246
1.0029 1.00184 1.00447 0.996606
0.986603 1.00495 0.985662 0.996028
1.00129 1.00026 1.00296 0.998083
1.00644 1.02314 0.985577 0.99807
1.00021 1.00134 1.00145 0.997429
1.00448 1.00162 1.00611 0.996769
0.997179 1.00686 0.993234 0.997135
0.930725 0.98657 0.965916 0.976684
0.929066 0.973069 0.967634 0.986715
0.978772 0.987961 0.992874 0.99781
0.772264 0.855712 0.936973 0.963189
0.687168 0.822431 0.881016 0.948374
1.00024 1.00013 1.00183 0.998283
0.802066 0.878159 0.946461 0.965016
0.742378 0.838706 0.928253 0.953562
0.989822 1.00676 0.985145 0.998004
1.00684 1.00132 1.00775 0.997784
1.01235 1.00458 1.01035 0.997417
0.970936 0.982422 0.990262 0.998028
0.921849 0.966783 0.975754 0.977215
0.905173 0.947087 0.969912 0.985393
0.758074 0.857248 0.91647 0.964909
0.762824 0.883784 0.906279 0.952394
1.00015 1 1.00137 0.998773
1.00018 1 1.00149 0.998693
1.00122 1 1.00236 0.998866
0.999096 1 1 0.999096
0.998692 1 1 0.998692
1.0003 1 1.00178 0.998521
0.999656 1 1.00119 0.998472
0.998712 1 1 0.998712
0.999006 1 1 0.999006
1.00105 1 1.00261 0.998446
1.00063 1 1.00215 0.998489
0.998657 1 1.00002 0.998636
1.00122 1 1.00271 0.99852
1.00318 1 1.00472 0.998475
1.00622 1 1.00763 0.9986
0.998788 1 1.00035 0.998435
0.99865 1 1 0.998646
0.998678 1 1 0.998678
0.99874 1 1.0001 0.998643
0.998663 1 1.00016 0.998499
0.999202 1 1.00054 0.998659
0.999618 1 1.00099 0.998627
1.00204 1 1.00359 0.998461
0.999473 1 1.00069 0.998785
0.998949 1 1.00013 0.998824
0.999145 1 1 0.999145
0.998784 1 1.00004 0.998745
0.999087 1 1 0.999087
0.999673 1 1 0.999673
0.999006 1 1 0.999006
0.999683 1 1 0.999683
1 1 1 1
0.999687 1 1 0.999687
1 1 1 1
1 1 1 1
1 1 1 1
1 1 1 1
1 1 1 1
0.99944 1 1 0.99944
0.999933 1 1 0.999933
0.999929 1 1 0.999929
1 1 1 1
0.999906 1 1 0.999906
1 1 1 1
1 1 1 1
1 1 1 1
1 1 1 1
1 1 1 1
0.985685 1.01577 0.973856 0.996431
1.04791 1.06739 0.984089 0.997628
1.02765 1.0443 0.985794 0.998234
0.932767 0.975233 0.966678 0.989425
0.996527 1.01907 0.980623 0.997202
1.03923 1.05443 0.987861 0.997699
1.00967 1.02654 0.986375 0.997156
0.947208 0.976202 0.979501 0.990606
0.929456 0.978799 0.972069 0.976872
0.766448 0.855417 0.928912 0.964563
0.674059 0.797878 0.887963 0.951408
0.999062 1 1 0.999062
0.999478 1 1 0.999478
0.999462 1 1 0.999462
0.999041 1 1 0.999041
0.998805 1 1 0.998805
0.998833 1 1 0.998833
0.999014 1 1 0.999014
0.99908 1 1 0.99908
1.02662 1.05791 0.972705 0.997658
1.01208 1.05077 0.965392 0.997715
1.01065 1.0237 0.989716 0.997504
1.00267 1.0005 1.00478 0.997402
0.99746 1.00521 0.995072 0.997208
1.03476 1.00018 1.03701 0.99765
1.0317 1 1.03418 0.997604
1.00299 1 1.0051 0.997905
0.998972 1 1 0.998972
0.999906 1 1.00156 0.99835
0.999034 1 1 0.999034
0.999002 1 1 0.999002
0.998216 1.04043 0.961529 0.997811
0.998807 1 1.00016 0.998649
0.999805 1 1.00121 0.998592
0.995779 1.02897 0.969994 0.997677
1.00109 1.00936 0.994477 0.997314
0.990469 1.00115 0.991469 0.997845
1.01714 1 1.01901 0.998168
1.0451 1.00026 1.04725 0.997685
0.987622 1.02689 0.963894 0.997786
0.985052 1.00919 0.978315 0.997718
0.982654 1.0016 0.983308 0.997741
0.992412 1.00115 0.993176 0.998086
1.0025 1 1.00421 0.998298
1.00728 1 1.00897 0.998322
1.04556 1 1.04769 0.997973
0.798057 0.887127 0.930908 0.966365
0.924697 0.976261 0.966734 0.979775
1.00008 1 1.00195 0.998139
0.99956 1.00105 1.00107 0.997444
1.0065 1.02446 0.984384 0.998059
0.999604 1.00787 0.994646 0.997141
1.00463 1.00216 1.00571 0.996772
0.924893 0.975706 0.970013 0.977226
0.934972 0.979787 0.9665 0.987336
0.97929 0.986518 0.994839 0.997823
0.773143 0.857419 0.933867 0.965566
0.674544 0.811856 0.879698 0.94449
1.00024 1.00004 1.00192 0.998282
0.798635 0.883471 0.936125 0.965655
0.731781 0.828508 0.928186 0.951589
0.98985 1.00756 0.984387 0.998002
1.00697 1.00169 1.00749 0.997809
1.01073 1.00292 1.01024 0.997569
0.963409 0.976547 0.988352 0.998173
0.929377 0.977277 0.975336 0.975035
0.904655 0.949569 0.964532 0.987734
0.762131 0.854009 0.926557 0.963153
0.760956 0.888354 0.900254 0.951499
1.00238 1 1.00369 0.998692
0.774822 0.850454 0.954003 0.954994
0.847808 0.919917 0.957986 0.962033
0.989316 0.998025 0.992582 0.998682
1.01429 1.00251 1.01313 0.998633
0.973149 0.967627 1.00772 0.998005
0.903296 0.934464 0.977532 0.988864
0.895702 0.938785 0.979546 0.97403
0.767064 0.852363 0.933631 0.963899
0.80306 0.922797 0.910881 0.95539
1.00131 0.999927 1.00272 0.998672
1.001 1 1.00218 0.998832
1.00479 1 1.00571 0.999087
0.999007 1 1 0.999007
0.99867 1 1 0.99867
1.00127 1 1.00277 0.998503
1.00137 1 1.00294 0.998437
1.00092 1 1.00239 0.998536
0.998645 1 1 0.998645
1.00188 1 1.00342 0.998465
0.998808 1 1.00037 0.998436
1.00694 1 1.0083 0.998652
1.02303 0.999182 1.02478 0.999102
1.00274 1 1.00426 0.998481
0.998398 1 1 0.998398
0.998675 1 1 0.998675
0.998878 1 1.00024 0.998642
0.998915 1 1.00042 0.998493
0.999412 1 1.00076 0.99865
0.999277 1 1.00059 0.998688
1.00153 1 1.00295 0.998586
0.99974 1 1.00121 0.998536
1.00136 1 1.00267 0.998692
0.998974 1 1.00052 0.998454
0.998831 1 1.00093 0.997904
1.00161 1 1.00326 0.998352
1.00183 1 1.00338 0.998459
1.00154 1 1.00285 0.998692
1.00006 1 1.00128 0.998783
0.999129 1 1 0.999129
0.999265 1 1.00044 0.998824
0.999146 1 1 0.999146
0.999668 1 1 0.999668
0.999061 1 1 0.999061
0.999675 1 1 0.999675
0.999999 1 1 0.999999
0.999684 1 1 0.999684
1 1 1 1
1 1 1 1
1 1 1 1
1 1 1 1
1 1 1 1
0.999453 1 1 0.999453
0.999916 1 1 0.999916
0.999442 1 1 0.999442
1 1 1 1
0.999934 1 1 0.999934
0.999926 1 1 0.999926
1 1 1 1
1 1 1 1
1 1 1 1
1 1 1 1
1 1 1 1
0.794638 0.874513 0.943168 0.963417
0.738664 0.836252 0.926446 0.953431
0.934457 0.979494 0.963729 0.989926
0.997787 1.01871 0.982056 0.997355
1.04255 1.05816 0.987558 0.997654
0.929065 0.960956 0.974613 0.991997
1.00955 1.02599 0.986661 0.997277
0.93995 0.989704 0.971028 0.978065
0.769462 0.858657 0.930567 0.962986
0.671825 0.804058 0.881762 0.947583
0.961455 0.996254 0.970882 0.994014
0.928662 0.972067 0.977115 0.977723
0.754743 0.85509 0.91539 0.964231
0.747189 0.873532 0.899327 0.951118
0.999588 1 1.00092 0.998672
0.999093 1 1 0.999093
0.999477 1 1 0.999477
0.999031 1 1 0.999031
0.998853 1 1 0.998853
0.999629 1 1.00097 0.998656
0.998817 1 1 0.998817
0.99875 1 1 0.99875
0.998977 1 1 0.998977
0.999044 1 1 0.999044
0.999153 1.04066 0.962219 0.997817
0.993336 1.02666 0.969818 0.997655
0.998267 1.00959 0.991322 0.997442
0.992407 1.00124 0.993425 0.997736
1.03971 1.00125 1.0408 0.99771
1.02384 1 1.02587 0.998021
0.998647 1 1.00001 0.998636
0.998977 1 1.0003 0.998676
0.988233 1.02718 0.964166 0.997838
1.0034 1 1.00514 0.998269
1.00717 1 1.0089 0.998282
0.983284 1.00745 0.978313 0.997648
0.980507 1.00117 0.981484 0.997834
0.99516 1.00194 0.995221 0.998006
1.0397 1 1.04186 0.997935
0.985252 1.00404 0.983126 0.998127
0.976548 1.00038 0.977627 0.998512
1.01387 1.0009 1.01478 0.998211
1.00747 1 1.00926 0.998231
1.00655 1 1.00846 0.998105
1.02473 1 1.02671 0.998069
0.79626 0.86472 0.957875 0.961326
0.80726 0.886032 0.94277 0.966403
0.913557 0.972955 0.961324 0.976727
1.00012 1 1.00185 0.99828
1.00688 1.00173 1.00733 0.997834
0.992237 1.00861 0.985733 0.998001
1.0092 1.00152 1.00997 0.997718
0.792842 0.878472 0.933784 0.966524
0.924939 0.973171 0.973044 0.976769
0.898381 0.945859 0.963783 0.985496
0.960596 0.972694 0.989228 0.998316
0.758914 0.85333 0.92511 0.961352
0.732839 0.83104 0.926214 0.952084
0.749787 0.87803 0.895893 0.953175
1.00283 0.999954 1.00419 0.998691
0.77635 0.853521 0.950342 0.957113
0.857896 0.928799 0.960312 0.961835
0.990519 0.996887 0.994835 0.998771
1.01403 1.00139 1.01404 0.998595
0.97048 0.96676 1.00554 0.998315
0.899262 0.938167 0.971485 0.986666
0.904439 0.944738 0.980472 0.976411
0.788624 0.87513 0.936401 0.962356
0.790087 0.910691 0.906657 0.956888
1.00685 0.999194 1.00823 0.999433
0.868572 0.932587 0.962862 0.96728
0.840991 0.921966 0.944112 0.966169
0.990932 0.976861 1.01469 0.999715
0.924658 0.93459 0.996842 0.992507
0.911485 0.936826 0.997578 0.975313
0.826596 0.898211 0.957568 0.961049
0.822049 0.944438 0.910386 0.95609
1.00094 1 1.00215 0.998796
1.00468 0.999877 1.00572 0.999084
1.0222 0.999169 1.02371 0.999354
0.998645 1 1 0.998643
0.998706 1 1.00027 0.998438
1.00023 1 1.00178 0.998454
1.00734 1 1.00865 0.998705
0.9984 1 1 0.998397
1.00298 1 1.00452 0.998473
1.02807 0.999772 1.02915 0.999177
1.04097 0.996648 1.04505 0.999446
1.03052 0.999723 1.03177 0.999068
0.998436 1 1 0.998436
0.999148 1 1.00066 0.998486
0.999243 1 1.0006 0.998642
0.998749 1 1 0.998749
0.999356 1 1.0008 0.998552
1.001 1 1.00242 0.998587
1.0018 1 1.0031 0.998706
1.00074 1 1.00217 0.998574
1.00659 0.99994 1.00768 0.998978
0.998254 1.00008 0.999633 0.998543
0.999466 1.00035 1.00064 0.998479
0.998794 1 1.00069 0.9981
0.99996 1.00123 1.00153 0.997208
1.00164 1 1.00339 0.998255
0.998869 1 1.00079 0.998078
1.00132 1 1.00295 0.998374
1.00231 1 1.00377 0.998542
1.00139 1 1.00294 0.998458
1.00121 1 1.00252 0.998691
0.999134 1 1.00009 0.999049
1.00017 1 1.00139 0.99878
0.999127 1 1 0.999127
0.999657 1 1 0.999657
0.999147 1 1 0.999147
0.999668 1 1 0.999668
0.999995 1 1 0.999995
0.999677 1 1 0.999677
0.999998 1 1 0.999998
1 1 1 1
1 1 1 1
1 1 1 1
1 1 1 1
0.999245 1 1 0.999245
0.999884 1 1 0.999884
0.999385 1 1 0.999385
1 1 1 1
0.99992 1 1 0.99992
0.999442 1 1 0.999442
1 1 1 1
1 1 1 1
0.999935 1 1 0.999935
1 1 1 1
1 1 1 1
1 1 1 1
0.772229 0.850989 0.947581 0.957648
0.800055 0.881783 0.940632 0.964579
0.853736 0.928497 0.956318 0.961481
0.733421 0.832155 0.925609 0.952185
0.929706 0.969678 0.968779 0.989676
1.00725 1.02552 0.984742 0.997405
0.946284 0.987915 0.978314 0.979093
0.777461 0.862317 0.9345 0.96479
0.673951 0.813721 0.877652 0.943693
0.959876 0.991741 0.974501 0.993196
0.923989 0.972403 0.975423 0.974153
0.767028 0.863596 0.922649 0.962641
0.7497 0.878919 0.898552 0.949282
0.939832 0.979026 0.968519 0.991169
0.909646 0.943 0.990839 0.973549
0.78954 0.881423 0.93227 0.960833
0.797026 0.921416 0.907804 0.952849
1.00107 1 1.00264 0.998432
0.999036 1 1.00032 0.998715
0.999124 1 1 0.999124
0.998901 1 1 0.998901
0.998718 1 1.00036 0.998356
0.999008 1 1.00031 0.998694
0.9988 1 1 0.9988
0.998717 1 1 0.998717
0.998785 1 1 0.998785
0.99894 1 1 0.99894
0.989472 1.02842 0.96416 0.997889
0.984409 1.00657 0.980356 0.997581
0.978902 1.00124 0.979718 0.997926
0.99971 1.00313 0.998655 0.997928
1.03281 1 1.03498 0.997896
1.00627 1 1.00804 0.998243
1.00394 1 1.00571 0.998239
1.0065 1 1.00831 0.9982
0.982703 1.00443 0.980197 0.998132
1.00527 1 1.00718 0.998101
1.02556 1 1.02755 0.998057
0.974863 1.00058 0.97579 0.998473
1.01159 1.00192 1.01151 0.998171
0.956352 0.985605 0.971708 0.998572
0.991562 0.995433 0.996877 0.999232
1.0373 0.999669 1.03929 0.998422
1.00322 1 1.00512 0.998112
1.01439 1 1.01631 0.998109
0.876926 0.936402 0.965287 0.970161
0.799 0.864503 0.96181 0.960928
0.796045 0.880164 0.937425 0.9648
1.00328 1 1.00459 0.998691
1.01419 1.00027 1.01538 0.998556
0.988302 0.99514 0.994263 0.998859
0.781539 0.856924 0.952055 0.957958
0.908551 0.942978 0.989448 0.973766
0.901267 0.93618 0.974283 0.988118
0.961489 0.963182 0.999633 0.998609
0.787171 0.874836 0.933237 0.964163
0.864604 0.933864 0.962722 0.961685
0.79464 0.914241 0.908215 0.95702
1.00534 0.999033 1.00692 0.999394
0.865297 0.931098 0.959455 0.968602
0.841472 0.922406 0.94417 0.966202
0.993805 0.980927 1.01358 0.999556
0.935337 0.943443 0.999176 0.992225
0.889646 0.929644 0.983863 0.972672
0.8237 0.94473 0.911183 0.956876
0.839657 0.905649 0.963852 0.961904
1.0051 0.984953 1.02075 0.999711
0.848051 0.917054 0.948526 0.974941
0.860155 0.941118 0.944665 0.967508
0.797213 0.920732 0.908518 0.953033
0.971333 0.959472 1.01436 0.99803
0.935298 0.949401 1.00894 0.976416
0.875434 0.931821 0.975503 0.963081
1.00463 0.999615 1.00594 0.99908
1.0219 0.998895 1.02378 0.999271
1.02284 0.987929 1.03579 0.999566
0.998414 1 1.00002 0.998396
1.00313 1 1.00467 0.998464
1.03385 1 1.03462 0.999251
0.998515 1 1.00007 0.998443
1.02991 0.999844 1.03102 0.999079
1.04172 0.996701 1.04577 0.999421
1.03069 0.994415 1.03701 0.999489
1.02158 0.999795 1.02275 0.999058
0.99922 1 1.00065 0.998569
1.00092 1 1.00234 0.998588
1.0024 1 1.00368 0.998721
1.00564 1 1.00669 0.998953
1.00023 1 1.00166 0.998575
1.00279 1 1.00392 0.998879
0.998606 1.00001 0.999811 0.998786
1.00143 1.00001 1.00368 0.997743
0.999869 1.00069 1.00067 0.998507
0.999052 1.00046 1.00057 0.998027
0.998378 1.00038 1.00101 0.996985
1.0093 1.01105 1.00129 0.996987
1.00145 1.00076 1.00276 0.997939
0.999525 1.0009 1.00138 0.997249
1.00513 1 1.00678 0.998366
1.0024 1.00009 1.00408 0.998238
0.998897 1 1.00065 0.998252
1.00111 1 1.00272 0.998397
1.00192 1 1.00335 0.998576
0.999188 1 1.00025 0.998939
1.00107 1 1.00238 0.99869
0.999152 1 1.0001 0.999049
0.999613 1 1 0.999613
0.999124 1 1 0.999124
0.999655 1 1 0.999655
0.999992 1 1 0.999992
0.999669 1 1 0.999669
0.999994 1 1 0.999994
1 1 1 1
0.999997 1 1 0.999997
1 1 1 1
1 1 1 1
0.999028 1 1 0.999028
0.999716 1 1 0.999716
0.999244 1 1 0.999244
1 1 1 1
0.999839 1 1 0.999839
0.999318 1 1 0.999318
1 1 1 1
1 1 1 1
0.999924 1 1 0.999924
1 1 1 1
1 1 1 1
1 1 1 1
0.863611 0.933418 0.95584 0.967959
0.767517 0.850228 0.94131 0.959002
0.797526 0.878043 0.941972 0.964254
0.998597 1 1 0.998597
0.846301 0.91955 0.950601 0.968169
0.852432 0.92805 0.955442 0.961356
0.734861 0.8375 0.920179 0.95356
0.967078 0.994247 0.980364 0.992156
0.923645 0.967536 0.976942 0.977167
0.772625 0.875283 0.918757 0.960771
0.74491 0.868859 0.902334 0.950139
0.938384 0.976705 0.972024 0.988417
0.902886 0.94102 0.982855 0.976213
0.80049 0.88593 0.940081 0.961151
0.793295 0.915482 0.909043 0.953236
0.903628 0.943614 0.971458 0.985761
0.903185 0.929439 0.997892 0.973805
0.852646 0.917562 0.965867 0.962091
0.822427 0.943578 0.911684 0.956039
1.00078 1 1.00257 0.998207
1.00218 1 1.0038 0.998391
0.998757 1 1 0.998757
0.998398 1 1 0.998398
0.998902 1 1.00049 0.998416
0.998732 1 1 0.998732
0.998724 1 1 0.998724
0.99882 1 1 0.99882
0.978744 1.00517 0.975527 0.998133
0.972035 1.00066 0.972913 0.998439
1.00581 1 1.00766 0.998168
1.01007 1.00294 1.009 0.99813
1.02743 1 1.02944 0.998044
1.00461 1 1.00653 0.998097
1.00352 1 1.00541 0.998121
0.962143 0.987218 0.975914 0.998653
1.01319 1 1.01507 0.998144
1.02717 1.00032 1.02843 0.998449
0.987617 0.99555 0.992743 0.999283
1.00372 1 1.00552 0.998215
0.956668 0.9751 0.982555 0.998516
1.0036 0.99145 1.0128 0.999464
1.04614 0.997546 1.05024 0.998543
1.00275 1 1.00446 0.998299
0.859334 0.920385 0.955533 0.977118
0.876063 0.936065 0.964668 0.970179
0.803245 0.864322 0.967528 0.960526
1.00343 0.998648 1.00543 0.999357
0.997692 0.984526 1.01398 0.999401
0.863785 0.931222 0.95637 0.969899
0.915422 0.933686 1.00456 0.975984
0.925552 0.94066 0.994672 0.989209
0.840997 0.908037 0.964032 0.960725
0.842183 0.923356 0.943974 0.966223
0.826374 0.94595 0.912213 0.957662
1.0082 0.990118 1.0186 0.999669
0.849593 0.918171 0.94912 0.974914
0.858847 0.939113 0.943403 0.969396
0.980507 0.9655 1.01601 0.999538
0.792818 0.914475 0.909394 0.953344
0.915541 0.93439 1.00529 0.974675
0.883391 0.940756 0.975503 0.962603
1.00653 0.982218 1.025 0.999762
0.86934 0.935957 0.95092 0.976764
0.844445 0.917643 0.95032 0.96834
0.744957 0.872239 0.897801 0.951296
0.852344 0.91822 0.965259 0.961666
0.957662 0.956287 1.00563 0.995836
0.940513 0.945941 1.02339 0.971538
1.01945 0.999208 1.02108 0.999189
1.0251 0.989426 1.03654 0.999534
1.00937 0.978043 1.03246 0.999582
0.998488 1 1.00004 0.99845
1.03087 0.999939 1.03187 0.999091
1.04222 0.998165 1.04477 0.999396
1.01619 0.999801 1.01737 0.999045
1.03033 0.995934 1.03507 0.999488
1.01277 0.992349 1.02136 0.999237
1.00422 1 1.0053 0.998927
0.99971 1 1.00113 0.998577
1.00461 1 1.00576 0.998859
1.00834 1 1.01014 0.998219
0.999028 1 1 0.999028
1.00032 1.00004 1.00238 0.997912
1.00155 1.00067 1.00413 0.996768
1.00519 1.00698 1.00188 0.996345
0.999311 1.00096 1.0004 0.997952
0.998727 1.00082 1.00109 0.996822
1.01064 1.01307 1.00053 0.99708
1.00556 1.00543 1.00261 0.997524
1.00869 1.01039 1.00125 0.997066
1.00635 1 1.0082 0.998169
1.00292 1.0017 1.0033 0.997922
0.998818 1.00025 1.00128 0.997291
1.00021 1 1.00144 0.998769
1.00476 1 1.0064 0.998375
1.00316 1.0001 1.00485 0.998221
1.00177 1 1.00317 0.99861
0.999314 1 1.00038 0.998937
0.999531 1 1 0.999531
0.999257 1 1.00021 0.999049
0.99961 1 1 0.99961
0.999989 1 1 0.999989
0.999652 1 1 0.999652
0.999992 1 1 0.999992
1 1 1 1
0.999993 1 1 0.999993
1 1 1 1
1 1 1 1
0.998944 1 1 0.998944
0.999591 1 1 0.999591
0.999069 1 1 0.999069
1 1 1 1
0.999704 1 1 0.999704
0.999241 1 1 0.999241
1 1 1 1
1 1 1 1
0.999794 1 1 0.999794
1 1 1 1
1 1 1 1
1 1 1 1
0.853375 0.919465 0.951416 0.975516
0.866484 0.933167 0.959296 0.967941
0.767664 0.850624 0.940899 0.959159
0.998627 1 1 0.998627
0.998558 1 1 0.998558
0.998479 1 1 0.998479
0.859011 0.942279 0.942414 0.967336
0.843127 0.919082 0.947482 0.968206
0.852235 0.927555 0.955849 0.961236
0.942185 0.979845 0.970943 0.990341
0.895775 0.938318 0.980697 0.973451
0.789111 0.868577 0.942484 0.963953
0.80618 0.924819 0.915465 0.952211
0.907271 0.947028 0.969375 0.988286
0.905765 0.931846 0.99762 0.97433
0.831156 0.894091 0.965256 0.963071
0.822753 0.944699 0.91026 0.956778
0.899559 0.935781 0.974642 0.986303
0.920704 0.93771 1.00677 0.975259
0.874962 0.929958 0.976724 0.963283
0.806524 0.925058 0.912644 0.955315
0.998638 1 1.0004 0.998243
1.00149 1 1.00332 0.998183
1.00218 1 1.00384 0.99835
0.99839 1 1 0.99839
0.998741 1 1.00027 0.998476
0.998731 1 1 0.998731
0.967082 0.986643 0.981434 0.998717
0.98322 0.995191 0.988642 0.999322
1.00382 1 1.0057 0.998129
1.01918 1.00052 1.0202 0.998475
1.0141 1 1.01594 0.99818
1.00487 1 1.00669 0.998192
1.00328 1 1.00497 0.998324
0.963595 0.975688 0.988986 0.998604
1.04451 0.997521 1.04849 0.998682
1.00707 0.987277 1.02065 0.999409
1.00457 1 1.00611 0.998469
0.979186 0.965632 1.0156 0.998456
1.00702 0.980659 1.02745 0.999439
1.03344 0.994962 1.03992 0.998801
0.882036 0.940427 0.958053 0.978975
0.860168 0.92069 0.95566 0.977612
0.875482 0.93568 0.96441 0.970193
1.01255 0.995534 1.01747 0.999627
0.969822 0.962724 1.00886 0.998525
0.851251 0.91924 0.949892 0.974888
0.910308 0.922805 1.008 0.97863
0.878074 0.937554 0.973943 0.961615
0.858689 0.937501 0.943016 0.971282
0.807386 0.924372 0.917092 0.952404
1.00205 0.97931 1.02344 0.999785
0.870544 0.935999 0.95153 0.977446
0.844182 0.919149 0.94843 0.968378
0.95449 0.952153 1.01018 0.992351
0.747916 0.877494 0.897619 0.949548
0.826919 0.893636 0.961407 0.962487
0.949777 0.9505 1.02449 0.975349
1.00142 0.964484 1.03923 0.999101
0.854068 0.919128 0.952414 0.975643
0.859066 0.932343 0.958025 0.961776
0.672494 0.795405 0.888216 0.951878
0.785012 0.877542 0.931043 0.960812
0.918133 0.934932 1.00759 0.974633
0.933418 0.94768 0.994978 0.989923
1.02916 0.9909 1.03913 0.999501
1.01283 0.984197 1.02952 0.999586
1.01282 0.989125 1.02445 0.999523
1.01076 0.999892 1.01185 0.999032
1.0292 0.99712 1.03271 0.999487
1.0158 0.990709 1.02602 0.99932
1.00863 1 1.00982 0.99882
1.00667 1 1.00784 0.998838
1.00739 1.00002 1.00932 0.998065
1.01636 1.00079 1.01875 0.996869
0.999211 1.00004 1.00109 0.998084
1.00307 1.00114 1.00519 0.996747
1.00433 1.00247 1.00596 0.995912
1.00469 1.00688 1.00191 0.995923
1.0065 1.00875 1.00108 0.996688
1.00496 1.00679 1.00189 0.996297
0.998982 1.00109 1.00124 0.996659
1.00405 1.00561 1.0011 0.997357
1.01067 1.01306 1.00048 0.997165
1.00242 1 1.00464 0.997798
1.00636 1.00605 1.00274 0.997583
1.00861 1.01032 1.00117 0.997147
1.00481 1 1.00633 0.998486
1.00535 1 1.00719 0.998169
1.00448 1.00282 1.00376 0.997903
0.999412 1 1 0.999412
1.0002 1 1.00143 0.998767
1.00408 1 1.00571 0.998383
0.999109 1 1.00017 0.998936
0.999526 1 1 0.999526
0.999979 1 1 0.999979
0.999606 1 1 0.999606
0.999987 1 1 0.999987
1 1 1 1
0.999991 1 1 0.999991
1 1 1 1
1 1 1 1
0.998915 1 1 0.998915
0.99958 1 1 0.99958
0.998969 1 1 0.998969
1 1 1 1
0.999631 1 1 0.999631
0.999109 1 1 0.999109
1 1 1 1
1 1 1 1
0.999691 1 1 0.999691
1 1 1 1
1 1 1 1
1 1 1 1
0.86902 0.935909 0.950744 0.976635
0.85487 0.920088 0.952457 0.975495
0.867682 0.932447 0.961356 0.967948
0.99891 1 1.00044 0.998473
0.998955 1 1.00062 0.998333
0.998657 1 1 0.998657
0.998549 1 1 0.998549
0.998466 1 1 0.998466
0.99846 1 1 0.99846
0.998403 1 1 0.998403
0.840425 0.923819 0.941789 0.965958
0.86 0.940024 0.943902 0.969243
0.840711 0.917936 0.945907 0.968246
0.823593 0.945943 0.909277 0.957528
0.898828 0.940061 0.969659 0.986056
0.90547 0.928947 0.999827 0.974896
0.840363 0.904454 0.964203 0.963634
0.891298 0.935668 0.966677 0.985417
0.917315 0.931228 1.01281 0.972604
0.88303 0.940691 0.97456 0.963207
0.791484 0.912194 0.906822 0.956826
0.91164 0.939582 0.982211 0.987834
0.928463 0.939843 1.01609 0.97225
0.831821 0.902281 0.958947 0.961376
0.763272 0.885696 0.90513 0.952102
1.00864 1 1.0102 0.998455
0.999505 1 1.00125 0.998253
1.00259 1 1.00443 0.998159
0.998381 1 1 0.998381
0.969631 0.975555 0.995205 0.998716
1.00823 0.984295 1.02498 0.99935
1.0039 1 1.00574 0.99817
1.00338 1 1.00504 0.998348
1.03761 0.996573 1.04241 0.998821
1.00356 1 1.0051 0.998463
1.03393 0.994535 1.04087 0.998788
0.976997 0.964659 1.01549 0.997343
1.00519 0.97271 1.03383 0.999575
1.0135 0.994151 1.02057 0.998915
0.959384 0.938987 1.02473 0.997067
1.01974 0.975691 1.04588 0.999296
0.860062 0.920097 0.956573 0.977188
0.879782 0.939692 0.955458 0.979892
0.860509 0.920697 0.955551 0.978104
0.996179 0.97463 1.02231 0.999805
0.961132 0.957257 1.00795 0.996124
0.87003 0.935133 0.951179 0.978135
0.947522 0.95383 1.02189 0.972105
0.831428 0.899512 0.959758 0.963066
0.842913 0.920277 0.945807 0.968416
0.744207 0.867531 0.902623 0.950391
1.00349 0.96708 1.03842 0.999255
0.854292 0.920654 0.951102 0.975625
0.854561 0.929204 0.956343 0.961653
0.935768 0.947371 0.995359 0.992359
0.671387 0.802769 0.882117 0.948104
0.793724 0.880377 0.938242 0.960917
0.917158 0.931091 1.01242 0.972948
0.997235 0.97195 1.02825 0.99783
0.864336 0.934296 0.955484 0.968222
0.738753 0.835575 0.926828 0.953926
0.7565 0.856492 0.915592 0.96468
0.895236 0.921019 0.996772 0.975155
0.904086 0.932416 0.982725 0.986661
1.01522 0.987884 1.0281 0.99959
1.01294 0.986416 1.02738 0.999519
0.989258 0.984715 1.00528 0.999339
1.01914 0.98921 1.03088 0.999402
1.00669 0.99416 1.01372 0.998901
1.00201 1.0008 1.00337 0.997847
1.00674 1.00002 1.00883 0.99791
1.01486 1.00073 1.01739 0.996784
1.0086 1.00044 1.01222 0.995989
1.00463 1.00184 1.00608 0.996727
1.00473 1.00227 1.00666 0.995823
1.0022 1.00217 1.00445 0.995591
1.01512 1.01915 1 0.996044
1.01016 1.01326 1.00077 0.996182
1.0051 1.00707 1.00218 0.995868
1.00285 1.00577 1.00013 0.996977
1.00542 1.00795 1.00074 0.996752
1.00473 1.0066 1.0019 0.996248
1.00066 1.00215 1.00112 0.997397
1.00426 1.00585 1.00108 0.997338
1.01044 1.01279 1.00043 0.99725
1.00523 1 1.00713 0.998113
1.0026 1.00015 1.0046 0.997855
1.00702 1.0065 1.00288 0.997642
0.999893 1 1.00071 0.999184
1.00402 1 1.00554 0.998489
1.00445 1 1.00629 0.998168
0.999963 1 1 0.999963
0.999431 1 1.00003 0.999405
1.0004 1 1.00164 0.998765
0.999522 1 1 0.999522
0.999975 1 1 0.999975
1 1 1 1
0.999984 1 1 0.999984
1 1 1 1
1 1 1 1
1.00007 1 1.00161 0.998459
0.9988 1 1 0.9988
0.99948 1 1 0.99948
0.998913 1 1 0.998913
0.999993 1 1 0.999993
0.999583 1 1 0.999583
0.998995 1 1 0.998995
1 1 1 1
1 1 1 1
0.999671 1 1 0.999671
1 1 1 1
1 1 1 1
1 1 1 1
0.847072 0.917071 0.947525 0.974825
0.868144 0.93474 0.950297 0.97733
0.8558 0.921704 0.951847 0.97547
0.998834 1 1.00035 0.998485
0.999549 1 1.00122 0.99833
0.999569 1 1.00121 0.998357
0.998629 1 1.00029 0.99834
1.00379 1 1.00552 0.998282
0.998539 1 1 0.998539
0.998453 1 1 0.998453
0.998461 1 1 0.998461
0.998407 1 1 0.998407
1.0055 1 1.00705 0.998456
0.848074 0.921181 0.957256 0.961748
0.841936 0.924001 0.943241 0.966015
0.86138 0.939039 0.944556 0.971143
0.793726 0.914989 0.906474 0.956972
0.878794 0.93648 0.975576 0.961895
0.883817 0.930336 0.965302 0.984145
0.924893 0.938664 1.01065 0.974944
0.908806 0.94163 0.979772 0.985067
0.938538 0.949245 1.0141 0.97497
0.842808 0.906625 0.965661 0.962667
0.762273 0.890664 0.899831 0.95112
0.921707 0.93575 0.997785 0.98718
0.923306 0.935086 1.01215 0.975546
0.768634 0.854262 0.933806 0.963546
0.701773 0.833376 0.885191 0.951303
1.00908 1 1.01009 0.998994
1.00993 1 1.01149 0.998458
1.00127 1 1.00301 0.998263
0.978086 0.967229 1.01509 0.996191
1.00798 0.967309 1.04233 0.99972
1.00356 1 1.00511 0.998457
1.03585 0.994175 1.04319 0.998775
1.01473 0.99668 1.01921 0.998922
1.02442 0.981357 1.04462 0.999285
0.964947 0.948188 1.0207 0.99704
1.01892 0.994807 1.02491 0.999345
0.97601 0.962392 1.01692 0.99728
0.875362 0.935972 0.964298 0.969871
0.861488 0.920878 0.956871 0.977673
0.877588 0.938859 0.953028 0.98081
1.0062 0.97235 1.03544 0.99939
0.933566 0.946894 0.997459 0.988435
0.856751 0.922243 0.952219 0.975601
0.921286 0.940129 1.00774 0.972429
0.781239 0.861568 0.940917 0.963702
0.850859 0.926033 0.955569 0.961543
0.673609 0.812729 0.877748 0.944262
0.996589 0.970809 1.02859 0.998018
0.866083 0.932926 0.958844 0.968199
0.733585 0.832232 0.925231 0.952699
0.909863 0.938828 0.980909 0.98801
0.768081 0.86416 0.922937 0.963033
0.886933 0.923875 0.986423 0.973228
0.961784 0.961797 1.00344 0.996557
0.772365 0.851816 0.946407 0.958073
0.766109 0.855212 0.928258 0.965046
0.906374 0.94287 0.987323 0.973636
0.883339 0.9286 0.962078 0.988755
1.0117 0.984033 1.02862 0.999515
0.99373 0.983975 1.01061 0.999312
0.997196 0.995714 1.00299 0.998499
1.00467 0.987807 1.01811 0.998979
1.00138 1.00089 1.00257 0.997932
0.998287 1.00199 0.999279 0.997028
1.01312 1.00067 1.01579 0.996698
1.00711 1.0006 1.01054 0.995997
0.999175 1.00164 1.00137 0.996169
1.00485 1.00195 1.00719 0.995735
1.00237 1.00307 1.0037 0.995621
1.01407 1.01789 1 0.996249
1.0337 1.03726 1 0.996565
1.02384 1.02782 1.00002 0.996116
1.01502 1.01902 1 0.99607
1.01051 1.0141 1 0.996461
1.00866 1.01149 1.00107 0.996131
1.00561 1.00738 1.00244 0.995813
1.00292 1.0058 1 0.997138
1.00149 1.00443 1.00002 0.997051
1.00418 1.00707 1.00032 0.996815
1.00012 1.00029 1.00208 0.997751
1.00113 1.00241 1.0013 0.99743
1.00457 1.00617 1.0011 0.997318
1.00408 1 1.0053 0.998789
1.00486 1 1.00675 0.998116
1.00275 1.00022 1.00462 0.997912
0.999927 1 1 0.999927
1.00048 1 1.00131 0.999176
1.00345 1 1.00497 0.998493
1 1 1 1
0.999955 1 1 0.999955
0.999517 1 1.00012 0.999398
0.999971 1 1 0.999971
1 1 1 1
1 1 1 1
1.00234 1 1.00397 0.998377
0.9993 1 1.00062 0.998676
1.00027 1 1.00183 0.998442
0.999382 1 1 0.999382
0.99888 1 1.00008 0.998799
0.999976 1 1 0.999976
0.999483 1 1 0.999483
0.99891 1 1 0.99891
1 1 1 1
0.999996 1 1 0.999996
0.999586 1 1 0.999586
1 1 1 1
1 1 1 1
1 1 1 1
0.864451 0.932934 0.955062 0.970192
0.849728 0.918855 0.948672 0.974803
0.868142 0.933127 0.951258 0.978029
0.998716 1 1.00035 0.998369
0.99922 1 1.00072 0.998497
0.999756 1 1.00143 0.998327
0.998726 1 1.00039 0.998341
0.99942 1 1.00104 0.998378
1.00208 1 1.00374 0.998344
1.00941 1 1.01136 0.998074
1.01098 1 1.0127 0.998301
0.998463 1 1 0.998463
0.998412 1 1 0.998412
1.00512 1 1.00669 0.998443
1.01711 0.999977 1.0185 0.998654
0.743228 0.838497 0.930016 0.953082
0.857673 0.930042 0.959061 0.961553
0.842971 0.923846 0.944517 0.966058
0.752544 0.881735 0.895776 0.952783
0.846491 0.912567 0.96435 0.961884
0.931135 0.941619 1.01703 0.97231
0.911239 0.936465 0.987107 0.985771
0.920676 0.934995 0.9955 0.989137
0.688197 0.82404 0.881298 0.947636
0.917115 0.931895 1.01148 0.97297
0.78758 0.874815 0.935959 0.961882
0.919078 0.94152 0.986005 0.990019
0.9091 0.932291 0.998559 0.976532
0.75786 0.858564 0.916291 0.963348
0.999234 1 0.99969 0.999544
1.00868 1 1.00968 0.999001
1.01014 1 1.0117 0.99846
0.962596 0.94756 1.01885 0.99707
1.029 0.986914 1.0434 0.999273
1.01519 0.998318 1.01799 0.99893
1.01882 0.996235 1.02334 0.999344
0.973287 0.96164 1.01483 0.997326
0.994581 0.987864 1.00865 0.998163
0.797905 0.86503 0.962284 0.958554
0.87287 0.935223 0.960622 0.971587
0.860954 0.921072 0.955607 0.978154
0.997452 0.969426 1.03081 0.998154
0.900132 0.93408 0.974515 0.988858
0.865319 0.931554 0.959405 0.968203
0.891611 0.916671 0.998098 0.974515
0.775572 0.877859 0.919102 0.961244
0.735139 0.837616 0.919924 0.954053
0.962616 0.959885 1.00624 0.996627
0.767609 0.85073 0.940475 0.959403
0.770206 0.858822 0.930792 0.963498
0.885498 0.929439 0.966451 0.985795
0.901789 0.943613 0.978925 0.976252
0.952476 0.968943 0.984667 0.998312
0.791254 0.871966 0.941567 0.963751
0.930067 0.974464 0.976327 0.977582
0.897578 0.943485 0.965275 0.985567
0.997776 0.98278 1.01598 0.999289
0.989288 0.995377 0.995278 0.998598
0.993994 1.00182 0.994462 0.997713
1.00142 1.00104 1.00237 0.998015
1.00146 1.00242 1.00203 0.997011
1.00022 1.00375 0.999428 0.997053
1.00584 1.0008 1.00907 0.996005
0.999091 1.00125 1.00167 0.996181
1.01951 1.023 0.999591 0.996997
1.0028 1.00398 1.00319 0.995652
1.01312 1.01692 1 0.99626
1.03421 1.03729 0.999908 0.997122
1.03735 1.04031 1 0.997153
1.03629 1.03995 1 0.996483
1.03361 1.03713 1 0.996606
1.02453 1.02831 1 0.996332
1.0225 1.02643 1 0.99617
1.01473 1.01871 1 0.996096
1.01331 1.01654 1 0.996821
1.01064 1.01406 1.00014 0.996489
1.00727 1.00975 1.00148 0.99608
0.999864 1.00242 1 0.997451
1.00343 1.00632 1 0.997132
1.00028 1.00317 1 0.997124
1.00297 1 1.0046 0.998373
1.00085 1.0008 1.00232 0.99775
1.00146 1.00256 1.00145 0.997464
1.00014 1 1.00031 0.999828
1.00323 1 1.00445 0.998785
1.00406 1 1.00595 0.998119
1 1 1 1
0.999912 1 1 0.999912
1.00078 1 1.00161 0.999168
1 1 1 1
0.999948 1 1 0.999948
1 1 1 1
0.999504 1 1.00121 0.998292
1.00153 1 1.00316 0.998367
1.00164 1 1.0031 0.998546
0.999651 1 1.00037 0.999279
0.99959 1 1.00092 0.998675
0.999818 1 1.0014 0.998425
0.999952 1 1 0.999952
0.999385 1 1 0.999385
0.998797 1 1 0.998797
1 1 1 1
0.999982 1 1 0.999982
0.999487 1 1 0.999487
1 1 1 1
0.999998 1 1 0.999998
1 1 1 1
0.774451 0.850446 0.95317 0.955383
0.864382 0.932746 0.955173 0.970198
0.852783 0.92101 0.949874 0.974783
1.00092 1 1.00257 0.99835
1.00366 1.00106 1.00449 0.998118
1.0079 1 1.0097 0.998217
0.999443 1 1.0011 0.998342
0.999257 1 1.00086 0.998398
1.00203 1 1.00363 0.998405
1.00956 1 1.0113 0.998277
1.00889 1 1.0108 0.998105
1.01037 1 1.01241 0.997984
0.990661 1.00054 0.99114 0.99898
1.00387 1 1.00545 0.99843
1.01356 0.999918 1.01504 0.998624
0.769647 0.854993 0.935998 0.961733
0.731031 0.827485 0.928865 0.951092
0.864439 0.935487 0.961138 0.961415
0.675914 0.813481 0.880291 0.943883
0.788328 0.874194 0.935765 0.96368
0.907492 0.928032 1.00289 0.975051
0.927998 0.941471 0.999013 0.986663
0.911072 0.93611 0.985136 0.987937
0.759019 0.851968 0.925879 0.962221
0.892842 0.922701 0.993016 0.974445
0.902745 0.941747 0.969248 0.988999
0.893674 0.943874 0.971988 0.974102
1.00431 1 1.00529 0.999021
0.998854 1 0.999368 0.999486
1.00842 1 1.00942 0.999007
0.971748 0.962069 1.01272 0.99737
1.01869 0.997658 1.02175 0.999344
0.995238 0.988749 1.00849 0.998092
0.98441 0.993016 0.994101 0.997215
0.798767 0.889055 0.929723 0.966358
0.799141 0.864118 0.963997 0.959345
0.873381 0.936089 0.958627 0.973279
0.964834 0.965949 1.00208 0.996768
0.887509 0.92973 0.967782 0.986368
0.768116 0.851554 0.940055 0.959537
0.892243 0.937556 0.977364 0.97371
0.77957 0.864885 0.93376 0.965299
0.956662 0.971412 0.987366 0.997418
0.79956 0.881383 0.940153 0.964912
0.927033 0.975309 0.975567 0.974307
0.902983 0.945659 0.966498 0.98797
0.961791 0.986479 0.976731 0.998201
0.9331 0.980925 0.973725 0.976913
0.937852 0.979243 0.967485 0.989918
0.980122 0.993894 0.987442 0.998685
0.99076 1.00212 0.990958 0.997687
0.981697 1.00746 0.976791 0.99758
1.00333 1.00278 1.00356 0.996995
0.9995 1.00382 0.998648 0.997049
1.02125 1.03073 0.993122 0.997662
0.998757 1.00071 1.00186 0.996193
1.0188 1.02288 0.99903 0.996979
1.03328 1.04003 0.995822 0.997674
1.01211 1.0159 1 0.99627
1.03349 1.03689 0.999598 0.997118
1.03785 1.0415 0.998859 0.997626
1.03484 1.03743 1 0.997503
1.03826 1.04116 1 0.997219
1.03717 1.04028 1 0.997008
1.0373 1.04089 1 0.996548
1.03644 1.04009 1 0.996497
1.03362 1.0371 1 0.996647
1.02483 1.02834 1 0.996587
1.02612 1.02986 1 0.996364
1.02116 1.02503 1 0.996224
1.00695 1.00981 1 0.997172
1.01233 1.01556 1 0.996817
1.01071 1.01407 1.00017 0.996517
0.998533 1.00018 1.00026 0.998087
1.00141 1.00398 1 0.997448
1.0041 1.007 1 0.997126
1.00084 1 1.00122 0.999624
1.00223 1.00004 1.00382 0.998374
1.00191 1.00139 1.00277 0.997749
1 1 1 1
1.0006 1 1.0008 0.999804
1.00277 1 1.004 0.998781
1 1 1 1
0.999898 1 1 0.999898
1 1 1 1
0.998378 1.00018 1 0.998199
1.00046 1 1.00216 0.998304
1.00236 1 1.00395 0.998417
1.00034 1 1.00198 0.998357
1.00177 1 1.00323 0.998545
1.0006 1 1.00146 0.999145
0.999922 1 1 0.999922
0.999524 1 1.00024 0.999281
1.00018 1 1.00151 0.998673
1 1 1 1
0.999959 1 1 0.999959
0.999389 1 1 0.999389
1 1 1 1
0.999987 1 1 0.999987
1 1 1 1
0.800299 0.877495 0.945238 0.964865
0.777301 0.853542 0.952894 0.955696
0.863727 0.93237 0.954833 0.970198
1.00328 1 1.00496 0.998331
1.00998 1 1.01192 0.998088
1.00198 1.00065 1.00315 0.99819
0.999844 1.00178 1.00063 0.997432
1.0097 1.00064 1.011 0.998077
1.00865 1 1.01041 0.998253
1.00722 1 1.0091 0.998136
1.01335 1.0002 1.01513 0.998046
0.998313 1.00054 1 0.997773
0.980961 1.00085 0.981465 0.998635
0.982055 1.00035 0.983922 0.997753
0.991006 1.00042 0.991553 0.999024
1.00829 1 1.00971 0.998593
0.917253 0.967633 0.97136 0.975884
0.768075 0.851625 0.936876 0.96266
0.731158 0.829514 0.926295 0.951565
0.757064 0.853935 0.923252 0.960257
0.904622 0.933326 0.995236 0.973885
0.913761 0.931888 0.990334 0.990118
0.904204 0.941046 0.970028 0.990539
0.90642 0.946003 0.980546 0.977168
0.931091 0.973141 0.966802 0.989643
0.996148 1.00132 0.996612 0.998218
1.00401 1 1.00502 0.998999
0.998689 1 0.999261 0.999428
0.996533 0.990812 1.00774 0.998053
0.989515 0.996468 0.995673 0.997338
0.909083 0.968136 0.961443 0.976661
0.80773 0.887472 0.941695 0.966499
0.800042 0.862067 0.966557 0.960161
0.963315 0.976598 0.989886 0.996477
0.904678 0.947322 0.968814 0.985726
0.798961 0.878444 0.942926 0.964571
0.923469 0.967855 0.976526 0.977076
0.969804 0.986346 0.984932 0.998271
0.941407 0.989612 0.972775 0.977912
0.934378 0.976025 0.969373 0.987576
0.984773 1.00422 0.98294 0.997659
0.958157 0.993893 0.970826 0.993015
0.991894 1.00465 0.989603 0.997679
0.981574 1.00708 0.977091 0.99753
0.999242 1.03271 0.969681 0.997845
0.999006 1.00385 0.998123 0.997045
1.02183 1.03095 0.993496 0.997638
1.03168 1.04792 0.986527 0.997944
1.01811 1.0228 0.998445 0.996962
1.03275 1.0402 0.995169 0.997652
1.02977 1.04043 0.991874 0.997866
1.03272 1.0365 0.999237 0.997113
1.03789 1.04201 0.998441 0.997606
1.03555 1.04006 0.997956 0.997697
1.03538 1.03795 0.999974 0.997556
1.03393 1.03676 0.999956 0.997315
1.03914 1.04197 0.999999 0.997286
1.03709 1.04021 1 0.997
1.0391 1.04241 1 0.996823
1.03412 1.03764 1 0.996608
1.03711 1.04071 1 0.996537
1.03658 1.04021 1 0.99651
1.01821 1.02132 1 0.996954
1.02426 1.02775 1 0.996599
1.02773 1.03145 1 0.996396
0.999635 1.00176 1 0.997875
1.008 1.01086 1 0.997169
1.01126 1.0145 1 0.996812
1.00018 1 1.0008 0.999381
0.999082 1.00055 1.00045 0.998088
1.0029 1.00547 1 0.997445
1 1 1 1
1.00095 1 1.00135 0.9996
1.00139 1.00009 1.00294 0.998376
1 1 1 1
1.00104 1 1.00126 0.99978
1 1 1 1
1.00157 1.00404 1 0.997531
0.998404 1.00022 1 0.998189
1.00003 1 1.00181 0.998228
1.00176 1 1.00345 0.998316
1.00198 1 1.00359 0.99839
1.00159 1 1.00265 0.998941
1.00205 1 1.00351 0.998544
1.00019 1 1.00105 0.999146
0.999883 1 1 0.999883
1 1 1 1
0.999931 1 1 0.999931
0.999365 1 1.00008 0.999284
1 1 1 1
0.999966 1 1 0.999966
1 1 1 1
0.93348 0.982144 0.971032 0.978805
0.798028 0.882889 0.936116 0.965567
0.784137 0.857888 0.957378 0.954725
1.01155 1 1.01362 0.997959
0.999989 1.00019 1.00154 0.998262
1.00789 1.00051 1.00934 0.998049
1.00119 1.00279 1.00091 0.997498
1.00864 1.0115 1.00016 0.997008
0.998755 1.00106 1 0.997702
1.01712 1.00043 1.01861 0.998108
0.998528 1.00095 1 0.997582
0.986315 1.00102 0.986677 0.998615
0.995707 1.00096 0.997001 0.997748
0.978251 1.00307 0.977325 0.997886
0.995745 1.00129 0.997096 0.99736
0.982984 1.00082 0.98426 0.997888
0.994663 1.00021 0.995377 0.999069
0.934488 0.978026 0.965414 0.989714
0.921324 0.97134 0.971607 0.976226
0.769719 0.853055 0.935077 0.964958
0.913127 0.950652 0.986516 0.973656
0.907892 0.939967 0.974166 0.99149
0.934885 0.971545 0.96932 0.992723
0.988899 1.00377 0.987526 0.997633
0.994036 1.00067 0.995154 0.998208
1.00376 1 1.00479 0.998978
0.990894 0.998996 0.994434 0.997442
0.944682 0.974649 0.979093 0.98995
0.924459 0.974681 0.968088 0.979738
0.795863 0.88138 0.935873 0.964846
0.970246 0.982758 0.988917 0.998333
0.936473 0.979377 0.96664 0.989192
0.947007 0.988452 0.978755 0.978867
0.976859 1.00258 0.9766 0.997695
0.956866 0.990167 0.973889 0.992278
0.978543 1.02428 0.957644 0.997606
0.998889 1.01641 0.986021 0.996698
0.980746 1.00668 0.976707 0.997474
0.997673 1.03139 0.969407 0.99784
1.00524 1.05021 0.95922 0.99787
1.02282 1.03165 0.993806 0.997614
1.03147 1.04773 0.986528 0.997926
1.02579 1.04372 0.984973 0.997816
1.03253 1.04053 0.994662 0.99763
1.02934 1.03975 0.992126 0.997847
1.03501 1.04498 0.992774 0.997667
1.03803 1.04251 0.998113 0.997586
1.03373 1.0383 0.99791 0.997689
1.03533 1.03914 0.998923 0.997416
1.03593 1.03846 0.99996 0.997608
1.03424 1.03699 0.99998 0.99736
1.03766 1.04078 1 0.997006
1.03707 1.0402 1 0.996991
1.03907 1.04239 1 0.996812
1.03688 1.04025 1 0.996768
1.02598 1.02924 1 0.996839
1.03413 1.03764 1 0.996616
1.03687 1.04048 1 0.996526
1.00364 1.00597 1 0.997684
1.01758 1.02068 1 0.996957
1.02373 1.02721 1 0.996612
0.999187 1 1.00001 0.999177
1.00072 1.00286 1 0.997872
1.00881 1.01168 1 0.997165
1 1 1 1
0.999935 1 1.00057 0.999365
0.999532 1.00086 1.00059 0.998088
1 1 1 1
1.00108 1 1.00151 0.999575
1 1 1 1
1.00996 1.01289 1 0.997106
1.00253 1.00499 1 0.997554
1.00268 1.00422 1.00066 0.997804
0.998503 1.00032 1 0.998179
0.999937 1 1.00175 0.998189
1.00107 1 1.0024 0.998668
1.00168 1 1.00333 0.998363
1.00141 1 1.00247 0.998943
1.00031 1 1.00049 0.999823
0.999881 1 1.00073 0.999148
0.999893 1 1 0.999893
1 1 1 1
1 1 1 1
0.99994 1 1 0.99994
1 1 1 1
0.936112 0.97821 0.966315 0.990323
0.92603 0.981622 0.966389 0.976178
0.790465 0.876014 0.933724 0.966391
1.02221 1.02545 1.00007 0.996775
1.00621 1.00031 1.00789 0.998021
1.00269 1.00393 1.00121 0.997565
0.998546 1.00087 1 0.997678
1.00843 1.01105 1.00042 0.996991
1.00213 1.00457 0.999979 0.99759
0.998687 1.0013 1 0.99739
0.988638 1.0009 0.989136 0.998595
0.993804 1.0012 0.994837 0.997764
0.972897 1.0021 0.972995 0.997801
1.00117 1.00764 0.996454 0.99711
1.00106 1.00685 0.99687 0.997363
0.996534 1.00195 0.997264 0.997319
0.983162 1.00134 0.983796 0.998023
0.987382 1.00613 0.983209 0.998129
0.930551 0.976962 0.963554 0.988521
0.923862 0.973022 0.971843 0.976987
0.92814 0.966068 0.969794 0.990663
0.991927 1.00549 0.988236 0.998252
0.994092 1.0002 0.995692 0.998193
0.987888 1.00668 0.98481 0.996467
0.931208 0.96142 0.977009 0.991368
0.911755 0.971485 0.96083 0.976777
0.972447 1.00065 0.974024 0.99773
0.963853 0.992075 0.980072 0.991306
0.981951 1.02532 0.959915 0.997695
0.999761 1.01597 0.987085 0.996926
0.994557 1.03774 0.960596 0.997702
1.04052 1.05054 0.992879 0.99756
0.99517 1.02947 0.968782 0.997834
1.0088 1.05158 0.961376 0.997858
1.01479 1.0534 0.965589 0.997675
1.03053 1.04699 0.986351 0.997907
1.0245 1.04286 0.984557 0.997813
1.03365 1.05009 0.986756 0.997553
1.02864 1.03895 0.992225 0.997829
1.03394 1.04398 0.992685 0.99768
1.03774 1.04421 0.996427 0.997365
1.03189 1.03654 0.997823 0.997681
1.0359 1.03962 0.999005 0.997415
1.03974 1.04285 0.999923 0.997092
1.03451 1.0372 1 0.997405
1.03797 1.04105 1 0.997045
1.03883 1.04215 1 0.996807
1.03902 1.04235 1 0.996801
1.03666 1.04004 1 0.996748
1.0291 1.03234 1 0.996855
1.00829 1.01076 1 0.997562
1.02528 1.02851 1 0.996859
1.03413 1.03763 1 0.996624
0.999032 1 1 0.999032
1.00509 1.00742 1 0.997683
1.01712 1.02023 1 0.996959
1 1 1 1
0.999164 1 1 0.999164
1.00193 1.00407 1 0.99787
1 1 1 1
0.99968 1 1.00033 0.999348
1 1 1 1
1.02029 1.02358 1 0.99679
1.011 1.01393 1 0.997107
1.00881 1.01142 1 0.997419
1.00341 1.00584 1.00001 0.997576
1.0015 1.00316 1.00056 0.997799
1.00073 1.00062 1.00174 0.998367
0.999683 1 1.00153 0.998151
1.00191 1 1.00324 0.998669
1.00078 1 1.00107 0.999716
1.0008 1 1.00186 0.998944
0.99987 1 1.00004 0.999834
1 1 1 1
0.999902 1 1 0.999902
1 1 1 1
1 1 1 1
0.98347 1.01057 0.975179 0.997958
0.930512 0.975186 0.965731 0.988049
0.922431 0.97165 0.969555 0.979155
1.01548 1.01837 1.00001 0.997149
1.03125 1.03457 1 0.996789
1.02004 1.02314 1.00013 0.996837
0.998393 1.00074 1 0.997653
1.00807 1.01039 1.00073 0.996972
1.00291 1.00614 0.999227 0.997558
1.01695 1.02112 0.998846 0.997068
0.992639 1.00164 0.993222 0.99778
0.969513 1.00136 0.97041 0.997714
1.0025 1.00938 0.99598 0.997189
1.02027 1.02696 0.996566 0.996902
1.00856 1.02406 0.987214 0.997617
1.00322 1.00854 0.997395 0.99733
0.997733 1.00262 0.997839 0.997277
0.991566 1.00805 0.985287 0.99834
0.934022 0.97873 0.96668 0.987214
0.992087 1.00608 0.987191 0.99889
1.02117 1.03874 0.984881 0.998177
0.986619 1.00539 0.984692 0.996583
0.935215 0.971568 0.973022 0.989271
0.985134 1.02673 0.961622 0.997779
1.00056 1.01592 0.98767 0.997166
0.993511 1.03838 0.958884 0.99782
1.04041 1.0519 0.991482 0.997574
1.03499 1.06005 0.97874 0.997564
1.0637 1.07639 0.990495 0.997693
1.01264 1.05376 0.96305 0.997846
1.01958 1.05406 0.969535 0.997676
1.03688 1.05868 0.981905 0.997457
1.02358 1.04217 0.984318 0.997809
1.0335 1.04933 0.987332 0.997552
1.03839 1.04978 0.991801 0.99733
1.03291 1.04299 0.992626 0.997693
1.03824 1.04468 0.996466 0.997361
1.04271 1.04657 0.99922 0.99709
1.03642 1.04005 0.99909 0.997413
1.03998 1.04306 0.999949 0.997092
1.04183 1.04515 1 0.996816
1.03828 1.04132 1 0.997084
1.03841 1.04172 1 0.99682
1.03146 1.03474 1 0.996827
1.03646 1.03986 1 0.996729
1.02901 1.03226 1 0.99685
1.01052 1.01306 1 0.997494
0.998966 1 1 0.998966
1.00893 1.0114 1 0.997561
1.02461 1.02781 1 0.996878
1 1 1 1
0.999021 1 1 0.999021
1.00647 1.00881 1 0.997683
1 1 1 1
0.999151 1 1 0.999151
1 1 1 1
1.02875 1.03217 1 0.996686
1.02038 1.02368 1 0.996776
1.01409 1.01703 1 0.997114
1.0119 1.01484 1 0.997108
1.00729 1.00989 1 0.997426
1.00104 1.00262 1.00035 0.998083
1.00008 1.00183 1.00046 0.997794
1.00106 1.00033 1.00236 0.998369
1.00047 1 1.00094 0.999528
1.00335 1 1.00469 0.99867
1.00067 1 1.00094 0.999732
1 1 1 1
0.999844 1 1 0.999844
1 1 1 1
1 1 1 1
1.00748 1.03532 0.974961 0.998102
0.980871 1.00952 0.974263 0.997288
0.930204 0.976931 0.962984 0.98877
1.02785 1.03099 1 0.996952
1.0166 1.01932 1 0.997336
1.04661 1.04994 1 0.996824
1.03193 1.03527 1 0.996774
1.01814 1.02113 1.00018 0.9969
1.03922 1.04337 0.999206 0.996813
1.00355 1.00781 0.998238 0.997526
1.01616 1.01997 0.99926 0.997005
1.03906 1.05424 0.988493 0.997078
1.00291 1.01097 0.994751 0.997269
1.0207 1.0275 0.996514 0.996852
1.00963 1.0254 0.986943 0.997648
1.00369 1.00888 0.997557 0.997293
0.996114 1.0099 0.987792 0.99854
1.05004 1.06863 0.984819 0.997745
1.02168 1.03843 0.985644 0.998195
0.985191 1.00409 0.984432 0.996694
0.993251 1.03837 0.958525 0.997937
1.03936 1.05229 0.990101 0.997588
1.03095 1.05934 0.975563 0.997586
1.06433 1.07817 0.989451 0.997689
1.0537 1.07116 0.986088 0.997582
1.02392 1.05436 0.973391 0.997677
1.03748 1.05807 0.983034 0.997466
1.03978 1.05511 0.988093 0.997352
1.03327 1.04853 0.987867 0.99755
1.03816 1.04942 0.991939 0.997311
1.04356 1.05002 0.99677 0.997071
1.03878 1.04518 0.996509 0.997358
1.0428 1.04661 0.999264 0.997087
1.0451 1.04845 1 0.996809
1.04023 1.04329 0.999974 0.997091
1.04157 1.0449 1 0.996819
1.03467 1.03802 1 0.996772
1.038 1.0413 1 0.996832
1.03159 1.03487 1 0.996832
1.01151 1.01412 1 0.99742
1.02887 1.03213 1 0.996844
1.01072 1.01326 1 0.997492
0.999132 1 1 0.999132
0.99968 1 1 0.99968
0.999039 1 1 0.999039
1.00954 1.01201 1 0.997561
1 1 1 1
0.999009 1 1 0.999009
1 1 1 1
1.05317 1.05644 1 0.996904
1.03839 1.04176 1 0.996763
1.02964 1.03307 1 0.996686
1.02091 1.02402 1 0.996957
1.02073 1.02405 1 0.996762
1.01469 1.01763 1 0.997114
1.00432 1.00648 1 0.997846
1.00599 1.00858 1 0.997434
1.00042 1.00187 1.00047 0.998086
0.999408 1 1.00012 0.999286
1.0013 1.00011 1.00282 0.998372
1.00054 1 1.00099 0.999548
1 1 1 1
1.00004 1 1.00029 0.999748
1 1 1 1
1 1 1 1
1.04485 1.06717 0.981544 0.997494
1.01174 1.04033 0.97431 0.998164
0.978574 1.00962 0.972532 0.996627
1.04384 1.04715 0.999998 0.996837
1.02591 1.02899 1 0.997007
1.01738 1.01991 1 0.997521
1.04532 1.04863 1 0.996842
1.03257 1.03593 1 0.996758
1.04788 1.06109 0.990463 0.997059
1.03572 1.04006 0.999054 0.996773
1.0155 1.01868 0.999931 0.996942
1.03801 1.05307 0.988595 0.997073
1.02348 1.03 0.996856 0.996802
1.01398 1.03045 0.986306 0.997686
1.05355 1.06963 0.987259 0.997679
1.0527 1.07039 0.985669 0.997775
1.02207 1.03832 0.98611 0.998214
1.02819 1.0597 0.972592 0.997605
1.06582 1.08071 0.988511 0.997684
1.05364 1.07211 0.985146 0.99759
1.04528 1.057 0.99145 0.997441
1.03802 1.05738 0.984173 0.997475
1.03994 1.05475 0.988589 0.99734
1.04482 1.05316 0.99496 0.997103
1.03794 1.04908 0.992071 0.997292
1.04399 1.05045 0.996776 0.99707
1.04763 1.05121 0.999796 0.996801
1.04288 1.04666 0.999307 0.997084
1.04534 1.04868 1 0.99681
1.03736 1.04078 1 0.99671
1.04133 1.04465 1 0.996823
1.03496 1.0383 1 0.996776
1.0127 1.01542 1 0.997323
1.03173 1.03501 1 0.996837
1.01182 1.01444 1 0.997419
0.999141 1 1 0.999141
1.01094 1.01348 1 0.99749
0.999127 1 1 0.999127
0.9997 1 1 0.9997
0.999846 1 1 0.999846
0.999118 1 1 0.999118
1 1 1 1
1.04842 1.05171 0.999992 0.996882
1.04379 1.04712 1 0.996822
1.05218 1.05532 1 0.997024
1.03067 1.03391 1 0.996873
1.0404 1.04379 1 0.996752
1.03054 1.03397 1 0.996686
1.02186 1.02499 1 0.996951
1.00924 1.01161 1 0.997656
1.01525 1.01819 1 0.997114
1.00307 1.00523 1 0.997847
0.999089 1 1 0.999089
0.999666 1.00106 1.00052 0.998089
0.999669 1 1.00036 0.999305
1 1 1 1
1.00075 1 1.00118 0.999568
1 1 1 1
1 1 1 1
1.04574 1.06431 0.98513 0.997384
1.04314 1.0653 0.981664 0.997489
1.01437 1.04293 0.974354 0.998219
1.0488 1.05603 0.996168 0.996972
1.04169 1.04509 0.999903 0.996838
1.02421 1.02722 1 0.997063
1.04385 1.04714 1 0.99686
1.04645 1.05957 0.990562 0.997035
1.03208 1.03658 0.998925 0.996732
1.03329 1.04805 0.988818 0.997068
1.0481 1.06037 0.9909 0.997503
1.05232 1.06822 0.987442 0.99764
1.05518 1.07187 0.986589 0.997805
1.04405 1.05291 0.994226 0.997337
1.05324 1.07276 0.984163 0.997598
1.04516 1.05709 0.991263 0.997427
1.04635 1.05432 0.99522 0.997203
1.04017 1.05441 0.989138 0.997328
1.04488 1.05324 0.994943 0.997105
1.04864 1.05251 0.999511 0.996809
1.04436 1.0508 0.996787 0.997069
1.04782 1.05141 0.999784 0.996802
1.03842 1.04189 1 0.996666
1.04548 1.04883 1 0.996811
1.03759 1.04101 1 0.996712
1.01353 1.01635 1 0.997228
1.03522 1.03856 1 0.996779
1.01294 1.01566 1 0.997323
0.999116 1 1 0.999116
1.01213 1.01475 1 0.997418
0.999131 1 1 0.999131
0.999705 1 1 0.999705
0.999124 1 1 0.999124
0.999707 1 1 0.999707
1 1 1 1
1.04831 1.05248 0.999251 0.996784
1.04539 1.0488 1 0.996752
1.0501 1.05341 0.999972 0.996883
1.03658 1.03981 1 0.996892
1.04491 1.04822 1 0.996849
1.05135 1.05436 1 0.997143
1.01282 1.01535 1 0.9975
1.03069 1.03394 1 0.996864
1.04256 1.04597 1 0.99674
1.02272 1.02586 1 0.996945
1.00777 1.01013 1 0.997658
0.998984 1 1 0.998984
1.00179 1.00395 1 0.997848
0.999103 1 1 0.999103
1 1 1 1
0.999897 1 1.00057 0.999323
1 1 1 1
1 1 1 1
1.04477 1.05645 0.991669 0.99725
1.04572 1.06459 0.984871 0.997367
1.04332 1.06552 0.98163 0.997485
1.04784 1.05528 0.995945 0.996987
1.03928 1.04279 0.999797 0.996839
1.04586 1.05891 0.990636 0.997011
1.04516 1.05482 0.993492 0.997338
1.04848 1.0605 0.991144 0.997496
1.05112 1.06692 0.987557 0.997601
1.04451 1.05327 0.994313 0.997358
1.04667 1.05341 0.996444 0.997147
1.04502 1.0572 0.991037 0.997414
1.04661 1.0543 0.995528 0.997162
1.04853 1.05298 0.998875 0.996894
1.04495 1.05333 0.994922 0.997107
1.04874 1.05268 0.999445 0.996812
1.03822 1.04172 1 0.996636
1.04822 1.05182 0.999769 0.996803
1.03872 1.0422 1 0.996667
1.01368 1.01657 1 0.997161
1.03797 1.04139 1 0.996715
1.01359 1.01641 1 0.997228
0.999061 1 1 0.999061
1.0132 1.01592 1 0.997323
0.9991 1 1 0.9991
0.999685 1 1 0.999685
0.999123 1 1 0.999123
0.99972 1 1 0.99972
0.999709 1 1 0.999709
1.04802 1.05418 0.997117 0.997036
1.04775 1.05127 1 0.996649
1.04899 1.05377 0.998646 0.996812
1.03859 1.04193 1 0.9968
1.04459 1.048 1 0.996742
1.0517 1.05503 0.999954 0.996885
1.01391 1.01656 1 0.997392
1.03644 1.03971 1 0.996856
1.04587 1.04915 1 0.996877
0.998949 1 1 0.998949
1.0121 1.01464 1 0.997503
1.03081 1.03406 1 0.996856
1.00633 1.0087 1 0.997659
0.998995 1 1 0.998995
1 1 1 1
0.999117 1 1 0.999117
1 1 1 1
1 1 1 1
1.04269 1.05198 0.993916 0.997233
1.04469 1.05634 0.991707 0.997243
1.04532 1.06441 0.984674 0.997351
1.04691 1.05455 0.995738 0.997003
1.04659 1.05228 0.99748 0.997105
1.04554 1.05496 0.993711 0.997349
1.0489 1.0606 0.991461 0.997489
1.04501 1.05363 0.99442 0.997378
1.04655 1.05341 0.99632 0.997157
1.04859 1.05304 0.998881 0.996889
1.04693 1.05432 0.995856 0.997121
1.04862 1.05289 0.999096 0.996849
1.03806 1.04153 1 0.99667
1.04875 1.05275 0.999381 0.996815
1.03845 1.04195 1 0.996638
1.01323 1.01617 1 0.997109
1.03875 1.04222 1 0.996669
1.01352 1.0164 1 0.997162
0.998841 1 1 0.998841
1.01359 1.01641 1 0.997229
0.998969 1 1 0.998969
1 1 1 1
0.999086 1 1 0.999086
0.999705 1 1 0.999705
0.999729 1 1 0.999729
1.04566 1.05169 0.997131 0.997125
1.04794 1.05166 0.999687 0.99677
1.04825 1.054 0.997511 0.997026
1.03919 1.04268 1 0.996649
1.04699 1.05061 0.999884 0.996668
1.04973 1.05513 0.998035 0.99684
1.01433 1.01716 1 0.997212
1.03878 1.04212 1 0.9968
1.04383 1.04725 1 0.996733
0.998946 1 1 0.998946
1.01381 1.0165 1 0.997349
1.0363 1.0396 1 0.996821
1 1 1 1
0.99896 1 1 0.99896
1.0113 1.01383 1 0.997505
0.999006 1 1 0.999006
1 1 1 1
1 1 1 1
1.0453 1.05099 0.997463 0.99712
1.04308 1.05226 0.994022 0.99724
1.04453 1.0562 0.991691 0.997235
1.04869 1.05259 0.999464 0.996826
1.04591 1.05192 0.997161 0.997119
1.0459 1.05508 0.99392 0.997359
1.0464 1.05342 0.996162 0.997168
1.0483 1.05283 0.998807 0.99689
1.03717 1.04057 1 0.996733
1.04863 1.05273 0.999303 0.996804
1.03804 1.0415 1 0.996675
1.01268 1.01571 1 0.997007
1.03882 1.04232 1 0.996641
1.01311 1.01605 1 0.99711
0.998798 1 1 0.998798
1.01346 1.01634 1 0.997162
0.998839 1 1 0.998839
1 1 1 1
0.998863 1 1 0.998863
0.999834 1 1 0.999834
0.999723 1 1 0.999723
1.04602 1.05116 0.998026 0.997076
1.04887 1.0523 0.9999 0.996833
1.04594 1.05189 0.997199 0.997132
1.03918 1.04268 1 0.996647
1.04854 1.05212 0.999841 0.996754
1.04851 1.05385 0.997913 0.997016
1.01413 1.01706 1 0.997117
1.03904 1.04251 1 0.996678
1.0462 1.04993 0.999763 0.996687
0.998922 1 1 0.998922
1.0143 1.01715 1 0.997198
1.03897 1.04231 1 0.9968
1 1 1 1
0.998966 1.00001 1 0.998955
1.01378 1.01652 1 0.997306
1 1 1 1
0.998994 1.00002 1 0.998971
1 1 1 1
1.04877 1.05275 0.999345 0.996874
1.04475 1.05039 0.997527 0.997104
1.04343 1.05248 0.994139 0.997246
1.03669 1.04009 1 0.996728
1.04832 1.05246 0.999215 0.996848
1.04524 1.05156 0.996845 0.997132
1.04804 1.05262 0.998757 0.996891
1.03723 1.04063 1 0.996732
1.01192 1.01497 1 0.996989
1.03802 1.04148 1 0.99668
1.01261 1.01562 1 0.997036
0.998746 1 1 0.998746
1.01293 1.01587 1 0.997111
0.998795 1 1 0.998795
1 1 1 1
0.998836 1 1 0.998836
1 1 1 1
0.999698 1 1 0.999698
1.05021 1.0538 0.999735 0.996854
1.04542 1.05104 0.997549 0.997099
1.03852 1.04198 1 0.996679
1.04901 1.05241 0.99994 0.996832
1.04627 1.05217 0.997247 0.997139
1.01324 1.01614 1 0.997145
1.03873 1.04223 1 0.996643
1.04911 1.05254 1 0.996738
0.99887 1 1 0.99887
1.01434 1.01725 1 0.997143
1.03887 1.0423 1 0.996706
1 1 1 1
0.998928 1 1 0.998928
1.01428 1.01714 1 0.997185
1 1 1 1
0.998964 1 1 0.998964
1 1 1 1
1.03683 1.0402 1 0.996757
1.04879 1.05262 0.999503 0.996861
1.04423 1.0498 0.997598 0.997088
1.01088 1.01392 1 0.997001
1.0367 1.0401 1 0.996728
1.04794 1.05233 0.998957 0.99687
1.03729 1.04069 1 0.996732
1.01196 1.01501 1 0.996989
0.998714 1 1 0.998714
1.01257 1.01555 1 0.997064
0.998743 1 1 0.998743
1 1 1 1
0.998793 1 1 0.998793
1 1 1 1
1 1 1 1
1.03797 1.04142 1 0.996694
1.04969 1.0534 0.999581 0.996893
1.04476 1.05084 0.997083 0.997122
1.01234 1.01524 1 0.997138
1.03823 1.04169 1 0.996676
1.04916 1.0525 1 0.996831
0.99882 1 1 0.99882
1.0136 1.0165 1 0.997143
1.03832 1.04182 1 0.99664
1 1 1 1
0.998873 1 1 0.998873
1.01456 1.01744 1 0.997169
1 1 1 1
0.998934 1 1 0.998934
1 1 1 1
1.01077 1.01373 1 0.99708
1.03672 1.04013 1 0.996727
1.04882 1.05249 0.999657 0.996847
0.998727 1 1 0.998727
1.01098 1.01403 1 0.996998
1.03671 1.04011 1 0.996728
1.012 1.01505 1 0.996989
0.998714 1 1 0.998714
1 1 1 1
0.998741 1 1 0.998741
1 1 1 1
1 1 1 1
1.01142 1.01434 1 0.997117
1.03768 1.0411 1 0.99671
1.04918 1.05303 0.999412 0.996932
0.998985 1 1 0.998985
1.01263 1.01554 1 0.997136
1.03793 1.04139 1 0.996672
1 1 1 1
0.998821 1 1 0.998821
1.01393 1.01684 1 0.997141
1 1 1 1
0.998877 1 1 0.998877
1 1 1 1
0.998719 1 1 0.998719
1.01092 1.01391 1 0.997054
1.03663 1.04007 1 0.996697
1 1 1 1
0.998726 1 1 0.998726
1.01108 1.01413 1 0.996996
0.998713 1 1 0.998713
1 1 1 1
1 1 1 1
0.998944 1 1 0.998944
1.01171 1.01464 1 0.997117
1.03735 1.04076 1 0.996725
1 1 1 1
0.99879 1 1 0.99879
1.01294 1.01585 1 0.997135
1 1 1 1
0.998822 1 1 0.998822
1 1 1 1
0.999637 1 1 0.999637
0.998839 1 1 0.998839
1.01106 1.01407 1 0.997027
1 1 1 1
0.998727 1 1 0.998727
1 1 1 1
0.999653 1 1 0.999653
0.998859 1 1 0.998859
1.01204 1.01496 1 0.997117
0.999826 1 1 0.999826
0.99879 1 1 0.99879
1 1 1 1
1 1 1 1
0.998749 1 1 0.998749
1 1 1 1
0.999824 1 1 0.999824
0.998771 1 1 0.998771
1 1 1 1
1 1 1 1
1 1 1 1

VECTORS lamdaE float
1.00119 1.00014 0.993843
1.00078 1.00071 0.997014
1.00076 1.00034 0.99413
1.00131 1.00003 0.99377
1.00127 0.999977 0.993909
1.00113 1.00038 0.993661
1.00256 1.00045 0.990853
1.0008 1.00064 0.997019
1.00077 1.00016 0.997431
1.00025 1.0009 0.997473
1.00067 1.00077 0.993881
1.00222 1.0013 0.989708
1.00093 0.999975 0.994219
1.0007 1.00002 0.994354
1.00037 1.00054 0.994389
1.00099 1.00001 0.994092
1.00065 1.00073 0.993923
1.00091 1.00003 0.994208
1.00277 1.00026 0.990724
1.00095 1.00002 0.997085
1.00126 1.00008 0.993775
1.00132 0.99996 0.993858
1.00266 1.00013 0.990994
1.00267 1.00015 0.990961
1.0011 1.00051 0.993528
1.00235 1.00098 0.990647
1.00507 1.00063 0.986323
1.00079 1.0006 0.997038
1.00097 1.00006 0.995669
1.00056 1.00064 0.995691
1.00073 1.00063 0.997086
1.00212 1.00145 0.989721
1.00126 0.99982 0.993841
1.001 1.00024 0.99394
1.003 1.00006 0.991206
0.999905 1.00085 0.99772
1.00266 1.00077 0.991173
1.00191 1.0018 0.989708
1.00436 1.00147 0.985943
1.00005 0.999372 0.998112
1.00096 0.999987 0.997079
1.00092 1.00001 0.995679
1.00089 0.999975 0.997125
1.00055 1.00004 0.994541
1.00263 0.999936 0.990439
1.00086 0.999967 0.997368
1.003 1.00006 0.991242
1.00068 0.999948 0.994415
1.00057 1.00006 0.994493
1.00018 1.00112 0.994166
1.00297 1.00009 0.990609
1.00077 1.00004 0.995803
1.00093 1.0001 0.994101
1.00059 1.00097 0.993766
1.00099 0.999935 0.994168
1.00281 1.00009 0.990842
1.00262 1.00071 0.990523
1.00284 1.00005 0.990827
1.00504 1.00064 0.986338
1.00086 1 0.997125
1.00114 1.00007 0.993946
1.00239 1 0.992092
1.00259 1.00014 0.991083
1.0027 1.00008 0.990985
1.00495 1.00022 0.986829
1.00505 1.00024 0.986586
1.0009 1.00044 0.993803
1.00183 1.00191 0.990513
1.005 1.00093 0.986165
1.00528 1.0003 0.985519
1.00123 1.00008 0.996992
1.00066 1.00056 0.997212
1.00087 1.00051 0.997015
1.00204 1.00154 0.989728
1.00131 0.99995 0.996939
1.00109 1.00027 0.997017
1.00287 1.00002 0.989814
1.00015 1.00064 0.99606
1.00241 1.00082 0.989794
1.00179 1.00206 0.990524
1.00444 1.00131 0.985931
1.00033 1.00003 0.997658
1.00016 1.00172 0.992831
1.00304 0.999944 0.989665
1.00283 1.0002 0.989789
1.00511 1.00025 0.985914
1.00129 1.00248 0.991787
1.00477 1.00079 0.985904
1.0036 1.00264 0.986079
1.00523 1.00131 0.984512
0.999903 0.998544 0.998518
0.999912 0.999157 0.998285
1.00121 0.999991 0.99694
1.00102 0.999985 0.997057
1.00092 0.999981 0.997124
1.00081 0.999994 0.995805
1.00267 0.999927 0.991108
1.00104 0.999975 0.995612
1.00293 1.00007 0.990563
1.00089 0.999989 0.997137
1.00248 0.999857 0.990711
1.00286 1.00003 0.991498
1.00491 0.999406 0.987196
1.00303 0.999997 0.991189
1.00508 0.99976 0.986571
1.00091 1 0.994247
1.00058 1.00011 0.994431
1.00007 1.00147 0.994003
1.00068 0.999885 0.994476
1.00294 1.0001 0.99069
1.003 0.999973 0.990701
1.00287 1.00041 0.990409
1.00501 1.00064 0.986353
1.00091 0.999989 0.99713
1.00081 1.00007 0.99427
1.00256 0.999966 0.990948
1.00273 1.00013 0.990922
1.00066 1.00086 0.995415
1.0022 1.00169 0.990603
1.00285 1.00003 0.990844
1.00497 1.0001 0.986921
1.00495 1.00096 0.986183
1.00504 1.00037 0.986522
1.00528 1.0003 0.985552
1.00247 0.999905 0.990704
1.00247 1.00006 0.99132
1.00481 0.999318 0.987931
1.00491 0.999829 0.987231
1.00501 1.00007 0.986814
1.00528 0.99896 0.987128
1.0003 1.00064 0.997437
1.00528 0.999751 0.986079
1.00135 1.00277 0.989542
1.00457 1.00133 0.985694
1.00528 1.00092 0.98496
1.00522 0.998754 0.98704
1.00062 1.00289 0.990828
1.0014 1.00498 0.987292
1.00131 0.999976 0.996954
1.00106 1.0003 0.99701
1.00288 1.00001 0.989808
1.0003 1.00035 0.997553
1.00146 1.00238 0.989836
1.0024 1.00082 0.989811
1.00454 1.00117 0.98592
1.00014 0.99993 0.997828
1.00003 1.00188 0.992866
1.00306 0.999982 0.990418
1.00285 1.00025 0.990497
1.00511 1.00027 0.985893
1.00092 1.00269 0.99049
1.00481 1.00074 0.98589
1.00375 1.00234 0.986086
1.00527 1.00123 0.984608
1.00041 1.00249 0.991545
1.00004 1.00089 0.993944
1.00135 1.00469 0.988291
1.00514 1.00011 0.986045
1.00501 1.00043 0.985877
1.00532 0.999591 0.986234
1.00292 1.00331 0.986542
1.0053 1.00054 0.98531
1.00499 1.00172 0.984516
1.00529 1.00064 0.985067
0.99988 0.99805 0.998772
0.999849 0.998472 0.998623
0.999815 0.998989 0.998432
1.00032 1.00264 0.991576
1.00011 1.00028 0.997705
1.00131 0.999965 0.996924
1.00109 0.99999 0.996991
1.00279 1.0001 0.989931
1.00256 0.999925 0.990497
1.0009 0.999979 0.997116
1.00087 0.999983 0.997134
1.00246 0.999869 0.990705
1.00278 1.00001 0.990824
1.0049 0.999406 0.987198
1.00291 1.00003 0.989767
1.00504 0.999769 0.986566
1.00243 0.99987 0.990758
1.00484 0.99931 0.987399
1.005 0.999557 0.98689
1.00537 0.997383 0.988614
1.00512 0.99995 0.986279
1.00532 0.998061 0.987944
1.00088 0.999989 0.997128
1.00045 1.00012 0.994592
1.00258 0.999964 0.989939
1.00287 1.00013 0.990759
1 1.00138 0.997423
1.00267 1.00129 0.990695
1.00299 1.00001 0.990704
1.00499 0.999976 0.987013
1.00504 1.00049 0.986457
1.00489 1.001 0.9862
1.00528 1.00029 0.985586
1.00244 0.999899 0.990707
1.00262 1.00007 0.991156
1.00484 0.999305 0.987633
1.00494 0.999954 0.987115
1.00044 1.00069 0.99733
1.00158 1.00251 0.990358
1.00441 1.00168 0.985933
1.00502 1.00011 0.986775
1.00528 0.99864 0.987433
1.00528 1.00084 0.985027
1.00528 0.999849 0.98608
1.00522 0.998767 0.987062
1.00068 1.00279 0.990814
1.00157 1.0049 0.987295
1.00482 0.999385 0.987369
1.00487 0.9996 0.987585
1.00535 0.997873 0.988171
1.00528 0.997966 0.988099
1.0053 0.999079 0.98686
1.00523 0.996603 0.989432
1.00092 1.00302 0.990104
1.00522 0.997792 0.988057
1.0038 1.00227 0.985936
1.00528 1.00137 0.98437
1.00522 1.00003 0.985916
1.00519 0.997087 0.988871
1.00251 1.00393 0.986629
1.0009 1.00509 0.988182
1.00302 1.00369 0.986186
1.00295 0.99997 0.989752
0.99996 0.999761 0.998017
0.999933 1.00195 0.992899
1.0027 1.00028 0.989846
1.0051 1.00027 0.985871
1.00085 1.00291 0.990443
1.00391 1.00196 0.986094
1.00485 1.00071 0.985876
1.00529 1.00114 0.984705
1.00038 1.00261 0.991554
0.99999 1.00079 0.993992
1.00102 1.00483 0.988269
1.00512 1.00013 0.986025
1.00502 1.00043 0.985859
1.00532 0.999598 0.986209
1.00303 1.00313 0.986553
1.00531 1.00061 0.985236
1.00507 1.00168 0.984498
1.00529 1.00043 0.985211
1.00002 1.00008 0.994741
1.00213 1.00419 0.987255
1.00071 1.00412 0.989695
1.00207 1.00431 0.987216
1.00533 0.999041 0.986825
1.00532 1.00012 0.985666
1.00526 0.998047 0.987718
1.00449 1.00185 0.985247
1.00526 0.99946 0.98643
1.00522 1.00128 0.98478
1.00524 0.999823 0.985928
1.00022 1.00146 0.993031
1.00024 0.998955 0.995454
0.999919 0.997654 0.998915
0.99986 0.997963 0.998829
0.999814 0.998342 0.998711
1.00008 1.00203 0.992533
0.999997 0.999845 0.997973
1.00041 1.00252 0.991551
1.0002 1.00039 0.997606
1.0029 1.00007 0.989768
1.0027 0.999999 0.990205
1.00502 0.99978 0.986562
1.00488 0.999411 0.9872
1.00248 0.999885 0.990705
1.00092 0.999972 0.997132
1.00245 0.999866 0.990762
1.00483 0.999319 0.987399
1.00498 0.99957 0.986892
1.00536 0.997392 0.988616
1.0051 0.999968 0.986262
1.00533 0.998057 0.987927
1.00481 0.999317 0.987434
1.00536 0.997201 0.988808
1.00534 0.997678 0.988331
1.0052 0.995032 0.991144
1.00533 0.998517 0.987417
1.00527 0.995858 0.990157
1.00245 0.999898 0.990716
1.00277 1.00005 0.990992
1.00487 0.999272 0.987336
1.00497 1.00007 0.986999
1.00055 1.00075 0.997216
1.00191 1.00232 0.990985
1.00438 1.00196 0.986169
1.00503 1.00014 0.986736
1.00527 0.998315 0.987738
1.00528 0.999948 0.986082
1.00529 1.00076 0.985094
1.00522 0.998778 0.987085
1.00072 1.00272 0.990801
1.00167 1.00477 0.987297
1.00482 0.999232 0.987478
1.00489 0.999577 0.987564
1.00535 0.997655 0.988425
1.00528 0.998305 0.987761
1.001 1.00291 0.990107
1.00375 1.00248 0.985942
1.00526 1.00146 0.984308
1.0053 0.99927 0.986706
1.00524 0.996302 0.9897
1.00522 0.99985 0.986094
1.00521 0.997806 0.988067
1.00519 0.997026 0.988827
1.00246 1.00402 0.986622
1.00284 1.00355 0.986199
1.00098 1.00501 0.988199
1.00535 0.997633 0.98843
1.00531 0.997829 0.988315
1.00521 0.995498 0.990658
1.00523 0.995685 0.990288
1.00522 0.99677 0.989042
1.00526 0.995237 0.990597
1.00323 1.00304 0.986249
1.00519 0.995936 0.989758
1.00518 1.00203 0.984088
1.00522 1.00096 0.984755
1.00518 0.998609 0.987285
1.00516 0.996259 0.989658
1.00048 1.00478 0.989229
1.00424 1.00223 0.985542
1.00177 1.00481 0.986747
1.00464 1.00216 0.985385
1.00511 1.00015 0.986004
0.999975 1.00075 0.994038
1.00023 1.00277 0.991571
1.00067 1.00506 0.988247
1.00503 1.00041 0.985841
1.00533 0.999606 0.986184
1.00303 1.00304 0.986565
1.00518 1.00173 0.984476
1.00532 1.00068 0.985161
1.00528 1.00023 0.985355
1.00003 0.99997 0.994777
1.00199 1.0042 0.987246
1.00052 1.00426 0.989709
1.00196 1.00438 0.987192
1.00533 0.999049 0.986804
1.00532 1.00013 0.98564
1.00526 0.998038 0.987711
1.00462 1.00177 0.985266
1.00525 0.999583 0.986264
1.00521 1.00116 0.984748
1.00523 0.999733 0.986072
1.00015 0.999369 0.995217
1.0004 1.00322 0.991067
1.00334 1.00272 0.986334
1.00128 1.00508 0.988282
1.00334 1.00255 0.987034
1.00527 0.997275 0.988531
1.00526 0.998771 0.986941
1.00522 0.996915 0.988701
1.00477 1.00134 0.985147
1.00522 0.99865 0.987128
1.00495 1.00076 0.985492
1.0003 1.00169 0.992676
1.0003 1.00297 0.99142
1.00012 1.00135 0.993321
1.00021 1.00147 0.993028
1.00023 0.998706 0.996285
1.00022 0.998912 0.995814
1.0001 0.997327 0.997634
0.999922 0.997595 0.998936
0.99985 0.997876 0.998873
0.999892 1.00117 0.993722
0.999872 0.999255 0.998324
1.00015 1.00206 0.992513
1.00009 0.9999 0.99787
1.0005 1.00246 0.991529
1.00032 1.00047 0.997509
1.00507 0.999985 0.986246
1.00495 0.999576 0.986894
1.00533 0.998076 0.98791
1.00534 0.997402 0.988619
1.00482 0.99933 0.987398
1.00244 0.999856 0.990761
1.0048 0.999318 0.987438
1.00535 0.997206 0.988811
1.00534 0.997693 0.988324
1.00522 0.995016 0.991127
1.00533 0.998523 0.987399
1.00527 0.995822 0.990159
1.00535 0.997189 0.988835
1.00524 0.994945 0.99121
1.00521 0.995328 0.990797
1.00516 0.994945 0.991257
1.00528 0.996547 0.989359
1.00526 0.994986 0.990732
1.00483 0.99908 0.987588
1.00492 0.999569 0.987543
1.00535 0.997462 0.988679
1.00527 0.998649 0.987423
1.00108 1.00284 0.990113
1.00355 1.00282 0.985953
1.00525 1.00157 0.984246
1.0053 0.999461 0.986552
1.00524 0.996007 0.989969
1.00521 0.997819 0.988076
1.00523 0.999675 0.98627
1.00519 0.996962 0.988783
1.00245 1.00413 0.986614
1.00278 1.00337 0.986214
1.0011 1.00487 0.988217
1.00535 0.997487 0.988574
1.00531 0.997806 0.988315
1.00522 0.995306 0.990872
1.00523 0.995902 0.99008
1.00317 1.00319 0.986241
1.00512 1.00201 0.984123
1.00522 1.00109 0.984638
1.00521 0.997076 0.988756
1.00526 0.995126 0.990648
1.00519 0.998537 0.98724
1.0052 0.995971 0.98974
1.00517 0.996134 0.989731
1.00415 1.00243 0.985513
1.00452 1.0022 0.985199
1.00063 1.00455 0.989249
1.00159 1.00483 0.986872
1.00522 0.994984 0.991239
1.00525 0.995727 0.990269
1.00512 0.994952 0.99127
1.00525 0.994919 0.990857
1.0052 0.995315 0.990358
1.00528 0.994923 0.990702
1.0051 1.0018 0.984628
1.00522 0.995103 0.9904
1.00516 1.00206 0.983806
1.00518 1.00037 0.985292
1.00518 0.997832 0.987802
1.0052 0.996207 0.989624
1.0003 1.00397 0.990348
1.00099 1.00513 0.987769
1.00508 1.00196 0.984444
1.00286 1.00408 0.98614
1.00502 1.0031 0.983897
1.00002 0.999871 0.994812
1.00532 0.999056 0.986783
1.00035 1.00433 0.989723
1.00193 1.00419 0.987237
1.00187 1.0044 0.987169
1.00533 1.00014 0.985614
1.00525 0.998028 0.987704
1.00496 1.0014 0.985286
1.00521 1.00105 0.984718
1.00525 0.999702 0.9861
1.00523 0.999653 0.986216
1.00015 0.999307 0.995245
1.0003 1.00328 0.99109
1.00359 1.00256 0.986341
1.00089 1.0051 0.988273
1.003 1.00251 0.987253
1.00527 0.99726 0.988526
1.00525 0.998759 0.986935
1.00523 0.996872 0.988689
1.00495 1.00132 0.985107
1.00521 0.99873 0.986977
1.00503 1.00076 0.985572
1.00036 1.00223 0.992071
1.00071 1.00452 0.989661
1.00453 1.00107 0.986002
1.00156 1.00466 0.988039
1.00389 1.00044 0.98829
1.00524 0.996179 0.989509
1.00522 0.997708 0.987832
1.00524 0.996173 0.989051
1.00481 1.00106 0.985275
1.00501 0.999435 0.986321
1.0003 1.00168 0.992678
1.00031 1.00301 0.991197
1.00014 1.00313 0.991379
1.00046 1.00329 0.991043
1.0002 1.00296 0.991632
1.00005 1.00124 0.993524
1.00011 1.00132 0.993329
1.00021 0.998596 0.99641
1.0002 1.00149 0.993025
1.00024 0.998695 0.996304
1.00017 0.99708 0.997728
1.00021 0.998888 0.996167
1.00003 0.997335 0.998312
0.99993 0.997512 0.998956
0.999793 1.00022 0.994818
0.999921 1.00121 0.993697
0.999758 0.998572 0.998706
0.999979 0.999366 0.998185
1.00024 1.00198 0.99249
1.00017 1.00004 0.997767
1.00533 0.998525 0.98738
1.00533 0.997687 0.988317
1.00527 0.995781 0.990161
1.00524 0.995 0.99111
1.00535 0.997211 0.988814
1.0048 0.99932 0.987441
1.00535 0.997194 0.988833
1.00523 0.994945 0.991215
1.00523 0.99529 0.990802
1.00516 0.994944 0.991219
1.00528 0.996507 0.989354
1.00526 0.99499 0.990743
1.00523 0.994955 0.991233
1.00515 0.994945 0.991308
1.00522 0.99493 0.991026
1.00524 0.994939 0.991067
1.00526 0.995481 0.990213
1.00528 0.994893 0.990797
1.00535 0.997337 0.988718
1.00531 0.997793 0.988315
1.00522 0.995101 0.991086
1.00523 0.996111 0.989871
1.00312 1.00334 0.986232
1.0051 1.00199 0.984155
1.00521 1.00115 0.984521
1.00521 0.997383 0.98847
1.00525 0.995018 0.990699
1.00522 0.996011 0.989721
1.00519 0.998467 0.987196
1.00517 0.995984 0.989807
1.00384 1.00281 0.985485
1.00411 1.00231 0.985014
1.0008 1.0044 0.989269
1.00154 1.00489 0.986998
1.00522 0.994992 0.991231
1.00524 0.995727 0.990306
1.00512 0.994951 0.991269
1.00525 0.99492 0.990848
1.0048 1.00214 0.984615
1.00516 1.00212 0.983751
1.00517 1.00035 0.985269
1.00522 0.995441 0.990243
1.00528 0.994915 0.990674
1.00515 0.997877 0.98779
1.00521 0.995108 0.990382
1.00519 0.996014 0.989752
1.00495 1.00207 0.984475
1.00484 1.00327 0.983722
1.00279 1.00413 0.986158
1.0003 1.00382 0.990354
1.00085 1.00512 0.987914
1.00514 0.994955 0.991256
1.00521 0.994939 0.99105
1.00527 0.994913 0.990647
1.00526 0.99491 0.99064
1.00511 1.00272 0.983648
1.00522 0.995116 0.990368
1.00503 1.00174 0.98395
1.00513 0.999873 0.98568
1.00514 0.997533 0.987977
0.999891 1.00284 0.991803
1.00056 1.00498 0.989009
1.00142 1.0051 0.987563
1.00507 1.00323 0.983318
1.00336 1.00392 0.98508
1.00506 1.00336 0.982981
1.00015 0.999262 0.995272
1.00021 1.00335 0.991114
1.00526 0.997246 0.988522
1.00047 1.00512 0.988261
1.0036 1.00266 0.986346
1.00272 1.00262 0.987472
1.00525 0.998748 0.986929
1.00523 0.996831 0.988677
1.00512 1.00128 0.985066
1.00505 1.00079 0.985654
1.00521 0.998795 0.986826
1.00031 1.00227 0.992082
1.00035 1.00467 0.989669
1.00467 1.00093 0.986072
1.00126 1.00493 0.98798
1.00372 1.00011 0.988279
1.00524 0.996134 0.989515
1.00522 0.997722 0.98781
1.00525 0.996225 0.989042
1.0048 1.0011 0.985307
1.00503 0.999537 0.98632
1.00045 1.00363 0.990735
0.99994 1.00509 0.989288
1.00494 1.00067 0.985799
1.00164 1.00245 0.988623
1.00522 0.999229 0.987552
1.00525 0.995286 0.990066
1.00524 0.997672 0.987675
1.00527 0.996429 0.988605
1.00478 1.00024 0.985993
1.00511 0.999395 0.986305
1.00029 1.00167 0.99268
1.00032 1.00309 0.991207
1.00004 1.00352 0.991056
1.00003 1.00322 0.991339
1.00011 1.00307 0.991622
1.00015 1.00352 0.991076
0.999977 1.00319 0.991799
1.00002 1.00375 0.990877
1.00009 1.0029 0.99186
1.00002 1.00133 0.993491
1.00005 1.00123 0.993525
1.00014 0.99859 0.996513
1.0001 1.00128 0.993336
1.00022 0.998592 0.996427
1.00019 0.996962 0.997795
1.00025 0.998675 0.996328
1.00014 0.997087 0.99773
0.999952 0.99733 0.999008
0.999848 0.999346 0.995637
0.999812 1.00031 0.994774
0.999701 0.998093 0.998933
0.999969 1.00126 0.993674
0.999833 0.998741 0.998568
1.00007 0.999439 0.998054
1.00528 0.996469 0.989349
1.00525 0.995257 0.990806
1.00526 0.994996 0.990754
1.00515 0.994943 0.99118
1.00523 0.994944 0.991221
1.00535 0.997199 0.988832
1.00523 0.99495 0.991255
1.00515 0.994949 0.991322
1.00521 0.994922 0.991063
1.00524 0.994934 0.991034
1.00527 0.995471 0.990236
1.00527 0.994889 0.99075
1.00515 0.994957 0.991304
1.00524 0.994932 0.991101
1.00526 0.994924 0.990887
1.00526 0.994944 0.990578
1.00522 0.995 0.991223
1.00523 0.995721 0.990344
1.00513 0.994951 0.991268
1.00525 0.994921 0.990839
1.00465 1.00229 0.984603
1.00517 1.00218 0.9837
1.00516 1.00039 0.985247
1.00523 0.995562 0.990127
1.00528 0.994905 0.990646
1.00521 0.995114 0.990364
1.00513 0.997892 0.987776
1.00519 0.995821 0.989878
1.00476 1.0022 0.984507
1.00495 1.00296 0.983546
1.00262 1.00417 0.986177
1.0003 1.00366 0.990369
1.00076 1.00511 0.98806
1.00514 0.994954 0.991251
1.00522 0.994939 0.991043
1.00527 0.994914 0.99067
1.005 1.00269 0.98369
1.00506 1.00189 0.983899
1.0051 0.999948 0.985667
1.00525 0.994917 0.990625
1.00518 0.997335 0.988257
1.00522 0.995147 0.990302
0.999946 1.0026 0.992032
1.00502 1.00295 0.983367
1.00477 1.00373 0.983086
1.00364 1.0037 0.985247
1.00149 1.0051 0.987656
1.00046 1.00503 0.988935
1.00523 0.994946 0.991087
1.00527 0.994916 0.990798
1.00526 0.994904 0.990592
1.00522 0.994884 0.990586
1.00508 1.00276 0.983461
1.0052 0.995632 0.989739
1.00502 1.00161 0.984225
1.00504 1.0002 0.985652
1.00002 1.00096 0.993532
0.99998 1.00446 0.990478
1.00096 1.00509 0.988714
1.00219 1.00502 0.986186
1.00491 1.00364 0.983047
1.00482 1.00376 0.983116
1.00026 1.00228 0.992092
1.00004 1.00472 0.989678
1.00524 0.99609 0.989521
1.00092 1.00506 0.98792
1.00484 1.00077 0.986141
1.00343 1.00002 0.988254
1.00523 0.997736 0.987788
1.00525 0.996274 0.98903
1.00484 1.00119 0.985335
1.00508 0.999652 0.986319
1.0003 1.00367 0.990739
1.00029 1.00507 0.989122
1.00503 1.00055 0.985796
1.00189 1.00256 0.988641
1.00503 0.999337 0.987172
1.00526 0.995289 0.990147
1.00525 0.997586 0.98785
1.00527 0.996568 0.988614
1.00476 1.00029 0.986072
1.00507 0.99959 0.986091
0.999667 1.00406 0.990639
1.00037 1.00501 0.988695
1.00491 1.00014 0.98626
1.00384 0.999932 0.987439
1.00532 0.994852 0.990287
1.00524 0.996017 0.989641
1.00517 0.998656 0.986635
1.00514 0.999471 0.986094
1.00037 1.00308 0.991216
1.00018 1.00347 0.991054
0.999586 1.00387 0.991974
1.00002 1.0032 0.991613
0.999806 1.00375 0.99111
1.00006 1.00293 0.99185
0.999727 1.00322 0.99205
1.00007 1.00383 0.99084
0.999572 1.00203 0.993516
0.999788 1.00413 0.991173
0.999971 1.00392 0.990778
1.00016 1.00286 0.991796
0.999982 1.0016 0.993232
0.999991 1.00133 0.993484
1.00004 0.998662 0.996592
1.00004 1.00121 0.993527
1.00015 0.998607 0.996525
1.00014 0.996969 0.997853
1.00022 0.998596 0.996446
1.00017 0.996964 0.997796
1.00011 0.997104 0.997726
0.999981 0.998638 0.996159
0.999847 0.999462 0.995573
0.999713 0.99765 0.999075
0.999807 1.00043 0.994728
0.999742 0.998165 0.998876
0.999939 0.998837 0.998419
1.00527 0.995459 0.99026
1.00519 0.994913 0.991099
1.00526 0.994885 0.990704
1.00523 0.994929 0.991
1.00515 0.994953 0.991335
1.00522 0.994945 0.991277
1.00515 0.994954 0.991313
1.00525 0.994933 0.991105
1.00526 0.994917 0.990882
1.00525 0.994935 0.990613
1.00525 0.994943 0.991132
1.00528 0.994915 0.99097
1.00529 0.99487 0.990714
1.00514 0.994954 0.991247
1.00523 0.994939 0.991037
1.00527 0.994915 0.990692
1.00492 1.00268 0.983731
1.00509 1.00198 0.983843
1.00506 0.999933 0.985651
1.00524 0.994923 0.990609
1.0052 0.995197 0.990237
1.0052 0.997097 0.988534
1.00498 1.00293 0.983413
1.00444 1.00385 0.983193
1.00398 1.00359 0.985413
1 1.00241 0.992266
1.00141 1.00508 0.987748
1.00028 1.00508 0.988854
1.00524 0.994946 0.991095
1.00527 0.994916 0.990772
1.00526 0.994905 0.990585
1.00498 1.00281 0.983504
1.00491 1.00156 0.984169
1.00506 0.999823 0.986009
1.00522 0.994888 0.990541
1.00516 0.995707 0.989681
1.00002 1.0009 0.993754
0.999955 1.0045 0.990455
1.00491 1.00303 0.983002
1.00438 1.00396 0.983694
1.00235 1.00492 0.986388
1.0008 1.00509 0.988541
1.00528 0.994919 0.990954
1.00531 0.994877 0.990511
1.00526 0.994885 0.990567
1.00517 0.995078 0.990323
1.0044 1.00272 0.983745
1.00513 0.998004 0.987637
1.00487 1.0021 0.984151
1.00021 1.00011 0.994414
1.00036 1.00117 0.993201
0.99976 1.00254 0.992483
1.0003 1.00505 0.9894
1.00101 1.00512 0.987691
1.00273 1.00432 0.984919
1.00441 1.00362 0.983655
1.00411 1.00431 0.984514
1.00013 1.00388 0.990744
1.0005 1.00512 0.988955
1.00527 0.995293 0.990227
1.00212 1.00241 0.988667
1.00507 1.00041 0.985798
1.00496 0.999504 0.986804
1.00526 0.997476 0.988027
1.00526 0.996681 0.988627
1.00481 1.00029 0.986148
1.00502 0.999732 0.985879
0.999918 1.00404 0.990499
1.00052 1.00498 0.988649
1.00509 0.999997 0.986251
1.00417 1.00022 0.987476
1.00533 0.994844 0.990317
1.00526 0.995932 0.989539
1.00512 0.998611 0.986739
1.00514 0.999573 0.986048
0.999915 1.00413 0.990313
1.00535 0.994902 0.990307
1.00224 1.00419 0.987852
1.00484 0.999467 0.986854
1.00525 0.995179 0.990502
1.00513 0.997743 0.986653
1.00495 1.00074 0.985472
1.00026 1.0035 0.991052
0.999588 1.00367 0.991886
0.998887 1.00339 0.994023
1.00005 1.00289 0.99184
1.00011 1.00394 0.990801
0.999085 1.00365 0.992299
1.00013 1.00284 0.991787
0.999899 1.00404 0.990794
0.998975 1.00245 0.993788
0.999936 1.00397 0.991105
0.999256 1.00064 0.996106
0.999189 1.003 0.993124
0.999735 1.00469 0.990386
1.00037 1.00388 0.990349
1.00017 1.00319 0.991389
0.999909 1.00203 0.992923
0.999922 1.00173 0.993213
0.999926 0.998904 0.996595
0.999958 1.00141 0.993477
1.00005 0.998714 0.996587
1.00005 0.997042 0.997921
1.00016 0.998618 0.996538
1.00015 0.996961 0.997851
1.00016 0.996968 0.997793
1.00019 1.00024 0.994353
1.00008 0.998262 0.996395
0.999982 0.998708 0.996119
0.999797 0.997272 0.999159
0.999844 0.999573 0.995511
0.999739 0.997755 0.99904
0.999795 0.998281 0.998793
1.00524 0.994926 0.990647
1.00525 0.99491 0.990877
1.00525 0.994935 0.991108
1.00515 0.994952 0.991323
1.00525 0.994943 0.991127
1.00527 0.994915 0.990985
1.00527 0.994877 0.990689
1.00528 0.99492 0.99101
1.00533 0.994917 0.990781
1.0054 0.994967 0.991137
1.00524 0.994946 0.991103
1.00526 0.994916 0.990746
1.00526 0.994906 0.990579
1.00487 1.00287 0.983549
1.00488 1.00193 0.984128
1.00491 0.999541 0.986365
1.00521 0.994891 0.990497
1.0051 0.995877 0.989623
1.00475 1.0032 0.98296
1.00397 1.00443 0.98426
1.00226 1.00476 0.986589
1.00001 1.0008 0.993975
1.00003 1.0045 0.990433
1.00076 1.00509 0.988366
1.00528 0.994917 0.990939
1.00018 1.00013 0.994405
1.00027 1.00125 0.993084
1.00531 0.994887 0.990524
1.00524 0.994886 0.990575
1.00486 1.0028 0.983657
1.00465 1.00207 0.984331
1.00509 0.997766 0.987539
1.00518 0.994975 0.990245
0.999792 1.0026 0.992653
1.00031 1.00504 0.989355
1.00448 1.00379 0.983438
1.00357 1.00398 0.984782
1.00307 1.0045 0.985064
1.00114 1.0051 0.987653
1.00535 0.994892 0.990706
1.00531 0.994847 0.990464
1.00519 0.99487 0.990397
1.00514 0.995045 0.990253
1.00411 1.0028 0.984584
1.00435 1.00181 0.985419
1.00007 1.00195 0.992533
1.00014 1.0012 0.993435
1.00116 1.0004 0.992892
1.00028 1.0034 0.990916
1.0005 1.00509 0.988968
1.00241 1.00443 0.986572
1.00192 1.00496 0.985245
1.00365 1.00065 0.986637
1.0003 1.00391 0.99036
1.00084 1.00498 0.988604
1.00534 0.99484 0.990347
1.00527 0.995908 0.989437
1.00454 1.00044 0.987509
1.00518 0.999888 0.986241
1.00509 0.99859 0.986838
1.00515 0.999686 0.986005
1.0003 1.00399 0.99023
1.00537 0.994899 0.990537
1.00184 1.00412 0.988005
1.005 0.999609 0.986649
1.00525 0.995146 0.990511
1.00509 0.997945 0.986868
1.00491 1.00056 0.985476
1.00013 1.00485 0.990075
1.00487 0.994806 0.991043
1.00295 1.00255 0.987618
1.00469 1.00117 0.985198
1.00493 0.995885 0.989711
1.00373 1.00123 0.985989
0.998844 0.995782 0.986911
0.999457 1.00364 0.991801
0.99839 1.00352 0.994014
0.999042 1.00236 0.995083
1.00004 1.00293 0.991778
0.99985 1.00421 0.990811
1.00026 1.00362 0.99104
0.998623 1.00257 0.99407
1.00011 1.00326 0.991389
1.00025 1.00396 0.990388
0.999291 1.00074 0.995518
0.999841 1.00468 0.990395
0.999521 1.0029 0.992783
0.998697 1.00121 0.996553
1.00025 1.00454 0.990034
1.00013 1.00464 0.990189
1.00064 1.00404 0.98992
1.00014 1.00371 0.990729
1.00031 1.0043 0.990305
1.00012 1.00389 0.990521
0.999919 1.00213 0.992791
0.999937 1.002 0.992903
0.999808 0.999062 0.996011
0.999927 1.00171 0.993192
0.999917 0.998963 0.996271
1.00001 0.997218 0.99911
1.00006 0.998765 0.996584
1.00007 0.997016 0.997922
1.00016 0.996953 0.997844
1.00008 1.00026 0.994424
1.0002 1.00014 0.994385
1.00011 0.99813 0.996523
1.00006 0.998271 0.996664
0.999873 0.997045 0.999204
0.999975 0.998791 0.996078
0.999797 0.997364 0.999139
0.999767 0.997817 0.999007
1.00525 0.994885 0.990664
1.00527 0.994913 0.991
1.00525 0.994944 0.991122
1.00528 0.99492 0.991009
1.00533 0.994912 0.990774
1.00538 0.994948 0.990797
1.00538 0.994901 0.9908
1.00132 0.99491 0.982743
1.00458 0.994901 0.992555
1.00004 1.00161 0.993146
1.00528 0.994915 0.990924
1.00531 0.994897 0.990537
1.00523 0.994884 0.990583
1.00486 1.00234 0.983554
1.00484 1.00177 0.984499
1.00512 0.997643 0.987448
1.0052 0.994959 0.990168
1.00478 1.00351 0.983235
1.00345 1.00368 0.98507
1.0031 1.00467 0.985213
1.00015 1.00018 0.994398
1.00142 1.00513 0.987615
0.999799 1.00262 0.992811
1.00032 1.00505 0.989306
1.00026 1.00121 0.992966
1.00535 0.994876 0.990702
1.00005 1.002 0.992653
1.0001 1.00127 0.993445
1.00093 1.00038 0.993118
1.00531 0.994854 0.990433
1.00518 0.994871 0.990363
1.00345 1.00346 0.984659
1.00463 1.00072 0.985962
1.00514 0.995104 0.990166
1.00001 1.0035 0.991091
1.00067 1.0051 0.988792
1.00365 1.00213 0.986294
1.00262 1.00479 0.985103
1.00238 1.00426 0.986803
1.0053 0.994832 0.990924
1.00519 0.994782 0.990796
1.00514 0.995057 0.989907
1.00494 0.99717 0.989807
1.00208 1.00266 0.988062
0.99963 1.00328 0.991883
1.00094 1.00078 0.992536
1.00007 1.00055 0.993043
1.00013 1.00458 0.990928
1.00029 1.00515 0.989335
1.00082 1.00456 0.987774
1.00254 1.00033 0.989126
1.00089 1.00376 0.990145
1.00121 1.00401 0.988158
1.00539 0.994884 0.990756
1.00526 0.995068 0.990512
1.00509 0.998082 0.987083
1.00507 0.999701 0.986442
1.00485 1.00039 0.985484
1.00053 1.00465 0.990082
1.00464 0.994825 0.991238
1.00301 1.00225 0.987552
1.00483 1.00119 0.985096
1.00503 0.995745 0.989941
1.00398 1.00116 0.986071
0.99865 0.996818 0.98502
1.00009 1.00426 0.990472
1.00305 0.996485 0.991113
1.00355 1.00214 0.986021
1.00309 1.0011 0.986951
1.00319 0.997595 0.990799
0.999963 0.994901 0.946187
0.995581 0.994815 0.966753
0.995586 1.00033 0.988199
0.99945 0.994788 0.867511
0.994714 0.994821 0.83169
0.998031 1.00362 0.994008
0.998191 1.00289 0.995373
0.998238 1.00267 0.996191
1.00008 1.00329 0.99139
1.00031 1.00374 0.990426
0.999968 1.00459 0.990406
0.999766 1.00284 0.99243
0.999303 1.00093 0.994923
1.00014 1.00446 0.990188
1.00014 1.00369 0.990819
1.00056 1.004 0.989973
0.998901 1.00061 0.99599
0.999974 1.00456 0.990349
1.00034 1.00456 0.990371
0.99903 1.00473 0.991574
1.00014 1.00462 0.990177
1.00052 1.00449 0.989386
1.00024 1.00377 0.990508
1.00041 1.0047 0.989552
1.0005 1.00404 0.990327
0.999731 1.00456 0.990759
1.0002 1.0044 0.990226
1.00023 1.00361 0.99091
1.00017 1.00388 0.990507
0.999943 1.00212 0.992786
0.999931 1.00213 0.992794
0.999781 0.999155 0.996011
0.999913 1.00208 0.992886
0.9998 0.999101 0.996002
0.999958 0.997231 0.999134
0.999903 0.999032 0.995948
0.999992 0.997216 0.998511
1.00009 0.996993 0.99792
0.999959 1.00019 0.994682
1.00008 1.00029 0.994428
1.0001 0.998018 0.996654
1.00022 1.00004 0.994415
1.0001 0.998075 0.996795
0.999928 0.996819 0.999242
1.00008 0.99831 0.996369
0.999868 0.997133 0.999187
0.999804 0.997446 0.99912
1.00533 0.994907 0.990766
1.00528 0.99492 0.991009
1.00537 0.994957 0.990467
1.00079 0.994844 0.982868
1.00538 0.994896 0.990814
1.00448 0.995087 0.992252
1.00506 0.996306 0.991284
0.996338 0.994901 0.965849
1.00108 0.995976 0.984994
1.00009 1.00139 0.993352
1.00006 1.00168 0.993113
0.999606 1.00337 0.992032
0.999853 1.00228 0.992757
1.00535 0.994871 0.990697
1.00532 0.994866 0.990401
1.00517 0.994879 0.99033
1.00438 1.00368 0.984734
1.00454 0.998971 0.98651
1.00509 0.995193 0.990073
1.00326 1.0031 0.985949
1.00394 1.00471 0.984955
1.00235 1.00328 0.987027
1.00002 1.00144 0.993456
1.00067 1.00504 0.988622
1.00003 1.00351 0.99127
0.999982 1.00217 0.992771
1.00054 1.00059 0.993329
1.0053 0.994837 0.99093
0.999912 1.00319 0.991787
1.00104 1.00051 0.992767
0.99903 1.00117 0.994746
1.00519 0.994802 0.990701
1.00514 0.995088 0.989915
1.0032 1.00139 0.988033
1.00462 0.996391 0.990202
1.00034 1.00441 0.990382
1.00048 1.00501 0.988717
1.00216 1.0022 0.988983
1.00223 1.00391 0.98725
1.00438 0.994936 0.991748
1.00503 0.99488 0.991187
1.00493 0.996135 0.989473
1.00308 0.997754 0.992294
0.998696 1.00419 0.992594
1.00083 1.00121 0.992128
0.998282 1.00483 0.992667
0.999179 1.00468 0.990605
0.999976 0.994893 0.933964
1.00068 1.00454 0.990084
1.00302 1.00227 0.987484
1.00434 0.994851 0.991462
1.00509 0.995652 0.990166
1.00411 1.00107 0.986137
1.00468 1.00126 0.98499
0.998532 0.997369 0.983
1.00021 1.0042 0.990877
1.00295 0.996604 0.991058
1.00342 1.0024 0.986081
1.00361 1.00102 0.98702
1.00365 0.997656 0.990498
1.00022 0.994883 0.934084
0.995971 0.9948 0.963039
0.995623 1.00098 0.988291
0.998629 0.994789 0.872158
0.994719 0.994824 0.821438
0.999854 1.00408 0.991128
0.99979 0.994838 0.878588
0.99471 0.994789 0.825171
1.00035 0.999891 0.992379
1.00174 1.00202 0.989315
1.0014 0.999425 0.992526
0.995076 1.00037 0.990187
0.99822 0.994846 0.94445
0.994902 0.994775 0.959371
0.99678 0.994862 0.887884
0.994727 0.994806 0.816454
0.997508 1.00331 0.995672
0.997929 1.00215 0.996039
0.998216 1.00429 0.994558
1.0002 1.00362 0.990908
1.0005 1.004 0.990027
0.999713 1.00479 0.990188
0.999756 1.00458 0.990664
0.99925 0.999781 0.99543
1.00024 1.0038 0.990511
1.00009 1.00478 0.990303
1.00003 1.00472 0.990072
1.00066 1.00432 0.98951
0.998965 1.00463 0.991832
0.999538 1.00488 0.991247
0.998085 1.00507 0.99249
1.00024 1.00489 0.989538
1.00051 1.00454 0.989589
1.00046 1.00463 0.989548
1.00035 1.00382 0.990525
1.00041 1.00492 0.989531
0.999922 1.00404 0.991034
0.999557 1.00312 0.991309
0.999514 1.00501 0.990595
0.999611 1.00471 0.990612
0.999878 1.00432 0.990787
1.00011 1.00351 0.99111
1.0001 1.00441 0.990149
1.00023 1.00358 0.990858
1.00001 1.00211 0.992708
1.00026 1.00382 0.990494
0.999943 1.00211 0.992797
0.999932 0.999123 0.996479
0.999909 1.00216 0.992797
0.999815 0.999123 0.996279
0.999914 0.997233 0.997973
0.999794 0.999119 0.995993
0.999955 0.997248 0.99914
0.999993 0.997237 0.99791
1.00018 1.00136 0.993174
0.999929 1.00012 0.994802
0.999969 1.00019 0.994676
1.00007 0.997976 0.996734
1.00007 1.00031 0.994431
1.00011 0.997978 0.996655
0.99997 0.996722 0.999267
1.00008 0.998066 0.997037
0.999939 0.996952 0.998697
0.999907 0.997189 0.998096
1.00029 0.994831 0.982987
1.00537 0.994894 0.990828
1.00418 0.995931 0.991939
0.996514 0.994903 0.966559
1.00107 0.99563 0.98535
1.00509 0.995705 0.991251
1.00343 0.996497 0.986902
0.997038 0.995331 0.969312
0.999978 0.994874 0.943873
0.998839 0.994833 0.889254
0.99465 0.99479 0.83057
0.999764 1.00239 0.992636
1.00012 1.00134 0.993339
1.00015 1.0016 0.99308
0.999829 1.003 0.992118
0.999405 1.00385 0.992144
1.00046 1.00202 0.991935
1.00009 1.00288 0.992104
1.00005 1.00213 0.992601
1.0053 0.994824 0.990931
1.00521 0.994812 0.990609
1.00515 0.995044 0.98992
1.00321 1.0014 0.988007
1.00443 0.995909 0.990602
1.0023 1.00318 0.988823
1.0036 1.00401 0.986732
1.00097 1.00515 0.988106
1.00094 1.00027 0.992998
1.00037 1.00446 0.989815
1.00037 1.00286 0.991702
0.998416 1.00114 0.996423
1.0043 0.994815 0.992005
0.99902 1.00389 0.992568
1.00062 1.00163 0.992462
1.00484 0.994878 0.991148
1.00482 0.995775 0.989728
1.00267 0.997545 0.991936
0.999465 1.00517 0.991248
1.00068 1.00349 0.990811
1.00321 0.994785 0.991736
1.00413 0.998128 0.990413
1.00488 0.995644 0.990296
1.00097 0.998648 0.993334
0.999523 1.00488 0.990557
0.999116 1.00413 0.992104
0.999267 1.00518 0.991748
0.9998 0.994911 0.88131
1.0003 0.994871 0.946915
1.00045 1.00385 0.991279
1.00362 1.00245 0.986148
1.00282 0.997198 0.990997
1.00408 0.997764 0.990206
1.00404 1.00113 0.987106
0.999987 0.994883 0.944653
0.996076 0.994773 0.962599
0.995811 1.00175 0.988415
0.99813 0.994822 0.888517
0.994718 0.994819 0.810628
0.999936 1.00393 0.991093
0.999807 0.994852 0.878121
0.994678 0.994783 0.818525
1.00053 0.999918 0.992401
1.00176 1.0021 0.989313
1.00138 0.999571 0.992908
0.995262 1.00098 0.990856
0.998969 0.995565 0.938369
0.994839 0.994799 0.961461
0.996374 0.996919 0.887041
0.994747 0.994799 0.815132
0.999059 1.00401 0.993703
0.994707 0.994816 0.817374
0.994743 0.99479 0.828336
0.997625 1.00199 0.996449
0.999818 1.00213 0.994094
0.995193 1.00038 0.988557
0.995071 0.995043 0.962525
0.996055 0.994792 0.933304
0.994758 0.998331 0.891676
0.994831 0.994829 0.81964
0.997755 1.00182 0.995888
0.998604 1.00353 0.994329
0.997497 1.00351 0.995033
1.00019 1.00385 0.990512
1.00078 1.00414 0.989634
1.00004 1.0048 0.989965
0.999848 1.00479 0.990236
0.998605 1.00453 0.992091
1.00047 1.00458 0.98958
0.999586 1.00463 0.990988
1.00037 1.00482 0.989539
0.997655 1.00495 0.992919
0.995934 1.00523 0.996188
0.999079 1.00492 0.991496
1.00045 1.00476 0.989561
1.00053 1.00456 0.989544
1.00033 1.00347 0.990717
1.00038 1.00488 0.989493
1 1.00395 0.990959
0.999443 1.00314 0.99203
0.999157 1.00501 0.99101
0.999265 1.00474 0.991042
0.999058 1.00371 0.992362
1.00057 1.00185 0.992267
1.00158 1.00065 0.99078
0.999207 1.00483 0.990916
0.999648 1.00482 0.990637
0.999668 1.00501 0.990087
0.999658 1.00486 0.990611
1.00003 1.00376 0.990969
0.999884 1.0044 0.990813
1.00014 1.00352 0.991122
1.00004 1.00207 0.99262
1.00022 1.00361 0.990806
0.999998 1.0021 0.992725
1.00004 0.999102 0.996303
0.99994 1.0021 0.992808
0.999912 0.999105 0.996139
1.00001 0.997173 0.997858
0.999807 0.999117 0.995988
0.999959 0.997228 0.999146
0.999953 0.997246 0.999147
1.00021 1.00178 0.993042
0.999935 1.00027 0.994669
1.0001 1.00152 0.993184
1.00006 0.997953 0.996763
0.999928 1.00013 0.994803
0.999974 1.00023 0.994671
1.00008 0.997966 0.996725
0.999996 0.996652 0.999277
1.00008 0.997981 0.997138
0.999984 0.996721 0.998758
0.999959 0.996967 0.998191
0.99981 0.994838 0.866825
0.99468 0.994766 0.817862
0.996793 0.994882 0.966887
1.00101 0.995177 0.985781
1.00515 0.994888 0.991219
0.996697 0.995415 0.969359
1.00354 0.995588 0.9874
1.00103 0.994886 0.941019
0.999107 0.994796 0.872098
0.994695 0.994803 0.820485
0.998294 0.994864 0.974577
0.999306 0.994882 0.943498
0.996771 0.994896 0.887785
0.994742 0.994782 0.82172
1.00015 1.00327 0.99154
0.999876 1.00216 0.992769
1.00012 1.00136 0.993327
0.999942 1.00279 0.992202
0.99931 1.00377 0.992353
1.00007 1.00375 0.990891
1.00028 1.00276 0.991719
1.00038 1.00365 0.990471
1.00008 1.00286 0.991982
1 1.00234 0.99244
1.00414 0.994792 0.992249
1.00468 0.994824 0.991113
1.00464 0.995463 0.989982
1.00234 0.99792 0.991576
1.00105 1.00364 0.991018
0.999505 1.00526 0.989843
1.00036 1.00195 0.992837
0.999158 1.00385 0.992532
1.00259 0.994833 0.992143
0.99962 1.00501 0.990343
0.998829 1.00434 0.99193
1.00397 0.996931 0.990699
1.00472 0.995703 0.990228
1.001 0.998686 0.993774
0.999201 1.00516 0.991596
1.00046 0.994865 0.992016
1.00178 0.99842 0.992721
0.999565 1.00111 0.994653
0.998536 1.00516 0.98989
0.998949 1.00513 0.990527
0.99868 1.0051 0.991947
0.994729 0.994849 0.839931
0.999798 0.994893 0.886114
0.999987 0.994884 0.934257
0.999713 1.00397 0.991046
1.00186 1.00213 0.989294
1.00058 0.99984 0.992424
1.00131 0.99972 0.993299
0.999811 0.994879 0.889424
0.998623 0.994851 0.934121
0.994855 0.994876 0.959472
0.994974 1.0017 0.991468
0.996963 0.994836 0.873155
0.994656 0.994789 0.823475
0.994769 0.994811 0.828057
0.998752 1.00342 0.993432
0.994701 0.994817 0.826963
0.994772 0.994792 0.827825
0.997172 1.00103 0.997133
0.999423 1.00212 0.993974
0.995061 0.998971 0.991063
0.995429 0.99487 0.961048
0.99665 0.99826 0.943985
0.994747 0.998149 0.87629
0.994931 0.994821 0.829641
0.997233 1.00403 0.996057
0.994789 0.994836 0.836649
0.994813 0.994787 0.825206
0.994979 1.00251 0.999923
0.995366 0.997166 0.969441
0.994877 0.999766 0.943469
0.99536 0.996623 0.868158
0.995092 0.994866 0.834973
0.998957 1.00276 0.994066
0.997711 1.00385 0.995206
0.995852 1.0041 0.997518
1.00042 1.00463 0.989573
1.0005 1.0048 0.989541
0.99972 1.0044 0.990728
0.997336 1.00497 0.993351
1.0003 1.00486 0.989578
0.99906 1.00494 0.991489
0.99581 1.0051 0.996595
0.995185 1.005 0.998076
0.995815 1.00493 0.996842
0.999534 1.00448 0.99126
1.0003 1.00488 0.989454
1.00003 1.0038 0.990882
0.999189 1.00335 0.992735
0.999259 1.00476 0.99106
0.999289 1.00499 0.991029
0.999038 1.00393 0.992456
0.999062 1.0046 0.991663
0.997041 1.00492 0.994856
1.00248 0.997535 0.992681
1.00028 1.00165 0.992687
1.00105 1.00128 0.991448
1.00438 1.00087 0.986964
1.00114 1.00298 0.99059
1.00065 1.00072 0.992405
0.999692 1.00458 0.990682
0.999692 1.00511 0.989742
0.999836 1.00458 0.99068
0.999887 1.00501 0.990096
1.00003 1.00443 0.990318
0.999998 1.00471 0.990611
1.00021 1.0036 0.990953
1.00012 1.00213 0.992484
1.00031 1.0033 0.991135
1.00012 1.00203 0.992628
1.00015 0.999119 0.996121
1.00003 1.00205 0.992742
1.00003 0.999103 0.995935
1.00008 0.997207 0.997722
0.999915 0.999084 0.995842
0.999991 0.997193 0.998501
0.999967 0.997216 0.999132
1.00018 1.00244 0.992076
1.00006 1.0004 0.994393
1.00014 1.00179 0.992863
1.00005 0.998015 0.996709
0.999953 1.00023 0.994674
1.00009 1.00153 0.993193
1.00002 0.996616 0.999282
1.00005 0.997952 0.996763
0.999935 1.00013 0.994804
1.00008 0.99795 0.996717
0.999997 0.99668 0.999275
0.999967 0.99671 0.999266
0.994686 0.994791 0.821737
0.999806 0.994849 0.877948
0.994758 0.994775 0.825753
0.994702 0.994772 0.816571
0.996632 0.994902 0.967206
1.0035 0.994891 0.987908
0.999964 0.994881 0.937526
0.999266 0.994829 0.889223
0.994733 0.994808 0.810048
0.99854 0.994878 0.97383
1.00051 0.99609 0.930106
0.996607 0.997775 0.885615
0.994724 0.994785 0.814889
0.995365 0.99486 0.966792
0.996611 0.997186 0.931869
0.994808 0.997388 0.869129
0.994815 0.994849 0.817394
1.00061 1.00461 0.990357
0.99991 1.00326 0.991653
0.999983 1.00195 0.9929
0.999117 1.00358 0.992564
1.00066 1.00425 0.989333
1.00002 1.00363 0.991105
0.999952 1.00326 0.991509
1.00083 1.0032 0.990501
1.00045 1.00373 0.990573
1.00011 1.0027 0.991863
1.00221 0.994786 0.99255
1.00396 0.995775 0.99101
1.00447 0.995874 0.990165
1.00089 0.997648 0.994237
1.00023 1.00479 0.991435
0.999156 1.00481 0.991765
0.999716 1.00497 0.990126
1.00005 1.00513 0.989629
1.00001 0.994899 0.992379
0.999703 1.00509 0.990328
0.999318 1.00512 0.991837
1.00188 0.997804 0.993615
1.0002 1.00014 0.994421
0.996732 0.998542 0.992214
0.996895 0.998386 1.00078
0.997714 1.00304 0.9951
0.999803 1.00504 0.990212
0.998258 1.00515 0.992804
0.99482 0.994821 0.842326
0.994722 0.994834 0.836234
0.999801 0.994896 0.870432
0.99871 1.00279 0.993209
0.999188 1.00191 0.993837
0.997244 1.00029 0.997815
0.994679 0.994807 0.825919
0.996823 0.997193 0.933142
0.995547 0.994913 0.961283
0.995025 0.997463 0.993788
0.994798 0.997368 0.893627
0.99478 0.994794 0.827791
0.995009 0.994831 0.830454
0.997487 1.00402 0.995983
0.994794 0.994832 0.839545
0.994804 0.994787 0.825865
0.995247 1.00189 0.999022
0.995299 0.996552 0.971347
0.994876 0.997551 0.932178
0.994972 0.994858 0.831746
0.994956 0.999083 0.875885
0.995008 1.00495 0.999506
0.994793 0.994824 0.834839
0.994862 0.994826 0.831648
0.994804 0.994843 0.81817
0.994819 0.999171 0.990667
0.994869 0.998924 0.947049
0.99652 0.997234 0.883075
0.998129 1.00439 0.995403
0.996195 1.00454 0.997301
0.995035 1.00511 0.998985
1.0002 1.00494 0.989593
0.998967 1.00496 0.99148
0.995767 1.00496 0.996996
0.999284 1.00472 0.991194
0.996011 1.00499 0.996816
0.995253 1.00515 0.998097
0.995058 1.00519 0.998097
0.996098 1.00478 0.996556
0.999221 1.0048 0.991088
0.999364 1.00502 0.991048
0.999076 1.00422 0.992569
0.997335 1.0048 0.994723
0.999102 1.00476 0.991552
0.999099 1.00243 0.993751
1.00033 0.998202 0.995667
1.00254 1.0007 0.98868
0.999999 1.00147 0.993081
1.00159 1.00139 0.990953
1.00423 1.00197 0.985997
1.00513 1.00176 0.984392
1.00274 1.00111 0.989247
1.0036 1.00083 0.987271
1.00068 1.00508 0.988953
1.00072 1.00309 0.990932
0.999741 1.00083 0.99401
1.00019 1.00438 0.990448
0.999822 1.0051 0.989784
1.00018 1.00484 0.989615
1.00005 1.00506 0.990107
1.00017 1.00425 0.990335
1.00012 1.00257 0.992012
1.00028 1.00358 0.990936
1.00014 1.0021 0.992473
1.00017 0.999138 0.996038
1.00015 1.00199 0.992635
1.00014 0.999113 0.995761
1.00015 0.997253 0.997592
1.00004 0.9991 0.995618
1.00006 0.997204 0.998405
1.00002 0.997188 0.999083
1.00048 1.00268 0.9912
1.00009 1.00077 0.993679
1.00029 1.00235 0.992067
1.00011 0.998075 0.996559
1.00003 1.00041 0.994245
1.00012 1.00179 0.992688
1.00004 0.996653 0.999266
1.00006 0.997985 0.996718
0.999969 1.00017 0.994679
1.00002 0.996636 0.999281
1.00005 0.99796 0.996763
0.999997 0.996658 0.999273
0.994824 0.994826 0.833345
0.994696 0.994818 0.833368
0.999801 0.994832 0.877361
1.00103 1.0028 0.990406
0.994817 0.994798 0.832185
0.994759 0.994774 0.825713
0.994728 0.994786 0.827781
0.999113 0.994889 0.972918
0.998943 0.99486 0.942185
0.996562 0.994861 0.870748
0.994711 0.994803 0.822357
0.996548 0.994863 0.964056
0.996733 0.999406 0.942262
0.99476 0.99832 0.872136
0.994821 0.994833 0.821763
0.994865 0.994875 0.959155
0.994843 0.998064 0.940964
0.995342 0.99997 0.878813
0.995128 0.994873 0.834552
0.999879 1.00502 0.990009
1.00023 1.00441 0.990198
1.00005 1.00321 0.991765
1.00057 1.00349 0.990335
1.00046 1.00456 0.989636
1.00001 1.00384 0.991317
1.00083 1.00331 0.990464
1.00044 1.00379 0.990668
0.998908 0.996092 0.992567
1.00187 0.997148 0.994422
1.00038 1.00512 0.989366
1.00075 0.999877 0.994193
0.999554 1.00513 0.991727
1.00011 1.00512 0.990139
0.999454 1.00496 0.990351
0.996147 0.997507 0.992926
0.998528 1.00501 0.992881
0.998026 1.00308 0.995342
0.996919 0.999084 1.00096
0.999201 1.00486 0.991638
0.995053 1.00059 0.988337
0.99537 1.00172 1.00015
0.996247 1.00493 0.996292
0.998407 1.00508 0.993287
0.994784 0.994805 0.840509
0.994825 0.994821 0.840419
0.994713 0.994824 0.83247
0.997693 1.00412 0.995897
0.995444 1.00083 0.998129
0.994807 0.994829 0.842281
0.994836 0.999543 0.943739
0.995447 0.996286 0.968716
0.995016 0.999164 0.874493
0.994805 0.994784 0.826362
0.99487 0.994848 0.82857
0.995364 1.00475 0.999193
0.994797 0.994823 0.834801
0.994856 0.994826 0.833371
0.994781 0.999652 0.994376
0.99481 0.994829 0.822234
0.994854 0.996625 0.939664
0.995715 0.997825 0.885186
0.994811 1.00351 0.998519
0.994829 0.994849 0.840025
0.994801 0.994803 0.832994
0.994732 0.994786 0.822215
0.995103 0.999971 0.878502
0.994903 1.00045 0.976532
0.995417 0.998127 0.932722
0.996506 1.00473 0.997094
0.99515 1.00513 0.998953
0.994892 1.00522 0.998368
0.999102 1.00482 0.991128
0.99602 1.00523 0.996794
0.995071 1.00518 0.998105
0.996263 1.00463 0.996499
0.995088 1.00523 0.998166
0.997887 1.00165 0.997476
0.997572 1.00453 0.994581
0.999109 1.00493 0.991453
0.999029 1.00272 0.994307
0.998946 1.00295 0.992163
0.998235 0.998883 0.998545
1.00236 1.00025 0.989762
1.00422 1.00385 0.983345
1.00486 1.00262 0.983624
1.0021 1.00146 0.990428
1.00423 1.00222 0.985257
1.00515 1.00186 0.984324
1.00439 1.00034 0.986709
1.00484 1.00163 0.984753
1.00106 1.00418 0.988658
1.00266 1.00147 0.989053
1.0029 1.00077 0.987586
1.00028 1.0051 0.988972
1.00025 1.00508 0.989198
1.00036 1.00311 0.99128
0.999879 1.00509 0.989825
1.00024 1.00487 0.989626
1.00017 1.00339 0.991142
1.00031 1.0042 0.990351
1.00015 1.00261 0.991992
1.00013 0.999342 0.995214
1.0002 1.00213 0.992463
1.00019 0.999138 0.995338
1.00006 0.997234 0.998976
1.00014 0.999133 0.995431
1.00011 0.997251 0.998302
1.00007 0.997208 0.999019
1.00049 1.00278 0.991063
1.00024 1.00124 0.992992
1.00043 1.00274 0.991343
1.00016 0.998237 0.996317
1.00015 1.00076 0.9936
1.00032 1.00235 0.992055
1.00007 0.996653 0.999233
1.00011 0.998056 0.996573
1.00003 1.00042 0.994098
1.00004 0.996625 0.999272
1.00007 0.997952 0.996727
1.00002 0.996667 0.99928
0.9948 0.994833 0.840309
0.994822 0.994827 0.833543
0.994688 0.99483 0.833391
1.00091 1.00285 0.990588
1.00077 1.00296 0.990485
1.001 1.00232 0.991143
0.994869 0.994829 0.830906
0.994817 0.994792 0.832714
0.994756 0.994768 0.825729
0.996853 0.99486 0.965225
0.9967 0.994859 0.930897
0.994779 0.999631 0.891863
0.994815 0.99483 0.8165
0.994975 0.994836 0.962173
0.994874 0.999091 0.937566
0.995259 0.998744 0.875188
0.995002 0.994862 0.831161
0.995396 0.994917 0.958891
0.994865 0.997644 0.94209
0.996563 0.997583 0.882504
0.994841 0.994833 0.820288
0.999919 1.00352 0.991248
1.00032 1.00458 0.989804
1.00044 1.00404 0.990037
1.00074 1.00336 0.990274
1.00016 1.0047 0.989942
1.00081 1.00348 0.990428
0.996005 0.996157 0.993736
0.99658 0.999962 1.00125
0.999686 1.00441 0.990484
0.998748 1.00249 0.99553
0.998591 1.00506 0.992953
0.998831 1.00463 0.991926
0.9979 1.00517 0.993385
0.995089 1.00105 0.988301
0.996004 1.00513 0.996813
0.995957 1.00213 0.999194
0.998 1.00477 0.993898
0.994928 1.00281 0.985232
0.995372 1.00413 0.996157
0.995809 1.0052 0.997113
0.994831 0.994831 0.840507
0.994786 0.994815 0.840125
0.994829 0.994818 0.838534
0.995602 1.00428 0.998839
0.994764 1.00006 0.990529
0.994795 0.994822 0.834774
0.994848 0.998628 0.939483
0.996184 0.997236 0.870645
0.994854 0.994825 0.835073
0.994808 0.994835 0.817376
0.994811 1.00334 0.99898
0.994822 0.99485 0.840659
0.994816 0.994803 0.833548
0.994887 0.999533 0.973894
0.994717 0.994789 0.815676
0.995698 0.999728 0.873201
0.995212 0.995861 0.945694
0.994883 1.00511 0.99151
0.994792 0.994842 0.840457
0.994778 0.994789 0.826795
0.994652 0.994794 0.831913
0.994773 0.997388 0.868795
0.99487 0.999234 0.941029
0.994885 1.00083 0.968001
0.995285 1.00512 0.998915
0.994938 1.00519 0.998396
0.997104 1.00266 0.997608
0.996527 1.00445 0.996442
0.995051 1.00523 0.998186
0.996496 1.00361 0.99746
0.999194 0.997312 0.999472
0.998937 1.00308 0.994851
1.00121 1.00223 0.991403
1.00228 1.00468 0.986084
1.00205 0.999863 0.990992
1.00419 1.00363 0.983744
1.00437 1.00458 0.982463
1.00499 1.00181 0.983895
1.00508 1.00186 0.984144
1.00479 1.0027 0.983587
1.00448 1.00237 0.984533
1.0051 1.00118 0.98534
1.00514 1.0019 0.984237
1.0029 1.00196 0.987637
1.00431 1.00044 0.986985
1.00443 1.00151 0.985118
1.00055 1.0051 0.988256
1.0013 1.00427 0.988614
1.00246 1.00193 0.98885
1.00027 1.00414 0.990281
1.00054 1.00506 0.988979
0.999979 1.00507 0.989443
1.00036 1.00482 0.989638
1.00025 1.00329 0.991143
1.00006 0.999824 0.994837
1.00024 1.00253 0.991972
1.00015 0.999379 0.995191
1.00005 0.997369 0.998943
1.0002 0.999167 0.995331
1.00011 0.997267 0.998268
1.00009 0.997245 0.998975
1.00056 1.00316 0.990856
1.00036 1.00149 0.992741
1.00059 1.00268 0.991123
1.00022 0.998489 0.995958
1.00023 1.00124 0.993078
1.00041 1.00275 0.991488
1.00009 0.996735 0.999177
1.00016 0.998196 0.996337
1.00018 1.00075 0.993521
1.00006 0.996672 0.999243
1.00011 0.998033 0.996587
1.00004 0.996636 0.999279
0.99483 0.994844 0.839397
0.994802 0.994846 0.840274
0.994818 0.99484 0.83381
1.00035 1.00427 0.98969
1.0012 1.004 0.989671
1.00072 1.00296 0.990774
1.00069 1.00319 0.99039
1.00057 1.00251 0.991293
1.00039 1.00293 0.991188
1.00037 1.00208 0.992117
0.994831 0.994798 0.8252
0.994868 0.994834 0.83274
0.994813 0.994808 0.833258
0.994879 0.994855 0.827874
0.995068 0.994843 0.959382
0.994867 0.999794 0.933006
0.99544 0.996473 0.888667
0.995188 0.995367 0.95786
0.994875 0.99928 0.930145
0.995458 0.997895 0.885179
0.994909 0.994827 0.83017
0.99565 0.996747 0.961084
0.995083 0.999691 0.931588
0.995505 0.996829 0.868108
0.994737 0.994812 0.817137
0.998288 1.0049 0.993099
0.999748 1.00392 0.991451
1.00036 1.00483 0.989599
1.00084 1.00351 0.990217
0.995353 1.00078 0.98849
0.996551 1.00265 0.998109
0.998623 1.00507 0.992217
0.997648 1.00514 0.993491
0.995908 1.00516 0.997348
0.997878 1.00446 0.993858
0.995886 1.00511 0.997093
0.996304 1.00231 0.981776
0.994908 1.00499 0.996483
0.99623 1.00417 0.996747
0.994789 1.00461 0.981737
0.995474 1.00359 0.998418
0.99478 0.994815 0.840782
0.994832 0.994832 0.843415
0.994789 0.994827 0.839726
0.994816 1.00322 0.999408
0.994866 0.999069 0.977324
0.994815 0.994847 0.841341
0.995432 0.997489 0.933633
0.995687 0.997342 0.887701
0.994827 0.994812 0.834062
0.994705 0.994803 0.823039
0.994887 1.00442 0.992312
0.994805 0.994842 0.840445
0.994762 0.994787 0.826801
0.994894 1.00002 0.968048
0.994699 0.994805 0.821959
0.994735 0.998268 0.87104
0.995401 0.99874 0.929615
0.99516 1.00464 0.986237
0.994831 0.994824 0.833582
0.994674 0.994769 0.81927
0.996555 0.994876 0.889195
0.994803 0.999087 0.940738
0.994846 0.999989 0.961036
0.995092 1.00524 0.998712
0.996044 1.0035 0.997735
0.996803 0.999422 1.00032
0.995366 1.00515 0.997429
0.997631 0.999114 0.999646
1.00185 0.998286 0.994485
1.00352 1.00138 0.990652
1.00318 1.00451 0.985347
1.00354 1.00449 0.983524
1.00397 1.00367 0.984139
1.00447 1.00453 0.982409
1.00433 1.0043 0.982758
1.00514 1.00032 0.985161
1.0051 1.00114 0.984784
1.00498 1.002 0.98387
1.00508 1.00171 0.984605
1.00506 1.00174 0.98415
1.00461 1.00288 0.983549
1.00489 1.00102 0.985876
1.00493 1.00137 0.985173
1.00511 1.00196 0.984153
1.00183 1.00439 0.98737
1.00287 1.00207 0.987792
1.00421 1.00046 0.98726
1.00043 1.00462 0.989211
1.00091 1.00504 0.988298
1.00142 1.00434 0.98857
1.00006 1.00034 0.994304
1.00034 1.00403 0.990286
1.00074 1.00505 0.988985
1.00027 1.0033 0.991144
1.00006 0.999892 0.994805
1 0.997616 0.998882
1.00016 0.999407 0.995168
1.00005 0.997397 0.998931
1.00009 0.997259 0.998957
1.00008 1.00504 0.989783
1.00073 1.00373 0.990062
1.00046 1.00193 0.992169
1.00058 1.00307 0.990842
1.00026 0.998805 0.995579
1.00035 1.00152 0.992733
1.0006 1.00268 0.991184
1.00011 0.9969 0.999089
1.00022 0.99847 0.995981
1.00024 1.00125 0.99316
1.00009 0.996724 0.999195
1.00016 0.998174 0.996357
1.00006 0.996645 0.999254
0.994796 0.994832 0.834685
0.994814 0.99484 0.840069
0.994811 0.994836 0.840231
1.00047 1.00451 0.989673
1.00078 1.00353 0.989832
1.00006 1.00264 0.99054
0.999973 1.00448 0.989894
1.0015 1.00345 0.9903
1.00076 1.00333 0.990292
1.00039 1.00267 0.991443
1.00046 1.00292 0.991207
1.00037 1.00232 0.992145
0.999189 1.00402 0.992312
0.994753 0.994784 0.828529
0.994816 0.994795 0.825906
0.994867 0.994825 0.834503
0.995006 0.994838 0.830926
0.996165 0.99759 0.870674
0.994939 0.996069 0.956392
0.994898 0.998583 0.941848
0.995164 0.99719 0.957594
0.994884 0.996336 0.943146
0.994949 0.999379 0.876658
0.994756 0.994801 0.815792
0.994826 0.998964 0.961471
0.994824 1.00056 0.943077
0.994759 0.998942 0.891051
0.994705 0.994818 0.832162
0.998246 1.00287 0.99523
0.998005 1.00475 0.993262
0.999722 1.00384 0.991659
0.997067 1.00244 0.978002
0.994824 1.00494 0.996903
0.997678 1.00451 0.993813
0.99573 1.00505 0.997075
0.996513 1.00411 0.996744
0.995295 1.00337 0.998708
0.994873 1.00228 0.981019
0.995827 1.00149 0.999597
0.995784 1.00051 0.986638
0.994819 0.994821 0.841297
0.994789 0.994824 0.840411
0.99483 0.994832 0.846348
0.994894 1.00382 0.992722
0.994867 0.99963 0.965401
0.994818 0.994845 0.840412
0.99488 0.999523 0.940956
0.994746 0.999571 0.890493
0.994744 0.994773 0.826914
0.994728 0.99481 0.811626
0.995482 1.0044 0.98693
0.994816 0.99483 0.833701
0.9947 0.994772 0.818084
0.995053 0.999483 0.962
0.996438 0.997179 0.88666
0.994862 0.998892 0.935728
0.995146 1.00331 0.98436
0.994685 0.99479 0.822448
0.998804 0.994833 0.890395
0.996471 0.997184 0.932197
0.994864 0.996719 0.963699
0.995549 1.0046 0.997851
0.996377 0.999911 1.00031
0.99884 1.00224 0.996054
0.996037 1.00087 0.999795
1.00075 0.998803 0.994989
1.00337 0.999531 0.989651
1.00408 1.00414 0.984594
1.00355 1.00445 0.983394
1.00419 1.0017 0.984941
1.00472 1.00437 0.982358
1.0044 1.0039 0.982845
1.00489 1.00033 0.985728
1.00524 0.997771 0.987388
1.00521 0.999739 0.985532
1.00512 1.00022 0.985251
1.00515 1.00106 0.984952
1.00511 1.00116 0.984703
1.00498 1.00216 0.983842
1.00513 1.00186 0.984621
1.00492 1.00161 0.984634
1.00504 1.00166 0.984156
1.00393 1.00218 0.98624
1.00443 1.00143 0.985903
1.00478 1.00161 0.985006
1.00079 1.00512 0.987748
1.00188 1.00433 0.987383
1.00298 1.00219 0.987944
1.0001 1.00113 0.994408
1.00064 1.00458 0.989212
1.00124 1.00498 0.988342
1 0.998049 0.996965
1.00007 1.00052 0.994618
1.00043 1.00389 0.99029
1.00007 0.999979 0.994773
1.00001 0.997678 0.998844
1.00005 0.997406 0.998916
1.00029 1.00512 0.989497
1.00067 1.00483 0.98932
0.99987 1.00505 0.989692
1.00051 1.00262 0.99141
1.00052 1.00409 0.990042
1.00022 0.999165 0.995267
1.00045 1.00191 0.992179
1.00069 1.00298 0.990826
1.0001 0.997137 0.999002
1.00025 0.998786 0.995595
1.00034 1.00156 0.992725
1.0001 0.996886 0.999117
1.00021 0.99844 0.996003
1.00009 0.996723 0.999212
0.994789 0.994825 0.842944
0.994806 0.994836 0.834655
0.994801 0.994853 0.840768
1.00094 1.00228 0.990335
1.00014 1.00488 0.989655
1.00066 1.00332 0.990001
1.00053 1.00458 0.989659
1.00085 1.00245 0.990597
1.0008 1.00316 0.991213
1.00264 1.00227 0.988329
0.998757 1.00492 0.991136
1.00057 1.00283 0.991225
1.00004 1.00229 0.992171
0.999067 1.00387 0.992233
0.998177 1.00523 0.992832
0.994707 0.994797 0.825211
0.994777 0.994787 0.828053
0.994813 0.994792 0.826476
0.994772 0.994808 0.828275
0.994944 0.999363 0.875734
0.995555 0.998344 0.931634
0.994943 0.996637 0.957223
0.994867 0.99874 0.960939
0.994715 0.994819 0.821909
0.994848 0.997218 0.935728
0.99476 0.999371 0.875443
0.994921 0.996505 0.965869
0.994874 0.999828 0.943894
0.996442 0.995593 0.887342
0.999383 0.997217 0.99849
0.99821 1.00268 0.995187
0.997969 1.00455 0.993415
0.994921 1.00137 0.980822
0.994912 1.00306 0.99897
0.996921 1.00396 0.996727
0.996932 1.00122 0.999695
0.995268 0.999377 0.986821
0.996603 0.998034 0.992369
0.994719 0.994852 0.834541
0.994818 0.994813 0.843013
0.994796 0.994825 0.839985
0.995082 1.00424 0.987288
0.994876 0.999978 0.961814
0.994802 0.994837 0.833984
0.994839 0.999758 0.931764
0.996442 0.994858 0.872097
0.994734 0.99479 0.829027
0.994808 1.00423 0.984369
0.994696 0.99482 0.833912
0.998786 0.994798 0.873169
0.994869 0.995914 0.959429
0.99653 0.998938 0.942745
0.994854 1.0031 0.989869
0.999797 0.994842 0.867018
0.999149 0.994889 0.944426
0.994854 0.994845 0.95862
0.995972 1.0002 1.00037
0.998149 1.00127 0.995697
1.00151 1.00349 0.99095
0.999627 0.999378 0.995501
1.00269 1.00031 0.989487
1.00413 0.999837 0.987642
1.00353 1.00455 0.983263
1.00413 1.00187 0.984889
1.00501 0.997124 0.987899
1.00439 1.00342 0.982932
1.00475 1.00014 0.985753
1.00526 0.996153 0.988925
1.00523 0.996111 0.98941
1.00525 0.99798 0.987271
1.00526 0.997681 0.987511
1.00523 0.999593 0.985715
1.0052 0.999716 0.985704
1.00512 1.00013 0.985342
1.00523 1.00131 0.984476
1.00516 1.00097 0.984919
1.00511 1.00115 0.98462
1.00509 1.00119 0.98519
1.00496 1.00179 0.984636
1.00475 1.0015 0.984661
1.00224 1.00416 0.986731
1.00378 1.0024 0.98618
1.00391 1.00181 0.985933
1.00007 1.00208 0.992472
1.00132 1.00494 0.987757
1.00197 1.00435 0.987392
0.999837 0.998695 0.998556
1.00012 1.00116 0.993389
1.00085 1.00452 0.989216
1 0.998035 0.998711
1.00006 1.00058 0.994166
1.00002 0.997754 0.998803
1.00203 1.00362 0.988573
1.00033 1.00507 0.989345
1.00071 1.00508 0.988949
1.00043 1.00356 0.990574
1.00049 1.0048 0.989294
1.00006 1.00497 0.989603
1.00016 0.999638 0.994917
1.00047 1.00264 0.991433
1.0003 1.00422 0.99002
1.00008 0.997353 0.998934
1.00023 0.999108 0.995283
1.00045 1.00188 0.992189
1.0001 0.997101 0.999027
1.00024 0.998773 0.995611
1.0001 0.996845 0.999145
0.994712 0.994814 0.81953
0.994807 0.994827 0.843176
0.994812 0.994839 0.834641
1.00083 1.00274 0.990293
1.00427 1.0019 0.987319
1.00144 1.00361 0.989456
1.00054 1.0045 0.989421
1.0018 1.00223 0.990649
0.999736 1.0025 0.99211
0.999431 1.00475 0.99079
1.00182 1.00274 0.988875
1.00183 1.00383 0.988543
0.999473 0.999855 0.9954
0.999685 1.00377 0.99215
0.998546 1.00515 0.992662
0.999227 0.994819 0.866705
0.994678 0.994788 0.818812
0.994787 0.994791 0.828054
0.994726 0.994812 0.81113
0.994801 0.998127 0.892595
0.994823 0.999131 0.931312
0.994945 0.996519 0.959121
0.994884 0.996611 0.964003
0.996665 0.998216 0.885791
0.994855 0.998596 0.932359
0.994902 0.997015 0.966965
0.996348 0.996014 0.932055
1.00077 0.995844 0.99944
0.999272 0.998313 0.998439
0.998128 1.00257 0.99516
0.994937 0.998918 0.987106
0.997738 1.0007 0.999803
0.997099 0.99808 0.992062
0.997181 0.995634 0.991034
0.999796 0.994905 0.880371
0.994709 0.994838 0.832434
0.994824 0.994812 0.844598
0.994838 1.00436 0.984677
0.994858 0.994946 0.957935
0.994691 0.994831 0.833801
0.99654 0.994825 0.93219
0.999039 0.994833 0.890579
0.994868 1.00108 0.986723
0.999805 0.994858 0.878231
0.999863 0.995656 0.931459
0.994863 0.994815 0.96098
0.997075 0.997994 0.988471
0.999962 0.994887 0.944653
0.995401 0.994844 0.965043
0.997916 1.00033 0.995297
1.00057 1.00143 0.991061
1.00378 0.99946 0.990651
1.00208 1.00112 0.989336
1.00404 0.999649 0.987648
1.00513 0.99625 0.989218
1.00419 1.002 0.984842
1.00497 0.997561 0.987835
1.00523 0.995164 0.989916
1.00465 0.999954 0.985774
1.00526 0.996249 0.98887
1.00523 0.995102 0.990301
1.00522 0.995423 0.990308
1.00523 0.996014 0.989582
1.00521 0.996551 0.989208
1.00527 0.998328 0.9872
1.00524 0.998042 0.987386
1.00527 0.997586 0.987635
1.00527 1.00025 0.985423
1.00524 0.999639 0.985678
1.00519 0.999672 0.985876
1.00521 1.00156 0.984574
1.00522 1.00134 0.984516
1.00516 1.00092 0.984887
1.0034 1.00274 0.986302
1.00494 1.00132 0.985163
1.00479 1.00175 0.984651
1.00044 1.00282 0.991146
1.00233 1.00411 0.986733
1.00374 1.00242 0.986121
0.999962 0.999022 0.998314
1.00022 1.00201 0.992433
1.00172 1.0048 0.987765
0.999942 0.99866 0.99755
1.00015 1.00129 0.993392
1.00002 0.998206 0.998615
1.00346 1.0014 0.98796
1.00136 1.00362 0.98877
1.00064 1.00508 0.98858
1.00032 1.00504 0.98919
1.00047 1.00507 0.988967
1.00061 1.00428 0.989697
1.00012 1.00034 0.994332
1.00037 1.00369 0.990563
1.0002 1.00492 0.98927
1.00005 0.997606 0.998835
1.00015 0.999589 0.994939
1.00041 1.00269 0.991455
1.00008 0.997323 0.998953
1.00025 0.999062 0.995302
1.0001 0.997074 0.999053
0.999795 0.994835 0.877907
0.9947 0.994825 0.824856
0.994818 0.994826 0.843401
1.0007 1.0031 0.990252
1.00134 1.0041 0.988589
1.00347 1.00256 0.987499
1.00502 1.00366 0.983112
1.00146 1.00329 0.9887
0.999667 1.00485 0.990468
1.00128 1.0032 0.989419
1.00101 1.00386 0.989041
1.00391 0.998795 0.988129
1.00181 0.999762 0.992541
1.00332 0.995415 0.993223
1.00022 0.999447 0.995251
0.999348 1.00432 0.992502
0.998354 0.994873 0.942436
0.999405 0.994783 0.871473
0.994657 0.99479 0.823565
0.996729 0.996043 0.872421
0.994873 0.999727 0.940977
0.994889 0.995578 0.965138
0.994918 0.996814 0.968626
0.99697 0.999236 0.943852
0.995726 0.994947 0.968276
1.00015 0.995837 0.99885
1.00012 0.996242 0.999468
0.999072 0.999426 0.998374
0.997757 0.997703 0.991863
0.997887 0.996508 0.991201
0.999973 0.994894 0.933847
0.999798 0.994886 0.885598
0.994694 0.994823 0.830433
0.9949 0.999607 0.983323
0.994992 0.994819 0.958741
0.999803 0.994834 0.87777
0.998887 0.994856 0.943156
0.99675 0.997972 0.988722
1.00069 0.99489 0.941252
0.996398 0.994874 0.962687
1.00062 0.994917 0.988714
0.99859 0.994869 0.972655
0.999308 0.999461 0.991251
1.00328 0.99769 0.990662
1.00485 0.995099 0.991696
1.00389 0.999325 0.987649
1.00503 0.996155 0.98908
1.00522 0.994882 0.990371
1.00482 0.998021 0.987773
1.00523 0.995217 0.989864
1.00523 0.994888 0.990468
1.00525 0.996346 0.988816
1.00523 0.995152 0.990265
1.00524 0.994968 0.990568
1.00522 0.995305 0.99038
1.0052 0.995632 0.990248
1.00523 0.995911 0.989756
1.00521 0.996545 0.989203
1.00523 0.997181 0.988517
1.00529 0.999214 0.986504
1.00527 0.998389 0.987179
1.00524 0.998103 0.987501
1.00529 1.00111 0.984652
1.00528 1.00031 0.985297
1.00524 0.999682 0.98564
1.00401 1.00194 0.986001
1.00506 1.00159 0.984608
1.0052 1.00137 0.984556
1.00106 1.00291 0.990054
1.00325 1.00295 0.986303
1.00463 1.00158 0.985139
1.00008 0.999791 0.997929
1.00059 1.00267 0.991139
1.00253 1.00407 0.986736
1.00005 0.999184 0.998188
1.00041 1.00181 0.992391
1.00005 0.998643 0.998395
1.0048 1.00253 0.98436
1.00344 1.0013 0.987835
1.00163 1.00397 0.987697
1.00072 1.00362 0.988977
1.00069 1.00502 0.988426
1.00083 1.00483 0.988738
1.00034 1.00508 0.988981
1.00041 1.00444 0.989668
1.00016 1.00104 0.993537
1.00002 0.998023 0.998646
1.00008 1.00028 0.994353
1.00029 1.00379 0.990554
1.00004 0.997586 0.998871
1.00015 0.999529 0.994954
1.00008 0.997298 0.998973
0.999975 0.994884 0.946081
0.999814 0.994855 0.877612
0.994681 0.994816 0.819435
1.00116 1.00476 0.987715
1.00287 1.0029 0.987684
1.00245 1.0031 0.98819
1.00455 1.00344 0.983764
1.00509 1.00144 0.984375
1.00349 1.0009 0.986499
1.00031 1.00411 0.98952
1.0043 0.999049 0.987364
1.00179 0.99956 0.992735
1.00358 0.996762 0.990306
1.00426 0.996155 0.991827
1.00297 0.996372 0.992954
1.0029 0.99568 0.993376
0.999801 0.99986 0.995098
0.995999 0.994865 0.966393
0.999316 0.996127 0.938359
0.998231 0.994841 0.887185
0.996512 0.99726 0.931731
0.994933 0.996753 0.969124
0.995449 0.995693 0.974115
0.999247 0.995357 0.992864
1.00073 0.995316 0.998448
0.999487 0.996436 0.999518
0.998899 0.998223 0.9914
0.997137 0.996051 0.967474
1.0001 0.994881 0.946727
0.999799 0.994884 0.869809
0.996145 0.997926 0.989013
0.996862 0.994864 0.963546
0.999953 0.994878 0.937566
1.00007 0.995062 0.988959
0.998584 0.99488 0.97201
1.00295 0.994963 0.990638
1.00307 0.997259 0.985407
1.00251 0.996015 0.990651
1.00444 0.995123 0.991703
1.0051 0.994794 0.991028
1.00498 0.996194 0.988944
1.00522 0.99488 0.990321
1.00525 0.994894 0.990508
1.00523 0.995274 0.98981
1.00523 0.994896 0.990447
1.00526 0.994907 0.990532
1.00523 0.995196 0.990228
1.00523 0.994959 0.990555
1.00524 0.995005 0.990582
1.00522 0.995192 0.99045
1.0052 0.99551 0.990297
1.00521 0.996349 0.989545
1.00521 0.996543 0.989197
1.00523 0.997228 0.9885
1.00527 0.998426 0.987417
1.00532 1.00034 0.985409
1.00529 0.999353 0.986318
1.00527 0.998452 0.987158
1.00468 1.00102 0.985785
1.00528 1.00112 0.984688
1.00529 1.00038 0.985172
1.00155 1.00256 0.989507
1.00389 1.00218 0.985992
1.00493 1.00161 0.984639
1.00041 1.00042 0.997439
1.00112 1.00277 0.990051
1.00311 1.00314 0.986303
1.00024 0.999957 0.99773
1.00063 1.00252 0.991141
1.00017 0.999314 0.998028
1.00485 1.00193 0.98441
1.00492 1.00233 0.984556
1.00408 1.00217 0.985658
1.00318 1.00169 0.987708
1.00177 1.00384 0.987484
1.00166 1.00477 0.987626
1.00066 1.00493 0.988274
1.00074 1.00492 0.98874
1.00021 1.00188 0.992661
1.00029 1.00469 0.989641
1.00009 1.00111 0.993566
0.999976 0.998677 0.998409
0.999999 0.997989 0.998718
1.00004 1.00027 0.994378
1.00003 0.997533 0.998901
0.996954 0.994881 0.967775
0.999971 0.99487 0.933265
0.999809 0.994855 0.888763
1.00521 0.999274 0.986108
1.00356 1.00305 0.987691
1.0041 1.00323 0.984417
1.00423 1.00071 0.986744
1.00508 1.00163 0.984315
1.00464 0.998446 0.988045
1.00475 1.0004 0.986601
1.00153 0.99886 0.992932
1.00413 0.997344 0.99004
1.00408 0.996243 0.991095
1.00478 0.995855 0.989882
1.00338 0.99519 0.993799
1.00299 0.995993 0.992997
1.00271 0.995952 0.993522
0.998979 0.995352 0.991149
0.995866 0.994872 0.964741
0.998937 0.994854 0.933897
0.995053 0.996312 0.972698
0.998922 0.99525 0.995441
1.00075 0.994902 0.997993
1.00162 0.996245 0.982608
0.997168 0.995382 0.967904
0.999976 0.994897 0.933871
0.999404 0.994899 0.989236
0.998918 0.9949 0.97122
1.00209 0.994899 0.991134
1.00298 0.996525 0.986184
1.00399 0.994955 0.991315
1.00457 0.997332 0.990872
1.00412 0.994982 0.991698
1.00508 0.994806 0.990921
1.0053 0.994842 0.990474
1.00522 0.994874 0.990272
1.00524 0.994889 0.990503
1.00529 0.99489 0.99048
1.00522 0.994904 0.990425
1.00525 0.994905 0.990539
1.00526 0.994909 0.990646
1.00521 0.994963 0.990542
1.00524 0.994985 0.990565
1.00522 0.995432 0.990323
1.00521 0.99539 0.990346
1.00522 0.996207 0.989689
1.00526 0.997641 0.988293
1.00523 0.997272 0.988482
1.00527 0.998376 0.987468
1.00531 0.999974 0.985901
1.00497 1.00055 0.985775
1.00531 1.00046 0.985291
1.0053 0.999488 0.986132
1.00223 1.00153 0.989401
1.00458 1.00117 0.985797
1.00527 1.00113 0.984725
1.00071 1.00067 0.997115
1.00177 1.00222 0.989502
1.00377 1.00236 0.985986
1.00055 1.0005 0.997297
1.00126 1.00258 0.990048
1.0004 1.00013 0.997541
1.00528 1.00061 0.984987
1.00508 1.00196 0.984308
1.00506 1.00132 0.98491
1.00512 1.00211 0.98475
1.00423 1.00213 0.985562
1.00263 1.00392 0.986789
1.00203 1.00349 0.987271
1.00138 1.00491 0.987644
1.00042 1.00251 0.99166
1.00058 1.00492 0.988738
1.0001 1.00191 0.99269
0.999958 0.999326 0.998128
1.00001 1.00106 0.993595
0.999959 0.998535 0.998496
0.999977 0.997908 0.998781
1.00068 0.99488 0.987342
0.996743 0.99489 0.964409
0.999976 0.994879 0.945916
1.00506 0.997876 0.987983
1.00527 0.997449 0.988045
1.00521 0.99906 0.986378
1.00493 1.00014 0.986982
1.00506 1.00188 0.984255
1.00469 0.998268 0.988353
1.00511 0.995667 0.989415
1.00471 0.997315 0.989785
1.00403 0.996701 0.990365
1.00465 0.996386 0.990238
1.00509 0.995137 0.99068
1.00374 0.995235 0.992691
1.00305 0.99543 0.993552
1.00329 0.995551 0.993053
0.999647 0.995313 0.991258
0.995743 0.994861 0.963225
0.998915 0.995217 0.998131
1.00446 0.99505 0.990906
1.00147 0.996456 0.982754
0.997227 0.994868 0.96609
1.0017 0.994803 0.991593
1.00286 0.99578 0.986984
1.004 0.994896 0.991958
1.00459 0.996529 0.99096
1.00528 0.994819 0.990874
1.00538 0.994918 0.991081
1.00504 0.994821 0.990816
1.00531 0.994849 0.990445
1.00532 0.994866 0.990503
1.00523 0.994882 0.990498
1.00529 0.994891 0.990501
1.00526 0.99489 0.990659
1.00525 0.994904 0.990545
1.00527 0.994908 0.990639
1.00525 0.995052 0.990713
1.00524 0.994964 0.990549
1.00523 0.995438 0.990299
1.00526 0.996874 0.988999
1.00522 0.996062 0.989834
1.00526 0.99757 0.988351
1.00531 0.999516 0.986339
1.00527 0.998327 0.98752
1.00531 0.999897 0.985994
1.00505 1.00038 0.985844
1.00259 1.00074 0.989534
1.00495 1.0006 0.985782
1.00531 1.00058 0.985173
1.00089 1.00069 0.996969
1.00226 1.00147 0.989392
1.00446 1.00138 0.98581
1.00078 1.00071 0.997045
1.00191 1.00202 0.989497
1.00065 1.00063 0.997175
1.0053 0.998871 0.986629
1.00527 1.00048 0.985175
1.00523 1.00093 0.985017
1.00517 1.00194 0.984205
1.00514 1.00125 0.984919
1.0034 1.00255 0.986616
1.00447 1.00207 0.98547
1.00254 1.00369 0.986795
1.00077 1.00287 0.990594
1.00109 1.00499 0.987662
1.00031 1.00257 0.991692
1.00005 1.00014 0.997783
1.00004 1.00195 0.992718
0.999917 0.999234 0.998238
0.999928 0.998443 0.998578
1.00432 0.994826 0.992195
1.00084 0.994875 0.985191
0.996595 0.994909 0.963691
1.00515 0.996821 0.989031
1.00504 0.997457 0.988248
1.00527 0.996268 0.989275
1.00527 0.997468 0.988017
1.00521 0.998834 0.986643
1.00526 0.995 0.989995
1.00478 0.99824 0.98865
1.00513 0.996028 0.989403
1.00526 0.994857 0.990475
1.00452 0.996746 0.990591
1.00506 0.995238 0.990379
1.00351 0.995271 0.992938
1.00248 0.99578 0.993308
1.00011 0.995208 0.991204
1.00533 0.994899 0.990824
1.00443 0.996059 0.991131
1.00132 0.996828 0.982947
1.0039 0.994788 0.992585
1.00459 0.995732 0.991053
1.00528 0.99481 0.990939
1.00539 0.994917 0.991016
1.00536 0.994884 0.990864
1.00533 0.994857 0.990419
1.00532 0.994873 0.990515
1.00525 0.994904 0.99079
1.00529 0.994893 0.990521
1.00526 0.994893 0.990656
1.00524 0.994909 0.990918
1.00527 0.994907 0.990632
1.00525 0.995039 0.990687
1.00525 0.996147 0.989775
1.00524 0.995445 0.990275
1.00526 0.996903 0.988999
1.00533 0.999042 0.986852
1.00525 0.997499 0.988409
1.00531 0.99952 0.986364
1.00505 1.00032 0.985923
1.00531 0.999818 0.986088
1.00506 1.00038 0.985853
1.00267 1.00033 0.991431
1.00124 1.00022 0.993662
1.00263 1.00073 0.990342
1.00493 1.00066 0.985788
1.00092 1.0007 0.996939
1.0024 1.00128 0.989379
1.00082 1.00075 0.99698
1.00523 0.996147 0.989691
1.00527 0.997742 0.987997
1.0053 0.998868 0.986807
1.0053 1.00033 0.98547
1.00525 1.00037 0.985365
1.00526 1.00095 0.984954
1.00409 1.00138 0.98645
1.00518 1.00122 0.984927
1.00356 1.00212 0.986604
1.00139 1.00271 0.989736
1.00252 1.00349 0.986797
1.00073 1.00297 0.990583
1.00028 1.00074 0.997356
1.0002 1.00264 0.991722
0.999957 0.999869 0.997922
0.999879 0.999079 0.998335
1.00534 0.99485 0.990759
1.00446 0.994805 0.99194
1.00125 0.994863 0.983098
1.00526 0.995498 0.989927
1.00509 0.996773 0.988912
1.00506 0.997024 0.988521
1.00526 0.996429 0.989251
1.00527 0.997483 0.987988
1.00534 0.99484 0.990511
1.00527 0.995008 0.990023
1.00514 0.996381 0.989391
1.00524 0.99486 0.990503
1.00505 0.995307 0.990077
1.00341 0.995226 0.993187
1.00532 0.99493 0.990914
1.00535 0.994904 0.99101
1.00442 0.996742 0.991357
1.00527 0.994801 0.99099
1.0054 0.994918 0.990954
1.00535 0.994886 0.990829
1.00525 0.994936 0.99104
1.00532 0.99488 0.990526
1.00525 0.994905 0.990761
1.00519 0.994929 0.991069
1.00527 0.994896 0.990653
1.00524 0.994909 0.990901
1.00525 0.995577 0.990402
1.00524 0.995027 0.990661
1.00526 0.996173 0.989768
1.00533 0.998603 0.98735
1.00526 0.99693 0.989
1.00532 0.999043 0.986875
1.00504 1.00025 0.986037
1.00531 0.999523 0.986389
1.00508 1.00029 0.985938
1.00276 1.00008 0.991558
1.00508 1.00038 0.985861
1.00287 1.00022 0.991311
1.0013 0.999983 0.993845
1.00097 1.00051 0.995361
1.00283 1.00067 0.990984
1.00092 1.00075 0.996924
1.00521 0.995281 0.990626
1.00525 0.997419 0.988352
1.00523 0.995986 0.989854
1.00533 0.999638 0.986133
1.00527 0.997792 0.987986
1.00531 0.99886 0.986984
1.0053 1.00035 0.985414
1.00477 1.00051 0.98617
1.00528 1.00097 0.984891
1.00422 1.00113 0.986446
1.002 1.00191 0.989418
1.00365 1.00174 0.986598
1.0012 1.00287 0.98973
1.00049 1.00119 0.997029
1.00056 1.00312 0.990588
1.00013 1.00061 0.997527
0.999898 0.999749 0.998049
1.0053 0.994887 0.990737
1.00531 0.994849 0.990765
1.00447 0.994792 0.991675
1.00526 0.994895 0.990658
1.00524 0.995561 0.989913
1.00501 0.996737 0.988797
1.00526 0.996589 0.989228
1.00533 0.994851 0.990507
1.00528 0.995015 0.990052
1.0052 0.994865 0.990532
1.00527 0.994961 0.991022
1.00531 0.994928 0.990901
1.00537 0.994909 0.991194
1.00521 0.994966 0.991167
1.00535 0.994887 0.990793
1.00525 0.994939 0.99103
1.00516 0.994961 0.991167
1.00525 0.994906 0.990733
1.0052 0.994929 0.991065
1.00526 0.995244 0.990812
1.00524 0.994909 0.990885
1.00524 0.995597 0.990395
1.00532 0.99823 0.987772
1.00526 0.9962 0.98976
1.00532 0.998603 0.987369
1.00502 1.00015 0.986203
1.00532 0.999045 0.986898
1.00507 1.00023 0.986056
1.00277 1.00006 0.991544
1.00511 1.00027 0.985952
1.00292 1.00001 0.991415
1.00135 0.999866 0.99389
1.00305 1.00011 0.991201
1.00089 1.00016 0.994121
1.0004 1.00085 0.997392
1.00522 0.995115 0.990672
1.00527 0.996627 0.989262
1.00522 0.995366 0.990472
1.00534 0.999308 0.98655
1.00526 0.997103 0.988606
1.00523 0.995824 0.990016
1.00511 1.00003 0.986103
1.00533 0.999641 0.986091
1.00528 0.997841 0.987974
1.00531 1.00037 0.985358
1.00482 1.0004 0.986161
1.00237 1.00112 0.989522
1.00435 1.00087 0.986441
1.00185 1.00211 0.98944
1.00061 1.00126 0.99693
1.00117 1.003 0.989714
1.00041 1.00104 0.997143
1.00001 1.00038 0.997688
1.00524 0.994901 0.990969
1.0053 0.99489 0.990707
1.0053 0.994847 0.990772
1.00527 0.994913 0.990675
1.00522 0.995627 0.9899
1.00532 0.994863 0.990504
1.00522 0.994977 0.991086
1.00527 0.994957 0.99103
1.0053 0.994926 0.990888
1.0052 0.994966 0.991163
1.00512 0.994967 0.991362
1.00525 0.994941 0.991021
1.00517 0.994962 0.991195
1.00525 0.995116 0.990991
1.00521 0.994929 0.991062
1.00524 0.995255 0.990807
1.00533 0.99791 0.988092
1.00524 0.995608 0.990389
1.00532 0.998221 0.987784
1.00499 1 0.98642
1.00532 0.998603 0.987389
1.00504 1.00014 0.986219
1.00271 1.00016 0.991496
1.00509 1.0002 0.986074
1.00291 1.00001 0.991389
1.00139 0.99989 0.993823
1.00306 0.999951 0.991282
1.00099 0.999919 0.994187
1.0005 1.00034 0.994381
1.00526 0.994902 0.990966
1.00526 0.996153 0.989755
1.00522 0.995026 0.990725
1.00535 0.998538 0.987352
1.00527 0.996721 0.989131
1.00523 0.99545 0.990317
1.00518 0.999913 0.986149
1.00534 0.999011 0.986783
1.00526 0.996796 0.98886
1.00267 1.00034 0.989775
1.00511 1.00001 0.986093
1.00533 0.999643 0.98605
1.00489 1.0003 0.986152
1.00233 1.00119 0.989538
1.00075 1.0011 0.99695
1.00169 1.00232 0.989461
1.00059 1.00119 0.996958
1.00028 1.00095 0.997281
1.00522 0.994948 0.991071
1.00525 0.994903 0.99094
1.00528 0.994892 0.990678
1.00528 0.99493 0.990692
1.00514 0.994973 0.99132
1.00522 0.994974 0.991095
1.00527 0.994953 0.991037
1.0052 0.994966 0.991159
1.00513 0.994964 0.991343
1.00523 0.99552 0.990676
1.00517 0.994963 0.991223
1.00524 0.995364 0.990772
1.00535 0.997265 0.98877
1.00521 0.995274 0.990802
1.00534 0.997906 0.988093
1.00496 0.999804 0.986679
1.00532 0.998228 0.987795
1.00501 0.999983 0.986426
1.00271 1.00023 0.989926
1.00506 1.00011 0.986235
1.00286 1.00013 0.990573
1.00119 0.999961 0.996983
1.00306 0.999977 0.991235
1.00106 0.999878 0.994129
1.00066 0.999956 0.994468
1.00524 0.994935 0.991053
1.00525 0.99574 0.990276
1.00526 0.994945 0.990925
1.0053 0.997981 0.987983
1.00525 0.996213 0.989666
1.00522 0.994937 0.990779
1.00515 0.999629 0.986456
1.00535 0.998525 0.987364
1.00527 0.996809 0.988999
1.00281 0.999878 0.990006
1.00516 0.999796 0.986231
1.00533 0.998706 0.987016
1.00092 1.00065 0.997031
1.00268 1.00033 0.989786
1.00511 0.999994 0.986081
1.00228 1.00124 0.989555
1.00074 1.00103 0.996936
1.00055 1.00113 0.996999
1.00516 0.994967 0.991216
1.00521 0.994949 0.991075
1.00526 0.994906 0.990911
1.00523 0.995523 0.990701
1.00515 0.994975 0.991304
1.00521 0.994973 0.991103
1.00514 0.994961 0.991324
1.00522 0.995516 0.990677
1.00536 0.99739 0.988712
1.00522 0.99561 0.990552
1.00536 0.997619 0.988409
1.00491 0.999342 0.987201
1.00535 0.997889 0.988095
1.00497 0.999793 0.986678
1.00266 1.00015 0.990098
1.00503 0.999967 0.986433
1.00273 1.00021 0.989933
1.00114 1.00001 0.996973
1.00289 1.00011 0.989783
1.00105 0.999963 0.99558
1.00073 0.999847 0.994433
1.00521 0.994952 0.991144
1.00524 0.995605 0.990528
1.00523 0.994935 0.991066
1.00528 0.998135 0.987899
1.00526 0.995736 0.990257
1.00526 0.994989 0.990885
1.00507 0.999544 0.986681
1.0053 0.998279 0.987693
1.00524 0.996271 0.989577
1.00284 0.999778 0.990067
1.00512 0.99962 0.986475
1.00535 0.998513 0.987376
1.00109 1.00022 0.997066
1.00283 0.999851 0.99001
1.00513 0.999674 0.986312
1.00093 1.00065 0.996994
1.00268 1.00032 0.989796
1.0007 1.00102 0.996943
1.00521 0.995571 0.990606
1.00516 0.994966 0.991221
1.00521 0.994951 0.99108
1.00535 0.997343 0.988778
1.00522 0.99552 0.990683
1.00515 0.994976 0.991288
1.00522 0.99551 0.990678
1.00536 0.997365 0.988718
1.00486 0.999186 0.987452
1.00537 0.997976 0.988048
1.00492 0.999476 0.987054
1.00261 1.00003 0.99031
1.00498 0.99978 0.986679
1.00264 1.00016 0.990108
1.00107 1.00003 0.99698
1.00272 1.0002 0.989938
1.00112 1.00003 0.996969
1.00114 0.999925 0.993907
1.00523 0.995748 0.990377
1.00521 0.994949 0.991106
1.00528 0.997923 0.98815
1.00524 0.995572 0.990535
1.00522 0.994936 0.991079
1.00499 0.999769 0.986665
1.00528 0.998145 0.987894
1.00526 0.995731 0.990238
1.00281 0.999868 0.99006
1.00504 0.999698 0.986567
1.0053 0.998584 0.987404
1.0012 0.999984 0.99703
1.00287 0.999772 0.990065
1.00509 0.999606 0.986493
1.00108 1.00026 0.997056
1.00286 0.999841 0.990014
1.00095 1.00065 0.996961
1.00533 0.997429 0.988699
1.00521 0.995578 0.990615
1.00517 0.994966 0.991227
1.00484 0.999129 0.987542
1.00535 0.997323 0.988783
1.00522 0.995517 0.990666
1.00536 0.997344 0.988725
1.00488 0.999174 0.987422
1.00251 0.999977 0.990524
1.00493 0.999611 0.986907
1.00259 1.00004 0.990318
1.00103 1.00002 0.997017
1.00264 1.00017 0.990118
1.00104 1.00005 0.996998
1.0011 1.00003 0.996973
1.00529 0.997726 0.988344
1.00523 0.995526 0.990581
1.00521 0.994945 0.991069
1.00492 0.999676 0.986903
1.00528 0.997935 0.988146
1.00525 0.995524 0.990542
1.00272 0.999988 0.990129
1.00496 0.999793 0.986662
1.00527 0.998154 0.987889
1.00119 0.999933 0.996985
1.00282 0.999883 0.990055
1.00502 0.999846 0.986452
1.00118 1.00003 0.997047
1.00288 0.999782 0.990064
1.00111 1.00027 0.997034
1.00484 0.999454 0.987239
1.00533 0.997262 0.988835
1.00521 0.995583 0.990623
1.00248 0.999903 0.990687
1.00484 0.999111 0.987534
1.00535 0.9973 0.988787
1.0049 0.999158 0.987393
1.00252 0.999951 0.990531
1.00097 1.00002 0.997045
1.00257 1.00005 0.990326
1.001 1.00003 0.997022
1.001 1.00006 0.997011
1.00487 0.999553 0.987111
1.0053 0.997522 0.988567
1.00523 0.995324 0.990786
1.00274 1.00002 0.991641
1.00489 0.999687 0.986906
1.00528 0.997947 0.988141
1.00111 0.999963 0.99698
1.00273 1.00001 0.990125
1.00493 0.999818 0.986659
1.0012 0.999957 0.997003
1.00283 0.999903 0.99005
1.00118 1.00005 0.997058
1.00257 0.999903 0.990584
1.00484 0.999304 0.987365
1.00533 0.997095 0.988972
1.0009 0.999984 0.9971
1.00246 0.999901 0.990681
1.00485 0.999095 0.987527
1.00252 0.999927 0.990534
1.00094 1.00001 0.997063
1.00098 1.00004 0.997034
1.00273 0.999964 0.991767
1.00486 0.999557 0.987112
1.0053 0.997311 0.988789
1.00057 1 0.997508
1.00262 1.00002 0.990304
1.00487 0.999694 0.98691
1.00114 0.99997 0.996987
1.00273 1.00003 0.990119
1.00121 0.999976 0.997018
1.00089 0.999952 0.994322
1.00259 0.999906 0.991264
1.00483 0.999154 0.98749
1.00093 0.999987 0.997106
1.00247 0.999902 0.990684
1.00096 0.999997 0.997077
1.00043 0.999994 0.994762
1.00263 0.999949 0.991141
1.00483 0.999567 0.987112
1.00079 0.999994 0.995825
1.00261 1.00002 0.990321
1.00116 0.999977 0.996996
1.00092 0.999974 0.997099
1.00247 0.999898 0.990681
1.00089 0.999988 0.997103
1.00069 0.99997 0.995935
1.00253 0.999942 0.990552
1.00106 0.999988 0.997011
1.00094 0.999974 0.997107
1.00095 0.999979 0.997067

TENSORS stress float
0.00209306 -0.000141308 0.000242337
-0.000141308 0.000967823 -3.95665e-05
0.000242337 -3.95665e-05 0.000942378
0.00653621 2.59932e-05 0.000270394
2.59932e-05 0.00374118 2.98229e-05
0.000270394 2.98229e-05 0.0037426
0.00178664 -7.29327e-05 0.000103099
-7.29327e-05 0.000776261 -1.58111e-05
0.000103099 -1.58111e-05 0.000740155
0.00213518 -8.08828e-05 0.000235761
-8.08828e-05 0.000969535 -2.30894e-05
0.000235761 -2.30894e-05 0.00095295
0.00214437 -0.000124805 0.000237186
-0.000124805 0.000989627 -3.48296e-05
0.000237186 -3.48296e-05 0.000967569
0.00204054 -0.00014275 0.000249917
-0.00014275 0.000936674 -4.09063e-05
0.000249917 -4.09063e-05 0.000911653
0.00178182 -0.000127969 4.62082e-05
-0.000127969 0.000686294 -1.25824e-05
4.62082e-05 -1.25824e-05 0.000579895
0.00647562 1.57831e-05 -7.15651e-06
1.57831e-05 0.00369438 -1.06896e-06
-7.15651e-06 -1.06896e-06 0.00370035
0.00633253 0.000189081 0.000135805
0.000189081 0.00359593 1.23549e-05
0.000135805 1.23549e-05 0.00357238
0.00624856 -6.18688e-05 6.97458e-05
-6.18688e-05 0.00353951 3.34231e-06
6.97458e-05 3.34231e-06 0.00351862
0.00182952 0.000182569 0.000253136
0.000182569 0.000802533 3.06432e-05
0.000253136 3.06432e-05 0.000796594
0.000506628 0.000245184 2.61904e-05
0.000245184 -7.39756e-05 1.90948e-05
2.61904e-05 1.90948e-05 -0.000200333
0.00176104 -3.41749e-05 0.000234681
-3.41749e-05 0.000734154 3.83887e-06
0.000234681 3.83887e-06 0.000733693
0.0014425 1.93435e-07 5.84638e-05
1.93435e-07 0.000558624 1.73016e-06
5.84638e-05 1.73016e-06 0.000514169
0.0015312 -7.221e-05 -5.24582e-05
-7.221e-05 0.000624989 9.0791e-06
-5.24582e-05 9.0791e-06 0.000574786
0.00178555 -8.14049e-05 7.79438e-05
-8.14049e-05 0.000769053 -4.69051e-06
7.79438e-05 -4.69051e-06 0.000736295
0.00179666 -5.9646e-05 0.000111826
-5.9646e-05 0.000789365 -1.67623e-05
0.000111826 -1.67623e-05 0.00074952
0.00179628 -8.22336e-05 9.18718e-05
-8.22336e-05 0.000774995 -1.23249e-05
9.18718e-05 -1.23249e-05 0.000742222
0.00183383 -0.000164145 -3.89728e-05
-0.000164145 0.000715894 5.39114e-06
-3.89728e-05 5.39114e-06 0.000618575
0.00602579 -0.000137514 0.000301996
-0.000137514 0.00341595 -1.2237e-05
0.000301996 -1.2237e-05 0.00343125
0.00207689 -5.9037e-05 0.000234789
-5.9037e-05 0.00093237 -1.72118e-05
0.000234789 -1.72118e-05 0.000918205
0.0021665 -0.000104078 0.000236169
-0.000104078 0.000994176 -2.91608e-05
0.000236169 -2.91608e-05 0.000975379
0.00173555 -0.000131824 6.68685e-05
-0.000131824 0.000646944 -1.01133e-05
6.68685e-05 -1.01133e-05 0.000553311
0.00177457 -0.000135498 5.57431e-05
-0.000135498 0.00067116 -1.20513e-05
5.57431e-05 -1.20513e-05 0.000572311
0.00196919 -0.000119121 0.000248032
-0.000119121 0.000884912 -3.75097e-05
0.000248032 -3.75097e-05 0.000863576
0.00177225 -0.000122328 3.8344e-05
-0.000122328 0.000698393 -1.33239e-05
3.8344e-05 -1.33239e-05 0.000581203
0.00207806 -0.000301806 1.65025e-05
-0.000301806 0.000668153 -6.90318e-06
1.65025e-05 -6.90318e-06 0.000471227
0.00643691 1.59131e-06 -0.000267888
1.59131e-06 0.00366094 -2.03674e-05
-0.000267888 -2.03674e-05 0.00367173
0.00410256 0.000142415 -0.000138875
0.000142415 0.00220869 -1.51082e-05
-0.000138875 -1.51082e-05 0.00218705
0.00400081 4.9942e-05 -0.000135639
4.9942e-05 0.00215786 -1.21195e-05
-0.000135639 -1.21195e-05 0.00213661
0.00637989 -5.43152e-05 -3.99442e-06
-5.43152e-05 0.00364697 -2.09728e-07
-3.99442e-06 -2.09728e-07 0.0036481
0.000474291 0.00022779 -1.47116e-06
0.00022779 -9.12163e-05 -1.04224e-06
-1.47116e-06 -1.04224e-06 -0.000217256
0.00180751 6.60787e-05 0.000241946
6.60787e-05 0.000765448 2.16171e-05
0.000241946 2.16171e-05 0.000752196
0.00194356 0.000154264 0.00024798
0.000154264 0.00088198 3.3552e-05
0.00024798 3.3552e-05 0.000857868
0.00279226 0.000203549 0.000149167
0.000203549 0.00129457 2.09211e-05
0.000149167 2.09211e-05 0.00121541
0.00561195 -0.000323427 6.6956e-07
-0.000323427 0.00324187 6.03001e-06
6.6956e-07 6.03001e-06 0.00317934
0.00291546 0.000276479 0.000152757
0.000276479 0.0014109 2.58157e-05
0.000152757 2.58157e-05 0.00131776
0.000459124 0.000209755 2.70267e-05
0.000209755 -9.89523e-05 2.47722e-05
2.70267e-05 2.47722e-05 -0.00022272
0.000884091 0.000235051 1.24362e-05
0.000235051 3.12186e-05 6.4088e-06
1.24362e-05 6.4088e-06 -0.000173716
0.00436199 -0.000105747 0.000164682
-0.000105747 0.00243183 1.30945e-05
0.000164682 1.30945e-05 0.0024321
0.00600684 7.99273e-05 3.41008e-06
7.99273e-05 0.00339179 -1.7591e-06
3.41008e-06 -1.7591e-06 0.00341394
0.00390165 8.61289e-05 -0.000115902
8.61289e-05 0.00208119 -5.00279e-06
-0.000115902 -5.00279e-06 0.00206934
0.00586679 5.82693e-05 0.000293665
5.82693e-05 0.0033078 4.08177e-06
0.000293665 4.08177e-06 0.00333046
0.00140081 8.6463e-05 6.10948e-05
8.6463e-05 0.000534456 4.07132e-06
6.10948e-05 4.07132e-06 0.000494893
0.000546173 1.10451e-05 1.54913e-05
1.10451e-05 -0.000120942 1.99663e-06
1.54913e-05 1.99663e-06 -0.000204117
0.00613651 0.000225658 0.000166607
0.000225658 0.00349958 1.58189e-05
0.000166607 1.58189e-05 0.00347459
0.0028064 7.37367e-05 0.000140702
7.37367e-05 0.00127326 9.04048e-06
0.000140702 9.04048e-06 0.0012158
0.00138926 -8.35476e-05 -7.24804e-05
-8.35476e-05 0.000540468 9.02848e-06
-7.24804e-05 9.02848e-06 0.000490792
0.00143468 -0.000102859 -6.51246e-05
-0.000102859 0.000570977 1.08728e-05
-6.51246e-05 1.08728e-05 0.000518539
0.00160772 -2.83875e-05 -4.06154e-05
-2.83875e-05 0.000672509 8.08041e-06
-4.06154e-05 8.08041e-06 0.000621481
0.00186712 -0.000167306 -0.000130689
-0.000167306 0.000729326 2.32687e-05
-0.000130689 2.32687e-05 0.000642461
0.00377141 -1.43611e-05 -0.000118339
-1.43611e-05 0.00201007 -1.82169e-06
-0.000118339 -1.82169e-06 0.00199749
0.00175733 -6.3419e-05 8.3374e-05
-6.3419e-05 0.000747386 -3.83249e-06
8.3374e-05 -3.83249e-06 0.000718302
0.00174825 -3.67843e-05 0.000115693
-3.67843e-05 0.000762494 -1.51284e-05
0.000115693 -1.51284e-05 0.000721676
0.0017972 -8.28973e-05 8.34075e-05
-8.28973e-05 0.000773923 -8.09526e-06
8.34075e-05 -8.09526e-06 0.000741872
0.00180769 -0.00011027 -3.12353e-05
-0.00011027 0.000681558 2.03887e-06
-3.12353e-05 2.03887e-06 0.000598661
0.00182094 -0.00016487 -4.50553e-05
-0.00016487 0.000719951 6.06177e-06
-4.50553e-05 6.06177e-06 0.000615601
0.00182988 -0.000153278 -3.35404e-05
-0.000153278 0.000704862 3.81739e-06
-3.35404e-05 3.81739e-06 0.000613355
0.00205506 -0.00030089 -9.2177e-06
-0.00030089 0.000649457 2.47113e-06
-9.2177e-06 2.47113e-06 0.000452889
0.00585135 1.20937e-05 0.000289314
1.20937e-05 0.00329649 -1.71479e-06
0.000289314 -1.71479e-06 0.00332035
0.00202256 -3.5675e-05 0.000231654
-3.5675e-05 0.00090174 -1.1842e-05
0.000231654 -1.1842e-05 0.000890904
0.0024494 -4.13584e-06 4.94018e-05
-4.13584e-06 0.00107696 -9.07344e-07
4.94018e-05 -9.07344e-07 0.00101008
0.00171158 -0.000107445 5.97112e-05
-0.000107445 0.000625282 -6.7658e-06
5.97112e-05 -6.7658e-06 0.000539015
0.00175468 -0.000135491 6.29624e-05
-0.000135491 0.000657101 -1.14557e-05
6.29624e-05 -1.14557e-05 0.000561351
0.00189057 -0.000193264 1.12008e-05
-0.000193264 0.000482006 -2.72388e-06
1.12008e-05 -2.72388e-06 0.000324239
0.00186142 -0.000261589 1.6449e-05
-0.000261589 0.000495308 -5.27378e-06
1.6449e-05 -5.27378e-06 0.000314081
0.00178486 -7.66923e-05 0.000226022
-7.66923e-05 0.000770878 -2.94702e-05
0.000226022 -2.94702e-05 0.000754185
0.00167841 -8.72054e-05 2.90885e-05
-8.72054e-05 0.000659297 -1.29462e-05
2.90885e-05 -1.29462e-05 0.000540636
0.00208826 -0.000325579 1.66414e-05
-0.000325579 0.000717651 -7.98492e-06
1.66414e-05 -7.98492e-06 0.000507402
0.0015876 -0.000379563 6.11757e-06
-0.000379563 0.000158927 -5.90698e-07
6.11757e-06 -5.90698e-07 -8.43765e-05
0.0066712 0.000246149 -0.000323892
0.000246149 0.00380685 -3.46531e-05
-0.000323892 -3.46531e-05 0.00381157
0.00628821 -8.00784e-05 -0.000239892
-8.00784e-05 0.00359148 -1.62587e-05
-0.000239892 -1.62587e-05 0.00359404
0.00648898 7.87756e-05 -0.000284045
7.87756e-05 0.00368474 -2.47852e-05
-0.000284045 -2.47852e-05 0.00369849
0.000437598 0.00021962 -2.48596e-05
0.00021962 -0.000108369 -1.94284e-05
-2.48596e-05 -1.94284e-05 -0.000236659
0.0066029 0.000228265 -2.4655e-06
0.000228265 0.00376073 -2.30633e-06
-2.4655e-06 -2.30633e-06 0.00376915
0.00667583 0.000191757 -8.99595e-06
0.000191757 0.0038036 -2.66384e-06
-8.99595e-06 -2.66384e-06 0.00381117
0.000388125 0.000129707 2.26714e-07
0.000129707 -0.000200546 -3.07228e-07
2.26714e-07 -3.07228e-07 -0.000309521
0.00349924 -0.000109469 -0.000110734
-0.000109469 0.00189394 -3.65423e-06
-0.000110734 -3.65423e-06 0.00185911
0.000392581 0.000205287 2.17814e-07
0.000205287 -0.000151422 -4.65654e-07
2.17814e-07 -4.65654e-07 -0.000276511
0.00173306 0.000215184 5.37336e-05
0.000215184 0.00069483 2.95144e-06
5.37336e-05 2.95144e-06 0.000591601
0.000838508 0.000229466 3.44131e-07
0.000229466 6.18333e-06 -1.09366e-08
3.44131e-07 -1.09366e-08 -0.000196795
0.00533334 -0.000127291 0.000198622
-0.000127291 0.00304271 1.9334e-05
0.000198622 1.9334e-05 0.00303314
0.000534039 3.84611e-05 1.26122e-05
3.84611e-05 8.48832e-06 1.28399e-05
1.26122e-05 1.28399e-05 -5.91624e-05
0.000481103 9.91646e-05 1.54731e-05
9.91646e-05 -0.000162494 9.86398e-06
1.54731e-05 9.86398e-06 -0.000265447
0.00051765 0.000158042 2.02224e-05
0.000158042 -0.000106471 1.7393e-05
2.02224e-05 1.7393e-05 -0.000222497
0.00111298 0.000224078 1.49224e-05
0.000224078 5.78902e-06 5.44621e-06
1.49224e-05 5.44621e-06 -0.000182009
0.00293873 0.000181032 0.000134659
0.000181032 0.0014597 1.8142e-05
0.000134659 1.8142e-05 0.00138428
0.000942472 0.000243752 1.41041e-05
0.000243752 1.54314e-06 6.74415e-06
1.41041e-05 6.74415e-06 -0.000200609
0.000854345 0.000236138 1.18406e-05
0.000236138 8.99299e-05 5.9321e-06
1.18406e-05 5.9321e-06 -0.000120311
0.00113553 0.00035807 2.06638e-06
0.00035807 9.41594e-05 -8.9405e-07
2.06638e-06 -8.9405e-07 -0.000177433
0.00338737 -0.000121218 0.000101308
-0.000121218 0.00181627 5.60401e-06
0.000101308 5.60401e-06 0.00181563
0.00395674 -0.000157799 1.98721e-05
-0.000157799 0.00218796 -3.79651e-07
1.98721e-05 -3.79651e-07 0.0021761
0.00641809 5.53732e-05 -0.000309019
5.53732e-05 0.00363281 -1.49989e-05
-0.000309019 -1.49989e-05 0.00365361
0.00610731 7.09401e-05 -0.000303991
7.09401e-05 0.00344997 -9.21451e-06
-0.000303991 -9.21451e-06 0.00347332
0.00595517 8.38476e-05 -1.59274e-08
8.38476e-05 0.00336778 -3.63358e-06
-1.59274e-08 -3.63358e-06 0.00338704
0.00378919 2.95266e-05 -0.000127551
2.95266e-05 0.00201079 -6.42454e-06
-0.000127551 -6.42454e-06 0.00200395
0.00161242 3.78568e-05 6.05394e-05
3.78568e-05 0.000541495 1.59205e-06
6.05394e-05 1.59205e-06 0.000474572
0.00405822 0.000143053 -0.000118451
0.000143053 0.00218314 -6.81624e-06
-0.000118451 -6.81624e-06 0.00216387
0.00167001 9.08029e-05 6.16909e-05
9.08029e-05 0.000572284 2.94633e-06
6.16909e-05 2.94633e-06 0.000495495
0.00591502 0.000125178 0.000296562
0.000125178 0.00335209 7.1689e-06
0.000296562 7.1689e-06 0.00336613
0.000454725 1.06214e-05 1.86704e-05
1.06214e-05 -0.000172382 9.9637e-07
1.86704e-05 9.9637e-07 -0.000252657
0.00279576 3.76182e-05 0.000138891
3.76182e-05 0.00126874 6.11934e-06
0.000138891 6.11934e-06 0.00121672
0.00110614 5.88401e-05 1.21671e-05
5.88401e-05 -2.56225e-05 9.91859e-07
1.21671e-05 9.91859e-07 -0.000157511
0.0027366 0.000117546 0.000145426
0.000117546 0.00123509 1.17854e-05
0.000145426 1.17854e-05 0.00117144
0.00117226 0.000133122 1.2198e-05
0.000133122 1.51489e-06 2.19832e-06
1.2198e-05 2.19832e-06 -0.00015028
0.00178989 4.27688e-05 -0.000234073
4.27688e-05 0.000750956 2.72542e-06
-0.000234073 2.72542e-06 0.000752
0.00139983 -1.40489e-05 -5.92194e-05
-1.40489e-05 0.000538484 2.56502e-06
-5.92194e-05 2.56502e-06 0.000494126
0.00160033 8.33173e-06 -3.23729e-05
8.33173e-06 0.00067296 7.82822e-06
-3.23729e-05 7.82822e-06 0.000620297
0.00138997 -9.81763e-05 -7.34803e-05
-9.81763e-05 0.000543245 1.09065e-05
-7.34803e-05 1.09065e-05 0.000492169
0.00193028 -8.95289e-05 -0.000125307
-8.95289e-05 0.000747615 1.1477e-05
-0.000125307 1.1477e-05 0.000675517
0.00191398 -0.0001411 -0.000127648
-0.0001411 0.000747108 1.9564e-05
-0.000127648 1.9564e-05 0.000666977
0.00182662 -0.000180944 -0.000133843
-0.000180944 0.000715687 2.50396e-05
-0.000133843 2.50396e-05 0.000622371
0.00202212 -0.00029887 -3.1971e-05
-0.00029887 0.000624945 1.07571e-05
-3.1971e-05 1.07571e-05 0.000429138
0.00595135 -0.00010205 2.30038e-06
-0.00010205 0.00336948 -1.81873e-06
2.30038e-06 -1.81873e-06 0.00338618
0.00167336 3.25696e-05 9.07673e-05
3.25696e-05 0.000689517 -4.30845e-06
9.07673e-05 -4.30845e-06 0.000668009
0.00115261 -9.03632e-06 -6.37382e-05
-9.03632e-06 0.000262354 1.79042e-06
-6.37382e-05 1.79042e-06 0.000194024
0.00178366 -7.16421e-05 -3.45279e-05
-7.16421e-05 0.000662962 2.65044e-06
-3.45279e-05 2.65044e-06 0.000585564
0.00414811 -1.88247e-05 0.000231925
-1.88247e-05 0.00225891 -1.34449e-05
0.000231925 -1.34449e-05 0.00225009
0.00235309 -0.00016716 -4.03391e-05
-0.00016716 0.00106354 3.06258e-06
-4.03391e-05 3.06258e-06 0.000957255
0.001824 -0.000133497 -3.09012e-05
-0.000133497 0.000695191 2.66563e-06
-3.09012e-05 2.66563e-06 0.000608407
0.00192733 -0.000192267 -9.86312e-06
-0.000192267 0.000500633 1.82298e-06
-9.86312e-06 1.82298e-06 0.00034523
0.00204143 -0.000325749 -7.96994e-06
-0.000325749 0.000683393 2.35484e-06
-7.96994e-06 2.35484e-06 0.000472487
0.00195307 -0.000265587 -7.53404e-06
-0.000265587 0.000553259 1.99134e-06
-7.53404e-06 1.99134e-06 0.000371151
0.00162431 -0.000381565 6.36126e-07
-0.000381565 0.000182823 -1.97985e-07
6.36126e-07 -1.97985e-07 -6.00177e-05
0.000492605 1.04333e-05 1.94153e-05
1.04333e-05 -0.000152677 -7.31219e-07
1.94153e-05 -7.31219e-07 -0.000229688
0.00163323 9.26195e-08 5.0461e-05
9.26195e-08 0.000567532 -2.64171e-06
5.0461e-05 -2.64171e-06 0.000492568
0.00177613 -6.12058e-05 1.11354e-05
-6.12058e-05 0.000397866 -5.20468e-07
1.11354e-05 -5.20468e-07 0.000278255
0.00179146 -0.000151358 1.11277e-05
-0.000151358 0.000409207 -1.71325e-06
1.11277e-05 -1.71325e-06 0.000266018
0.00183927 -0.000226391 1.40577e-05
-0.000226391 0.000454802 -3.59143e-06
1.40577e-05 -3.59143e-06 0.000287778
0.00185632 -0.000267162 2.61341e-07
-0.000267162 0.000206423 5.4074e-08
2.61341e-07 5.4074e-08 3.59884e-05
0.00585735 0.000130201 0.000196868
0.000130201 0.00335096 -1.48314e-05
0.000196868 -1.48314e-05 0.00334074
0.00160148 -0.000349447 4.78212e-06
-0.000349447 0.000120867 -4.32686e-07
4.78212e-06 -4.32686e-07 -9.85247e-05
0.000294832 -0.000167837 2.07008e-05
-0.000167837 -0.000205759 -1.9389e-05
2.07008e-05 -1.9389e-05 -0.000314351
0.000892523 -0.000246128 1.32685e-05
-0.000246128 3.21559e-05 -8.419e-06
1.32685e-05 -8.419e-06 -0.000178544
0.00164536 -0.000420809 7.52251e-06
-0.000420809 0.000256005 -1.32952e-06
7.52251e-06 -1.32952e-06 -1.71905e-05
0.00184 -0.000453775 3.09409e-06
-0.000453775 0.000203227 1.94481e-06
3.09409e-06 1.94481e-06 -3.47544e-05
0.000485363 -0.000129773 2.15998e-05
-0.000129773 -5.09024e-05 -1.58149e-05
2.15998e-05 -1.58149e-05 -0.000142839
0.000403489 -0.000103509 -3.89685e-07
-0.000103509 -3.48701e-05 -1.08179e-06
-3.89685e-07 -1.08179e-06 -0.000266513
0.00666435 0.000250859 -0.000334249
0.000250859 0.00380447 -3.3405e-05
-0.000334249 -3.3405e-05 0.00380971
0.00661061 0.00017679 -0.000306458
0.00017679 0.00376137 -3.08678e-05
-0.000306458 -3.08678e-05 0.00377249
0.000392458 0.00012713 -1.8501e-05
0.00012713 -0.000199675 -1.21906e-05
-1.8501e-05 -1.21906e-05 -0.000308914
0.00560375 -0.000151735 -0.000186379
-0.000151735 0.00320205 -1.31837e-05
-0.000186379 -1.31837e-05 0.00319066
0.000407687 0.000189796 -2.38232e-05
0.000189796 -0.000131424 -1.86489e-05
-2.38232e-05 -1.86489e-05 -0.000240937
0.000388366 0.000192136 -2.09272e-05
0.000192136 -0.000152242 -1.78608e-05
-2.09272e-05 -1.78608e-05 -0.000278571
0.000837737 0.000226429 -1.3518e-05
0.000226429 8.76456e-06 -7.12943e-06
-1.3518e-05 -7.12943e-06 -0.000192571
0.00498198 -0.000134053 5.68711e-06
-0.000134053 0.00282161 7.93624e-08
5.68711e-06 7.93624e-08 0.00281389
0.000510845 2.59133e-05 1.36548e-06
2.59133e-05 -1.29537e-06 4.94104e-07
1.36548e-06 4.94104e-07 -6.5232e-05
0.00167736 0.00013923 6.36459e-05
0.00013923 0.000583957 5.32125e-06
6.36459e-05 5.32125e-06 0.000495243
0.00165012 0.000199289 6.35021e-05
0.000199289 0.000602651 5.8113e-06
6.35021e-05 5.8113e-06 0.000499763
0.00107359 0.000222229 3.2261e-08
0.000222229 -1.21511e-05 -2.96533e-07
3.2261e-08 -2.96533e-07 -0.000200559
0.000463623 0.000160727 1.48217e-08
0.000160727 -7.86991e-05 -3.81159e-07
1.48217e-08 -3.81159e-07 -0.000175301
0.000938551 0.000240171 7.49752e-07
0.000240171 7.04639e-06 5.18989e-08
7.49752e-07 5.18989e-08 -0.000194004
0.000799572 0.000222382 1.43707e-07
0.000222382 4.94579e-05 -6.39356e-07
1.43707e-07 -6.39356e-07 -0.000155887
0.00128084 0.000378968 2.45699e-08
0.000378968 0.000174962 -2.81981e-07
2.45699e-08 -2.81981e-07 -0.000100317
0.000428961 0.000109819 1.79642e-05
0.000109819 -6.76102e-05 1.54047e-05
1.79642e-05 1.54047e-05 -0.000156258
0.000624673 -9.26714e-06 6.28168e-06
-9.26714e-06 6.99784e-05 1.0747e-05
6.28168e-06 1.0747e-05 2.15564e-05
0.00126671 0.000155842 4.57032e-06
0.000155842 0.000495297 6.28295e-06
4.57032e-06 6.28295e-06 0.000298602
0.0011593 0.000198935 1.3979e-05
0.000198935 6.47746e-06 4.16795e-06
1.3979e-05 4.16795e-06 -0.000170234
0.00104845 0.000241872 1.50184e-05
0.000241872 8.65077e-06 6.39854e-06
1.50184e-05 6.39854e-06 -0.000188306
0.00177622 0.000375665 4.1563e-06
0.000375665 0.00020391 1.82886e-07
4.1563e-06 1.82886e-07 -2.06067e-05
0.000722761 0.000215851 9.30078e-06
0.000215851 6.59622e-05 5.75813e-06
9.30078e-06 5.75813e-06 -0.000140718
0.00161316 0.000421898 3.78031e-06
0.000421898 0.000272062 -3.1746e-07
3.78031e-06 -3.1746e-07 4.52499e-06
0.00101854 0.000331829 2.2362e-06
0.000331829 9.04648e-05 -2.85752e-07
2.2362e-06 -2.85752e-07 -0.000185341
0.00149858 0.000471326 -5.60277e-06
0.000471326 0.000217407 -3.45606e-06
-5.60277e-06 -3.45606e-06 -8.28238e-05
0.00298274 -0.000129262 6.06773e-05
-0.000129262 0.00155856 3.55034e-06
6.06773e-05 3.55034e-06 0.00155592
0.00330429 -0.000153978 1.29178e-05
-0.000153978 0.00177028 -8.50161e-07
1.29178e-05 -8.50161e-07 0.00176069
0.00369352 -0.000186872 -7.57212e-05
-0.000186872 0.00202836 -4.88401e-06
-7.57212e-05 -4.88401e-06 0.00200866
0.000452685 -0.00010358 1.86905e-05
-0.00010358 -5.32667e-05 -1.4433e-05
1.86905e-05 -1.4433e-05 -0.000130079
0.00524163 0.000173187 0.000157124
0.000173187 0.00299946 -1.5828e-05
0.000157124 -1.5828e-05 0.00297683
0.00659104 0.00021322 -0.000333557
0.00021322 0.00375423 -2.78828e-05
-0.000333557 -2.78828e-05 0.00376513
0.00620768 9.09423e-05 -0.000305772
9.09423e-05 0.00350865 -1.29344e-05
-0.000305772 -1.29344e-05 0.00353052
0.000461959 9.73453e-05 -1.95684e-05
9.73453e-05 -0.000175568 -5.71001e-06
-1.95684e-05 -5.71001e-06 -0.00026798
0.000454184 4.33436e-05 -1.9247e-05
4.33436e-05 -0.000173599 -2.84722e-06
-1.9247e-05 -2.84722e-06 -0.000257594
0.00590056 -7.29679e-06 -0.000290747
-7.29679e-06 0.00332486 -2.42945e-06
-0.000290747 -2.42945e-06 0.00334903
0.00585038 8.02484e-06 -1.7235e-07
8.02484e-06 0.00329514 -9.2623e-07
-1.7235e-07 -9.2623e-07 0.00331934
0.000436039 8.53099e-07 -1.12098e-07
8.53099e-07 -0.000186702 1.1892e-07
-1.12098e-07 1.1892e-07 -0.00026515
0.00160698 3.89812e-05 6.13552e-05
3.89812e-05 0.000532413 2.62902e-06
6.13552e-05 2.62902e-06 0.000463332
0.00106768 6.22056e-05 -9.57549e-08
6.22056e-05 -5.15798e-05 -9.088e-08
-9.57549e-08 -9.088e-08 -0.000184259
0.000425367 8.29993e-05 -4.44798e-07
8.29993e-05 -0.000196994 -3.79543e-07
-4.44798e-07 -3.79543e-07 -0.000295413
0.00110194 0.000133627 -2.32143e-07
0.000133627 -4.2106e-05 -1.50808e-07
-2.32143e-07 -1.50808e-07 -0.000195029
0.000429547 -3.1201e-05 1.92465e-05
-3.1201e-05 -0.000192297 -7.15871e-07
1.92465e-05 -7.15871e-07 -0.00026825
0.00106149 2.52071e-05 1.18662e-05
2.52071e-05 -4.4095e-05 5.51189e-07
1.18662e-05 5.51189e-07 -0.000171342
0.00112145 9.57525e-05 1.19791e-05
9.57525e-05 -2.43496e-05 1.60541e-06
1.19791e-05 1.60541e-06 -0.00016494
0.00178367 0.000101333 -6.14265e-07
0.000101333 9.00462e-05 -3.83985e-07
-6.14265e-07 -3.83985e-07 -2.20433e-05
0.00117687 0.000167074 1.28708e-05
0.000167074 5.54492e-06 3.03868e-06
1.28708e-05 3.03868e-06 -0.000158546
0.0018243 0.000221209 6.25298e-07
0.000221209 0.000117804 -5.87465e-07
6.25298e-07 -5.87465e-07 -2.69099e-05
0.0058686 -6.31311e-05 -0.000295582
-6.31311e-05 0.00331249 2.58579e-06
-0.000295582 2.58579e-06 0.00333321
0.00134204 -0.00015364 -6.04961e-05
-0.00015364 0.000516606 7.11279e-06
-6.04961e-05 7.11279e-06 0.000468552
-0.000263303 -5.4591e-06 -1.21597e-05
-5.4591e-06 -0.000611911 1.79548e-06
-1.21597e-05 1.79548e-06 -0.000704817
0.00189514 -6.37532e-05 -0.000124057
-6.37532e-05 0.000725492 8.15422e-06
-0.000124057 8.15422e-06 0.000656991
0.00621919 0.000288253 -1.93931e-05
0.000288253 0.0035855 4.33753e-06
-1.93931e-05 4.33753e-06 0.00353052
0.00299587 -0.000253589 -0.000137269
-0.000253589 0.00145749 2.60404e-05
-0.000137269 2.60404e-05 0.00135649
0.00193512 -0.000115002 -0.000126266
-0.000115002 0.000753081 1.5397e-05
-0.000126266 1.5397e-05 0.000677746
0.00193912 -0.000189863 -2.98626e-05
-0.000189863 0.000503618 5.39855e-06
-2.98626e-05 5.39855e-06 0.000350852
0.00201966 -0.000267766 -3.09666e-05
-0.000267766 0.000595047 9.21038e-06
-3.09666e-05 9.21038e-06 0.000412526
0.00201358 -0.000326846 -2.97801e-05
-0.000326846 0.000661853 1.15786e-05
-2.97801e-05 1.15786e-05 0.000450164
0.00166235 -0.000383657 -4.55954e-06
-0.000383657 0.000207725 2.77308e-07
-4.55954e-06 2.77308e-07 -3.4676e-05
0.000433082 5.11461e-06 -3.46772e-08
5.11461e-06 -0.000187428 2.72117e-07
-3.46772e-08 2.72117e-07 -0.000265438
0.00176614 -8.31559e-05 -3.34531e-05
-8.31559e-05 0.000655116 4.20468e-07
-3.34531e-05 4.20468e-07 0.000581891
0.0014099 -5.66682e-05 -9.95598e-06
-5.66682e-05 0.000171392 5.96374e-07
-9.95598e-06 5.96374e-07 4.73583e-05
0.0018805 -0.000151935 -8.33238e-06
-0.000151935 0.000464182 1.31122e-06
-8.33238e-06 1.31122e-06 0.000320241
0.00611139 0.000128899 5.52384e-06
0.000128899 0.00351185 8.17285e-07
5.52384e-06 8.17285e-07 0.00349949
0.00167189 -0.000166583 3.22009e-06
-0.000166583 0.000661822 5.57131e-07
3.22009e-06 5.57131e-07 0.00054322
0.00135685 -0.000279988 1.31008e-06
-0.000279988 0.000322269 -1.086e-06
1.31008e-06 -1.086e-06 0.000108463
0.00188044 -0.00022881 -8.37032e-06
-0.00022881 0.000479956 2.06751e-06
-8.37032e-06 2.06751e-06 0.000312388
0.00184848 -0.000269758 -9.2078e-07
-0.000269758 0.000197109 6.5121e-08
-9.2078e-07 6.5121e-08 3.1194e-05
0.00164131 -0.00041938 1.13167e-06
-0.00041938 0.000257506 -3.10938e-07
1.13167e-06 -3.10938e-07 -1.42068e-05
0.00173737 -0.000355191 5.66737e-07
-0.000355191 0.000207646 -1.42628e-07
5.66737e-07 -1.42628e-07 -1.17736e-05
0.00187901 -0.000455077 7.25589e-07
-0.000455077 0.000231518 6.19937e-08
7.25589e-07 6.19937e-08 -6.1611e-06
0.000484869 -0.00013439 1.70901e-06
-0.00013439 -5.20737e-05 5.77831e-07
1.70901e-06 5.77831e-07 -0.000146799
0.000720941 -0.000138551 3.68245e-07
-0.000138551 0.000140344 6.04993e-08
3.68245e-07 6.04993e-08 -7.72241e-05
0.00105662 -2.80571e-05 1.199e-05
-2.80571e-05 -4.01846e-05 -5.73736e-07
1.199e-05 -5.73736e-07 -0.000167898
0.00184341 -0.000102556 1.00991e-05
-0.000102556 0.000441205 -9.98512e-07
1.00991e-05 -9.98512e-07 0.000312273
0.00178475 -0.000102091 -6.12236e-07
-0.000102091 0.0001184 3.51679e-07
-6.12236e-07 3.51679e-07 -2.98252e-07
0.00179416 -0.000216834 -2.22271e-07
-0.000216834 0.000143012 9.57473e-07
-2.22271e-07 9.57473e-07 1.74751e-06
0.00177407 -0.000319311 1.25267e-06
-0.000319311 0.000186438 4.49816e-07
1.25267e-06 4.49816e-07 -4.68871e-06
0.00202296 -0.000314159 1.49797e-06
-0.000314159 0.000186001 1.16966e-07
1.49797e-06 1.16966e-07 4.66057e-05
0.000406627 -0.000152534 2.01313e-05
-0.000152534 -0.000113382 -1.86544e-05
2.01313e-05 -1.86544e-05 -0.000218445
0.00190391 -0.000417547 1.36922e-06
-0.000417547 0.000196464 1.67445e-06
1.36922e-06 1.67445e-06 -4.84398e-06
0.000597601 -0.000219339 9.35591e-06
-0.000219339 -7.2267e-05 -7.64991e-06
9.35591e-06 -7.64991e-06 -0.000280587
0.00132862 -0.000419162 1.03012e-05
-0.000419162 0.000156476 -2.1376e-06
1.03012e-05 -2.1376e-06 -0.000139311
0.00203127 -0.000513308 3.25565e-06
-0.000513308 0.000385483 1.19043e-06
3.25565e-06 1.19043e-06 9.97562e-05
0.0021806 -0.000493307 -1.36638e-06
-0.000493307 0.000367904 4.22037e-06
-1.36638e-06 4.22037e-06 0.000156967
0.000673836 -0.000202936 2.25932e-06
-0.000202936 9.03804e-05 -3.78496e-06
2.25932e-06 -3.78496e-06 -0.000149417
0.000579683 -0.000104099 3.27241e-07
-0.000104099 5.75008e-05 -3.74108e-06
3.27241e-07 -3.74108e-06 -0.000115413
0.000979067 -0.000258686 -1.66083e-06
-0.000258686 0.000303774 1.27106e-06
-1.66083e-06 1.27106e-06 1.67353e-05
0.000419498 0.000105806 -1.79346e-05
0.000105806 -0.000195719 -9.33527e-06
-1.79346e-05 -9.33527e-06 -0.000299831
0.00456036 -0.000202574 -0.000118486
-0.000202574 0.00258414 -1.04732e-05
-0.000118486 -1.04732e-05 0.00255806
0.000400271 1.33187e-05 -7.56064e-06
1.33187e-05 -6.49068e-05 -1.22045e-05
-7.56064e-06 -1.22045e-05 -0.000125542
0.000378201 0.000158746 -1.98124e-05
0.000158746 -0.000185371 -1.52738e-05
-1.98124e-05 -1.52738e-05 -0.000302684
0.00103504 0.000220637 -1.5505e-05
0.000220637 -2.96824e-05 -6.03163e-06
-1.5505e-05 -6.03163e-06 -0.000218709
0.000532806 0.000150248 -2.2922e-05
0.000150248 -3.71819e-05 -1.72443e-05
-2.2922e-05 -1.72443e-05 -0.000131675
0.000632913 0.000210197 -1.03076e-05
0.000210197 -5.54742e-05 -6.84085e-06
-1.03076e-05 -6.84085e-06 -0.000257489
0.00093203 0.000236589 -1.41772e-05
0.000236589 1.0759e-05 -7.14363e-06
-1.41772e-05 -7.14363e-06 -0.000189237
0.00137273 0.000395282 -3.90594e-06
0.000395282 0.000221033 1.92006e-09
-3.90594e-06 1.92006e-09 -5.71399e-05
0.000535298 9.95589e-05 7.97605e-07
9.95589e-05 -6.50062e-06 1.17181e-06
7.97605e-07 1.17181e-06 -8.94552e-05
0.000420764 -2.93259e-05 1.93544e-07
-2.93259e-05 -4.70044e-05 4.71615e-07
1.93544e-07 4.71615e-07 -9.7966e-05
0.000629309 9.60268e-05 2.00761e-06
9.60268e-05 8.79678e-05 -4.3418e-07
2.00761e-06 -4.3418e-07 -9.19152e-05
0.00111278 0.000198094 -1.6309e-07
0.000198094 -1.76252e-05 -3.21451e-07
-1.6309e-07 -3.21451e-07 -0.000195322
0.00101494 0.000238043 2.72539e-07
0.000238043 -3.9479e-06 -1.92351e-07
2.72539e-07 -1.92351e-07 -0.00020057
0.00175203 0.000374194 -1.02587e-07
0.000374194 0.000187463 -1.09635e-07
-1.02587e-07 -1.09635e-07 -3.73422e-05
0.000740201 0.000220936 -3.7944e-07
0.000220936 7.76242e-05 -2.05052e-07
-3.7944e-07 -2.05052e-07 -0.000129542
0.00160716 0.000419697 -1.70931e-07
0.000419697 0.000262786 -2.82013e-07
-1.70931e-07 -2.82013e-07 -5.28775e-06
0.00112334 0.00034088 1.04358e-06
0.00034088 0.000159198 -9.38141e-07
1.04358e-06 -9.38141e-07 -0.00011729
0.00146334 0.000480321 -3.70856e-07
0.000480321 0.00017971 1.29601e-06
-3.70856e-07 1.29601e-06 -0.000121555
0.000546443 -3.50792e-05 1.10272e-06
-3.50792e-05 2.52546e-05 8.56652e-06
1.10272e-06 8.56652e-06 -1.48064e-05
0.00101628 0.000168124 5.16936e-06
0.000168124 0.000306068 4.98367e-06
5.16936e-06 4.98367e-06 9.60061e-05
0.000874714 6.35291e-05 1.87269e-06
6.35291e-05 0.000225993 5.92957e-06
1.87269e-06 5.92957e-06 9.54037e-05
0.000965661 0.000145386 1.93096e-06
0.000145386 0.000335423 3.26675e-07
1.93096e-06 3.26675e-07 7.28305e-05
0.00183519 0.000335016 1.97777e-06
0.000335016 0.00018251 -1.08038e-06
1.97777e-06 -1.08038e-06 -1.43709e-05
0.00168411 0.000405522 4.69006e-06
0.000405522 0.000221654 3.757e-07
4.69006e-06 3.757e-07 -2.84578e-05
0.0020092 0.0004468 8.35057e-07
0.0004468 0.00024637 -6.89188e-07
8.35057e-07 -6.89188e-07 2.80785e-05
0.000832397 0.000263758 2.85689e-06
0.000263758 2.84335e-05 2.52052e-06
2.85689e-06 2.52052e-06 -0.000214288
0.00211922 0.000553306 -2.80302e-06
0.000553306 0.000463687 -1.36124e-06
-2.80302e-06 -1.36124e-06 0.000175458
0.00167737 0.000491084 -3.11417e-06
0.000491084 0.000427153 -4.01979e-06
-3.11417e-06 -4.01979e-06 9.05328e-05
0.00173647 0.000526847 -4.03136e-07
0.000526847 0.000251539 -7.912e-07
-4.03136e-07 -7.912e-07 -4.68956e-05
0.000567044 3.68502e-05 2.66584e-06
3.68502e-05 4.19156e-05 3.65003e-06
2.66584e-06 3.65003e-06 -2.54754e-05
0.000486563 -2.76265e-05 1.42626e-06
-2.76265e-05 -3.06509e-05 6.40548e-06
1.42626e-06 6.40548e-06 -5.6997e-05
0.00270978 -0.000120723 3.85085e-05
-0.000120723 0.00138089 3.75483e-06
3.85085e-05 3.75483e-06 0.00138048
0.00288811 -0.00014105 7.36018e-06
-0.00014105 0.00150211 -7.44897e-07
7.36018e-06 -7.44897e-07 0.00149601
0.00315542 -0.000167177 -4.90582e-05
-0.000167177 0.00168031 -3.59512e-06
-4.90582e-05 -3.59512e-06 0.00166647
0.00034858 -7.56394e-05 1.25158e-05
-7.56394e-05 -0.000101106 -1.33724e-05
1.25158e-05 -1.33724e-05 -0.000166212
0.00471598 0.000170703 0.000131039
0.000170703 0.00267185 -1.33077e-05
0.000131039 -1.33077e-05 0.00265174
0.000474454 -0.000100758 -2.84985e-07
-0.000100758 -3.93724e-05 3.35457e-07
-2.84985e-07 3.35457e-07 -0.000122592
0.00548428 0.000143271 4.55037e-08
0.000143271 0.00313708 1.45444e-07
4.55037e-08 1.45444e-07 0.00312177
0.000458189 0.000108824 -1.92557e-05
0.000108824 -0.000174414 -7.49065e-06
-1.92557e-05 -7.49065e-06 -0.000274809
0.000471027 3.47406e-05 -1.82392e-05
3.47406e-05 -0.000170411 -3.67024e-06
-1.82392e-05 -3.67024e-06 -0.000256427
0.00105794 0.000134214 -1.20874e-05
0.000134214 -7.11186e-05 -2.46477e-06
-1.20874e-05 -2.46477e-06 -0.000225005
0.00103444 6.43293e-05 -1.20145e-05
6.43293e-05 -7.41479e-05 -1.08e-06
-1.20145e-05 -1.08e-06 -0.000207427
0.000490067 -7.67539e-06 -1.93461e-05
-7.67539e-06 -0.00015659 -9.83072e-07
-1.93461e-05 -9.83072e-07 -0.000233199
0.00594294 -9.91512e-05 -0.00030234
-9.91512e-05 0.00336346 5.12555e-06
-0.00030234 5.12555e-06 0.00338184
0.000476968 -2.05036e-06 7.7296e-08
-2.05036e-06 -0.00016376 -6.54822e-07
7.7296e-08 -6.54822e-07 -0.000239672
0.00104625 3.05061e-05 -8.38253e-08
3.05061e-05 -5.48934e-05 3.21428e-08
-8.38253e-08 3.21428e-08 -0.000182579
0.001094 9.7445e-05 -2.03518e-07
9.7445e-05 -4.35732e-05 -9.01449e-08
-2.03518e-07 -9.01449e-08 -0.000184958
0.00176429 9.94292e-05 -6.52876e-08
9.94292e-05 8.2031e-05 1.23028e-07
-6.52876e-08 1.23028e-07 -3.00682e-05
0.00112375 0.000168039 -3.39892e-07
0.000168039 -2.60195e-05 -2.33626e-07
-3.39892e-07 -2.33626e-07 -0.000191499
0.00180821 0.000220378 -1.96947e-07
0.000220378 0.000107213 1.26706e-07
-1.96947e-07 1.26706e-07 -3.78323e-05
0.00103812 -3.22164e-06 1.18745e-05
-3.22164e-06 -5.23351e-05 -1.769e-07
1.18745e-05 -1.769e-07 -0.000178831
0.00173647 4.71384e-05 -7.53705e-08
4.71384e-05 6.40206e-05 -7.19161e-08
-7.53705e-08 -7.19161e-08 -4.05754e-05
0.00179037 0.000158568 -6.55167e-07
0.000158568 9.62418e-05 -4.89823e-07
-6.55167e-07 -4.89823e-07 -2.90455e-05
0.00191486 0.000128052 2.55171e-06
0.000128052 4.32165e-05 8.77833e-07
2.55171e-06 8.77833e-07 -2.02544e-05
0.00186297 0.000284401 1.56883e-06
0.000284401 0.000154863 -7.10051e-07
1.56883e-06 -7.10051e-07 -1.48934e-05
0.00204345 0.000258028 2.17158e-06
0.000258028 0.00013495 -7.28738e-07
2.17158e-06 -7.28738e-07 2.4926e-05
0.000461881 -2.16179e-06 -1.84962e-05
-2.16179e-06 -0.000166434 8.7983e-07
-1.84962e-05 8.7983e-07 -0.000246627
0.0018611 -3.9113e-05 -0.000122287
-3.9113e-05 0.000705187 5.43134e-06
-0.000122287 5.43134e-06 0.000641568
0.00100765 -5.11603e-05 -1.7203e-05
-5.11603e-05 -7.6953e-05 1.58261e-06
-1.7203e-05 1.58261e-06 -0.000205772
0.00194903 -0.000151527 -2.75965e-05
-0.000151527 0.00050588 4.11009e-06
-2.75965e-05 4.11009e-06 0.000361332
0.00630709 0.000110027 -0.000228806
0.000110027 0.00362771 2.19166e-05
-0.000228806 2.19166e-05 0.00361714
0.00308618 -0.00023723 -0.000144067
-0.00023723 0.00152982 2.13183e-05
-0.000144067 2.13183e-05 0.00143889
0.00204455 -0.00033455 -2.5216e-05
-0.00033455 0.000746808 1.05634e-05
-2.5216e-05 1.05634e-05 0.000526111
0.00189992 -0.000229581 -3.01645e-05
-0.000229581 0.000491259 7.33624e-06
-3.01645e-05 7.33624e-06 0.000323534
0.00183562 -0.000272218 -2.93175e-06
-0.000272218 0.000183904 -3.56767e-07
-2.93175e-06 -3.56767e-07 2.25148e-05
0.00187588 -0.000361094 -4.18747e-06
-0.000361094 0.000296679 6.9116e-07
-4.18747e-06 6.9116e-07 7.72071e-05
0.00162956 -0.000417428 -6.49556e-06
-0.000417428 0.000253143 5.3044e-07
-6.49556e-06 5.3044e-07 -1.6946e-05
0.00192109 -0.000457067 -1.25287e-06
-0.000457067 0.000260326 -1.95247e-06
-1.25287e-06 -1.95247e-06 2.27901e-05
0.00045649 -0.000142232 -1.92427e-05
-0.000142232 -6.4416e-05 1.73278e-05
-1.92427e-05 1.73278e-05 -0.000165356
0.000785036 -0.000168172 -9.07655e-07
-0.000168172 0.000175806 9.24784e-07
-9.07655e-07 9.24784e-07 -3.97007e-05
0.0010129 -2.29591e-05 1.35293e-07
-2.29591e-05 -6.96697e-05 2.88166e-08
1.35293e-07 2.88166e-08 -0.000195421
0.00184316 -0.000103093 -8.56199e-06
-0.000103093 0.000439264 9.9918e-07
-8.56199e-06 9.9918e-07 0.000310549
0.00183579 -9.90884e-05 -1.86677e-07
-9.90884e-05 0.000148341 -3.65033e-08
-1.86677e-07 -3.65033e-08 3.46837e-05
0.00176324 -0.00021548 -2.23147e-06
-0.00021548 0.000128335 7.10131e-07
-2.23147e-06 7.10131e-07 -1.85761e-05
0.000455323 -0.000173906 4.35655e-08
-0.000173906 -8.6527e-05 6.91969e-08
4.35655e-08 6.91969e-08 -0.000191889
0.000807735 -0.000231617 -3.29923e-07
-0.000231617 5.11504e-05 -1.3397e-08
-3.29923e-07 -1.3397e-08 -0.000159392
0.00132343 -0.000417476 1.70398e-06
-0.000417476 0.000157714 -4.64619e-07
1.70398e-06 -4.64619e-07 -0.0001385
0.0018134 -0.00031959 -3.19695e-06
-0.00031959 0.000212224 8.91772e-07
-3.19695e-06 8.91772e-07 1.84763e-05
0.0020264 -0.000317126 2.03092e-06
-0.000317126 0.000178578 -9.41044e-07
2.03092e-06 -9.41044e-07 4.39624e-05
0.0020789 -0.000521862 -7.22702e-07
-0.000521862 0.000412088 -4.71193e-07
-7.22702e-07 -4.71193e-07 0.000126842
0.00191965 -0.000418801 5.72165e-07
-0.000418801 0.000206786 -9.9969e-09
5.72165e-07 -9.9969e-09 5.29192e-06
0.00205117 -0.000487124 8.64247e-07
-0.000487124 0.000281331 7.67893e-07
8.64247e-07 7.67893e-07 7.03351e-05
0.000669101 -0.000193938 2.30326e-07
-0.000193938 8.86659e-05 -4.00943e-07
2.30326e-07 -4.00943e-07 -0.000147341
0.000351288 -0.000169232 -1.01324e-07
-0.000169232 -0.000106463 -1.92722e-07
-1.01324e-07 -1.92722e-07 -0.000372612
0.000702526 -0.000122357 8.27264e-07
-0.000122357 0.000138294 -2.69404e-08
8.27264e-07 -2.69404e-08 -4.49263e-05
0.00178545 -4.57568e-05 -6.60966e-07
-4.57568e-05 0.0001146 2.02816e-07
-6.60966e-07 2.02816e-07 4.40859e-06
0.00189264 -0.000154811 -2.56743e-06
-0.000154811 0.00019419 1.02525e-06
-2.56743e-06 1.02525e-06 7.0891e-05
0.00189062 -0.000120721 4.29667e-06
-0.000120721 3.6537e-05 -5.22288e-07
4.29667e-06 -5.22288e-07 -3.66235e-05
0.00190311 -0.000254727 3.30351e-08
-0.000254727 7.48022e-05 9.3803e-07
3.30351e-08 9.3803e-07 -3.25384e-05
0.00182356 -0.000373068 -6.6493e-07
-0.000373068 9.7796e-05 2.05482e-06
-6.6493e-07 2.05482e-06 -6.82255e-05
0.00215378 -0.000346496 3.46619e-06
-0.000346496 0.000207486 -9.82382e-07
3.46619e-06 -9.82382e-07 0.000100701
0.000663365 -0.000230732 6.01351e-06
-0.000230732 2.77041e-05 -6.53615e-06
6.01351e-06 -6.53615e-06 -0.000188266
0.00189115 -0.00044657 -6.45898e-07
-0.00044657 0.000128983 1.85074e-06
-6.45898e-07 1.85074e-06 -4.66173e-05
0.00133181 -0.000387787 7.7348e-06
-0.000387787 0.000288397 -4.4596e-06
7.7348e-06 -4.4596e-06 -5.48882e-06
0.00173629 -0.000568111 6.98252e-06
-0.000568111 0.000300823 1.0309e-06
6.98252e-06 1.0309e-06 -4.46836e-05
0.00215701 -0.000553436 3.89671e-06
-0.000553436 0.00040881 4.10367e-06
3.89671e-06 4.10367e-06 0.000136365
0.00224034 -0.000514577 -1.93371e-06
-0.000514577 0.000403332 2.5851e-06
-1.93371e-06 2.5851e-06 0.000203941
0.000597999 -8.58623e-05 -6.95487e-07
-8.58623e-05 8.30137e-05 -6.51553e-06
-6.95487e-07 -6.51553e-06 -6.27587e-05
0.00103052 -0.00027289 1.73446e-06
-0.00027289 0.000214592 -1.1142e-06
1.73446e-06 -1.1142e-06 -2.55931e-05
0.00026289 -0.000157401 1.71027e-07
-0.000157401 -6.39936e-05 1.74363e-06
1.71027e-07 1.74363e-06 -0.000363389
0.0017508 -0.000363876 -2.06722e-06
-0.000363876 0.000683846 9.27619e-07
-2.06722e-06 9.27619e-07 0.000398435
0.00106316 0.000197356 -1.45736e-05
0.000197356 -4.38761e-05 -4.74087e-06
-1.45736e-05 -4.74087e-06 -0.000222573
0.00038028 -5.02334e-05 3.24437e-06
-5.02334e-05 -5.96673e-05 -1.11965e-05
3.24437e-06 -1.11965e-05 -0.000116274
0.000418683 8.02226e-05 -1.74302e-05
8.02226e-05 -7.77346e-05 -1.40421e-05
-1.74302e-05 -1.40421e-05 -0.0001547
5.30724e-05 6.29072e-05 -1.23964e-06
6.29072e-05 -0.000256121 -6.2755e-06
-1.23964e-06 -6.2755e-06 -0.000435183
0.000980901 0.000234496 -1.52966e-05
0.000234496 -1.68128e-05 -6.89328e-06
-1.52966e-05 -6.89328e-06 -0.000213177
0.00173225 0.000372957 -4.1411e-06
0.000372957 0.00017368 -1.81224e-07
-4.1411e-06 -1.81224e-07 -5.14196e-05
0.000621955 0.000207467 -6.0651e-06
0.000207467 4.11423e-06 -4.5922e-06
-6.0651e-06 -4.5922e-06 -0.000199828
0.00142217 0.000368219 -4.74227e-06
0.000368219 0.000350958 -3.58855e-06
-4.74227e-06 -3.58855e-06 7.02223e-05
0.00161681 0.00041886 -3.94765e-06
0.00041886 0.000263803 -7.26465e-08
-3.94765e-06 -7.26465e-08 -5.03931e-06
0.00141722 0.000486003 2.06376e-06
0.000486003 0.000140541 3.94114e-06
2.06376e-06 3.94114e-06 -0.000160757
0.000450989 -4.67077e-05 -3.34384e-06
-4.67077e-05 -2.73538e-05 9.32214e-07
-3.34384e-06 9.32214e-07 -7.03707e-05
0.000658598 0.000184843 -7.11016e-07
0.000184843 9.9777e-05 -6.6638e-07
-7.11016e-07 -6.6638e-07 -0.000118499
0.000633829 3.96237e-05 7.06217e-08
3.96237e-05 8.10591e-05 5.62532e-07
7.06217e-08 5.62532e-07 -4.39875e-05
0.000774259 0.000140564 1.66097e-06
0.000140564 0.000212298 -8.29312e-07
1.66097e-06 -8.29312e-07 -4.74142e-05
0.00180796 0.000333032 -9.24114e-07
0.000333032 0.000165971 -8.64707e-07
-9.24114e-07 -8.64707e-07 -3.10928e-05
0.00166306 0.000405037 -1.47203e-07
0.000405037 0.000207487 -1.73582e-07
-1.47203e-07 -1.73582e-07 -4.33278e-05
0.00197579 0.000443104 3.09189e-07
0.000443104 0.000228735 2.20974e-07
3.09189e-07 2.20974e-07 1.10674e-05
0.00104741 0.000286735 2.12991e-06
0.000286735 0.000174364 7.25009e-07
2.12991e-06 7.25009e-07 -7.17755e-05
0.00200728 0.000534569 -4.71653e-07
0.000534569 0.000403089 1.6893e-07
-4.71653e-07 1.6893e-07 0.000117121
0.00146142 0.000473257 -1.01127e-06
0.000473257 0.000291151 -1.74124e-06
-1.01127e-06 -1.74124e-06 -4.47329e-05
0.00177232 0.000522546 -3.68509e-06
0.000522546 0.000277856 1.58597e-06
-3.68509e-06 1.58597e-06 -1.46777e-05
0.000513053 -3.49301e-05 1.14192e-06
-3.49301e-05 -5.22275e-06 7.22664e-06
1.14192e-06 7.22664e-06 -3.69637e-05
0.000737069 3.61754e-05 1.90071e-06
3.61754e-05 0.000148007 5.33274e-06
1.90071e-06 5.33274e-06 4.98022e-05
0.000628265 0.000218242 2.64771e-06
0.000218242 2.86379e-06 1.87724e-06
2.64771e-06 1.87724e-06 -0.000226746
0.00165211 0.0001452 -8.09642e-07
0.0001452 0.000785251 3.12762e-06
-8.09642e-07 3.12762e-06 0.000548221
0.00140217 0.000324067 -7.67837e-07
0.000324067 0.000538588 -3.97243e-06
-7.67837e-07 -3.97243e-06 0.000272873
0.0020617 0.000399266 1.27761e-07
0.000399266 0.000216987 -2.54444e-06
1.27761e-07 -2.54444e-06 3.5334e-05
0.0019705 0.000498905 1.46956e-07
0.000498905 0.000291946 -7.47644e-07
1.46956e-07 -7.47644e-07 3.56398e-05
0.00201457 0.000485321 -1.20653e-06
0.000485321 0.000228429 -8.45077e-07
-1.20653e-06 -8.45077e-07 1.75014e-05
0.000990451 0.000384434 4.03197e-06
0.000384434 0.000105249 2.45698e-06
4.03197e-06 2.45698e-06 -0.00020566
0.00220165 0.000602179 -1.21464e-06
0.000602179 0.000465898 -6.44896e-07
-1.21464e-06 -6.44896e-07 0.000175503
0.00157422 0.000537803 6.11056e-06
0.000537803 0.00029378 -2.51163e-06
6.11056e-06 -2.51163e-06 -4.74032e-05
0.00059864 3.2773e-05 2.72069e-06
3.2773e-05 6.03841e-05 3.94366e-06
2.72069e-06 3.94366e-06 -1.224e-05
0.000630045 7.8702e-05 1.75207e-08
7.8702e-05 0.000117375 2.15157e-06
1.75207e-08 2.15157e-06 1.50994e-06
0.000588516 4.65443e-05 2.60442e-06
4.65443e-05 6.03818e-05 3.60379e-06
2.60442e-06 3.60379e-06 -4.85848e-06
0.000541426 3.73311e-06 -6.06299e-07
3.73311e-06 2.68813e-05 -4.30007e-09
-6.06299e-07 -4.30007e-09 -4.06902e-05
0.00128111 -4.17971e-05 1.14991e-06
-4.17971e-05 0.000462914 3.65992e-06
1.14991e-06 3.65992e-06 0.000443271
0.00089174 -3.88436e-05 3.88353e-07
-3.88436e-05 0.000223139 -1.5243e-07
3.88353e-07 -1.5243e-07 0.000198718
0.000854695 -5.21273e-05 2.97077e-05
-5.21273e-05 0.000206254 8.77969e-06
2.97077e-05 8.77969e-06 0.000205108
0.00266094 -0.00011984 6.2921e-06
-0.00011984 0.00134967 -6.04372e-07
6.2921e-06 -6.04372e-07 0.00134943
0.00280325 -0.000139922 -4.05926e-05
-0.000139922 0.00144892 -3.61814e-06
-4.05926e-05 -3.61814e-06 0.00144307
0.000344813 -4.15333e-05 6.35688e-06
-4.15333e-05 -9.42503e-05 -1.04854e-05
6.35688e-06 -1.04854e-05 -0.000145125
0.00406884 0.000156722 9.55135e-05
0.000156722 0.00225525 -7.72211e-06
9.55135e-05 -7.72211e-06 0.00224098
0.000522668 -7.92054e-05 -1.9341e-06
-7.92054e-05 3.07182e-06 5.1294e-07
-1.9341e-06 5.1294e-07 -6.31515e-05
0.00486112 0.00014685 -1.22757e-05
0.00014685 0.00275555 -1.50565e-06
-1.22757e-05 -1.50565e-06 0.00274022
0.000578982 -0.000108152 -1.848e-05
-0.000108152 1.95091e-05 1.46963e-05
-1.848e-05 1.46963e-05 -6.48898e-05
0.00574806 0.000149578 -0.000194927
0.000149578 0.00330895 2.14342e-05
-0.000194927 2.14342e-05 0.00328947
0.0010709 0.000168752 -1.3192e-05
0.000168752 -5.71473e-05 -3.45099e-06
-1.3192e-05 -3.45099e-06 -0.000223895
0.0010444 0.000100514 -1.19142e-05
0.000100514 -7.53283e-05 -1.7004e-06
-1.19142e-05 -1.7004e-06 -0.000217827
0.00182344 0.000216811 -1.90651e-06
0.000216811 0.000117452 7.43373e-07
-1.90651e-06 7.43373e-07 -2.72045e-05
0.00174263 9.77634e-05 1.86736e-07
9.77634e-05 7.26552e-05 6.46784e-07
1.86736e-07 6.46784e-07 -3.95045e-05
0.00103313 3.51978e-05 -1.19618e-05
3.51978e-05 -6.49916e-05 -5.03656e-07
-1.19618e-05 -5.03656e-07 -0.000193136
0.000440645 2.89988e-05 -1.92415e-05
2.89988e-05 -0.00018779 -6.54214e-07
-1.92415e-05 -6.54214e-07 -0.0002625
0.00103232 3.1837e-07 -5.29795e-08
3.1837e-07 -5.67378e-05 -8.86029e-08
-5.29795e-08 -8.86029e-08 -0.000183288
0.00174233 4.78974e-05 -9.90744e-08
4.78974e-05 7.06062e-05 2.16973e-07
-9.90744e-08 2.16973e-07 -3.40303e-05
0.0017845 0.000155809 -3.05356e-08
0.000155809 9.34569e-05 1.09061e-07
-3.05356e-08 1.09061e-07 -3.16837e-05
0.00192967 0.000126772 -1.95442e-07
0.000126772 4.32689e-05 2.1732e-07
-1.95442e-07 2.1732e-07 -1.69793e-05
0.00184013 0.000281774 -4.06439e-07
0.000281774 0.000145077 -8.77095e-08
-4.06439e-07 -8.77095e-08 -2.45931e-05
0.00198997 0.000254147 -5.40969e-07
0.000254147 0.000105411 1.0918e-07
-5.40969e-07 1.0918e-07 -4.41929e-06
0.00172042 -9.33186e-07 4.14995e-08
-9.33186e-07 6.25515e-05 2.0257e-07
4.14995e-08 2.0257e-07 -4.03424e-05
0.00190837 5.98589e-05 2.03001e-06
5.98589e-05 3.28916e-05 5.37118e-07
2.03001e-06 5.37118e-07 -1.5305e-05
0.00194583 0.000189523 2.63058e-06
0.000189523 6.24956e-05 9.5582e-08
2.63058e-06 9.5582e-08 -1.95537e-05
0.00201395 0.000121364 7.01078e-06
0.000121364 5.56645e-05 1.13328e-06
7.01078e-06 1.13328e-06 2.5804e-05
0.00210511 0.000339464 9.90288e-07
0.000339464 0.000206194 -1.27245e-06
9.90288e-07 -1.27245e-06 6.05197e-05
0.00199238 0.000275011 2.83209e-06
0.000275011 2.91788e-05 8.78134e-07
2.83209e-06 8.78134e-07 -4.7304e-05
0.000968691 -1.91638e-05 -1.21528e-05
-1.91638e-05 -9.95087e-05 5.63412e-07
-1.21528e-05 5.63412e-07 -0.00022339
0.00186547 -0.000104424 -2.70258e-05
-0.000104424 0.000451432 2.92752e-06
-2.70258e-05 2.92752e-06 0.000322854
0.00192525 -9.46737e-05 -2.14848e-06
-9.46737e-05 0.000201891 -4.10865e-07
-2.14848e-06 -4.10865e-07 9.36395e-05
0.0017404 -0.000213957 -2.57441e-06
-0.000213957 0.000119279 5.46267e-07
-2.57441e-06 5.46267e-07 -3.3229e-05
0.000539192 -0.000195339 -2.46317e-05
-0.000195339 -3.37378e-05 1.86755e-05
-2.46317e-05 1.86755e-05 -0.000141978
0.000832118 -0.000232998 -1.12366e-05
-0.000232998 6.78867e-05 7.73659e-06
-1.12366e-05 7.73659e-06 -0.000144007
0.00134465 -0.000419187 -5.42957e-06
-0.000419187 0.000174477 1.54317e-06
-5.42957e-06 1.54317e-06 -0.000123089
0.00185235 -0.000319695 -5.67444e-06
-0.000319695 0.000237777 1.10452e-06
-5.67444e-06 1.10452e-06 4.14514e-05
0.00203732 -0.000320362 1.23615e-07
-0.000320362 0.000176109 -1.4525e-06
1.23615e-07 -1.4525e-06 4.6254e-05
0.00193532 -0.000420122 -9.28011e-07
-0.000420122 0.000216603 -1.43917e-06
-9.28011e-07 -1.43917e-06 1.49138e-05
0.00212006 -0.000529185 -3.69841e-06
-0.000529185 0.000436749 -3.07687e-06
-3.69841e-06 -3.07687e-06 0.000152299
0.00191301 -0.000477993 2.19831e-06
-0.000477993 0.000189911 -2.95233e-06
2.19831e-06 -2.95233e-06 -2.02412e-05
0.000791964 -0.000191077 -4.9181e-06
-0.000191077 0.000155631 4.15927e-06
-4.9181e-06 4.15927e-06 -7.07331e-05
-4.18339e-05 -0.000132265 -3.57026e-07
-0.000132265 -0.000352165 -1.42512e-06
-3.57026e-07 -1.42512e-06 -0.000615494
0.000819903 -0.000145632 -5.33848e-07
-0.000145632 0.000205384 3.40099e-06
-5.33848e-07 3.40099e-06 1.9824e-05
0.00178828 -4.31019e-05 -4.01886e-07
-4.31019e-05 0.000114012 5.70034e-08
-4.01886e-07 5.70034e-08 6.22341e-06
0.00186482 -0.000161678 -3.06527e-06
-0.000161678 0.000175144 4.89991e-07
-3.06527e-06 4.89991e-07 5.05357e-05
0.00194739 -0.000119067 2.97336e-06
-0.000119067 6.97079e-05 -4.33174e-07
2.97336e-06 -4.33174e-07 3.18258e-06
0.00189917 -0.000249351 -1.25762e-06
-0.000249351 7.17855e-05 5.80689e-07
-1.25762e-06 5.80689e-07 -3.80383e-05
0.000729433 -0.000230934 7.51902e-07
-0.000230934 6.83058e-05 -3.56589e-07
7.51902e-07 -3.56589e-07 -0.000149058
0.00121636 -0.000380676 -1.40447e-06
-0.000380676 0.000205266 -2.65635e-07
-1.40447e-06 -2.65635e-07 -8.70861e-05
0.00170531 -0.000559748 1.20305e-06
-0.000559748 0.000297196 4.9169e-07
1.20305e-06 4.9169e-07 -4.84218e-05
0.00181482 -0.00037056 -1.35992e-06
-0.00037056 9.68184e-05 1.02071e-06
-1.35992e-06 1.02071e-06 -7.43421e-05
0.0020756 -0.000344331 1.1682e-06
-0.000344331 0.00015238 -4.56456e-07
1.1682e-06 -4.56456e-07 4.93813e-05
0.00204597 -0.000552092 -2.96866e-07
-0.000552092 0.000330736 5.1731e-07
-2.96866e-07 5.1731e-07 5.60957e-05
0.00194018 -0.000448924 -1.27935e-07
-0.000448924 0.000160012 6.01413e-07
-1.27935e-07 6.01413e-07 -1.60354e-05
0.00217445 -0.000500869 1.371e-06
-0.000500869 0.000353862 -5.91013e-07
1.371e-06 -5.91013e-07 0.000160494
0.00107272 -0.000279444 -9.44826e-08
-0.000279444 0.000249379 8.88687e-07
-9.44826e-08 8.88687e-07 1.1428e-07
0.00123891 -0.000325144 -1.2613e-06
-0.000325144 0.000371105 5.71718e-07
-1.2613e-06 5.71718e-07 8.41567e-05
0.000658569 -0.000110263 -4.14727e-07
-0.000110263 0.000116674 -1.4925e-07
-4.14727e-07 -1.4925e-07 -3.2998e-05
3.36208e-05 -9.39254e-05 4.15549e-07
-9.39254e-05 -0.000227477 -2.07516e-06
4.15549e-07 -2.07516e-06 -0.000502056
0.00194642 -6.25635e-05 3.14757e-06
-6.25635e-05 6.97538e-05 -5.04928e-07
3.14757e-06 -5.04928e-07 1.33412e-05
0.00186225 -0.000188933 2.62693e-06
-0.000188933 2.01735e-05 -3.98867e-07
2.62693e-06 -3.98867e-07 -6.89169e-05
0.00188999 -0.000114793 6.94047e-06
-0.000114793 5.39833e-06 -1.02158e-06
6.94047e-06 -1.02158e-06 -2.57358e-05
0.00206602 -0.000284241 1.1233e-06
-0.000284241 8.74876e-05 -5.74104e-07
1.1233e-06 -5.74104e-07 2.58648e-05
0.00185096 -0.000397386 -1.2938e-06
-0.000397386 6.20336e-05 6.08555e-07
-1.2938e-06 6.08555e-07 -7.84655e-05
0.00205039 -0.000355195 4.54737e-06
-0.000355195 0.000100506 -1.38849e-06
4.54737e-06 -1.38849e-06 2.0148e-05
0.00132387 -0.000342142 5.56424e-06
-0.000342142 0.000350952 -5.05057e-06
5.56424e-06 -5.05057e-06 8.40389e-05
0.00190162 -0.000468433 -2.45199e-06
-0.000468433 0.000122145 3.57208e-07
-2.45199e-06 3.57208e-07 -3.60889e-05
0.00146047 -0.000539364 2.67485e-06
-0.000539364 0.00029344 9.98524e-07
2.67485e-06 9.98524e-07 -7.37267e-05
0.00192219 -0.000630537 4.62744e-06
-0.000630537 0.00036763 2.24994e-06
4.62744e-06 2.24994e-06 9.54229e-06
0.00200183 -0.000561322 2.10439e-06
-0.000561322 0.000257994 4.51161e-06
2.10439e-06 4.51161e-06 -7.80356e-06
0.00226498 -0.000525027 -4.76026e-06
-0.000525027 0.000383282 -1.5914e-06
-4.76026e-06 -1.5914e-06 0.000184096
0.000555233 -8.56605e-05 -1.00009e-06
-8.56605e-05 5.82409e-05 -6.31346e-06
-1.00009e-06 -6.31346e-06 -6.33561e-05
0.000235193 -0.000116383 -3.68424e-06
-0.000116383 -6.46716e-05 -1.90637e-06
-3.68424e-06 -1.90637e-06 -0.000325649
0.00130243 -0.000364121 2.38196e-06
-0.000364121 0.000349692 -2.86949e-06
2.38196e-06 -2.86949e-06 6.53477e-05
0.00110648 -0.000249601 -3.97817e-06
-0.000249601 0.000393501 4.81905e-06
-3.97817e-06 4.81905e-06 0.000103125
0.00204503 -0.000440553 -9.22296e-06
-0.000440553 0.0008605 2.0847e-06
-9.22296e-06 2.0847e-06 0.000529573
0.000337696 -5.13972e-05 -4.89159e-07
-5.13972e-05 -9.60727e-05 -8.00125e-06
-4.89159e-07 -8.00125e-06 -0.000138584
0.00177716 0.000330607 -3.66663e-06
0.000330607 0.000147678 -5.1677e-07
-3.66663e-06 -5.1677e-07 -4.94961e-05
0.000324995 1.50558e-05 -2.36824e-07
1.50558e-05 -0.000103566 -5.85845e-06
-2.36824e-07 -5.85845e-06 -0.00022464
0.000489326 0.000182125 -5.14415e-06
0.000182125 -2.03543e-05 -3.44591e-06
-5.14415e-06 -3.44591e-06 -0.000230466
0.00054694 0.000142727 7.26902e-07
0.000142727 6.67852e-05 -3.96281e-07
7.26902e-07 -3.96281e-07 -0.000190749
0.00163846 0.000404395 -4.6707e-06
0.000404395 0.00019093 -4.3745e-07
-4.6707e-06 -4.3745e-07 -6.06e-05
0.00194478 0.000439682 4.02296e-07
0.000439682 0.000212333 1.26439e-06
4.02296e-07 1.26439e-06 -4.76742e-06
0.00133254 0.000323145 -3.60872e-06
0.000323145 0.000362859 -2.84675e-06
-3.60872e-06 -2.84675e-06 0.000108242
0.00131442 0.000467884 -3.50992e-08
0.000467884 0.000189805 9.55679e-07
-3.50992e-08 9.55679e-07 -0.000149097
0.00189525 0.000515787 9.16123e-07
0.000515787 0.000341195 2.22587e-06
9.16123e-07 2.22587e-06 5.75352e-05
0.00185403 0.000526688 1.43688e-06
0.000526688 0.000330742 7.2203e-06
1.43688e-06 7.2203e-06 4.15203e-05
0.00047313 -3.07919e-05 -5.46682e-07
-3.07919e-05 -3.07696e-05 1.80781e-07
-5.46682e-07 1.80781e-07 -6.15534e-05
0.00061368 2.14531e-05 -3.66066e-07
2.14531e-05 7.55738e-05 4.23691e-07
-3.66066e-07 4.23691e-07 -2.16875e-05
0.00100038 0.000259803 5.69778e-07
0.000259803 0.000234052 8.12424e-07
5.69778e-07 8.12424e-07 -1.19502e-06
0.000700368 8.37908e-05 -7.13505e-07
8.37908e-05 0.000189077 -5.31888e-07
-7.13505e-07 -5.31888e-07 -3.34811e-05
0.000830691 0.000243254 -2.79306e-07
0.000243254 0.000159539 7.67193e-07
-2.79306e-07 7.67193e-07 -7.58564e-05
0.00203334 0.000398159 -1.35086e-06
0.000398159 0.000199261 -1.6292e-06
-1.35086e-06 -1.6292e-06 1.75604e-05
0.00193139 0.000495522 5.48505e-07
0.000495522 0.000269386 1.9158e-07
5.48505e-07 1.9158e-07 1.35903e-05
0.00195509 0.000482171 1.66902e-06
0.000482171 0.000193952 2.09267e-07
1.66902e-06 2.09267e-07 -1.70186e-05
0.00133155 0.000418226 2.09484e-06
0.000418226 0.000325353 9.68188e-07
2.09484e-06 9.68188e-07 5.62333e-06
0.00207127 0.000587272 2.04776e-06
0.000587272 0.000373199 2.28304e-07
2.04776e-06 2.28304e-07 8.38876e-05
0.00189774 0.000568305 -3.10005e-06
0.000568305 0.000494301 -1.70152e-07
-3.10005e-06 -1.70152e-07 0.000148915
0.000651262 2.8701e-05 1.57506e-06
2.8701e-05 9.36108e-05 4.34304e-06
1.57506e-06 4.34304e-06 1.16201e-05
0.00139246 0.000154532 9.59979e-07
0.000154532 0.000602333 2.98426e-06
9.59979e-07 2.98426e-06 0.000431026
0.000942427 0.000314574 -2.80594e-06
0.000314574 0.000127794 2.95952e-06
-2.80594e-06 2.95952e-06 -0.000126089
0.00143296 0.000180266 -8.38126e-07
0.000180266 0.000647368 -2.68303e-06
-8.38126e-07 -2.68303e-06 0.000380207
0.00163664 0.000290636 -4.87047e-06
0.000290636 0.000571154 5.54247e-07
-4.87047e-06 5.54247e-07 0.000363412
0.00202443 0.000416252 -3.69697e-06
0.000416252 0.000172541 -2.54781e-06
-3.69697e-06 -2.54781e-06 6.63442e-06
0.00201549 0.000549672 -5.20102e-07
0.000549672 0.000282777 -1.21718e-08
-5.20102e-07 -1.21718e-08 2.69914e-05
0.00181778 0.000521713 6.37951e-06
0.000521713 7.04383e-05 -8.53582e-08
6.37951e-06 -8.53582e-08 -0.000144622
0.00118621 0.000478484 7.54163e-06
0.000478484 0.000249443 -1.08514e-06
7.54163e-06 -1.08514e-06 -0.00011622
0.00152896 0.000562807 1.01832e-05
0.000562807 0.000167603 -3.9729e-07
1.01832e-05 -3.9729e-07 -0.000148048
0.000575463 2.58571e-05 -3.22303e-07
2.58571e-05 4.38782e-05 1.66634e-07
-3.22303e-07 1.66634e-07 -2.72372e-05
0.000398688 5.16764e-05 6.5919e-07
5.16764e-05 -4.11399e-05 2.58009e-06
6.5919e-07 2.58009e-06 -0.000150907
0.000409702 4.85641e-05 -5.99836e-07
4.85641e-05 -3.44614e-05 -2.35448e-07
-5.99836e-07 -2.35448e-07 -0.00013758
0.000976768 0.000140394 -1.19379e-06
0.000140394 0.000334646 -8.44319e-07
-1.19379e-06 -8.44319e-07 0.000202097
0.000671077 0.000105673 1.94586e-06
0.000105673 0.000144181 2.50216e-06
1.94586e-06 2.50216e-06 3.19334e-05
0.000544086 5.66593e-05 2.84848e-06
5.66593e-05 3.87012e-05 3.42487e-06
2.84848e-06 3.42487e-06 -2.61845e-05
0.000538275 1.01229e-05 -6.62349e-07
1.01229e-05 2.93218e-05 -2.76849e-08
-6.62349e-07 -2.76849e-08 -3.55436e-05
0.00125406 -2.72134e-05 9.92875e-07
-2.72134e-05 0.000444198 3.30025e-06
9.92875e-07 3.30025e-06 0.000427439
0.000553771 1.66917e-05 -1.89829e-06
1.66917e-05 2.99162e-05 -3.75277e-06
-1.89829e-06 -3.75277e-06 -3.46517e-05
0.00131402 -3.74573e-05 -7.37729e-06
-3.74573e-05 0.000482949 -1.51616e-06
-7.37729e-06 -1.51616e-06 0.000464472
0.000809001 -3.82931e-05 3.01816e-05
-3.82931e-05 0.000169582 8.64815e-06
3.01816e-05 8.64815e-06 0.00017286
0.00133276 -4.55564e-05 -1.27565e-05
-4.55564e-05 0.000499862 -5.00597e-06
-1.27565e-05 -5.00597e-06 0.000478361
0.00167451 -7.51523e-05 2.88702e-05
-7.51523e-05 0.000721542 1.57464e-06
2.88702e-05 1.57464e-06 0.000723251
0.00258881 -0.000115709 -3.55971e-05
-0.000115709 0.00130311 -4.02257e-06
-3.55971e-05 -4.02257e-06 0.00130384
0.000296792 8.21836e-05 -6.27922e-06
8.21836e-05 -9.46653e-05 -8.681e-06
-6.27922e-06 -8.681e-06 -0.00014793
0.00045208 -2.27041e-05 5.19149e-07
-2.27041e-05 -2.18748e-05 6.72185e-07
5.19149e-07 6.72185e-07 -7.86857e-05
0.00335448 0.000178831 8.40552e-06
0.000178831 0.00180705 -6.79276e-06
8.40552e-06 -6.79276e-06 0.00178758
0.00428455 0.000126692 -1.32386e-05
0.000126692 0.00238603 -1.14729e-06
-1.32386e-05 -1.14729e-06 0.00237867
0.000620947 -7.88821e-05 -1.30883e-05
-7.88821e-05 6.10654e-05 1.28542e-05
-1.30883e-05 1.28542e-05 -8.76874e-06
0.0051206 0.000125836 -0.000171514
0.000125836 0.00291055 1.79779e-05
-0.000171514 1.79779e-05 0.00289954
0.00181624 0.000279537 -2.53553e-06
0.000279537 0.000133611 5.74737e-07
-2.53553e-06 5.74737e-07 -3.60834e-05
0.00174862 0.000155409 -4.25326e-07
0.000155409 7.10829e-05 6.47348e-07
-4.25326e-07 6.47348e-07 -5.45473e-05
0.00193273 0.000251556 -2.04481e-06
0.000251556 7.2475e-05 1.27295e-06
-2.04481e-06 1.27295e-06 -3.7449e-05
0.00194763 0.000125337 -2.43772e-06
0.000125337 4.50592e-05 3.59892e-08
-2.43772e-06 3.59892e-08 -1.19554e-05
0.0017505 4.99845e-05 1.04376e-07
4.99845e-05 7.96148e-05 4.80348e-07
1.04376e-07 4.80348e-07 -2.50653e-05
0.00103396 5.17093e-06 -1.16044e-05
5.17093e-06 -5.617e-05 -9.10057e-08
-1.16044e-05 -9.10057e-08 -0.00018268
0.00173216 2.61296e-06 6.00867e-08
2.61296e-06 7.17086e-05 1.94211e-07
6.00867e-08 1.94211e-07 -3.12346e-05
0.00190473 5.16736e-05 -7.05788e-07
5.16736e-05 3.24013e-05 -2.6205e-08
-7.05788e-07 -2.6205e-08 -1.61106e-05
0.00195678 0.000188573 -5.66311e-07
0.000188573 6.93785e-05 2.3848e-07
-5.66311e-07 2.3848e-07 -1.27183e-05
0.00196141 0.000118613 5.70618e-07
0.000118613 1.61956e-05 6.65449e-08
5.70618e-07 6.65449e-08 -8.30536e-06
0.00204955 0.000338841 -4.37527e-07
0.000338841 0.000164865 -1.65829e-07
-4.37527e-07 -1.65829e-07 1.8921e-05
0.00199672 0.000269842 4.33566e-08
0.000269842 3.16191e-05 3.79842e-07
4.33566e-08 3.79842e-07 -4.15641e-05
0.0019046 -5.2769e-06 2.77555e-06
-5.2769e-06 3.86211e-05 -2.5362e-07
2.77555e-06 -2.5362e-07 -1.15441e-05
0.00195205 5.05754e-05 6.26624e-06
5.05754e-05 3.25245e-05 2.71994e-07
6.26624e-06 2.71994e-07 1.3023e-05
0.00202699 0.000192289 3.34331e-06
0.000192289 4.02766e-05 5.91672e-07
3.34331e-06 5.91672e-07 2.67006e-06
0.00205781 0.000117946 3.9238e-06
0.000117946 3.63522e-05 5.92785e-07
3.9238e-06 5.92785e-07 3.31983e-05
0.00195734 0.000332903 1.29597e-06
0.000332903 6.79235e-05 -5.24596e-07
1.29597e-06 -5.24596e-07 -5.21792e-05
0.00216576 0.000278159 3.55965e-06
0.000278159 8.32934e-05 1.32083e-06
3.55965e-06 1.32083e-06 3.97237e-05
0.00178324 -4.04635e-05 -1.03728e-06
-4.04635e-05 0.000109393 -3.60347e-07
-1.03728e-06 -3.60347e-07 4.01266e-06
0.00185532 -0.000166793 -3.49889e-06
-0.000166793 0.000166831 2.01865e-08
-3.49889e-06 2.01865e-08 4.12826e-05
0.00198373 -0.000118268 5.25921e-08
-0.000118268 9.0218e-05 -3.64948e-07
5.25921e-08 -3.64948e-07 3.00571e-05
0.00187439 -0.000243897 -1.9854e-06
-0.000243897 5.63394e-05 1.4327e-07
-1.9854e-06 1.4327e-07 -5.60498e-05
0.000815883 -0.000231012 -8.96898e-06
-0.000231012 0.000119232 7.5985e-06
-8.96898e-06 7.5985e-06 -9.89848e-05
0.00120563 -0.000382871 -7.868e-06
-0.000382871 0.000189187 2.90872e-06
-7.868e-06 2.90872e-06 -0.000103345
0.00156198 -0.000539766 -3.13918e-07
-0.000539766 0.000226169 -9.61953e-07
-3.13918e-07 -9.61953e-07 -0.000117835
0.00180379 -0.000367872 -1.39015e-06
-0.000367872 9.45658e-05 -1.68188e-07
-1.39015e-06 -1.68188e-07 -8.17207e-05
0.00199797 -0.000341517 -6.15346e-07
-0.000341517 9.75465e-05 2.38463e-07
-6.15346e-07 2.38463e-07 -1.27509e-06
0.00199741 -0.000451767 3.94803e-07
-0.000451767 0.000196863 -6.45025e-07
3.94803e-07 -6.45025e-07 2.02754e-05
0.00193623 -0.000553431 -2.9132e-06
-0.000553431 0.000252844 -3.23228e-06
-2.9132e-06 -3.23228e-06 -2.49312e-05
0.00205589 -0.000487756 6.49756e-06
-0.000487756 0.000276752 -4.70489e-06
6.49756e-06 -4.70489e-06 8.85238e-05
0.000821494 -0.000254383 -1.80879e-06
-0.000254383 0.000105632 2.08566e-06
-1.80879e-06 2.08566e-06 -0.000146305
0.000105539 -0.000198285 -9.40202e-08
-0.000198285 -0.000344098 1.47525e-06
-9.40202e-08 1.47525e-06 -0.000609653
0.000869682 -0.000123655 -6.55865e-07
-0.000123655 0.000243473 5.81333e-06
-6.55865e-07 5.81333e-06 8.94931e-05
0.000176482 -6.62075e-05 2.74583e-06
-6.62075e-05 -0.000158893 -2.98346e-06
2.74583e-06 -2.98346e-06 -0.000411585
0.00194408 -6.21347e-05 -1.04491e-07
-6.21347e-05 7.08806e-05 2.17478e-07
-1.04491e-07 2.17478e-07 1.42094e-05
0.00188599 -0.000188855 2.63475e-06
-0.000188855 4.00339e-05 -8.29947e-07
2.63475e-06 -8.29947e-07 -4.9922e-05
0.00191585 -0.000115189 1.11554e-06
-0.000115189 1.67228e-05 -3.49898e-07
1.11554e-06 -3.49898e-07 -1.28603e-05
0.00202383 -0.000280435 -1.22462e-06
-0.000280435 6.85997e-05 2.47128e-07
-1.22462e-06 2.47128e-07 3.28836e-06
0.00108666 -0.000309883 -2.15891e-06
-0.000309883 0.000194582 4.1434e-07
-2.15891e-06 4.1434e-07 -6.45016e-05
0.00140536 -0.000522509 2.59822e-06
-0.000522509 0.000273886 -7.89837e-07
2.59822e-06 -7.89837e-07 -8.81216e-05
0.00183252 -0.000631026 -1.57459e-07
-0.000631026 0.000308305 4.27689e-07
-1.57459e-07 4.27689e-07 -5.42306e-05
0.00187672 -0.000396052 -1.30755e-06
-0.000396052 8.58096e-05 6.80468e-07
-1.30755e-06 6.80468e-07 -5.83034e-05
0.00200741 -0.000355724 1.28741e-06
-0.000355724 7.51076e-05 -2.55539e-07
1.28741e-06 -2.55539e-07 -2.45609e-06
0.00196457 -0.000561997 -1.70695e-07
-0.000561997 0.000255272 4.51512e-07
-1.70695e-07 4.51512e-07 -1.23844e-05
0.00187201 -0.000468424 -9.75403e-07
-0.000468424 9.62092e-05 1.01599e-06
-9.75403e-07 1.01599e-06 -6.31684e-05
0.00211926 -0.000509606 3.70549e-06
-0.000509606 0.00029079 -5.08629e-06
3.70549e-06 -5.08629e-06 9.85939e-05
0.0012 -0.00035288 -2.9718e-07
-0.00035288 0.000287846 8.53831e-07
-2.9718e-07 8.53831e-07 5.60631e-06
0.00159428 -0.000386042 1.42605e-06
-0.000386042 0.000563008 1.17844e-06
1.42605e-06 1.17844e-06 0.000246986
0.00104103 -0.000235559 -2.99003e-07
-0.000235559 0.000351195 6.0997e-07
-2.99003e-07 6.0997e-07 5.99976e-05
0.000339275 -5.42074e-05 -2.16755e-06
-5.42074e-05 -7.72855e-05 7.27593e-07
-2.16755e-06 7.27593e-07 -0.000198954
9.16305e-05 -6.49863e-05 -5.46665e-07
-6.49863e-05 -0.000168587 -7.95617e-07
-5.46665e-07 -7.95617e-07 -0.00041128
0.00188907 -6.21673e-05 5.54298e-06
-6.21673e-05 -8.98759e-06 -3.78039e-07
5.54298e-06 -3.78039e-07 -2.56092e-05
0.00198074 -0.000174346 4.72121e-06
-0.000174346 2.71016e-05 -9.30674e-07
4.72121e-06 -9.30674e-07 -2.57131e-06
0.00206339 -0.000328279 1.52061e-06
-0.000328279 2.70818e-05 -3.37193e-07
1.52061e-06 -3.37193e-07 -1.06364e-05
0.00200306 -0.000410055 2.12745e-06
-0.000410055 9.99545e-05 -1.60431e-06
2.12745e-06 -1.60431e-06 2.27757e-06
0.00156821 -0.000451584 2.75156e-06
-0.000451584 0.000487675 -3.44974e-06
2.75156e-06 -3.44974e-06 0.000154824
0.00219671 -0.000565027 -1.07981e-06
-0.000565027 0.00020912 -3.94489e-06
-1.07981e-06 -3.94489e-06 3.14257e-05
0.00121252 -0.000586415 -5.49229e-06
-0.000586415 0.000134249 3.43137e-06
-5.49229e-06 3.43137e-06 -0.000261294
0.00195536 -0.000693818 4.41902e-06
-0.000693818 0.000340781 5.55676e-07
4.41902e-06 5.55676e-07 -3.59728e-05
0.00183661 -0.000535794 -6.67588e-06
-0.000535794 0.000166193 1.35712e-06
-6.67588e-06 1.35712e-06 -8.76508e-05
1.8883e-06 -1.11907e-05 -2.51594e-06
-1.11907e-05 -0.000278044 -5.74108e-06
-2.51594e-06 -5.74108e-06 -0.00037398
0.000753994 -0.000127407 -2.23749e-06
-0.000127407 0.000246543 -3.64115e-07
-2.23749e-06 -3.64115e-07 3.81154e-05
0.00100916 -0.000183777 -1.77834e-06
-0.000183777 0.000398525 -2.9808e-06
-1.77834e-06 -2.9808e-06 0.000129174
0.00169977 -0.000445863 -5.76846e-06
-0.000445863 0.000583187 4.87204e-07
-5.76846e-06 4.87204e-07 0.000251108
0.000729561 -0.000204741 -5.86757e-07
-0.000204741 0.000107889 5.89885e-06
-5.86757e-07 5.89885e-06 -0.000185981
0.00143316 -0.00040861 -5.88918e-06
-0.00040861 0.000438572 7.95587e-06
-5.88918e-06 7.95587e-06 0.00010315
0.000441761 -3.07285e-05 -1.72474e-06
-3.07285e-05 -5.02694e-05 -6.64151e-06
-1.72474e-06 -6.64151e-06 -8.06615e-05
0.00054695 1.32015e-05 -1.19745e-06
1.32015e-05 3.86315e-05 -5.07757e-06
-1.19745e-06 -5.07757e-06 -5.85883e-05
0.00200497 0.000397028 -2.38993e-06
0.000397028 0.000181679 -5.71514e-07
-2.38993e-06 -5.71514e-07 -6.71265e-08
-0.000344228 -6.74245e-06 2.51882e-07
-6.74245e-06 -0.000453777 -2.36806e-06
2.51882e-07 -2.36806e-06 -0.000668119
0.00116942 0.000271754 -2.92644e-06
0.000271754 0.000338415 -9.91398e-07
-2.92644e-06 -9.91398e-07 0.000106581
0.000628398 0.000193816 2.16729e-06
0.000193816 1.19689e-05 7.78717e-07
2.16729e-06 7.78717e-07 -0.000198326
0.00188946 0.000491549 8.21782e-07
0.000491549 0.000246165 1.06366e-06
8.21782e-07 1.06366e-06 -8.96965e-06
0.00190056 0.000479012 1.59169e-06
0.000479012 0.000163527 6.71032e-07
1.59169e-06 6.71032e-07 -4.74142e-05
0.00161179 0.000443477 -1.77297e-07
0.000443477 0.00051157 -1.17787e-06
-1.77297e-07 -1.17787e-06 0.000184472
0.00212239 0.000583539 -4.48398e-06
0.000583539 0.000638872 1.59223e-06
-4.48398e-06 1.59223e-06 0.00029524
0.00192344 0.000571089 -2.37568e-07
0.000571089 0.000269967 1.31161e-06
-2.37568e-07 1.31161e-06 -1.8083e-05
0.000588392 2.75602e-05 -3.93868e-07
2.75602e-05 5.71104e-05 4.74566e-07
-3.93868e-07 4.74566e-07 -2.48391e-05
0.000747248 7.72468e-05 -7.91233e-07
7.72468e-05 0.000195189 2.80028e-07
-7.91233e-07 2.80028e-07 4.0813e-05
0.0011629 0.000335269 1.44162e-07
0.000335269 0.000265261 1.63076e-07
1.44162e-07 1.63076e-07 9.90515e-06
0.000976953 0.000129553 1.12782e-06
0.000129553 0.000357527 5.64353e-07
1.12782e-06 5.64353e-07 0.000101044
0.000722332 0.000228258 2.08226e-06
0.000228258 1.0497e-05 5.44495e-07
2.08226e-06 5.44495e-07 -0.000186537
0.00197334 0.000416184 -2.34131e-06
0.000416184 0.000143488 -1.68326e-06
-2.34131e-06 -1.68326e-06 -2.31694e-05
0.00201238 0.000548592 1.83739e-06
0.000548592 0.000280406 6.6578e-07
1.83739e-06 6.6578e-07 2.47263e-05
0.00190014 0.00052272 6.00795e-07
0.00052272 0.000120104 -5.83742e-08
6.00795e-07 -5.83742e-08 -9.39065e-05
0.00127522 0.00049781 2.47374e-06
0.00049781 0.00028862 2.20004e-06
2.47374e-06 2.20004e-06 -7.75927e-05
0.00172175 0.000585635 -2.31277e-06
0.000585635 0.000296395 -1.929e-06
-2.31277e-06 -1.929e-06 -2.66912e-05
0.000977857 9.60329e-05 1.05338e-06
9.60329e-05 0.000332722 2.85158e-06
1.05338e-06 2.85158e-06 0.00020165
-0.000168526 -5.97652e-06 -1.97955e-06
-5.97652e-06 -0.000315481 1.84899e-06
-1.97955e-06 1.84899e-06 -0.000528126
0.00134317 0.000397691 -1.7487e-06
0.000397691 0.000355057 -1.53174e-06
-1.7487e-06 -1.53174e-06 5.99042e-05
-0.000678833 9.57177e-05 3.87985e-06
9.57177e-05 -0.000721914 6.06934e-08
3.87985e-06 6.06934e-08 -0.000943789
0.00232974 0.000406603 -2.61256e-06
0.000406603 0.000910635 -1.60901e-06
-2.61256e-06 -1.60901e-06 0.000678057
0.00192895 0.000450613 8.42685e-07
0.000450613 3.62923e-05 -9.7804e-07
8.42685e-07 -9.7804e-07 -0.000110722
0.00209067 0.000608281 7.23525e-06
0.000608281 0.000300723 -1.47418e-06
7.23525e-06 -1.47418e-06 2.14905e-05
0.00187321 0.000550417 7.00122e-06
0.000550417 8.40814e-05 1.15455e-06
7.00122e-06 1.15455e-06 -0.000144596
0.0011638 0.0005076 9.16807e-06
0.0005076 0.000180981 2.02359e-06
9.16807e-06 2.02359e-06 -0.000186857
0.00195666 0.000661735 1.09353e-06
0.000661735 0.000440345 -4.04221e-08
1.09353e-06 -4.04221e-08 9.21593e-05
0.000538391 1.75861e-05 -2.16658e-06
1.75861e-05 1.96594e-05 -3.92681e-06
-2.16658e-06 -3.92681e-06 -5.03573e-05
0.000543527 6.22568e-05 1.3093e-06
6.22568e-05 5.21209e-05 4.70681e-07
1.3093e-06 4.70681e-07 -5.97488e-05
0.000313489 4.83844e-05 -4.04007e-07
4.83844e-05 -9.93317e-05 1.49014e-06
-4.04007e-07 1.49014e-06 -0.000207518
0.000219149 -2.10765e-05 -3.31094e-07
-2.10765e-05 -0.000147376 -2.76258e-06
-3.31094e-07 -2.76258e-06 -0.000251777
0.000603684 5.85482e-05 -3.79985e-07
5.85482e-05 0.000101711 4.45105e-08
-3.79985e-07 4.45105e-08 -8.18624e-06
0.000597789 8.61298e-05 -7.17595e-07
8.61298e-05 8.72807e-05 -1.09289e-07
-7.17595e-07 -1.09289e-07 -2.91049e-05
0.000761195 0.000125675 -3.22179e-06
0.000125675 0.00020632 -3.6419e-06
-3.22179e-06 -3.6419e-06 8.52796e-05
0.000324566 8.11424e-06 -3.55206e-07
8.11424e-06 -6.43616e-05 -9.02065e-08
-3.55206e-07 -9.02065e-08 -0.000191259
0.000674268 9.20176e-05 1.08159e-06
9.20176e-05 0.000137608 2.67393e-06
1.08159e-06 2.67393e-06 3.53873e-05
0.000571811 6.5279e-05 3.46975e-06
6.5279e-05 5.93971e-05 3.42785e-06
3.46975e-06 3.42785e-06 -7.8335e-06
0.000534892 1.88976e-05 -2.25394e-06
1.88976e-05 3.12196e-05 3.13695e-09
-2.25394e-06 3.13695e-09 -3.2598e-05
0.00123176 -1.2264e-05 1.35979e-06
-1.2264e-05 0.000432418 3.01761e-06
1.35979e-06 3.01761e-06 0.000417144
0.000455105 -6.11854e-05 1.48593e-06
-6.11854e-05 -1.57498e-05 -3.56857e-06
1.48593e-06 -3.56857e-06 -8.41989e-05
0.00129458 -2.2672e-05 -6.47861e-06
-2.2672e-05 0.000469008 -1.58065e-06
-6.47861e-06 -1.58065e-06 0.000453103
0.000775072 -2.84814e-05 2.62638e-05
-2.84814e-05 0.000145216 8.87274e-06
2.62638e-05 8.87274e-06 0.000150528
0.001342 -3.44514e-05 -1.13493e-05
-3.44514e-05 0.000499885 -6.66216e-06
-1.13493e-05 -6.66216e-06 0.000482051
0.00076665 -4.16438e-05 1.023e-05
-4.16438e-05 0.000142934 3.28868e-06
1.023e-05 3.28868e-06 0.000144553
0.00246105 -0.000108913 -2.39938e-06
-0.000108913 0.00121515 -2.61189e-06
-2.39938e-06 -2.61189e-06 0.00121703
0.000348204 5.87082e-05 -3.62863e-06
5.87082e-05 -8.45862e-05 -5.5091e-06
-3.62863e-06 -5.5091e-06 -0.000118323
0.000419237 1.96286e-05 -3.3179e-06
1.96286e-05 -3.81257e-05 4.71037e-08
-3.3179e-06 4.71037e-08 -8.18695e-05
0.00284931 0.000140319 1.15346e-05
0.000140319 0.00148312 -5.29929e-06
1.15346e-05 -5.29929e-06 0.00147459
0.000610181 -5.41249e-05 -8.96589e-06
-5.41249e-05 6.66638e-05 1.10289e-05
-8.96589e-06 1.10289e-05 1.27958e-05
0.00358435 0.000134557 -3.21639e-05
0.000134557 0.00194162 -4.19554e-07
-3.21639e-05 -4.19554e-07 0.00193351
0.00441817 0.000100104 -0.000150232
0.000100104 0.00246246 1.41656e-05
-0.000150232 1.41656e-05 0.00246057
0.00199631 0.000338137 -2.41043e-06
0.000338137 0.000125414 9.69108e-07
-2.41043e-06 9.69108e-07 -2.07578e-05
0.0019678 0.00018643 -1.95682e-06
0.00018643 7.7393e-05 7.00712e-07
-1.95682e-06 7.00712e-07 -4.51572e-06
0.00199847 0.000264 -1.53854e-06
0.000264 3.27893e-05 5.98015e-07
-1.53854e-06 5.98015e-07 -3.71052e-05
0.00190769 0.000116037 -3.75634e-06
0.000116037 -2.40676e-05 -5.07413e-07
-3.75634e-06 -5.07413e-07 -4.30718e-05
0.00189889 4.51055e-05 -3.71367e-06
4.51055e-05 3.06051e-05 -6.31194e-08
-3.71367e-06 -6.31194e-08 -1.8504e-05
0.00174563 5.40948e-06 1.00395e-07
5.40948e-06 8.06176e-05 1.50126e-07
1.00395e-07 1.50126e-07 -2.23142e-05
0.00191463 -5.35176e-06 -3.99795e-07
-5.35176e-06 4.8621e-05 -5.1031e-08
-3.99795e-07 -5.1031e-08 -2.70267e-06
0.00196842 5.11268e-05 1.30533e-06
5.11268e-05 4.73476e-05 5.50636e-08
1.30533e-06 5.50636e-08 2.4154e-05
0.0020286 0.000190423 -9.04727e-09
0.000190423 4.44338e-05 -3.32626e-08
-9.04727e-09 -3.32626e-08 6.1793e-06
0.00201484 0.000118619 7.0413e-07
0.000118619 5.20626e-06 1.96668e-07
7.0413e-07 1.96668e-07 6.23086e-06
0.0019602 0.000331452 -6.03039e-07
0.000331452 7.91162e-05 1.46428e-08
-6.03039e-07 1.46428e-08 -4.14539e-05
0.00210608 0.000279622 3.14867e-06
0.000279622 4.28849e-05 5.25519e-07
3.14867e-06 5.25519e-07 5.40758e-06
0.00192156 -1.03193e-05 5.68062e-06
-1.03193e-05 2.39799e-05 5.71006e-08
5.68062e-06 5.71006e-08 -1.12535e-06
0.00200099 5.63336e-05 2.19766e-06
5.63336e-05 -6.1881e-06 -1.48552e-07
2.19766e-06 -1.48552e-07 2.1895e-06
0.00207886 0.000187049 1.29394e-06
0.000187049 4.54346e-06 5.93543e-07
1.29394e-06 5.93543e-07 2.8134e-06
0.00210282 0.000368084 -2.71436e-07
0.000368084 5.45719e-05 8.37122e-07
-2.71436e-07 8.37122e-07 -1.01917e-05
0.00194394 -6.15521e-05 -3.63519e-06
-6.15521e-05 7.29161e-05 9.06195e-07
-3.63519e-06 9.06195e-07 1.60037e-05
0.00190385 -0.00018976 1.01073e-06
-0.00018976 5.59013e-05 -9.63213e-07
1.01073e-06 -9.63213e-07 -3.50598e-05
0.00194349 -0.000115542 -4.88636e-06
-0.000115542 2.97997e-05 8.19161e-07
-4.88636e-06 8.19161e-07 1.56007e-06
0.0019917 -0.000277066 -5.22592e-06
-0.000277066 5.48406e-05 1.24259e-06
-5.22592e-06 1.24259e-06 -1.41519e-05
0.000924471 -0.00029363 -5.76604e-06
-0.00029363 8.60553e-05 4.05068e-06
-5.76604e-06 4.05068e-06 -0.000170883
0.00139649 -0.000511132 2.3138e-07
-0.000511132 0.00027866 -1.04547e-06
2.3138e-07 -1.04547e-06 -7.86627e-05
0.00185918 -0.000644442 -3.05376e-06
-0.000644442 0.000319541 -1.7146e-06
-3.05376e-06 -1.7146e-06 -5.0493e-05
0.00189849 -0.00039492 -2.38802e-06
-0.00039492 0.00010683 5.08032e-07
-2.38802e-06 5.08032e-07 -4.11117e-05
0.00196381 -0.000356752 -1.15463e-06
-0.000356752 4.98621e-05 8.7604e-07
-1.15463e-06 8.7604e-07 -2.50219e-05
0.00185855 -0.000470208 6.11648e-07
-0.000470208 7.70102e-05 1.4829e-06
6.11648e-07 1.4829e-06 -8.37319e-05
0.00192263 -0.000555208 -2.31253e-06
-0.000555208 0.000246149 -2.90483e-06
-2.31253e-06 -2.90483e-06 -2.06096e-05
0.00202628 -0.00049681 8.51763e-06
-0.00049681 0.000220399 -6.49775e-06
8.51763e-06 -6.49775e-06 3.50912e-05
0.000972874 -0.000329774 -8.18362e-07
-0.000329774 0.000146171 2.29658e-06
-8.18362e-07 2.29658e-06 -0.000131771
0.0012273 -0.000348834 4.86812e-06
-0.000348834 0.000300445 1.15187e-06
4.86812e-06 1.15187e-06 4.52152e-07
0.000674803 -0.00019706 3.28296e-06
-0.00019706 0.000131556 -5.16526e-06
3.28296e-06 -5.16526e-06 -0.000163508
0.000143563 -3.41268e-05 3.10437e-07
-3.41268e-05 -0.000198137 5.25896e-06
3.10437e-07 5.25896e-06 -0.000321615
9.56801e-05 -2.11453e-05 3.46234e-06
-2.11453e-05 -0.000176556 5.98081e-07
3.46234e-06 5.98081e-07 -0.000407132
0.00188966 -7.00913e-05 -1.20648e-07
-7.00913e-05 -1.24067e-05 -1.54153e-07
-1.20648e-07 -1.54153e-07 -3.04484e-05
0.00199833 -0.000175056 1.14513e-06
-0.000175056 3.63449e-05 -1.67786e-07
1.14513e-06 -1.67786e-07 5.8494e-06
0.00205221 -0.000322697 -7.11946e-07
-0.000322697 3.50371e-05 9.01536e-08
-7.11946e-07 9.01536e-08 -6.30901e-06
0.00134427 -0.000430418 -1.75977e-06
-0.000430418 0.000341791 -8.45142e-07
-1.75977e-06 -8.45142e-07 1.4017e-05
0.00140392 -0.000594153 2.91582e-06
-0.000594153 0.000247439 -1.00806e-06
2.91582e-06 -1.00806e-06 -0.000146782
0.00197318 -0.000699084 -5.5484e-09
-0.000699084 0.000360481 -6.58147e-08
-5.5484e-09 -6.58147e-08 -2.15949e-05
0.00196869 -0.000406427 1.76649e-07
-0.000406427 7.85717e-05 2.20415e-07
1.76649e-07 2.20415e-07 -2.0622e-05
0.002048 -0.000567817 1.11438e-06
-0.000567817 0.000273163 -3.53139e-06
1.11438e-06 -3.53139e-06 1.87568e-05
0.00208207 -0.000546069 -1.10502e-06
-0.000546069 0.000170675 -4.34926e-07
-1.10502e-06 -4.34926e-07 -2.9543e-06
0.000127789 4.46966e-05 -1.7364e-06
4.46966e-05 -0.000208998 -7.86261e-07
-1.7364e-06 -7.86261e-07 -0.000298022
0.00124834 -0.000398704 1.34912e-07
-0.000398704 0.000289748 -8.97194e-07
1.34912e-07 -8.97194e-07 -2.93291e-05
0.00139145 -0.000406797 5.46686e-07
-0.000406797 0.000417122 2.1982e-06
5.46686e-07 2.1982e-06 8.55942e-05
0.00132612 -0.00029758 -5.79876e-07
-0.00029758 0.000492577 3.86894e-07
-5.79876e-07 3.86894e-07 0.000172787
0.00129572 -0.000181408 1.22203e-06
-0.000181408 0.000569618 -2.88272e-06
1.22203e-06 -2.88272e-06 0.000302489
0.000467866 -4.45473e-05 -7.97121e-07
-4.45473e-05 5.97491e-05 1.43002e-06
-7.97121e-07 1.43002e-06 -0.000140426
0.00199606 -8.89327e-05 3.02561e-06
-8.89327e-05 5.38005e-06 -9.54952e-08
3.02561e-06 -9.54952e-08 8.95652e-06
0.0021219 -0.000225004 1.02421e-06
-0.000225004 1.00239e-06 -1.18716e-07
1.02421e-06 -1.18716e-07 1.24128e-05
0.00211973 -0.000392674 1.33548e-06
-0.000392674 3.45726e-05 -2.74959e-07
1.33548e-06 -2.74959e-07 1.435e-05
0.00217671 -0.000487999 2.50769e-06
-0.000487999 0.000109765 -2.00823e-06
2.50769e-06 -2.00823e-06 2.55799e-05
0.00158574 -0.000534789 -4.97308e-06
-0.000534789 0.000452833 8.2985e-07
-4.97308e-06 8.2985e-07 8.02906e-05
0.00207279 -0.000620646 3.56367e-06
-0.000620646 0.000206471 -2.758e-06
3.56367e-06 -2.758e-06 -2.07302e-05
0.00180975 -0.000708349 -1.58359e-05
-0.000708349 0.000453344 3.57786e-06
-1.58359e-05 3.57786e-06 1.33688e-05
0.00232392 -0.000765616 -1.04207e-05
-0.000765616 0.000579201 3.94292e-07
-1.04207e-05 3.94292e-07 0.000174977
5.62742e-05 5.5621e-05 -4.89308e-06
5.5621e-05 -0.000258874 -2.58723e-06
-4.89308e-06 -2.58723e-06 -0.000326387
0.000692747 2.75001e-06 -2.0294e-06
2.75001e-06 0.000186964 -1.26906e-06
-2.0294e-06 -1.26906e-06 3.96694e-05
0.0014897 -0.000204919 -4.77465e-06
-0.000204919 0.000714619 1.0106e-06
-4.77465e-06 1.0106e-06 0.000470714
0.000862515 -8.74298e-05 -7.21569e-07
-8.74298e-05 0.000254725 -1.76449e-06
-7.21569e-07 -1.76449e-06 -2.75789e-05
0.00184903 -0.000517932 -4.1392e-06
-0.000517932 0.00063588 3.95932e-06
-4.1392e-06 3.95932e-06 0.000265275
0.00159939 -0.000419439 -1.00597e-05
-0.000419439 0.000595038 1.71109e-05
-1.00597e-05 1.71109e-05 0.000198625
0.00048816 1.8095e-05 -2.00545e-06
1.8095e-05 -4.41068e-06 -4.16067e-06
-2.00545e-06 -4.16067e-06 -8.50588e-05
8.36482e-05 1.93072e-05 1.18732e-06
1.93072e-05 -0.0002335 -1.91178e-06
1.18732e-06 -1.91178e-06 -0.000365342
0.00192609 0.00041702 -2.2295e-06
0.00041702 0.000114747 -9.43779e-07
-2.2295e-06 -9.43779e-07 -5.28571e-05
0.000258287 6.32693e-05 7.40348e-08
6.32693e-05 -9.7125e-05 8.76834e-07
7.40348e-08 8.76834e-07 -0.000338727
0.00142736 0.000360725 -2.81641e-06
0.000360725 0.000429416 -1.40506e-06
-2.81641e-06 -1.40506e-06 0.000172578
-0.00016272 0.00012729 1.29132e-06
0.00012729 -0.000553837 4.05652e-06
1.29132e-06 4.05652e-06 -0.000720037
0.00200977 0.00054801 1.50511e-06
0.00054801 0.000276523 7.58029e-07
1.50511e-06 7.58029e-07 2.0799e-05
0.00197293 0.000523006 -6.3458e-06
0.000523006 0.000161143 2.57098e-07
-6.3458e-06 2.57098e-07 -5.17539e-05
0.00154131 0.000536596 -3.43576e-06
0.000536596 0.000435948 2.41243e-06
-3.43576e-06 2.41243e-06 6.41597e-05
0.00202082 0.000619038 -5.47685e-06
0.000619038 0.000489774 -1.55009e-07
-5.47685e-06 -1.55009e-07 0.000156073
0.000685162 5.31181e-05 -7.85839e-07
5.31181e-05 0.000144027 1.225e-07
-7.85839e-07 1.225e-07 2.22806e-05
0.000405604 5.91571e-05 1.19093e-06
5.91571e-05 3.73039e-05 5.03499e-07
1.19093e-06 5.03499e-07 -0.000186491
0.0013259 0.000393481 -1.96128e-06
0.000393481 0.000343611 -1.33148e-06
-1.96128e-06 -1.33148e-06 5.05495e-05
0.00015636 0.000106679 -2.141e-07
0.000106679 -0.000243888 -2.33416e-06
-2.141e-07 -2.33416e-06 -0.000450088
0.00148703 0.00033184 2.27042e-06
0.00033184 0.000383616 -3.56554e-06
2.27042e-06 -3.56554e-06 0.000166258
0.00209117 0.000463037 -2.90245e-06
0.000463037 0.000124138 -1.15606e-06
-2.90245e-06 -1.15606e-06 -2.1213e-05
0.00222197 0.000609202 2.64668e-06
0.000609202 0.000382648 -3.90889e-07
2.64668e-06 -3.90889e-07 0.000108779
0.0020826 0.000575417 3.03953e-06
0.000575417 0.000197458 2.85857e-06
3.03953e-06 2.85857e-06 -3.6602e-05
0.00132277 0.000527763 3.73193e-06
0.000527763 0.00028247 1.56516e-06
3.73193e-06 1.56516e-06 -9.14709e-05
0.00182544 0.000666676 -4.53975e-06
0.000666676 0.000363342 5.12483e-08
-4.53975e-06 5.12483e-08 5.4145e-06
-0.000408874 8.69299e-06 -1.65504e-06
8.69299e-06 -0.000524016 4.78917e-06
-1.65504e-06 4.78917e-06 -0.000644103
-7.15295e-05 0.000161602 2.46252e-06
0.000161602 -0.000199175 2.83338e-06
2.46252e-06 2.83338e-06 -0.000482939
0.00127278 0.000410446 2.50459e-06
0.000410446 0.0003024 -8.5458e-07
2.50459e-06 -8.5458e-07 -1.14799e-05
-0.000266621 0.000142588 1.85635e-06
0.000142588 -0.000651348 1.42558e-07
1.85635e-06 1.42558e-07 -0.00084348
0.00221445 0.000466549 3.26704e-06
0.000466549 -7.10437e-05 1.68647e-06
3.26704e-06 1.68647e-06 -7.45419e-05
0.0027505 0.000586492 6.1591e-06
0.000586492 0.000528026 4.27682e-07
6.1591e-06 4.27682e-07 0.000334941
0.00209187 0.000685381 -2.2345e-07
0.000685381 0.000332594 -3.55335e-06
-2.2345e-07 -3.55335e-06 2.15633e-06
0.00160122 0.000632304 1.90097e-06
0.000632304 0.000336817 6.19502e-07
1.90097e-06 6.19502e-07 -6.11852e-05
0.000655399 0.000100146 -9.31211e-07
0.000100146 0.000129236 -1.77496e-06
-9.31211e-07 -1.77496e-06 1.18169e-05
0.000569364 8.55731e-05 -5.35893e-07
8.55731e-05 7.17431e-05 -2.72445e-07
-5.35893e-07 -2.72445e-07 -4.75427e-05
0.00106575 8.48743e-05 -5.86973e-06
8.48743e-05 0.000379985 -2.31445e-06
-5.86973e-06 -2.31445e-06 0.000275372
0.000575838 3.92119e-05 -1.39827e-06
3.92119e-05 6.37193e-05 -2.76188e-06
-1.39827e-06 -2.76188e-06 -3.13835e-05
0.000155468 3.41136e-05 -6.75882e-08
3.41136e-05 -0.000185797 -8.80928e-07
-6.75882e-08 -8.80928e-07 -0.000293836
0.000613346 4.79318e-05 -4.76092e-07
4.79318e-05 0.000102231 1.29182e-07
-4.76092e-07 1.29182e-07 -7.06193e-07
0.000543189 0.000117982 -8.18085e-07
0.000117982 8.83524e-05 6.62001e-07
-8.18085e-07 6.62001e-07 -3.38313e-05
0.000507674 4.64367e-05 9.82945e-07
4.64367e-05 5.50539e-05 8.1808e-08
9.82945e-07 8.1808e-08 -7.75421e-05
0.000590011 9.01752e-05 3.36469e-06
9.01752e-05 8.49097e-05 -1.00126e-06
3.36469e-06 -1.00126e-06 -3.02961e-06
0.000768568 5.05458e-06 3.23902e-06
5.05458e-06 0.000215707 -3.81925e-06
3.23902e-06 -3.81925e-06 8.83189e-05
0.000306562 6.47663e-05 3.31371e-07
6.47663e-05 -7.09971e-05 1.92597e-06
3.31371e-07 1.92597e-06 -0.000201192
0.000671573 0.000105265 2.47704e-06
0.000105265 0.000139748 3.37929e-06
2.47704e-06 3.37929e-06 3.25353e-05
0.000478011 7.21472e-05 3.31005e-06
7.21472e-05 8.57045e-06 3.42282e-06
3.31005e-06 3.42282e-06 -6.52426e-05
0.000480878 1.19171e-05 -1.52558e-06
1.19171e-05 2.53013e-06 -2.56388e-07
-1.52558e-06 -2.56388e-07 -6.36696e-05
0.00120526 3.30384e-06 1.40292e-06
3.30384e-06 0.000421367 2.76852e-06
1.40292e-06 2.76852e-06 0.000406159
0.000479364 -4.43844e-05 -1.36376e-07
-4.43844e-05 -3.62869e-06 -3.03855e-06
-1.36376e-07 -3.03855e-06 -6.69221e-05
0.00128975 -8.27456e-06 -5.79877e-06
-8.27456e-06 0.000468521 -1.64291e-06
-5.79877e-06 -1.64291e-06 0.000453712
0.00075975 -1.85756e-05 2.36949e-05
-1.85756e-05 0.000136749 8.9462e-06
2.36949e-05 8.9462e-06 0.000142971
0.0013359 -2.0092e-05 -1.01676e-05
-2.0092e-05 0.000494853 -6.42731e-06
-1.01676e-05 -6.42731e-06 0.000479313
0.000755818 -3.131e-05 8.88405e-06
-3.131e-05 0.000132056 3.35758e-06
8.88405e-06 3.35758e-06 0.00013619
0.000718626 -4.18196e-05 -4.5959e-08
-4.18196e-05 0.00011266 -2.88103e-06
-4.5959e-08 -2.88103e-06 0.000113731
0.000415346 4.10855e-05 -1.19466e-06
4.10855e-05 -6.35381e-05 -3.80384e-06
-1.19466e-06 -3.80384e-06 -8.45803e-05
0.000424493 7.22507e-05 -3.25339e-07
7.22507e-05 -3.13984e-05 2.64394e-07
-3.25339e-07 2.64394e-07 -6.96817e-05
0.00243908 0.000109947 1.16668e-05
0.000109947 0.00121779 -4.57582e-06
1.16668e-05 -4.57582e-06 0.0012177
0.000518955 2.33012e-05 -4.61712e-06
2.33012e-05 2.85184e-05 9.1238e-06
-4.61712e-06 9.1238e-06 -1.94456e-05
0.00296953 0.000147612 -5.51045e-06
0.000147612 0.00155866 -6.58918e-07
-5.51045e-06 -6.58918e-07 0.00154821
0.00375939 8.39627e-05 -0.000123794
8.39627e-05 0.00204584 1.03383e-05
-0.000123794 1.03383e-05 0.00204986
0.00195844 0.000329624 -1.01019e-06
0.000329624 8.84191e-05 9.93256e-07
-1.01019e-06 9.93256e-07 -3.26682e-05
0.0020347 0.000189082 -5.13188e-06
0.000189082 5.06181e-05 -8.75313e-07
-5.13188e-06 -8.75313e-07 1.18606e-05
0.00205026 0.000281415 -3.61955e-07
0.000281415 4.33617e-06 -3.90279e-07
-3.61955e-07 -3.90279e-07 -2.70808e-05
0.00197255 0.000119492 -2.36708e-06
0.000119492 -2.6047e-05 -5.82233e-07
-2.36708e-06 -5.82233e-07 -2.08672e-05
0.00198494 5.20644e-05 -5.21161e-06
5.20644e-05 6.20818e-05 -4.82948e-07
-5.21161e-06 -4.82948e-07 3.52745e-05
0.00192432 -7.64265e-06 -4.44473e-06
-7.64265e-06 5.83759e-05 6.55136e-07
-4.44473e-06 6.55136e-07 6.18855e-06
0.0019234 -8.17786e-06 -2.17978e-07
-8.17786e-06 2.51698e-05 -7.11164e-08
-2.17978e-07 -7.11164e-08 1.35719e-06
0.00200849 5.8958e-05 1.11568e-06
5.8958e-05 3.746e-06 1.86104e-07
1.11568e-06 1.86104e-07 1.02539e-05
0.00207764 0.000192555 1.03575e-06
0.000192555 5.87182e-06 2.18229e-07
1.03575e-06 2.18229e-07 4.59723e-06
0.00211603 0.000361369 6.61547e-07
0.000361369 5.45843e-05 2.57709e-07
6.61547e-07 2.57709e-07 -1.00243e-05
0.00198944 -1.42151e-05 1.36319e-06
-1.42151e-05 1.57766e-06 -8.89659e-08
1.36319e-06 -8.89659e-08 3.95614e-06
0.00213475 0.000109426 -3.71573e-09
0.000109426 -2.96296e-05 -3.44976e-07
-3.71573e-09 -3.44976e-07 1.35067e-05
0.00228652 0.000293735 2.12847e-06
0.000293735 3.27875e-05 8.90209e-07
2.12847e-06 8.90209e-07 3.75845e-05
0.00188826 -7.80867e-05 -5.23799e-06
-7.80867e-05 -1.74288e-05 4.92984e-07
-5.23799e-06 4.92984e-07 -3.67076e-05
0.00201154 -0.000175344 -3.4304e-06
-0.000175344 4.3232e-05 3.77945e-07
-3.4304e-06 3.77945e-07 1.20364e-05
0.00203793 -0.000316647 -2.96539e-06
-0.000316647 4.17063e-05 5.77128e-07
-2.96539e-06 5.77128e-07 -3.86744e-06
0.00117938 -0.000413696 -5.22394e-06
-0.000413696 0.000235261 1.30045e-06
-5.22394e-06 1.30045e-06 -8.80232e-05
0.00147359 -0.000584288 9.62859e-06
-0.000584288 0.000293358 -3.89215e-06
9.62859e-06 -3.89215e-06 -9.43056e-05
0.00181618 -0.000686061 -3.55474e-06
-0.000686061 0.000281831 5.94557e-07
-3.55474e-06 5.94557e-07 -0.000100896
0.00193242 -0.000402532 -1.88284e-06
-0.000402532 5.60402e-05 1.16495e-06
-1.88284e-06 1.16495e-06 -4.45478e-05
0.00197695 -0.000526263 1.76229e-06
-0.000526263 0.000141515 1.74758e-06
1.76229e-06 1.74758e-06 -2.79475e-05
0.00214088 -0.000590143 6.68563e-06
-0.000590143 0.000318238 -7.05091e-06
6.68563e-06 -7.05091e-06 6.45669e-05
0.0011773 -0.000387353 8.95813e-08
-0.000387353 0.0002497 1.37403e-06
8.95813e-08 1.37403e-06 -6.52281e-05
0.000884057 -0.000352901 -5.1087e-06
-0.000352901 0.000115255 -4.11922e-06
-5.1087e-06 -4.11922e-06 -0.000199572
0.00223071 -0.000425671 5.65678e-07
-0.000425671 0.00108221 -4.16495e-06
5.65678e-07 -4.16495e-06 0.000726477
0.000332978 4.62088e-05 2.99517e-06
4.62088e-05 -8.47543e-05 1.9849e-06
2.99517e-06 1.9849e-06 -0.000170842
0.00123579 -0.000189774 3.33483e-06
-0.000189774 0.0005107 3.26787e-06
3.33483e-06 3.26787e-06 0.000263241
6.51028e-06 2.77394e-05 5.38131e-06
2.77394e-05 -0.00023688 1.45935e-06
5.38131e-06 1.45935e-06 -0.000425862
0.00201059 -8.77309e-05 -5.02137e-07
-8.77309e-05 1.37857e-05 1.29763e-07
-5.02137e-07 1.29763e-07 1.53576e-05
0.00209104 -0.000231507 1.10291e-07
-0.000231507 -2.0732e-05 -7.68098e-08
1.10291e-07 -7.68098e-08 -7.95731e-06
0.00210333 -0.000386369 -6.7509e-07
-0.000386369 3.16895e-05 2.75393e-07
-6.7509e-07 2.75393e-07 7.9719e-06
0.00147695 -0.000517019 -1.17933e-06
-0.000517019 0.000397752 3.19393e-07
-1.17933e-06 3.19393e-07 3.03778e-05
0.00132517 -0.000647845 2.85277e-06
-0.000647845 0.000175079 -1.59516e-06
2.85277e-06 -1.59516e-06 -0.000250422
0.00233356 -0.00075716 -4.93221e-06
-0.00075716 0.000576563 1.62338e-07
-4.93221e-06 1.62338e-07 0.00018549
0.00211908 -0.000493921 5.93347e-07
-0.000493921 7.74937e-05 -5.24153e-07
5.93347e-07 -5.24153e-07 -1.27325e-05
0.00198778 -0.00060599 1.65898e-06
-0.00060599 0.000164781 -2.34989e-06
1.65898e-06 -2.34989e-06 -5.68741e-05
0.000314147 5.91475e-05 -1.29292e-06
5.91475e-05 -0.000101635 -1.15911e-06
-1.29292e-06 -1.15911e-06 -0.000164937
0.000649308 -1.72931e-05 -8.8264e-07
-1.72931e-05 0.000154948 3.39335e-07
-8.8264e-07 3.39335e-07 1.17389e-05
0.00087853 -0.000412098 -4.61431e-06
-0.000412098 4.7532e-05 2.4016e-06
-4.61431e-06 2.4016e-06 -0.000292596
0.00158583 -0.000389917 1.52297e-06
-0.000389917 0.000616339 -6.91849e-07
1.52297e-06 -6.91849e-07 0.000221574
0.00141917 -0.000167688 -2.72168e-07
-0.000167688 0.000602901 -2.48686e-06
-2.72168e-07 -2.48686e-06 0.000314383
0.000852458 -0.000147049 -5.03575e-07
-0.000147049 0.000312992 1.14842e-06
-5.03575e-07 1.14842e-06 7.68482e-05
0.00208493 -0.000120229 -1.14112e-06
-0.000120229 -3.45384e-05 2.93527e-07
-1.14112e-06 2.93527e-07 4.79815e-06
0.00221511 -0.000331418 -1.63102e-06
-0.000331418 -5.10196e-05 9.23758e-07
-1.63102e-06 9.23758e-07 5.43428e-06
0.00219301 -0.00045815 2.34731e-06
-0.00045815 4.26554e-05 1.34267e-07
2.34731e-06 1.34267e-07 2.89398e-05
0.00242613 -0.000659321 8.52614e-06
-0.000659321 0.000255807 -2.34337e-06
8.52614e-06 -2.34337e-06 0.000104493
0.000577112 -0.000466663 1.09717e-06
-0.000466663 -0.000144884 -6.15465e-06
1.09717e-06 -6.15465e-06 -0.000523968
0.00246018 -0.000812246 2.61042e-06
-0.000812246 0.000567805 9.16578e-06
2.61042e-06 9.16578e-06 0.000199096
0.00229109 -0.000819322 -1.79424e-05
-0.000819322 0.000683262 -3.38697e-06
-1.79424e-05 -3.38697e-06 0.000199413
0.000566991 4.73556e-05 1.01682e-07
4.73556e-05 3.78554e-05 -4.43616e-07
1.01682e-07 -4.43616e-07 -9.79435e-06
0.000679322 -0.000137219 4.13246e-06
-0.000137219 0.000158717 -1.6401e-06
4.13246e-06 -1.6401e-06 5.78466e-05
0.00023485 6.98545e-05 -6.84555e-06
6.98545e-05 -0.000114999 -3.56605e-07
-6.84555e-06 -3.56605e-07 -0.000216619
0.000777774 -4.97377e-05 -3.4828e-06
-4.97377e-05 0.000259322 3.01394e-06
-3.4828e-06 3.01394e-06 6.60661e-05
0.000242835 -9.71501e-05 2.41971e-06
-9.71501e-05 -0.000109019 -4.72653e-06
2.41971e-06 -4.72653e-06 -0.000341123
-0.000647169 -4.78804e-05 2.98268e-06
-4.78804e-05 -0.000636783 -1.30748e-06
2.98268e-06 -1.30748e-06 -0.000990741
0.0015009 -0.000506381 -2.1862e-05
-0.000506381 0.000425115 1.47735e-05
-2.1862e-05 1.47735e-05 7.21518e-05
0.00280548 -0.000516024 -2.3622e-05
-0.000516024 0.00149645 1.31309e-05
-2.3622e-05 1.31309e-05 0.000905249
0.000588498 2.07115e-05 -5.91486e-07
2.07115e-05 7.71905e-05 -1.82866e-06
-5.91486e-07 -1.82866e-06 -3.55654e-05
0.000762686 0.00015648 -6.66541e-07
0.00015648 0.000255337 -1.01332e-07
-6.66541e-07 -1.01332e-07 2.2664e-05
0.0022491 0.000475373 -2.86454e-06
0.000475373 0.000210359 -1.43397e-06
-2.86454e-06 -1.43397e-06 6.6532e-05
0.000527136 0.000173657 -4.52151e-06
0.000173657 1.14389e-06 2.65279e-06
-4.52151e-06 2.65279e-06 -0.000224049
0.00120368 0.000378924 -2.90308e-06
0.000378924 0.000266537 1.40264e-07
-2.90308e-06 1.40264e-07 -2.39456e-05
0.00104343 0.000289993 -5.63475e-06
0.000289993 0.000101174 -8.52458e-06
-5.63475e-06 -8.52458e-06 -0.000108071
0.00232433 0.000605524 -5.87826e-06
0.000605524 0.000450909 -5.8025e-07
-5.87826e-06 -5.8025e-07 0.00018373
0.00227267 0.000598392 -1.02434e-05
0.000598392 0.000301339 4.80092e-06
-1.02434e-05 4.80092e-06 6.25899e-05
0.00162646 0.000568931 -3.00285e-06
0.000568931 0.000466399 6.47154e-07
-3.00285e-06 6.47154e-07 8.35781e-05
0.00161503 0.000664718 -2.66866e-06
0.000664718 0.000237339 -6.80428e-07
-2.66866e-06 -6.80428e-07 -0.000128253
-2.4487e-05 4.97438e-05 1.92951e-07
4.97438e-05 -0.000281354 1.42364e-06
1.92951e-07 1.42364e-06 -0.000414797
0.000176275 0.000190784 -6.438e-07
0.000190784 -5.22238e-05 -3.3446e-06
-6.438e-07 -3.3446e-06 -0.00033369
0.00153557 0.000449475 1.33158e-06
0.000449475 0.000448862 -3.51155e-07
1.33158e-06 -3.51155e-07 0.000125662
0.00100312 0.000268519 -1.6578e-06
0.000268519 0.000142158 1.81408e-06
-1.6578e-06 1.81408e-06 -7.27473e-05
0.00226223 0.00045177 7.3193e-07
0.00045177 -5.48537e-05 -8.21358e-07
7.3193e-07 -8.21358e-07 -5.45771e-05
0.0025388 0.000581622 3.31057e-06
0.000581622 0.000406209 4.09799e-07
3.31057e-06 4.09799e-07 0.000208324
0.00199873 0.000664156 -6.94185e-07
0.000664156 0.000286101 4.02728e-07
-6.94185e-07 4.02728e-07 -3.66706e-05
0.00170763 0.000641648 7.72223e-07
0.000641648 0.000382189 3.36517e-07
7.72223e-07 3.36517e-07 -1.21987e-05
-0.000140747 4.68763e-05 -9.27092e-07
4.68763e-05 -0.00035847 4.65959e-06
-9.27092e-07 4.65959e-06 -0.000500062
0.00218994 0.000353319 8.22003e-06
0.000353319 -0.000153077 3.34728e-06
8.22003e-06 3.34728e-06 -9.00002e-05
0.00228238 0.000440874 7.2313e-06
0.000440874 0.0011823 8.27093e-06
7.2313e-06 8.27093e-06 0.000868833
0.00126746 0.000440056 1.54366e-06
0.000440056 0.000232801 -7.36463e-07
1.54366e-06 -7.36463e-07 -6.92157e-05
0.00260149 0.00056533 -1.62096e-05
0.00056533 0.000289239 -7.93663e-06
-1.62096e-05 -7.93663e-06 0.000197292
0.00115028 0.000619988 -4.10021e-06
0.000619988 -0.000299302 -8.22465e-06
-4.10021e-06 -8.22465e-06 -0.00060415
0.00240491 0.000743872 8.0325e-08
0.000743872 0.000727259 3.69624e-06
8.0325e-08 3.69624e-06 0.000306099
0.000804064 0.00010413 -1.33219e-06
0.00010413 0.000216163 -1.72752e-06
-1.33219e-06 -1.72752e-06 9.58748e-05
0.000648752 9.85193e-05 -2.93493e-06
9.85193e-05 0.000134787 -1.01228e-06
-2.93493e-06 -1.01228e-06 2.40592e-05
0.00162796 0.000107218 -3.23502e-06
0.000107218 0.000745961 -2.32571e-06
-3.23502e-06 -2.32571e-06 0.000658978
0.000522527 5.84046e-06 1.82587e-07
5.84046e-06 4.85811e-05 -3.40488e-06
1.82587e-07 -3.40488e-06 -5.56277e-05
0.000704971 7.99751e-05 1.81634e-06
7.99751e-05 0.000181252 -6.49616e-07
1.81634e-06 -6.49616e-07 4.43012e-05
-3.47735e-05 6.18485e-05 -1.57894e-06
6.18485e-05 -0.000251176 3.83403e-06
-1.57894e-06 3.83403e-06 -0.00036405
0.000565336 1.96824e-05 -1.25836e-06
1.96824e-05 8.10343e-05 8.69089e-09
-1.25836e-06 8.69089e-09 -2.98514e-05
0.000331028 -1.56226e-05 -9.55618e-07
-1.56226e-05 -4.26762e-05 -6.51503e-09
-9.55618e-07 -6.51503e-09 -0.000179073
0.000119382 3.99652e-05 6.95055e-07
3.99652e-05 -0.000188243 6.48834e-07
6.95055e-07 6.48834e-07 -0.000266676
0.00078736 8.09566e-05 8.71301e-07
8.09566e-05 0.000240771 -9.87065e-07
8.71301e-07 -9.87065e-07 0.000100939
0.00155899 0.000112923 -4.77634e-08
0.000112923 0.000670242 -2.18466e-06
-4.77634e-08 -2.18466e-06 0.000616766
0.000497827 1.42921e-05 9.13428e-06
1.42921e-05 3.78475e-05 -4.12205e-06
9.13428e-06 -4.12205e-06 -5.11231e-05
0.000302346 9.132e-05 4.10526e-07
9.132e-05 -5.22504e-05 2.21968e-06
4.10526e-07 2.21968e-06 -0.000199879
0.000603049 4.56484e-05 2.15701e-06
4.56484e-05 0.00012442 3.11258e-06
2.15701e-06 3.11258e-06 -2.8199e-05
0.000589706 3.52503e-05 2.75376e-06
3.52503e-05 8.89616e-05 3.13795e-06
2.75376e-06 3.13795e-06 -2.34958e-05
0.000483616 -5.22607e-05 -2.27419e-07
-5.22607e-05 1.08223e-05 3.2324e-06
-2.27419e-07 3.2324e-06 -6.45411e-05
0.000504383 7.34199e-06 5.48113e-08
7.34199e-06 1.81389e-05 -2.97458e-07
5.48113e-08 -2.97458e-07 -5.06335e-05
0.00128241 2.21562e-05 2.75115e-06
2.21562e-05 0.000477293 2.89772e-06
2.75115e-06 2.89772e-06 0.000459603
0.000506917 -3.93561e-06 9.97329e-09
-3.93561e-06 1.12378e-05 -3.19732e-06
9.97329e-09 -3.19732e-06 -4.98907e-05
0.00129666 7.49467e-06 -5.21487e-06
7.49467e-06 0.00047844 -1.66641e-06
-5.21487e-06 -1.66641e-06 0.000463014
0.000747995 -1.05959e-05 1.88392e-05
-1.05959e-05 0.000133372 8.7295e-06
1.88392e-05 8.7295e-06 0.000139583
0.00134345 -1.00981e-05 -7.74555e-06
-1.00981e-05 0.000501867 -6.38678e-06
-7.74555e-06 -6.38678e-06 0.000487224
0.000776833 -2.19295e-05 6.66759e-06
-2.19295e-05 0.000144722 3.42223e-06
6.66759e-06 3.42223e-06 0.000149986
0.000749728 -3.21258e-05 -5.50596e-09
-3.21258e-05 0.000126326 -2.71862e-06
-5.50596e-09 -2.71862e-06 0.000130112
0.000646111 -5.51987e-06 1.58738e-06
-5.51987e-06 8.28043e-05 -1.66402e-06
1.58738e-06 -1.66402e-06 3.72397e-05
0.000447843 2.84202e-05 1.90425e-08
2.84202e-05 -5.47026e-05 -3.50996e-06
1.90425e-08 -3.50996e-06 -6.95264e-05
0.000457603 4.49797e-05 4.17048e-07
4.49797e-05 -3.51066e-05 2.48259e-07
4.17048e-07 2.48259e-07 -5.75343e-05
0.00221536 8.56054e-05 1.38499e-05
8.56054e-05 0.00106755 -4.24009e-06
1.38499e-05 -4.24009e-06 0.00107418
0.000493177 6.71096e-05 5.803e-06
6.71096e-05 7.67001e-06 7.26168e-06
5.803e-06 7.26168e-06 -2.95889e-05
0.00260571 0.000117864 -5.44754e-06
0.000117864 0.00132279 -5.65511e-07
-5.44754e-06 -5.65511e-07 0.0013208
0.00315042 0.000120141 -4.09001e-05
0.000120141 0.00166312 5.26282e-06
-4.09001e-05 5.26282e-06 0.00165857
0.00212552 0.000354966 -5.3076e-08
0.000354966 5.18983e-05 -3.55405e-07
-5.3076e-08 -3.55405e-07 -1.23238e-05
0.00207545 0.000197816 -2.01276e-06
0.000197816 7.92231e-06 -5.41459e-07
-2.01276e-06 -5.41459e-07 6.49979e-06
0.00201318 6.27342e-05 -2.24057e-06
6.27342e-05 1.25634e-05 -1.897e-07
-2.24057e-06 -1.897e-07 1.72112e-05
0.00192531 -5.96962e-06 -5.1793e-06
-5.96962e-06 2.67666e-05 -5.91814e-08
-5.1793e-06 -5.91814e-08 4.01107e-06
0.00198296 -9.24658e-06 -9.27745e-07
-9.24658e-06 -4.87472e-06 -1.2395e-08
-9.27745e-07 -1.2395e-08 3.11437e-07
0.00211262 0.00010234 -7.11093e-08
0.00010234 -3.39295e-05 1.4275e-07
-7.11093e-08 1.4275e-07 6.37029e-06
0.0022194 0.000299522 -1.14747e-06
0.000299522 1.37369e-07 2.80818e-08
-1.14747e-06 2.80818e-08 5.88287e-06
0.00209086 -1.05244e-05 -1.11657e-06
-1.05244e-05 -4.99542e-05 -3.53493e-07
-1.11657e-06 -3.53493e-07 5.0424e-07
0.00229675 0.000155428 4.86382e-06
0.000155428 -4.0423e-05 -6.25027e-07
4.86382e-06 -6.25027e-07 1.10993e-05
0.00245338 0.000106073 7.66209e-06
0.000106073 0.000134253 1.24865e-05
7.66209e-06 1.24865e-05 0.000205776
0.00202304 -8.68758e-05 -2.73719e-06
-8.68758e-05 2.11661e-05 2.16612e-07
-2.73719e-06 2.16612e-07 2.0634e-05
0.00206584 -0.000239441 -1.38327e-06
-0.000239441 -3.97926e-05 4.45161e-08
-1.38327e-06 4.45161e-08 -2.57457e-05
0.00209022 -0.000379714 -1.08406e-06
-0.000379714 3.05505e-05 -1.44258e-07
-1.08406e-06 -1.44258e-07 4.31276e-06
0.00137701 -0.000507739 1.72077e-06
-0.000507739 0.000334895 -2.98755e-07
1.72077e-06 -2.98755e-07 -3.10933e-05
0.00168358 -0.000682157 9.75774e-06
-0.000682157 0.000384242 1.53244e-07
9.75774e-06 1.53244e-07 -4.76391e-05
0.00195862 -0.000700951 1.44829e-06
-0.000700951 0.000369371 -6.88724e-07
1.44829e-06 -6.88724e-07 -8.67909e-07
0.00204254 -0.000497751 -6.4383e-07
-0.000497751 3.47458e-05 2.36036e-06
-6.4383e-07 2.36036e-06 -6.09308e-05
0.00193986 -0.000594494 -4.137e-06
-0.000594494 0.000148027 -6.33539e-07
-4.137e-06 -6.33539e-07 -6.92947e-05
0.000650697 -0.000383395 -3.40777e-06
-0.000383395 -8.81796e-05 -7.37665e-06
-3.40777e-06 -7.37665e-06 -0.000422372
0.00195766 -0.000404 1.65789e-05
-0.000404 0.000892161 -1.07314e-05
1.65789e-05 -1.07314e-05 0.000479734
0.00124121 -0.000102451 -8.20475e-07
-0.000102451 0.000466559 2.82207e-06
-8.20475e-07 2.82207e-06 0.000200913
0.000456444 1.68296e-05 2.40174e-06
1.68296e-05 -1.47284e-05 6.76995e-07
2.40174e-06 6.76995e-07 -7.38985e-05
0.00080041 4.00452e-05 5.82937e-06
4.00452e-05 0.000246079 1.71287e-06
5.82937e-06 1.71287e-06 0.0001024
0.000502346 -9.94719e-05 9.01767e-07
-9.94719e-05 8.82542e-05 4.73008e-06
9.01767e-07 4.73008e-06 -0.000144716
0.00209297 -0.000123054 5.8679e-07
-0.000123054 -3.79144e-05 -4.96495e-08
5.8679e-07 -4.96495e-08 3.62993e-06
0.000505498 1.18364e-05 1.56769e-06
1.18364e-05 2.0681e-07 2.72603e-07
1.56769e-06 2.72603e-07 -4.72872e-05
0.000424808 -6.95211e-05 -2.08536e-06
-6.95211e-05 -2.79368e-05 -4.89149e-07
-2.08536e-06 -4.89149e-07 -0.000110294
0.00219783 -0.000321091 -2.28914e-07
-0.000321091 -4.05523e-05 1.79217e-07
-2.28914e-07 1.79217e-07 8.42256e-06
0.00213735 -0.000448295 -1.63699e-06
-0.000448295 1.3849e-05 1.54045e-07
-1.63699e-06 1.54045e-07 7.223e-06
0.0017925 -0.000611838 -1.64031e-06
-0.000611838 0.00055503 1.39968e-06
-1.64031e-06 1.39968e-06 0.000143286
0.00185266 -0.000764365 4.152e-06
-0.000764365 0.000457242 1.20109e-06
4.152e-06 1.20109e-06 -2.21094e-05
0.00187912 -0.000747303 3.92604e-06
-0.000747303 0.00023615 -4.22679e-06
3.92604e-06 -4.22679e-06 -0.000116252
0.00219772 -0.000638618 2.94735e-06
-0.000638618 0.000131533 -1.1657e-06
2.94735e-06 -1.1657e-06 -1.33348e-05
0.000633107 3.35759e-06 -4.75652e-07
3.35759e-06 0.000143579 -1.1628e-06
-4.75652e-07 -1.1628e-06 3.64529e-05
0.000748809 -4.10429e-05 6.83965e-07
-4.10429e-05 0.00024244 1.88805e-06
6.83965e-07 1.88805e-06 4.83325e-05
0.00159815 -0.000502498 3.96255e-06
-0.000502498 0.000494803 1.9734e-06
3.96255e-06 1.9734e-06 0.00012941
0.00125521 -0.000358971 1.25793e-05
-0.000358971 0.000542789 -5.6739e-06
1.25793e-05 -5.6739e-06 3.60748e-05
0.000703945 -9.31361e-05 -2.51671e-06
-9.31361e-05 0.000132041 -1.10162e-06
-2.51671e-06 -1.10162e-06 -0.000181533
0.000471229 -6.94544e-05 9.39577e-07
-6.94544e-05 4.27034e-05 -1.94243e-06
9.39577e-07 -1.94243e-06 -0.000201101
0.00212054 -0.00014271 1.87806e-06
-0.00014271 -0.000142798 -1.10648e-06
1.87806e-06 -1.10648e-06 -8.5786e-05
0.00218789 -0.000410764 -1.53422e-06
-0.000410764 -0.000184943 2.76277e-06
-1.53422e-06 2.76277e-06 -8.97949e-06
0.00234452 -0.000612492 -3.75677e-06
-0.000612492 7.63131e-05 1.48167e-06
-3.75677e-06 1.48167e-06 3.60481e-05
0.00233794 -0.000826457 1.01991e-05
-0.000826457 0.000296529 -3.25791e-06
1.01991e-05 -3.25791e-06 7.75402e-05
0.00119572 -0.00057866 4.9501e-07
-0.00057866 0.000249004 -1.44474e-05
4.9501e-07 -1.44474e-05 -0.000174011
0.00261422 -0.000931478 -7.97614e-06
-0.000931478 0.000798357 1.1673e-05
-7.97614e-06 1.1673e-05 0.00028318
0.000173587 4.74481e-05 -2.1058e-06
4.74481e-05 -0.000173455 -4.39213e-06
-2.1058e-06 -4.39213e-06 -0.000263986
0.000574874 -5.07592e-05 4.59257e-06
-5.07592e-05 6.8864e-05 3.43076e-07
4.59257e-06 3.43076e-07 -9.43982e-06
0.00111835 -0.000143933 -6.10301e-07
-0.000143933 0.000388596 8.84669e-06
-6.10301e-07 8.84669e-06 0.000282255
0.000518433 2.28222e-05 -3.86703e-06
2.28222e-05 7.92303e-05 4.57843e-06
-3.86703e-06 4.57843e-06 -7.3965e-05
0.000768374 -9.20393e-05 -3.84041e-06
-9.20393e-05 0.000231353 7.20588e-06
-3.84041e-06 7.20588e-06 2.93361e-05
0.00108352 -4.61976e-05 7.34303e-06
-4.61976e-05 0.000328574 -6.63446e-06
7.34303e-06 -6.63446e-06 9.69369e-05
-0.00113692 -0.000207899 3.05525e-06
-0.000207899 -0.000601675 -1.19296e-07
3.05525e-06 -1.19296e-07 -0.00132149
-0.000122932 -0.000466343 -4.2017e-05
-0.000466343 -0.000577065 1.31048e-05
-4.2017e-05 1.31048e-05 -0.000912257
0.000508892 6.03666e-05 -8.10994e-07
6.03666e-05 6.00068e-05 -1.5752e-06
-8.10994e-07 -1.5752e-06 -9.42811e-05
0.000914598 0.000225786 -1.00991e-05
0.000225786 0.000382261 -6.30681e-06
-1.00991e-05 -6.30681e-06 0.000107771
0.00230102 0.000436749 -7.34072e-06
0.000436749 -3.63335e-05 -2.99271e-06
-7.34072e-06 -2.99271e-06 -3.43294e-05
0.00239939 0.000580632 -6.62811e-06
0.000580632 0.000328982 3.42373e-08
-6.62811e-06 3.42373e-08 0.000125739
0.00230967 0.000376378 -7.21786e-06
0.000376378 0.000936339 -1.39977e-06
-7.21786e-06 -1.39977e-06 0.000709452
0.00162162 0.000465937 -4.49561e-06
0.000465937 0.00049225 -4.4051e-06
-4.49561e-06 -4.4051e-06 0.000163839
0.00202366 0.000656112 -1.80048e-06
0.000656112 0.000302514 1.6372e-06
-1.80048e-06 1.6372e-06 -1.54769e-05
0.00183818 0.000650945 -3.07589e-06
0.000650945 0.000443854 -1.46368e-06
-3.07589e-06 -1.46368e-06 5.25783e-05
0.000455158 9.25555e-05 9.11602e-07
9.25555e-05 2.86961e-05 -1.23497e-06
9.11602e-07 -1.23497e-06 -0.000140054
0.00234206 0.000336933 -2.25144e-06
0.000336933 -5.8592e-05 -1.55595e-06
-2.25144e-06 -1.55595e-06 8.87329e-06
0.00140945 0.000303037 1.15231e-06
0.000303037 0.00061933 1.85768e-06
1.15231e-06 1.85768e-06 0.000344825
0.00154091 0.000466311 2.46699e-06
0.000466311 0.000421313 1.0507e-06
2.46699e-06 1.0507e-06 0.000108084
0.00255375 0.000561235 1.71758e-06
0.000561235 0.000271944 4.36659e-07
1.71758e-06 4.36659e-07 0.000180907
0.00162138 0.000656957 -1.71094e-06
0.000656957 -2.28978e-05 -4.63042e-06
-1.71094e-06 -4.63042e-06 -0.000330754
0.00206321 0.000700137 4.84574e-07
0.000700137 0.000540246 5.19034e-07
4.84574e-07 5.19034e-07 0.000126398
0.00112968 0.000238291 -3.467e-06
0.000238291 0.000495781 4.38279e-06
-3.467e-06 4.38279e-06 0.000267929
0.0032857 0.000464683 -7.6045e-05
0.000464683 0.00052571 -2.08187e-05
-7.6045e-05 -2.08187e-05 0.000628855
0.00159929 0.000460474 -4.07562e-06
0.000460474 0.000645188 3.48747e-06
-4.07562e-06 3.48747e-06 0.000336208
0.00147855 0.000537908 -1.61935e-06
0.000537908 0.000305998 -4.73378e-06
-1.61935e-06 -4.73378e-06 -6.61935e-05
0.00188916 0.000701093 -3.20066e-05
0.000701093 -8.95564e-06 -1.90604e-05
-3.20066e-05 -1.90604e-05 -0.000214938
0.00107923 0.000617151 -2.3057e-05
0.000617151 -6.96257e-05 -2.18243e-06
-2.3057e-05 -2.18243e-06 -0.00045361
0.000415687 0.00068813 2.51965e-05
0.00068813 -0.00150824 -3.88414e-05
2.51965e-05 -3.88414e-05 -0.00132802
0.000134957 0.000111759 2.20625e-06
0.000111759 -0.000159929 -7.93725e-07
2.20625e-06 -7.93725e-07 -0.000278216
0.000543701 0.000111033 -5.69153e-07
0.000111033 0.000121707 9.47401e-07
-5.69153e-07 9.47401e-07 2.6334e-05
0.00205466 0.000160793 2.06162e-06
0.000160793 0.000999747 -2.71775e-06
2.06162e-06 -2.71775e-06 0.000915453
0.000454703 -6.37957e-05 3.26903e-07
-6.37957e-05 2.16814e-05 -3.91781e-06
3.26903e-07 -3.91781e-06 -9.29263e-05
0.000478837 -4.40226e-05 -9.60913e-07
-4.40226e-05 4.67486e-05 -9.13718e-07
-9.60913e-07 -9.13718e-07 -8.70851e-05
0.000970472 0.000172509 -7.98805e-08
0.000172509 0.00035862 8.32388e-07
-7.98805e-08 8.32388e-07 0.000207054
-0.000160924 1.46497e-05 -4.98534e-06
1.46497e-05 -0.000341791 1.09182e-05
-4.98534e-06 1.09182e-05 -0.00041883
0.000545041 -1.48147e-05 -3.91793e-07
-1.48147e-05 7.73487e-05 -7.78552e-08
-3.91793e-07 -7.78552e-08 -4.37311e-05
0.000499321 6.36301e-05 1.21463e-07
6.36301e-05 4.14111e-05 -6.543e-07
1.21463e-07 -6.543e-07 -9.57997e-05
0.000932907 9.11649e-05 2.74859e-06
9.11649e-05 0.000284151 4.32074e-06
2.74859e-06 4.32074e-06 0.000226552
0.000571505 5.87369e-05 1.5056e-06
5.87369e-05 9.80836e-05 8.22396e-07
1.5056e-06 8.22396e-07 -4.24556e-05
0.000674545 3.97549e-05 -1.58357e-06
3.97549e-05 0.000139271 -2.01874e-06
-1.58357e-06 -2.01874e-06 4.2868e-05
0.00165055 0.000119223 -1.28418e-06
0.000119223 0.000740595 -9.77514e-06
-1.28418e-06 -9.77514e-06 0.000687809
0.000869484 0.000123562 -2.23558e-06
0.000123562 0.000252399 -1.90928e-06
-2.23558e-06 -1.90928e-06 0.000108571
0.00094194 0.000123601 1.40716e-06
0.000123601 0.000317119 1.31469e-06
1.40716e-06 1.31469e-06 0.000169186
0.000864504 8.32138e-05 4.88467e-07
8.32138e-05 0.000288001 1.81759e-06
4.88467e-07 1.81759e-06 0.000121804
0.000318354 -2.46716e-05 1.49357e-07
-2.46716e-05 -8.09506e-05 3.31903e-06
1.49357e-07 3.31903e-06 -0.000199896
0.000993174 -5.81184e-05 -1.51974e-07
-5.81184e-05 0.000400562 -1.15749e-06
-1.51974e-07 -1.15749e-06 0.000226712
0.000239241 -3.75415e-05 -1.80921e-06
-3.75415e-05 -0.000126489 2.94652e-06
-1.80921e-06 2.94652e-06 -0.000249938
0.00047311 3.55286e-06 -1.98586e-06
3.55286e-06 9.28744e-06 3.33372e-06
-1.98586e-06 3.33372e-06 -7.10967e-05
0.000491059 3.59933e-05 2.39514e-06
3.59933e-05 1.78722e-05 -1.46098e-07
2.39514e-06 -1.46098e-07 -5.98794e-05
0.000399574 2.15737e-05 4.87938e-07
2.15737e-05 -6.55848e-05 4.39886e-06
4.87938e-07 4.39886e-06 -8.79684e-05
0.000457654 6.97496e-06 -3.05337e-06
6.97496e-06 -3.9765e-06 -3.50324e-06
-3.05337e-06 -3.50324e-06 -7.73309e-05
0.000888555 1.60357e-05 -3.22218e-06
1.60357e-05 0.000232364 -1.57171e-06
-3.22218e-06 -1.57171e-06 0.000213114
0.00258157 -7.10328e-06 1.64932e-05
-7.10328e-06 0.00127609 5.44131e-06
1.64932e-05 5.44131e-06 0.00128928
0.00138347 1.5309e-05 -8.3207e-06
1.5309e-05 0.000533169 -6.3896e-06
-8.3207e-06 -6.3896e-06 0.000517222
0.000771401 -1.22122e-05 5.52267e-06
-1.22122e-05 0.000144588 3.36293e-06
5.52267e-06 3.36293e-06 0.000150445
0.000785382 -2.2323e-05 4.90978e-07
-2.2323e-05 0.000147089 -2.58954e-06
4.90978e-07 -2.58954e-06 0.000152239
0.00051301 1.46406e-05 -1.93323e-06
1.46406e-05 7.41572e-06 -2.29406e-06
-1.93323e-06 -2.29406e-06 -3.89969e-05
0.000561023 -1.91531e-05 8.90517e-07
-1.91531e-05 3.25229e-05 -3.20388e-07
8.90517e-07 -3.20388e-07 -1.42147e-05
0.000516187 2.29443e-05 1.66267e-07
2.29443e-05 -1.64293e-05 -3.52387e-06
1.66267e-07 -3.52387e-06 -2.87432e-05
0.000802098 3.73234e-05 -1.66362e-07
3.73234e-05 0.00016787 9.28779e-08
-1.66362e-07 9.28779e-08 0.000154267
0.00213311 6.75762e-05 1.08214e-05
6.75762e-05 0.00100817 -4.34283e-06
1.08214e-05 -4.34283e-06 0.00101891
0.000500683 5.26509e-05 4.16929e-06
5.26509e-05 -4.42657e-06 5.07811e-06
4.16929e-06 5.07811e-06 -2.94292e-05
0.00231997 9.16043e-05 -2.91046e-06
9.16043e-05 0.00113419 -2.67785e-07
-2.91046e-06 -2.67785e-07 0.0011393
0.0027135 0.00012466 -3.02072e-06
0.00012466 0.00139102 6.06837e-06
-3.02072e-06 6.06837e-06 0.00138738
0.00216679 0.000305874 -2.22147e-06
0.000305874 -2.63416e-05 -1.11329e-06
-2.22147e-06 -1.11329e-06 -1.88719e-05
0.00208898 9.68572e-05 1.25396e-06
9.68572e-05 -4.05054e-05 4.48601e-07
1.25396e-06 4.48601e-07 -2.04394e-06
0.00198084 -5.15896e-06 -1.51779e-06
-5.15896e-06 -8.89379e-06 -1.21155e-07
-1.51779e-06 -1.21155e-07 -9.05879e-07
0.00208167 -7.30607e-06 1.35002e-07
-7.30607e-06 -5.44527e-05 -1.96555e-07
1.35002e-07 -1.96555e-07 -4.23901e-06
0.00227779 0.00016009 -3.2092e-07
0.00016009 -3.61341e-05 3.80712e-07
-3.2092e-07 3.80712e-07 1.44146e-05
0.00216302 8.37154e-05 7.82868e-06
8.37154e-05 -6.10472e-05 -4.92163e-06
7.82868e-06 -4.92163e-06 6.20146e-06
0.00230118 -5.46917e-06 1.655e-06
-5.46917e-06 -8.0104e-05 -9.26355e-07
1.655e-06 -9.26355e-07 5.59999e-06
0.00432332 0.000698896 4.67154e-05
0.000698896 -0.000364427 8.80469e-06
4.67154e-05 8.80469e-06 0.000192274
0.00253761 6.28552e-05 -2.67955e-05
6.28552e-05 0.00033331 3.01831e-05
-2.67955e-05 3.01831e-05 0.000513814
0.000491005 0.000104209 -2.27168e-06
0.000104209 3.50001e-05 -1.02187e-06
-2.27168e-06 -1.02187e-06 -5.45031e-05
0.00209798 -0.000124069 3.39702e-07
-0.000124069 -4.29786e-05 -2.7314e-07
3.39702e-07 -2.7314e-07 9.65466e-07
0.00217274 -0.000310382 1.74116e-06
-0.000310382 -3.49874e-05 -7.33255e-07
1.74116e-06 -7.33255e-07 5.75534e-06
0.00208787 -0.000440768 -4.05773e-07
-0.000440768 -1.27245e-05 -6.35136e-08
-4.05773e-07 -6.35136e-08 -1.29765e-05
0.000948974 -0.000522492 -8.98215e-06
-0.000522492 5.80636e-05 8.05923e-06
-8.98215e-06 8.05923e-06 -0.000331851
0.00221761 -0.00080208 1.04685e-05
-0.00080208 0.000657067 7.54665e-06
1.04685e-05 7.54665e-06 0.000173538
0.0016746 -0.000727837 -9.64213e-06
-0.000727837 0.000107237 -8.4638e-06
-9.64213e-06 -8.4638e-06 -0.000238044
0.00213327 -0.000631855 -6.59881e-06
-0.000631855 0.000100908 -1.21322e-07
-6.59881e-06 -1.21322e-07 -4.15905e-05
0.0016628 -0.000488732 2.6121e-05
-0.000488732 0.000492881 -2.20804e-05
2.6121e-05 -2.20804e-05 0.000146941
0.000878659 -0.000314636 2.35632e-05
-0.000314636 0.000286674 -2.00901e-05
2.35632e-05 -2.00901e-05 -0.000154488
0.00125913 -8.69234e-05 1.93935e-06
-8.69234e-05 0.000438495 2.68998e-06
1.93935e-06 2.68998e-06 0.000156341
0.000508712 9.31054e-06 1.32249e-06
9.31054e-06 2.73241e-06 1.08498e-06
1.32249e-06 1.08498e-06 -4.48653e-05
0.00113735 -6.25305e-05 1.01236e-06
-6.25305e-05 0.000461453 4.86782e-06
1.01236e-06 4.86782e-06 0.000201694
0.000906926 -2.55621e-05 6.30597e-06
-2.55621e-05 0.000327574 -1.35362e-06
6.30597e-06 -1.35362e-06 0.000214758
0.000699925 -3.89547e-05 2.60007e-06
-3.89547e-05 0.000203777 -1.51427e-06
2.60007e-06 -1.51427e-06 1.42951e-05
0.000182763 -4.21346e-05 -3.71068e-06
-4.21346e-05 -0.000186067 3.17097e-07
-3.71068e-06 3.17097e-07 -0.000264579
0.00217936 -0.000159668 -5.00814e-07
-0.000159668 -0.000138096 -6.76427e-08
-5.00814e-07 -6.76427e-08 -5.70524e-05
0.000362201 2.65563e-05 2.11159e-07
2.65563e-05 -4.36609e-05 -2.14881e-06
2.11159e-07 -2.14881e-06 -0.0001402
0.000586243 -5.67819e-05 2.35373e-06
-5.67819e-05 9.18732e-05 9.45816e-07
2.35373e-06 9.45816e-07 4.34552e-06
0.000865419 -0.000117379 2.57632e-06
-0.000117379 0.000229124 2.43508e-07
2.57632e-06 2.43508e-07 0.000131256
0.0022056 -0.000420791 1.89732e-06
-0.000420791 -0.000154095 -6.11375e-07
1.89732e-06 -6.11375e-07 -1.2766e-05
0.0022534 -0.00060839 6.06457e-07
-0.00060839 2.57138e-05 -1.14206e-06
6.06457e-07 -1.14206e-06 -1.52462e-05
0.000456028 -0.000433738 7.29469e-06
-0.000433738 -0.000175212 -6.50187e-08
7.29469e-06 -6.50187e-08 -0.000544195
0.00254125 -0.000930541 1.40456e-05
-0.000930541 0.000746908 -3.42638e-09
1.40456e-05 -3.42638e-09 0.000245769
0.00230259 -0.000823319 -1.44217e-06
-0.000823319 0.000295843 2.20533e-06
-1.44217e-06 2.20533e-06 6.36735e-05
0.000246467 -3.19638e-05 -1.0774e-06
-3.19638e-05 -9.15826e-05 -2.96264e-07
-1.0774e-06 -2.96264e-07 -0.000233302
0.000929742 -0.000103191 -1.0207e-06
-0.000103191 0.000345306 2.37659e-06
-1.0207e-06 2.37659e-06 0.00012561
0.0015316 -0.000652942 -4.20346e-06
-0.000652942 0.000392313 1.90106e-06
-4.20346e-06 1.90106e-06 -1.7493e-05
0.000285599 -0.000181833 -7.54342e-08
-0.000181833 4.87871e-05 -9.09639e-07
-7.54342e-08 -9.09639e-07 -0.000510625
0.00108476 -9.91144e-05 9.88008e-07
-9.91144e-05 0.000344333 4.14282e-06
9.88008e-07 4.14282e-06 0.000110615
0.00260786 -0.000301047 -4.82268e-06
-0.000301047 0.00011258 -5.73133e-07
-4.82268e-06 -5.73133e-07 0.000202112
0.00199887 -0.000461855 -1.75756e-05
-0.000461855 -0.000258425 7.16398e-06
-1.75756e-05 7.16398e-06 -5.47094e-05
0.00215828 -0.000748991 -7.19677e-06
-0.000748991 7.49365e-05 1.71409e-06
-7.19677e-06 1.71409e-06 -9.32462e-05
0.00398769 -0.0010599 -1.42349e-05
-0.0010599 0.00136412 -2.1265e-06
-1.42349e-05 -2.1265e-06 0.00104196
0.000544199 -0.000575272 -2.30258e-05
-0.000575272 -0.000152793 -6.09434e-06
-2.30258e-05 -6.09434e-06 -0.000564691
0.000133796 -2.6596e-05 6.0139e-07
-2.6596e-05 -0.000181332 -3.90833e-07
6.0139e-07 -3.90833e-07 -0.000287037
0.000636426 1.54926e-05 -1.41803e-06
1.54926e-05 7.55184e-05 7.34486e-06
-1.41803e-06 7.34486e-06 -2.21669e-05
-0.00107802 -8.6412e-05 -3.91068e-06
-8.6412e-05 -0.000969566 -1.99282e-06
-3.91068e-06 -1.99282e-06 -0.00104843
0.00191675 -0.000253721 -1.53531e-05
-0.000253721 0.000964513 1.8025e-05
-1.53531e-05 1.8025e-05 0.000773463
0.00087494 -9.17094e-05 -5.20765e-06
-9.17094e-05 0.000283129 2.00208e-05
-5.20765e-06 2.00208e-05 8.46459e-05
-0.00139386 -0.000113173 2.94249e-06
-0.000113173 -0.00058047 2.48283e-06
2.94249e-06 2.48283e-06 -0.00127175
3.86262e-05 -0.000763246 -1.37288e-05
-0.000763246 -0.000121633 1.32397e-06
-1.37288e-05 1.32397e-06 -0.000779027
0.00145756 0.000173742 -1.99513e-06
0.000173742 0.000656601 -6.95116e-06
-1.99513e-06 -6.95116e-06 0.000459947
-9.62155e-05 9.72474e-05 -4.63232e-06
9.72474e-05 -0.000335012 -2.66364e-06
-4.63232e-06 -2.66364e-06 -0.000555209
0.00246601 0.000312345 4.74353e-06
0.000312345 9.24455e-06 9.2274e-07
4.74353e-06 9.2274e-07 9.11758e-05
0.00246862 0.000555204 1.46931e-05
0.000555204 0.00022825 6.10809e-06
1.46931e-05 6.10809e-06 0.000141652
0.00213568 0.000698507 1.25182e-05
0.000698507 0.000275063 3.66427e-06
1.25182e-05 3.66427e-06 -3.58878e-05
0.00149795 0.000458268 -1.71774e-06
0.000458268 0.000412958 5.32327e-07
-1.71774e-06 5.32327e-07 9.68263e-05
0.00166153 0.000651379 1.01972e-06
0.000651379 0.000323055 2.29289e-06
1.01972e-06 2.29289e-06 -8.15984e-05
0.00187053 0.000250165 1.76441e-07
0.000250165 0.000903545 -1.18914e-07
1.76441e-07 -1.18914e-07 0.000692784
0.00265102 0.000380149 3.36586e-06
0.000380149 0.000195973 2.31312e-06
3.36586e-06 2.31312e-06 0.000324618
0.00121351 0.000370552 -2.91025e-06
0.000370552 0.000382457 1.8957e-06
-2.91025e-06 1.8957e-06 0.000107824
0.00171418 0.000569688 3.1565e-06
0.000569688 0.000479728 -2.61841e-07
3.1565e-06 -2.61841e-07 8.85929e-05
0.00219853 0.000712563 -3.54171e-06
0.000712563 0.000168692 -3.33882e-06
-3.54171e-06 -3.33882e-06 -2.51159e-05
0.00178045 0.000700568 -4.49119e-06
0.000700568 0.000329312 4.92644e-06
-4.49119e-06 4.92644e-06 -7.34028e-05
0.00308434 0.000967293 4.77602e-05
0.000967293 -0.00036784 6.41608e-06
4.77602e-05 6.41608e-06 -0.00034628
0.000783495 0.00026787 -3.87921e-06
0.00026787 0.000287818 2.89948e-06
-3.87921e-06 2.89948e-06 5.44049e-05
0.00290478 0.000695489 -8.40695e-05
0.000695489 0.000445236 -3.69904e-05
-8.40695e-05 -3.69904e-05 0.000400059
0.000825454 0.00038614 -4.78569e-06
0.00038614 -1.85789e-06 2.08616e-06
-4.78569e-06 2.08616e-06 -0.000300774
6.51829e-05 0.000425924 5.18344e-07
0.000425924 -0.000496187 -1.37855e-05
5.18344e-07 -1.37855e-05 -0.000863492
0.000927875 0.000715817 -3.39342e-05
0.000715817 -0.000321827 -1.19279e-05
-3.39342e-05 -1.19279e-05 -0.000558492
0.0140662 0.000349084 -0.000431042
0.000349084 0.00239805 -4.37876e-05
-0.000431042 -4.37876e-05 0.0017133
0.00430644 0.00151465 -2.61283e-05
0.00151465 -0.00129727 -8.47602e-05
-2.61283e-05 -8.47602e-05 -0.000409336
-0.000121306 0.00105674 1.47342e-06
0.00105674 -0.00102872 -8.08301e-07
1.47342e-06 -8.08301e-07 -0.0012931
0.000279691 -0.00185052 0.00126319
-0.00185052 0.0012761 0.000275082
0.00126319 0.000275082 -0.00163185
0.0190678 -0.00720911 -1.16608e-05
-0.00720911 0.00676376 7.3376e-05
-1.16608e-05 7.3376e-05 0.00539336
-0.000227701 0.000103268 6.89969e-06
0.000103268 -0.000317834 2.00517e-06
6.89969e-06 2.00517e-06 -0.000420294
0.00111801 0.000114865 -1.61524e-07
0.000114865 0.000472047 -2.51118e-06
-1.61524e-07 -2.51118e-06 0.000389172
0.00206854 0.00024153 1.12178e-06
0.00024153 0.00106885 -7.1196e-08
1.12178e-06 -7.1196e-08 0.000959574
0.000508217 -5.59156e-05 -9.95247e-07
-5.59156e-05 6.37614e-05 -2.90439e-06
-9.95247e-07 -2.90439e-06 -6.22686e-05
0.000361516 6.13342e-05 -1.25317e-06
6.13342e-05 -4.41531e-05 -2.8154e-06
-1.25317e-06 -2.8154e-06 -0.000181859
0.000776073 -1.64488e-05 7.04619e-09
-1.64488e-05 0.000224683 -9.35324e-07
7.04619e-09 -9.35324e-07 8.07037e-05
0.000675037 6.46458e-05 -4.46067e-06
6.46458e-05 0.000132837 8.28519e-06
-4.46067e-06 8.28519e-06 3.15112e-05
0.000361479 6.80321e-05 3.20027e-06
6.80321e-05 -6.84927e-05 8.32323e-06
3.20027e-06 8.32323e-06 -0.00012992
0.000691905 0.000129045 -1.71504e-06
0.000129045 0.000187094 -4.22331e-07
-1.71504e-06 -4.22331e-07 2.15687e-05
0.000419921 -7.11207e-06 4.38845e-07
-7.11207e-06 -9.15286e-06 9.25679e-07
4.38845e-07 9.25679e-07 -0.0001324
0.000693929 4.45264e-05 -5.36283e-07
4.45264e-05 0.000175082 -4.36754e-08
-5.36283e-07 -4.36754e-08 1.65998e-05
0.00044966 8.00617e-05 -1.26721e-06
8.00617e-05 -8.3854e-08 -3.2317e-07
-1.26721e-06 -3.2317e-07 -5.26355e-05
0.000676593 0.000107649 -1.3411e-06
0.000107649 0.000145504 -2.44536e-07
-1.3411e-06 -2.44536e-07 4.54388e-06
0.00160257 0.000191054 -1.66219e-06
0.000191054 0.000742425 -5.23788e-07
-1.66219e-06 -5.23788e-07 0.000565614
0.000342537 9.98909e-05 1.04019e-06
9.98909e-05 1.27546e-06 -1.97347e-06
1.04019e-06 -1.97347e-06 -0.000152571
0.000891224 0.000105013 2.86409e-06
0.000105013 0.000296789 4.77215e-07
2.86409e-06 4.77215e-07 0.000138527
0.00047143 -2.48977e-05 1.55941e-06
-2.48977e-05 2.09609e-05 8.52518e-07
1.55941e-06 8.52518e-07 -0.000133582
0.000342558 -6.89885e-05 -1.24785e-06
-6.89885e-05 -6.00376e-05 3.0358e-06
-1.24785e-06 3.0358e-06 -0.00018798
0.000746527 -2.91725e-05 -9.20855e-07
-2.91725e-05 0.000207152 -4.12219e-07
-9.20855e-07 -4.12219e-07 4.74647e-05
0.00116288 1.07806e-05 -2.80761e-08
1.07806e-05 0.000456386 -8.36886e-06
-2.80761e-08 -8.36886e-06 0.000302656
0.000622811 -3.94729e-05 -1.63689e-06
-3.94729e-05 0.000163105 -1.12549e-07
-1.63689e-06 -1.12549e-07 1.32052e-05
0.000775658 -5.40567e-05 1.91776e-06
-5.40567e-05 0.000239462 -5.92338e-07
1.91776e-06 -5.92338e-07 8.37164e-05
0.000661347 -0.000118271 -2.36908e-06
-0.000118271 0.000144655 2.41035e-06
-2.36908e-06 2.41035e-06 1.76029e-05
0.000316422 -2.39109e-05 8.1486e-08
-2.39109e-05 -7.49085e-05 1.16478e-06
8.1486e-08 1.16478e-06 -0.000202069
0.000509155 -5.04662e-05 -2.24344e-06
-5.04662e-05 2.23214e-05 3.57027e-06
-2.24344e-06 3.57027e-06 -5.29999e-05
0.000510121 -3.51349e-05 1.8569e-06
-3.51349e-05 2.96748e-05 7.49537e-08
1.8569e-06 7.49537e-08 -4.94519e-05
0.000464676 3.54324e-06 2.20722e-06
3.54324e-06 -2.25489e-05 6.36194e-06
2.20722e-06 6.36194e-06 -4.61678e-05
0.000527367 4.6537e-05 -1.78851e-06
4.6537e-05 3.47773e-05 -3.5354e-06
-1.78851e-06 -3.5354e-06 -3.93733e-05
0.000424712 2.88675e-05 4.16764e-07
2.88675e-05 -4.85832e-05 7.16054e-08
4.16764e-07 7.16054e-08 -7.1792e-05
0.00251614 3.0227e-06 3.24395e-06
3.0227e-06 0.00123748 5.36836e-06
3.24395e-06 5.36836e-06 0.00125033
0.000490756 3.30938e-05 -3.08973e-06
3.30938e-05 -1.2762e-05 -6.96507e-06
-3.08973e-06 -6.96507e-06 -3.60675e-05
0.00169961 -6.52065e-06 -2.30518e-06
-6.52065e-06 0.000726292 1.54391e-07
-2.30518e-06 1.54391e-07 0.000734881
0.000801884 -1.22665e-05 5.66933e-07
-1.22665e-05 0.000159522 -2.31217e-06
5.66933e-07 -2.31217e-06 0.000165503
0.000473749 -9.77636e-08 -7.51558e-08
-9.77636e-08 -1.8555e-05 -1.68257e-06
-7.51558e-08 -1.68257e-06 -5.86806e-05
0.000551898 -3.56159e-05 1.20793e-07
-3.56159e-05 3.43612e-05 -1.73039e-08
1.20793e-07 -1.73039e-08 -1.40013e-05
0.00053479 1.28776e-05 8.19479e-07
1.28776e-05 -6.84852e-06 -3.28564e-06
8.19479e-07 -3.28564e-06 -1.66813e-05
0.000491907 -3.28836e-05 -1.64905e-06
-3.28836e-05 -1.01144e-05 7.20998e-07
-1.64905e-06 7.20998e-07 -5.69436e-05
0.000799294 2.7296e-05 -1.42549e-07
2.7296e-05 0.000160715 -7.25201e-07
-1.42549e-07 -7.25201e-07 0.000150508
0.00199165 5.01036e-05 7.24701e-06
5.01036e-05 0.000913817 -4.45846e-06
7.24701e-06 -4.45846e-06 0.0009281
0.000478455 3.2919e-05 4.96195e-07
3.2919e-05 -3.40078e-05 3.55508e-06
4.96195e-07 3.55508e-06 -4.97805e-05
0.00222278 7.20307e-05 -6.0748e-06
7.20307e-05 0.00106681 1.12136e-06
-6.0748e-06 1.12136e-06 0.00107644
0.00242866 9.82751e-05 -5.48202e-06
9.82751e-05 0.00120374 5.10822e-06
-5.48202e-06 5.10822e-06 0.00120724
0.00224741 0.000166065 -2.84683e-06
0.000166065 -3.74565e-05 -1.14757e-06
-2.84683e-06 -1.14757e-06 1.24101e-05
0.00207387 -6.62627e-06 1.31196e-06
-6.62627e-06 -5.76516e-05 -6.2688e-08
1.31196e-06 -6.2688e-08 -7.98354e-06
0.00195156 6.05996e-05 -2.00661e-06
6.05996e-05 -0.000216247 1.53806e-06
-2.00661e-06 1.53806e-06 -0.000151848
0.00248831 0.000514207 8.18564e-05
0.000514207 -0.00123004 1.79955e-05
8.18564e-05 1.79955e-05 -0.000672315
0.00228206 -3.0357e-05 -9.22002e-07
-3.0357e-05 -7.14448e-05 -2.56065e-06
-9.22002e-07 -2.56065e-06 1.46417e-05
0.00217638 6.24353e-05 9.25251e-07
6.24353e-05 0.000129568 -8.97733e-06
9.25251e-07 -8.97733e-06 0.000253803
0.00329689 -3.69703e-05 -2.50307e-05
-3.69703e-05 0.000905831 2.34666e-06
-2.50307e-05 2.34666e-06 0.000917283
0.00305054 2.29637e-05 -1.10247e-05
2.29637e-05 -0.00174462 -2.59506e-05
-1.10247e-05 -2.59506e-05 -0.000856214
0.00265392 0.000183603 0.000108896
0.000183603 -0.000644276 5.47168e-05
0.000108896 5.47168e-05 -0.000176098
0.000585521 8.45232e-05 -2.45792e-07
8.45232e-05 9.54964e-05 -5.21311e-07
-2.45792e-07 -5.21311e-07 6.07574e-06
0.000581861 -4.43598e-06 4.94409e-07
-4.43598e-06 0.000101798 -1.16404e-07
4.94409e-07 -1.16404e-07 4.97595e-06
0.000422754 -9.68531e-05 -5.2698e-06
-9.68531e-05 1.1311e-05 3.95529e-07
-5.2698e-06 3.95529e-07 -0.000100373
0.000456786 -5.54007e-05 -3.28203e-06
-5.54007e-05 4.36008e-05 2.13592e-06
-3.28203e-06 2.13592e-06 -7.06753e-05
0.00226072 -0.000178449 -3.76775e-06
-0.000178449 -0.000112659 5.4998e-07
-3.76775e-06 5.4998e-07 -1.44092e-05
0.00221354 -0.000426006 1.68511e-06
-0.000426006 -0.000123132 -2.21418e-06
1.68511e-06 -2.21418e-06 -1.47022e-05
0.00216713 -0.000601119 -3.65543e-06
-0.000601119 -2.0268e-05 -4.56296e-07
-3.65543e-06 -4.56296e-07 -6.07132e-05
0.00342336 -0.000766012 1.17969e-05
-0.000766012 0.00152235 9.74086e-06
1.17969e-05 9.74086e-06 0.00109799
0.000441021 -0.000705772 1.13107e-06
-0.000705772 -0.000417061 -3.0777e-06
1.13107e-06 -3.0777e-06 -0.000874778
0.00215895 -0.000808562 1.78532e-06
-0.000808562 0.00023437 -3.43629e-06
1.78532e-06 -3.43629e-06 -4.41304e-06
0.00147343 -0.000682278 1.03986e-05
-0.000682278 0.000339024 -1.16494e-05
1.03986e-05 -1.16494e-05 -0.000106333
0.00348105 -0.000266064 8.048e-06
-0.000266064 0.00171305 -3.41647e-06
8.048e-06 -3.41647e-06 0.00133443
-7.70313e-05 -2.35746e-05 -3.7477e-06
-2.35746e-05 -0.000413573 3.721e-06
-3.7477e-06 3.721e-06 -0.000608685
0.000658368 -5.44566e-05 2.57391e-06
-5.44566e-05 0.000137727 -1.43881e-07
2.57391e-06 -1.43881e-07 5.0504e-05
0.000596333 -0.000115488 -1.51788e-06
-0.000115488 0.000154438 -8.95225e-06
-1.51788e-06 -8.95225e-06 -7.3753e-05
0.000576416 -2.37332e-05 4.5424e-06
-2.37332e-05 0.00011583 -1.20304e-06
4.5424e-06 -1.20304e-06 -2.70569e-05
0.0006229 1.0203e-06 4.21827e-07
1.0203e-06 0.00014046 1.58496e-06
4.21827e-07 1.58496e-06 3.28221e-05
0.000544943 -5.72709e-05 -7.57781e-06
-5.72709e-05 2.73902e-05 1.05079e-06
-7.57781e-06 1.05079e-06 -5.76958e-05
0.00256946 -0.000284299 1.75013e-06
-0.000284299 9.9682e-05 1.25587e-06
1.75013e-06 1.25587e-06 0.000205598
0.00053673 -2.69274e-05 -2.43809e-07
-2.69274e-05 8.56182e-05 1.2912e-06
-2.43809e-07 1.2912e-06 -3.83522e-05
0.000833136 -2.96484e-05 5.91589e-06
-2.96484e-05 0.000211754 -1.80831e-07
5.91589e-06 -1.80831e-07 0.00010374
-0.000244793 -2.27002e-05 2.36569e-06
-2.27002e-05 -0.000417761 5.04959e-07
2.36569e-06 5.04959e-07 -0.000480891
0.00195556 -0.000470561 4.73593e-07
-0.000470561 -0.000311903 -1.19226e-06
4.73593e-07 -1.19226e-06 -0.00011607
0.00220435 -0.000750502 2.12396e-06
-0.000750502 9.66942e-05 -1.28946e-06
2.12396e-06 -1.28946e-06 -6.35721e-05
0.00179481 -0.000758671 -2.86212e-06
-0.000758671 0.000537211 -1.97463e-07
-2.86212e-06 -1.97463e-07 9.83291e-05
0.00253323 -0.00092793 -6.23487e-06
-0.00092793 0.000569009 1.52217e-06
-6.23487e-06 1.52217e-06 0.000260218
0.00140811 -0.000135933 8.58662e-07
-0.000135933 0.000625625 -9.15032e-07
8.58662e-07 -9.15032e-07 0.000446883
0.00024512 -3.71373e-05 5.84793e-06
-3.71373e-05 -0.00012286 4.34816e-06
5.84793e-06 4.34816e-06 -0.000316771
0.00155285 -0.00090959 3.72192e-06
-0.00090959 0.000770452 -2.21107e-06
3.72192e-06 -2.21107e-06 7.58753e-05
0.00105366 -0.00034323 -5.07002e-06
-0.00034323 0.000451011 -6.81562e-07
-5.07002e-06 -6.81562e-07 -2.67215e-05
0.00320627 -0.000408278 -3.73135e-05
-0.000408278 0.000364571 6.31479e-07
-3.73135e-05 6.31479e-07 0.000607486
0.0023987 -0.00060605 -4.28796e-05
-0.00060605 0.000125676 1.30053e-05
-4.28796e-05 1.30053e-05 0.00018942
0.0023721 -0.000868056 -3.47155e-07
-0.000868056 0.000365375 -4.97128e-06
-3.47155e-07 -4.97128e-06 6.99849e-05
0.00280694 -0.000894179 -6.2058e-06
-0.000894179 0.000926568 6.11713e-07
-6.2058e-06 6.11713e-07 0.000613081
0.000228713 -4.17611e-05 -1.77154e-06
-4.17611e-05 -6.28977e-05 -6.41715e-06
-1.77154e-06 -6.41715e-06 -0.000183496
0.000450805 -0.000114976 -8.5063e-06
-0.000114976 2.80755e-05 -8.06935e-06
-8.5063e-06 -8.06935e-06 -0.0001343
4.82708e-05 -0.000165175 -5.45645e-06
-0.000165175 4.27845e-05 3.79221e-05
-5.45645e-06 3.79221e-05 -0.000263425
-0.00106986 -0.000652841 -7.11694e-06
-0.000652841 -0.000136696 -2.53302e-05
-7.11694e-06 -2.53302e-05 -0.001104
0.00214939 -0.00047755 4.71135e-05
-0.00047755 -0.00488866 -5.84558e-06
4.71135e-05 -5.84558e-06 -0.00492522
0.00208536 0.000240362 -1.67923e-06
0.000240362 0.00101703 -4.65004e-06
-1.67923e-06 -4.65004e-06 0.000811308
0.00114012 0.000322983 -1.31903e-06
0.000322983 0.000330675 -6.27232e-07
-1.31903e-06 -6.27232e-07 7.38187e-05
0.00191224 0.000315344 6.33913e-05
0.000315344 -0.000211868 1.81717e-05
6.33913e-05 1.81717e-05 -6.34383e-05
0.00250499 0.000723625 2.58773e-05
0.000723625 0.000344354 1.03408e-05
2.58773e-05 1.03408e-05 0.00016029
0.00210199 0.000740862 1.03234e-05
0.000740862 0.00052332 1.07595e-05
1.03234e-05 1.07595e-05 0.000107877
0.00124937 0.000520373 5.15434e-06
0.000520373 0.000235341 6.77739e-06
5.15434e-06 6.77739e-06 -0.00015785
0.00511191 0.00121984 0.000121413
0.00121984 0.000407989 4.31684e-05
0.000121413 4.31684e-05 0.000229748
0.00160261 0.000295095 4.89004e-06
0.000295095 0.000768103 -1.45815e-07
4.89004e-06 -1.45815e-07 0.000545871
0.0025551 0.00064868 -2.1113e-05
0.00064868 0.00024964 5.76733e-07
-2.1113e-05 5.76733e-07 0.000231215
0.000895633 0.000395701 -3.8895e-06
0.000395701 7.67128e-05 2.88853e-06
-3.8895e-06 2.88853e-06 -0.000228845
0.0014292 0.000600701 1.4201e-06
0.000600701 0.000292607 -5.68204e-06
1.4201e-06 -5.68204e-06 -0.000109087
0.00197614 0.000806519 -1.11764e-05
0.000806519 0.000233888 -3.86637e-07
-1.11764e-05 -3.86637e-07 -3.13825e-05
0.00440261 -0.000633554 -0.000160177
-0.000633554 -0.00424268 -7.19992e-05
-0.000160177 -7.19992e-05 -0.00521366
0.00718858 0.00150593 -0.000116143
0.00150593 9.3106e-05 -6.24914e-05
-0.000116143 -6.24914e-05 0.000709619
0.000920018 0.00106054 -6.21943e-06
0.00106054 -0.000440947 7.59699e-06
-6.21943e-06 7.59699e-06 -0.00078857
-0.000228846 -0.00163277 0.000455794
-0.00163277 0.00251045 0.000189654
0.000455794 0.000189654 -0.000216491
0.0106896 -0.00722164 -0.000421144
-0.00722164 0.00472341 -0.000392053
-0.000421144 -0.000392053 0.0032497
0.00113395 0.000267174 -1.35556e-05
0.000267174 0.000414827 1.33696e-06
-1.35556e-05 1.33696e-06 0.000213663
0.000831459 0.000537342 0.000640321
0.000537342 0.00372806 7.41271e-05
0.000640321 7.41271e-05 0.00184391
0.00272191 -0.00245423 -0.000166155
-0.00245423 0.00493695 -0.000224065
-0.000166155 -0.000224065 0.000514812
0.0026494 0.000996707 -4.76179e-05
0.000996707 0.000417693 -1.41756e-05
-4.76179e-05 -1.41756e-05 0.000274263
0.000870149 0.000315618 -2.36786e-05
0.000315618 7.52247e-05 -4.91806e-06
-2.36786e-05 -4.91806e-06 -0.000194372
0.000581434 0.000610117 -2.71955e-05
0.000610117 -0.000109034 -2.77407e-05
-2.71955e-05 -2.77407e-05 -0.000448228
0.000137811 0.0010248 4.50123e-05
0.0010248 -0.000671095 9.32204e-05
4.50123e-05 9.32204e-05 -0.00103634
0.0121781 0.0021129 4.94405e-05
0.0021129 0.0015961 -3.79555e-05
4.94405e-05 -3.79555e-05 0.00037427
0.00401296 0.00218993 -2.37334e-05
0.00218993 -8.21435e-06 -5.09243e-05
-2.37334e-05 -5.09243e-05 9.45049e-05
0.0124158 -0.00586013 0.000925217
-0.00586013 0.00361479 0.000495909
0.000925217 0.000495909 0.000942752
0.0116743 -0.0027347 -5.86821e-05
-0.0027347 0.00266375 0.000553105
-5.86821e-05 0.000553105 0.00157198
0.000454724 0.000108028 6.08129e-06
0.000108028 0.00010167 -1.58034e-06
6.08129e-06 -1.58034e-06 1.74128e-05
0.000278458 0.00012529 8.26472e-06
0.00012529 -7.31075e-06 4.71376e-07
8.26472e-06 4.71376e-07 -0.000106935
0.00192063 0.000282578 4.03404e-06
0.000282578 0.000998204 -1.61142e-06
4.03404e-06 -1.61142e-06 0.000833807
0.000582085 1.03e-05 7.19715e-07
1.03e-05 0.000114925 -9.31534e-07
7.19715e-07 -9.31534e-07 -2.32906e-05
0.000629705 6.42037e-05 -1.13192e-06
6.42037e-05 0.000129404 -2.08861e-06
-1.13192e-06 -2.08861e-06 -2.30523e-05
0.000129017 2.90875e-05 -1.64997e-06
2.90875e-05 -0.000176001 6.58951e-07
-1.64997e-06 6.58951e-07 -0.000321196
0.000630296 0.000101112 -7.40429e-06
0.000101112 0.000132418 1.11732e-06
-7.40429e-06 1.11732e-06 -1.05884e-05
-0.00071983 4.33865e-05 -4.31532e-06
4.33865e-05 -0.000727907 -1.48601e-07
-4.31532e-06 -1.48601e-07 -0.000779125
0.00037031 -1.41813e-05 2.46198e-07
-1.41813e-05 -3.57801e-05 1.02146e-06
2.46198e-07 1.02146e-06 -0.000167914
0.00121705 0.000124184 1.4553e-06
0.000124184 0.000493056 -1.46878e-07
1.4553e-06 -1.46878e-07 0.000329718
0.00062901 5.23178e-05 3.99847e-07
5.23178e-05 0.000143353 1.78952e-07
3.99847e-07 1.78952e-07 -1.97138e-05
0.000736903 3.3016e-05 1.26315e-06
3.3016e-05 0.000207977 -5.12534e-07
1.26315e-06 -5.12534e-07 3.75151e-05
0.000418179 0.000102879 -3.14532e-07
0.000102879 4.73152e-05 -2.14694e-06
-3.14532e-07 -2.14694e-06 -0.000103266
0.0013782 0.000122195 -1.87539e-06
0.000122195 0.000616527 -1.60162e-06
-1.87539e-06 -1.60162e-06 0.000452764
-0.000214526 5.37705e-05 -5.86301e-06
5.37705e-05 -0.000241791 -4.36256e-06
-5.86301e-06 -4.36256e-06 -0.000437162
0.000613826 -9.6733e-05 -2.36509e-07
-9.6733e-05 0.000127499 9.88276e-08
-2.36509e-07 9.88276e-08 -3.51862e-05
0.000791036 -7.73038e-05 -7.65095e-07
-7.73038e-05 0.000251189 1.92086e-07
-7.65095e-07 1.92086e-07 7.93981e-05
0.000751891 -4.82398e-05 -1.17152e-07
-4.82398e-05 0.00022346 -4.85786e-07
-1.17152e-07 -4.85786e-07 5.45091e-05
0.000737823 -2.0187e-05 -3.09625e-06
-2.0187e-05 0.000177756 1.46021e-07
-3.09625e-06 1.46021e-07 4.06458e-05
0.00104064 2.43962e-06 -5.27436e-06
2.43962e-06 0.000427307 -4.34913e-06
-5.27436e-06 -4.34913e-06 0.000237779
0.000770961 -4.14465e-05 1.52365e-06
-4.14465e-05 0.000218763 -7.32004e-06
1.52365e-06 -7.32004e-06 8.23154e-05
-0.00108636 -8.70254e-06 -2.97174e-06
-8.70254e-06 -0.000932638 -4.93661e-06
-2.97174e-06 -4.93661e-06 -0.0010495
0.000585716 -4.42365e-05 1.06098e-06
-4.42365e-05 0.000112827 -1.18202e-06
1.06098e-06 -1.18202e-06 -4.33629e-05
0.000366708 -7.54965e-05 1.3618e-06
-7.54965e-05 -2.83138e-05 1.0915e-06
1.3618e-06 1.0915e-06 -0.000160586
0.000681277 -8.8272e-05 -1.17517e-06
-8.8272e-05 0.000186308 -2.17606e-07
-1.17517e-06 -2.17606e-07 3.99289e-05
0.000522421 -7.98556e-05 -2.02462e-06
-7.98556e-05 4.13872e-05 2.01415e-06
-2.02462e-06 2.01415e-06 -6.94028e-05
0.000424532 -6.90294e-05 3.47006e-06
-6.90294e-05 -8.94961e-06 2.58668e-07
3.47006e-06 2.58668e-07 -0.00014327
0.000538077 -0.00010771 7.69203e-08
-0.00010771 6.5112e-05 2.13939e-07
7.69203e-08 2.13939e-07 -6.05035e-05
0.000546342 -5.00054e-05 -2.3651e-06
-5.00054e-05 4.2929e-05 4.08549e-06
-2.3651e-06 4.08549e-06 -3.31864e-05
0.000422214 -1.09472e-05 1.37342e-06
-1.09472e-05 4.45447e-06 -8.82353e-07
1.37342e-06 -8.82353e-07 -0.000133687
0.000504902 1.25627e-06 2.0098e-06
1.25627e-06 2.71803e-05 8.43713e-08
2.0098e-06 8.43713e-08 -5.26335e-05
0.0014434 -2.1859e-05 -7.86611e-06
-2.1859e-05 0.000579325 6.54514e-06
-7.86611e-06 6.54514e-06 0.000559758
0.000501749 6.25259e-05 -1.48317e-06
6.25259e-05 2.50451e-05 -3.41565e-06
-1.48317e-06 -3.41565e-06 -5.38789e-05
0.000880165 -1.26194e-05 -3.42841e-06
-1.26194e-05 0.000235177 7.3107e-07
-3.42841e-06 7.3107e-07 0.000213669
0.000780211 3.26248e-06 -3.26423e-06
3.26248e-06 0.000160284 4.88175e-06
-3.26423e-06 4.88175e-06 0.000165139
0.000421927 -1.13712e-05 2.81308e-06
-1.13712e-05 -5.07781e-05 -4.81905e-06
2.81308e-06 -4.81905e-06 -7.35394e-05
0.0025438 2.77373e-06 6.22067e-06
2.77373e-06 0.00125494 -1.36519e-08
6.22067e-06 -1.36519e-08 0.00126772
0.000891441 1.31008e-06 -7.30718e-06
1.31008e-06 0.000224979 -5.32489e-06
-7.30718e-06 -5.32489e-06 0.000229438
0.000499171 6.27286e-05 2.19214e-06
6.27286e-05 4.4613e-05 1.13643e-06
2.19214e-06 1.13643e-06 -5.08715e-05
0.000476089 4.84589e-05 -2.41511e-06
4.84589e-05 -6.70532e-06 -2.07751e-06
-2.41511e-06 -2.07751e-06 -5.15159e-05
0.000496472 -6.1022e-06 1.55619e-06
-6.1022e-06 5.90171e-06 6.80591e-08
1.55619e-06 6.80591e-08 -4.09465e-05
0.000504224 8.71775e-06 7.41707e-07
8.71775e-06 -2.49083e-05 -3.09795e-06
7.41707e-07 -3.09795e-06 -3.36268e-05
0.000561029 -5.7055e-05 -1.70392e-06
-5.7055e-05 4.64957e-05 2.12785e-06
-1.70392e-06 2.12785e-06 -5.65866e-06
0.000492612 1.34614e-05 7.17065e-08
1.34614e-05 -3.34925e-05 -7.24294e-07
7.17065e-08 -7.24294e-07 -4.30647e-05
0.00198894 3.46443e-05 5.00006e-06
3.46443e-05 0.00090804 -4.56754e-06
5.00006e-06 -4.56754e-06 0.000924358
0.00108728 3.48627e-05 -3.27549e-07
3.48627e-05 0.000341894 1.67775e-06
-3.27549e-07 1.67775e-06 0.000332912
0.00144678 4.33035e-05 -1.73779e-07
4.33035e-05 0.000574076 1.41037e-06
-1.73779e-07 1.41037e-06 0.000583819
0.000864382 4.68837e-05 -8.42472e-06
4.68837e-05 0.000215942 7.64138e-06
-8.42472e-06 7.64138e-06 0.000218877
0.000842797 0.000350636 8.62325e-05
0.000350636 -0.00201129 1.61867e-05
8.62325e-05 1.61867e-05 -0.00144626
0.0022384 -4.82345e-05 -3.64652e-06
-4.82345e-05 -6.74914e-05 4.64052e-06
-3.64652e-06 4.64052e-06 1.16182e-05
0.00223654 7.14713e-05 3.42505e-05
7.14713e-05 0.000195309 -1.5142e-05
3.42505e-05 -1.5142e-05 0.000302145
0.00247641 0.00031167 -4.62769e-05
0.00031167 -0.00160869 -3.06066e-05
-4.62769e-05 -3.06066e-05 -0.000506565
0.00214697 0.000104416 3.6424e-05
0.000104416 -0.000707088 -1.95982e-06
3.6424e-05 -1.95982e-06 -0.000368146
0.0025643 -4.56444e-05 3.62618e-06
-4.56444e-05 0.000385142 -8.51246e-06
3.62618e-06 -8.51246e-06 0.00042057
0.0045732 -0.000288228 -5.2081e-05
-0.000288228 0.00112555 -1.48274e-05
-5.2081e-05 -1.48274e-05 0.00117885
0.00275398 -0.000163314 2.25247e-05
-0.000163314 -0.000251549 1.98055e-05
2.25247e-05 1.98055e-05 9.61025e-05
0.0145779 -0.000769589 2.74609e-05
-0.000769589 0.00261208 6.83761e-06
2.74609e-05 6.83761e-06 0.00137464
0.0147082 0.00467715 0.00120656
0.00467715 0.00580529 -0.000435261
0.00120656 -0.000435261 0.00347708
0.0158821 0.0054271 1.76765e-05
0.0054271 0.0103723 7.09047e-06
1.76765e-05 7.09047e-06 0.00829194
0.000240916 -9.93123e-05 -1.2832e-07
-9.93123e-05 -0.000101133 -4.84317e-07
-1.2832e-07 -4.84317e-07 -0.000208719
0.000561128 -9.48932e-06 1.37324e-06
-9.48932e-06 8.05477e-05 -1.4243e-07
1.37324e-06 -1.4243e-07 -9.71816e-06
0.000644477 -8.80323e-05 -2.62675e-07
-8.80323e-05 0.000147704 2.92772e-06
-2.62675e-07 2.92772e-06 4.39684e-05
0.000554872 -3.81227e-05 4.43538e-07
-3.81227e-05 8.61723e-05 5.45676e-07
4.43538e-07 5.45676e-07 -2.55153e-05
0.000819401 9.2032e-05 -4.27408e-06
9.2032e-05 0.000284963 1.01303e-06
-4.27408e-06 1.01303e-06 0.000154551
0.000399608 0.00011933 1.13611e-06
0.00011933 -3.31821e-05 7.95942e-06
1.13611e-06 7.95942e-06 -0.000149285
0.000984608 -1.71444e-05 3.15633e-06
-1.71444e-05 0.000375311 3.80955e-06
3.15633e-06 3.80955e-06 0.000241482
0.000503217 -2.81715e-05 -1.53354e-06
-2.81715e-05 5.36822e-05 1.37706e-06
-1.53354e-06 1.37706e-06 -5.63574e-05
0.00250153 -0.000268457 9.04909e-06
-0.000268457 5.30703e-05 6.76008e-07
9.04909e-06 6.76008e-07 0.000188051
0.00200416 -0.000491662 1.6006e-05
-0.000491662 -0.000319099 -7.10841e-06
1.6006e-05 -7.10841e-06 -0.000136919
0.00215221 -0.000746514 1.26703e-06
-0.000746514 6.41153e-05 3.78569e-07
1.26703e-06 3.78569e-07 -8.9736e-05
0.00184912 -0.000742517 1.89075e-05
-0.000742517 0.000545949 5.87522e-06
1.89075e-05 5.87522e-06 0.00013009
0.00190672 -0.000889729 -7.67847e-06
-0.000889729 0.000218551 5.24668e-06
-7.67847e-06 5.24668e-06 -9.06389e-05
0.00313 -0.00105519 3.0806e-05
-0.00105519 0.00169136 -5.7915e-06
3.0806e-05 -5.7915e-06 0.000941642
0.00430667 -0.000653492 6.03852e-06
-0.000653492 0.00213415 -7.25879e-07
6.03852e-06 -7.25879e-07 0.00175814
0.000760685 -0.000174264 7.71739e-06
-0.000174264 0.000237911 -2.6756e-05
7.71739e-06 -2.6756e-05 -6.39713e-06
0.000588336 -6.58932e-05 2.07841e-06
-6.58932e-05 4.94022e-05 2.33753e-06
2.07841e-06 2.33753e-06 -4.6682e-05
0.000742992 -8.79309e-05 8.86717e-06
-8.79309e-05 0.000178666 -1.60194e-05
8.86717e-06 -1.60194e-05 2.07871e-05
0.00104888 -4.64012e-05 3.25057e-06
-4.64012e-05 0.000396283 1.69596e-06
3.25057e-06 1.69596e-06 0.000263688
0.000655222 2.89357e-05 5.07348e-06
2.89357e-05 0.000147591 -2.00533e-06
5.07348e-06 -2.00533e-06 0.000106244
0.00234117 -0.000366436 -7.18463e-07
-0.000366436 -6.64517e-05 3.34718e-06
-7.18463e-07 3.34718e-06 0.000184255
0.000532023 -6.51006e-05 -2.69573e-06
-6.51006e-05 0.000117383 -4.22971e-07
-2.69573e-06 -4.22971e-07 -9.54696e-06
0.00102619 -0.000154489 -6.93291e-06
-0.000154489 0.000366659 5.31294e-06
-6.93291e-06 5.31294e-06 0.000222985
0.00176269 -0.000578131 6.25617e-06
-0.000578131 -0.000242375 -3.15647e-06
6.25617e-06 -3.15647e-06 -0.000150781
0.00173269 -0.000779625 9.92343e-07
-0.000779625 -2.33369e-06 -8.78511e-07
9.92343e-07 -8.78511e-07 -0.000233122
0.000910172 -0.000686702 3.42554e-07
-0.000686702 -0.000155946 -1.65795e-06
3.42554e-07 -1.65795e-06 -0.000430108
0.00164459 -0.000314606 5.56251e-07
-0.000314606 0.000896544 -2.05015e-05
5.56251e-07 -2.05015e-05 0.000557947
0.00164048 -0.000634837 4.22979e-07
-0.000634837 0.00122271 2.82069e-06
4.22979e-07 2.82069e-06 0.000428529
0.00456753 -0.000695911 -4.76835e-05
-0.000695911 0.00102084 1.72579e-05
-4.76835e-05 1.72579e-05 0.00119029
0.00396842 -0.000887996 -5.1045e-05
-0.000887996 0.00122657 1.52194e-05
-5.1045e-05 1.52194e-05 0.0010695
0.00212833 -0.000898095 -1.23697e-08
-0.000898095 0.000309696 -1.70462e-06
-1.23697e-08 -1.70462e-06 5.72327e-05
-0.000629179 -0.000421338 -1.03512e-05
-0.000421338 -0.00074719 1.83773e-05
-1.03512e-05 1.83773e-05 -0.000894194
0.000304443 -0.000130674 1.84666e-06
-0.000130674 1.267e-05 8.45776e-06
1.84666e-06 8.45776e-06 -0.000191547
0.000418754 -0.00016959 4.68385e-06
-0.00016959 0.000136635 -7.59963e-07
4.68385e-06 -7.59963e-07 -9.85962e-05
0.00171272 -0.000245319 -4.17663e-06
-0.000245319 0.00124991 -2.07338e-05
-4.17663e-06 -2.07338e-05 0.000616646
-0.00643881 -0.000304361 0.000480209
-0.000304361 -0.00444639 -1.508e-05
0.000480209 -1.508e-05 -0.0036687
0.0113684 -0.00030046 5.79344e-05
-0.00030046 0.00161589 1.0767e-05
5.79344e-05 1.0767e-05 0.00146013
0.00230833 0.000301431 6.77602e-06
0.000301431 0.00115426 -7.16374e-06
6.77602e-06 -7.16374e-06 0.000959141
0.00152125 0.000469986 -4.3901e-06
0.000469986 0.00048184 3.94363e-06
-4.3901e-06 3.94363e-06 0.000156139
0.00276802 0.000608663 9.28524e-05
0.000608663 0.000399357 4.05939e-05
9.28524e-05 4.05939e-05 0.000394352
0.0030106 0.000903304 2.39119e-05
0.000903304 0.000781239 1.06175e-05
2.39119e-05 1.06175e-05 0.000491558
0.00280937 0.000772785 1.58529e-05
0.000772785 0.00108645 4.41374e-06
1.58529e-05 4.41374e-06 0.000653821
0.014883 0.000688913 7.60244e-05
0.000688913 0.0030887 -4.43427e-05
7.60244e-05 -4.43427e-05 0.00224373
0.00856439 0.0020121 -0.000196256
0.0020121 -7.58522e-05 1.65452e-05
-0.000196256 1.65452e-05 0.000652975
0.00250651 0.00114887 3.73566e-06
0.00114887 0.000478303 -2.96156e-05
3.73566e-06 -2.96156e-05 9.90508e-06
0.0123299 -0.00361276 -0.000442254
-0.00361276 0.0052668 -2.02491e-05
-0.000442254 -2.02491e-05 0.00303457
0.00070651 -0.00743492 -0.0021134
-0.00743492 0.00248544 -0.00136299
-0.0021134 -0.00136299 0.000563507
0.000947493 0.000290332 1.28128e-06
0.000290332 0.000360501 -4.942e-08
1.28128e-06 -4.942e-08 0.000132314
-0.00202408 -0.00212126 0.000393419
-0.00212126 -0.00270796 6.7232e-05
0.000393419 6.7232e-05 -0.00416981
-0.00297796 -0.00183509 -0.000418039
-0.00183509 0.00457605 -0.00018406
-0.000418039 -0.00018406 -0.000143872
0.0033361 0.000970191 -1.66559e-05
0.000970191 0.000755293 7.91694e-07
-1.66559e-05 7.91694e-07 0.000642082
0.000962676 0.000392261 -7.3494e-06
0.000392261 0.000175674 7.44949e-06
-7.3494e-06 7.44949e-06 -0.000137917
0.00120406 0.000712872 5.53174e-06
0.000712872 0.000222085 2.30817e-06
5.53174e-06 2.30817e-06 -0.000148654
0.00157248 0.00102651 4.87561e-05
0.00102651 0.00028916 2.92799e-05
4.87561e-05 2.92799e-05 1.75916e-05
0.0133299 0.00214388 -0.000138256
0.00214388 0.00107286 -8.32181e-05
-0.000138256 -8.32181e-05 -0.000788283
0.00481841 0.00267603 -5.62875e-05
0.00267603 -0.000169821 -4.6736e-05
-5.62875e-05 -4.6736e-05 0.000256864
0.0164941 -0.00439615 0.000462589
-0.00439615 0.00662244 -9.97712e-06
0.000462589 -9.97712e-06 0.00379292
0.013541 -0.00372582 0.00018692
-0.00372582 0.0018535 0.000656102
0.00018692 0.000656102 0.000606049
0.00250854 0.00039024 -1.95343e-05
0.00039024 0.00127366 -1.25842e-05
-1.95343e-05 -1.25842e-05 0.00106978
-0.0103258 0.00109739 -0.000138427
0.00109739 0.00309381 -0.000128207
-0.000138427 -0.000128207 -0.00277238
0.00458757 0.000734509 -0.000329057
0.000734509 0.00356324 -0.000446893
-0.000329057 -0.000446893 -0.000960654
0.00325723 0.000773587 -2.66444e-05
0.000773587 0.00100525 2.47628e-06
-2.66444e-05 2.47628e-06 0.000960066
0.00213155 0.000721744 -6.57718e-05
0.000721744 0.000877598 -2.56485e-05
-6.57718e-05 -2.56485e-05 0.000526135
0.00123361 0.000753172 -9.06296e-05
0.000753172 0.000938507 -1.94691e-05
-9.06296e-05 -1.94691e-05 0.000246768
-0.00169331 0.00153915 -4.27054e-05
0.00153915 -0.000857422 -3.76078e-05
-4.27054e-05 -3.76078e-05 -0.00107064
-0.000323625 0.00249323 0.000350986
0.00249323 -0.00197371 0.000119484
0.000350986 0.000119484 -0.00469903
0.0180218 -0.00526463 0.000250387
-0.00526463 0.00862962 0.000633889
0.000250387 0.000633889 0.00523967
0.00831311 -0.001159 -0.000148929
-0.001159 -0.00203292 -0.000134923
-0.000148929 -0.000134923 -0.000935787
-0.00090714 9.47879e-05 2.73387e-06
9.47879e-05 -0.000678035 -8.89732e-06
2.73387e-06 -8.89732e-06 -0.00080281
0.00146527 0.000257699 1.13319e-05
0.000257699 0.000706295 2.96624e-06
1.13319e-05 2.96624e-06 0.000547138
-0.000486788 7.34668e-05 2.42121e-07
7.34668e-05 -0.000401814 -5.86363e-06
2.42121e-07 -5.86363e-06 -0.000551734
0.000343306 5.34773e-05 1.8477e-06
5.34773e-05 -5.15379e-05 -1.10357e-06
1.8477e-06 -1.10357e-06 -0.000183144
0.000935982 7.99896e-05 -1.17253e-06
7.99896e-05 0.00033939 -2.20664e-06
-1.17253e-06 -2.20664e-06 0.000162586
0.000605096 7.08491e-06 -1.76697e-06
7.08491e-06 0.000136079 1.73817e-06
-1.76697e-06 1.73817e-06 -3.5012e-05
0.000535779 7.54999e-05 4.88572e-06
7.54999e-05 8.19473e-05 3.29392e-06
4.88572e-06 3.29392e-06 -8.14926e-05
-0.000266898 5.89641e-05 -5.02171e-06
5.89641e-05 -0.000359862 -3.01093e-07
-5.02171e-06 -3.01093e-07 -0.000501188
0.0007515 4.82666e-05 8.31719e-08
4.82666e-05 0.000227231 -9.98393e-07
8.31719e-08 -9.98393e-07 5.58523e-05
0.000754116 7.83499e-05 8.52934e-07
7.83499e-05 0.000223839 -4.75222e-07
8.52934e-07 -4.75222e-07 6.85842e-05
0.000819171 -5.21741e-05 -8.6706e-07
-5.21741e-05 0.000254433 1.96123e-06
-8.6706e-07 1.96123e-06 8.83369e-05
-0.000857199 1.51191e-05 3.26288e-06
1.51191e-05 -0.000611891 4.24032e-07
3.26288e-06 4.24032e-07 -0.000804343
-0.000161531 4.21767e-05 -1.93656e-06
4.21767e-05 3.15264e-05 4.24561e-06
-1.93656e-06 4.24561e-06 -0.000276627
0.000635043 -3.03431e-05 -3.45184e-06
-3.03431e-05 0.000204124 -7.21738e-06
-3.45184e-06 -7.21738e-06 3.5292e-05
0.000940627 -2.37006e-05 1.89002e-07
-2.37006e-05 0.000356512 -8.03902e-07
1.89002e-07 -8.03902e-07 0.00017289
0.000800977 -7.6622e-05 -1.39522e-07
-7.6622e-05 0.000261516 -9.77584e-07
-1.39522e-07 -9.77584e-07 8.61234e-05
0.000472479 -6.8661e-05 3.65582e-06
-6.8661e-05 2.60956e-06 4.86241e-06
3.65582e-06 4.86241e-06 -0.000125448
0.000841237 -7.97234e-05 8.98285e-07
-7.97234e-05 0.000287963 -1.38967e-06
8.98285e-07 -1.38967e-06 0.000108471
0.000734278 -4.16267e-05 -1.62795e-06
-4.16267e-05 0.000188568 1.97818e-07
-1.62795e-06 1.97818e-07 5.30211e-05
-0.000288226 -6.00036e-05 1.94907e-06
-6.00036e-05 -0.000433263 3.21439e-06
1.94907e-06 3.21439e-06 -0.000546663
0.000274259 -3.76818e-05 1.64375e-08
-3.76818e-05 -5.54134e-05 -1.18195e-06
1.64375e-08 -1.18195e-06 -0.000204305
0.00015067 -2.41571e-05 -6.7976e-06
-2.41571e-05 -9.84268e-05 -4.13084e-06
-6.7976e-06 -4.13084e-06 -0.000261601
5.8061e-05 -7.75854e-05 2.39783e-06
-7.75854e-05 -0.000185389 -3.55052e-06
2.39783e-06 -3.55052e-06 -0.000318917
0.0010606 -0.000107514 6.7727e-06
-0.000107514 0.00030684 -1.37623e-05
6.7727e-06 -1.37623e-05 0.000205437
-0.000182201 -6.87637e-05 -5.67449e-08
-6.87637e-05 -0.000474087 3.82908e-06
-5.67449e-08 3.82908e-06 -0.000609569
1.92594e-05 -5.04023e-05 -6.12989e-06
-5.04023e-05 -0.000223382 -2.29689e-06
-6.12989e-06 -2.29689e-06 -0.000375451
0.000700581 -6.24161e-05 8.81572e-07
-6.24161e-05 0.000178753 -9.35663e-07
8.81572e-07 -9.35663e-07 2.15053e-05
0.000190424 -3.91023e-05 3.84666e-07
-3.91023e-05 -0.000132286 -1.08158e-06
3.84666e-07 -1.08158e-06 -0.000284367
0.000695812 -9.69846e-05 2.03926e-07
-9.69846e-05 0.000198381 -7.73238e-08
2.03926e-07 -7.73238e-08 4.66461e-05
0.000480258 -2.15963e-05 4.61102e-07
-2.15963e-05 2.15662e-05 1.78917e-06
4.61102e-07 1.78917e-06 -9.37965e-05
0.00085567 -9.02409e-05 -1.09188e-06
-9.02409e-05 0.000289173 5.31471e-07
-1.09188e-06 5.31471e-07 0.000144055
0.000632968 -7.73416e-05 -9.29753e-07
-7.73416e-05 0.00012332 9.30842e-08
-9.29753e-07 9.30842e-08 3.17397e-06
0.000440609 3.21061e-05 -7.17366e-07
3.21061e-05 -2.38491e-05 3.78939e-06
-7.17366e-07 3.78939e-06 -0.000100646
0.000497627 -9.94071e-05 1.92742e-06
-9.94071e-05 3.4411e-05 -1.2063e-06
1.92742e-06 -1.2063e-06 -8.83912e-05
0.000527616 -3.29075e-05 -3.24909e-07
-3.29075e-05 2.82825e-05 1.15339e-07
-3.24909e-07 1.15339e-07 -4.5444e-05
0.00142643 7.77547e-06 -7.10839e-06
7.77547e-06 0.000562476 6.87073e-06
-7.10839e-06 6.87073e-06 0.000542651
0.00050539 -5.466e-05 1.46955e-06
-5.466e-05 2.28278e-05 -3.2566e-06
1.46955e-06 -3.2566e-06 -5.39083e-05
0.000888739 -1.30931e-05 -5.80439e-06
-1.30931e-05 0.000234678 7.70419e-07
-5.80439e-06 7.70419e-07 0.000213211
0.000759099 1.29031e-05 7.80249e-07
1.29031e-05 0.000139039 2.13717e-06
7.80249e-07 2.13717e-06 0.000143201
0.000445818 -1.01131e-05 2.30776e-06
-1.01131e-05 -3.73374e-05 -4.55204e-06
2.30776e-06 -4.55204e-06 -5.98007e-05
0.00253226 1.35255e-05 6.63265e-06
1.35255e-05 0.00124766 4.32584e-08
6.63265e-06 4.32584e-08 0.00126059
0.00254703 2.23486e-06 1.78892e-07
2.23486e-06 0.00125696 -5.11886e-06
1.78892e-07 -5.11886e-06 0.00126974
0.00101216 7.6809e-05 -6.07045e-07
7.6809e-05 0.000362402 1.00927e-06
-6.07045e-07 1.00927e-06 0.000263795
0.000519843 5.72485e-05 -1.73286e-06
5.72485e-05 2.46021e-05 -2.13419e-06
-1.73286e-06 -2.13419e-06 -2.48195e-05
0.000553863 -1.51674e-05 6.63947e-08
-1.51674e-05 8.18687e-05 8.02039e-07
6.63947e-08 8.02039e-07 -1.39532e-05
0.00050251 6.18111e-06 7.70222e-07
6.18111e-06 -2.59992e-05 -3.2957e-06
7.70222e-07 -3.2957e-06 -3.42255e-05
0.000483699 -1.3696e-05 7.19923e-07
-1.3696e-05 -2.76178e-06 -1.42838e-07
7.19923e-07 -1.42838e-07 -4.71129e-05
0.000551478 -5.55244e-05 -1.22044e-06
-5.55244e-05 4.22811e-05 2.01261e-06
-1.22044e-06 2.01261e-06 -6.37752e-06
0.00049794 7.29083e-06 -4.23683e-07
7.29083e-06 -2.9232e-05 -1.56166e-08
-4.23683e-07 -1.56166e-08 -3.78869e-05
0.00196499 2.07889e-05 -9.8319e-08
2.07889e-05 0.00089051 -4.6608e-06
-9.8319e-08 -4.6608e-06 0.000908106
0.00111402 2.29877e-05 -6.14832e-07
2.29877e-05 0.000355901 2.00568e-06
-6.14832e-07 2.00568e-06 0.000349219
0.00131176 2.83165e-05 -8.78154e-07
2.83165e-05 0.000483739 1.91774e-08
-8.78154e-07 1.91774e-08 0.000496769
0.00080736 3.37669e-05 -9.55344e-06
3.37669e-05 0.000173907 7.22244e-06
-9.55344e-06 7.22244e-06 0.000180721
-0.00909528 0.00102316 0.000436671
0.00102316 -0.00330911 -2.29383e-05
0.000436671 -2.29383e-05 -0.00574057
-0.00161885 2.39082e-05 0.000899594
2.39082e-05 0.00541598 -0.000229007
0.000899594 -0.000229007 0.00211644
0.00260451 0.000293109 -0.000162035
0.000293109 -0.0018569 -2.5157e-05
-0.000162035 -2.5157e-05 -0.000472022
0.00148656 3.04572e-05 1.89249e-05
3.04572e-05 -0.00100792 -3.62247e-05
1.89249e-05 -3.62247e-05 -0.000642235
0.00163101 -6.938e-05 5.73307e-06
-6.938e-05 -0.000259663 1.3996e-05
5.73307e-06 1.3996e-05 -0.000223337
-0.00103694 4.27425e-05 -8.2725e-05
4.27425e-05 -0.0013194 -2.29344e-05
-8.2725e-05 -2.29344e-05 -0.000466423
0.00371312 -0.000336752 3.76761e-06
-0.000336752 0.000453258 5.27106e-06
3.76761e-06 5.27106e-06 0.000547489
0.0117094 -4.18939e-05 0.00016206
-4.18939e-05 -0.000215707 -6.2859e-05
0.00016206 -6.2859e-05 -0.00105052
0.000475716 0.00309028 -4.07417e-06
0.00309028 0.000585502 -5.71048e-05
-4.07417e-06 -5.71048e-05 -0.00241026
0.00947894 0.00612297 -0.000432964
0.00612297 0.0067428 0.000226794
-0.000432964 0.000226794 0.00495298
0.00208492 -0.000650951 5.21124e-05
-0.000650951 -0.00179148 -4.06768e-05
5.21124e-05 -4.06768e-05 -0.000863099
0.0150076 -0.00188315 0.000200175
-0.00188315 0.00206859 -7.40459e-05
0.000200175 -7.40459e-05 0.000508116
0.0128612 0.0056451 0.000360362
0.0056451 0.00374971 -0.000507443
0.000360362 -0.000507443 0.00113133
0.0168957 0.00370948 -0.000312057
0.00370948 0.00471931 0.000247467
-0.000312057 0.000247467 0.00313759
0.00088344 0.000153986 -2.61142e-06
0.000153986 0.00032917 4.47101e-06
-2.61142e-06 4.47101e-06 0.000165153
0.000377034 3.30944e-05 2.47536e-07
3.30944e-05 -2.99547e-05 -9.40789e-07
2.47536e-07 -9.40789e-07 -0.000130489
0.00057547 -9.53686e-05 1.11437e-06
-9.53686e-05 9.77768e-05 1.1923e-06
1.11437e-06 1.1923e-06 2.1203e-06
0.000632802 7.29947e-06 5.79725e-06
7.29947e-06 0.000139478 -1.55736e-07
5.79725e-06 -1.55736e-07 2.30667e-05
0.000762372 7.39623e-05 2.0305e-06
7.39623e-05 0.000261127 1.22747e-06
2.0305e-06 1.22747e-06 0.000128828
0.000479666 1.85518e-06 1.03404e-07
1.85518e-06 6.86779e-05 7.63604e-06
1.03404e-07 7.63604e-06 -9.06954e-05
0.000723119 9.00511e-05 1.19622e-06
9.00511e-05 0.00019181 3.07127e-06
1.19622e-06 3.07127e-06 6.09599e-05
0.000483522 5.79147e-05 4.95872e-06
5.79147e-05 2.84749e-05 6.08807e-07
4.95872e-06 6.08807e-07 -0.000109078
0.000734339 -4.1003e-05 2.80935e-06
-4.1003e-05 0.000219651 -1.22322e-06
2.80935e-06 -1.22322e-06 8.61985e-05
0.000478082 -1.40253e-05 1.49469e-06
-1.40253e-05 2.618e-05 -2.93229e-06
1.49469e-06 -2.93229e-06 -7.74844e-05
0.00142191 -0.000315638 2.93808e-05
-0.000315638 -0.000514214 -2.38617e-06
2.93808e-05 -2.38617e-06 -0.000270635
0.00112324 -0.000534858 3.50068e-05
-0.000534858 -0.000599479 -1.00701e-05
3.50068e-05 -1.00701e-05 -0.000474286
0.000948535 -0.00067433 6.0603e-06
-0.00067433 -0.000449897 7.00252e-07
6.0603e-06 7.00252e-07 -0.000608471
7.41311e-05 -0.000605012 -3.63327e-06
-0.000605012 -0.000607511 1.94502e-06
-3.63327e-06 1.94502e-06 -0.000869051
0.00326408 -0.000536923 8.76085e-06
-0.000536923 0.00200596 3.11913e-05
8.76085e-06 3.11913e-05 0.00137196
-4.65979e-05 -0.000434909 1.30642e-06
-0.000434909 -0.000119226 -2.82662e-06
1.30642e-06 -2.82662e-06 -0.000550597
0.00142471 -0.000207669 4.6785e-06
-0.000207669 0.000601689 -1.01387e-06
4.6785e-06 -1.01387e-06 0.000479225
0.000762247 -4.19671e-05 -1.17807e-06
-4.19671e-05 0.000256407 3.28577e-06
-1.17807e-06 3.28577e-06 0.000125148
0.00226247 -0.000511258 1.04772e-05
-0.000511258 -0.000182143 -8.1479e-06
1.04772e-05 -8.1479e-06 3.1613e-05
0.000431975 -5.16877e-05 3.79828e-07
-5.16877e-05 9.90266e-05 1.20538e-06
3.79828e-07 1.20538e-06 -0.000120155
-0.000241381 -0.000152353 -6.95775e-07
-0.000152353 -0.000255877 -4.59704e-06
-6.95775e-07 -4.59704e-06 -0.000490283
0.00189615 -0.000712532 1.80922e-05
-0.000712532 6.08932e-05 -3.04553e-06
1.80922e-05 -3.04553e-06 7.16915e-06
0.00186697 -0.000889987 -6.06774e-07
-0.000889987 8.63371e-05 3.85748e-06
-6.06774e-07 3.85748e-06 -0.000100651
0.000222095 -0.000623067 1.8063e-05
-0.000623067 -0.00023861 -1.11023e-05
1.8063e-05 -1.11023e-05 -0.000488995
0.00132168 -0.000330281 3.11902e-06
-0.000330281 0.00102272 -1.60124e-05
3.11902e-06 -1.60124e-05 0.000391447
0.00296949 -0.000875263 -6.05182e-05
-0.000875263 0.000600079 3.25101e-05
-6.05182e-05 3.25101e-05 0.000326394
0.000526308 -0.00058353 -3.89956e-05
-0.00058353 -0.000452578 9.84677e-06
-3.89956e-05 9.84677e-06 -0.000485394
0.00077833 -0.000607577 -7.09866e-05
-0.000607577 0.000418406 5.15275e-05
-7.09866e-05 5.15275e-05 1.56786e-05
-0.00272016 -0.000246917 -5.26803e-06
-0.000246917 -0.00180778 9.31257e-06
-5.26803e-06 9.31257e-06 -0.00203678
-0.000824873 -6.98054e-05 4.08344e-06
-6.98054e-05 -0.000593958 8.25706e-06
4.08344e-06 8.25706e-06 -0.000857215
0.000538823 -6.18352e-05 8.64578e-06
-6.18352e-05 0.000321098 -1.16081e-05
8.64578e-06 -1.16081e-05 -3.94465e-05
-0.00205661 0.0010864 -0.000352448
0.0010864 0.00658284 1.79069e-05
-0.000352448 1.79069e-05 0.00231325
0.000578834 -0.00127049 -6.61581e-06
-0.00127049 0.00207181 1.91252e-05
-6.61581e-06 1.91252e-05 0.00144602
0.00201854 0.00102232 -0.000105583
0.00102232 -0.00488124 -4.14866e-05
-0.000105583 -4.14866e-05 -0.00516426
0.000278681 0.000233689 9.42143e-06
0.000233689 -1.53796e-05 -4.50902e-06
9.42143e-06 -4.50902e-06 -0.000239308
0.00123117 0.000499187 8.57897e-06
0.000499187 0.000379887 1.79829e-05
8.57897e-06 1.79829e-05 1.17331e-05
0.00350758 0.000866921 6.23519e-05
0.000866921 0.000841422 2.09373e-05
6.23519e-05 2.09373e-05 0.000757981
0.00168316 0.000789113 1.4431e-05
0.000789113 0.000498954 2.31376e-05
1.4431e-05 2.31376e-05 9.65006e-05
0.0117596 -0.00244419 0.000177469
-0.00244419 0.00420445 5.09659e-05
0.000177469 5.09659e-05 0.00358706
0.00395521 0.00106002 -0.000355419
0.00106002 -0.0037158 -5.63366e-05
-0.000355419 -5.63366e-05 -0.00552084
0.00505513 0.00253165 -6.78131e-06
0.00253165 0.000134585 2.61823e-05
-6.78131e-06 2.61823e-05 0.000449793
0.00189998 0.000921395 4.20069e-05
0.000921395 0.000680229 -2.09598e-05
4.20069e-05 -2.09598e-05 0.000480671
0.00421333 -0.00289905 -0.000369691
-0.00289905 0.00242472 -0.000334646
-0.000369691 -0.000334646 -0.000345659
-0.000559906 -0.00276335 -0.000553192
-0.00276335 0.00498435 -0.000184344
-0.000553192 -0.000184344 0.000150176
0.0208241 -0.00468726 0.000589858
-0.00468726 0.00548801 0.000336827
0.000589858 0.000336827 0.00408567
0.000432152 0.000216661 1.6079e-05
0.000216661 6.35301e-05 -4.16674e-06
1.6079e-05 -4.16674e-06 -0.00013136
-0.00408414 0.00041019 -0.000168519
0.00041019 0.00489676 -3.60481e-05
-0.000168519 -3.60481e-05 -3.99754e-05
0.00519255 0.000978573 -9.79948e-05
0.000978573 0.00302763 -0.000157008
-9.79948e-05 -0.000157008 -0.00189431
0.00152496 0.000738997 1.17025e-05
0.000738997 0.000184466 4.14933e-06
1.17025e-05 4.14933e-06 9.62972e-05
0.000660963 0.000548543 1.06431e-05
0.000548543 0.000170222 4.18673e-06
1.06431e-05 4.18673e-06 -0.000192257
0.000463842 0.000807683 -4.38989e-05
0.000807683 0.000338613 -5.91883e-05
-4.38989e-05 -5.91883e-05 -0.000197131
0.00382323 0.00269716 2.08221e-05
0.00269716 0.00113464 2.14538e-05
2.08221e-05 2.14538e-05 0.000880245
0.0166664 0.00341513 6.46279e-05
0.00341513 0.00419566 1.62298e-05
6.46279e-05 1.62298e-05 0.00208527
0.00668412 -0.00325847 7.72552e-05
-0.00325847 0.00225126 -7.36309e-05
7.72552e-05 -7.36309e-05 -0.00172409
0.014246 -0.00215909 -4.02548e-06
-0.00215909 0.00202207 -6.51881e-05
-4.02548e-06 -6.51881e-05 0.00328073
0.000718534 0.000398716 -1.18683e-05
0.000398716 0.000262383 -9.0792e-06
-1.18683e-05 -9.0792e-06 8.94521e-06
0.00210037 0.000192035 -0.000295199
0.000192035 0.00192581 -6.58277e-05
-0.000295199 -6.58277e-05 -0.00218901
0.000640393 0.00058094 -0.000101798
0.00058094 -0.000179114 -0.000163446
-0.000101798 -0.000163446 -0.00173899
-0.000817034 0.000241687 5.91929e-07
0.000241687 -0.000256998 -2.15702e-05
5.91929e-07 -2.15702e-05 -0.000490796
-0.00053154 0.000524356 -0.000156226
0.000524356 0.00105269 -1.80785e-06
-0.000156226 -1.80785e-06 0.000222583
0.0142974 0.00412158 9.14726e-05
0.00412158 0.00466408 -3.55819e-05
9.14726e-05 -3.55819e-05 0.000622565
-0.00298713 -0.00457186 5.23007e-07
-0.00457186 -0.000609267 0.00022272
5.23007e-07 0.00022272 -0.0049145
0.0112072 0.000482607 5.14515e-05
0.000482607 -0.00150831 -0.000308526
5.14515e-05 -0.000308526 0.00108403
0.000883224 0.000176688 -5.50277e-06
0.000176688 0.000316821 1.42006e-05
-5.50277e-06 1.42006e-05 0.000184429
0.000816761 0.000200013 -1.00393e-05
0.000200013 0.000399065 -4.31599e-06
-1.00393e-05 -4.31599e-06 0.000220954
-0.000570824 7.46535e-05 3.015e-06
7.46535e-05 -0.000225206 -1.64576e-06
3.015e-06 -1.64576e-06 -0.000511221
0.00070318 8.56358e-05 -1.63509e-06
8.56358e-05 0.00018183 -2.39689e-06
-1.63509e-06 -2.39689e-06 2.12946e-05
0.00110223 -4.04338e-05 -1.28383e-06
-4.04338e-05 0.000437757 3.51708e-06
-1.28383e-06 3.51708e-06 0.000263255
0.000373061 7.02801e-05 2.69723e-06
7.02801e-05 -2.17654e-05 1.41198e-06
2.69723e-06 1.41198e-06 -0.000169458
-0.00100482 1.90593e-05 1.47756e-06
1.90593e-05 -0.000682188 1.40942e-06
1.47756e-06 1.40942e-06 -0.000872919
0.000769884 -3.03291e-05 1.22034e-06
-3.03291e-05 0.000226929 1.78548e-07
1.22034e-06 1.78548e-07 6.20261e-05
0.000606382 8.46921e-06 -1.5627e-07
8.46921e-06 0.000186847 -2.51663e-06
-1.5627e-07 -2.51663e-06 1.74899e-05
-9.07206e-05 2.23537e-05 1.74213e-06
2.23537e-05 0.000114383 3.04513e-06
1.74213e-06 3.04513e-06 -0.000225439
-0.000208416 6.39763e-05 -4.6579e-06
6.39763e-05 0.000215131 1.08673e-05
-4.6579e-06 1.08673e-05 -0.000245354
0.000116241 -3.52337e-06 -2.65802e-06
-3.52337e-06 0.0002706 -1.05698e-06
-2.65802e-06 -1.05698e-06 -9.77405e-05
0.000765203 4.49751e-06 -1.77341e-06
4.49751e-06 0.000254204 -6.17292e-06
-1.77341e-06 -6.17292e-06 0.000106401
0.00062841 -0.000132565 1.85996e-06
-0.000132565 0.000139464 1.291e-06
1.85996e-06 1.291e-06 -2.82838e-05
0.000472774 -2.06455e-05 1.39817e-06
-2.06455e-05 1.63542e-05 1.78915e-06
1.39817e-06 1.78915e-06 -0.000112818
0.000417402 -9.00989e-05 1.34875e-06
-9.00989e-05 5.94272e-06 1.02593e-05
1.34875e-06 1.02593e-05 -9.71106e-05
0.000214126 -3.52735e-05 2.24683e-06
-3.52735e-05 -8.33702e-05 3.45767e-06
2.24683e-06 3.45767e-06 -0.000229693
0.000609876 -4.16477e-05 1.25751e-07
-4.16477e-05 0.000143378 4.66797e-07
1.25751e-07 4.66797e-07 -2.74241e-06
0.000484752 -4.67003e-05 4.90956e-08
-4.67003e-05 7.26117e-05 -1.92276e-06
4.90956e-08 -1.92276e-06 -5.89019e-05
0.000389592 -4.95284e-05 -7.9105e-06
-4.95284e-05 3.38254e-06 -4.43841e-06
-7.9105e-06 -4.43841e-06 -0.000127392
0.000413205 -6.21411e-05 6.98318e-06
-6.21411e-05 0.000179797 -6.25801e-06
6.98318e-06 -6.25801e-06 1.36974e-05
0.000293693 -0.000162386 -2.97461e-07
-0.000162386 -0.000251872 3.58678e-06
-2.97461e-07 3.58678e-06 -0.000346143
0.000697239 -0.000133372 -9.4797e-06
-0.000133372 0.000106855 -7.50942e-07
-9.4797e-06 -7.50942e-07 -3.13549e-06
0.000353187 -0.000163936 6.28139e-06
-0.000163936 -0.000112543 6.96944e-06
6.28139e-06 6.96944e-06 -0.000261423
0.00193506 -0.000468914 9.70555e-07
-0.000468914 0.000748111 1.85649e-05
9.70555e-07 1.85649e-05 0.000447506
0.00168623 -0.000215406 2.56224e-06
-0.000215406 0.000744968 -5.93299e-06
2.56224e-06 -5.93299e-06 0.000558941
-0.000122096 -8.55159e-05 -9.71692e-06
-8.55159e-05 -0.00039413 -5.01791e-06
-9.71692e-06 -5.01791e-06 -0.000517133
0.000534213 -7.17231e-05 1.0071e-07
-7.17231e-05 6.56634e-05 -4.14147e-07
1.0071e-07 -4.14147e-07 -8.51262e-05
-9.77146e-05 -4.92467e-05 -1.23003e-06
-4.92467e-05 -0.000301242 -2.32984e-06
-1.23003e-06 -2.32984e-06 -0.000468786
0.000879157 -8.11864e-05 -2.74723e-07
-8.11864e-05 0.000281918 1.01147e-06
-2.74723e-07 1.01147e-06 0.000124638
0.000741282 -0.000112492 -6.93917e-07
-0.000112492 0.00021746 6.61862e-07
-6.93917e-07 6.61862e-07 5.25485e-05
0.000545249 -5.68566e-05 1.17267e-08
-5.68566e-05 5.00591e-05 1.78339e-06
1.17267e-08 1.78339e-06 -6.76556e-05
0.00129863 -0.000164919 -8.62934e-07
-0.000164919 0.000590261 -1.02717e-06
-8.62934e-07 -1.02717e-06 0.000415398
0.000669855 -9.59614e-05 -5.01054e-07
-9.59614e-05 0.000140093 4.48552e-09
-5.01054e-07 4.48552e-09 1.91252e-05
0.000509703 1.26002e-05 -2.1387e-06
1.26002e-05 1.55073e-05 3.14116e-06
-2.1387e-06 3.14116e-06 -6.2333e-05
0.000725559 -0.000124757 1.5689e-06
-0.000124757 0.000181259 -2.2708e-06
1.5689e-06 -2.2708e-06 5.68234e-05
0.000596502 -4.92361e-05 -2.00952e-07
-4.92361e-05 6.84421e-05 1.75341e-07
-2.00952e-07 1.75341e-07 -7.52512e-06
0.00144142 1.3129e-05 -1.17192e-05
1.3129e-05 0.000567265 7.13644e-06
-1.17192e-05 7.13644e-06 0.000546132
0.000551457 -6.32236e-05 2.33546e-06
-6.32236e-05 5.00687e-05 -3.64599e-06
2.33546e-06 -3.64599e-06 -2.85337e-05
0.000884389 -7.12418e-06 -7.00305e-06
-7.12418e-06 0.000225912 6.96784e-07
-7.00305e-06 6.96784e-07 0.000203481
0.00079356 2.22239e-05 8.21793e-07
2.22239e-05 0.000158013 2.68188e-06
8.21793e-07 2.68188e-06 0.000160407
0.000447837 -2.31511e-05 2.12874e-06
-2.31511e-05 -4.10791e-05 -4.801e-06
2.12874e-06 -4.801e-06 -6.45995e-05
0.0016509 2.22416e-05 9.5037e-06
2.22416e-05 0.000697315 -1.49606e-06
9.5037e-06 -1.49606e-06 0.000705767
0.00251432 1.37813e-05 9.28699e-06
1.37813e-05 0.00123603 -5.15728e-06
9.28699e-06 -5.15728e-06 0.00124897
0.000528528 4.51011e-05 1.82705e-06
4.51011e-05 4.34175e-05 -1.38973e-06
1.82705e-06 -1.38973e-06 -5.51724e-05
0.00060683 5.71874e-05 -1.04982e-06
5.71874e-05 7.28706e-05 -1.58059e-06
-1.04982e-06 -1.58059e-06 2.07592e-05
0.000602618 -1.14243e-06 1.13937e-06
-1.14243e-06 0.00010229 6.97081e-07
1.13937e-06 6.97081e-07 7.11621e-06
0.000488615 2.47213e-06 1.37266e-06
2.47213e-06 -3.33502e-05 -3.52995e-06
1.37266e-06 -3.52995e-06 -4.23368e-05
0.000506582 4.74054e-05 1.16414e-07
4.74054e-05 1.18884e-05 -1.3377e-07
1.16414e-07 -1.3377e-07 -3.49462e-05
0.000553636 -0.000110461 -2.88181e-06
-0.000110461 7.36463e-05 3.99457e-07
-2.88181e-06 3.99457e-07 -1.69313e-05
0.00198392 7.20891e-06 -5.19636e-06
7.20891e-06 0.000900419 -4.72452e-06
-5.19636e-06 -4.72452e-06 0.000918734
0.000480826 4.72122e-06 -2.42241e-07
4.72122e-06 -3.9037e-05 2.0431e-08
-2.42241e-07 2.0431e-08 -4.72466e-05
0.00051084 -1.65405e-05 -1.71068e-06
-1.65405e-05 1.21524e-05 1.99022e-06
-1.71068e-06 1.99022e-06 -3.11125e-05
0.000482686 6.0919e-06 -1.17202e-06
6.0919e-06 -3.92773e-05 3.31905e-06
-1.17202e-06 3.31905e-06 -4.78817e-05
0.00200605 2.23132e-05 -5.0637e-06
2.23132e-05 0.000916312 -9.61942e-08
-5.0637e-06 -9.61942e-08 0.000933648
0.00196424 3.56548e-05 -6.16561e-06
3.56548e-05 0.000892721 4.52236e-06
-6.16561e-06 4.52236e-06 0.00090913
-0.00655575 -0.00146991 -0.00015387
-0.00146991 0.00480902 5.10245e-05
-0.00015387 5.10245e-05 0.000923717
0.00134953 0.00116995 -0.000223846
0.00116995 0.000340333 6.69392e-05
-0.000223846 6.69392e-05 -0.0013961
0.0029375 -0.000908839 -0.000560075
-0.000908839 0.0012142 0.000247856
-0.000560075 0.000247856 -0.00324793
-0.00135488 0.000389041 0.000962993
0.000389041 0.0053754 -0.000320735
0.000962993 -0.000320735 0.00169983
0.00169571 0.000496589 -2.83479e-05
0.000496589 -0.00125629 -1.7059e-05
-2.83479e-05 -1.7059e-05 -0.000522304
0.00260055 -0.000402227 8.65103e-05
-0.000402227 -0.000271251 5.17252e-06
8.65103e-05 5.17252e-06 -0.000181672
0.000647013 -0.000361751 0.000238428
-0.000361751 -0.00434308 -6.64121e-05
0.000238428 -6.64121e-05 -0.00618532
0.0187898 0.00279017 -0.000646932
0.00279017 0.00845098 5.59864e-05
-0.000646932 5.59864e-05 0.00601391
0.00170751 0.00705566 -0.00201427
0.00705566 0.002383 0.00135318
-0.00201427 0.00135318 0.000544329
0.00433744 -0.000521782 2.14348e-05
-0.000521782 -0.000370152 8.16306e-06
2.14348e-05 8.16306e-06 0.000193604
0.00892344 -0.00178889 0.00013599
-0.00178889 -0.000962466 -0.000120832
0.00013599 -0.000120832 -0.00329259
0.0193425 0.00482747 -0.000276341
0.00482747 0.00589383 -0.000101658
-0.000276341 -0.000101658 0.00345796
0.0125938 0.00384569 -4.86181e-05
0.00384569 0.00187386 0.000361067
-4.86181e-05 0.000361067 6.48736e-05
0.0017254 -0.00146975 -0.000105597
-0.00146975 -0.00273122 2.11339e-05
-0.000105597 2.11339e-05 -0.00185677
0.00537018 -0.00298511 0.000353546
-0.00298511 -0.000171857 -0.000209317
0.000353546 -0.000209317 -0.00403298
0.00335908 0.00306531 8.95769e-05
0.00306531 -2.3213e-05 -0.000709128
8.95769e-05 -0.000709128 -0.00315239
0.00809332 0.00101151 -0.000236683
0.00101151 -0.00255215 4.55069e-06
-0.000236683 4.55069e-06 -0.00146045
0.00228941 -9.06502e-05 1.6073e-06
-9.06502e-05 0.00126446 1.52058e-05
1.6073e-06 1.52058e-05 0.00101188
0.000462552 0.000114693 -1.71471e-06
0.000114693 4.92093e-05 -2.40281e-06
-1.71471e-06 -2.40281e-06 -9.07671e-05
0.000527859 9.50813e-05 2.24742e-06
9.50813e-05 5.27306e-05 -1.71209e-06
2.24742e-06 -1.71209e-06 -4.21234e-05
0.000317144 2.4018e-05 6.89598e-06
2.4018e-05 -2.12435e-05 -3.80832e-07
6.89598e-06 -3.80832e-07 -0.00013938
0.000427059 8.57725e-05 3.44633e-06
8.57725e-05 1.43601e-05 2.47021e-06
3.44633e-06 2.47021e-06 -0.000166551
0.000469267 3.17946e-05 -3.13369e-07
3.17946e-05 5.09474e-05 2.41581e-06
-3.13369e-07 2.41581e-06 -9.51242e-05
0.000351808 3.65498e-05 1.14229e-06
3.65498e-05 -3.34308e-05 -3.63146e-06
1.14229e-06 -3.63146e-06 -0.000162044
0.000918424 0.000170797 3.01807e-06
0.000170797 0.000331091 5.75051e-06
3.01807e-06 5.75051e-06 0.000161069
0.000893848 0.000122391 -5.99523e-08
0.000122391 0.000322812 -2.05879e-08
-5.99523e-08 -2.05879e-08 0.000157857
0.000409786 -2.09651e-05 -4.53791e-06
-2.09651e-05 5.7777e-06 -6.24129e-06
-4.53791e-06 -6.24129e-06 -0.000121628
0.000512112 -0.000402895 7.4934e-05
-0.000402895 -0.00110518 -3.53112e-05
7.4934e-05 -3.53112e-05 -0.000854396
0.000366502 -0.000602736 2.46917e-05
-0.000602736 -0.000802904 -9.98433e-06
2.46917e-05 -9.98433e-06 -0.000800561
0.00146184 -0.000853109 -6.63793e-06
-0.000853109 -0.000191396 1.23636e-05
-6.63793e-06 1.23636e-05 -0.000310208
-0.000884683 -0.000609237 5.51352e-06
-0.000609237 -0.000826216 -1.59179e-05
5.51352e-06 -1.59179e-05 -0.00116316
0.00331941 -0.000425503 -1.88608e-05
-0.000425503 0.00201451 5.80437e-05
-1.88608e-05 5.80437e-05 0.00153166
0.00102326 -0.000186576 -3.05678e-06
-0.000186576 0.000528626 5.83363e-06
-3.05678e-06 5.83363e-06 0.000273964
0.000298345 0.000125014 -3.63439e-06
0.000125014 3.71173e-06 -1.43766e-05
-3.63439e-06 -1.43766e-05 -0.000212618
0.000651368 -9.60908e-05 -2.194e-06
-9.60908e-05 0.00024223 9.3149e-06
-2.194e-06 9.3149e-06 -1.85185e-05
0.00172492 -0.000716987 -1.34765e-06
-0.000716987 -0.000165457 -4.93557e-06
-1.34765e-06 -4.93557e-06 -0.00022546
0.000737688 -6.15825e-05 1.13249e-06
-6.15825e-05 0.000302912 5.09175e-06
1.13249e-06 5.09175e-06 5.73887e-05
0.00204462 -0.000264601 1.50769e-06
-0.000264601 0.00121729 -1.45893e-06
1.50769e-06 -1.45893e-06 0.000838318
0.00138135 -0.000676635 3.49154e-06
-0.000676635 -2.86589e-06 6.47156e-06
3.49154e-06 6.47156e-06 -5.14381e-05
0.000712615 -0.000627737 -2.33498e-05
-0.000627737 0.000312345 6.55576e-06
-2.33498e-05 6.55576e-06 -5.98413e-05
0.00255944 -0.00124873 2.86469e-05
-0.00124873 0.000268907 -1.35911e-05
2.86469e-05 -1.35911e-05 0.000299863
-0.000965815 -0.000397938 -6.2501e-06
-0.000397938 -0.000843214 2.08109e-05
-6.2501e-06 2.08109e-05 -0.000877254
-0.00085836 -9.86652e-05 1.15419e-05
-9.86652e-05 -0.000338402 2.81622e-07
1.15419e-05 2.81622e-07 -0.00080564
0.000757828 7.91792e-07 -3.82797e-06
7.91792e-07 0.000275194 -4.99351e-06
-3.82797e-06 -4.99351e-06 5.91462e-05
0.000827491 4.02718e-06 7.19012e-06
4.02718e-06 0.000478159 -7.28848e-06
7.19012e-06 -7.28848e-06 0.000183342
0.00132371 8.54703e-05 -3.31794e-05
8.54703e-05 0.00177368 -1.36326e-05
-3.31794e-05 -1.36326e-05 -0.00186797
-0.00595383 0.000378549 -0.000305284
0.000378549 0.0059002 -1.62243e-05
-0.000305284 -1.62243e-05 0.00124426
-0.0127691 -0.00204953 -0.00060688
-0.00204953 -0.00556109 -1.44264e-05
-0.00060688 -1.44264e-05 -0.00597697
-0.000970068 0.000128177 6.88253e-06
0.000128177 -0.000733597 -4.92734e-06
6.88253e-06 -4.92734e-06 -0.000941504
-0.000622179 0.000414386 -4.04774e-06
0.000414386 -0.000473333 9.37983e-06
-4.04774e-06 9.37983e-06 -0.000843908
0.00162692 0.00082594 2.71874e-05
0.00082594 0.000258798 2.34485e-05
2.71874e-05 2.34485e-05 0.000146471
-0.00554175 0.00164293 4.9524e-05
0.00164293 0.00521898 5.08803e-05
4.9524e-05 5.08803e-05 0.000940574
0.00622742 0.0029258 -0.000242883
0.0029258 0.000236498 -0.000141712
-0.000242883 -0.000141712 -0.00331737
0.00222431 0.0019155 0.000357065
0.0019155 0.000540153 0.000124867
0.000357065 0.000124867 0.000345462
1.34939e-05 0.000789595 2.43375e-05
0.000789595 -8.75627e-05 -4.07746e-05
2.43375e-05 -4.07746e-05 -0.000315179
0.0233586 -0.00332965 -0.000158784
-0.00332965 0.00748487 -0.000305241
-0.000158784 -0.000305241 0.00486906
0.00572152 0.00124257 0.000440948
0.00124257 0.00291604 0.000164431
0.000440948 0.000164431 -0.00239331
0.0135241 -0.00187187 0.000149247
-0.00187187 0.00221354 3.33747e-05
0.000149247 3.33747e-05 0.00357161
0.00120833 0.000445058 3.68492e-06
0.000445058 0.000611915 -1.46299e-06
3.68492e-06 -1.46299e-06 0.000345419
0.003776 0.000439501 -1.76962e-06
0.000439501 0.00279495 1.44721e-05
-1.76962e-06 1.44721e-05 -0.000288348
0.00136095 0.000544095 5.55518e-05
0.000544095 5.21678e-05 5.0104e-06
5.55518e-05 5.0104e-06 -0.0015405
-0.000383599 0.000421785 -2.80679e-06
0.000421785 -0.000147324 -4.91449e-06
-2.80679e-06 -4.91449e-06 -0.00044247
0.000499404 0.00105104 -0.000110728
0.00105104 0.000945157 -5.15058e-05
-0.000110728 -5.15058e-05 -0.000258293
0.000902679 0.00377051 0.000170915
0.00377051 0.000471066 9.74011e-05
0.000170915 9.74011e-05 -0.00376427
0.00885717 0.000139763 -1.0499e-05
0.000139763 -0.00333162 -0.000200313
-1.0499e-05 -0.000200313 -0.000490966
0.00452629 -0.00241015 -6.7764e-05
-0.00241015 0.00279977 -0.000148738
-6.7764e-05 -0.000148738 -0.00144934
0.000971917 0.000350201 -5.7755e-06
0.000350201 0.000764453 -1.59924e-05
-5.7755e-06 -1.59924e-05 0.00044924
-0.00240615 0.000130541 9.72404e-06
0.000130541 -9.27972e-05 1.29125e-05
9.72404e-06 1.29125e-05 -0.000283354
0.00434141 -7.2232e-05 8.85324e-05
-7.2232e-05 -0.000238117 -0.000151046
8.85324e-05 -0.000151046 -0.0013263
0.00803969 0.00123008 0.000248904
0.00123008 -0.00222544 -1.85424e-05
0.000248904 -1.85424e-05 -0.00129669
-0.00214719 0.000126826 2.36872e-05
0.000126826 -7.81769e-05 -3.23352e-05
2.36872e-05 -3.23352e-05 -0.000840128
0.013009 0.00299878 0.000259712
0.00299878 0.00600998 5.90831e-05
0.000259712 5.90831e-05 0.0010741
-0.000813987 -0.000467052 6.38785e-05
-0.000467052 0.00209886 0.000364152
6.38785e-05 0.000364152 -0.00120617
0.00295859 0.000412372 2.22334e-05
0.000412372 0.00172027 1.16393e-05
2.22334e-05 1.16393e-05 0.00149214
0.000575886 0.000205433 -5.58679e-06
0.000205433 0.000478381 -1.37643e-06
-5.58679e-06 -1.37643e-06 0.000153522
0.000187732 0.000131202 1.23096e-07
0.000131202 0.000446617 1.64869e-06
1.23096e-07 1.64869e-06 3.68518e-05
0.000653385 0.000155629 1.56467e-06
0.000155629 0.00017221 9.60714e-07
1.56467e-06 9.60714e-07 -4.68753e-07
0.000396326 5.16907e-05 1.47774e-06
5.16907e-05 4.53166e-05 1.98524e-06
1.47774e-06 1.98524e-06 -0.000114609
0.000196754 -3.62016e-05 5.28612e-06
-3.62016e-05 0.000307422 -1.35005e-06
5.28612e-06 -1.35005e-06 -5.16285e-05
0.000415112 2.16568e-05 3.42072e-07
2.16568e-05 3.06959e-05 -7.39109e-07
3.42072e-07 -7.39109e-07 -0.000106437
0.000642431 -3.03673e-05 -1.64701e-06
-3.03673e-05 0.000576917 -2.46697e-06
-1.64701e-06 -2.46697e-06 0.000215242
0.000409085 5.47232e-05 5.72886e-07
5.47232e-05 0.000567731 -1.46948e-06
5.72886e-07 -1.46948e-06 0.000122688
-0.000206866 1.56244e-05 -1.03563e-05
1.56244e-05 0.000161043 5.19365e-06
-1.03563e-05 5.19365e-06 -0.000219931
0.000266441 -1.87085e-05 1.08466e-07
-1.87085e-05 0.000287121 -4.05349e-06
1.08466e-07 -4.05349e-06 -1.40274e-05
0.000226514 -6.40859e-05 1.58518e-06
-6.40859e-05 -0.000101266 8.04528e-06
1.58518e-06 8.04528e-06 -0.000230359
0.000874064 -5.22596e-05 -5.06719e-07
-5.22596e-05 0.000301504 1.98584e-06
-5.06719e-07 1.98584e-06 0.000155701
0.00117747 -4.9808e-05 -1.08671e-05
-4.9808e-05 0.000497347 8.90614e-06
-1.08671e-05 8.90614e-06 0.00036311
0.000786078 -7.89764e-05 2.71999e-06
-7.89764e-05 0.000381415 -4.56344e-07
2.71999e-06 -4.56344e-07 0.000225855
0.000565402 -5.03229e-05 -7.95103e-07
-5.03229e-05 0.000106847 -6.68669e-07
-7.95103e-07 -6.68669e-07 -2.217e-05
0.000291788 -0.000151293 -6.30677e-07
-0.000151293 -3.78846e-05 1.73282e-06
-6.30677e-07 1.73282e-06 -0.000182494
0.000108985 -0.000138337 -1.06056e-05
-0.000138337 -0.000266747 -1.71108e-06
-1.06056e-05 -1.71108e-06 -0.000331552
-0.000687138 -0.000282348 8.83176e-06
-0.000282348 -0.000697645 1.62207e-05
8.83176e-06 1.62207e-05 -0.000974196
0.000305793 -0.000169022 6.05737e-06
-0.000169022 -0.000110788 -1.32429e-06
6.05737e-06 -1.32429e-06 -0.000227046
0.00117957 -0.000265062 -3.19323e-06
-0.000265062 0.000380007 9.95807e-06
-3.19323e-06 9.95807e-06 0.000202454
0.00195012 -0.000506644 -9.24585e-06
-0.000506644 0.000778754 1.30117e-05
-9.24585e-06 1.30117e-05 0.000443588
0.00153005 -0.000459241 -6.76235e-06
-0.000459241 0.000389575 7.87984e-07
-6.76235e-06 7.87984e-07 5.31506e-05
0.00107114 -0.000293503 3.22551e-07
-0.000293503 0.000330566 3.81865e-06
3.22551e-07 3.81865e-06 9.70832e-05
0.000332891 -0.000275665 1.03335e-05
-0.000275665 -0.000225605 -4.22264e-06
1.03335e-05 -4.22264e-06 -0.000477321
0.00120764 -0.000150185 2.15439e-06
-0.000150185 0.000493816 -2.71221e-06
2.15439e-06 -2.71221e-06 0.000275192
0.00129864 -0.000212205 -7.40929e-06
-0.000212205 0.000545169 -1.48114e-07
-7.40929e-06 -1.48114e-07 0.000344673
5.10054e-05 -0.000116831 9.95571e-06
-0.000116831 -0.000247955 -1.57519e-05
9.95571e-06 -1.57519e-05 -0.000361206
0.00113599 -9.65609e-05 -3.29074e-08
-9.65609e-05 0.000407725 1.86935e-06
-3.29074e-08 1.86935e-06 0.000257145
0.000267953 -7.90463e-05 7.91514e-07
-7.90463e-05 -7.90016e-05 -7.888e-07
7.91514e-07 -7.888e-07 -0.00024715
0.000510729 -4.9015e-05 8.71247e-07
-4.9015e-05 2.10971e-05 9.7275e-07
8.71247e-07 9.7275e-07 -0.000106399
0.00124042 -0.000184512 -6.05801e-07
-0.000184512 0.000538578 6.74676e-07
-6.05801e-07 6.74676e-07 0.000359238
0.000648101 -8.48017e-05 -3.51145e-07
-8.48017e-05 0.000125982 -1.81213e-07
-3.51145e-07 -1.81213e-07 -3.33815e-06
0.000467218 1.6293e-05 1.56824e-06
1.6293e-05 -9.01266e-07 3.83409e-06
1.56824e-06 3.83409e-06 -9.07118e-05
0.000776758 -0.000121564 2.33889e-07
-0.000121564 0.000218724 -2.50132e-06
2.33889e-07 -2.50132e-06 8.76217e-05
0.000506847 8.58812e-06 -1.98637e-06
8.58812e-06 1.9676e-05 -1.90368e-07
-1.98637e-06 -1.90368e-07 -6.25571e-05
0.00140001 1.69294e-05 -1.47671e-05
1.69294e-05 0.000541986 4.86726e-06
-1.47671e-05 4.86726e-06 0.000519801
0.00059238 -5.83094e-05 2.76752e-06
-5.83094e-05 6.9117e-05 -3.85325e-06
2.76752e-06 -3.85325e-06 -9.1147e-06
0.000896396 -1.6158e-06 -7.3539e-06
-1.6158e-06 0.000228654 6.07268e-07
-7.3539e-06 6.07268e-07 0.000205068
0.000834617 3.22558e-05 4.73133e-08
3.22558e-05 0.000182016 2.90429e-06
4.73133e-08 2.90429e-06 0.000182302
0.000462467 -1.49853e-05 2.15504e-06
-1.49853e-05 -3.87509e-05 -5.44522e-06
2.15504e-06 -5.44522e-06 -6.35277e-05
0.00169988 3.43704e-05 1.25331e-05
3.43704e-05 0.000725731 -1.28855e-06
1.25331e-05 -1.28855e-06 0.000732924
0.00252409 2.8433e-05 1.37271e-05
2.8433e-05 0.00124051 -5.36532e-06
1.37271e-05 -5.36532e-06 0.001253
0.000317053 1.47601e-05 1.18809e-06
1.47601e-05 -7.24888e-05 1.26735e-07
1.18809e-06 1.26735e-07 -0.000199482
0.000173634 1.79654e-05 2.5956e-07
1.79654e-05 -0.000198303 -3.55715e-06
2.5956e-07 -3.55715e-06 -0.000258479
0.000636385 4.63077e-05 3.87351e-08
4.63077e-05 0.000120451 7.11811e-08
3.87351e-08 7.11811e-08 1.26243e-05
0.000487041 1.42398e-06 1.2473e-06
1.42398e-06 -3.59296e-05 -3.64878e-06
1.2473e-06 -3.64878e-06 -4.64438e-05
0.000343911 4.86463e-06 1.5609e-06
4.86463e-06 -9.46599e-05 -2.11742e-08
1.5609e-06 -2.11742e-08 -0.000144946
0.000299405 -9.38305e-05 -1.62418e-06
-9.38305e-05 -8.72195e-05 -9.82988e-07
-1.62418e-06 -9.82988e-07 -0.000183353
0.00205442 -6.67504e-06 -9.92997e-06
-6.67504e-06 0.000943838 -4.74557e-06
-9.92997e-06 -4.74557e-06 0.000961895
0.000483129 1.79254e-06 -2.18835e-08
1.79254e-06 -3.7596e-05 -6.85758e-08
-2.18835e-08 -6.85758e-08 -4.63248e-05
0.000460937 -1.67964e-05 -2.34195e-06
-1.67964e-05 -2.08958e-05 1.99135e-06
-2.34195e-06 1.99135e-06 -6.49897e-05
0.0020027 8.57939e-06 -4.49792e-06
8.57939e-06 0.000912448 9.64011e-09
-4.49792e-06 9.64011e-09 0.00093057
0.000471544 3.89885e-06 -1.06667e-06
3.89885e-06 -4.43052e-05 3.24268e-06
-1.06667e-06 3.24268e-06 -5.25542e-05
0.00197247 2.33798e-05 2.67242e-07
2.33798e-05 0.000895291 4.69112e-06
2.67242e-07 4.69112e-06 0.000912682
-9.37927e-05 -0.00061951 -0.000212197
-0.00061951 -0.000159186 7.27894e-05
-0.000212197 7.27894e-05 -0.00294736
0.00149942 0.000459716 -8.95517e-05
0.000459716 0.0066407 1.24208e-05
-8.95517e-05 1.24208e-05 0.00313511
0.00172476 -0.000144569 -0.000693294
-0.000144569 0.00346915 0.00012408
-0.000693294 0.00012408 0.00173669
0.000703613 0.000119508 3.76674e-06
0.000119508 0.000162124 5.18726e-06
3.76674e-06 5.18726e-06 8.54936e-06
0.00453789 -0.000738423 -5.78401e-05
-0.000738423 0.00302755 0.000203231
-5.78401e-05 0.000203231 0.00109864
0.00397212 -0.00110975 -0.000243582
-0.00110975 0.0016218 2.04933e-05
-0.000243582 2.04933e-05 -0.00279141
0.0086099 0.00246404 0.000334423
0.00246404 0.0067401 -0.000293094
0.000334423 -0.000293094 0.00333
0.00664033 -0.000827305 9.66309e-05
-0.000827305 0.000814392 -2.35818e-05
9.66309e-05 -2.35818e-05 0.000937369
0.0126803 -0.00186886 0.000235279
-0.00186886 0.00116347 -0.000104727
0.000235279 -0.000104727 -0.000252414
0.00500346 0.00417761 -0.000515696
0.00417761 -0.000918281 0.000380028
-0.000515696 0.000380028 -0.00321847
0.0123951 0.00381378 6.41684e-05
0.00381378 0.00369745 0.000188774
6.41684e-05 0.000188774 0.00146737
0.00669179 -0.00181374 -0.000124274
-0.00181374 0.0001641 -7.27683e-06
-0.000124274 -7.27683e-06 0.000394959
0.0171165 -0.00319423 4.22111e-05
-0.00319423 0.00455233 -2.88189e-05
4.22111e-05 -2.88189e-05 0.00216342
0.0080575 0.0025002 0.00015329
0.0025002 0.00207004 -0.000303651
0.00015329 -0.000303651 -0.00120922
0.0107073 0.00120043 1.4288e-05
0.00120043 -0.00079508 3.43317e-05
1.4288e-05 3.43317e-05 -0.000249866
0.00315216 -0.00220441 -3.93096e-05
-0.00220441 -3.55856e-05 5.28279e-05
-3.93096e-05 5.28279e-05 -0.000260883
0.0115815 -0.00367132 0.000146574
-0.00367132 0.00482674 -9.82193e-05
0.000146574 -9.82193e-05 0.00056388
0.00846463 -0.00015422 0.000126634
-0.00015422 0.00368687 -0.000398716
0.000126634 -0.000398716 0.00133535
0.0111526 0.00062069 -0.000108804
0.00062069 -0.00137315 0.000216212
-0.000108804 0.000216212 0.000983341
0.000594392 3.35125e-05 2.82812e-06
3.35125e-05 0.000192198 5.46183e-06
2.82812e-06 5.46183e-06 -2.49838e-05
0.000822668 -0.00013096 2.25659e-07
-0.00013096 0.000348454 -3.13194e-07
2.25659e-07 -3.13194e-07 0.000112666
0.000878424 0.000149866 8.33231e-07
0.000149866 0.000320045 -5.36578e-06
8.33231e-07 -5.36578e-06 0.000170615
0.00052753 0.000114601 -2.27811e-08
0.000114601 4.36409e-05 7.83649e-06
-2.27811e-08 7.83649e-06 -0.000100668
0.000807343 0.000171948 6.14489e-07
0.000171948 0.000275548 9.80769e-07
6.14489e-07 9.80769e-07 8.55723e-05
0.00107449 8.72561e-05 -5.61522e-06
8.72561e-05 0.000437905 -4.42687e-06
-5.61522e-06 -4.42687e-06 0.000286852
0.00103071 0.000162704 -1.38879e-06
0.000162704 0.000401776 -1.22391e-07
-1.38879e-06 -1.22391e-07 0.000230522
0.00107816 0.000177031 1.13911e-06
0.000177031 0.000455332 2.8974e-06
1.13911e-06 2.8974e-06 0.000280292
-9.78621e-05 -0.000469593 9.58838e-05
-0.000469593 -0.001187 -5.78027e-05
9.58838e-05 -5.78027e-05 -0.00105802
0.00172317 -0.000733493 -2.28323e-06
-0.000733493 0.000123109 -1.18637e-05
-2.28323e-06 -1.18637e-05 0.000108151
0.00104783 -0.000232654 3.00512e-07
-0.000232654 0.00049906 -2.3436e-05
3.00512e-07 -2.3436e-05 0.000220448
0.0014965 -0.000679511 1.89627e-05
-0.000679511 0.000718664 -2.86064e-05
1.89627e-05 -2.86064e-05 0.000371356
0.00257479 -0.000410169 -1.71954e-05
-0.000410169 0.00147815 1.74342e-05
-1.71954e-05 1.74342e-05 0.00111205
0.00152293 -0.000139587 2.41943e-07
-0.000139587 0.000768982 -2.10063e-05
2.41943e-07 -2.10063e-05 0.000514242
-2.18862e-05 -6.40392e-05 2.76157e-06
-6.40392e-05 -0.000209817 7.17451e-06
2.76157e-06 7.17451e-06 -0.000411225
0.000184254 -0.000969838 1.50883e-07
-0.000969838 -0.00089192 -2.01735e-06
1.50883e-07 -2.01735e-06 -0.00084744
0.00135475 4.32998e-05 -6.82937e-07
4.32998e-05 0.000796194 -2.15724e-06
-6.82937e-07 -2.15724e-06 0.000495786
0.000496651 -0.000221364 4.04119e-06
-0.000221364 0.000374064 2.63008e-06
4.04119e-06 2.63008e-06 -4.19379e-05
0.000334377 -0.000380999 1.16063e-05
-0.000380999 -0.000126543 3.55176e-06
1.16063e-05 3.55176e-06 -0.000123541
0.00108755 0.00011929 -7.41668e-07
0.00011929 0.000465376 -2.14435e-06
-7.41668e-07 -2.14435e-06 0.00029021
-0.000432765 -0.000800311 -3.87075e-05
-0.000800311 -0.000706614 -3.37904e-05
-3.87075e-05 -3.37904e-05 -0.000801979
-0.00092636 -0.000367283 -8.44278e-06
-0.000367283 -0.000556721 2.98923e-05
-8.44278e-06 2.98923e-05 -0.00075638
-9.72954e-05 0.000140148 2.0762e-05
0.000140148 0.000314947 -2.65601e-05
2.0762e-05 -2.65601e-05 -0.00023559
0.00175929 0.000281855 -3.33243e-06
0.000281855 0.000981337 -5.07008e-06
-3.33243e-06 -5.07008e-06 0.00076745
-0.001007 7.27319e-05 7.71869e-05
7.27319e-05 0.00118305 1.07318e-05
7.71869e-05 1.07318e-05 0.000428987
0.000625913 -2.61509e-05 0.000136762
-2.61509e-05 0.00125967 -3.02391e-05
0.000136762 -3.02391e-05 -0.00235452
-0.010252 -0.000283314 -0.000232441
-0.000283314 0.00535542 2.31019e-05
-0.000232441 2.31019e-05 0.000186126
0.00166647 0.000473579 1.86395e-05
0.000473579 0.00096582 2.14796e-06
1.86395e-05 2.14796e-06 0.000687667
-0.000847454 0.000578297 9.85443e-06
0.000578297 -0.000442385 1.38873e-05
9.85443e-06 1.38873e-05 -0.000842607
0.00525789 0.00056204 0.000250646
0.00056204 0.00340709 4.36401e-05
0.000250646 4.36401e-05 0.00131044
0.0106 0.00316755 0.000270702
0.00316755 0.00368653 0.00017732
0.000270702 0.00017732 -0.000384199
0.00349543 0.00187396 -7.35077e-05
0.00187396 0.00213355 -8.32384e-05
-7.35077e-05 -8.32384e-05 0.000799003
0.00507224 -0.00204664 -0.000162721
-0.00204664 0.003678 -0.000409118
-0.000162721 -0.000409118 0.000353869
0.00230771 0.000474563 0.000115111
0.000474563 0.000267593 0.000182225
0.000115111 0.000182225 -0.00129016
0.00676357 -0.00017464 -4.0451e-05
-0.00017464 -0.00525708 -0.000220538
-4.0451e-05 -0.000220538 -0.00199319
0.000845658 0.000396728 6.65968e-06
0.000396728 0.000663798 1.93517e-06
6.65968e-06 1.93517e-06 0.000326818
-0.00208494 4.64978e-05 -2.16849e-06
4.64978e-05 -4.38685e-05 5.62512e-07
-2.16849e-06 5.62512e-07 -0.000353099
0.00397143 7.61903e-06 9.39719e-05
7.61903e-06 -0.000243975 2.41782e-05
9.39719e-05 2.41782e-05 -0.000696543
-0.0016158 0.000358462 -1.23188e-05
0.000358462 -0.000351221 -9.39889e-06
-1.23188e-05 -9.39889e-06 -0.00101486
0.0104672 0.00132678 -6.90599e-06
0.00132678 -0.000686725 -3.2591e-05
-6.90599e-06 -3.2591e-05 -0.000249759
0.00265042 0.00164113 0.000186479
0.00164113 0.00345804 0.000120385
0.000186479 0.000120385 -0.00193727
0.00610148 0.000634891 -0.000154036
0.000634891 0.00302058 1.71569e-06
-0.000154036 1.71569e-06 -0.000187651
0.000463405 0.000372716 -5.86637e-06
0.000372716 0.000508921 -2.43445e-05
-5.86637e-06 -2.43445e-05 3.77128e-05
0.00129137 5.77607e-06 1.19004e-05
5.77607e-06 -4.48783e-05 -2.08151e-05
1.19004e-05 -2.08151e-05 -0.000136665
0.00377362 -0.000849477 4.49405e-05
-0.000849477 0.00297458 -0.000207712
4.49405e-05 -0.000207712 0.0012405
0.0167388 0.0040367 0.000291788
0.0040367 0.00456595 -0.000247998
0.000291788 -0.000247998 0.00305209
0.00776918 -6.35076e-05 -0.000100062
-6.35076e-05 0.00365269 0.000406115
-0.000100062 0.000406115 0.00107578
0.000595049 0.000383644 -1.08225e-05
0.000383644 0.000619235 -0.000124919
-1.08225e-05 -0.000124919 8.69367e-05
0.00336213 0.00151221 0.000239914
0.00151221 0.00534213 3.51151e-05
0.000239914 3.51151e-05 -0.00236603
0.00132855 0.000301445 4.46978e-06
0.000301445 0.000898019 1.14913e-05
4.46978e-06 1.14913e-05 0.00057162
0.000649785 0.000218817 3.66472e-06
0.000218817 0.000694471 1.41118e-07
3.66472e-06 1.41118e-07 0.000296462
0.000126627 -2.72064e-05 -1.16942e-05
-2.72064e-05 0.00048767 -4.01263e-06
-1.16942e-05 -4.01263e-06 0.000163355
3.16276e-05 -5.28268e-05 1.15818e-06
-5.28268e-05 -0.00022127 5.75822e-06
1.15818e-06 5.75822e-06 -0.000344195
0.000986874 -1.18552e-05 4.75676e-06
-1.18552e-05 0.000774743 -3.84329e-06
4.75676e-06 -3.84329e-06 0.000417649
3.93477e-05 6.89396e-05 3.65838e-06
6.89396e-05 0.000358241 -3.49474e-06
3.65838e-06 -3.49474e-06 -9.49337e-05
0.000383858 -3.26831e-05 9.94653e-07
-3.26831e-05 0.000294657 -1.33181e-07
9.94653e-07 -1.33181e-07 4.9816e-05
4.50964e-05 -1.24046e-05 5.20247e-06
-1.24046e-05 0.000299233 6.50241e-07
5.20247e-06 6.50241e-07 -8.03303e-05
0.00101173 -0.000266441 -7.38417e-07
-0.000266441 0.00067032 -1.26649e-05
-7.38417e-07 -1.26649e-05 0.000362966
0.000799462 -8.29335e-05 -5.18616e-06
-8.29335e-05 0.000361771 7.50895e-06
-5.18616e-06 7.50895e-06 0.000221356
0.000686835 -1.60977e-05 -5.64425e-07
-1.60977e-05 0.000177199 1.66232e-06
-5.64425e-07 1.66232e-06 5.10098e-05
0.00139345 -0.000247342 2.00861e-06
-0.000247342 0.000617999 4.62952e-06
2.00861e-06 4.62952e-06 0.000449231
-0.0019256 -0.000189436 1.72227e-05
-0.000189436 -0.00122475 1.30293e-05
1.72227e-05 1.30293e-05 -0.00153992
-6.5975e-05 -0.00011564 7.39788e-06
-0.00011564 -0.000287645 -3.18891e-06
7.39788e-06 -3.18891e-06 -0.000324172
-0.000110596 -0.000312437 -9.50539e-07
-0.000312437 -0.000390555 -3.82703e-06
-9.50539e-07 -3.82703e-06 -0.000637816
0.00131306 -0.000496202 6.30489e-07
-0.000496202 0.000339441 -1.96137e-06
6.30489e-07 -1.96137e-06 -7.05093e-05
0.00164445 -0.000571314 -4.86056e-06
-0.000571314 0.000417747 -9.81867e-07
-4.86056e-06 -9.81867e-07 1.69354e-05
0.00186221 -0.000356058 5.17641e-06
-0.000356058 0.000785527 -2.73206e-06
5.17641e-06 -2.73206e-06 0.000580723
0.00127769 -0.000431043 1.69654e-06
-0.000431043 0.000349133 6.31895e-07
1.69654e-06 6.31895e-07 2.02069e-05
0.00162503 -0.000473426 3.21733e-06
-0.000473426 0.000432146 -2.56179e-06
3.21733e-06 -2.56179e-06 0.000101193
0.00059979 -0.000280913 -3.11019e-06
-0.000280913 -9.66416e-05 5.32891e-06
-3.11019e-06 5.32891e-06 -0.000354877
0.00108127 -0.000401956 2.08536e-06
-0.000401956 0.000130004 -5.36138e-06
2.08536e-06 -5.36138e-06 -0.000187601
0.000394963 -0.000129298 4.38684e-07
-0.000129298 3.46095e-07 -3.55092e-06
4.38684e-07 -3.55092e-06 -0.000243394
0.00113291 -0.000321142 -6.27264e-06
-0.000321142 0.000382203 4.41611e-06
-6.27264e-06 4.41611e-06 0.000128724
-0.0011051 -0.000100728 -9.2806e-07
-0.000100728 -0.00109573 -9.15472e-06
-9.2806e-07 -9.15472e-06 -0.00130245
0.000213559 -5.11262e-05 3.50928e-07
-5.11262e-05 -0.000158298 -3.82458e-07
3.50928e-07 -3.82458e-07 -0.000306142
0.000464459 -0.000124253 1.53986e-07
-0.000124253 5.91465e-05 1.79666e-07
1.53986e-07 1.79666e-07 -0.000156351
0.00094369 -0.000219668 7.62487e-06
-0.000219668 0.00036701 -1.5562e-06
7.62487e-06 -1.5562e-06 0.00014855
0.000465 -0.000111189 7.85894e-07
-0.000111189 4.14597e-05 2.64317e-06
7.85894e-07 2.64317e-06 -0.000127263
0.000709482 -8.85961e-05 -1.43296e-07
-8.85961e-05 0.000160416 3.69691e-07
-1.43296e-07 3.69691e-07 1.9643e-05
0.000544521 1.72409e-06 8.50919e-07
1.72409e-06 3.84441e-05 4.89022e-06
8.50919e-07 4.89022e-06 -5.82827e-05
0.000922799 -0.000117628 -8.91131e-07
-0.000117628 0.00030903 -1.09332e-06
-8.91131e-07 -1.09332e-06 0.0001671
0.000575598 1.44343e-06 -1.19548e-06
1.44343e-06 5.85087e-05 -2.98357e-07
-1.19548e-06 -2.98357e-07 -2.76205e-05
0.000426662 4.03002e-05 6.14681e-07
4.03002e-05 -5.68932e-05 6.20959e-06
6.14681e-07 6.20959e-06 -8.94619e-05
0.000688465 -5.5778e-05 1.95815e-06
-5.5778e-05 0.000125335 -3.52564e-06
1.95815e-06 -3.52564e-06 4.56206e-05
0.000469004 8.74577e-06 -7.82749e-07
8.74577e-06 -4.00435e-05 -5.04849e-08
-7.82749e-07 -5.04849e-08 -6.74131e-05
0.00253996 8.89859e-05 -2.7049e-06
8.89859e-05 0.00125339 2.46237e-06
-2.7049e-06 2.46237e-06 0.00125903
0.000479358 -5.72036e-06 2.41618e-06
-5.72036e-06 -3.27856e-05 -5.64757e-06
2.41618e-06 -5.64757e-06 -5.89017e-05
0.00173562 4.78283e-05 1.51441e-05
4.78283e-05 0.000747857 -1.0663e-06
1.51441e-05 -1.0663e-06 0.000753074
0.00258378 4.43836e-05 2.04057e-05
4.43836e-05 0.00127698 -5.4986e-06
2.04057e-05 -5.4986e-06 0.00128838
0.000291903 1.69092e-05 9.95222e-07
1.69092e-05 -0.000106073 -3.90158e-09
9.95222e-07 -3.90158e-09 -0.000224251
0.000227447 1.01565e-05 1.19584e-06
1.01565e-05 -0.000166529 -3.12389e-06
1.19584e-06 -3.12389e-06 -0.00023767
0.000483472 3.3597e-05 -5.64276e-07
3.3597e-05 2.81803e-05 -1.18491e-06
-5.64276e-07 -1.18491e-06 -9.39261e-05
0.000509578 -9.59651e-07 1.78283e-06
-9.59651e-07 -2.22699e-05 -4.17356e-06
1.78283e-06 -4.17356e-06 -3.5688e-05
0.000209397 1.38902e-05 -5.7961e-07
1.38902e-05 -0.000176602 -1.74222e-06
-5.7961e-07 -1.74222e-06 -0.000238794
0.000672192 5.38965e-05 -4.07448e-07
5.38965e-05 0.000154676 1.70841e-06
-4.07448e-07 1.70841e-06 3.86673e-05
0.00207394 -2.00066e-05 -1.51911e-05
-2.00066e-05 0.000955142 -4.64513e-06
-1.51911e-05 -4.64513e-06 0.000972894
0.000488926 -3.15775e-07 -5.45881e-07
-3.15775e-07 -3.5036e-05 -6.05971e-08
-5.45881e-07 -6.05971e-08 -4.52804e-05
0.000137118 1.25125e-05 1.10241e-06
1.25125e-05 -0.000220045 1.41689e-06
1.10241e-06 1.41689e-06 -0.000273964
0.00202467 -5.3537e-06 -3.9863e-06
-5.3537e-06 0.000925055 4.38778e-08
-3.9863e-06 4.38778e-08 0.000943342
0.000472791 1.38353e-06 -1.29068e-06
1.38353e-06 -4.46333e-05 3.40281e-06
-1.29068e-06 3.40281e-06 -5.30392e-05
0.00203877 1.00958e-05 5.59648e-06
1.00958e-05 0.000935301 4.7842e-06
5.59648e-06 4.7842e-06 0.000953086
0.000401754 -3.5135e-05 9.89056e-05
-3.5135e-05 0.00164501 3.13593e-05
9.89056e-05 3.13593e-05 0.00123477
-0.000115029 -0.000325905 -3.91303e-05
-0.000325905 0.000309937 -1.31625e-05
-3.91303e-05 -1.31625e-05 -0.00305868
0.000291034 0.000436619 1.31089e-06
0.000436619 0.00631802 -3.83525e-05
1.31089e-06 -3.83525e-05 0.00279114
0.000766367 0.000127092 3.24217e-07
0.000127092 0.000193736 1.467e-07
3.24217e-07 1.467e-07 4.95795e-05
0.000450373 8.96484e-05 4.80752e-06
8.96484e-05 -1.97895e-05 4.30433e-06
4.80752e-06 4.30433e-06 -0.000150901
0.00104 0.000181842 5.93368e-06
0.000181842 0.000363395 6.7444e-06
5.93368e-06 6.7444e-06 0.000217218
0.00508436 -0.000170355 -5.12612e-05
-0.000170355 -0.000422161 0.000226239
-5.12612e-05 0.000226239 -0.00127737
0.00447539 -0.000788738 7.39101e-05
-0.000788738 0.00276657 -6.93771e-07
7.39101e-05 -6.93771e-07 0.00136598
0.004545 -0.00140563 0.000153671
-0.00140563 0.00194136 -0.000223547
0.000153671 -0.000223547 -0.00258974
0.00830528 -0.00222441 -4.51492e-05
-0.00222441 0.000555837 -2.60232e-05
-4.51492e-05 -2.60232e-05 0.00101458
0.000245382 -0.00254559 -0.000330251
-0.00254559 -0.00188393 9.77216e-05
-0.000330251 9.77216e-05 -0.00491632
0.0235734 0.00354042 0.000172508
0.00354042 0.00938654 0.000136353
0.000172508 0.000136353 0.00574201
0.00651555 8.99194e-06 0.000236348
8.99194e-06 -0.0029763 -0.00020409
0.000236348 -0.00020409 -0.0028986
0.00466377 -0.00247372 -3.57972e-05
-0.00247372 0.000274271 1.69001e-05
-3.57972e-05 1.69001e-05 0.000355675
0.0071864 -0.00330474 -9.46174e-05
-0.00330474 0.00275761 2.07712e-05
-9.46174e-05 2.07712e-05 -0.00167891
-0.00305971 0.00329073 -8.48917e-05
0.00329073 0.00303413 -0.000277359
-8.48917e-05 -0.000277359 -0.0012756
0.00900515 0.000217834 -6.02247e-05
0.000217834 -0.00356946 0.000123952
-6.02247e-05 0.000123952 -0.000556506
0.00104692 -0.00153782 -0.0001288
-0.00153782 0.000455675 4.71102e-05
-0.0001288 4.71102e-05 0.000119944
0.0102346 -0.00259819 -0.000256863
-0.00259819 0.00534075 0.000156919
-0.000256863 0.000156919 0.000473797
-0.00161658 -3.88566e-05 3.43694e-05
-3.88566e-05 0.00204645 -0.000336112
3.43694e-05 -0.000336112 -0.00136449
0.0083253 -0.00112124 0.000103734
-0.00112124 -0.00200731 5.23932e-05
0.000103734 5.23932e-05 -0.00112192
0.000313933 9.06157e-05 3.17267e-06
9.06157e-05 -4.83301e-05 1.41745e-05
3.17267e-06 1.41745e-05 -0.000197311
0.000755004 -2.14324e-05 2.73043e-06
-2.14324e-05 0.000272055 -2.8925e-06
2.73043e-06 -2.8925e-06 4.84962e-05
0.000605573 -0.000135715 2.71654e-07
-0.000135715 0.000148069 -9.79148e-06
2.71654e-07 -9.79148e-06 -5.85812e-05
0.000674699 0.00012664 -1.97944e-06
0.00012664 0.000137425 1.13102e-06
-1.97944e-06 1.13102e-06 -1.38208e-05
0.000722067 0.000132754 1.91402e-06
0.000132754 0.000223735 -3.61992e-06
1.91402e-06 -3.61992e-06 4.64261e-05
0.00117974 0.00018749 -3.36205e-06
0.00018749 0.000499361 -2.66542e-06
-3.36205e-06 -2.66542e-06 0.00032426
-0.00106862 -0.000824211 2.71119e-05
-0.000824211 -0.00152122 -8.45969e-06
2.71119e-05 -8.45969e-06 -0.00148696
0.00114682 -0.000354108 3.27891e-05
-0.000354108 0.000336872 -2.66437e-05
3.27891e-05 -2.66437e-05 0.000355843
-5.20047e-05 1.19888e-07 -1.55585e-06
1.19888e-07 -0.000221159 -9.68197e-06
-1.55585e-06 -9.68197e-06 -0.000428777
0.0018969 -0.000429328 5.19274e-05
-0.000429328 0.00112208 -2.31105e-05
5.19274e-05 -2.31105e-05 0.000736309
0.00168875 -7.08578e-05 -4.91673e-06
-7.08578e-05 0.000966928 7.40854e-06
-4.91673e-06 7.40854e-06 0.000687396
0.000217439 9.52712e-05 3.23318e-06
9.52712e-05 -2.63748e-05 3.33626e-06
3.23318e-06 3.33626e-06 -0.000215549
0.000825839 0.000147174 1.69542e-07
0.000147174 0.000401416 -2.9464e-06
1.69542e-07 -2.9464e-06 0.000217306
0.000259361 -0.00097499 -6.52444e-06
-0.00097499 -0.000397414 -5.97698e-06
-6.52444e-06 -5.97698e-06 -0.000628756
0.000199642 -6.69399e-06 -6.88981e-06
-6.69399e-06 0.000464207 5.23146e-06
-6.88981e-06 5.23146e-06 -4.72151e-05
0.00160851 -0.000307663 5.87829e-06
-0.000307663 0.000794619 -8.82275e-06
5.87829e-06 -8.82275e-06 0.000553876
0.00125399 0.000171706 -7.61444e-07
0.000171706 0.000652804 -1.11673e-05
-7.61444e-07 -1.11673e-05 0.000474141
-0.00264325 -0.000151331 -9.7943e-05
-0.000151331 -0.000645801 -1.256e-05
-9.7943e-05 -1.256e-05 -0.00144605
-0.000159589 -0.00013594 -1.67717e-05
-0.00013594 0.000256849 7.21387e-06
-1.67717e-05 7.21387e-06 -8.76585e-05
0.000170756 0.000129529 -3.71244e-06
0.000129529 0.000406512 1.16408e-05
-3.71244e-06 1.16408e-05 1.21575e-06
-0.000133378 0.000114812 -6.52349e-06
0.000114812 -0.000609396 1.43659e-06
-6.52349e-06 1.43659e-06 -0.00140042
-0.00148581 0.000110118 3.16137e-05
0.000110118 0.00089508 -1.51552e-05
3.16137e-05 -1.51552e-05 0.000194711
-0.000169468 -0.000143172 0.000294793
-0.000143172 0.000747164 1.7726e-05
0.000294793 1.7726e-05 -0.00287808
-8.23607e-05 0.000354849 -2.41175e-06
0.000354849 0.000105249 1.65211e-05
-2.41175e-06 1.65211e-05 -0.000249812
0.000718664 0.000734267 -1.15413e-05
0.000734267 0.000432371 -3.99793e-06
-1.15413e-05 -3.99793e-06 -0.00012835
-0.00190934 1.26733e-05 -1.75274e-05
1.26733e-05 -1.95431e-05 -1.13828e-05
-1.75274e-05 -1.13828e-05 -0.000456034
-0.00407005 0.000705839 5.18419e-05
0.000705839 0.00218797 0.000164273
5.18419e-05 0.000164273 -0.0029113
-0.00323925 0.00128796 -0.000185885
0.00128796 -0.0022506 -0.000428833
-0.000185885 -0.000428833 -0.00621178
0.00332367 7.71686e-05 7.36453e-05
7.71686e-05 -0.000292714 0.000101643
7.36453e-05 0.000101643 -0.000253483
0.00621192 0.000130023 -0.000239278
0.000130023 -0.00269186 0.000209211
-0.000239278 0.000209211 -0.00286072
0.000308622 0.000300822 1.71669e-06
0.000300822 0.000474222 -1.11267e-06
1.71669e-06 -1.11267e-06 6.71736e-05
0.000979906 -8.27608e-06 2.72916e-05
-8.27608e-06 -0.000133767 -2.3114e-05
2.72916e-05 -2.3114e-05 -0.000199687
0.00383585 -0.000630653 -7.43278e-05
-0.000630653 0.00269594 4.90689e-06
-7.43278e-05 4.90689e-06 0.00129033
0.000126699 0.00057393 -0.00010764
0.00057393 0.00105126 -6.36736e-06
-0.00010764 -6.36736e-06 -0.000162742
0.0120874 0.00413267 5.32646e-05
0.00413267 0.00180406 -0.000357709
5.32646e-05 -0.000357709 8.75934e-05
-0.000595852 0.00254065 6.64676e-05
0.00254065 0.00326327 0.000282898
6.64676e-05 0.000282898 -0.000890767
0.00556876 0.000456403 5.18924e-05
0.000456403 0.00590243 -2.32421e-05
5.18924e-05 -2.32421e-05 -0.00103243
0.000829614 -1.17326e-05 3.3631e-05
-1.17326e-05 0.0013693 -2.85046e-05
3.3631e-05 -2.85046e-05 0.00047823
0.000100894 -0.000105815 -8.41629e-05
-0.000105815 0.00163436 3.94974e-06
-8.41629e-05 3.94974e-06 0.00114232
0.00227503 -0.000830791 0.000617468
-0.000830791 0.000797717 -0.000240412
0.000617468 -0.000240412 -0.00378055
0.0153352 0.0058325 -4.53964e-05
0.0058325 0.0104503 4.85052e-06
-4.53964e-05 4.85052e-06 0.00828937
0.00280234 0.00321596 -0.000154567
0.00321596 4.16101e-05 0.000689678
-0.000154567 0.000689678 -0.00296248
0.0119228 -0.00287471 0.000230448
-0.00287471 0.00559109 -0.000195559
0.000230448 -0.000195559 0.000395536
0.00350145 -0.000701117 -7.14786e-05
-0.000701117 0.00272956 4.34148e-05
-7.14786e-05 4.34148e-05 0.00195439
0.00112722 0.00027023 3.9694e-06
0.00027023 0.000977417 4.12318e-06
3.9694e-06 4.12318e-06 0.000575051
-8.36577e-05 -3.62478e-05 -5.15185e-06
-3.62478e-05 0.000293799 -3.03446e-06
-5.15185e-06 -3.03446e-06 -3.95955e-05
0.00181958 -0.000474691 3.21108e-05
-0.000474691 0.00114154 -1.43439e-05
3.21108e-05 -1.43439e-05 0.000706976
0.000697283 -8.36096e-05 5.52148e-08
-8.36096e-05 0.000436136 2.64052e-06
5.52148e-08 2.64052e-06 0.000235319
2.05259e-05 -1.75235e-05 2.82646e-07
-1.75235e-05 0.000268125 -6.95162e-06
2.82646e-07 -6.95162e-06 -9.59702e-05
0.000266817 -0.000237262 -3.7141e-06
-0.000237262 0.000352332 4.01045e-07
-3.7141e-06 4.01045e-07 2.8789e-05
0.000593779 -0.000462951 2.33465e-05
-0.000462951 0.000161715 -2.38435e-05
2.33465e-05 -2.38435e-05 -5.88606e-05
0.0025129 -0.000347324 -1.80971e-06
-0.000347324 0.00130083 2.28375e-06
-1.80971e-06 2.28375e-06 0.00109578
0.00217473 -0.000627316 1.42557e-05
-0.000627316 0.00101026 -3.74031e-06
1.42557e-05 -3.74031e-06 0.00064504
0.00140408 -0.000549242 9.31416e-06
-0.000549242 0.00054309 -1.71355e-06
9.31416e-06 -1.71355e-06 -3.61089e-06
0.000386599 -0.000307891 -4.11888e-06
-0.000307891 -0.000133083 -3.4639e-06
-4.11888e-06 -3.4639e-06 -0.000335858
0.00160937 -0.000528456 -2.10188e-06
-0.000528456 0.00046666 7.02797e-08
-2.10188e-06 7.02797e-08 5.68717e-05
0.00218126 -0.000705179 -2.2057e-06
-0.000705179 0.00072335 6.23592e-07
-2.2057e-06 6.23592e-07 0.000214831
0.00184558 -0.000727729 -7.94047e-06
-0.000727729 0.000396651 1.70624e-06
-7.94047e-06 1.70624e-06 -4.98973e-05
0.00165212 -0.000593139 -1.51329e-06
-0.000593139 0.000416737 -4.74311e-07
-1.51329e-06 -4.74311e-07 2.65504e-05
0.00153584 -0.000562888 -4.80103e-06
-0.000562888 0.000346033 1.57689e-06
-4.80103e-06 1.57689e-06 -5.45058e-05
0.00115013 -0.000420664 -1.63128e-06
-0.000420664 0.000238279 -4.18148e-06
-1.63128e-06 -4.18148e-06 -9.76412e-05
0.00178714 -0.00045525 6.46264e-06
-0.00045525 0.000604221 1.14891e-06
6.46264e-06 1.14891e-06 0.000296211
0.0015253 -0.000467677 5.07947e-06
-0.000467677 0.000374674 -2.93956e-06
5.07947e-06 -2.93956e-06 4.34044e-05
0.000365965 -0.000182975 2.09026e-06
-0.000182975 -0.000125995 1.13632e-06
2.09026e-06 1.13632e-06 -0.000360636
0.000918982 -0.000326204 2.91674e-06
-0.000326204 0.000114871 -9.37144e-07
2.91674e-06 -9.37144e-07 -0.000152721
0.000339388 -0.000311674 -8.91253e-07
-0.000311674 -0.00031272 -8.45471e-06
-8.91253e-07 -8.45471e-06 -0.000604756
-0.000158861 -2.723e-05 -2.76223e-07
-2.723e-05 -0.00034876 2.32917e-08
-2.76223e-07 2.32917e-08 -0.000560072
0.00106201 -0.000199032 -4.54539e-07
-0.000199032 0.000417615 -2.38251e-07
-4.54539e-07 -2.38251e-07 0.000163754
0.00103847 -0.000333211 -4.50778e-07
-0.000333211 0.000340369 -2.46623e-06
-4.50778e-07 -2.46623e-06 6.94994e-05
0.000637815 -2.74257e-05 -7.08191e-07
-2.74257e-05 9.45293e-05 5.5789e-06
-7.08191e-07 5.5789e-06 -1.52141e-05
0.000821382 -0.000107449 -2.88036e-07
-0.000107449 0.000217468 -8.99018e-08
-2.88036e-07 -8.99018e-08 6.06769e-05
0.000129853 -9.8402e-05 1.43701e-06
-9.8402e-05 -0.000138087 1.8116e-06
1.43701e-06 1.8116e-06 -0.00034484
0.000942788 -0.000111612 7.65421e-07
-0.000111612 0.000313238 -1.11655e-06
7.65421e-07 -1.11655e-06 0.000164339
0.000604212 -4.08294e-05 -1.41662e-07
-4.08294e-05 7.29505e-05 -2.96482e-07
-1.41662e-07 -2.96482e-07 -2.43253e-05
0.000407386 3.00557e-05 9.15085e-07
3.00557e-05 -6.23189e-05 7.79567e-06
9.15085e-07 7.79567e-06 -0.000100516
0.000645016 -4.70494e-05 1.12343e-06
-4.70494e-05 9.66576e-05 -4.00568e-06
1.12343e-06 -4.00568e-06 1.10376e-05
0.000493716 2.08454e-05 -2.03157e-06
2.08454e-05 -1.88009e-05 -2.05897e-07
-2.03157e-06 -2.05897e-07 -5.00562e-05
0.0026698 9.62578e-05 -3.447e-05
9.62578e-05 0.00134139 4.46846e-06
-3.447e-05 4.46846e-06 0.00134625
0.000513601 3.51929e-06 2.35049e-06
3.51929e-06 -1.36021e-05 -5.73911e-06
2.35049e-06 -5.73911e-06 -4.06895e-05
0.00171697 6.30957e-05 1.74811e-05
6.30957e-05 0.000738935 -8.03285e-07
1.74811e-05 -8.03285e-07 0.000742146
0.00263393 6.2712e-05 2.53569e-05
6.2712e-05 0.00130955 -5.1532e-06
2.53569e-05 -5.1532e-06 0.00131923
0.000714639 9.02091e-05 3.53747e-06
9.02091e-05 0.000167249 7.24749e-07
3.53747e-06 7.24749e-07 3.64337e-05
0.000524683 4.46015e-05 1.50646e-06
4.46015e-05 1.77484e-05 -2.43136e-06
1.50646e-06 -2.43136e-06 -5.8676e-05
0.000461233 5.10368e-05 -1.10201e-06
5.10368e-05 1.27062e-05 -1.2427e-06
-1.10201e-06 -1.2427e-06 -0.000115622
0.000501889 1.18675e-07 8.95344e-07
1.18675e-07 -2.64755e-05 -5.07501e-06
8.95344e-07 -5.07501e-06 -4.44925e-05
0.000342126 3.54045e-05 -2.11353e-06
3.54045e-05 -9.39454e-05 -1.75154e-06
-2.11353e-06 -1.75154e-06 -0.000164462
0.000673219 7.19953e-05 -8.75784e-07
7.19953e-05 0.000149288 -1.71573e-06
-8.75784e-07 -1.71573e-06 2.71907e-05
0.00217372 -3.51902e-05 -1.94113e-05
-3.51902e-05 0.00101769 -4.75101e-06
-1.94113e-05 -4.75101e-06 0.00103399
0.000483033 -4.4822e-06 -7.5302e-08
-4.4822e-06 -3.91787e-05 -1.2271e-07
-7.5302e-08 -1.2271e-07 -5.22218e-05
0.000143927 1.29411e-05 -1.64533e-06
1.29411e-05 -0.000217486 5.19618e-07
-1.64533e-06 5.19618e-07 -0.000280872
0.00211284 -1.93602e-05 -5.16433e-06
-1.93602e-05 0.000979537 1.22147e-07
-5.16433e-06 1.22147e-07 0.00099717
0.000476917 -2.93877e-06 -2.06805e-06
-2.93877e-06 -4.27153e-05 3.45096e-06
-2.06805e-06 3.45096e-06 -5.27321e-05
0.00205683 -3.92666e-06 1.04425e-05
-3.92666e-06 0.000945045 4.77508e-06
1.04425e-05 4.77508e-06 0.000963214
0.0012386 -0.000185764 -4.36024e-05
-0.000185764 -0.000114557 3.07945e-05
-4.36024e-05 3.07945e-05 -0.000243848
-0.000325621 -0.000196871 4.99176e-05
-0.000196871 0.00138616 -2.93342e-06
4.99176e-05 -2.93342e-06 0.000891101
-0.000562027 -0.000348829 0.000148437
-0.000348829 0.000489267 -0.000113525
0.000148437 -0.000113525 -0.00319999
0.000206437 4.73414e-05 3.03763e-06
4.73414e-05 -0.00017411 3.26014e-06
3.03763e-06 3.26014e-06 -0.000305966
0.00192101 0.00010143 1.06961e-06
0.00010143 0.00087125 1.89945e-06
1.06961e-06 1.89945e-06 0.000713765
0.000724647 0.000137552 -1.90988e-06
0.000137552 0.000170359 -3.74514e-06
-1.90988e-06 -3.74514e-06 3.1538e-05
0.000452746 7.55303e-05 7.54381e-07
7.55303e-05 -3.14518e-05 8.43037e-07
7.54381e-07 8.43037e-07 -0.000153585
0.000499562 9.36215e-05 3.65133e-07
9.36215e-05 1.92583e-05 -5.2186e-07
3.65133e-07 -5.2186e-07 -0.000107859
0.000521029 8.66102e-05 4.9682e-06
8.66102e-05 2.32791e-05 3.13572e-06
4.9682e-06 3.13572e-06 -9.53967e-05
0.000528956 0.000162875 8.77267e-06
0.000162875 7.70869e-05 6.67715e-06
8.77267e-06 6.67715e-06 -6.26987e-05
0.00116963 0.000629031 0.000159942
0.000629031 -0.000458378 0.000240735
0.000159942 0.000240735 -0.00171449
0.00423268 -0.000135127 -3.75736e-05
-0.000135127 -0.00021975 5.70564e-05
-3.75736e-05 5.70564e-05 -0.000848205
0.00380176 -0.000576308 0.000148127
-0.000576308 0.00255147 -9.96896e-05
0.000148127 -9.96896e-05 0.00146179
0.0069314 -0.000113749 -4.32639e-06
-0.000113749 -0.00573402 0.000152441
-4.32639e-06 0.000152441 -0.0019979
0.0035466 -0.00225359 -9.47844e-05
-0.00225359 0.000473265 5.04559e-05
-9.47844e-05 5.04559e-05 0.000390312
0.00121266 -0.00331756 -0.000192531
-0.00331756 0.00140326 7.34148e-05
-0.000192531 7.34148e-05 -0.00384256
0.0137913 0.00373618 9.788e-05
0.00373618 0.00669923 -0.000129698
9.788e-05 -0.000129698 0.00276276
0.0027433 -0.00196953 -5.93057e-05
-0.00196953 0.000392341 2.38446e-05
-5.93057e-05 2.38446e-05 0.000529276
-0.00119244 -0.000659633 -4.38296e-05
-0.000659633 0.00334219 4.92863e-05
-4.38296e-05 4.92863e-05 -0.00313911
0.00655895 0.000548017 0.00016004
0.000548017 0.00280775 -2.03725e-05
0.00016004 -2.03725e-05 -0.000240201
0.0140944 -0.00208443 -6.71642e-05
-0.00208443 0.00188351 -2.36071e-05
-6.71642e-05 -2.36071e-05 0.00319411
-0.00220593 -0.000311429 -0.000189569
-0.000311429 -0.000593397 0.000131958
-0.000189569 0.000131958 -0.000559645
0.00352665 0.00196599 -0.000166636
0.00196599 0.00482903 -8.45442e-05
-0.000166636 -8.45442e-05 -0.0017349
-0.00294057 -0.00434602 2.61427e-05
-0.00434602 -0.000890319 -0.000226443
2.61427e-05 -0.000226443 -0.005211
0.0118941 -0.00261596 9.5021e-05
-0.00261596 0.00248115 -0.000545658
9.5021e-05 -0.000545658 0.00160464
0.000989821 2.95131e-05 9.72542e-06
2.95131e-05 0.000466453 3.27146e-06
9.72542e-06 3.27146e-06 0.000280224
0.000768257 0.000171455 -1.13927e-06
0.000171455 0.000248525 -2.13186e-06
-1.13927e-06 -2.13186e-06 8.91476e-05
0.000919585 -1.88449e-05 1.33951e-06
-1.88449e-05 0.000391717 -1.77615e-06
1.33951e-06 -1.77615e-06 0.000145492
0.00105007 0.000150586 -3.09417e-06
0.000150586 0.000396638 -7.62364e-06
-3.09417e-06 -7.62364e-06 0.000223373
0.0007449 -0.000830549 1.5675e-05
-0.000830549 -9.85218e-05 3.78231e-05
1.5675e-05 3.78231e-05 -0.000376464
0.00395675 -0.000339841 -3.70997e-06
-0.000339841 0.00219238 -2.67205e-05
-3.70997e-06 -2.67205e-05 0.00187709
0.000780257 8.60631e-05 -5.335e-06
8.60631e-05 0.000300848 -1.03499e-05
-5.335e-06 -1.03499e-05 0.000132935
0.000309647 0.000196518 -2.13635e-06
0.000196518 9.65632e-05 5.96067e-07
-2.13635e-06 5.96067e-07 -9.16869e-05
0.000662706 6.78385e-05 -9.11787e-06
6.78385e-05 0.000680947 1.54525e-05
-9.11787e-06 1.54525e-05 0.000264723
0.000462926 5.49253e-05 3.94186e-06
5.49253e-05 0.000130254 3.58628e-06
3.94186e-06 3.58628e-06 -1.47614e-05
0.000210034 0.000196932 7.529e-07
0.000196932 0.000440827 1.11381e-06
7.529e-07 1.11381e-06 1.78909e-05
0.00134064 -0.0003332 7.25386e-06
-0.0003332 0.00129722 3.51326e-06
7.25386e-06 3.51326e-06 0.000285684
5.92966e-05 -0.000118819 1.77053e-05
-0.000118819 0.000551031 2.11776e-06
1.77053e-05 2.11776e-06 0.000181768
-0.000411312 0.000105074 -4.13801e-07
0.000105074 -0.000150989 -8.0382e-06
-4.13801e-07 -8.0382e-06 -0.00038579
0.00235407 -0.000101939 -4.07283e-05
-0.000101939 0.00333123 -3.92294e-05
-4.07283e-05 -3.92294e-05 0.00173178
0.0010812 0.000331012 -1.61695e-05
0.000331012 0.00108571 2.31889e-05
-1.61695e-05 2.31889e-05 0.00058083
-0.00134209 5.73184e-05 -6.00037e-05
5.73184e-05 0.00123116 1.2133e-06
-6.00037e-05 1.2133e-06 0.000393702
0.000876838 2.2014e-05 8.55751e-06
2.2014e-05 -0.000186261 2.90447e-06
8.55751e-06 2.90447e-06 -0.000407502
-0.00202202 0.000134705 -4.83213e-06
0.000134705 0.000565314 -4.65951e-05
-4.83213e-06 -4.65951e-05 -4.49663e-05
0.00020021 0.000209543 -1.35494e-05
0.000209543 0.000511039 8.94287e-06
-1.35494e-05 8.94287e-06 0.000186322
-0.00141902 0.000708531 0.000119183
0.000708531 -0.000428688 9.77142e-05
0.000119183 9.77142e-05 -0.00106061
0.000698557 6.49456e-06 4.61045e-05
6.49456e-06 -0.000222295 -5.58877e-06
4.61045e-05 -5.58877e-06 -0.000122544
0.00484514 -0.00181122 0.000185721
-0.00181122 0.00508104 -0.000172539
0.000185721 -0.000172539 -0.00254354
0.0156481 0.0033072 -0.000146901
0.0033072 0.00699426 0.000127528
-0.000146901 0.000127528 0.00334157
0.0034014 -0.000475654 -0.000140368
-0.000475654 0.00220944 0.000108581
-0.000140368 0.000108581 0.00125016
0.0117274 0.00398745 -3.63517e-05
0.00398745 0.00373874 -0.000177646
-3.63517e-05 -0.000177646 0.0014245
0.000367628 0.000165133 -5.61479e-05
0.000165133 0.000998058 1.21881e-05
-5.61479e-05 1.21881e-05 0.000126504
0.000153762 -0.000138263 -5.85376e-05
-0.000138263 0.00135359 1.29369e-06
-5.85376e-05 1.29369e-06 0.00105593
0.00340889 -0.00115475 0.000240693
-0.00115475 0.00147389 -2.71146e-05
0.000240693 -2.71146e-05 -0.00294299
-0.0019084 -0.000142058 3.55672e-05
-0.000142058 -0.000429689 2.97887e-05
3.55672e-05 2.97887e-05 -0.000798233
0.0088388 0.00646783 0.000469328
0.00646783 0.00674348 -0.000226459
0.000469328 -0.000226459 0.00492066
0.00680236 0.00260471 -0.000157157
0.00260471 0.00181138 0.000310654
-0.000157157 0.000310654 -0.00139259
-0.0026338 -0.00113491 0.000142917
-0.00113491 0.00241125 -0.000123546
0.000142917 -0.000123546 -0.00446052
-0.000261678 -0.000360063 1.9428e-05
-0.000360063 0.000582582 -2.264e-05
1.9428e-05 -2.264e-05 -0.00027709
0.000145782 -0.000582319 0.000231592
-0.000582319 -0.000259268 -5.46834e-05
0.000231592 -5.46834e-05 -0.00298965
-0.00167176 0.000170698 -0.000861454
0.000170698 0.00553111 0.000239499
-0.000861454 0.000239499 0.00224801
0.0130162 0.00590237 -0.000516058
0.00590237 0.00368754 0.000517467
-0.000516058 0.000517467 0.00109614
0.00895847 -0.00282451 -0.000106492
-0.00282451 0.00358644 4.36301e-05
-0.000106492 4.36301e-05 -3.37407e-05
0.00286648 -0.00121113 -1.33157e-05
-0.00121113 0.00211979 1.71953e-05
-1.33157e-05 1.71953e-05 0.00146618
0.00058569 -5.85239e-05 7.84735e-06
-5.85239e-05 0.000613591 6.7286e-06
7.84735e-06 6.7286e-06 0.000286198
0.000176935 -0.000312177 -3.82492e-07
-0.000312177 0.000331367 -4.75365e-07
-3.82492e-07 -4.75365e-07 -0.000111995
0.00102013 -0.00062821 6.60814e-06
-0.00062821 0.000517376 -3.88626e-06
6.60814e-06 -3.88626e-06 0.000309577
-0.000435861 -0.000198063 2.83824e-06
-0.000198063 4.21302e-05 8.09878e-06
2.83824e-06 8.09878e-06 -0.000288309
-0.000669378 -0.000325687 9.72885e-08
-0.000325687 -0.000407997 -1.26053e-06
9.72885e-08 -1.26053e-06 -0.000636096
0.00275238 -0.000749323 4.05762e-05
-0.000749323 0.00111393 -5.27527e-06
4.05762e-05 -5.27527e-06 0.000803522
0.00623421 -0.00108667 -1.39921e-05
-0.00108667 0.00322268 3.17912e-06
-1.39921e-05 3.17912e-06 0.00279735
0.00271791 -0.000716181 7.98449e-06
-0.000716181 0.00118043 -8.26085e-07
7.98449e-06 -8.26085e-07 0.000637519
0.00169142 -0.000707589 1.04986e-05
-0.000707589 0.000435592 -1.06183e-05
1.04986e-05 -1.06183e-05 -0.000124662
0.00171157 -0.000534393 -8.06409e-06
-0.000534393 0.000490196 -5.05022e-06
-8.06409e-06 -5.05022e-06 8.61631e-05
0.00236458 -0.000735759 2.96188e-06
-0.000735759 0.000802932 -9.29826e-07
2.96188e-06 -9.29826e-07 0.00028604
0.00236628 -0.000786647 1.35888e-06
-0.000786647 0.000728872 -1.0032e-05
1.35888e-06 -1.0032e-05 0.000215373
0.00211239 -0.00067448 -3.91828e-06
-0.00067448 0.000404411 -5.06962e-06
-3.91828e-06 -5.06962e-06 3.93312e-05
0.00227132 -0.000776244 -5.57503e-06
-0.000776244 0.000615632 1.73279e-06
-5.57503e-06 1.73279e-06 0.000187186
0.00211437 -0.000759046 -2.35925e-06
-0.000759046 0.000543977 -6.89994e-08
-2.35925e-06 -6.89994e-08 8.78258e-05
0.00185865 -0.000584302 7.89717e-06
-0.000584302 0.000582698 1.27431e-07
7.89717e-06 1.27431e-07 0.000217942
0.00138081 -0.000555028 1.94778e-06
-0.000555028 0.000259693 -2.92222e-07
1.94778e-06 -2.92222e-07 -0.000115988
0.00127997 -0.000535508 1.71107e-06
-0.000535508 0.000189185 9.54261e-08
1.71107e-06 9.54261e-08 -0.000206933
0.0016704 -0.000394735 4.54201e-06
-0.000394735 0.000570299 2.3228e-06
4.54201e-06 2.3228e-06 0.000291419
0.0014215 -0.000414599 -9.05414e-07
-0.000414599 0.000379682 -1.46198e-06
-9.05414e-07 -1.46198e-06 7.77549e-05
0.00141376 -0.000460029 8.73258e-06
-0.000460029 0.00031138 -2.10924e-06
8.73258e-06 -2.10924e-06 -1.9463e-05
0.000733206 -0.000177401 2.50563e-06
-0.000177401 0.000200406 -2.17986e-06
2.50563e-06 -2.17986e-06 -7.27663e-05
0.000670359 -0.000216496 -1.85308e-06
-0.000216496 7.54088e-05 1.2145e-06
-1.85308e-06 1.2145e-06 -0.000165574
0.00108984 -0.000349599 5.31667e-06
-0.000349599 0.000230725 -7.91565e-06
5.31667e-06 -7.91565e-06 -4.01267e-05
0.000203063 -3.89905e-05 -4.28507e-07
-3.89905e-05 -0.000183982 5.22617e-06
-4.28507e-07 5.22617e-06 -0.00031071
0.000708605 -8.51806e-05 -7.54123e-07
-8.51806e-05 0.000185631 5.35745e-07
-7.54123e-07 5.35745e-07 -3.37026e-05
0.00138971 -0.000277473 1.75309e-06
-0.000277473 0.000634774 1.53305e-07
1.75309e-06 1.53305e-07 0.00036798
0.000393259 7.45823e-06 -4.40599e-06
7.45823e-06 -7.39717e-05 1.15982e-05
-4.40599e-06 1.15982e-05 -0.00011614
0.000672387 -4.41677e-05 9.58491e-08
-4.41677e-05 0.000109348 -1.26877e-08
9.58491e-08 -1.26877e-08 1.56468e-06
0.00130249 -0.000167291 6.72334e-08
-0.000167291 0.000519509 -1.85141e-07
6.72334e-08 -1.85141e-07 0.000351214
0.000671106 -4.70389e-05 8.56013e-07
-4.70389e-05 0.000113249 -4.46733e-06
8.56013e-07 -4.46733e-06 1.59724e-05
0.000472616 2.19127e-05 -1.98448e-07
2.19127e-05 -2.49688e-05 -2.88522e-07
-1.98448e-07 -2.88522e-07 -6.21016e-05
0.00280939 0.000119997 -3.5723e-05
0.000119997 0.00143751 4.26993e-06
-3.5723e-05 4.26993e-06 0.00143686
0.000542291 1.61876e-05 1.3976e-06
1.61876e-05 8.4024e-06 -6.6457e-06
1.3976e-06 -6.6457e-06 -2.20195e-05
0.00268606 9.95908e-05 4.19365e-06
9.95908e-05 0.0013522 4.67003e-07
4.19365e-06 4.67003e-07 0.00135638
0.00260786 8.05898e-05 2.87907e-05
8.05898e-05 0.00129706 -4.66727e-06
2.87907e-05 -4.66727e-06 0.00130477
0.000799112 8.73812e-05 2.96501e-06
8.73812e-05 0.000269181 -4.1257e-06
2.96501e-06 -4.1257e-06 8.92059e-05
0.000807663 0.000119931 5.92829e-06
0.000119931 0.000240952 3.113e-07
5.92829e-06 3.113e-07 8.4821e-05
0.000578912 3.72292e-05 2.71316e-06
3.72292e-05 4.89081e-05 -3.28811e-06
2.71316e-06 -3.28811e-06 -3.57394e-05
0.000628132 0.000100384 2.27162e-07
0.000100384 0.000109076 -2.20795e-07
2.27162e-07 -2.20795e-07 -1.91802e-05
0.000484614 -3.29425e-06 4.1841e-07
-3.29425e-06 -3.4823e-05 -6.14555e-06
4.1841e-07 -6.14555e-06 -5.79972e-05
0.000545942 4.76315e-05 1.81227e-07
4.76315e-05 3.12774e-05 -1.35382e-07
1.81227e-07 -1.35382e-07 -4.52292e-05
0.000588259 5.47194e-05 -3.71849e-06
5.47194e-05 7.79376e-05 -1.31258e-06
-3.71849e-06 -1.31258e-06 -4.15945e-05
0.00232587 -5.12443e-05 -2.5399e-05
-5.12443e-05 0.00111439 -4.8835e-06
-2.5399e-05 -4.8835e-06 0.00112824
0.000487789 -5.40469e-06 -7.4164e-07
-5.40469e-06 -3.48339e-05 -1.39851e-07
-7.4164e-07 -1.39851e-07 -5.24888e-05
0.000494351 5.32327e-05 -3.13052e-06
5.32327e-05 1.86931e-06 6.30586e-07
-3.13052e-06 6.30586e-07 -6.81161e-05
0.00217363 -3.44033e-05 -4.64399e-06
-3.44033e-05 0.00101758 2.21223e-07
-4.64399e-06 2.21223e-07 0.00103401
0.000484673 -4.47984e-06 -2.19329e-06
-4.47984e-06 -3.83921e-05 3.84613e-06
-2.19329e-06 3.84613e-06 -5.11364e-05
0.00208969 -1.85222e-05 1.45806e-05
-1.85222e-05 0.000964889 4.65279e-06
1.45806e-05 4.65279e-06 0.000982659
-0.00187085 8.97609e-05 -1.40201e-05
8.97609e-05 1.84136e-05 -1.85203e-05
-1.40201e-05 -1.85203e-05 -7.41799e-05
0.00124891 -0.000171474 -1.59497e-05
-0.000171474 -4.24091e-05 1.88657e-05
-1.59497e-05 1.88657e-05 -2.24872e-05
0.000105504 -0.000180279 7.28146e-06
-0.000180279 0.00131729 -3.13796e-05
7.28146e-06 -3.13796e-05 0.000892703
0.00081603 9.57174e-05 -3.78603e-07
9.57174e-05 0.00023965 9.04406e-07
-3.78603e-07 9.04406e-07 8.06089e-05
0.000453335 8.90466e-05 4.10108e-06
8.90466e-05 -3.31129e-05 -1.14727e-06
4.10108e-06 -1.14727e-06 -0.000178737
-0.00161756 -1.44619e-05 -3.70681e-06
-1.44619e-05 -0.00128039 -8.2247e-06
-3.70681e-06 -8.2247e-06 -0.0014074
-9.70956e-05 3.88871e-05 2.1008e-06
3.88871e-05 -0.000344231 1.08045e-05
2.1008e-06 1.08045e-05 -0.000478094
0.00285507 0.000381047 -2.91248e-06
0.000381047 0.00148999 -1.18594e-06
-2.91248e-06 -1.18594e-06 0.00125278
0.000693814 4.58577e-05 -5.16628e-06
4.58577e-05 0.000107884 -4.36406e-06
-5.16628e-06 -4.36406e-06 -1.15596e-05
0.000498683 9.15999e-05 -5.35873e-06
9.15999e-05 1.4284e-05 -8.69484e-06
-5.35873e-06 -8.69484e-06 -0.000104526
0.000702019 7.16728e-05 1.82269e-07
7.16728e-05 0.000136661 -3.93081e-07
1.82269e-07 -3.93081e-07 1.6067e-05
0.000959119 0.000152333 -3.1796e-07
0.000152333 0.000322352 -1.55011e-06
-3.1796e-07 -1.55011e-06 0.000192978
0.000739769 0.000114161 6.48841e-06
0.000114161 0.000301051 -1.30894e-05
6.48841e-06 -1.30894e-05 0.000102952
0.00486455 0.000740314 0.000334646
0.000740314 0.00346262 0.000433807
0.000334646 0.000433807 -0.00101253
0.00180656 0.000539769 1.79379e-05
0.000539769 -3.67072e-05 8.59238e-05
1.79379e-05 8.59238e-05 -0.0015288
0.00369102 -0.000105427 1.91202e-05
-0.000105427 -0.000145762 -1.59726e-05
1.91202e-05 -1.59726e-05 -0.000423581
0.013636 -0.00177632 -0.000229124
-0.00177632 0.00197212 -0.000138858
-0.000229124 -0.000138858 0.00363489
-0.0039463 0.00163801 6.6558e-05
0.00163801 -0.00213807 0.000415438
6.6558e-05 0.000415438 -0.00623304
0.00318049 -0.00200167 -5.77114e-05
-0.00200167 0.00106076 -9.77691e-06
-5.77114e-05 -9.77691e-06 0.00113522
0.00966856 -0.00189967 -0.000121612
-0.00189967 0.00534746 1.84563e-05
-0.000121612 1.84563e-05 0.000590687
0.00107127 -0.000611315 -5.72342e-05
-0.000611315 0.000735274 9.14925e-05
-5.72342e-05 9.14925e-05 0.000464103
0.00932792 -0.000153889 -0.000125545
-0.000153889 0.00600809 -1.20361e-06
-0.000125545 -1.20361e-06 -7.53927e-05
0.00447549 -0.00237284 9.95195e-05
-0.00237284 0.00288177 0.000164959
9.95195e-05 0.000164959 -0.00126897
0.0136098 -0.00357196 -0.000177564
-0.00357196 0.00166658 -0.000643087
-0.000177564 -0.000643087 0.000541482
0.0038338 -3.07838e-05 -0.000107159
-3.07838e-05 0.00307357 9.72998e-05
-0.000107159 9.72998e-05 0.00217184
0.0127627 0.0023244 -0.000152467
0.0023244 0.00669716 2.53893e-05
-0.000152467 2.53893e-05 0.00193728
0.0178744 -0.00535125 -0.000194449
-0.00535125 0.00833998 -0.000610868
-0.000194449 -0.000610868 0.00507426
0.019019 -0.00682538 7.49845e-05
-0.00682538 0.00681472 -5.84792e-05
7.49845e-05 -5.84792e-05 0.0054359
0.000802858 0.000229834 1.13003e-05
0.000229834 0.000418072 4.29123e-07
1.13003e-05 4.29123e-07 0.000173778
0.000262209 4.55694e-05 2.6983e-06
4.55694e-05 8.26258e-05 2.32226e-06
2.6983e-06 2.32226e-06 -0.000140122
0.000885994 0.000173404 -7.26541e-06
0.000173404 0.000330364 -1.08063e-05
-7.26541e-06 -1.08063e-05 0.000162576
0.00445324 -0.00053109 -1.89171e-05
-0.00053109 0.00240871 3.1561e-05
-1.89171e-05 3.1561e-05 0.0012595
0.000123233 -9.30083e-05 -6.20942e-06
-9.30083e-05 0.000712851 -3.9805e-05
-6.20942e-06 -3.9805e-05 0.00030715
-2.34925e-05 4.2269e-06 -6.10959e-06
4.2269e-06 -0.000168929 2.187e-06
-6.10959e-06 2.187e-06 -0.000307611
-0.000193474 7.95067e-05 5.05551e-06
7.95067e-05 0.000195859 -6.96659e-06
5.05551e-06 -6.96659e-06 -0.000218125
0.00021278 0.000112419 1.89e-06
0.000112419 0.000196295 -1.35737e-06
1.89e-06 -1.35737e-06 -4.99064e-05
0.000511673 0.00032077 9.33231e-06
0.00032077 0.000669929 -7.27946e-07
9.33231e-06 -7.27946e-07 0.000168626
-0.00186716 -0.000128271 0.000261579
-0.000128271 0.000760582 -1.49144e-05
0.000261579 -1.49144e-05 -0.000969716
-0.00163491 0.000232993 -1.70879e-05
0.000232993 -0.0008379 1.48049e-05
-1.70879e-05 1.48049e-05 -0.00118346
0.00293939 0.000782431 -0.000133062
0.000782431 0.00221378 -6.83723e-05
-0.000133062 -6.83723e-05 0.000944754
0.00144942 0.000193574 0.000154608
0.000193574 0.00163922 4.9786e-05
0.000154608 4.9786e-05 -0.001985
-0.00168403 0.000114807 -3.32795e-05
0.000114807 0.000948351 1.71835e-05
-3.32795e-05 1.71835e-05 0.000123155
0.00199226 -0.000188134 -1.53079e-05
-0.000188134 0.000331266 -4.94116e-07
-1.53079e-05 -4.94116e-07 0.000616966
-0.000539592 0.000435075 0.000115851
0.000435075 0.000380657 1.68336e-05
0.000115851 1.68336e-05 -0.000564875
0.00140827 0.000300968 -7.46646e-05
0.000300968 0.00185138 7.60914e-05
-7.46646e-05 7.60914e-05 0.000622374
1.14597e-05 -0.000205098 -1.35489e-05
-0.000205098 0.00125761 2.11754e-06
-1.35489e-05 2.11754e-06 0.000816585
0.0163306 -0.00346807 0.000198147
-0.00346807 0.00781534 -9.32642e-05
0.000198147 -9.32642e-05 0.00225296
0.0213864 0.00388605 -8.09454e-05
0.00388605 0.00913669 -0.000128009
-8.09454e-05 -0.000128009 0.00553079
0.00470432 -0.00128003 -0.0001986
-0.00128003 0.00227563 0.000216013
-0.0001986 0.000216013 -0.0020813
0.00132407 0.00737376 0.00209719
0.00737376 0.00237086 -0.00138595
0.00209719 -0.00138595 0.000603526
0.00103063 -0.000425251 2.85104e-05
-0.000425251 0.00125601 -8.82849e-06
2.85104e-05 -8.82849e-06 0.000313213
-0.000138802 -0.00042023 3.34195e-05
-0.00042023 0.00024524 1.47739e-05
3.34195e-05 1.47739e-05 -0.00300551
-0.00133971 0.00053255 -0.000980462
0.00053255 0.00533623 0.000322476
-0.000980462 0.000322476 0.00179065
0.000942441 -0.000709519 8.76815e-07
-0.000709519 0.00105707 3.20507e-05
8.76815e-07 3.20507e-05 0.000482314
0.018549 0.00518939 0.000287641
0.00518939 0.0055062 8.68021e-05
0.000287641 8.68021e-05 0.00305896
0.00745986 -0.00390434 0.00015984
-0.00390434 0.002473 -6.8371e-05
0.00015984 -6.8371e-05 -0.0012092
0.00200197 -0.00110069 -1.6723e-05
-0.00110069 0.00109853 3.00148e-05
-1.6723e-05 3.00148e-05 0.000469736
-0.0064541 -0.00144481 0.000117738
-0.00144481 0.00459036 -6.4159e-05
0.000117738 -6.4159e-05 0.000941467
0.0149381 0.00484664 -0.00125902
0.00484664 0.00586815 0.000488292
-0.00125902 0.000488292 0.00367311
0.00541162 -0.00282817 -0.000366563
-0.00282817 -0.000408868 0.000178885
-0.000366563 0.000178885 -0.00386933
0.00181336 -0.00178058 0.000184955
-0.00178058 0.000211731 -0.000103775
0.000184955 -0.000103775 0.00104998
0.000502534 -0.000388878 -7.53504e-05
-0.000388878 0.000457143 2.90107e-05
-7.53504e-05 2.90107e-05 5.74183e-05
0.000680677 -0.000543236 -8.48274e-06
-0.000543236 0.00037669 1.26341e-05
-8.48274e-06 1.26341e-05 9.90682e-05
0.00340961 -0.000823484 2.5886e-05
-0.000823484 0.00156957 -5.32215e-06
2.5886e-05 -5.32215e-06 0.00124687
-0.00211269 -0.000186522 6.31359e-06
-0.000186522 -0.00106341 1.34168e-05
6.31359e-06 1.34168e-05 -0.00129835
0.00101729 -0.000544202 5.58789e-06
-0.000544202 0.000205253 -7.15225e-07
5.58789e-06 -7.15225e-07 -8.53687e-05
0.00255454 -0.000827245 9.33863e-06
-0.000827245 0.000722699 -4.98103e-07
9.33863e-06 -4.98103e-07 0.000374969
0.00369381 -0.000840684 -2.75688e-05
-0.000840684 0.00164067 5.41435e-06
-2.75688e-05 5.41435e-06 0.00110569
0.00144628 -0.000658657 -2.07497e-07
-0.000658657 0.000285064 -7.99529e-07
-2.07497e-07 -7.99529e-07 -0.000252973
0.0018079 -0.000804746 3.88542e-06
-0.000804746 0.000255114 -1.05347e-05
3.88542e-06 -1.05347e-05 -0.000181765
0.00280347 -0.000798309 -1.85139e-06
-0.000798309 0.00101718 3.95168e-06
-1.85139e-06 3.95168e-06 0.000489725
0.00207823 -0.000760364 3.24812e-07
-0.000760364 0.000544674 -4.94862e-06
3.24812e-07 -4.94862e-06 4.93536e-05
0.00254537 -0.00072716 1.0293e-06
-0.00072716 0.000594348 -9.00048e-06
1.0293e-06 -9.00048e-06 0.000236
0.00171234 -0.000482951 -4.77069e-06
-0.000482951 2.3112e-05 -3.22416e-06
-4.77069e-06 -3.22416e-06 -0.000217882
0.00182114 -0.000667247 -1.30726e-06
-0.000667247 0.000190517 -1.04149e-06
-1.30726e-06 -1.04149e-06 -0.000170891
0.0020459 -0.000667966 2.7142e-06
-0.000667966 0.000361082 -2.96609e-06
2.7142e-06 -2.96609e-06 -4.80701e-07
0.00211822 -0.000679091 -2.20187e-06
-0.000679091 0.000592912 -1.29848e-07
-2.20187e-06 -1.29848e-07 0.000208092
0.00221723 -0.000768956 -2.54595e-06
-0.000768956 0.000595563 1.91728e-08
-2.54595e-06 1.91728e-08 0.000163473
0.00235284 -0.000788 4.05525e-06
-0.000788 0.000672849 -3.22726e-06
4.05525e-06 -3.22726e-06 0.000207657
0.00189361 -0.000496888 4.99607e-06
-0.000496888 0.000656554 2.60482e-06
4.99607e-06 2.60482e-06 0.000329839
0.00133172 -0.000519216 2.29711e-06
-0.000519216 0.000278082 3.59278e-07
2.29711e-06 3.59278e-07 -6.93578e-05
0.00116633 -0.000524986 3.26619e-06
-0.000524986 0.000135646 8.49573e-07
3.26619e-06 8.49573e-07 -0.000226939
0.00121058 -0.00032548 -1.12211e-06
-0.00032548 0.000363603 7.59278e-07
-1.12211e-06 7.59278e-07 0.000105015
0.00114753 -0.00033223 1.6294e-07
-0.00033223 0.000256854 -8.09274e-07
1.6294e-07 -8.09274e-07 -9.90996e-06
0.00115607 -0.000383734 -5.37729e-06
-0.000383734 0.000218103 -2.78309e-06
-5.37729e-06 -2.78309e-06 -8.00917e-05
-0.000271344 -6.51037e-05 -1.96891e-06
-6.51037e-05 -0.000465182 5.02818e-06
-1.96891e-06 5.02818e-06 -0.00065052
0.000788736 -0.000203105 1.43464e-06
-0.000203105 0.000235876 -2.46921e-07
1.43464e-06 -2.46921e-07 -3.84145e-05
0.00133243 -0.000276842 -2.76241e-06
-0.000276842 0.000499225 1.45093e-06
-2.76241e-06 1.45093e-06 0.000243692
0.00177397 4.40205e-05 -3.82344e-05
4.40205e-05 0.000792092 7.37056e-06
-3.82344e-05 7.37056e-06 0.000746304
0.000678129 -8.55506e-05 2.76951e-07
-8.55506e-05 0.000102138 -7.2966e-07
2.76951e-07 -7.2966e-07 -2.95781e-05
0.00150966 -0.000140326 -1.57995e-06
-0.000140326 0.000682008 -8.71322e-08
-1.57995e-06 -8.71322e-08 0.000452919
0.000709995 3.95819e-05 -4.52133e-05
3.95819e-05 0.00012726 5.09926e-06
-4.52133e-05 5.09926e-06 0.000118762
0.00111956 2.75622e-05 -1.48687e-05
2.75622e-05 0.000380851 -5.41185e-07
-1.48687e-05 -5.41185e-07 0.000339576
0.000692802 -5.35039e-05 2.26402e-06
-5.35039e-05 0.000116776 -5.15231e-06
2.26402e-06 -5.15231e-06 9.3814e-06
0.00057604 1.78695e-05 2.16846e-06
1.78695e-05 3.73622e-05 -8.12309e-06
2.16846e-06 -8.12309e-06 3.46684e-07
0.00285826 0.000120858 7.25202e-06
0.000120858 0.00146839 6.50713e-07
7.25202e-06 6.50713e-07 0.0014676
0.00267221 0.00010023 3.21195e-05
0.00010023 0.00134405 -4.47767e-06
3.21195e-05 -4.47767e-06 0.00134816
0.00104809 0.000131133 8.24434e-06
0.000131133 0.000405448 -9.31544e-08
8.24434e-06 -9.31544e-08 0.000215581
0.00121946 0.000146331 3.9797e-06
0.000146331 0.000517872 -2.06232e-06
3.9797e-06 -2.06232e-06 0.000333604
0.000179578 6.50066e-05 -1.90015e-07
6.50066e-05 -0.000140219 8.66603e-07
-1.90015e-07 8.66603e-07 -0.000299221
0.000620611 3.13301e-05 3.16715e-06
3.13301e-05 7.46003e-05 -4.52935e-06
3.16715e-06 -4.52935e-06 -2.10046e-05
0.000806413 0.000104274 6.66299e-07
0.000104274 0.000232453 7.27977e-08
6.66299e-07 7.27977e-08 8.51631e-05
0.00047336 5.80718e-06 -1.46273e-06
5.80718e-06 -3.67738e-05 -7.40644e-06
-1.46273e-06 -7.40644e-06 -6.49487e-05
0.000552517 3.95165e-05 -1.14161e-07
3.95165e-05 3.4909e-05 -3.65552e-07
-1.14161e-07 -3.65552e-07 -5.05855e-05
0.000720513 6.89712e-05 -3.01323e-06
6.89712e-05 0.000188852 -2.4625e-08
-3.01323e-06 -2.4625e-08 4.40357e-05
0.00253833 -6.91734e-05 -3.33183e-05
-6.91734e-05 0.00125075 -4.82176e-06
-3.33183e-05 -4.82176e-06 0.00126142
0.00046546 -5.65078e-07 -6.98164e-07
-5.65078e-07 -4.60684e-05 -1.24481e-07
-6.98164e-07 -1.24481e-07 -6.90117e-05
0.000562126 5.16147e-05 -7.91228e-07
5.16147e-05 4.24362e-05 2.83928e-06
-7.91228e-07 2.83928e-06 -3.448e-05
0.00233356 -5.12644e-05 -5.71655e-06
-5.12644e-05 0.00111918 3.36926e-07
-5.71655e-06 3.36926e-07 0.00113307
0.000457212 -1.12517e-05 -3.41894e-06
-1.12517e-05 -5.34956e-05 4.80878e-06
-3.41894e-06 4.80878e-06 -7.09269e-05
0.00219555 -3.31924e-05 2.0116e-05
-3.31924e-05 0.00103124 4.60017e-06
2.0116e-05 4.60017e-06 0.00104776
0.00630039 0.000490945 0.00026818
0.000490945 0.00335592 5.56515e-05
0.00026818 5.56515e-05 0.00139391
-0.00163912 4.18972e-05 -1.57641e-06
4.18972e-05 5.96762e-06 -5.46826e-06
-1.57641e-06 -5.46826e-06 -0.00027237
0.000756288 7.08813e-07 -1.78515e-05
7.08813e-07 1.05895e-05 -3.1997e-06
-1.78515e-05 -3.1997e-06 3.63661e-05
-0.000279819 0.000103296 -7.20638e-06
0.000103296 -0.000475981 -2.97145e-07
-7.20638e-06 -2.97145e-07 -0.000620454
0.000525764 7.58362e-05 -5.68783e-06
7.58362e-05 5.32995e-05 -3.10917e-06
-5.68783e-06 -3.10917e-06 -9.39685e-05
0.000107894 6.49197e-05 -1.30266e-07
6.49197e-05 -0.000247488 -2.00731e-06
-1.30266e-07 -2.00731e-06 -0.000387797
0.00109191 6.81189e-05 1.08566e-06
6.81189e-05 0.000372749 -3.98649e-07
1.08566e-06 -3.98649e-07 0.000228143
0.000140647 8.63241e-05 -2.23573e-06
8.63241e-05 -0.000224774 -1.36682e-06
-2.23573e-06 -1.36682e-06 -0.000357691
0.00197403 0.000276647 -1.06448e-06
0.000276647 0.000949481 -3.17037e-06
-1.06448e-06 -3.17037e-06 0.000760064
0.00108952 0.000228936 -7.56568e-06
0.000228936 0.000376667 -1.57295e-05
-7.56568e-06 -1.57295e-05 0.000102442
-0.000750805 7.00884e-05 1.49984e-06
7.00884e-05 -0.000527859 1.352e-07
1.49984e-06 1.352e-07 -0.000813825
0.000840339 0.000149663 -4.78746e-06
0.000149663 0.000245154 -4.49728e-06
-4.78746e-06 -4.49728e-06 0.000106973
0.000152311 5.02796e-05 -6.36936e-06
5.02796e-05 -0.000212906 -7.23382e-06
-6.36936e-06 -7.23382e-06 -0.000308176
0.00010813 5.20748e-05 2.51933e-07
5.20748e-05 -0.000101563 8.98063e-07
2.51933e-07 8.98063e-07 -0.000286273
0.000759802 0.000229084 1.24741e-05
0.000229084 0.000448275 -3.24041e-06
1.24741e-05 -3.24041e-06 0.000115842
0.00228937 -0.00236187 0.000139371
-0.00236187 0.00495598 0.000254322
0.000139371 0.000254322 0.000266537
0.0056083 0.00102184 0.000100217
0.00102184 0.00292885 0.000155497
0.000100217 0.000155497 -0.00186876
0.00248685 0.000366779 -2.95416e-05
0.000366779 0.000430749 -8.02158e-05
-2.95416e-05 -8.02158e-05 -0.00128132
0.0207197 -0.00444136 -0.00060151
-0.00444136 0.00520361 -0.000335043
-0.00060151 -0.000335043 0.00390253
0.00608531 -0.00162629 0.000232871
-0.00162629 0.00332014 0.000434649
0.000232871 0.000434649 0.000236063
0.00342775 -0.00135686 -0.000201643
-0.00135686 0.00466292 8.86104e-05
-0.000201643 8.86104e-05 -0.00205123
-0.000545949 -0.000480167 0.000131022
-0.000480167 0.000914049 1.28194e-05
0.000131022 1.28194e-05 -2.25225e-06
-2.12989e-05 -0.000144924 7.04224e-05
-0.000144924 0.00084456 5.73233e-05
7.04224e-05 5.73233e-05 0.000286489
0.0108489 -0.0070502 0.000391277
-0.0070502 0.0046346 0.000371871
0.000391277 0.000371871 0.00307862
0.00226582 0.00138337 -8.21165e-05
0.00138337 0.00394476 -7.34742e-05
-8.21165e-05 -7.34742e-05 -0.00210739
0.00673148 -0.00320963 -0.000111092
-0.00320963 0.00240842 9.0804e-05
-0.000111092 9.0804e-05 -0.00143688
0.00045712 0.000583441 -2.53214e-05
0.000583441 0.000916865 6.81849e-05
-2.53214e-05 6.81849e-05 0.000660474
0.0114338 0.003208 -0.000102503
0.003208 0.00410603 8.20266e-06
-0.000102503 8.20266e-06 0.000464118
0.0117882 -0.00572078 -0.000715714
-0.00572078 0.00316246 -0.000477606
-0.000715714 -0.000477606 0.000330153
-0.00020166 0.0004008 -8.30114e-07
0.0004008 -0.000499415 -4.73107e-06
-8.30114e-07 -4.73107e-06 -0.000641144
0.000437735 0.000123311 7.79692e-06
0.000123311 0.000168293 3.13191e-06
7.79692e-06 3.13191e-06 -2.90074e-05
9.31393e-05 5.57122e-05 -6.77767e-06
5.57122e-05 -3.07569e-05 -4.7431e-06
-6.77767e-06 -4.7431e-06 -0.000247169
-0.0038496 -0.000341159 -0.000147154
-0.000341159 -0.000357625 -6.58953e-05
-0.000147154 -6.58953e-05 -0.0020418
-0.000906793 0.000237412 1.655e-05
0.000237412 -0.000224578 -2.33659e-05
1.655e-05 -2.33659e-05 -0.000718845
0.00099581 0.00015829 -5.66804e-06
0.00015829 0.000629735 7.4765e-06
-5.66804e-06 7.4765e-06 0.000375946
0.000985983 0.000570673 1.66168e-05
0.000570673 0.000528584 4.28608e-06
1.66168e-05 4.28608e-06 0.000153345
-0.000433907 0.00041054 4.51378e-05
0.00041054 0.000573035 -2.83879e-05
4.51378e-05 -2.83879e-05 -0.000521927
0.000418347 0.00107095 4.83294e-05
0.00107095 -0.000190165 5.80946e-06
4.83294e-05 5.80946e-06 -0.000883229
-0.00521707 0.000969373 0.000300326
0.000969373 0.00501153 1.022e-05
0.000300326 1.022e-05 -0.000894217
0.00227131 -8.3968e-05 -6.94053e-06
-8.3968e-05 0.00186265 5.61626e-05
-6.94053e-06 5.61626e-05 -0.000681232
-0.0020578 -5.16384e-05 -9.0015e-06
-5.16384e-05 0.000524054 3.97912e-05
-9.0015e-06 3.97912e-05 -6.78162e-05
-0.000447022 -0.000215619 -5.1578e-05
-0.000215619 0.000598896 1.26056e-05
-5.1578e-05 1.26056e-05 -0.000390249
-0.00131773 -0.000334716 -5.0787e-05
-0.000334716 -0.000548816 3.85464e-05
-5.0787e-05 3.85464e-05 -0.000261412
1.43853e-05 -0.00033777 -0.000161253
-0.00033777 0.000540561 9.57429e-05
-0.000161253 9.57429e-05 -0.00288856
0.000128772 -0.00321653 0.000227154
-0.00321653 0.00193326 -8.43347e-05
0.000227154 -8.43347e-05 -0.00332589
0.0059158 0.00444629 0.000566485
0.00444629 -0.000857467 -0.0004028
0.000566485 -0.0004028 -0.003126
0.00802831 0.00252487 -0.000366216
0.00252487 0.00655036 0.000272647
-0.000366216 0.000272647 0.00319932
0.00125906 -0.000660744 -8.98061e-06
-0.000660744 0.00107417 -2.77077e-06
-8.98061e-06 -2.77077e-06 0.000487395
0.00153831 0.000414969 9.72561e-05
0.000414969 0.00640924 -1.24524e-05
9.72561e-05 -1.24524e-05 0.00305313
-0.000281322 0.00328796 1.25251e-05
0.00328796 0.000349832 5.91664e-05
1.25251e-05 5.91664e-05 -0.0026585
0.00245051 -0.00214653 8.41494e-05
-0.00214653 0.000677599 -3.43995e-05
8.41494e-05 -3.43995e-05 0.000797104
0.0168871 -0.00306115 2.32051e-05
-0.00306115 0.00388933 -8.54277e-06
2.32051e-05 -8.54277e-06 0.00200441
0.00328869 -0.00136412 1.06126e-05
-0.00136412 0.00131727 2.13508e-05
1.06126e-05 2.13508e-05 0.00106568
-0.00887867 0.000997394 -0.000463991
0.000997394 -0.00305464 6.10205e-05
-0.000463991 6.10205e-05 -0.00530981
0.0155162 -0.00195721 -0.000202375
-0.00195721 0.00239005 7.1076e-05
-0.000202375 7.1076e-05 0.000910381
0.00380046 -0.0023899 9.29239e-05
-0.0023899 -0.000147487 -6.46854e-05
9.29239e-05 -6.46854e-05 0.000124339
0.000172685 -0.000416661 -1.04268e-05
-0.000416661 0.000184451 1.8228e-05
-1.04268e-05 1.8228e-05 -0.000161038
0.000709094 -0.000656776 -2.99827e-06
-0.000656776 -3.51708e-06 1.55036e-07
-2.99827e-06 1.55036e-07 -0.000191102
0.00583167 -0.000985196 2.6292e-05
-0.000985196 0.00253968 -6.95366e-06
2.6292e-05 -6.95366e-06 0.00217879
-0.000716626 -0.000348011 -8.79475e-06
-0.000348011 -0.000689664 7.23878e-06
-8.79475e-06 7.23878e-06 -0.000968728
0.00137642 -0.000695891 -5.21411e-06
-0.000695891 0.00013628 -2.30584e-06
-5.21411e-06 -2.30584e-06 -0.000221422
0.00263196 -0.00089113 5.32034e-06
-0.00089113 0.000581479 -7.54658e-06
5.32034e-06 -7.54658e-06 0.000221538
0.00133091 -0.000624967 -1.38675e-05
-0.000624967 0.000199571 5.4858e-06
-1.38675e-05 5.4858e-06 -0.000318226
0.00179125 -0.000788862 -1.70575e-06
-0.000788862 0.000254958 -2.18567e-07
-1.70575e-06 -2.18567e-07 -0.000186232
0.00162398 -0.000648964 1.30717e-06
-0.000648964 -6.9548e-05 -5.2496e-06
1.30717e-06 -5.2496e-06 -0.000345707
0.00147087 -0.000697931 -5.52774e-06
-0.000697931 0.000188953 1.97856e-06
-5.52774e-06 1.97856e-06 -0.000285439
0.00187431 -0.000645898 -7.61567e-07
-0.000645898 0.000233068 1.40775e-06
-7.61567e-07 1.40775e-06 -0.000108231
0.00188637 -0.000494484 -1.25192e-06
-0.000494484 5.61426e-05 -4.00349e-06
-1.25192e-06 -4.00349e-06 -0.000144662
0.00182402 -0.000406648 -5.56871e-06
-0.000406648 7.15791e-05 -1.29119e-06
-5.56871e-06 -1.29119e-06 -9.5303e-05
0.00165162 -0.000491618 -5.64665e-06
-0.000491618 4.60617e-06 -1.8884e-06
-5.64665e-06 -1.8884e-06 -0.000246497
0.00175382 -0.000479619 1.28704e-06
-0.000479619 5.17902e-05 2.67291e-06
1.28704e-06 2.67291e-06 -0.00018497
0.0016119 -0.00057589 -5.362e-06
-0.00057589 0.000123695 -1.83079e-06
-5.362e-06 -1.83079e-06 -0.000202518
0.00198585 -0.000673995 2.57899e-06
-0.000673995 0.000304261 -4.04781e-07
2.57899e-06 -4.04781e-07 -5.35733e-05
0.00204271 -0.000667192 4.03502e-06
-0.000667192 0.000354193 1.32355e-06
4.03502e-06 1.32355e-06 -4.68669e-06
0.00153661 -0.000549139 -2.28701e-06
-0.000549139 0.000294494 -8.29768e-07
-2.28701e-06 -8.29768e-07 -5.65484e-05
0.0019673 -0.000667672 1.43048e-06
-0.000667672 0.000500635 -5.16659e-07
1.43048e-06 -5.16659e-07 0.000115714
0.00212307 -0.000756246 -1.05099e-07
-0.000756246 0.000551976 -1.52039e-06
-1.05099e-07 -1.52039e-06 0.000116911
0.00133452 -0.000336222 -5.71142e-06
-0.000336222 0.000329778 1.56684e-06
-5.71142e-06 1.56684e-06 7.67873e-05
0.00140601 -0.000444344 2.30122e-06
-0.000444344 0.000346137 1.08402e-06
2.30122e-06 1.08402e-06 3.23038e-05
0.00072969 -0.000445122 -3.17722e-06
-0.000445122 -7.28561e-05 8.85578e-08
-3.17722e-06 8.85578e-08 -0.00040128
0.000525699 -0.000181254 -4.61334e-06
-0.000181254 -1.55439e-05 2.38551e-06
-4.61334e-06 2.38551e-06 -0.000235747
0.00109426 -0.000327345 1.47717e-07
-0.000327345 0.00028176 3.37721e-09
1.47717e-07 3.37721e-09 2.87889e-05
0.000412829 -0.000252502 -7.39191e-06
-0.000252502 -0.000185853 -1.33897e-06
-7.39191e-06 -1.33897e-06 -0.000437129
0.000326537 -2.85145e-05 -8.06616e-06
-2.85145e-05 -0.000118658 1.22979e-05
-8.06616e-06 1.22979e-05 -0.000183558
0.000805809 -0.000138924 9.83456e-07
-0.000138924 0.000199647 6.34118e-07
9.83456e-07 6.34118e-07 2.19308e-07
0.00105154 -0.000241049 1.19262e-06
-0.000241049 0.00039306 3.84151e-07
1.19262e-06 3.84151e-07 0.000121552
0.00351306 0.000207687 6.83649e-07
0.000207687 0.00190658 4.1562e-06
6.83649e-07 4.1562e-06 0.00187923
0.000405983 -6.76971e-06 -8.65882e-09
-6.76971e-06 -6.82664e-05 -1.54764e-07
-8.65882e-09 -1.54764e-07 -0.000121397
0.00113362 -0.000110907 1.89269e-06
-0.000110907 0.000384676 -6.04511e-06
1.89269e-06 -6.04511e-06 0.000243888
0.00316386 0.000139961 7.62678e-06
0.000139961 0.0016664 5.95193e-07
7.62678e-06 5.95193e-07 0.00166108
0.000558883 6.66883e-06 3.66355e-06
6.66883e-06 2.85515e-05 -9.26362e-06
3.66355e-06 -9.26362e-06 -1.61114e-05
0.00293612 0.000119487 4.61769e-05
0.000119487 0.00151671 -4.18944e-06
4.61769e-05 -4.18944e-06 0.00151642
0.00182825 0.000268687 6.71453e-06
0.000268687 0.000830063 3.50246e-06
6.71453e-06 3.50246e-06 0.000623352
0.000830086 0.000138647 6.0454e-07
0.000138647 0.000280378 -2.3625e-06
6.0454e-07 -2.3625e-06 8.43147e-05
0.0011678 0.000144022 1.5326e-06
0.000144022 0.00050125 -5.67062e-06
1.5326e-06 -5.67062e-06 0.000288692
0.00062245 4.41425e-05 2.77342e-06
4.41425e-05 8.23923e-05 -5.78938e-06
2.77342e-06 -5.78938e-06 -2.92097e-05
0.000710037 8.78179e-05 1.79717e-08
8.78179e-05 0.000186943 1.2096e-06
1.79717e-08 1.2096e-06 1.67261e-05
0.000398969 0.000103384 -9.18184e-07
0.000103384 5.09578e-06 4.19066e-06
-9.18184e-07 4.19066e-06 -0.000164278
0.000504154 -4.02993e-06 -1.43969e-06
-4.02993e-06 -1.19533e-05 -8.8171e-06
-1.43969e-06 -8.8171e-06 -4.62884e-05
0.000593777 3.70687e-05 -4.06253e-08
3.70687e-05 6.28733e-05 -2.93192e-07
-4.06253e-08 -2.93192e-07 -3.45607e-05
0.000456511 8.24798e-05 -4.21601e-06
8.24798e-05 2.96838e-06 5.23572e-08
-4.21601e-06 5.23572e-08 -0.00013047
0.00269875 -8.6134e-05 -4.19499e-05
-8.6134e-05 0.00135615 -4.52563e-06
-4.19499e-05 -4.52563e-06 0.0013639
0.000439244 -1.99702e-05 2.32613e-06
-1.99702e-05 -5.66082e-05 -1.2106e-07
2.32613e-06 -1.2106e-07 -8.54273e-05
0.000521947 4.40115e-05 -2.00685e-06
4.40115e-05 1.72237e-05 3.36422e-06
-2.00685e-06 3.36422e-06 -6.87168e-05
0.00251467 -6.91237e-05 -6.19666e-06
-6.91237e-05 0.00123579 4.49433e-07
-6.19666e-06 4.49433e-07 0.00124644
0.000455172 -8.42006e-06 -2.28282e-06
-8.42006e-06 -5.21255e-05 5.91772e-06
-2.28282e-06 5.91772e-06 -7.48837e-05
0.00230313 -5.03942e-05 2.28938e-05
-5.03942e-05 0.00110002 4.62055e-06
2.28938e-05 4.62055e-06 0.00111419
-0.00949079 0.000945987 -7.57685e-05
0.000945987 0.00326967 8.01992e-05
-7.57685e-05 8.01992e-05 -0.00234266
0.00593329 0.000321477 -2.57057e-06
0.000321477 0.00332231 -2.43124e-06
-2.57057e-06 -2.43124e-06 0.00144944
-0.0013437 -4.08672e-07 2.55417e-05
-4.08672e-07 8.75822e-06 6.42362e-06
2.55417e-05 6.42362e-06 -0.000460357
7.20295e-05 0.000102084 -1.92278e-06
0.000102084 -0.000238847 2.05842e-06
-1.92278e-06 2.05842e-06 -0.000406487
0.00334698 0.00059555 9.67889e-06
0.00059555 0.00170175 9.73156e-06
9.67889e-06 9.73156e-06 0.00137926
0.0015876 0.00017262 -7.95857e-06
0.00017262 0.000755101 -6.90094e-07
-7.95857e-06 -6.90094e-07 0.000491709
0.000634642 6.98786e-05 -6.58382e-06
6.98786e-05 8.98121e-05 -1.10912e-05
-6.58382e-06 -1.10912e-05 -5.71233e-05
0.00226534 0.000241096 3.15973e-06
0.000241096 0.00105533 -3.76315e-07
3.15973e-06 -3.76315e-07 0.000905925
-0.000367491 5.20164e-05 -7.89195e-06
5.20164e-05 -0.000484267 7.28307e-06
-7.89195e-06 7.28307e-06 -0.000620227
0.000236069 7.78451e-05 -1.52379e-06
7.78451e-05 4.01621e-06 5.06734e-06
-1.52379e-06 5.06734e-06 -0.000245724
0.000477431 0.00014463 -2.80457e-06
0.00014463 4.64862e-05 -5.23689e-06
-2.80457e-06 -5.23689e-06 -0.000228046
0.00190684 0.000412928 6.51945e-06
0.000412928 0.000940364 -2.78168e-05
6.51945e-06 -2.78168e-05 0.000550778
0.000289547 0.000419994 -1.33225e-05
0.000419994 -0.00017555 3.9445e-05
-1.33225e-05 3.9445e-05 -0.000320146
0.00139304 4.33186e-05 -9.84356e-06
4.33186e-05 0.000656174 1.2754e-05
-9.84356e-06 1.2754e-05 0.000476164
0.00123992 0.000215178 3.70151e-06
0.000215178 0.000742994 -8.59979e-06
3.70151e-06 -8.59979e-06 0.000418738
-0.00181081 -0.00195115 -0.00124148
-0.00195115 0.000860253 -0.000215541
-0.00124148 -0.000215541 -0.00234389
-0.00312743 -0.00177314 0.000428501
-0.00177314 0.00463504 0.000183673
0.000428501 0.000183673 -0.000263965
0.00630021 0.00127143 -0.000438231
0.00127143 0.00278167 -0.00015717
-0.000438231 -0.00015717 -0.00234711
0.000599414 -0.00736451 0.00203806
-0.00736451 0.00232334 0.00133493
0.00203806 0.00133493 0.000205224
0.0223326 -0.00335396 4.63695e-05
-0.00335396 0.00744545 0.000302608
4.63695e-05 0.000302608 0.00484998
-0.00269202 0.00143675 -4.88303e-06
0.00143675 0.00189764 -0.000175713
-4.88303e-06 -0.000175713 -0.00345908
-0.00265909 0.000186641 -0.000392551
0.000186641 0.000136025 -6.63296e-05
-0.000392551 -6.63296e-05 -0.00138374
0.00117101 0.000653365 6.91787e-05
0.000653365 0.00138855 4.85462e-05
6.91787e-05 4.85462e-05 0.00112514
0.0176186 -0.00418291 -0.00053059
-0.00418291 0.00723277 1.16773e-05
-0.00053059 1.16773e-05 0.00444108
-0.00225094 0.00243363 -8.86353e-05
0.00243363 0.000389729 -4.58268e-05
-8.86353e-05 -4.58268e-05 -0.00410226
0.00265726 0.00176316 -9.00585e-06
0.00176316 0.000747633 -7.04721e-05
-9.00585e-06 -7.04721e-05 0.0012959
0.00235563 0.00376288 -0.000324532
0.00376288 -0.00192652 -0.00010548
-0.000324532 -0.00010548 -0.00459093
0.00320461 0.00106995 2.02949e-05
0.00106995 0.00115279 -1.13527e-05
2.02949e-05 -1.13527e-05 0.000829046
0.00097834 0.000503625 -6.3355e-06
0.000503625 0.00026372 -9.78943e-07
-6.3355e-06 -9.78943e-07 0.000101294
8.83319e-05 0.000134951 -3.83933e-06
0.000134951 -3.95309e-05 -1.06229e-07
-3.83933e-06 -1.06229e-07 -0.000241313
-0.00199816 0.000254836 -6.81821e-05
0.000254836 -0.000266272 -7.20774e-05
-6.81821e-05 -7.20774e-05 -0.00121987
0.00236459 0.000748355 -2.8016e-05
0.000748355 0.00120875 -2.22324e-05
-2.8016e-05 -2.22324e-05 0.000817122
0.001529 0.00119982 1.32098e-05
0.00119982 0.00030889 -7.12068e-06
1.32098e-05 -7.12068e-06 -0.000377955
-0.000389181 0.00137108 9.62013e-05
0.00137108 -0.00146709 4.09085e-05
9.62013e-05 4.09085e-05 -0.00175683
-0.00588597 -0.000366097 -0.000498097
-0.000366097 -0.00458765 3.34876e-05
-0.000498097 3.34876e-05 -0.00380236
-0.00754714 0.000445408 0.000318726
0.000445408 0.00505763 1.37556e-05
0.000318726 1.37556e-05 -0.000533785
0.0029208 -0.000112812 -0.000107945
-0.000112812 0.00200023 3.38402e-05
-0.000107945 3.38402e-05 0.000324344
0.00215815 -0.000800859 -3.80979e-05
-0.000800859 0.00116782 -5.00081e-05
-3.80979e-05 -5.00081e-05 0.000597594
-0.000317007 -0.00169319 -4.53323e-06
-0.00169319 -0.000683923 4.5878e-05
-4.53323e-06 4.5878e-05 -0.000474485
0.000646673 0.00046987 2.12541e-05
0.00046987 0.00612994 3.66324e-05
2.12541e-05 3.66324e-05 0.00273731
0.0014272 -0.00262057 0.000388945
-0.00262057 -0.00159694 -0.000127133
0.000388945 -0.000127133 -0.004181
0.0189848 0.00290927 0.000651458
0.00290927 0.00836616 -8.70216e-05
0.000651458 -8.70216e-05 0.00600597
0.00163648 -0.00138765 -1.61209e-05
-0.00138765 0.000348044 5.65678e-06
-1.61209e-05 5.65678e-06 -0.000137844
0.00136566 0.00119025 0.000215277
0.00119025 0.000278622 -6.40819e-05
0.000215277 -6.40819e-05 -0.00139166
0.00783154 -0.00171478 -0.000134248
-0.00171478 -0.0015958 0.000124277
-0.000134248 0.000124277 -0.00385605
0.0044317 -0.00243302 -1.44054e-05
-0.00243302 -2.9693e-06 2.61678e-05
-1.44054e-05 2.61678e-05 0.000365915
0.00250882 -0.00119169 7.03966e-05
-0.00119169 0.000253265 -1.52314e-05
7.03966e-05 -1.52314e-05 0.00015834
0.0150755 -0.000751036 -3.80684e-05
-0.000751036 0.00305438 2.72596e-05
-3.80684e-05 2.72596e-05 0.00171294
0.00223608 -0.00147692 0.00011082
-0.00147692 -0.0027914 -8.8064e-05
0.00011082 -8.8064e-05 -0.00182913
-0.000660705 -0.000542511 -3.34191e-05
-0.000542511 -0.000842911 2.42437e-05
-3.34191e-05 2.42437e-05 -0.000908791
0.000226138 -0.000501456 -3.51296e-05
-0.000501456 -0.000542166 2.57037e-06
-3.51296e-05 2.57037e-06 -0.00066245
0.00579759 -0.00101389 6.2623e-05
-0.00101389 0.00216486 -1.97298e-05
6.2623e-05 -1.97298e-05 0.00197697
0.000512706 -0.000590354 -1.92491e-05
-0.000590354 -0.000289081 -4.05031e-06
-1.92491e-05 -4.05031e-06 -0.000652447
0.00210041 -0.000826659 -1.29819e-06
-0.000826659 0.000301471 -3.02767e-06
-1.29819e-06 -3.02767e-06 -3.91362e-05
0.00272417 -0.000764603 9.88782e-07
-0.000764603 0.00035067 -4.53619e-06
9.88782e-07 -4.53619e-06 0.000155064
0.00210488 -0.000810101 -4.90459e-06
-0.000810101 0.000423195 6.43174e-06
-4.90459e-06 6.43174e-06 -2.62592e-05
0.00207336 -0.000689394 -4.89187e-07
-0.000689394 0.000172188 1.4956e-06
-4.89187e-07 1.4956e-06 -0.000109185
0.00207819 -0.000518018 5.05446e-07
-0.000518018 5.37504e-05 -5.06923e-07
5.05446e-07 -5.06923e-07 -8.22571e-05
0.00130623 -0.000575703 5.0996e-06
-0.000575703 -7.37568e-05 7.23057e-06
5.0996e-06 7.23057e-06 -0.000399869
0.00192432 -0.000489808 -3.89793e-07
-0.000489808 8.29599e-05 1.97868e-06
-3.89793e-07 1.97868e-06 -0.000114013
0.00196424 -0.000444873 -3.11246e-06
-0.000444873 6.95738e-05 1.1581e-06
-3.11246e-06 1.1581e-06 -6.92369e-05
0.00206659 -0.000424008 -5.08858e-06
-0.000424008 0.000220243 9.46174e-07
-5.08858e-06 9.46174e-07 7.36281e-05
0.00192366 -0.000412643 -2.96117e-06
-0.000412643 0.000125863 3.39388e-06
-2.96117e-06 3.39388e-06 -3.76772e-05
0.00198966 -0.000428952 -3.21054e-06
-0.000428952 0.000205771 -4.24912e-06
-3.21054e-06 -4.24912e-06 2.49955e-05
0.00192932 -0.000514973 -6.40707e-06
-0.000514973 0.000199141 -2.39036e-06
-6.40707e-06 -2.39036e-06 -5.88528e-05
0.00186656 -0.000508132 1.73808e-06
-0.000508132 0.000139919 7.89325e-07
1.73808e-06 7.89325e-07 -0.000112229
0.00179602 -0.000476435 6.42636e-06
-0.000476435 7.95017e-05 7.48757e-06
6.42636e-06 7.48757e-06 -0.000153011
0.00181984 -0.00056205 -7.4178e-06
-0.00056205 0.000314268 -1.18666e-06
-7.4178e-06 -1.18666e-06 -9.85419e-06
0.00162796 -0.000583203 -5.08761e-07
-0.000583203 0.000120927 1.51438e-07
-5.08761e-07 1.51438e-07 -0.000208107
0.00211329 -0.000678036 7.1931e-06
-0.000678036 0.000395443 4.62549e-07
7.1931e-06 4.62549e-07 4.15087e-05
0.00147799 -0.000405402 -9.73354e-06
-0.000405402 0.000346295 4.79216e-06
-9.73354e-06 4.79216e-06 5.84546e-05
0.00161044 -0.000552745 -5.45268e-07
-0.000552745 0.000344472 6.95528e-07
-5.45268e-07 6.95528e-07 -5.98845e-06
0.00186569 -0.000662622 2.50361e-06
-0.000662622 0.000436142 -8.25541e-08
2.50361e-06 -8.25541e-08 5.01571e-05
0.000765948 -0.000218036 -7.41261e-06
-0.000218036 6.34901e-05 5.29913e-06
-7.41261e-06 5.29913e-06 -0.000141891
0.00112148 -0.00032292 7.53992e-07
-0.00032292 0.0001917 -6.90309e-07
7.53992e-07 -6.90309e-07 -6.17767e-05
0.000948616 -0.000395346 8.12159e-07
-0.000395346 5.41718e-05 -2.47532e-07
8.12159e-07 -2.47532e-07 -0.000247906
0.000405668 -0.000105767 -1.91423e-05
-0.000105767 -9.7613e-05 1.48399e-05
-1.91423e-05 1.48399e-05 -0.000181207
0.000672028 -0.000180677 -5.71336e-07
-0.000180677 8.8494e-05 1.135e-06
-5.71336e-07 1.135e-06 -0.000140099
0.000956213 -0.000344141 2.13372e-06
-0.000344141 0.000192621 -2.66944e-07
2.13372e-06 -2.66944e-07 -6.40955e-05
0.0039285 0.000192168 -8.05374e-05
0.000192168 0.00216788 4.98318e-06
-8.05374e-05 4.98318e-06 0.00214744
0.000519071 -4.50242e-05 7.66285e-07
-4.50242e-05 -5.86301e-06 -4.61501e-07
7.66285e-07 -4.61501e-07 -7.46544e-05
0.00162331 -0.000202485 3.88776e-06
-0.000202485 0.000702229 -5.63076e-06
3.88776e-06 -5.63076e-06 0.000492247
0.00227741 0.000122333 4.49561e-05
0.000122333 0.00112284 1.22293e-06
4.49561e-05 1.22293e-06 0.00110462
0.000694684 -1.35709e-05 8.31375e-06
-1.35709e-05 0.00010665 -1.13058e-05
8.31375e-06 -1.13058e-05 5.32418e-05
0.00332847 0.000133106 7.0613e-05
0.000133106 0.00176815 -4.00326e-06
7.0613e-05 -4.00326e-06 0.00176474
0.00132021 0.000279183 5.09384e-06
0.000279183 0.000421592 -1.05798e-06
5.09384e-06 -1.05798e-06 0.000223772
0.000474903 0.000123663 -1.92355e-06
0.000123663 -2.06083e-05 -2.91771e-07
-1.92355e-06 -2.91771e-07 -0.000195406
0.000514001 0.000139703 2.05648e-06
0.000139703 6.32175e-05 -5.89421e-06
2.05648e-06 -5.89421e-06 -0.00013896
0.000544197 0.00012351 -2.3004e-06
0.00012351 9.41548e-05 7.31588e-06
-2.3004e-06 7.31588e-06 -9.18331e-05
0.000609943 8.48935e-05 6.92447e-07
8.48935e-05 0.000126996 1.87446e-07
6.92447e-07 1.87446e-07 -6.06614e-05
0.000860932 8.41792e-05 1.27078e-06
8.41792e-05 0.000222778 -8.60187e-06
1.27078e-06 -8.60187e-06 9.26577e-05
0.000586946 1.80792e-05 -3.80107e-06
1.80792e-05 4.24408e-05 -1.10232e-05
-3.80107e-06 -1.10232e-05 -2.26357e-07
0.000623775 4.12713e-05 3.66463e-07
4.12713e-05 8.88215e-05 -2.6742e-08
3.66463e-07 -2.6742e-08 -2.41221e-05
0.000183273 4.0625e-05 -5.11921e-06
4.0625e-05 -0.000165592 1.95273e-06
-5.11921e-06 1.95273e-06 -0.000313986
0.0028527 -9.98882e-05 -5.63966e-05
-9.98882e-05 0.00145885 -4.50623e-06
-5.63966e-05 -4.50623e-06 0.00146419
0.000440339 6.08382e-06 8.25845e-07
6.08382e-06 -4.96589e-05 -2.4762e-07
8.25845e-07 -2.4762e-07 -8.40364e-05
0.000543853 3.80549e-05 -3.116e-06
3.80549e-05 3.83773e-05 4.40558e-06
-3.116e-06 4.40558e-06 -6.12477e-05
0.00266961 -8.64978e-05 -6.77418e-06
-8.64978e-05 0.00133804 5.34775e-07
-6.77418e-06 5.34775e-07 0.00134544
0.000424846 -1.47163e-05 1.48633e-07
-1.47163e-05 -6.46703e-05 7.07069e-06
1.48633e-07 7.07069e-06 -9.34772e-05
0.00250359 -6.86064e-05 2.89587e-05
-6.86064e-05 0.00122862 4.76335e-06
2.89587e-05 4.76335e-06 0.00123931
0.00065646 0.000165545 -0.000679935
0.000165545 0.00331588 -4.37128e-05
-0.000679935 -4.37128e-05 0.00136681
-0.00552045 0.000174995 3.713e-05
0.000174995 0.00417253 2.10251e-06
3.713e-05 2.10251e-06 -0.00161183
0.00557731 0.000142655 -0.000193386
0.000142655 0.00326116 -5.11138e-05
-0.000193386 -5.11138e-05 0.00151796
0.000218966 4.788e-05 1.46143e-06
4.788e-05 -0.000150314 -6.74546e-06
1.46143e-06 -6.74546e-06 -0.000321154
0.000835063 7.94288e-05 5.87348e-06
7.94288e-05 0.000271181 6.37547e-06
5.87348e-06 6.37547e-06 9.63169e-06
0.00250241 0.00049803 -2.7907e-06
0.00049803 0.00121729 3.9392e-06
-2.7907e-06 3.9392e-06 0.00091517
0.00219012 0.000593186 9.87294e-06
0.000593186 0.000887731 3.50825e-06
9.87294e-06 3.50825e-06 0.000488089
0.00034661 0.000285178 1.21219e-06
0.000285178 1.40148e-05 -2.06991e-06
1.21219e-06 -2.06991e-06 -0.000309548
0.000491411 0.000111327 -5.549e-06
0.000111327 0.000159506 9.28951e-06
-5.549e-06 9.28951e-06 -9.75687e-05
0.000549622 0.000141455 1.02461e-05
0.000141455 0.000118513 1.17409e-05
1.02461e-05 1.17409e-05 -0.000144439
0.000501517 0.000334612 -6.2781e-06
0.000334612 0.000156229 -2.63801e-06
-6.2781e-06 -2.63801e-06 -0.000244166
-0.00037928 0.00043238 6.79053e-06
0.00043238 -0.000685495 -1.18522e-05
6.79053e-06 -1.18522e-05 -0.00098271
0.00229261 0.000718343 -7.30043e-06
0.000718343 0.000823911 2.07312e-05
-7.30043e-06 2.07312e-05 0.000633126
0.001296 0.000777194 2.19228e-05
0.000777194 -4.9327e-05 9.44732e-06
2.19228e-05 9.44732e-06 -0.000188264
0.00138956 0.000563377 -7.17521e-06
0.000563377 0.0004987 -3.53769e-06
-7.17521e-06 -3.53769e-06 0.000282335
0.00190896 0.000289461 -8.36343e-06
0.000289461 0.00102738 3.21916e-05
-8.36343e-06 3.21916e-05 0.000751681
0.013533 0.00211634 -0.000105066
0.00211634 0.00195211 6.64124e-05
-0.000105066 6.64124e-05 0.000617121
0.00137875 -0.00162468 -0.000473435
-0.00162468 0.00339143 -0.000178853
-0.000473435 -0.000178853 0.000631858
-0.000643903 -0.00279211 0.000586046
-0.00279211 0.00503975 0.000163174
0.000586046 0.000163174 7.43028e-05
0.00461716 -0.00254858 0.000238671
-0.00254858 0.00222066 0.000306277
0.000238671 0.000306277 -0.000434183
0.0133765 0.00381002 -9.05816e-05
0.00381002 0.00463806 -4.73592e-05
-9.05816e-05 -4.73592e-05 0.000748766
-0.00291515 0.000183678 -5.24391e-05
0.000183678 -0.000360326 -5.54215e-05
-5.24391e-05 -5.54215e-05 -0.000660056
0.00215893 0.00160162 -4.08582e-05
0.00160162 0.000567394 -1.54287e-05
-4.08582e-05 -1.54287e-05 0.001155
0.0170017 0.00361429 1.91699e-05
0.00361429 0.00430342 3.65404e-05
1.91699e-05 3.65404e-05 0.00201245
0.00618758 0.0030299 -5.01645e-05
0.0030299 0.000100294 -9.52376e-05
-5.01645e-05 -9.52376e-05 0.000275001
0.00172499 0.00107269 1.09413e-05
0.00107269 0.000179529 -3.1084e-06
1.09413e-05 -3.1084e-06 -5.3098e-05
0.00156392 0.000835594 8.45066e-06
0.000835594 0.000399752 -2.63832e-06
8.45066e-06 -2.63832e-06 0.000112061
0.00195258 0.000556741 -2.16393e-05
0.000556741 0.000893318 2.16149e-06
-2.16393e-05 2.16149e-06 0.000719947
0.00282179 0.00141593 -5.86888e-05
0.00141593 0.000857641 -2.37794e-05
-5.86888e-05 -2.37794e-05 0.0001846
0.00158404 0.00159007 5.84437e-05
0.00159007 -0.000650753 3.24277e-05
5.84437e-05 3.24277e-05 -0.000993896
0.001797 -0.000341685 -0.000103452
-0.000341685 -0.00455637 4.82978e-05
-0.000103452 4.82978e-05 -0.00479879
0.00105753 -0.0013804 8.09792e-06
-0.0013804 0.00182764 -8.35769e-06
8.09792e-06 -8.35769e-06 0.0012522
-0.0104195 -0.000195342 0.000269942
-0.000195342 0.00529093 -2.30855e-05
0.000269942 -2.30855e-05 5.88096e-05
7.75796e-05 -0.0014554 -4.79708e-05
-0.0014554 -0.000731868 8.19436e-06
-4.79708e-05 8.19436e-06 -0.00141318
0.00454833 -0.00258315 2.45979e-05
-0.00258315 0.000268047 3.72626e-05
2.45979e-05 3.72626e-05 0.000234894
0.0018351 -0.000131112 0.000728175
-0.000131112 0.00355433 -0.000162896
0.000728175 -0.000162896 0.00181319
0.0133746 -0.00198071 -0.000243211
-0.00198071 0.0016199 0.000117783
-0.000243211 0.000117783 0.000308921
0.00169943 -0.00119361 -3.17358e-05
-0.00119361 -9.24852e-05 -1.0542e-06
-3.17358e-05 -1.0542e-06 -0.000336644
0.0109445 -6.06114e-05 -0.000171326
-6.06114e-05 -0.00045691 5.27716e-05
-0.000171326 5.27716e-05 -0.00138968
0.00674857 -0.00173438 0.000101013
-0.00173438 -0.000155706 1.41486e-05
0.000101013 1.41486e-05 0.000315681
0.00392962 -0.00105958 6.21769e-05
-0.00105958 0.000710234 -3.77902e-05
6.21769e-05 -3.77902e-05 0.000456763
0.00296755 -0.000673812 -3.62183e-05
-0.000673812 -0.00140064 1.56532e-05
-3.62183e-05 1.56532e-05 -0.00050494
-0.00611101 3.19866e-05 7.29691e-06
3.19866e-05 -0.0039725 4.04967e-06
7.29691e-06 4.04967e-06 -0.00391995
0.00159562 -0.000664403 -1.4083e-05
-0.000664403 -0.00014344 1.51992e-06
-1.4083e-05 1.51992e-06 -0.000170086
0.00325505 -0.000671839 3.19153e-05
-0.000671839 0.000533966 -1.17474e-05
3.19153e-05 -1.17474e-05 0.000590177
0.00116221 -0.000725659 -8.38933e-06
-0.000725659 -0.000188579 7.31902e-06
-8.38933e-06 7.31902e-06 -0.000504637
0.00204719 -0.000701002 -3.29966e-06
-0.000701002 -1.81608e-06 2.96907e-06
-3.29966e-06 2.96907e-06 -0.000190667
0.0023136 -0.000570267 4.62932e-06
-0.000570267 6.32512e-06 -1.24481e-06
4.62932e-06 -1.24481e-06 -3.35066e-05
0.00224339 -0.000698966 -4.39197e-06
-0.000698966 0.000269971 9.42797e-06
-4.39197e-06 9.42797e-06 -1.14274e-05
0.00205942 -0.000514326 2.74941e-07
-0.000514326 4.07925e-05 1.42346e-06
2.74941e-07 1.42346e-06 -9.00536e-05
0.00218403 -0.000500692 -9.98724e-07
-0.000500692 9.55898e-05 6.76044e-07
-9.98724e-07 6.76044e-07 1.64354e-05
0.00194442 -0.000483939 3.63195e-06
-0.000483939 9.9622e-05 6.1449e-06
3.63195e-06 6.1449e-06 -9.30505e-05
0.00197555 -0.00044754 -1.03959e-07
-0.00044754 7.29879e-05 1.27249e-06
-1.03959e-07 1.27249e-06 -6.40717e-05
0.00213745 -0.000478078 -2.77991e-06
-0.000478078 0.000169812 1.64016e-06
-2.77991e-06 1.64016e-06 3.85979e-05
0.00200364 -0.000426162 -4.07883e-06
-0.000426162 0.000174287 2.84076e-06
-4.07883e-06 2.84076e-06 2.88313e-05
0.00213655 -0.00043091 -1.47325e-06
-0.00043091 0.000291253 -1.43515e-06
-1.47325e-06 -1.43515e-06 0.000137686
0.00200967 -0.000418536 4.32097e-06
-0.000418536 0.000172324 6.46536e-06
4.32097e-06 6.46536e-06 1.19869e-05
0.00198441 -0.000428718 4.97963e-07
-0.000428718 0.000201159 -6.65389e-07
4.97963e-07 -6.65389e-07 2.03886e-05
0.00188206 -0.000442851 -3.11918e-06
-0.000442851 0.000143918 -3.17891e-06
-3.11918e-06 -3.17891e-06 -5.75851e-05
0.00195295 -0.000491555 -4.86611e-06
-0.000491555 0.000287171 -3.13149e-06
-4.86611e-06 -3.13149e-06 2.28698e-05
0.00199203 -0.000522271 -2.84347e-07
-0.000522271 0.000239635 -8.17757e-08
-2.84347e-07 -8.17757e-08 -2.08554e-05
0.00208563 -0.000524552 7.87032e-06
-0.000524552 0.000278699 3.79595e-06
7.87032e-06 3.79595e-06 2.55868e-05
0.0014204 -0.000432286 -9.53221e-06
-0.000432286 0.000178359 2.19237e-06
-9.53221e-06 2.19237e-06 -0.000113528
0.00173349 -0.000550326 -1.49289e-06
-0.000550326 0.000265872 -1.6743e-07
-1.49289e-06 -1.6743e-07 -5.75268e-05
0.00164665 -0.000589744 5.59749e-06
-0.000589744 0.000120199 1.2934e-06
5.59749e-06 1.2934e-06 -0.000211401
0.000744616 -0.000221618 -9.90989e-06
-0.000221618 -4.04165e-06 6.92558e-06
-9.90989e-06 6.92558e-06 -0.000208271
0.00122006 -0.000386011 1.69959e-06
-0.000386011 0.000181317 4.36827e-07
1.69959e-06 4.36827e-07 -0.000103802
0.00167772 -0.000554929 3.9791e-06
-0.000554929 0.000391746 8.54828e-07
3.9791e-06 8.54828e-07 4.23009e-05
0.000512439 -0.000169608 -2.2036e-05
-0.000169608 -5.12745e-05 1.80527e-05
-2.2036e-05 1.80527e-05 -0.000158399
0.000702229 -0.000219738 -5.54168e-07
-0.000219738 3.18128e-05 4.9976e-07
-5.54168e-07 4.9976e-07 -0.000177111
0.000715259 -0.000282418 4.52627e-06
-0.000282418 -6.73536e-05 -2.00938e-06
4.52627e-06 -2.00938e-06 -0.000313944
0.00478003 0.000195576 -0.000121582
0.000195576 0.00270446 8.53546e-06
-0.000121582 8.53546e-06 0.00268189
0.000546787 -0.000120502 -1.11577e-06
-0.000120502 -7.60837e-06 -8.94736e-07
-1.11577e-06 -8.94736e-07 -9.917e-05
0.00112598 -0.000213061 4.97269e-06
-0.000213061 0.000374372 -3.90448e-06
4.97269e-06 -3.90448e-06 0.00013893
0.00419941 0.000170008 1.84988e-05
0.000170008 0.00233287 5.80215e-07
1.84988e-05 5.80215e-07 0.00231848
0.000653321 -6.28853e-05 1.53595e-05
-6.28853e-05 7.07723e-05 -1.35453e-05
1.53595e-05 -1.35453e-05 -2.81578e-06
0.00371918 0.000134977 0.000102694
0.000134977 0.00201703 -5.11553e-06
0.000102694 -5.11553e-06 0.0020136
0.00143495 0.000425166 2.97792e-06
0.000425166 0.000429754 -4.61555e-06
2.97792e-06 -4.61555e-06 0.000115951
0.000955593 0.000250815 1.0557e-06
0.000250815 0.000200358 -2.2279e-06
1.0557e-06 -2.2279e-06 3.19697e-06
0.000104251 0.000127864 4.30198e-06
0.000127864 -0.000256299 1.82765e-06
4.30198e-06 1.82765e-06 -0.000448363
-0.000819781 2.19062e-05 -2.70673e-06
2.19062e-05 -0.000796903 -5.27526e-07
-2.70673e-06 -5.27526e-07 -0.000967718
0.000346598 8.88853e-05 -1.97843e-07
8.88853e-05 -6.1666e-05 1.84055e-06
-1.97843e-07 1.84055e-06 -0.000250965
0.000855748 8.99452e-05 5.73557e-07
8.99452e-05 0.000219454 -8.66371e-06
5.73557e-07 -8.66371e-06 6.28722e-05
0.000335592 5.15533e-05 -2.63447e-06
5.15533e-05 -6.02059e-05 3.9562e-06
-2.63447e-06 3.9562e-06 -0.000233573
0.000554891 6.73899e-05 -1.65894e-07
6.73899e-05 4.10293e-05 -1.27772e-08
-1.65894e-07 -1.27772e-08 -8.67072e-05
0.000564558 2.09488e-05 -5.21161e-06
2.09488e-05 2.78054e-05 -1.3875e-05
-5.21161e-06 -1.3875e-05 -2.50596e-05
0.00310304 -0.000110211 -7.6877e-05
-0.000110211 0.00162339 -5.49684e-06
-7.6877e-05 -5.49684e-06 0.00162615
0.000444799 5.04263e-06 1.17503e-06
5.04263e-06 -4.13496e-05 -3.49052e-07
1.17503e-06 -3.49052e-07 -8.45075e-05
0.000562484 3.57116e-05 -3.40023e-06
3.57116e-05 5.63382e-05 6.37833e-06
-3.40023e-06 6.37833e-06 -5.7166e-05
0.00283582 -0.000104944 -7.56017e-06
-0.000104944 0.00144925 6.5521e-07
-7.56017e-06 6.5521e-07 0.00145281
0.000358393 -4.59897e-05 -5.13865e-06
-4.59897e-05 -9.44276e-05 8.3787e-06
-5.13865e-06 8.3787e-06 -0.000131622
0.00266774 -8.72084e-05 3.6016e-05
-8.72084e-05 0.00133644 4.74034e-06
3.6016e-05 4.74034e-06 0.00134349
0.0142205 0.000542019 0.000422694
0.000542019 0.00219174 0.000103891
0.000422694 0.000103891 0.00165467
-0.00175036 -0.00237559 -0.000405999
-0.00237559 -0.00264848 -7.08955e-05
-0.000405999 -7.08955e-05 -0.00428034
-0.00900041 0.00125538 -0.00017261
0.00125538 0.0034575 -0.000115706
-0.00017261 -0.000115706 -0.00275872
8.70032e-05 1.50128e-05 1.8129e-05
1.50128e-05 -0.000175496 -7.46765e-07
1.8129e-05 -7.46765e-07 -0.000460267
0.00170187 0.000390267 -1.12596e-05
0.000390267 0.000743088 3.92247e-07
-1.12596e-05 3.92247e-07 0.000469992
0.00189907 0.000461245 -8.66077e-06
0.000461245 0.000914925 -2.4075e-06
-8.66077e-06 -2.4075e-06 0.000551573
0.00156468 0.000522663 1.32116e-06
0.000522663 0.000518368 -2.82368e-07
1.32116e-06 -2.82368e-07 0.000138764
0.001325 0.000550321 9.71216e-06
0.000550321 0.000209257 1.64319e-05
9.71216e-06 1.64319e-05 -0.000158254
-0.000690951 0.000342424 1.71156e-05
0.000342424 -0.000866019 2.56913e-06
1.71156e-05 2.56913e-06 -0.00116587
-0.00033951 0.000246994 -8.55611e-06
0.000246994 -0.000260391 1.17911e-05
-8.55611e-06 1.17911e-05 -0.000699814
-7.05842e-07 0.00047192 1.04171e-05
0.00047192 -0.000483589 -4.49554e-07
1.04171e-05 -4.49554e-07 -0.000800259
0.00222014 0.000698418 2.90909e-06
0.000698418 0.000839162 6.27064e-06
2.90909e-06 6.27064e-06 0.000598738
-0.000477959 0.000463015 4.44494e-06
0.000463015 -0.000877581 -5.25564e-07
4.44494e-06 -5.25564e-07 -0.00109827
0.00315819 0.000893902 6.22508e-07
0.000893902 0.000939639 1.3553e-05
6.22508e-07 1.3553e-05 0.000794634
0.00137564 0.000796047 1.66125e-05
0.000796047 1.72089e-05 8.17697e-06
1.66125e-05 8.17697e-06 -0.000240808
0.000723981 0.000703622 3.0663e-06
0.000703622 -0.00038479 -3.30026e-07
3.0663e-06 -3.30026e-07 -0.000469911
0.000625582 0.00046085 5.32751e-06
0.00046085 6.73199e-05 -3.82039e-05
5.32751e-06 -3.82039e-05 -0.000135586
0.00544299 0.00147277 1.71572e-05
0.00147277 -0.000906905 1.88935e-05
1.71572e-05 1.88935e-05 0.000243118
0.0132386 0.00232779 0.000241382
0.00232779 0.00135557 0.000124966
0.000241382 0.000124966 -0.000270506
0.0105603 -0.00347868 0.000404999
-0.00347868 0.00501705 -4.37098e-05
0.000404999 -4.37098e-05 0.00247622
0.00516528 0.00387193 0.000470282
0.00387193 -0.000861832 0.000276537
0.000470282 0.000276537 -0.00496603
0.000170101 0.00106246 -5.04181e-05
0.00106246 8.65017e-05 -2.25952e-06
-5.04181e-05 -2.25952e-06 0.0006358
0.00383385 0.00222073 -0.000111927
0.00222073 -0.000434732 -4.94547e-05
-0.000111927 -4.94547e-05 2.26707e-05
0.00572874 0.00189533 7.547e-05
0.00189533 0.00115361 2.65906e-05
7.547e-05 2.65906e-05 0.000916392
0.00394717 0.00136625 1.68539e-05
0.00136625 0.00115954 6.92225e-06
1.68539e-05 6.92225e-06 0.00087833
-0.000154642 0.000613023 -2.37318e-05
0.000613023 -0.000474293 9.6026e-06
-2.37318e-05 9.6026e-06 -0.000711033
0.00603559 0.00209994 -0.000169539
0.00209994 0.00139867 -2.0608e-05
-0.000169539 -2.0608e-05 0.000951403
0.00296806 -0.000431424 1.42639e-05
-0.000431424 -0.000137788 6.17858e-06
1.42639e-05 6.17858e-06 0.000223823
0.0111105 -0.000502395 -3.54985e-05
-0.000502395 0.00162462 -1.46806e-06
-3.54985e-05 -1.46806e-06 0.00136054
-0.0120946 -0.00217908 0.00063889
-0.00217908 -0.00560188 5.09202e-06
0.00063889 5.09202e-06 -0.00600799
0.00014127 -0.000978323 -9.22521e-05
-0.000978323 -0.000794323 2.36883e-05
-9.22521e-05 2.36883e-05 -0.00101405
0.00880286 -0.00219718 3.44092e-05
-0.00219718 0.000356611 8.85849e-05
3.44092e-05 8.85849e-05 0.00114125
0.00101255 -0.000283532 -0.000239885
-0.000283532 -0.00412217 3.54303e-05
-0.000239885 3.54303e-05 -0.00602131
0.00235159 -0.00085469 2.46702e-05
-0.00085469 -0.000195264 1.39164e-06
2.46702e-05 1.39164e-06 -0.000157643
0.00470656 -0.000572878 -3.99468e-05
-0.000572878 -0.000354575 -5.14836e-06
-3.99468e-05 -5.14836e-06 0.000229611
0.00544472 -0.000761397 3.54935e-05
-0.000761397 0.00124532 -2.89427e-05
3.54935e-05 -2.89427e-05 0.00151857
0.00524766 -0.000359188 9.39492e-05
-0.000359188 0.00135005 4.175e-06
9.39492e-05 4.175e-06 0.00140744
-0.00316513 -0.000315454 3.38586e-06
-0.000315454 -0.00284832 7.56696e-06
3.38586e-06 7.56696e-06 -0.00262539
0.00199097 -0.000589999 -4.62838e-06
-0.000589999 -0.000199264 1.00466e-06
-4.62838e-06 1.00466e-06 -6.21175e-05
0.00220582 -0.000444411 2.16035e-05
-0.000444411 -0.000221904 -5.38331e-06
2.16035e-05 -5.38331e-06 1.79435e-05
0.0017311 -0.000675034 -4.06999e-07
-0.000675034 -0.000170995 7.06173e-06
-4.06999e-07 7.06173e-06 -0.000360341
0.00225131 -0.000567228 1.51396e-06
-0.000567228 -2.3856e-05 1.34656e-06
1.51396e-06 1.34656e-06 -6.55602e-05
0.00226486 -0.000492163 1.45877e-06
-0.000492163 1.85149e-05 -6.40704e-07
1.45877e-06 -6.40704e-07 1.90815e-05
0.00206004 -0.000513462 1.68998e-06
-0.000513462 3.78005e-05 4.12008e-06
1.68998e-06 4.12008e-06 -8.93922e-05
0.00212152 -0.000490688 4.07112e-07
-0.000490688 7.12914e-05 4.30573e-07
4.07112e-07 4.30573e-07 -8.26726e-06
0.00211767 -0.000439467 -2.83126e-06
-0.000439467 5.95456e-05 2.88699e-07
-2.83126e-06 2.88699e-07 -9.7425e-06
0.00198862 -0.000450336 4.05566e-06
-0.000450336 7.71473e-05 1.9052e-06
4.05566e-06 1.9052e-06 -5.87723e-05
0.00204083 -0.000468824 -1.5622e-07
-0.000468824 0.00013062 1.39416e-07
-1.5622e-07 1.39416e-07 5.46301e-07
0.00198997 -0.000427716 -2.28676e-07
-0.000427716 0.000134708 4.67126e-07
-2.28676e-07 4.67126e-07 2.15715e-06
0.0019473 -0.000428544 5.76612e-07
-0.000428544 0.000132866 2.84407e-06
5.76612e-07 2.84407e-06 -1.15629e-05
0.00204532 -0.000420589 -2.01853e-06
-0.000420589 0.000229793 2.69979e-07
-2.01853e-06 2.69979e-07 8.01176e-05
0.0020748 -0.000424956 -1.1272e-06
-0.000424956 0.000255753 -1.32301e-06
-1.1272e-06 -1.32301e-06 8.57597e-05
0.00197975 -0.00042764 4.92655e-06
-0.00042764 0.000197311 3.13367e-06
4.92655e-06 3.13367e-06 1.68158e-05
0.0019383 -0.00044782 -6.11295e-08
-0.00044782 0.000178965 -3.04591e-07
-6.11295e-08 -3.04591e-07 -2.3985e-05
0.00196915 -0.000436795 -1.52153e-06
-0.000436795 0.000254891 -2.43603e-06
-1.52153e-06 -2.43603e-06 3.42613e-05
0.00158848 -0.000412846 -8.73314e-06
-0.000412846 0.000178109 3.66561e-07
-8.73314e-06 3.66561e-07 -8.29752e-05
0.00189196 -0.000491439 -8.49439e-07
-0.000491439 0.000249668 -8.92207e-07
-8.49439e-07 -8.92207e-07 -1.91004e-05
0.00205352 -0.000529818 5.22151e-06
-0.000529818 0.000279934 2.0317e-06
5.22151e-06 2.0317e-06 1.68324e-05
0.000838427 -0.000238843 -1.27541e-05
-0.000238843 -2.3259e-05 7.79246e-06
-1.27541e-05 7.79246e-06 -0.000229678
0.00145082 -0.000430978 -2.08026e-07
-0.000430978 0.000202006 5.5125e-07
-2.08026e-07 5.5125e-07 -8.80938e-05
0.0016423 -0.000538367 3.39051e-06
-0.000538367 0.000214166 1.08337e-06
3.39051e-06 1.08337e-06 -0.000108496
0.000408891 -0.000180328 -2.08955e-05
-0.000180328 -0.000132855 1.8184e-05
-2.08955e-05 1.8184e-05 -0.000248003
0.000785822 -0.00022752 4.74003e-07
-0.00022752 1.93805e-05 8.40302e-08
4.74003e-07 8.40302e-08 -0.000187663
0.000978404 -0.000367024 1.00376e-05
-0.000367024 2.80511e-05 -2.40452e-06
1.00376e-05 -2.40452e-06 -0.000254162
0.00580559 0.000128996 -0.000193021
0.000128996 0.00330908 1.13526e-05
-0.000193021 1.13526e-05 0.0033017
0.000451507 -0.00017672 -1.95817e-07
-0.00017672 -8.85132e-05 1.14099e-07
-1.95817e-07 1.14099e-07 -0.000196731
0.000624519 -0.000222502 9.10796e-06
-0.000222502 -9.44927e-06 -6.01432e-06
9.10796e-06 -6.01432e-06 -0.000221087
0.00512812 0.000132621 3.13776e-06
0.000132621 0.00290155 -7.14546e-07
3.13776e-06 -7.14546e-07 0.00289305
0.000441273 -0.000125917 1.80113e-05
-0.000125917 -6.88219e-05 -1.61753e-05
1.80113e-05 -1.61753e-05 -0.000165116
0.00444143 0.000112339 0.000157082
0.000112339 0.00247234 -1.21416e-05
0.000157082 -1.21416e-05 0.00247039
0.0011275 0.000457303 -4.0758e-06
0.000457303 0.000124724 1.31184e-06
-4.0758e-06 1.31184e-06 -0.000205074
0.00170706 0.000450633 -7.38895e-07
0.000450633 0.000593963 -1.51376e-06
-7.38895e-07 -1.51376e-06 0.000279105
0.000780029 0.000268149 -1.53956e-06
0.000268149 3.07101e-05 -2.47322e-06
-1.53956e-06 -2.47322e-06 -0.000210844
0.00067651 0.000239826 -6.37451e-06
0.000239826 5.29408e-05 -3.34735e-06
-6.37451e-06 -3.34735e-06 -0.000152316
-5.70939e-05 0.000127453 1.52135e-06
0.000127453 -0.000355632 -6.57886e-07
1.52135e-06 -6.57886e-07 -0.000552614
0.00120107 0.000237604 -2.58201e-06
0.000237604 0.000448759 -4.86482e-06
-2.58201e-06 -4.86482e-06 0.000240758
-8.95207e-05 4.69417e-05 -1.76138e-06
4.69417e-05 -0.000343196 2.2898e-06
-1.76138e-06 2.2898e-06 -0.000523351
0.000736963 0.000100915 3.45276e-07
0.000100915 0.000153409 -1.89598e-07
3.45276e-07 -1.89598e-07 -4.67229e-06
0.000638265 4.62997e-05 -1.02805e-05
4.62997e-05 6.98678e-05 -1.56858e-05
-1.02805e-05 -1.56858e-05 4.76872e-06
0.000596 4.32083e-05 -2.50648e-06
4.32083e-05 7.57815e-05 9.58992e-06
-2.50648e-06 9.58992e-06 -5.35909e-05
0.000529797 2.64893e-05 2.22552e-07
2.64893e-05 1.00995e-05 -1.87182e-07
2.22552e-07 -1.87182e-07 -4.22727e-05
0.00360261 -0.000126952 -0.000101014
-0.000126952 0.00194662 -6.65054e-06
-0.000101014 -6.65054e-06 0.00194447
0.0031052 -0.000123811 -8.70191e-06
-0.000123811 0.00162693 8.02787e-07
-8.70191e-06 8.02787e-07 0.0016259
0.000350761 2.79009e-05 4.44512e-06
2.79009e-05 -9.82488e-05 1.08279e-05
4.44512e-06 1.08279e-05 -0.000140131
0.00277589 -0.000104393 4.40177e-05
-0.000104393 0.0014119 4.56762e-06
4.40177e-05 4.56762e-06 0.00141526
0.00403652 0.000139343 8.44067e-05
0.000139343 -0.00102512 2.47393e-05
8.44067e-05 2.47393e-05 0.000195039
0.00456646 -0.000892188 0.000144929
-0.000892188 -0.00388503 6.92024e-05
0.000144929 6.92024e-05 -0.00492849
0.0114329 -0.00254387 -0.000189876
-0.00254387 0.00434826 -8.59123e-05
-0.000189876 -8.59123e-05 0.00367573
0.00130006 0.000545261 9.23062e-06
0.000545261 1.08835e-05 8.13077e-06
9.23062e-06 8.13077e-06 -0.000306324
0.00397291 0.000684733 -7.98947e-06
0.000684733 0.00212623 4.73162e-06
-7.98947e-06 4.73162e-06 0.0017229
0.000998734 0.000458689 -3.36414e-06
0.000458689 0.000186241 -4.65023e-06
-3.36414e-06 -4.65023e-06 -0.000175639
0.00131669 0.000572971 2.42703e-06
0.000572971 0.000334313 2.99437e-07
2.42703e-06 2.99437e-07 -1.55683e-05
0.00149558 0.00056854 -1.76223e-06
0.00056854 0.000328355 3.71271e-06
-1.76223e-06 3.71271e-06 -4.8802e-05
0.00157135 0.000660341 1.96527e-05
0.000660341 0.000312303 1.46064e-05
1.96527e-05 1.46064e-05 -1.63398e-05
0.00208258 0.000688826 -2.78539e-05
0.000688826 0.000754219 -6.89805e-07
-2.78539e-05 -6.89805e-07 0.000372529
0.000748316 0.000562383 2.01918e-05
0.000562383 3.27379e-05 -2.66861e-05
2.01918e-05 -2.66861e-05 -0.000212237
0.00143792 0.000689108 2.13577e-06
0.000689108 0.00020564 -2.67498e-06
2.13577e-06 -2.67498e-06 -5.7626e-05
0.00174267 0.000760139 6.60705e-06
0.000760139 8.3226e-05 1.33369e-06
6.60705e-06 1.33369e-06 5.21723e-05
0.00184624 0.000789116 1.31266e-05
0.000789116 0.000149006 -1.1329e-07
1.31266e-05 -1.1329e-07 -0.00011736
0.0016645 0.000705056 2.34403e-05
0.000705056 0.000127803 1.73351e-05
2.34403e-05 1.73351e-05 -5.36104e-05
0.000885591 0.000747774 -5.12847e-06
0.000747774 -0.000246596 -5.05899e-06
-5.12847e-06 -5.05899e-06 -0.00048873
0.000733033 0.000694342 -9.46679e-06
0.000694342 -0.00036974 -2.27787e-05
-9.46679e-06 -2.27787e-05 -0.00043799
0.00112188 0.000680019 4.67814e-05
0.000680019 -0.000991021 3.56584e-05
4.67814e-05 3.56584e-05 -0.000741659
0.0060088 0.00152512 -8.67654e-05
0.00152512 -0.000954435 -2.54865e-05
-8.67654e-05 -2.54865e-05 0.000213456
0.00391953 0.00151478 0.000490743
0.00151478 -0.0037906 8.3335e-05
0.000490743 8.3335e-05 -0.00562752
0.00121457 0.00168287 -0.000130572
0.00168287 -0.00114656 -4.84694e-05
-0.000130572 -4.84694e-05 -0.000639271
0.00420983 0.00153535 -3.07198e-05
0.00153535 0.000751831 -8.81479e-06
-3.07198e-05 -8.81479e-06 0.000581049
0.00443741 0.00142732 -0.000130656
0.00142732 0.0013401 -3.53845e-05
-0.000130656 -3.53845e-05 0.00104439
0.00263424 -0.000265835 -5.71747e-05
-0.000265835 -0.000401597 -2.20334e-05
-5.71747e-05 -2.20334e-05 -0.000121603
-8.09457e-05 -0.00024063 6.59344e-05
-0.00024063 -0.000734781 1.43483e-05
6.59344e-05 1.43483e-05 -0.000151309
0.00239733 0.000844775 0.000178815
0.000844775 -0.00472198 -8.54228e-06
0.000178815 -8.54228e-06 -0.00491696
-6.3216e-05 -0.000637822 -3.92219e-05
-0.000637822 -0.00145263 6.43457e-05
-3.92219e-05 6.43457e-05 -0.00122456
0.00626269 -0.000628365 -0.000137822
-0.000628365 0.000558821 4.05512e-05
-0.000137822 4.05512e-05 0.000696615
0.00243668 -0.000553432 -1.83384e-05
-0.000553432 -0.00035673 1.13901e-05
-1.83384e-05 1.13901e-05 -2.84973e-05
0.00415559 -0.000378063 -5.3847e-06
-0.000378063 0.000664757 -2.95368e-06
-5.3847e-06 -2.95368e-06 0.000733125
0.00255299 -0.000327902 5.37691e-05
-0.000327902 -0.000122326 -6.79086e-06
5.37691e-05 -6.79086e-06 0.000194005
0.00357448 -9.76361e-05 3.92151e-05
-9.76361e-05 0.00106883 -1.01313e-06
3.92151e-05 -1.01313e-06 0.00105373
0.000724797 -0.000493138 -2.4869e-05
-0.000493138 -0.000902935 1.06545e-05
-2.4869e-05 1.06545e-05 -0.000694007
0.00206996 -0.000459163 -1.64742e-06
-0.000459163 -0.000329722 1.82183e-06
-1.64742e-06 1.82183e-06 -9.40344e-05
0.0023399 -0.000402331 4.44848e-06
-0.000402331 -0.000150281 -1.85831e-06
4.44848e-06 -1.85831e-06 4.04819e-05
0.00217632 -0.000558601 -1.86822e-06
-0.000558601 -5.54063e-05 3.64569e-06
-1.86822e-06 3.64569e-06 -9.66818e-05
0.00225748 -0.000485488 1.25946e-07
-0.000485488 2.66964e-05 -2.20235e-07
1.25946e-07 -2.20235e-07 2.90875e-05
0.00219701 -0.000389917 -8.65437e-07
-0.000389917 3.59866e-06 -6.42441e-07
-8.65437e-07 -6.42441e-07 3.22992e-06
0.00205463 -0.000479399 5.52514e-07
-0.000479399 4.51383e-05 7.65217e-07
5.52514e-07 7.65217e-07 -3.34376e-05
0.00211307 -0.000445982 -8.77328e-07
-0.000445982 6.59264e-05 1.54585e-07
-8.77328e-07 1.54585e-07 -5.1126e-06
0.00202777 -0.000383209 -1.97328e-06
-0.000383209 8.37758e-05 9.25799e-07
-1.97328e-06 9.25799e-07 -9.0443e-06
0.001957 -0.000460198 1.24072e-06
-0.000460198 9.92368e-05 -8.06278e-07
1.24072e-06 -8.06278e-07 -2.95036e-05
0.00194015 -0.000425403 1.10662e-06
-0.000425403 0.000100531 -5.42316e-07
1.10662e-06 -5.42316e-07 -3.26055e-05
0.00195269 -0.000396786 -3.80006e-10
-0.000396786 0.000135447 -1.09234e-06
-3.80006e-10 -1.09234e-06 -8.35563e-06
0.00195453 -0.000410285 -1.76449e-06
-0.000410285 0.000169036 2.50638e-06
-1.76449e-06 2.50638e-06 2.32495e-05
0.00209714 -0.000423953 -1.87527e-06
-0.000423953 0.000263323 6.54093e-07
-1.87527e-06 6.54093e-07 9.71974e-05
0.00206373 -0.000413118 -1.18585e-06
-0.000413118 0.000277675 -1.88953e-06
-1.18585e-06 -1.88953e-06 8.58392e-05
0.00199384 -0.000453181 3.13907e-06
-0.000453181 0.000213297 2.5583e-06
3.13907e-06 2.5583e-06 8.78156e-06
0.00198304 -0.0004398 5.48298e-07
-0.0004398 0.000263817 -5.20712e-07
5.48298e-07 -5.20712e-07 4.2968e-05
0.00170011 -0.000371872 -6.59277e-06
-0.000371872 0.000200851 7.09185e-07
-6.59277e-06 7.09185e-07 -2.99062e-05
0.000927288 -0.000242504 -1.38246e-05
-0.000242504 -3.29789e-05 7.25264e-06
-1.38246e-05 7.25264e-06 -0.000234963
0.00156099 -0.000408117 -1.07203e-06
-0.000408117 0.000169277 -2.52454e-07
-1.07203e-06 -2.52454e-07 -9.26253e-05
0.0018291 -0.000491308 3.073e-06
-0.000491308 0.00021058 8.5578e-07
3.073e-06 8.5578e-07 -6.26814e-05
0.000419148 -0.000220123 -2.21947e-05
-0.000220123 -0.000130954 1.87083e-05
-2.21947e-05 1.87083e-05 -0.000262286
0.000857434 -0.000244569 7.72264e-07
-0.000244569 -1.77068e-05 9.68988e-08
7.72264e-07 9.68988e-08 -0.000226386
0.00148234 -0.000430514 8.78696e-06
-0.000430514 0.000224842 -1.20067e-06
8.78696e-06 -1.20067e-06 -6.37307e-05
0.006442 8.36956e-05 -0.00023856
8.36956e-05 0.00368182 1.52508e-05
-0.00023856 1.52508e-05 0.00368173
0.000461978 -0.000224615 -1.12557e-06
-0.000224615 -9.41814e-05 4.57482e-07
-1.12557e-06 4.57482e-07 -0.000218565
0.000778954 -0.000233294 1.15408e-05
-0.000233294 1.31675e-05 -7.2218e-06
1.15408e-05 -7.2218e-06 -0.000197214
0.00604721 0.000110887 -5.57042e-06
0.000110887 0.0034614 -5.12163e-07
-5.57042e-06 -5.12163e-07 0.00345358
0.000509061 -0.000203222 2.36879e-05
-0.000203222 -5.145e-05 -1.81188e-05
2.36879e-05 -1.81188e-05 -0.000164017
0.00549763 0.000126089 0.000196751
0.000126089 0.00314072 -2.01625e-05
0.000196751 -2.01625e-05 0.00312791
0.0014622 0.000502724 -5.85757e-07
0.000502724 0.000174546 4.50234e-06
-5.85757e-07 4.50234e-06 -0.000144838
0.00158932 0.000511095 -3.1346e-06
0.000511095 0.000402759 -2.74665e-07
-3.1346e-06 -2.74665e-07 5.89969e-05
0.0011173 0.000358119 -6.34417e-06
0.000358119 0.000130046 -1.74266e-07
-6.34417e-06 -1.74266e-07 -0.000140058
0.00216043 0.000496016 4.53572e-07
0.000496016 0.000867758 2.26047e-06
4.53572e-07 2.26047e-06 0.000547748
0.000928747 0.000278754 -3.0314e-06
0.000278754 0.000129646 -1.86282e-06
-3.0314e-06 -1.86282e-06 -0.000112834
0.00119782 0.000230725 -7.72582e-06
0.000230725 0.00039118 -1.82625e-06
-7.72582e-06 -1.82625e-06 0.000176137
-0.000221727 0.000107722 -3.40912e-06
0.000107722 -0.000471159 -2.18221e-06
-3.40912e-06 -2.18221e-06 -0.000666539
0.000749297 0.000134233 -9.09826e-07
0.000134233 0.00015651 -5.77406e-07
-9.09826e-07 -5.77406e-07 -3.68437e-05
0.00063916 8.4437e-05 -1.74412e-05
8.4437e-05 5.61641e-05 -1.675e-05
-1.74412e-05 -1.675e-05 -2.32392e-05
0.000354964 7.27915e-05 1.9185e-07
7.27915e-05 -9.07807e-05 8.79873e-06
1.9185e-07 8.79873e-06 -0.000236019
0.000459431 4.09163e-05 -5.72128e-07
4.09163e-05 -3.67796e-05 -4.66273e-07
-5.72128e-07 -4.66273e-07 -9.87555e-05
0.0040959 -0.000143061 -0.000122525
-0.000143061 0.00226586 -9.00125e-06
-0.000122525 -9.00125e-06 0.00225749
0.00029497 3.13528e-05 5.69783e-06
3.13528e-05 -0.000131116 1.35716e-05
5.69783e-06 1.35716e-05 -0.00018263
0.00348018 -0.000141703 -8.76348e-06
-0.000141703 0.0018725 8.69591e-07
-8.76348e-06 8.69591e-07 0.00186631
0.00302743 -0.000127233 5.28494e-05
-0.000127233 0.00157896 4.60418e-06
5.28494e-05 4.60418e-06 0.00157659
0.000441411 0.00011805 3.11161e-06
0.00011805 -0.00165619 1.278e-05
3.11161e-06 1.278e-05 -0.00111148
0.00519774 1.40995e-05 6.50906e-05
1.40995e-05 -0.000333077 1.43195e-05
6.50906e-05 1.43195e-05 0.000733694
0.0132723 0.000796247 -4.15273e-05
0.000796247 0.00247924 5.30161e-06
-4.15273e-05 5.30161e-06 0.00201307
0.00190943 0.000675507 1.41792e-06
0.000675507 0.00034727 4.90904e-06
1.41792e-06 4.90904e-06 3.17787e-05
0.00208774 0.000657346 -2.83351e-07
0.000657346 0.000299998 3.25151e-06
-2.83351e-07 3.25151e-06 9.45308e-06
0.00143126 0.0005627 -2.25058e-07
0.0005627 0.000103007 -3.35458e-06
-2.25058e-07 -3.35458e-06 -0.00021423
0.00267844 0.000732664 -5.50333e-06
0.000732664 0.00113838 5.4867e-06
-5.50333e-06 5.4867e-06 0.000757518
0.00172127 0.000590379 -5.50518e-06
0.000590379 0.000485729 -8.69907e-06
-5.50518e-06 -8.69907e-06 9.74521e-05
0.00189779 0.000705481 6.68862e-06
0.000705481 0.000466869 3.02893e-06
6.68862e-06 3.02893e-06 0.000140142
0.00174782 0.000723716 -2.68309e-06
0.000723716 5.03058e-05 -3.04748e-06
-2.68309e-06 -3.04748e-06 -0.000222182
0.00259423 0.000829711 -1.57272e-05
0.000829711 0.000824373 4.25748e-06
-1.57272e-05 4.25748e-06 0.000532551
0.00120941 0.000703092 -1.3959e-06
0.000703092 -0.000266092 8.65766e-06
-1.3959e-06 8.65766e-06 -0.000222074
0.00265392 0.000872838 -1.12184e-06
0.000872838 0.000608119 2.40328e-06
-1.12184e-06 2.40328e-06 0.000323327
0.00264935 0.000761361 -4.9423e-06
0.000761361 0.000431018 3.59313e-06
-4.9423e-06 3.59313e-06 0.000208018
0.00110647 0.000373068 3.1376e-05
0.000373068 -0.000353032 1.80787e-05
3.1376e-05 1.80787e-05 -0.000333979
0.000663697 0.000613787 9.88659e-06
0.000613787 -0.000387473 -2.55198e-06
9.88659e-06 -2.55198e-06 -0.000559758
0.00113008 0.000771005 -3.12345e-05
0.000771005 -0.000121241 -8.41697e-06
-3.12345e-05 -8.41697e-06 -0.000368788
0.0028468 0.000802084 2.74458e-06
0.000802084 -7.99323e-05 8.1069e-06
2.74458e-06 8.1069e-06 6.55099e-05
0.00632607 0.00110415 -1.46098e-05
0.00110415 -0.000738704 -3.57204e-05
-1.46098e-05 -3.57204e-05 5.58796e-05
0.00388795 0.00128292 -3.33044e-05
0.00128292 0.00094779 -4.65412e-05
-3.33044e-05 -4.65412e-05 0.000843377
0.00130226 -6.20723e-05 2.83297e-05
-6.20723e-05 -0.000399277 2.18866e-06
2.83297e-05 2.18866e-06 -0.000287708
0.00239374 -0.000214309 -4.84882e-05
-0.000214309 -0.000437868 2.97151e-06
-4.84882e-05 2.97151e-06 -0.000208591
0.0027182 0.000306863 1.86125e-05
0.000306863 -0.000559851 -6.9871e-06
1.86125e-05 -6.9871e-06 -0.000184497
0.000612468 -0.000445035 -5.55408e-05
-0.000445035 -0.00129655 4.52354e-05
-5.55408e-05 4.52354e-05 -0.00095685
0.00288332 -0.000437082 -9.5796e-05
-0.000437082 -8.94805e-05 -4.79863e-06
-9.5796e-05 -4.79863e-06 -2.8901e-05
0.00251456 -0.000335814 7.64487e-06
-0.000335814 -5.52136e-05 -3.6912e-06
7.64487e-06 -3.6912e-06 0.000245768
0.002486 -9.45402e-05 -1.28999e-05
-9.45402e-05 0.000360997 4.49416e-07
-1.28999e-05 4.49416e-07 0.000361646
0.00230948 -0.000229634 1.15044e-05
-0.000229634 -4.2831e-05 -3.04813e-07
1.15044e-05 -3.04813e-07 5.92802e-05
0.00228662 -3.40733e-06 8.68006e-06
-3.40733e-06 -1.14146e-05 1.49701e-06
8.68006e-06 1.49701e-06 2.06556e-05
0.00192671 -0.00047925 -1.5006e-05
-0.00047925 -0.000455738 4.97503e-06
-1.5006e-05 4.97503e-06 -0.000220348
0.00234649 -0.00041293 -2.58196e-06
-0.00041293 -0.000136606 5.74877e-07
-2.58196e-06 5.74877e-07 2.04247e-05
0.00227332 -0.000289759 8.18344e-07
-0.000289759 -6.20944e-05 -1.32412e-06
8.18344e-07 -1.32412e-06 5.85976e-06
0.00224373 -0.00047984 -3.31792e-06
-0.00047984 2.87676e-05 1.08013e-06
-3.31792e-06 1.08013e-06 3.19244e-05
0.00219664 -0.000386983 -1.31997e-07
-0.000386983 1.56823e-05 -1.64222e-08
-1.31997e-07 -1.64222e-08 1.07199e-05
0.00209769 -0.000325196 -1.08812e-06
-0.000325196 2.16079e-05 2.32707e-07
-1.08812e-06 2.32707e-07 -1.14161e-05
0.00211144 -0.000452864 2.19618e-07
-0.000452864 7.37052e-05 -8.12693e-07
2.19618e-07 -8.12693e-07 6.6908e-07
0.00202213 -0.000381577 5.51015e-07
-0.000381577 7.65434e-05 -1.55248e-07
5.51015e-07 -1.55248e-07 -1.6204e-05
0.00202713 -0.000352715 -1.51369e-06
-0.000352715 0.000128221 4.18686e-07
-1.51369e-06 4.18686e-07 1.37453e-05
0.00189267 -0.000423199 2.1985e-06
-0.000423199 6.78718e-05 -1.39516e-06
2.1985e-06 -1.39516e-06 -6.58543e-05
0.0019522 -0.000397057 3.92889e-07
-0.000397057 0.000131849 -5.82758e-07
3.92889e-07 -5.82758e-07 -1.248e-05
0.00193882 -0.000372915 -7.042e-07
-0.000372915 0.000160424 -1.57616e-06
-7.042e-07 -1.57616e-06 -5.49486e-06
0.00211774 -0.000422866 -1.04304e-06
-0.000422866 0.000269535 3.18106e-06
-1.04304e-06 3.18106e-06 0.000107298
0.00203819 -0.000412151 -5.76135e-07
-0.000412151 0.000263164 -1.24623e-07
-5.76135e-07 -1.24623e-07 7.24033e-05
0.00167015 -0.000340713 -5.14705e-06
-0.000340713 0.000143819 5.12538e-07
-5.14705e-06 5.12538e-07 -6.62341e-05
0.00199913 -0.000442916 3.27363e-06
-0.000442916 0.000274092 1.68427e-06
3.27363e-06 1.68427e-06 5.30099e-05
0.00173341 -0.000375922 -5.68027e-07
-0.000375922 0.000221436 2.56455e-08
-5.68027e-07 2.56455e-08 -8.73083e-06
0.000982703 -0.000226861 -1.45715e-05
-0.000226861 -3.41515e-05 6.8203e-06
-1.45715e-05 6.8203e-06 -0.000226311
0.000354043 -0.000193618 -1.97785e-05
-0.000193618 -0.000188873 1.72559e-05
-1.97785e-05 1.72559e-05 -0.000315633
0.000973036 -0.000247079 2.03913e-07
-0.000247079 -9.08524e-06 6.77188e-08
2.03913e-07 6.77188e-08 -0.000212036
0.00153623 -0.000403626 5.86929e-06
-0.000403626 0.00016203 -1.1144e-06
5.86929e-06 -1.1144e-06 -0.000100735
0.00670673 4.6399e-06 -0.000268818
4.6399e-06 0.00382269 1.83694e-05
-0.000268818 1.83694e-05 0.00383188
0.000414154 -0.000214404 -1.31429e-06
-0.000214404 -0.000141811 1.09921e-06
-1.31429e-06 1.09921e-06 -0.000268375
0.000899722 -0.000250667 1.26503e-05
-0.000250667 3.43177e-06 -6.79736e-06
1.26503e-05 -6.79736e-06 -0.000207489
0.00656997 5.75748e-05 -1.37002e-06
5.75748e-05 0.00375938 3.46748e-07
-1.37002e-06 3.46748e-07 0.0037601
0.000484996 -0.00022832 2.4656e-05
-0.00022832 -8.52744e-05 -1.88874e-05
2.4656e-05 -1.88874e-05 -0.000209561
0.00631559 8.25661e-05 0.000237398
8.25661e-05 0.00361981 -2.04816e-05
0.000237398 -2.04816e-05 0.00361546
0.00171165 0.000563879 -4.34175e-07
0.000563879 0.000183405 4.99135e-06
-4.34175e-07 4.99135e-06 -0.000114518
0.00151732 0.000515155 3.69627e-07
0.000515155 0.000209235 6.75956e-07
3.69627e-07 6.75956e-07 -0.000111268
0.00136198 0.000407544 -6.96812e-06
0.000407544 0.000200107 5.90534e-07
-6.96812e-06 5.90534e-07 -7.91095e-05
0.00164598 0.000521101 6.08199e-07
0.000521101 0.000431576 -1.77902e-07
6.08199e-07 -1.77902e-07 8.36048e-05
0.00120961 0.000359739 -1.4648e-06
0.000359739 0.00019588 9.65622e-08
-1.4648e-06 9.65622e-08 -7.23516e-05
0.000945365 0.000225979 -1.09213e-05
0.000225979 0.000154859 -4.08534e-06
-1.09213e-05 -4.08534e-06 -4.74278e-05
0.00127486 0.000307583 -1.13707e-06
0.000307583 0.000352028 -1.37353e-06
-1.13707e-06 -1.37353e-06 0.000104856
0.000638097 0.000197257 4.89641e-07
0.000197257 4.9267e-05 1.45828e-06
4.89641e-07 1.45828e-06 -0.000164716
0.000505766 0.00016011 -2.52224e-05
0.00016011 -4.37773e-05 -1.749e-05
-2.52224e-05 -1.749e-05 -0.000140305
0.000172601 8.44785e-05 4.63976e-07
8.44785e-05 -0.000191223 3.6332e-06
4.63976e-07 3.6332e-06 -0.000386274
0.00050278 7.2552e-05 -1.12724e-06
7.2552e-05 -2.33685e-05 -3.87854e-07
-1.12724e-06 -3.87854e-07 -0.000100419
0.00498977 -0.000159752 -0.000160158
-0.000159752 0.00283487 -1.28776e-05
-0.000160158 -1.28776e-05 0.00281912
0.000401986 3.65624e-05 8.66905e-06
3.65624e-05 -6.75475e-05 1.58738e-05
8.66905e-06 1.58738e-05 -0.000129637
0.00401958 -0.000165855 -7.89757e-06
-0.000165855 0.00222383 8.89308e-07
-7.89757e-06 8.89308e-07 0.00220993
0.00339143 -0.000150941 6.92558e-05
-0.000150941 0.00181885 5.12309e-06
6.92558e-05 5.12309e-06 0.00180974
0.00112023 0.000129458 2.5556e-05
0.000129458 -0.000471157 1.88911e-05
2.5556e-05 1.88911e-05 -0.000286433
0.00264045 0.000147387 -1.20339e-05
0.000147387 -0.000744189 -3.2925e-06
-1.20339e-05 -3.2925e-06 -0.000157747
0.00394222 0.000221065 0.000196454
0.000221065 -0.00151649 5.6816e-05
0.000196454 5.6816e-05 4.88956e-05
0.00260703 0.000719562 -8.58309e-06
0.000719562 0.000560393 -2.23741e-07
-8.58309e-06 -2.23741e-07 0.000280765
0.00170794 0.000674253 -6.79156e-06
0.000674253 0.000211741 -4.41442e-06
-6.79156e-06 -4.41442e-06 -9.85445e-05
0.00210429 0.000537702 5.71287e-07
0.000537702 0.000170017 4.38017e-06
5.71287e-07 4.38017e-06 -4.74867e-05
0.00206218 0.000645688 1.17835e-06
0.000645688 0.000285169 3.54015e-07
1.17835e-06 3.54015e-07 -2.21593e-06
0.00152669 0.000575924 -1.93218e-07
0.000575924 0.000171566 -1.07701e-05
-1.93218e-07 -1.07701e-05 -0.000144891
0.00188274 0.00056241 -3.59078e-06
0.00056241 -2.85836e-05 9.18731e-07
-3.59078e-06 9.18731e-07 -0.00022726
0.0025298 0.00078529 -7.10956e-06
0.00078529 0.000802009 -3.32873e-06
-7.10956e-06 -3.32873e-06 0.000469952
0.00227469 0.000759525 -3.1633e-07
0.000759525 0.000367839 -4.37781e-07
-3.1633e-07 -4.37781e-07 8.44806e-05
0.00201282 0.000403099 -1.09194e-05
0.000403099 -0.000114702 5.82487e-07
-1.09194e-05 5.82487e-07 -0.000149146
0.00322263 0.000941506 -2.91509e-06
0.000941506 0.000919424 4.73377e-06
-2.91509e-06 4.73377e-06 0.000628676
0.00240969 0.000742362 -3.69193e-08
0.000742362 0.000296512 -4.32608e-07
-3.69193e-08 -4.32608e-07 7.28222e-05
0.000663997 0.000363017 2.12494e-06
0.000363017 -0.000570375 2.18662e-06
2.12494e-06 2.18662e-06 -0.000552766
-0.000876831 0.00048133 -2.30097e-05
0.00048133 -0.00118761 -9.00855e-06
-2.30097e-05 -9.00855e-06 -0.00133793
0.00369141 0.000897179 -0.000108745
0.000897179 0.000334259 -3.4953e-05
-0.000108745 -3.4953e-05 0.000393476
0.00205993 7.77068e-05 -1.212e-06
7.77068e-05 -0.000178716 -7.0727e-07
-1.212e-06 -7.0727e-07 -0.000104575
0.00257286 -7.27703e-05 8.46202e-06
-7.27703e-05 0.00043623 -1.26641e-07
8.46202e-06 -1.26641e-07 0.000518684
0.00252235 -0.000209969 -8.09423e-05
-0.000209969 -0.000302946 8.89398e-06
-8.09423e-05 8.89398e-06 -8.81873e-05
0.00213807 -0.000336083 -6.18932e-05
-0.000336083 -0.000191416 6.66806e-06
-6.18932e-05 6.66806e-06 9.019e-05
0.00133512 -0.000103513 -1.13967e-05
-0.000103513 -0.00038165 2.33919e-06
-1.13967e-05 2.33919e-06 -0.00036563
0.0023209 -0.00023072 8.13295e-07
-0.00023072 -4.80898e-05 -1.57997e-06
8.13295e-07 -1.57997e-06 7.4499e-05
0.00232247 -2.98613e-06 -2.93841e-06
-2.98613e-06 -2.01109e-05 1.52567e-06
-2.93841e-06 1.52567e-06 1.92625e-05
0.00231679 -7.44529e-05 5.79925e-07
-7.44529e-05 -3.87419e-05 -9.77896e-08
5.79925e-07 -9.77896e-08 2.60409e-05
0.00234966 -0.000420034 -6.14008e-06
-0.000420034 -0.000119649 1.38089e-06
-6.14008e-06 1.38089e-06 4.69863e-06
0.00223337 -0.000279358 3.75006e-07
-0.000279358 -6.78718e-05 -2.26532e-07
3.75006e-07 -2.26532e-07 -8.17708e-06
0.00215799 -0.000217054 2.32963e-07
-0.000217054 -1.2564e-05 -2.26578e-07
2.32963e-07 -2.26578e-07 1.32862e-05
0.00219858 -0.000384249 2.19066e-07
-0.000384249 2.94136e-05 3.29956e-07
2.19066e-07 3.29956e-07 1.99985e-05
0.00210182 -0.000322761 6.70158e-08
-0.000322761 2.90316e-05 1.18237e-07
6.70158e-08 1.18237e-07 -4.84669e-06
0.00206008 -0.000278946 -2.57188e-06
-0.000278946 8.54532e-05 6.39307e-07
-2.57188e-06 6.39307e-07 1.68732e-05
0.00201531 -0.000379854 2.47971e-06
-0.000379854 6.83321e-05 -1.02538e-06
2.47971e-06 -1.02538e-06 -2.43257e-05
0.00197395 -0.000348887 5.57895e-07
-0.000348887 9.33074e-05 -2.6815e-07
5.57895e-07 -2.6815e-07 -2.11958e-05
0.0019345 -0.000317673 -6.6636e-07
-0.000317673 0.000116109 -1.10964e-06
-6.6636e-07 -1.10964e-06 -1.88864e-05
0.0019512 -0.000397468 1.12772e-06
-0.000397468 0.000127745 -1.00474e-07
1.12772e-06 -1.00474e-07 -1.71467e-05
0.00197555 -0.00037463 -3.71289e-07
-0.00037463 0.000185393 -1.07225e-07
-3.71289e-07 -1.07225e-07 1.92504e-05
0.00172455 -0.000309187 -3.14209e-06
-0.000309187 0.000137909 1.91983e-07
-3.14209e-06 1.91983e-07 -5.13798e-05
0.00201142 -0.000410993 7.3872e-07
-0.000410993 0.000247711 1.70962e-06
7.3872e-07 1.70962e-06 5.80889e-05
0.00170588 -0.000343033 -4.69093e-07
-0.000343033 0.000166036 7.66636e-08
-4.69093e-07 7.66636e-08 -4.38557e-05
0.00100722 -0.000204924 -1.46093e-05
-0.000204924 -3.93347e-05 6.01806e-06
-1.46093e-05 6.01806e-06 -0.00022191
0.00176468 -0.00037977 5.50907e-06
-0.00037977 0.000240824 -4.08913e-07
5.50907e-06 -4.08913e-07 1.12965e-05
0.00103489 -0.000229175 5.2953e-08
-0.000229175 -5.4573e-06 1.12364e-07
5.2953e-08 1.12364e-07 -0.000197281
0.00271039 -0.000170525 -4.58838e-05
-0.000170525 0.00125418 1.13769e-05
-4.58838e-05 1.13769e-05 0.00115535
0.00208195 -9.09017e-05 -0.000242172
-9.09017e-05 0.00094393 3.20574e-05
-0.000242172 3.20574e-05 0.000924744
0.00159208 -0.000196317 -1.19511e-05
-0.000196317 0.000573349 -2.15974e-07
-1.19511e-05 -2.15974e-07 0.000456634
0.00101737 -0.000251604 1.37253e-05
-0.000251604 1.43461e-05 -6.64783e-06
1.37253e-05 -6.64783e-06 -0.000189598
0.00675759 -1.28261e-05 -7.20879e-06
-1.28261e-05 0.003861 8.51566e-07
-7.20879e-06 8.51566e-07 0.00386667
0.000444116 -0.000240068 2.45499e-05
-0.000240068 -0.000123278 -1.83049e-05
2.45499e-05 -1.83049e-05 -0.000252481
0.0066476 3.57488e-05 0.00026132
3.57488e-05 0.00381214 -2.42877e-05
0.00026132 -2.42877e-05 0.00381032
0.00211407 0.000412599 1.02784e-06
0.000412599 0.000164688 1.01809e-06
1.02784e-06 1.01809e-06 5.2176e-07
0.00204223 0.000536533 3.55804e-06
0.000536533 0.0002741 5.12725e-06
3.55804e-06 5.12725e-06 2.46795e-05
0.00201269 0.000589389 2.43521e-07
0.000589389 0.00036076 2.12786e-07
2.43521e-07 2.12786e-07 6.15226e-05
0.00158047 0.000442278 -6.12308e-06
0.000442278 0.000230789 1.4456e-06
-6.12308e-06 1.4456e-06 -4.3483e-05
0.00161259 0.000533246 3.05219e-06
0.000533246 0.000266489 -3.13606e-06
3.05219e-06 -3.13606e-06 -5.67201e-05
0.00136585 0.000410312 -1.21549e-07
0.000410312 0.000196297 4.63981e-07
-1.21549e-07 4.63981e-07 -8.46837e-05
0.00086062 0.000236485 -1.27692e-05
0.000236485 1.83895e-05 -5.16384e-06
-1.27692e-05 -5.16384e-06 -0.000181103
0.00122787 0.000354465 6.19191e-06
0.000354465 0.000215576 1.58742e-06
6.19191e-06 1.58742e-06 -4.96423e-05
0.000690384 0.000206745 1.19722e-06
0.000206745 -7.80502e-06 8.1194e-08
1.19722e-06 8.1194e-08 -0.000205334
0.000579871 0.000233499 -2.74898e-05
0.000233499 -1.20188e-05 -1.85789e-05
-2.74898e-05 -1.85789e-05 -0.000128876
0.000303992 0.000166195 3.58521e-06
0.000166195 -0.000165676 2.22196e-06
3.58521e-06 2.22196e-06 -0.000373811
0.000551226 0.000142443 -1.06747e-07
0.000142443 -1.79198e-05 -6.94874e-07
-1.06747e-07 -6.94874e-07 -0.000111057
0.00583035 -0.000157653 -0.000200333
-0.000157653 0.00336402 -2.03487e-05
-0.000200333 -2.03487e-05 0.00333944
0.000378735 6.60525e-05 1.43766e-05
6.60525e-05 -9.83558e-05 1.67062e-05
1.43766e-05 1.67062e-05 -0.000169344
0.00458219 -0.000188442 -1.14829e-05
-0.000188442 0.00258725 1.04107e-06
-1.14829e-05 1.04107e-06 0.00256472
0.00384264 -0.000176065 8.85934e-05
-0.000176065 0.00211568 6.37093e-06
8.85934e-05 6.37093e-06 0.00209886
0.00218533 0.000207938 -4.62815e-06
0.000207938 -0.000133027 -4.10928e-07
-4.62815e-06 -4.10928e-07 -4.56602e-05
0.00212287 8.72365e-05 2.40771e-05
8.72365e-05 1.32947e-05 -2.92264e-06
2.40771e-05 -2.92264e-06 0.000206874
0.0055808 0.000227443 -0.000110384
0.000227443 0.000607205 -6.009e-06
-0.000110384 -6.009e-06 0.00120716
0.00208677 0.000489217 -4.06152e-06
0.000489217 0.000118779 1.51359e-06
-4.06152e-06 1.51359e-06 -6.34359e-05
0.00213305 0.000667117 -3.13153e-06
0.000667117 0.000312835 -1.74317e-07
-3.13153e-06 -1.74317e-07 4.13952e-05
0.00160328 0.000682498 -5.64408e-06
0.000682498 0.000130938 -9.38859e-06
-5.64408e-06 -9.38859e-06 -0.000175148
0.00223864 0.000532611 3.04531e-06
0.000532611 0.000269924 1.38971e-06
3.04531e-06 1.38971e-06 5.52255e-05
0.00203309 0.000634678 9.36564e-07
0.000634678 0.000269098 -4.27328e-06
9.36564e-07 -4.27328e-06 -1.54297e-05
0.00234715 0.000395055 -3.72018e-07
0.000395055 6.45684e-05 3.71814e-07
-3.72018e-07 3.71814e-07 2.08589e-05
0.00197646 0.000573431 -6.31992e-07
0.000573431 4.71196e-05 4.29005e-07
-6.31992e-07 4.29005e-07 -0.00015265
0.00277105 0.00079256 -2.60455e-06
0.00079256 0.000671399 -1.4667e-06
-2.60455e-06 -1.4667e-06 0.00037515
0.00203008 0.000397756 -1.60535e-07
0.000397756 -9.13223e-05 -5.01575e-07
-1.60535e-07 -5.01575e-07 -0.000124929
0.00219507 0.000722066 1.2192e-05
0.000722066 0.000166573 1.52714e-06
1.2192e-05 1.52714e-06 -5.80687e-05
0.000418032 0.000346501 -3.88513e-05
0.000346501 -0.000692823 -1.82972e-05
-3.88513e-05 -1.82972e-05 -0.000675386
0.00230172 8.09213e-05 7.21451e-07
8.09213e-05 -1.60551e-05 4.11856e-07
7.21451e-07 4.11856e-07 3.82541e-05
0.00224366 8.88686e-05 -2.0655e-06
8.88686e-05 -4.66776e-05 3.37293e-07
-2.0655e-06 3.37293e-07 2.04142e-05
0.00344269 -7.16978e-05 -4.34749e-05
-7.16978e-05 0.00103615 1.73028e-06
-4.34749e-05 1.73028e-06 0.00108995
0.00231415 -0.000228513 -1.86703e-05
-0.000228513 -6.80633e-05 2.20832e-06
-1.86703e-05 2.20832e-06 7.39395e-05
0.00236573 9.77142e-07 -4.85068e-06
9.77142e-07 -2.87633e-05 -3.47204e-06
-4.85068e-06 -3.47204e-06 1.74985e-05
0.00227994 -8.1306e-05 -4.62416e-07
-8.1306e-05 -7.84294e-05 -7.65282e-08
-4.62416e-07 -7.65282e-08 -6.00231e-06
0.00204594 -6.70322e-05 -5.40431e-08
-6.70322e-05 -2.07658e-05 2.6654e-07
-5.40431e-08 2.6654e-07 -3.47616e-06
0.00219143 -0.000268077 -6.32315e-07
-0.000268077 -7.36694e-05 6.87108e-07
-6.32315e-07 6.87108e-07 -2.21844e-05
0.00211461 -0.000221115 -1.67829e-07
-0.000221115 -3.1443e-05 -1.76071e-08
-1.67829e-07 -1.76071e-08 -1.1212e-05
0.00204019 -0.00018818 -1.96618e-06
-0.00018818 3.89705e-05 3.06508e-08
-1.96618e-06 3.06508e-08 7.29265e-06
0.00210627 -0.000320374 1.3565e-06
-0.000320374 3.66092e-05 1.0154e-07
1.3565e-06 1.0154e-07 1.90374e-06
0.00203496 -0.000277085 3.3897e-07
-0.000277085 6.6608e-05 -3.10683e-08
3.3897e-07 -3.10683e-08 -1.95177e-06
0.00198335 -0.000254512 -1.43698e-06
-0.000254512 0.000103744 -6.55296e-07
-1.43698e-06 -6.55296e-07 -9.07828e-07
0.00191859 -0.000344753 2.31666e-06
-0.000344753 5.70568e-05 -7.9638e-07
2.31666e-06 -7.9638e-07 -5.74144e-05
0.00198088 -0.000320644 -3.04051e-07
-0.000320644 0.00014268 -6.79777e-08
-3.04051e-07 -6.79777e-08 7.1709e-06
0.00176318 -0.000265595 -2.06165e-06
-0.000265595 0.000126722 -1.39396e-07
-2.06165e-06 -1.39396e-07 -4.06886e-05
0.00201029 -0.000376277 7.38727e-07
-0.000376277 0.000209138 1.10916e-06
7.38727e-07 1.10916e-06 4.27652e-05
0.00175519 -0.00031129 -3.56306e-07
-0.00031129 0.000155775 7.83181e-08
-3.56306e-07 7.83181e-08 -3.33413e-05
0.00103038 -0.000183305 -1.3976e-05
-0.000183305 -4.36447e-05 4.93763e-06
-1.3976e-05 4.93763e-06 -0.000217888
0.00174139 -0.000345411 4.01444e-06
-0.000345411 0.000188003 -4.01117e-07
4.01444e-06 -4.01117e-07 -2.17454e-05
0.00106514 -0.000206854 -9.40623e-08
-0.000206854 -8.57766e-06 1.84414e-07
-9.40623e-08 1.84414e-07 -0.000190417
0.00271387 -0.000167109 -5.40665e-05
-0.000167109 0.00124675 1.08821e-05
-5.40665e-05 1.08821e-05 0.00115638
0.00108368 -0.000231632 1.46657e-05
-0.000231632 2.1114e-05 -6.43468e-06
1.46657e-05 -6.43468e-06 -0.000170434
0.0028353 -0.000209479 4.69167e-05
-0.000209479 0.00133175 -7.14347e-06
4.69167e-05 -7.14347e-06 0.00124039
0.00213491 -0.000128287 -0.000243518
-0.000128287 0.000983013 3.67792e-05
-0.000243518 3.67792e-05 0.000961773
0.00432086 -9.78466e-05 -0.000238979
-9.78466e-05 0.00235083 2.3118e-05
-0.000238979 2.3118e-05 0.00234359
0.00291341 -0.000266635 0.000152781
-0.000266635 0.00139562 -2.42308e-05
0.000152781 -2.42308e-05 0.00130382
0.00680675 -2.81979e-05 0.0002768
-2.81979e-05 0.00390021 -2.86416e-05
0.0002768 -2.86416e-05 0.00390178
0.00229838 0.000410463 -1.34051e-06
0.000410463 0.000274024 4.02244e-08
-1.34051e-06 4.02244e-08 0.000131958
0.00184731 0.000413439 3.21254e-06
0.000413439 0.000110222 1.90949e-06
3.21254e-06 1.90949e-06 -8.52786e-05
0.0021029 0.000403237 4.20622e-07
0.000403237 0.000163864 -1.70826e-06
4.20622e-07 -1.70826e-06 6.60579e-06
0.00172661 0.0004281 -4.39316e-06
0.0004281 0.000209111 1.90718e-06
-4.39316e-06 1.90718e-06 -4.01905e-05
0.00211221 0.000542633 6.99209e-07
0.000542633 0.000302912 2.93883e-07
6.99209e-07 2.93883e-07 5.2761e-05
0.00229989 0.000614474 7.02483e-07
0.000614474 0.000529775 -4.2864e-06
7.02483e-07 -4.2864e-06 0.000229228
0.00155036 0.000443231 2.42314e-07
0.000443231 0.000205147 4.90704e-07
2.42314e-07 4.90704e-07 -7.1038e-05
0.000975902 0.000261824 -1.45149e-05
0.000261824 3.32228e-06 -5.30531e-06
-1.45149e-05 -5.30531e-06 -0.000200323
0.00136826 0.000412717 8.1958e-06
0.000412717 0.000192011 9.00905e-07
8.1958e-06 9.00905e-07 -9.06357e-05
0.000786301 0.000229321 -6.63531e-07
0.000229321 -2.43943e-05 -4.84376e-08
-6.63531e-07 -4.84376e-08 -0.000220826
0.000443634 0.000243236 -2.56654e-05
0.000243236 -0.000108086 -1.90103e-05
-2.56654e-05 -1.90103e-05 -0.000236315
0.000328997 0.000183526 8.56638e-06
0.000183526 -0.00023132 2.25567e-06
8.56638e-06 2.25567e-06 -0.000423905
0.000358311 0.00019504 2.80799e-06
0.00019504 -0.000150919 3.95796e-07
2.80799e-06 3.95796e-07 -0.000261138
0.00652742 -8.22559e-05 -0.000240845
-8.22559e-05 0.00376739 -2.455e-05
-0.000240845 -2.455e-05 0.00375265
0.000354414 0.000107031 1.99797e-05
0.000107031 -0.000137237 1.6422e-05
1.99797e-05 1.6422e-05 -0.000225093
0.00552089 -0.0001714 -3.10061e-07
-0.0001714 0.00316108 -1.31553e-06
-3.10061e-07 -1.31553e-06 0.00314112
0.00444646 -0.000210645 0.000106057
-0.000210645 0.00250854 8.4685e-06
0.000106057 8.4685e-06 0.00248074
0.00233609 0.000240525 -7.02458e-08
0.000240525 -4.8507e-06 5.01344e-07
-7.02458e-08 5.01344e-07 4.32217e-05
0.00212416 0.000214072 1.50448e-06
0.000214072 -0.000155717 2.55881e-08
1.50448e-06 2.55881e-08 -6.97177e-05
0.00280803 5.24943e-05 -8.08367e-05
5.24943e-05 0.000324749 -1.0881e-05
-8.08367e-05 -1.0881e-05 0.00053299
0.00206841 0.000348037 5.55361e-08
0.000348037 1.5467e-05 1.32995e-07
5.55361e-08 1.32995e-07 -7.04767e-05
0.00208999 0.000486088 -7.47271e-07
0.000486088 0.000144336 4.81688e-07
-7.47271e-07 4.81688e-07 -3.68154e-05
0.00161544 0.000608809 6.66591e-06
0.000608809 4.08534e-05 -2.22239e-06
6.66591e-06 -2.22239e-06 -0.000221208
0.00237186 0.000527108 -7.80971e-07
0.000527108 0.000369669 -3.21462e-06
-7.80971e-07 -3.21462e-06 0.000157952
0.0022874 0.000380708 -9.62096e-07
0.000380708 4.2589e-05 3.58231e-08
-9.62096e-07 3.58231e-08 1.03331e-06
0.00206846 0.000584486 -7.54174e-07
0.000584486 0.000122001 -2.04539e-07
-7.54174e-07 -2.04539e-07 -7.90272e-05
0.00194154 0.000386177 1.11088e-05
0.000386177 -0.000100577 -8.21501e-07
1.11088e-05 -8.21501e-07 -0.000132966
0.00212201 6.43524e-05 1.67086e-06
6.43524e-05 -3.16994e-06 4.63734e-07
1.67086e-06 4.63734e-07 1.92254e-05
0.00223188 7.64616e-05 9.1834e-08
7.64616e-05 -4.73965e-05 1.41184e-08
9.1834e-08 1.41184e-08 5.41834e-06
0.00241097 0.000105099 -8.51103e-06
0.000105099 7.81016e-05 -6.83082e-07
-8.51103e-06 -6.83082e-07 0.000137742
0.001983 -1.2003e-05 -3.59596e-06
-1.2003e-05 1.59166e-05 4.50568e-07
-3.59596e-06 4.50568e-07 1.07833e-05
0.00224711 -9.39595e-05 1.01064e-07
-9.39595e-05 -0.000114339 -7.35881e-07
1.01064e-07 -7.35881e-07 -3.42654e-05
0.00207154 -6.995e-05 -7.41864e-07
-6.995e-05 -9.58864e-06 3.07329e-07
-7.41864e-07 3.07329e-07 8.25446e-06
0.00194781 -0.000105573 -3.87118e-06
-0.000105573 -1.13777e-05 4.36057e-07
-3.87118e-06 4.36057e-07 -3.2246e-05
0.00206951 -0.000224986 3.70084e-07
-0.000224986 -5.12757e-05 2.23799e-07
3.70084e-07 2.23799e-07 -3.70893e-05
0.00204126 -0.00018707 1.32442e-06
-0.00018707 3.93573e-05 -3.57634e-07
1.32442e-06 -3.57634e-07 7.93597e-06
0.00201363 -0.000182986 4.87529e-07
-0.000182986 0.000100439 -8.63907e-07
4.87529e-07 -8.63907e-07 2.05312e-05
0.00201143 -0.000274754 2.76757e-06
-0.000274754 4.89483e-05 -6.71013e-07
2.76757e-06 -6.71013e-07 -1.94891e-05
0.00198864 -0.000253416 -2.5229e-07
-0.000253416 0.000105036 -2.12301e-07
-2.5229e-07 -2.12301e-07 5.00968e-07
0.00176267 -0.000210318 -1.26093e-06
-0.000210318 0.000104408 -1.64183e-07
-1.26093e-06 -1.64183e-07 -4.19239e-05
0.00203189 -0.000323645 1.2547e-06
-0.000323645 0.00017292 7.07535e-07
1.2547e-06 7.07535e-07 3.69325e-05
0.0017775 -0.000265773 -3.25705e-07
-0.000265773 0.000135006 -8.21268e-09
-3.25705e-07 -8.21268e-09 -3.19706e-05
0.00105252 -0.000158284 -1.31915e-05
-0.000158284 -4.53427e-05 3.80546e-06
-1.31915e-05 3.80546e-06 -0.000210558
0.00178682 -0.000313321 2.26517e-06
-0.000313321 0.000174407 -6.61563e-08
2.26517e-06 -6.61563e-08 -1.45028e-05
0.00108472 -0.000183813 -2.27679e-07
-0.000183813 -1.45279e-05 2.55968e-07
-2.27679e-07 2.55968e-07 -0.000187655
0.00268541 -0.000162868 -6.14337e-05
-0.000162868 0.0012276 1.05971e-05
-6.14337e-05 1.05971e-05 0.00114086
0.00112432 -0.00020884 1.46876e-05
-0.00020884 2.27552e-05 -5.7073e-06
1.46876e-05 -5.7073e-06 -0.000158288
0.00278798 -0.000190028 4.29377e-05
-0.000190028 0.00129293 -5.65165e-06
4.29377e-05 -5.65165e-06 0.00120933
0.00216624 -0.000109641 -0.00023771
-0.000109641 0.000994602 3.22166e-05
-0.00023771 3.22166e-05 0.000975991
0.00294239 -0.000217369 0.000147952
-0.000217369 0.00139366 -2.52702e-05
0.000147952 -2.52702e-05 0.0013115
0.00181182 -6.62162e-05 -0.000100216
-6.62162e-05 0.0007845 1.42042e-05
-0.000100216 1.42042e-05 0.000751129
0.00641945 3.87626e-05 8.07496e-05
3.87626e-05 0.00364108 -3.67607e-06
8.07496e-05 -3.67607e-06 0.0036214
0.00207062 0.000347773 8.07357e-07
0.000347773 0.000104907 5.26595e-07
8.07357e-07 5.26595e-07 -1.21924e-05
0.00216795 0.000387857 2.79065e-07
0.000387857 0.000255229 8.52188e-09
2.79065e-07 8.52188e-09 9.11802e-05
0.00220706 0.000408236 -3.85757e-06
0.000408236 0.000206833 -1.49362e-07
-3.85757e-06 -1.49362e-07 6.21774e-05
0.00184914 0.000379535 -1.59629e-06
0.000379535 0.000221226 9.56866e-07
-1.59629e-06 9.56866e-07 3.39768e-06
0.00183749 0.000419114 -7.51194e-07
0.000419114 8.60911e-05 -1.99461e-06
-7.51194e-07 -1.99461e-06 -0.000105949
0.00207985 0.000393325 -5.1506e-06
0.000393325 0.000155373 -5.43629e-06
-5.1506e-06 -5.43629e-06 5.0913e-06
0.00108723 0.000259102 -1.56068e-05
0.000259102 8.4255e-06 -4.98503e-06
-1.56068e-05 -4.98503e-06 -0.000188803
0.00167236 0.000424765 7.92331e-07
0.000424765 0.000174672 4.1606e-07
7.92331e-07 4.1606e-07 -7.50375e-05
0.00218916 0.000548794 1.49196e-06
0.000548794 0.000335138 -3.98976e-06
1.49196e-06 -3.98976e-06 8.43078e-05
0.00151167 0.000443196 7.22939e-06
0.000443196 0.000174918 -2.91069e-07
7.22939e-06 -2.91069e-07 -0.000102988
0.000904962 0.000251601 -8.65351e-07
0.000251601 -3.16108e-05 -7.73279e-09
-8.65351e-07 -7.73279e-09 -0.000232367
0.000362872 0.000237468 -2.49937e-05
0.000237468 -0.000166528 -1.76808e-05
-2.49937e-05 -1.76808e-05 -0.00029661
0.000697252 0.0002191 1.23211e-05
0.0002191 -7.63576e-05 5.77362e-06
1.23211e-05 5.77362e-06 -0.000269158
0.000400947 0.000231556 2.06294e-06
0.000231556 -0.000128312 7.67455e-07
2.06294e-06 7.67455e-07 -0.000256849
0.00680273 6.19211e-06 -0.000263765
6.19211e-06 0.00392175 -3.08766e-05
-0.000263765 -3.08766e-05 0.0039108
0.000425482 0.000177854 2.40777e-05
0.000177854 -0.000113637 1.86764e-05
2.40777e-05 1.86764e-05 -0.000221281
0.00628922 -0.000119824 3.79409e-06
-0.000119824 0.00361696 -1.00866e-06
3.79409e-06 -1.00866e-06 0.00360346
0.00511567 -0.000211043 0.000138463
-0.000211043 0.00292094 9.49134e-06
0.000138463 9.49134e-06 0.00289224
0.00209461 0.000189614 -6.27793e-07
0.000189614 3.26502e-06 -1.88063e-07
-6.27793e-07 -1.88063e-07 1.59227e-06
0.00229439 0.000242341 1.31854e-08
0.000242341 -3.74106e-05 5.68109e-07
1.31854e-08 5.68109e-07 1.31888e-05
0.00213197 0.000219733 3.52417e-06
0.000219733 -0.000154603 -2.6268e-07
3.52417e-06 -2.6268e-07 -6.92801e-05
0.00212159 0.000346465 -3.42762e-07
0.000346465 5.32762e-05 9.20041e-08
-3.42762e-07 9.20041e-08 -2.87921e-05
0.00209244 0.000482463 1.37166e-06
0.000482463 0.000171685 -7.03942e-07
1.37166e-06 -7.03942e-07 -8.26104e-06
0.00225296 0.000368332 1.91301e-06
0.000368332 2.9744e-05 -4.39537e-07
1.91301e-06 -4.39537e-07 -9.83065e-06
0.0019996 6.14028e-05 -1.50616e-06
6.14028e-05 -2.37035e-06 3.37102e-07
-1.50616e-06 3.37102e-07 -3.42926e-06
0.00210531 5.92354e-05 3.55347e-07
5.92354e-05 -1.03263e-05 -1.00187e-07
3.55347e-07 -1.00187e-07 1.04824e-05
0.0021622 7.21516e-05 -7.7776e-07
7.21516e-05 -8.01059e-05 -4.02226e-07
-7.7776e-07 -4.02226e-07 -2.80378e-05
0.00197224 -1.1337e-05 -1.00732e-06
-1.1337e-05 6.20476e-06 2.35573e-08
-1.00732e-06 2.35573e-08 6.77363e-07
0.00197393 -3.8281e-05 -6.40572e-06
-3.8281e-05 3.94793e-05 6.50293e-07
-6.40572e-06 6.50293e-07 1.37255e-05
0.00209867 -7.25766e-05 2.26302e-07
-7.25766e-05 2.02721e-06 -4.12448e-08
2.26302e-07 -4.12448e-08 2.07476e-05
0.00198213 -0.000105598 -1.50067e-06
-0.000105598 1.59935e-05 2.47242e-07
-1.50067e-06 2.47242e-07 -7.87262e-06
0.00194867 -0.000116436 -4.70699e-06
-0.000116436 5.17786e-05 4.40529e-07
-4.70699e-06 4.40529e-07 -9.22492e-06
0.00204439 -0.000186466 4.48043e-06
-0.000186466 4.14562e-05 -7.72489e-07
4.48043e-06 -7.72489e-07 1.01782e-05
0.00196955 -0.000182344 2.83748e-06
-0.000182344 7.2267e-05 -8.23038e-07
2.83748e-06 -8.23038e-07 -7.53762e-06
0.00175786 -0.000153139 1.79151e-06
-0.000153139 8.77e-05 -6.73559e-07
1.79151e-06 -6.73559e-07 -4.16681e-05
0.00198138 -0.000253523 1.7781e-06
-0.000253523 9.72999e-05 7.77002e-08
1.7781e-06 7.77002e-08 -7.42225e-06
0.00177214 -0.000211373 -1.91908e-07
-0.000211373 0.000107968 -6.89748e-08
-1.91908e-07 -6.89748e-08 -3.82233e-05
0.00106555 -0.000127243 -1.25245e-05
-0.000127243 -4.8017e-05 2.84936e-06
-1.25245e-05 2.84936e-06 -0.000202955
0.0017928 -0.000266207 1.12369e-06
-0.000266207 0.000142672 1.05157e-07
1.12369e-06 1.05157e-07 -2.39219e-05
0.0010942 -0.000157164 -3.40435e-07
-0.000157164 -2.19617e-05 2.18425e-07
-3.40435e-07 2.18425e-07 -0.000185966
0.00261596 -0.000165526 -6.38433e-05
-0.000165526 0.00118508 9.30313e-06
-6.38433e-05 9.30313e-06 0.00110044
0.00113816 -0.000184278 1.39725e-05
-0.000184278 1.3783e-05 -4.55838e-06
1.39725e-05 -4.55838e-06 -0.000158194
0.00274417 -0.000164129 4.11118e-05
-0.000164129 0.00125937 -4.30589e-06
4.11118e-05 -4.30589e-06 0.00118084
0.00217958 -9.16474e-05 -0.000235736
-9.16474e-05 0.000996175 2.71277e-05
-0.000235736 2.71277e-05 0.000979121
0.00286195 -0.000182862 0.000144644
-0.000182862 0.00133173 -2.14992e-05
0.000144644 -2.14992e-05 0.0012582
0.00180524 -7.07427e-05 -9.07976e-05
-7.07427e-05 0.000775272 1.14026e-05
-9.07976e-05 1.14026e-05 0.000744684
0.00152781 -6.39199e-05 5.62027e-05
-6.39199e-05 0.000618277 -8.7038e-06
5.62027e-05 -8.7038e-06 0.000569994
0.00204157 0.00022421 -1.0153e-06
0.00022421 4.84499e-05 1.99943e-07
-1.0153e-06 1.99943e-07 -1.05827e-05
0.00208149 0.000319547 -1.10858e-06
0.000319547 0.000167815 9.51877e-07
-1.10858e-06 9.51877e-07 3.25896e-05
0.00205496 0.000349742 -9.7186e-08
0.000349742 7.57236e-05 1.04639e-07
-9.7186e-08 1.04639e-07 -3.47951e-05
0.00195779 0.00034614 -3.47669e-07
0.00034614 0.000238037 9.04496e-07
-3.47669e-07 9.04496e-07 4.94064e-05
0.00208544 0.000380698 -8.75171e-07
0.000380698 0.000212405 -4.5657e-07
-8.75171e-07 -4.5657e-07 4.72789e-05
0.00211781 0.000406553 -1.98968e-07
0.000406553 0.000140988 -3.90832e-07
-1.98968e-07 -3.90832e-07 -6.41219e-06
0.00115278 0.000235636 -1.57245e-05
0.000235636 2.19371e-05 -4.56136e-06
-1.57245e-05 -4.56136e-06 -0.000164046
0.00178081 0.000379542 2.43627e-06
0.000379542 0.000171503 -3.57543e-08
2.43627e-06 -3.57543e-08 -4.31379e-05
0.00184307 0.000425814 -2.36308e-06
0.000425814 7.21061e-05 -4.17446e-06
-2.36308e-06 -4.17446e-06 -0.000116631
0.00031809 0.000186758 -2.23817e-05
0.000186758 -0.000217761 -1.44734e-05
-2.23817e-05 -1.44734e-05 -0.000337414
0.00102676 0.000252658 -5.58754e-07
0.000252658 -2.24207e-05 1.04369e-07
-5.58754e-07 1.04369e-07 -0.000218596
0.00161997 0.000421938 6.27588e-06
0.000421938 0.000140439 -1.10639e-06
6.27588e-06 -1.10639e-06 -0.0001098
0.000885187 0.000245421 1.46204e-05
0.000245421 -3.56979e-05 6.03028e-06
1.46204e-05 6.03028e-06 -0.000234182
0.000393466 0.000224095 7.15285e-07
0.000224095 -0.000145519 9.28624e-07
7.15285e-07 9.28624e-07 -0.000277084
0.00694586 0.00010725 -0.000278247
0.00010725 0.00399176 -3.52117e-05
-0.000278247 -3.52117e-05 0.00398465
0.000360715 0.000213726 2.23341e-05
0.000213726 -0.00015021 1.79186e-05
2.23341e-05 1.79186e-05 -0.000276978
0.00669781 -2.35454e-05 7.2782e-06
-2.35454e-05 0.00384443 -1.45521e-07
7.2782e-06 -1.45521e-07 0.00384069
0.00604592 -0.000151473 0.000193511
-0.000151473 0.00346413 1.09703e-05
0.000193511 1.09703e-05 0.00344994
0.00202205 0.000123143 -3.9641e-06
0.000123143 3.09995e-05 -8.56e-07
-3.9641e-06 -8.56e-07 1.97613e-05
0.00210245 0.000193715 8.7739e-07
0.000193715 6.89595e-06 3.2719e-07
8.7739e-07 3.2719e-07 3.9733e-06
0.00224076 0.000244407 -3.87228e-07
0.000244407 -7.38639e-05 -8.29778e-07
-3.87228e-07 -8.29778e-07 -2.12572e-05
0.00217496 0.000343803 2.63504e-06
0.000343803 9.13301e-05 6.14915e-09
2.63504e-06 6.14915e-09 1.32811e-05
0.00194754 1.38251e-05 -5.83102e-06
1.38251e-05 4.19723e-05 6.08397e-07
-5.83102e-06 6.08397e-07 6.49603e-06
0.00198194 5.18221e-05 6.49966e-09
5.18221e-05 -1.16414e-05 6.89516e-08
6.49966e-09 6.89516e-08 -1.39303e-05
0.00208858 5.4004e-05 -9.4245e-07
5.4004e-05 -1.65934e-05 -2.9796e-07
-9.4245e-07 -2.9796e-07 1.92954e-06
0.0019596 -9.46161e-06 1.06646e-06
-9.46161e-06 -4.32512e-06 -7.01439e-07
1.06646e-06 -7.01439e-07 -1.04905e-05
0.0019687 -3.27493e-05 -8.09561e-07
-3.27493e-05 3.38844e-05 -1.43044e-07
-8.09561e-07 -1.43044e-07 9.35254e-06
0.0019158 -4.97085e-05 -3.19909e-06
-4.97085e-05 4.27686e-05 3.20487e-07
-3.19909e-06 3.20487e-07 -1.91303e-05
0.00201539 -0.000105817 3.57625e-06
-0.000105817 4.24884e-05 -1.35937e-07
3.57625e-06 -1.35937e-07 1.54503e-05
0.00194594 -0.000116535 -2.07906e-06
-0.000116535 5.78476e-05 5.89826e-07
-2.07906e-06 5.89826e-07 -9.73542e-06
0.0018353 -9.90448e-05 -6.84162e-07
-9.90448e-05 0.000124413 -2.79889e-07
-6.84162e-07 -2.79889e-07 1.54302e-05
0.00193524 -0.000180574 5.75867e-06
-0.000180574 5.02278e-05 -8.56632e-07
5.75867e-06 -8.56632e-07 -2.92014e-05
0.00177961 -0.000151697 2.06217e-06
-0.000151697 9.8725e-05 -5.18082e-07
2.06217e-06 -5.18082e-07 -2.99996e-05
0.00106399 -9.33931e-05 -1.21917e-05
-9.33931e-05 -5.39801e-05 1.95965e-06
-1.21917e-05 1.95965e-06 -0.000199028
0.00179727 -0.000210556 7.3682e-07
-0.000210556 0.000123084 2.24172e-08
7.3682e-07 2.24172e-08 -2.24972e-05
0.00108064 -0.000126368 -1.4604e-07
-0.000126368 -3.80333e-05 1.87192e-07
-1.4604e-07 1.87192e-07 -0.00019226
0.000439787 -8.89127e-05 -1.98927e-05
-8.89127e-05 -0.000184037 5.87839e-06
-1.98927e-05 5.87839e-06 -0.000276277
0.00113221 -0.000155771 1.30636e-05
-0.000155771 -3.58299e-07 -3.47529e-06
1.30636e-05 -3.47529e-06 -0.000163099
0.00157941 -0.000107978 6.01029e-05
-0.000107978 0.000527651 -4.49761e-06
6.01029e-05 -4.49761e-06 0.00044641
0.00638563 -0.000155735 -0.000311679
-0.000155735 0.00362156 2.25732e-05
-0.000311679 2.25732e-05 0.00363742
0.00281835 -0.000147632 0.000142085
-0.000147632 0.00129546 -1.70622e-05
0.000142085 -1.70622e-05 0.00122752
0.00180767 -7.11377e-05 -8.20992e-05
-7.11377e-05 0.000775412 7.43385e-06
-8.20992e-05 7.43385e-06 0.000745
0.00144352 -9.14943e-05 6.78066e-05
-9.14943e-05 0.000570232 -1.02929e-05
6.78066e-05 -1.02929e-05 0.000520953
0.00200056 0.000162822 -3.42717e-06
0.000162822 5.22689e-05 -4.88112e-07
-3.42717e-06 -4.88112e-07 5.82026e-06
0.00207308 0.000241774 -5.60264e-07
0.000241774 0.000145926 1.31068e-06
-5.60264e-07 1.31068e-06 4.3858e-05
0.00202909 0.000218759 4.8524e-07
0.000218759 4.71996e-05 3.41466e-07
4.8524e-07 3.41466e-07 -1.55719e-05
0.00187585 0.000276704 -1.99223e-07
0.000276704 0.000161969 1.37211e-06
-1.99223e-07 1.37211e-06 3.41256e-06
0.00201005 0.000313738 9.57763e-07
0.000313738 0.000126973 1.26818e-07
9.57763e-07 1.26818e-07 -7.58327e-06
0.00204002 0.000352343 4.07556e-07
0.000352343 4.65357e-05 1.82622e-07
4.07556e-07 1.82622e-07 -5.7526e-05
0.00111994 0.000205599 -1.59417e-05
0.000205599 -2.19767e-05 -3.42832e-06
-1.59417e-05 -3.42832e-06 -0.000194023
0.00195115 0.000344128 2.38107e-06
0.000344128 0.000233131 6.00164e-07
2.38107e-06 6.00164e-07 4.52562e-05
0.0019897 0.000372452 -1.63905e-06
0.000372452 0.000161858 -1.71627e-06
-1.63905e-06 -1.71627e-06 -4.1927e-06
0.000328912 0.000132076 -1.95862e-05
0.000132076 -0.000234937 -1.06838e-05
-1.95862e-05 -1.06838e-05 -0.000341292
0.00105826 0.000231417 3.78301e-07
0.000231417 -3.76682e-05 3.64275e-07
3.78301e-07 3.64275e-07 -0.000222578
0.0017054 0.000378988 6.29214e-06
0.000378988 0.000117052 -1.32366e-06
6.29214e-06 -1.32366e-06 -9.42527e-05
0.00684847 0.000186342 -0.000287599
0.000186342 0.00391446 -3.48501e-05
-0.000287599 -3.48501e-05 0.0039134
0.000345965 0.000179242 2.79836e-07
0.000179242 -0.000201513 8.21554e-07
2.79836e-07 8.21554e-07 -0.000322032
0.000981068 0.000246959 1.5729e-05
0.000246959 -4.36975e-05 5.64794e-06
1.5729e-05 5.64794e-06 -0.000238819
0.000347446 0.000208989 2.13453e-05
0.000208989 -0.000171 1.74374e-05
2.13453e-05 1.74374e-05 -0.000303546
0.00681659 9.70189e-05 1.01015e-05
9.70189e-05 0.00390473 8.25777e-07
1.01015e-05 8.25777e-07 0.00390452
0.00657149 -5.59829e-05 0.000246667
-5.59829e-05 0.00375738 1.56998e-05
0.000246667 1.56998e-05 0.00375826
0.00194389 6.7544e-05 -7.94925e-06
6.7544e-05 3.55891e-05 8.38064e-08
-7.94925e-06 8.38064e-08 -3.00397e-06
0.00200997 0.000120025 2.08037e-07
0.000120025 2.28392e-05 3.58422e-08
2.08037e-07 3.58422e-08 1.10339e-05
0.00211204 0.000197935 1.05894e-06
0.000197935 1.14054e-05 3.47079e-07
1.05894e-06 3.47079e-07 7.6844e-06
0.001914 4.99972e-06 -3.45023e-06
4.99972e-06 5.38226e-05 1.66476e-07
-3.45023e-06 1.66476e-07 -1.25411e-05
0.00194214 1.88639e-05 1.64916e-07
1.88639e-05 3.68346e-05 6.29168e-08
1.64916e-07 6.29168e-08 4.09534e-06
0.00196704 4.11589e-05 8.34627e-07
4.11589e-05 -1.94218e-05 -3.27299e-07
8.34627e-07 -3.27299e-07 -2.28193e-05
0.00196422 -2.8017e-05 3.76848e-06
-2.8017e-05 2.83751e-05 -5.17943e-07
3.76848e-06 -5.17943e-07 5.41624e-06
0.00190294 -4.77537e-05 -1.45279e-06
-4.77537e-05 3.54272e-05 3.0161e-07
-1.45279e-06 3.0161e-07 -2.56069e-05
0.00189257 -4.51182e-05 1.74827e-06
-4.51182e-05 0.00017207 -5.77949e-07
1.74827e-06 -5.77949e-07 6.71498e-05
0.00193759 -0.000116322 -2.00155e-07
-0.000116322 6.07521e-05 5.99645e-07
-2.00155e-07 5.99645e-07 -1.32537e-05
0.0018303 -0.000100176 5.38398e-07
-0.000100176 0.000125428 2.76518e-08
5.38398e-07 2.76518e-08 1.03244e-05
0.00102131 -5.47598e-05 -1.2868e-05
-5.47598e-05 -8.59451e-05 9.68921e-07
-1.2868e-05 9.68921e-07 -0.000218623
0.00178349 -0.000152048 2.1836e-06
-0.000152048 9.80443e-05 -3.69048e-07
2.1836e-06 -3.69048e-07 -3.04827e-05
0.001073 -8.96909e-05 -7.22253e-08
-8.96909e-05 -4.81766e-05 1.27209e-07
-7.22253e-08 1.27209e-07 -0.000192384
0.000450067 -2.32092e-05 -1.85089e-05
-2.32092e-05 -0.00018171 3.50063e-06
-1.85089e-05 3.50063e-06 -0.000268577
0.00111827 -0.00012509 1.24035e-05
-0.00012509 -1.56713e-05 -2.52316e-06
1.24035e-05 -2.52316e-06 -0.000168974
0.000447016 -7.33597e-05 -2.07899e-07
-7.33597e-05 -0.000178243 4.46784e-07
-2.07899e-07 4.46784e-07 -0.00027122
0.00632983 -4.79428e-05 -0.000301592
-4.79428e-05 0.00358155 1.39063e-05
-0.000301592 1.39063e-05 0.00360187
0.000488522 -7.5181e-05 1.48786e-05
-7.5181e-05 -0.00015409 -7.76072e-06
1.48786e-05 -7.76072e-06 -0.000251387
0.00401282 -0.000101709 0.000134095
-0.000101709 0.00215008 -6.70908e-06
0.000134095 -6.70908e-06 0.00213425
0.00140711 -8.66461e-05 7.36111e-05
-8.66461e-05 0.000547726 -1.01983e-05
7.36111e-05 -1.01983e-05 0.000498893
0.00200057 0.000126443 -7.11337e-06
0.000126443 7.03438e-05 -3.86397e-07
-7.11337e-06 -3.86397e-07 2.0256e-05
0.00202476 0.000175068 -8.0382e-07
0.000175068 0.000118027 1.46705e-06
-8.0382e-07 1.46705e-06 3.1613e-05
0.00199013 0.000157913 -6.16871e-07
0.000157913 4.48479e-05 -1.25536e-07
-6.16871e-07 -1.25536e-07 -1.2076e-06
0.00181001 0.000209651 2.39072e-07
0.000209651 0.00011364 1.10548e-06
2.39072e-07 1.10548e-06 -2.9923e-05
0.0020541 0.000240383 3.78651e-07
0.000240383 0.00013118 1.80694e-07
3.78651e-07 1.80694e-07 2.76741e-05
0.00201637 0.000213087 2.57033e-06
0.000213087 4.57025e-05 3.81911e-07
2.57033e-06 3.81911e-07 -2.08008e-05
0.00110943 0.0001672 -1.45004e-05
0.0001672 -3.6808e-05 -2.40834e-06
-1.45004e-05 -2.40834e-06 -0.000195456
0.00186014 0.000274205 1.32808e-06
0.000274205 0.000158624 6.25781e-07
1.32808e-06 6.25781e-07 -4.37805e-06
0.00193577 0.000307705 -9.61659e-08
0.000307705 8.4288e-05 -9.99383e-07
-9.61659e-08 -9.99383e-07 -4.95044e-05
0.000352014 9.38623e-05 -1.82421e-05
9.38623e-05 -0.000236189 -7.61012e-06
-1.82421e-05 -7.61012e-06 -0.000333668
0.00105171 0.000201101 -1.26417e-06
0.000201101 -6.2415e-05 1.79944e-07
-1.26417e-06 1.79944e-07 -0.000233954
0.00194801 0.000342481 5.22725e-06
0.000342481 0.000230393 3.07167e-07
5.22725e-06 3.07167e-07 4.31907e-05
0.00666897 0.000246466 -0.00030371
0.000246466 0.00380238 -3.35667e-05
-0.00030371 -3.35667e-05 0.00380375
0.000353405 0.000130658 -9.10845e-08
0.000130658 -0.000221559 4.29888e-07
-9.10845e-08 4.29888e-07 -0.000328432
0.000929107 0.000225423 1.49995e-05
0.000225423 -0.000118772 4.60925e-06
1.49995e-05 4.60925e-06 -0.00030247
0.0068078 0.000203374 1.37607e-05
0.000203374 0.00389642 3.32742e-06
1.37607e-05 3.32742e-06 0.00389369
0.000360067 0.000170173 1.99088e-05
0.000170173 -0.000193717 1.43461e-05
1.99088e-05 1.43461e-05 -0.00031497
0.00669906 6.03334e-05 0.000272237
6.03334e-05 0.00381935 2.29792e-05
0.000272237 2.29792e-05 0.00382691
0.00188709 4.96975e-05 -4.13775e-06
4.96975e-05 2.67598e-05 2.52081e-07
-4.13775e-06 2.52081e-07 -4.07038e-05
0.0019446 7.15285e-05 -7.99169e-07
7.15285e-05 4.37882e-05 -2.2961e-07
-7.99169e-07 -2.2961e-07 4.10881e-06
0.00199249 0.00011702 3.50389e-06
0.00011702 1.19048e-05 4.86864e-07
3.50389e-06 4.86864e-07 -5.54875e-07
0.00187884 -4.17984e-06 2.32034e-06
-4.17984e-06 0.00016732 -4.25981e-07
2.32034e-06 -4.25981e-07 6.45713e-05
0.00188546 5.87261e-06 -1.91958e-06
5.87261e-06 3.2919e-05 2.5169e-07
-1.91958e-06 2.5169e-07 -3.11558e-05
0.0019368 2.52265e-05 7.05959e-06
2.52265e-05 3.17843e-05 -2.57672e-07
7.05959e-06 -2.57672e-07 1.68463e-06
0.00188741 -4.60871e-05 6.17822e-08
-4.60871e-05 2.66667e-05 3.66209e-07
6.17822e-08 3.66209e-07 -3.37482e-05
0.0018646 -4.42498e-05 3.09882e-06
-4.42498e-05 0.000152971 -2.31534e-07
3.09882e-06 -2.31534e-07 4.8287e-05
0.00101588 -2.21165e-05 -1.252e-05
-2.21165e-05 -8.31777e-05 2.73198e-07
-1.252e-05 2.73198e-07 -0.000209956
0.00183176 -0.000101647 -2.02182e-08
-0.000101647 0.000130506 3.08435e-07
-2.02182e-08 3.08435e-07 9.24619e-06
0.00104049 -5.4788e-05 -6.75794e-07
-5.4788e-05 -7.21768e-05 -9.39196e-09
-6.75794e-07 -9.39196e-09 -0.000206735
0.000456447 -8.17043e-06 -1.88035e-05
-8.17043e-06 -0.000178245 2.16827e-06
-1.88035e-05 2.16827e-06 -0.000261962
0.00108218 -8.72555e-05 1.17299e-05
-8.72555e-05 -4.15166e-05 -1.73892e-06
1.17299e-05 -1.73892e-06 -0.000185043
0.000428827 -3.55711e-05 8.6353e-07
-3.55711e-05 -0.000194975 -2.09817e-07
8.6353e-07 -2.09817e-07 -0.000281074
0.006182 -0.000144117 -0.000305534
-0.000144117 0.00350454 1.51861e-05
-0.000305534 1.51861e-05 0.00351941
0.000416989 -5.66888e-05 1.79237e-05
-5.66888e-05 -0.000196797 -4.49052e-06
1.79237e-05 -4.49052e-06 -0.000289285
0.0062813 -8.43134e-05 7.58118e-06
-8.43134e-05 0.00355413 -3.23204e-08
7.58118e-06 -3.23204e-08 0.00357402
0.00175755 -3.29744e-05 0.000237344
-3.29744e-05 0.00073503 -1.53511e-05
0.000237344 -1.53511e-05 0.000724922
0.00190936 0.000115836 -3.08513e-06
0.000115836 3.59434e-05 2.55099e-07
-3.08513e-06 2.55099e-07 -4.44319e-05
0.00198409 0.000128621 -2.58539e-06
0.000128621 5.16035e-05 -4.30367e-07
-2.58539e-06 -4.30367e-07 5.53256e-06
0.00177865 0.000146263 1.11656e-06
0.000146263 9.06216e-05 1.16253e-06
1.11656e-06 1.16253e-06 -3.59954e-05
0.00200716 0.000173932 9.13475e-07
0.000173932 0.000104966 9.82476e-08
9.13475e-07 9.82476e-08 1.85625e-05
0.00197615 0.000152838 4.24832e-06
0.000152838 3.43594e-05 4.33392e-08
4.24832e-06 4.33392e-08 -1.11263e-05
0.00113082 0.000124913 -1.26539e-05
0.000124913 -1.51211e-05 -1.80673e-06
-1.26539e-05 -1.80673e-06 -0.000164861
0.00180552 0.000208259 1.75391e-07
0.000208259 0.000114541 1.7357e-08
1.75391e-07 1.7357e-08 -2.90115e-05
0.0020304 0.000238765 1.48602e-06
0.000238765 0.000113832 -1.32231e-06
1.48602e-06 -1.32231e-06 8.84443e-06
0.000393405 6.88586e-05 -1.78762e-05
6.88586e-05 -0.000217688 -5.44273e-06
-1.78762e-05 -5.44273e-06 -0.000310352
0.00108532 0.000166484 -1.1363e-06
0.000166484 -4.80601e-05 2.42247e-07
-1.1363e-06 2.42247e-07 -0.000208868
0.00185127 0.000271844 2.4317e-06
0.000271844 0.000160104 6.25348e-08
2.4317e-06 6.25348e-08 -7.33523e-06
0.00650788 0.000264537 -0.000319693
0.000264537 0.00371258 -3.13692e-05
-0.000319693 -3.13692e-05 0.00371311
0.000397271 9.67886e-05 -1.0995e-07
9.67886e-05 -0.000210031 1.90438e-07
-1.0995e-07 1.90438e-07 -0.000308049
0.0009822 0.000196448 1.15662e-05
0.000196448 -0.000103831 3.52457e-06
1.15662e-05 3.52457e-06 -0.000274762
0.00667902 0.000269709 1.08672e-05
0.000269709 0.0038207 4.5839e-06
1.08672e-05 4.5839e-06 0.00381635
0.000408772 0.000129183 1.88715e-05
0.000129183 -0.000189828 1.08777e-05
1.88715e-05 1.08777e-05 -0.000297027
0.00679959 0.000203233 0.000301156
0.000203233 0.00388178 3.2528e-05
0.000301156 3.2528e-05 0.00388553
0.00183674 4.37359e-05 3.57667e-06
4.37359e-05 0.000141116 6.09306e-08
3.57667e-06 6.09306e-08 3.59337e-05
0.00188922 4.91085e-05 -3.05982e-06
4.91085e-05 3.34606e-05 -6.15495e-08
-3.05982e-06 -6.15495e-08 -3.54466e-05
0.00194672 7.49511e-05 6.30594e-06
7.49511e-05 5.27642e-05 -1.84758e-07
6.30594e-06 -1.84758e-07 1.20174e-05
0.00100479 -9.21164e-06 -1.28178e-05
-9.21164e-06 -8.07814e-05 -1.06031e-07
-1.28178e-05 -1.06031e-07 -0.000205655
0.00185565 6.15975e-07 3.38162e-06
6.15975e-07 0.00015209 -1.21911e-07
3.38162e-06 -1.21911e-07 4.94142e-05
0.00185713 6.17913e-06 -1.32171e-07
6.17913e-06 1.21766e-05 2.76552e-07
-1.32171e-07 2.76552e-07 -4.95097e-05
0.00184176 -4.36768e-05 4.2396e-06
-4.36768e-05 0.000137263 1.63635e-07
4.2396e-06 1.63635e-07 3.28183e-05
0.00100684 -2.32584e-05 -3.95364e-07
-2.32584e-05 -9.0671e-05 -1.51039e-08
-3.95364e-07 -1.51039e-08 -0.000217733
0.000459822 -3.21777e-05 -1.92966e-05
-3.21777e-05 -0.000174909 1.02928e-06
-1.92966e-05 1.02928e-06 -0.000255484
0.00104012 -5.38445e-05 1.14919e-05
-5.38445e-05 -7.0311e-05 -1.27835e-06
1.14919e-05 -1.27835e-06 -0.000206773
0.000434737 3.24841e-06 3.65712e-07
3.24841e-06 -0.000192473 4.95056e-08
3.65712e-07 4.95056e-08 -0.000275101
0.00611537 -0.000115668 -0.000307422
-0.000115668 0.00346198 1.12241e-05
-0.000307422 1.12241e-05 0.00347986
0.000442423 -4.2707e-05 1.8758e-05
-4.2707e-05 -0.000184191 -3.08836e-06
1.8758e-05 -3.08836e-06 -0.000271446
0.0061814 -3.85445e-05 -3.02624e-06
-3.85445e-05 0.00349229 2.60722e-06
-3.02624e-06 2.60722e-06 0.00351449
0.00625591 -9.91415e-05 0.000304739
-9.91415e-05 0.00353901 -1.34774e-05
0.000304739 -1.34774e-05 0.0035593
0.00171708 8.91617e-05 1.14359e-06
8.91617e-05 5.70823e-05 4.95005e-07
1.14359e-06 4.95005e-07 -5.89148e-05
0.0019248 0.000114429 -3.29184e-06
0.000114429 4.12344e-05 -6.8859e-07
-3.29184e-06 -6.8859e-07 -3.33115e-05
0.0019725 0.000131418 4.16822e-06
0.000131418 3.67242e-05 -1.41993e-07
4.16822e-06 -1.41993e-07 -5.51477e-06
0.00112493 8.11353e-05 -1.21564e-05
8.11353e-05 -1.37372e-05 -1.27078e-06
-1.21564e-05 -1.27078e-06 -0.000152887
0.00178607 0.000145137 2.55271e-07
0.000145137 9.80256e-05 -4.72575e-08
2.55271e-07 -4.72575e-08 -2.87079e-05
0.00198067 0.000172637 1.05949e-06
0.000172637 8.62204e-05 -1.66986e-06
1.05949e-06 -1.66986e-06 -2.73637e-07
0.000427839 4.6394e-05 -1.74709e-05
4.6394e-05 -0.000196558 -3.91262e-06
-1.74709e-05 -3.91262e-06 -0.000285569
0.00109992 0.000126486 3.80532e-07
0.000126486 -3.48625e-05 2.44591e-07
3.80532e-07 2.44591e-07 -0.000185692
0.00180227 0.000206918 5.74018e-07
0.000206918 0.000115839 -9.57681e-07
5.74018e-07 -9.57681e-07 -2.77167e-05
0.00633984 0.000225004 -0.00032795
0.000225004 0.00360917 -2.58949e-05
-0.00032795 -2.58949e-05 0.00361587
0.000429867 7.4797e-05 3.74823e-07
7.4797e-05 -0.000195298 1.71052e-07
3.74823e-07 1.71052e-07 -0.000289102
0.00105898 0.000165543 1.15253e-05
0.000165543 -6.10892e-05 2.90888e-06
1.15253e-05 2.90888e-06 -0.000223978
0.00655223 0.000280268 5.97834e-06
0.000280268 0.0037455 3.36746e-06
5.97834e-06 3.36746e-06 0.00374368
0.0004536 0.000102135 1.82867e-05
0.000102135 -0.000175986 8.32545e-06
1.82867e-05 8.32545e-06 -0.00027512
0.00670893 0.000301752 0.000317864
0.000301752 0.00384583 3.9067e-05
0.000317864 3.9067e-05 0.00383809
0.00104369 2.32041e-05 -1.25103e-05
2.32041e-05 -4.98749e-05 -4.98745e-07
-1.25103e-05 -4.98745e-07 -0.000179637
0.00180417 4.05301e-05 3.57764e-06
4.05301e-05 0.000118172 6.56154e-08
3.57764e-06 6.56154e-08 1.52491e-05
0.00189124 4.85773e-05 -1.9916e-06
4.85773e-05 3.9795e-05 -1.26244e-07
-1.9916e-06 -1.26244e-07 -3.0564e-05
0.00049678 3.19397e-05 -1.9879e-05
3.19397e-05 -0.000160143 -6.46187e-07
-1.9879e-05 -6.46187e-07 -0.000232738
0.000984231 -3.40248e-06 -5.3963e-07
-3.40248e-06 -9.53567e-05 1.59076e-09
-5.3963e-07 1.59076e-09 -0.000220347
0.00182738 6.72699e-06 4.42752e-06
6.72699e-06 0.0001334 1.15389e-07
4.42752e-06 1.15389e-07 3.07829e-05
0.000995129 -2.39759e-05 1.1782e-05
-2.39759e-05 -0.000100076 -5.52862e-07
1.1782e-05 -5.52862e-07 -0.000227399
0.000456176 -5.58273e-06 3.93089e-07
-5.58273e-06 -0.000177219 3.8328e-07
3.93089e-07 3.8328e-07 -0.000257858
0.00602422 1.90166e-05 -0.000309831
1.90166e-05 0.00339899 1.13643e-06
-0.000309831 1.13643e-06 0.00342332
0.000413688 1.49314e-05 1.83067e-05
1.49314e-05 -0.000207022 -1.23002e-06
1.83067e-05 -1.23002e-06 -0.00028828
0.00607655 -0.000113669 -7.7537e-06
-0.000113669 0.00343958 1.90851e-06
-7.7537e-06 1.90851e-06 0.00345692
0.00611779 -2.01936e-05 0.000292412
-2.01936e-05 0.00345321 -6.90675e-06
0.000292412 -6.90675e-06 0.0034754
0.00109119 4.70419e-05 -1.23582e-05
4.70419e-05 -2.63491e-05 -1.07718e-06
-1.23582e-05 -1.07718e-06 -0.000158851
0.00176527 8.66003e-05 -2.92904e-07
8.66003e-05 8.68713e-05 -3.18101e-07
-2.92904e-07 -3.18101e-07 -2.48811e-05
0.00196097 0.000112911 -2.66356e-06
0.000112911 5.98951e-05 -1.84529e-06
-2.66356e-06 -1.84529e-06 -8.727e-06
0.00268087 6.19729e-05 -0.00014341
6.19729e-05 0.00120284 -4.95733e-06
-0.00014341 -4.95733e-06 0.00115091
0.00107521 8.26097e-05 3.21731e-07
8.26097e-05 -4.5167e-05 1.26457e-07
3.21731e-07 1.26457e-07 -0.000185176
0.00179125 0.000143864 4.07046e-07
0.000143864 0.000103996 -1.10824e-06
4.07046e-07 -1.10824e-06 -2.28691e-05
0.00619243 0.000164656 -0.000326607
0.000164656 0.00351247 -1.85695e-05
-0.000326607 -1.85695e-05 0.00352751
0.000459372 6.55023e-05 8.82964e-07
6.55023e-05 -0.000174854 4.18124e-07
8.82964e-07 4.18124e-07 -0.000265915
0.00107048 0.000127946 1.26325e-05
0.000127946 -5.35704e-05 2.15678e-06
1.26325e-05 2.15678e-06 -0.000205458
0.00642927 0.000240187 1.36059e-06
0.000240187 0.00366571 1.60678e-06
1.36059e-06 1.60678e-06 0.00367115
0.00047545 8.35753e-05 1.84675e-05
8.35753e-05 -0.000166107 6.52196e-06
1.84675e-05 6.52196e-06 -0.000261714
0.00658505 0.000314138 0.000327079
0.000314138 0.00377867 3.90691e-05
0.000327079 3.90691e-05 0.00377001
0.00056517 1.16921e-05 -1.58786e-05
1.16921e-05 -0.000107094 -1.83371e-06
-1.58786e-05 -1.83371e-06 -0.000188924
0.00100476 2.25207e-05 2.97837e-07
2.25207e-05 -7.81713e-05 2.03578e-07
2.97837e-07 2.03578e-07 -0.00020619
0.00177192 3.62318e-05 3.76436e-06
3.62318e-05 9.5281e-05 -9.28161e-08
3.76436e-06 -9.28161e-08 -5.33674e-06
0.00587213 -0.000100776 -0.000292834
-0.000100776 0.00332297 3.50829e-06
-0.000292834 3.50829e-06 0.0033364
0.000451474 9.36437e-06 -5.87271e-07
9.36437e-06 -0.000183668 -5.65163e-08
-5.87271e-07 -5.65163e-08 -0.000258915
0.000982193 1.23032e-06 1.17005e-05
1.23032e-06 -9.86418e-05 -5.27113e-08
1.17005e-05 -5.27113e-08 -0.000223686
0.000411785 2.09617e-05 1.85488e-05
2.09617e-05 -0.00020602 1.96973e-07
1.85488e-05 1.96973e-07 -0.000285564
0.0059675 -1.66251e-05 2.08613e-06
-1.66251e-05 0.00336981 -1.52354e-06
2.08613e-06 -1.52354e-06 0.0033897
0.00606467 -3.48474e-05 0.000298625
-3.48474e-05 0.00342061 -4.71421e-06
0.000298625 -4.71421e-06 0.00344387
0.00276597 1.55068e-05 -0.000138205
1.55068e-05 0.0012538 -2.82095e-06
-0.000138205 -2.82095e-06 0.00120493
0.00106475 5.02054e-05 8.65813e-08
5.02054e-05 -4.44312e-05 -3.05731e-09
8.65813e-08 -3.05731e-09 -0.000177602
0.00180494 8.42081e-05 6.50235e-07
8.42081e-05 0.000111394 -9.69988e-07
6.50235e-07 -9.69988e-07 3.90137e-06
0.00570522 -3.7128e-05 -0.000125466
-3.7128e-05 0.00322253 4.24124e-07
-0.000125466 4.24124e-07 0.00321086
0.000469624 5.77516e-05 1.63108e-07
5.77516e-05 -0.000167566 2.43158e-07
1.63108e-07 2.43158e-07 -0.000253475
0.00104218 8.47536e-05 1.21091e-05
8.47536e-05 -6.69054e-05 1.48859e-06
1.21091e-05 1.48859e-06 -0.000207721
0.00626953 0.000140213 -1.05724e-05
0.000140213 0.00355482 -1.73653e-06
-1.05724e-05 -1.73653e-06 0.00357114
0.000486948 8.85527e-05 1.96957e-05
8.85527e-05 -0.000157172 5.52773e-06
1.96957e-05 5.52773e-06 -0.000249273
0.00649096 0.000264337 0.000334545
0.000264337 0.00371029 3.34765e-05
0.000334545 3.34765e-05 0.00371291
0.00178011 -5.33701e-05 -0.000234287
-5.33701e-05 0.000749708 1.32809e-06
-0.000234287 1.32809e-06 0.000748066
0.00161108 3.08602e-05 -5.91541e-05
3.08602e-05 0.00053495 1.12947e-07
-5.91541e-05 1.12947e-07 0.000474784
0.000961131 2.44717e-05 1.25111e-05
2.44717e-05 -0.000108986 6.7413e-07
1.25111e-05 6.7413e-07 -0.000235335
0.00594917 -4.73783e-05 6.99921e-06
-4.73783e-05 0.00336408 2.47839e-06
6.99921e-06 2.47839e-06 0.00338289
0.000466845 -1.19048e-05 1.91619e-05
-1.19048e-05 -0.000167681 7.03765e-07
1.91619e-05 7.03765e-07 -0.000246848
0.00600802 -8.03677e-05 0.000311528
-8.03677e-05 0.00339824 -4.53292e-06
0.000311528 -4.53292e-06 0.00341793
0.00134645 2.12732e-05 -5.944e-05
2.12732e-05 0.000507731 -9.43437e-07
-5.944e-05 -9.43437e-07 0.000469848
0.00159845 1.8224e-05 -5.98296e-05
1.8224e-05 0.000530253 -1.30408e-06
-5.98296e-05 -1.30408e-06 0.000465867
0.0010284 5.19218e-05 1.22196e-05
5.19218e-05 -6.84243e-05 1.08288e-06
1.22196e-05 1.08288e-06 -0.000202287
0.00376594 6.6248e-05 0.000115613
6.6248e-05 0.00199962 3.39489e-06
0.000115613 3.39489e-06 0.00199163
0.000478104 6.82104e-05 1.99163e-05
6.82104e-05 -0.000162291 4.2321e-06
1.99163e-05 4.2321e-06 -0.000248169
0.00635329 0.000128081 0.000318738
0.000128081 0.0035989 2.00246e-05
0.000318738 2.00246e-05 0.00361896
0.00590257 -2.01515e-05 -8.88995e-06
-2.01515e-05 0.00333843 -3.05725e-06
-8.88995e-06 -3.05725e-06 0.00335599
0.000461288 4.99212e-05 2.07568e-05
4.99212e-05 -0.000181977 2.32749e-06
2.07568e-05 2.32749e-06 -0.000254155
0.00586043 3.86723e-05 0.00029949
3.86723e-05 0.00330491 2.0996e-07
0.00029949 2.0996e-07 0.00332731
0.00365823 3.15348e-05 0.000127843
3.15348e-05 0.0019375 4.93813e-06
0.000127843 4.93813e-06 0.00193131
0.000491225 8.58599e-06 1.91079e-05
8.58599e-06 -0.000154404 2.55987e-06
1.91079e-05 2.55987e-06 -0.00023502
0.00614434 -1.85553e-06 0.000305884
-1.85553e-06 0.00347128 8.82226e-06
0.000305884 8.82226e-06 0.00349281
0.00595005 -0.000119525 0.000297102
-0.000119525 0.0033722 -4.17177e-06
0.000297102 -4.17177e-06 0.00338526
0.00596157 7.04711e-06 0.000298976
7.04711e-06 0.00335834 5.04519e-06
0.000298976 5.04519e-06 0.00338293
