# vtk DataFile Version 2.0
Wound Healing Simulation
ASCII
DATASET UNSTRUCTURED_GRID
POINTS 3012 float
69.9759 18.75 4
67.2507 60.3285 4
69.976 18.75 2
73.0099 25.446 4
71.1327 20.9142 4
68.6801 16.6661 4
67.8248 19.9262 3.9809
67.2507 60.3286 2
71.1327 54.0858 4
68.6801 58.3339 4
65.6939 62.2254 4
65.3113 59.0007 3.97988
74.6784 42.3946 4
73.7221 47.2057 4
69.9759 18.75 0
73.0099 25.446 2
68.6801 16.6661 2
71.1327 20.9142 2
67.8254 19.9295 2
74.6792 32.6053 4
73.7222 27.7943 4
72.1454 23.1494 4
70.6135 26.2209 3.98047
68.885 21.958 3.98136
67.2507 14.6715 4
66.6362 17.9723 3.98009
65.7944 21.0267 3.9704
67.2507 60.3285 0
71.1327 54.0858 2
68.6801 58.3339 2
65.694 62.2255 2
65.3125 58.9969 2
72.1454 51.8506 4
69.9759 56.25 4
68.8357 53.113 3.9805
64.0165 64.0165 4
66.61 57.1335 3.98066
63.8845 60.7651 3.98033
63.4976 57.7684 3.97147
60.3285 67.2507 4
74.6792 42.3947 2
73.7222 47.2057 2
74.9194 39.9526 4
74.2788 44.8158 4
72.1678 42.0854 3.98004
73.0099 49.554 4
71.2488 46.5979 3.97971
73.0099 25.446 0
71.1327 20.9142 0
68.6801 16.6661 0
67.8248 19.9262 0.0191046
74.6792 32.6053 2
73.7222 27.7943 2
67.2508 14.6715 2
72.1455 23.1494 2
70.6135 26.2214 2
66.6372 17.9764 2
68.8853 21.9601 2
65.7938 21.0277 2
74.9197 35.0474 4
74.2794 30.1841 4
72.1844 32.9433 3.98034
71.2776 28.4313 3.98001
69.8149 24.0595 3.98112
68.3446 26.9521 3.9695
66.76 22.9342 3.96996
65.694 12.7746 4
65.3225 16.1044 3.9796
64.7108 19.1975 3.97114
63.8809 22.0396 3.96683
71.1327 54.0858 0
65.6939 62.2254 0
68.6801 58.3339 0
65.3113 59.0007 0.0201171
72.1455 51.8506 2
69.9759 56.25 2
68.8359 53.111 2
64.0165 64.0165 2
66.6109 57.1298 2
63.8862 60.7617 2
63.4971 57.7681 2
62.2254 65.694 4
58.894 65.4139 3.98963
69.7683 50.9888 3.98028
67.783 55.167 3.98042
66.647 52.2079 3.9691
62.3352 62.427 3.98453
64.6583 56.0296 3.97107
62.1993 59.3982 3.96996
61.8169 56.6739 3.96656
58.3339 68.6801 4
60.3285 67.2508 2
73.7221 47.2057 0
74.6784 42.3946 0
74.9197 39.9526 2
74.2794 44.8159 2
72.1673 42.0854 2
73.0099 49.554 2
71.2486 46.5977 2
75 37.5 4
72.4051 39.8021 3.98062
71.7821 44.3527 3.98006
69.8022 41.7893 3.96955
70.5745 48.8134 3.97984
68.9101 46.0139 3.96916
74.6792 32.6053 0
73.7222 27.7943 0
67.2507 14.6715 0
72.1454 23.1494 0
70.6135 26.2209 0.0195269
68.885 21.958 0.0186392
66.6362 17.9723 0.0199146
65.7944 21.0267 0.029596
74.9197 35.0474 2
74.2794 30.1841 2
72.1839 32.9437 2
71.2775 28.4318 2
65.694 12.7745 2
65.324 16.1086 2
69.815 24.0606 2
68.3445 26.9527 2
64.7103 19.1983 2
66.7596 22.9351 2
63.8803 22.0401 2
72.4129 35.2241 3.98067
71.8035 30.6762 3.98039
69.8382 33.2686 3.96979
68.964 29.0386 3.96949
67.6089 24.9128 3.96964
66.1832 27.6377 3.9671
64.0165 10.9835 4
64.749 23.8335 3.96692
63.889 14.3283 3.9815
63.5098 17.4517 3.97122
62.9004 20.3265 3.96674
62.0603 22.9566 3.96684
60.6832 11.0986 3.98581
57.6112 11.4529 3.97749
72.1454 51.8506 0
69.9759 56.25 0
68.8357 53.113 0.0194998
64.0165 64.0165 0
63.8845 60.7651 0.0196748
66.61 57.1335 0.0193437
63.4976 57.7684 0.0285304
62.2255 65.694 2
58.8954 65.4131 2
69.7683 50.9879 2
67.7835 55.164 2
66.6465 52.2071 2
62.3372 62.4246 2
64.6578 56.0291 2
62.1987 59.3986 2
61.8163 56.6738 2
60.6679 63.9765 3.98688
57.0252 66.7347 3.9911
57.5566 63.6884 3.97948
67.5052 50.1755 3.96886
65.6992 54.1718 3.96959
64.5278 51.3804 3.96607
60.771 60.933 3.97428
62.8144 55.0623 3.96687
60.6498 58.1481 3.96421
60.3183 55.7734 3.96632
56.25 69.9759 4
58.3339 68.6801 2
60.3285 67.2507 0
58.9206 9.65676 3.98737
62.2254 9.30607 4
73.0099 49.554 0
74.2788 44.8158 0
71.2488 46.5979 0.020293
72.1678 42.0854 0.0199642
74.9194 39.9526 0
75 37.5 2
72.405 39.8023 2
71.782 44.3524 2
69.8017 41.789 2
70.5744 48.8131 2
68.9101 46.0134 2
72.4884 37.512 3.98022
70.0395 39.6571 3.96962
69.4284 43.9069 3.96945
67.5855 41.4956 3.9682
68.2636 48.106 3.96885
66.6927 45.4359 3.96743
74.9197 35.0474 0
74.2794 30.1841 0
72.1844 32.9433 0.0196586
71.2776 28.4313 0.0199884
65.694 12.7746 0
65.3225 16.1044 0.0203989
69.8149 24.0595 0.0188822
68.3446 26.9521 0.0304976
66.76 22.9342 0.0300366
64.7108 19.1975 0.0288592
63.8809 22.0396 0.033173
72.4129 35.2243 2
71.8035 30.6768 2
69.8377 33.269 2
68.964 29.0392 2
64.0165 10.9835 2
63.891 14.332 2
63.5093 17.4526 2
67.6087 24.9135 2
66.1833 27.638 2
62.8997 20.3269 2
64.7486 23.834 2
62.0596 22.9571 2
60.6855 11.1012 2
57.6122 11.4514 2
70.0563 35.392 3.9698
69.4652 31.1498 3.9696
67.6466 33.5922 3.96803
66.7601 29.6254 3.96736
65.5138 25.7025 3.96698
64.0879 28.2675 3.96986
62.3409 12.6558 3.98449
62.8156 24.6504 3.968
62.1957 15.7915 3.9719
61.8055 18.6941 3.96651
61.19 21.3563 3.96547
60.3532 23.7518 3.96896
59.2446 12.785 3.97523
55.8738 10.238 3.97975
56.4032 13.1279 3.97406
69.7683 50.9888 0.0197183
62.2254 65.694 0
58.894 65.4139 0.0103664
67.783 55.167 0.0195835
66.647 52.2079 0.0308968
62.3352 62.427 0.0154708
62.1993 59.3982 0.0300356
64.6583 56.0296 0.0289271
61.8169 56.6739 0.0334365
60.6696 63.9749 2
57.0262 66.7343 2
57.5568 63.69 2
67.5048 50.1747 2
65.6986 54.171 2
64.5277 51.3801 2
60.7708 60.9339 2
62.8138 55.0621 2
60.6495 58.1482 2
60.3178 55.7732 2
55.0711 67.9315 3.99177
59.2173 62.3613 3.97551
55.8041 64.908 3.98404
56.3245 62.0807 3.97521
65.3171 49.4033 3.96638
63.6999 53.2876 3.96604
62.3917 50.6359 3.96716
59.3279 59.5471 3.96898
61.0621 54.2968 3.96579
59.2717 56.9944 3.96396
59.2276 55.1666 3.96526
48.1018 68.5774 3.98726
50.9489 69.9312 3.99193
54.0858 71.1327 4
56.25 69.976 2
58.3339 68.6801 0
57.0581 8.33653 3.98875
60.3285 7.74928 4
58.9228 9.65824 2
62.2255 9.30602 2
70.5745 48.8134 0.02016
71.7821 44.3527 0.0199351
68.9101 46.0139 0.0308376
69.8022 41.7893 0.0304547
72.4051 39.8021 0.0193838
75 37.5 0
72.488 37.5122 2
70.0395 39.657 2
69.4283 43.9065 2
67.5855 41.4954 2
68.2635 48.1054 2
66.6923 45.4356 2
70.1275 37.5215 3.96966
67.8254 39.5113 3.96826
67.2081 43.467 3.96785
65.4882 41.2031 3.97201
66.0516 47.4133 3.96691
64.5784 44.8359 3.97031
72.4129 35.2241 0.0193252
71.8035 30.6762 0.0196074
69.8382 33.2686 0.0302064
68.964 29.0386 0.0305119
64.0165 10.9835 0
63.889 14.3283 0.0184985
63.5098 17.4517 0.0287805
67.6089 24.9128 0.0303598
66.1832 27.6377 0.0328962
64.749 23.8335 0.0330819
62.9004 20.3265 0.0332597
62.0603 22.9566 0.0331586
60.6832 11.0986 0.0141945
57.6112 11.4529 0.0225143
70.0562 35.3922 2
69.4651 31.1502 2
67.6468 33.5924 2
66.7603 29.6258 2
62.3431 12.6591 2
62.1954 15.7917 2
61.8047 18.6945 2
65.5136 25.703 2
64.0869 28.2679 2
61.189 21.3567 2
62.8149 24.6509 2
60.353 23.7525 2
59.2454 12.7847 2
56.4038 13.1261 2
55.8744 10.2366 2
67.8635 35.5481 3.96826
67.2546 31.6244 3.96774
65.6415 33.9318 3.97204
64.6013 30.2022 3.97059
63.4892 26.4269 3.96907
62.1488 28.7982 3.97371
60.7735 14.2292 3.9748
60.9607 25.3614 3.97093
60.604 17.1408 3.96653
60.1991 19.8331 3.96387
59.5916 22.2847 3.96596
58.8729 24.3535 3.97144
54.0371 9.13908 3.98178
57.907 14.3447 3.97453
54.7851 12.0215 3.97506
55.3079 14.6671 3.9725
67.5052 50.1755 0.0311425
57.0252 66.7347 0.00890056
60.6679 63.9765 0.0131206
57.5566 63.6884 0.0205152
65.6992 54.1718 0.030406
64.5278 51.3804 0.0339312
60.771 60.933 0.0257173
60.6498 58.1481 0.0357883
62.8144 55.0623 0.0331328
60.3183 55.7734 0.0336755
55.0717 67.9314 2
59.2174 62.3625 2
55.804 64.9091 2
56.324 62.0829 2
65.3169 49.4029 2
63.6993 53.2873 2
62.3917 50.6357 2
59.3273 59.5486 2
61.0622 54.2967 2
59.2719 56.9942 2
59.2277 55.1662 2
53.0431 68.9993 3.99183
53.9665 66.0116 3.98551
57.8769 60.8597 3.97452
54.6829 63.2029 3.97899
55.207 60.5999 3.97415
63.1326 48.645 3.96829
61.7086 52.5606 3.96637
60.1738 49.9916 3.96898
58.0056 58.2466 3.96653
59.2943 53.9274 3.96704
58.092 55.7904 3.9616
50.1086 67.8557 3.98697
47.4627 66.5778 3.98378
46.0555 69.1564 3.98745
48.1018 68.5781 2
48.8029 70.7224 3.99204
50.9493 69.9312 2
51.8506 72.1454 4
54.0858 71.1327 2
56.25 69.9759 0
55.1029 7.14088 3.99035
58.3339 6.31992 4
57.0598 8.33727 2
60.3286 7.74926 2
58.9206 9.65676 0.0126276
62.2254 9.30607 0
68.2636 48.106 0.0311463
69.4284 43.9069 0.030553
66.6927 45.4359 0.0325652
67.5855 41.4956 0.0317999
70.0395 39.6571 0.0303776
72.4884 37.512 0.0197777
70.1271 37.5215 2
67.8253 39.5112 2
67.2088 43.4667 2
65.4871 41.2029 2
66.0517 47.4129 2
64.5772 44.8355 2
67.924 37.5218 3.9683
65.7258 39.3665 3.97228
65.1068 43.0158 3.97147
63.6321 40.9185 3.97652
63.8934 46.7018 3.96926
62.6779 44.196 3.97422
70.0563 35.392 0.0302026
69.4652 31.1498 0.0304037
67.6466 33.5922 0.0319652
66.7601 29.6254 0.0326433
62.3409 12.6558 0.0155138
62.1957 15.7915 0.0280994
61.8055 18.6941 0.0334852
65.5138 25.7025 0.0330233
64.0879 28.2675 0.0301445
62.8156 24.6504 0.0319971
61.19 21.3563 0.0345295
60.3532 23.7518 0.0310433
59.2446 12.785 0.0247741
56.4032 13.1279 0.0259437
55.8738 10.238 0.0202508
67.8632 35.5482 2
67.255 31.6246 2
65.6408 33.932 2
64.6003 30.2026 2
60.7736 14.2296 2
60.6037 17.1406 2
60.1999 19.8331 2
63.4885 26.4273 2
62.1471 28.7988 2
59.5933 22.2852 2
60.9602 25.3621 2
58.8721 24.3546 2
57.907 14.3435 2
55.3082 14.6667 2
54.0376 9.13765 2
54.7857 12.0192 2
65.817 35.6688 3.97224
65.1218 32.162 3.97114
64.185 34.2564 3.97646
62.4637 30.6543 3.97454
61.5529 27.0949 3.97211
60.7042 29.167 3.97721
59.3055 15.6805 3.97085
59.2016 25.8304 3.97438
59.1059 18.3748 3.96419
58.6893 20.8805 3.96299
58.1808 23.1282 3.96658
57.842 24.7047 3.97349
52.1119 8.15581 3.98416
53.0571 11.025 3.97714
56.6698 15.7609 3.97348
53.8061 13.6988 3.97462
54.3672 16.0232 3.97412
55.0711 67.9315 0.00822613
65.3171 49.4033 0.0336208
55.8041 64.908 0.0159633
59.2173 62.3613 0.024491
56.3245 62.0807 0.0247876
63.6999 53.2876 0.0339563
62.3917 50.6359 0.0328392
59.3279 59.5471 0.0310202
59.2717 56.9944 0.0360428
61.0621 54.2968 0.0342129
59.2276 55.1666 0.0347432
53.0436 68.9993 2
53.9665 66.0124 2
57.8762 60.8613 2
54.6823 63.2037 2
55.2068 60.6015 2
63.1319 48.6446 2
61.7094 52.5605 2
60.1736 49.991 2
58.0052 58.2479 2
59.296 53.9271 2
58.0908 55.7895 2
52.0698 66.9985 3.98664
52.9529 64.2149 3.98201
56.6407 59.475 3.97367
53.6781 61.6143 3.97611
54.251 59.3016 3.97407
60.8653 47.8524 3.96972
59.6333 52.0793 3.96776
57.885 49.5789 3.97065
56.7541 56.9645 3.96767
57.0655 54.0946 3.9648
50.1085 67.8561 2
49.3367 65.9184 3.9837
47.4627 66.5784 2
46.892 64.7311 3.9821
45.5578 67.0947 3.98386
43.9726 69.5885 3.98763
46.0555 69.157 2
46.6094 71.3669 3.99208
48.1018 68.5774 0.0127433
48.8033 70.7226 2
49.554 73.0099 4
50.9489 69.9312 0.00807468
51.8506 72.1455 2
54.0858 71.1327 0
53.0645 6.07211 3.99135
55.1042 7.141 2
56.25 5.02411 4
58.3339 6.3199 2
57.0581 8.33653 0.0112457
60.3285 7.74928 0
66.0516 47.4133 0.0330866
67.2081 43.467 0.0321507
64.5784 44.8359 0.0296942
65.4882 41.2031 0.0279909
67.8254 39.5113 0.0317383
70.1275 37.5215 0.0303385
67.924 37.5218 2
65.7245 39.3664 2
65.1057 43.0154 2
63.6298 40.9181 2
63.8922 46.7013 2
62.6756 44.1953 2
65.8315 37.5009 3.97231
63.7825 39.2606 3.97677
63.1941 42.5338 3.97535
62.2623 40.6812 3.97705
61.8383 45.8947 3.972
61.2762 43.6575 3.97733
67.8635 35.5481 0.0317386
67.2546 31.6244 0.0322593
65.6415 33.9318 0.0279578
64.6013 30.2022 0.0294081
60.7735 14.2292 0.0251981
60.604 17.1408 0.0334737
60.1991 19.8331 0.0361277
63.4892 26.4269 0.0309333
62.1488 28.7982 0.0262861
60.9607 25.3614 0.0290685
59.5916 22.2847 0.0340396
58.8729 24.3535 0.0285643
57.907 14.3447 0.0254698
55.3079 14.6671 0.0275017
54.0371 9.13908 0.0182236
54.7851 12.0215 0.0249412
65.8157 35.6688 2
65.121 32.1623 2
64.184 34.2567 2
62.4621 30.6547 2
59.3049 15.6806 2
59.1062 18.3746 2
58.694 20.8806 2
61.5519 27.0955 2
60.7033 29.1677 2
58.1797 23.1295 2
59.2009 25.8314 2
57.8417 24.7061 2
56.6698 15.7597 2
54.3671 16.0233 2
53.8062 13.6948 2
52.1122 8.15472 2
53.0574 11.0235 2
63.9828 35.6355 3.97609
62.7963 33.0594 3.97552
60.4397 30.6388 3.97679
59.418 27.9434 3.97541
57.928 17.0019 3.96834
57.5946 25.7684 3.97615
57.6827 19.5013 3.96146
57.2802 21.8785 3.96368
57.0457 23.9929 3.96783
50.1123 7.28649 3.98661
51.2322 10.1302 3.9797
52.1693 12.809 3.97628
55.5247 16.9953 3.9724
52.9717 15.2898 3.97187
53.7447 17.0086 3.9783
53.0431 68.9993 0.00816866
53.9665 66.0116 0.0144886
63.1326 48.645 0.0317052
54.6829 63.2029 0.0210065
57.8769 60.8597 0.0254777
55.207 60.5999 0.0258517
61.7086 52.5606 0.0336298
60.1738 49.9916 0.0310166
58.0056 58.2466 0.0334669
58.092 55.7904 0.0384021
59.2943 53.9274 0.0329561
52.0698 66.9992 2
52.9526 64.2157 2
56.6403 59.4761 2
53.6776 61.6147 2
54.2508 59.3034 2
60.8641 47.8516 2
59.6333 52.0787 2
57.8823 49.5777 2
56.753 56.9689 2
57.0635 54.0936 2
51.1678 65.1252 3.98368
52.0445 62.5326 3.97909
55.4666 58.2327 3.97466
52.8274 60.1172 3.97736
53.6255 58.4517 3.9791
58.1163 46.8076 3.97424
57.4608 51.7525 3.96716
56.0739 49.5095 3.97068
55.4348 55.7641 3.96293
55.2766 53.3482 3.96324
50.1086 67.8557 0.0130317
49.3366 65.9187 2
48.6178 64.1183 3.98261
47.4627 66.5778 0.0162176
45.5578 67.0953 2
46.8921 64.7316 2
46.3815 63.0464 3.98214
45.1323 65.1916 3.98196
43.631 67.4652 3.98399
41.8601 69.8757 3.98745
43.9726 69.589 2
44.3767 71.8617 3.99204
46.0555 69.1564 0.0125485
46.6098 71.3671 2
47.2057 73.7222 4
48.8029 70.7224 0.00795967
49.554 73.0099 2
51.8506 72.1454 0
50.9546 5.1325 3.992
53.0654 6.07211 2
54.0858 3.86728 4
55.1029 7.14088 0.00965176
56.25 5.02406 2
58.3339 6.31992 0
63.8934 46.7018 0.0307361
65.1068 43.0158 0.0285268
62.6779 44.196 0.0257849
63.6321 40.9185 0.023478
65.7258 39.3665 0.0277197
67.924 37.5218 0.0317018
65.8304 37.5009 2
63.7805 39.2603 2
63.1921 42.5332 2
62.2599 40.6807 2
61.8364 45.8939 2
61.2741 43.6567 2
63.8438 37.4558 3.97629
61.9817 39.3441 3.977
61.023 41.9342 3.97697
60.0681 44.7386 3.9767
65.817 35.6688 0.0277644
65.1218 32.162 0.0288622
64.185 34.2564 0.0235355
62.4637 30.6543 0.0254571
59.3055 15.6805 0.0291451
59.1059 18.3748 0.0358051
58.6893 20.8805 0.0370055
61.5529 27.0949 0.0278854
60.7042 29.167 0.0227865
59.2016 25.8304 0.0256239
58.1808 23.1282 0.0334243
57.842 24.7047 0.0265102
56.6698 15.7609 0.0265192
54.3672 16.0232 0.0258833
53.8061 13.6988 0.0253772
52.1119 8.15581 0.0158393
53.0571 11.025 0.022857
63.9812 35.6357 2
62.7948 33.0599 2
60.4382 30.6395 2
57.9273 17.0019 2
57.6853 19.5005 2
57.2832 21.8792 2
59.4172 27.9443 2
57.0448 23.9945 2
57.5944 25.7697 2
50.1126 7.28494 2
55.5247 16.9944 2
53.7445 17.0078 2
52.9718 15.2882 2
52.1699 12.808 2
51.2325 10.1289 2
62.0201 35.37 3.97687
60.0783 32.7705 3.97707
58.4127 30.1158 3.97701
57.1017 27.4294 3.97665
56.6154 18.181 3.96677
56.13 25.1554 3.97358
56.3041 20.5563 3.96017
55.9818 22.9185 3.96271
48.0567 6.52812 3.98847
49.3246 9.33534 3.98176
50.4318 12.0036 3.97709
51.3723 14.5157 3.97306
54.3945 17.9478 3.97389
52.3483 17.0708 3.96959
52.0698 66.9985 0.0133622
52.9529 64.2149 0.0179941
60.8653 47.8524 0.0302835
53.6781 61.6143 0.0238877
56.6407 59.475 0.0263323
54.251 59.3016 0.0259251
59.6333 52.0793 0.0322403
57.885 49.5789 0.0293513
56.7541 56.9645 0.0323268
57.0655 54.0946 0.0351974
51.1676 65.1258 2
52.0441 62.5332 2
55.4661 58.2339 2
52.8273 60.1206 2
53.6251 58.4527 2
58.1151 46.8065 2
57.4593 51.7515 2
56.0708 49.5085 2
55.4346 55.7646 2
55.279 53.3487 2
50.3457 63.3767 3.98223
51.2399 60.9256 3.97644
54.1957 57.2489 3.97479
52.2994 58.6103 3.97517
56.4339 44.1297 3.97742
55.2715 47.8438 3.97389
54.9398 51.3479 3.96611
53.9463 54.5108 3.96483
49.3367 65.9184 0.0162958
48.6178 64.1184 2
47.9613 62.4686 3.98181
45.5578 67.0947 0.0161378
46.892 64.7311 0.0178977
43.631 67.4658 2
46.3817 63.0469 2
45.1324 65.1923 2
45.9866 61.5775 3.9835
44.7668 63.4458 3.98066
43.3565 65.5007 3.98165
41.6632 67.6837 3.98385
39.7021 70.0224 3.98762
41.86 69.8763 2
42.111 72.2065 3.99209
43.9726 69.5885 0.0123744
44.377 71.8619 2
44.8159 74.2794 4
46.6094 71.3669 0.00791952
47.2057 73.7222 2
49.554 73.0099 0
48.7853 4.323 3.99259
50.9552 5.13196 2
51.8506 2.85458 4
53.0645 6.07211 0.00865489
54.0858 3.86728 2
56.25 5.02411 0
61.8383 45.8947 0.0279984
63.1941 42.5338 0.0246545
61.2762 43.6575 0.0226678
62.2623 40.6812 0.022948
63.7825 39.2606 0.0232339
65.8315 37.5009 0.0276852
63.8421 37.4558 2
61.9796 39.3441 2
61.0211 41.9335 2
60.067 44.7377 2
61.8186 37.4441 3.97731
60.0118 39.8267 3.97725
58.7372 42.8785 3.97703
63.9828 35.6355 0.0239113
62.7963 33.0594 0.0244762
60.4397 30.6388 0.0232095
57.928 17.0019 0.0316595
57.6827 19.5013 0.0385433
57.2802 21.8785 0.0363169
59.418 27.9434 0.0245943
57.5946 25.7684 0.0238507
57.0457 23.9929 0.0321664
55.5247 16.9953 0.0275972
53.7447 17.0086 0.0217006
52.9717 15.2898 0.0281298
50.1123 7.28649 0.0133904
52.1693 12.809 0.023723
51.2322 10.1302 0.0203013
62.0182 35.3704 2
60.0763 32.7708 2
58.4122 30.1168 2
56.6148 18.1808 2
56.3081 20.5537 2
55.9843 22.9199 2
57.1022 27.4305 2
56.1313 25.1571 2
48.0567 6.52703 2
49.325 9.33361 2
54.3949 17.9473 2
52.3481 17.0704 2
51.3719 14.5116 2
50.4323 12.002 2
59.656 35.1346 3.97708
57.7181 32.3095 3.97669
56.3132 29.3943 3.97738
55.2205 26.6658 3.9773
55.3079 19.2187 3.96272
54.7705 24.1195 3.96379
54.9176 21.6086 3.95999
45.9627 5.88302 3.98893
43.3742 7.47434 3.98594
47.3556 8.62591 3.98426
48.5995 11.301 3.97864
49.7093 13.7559 3.97648
50.6238 16.1594 3.97574
53.0982 18.6953 3.96863
51.282 18.0916 3.97827
51.1678 65.1252 0.0163177
52.0445 62.5326 0.0209057
58.1163 46.8076 0.0257648
52.8274 60.1172 0.0226364
55.4666 58.2327 0.0253352
53.6255 58.4517 0.0208984
57.4608 51.7525 0.0328393
56.0739 49.5095 0.0293155
55.4348 55.7641 0.0370676
55.2766 53.3482 0.0367553
50.3455 63.3769 2
51.2394 60.9257 2
54.1956 57.2501 2
52.299 58.6112 2
56.4328 44.1289 2
55.2709 47.8429 2
54.9413 51.3479 2
53.9471 54.512 2
49.5904 61.7389 3.98075
55.258 41.6706 3.97592
50.5569 59.3126 3.97396
52.1538 56.4657 3.96915
53.8758 45.4988 3.97502
53.136 49.2751 3.96984
52.57 52.8132 3.96221
48.6178 64.1183 0.0173881
47.9612 62.4684 2
47.3269 61.0015 3.98487
43.631 67.4652 0.0160136
45.1323 65.1916 0.0180365
46.3815 63.0464 0.0178635
41.6634 67.6839 2
43.3565 65.5016 2
45.9869 61.5781 2
44.767 63.4466 2
45.7632 60.6215 3.98291
44.4829 61.8246 3.98093
43.1462 63.7173 3.97998
41.5461 65.6382 3.98086
39.6326 67.7629 3.98352
37.526 70.0472 3.98712
39.702 70.023 2
39.8178 72.4034 3.9919
41.8601 69.8757 0.0125478
42.1113 72.2068 2
42.3947 74.6792 4
44.3767 71.8617 0.00795884
44.8159 74.2794 2
47.2057 73.7222 0
43.8519 5.35992 3.98894
46.5712 3.64748 3.99272
48.7856 4.32256 2
49.554 1.99015 4
50.9546 5.1325 0.00800473
51.8506 2.85453 2
54.0858 3.86728 0
60.0681 44.7386 0.0232981
61.023 41.9342 0.0230338
61.9817 39.3441 0.0230006
63.8438 37.4558 0.0237055
61.8172 37.4442 2
60.0109 39.8269 2
58.736 42.8775 2
59.5135 37.5649 3.97743
57.6924 40.6272 3.97743
54.6844 39.6862 3.97542
62.0201 35.37 0.0231262
60.0783 32.7705 0.0229257
58.4127 30.1158 0.0229909
56.6154 18.181 0.0332312
56.3041 20.5563 0.0398293
55.9818 22.9185 0.0372855
57.1017 27.4294 0.0233475
56.13 25.1554 0.0264163
54.3945 17.9478 0.0261141
52.3483 17.0708 0.0304126
51.3723 14.5157 0.0269383
48.0567 6.52812 0.0115275
49.3246 9.33534 0.0182386
50.4318 12.0036 0.0229149
59.6554 35.1342 2
45.9626 5.88229 2
43.3741 7.47356 2
57.7177 32.3101 2
56.3124 29.3955 2
55.3077 19.2192 2
54.9247 21.6079 2
54.7699 24.1219 2
55.2174 26.6683 2
47.3557 8.6241 2
48.5999 11.299 2
53.0994 18.6946 2
51.2826 18.0925 2
50.6241 16.1592 2
49.7092 13.7546 2
57.0798 34.7773 3.97739
55.4361 31.5672 3.97704
54.2329 28.4812 3.97764
53.5804 25.5763 3.97593
53.9207 20.1762 3.96326
53.4659 22.7735 3.95557
41.3993 7.08015 3.98611
45.3604 7.99578 3.98649
42.8663 9.41769 3.98286
46.667 10.6573 3.98134
47.7422 13.1121 3.97842
48.9236 15.4189 3.97353
49.9885 17.7243 3.97537
51.6165 19.3696 3.97738
50.3457 63.3767 0.0177741
51.2399 60.9256 0.0235561
56.4339 44.1297 0.0225767
55.2715 47.8438 0.0261133
52.2994 58.6103 0.0248265
54.1957 57.2489 0.0252117
54.9398 51.3479 0.0338944
53.9463 54.5108 0.0351726
49.5899 61.7388 2
55.2558 41.6693 2
50.5567 59.3139 2
52.1536 56.467 2
53.8788 45.4989 2
53.1423 49.2753 2
52.5703 52.8124 2
48.8431 60.195 3.9786
52.1059 42.5679 3.98115
49.7687 57.6053 3.9713
50.5272 54.4004 3.96383
51.5433 47.207 3.97583
51.0649 50.901 3.95707
47.7657 43.7046 3.98835
47.9613 62.4686 0.0181875
47.327 61.0013 2
46.6135 59.7886 3.98518
41.6632 67.6837 0.0161475
43.3565 65.5007 0.0183531
44.7668 63.4458 0.0193384
45.9866 61.5775 0.0164966
39.6329 67.7636 2
41.546 65.638 2
45.7633 60.6222 2
43.1463 63.7183 2
44.4832 61.8254 2
44.62 60.2816 3.98379
42.95 62.0713 3.97832
41.5998 63.8105 3.98011
39.6475 65.6052 3.97981
37.5634 67.7443 3.98267
31.6973 65.1245 3.98095
33.3925 67.4825 3.98243
35.3339 69.9574 3.98732
37.5259 70.0481 2
37.5095 72.458 3.99192
39.7021 70.0224 0.012382
39.818 72.4038 2
39.9526 74.9197 4
42.111 72.2065 0.00790877
42.3947 74.6792 2
44.8159 74.2794 0
41.7365 4.96909 3.98912
43.8519 5.35911 2
44.3265 3.11062 3.99305
46.5714 3.64712 2
47.2057 1.27793 4
48.7853 4.323 0.00740961
49.554 1.99013 2
51.8506 2.85458 0
58.7372 42.8785 0.0229672
60.0118 39.8267 0.0227494
61.8186 37.4441 0.0226867
59.5138 37.5652 2
57.6922 40.6277 2
54.6836 39.6864 2
56.4702 37.8852 3.97718
49.1382 41.2746 3.98684
52.7022 39.3057 3.98341
39.4429 6.80397 3.98604
59.656 35.1346 0.0229194
57.7181 32.3095 0.0233127
56.3132 29.3943 0.0226196
55.3079 19.2187 0.0372786
54.9176 21.6086 0.0400129
54.7705 24.1195 0.0362132
55.2205 26.6658 0.0227028
53.0982 18.6953 0.0313683
51.282 18.0916 0.0217317
50.6238 16.1594 0.024262
45.9627 5.88302 0.011068
49.7093 13.7559 0.0235219
47.3556 8.62591 0.0157416
48.5995 11.301 0.021357
43.3742 7.47434 0.0140595
57.0792 34.777 2
41.3993 7.079 2
45.3602 7.99505 2
42.8661 9.41698 2
55.4392 31.5659 2
54.2328 28.4817 2
53.9218 20.1784 2
53.4656 22.7718 2
53.5786 25.5783 2
46.6671 10.6544 2
47.7425 13.1093 2
51.6181 19.3698 2
49.9881 17.7222 2
48.9231 15.4189 2
54.4858 33.9759 3.97603
53.1779 30.5699 3.97755
52.3266 27.2941 3.97577
51.9974 24.1839 3.97719
52.3235 21.1078 3.97393
41.0138 9.05159 3.98258
44.7254 9.99603 3.98457
42.4682 10.9043 3.98582
46.0033 12.7359 3.97728
47.6744 14.597 3.97353
48.0957 17.0037 3.97319
49.7966 19.7101 3.97272
49.5904 61.7389 0.0192454
50.5569 59.3126 0.0260419
55.258 41.6706 0.0240825
53.8758 45.4988 0.0249755
53.136 49.2751 0.0301583
52.1538 56.4657 0.0308543
52.57 52.8132 0.0377883
48.8427 60.1936 2
52.1191 42.5715 2
49.7682 57.6061 2
50.5271 54.4019 2
51.5465 47.2072 2
51.0654 50.8992 2
47.776 43.7287 2
47.974 58.7281 3.97897
49.7203 45.2101 3.97887
48.5572 55.898 3.97565
49.032 52.5614 3.97726
49.4751 48.9919 3.9739
45.5385 39.8408 3.88115
45.9998 42.5774 3.91297
46.1693 45.7418 3.98459
43.3482 41.0938 3.77445
41.8163 41.9766 3.61531
47.3269 61.0015 0.0151308
46.6132 59.7884 2
45.4598 58.7832 3.9823
39.6326 67.7629 0.0164813
41.5461 65.6382 0.0191377
43.1462 63.7173 0.0200201
44.4829 61.8246 0.0190666
45.7632 60.6215 0.0170919
41.5999 63.8107 2
37.5637 67.7453 2
39.6474 65.6059 2
44.6203 60.2822 2
42.9502 62.0722 2
41.7531 62.4824 3.97926
42.4783 59.9677 3.98187
39.8938 63.5431 3.97811
37.6422 65.5031 3.98035
35.4637 67.6538 3.98263
33.5756 65.3365 3.97988
31.9593 63.2933 3.98077
29.8835 64.7164 3.98216
31.6972 65.1252 2
31.3771 67.1927 3.98309
33.3926 67.4832 2
33.1571 69.7512 3.98717
35.3337 69.9583 2
35.195 72.3723 3.99183
37.526 70.0472 0.012876
37.5096 72.4585 2
37.5 75 4
39.8178 72.4034 0.00810032
39.9526 74.9197 2
42.3947 74.6792 0
39.6242 4.7166 3.98947
41.7365 4.96818 2
42.0628 2.7181 3.99328
43.8519 5.35992 0.0110632
44.3266 3.11012 2
44.8158 0.721173 4
46.5712 3.64748 0.00727617
47.2057 1.27779 2
49.554 1.99015 0
57.6924 40.6272 0.0225694
59.5135 37.5649 0.0225717
54.6844 39.6862 0.0245756
49.1594 41.287 2
56.4711 37.8857 2
52.7012 39.2952 2
53.5467 36.6314 3.97729
47.0628 40.3637 3.91952
50.0789 38.522 3.99104
37.5168 6.67527 3.98596
39.4429 6.80269 2
39.2113 8.69469 3.98337
35.9427 8.49501 3.98387
57.0798 34.7773 0.0226052
55.4361 31.5672 0.0229585
54.2329 28.4812 0.02236
53.9207 20.1762 0.0367383
53.4659 22.7735 0.0444269
53.5804 25.5763 0.0240687
51.6165 19.3696 0.0226222
49.9885 17.7243 0.0246264
48.9236 15.4189 0.0264733
45.3604 7.99578 0.0135052
47.7422 13.1121 0.0215778
46.667 10.6573 0.0186637
41.3993 7.08015 0.0138923
42.8663 9.41769 0.017145
54.4821 33.9783 2
41.0139 9.05057 2
44.7247 9.99545 2
42.468 10.9042 2
53.1758 30.5696 2
52.334 27.2962 2
52.3262 21.1083 2
51.9985 24.1863 2
46.0032 12.7315 2
47.6741 14.594 2
49.7983 19.7098 2
48.0944 17.0016 2
52.0308 32.8905 3.97995
50.9767 29.2553 3.97517
50.5757 25.8187 3.97299
49.8758 22.3 3.98296
40.5688 11.6112 3.9808
43.8577 11.9166 3.98018
45.7938 15.4353 3.98135
47.4875 19.3228 3.97737
45.9241 37.4825 3.87948
48.8431 60.195 0.021396
49.7687 57.6053 0.0286956
52.1059 42.5679 0.0188462
51.5433 47.207 0.0241666
51.0649 50.901 0.0429276
50.5272 54.4004 0.0361701
47.7657 43.7046 0.0116525
47.9735 58.7295 2
49.7341 45.2198 2
48.5558 55.9002 2
49.0311 52.5654 2
49.478 48.9889 2
45.5813 39.8509 2
46.0244 42.6025 2
46.1758 45.7467 2
43.3738 41.1219 2
41.8357 41.9947 2
46.8177 57.3301 3.98156
44.1003 39.3814 3.77338
42.1698 40.851 3.66872
47.8016 47.1981 3.97912
47.1081 54.2126 3.97102
47.455 50.7142 3.96858
44.5689 47.3403 3.97643
44.6512 41.9116 3.86138
44.6435 44.4744 3.92931
42.2531 42.5918 3.78625
40.7533 42.3016 3.65332
46.6135 59.7886 0.0148207
45.4603 58.7835 2
43.8645 57.7005 3.98245
37.5634 67.7443 0.0173307
39.6475 65.6052 0.0201858
41.5998 63.8105 0.0198869
42.95 62.0713 0.0216774
44.62 60.2816 0.0162066
35.4638 67.655 2
41.7533 62.483 2
39.8936 63.5436 2
37.6423 65.504 2
42.4789 59.9684 2
40.6232 61.6372 3.98044
40.4405 58.1916 3.97954
37.8369 63.2037 3.97852
35.5731 65.4251 3.97991
33.5756 65.337 2
31.959 63.294 2
33.6287 63.3313 3.97907
30.3786 62.8531 3.98155
32.1239 61.9979 3.98359
26.8709 61.4939 3.97907
28.0624 64.1447 3.98171
29.8834 64.7169 2
29.4066 66.757 3.98378
31.6973 65.1245 0.0190538
31.3772 67.1935 2
31.0147 69.4163 3.98709
33.3925 67.4825 0.0175662
33.157 69.7519 2
32.8921 72.1468 3.99193
35.3339 69.9574 0.0126782
35.1949 72.3729 2
35.0474 74.9194 4
37.5095 72.458 0.0080845
37.5 75 2
39.9526 74.9197 0
35.6215 6.72643 3.98551
37.5237 4.61611 3.98957
39.6242 4.71548 2
39.7893 2.47463 3.99326
41.7365 4.96909 0.010882
42.0628 2.71757 2
42.3946 0.32156 4
44.3265 3.11062 0.00695186
44.8159 0.72056 2
47.2057 1.27793 0
49.1382 41.2746 0.0131631
56.4702 37.8852 0.0228228
52.7022 39.3057 0.0165853
47.0831 40.3628 2
50.0861 38.5107 2
53.5532 36.6353 2
50.8666 35.5789 3.97627
47.7298 37.7523 3.93433
45.5388 35.1462 3.8784
43.3545 33.8923 3.76817
41.8171 33.0201 3.61129
37.4584 8.53652 3.98417
37.5167 6.6741 2
39.4429 6.80397 0.0139635
39.2115 8.69315 2
38.9763 10.1294 3.98369
35.8991 9.77677 3.98157
34.1517 8.8256 3.98278
35.9423 8.49351 2
54.4858 33.9759 0.0239687
53.1779 30.5699 0.0224504
52.3266 27.2941 0.0242318
52.3235 21.1078 0.0260747
51.9974 24.1839 0.0228098
49.7966 19.7101 0.0272751
48.0957 17.0037 0.026812
47.6744 14.597 0.0264655
44.7254 9.99603 0.0154285
46.0033 12.7359 0.0227163
41.0138 9.05159 0.0174161
42.4682 10.9043 0.014179
52.0373 32.8899 2
40.5695 11.6113 2
43.8566 11.9168 2
50.9938 29.2569 2
50.5809 25.8215 2
49.8765 22.2971 2
45.7922 15.4246 2
47.4885 19.3273 2
49.5754 31.4845 3.98668
49.0059 27.5905 3.97475
49.2543 24.4982 3.97815
47.1515 22.0669 3.98317
38.3023 12.7417 3.978
42.0998 14.3068 3.97881
44.789 18.5153 3.97783
44.4458 37.4911 3.78289
45.99 37.4898 2
47.974 58.7281 0.0210305
48.5572 55.898 0.0243544
49.7203 45.2101 0.021127
49.4751 48.9919 0.0261039
49.032 52.5614 0.0227422
45.5385 39.8408 0.118848
45.9998 42.5774 0.0870315
46.1693 45.7418 0.0154055
43.3482 41.0938 0.225554
41.8163 41.9766 0.384685
46.8166 57.3312 2
44.1357 39.4029 2
42.164 40.861 2
47.8057 47.1999 2
47.1063 54.2167 2
47.4573 50.7179 2
44.5802 47.3188 2
44.6759 41.9347 2
44.6667 44.494 2
42.3013 42.6225 2
40.7629 42.2997 2
45.3658 55.9192 3.98944
42.492 39.2649 3.67972
40.6367 40.7421 3.77056
45.9071 48.8712 3.98988
45.447 52.5008 3.98269
43.2709 48.3491 3.99815
43.2089 46.0123 3.91055
43.3809 43.692 3.85978
40.9001 43.7047 3.77032
39.2488 42.5961 3.66856
45.4598 58.7832 0.0176952
43.8648 57.7015 2
42.0919 56.3124 3.98326
35.4637 67.6538 0.0173664
37.6422 65.5031 0.019651
39.8938 63.5431 0.0218854
41.7531 62.4824 0.0207403
42.4783 59.9677 0.0181255
35.5732 65.4267 2
40.6234 61.638 2
37.8366 63.2043 2
40.441 58.1929 2
38.9194 56.4831 3.99038
38.2506 60.3186 3.9792
35.6068 63.1962 3.97676
33.5756 65.3365 0.0201172
31.9593 63.2933 0.0192325
33.6285 63.3319 2
30.3785 62.8535 2
32.1241 61.9985 2
28.682 62.1983 3.98107
33.3459 61.5074 3.9807
31.0687 61.2155 3.98091
27.575 59.5878 3.98087
23.8006 59.0745 3.97873
25.0374 60.8668 3.97926
26.8711 61.4946 2
26.2297 63.4752 3.98076
28.0625 64.145 2
27.4633 66.1812 3.98398
29.8835 64.7164 0.0178395
29.4067 66.7574 2
28.907 68.9423 3.98691
31.3771 67.1927 0.0169054
31.0146 69.417 2
30.6145 71.7777 3.99176
33.1571 69.7512 0.0128261
32.8918 72.1472 2
32.6054 74.6784 4
35.195 72.3723 0.00816861
35.0474 74.9197 2
37.5 75 0
33.7243 6.98176 3.98486
35.4356 4.68639 3.98942
35.6213 6.72542 2
37.5148 2.38715 3.99325
37.5236 4.6153 2
39.6242 4.7166 0.0105287
39.7892 2.47401 2
39.9526 0.0806499 4
42.0628 2.7181 0.00672082
42.3947 0.320817 2
44.8158 0.721173 0
44.1114 35.5981 3.77068
42.1735 34.1379 3.6637
47.0628 40.3637 0.0804769
50.0789 38.522 0.00895811
53.5467 36.6314 0.0227124
47.7305 37.7551 2
50.8795 35.5755 2
45.5738 35.1234 2
43.3847 33.8626 2
41.8374 33.0013 2
47.8975 34.3042 3.96158
44.651 33.061 3.85522
42.2552 32.405 3.78006
40.7551 32.6992 3.6501
37.3108 10.6341 3.98108
37.4583 8.5348 2
37.5168 6.67527 0.0140432
39.2113 8.69469 0.0166319
38.9773 10.128 2
34.7548 10.3844 3.98132
35.8993 9.77428 2
32.3786 9.37316 3.98061
34.1508 8.82366 2
35.9427 8.49501 0.0161253
52.0308 32.8905 0.020046
50.9767 29.2553 0.0248302
50.5757 25.8187 0.0270076
49.8758 22.3 0.0170401
47.4875 19.3228 0.022626
45.7938 15.4353 0.0186482
43.8577 11.9166 0.0198195
40.5688 11.6112 0.0192
49.5895 31.4801 2
38.3024 12.7399 2
42.1003 14.3097 2
49.0124 27.5913 2
49.2582 24.4956 2
47.1476 22.0604 2
44.789 18.5331 2
47.4128 29.5878 3.98341
46.9428 25.2451 3.97948
44.2643 21.4502 3.97685
36.5831 12.9408 3.97616
38.6828 14.8213 3.97594
41.7456 17.8782 3.97871
42.6115 37.4844 3.69502
44.4776 37.4903 2
45.9241 37.4825 0.120518
46.8177 57.3301 0.0184409
47.1081 54.2126 0.0289801
47.8016 47.1981 0.0208835
47.455 50.7142 0.031424
44.1003 39.3814 0.22662
44.6512 41.9116 0.138623
44.6435 44.4744 0.0706883
44.5689 47.3403 0.0235739
42.2531 42.5918 0.213755
42.1698 40.851 0.331277
40.7533 42.3016 0.346678
45.3646 55.9187 2
42.4837 39.2638 2
40.6313 40.7277 2
45.9084 48.8788 2
45.4461 52.507 2
43.2758 48.3677 2
43.2441 46.0415 2
43.4148 43.7195 2
40.9328 43.7486 2
39.2467 42.5949 2
43.6968 54.4158 3.99643
40.7334 39.1418 3.78985
39.1149 40.8094 3.77168
43.5703 50.4114 4.00445
41.8673 47.5558 3.94721
41.7763 45.1061 3.87451
39.3358 44.3849 3.77345
37.5049 42.6912 3.69201
43.8645 57.7005 0.0175543
42.0922 56.3131 2
40.4036 54.9009 3.98218
35.5731 65.4251 0.0200911
37.8369 63.2037 0.0214815
40.6232 61.6372 0.0195581
40.4405 58.1916 0.0204597
35.6066 63.1975 2
38.251 60.3194 2
38.9195 56.4836 2
37.9953 55.2225 3.99068
36.9336 57.6153 3.98346
35.3635 60.9017 3.97678
33.6287 63.3313 0.0209296
30.3786 62.8531 0.0184464
32.1239 61.9979 0.0164098
33.3462 61.5081 2
28.6821 62.1985 2
31.0692 61.2159 2
29.407 60.2844 3.9793
32.3609 59.7387 3.98819
28.0359 58.369 3.98998
27.5756 59.5886 2
25.3893 58.5885 3.97739
22.7698 58.2286 3.96978
23.405 60.3439 3.97904
23.8011 59.0755 2
25.0377 60.8676 2
24.433 62.7668 3.98088
26.8709 61.4939 0.0209295
26.2298 63.476 2
25.5476 65.4904 3.98297
28.0624 64.1447 0.0182865
27.4633 66.1817 2
26.8365 68.3307 3.98692
29.4066 66.757 0.0162225
28.9069 68.9425 2
28.3695 71.263 3.99177
31.0147 69.4163 0.0129143
30.6141 71.778 2
30.1842 74.2788 4
32.8921 72.1468 0.00806758
32.6053 74.6792 2
35.0474 74.9194 0
31.7888 7.42188 3.98365
33.348 4.92594 3.98885
33.724 6.98029 2
35.2451 2.46319 3.99316
35.4354 4.68576 2
35.6215 6.72643 0.0144893
37.5 0 4
37.5146 2.38671 2
37.5237 4.61611 0.0104312
39.7893 2.47463 0.00673981
39.9526 0.0802889 2
42.3946 0.32156 0
42.4834 35.71 3.67931
44.146 35.5768 2
40.6416 34.2546 3.76904
42.164 34.129 2
47.7298 37.7523 0.0656744
50.8666 35.5789 0.0237299
45.5388 35.1462 0.121605
43.3545 33.8923 0.23183
41.8171 33.0201 0.388711
47.9146 34.2991 2
44.6784 33.0428 2
42.3071 32.3702 2
40.7667 32.7005 2
45.9259 31.6343 3.93369
43.373 31.3065 3.86132
40.8988 31.295 3.77219
39.2489 32.4149 3.66744
35.6934 11.7818 3.97942
37.3122 10.6316 2
37.4584 8.53652 0.0158334
38.9763 10.1294 0.0163144
33.0994 11.2233 3.97729
34.7543 10.3813 2
35.8991 9.77677 0.0184312
30.4837 10.0231 3.98022
32.3778 9.37251 2
34.1517 8.8256 0.0172213
49.5754 31.4845 0.0133227
49.0059 27.5905 0.0252539
49.2543 24.4982 0.0218516
47.1515 22.0669 0.0168313
44.789 18.5153 0.0221699
42.0998 14.3068 0.0211903
38.3023 12.7417 0.0219955
36.5824 12.9354 2
47.4251 29.5639 2
38.6818 14.8145 2
41.7434 17.879 2
46.9503 25.2447 2
44.2601 21.434 2
45.288 27.7149 4.00218
43.7052 24.1663 4.00889
41.3243 20.8365 3.98025
35.7737 14.7742 3.97722
38.682 17.6233 3.97842
40.7848 37.4782 3.79964
42.6088 37.4864 2
44.4458 37.4911 0.217106
45.3658 55.9192 0.0105637
45.447 52.5008 0.0173063
45.9071 48.8712 0.0101152
42.492 39.2649 0.320277
43.3809 43.692 0.140222
43.2089 46.0123 0.0894457
43.2709 48.3491 0.00184578
40.9001 43.7047 0.229683
40.6367 40.7421 0.229442
39.2488 42.5961 0.331436
43.6945 54.4153 2
40.7164 39.1353 2
39.1164 40.7916 2
43.5693 50.4284 2
41.8594 47.5769 2
41.7981 45.1373 2
37.5031 42.6929 2
39.3525 44.422 2
41.8469 52.9563 3.99506
39.1341 39.1543 3.79272
37.5048 40.8584 3.78575
35.7634 42.6039 3.67012
40.8588 49.6092 3.9972
39.799 45.9456 3.85128
37.5038 44.6153 3.76932
42.0919 56.3124 0.0167375
40.401 54.9097 2
38.722 53.7825 3.99667
35.6068 63.1962 0.0232402
38.2506 60.3186 0.0208026
38.9194 56.4831 0.00961961
35.3638 60.9025 2
36.9346 57.6162 2
37.9946 55.2146 2
36.3246 55.3003 3.99835
34.4889 58.5071 3.98512
33.3459 61.5074 0.0192977
28.682 62.1983 0.0189343
31.0687 61.2155 0.019093
32.3615 59.7394 2
29.4078 60.2845 2
30.3133 57.8135 3.98451
28.0364 58.3697 2
26.9703 56.8217 3.9754
27.575 59.5878 0.0191348
25.39 58.5895 2
23.8641 56.7884 3.96246
21.3521 57.381 3.9685
22.0008 59.6131 3.9771
22.7702 58.2303 2
22.738 62.0165 3.97841
23.4054 60.3447 2
23.8006 59.0745 0.0212728
25.0374 60.8668 0.0207386
24.4332 62.7676 2
23.6819 64.7077 3.98244
26.2297 63.4752 0.0192395
25.5476 65.4914 2
24.8087 67.5919 3.98657
27.4633 66.1812 0.0160166
26.8365 68.3314 2
26.1646 70.6037 3.99181
28.907 68.9423 0.0130944
28.3691 71.2631 2
27.7943 73.7221 4
30.6145 71.7777 0.00823858
30.1841 74.2794 2
32.6054 74.6784 0
29.8116 7.99657 3.98262
31.2534 5.33295 3.98794
31.7884 7.42093 2
32.9808 2.70149 3.99285
33.3476 4.92491 2
33.7243 6.98176 0.0151396
35.0474 0.080333 4
35.2447 2.46289 2
35.4356 4.68639 0.0105848
37.5 0 2
37.5148 2.38715 0.00674799
39.9526 0.0806499 0
40.7379 35.8295 3.78759
42.4752 35.713 2
44.1114 35.5981 0.229323
28.5443 10.6985 3.97904
39.1115 34.2003 3.77105
40.632 34.2689 2
42.1735 34.1379 0.336301
47.8975 34.3042 0.0384224
44.651 33.061 0.144777
42.2552 32.405 0.219937
40.7551 32.6992 0.3499
45.9545 31.6179 2
43.406 31.2748 2
40.9346 31.2517 2
39.252 32.4172 2
44.191 29.8296 3.92721
41.7707 29.8928 3.87285
39.3398 30.6206 3.77225
37.5081 32.3284 3.69156
34.0944 12.9445 3.97577
35.6931 11.7763 2
37.3108 10.6341 0.0189248
31.1879 11.9937 3.97808
33.0996 11.2225 2
34.7548 10.3844 0.0186764
30.4823 10.0205 2
32.3786 9.37316 0.0193914
47.4128 29.5878 0.0165938
46.9428 25.2451 0.0205246
36.5831 12.9408 0.0238364
44.2643 21.4502 0.0231495
41.7456 17.8782 0.021288
38.6828 14.8213 0.0240641
35.7743 14.7797 2
45.2926 27.7145 2
38.6796 17.6254 2
41.3191 20.827 2
43.7087 24.1573 2
33.6109 15.8931 3.97715
42.895 26.566 3.99505
40.8613 23.403 4.01076
38.4127 20.4016 3.9845
35.8523 17.5283 3.97954
39.1389 37.4891 3.81652
40.7699 37.4783 2
42.6115 37.4844 0.304983
43.6968 54.4158 0.003566
43.5703 50.4114 -0.00445358
40.7334 39.1418 0.21015
41.7763 45.1061 0.125492
41.8673 47.5558 0.0527922
39.3358 44.3849 0.226552
39.1149 40.8094 0.228316
37.5049 42.6912 0.307988
41.8438 52.9536 2
39.1237 39.1424 2
37.5044 40.8361 2
40.8632 49.6244 2
35.7601 42.602 2
39.8177 45.9845 2
37.497 44.648 2
39.7875 51.8225 4.00122
37.5017 39.1646 3.82006
35.8963 40.8229 3.772
34.2569 42.312 3.65032
35.6705 44.3979 3.76954
38.6695 48.5918 3.96171
37.5178 46.2411 3.86812
40.4036 54.9009 0.0178176
38.722 53.7757 2
36.744 53.119 3.99879
35.3635 60.9017 0.0232196
36.9336 57.6153 0.0165443
37.9953 55.2225 0.00932395
34.49 58.5078 2
36.3251 55.3026 2
33.2473 55.4828 3.99395
32.3609 59.7387 0.0118075
29.407 60.2844 0.0206968
30.3139 57.8138 2
28.7312 55.3095 3.97919
28.0359 58.369 0.0100179
26.9705 56.8223 2
25.3552 55.1273 3.96927
21.843 55.3287 3.9646
25.3893 58.5885 0.0226065
23.8642 56.7908 2
20.2383 57.0096 3.97086
20.6551 58.7645 3.9723
21.352 57.3825 2
21.1702 61.1639 3.97675
22.0012 59.614 2
22.7698 58.2286 0.0302205
21.8958 63.8347 3.98101
22.7383 62.0174 2
23.405 60.3439 0.0209559
24.433 62.7668 0.0191175
23.682 64.7085 2
22.8371 66.7349 3.98566
25.5476 65.4904 0.0170328
24.8087 67.5928 2
24.0088 69.8049 3.99188
26.8365 68.3307 0.0130825
26.1641 70.604 2
25.446 73.0099 4
28.3695 71.263 0.00823193
27.7943 73.7222 2
30.1842 74.2788 0
27.8214 8.6562 3.98223
29.1556 5.87929 3.98681
29.8107 7.9945 2
30.7261 3.09852 3.99256
31.253 5.3321 2
31.7888 7.42188 0.0163535
32.6053 0.320823 4
32.9804 2.70099 2
33.348 4.92594 0.0111462
35.0474 0.0802903 2
35.2451 2.46319 0.00683506
37.5 0 0
39.1333 35.8356 3.79348
40.7197 35.8348 2
42.4834 35.71 0.320695
28.5432 10.6976 2
26.6228 11.3947 3.9789
29.227 12.6498 3.97882
37.5012 34.1634 3.78461
39.1134 34.2193 2
40.6416 34.2546 0.23096
45.9259 31.6343 0.0663136
43.373 31.3065 0.138677
40.8988 31.295 0.22781
39.2489 32.4149 0.332556
44.1927 29.8189 2
41.7878 29.8654 2
39.3507 30.5829 2
37.5099 32.3259 2
42.2243 28.493 3.89929
39.8023 29.05 3.8723
37.5105 30.4004 3.7691
35.7691 32.4154 3.66835
31.9174 14.4939 3.97735
34.0951 12.9448 2
35.6934 11.7818 0.0205843
31.187 11.9898 2
33.0994 11.2233 0.0227123
30.4837 10.0231 0.0197819
45.288 27.7149 -0.00218388
43.7052 24.1663 -0.00888527
35.7737 14.7742 0.0227782
41.3243 20.8365 0.0197545
38.682 17.6233 0.021577
33.6093 15.8888 2
35.8489 17.531 2
42.9039 26.5674 2
38.4103 20.4018 2
40.8567 23.3873 2
33.5556 17.4029 3.97827
40.3213 25.766 3.98484
38.0666 23.0581 3.99808
35.5837 20.1149 3.98232
37.5 37.4998 3.83874
39.1294 37.4882 2
40.7848 37.4782 0.200364
41.8469 52.9563 0.00493752
40.8588 49.6092 0.00279747
39.1341 39.1543 0.207284
39.799 45.9456 0.148717
37.5038 44.6153 0.230683
37.5048 40.8584 0.21425
35.7634 42.6039 0.329875
39.7878 51.8251 2
37.5019 39.151 2
35.8948 40.8056 2
38.6835 48.6336 2
34.2466 42.311 2
35.6533 44.437 2
37.5211 46.2814 2
37.6587 50.8853 4.00116
35.8739 39.1722 3.7936
34.3748 40.763 3.7697
33.1889 41.9889 3.61471
34.0976 43.7068 3.77145
35.1895 45.9432 3.86444
36.9127 48.2157 3.93052
38.722 53.7825 0.00332569
36.7392 53.1219 2
34.3989 52.4254 3.99669
34.4889 58.5071 0.0148836
36.3246 55.3003 0.00164602
33.2477 55.4854 2
30.5642 53.3388 3.98222
30.3133 57.8135 0.0154919
28.7316 55.3112 2
26.9501 53.4233 3.97243
26.9703 56.8217 0.0245964
25.3551 55.131 2
23.6485 53.4585 3.95877
20.5554 53.1933 3.96192
19.9608 55.8107 3.96601
21.8416 55.3302 2
23.8641 56.7884 0.0375358
19.4515 57.8712 3.97135
20.2378 57.0111 2
19.7117 60.1903 3.97576
20.6552 58.7652 2
21.3521 57.381 0.031495
20.209 62.8546 3.97831
21.1706 61.1656 2
22.0008 59.6131 0.0229023
20.9384 65.7634 3.98464
21.8959 63.8357 2
22.738 62.0165 0.021591
23.6819 64.7077 0.0175579
22.8371 66.7355 2
21.9114 68.8718 3.9915
24.8087 67.5919 0.0134289
24.0082 69.8051 2
23.1494 72.1454 4
26.1646 70.6037 0.00819171
25.446 73.0099 2
27.7943 73.7221 0
25.8606 9.38508 3.98125
27.0703 6.54333 3.98575
27.8205 8.65531 2
28.4884 3.64459 3.99203
29.1549 5.87795 2
29.8116 7.99657 0.0173798
30.1841 0.720592 4
30.7255 3.09816 2
31.2534 5.33295 0.0120595
32.6053 0.320817 2
32.9808 2.70149 0.00715285
35.0474 0.080333 0
37.501 35.8413 3.81898
39.121 35.8457 2
40.7379 35.8295 0.212412
24.7778 12.0802 3.97875
23.7536 14.3699 3.97717
28.5443 10.6985 0.0209602
26.622 11.3946 2
29.2261 12.6488 2
27.2933 13.3833 3.9782
29.7837 14.2121 3.97843
35.893 34.1993 3.77065
37.5031 34.1852 2
39.1115 34.2003 0.228945
37.5081 32.3284 0.308443
44.191 29.8296 0.0727917
41.7707 29.8928 0.12715
39.3398 30.6206 0.227753
42.2445 28.4628 2
39.8146 29.0147 2
37.5142 30.3651 2
35.7677 32.417 2
39.9852 27.6883 3.90354
37.5023 28.7674 3.86834
35.6782 30.6319 3.77521
34.2668 32.7058 3.65048
30.9309 16.8558 3.97795
31.9165 14.4873 2
34.0944 12.9445 0.0242349
31.1879 11.9937 0.0219221
42.895 26.566 0.00495198
40.8613 23.403 -0.0107645
33.6109 15.8931 0.0228548
35.8523 17.5283 0.020462
38.4127 20.4016 0.0155038
33.5509 17.4156 2
35.5845 20.1185 2
40.3254 25.7492 2
38.0566 23.0473 2
32.8699 19.8085 3.98785
37.7777 25.3642 3.99727
35.1942 22.7768 3.99403
35.8618 37.5038 3.81734
37.4999 37.4998 2
39.1389 37.4891 0.18348
39.7875 51.8225 -0.00122169
38.6695 48.5918 0.0382867
37.5017 39.1646 0.179937
37.5178 46.2411 0.13188
35.6705 44.3979 0.230463
35.8963 40.8229 0.228001
34.2569 42.312 0.349679
37.6475 50.907 2
35.8861 39.1605 2
34.3792 40.7495 2
36.8908 48.2585 2
33.1689 42.0057 2
34.07 43.747 2
35.175 45.9743 2
35.5144 50.0519 3.99197
34.2785 39.1702 3.7896
32.8305 40.8688 3.66591
32.7498 42.605 3.78222
33.2353 45.109 3.87027
34.3489 47.3158 3.90519
36.744 53.119 0.00120581
34.3932 52.4316 2
32.0837 51.1525 4.01034
33.2473 55.4828 0.00605003
30.5641 53.343 2
28.5116 51.5592 3.98439
28.7312 55.3095 0.0208074
26.9497 53.4267 2
25.1829 51.7105 3.95633
25.3552 55.1273 0.0307295
23.6476 53.4609 2
22.0871 51.767 3.95454
19.3356 51.5992 3.96257
18.9724 54.2837 3.96313
20.5547 53.1926 2
18.4672 56.7037 3.9679
19.9595 55.8121 2
21.843 55.3287 0.0353976
18.3768 59.0937 3.96982
19.4511 57.8722 2
20.2383 57.0096 0.0291433
18.6217 61.7568 3.97449
19.7123 60.1917 2
20.6551 58.7645 0.0277048
19.1276 64.673 3.98333
20.2089 62.8558 2
21.1702 61.1639 0.0232492
19.8856 67.8085 3.99141
20.9384 65.7643 2
21.8958 63.8347 0.0189938
22.8371 66.7349 0.014343
21.9107 68.8717 2
20.9142 71.1327 4
24.0088 69.8049 0.00812488
23.1494 72.1455 2
25.446 73.0099 0
23.0973 12.796 3.97825
23.9731 10.1735 3.98032
25.0239 7.31401 3.98473
25.8598 9.38462 2
26.2802 4.32869 3.99152
27.0696 6.54264 2
27.8214 8.6562 0.0177703
27.7943 1.27781 4
28.4875 3.64417 2
29.1556 5.87929 0.0131932
30.1841 0.720551 2
30.7261 3.09852 0.0074353
32.6053 0.320823 0
35.866 35.8397 3.79136
37.5018 35.8552 2
39.1333 35.8356 0.206523
24.7771 12.0791 2
23.7541 14.3703 2
22.4831 15.0475 3.97864
25.3596 13.9184 3.97688
24.0307 15.6338 3.97933
26.6228 11.3947 0.0210963
29.227 12.6498 0.0211766
27.2933 13.3836 2
29.7818 14.2105 2
28.362 15.9879 3.97777
34.3759 34.2626 3.76827
35.8916 34.2177 2
37.5012 34.1634 0.215387
35.7691 32.4154 0.33165
37.5105 30.4004 0.230898
42.2243 28.493 0.100708
39.8023 29.05 0.127696
40.0046 27.6593 2
37.5029 28.7302 2
35.6618 30.5888 2
34.253 32.7088 2
37.5775 27.4021 3.91555
35.1986 29.0658 3.87087
34.1084 31.3094 3.7713
33.2047 33.0308 3.6135
30.2169 19.372 3.98093
30.9289 16.8487 2
31.9174 14.4939 0.0226538
40.3213 25.766 0.0151555
38.0666 23.0581 0.00192144
33.5556 17.4029 0.0217336
35.5837 20.1149 0.0176824
32.8682 19.8222 2
35.1896 22.7653 2
37.7757 25.3516 2
32.3199 22.5018 3.99644
35.0225 25.3265 4.00035
34.2201 37.5119 3.80088
35.8717 37.5048 2
37.5 37.4998 0.161264
37.6587 50.8853 -0.00115659
36.9127 48.2157 0.0694789
35.8739 39.1722 0.206399
35.1895 45.9432 0.13556
34.0976 43.7068 0.228554
34.3748 40.763 0.230301
33.1889 41.9889 0.385289
35.503 50.056 2
34.297 39.1645 2
32.8356 40.876 2
34.3386 47.3564 2
32.7116 42.6355 2
33.218 45.1377 2
33.3362 49.055 3.98356
32.513 39.291 3.68173
31.6451 41.1101 3.77214
31.6236 43.7012 3.86186
32.408 46.258 3.90334
34.3989 52.4254 0.00331491
32.0852 51.1632 2
29.9896 49.6774 3.98751
30.5642 53.3388 0.0177751
28.5103 51.5571 2
26.6463 49.9377 3.96892
26.9501 53.4233 0.0275724
25.1816 51.7084 2
23.4951 50.1398 3.96413
23.6485 53.4585 0.0412285
22.0863 51.7653 2
20.6266 50.2699 3.96513
18.1416 50.2935 3.96796
17.9372 52.7617 3.96432
19.3341 51.5985 2
17.4693 55.3205 3.96299
18.969 54.2839 2
20.5554 53.1933 0.0380806
17.1472 57.8555 3.96638
18.4663 56.704 2
19.9608 55.8107 0.0339919
17.1402 60.5339 3.97295
18.3768 59.0947 2
19.4515 57.8712 0.028653
17.4089 63.4636 3.97896
18.6219 61.7579 2
19.7117 60.1903 0.0242421
17.9422 66.617 3.99062
19.1274 64.6741 2
20.209 62.8546 0.0216925
18.75 69.9759 4
19.8848 67.8083 2
20.9384 65.7634 0.0153551
21.9114 68.8718 0.00849639
20.9142 71.1327 2
23.1494 72.1454 0
21.5888 13.6176 3.97796
22.1912 11.0338 3.97935
23.0973 12.7964 2
23.0417 8.1805 3.98379
23.9724 10.1724 2
24.1178 5.14348 3.991
25.0232 7.31338 2
25.8606 9.38508 0.0187544
25.446 1.99014 4
26.2791 4.32869 2
27.0703 6.54333 0.0142463
27.7943 1.27778 2
28.4884 3.64459 0.00797456
30.1841 0.720592 0
34.273 35.8498 3.78904
35.8769 35.8512 2
37.501 35.8413 0.181022
21.3106 15.8444 3.98073
24.7778 12.0802 0.0212511
23.7536 14.3699 0.0228328
25.3597 13.9171 2
22.4839 15.0476 2
24.0311 15.635 2
23.272 16.2645 3.97563
25.3867 16.1039 3.97898
27.2933 13.3833 0.0218025
29.7837 14.2121 0.0215656
28.3596 15.9915 2
27.448 18.824 3.97898
32.8394 34.1528 3.66627
34.3853 34.2772 2
35.893 34.1993 0.229345
34.2668 32.7058 0.349522
35.6782 30.6319 0.224786
37.5023 28.7674 0.131661
39.9852 27.6883 0.0964601
37.5804 27.3655 2
33.1839 33.0138 2
35.1918 29.0226 2
34.0716 31.2626 2
35.0943 27.5204 3.91438
33.2336 29.9072 3.8677
32.7649 32.4078 3.7694
29.6089 21.9696 3.99563
30.2161 19.3841 2
30.9309 16.8558 0.0220479
37.7777 25.3642 0.00272724
35.1942 22.7768 0.00597469
32.8699 19.8085 0.0121516
32.3195 22.4923 2
35.0399 25.3139 2
31.8027 25.727 4.00801
32.3797 37.513 3.69751
34.2398 37.5119 2
35.8618 37.5038 0.182663
35.5144 50.0519 0.00802573
34.3489 47.3158 0.0948083
34.2785 39.1702 0.210402
33.2353 45.109 0.129729
32.7498 42.605 0.217782
32.8305 40.8688 0.33409
33.3296 49.055 2
32.5276 39.2899 2
31.6142 41.1361 2
32.375 46.2905 2
31.5918 43.7289 2
31.3125 47.8936 3.98403
30.8942 39.4038 3.77242
30.3474 41.941 3.8565
30.653 44.8602 3.9253
32.0837 51.1525 -0.0103443
29.9882 49.6839 2
28.0704 48.122 3.96197
28.5116 51.5592 0.0156112
26.6451 49.9356 2
24.849 48.4078 3.97208
25.1829 51.7105 0.0436658
23.4946 50.1376 2
21.8709 48.7316 3.96976
22.0871 51.767 0.045461
20.6247 50.2688 2
19.2165 49.049 3.97212
17.0378 49.2986 3.97308
16.8861 51.3777 3.96697
18.1435 50.2923 2
16.4444 53.8488 3.96453
17.935 52.7614 2
19.3356 51.5992 0.0374325
15.9926 56.4598 3.96581
17.4666 55.321 2
18.9724 54.2837 0.0368725
15.7566 59.1965 3.96921
17.1472 57.8561 2
18.4672 56.7037 0.0321037
15.7906 62.1304 3.97383
17.1406 60.5356 2
18.3768 59.0937 0.0301782
16.0894 65.2994 3.98931
17.4086 63.4654 2
18.6217 61.7568 0.0255068
16.6661 68.6801 4
17.941 66.6166 2
19.1276 64.673 0.0166699
18.75 69.9759 2
19.8856 67.8085 0.00858736
20.9142 71.1327 0
20.2222 14.6084 3.97646
21.5891 13.6177 2
20.5307 12.005 3.97865
21.1445 9.15089 3.98303
22.1909 11.0338 2
23.0973 12.796 0.0217534
22.0169 6.08272 3.99038
23.0409 8.17957 2
23.9731 10.1735 0.0196833
23.1494 2.85457 4
24.1165 5.14362 2
25.0239 7.31401 0.0152705
25.446 1.99012 2
26.2802 4.32869 0.00848076
27.7943 1.27781 0
32.5061 35.7317 3.67682
34.2919 35.8583 2
35.866 35.8397 0.208639
21.3115 15.844 2
20.3115 16.9767 3.98031
22.1043 16.6507 3.97288
25.3596 13.9184 0.0231235
22.4831 15.0475 0.0213628
24.0307 15.6338 0.0206742
25.3864 16.1038 2
23.2726 16.2651 2
24.2137 18.48 3.97355
27.049 21.4922 3.99167
28.362 15.9879 0.0222274
27.4491 18.822 2
31.6614 33.9183 3.76903
32.8458 34.1422 2
34.3759 34.2626 0.231731
33.2047 33.0308 0.386499
34.1084 31.3094 0.228703
35.1986 29.0658 0.129128
37.5775 27.4021 0.0844497
35.0902 27.479 2
32.6968 32.3765 2
33.2199 29.8878 2
32.6708 28.2276 3.92532
31.6244 31.3261 3.86236
28.912 24.4519 3.98215
29.6034 21.9809 2
30.2169 19.372 0.0190707
35.0225 25.3265 -0.000352446
32.3199 22.5018 0.00355926
31.8046 25.7046 2
29.8118 27.383 3.97392
30.5411 37.508 3.78133
32.3917 37.5119 2
34.2201 37.5119 0.199122
33.3362 49.055 0.0164351
32.408 46.258 0.0966586
32.513 39.291 0.318266
31.6236 43.7012 0.138139
31.6451 41.1101 0.227855
31.3093 47.8976 2
30.8518 39.4252 2
30.3213 41.9576 2
30.6303 44.883 2
29.4356 46.4976 4.00178
29.452 39.8533 3.88011
29.0525 43.0916 3.92516
29.9896 49.6774 0.0124851
28.0676 48.118 2
26.204 46.5865 3.97639
26.6463 49.9377 0.0310752
24.8484 48.405 2
23.0723 47.0085 3.97483
23.4951 50.1398 0.0358737
21.8698 48.7305 2
20.1935 47.5678 3.97718
20.6266 50.2699 0.034875
19.2183 49.0475 2
17.8394 48.1412 3.97633
16.2762 48.6537 3.97612
17.0392 49.2976 2
15.9662 50.1422 3.97058
15.4512 52.3934 3.96646
16.8868 51.377 2
18.1416 50.2935 0.0320427
14.8938 54.9627 3.9648
16.4446 53.8485 2
17.9372 52.7617 0.0356829
14.4691 57.7267 3.96642
15.993 56.4597 2
17.4693 55.3205 0.0370083
14.2697 60.6842 3.97293
15.757 59.1976 2
17.1472 57.8555 0.0336229
14.3345 63.858 3.98592
15.7904 62.1315 2
17.1402 60.5339 0.0270547
14.6715 67.2507 4
16.0877 65.2986 2
17.4089 63.4636 0.0210407
16.6661 68.6801 2
17.9422 66.617 0.00938196
18.75 69.9759 0
18.9376 15.7951 3.97786
20.2226 14.6083 2
18.9811 13.1171 3.97724
21.5888 13.6176 0.0220392
20.5307 12.005 2
19.3437 10.2396 3.98221
19.9914 7.14741 3.98987
21.1439 9.1507 2
22.1912 11.0338 0.0206495
20.9142 3.86727 4
22.0153 6.083 2
23.0417 8.1805 0.0162102
23.1494 2.85451 2
24.1178 5.14348 0.00900224
25.446 1.99014 0
30.9123 35.6276 3.77403
32.5172 35.7343 2
34.273 35.8498 0.210961
21.3106 15.8444 0.0192716
22.1052 16.6508 2
20.3122 16.9755 2
19.2619 18.4263 3.97301
21.7915 17.8706 3.97997
25.3867 16.1039 0.0210215
23.272 16.2645 0.0243664
24.2137 18.4814 2
22.3088 19.9221 3.96813
24.6308 21.3667 3.98847
26.5208 23.7593 3.97184
27.0481 21.488 2
27.448 18.824 0.021018
30.3789 33.0916 3.87014
31.6366 33.8814 2
32.8394 34.1528 0.333732
32.7649 32.4078 0.2306
33.2336 29.9072 0.132295
35.0943 27.5204 0.085622
32.6302 28.1997 2
31.5874 31.29 2
30.3395 29.6428 3.94516
28.0602 26.5941 3.98845
28.9066 24.4681 2
29.6089 21.9696 0.00437231
31.8027 25.727 -0.00800852
29.8071 27.3528 2
29.061 37.5192 3.88015
30.5163 37.5087 2
32.3797 37.513 0.302486
31.3125 47.8936 0.0159713
30.653 44.8602 0.0746968
30.8942 39.4038 0.227582
30.3474 41.941 0.143501
29.4345 46.5095 2
29.4175 39.8733 2
29.0238 43.1198 2
27.6249 44.8046 3.97333
27.222 40.5945 3.95089
28.0704 48.122 0.0380268
26.1998 46.5879 2
24.3291 45.1298 3.97605
24.849 48.4078 0.0279232
23.0711 47.0077 2
21.1747 45.8349 3.97815
21.8709 48.7316 0.0302419
20.1925 47.5666 2
18.5244 46.6938 3.9781
19.2165 49.049 0.0278776
17.8408 48.1401 2
16.4851 47.6825 3.9771
16.2774 48.6529 2
15.3114 48.9896 3.97389
17.0378 49.2986 0.0269173
15.9677 50.1415 2
14.5702 50.9636 3.96863
13.8653 53.4204 3.96571
15.4524 52.3929 2
16.8861 51.3777 0.0330338
13.2645 56.1581 3.96655
14.893 54.9628 2
16.4444 53.8488 0.0354695
12.8536 59.118 3.97121
14.4697 57.7267 2
15.9926 56.4598 0.0341852
12.6804 62.3001 3.98294
14.2698 60.6845 2
15.7566 59.1965 0.0307871
12.7746 65.6939 4
14.3327 63.8562 2
15.7906 62.1304 0.026169
14.6714 67.2507 2
16.0894 65.2994 0.0106877
16.6661 68.6801 0
17.6779 17.1723 3.97203
18.938 15.7946 2
17.5135 14.3824 3.97631
20.2222 14.6084 0.0235373
18.9813 13.117 2
17.6394 11.4593 3.98082
20.5307 12.005 0.021349
19.3434 10.2394 2
18.0515 8.3404 3.98949
18.75 5.0241 4
19.9897 7.14838 2
21.1445 9.15089 0.0169681
20.9142 3.86727 2
22.0169 6.08272 0.00962435
23.1494 2.85457 0
29.4686 35.1642 3.88253
30.8623 35.6025 2
32.5061 35.7317 0.323179
22.1043 16.6507 0.0271234
20.3115 16.9767 0.0196884
21.7922 17.8696 2
19.2623 18.4249 2
18.0185 19.9642 3.96077
20.9031 19.4012 3.97316
24.2137 18.48 0.0264527
22.3085 19.9219 2
24.6302 21.3684 2
22.4144 21.7544 3.97767
24.7895 23.2018 3.97651
25.6485 25.9908 3.97693
26.5228 23.7567 2
27.049 21.4922 0.00832899
28.7582 32.4152 3.929
30.3453 33.0694 2
31.6614 33.9183 0.230975
31.6244 31.3261 0.137637
32.6708 28.2276 0.0746767
30.3329 29.6431 2
27.2914 29.1833 4.00644
28.0518 26.6067 2
28.912 24.4519 0.0178529
29.8118 27.383 0.0260805
27.3328 37.3685 3.93136
29.0047 37.5071 2
30.5411 37.508 0.218668
29.4356 46.4976 -0.00178448
29.0525 43.0916 0.0748391
29.452 39.8533 0.119893
27.615 44.8304 2
27.2034 40.598 2
25.6528 43.1116 3.98849
24.4784 39.4536 3.97579
26.204 46.5865 0.0236111
24.3209 45.1307 2
22.2161 43.8853 3.97794
23.0723 47.0085 0.0251672
21.1722 45.8341 2
19.2303 44.9261 3.97773
20.1935 47.5678 0.022818
18.525 46.6926 2
16.8077 46.1795 3.97706
17.8394 48.1412 0.0236709
16.4865 47.6816 2
15.0595 47.6446 3.97531
16.2762 48.6537 0.0238776
15.313 48.9889 2
13.8732 49.5261 3.97078
15.9662 50.1422 0.0294236
14.5711 50.9631 2
12.9366 51.8611 3.96687
12.1517 54.5203 3.96672
13.8652 53.4203 2
15.4512 52.3934 0.033544
11.5391 57.4523 3.97079
13.265 56.1581 2
14.8938 54.9627 0.0352044
11.1352 60.6257 3.98059
12.8541 59.1175 2
14.4691 57.7267 0.033576
10.9835 64.0165 4
12.6785 62.2973 2
14.2697 60.6842 0.0270688
12.7745 65.694 2
14.3345 63.858 0.0140799
14.6715 67.2507 0
16.4206 18.6699 3.96451
17.6781 17.1716 2
16.1065 15.7929 3.97343
18.9376 15.7951 0.0221367
17.5138 14.3817 2
16.0213 12.8139 3.97866
18.9811 13.1171 0.022763
17.6392 11.4591 2
16.2026 9.66357 3.989
19.3437 10.2396 0.0177898
18.0498 8.34176 2
16.6661 6.31991 4
18.75 5.02404 2
19.9914 7.14741 0.010131
20.9142 3.86727 0
27.8649 34.8059 3.9223
29.4336 35.1489 2
30.9123 35.6276 0.225972
16.7302 21.3996 3.9652
21.7915 17.8706 0.0200255
19.2619 18.4263 0.0269924
20.9032 19.3999 2
18.0188 19.9633 2
19.7857 21.603 3.96951
22.3088 19.9221 0.0318679
24.6308 21.3667 0.0115298
22.4143 21.7544 2
24.7898 23.201 2
22.9918 24.6401 3.97275
24.8328 28.5738 3.97871
25.6456 25.9881 2
26.5208 23.7593 0.0281594
26.6066 31.768 3.98215
28.73 32.3918 2
30.3789 33.0916 0.129863
30.3395 29.6428 0.0548433
27.3127 29.1651 2
28.0602 26.5941 0.0115465
25.1629 36.8599 3.98153
27.3195 37.3605 2
29.061 37.5192 0.119847
27.6249 44.8046 0.0266718
27.222 40.5945 0.0491145
25.6358 43.1242 2
24.4619 39.4541 2
23.3722 41.8145 3.98011
22.1956 38.5221 3.97778
24.3291 45.1298 0.0239479
22.2148 43.8855 2
20.058 42.86 3.9768
21.1747 45.8349 0.0218542
19.2305 44.9261 2
17.1812 44.3461 3.9771
18.5244 46.6938 0.021901
16.8094 46.1786 2
15.0021 46.0654 3.97585
16.4851 47.6825 0.0228981
15.0609 47.644 2
13.3925 47.9896 3.97246
15.3114 48.9896 0.0261124
13.8744 49.5256 2
12.1604 50.2408 3.96803
14.5702 50.9636 0.0313692
12.9369 51.8609 2
11.1476 52.8318 3.96669
10.3298 55.707 3.97045
12.1523 54.5201 2
13.8653 53.4204 0.0342949
9.70189 58.848 3.97946
11.5395 57.4518 2
13.2645 56.1581 0.0334502
9.30605 62.2254 4
11.1336 60.6224 2
12.8536 59.118 0.028787
10.9835 64.0165 2
12.6804 62.3001 0.0170565
12.7746 65.6939 0
15.1677 20.2016 3.9648
16.4208 18.6696 2
14.758 17.3198 3.96719
17.6779 17.1723 0.0279715
16.1069 15.7919 2
14.4846 14.2973 3.97637
17.5135 14.3824 0.0236879
16.0212 12.8133 2
14.4454 11.1149 3.98805
17.6394 11.4593 0.0191824
16.2009 9.66531 2
14.6715 7.74927 4
18.0515 8.3404 0.0105093
16.6661 6.31988 2
18.75 5.0241 0
25.8246 34.2962 3.98917
27.8422 34.8146 2
29.4686 35.1642 0.117473
17.9344 22.3504 3.97039
15.5925 22.9414 3.9679
16.7306 21.3995 2
20.9031 19.4012 0.0268424
18.0185 19.9642 0.0392295
19.7859 21.6025 2
19.821 24.4212 3.97062
22.4144 21.7544 0.0223279
24.7895 23.2018 0.0234913
22.9908 24.6399 2
22.2004 27.8747 3.97289
24.1635 31.2466 3.97662
24.8467 28.5736 2
25.6485 25.9908 0.0230749
26.5893 31.7374 2
28.7582 32.4152 0.0709966
27.2914 29.1833 -0.00643547
22.9162 36.2887 3.98243
25.1476 36.8628 2
27.3328 37.3685 0.0686417
25.6528 43.1116 0.0115097
24.4784 39.4536 0.0242128
23.3617 41.8136 2
22.1879 38.5208 2
21.0948 40.6369 3.97559
20.4861 37.8036 3.97696
22.2161 43.8853 0.0220647
20.0568 42.8611 2
17.6415 42.0699 3.97644
19.2303 44.9261 0.0222701
17.1829 44.3461 2
15.0354 44.176 3.97619
16.8077 46.1795 0.0229369
15.0032 46.0649 2
13.0814 46.2778 3.97375
15.0595 47.6446 0.0246862
13.3935 47.9891 2
11.5391 48.5386 3.96895
13.8732 49.5261 0.0292218
12.1611 50.2405 2
10.2747 51.0767 3.96673
12.9366 51.8611 0.0331302
11.1482 52.8315 2
9.23852 53.8872 3.97029
8.38531 56.9813 3.97994
10.3302 55.7063 2
12.1517 54.5203 0.033278
7.74927 60.3285 4
9.70066 58.8445 2
11.5391 57.4523 0.0292147
9.306 62.2255 2
11.1352 60.6257 0.0194119
10.9835 64.0165 0
13.992 21.7673 3.96511
15.1683 20.2014 2
13.4614 18.9148 3.9669
16.4206 18.6699 0.0354949
14.7584 17.3191 2
13.0324 15.8932 3.97243
16.1065 15.7929 0.0265674
14.4845 14.2965 2
12.7831 12.6888 3.98614
16.0213 12.8139 0.0213396
14.4437 11.1171 2
12.7746 9.30605 4
16.2026 9.66357 0.0109957
14.6715 7.74924 2
16.6661 6.31991 0
23.5021 33.8373 3.98391
25.7997 34.2882 2
27.8649 34.8059 0.077704
17.7583 24.0749 3.96983
17.9355 22.3504 2
14.4205 24.475 3.96959
15.5938 22.9416 2
16.7302 21.3996 0.0347971
19.2768 27.2486 3.97207
19.7857 21.603 0.0304894
19.8186 24.421 2
21.5341 30.7172 3.97537
22.9918 24.6401 0.0272512
22.2091 27.8761 2
24.1438 31.2452 2
24.8328 28.5738 0.0212931
26.6066 31.768 0.0178497
20.6074 35.9539 3.97692
22.916 36.2872 2
25.1629 36.8599 0.0184745
23.3722 41.8145 0.0198879
22.1956 38.5221 0.0222158
21.1006 40.6362 2
20.4871 37.8026 2
18.3859 39.0058 3.97726
20.058 42.86 0.0231967
17.6425 42.0701 2
15.0185 41.8966 3.97676
17.1812 44.3461 0.0229012
15.0369 44.1755 2
12.8429 44.3764 3.97441
15.0021 46.0654 0.0241463
13.0827 46.2774 2
11.049 46.7233 3.96968
13.3925 47.9896 0.0275363
11.5398 48.5383 2
9.53978 49.237 3.96671
12.1604 50.2408 0.03197
10.2752 51.0763 2
8.27128 52.0011 3.96999
11.1476 52.8318 0.0333134
9.239 53.8863 2
7.19427 55.0322 3.98075
6.31991 58.3339 4
8.3844 56.9778 2
10.3298 55.707 0.029548
7.74924 60.3285 2
9.70189 58.848 0.02054
9.30605 62.2254 0
13.3138 25.382 3.97241
12.8779 23.2963 3.96698
13.9913 21.7671 2
12.2465 20.5595 3.96747
15.1677 20.2016 0.0351973
13.4626 18.9147 2
11.6639 17.5737 3.97077
14.758 17.3198 0.0328079
13.0328 15.8922 2
11.2212 14.3747 3.98216
14.4846 14.2973 0.0236337
12.7811 12.6912 2
10.9835 10.9835 4
14.4454 11.1149 0.0119544
12.7745 9.306 2
14.6715 7.74927 0
20.9684 33.4442 3.97601
23.5023 33.8404 2
25.8246 34.2962 0.0108252
16.0804 26.4342 3.97199
17.7588 24.0749 2
17.9344 22.3504 0.0296089
14.4207 24.4753 2
15.5925 22.9414 0.0320953
18.6588 30.2175 3.97492
19.2752 27.2488 2
19.821 24.4212 0.0293792
21.5364 30.7173 2
22.2004 27.8747 0.0271147
24.1635 31.2466 0.0233765
17.9975 35.9853 3.97808
20.6081 35.9557 2
22.9162 36.2887 0.0175748
21.0948 40.6369 0.0244092
20.4861 37.8036 0.0230396
18.3843 39.0055 2
14.5261 39.1704 3.97749
17.6415 42.0699 0.0235602
15.0198 41.8963 2
12.5392 42.266 3.97534
15.0354 44.176 0.0238073
12.8442 44.3761 2
10.6361 44.7933 3.97031
13.0814 46.2778 0.0262485
11.0497 46.723 2
8.92412 47.3163 3.96668
11.5391 48.5386 0.031054
9.53993 49.2367 2
7.43815 50.0348 3.96955
10.2747 51.0767 0.0332712
8.27163 52.0003 2
6.1349 53.0074 3.98121
9.23852 53.8872 0.029707
7.19372 55.0293 2
5.0241 56.25 4
6.31988 58.3339 2
8.38531 56.9813 0.0200632
7.74927 60.3285 0
13.5801 26.8361 3.97191
11.987 24.8012 3.96884
13.3131 25.3822 2
11.1519 22.2412 3.96632
12.8783 23.2965 2
13.992 21.7673 0.0348888
12.2476 20.5595 2
10.3946 19.3256 3.97097
13.4614 18.9148 0.0330999
11.6649 17.5739 2
9.7625 16.159 3.9795
13.0324 15.8932 0.0275668
11.2193 14.3782 2
9.30607 12.7746 4
12.7831 12.6888 0.0138611
10.9835 10.9835 2
12.7746 9.30605 0
18.1707 33.1513 3.97715
20.9696 33.4453 2
23.5021 33.8373 0.016087
15.706 29.6688 3.97449
16.0798 26.4346 2
17.7583 24.0749 0.0301692
14.4205 24.475 0.0304127
18.6572 30.2177 2
19.2768 27.2486 0.027927
21.5341 30.7172 0.0246343
15.1448 36.035 3.97787
17.9989 35.9852 2
20.6074 35.9539 0.0230761
12.7653 37.8317 3.97752
18.3859 39.0058 0.0227414
14.5267 39.1702 2
12.0426 40.1355 3.9762
15.0185 41.8966 0.0232368
12.5402 42.2658 2
10.2422 42.7707 3.97074
12.8429 44.3764 0.0255923
10.6367 44.7931 2
8.4032 45.3185 3.967
11.049 46.7233 0.0303176
8.9239 47.316 2
6.72933 48.0001 3.9692
9.53978 49.237 0.0332921
7.43836 50.0341 2
5.21171 50.9109 3.98091
8.27128 52.0011 0.0300143
6.13462 53.0055 2
3.86727 54.0858 4
7.19427 55.0322 0.0192532
5.02404 56.25 2
6.31991 58.3339 0
13.0561 29.0537 3.97153
11.4311 26.5008 3.96913
13.5795 26.8363 2
10.2118 23.9728 3.96678
11.9881 24.8014 2
13.3138 25.382 0.0275943
9.24728 21.1419 3.96999
11.1527 22.2413 2
12.8779 23.2963 0.0330224
12.2465 20.5595 0.0325288
10.3957 19.3259 2
8.41814 18.0298 3.97962
11.6639 17.5737 0.029225
9.76115 16.1631 2
7.74928 14.6715 4
11.2212 14.3747 0.0178439
9.30602 12.7745 2
10.9835 10.9835 0
14.7009 32.8866 3.97671
18.1686 33.1514 2
20.9684 33.4442 0.0239896
15.7075 29.6694 2
16.0804 26.4342 0.0280144
18.6588 30.2175 0.0250795
13.0582 36.2175 3.97718
15.1452 36.0351 2
17.9975 35.9853 0.0219193
12.7671 37.8315 2
11.3871 38.3095 3.97597
14.5261 39.1704 0.0225089
12.0444 40.1353 2
9.82724 40.7499 3.9713
12.5392 42.266 0.0246571
10.2434 42.7704 2
7.95302 43.2678 3.96736
10.6361 44.7933 0.0296897
8.40334 45.3182 2
6.13536 45.9053 3.96907
8.92412 47.3163 0.0333167
6.7295 47.9995 2
4.42322 48.7515 3.98028
7.43815 50.0348 0.0304495
5.2116 50.9098 2
2.85457 51.8506 4
6.1349 53.0074 0.0187895
3.86727 54.0858 2
5.0241 56.25 0
12.2007 31.2735 3.97269
10.8534 28.4278 3.9694
13.0576 29.0541 2
9.42917 25.8024 3.96711
11.4316 26.5011 2
13.5801 26.8361 0.0280884
8.23379 23.0252 3.96992
10.2125 23.973 2
11.987 24.8012 0.0311632
7.20026 19.9796 3.9801
9.24825 21.1425 2
11.1519 22.2412 0.0336758
10.3946 19.3256 0.0290343
8.41735 18.0338 2
6.31992 16.6661 4
9.7625 16.159 0.0204986
7.74926 14.6714 2
9.30607 12.7746 0
12.2264 34.3067 3.97698
14.7021 32.8872 2
18.1707 33.1513 0.0228516
15.706 29.6688 0.0255082
10.9428 36.6144 3.97519
13.0595 36.2176 2
15.1448 36.035 0.0221338
12.7653 37.8317 0.0224841
11.389 38.3095 2
9.41607 38.8219 3.97174
12.0426 40.1355 0.0238036
9.82828 40.7496 2
7.56436 41.21 3.96774
10.2422 42.7707 0.0292645
7.95234 43.2676 2
5.64722 43.7682 3.96904
8.4032 45.3185 0.0329993
6.13549 45.9047 2
3.76876 46.5371 3.97988
6.72933 48.0001 0.0307977
4.4233 48.751 2
1.99014 49.554 4
5.21171 50.9109 0.019089
2.85451 51.8506 2
3.86727 54.0858 0
11.0283 32.9305 3.97459
10.1708 30.3932 3.96993
12.2021 31.2738 2
8.7406 27.736 3.96718
10.8541 28.4281 2
13.0561 29.0537 0.0284741
7.35922 24.9837 3.9696
9.42935 25.8027 2
11.4311 26.5008 0.0308663
6.11715 22.0026 3.9811
8.23442 23.0258 2
10.2118 23.9728 0.0332163
5.02411 18.75 4
7.19992 19.9827 2
9.24728 21.1419 0.0300149
8.41814 18.0298 0.0203762
6.3199 16.6661 2
7.74928 14.6715 0
10.5431 35.0062 3.97493
12.2285 34.307 2
14.7009 32.8866 0.0232912
9.08003 36.9861 3.97229
10.9442 36.6145 2
13.0582 36.2175 0.0228233
11.3871 38.3095 0.0240328
9.41746 38.8218 2
7.24239 39.1818 3.96822
9.82724 40.7499 0.0286957
7.56445 41.2098 2
5.26232 41.6139 3.96894
7.95302 43.2678 0.0326368
5.64729 43.7678 2
3.24647 44.2819 3.97986
6.13536 45.9053 0.0309285
3.76894 46.5368 2
1.27781 47.2057 4
4.42322 48.7515 0.019721
1.99012 49.554 2
2.85457 51.8506 0
10.1787 33.8892 3.97533
9.45393 32.1626 3.9707
11.0298 32.9308 2
8.08868 29.699 3.9675
10.1717 30.3934 2
12.2007 31.2735 0.0273091
6.60274 27.0093 3.96943
8.74028 27.7362 2
10.8534 28.4278 0.0305997
5.17254 24.0951 3.98098
7.35954 24.9841 2
9.42917 25.8024 0.0328945
3.86728 20.9142 4
6.11703 22.0045 2
8.23379 23.0252 0.0300763
5.02406 18.75 2
7.20026 19.9796 0.0198954
6.31992 16.6661 0
8.90084 35.2829 3.9723
10.5442 35.0063 2
12.2264 34.3067 0.0230216
7.02268 37.2064 3.96821
9.0809 36.986 2
10.9428 36.6144 0.0248108
9.41607 38.8219 0.0282622
7.24286 39.1817 2
4.98982 39.4674 3.96921
7.56436 41.21 0.0322634
5.26274 41.6136 2
2.8569 42.0022 3.97986
5.64722 43.7682 0.030963
3.24653 44.2816 2
0.720592 44.8159 4
3.76876 46.5371 0.0201212
1.27778 47.2057 2
1.99014 49.554 0
8.94094 33.7033 3.97189
10.18 33.8893 2
7.52433 31.6118 3.96779
9.45508 32.1628 2
11.0283 32.9305 0.0254064
5.9477 29.0702 3.9695
8.08812 29.6992 2
10.1708 30.3932 0.0300727
4.36019 26.2475 3.9805
6.60286 27.0097 2
8.7406 27.736 0.0328166
2.85458 23.1494 4
5.17254 24.096 2
7.35922 24.9837 0.030397
3.86728 20.9142 2
6.11715 22.0026 0.0189033
5.02411 18.75 0
6.97123 35.3072 3.96814
8.90168 35.2829 2
10.5431 35.0062 0.0250674
4.8399 37.3399 3.96965
7.02306 37.2064 2
9.08003 36.9861 0.0277116
7.24239 39.1818 0.0317753
4.99023 39.4672 2
2.60491 39.7138 3.9799
5.26232 41.6139 0.0310574
2.85724 42.0021 2
0.320823 42.3947 4
3.24647 44.2819 0.0201368
0.720551 44.8159 2
1.27781 47.2057 0
7.1342 33.4628 3.96799
8.94156 33.7034 2
10.1787 33.8892 0.0246681
5.41835 31.1339 3.96973
7.52413 31.612 2
9.45393 32.1626 0.0293034
3.68183 28.4434 3.98011
5.94781 29.0705 2
8.08868 29.699 0.0325037
1.99015 25.446 4
4.36027 26.2478 2
6.60274 27.0093 0.0305701
2.85453 23.1494 2
5.17254 24.0951 0.019025
3.86728 20.9142 0
4.85423 35.2517 3.96973
6.97125 35.3073 2
8.90084 35.2829 0.0276961
2.49632 37.4284 3.98059
4.83992 37.3399 2
7.02268 37.2064 0.0317941
4.98982 39.4674 0.0307901
2.60532 39.7141 2
0.080333 39.9526 4
2.8569 42.0022 0.0201408
0.320817 42.3947 2
0.720592 44.8159 0
5.04768 33.1904 3.96974
7.13404 33.4629 2
8.94094 33.7033 0.0281139
3.14605 30.6661 3.9801
5.41846 31.1343 2
7.52433 31.6118 0.0322097
1.27793 27.7943 4
3.68202 28.4436 2
5.9477 29.0702 0.0305038
1.99013 25.446 2
4.36019 26.2475 0.0194972
2.85458 23.1494 0
2.54843 35.159 3.98038
4.85475 35.2519 2
6.97123 35.3072 0.0318575
0 37.5 4
2.49635 37.4288 2
4.8399 37.3399 0.0303531
2.60491 39.7138 0.0201043
0.0802903 39.9526 2
0.320823 42.3947 0
2.76607 32.9057 3.98049
5.04782 33.1908 2
7.1342 33.4628 0.0320085
0.721173 30.1842 4
3.14627 30.6665 2
5.41835 31.1339 0.0302693
1.27779 27.7943 2
3.68183 28.4434 0.0198888
1.99015 25.446 0
0.0806499 35.0474 4
2.54893 35.1594 2
4.85423 35.2517 0.0302689
0 37.5 2
2.49632 37.4284 0.0194145
0.080333 39.9526 0
0.32156 32.6054 4
2.76617 32.9063 2
5.04768 33.1904 0.0302615
0.72056 30.1841 2
3.14605 30.6661 0.0199014
1.27793 27.7943 0
0.0802889 35.0474 2
2.54843 35.159 0.0196202
0 37.5 0
0.320817 32.6053 2
2.76607 32.9057 0.0195135
0.721173 30.1842 0
0.0806499 35.0474 0
0.32156 32.6054 0
CELLS 1910 17190
8 18 6 25 56 2 0 5 16
8 57 23 6 18 17 4 0 2
8 78 36 9 29 31 11 1 7
8 31 11 1 7 79 37 10 30
8 110 57 18 50 48 17 2 14
8 50 18 56 111 14 2 16 49
8 116 62 22 55 52 20 3 15
8 56 25 67 118 16 5 24 53
8 119 63 23 57 54 21 4 17
8 55 22 63 119 15 3 21 54
8 58 26 68 121 18 6 25 56
8 122 65 26 58 57 23 6 18
8 73 31 7 27 142 79 30 71
8 143 78 29 72 73 31 7 27
8 83 147 76 34 32 74 28 8
8 84 148 78 36 33 75 29 9
8 76 34 8 28 148 84 33 75
8 37 79 150 86 10 30 77 35
8 151 87 36 78 80 38 11 31
8 80 38 11 31 152 88 37 79
8 175 100 42 94 96 44 12 40
8 44 96 176 101 12 40 95 43
8 101 176 98 46 43 95 41 13
8 46 98 178 103 13 41 97 45
8 178 103 45 97 147 83 32 74
8 189 116 55 109 106 52 15 47
8 111 56 118 191 49 16 53 107
8 192 119 57 110 108 54 17 48
8 109 55 119 192 47 15 54 108
8 194 122 58 112 110 57 18 50
8 112 58 121 195 50 18 56 111
8 115 61 19 51 197 124 59 113
8 115 61 125 198 51 19 60 114
8 198 125 62 116 114 60 20 52
8 200 127 64 120 116 62 22 55
8 118 67 132 202 53 24 66 117
8 121 68 133 203 56 25 67 118
8 120 64 128 204 55 22 63 119
8 204 128 65 122 119 63 23 57
8 206 134 68 121 123 69 26 58
8 123 69 26 58 207 131 65 122
8 226 147 74 138 140 76 28 70
8 229 148 75 139 143 78 29 72
8 140 76 28 70 229 148 75 139
8 142 79 30 71 231 150 77 141
8 144 80 31 73 232 152 79 142
8 233 151 78 143 144 80 31 73
8 150 86 35 77 235 154 81 145
8 235 154 81 145 146 82 39 91
8 146 82 39 91 236 155 90 165
8 238 157 83 147 149 85 34 76
8 239 158 84 148 151 87 36 78
8 149 85 34 76 239 158 84 148
8 152 88 37 79 241 160 86 150
8 242 161 87 151 153 89 38 80
8 153 89 38 80 243 162 88 152
8 171 98 41 92 265 178 97 169
8 265 178 97 169 226 147 74 138
8 172 96 40 93 266 176 95 170
8 266 176 95 170 171 98 41 92
8 269 175 94 173 172 96 40 93
8 271 180 99 174 175 100 42 94
8 197 124 59 113 271 180 99 174
8 272 181 100 175 177 102 44 96
8 273 182 101 176 179 104 46 98
8 177 102 44 96 273 182 101 176
8 179 104 46 98 275 184 103 178
8 275 184 103 178 238 157 83 147
8 188 115 51 105 283 197 113 186
8 188 115 198 284 105 51 114 187
8 284 198 116 189 187 114 52 106
8 286 200 120 193 189 116 55 109
8 191 118 202 288 107 53 117 190
8 195 121 203 289 111 56 118 191
8 193 120 204 290 109 55 119 192
8 290 204 122 194 192 119 57 110
8 196 123 58 112 292 207 122 194
8 293 206 121 195 196 123 58 112
8 199 126 61 115 297 211 124 197
8 298 212 127 200 198 125 62 116
8 199 126 212 298 115 61 125 198
8 205 129 64 120 300 214 127 200
8 301 217 130 201 202 132 66 117
8 209 136 168 264 301 217 130 201
8 302 219 132 202 203 133 67 118
8 303 220 133 203 206 134 68 121
8 205 129 215 304 120 64 128 204
8 304 215 131 207 204 128 65 122
8 306 221 134 206 208 135 69 123
8 208 135 69 123 307 218 131 207
8 210 137 167 263 309 223 136 209
8 328 238 147 226 230 149 76 140
8 228 146 91 166 329 236 165 260
8 231 150 77 141 330 235 145 227
8 330 235 145 227 228 146 91 166
8 332 239 148 229 233 151 78 143
8 230 149 76 140 332 239 148 229
8 232 152 79 142 334 241 150 231
8 234 153 80 144 335 243 152 232
8 336 242 151 233 234 153 80 144
8 236 155 90 165 338 245 164 259
8 241 160 86 150 339 246 154 235
8 339 246 154 235 237 156 82 146
8 237 156 82 146 340 247 155 236
8 342 249 157 238 240 159 85 149
8 343 250 158 239 242 161 87 151
8 240 159 85 149 343 250 158 239
8 243 162 88 152 345 252 160 241
8 244 163 253 346 153 89 161 242
8 244 163 89 153 347 254 162 243
8 311 224 261 371 210 137 167 263
8 263 167 262 372 209 136 168 264
8 267 179 98 171 375 275 178 265
8 375 275 178 265 328 238 147 226
8 376 273 176 266 267 179 98 171
8 268 177 96 172 376 273 176 266
8 379 272 175 269 268 177 96 172
8 380 271 174 270 269 175 94 173
8 283 197 113 186 380 271 174 270
8 381 277 180 271 272 181 100 175
8 297 211 124 197 381 277 180 271
8 382 278 181 272 274 183 102 177
8 274 183 102 177 383 279 182 273
8 383 279 182 273 276 185 104 179
8 385 281 184 275 342 249 157 238
8 276 185 104 179 385 281 184 275
8 285 199 115 188 393 297 197 283
8 394 298 200 286 284 198 116 189
8 285 199 298 394 188 115 198 284
8 291 205 120 193 396 300 200 286
8 397 301 201 287 288 202 117 190
8 295 209 264 374 397 301 201 287
8 398 302 202 288 289 203 118 191
8 399 303 203 289 293 206 121 195
8 291 205 304 400 193 120 204 290
8 400 304 207 292 290 204 122 194
8 294 208 123 196 402 307 207 292
8 403 306 206 293 294 208 123 196
8 296 210 263 373 405 309 209 295
8 408 312 213 299 297 211 126 199
8 299 213 313 409 199 126 212 298
8 409 313 214 300 298 212 127 200
8 305 216 129 205 411 315 214 300
8 412 318 217 301 302 219 132 202
8 309 223 136 209 412 318 217 301
8 413 320 219 302 303 220 133 203
8 306 221 321 414 206 134 220 303
8 307 218 131 207 415 316 215 304
8 305 216 316 415 205 129 215 304
8 417 322 221 306 308 222 135 208
8 308 222 135 208 418 319 218 307
8 310 225 137 210 420 325 223 309
8 423 326 224 311 310 225 137 210
8 329 236 165 260 441 338 259 368
8 442 342 238 328 333 240 149 230
8 331 237 146 228 443 340 236 329
8 334 241 150 231 444 339 235 330
8 444 339 235 330 331 237 146 228
8 446 343 239 332 336 242 151 233
8 333 240 149 230 446 343 239 332
8 335 243 152 232 448 345 241 334
8 337 244 153 234 449 347 243 335
8 337 244 346 450 234 153 242 336
8 338 245 164 259 452 349 258 367
8 340 247 155 236 453 350 245 338
8 345 252 160 241 454 351 246 339
8 454 351 246 339 341 248 156 237
8 341 248 156 237 455 352 247 340
8 240 159 251 344 342 249 354 457
8 242 161 253 346 343 250 355 458
8 343 250 355 458 240 159 251 344
8 347 254 162 243 460 357 252 345
8 348 255 358 461 244 163 253 346
8 348 255 163 244 462 359 254 347
8 473 360 257 365 363 256 364 482
8 452 349 258 367 365 257 366 485
8 422 324 369 488 311 224 261 371
8 371 261 370 490 263 167 262 372
8 407 311 371 491 296 210 263 373
8 373 263 372 492 295 209 264 374
8 493 385 275 375 442 342 238 328
8 377 276 179 267 493 385 275 375
8 378 274 177 268 494 383 273 376
8 494 383 273 376 377 276 179 267
8 497 382 272 379 378 274 177 268
8 498 381 271 380 379 272 175 269
8 393 297 197 283 498 381 271 380
8 499 387 277 381 382 278 181 272
8 408 312 211 297 499 387 277 381
8 500 388 278 382 384 280 183 274
8 501 389 279 383 386 282 185 276
8 384 280 183 274 501 389 279 383
8 386 282 185 276 503 391 281 385
8 503 391 281 385 457 354 249 342
8 511 408 299 395 393 297 199 285
8 395 299 409 512 285 199 298 394
8 512 409 300 396 394 298 200 286
8 401 305 205 291 514 411 300 396
8 515 412 301 397 398 302 202 288
8 405 309 209 295 515 412 301 397
8 516 413 302 398 399 303 203 289
8 403 306 414 517 293 206 303 399
8 402 307 207 292 518 415 304 400
8 401 305 415 518 291 205 304 400
8 404 308 208 294 520 418 307 402
8 521 417 306 403 404 308 208 294
8 406 310 210 296 523 420 309 405
8 526 423 311 407 406 310 210 296
8 410 314 213 299 527 424 312 408
8 528 425 315 411 409 313 214 300
8 410 314 425 528 299 213 313 409
8 416 317 216 305 530 427 315 411
8 531 430 318 412 413 320 219 302
8 420 325 223 309 531 430 318 412
8 532 432 320 413 414 321 220 303
8 417 322 433 533 306 221 321 414
8 418 319 218 307 534 428 316 415
8 416 317 428 534 305 216 316 415
8 419 323 434 536 308 222 322 417
8 419 323 222 308 537 431 319 418
8 421 327 225 310 539 438 325 420
8 421 327 439 541 310 225 326 423
8 543 437 324 422 423 326 224 311
8 441 338 259 368 559 452 367 486
8 443 340 236 329 560 453 338 441
8 333 240 344 447 442 342 457 561
8 445 341 237 331 562 455 340 443
8 448 345 241 334 563 454 339 444
8 563 454 339 444 445 341 237 331
8 336 242 346 450 446 343 458 565
8 446 343 458 565 333 240 344 447
8 449 347 243 335 567 460 345 448
8 451 348 244 337 568 462 347 449
8 451 348 461 569 337 244 346 450
8 570 463 349 452 473 360 257 365
8 453 350 245 338 570 463 349 452
8 455 352 247 340 571 464 350 453
8 460 357 252 345 572 465 351 454
8 572 465 351 454 456 353 248 341
8 456 353 248 341 573 466 352 455
8 344 251 356 459 457 354 468 575
8 458 355 469 576 344 251 356 459
8 346 253 358 461 458 355 469 576
8 462 359 254 347 578 471 357 460
8 348 255 359 462 461 358 472 579
8 591 474 360 473 475 361 256 363
8 475 361 256 363 594 477 362 479
8 363 256 364 482 479 362 480 603
8 590 473 365 484 481 363 482 605
8 482 364 257 365 606 483 366 485
8 559 452 367 486 484 365 485 607
8 542 436 487 609 422 324 369 488
8 525 422 488 611 407 311 371 491
8 488 369 489 612 371 261 370 490
8 491 371 490 613 373 263 372 492
8 495 386 276 377 614 503 385 493
8 614 503 385 493 561 457 342 442
8 615 501 383 494 495 386 276 377
8 496 384 274 378 615 501 383 494
8 618 500 382 497 496 384 274 378
8 619 499 381 498 497 382 272 379
8 511 408 297 393 619 499 381 498
8 620 505 387 499 500 388 278 382
8 527 424 312 408 620 505 387 499
8 502 390 506 621 384 280 388 500
8 622 507 389 501 504 392 282 386
8 502 390 280 384 622 507 389 501
8 504 392 282 386 624 509 391 503
8 624 509 391 503 575 468 354 457
8 513 410 299 395 630 527 408 511
8 631 528 411 514 512 409 300 396
8 513 410 528 631 395 299 409 512
8 519 416 305 401 633 530 411 514
8 634 531 412 515 516 413 302 398
8 523 420 309 405 634 531 412 515
8 635 532 413 516 517 414 303 399
8 521 417 533 636 403 306 414 517
8 520 418 307 402 637 534 415 518
8 519 416 534 637 401 305 415 518
8 522 419 308 404 639 537 418 520
8 522 419 536 640 404 308 417 521
8 524 421 310 406 642 539 420 523
8 524 421 541 644 406 310 423 526
8 646 543 422 525 526 423 311 407
8 529 426 314 410 647 544 424 527
8 528 425 545 648 411 315 427 530
8 529 426 545 648 410 314 425 528
8 535 429 317 416 649 546 427 530
8 650 548 430 531 532 432 320 413
8 539 438 325 420 650 548 430 531
8 533 433 550 651 414 321 432 532
8 536 434 551 652 417 322 433 533
8 537 431 319 418 653 547 428 534
8 535 429 547 653 416 317 428 534
8 538 435 552 654 419 323 434 536
8 538 435 323 419 655 549 431 537
8 540 440 327 421 657 556 438 539
8 540 440 557 659 421 327 439 541
8 541 439 555 660 423 326 437 543
8 661 554 436 542 543 437 324 422
8 676 570 452 559 590 473 365 484
8 560 453 338 441 676 570 452 559
8 562 455 340 443 677 571 453 560
8 447 344 459 566 561 457 575 678
8 564 456 341 445 679 573 455 562
8 567 460 345 448 680 572 454 563
8 680 572 454 563 564 456 341 445
8 565 458 576 682 447 344 459 566
8 450 346 461 569 565 458 576 682
8 568 462 347 449 684 578 460 567
8 451 348 462 568 569 461 579 685
8 686 580 463 570 591 474 360 473
8 571 464 350 453 686 580 463 570
8 573 466 352 455 687 581 464 571
8 572 465 582 688 460 357 471 578
8 574 467 582 688 456 353 465 572
8 574 467 353 456 689 583 466 573
8 459 356 470 577 575 468 585 691
8 576 469 586 692 459 356 470 577
8 461 358 472 579 576 469 586 692
8 462 359 471 578 579 472 588 694
8 704 591 473 590 593 475 363 481
8 595 476 592 705 475 361 474 591
8 593 475 363 481 707 594 479 602
8 594 477 362 479 709 598 478 600
8 595 476 361 475 711 597 477 594
8 479 362 480 603 600 478 601 720
8 481 363 482 605 602 479 603 722
8 603 480 364 482 723 604 483 606
8 605 482 365 484 724 606 485 607
8 656 553 608 726 542 436 487 609
8 645 542 609 728 525 422 488 611
8 609 487 610 729 488 369 489 612
8 611 488 612 730 491 371 490 613
8 616 504 386 495 731 624 503 614
8 731 624 503 614 678 575 457 561
8 732 622 501 615 616 504 386 495
8 617 502 384 496 732 622 501 615
8 617 502 621 735 496 384 500 618
8 736 620 499 619 618 500 382 497
8 630 527 408 511 736 620 499 619
8 621 506 626 737 500 388 505 620
8 647 544 424 527 737 626 505 620
8 623 508 627 738 502 390 506 621
8 623 508 390 502 739 628 507 622
8 625 510 628 739 504 392 507 622
8 740 629 509 624 691 585 468 575
8 625 510 392 504 740 629 509 624
8 632 529 410 513 744 647 527 630
8 631 528 648 745 514 411 530 633
8 632 529 648 745 513 410 528 631
8 638 535 416 519 746 649 530 633
8 747 650 531 634 635 532 413 516
8 642 539 420 523 747 650 531 634
8 636 533 651 748 517 414 532 635
8 640 536 652 749 521 417 533 636
8 639 537 418 520 750 653 534 637
8 638 535 653 750 519 416 534 637
8 641 538 419 522 751 655 537 639
8 641 538 654 752 522 419 536 640
8 643 540 421 524 753 657 539 642
8 643 540 659 755 524 421 541 644
8 644 541 660 757 526 423 543 646
8 758 661 542 645 646 543 422 525
8 529 426 544 647 648 545 662 759
8 530 427 545 648 649 546 663 760
8 535 429 546 649 653 547 664 761
8 762 666 548 650 651 550 432 532
8 657 556 438 539 762 666 548 650
8 652 551 668 763 533 433 550 651
8 654 552 669 764 536 434 551 652
8 655 549 431 537 765 665 547 653
8 538 435 549 655 654 552 667 766
8 661 554 671 768 542 436 553 656
8 658 558 440 540 769 674 556 657
8 658 558 675 770 540 440 557 659
8 659 557 673 771 541 439 555 660
8 660 555 672 772 543 437 554 661
8 788 686 570 676 704 591 473 590
8 677 571 453 560 788 686 570 676
8 679 573 455 562 789 687 571 677
8 566 459 577 683 678 575 691 790
8 681 574 456 564 791 689 573 679
8 680 572 688 792 567 460 578 684
8 681 574 688 792 564 456 572 680
8 682 576 692 794 566 459 577 683
8 569 461 579 685 682 576 692 794
8 568 462 578 684 685 579 694 796
8 687 581 464 571 798 696 580 686
8 798 696 580 686 705 592 474 591
8 689 583 466 573 799 697 581 687
8 688 582 698 800 578 471 588 694
8 690 584 698 800 574 467 582 688
8 690 584 467 574 801 699 583 689
8 693 587 701 803 577 470 585 691
8 693 587 470 577 804 702 586 692
8 695 589 702 804 579 472 586 692
8 695 589 472 579 805 703 588 694
8 708 595 705 813 593 475 591 704
8 710 596 706 814 595 476 592 705
8 707 594 479 602 816 709 600 719
8 708 595 475 593 817 711 594 707
8 709 598 478 600 819 715 599 717
8 711 597 477 594 820 714 598 709
8 710 596 476 595 822 713 597 711
8 600 478 601 720 717 599 718 832
8 602 479 603 722 719 600 720 834
8 720 601 480 603 835 721 604 723
8 722 603 482 605 836 723 606 724
8 767 670 725 839 656 553 608 726
8 756 656 726 841 645 542 609 728
8 726 608 727 842 609 487 610 729
8 728 609 729 843 611 488 612 730
8 844 740 624 731 790 691 575 678
8 733 625 504 616 844 740 624 731
8 734 623 502 617 845 739 622 732
8 733 625 739 845 616 504 622 732
8 734 623 738 846 617 502 621 735
8 735 621 737 847 618 500 620 736
8 744 647 527 630 847 737 620 736
8 621 506 627 738 737 626 741 848
8 647 544 626 737 759 662 741 848
8 623 508 628 739 738 627 742 849
8 740 629 585 691 850 743 700 802
8 625 510 629 740 739 628 743 850
8 632 529 647 744 745 648 759 854
8 633 530 648 745 746 649 760 855
8 638 535 649 746 750 653 761 856
8 857 762 650 747 748 651 532 635
8 753 657 539 642 857 762 650 747
8 749 652 763 858 636 533 651 748
8 752 654 764 859 640 536 652 749
8 751 655 537 639 860 765 653 750
8 641 538 655 751 752 654 766 861
8 754 658 540 643 862 769 657 753
8 754 658 770 863 643 540 659 755
8 755 659 771 864 644 541 660 757
8 758 661 768 866 645 542 656 756
8 757 660 772 867 646 543 661 758
8 759 662 773 868 648 545 663 760
8 649 546 663 760 761 664 774 871
8 765 665 547 653 872 775 664 761
8 873 777 666 762 763 668 550 651
8 769 674 556 657 873 777 666 762
8 764 669 779 874 652 551 668 763
8 654 552 667 766 764 669 778 875
8 655 549 665 765 766 667 776 876
8 768 671 782 877 656 553 670 767
8 772 672 783 878 661 554 671 768
8 658 558 674 769 770 675 786 879
8 659 557 675 770 771 673 785 881
8 882 784 672 772 771 673 555 660
8 789 687 571 677 897 798 686 788
8 897 798 686 788 813 705 591 704
8 791 689 573 679 898 799 687 789
8 795 693 803 900 683 577 691 790
8 793 690 574 681 901 801 689 791
8 792 688 800 902 684 578 694 796
8 793 690 800 902 681 574 688 792
8 795 693 577 683 903 804 692 794
8 797 695 804 903 685 579 692 794
8 797 695 579 685 904 805 694 796
8 905 806 697 799 798 696 581 687
8 814 706 806 905 705 592 696 798
8 689 583 697 799 801 699 808 907
8 800 698 809 908 694 588 703 805
8 690 584 699 801 800 698 809 908
8 803 701 810 909 691 585 700 802
8 693 587 702 804 803 701 811 910
8 695 589 703 805 804 702 812 911
8 818 710 814 919 708 595 705 813
8 821 712 815 920 710 596 706 814
8 816 709 600 719 922 819 717 831
8 817 711 594 707 923 820 709 816
8 818 710 595 708 924 822 711 817
8 819 715 599 717 926 827 716 829
8 820 714 598 709 927 826 715 819
8 929 825 713 822 820 714 597 711
8 821 712 596 710 930 824 713 822
8 717 599 718 832 829 716 830 942
8 719 600 720 834 831 717 832 944
8 832 718 601 720 945 833 721 835
8 834 720 603 722 946 835 723 836
8 869 780 838 950 767 670 725 839
8 865 767 839 952 756 656 726 841
8 839 725 840 953 726 608 727 842
8 841 726 842 954 728 609 729 843
8 844 740 691 790 955 850 802 899
8 733 625 740 844 845 739 850 955
8 734 623 739 845 846 738 849 956
8 735 621 738 846 847 737 848 957
8 744 647 737 847 854 759 848 957
8 738 627 742 849 848 741 851 958
8 848 741 851 958 759 662 773 868
8 850 743 700 802 959 852 807 906
8 849 742 628 739 959 852 743 850
8 854 759 868 965 745 648 760 855
8 746 649 760 855 856 761 871 966
8 860 765 653 750 967 872 761 856
8 968 873 762 857 858 763 651 748
8 862 769 657 753 968 873 762 857
8 859 764 874 969 749 652 763 858
8 752 654 766 861 859 764 875 970
8 751 655 765 860 861 766 876 971
8 754 658 769 862 863 770 879 972
8 755 659 770 863 864 771 881 974
8 976 882 772 867 864 771 660 757
8 866 768 877 977 756 656 767 865
8 867 772 878 978 758 661 768 866
8 760 663 773 868 871 774 883 980
8 870 781 837 948 982 890 780 869
8 982 890 780 869 877 782 670 767
8 761 664 774 871 872 775 884 984
8 876 776 665 765 985 885 775 872
8 873 777 668 763 986 887 779 874
8 769 674 777 873 879 786 887 986
8 764 669 778 875 874 779 888 987
8 766 667 776 876 875 778 886 988
8 878 783 892 989 768 671 782 877
8 878 783 672 772 990 893 784 882
8 880 787 675 770 991 896 786 879
8 880 787 895 992 770 675 785 881
8 881 785 894 993 771 673 784 882
8 1006 905 799 898 897 798 687 789
8 919 814 905 1006 813 705 798 897
8 791 689 799 898 901 801 907 1007
8 900 803 909 1009 790 691 802 899
8 795 693 804 903 900 803 910 1010
8 902 800 908 1011 796 694 805 904
8 793 690 801 901 902 800 908 1011
8 797 695 805 904 903 804 911 1012
8 799 697 806 905 907 808 912 1013
8 920 815 912 1013 814 706 806 905
8 802 700 810 909 906 807 913 1014
8 801 699 808 907 908 809 914 1015
8 805 703 809 908 911 812 915 1016
8 803 701 811 910 909 810 916 1017
8 911 812 917 1018 804 702 811 910
8 925 821 920 1030 818 710 814 919
8 928 823 921 1031 821 712 815 920
8 922 819 717 831 1033 926 829 941
8 923 820 709 816 1034 927 819 922
8 1035 929 822 924 923 820 711 817
8 925 821 710 818 1036 930 822 924
8 1038 933 825 929 927 826 714 820
8 926 827 716 829 1039 935 828 939
8 927 826 715 819 1040 934 827 926
8 928 823 712 821 1041 931 824 930
8 1042 932 824 930 929 825 713 822
8 829 716 830 942 939 828 940 1058
8 831 717 832 944 941 829 942 1060
8 942 830 718 832 1061 943 833 945
8 944 832 720 834 1062 945 835 946
8 981 889 947 1064 870 781 837 948
8 948 837 949 1067 869 780 838 950
8 975 869 950 1069 865 767 839 952
8 950 838 951 1070 839 725 840 953
8 952 839 953 1071 841 726 842 954
8 955 850 802 899 1072 959 906 1008
8 956 849 739 845 1072 959 850 955
8 846 738 849 956 957 848 958 1073
8 957 848 958 1073 854 759 868 965
8 849 742 852 959 958 851 961 1076
8 960 853 961 1076 906 807 852 959
8 958 851 961 1076 868 773 883 980
8 960 853 807 906 1077 963 913 1014
8 855 760 868 965 966 871 980 1085
8 856 761 871 966 967 872 984 1086
8 971 876 765 860 1087 985 872 967
8 968 873 763 858 1088 986 874 969
8 862 769 873 968 972 879 986 1088
8 859 764 875 970 969 874 987 1089
8 861 766 876 971 970 875 988 1090
8 973 880 770 863 1091 991 879 972
8 973 880 992 1092 863 770 881 974
8 974 881 993 1093 864 771 882 976
8 979 870 948 1066 1094 982 869 975
8 1094 982 869 975 977 877 767 865
8 978 878 772 867 1095 990 882 976
8 978 878 989 1096 866 768 877 977
8 871 774 883 980 984 884 994 1099
8 983 891 999 1100 870 781 889 981
8 1101 1000 890 982 989 892 782 877
8 983 891 781 870 1101 1000 890 982
8 872 775 884 984 985 885 995 1103
8 876 776 885 985 988 886 996 1104
8 986 887 779 874 1105 998 888 987
8 879 786 887 986 991 896 998 1105
8 875 778 886 988 987 888 997 1106
8 990 893 1002 1107 878 783 892 989
8 1108 1003 893 990 993 894 784 882
8 880 787 896 991 992 895 1005 1109
8 993 894 785 881 1110 1004 895 992
8 898 799 905 1006 1007 907 1013 1120
8 1030 920 1013 1120 919 814 905 1006
8 901 801 907 1007 1011 908 1015 1121
8 899 802 909 1009 1008 906 1014 1122
8 900 803 910 1010 1009 909 1017 1123
8 1012 911 1018 1124 903 804 910 1010
8 904 805 908 1011 1012 911 1016 1125
8 1013 912 1020 1127 907 808 914 1015
8 1031 921 1020 1127 920 815 912 1013
8 1019 918 962 1075 1128 1021 913 1014
8 1128 1021 913 1014 1017 916 810 909
8 1015 914 1022 1129 908 809 915 1016
8 1016 915 1023 1130 911 812 917 1018
8 1018 917 1024 1131 910 811 916 1017
8 1037 928 1031 1148 925 821 920 1030
8 928 823 931 1041 1031 921 1032 1149
8 1033 926 829 941 1151 1039 939 1057
8 1034 927 819 922 1152 1040 926 1033
8 1153 1038 929 1035 1034 927 820 923
8 1154 1042 930 1036 1035 929 822 924
8 1037 928 821 925 1155 1041 930 1036
8 1039 935 828 939 1156 1047 938 1055
8 1157 1043 932 1042 1038 933 825 929
8 1038 933 826 927 1158 1045 934 1040
8 1040 934 827 926 1159 1046 935 1039
8 930 824 932 1042 1041 931 1044 1160
8 1051 936 1048 1165 1175 1052 937 1053
8 1156 1047 938 1055 1053 937 1054 1178
8 939 828 940 1058 1055 938 1056 1181
8 941 829 942 1060 1057 939 1058 1183
8 942 830 943 1061 1058 940 1059 1184
8 1060 942 832 944 1185 1061 945 1062
8 1082 964 1063 1188 981 889 947 1064
8 1097 981 1064 1190 979 870 948 1066
8 1064 947 1065 1191 948 837 949 1067
8 1066 948 1067 1193 975 869 950 1069
8 1067 949 1068 1194 950 838 951 1070
8 1069 950 1070 1195 952 839 953 1071
8 956 849 959 1072 1073 958 1076 1197
8 1074 960 1076 1197 1008 906 959 1072
8 1073 958 1076 1197 965 868 980 1085
8 1074 960 906 1008 1198 1077 1014 1122
8 1133 1026 1079 1199 1019 918 962 1075
8 1077 963 913 1014 1200 1080 962 1075
8 960 853 963 1077 1076 961 1078 1201
8 980 883 961 1076 1099 994 1078 1201
8 1210 1083 964 1082 1100 999 889 981
8 966 871 980 1085 1086 984 1099 1215
8 967 872 984 1086 1087 985 1103 1216
8 971 876 985 1087 1090 988 1104 1217
8 1088 986 874 969 1218 1105 987 1089
8 972 879 986 1088 1091 991 1105 1218
8 970 875 988 1090 1089 987 1106 1219
8 973 880 991 1091 1092 992 1109 1220
8 1093 993 881 974 1221 1110 992 1092
8 1222 1108 990 1095 1093 993 882 976
8 1223 1101 982 1094 1096 989 877 977
8 1098 983 870 979 1223 1101 982 1094
8 1095 990 1107 1224 978 878 989 1096
8 1098 983 1100 1225 979 870 981 1097
8 984 884 994 1099 1103 995 1111 1227
8 1102 1001 1115 1228 983 891 999 1100
8 1101 1000 892 989 1229 1116 1002 1107
8 1102 1001 891 983 1229 1116 1000 1101
8 985 885 995 1103 1104 996 1112 1230
8 988 886 996 1104 1106 997 1113 1231
8 1105 998 888 987 1232 1114 997 1106
8 991 896 998 1105 1109 1005 1114 1232
8 1108 1003 1117 1233 990 893 1002 1107
8 1108 1003 894 993 1233 1117 1004 1110
8 992 895 1005 1109 1110 1004 1118 1234
8 1120 1013 1127 1244 1007 907 1015 1121
8 1148 1031 1127 1244 1030 920 1013 1120
8 1121 1015 1129 1245 1011 908 1016 1125
8 1126 1019 1075 1196 1246 1128 1014 1122
8 1246 1128 1014 1122 1123 1017 909 1009
8 1124 1018 1131 1247 1010 910 1017 1123
8 1125 1016 1130 1248 1012 911 1018 1124
8 1127 1020 1137 1254 1015 914 1022 1129
8 1031 921 1032 1149 1127 1020 1137 1254
8 1134 1027 918 1019 1257 1140 1021 1128
8 1257 1140 1021 1128 1131 1024 916 1017
8 1129 1022 1141 1258 1016 915 1023 1130
8 1130 1023 1142 1259 1018 917 1024 1131
8 1261 1144 1025 1132 1133 1026 1079 1199
8 1255 1138 1025 1132 1135 1028 1144 1261
8 1133 1026 918 1019 1262 1145 1027 1134
8 1136 1029 1139 1256 1263 1146 1028 1135
8 1037 928 1041 1155 1148 1031 1149 1275
8 1041 931 1044 1160 1149 1032 1150 1276
8 1151 1039 939 1057 1278 1156 1055 1180
8 1152 1040 926 1033 1279 1159 1039 1151
8 1153 1038 927 1034 1280 1158 1040 1152
8 1281 1157 1042 1154 1153 1038 929 1035
8 1036 930 1042 1154 1155 1041 1160 1282
8 1283 1164 1046 1159 1156 1047 935 1039
8 1165 1048 1164 1283 1053 937 1047 1156
8 1157 1043 933 1038 1284 1161 1045 1158
8 1157 1043 1161 1284 1042 932 1044 1160
8 1040 934 1046 1159 1158 1045 1163 1285
8 1166 1049 1167 1292 1051 936 1048 1165
8 1166 1049 936 1051 1293 1168 1050 1172
8 1051 936 1052 1175 1172 1050 1173 1306
8 1174 1051 1165 1290 1308 1175 1053 1177
8 1053 937 1054 1178 1175 1052 1176 1309
8 1278 1156 1055 1180 1177 1053 1178 1311
8 1055 938 1056 1181 1178 1054 1179 1312
8 1057 939 1058 1183 1180 1055 1181 1314
8 1058 940 1059 1184 1181 1056 1182 1315
8 1060 942 1061 1185 1183 1058 1184 1316
8 1208 1081 1187 1321 1082 964 1063 1188
8 1209 1082 1188 1322 1097 981 1064 1190
8 1188 1063 1189 1323 1064 947 1065 1191
8 1190 1064 1191 1325 1066 948 1067 1193
8 1191 1065 1192 1326 1067 949 1068 1194
8 1067 1193 1069 950 1194 1327 1195 1070
8 1250 1133 1199 1330 1126 1019 1075 1196
8 1198 1077 1014 1122 1331 1200 1075 1196
8 1074 960 1077 1198 1197 1076 1201 1332
8 1085 980 1076 1197 1215 1099 1201 1332
8 1199 1079 1203 1333 1075 962 1080 1200
8 1132 1025 1119 1243 1199 1079 1203 1333
8 1201 1078 963 1077 1334 1202 1080 1200
8 1099 994 1078 1201 1227 1111 1202 1334
8 1343 1207 1081 1208 1210 1083 964 1082
8 1214 1084 1186 1319 1343 1207 1081 1208
8 1345 1210 1082 1209 1225 1100 981 1097
8 1346 1211 1083 1210 1228 1115 999 1100
8 1086 984 1099 1215 1216 1103 1227 1352
8 1087 985 1103 1216 1217 1104 1230 1353
8 1090 988 1104 1217 1219 1106 1231 1354
8 1218 1105 987 1089 1355 1232 1106 1219
8 1091 991 1105 1218 1220 1109 1232 1355
8 1092 992 1109 1220 1221 1110 1234 1356
8 1222 1108 1233 1357 1095 990 1107 1224
8 1222 1108 993 1093 1357 1233 1110 1221
8 1223 1101 989 1096 1358 1229 1107 1224
8 1226 1102 983 1098 1358 1229 1101 1223
8 1226 1102 1228 1359 1098 983 1100 1225
8 1103 995 1111 1227 1230 1112 1235 1360
8 1107 1002 1117 1233 1229 1116 1240 1362
8 1102 1001 1116 1229 1228 1115 1240 1362
8 1104 996 1112 1230 1231 1113 1236 1363
8 1364 1237 1114 1232 1231 1113 997 1106
8 1109 1005 1114 1232 1234 1118 1238 1365
8 1110 1004 1118 1234 1233 1117 1241 1366
8 1242 1374 1255 1138 1119 1243 1132 1025
8 1244 1127 1254 1376 1121 1015 1129 1245
8 1148 1031 1149 1275 1244 1127 1254 1376
8 1245 1129 1258 1377 1125 1016 1130 1248
8 1251 1134 1019 1126 1378 1257 1128 1246
8 1378 1257 1128 1246 1247 1131 1017 1123
8 1248 1130 1259 1379 1124 1018 1131 1247
8 1261 1381 1250 1133 1132 1249 1330 1199
8 1255 1380 1252 1135 1132 1249 1381 1261
8 1250 1133 1019 1126 1382 1262 1134 1251
8 1253 1136 1256 1385 1384 1263 1135 1252
8 1254 1137 1265 1387 1129 1022 1141 1258
8 1149 1032 1150 1276 1254 1137 1265 1387
8 1028 1135 1255 1138 1139 1256 1388 1266
8 1136 1029 1147 1264 1256 1139 1267 1389
8 1390 1268 1140 1257 1259 1142 1024 1131
8 1260 1143 1027 1134 1390 1268 1140 1257
8 1258 1141 1269 1391 1130 1023 1142 1259
8 1262 1145 1027 1134 1393 1271 1143 1260
8 1261 1144 1026 1133 1394 1272 1145 1262
8 1135 1028 1144 1261 1263 1146 1272 1394
8 1136 1029 1146 1263 1264 1147 1273 1395
8 1155 1041 1160 1282 1275 1149 1276 1405
8 1276 1150 1044 1160 1406 1277 1162 1286
8 1408 1283 1159 1279 1278 1156 1039 1151
8 1290 1165 1283 1408 1177 1053 1156 1278
8 1152 1040 1159 1279 1280 1158 1285 1409
8 1281 1157 1038 1153 1410 1284 1158 1280
8 1281 1157 1284 1410 1154 1042 1160 1282
8 1159 1046 1164 1283 1285 1163 1289 1412
8 1292 1167 1289 1412 1165 1048 1164 1283
8 1158 1045 1163 1285 1284 1161 1288 1413
8 1284 1161 1288 1413 1160 1044 1162 1286
8 1291 1166 1292 1418 1174 1051 1165 1290
8 1291 1166 1051 1174 1419 1293 1172 1305
8 1294 1169 1296 1421 1166 1049 1167 1292
8 1293 1168 1050 1172 1422 1295 1171 1303
8 1294 1169 1049 1166 1423 1297 1168 1293
8 1422 1295 1171 1303 1301 1170 1302 1435
8 1172 1050 1173 1306 1303 1171 1304 1438
8 1174 1051 1175 1308 1305 1172 1306 1440
8 1175 1052 1176 1309 1306 1173 1307 1441
8 1177 1053 1178 1311 1308 1175 1309 1443
8 1178 1054 1179 1312 1309 1176 1310 1444
8 1180 1055 1181 1314 1311 1178 1312 1446
8 1056 1181 1312 1179 1182 1315 1447 1313
8 1183 1058 1184 1316 1314 1181 1315 1448
8 1319 1186 1084 1214 1451 1317 1213 1350
8 1319 1186 1318 1453 1208 1081 1187 1321
8 1321 1187 1320 1456 1188 1063 1189 1323
8 1344 1208 1321 1457 1209 1082 1188 1322
8 1322 1188 1323 1458 1190 1064 1191 1325
8 1323 1189 1324 1459 1191 1065 1192 1326
8 1191 1325 1193 1067 1326 1460 1327 1194
8 1242 1374 1243 1119 1328 1462 1335 1204
8 1330 1199 1333 1465 1196 1075 1200 1331
8 1132 1249 1330 1199 1243 1375 1465 1333
8 1332 1201 1077 1198 1466 1334 1200 1331
8 1215 1099 1201 1332 1352 1227 1334 1466
8 1119 1243 1333 1203 1204 1335 1470 1338
8 1333 1203 1338 1470 1200 1080 1202 1334
8 1227 1111 1202 1334 1360 1235 1338 1470
8 1328 1462 1335 1204 1205 1336 1471 1339
8 1337 1206 1340 1472 1464 1329 1205 1336
8 1346 1211 1342 1479 1210 1083 1207 1343
8 1346 1211 1115 1228 1479 1342 1239 1361
8 1348 1212 1084 1214 1479 1342 1207 1343
8 1480 1343 1208 1344 1345 1210 1082 1209
8 1351 1214 1319 1454 1480 1343 1208 1344
8 1481 1346 1210 1345 1359 1228 1100 1225
8 1348 1212 1347 1483 1214 1084 1213 1350
8 1216 1103 1227 1352 1353 1230 1360 1488
8 1217 1104 1230 1353 1354 1231 1363 1489
8 1490 1364 1232 1355 1354 1231 1106 1219
8 1220 1109 1232 1355 1356 1234 1365 1491
8 1221 1110 1234 1356 1357 1233 1366 1492
8 1224 1107 1233 1357 1358 1229 1362 1493
8 1226 1102 1229 1358 1359 1228 1362 1493
8 1230 1112 1235 1360 1363 1236 1367 1496
8 1361 1239 1115 1228 1497 1371 1240 1362
8 1366 1241 1372 1498 1233 1117 1240 1362
8 1364 1237 1113 1231 1499 1368 1236 1363
8 1364 1237 1368 1499 1232 1114 1238 1365
8 1234 1118 1238 1365 1366 1241 1369 1500
8 1507 1373 1242 1374 1388 1266 1138 1255
8 1508 1374 1243 1375 1380 1255 1132 1249
8 1376 1254 1387 1509 1245 1129 1258 1377
8 1275 1149 1276 1405 1376 1254 1387 1509
8 1377 1258 1391 1510 1248 1130 1259 1379
8 1511 1390 1257 1378 1379 1259 1131 1247
8 1383 1260 1134 1251 1511 1390 1257 1378
8 1252 1135 1256 1385 1380 1255 1388 1512
8 1261 1381 1513 1394 1133 1250 1382 1262
8 1135 1252 1384 1263 1261 1381 1513 1394
8 1382 1262 1134 1251 1514 1393 1260 1383
8 1253 1136 1263 1384 1386 1264 1395 1516
8 1253 1136 1264 1386 1385 1256 1389 1517
8 1387 1265 1397 1519 1258 1141 1269 1391
8 1276 1150 1277 1406 1387 1265 1397 1519
8 1256 1139 1267 1389 1388 1266 1398 1520
8 1264 1147 1274 1396 1389 1267 1399 1521
8 1392 1270 1143 1260 1522 1400 1268 1390
8 1390 1268 1142 1259 1522 1400 1269 1391
8 1392 1270 1401 1523 1260 1143 1271 1393
8 1272 1394 1524 1402 1145 1262 1393 1271
8 1395 1273 1146 1263 1524 1402 1272 1394
8 1273 1395 1264 1147 1403 1526 1396 1274
8 1405 1276 1160 1282 1534 1406 1286 1411
8 1414 1287 1407 1535 1286 1162 1277 1406
8 1279 1159 1283 1408 1409 1285 1412 1537
8 1418 1292 1412 1537 1290 1165 1283 1408
8 1280 1158 1285 1409 1410 1284 1413 1538
8 1410 1284 1413 1538 1282 1160 1286 1411
8 1285 1163 1289 1412 1413 1288 1417 1540
8 1421 1296 1417 1540 1292 1167 1289 1412
8 1414 1287 1162 1286 1541 1416 1288 1413
8 1420 1294 1421 1545 1291 1166 1292 1418
8 1419 1293 1172 1305 1546 1422 1303 1437
8 1420 1294 1166 1291 1547 1423 1293 1419
8 1294 1169 1297 1423 1421 1296 1425 1548
8 1423 1297 1168 1293 1549 1424 1295 1422
8 1301 1170 1298 1427 1422 1295 1424 1549
8 1432 1300 1428 1554 1301 1170 1298 1427
8 1431 1299 1428 1554 1560 1430 1300 1432
8 1563 1433 1300 1432 1435 1302 1170 1301
8 1546 1422 1303 1437 1434 1301 1435 1565
8 1303 1171 1304 1438 1435 1302 1436 1566
8 1305 1172 1306 1440 1437 1303 1438 1568
8 1306 1173 1307 1441 1438 1304 1439 1569
8 1308 1175 1309 1443 1440 1306 1441 1571
8 1309 1176 1310 1444 1441 1307 1442 1572
8 1311 1178 1312 1446 1443 1309 1444 1574
8 1179 1312 1444 1310 1313 1447 1575 1445
8 1314 1181 1315 1448 1446 1312 1447 1576
8 1350 1213 1349 1486 1451 1317 1449 1579
8 1451 1317 1450 1581 1319 1186 1318 1453
8 1454 1319 1214 1351 1582 1451 1350 1487
8 1453 1318 1452 1584 1321 1187 1320 1456
8 1454 1319 1453 1585 1344 1208 1321 1457
8 1456 1320 1455 1586 1323 1189 1324 1459
8 1457 1321 1456 1587 1322 1188 1323 1458
8 1458 1323 1459 1588 1325 1191 1326 1460
8 1205 1336 1464 1329 1328 1462 1590 1461
8 1507 1373 1461 1590 1374 1242 1328 1462
8 1508 1374 1462 1591 1375 1243 1335 1467
8 1337 1206 1329 1464 1473 1341 1463 1594
8 1375 1243 1335 1467 1465 1333 1470 1596
8 1465 1333 1470 1596 1331 1200 1334 1466
8 1352 1227 1334 1466 1488 1360 1470 1596
8 1591 1462 1336 1468 1467 1335 1471 1597
8 1469 1337 1472 1598 1595 1464 1336 1468
8 1471 1339 1474 1600 1335 1204 1338 1470
8 1600 1474 1367 1496 1470 1338 1235 1360
8 1336 1205 1340 1472 1471 1339 1475 1601
8 1337 1206 1341 1473 1472 1340 1476 1602
8 1495 1370 1478 1609 1361 1239 1342 1479
8 1348 1212 1342 1479 1483 1347 1478 1609
8 1481 1346 1479 1610 1345 1210 1343 1480
8 1481 1346 1228 1359 1610 1479 1361 1494
8 1484 1348 1214 1351 1610 1479 1343 1480
8 1483 1347 1482 1612 1350 1213 1349 1486
8 1484 1348 1483 1613 1351 1214 1350 1487
8 1353 1230 1360 1488 1489 1363 1496 1616
8 1490 1364 1231 1354 1617 1499 1363 1489
8 1490 1364 1499 1617 1355 1232 1365 1491
8 1356 1234 1365 1491 1492 1366 1500 1619
8 1492 1366 1498 1620 1357 1233 1362 1493
8 1494 1361 1228 1359 1621 1497 1362 1493
8 1495 1370 1239 1361 1622 1504 1371 1497
8 1363 1236 1367 1496 1499 1368 1501 1623
8 1497 1371 1240 1362 1624 1505 1372 1498
8 1625 1503 1372 1498 1500 1369 1241 1366
8 1365 1238 1368 1499 1500 1369 1502 1626
8 1520 1398 1506 1633 1388 1266 1373 1507
8 1634 1507 1374 1508 1512 1388 1255 1380
8 1509 1387 1519 1635 1377 1258 1391 1510
8 1405 1276 1406 1534 1509 1387 1519 1635
8 1515 1392 1260 1383 1636 1522 1390 1511
8 1511 1390 1259 1379 1636 1522 1391 1510
8 1385 1256 1389 1517 1512 1388 1520 1637
8 1513 1394 1262 1382 1638 1524 1393 1514
8 1395 1516 1638 1524 1263 1384 1513 1394
8 1515 1392 1523 1639 1383 1260 1393 1514
8 1516 1395 1526 1640 1386 1264 1396 1518
8 1386 1264 1396 1518 1517 1389 1521 1641
8 1519 1397 1527 1643 1391 1269 1400 1522
8 1535 1407 1527 1643 1406 1277 1397 1519
8 1389 1267 1399 1521 1520 1398 1528 1644
8 1645 1529 1399 1521 1525 1404 1274 1396
8 1392 1270 1400 1522 1523 1401 1531 1646
8 1524 1402 1271 1393 1648 1532 1401 1523
8 1403 1526 1648 1532 1273 1395 1524 1402
8 1525 1404 1274 1396 1649 1533 1403 1526
8 1539 1414 1535 1657 1411 1286 1406 1534
8 1542 1415 1536 1658 1414 1287 1407 1535
8 1409 1285 1412 1537 1538 1413 1540 1660
8 1545 1421 1540 1660 1418 1292 1412 1537
8 1539 1414 1286 1411 1661 1541 1413 1538
8 1540 1417 1544 1663 1413 1288 1416 1541
8 1421 1296 1425 1548 1540 1417 1544 1663
8 1542 1415 1287 1414 1664 1543 1416 1541
8 1420 1294 1423 1547 1545 1421 1548 1666
8 1547 1423 1293 1419 1667 1549 1422 1546
8 1434 1301 1427 1553 1546 1422 1549 1667
8 1423 1297 1424 1549 1548 1425 1550 1668
8 1551 1426 1550 1668 1427 1298 1424 1549
8 1551 1426 1298 1427 1671 1552 1428 1554
8 1562 1432 1554 1674 1434 1301 1427 1553
8 1431 1299 1429 1558 1554 1428 1555 1675
8 1431 1299 1430 1560 1558 1429 1557 1680
8 1560 1430 1300 1432 1683 1559 1433 1563
8 1561 1431 1554 1674 1684 1560 1432 1562
8 1685 1563 1432 1562 1565 1435 1301 1434
8 1435 1302 1436 1566 1563 1433 1564 1686
8 1437 1303 1438 1568 1565 1435 1566 1688
8 1438 1304 1439 1569 1566 1436 1567 1689
8 1440 1306 1441 1571 1568 1438 1569 1691
8 1441 1307 1442 1572 1569 1439 1570 1692
8 1443 1309 1444 1574 1571 1441 1572 1694
8 1310 1444 1572 1442 1445 1575 1695 1573
8 1446 1312 1447 1576 1574 1444 1575 1696
8 1486 1349 1485 1614 1579 1449 1577 1699
8 1451 1317 1449 1579 1581 1450 1578 1701
8 1487 1350 1486 1615 1582 1451 1579 1702
8 1581 1450 1580 1704 1453 1318 1452 1584
8 1582 1451 1581 1705 1454 1319 1453 1585
8 1584 1452 1583 1706 1456 1320 1455 1586
8 1585 1453 1584 1707 1457 1321 1456 1587
8 1587 1456 1586 1708 1458 1323 1459 1588
8 1633 1506 1589 1710 1507 1373 1461 1590
8 1464 1329 1461 1590 1594 1463 1589 1710
8 1468 1336 1462 1591 1595 1464 1590 1711
8 1634 1507 1590 1711 1508 1374 1462 1591
8 1473 1341 1463 1594 1603 1477 1593 1716
8 1469 1337 1464 1595 1599 1473 1594 1717
8 1471 1597 1467 1335 1600 1718 1596 1470
8 1718 1600 1496 1616 1596 1470 1360 1488
8 1336 1468 1597 1471 1472 1598 1719 1601
8 1469 1337 1473 1599 1598 1472 1602 1720
8 1722 1604 1501 1623 1600 1474 1367 1496
8 1475 1601 1471 1339 1604 1722 1600 1474
8 1602 1476 1605 1723 1472 1340 1475 1601
8 1476 1602 1724 1606 1341 1473 1603 1477
8 1483 1347 1478 1609 1612 1482 1608 1731
8 1495 1370 1504 1622 1609 1478 1608 1731
8 1618 1495 1609 1732 1494 1361 1479 1610
8 1484 1348 1479 1610 1613 1483 1609 1732
8 1486 1349 1482 1612 1614 1485 1611 1733
8 1613 1483 1612 1734 1487 1350 1486 1615
8 1489 1363 1496 1616 1617 1499 1623 1736
8 1491 1365 1499 1617 1619 1500 1626 1737
8 1618 1495 1361 1494 1738 1622 1497 1621
8 1739 1625 1498 1620 1619 1500 1366 1492
8 1621 1497 1362 1493 1740 1624 1498 1620
8 1742 1631 1504 1622 1624 1505 1371 1497
8 1743 1628 1502 1626 1623 1501 1368 1499
8 1744 1630 1505 1624 1625 1503 1372 1498
8 1745 1629 1503 1625 1626 1502 1369 1500
8 1520 1398 1528 1644 1633 1506 1632 1751
8 1637 1520 1633 1752 1512 1388 1507 1634
8 1635 1519 1643 1753 1510 1391 1522 1636
8 1657 1535 1643 1753 1534 1406 1519 1635
8 1515 1392 1522 1636 1639 1523 1646 1754
8 1517 1389 1521 1641 1637 1520 1644 1755
8 1524 1638 1756 1648 1393 1514 1639 1523
8 1640 1526 1395 1516 1756 1648 1524 1638
8 1642 1525 1396 1518 1757 1649 1526 1640
8 1758 1645 1521 1641 1642 1525 1396 1518
8 1646 1531 1400 1522 1760 1650 1527 1643
8 1535 1407 1536 1658 1643 1527 1650 1760
8 1521 1399 1529 1645 1644 1528 1651 1761
8 1647 1530 1652 1762 1525 1404 1529 1645
8 1401 1523 1648 1532 1531 1646 1763 1655
8 1525 1404 1533 1649 1647 1530 1654 1765
8 1533 1649 1766 1656 1403 1526 1648 1532
8 1662 1542 1658 1774 1539 1414 1535 1657
8 1542 1415 1543 1664 1658 1536 1659 1775
8 1660 1540 1663 1777 1538 1413 1541 1661
8 1545 1421 1548 1666 1660 1540 1663 1777
8 1662 1542 1414 1539 1778 1664 1541 1661
8 1664 1543 1416 1541 1779 1665 1544 1663
8 1548 1425 1550 1668 1663 1544 1665 1779
8 1547 1423 1549 1667 1666 1548 1668 1781
8 1670 1551 1668 1781 1553 1427 1549 1667
8 1551 1426 1552 1671 1668 1550 1669 1782
8 1670 1551 1427 1553 1784 1671 1554 1674
8 1675 1555 1672 1785 1554 1428 1552 1671
8 1678 1556 1673 1789 1558 1429 1555 1675
8 1561 1431 1558 1681 1674 1554 1675 1790
8 1794 1677 1556 1678 1680 1557 1429 1558
8 1560 1430 1559 1683 1680 1557 1679 1797
8 1561 1431 1560 1684 1681 1558 1680 1798
8 1563 1433 1564 1686 1683 1559 1682 1800
8 1684 1560 1432 1562 1801 1683 1563 1685
8 1565 1435 1566 1688 1685 1563 1686 1802
8 1566 1436 1567 1689 1686 1564 1687 1803
8 1568 1438 1569 1691 1688 1566 1689 1805
8 1569 1439 1570 1692 1689 1567 1690 1806
8 1571 1441 1572 1694 1691 1569 1692 1808
8 1442 1572 1692 1570 1573 1695 1809 1693
8 1574 1444 1575 1696 1694 1572 1695 1810
8 1614 1485 1592 1712 1699 1577 1697 1813
8 1579 1449 1577 1699 1701 1578 1698 1815
8 1615 1486 1614 1735 1702 1579 1699 1816
8 1701 1578 1700 1818 1581 1450 1580 1704
8 1582 1451 1579 1702 1705 1581 1701 1819
8 1704 1580 1703 1820 1584 1452 1583 1706
8 1705 1581 1704 1821 1585 1453 1584 1707
8 1707 1584 1706 1822 1587 1456 1586 1708
8 1710 1589 1506 1633 1824 1709 1632 1751
8 1594 1463 1589 1710 1716 1593 1709 1824
8 1752 1633 1710 1825 1634 1507 1590 1711
8 1595 1464 1590 1711 1717 1594 1710 1825
8 1830 1714 1592 1712 1733 1611 1485 1614
8 1603 1477 1593 1716 1725 1607 1715 1834
8 1599 1473 1594 1717 1721 1603 1716 1835
8 1837 1722 1623 1736 1718 1600 1496 1616
8 1719 1601 1722 1837 1597 1471 1600 1718
8 1602 1720 1598 1472 1723 1838 1719 1601
8 1720 1602 1473 1599 1839 1724 1603 1721
8 1723 1605 1726 1840 1601 1475 1604 1722
8 1840 1726 1628 1743 1722 1604 1501 1623
8 1724 1606 1727 1841 1602 1476 1605 1723
8 1725 1607 1728 1842 1603 1477 1606 1724
8 1612 1482 1608 1731 1733 1611 1730 1849
8 1741 1627 1730 1849 1622 1504 1608 1731
8 1613 1483 1609 1732 1734 1612 1731 1850
8 1618 1495 1622 1738 1732 1609 1731 1850
8 1615 1486 1612 1734 1735 1614 1733 1851
8 1852 1743 1626 1737 1736 1623 1499 1617
8 1853 1745 1625 1739 1737 1626 1500 1619
8 1855 1742 1622 1738 1740 1624 1497 1621
8 1856 1744 1624 1740 1739 1625 1498 1620
8 1741 1627 1504 1622 1857 1746 1631 1742
8 1742 1631 1505 1624 1858 1749 1630 1744
8 1859 1747 1629 1745 1743 1628 1502 1626
8 1860 1748 1630 1744 1745 1629 1503 1625
8 1644 1528 1651 1761 1751 1632 1750 1865
8 1637 1520 1644 1755 1752 1633 1751 1866
8 1754 1646 1522 1636 1867 1760 1643 1753
8 1657 1535 1658 1774 1753 1643 1760 1867
8 1639 1523 1646 1754 1756 1648 1763 1868
8 1641 1521 1645 1758 1755 1644 1761 1869
8 1757 1649 1526 1640 1870 1766 1648 1756
8 1642 1525 1649 1757 1759 1647 1765 1871
8 1759 1647 1762 1872 1642 1525 1645 1758
8 1760 1650 1767 1874 1646 1531 1655 1763
8 1658 1536 1659 1775 1760 1650 1767 1874
8 1762 1652 1768 1875 1645 1529 1651 1761
8 1764 1653 1769 1876 1647 1530 1652 1762
8 1656 1766 1877 1773 1532 1648 1763 1655
8 1771 1879 1765 1654 1653 1764 1647 1530
8 1533 1649 1765 1654 1656 1766 1880 1772
8 1662 1542 1664 1778 1774 1658 1775 1887
8 1664 1543 1665 1779 1775 1659 1776 1888
8 1778 1664 1541 1661 1890 1779 1663 1777
8 1666 1548 1668 1781 1777 1663 1779 1890
8 1782 1669 1780 1891 1668 1550 1665 1779
8 1670 1551 1671 1784 1781 1668 1782 1893
8 1671 1552 1672 1785 1782 1669 1783 1894
8 1790 1675 1785 1896 1674 1554 1671 1784
8 1675 1555 1673 1789 1785 1672 1786 1897
8 1792 1676 1788 1903 1678 1556 1673 1789
8 1795 1678 1789 1904 1681 1558 1675 1790
8 1792 1676 1556 1678 1906 1791 1677 1794
8 1680 1557 1679 1797 1794 1677 1793 1909
8 1910 1794 1678 1795 1798 1680 1558 1681
8 1683 1559 1682 1800 1797 1679 1796 1912
8 1684 1560 1683 1801 1798 1680 1797 1913
8 1686 1564 1687 1803 1800 1682 1799 1915
8 1685 1563 1686 1802 1801 1683 1800 1916
8 1688 1566 1689 1805 1802 1686 1803 1917
8 1689 1567 1690 1806 1803 1687 1804 1918
8 1691 1569 1692 1808 1805 1689 1806 1920
8 1692 1570 1693 1809 1806 1690 1807 1921
8 1694 1572 1695 1810 1808 1692 1809 1922
8 1829 1713 1811 1926 1712 1592 1697 1813
8 1813 1697 1812 1928 1699 1577 1698 1815
8 1735 1614 1712 1828 1816 1699 1813 1929
8 1815 1698 1814 1931 1701 1578 1700 1818
8 1702 1579 1699 1816 1819 1701 1815 1932
8 1818 1700 1817 1933 1704 1580 1703 1820
8 1819 1701 1818 1934 1705 1581 1704 1821
8 1821 1704 1820 1935 1707 1584 1706 1822
8 1824 1709 1632 1751 1937 1823 1750 1865
8 1716 1593 1709 1824 1834 1715 1823 1937
8 1825 1710 1633 1752 1938 1824 1751 1866
8 1717 1594 1710 1825 1835 1716 1824 1938
8 1945 1830 1712 1828 1851 1733 1614 1735
8 1830 1714 1831 1946 1712 1592 1713 1829
8 1947 1832 1714 1830 1849 1730 1611 1733
8 1843 1729 1607 1725 1950 1833 1715 1834
8 1721 1603 1716 1835 1836 1725 1834 1951
8 1836 1725 1842 1953 1721 1603 1724 1839
8 1723 1838 1719 1601 1840 1954 1837 1722
8 1954 1840 1743 1852 1837 1722 1623 1736
8 1724 1839 1720 1602 1841 1955 1838 1723
8 1841 1727 1844 1956 1723 1605 1726 1840
8 1956 1844 1747 1859 1840 1726 1628 1743
8 1728 1842 1724 1606 1845 1957 1841 1727
8 1725 1607 1729 1843 1842 1728 1846 1958
8 1741 1627 1746 1857 1849 1730 1848 1965
8 1734 1612 1731 1850 1851 1733 1849 1966
8 1854 1741 1849 1966 1738 1622 1731 1850
8 1967 1859 1745 1853 1852 1743 1626 1737
8 1968 1860 1744 1856 1853 1745 1625 1739
8 1854 1741 1622 1738 1969 1857 1742 1855
8 1855 1742 1624 1740 1970 1858 1744 1856
8 1857 1746 1631 1742 1971 1861 1749 1858
8 1858 1749 1630 1744 1972 1863 1748 1860
8 1859 1747 1862 1973 1745 1629 1748 1860
8 1875 1768 1864 1977 1761 1651 1750 1865
8 1755 1644 1761 1869 1866 1751 1865 1978
8 1867 1760 1874 1979 1754 1646 1763 1868
8 1774 1658 1775 1887 1867 1760 1874 1979
8 1870 1766 1648 1756 1980 1877 1763 1868
8 1872 1762 1875 1981 1758 1645 1761 1869
8 1757 1649 1766 1870 1871 1765 1880 1982
8 1983 1879 1764 1873 1871 1765 1647 1759
8 1873 1764 1876 1984 1759 1647 1762 1872
8 1877 1773 1655 1763 1986 1881 1767 1874
8 1775 1659 1776 1888 1874 1767 1881 1986
8 1876 1769 1882 1987 1762 1652 1768 1875
8 1878 1770 1883 1988 1764 1653 1769 1876
8 1880 1772 1656 1766 1989 1886 1773 1877
8 1878 1770 1653 1764 1990 1884 1771 1879
8 1765 1654 1772 1880 1879 1771 1885 1991
8 1778 1664 1779 1890 1887 1775 1888 1997
8 1998 1889 1776 1888 1891 1780 1665 1779
8 1893 1782 1891 2000 1781 1668 1779 1890
8 1894 1783 1892 2001 1782 1669 1780 1891
8 1784 1671 1785 1896 1893 1782 1894 2003
8 1897 1786 1895 2004 1785 1672 1783 1894
8 1790 1675 1789 1904 1896 1785 1897 2006
8 1901 1787 1898 2007 1789 1673 1786 1897
8 1903 1788 1900 2013 1789 1673 1787 1901
8 1792 1676 1791 1906 1903 1788 1902 2016
8 1907 1792 1903 2017 1795 1678 1789 1904
8 1906 1791 1677 1794 2019 1905 1793 1909
8 1907 1792 1678 1795 2020 1906 1794 1910
8 1797 1679 1796 1912 1909 1793 1908 2022
8 1798 1680 1797 1913 1910 1794 1909 2023
8 1800 1682 1799 1915 1912 1796 1911 2025
8 1801 1683 1800 1916 1913 1797 1912 2026
8 1803 1687 1804 1918 1915 1799 1914 2028
8 1802 1686 1803 1917 1916 1800 1915 2029
8 1805 1689 1806 1920 1917 1803 1918 2030
8 1806 1690 1807 1921 1918 1804 1919 2031
8 1808 1692 1809 1922 1920 1806 1921 2032
8 1939 1826 1924 2037 1829 1713 1811 1926
8 1926 1811 1925 2039 1813 1697 1812 1928
8 1944 1829 1926 2040 1828 1712 1813 1929
8 1928 1812 1927 2042 1815 1698 1814 1931
8 1929 1813 1928 2043 1816 1699 1815 1932
8 1931 1814 1930 2044 1818 1700 1817 1933
8 1932 1815 1931 2045 1819 1701 1818 1934
8 1934 1818 1933 2046 1821 1704 1820 1935
8 2048 1936 1823 1937 1977 1864 1750 1865
8 1950 1833 1715 1834 2048 1936 1823 1937
8 1938 1824 1751 1866 2049 1937 1865 1978
8 1835 1716 1824 1938 1951 1834 1937 2049
8 1939 1826 1713 1829 2053 1942 1831 1946
8 1940 1827 1923 2035 2053 1942 1826 1939
8 1945 1830 1946 2058 1828 1712 1829 1944
8 2059 1947 1830 1945 1966 1849 1733 1851
8 1947 1832 1730 1849 2060 1948 1848 1965
8 1947 1832 1948 2060 1830 1714 1831 1946
8 1959 1847 1729 1843 2063 1949 1833 1950
8 1952 1843 1725 1836 2064 1950 1834 1951
8 1836 1725 1843 1952 1953 1842 1958 2066
8 1953 1842 1957 2067 1839 1724 1841 1955
8 1841 1955 1838 1723 1956 2068 1954 1840
8 2068 1956 1859 1967 1954 1840 1743 1852
8 1956 1844 1960 2069 1859 1747 1862 1973
8 1845 1957 1841 1727 1960 2069 1956 1844
8 1728 1842 1957 1845 1846 1958 2071 1961
8 1962 2072 1959 1847 1846 1958 1843 1729
8 1971 1861 1964 2077 1857 1746 1848 1965
8 1854 1741 1857 1969 1966 1849 1965 2078
8 1967 1859 1973 2079 1853 1745 1860 1968
8 1970 1858 1744 1856 2080 1972 1860 1968
8 1969 1857 1742 1855 2081 1971 1858 1970
8 1971 1861 1749 1858 2082 1974 1863 1972
8 1973 1862 1975 2083 1860 1748 1863 1972
8 1987 1882 1976 2086 1875 1768 1864 1977
8 1981 1875 1977 2087 1869 1761 1865 1978
8 1980 1877 1763 1868 2088 1986 1874 1979
8 1887 1775 1888 1997 1979 1874 1986 2088
8 1880 1982 2089 1989 1766 1870 1980 1877
8 1984 1876 1987 2090 1872 1762 1875 1981
8 1765 1871 1983 1879 1880 1982 2091 1991
8 1985 1878 1764 1873 2092 1990 1879 1983
8 1985 1878 1988 2093 1873 1764 1876 1984
8 2094 1992 1881 1986 1998 1889 1776 1888
8 1986 1881 1992 2094 1877 1773 1886 1989
8 1988 1883 1993 2095 1876 1769 1882 1987
8 1878 1770 1884 1990 1988 1883 1994 2096
8 1991 1885 1772 1880 2097 1996 1886 1989
8 1879 1771 1885 1991 1990 1884 1995 2098
8 2103 1998 1888 1997 2000 1891 1779 1890
8 2104 1999 1889 1998 2001 1892 1780 1891
8 2003 1894 2001 2106 1893 1782 1891 2000
8 2004 1895 2002 2107 1894 1783 1892 2001
8 2006 1897 2004 2109 1896 1785 1894 2003
8 2007 1898 2005 2110 1897 1786 1895 2004
8 2014 1901 2007 2112 1904 1789 1897 2006
8 2011 1899 2008 2113 1901 1787 1898 2007
8 2119 2010 1899 2011 2013 1900 1787 1901
8 2016 1902 2012 2122 1903 1788 1900 2013
8 2017 1903 2013 2123 1904 1789 1901 2014
8 1906 1791 1905 2019 2016 1902 2015 2125
8 1907 1792 1906 2020 2017 1903 2016 2126
8 1909 1793 1908 2022 2019 1905 2018 2128
8 2020 1906 1794 1910 2129 2019 1909 2023
8 1912 1796 1911 2025 2022 1908 2021 2131
8 1913 1797 1912 2026 2023 1909 2022 2132
8 1915 1799 1914 2028 2025 1911 2024 2134
8 1916 1800 1915 2029 2026 1912 2025 2135
8 1918 1804 1919 2031 2028 1914 2027 2136
8 1917 1803 1918 2030 2029 1915 2028 2137
8 1920 1806 1921 2032 2030 1918 2031 2138
8 1940 1827 1941 2054 2035 1923 2033 2140
8 2035 1923 2034 2143 1939 1826 1924 2037
8 2037 1924 2036 2146 1926 1811 1925 2039
8 2051 1939 2037 2147 1944 1829 1926 2040
8 2039 1925 2038 2149 1928 1812 1927 2042
8 2040 1926 2039 2150 1929 1813 1928 2043
8 2042 1927 2041 2151 1931 1814 1930 2044
8 2043 1928 2042 2152 1932 1815 1931 2045
8 2045 1931 2044 2153 1934 1818 1933 2046
8 2155 2047 1936 2048 2086 1976 1864 1977
8 2063 1949 1833 1950 2155 2047 1936 2048
8 2156 2048 1937 2049 2087 1977 1865 1978
8 2064 1950 1834 1951 2156 2048 1937 2049
8 2051 1939 1829 1944 2160 2053 1946 2058
8 2052 1940 2035 2144 2160 2053 1939 2051
8 2053 1942 1831 1946 2163 2057 1948 2060
8 2055 1943 1827 1940 2163 2057 1942 2053
8 2055 1943 2056 2164 1940 1827 1941 2054
8 2059 1947 1849 1966 2167 2060 1965 2078
8 2059 1947 2060 2167 1945 1830 1946 2058
8 2077 1964 2061 2168 1965 1848 1948 2060
8 2070 1963 1847 1959 2170 2062 1949 2063
8 2065 1959 1843 1952 2171 2063 1950 2064
8 2173 2072 1958 2066 2065 1959 1843 1952
8 1953 1842 1958 2066 2067 1957 2071 2174
8 2068 1956 2069 2175 1967 1859 1973 2079
8 2067 1957 2069 2175 1955 1841 1956 2068
8 1845 1957 2069 1960 1961 2071 2176 2073
8 2069 1960 2073 2176 1973 1862 1975 2083
8 2070 1963 2075 2177 1959 1847 1962 2072
8 1846 1958 2071 1961 1962 2072 2178 2074
8 2077 1964 1861 1971 2182 2076 1974 2082
8 2081 1971 2077 2183 1969 1857 1965 2078
8 2079 1973 2083 2184 1968 1860 1972 2080
8 2081 1971 1858 1970 2185 2082 1972 2080
8 2083 1975 2084 2186 1972 1863 1974 2082
8 2086 1976 1882 1987 2189 2085 1993 2095
8 2090 1987 2086 2190 1981 1875 1977 2087
8 2191 2094 1986 2088 2103 1998 1888 1997
8 2088 1986 2094 2191 1980 1877 1989 2089
8 1991 2091 2192 2097 1880 1982 2089 1989
8 2093 1988 2095 2193 1984 1876 1987 2090
8 1879 1983 2092 1990 1991 2091 2194 2098
8 1985 1878 1990 2092 2093 1988 2096 2195
8 2097 1996 1886 1989 2196 2099 1992 2094
8 2196 2099 1992 2094 2104 1999 1889 1998
8 1994 2096 1988 1883 2100 2197 2095 1993
8 2096 1994 1884 1990 2198 2101 1995 2098
8 1995 2098 2199 2102 1885 1991 2097 1996
8 2203 2104 1998 2103 2106 2001 1891 2000
8 2107 2002 2105 2204 2001 1892 1999 2104
8 2109 2004 2107 2206 2003 1894 2001 2106
8 2110 2005 2108 2207 2004 1895 2002 2107
8 2112 2007 2110 2209 2006 1897 2004 2109
8 2113 2008 2111 2210 2007 1898 2005 2110
8 2120 2011 2113 2212 2014 1901 2007 2112
8 2117 2009 2114 2213 2011 1899 2008 2113
8 2219 2116 2009 2117 2119 2010 1899 2011
8 2222 2118 2010 2119 2122 2012 1900 2013
8 2223 2119 2011 2120 2123 2013 1901 2014
8 2016 1902 2015 2125 2122 2012 2121 2225
8 2126 2016 2122 2226 2017 1903 2013 2123
8 2019 1905 2018 2128 2125 2015 2124 2228
8 2020 1906 2019 2129 2126 2016 2125 2229
8 2022 1908 2021 2131 2128 2018 2127 2231
8 2023 1909 2022 2132 2129 2019 2128 2232
8 2025 1911 2024 2134 2131 2021 2130 2234
8 2026 1912 2025 2135 2132 2022 2131 2235
8 1914 2028 2134 2024 2027 2136 2236 2133
8 2029 1915 2028 2137 2135 2025 2134 2237
8 2030 1918 2031 2138 2137 2028 2136 2238
8 2157 2050 2139 2240 2054 1941 2033 2140
8 2052 1940 2054 2161 2144 2035 2140 2242
8 2140 2033 2141 2243 2035 1923 2034 2143
8 2143 2034 2142 2246 2037 1924 2036 2146
8 2144 2035 2143 2247 2051 1939 2037 2147
8 2146 2036 2145 2249 2039 1925 2038 2149
8 2147 2037 2146 2250 2040 1926 2039 2150
8 2149 2038 2148 2251 2042 1927 2041 2151
8 2150 2039 2149 2252 2043 1928 2042 2152
8 2152 2042 2151 2253 2045 1931 2044 2153
8 2255 2154 2047 2155 2189 2085 1976 2086
8 2170 2062 1949 2063 2255 2154 2047 2155
8 2256 2155 2048 2156 2190 2086 1977 2087
8 2171 2063 1950 2064 2256 2155 2048 2156
8 2258 2159 2050 2157 2164 2056 1941 2054
8 2160 2053 1946 2058 2262 2163 2060 2167
8 2162 2055 1940 2052 2262 2163 2053 2160
8 2162 2055 2164 2263 2052 1940 2054 2161
8 2163 2057 1948 2060 2264 2165 2061 2168
8 2055 1943 2057 2163 2164 2056 2165 2264
8 2182 2076 2166 2268 2077 1964 2061 2168
8 2183 2077 2168 2269 2078 1965 2060 2167
8 2070 1963 2062 2170 2177 2075 2169 2271
8 2172 2070 1959 2065 2272 2170 2063 2171
8 2172 2070 2177 2273 2065 1959 2072 2173
8 2066 1958 2072 2173 2174 2071 2178 2274
8 2067 1957 2071 2174 2175 2069 2176 2275
8 2175 2069 2176 2275 2079 1973 2083 2184
8 2071 1961 2074 2178 2176 2073 2179 2276
8 2176 2073 2179 2276 2083 1975 2084 2186
8 2072 1962 2075 2177 2178 2074 2180 2277
8 2182 2076 1974 2082 2280 2181 2084 2186
8 2183 2077 1971 2081 2281 2182 2082 2185
8 2184 2083 2186 2282 2080 1972 2082 2185
8 2189 2085 1993 2095 2285 2188 2100 2197
8 2190 2086 1987 2090 2286 2189 2095 2193
8 2192 2097 1989 2089 2287 2196 2094 2191
8 2287 2196 2094 2191 2203 2104 1998 2103
8 2194 2098 1991 2091 2288 2199 2097 2192
8 2195 2096 2197 2289 2093 1988 2095 2193
8 2096 2195 2290 2198 1990 2092 2194 2098
8 2097 1996 2099 2196 2199 2102 2200 2291
8 2196 2099 1999 2104 2291 2200 2105 2204
8 2100 2197 2292 2201 1994 2096 2198 2101
8 1995 2098 2198 2101 2102 2199 2293 2202
8 2206 2107 2204 2296 2106 2001 2104 2203
8 2207 2108 2205 2297 2107 2002 2105 2204
8 2209 2110 2207 2299 2109 2004 2107 2206
8 2210 2111 2208 2300 2110 2005 2108 2207
8 2212 2113 2210 2302 2112 2007 2110 2209
8 2213 2114 2211 2303 2113 2008 2111 2210
8 2220 2117 2213 2305 2120 2011 2113 2212
8 2216 2115 2214 2306 2117 2009 2114 2213
8 2216 2115 2009 2117 2311 2217 2116 2219
8 2219 2116 2010 2119 2314 2218 2118 2222
8 2315 2219 2117 2220 2223 2119 2011 2120
8 2122 2012 2121 2225 2222 2118 2221 2317
8 2318 2222 2119 2223 2226 2122 2013 2123
8 2125 2015 2124 2228 2225 2121 2224 2320
8 2126 2016 2125 2229 2226 2122 2225 2321
8 2128 2018 2127 2231 2228 2124 2227 2323
8 2129 2019 2128 2232 2229 2125 2228 2324
8 2131 2021 2130 2234 2231 2127 2230 2326
8 2132 2022 2131 2235 2232 2128 2231 2327
8 2134 2024 2133 2236 2234 2130 2233 2328
8 2135 2025 2134 2237 2235 2131 2234 2329
8 2137 2028 2136 2238 2237 2134 2236 2330
8 2157 2050 2158 2259 2240 2139 2239 2332
8 2257 2157 2240 2334 2161 2054 2140 2242
8 2240 2139 2241 2335 2140 2033 2141 2243
8 2242 2140 2243 2337 2144 2035 2143 2247
8 2243 2141 2244 2338 2143 2034 2142 2246
8 2246 2142 2245 2341 2146 2036 2145 2249
8 2247 2143 2246 2342 2147 2037 2146 2250
8 2249 2145 2248 2343 2149 2038 2148 2251
8 2250 2146 2249 2344 2150 2039 2149 2252
8 2252 2149 2251 2345 2152 2042 2151 2253
8 2169 2271 2347 2254 2062 2170 2255 2154
8 2189 2085 2188 2285 2255 2154 2254 2347
8 2348 2255 2155 2256 2286 2189 2086 2190
8 2272 2170 2063 2171 2348 2255 2155 2256
8 2349 2258 2157 2257 2263 2164 2054 2161
8 2258 2159 2261 2351 2157 2050 2158 2259
8 2258 2159 2056 2164 2351 2261 2165 2264
8 2262 2163 2060 2167 2355 2264 2168 2269
8 2162 2055 2163 2262 2263 2164 2264 2355
8 2357 2266 2165 2264 2268 2166 2061 2168
8 2268 2166 2076 2182 2361 2267 2181 2280
8 2281 2182 2268 2362 2183 2077 2168 2269
8 2271 2169 2270 2364 2177 2075 2180 2277
8 2172 2070 2170 2272 2273 2177 2271 2365
8 2072 2173 2274 2178 2177 2273 2366 2277
8 2071 2174 2275 2176 2178 2274 2367 2276
8 2275 2176 2276 2367 2184 2083 2186 2282
8 2283 2187 2084 2186 2368 2278 2179 2276
8 2178 2074 2180 2277 2276 2179 2278 2368
8 2283 2187 2279 2370 2186 2084 2181 2280
8 2281 2182 2082 2185 2371 2280 2186 2282
8 2188 2285 2374 2284 2100 2197 2292 2201
8 2286 2189 2095 2193 2375 2285 2197 2289
8 2192 2097 2196 2287 2288 2199 2291 2376
8 2287 2196 2104 2203 2376 2291 2204 2296
8 2194 2098 2199 2288 2290 2198 2293 2377
8 2289 2197 2096 2195 2378 2292 2198 2290
8 2291 2200 2105 2204 2379 2294 2205 2297
8 2199 2102 2200 2291 2293 2202 2294 2379
8 2198 2101 2202 2293 2292 2201 2295 2380
8 2299 2207 2297 2383 2206 2107 2204 2296
8 2300 2208 2298 2384 2207 2108 2205 2297
8 2302 2210 2300 2386 2209 2110 2207 2299
8 2303 2211 2301 2387 2210 2111 2208 2300
8 2305 2213 2303 2389 2212 2113 2210 2302
8 2306 2214 2304 2390 2213 2114 2211 2303
8 2310 2216 2306 2392 2220 2117 2213 2305
8 2308 2215 2307 2393 2216 2115 2214 2306
8 2308 2215 2115 2216 2396 2309 2217 2311
8 2310 2216 2117 2220 2398 2311 2219 2315
8 2311 2217 2116 2219 2399 2312 2218 2314
8 2314 2218 2118 2222 2402 2313 2221 2317
8 2315 2219 2119 2223 2403 2314 2222 2318
8 2225 2121 2224 2320 2317 2221 2316 2405
8 2226 2122 2225 2321 2318 2222 2317 2406
8 2228 2124 2227 2323 2320 2224 2319 2408
8 2229 2125 2228 2324 2321 2225 2320 2409
8 2231 2127 2230 2326 2323 2227 2322 2411
8 2232 2128 2231 2327 2324 2228 2323 2412
8 2234 2130 2233 2328 2326 2230 2325 2413
8 2235 2131 2234 2329 2327 2231 2326 2414
8 2237 2134 2236 2330 2329 2234 2328 2415
8 2259 2158 2260 2352 2332 2239 2331 2417
8 2257 2157 2259 2350 2334 2240 2332 2419
8 2240 2139 2239 2332 2335 2241 2333 2420
8 2334 2240 2335 2422 2242 2140 2243 2337
8 2335 2241 2336 2423 2243 2141 2244 2338
8 2337 2243 2338 2425 2247 2143 2246 2342
8 2338 2244 2339 2426 2246 2142 2245 2341
8 2341 2245 2340 2428 2249 2145 2248 2343
8 2342 2246 2341 2429 2250 2146 2249 2344
8 2344 2249 2343 2430 2252 2149 2251 2345
8 2188 2285 2347 2254 2284 2374 2432 2346
8 2347 2254 2346 2432 2271 2169 2270 2364
8 2365 2271 2170 2272 2433 2347 2255 2348
8 2286 2189 2285 2375 2348 2255 2347 2433
8 2349 2258 2351 2435 2257 2157 2259 2350
8 2349 2258 2164 2263 2435 2351 2264 2355
8 2259 2158 2261 2351 2352 2260 2354 2437
8 2356 2265 2354 2437 2264 2165 2261 2351
8 2441 2357 2264 2355 2362 2268 2168 2269
8 2356 2265 2165 2264 2442 2358 2266 2357
8 2443 2359 2266 2357 2361 2267 2166 2268
8 2370 2279 2360 2446 2280 2181 2267 2361
8 2362 2268 2182 2281 2447 2361 2280 2371
8 2180 2277 2368 2278 2270 2364 2449 2363
8 2271 2365 2273 2177 2364 2450 2366 2277
8 2372 2283 2186 2282 2451 2368 2276 2367
8 2178 2274 2367 2276 2277 2366 2451 2368
8 2283 2187 2278 2368 2370 2279 2369 2452
8 2372 2283 2370 2453 2282 2186 2280 2371
8 2284 2374 2455 2373 2201 2292 2380 2295
8 2375 2285 2197 2289 2456 2374 2292 2378
8 2376 2291 2204 2296 2457 2379 2297 2383
8 2288 2199 2291 2376 2377 2293 2379 2457
8 2198 2290 2378 2292 2293 2377 2458 2380
8 2293 2202 2294 2379 2380 2295 2381 2459
8 2384 2298 2381 2459 2297 2205 2294 2379
8 2386 2300 2384 2463 2299 2207 2297 2383
8 2387 2301 2385 2464 2300 2208 2298 2384
8 2389 2303 2387 2466 2302 2210 2300 2386
8 2390 2304 2388 2467 2303 2211 2301 2387
8 2392 2306 2390 2469 2305 2213 2303 2389
8 2393 2307 2391 2470 2306 2214 2304 2390
8 2395 2308 2393 2472 2310 2216 2306 2392
8 2308 2215 2309 2396 2393 2307 2394 2473
8 2395 2308 2216 2310 2475 2396 2311 2398
8 2396 2309 2217 2311 2476 2397 2312 2399
8 2398 2311 2219 2315 2478 2399 2314 2403
8 2399 2312 2218 2314 2479 2400 2313 2402
8 2317 2221 2316 2405 2402 2313 2401 2482
8 2403 2314 2222 2318 2483 2402 2317 2406
8 2320 2224 2319 2408 2405 2316 2404 2485
8 2321 2225 2320 2409 2406 2317 2405 2486
8 2323 2227 2322 2411 2408 2319 2407 2488
8 2324 2228 2323 2412 2409 2320 2408 2489
8 2326 2230 2325 2413 2411 2322 2410 2490
8 2327 2231 2326 2414 2412 2323 2411 2491
8 2329 2234 2328 2415 2414 2326 2413 2492
8 2417 2331 2260 2352 2494 2416 2353 2438
8 2350 2259 2352 2436 2419 2332 2417 2496
8 2332 2239 2331 2417 2420 2333 2418 2497
8 2334 2240 2332 2419 2422 2335 2420 2499
8 2420 2333 2421 2500 2335 2241 2336 2423
8 2422 2335 2423 2502 2337 2243 2338 2425
8 2423 2336 2424 2503 2338 2244 2339 2426
8 2425 2338 2426 2505 2342 2246 2341 2429
8 2426 2339 2427 2506 2341 2245 2340 2428
8 2429 2341 2428 2507 2344 2249 2343 2430
8 2432 2346 2284 2374 2509 2431 2373 2455
8 2432 2346 2431 2509 2364 2270 2363 2449
8 2375 2285 2374 2456 2433 2347 2432 2510
8 2347 2433 2365 2271 2432 2510 2450 2364
8 2350 2259 2351 2435 2436 2352 2437 2514
8 2440 2356 2437 2514 2355 2264 2351 2435
8 2352 2260 2354 2437 2438 2353 2439 2516
8 2356 2265 2358 2442 2437 2354 2439 2516
8 2440 2356 2264 2355 2518 2442 2357 2441
8 2519 2443 2357 2441 2447 2361 2268 2362
8 2443 2359 2444 2520 2357 2266 2358 2442
8 2443 2359 2267 2361 2520 2444 2360 2446
8 2446 2360 2279 2370 2523 2445 2369 2452
8 2453 2370 2446 2524 2371 2280 2361 2447
8 2449 2363 2448 2525 2368 2278 2369 2452
8 2366 2277 2364 2450 2451 2368 2449 2526
8 2372 2283 2368 2451 2453 2370 2452 2527
8 2455 2373 2295 2380 2529 2454 2382 2460
8 2456 2374 2292 2378 2530 2455 2380 2458
8 2377 2293 2379 2457 2458 2380 2459 2531
8 2463 2384 2459 2531 2383 2297 2379 2457
8 2533 2461 2382 2460 2459 2381 2295 2380
8 2464 2385 2461 2533 2384 2298 2381 2459
8 2466 2387 2464 2537 2386 2300 2384 2463
8 2467 2388 2465 2538 2387 2301 2385 2464
8 2469 2390 2467 2540 2389 2303 2387 2466
8 2470 2391 2468 2541 2390 2304 2388 2467
8 2472 2393 2470 2543 2392 2306 2390 2469
8 2393 2307 2394 2473 2470 2391 2471 2544
8 2395 2308 2396 2475 2472 2393 2473 2546
8 2396 2309 2397 2476 2473 2394 2474 2547
8 2475 2396 2311 2398 2549 2476 2399 2478
8 2476 2397 2312 2399 2550 2477 2400 2479
8 2478 2399 2314 2403 2552 2479 2402 2483
8 2479 2400 2313 2402 2553 2480 2401 2482
8 2405 2316 2404 2485 2482 2401 2481 2556
8 2406 2317 2405 2486 2483 2402 2482 2557
8 2408 2319 2407 2488 2485 2404 2484 2559
8 2409 2320 2408 2489 2486 2405 2485 2560
8 2411 2322 2410 2490 2488 2407 2487 2561
8 2412 2323 2411 2491 2489 2408 2488 2562
8 2414 2326 2413 2492 2491 2411 2490 2563
8 2513 2434 2493 2565 2438 2353 2416 2494
8 2496 2417 2352 2436 2567 2494 2438 2515
8 2494 2416 2495 2568 2417 2331 2418 2497
8 2419 2332 2417 2496 2499 2420 2497 2570
8 2497 2418 2498 2571 2420 2333 2421 2500
8 2499 2420 2500 2573 2422 2335 2423 2502
8 2500 2421 2501 2574 2423 2336 2424 2503
8 2502 2423 2503 2576 2425 2338 2426 2505
8 2503 2424 2504 2577 2426 2339 2427 2506
8 2505 2426 2506 2578 2429 2341 2428 2507
8 2509 2431 2373 2455 2580 2508 2454 2529
8 2509 2431 2508 2580 2449 2363 2448 2525
8 2432 2510 2581 2509 2374 2456 2530 2455
8 2432 2510 2450 2364 2509 2581 2526 2449
8 2583 2511 2434 2513 2516 2439 2353 2438
8 2436 2352 2437 2514 2515 2438 2516 2588
8 2440 2356 2442 2518 2514 2437 2516 2588
8 2442 2358 2444 2520 2516 2439 2517 2589
8 2519 2443 2520 2591 2441 2357 2442 2518
8 2519 2443 2361 2447 2591 2520 2446 2524
8 2446 2360 2445 2523 2520 2444 2521 2592
8 2525 2448 2522 2593 2452 2369 2445 2523
8 2524 2446 2370 2453 2594 2523 2452 2527
8 2526 2449 2525 2595 2451 2368 2452 2527
8 2534 2462 2528 2597 2460 2382 2454 2529
8 2530 2455 2380 2458 2598 2529 2460 2532
8 2599 2533 2460 2532 2531 2459 2380 2458
8 2537 2464 2533 2599 2463 2384 2459 2531
8 2534 2462 2382 2460 2601 2535 2461 2533
8 2538 2465 2535 2601 2464 2385 2461 2533
8 2540 2467 2538 2604 2466 2387 2464 2537
8 2541 2468 2539 2605 2467 2388 2465 2538
8 2543 2470 2541 2607 2469 2390 2467 2540
8 2470 2391 2471 2544 2541 2468 2542 2608
8 2472 2393 2473 2546 2543 2470 2544 2610
8 2473 2394 2474 2547 2544 2471 2545 2611
8 2475 2396 2476 2549 2546 2473 2547 2613
8 2476 2397 2477 2550 2547 2474 2548 2614
8 2549 2476 2399 2478 2616 2550 2479 2552
8 2479 2400 2480 2553 2550 2477 2551 2617
8 2552 2479 2402 2483 2619 2553 2482 2557
8 2482 2401 2481 2556 2553 2480 2554 2620
8 2485 2404 2484 2559 2556 2481 2555 2623
8 2486 2405 2485 2560 2557 2482 2556 2624
8 2488 2407 2487 2561 2559 2484 2558 2625
8 2489 2408 2488 2562 2560 2485 2559 2626
8 2491 2411 2490 2563 2562 2488 2561 2627
8 2513 2434 2512 2585 2565 2493 2564 2630
8 2586 2513 2565 2632 2515 2438 2494 2567
8 2565 2493 2566 2633 2494 2416 2495 2568
8 2567 2494 2568 2635 2496 2417 2497 2570
8 2568 2495 2569 2636 2497 2418 2498 2571
8 2570 2497 2571 2638 2499 2420 2500 2573
8 2571 2498 2572 2639 2500 2421 2501 2574
8 2573 2500 2574 2641 2502 2423 2503 2576
8 2574 2501 2575 2642 2503 2424 2504 2577
8 2576 2503 2577 2643 2505 2426 2506 2578
8 2597 2528 2579 2645 2529 2454 2508 2580
8 2580 2508 2579 2645 2525 2448 2522 2593
8 2581 2509 2455 2530 2646 2580 2529 2598
8 2581 2509 2580 2646 2526 2449 2525 2595
8 2583 2511 2582 2648 2513 2434 2512 2585
8 2583 2511 2439 2516 2648 2582 2517 2589
8 2649 2583 2513 2586 2588 2516 2438 2515
8 2589 2517 2444 2520 2653 2587 2521 2592
8 2518 2442 2520 2591 2588 2516 2589 2654
8 2593 2522 2590 2655 2523 2445 2521 2592
8 2524 2446 2523 2594 2591 2520 2592 2656
8 2595 2525 2593 2657 2527 2452 2523 2594
8 2602 2536 2596 2659 2534 2462 2528 2597
8 2600 2534 2597 2660 2532 2460 2529 2598
8 2600 2534 2460 2532 2661 2601 2533 2599
8 2604 2538 2601 2661 2537 2464 2533 2599
8 2602 2536 2462 2534 2663 2603 2535 2601
8 2601 2535 2465 2538 2663 2603 2539 2605
8 2607 2541 2605 2665 2540 2467 2538 2604
8 2608 2542 2606 2666 2541 2468 2539 2605
8 2543 2470 2544 2610 2607 2541 2608 2668
8 2544 2471 2545 2611 2608 2542 2609 2669
8 2546 2473 2547 2613 2610 2544 2611 2671
8 2547 2474 2548 2614 2611 2545 2612 2672
8 2549 2476 2550 2616 2613 2547 2614 2674
8 2550 2477 2551 2617 2614 2548 2615 2675
8 2552 2479 2553 2619 2616 2550 2617 2677
8 2553 2480 2554 2620 2617 2551 2618 2678
8 2557 2482 2556 2624 2619 2553 2620 2680
8 2556 2481 2555 2623 2620 2554 2621 2681
8 2559 2484 2558 2625 2623 2555 2622 2683
8 2560 2485 2559 2626 2624 2556 2623 2684
8 2562 2488 2561 2627 2626 2559 2625 2685
8 2690 2629 2564 2630 2650 2584 2512 2585
8 2586 2513 2585 2651 2632 2565 2630 2691
8 2630 2564 2631 2692 2565 2493 2566 2633
8 2632 2565 2633 2694 2567 2494 2568 2635
8 2633 2566 2634 2695 2568 2495 2569 2636
8 2635 2568 2636 2697 2570 2497 2571 2638
8 2636 2569 2637 2698 2571 2498 2572 2639
8 2638 2571 2639 2700 2573 2500 2574 2641
8 2639 2572 2640 2701 2574 2501 2575 2642
8 2641 2574 2642 2702 2576 2503 2577 2643
8 2597 2528 2596 2659 2645 2579 2644 2704
8 2645 2579 2644 2704 2593 2522 2590 2655
8 2660 2597 2645 2705 2598 2529 2580 2646
8 2646 2580 2645 2705 2595 2525 2593 2657
8 2650 2584 2512 2585 2707 2647 2582 2648
8 2648 2582 2517 2589 2707 2647 2587 2653
8 2649 2583 2648 2708 2586 2513 2585 2651
8 2649 2583 2516 2588 2708 2648 2589 2654
8 2655 2590 2652 2710 2592 2521 2587 2653
8 2654 2589 2520 2591 2711 2653 2592 2656
8 2657 2593 2655 2712 2594 2523 2592 2656
8 2602 2536 2603 2663 2659 2596 2658 2714
8 2662 2602 2659 2715 2600 2534 2597 2660
8 2662 2602 2534 2600 2717 2663 2601 2661
8 2661 2601 2538 2604 2717 2663 2605 2665
8 2666 2606 2664 2718 2605 2539 2603 2663
8 2668 2608 2666 2720 2607 2541 2605 2665
8 2608 2542 2609 2669 2666 2606 2667 2721
8 2610 2544 2611 2671 2668 2608 2669 2723
8 2611 2545 2612 2672 2669 2609 2670 2724
8 2613 2547 2614 2674 2671 2611 2672 2726
8 2614 2548 2615 2675 2672 2612 2673 2727
8 2616 2550 2617 2677 2674 2614 2675 2729
8 2617 2551 2618 2678 2675 2615 2676 2730
8 2619 2553 2620 2680 2677 2617 2678 2732
8 2620 2554 2621 2681 2678 2618 2679 2733
8 2624 2556 2623 2684 2680 2620 2681 2735
8 2681 2621 2555 2623 2736 2682 2622 2683
8 2626 2559 2625 2685 2684 2623 2683 2737
8 2688 2628 2584 2650 2740 2686 2647 2707
8 2688 2628 2687 2742 2650 2584 2629 2690
8 2690 2629 2689 2745 2630 2564 2631 2692
8 2746 2690 2630 2691 2709 2650 2585 2651
8 2691 2630 2692 2747 2632 2565 2633 2694
8 2692 2631 2693 2748 2633 2566 2634 2695
8 2694 2633 2695 2750 2635 2568 2636 2697
8 2695 2634 2696 2751 2636 2569 2637 2698
8 2697 2636 2698 2753 2638 2571 2639 2700
8 2698 2637 2699 2754 2639 2572 2640 2701
8 2700 2639 2701 2755 2641 2574 2642 2702
8 2659 2596 2658 2714 2704 2644 2703 2757
8 2704 2644 2703 2757 2655 2590 2652 2710
8 2660 2597 2659 2715 2705 2645 2704 2758
8 2705 2645 2704 2758 2657 2593 2655 2712
8 2759 2706 2647 2707 2710 2652 2587 2653
8 2709 2650 2585 2651 2760 2707 2648 2708
8 2708 2648 2589 2654 2760 2707 2653 2711
8 2712 2655 2710 2761 2656 2592 2653 2711
8 2763 2713 2658 2714 2718 2664 2603 2663
8 2662 2602 2663 2717 2715 2659 2714 2764
8 2720 2666 2718 2767 2665 2605 2663 2717
8 2768 2719 2664 2718 2721 2667 2606 2666
8 2668 2608 2669 2723 2720 2666 2721 2770
8 2669 2609 2670 2724 2721 2667 2722 2771
8 2671 2611 2672 2726 2723 2669 2724 2773
8 2672 2612 2673 2727 2724 2670 2725 2774
8 2674 2614 2675 2729 2726 2672 2727 2776
8 2675 2615 2676 2730 2727 2673 2728 2777
8 2677 2617 2678 2732 2729 2675 2730 2779
8 2678 2618 2679 2733 2730 2676 2731 2780
8 2680 2620 2681 2735 2732 2678 2733 2782
8 2733 2679 2621 2681 2783 2734 2682 2736
8 2735 2681 2623 2684 2784 2736 2683 2737
8 2740 2686 2647 2707 2787 2738 2706 2759
8 2688 2628 2686 2740 2742 2687 2739 2789
8 2743 2688 2650 2709 2790 2740 2707 2760
8 2742 2687 2741 2792 2690 2629 2689 2745
8 2743 2688 2742 2793 2709 2650 2690 2746
8 2745 2689 2744 2795 2692 2631 2693 2748
8 2746 2690 2745 2796 2691 2630 2692 2747
8 2747 2692 2748 2797 2694 2633 2695 2750
8 2748 2693 2749 2798 2695 2634 2696 2751
8 2750 2695 2751 2800 2697 2636 2698 2753
8 2751 2696 2752 2801 2698 2637 2699 2754
8 2753 2698 2754 2802 2700 2639 2701 2755
8 2763 2713 2756 2804 2714 2658 2703 2757
8 2759 2706 2652 2710 2804 2756 2703 2757
8 2715 2659 2714 2764 2758 2704 2757 2805
8 2758 2704 2757 2805 2712 2655 2710 2761
8 2806 2759 2707 2760 2761 2710 2653 2711
8 2765 2716 2762 2808 2718 2664 2713 2763
8 2809 2763 2714 2764 2767 2718 2663 2717
8 2765 2716 2664 2718 2811 2766 2719 2768
8 2813 2768 2718 2767 2770 2721 2666 2720
8 2814 2769 2719 2768 2771 2722 2667 2721
8 2723 2669 2724 2773 2770 2721 2771 2816
8 2724 2670 2725 2774 2771 2722 2772 2817
8 2726 2672 2727 2776 2773 2724 2774 2819
8 2727 2673 2728 2777 2774 2725 2775 2820
8 2729 2675 2730 2779 2776 2727 2777 2822
8 2730 2676 2731 2780 2777 2728 2778 2823
8 2732 2678 2733 2782 2779 2730 2780 2825
8 2780 2731 2679 2733 2826 2781 2734 2783
8 2782 2733 2681 2735 2827 2783 2736 2784
8 2830 2785 2738 2787 2804 2756 2706 2759
8 2789 2739 2686 2740 2832 2786 2738 2787
8 2790 2740 2707 2760 2833 2787 2759 2806
8 2742 2687 2739 2789 2792 2741 2788 2835
8 2743 2688 2740 2790 2793 2742 2789 2836
8 2792 2741 2791 2838 2745 2689 2744 2795
8 2793 2742 2792 2839 2746 2690 2745 2796
8 2795 2744 2794 2841 2748 2693 2749 2798
8 2796 2745 2795 2842 2747 2692 2748 2797
8 2797 2748 2798 2843 2750 2695 2751 2800
8 2798 2749 2799 2844 2751 2696 2752 2801
8 2800 2751 2801 2845 2753 2698 2754 2802
8 2808 2762 2803 2847 2763 2713 2756 2804
8 2809 2763 2804 2848 2764 2714 2757 2805
8 2806 2759 2710 2761 2848 2804 2757 2805
8 2765 2716 2766 2811 2808 2762 2807 2850
8 2810 2765 2808 2851 2767 2718 2763 2809
8 2810 2765 2718 2767 2852 2811 2768 2813
8 2811 2766 2719 2768 2853 2812 2769 2814
8 2855 2814 2768 2813 2816 2771 2721 2770
8 2856 2815 2769 2814 2817 2772 2722 2771
8 2773 2724 2774 2819 2816 2771 2817 2858
8 2774 2725 2775 2820 2817 2772 2818 2859
8 2776 2727 2777 2822 2819 2774 2820 2861
8 2777 2728 2778 2823 2820 2775 2821 2862
8 2779 2730 2780 2825 2822 2777 2823 2864
8 2823 2778 2731 2780 2865 2824 2781 2826
8 2825 2780 2733 2782 2866 2826 2783 2827
8 2869 2828 2785 2830 2847 2803 2756 2804
8 2871 2829 2786 2832 2830 2785 2738 2787
8 2872 2830 2787 2833 2848 2804 2759 2806
8 2789 2739 2786 2832 2835 2788 2831 2874
8 2836 2789 2740 2790 2875 2832 2787 2833
8 2792 2741 2788 2835 2838 2791 2834 2877
8 2793 2742 2789 2836 2839 2792 2835 2878
8 2838 2791 2837 2880 2795 2744 2794 2841
8 2839 2792 2838 2881 2796 2745 2795 2842
8 2841 2794 2840 2882 2798 2749 2799 2844
8 2842 2795 2841 2883 2797 2748 2798 2843
8 2843 2798 2844 2884 2800 2751 2801 2845
8 2886 2846 2803 2847 2850 2807 2762 2808
8 2851 2808 2847 2887 2809 2763 2804 2848
8 2850 2807 2766 2811 2889 2849 2812 2853
8 2810 2765 2811 2852 2851 2808 2850 2890
8 2852 2811 2768 2813 2891 2853 2814 2855
8 2853 2812 2769 2814 2892 2854 2815 2856
8 2894 2856 2814 2855 2858 2817 2771 2816
8 2817 2772 2818 2859 2856 2815 2857 2895
8 2819 2774 2820 2861 2858 2817 2859 2897
8 2820 2775 2821 2862 2859 2818 2860 2898
8 2822 2777 2823 2864 2861 2820 2862 2900
8 2823 2778 2824 2865 2862 2821 2863 2901
8 2864 2823 2780 2825 2902 2865 2826 2866
8 2904 2867 2828 2869 2886 2846 2803 2847
8 2869 2828 2868 2906 2830 2785 2829 2871
8 2907 2869 2830 2872 2887 2847 2804 2848
8 2871 2829 2870 2909 2832 2786 2831 2874
8 2910 2871 2832 2875 2872 2830 2787 2833
8 2835 2788 2831 2874 2877 2834 2873 2912
8 2836 2789 2832 2875 2878 2835 2874 2913
8 2877 2834 2876 2915 2838 2791 2837 2880
8 2839 2792 2835 2878 2881 2838 2877 2916
8 2880 2837 2879 2917 2841 2794 2840 2882
8 2881 2838 2880 2918 2842 2795 2841 2883
8 2883 2841 2882 2919 2843 2798 2844 2884
8 2921 2885 2846 2886 2889 2849 2807 2850
8 2922 2886 2847 2887 2890 2850 2808 2851
8 2889 2849 2812 2853 2924 2888 2854 2892
8 2890 2850 2811 2852 2925 2889 2853 2891
8 2891 2853 2814 2855 2926 2892 2856 2894
8 2892 2854 2815 2856 2927 2893 2857 2895
8 2858 2817 2859 2897 2894 2856 2895 2929
8 2859 2818 2860 2898 2895 2857 2896 2930
8 2861 2820 2862 2900 2897 2859 2898 2932
8 2862 2821 2863 2901 2898 2860 2899 2933
8 2864 2823 2865 2902 2900 2862 2901 2934
8 2904 2867 2846 2886 2936 2903 2885 2921
8 2904 2867 2903 2936 2869 2828 2868 2906
8 2937 2904 2869 2907 2922 2886 2847 2887
8 2906 2868 2905 2939 2871 2829 2870 2909
8 2907 2869 2906 2940 2872 2830 2871 2910
8 2909 2870 2908 2942 2874 2831 2873 2912
8 2910 2871 2909 2943 2875 2832 2874 2913
8 2912 2873 2911 2945 2877 2834 2876 2915
8 2878 2835 2874 2913 2916 2877 2912 2946
8 2915 2876 2914 2947 2880 2837 2879 2917
8 2916 2877 2915 2948 2881 2838 2880 2918
8 2918 2880 2917 2949 2883 2841 2882 2919
8 2921 2885 2849 2889 2951 2920 2888 2924
8 2952 2921 2886 2922 2925 2889 2850 2890
8 2924 2888 2854 2892 2954 2923 2893 2927
8 2925 2889 2853 2891 2955 2924 2892 2926
8 2926 2892 2856 2894 2956 2927 2895 2929
8 2895 2857 2896 2930 2927 2893 2928 2957
8 2897 2859 2898 2932 2929 2895 2930 2959
8 2898 2860 2899 2933 2930 2896 2931 2960
8 2900 2862 2901 2934 2932 2898 2933 2961
8 2936 2903 2885 2921 2963 2935 2920 2951
8 2936 2903 2935 2963 2906 2868 2905 2939
8 2937 2904 2886 2922 2964 2936 2921 2952
8 2937 2904 2936 2964 2907 2869 2906 2940
8 2939 2905 2938 2966 2909 2870 2908 2942
8 2940 2906 2939 2967 2910 2871 2909 2943
8 2942 2908 2941 2969 2912 2873 2911 2945
8 2943 2909 2942 2970 2913 2874 2912 2946
8 2945 2911 2944 2971 2915 2876 2914 2947
8 2946 2912 2945 2972 2916 2877 2915 2948
8 2948 2915 2947 2973 2918 2880 2917 2949
8 2951 2920 2888 2924 2975 2950 2923 2954
8 2952 2921 2889 2925 2976 2951 2924 2955
8 2927 2893 2928 2957 2954 2923 2953 2978
8 2955 2924 2892 2926 2979 2954 2927 2956
8 2929 2895 2930 2959 2956 2927 2957 2980
8 2930 2896 2931 2960 2957 2928 2958 2981
8 2932 2898 2933 2961 2959 2930 2960 2982
8 2951 2920 2950 2975 2963 2935 2962 2984
8 2963 2935 2962 2984 2939 2905 2938 2966
8 2964 2936 2921 2952 2985 2963 2951 2976
8 2964 2936 2963 2985 2940 2906 2939 2967
8 2966 2938 2965 2987 2942 2908 2941 2969
8 2967 2939 2966 2988 2943 2909 2942 2970
8 2969 2941 2968 2989 2945 2911 2944 2971
8 2970 2942 2969 2990 2946 2912 2945 2972
8 2972 2945 2971 2991 2948 2915 2947 2973
8 2954 2923 2953 2978 2975 2950 2974 2993
8 2976 2951 2924 2955 2994 2975 2954 2979
8 2957 2928 2958 2981 2978 2953 2977 2995
8 2956 2927 2957 2980 2979 2954 2978 2996
8 2959 2930 2960 2982 2980 2957 2981 2997
8 2984 2962 2983 2999 2966 2938 2965 2987
8 2975 2950 2974 2993 2984 2962 2983 2999
8 2976 2951 2975 2994 2985 2963 2984 3000
8 2985 2963 2984 3000 2967 2939 2966 2988
8 2987 2965 2986 3001 2969 2941 2968 2989
8 2988 2966 2987 3002 2970 2942 2969 2990
8 2990 2969 2989 3003 2972 2945 2971 2991
8 2978 2953 2977 2995 2993 2974 2992 3004
8 2979 2954 2978 2996 2994 2975 2993 3005
8 2980 2957 2981 2997 2996 2978 2995 3006
8 2974 2993 2999 2983 2992 3004 3007 2998
8 2983 2999 2987 2965 2998 3007 3001 2986
8 3000 2984 2999 3008 2988 2966 2987 3002
8 2994 2975 2993 3005 3000 2984 2999 3008
8 3002 2987 3001 3009 2990 2969 2989 3003
8 2996 2978 2995 3006 3005 2993 3004 3010
8 3005 2993 3004 3010 3008 2999 3007 3011
8 3008 2999 3007 3011 3002 2987 3001 3009

CELL_TYPES 1910
12
12
12
12
12
12
12
12
12
12
12
12
12
12
12
12
12
12
12
12
12
12
12
12
12
12
12
12
12
12
12
12
12
12
12
12
12
12
12
12
12
12
12
12
12
12
12
12
12
12
12
12
12
12
12
12
12
12
12
12
12
12
12
12
12
12
12
12
12
12
12
12
12
12
12
12
12
12
12
12
12
12
12
12
12
12
12
12
12
12
12
12
12
12
12
12
12
12
12
12
12
12
12
12
12
12
12
12
12
12
12
12
12
12
12
12
12
12
12
12
12
12
12
12
12
12
12
12
12
12
12
12
12
12
12
12
12
12
12
12
12
12
12
12
12
12
12
12
12
12
12
12
12
12
12
12
12
12
12
12
12
12
12
12
12
12
12
12
12
12
12
12
12
12
12
12
12
12
12
12
12
12
12
12
12
12
12
12
12
12
12
12
12
12
12
12
12
12
12
12
12
12
12
12
12
12
12
12
12
12
12
12
12
12
12
12
12
12
12
12
12
12
12
12
12
12
12
12
12
12
12
12
12
12
12
12
12
12
12
12
12
12
12
12
12
12
12
12
12
12
12
12
12
12
12
12
12
12
12
12
12
12
12
12
12
12
12
12
12
12
12
12
12
12
12
12
12
12
12
12
12
12
12
12
12
12
12
12
12
12
12
12
12
12
12
12
12
12
12
12
12
12
12
12
12
12
12
12
12
12
12
12
12
12
12
12
12
12
12
12
12
12
12
12
12
12
12
12
12
12
12
12
12
12
12
12
12
12
12
12
12
12
12
12
12
12
12
12
12
12
12
12
12
12
12
12
12
12
12
12
12
12
12
12
12
12
12
12
12
12
12
12
12
12
12
12
12
12
12
12
12
12
12
12
12
12
12
12
12
12
12
12
12
12
12
12
12
12
12
12
12
12
12
12
12
12
12
12
12
12
12
12
12
12
12
12
12
12
12
12
12
12
12
12
12
12
12
12
12
12
12
12
12
12
12
12
12
12
12
12
12
12
12
12
12
12
12
12
12
12
12
12
12
12
12
12
12
12
12
12
12
12
12
12
12
12
12
12
12
12
12
12
12
12
12
12
12
12
12
12
12
12
12
12
12
12
12
12
12
12
12
12
12
12
12
12
12
12
12
12
12
12
12
12
12
12
12
12
12
12
12
12
12
12
12
12
12
12
12
12
12
12
12
12
12
12
12
12
12
12
12
12
12
12
12
12
12
12
12
12
12
12
12
12
12
12
12
12
12
12
12
12
12
12
12
12
12
12
12
12
12
12
12
12
12
12
12
12
12
12
12
12
12
12
12
12
12
12
12
12
12
12
12
12
12
12
12
12
12
12
12
12
12
12
12
12
12
12
12
12
12
12
12
12
12
12
12
12
12
12
12
12
12
12
12
12
12
12
12
12
12
12
12
12
12
12
12
12
12
12
12
12
12
12
12
12
12
12
12
12
12
12
12
12
12
12
12
12
12
12
12
12
12
12
12
12
12
12
12
12
12
12
12
12
12
12
12
12
12
12
12
12
12
12
12
12
12
12
12
12
12
12
12
12
12
12
12
12
12
12
12
12
12
12
12
12
12
12
12
12
12
12
12
12
12
12
12
12
12
12
12
12
12
12
12
12
12
12
12
12
12
12
12
12
12
12
12
12
12
12
12
12
12
12
12
12
12
12
12
12
12
12
12
12
12
12
12
12
12
12
12
12
12
12
12
12
12
12
12
12
12
12
12
12
12
12
12
12
12
12
12
12
12
12
12
12
12
12
12
12
12
12
12
12
12
12
12
12
12
12
12
12
12
12
12
12
12
12
12
12
12
12
12
12
12
12
12
12
12
12
12
12
12
12
12
12
12
12
12
12
12
12
12
12
12
12
12
12
12
12
12
12
12
12
12
12
12
12
12
12
12
12
12
12
12
12
12
12
12
12
12
12
12
12
12
12
12
12
12
12
12
12
12
12
12
12
12
12
12
12
12
12
12
12
12
12
12
12
12
12
12
12
12
12
12
12
12
12
12
12
12
12
12
12
12
12
12
12
12
12
12
12
12
12
12
12
12
12
12
12
12
12
12
12
12
12
12
12
12
12
12
12
12
12
12
12
12
12
12
12
12
12
12
12
12
12
12
12
12
12
12
12
12
12
12
12
12
12
12
12
12
12
12
12
12
12
12
12
12
12
12
12
12
12
12
12
12
12
12
12
12
12
12
12
12
12
12
12
12
12
12
12
12
12
12
12
12
12
12
12
12
12
12
12
12
12
12
12
12
12
12
12
12
12
12
12
12
12
12
12
12
12
12
12
12
12
12
12
12
12
12
12
12
12
12
12
12
12
12
12
12
12
12
12
12
12
12
12
12
12
12
12
12
12
12
12
12
12
12
12
12
12
12
12
12
12
12
12
12
12
12
12
12
12
12
12
12
12
12
12
12
12
12
12
12
12
12
12
12
12
12
12
12
12
12
12
12
12
12
12
12
12
12
12
12
12
12
12
12
12
12
12
12
12
12
12
12
12
12
12
12
12
12
12
12
12
12
12
12
12
12
12
12
12
12
12
12
12
12
12
12
12
12
12
12
12
12
12
12
12
12
12
12
12
12
12
12
12
12
12
12
12
12
12
12
12
12
12
12
12
12
12
12
12
12
12
12
12
12
12
12
12
12
12
12
12
12
12
12
12
12
12
12
12
12
12
12
12
12
12
12
12
12
12
12
12
12
12
12
12
12
12
12
12
12
12
12
12
12
12
12
12
12
12
12
12
12
12
12
12
12
12
12
12
12
12
12
12
12
12
12
12
12
12
12
12
12
12
12
12
12
12
12
12
12
12
12
12
12
12
12
12
12
12
12
12
12
12
12
12
12
12
12
12
12
12
12
12
12
12
12
12
12
12
12
12
12
12
12
12
12
12
12
12
12
12
12
12
12
12
12
12
12
12
12
12
12
12
12
12
12
12
12
12
12
12
12
12
12
12
12
12
12
12
12
12
12
12
12
12
12
12
12
12
12
12
12
12
12
12
12
12
12
12
12
12
12
12
12
12
12
12
12
12
12
12
12
12
12
12
12
12
12
12
12
12
12
12
12
12
12
12
12
12
12
12
12
12
12
12
12
12
12
12
12
12
12
12
12
12
12
12
12
12
12
12
12
12
12
12
12
12
12
12
12
12
12
12
12
12
12
12
12
12
12
12
12
12
12
12
12
12
12
12
12
12
12
12
12
12
12
12
12
12
12
12
12
12
12
12
12
12
12
12
12
12
12
12
12
12
12
12
12
12
12
12
12
12
12
12
12
12
12
12
12
12
12
12
12
12
12
12
12
12
12
12
12
12
12
12
12
12
12
12
12
12
12
12
12
12
12
12
12
12
12
12
12
12
12
12
12
12
12
12
12
12
12
12
12
12
12
12
12
12
12
12
12
12
12
12
12
12
12
12
12
12
12
12
12
12
12
12
12
12
12
12
12
12
12
12
12
12
12
12
12
12
12
12
12
12
12
12
12
12
12
12
12
12
12
12
12
12
12
12
12
12
12
12
12
12
12
12
12
12
12
12
12
12
12
12
12
12
12
12
12
12
12
12
12
12
12
12
12
12
12
12
12
12
12
12
12
12
12
12
12
12
12
12
12
12
12
12
12
12
12
12
12
12
12
12
12
12
12
12
12
12
12
12
12
12
12
12
12
12
12
12
12
12
12
12
12
12
12
12
12
12
12
12
12
12
12
12
12
12
12
12
12
12
12
12
12
12
12
12
12
12
12
12
12
12
12
12
12
12
12
12
12
12
12
12
12
12
12
12
12
12
12
12
12
12
12
12
12
12
12
12
12
12
12
12
12
12
12
12
12
12
12
12
12
12
12
12
12
12
12
12
12
12
12
12
12
12
12
12
12
12
12
12
12
12
12
12
12
12
12
12
12
12
12
12
12
12
12
12
12
12
12
12
12
12
12
12
12
12
12
12
12
12
12
12
12
12
12
12
12
12
12
12
12
12
12
12
12
12
12
12
12
12
12
12
12
12
12
12
12
12
12
12
12
12
12
12
12
12
12
12
12
12
12
12
12
12
12
12
12
12
12
12
12
12
12
12
12
12
12
12
12
12
12
12
12
12
12
12
12
12
12
12
12
12
12
12
12
12
12
12
12
12
12
12
12
12
12
12
12
12
12
12
12
12
12
12
12
12
12
12
12
12
12
12
12
12
12
12
12
12
12
12
12
12
12
12
12
12
12
12
12
12
12
12
12
12
12
12
12
12
12
12
12
12
12
12
12
12
12
12
12
12
12
12
12
12
12
12
12
12
12
12
12
12
12
12
12
12
12
12
12
12
12
12

POINT_DATA 3012
SCALARS Jp_lamdaP float 4
LOOKUP_TABLE default
0.999867 1 1 0.999867
1 1 1 1
0.999872 1 1 0.999872
0.999826 1 1 0.999826
0.999866 1 1 0.999866
0.999863 1 1 0.999863
0.99936 1 1 0.99936
1 1 1 1
1 1 1 1
1 1 1 1
0.999939 1 1 0.999939
0.999522 1 1 0.999522
0.999788 1 1 0.999788
0.999817 1 1 0.999817
0.999871 1 1 0.999871
0.999841 1 1 0.999841
0.999867 1 1 0.999867
0.999874 1 1 0.999874
0.999363 1 1 0.999363
1 1 1 1
0.999807 1 1 0.999807
0.99985 1 1 0.99985
0.999232 1 1 0.999232
0.999328 1 1 0.999328
0.999884 1 1 0.999884
0.999395 1 1 0.999395
0.99862 1.00006 1 0.998556
1 1 1 1
0.999922 1 1 0.999922
0.999936 1 1 0.999936
1 1 1 1
0.99953 1 1 0.99953
0.99984 1 1 0.99984
0.999863 1 1 0.999863
0.99944 1 1 0.99944
1 1 1 1
0.99953 1 1 0.99953
0.999619 1 1 0.999619
0.998606 1 1 0.998606
1 1 1 1
1 1 1 1
0.999907 1 1 0.999907
1 1 1 1
0.999809 1 1 0.999809
0.999161 1 1 0.999161
1 1 1 1
0.999348 1 1 0.999348
0.999853 1 1 0.999853
0.999879 1 1 0.999879
0.999869 1 1 0.999869
0.999368 1 1 0.999368
0.999891 1 1 0.999891
0.999821 1 1 0.999821
0.999893 1 1 0.999893
0.999862 1 1 0.999862
0.999232 1 1 0.999232
0.999399 1 1 0.999399
0.999331 1 1 0.999331
0.998664 1.00012 1 0.998541
1 1 1 1
0.999794 1 1 0.999794
0.99932 1 1 0.99932
0.999196 1 1 0.999196
0.999281 1 1 0.999281
0.999676 1.00142 1 0.998259
0.998702 1.00031 1 0.998393
0.999937 1 1 0.999937
0.999509 1 1 0.999509
0.998662 1 1 0.998662
1.0032 1.00537 1 0.997836
1 1 1 1
1 1 1 1
1 1 1 1
0.999539 1 1 0.999539
1 1 1 1
1 1 1 1
0.999366 1 1 0.999366
0.999987 1 1 0.999987
0.999474 1 1 0.999474
0.999667 1 1 0.999667
0.998603 1 1 0.998603
1 1 1 1
0.999958 1 1 0.999958
0.999308 1 1 0.999308
0.999403 1 1 0.999403
0.999476 1.00129 1 0.998188
0.999799 1 1 0.999799
0.998505 1 1 0.998505
0.998741 1 1 0.998741
0.998273 1.0002 1 0.998073
1 1 1 1
1 1 1 1
1 1 1 1
1 1 1 1
1 1 1 1
0.999901 1 1 0.999901
0.999236 1 1 0.999236
0.999912 1 1 0.999912
0.999306 1 1 0.999306
1 1 1 1
0.999146 1 1 0.999146
0.99932 1 1 0.99932
0.999552 1.00167 1 0.997889
0.999383 1 1 0.999383
1.00068 1.0027 1 0.997978
0.999805 1 1 0.999805
0.999834 1 1 0.999834
0.999902 1 1 0.999902
0.999872 1 1 0.999872
0.999233 1 1 0.999233
0.999336 1 1 0.999336
0.999405 1 1 0.999405
0.998708 1.00018 1 0.998526
1 1 1 1
0.999809 1 1 0.999809
0.999172 1 1 0.999172
0.999195 1 1 0.999195
0.999968 1 1 0.999968
0.999561 1 1 0.999561
0.999283 1 1 0.999283
0.999656 1.00144 1 0.998219
0.998643 1 1 0.998643
0.998818 1.0004 1 0.998421
1.00359 1.00577 1 0.99784
0.999168 1 1 0.999168
0.999173 1 1 0.999173
0.999225 1.00118 1 0.998049
0.999731 1.00159 1 0.998143
0.999348 1.00107 1 0.998276
1.00951 1.01191 1 0.997625
1 1 1 1
1.00495 1.0072 1 0.997765
0.999729 1 1 0.999729
0.998703 1 1 0.998703
1.002 1.0041 1 0.997907
1.01294 1.01539 1 0.997593
0.999884 1 1 0.999884
0.999393 1 1.00017 0.999222
1 1 1 1
1 1 1 1
0.999373 1 1 0.999373
1 1 1 1
0.999669 1 1 0.999669
0.999479 1 1 0.999479
0.9986 1 1 0.9986
1 1 1 1
0.99997 1 1 0.99997
0.999362 1 1 0.999362
0.999454 1 1 0.999454
0.999202 1.00101 1 0.99819
0.999814 1 1 0.999814
0.998508 1 1 0.998508
0.99874 1 1 0.99874
0.998396 1.00034 1 0.998057
0.999895 1 1 0.999895
0.999992 1 1 0.999992
0.999402 1 1 0.999402
1.00024 1.00217 1 0.998076
0.998745 1.0004 1 0.99835
1.00671 1.0091 1 0.997631
0.998951 1 1 0.998951
1.00052 1.00256 1 0.997962
0.998905 1.00017 1.00057 0.998166
1.00017 1.00228 1 0.997897
1 1 1 1
1 1 1 1
1 1 1 1
0.999931 1 1 0.999931
1 1 1 1
1 1 1 1
1 1 1 1
0.999261 1 1 0.999261
0.999186 1 1 0.999186
1 1 1 1
1 1 1 1
0.999148 1 1 0.999148
0.999277 1 1 0.999277
0.999757 1.00187 1 0.997889
0.999289 1 1 0.999289
1.00068 1.0027 1 0.997978
0.999139 1 1 0.999139
0.998979 1.00114 1 0.997839
1.00021 1.00227 1 0.997943
1.01268 1.0153 1 0.99742
1.00064 1.00263 1 0.998013
1.01295 1.01549 1 0.997494
1 1 1 1
0.999823 1 1 0.999823
0.999011 1 1 0.999011
0.999195 1 1 0.999195
1 1 1 1
0.999613 1 1 0.999613
0.999286 1 1 0.999286
0.999633 1.00146 1 0.99818
0.998932 1.00048 1 0.998449
0.998625 1 1 0.998625
1.00398 1.00615 1 0.997844
0.999165 1 1 0.999165
0.999171 1 1 0.999171
0.999095 1.00114 1 0.997959
0.999767 1.0016 1 0.998171
1 1 1 1
0.999723 1 1 0.999723
0.998752 1 1 0.998752
0.999325 1.00105 1 0.998275
1.00943 1.01187 1 0.997587
1.00206 1.00417 1 0.997896
1.00534 1.00757 1 0.997794
1.01245 1.01489 1 0.997599
0.999875 1 1 0.999875
0.999405 1 1.00018 0.999223
0.998761 1.0009 1 0.99786
0.999597 1.0015 1 0.998101
1.01061 1.01313 1 0.997518
1.01004 1.01256 1 0.997508
1.00694 1.00925 1 0.997719
1.0207 1.02326 1 0.997497
0.999818 1 1 0.999818
1.01487 1.01734 1 0.997576
0.998883 1 1.00002 0.998863
0.999362 1.00133 1 0.998039
1.01065 1.01304 1 0.99764
1.01672 1.01917 1 0.997596
0.999182 1 1.0001 0.999084
0.999401 1 1 0.999401
0.999738 1 1.00105 0.99869
0.999327 1 1 0.999327
1 1 1 1
0.999982 1 1 0.999982
0.99943 1 1 0.99943
0.998906 1.00071 1 0.998193
0.999824 1 1 0.999824
0.998772 1 1.00003 0.998739
0.998511 1 1 0.998511
0.998544 1.0005 1 0.998041
0.999913 1 1 0.999913
0.999995 1 1 0.999995
0.999423 1 1.00002 0.999404
1.00001 1.00193 1 0.998076
0.998604 1.00025 1 0.998355
1.00634 1.00873 1 0.997629
0.99897 1 1.00002 0.998954
1.00001 1.00204 1 0.997972
0.998958 1.00033 1.00047 0.998162
1.00027 1.00239 1 0.997883
1 1 1 1
0.99917 1 1 0.999168
0.999627 1 1 0.999627
0.999477 1 1.00061 0.998867
1.00944 1.01192 1 0.997543
1.00392 1.00613 1 0.997802
1.01573 1.01834 1 0.997435
0.998844 1 1.00044 0.998407
1.0045 1.00673 1 0.997782
1.00177 1.00234 1.00158 0.997856
1.00622 1.00848 1 0.997752
0.999871 1 1 0.999871
1 1 1 1
1 1 1 1
1 1 1 1
1 1 1 1
0.999966 1 1 0.999966
1 1 1 1
0.999921 1 1 0.999921
1 1 1 1
0.99929 1 1 0.99929
0.999228 1 1 0.999228
1.00074 1.00277 1 0.997978
0.999952 1.00207 1 0.99789
0.99915 1 1 0.99915
1 1 1 1
0.999138 1 1 0.999138
0.999123 1.00129 1 0.997839
1.00038 1.00244 1 0.997943
1.01253 1.01515 1 0.997419
1.00057 1.00256 1 0.998012
1.01294 1.01548 1 0.997493
0.998672 1.00084 1 0.997831
1.01175 1.01441 1 0.997374
1.01324 1.01582 1 0.997464
1.02642 1.02906 1 0.997432
1.01195 1.01447 1 0.997512
1.02512 1.02774 1 0.997455
0.999162 1 1 0.999162
0.99917 1 1 0.99917
0.998973 1.0011 1 0.997871
0.999803 1.00161 1 0.998199
1 1 1 1
0.999717 1 1 0.999717
0.9988 1 1 0.9988
0.999301 1.00103 1 0.998274
1.00935 1.01183 1 0.997549
1.00573 1.00793 1 0.997823
1.0021 1.00422 1 0.997885
1.01205 1.01448 1 0.997605
0.999865 1 1 0.999865
0.99949 1 1.00027 0.999224
0.998707 1.00087 1 0.997835
0.999561 1.00147 1 0.998098
1.01083 1.01335 1 0.997513
1.0102 1.01268 1 0.997546
0.999808 1 1 0.999808
0.99886 1 1 0.99886
0.999689 1.00162 1 0.998073
1.00718 1.00949 1 0.997717
1.02103 1.02358 1 0.997505
1.00997 1.01239 1 0.997607
1.01473 1.01719 1 0.997579
1.01703 1.01949 1 0.997596
0.99917 1 1.00008 0.999087
0.999802 1 1.00111 0.998692
0.999533 1 1.00013 0.999399
1.01085 1.01343 1 0.997461
1.01107 1.01356 1 0.997542
1.02451 1.02716 1 0.997422
1.02298 1.0256 1 0.997448
1.01695 1.01945 1 0.997553
1.02324 1.02566 1 0.997637
0.998994 1 1 0.998994
1.0187 1.02113 1 0.997625
0.998548 1.0002 1 0.998348
1.00299 1.00535 1 0.997649
1.01406 1.01663 1 0.997475
1.01654 1.01884 1 0.997738
0.999554 1 1 0.999554
0.998665 1 1 0.998665
1.00025 1 1.00147 0.998777
0.999366 1 1.00085 0.998521
0.999787 1.00171 1 0.998077
0.999998 1 1 0.999998
0.99993 1 1 0.99993
0.999466 1 1.00006 0.999407
0.998475 1.00012 1 0.998359
1.00597 1.00836 1 0.997627
0.998957 1 1 0.998957
0.998958 1.00047 1.00033 0.998158
0.999482 1.0015 1 0.997983
1.00028 1.00242 1 0.997869
1 1 1 1
0.999198 1 1.00003 0.999168
0.999634 1 1 0.999634
0.999534 1 1.00067 0.998863
1.00924 1.01173 1 0.99754
1.00298 1.00519 1 0.997803
1.01579 1.0184 1 0.997433
0.998861 1 1.00045 0.998412
1.00434 1.00656 1 0.997796
1.00185 1.00228 1.00173 0.997844
1.00619 1.00839 1 0.997819
1 1 1 1
0.999765 1 1 0.999765
0.998815 1 1.00015 0.998661
0.99959 1 1.0005 0.999092
0.999691 1 1.0011 0.998592
1.01905 1.0217 1 0.997406
1.01027 1.01271 1 0.99759
1.01605 1.01865 1 0.997444
1.00048 1.00044 1.00199 0.99805
1.00733 1.00964 1 0.997711
1.00483 1.00641 1.00086 0.997576
0.999855 1 1 0.999855
0.999494 1 1 0.999494
0.999882 1 1 0.999882
0.999873 1 1 0.999873
1 1 1 1
1 1 1 1
1 1 1 1
1 1 1 1
1 1 1 1
0.999989 1 1 0.999989
1 1 1 1
0.999957 1 1 0.999957
1 1 1 1
0.99991 1 1 0.99991
1 1 1 1
1.00047 1.00246 1 0.998012
1.0005 1.00256 1 0.997943
1.0128 1.01535 1 0.997492
1.01236 1.01498 1 0.997417
0.999302 1.00147 1 0.997839
0.999137 1 1 0.999137
0.998754 1.00093 1 0.997831
1.01172 1.01438 1 0.997374
1.01296 1.01553 1 0.997463
1.02667 1.0293 1 0.997442
1.01161 1.01413 1 0.99751
1.02461 1.02722 1 0.997454
1.01125 1.01392 1 0.997363
1.02558 1.02823 1 0.99742
1.02672 1.02934 1 0.997448
1.03116 1.03372 0.999943 0.997579
1.02143 1.02405 1 0.997436
1.02588 1.02828 1 0.997668
0.998674 1.00087 1 0.99781
0.999528 1.00144 1 0.998096
1.01103 1.01356 1 0.997509
1.01035 1.0128 1 0.997583
0.999798 1 1 0.999798
0.998857 1 1 0.998857
1.00001 1.00191 1 0.998107
1.00744 1.00975 1 0.997715
1.02137 1.02392 1 0.997514
1.01459 1.01705 1 0.997582
1.00919 1.01165 1 0.997573
1.01732 1.01977 1 0.997596
0.999089 1 1 0.999089
0.999808 1 1.00112 0.998693
0.999662 1 1.00027 0.999396
1.01098 1.01358 1 0.997426
1.01114 1.01364 1 0.99754
1.02416 1.02679 1 0.997434
1.02326 1.02587 1 0.997451
0.999003 1 1.00001 0.998993
0.998819 1.00048 1 0.998342
1.00272 1.005 1.00003 0.9977
1.01711 1.0196 1 0.997553
1.02264 1.02503 1 0.997671
1.01412 1.01672 1 0.997444
1.01874 1.02116 1 0.997628
1.01603 1.01831 1 0.997761
0.998718 1 1.00005 0.998668
0.999346 1 1.00084 0.998503
0.99955 1 1 0.99955
1.00026 1 1.00146 0.998802
1.02447 1.02715 1 0.997387
1.02509 1.0277 1 0.997455
1.02759 1.03016 1 0.997505
1.02518 1.02767 0.999925 0.997651
1.02061 1.02299 1 0.997669
1.02198 1.02422 1 0.997813
0.998572 1 1 0.998572
1.01656 1.01873 1 0.997865
0.99856 1.00057 1 0.997989
1.00724 1.00967 1.00018 0.997413
1.01593 1.01857 1 0.997408
1.01503 1.01728 1 0.997795
0.999655 1 1 0.999655
0.999268 1 1.00031 0.998953
0.998492 1 1 0.998492
1.00052 1 1.00197 0.998559
0.998898 1 1.00043 0.998473
1 1 1 1
1.00898 1.01147 1 0.997536
0.999641 1 1 0.999641
0.999205 1 1.00004 0.999169
0.999688 1 1.00083 0.998859
1.00209 1.00429 1 0.997804
1.01591 1.01853 1 0.997431
0.998922 1 1.00051 0.998417
1.00216 1.0024 1.00193 0.997833
1.00431 1.00651 1 0.997811
1.00634 1.00848 1 0.997885
1 1 1 1
0.999771 1 1 0.999771
0.998862 1 1.0002 0.998662
0.999612 1 1.00052 0.999092
1.00006 1 1.0015 0.99857
1.01929 1.02195 1 0.997401
1.01046 1.0129 1 0.99759
1.01602 1.01863 1 0.997435
1.00044 1.00026 1.00213 0.998054
1.00949 1.01179 1 0.997722
1.00405 1.0055 1.00096 0.997596
0.999826 1 1 0.999826
0.99929 1 1 0.99929
0.99883 1 1.00048 0.998354
1.00052 1 1.00175 0.998766
0.999736 1 1.00129 0.998451
1.01956 1.02214 1 0.997477
1.01166 1.01414 1 0.997553
1.01433 1.01676 1 0.997608
1.0016 1 1.00379 0.997813
1.0053 1.00787 1 0.997454
0.999858 1 1 0.999858
0.999428 1 1 0.999428
0.999473 1 1 0.999473
0.999268 1 1 0.999268
0.999502 1 1 0.999502
0.999886 1 1 0.999886
0.999884 1 1 0.999884
1 1 1 1
0.999876 1 1 0.999876
1 1 1 1
1 1 1 1
1 1 1 1
1 1 1 1
1 1 1 1
0.999999 1 1 0.999999
0.999983 1 1 0.999983
1 1 1 1
1 1 1 1
0.999948 1 1 0.999948
1 1 1 1
1.01134 1.01387 1 0.997507
1.0128 1.01538 1 0.997463
1.02417 1.02679 1 0.997453
1.02697 1.0296 1 0.997452
1.01167 1.01433 1 0.997374
0.998797 1.00097 1 0.99783
1.01115 1.01382 1 0.997364
1.0255 1.02816 1 0.997413
1.02666 1.02929 1 0.997447
1.03021 1.03299 0.999705 0.997605
1.0219 1.02453 1 0.997431
1.02618 1.02856 0.999996 0.997684
1.02472 1.02741 1 0.997387
1.02912 1.0322 0.999479 0.997541
1.02897 1.03137 1 0.997669
1.02928 1.03264 0.999021 0.997721
1.02335 1.02582 1 0.997593
1.02656 1.02893 0.999836 0.997854
1.01108 1.01373 1 0.997391
1.0112 1.0137 1 0.997539
1.02381 1.02643 1 0.997445
1.02353 1.02615 1 0.997454
0.998992 1 1 0.998992
0.999124 1.00079 1 0.998335
1.00267 1.00475 1.00018 0.99775
1.01726 1.01976 1 0.997553
1.02199 1.02435 1 0.997704
1.01876 1.02118 1 0.997632
1.01423 1.01686 1 0.997413
1.01546 1.01772 1 0.997784
0.998802 1 1.00013 0.99867
0.999294 1 1.00081 0.998485
0.999545 1 1 0.999545
1.00013 1 1.0013 0.998827
1.02437 1.02706 1 0.997387
1.02465 1.02728 1 0.997441
1.02752 1.03007 1 0.997525
1.02484 1.0273 0.999974 0.997636
0.998567 1 1 0.998567
0.998749 1.00068 1.00003 0.998034
1.00745 1.00967 1.00039 0.997406
1.02033 1.02275 1 0.99764
1.02197 1.02416 1 0.997863
1.01533 1.01798 1 0.997395
1.01671 1.01888 1 0.997867
1.01636 1.01857 1 0.997837
0.99849 1 1 0.99849
0.998672 1 1.0002 0.998476
1.00099 1 1.00244 0.998553
0.999622 1 1 0.999622
0.999153 1 1.00018 0.998977
1.02815 1.03129 0.999436 0.997521
1.02843 1.03105 0.999879 0.997576
1.02303 1.02599 0.999275 0.997841
1.01931 1.02146 0.999998 0.99789
0.998353 1 1 0.998353
1.01928 1.02131 1 0.998015
0.998232 1.00018 1.00029 0.997767
1.00889 1.01122 1.00051 0.99718
1.01479 1.01746 1 0.997376
0.999684 1 1 0.999684
0.999175 1 1 0.999175
0.99967 1 1.00093 0.998736
0.998449 1 1 0.998449
1.00135 1 1.00298 0.998383
0.998412 1 1 0.998412
1 1 1 1
0.999778 1 1 0.999778
1.01957 1.02223 1 0.997396
0.999598 1 1.00051 0.999092
0.998847 1 1.00018 0.998664
1.00055 1 1.002 0.998549
1.01046 1.0129 1 0.997589
1.01584 1.01846 1 0.997426
1.00034 1 1.00229 0.998059
1.00281 1.00443 1.00077 0.997615
1.0114 1.01369 1 0.997735
0.99983 1 1 0.99983
0.999293 1 1 0.999293
0.998773 1 1.00041 0.99836
1.00085 1 1.00209 0.998763
0.999863 1 1.00142 0.998443
1.01953 1.02211 1 0.997471
1.01218 1.01467 1 0.997544
1.01417 1.01658 1 0.997632
1.00106 1.00004 1.00324 0.997785
1.00437 1.00691 1.00006 0.997424
0.999407 1 1 0.999407
0.999758 1 1.00084 0.99892
1.00018 1 1.002 0.998188
1.00125 1 1.00275 0.998499
0.999328 1 1.001 0.998335
1.02059 1.02277 1 0.997863
1.01041 1.01298 1 0.997466
1.01157 1.01394 1 0.997657
1.00345 1.0015 1.00433 0.99762
1.0007 1.00349 1 0.997224
0.999861 1 1 0.999861
0.999444 1 1 0.999444
0.999179 1 1 0.999179
0.999452 1 1 0.999452
0.999502 1 1 0.999502
0.999238 1 1 0.999238
0.999094 1 1 0.999094
0.999213 1 1 0.999213
0.999506 1 1 0.999506
0.999883 1 1 0.999883
0.999886 1 1 0.999886
1 1 1 1
0.999885 1 1 0.999885
1 1 1 1
1 1 1 1
1 1 1 1
1 1 1 1
1 1 1 1
1 1 1 1
0.999997 1 1 0.999997
1 1 1 1
0.999977 1 1 0.999977
1 1 1 1
1 1 1 1
1.02232 1.02496 1 0.997426
1.02652 1.02914 1 0.997447
1.02647 1.02885 0.99998 0.997701
1.02925 1.03226 0.999444 0.997631
1.02541 1.02808 1 0.997406
1.01109 1.01376 1 0.997365
1.02496 1.02766 1 0.997372
1.02945 1.03235 0.999653 0.997532
1.02865 1.03108 1 0.997648
1.02882 1.03241 0.998777 0.997736
1.02272 1.02519 1 0.997593
1.02591 1.02824 0.99984 0.997892
1.02875 1.03143 0.999892 0.997503
1.0295 1.03452 0.997428 0.997711
1.02796 1.0314 0.998821 0.997841
1.02393 1.02612 0.999922 0.99795
1.02427 1.02695 1 0.997388
1.02422 1.02687 1 0.997427
1.02743 1.02996 1 0.997545
1.02453 1.02697 1 0.99762
0.998561 1 1 0.998561
0.998674 1.0006 1 0.998079
1.00754 1.00959 1.00058 0.997398
1.02001 1.02246 1 0.997612
1.02199 1.02412 1 0.997912
1.01691 1.01908 1 0.997869
1.0148 1.01746 1 0.997383
1.0176 1.01976 1 0.997878
0.998488 1 1 0.998488
0.998479 1 1 0.998479
1.00183 1 1.00328 0.998547
0.999589 1 1 0.999589
0.999113 1 1.00011 0.999
1.02843 1.03131 0.999684 0.997524
1.02866 1.03124 0.999926 0.997578
1.0229 1.02573 0.999418 0.997831
0.998397 1.00005 1 0.998346
0.999308 1.00125 1.00026 0.997809
1.00846 1.01056 1.00076 0.99717
1.0199 1.02207 1 0.997879
1.01445 1.01705 1 0.997447
1.01797 1.02005 0.99997 0.997995
0.999695 1 1 0.999695
0.998442 1 1 0.998442
0.998476 1 1 0.998476
1.00121 1 1.00285 0.998369
0.999611 1 1.00087 0.998746
0.999149 1 1 0.999149
1.02903 1.03305 0.998511 0.997602
1.027 1.03242 0.996993 0.997751
1.02033 1.02453 0.997969 0.997928
1.0243 1.02694 0.999355 0.998073
0.99834 1.00013 1 0.998208
1.01571 1.01804 1 0.997709
1.00127 1.00227 1.00165 0.997355
1.00581 1.00775 1.00104 0.997036
0.999787 1 1 0.999787
0.999311 1 1 0.999311
0.998898 1 1 0.998898
1.00157 1 1.00312 0.99846
0.998355 1 1 0.998355
0.99993 1 1.00166 0.998271
0.999834 1 1 0.999834
0.999296 1 1 0.999296
1.01963 1.02222 1 0.997466
1.00088 1 1.00213 0.99876
0.998635 1 1.00027 0.998366
0.999898 1 1.00147 0.998435
1.01294 1.01545 1 0.997535
1.01424 1.01663 1 0.997656
1.0006 1.00011 1.00273 0.997756
1.00357 1.00592 1.00027 0.997393
0.999409 1 1 0.999409
0.999423 1 1.0005 0.998929
1.00018 1 1.00198 0.998205
1.00151 1 1.00301 0.998503
0.998872 1 1.00048 0.998397
1.02085 1.023 1 0.997894
1.00989 1.01245 1 0.99747
1.01287 1.01517 1 0.997732
1.00303 1.00087 1.00458 0.997588
1.00146 1.00427 1.00003 0.997179
0.999111 1 1 0.999111
1.00028 1 1.00168 0.998606
1.00194 1.00012 1.00378 0.99804
0.999773 1 1.00155 0.998222
1.02364 1.03051 0.995231 0.998095
1.01654 1.01873 0.999872 0.997973
1.00611 1.00886 1 0.997274
1.00319 1.00171 1.00426 0.997236
0.999461 1 1 0.999461
0.999192 1 1 0.999192
0.999047 1 1 0.999047
0.999502 1 1 0.999502
0.999208 1 1 0.999208
0.999506 1 1 0.999506
0.999076 1 1 0.999076
0.999225 1 1 0.999225
0.998977 1 1 0.998977
0.999048 1 1 0.999048
0.9992 1 1 0.9992
0.999494 1 1 0.999494
0.999876 1 1 0.999876
0.999882 1 1 0.999882
1 1 1 1
0.999886 1 1 0.999886
1 1 1 1
1 1 1 1
1 1 1 1
1 1 1 1
1 1 1 1
1 1 1 1
1 1 1 1
1 1 1 1
0.999995 1 1 0.999995
1 1 1 1
1 1 1 1
1.02204 1.02451 1 0.997593
1.02834 1.03078 1 0.997628
1.02528 1.02755 0.999857 0.99793
1.02836 1.03215 0.998573 0.99775
1.02977 1.03249 0.999845 0.997524
1.02522 1.02793 1 0.997358
1.0285 1.03143 0.999654 0.997509
1.02875 1.03356 0.997637 0.997702
1.0277 1.0313 0.998673 0.997841
1.0254 1.02756 0.999944 0.997952
1.0291 1.03388 0.997727 0.997652
1.029 1.03612 0.995236 0.997882
1.02887 1.03325 0.997777 0.997981
1.02872 1.03135 0.999931 0.997526
1.02889 1.03139 0.999996 0.997581
1.02274 1.02541 0.999581 0.997821
0.998514 1.00017 1 0.99834
1.00039 1.00237 1.00018 0.997851
1.00781 1.00983 1.00085 0.997159
1.02048 1.02266 1 0.997869
1.01684 1.01894 0.999965 0.997976
1.01443 1.01696 1 0.997517
0.998435 1 1 0.998435
0.998541 1 1 0.998541
1.00095 1 1.0026 0.998355
0.999707 1 1 0.999707
0.999299 1 1.00054 0.998757
0.999123 1 1 0.999123
1.02977 1.03343 0.99884 0.997609
1.02756 1.03263 0.997326 0.997759
1.02053 1.02436 0.998346 0.99792
0.998609 1.00041 1 0.998197
1.00114 1.00231 1.0014 0.997441
1.00508 1.00712 1.0009 0.997073
1.02417 1.02665 0.999502 0.998083
1.01637 1.01874 0.999982 0.997697
0.999824 1 1 0.999824
0.999311 1 1 0.999311
0.998379 1 1 0.998379
1.00066 1 1.00232 0.998341
1.0015 1 1.00303 0.998477
0.998875 1 1 0.998875
1.02893 1.03534 0.995996 0.997799
1.02012 1.02943 0.993052 0.997892
1.02132 1.02629 0.997029 0.998116
1.01959 1.02249 0.999044 0.998111
0.999331 1.00047 1.00088 0.997979
1.00505 1.00651 1.0014 0.997161
1.00314 1.00335 1.00264 0.99716
0.999911 1 1 0.999911
0.999562 1 1 0.999562
0.999377 1 1 0.999377
0.998982 1 1 0.998982
0.9995 1 1.00087 0.998634
1.00111 1 1.00276 0.99835
0.998406 1 1 0.998406
1.0117 1 1.01324 0.998481
0.999411 1 1 0.999411
0.999251 1 1.00031 0.998938
1.02099 1.02311 1 0.997924
1.00205 1 1.00354 0.998507
1.00037 1 1.00215 0.998223
0.998494 1 1.00004 0.998459
1.00912 1.01168 1 0.997474
1.01404 1.01627 1 0.997806
1.00278 1.00042 1.00482 0.997555
1.00236 1.00524 1 0.997133
0.999093 1 1 0.999093
1.00059 1 1.00198 0.998619
1.00229 1.00008 1.00415 0.998064
0.999599 1 1.00135 0.99825
1.02504 1.03151 0.995617 0.998106
1.0163 1.01845 0.999949 0.997938
1.00705 1.00976 1 0.997313
1.00314 1.00218 1.00377 0.997196
0.999056 1 1.00015 0.998911
1.02237 1.03234 0.99222 0.998101
1.00095 1 1.00259 0.998371
1.00085 1.00037 1.00268 0.997807
1.02249 1.02585 0.998518 0.998196
1.00707 1.00969 1 0.997399
1.00453 1.00425 1.00323 0.997062
0.999204 1 1 0.999204
0.999044 1 1 0.999044
0.998936 1 1 0.998936
0.999505 1 1 0.999505
0.999238 1 1 0.999238
0.999058 1 1 0.999058
0.999493 1 1 0.999493
0.999203 1 1 0.999203
0.998961 1 1 0.998961
0.999069 1 1 0.999069
0.998891 1 1 0.998891
0.998936 1 1 0.998936
0.999042 1 1 0.999042
0.999189 1 1 0.999189
0.999468 1 1 0.999468
0.999867 1 1 0.999867
0.999875 1 1 0.999875
1 1 1 1
0.999881 1 1 0.999881
1 1 1 1
1 1 1 1
1 1 1 1
1 1 1 1
1 1 1 1
0.999937 1 1 0.999937
1 1 1 1
1 1 1 1
1 1 1 1
1 1 1 1
1 1 1 1
1 1 1 1
1.0269 1.02904 0.999966 0.997955
1.02745 1.03118 0.998531 0.997841
1.028 1.03263 0.997826 0.997693
1.02826 1.03143 0.999419 0.997514
1.02875 1.03377 0.99746 0.997671
1.02929 1.03617 0.995479 0.99787
1.02835 1.03304 0.997455 0.997993
1.02884 1.03689 0.994367 0.997855
1.03204 1.04001 0.994323 0.997998
1.01638 1.03008 0.988467 0.998211
1.03053 1.03386 0.999158 0.997616
1.02817 1.03293 0.997622 0.997767
1.02067 1.02418 0.998664 0.997912
0.998992 1.00075 1.00006 0.998186
1.00103 1.00225 1.00126 0.997526
1.00438 1.00651 1.00078 0.99711
1.02411 1.02648 0.999599 0.998093
1.01648 1.0189 0.999941 0.997685
0.998402 1 1 0.998402
1.00142 1 1.00302 0.998411
1.00183 1 1.00334 0.998494
0.999861 1 1 0.999861
0.999311 1 1 0.999311
0.998935 1 1.00008 0.998853
1.02861 1.03543 0.995594 0.997812
0.999906 1 1 0.999906
0.999541 1 1 0.999541
1.01993 1.02864 0.993631 0.997891
1.02187 1.02702 0.996894 0.998084
0.999154 1.00026 1.00084 0.998058
1.0034 1.00298 1.0033 0.997135
1.00566 1.00768 1.00084 0.997163
1.01846 1.02147 0.99896 0.998094
0.999435 1 1 0.999435
0.998978 1 1 0.998978
0.998342 1 1 0.998342
1.00813 1 1.00956 0.998585
1.00104 1 1.0027 0.998341
0.999703 1 1.00106 0.998646
1.03165 1.03942 0.994563 0.997959
1.01117 1.02705 0.986487 0.99803
1.01887 1.02524 0.995487 0.998299
1.00565 1.00917 0.998687 0.997821
1.0004 1 1.00234 0.998059
1.00429 1.00183 1.00547 0.997007
0.999555 1 1 0.999555
0.99951 1 1 0.99951
0.99929 1 1 0.99929
0.999009 1 1 0.999009
0.998825 1 1.00004 0.998787
0.99971 1 1.00131 0.998406
1.01755 1 1.01928 0.998307
1.00037 1 1.00175 0.99862
0.999076 1 1 0.999076
1.0006 1 1.00197 0.998632
1.02629 1.03228 0.996069 0.998118
1.01621 1.01834 1 0.997904
0.999369 1 1.00109 0.998277
1.00249 1 1.00441 0.998087
1.00824 1.01088 1.00004 0.997353
1.00299 1.00249 1.00335 0.997156
0.999108 1 1.00021 0.998903
1.02343 1.03427 0.991366 0.998131
1.00077 1 1.00238 0.998388
1.00064 1.00018 1.00269 0.997779
1.02126 1.02495 0.998225 0.998169
1.00739 1.00997 1 0.997448
1.0044 1.00385 1.00348 0.997075
1.00014 1 1.00151 0.998637
1.01672 1.02845 0.990105 0.998469
1.00017 1.00026 1.00174 0.99817
1.00231 1.00101 1.00379 0.997516
1.01061 1.0158 0.997042 0.997847
1.002 1.0026 1.00221 0.99719
1.00318 1.00742 0.997284 0.998501
0.999041 1 1 0.999041
0.999006 1 1.00007 0.998934
0.998919 1 1.0001 0.998817
0.999491 1 1 0.999491
0.999205 1 1 0.999205
0.999091 1 1 0.999091
0.998946 1 1 0.998946
0.999468 1 1 0.999468
0.999179 1 1 0.999179
0.998873 1 1 0.998873
0.999041 1 1 0.999041
0.99895 1 1 0.99895
0.99886 1 1 0.99886
0.998918 1 1 0.998918
0.999034 1 1 0.999034
0.999121 1 1 0.999121
0.9994 1 1 0.9994
0.999235 1 1 0.999235
0.999394 1 1 0.999394
0.99986 1 1 0.99986
0.999866 1 1 0.999866
1 1 1 1
0.999874 1 1 0.999874
1 1 1 1
1 1 1 1
1 1 1 1
1 1 1 1
1 1 1 1
0.999953 1 1 0.999953
0.999934 1 1 0.999934
1 1 1 1
1 1 1 1
1 1 1 1
1 1 1 1
1 1 1 1
1 1 1 1
1.02787 1.03293 0.99709 0.998006
1.02958 1.03624 0.995708 0.997859
1.02839 1.03367 0.997198 0.997691
1.02869 1.03671 0.994399 0.997853
1.03046 1.03833 0.994414 0.997995
1.01701 1.02969 0.989483 0.998184
1.02973 1.04016 0.991897 0.998062
0.995875 1.01596 0.982511 0.997681
1.00971 1.02617 0.985255 0.998688
0.999633 1 1 0.999633
1.02825 1.03546 0.995207 0.997825
1.02007 1.02795 0.994427 0.997891
1.0225 1.0277 0.996882 0.998053
0.998979 1.00002 1.00082 0.998137
1.0037 1.00258 1.00402 0.997109
1.00656 1.00896 1.00045 0.997165
1.01742 1.02039 0.999011 0.998078
0.998278 1 1 0.998278
1.00455 1 1.00587 0.998691
1.00077 1 1.00245 0.998333
0.999902 1 1 0.999902
0.999755 1 1.0011 0.998659
0.999493 1 1 0.999493
0.998975 1 1 0.998975
0.999521 1 1 0.999521
1.03054 1.03994 0.992982 0.997966
0.999584 1 1 0.999584
0.999509 1 1 0.999509
0.999251 1 1 0.999251
1.01219 1.02662 0.987887 0.998032
1.01872 1.02501 0.9956 0.998252
0.999775 1.00004 1.00166 0.998079
1.00429 1.0017 1.00555 0.997051
1.00483 1.00795 0.999077 0.997817
0.999041 1 1 0.999041
0.998926 1 1.00017 0.998761
1.0031 1 1.00455 0.99855
1.01418 1 1.01586 0.998344
0.999501 1 1.00107 0.998431
1.02023 1.03263 0.989918 0.998047
1.01166 1.03 0.984018 0.998147
1.01142 1.01615 0.997327 0.998014
1.00254 1.00396 1.00094 0.997643
1.00305 1 1.00488 0.998181
0.999228 1 1 0.999228
0.999127 1 1 0.999127
0.999013 1 1 0.999013
0.998998 1 1.00019 0.998808
0.99937 1 1.00077 0.998597
1.01271 1 1.01439 0.998341
1.01473 1 1.01647 0.998282
0.999163 1 1.00027 0.998895
1.00061 1 1.00221 0.998404
1.02424 1.03639 0.990103 0.998161
1.01997 1.02408 0.997833 0.998142
1.00732 1.00985 1 0.997497
1.00042 1 1.00268 0.997751
1.00401 1.00333 1.0036 0.997089
1.0001 1 1.00143 0.998674
1.01493 1.02795 0.988843 0.998482
0.999631 1.00012 1.00131 0.998198
1.00212 1.00052 1.00408 0.997528
1.01156 1.01634 0.997368 0.997928
1.00209 1.00223 1.00269 0.997176
1.00226 1.00757 0.99672 0.997998
1.00024 1 1.00174 0.998509
1.0059 1.01772 0.989906 0.998466
1.00012 1 1.00194 0.998176
1.00414 1.00027 1.00636 0.997527
1.00138 1.00556 0.998237 0.997603
0.951916 0.980562 0.98451 0.98606
0.971941 0.986203 0.992234 0.993252
0.9826 0.998245 0.98575 0.998557
0.85136 0.899372 0.964238 0.981724
0.809494 0.896072 0.923306 0.978419
0.998994 1 1.00006 0.998932
0.999132 1 1.0003 0.998834
0.998842 1 1 0.998842
0.999467 1 1 0.999467
0.999168 1 1 0.999168
0.999041 1 1 0.999041
0.998963 1 1 0.998963
0.998854 1 1 0.998854
0.999013 1 1 0.999013
0.999423 1 1 0.999423
0.999135 1 1 0.999135
0.998861 1 1 0.998861
0.998923 1 1 0.998923
0.99893 1 1 0.99893
0.998901 1 1 0.998901
0.998955 1 1 0.998955
0.999091 1 1 0.999091
0.999386 1 1 0.999386
0.999157 1 1 0.999157
0.999071 1 1 0.999071
0.999217 1 1 0.999217
0.999205 1 1 0.999205
0.999459 1 1 0.999459
0.999392 1 1 0.999392
0.999855 1 1 0.999855
0.99986 1 1 0.99986
1 1 1 1
0.999866 1 1 0.999866
1 1 1 1
1 1 1 1
1 1 1 1
1 1 1 1
1 1 1 1
0.999961 1 1 0.999961
0.99995 1 1 0.99995
1 1 1 1
0.999932 1 1 0.999932
1 1 1 1
1 1 1 1
1 1 1 1
1 1 1 1
1 1 1 1
1.02884 1.03658 0.99453 0.997992
1.0285 1.03649 0.994428 0.997851
1.01773 1.02917 0.990706 0.998156
0.99834 1.01572 0.985129 0.997726
1.02789 1.03837 0.99183 0.99806
1.01471 1.02828 0.98819 0.998605
1.02607 1.03275 0.995404 0.998117
0.960076 0.984673 0.982451 0.992436
1.00519 1.01935 0.987948 0.998131
0.99964 1 1 0.99964
0.999632 1 1 0.999632
0.999317 1 1 0.999317
0.999346 1 1 0.999346
1.02914 1.04031 0.991275 0.997974
1.0124 1.02573 0.988953 0.998034
1.0184 1.02472 0.995617 0.998204
0.998972 1.0001 1.00077 0.998098
1.00408 1.00164 1.00536 0.997094
1.00397 1.00698 0.999192 0.997814
1.00568 1 1.00721 0.998479
1.01082 1 1.01246 0.998382
0.999296 1 1.00084 0.998457
0.999507 1 1 0.999507
0.998924 1 1.00019 0.998734
0.999073 1 1 0.999073
0.999613 1 1 0.999613
0.999211 1 1 0.999211
1.01836 1.03189 0.988799 0.998061
0.999271 1 1 0.999271
0.999159 1 1 0.999159
0.999045 1 1 0.999045
1.01408 1.03194 0.98452 0.998152
1.01004 1.01527 0.996836 0.998012
1.00286 1 1.0047 0.998169
1.00293 1.00429 1.00099 0.99766
0.999033 1 1.00023 0.998803
0.999059 1 1.00049 0.998572
1.01564 1 1.01739 0.99828
1.01354 1 1.01525 0.998314
1.00842 1.03021 0.980678 0.998134
1.0042 1.0241 0.982424 0.998114
1.00503 1.00757 0.999753 0.997721
0.998987 1.00034 1.00039 0.998259
0.998919 1 1 0.998919
0.999151 1 1.00028 0.998873
1.004 1 1.0054 0.99861
1.02616 1 1.02807 0.99814
0.933752 0.9726 0.97445 0.98523
1.00024 1 1.00153 0.99871
0.999318 1 1.00109 0.998225
1.01294 1.02716 0.987643 0.998495
1.01267 1.01695 0.997773 0.99801
1.00261 1.00217 1.0033 0.997161
1.002 1 1.00447 0.99754
1.00148 1.00752 0.99651 0.997484
1.00025 1 1.00171 0.998538
1.00573 1.01825 0.989238 0.998453
0.999623 1 1.00144 0.998187
1.00377 1.00015 1.00611 0.997526
1.00237 1.00642 0.998346 0.997627
0.95094 0.983212 0.981468 0.985439
0.966917 0.983754 0.991357 0.991453
0.983846 0.996248 0.988951 0.998585
0.85382 0.898412 0.968086 0.981695
0.793094 0.88399 0.918689 0.976582
0.999601 1 1.00091 0.998693
0.876341 0.91896 0.970906 0.982198
0.850965 0.900926 0.96414 0.979677
0.984238 1.00695 0.979066 0.998346
1.00501 1.00016 1.00657 0.998303
1.01106 1.00308 1.01019 0.997783
0.978532 0.991541 0.988151 0.998713
0.949346 0.971968 0.991435 0.985163
0.953012 0.965562 0.996264 0.990703
0.830788 0.899659 0.940278 0.9821
0.860622 0.934182 0.939818 0.98025
0.999451 1 1.0006 0.99885
0.99902 1 1.00019 0.998833
0.999256 1 1.00019 0.999062
0.999447 1 1 0.999447
0.999149 1 1 0.999149
0.998993 1 1 0.998993
0.998927 1 1 0.998927
0.998861 1 1 0.998861
0.999387 1 1 0.999387
0.998925 1 1 0.998925
0.998973 1 1 0.998973
0.999116 1 1 0.999116
0.9989 1 1 0.9989
0.998896 1 1 0.998896
0.999122 1 1.0002 0.998925
0.998936 1 1 0.998936
0.99912 1 1 0.99912
0.999154 1 1 0.999154
0.999058 1 1 0.999058
0.998998 1 1 0.998998
0.999055 1 1 0.999055
0.999001 1 1 0.999001
0.998916 1 1 0.998916
0.999196 1 1 0.999196
0.999216 1 1 0.999216
0.999472 1 1 0.999472
0.999175 1 1 0.999175
0.999439 1 1 0.999439
0.999853 1 1 0.999853
0.99939 1 1 0.99939
0.999855 1 1 0.999855
1 1 1 1
0.999859 1 1 0.999859
1 1 1 1
1 1 1 1
1 1 1 1
1 1 1 1
1 1 1 1
0.999619 1 1 0.999619
0.999961 1 1 0.999961
0.99996 1 1 0.99996
1 1 1 1
0.999947 1 1 0.999947
1 1 1 1
1 1 1 1
1 1 1 1
1 1 1 1
1 1 1 1
1.00039 1.01579 0.987037 0.997774
1.02648 1.03674 0.992023 0.998058
1.01928 1.03059 0.990493 0.998521
0.956432 0.98025 0.982257 0.993327
1.00536 1.01907 0.988305 0.998224
1.02813 1.03564 0.994654 0.99808
1.01647 1.024 0.994638 0.997999
0.966426 0.982849 0.989219 0.994007
0.95255 0.979023 0.988183 0.984595
0.832998 0.891921 0.951849 0.981181
0.790976 0.869792 0.929845 0.977996
0.999304 1 1 0.999304
0.99964 1 1 0.99964
0.999631 1 1 0.999631
0.999305 1 1 0.999305
0.999103 1 1 0.999103
0.999138 1 1 0.999138
0.999295 1 1 0.999295
0.999324 1 1 0.999324
1.01707 1.03161 0.98781 0.998075
1.01721 1.03469 0.984925 0.998156
1.00883 1.01447 0.996423 0.99801
1.00309 1.00006 1.00488 0.998158
1.00343 1.00437 1.00139 0.997676
1.01638 1 1.01813 0.998278
1.01472 1 1.01646 0.998288
0.998928 1 1.00038 0.998547
0.999192 1 1 0.999192
0.999036 1 1.00024 0.998797
0.999314 1 1 0.999314
0.999077 1 1 0.999077
1.00956 1.03034 0.981684 0.998119
0.998944 1 1 0.998944
0.999049 1 1.00016 0.99889
1.005 1.02348 0.983826 0.998093
1.00369 1.00722 0.998665 0.997829
1.00088 1.00064 1.00205 0.998191
1.00584 1 1.00729 0.998561
1.02332 1 1.02522 0.998151
1.00748 1.0259 0.98391 0.998111
0.985915 1.00735 0.980542 0.998146
0.996104 1.00056 0.99739 0.998149
1.00602 1.00023 1.00751 0.998295
0.999018 1 1.00027 0.998749
1.00255 1 1.00389 0.998662
1.02227 1 1.02396 0.998354
0.864415 0.923656 0.952311 0.982727
0.946604 0.976496 0.982405 0.98675
0.999953 1 1.00139 0.998568
0.999264 1 1.00107 0.998199
1.0064 1.01924 0.988942 0.998441
1.00325 1.00728 0.998345 0.997651
1.00325 1.00003 1.00571 0.997527
0.948282 0.977275 0.985425 0.984685
0.969613 0.988068 0.989115 0.99212
0.985588 0.994828 0.992094 0.998608
0.848133 0.899331 0.960321 0.982037
0.77901 0.871478 0.917079 0.97472
0.999204 1 1.00051 0.998694
0.868667 0.921539 0.959327 0.982591
0.845526 0.894837 0.965293 0.978867
0.98636 1.00774 0.980411 0.998338
1.00461 1.00013 1.00617 0.998325
1.01 1.00157 1.01053 0.997907
0.970152 0.986602 0.984507 0.998801
0.954763 0.97975 0.990352 0.98399
0.955075 0.969355 0.992765 0.992448
0.833642 0.894114 0.950602 0.980817
0.859988 0.936032 0.937907 0.979586
1.00109 1 1.00216 0.998932
0.877783 0.909621 0.983392 0.981295
0.941649 0.963241 0.991624 0.985841
0.989336 1.00016 0.990352 0.998817
1.01241 1.00164 1.01196 0.998797
0.984969 0.978424 1.00772 0.998979
0.938127 0.955605 0.988126 0.993508
0.940218 0.956943 0.998753 0.983749
0.849574 0.90977 0.951731 0.981195
0.889461 0.956387 0.946435 0.982658
0.999039 1 1.00022 0.998823
0.999126 1 1.00009 0.999041
1.00085 1 1.00161 0.999238
0.999388 1 1 0.999388
0.99914 1 1 0.99914
0.998991 1 1 0.998991
0.99892 1 1 0.99892
0.9989 1 1 0.9989
0.999119 1 1 0.999119
0.998901 1 1 0.998901
0.998937 1 1 0.998937
0.999535 1 1.00059 0.998949
1.00639 0.999999 1.00722 0.999182
0.998958 1 1.00009 0.998872
0.998919 1 1 0.998919
0.999152 1 1 0.999152
0.999045 1 1 0.999045
0.998997 1 1 0.998997
0.999051 1 1 0.999051
0.99901 1 1 0.99901
0.999006 1 1 0.999006
0.998955 1 1 0.998955
0.998993 1 1 0.998993
0.998776 1 1 0.998776
0.999349 1 1.00093 0.998422
0.998796 1 1 0.998796
0.998914 1 1 0.998914
0.999141 1 1 0.999141
0.999194 1 1 0.999194
0.999467 1 1 0.999467
0.999216 1 1 0.999216
0.999473 1 1 0.999473
0.999854 1 1 0.999854
0.999419 1 1 0.999419
0.999854 1 1 0.999854
1 1 1 1
0.999855 1 1 0.999855
1 1 1 1
1 1 1 1
1 1 1 1
1 1 1 1
1 1 1 1
0.999638 1 1 0.999638
0.999952 1 1 0.999952
0.999619 1 1 0.999619
1 1 1 1
0.999962 1 1 0.999962
0.999958 1 1 0.999958
1 1 1 1
1 1 1 1
1 1 1 1
1 1 1 1
1 1 1 1
0.864951 0.91195 0.965792 0.982058
0.854931 0.902823 0.966034 0.980248
0.958586 0.983341 0.980874 0.993833
1.00733 1.01871 0.990496 0.998319
1.03038 1.03821 0.994405 0.998044
0.959406 0.975145 0.988523 0.995283
1.01599 1.02363 0.994472 0.998054
0.956637 0.983921 0.986175 0.9859
0.847027 0.898206 0.960743 0.981554
0.782045 0.868845 0.922121 0.976118
0.98539 0.998541 0.990249 0.996547
0.950808 0.973191 0.991263 0.985612
0.823253 0.893932 0.938094 0.981709
0.853664 0.925841 0.941834 0.978986
0.999017 1 1 0.999017
0.999324 1 1 0.999324
0.999639 1 1 0.999639
0.999292 1 1 0.999292
0.999134 1 1 0.999134
0.999124 1 1.00009 0.999038
0.999137 1 1 0.999137
0.999155 1 1 0.999155
0.999269 1 1 0.999269
0.999302 1 1 0.999302
1.0105 1.02999 0.98294 0.998105
1.00474 1.02179 0.985208 0.998073
1.00257 1.0071 0.997555 0.997938
1.00246 1.00096 1.00338 0.998123
1.0197 1 1.02157 0.998161
1.00771 1 1.00921 0.998512
0.998907 1 1 0.998907
0.998969 1 1 0.998969
1.00702 1.02624 0.98311 0.998122
0.999166 1 1.00043 0.998735
1.00248 1 1.00385 0.998632
0.986564 1.00606 0.982523 0.998068
0.995592 1.00041 0.996912 0.99827
1.00708 1.00076 1.00813 0.998194
1.01958 1 1.02128 0.998328
0.998673 1.00492 0.995354 0.998417
0.988037 1 0.989217 0.998807
1.01365 1.00043 1.01487 0.998371
1.00125 1 1.00254 0.998714
1.00088 1 1.00231 0.998572
1.01329 1 1.01487 0.998443
0.884656 0.9162 0.981472 0.983798
0.872904 0.922755 0.962889 0.982435
0.940046 0.976712 0.976875 0.985244
0.998829 1 1.00013 0.998696
1.00421 1.00006 1.00581 0.998348
0.989014 1.00834 0.982471 0.998331
1.00908 1.00007 1.01101 0.998029
0.86218 0.916358 0.957817 0.982313
0.955001 0.978102 0.990499 0.985748
0.949748 0.968629 0.989634 0.990778
0.966263 0.98246 0.984607 0.99889
0.834095 0.894484 0.950655 0.98089
0.847921 0.899584 0.962985 0.9788
0.851167 0.930125 0.934039 0.979734
1.00176 1 1.00283 0.998938
0.878934 0.913243 0.98008 0.981993
0.946772 0.967559 0.992652 0.985759
0.991671 1.00018 0.992594 0.99889
1.01185 1.00041 1.01267 0.998776
0.982789 0.977656 1.00636 0.998902
0.939402 0.957674 0.989164 0.991666
0.942612 0.961584 0.995549 0.984652
0.860365 0.921199 0.951422 0.981649
0.87925 0.94745 0.944272 0.982786
1.00356 0.999757 1.00435 0.999464
0.944619 0.96736 0.987675 0.988676
0.930026 0.956814 0.982583 0.989231
1.00398 0.990491 1.0139 0.999715
0.957961 0.959437 1.00252 0.995953
0.948325 0.957439 1.00666 0.983924
0.896447 0.939273 0.972242 0.981654
0.896035 0.96886 0.941673 0.982118
0.999021 1 1 0.999021
1.00044 1 1.0012 0.99924
1.01172 1 1.01232 0.999407
0.999118 1 1 0.999118
0.998937 1 1 0.998937
0.998907 1 1 0.998907
0.999592 1 1.00062 0.998973
0.998917 1 1 0.998917
0.998899 1 1.00003 0.998868
1.00883 1 1.00961 0.999225
1.01692 0.998355 1.01916 0.999446
1.00675 1 1.00764 0.999111
0.998869 1 1 0.998869
0.998995 1 1 0.998995
0.999048 1 1 0.999048
0.999019 1 1 0.999019
0.998964 1 1 0.998964
0.999005 1 1 0.999005
0.998999 1 1 0.998999
0.99892 1 1 0.99892
0.999105 1 1 0.999105
0.998803 1 1 0.998803
0.9988 1 1 0.9988
0.999236 1 1.00069 0.998542
0.99955 1 1.00153 0.998027
0.999125 1 1.00042 0.998706
0.999302 1 1.00079 0.998511
0.998827 1 1 0.998827
0.999017 1 1 0.999017
0.998911 1 1 0.998911
0.99914 1 1 0.99914
0.999432 1 1 0.999432
0.999192 1 1 0.999192
0.999466 1 1 0.999466
0.999852 1 1 0.999852
0.999473 1 1 0.999473
0.999854 1 1 0.999854
1 1 1 1
0.999854 1 1 0.999854
1 1 1 1
1 1 1 1
1 1 1 1
1 1 1 1
1 1 1 1
0.999513 1 1 0.999513
0.999938 1 1 0.999938
0.999588 1 1 0.999588
1 1 1 1
0.999955 1 1 0.999955
0.999619 1 1 0.999619
1 1 1 1
1 1 1 1
0.999962 1 1 0.999962
1 1 1 1
1 1 1 1
1 1 1 1
0.881151 0.912907 0.982033 0.982873
0.868526 0.917765 0.96382 0.981873
0.943783 0.968586 0.988591 0.985638
0.846219 0.895726 0.96449 0.979511
0.956229 0.978148 0.984072 0.993414
1.01396 1.02338 0.992667 0.998111
0.960709 0.984128 0.988914 0.987146
0.848439 0.901405 0.959059 0.981422
0.776484 0.870418 0.915684 0.974226
0.981697 0.99623 0.989512 0.995856
0.950056 0.973716 0.991684 0.983883
0.834431 0.90093 0.94463 0.980478
0.85236 0.927681 0.939323 0.978159
0.96503 0.984631 0.985091 0.994926
0.95299 0.963194 1.00605 0.983457
0.859368 0.92343 0.948584 0.981068
0.885439 0.957573 0.942401 0.981185
0.999266 1 1.00041 0.998854
0.999047 1 1 0.999047
0.999344 1 1 0.999344
0.999165 1 1 0.999165
0.998864 1 1 0.998864
0.999059 1 1 0.999059
0.999136 1 1 0.999136
0.999124 1 1 0.999124
0.999182 1 1 0.999182
0.999244 1 1 0.999244
1.00739 1.02731 0.982448 0.998133
0.988772 1.00562 0.985221 0.997992
0.995004 1.00009 0.996517 0.998391
1.00896 1.00132 1.00955 0.998095
1.01707 1 1.0188 0.998302
1.00214 1 1.00354 0.998602
0.999379 1 1.00066 0.998721
1.00063 1 1.00192 0.998708
0.994728 1.00576 0.990584 0.99843
1.00075 1 1.00217 0.998581
1.01331 1 1.0149 0.998437
0.986667 1.00021 0.987712 0.998727
1.0137 1.00078 1.01459 0.998348
0.967479 0.991244 0.977083 0.998917
1.00382 0.998311 1.00626 0.999265
1.01842 1 1.01986 0.998587
1.00004 1 1.00146 0.998591
1.0078 1 1.00936 0.998446
0.9451 0.963534 0.990638 0.990138
0.888563 0.916135 0.985815 0.98386
0.865697 0.918776 0.958873 0.982642
1.00242 1 1.00348 0.998943
1.01136 0.999282 1.01335 0.998753
0.991671 1 0.992704 0.998959
0.888832 0.919213 0.983937 0.982735
0.951669 0.961091 1.00681 0.983495
0.941845 0.95861 0.989503 0.992935
0.97311 0.974239 1.00004 0.998797
0.861526 0.920457 0.953873 0.981238
0.951377 0.971289 0.993729 0.985681
0.879091 0.947811 0.943657 0.982874
1.00316 0.999444 1.00428 0.99944
0.942529 0.965507 0.98662 0.98944
0.932289 0.958817 0.982906 0.989242
1.00535 0.992478 1.0134 0.999568
0.962074 0.962469 1.00406 0.995543
0.938826 0.955581 0.999592 0.982867
0.899208 0.970902 0.942246 0.982924
0.893638 0.937801 0.97087 0.981499
1.00517 0.994009 1.01153 0.999711
0.926212 0.953688 0.977186 0.993863
0.940734 0.969417 0.980287 0.989927
0.887507 0.958388 0.943748 0.981238
0.99008 0.976583 1.01493 0.99891
0.964108 0.965676 1.01399 0.984606
0.900212 0.933858 0.981795 0.981845
1.00058 1 1.00134 0.999241
1.01078 1 1.01144 0.999347
1.01579 0.997032 1.01926 0.999566
0.998916 1 1 0.998916
0.998866 1 1 0.998864
1.0124 1 1.01315 0.999267
0.998879 1 1 0.998879
1.00654 1 1.00743 0.999117
1.01851 0.998227 1.02091 0.999421
1.00734 0.99764 1.01024 0.999489
1.00424 1 1.00514 0.99911
0.998973 1 1 0.998973
0.999004 1 1 0.999004
0.999006 1 1 0.999006
0.99909 1 1 0.99909
0.998929 1 1 0.998929
0.999372 1 1.00033 0.99904
0.998925 1 1 0.998925
1.0009 1 1.00259 0.998315
0.998825 1 1 0.998825
0.999074 1 1.00057 0.998508
0.998872 1 1.00101 0.997862
0.999244 1 1.00129 0.997957
1.00005 1 1.00153 0.99852
0.999428 1 1.00138 0.998048
0.998947 1 1.00005 0.998895
0.99917 1 1.00049 0.998678
0.999245 1 1.00065 0.9986
0.998858 1 1 0.998858
0.999046 1 1 0.999046
0.999368 1 1 0.999368
0.999138 1 1 0.999138
0.999431 1 1 0.999431
0.999839 1 1 0.999839
0.999465 1 1 0.999465
0.99985 1 1 0.99985
1 1 1 1
0.999854 1 1 0.999854
1 1 1 1
1 1 1 1
1 1 1 1
1 1 1 1
1 1 1 1
0.999363 1 1 0.999363
0.999836 1 1 0.999836
0.999512 1 1 0.999512
1 1 1 1
0.999907 1 1 0.999907
0.999539 1 1 0.999539
1 1 1 1
1 1 1 1
0.999957 1 1 0.999957
1 1 1 1
1 1 1 1
1 1 1 1
0.938729 0.962735 0.985501 0.98941
0.870321 0.910769 0.972322 0.98279
0.868767 0.914729 0.967453 0.981705
0.999033 1 1 0.999033
0.931294 0.954803 0.985141 0.99009
0.94678 0.9695 0.990858 0.985576
0.84224 0.897459 0.958068 0.979546
0.984269 0.997309 0.991861 0.995024
0.951926 0.973061 0.992823 0.985351
0.840781 0.912086 0.940122 0.980534
0.846296 0.921463 0.938896 0.978198
0.967025 0.985256 0.988635 0.992779
0.939395 0.956911 0.996994 0.984654
0.869518 0.926947 0.956218 0.980994
0.883774 0.953774 0.944605 0.980946
0.947876 0.965408 0.990689 0.991069
0.948453 0.952555 1.01315 0.982771
0.898236 0.943429 0.970291 0.98125
0.895522 0.967275 0.942686 0.982108
0.999291 1 1.0006 0.998695
0.999512 1 1.00068 0.998833
0.999077 1 1 0.999077
0.998861 1 1 0.998861
0.998943 1 1.00004 0.9989
0.999081 1 1 0.999081
0.999132 1 1 0.999132
0.99921 1 1 0.99921
0.988872 1.00571 0.984792 0.998442
0.984298 1.00014 0.985493 0.998648
0.999912 1 1.00121 0.998702
1.01377 1.0011 1.01435 0.998323
1.01391 1 1.0155 0.99843
1.00087 1 1.00229 0.998589
1.00029 1 1.00169 0.9986
0.972082 0.992827 0.980139 0.998944
1.00836 1 1.00991 0.998473
1.01539 1 1.01683 0.998591
0.998433 0.99867 1.00047 0.999296
1.00036 1 1.00173 0.998632
0.963404 0.983344 0.98047 0.999237
1.00873 0.995759 1.01358 0.999454
1.02553 1 1.0269 0.998665
1.00195 1 1.00336 0.998594
0.938896 0.956009 0.987349 0.994682
0.944439 0.962567 0.990827 0.990251
0.893633 0.916304 0.99119 0.983926
1.00221 0.999048 1.00375 0.999419
1.00815 0.994665 1.01414 0.999425
0.941058 0.96405 0.985814 0.990197
0.955273 0.956604 1.01442 0.984411
0.956701 0.960522 1.00284 0.993197
0.898205 0.941608 0.972734 0.980644
0.933129 0.959427 0.983157 0.989251
0.903465 0.974082 0.942847 0.983728
1.00631 0.995739 1.01094 0.999673
0.926309 0.953427 0.977549 0.993871
0.938412 0.967502 0.978767 0.990974
0.998676 0.983069 1.01607 0.999813
0.885069 0.954824 0.944927 0.980969
0.953662 0.958478 1.01121 0.983947
0.910847 0.947718 0.979635 0.981074
1.00692 0.991866 1.01541 0.999771
0.939542 0.96713 0.976608 0.994744
0.93185 0.955738 0.984716 0.990139
0.853777 0.927478 0.940221 0.979064
0.898077 0.945154 0.968648 0.980946
0.973134 0.969858 1.00524 0.998143
0.966728 0.959325 1.02611 0.982074
1.00855 1 1.00927 0.999287
1.01488 0.996431 1.01898 0.999542
1.00368 0.986007 1.01835 0.999582
0.99889 1 1 0.99889
1.00586 1 1.00674 0.999123
1.01928 0.998844 1.02108 0.999396
1.00216 1 1.00307 0.999098
1.00725 0.998331 1.00945 0.999488
1.00682 0.997478 1.01012 0.999255
0.999074 1 1 0.999074
0.998937 1 1 0.998937
1.00001 1 1.001 0.99901
1.00638 1 1.00787 0.998523
0.999045 1 1 0.999045
1.00039 1 1.00198 0.998412
1.00188 1 1.00413 0.997766
1.00059 1.0013 1.00188 0.997421
0.998877 1 1.0004 0.998474
0.999033 1.00017 1.00109 0.997772
0.998574 1 1.00053 0.99805
1.00063 1 1.00232 0.998314
0.999264 1 1.00125 0.998013
1.00032 1 1.00156 0.998757
1.00004 1 1.00153 0.998513
0.999345 1 1.00128 0.998069
0.999255 1 1 0.999255
0.999083 1 1.00019 0.99889
0.999286 1 1.00064 0.99865
0.999076 1 1 0.999076
0.999366 1 1 0.999366
0.99981 1 1 0.99981
0.99943 1 1 0.99943
0.999836 1 1 0.999836
1 1 1 1
0.999849 1 1 0.999849
1 1 1 1
1 1 1 1
1 1 1 1
1 1 1 1
1 1 1 1
0.9993 1 1 0.9993
0.999765 1 1 0.999765
0.999391 1 1 0.999391
1 1 1 1
0.999829 1 1 0.999829
0.99951 1 1 0.99951
1 1 1 1
1 1 1 1
0.999876 1 1 0.999876
1 1 1 1
1 1 1 1
1 1 1 1
0.928123 0.953718 0.979124 0.993912
0.940007 0.96323 0.986342 0.989404
0.870354 0.912011 0.970939 0.982887
0.999049 1 1 0.999049
0.999001 1 1 0.999001
0.998898 1 1 0.998898
0.937533 0.968202 0.97823 0.989874
0.929311 0.95388 0.983974 0.990111
0.950043 0.970506 0.993303 0.985515
0.973677 0.987351 0.991743 0.994361
0.938024 0.957125 0.996528 0.983459
0.860122 0.915929 0.957012 0.981252
0.89181 0.959193 0.948076 0.980671
0.950219 0.96582 0.990848 0.992935
0.944111 0.95177 1.00842 0.983669
0.887668 0.929079 0.972538 0.982407
0.897556 0.969597 0.941806 0.982899
0.936889 0.955027 0.989191 0.991728
0.962465 0.96261 1.01604 0.984068
0.901084 0.932268 0.984247 0.982019
0.890011 0.95574 0.947745 0.982572
0.998684 1 1 0.998684
0.999502 1 1.00081 0.998689
0.99959 1 1.00078 0.998812
0.998856 1 1 0.998856
0.998936 1 1 0.998936
0.99914 1 1 0.99914
0.978891 0.99534 0.984493 0.998965
0.993679 0.998907 0.995439 0.999324
1.00045 1 1.00185 0.998609
1.01209 1.00001 1.01351 0.998595
1.00906 1 1.01058 0.9985
1.00015 1 1.00154 0.998608
1.00175 1 1.00314 0.998608
0.974884 0.986505 0.988945 0.999267
1.02255 1 1.02381 0.998766
1.00597 0.991141 1.01549 0.99948
1.00006 1 1.00134 0.998722
0.989513 0.97581 1.01461 0.99944
0.999044 0.988074 1.01159 0.999523
1.0183 1 1.01943 0.998891
0.954818 0.971007 0.987516 0.995759
0.938478 0.956138 0.986477 0.994985
0.944062 0.961497 0.991423 0.990361
1.00846 0.99782 1.01103 0.999635
0.993526 0.984834 1.00952 0.999308
0.927043 0.953793 0.977941 0.993878
0.953921 0.952865 1.01387 0.987412
0.909966 0.944677 0.980995 0.981917
0.937103 0.965984 0.977904 0.992022
0.892805 0.959786 0.948493 0.980727
1.0052 0.991546 1.01399 0.999788
0.940204 0.967439 0.976679 0.995053
0.930572 0.955078 0.984024 0.99016
0.97207 0.966544 1.01033 0.995433
0.851387 0.928132 0.937684 0.978276
0.885188 0.931875 0.967212 0.982101
0.975674 0.96479 1.02782 0.983905
1.00183 0.974056 1.0289 0.999621
0.928865 0.954288 0.979258 0.993976
0.945394 0.970424 0.988286 0.985755
0.788799 0.868029 0.928951 0.978227
0.861126 0.9254 0.948476 0.981094
0.962524 0.962853 1.01618 0.983745
0.950256 0.96174 0.994119 0.993904
1.01408 0.995519 1.01914 0.999517
1.00703 0.990099 1.01752 0.999586
1.01705 0.995086 1.02256 0.999529
1.00008 1 1.00099 0.999087
1.00738 0.998315 1.0096 0.999487
1.008 0.997555 1.01115 0.999329
1.01646 1 1.01765 0.998831
1.00058 1 1.00161 0.998981
1.00668 1 1.00827 0.998422
1.01505 1 1.01743 0.997661
0.999955 1 1.00145 0.998512
1.0031 1.0003 1.00509 0.997723
1.00475 1.00171 1.00596 0.997096
1.00301 1.0041 1.00191 0.997013
0.998924 1.00012 1.00108 0.99773
1.00056 1.00129 1.00189 0.997384
0.999226 1.00031 1.00124 0.997683
0.999332 1 1.0011 0.998236
0.998618 1 1.00048 0.998139
1.00109 1 1.00258 0.998509
1.00071 1 1.00237 0.998351
0.999236 1 1.00117 0.998068
0.99969 1 1.00063 0.999065
1.00005 1 1.0013 0.99876
0.999939 1 1.00144 0.998505
0.999752 1 1 0.999752
0.999253 1 1 0.999253
0.999143 1 1.00026 0.998885
0.999363 1 1 0.999363
0.999806 1 1 0.999806
1 1 1 1
0.999834 1 1 0.999834
1 1 1 1
1 1 1 1
1 1 1 1
1 1 1 1
1 1 1 1
0.999291 1 1 0.999291
0.999772 1 1 0.999772
0.999319 1 1 0.999319
1 1 1 1
0.999796 1 1 0.999796
0.999419 1 1 0.999419
1 1 1 1
1 1 1 1
0.999823 1 1 0.999823
1 1 1 1
1 1 1 1
1 1 1 1
0.938885 0.966425 0.976672 0.994707
0.928074 0.954106 0.978664 0.993922
0.939624 0.963643 0.985512 0.989408
0.998978 1 1 0.998978
0.998863 1 1 0.998863
0.999065 1 1 0.999065
0.998999 1 1 0.998999
0.99888 1 1 0.99888
0.998887 1 1 0.998887
0.998787 1 1 0.998787
0.927259 0.956044 0.980541 0.98914
0.937013 0.966222 0.978647 0.990929
0.927443 0.952804 0.983083 0.990133
0.900182 0.972497 0.940987 0.98369
0.938949 0.955922 0.990896 0.99127
0.947244 0.952909 1.0095 0.984703
0.891835 0.930189 0.976883 0.981456
0.932499 0.954363 0.985943 0.991021
0.953243 0.954702 1.01569 0.983049
0.91302 0.948822 0.980366 0.981539
0.878474 0.946813 0.944151 0.982706
0.937038 0.955748 0.98746 0.992874
0.959662 0.960258 1.017 0.982671
0.898566 0.941093 0.972492 0.98182
0.858168 0.932539 0.939006 0.980024
1.00001 1 1.00123 0.998775
0.998795 1 1.00011 0.998685
0.999813 1 1.00113 0.998684
0.998852 1 1 0.998852
0.983591 0.988838 0.995389 0.999302
1.00215 0.987238 1.01561 0.999505
0.998626 1 1.00004 0.998585
1.0015 1 1.00288 0.998622
1.01885 1 1.02001 0.998867
0.999521 1 1.00081 0.998716
1.01902 0.999814 1.02036 0.998877
0.985278 0.974027 1.01279 0.998773
1.00165 0.987623 1.01457 0.999633
1.00848 0.99924 1.01027 0.998982
0.990415 0.972457 1.01986 0.998638
1.01739 0.99367 1.02459 0.999299
0.939428 0.956309 0.987563 0.994719
0.950261 0.969038 0.984468 0.996095
0.937913 0.956276 0.985442 0.995287
1.0025 0.990148 1.01268 0.999805
0.975233 0.968264 1.00894 0.998272
0.940053 0.9671 0.976559 0.995365
0.968667 0.962907 1.02399 0.98241
0.888722 0.931434 0.972519 0.981105
0.929162 0.954408 0.983201 0.990182
0.845966 0.92161 0.938266 0.978317
1.00689 0.977584 1.0303 0.999696
0.928464 0.954625 0.97848 0.993987
0.948053 0.971022 0.990519 0.985691
0.952588 0.961672 0.99448 0.996052
0.782013 0.868454 0.922257 0.976373
0.867208 0.926196 0.954536 0.980908
0.960532 0.958028 1.01948 0.983459
0.999565 0.978803 1.02227 0.998965
0.940051 0.963905 0.985551 0.989551
0.855586 0.90319 0.966146 0.980487
0.825945 0.895003 0.939796 0.981959
0.946449 0.950584 1.01175 0.984086
0.932938 0.954458 0.985477 0.991858
1.01073 0.994192 1.01706 0.99959
1.01768 0.993619 1.0247 0.999522
1.01143 0.998835 1.01326 0.99936
1.00955 0.997867 1.01231 0.999402
1.01562 0.998578 1.01818 0.998906
1.01023 1.0008 1.0114 0.998051
1.00717 1 1.00886 0.998321
1.01413 1 1.01656 0.99761
1.00899 1.00017 1.01178 0.997074
1.00438 1.00067 1.00604 0.997681
1.00482 1.00133 1.00647 0.997028
1.00322 1.00209 1.00432 0.996813
1.00506 1.00803 1 0.99705
1.00489 1.00693 1.00077 0.997208
1.00354 1.00441 1.00218 0.996961
0.998473 1.00038 1.00013 0.997963
0.998733 1.00021 1.00074 0.997784
1.00056 1.00132 1.0019 0.997347
0.999375 1 1.00112 0.998262
0.99931 1 1.00108 0.998229
0.998652 1 1.00043 0.998227
1.00057 1 1.00177 0.998807
1.00095 1 1.00241 0.998549
1.00079 1 1.00241 0.998389
0.999619 1 1 0.999619
0.999557 1 1.00049 0.999066
0.999895 1 1.00113 0.998763
1 1 1 1
0.999746 1 1 0.999746
0.999251 1 1 0.999251
0.999801 1 1 0.999801
1 1 1 1
1 1 1 1
1 1 1 1
1 1 1 1
1 1 1 1
0.998972 1 1 0.998972
0.999237 1 1 0.999237
0.999721 1 1 0.999721
0.999289 1 1 0.999289
1 1 1 1
0.999776 1 1 0.999776
0.999337 1 1 0.999337
1 1 1 1
1 1 1 1
0.999828 1 1 0.999828
1 1 1 1
1 1 1 1
1 1 1 1
0.925722 0.953784 0.976594 0.99384
0.939353 0.966871 0.9764 0.995021
0.928151 0.954556 0.978276 0.99393
0.998988 1 1 0.998988
0.998849 1 1 0.998849
0.998788 1 1 0.998788
0.998849 1 1 0.998849
0.999113 1 1.00035 0.998759
0.998996 1 1 0.998996
0.998861 1 1 0.998861
0.998887 1 1 0.998887
0.998787 1 1 0.998787
0.999463 1 1.00063 0.998834
0.939693 0.961989 0.991041 0.985653
0.930981 0.958276 0.982164 0.989159
0.93745 0.964955 0.97935 0.991981
0.87693 0.946997 0.942211 0.982807
0.910603 0.94313 0.983093 0.982116
0.925121 0.95027 0.98329 0.990079
0.961459 0.962067 1.01577 0.983853
0.937802 0.957663 0.988355 0.990799
0.970832 0.969337 1.01807 0.98377
0.895776 0.93872 0.971838 0.981905
0.858938 0.93514 0.937918 0.97931
0.958213 0.965689 1.00005 0.992206
0.960981 0.962027 1.01491 0.984241
0.847861 0.90947 0.950317 0.980997
0.81156 0.89696 0.925237 0.977901
1.00194 1 1.00277 0.999174
1.00153 1 1.00276 0.998774
0.999588 1 1.0009 0.998685
0.983487 0.972702 1.01302 0.998094
1.00419 0.986483 1.01821 0.999748
0.999852 1 1.00114 0.998709
1.02037 0.999734 1.0218 0.998863
1.00964 0.999654 1.01101 0.998989
1.01847 0.995689 1.0236 0.999289
0.986634 0.969253 1.01928 0.998675
1.01533 0.999146 1.01686 0.999345
0.993015 0.979558 1.01527 0.99849
0.947463 0.96539 0.991312 0.990032
0.938941 0.956268 0.986798 0.995017
0.945609 0.967134 0.981245 0.99643
1.01198 0.981383 1.03142 0.999765
0.951529 0.962544 0.995594 0.992931
0.928611 0.954936 0.978306 0.993996
0.961482 0.964155 1.01572 0.981796
0.859815 0.915543 0.957127 0.981198
0.950695 0.971631 0.992718 0.985631
0.77846 0.871471 0.916643 0.974503
0.9986 0.977374 1.02266 0.999079
0.941381 0.964546 0.986295 0.989545
0.847121 0.896725 0.964204 0.979754
0.935367 0.957513 0.983814 0.992942
0.836351 0.901479 0.946006 0.980706
0.934932 0.948543 1.00281 0.982889
0.9744 0.977704 0.998463 0.998155
0.88145 0.913771 0.981201 0.98311
0.835137 0.892654 0.953249 0.981449
0.951569 0.963304 1.00436 0.983531
0.931992 0.953978 0.983503 0.99334
1.01722 0.992246 1.02567 0.999515
1.01266 0.997303 1.01608 0.99933
0.995348 1.001 0.995646 0.998697
1.01425 0.996869 1.01848 0.998979
1.01032 1.00089 1.01129 0.998149
1.00234 1.00197 1.00275 0.997623
1.01291 1 1.01539 0.997558
1.00742 1.00032 1.01004 0.997089
0.999567 1.00147 1.00092 0.997183
1.0046 1.00093 1.00673 0.996959
1.00341 1.00301 1.00357 0.996834
1.00587 1.00869 1 0.997208
1.01483 1.01749 1 0.997384
1.00938 1.01231 1.00002 0.997088
1.00469 1.00765 1 0.997067
1.00182 1.00435 1 0.997489
1.00326 1.00504 1.00107 0.997162
1.00409 1.00475 1.00244 0.996909
0.998205 1.00009 1 0.998118
0.998308 1.00026 1.00002 0.998027
0.998437 1.00028 1.00032 0.997838
0.999781 1 1.00122 0.998561
0.999571 1 1.00129 0.998286
0.999314 1 1.0011 0.99822
0.999739 1 1.00037 0.999371
1.00041 1 1.0016 0.998809
1.0008 1 1.00222 0.998588
0.999997 1 1 0.999997
0.999612 1 1 0.999612
0.999464 1 1.0004 0.999067
1 1 1 1
0.999999 1 1 0.999999
0.99974 1 1 0.99974
1 1 1 1
1 1 1 1
1 1 1 1
0.998888 1 1 0.998888
0.999174 1 1 0.999174
0.998959 1 1 0.998959
0.999678 1 1 0.999678
0.999237 1 1 0.999237
0.999997 1 1 0.999997
0.999724 1 1 0.999724
0.999288 1 1 0.999288
1 1 1 1
1 1 1 1
0.999779 1 1 0.999779
1 1 1 1
1 1 1 1
1 1 1 1
0.943323 0.967644 0.984421 0.990293
0.925626 0.953365 0.976912 0.99385
0.939324 0.966614 0.976321 0.995337
0.998791 1 1 0.998791
0.998999 1 1 0.998999
0.998834 1 1 0.998834
0.998863 1 1 0.998863
0.998805 1 1 0.998805
0.998943 1 1.00018 0.998764
0.999926 1 1.00127 0.998657
1.00003 1 1.00129 0.998734
0.998888 1 1 0.998888
0.998788 1 1 0.998788
0.999616 1 1.00079 0.998825
1.00044 1 1.00147 0.998967
0.850688 0.901237 0.963799 0.979366
0.944803 0.966532 0.991831 0.98557
0.932749 0.958515 0.983765 0.989178
0.852332 0.930649 0.935055 0.979458
0.902853 0.945851 0.972701 0.98133
0.960816 0.960727 1.01767 0.982725
0.942815 0.958625 0.991859 0.991581
0.957732 0.962957 1.00067 0.993909
0.795096 0.88485 0.920547 0.976123
0.956828 0.957884 1.01643 0.98275
0.857422 0.920293 0.949385 0.981355
0.948148 0.961423 0.99181 0.994336
0.949085 0.954088 1.01002 0.984889
0.830483 0.89997 0.940393 0.981281
1.00028 1 1.00069 0.999592
1.00162 1 1.00245 0.999177
1.00266 1 1.0039 0.998774
0.983613 0.967037 1.01846 0.998709
1.0203 0.998519 1.02255 0.999278
1.01077 1 1.01179 0.998997
1.01456 0.99962 1.01561 0.999344
0.993025 0.981184 1.01355 0.99854
1.00032 0.992063 1.00939 0.998945
0.886323 0.917163 0.983874 0.982214
0.945704 0.964094 0.989758 0.991075
0.938067 0.956109 0.985747 0.995315
0.999 0.975932 1.02447 0.999182
0.931351 0.957443 0.978916 0.993698
0.940975 0.96509 0.985313 0.989546
0.943455 0.949133 1.0096 0.984565
0.844321 0.913727 0.942134 0.980796
0.842423 0.897903 0.957556 0.979798
0.975905 0.978306 0.999331 0.998214
0.870731 0.911304 0.97198 0.983022
0.849868 0.899289 0.962511 0.981853
0.934089 0.954094 0.98775 0.991175
0.940175 0.959983 0.994617 0.984667
0.96494 0.986684 0.978929 0.999012
0.86499 0.912325 0.965225 0.982275
0.953429 0.976037 0.991341 0.98537
0.946084 0.966637 0.987654 0.990972
1.01475 0.996273 1.01926 0.999301
0.99027 1.00047 0.990995 0.998802
0.983824 1.00259 0.983003 0.998248
1.0109 1.00103 1.01163 0.998246
1.00339 1.00238 1.00339 0.997615
1.00055 1.00336 0.999428 0.997778
1.00618 1.0005 1.0086 0.997104
0.999631 1.00111 1.00133 0.997196
1.01087 1.01318 1 0.99772
1.00377 1.00395 1.00298 0.996855
1.00552 1.00833 1 0.997215
1.01502 1.01728 1 0.997777
1.02029 1.02256 1 0.997772
1.01665 1.01938 1 0.997319
1.01431 1.01694 1 0.997411
1.0082 1.01093 1 0.997302
1.00858 1.01149 1 0.997129
1.00423 1.00717 1 0.997084
0.999708 1.00186 1 0.997852
1.00189 1.00425 1.00014 0.99751
1.00175 1.00317 1.00148 0.997115
0.998365 1 1 0.998365
0.998551 1.00044 1 0.998112
0.998091 1 1 0.998091
0.999372 1 1.00028 0.999088
0.999611 1 1.00105 0.998563
0.999753 1 1.00145 0.99831
0.999975 1 1 0.999975
0.999652 1 1.00029 0.999367
1.00012 1 1.00131 0.99881
1 1 1 1
0.999993 1 1 0.999993
0.999605 1 1 0.999605
1 1 1 1
0.999999 1 1 0.999999
1 1 1 1
0.998852 1 1 0.998852
0.998887 1 1 0.998887
0.99909 1 1 0.99909
0.999636 1 1 0.999636
0.999174 1 1 0.999174
0.998946 1 1 0.998946
0.999991 1 1 0.999991
0.999681 1 1 0.999681
0.999236 1 1 0.999236
1 1 1 1
0.999998 1 1 0.999998
0.999726 1 1 0.999726
1 1 1 1
1 1 1 1
1 1 1 1
0.875759 0.908342 0.982404 0.981397
0.941761 0.965495 0.984972 0.990301
0.926419 0.953853 0.977239 0.99386
0.998781 1 1.00001 0.998776
0.998715 1 1 0.998715
0.999424 1 1.00073 0.998691
0.998877 1 1 0.998877
0.998821 1 1 0.998821
0.999029 1 1.00026 0.998769
0.999976 1 1.00125 0.998729
0.999869 1 1.00121 0.99866
1.00036 1 1.00179 0.99857
0.99866 1 0.999598 0.999062
0.999347 1 1.00053 0.998816
0.999878 1 1.00093 0.998948
0.846473 0.896344 0.962384 0.981274
0.84444 0.894293 0.964971 0.978531
0.950079 0.971121 0.992731 0.985496
0.779744 0.870976 0.918843 0.974326
0.858544 0.917993 0.953365 0.980988
0.957626 0.960199 1.01242 0.985084
0.958541 0.960556 1.00602 0.991934
0.94693 0.960564 0.993151 0.992604
0.831783 0.892909 0.950242 0.980322
0.939496 0.950255 1.00436 0.984388
0.942283 0.962115 0.986066 0.993227
0.938262 0.961707 0.991585 0.983901
1.0072 1 1.00816 0.999046
0.999906 1 1.00037 0.999532
1.00089 1 1.00171 0.99918
0.991888 0.981444 1.01207 0.998586
1.01363 1 1.0143 0.999344
1.00093 0.993044 1.00911 0.998842
0.991785 0.996138 0.997536 0.998089
0.864267 0.92478 0.950935 0.982786
0.890147 0.91741 0.987038 0.983025
0.94481 0.962941 0.988976 0.99211
0.976071 0.980318 0.997355 0.998308
0.933445 0.953606 0.986799 0.991952
0.871041 0.912605 0.970852 0.983111
0.937359 0.956979 0.995848 0.983581
0.853248 0.905015 0.960381 0.981693
0.968073 0.987361 0.981948 0.998489
0.869894 0.91886 0.963988 0.982076
0.953622 0.977119 0.991959 0.983864
0.952409 0.968372 0.990656 0.992792
0.978331 0.994141 0.985233 0.998847
0.955025 0.981429 0.988415 0.984502
0.963492 0.984915 0.984136 0.994019
0.985311 1 0.986393 0.998904
0.984483 1.00338 0.982907 0.998226
0.983809 1.00648 0.979309 0.998131
1.00386 1.0027 1.00356 0.997606
0.999879 1.00347 0.998648 0.997772
1.01448 1.01917 0.997163 0.998225
0.999493 1.00064 1.00165 0.99721
1.01071 1.01303 1 0.99771
1.02005 1.02224 0.999669 0.998196
1.00501 1.00781 1 0.997222
1.01438 1.01664 1 0.997777
1.02063 1.02255 1 0.998125
1.01823 1.02026 1 0.998011
1.02058 1.02281 1 0.997818
1.02002 1.0224 1 0.997664
1.01583 1.01847 1 0.9974
1.01729 1.02002 1 0.997324
1.01385 1.01645 1 0.997438
1.00413 1.00657 1 0.997572
1.00873 1.01142 1 0.997337
1.00779 1.01065 1 0.997171
0.998449 1.0003 1 0.998154
1.00046 1.00262 1 0.997845
1.00207 1.00438 1.00017 0.997532
0.99888 1 1 0.99888
0.998364 1 1 0.998364
0.998989 1.00088 1 0.998107
0.999899 1 1 0.999899
0.999414 1 1.00033 0.999088
0.999525 1 1.00096 0.998565
1 1 1 1
0.999959 1 1 0.999959
0.999647 1 1.00028 0.999363
1 1 1 1
0.999989 1 1 0.999989
1 1 1 1
0.998786 1 1 0.998786
0.998843 1 1 0.998843
0.998999 1 1 0.998999
0.998887 1 1 0.998887
0.99909 1 1 0.99909
0.999571 1 1 0.999571
0.999985 1 1 0.999985
0.999639 1 1 0.999639
0.999174 1 1 0.999174
1 1 1 1
0.999993 1 1 0.999993
0.999683 1 1 0.999683
1 1 1 1
0.999999 1 1 0.999999
1 1 1 1
0.8727 0.916322 0.969687 0.982167
0.87839 0.912699 0.980903 0.981146
0.940191 0.963437 0.985423 0.990306
0.998761 1 1 0.998761
0.99944 1 1.00079 0.998651
0.998755 1 1 0.998755
0.998443 1 1 0.998443
0.999289 1 1.00067 0.998616
0.999985 1 1.00126 0.998726
0.999635 1 1.00097 0.998664
1.0002 1 1.0016 0.998602
0.998451 1 1 0.998451
0.997697 1.00023 0.9986 0.998869
0.998651 1.00034 1.00026 0.998058
0.999368 1 1.00026 0.999112
0.999701 1 1.00077 0.99893
0.948526 0.975799 0.987891 0.983965
0.84928 0.895033 0.966893 0.981371
0.845272 0.897242 0.962805 0.978474
0.830182 0.893815 0.947476 0.980296
0.944402 0.953331 1.00797 0.9828
0.94953 0.958905 0.995727 0.994472
0.943387 0.961236 0.986954 0.994405
0.944269 0.963227 0.994938 0.985306
0.965244 0.985883 0.985557 0.993414
1.00077 1.00132 1.00121 0.998244
1.00568 1 1.00666 0.999024
0.999472 1 1 0.999472
1.00155 0.994798 1.00804 0.998758
0.997028 0.999837 0.999189 0.998
0.935198 0.973759 0.974796 0.985231
0.873186 0.924082 0.961693 0.982561
0.895115 0.918044 0.991031 0.983848
0.971024 0.988428 0.984416 0.997944
0.947567 0.963817 0.99199 0.991079
0.870722 0.91651 0.967576 0.981877
0.952527 0.973809 0.992865 0.985175
0.978674 0.994227 0.985472 0.998868
0.957843 0.985031 0.98651 0.985696
0.964497 0.984952 0.986943 0.992188
0.997237 1.00474 0.994213 0.998307
0.97924 0.995982 0.987269 0.995869
0.985315 1.00434 0.982814 0.998208
0.985417 1.006 0.981424 0.998082
1.00479 1.02603 0.981013 0.998255
0.999461 1.00358 0.998123 0.997767
1.01383 1.01872 0.996977 0.998212
1.02118 1.02885 0.994122 0.998413
1.0107 1.01303 1 0.9977
1.01986 1.0224 0.999332 0.99818
1.0194 1.02259 0.998558 0.99832
1.01393 1.01619 1 0.997776
1.02088 1.02288 0.999939 0.998109
1.01923 1.02112 1 0.998152
1.01891 1.02089 1 0.998054
1.01813 1.02032 1 0.997854
1.02085 1.02303 1 0.997864
1.01988 1.02228 1 0.997657
1.01864 1.02113 1 0.997562
1.01051 1.01302 1 0.997516
1.01566 1.01832 1 0.997391
1.01788 1.02061 1 0.99733
0.99973 1.00178 1 0.997949
1.00415 1.00658 1 0.997594
1.0092 1.01185 1 0.997373
0.998712 1 1 0.998712
0.998761 1.00061 1 0.998149
1.00092 1.00309 1 0.997839
0.999773 1 1 0.999773
0.998881 1 1 0.998881
0.998363 1 1 0.998363
1 1 1 1
0.999877 1 1 0.999877
0.999375 1 1.00029 0.999088
1 1 1 1
0.999943 1 1 0.999943
1 1 1 1
0.998683 1.00023 1 0.998456
0.998785 1 1 0.998785
0.998867 1 1 0.998867
0.998835 1 1 0.998835
0.998979 1 1 0.998979
0.999448 1 1 0.999448
0.99909 1 1 0.99909
0.999573 1 1 0.999573
0.999979 1 1 0.999979
1 1 1 1
0.999987 1 1 0.999987
0.999641 1 1 0.999641
1 1 1 1
0.999994 1 1 0.999994
1 1 1 1
0.954575 0.981959 0.985897 0.986018
0.86525 0.918424 0.95875 0.982637
0.889559 0.919216 0.986548 0.980932
0.99945 1 1.00084 0.998611
0.998795 1 1 0.998795
0.99921 1 1.00059 0.998625
0.998459 1 1 0.998459
1.00095 1.00285 1.00002 0.998089
0.998502 1 1 0.998502
1.00009 1 1.00146 0.998633
0.99835 1 1 0.99835
0.99852 1.00011 0.999572 0.998835
0.998368 1.00008 1 0.998284
0.999374 1.00244 0.998716 0.998228
0.998182 1.00129 0.999242 0.997654
0.998662 1.00081 0.99968 0.998177
1.00025 1 1.00108 0.999162
0.963635 0.986892 0.982741 0.993583
0.95113 0.976983 0.988618 0.984746
0.844201 0.895768 0.960053 0.981646
0.956771 0.969761 1.00307 0.983585
0.942966 0.960464 0.986457 0.995261
0.969212 0.986755 0.986581 0.995581
0.993384 1.00378 0.991409 0.998224
0.998552 1.00067 0.999591 0.998292
1.00462 1 1.00563 0.999002
0.997217 1.00112 0.998205 0.997892
0.966033 0.981866 0.990227 0.993584
0.947575 0.977286 0.982649 0.986719
0.864392 0.919232 0.956863 0.982734
0.979911 0.995159 0.985775 0.998888
0.968818 0.987 0.987969 0.993532
0.961538 0.985347 0.98879 0.9869
0.991087 1.00388 0.988915 0.99832
0.977073 0.993886 0.987795 0.995231
0.997924 1.02321 0.977164 0.998082
1.00563 1.01512 0.992906 0.997732
0.986695 1.00537 0.983359 0.998031
1.00475 1.02548 0.981502 0.998247
1.00836 1.033 0.977822 0.998288
1.01338 1.01857 0.996695 0.998199
1.02088 1.02866 0.994032 0.998398
1.01486 1.02346 0.99332 0.998265
1.01953 1.02246 0.998968 0.998163
1.01892 1.02228 0.998411 0.998304
1.01986 1.02314 0.998678 0.998114
1.02108 1.02316 0.999871 0.998093
1.01869 1.02065 0.999935 0.998148
1.01827 1.02042 1 0.997895
1.01961 1.02156 1 0.998098
1.01803 1.02019 1 0.997888
1.01905 1.02145 1 0.997649
1.0198 1.0222 1 0.997651
1.01852 1.02102 1 0.997553
1.01405 1.01649 1 0.997599
1.00201 1.00423 1 0.997798
1.01017 1.01267 1 0.997535
1.0155 1.01816 1 0.997382
0.998539 1 1 0.998539
1.00047 1.00252 1 0.99795
1.00441 1.00681 1 0.997615
0.999634 1 1 0.999634
0.998711 1 1 0.998711
0.999112 1.00097 1 0.998145
1 1 1 1
0.999758 1 1 0.999758
0.998881 1 1 0.998881
1 1 1 1
0.999855 1 1 0.999855
1 1 1 1
1.00051 1.00237 1 0.99814
0.998585 1.00012 1 0.998468
0.998642 1 1 0.998642
0.998784 1 1 0.998784
0.998846 1 1 0.998846
0.999277 1 1 0.999277
0.998958 1 1 0.998958
0.99945 1 1 0.99945
0.999963 1 1 0.999963
0.999575 1 1 0.999575
0.999981 1 1 0.999981
1 1 1 1
1 1 1 1
0.999989 1 1 0.999989
1 1 1 1
0.965184 0.984971 0.985873 0.993953
0.950766 0.982645 0.982358 0.984934
0.858804 0.914057 0.956478 0.982304
1.00628 1.00847 1.00007 0.997764
0.999145 1 1.00051 0.998633
0.998476 1 1 0.998476
0.998473 1 1 0.998473
1.00078 1.00259 1.00012 0.998078
1.00009 1.00172 1 0.998374
0.998249 1 1 0.998249
0.999214 1 1.00041 0.998802
0.99853 1.00025 0.999958 0.998325
0.998304 1.00166 0.998448 0.998202
1.00121 1.0036 1 0.997623
1.00299 1.0058 0.999595 0.99761
0.999265 1.00195 0.999708 0.997608
0.998803 1.00134 0.999171 0.998297
0.995241 1.00619 0.990393 0.998715
0.963043 0.987284 0.982616 0.992704
0.955094 0.978382 0.990241 0.985818
0.963345 0.982866 0.986057 0.993998
0.997471 1.00584 0.99309 0.998576
0.999224 1.0002 1.00069 0.998338
0.998043 1.00668 0.993603 0.997801
0.961665 0.975283 0.991156 0.994835
0.940676 0.976743 0.977418 0.985325
0.984521 1.00228 0.983923 0.998328
0.980529 0.995035 0.990932 0.994438
0.999314 1.02412 0.97762 0.998117
1.00453 1.01363 0.993141 0.997868
1.00605 1.0305 0.978151 0.998082
1.02166 1.02732 0.996489 0.99799
1.00453 1.02464 0.982101 0.998239
1.01085 1.03418 0.979114 0.998287
1.00799 1.02703 0.983296 0.998128
1.02028 1.02816 0.99395 0.998384
1.01538 1.02367 0.993631 0.998261
1.01935 1.02506 0.996417 0.998003
1.0185 1.02197 0.998307 0.998289
1.01976 1.02279 0.998907 0.998128
1.02026 1.02251 0.999978 0.997818
1.01813 1.02015 0.999878 0.998145
1.0182 1.02035 1 0.997895
1.02086 1.02326 1 0.99765
1.01789 1.02001 1 0.997923
1.01907 1.02145 1 0.99767
1.01583 1.0183 1 0.997574
1.01837 1.02088 1 0.997545
1.01387 1.01633 1 0.997578
1.00453 1.00677 1 0.997781
0.998428 1.00001 1 0.998414
1.00241 1.00459 1 0.997823
1.00978 1.01226 1 0.997554
0.999505 1 1 0.999505
0.998539 1 1 0.998539
1.00114 1.0032 1 0.99795
1 1 1 1
0.999621 1 1 0.999621
0.998709 1 1 0.998709
1 1 1 1
0.999742 1 1 0.999742
1 1 1 1
1.00213 1.00431 1 0.99783
0.999981 1.00184 1 0.998145
0.998517 1.00013 1 0.998385
0.998488 1 1.00001 0.998481
0.998649 1 1 0.998649
0.999086 1 1 0.999086
0.998826 1 1 0.998826
0.999277 1 1 0.999277
0.999926 1 1 0.999926
0.999452 1 1 0.999452
0.999968 1 1 0.999968
1 1 1 1
0.999983 1 1 0.999983
1 1 1 1
1 1 1 1
0.999369 1.01053 0.99026 0.998678
0.95966 0.983173 0.983719 0.992239
0.949758 0.975721 0.986904 0.986307
1.00613 1.00816 1.00001 0.997968
1.01126 1.01371 1 0.997583
1.00545 1.00753 1.00013 0.997805
0.998443 1 1 0.998443
1.0006 1.00229 1.00024 0.998066
1.00077 1.00245 1 0.998318
1.00808 1.0104 1 0.997704
0.998622 1.00038 0.999875 0.998366
0.99717 1.00077 0.998225 0.998175
1.0019 1.00427 0.99995 0.997684
1.01025 1.01292 1 0.997364
1.01077 1.01762 0.99534 0.997926
1.00309 1.00611 0.999408 0.997585
1.00002 1.00262 0.999842 0.997561
0.999357 1.00849 0.992102 0.998833
0.965158 0.987519 0.985559 0.991676
0.997929 1.0071 0.991943 0.998938
1.01407 1.02206 0.993633 0.998545
0.996949 1.00539 0.993706 0.997884
0.961355 0.979607 0.988154 0.993132
1.00128 1.02527 0.97841 0.998151
1.00263 1.01239 0.99234 0.99801
1.00522 1.03051 0.977274 0.998146
1.02349 1.02947 0.99618 0.997999
1.01892 1.03208 0.989233 0.998
1.03431 1.04093 0.995523 0.99811
1.01348 1.03587 0.980067 0.998285
1.00922 1.0267 0.984814 0.998131
1.02216 1.0314 0.99312 0.99791
1.01597 1.02394 0.993948 0.998258
1.01956 1.02463 0.99704 0.998001
1.02396 1.02681 0.999452 0.997773
1.01962 1.0224 0.99913 0.998141
1.02052 1.02275 0.999996 0.997817
1.02346 1.02593 1 0.997589
1.01812 1.02027 1 0.997895
1.02073 1.02314 1 0.997651
1.01803 1.02056 1 0.997527
1.01911 1.02146 1 0.997692
1.01565 1.01811 1 0.99758
1.00571 1.008 1 0.997727
1.01373 1.01621 1 0.997558
1.0045 1.00674 1 0.99777
0.998491 1.00015 1 0.99834
0.999427 1 1 0.999427
0.99845 1.00004 1 0.998414
1.00283 1.00499 1 0.997849
1 1 1 1
0.999494 1 1 0.999494
0.998538 1 1 0.998538
1 1 1 1
0.999609 1 1 0.999609
1 1 1 1
1.00431 1.00673 1 0.997599
1.00208 1.00429 1 0.997803
0.999578 1.00148 1 0.998098
0.999437 1.00129 1 0.99815
0.998461 1.00007 1 0.99839
0.998875 1 1 0.998875
0.998656 1 1 0.998656
0.999145 1 1.00006 0.999087
0.999847 1 1 0.999847
0.999277 1 1 0.999277
0.999938 1 1 0.999938
1 1 1 1
0.999973 1 1 0.999973
1 1 1 1
1 1 1 1
1.01065 1.02246 0.990065 0.998371
0.996345 1.00952 0.988614 0.998316
0.957454 0.983821 0.980013 0.993048
1.01406 1.01645 1 0.997646
1.00583 1.00771 1 0.998129
1.02163 1.0242 1 0.997495
1.0114 1.01386 1 0.997569
1.00472 1.00671 1.00018 0.997847
1.02058 1.02326 1 0.997375
1.00147 1.00321 1 0.998263
1.00734 1.00971 1 0.997646
1.02587 1.0292 0.999219 0.997545
1.00247 1.0048 0.999933 0.997745
1.01126 1.01396 1 0.997333
1.01068 1.01714 0.995704 0.997941
1.0028 1.00573 0.999528 0.997557
1.00297 1.01036 0.993725 0.998953
1.028 1.03664 0.99347 0.998183
1.0139 1.02199 0.99353 0.998548
0.996848 1.00409 0.994815 0.997961
1.0046 1.03012 0.976976 0.998211
1.02415 1.03076 0.995574 0.998008
1.01772 1.03237 0.987771 0.998016
1.03438 1.04187 0.99469 0.998112
1.03195 1.04089 0.993392 0.998008
1.01026 1.02618 0.986321 0.998135
1.02202 1.03095 0.993408 0.997918
1.02743 1.03309 0.996734 0.997781
1.01976 1.02424 0.997629 0.997998
1.02364 1.02632 0.999631 0.997755
1.02561 1.02815 1 0.997529
1.02086 1.0231 1 0.997815
1.02322 1.0257 1 0.997588
1.02096 1.02357 1 0.997456
1.02064 1.02304 1 0.997651
1.01805 1.02057 1 0.997529
1.00731 1.0097 1 0.99764
1.01547 1.01793 1 0.997586
1.00587 1.00816 1 0.997729
0.998742 1.00048 1 0.998264
1.00444 1.00669 1 0.997759
0.998563 1.00023 1 0.998338
0.999487 1 1 0.999487
0.999845 1 1 0.999845
0.999459 1 1 0.999459
0.998474 1.00006 1 0.998413
1 1 1 1
0.999483 1 1 0.999483
1 1 1 1
1.02774 1.03027 1 0.997541
1.01378 1.01626 1 0.997559
1.00502 1.00745 1 0.997584
1.00257 1.00467 1 0.997909
1.00195 1.00419 1 0.997776
0.999095 1.001 1 0.998101
0.998667 1 1 0.998667
0.998419 1.00002 1 0.998395
0.998878 1 1 0.998878
0.999714 1 1 0.999714
0.999088 1 1 0.999088
0.999866 1 1 0.999866
1 1 1 1
0.99995 1 1 0.99995
1 1 1 1
1 1 1 1
1.02891 1.03552 0.995674 0.997936
1.01409 1.02569 0.990219 0.998455
0.994133 1.00962 0.98668 0.997956
1.02338 1.02602 1 0.997425
1.01338 1.0157 1 0.997715
1.00541 1.00714 1 0.998286
1.02136 1.0239 1 0.997514
1.01153 1.01401 1 0.997554
1.03053 1.03323 0.999854 0.997527
1.01846 1.02118 1 0.997336
1.00672 1.00915 1 0.997587
1.02521 1.02839 0.999375 0.997539
1.01316 1.0159 1 0.997301
1.0126 1.01889 0.995856 0.99796
1.03443 1.04166 0.994947 0.998098
1.0299 1.03792 0.994064 0.998195
1.0145 1.02199 0.994115 0.998553
1.01735 1.03347 0.986338 0.998031
1.03524 1.04329 0.994161 0.998114
1.03208 1.04166 0.992769 0.998021
1.03082 1.03686 0.996321 0.997846
1.02172 1.03037 0.99366 0.997926
1.02717 1.0324 0.997157 0.997772
1.02799 1.03054 1 0.997532
1.02329 1.02579 0.999827 0.997737
1.02612 1.02866 1 0.99753
1.024 1.02667 1 0.997395
1.02295 1.02542 1 0.997586
1.02104 1.02364 1 0.997457
1.00907 1.01155 1 0.997545
1.01807 1.02059 1 0.997531
1.00754 1.00992 1 0.997641
0.999082 1.00092 1 0.998165
1.00604 1.00833 1 0.997732
0.998853 1.00059 1 0.998262
0.999486 1 1 0.999486
0.998634 1.0003 1 0.998336
0.999483 1 1 0.999483
0.999855 1 1 0.999855
0.999925 1 1 0.999925
0.999493 1 1 0.999493
1 1 1 1
1.02716 1.02981 1 0.997427
1.01904 1.02151 1 0.997583
1.02757 1.03 1 0.997641
1.00542 1.00765 1 0.997784
1.01515 1.01765 1 0.99755
1.00582 1.00827 1 0.99757
1.00156 1.00366 1 0.997907
0.998646 1.00016 1 0.998489
0.998643 1.00054 1 0.998105
0.998668 1 1 0.998668
0.999563 1 1 0.999563
0.998996 1 1.00011 0.998882
0.999732 1 1 0.999732
1 1 1 1
0.999884 1 1 0.999884
1 1 1 1
1 1 1 1
1.03306 1.03745 0.997954 0.997818
1.02882 1.03538 0.995729 0.997933
1.01566 1.02748 0.989954 0.998533
1.03031 1.03294 1 0.997458
1.02244 1.02508 1 0.997427
1.01285 1.01509 1 0.997785
1.02095 1.02348 1 0.997534
1.03026 1.033 0.99984 0.997507
1.01637 1.01912 1 0.997297
1.02319 1.02622 0.999519 0.997533
1.03328 1.03857 0.996993 0.997907
1.03387 1.04082 0.995258 0.99806
1.03184 1.03939 0.994521 0.998207
1.03072 1.03494 0.998186 0.997733
1.03207 1.04226 0.992183 0.998033
1.03053 1.03662 0.996284 0.997834
1.0296 1.03233 0.999736 0.997616
1.02699 1.03176 0.997607 0.997763
1.02902 1.0316 0.999968 0.997534
1.02544 1.02814 1 0.997366
1.02661 1.02915 1 0.99753
1.02372 1.02639 1 0.997396
1.01082 1.01339 1 0.997468
1.02108 1.02368 1 0.997457
1.00934 1.01182 1 0.997546
0.999447 1.00138 1 0.998065
1.00775 1.01013 1 0.997643
0.999208 1.00105 1 0.998164
0.999464 1 1 0.999464
0.998968 1.00071 1 0.99826
0.999479 1 1 0.999479
0.999858 1 1 0.999858
0.99948 1 1 0.99948
0.999857 1 1 0.999857
1 1 1 1
1.02784 1.03059 1 0.997328
1.02086 1.02348 1 0.997432
1.02778 1.03041 1 0.997444
1.00692 1.00918 1 0.997762
1.01924 1.02171 1 0.997588
1.02748 1.0298 1 0.997741
0.998987 1.00065 1 0.998335
1.00497 1.00721 1 0.997779
1.01664 1.01915 1 0.997542
1.00043 1.00253 1 0.997906
0.998564 1.00007 1 0.998491
0.999451 1 1 0.999451
0.99867 1 1 0.99867
0.999576 1 1 0.999576
1 1 1 1
0.99975 1 1 0.99975
1 1 1 1
1 1 1 1
1.03306 1.03609 0.999395 0.997675
1.03298 1.03774 0.997605 0.997803
1.02933 1.03579 0.995824 0.99793
1.02979 1.03241 1 0.997466
1.02144 1.02407 1 0.99743
1.02981 1.03259 0.999823 0.997487
1.03128 1.03453 0.999122 0.997737
1.03336 1.03858 0.997069 0.997899
1.03318 1.03984 0.995557 0.998022
1.0314 1.03554 0.998243 0.997752
1.02976 1.0324 0.999883 0.997564
1.03022 1.03639 0.996221 0.997821
1.03001 1.03268 0.999833 0.997583
1.02532 1.02798 1 0.997411
1.03 1.03262 0.99993 0.997537
1.02508 1.02778 1 0.99737
1.01226 1.01489 1 0.997408
1.02356 1.02624 1 0.997397
1.01121 1.01378 1 0.997468
0.999778 1.00179 1 0.997988
1.00967 1.01215 1 0.997547
0.999572 1.00151 1 0.998065
0.999419 1 1 0.999419
0.99934 1.00118 1 0.998162
0.999453 1 1 0.999453
0.999845 1 1 0.999845
0.999473 1 1 0.999473
0.999866 1 1 0.999866
0.999857 1 1 0.999857
1.02955 1.03212 1 0.997514
1.02319 1.02596 1 0.997301
1.0282 1.03094 1 0.997343
1.00937 1.01179 1 0.99761
1.02053 1.02316 1 0.997435
1.02834 1.03096 1 0.997462
0.999358 1.00114 1 0.998219
1.00692 1.00922 1 0.997717
1.01931 1.02177 1 0.997594
0.999392 1 1 0.999392
0.998847 1.00051 1 0.998338
1.00455 1.0068 1 0.997774
0.998492 1 1 0.998492
0.999461 1 1 0.999461
1 1 1 1
0.999589 1 1 0.999589
1 1 1 1
1 1 1 1
1.02978 1.03251 0.999709 0.997641
1.03224 1.03553 0.99915 0.997672
1.03302 1.03816 0.99726 0.997788
1.02926 1.03186 1 0.997474
1.0296 1.03215 1 0.997528
1.03203 1.03551 0.998886 0.997747
1.03339 1.03852 0.997163 0.997892
1.0321 1.03617 0.998296 0.997771
1.02906 1.03191 0.999658 0.997575
1.02498 1.02763 1 0.997422
1.03052 1.03312 0.999935 0.997549
1.02504 1.02772 1 0.997393
1.01309 1.01575 1 0.997384
1.0247 1.02739 1 0.997373
1.01247 1.0151 1 0.99741
0.99991 1.002 1 0.997919
1.01149 1.01406 1 0.997469
0.999827 1.00184 1 0.997987
0.999285 1 1 0.999285
0.999672 1.00161 1 0.998064
0.99937 1 1 0.99937
1 1 1 1
0.999443 1 1 0.999443
0.999856 1 1 0.999856
0.999869 1 1 0.999869
1.02801 1.03051 1 0.997573
1.02419 1.02689 1 0.997371
1.02915 1.03172 1 0.99751
1.01197 1.01458 1 0.997428
1.02319 1.02594 1 0.997323
1.02865 1.03138 1 0.997358
0.999791 1.00176 1 0.998031
1.00946 1.01187 1 0.997609
1.02028 1.02291 1 0.997438
0.999368 1 1 0.999368
0.999208 1.00103 1 0.998178
1.00694 1.00929 1 0.997671
1 1 1 1
0.999402 1 1 0.999402
0.998691 1.00035 1 0.99834
0.999471 1 1 0.999471
1 1 1 1
1 1 1 1
1.02818 1.03071 1 0.997539
1.03019 1.03289 0.999742 0.997649
1.0314 1.03495 0.998901 0.997669
1.02606 1.02876 1 0.997368
1.02863 1.03117 1 0.997535
1.03273 1.03644 0.998653 0.997756
1.02835 1.03141 0.999443 0.997586
1.025 1.02765 1 0.997422
1.01282 1.01543 1 0.997437
1.02469 1.02739 1 0.997375
1.01305 1.01568 1 0.997413
0.999954 1.00217 1 0.99779
1.01276 1.01538 1 0.997412
0.999974 1.00206 1 0.99792
0.999233 1 1 0.999233
0.999915 1.00193 1 0.997987
0.999282 1 1 0.999282
1 1 1 1
0.999313 1 1 0.999313
0.999916 1 1 0.999916
0.999866 1 1 0.999866
1.0257 1.02823 1 0.997532
1.02446 1.02711 1 0.997417
1.02776 1.03026 1 0.997576
1.01299 1.0156 1 0.997432
1.02471 1.02742 1 0.997363
1.02876 1.03133 1 0.997507
1.0004 1.00248 1 0.997924
1.01192 1.01449 1 0.997472
1.02314 1.02587 1 0.997345
0.999341 1 1 0.999341
0.999763 1.00175 1 0.998016
1.00953 1.01195 1 0.997608
1 1 1 1
0.999376 1 1 0.999376
0.999065 1.00093 1 0.998136
1 1 1 1
0.999413 1 1 0.999413
1 1 1 1
1.02648 1.02914 1 0.997411
1.02766 1.03021 1 0.99753
1.03067 1.03333 0.999763 0.997657
1.01201 1.01462 1 0.997424
1.02608 1.02877 1 0.997385
1.02772 1.03025 1 0.997542
1.02502 1.02767 1 0.997423
1.01287 1.01547 1 0.997437
0.999647 1.0019 1 0.997752
1.01303 1.01563 1 0.997441
0.999965 1.00215 1 0.997825
0.999168 1 1 0.999168
0.999997 1.00208 1 0.99792
0.99923 1 1 0.99923
1 1 1 1
0.999279 1 1 0.999279
1 1 1 1
0.999849 1 1 0.999849
1.02488 1.02751 1 0.997439
1.02579 1.02832 1 0.997545
1.01263 1.01523 1 0.997443
1.02453 1.02719 1 0.997416
1.02749 1.02999 1 0.997579
1.00041 1.00247 1 0.997946
1.01283 1.01544 1 0.997429
1.02521 1.02793 1 0.997354
0.999296 1 1 0.999296
1.00045 1.0025 1 0.997953
1.01185 1.01437 1 0.997515
1 1 1 1
0.999346 1 1 0.999346
0.999736 1.00174 1 0.998002
1 1 1 1
0.999385 1 1 0.999385
1 1 1 1
1.01172 1.01429 1 0.997461
1.02639 1.02906 1 0.997405
1.02706 1.02961 1 0.997521
0.99899 1.00124 1 0.997754
1.01204 1.01466 1 0.997424
1.02608 1.02875 1 0.997401
1.01291 1.01551 1 0.997436
0.999649 1.0019 1 0.997754
0.99912 1 1 0.99912
0.999994 1.00214 1 0.997859
0.999165 1 1 0.999165
1 1 1 1
0.999226 1 1 0.999226
1 1 1 1
1 1 1 1
1.01204 1.01464 1 0.997441
1.02453 1.02715 1 0.997453
1.02589 1.0284 1 0.997558
0.999937 1.00202 1 0.997923
1.01265 1.01525 1 0.997441
1.02457 1.02722 1 0.997415
0.999247 1 1 0.999247
1.00048 1.00254 1 0.997944
1.0127 1.01531 1 0.997426
1 1 1 1
0.999299 1 1 0.999299
1.00051 1.00253 1 0.997982
1 1 1 1
0.999352 1 1 0.999352
1 1 1 1
0.998725 1.00088 1 0.997844
1.01165 1.01426 1 0.997424
1.02631 1.02899 1 0.997398
0.999118 1 1 0.999118
0.999012 1.00126 1 0.997753
1.01209 1.0147 1 0.997424
0.999649 1.0019 1 0.997757
0.99912 1 1 0.99912
1 1 1 1
0.999162 1 1 0.999162
1 1 1 1
1 1 1 1
0.999184 1.0013 1 0.997888
1.01185 1.01445 1 0.997439
1.02423 1.02683 1 0.997467
0.999322 1 1 0.999322
1.00011 1.00219 1 0.997921
1.01268 1.01528 1 0.997438
1 1 1 1
0.999248 1 1 0.999248
1.00053 1.0026 1 0.997942
1 1 1 1
0.999303 1 1 0.999303
1 1 1 1
0.999119 1 1 0.999119
0.998805 1.00099 1 0.997813
1.01158 1.01423 1 0.997388
1 1 1 1
0.999118 1 1 0.999118
0.999033 1.00128 1 0.997751
0.999118 1 1 0.999118
1 1 1 1
1 1 1 1
0.999274 1 1 0.999274
0.999416 1.00153 1 0.997888
1.01163 1.01423 1 0.997437
1 1 1 1
0.999207 1 1 0.999207
1.00029 1.00237 1 0.99792
1 1 1 1
0.99925 1 1 0.99925
1 1 1 1
0.999768 1 1 0.999768
0.999197 1 1 0.999197
0.99888 1.0011 1 0.997782
1 1 1 1
0.999118 1 1 0.999118
1 1 1 1
0.999785 1 1 0.999785
0.999225 1 1 0.999225
0.999655 1.00177 1 0.997889
0.999896 1 1 0.999896
0.999206 1 1 0.999206
1 1 1 1
1 1 1 1
0.99914 1 1 0.99914
1 1 1 1
0.999889 1 1 0.999889
0.999171 1 1 0.999171
1 1 1 1
1 1 1 1
1 1 1 1

VECTORS lamdaE float
1.0003 1.00014 0.99495
1.00011 1.00044 0.997592
0.999974 1.00035 0.995142
1.00057 0.999937 0.994766
1.0004 0.999947 0.995012
1.00025 1.00032 0.994816
1.00157 1.00048 0.992103
1.00014 1.00035 0.997593
1.00003 1.00022 0.997892
0.999615 1.00073 0.997935
1.00012 1.00036 0.994994
1.00137 1.00122 0.991103
1.00039 1.00001 0.99485
1.00012 0.999995 0.995091
0.999679 1.00058 0.995307
1.00033 0.999915 0.995004
0.999905 1.00063 0.994984
1.00013 1.00002 0.995217
1.00174 1.00032 0.992023
1.00039 1 0.997514
1.00058 0.999996 0.994671
1.00051 0.999882 0.994929
1.00191 1 0.992013
1.00175 1.00011 0.992174
1.00026 1.0003 0.994759
1.00133 1.001 0.991981
1.00426 1.00028 0.987771
1.00013 1.00029 0.997613
1.00018 1.0001 0.996405
0.999862 1.00056 0.996426
1.00011 1.00014 0.997694
1.00128 1.00136 0.991101
1.00046 0.999846 0.994853
1.00018 1.00037 0.994919
1.00201 1.00017 0.992415
0.999617 0.999583 0.998345
1.00168 1.00083 0.992399
1.00103 1.00169 0.991219
1.00341 1.00169 0.987102
0.999704 0.998517 0.998689
1.00041 1.00001 0.997492
1.00028 1.00001 0.996289
1.00037 0.999993 0.997511
1.00005 1.00004 0.995167
1.00202 1.00002 0.991206
1.0002 0.999967 0.997805
1.00218 1.0001 0.992225
1.00009 0.999854 0.995243
0.999876 1.00008 0.995408
0.999574 1.00097 0.995136
1.00189 1.00014 0.991957
1.00026 1.00002 0.996316
1.00033 1 0.994915
0.999904 1.00067 0.994918
1.00027 0.999867 0.995151
1.00201 0.999967 0.991912
1.00153 1.00079 0.991902
1.00188 1.00002 0.99209
1.00425 1.0003 0.987757
1.00034 1 0.99753
1.00051 1.00003 0.994743
1.00184 1 0.992744
1.00192 1.00003 0.991957
1.00186 0.999975 0.992125
1.00441 0.999958 0.987725
1.00436 0.999977 0.98762
1.00003 0.99985 0.995307
1.00087 1.00172 0.991958
1.004 1.00073 0.987737
1.00513 1.00007 0.985705
1.00037 1.00013 0.997571
0.999988 0.999919 0.997896
1.00011 1.0004 0.997592
1.00121 1.00146 0.991091
1.00049 0.999977 0.99753
1.00025 1.00032 0.997588
1.0019 1.00012 0.991203
0.999744 0.999661 0.997064
1.00145 1.00091 0.991218
1.00092 1.00174 0.992043
1.00348 1.00158 0.987085
0.999857 0.998993 0.998374
0.99977 1.00051 0.994685
1.0021 0.999995 0.991066
1.00182 1.0004 0.991174
1.00441 1.00024 0.986787
1.0005 1.00162 0.993549
1.00383 1.00095 0.987137
1.00243 1.00334 0.987189
1.00472 1.00133 0.985154
0.999616 0.998068 0.998949
0.999617 0.998432 0.9988
1.00048 0.999994 0.997477
1.00043 1.00001 0.997489
1.0004 0.999996 0.997512
1.00024 1.00001 0.996333
1.00204 1.00001 0.991847
1.00033 0.999976 0.996297
1.00212 1.00012 0.991626
1.00039 0.999991 0.997521
1.00193 0.999937 0.991388
1.00214 1.0001 0.992321
1.00445 0.999675 0.987321
1.00215 1.00003 0.992299
1.0045 0.999882 0.987032
1.00036 1.00001 0.994902
1.00007 0.999997 0.995164
0.999545 1.00107 0.995083
1.00003 0.999829 0.99537
1.00211 0.999969 0.991812
1.002 0.999928 0.992012
1.00173 1.00053 0.991831
1.00424 1.00032 0.987744
1.00038 0.999995 0.997524
1.00025 1.00002 0.994988
1.00196 0.999977 0.991667
1.00202 1.00002 0.991846
0.999908 1.00015 0.996537
1.00113 1.00158 0.992096
1.00196 0.999923 0.992034
1.00443 0.999935 0.987652
1.00399 1.00076 0.98774
1.00436 1.00005 0.987679
1.00511 1.00008 0.98573
1.00191 0.999968 0.991415
1.00185 1.00002 0.992059
1.00437 0.999645 0.987923
1.00442 0.999851 0.98764
1.0044 0.999883 0.987626
1.00521 0.999552 0.986364
0.999755 0.999559 0.998232
1.00518 0.999847 0.985854
1.00035 1.00217 0.991764
1.00337 1.00167 0.987151
1.00502 1.00044 0.985576
1.00523 0.999749 0.985833
0.999925 1.00148 0.993277
1.00024 1.00448 0.989854
1.00047 1.00001 0.997548
1.0002 1.00031 0.997597
1.00192 1.0001 0.991198
0.999829 0.999346 0.99827
1.00065 1.00202 0.991459
1.00141 1.00094 0.991227
1.00356 1.00148 0.987069
0.999759 0.998911 0.998492
0.999746 1.00043 0.994739
1.0021 1.00003 0.99172
1.00181 1.00042 0.991816
1.00441 1.00024 0.986781
1.00024 1.0017 0.992621
1.00383 1.00093 0.987142
1.00247 1.00328 0.987177
1.00468 1.00127 0.985153
0.999978 1.00117 0.993669
0.999762 0.999705 0.99549
1.00032 1.0036 0.990729
1.00449 1.0001 0.986814
1.00419 1.00053 0.986897
1.00514 1.00011 0.985641
1.00148 1.00419 0.988087
1.00481 1.00077 0.985443
1.00404 1.00281 0.985061
1.00507 1.00113 0.984907
0.999629 0.997738 0.999075
0.99958 0.997993 0.999004
0.999553 0.998313 0.998893
0.99983 1.00101 0.993914
0.999694 0.999178 0.998436
1.00051 0.999978 0.997502
1.00044 1.00001 0.997477
1.00202 1.00013 0.991039
1.00196 1.00001 0.99127
1.00037 0.999999 0.997513
1.00036 0.999994 0.997518
1.00192 0.999945 0.991384
1.00207 1.00008 0.99172
1.00444 0.999673 0.987322
1.00205 1.00006 0.991042
1.00449 0.99988 0.987027
1.0019 0.999935 0.991423
1.00442 0.999614 0.987417
1.00447 0.999763 0.987191
1.0052 0.998863 0.986891
1.00451 0.999993 0.986893
1.00523 0.999277 0.986435
1.00036 0.999993 0.997517
0.999997 1.00004 0.995233
1.00197 0.99997 0.990695
1.00212 1.00001 0.991733
0.999512 1.00045 0.998063
1.00147 1.00133 0.992233
1.00207 0.999896 0.991946
1.00444 0.999896 0.987579
1.00436 1.00011 0.987739
1.00397 1.00081 0.987743
1.00508 1.0001 0.985755
1.0019 0.999953 0.991416
1.00197 1.00001 0.991943
1.0044 0.999625 0.987607
1.00444 0.999893 0.987671
0.999808 0.99965 0.998141
1.00059 1.00194 0.992367
1.00327 1.0019 0.987424
1.00441 0.999915 0.987601
1.00521 0.999409 0.986411
1.005 1.00046 0.985541
1.00517 0.999892 0.985954
1.00523 0.99974 0.985864
0.999973 1.00148 0.993264
1.00034 1.0043 0.989872
1.00439 0.999631 0.98746
1.00439 0.999769 0.987785
1.0052 0.99904 0.986892
1.00521 0.999113 0.986635
1.0052 0.999565 0.986331
1.00523 0.998398 0.987309
1.00008 1.00189 0.992558
1.00523 0.999166 0.986447
1.00209 1.00347 0.987579
1.00476 1.00111 0.985163
1.00522 1.00046 0.985335
1.00519 0.998817 0.986945
1.00071 1.00437 0.989174
1.00018 1.00375 0.990691
1.00101 1.00472 0.988494
1.00202 1.00001 0.991132
0.99966 0.99882 0.998617
0.999728 1.00032 0.994792
1.00168 1.00047 0.991241
1.0044 1.00025 0.986775
1.00014 1.0018 0.992532
1.00247 1.00323 0.987165
1.00383 1.00091 0.987148
1.00463 1.00122 0.985152
0.999936 1.00113 0.993694
0.999773 0.999581 0.995534
1.00014 1.00378 0.990726
1.00448 1.00011 0.986802
1.00419 1.00052 0.986898
1.00516 1.00011 0.985623
1.00138 1.00426 0.988114
1.00486 1.00077 0.985455
1.00398 1.0028 0.985048
1.00502 1.001 0.984875
0.999875 0.999057 0.995906
1.00086 1.00401 0.989328
1.00008 1.00255 0.992136
1.00053 1.00469 0.989275
1.00519 0.99983 0.985884
1.00502 1.00042 0.985515
1.00519 0.999495 0.986193
1.00267 1.00413 0.986276
1.00514 1.0005 0.985337
1.00454 1.00211 0.98469
1.00518 1.00095 0.984719
1.00027 1.00049 0.993815
1.0001 0.998443 0.996117
0.999696 0.997505 0.999114
0.99962 0.997701 0.999089
0.999557 0.99793 0.999042
0.99983 1.00037 0.994579
0.999654 0.998776 0.998622
0.999868 1.00105 0.99389
0.999752 0.999227 0.998366
1.00205 1.00009 0.991038
1.00201 1.00007 0.991135
1.00449 0.999879 0.987022
1.00443 0.999673 0.987323
1.00193 0.999954 0.991384
1.00039 0.999994 0.997513
1.00192 0.999937 0.991424
1.00442 0.99962 0.987417
1.00447 0.999768 0.987188
1.0052 0.998872 0.986887
1.0045 1 0.986881
1.00523 0.99928 0.986424
1.0044 0.999615 0.987458
1.0052 0.998761 0.987002
1.00521 0.999041 0.986695
1.0052 0.997278 0.988527
1.00522 0.999543 0.986153
1.00523 0.997999 0.987736
1.00191 0.999941 0.991419
1.00208 0.999991 0.991826
1.00442 0.999591 0.987293
1.00446 0.999929 0.987703
0.999888 0.999754 0.998033
1.00084 1.00182 0.992842
1.00327 1.00205 0.987694
1.00441 0.999935 0.987577
1.00521 0.999262 0.986459
1.00516 0.999941 0.986055
1.00498 1.00048 0.985507
1.00523 0.999731 0.985895
1.00003 1.00146 0.993251
1.00043 1.00411 0.989889
1.00439 0.999572 0.987428
1.00441 0.999751 0.987768
1.0052 0.998909 0.987042
1.00521 0.999261 0.986561
1.00016 1.00186 0.992543
1.00218 1.0034 0.987582
1.00473 1.00117 0.985213
1.0052 0.999655 0.986255
1.00523 0.998209 0.987533
1.00522 1.00044 0.985341
1.00522 0.99916 0.986467
1.00519 0.998769 0.986939
1.0008 1.00422 0.989168
1.00086 1.00464 0.988515
1.00023 1.00369 0.990693
1.00519 0.998916 0.987017
1.0052 0.998987 0.986966
1.00521 0.997468 0.988287
1.00522 0.997913 0.987793
1.00521 0.998486 0.987144
1.00516 0.99679 0.988922
1.00123 1.00414 0.988451
1.00518 0.997854 0.98772
1.00369 1.00282 0.985562
1.00517 1.00122 0.984391
1.00521 1 0.985737
1.00512 0.997912 0.987876
1.00019 1.00284 0.991588
1.0015 1.00406 0.988111
1.00044 1.005 0.988866
1.00179 1.00384 0.988152
1.00447 1.00013 0.98679
0.999784 0.999472 0.995576
0.999883 1.00111 0.993719
1.00002 1.00388 0.990725
1.00419 1.00051 0.986899
1.00517 1.00012 0.985605
1.00129 1.00434 0.988142
1.00393 1.00282 0.985034
1.00491 1.00077 0.985467
1.00496 1.00088 0.984842
0.999889 0.998989 0.995925
1.00077 1.00412 0.98934
1.00005 1.0025 0.992165
1.00041 1.00489 0.989233
1.00519 0.999838 0.985869
1.00506 1.00041 0.985488
1.00519 0.999497 0.986182
1.00257 1.00409 0.986303
1.00516 1.00054 0.985315
1.00464 1.00191 0.9847
1.00519 1.00097 0.984687
1.00001 0.998651 0.996055
1.00022 1.00138 0.993045
1.00139 1.00448 0.988045
1.00025 1.00412 0.990416
1.00112 1.00428 0.988789
1.00519 0.999009 0.986706
1.00517 0.999989 0.985676
1.00513 0.998682 0.987003
1.00328 1.00321 0.985833
1.00516 1.00015 0.985627
1.0045 1.00188 0.98441
1.00029 1.00057 0.993715
1.00026 1.00188 0.992498
1.00022 1.00051 0.993893
1.00026 1.0005 0.993813
1.00012 0.998262 0.996749
1.00009 0.998425 0.996416
0.999853 0.997316 0.997966
0.999703 0.997467 0.999118
0.999617 0.997654 0.999101
0.999837 0.999747 0.995221
0.999649 0.998349 0.998818
0.999837 1.00045 0.994555
0.99971 0.99885 0.998556
0.999914 1.00106 0.993865
0.999801 0.999291 0.998295
1.00449 1.00001 0.986869
1.00446 0.999771 0.987185
1.00522 0.999297 0.986412
1.0052 0.998881 0.986884
1.00441 0.999627 0.987417
1.0019 0.999938 0.991421
1.00439 0.999614 0.987459
1.0052 0.998765 0.987
1.00521 0.999057 0.986686
1.00521 0.997126 0.988682
1.00522 0.999553 0.986142
1.00522 0.998012 0.987719
1.0052 0.998746 0.987026
1.00518 0.996885 0.98901
1.00522 0.997533 0.988221
1.00517 0.995747 0.990007
1.0052 0.998533 0.987216
1.0052 0.996356 0.989181
1.0044 0.999516 0.987397
1.00444 0.999748 0.987751
1.0052 0.998792 0.987191
1.00521 0.999411 0.986486
1.00027 1.00182 0.992527
1.00215 1.00339 0.987587
1.00468 1.00123 0.985263
1.0052 0.999744 0.98618
1.00522 0.998019 0.987757
1.00522 0.999153 0.986487
1.00522 1.0004 0.985346
1.00519 0.998721 0.986931
1.00088 1.00411 0.989161
1.00082 1.00461 0.988536
1.00026 1.00357 0.990696
1.00519 0.998862 0.987003
1.00521 0.998988 0.986957
1.00521 0.997223 0.988571
1.00522 0.998011 0.9877
1.00129 1.00411 0.988422
1.0037 1.00279 0.985561
1.00515 1.00131 0.98441
1.00522 0.998678 0.986956
1.00517 0.996583 0.989138
1.0052 0.99999 0.985665
1.00518 0.997869 0.98773
1.00513 0.99779 0.988001
1.0016 1.00402 0.988097
1.00173 1.00388 0.988131
1.00022 1.0028 0.991577
1.00037 1.00491 0.988967
1.00519 0.997158 0.988692
1.00522 0.99764 0.988179
1.00514 0.995987 0.98981
1.00518 0.995921 0.989689
1.00516 0.997083 0.988552
1.00514 0.99589 0.989913
1.00247 1.00367 0.986873
1.00512 0.996501 0.988983
1.00441 1.00259 0.984407
1.00514 1.00136 0.984337
1.00518 0.999501 0.986022
1.00513 0.997532 0.988198
1.00015 1.00204 0.992415
1.00024 1.00457 0.989618
1.00228 1.00327 0.987549
1.00072 1.00504 0.988526
1.00214 1.00312 0.988349
0.999897 0.998936 0.995945
1.0052 0.999844 0.985854
1.00002 1.00244 0.992194
1.00063 1.00432 0.989351
1.00029 1.00501 0.98919
1.00509 1.00039 0.985462
1.00518 0.999499 0.986172
1.00258 1.00391 0.986331
1.00473 1.00173 0.984714
1.00517 1.00059 0.985295
1.0052 1.00101 0.984658
1.00002 0.998632 0.996065
1.00018 1.00139 0.993069
1.00139 1.0044 0.988061
1.0001 1.00419 0.990407
1.00095 1.00422 0.988794
1.00519 0.999002 0.986694
1.00518 0.999989 0.985656
1.00513 0.998656 0.986973
1.00332 1.00318 0.985849
1.00518 1.00019 0.985498
1.00482 1.0018 0.984372
1.00029 1.00081 0.993499
1.00022 1.00297 0.991578
1.00205 1.00351 0.987794
1.00039 1.00486 0.989565
1.00147 1.00327 0.989165
1.00516 0.997989 0.98768
1.00513 0.999341 0.986291
1.0051 0.997978 0.987379
1.0033 1.00236 0.986336
1.00498 1.00103 0.984705
1.00029 1.00056 0.993711
1.00026 1.00183 0.992446
1.00019 1.00195 0.992455
1.00027 1.00252 0.991979
1.0002 1.00195 0.992522
1.00015 1.00057 0.993931
1.00021 1.00051 0.993894
1.00014 0.998202 0.996777
1.00026 1.00052 0.993811
1.00013 0.998287 0.996753
0.999946 0.997094 0.997997
1.00008 0.998424 0.996709
0.999816 0.997275 0.99855
0.999712 0.997413 0.999121
0.999885 0.999134 0.995755
0.999832 0.99981 0.995193
0.999646 0.997945 0.99898
0.999684 0.998438 0.998744
0.999842 1.00053 0.994531
0.999764 0.998901 0.998486
1.00521 0.999562 0.986132
1.00521 0.999059 0.986677
1.00523 0.998019 0.987702
1.00521 0.996969 0.988836
1.0052 0.998768 0.986999
1.0044 0.999614 0.98746
1.00519 0.998747 0.987027
1.00519 0.996874 0.989023
1.00522 0.997543 0.98821
1.00517 0.995601 0.990164
1.00521 0.998523 0.987194
1.0052 0.996257 0.98931
1.00517 0.996901 0.989021
1.00517 0.995557 0.990248
1.00519 0.995666 0.989989
1.00518 0.99501 0.990659
1.00518 0.997179 0.988462
1.00519 0.995439 0.990123
1.00519 0.998803 0.986989
1.00521 0.998995 0.986949
1.0052 0.996969 0.988856
1.00522 0.998107 0.987607
1.00136 1.00409 0.988393
1.00373 1.00276 0.985558
1.00508 1.00134 0.984429
1.00522 0.998871 0.986768
1.00517 0.996377 0.989355
1.00518 0.997884 0.987741
1.0052 0.999991 0.985593
1.00514 0.997666 0.988126
1.00156 1.00405 0.988084
1.0015 1.00395 0.988109
1.00026 1.00278 0.991566
1.00031 1.00486 0.989068
1.00519 0.997166 0.988689
1.00521 0.997737 0.988051
1.00515 0.995771 0.990043
1.00518 0.996005 0.989588
1.00238 1.00389 0.986833
1.00438 1.00252 0.984448
1.00515 1.00135 0.984305
1.00516 0.99728 0.988343
1.00513 0.995602 0.990104
1.00516 0.99955 0.985997
1.00514 0.99652 0.988981
1.00513 0.997264 0.988358
1.0024 1.0032 0.98752
1.00206 1.00305 0.988432
1.00071 1.00505 0.988501
1.00016 1.00204 0.992345
1.00015 1.00456 0.989744
1.00515 0.995479 0.990429
1.00518 0.995672 0.990089
1.00516 0.995095 0.990453
1.00513 0.995765 0.98974
1.00314 1.00341 0.98596
1.00516 0.996033 0.989605
1.00499 1.00231 0.983624
1.00502 1.0013 0.984471
1.00513 0.99918 0.986237
1.00006 1.00129 0.993132
1.00008 1.00394 0.990733
1.00048 1.00488 0.989207
1.00268 1.00288 0.987394
1.00097 1.00478 0.988084
1.00236 1.0023 0.988184
1.00002 0.998619 0.996077
1.00016 1.00138 0.993092
1.00519 0.998996 0.986682
0.999941 1.00429 0.990399
1.00127 1.0045 0.988077
1.00078 1.00417 0.988797
1.00519 0.99999 0.985636
1.00512 0.998631 0.986942
1.00337 1.00313 0.985864
1.00511 1.00175 0.984331
1.00521 1.00022 0.98537
1.00027 1.00081 0.993506
1.0001 1.00303 0.991602
1.00209 1.00352 0.987753
1.00021 1.00494 0.989533
1.00138 1.00309 0.989277
1.00515 0.998003 0.987656
1.00513 0.999343 0.986266
1.00509 0.998014 0.987435
1.00349 1.00229 0.986094
1.00499 1.00108 0.984759
1.00023 1.00219 0.992284
0.999803 1.00435 0.990534
1.00275 1.0019 0.988186
1.00033 1.00464 0.989531
1.00201 1.00188 0.989275
1.00511 0.996513 0.988918
1.00509 0.999445 0.986155
1.00506 0.997851 0.987476
1.0041 1.00168 0.985848
1.0048 1.00086 0.985095
1.00029 1.00055 0.993708
1.00026 1.00185 0.992469
1.00008 1.00251 0.99205
1.00014 1.002 0.992412
1.00016 1.00201 0.992516
1.00015 1.0026 0.991936
1.0001 1.00282 0.991882
1.0001 1.00281 0.991706
1.00012 1.00209 0.992524
1.00009 1.00069 0.993927
1.00015 1.00057 0.993931
1.00013 0.998207 0.996783
1.00021 1.00049 0.993894
1.00014 0.998227 0.996778
1.00001 0.996971 0.998009
1.00013 0.998299 0.996759
0.999935 0.997063 0.998004
0.999775 0.997228 0.999146
0.999936 0.99866 0.996156
0.999874 0.999213 0.99572
0.999674 0.997629 0.999086
0.999826 0.999892 0.995166
0.999673 0.998038 0.998931
0.99973 0.998508 0.998677
1.00521 0.998513 0.987173
1.00522 0.997557 0.988198
1.0052 0.996163 0.98944
1.00517 0.995459 0.990321
1.00519 0.996863 0.989035
1.00519 0.998748 0.987028
1.00517 0.997012 0.98889
1.00516 0.995587 0.990253
1.00519 0.995695 0.989984
1.00518 0.994996 0.990682
1.00518 0.99722 0.988454
1.00518 0.99525 0.990277
1.00516 0.995416 0.99047
1.00518 0.994965 0.990799
1.00519 0.995002 0.990582
1.00517 0.995556 0.989967
1.00518 0.997174 0.988685
1.00521 0.997829 0.987923
1.00515 0.995562 0.990275
1.00519 0.996097 0.989487
1.0024 1.00399 0.986792
1.00441 1.00246 0.98449
1.00515 1.00137 0.984273
1.00516 0.997475 0.988134
1.00513 0.995314 0.990293
1.00515 0.996539 0.988979
1.00515 0.999591 0.985971
1.00513 0.997009 0.988517
1.00252 1.00317 0.98749
1.00206 1.00279 0.988514
1.00069 1.00506 0.988474
1.00017 1.00202 0.992277
1.00012 1.00447 0.98987
1.00516 0.995485 0.990414
1.00518 0.995686 0.99003
1.00515 0.995205 0.990381
1.00313 1.00349 0.985944
1.00477 1.00238 0.983711
1.00504 1.00121 0.984458
1.00514 0.995779 0.98973
1.00513 0.998953 0.986547
1.00515 0.996 0.989456
1.00008 1.00116 0.993254
1.00286 1.00267 0.987317
1.00216 1.00203 0.988819
1.00114 1.0049 0.988012
1.0005 1.00492 0.989244
1.0001 1.00389 0.990668
1.0052 0.994985 0.990642
1.00517 0.995118 0.99054
1.00515 0.994957 0.990421
1.00516 0.995233 0.990262
1.00396 1.0029 0.985211
1.00511 0.997141 0.988293
1.00508 1.00255 0.983049
1.00496 1.00141 0.984266
1.00014 1.00031 0.994012
1.00006 1.00293 0.9918
1.00028 1.00452 0.989956
1.00081 1.00504 0.988406
1.00285 1.00261 0.986867
1.00217 1.00362 0.987427
1.00025 1.0008 0.993513
1.00001 1.00306 0.991625
1.00515 0.998016 0.987631
1.00002 1.00502 0.989502
1.00214 1.00352 0.987711
1.0011 1.00301 0.989393
1.00513 0.999345 0.98624
1.00509 0.998056 0.98749
1.0037 1.00226 0.98585
1.00503 1.00112 0.984813
1.00018 1.0022 0.992297
0.999884 1.00444 0.990479
1.00284 1.00194 0.988138
1.00014 1.00482 0.98957
1.00186 1.00157 0.989742
1.00512 0.996467 0.989103
1.00509 0.999434 0.986239
1.00507 0.997951 0.987451
1.00404 1.00188 0.985701
1.00488 1.0009 0.984946
0.999861 1.00302 0.991778
0.999764 1.00504 0.989688
1.00337 1.00094 0.987935
1.00096 1.00325 0.988892
1.00518 0.995289 0.989962
1.00506 0.99688 0.988889
1.00495 0.999802 0.985831
1.00436 1.00091 0.985316
1.00028 1.00184 0.992492
1.00011 1.00251 0.992059
0.999836 1.00299 0.992239
1.00012 1.00208 0.99251
1.00004 1.00268 0.991893
1.0001 1.00211 0.992516
1.00003 1.00279 0.991938
1.00013 1.00279 0.99174
0.999987 1.00252 0.992327
1.00007 1.00316 0.991504
1.00012 1.00301 0.991483
1.00009 1.00219 0.992455
1.00004 1.0008 0.99388
1.00009 1.00067 0.993926
1.00012 0.998241 0.996781
1.00015 1.00055 0.993931
1.00014 0.998239 0.996782
1.00004 0.996909 0.998007
1.00015 0.998253 0.996781
1 0.996937 0.998015
0.99992 0.99704 0.998006
1.00003 0.998246 0.996423
0.999943 0.998698 0.996123
0.999732 0.997295 0.999162
0.999861 0.999292 0.995684
0.999688 0.997676 0.999058
0.999705 0.998117 0.998862
1.00517 0.997261 0.988446
1.00519 0.99573 0.989979
1.00518 0.995054 0.99043
1.00518 0.994973 0.990706
1.00515 0.995615 0.990257
1.00517 0.997127 0.98876
1.00516 0.995529 0.990357
1.00519 0.994962 0.990792
1.00518 0.995051 0.99055
1.00517 0.995461 0.99006
1.0052 0.994943 0.990792
1.00518 0.994952 0.990716
1.00519 0.994953 0.990494
1.00517 0.99549 0.9904
1.00518 0.995692 0.989971
1.00515 0.995316 0.990311
1.0031 1.00358 0.985928
1.00463 1.00243 0.983794
1.00507 1.00114 0.984444
1.00514 0.995795 0.989722
1.00513 0.995945 0.989307
1.00513 0.998723 0.986857
1.00304 1.00249 0.987237
1.00191 1.00188 0.989452
1.00135 1.00503 0.987941
1.00009 1.00107 0.993376
1.00039 1.00496 0.98928
1.00011 1.00385 0.990602
1.0052 0.995003 0.990674
1.00517 0.995022 0.990582
1.00514 0.995022 0.990457
1.00379 1.00305 0.985189
1.00491 1.00259 0.983119
1.00497 1.00121 0.984581
1.00515 0.995222 0.990219
1.00511 0.997084 0.988228
1.00012 1.00028 0.994173
1.00007 1.00291 0.991799
1.0026 1.00245 0.987271
1.00201 1.00368 0.987933
1.00076 1.00504 0.988578
1.00025 1.00457 0.989894
1.00517 0.994932 0.990757
1.00516 0.994927 0.990527
1.00514 0.995004 0.990469
1.0051 0.995073 0.990132
1.00417 1.0031 0.983765
1.00476 1.00047 0.985557
1.00503 1.0028 0.983003
1.00021 0.999861 0.994557
1.00022 1.00098 0.993471
1.0001 1.00174 0.992763
1.00003 1.004 0.990717
1.0003 1.0049 0.989237
1.00058 1.0046 0.988644
1.0027 1.0018 0.987525
1.00205 1.00361 0.988752
1.00012 1.00226 0.992311
0.999961 1.00456 0.990425
1.00514 0.99641 0.989289
1.0002 1.00486 0.989606
1.00293 1.00202 0.988091
1.00169 1.00132 0.990205
1.00508 0.999408 0.986325
1.00508 0.998035 0.987428
1.00396 1.00202 0.985559
1.00493 1.00094 0.984799
0.999893 1.00311 0.991668
0.999877 1.00499 0.989764
1.00336 1.001 0.988022
1.0013 1.00334 0.989017
1.00518 0.995221 0.990072
1.00507 0.996892 0.988706
1.00498 0.999754 0.98584
1.00466 1.00097 0.985175
0.999708 1.00377 0.991329
1.00522 0.9949 0.990291
1.0008 1.00483 0.98906
1.00347 1.00144 0.987236
1.00513 0.995741 0.990022
1.00506 0.998429 0.98618
1.00495 1.0012 0.984817
1.00011 1.00255 0.992067
0.9998 1.00295 0.992204
0.999517 1.00294 0.992844
1.00011 1.00208 0.992509
1.00014 1.00278 0.991774
0.999824 1.0029 0.991995
1.00009 1.00218 0.992443
1.00008 1.00302 0.991507
0.999787 1.00265 0.992409
1.00016 1.00306 0.991518
0.999955 1.0022 0.992955
0.999896 1.00296 0.991996
1.00018 1.00352 0.990998
1.00026 1.00305 0.991264
1.00011 1.00234 0.99227
0.999999 1.00095 0.993796
1.00003 1.00084 0.993874
1.00009 0.998326 0.996747
1.00009 1.00069 0.993924
1.00012 0.998282 0.996778
1.00006 0.996875 0.998011
1.00014 0.998271 0.996782
1.00004 0.996876 0.998011
0.999997 0.996907 0.998018
1.0002 0.999855 0.994608
1.00009 0.998011 0.996562
1.00003 0.998278 0.996405
0.999821 0.997017 0.999208
0.999945 0.998747 0.99609
0.999738 0.997382 0.999141
0.999707 0.997752 0.999029
1.00518 0.995371 0.990153
1.00517 0.995102 0.990518
1.0052 0.994959 0.990785
1.00516 0.995638 0.990243
1.0052 0.994936 0.990818
1.00517 0.994951 0.990734
1.00518 0.994974 0.990457
1.00517 0.994963 0.990765
1.00521 0.994947 0.990565
1.00525 0.994926 0.990888
1.0052 0.995023 0.990706
1.00517 0.99493 0.990624
1.00514 0.995079 0.990492
1.00354 1.00319 0.985169
1.00486 1.0027 0.983196
1.00497 1.00099 0.984895
1.00515 0.995231 0.990177
1.00511 0.997029 0.988164
1.00237 1.00237 0.987678
1.00193 1.00372 0.988435
1.00055 1.00504 0.98875
1.00011 1.00022 0.994335
1.00012 1.00287 0.991798
1.00023 1.00467 0.98983
1.00518 0.994935 0.990735
1.00019 0.999881 0.994551
1.00017 1.00103 0.993396
1.00516 0.994919 0.99054
1.00514 0.994995 0.990466
1.00395 1.00328 0.984127
1.00498 1.00275 0.983139
1.00483 1.00023 0.98549
1.00509 0.995261 0.990071
1.00008 1.00176 0.992949
1.00009 1.00396 0.990691
1.00296 1.0024 0.987153
1.00144 1.0036 0.989149
1.00064 1.00461 0.988821
1.00027 1.00495 0.989317
1.00521 0.994939 0.990512
1.00516 0.994858 0.990536
1.00511 0.994926 0.990224
1.0047 0.995895 0.989843
1.00371 1.00328 0.984723
1.00436 1.0034 0.983864
1.0001 1.00125 0.993214
1.00018 1.00108 0.993421
1.00041 1.00149 0.992793
1.00015 1.00296 0.991401
1.00003 1.00471 0.990161
1.00113 1.00436 0.988593
0.999911 1.00484 0.989245
1.0021 1.00122 0.989101
0.999928 1.00318 0.991559
1.00007 1.00492 0.989844
1.00518 0.995163 0.990181
1.00508 0.996939 0.988524
1.00162 1.00342 0.989143
1.00336 1.00103 0.988107
1.005 0.999726 0.985848
1.00495 1.00106 0.985031
0.999806 1.00376 0.99128
1.00522 0.994908 0.99041
1.00059 1.00479 0.989114
1.00352 1.00142 0.987069
1.00513 0.995622 0.990008
1.00503 0.998558 0.986457
1.00488 1.00123 0.984856
0.999871 1.00466 0.990631
1.00453 0.995088 0.991625
1.00214 1.00339 0.988503
1.00402 1.00181 0.986264
1.00483 0.996476 0.989322
1.00384 1.00113 0.985772
0.998692 0.99748 0.990333
0.999724 1.00297 0.99217
0.999343 1.00308 0.992825
0.999628 1.0031 0.992816
1.00007 1.00221 0.992431
1.00007 1.00306 0.991532
1.00028 1.00293 0.991533
0.999675 1.00266 0.99249
1.0001 1.00234 0.99227
1.00022 1.00313 0.991252
0.999934 1.00217 0.992875
1.00014 1.00358 0.991003
1.00002 1.00289 0.991897
0.999928 1.00245 0.992622
1.00027 1.00362 0.990753
1.00018 1.00369 0.990858
1.00037 1.00322 0.990944
1.00014 1.00248 0.991942
1.00025 1.00294 0.991578
1.00015 1.00253 0.991834
0.999994 1.00098 0.993759
0.999997 1.00096 0.99379
1.00009 0.998423 0.996133
1.00003 1.00082 0.993867
1.0001 0.998375 0.996448
1.00003 0.996874 0.999145
1.00012 0.998322 0.996775
1.00006 0.996837 0.998016
1.00004 0.996844 0.998012
1.00014 0.999849 0.994676
1.0002 0.99981 0.994618
1.0001 0.997893 0.996669
1.00007 0.998016 0.996819
0.999892 0.996836 0.999239
1.00002 0.998311 0.996387
0.999812 0.997083 0.999197
0.999745 0.997427 0.999121
1.00518 0.99499 0.990421
1.00517 0.99495 0.990751
1.0052 0.994931 0.990844
1.00518 0.994962 0.990767
1.00521 0.994943 0.990568
1.00524 0.994928 0.990528
1.00526 0.994957 0.990504
1.00106 0.994854 0.986525
1.00444 0.994886 0.993044
1.00003 1.00129 0.993428
1.00519 0.994937 0.990713
1.00516 0.994913 0.990553
1.00514 0.994986 0.990463
1.00371 1.00332 0.984483
1.00494 1.00268 0.983274
1.00491 1.00003 0.985429
1.00509 0.995447 0.990008
1.00339 1.0026 0.986785
1.00078 1.00358 0.989553
1.00077 1.00461 0.988998
1.00017 0.999921 0.994546
1.00027 1.00499 0.989397
1.00006 1.00174 0.993133
1.00018 1.0039 0.990666
1.00016 1.00102 0.993321
1.00521 0.994933 0.990516
1.00011 1.00121 0.993312
1.00016 1.00112 0.993416
1.00036 1.00151 0.992742
1.00516 0.994878 0.990518
1.00513 0.994919 0.990252
1.00388 1.00318 0.984762
1.00428 1.00272 0.984433
1.00462 0.996375 0.989739
1.00005 1.00302 0.991553
1.00014 1.00461 0.989999
1.00204 1.00207 0.988809
1.00035 1.00471 0.989285
1.001 1.00426 0.988711
1.00521 0.995081 0.990565
1.00515 0.994863 0.990551
1.00508 0.995512 0.989781
1.0044 0.998254 0.989016
1.00192 1.00348 0.988081
1.00011 1.00218 0.992272
1.0004 1.0017 0.992276
1.00016 1.00227 0.992056
0.999902 1.00443 0.990947
1.00008 1.00467 0.989746
1.00025 1.00457 0.989268
1.00071 1.00321 0.98966
0.999961 1.00368 0.991227
1.00028 1.00475 0.989165
1.00523 0.994905 0.990522
1.00513 0.995461 0.989992
1.00502 0.998716 0.986734
1.00361 1.00138 0.986903
1.00484 1.0012 0.984898
0.999969 1.00453 0.990731
1.00448 0.995088 0.991737
1.00185 1.00338 0.988518
1.0038 1.00186 0.98622
1.00497 0.995999 0.989583
1.00404 1.00131 0.985756
0.998703 0.997718 0.988188
1.00006 1.00445 0.990471
1.00269 0.99791 0.991622
1.00181 1.00267 0.988949
1.00251 1.00168 0.987726
1.00366 0.997476 0.989424
1.00008 0.995244 0.952543
0.997038 0.994902 0.971388
0.996451 1.002 0.989585
0.999791 0.996312 0.894873
0.99468 0.996235 0.868662
0.999193 1.00323 0.992807
0.999218 1.00332 0.992936
0.999613 1.00312 0.992595
1.00009 1.00235 0.992269
1.00028 1.00303 0.991238
1.00011 1.00363 0.991009
1.00015 1.00282 0.991798
0.99987 1.00213 0.992795
1.00022 1.00364 0.990824
1.00015 1.00246 0.992014
1.00035 1.0032 0.990971
0.999943 1.00237 0.992521
1.00017 1.00365 0.990896
1.0002 1.00381 0.990873
0.999703 1.00349 0.991597
1.00027 1.00376 0.990638
1.00035 1.00322 0.990901
1.00019 1.00251 0.991815
1.00032 1.00325 0.991053
1.00015 1.00313 0.991483
1.00011 1.00288 0.991728
1.00023 1.00296 0.991517
1.00022 1.00221 0.992218
1.00017 1.00254 0.99182
1.00005 1.00092 0.993741
1 1.00099 0.993757
1.00008 0.998483 0.996117
0.999987 1.00099 0.993785
1.00009 0.998438 0.996131
1.00002 0.99687 0.999144
1.0001 0.998427 0.99615
1.00004 0.996871 0.998565
1.00006 0.996799 0.998019
1.00007 0.999874 0.994767
1.00015 0.999837 0.99468
1.00011 0.997801 0.996757
1.00021 0.999773 0.994628
1.0001 0.997851 0.996926
0.999942 0.996672 0.999269
1.00009 0.998049 0.996537
0.999882 0.996913 0.999224
0.999807 0.997151 0.999186
1.00521 0.994938 0.99057
1.00518 0.994962 0.990768
1.00524 0.994933 0.990171
1.00087 0.994951 0.98665
1.00525 0.994955 0.990504
1.00431 0.995246 0.992639
1.00503 0.996178 0.991121
0.996749 0.994882 0.970411
1.00054 0.996812 0.988431
1.00005 1.00132 0.993383
1.00009 1.00124 0.99342
1.00003 1.00228 0.992446
1.00001 1.00222 0.992537
1.0052 0.994929 0.990519
1.00515 0.994892 0.990501
1.00513 0.994913 0.990279
1.00435 1.00291 0.984799
1.00412 1.00187 0.984996
1.00455 0.996889 0.98963
1.00177 1.00316 0.988514
1.00091 1.00457 0.989324
1.00087 1.0041 0.988828
1.00012 1.0012 0.99341
1.0002 1.00457 0.989834
1.00006 1.00305 0.991707
1.00011 1.00121 0.99341
1.00027 1.00157 0.992688
1.00522 0.99501 0.990564
1.00014 1.00219 0.992357
1.00038 1.00169 0.992458
0.99992 1.00222 0.992521
1.00516 0.994855 0.990456
1.00494 0.99547 0.989804
1.00253 1.00261 0.98799
1.00405 0.998044 0.989446
1.00001 1.00423 0.99078
1.00022 1.00485 0.989349
1.00083 1.0038 0.989554
1.00089 1.00432 0.989146
1.0046 0.995016 0.99144
1.0051 0.995594 0.99019
1.00502 0.996098 0.989593
1.00201 0.999604 0.991635
0.999894 1.00325 0.991632
1.00023 1.00281 0.99148
0.999297 1.00478 0.991102
0.999569 1.00471 0.99016
0.999993 0.994885 0.944352
1.00001 1.00446 0.990831
1.00145 1.00348 0.988531
1.00447 0.995017 0.991852
1.0051 0.995595 0.989842
1.00414 1.00141 0.985732
1.00356 1.00199 0.986171
0.998801 0.997669 0.985982
0.999942 1.00462 0.990621
1.00282 0.99761 0.991662
1.00175 1.00274 0.988955
1.00309 1.00118 0.987685
1.00395 0.997508 0.989414
1.00117 0.995366 0.942806
0.996861 0.994961 0.967058
0.99647 1.00231 0.98939
0.999776 0.996308 0.89848
0.994695 0.996239 0.857698
0.999748 1.00392 0.991506
0.99983 0.994918 0.905254
0.994773 0.995927 0.868854
1.00153 1.00006 0.991338
1.00096 1.00242 0.990316
1.00198 1.00076 0.98943
0.996368 1.0028 0.989572
1.00069 0.996707 0.948833
0.994915 0.995979 0.964785
0.997713 0.998671 0.903846
0.99478 0.996926 0.863796
0.998934 1.00352 0.993054
0.999448 1.00329 0.992515
0.999433 1.00322 0.993115
1.00016 1.00242 0.992084
1.00035 1.00323 0.990998
1.00005 1.0038 0.990791
1.00007 1.00368 0.99104
1.00001 1.00227 0.992419
1.00019 1.0025 0.991823
1.00007 1.00394 0.990825
1.00026 1.00376 0.990629
1.00039 1.00316 0.990966
0.999695 1.00353 0.991643
0.999923 1.004 0.991235
0.999087 1.00426 0.991654
1.00039 1.00364 0.990512
1.00042 1.00329 0.990841
1.00037 1.00322 0.991029
1.00013 1.00311 0.991547
1.00039 1.00335 0.990862
1.00001 1.00318 0.991617
0.999744 1.00303 0.9918
0.999716 1.00423 0.990964
0.999944 1.0032 0.991666
1.00014 1.00286 0.991724
1.00015 1.00212 0.992418
1.00022 1.00297 0.991455
1.00023 1.00221 0.99215
1.00013 1.00084 0.993707
1.00019 1.00255 0.991806
1.00004 1.00093 0.993745
1.0001 0.998435 0.99671
0.999991 1.00101 0.993756
1.00008 0.998451 0.996416
1.00007 0.996884 0.997965
1.00008 0.998452 0.996129
1.00002 0.996881 0.999143
1.00007 0.996879 0.997983
1.00009 1.00141 0.993212
1.00001 0.999934 0.994793
1.00007 0.999861 0.994769
1.00011 0.997773 0.996787
1.00016 0.999812 0.994684
1.00012 0.997762 0.996759
0.999981 0.996569 0.999286
1.00009 0.997853 0.997159
0.999958 0.996757 0.998751
0.999925 0.996962 0.998183
1.00052 0.995152 0.986795
1.00523 0.994962 0.990505
1.00413 0.995986 0.992228
0.996721 0.994867 0.971636
1.00047 0.9965 0.988721
1.00506 0.99584 0.990968
1.00309 0.99726 0.988473
0.996517 0.996863 0.974433
1.00003 0.995599 0.949716
0.999386 0.997957 0.907502
0.994644 0.996582 0.86689
0.999935 1.0023 0.99245
1.00008 1.0013 0.993379
1.00015 1.00117 0.993412
1.00004 1.00227 0.992443
0.999783 1.00323 0.991912
1.00022 1.00252 0.99186
1.00003 1.0027 0.992173
0.999996 1.00231 0.992437
1.00522 0.994909 0.99056
1.00517 0.994859 0.990359
1.00488 0.995334 0.989829
1.00277 1.0021 0.987906
1.00374 0.997934 0.989882
1.00097 1.00441 0.989445
1.00144 1.00417 0.989025
1.00048 1.00498 0.988956
1.00028 1.00167 0.992643
1.00002 1.00427 0.990611
1.00018 1.00222 0.992443
0.999819 1.00215 0.992984
1.00464 0.994931 0.991562
0.99988 1.0033 0.991687
1.00018 1.00294 0.991625
1.00503 0.995388 0.990149
1.00483 0.995661 0.989749
1.00198 0.999578 0.991277
0.999661 1.00499 0.990602
1.00024 1.00436 0.990241
1.00333 0.995824 0.991838
1.00462 0.996496 0.99043
1.00456 0.995148 0.991038
1.00158 0.999225 0.992358
0.999966 1.0044 0.990415
0.99956 1.00427 0.991119
0.999497 1.00506 0.990848
0.999861 0.994844 0.906745
1.00052 0.99495 0.954264
0.99988 1.0047 0.990772
1.00172 1.00266 0.988965
1.00287 0.997359 0.991708
1.00428 0.997637 0.989406
1.00374 1.00068 0.987656
1.00028 0.994924 0.95105
0.997191 0.995168 0.966326
0.996526 1.00259 0.989152
0.999548 0.996684 0.909058
0.994704 0.996336 0.846363
0.999776 1.00384 0.991487
0.999838 0.995638 0.904075
0.99477 0.995971 0.863315
1.00156 1.00003 0.991388
1.00106 1.00227 0.990375
1.00216 1.00051 0.990109
0.996574 1.00296 0.990191
1.00172 0.99672 0.942067
0.994916 0.995493 0.968615
0.99849 0.999143 0.903915
0.994792 0.99657 0.861978
0.999417 1.00356 0.992852
0.994928 0.996012 0.866721
0.994797 0.996468 0.881202
0.999291 1.00192 0.993599
0.999568 1.00283 0.993022
0.995773 1.00263 0.990091
0.994858 0.99813 0.967907
0.99806 0.999016 0.939514
0.994836 0.999799 0.909606
0.994844 0.994799 0.867925
0.999402 1.00343 0.992436
0.999601 1.00285 0.99303
0.998334 1.00435 0.992951
1.0002 1.00248 0.99183
1.00041 1.00311 0.991031
1.00026 1.00374 0.990619
0.999986 1.00407 0.990776
0.999603 1.00363 0.99169
1.0004 1.00332 0.990836
0.999949 1.00386 0.991129
1.00041 1.0036 0.990541
0.99882 1.00451 0.991829
0.997165 1.00502 0.993906
1.00005 1.00388 0.990918
1.00063 1.00381 0.990059
1.0004 1.00319 0.991005
1.00016 1.00302 0.991611
1.00039 1.0034 0.99082
1.00004 1.00318 0.991582
0.99976 1.00296 0.992046
0.999759 1.00381 0.991335
0.999838 1.00362 0.991232
0.99959 1.00301 0.992241
1.00026 1.00282 0.99153
1.00027 1.00443 0.989335
0.99958 1.00453 0.990737
0.999796 1.00418 0.990959
0.999792 1.00371 0.991402
0.999976 1.00321 0.991655
1.00003 1.00225 0.992431
1.00013 1.00291 0.99172
1.00015 1.00211 0.992425
1.0002 1.00069 0.993696
1.00024 1.00222 0.992082
1.00013 1.00082 0.993718
1.00013 0.998412 0.996678
1.00004 1.00093 0.993749
1.00011 0.998405 0.99641
1.00006 0.996834 0.997975
1.0001 0.998421 0.996123
1.00002 0.996886 0.99914
1.00002 0.996881 0.999142
1.00012 1.00164 0.993199
1 1.00006 0.994697
1.00008 1.00144 0.993218
1.00011 0.99778 0.996776
1.00002 0.999932 0.994796
1.00008 0.999865 0.994772
1.00011 0.997762 0.996784
1.00001 0.99651 0.999288
1.0001 0.997737 0.997237
0.999999 0.996583 0.998795
0.99998 0.996766 0.998264
0.999848 0.995648 0.896487
0.994667 0.996059 0.866295
0.998068 0.99487 0.971596
1.0005 0.995522 0.989035
1.00512 0.995138 0.990818
0.996205 0.995885 0.975461
1.00336 0.99629 0.988832
1.00124 0.995867 0.948463
0.99983 0.996911 0.89689
0.994671 0.996538 0.855916
0.998665 0.994923 0.979145
1.00002 0.997588 0.949327
0.998168 0.999012 0.902068
0.99476 0.996103 0.863842
1.00003 1.0033 0.991465
0.999929 1.00227 0.992532
1.00012 1.00125 0.993375
1.00002 1.00225 0.992441
0.999767 1.00306 0.992106
1.00002 1.00358 0.991266
1.00015 1.00279 0.991801
1.00025 1.0031 0.991215
1.00007 1.00265 0.992071
0.999963 1.00243 0.99234
1.00468 0.99487 0.991684
1.00505 0.995103 0.990123
1.00441 0.99538 0.989903
1.0018 0.999699 0.99092
1.00077 1.00422 0.990323
0.999838 1.00511 0.990101
1.00015 1.00295 0.991772
0.999822 1.00338 0.991739
1.00332 0.995495 0.992107
0.999913 1.00463 0.990287
0.999499 1.00437 0.991023
1.00478 0.996021 0.990282
1.00442 0.995301 0.990882
1.00143 0.999282 0.992415
0.999747 1.0049 0.990833
1.00072 0.997161 0.992326
1.00297 0.995975 0.993816
1.00039 1.00111 0.992595
0.999454 1.00476 0.990159
0.999619 1.00503 0.990142
0.99929 1.0051 0.990955
0.994745 0.996164 0.883154
0.999845 0.994865 0.910029
1 0.994898 0.944633
0.999626 1.0039 0.991466
1.00117 1.00216 0.990429
1.00157 1.00002 0.991439
1.00237 1.00027 0.990784
0.999826 0.995166 0.911884
1.00008 0.996517 0.942027
0.994892 0.994992 0.964943
0.996744 1.00212 0.990779
0.997914 0.998797 0.892998
0.994669 0.99596 0.865534
0.994779 0.99611 0.868738
0.999141 1.00345 0.992794
0.994754 0.995417 0.873487
0.994839 0.996545 0.880842
0.999325 1.00157 0.993713
0.999376 1.00271 0.993034
0.995722 0.999631 0.992905
0.994879 0.997685 0.966983
0.997423 0.999476 0.949394
0.997074 0.999908 0.897896
0.99482 0.994787 0.875142
0.997519 1.00381 0.995468
0.994831 0.995957 0.890523
0.994803 0.994768 0.885721
0.995694 1.00205 0.999624
0.994839 0.999616 0.974503
0.994907 0.999964 0.950183
0.994849 0.999463 0.894243
0.99487 0.994809 0.87333
0.999755 1.00247 0.992943
0.998597 1.00422 0.993282
0.996884 1.00507 0.995136
1.00036 1.00339 0.990831
1.00045 1.00356 0.990569
1 1.00364 0.991024
0.998556 1.00486 0.99201
1.00052 1.00392 0.990045
1.00002 1.00399 0.990861
0.997331 1.00493 0.994346
0.995177 1.00531 0.997164
0.998005 1.00473 0.993789
1.00036 1.00398 0.99035
1.00041 1.00343 0.990777
1.00005 1.00319 0.991547
0.999717 1.00296 0.992288
0.999847 1.00356 0.991364
0.999807 1.00378 0.991347
0.999596 1.00314 0.99229
0.999965 1.00328 0.991762
0.99839 1.00363 0.993575
1.0014 1.00001 0.991991
1.00028 1.00266 0.991661
1.00055 1.00349 0.990133
1.00206 1.00419 0.987093
0.999936 1.00481 0.990481
1.00012 1.00451 0.989705
0.999723 1.00444 0.990776
0.999632 1.00416 0.991042
0.999877 1.00413 0.990954
0.999896 1.0036 0.991402
0.999971 1.00264 0.992173
1.00008 1.00313 0.991645
1.0001 1.00222 0.992424
1.00023 1.00069 0.993665
1.00019 1.00208 0.992432
1.00021 1.00071 0.993702
1.00015 0.998394 0.996658
1.00013 1.00081 0.993729
1.00014 0.998394 0.996376
1.00004 0.996918 0.997943
1.00013 0.998381 0.996113
1.00004 0.996859 0.998558
1.00002 0.996873 0.999142
1.00015 1.00208 0.992492
1.00006 1.00019 0.994509
1.00008 1.00166 0.993022
1.00011 0.997842 0.996712
1.00001 1.00005 0.994699
1.00006 1.00148 0.993222
1.00003 0.996492 0.999283
1.00011 0.997778 0.996777
1.00002 0.999922 0.994798
1.00011 0.997752 0.99678
1.00001 0.996528 0.999288
0.999981 0.996569 0.999285
0.994688 0.994842 0.872694
0.999866 0.995454 0.903251
0.994811 0.996896 0.879969
0.994675 0.996114 0.863812
0.995946 0.995594 0.972858
1.00343 0.996167 0.989227
1.00006 0.996212 0.946626
0.999822 0.99721 0.90817
0.9947 0.99669 0.844693
0.998288 0.995653 0.978309
1.00141 0.997398 0.938368
0.998364 0.999335 0.902806
0.994786 0.996499 0.858359
0.995645 0.995917 0.973108
0.997716 0.998838 0.940066
0.995505 0.999865 0.89292
0.994842 0.994804 0.862806
1.00008 1.00413 0.990784
1 1.00319 0.991599
0.999915 1.00231 0.992612
0.99975 1.00292 0.992301
1.00039 1.00388 0.990174
1 1.00341 0.9914
1 1.00299 0.991742
1.00045 1.00306 0.991092
1.00028 1.00313 0.991299
1.00008 1.00258 0.991969
1.00342 0.994883 0.992363
1.00482 0.995433 0.990146
1.00459 0.995289 0.990723
1.00142 0.999051 0.992482
1.00012 1.00458 0.990819
0.999601 1.0045 0.990929
0.999815 1.00478 0.99016
0.999948 1.00489 0.98995
1.00069 0.996725 0.992629
0.999872 1.00494 0.990043
0.999597 1.00508 0.990934
1.0031 0.995649 0.993763
1.00107 1.00043 0.992405
0.998376 0.996947 0.993703
0.99827 0.998541 1.00001
0.998478 1.00361 0.992868
1 1.00479 0.989979
0.999291 1.00501 0.990989
0.994839 0.996093 0.895018
0.994744 0.996085 0.880491
0.999832 0.994852 0.899488
0.998907 1.00333 0.99274
0.999196 1.0025 0.993033
0.999439 1.00139 0.993837
0.994698 0.994853 0.873813
0.997389 0.998807 0.940797
0.99486 0.997214 0.967166
0.995977 0.998132 0.995938
0.995239 0.99987 0.910013
0.994841 0.996754 0.880559
0.994833 0.994804 0.875431
0.997498 1.00373 0.995723
0.99482 0.995403 0.893352
0.994784 0.994766 0.885813
0.995839 1.00226 0.998613
0.99487 0.9993 0.976046
0.99607 0.99982 0.940751
0.994861 0.994812 0.872989
0.994843 0.999943 0.901623
0.995623 1.00483 0.998367
0.994726 0.994795 0.903346
0.994812 0.994777 0.888893
0.994836 0.994794 0.863442
0.995126 1.0002 0.992583
0.994945 0.999711 0.95352
0.994971 0.999812 0.902102
0.998959 1.00406 0.993612
0.99746 1.0051 0.99429
0.995186 1.00509 0.998483
1.00048 1.00395 0.990032
0.999953 1.00408 0.990801
0.997357 1.00476 0.994774
1.00022 1.00397 0.990409
0.998011 1.00458 0.993827
0.995506 1.00532 0.996885
0.995199 1.00518 0.998276
0.997852 1.00452 0.993753
0.99984 1.0035 0.991498
0.999849 1.00375 0.991358
0.999639 1.00325 0.992343
0.998635 1.00375 0.993433
0.999856 1.00321 0.991757
0.999594 1.0025 0.993068
1.00059 1.00049 0.993027
1.00145 1.00187 0.98964
1.00032 1.0025 0.991796
1.001 1.00343 0.989821
1.00275 1.00314 0.986599
1.00277 1.00338 0.986468
1.00046 1.00465 0.989493
1.00173 1.00414 0.987175
0.999871 1.00481 0.990351
0.999831 1.00484 0.990436
0.999944 1.00458 0.990075
0.99986 1.00435 0.990815
0.999696 1.00403 0.991141
0.999969 1.00299 0.991814
0.999983 1.0035 0.991402
1.00003 1.00258 0.992177
1.00019 1.00093 0.993489
1.00013 1.0022 0.992418
1.00024 1.0007 0.993659
1.00013 0.998399 0.996667
1.00022 1.0007 0.993709
1.00015 0.998373 0.996362
1 0.996997 0.997944
1.00016 0.998346 0.996083
1.00002 0.996923 0.998539
1.00001 0.996895 0.999138
1.0003 1.00226 0.991876
1.0001 1.00049 0.993892
1.00017 1.00206 0.992491
1.00013 0.997937 0.996578
1.00005 1.0002 0.994367
1.00009 1.00165 0.992847
1.00003 0.996546 0.999265
1.00011 0.99783 0.996717
1.00001 1.00002 0.994701
1.00003 0.996503 0.999285
1.0001 0.997777 0.996777
1.00001 0.996527 0.999288
0.994821 0.994815 0.89016
0.994696 0.995417 0.879196
0.999847 0.995631 0.903993
1.00058 1.00317 0.990668
0.99479 0.99519 0.891487
0.994808 0.996286 0.879803
0.994704 0.996103 0.869396
0.998433 0.995952 0.977022
0.999621 0.998004 0.948541
0.998049 0.998745 0.891276
0.994778 0.996395 0.86186
0.996554 0.995403 0.96941
0.997427 0.999014 0.948902
0.996847 0.999896 0.897026
0.994827 0.994937 0.865893
0.994865 0.996177 0.965274
0.995291 0.99993 0.948443
0.994876 0.999983 0.902356
0.994876 0.994824 0.873051
1.00014 1.00457 0.989962
1.00006 1.00417 0.9906
1.00003 1.00309 0.991734
1.00039 1.00387 0.990254
1.00029 1.00399 0.990371
1.00002 1.00337 0.991532
1.0005 1.00304 0.991116
1.00028 1.00315 0.99138
1.00031 0.997044 0.99286
1.00328 0.995522 0.993668
1.00009 1.00503 0.989741
1.0017 1.00008 0.992205
0.99989 1.0051 0.99091
1.00002 1.00501 0.989942
0.999919 1.00482 0.989977
0.997635 0.997372 0.994331
0.99956 1.00483 0.991103
0.999234 1.00339 0.992934
0.998287 0.99813 1.00002
0.999994 1.00485 0.990139
0.996013 0.999112 0.993294
0.994987 1.00139 1.00239
0.997759 1.0051 0.993146
0.999632 1.0047 0.991144
0.99472 0.99477 0.908548
0.99484 0.996072 0.894807
0.994737 0.996041 0.877813
0.997448 1.00374 0.996001
0.995698 1.002 0.997592
0.994831 0.994813 0.896099
0.995003 0.999989 0.950382
0.994887 0.998859 0.973199
0.994847 0.999955 0.901074
0.994778 0.994763 0.885866
0.99485 0.994815 0.872648
0.995873 1.00471 0.997967
0.994738 0.994797 0.903151
0.994807 0.994766 0.892564
0.994958 1.00094 0.995943
0.994817 0.99507 0.866277
0.994908 0.998949 0.947838
0.994959 0.999814 0.90666
0.99508 1.00409 0.998599
0.994749 0.994794 0.907356
0.994782 0.995423 0.891913
0.994744 0.996216 0.864119
0.995718 0.999976 0.901898
0.994898 0.999855 0.982056
0.994957 1.00026 0.940502
0.998122 1.00504 0.993445
0.99551 1.00501 0.997986
0.994949 1.00507 0.999594
1.00006 1.00399 0.990469
0.998 1.00446 0.993868
0.996004 1.00531 0.996615
0.998097 1.00443 0.993642
0.99532 1.00463 0.998236
0.997572 1.00329 0.996381
0.99891 1.0038 0.993287
0.999657 1.00322 0.991752
0.999645 1.00269 0.993193
0.999388 1.00347 0.991432
0.999778 1.00092 0.994045
1.00131 1.00171 0.990198
1.00305 1.0027 0.986506
1.00445 1.00199 0.984777
1.00146 1.00337 0.989504
1.00316 1.00325 0.985795
1.00373 1.00262 0.98639
1.00132 1.00402 0.988019
1.0027 1.00335 0.986654
0.999944 1.00503 0.989722
1.00049 1.00466 0.989444
1.00139 1.00409 0.987259
0.999986 1.00353 0.991192
0.999765 1.00473 0.990449
0.999746 1.00485 0.990389
0.999771 1.0039 0.991239
1.00002 1.00296 0.991813
1.00019 1.00127 0.99315
1.00008 1.00254 0.992181
1.0002 1.00093 0.993482
1.00008 0.998547 0.996045
1.00025 1.00072 0.993654
1.00015 0.998396 0.996077
0.999882 0.99706 0.999134
1.00017 0.998357 0.996066
0.999978 0.997002 0.998532
0.999986 0.996954 0.999128
1.00032 1.00247 0.99157
1.00021 1.00082 0.993402
1.00026 1.0023 0.99198
1.00015 0.998102 0.996387
1.00013 1.0005 0.993833
1.00016 1.00208 0.992488
1.00003 0.99661 0.999234
1.00013 0.997925 0.996589
1.00006 1.00021 0.994226
1.00003 0.996521 0.999271
1.00011 0.997817 0.996723
1.00002 0.996517 0.999287
0.99474 0.994786 0.90463
0.994816 0.995428 0.890029
0.994694 0.996016 0.879407
1.0005 1.0032 0.990765
1.00046 1.00338 0.990502
1.00054 1.00359 0.990432
0.994818 0.994771 0.888385
0.994786 0.995178 0.891535
0.994804 0.996158 0.879629
0.99643 0.994863 0.971646
0.99827 0.999223 0.938787
0.99517 0.999908 0.90936
0.994844 0.995487 0.861986
0.994882 0.996346 0.968704
0.995951 0.999945 0.945031
0.99482 0.999783 0.901871
0.994867 0.994819 0.872589
0.9949 0.996593 0.96457
0.994908 0.999593 0.950239
0.995013 0.999927 0.902184
0.994858 0.994802 0.867787
1.00036 1.00419 0.98993
1.00022 1.00456 0.989823
1.0002 1.00413 0.990416
1.00048 1.00374 0.990225
1.00014 1.00403 0.99057
1.00051 1.00305 0.991139
0.997022 0.997709 0.994953
0.997949 0.997787 1.00007
1.00002 1.00459 0.989975
0.999894 1.00284 0.993003
0.999627 1.00475 0.991217
0.999937 1.0047 0.990102
0.999275 1.00471 0.991274
0.995718 0.999038 0.993574
0.997828 1.00513 0.993804
0.995274 1.0015 1.00136
0.999546 1.00418 0.991419
0.995169 0.998836 0.992844
0.99593 1.00235 0.998117
0.998163 1.00518 0.99364
0.994741 0.994742 0.91256
0.994722 0.994766 0.909552
0.994839 0.996019 0.894586
0.996036 1.0047 0.99755
0.994904 1.001 0.99279
0.994745 0.9948 0.902961
0.994862 0.999245 0.94954
0.994955 0.999803 0.895563
0.994801 0.994762 0.896225
0.994844 0.995767 0.862515
0.995161 1.00387 0.999067
0.994746 0.9948 0.908857
0.994787 0.995307 0.891976
0.994914 0.999685 0.978721
0.994778 0.996742 0.85873
0.994807 0.999969 0.90112
0.994927 0.999971 0.950992
0.995124 1.00486 0.994694
0.994739 0.994792 0.904975
0.994822 0.997243 0.880461
0.994643 0.996814 0.867569
0.995853 0.999168 0.892779
0.995824 0.999956 0.948691
0.994929 1.00046 0.972754
0.995935 1.00502 0.997499
0.995275 1.00411 0.999531
0.99681 1.00308 0.998127
0.998269 1.00445 0.993533
0.995543 1.00412 0.998217
0.996556 1.00422 0.996729
0.999695 1.00072 0.995518
0.999706 1.00298 0.993316
1.00077 1.00299 0.991049
1.00192 1.00387 0.987511
1.00115 1.0016 0.990777
1.00318 1.00278 0.986384
1.00408 1.00386 0.983577
1.00488 1.00175 0.984182
1.00423 1.0019 0.985253
1.00443 1.0022 0.984586
1.0036 1.00332 0.984989
1.00321 1.00277 0.986893
1.00344 1.0025 0.986568
1.00064 1.00459 0.988526
1.00144 1.00404 0.988178
1.00265 1.00334 0.986841
0.999958 1.0045 0.990098
1.00011 1.00499 0.989717
1.00049 1.00471 0.989394
1.00017 1.00176 0.992703
1.00009 1.00348 0.99118
0.99966 1.00468 0.990548
1.00008 1.00291 0.991811
1.00021 1.00128 0.993143
0.999999 0.998794 0.995933
1.00022 1.00094 0.993476
1.00009 0.998553 0.996035
0.999826 0.99722 0.999122
1.00015 0.998393 0.996073
0.999917 0.997091 0.998537
0.999943 0.997039 0.999125
1.00035 1.0028 0.991406
1.0003 1.00105 0.993214
1.00036 1.00246 0.991635
1.00017 0.998292 0.996146
1.0002 1.00081 0.993486
1.00028 1.00231 0.992084
1.00003 0.996735 0.999191
1.00015 0.998074 0.996403
1.00015 1.00049 0.993773
1.00004 0.996603 0.999243
1.00013 0.997916 0.996601
1.00004 0.99652 0.999278
0.994755 0.9948 0.907
0.994744 0.994802 0.904443
0.994809 0.996009 0.890008
1.00033 1.00384 0.990246
1.0006 1.00395 0.989951
1.00043 1.00325 0.990865
1.00041 1.00351 0.99047
1.00038 1.00371 0.990407
1.00029 1.004 0.990236
1.00037 1.00386 0.990237
0.994807 0.994761 0.8852
0.994812 0.994769 0.892117
0.994782 0.994753 0.891599
0.994852 0.994813 0.872162
0.994896 0.99614 0.965771
0.995171 0.999939 0.941959
0.994868 0.999547 0.909508
0.994968 0.997038 0.963661
0.994885 0.99988 0.941216
0.994956 0.999794 0.907086
0.994825 0.994789 0.875041
0.995141 0.996316 0.967598
0.99492 0.999963 0.941206
0.994846 0.999731 0.894849
0.994784 0.99719 0.863014
0.999573 1.00497 0.990665
1.00022 1.00438 0.98997
1.00027 1.00471 0.989684
1.00059 1.00363 0.990198
0.995511 0.999063 0.993989
0.995435 1.00268 1.00033
0.999888 1.00492 0.990066
0.99922 1.00471 0.991404
0.99827 1.00511 0.994454
0.999529 1.00436 0.99137
0.997868 1.00517 0.993643
0.994989 1.00041 0.989951
0.995396 1.00364 0.998424
0.997531 1.00484 0.994441
0.994984 0.998823 0.989102
0.99729 1.00412 0.99732
0.994713 0.994782 0.908678
0.994738 0.994741 0.915379
0.994725 0.994756 0.910553
0.995011 1.00358 0.999482
0.994932 0.998477 0.982765
0.994739 0.994797 0.910396
0.995891 0.999854 0.941158
0.994839 0.999879 0.908751
0.994792 0.994752 0.89205
0.99477 0.996781 0.862323
0.994947 1.00382 0.995345
0.994743 0.994798 0.904804
0.994803 0.996509 0.880298
0.994915 1.00056 0.973604
0.994665 0.996691 0.85684
0.996875 0.999894 0.8966
0.994863 0.999851 0.940521
0.995508 1.00466 0.989391
0.994818 0.994823 0.890844
0.994655 0.996159 0.867149
0.99856 0.99796 0.902721
0.99515 0.999953 0.948385
0.994966 1.00006 0.966276
0.995312 1.00332 0.999667
0.996087 1.00377 0.998112
0.997285 1.00102 0.998318
0.995602 1.00497 0.997072
0.998507 1.00095 0.995894
1.00275 0.999227 0.991713
1.00218 1.0024 0.990666
1.00236 1.00366 0.987467
1.00303 1.00427 0.984503
1.00327 1.00287 0.986264
1.00441 1.00384 0.983188
1.0043 1.00432 0.982656
1.00495 1.00118 0.984752
1.00504 1.00122 0.984585
1.00481 1.00191 0.98415
1.00403 1.00168 0.985618
1.00422 1.00181 0.985407
1.00438 1.00244 0.984395
1.0025 1.00394 0.986698
1.00306 1.00273 0.986865
1.00311 1.00237 0.986743
1.00042 1.00498 0.988856
1.00068 1.00464 0.988748
1.00159 1.00403 0.98834
1.00005 1.00268 0.991875
1.00015 1.00441 0.99012
1.00026 1.00492 0.989712
0.999913 0.999073 0.995791
1.0002 1.00175 0.992685
1.00018 1.00346 0.991169
1.00023 1.00127 0.993136
0.999996 0.99882 0.995918
0.999744 0.99743 0.999101
1.00009 0.998553 0.996026
0.999819 0.997259 0.999117
0.999885 0.997119 0.999126
1.00033 1.004 0.990203
1.00046 1.00305 0.991017
1.00033 1.00141 0.992791
1.00037 1.00278 0.991395
1.00017 0.99855 0.995886
1.00029 1.00106 0.993213
1.00032 1.00253 0.991699
1.00001 0.996884 0.999134
1.00016 0.998289 0.996162
1.0002 1.00082 0.993569
1.00003 0.996704 0.999204
1.00015 0.998056 0.996418
1.00004 0.996573 0.999253
0.994714 0.994789 0.90298
0.994749 0.9948 0.908538
0.994749 0.994821 0.904235
1.00041 1.00383 0.990274
1.00046 1.004 0.989972
1.00026 1.00364 0.990285
1.00016 1.00428 0.989984
1.00053 1.00436 0.989955
1.00042 1.00359 0.990436
1.00032 1.00381 0.990382
1.00036 1.00395 0.990242
1.00042 1.00396 0.990287
1.00007 1.00467 0.990244
0.994783 0.996907 0.880375
0.994784 0.994763 0.885354
0.994816 0.994768 0.895823
0.994835 0.9948 0.875335
0.995001 0.99992 0.895707
0.994938 0.998232 0.962106
0.994904 0.999963 0.95003
0.995143 0.996496 0.964426
0.994916 0.999457 0.950636
0.99485 0.999971 0.902782
0.994799 0.996878 0.860969
0.994965 0.995089 0.96931
0.994909 0.999995 0.950555
0.995366 0.999869 0.908455
0.994696 0.996529 0.866331
0.998692 1.00388 0.992883
0.9997 1.00485 0.990605
1.00023 1.00439 0.990011
0.99497 1.00103 0.986879
0.995342 1.00411 0.998732
0.999469 1.00436 0.991321
0.997165 1.00521 0.993647
0.997628 1.00447 0.994458
0.996374 1.0037 0.997395
0.99496 0.999156 0.989148
0.996025 1.002 0.998708
0.99599 0.999845 0.990284
0.994836 0.995763 0.894622
0.994721 0.994775 0.909649
0.994738 0.994744 0.918202
0.994987 1.00269 0.995651
0.994937 1.00092 0.970222
0.994747 0.994822 0.904606
0.995853 0.999973 0.94784
0.995005 0.999897 0.908881
0.994782 0.996325 0.880146
0.994699 0.996722 0.845855
0.995462 1.00479 0.989936
0.994811 0.995213 0.890722
0.994676 0.996243 0.864681
0.99495 1.00005 0.967254
0.998411 0.999138 0.903435
0.995977 0.999943 0.943887
0.995004 1.00464 0.987072
0.994689 0.99484 0.873626
0.999777 0.9975 0.90846
0.997608 0.998708 0.940014
0.99489 0.997435 0.969049
0.99553 1.00467 0.998086
0.997162 1.00129 0.998255
1.00117 1.00209 0.992266
0.997335 1.00128 0.996201
1.00163 0.999789 0.991842
1.00376 0.999421 0.988479
1.00275 1.00341 0.98742
1.00311 1.00415 0.984508
1.00436 1.00172 0.984731
1.00475 1.00386 0.9828
1.00434 1.00394 0.982753
1.00476 1.00102 0.985103
1.00513 0.999123 0.986293
1.00508 1.00059 0.984958
1.00489 1.00106 0.984839
1.00507 1.00144 0.98449
1.00503 1.00125 0.984567
1.00475 1.00204 0.984117
1.00386 1.00264 0.985564
1.004 1.00173 0.985744
1.00425 1.00174 0.985562
1.0016 1.00419 0.987675
1.00229 1.00388 0.986872
1.00292 1.00272 0.986836
1.00005 1.0041 0.990348
1.00057 1.00493 0.988876
1.00074 1.0047 0.988969
0.999837 0.999616 0.996025
1.00013 1.00271 0.991848
1.00034 1.00429 0.990142
0.999675 0.997682 0.997802
0.999909 0.999168 0.996038
1.00023 1.00174 0.992667
0.99999 0.998853 0.995903
0.999741 0.997469 0.999091
0.999812 0.997285 0.999111
1.00024 1.00426 0.990099
1.00043 1.00346 0.990665
1.00028 1.00408 0.990167
1.00036 1.00177 0.992392
1.00037 1.00317 0.99101
1.00014 0.998863 0.995622
1.00033 1.0014 0.992795
1.00044 1.00271 0.991383
0.999988 0.997083 0.999075
1.00017 0.998531 0.995902
1.00027 1.00108 0.993212
1.00001 0.996871 0.999151
1.00015 0.998276 0.996179
1.00003 0.996686 0.999217
0.994828 0.994835 0.896684
0.994733 0.994795 0.902801
0.994738 0.994798 0.910101
1.00057 1.00314 0.990508
1.00036 1.00395 0.990301
1.00037 1.00401 0.989992
1.00032 1.00432 0.989965
1.00055 1.0035 0.990338
1.0004 1.00413 0.990215
1.0009 1.00398 0.989305
0.999724 1.00476 0.99007
1.00043 1.00385 0.990248
1.00012 1.00405 0.990335
0.999924 1.00458 0.990228
0.999358 1.00492 0.991585
0.99506 0.996338 0.867612
0.99489 0.996845 0.880017
0.994771 0.994763 0.885472
0.994794 0.996415 0.86789
0.994852 0.999953 0.902597
0.994978 0.999805 0.941257
0.995063 0.99634 0.963128
0.994894 0.995143 0.970849
0.994709 0.996707 0.855773
0.994889 0.999718 0.945352
0.996914 0.999914 0.896982
0.994865 0.996216 0.971512
0.995181 0.999958 0.950757
0.999058 0.998547 0.899268
0.999162 1.00153 0.995109
0.998858 1.00394 0.992838
0.999588 1.00479 0.990544
0.994884 0.99949 0.989373
0.995642 1.00332 0.997465
0.997623 1.00415 0.994474
0.997204 1.00185 0.998563
0.995509 0.999676 0.990387
0.996947 0.998672 0.993582
0.994749 0.997026 0.877248
0.994831 0.995338 0.898002
0.994732 0.994762 0.910618
0.995295 1.00475 0.990248
0.994887 1.00005 0.967289
0.994802 0.995667 0.890703
0.995026 0.999966 0.941267
0.99841 0.997899 0.89214
0.994704 0.996213 0.870314
0.994995 1.00482 0.987049
0.9947 0.995248 0.880074
0.999823 0.996305 0.898057
0.995028 0.997153 0.965178
0.997435 0.998993 0.948734
0.99641 1.00269 0.990807
0.99984 0.995516 0.897207
1.00001 0.997511 0.949276
0.994891 0.995494 0.964677
0.996848 1.00152 0.998302
1.00051 1.00147 0.992402
1.00295 1.00189 0.988707
1.00055 1.00037 0.991979
1.00313 1.00016 0.988461
1.00452 0.998542 0.987774
1.00318 1.00405 0.984512
1.00423 1.00177 0.984713
1.00498 0.997788 0.987378
1.00438 1.00353 0.982849
1.00469 1.00083 0.985148
1.00509 0.997399 0.987958
1.00512 0.997346 0.988161
1.00516 0.999374 0.986028
1.00513 0.998991 0.98643
1.00511 1.00074 0.98485
1.00507 1.00059 0.98503
1.00485 1.00096 0.984928
1.00491 1.00126 0.98499
1.00494 1.00139 0.984618
1.005 1.00126 0.984547
1.00301 1.00312 0.986396
1.00381 1.0026 0.985556
1.004 1.00174 0.98587
1.0007 1.00473 0.988798
1.00169 1.00428 0.987647
1.00207 1.0038 0.987047
0.999778 1.00046 0.994555
1.00028 1.00395 0.990347
1.00076 1.00489 0.988894
0.99959 0.997975 0.999002
0.999825 0.999712 0.995313
1.00021 1.0027 0.991821
0.999681 0.997672 0.999061
0.999883 0.99924 0.995712
0.99974 0.997519 0.999082
1.00074 1.00373 0.989871
1.0003 1.00425 0.990048
1.00044 1.00381 0.990288
1.00031 1.00221 0.992037
1.00038 1.0035 0.990658
1.0003 1.00404 0.990131
1.00012 0.999169 0.995357
1.00033 1.0018 0.992396
1.0003 1.00327 0.991003
0.999952 0.997308 0.999008
1.00015 0.998822 0.995636
1.00033 1.0014 0.992798
0.999989 0.997045 0.999092
1.00016 0.998515 0.995917
1.00001 0.996827 0.999169
0.995111 0.9959 0.867177
0.99493 0.994823 0.896594
0.994741 0.994801 0.902627
1.0004 1.00345 0.990447
1.00152 1.00308 0.990064
1.0006 1.00361 0.990087
1.00036 1.00441 0.989947
1.00083 1.00335 0.99039
1.00012 1.0039 0.990473
0.999933 1.00479 0.989992
1.00069 1.0041 0.989447
1.00047 1.0047 0.989354
0.999963 1.00075 0.993699
1.00013 1.00453 0.990212
0.999442 1.00477 0.991249
0.999795 0.997334 0.892895
0.994877 0.99631 0.862058
0.995093 0.996959 0.879755
0.994712 0.996974 0.844906
0.996553 0.999111 0.908614
0.994845 0.999952 0.942955
0.994893 0.995359 0.968638
0.994914 0.996154 0.970222
0.998412 0.999456 0.901926
0.996011 0.999933 0.941688
0.994893 0.997478 0.971674
0.998492 0.998903 0.939935
1.00184 0.997778 0.994494
0.999098 1.0017 0.994965
0.999002 1.00407 0.992808
0.99501 0.999525 0.990442
0.998156 1.00173 0.998408
0.997546 0.998755 0.993132
0.998871 0.998271 0.990788
0.999864 0.994857 0.906357
0.994743 0.996382 0.877154
0.994817 0.994827 0.901286
0.995154 1.00501 0.987198
0.995017 0.996992 0.963036
0.994697 0.995572 0.880226
0.998674 0.998563 0.938966
0.999834 0.996719 0.909259
0.99594 1.00221 0.98853
0.999859 0.99531 0.90406
1.00149 0.99708 0.938762
0.994946 0.995519 0.968121
0.998261 0.997306 0.991061
1.00002 0.995747 0.950117
0.996279 0.995781 0.970531
0.999701 1.00089 0.992469
1.00278 1.00038 0.988709
1.00488 0.998037 0.988873
1.00249 1.00084 0.988449
1.00425 0.998707 0.987785
1.00489 0.996339 0.989166
1.00421 1.00181 0.984697
1.00493 0.9981 0.987299
1.0051 0.99571 0.989496
1.00464 1.00064 0.985193
1.00508 0.997417 0.987941
1.00512 0.995818 0.989614
1.00511 0.996412 0.989381
1.00513 0.997164 0.988377
1.00513 0.998032 0.98766
1.00516 0.999818 0.985815
1.00516 0.999445 0.986075
1.00512 0.998859 0.986568
1.00515 1.0007 0.985035
1.00511 1.00074 0.984836
1.00506 1.00059 0.985101
1.00421 1.0019 0.985544
1.0048 1.00136 0.984991
1.00479 1.0014 0.984748
1.00165 1.00405 0.987851
1.00305 1.00315 0.986387
1.00375 1.00258 0.985547
0.999964 1.00135 0.99331
1.00084 1.00448 0.988804
1.00184 1.00427 0.98762
0.999643 0.9983 0.998844
0.999807 1.00055 0.994499
1.00046 1.00385 0.990348
0.999633 0.998 0.998308
0.999819 0.999801 0.995296
0.999696 0.997746 0.99903
1.0011 1.00301 0.989967
1.00046 1.00389 0.989982
1.00037 1.00419 0.989892
1.0004 1.00423 0.989997
1.00035 1.0039 0.990285
1.00029 1.00262 0.991653
1.00006 0.999522 0.995121
1.00031 1.00219 0.992041
1.0003 1.00359 0.990652
0.999902 0.997535 0.998937
1.00011 0.999156 0.995369
1.00031 1.00182 0.992399
0.999953 0.997262 0.999029
1.00015 0.998792 0.99565
0.999991 0.997026 0.99911
0.999821 0.99504 0.904794
0.994959 0.995895 0.870244
0.99492 0.994809 0.896477
1.00026 1.00375 0.990387
1.00057 1.00419 0.98949
1.00115 1.003 0.990328
1.00263 1.00339 0.987048
1.00054 1.00409 0.989925
1.0001 1.00482 0.989915
1.00057 1.00421 0.989591
1.00024 1.00464 0.989606
1.00097 1.00341 0.988748
1.00137 0.999746 0.992838
1.00416 0.997048 0.990212
1.00024 1.00043 0.993766
0.999903 1.00403 0.99091
0.998699 0.997375 0.949113
0.999778 0.997792 0.897664
0.994788 0.996232 0.864148
0.998969 0.99976 0.89007
0.995546 0.999955 0.948204
0.994873 0.996083 0.971348
0.994878 0.997455 0.973417
0.997417 0.998816 0.950474
0.995882 0.997344 0.972809
1.0022 0.996068 0.994691
1.00113 0.998509 0.99457
0.99909 1.0019 0.994813
0.998308 0.998486 0.992774
0.999392 0.998194 0.990477
0.999987 0.994925 0.944447
0.999852 0.994884 0.910096
0.994745 0.995832 0.877172
0.995473 1.00187 0.986186
0.995083 0.995182 0.964947
0.999851 0.995522 0.904804
1.00043 0.997572 0.948261
0.997356 0.998555 0.991446
1.00122 0.995834 0.948403
0.9967 0.995195 0.967576
1.00141 0.996277 0.990214
0.999103 0.995601 0.976708
1.00264 0.999008 0.988791
1.0048 0.997003 0.988811
1.005 0.99586 0.990247
1.00399 0.998865 0.987795
1.00474 0.996523 0.98909
1.00517 0.994976 0.990149
1.00481 0.998418 0.98722
1.00509 0.995784 0.989448
1.00508 0.995009 0.990406
1.00508 0.997432 0.987924
1.00512 0.995853 0.989567
1.00514 0.995434 0.990167
1.00511 0.99617 0.98952
1.00511 0.996955 0.988828
1.00514 0.996981 0.988595
1.00513 0.998045 0.987637
1.00517 0.998889 0.986775
1.00519 1.0002 0.985474
1.00516 0.999862 0.985792
1.00515 0.999512 0.986123
1.00486 1.00078 0.985449
1.00511 1.00074 0.985
1.00512 1.00074 0.984822
1.00273 1.00269 0.987289
1.00417 1.00197 0.985553
1.00467 1.00146 0.984993
1.00038 1.00179 0.992141
1.0017 1.00396 0.98784
1.003 1.0033 0.986377
0.999767 0.998848 0.998545
1.00004 1.00136 0.993283
1.00103 1.00425 0.988809
0.999711 0.998414 0.998751
0.999854 1.00063 0.994441
0.999702 0.998037 0.998909
1.00265 1.00331 0.987027
1.00117 1.00286 0.989939
1.00055 1.00409 0.989523
1.00021 1.004 0.990094
1.00031 1.00424 0.98986
1.00031 1.0031 0.99112
1.00027 1.00397 0.990282
1.00027 1.00263 0.99166
0.999979 0.999881 0.994901
0.999832 0.997812 0.998875
1.00005 0.999492 0.995132
1.0003 1.00217 0.992044
0.999905 0.997517 0.99896
1.0001 0.999145 0.99538
0.999958 0.997218 0.999049
1.00002 0.995345 0.953005
0.999839 0.994876 0.903954
0.994713 0.995884 0.866648
1.00054 1.00483 0.988894
1.00085 1.00285 0.990595
1.00081 1.00395 0.989788
1.00252 1.00341 0.987214
1.00408 1.00254 0.984759
1.00125 1.00357 0.988474
0.999983 1.00466 0.989858
1.00173 1.00334 0.98794
1.00108 0.999856 0.992914
1.00304 0.99987 0.988974
1.00476 0.996083 0.990868
1.00406 0.996507 0.990942
1.00371 0.996979 0.990795
0.999988 1.00056 0.993836
0.995987 0.995956 0.972104
1.00007 0.997216 0.946159
0.998066 0.997462 0.908438
0.99769 0.999441 0.939908
0.994867 0.997842 0.974055
0.995784 0.997584 0.97766
0.999643 0.997736 0.992245
1.00254 0.995725 0.994587
1.0007 0.99906 0.994647
1.00076 0.998343 0.990148
0.996441 0.997507 0.972871
1.00024 0.995015 0.954232
0.999837 0.994875 0.899403
0.996573 0.999449 0.991668
0.996884 0.994899 0.969498
1.00004 0.996634 0.946469
1.00088 0.996193 0.990324
0.998469 0.99577 0.976096
1.00365 0.99559 0.990816
1.00271 0.998303 0.987265
1.0047 0.99605 0.988715
1.00488 0.995686 0.990265
1.00517 0.994833 0.990605
1.00461 0.9967 0.989016
1.00517 0.994984 0.990105
1.00511 0.994931 0.990529
1.00508 0.99586 0.9894
1.00506 0.995097 0.990375
1.00516 0.995064 0.990456
1.00512 0.995894 0.98952
1.00513 0.99542 0.990098
1.00511 0.995994 0.989592
1.00511 0.995934 0.989658
1.00511 0.996811 0.988974
1.00516 0.998151 0.987626
1.00513 0.998057 0.987614
1.00517 0.998942 0.986748
1.0052 0.999664 0.9861
1.00506 1.00023 0.985581
1.00519 1.00025 0.985439
1.00516 0.99991 0.985769
1.00365 1.00131 0.98708
1.00485 1.00083 0.985454
1.00508 1.00078 0.984964
1.0008 1.00187 0.991338
1.0027 1.00275 0.987294
1.00414 1.00202 0.98556
0.999977 0.9994 0.998156
1.00048 1.00173 0.992131
1.00177 1.00386 0.987828
0.999874 0.998964 0.998399
1.0001 1.00138 0.993257
0.999799 0.9985 0.998636
1.00418 1.00258 0.985088
1.00275 1.00329 0.987042
1.00166 1.00412 0.987654
1.00116 1.00281 0.989911
1.00066 1.00402 0.989397
1.00061 1.00341 0.990362
1.00025 1.00428 0.989828
1.00029 1.00312 0.991124
0.999901 1.00032 0.994602
1.00025 1.00262 0.991667
0.999973 0.999842 0.994916
0.999757 0.998092 0.998813
0.999839 0.997766 0.998895
1.00005 0.999463 0.995143
0.999904 0.997463 0.998982
0.996808 0.99489 0.973678
1.00006 0.99563 0.943474
0.999825 0.995282 0.911596
1.00513 1.00087 0.984652
1.00107 1.00378 0.989649
1.00245 1.00344 0.987383
1.00168 1.00347 0.988208
1.00416 1.00267 0.984742
1.00365 1.00079 0.987159
1.00244 1.00334 0.987134
1.00079 0.999935 0.992995
1.00344 0.999668 0.988841
1.00466 0.995879 0.990627
1.00484 0.996399 0.989164
1.00414 0.995601 0.991956
1.00396 0.996134 0.990886
1.00321 0.996849 0.991379
0.999905 0.997026 0.992258
0.99578 0.99573 0.970391
0.999409 0.996488 0.943815
0.995418 0.997236 0.976247
0.999846 0.996825 0.994326
1.00228 0.995418 0.994471
1.00055 0.997581 0.986602
0.99638 0.996187 0.974296
0.999997 0.994889 0.94456
1.00006 0.996605 0.990505
0.998451 0.996172 0.974975
1.00319 0.995518 0.991155
1.00277 0.99772 0.98772
1.00443 0.994837 0.991216
1.00454 0.997559 0.990688
1.00476 0.995492 0.990281
1.00518 0.994841 0.99049
1.00521 0.994847 0.990409
1.00517 0.995008 0.990061
1.00511 0.994927 0.990521
1.00516 0.99493 0.990523
1.00505 0.995179 0.990344
1.00515 0.995034 0.990425
1.00514 0.995543 0.990027
1.00512 0.995399 0.990029
1.00513 0.996006 0.989577
1.00515 0.997247 0.988463
1.00512 0.996667 0.989121
1.00516 0.99801 0.987803
1.0052 0.999228 0.986524
1.00517 0.998993 0.986721
1.0052 0.99968 0.986069
1.00514 1.00005 0.985727
1.00408 1.00051 0.987108
1.00504 1.00029 0.985596
1.00518 1.0003 0.985405
1.00131 1.00137 0.991001
1.00359 1.00137 0.987088
1.00483 1.00087 0.985459
1.00011 0.99987 0.997834
1.00098 1.00165 0.99133
1.00267 1.00277 0.9873
1.00006 0.999497 0.998027
1.00061 1.00162 0.992127
0.99998 0.99907 0.998253
1.00506 1.00118 0.984652
1.00411 1.00252 0.985094
1.00324 1.0031 0.986027
1.00285 1.00327 0.987056
1.00176 1.00416 0.987602
1.00095 1.00407 0.989189
1.00079 1.00395 0.989269
1.00044 1.00362 0.990369
0.999882 1.00085 0.994101
1.00023 1.00317 0.99113
0.999892 1.00027 0.994624
0.9997 0.998416 0.99872
0.999967 0.999806 0.994931
0.999761 0.998044 0.998836
0.999844 0.99774 0.998915
1.00101 0.994894 0.990569
0.996748 0.994893 0.970254
0.999994 0.994908 0.953537
1.00482 0.999781 0.986133
1.00515 0.999379 0.986262
1.00509 1.00077 0.984801
1.00208 1.00332 0.987938
1.00423 1.0028 0.984721
1.00389 1.00061 0.987169
1.00506 0.99729 0.987985
1.00386 0.999456 0.988707
1.0045 0.995742 0.990378
1.00487 0.996475 0.989388
1.00499 0.995607 0.989872
1.00414 0.995442 0.991698
1.00386 0.995782 0.991829
1.00411 0.995857 0.990823
1.00018 0.99686 0.992387
0.99595 0.995645 0.968638
1.00019 0.996557 0.996486
1.00416 0.995617 0.991923
1.00045 0.997722 0.98679
0.996297 0.995832 0.972053
1.00307 0.994858 0.991465
1.0028 0.9976 0.98821
1.0045 0.994979 0.991572
1.00457 0.996768 0.99065
1.00523 0.994934 0.990412
1.00528 0.994974 0.990614
1.00518 0.994849 0.990376
1.00521 0.994867 0.990391
1.0052 0.994924 0.990387
1.0051 0.994926 0.990513
1.00516 0.994936 0.990504
1.00518 0.995193 0.990337
1.00515 0.995011 0.990395
1.00515 0.995552 0.990014
1.00514 0.996619 0.989094
1.00514 0.99602 0.989562
1.00515 0.997266 0.988465
1.00521 0.998764 0.986936
1.00516 0.997868 0.987981
1.0052 0.999171 0.986589
1.00517 0.999932 0.985811
1.0052 0.999697 0.986038
1.00513 1.00004 0.985749
1.00427 1.00016 0.98712
1.00158 1.00078 0.991057
1.00406 1.00054 0.987099
1.00502 1.00036 0.98561
1.0002 1.0002 0.997622
1.00136 1.00129 0.990999
1.00351 1.00147 0.987096
1.00018 0.999967 0.997739
1.00109 1.00154 0.991325
1.00014 0.999616 0.997904
1.00513 1.00028 0.985382
1.00506 1.00109 0.984688
1.00452 1.00131 0.98554
1.00405 1.00244 0.985099
1.00324 1.00313 0.986037
1.00181 1.00379 0.987879
1.00184 1.00421 0.987551
1.00079 1.00417 0.989215
1.00008 1.00153 0.993162
1.0003 1.0038 0.990377
0.99986 1.00082 0.994124
0.999691 0.998838 0.998547
0.999887 1.00022 0.994646
0.999691 0.99835 0.998758
0.999766 0.997997 0.998856
1.00407 0.994876 0.992538
1.00099 0.994986 0.988842
0.996569 0.994899 0.969701
1.00512 0.998479 0.987289
1.00499 0.999391 0.986277
1.00521 0.998097 0.987457
1.00516 0.999351 0.986272
1.00505 1.00066 0.984951
1.00513 0.996456 0.988818
1.00416 1.00043 0.987181
1.00504 0.997526 0.987963
1.00515 0.995154 0.990089
1.0049 0.99652 0.989615
1.00496 0.995708 0.989758
1.00416 0.995538 0.991829
1.0034 0.995906 0.991695
1.00041 0.996702 0.992432
1.00523 0.994893 0.990483
1.00413 0.996302 0.991988
1.00044 0.99749 0.986965
1.00454 0.99515 0.991921
1.00459 0.996023 0.990618
1.00523 0.994917 0.990457
1.00527 0.995031 0.99053
1.00522 0.994946 0.9906
1.00521 0.994886 0.990373
1.0052 0.994923 0.990405
1.0052 0.994997 0.990534
1.00516 0.994941 0.990485
1.00516 0.995202 0.990303
1.00515 0.996113 0.989556
1.00515 0.995573 0.990001
1.00514 0.996644 0.989091
1.00521 0.998321 0.987382
1.00514 0.997285 0.988467
1.00521 0.998769 0.986957
1.00519 0.999805 0.985927
1.0052 0.999113 0.986655
1.00516 0.999931 0.98583
1.00434 1.00008 0.987084
1.00512 1.00003 0.985771
1.00428 1.00017 0.987112
1.00167 1.00039 0.992666
1.00041 1.00007 0.994785
1.00164 1.00074 0.991753
1.00404 1.00057 0.98709
1.00023 1.00026 0.997581
1.00149 1.00112 0.990995
1.00022 1.00007 0.997652
1.00524 0.997993 0.987614
1.00521 0.999365 0.986266
1.00515 1.00029 0.985471
1.00489 1.00047 0.985713
1.00506 1.00102 0.984724
1.00459 1.00123 0.985521
1.00299 1.00228 0.9872
1.00325 1.00315 0.986047
1.00175 1.00386 0.987877
1.00055 1.00195 0.991911
1.00063 1.00435 0.989239
0.999964 1.00155 0.993193
0.999772 0.999434 0.998206
0.999837 1.00076 0.994146
0.999654 0.998735 0.99862
0.999689 0.998288 0.99879
1.00521 0.994877 0.990438
1.00442 0.994872 0.99247
1.00118 0.994916 0.98716
1.00514 0.99705 0.988356
1.00513 0.998421 0.987133
1.00513 0.999021 0.986419
1.0052 0.998224 0.987418
1.00517 0.999322 0.986282
1.00521 0.995485 0.990008
1.0051 0.996452 0.988777
1.00502 0.997777 0.987941
1.00515 0.995126 0.990094
1.00497 0.995807 0.989643
1.00418 0.995673 0.991982
1.00521 0.994903 0.990719
1.00523 0.994894 0.990645
1.0041 0.996994 0.992058
1.00522 0.994899 0.990496
1.00528 0.99497 0.990448
1.00523 0.994946 0.990549
1.00518 0.994942 0.990798
1.0052 0.994922 0.990423
1.00519 0.994978 0.990501
1.00515 0.99577 0.98994
1.00515 0.995201 0.990269
1.00516 0.996134 0.989554
1.00522 0.997976 0.987747
1.00514 0.996671 0.989089
1.00522 0.998325 0.987395
1.0052 0.999661 0.986074
1.0052 0.998773 0.986978
1.00519 0.999797 0.985945
1.00439 1.00008 0.987012
1.00516 0.999928 0.985849
1.00435 1.00007 0.987085
1.00178 1.0001 0.99279
1.00428 1.00017 0.987104
1.00183 1.0003 0.992591
1.00041 0.999987 0.99493
1.00021 1.00031 0.996197
1.00181 1.00067 0.99232
1.00023 1.00034 0.997552
1.00518 0.997346 0.988379
1.00524 0.998996 0.986537
1.00523 0.997801 0.987798
1.00504 1.00007 0.985779
1.00522 0.999442 0.986205
1.00516 1.00031 0.98556
1.00494 1.00041 0.98569
1.00383 1.0009 0.98709
1.00465 1.00115 0.985502
1.00307 1.0022 0.987178
1.00108 1.00177 0.991082
1.00167 1.00388 0.987877
1.00036 1.00212 0.991936
0.999917 1.00019 0.997789
0.999838 1.00163 0.993222
0.999683 0.99932 0.998349
0.999636 0.998639 0.998681
1.00521 0.994916 0.990471
1.0052 0.994876 0.990422
1.0047 0.994891 0.992369
1.00518 0.996157 0.989439
1.00513 0.997119 0.98834
1.00514 0.998366 0.986977
1.00518 0.998353 0.987379
1.0052 0.995497 0.989927
1.00508 0.996455 0.988736
1.00515 0.995112 0.990101
1.00515 0.994917 0.990855
1.0052 0.994908 0.990711
1.00521 0.994901 0.990807
1.00522 0.994948 0.9907
1.00523 0.994947 0.990497
1.00518 0.99496 0.990752
1.00516 0.995598 0.990257
1.00518 0.994959 0.990468
1.00517 0.995768 0.98994
1.00519 0.997771 0.98804
1.00517 0.996159 0.989553
1.00522 0.997978 0.987753
1.00521 0.999479 0.986275
1.00522 0.998331 0.987407
1.0052 0.999648 0.986087
1.00443 1.00006 0.986961
1.00519 0.999788 0.985962
1.0044 1.00007 0.987021
1.00186 1.00004 0.992738
1.00437 1.00005 0.987086
1.00191 1.00004 0.992689
1.00045 0.999885 0.994984
1.00198 1.0002 0.992524
1.00011 1.00015 0.995115
0.999784 1.00059 0.99787
1.00518 0.997263 0.988368
1.00522 0.998454 0.987213
1.00518 0.997402 0.988233
1.00521 0.999799 0.986048
1.00525 0.998797 0.986711
1.00522 0.997613 0.987981
1.00425 1.00025 0.98706
1.0051 1.00005 0.985747
1.00524 0.999516 0.986144
1.005 1.00035 0.985669
1.00387 1.00085 0.987097
1.00143 1.00123 0.990958
1.00313 1.0021 0.987157
1.00097 1.0019 0.991086
0.999976 1.00071 0.997566
1.00021 1.00223 0.991962
0.999806 1.00003 0.997949
0.999621 0.999151 0.998471
1.00516 0.995398 0.990271
1.00522 0.994911 0.990479
1.0052 0.994869 0.990406
1.00518 0.996062 0.989522
1.00512 0.997183 0.988324
1.00519 0.995504 0.989846
1.00521 0.994933 0.990782
1.00515 0.994925 0.990872
1.00521 0.994911 0.990703
1.00522 0.994944 0.990768
1.00522 0.995824 0.989914
1.00518 0.994983 0.990706
1.00516 0.995749 0.990071
1.00516 0.997383 0.988567
1.00519 0.995768 0.98994
1.00518 0.997746 0.988045
1.0052 0.999275 0.986499
1.00522 0.997969 0.987759
1.0052 0.999465 0.986284
1.00445 1.00001 0.986971
1.0052 0.999636 0.986101
1.00443 1.00006 0.986972
1.0019 1.00011 0.992575
1.00441 1.00005 0.987029
1.00198 0.999996 0.992614
1.00052 0.999884 0.99489
1.00203 0.999994 0.992597
1.00019 0.999936 0.99519
0.99983 1.00034 0.995283
1.00518 0.996585 0.989166
1.00521 0.99829 0.987381
1.00518 0.997068 0.988533
1.00522 0.999363 0.986463
1.00522 0.998549 0.9871
1.00519 0.997458 0.988087
1.00442 0.999928 0.987092
1.00521 0.999679 0.986042
1.00526 0.9986 0.986885
1.00162 1.00064 0.991162
1.00425 1.00023 0.987074
1.00516 1.00004 0.985715
1.00391 1.00081 0.987105
1.00137 1.00131 0.990961
1.00001 1.00085 0.997541
1.00085 1.00203 0.991095
0.999949 1.00056 0.997631
0.999699 0.999858 0.99811
1.00519 0.995171 0.99047
1.00516 0.995432 0.990215
1.00521 0.994907 0.990487
1.00518 0.99597 0.989605
1.0052 0.995978 0.989819
1.00521 0.99495 0.990798
1.00515 0.994935 0.990889
1.00522 0.994939 0.990836
1.00521 0.99579 0.989947
1.00519 0.997418 0.988484
1.00517 0.995885 0.989883
1.00516 0.997592 0.988289
1.0052 0.998889 0.986934
1.00518 0.997731 0.98805
1.00519 0.99927 0.986505
1.00446 0.999924 0.987026
1.0052 0.999459 0.986293
1.00445 1.00001 0.98698
1.00197 1.00017 0.991078
1.00443 1.00005 0.986983
1.00202 1.00008 0.991783
1.00044 0.999938 0.997548
1.0021 0.999968 0.992493
1.00028 0.999872 0.99511
0.99995 0.999982 0.99538
1.00518 0.996148 0.989637
1.00521 0.997949 0.98782
1.00518 0.996659 0.98913
1.00521 0.999128 0.98656
1.00521 0.998295 0.987376
1.00518 0.996869 0.988698
1.00445 0.99972 0.987023
1.00523 0.999368 0.986471
1.00522 0.998641 0.986987
1.00179 1.00012 0.991378
1.00441 0.999883 0.98702
1.00521 0.99955 0.986035
1.00009 1.00066 0.997601
1.00161 1.00065 0.991171
1.00425 1.0002 0.987089
1.0013 1.00137 0.990967
1.00001 1.00075 0.997538
0.999863 1.00047 0.997726
1.00518 0.995897 0.989902
1.0052 0.995236 0.990434
1.00516 0.995465 0.990159
1.00517 0.997483 0.988377
1.0052 0.995859 0.9899
1.00521 0.994953 0.990813
1.00521 0.995761 0.989981
1.00519 0.997388 0.988495
1.00517 0.998814 0.987197
1.00516 0.997802 0.98801
1.00519 0.999045 0.986825
1.00446 0.99971 0.987094
1.00519 0.999257 0.986512
1.00447 0.999921 0.987031
1.00199 1.00014 0.991079
1.00445 1.00001 0.986989
1.00198 1.00016 0.991078
1.00044 0.999982 0.997514
1.00204 1.00006 0.991089
1.00034 0.999934 0.996304
1.00005 0.999838 0.995327
1.00518 0.996316 0.989431
1.0052 0.997782 0.987993
1.00519 0.996126 0.98969
1.00521 0.999168 0.986527
1.00521 0.998006 0.987739
1.00518 0.996736 0.989095
1.00449 0.999641 0.98708
1.00521 0.999252 0.986518
1.0052 0.998301 0.98737
1.00191 0.999882 0.991406
1.00445 0.999718 0.987028
1.00523 0.999375 0.986478
1.00024 1.0003 0.997635
1.00181 1.00009 0.991381
1.0044 0.999838 0.986946
1.00009 1.00061 0.997572
1.0016 1.00064 0.991179
0.999983 1.00071 0.997549
1.00519 0.997331 0.988521
1.00517 0.995981 0.989801
1.00521 0.995313 0.990398
1.00516 0.998707 0.987324
1.00517 0.997386 0.988469
1.0052 0.995736 0.989981
1.00519 0.997358 0.988506
1.00517 0.998819 0.987195
1.00442 0.999613 0.987282
1.00519 0.999204 0.986715
1.00447 0.999768 0.987097
1.00201 1.00005 0.991139
1.00447 0.999916 0.987037
1.00198 1.00015 0.991081
1.00042 1.00001 0.997478
1.00198 1.00015 0.991077
1.00043 0.999995 0.997496
1.00042 0.999892 0.994858
1.00521 0.997672 0.988055
1.00517 0.996133 0.989607
1.00521 0.999047 0.98668
1.00521 0.997789 0.987978
1.00519 0.996103 0.989744
1.00448 0.999691 0.98724
1.00521 0.999177 0.986522
1.00521 0.998062 0.987657
1.002 0.999861 0.991291
1.00448 0.999685 0.987121
1.00521 0.99938 0.986475
1.0004 1.00005 0.997592
1.00193 0.999874 0.991407
1.00444 0.999709 0.987032
1.00022 1.00032 0.997624
1.00182 1.00008 0.991382
1.00009 1.00059 0.997552
1.00519 0.998689 0.987275
1.00519 0.997411 0.988426
1.00516 0.99607 0.9897
1.00438 0.999563 0.987398
1.00516 0.998712 0.987323
1.00518 0.997289 0.988562
1.00517 0.998826 0.987192
1.00443 0.999603 0.987256
1.00196 1.00001 0.991265
1.00447 0.999825 0.9871
1.00199 1.00006 0.991142
1.00044 1.00001 0.997466
1.00198 1.00014 0.991083
1.00043 1.00002 0.997477
1.00044 1 0.997483
1.00521 0.998933 0.9868
1.00521 0.997448 0.988298
1.00516 0.99595 0.989782
1.00445 0.999674 0.987324
1.00521 0.999055 0.986669
1.00522 0.997796 0.987963
1.00201 0.999947 0.991213
1.00447 0.999696 0.987234
1.0052 0.999186 0.986518
1.00047 0.999947 0.99752
1.002 0.999877 0.991291
1.00447 0.999723 0.987163
1.00036 1.00009 0.997612
1.00193 0.999883 0.991409
1.00023 1.00032 0.997603
1.00438 0.999651 0.987452
1.00519 0.998634 0.98726
1.00519 0.99749 0.988331
1.00192 0.99995 0.991409
1.00439 0.999546 0.987386
1.00516 0.998714 0.987322
1.00445 0.999589 0.987231
1.00196 0.999991 0.991272
1.00043 1.00001 0.997463
1.00197 1.00007 0.991146
1.00043 1.00002 0.997459
1.00041 1.00004 0.997473
1.00441 0.999656 0.987401
1.00521 0.998802 0.98694
1.00522 0.997226 0.988541
1.00207 1 0.992471
1.00444 0.999673 0.987325
1.0052 0.999064 0.986659
1.00047 0.999955 0.997476
1.00201 0.999967 0.991214
1.00446 0.999702 0.987228
1.00045 0.999978 0.997548
1.002 0.999902 0.991292
1.00034 1.0001 0.997627
1.00197 0.999951 0.991351
1.00438 0.999591 0.987424
1.00519 0.998577 0.987245
1.00037 0.999994 0.997503
1.00191 0.99995 0.991407
1.0044 0.999531 0.987374
1.00195 0.999976 0.991276
1.00041 1.00001 0.997475
1.00043 1.00003 0.99746
1.0021 0.999979 0.992494
1.00441 0.999653 0.987401
1.0052 0.998668 0.987081
1.00007 0.999993 0.997852
1.00198 1.00001 0.991246
1.00443 0.999669 0.987326
1.00047 0.999966 0.997498
1.00201 0.999989 0.991213
1.00044 0.999997 0.997573
1.00036 0.99998 0.99494
1.002 0.999949 0.991983
1.00438 0.999532 0.987395
1.00039 0.999994 0.997507
1.00191 0.999952 0.991412
1.00042 1 0.997482
0.999992 1 0.995292
1.00202 0.999972 0.991919
1.00441 0.999654 0.9874
1.00024 0.99999 0.996359
1.00197 1.00001 0.991256
1.00047 0.999977 0.99752
1.00038 0.999987 0.997506
1.0019 0.999945 0.991429
1.00036 0.999994 0.997507
1.00019 0.999985 0.996403
1.00194 0.99997 0.99136
1.00044 0.999981 0.997493
1.00039 0.999984 0.997516
1.00038 0.999984 0.997504

TENSORS stress float
0.00176416 -0.000101235 0.00018763
-0.000101235 0.000711075 -2.64683e-05
0.00018763 -2.64683e-05 0.000689246
0.00554958 -9.10517e-05 0.000184291
-9.10517e-05 0.00299464 1.93857e-05
0.000184291 1.93857e-05 0.00297695
0.00153662 -3.2014e-05 8.60717e-05
-3.2014e-05 0.000581867 -1.04484e-05
8.60717e-05 -1.04484e-05 0.000550768
0.00188434 -5.99084e-05 0.000186982
-5.99084e-05 0.000757846 -1.64864e-05
0.000186982 -1.64864e-05 0.000740375
0.00183793 -9.08055e-05 0.000184134
-9.08055e-05 0.000745928 -2.38233e-05
0.000184134 -2.38233e-05 0.000726017
0.00170392 -9.80054e-05 0.000192036
-9.80054e-05 0.00067499 -2.63124e-05
0.000192036 -2.63124e-05 0.000654704
0.00151617 -7.81058e-05 3.03872e-05
-7.81058e-05 0.000488057 -1.00279e-05
3.03872e-05 -1.00279e-05 0.000402262
0.00548538 -9.59901e-05 -6.88494e-06
-9.59901e-05 0.00294539 2.80559e-07
-6.88494e-06 2.80559e-07 0.0029334
0.00549048 8.05513e-05 8.65416e-05
8.05513e-05 0.00291429 5.56045e-06
8.65416e-05 5.56045e-06 0.00289964
0.00524754 -0.000189683 2.29425e-05
-0.000189683 0.00280829 2.73855e-06
2.29425e-05 2.73855e-06 0.00277616
0.00170669 0.000100315 0.000189678
0.000100315 0.000672474 1.84287e-05
0.000189678 1.84287e-05 0.000663352
0.000616031 0.00019455 2.33565e-05
0.00019455 -3.10287e-05 1.4507e-05
2.33565e-05 1.4507e-05 -0.000126703
0.00166144 -3.32689e-05 0.000195619
-3.32689e-05 0.000620886 2.62206e-06
0.000195619 2.62206e-06 0.000613455
0.00128824 -9.69179e-06 3.75186e-05
-9.69179e-06 0.000421169 1.10953e-06
3.75186e-05 1.10953e-06 0.000383351
0.00137445 -2.40449e-05 -3.22496e-05
-2.40449e-05 0.000487797 5.75953e-06
-3.22496e-05 5.75953e-06 0.000450406
0.00158539 -6.37888e-05 6.52767e-05
-6.37888e-05 0.000593523 -3.74001e-06
6.52767e-05 -3.74001e-06 0.000565288
0.0015314 -1.45617e-05 9.26026e-05
-1.45617e-05 0.000586453 -1.00365e-05
9.26026e-05 -1.00365e-05 0.000551488
0.00155941 -4.73188e-05 7.65581e-05
-4.73188e-05 0.00058356 -8.94168e-06
7.65581e-05 -8.94168e-06 0.000556771
0.00157806 -0.000118612 -3.20465e-05
-0.000118612 0.000516932 3.35835e-06
-3.20465e-05 3.35835e-06 0.000439709
0.00552405 -0.000112584 0.000236087
-0.000112584 0.002942 -7.33212e-06
0.000236087 -7.33212e-06 0.00294733
0.00185665 -4.16805e-05 0.00018909
-4.16805e-05 0.000739069 -1.22974e-05
0.00018909 -1.22974e-05 0.000722565
0.00188447 -7.71546e-05 0.000184815
-7.71546e-05 0.000764087 -2.04076e-05
0.000184815 -2.04076e-05 0.000745909
0.00154015 -0.00010678 5.15881e-05
-0.00010678 0.000475476 -7.86728e-06
5.15881e-05 -7.86728e-06 0.000398437
0.00153039 -9.19442e-05 3.95405e-05
-9.19442e-05 0.000478936 -9.18198e-06
3.95405e-05 -9.18198e-06 0.000400677
0.00161751 -7.02992e-05 0.000185226
-7.02992e-05 0.000615555 -2.26169e-05
0.000185226 -2.26169e-05 0.000598632
0.00147101 -6.41656e-05 2.28072e-05
-6.41656e-05 0.000483144 -1.07962e-05
2.28072e-05 -1.07962e-05 0.000388897
0.00202838 -0.000224256 1.40956e-05
-0.000224256 0.000648008 -6.42521e-06
1.40956e-05 -6.42521e-06 0.000501063
0.00543538 -0.000111283 -0.000181315
-0.000111283 0.00290711 -1.12928e-05
-0.000181315 -1.12928e-05 0.00289923
0.00353514 7.77161e-05 -0.00010833
7.77161e-05 0.00175731 -9.24561e-06
-0.00010833 -9.24561e-06 0.00173873
0.00342125 -3.19283e-05 -0.000101821
-3.19283e-05 0.00171285 -5.47582e-06
-0.000101821 -5.47582e-06 0.00168852
0.00526121 -0.000151474 2.83425e-06
-0.000151474 0.00282295 1.2429e-07
2.83425e-06 1.2429e-07 0.00280508
0.000579915 0.00018241 -2.34696e-06
0.00018241 -5.23867e-05 -6.62611e-07
-2.34696e-06 -6.62611e-07 -0.000145758
0.00160247 5.45949e-05 0.000190545
5.45949e-05 0.000596331 1.49391e-05
0.000190545 1.49391e-05 0.000580293
0.00175677 0.000128958 0.000193185
0.000128958 0.000711624 2.23569e-05
0.000193185 2.23569e-05 0.000689789
0.00263088 0.000176572 0.00011775
0.000176572 0.00112777 1.5146e-05
0.00011775 1.5146e-05 0.00106111
0.00412771 -0.00027263 -1.96053e-06
-0.00027263 0.00218007 4.82183e-06
-1.96053e-06 4.82183e-06 0.00213465
0.00269876 0.000222003 0.000117337
0.000222003 0.00119573 1.73615e-05
0.000117337 1.73615e-05 0.00112378
0.000587747 0.000159288 2.73306e-05
0.000159288 -4.2162e-05 1.85004e-05
2.73306e-05 1.85004e-05 -0.000131008
0.000885433 0.000182418 1.0499e-05
0.000182418 3.59268e-05 5.25688e-06
1.0499e-05 5.25688e-06 -0.000128133
0.00328527 -0.000104625 0.000107153
-0.000104625 0.00163885 4.70528e-06
0.000107153 4.70528e-06 0.00164233
0.00554095 6.79908e-05 3.65807e-06
6.79908e-05 0.00294271 -1.37846e-06
3.65807e-06 -1.37846e-06 0.00295316
0.00348922 6.22033e-05 -8.95198e-05
6.22033e-05 0.00172396 -3.3114e-06
-8.95198e-05 -3.3114e-06 0.00171008
0.00545039 5.98585e-05 0.000232019
5.98585e-05 0.00289131 2.71232e-06
0.000232019 2.71232e-06 0.00290175
0.00129379 7.23418e-05 4.08768e-05
7.23418e-05 0.000422011 2.23835e-06
4.08768e-05 2.23835e-06 0.000388899
0.000665717 8.88085e-06 1.62034e-05
8.88085e-06 -7.15163e-05 1.67216e-06
1.62034e-05 1.67216e-06 -0.000144822
0.00540344 0.000191079 0.000119895
0.000191079 0.00288552 1.04803e-05
0.000119895 1.04803e-05 0.00286313
0.00269522 5.78898e-05 0.000114864
5.78898e-05 0.00113249 6.72817e-06
0.000114864 6.72817e-06 0.00108033
0.00122408 -7.37247e-05 -5.1424e-05
-7.37247e-05 0.000394436 6.40449e-06
-5.1424e-05 6.40449e-06 0.000353875
0.0012844 -6.64508e-05 -4.42555e-05
-6.64508e-05 0.000432625 6.79607e-06
-4.42555e-05 6.79607e-06 0.000394633
0.00143103 2.7878e-05 -2.04867e-05
2.7878e-05 0.000528267 5.71422e-06
-2.04867e-05 5.71422e-06 0.000486707
0.00160259 -0.000128049 -0.000101701
-0.000128049 0.000524977 1.64296e-05
-0.000101701 1.64296e-05 0.000454834
0.00347133 8.88213e-06 -9.47207e-05
8.88213e-06 0.00171995 -1.87465e-06
-9.47207e-05 -1.87465e-06 0.00170371
0.00157695 -4.75208e-05 7.191e-05
-4.75208e-05 0.000583519 -3.14654e-06
7.191e-05 -3.14654e-06 0.000557368
0.00148747 1.0317e-05 9.52678e-05
1.0317e-05 0.000562931 -7.97607e-06
9.52678e-05 -7.97607e-06 0.000526775
0.00157763 -5.68391e-05 6.9631e-05
-5.68391e-05 0.000588493 -6.32861e-06
6.9631e-05 -6.32861e-06 0.00056237
0.00159479 -8.83509e-05 -2.57055e-05
-8.83509e-05 0.000500648 1.19223e-06
-2.57055e-05 1.19223e-06 0.000430932
0.00155859 -0.000110664 -3.69554e-05
-0.000110664 0.000520486 3.46391e-06
-3.69554e-05 3.46391e-06 0.000438265
0.00158958 -0.000116034 -2.72337e-05
-0.000116034 0.000511741 2.45483e-06
-2.72337e-05 2.45483e-06 0.00043874
0.00202662 -0.000222817 -7.2089e-06
-0.000222817 0.000644742 1.90009e-06
-7.2089e-06 1.90009e-06 0.000498043
0.00541243 3.90176e-05 0.000225746
3.90176e-05 0.00286856 -2.17558e-07
0.000225746 -2.17558e-07 0.00287967
0.00182347 -2.25091e-05 0.000188616
-2.25091e-05 0.000721872 -8.42776e-06
0.000188616 -8.42776e-06 0.00070705
0.00241676 1.75501e-05 3.61019e-05
1.75501e-05 0.000984287 -9.51386e-07
3.61019e-05 -9.51386e-07 0.000923521
0.00154141 -8.60261e-05 4.5094e-05
-8.60261e-05 0.000467789 -5.32269e-06
4.5094e-05 -5.32269e-06 0.000394946
0.00153596 -0.000100892 4.68965e-05
-0.000100892 0.000474484 -8.63521e-06
4.68965e-05 -8.63521e-06 0.000398201
0.00191033 -0.000137755 1.15327e-05
-0.000137755 0.00052536 -3.04231e-06
1.15327e-05 -3.04231e-06 0.000398648
0.00165801 -0.000180575 1.56704e-05
-0.000180575 0.000405669 -5.65501e-06
1.56704e-05 -5.65501e-06 0.000266212
0.00117727 -2.88848e-05 0.000146515
-2.88848e-05 0.000356907 -1.60289e-05
0.000146515 -1.60289e-05 0.000344189
0.00131653 -1.91181e-05 1.40837e-05
-1.91181e-05 0.000414517 -1.09887e-05
1.40837e-05 -1.09887e-05 0.000320532
0.00197115 -0.000240503 1.30777e-05
-0.000240503 0.00064242 -6.73319e-06
1.30777e-05 -6.73319e-06 0.000486529
0.00127229 -0.000222753 7.71851e-06
-0.000222753 8.65235e-05 -2.6379e-06
7.71851e-06 -2.6379e-06 -9.3202e-05
0.00575447 0.000150523 -0.000239594
0.000150523 0.00307159 -2.03157e-05
-0.000239594 -2.03157e-05 0.00307442
0.00490603 -0.000184072 -0.000137163
-0.000184072 0.00262028 -9.62145e-06
-0.000137163 -9.62145e-06 0.00259886
0.00550507 -3.38843e-05 -0.00020089
-3.38843e-05 0.00293538 -1.36001e-05
-0.00020089 -1.36001e-05 0.00293647
0.00054292 0.000177862 -2.40441e-05
0.000177862 -7.08447e-05 -1.47829e-05
-2.40441e-05 -1.47829e-05 -0.000164983
0.00576084 0.00016683 -2.9615e-06
0.00016683 0.00307447 -1.88935e-06
-2.9615e-06 -1.88935e-06 0.00307704
0.00576645 8.26637e-05 -8.63339e-06
8.26637e-05 0.00308147 -1.3249e-06
-8.63339e-06 -1.3249e-06 0.00308363
0.000522139 0.000121697 -1.21456e-07
0.000121697 -0.000124733 -2.35614e-07
-1.21456e-07 -2.35614e-07 -0.000212886
0.00271247 -0.000130876 -5.88127e-05
-0.000130876 0.00131329 -2.15557e-06
-5.88127e-05 -2.15557e-06 0.00128459
0.000523273 0.000179736 -5.67351e-07
0.000179736 -8.87918e-05 -3.05882e-07
-5.67351e-07 -3.05882e-07 -0.000183839
0.00156448 0.000137175 3.9147e-05
0.000137175 0.000547604 9.40939e-07
3.9147e-05 9.40939e-07 0.00047171
0.000885741 0.000179785 -5.78867e-09
0.000179785 3.19536e-05 1.42721e-07
-5.78867e-09 1.42721e-07 -0.000131302
0.00391358 -0.000111144 0.000133749
-0.000111144 0.00201204 7.44231e-06
0.000133749 7.44231e-06 0.00201217
0.000647417 -2.78907e-05 4.3646e-06
-2.78907e-05 5.37893e-05 8.67063e-06
4.3646e-06 8.67063e-06 1.09824e-05
0.000639703 9.1528e-05 1.70171e-05
9.1528e-05 -7.5184e-05 8.74241e-06
1.70171e-05 8.74241e-06 -0.000158726
0.000674488 0.000146431 2.18349e-05
0.000146431 -2.12991e-05 1.50151e-05
2.18349e-05 1.50151e-05 -0.000114965
0.000989996 0.000149839 1.36008e-05
0.000149839 -3.95969e-06 5.3755e-06
1.36008e-05 5.3755e-06 -0.000152501
0.00248642 7.06965e-05 8.60639e-05
7.06965e-05 0.00111608 1.15234e-05
8.60639e-05 1.15234e-05 0.00106171
0.000964154 0.00017767 1.15968e-05
0.00017767 4.71928e-05 6.54501e-06
1.15968e-05 6.54501e-06 -0.000109749
0.000866704 0.000190628 1.00656e-05
0.000190628 9.44008e-05 5.06369e-06
1.00656e-05 5.06369e-06 -7.98691e-05
0.00111146 0.000232561 5.10367e-06
0.000232561 9.5213e-05 1.2998e-06
5.10367e-06 1.2998e-06 -0.000105986
0.00278416 -0.000120259 6.04776e-05
-0.000120259 0.00134022 2.3097e-06
6.04776e-05 2.3097e-06 0.00134006
0.00310304 -0.000136715 1.1738e-05
-0.000136715 0.00153636 -3.43008e-07
1.1738e-05 -3.43008e-07 0.00153165
0.00570493 2.49054e-05 -0.000232943
2.49054e-05 0.00303321 -9.78869e-06
-0.000232943 -9.78869e-06 0.00304235
0.00559178 5.8266e-05 -0.000236607
5.8266e-05 0.00297034 -5.86662e-06
-0.000236607 -5.86662e-06 0.00298158
0.00552018 8.35819e-05 -1.65743e-07
8.35819e-05 0.00293871 -2.68601e-06
-1.65743e-07 -2.68601e-06 0.00294507
0.00344641 1.37548e-05 -0.000103378
1.37548e-05 0.00169695 -4.15138e-06
-0.000103378 -4.15138e-06 0.00168641
0.00165292 3.2654e-05 4.91936e-05
3.2654e-05 0.000516008 9.75373e-07
4.91936e-05 9.75373e-07 0.000454918
0.0035672 0.000109591 -9.13169e-05
0.000109591 0.00177395 -4.61477e-06
-9.13169e-05 -4.61477e-06 0.00175564
0.0016888 7.68871e-05 4.8449e-05
7.68871e-05 0.000538988 1.89935e-06
4.8449e-05 1.89935e-06 0.000472717
0.00549448 0.000139632 0.000234793
0.000139632 0.0029335 5.80941e-06
0.000234793 5.80941e-06 0.00293372
0.000591807 1.02343e-05 1.85034e-05
1.02343e-05 -0.000112209 5.26905e-07
1.85034e-05 5.26905e-07 -0.000183767
0.00271463 2.53531e-05 0.000114938
2.53531e-05 0.00114303 4.48839e-06
0.000114938 4.48839e-06 0.00109386
0.00102344 3.59652e-05 1.244e-05
3.59652e-05 -1.88519e-05 1.24657e-06
1.244e-05 1.24657e-06 -0.000140977
0.00262071 0.000100265 0.000117076
0.000100265 0.00109624 8.62664e-06
0.000117076 8.62664e-06 0.00104012
0.00104485 8.54319e-05 1.21359e-05
8.54319e-05 -7.18874e-06 2.50936e-06
1.21359e-05 2.50936e-06 -0.000138249
0.00166983 4.17133e-05 -0.000193975
4.17133e-05 0.000627265 1.72389e-06
-0.000193975 1.72389e-06 0.000620207
0.00126803 -9.13349e-08 -3.83273e-05
-9.13349e-08 0.000411578 1.75859e-06
-3.83273e-05 1.75859e-06 0.000374669
0.00141608 7.7608e-05 -1.03292e-05
7.7608e-05 0.000534574 6.63836e-06
-1.03292e-05 6.63836e-06 0.000484879
0.00123169 -7.73543e-05 -5.20617e-05
-7.73543e-05 0.000400405 7.258e-06
-5.20617e-05 7.258e-06 0.00036112
0.00171062 -6.82724e-05 -0.000100333
-6.82724e-05 0.000561376 8.67237e-06
-0.000100333 8.67237e-06 0.000499493
0.00165714 -0.000109342 -9.99184e-05
-0.000109342 0.000544821 1.42043e-05
-9.99184e-05 1.42043e-05 0.000479035
0.00157901 -0.000134802 -0.000102926
-0.000134802 0.000523309 1.69358e-05
-0.000102926 1.69358e-05 0.000449397
0.00202663 -0.000221633 -2.70205e-05
-0.000221633 0.000643067 9.67793e-06
-2.70205e-05 9.67793e-06 0.00049665
0.00550252 -8.58811e-05 2.03421e-06
-8.58811e-05 0.00292897 -1.48366e-06
2.03421e-06 -1.48366e-06 0.00293496
0.00151688 4.39623e-05 8.02209e-05
4.39623e-05 0.000546905 -2.97303e-06
8.02209e-05 -2.97303e-06 0.000523948
0.00113231 -1.78968e-06 -5.21365e-05
-1.78968e-06 0.000211625 9.83938e-07
-5.21365e-05 9.83938e-07 0.000149093
0.00160059 -5.2697e-05 -2.9649e-05
-5.2697e-05 0.000498107 1.69537e-06
-2.9649e-05 1.69537e-06 0.000431102
0.0030833 4.00165e-05 0.000156109
4.00165e-05 0.00151445 -3.96886e-06
0.000156109 -3.96886e-06 0.00150273
0.00197378 -8.82916e-05 -3.30395e-05
-8.82916e-05 0.00078706 7.18033e-07
-3.30395e-05 7.18033e-07 0.000704771
0.00159632 -0.000104653 -2.50156e-05
-0.000104653 0.000507298 1.6462e-06
-2.50156e-05 1.6462e-06 0.000436493
0.00182608 -0.000131958 -8.82243e-06
-0.000131958 0.000473432 1.55072e-06
-8.82243e-06 1.55072e-06 0.000346383
0.0020005 -0.000242848 -5.90059e-06
-0.000242848 0.000658667 1.8856e-06
-5.90059e-06 1.8856e-06 0.00050237
0.00184528 -0.000188445 -4.569e-06
-0.000188445 0.000515696 1.12654e-06
-4.569e-06 1.12654e-06 0.000376779
0.00127466 -0.000223391 2.21715e-07
-0.000223391 8.61048e-05 -1.62448e-07
2.21715e-07 -1.62448e-07 -9.35296e-05
0.000627088 1.29755e-05 1.9039e-05
1.29755e-05 -9.35863e-05 -1.17132e-06
1.9039e-05 -1.17132e-06 -0.000162019
0.00148163 1.48067e-05 3.62214e-05
1.48067e-05 0.000428177 -2.57731e-06
3.62214e-05 -2.57731e-06 0.000360797
0.00164669 -3.33097e-05 1.27421e-05
-3.33097e-05 0.000355994 -1.07748e-06
1.27421e-05 -1.07748e-06 0.000242884
0.00165617 -0.000103029 1.25456e-05
-0.000103029 0.000366756 -2.39489e-06
1.25456e-05 -2.39489e-06 0.000243137
0.00164594 -0.00015429 1.44349e-05
-0.00015429 0.000378783 -4.31363e-06
1.44349e-05 -4.31363e-06 0.000245772
0.00172004 -0.000169494 1.64771e-06
-0.000169494 0.000257992 -7.29641e-07
1.64771e-06 -7.29641e-07 0.000107439
0.00427745 0.000165168 0.000119909
0.000165168 0.00224693 -6.69177e-06
0.000119909 -6.69177e-06 0.00223151
0.00131704 -0.000207981 6.47169e-06
-0.000207981 8.18053e-05 -2.05055e-06
6.47169e-06 -2.05055e-06 -8.93565e-05
0.000335363 -9.19619e-05 1.60248e-05
-9.19619e-05 -0.000171974 -1.40732e-05
1.60248e-05 -1.40732e-05 -0.000243454
0.00085154 -0.000180806 1.00962e-05
-0.000180806 1.91547e-05 -7.05724e-06
1.00962e-05 -7.05724e-06 -0.000144543
0.0013235 -0.000246384 8.85817e-06
-0.000246384 0.000152657 -3.07002e-06
8.85817e-06 -3.07002e-06 -3.8952e-05
0.00155301 -0.000290355 3.64178e-06
-0.000290355 0.00014139 3.11268e-07
3.64178e-06 3.11268e-07 -5.23968e-05
0.000406675 -2.80347e-05 8.53067e-06
-2.80347e-05 -9.97473e-05 -1.12431e-05
8.53067e-06 -1.12431e-05 -0.000155601
0.000681246 -4.09958e-05 1.13657e-06
-4.09958e-05 7.11256e-05 -4.01557e-06
1.13657e-06 -4.01557e-06 -4.6803e-05
0.00577683 0.00018307 -0.000250756
0.00018307 0.00308824 -2.08501e-05
-0.000250756 -2.08501e-05 0.0030887
0.00561792 6.40099e-05 -0.00021889
6.40099e-05 0.00299254 -1.70157e-05
-0.00021889 -1.70157e-05 0.00299771
0.000520344 0.000115245 -1.83221e-05
0.000115245 -0.000127768 -1.03885e-05
-1.83221e-05 -1.03885e-05 -0.000215764
0.00420511 -0.000171552 -0.000116689
-0.000171552 0.00220146 -6.05184e-06
-0.000116689 -6.05184e-06 0.00218685
0.000436343 0.000124484 -1.95782e-05
0.000124484 -0.000124574 -1.44583e-05
-1.95782e-05 -1.44583e-05 -0.000201844
0.000476312 0.000164246 -2.02853e-05
0.000164246 -0.000112308 -1.39598e-05
-2.02853e-05 -1.39598e-05 -0.000208939
0.000901188 0.000179889 -1.20632e-05
0.000179889 3.70905e-05 -5.23688e-06
-1.20632e-05 -5.23688e-06 -0.000125797
0.00371456 -0.00013257 8.19447e-06
-0.00013257 0.00190016 -5.07373e-07
8.19447e-06 -5.07373e-07 0.00189618
0.000529081 -3.89852e-05 3.53668e-07
-3.89852e-05 -1.19151e-05 4.94001e-07
3.53668e-07 4.94001e-07 -5.50873e-05
0.00165655 0.00011975 4.86621e-05
0.00011975 0.000532 3.25686e-06
4.86621e-05 3.25686e-06 0.000458729
0.00160715 0.000170095 4.7314e-05
0.000170095 0.000536559 2.98747e-06
4.7314e-05 2.98747e-06 0.000453807
0.000974562 0.000150416 7.7621e-08
0.000150416 -9.66776e-06 -2.22255e-07
7.7621e-08 -2.22255e-07 -0.000158791
0.000615409 6.64969e-05 -6.14615e-07
6.64969e-05 5.66724e-06 1.62387e-07
-6.14615e-07 1.62387e-07 -5.90018e-05
0.000935781 0.000176315 4.61561e-07
0.000176315 3.13299e-05 2.89472e-07
4.61561e-07 2.89472e-07 -0.000125547
0.000859492 0.000179362 7.19802e-07
0.000179362 8.6188e-05 -1.49525e-06
7.19802e-07 -1.49525e-06 -8.5926e-05
0.000940715 0.00022052 -7.52694e-07
0.00022052 -6.21756e-06 4.5724e-07
-7.52694e-07 4.5724e-07 -0.000205983
0.00067506 2.33894e-05 1.1074e-05
2.33894e-05 5.72854e-05 1.04609e-05
1.1074e-05 1.04609e-05 3.65115e-06
0.000605313 -6.07364e-05 2.95281e-07
-6.07364e-05 3.36649e-05 6.92072e-06
2.95281e-07 6.92072e-06 -2.34623e-06
0.000846008 7.05543e-05 3.20979e-06
7.05543e-05 0.000182443 4.5645e-06
3.20979e-06 4.5645e-06 6.60246e-05
0.00101456 0.00012964 1.30572e-05
0.00012964 -8.49629e-06 4.37426e-06
1.30572e-05 4.37426e-06 -0.000151229
0.000970407 0.000167259 1.32608e-05
0.000167259 1.53979e-05 6.1627e-06
1.32608e-05 6.1627e-06 -0.000138375
0.00135748 0.000222508 5.84435e-06
0.000222508 9.44361e-05 1.55694e-06
5.84435e-06 1.55694e-06 -8.56848e-05
0.000899313 0.000181117 7.24673e-06
0.000181117 0.000175239 7.30255e-06
7.24673e-06 7.30255e-06 8.44688e-06
0.00103639 0.00022246 5.35952e-06
0.00022246 7.25816e-06 2.57559e-06
5.35952e-06 2.57559e-06 -0.00018408
0.00134429 0.000261992 5.81827e-06
0.000261992 0.000297606 6.49998e-07
5.81827e-06 6.49998e-07 7.39717e-05
0.00157506 0.000287619 -3.67635e-08
0.000287619 0.000320273 -1.09614e-07
-3.67635e-08 -1.09614e-07 0.000105197
0.00252101 -0.00011769 3.34449e-05
-0.00011769 0.00117907 2.93042e-06
3.34449e-05 2.93042e-06 0.00117921
0.00266355 -0.000132272 6.5556e-06
-0.000132272 0.00127149 -5.81553e-07
6.5556e-06 -5.81553e-07 0.0012676
0.00290098 -0.000151536 -4.52855e-05
-0.000151536 0.00142054 -2.48787e-06
-4.52855e-05 -2.48787e-06 0.00141115
0.000407932 -9.7622e-06 6.16147e-06
-9.7622e-06 -9.19483e-05 -9.38848e-06
6.16147e-06 -9.38848e-06 -0.000140975
0.00386289 0.000144682 0.000105259
0.000144682 0.00199388 -5.38472e-06
0.000105259 -5.38472e-06 0.00198448
0.00577402 0.000172617 -0.000253397
0.000172617 0.00308589 -1.83844e-05
-0.000253397 -1.83844e-05 0.00308768
0.00559363 6.37756e-05 -0.000233801
6.37756e-05 0.00296961 -8.16917e-06
-0.000233801 -8.16917e-06 0.00298024
0.000609472 8.84705e-05 -1.96399e-05
8.84705e-05 -0.000100944 -4.69306e-06
-1.96399e-05 -4.69306e-06 -0.00017807
0.000590278 3.95364e-05 -1.91706e-05
3.95364e-05 -0.000111004 -2.29399e-06
-1.91706e-05 -2.29399e-06 -0.000185164
0.00545556 -1.54256e-05 -0.000226881
-1.54256e-05 0.00289127 -1.38419e-06
-0.000226881 -1.38419e-06 0.00290338
0.00543505 1.7675e-05 -6.48903e-07
1.7675e-05 0.00288021 -4.19346e-07
-6.48903e-07 -4.19346e-07 0.00289202
0.000573542 7.51129e-07 -1.44852e-07
7.51129e-07 -0.000125145 -4.29861e-08
-1.44852e-07 -4.29861e-08 -0.000195111
0.00163683 3.12166e-05 4.90403e-05
3.12166e-05 0.000505052 1.7118e-06
4.90403e-05 1.7118e-06 0.000443441
0.00100336 3.97134e-05 1.43591e-08
3.97134e-05 -3.11947e-05 -1.36588e-07
1.43591e-08 -1.36588e-07 -0.000153714
0.000577759 7.39894e-05 -4.16266e-07
7.39894e-05 -0.000114943 -3.0572e-07
-4.16266e-07 -3.0572e-07 -0.000195758
0.00100887 8.69336e-05 -1.04054e-07
8.69336e-05 -2.74167e-05 -1.42067e-07
-1.04054e-07 -1.42067e-07 -0.000159043
0.000566582 -2.72137e-05 1.89916e-05
-2.72137e-05 -0.000131328 -8.43431e-07
1.89916e-05 -8.43431e-07 -0.000199052
0.00100275 1.546e-05 1.22651e-05
1.546e-05 -2.77241e-05 5.54832e-07
1.22651e-05 5.54832e-07 -0.000148011
0.00101729 6.06772e-05 1.2151e-05
6.06772e-05 -2.36338e-05 1.94347e-06
1.2151e-05 1.94347e-06 -0.000149504
0.00146032 6.04085e-05 1.56409e-06
6.04085e-05 5.52363e-05 1.99882e-07
1.56409e-06 1.99882e-07 -7.25377e-05
0.00104126 0.000107634 1.24906e-05
0.000107634 -4.19428e-06 3.30601e-06
1.24906e-05 3.30601e-06 -0.000140987
0.00149233 0.000133407 2.50064e-06
0.000133407 8.28249e-05 2.32331e-07
2.50064e-06 2.32331e-07 -6.11094e-05
0.00543585 -4.60239e-05 -0.000233636
-4.60239e-05 0.00288379 6.1982e-07
-0.000233636 6.1982e-07 0.00289378
0.0012533 -0.000131938 -4.05167e-05
-0.000131938 0.00040858 4.21534e-06
-4.05167e-05 4.21534e-06 0.000371013
-0.000263439 -1.84107e-06 -1.2958e-05
-1.84107e-06 -0.000614691 2.15181e-06
-1.2958e-05 2.15181e-06 -0.000696416
0.00168899 -4.69915e-05 -0.000100567
-4.69915e-05 0.000545494 6.24221e-06
-0.000100567 6.24221e-06 0.000484733
0.00470436 0.000346833 1.43025e-05
0.000346833 0.00255709 7.43807e-06
1.43025e-05 7.43807e-06 0.00248753
0.00264751 -0.000177099 -0.000103503
-0.000177099 0.00117425 1.69019e-05
-0.000103503 1.69019e-05 0.00109988
0.00169665 -8.92711e-05 -9.98437e-05
-8.92711e-05 0.000558743 1.14389e-05
-9.98437e-05 1.14389e-05 0.000495718
0.00171564 -0.000125172 -2.72695e-05
-0.000125172 0.000405684 5.39284e-06
-2.72695e-05 5.39284e-06 0.000278517
0.00201752 -0.000195379 -2.56598e-05
-0.000195379 0.000616833 8.03312e-06
-2.56598e-05 8.03312e-06 0.000478723
0.00205016 -0.00024624 -2.45688e-05
-0.00024624 0.000688064 9.94836e-06
-2.45688e-05 9.94836e-06 0.00053112
0.00127848 -0.000224136 -6.44731e-06
-0.000224136 8.65971e-05 2.09187e-06
-6.44731e-06 2.09187e-06 -9.2968e-05
0.000569807 7.41597e-06 -5.40649e-08
7.41597e-06 -0.000125658 9.14842e-08
-5.40649e-08 9.14842e-08 -0.000195037
0.00160295 -6.57086e-05 -2.89886e-05
-6.57086e-05 0.000499769 3.28519e-07
-2.89886e-05 3.28519e-07 0.000435339
0.00122096 -2.87963e-05 -7.17864e-06
-2.87963e-05 0.000104128 3.72562e-07
-7.17864e-06 3.72562e-07 -1.33426e-05
0.00182293 -0.000104667 -5.43625e-06
-0.000104667 0.000463695 8.21285e-07
-5.43625e-06 8.21285e-07 0.000341384
0.00441201 0.000154071 -6.80601e-06
0.000154071 0.00232401 -9.51442e-07
-6.80601e-06 -9.51442e-07 0.00231041
0.00150536 -7.88434e-05 -3.01343e-06
-7.88434e-05 0.000534884 -1.61145e-07
-3.01343e-06 -1.61145e-07 0.000450356
0.00130896 -0.000206736 1.27567e-06
-0.000206736 0.000298517 -9.60891e-07
1.27567e-06 -9.60891e-07 0.000134756
0.0016758 -0.000154394 -5.77011e-06
-0.000154394 0.000396226 1.29468e-06
-5.77011e-06 1.29468e-06 0.000263157
0.00158996 -0.000166442 -2.3735e-06
-0.000166442 0.000179171 4.61459e-07
-2.3735e-06 4.61459e-07 2.93803e-05
0.00124749 -0.000242726 3.64516e-07
-0.000242726 0.00010782 1.50521e-09
3.64516e-07 1.50521e-09 -8.43861e-05
0.00150449 -0.000216462 3.18003e-07
-0.000216462 0.000190417 -1.63137e-07
3.18003e-07 -1.63137e-07 2.01291e-05
0.00157192 -0.000289896 6.35592e-07
-0.000289896 0.00015764 -9.12802e-08
6.35592e-07 -9.12802e-08 -3.5344e-05
0.000514872 -3.43723e-05 -8.86248e-07
-3.43723e-05 -3.88132e-05 1.23054e-07
-8.86248e-07 1.23054e-07 -9.53503e-05
0.000673583 -6.2728e-05 -3.05691e-07
-6.2728e-05 6.59462e-05 1.23487e-07
-3.05691e-07 1.23487e-07 -5.44382e-05
0.00099152 -1.37673e-05 1.22283e-05
-1.37673e-05 -3.00876e-05 -8.73302e-07
1.22283e-05 -8.73302e-07 -0.000149673
0.00167939 -6.31088e-05 1.20349e-05
-6.31088e-05 0.000375588 -1.65286e-06
1.20349e-05 -1.65286e-06 0.000258704
0.00167398 -5.32874e-05 6.75026e-07
-5.32874e-05 0.00020118 3.30477e-08
6.75026e-07 3.30477e-08 7.50047e-05
0.0014838 -0.000131298 2.80804e-06
-0.000131298 0.000100736 -2.55379e-07
2.80804e-06 -2.55379e-07 -3.93231e-05
0.0016768 -0.000204658 3.53018e-06
-0.000204658 0.000262575 -8.91541e-07
3.53018e-06 -8.91541e-07 0.000103598
0.00174625 -0.000206059 -5.79764e-07
-0.000206059 0.000146041 4.511e-07
-5.79764e-07 4.511e-07 4.73252e-06
0.000363242 -6.2675e-05 1.27151e-05
-6.2675e-05 -0.000136935 -1.27899e-05
1.27151e-05 -1.27899e-05 -0.00020018
0.00162055 -0.000269582 1.72382e-06
-0.000269582 0.000144856 6.31083e-07
1.72382e-06 6.31083e-07 -2.95078e-05
0.000704858 -0.000157976 5.71342e-06
-0.000157976 1.55172e-05 -7.59641e-06
5.71342e-06 -7.59641e-06 -0.000149324
0.000952332 -0.000235092 9.77623e-06
-0.000235092 -8.83545e-06 -3.59624e-06
9.77623e-06 -3.59624e-06 -0.000213103
0.00177709 -0.000331067 3.29807e-06
-0.000331067 0.000324534 -9.17476e-08
3.29807e-06 -9.17476e-08 0.000107975
0.00190076 -0.000327248 -1.61413e-06
-0.000327248 0.000290339 3.11967e-06
-1.61413e-06 3.11967e-06 0.000109621
0.000735036 -0.000104229 2.43205e-06
-0.000104229 9.91853e-05 -4.89573e-06
2.43205e-06 -4.89573e-06 -4.02459e-05
0.000657094 -2.58935e-05 6.74468e-07
-2.58935e-05 5.99799e-05 -3.61747e-06
6.74468e-07 -3.61747e-06 -4.43792e-05
0.00103731 -0.000162258 6.87766e-08
-0.000162258 0.000297008 4.77945e-07
6.87766e-08 4.77945e-07 0.000118013
0.000548486 9.40635e-05 -1.76682e-05
9.40635e-05 -0.000124289 -7.99805e-06
-1.76682e-05 -7.99805e-06 -0.000208382
0.00351209 -0.000159112 -8.20319e-05
-0.000159112 0.00178553 -2.98105e-06
-8.20319e-05 -2.98105e-06 0.00177487
0.00039927 -5.14762e-05 7.84231e-07
-5.14762e-05 -8.26444e-05 -8.15878e-06
7.84231e-07 -8.15878e-06 -0.000127459
0.000490992 0.00014188 -1.91406e-05
0.00014188 -0.000122713 -1.29622e-05
-1.91406e-05 -1.29622e-05 -0.000215914
0.000948145 0.00015051 -1.40864e-05
0.00015051 -2.16216e-05 -5.77302e-06
-1.40864e-05 -5.77302e-06 -0.000171281
0.000366715 5.91012e-05 -1.40472e-05
5.91012e-05 -0.000139543 -1.23152e-05
-1.40472e-05 -1.23152e-05 -0.00020172
0.000771234 0.000165625 -7.58009e-06
0.000165625 3.16052e-05 -7.49947e-06
-7.58009e-06 -7.49947e-06 -0.000138297
0.000918705 0.000175592 -1.154e-05
0.000175592 2.21601e-05 -6.35368e-06
-1.154e-05 -6.35368e-06 -0.000134731
0.00072988 0.000204976 -7.02511e-06
0.000204976 -0.000131293 -7.70561e-07
-7.02511e-06 -7.70561e-07 -0.000329055
0.000537587 1.23079e-05 1.98264e-06
1.23079e-05 -2.21936e-05 3.87925e-07
1.98264e-06 3.87925e-07 -7.41642e-05
0.000511768 -6.76748e-05 3.27784e-07
-6.76748e-05 -1.91851e-05 2.48377e-07
3.27784e-07 2.48377e-07 -5.62088e-05
0.000646872 2.5729e-05 7.94841e-07
2.5729e-05 5.61827e-05 4.21966e-07
7.94841e-07 4.21966e-07 -4.91356e-05
0.000994597 0.00013049 5.70238e-09
0.00013049 -1.73291e-05 -2.3717e-07
5.70238e-09 -2.3717e-07 -0.000160763
0.000956453 0.000167547 4.10726e-07
0.000167547 9.59468e-06 -3.14843e-07
4.10726e-07 -3.14843e-07 -0.000144577
0.00136208 0.00022228 2.4914e-07
0.00022228 9.92705e-05 9.67482e-09
2.4914e-07 9.67482e-09 -8.10106e-05
0.000792207 0.000162207 -5.91821e-07
0.000162207 0.000114271 2.88887e-07
-5.91821e-07 2.88887e-07 -4.97908e-05
0.00117362 0.000230421 1.64591e-07
0.000230421 9.12281e-05 2.91155e-09
1.64591e-07 2.91155e-09 -0.000100469
0.00113017 0.000243543 7.37786e-07
0.000243543 0.00017224 -1.81011e-06
7.37786e-07 -1.81011e-06 -4.87383e-05
0.00122159 0.000265495 -6.19999e-07
0.000265495 0.000109588 2.7521e-07
-6.19999e-07 2.7521e-07 -0.000103302
0.000550515 -7.10295e-05 -2.28129e-06
-7.10295e-05 -4.91196e-06 5.84727e-06
-2.28129e-06 5.84727e-06 -3.61372e-05
0.000808036 0.000124087 5.32827e-06
0.000124087 0.000139934 4.78532e-06
5.32827e-06 4.78532e-06 6.70918e-07
0.000725991 -1.28957e-07 9.58404e-07
-1.28957e-07 9.77647e-05 4.21435e-06
9.58404e-07 4.21435e-06 1.73639e-05
0.00087491 0.000111627 1.55592e-06
0.000111627 0.000224189 -2.53226e-07
1.55592e-06 -2.53226e-07 5.81938e-05
0.00142736 0.000198731 4.48573e-06
0.000198731 9.43586e-05 6.15385e-07
4.48573e-06 6.15385e-07 -7.36333e-05
0.00124939 0.000232916 6.56339e-06
0.000232916 7.85013e-05 2.32939e-06
6.56339e-06 2.32939e-06 -0.000109753
0.00171316 0.000296383 1.39445e-06
0.000296383 0.000195092 -1.70551e-07
1.39445e-06 -1.70551e-07 7.39934e-06
0.0013631 0.000240873 3.2996e-06
0.000240873 0.00039845 3.99615e-06
3.2996e-06 3.99615e-06 0.000187256
0.00162417 0.000318088 -2.20631e-07
0.000318088 0.00028342 -3.63683e-07
-2.20631e-07 -3.63683e-07 6.97777e-05
0.00125528 0.000271908 2.06705e-06
0.000271908 0.000190508 -1.05761e-06
2.06705e-06 -1.05761e-06 -5.11193e-05
0.00152877 0.000299955 1.13159e-06
0.000299955 0.000213098 2.63486e-07
1.13159e-06 2.63486e-07 -7.26415e-06
0.000625549 6.2098e-06 2.27502e-06
6.2098e-06 1.77327e-05 2.31883e-06
2.27502e-06 2.31883e-06 -3.26413e-05
0.000541865 -4.42949e-05 6.89985e-07
-4.42949e-05 -3.67776e-05 4.64767e-06
6.89985e-07 4.64767e-06 -5.66334e-05
0.00241045 -0.000102278 2.83932e-05
-0.000102278 0.00110469 3.31408e-06
2.83932e-05 3.31408e-06 0.00110867
0.00246359 -0.000115266 3.42242e-06
-0.000115266 0.00114451 -3.60143e-07
3.42242e-06 -3.60143e-07 0.0011451
0.00256762 -0.000130281 -3.56418e-05
-0.000130281 0.00121473 -2.70768e-06
-3.56418e-05 -2.70768e-06 0.00121111
0.000434491 -7.71457e-07 4.76776e-06
-7.71457e-07 -7.7301e-05 -7.83639e-06
4.76776e-06 -7.83639e-06 -0.00011783
0.00344379 0.000130408 8.77226e-05
0.000130408 0.00173909 -4.30884e-06
8.77226e-05 -4.30884e-06 0.0017338
0.000527828 -1.20896e-05 -3.21428e-07
-1.20896e-05 -2.39056e-05 2.27276e-07
-3.21428e-07 2.27276e-07 -7.33128e-05
0.00398155 0.000133103 -4.89162e-06
0.000133103 0.00206072 -7.20331e-07
-4.89162e-06 -7.20331e-07 0.00205401
0.000601742 9.78733e-05 -1.91361e-05
9.78733e-05 -9.90568e-05 -6.32801e-06
-1.91361e-05 -6.32801e-06 -0.000181263
0.000609848 3.27926e-05 -1.84098e-05
3.27926e-05 -0.000102884 -3.21277e-06
-1.84098e-05 -3.21277e-06 -0.000177152
0.000989553 8.82416e-05 -1.20245e-05
8.82416e-05 -3.87563e-05 -2.78197e-06
-1.20245e-05 -2.78197e-06 -0.000170829
0.000982091 4.17095e-05 -1.23437e-05
4.17095e-05 -4.43214e-05 -1.49618e-06
-1.23437e-05 -1.49618e-06 -0.000167101
0.000623233 -6.5548e-06 -1.92162e-05
-6.5548e-06 -9.94174e-05 -7.46286e-07
-1.92162e-05 -7.46286e-07 -0.000167352
0.00550917 -9.49483e-05 -0.000240573
-9.49483e-05 0.00293262 3.64722e-06
-0.000240573 3.64722e-06 0.0029396
0.000610403 -5.22202e-07 1.35136e-07
-5.22202e-07 -0.00010617 -4.96231e-07
1.35136e-07 -4.96231e-07 -0.00017389
0.000995104 2.02376e-05 -3.18671e-08
2.02376e-05 -3.26682e-05 -8.19732e-08
-3.18671e-08 -8.19732e-08 -0.000153149
0.00101158 6.2444e-05 -7.41594e-08
6.2444e-05 -2.77673e-05 -8.65752e-08
-7.41594e-08 -8.65752e-08 -0.000153992
0.0014592 5.95174e-05 -5.89e-08
5.95174e-05 5.57682e-05 7.50503e-08
-5.89e-08 7.50503e-08 -7.21084e-05
0.00101003 0.000109265 -1.09762e-07
0.000109265 -2.08156e-05 -2.41722e-07
-1.09762e-07 -2.41722e-07 -0.000158428
0.00147674 0.000134033 -3.90057e-08
0.000134033 7.38294e-05 -2.02634e-08
-3.90057e-08 -2.02634e-08 -7.0646e-05
0.000990727 -5.17783e-07 1.2247e-05
-5.17783e-07 -3.11608e-05 -3.24766e-07
1.2247e-05 -3.24766e-07 -0.000150859
0.0014428 3.15756e-05 1.75098e-06
3.15756e-05 5.04352e-05 1.52562e-07
1.75098e-06 1.52562e-07 -7.39697e-05
0.00147353 9.63584e-05 1.65774e-06
9.63584e-05 6.33556e-05 1.44793e-07
1.65774e-06 1.44793e-07 -7.11139e-05
0.00178699 8.47829e-05 -2.13294e-06
8.47829e-05 0.000101256 -3.63609e-07
-2.13294e-06 -3.63609e-07 -1.15229e-06
0.00147961 0.000169357 3.40032e-06
0.000169357 9.18672e-05 4.69935e-07
3.40032e-06 4.69935e-07 -6.37311e-05
0.00179687 0.000177806 -4.395e-07
0.000177806 0.000129754 -1.27409e-06
-4.395e-07 -1.27409e-06 1.61786e-06
0.000593991 1.11318e-06 -1.83857e-05
1.11318e-06 -0.000109524 1.11681e-06
-1.83857e-05 1.11681e-06 -0.000180558
0.00168114 -2.48353e-05 -0.000100115
-2.48353e-05 0.000540355 4.08893e-06
-0.000100115 4.08893e-06 0.000482067
0.000767459 -2.29908e-05 -1.45223e-05
-2.29908e-05 -0.000163612 1.73397e-06
-1.45223e-05 1.73397e-06 -0.000285658
0.00197373 -0.000105043 -2.41767e-05
-0.000105043 0.000550871 3.86129e-06
-2.41767e-05 3.86129e-06 0.000430047
0.00461412 0.000128601 -0.000152033
0.000128601 0.00243708 9.93285e-06
-0.000152033 9.93285e-06 0.0024281
0.0026664 -0.000125694 -9.67947e-05
-0.000125694 0.00121099 1.32647e-05
-9.67947e-05 1.32647e-05 0.00114468
0.00193435 -0.000250605 -1.96578e-05
-0.000250605 0.000673571 8.49207e-06
-1.96578e-05 8.49207e-06 0.000506978
0.00168682 -0.000153318 -2.55062e-05
-0.000153318 0.00040221 6.5718e-06
-2.55062e-05 6.5718e-06 0.000269374
0.00145582 -0.000163203 -5.62819e-06
-0.000163203 9.78151e-05 1.12989e-06
-5.62819e-06 1.12989e-06 -5.11959e-05
0.00169745 -0.000225379 -6.84731e-06
-0.000225379 0.000302357 2.06206e-06
-6.84731e-06 2.06206e-06 0.000132883
0.00118785 -0.000240551 -7.41237e-06
-0.000240551 7.26729e-05 2.50199e-06
-7.41237e-06 2.50199e-06 -0.000120388
0.00159413 -0.000289931 -2.1554e-06
-0.000289931 0.000174927 -5.75173e-07
-2.1554e-06 -5.75173e-07 -1.735e-05
0.000621921 -4.43729e-05 -1.1136e-05
-4.43729e-05 2.27547e-05 1.14117e-05
-1.1136e-05 1.14117e-05 -3.5351e-05
0.000665505 -8.41895e-05 -1.89866e-06
-8.41895e-05 6.29186e-05 3.35628e-06
-1.89866e-06 3.35628e-06 -6.17495e-05
0.000872789 -9.06638e-06 -2.66859e-07
-9.06638e-06 -0.000100275 -4.11497e-08
-2.66859e-07 -4.11497e-08 -0.000220392
0.00168754 -6.41949e-05 -5.92335e-06
-6.41949e-05 0.000379205 6.22099e-07
-5.92335e-06 6.22099e-07 0.000262412
0.00170382 -4.95137e-05 -1.92678e-06
-4.95137e-05 0.000215226 2.78925e-07
-1.92678e-06 2.78925e-07 9.18315e-05
0.0015772 -0.000132635 -4.89152e-07
-0.000132635 0.000157032 2.0537e-07
-4.89152e-07 2.0537e-07 1.59247e-05
0.000521223 -7.45321e-05 -2.56265e-07
-7.45321e-05 -4.60514e-05 3.60765e-07
-2.56265e-07 3.60765e-07 -0.000111668
0.000845535 -0.000177468 -8.26604e-07
-0.000177468 9.6791e-05 -5.4693e-07
-8.26604e-07 -5.4693e-07 -7.07902e-05
0.00101903 -0.000239637 2.54023e-06
-0.000239637 3.15115e-05 -9.50442e-07
2.54023e-06 -9.50442e-07 -0.000172675
0.0016894 -0.000202972 -2.78524e-06
-0.000202972 0.000269355 7.2398e-07
-2.78524e-06 7.2398e-07 0.000109518
0.00181113 -0.000210367 7.1524e-07
-0.000210367 0.000178299 -1.42352e-07
7.1524e-07 -1.42352e-07 4.04332e-05
0.00176992 -0.000334844 -1.78545e-06
-0.000334844 0.000323173 3.15551e-07
-1.78545e-06 3.15551e-07 0.000105098
0.00163448 -0.000269782 5.13037e-07
-0.000269782 0.000154664 -5.72199e-08
5.13037e-07 -5.72199e-08 -1.93141e-05
0.001842 -0.000325641 7.13116e-07
-0.000325641 0.000249806 5.77405e-07
7.13116e-07 5.77405e-07 6.89817e-05
0.000715725 -0.000116938 -2.37319e-07
-0.000116938 8.76356e-05 -1.99201e-07
-2.37319e-07 -1.99201e-07 -5.42129e-05
0.000565661 -9.9993e-05 -5.15203e-07
-9.9993e-05 4.25958e-06 -6.05125e-07
-5.15203e-07 -6.05125e-07 -0.000159948
0.000677565 -3.89294e-05 -6.30379e-08
-3.89294e-05 7.07635e-05 7.6956e-08
-6.30379e-08 7.6956e-08 -3.49721e-05
0.00165866 -2.04993e-05 5.28565e-07
-2.04993e-05 0.000186854 7.30341e-09
5.28565e-07 7.30341e-09 6.37041e-05
0.00173721 -8.78633e-05 2.95354e-07
-8.78633e-05 0.000236373 3.91833e-07
2.95354e-07 3.91833e-07 0.000108468
0.00168898 -7.14447e-05 -2.14865e-06
-7.14447e-05 6.15409e-05 1.13799e-06
-2.14865e-06 1.13799e-06 -4.33459e-05
0.00174684 -0.000168717 -2.35513e-06
-0.000168717 0.000112264 1.18496e-06
-2.35513e-06 1.18496e-06 -1.33348e-05
0.00163507 -0.000244869 -3.70366e-08
-0.000244869 0.000118282 1.50392e-06
-3.70366e-08 1.50392e-06 -3.58528e-05
0.00182892 -0.00023324 -1.35622e-06
-0.00023324 0.000133177 1.07497e-06
-1.35622e-06 1.07497e-06 1.74451e-05
0.000703409 -0.00014029 3.95904e-06
-0.00014029 6.63995e-05 -5.64245e-06
3.95904e-06 -5.64245e-06 -8.97665e-05
0.00171061 -0.000298635 -1.82475e-06
-0.000298635 0.000129026 1.88542e-06
-1.82475e-06 1.88542e-06 -2.82825e-05
0.00111636 -0.000241702 3.56207e-06
-0.000241702 0.000187087 -5.40724e-06
3.56207e-06 -5.40724e-06 -2.39568e-05
0.0013476 -0.000322782 4.91011e-06
-0.000322782 0.000159691 -1.3078e-06
4.91011e-06 -1.3078e-06 -8.08963e-05
0.0019137 -0.000373876 1.01639e-06
-0.000373876 0.000346469 3.13564e-06
1.01639e-06 3.13564e-06 0.000124994
0.00199518 -0.000349336 -3.18894e-06
-0.000349336 0.000314236 3.63938e-06
-3.18894e-06 3.63938e-06 0.000146725
0.000624556 -2.75564e-05 8.13586e-07
-2.75564e-05 4.10036e-05 -3.53343e-06
8.13586e-07 -3.53343e-06 -5.04538e-05
0.000780764 -0.000157103 5.16095e-07
-0.000157103 0.000105146 1.24531e-07
5.16095e-07 1.24531e-07 -6.35591e-05
0.000508898 -8.44698e-05 -4.33615e-07
-8.44698e-05 -1.42133e-06 6.66481e-07
-4.33615e-07 6.66481e-07 -0.000165906
0.00130818 -0.000223131 -2.57552e-06
-0.000223131 0.000424769 2.26145e-06
-2.57552e-06 2.26145e-06 0.00023383
0.000973014 0.000131597 -1.36645e-05
0.000131597 -2.7278e-05 -4.76962e-06
-1.36645e-05 -4.76962e-06 -0.000171437
0.000437734 -6.82042e-05 1.53786e-06
-6.82042e-05 -6.32e-05 -6.3744e-06
1.53786e-06 -6.3744e-06 -9.96334e-05
0.000394034 -6.07476e-06 -4.95001e-06
-6.07476e-06 -0.000102727 -1.0309e-05
-4.95001e-06 -1.0309e-05 -0.000154151
0.000473007 -9.89914e-06 4.35434e-07
-9.89914e-06 -4.39965e-05 -5.01638e-06
4.35434e-07 -5.01638e-06 -0.000146927
0.000937842 0.000167786 -1.29539e-05
0.000167786 1.00703e-06 -6.89569e-06
-1.29539e-05 -6.89569e-06 -0.000153593
0.00136855 0.000222099 -5.66433e-06
0.000222099 0.000105142 -1.55976e-06
-5.66433e-06 -1.55976e-06 -7.52892e-05
0.000708418 0.000140227 -4.75249e-06
0.000140227 6.56943e-05 -5.01802e-06
-4.75249e-06 -5.01802e-06 -9.46862e-05
0.00101262 0.000233223 -5.12773e-06
0.000233223 0.000103747 -4.74341e-06
-5.12773e-06 -4.74341e-06 -0.000115411
0.00131012 0.00023841 -6.15447e-06
0.00023841 0.000175237 -2.4886e-06
-6.15447e-06 -2.4886e-06 -1.68645e-05
0.000868491 0.000243017 -3.8205e-06
0.000243017 -9.98587e-05 4.68628e-07
-3.8205e-06 4.68628e-07 -0.000310512
0.000515918 -6.68342e-05 -2.37075e-07
-6.68342e-05 -2.82363e-05 1.57731e-07
-2.37075e-07 1.57731e-07 -5.78787e-05
0.000745875 0.000111005 2.88961e-07
0.000111005 0.000110669 -3.66663e-07
2.88961e-07 -3.66663e-07 -3.01913e-05
0.000600388 -1.76176e-05 -5.02763e-07
-1.76176e-05 2.56688e-05 7.94944e-07
-5.02763e-07 7.94944e-07 -5.43635e-05
0.000799842 8.50374e-05 1.39038e-06
8.50374e-05 0.000176942 -8.94269e-07
1.39038e-06 -8.94269e-07 1.57634e-05
0.00142499 0.000198405 4.21793e-08
0.000198405 9.40998e-05 -3.56158e-07
4.21793e-08 -3.56158e-07 -7.41496e-05
0.00127327 0.000233116 4.51061e-07
0.000233116 9.84726e-05 4.49641e-08
4.51061e-07 4.49641e-08 -8.98137e-05
0.00168899 0.000294907 2.36712e-07
0.000294907 0.000180185 1.08133e-07
2.36712e-07 1.08133e-07 -7.57349e-06
0.00107157 0.00021745 1.03313e-06
0.00021745 0.0002296 4.95065e-07
1.03313e-06 4.95065e-07 2.21001e-05
0.00168684 0.00031853 -1.21843e-06
0.00031853 0.000322906 -1.87572e-07
-1.21843e-06 -1.87572e-07 0.000109626
0.00125719 0.000276525 3.53114e-07
0.000276525 0.000186825 -1.99507e-06
3.53114e-07 -1.99507e-06 -5.67682e-05
0.00152287 0.000300207 -3.26321e-06
0.000300207 0.000212117 3.77241e-07
-3.26321e-06 3.77241e-07 -8.15951e-06
0.000533793 -5.67516e-05 -2.06721e-07
-5.67516e-05 -3.10013e-05 4.97221e-06
-2.06721e-07 4.97221e-06 -5.50768e-05
0.000673866 -9.51522e-06 1.5864e-06
-9.51522e-06 5.62113e-05 3.21928e-06
1.5864e-06 3.21928e-06 -8.17427e-06
0.00104214 0.000184417 1.23635e-06
0.000184417 0.000274136 1.70647e-06
1.23635e-06 1.70647e-06 9.49484e-05
0.000966624 6.16194e-05 -8.74086e-07
6.16194e-05 0.00028085 2.65218e-06
-8.74086e-07 2.65218e-06 0.000139999
0.00114535 0.000169661 -5.93993e-09
0.000169661 0.000363481 -1.80112e-06
-5.93993e-09 -1.80112e-06 0.000176894
0.00176067 0.000261041 1.01472e-06
0.000261041 0.000175542 -1.41827e-06
1.01472e-06 -1.41827e-06 9.0967e-06
0.0015862 0.0003155 1.35955e-06
0.0003155 0.000187556 1.39353e-07
1.35955e-06 1.39353e-07 -1.80463e-05
0.00181787 0.000332201 1.54038e-07
0.000332201 0.000216992 -2.8359e-07
1.54038e-07 -2.8359e-07 3.52305e-05
0.00111092 0.000258521 2.27862e-06
0.000258521 0.000211632 4.55414e-06
2.27862e-06 4.55414e-06 -2.72489e-05
0.00188189 0.000380637 1.66961e-06
0.000380637 0.000374272 -5.74002e-07
1.66961e-06 -5.74002e-07 0.000150328
0.000649679 0.000236526 4.12206e-06
0.000236526 -0.000234297 -1.36888e-06
4.12206e-06 -1.36888e-06 -0.000473008
0.00062428 1.50598e-06 2.57799e-06
1.50598e-06 1.76035e-05 2.3468e-06
2.57799e-06 2.3468e-06 -3.45511e-05
0.000679749 4.64679e-05 1.16492e-07
4.64679e-05 7.96283e-05 1.05972e-06
1.16492e-07 1.05972e-06 -6.22896e-06
0.00064142 1.62597e-05 2.05314e-06
1.62597e-05 3.01466e-05 2.29997e-06
2.05314e-06 2.29997e-06 -1.99446e-05
0.000611744 -1.6728e-05 -5.45763e-07
-1.6728e-05 1.17269e-05 4.19397e-09
-5.45763e-07 4.19397e-09 -3.9696e-05
0.00124637 -5.15358e-05 1.02225e-06
-5.15358e-05 0.000379313 2.68085e-06
1.02225e-06 2.68085e-06 0.000365417
0.000917085 -5.17277e-05 5.48604e-07
-5.17277e-05 0.000187412 -9.34155e-08
5.48604e-07 -9.34155e-08 0.000169449
0.000899874 -5.1359e-05 2.3654e-05
-5.1359e-05 0.000188883 7.44792e-06
2.3654e-05 7.44792e-06 0.000190288
0.00237527 -9.98583e-05 3.60236e-06
-9.98583e-05 0.0010827 -3.20057e-07
3.60236e-06 -3.20057e-07 0.00108719
0.00240363 -0.000111899 -3.27342e-05
-0.000111899 0.00110812 -3.02556e-06
-3.27342e-05 -3.02556e-06 0.00110943
0.000470122 2.19828e-05 1.07651e-06
2.19828e-05 -5.66431e-05 -6.37827e-06
1.07651e-06 -6.37827e-06 -9.01853e-05
0.00309336 0.000133012 5.61712e-05
0.000133012 0.00152524 -3.14505e-06
5.61712e-05 -3.14505e-06 0.00152001
0.000527647 -1.49131e-06 -3.90609e-07
-1.49131e-06 -2.27723e-05 2.5241e-07
-3.90609e-07 2.5241e-07 -6.39663e-05
0.00360092 0.000120818 -5.57619e-06
0.000120818 0.00182945 -5.25456e-07
-5.57619e-06 -5.25456e-07 0.00182651
0.000630009 -1.43773e-05 -6.95494e-06
-1.43773e-05 3.34009e-05 9.69099e-06
-6.95494e-06 9.69099e-06 -1.65937e-05
0.00409738 0.000120128 -0.000130388
0.000120128 0.00212574 7.59037e-06
-0.000130388 7.59037e-06 0.00212178
0.000984128 0.000110936 -1.26781e-05
0.000110936 -3.445e-05 -3.72918e-06
-1.26781e-05 -3.72918e-06 -0.000172799
0.000992713 6.61703e-05 -1.21013e-05
6.61703e-05 -3.86911e-05 -2.10614e-06
-1.21013e-05 -2.10614e-06 -0.000165501
0.00147639 0.000131492 -3.20026e-06
0.000131492 7.43102e-05 -3.23169e-07
-3.20026e-06 -3.23169e-07 -7.02319e-05
0.00145783 5.88238e-05 -1.91277e-06
5.88238e-05 5.63804e-05 -1.56575e-08
-1.91277e-06 -1.56575e-08 -7.16105e-05
0.000992496 2.39917e-05 -1.23504e-05
2.39917e-05 -3.50262e-05 -7.669e-07
-1.23504e-05 -7.669e-07 -0.000155707
0.000576202 2.70867e-05 -1.89778e-05
2.70867e-05 -0.000126193 -1.39598e-07
-1.89778e-05 -1.39598e-07 -0.000193669
0.000989923 1.97494e-06 -4.42491e-10
1.97494e-06 -3.22695e-05 -1.53374e-07
-4.42491e-10 -1.53374e-07 -0.000152002
0.00144322 3.3077e-05 -6.84745e-08
3.3077e-05 5.11091e-05 3.40345e-08
-6.84745e-08 3.40345e-08 -7.34214e-05
0.00147588 9.39685e-05 -6.89931e-10
9.39685e-05 6.64289e-05 2.22712e-08
-6.89931e-10 2.22712e-08 -6.80321e-05
0.00181116 8.41707e-05 5.43129e-08
8.41707e-05 0.000110519 2.41546e-07
5.43129e-08 2.41546e-07 1.09245e-05
0.00146656 0.000168499 -2.07498e-07
0.000168499 8.65616e-05 -8.18932e-08
-2.07498e-07 -8.18932e-08 -6.92465e-05
0.00178379 0.000175185 -2.93642e-07
0.000175185 0.000126236 -8.24968e-10
-2.93642e-07 -8.24968e-10 -1.83716e-06
0.00143677 5.66165e-06 2.03151e-06
5.66165e-06 5.07428e-05 3.67197e-08
2.03151e-06 3.67197e-08 -7.27187e-05
0.00181539 4.39651e-05 -3.58379e-06
4.39651e-05 0.000124916 -1.799e-07
-3.58379e-06 -1.799e-07 3.34015e-05
0.0017972 0.000135298 -1.58406e-06
0.000135298 0.000107646 -9.10273e-07
-1.58406e-06 -9.10273e-07 -5.61133e-06
0.00177132 8.4782e-05 2.72524e-06
8.4782e-05 2.35115e-05 2.49798e-07
2.72524e-06 2.49798e-07 -5.15702e-05
0.00178813 0.000217984 4.7001e-08
0.000217984 0.000161821 -1.1468e-06
4.7001e-08 -1.1468e-06 1.6225e-05
0.00174328 0.000196456 -7.03547e-07
0.000196456 4.0788e-05 -1.21519e-06
-7.03547e-07 -1.21519e-06 -6.16383e-05
0.000758517 -5.92034e-06 -1.21357e-05
-5.92034e-06 -0.000167844 7.19614e-07
-1.21357e-05 7.19614e-07 -0.000288544
0.0017183 -6.66407e-05 -2.37512e-05
-6.66407e-05 0.000396202 2.85787e-06
-2.37512e-05 2.85787e-06 0.000279452
0.00175728 -4.35245e-05 -5.23666e-06
-4.35245e-05 0.000243071 1.514e-07
-5.23666e-06 1.514e-07 0.000122692
0.00167241 -0.000134117 -4.168e-06
-0.000134117 0.00021441 9.75641e-07
-4.168e-06 9.75641e-07 7.22457e-05
0.000723969 -8.97764e-05 -1.5449e-05
-8.97764e-05 7.22821e-05 1.368e-05
-1.5449e-05 1.368e-05 2.90546e-06
0.000782964 -0.000183181 -8.36291e-06
-0.000183181 6.19485e-05 7.06667e-06
-8.36291e-06 7.06667e-06 -0.000106661
0.00104075 -0.000240139 -5.4439e-06
-0.000240139 4.54836e-05 2.40883e-06
-5.4439e-06 2.40883e-06 -0.000157934
0.00170126 -0.000201101 -7.91798e-06
-0.000201101 0.000275611 2.28489e-06
-7.91798e-06 2.28489e-06 0.000114952
0.00187546 -0.000214512 5.80345e-07
-0.000214512 0.000210135 -1.06535e-06
5.80345e-07 -1.06535e-06 7.57543e-05
0.00164688 -0.00026989 -1.22335e-06
-0.00026989 0.000163488 -5.99163e-07
-1.22335e-06 -5.99163e-07 -1.00938e-05
0.00173803 -0.00033644 -4.72351e-06
-0.00033644 0.000307832 -2.96879e-07
-4.72351e-06 -2.96879e-07 8.86502e-05
0.00178153 -0.000323075 3.12893e-06
-0.000323075 0.000208581 -2.53328e-06
3.12893e-06 -2.53328e-06 2.79186e-05
0.000775549 -0.00012621 -3.95342e-06
-0.00012621 0.000118588 4.87332e-06
-3.95342e-06 4.87332e-06 -2.28487e-05
0.000453064 -8.584e-05 -6.22444e-07
-8.584e-05 -6.12002e-05 -1.16332e-06
-6.22444e-07 -1.16332e-06 -0.000224257
0.000602446 -4.64324e-05 -1.46084e-06
-4.64324e-05 2.59787e-05 3.21989e-06
-1.46084e-06 3.21989e-06 -8.13973e-05
0.0015626 -1.82399e-05 -2.0797e-06
-1.82399e-05 0.000128863 1.47111e-07
-2.0797e-06 1.47111e-07 5.31188e-06
0.00173793 -9.54592e-05 -2.79772e-06
-9.54592e-05 0.000236032 4.42294e-07
-2.79772e-06 4.42294e-07 0.000107273
0.00173473 -6.83165e-05 1.55048e-06
-6.83165e-05 8.90362e-05 5.68476e-07
1.55048e-06 5.68476e-07 -1.05763e-05
0.00174566 -0.00016529 -1.64588e-06
-0.00016529 0.000110575 5.02928e-07
-1.64588e-06 5.02928e-07 -1.61201e-05
0.000754844 -0.000156374 4.08511e-07
-0.000156374 9.74867e-05 2.13362e-07
4.08511e-07 2.13362e-07 -6.16224e-05
0.00109125 -0.000239988 -1.60102e-06
-0.000239988 0.000167333 -7.12771e-07
-1.60102e-06 -7.12771e-07 -4.29637e-05
0.00142039 -0.000324803 2.40171e-06
-0.000324803 0.000209623 -3.42754e-07
2.40171e-06 -3.42754e-07 -3.08505e-05
0.00163277 -0.000243543 -8.27421e-07
-0.000243543 0.00011902 5.86795e-07
-8.27421e-07 5.86795e-07 -3.82527e-05
0.00186633 -0.000234664 1.64239e-06
-0.000234664 0.000155687 9.73737e-08
1.64239e-06 9.73737e-08 4.41016e-05
0.00180453 -0.000372714 -8.38379e-07
-0.000372714 0.000278697 3.83445e-07
-8.38379e-07 3.83445e-07 5.48018e-05
0.00174558 -0.000299689 8.56685e-08
-0.000299689 0.000149378 3.56998e-07
8.56685e-08 3.56998e-07 -7.79215e-06
0.00202157 -0.000346587 1.85243e-06
-0.000346587 0.000328992 -2.61465e-07
1.85243e-06 -2.61465e-07 0.000164981
0.000970317 -0.000181924 3.6632e-07
-0.000181924 0.000220078 8.80607e-07
3.6632e-07 8.80607e-07 4.5127e-05
0.00116547 -0.000219423 -3.44165e-07
-0.000219423 0.000347492 2.72406e-07
-3.44165e-07 2.72406e-07 0.000153872
0.000633351 -3.24753e-05 -9.83837e-09
-3.24753e-05 4.52445e-05 1.97764e-07
-9.83837e-09 1.97764e-07 -4.70246e-05
0.00036223 -4.37675e-05 -7.90955e-08
-4.37675e-05 -9.90396e-05 -6.364e-07
-7.90955e-08 -6.364e-07 -0.000252587
0.00175534 -3.73641e-05 -2.45836e-06
-3.73641e-05 0.000100409 2.35901e-07
-2.45836e-06 2.35901e-07 3.41058e-06
0.00184182 -0.00011425 -7.02163e-07
-0.00011425 0.000150229 1.41378e-06
-7.02163e-07 1.41378e-06 3.91517e-05
0.00171551 -7.87198e-05 1.7675e-06
-7.87198e-05 2.72063e-05 -9.03637e-08
1.7675e-06 -9.03637e-08 -5.18736e-05
0.00179463 -0.000191483 -3.29276e-06
-0.000191483 6.98986e-05 7.26172e-07
-3.29276e-06 7.26172e-07 -2.28541e-05
0.0017292 -0.000266146 -3.45073e-06
-0.000266146 0.000107329 2.65686e-06
-3.45073e-06 2.65686e-06 -2.462e-05
0.00200735 -0.000241924 2.35481e-06
-0.000241924 0.000223158 -8.57549e-07
2.35481e-06 -8.57549e-07 0.000126161
0.000967873 -0.000212117 5.91698e-07
-0.000212117 0.000179489 -3.98786e-06
5.91698e-07 -3.98786e-06 -1.57346e-05
0.00165106 -0.000310638 -4.66698e-06
-0.000310638 7.24651e-05 2.35853e-06
-4.66698e-06 2.35853e-06 -6.26576e-05
0.00118245 -0.000290117 2.14442e-06
-0.000290117 0.000176017 -4.67147e-06
2.14442e-06 -4.67147e-06 -6.61508e-05
0.00167558 -0.00039801 -1.68462e-06
-0.00039801 0.000298203 1.54738e-06
-1.68462e-06 1.54738e-06 3.27661e-05
0.00174584 -0.000381772 1.19406e-06
-0.000381772 0.000198282 4.80148e-06
1.19406e-06 4.80148e-06 -2.15102e-05
0.00201165 -0.000333042 -1.16498e-07
-0.000333042 0.000312562 8.95098e-07
-1.16498e-07 8.95098e-07 0.000156334
0.000535098 -3.3956e-05 1.02724e-06
-3.3956e-05 -1.24066e-05 -3.27565e-06
1.02724e-06 -3.27565e-06 -9.1601e-05
0.000447774 -3.9301e-05 -1.50356e-06
-3.9301e-05 -3.83943e-05 -1.03254e-06
-1.50356e-06 -1.03254e-06 -0.000179736
0.000872094 -0.00021207 -1.3502e-06
-0.00021207 0.000134765 9.17273e-07
-1.3502e-06 9.17273e-07 -5.55758e-05
0.000816518 -0.000153026 4.43021e-07
-0.000153026 0.000187872 2.68661e-06
4.43021e-07 2.68661e-06 -1.08163e-06
0.00146658 -0.000267829 -3.99772e-06
-0.000267829 0.000508505 4.44394e-06
-3.99772e-06 4.44394e-06 0.000312524
0.00048916 -6.13125e-05 -4.32179e-07
-6.13125e-05 -4.69199e-05 -5.0266e-06
-4.32179e-07 -5.0266e-06 -7.49001e-05
0.00141942 0.000197765 -4.49358e-06
0.000197765 9.25161e-05 -1.30804e-06
-4.49358e-06 -1.30804e-06 -7.59546e-05
0.000492742 -3.40769e-05 -2.57328e-07
-3.40769e-05 -3.47665e-05 -3.46308e-06
-2.57328e-07 -3.46308e-06 -0.00011518
0.000697726 8.3329e-05 -1.91827e-06
8.3329e-05 7.87232e-05 -4.70986e-06
-1.91827e-06 -4.70986e-06 -5.53434e-05
0.000607128 5.97007e-05 1.40894e-06
5.97007e-05 5.80336e-05 -9.53292e-07
1.40894e-06 -9.53292e-07 -9.71203e-05
0.001306 0.000234146 -6.34527e-06
0.000234146 0.000123106 -2.40534e-06
-6.34527e-06 -2.40534e-06 -6.53533e-05
0.00166991 0.000293892 -7.57312e-08
0.000293892 0.000167793 6.11329e-07
-7.57312e-08 6.11329e-07 -2.01068e-05
0.000854429 0.000203897 -1.40776e-06
0.000203897 0.000104466 -3.87574e-06
-1.40776e-06 -3.87574e-06 -0.000102474
0.00128364 0.000284122 -2.33413e-06
0.000284122 0.00019671 -1.95882e-06
-2.33413e-06 -1.95882e-06 -4.98708e-05
0.00175094 0.000319383 -2.54411e-06
0.000319383 0.00036228 -3.86881e-07
-2.54411e-06 -3.86881e-07 0.000149258
0.00154836 0.000303946 -6.31205e-06
0.000303946 0.000228883 3.33757e-06
-6.31205e-06 3.33757e-06 7.99386e-06
0.000539379 -5.19137e-05 1.46667e-08
-5.19137e-05 -3.00866e-05 4.30389e-09
1.46667e-08 4.30389e-09 -5.29264e-05
0.000632371 -1.88146e-05 -6.21334e-07
-1.88146e-05 3.43765e-05 2.915e-07
-6.21334e-07 2.915e-07 -3.02276e-05
0.000951698 0.000176674 -2.04539e-07
0.000176674 0.000220572 1.0545e-06
-2.04539e-07 1.0545e-06 4.25471e-05
0.000678641 1.78663e-05 -5.23122e-07
1.78663e-05 0.000101906 1.78334e-07
-5.23122e-07 1.78334e-07 -2.88761e-05
0.000623351 0.000116119 6.28376e-07
0.000116119 4.65601e-05 -7.44033e-07
6.28376e-07 -7.44033e-07 -0.000129346
0.00174296 0.000261441 -2.20863e-07
0.000261441 0.000162388 -8.62557e-07
-2.20863e-07 -8.62557e-07 -4.46471e-06
0.00158431 0.000316154 4.87238e-07
0.000316154 0.000184257 1.81868e-07
4.87238e-07 1.81868e-07 -2.18191e-05
0.00173873 0.000328726 1.79583e-06
0.000328726 0.000171657 2.00933e-07
1.79583e-06 2.00933e-07 -1.04705e-05
0.00118991 0.000266417 1.25777e-06
0.000266417 0.00026519 9.94004e-07
1.25777e-06 9.94004e-07 2.27996e-05
0.00181599 0.000374154 9.50274e-07
0.000374154 0.00031921 1.21685e-07
9.50274e-07 1.21685e-07 9.492e-05
0.00131695 0.000294743 -1.24844e-06
0.000294743 0.000156284 3.5867e-07
-1.24844e-06 3.5867e-07 -9.00183e-05
0.000681415 -5.10691e-06 2.13845e-06
-5.10691e-06 5.37085e-05 2.56e-06
2.13845e-06 2.56e-06 -2.4193e-06
0.000868855 5.64103e-05 6.86353e-07
5.64103e-05 0.000203597 2.73925e-06
6.86353e-07 2.73925e-06 9.5634e-05
0.00104471 0.000230465 -2.81725e-06
0.000230465 0.000244431 -7.26171e-07
-2.81725e-06 -7.26171e-07 4.65294e-05
0.00122192 9.14604e-05 2.31486e-08
9.14604e-05 0.000427566 7.77874e-07
2.31486e-08 7.77874e-07 0.000261828
0.00114693 0.000141061 -5.64021e-06
0.000141061 0.000312766 -6.2577e-06
-5.64021e-06 -6.2577e-06 0.00014747
0.00177694 0.000272216 -2.96052e-06
0.000272216 0.000149019 -2.60172e-06
-2.96052e-06 -2.60172e-06 -1.63845e-06
0.00179558 0.000376006 1.58524e-06
0.000376006 0.000252177 2.87929e-07
1.58524e-06 2.87929e-07 4.20762e-05
0.00153342 0.000348461 3.58469e-06
0.000348461 2.63511e-05 -8.22377e-07
3.58469e-06 -8.22377e-07 -0.000153196
0.000812115 0.000246027 -1.26558e-06
0.000246027 2.93443e-05 2.87703e-06
-1.26558e-06 2.87703e-06 -0.000218893
0.00142429 0.000349881 6.19482e-06
0.000349881 0.000137534 -1.23021e-06
6.19482e-06 -1.23021e-06 -0.000105156
0.000626307 -6.28231e-06 -1.83806e-07
-6.28231e-06 1.82346e-05 2.35292e-08
-1.83806e-07 2.35292e-08 -3.36546e-05
0.00055622 2.40599e-05 1.4659e-06
2.40599e-05 -4.30142e-06 1.5531e-06
1.4659e-06 1.5531e-06 -8.49298e-05
0.000544907 1.33237e-05 -6.01608e-07
1.33237e-05 -6.79271e-06 -1.01029e-07
-6.01608e-07 -1.01029e-07 -8.73075e-05
0.000925256 9.22948e-05 3.15138e-07
9.22948e-05 0.000230861 -5.46407e-07
3.15138e-07 -5.46407e-07 0.000130156
0.000678865 7.08601e-05 1.88208e-06
7.08601e-05 7.99876e-05 1.39107e-06
1.88208e-06 1.39107e-06 -4.6562e-06
0.000618891 2.84774e-05 2.13801e-06
2.84774e-05 2.1965e-05 2.37182e-06
2.13801e-06 2.37182e-06 -2.9144e-05
0.000616004 -8.87566e-06 -6.37935e-07
-8.87566e-06 1.63236e-05 -7.55052e-10
-6.37935e-07 -7.55052e-10 -3.42635e-05
0.00124484 -3.89013e-05 8.3955e-07
-3.89013e-05 0.000374741 2.54792e-06
8.3955e-07 2.54792e-06 0.000362781
0.00061862 -1.71349e-05 -1.22e-06
-1.71349e-05 1.45357e-05 -2.36218e-06
-1.22e-06 -2.36218e-06 -3.58475e-05
0.00129601 -4.83554e-05 -5.37549e-06
-4.83554e-05 0.000408632 -1.40106e-06
-5.37549e-06 -1.40106e-06 0.000395224
0.000862504 -4.04547e-05 2.32279e-05
-4.04547e-05 0.000158124 7.5759e-06
2.32279e-05 7.5759e-06 0.000162698
0.00131463 -5.716e-05 -9.54071e-06
-5.716e-05 0.000425606 -3.88017e-06
-9.54071e-06 -3.88017e-06 0.000409912
0.0015819 -6.77365e-05 2.08965e-05
-6.77365e-05 0.000598256 1.91313e-06
2.08965e-05 1.91313e-06 0.000602944
0.00232576 -9.69133e-05 -2.88891e-05
-9.69133e-05 0.00105193 -3.57073e-06
-2.88891e-05 -3.57073e-06 0.00105706
0.000468959 6.34741e-05 -2.19461e-06
6.34741e-05 -5.48331e-05 -5.26866e-06
-2.19461e-06 -5.26866e-06 -8.59832e-05
0.000509717 2.00761e-05 3.68756e-07
2.00761e-05 -3.24406e-05 3.32471e-07
3.68756e-07 3.32471e-07 -6.69969e-05
0.00273202 0.000120318 3.44488e-05
0.000120318 0.00130435 -3.45573e-06
3.44488e-05 -3.45573e-06 0.0013024
0.00320466 0.00011075 -6.98923e-06
0.00011075 0.00158856 -4.2373e-07
-6.98923e-06 -4.2373e-07 0.00158866
0.000628348 -2.86701e-06 -5.48365e-06
-2.86701e-06 3.61438e-05 7.96173e-06
-5.48365e-06 7.96173e-06 -5.74879e-06
0.00370916 0.00010668 -0.000115759
0.00010668 0.00189003 6.42828e-06
-0.000115759 6.42828e-06 0.00189027
0.001456 0.000168028 -3.98258e-06
0.000168028 8.21147e-05 -6.34351e-07
-3.98258e-06 -6.34351e-07 -7.39604e-05
0.00146265 9.44052e-05 -2.25893e-06
9.44052e-05 5.98106e-05 -1.03064e-07
-2.25893e-06 -1.03064e-07 -7.50748e-05
0.00176655 0.000173728 -2.37792e-07
0.000173728 0.00011989 1.21652e-06
-2.37792e-07 1.21652e-06 -8.302e-06
0.00183327 8.34764e-05 1.24365e-06
8.34764e-05 0.000118018 7.37683e-07
1.24365e-06 7.37683e-07 2.12849e-05
0.00144013 3.59787e-05 -1.88424e-06
3.59787e-05 5.01192e-05 -6.57942e-08
-1.88424e-06 -6.57942e-08 -7.45934e-05
0.000994751 6.55994e-06 -1.21302e-05
6.55994e-06 -2.9961e-05 -9.2074e-08
-1.21302e-05 -9.2074e-08 -0.00014966
0.0014308 9.20108e-06 7.13651e-08
9.20108e-06 4.86282e-05 3.01106e-08
7.13651e-08 3.01106e-08 -7.494e-05
0.00181479 3.50393e-05 -1.97708e-06
3.50393e-05 0.000125448 -6.62304e-08
-1.97708e-06 -6.62304e-08 3.43922e-05
0.00180258 0.000134085 -2.70262e-07
0.000134085 0.000110818 1.90921e-07
-2.70262e-07 1.90921e-07 -2.35775e-06
0.00180799 8.32203e-05 2.26568e-06
8.32203e-05 4.58347e-05 7.91442e-07
2.26568e-06 7.91442e-07 -2.38675e-05
0.00176174 0.000218512 -2.83584e-07
0.000218512 0.000141695 -8.24475e-08
-2.83584e-07 -8.24475e-08 -4.49903e-06
0.00177855 0.00019393 -3.95813e-07
0.00019393 5.92861e-05 8.98218e-07
-3.95813e-07 8.98218e-07 -4.02253e-05
0.00177756 2.03135e-06 -2.73397e-06
2.03135e-06 0.000113039 2.06222e-07
-2.73397e-06 2.06222e-07 2.22764e-05
0.00176793 3.97512e-05 2.98234e-06
3.97512e-05 3.46902e-05 2.64108e-07
2.98234e-06 2.64108e-07 -2.95888e-05
0.00183644 0.000141641 -4.27688e-07
0.000141641 6.76074e-05 -6.49104e-07
-4.27688e-07 -6.49104e-07 -1.32378e-05
0.00180524 9.00326e-05 5.32349e-06
9.00326e-05 2.08581e-05 6.05121e-07
5.32349e-06 6.05121e-07 -3.30471e-05
0.00174256 0.000218247 -5.91491e-07
0.000218247 8.36838e-05 -2.34457e-06
-5.91491e-07 -2.34457e-06 -3.74952e-05
0.00192067 0.000203609 3.67976e-06
0.000203609 0.00010551 8.61821e-07
3.67976e-06 8.61821e-07 2.27972e-05
0.00145416 -1.62137e-05 -3.92614e-06
-1.62137e-05 6.37417e-05 8.48731e-08
-3.92614e-06 8.48731e-08 -6.02324e-05
0.00174875 -0.000100291 -6.02867e-06
-0.000100291 0.000241459 7.00922e-07
-6.02867e-06 7.00922e-07 0.000112114
0.00176068 -6.62519e-05 3.34423e-06
-6.62519e-05 0.000104907 -1.28595e-06
3.34423e-06 -1.28595e-06 1.04245e-05
0.00173582 -0.000162175 -2.01798e-07
-0.000162175 0.000103988 -1.21734e-07
-2.01798e-07 -1.21734e-07 -2.38843e-05
0.000875675 -0.000180362 -5.47626e-06
-0.000180362 0.000170201 7.48549e-06
-5.47626e-06 7.48549e-06 7.09471e-06
0.00110715 -0.000242019 -6.13832e-06
-0.000242019 0.000171715 3.77427e-06
-6.13832e-06 3.77427e-06 -3.85406e-05
0.00129419 -0.000308744 -8.07839e-07
-0.000308744 0.000142074 7.70651e-07
-8.07839e-07 7.70651e-07 -9.60007e-05
0.00163311 -0.000242366 -1.09144e-06
-0.000242366 0.000121325 1.55743e-07
-1.09144e-06 1.55743e-07 -3.9111e-05
0.00190432 -0.000235781 3.19616e-06
-0.000235781 0.000179068 -1.70197e-06
3.19616e-06 -1.70197e-06 7.16673e-05
0.00178282 -0.000300849 2.32591e-06
-0.000300849 0.000171206 -1.17997e-06
2.32591e-06 -1.17997e-06 1.41683e-05
0.00172374 -0.000374712 -3.0069e-07
-0.000374712 0.000226878 -1.78227e-06
-3.0069e-07 -1.78227e-06 -7.19035e-08
0.00203982 -0.000343348 5.62137e-06
-0.000343348 0.000339685 -6.21206e-06
5.62137e-06 -6.21206e-06 0.000179231
0.000905481 -0.000181531 4.2003e-07
-0.000181531 0.000183521 1.46804e-06
4.2003e-07 1.46804e-06 7.80484e-06
0.000653278 -0.000156802 4.21378e-07
-0.000156802 3.46018e-05 -8.85195e-07
4.21378e-07 -8.85195e-07 -0.000144877
0.000699499 -3.75985e-05 -1.25407e-06
-3.75985e-05 8.2102e-05 3.46018e-06
-1.25407e-06 3.46018e-06 -1.04356e-05
0.000271116 -1.53277e-05 8.30615e-07
-1.53277e-05 -0.000157885 -2.07056e-06
8.30615e-07 -2.07056e-06 -0.000303963
0.00174162 -3.74367e-05 1.86456e-08
-3.74367e-05 9.34848e-05 1.18817e-07
1.86456e-08 1.18817e-07 -3.65894e-06
0.00178486 -0.000113423 5.21604e-07
-0.000113423 0.000119581 -3.33489e-07
5.21604e-07 -3.33489e-07 6.37222e-06
0.00174225 -7.72449e-05 2.11683e-06
-7.72449e-05 4.20592e-05 -6.02335e-07
2.11683e-06 -6.02335e-07 -3.26937e-05
0.00176662 -0.000187973 -1.73734e-06
-0.000187973 5.94217e-05 6.59315e-07
-1.73734e-06 6.59315e-07 -3.52948e-05
0.00100318 -0.000208717 -1.08854e-06
-0.000208717 0.000200886 7.28435e-07
-1.08854e-06 7.28435e-07 6.50133e-06
0.00103434 -0.000271907 1.32406e-06
-0.000271907 8.67442e-05 -1.8652e-06
1.32406e-06 -1.8652e-06 -0.000150047
0.00162423 -0.000398462 -2.30945e-07
-0.000398462 0.000266622 9.95388e-07
-2.30945e-07 9.95388e-07 -2.15125e-06
0.00169545 -0.000263272 -1.52211e-06
-0.000263272 9.3106e-05 7.67876e-07
-1.52211e-06 7.67876e-07 -4.24246e-05
0.00185757 -0.000238009 2.01897e-06
-0.000238009 0.000131939 -1.02342e-06
2.01897e-06 -1.02342e-06 3.92283e-05
0.00174896 -0.000384199 -5.92113e-07
-0.000384199 0.000205117 5.78418e-07
-5.92113e-07 5.78418e-07 -1.61142e-05
0.00171221 -0.000314124 -5.94512e-07
-0.000314124 0.00010448 1.06684e-06
-5.94512e-07 1.06684e-06 -3.11188e-05
0.00186976 -0.000324354 3.64703e-06
-0.000324354 0.000216491 -5.45808e-06
3.64703e-06 -5.45808e-06 6.5462e-05
0.00103573 -0.000228192 6.4854e-07
-0.000228192 0.000227436 1.48547e-06
6.4854e-07 1.48547e-06 3.43499e-05
0.00126763 -0.000242402 3.38892e-06
-0.000242402 0.000382858 1.32298e-06
3.38892e-06 1.32298e-06 0.00019639
0.000769671 -0.000118413 -2.50572e-07
-0.000118413 0.000155659 -2.41193e-07
-2.50572e-07 -2.41193e-07 -3.25384e-05
0.000462439 -9.06645e-06 -1.37011e-06
-9.06645e-06 -5.5732e-05 4.4334e-07
-1.37011e-06 4.4334e-07 -0.000136377
0.000377291 -6.67683e-06 -3.45109e-07
-6.67683e-06 -8.2494e-05 -6.80087e-07
-3.45109e-07 -6.80087e-07 -0.000217252
0.00187751 -5.01882e-05 1.46292e-06
-5.01882e-05 0.000107482 -6.73038e-07
1.46292e-06 -6.73038e-07 4.57441e-05
0.00187376 -0.000112074 2.83488e-06
-0.000112074 9.72882e-05 2.28239e-07
2.83488e-06 2.28239e-07 2.243e-05
0.00182372 -0.000226935 6.68672e-07
-0.000226935 6.38403e-05 -1.65812e-06
6.68672e-07 -1.65812e-06 -1.19234e-05
0.00165551 -0.000262787 -6.55936e-07
-0.000262787 3.46972e-05 -6.80757e-08
-6.55936e-07 -6.80757e-08 -7.13399e-05
0.00109938 -0.00025086 -2.26922e-06
-0.00025086 0.000221822 -4.37707e-06
-2.26922e-06 -4.37707e-06 4.2662e-06
0.00223747 -0.000375593 -3.39583e-06
-0.000375593 0.000347819 4.58229e-07
-3.39583e-06 4.58229e-07 0.000214657
0.00137354 -0.000351009 2.4714e-06
-0.000351009 0.000248969 -3.97752e-06
2.4714e-06 -3.97752e-06 -2.34621e-05
0.0017043 -0.000444103 -4.30523e-07
-0.000444103 0.000273407 1.99482e-06
-4.30523e-07 1.99482e-06 -9.07511e-06
0.00163292 -0.000368646 1.80319e-06
-0.000368646 0.000111106 3.85346e-06
1.80319e-06 3.85346e-06 -0.000100744
0.000243674 1.08182e-05 2.12373e-07
1.08182e-05 -0.000184712 -3.51106e-06
2.12373e-07 -3.51106e-06 -0.000253568
0.00072101 -4.33582e-05 4.77782e-07
-4.33582e-05 0.000134831 -8.14487e-07
4.77782e-07 -8.14487e-07 8.45343e-06
0.000962701 -7.40322e-05 -1.4334e-06
-7.40322e-05 0.000265559 1.23653e-06
-1.4334e-06 1.23653e-06 0.000104497
0.00115903 -0.000248992 -6.68376e-06
-0.000248992 0.000282678 7.61659e-07
-6.68376e-06 7.61659e-07 8.4693e-05
0.000487442 -0.000127693 2.7745e-06
-0.000127693 -2.49895e-05 4.79666e-06
2.7745e-06 4.79666e-06 -0.0002239
0.00064431 -0.000205073 -1.49027e-06
-0.000205073 -1.72641e-05 8.41886e-07
-1.49027e-06 8.41886e-07 -0.000197482
0.000543305 -4.9928e-05 -1.06621e-06
-4.9928e-05 -2.88985e-05 -4.62178e-06
-1.06621e-06 -4.62178e-06 -5.12201e-05
0.00057845 -2.25421e-05 -1.76035e-06
-2.25421e-05 4.33489e-06 -2.67315e-06
-1.76035e-06 -2.67315e-06 -6.01575e-05
0.00172332 0.000261815 -1.40337e-06
0.000261815 0.000147823 -2.85869e-07
-1.40337e-06 -2.85869e-07 -1.94544e-05
0.000408221 -5.7753e-05 1.37659e-06
-5.7753e-05 -5.97145e-05 -2.57136e-06
1.37659e-06 -2.57136e-06 -0.000184094
0.000799115 0.000160017 -1.15477e-06
0.000160017 0.000132256 5.11101e-07
-1.15477e-06 5.11101e-07 -4.21046e-05
0.00013424 6.44725e-05 1.57714e-06
6.44725e-05 -0.000250285 1.59553e-06
1.57714e-06 1.59553e-06 -0.000416525
0.00158344 0.000316476 -2.19362e-07
0.000316476 0.000182978 3.5481e-07
-2.19362e-07 3.5481e-07 -2.34612e-05
0.00165786 0.000324734 3.71939e-07
0.000324734 0.000126634 1.50507e-07
3.71939e-07 1.50507e-07 -5.57352e-05
0.00126481 0.000274085 1.51104e-06
0.000274085 0.000316303 -1.59928e-06
1.51104e-06 -1.59928e-06 7.03846e-05
0.00193613 0.000347814 -1.13967e-06
0.000347814 0.000517294 -1.55431e-06
-1.13967e-06 -1.55431e-06 0.000265871
0.00173656 0.000366556 -2.99001e-06
0.000366556 0.000258033 -1.51041e-07
-2.99001e-06 -1.51041e-07 3.35683e-05
0.000623892 -5.50463e-06 -3.54111e-07
-5.50463e-06 2.0832e-05 2.28647e-07
-3.54111e-07 2.28647e-07 -3.52036e-05
0.00069642 -5.80491e-07 -9.21874e-07
-5.80491e-07 9.97309e-05 4.43802e-07
-9.21874e-07 4.43802e-07 -2.93265e-06
0.00110065 0.000236145 -6.6671e-07
0.000236145 0.000279665 1.62681e-07
-6.6671e-07 1.62681e-07 8.01543e-05
0.000833322 4.06688e-05 5.03598e-07
4.06688e-05 0.00019323 -1.164e-07
5.03598e-07 -1.164e-07 3.56695e-05
0.000811636 0.000152362 1.43927e-06
0.000152362 0.000131257 1.2838e-06
1.43927e-06 1.2838e-06 -4.03729e-05
0.00175088 0.000273449 -1.94079e-06
0.000273449 0.00013592 -1.47463e-06
-1.94079e-06 -1.47463e-06 -1.59805e-05
0.00175356 0.000372421 1.57874e-06
0.000372421 0.000225245 4.21036e-07
1.57874e-06 4.21036e-07 1.53854e-05
0.00166819 0.000352905 4.49268e-07
0.000352905 0.000105816 -6.75406e-08
4.49268e-07 -6.75406e-08 -7.26063e-05
0.000857801 0.000257336 8.78582e-07
0.000257336 4.64731e-05 3.23792e-06
8.78582e-07 3.23792e-06 -0.000203921
0.00160653 0.000365398 -2.30404e-06
0.000365398 0.000254769 -1.08415e-06
-2.30404e-06 -1.08415e-06 8.92865e-06
0.000779371 3.60792e-05 6.30699e-07
3.60792e-05 0.000139967 1.89875e-06
6.30699e-07 1.89875e-06 4.9477e-05
0.000344369 -4.89648e-06 -1.96509e-06
-4.89648e-06 -9.78351e-05 2.68117e-06
-1.96509e-06 2.68117e-06 -0.000221062
0.00117696 0.000258528 -3.72161e-06
0.000258528 0.000277515 -1.63176e-06
-3.72161e-06 -1.63176e-06 7.34332e-05
0.000712706 0.000120279 -5.32839e-06
0.000120279 0.000142926 -4.55067e-06
-5.32839e-06 -4.55067e-06 -4.1296e-05
0.000729185 0.000211323 -1.25078e-06
0.000211323 4.95163e-05 -2.75693e-06
-1.25078e-06 -2.75693e-06 -0.000125638
0.00163956 0.000291263 -5.24601e-07
0.000291263 5.28258e-06 -2.16482e-06
-5.24601e-07 -2.16482e-06 -0.000121653
0.00190809 0.000410254 3.58038e-06
0.000410254 0.000299336 -1.9468e-06
3.58038e-06 -1.9468e-06 7.67497e-05
0.0015609 0.000366079 2.63697e-06
0.000366079 3.31961e-05 7.61908e-08
2.63697e-06 7.61908e-08 -0.000147344
0.00135447 0.000312682 1.84088e-06
0.000312682 0.000279493 7.98226e-06
1.84088e-06 7.98226e-06 1.09666e-05
0.00143601 0.000377363 -9.73938e-07
0.000377363 0.000165576 -8.08641e-07
-9.73938e-07 -8.08641e-07 -8.38066e-05
0.000604743 -1.68188e-05 -1.5279e-06
-1.68188e-05 6.47235e-06 -2.4695e-06
-1.5279e-06 -2.4695e-06 -4.60065e-05
0.000618369 2.85047e-05 1.0162e-06
2.85047e-05 3.44394e-05 3.33281e-07
1.0162e-06 3.33281e-07 -4.69041e-05
0.000524238 7.41599e-06 -2.41049e-07
7.41599e-06 -2.059e-05 9.91315e-07
-2.41049e-07 9.91315e-07 -0.000107294
0.000435921 -2.8252e-05 -6.72921e-07
-2.8252e-05 -7.1796e-05 -1.37473e-06
-6.72921e-07 -1.37473e-06 -0.000151409
0.000659575 3.60617e-05 -2.81008e-07
3.60617e-05 6.76334e-05 1.60738e-08
-2.81008e-07 1.60738e-08 -1.54925e-05
0.000686336 4.84439e-05 -3.27568e-07
4.84439e-05 7.84228e-05 -3.47347e-07
-3.27568e-07 -3.47347e-07 -1.25817e-05
0.000811001 7.9549e-05 -1.2912e-06
7.9549e-05 0.000160632 -1.87547e-06
-1.2912e-06 -1.87547e-06 6.06451e-05
0.000503956 -1.11905e-05 6.70982e-07
-1.11905e-05 -1.45594e-05 1.71927e-07
6.70982e-07 1.71927e-07 -0.000116215
0.000686318 5.9763e-05 9.45433e-07
5.9763e-05 8.04003e-05 1.51374e-06
9.45433e-07 1.51374e-06 4.67979e-07
0.000627634 3.52111e-05 2.2345e-06
3.52111e-05 3.18241e-05 2.39395e-06
2.2345e-06 2.39395e-06 -2.06038e-05
0.000615942 6.23638e-07 -1.20923e-06
6.23638e-07 2.0093e-05 4.37248e-09
-1.20923e-06 4.37248e-09 -3.09024e-05
0.00125095 -2.6699e-05 9.47098e-07
-2.6699e-05 0.000377069 2.49048e-06
9.47098e-07 2.49048e-06 0.000366052
0.000581258 -4.60072e-05 -6.11968e-08
-4.60072e-05 -6.4902e-07 -2.35471e-06
-6.11968e-08 -2.35471e-06 -5.32327e-05
0.0012961 -3.57964e-05 -4.63852e-06
-3.57964e-05 0.000405045 -1.45409e-06
-4.63852e-06 -1.45409e-06 0.000393377
0.000857163 -3.27357e-05 1.95459e-05
-3.27357e-05 0.000149659 7.92473e-06
1.95459e-05 7.92473e-06 0.000155782
0.00133668 -4.60831e-05 -8.43534e-06
-4.60831e-05 0.000432542 -5.50447e-06
-8.43534e-06 -5.50447e-06 0.000419362
0.0008066 -4.13802e-05 7.12354e-06
-4.13802e-05 0.000124179 2.97781e-06
7.12354e-06 2.97781e-06 0.000128196
0.00225984 -9.07601e-05 -4.56636e-06
-9.07601e-05 0.00100435 -1.97191e-06
-4.56636e-06 -1.97191e-06 0.00101089
0.000499185 4.56673e-05 -7.36199e-07
4.56673e-05 -5.04445e-05 -3.945e-06
-7.36199e-07 -3.945e-06 -7.18484e-05
0.000510638 4.25027e-05 -1.10927e-06
4.25027e-05 -3.4569e-05 -3.86706e-09
-1.10927e-06 -3.86706e-09 -6.33594e-05
0.00249552 0.000103124 2.55209e-05
0.000103124 0.00115661 -3.65595e-06
2.55209e-05 -3.65595e-06 0.00115919
0.000578012 5.43225e-06 -4.38344e-06
5.43225e-06 5.22708e-06 6.67088e-06
-4.38344e-06 6.67088e-06 -2.81577e-05
0.00286517 0.000118874 -1.22824e-05
0.000118874 0.0013829 -6.38932e-07
-1.22824e-05 -6.38932e-07 0.00138154
0.0033277 9.81831e-05 -9.69388e-05
9.81831e-05 0.00165896 5.14395e-06
-9.69388e-05 5.14395e-06 0.00166198
0.00173467 0.000218857 -1.74528e-06
0.000218857 0.000121622 7.20343e-07
-1.74528e-06 7.20343e-07 -2.5139e-05
0.00180612 0.00013179 1.29281e-06
0.00013179 0.000113373 1.32575e-06
1.29281e-06 1.32575e-06 4.19896e-07
0.00182098 0.00019169 9.66965e-07
0.00019169 8.17845e-05 2.12284e-06
9.66965e-07 2.12284e-06 -1.47537e-05
0.00184289 8.16673e-05 1.16511e-06
8.16673e-05 6.70107e-05 1.10465e-06
1.16511e-06 1.10465e-06 2.85903e-06
0.00181616 2.85378e-05 -4.09141e-07
2.85378e-05 0.000127392 8.2646e-08
-4.09141e-07 8.2646e-08 3.67256e-05
0.00143093 1.20329e-05 -1.78273e-06
1.20329e-05 4.95478e-05 3.92198e-08
-1.78273e-06 3.92198e-08 -7.40435e-05
0.00174785 3.10742e-06 -1.75399e-06
3.10742e-06 9.44231e-05 2.48808e-09
-1.75399e-06 2.48808e-09 1.27226e-06
0.00178374 3.80581e-05 2.12352e-06
3.80581e-05 4.72194e-05 1.01283e-07
2.12352e-06 1.01283e-07 -1.87365e-05
0.00185789 0.00014087 -1.39953e-06
0.00014087 8.29211e-05 -6.13026e-07
-1.39953e-06 -6.13026e-07 1.93644e-06
0.00183197 9.20068e-05 1.68591e-06
9.20068e-05 3.44403e-05 5.03992e-07
1.68591e-06 5.03992e-07 -1.68211e-05
0.00176555 0.000217145 -8.60439e-07
0.000217145 0.000105271 -2.36088e-07
-8.60439e-07 -2.36088e-07 -1.58506e-05
0.00187807 0.000204701 3.63421e-06
0.000204701 8.12388e-05 1.46743e-06
3.63421e-06 1.46743e-06 1.4219e-06
0.00179856 -6.88267e-06 8.40422e-07
-6.88267e-06 6.94233e-05 1.85538e-07
8.40422e-07 1.85538e-07 5.40281e-06
0.00186414 4.30754e-05 5.03866e-06
4.30754e-05 3.73383e-05 6.80199e-08
5.03866e-06 6.80199e-08 2.34285e-06
0.0018821 0.000144906 4.05676e-06
0.000144906 5.67536e-05 9.71379e-07
4.05676e-06 9.71379e-07 -5.79971e-07
0.00190459 0.000255104 4.70207e-07
0.000255104 0.000111389 -3.85134e-07
4.70207e-07 -3.85134e-07 1.71382e-05
0.00173402 -3.75996e-05 1.67094e-06
-3.75996e-05 9.02377e-05 3.05003e-08
1.67094e-06 3.05003e-08 -7.0266e-06
0.00172425 -0.000114123 2.37948e-06
-0.000114123 8.6832e-05 -1.20078e-06
2.37948e-06 -1.20078e-06 -2.8656e-05
0.00177939 -7.59748e-05 3.73534e-06
-7.59748e-05 6.33855e-05 -1.9215e-06
3.73534e-06 -1.9215e-06 -7.06863e-06
0.00175726 -0.000184632 -1.10577e-06
-0.000184632 5.89902e-05 2.28307e-07
-1.10577e-06 2.28307e-07 -3.74668e-05
0.00113466 -0.000220511 -1.51364e-06
-0.000220511 0.000279515 4.78358e-06
-1.51364e-06 4.78358e-06 8.21951e-05
0.00106841 -0.000270306 -8.27037e-07
-0.000270306 0.000104951 1.78273e-06
-8.27037e-07 1.78273e-06 -0.000128663
0.00161484 -0.000403299 1.03123e-06
-0.000403299 0.00026174 -5.70914e-07
1.03123e-06 -5.70914e-07 -1.13907e-05
0.00165509 -0.000260262 1.14077e-07
-0.000260262 7.52924e-05 -3.43312e-07
1.14077e-07 -3.43312e-07 -6.38151e-05
0.00170863 -0.000234366 3.08088e-06
-0.000234366 4.10316e-05 -1.46455e-06
3.08088e-06 -1.46455e-06 -4.74628e-05
0.00177586 -0.000317849 3.35744e-06
-0.000317849 0.000137453 -1.81561e-07
3.35744e-06 -1.81561e-07 1.34507e-06
0.00174022 -0.000385011 -1.85467e-06
-0.000385011 0.000204181 -2.31799e-06
-1.85467e-06 -2.31799e-06 -1.81024e-05
0.00174655 -0.000316571 2.37165e-06
-0.000316571 0.0001327 -1.14923e-05
2.37165e-06 -1.14923e-05 -1.33093e-05
0.00125956 -0.000249903 2.95884e-06
-0.000249903 0.000357217 2.27219e-06
2.95884e-06 2.27219e-06 0.000160067
0.00101951 -0.000217541 4.12629e-06
-0.000217541 0.00022409 -3.19444e-06
4.12629e-06 -3.19444e-06 4.72797e-05
0.000703544 -9.63143e-05 1.67137e-06
-9.63143e-05 0.000112712 -3.63367e-06
1.67137e-06 -3.63367e-06 -7.60138e-05
0.000364357 7.73326e-06 -1.06785e-06
7.73326e-06 -0.00011339 3.06683e-06
-1.06785e-06 3.06683e-06 -0.000196163
0.000359493 2.07941e-05 1.41153e-06
2.07941e-05 -9.53777e-05 -1.34371e-07
1.41153e-06 -1.34371e-07 -0.000225823
0.00189461 -5.5662e-05 -1.38851e-07
-5.5662e-05 0.00011886 -1.58329e-07
-1.38851e-07 -1.58329e-07 5.44772e-05
0.0018131 -0.000113818 1.35984e-06
-0.000113818 5.89977e-05 -7.05679e-07
1.35984e-06 -7.05679e-07 -1.76038e-05
0.00183602 -0.000220947 -2.13405e-06
-0.000220947 7.95228e-05 2.78083e-07
-2.13405e-06 2.78083e-07 1.43456e-06
0.00117152 -0.000255686 -1.24171e-06
-0.000255686 0.000263346 2.19708e-07
-1.24171e-06 2.19708e-07 4.49767e-05
0.00100511 -0.000307736 1.55828e-06
-0.000307736 2.89644e-05 -2.10638e-06
1.55828e-06 -2.10638e-06 -0.000232483
0.00162111 -0.000442849 -1.53105e-07
-0.000442849 0.000226779 1.64926e-08
-1.53105e-07 1.64926e-08 -5.89733e-05
0.00167405 -0.000263685 5.42365e-07
-0.000263685 4.01332e-05 -3.29602e-07
5.42365e-07 -3.29602e-07 -6.62423e-05
0.00172979 -0.000371377 8.64879e-07
-0.000371377 0.000170359 -2.31829e-06
8.64879e-07 -2.31829e-06 -3.50302e-05
0.00191158 -0.000353086 -4.26502e-07
-0.000353086 0.000174292 -1.10913e-06
-4.26502e-07 -1.10913e-06 4.21908e-05
0.000291383 3.50961e-05 -3.9153e-07
3.50961e-05 -0.000161671 -9.02897e-07
-3.9153e-07 -9.02897e-07 -0.000226467
0.00119783 -0.000251137 -1.50189e-07
-0.000251137 0.000293041 1.68486e-06
-1.50189e-07 1.68486e-06 9.61089e-05
0.000647874 -0.000202764 2.8045e-07
-0.000202764 -9.38362e-06 8.13708e-07
2.8045e-07 8.13708e-07 -0.000180311
0.000980604 -0.000170062 -6.55906e-07
-0.000170062 0.000269919 5.17908e-07
-6.55906e-07 5.17908e-07 6.15294e-05
0.00111151 -8.05617e-05 2.34806e-07
-8.05617e-05 0.000353547 -8.29866e-07
2.34806e-07 -8.29866e-07 0.000192447
0.000604898 -1.81759e-06 -4.95597e-07
-1.81759e-06 5.81288e-05 5.56503e-07
-4.95597e-07 5.56503e-07 -6.48099e-05
0.00172868 -6.35414e-05 3.01719e-06
-6.35414e-05 -2.45153e-05 -2.64862e-07
3.01719e-06 -2.64862e-07 -7.30319e-05
0.00203378 -0.000156261 2.43017e-06
-0.000156261 0.000115282 -1.35621e-07
2.43017e-06 -1.35621e-07 7.12897e-05
0.00166389 -0.000255642 1.72976e-06
-0.000255642 -4.21827e-05 -1.62068e-06
1.72976e-06 -1.62068e-06 -0.000111517
0.00206227 -0.000331035 -2.67117e-07
-0.000331035 0.000175344 -2.36002e-06
-2.67117e-07 -2.36002e-06 7.40975e-05
0.00153453 -0.000311842 -5.15422e-06
-0.000311842 0.000426846 -5.1412e-06
-5.15422e-06 -5.1412e-06 0.00018984
0.00188437 -0.00039426 9.21521e-07
-0.00039426 0.000184641 3.8534e-06
9.21521e-07 3.8534e-06 1.42516e-05
0.00147891 -0.00041344 -4.26627e-06
-0.00041344 0.000260299 1.52383e-06
-4.26627e-06 1.52383e-06 -5.46944e-05
0.00164216 -0.000460758 -3.71974e-06
-0.000460758 0.000234523 2.63658e-06
-3.71974e-06 2.63658e-06 -6.30018e-05
0.00029425 5.30258e-05 -1.98016e-06
5.30258e-05 -0.000164335 -2.31807e-06
-1.98016e-06 -2.31807e-06 -0.000218686
0.000708176 -1.01817e-08 -1.27599e-07
-1.01817e-08 0.000116292 -6.3588e-07
-1.27599e-07 -6.3588e-07 1.17062e-05
0.000961347 -0.000106556 -1.72275e-06
-0.000106556 0.000272115 2.13656e-06
-1.72275e-06 2.13656e-06 0.000127804
0.000913225 -3.08122e-05 -1.96824e-06
-3.08122e-05 0.000232815 4.13021e-06
-1.96824e-06 4.13021e-06 4.06679e-05
0.000538262 -0.000213486 -4.42843e-06
-0.000213486 -0.000111396 -3.60012e-06
-4.42843e-06 -3.60012e-06 -0.000311528
0.00098723 -0.000231718 -7.13038e-06
-0.000231718 0.000218294 2.08901e-06
-7.13038e-06 2.08901e-06 4.88665e-06
0.000572786 -1.33534e-05 -2.20316e-06
-1.33534e-05 -8.7242e-06 -2.36139e-06
-2.20316e-06 -2.36139e-06 -6.44336e-05
0.000527716 -3.70094e-05 4.94151e-07
-3.70094e-05 -6.39578e-06 -1.84985e-06
4.94151e-07 -1.84985e-06 -0.00010157
0.00172787 0.000275206 -2.17643e-06
0.000275206 0.000123317 -5.77054e-07
-2.17643e-06 -5.77054e-07 -2.99135e-05
0.000428063 -8.83671e-06 9.81714e-07
-8.83671e-06 -5.14494e-05 -1.16705e-06
9.81714e-07 -1.16705e-06 -0.000199259
0.0011413 0.000240019 1.65821e-06
0.000240019 0.000305648 -2.89889e-07
1.65821e-06 -2.89889e-07 0.000105454
0.000134545 7.58923e-05 3.26883e-06
7.58923e-05 -0.000279865 2.60401e-06
3.26883e-06 2.60401e-06 -0.000431798
0.00171923 0.000369791 -5.94719e-07
0.000369791 0.00020076 1.70058e-07
-5.94719e-07 1.70058e-07 -9.03504e-06
0.00181288 0.000358286 -2.30133e-06
0.000358286 0.000188573 1.13229e-06
-2.30133e-06 1.13229e-06 1.10572e-05
0.00101934 0.000278116 -9.72789e-07
0.000278116 0.000133565 2.90131e-07
-9.72789e-07 2.90131e-07 -0.000120321
0.0018163 0.000382354 -2.16604e-06
0.000382354 0.000388623 9.91751e-07
-2.16604e-06 9.91751e-07 0.000138533
0.000688868 1.32587e-05 -8.92262e-07
1.32587e-05 8.30025e-05 2.18642e-07
-8.92262e-07 2.18642e-07 -3.42046e-06
0.00061491 2.14916e-05 7.19438e-07
2.14916e-05 6.13082e-05 1.32086e-06
7.19438e-07 1.32086e-06 -6.34571e-05
0.00137081 0.000276303 -1.09306e-06
0.000276303 0.000403563 -2.7261e-06
-1.09306e-06 -2.7261e-06 0.000192831
0.000563929 3.75581e-05 -1.02559e-06
3.75581e-05 2.64439e-05 -3.79936e-07
-1.02559e-06 -3.79936e-07 -0.000132517
0.000565884 0.000177627 -1.79211e-06
0.000177627 -5.76072e-05 -6.96991e-07
-1.79211e-06 -6.96991e-07 -0.000212226
0.00187969 0.000302762 -2.90872e-06
0.000302762 0.000141536 -1.32831e-06
-2.90872e-06 -1.32831e-06 1.65962e-05
0.00199156 0.000411787 1.80422e-06
0.000411787 0.000351965 -3.11028e-07
1.80422e-06 -3.11028e-07 0.000131455
0.0017206 0.00038428 1.75544e-06
0.00038428 0.000114255 2.52074e-06
1.75544e-06 2.52074e-06 -6.96367e-05
0.00127938 0.000308861 3.63927e-06
0.000308861 0.000248929 4.47952e-06
3.63927e-06 4.47952e-06 -2.53919e-05
0.00149485 0.000389926 -3.13002e-06
0.000389926 0.000193039 4.81219e-07
-3.13002e-06 4.81219e-07 -6.24257e-05
0.000328516 -1.83006e-05 -1.16748e-06
-1.83006e-05 -0.000118763 2.65949e-06
-1.16748e-06 2.65949e-06 -0.000215084
3.77614e-05 7.64331e-05 3.33623e-07
7.64331e-05 -0.000243838 5.08687e-07
3.33623e-07 5.08687e-07 -0.000406925
0.00107714 0.000257903 1.92448e-06
0.000257903 0.000193096 3.26685e-06
1.92448e-06 3.26685e-06 -2.90917e-05
-0.000554478 7.43417e-05 3.64931e-06
7.43417e-05 -0.000671277 -6.16703e-07
3.64931e-06 -6.16703e-07 -0.00083836
0.00198847 0.000313918 -1.33954e-06
0.000313918 3.21337e-05 -1.40484e-07
-1.33954e-06 -1.40484e-07 -2.77603e-05
0.00233066 0.000385107 6.97038e-07
0.000385107 0.000394802 -9.68543e-07
6.97038e-07 -9.68543e-07 0.000249851
0.00180312 0.000439844 -2.40465e-06
0.000439844 0.000250432 -3.86057e-06
-2.40465e-06 -3.86057e-06 9.1486e-06
0.000438773 0.000271782 -1.27007e-06
0.000271782 -0.000304238 1.91863e-06
-1.27007e-06 1.91863e-06 -0.000583023
0.000669976 5.86921e-05 -9.39129e-07
5.86921e-05 6.9929e-05 -7.70924e-07
-9.39129e-07 -7.70924e-07 -1.44208e-05
0.000615043 3.70559e-05 -1.4063e-07
3.70559e-05 4.09414e-05 2.88893e-07
-1.4063e-07 2.88893e-07 -5.1267e-05
0.000916499 2.937e-05 -2.27725e-06
2.937e-05 0.000216974 -1.44803e-06
-2.27725e-06 -1.44803e-06 0.000130225
0.000650873 8.42997e-06 -1.47781e-06
8.42997e-06 5.19716e-05 -1.36282e-06
-1.47781e-06 -1.36282e-06 -2.33845e-05
0.000446964 -3.26283e-06 -2.10676e-07
-3.26283e-06 -6.00274e-05 -6.59314e-07
-2.10676e-07 -6.59314e-07 -0.000150559
0.000664211 2.67635e-05 -1.70514e-09
2.67635e-05 6.9432e-05 6.01845e-09
-1.70514e-09 6.01845e-09 -1.15341e-05
0.000672229 7.87364e-05 -6.77182e-07
7.87364e-05 8.86729e-05 -2.49106e-07
-6.77182e-07 -2.49106e-07 -1.50847e-05
0.000602246 2.21577e-05 7.86911e-07
2.21577e-05 4.63323e-05 3.67425e-07
7.86911e-07 3.67425e-07 -5.74451e-05
0.000756224 5.16385e-05 8.02741e-07
5.16385e-05 0.000119674 -1.4116e-06
8.02741e-07 -1.4116e-06 2.97079e-05
0.000683405 -1.95544e-05 1.50846e-06
-1.95544e-05 9.32313e-05 -1.67139e-06
1.50846e-06 -1.67139e-06 -1.50742e-05
0.000531328 4.69575e-05 6.35033e-07
4.69575e-05 3.49769e-06 1.22004e-06
6.35033e-07 1.22004e-06 -0.000102556
0.000660438 7.14047e-05 1.27992e-06
7.14047e-05 7.09049e-05 1.94068e-06
1.27992e-06 1.94068e-06 -1.28824e-05
0.000572 4.43892e-05 1.80743e-06
4.43892e-05 4.94638e-06 2.19638e-06
1.80743e-06 2.19638e-06 -5.01688e-05
0.00058757 -2.40412e-06 -1.10348e-06
-2.40412e-06 9.18383e-06 -7.34158e-09
-1.10348e-06 -7.34158e-09 -4.39129e-05
0.00125408 -1.49956e-05 7.68901e-07
-1.49956e-05 0.000379324 2.39229e-06
7.68901e-07 2.39229e-06 0.000368637
0.000584792 -4.2825e-05 8.31488e-08
-4.2825e-05 3.97905e-06 -2.35787e-06
8.31488e-08 -2.35787e-06 -4.84336e-05
0.00130199 -2.37731e-05 -3.90426e-06
-2.37731e-05 0.000407642 -1.53581e-06
-3.90426e-06 -1.53581e-06 0.000396712
0.000854563 -2.46125e-05 1.64658e-05
-2.46125e-05 0.000144952 8.2321e-06
1.64658e-05 8.2321e-06 0.000151994
0.00134344 -3.36494e-05 -7.08809e-06
-3.36494e-05 0.000433352 -5.5241e-06
-7.08809e-06 -5.5241e-06 0.0004217
0.000805098 -3.32025e-05 5.76642e-06
-3.32025e-05 0.000117764 3.07841e-06
5.76642e-06 3.07841e-06 0.000123609
0.000742616 -4.00539e-05 -1.22329e-06
-4.00539e-05 8.55177e-05 -2.16114e-06
-1.22329e-06 -2.16114e-06 8.96013e-05
0.000529335 3.69267e-05 2.53797e-07
3.69267e-05 -4.42291e-05 -3.38437e-06
2.53797e-07 -3.38437e-06 -5.94596e-05
0.00052284 5.33183e-05 1.73682e-08
5.33183e-05 -3.4055e-05 1.47391e-07
1.73682e-08 1.47391e-07 -5.72106e-05
0.00226558 8.51807e-05 2.03056e-05
8.51807e-05 0.0010114 -3.775e-06
2.03056e-05 -3.775e-06 0.00101875
0.000542292 3.54661e-05 -2.62838e-06
3.54661e-05 -1.60807e-05 5.63292e-06
-2.62838e-06 5.63292e-06 -4.48082e-05
0.00255818 0.000104832 -6.39459e-06
0.000104832 0.00119401 -4.83785e-07
-6.39459e-06 -4.83785e-07 0.00119623
0.00296028 9.21204e-05 -7.54607e-05
9.21204e-05 0.00143615 4.06536e-06
-7.54607e-05 4.06536e-06 0.00144104
0.00178315 0.000215792 -1.21318e-07
0.000215792 0.000124287 2.0829e-06
-1.21318e-07 2.0829e-06 3.23015e-06
0.0018993 0.000140441 -1.89996e-06
0.000140441 0.000110081 5.08596e-07
-1.89996e-06 5.08596e-07 2.89681e-05
0.00182465 0.000205215 2.05961e-06
0.000205215 5.05211e-05 6.9945e-07
2.05961e-06 6.9945e-07 -2.64532e-05
0.0018518 9.39293e-05 -3.26525e-06
9.39293e-05 4.43256e-05 -3.81799e-07
-3.26525e-06 -3.81799e-07 -4.62425e-06
0.00179888 3.68069e-05 1.24653e-06
3.68069e-05 5.96214e-05 -2.32592e-07
1.24653e-06 -2.32592e-07 -8.19928e-06
0.00172413 1.08478e-06 -2.19136e-07
1.08478e-06 7.91576e-05 9.14764e-08
-2.19136e-07 9.14764e-08 -1.63281e-05
0.00179313 -4.05149e-06 -8.30226e-08
-4.05149e-06 6.53829e-05 -7.33008e-08
-8.30226e-08 -7.33008e-08 1.45403e-06
0.00187129 4.25501e-05 9.35727e-07
4.25501e-05 5.14044e-05 1.61136e-07
9.35727e-07 1.61136e-07 1.4337e-05
0.00189879 0.000150425 5.76934e-07
0.000150425 6.5223e-05 -2.47817e-07
5.76934e-07 -2.47817e-07 7.76053e-06
0.0019218 0.000251632 1.92996e-07
0.000251632 0.00010799 9.76016e-08
1.92996e-07 9.76016e-08 1.6173e-05
0.00178972 -9.29682e-06 2.41482e-06
-9.29682e-06 9.18366e-06 -2.29475e-07
2.41482e-06 -2.29475e-07 -2.77996e-05
0.00193549 8.83877e-05 2.89442e-06
8.83877e-05 2.5971e-05 -2.27011e-07
2.89442e-06 -2.27011e-07 8.09713e-06
0.00198381 0.000221302 3.28858e-06
0.000221302 5.99938e-05 7.65809e-07
3.28858e-06 7.65809e-07 1.07977e-06
0.00190903 -6.10042e-05 -3.03713e-08
-6.10042e-05 0.000128542 1.81975e-07
-3.03713e-08 1.81975e-07 6.15311e-05
0.0017423 -0.000115305 -3.44173e-07
-0.000115305 1.50956e-05 -7.44184e-07
-3.44173e-07 -7.44184e-07 -6.34069e-05
0.00184527 -0.000214752 -2.22793e-06
-0.000214752 9.43797e-05 9.55469e-07
-2.22793e-06 9.55469e-07 1.3845e-05
0.00121458 -0.000257963 -3.99354e-07
-0.000257963 0.000286805 4.82956e-06
-3.99354e-07 4.82956e-06 6.81139e-05
0.000809414 -0.000280663 1.66041e-06
-0.000280663 -9.16263e-05 6.83871e-07
1.66041e-06 6.83871e-07 -0.000344351
0.0016074 -0.000448662 1.51395e-06
-0.000448662 0.000219152 -1.66128e-06
1.51395e-06 -1.66128e-06 -6.97791e-05
0.00169545 -0.000264684 1.36693e-07
-0.000264684 4.71641e-05 1.55219e-07
1.36693e-07 1.55219e-07 -5.95218e-05
0.00156194 -0.000331477 9.19886e-07
-0.000331477 -1.63346e-05 -2.47612e-06
9.19886e-07 -2.47612e-06 -0.000147847
0.00183027 -0.000376253 -2.23259e-06
-0.000376253 0.000228911 -7.65482e-06
-2.23259e-06 -7.65482e-06 2.94015e-05
0.00130092 -0.000259502 3.95303e-06
-0.000259502 0.000343317 4.53466e-06
3.95303e-06 4.53466e-06 0.000145889
0.000695579 -0.000203482 -7.39319e-06
-0.000203482 2.84708e-05 7.20455e-07
-7.39319e-06 7.20455e-07 -0.000134436
0.0016105 -0.000220557 1.15541e-06
-0.000220557 0.000654975 -1.01834e-06
1.15541e-06 -1.01834e-06 0.000429623
0.000357768 2.57239e-05 5.62491e-07
2.57239e-05 -0.000123284 7.69729e-07
5.62491e-07 7.69729e-07 -0.000186491
0.000946481 -8.57271e-05 1.8705e-06
-8.57271e-05 0.000251654 -1.16206e-06
1.8705e-06 -1.16206e-06 9.84786e-05
0.000456503 3.40347e-05 2.55473e-06
3.40347e-05 -3.74193e-05 1.60927e-06
2.55473e-06 1.60927e-06 -0.000156628
0.00178461 -6.36693e-05 -4.57132e-07
-6.36693e-05 9.92575e-06 1.99976e-07
-4.57132e-07 1.99976e-07 -4.11746e-05
0.00195781 -0.000161399 6.331e-08
-0.000161399 6.95957e-05 -2.63107e-07
6.331e-08 -2.63107e-07 2.29591e-05
0.00178776 -0.000258268 -1.90899e-07
-0.000258268 3.56462e-05 4.67077e-07
-1.90899e-07 4.67077e-07 -3.67325e-05
0.00129469 -0.000287893 -2.41902e-06
-0.000287893 0.000285949 3.16668e-07
-2.41902e-06 3.16668e-07 5.25498e-05
0.0011691 -0.000379588 1.18859e-08
-0.000379588 8.34516e-05 -8.87483e-07
1.18859e-08 -8.87483e-07 -0.00022182
0.00180014 -0.000467327 -3.66259e-06
-0.000467327 0.000326174 3.06749e-07
-3.66259e-06 3.06749e-07 3.59454e-05
0.00196949 -0.00033216 7.84078e-07
-0.00033216 0.000125527 -3.95345e-07
7.84078e-07 -3.95345e-07 2.13854e-05
0.0017079 -0.000386475 1.23071e-06
-0.000386475 7.42425e-05 -2.94509e-06
1.23071e-06 -2.94509e-06 -9.59603e-05
0.000451971 4.51512e-05 -3.32151e-07
4.51512e-05 -7.33483e-05 -9.75455e-07
-3.32151e-07 -9.75455e-07 -0.000123741
0.000730045 -9.7407e-06 -6.14849e-07
-9.7407e-06 0.00012745 2.96715e-07
-6.14849e-07 2.96715e-07 2.34552e-05
0.000239083 -0.000183515 -3.09329e-06
-0.000183515 -0.000283915 5.30779e-06
-3.09329e-06 5.30779e-06 -0.000472796
0.00138728 -0.000251211 5.89357e-07
-0.000251211 0.000467215 -5.36077e-07
5.89357e-07 -5.36077e-07 0.000252913
0.00100471 -7.61018e-05 -1.38853e-08
-7.61018e-05 0.000296118 -1.23845e-06
-1.38853e-08 -1.23845e-06 0.000102274
0.00086619 -8.17649e-05 -5.92395e-07
-8.17649e-05 0.000217072 1.41171e-06
-5.92395e-07 1.41171e-06 7.18648e-05
0.00190293 -8.06654e-05 1.94215e-06
-8.06654e-05 2.24327e-05 4.97525e-07
1.94215e-06 4.97525e-07 -1.22462e-06
0.00199545 -0.000232376 7.00688e-07
-0.000232376 4.21486e-05 -3.42143e-07
7.00688e-07 -3.42143e-07 2.51397e-05
0.00193649 -0.000279944 8.47826e-07
-0.000279944 8.10791e-05 -1.87972e-06
8.47826e-07 -1.87972e-06 1.78207e-05
0.00187295 -0.000431514 4.47768e-06
-0.000431514 4.05464e-05 -2.68618e-06
4.47768e-06 -2.68618e-06 -8.59961e-05
0.000544149 -0.000260195 -6.94266e-06
-0.000260195 -0.000184355 -6.8318e-06
-6.94266e-06 -6.8318e-06 -0.000449439
0.00183159 -0.000471708 -2.43927e-06
-0.000471708 0.000305991 1.17953e-05
-2.43927e-06 1.17953e-05 3.12107e-05
0.00190687 -0.000491032 -4.74396e-06
-0.000491032 0.000472291 -3.00247e-07
-4.74396e-06 -3.00247e-07 0.00012762
0.000613986 4.5852e-05 1.63886e-07
4.5852e-05 1.47508e-05 -1.24707e-06
1.63886e-07 -1.24707e-06 -2.80202e-05
0.000684948 -0.00010665 2.80588e-06
-0.00010665 9.54343e-05 -1.51516e-06
2.80588e-06 -1.51516e-06 1.36115e-05
0.000455583 4.81547e-05 -2.17952e-06
4.81547e-05 -4.37869e-05 -1.30604e-06
-2.17952e-06 -1.30604e-06 -0.000130942
0.000662433 -4.74037e-05 -9.03017e-07
-4.74037e-05 0.000105895 2.50047e-06
-9.03017e-07 2.50047e-06 -2.7193e-05
0.000586416 -3.3007e-05 1.23382e-06
-3.3007e-05 3.1297e-05 2.43677e-08
1.23382e-06 2.43677e-08 -0.000118765
3.22378e-06 -8.50492e-05 -5.71248e-07
-8.50492e-05 -0.000295707 2.17062e-06
-5.71248e-07 2.17062e-06 -0.000481978
-3.70696e-05 -0.000181716 -4.52852e-06
-0.000181716 -0.000456792 -5.75452e-06
-4.52852e-06 -5.75452e-06 -0.000638473
0.00264163 -0.000365141 -1.20362e-05
-0.000365141 0.00127334 3.20771e-06
-1.20362e-05 3.20771e-06 0.000964257
0.000628465 -6.10539e-06 -1.08675e-06
-6.10539e-06 4.16011e-05 -8.89073e-07
-1.08675e-06 -8.89073e-07 -3.91134e-05
0.00089619 3.22497e-05 6.08677e-07
3.22497e-05 0.000231341 -1.43612e-06
6.08677e-07 -1.43612e-06 0.000101758
0.00210315 0.000312788 -1.4319e-06
0.000312788 0.000269524 -5.0961e-07
-1.4319e-06 -5.0961e-07 0.000146873
0.000831022 7.54014e-05 -1.1563e-06
7.54014e-05 0.000195383 3.107e-06
-1.1563e-06 3.107e-06 2.49264e-05
0.00161681 0.000300479 1.6941e-06
0.000300479 0.000561014 -1.13182e-06
1.6941e-06 -1.13182e-06 0.000340693
0.000408646 0.000145139 -4.61367e-07
0.000145139 -0.000157755 1.68116e-06
-4.61367e-07 1.68116e-06 -0.000293564
0.00204611 0.000409788 -3.21195e-06
0.000409788 0.000390588 6.83349e-08
-3.21195e-06 6.83349e-08 0.00017294
0.00184771 0.000400244 -1.62214e-06
0.000400244 0.000177759 5.45626e-06
-1.62214e-06 5.45626e-06 -9.02362e-06
0.00109083 0.000296954 -3.42064e-07
0.000296954 0.00015061 -5.74719e-07
-3.42064e-07 -5.74719e-07 -0.000128703
0.00148511 0.000397208 8.21251e-08
0.000397208 0.000178995 1.59642e-06
8.21251e-08 1.59642e-06 -8.13131e-05
0.000375058 1.10921e-05 -1.88294e-07
1.10921e-05 -8.35763e-05 1.18024e-06
-1.88294e-07 1.18024e-06 -0.000186961
0.000359983 0.000102889 -6.2025e-07
0.000102889 -4.99475e-05 -2.21369e-06
-6.2025e-07 -2.21369e-06 -0.000219132
0.00127724 0.000279676 3.42033e-06
0.000279676 0.000320608 -1.8125e-06
3.42033e-06 -1.8125e-06 9.06267e-05
0.000653391 0.000167771 -1.86147e-06
0.000167771 3.50695e-05 -3.13722e-06
-1.86147e-06 -3.13722e-06 -0.000142373
0.00204143 0.000305855 1.06838e-06
0.000305855 5.97006e-05 -8.2849e-07
1.06838e-06 -8.2849e-07 4.43908e-07
0.00209738 0.000378516 3.03693e-06
0.000378516 0.000268232 6.95938e-07
3.03693e-06 6.95938e-07 0.000119179
0.00181499 0.000434773 -8.65577e-07
0.000434773 0.000249212 3.57391e-07
-8.65577e-07 3.57391e-07 1.05508e-05
0.00117352 0.000342187 1.6925e-07
0.000342187 9.72846e-05 3.43695e-07
1.6925e-07 3.43695e-07 -0.000185881
0.000422244 3.57914e-05 -1.33935e-06
3.57914e-05 -6.27995e-05 2.68648e-06
-1.33935e-06 2.68648e-06 -0.000166056
0.0019553 0.000247642 -9.72061e-09
0.000247642 -3.21494e-05 2.22046e-06
-9.72061e-09 2.22046e-06 -4.48076e-05
0.00155566 0.00027006 1.04468e-06
0.00027006 0.000646506 3.00243e-06
1.04468e-06 3.00243e-06 0.000428953
0.00120968 0.000285848 4.5309e-06
0.000285848 0.000243993 3.86249e-06
4.5309e-06 3.86249e-06 9.68446e-06
0.00250455 0.00037716 -1.73994e-05
0.00037716 0.000392327 -4.99601e-06
-1.73994e-05 -4.99601e-06 0.000289885
0.00105719 0.000405164 -4.05139e-06
0.000405164 -0.000270736 -7.46936e-06
-4.05139e-06 -7.46936e-06 -0.000491272
0.00205165 0.000452691 -1.16787e-06
0.000452691 0.000522164 3.04662e-06
-1.16787e-06 3.04662e-06 0.000223604
0.000685835 5.21822e-05 -1.23239e-06
5.21822e-05 8.2712e-05 -5.70577e-07
-1.23239e-06 -5.70577e-07 -9.05967e-06
0.000709713 4.49208e-05 -1.40889e-06
4.49208e-05 0.000101845 -5.17755e-07
-1.40889e-06 -5.17755e-07 1.18306e-05
0.000918888 3.27423e-05 -1.82041e-06
3.27423e-05 0.000231129 2.98792e-07
-1.82041e-06 2.98792e-07 0.000147835
0.000621469 -5.7304e-06 3.89867e-08
-5.7304e-06 4.6654e-05 -1.99074e-06
3.89867e-08 -1.99074e-06 -3.60281e-05
0.000666201 4.71017e-05 8.79145e-07
4.71017e-05 8.56875e-05 1.10379e-07
8.79145e-07 1.10379e-07 -1.8959e-05
0.000377212 1.73731e-05 -9.2628e-07
1.73731e-05 -7.28055e-05 1.32418e-06
-9.2628e-07 1.32418e-06 -0.000177923
0.000630442 3.43398e-06 -6.35738e-07
3.43398e-06 5.98635e-05 -5.08197e-09
-6.35738e-07 -5.08197e-09 -2.82971e-05
0.000484651 -2.1413e-05 -6.45727e-07
-2.1413e-05 -1.58443e-05 3.62284e-07
-6.45727e-07 3.62284e-07 -0.000125703
0.000546694 3.94365e-06 3.95979e-07
3.94365e-06 1.65716e-06 1.96549e-07
3.95979e-07 1.96549e-07 -8.49523e-05
0.000768557 4.09715e-05 5.25961e-07
4.09715e-05 0.00015426 -2.37958e-07
5.25961e-07 -2.37958e-07 3.70629e-05
0.00112915 4.51017e-05 2.84537e-07
4.51017e-05 0.00032855 -1.10861e-06
2.84537e-07 -1.10861e-06 0.000250991
0.000681779 -2.18623e-05 1.99329e-06
-2.18623e-05 8.29763e-05 -2.3768e-06
1.99329e-06 -2.3768e-06 -1.21781e-05
0.000743232 3.80319e-05 -9.43183e-10
3.80319e-05 0.000139212 -8.38422e-08
-9.43183e-10 -8.38422e-08 1.56879e-05
0.000631373 3.5308e-05 2.06037e-06
3.5308e-05 7.32332e-05 1.54789e-06
2.06037e-06 1.54789e-06 -4.57788e-05
0.000656558 2.16367e-05 1.54774e-06
2.16367e-05 6.87157e-05 1.9576e-06
1.54774e-06 1.9576e-06 -1.78976e-05
0.000576855 -2.86757e-05 -1.76086e-07
-2.86757e-05 7.08268e-06 2.00753e-06
-1.76086e-07 2.00753e-06 -4.74765e-05
0.000590281 -7.28728e-06 -3.37516e-07
-7.28728e-06 1.29901e-05 1.38171e-08
-3.37516e-07 1.38171e-08 -4.02584e-05
0.00127542 -4.50321e-06 7.66938e-07
-4.50321e-06 0.000393529 2.2811e-06
7.66938e-07 2.2811e-06 0.000382289
0.000598279 -2.62119e-05 7.04924e-07
-2.62119e-05 1.37074e-05 -2.47098e-06
7.04924e-07 -2.47098e-06 -3.81019e-05
0.00130708 -1.23051e-05 -2.97452e-06
-1.23051e-05 0.000411481 -1.58054e-06
-2.97452e-06 -1.58054e-06 0.00040066
0.000847081 -1.668e-05 1.23083e-05
-1.668e-05 0.000138846 8.33951e-06
1.23083e-05 8.33951e-06 0.000146437
0.00135556 -2.18911e-05 -5.07354e-06
-2.18911e-05 0.000439852 -5.6454e-06
-5.07354e-06 -5.6454e-06 0.000428773
0.000816712 -2.51907e-05 3.82813e-06
-2.51907e-05 0.000121032 3.18976e-06
3.82813e-06 3.18976e-06 0.000127916
0.00076436 -3.20818e-05 -8.16062e-07
-3.20818e-05 9.20918e-05 -2.14482e-06
-8.16062e-07 -2.14482e-06 9.81344e-05
0.000657204 1.06684e-05 1.15411e-06
1.06684e-05 3.60829e-05 -1.40096e-06
1.15411e-06 -1.40096e-06 -3.18579e-06
0.000541431 2.8421e-05 4.07715e-07
2.8421e-05 -4.42171e-05 -3.43884e-06
4.07715e-07 -3.43884e-06 -5.57836e-05
0.000548467 3.79852e-05 1.45272e-07
3.79852e-05 -3.20884e-05 1.20773e-07
1.45272e-07 1.20773e-07 -4.77537e-05
0.0021547 6.90314e-05 1.81947e-05
6.90314e-05 0.000936479 -3.96907e-06
1.81947e-05 -3.96907e-06 0.000947883
0.000552945 5.7634e-05 2.90692e-06
5.7634e-05 -1.45739e-05 4.88466e-06
2.90692e-06 4.88466e-06 -3.92184e-05
0.00237759 8.90917e-05 -4.24963e-06
8.90917e-05 0.00107897 -3.29208e-07
-4.24963e-06 -3.29208e-07 0.00108534
0.00267675 0.000107449 -3.17583e-05
0.000107449 0.00126465 3.69865e-06
-3.17583e-05 3.69865e-06 0.00126631
0.00194674 0.000248654 -6.66686e-07
0.000248654 0.000109005 1.11639e-06
-6.66686e-07 1.11639e-06 1.95531e-05
0.00191168 0.000155845 -3.0742e-06
0.000155845 7.17378e-05 -4.51347e-07
-3.0742e-06 -4.51347e-07 1.40801e-05
0.00187496 4.42467e-05 -3.29489e-06
4.42467e-05 6.30806e-05 -5.47286e-08
-3.29489e-06 -5.47286e-08 2.41466e-05
0.00177829 -1.21162e-06 -4.93716e-07
-1.21162e-06 5.56124e-05 -6.02704e-08
-4.93716e-07 -6.02704e-08 -8.2507e-06
0.00182143 -5.8268e-06 -9.64215e-07
-5.8268e-06 2.6186e-05 -8.15364e-08
-9.64215e-07 -8.15364e-08 -7.82647e-06
0.00192202 8.38715e-05 1.5391e-07
8.38715e-05 2.1951e-05 -4.62858e-08
1.5391e-07 -4.62858e-08 2.52097e-06
0.0019569 0.000224719 -5.12178e-07
0.000224719 4.30429e-05 -6.03471e-08
-5.12178e-07 -6.03471e-08 -1.39878e-05
0.00192762 -8.87874e-07 1.65579e-06
-8.87874e-07 1.70504e-05 -2.96067e-07
1.65579e-06 -2.96067e-07 1.02911e-05
0.00202624 0.000127799 2.34313e-06
0.000127799 1.7378e-05 -8.65679e-07
2.34313e-06 -8.65679e-07 3.48665e-06
0.00222909 7.75078e-05 -3.82218e-06
7.75078e-05 0.000186395 3.70152e-06
-3.82218e-06 3.70152e-06 0.000220788
0.00184139 -6.40533e-05 -3.76729e-06
-6.40533e-05 4.44294e-05 2.20991e-08
-3.76729e-06 2.20991e-08 -9.16626e-06
0.00189316 -0.000167766 -3.6821e-06
-0.000167766 2.90484e-05 7.89026e-07
-3.6821e-06 7.89026e-07 -2.01161e-05
0.00190239 -0.000260379 -2.76039e-06
-0.000260379 0.000107482 1.89763e-06
-2.76039e-06 1.89763e-06 3.25373e-05
0.000834045 -0.000243259 1.18104e-06
-0.000243259 1.66659e-05 5.55536e-06
1.18104e-06 5.55536e-06 -0.000210019
0.00128077 -0.000385711 2.57359e-06
-0.000385711 0.000151845 1.49446e-07
2.57359e-06 1.49446e-07 -0.000151128
0.001918 -0.000468228 -2.61882e-06
-0.000468228 0.000396819 -1.67325e-06
-2.61882e-06 -1.67325e-06 0.000114904
0.00189776 -0.000332443 2.45353e-06
-0.000332443 8.87934e-05 9.77586e-07
2.45353e-06 9.77586e-07 -1.75492e-05
0.00151929 -0.000372857 -3.19778e-06
-0.000372857 -3.58421e-05 -5.92456e-06
-3.19778e-06 -5.92456e-06 -0.000204296
0.000104207 -0.00016806 1.19509e-09
-0.00016806 -0.000358444 1.09316e-05
1.19509e-09 1.09316e-05 -0.000538888
0.0019622 -0.000289952 1.40944e-05
-0.000289952 0.000821294 -3.99375e-06
1.40944e-05 -3.99375e-06 0.000601933
0.000745346 -2.95955e-05 3.80382e-07
-2.95955e-05 0.000130081 -1.5194e-06
3.80382e-07 -1.5194e-06 -4.70944e-05
0.000554573 1.52607e-05 -1.58243e-08
1.52607e-05 -1.38679e-05 6.12957e-07
-1.58243e-08 6.12957e-07 -6.0914e-05
0.000799953 2.40195e-05 1.38621e-06
2.40195e-05 0.000164947 9.36437e-07
1.38621e-06 9.36437e-07 6.18984e-05
0.000884086 -5.38993e-05 6.7434e-07
-5.38993e-05 0.000229662 1.33753e-06
6.7434e-07 1.33753e-06 8.21209e-05
0.0019231 -8.33732e-05 2.33226e-07
-8.33732e-05 2.74695e-05 -1.26563e-07
2.33226e-07 -1.26563e-07 6.82985e-06
0.000594109 1.80757e-05 9.87852e-07
1.80757e-05 2.19162e-06 1.16685e-07
9.87852e-07 1.16685e-07 -3.97965e-05
0.000537664 -3.77487e-05 -1.73719e-06
-3.77487e-05 -9.38392e-06 -3.85679e-08
-1.73719e-06 -3.85679e-08 -7.99085e-05
0.00196571 -0.000222468 -1.86566e-07
-0.000222468 4.10324e-05 2.27659e-07
-1.86566e-07 2.27659e-07 1.98556e-05
0.00189222 -0.000279126 -1.40708e-06
-0.000279126 5.14826e-05 1.96499e-07
-1.40708e-06 1.96499e-07 -1.06571e-05
0.000708638 -0.000272291 -5.42688e-07
-0.000272291 -7.85729e-05 1.68295e-06
-5.42688e-07 1.68295e-06 -0.000340093
0.00187754 -0.000487974 1.14755e-07
-0.000487974 0.000464543 3.80018e-07
1.14755e-07 3.80018e-07 0.000115629
0.00157172 -0.000454267 3.13771e-06
-0.000454267 0.000137729 -1.42473e-06
3.13771e-06 -1.42473e-06 -0.000129388
0.00205289 -0.000439051 2.40121e-06
-0.000439051 0.000153797 -9.84803e-07
2.40121e-06 -9.84803e-07 2.50301e-05
0.000710124 -1.02935e-05 8.39738e-07
-1.02935e-05 0.000113317 -1.11748e-06
8.39738e-07 -1.11748e-06 2.53105e-05
0.000726064 -3.05512e-05 1.94002e-07
-3.05512e-05 0.000143791 1.27636e-06
1.94002e-07 1.27636e-06 8.30409e-06
0.000948585 -0.00024619 -3.79962e-06
-0.00024619 0.000117554 -1.47983e-06
-3.79962e-06 -1.47983e-06 -7.80414e-05
0.00159768 -0.000272998 1.4141e-05
-0.000272998 0.000653254 -3.36344e-06
1.4141e-05 -3.36344e-06 0.000393885
0.000460543 -8.64388e-05 -2.63628e-06
-8.64388e-05 -3.2847e-05 -2.34408e-07
-2.63628e-06 -2.34408e-07 -0.000216871
0.000679922 -2.95755e-05 6.22026e-07
-2.95755e-05 9.80272e-05 -8.78495e-07
6.22026e-07 -8.78495e-07 -5.77903e-05
0.00193184 -9.50533e-05 1.88277e-06
-9.50533e-05 -3.59511e-05 -1.14435e-06
1.88277e-06 -1.14435e-06 -4.94992e-05
0.00189564 -0.000259179 -5.80953e-07
-0.000259179 -5.70645e-05 8.26425e-08
-5.80953e-07 8.26425e-08 -1.51268e-05
0.00203551 -0.000389825 -3.57455e-06
-0.000389825 5.36213e-05 -2.30587e-06
-3.57455e-06 -2.30587e-06 -2.2875e-05
0.00155645 -0.000494445 1.05068e-06
-0.000494445 -8.9877e-06 -5.64071e-07
1.05068e-06 -5.64071e-07 -0.000171362
0.0009339 -0.000265144 -1.10024e-05
-0.000265144 7.6482e-05 -7.83896e-06
-1.10024e-05 -7.83896e-06 -0.000186766
0.00252091 -0.000582884 -9.16289e-06
-0.000582884 0.000803398 7.55696e-06
-9.16289e-06 7.55696e-06 0.000430484
0.00039347 5.24726e-05 -1.09989e-06
5.24726e-05 -8.6161e-05 -2.09616e-06
-1.09989e-06 -2.09616e-06 -0.000161749
0.000653177 -5.71277e-05 3.12488e-06
-5.71277e-05 6.07766e-05 -7.52766e-07
3.12488e-06 -7.52766e-07 -1.11385e-05
0.000931696 -8.85936e-05 1.44095e-06
-8.85936e-05 0.000237172 1.75053e-06
1.44095e-06 1.75053e-06 0.000139699
0.000443637 1.78425e-05 -1.63275e-06
1.78425e-05 -3.06959e-05 2.0995e-06
-1.63275e-06 2.0995e-06 -0.000154453
0.00094691 -7.02908e-05 -1.67075e-06
-7.02908e-05 0.000257263 2.62015e-06
-1.67075e-06 2.62015e-06 0.000122102
0.00102168 -4.96225e-05 1.98216e-06
-4.96225e-05 0.000254499 7.39288e-07
1.98216e-06 7.39288e-07 8.64717e-05
-0.000506622 -0.000101578 5.62627e-06
-0.000101578 -0.000434281 1.0394e-06
5.62627e-06 1.0394e-06 -0.000774529
-2.5631e-05 -0.000242226 -2.11568e-05
-0.000242226 -0.000437307 3.13577e-06
-2.11568e-05 3.13577e-06 -0.000630084
0.000415112 4.91769e-05 5.58116e-08
4.91769e-05 -5.45597e-05 -8.71811e-07
5.58116e-08 -8.71811e-07 -0.000163745
0.000871121 0.000142428 -4.38615e-06
0.000142428 0.000250647 -2.82009e-06
-4.38615e-06 -2.82009e-06 7.64205e-05
0.002086 0.00029842 -3.64402e-06
0.00029842 8.43805e-05 -1.4743e-06
-3.64402e-06 -1.4743e-06 2.50444e-05
0.00192253 0.000375162 -3.6032e-07
0.000375162 0.000173925 1.71196e-06
-3.6032e-07 1.71196e-06 2.03692e-05
0.00179785 0.000232582 -7.19531e-06
0.000232582 0.000691164 -1.73708e-06
-7.19531e-06 -1.73708e-06 0.000512652
0.00142687 0.000295478 -3.66244e-06
0.000295478 0.000416898 -8.52592e-06
-3.66244e-06 -8.52592e-06 0.000181798
0.00182919 0.000430346 1.20176e-06
0.000430346 0.000248817 1.89108e-06
1.20176e-06 1.89108e-06 1.21283e-05
0.00187049 0.000407032 -3.47645e-07
0.000407032 0.000481606 -1.28608e-06
-3.47645e-07 -1.28608e-06 0.000193649
0.000567482 6.47139e-05 7.57799e-07
6.47139e-05 3.50846e-05 -9.54453e-07
7.57799e-07 -9.54453e-07 -7.94915e-05
0.00203184 0.000235482 -8.84845e-07
0.000235482 3.51677e-06 -6.79136e-07
-8.84845e-07 -6.79136e-07 -2.23272e-06
0.0010271 0.000195702 1.00899e-06
0.000195702 0.00032601 1.55921e-06
1.00899e-06 1.55921e-06 0.000126069
0.00105982 0.000273504 1.24141e-06
0.000273504 0.000163954 -2.02799e-07
1.24141e-06 -2.02799e-07 -7.25389e-05
0.00228586 0.000368751 3.01285e-06
0.000368751 0.000273694 6.39185e-07
3.01285e-06 6.39185e-07 0.000173657
0.00160034 0.000441047 -1.19682e-06
0.000441047 3.14437e-05 -3.76988e-06
-1.19682e-06 -3.76988e-06 -0.00018969
0.00196438 0.000444181 -1.11627e-07
0.000444181 0.000485353 2.91903e-07
-1.11627e-07 2.91903e-07 0.000186683
0.00115927 0.000148541 -3.96024e-06
0.000148541 0.000407327 3.09493e-06
-3.96024e-06 3.09493e-06 0.000250745
0.00244766 0.000269895 -4.5087e-05
0.000269895 0.000298978 -1.17054e-05
-4.5087e-05 -1.17054e-05 0.000316989
0.00224655 0.000382853 -6.0361e-06
0.000382853 0.000966475 3.73693e-07
-6.0361e-06 3.73693e-07 0.00073481
0.00215005 0.000415044 -7.68047e-06
0.000415044 0.000703026 -2.68716e-07
-7.68047e-06 -2.68716e-07 0.000431735
0.00182614 0.000478891 -2.21033e-05
0.000478891 5.28862e-05 -1.25719e-05
-2.21033e-05 -1.25719e-05 -9.75014e-05
0.000874181 0.000378675 -1.62995e-05
0.000378675 -0.000179336 -1.20044e-06
-1.62995e-05 -1.20044e-06 -0.000452463
0.000741208 0.000351103 3.0526e-05
0.000351103 -0.000596421 -2.08567e-05
3.0526e-05 -2.08567e-05 -0.000832317
0.000483173 5.94149e-05 1.02715e-06
5.94149e-05 -2.10746e-05 -5.06555e-07
1.02715e-06 -5.06555e-07 -0.000115379
0.000644299 3.95901e-05 -1.6016e-07
3.95901e-05 8.39111e-05 9.29923e-07
-1.6016e-07 9.29923e-07 -3.00369e-06
0.00140412 7.16986e-05 2.87504e-07
7.16986e-05 0.00051536 -4.6189e-08
2.87504e-07 -4.6189e-08 0.000425737
0.000596606 -6.03341e-05 2.05851e-07
-6.03341e-05 4.65866e-05 -2.47687e-06
2.05851e-07 -2.47687e-06 -4.54662e-05
0.000536849 -4.03944e-05 -1.10314e-06
-4.03944e-05 1.01204e-05 5.08907e-08
-1.10314e-06 5.08907e-08 -9.58945e-05
0.000921454 0.000128343 -1.11681e-07
0.000128343 0.000244143 8.94733e-07
-1.11681e-07 8.94733e-07 0.000124033
0.000385279 -9.78678e-06 -1.44622e-06
-9.78678e-06 -8.47247e-05 3.70799e-06
-1.44622e-06 3.70799e-06 -0.000172685
0.000626982 -2.28586e-05 -1.34611e-07
-2.28586e-05 6.3142e-05 -4.0905e-08
-1.34611e-07 -4.0905e-08 -3.07969e-05
0.000626124 4.22135e-05 -9.21041e-08
4.22135e-05 5.57818e-05 -4.28743e-07
-9.21041e-08 -4.28743e-07 -5.31178e-05
0.000904875 3.80604e-05 -1.31069e-06
3.80604e-05 0.000197131 3.29967e-07
-1.31069e-06 3.29967e-07 0.000118948
0.000741818 2.30918e-05 4.88702e-07
2.30918e-05 0.000125685 -4.29494e-08
4.88702e-07 -4.29494e-08 1.14207e-05
0.000753413 2.59012e-06 -1.40866e-07
2.59012e-06 0.000121548 -3.62401e-07
-1.40866e-07 -3.62401e-07 2.42158e-05
0.000938625 3.7115e-05 -5.57496e-07
3.7115e-05 0.000218726 -3.24921e-06
-5.57496e-07 -3.24921e-06 0.000136834
0.000796552 4.17725e-05 -1.74604e-06
4.17725e-05 0.000145409 -2.667e-06
-1.74604e-06 -2.667e-06 2.96573e-05
0.000808484 7.56537e-05 5.62737e-07
7.56537e-05 0.000157667 1.87312e-07
5.62737e-07 1.87312e-07 4.53595e-05
0.000684779 4.2845e-05 3.69807e-07
4.2845e-05 0.000104671 1.20638e-06
3.69807e-07 1.20638e-06 -2.11822e-05
0.000472107 -2.13989e-05 -1.92641e-07
-2.13989e-05 -4.38219e-05 2.12884e-06
-1.92641e-07 2.12884e-06 -0.000133589
0.000885315 -2.86513e-05 1.62215e-07
-2.86513e-05 0.00024261 -9.56894e-07
1.62215e-07 -9.56894e-07 0.000116007
0.0004069 -1.4571e-05 -8.71894e-07
-1.4571e-05 -7.88809e-05 2.31769e-06
-8.71894e-07 2.31769e-06 -0.000172511
0.000548995 5.87979e-06 -1.24636e-06
5.87979e-06 -6.43795e-06 2.04054e-06
-1.24636e-06 2.04054e-06 -6.31941e-05
0.000565701 2.1802e-05 1.32111e-06
2.1802e-05 2.46661e-06 -1.32015e-08
1.32111e-06 -1.32015e-08 -5.33629e-05
0.000534445 4.75073e-06 4.15288e-07
4.75073e-06 -4.6976e-05 3.75303e-06
4.15288e-07 3.75303e-06 -6.30257e-05
0.000573821 -4.83226e-07 -1.72085e-06
-4.83226e-07 5.19691e-06 -2.29387e-06
-1.72085e-06 -2.29387e-06 -4.95563e-05
0.00093457 -1.23228e-06 -1.9954e-06
-1.23228e-06 0.000190887 -1.65328e-06
-1.9954e-06 -1.65328e-06 0.000177343
0.00237938 -1.32688e-05 8.1267e-06
-1.32688e-05 0.00105306 5.21093e-06
8.1267e-06 5.21093e-06 0.00106854
0.00136064 -1.05833e-05 -3.14539e-06
-1.05833e-05 0.00044399 -5.5475e-06
-3.14539e-06 -5.5475e-06 0.000432893
0.000813283 -1.67254e-05 2.09621e-06
-1.67254e-05 0.000117016 3.23536e-06
2.09621e-06 3.23536e-06 0.000124689
0.000778645 -2.36318e-05 -2.56793e-07
-2.36318e-05 9.67426e-05 -2.17264e-06
-2.56793e-07 -2.17264e-06 0.000103913
0.000604795 8.94786e-06 -5.56995e-07
8.94786e-06 8.0007e-06 -1.40891e-06
-5.56995e-07 -1.40891e-06 -3.08066e-05
0.000621203 -4.0737e-06 1.0434e-06
-4.0737e-06 1.61718e-05 -1.16278e-07
1.0434e-06 -1.16278e-07 -2.40856e-05
0.000570596 2.16527e-05 3.50595e-07
2.16527e-05 -3.02275e-05 -3.35461e-06
3.50595e-07 -3.35461e-06 -3.95756e-05
0.000877703 3.46391e-05 -3.6806e-07
3.46391e-05 0.000157731 4.71967e-08
-3.6806e-07 4.71967e-08 0.000147595
0.00211667 5.51621e-05 1.42948e-05
5.51621e-05 0.000907024 -4.1834e-06
1.42948e-05 -4.1834e-06 0.000921164
0.000559254 4.08412e-05 7.62842e-07
4.08412e-05 -2.4207e-05 3.78515e-06
7.62842e-07 3.78515e-06 -4.06129e-05
0.00220988 7.2079e-05 -2.88842e-06
7.2079e-05 0.000970593 -1.90292e-07
-2.88842e-06 -1.90292e-07 0.000981195
0.00243142 9.15769e-05 -2.09364e-05
9.15769e-05 0.00111153 3.98871e-06
-2.09364e-05 3.98871e-06 0.00111726
0.00192792 0.000228127 -4.48189e-06
0.000228127 2.36901e-05 -1.67615e-06
-4.48189e-06 -1.67615e-06 -3.10556e-05
0.00190671 7.98322e-05 -1.96035e-06
7.98322e-05 1.66382e-05 5.34389e-07
-1.96035e-06 5.34389e-07 -4.22296e-06
0.00185769 -4.26864e-06 -3.97561e-06
-4.26864e-06 4.5978e-05 5.75634e-08
-3.97561e-06 5.75634e-08 1.49318e-05
0.00192252 -4.62859e-07 1.32385e-07
-4.62859e-07 1.67439e-05 -1.62036e-07
1.32385e-07 -1.62036e-07 9.83954e-06
0.00200667 0.000127982 1.56351e-07
0.000127982 2.09183e-05 1.62401e-07
1.56351e-07 1.62401e-07 5.82888e-06
0.00192013 6.52687e-05 4.90356e-06
6.52687e-05 -4.74158e-06 -3.42433e-07
4.90356e-06 -3.42433e-07 2.35587e-05
0.00199729 5.57167e-06 -1.52417e-06
5.57167e-06 -1.72518e-05 -1.45532e-06
-1.52417e-06 -1.45532e-06 -2.50426e-06
0.00292707 0.000331161 3.45567e-05
0.000331161 -0.000347192 5.98419e-06
3.45567e-05 5.98419e-06 -0.000144612
0.00223888 4.10029e-05 -2.91273e-05
4.10029e-05 0.00033582 1.24479e-05
-2.91273e-05 1.24479e-05 0.000410253
0.00059293 8.19976e-05 -8.68052e-07
8.19976e-05 3.56425e-05 -3.56253e-07
-8.68052e-07 -3.56253e-07 -3.7265e-05
0.00193907 -8.54556e-05 -1.80249e-06
-8.54556e-05 3.0991e-05 -2.18235e-07
-1.80249e-06 -2.18235e-07 1.32983e-05
0.00192836 -0.000212855 -6.44167e-07
-0.000212855 3.65468e-05 4.46297e-07
-6.44167e-07 4.46297e-07 9.53083e-06
0.00185261 -0.000280298 -1.10921e-07
-0.000280298 2.53525e-05 2.14585e-06
-1.10921e-07 2.14585e-06 -3.7065e-05
0.000642264 -0.000263132 8.29079e-07
-0.000263132 -0.000113608 8.28274e-06
8.29079e-07 8.28274e-06 -0.000367091
0.00184341 -0.000483728 4.62277e-06
-0.000483728 0.000453637 4.18576e-06
4.62277e-06 4.18576e-06 0.000101837
0.00144038 -0.000449783 1.51643e-06
-0.000449783 3.90412e-05 -7.91075e-06
1.51643e-06 -7.91075e-06 -0.000223861
0.00222986 -0.000448667 -2.8924e-06
-0.000448667 0.000265149 -1.09976e-06
-2.8924e-06 -1.09976e-06 0.000132408
0.00180629 -0.000303873 1.65576e-05
-0.000303873 0.000606266 -5.83326e-07
1.65576e-05 -5.83326e-07 0.000398735
0.000410839 -0.000170173 1.17141e-05
-0.000170173 -4.60165e-05 -5.68987e-06
1.17141e-05 -5.68987e-06 -0.000257036
0.00104237 -0.000116298 1.25711e-06
-0.000116298 0.000305082 -2.78385e-06
1.25711e-06 -2.78385e-06 0.000121124
0.000594625 4.72282e-06 -7.13119e-07
4.72282e-06 1.51957e-06 1.47318e-06
-7.13119e-07 1.47318e-06 -3.94284e-05
0.000845552 -2.01405e-05 1.66572e-06
-2.01405e-05 0.000206331 -1.36115e-06
1.66572e-06 -1.36115e-06 4.45504e-05
0.00091318 -3.945e-05 2.06728e-06
-3.945e-05 0.000241753 -3.37803e-07
2.06728e-06 -3.37803e-07 0.000151853
0.00083731 -2.67895e-05 8.53253e-07
-2.67895e-05 0.000206456 -7.21473e-07
8.53253e-07 -7.21473e-07 6.96062e-05
0.000382955 -2.6857e-05 -2.04063e-06
-2.6857e-05 -0.00010767 6.83594e-07
-2.04063e-06 6.83594e-07 -0.000174822
0.00196057 -0.000109155 -2.34132e-07
-0.000109155 -4.0504e-05 8.59363e-08
-2.34132e-07 8.59363e-08 -4.09452e-05
0.000491576 3.59704e-05 5.1404e-09
3.59704e-05 -2.22897e-05 -1.31409e-06
5.1404e-09 -1.31409e-06 -0.000100378
0.000644863 -5.43777e-05 8.4827e-07
-5.43777e-05 6.37392e-05 4.44306e-07
8.4827e-07 4.44306e-07 -1.27778e-05
0.000782703 -5.80757e-05 -8.95306e-08
-5.80757e-05 0.000147433 7.68519e-07
-8.95306e-08 7.68519e-07 5.12459e-05
0.0019224 -0.000262059 1.22103e-06
-0.000262059 -3.03057e-05 -1.54555e-07
1.22103e-06 -1.54555e-07 -2.11636e-06
0.00206267 -0.000390144 -3.1459e-07
-0.000390144 7.85424e-05 -4.78932e-07
-3.1459e-07 -4.78932e-07 5.25138e-07
0.00131675 -0.000315178 6.48746e-06
-0.000315178 0.000278972 -9.08983e-08
6.48746e-06 -9.08983e-08 1.62433e-05
0.00206284 -0.000541404 5.88396e-06
-0.000541404 0.000559853 2.31253e-08
5.88396e-06 2.31253e-08 0.000198561
0.00187645 -0.000513189 -8.43995e-07
-0.000513189 0.000186662 1.50679e-06
-8.43995e-07 1.50679e-06 1.4185e-05
0.000483656 -1.11018e-05 -5.53748e-07
-1.11018e-05 -3.26133e-06 -1.0858e-07
-5.53748e-07 -1.0858e-07 -0.000124398
0.000837197 -7.97984e-05 -1.56597e-06
-7.97984e-05 0.000199696 5.38145e-07
-1.56597e-06 5.38145e-07 5.44389e-05
0.000616458 -0.000295724 -6.56509e-06
-0.000295724 -5.51486e-05 -3.65448e-07
-6.56509e-06 -3.65448e-07 -0.000286864
0.000543435 -0.000112824 -1.17509e-07
-0.000112824 0.000103245 -1.31316e-06
-1.17509e-07 -1.31316e-06 -0.000182982
0.000723269 -7.2869e-05 -1.58675e-07
-7.2869e-05 8.20064e-05 5.53464e-08
-1.58675e-07 5.53464e-08 -8.11806e-05
0.00239211 -0.000224511 -3.09456e-06
-0.000224511 0.000192551 -1.49125e-06
-3.09456e-06 -1.49125e-06 0.000200275
0.00178028 -0.000277044 -1.18022e-05
-0.000277044 -0.000146987 1.47938e-06
-1.18022e-05 1.47938e-06 -9.04577e-05
0.00247994 -0.000547674 -8.8077e-06
-0.000547674 0.000342811 -3.3646e-06
-8.8077e-06 -3.3646e-06 0.000198884
0.00280505 -0.000627801 -2.19278e-05
-0.000627801 0.000816049 1.74984e-06
-2.19278e-05 1.74984e-06 0.000577508
0.00130454 -0.000345788 -1.86007e-05
-0.000345788 0.000326106 -2.85953e-06
-1.86007e-05 -2.85953e-06 5.14648e-05
0.000436476 2.944e-06 1.24939e-06
2.944e-06 -5.33048e-05 -3.25088e-07
1.24939e-06 -3.25088e-07 -0.00014985
0.000484271 4.32523e-05 5.33892e-07
4.32523e-05 -3.56879e-05 9.959e-07
5.33892e-07 9.959e-07 -0.000135638
0.000397868 -2.75729e-06 -2.12157e-08
-2.75729e-06 -7.60118e-05 -7.07711e-07
-2.12157e-08 -7.07711e-07 -0.000182133
0.00132516 -0.000157318 -2.55339e-06
-0.000157318 0.000506718 5.12236e-06
-2.55339e-06 5.12236e-06 0.000364617
0.000428302 -5.67237e-05 -9.89286e-07
-5.67237e-05 -6.50923e-05 6.50038e-06
-9.89286e-07 6.50038e-06 -0.000201709
-6.08678e-05 -8.39461e-05 1.60866e-06
-8.39461e-05 -0.000184478 4.31302e-06
1.60866e-06 4.31302e-06 -0.000498856
2.51423e-05 -0.000335997 2.91412e-06
-0.000335997 -0.000188009 7.57468e-07
2.91412e-06 7.57468e-07 -0.000557558
0.000775666 0.00010374 1.16269e-06
0.00010374 0.000172058 -4.35919e-06
1.16269e-06 -4.35919e-06 4.27527e-05
0.000234115 9.36311e-05 -5.20469e-07
9.36311e-05 -0.000151053 -1.29118e-06
-5.20469e-07 -1.29118e-06 -0.000328082
0.00211601 0.000221167 7.42513e-06
0.000221167 4.02395e-05 9.65554e-08
7.42513e-06 9.65554e-08 4.45939e-05
0.0020087 0.000357399 1.34379e-05
0.000357399 0.000122952 3.59921e-06
1.34379e-05 3.59921e-06 2.67771e-05
0.00222221 0.000482452 1.10004e-05
0.000482452 0.000377686 3.71852e-06
1.10004e-05 3.71852e-06 0.000155339
0.000969727 0.000267519 2.01853e-07
0.000267519 0.000115783 -1.11415e-06
2.01853e-07 -1.11415e-06 -0.000122954
0.00188452 0.000436 1.40888e-06
0.000436 0.000449708 1.12965e-06
1.40888e-06 1.12965e-06 0.000152253
0.00137593 0.000128872 -3.90998e-08
0.000128872 0.000516248 2.86856e-07
-3.90998e-08 2.86856e-07 0.000371723
0.00223936 0.000233958 -2.60604e-06
0.000233958 0.000207864 6.33942e-07
-2.60604e-06 6.33942e-07 0.000233275
0.00149825 0.000288421 -1.89018e-06
0.000288421 0.000524206 5.86518e-07
-1.89018e-06 5.86518e-07 0.000313786
0.00152555 0.000356848 6.25119e-08
0.000356848 0.000373586 1.64568e-06
6.25119e-08 1.64568e-06 9.99762e-05
0.00193323 0.000475096 -1.80193e-06
0.000475096 0.000103506 -2.71679e-06
-1.80193e-06 -2.71679e-06 -3.59815e-05
0.00165176 0.00045043 -3.28862e-06
0.00045043 0.000254633 5.20916e-06
-3.28862e-06 5.20916e-06 -3.27299e-05
0.00221694 0.000470228 3.7308e-05
0.000470228 -0.000101141 4.38676e-06
3.7308e-05 4.38676e-06 -0.000415653
0.00111731 0.000196515 -5.50492e-06
0.000196515 0.000390243 -6.52826e-07
-5.50492e-06 -6.52826e-07 0.000219476
0.00250145 0.000391476 -5.45611e-05
0.000391476 0.000455512 -2.64997e-05
-5.45611e-05 -2.64997e-05 0.000430236
0.00119991 0.000283895 -5.09481e-06
0.000283895 0.000278689 -1.20128e-06
-5.09481e-06 -1.20128e-06 7.55182e-05
0.000461281 0.000284465 -9.4539e-07
0.000284465 -0.000248069 -4.5023e-06
-9.4539e-07 -4.5023e-06 -0.000516477
0.000328404 0.000433324 -1.75358e-05
0.000433324 -0.000610616 -4.28151e-06
-1.75358e-05 -4.28151e-06 -0.000800795
0.0107111 0.000388172 -0.000207019
0.000388172 0.00229423 -4.39745e-05
-0.000207019 -4.39745e-05 0.0014108
0.0058918 0.000859981 0.000126526
0.000859981 0.000764183 -2.70988e-05
0.000126526 -2.70988e-05 0.000490457
0.000504548 0.000592279 1.66222e-05
0.000592279 -0.000563996 8.46199e-06
1.66222e-05 8.46199e-06 -0.000806535
-0.00444066 -0.000836877 0.000431393
-0.000836877 -0.000886505 4.85751e-05
0.000431393 4.85751e-05 -0.00233452
0.00922525 -0.00275816 -2.29884e-05
-0.00275816 0.00210588 1.57039e-05
-2.29884e-05 1.57039e-05 0.00336351
0.00043388 4.81617e-05 3.75152e-06
4.81617e-05 -2.86202e-05 7.0959e-07
3.75152e-06 7.0959e-07 -0.000117737
0.00083869 4.47174e-05 1.27898e-06
4.47174e-05 0.000204269 -6.77512e-07
1.27898e-06 -6.77512e-07 0.00011505
0.00105709 0.000104902 -2.63744e-06
0.000104902 0.000331832 -7.15052e-07
-2.63744e-06 -7.15052e-07 0.000228108
0.000607887 -6.06674e-05 -1.05907e-07
-6.06674e-05 5.98154e-05 -1.8573e-06
-1.05907e-07 -1.8573e-06 -3.89713e-05
0.000609663 5.89108e-05 -1.22949e-06
5.89108e-05 4.96119e-05 -1.47287e-06
-1.22949e-06 -1.47287e-06 -6.33277e-05
0.000746676 -2.86235e-05 3.55913e-07
-2.86235e-05 0.000130888 -6.35155e-08
3.55913e-07 -6.35155e-08 1.60009e-05
0.00082841 2.73643e-05 -1.37871e-06
2.73643e-05 0.000161632 3.18271e-06
-1.37871e-06 3.18271e-06 6.23054e-05
0.000570719 2.64993e-05 -1.3818e-06
2.64993e-05 2.74845e-06 2.49784e-06
-1.3818e-06 2.49784e-06 -7.57867e-05
0.000771611 8.08649e-05 -1.59792e-06
8.08649e-05 0.000150403 -5.2977e-07
-1.59792e-06 -5.2977e-07 2.73578e-05
0.000546432 -9.2759e-06 2.02963e-08
-9.2759e-06 6.60032e-06 7.40037e-07
2.02963e-08 7.40037e-07 -8.62161e-05
0.000662821 2.20706e-05 1.51642e-07
2.20706e-05 8.81477e-05 1.211e-07
1.51642e-07 1.211e-07 -3.45391e-05
0.000702321 3.61443e-05 7.95508e-07
3.61443e-05 7.89553e-05 -4.93075e-07
7.95508e-07 -4.93075e-07 -3.79549e-06
0.000803435 4.82376e-05 -6.83568e-07
4.82376e-05 0.000149266 -8.25736e-08
-6.83568e-07 -8.25736e-08 3.80915e-05
0.00107459 9.61016e-05 -1.47061e-06
9.61016e-05 0.000314801 -1.62749e-06
-1.47061e-06 -1.62749e-06 0.000199582
0.000374861 4.73455e-05 -1.09595e-07
4.73455e-05 -8.87384e-05 -3.10774e-06
-1.09595e-07 -3.10774e-06 -0.000188945
0.00081687 8.27693e-05 1.73195e-06
8.27693e-05 0.000162493 3.11676e-07
1.73195e-06 3.11676e-07 4.51008e-05
0.000569229 -2.12085e-05 1.24925e-06
-2.12085e-05 1.91914e-05 -5.4697e-08
1.24925e-06 -5.4697e-08 -9.5733e-05
0.00045589 -5.38823e-05 -1.21701e-06
-5.38823e-05 -4.82113e-05 1.84273e-06
-1.21701e-06 1.84273e-06 -0.000144286
0.000775645 -6.34465e-06 -8.03332e-07
-6.34465e-06 0.000152226 -1.13602e-08
-8.03332e-07 -1.13602e-08 3.33492e-05
0.000800374 3.32202e-05 -1.53258e-08
3.32202e-05 0.000169343 -2.91391e-06
-1.53258e-08 -2.91391e-06 5.54217e-05
0.000659355 -2.34764e-05 -7.57395e-07
-2.34764e-05 9.3337e-05 -6.26376e-08
-7.57395e-07 -6.26376e-08 -1.86881e-05
0.000791475 -2.43401e-05 1.15995e-06
-2.43401e-05 0.000168374 -5.82614e-07
1.15995e-06 -5.82614e-07 5.30871e-05
0.00067224 -8.61028e-05 -2.41736e-06
-8.61028e-05 7.96957e-05 1.43919e-06
-2.41736e-06 1.43919e-06 -1.1697e-05
0.0004565 -1.16329e-05 1.24355e-07
-1.16329e-05 -4.73958e-05 8.29189e-07
1.24355e-07 8.29189e-07 -0.000143142
0.000586612 -2.06019e-05 -1.46169e-06
-2.06019e-05 8.78881e-06 2.3818e-06
-1.46169e-06 2.3818e-06 -4.53687e-05
0.0005789 -1.88689e-05 1.06144e-06
-1.88689e-05 9.83485e-06 3.92029e-10
1.06144e-06 3.92029e-10 -4.62611e-05
0.000575082 6.78247e-06 3.89703e-09
6.78247e-06 -2.17589e-05 5.48025e-06
3.89703e-09 5.48025e-06 -3.83884e-05
0.000579055 1.97402e-05 -9.38302e-07
1.97402e-05 8.10663e-06 -2.13236e-06
-9.38302e-07 -2.13236e-06 -4.61469e-05
0.000545374 4.75086e-06 3.60722e-07
4.75086e-06 -4.01462e-05 -2.83487e-09
3.60722e-07 -2.83487e-09 -5.6315e-05
0.00236915 -1.66966e-06 -7.85349e-07
-1.66966e-06 0.00104675 5.28019e-06
-7.85349e-07 5.28019e-06 0.00106225
0.000589209 1.68286e-06 -7.85404e-07
1.68286e-06 -1.51894e-05 -5.6631e-06
-7.85404e-07 -5.6631e-06 -3.11478e-05
0.00159862 -9.9069e-06 1.62276e-08
-9.9069e-06 0.000585655 8.36654e-08
1.62276e-08 8.36654e-08 0.000597094
0.000775793 -1.48506e-05 1.94659e-07
-1.48506e-05 9.2928e-05 -2.10934e-06
1.94659e-07 -2.10934e-06 0.000100963
0.000600355 -1.13549e-05 9.64246e-07
-1.13549e-05 7.81128e-06 -1.35572e-06
9.64246e-07 -1.35572e-06 -2.97825e-05
0.000622166 -1.92827e-05 4.03135e-07
-1.92827e-05 1.86599e-05 -4.54272e-08
4.03135e-07 -4.54272e-08 -2.07684e-05
0.000587068 1.41479e-05 4.47917e-07
1.41479e-05 -2.26605e-05 -3.12448e-06
4.47917e-07 -3.12448e-06 -3.02259e-05
0.000599191 -1.4442e-05 -1.38873e-06
-1.4442e-05 2.02756e-06 1.22638e-06
-1.38873e-06 1.22638e-06 -3.76459e-05
0.00085968 2.54842e-05 -6.4491e-08
2.54842e-05 0.000142734 -7.11625e-07
-6.4491e-08 -7.11625e-07 0.000135309
0.00204904 4.09826e-05 1.07987e-05
4.09826e-05 0.000861672 -4.30359e-06
1.07987e-05 -4.30359e-06 0.000878201
0.000555586 3.03244e-05 -4.10943e-07
3.03244e-05 -3.47762e-05 3.42007e-06
-4.10943e-07 3.42007e-06 -4.69374e-05
0.00217939 5.7361e-05 -7.1879e-06
5.7361e-05 0.000946614 1.11588e-06
-7.1879e-06 1.11588e-06 0.000960068
0.00228233 7.54608e-05 -1.63091e-05
7.54608e-05 0.00101498 4.0662e-06
-1.63091e-05 4.0662e-06 0.00102471
0.00197725 0.000128126 -2.49346e-06
0.000128126 1.93111e-05 -2.82206e-08
-2.49346e-06 -2.82206e-08 2.87035e-06
0.00192294 -6.18596e-07 -1.40401e-06
-6.18596e-07 1.98377e-05 1.21676e-07
-1.40401e-06 1.21676e-07 1.27917e-05
0.0016183 5.3775e-05 9.70466e-06
5.3775e-05 -0.000191724 -3.55474e-07
9.70466e-06 -3.55474e-07 -0.000169941
0.00233141 0.00024141 3.86735e-05
0.00024141 -0.000478672 8.31652e-06
3.86735e-05 8.31652e-06 -0.000356641
0.00196816 -8.44023e-06 -2.23864e-06
-8.44023e-06 -2.33165e-05 -3.73495e-07
-2.23864e-06 -3.73495e-07 -8.08799e-06
0.00189888 5.04205e-05 3.72034e-06
5.04205e-05 0.000142065 -2.11302e-06
3.72034e-06 -2.11302e-06 0.0002009
0.00278507 -1.66915e-05 -2.72021e-05
-1.66915e-05 0.000678853 3.69168e-06
-2.72021e-05 3.69168e-06 0.000657856
0.00199876 -3.12453e-05 5.70073e-05
-3.12453e-05 -0.0013318 -2.05069e-05
5.70073e-05 -2.05069e-05 -0.00116224
0.00253153 8.46707e-05 3.30183e-05
8.46707e-05 -7.14299e-05 1.8734e-05
3.30183e-05 1.8734e-05 7.26101e-05
0.000626085 6.98653e-05 8.94963e-08
6.98653e-05 5.85743e-05 -6.35562e-07
8.94963e-08 -6.35562e-07 -1.75194e-05
0.000650683 -8.73465e-06 5.93991e-07
-8.73465e-06 7.49027e-05 -2.02607e-07
5.93991e-07 -2.02607e-07 -2.88813e-06
0.000628809 -9.45993e-05 -6.8001e-07
-9.45993e-05 6.17008e-05 1.02809e-06
-6.8001e-07 1.02809e-06 -3.09308e-05
0.000613102 -4.09607e-05 -1.09687e-06
-4.09607e-05 7.37793e-05 1.08139e-06
-1.09687e-06 1.08139e-06 -2.98556e-05
0.00200305 -0.000121527 -3.85482e-06
-0.000121527 -3.66809e-05 7.18917e-07
-3.85482e-06 7.18917e-07 -2.29262e-05
0.00193619 -0.000259949 9.62432e-07
-0.000259949 -7.90327e-06 -5.43631e-08
9.62432e-07 -5.43631e-08 9.89654e-06
0.00207683 -0.000387155 -2.69002e-06
-0.000387155 9.61158e-05 2.62059e-06
-2.69002e-06 2.62059e-06 1.81948e-05
0.00225946 -0.000425827 9.79934e-06
-0.000425827 0.000799656 3.87562e-06
9.79934e-06 3.87562e-06 0.000527768
0.00110569 -0.000457664 1.13866e-05
-0.000457664 4.01378e-05 -3.88852e-06
1.13866e-05 -3.88852e-06 -0.000306566
0.00228153 -0.000538715 6.22641e-06
-0.000538715 0.000425084 -3.16853e-06
6.22641e-06 -3.16853e-06 0.000243482
0.00105658 -0.000320726 -4.30498e-06
-0.000320726 0.000212952 2.571e-06
-4.30498e-06 2.571e-06 -4.84024e-05
0.00191822 -0.000151793 9.66293e-07
-0.000151793 0.000829094 -1.03752e-06
9.66293e-07 -1.03752e-06 0.00059357
0.000311007 -8.16748e-05 -5.90099e-07
-8.16748e-05 -0.000162131 -1.482e-06
-5.90099e-07 -1.482e-06 -0.000317034
0.000679264 -3.87508e-05 -1.94675e-07
-3.87508e-05 8.22156e-05 1.1067e-06
-1.94675e-07 1.1067e-06 7.41314e-06
0.000680997 -8.80271e-05 3.27332e-07
-8.80271e-05 0.000117389 -2.5364e-06
3.27332e-07 -2.5364e-06 -3.76461e-05
0.00076129 -8.19479e-06 7.29485e-07
-8.19479e-06 0.000161828 -4.93482e-07
7.29485e-07 -4.93482e-07 4.1546e-05
0.00064767 7.95612e-06 1.83209e-07
7.95612e-06 7.66724e-05 -1.1276e-07
1.83209e-07 -1.1276e-07 -4.38819e-06
0.000551458 3.20713e-06 -2.98825e-06
3.20713e-06 1.11969e-05 2.18429e-06
-2.98825e-06 2.18429e-06 -8.35411e-05
0.0022914 -0.000205536 1.15851e-06
-0.000205536 0.000144111 5.72228e-07
1.15851e-06 5.72228e-07 0.00016504
0.000652909 -1.25985e-05 1.14504e-06
-1.25985e-05 8.50698e-05 -3.05047e-07
1.14504e-06 -3.05047e-07 -1.77254e-05
0.000685841 5.42108e-06 2.45605e-06
5.42108e-06 9.23458e-05 -1.06366e-07
2.45605e-06 -1.06366e-07 -1.07445e-05
0.000394192 3.67515e-05 1.86712e-07
3.67515e-05 -7.54644e-05 1.39025e-06
1.86712e-07 1.39025e-06 -0.00017085
0.00176493 -0.000280219 -8.77127e-07
-0.000280219 -0.000180568 -1.70493e-06
-8.77127e-07 -1.70493e-06 -0.000128631
0.00202592 -0.000508985 1.40892e-06
-0.000508985 0.000110039 -4.08532e-07
1.40892e-06 -4.08532e-07 -2.29899e-05
0.00160753 -0.000412584 -1.00023e-06
-0.000412584 0.000482092 -1.40248e-07
-1.00023e-06 -1.40248e-07 0.000195959
0.00216391 -0.000578992 -5.46574e-06
-0.000578992 0.000473272 2.04869e-06
-5.46574e-06 2.04869e-06 0.000238436
0.00107514 -7.7595e-05 -9.54304e-07
-7.7595e-05 0.000340974 3.71777e-07
-9.54304e-07 3.71777e-07 0.00020674
0.000491494 -7.39125e-05 1.02461e-07
-7.39125e-05 -2.81596e-05 9.06799e-07
1.02461e-07 9.06799e-07 -0.000172592
0.0010666 -0.000405564 3.75441e-06
-0.000405564 0.000402445 -1.60621e-06
3.75441e-06 -1.60621e-06 1.85707e-05
0.00115763 -0.000190763 3.28156e-07
-0.000190763 0.000445815 -3.45463e-07
3.28156e-07 -3.45463e-07 0.000157031
0.0024421 -0.000245172 -2.29569e-05
-0.000245172 0.000147468 -2.47781e-07
-2.29569e-05 -2.47781e-07 0.000255138
0.00230782 -0.000416 -2.64351e-05
-0.000416 0.000152203 5.37282e-06
-2.64351e-05 5.37282e-06 0.000166058
0.00279609 -0.000665164 -1.20048e-05
-0.000665164 0.000616549 -6.2764e-06
-1.20048e-05 -6.2764e-06 0.000402626
0.00163505 -0.000493701 -8.16101e-06
-0.000493701 0.000379376 3.22269e-06
-8.16101e-06 3.22269e-06 0.000156963
0.000547958 -6.7647e-06 -1.59006e-06
-6.7647e-06 3.93387e-05 -2.05532e-06
-1.59006e-06 -2.05532e-06 -8.28758e-05
0.000551172 -7.92869e-05 -6.67861e-07
-7.92869e-05 3.06512e-05 -4.11828e-06
-6.67861e-07 -4.11828e-06 -9.96598e-05
0.000474218 -0.000116202 -2.50729e-06
-0.000116202 7.31815e-05 1.00549e-05
-2.50729e-06 1.00549e-05 -0.000114463
-0.000303179 -0.000193204 -2.22849e-06
-0.000193204 -0.000172412 -5.90897e-06
-2.22849e-06 -5.90897e-06 -0.00063765
0.000924283 -0.000390896 2.84051e-05
-0.000390896 -0.00321824 -4.96769e-06
2.84051e-05 -4.96769e-06 -0.00348359
0.00150774 0.000120515 8.48588e-07
0.000120515 0.000582817 -3.58238e-06
8.48588e-07 -3.58238e-06 0.000446445
0.000598851 0.000185847 3.29802e-06
0.000185847 3.28103e-06 1.48212e-06
3.29802e-06 1.48212e-06 -0.000188683
0.00207633 0.000207618 5.19831e-05
0.000207618 0.000138042 1.02323e-05
5.19831e-05 1.02323e-05 0.000166431
0.00209231 0.000473448 1.78618e-05
0.000473448 0.000182459 6.59256e-06
1.78618e-05 6.59256e-06 5.13249e-05
0.0020197 0.000487176 6.50876e-06
0.000487176 0.000472184 7.6097e-06
6.50876e-06 7.6097e-06 0.00017269
0.000948677 0.000302778 6.2575e-06
0.000302778 7.09913e-05 3.72513e-06
6.2575e-06 3.72513e-06 -0.000206153
0.00342261 0.000576578 7.88659e-05
0.000576578 0.00029263 2.67834e-05
7.88659e-05 2.67834e-05 -0.000147457
0.0012697 0.000180313 3.38424e-06
0.000180313 0.000479801 5.52561e-07
3.38424e-06 5.52561e-07 0.000313247
0.00237244 0.000382769 -1.29477e-05
0.000382769 0.000361375 -1.04699e-06
-1.29477e-05 -1.04699e-06 0.000355856
0.00110019 0.000275175 1.52163e-06
0.000275175 0.000241754 7.14164e-07
1.52163e-06 7.14164e-07 3.80794e-05
0.00119303 0.000369458 2.26829e-06
0.000369458 0.000160673 -2.49436e-06
2.26829e-06 -2.49436e-06 -0.000120519
0.00120989 0.000502854 -4.87345e-06
0.000502854 -0.000158418 -1.57901e-06
-4.87345e-06 -1.57901e-06 -0.000354219
0.00286634 -0.000306505 -0.000120515
-0.000306505 -0.0023932 -3.5803e-05
-0.000120515 -3.5803e-05 -0.00338431
0.00579449 0.000714422 -2.20317e-05
0.000714422 0.000539906 -4.3814e-05
-2.20317e-05 -4.3814e-05 7.69287e-05
0.00051831 0.000492973 -8.95519e-06
0.000492973 -0.000409657 7.46793e-06
-8.95519e-06 7.46793e-06 -0.000713465
-0.00181489 -0.000624269 0.000190882
-0.000624269 0.00109931 8.14175e-05
0.000190882 8.14175e-05 -0.000519387
0.00139103 -0.00275007 -0.000138763
-0.00275007 -0.000489429 -0.000149834
-0.000138763 -0.000149834 0.000952266
0.00107632 0.000197774 -6.16639e-06
0.000197774 0.000349782 -2.84526e-06
-6.16639e-06 -2.84526e-06 0.000198738
0.000538554 0.000431385 0.000216931
0.000431385 0.00193689 -9.47734e-06
0.000216931 -9.47734e-06 0.000713003
0.00110146 -0.000856102 -0.000119725
-0.000856102 0.00261395 -0.00018562
-0.000119725 -0.00018562 0.000580379
0.00263046 0.000585649 -3.05398e-05
0.000585649 0.000489929 -8.8817e-06
-3.05398e-05 -8.8817e-06 0.000521771
0.000762686 0.000171186 -1.34839e-05
0.000171186 4.46279e-05 -3.36865e-06
-1.34839e-05 -3.36865e-06 -0.000149684
0.000197335 0.000409937 -2.36429e-05
0.000409937 -0.000380115 -1.67872e-05
-2.36429e-05 -1.67872e-05 -0.00067243
0.000103977 0.00052828 3.25728e-05
0.00052828 -0.000681921 6.94665e-05
3.25728e-05 6.94665e-05 -0.000842263
0.0127986 0.000857986 -1.46328e-05
0.000857986 0.00377824 -4.10609e-05
-1.46328e-05 -4.10609e-05 0.00228842
0.00283466 0.00105696 1.38971e-05
0.00105696 0.000473365 5.59955e-06
1.38971e-05 5.59955e-06 -0.000623426
0.00349691 -0.00243763 0.000347186
-0.00243763 1.27505e-05 0.000243706
0.000347186 0.000243706 7.63497e-05
0.00633095 -0.00128534 -2.58826e-05
-0.00128534 -0.000246286 0.000266193
-2.58826e-05 0.000266193 0.0006381
0.0005524 2.72708e-05 2.24886e-06
2.72708e-05 5.29805e-05 -2.09402e-06
2.24886e-06 -2.09402e-06 -3.78052e-05
0.000763302 9.08905e-05 2.58496e-06
9.08905e-05 0.000166009 9.99566e-07
2.58496e-06 9.99566e-07 6.15778e-05
0.00149621 0.000161164 -3.05227e-06
0.000161164 0.000606679 -2.70041e-06
-3.05227e-06 -2.70041e-06 0.000497782
0.000622262 4.86448e-06 7.70943e-07
4.86448e-06 6.91094e-05 -4.18484e-07
7.70943e-07 -4.18484e-07 -3.42338e-05
0.000731054 3.65478e-05 -7.5157e-08
3.65478e-05 0.000126657 -1.47011e-06
-7.5157e-08 -1.47011e-06 5.71363e-06
0.000527122 -3.34331e-06 -1.37039e-06
-3.34331e-06 -6.72516e-06 3.17383e-07
-1.37039e-06 3.17383e-07 -0.000117302
0.000790139 5.47736e-05 -8.26074e-07
5.47736e-05 0.000141974 1.83872e-06
-8.26074e-07 1.83872e-06 3.50002e-05
0.000588673 3.61051e-05 -6.97544e-07
3.61051e-05 7.99627e-06 -3.86755e-10
-6.97544e-07 -3.86755e-10 -7.52922e-05
0.000439413 -3.67689e-06 2.52874e-07
-3.67689e-06 -5.37061e-05 7.83896e-07
2.52874e-07 7.83896e-07 -0.000152292
0.000850011 4.09864e-05 4.19746e-07
4.09864e-05 0.000184739 6.92648e-07
4.19746e-07 6.92648e-07 7.12822e-05
0.000787075 3.31363e-05 3.0564e-07
3.31363e-05 0.000146101 3.75671e-07
3.0564e-07 3.75671e-07 2.82943e-05
0.000692833 1.98426e-05 6.06978e-07
1.98426e-05 0.000107945 -3.28661e-07
6.06978e-07 -3.28661e-07 -1.71486e-05
0.00047474 5.18058e-05 -3.60433e-07
5.18058e-05 -2.85607e-05 -9.08221e-07
-3.60433e-07 -9.08221e-07 -0.000128996
0.0011672 6.35966e-05 -7.96785e-07
6.35966e-05 0.000371702 -2.7477e-06
-7.96785e-07 -2.7477e-06 0.000266516
-9.67228e-06 4.336e-05 -3.25762e-06
4.336e-05 -0.000273348 -4.49775e-06
-3.25762e-06 -4.49775e-06 -0.000381998
0.000746858 -7.8495e-05 2.97065e-08
-7.8495e-05 0.000123549 -2.51634e-07
2.97065e-08 -2.51634e-07 3.58988e-07
0.000773546 -5.76981e-05 -8.57978e-07
-5.76981e-05 0.000160767 -8.62254e-07
-8.57978e-07 -8.62254e-07 3.01771e-05
0.000799411 -2.77836e-05 -5.24313e-07
-2.77836e-05 0.000175527 -3.88113e-07
-5.24313e-07 -3.88113e-07 4.93765e-05
0.000800074 4.38051e-06 -1.03914e-06
4.38051e-06 0.000160428 -1.77962e-07
-1.03914e-06 -1.77962e-07 5.32982e-05
0.00081519 1.08365e-05 -2.74771e-06
1.08365e-05 0.000191602 -2.27925e-06
-2.74771e-06 -2.27925e-06 5.55979e-05
0.000720499 9.47094e-06 1.2089e-06
9.47094e-06 0.000117274 -1.56619e-06
1.2089e-06 -1.56619e-06 1.0815e-05
8.80976e-05 -1.97881e-05 -5.25861e-08
-1.97881e-05 -0.00026394 -2.02423e-06
-5.25861e-08 -2.02423e-06 -0.000356327
0.000597907 -5.0433e-07 1.1215e-06
-5.0433e-07 3.62825e-05 -8.59038e-08
1.1215e-06 -8.59038e-08 -6.87577e-05
0.000645527 -4.77156e-05 2.2646e-07
-4.77156e-05 6.38128e-05 3.38846e-07
2.2646e-07 3.38846e-07 -3.20688e-05
0.000712417 -4.47938e-05 -2.3821e-07
-4.47938e-05 0.000118386 -3.903e-08
-2.3821e-07 -3.903e-08 9.16955e-06
0.000660925 -5.24035e-05 -2.02029e-06
-5.24035e-05 6.15742e-05 1.1174e-06
-2.02029e-06 1.1174e-06 -1.84735e-05
0.000684951 -3.63609e-05 1.46478e-06
-3.63609e-05 8.58662e-05 -3.75583e-07
1.46478e-06 -3.75583e-07 -1.77848e-05
0.000606952 -7.96744e-05 1.11444e-08
-7.96744e-05 3.8615e-05 2.3245e-07
1.11444e-08 2.3245e-07 -5.25563e-05
0.000623645 -1.89617e-05 -1.95994e-06
-1.89617e-05 2.61309e-05 2.61022e-06
-1.95994e-06 2.61022e-06 -2.78047e-05
0.000486553 -6.10128e-06 1.22512e-06
-6.10128e-06 -1.98077e-05 -6.94991e-07
1.22512e-06 -6.94991e-07 -0.000122363
0.000583435 3.49075e-06 1.25977e-06
3.49075e-06 1.07952e-05 -1.31435e-08
1.25977e-06 -1.31435e-08 -4.55501e-05
0.00138517 1.10887e-05 -3.09034e-06
1.10887e-05 0.000460811 5.42084e-06
-3.09034e-06 5.42084e-06 0.00044848
0.000575377 3.48455e-05 -6.43242e-07
3.48455e-05 7.8786e-06 -2.12721e-06
-6.43242e-07 -2.12721e-06 -4.8063e-05
0.000955741 4.09729e-06 -1.78833e-06
4.09729e-06 0.000205291 8.14762e-07
-1.78833e-06 8.14762e-07 0.000191013
0.00083336 3.23948e-06 -4.13459e-06
3.23948e-06 0.000129329 5.05124e-06
-4.13459e-06 5.05124e-06 0.000136672
0.000553473 1.88527e-07 3.79852e-07
1.88527e-07 -3.50969e-05 -3.76749e-06
3.79852e-07 -3.76749e-06 -5.13313e-05
0.00238067 1.10287e-07 4.56038e-06
1.10287e-07 0.00105373 -7.96686e-09
4.56038e-06 -7.96686e-09 0.00106917
0.000851118 -2.97033e-06 -4.20287e-06
-2.97033e-06 0.000139759 -5.16809e-06
-4.20287e-06 -5.16809e-06 0.00014728
0.000602931 6.46348e-05 1.94458e-06
6.46348e-05 5.14238e-05 1.26008e-07
1.94458e-06 1.26008e-07 -3.19733e-05
0.000580956 2.72078e-05 -1.25927e-06
2.72078e-05 1.5254e-06 -1.77705e-06
-1.25927e-06 -1.77705e-06 -3.7627e-05
0.00059146 -6.47192e-06 9.90296e-07
-6.47192e-06 4.68561e-06 1.51603e-08
9.90296e-07 1.51603e-08 -3.43616e-05
0.000589039 8.2385e-06 3.69136e-07
8.2385e-06 -2.21851e-05 -3.08688e-06
3.69136e-07 -3.08688e-06 -2.90736e-05
0.000617486 -3.37772e-05 -1.76996e-06
-3.37772e-05 1.75198e-05 1.36739e-06
-1.76996e-06 1.36739e-06 -2.33195e-05
0.000557792 1.40963e-05 1.37223e-08
1.40963e-05 -4.07094e-05 -7.58074e-07
1.37223e-08 -7.58074e-07 -4.79706e-05
0.00202125 2.74983e-05 7.22326e-06
2.74983e-05 0.00084144 -4.4595e-06
7.22326e-06 -4.4595e-06 0.000859527
0.00116041 3.19673e-05 -6.599e-07
3.19673e-05 0.000323501 1.82935e-06
-6.599e-07 1.82935e-06 0.000317327
0.0014807 3.52449e-05 9.36892e-08
3.52449e-05 0.000521822 1.40882e-06
9.36892e-08 1.40882e-06 0.000534286
0.000888947 3.84266e-05 -1.3308e-05
3.84266e-05 0.000172823 7.17175e-06
-1.3308e-05 7.17175e-06 0.000179482
0.00149515 0.000157104 7.1875e-05
0.000157104 -0.000813395 1.46529e-05
7.1875e-05 1.46529e-05 -0.000702091
0.00194241 -2.15794e-05 2.665e-06
-2.15794e-05 -2.59397e-05 1.09193e-06
2.665e-06 1.09193e-06 -1.30277e-05
0.00195086 6.22636e-05 3.47251e-05
6.22636e-05 0.000190283 -1.06999e-05
3.47251e-05 -1.06999e-05 0.000238713
0.0014821 0.000127573 -1.71335e-05
0.000127573 -0.0011897 -1.08994e-05
-1.71335e-05 -1.08994e-05 -0.000859471
0.00185701 6.26603e-05 1.9597e-05
6.26603e-05 -0.000354433 6.68354e-08
1.9597e-05 6.68354e-08 -0.000215458
0.00236052 -2.08249e-05 2.09376e-07
-2.08249e-05 0.000376567 -2.29696e-06
2.09376e-07 -2.29696e-06 0.000358713
0.00347473 -8.5891e-05 -6.06345e-05
-8.5891e-05 0.000801508 2.39349e-06
-6.06345e-05 2.39349e-06 0.000775214
0.00297282 -7.10971e-05 8.19421e-05
-7.10971e-05 0.000284184 7.38962e-07
8.19421e-05 7.38962e-07 0.000215234
0.010192 -0.000476685 1.35824e-05
-0.000476685 0.00234624 3.78723e-05
1.35824e-05 3.78723e-05 0.000848903
0.00963161 0.0020233 0.000439131
0.0020233 0.00441164 -0.000190744
0.000439131 -0.000190744 0.00417392
0.00588202 0.00219361 -2.52849e-05
0.00219361 0.0043466 2.06441e-05
-2.52849e-05 2.06441e-05 0.00465084
0.000416279 -8.8292e-05 1.97677e-06
-8.8292e-05 -5.44889e-05 -9.39462e-08
1.97677e-06 -9.39462e-08 -0.000150143
0.000646555 -1.13658e-05 1.33701e-06
-1.13658e-05 7.25842e-05 -1.67184e-07
1.33701e-06 -1.67184e-07 -5.37328e-06
0.000687527 -7.94693e-05 -1.68111e-06
-7.94693e-05 0.000102733 1.11858e-06
-1.68111e-06 1.11858e-06 1.94346e-05
0.00062669 -4.20352e-05 -2.12372e-07
-4.20352e-05 6.22602e-05 2.34827e-07
-2.12372e-07 2.34827e-07 -3.17406e-05
0.000631642 6.07543e-05 -1.21662e-06
6.07543e-05 8.73912e-05 1.87493e-06
-1.21662e-06 1.87493e-06 -2.42498e-05
0.000643373 0.000119607 1.39535e-06
0.000119607 7.47208e-05 3.82763e-06
1.39535e-06 3.82763e-06 -3.54837e-05
0.000846224 -1.29285e-05 2.8213e-06
-1.29285e-05 0.000210487 6.71419e-08
2.8213e-06 6.71419e-08 0.000102289
0.000571368 -2.87976e-05 -1.02927e-06
-2.87976e-05 3.84751e-05 9.59459e-07
-1.02927e-06 9.59459e-07 -5.95769e-05
0.00213683 -0.00019047 4.91545e-06
-0.00019047 5.96534e-05 1.97077e-06
4.91545e-06 1.97077e-06 9.30211e-05
0.0018133 -0.000292565 9.23157e-06
-0.000292565 -0.000187284 -1.42297e-06
9.23157e-06 -1.42297e-06 -0.00014148
0.00164169 -0.000476358 5.54866e-06
-0.000476358 -8.92761e-05 4.49634e-06
5.54866e-06 4.49634e-06 -0.000212911
0.00142818 -0.000422051 1.34881e-05
-0.000422051 0.000366787 5.71273e-07
1.34881e-05 5.71273e-07 7.54863e-05
0.00176202 -0.000551153 6.01419e-06
-0.000551153 0.000264067 1.3344e-06
6.01419e-06 1.3344e-06 3.11413e-05
0.00216081 -0.000475586 6.67813e-06
-0.000475586 0.00102257 -2.42463e-06
6.67813e-06 -2.42463e-06 0.000622054
0.00228372 -0.000294957 7.47259e-07
-0.000294957 0.00104397 -3.02979e-06
7.47259e-07 -3.02979e-06 0.00076778
0.00075611 -0.000129376 3.65393e-06
-0.000129376 0.000134679 -3.76699e-06
3.65393e-06 -3.76699e-06 -2.70439e-05
0.000682468 -2.43786e-05 5.012e-07
-2.43786e-05 9.07011e-05 2.08126e-06
5.012e-07 2.08126e-06 -7.76456e-06
0.000903101 -4.14365e-05 1.57986e-06
-4.14365e-05 0.000224004 -6.26169e-06
1.57986e-06 -6.26169e-06 9.80726e-05
0.000918945 -2.34909e-05 1.55082e-06
-2.34909e-05 0.000245315 -2.97914e-08
1.55082e-06 -2.97914e-08 0.000140666
0.000711576 9.69914e-05 2.2283e-06
9.69914e-05 0.000115542 2.07113e-06
2.2283e-06 2.07113e-06 2.60068e-05
0.0020099 -0.000233459 -5.70058e-08
-0.000233459 -3.14063e-05 1.86822e-06
-5.70058e-08 1.86822e-06 6.03266e-05
0.000669288 1.2067e-05 -1.56007e-06
1.2067e-05 0.000111313 2.80099e-07
-1.56007e-06 2.80099e-07 -9.86408e-06
0.000839014 -8.72911e-05 -2.38912e-06
-8.72911e-05 0.000192166 1.31474e-06
-2.38912e-06 1.31474e-06 7.05045e-05
0.0017854 -0.000400774 2.01914e-06
-0.000400774 -0.00012501 -1.60976e-06
2.01914e-06 -1.60976e-06 -0.00011717
0.00167639 -0.000571671 5.62729e-07
-0.000571671 2.21938e-05 5.19527e-07
5.62729e-07 5.19527e-07 -0.000162149
0.00102355 -0.000438943 -1.07111e-06
-0.000438943 4.92158e-05 -1.88198e-06
-1.07111e-06 -1.88198e-06 -0.000186202
0.00103946 -0.000156693 2.38973e-07
-0.000156693 0.000388202 -5.13938e-06
2.38973e-07 -5.13938e-06 0.000180997
0.00113694 -0.000262288 -1.6421e-06
-0.000262288 0.000588398 1.33259e-06
-1.6421e-06 1.33259e-06 0.000164007
0.00328948 -0.000361775 -3.37032e-05
-0.000361775 0.000639977 5.51697e-06
-3.37032e-05 5.51697e-06 0.000666609
0.00281892 -0.000575133 -3.4771e-05
-0.000575133 0.000549712 4.77983e-06
-3.4771e-05 4.77983e-06 0.00051899
0.00167427 -0.000620065 -1.21133e-05
-0.000620065 0.000118541 -8.38711e-08
-1.21133e-05 -8.38711e-08 -7.06565e-05
0.00056322 -0.000308282 -1.36285e-05
-0.000308282 -6.8483e-05 1.69184e-05
-1.36285e-05 1.69184e-05 -0.000288204
0.000661169 -0.000134932 1.5141e-06
-0.000134932 0.000111694 1.29554e-06
1.5141e-06 1.29554e-06 -3.41534e-05
0.000437471 -0.000109922 2.829e-06
-0.000109922 1.892e-05 -1.09968e-06
2.829e-06 -1.09968e-06 -0.0001476
0.0010348 -0.000111172 1.79552e-08
-0.000111172 0.000541681 -4.75398e-06
1.79552e-08 -4.75398e-06 0.000180328
-0.00505189 -0.000102593 0.000274649
-0.000102593 -0.00363619 2.77516e-06
0.000274649 2.77516e-06 -0.0025674
0.0103041 -0.000148691 1.01187e-05
-0.000148691 0.00275311 -7.27115e-08
1.01187e-05 -7.27115e-08 0.00218471
0.00146113 0.000159294 5.98446e-06
0.000159294 0.000579712 -2.9345e-06
5.98446e-06 -2.9345e-06 0.000424446
0.000874401 0.000254417 3.25626e-06
0.000254417 0.000128137 -1.39033e-06
3.25626e-06 -1.39033e-06 -7.35107e-05
0.00210535 0.000350695 4.71979e-05
0.000350695 0.000206738 2.41011e-05
4.71979e-05 2.41011e-05 0.000219474
0.00237327 0.000596448 1.38533e-05
0.000596448 0.000443029 5.43646e-06
1.38533e-05 5.43646e-06 0.000239805
0.00217111 0.000477478 1.0435e-05
0.000477478 0.000698495 2.27612e-07
1.0435e-05 2.27612e-07 0.000403828
0.0110617 0.000589719 4.72301e-05
0.000589719 0.00281968 2.15197e-05
4.72301e-05 2.15197e-05 0.00169912
0.00761025 0.00103988 -0.000163475
0.00103988 0.000937731 -2.66266e-05
-0.000163475 -2.66266e-05 0.000594678
0.000523041 0.000406391 7.42108e-06
0.000406391 -0.000275006 -1.88007e-05
7.42108e-06 -1.88007e-05 -0.000643583
0.00968662 -0.00162977 -0.00011408
-0.00162977 0.00446839 1.94879e-05
-0.00011408 1.94879e-05 0.00370887
-0.00740337 -0.00278766 -0.000742118
-0.00278766 -0.00316283 -0.000557303
-0.000742118 -0.000557303 -0.00183714
0.000980703 0.000192557 -6.69048e-07
0.000192557 0.000303858 -1.72716e-06
-6.69048e-07 -1.72716e-06 0.000152573
-0.00239421 -0.000832363 0.000150624
-0.000832363 -0.00222024 2.05871e-05
0.000150624 2.05871e-05 -0.00253365
-0.00296203 -0.000612287 -0.000176151
-0.000612287 0.0016538 -8.93801e-05
-0.000176151 -8.93801e-05 -0.000734659
0.00281027 0.000529158 -1.14136e-05
0.000529158 0.000600968 -1.21663e-06
-1.14136e-05 -1.21663e-06 0.000628869
0.000872771 0.000230941 -3.90783e-06
0.000230941 0.000138076 1.29532e-06
-3.90783e-06 1.29532e-06 -7.785e-05
0.00118532 0.000482385 4.42313e-06
0.000482385 0.000155868 2.25692e-06
4.42313e-06 2.25692e-06 -0.00013855
0.00116161 0.00046864 1.84012e-05
0.00046864 8.47865e-06 1.53719e-05
1.84012e-05 1.53719e-05 -3.3731e-05
0.00938655 0.000681552 -6.45761e-05
0.000681552 0.00138505 -3.14656e-05
-6.45761e-05 -3.14656e-05 -0.000456432
0.00614855 0.00149658 -6.26343e-05
0.00149658 0.001457 -2.74421e-05
-6.26343e-05 -2.74421e-05 0.000716847
0.0110874 -0.00190421 0.000151369
-0.00190421 0.00492372 -5.10069e-05
0.000151369 -5.10069e-05 0.00460511
0.00563444 -0.0015948 0.000157509
-0.0015948 -0.00102336 0.00034162
0.000157509 0.00034162 -0.000134955
0.00160639 0.000187753 -1.65271e-05
0.000187753 0.000675473 -8.59914e-06
-1.65271e-05 -8.59914e-06 0.000539535
-0.00628258 0.000374986 -9.51807e-05
0.000374986 0.00120979 -5.59059e-05
-9.51807e-05 -5.59059e-05 -0.00184651
0.00334378 0.00035274 -0.000178907
0.00035274 0.00195117 -0.000242413
-0.000178907 -0.000242413 -0.00105095
0.00172216 0.000466023 -1.8388e-05
0.000466023 0.000288354 6.63104e-06
-1.8388e-05 6.63104e-06 0.000284476
0.00129662 0.000428399 -4.95448e-05
0.000428399 0.000452081 -1.7522e-05
-4.95448e-05 -1.7522e-05 0.000201751
0.00229768 0.000412226 -6.11948e-05
0.000412226 0.0012503 -5.80435e-06
-6.11948e-05 -5.80435e-06 0.000832175
0.00179284 0.00102107 -4.06414e-05
0.00102107 8.49236e-05 -1.6414e-05
-4.06414e-05 -1.6414e-05 -0.000175503
0.000896204 0.000890148 0.000167375
0.000890148 -0.000317478 0.00011829
0.000167375 0.00011829 -0.00307106
0.010392 -0.002231 0.000102151
-0.002231 0.00365417 0.000300996
0.000102151 0.000300996 0.00295146
0.00488015 -0.000946331 -5.52429e-05
-0.000946331 -0.00200939 -5.57476e-05
-5.52429e-05 -5.57476e-05 -0.000814946
0.000722309 0.000110928 3.81468e-06
0.000110928 0.000153274 1.84848e-06
3.81468e-06 1.84848e-06 4.03081e-05
0.00125737 0.000144311 5.93877e-06
0.000144311 0.000455983 3.02858e-06
5.93877e-06 3.02858e-06 0.000350434
4.19204e-05 5.52376e-05 2.04275e-06
5.52376e-05 -0.000186549 -6.85766e-06
2.04275e-06 -6.85766e-06 -0.000298387
0.00044881 4.53196e-05 1.3773e-06
4.53196e-05 -4.89859e-05 -1.6074e-07
1.3773e-06 -1.6074e-07 -0.000147116
0.000759557 5.28585e-05 -6.24287e-07
5.28585e-05 0.000153761 -1.04647e-06
-6.24287e-07 -1.04647e-06 2.51867e-05
0.000737702 -5.93683e-06 -5.45438e-07
-5.93683e-06 0.00011662 1.52601e-06
-5.45438e-07 1.52601e-06 -9.22607e-07
0.000757682 3.09401e-06 2.69456e-06
3.09401e-06 0.000138915 1.1707e-06
2.69456e-06 1.1707e-06 2.18262e-05
0.000462303 4.31089e-05 7.0112e-07
4.31089e-05 -3.25877e-05 2.38204e-06
7.0112e-07 2.38204e-06 -0.000131863
0.000763751 4.47093e-05 -9.51258e-09
4.47093e-05 0.000155915 -8.27631e-07
-9.51258e-09 -8.27631e-07 2.52113e-05
0.00086221 4.7385e-05 -2.01723e-08
4.7385e-05 0.000189715 1.29859e-07
-2.01723e-08 1.29859e-07 8.416e-05
0.000781763 -3.5967e-05 -6.03861e-07
-3.5967e-05 0.000146454 6.4632e-07
-6.03861e-07 6.4632e-07 2.15395e-05
-7.39321e-05 3.22839e-05 1.77197e-07
3.22839e-05 -0.00029596 7.74046e-07
1.77197e-07 7.74046e-07 -0.000405568
-0.000640569 2.01103e-05 -7.00948e-07
2.01103e-05 -0.000472681 -1.97097e-06
-7.00948e-07 -1.97097e-06 -0.000635264
0.000833847 -3.41523e-06 -3.07972e-06
-3.41523e-06 0.000180962 -4.90537e-06
-3.07972e-06 -4.90537e-06 6.49276e-05
0.000939121 1.09122e-05 -5.55879e-07
1.09122e-05 0.000260789 -1.03742e-06
-5.55879e-07 -1.03742e-06 0.000110516
0.000804122 -5.75358e-05 -1.891e-07
-5.75358e-05 0.000182405 -8.36257e-07
-1.891e-07 -8.36257e-07 5.25618e-05
0.00085832 -3.649e-05 -9.11299e-10
-3.649e-05 0.000188104 1.50154e-06
-9.11299e-10 1.50154e-06 8.47078e-05
0.000828185 -5.30964e-05 2.26342e-07
-5.30964e-05 0.000187937 -6.45493e-07
2.26342e-07 -6.45493e-07 5.85646e-05
0.000755071 2.44833e-06 -3.52745e-07
2.44833e-06 0.000133677 -9.78192e-08
-3.52745e-07 -9.78192e-08 2.82253e-05
0.000386034 -4.82012e-05 5.06885e-07
-4.82012e-05 -8.3393e-05 1.4139e-06
5.06885e-07 1.4139e-06 -0.000176654
0.000614899 9.4556e-06 1.1005e-06
9.4556e-06 5.26738e-05 6.47434e-07
1.1005e-06 6.47434e-07 -5.02347e-05
0.000360176 -1.41514e-05 -2.37749e-06
-1.41514e-05 -7.56228e-05 -3.8107e-06
-2.37749e-06 -3.8107e-06 -0.000194703
0.000308583 -3.97131e-05 2.10862e-06
-3.97131e-05 -0.000125022 -1.0051e-06
2.10862e-06 -1.0051e-06 -0.000214933
0.000761102 -3.49409e-05 4.00546e-06
-3.49409e-05 9.81626e-05 -5.75403e-06
4.00546e-06 -5.75403e-06 1.31879e-06
3.35775e-05 -4.81948e-05 3.51727e-07
-4.81948e-05 -0.000303137 1.34576e-06
3.51727e-07 1.34576e-06 -0.000454353
0.000355221 7.37962e-06 -7.03955e-07
7.37962e-06 -9.72774e-05 -8.70685e-07
-7.03955e-07 -8.70685e-07 -0.000209211
0.000722167 -7.70901e-06 2.42593e-07
-7.70901e-06 0.000107662 3.01809e-07
2.42593e-07 3.01809e-07 5.51749e-07
0.000639885 -1.26818e-05 1.87297e-07
-1.26818e-05 6.06927e-05 5.70189e-07
1.87297e-07 5.70189e-07 -3.5677e-05
0.000717725 -2.96754e-05 -1.62581e-07
-2.96754e-05 0.000119446 -7.17484e-08
-1.62581e-07 -7.17484e-08 1.40429e-05
0.000570263 7.30208e-07 -5.78735e-07
7.30208e-07 1.60121e-05 9.30236e-07
-5.78735e-07 9.30236e-07 -6.6199e-05
0.000765918 -2.60077e-05 5.204e-08
-2.60077e-05 0.000147771 -9.76182e-08
5.204e-08 -9.76182e-08 3.99612e-05
0.000666816 -4.64615e-05 -4.79836e-07
-4.64615e-05 7.3627e-05 1.06256e-07
-4.79836e-07 1.06256e-07 -1.19033e-05
0.000564805 3.84842e-05 -8.59647e-07
3.84842e-05 -1.01692e-05 2.42299e-06
-8.59647e-07 2.42299e-06 -6.51991e-05
0.00054281 -7.03113e-05 1.76581e-06
-7.03113e-05 -4.45357e-06 -1.08625e-06
1.76581e-06 -1.08625e-06 -9.36404e-05
0.000598264 -4.21891e-06 -2.88659e-07
-4.21891e-06 1.04932e-05 -5.38279e-09
-2.88659e-07 -5.38279e-09 -4.2857e-05
0.00138187 2.17071e-05 -4.80776e-06
2.17071e-05 0.000457665 5.59075e-06
-4.80776e-06 5.59075e-06 0.000444873
0.00058587 -2.52099e-05 1.00735e-06
-2.52099e-05 1.02627e-05 -2.16388e-06
1.00735e-06 -2.16388e-06 -4.47614e-05
0.000947074 1.01652e-05 -2.76563e-06
1.01652e-05 0.000198596 7.46241e-07
-2.76563e-06 7.46241e-07 0.000184427
0.000762488 1.46821e-05 -5.65232e-08
1.46821e-05 8.52768e-05 2.01849e-06
-5.65232e-08 2.01849e-06 9.27382e-05
0.000542689 1.71619e-06 7.36492e-07
1.71619e-06 -4.25746e-05 -3.78482e-06
7.36492e-07 -3.78482e-06 -5.86588e-05
0.00238186 1.36745e-05 4.32887e-06
1.36745e-05 0.00105468 5.49852e-08
4.32887e-06 5.49852e-08 0.00106996
0.00237746 1.91281e-06 -5.43266e-07
1.91281e-06 0.00105187 -5.2527e-06
-5.43266e-07 -5.2527e-06 0.00106727
0.000993207 7.19496e-05 -9.79907e-07
7.19496e-05 0.000278219 -6.48483e-07
-9.79907e-07 -6.48483e-07 0.000196639
0.000598169 3.70517e-05 -1.15616e-06
3.70517e-05 1.50596e-05 -2.00589e-06
-1.15616e-06 -2.00589e-06 -2.7076e-05
0.000635951 -9.33238e-06 6.0783e-07
-9.33238e-06 7.01132e-05 8.79116e-07
6.0783e-07 8.79116e-07 -1.25468e-05
0.000590147 3.26106e-06 2.95964e-07
3.26106e-06 -2.1761e-05 -3.2971e-06
2.95964e-07 -3.2971e-06 -2.86582e-05
0.000590652 -1.28059e-05 1.88454e-07
-1.28059e-05 7.61571e-06 -2.52597e-08
1.88454e-07 -2.52597e-08 -3.18446e-05
0.000612973 -3.37849e-05 -1.51231e-06
-3.37849e-05 1.85505e-05 1.27091e-06
-1.51231e-06 1.27091e-06 -2.14131e-05
0.000572394 7.88196e-06 -2.24928e-07
7.88196e-06 -3.21143e-05 -2.01596e-08
-2.24928e-07 -2.01596e-08 -3.89426e-05
0.00201094 1.46899e-05 2.75119e-06
1.46899e-05 0.000832859 -4.62027e-06
2.75119e-06 -4.62027e-06 0.000851799
0.00114525 2.09306e-05 -7.0086e-07
2.09306e-05 0.000311437 1.80711e-06
-7.0086e-07 1.80711e-06 0.000307354
0.00139547 2.34129e-05 7.58357e-07
2.34129e-05 0.00046598 6.15679e-09
7.58357e-07 6.15679e-09 0.000480692
0.000861156 2.78271e-05 -1.2627e-05
2.78271e-05 0.000150528 7.03101e-06
-1.2627e-05 7.03101e-06 0.000160132
-0.00853214 0.000457081 0.000223952
0.000457081 -0.0037027 3.36935e-06
0.000223952 3.36935e-06 -0.00473245
-0.00207228 1.91361e-05 0.000295861
1.91361e-05 0.00227275 -9.76248e-06
0.000295861 -9.76248e-06 0.000515692
0.00451578 0.00023379 -0.00022533
0.00023379 0.000178275 -1.98873e-05
-0.00022533 -1.98873e-05 0.000635218
0.000458289 4.54957e-05 2.78803e-05
4.54957e-05 -0.00102534 -1.23336e-05
2.78803e-05 -1.23336e-05 -0.000959777
0.00150927 -3.08919e-05 1.84189e-05
-3.08919e-05 -0.000188993 -6.28207e-07
1.84189e-05 -6.28207e-07 -0.000204883
5.71472e-05 5.41698e-05 -1.53193e-05
5.41698e-05 -0.000808737 -7.78744e-06
-1.53193e-05 -7.78744e-06 -0.000713675
0.00264245 -0.000127808 -2.32369e-06
-0.000127808 0.000253654 4.29807e-06
-2.32369e-06 4.29807e-06 0.000218609
0.00943142 0.000113815 5.7124e-05
0.000113815 0.00131461 -3.37256e-05
5.7124e-05 -3.37256e-05 0.0002796
-0.00312361 0.00122937 -2.26751e-05
0.00122937 -0.000726586 -1.67646e-05
-2.26751e-05 -1.67646e-05 -0.00211198
-0.000600965 0.00238173 -0.000151111
0.00238173 0.000745515 8.06025e-05
-0.000151111 8.06025e-05 0.00164007
0.00192365 -0.00026932 6.6859e-05
-0.00026932 -0.000703117 -5.07499e-06
6.6859e-05 -5.07499e-06 -0.000712243
0.0127069 -0.0004838 0.0001068
-0.0004838 0.00330332 -3.21316e-05
0.0001068 -3.21316e-05 0.00177876
0.00395049 0.00230242 0.000149262
0.00230242 0.000467989 -0.000285881
0.000149262 -0.000285881 0.000744664
0.00746989 0.00168638 -0.000224166
0.00168638 0.0012149 0.000137592
-0.000224166 0.000137592 0.00108604
0.000710091 9.00976e-05 -2.21863e-06
9.00976e-05 0.000141465 1.49085e-06
-2.21863e-06 1.49085e-06 1.16872e-05
0.000490138 1.65803e-05 -1.44002e-07
1.65803e-05 -1.577e-05 -7.47411e-07
-1.44002e-07 -7.47411e-07 -0.000107117
0.00066928 -8.85132e-05 -1.00209e-06
-8.85132e-05 9.12446e-05 9.38473e-07
-1.00209e-06 9.38473e-07 8.9217e-06
0.000556763 -7.01387e-06 7.58635e-07
-7.01387e-06 2.80053e-05 -4.51677e-07
7.58635e-07 -4.51677e-07 -7.01223e-05
0.000627281 5.80601e-05 9.59263e-07
5.80601e-05 9.05996e-05 1.38459e-06
9.59263e-07 1.38459e-06 -2.16027e-05
0.000825401 6.06398e-05 1.29899e-07
6.06398e-05 0.000211224 2.6221e-06
1.29899e-07 2.6221e-06 7.90553e-05
0.000750923 8.89217e-05 1.53975e-06
8.89217e-05 0.000150274 1.9252e-06
1.53975e-06 1.9252e-06 3.39308e-05
0.000624816 1.92361e-05 3.12133e-06
1.92361e-05 6.03543e-05 2.78257e-07
3.12133e-06 2.78257e-07 -5.46158e-05
0.000709076 -2.53459e-05 1.32633e-06
-2.53459e-05 0.000130105 -9.35656e-07
1.32633e-06 -9.35656e-07 1.9024e-05
0.000522954 -8.73705e-06 -3.41147e-07
-8.73705e-06 -4.99226e-07 -4.01239e-07
-3.41147e-07 -4.01239e-07 -9.25352e-05
0.00163739 -0.000217109 2.04347e-05
-0.000217109 -0.000172371 -8.19077e-07
2.04347e-05 -8.19077e-07 -9.76691e-05
0.00137932 -0.000385392 2.55223e-05
-0.000385392 -0.000337896 -3.28467e-06
2.55223e-05 -3.28467e-06 -0.00033379
0.000113473 -0.000437606 1.5084e-05
-0.000437606 -0.000806987 3.66555e-06
1.5084e-05 3.66555e-06 -0.000953053
0.000188575 -0.000368109 6.92211e-06
-0.000368109 -0.000390811 -2.11371e-06
6.92211e-06 -2.11371e-06 -0.000629191
0.00250962 -0.000326986 3.29537e-06
-0.000326986 0.00131285 6.12706e-06
3.29537e-06 6.12706e-06 0.000932377
0.00096583 -0.000198887 3.05241e-06
-0.000198887 0.000350345 -1.43939e-06
3.05241e-06 -1.43939e-06 0.000115436
0.00100358 -9.64647e-05 -5.94898e-08
-9.64647e-05 0.000277125 -3.30304e-07
-5.94898e-08 -3.30304e-07 0.000166683
0.000708034 1.25707e-05 -1.5845e-06
1.25707e-05 0.000133987 1.66059e-06
-1.5845e-06 1.66059e-06 1.55559e-05
0.00202318 -0.000285097 6.53726e-06
-0.000285097 6.87559e-06 -3.36658e-06
6.53726e-06 -3.36658e-06 5.62606e-05
0.000680153 -6.6161e-05 -2.41209e-07
-6.6161e-05 0.000127525 -2.64731e-07
-2.41209e-07 -2.64731e-07 -2.20245e-05
0.000293224 -9.12084e-05 7.44706e-07
-9.12084e-05 -6.04492e-05 -1.86291e-06
7.44706e-07 -1.86291e-06 -0.000229752
0.00212059 -0.000529918 7.05763e-06
-0.000529918 0.000190158 -7.46559e-07
7.05763e-06 -7.46559e-07 0.000154172
0.00142375 -0.00060552 6.98121e-07
-0.00060552 -4.06959e-05 3.78734e-06
6.98121e-07 3.78734e-06 -0.000213495
0.000462745 -0.000345942 8.45216e-06
-0.000345942 -0.00011538 -4.86353e-06
8.45216e-06 -4.86353e-06 -0.000357117
0.00147265 -0.000176511 -6.99039e-07
-0.000176511 0.000761241 -4.44302e-06
-6.99039e-07 -4.44302e-06 0.000421149
0.00217777 -0.000453976 -3.23233e-05
-0.000453976 0.000479815 4.88391e-06
-3.23233e-05 4.88391e-06 0.000199212
0.00162745 -0.00048386 -4.30311e-05
-0.00048386 0.000204 6.80641e-06
-4.30311e-05 6.80641e-06 0.000114442
0.000255867 -0.000247965 -2.77578e-05
-0.000247965 -5.84013e-05 3.86533e-05
-2.77578e-05 3.86533e-05 -0.000339597
-0.000496868 -2.06936e-05 -2.25449e-07
-2.06936e-05 -0.000551571 2.44376e-06
-2.25449e-07 2.44376e-06 -0.000704577
0.000291343 -0.000114251 2.79268e-06
-0.000114251 -6.62011e-05 9.85505e-07
2.79268e-06 9.85505e-07 -0.000240452
0.000747165 -9.67851e-05 4.23331e-06
-9.67851e-05 0.000281892 -1.66968e-06
4.23331e-06 -1.66968e-06 2.80747e-05
-7.36845e-05 0.000321057 -0.000174451
0.000321057 0.00407566 6.63378e-06
-0.000174451 6.63378e-06 0.0020759
0.00164393 -0.00047703 1.49666e-05
-0.00047703 0.0013968 2.50008e-05
1.49666e-05 2.50008e-05 0.00136101
0.00107989 0.000766728 -6.32836e-05
0.000766728 -0.00322915 6.01548e-06
-6.32836e-05 6.01548e-06 -0.00367568
0.000622567 0.00016335 6.18991e-06
0.00016335 0.00010568 1.89252e-06
6.18991e-06 1.89252e-06 -4.10015e-05
0.00102968 0.000295003 6.99927e-06
0.000295003 0.000254287 1.04495e-05
6.99927e-06 1.04495e-05 1.78211e-05
0.00292255 0.000459198 2.96257e-05
0.000459198 0.000687423 1.12727e-05
2.96257e-05 1.12727e-05 0.000704401
0.00223958 0.000540591 1.86195e-05
0.000540591 0.000727324 1.35116e-05
1.86195e-05 1.35116e-05 0.000430675
0.00748877 -0.000952317 7.86616e-05
-0.000952317 0.00271987 4.17213e-05
7.86616e-05 4.17213e-05 0.00291806
0.00288274 0.000127391 -0.000165987
0.000127391 -0.00202849 -9.19574e-06
-0.000165987 -9.19574e-06 -0.00379919
0.0028765 0.00134441 -6.53923e-05
0.00134441 -0.000411676 -1.11286e-05
-6.53923e-05 -1.11286e-05 -0.0010625
0.000522104 0.000302433 2.62037e-05
0.000302433 -0.000118204 -2.42577e-05
2.62037e-05 -2.42577e-05 -0.000111664
-0.00328516 -0.00110406 -0.000127177
-0.00110406 -0.00076669 -0.000151058
-0.000127177 -0.000151058 -0.00136553
-0.000905243 -0.00099109 -0.000117247
-0.00099109 0.00162346 -1.66569e-05
-0.000117247 -1.66569e-05 -0.000804485
0.0101731 -0.00205618 0.000243979
-0.00205618 0.00139575 0.000182476
0.000243979 0.000182476 0.00233558
0.000621676 0.000132845 7.36195e-06
0.000132845 0.000124077 -2.34292e-06
7.36195e-06 -2.34292e-06 -1.73029e-05
-0.00232698 0.000110198 -9.08963e-05
0.000110198 0.00229926 -2.50192e-05
-9.08963e-05 -2.50192e-05 -0.000281268
0.00370874 0.000403586 -2.10699e-05
0.000403586 0.00191587 -8.42957e-05
-2.10699e-05 -8.42957e-05 -0.00119941
0.00134894 0.000435471 -4.07762e-06
0.000435471 0.00013601 4.98961e-06
-4.07762e-06 4.98961e-06 9.59393e-05
0.000546837 0.000298385 2.79782e-06
0.000298385 8.39864e-05 2.22268e-06
2.79782e-06 2.22268e-06 -0.000166761
-0.000521609 0.000302259 1.52425e-05
0.000302259 -0.0003128 -3.99782e-05
1.52425e-05 -3.99782e-05 -0.000617628
0.00523981 0.00158241 -7.96793e-06
0.00158241 0.00181634 7.31498e-06
-7.96793e-06 7.31498e-06 0.0012225
0.0121917 0.00102783 6.26222e-05
0.00102783 0.00416517 2.26083e-05
6.26222e-05 2.26083e-05 0.00212987
0.00443036 -0.00145782 2.79319e-05
-0.00145782 -0.000129078 -4.84065e-05
2.79319e-05 -4.84065e-05 -0.000883604
0.00978368 -0.00129324 5.87629e-06
-0.00129324 0.00128589 -3.67971e-05
5.87629e-06 -3.67971e-05 0.00248381
0.000639472 0.000198291 -8.8408e-06
0.000198291 0.000187217 -1.10244e-05
-8.8408e-06 -1.10244e-05 4.8381e-05
0.00290633 9.2848e-05 -0.00012775
9.2848e-05 0.00113222 -2.97696e-05
-0.00012775 -2.97696e-05 -0.000809652
4.47571e-05 0.000115275 -3.4281e-05
0.000115275 6.04097e-05 -9.92756e-05
-3.4281e-05 -9.92756e-05 -0.00150246
-0.000894252 8.93232e-05 -1.10045e-05
8.93232e-05 -0.000408627 -1.77166e-05
-1.10045e-05 -1.77166e-05 -0.000573793
0.00141806 0.000378054 -4.49714e-05
0.000378054 0.000950695 4.19358e-05
-4.49714e-05 4.19358e-05 0.000233359
0.00978129 0.00145961 4.5159e-05
0.00145961 0.00385461 2.44253e-06
4.5159e-05 2.44253e-06 0.00072617
-0.00677885 -0.00212231 -4.06403e-05
-0.00212231 -0.00351001 0.000132962
-4.06403e-05 0.000132962 -0.00580887
0.00797143 0.000448349 2.18796e-05
0.000448349 -0.000999563 -0.000189689
2.18796e-05 -0.000189689 0.00105136
0.000975811 0.000113144 1.98977e-06
0.000113144 0.000273018 6.89082e-06
1.98977e-06 6.89082e-06 0.000176201
0.00101661 0.000134871 -5.81358e-06
0.000134871 0.000386937 -1.38984e-06
-5.81358e-06 -1.38984e-06 0.000266337
0.000305142 8.18503e-05 -1.75036e-06
8.18503e-05 0.000142449 -5.91041e-06
-1.75036e-06 -5.91041e-06 -5.18135e-05
0.000754753 7.92568e-05 -2.54949e-06
7.92568e-05 0.000140215 -9.40473e-07
-2.54949e-06 -9.40473e-07 1.71383e-05
0.000859045 -2.80605e-05 -9.42143e-07
-2.80605e-05 0.000202457 1.60859e-06
-9.42143e-07 1.60859e-06 7.0209e-05
0.000539073 3.79978e-05 1.19789e-06
3.79978e-05 -3.28551e-06 2.48758e-06
1.19789e-06 2.48758e-06 -0.00010978
2.27104e-05 3.27698e-05 2.18467e-06
3.27698e-05 -0.000223314 3.7659e-06
2.18467e-06 3.7659e-06 -0.000333191
0.000814067 -4.87792e-06 1.10496e-06
-4.87792e-06 0.000168542 1.48957e-07
1.10496e-06 1.48957e-07 3.26475e-05
0.000838507 2.64138e-05 1.58941e-07
2.64138e-05 0.000187881 -1.04795e-06
1.58941e-07 -1.04795e-06 6.95371e-05
0.000297936 -6.93472e-06 1.49735e-06
-6.93472e-06 7.70698e-05 1.74293e-06
1.49735e-06 1.74293e-06 -9.19794e-05
-0.000887294 4.64646e-06 -1.98214e-06
4.64646e-06 -0.000380984 7.07295e-07
-1.98214e-06 7.07295e-07 -0.000633679
0.00097542 -2.79669e-06 -2.51305e-06
-2.79669e-06 0.000411246 -7.18034e-06
-2.51305e-06 -7.18034e-06 0.000263631
0.000941615 4.09803e-05 -1.78508e-06
4.09803e-05 0.000254588 -4.04369e-06
-1.78508e-06 -4.04369e-06 0.000117942
0.000885984 -0.000111215 1.53809e-06
-0.000111215 0.000209649 7.72579e-07
1.53809e-06 7.72579e-07 8.6893e-05
0.000746361 2.94933e-06 -5.06681e-07
2.94933e-06 0.000124117 -7.44581e-08
-5.06681e-07 -7.44581e-08 2.06092e-05
0.000626216 -5.8075e-05 -1.46242e-06
-5.8075e-05 6.21076e-05 3.45618e-06
-1.46242e-06 3.45618e-06 -2.96403e-05
0.00047907 -3.30531e-05 1.92464e-06
-3.30531e-05 -1.67438e-05 1.4943e-06
1.92464e-06 1.4943e-06 -0.000127536
0.000708865 4.5077e-06 3.5369e-07
4.5077e-06 0.000108002 -7.19911e-08
3.5369e-07 -7.19911e-08 3.31728e-06
0.00059376 -2.82938e-05 -7.19414e-07
-2.82938e-05 4.12849e-05 -3.09185e-08
-7.19414e-07 -3.09185e-08 -4.72658e-05
0.000991578 -2.59996e-05 -3.18117e-07
-2.59996e-05 0.000254307 -3.28946e-06
-3.18117e-07 -3.28946e-06 0.000160121
5.60268e-05 -3.95461e-05 3.61754e-06
-3.95461e-05 -0.000207698 -4.53379e-06
3.61754e-06 -4.53379e-06 -0.000289117
0.000319448 -0.000101509 1.38245e-06
-0.000101509 -0.000214392 -7.75211e-07
1.38245e-06 -7.75211e-07 -0.000310379
0.000798058 -6.4096e-05 -2.77524e-06
-6.4096e-05 0.000126335 -3.8838e-07
-2.77524e-06 -3.8838e-07 2.4609e-05
0.000524993 -0.000104592 5.19984e-06
-0.000104592 -2.57157e-05 3.33864e-06
5.19984e-06 3.33864e-06 -0.000169312
0.00119986 -0.000248369 -2.02176e-06
-0.000248369 0.000326985 7.98884e-06
-2.02176e-06 7.98884e-06 0.000102185
0.00133531 -0.00012457 1.3704e-06
-0.00012457 0.000489692 -1.10374e-06
1.3704e-06 -1.10374e-06 0.00034927
0.000292163 -7.8765e-05 -1.98897e-06
-7.8765e-05 -0.000136072 -4.86736e-06
-1.98897e-06 -4.86736e-06 -0.000288528
0.00065726 -1.10845e-05 -2.69717e-07
-1.10845e-05 7.0972e-05 -3.07003e-09
-2.69717e-07 -3.07003e-09 -3.9361e-05
0.000366109 -2.1549e-06 2.10186e-07
-2.1549e-06 -8.86374e-05 -4.1956e-08
2.10186e-07 -4.1956e-08 -0.000194169
0.000854735 -2.08853e-05 -7.71242e-07
-2.08853e-05 0.000184273 1.03929e-06
-7.71242e-07 1.03929e-06 7.47974e-05
0.000733584 -4.02132e-05 -5.64865e-07
-4.02132e-05 0.000126428 6.65811e-07
-5.64865e-07 6.65811e-07 2.00467e-05
0.000608967 -2.11682e-05 -5.54679e-07
-2.11682e-05 3.43265e-05 9.81813e-07
-5.54679e-07 9.81813e-07 -4.69946e-05
0.000839868 -5.90399e-05 -2.669e-07
-5.90399e-05 0.000204386 -7.45416e-07
-2.669e-07 -7.45416e-07 8.75929e-05
0.000674771 -5.35231e-05 -5.91469e-07
-5.35231e-05 7.90312e-05 -3.95955e-08
-5.91469e-07 -3.95955e-08 -5.79649e-06
0.000584917 2.92623e-05 -1.99441e-06
2.92623e-05 7.29971e-07 1.90921e-06
-1.99441e-06 1.90921e-06 -5.45934e-05
0.000708729 -8.47911e-05 1.88293e-06
-8.47911e-05 0.000101709 -1.24307e-06
1.88293e-06 -1.24307e-06 1.32302e-05
0.000640195 -1.34289e-05 -2.60405e-07
-1.34289e-05 3.08685e-05 4.14275e-08
-2.60405e-07 4.14275e-08 -2.21963e-05
0.00137516 3.1658e-05 -7.50796e-06
3.1658e-05 0.000453466 5.59479e-06
-7.50796e-06 5.59479e-06 0.000440104
0.000611986 -3.22702e-05 2.00006e-06
-3.22702e-05 2.10843e-05 -2.24266e-06
2.00006e-06 -2.24266e-06 -3.39006e-05
0.000953946 1.88828e-05 -3.69457e-06
1.88828e-05 0.000201579 7.11632e-07
-3.69457e-06 7.11632e-07 0.000186918
0.000772509 2.3388e-05 -3.28886e-07
2.3388e-05 9.39324e-05 2.13309e-06
-3.28886e-07 2.13309e-06 0.000100054
0.000541362 7.22665e-06 4.87617e-07
7.22665e-06 -4.5009e-05 -3.91284e-06
4.87617e-07 -3.91284e-06 -6.10371e-05
0.00156148 2.316e-05 5.82084e-06
2.316e-05 0.000564299 -1.49306e-06
5.82084e-06 -1.49306e-06 0.000575463
0.00236113 1.61237e-05 4.33861e-06
1.61237e-05 0.0010424 -5.15399e-06
4.33861e-06 -5.15399e-06 0.00105771
0.000692832 1.10774e-05 1.42478e-06
1.10774e-05 9.0136e-05 -1.37131e-06
1.42478e-06 -1.37131e-06 5.12538e-06
0.000643442 3.27346e-05 -6.55579e-07
3.27346e-05 3.91956e-05 -1.87926e-06
-6.55579e-07 -1.87926e-06 -4.83695e-06
0.000692419 -3.29064e-06 1.1868e-06
-3.29064e-06 9.69999e-05 3.35209e-07
1.1868e-06 3.35209e-07 1.58684e-05
0.000577797 -2.23617e-06 4.41847e-07
-2.23617e-06 -2.82411e-05 -3.48675e-06
4.41847e-07 -3.48675e-06 -3.60303e-05
0.000590834 2.55965e-05 7.86996e-08
2.55965e-05 8.89275e-06 -2.94017e-08
7.86996e-08 -2.94017e-08 -3.21527e-05
0.000651598 -9.12372e-05 -3.5325e-06
-9.12372e-05 7.35863e-05 1.42265e-06
-3.5325e-06 1.42265e-06 -4.79639e-06
0.00202602 1.99062e-06 -2.01815e-06
1.99062e-06 0.000840512 -4.73628e-06
-2.01815e-06 -4.73628e-06 0.000859748
0.000572346 2.81368e-06 -1.82519e-07
2.81368e-06 -3.19549e-05 -5.19374e-09
-1.82519e-07 -5.19374e-09 -3.88383e-05
0.0005888 -2.04617e-05 -1.56419e-06
-2.04617e-05 5.16782e-06 1.62121e-06
-1.56419e-06 1.62121e-06 -3.3514e-05
0.000554929 7.58228e-06 -5.93978e-07
7.58228e-06 -4.25258e-05 3.16375e-06
-5.93978e-07 3.16375e-06 -4.93127e-05
0.00203326 1.61745e-05 -3.93713e-06
1.61745e-05 0.000846388 -4.89989e-08
-3.93713e-06 -4.89989e-08 0.000865189
0.00201942 2.83177e-05 -9.37397e-06
2.83177e-05 0.000840372 4.3343e-06
-9.37397e-06 4.3343e-06 0.00085855
-0.00461863 -0.000455045 -5.70637e-05
-0.000455045 0.00180684 2.16133e-05
-5.70637e-05 2.16133e-05 -0.00063369
-0.000510095 0.000553943 -9.20524e-05
0.000553943 -0.000364661 2.19868e-05
-9.20524e-05 2.19868e-05 -0.00100942
0.00354264 -0.00043756 -0.000282674
-0.00043756 0.001157 0.000178015
-0.000282674 0.000178015 -0.00158918
-0.00305802 8.39861e-05 0.000405877
8.39861e-05 0.00230595 -0.000172497
0.000405877 -0.000172497 0.000527482
0.00030848 0.000283888 -1.99048e-05
0.000283888 -0.00129196 3.13277e-06
-1.99048e-05 3.13277e-06 -0.00122154
0.00249274 -0.000182231 0.000100503
-0.000182231 8.85206e-05 -8.89567e-06
0.000100503 -8.89567e-06 8.52178e-05
0.000972744 -0.000404988 -1.04863e-06
-0.000404988 -0.00237545 -6.92948e-05
-1.04863e-06 -6.92948e-05 -0.00390631
0.0111345 0.0012107 -0.000152557
0.0012107 0.00539174 -1.56357e-05
-0.000152557 -1.56357e-05 0.00460427
-0.00753062 0.00267724 -0.000703305
0.00267724 -0.00322064 0.000544028
-0.000703305 0.000544028 -0.00180858
0.00286672 -0.000136717 -2.23425e-06
-0.000136717 -0.000254157 -4.8239e-06
-2.23425e-06 -4.8239e-06 -0.000304535
0.00519387 -0.000547038 5.78719e-05
-0.000547038 -0.000240927 -6.18593e-05
5.78719e-05 -6.18593e-05 -0.0024082
0.0117023 0.00219705 -9.53288e-05
0.00219705 0.00357965 -8.56962e-05
-9.53288e-05 -8.56962e-05 0.00390682
0.00445845 0.00166169 -7.51922e-05
0.00166169 -0.000897007 0.00019173
-7.51922e-05 0.00019173 -0.00092702
0.00293497 -0.000747646 -7.30896e-05
-0.000747646 -0.000754863 1.92929e-05
-7.30896e-05 1.92929e-05 -0.000648871
0.00299896 -0.00108917 0.000211097
-0.00108917 7.76075e-05 -0.0001368
0.000211097 -0.0001368 -0.00331473
-0.00399027 0.00128414 -7.13797e-05
0.00128414 -0.00387177 -0.000357724
-7.13797e-05 -0.000357724 -0.00426856
0.00421857 0.000912213 -9.5024e-05
0.000912213 -0.00297989 5.59738e-06
-9.5024e-05 5.59738e-06 -0.00173727
0.00108415 -3.34947e-05 7.65526e-07
-3.34947e-05 0.000378265 4.50108e-06
7.65526e-07 4.50108e-06 0.000223802
0.000673608 7.7506e-05 -1.73216e-06
7.7506e-05 0.000112115 -1.31505e-06
-1.73216e-06 -1.31505e-06 -9.92607e-06
0.000633557 6.75806e-05 8.43827e-08
6.75806e-05 6.4703e-05 -1.45899e-06
8.43827e-08 -1.45899e-06 -2.25764e-05
0.000656486 6.26727e-05 3.6357e-06
6.26727e-05 0.000111465 6.94215e-07
3.6357e-06 6.94215e-07 2.77627e-07
0.000628594 4.96116e-05 1.29563e-06
4.96116e-05 8.08905e-05 1.65015e-06
1.29563e-06 1.65015e-06 -6.73072e-05
0.000712079 6.29234e-05 -1.76863e-07
6.29234e-05 0.000139971 1.44338e-06
-1.76863e-07 1.44338e-06 1.34229e-05
0.000588256 3.00595e-05 3.77548e-07
3.00595e-05 5.52847e-05 -2.16138e-07
3.77548e-07 -2.16138e-07 -5.82038e-05
0.000879325 0.000130355 1.42243e-06
0.000130355 0.000235217 2.00475e-06
1.42243e-06 2.00475e-06 9.72555e-05
0.000839101 8.29761e-05 -1.01452e-07
8.29761e-05 0.000211693 3.56206e-07
-1.01452e-07 3.56206e-07 8.14623e-05
0.000507134 -9.31246e-06 -3.23557e-06
-9.31246e-06 8.53845e-06 -1.80244e-06
-3.23557e-06 -1.80244e-06 -0.000103143
0.000667347 -0.000218999 4.13765e-05
-0.000218999 -0.000694879 -1.81551e-05
4.13765e-05 -1.81551e-05 -0.000626457
0.000988949 -0.000469981 3.37466e-05
-0.000469981 -0.00040927 -4.52293e-06
3.37466e-05 -4.52293e-06 -0.000446903
0.00182752 -0.000648504 1.66016e-05
-0.000648504 0.00015678 3.32806e-06
1.66016e-05 3.32806e-06 -1.73854e-05
0.000324547 -0.000386502 7.79911e-06
-0.000386502 -0.000191164 -1.52314e-05
7.79911e-06 -1.52314e-05 -0.000468304
0.00201778 -0.000215206 -2.52965e-06
-0.000215206 0.00101629 1.49246e-05
-2.52965e-06 1.49246e-05 0.000713904
0.000610777 -9.87504e-05 -1.17438e-06
-9.87504e-05 0.000129305 2.13372e-06
-1.17438e-06 2.13372e-06 -4.62973e-05
0.000460467 7.67753e-05 -2.64296e-07
7.67753e-05 3.07936e-06 -3.49192e-06
-2.64296e-07 -3.49192e-06 -0.000148691
0.000666227 -6.11538e-05 -5.98107e-07
-6.11538e-05 0.000134014 3.35543e-06
-5.98107e-07 3.35543e-06 -3.58938e-05
0.00133347 -0.000358794 9.69181e-07
-0.000358794 -4.46529e-05 -1.38281e-06
9.69181e-07 -1.38281e-06 -0.000201855
0.000684111 -2.77707e-05 4.99143e-09
-2.77707e-05 0.000149787 1.43405e-06
4.99143e-09 1.43405e-06 -2.3709e-05
0.00150116 -0.000154763 -2.08715e-07
-0.000154763 0.000718141 -5.86625e-07
-2.08715e-07 -5.86625e-07 0.000456403
0.00159654 -0.000491196 1.76233e-06
-0.000491196 0.000144867 2.49959e-06
1.76233e-06 2.49959e-06 7.49515e-05
0.000844226 -0.00032637 -1.71858e-05
-0.00032637 0.00023217 4.86734e-06
-1.71858e-05 4.86734e-06 -4.74178e-05
0.000999899 -0.000598087 -8.21049e-06
-0.000598087 -0.000261119 -2.55691e-05
-8.21049e-06 -2.55691e-05 -0.000263034
0.0012358 -0.000288693 -1.88835e-05
-0.000288693 0.000464363 1.52985e-05
-1.88835e-05 1.52985e-05 0.000338796
-0.000948272 -3.90343e-05 3.68983e-06
-3.90343e-05 -0.000599761 2.02684e-05
3.68983e-06 2.02684e-05 -0.000900986
0.000718947 1.15863e-05 -6.78355e-07
1.15863e-05 0.000138802 -4.0643e-06
-6.78355e-07 -4.0643e-06 -1.54827e-05
0.000662794 4.10744e-05 3.00055e-06
4.10744e-05 0.000222522 -4.25475e-07
3.00055e-06 -4.25475e-07 -6.81966e-06
0.00175678 -5.0958e-05 -1.99564e-05
-5.0958e-05 0.00123084 -6.28792e-06
-1.99564e-05 -6.28792e-06 -0.000631436
-0.00288589 0.000121974 -0.000140177
0.000121974 0.00317215 -5.76493e-06
-0.000140177 -5.76493e-06 0.00073846
-0.0100439 -0.000694736 -0.00032011
-0.000694736 -0.00531226 1.39098e-06
-0.00032011 1.39098e-06 -0.00509059
-0.000267262 9.62767e-05 6.41316e-06
9.62767e-05 -0.000365184 -2.12506e-06
6.41316e-06 -2.12506e-06 -0.000519205
-0.000282022 0.000187569 2.0935e-06
0.000187569 -0.000340301 4.64912e-06
2.0935e-06 4.64912e-06 -0.000591023
0.00151488 0.000426101 2.20955e-05
0.000426101 0.000218814 7.94781e-06
2.20955e-05 7.94781e-06 0.00018745
-0.00406834 0.000554829 -1.70028e-05
0.000554829 0.00170938 1.86394e-05
-1.70028e-05 1.86394e-05 -0.000955701
0.00132848 0.000919219 -9.86537e-05
0.000919219 -0.00011575 -0.000102054
-9.86537e-05 -0.000102054 -0.00356438
0.0028899 0.0011631 0.000178178
0.0011631 0.000503764 4.4477e-05
0.000178178 4.4477e-05 8.52217e-05
0.000233367 0.000355183 8.50153e-06
0.000355183 -6.7011e-05 -2.91096e-05
8.50153e-06 -2.91096e-05 -0.00013556
0.0132914 -0.00159272 -9.28933e-06
-0.00159272 0.0038473 -0.000128355
-9.28933e-06 -0.000128355 0.00338213
0.00415239 0.000441497 0.00015927
0.000441497 0.00197438 7.75641e-05
0.00015927 7.75641e-05 -0.0012509
0.00994455 -0.00114171 6.58206e-05
-0.00114171 0.00152301 1.85167e-05
6.58206e-05 1.85167e-05 0.00278203
0.000831304 0.000209947 1.68087e-06
0.000209947 0.000350219 -2.22176e-06
1.68087e-06 -2.22176e-06 0.000202262
0.0034993 0.000110685 1.11816e-05
0.000110685 0.00164029 6.662e-07
1.11816e-05 6.662e-07 5.13131e-05
0.000593811 0.000134737 1.79473e-05
0.000134737 0.000102526 1.05073e-05
1.79473e-05 1.05073e-05 -0.00149945
-0.000309086 0.000220654 -6.68099e-06
0.000220654 -0.00016708 -1.6936e-06
-6.68099e-06 -1.6936e-06 -0.000375028
0.00208478 0.000635699 -7.91235e-05
0.000635699 0.00105292 -3.94313e-05
-7.91235e-05 -3.94313e-05 0.000168834
0.00286712 0.00181356 8.63601e-05
0.00181356 0.0010156 6.08676e-05
8.63601e-05 6.08676e-05 -0.00228688
0.00610358 0.000173871 -1.13652e-05
0.000173871 -0.00255625 -0.000121855
-1.13652e-05 -0.000121855 -0.00018362
0.0022757 -0.00132269 -3.65212e-05
-0.00132269 0.000632106 -5.10723e-05
-3.65212e-05 -5.10723e-05 -0.00124732
0.000939702 0.000168274 -5.83232e-06
0.000168274 0.000608371 -1.22399e-05
-5.83232e-06 -1.22399e-05 0.00043675
0.000239551 -5.42807e-05 -2.71689e-06
-5.42807e-05 1.58501e-05 -7.01406e-06
-2.71689e-06 -7.01406e-06 4.66287e-05
0.00280051 2.04202e-05 3.19637e-05
2.04202e-05 0.000239396 -8.97264e-05
3.19637e-05 -8.97264e-05 -0.000888454
0.00429885 0.00094961 9.98199e-05
0.00094961 -0.00282291 -1.1405e-05
9.98199e-05 -1.1405e-05 -0.00173847
-0.000735479 0.000118476 -2.42001e-06
0.000118476 1.46802e-05 -1.84932e-05
-2.42001e-06 -1.84932e-05 -0.000526099
0.0106112 0.00138111 0.000135505
0.00138111 0.00518166 4.98477e-05
0.000135505 4.98477e-05 0.00141698
-0.00865625 -0.000380052 7.34766e-05
-0.000380052 -0.000402952 0.000213637
7.34766e-05 0.000213637 -0.00250174
0.00219773 0.000239156 1.88491e-05
0.000239156 0.00108878 1.21359e-05
1.88491e-05 1.21359e-05 0.000949833
0.000644557 0.000130553 -4.42903e-06
0.000130553 0.000314247 -1.64253e-06
-4.42903e-06 -1.64253e-06 0.000108971
6.50994e-06 6.42918e-05 -1.62859e-06
6.42918e-05 0.000159668 -1.38189e-06
-1.62859e-06 -1.38189e-06 -7.32767e-05
0.000736177 0.000136691 5.15673e-07
0.000136691 0.000134062 1.14254e-06
5.15673e-07 1.14254e-06 -8.06733e-06
0.000716868 6.73529e-05 1.21915e-06
6.73529e-05 0.00011208 2.25752e-06
1.21915e-06 2.25752e-06 -2.23082e-06
0.000740493 2.312e-07 7.15979e-06
2.312e-07 0.00035626 7.00401e-06
7.15979e-06 7.00401e-06 0.000167894
0.000656963 4.54482e-05 -2.45319e-07
4.54482e-05 8.14627e-05 -3.317e-07
-2.45319e-07 -3.317e-07 -4.69416e-05
0.000810346 -1.89604e-05 -1.50605e-06
-1.89604e-05 0.000321896 -2.03525e-06
-1.50605e-06 -2.03525e-06 0.000169946
-0.000342809 3.02819e-05 3.47764e-06
3.02819e-05 -7.73263e-05 5.27866e-06
3.47764e-06 5.27866e-06 -0.000337392
0.000687687 4.92887e-06 -6.91962e-06
4.92887e-06 0.000410936 -6.3031e-06
-6.91962e-06 -6.3031e-06 0.000281852
0.000200936 -4.0845e-05 -3.85249e-06
-4.0845e-05 -4.41918e-05 -8.2331e-06
-3.85249e-06 -8.2331e-06 -0.000176188
0.000580423 -4.99459e-05 2.91823e-06
-4.99459e-05 3.0671e-05 3.9881e-06
2.91823e-06 3.9881e-06 -7.07729e-05
0.000791644 4.9558e-06 -9.40133e-07
4.9558e-06 0.000156513 7.2883e-08
-9.40133e-07 7.2883e-08 5.03487e-05
0.000942211 -2.42607e-05 -6.90894e-06
-2.42607e-05 0.000243979 4.69825e-06
-6.90894e-06 4.69825e-06 0.000156183
0.000661521 -4.77829e-05 3.83779e-06
-4.77829e-05 0.00013569 -4.21935e-07
3.83779e-06 -4.21935e-07 5.29219e-05
0.000593563 -1.61261e-05 -8.70784e-07
-1.61261e-05 2.77583e-05 1.5593e-07
-8.70784e-07 1.5593e-07 -6.76402e-05
0.000774677 -9.2116e-05 3.28744e-06
-9.2116e-05 0.000162669 -4.15084e-07
3.28744e-06 -4.15084e-07 6.50669e-05
0.000397691 -8.90209e-05 -2.50388e-06
-8.90209e-05 -0.000133398 -1.07952e-06
-2.50388e-06 -1.07952e-06 -0.000215642
-0.000215714 -0.000158977 7.98286e-06
-0.000158977 -0.00046922 1.40944e-06
7.98286e-06 1.40944e-06 -0.000650548
0.000848929 -9.03718e-05 -7.70925e-07
-9.03718e-05 0.000163333 1.19433e-06
-7.70925e-07 1.19433e-06 5.60465e-05
0.00116728 -0.000171656 -7.06077e-07
-0.000171656 0.000339158 2.82493e-06
-7.06077e-07 2.82493e-06 0.00018161
0.000871568 -0.00025018 -4.08124e-06
-0.00025018 9.31689e-05 4.97983e-06
-4.08124e-06 4.97983e-06 -0.000134721
0.000967979 -0.000236182 -4.21183e-06
-0.000236182 0.000148892 4.77625e-07
-4.21183e-06 4.77625e-07 -7.593e-05
0.00103027 -0.000190885 -2.19076e-06
-0.000190885 0.00032321 4.6219e-06
-2.19076e-06 4.6219e-06 0.000138796
0.000360685 -0.000161946 2.1233e-06
-0.000161946 -0.000161793 -5.29494e-08
2.1233e-06 -5.29494e-08 -0.000369582
0.000946952 -7.84005e-05 1.3238e-06
-7.84005e-05 0.00025364 -4.1257e-07
1.3238e-06 -4.1257e-07 0.000128151
0.00103937 -0.000116269 -1.52956e-06
-0.000116269 0.000325165 -3.68718e-07
-1.52956e-06 -3.68718e-07 0.000180856
0.00045397 -0.000101277 4.08142e-06
-0.000101277 -2.6905e-05 -1.07452e-05
4.08142e-06 -1.07452e-05 -0.000178447
0.000947785 -2.9606e-05 -4.62929e-07
-2.9606e-05 0.000232702 -1.44284e-07
-4.62929e-07 -1.44284e-07 0.000124047
0.000479626 -1.1255e-05 3.5861e-07
-1.1255e-05 -1.96741e-05 -1.30124e-07
3.5861e-07 -1.30124e-07 -0.00012735
0.000608707 -1.0179e-05 -3.10552e-07
-1.0179e-05 3.43081e-05 7.19391e-07
-3.10552e-07 7.19391e-07 -5.24314e-05
0.00079635 -5.72675e-05 -2.40401e-07
-5.72675e-05 0.000173511 2.00376e-07
-2.40401e-07 2.00376e-07 5.78781e-05
0.000673922 -3.58437e-05 -1.00305e-07
-3.58437e-05 8.07782e-05 5.42358e-08
-1.00305e-07 5.42358e-08 -7.30049e-06
0.000587349 2.90572e-05 -4.16481e-07
2.90572e-05 7.41883e-06 1.97886e-06
-4.16481e-07 1.97886e-06 -5.21481e-05
0.000735107 -6.92187e-05 5.51034e-07
-6.92187e-05 0.000122152 -1.29836e-06
5.51034e-07 -1.29836e-06 3.1403e-05
0.000611686 2.05084e-05 -1.00658e-06
2.05084e-05 1.71874e-05 -6.91047e-08
-1.00658e-06 -6.91047e-08 -3.89436e-05
0.00133608 4.47414e-05 -8.52129e-06
4.47414e-05 0.000433338 3.72646e-06
-8.52129e-06 3.72646e-06 0.000418914
0.000647297 -2.51581e-05 2.29511e-06
-2.51581e-05 3.63577e-05 -2.2563e-06
2.29511e-06 -2.2563e-06 -1.76615e-05
0.000936725 2.84562e-05 -4.65711e-06
2.84562e-05 0.000191501 6.29885e-07
-4.65711e-06 6.29885e-07 0.000176253
0.000799523 3.22375e-05 -9.52374e-07
3.22375e-05 0.000113287 2.20583e-06
-9.52374e-07 2.20583e-06 0.00011814
0.000525856 1.45215e-05 7.99618e-07
1.45215e-05 -5.57205e-05 -4.15841e-06
7.99618e-07 -4.15841e-06 -7.20586e-05
0.00157394 3.47984e-05 7.93848e-06
3.47984e-05 0.000574293 -1.35332e-06
7.93848e-06 -1.35332e-06 0.000584283
0.00235976 3.1016e-05 7.9179e-06
3.1016e-05 0.00104314 -5.08975e-06
7.9179e-06 -5.08975e-06 0.0010578
0.000437996 6.19241e-06 9.75202e-07
6.19241e-06 -5.0439e-05 -5.00664e-07
9.75202e-07 -5.00664e-07 -0.000154679
0.000310397 4.80152e-06 3.44513e-09
4.80152e-06 -0.000158959 -3.25562e-06
3.44513e-09 -3.25562e-06 -0.000211123
0.000734839 2.13314e-05 1.86265e-08
2.13314e-05 0.000121047 1.21539e-07
1.86265e-08 1.21539e-07 3.14168e-05
0.000572873 -7.03054e-06 3.70714e-07
-7.03054e-06 -3.09753e-05 -3.65009e-06
3.70714e-07 -3.65009e-06 -4.04981e-05
0.000442453 2.80084e-06 1.15162e-06
2.80084e-06 -8.15178e-05 -7.05406e-08
1.15162e-06 -7.05406e-08 -0.000126106
0.000431394 -8.18886e-05 -1.45759e-06
-8.18886e-05 -5.72243e-05 7.95789e-07
-1.45759e-06 7.95789e-07 -0.000141138
0.00209103 -1.1197e-05 -6.41034e-06
-1.1197e-05 0.000879457 -4.78662e-06
-6.41034e-06 -4.78662e-06 0.000898126
0.000572985 -2.34368e-06 -1.03199e-07
-2.34368e-06 -3.12977e-05 -4.52464e-08
-1.03199e-07 -4.52464e-08 -3.89839e-05
0.0005703 -1.41848e-05 -1.67906e-06
-1.41848e-05 -4.90577e-06 1.86075e-06
-1.67906e-06 1.86075e-06 -4.48631e-05
0.00203935 3.37295e-06 -3.92387e-06
3.37295e-06 0.000848635 1.23512e-08
-3.92387e-06 1.23512e-08 0.0008678
0.000556112 2.54211e-06 -4.8325e-07
2.54211e-06 -4.12152e-05 3.27856e-06
-4.8325e-07 3.27856e-06 -4.80919e-05
0.00202906 1.75709e-05 -2.34214e-06
1.75709e-05 0.000844001 4.53007e-06
-2.34214e-06 4.53007e-06 0.000862754
0.000371095 -0.000203736 -0.000104661
-0.000203736 -0.000189747 3.07804e-05
-0.000104661 3.07804e-05 -0.00181576
0.00141912 0.000177319 -3.24329e-05
0.000177319 0.00373635 -6.75256e-06
-3.24329e-05 -6.75256e-06 0.00214805
0.0010644 -0.000341352 -0.000295286
-0.000341352 0.0021186 1.1128e-05
-0.000295286 1.1128e-05 0.00110926
0.000759606 8.375e-05 2.03523e-06
8.375e-05 0.000142998 5.93541e-07
2.03523e-06 5.93541e-07 9.61811e-06
0.00355754 -0.000278993 -2.8173e-05
-0.000278993 0.00235055 0.000101271
-2.8173e-05 0.000101271 0.00097103
0.00363901 -0.000494015 -0.00011068
-0.000494015 0.00128088 8.00131e-06
-0.00011068 8.00131e-06 -0.00167949
0.00270762 0.000774166 0.000203548
0.000774166 0.00358875 -0.000173256
0.000203548 -0.000173256 0.00228148
0.00405746 -0.000264728 3.16162e-05
-0.000264728 0.000228293 -3.52841e-05
3.16162e-05 -3.52841e-05 -4.93592e-05
0.0117208 -0.000522058 0.000125647
-0.000522058 0.00296305 -6.49796e-05
0.000125647 -6.49796e-05 0.00134077
-0.00159624 0.00181092 -0.000153317
0.00181092 -0.00352217 0.000167071
-0.000153317 0.000167071 -0.00298134
0.00582166 0.0017902 3.7715e-05
0.0017902 0.000326543 5.42323e-05
3.7715e-05 5.42323e-05 5.74793e-07
0.00497413 -0.000878816 -9.08443e-05
-0.000878816 0.000217096 -1.46078e-06
-9.08443e-05 -1.46078e-06 -0.000124008
0.0111278 -0.000972031 5.67661e-05
-0.000972031 0.00393033 -1.4938e-05
5.67661e-05 -1.4938e-05 0.00177248
0.0070587 0.00117949 7.58214e-05
0.00117949 0.000724943 -0.000136554
7.58214e-05 -0.000136554 0.000124878
0.00592658 0.000842856 -1.62962e-06
0.000842856 -0.00158601 1.26546e-05
-1.62962e-06 1.26546e-05 -0.000659784
0.00355269 -0.00132035 1.96283e-05
-0.00132035 0.000229369 3.57572e-06
1.96283e-05 3.57572e-06 -0.000525211
0.0115397 -0.00157085 0.000101275
-0.00157085 0.00539 -5.35616e-05
0.000101275 -5.35616e-05 0.00166228
0.0038785 -0.000116286 7.5472e-05
-0.000116286 0.000635745 -0.000205913
7.5472e-05 -0.000205913 -1.25282e-05
0.00767469 0.000437147 -5.02335e-05
0.000437147 -0.000953459 0.000115588
-5.02335e-05 0.000115588 0.000964602
0.00069435 -2.14026e-05 1.52524e-06
-2.14026e-05 0.000133236 2.33463e-06
1.52524e-06 2.33463e-06 -2.4642e-05
0.000832212 -6.53457e-05 -2.44439e-07
-6.53457e-05 0.000232228 -5.47452e-08
-2.44439e-07 -5.47452e-08 7.36267e-05
0.000802635 0.000100241 -3.66528e-07
0.000100241 0.000193814 -2.52328e-06
-3.66528e-07 -2.52328e-06 6.91934e-05
0.000726989 5.03441e-05 9.43168e-07
5.03441e-05 0.000113633 2.88747e-06
9.43168e-07 2.88747e-06 -1.70597e-05
0.000800398 9.93457e-05 -4.71121e-07
9.93457e-05 0.000192347 7.25459e-07
-4.71121e-07 7.25459e-07 4.30911e-05
0.000890156 6.23686e-05 -1.89226e-06
6.23686e-05 0.000244755 -3.24571e-07
-1.89226e-06 -3.24571e-07 0.000119657
0.000994776 0.000122692 -9.62845e-07
0.000122692 0.000301673 -9.07302e-08
-9.62845e-07 -9.07302e-08 0.000164069
0.000977155 0.000130102 7.40456e-07
0.000130102 0.000304808 2.36735e-06
7.40456e-07 2.36735e-06 0.000168445
0.000399257 -0.000253469 5.36876e-05
-0.000253469 -0.000610271 -2.17896e-05
5.36876e-05 -2.17896e-05 -0.000619283
0.00188947 -0.000516396 1.16339e-05
-0.000516396 0.000266526 -1.06995e-05
1.16339e-05 -1.06995e-05 0.000210851
0.000922527 -0.000181426 -8.56591e-07
-0.000181426 0.000294076 -3.73351e-06
-8.56591e-07 -3.73351e-06 0.000114057
0.00177476 -0.000405597 1.78555e-05
-0.000405597 0.000727843 -2.3262e-05
1.78555e-05 -2.3262e-05 0.000449546
0.0022781 -0.00021749 -5.24987e-06
-0.00021749 0.00115924 4.65211e-06
-5.24987e-06 4.65211e-06 0.000893493
0.00103015 -8.00342e-05 -1.79855e-06
-8.00342e-05 0.000342591 -5.88644e-06
-1.79855e-06 -5.88644e-06 0.000168703
0.000525993 -9.52703e-06 8.57636e-07
-9.52703e-06 3.37001e-05 2.76276e-06
8.57636e-07 2.76276e-06 -0.000124027
0.000232678 -0.000545215 -5.57004e-06
-0.000545215 -0.000688983 -8.63033e-07
-5.57004e-06 -8.63033e-07 -0.00065591
0.00127863 4.78617e-05 3.31977e-07
4.78617e-05 0.00058045 3.89451e-07
3.31977e-07 3.89451e-07 0.000343303
0.000918308 -0.000178769 -1.44961e-05
-0.000178769 0.000405183 3.39787e-06
-1.44961e-05 3.39787e-06 0.000128998
0.000563263 -0.0002043 1.22233e-05
-0.0002043 6.09056e-05 3.6529e-06
1.22233e-05 3.6529e-06 -1.50761e-05
0.00101102 6.80544e-05 2.02548e-06
6.80544e-05 0.00029028 -2.56908e-06
2.02548e-06 -2.56908e-06 0.000151743
0.00116776 -0.000468838 1.94909e-05
-0.000468838 -3.83316e-05 -3.7231e-05
1.94909e-05 -3.7231e-05 0.000109104
-0.000174131 -0.000112213 1.28111e-05
-0.000112213 -7.0604e-05 2.15664e-05
1.28111e-05 2.15664e-05 -0.000191141
-0.000301827 4.85358e-05 4.82961e-06
4.85358e-05 -9.71869e-05 7.66216e-06
4.82961e-06 7.66216e-06 -0.000475437
0.00137689 0.000200866 2.34459e-06
0.000200866 0.000582852 -4.34983e-06
2.34459e-06 -4.34983e-06 0.000401727
0.000346759 -1.0237e-05 -1.33894e-06
-1.0237e-05 0.000728927 -9.23798e-06
-1.33894e-06 -9.23798e-06 8.76131e-05
0.00125245 -4.93086e-05 8.48003e-05
-4.93086e-05 0.00100057 -1.11926e-05
8.48003e-05 -1.11926e-05 -0.000884166
-0.00580069 -6.59971e-05 -0.000152281
-6.59971e-05 0.00234838 6.10986e-06
-0.000152281 6.10986e-06 -0.000592308
0.00108497 0.000217434 1.48253e-05
0.000217434 0.000557893 4.20673e-06
1.48253e-05 4.20673e-06 0.000401189
-0.00129104 0.000271048 6.10263e-06
0.000271048 -0.000724897 1.00357e-05
6.10263e-06 1.00357e-05 -0.00100006
0.00402239 0.000102432 9.65054e-05
0.000102432 0.00209523 4.41249e-06
9.65054e-05 4.41249e-06 0.00084463
0.00773144 0.000949825 0.000155337
0.000949825 0.00346802 8.26722e-05
0.000155337 8.26722e-05 -5.92612e-05
0.00334412 0.000924172 -0.000109946
0.000924172 0.00161282 -8.71873e-05
-0.000109946 -8.71873e-05 0.000530204
0.0046775 -0.000870888 -2.15408e-05
-0.000870888 0.00158027 -0.000224879
-2.15408e-05 -0.000224879 -4.56257e-05
0.00101429 0.000156918 5.49374e-05
0.000156918 0.000159075 0.000125328
5.49374e-05 0.000125328 -0.00142381
0.00440651 -4.75727e-05 -1.50677e-05
-4.75727e-05 -0.00418508 -0.000123577
-1.50677e-05 -0.000123577 -0.00139308
0.000680325 0.000184739 5.46873e-07
0.000184739 0.000462584 -2.1611e-06
5.46873e-07 -2.1611e-06 0.000272561
0.00020604 -5.24193e-05 9.79394e-07
-5.24193e-05 1.71967e-05 -1.25568e-06
9.79394e-07 -1.25568e-06 2.72386e-05
0.00286211 4.87592e-05 4.05902e-05
4.87592e-05 0.000389275 1.73145e-05
4.05902e-05 1.73145e-05 -0.000336025
-0.000949281 0.000167568 -8.32219e-06
0.000167568 -0.000336344 -5.55357e-06
-8.32219e-06 -5.55357e-06 -0.000773168
0.00611883 0.000930652 2.54604e-06
0.000930652 -0.00152365 -1.27377e-05
2.54604e-06 -1.27377e-05 -0.00065314
0.00487565 0.00103337 0.000123105
0.00103337 0.00309359 6.22588e-05
0.000123105 6.22588e-05 -0.000871657
0.00354594 0.000433496 -7.67603e-05
0.000433496 0.00244168 6.21798e-06
-7.67603e-05 6.21798e-06 0.00101901
0.000416111 0.000206591 -1.59723e-05
0.000206591 0.000339046 -1.58726e-05
-1.59723e-05 -1.58726e-05 6.99969e-05
0.00166083 7.15988e-05 1.06861e-05
7.15988e-05 -0.000237398 -1.49256e-05
1.06861e-05 -1.49256e-05 -3.03238e-05
0.00363551 -0.000230853 3.25622e-05
-0.000230853 0.0023543 -0.000102825
3.25622e-05 -0.000102825 0.00102542
0.00760228 0.0018031 0.000205079
0.0018031 0.000951576 -0.000136648
0.000205079 -0.000136648 0.000986733
0.00655911 -0.000141881 -9.20011e-05
-0.000141881 0.00156496 0.000202668
-9.20011e-05 0.000202668 0.001084
0.000938781 0.000175855 -3.97772e-06
0.000175855 0.000165194 -6.98882e-05
-3.97772e-06 -6.98882e-05 2.01043e-05
-0.000634622 0.00108418 0.000125706
0.00108418 0.00276299 3.05736e-05
0.000125706 3.05736e-05 -0.00317219
0.00108442 0.000192968 3.86913e-06
0.000192968 0.000525216 1.61906e-05
3.86913e-06 1.61906e-05 0.000321582
0.000141467 9.84611e-05 2.71046e-06
9.84611e-05 0.000226365 1.19835e-06
2.71046e-06 1.19835e-06 -9.91042e-06
0.00101862 2.5549e-06 -9.31892e-06
2.5549e-06 0.000761567 -1.09997e-05
-9.31892e-06 -1.09997e-05 0.000612289
0.000359346 -2.31705e-05 1.25479e-06
-2.31705e-05 -0.000107262 4.28297e-06
1.25479e-06 4.28297e-06 -0.000222004
0.000661681 -2.01909e-05 2.25518e-06
-2.01909e-05 0.000237487 5.59953e-06
2.25518e-06 5.59953e-06 8.57177e-05
0.000601091 -1.46396e-05 2.72059e-06
-1.46396e-05 0.000430539 -1.85784e-06
2.72059e-06 -1.85784e-06 0.000178946
0.000549538 -6.08339e-05 3.74868e-07
-6.08339e-05 0.000132512 -1.89454e-07
3.74868e-07 -1.89454e-07 1.6506e-05
0.000132472 -1.24373e-05 6.81277e-07
-1.24373e-05 8.2991e-05 1.93138e-06
6.81277e-07 1.93138e-06 -4.75639e-05
0.00120529 -0.000218096 8.65751e-06
-0.000218096 0.00064572 -9.32567e-06
8.65751e-06 -9.32567e-06 0.000459217
0.00123394 -6.61343e-05 -1.25537e-06
-6.61343e-05 0.00046124 3.76034e-06
-1.25537e-06 3.76034e-06 0.000375552
8.07324e-05 -4.82746e-07 -1.26243e-06
-4.82746e-07 -0.000264547 1.89168e-06
-1.26243e-06 1.89168e-06 -0.000359538
0.00142519 -0.000153586 1.52683e-06
-0.000153586 0.000530452 2.05277e-06
1.52683e-06 2.05277e-06 0.000420479
-0.000734914 -0.000125225 5.59357e-06
-0.000125225 -0.000615 1.14928e-06
5.59357e-06 1.14928e-06 -0.000840547
0.000380165 -6.96092e-05 -5.74092e-06
-6.96092e-05 -0.000109804 9.50411e-07
-5.74092e-06 9.50411e-07 -0.000177269
3.00023e-05 -0.000163335 2.67578e-06
-0.000163335 -0.000332212 -1.05566e-06
2.67578e-06 -1.05566e-06 -0.000499481
0.00108496 -0.000298905 1.03899e-05
-0.000298905 0.000188191 -3.54976e-06
1.03899e-05 -3.54976e-06 -7.5383e-05
0.00132906 -0.000337366 -4.16506e-06
-0.000337366 0.000215155 3.16211e-06
-4.16506e-06 3.16211e-06 -5.32863e-05
0.0018272 -0.00023972 -2.41411e-06
-0.00023972 0.000715033 2.71271e-07
-2.41411e-06 2.71271e-07 0.000543041
0.000967721 -0.00026011 -4.02357e-07
-0.00026011 0.000121797 4.74144e-07
-4.02357e-07 4.74144e-07 -0.000118335
0.00223843 -0.0003659 2.9917e-06
-0.0003659 0.000866242 -1.25094e-06
2.9917e-06 -1.25094e-06 0.000630318
0.000238137 -0.000136448 -1.4454e-06
-0.000136448 -0.000194347 2.41545e-06
-1.4454e-06 2.41545e-06 -0.000393519
0.000982102 -0.000233421 -2.6737e-07
-0.000233421 0.000163845 -5.16659e-07
-2.6737e-07 -5.16659e-07 -5.74046e-05
0.000556164 -6.98664e-05 2.66071e-07
-6.98664e-05 3.49293e-05 -1.18803e-06
2.66071e-07 -1.18803e-06 -0.000114781
0.00105619 -0.000203816 -3.99825e-06
-0.000203816 0.000340705 2.37385e-06
-3.99825e-06 2.37385e-06 0.000152629
-0.000472205 -7.63874e-05 -2.35077e-06
-7.63874e-05 -0.000645667 -4.19832e-06
-2.35077e-06 -4.19832e-06 -0.000837639
0.000545527 9.4612e-06 9.00859e-07
9.4612e-06 4.83214e-06 1.14503e-06
9.00859e-07 1.14503e-06 -9.68606e-05
0.000696658 -6.14165e-05 6.76494e-07
-6.14165e-05 0.000114792 -1.00282e-07
6.76494e-07 -1.00282e-07 -1.21804e-05
0.00076646 -0.000108211 3.73987e-06
-0.000108211 0.000173083 -2.65215e-06
3.73987e-06 -2.65215e-06 2.44318e-05
0.000626414 -2.23575e-05 1.34199e-07
-2.23575e-05 6.87175e-05 -3.17124e-07
1.34199e-07 -3.17124e-07 -4.13054e-05
0.000688594 -2.28307e-05 -6.49213e-07
-2.28307e-05 9.11216e-05 -1.31124e-07
-6.49213e-07 -1.31124e-07 -3.51073e-06
0.000576275 3.30722e-05 -4.01761e-07
3.30722e-05 2.34249e-06 2.46576e-06
-4.01761e-07 2.46576e-06 -6.18417e-05
0.00075781 -4.84697e-05 4.79199e-07
-4.84697e-05 0.000137591 -8.06984e-07
4.79199e-07 -8.06984e-07 4.3274e-05
0.000611831 2.53993e-05 -8.79761e-07
2.53993e-05 2.03324e-05 -1.46469e-07
-8.79761e-07 -1.46469e-07 -3.86829e-05
0.000546194 4.15935e-05 -1.01658e-06
4.15935e-05 -3.32403e-05 4.26453e-06
-1.01658e-06 4.26453e-06 -5.39458e-05
0.000678198 -1.65889e-05 2.17835e-06
-1.65889e-05 5.25456e-05 -2.09376e-06
2.17835e-06 -2.09376e-06 -1.48677e-06
0.000553324 3.20836e-05 1.66546e-07
3.20836e-05 -3.5969e-05 -1.2081e-09
1.66546e-07 -1.2081e-09 -5.41488e-05
0.00227001 7.59424e-05 -3.94679e-06
7.59424e-05 0.00100082 1.93635e-06
-3.94679e-06 1.93635e-06 0.00101045
0.000527143 2.37274e-05 9.42245e-07
2.37274e-05 -5.39824e-05 -4.24906e-06
9.42245e-07 -4.24906e-06 -7.11801e-05
0.00157922 4.63094e-05 9.45908e-06
4.63094e-05 0.000581323 -1.15722e-06
9.45908e-06 -1.15722e-06 0.000589854
0.00236954 4.53616e-05 1.26717e-05
4.53616e-05 0.00105187 -4.90862e-06
1.26717e-05 -4.90862e-06 0.00106537
0.000381273 5.04303e-06 8.02431e-07
5.04303e-06 -9.83396e-05 -1.78904e-06
8.02431e-07 -1.78904e-06 -0.000198259
0.000330678 1.04592e-06 3.02281e-07
1.04592e-06 -0.000149168 -2.81311e-06
3.02281e-07 -2.81311e-06 -0.000208441
0.000563203 1.70508e-05 -4.40843e-07
1.70508e-05 2.276e-05 -1.08787e-06
-4.40843e-07 -1.08787e-06 -7.8375e-05
0.000575602 -1.26869e-05 5.68503e-07
-1.26869e-05 -2.79425e-05 -3.91517e-06
5.68503e-07 -3.91517e-06 -4.02031e-05
0.000298166 3.7673e-06 -4.49342e-07
3.7673e-06 -0.000166687 -1.25383e-06
-4.49342e-07 -1.25383e-06 -0.000219839
0.000733921 3.1556e-05 -3.05024e-07
3.1556e-05 0.00012954 1.63754e-06
-3.05024e-07 1.63754e-06 3.43938e-05
0.00214194 -2.43015e-05 -1.11581e-05
-2.43015e-05 0.000910637 -4.73423e-06
-1.11581e-05 -4.73423e-06 0.000928377
0.000568072 -7.47168e-06 -2.34199e-07
-7.47168e-06 -3.38657e-05 -4.84792e-08
-2.34199e-07 -4.84792e-08 -4.32348e-05
0.000264711 3.96525e-06 6.49253e-07
3.96525e-06 -0.000185645 1.80713e-06
6.49253e-07 1.80713e-06 -0.000232803
0.00206762 -9.69534e-06 -3.64503e-06
-9.69534e-06 0.000865214 4.30789e-08
-3.64503e-06 4.30789e-08 0.000884132
0.000564065 -2.44741e-06 -4.42856e-07
-2.44741e-06 -3.67469e-05 3.43581e-06
-4.42856e-07 3.43581e-06 -4.42942e-05
0.00205742 4.80517e-06 2.25006e-06
4.80517e-06 0.000859607 4.66996e-06
2.25006e-06 4.66996e-06 0.000878629
0.000753791 -2.96325e-06 1.56734e-05
-2.96325e-06 0.000499638 8.04671e-06
1.56734e-05 8.04671e-06 0.00038088
0.000768941 -0.000143826 -9.42225e-07
-0.000143826 0.000123875 -1.21462e-05
-9.42225e-07 -1.21462e-05 -0.00160068
0.0015346 8.65201e-05 3.00407e-05
8.65201e-05 0.00376523 -3.09362e-05
3.00407e-05 -3.09362e-05 0.00236824
0.000738046 9.01219e-05 -1.53994e-07
9.01219e-05 0.000122953 3.5537e-07
-1.53994e-07 3.5537e-07 -2.21247e-06
0.000546834 6.40442e-05 1.67836e-06
6.40442e-05 -5.4047e-06 -5.87864e-07
1.67836e-06 -5.87864e-07 -0.000123272
0.000967905 0.000128887 2.8375e-06
0.000128887 0.000259984 2.70849e-06
2.8375e-06 2.70849e-06 0.00012489
0.002797 -5.44004e-05 1.68062e-06
-5.44004e-05 9.34819e-05 0.000166294
1.68062e-06 0.000166294 -0.00083376
0.00350847 -0.000248414 1.24451e-05
-0.000248414 0.00234767 -3.98076e-06
1.24451e-05 -3.98076e-06 0.00111605
0.0039244 -0.000550754 6.64178e-05
-0.000550754 0.00151098 -0.000127466
6.64178e-05 -0.000127466 -0.0016817
0.00590594 -0.00104243 -9.26348e-05
-0.00104243 0.000716143 -1.68002e-06
-9.26348e-05 -1.68002e-06 0.000398022
0.0022473 -0.00099158 -0.000136628
-0.00099158 -8.05761e-05 8.45675e-05
-0.000136628 8.45675e-05 -0.00272193
0.0120624 0.00167045 0.000106602
0.00167045 0.00422642 4.87798e-05
0.000106602 4.87798e-05 0.00334615
0.00318968 0.000253473 8.36692e-05
0.000253473 -0.00308442 -0.000102388
8.36692e-05 -0.000102388 -0.00231597
0.005331 -0.00149094 -1.75194e-05
-0.00149094 0.00115164 4.59813e-06
-1.75194e-05 4.59813e-06 0.000543188
0.00643101 -0.00130944 -2.83736e-05
-0.00130944 0.00300231 2.15074e-05
-2.83736e-05 2.15074e-05 -0.000459102
-0.00308644 0.00127773 -3.598e-05
0.00127773 0.000194466 -0.000138515
-3.598e-05 -0.000138515 -0.0019124
0.00598361 0.000128133 -1.84269e-05
0.000128133 -0.00260546 5.59361e-05
-1.84269e-05 5.59361e-05 -0.000202658
0.00153812 -0.000869033 -3.96382e-05
-0.000869033 0.000200879 -1.65247e-05
-3.96382e-05 -1.65247e-05 -0.000325224
0.0112898 -0.00156087 -7.92602e-05
-0.00156087 0.00500423 5.89646e-05
-7.92602e-05 5.89646e-05 0.00113668
-0.00889519 -0.000118955 3.92423e-05
-0.000118955 -0.000213389 -0.000203685
3.92423e-05 -0.000203685 -0.0025928
0.00455814 -0.000959879 4.44482e-05
-0.000959879 -0.00195554 -1.15475e-05
4.44482e-05 -1.15475e-05 -0.000890494
0.000659945 5.70364e-05 1.15756e-06
5.70364e-05 7.89438e-05 8.33047e-06
1.15756e-06 8.33047e-06 -6.14283e-05
0.000688904 -4.21409e-06 1.0653e-06
-4.21409e-06 0.000130009 -8.68411e-07
1.0653e-06 -8.68411e-07 -3.29055e-05
0.000858476 -8.6749e-05 5.25358e-07
-8.6749e-05 0.000239187 -2.65384e-06
5.25358e-07 -2.65384e-06 7.83493e-05
0.000728403 6.94619e-05 -8.56737e-07
6.94619e-05 0.00011438 -5.49356e-07
-8.56737e-07 -5.49356e-07 -1.94169e-05
0.000773081 0.000115769 7.44788e-07
0.000115769 0.00017851 -8.19453e-07
7.44788e-07 -8.19453e-07 3.50735e-05
0.00108671 0.000135221 -2.27492e-06
0.000135221 0.000359502 -1.04893e-06
-2.27492e-06 -1.04893e-06 0.000219475
-0.000224757 -0.000515008 1.90587e-05
-0.000515008 -0.000949439 1.02252e-05
1.90587e-05 1.02252e-05 -0.000941301
-0.000927214 -0.000120054 1.72598e-05
-0.000120054 -0.000787926 -1.62469e-05
1.72598e-05 -1.62469e-05 -0.000811347
0.000448206 4.00448e-05 -2.00921e-06
4.00448e-05 -7.20307e-06 -2.24654e-06
-2.00921e-06 -2.24654e-06 -0.00017128
0.00204987 -0.000300109 4.30047e-05
-0.000300109 0.000998577 -3.18813e-05
4.30047e-05 -3.18813e-05 0.000735717
0.00152666 9.06251e-06 -4.35553e-06
9.06251e-06 0.000714395 -2.56105e-06
-4.35553e-06 -2.56105e-06 0.000480942
0.000578293 4.80948e-05 -1.10423e-07
4.80948e-05 4.49072e-05 2.31274e-06
-1.10423e-07 2.31274e-06 -9.72436e-05
0.000658002 0.000118767 4.62808e-07
0.000118767 0.000161606 -1.43353e-06
4.62808e-07 -1.43353e-06 -3.37403e-06
0.000448021 -0.000498652 -9.11858e-07
-0.000498652 -0.000396932 -4.66167e-06
-9.11858e-07 -4.66167e-06 -0.00041325
0.00078497 -1.73433e-05 -1.85317e-06
-1.73433e-05 0.000467468 3.35076e-07
-1.85317e-06 3.35076e-07 0.000161902
0.0001623 -0.000100021 6.56191e-06
-0.000100021 0.000168313 -1.87671e-06
6.56191e-06 -1.87671e-06 1.78181e-05
0.00077741 8.74308e-05 4.10531e-06
8.74308e-05 0.000179203 -1.19226e-05
4.10531e-06 -1.19226e-05 5.03658e-05
-0.00232923 6.56829e-05 -6.5007e-05
6.56829e-05 -0.00088456 -1.40567e-05
-6.5007e-05 -1.40567e-05 -0.00134195
-0.000531472 4.39152e-05 2.35142e-05
4.39152e-05 -0.000224303 2.4271e-05
2.35142e-05 2.4271e-05 -0.000377522
0.0014102 2.04517e-05 7.60282e-06
2.04517e-05 0.000763195 2.43724e-06
7.60282e-06 2.43724e-06 0.000527057
0.000829352 -1.41206e-05 -1.1439e-06
-1.41206e-05 -0.00016943 9.37354e-07
-1.1439e-06 9.37354e-07 -0.000663048
0.000154414 -7.89517e-06 -1.46993e-05
-7.89517e-06 0.000508583 -1.2658e-05
-1.46993e-05 -1.2658e-05 -2.49573e-05
0.000646064 -3.89061e-05 0.000185379
-3.89061e-05 0.000755194 -9.73411e-06
0.000185379 -9.73411e-06 -0.00118291
0.000312524 0.000184739 7.69621e-06
0.000184739 0.000246035 1.61524e-05
7.69621e-06 1.61524e-05 3.78772e-05
0.000956166 0.000430476 9.7547e-06
0.000430476 0.000204549 -1.26538e-05
9.7547e-06 -1.26538e-05 -0.000113231
0.00022128 -5.42702e-05 1.11119e-05
-5.42702e-05 -3.73083e-06 2.90028e-06
1.11119e-05 2.90028e-06 -1.82568e-05
-0.00291 0.000559853 4.20397e-05
0.000559853 0.000441291 7.3214e-05
4.20397e-05 7.3214e-05 -0.0035155
-0.00990407 0.000593607 -8.96807e-05
0.000593607 -0.00362504 -0.000254889
-8.96807e-05 -0.000254889 -0.00592998
0.00282092 5.82895e-05 3.90349e-05
5.82895e-05 0.000543575 6.6237e-05
3.90349e-05 6.6237e-05 0.000142287
0.00340934 0.000323619 -8.56596e-05
0.000323619 -0.00291646 0.00010324
-8.56596e-05 0.00010324 -0.00220093
0.000549903 0.00018563 7.05963e-06
0.00018563 0.000415699 -9.6526e-07
7.05963e-06 -9.6526e-07 0.000184457
0.00146472 5.28468e-06 1.5129e-05
5.28468e-06 -0.0003536 -2.6053e-05
1.5129e-05 -2.6053e-05 -0.000116364
0.00353234 -0.00018277 -1.24791e-05
-0.00018277 0.00233576 3.75664e-06
-1.24791e-05 3.75664e-06 0.00111443
0.00108525 0.000239476 -4.96832e-05
0.000239476 0.000575319 -4.9744e-06
-4.96832e-05 -4.9744e-06 -8.90171e-05
0.00448607 0.00171264 6.83842e-05
0.00171264 -0.00106214 -0.000187302
6.83842e-05 -0.000187302 -0.000904732
-0.0026882 0.00117228 3.46922e-05
0.00117228 -0.000406947 0.000134594
3.46922e-05 0.000134594 -0.00206446
0.00707256 9.67352e-05 6.07272e-05
9.67352e-05 0.00567937 -2.67732e-05
6.07272e-05 -2.67732e-05 0.000249081
0.00159696 -6.98834e-05 5.61212e-05
-6.98834e-05 0.00137191 -2.06707e-05
5.61212e-05 -2.06707e-05 0.000875366
0.000843938 2.6243e-05 -1.71326e-05
2.6243e-05 0.000513194 -6.41753e-06
-1.71326e-05 -6.41753e-06 0.000394015
0.00360691 -0.000397773 0.000292798
-0.000397773 0.00108376 -0.000176474
0.000292798 -0.000176474 -0.00161134
0.00590261 0.00227094 1.40181e-06
0.00227094 0.00437921 -9.48196e-06
1.40181e-06 -9.48196e-06 0.00476071
-0.00349877 0.00126641 2.65233e-05
0.00126641 -0.00390689 0.000358616
2.65233e-05 0.000358616 -0.00425233
0.0133617 -0.00150687 0.00012877
-0.00150687 0.00549961 -0.000110043
0.00012877 -0.000110043 0.00159191
0.00312601 -0.000454868 -6.55452e-05
-0.000454868 0.00129898 7.14633e-05
-6.55452e-05 7.14633e-05 0.000944275
0.000736865 0.000161308 8.38225e-06
0.000161308 0.000556294 4.95631e-06
8.38225e-06 4.95631e-06 0.000316308
0.000251621 5.43539e-06 -2.83192e-05
5.43539e-06 0.000285678 1.26997e-06
-2.83192e-05 1.26997e-06 0.000123834
0.00123428 -0.000293148 2.05418e-05
-0.000293148 0.000823023 -7.41326e-06
2.05418e-05 -7.41326e-06 0.000513273
0.000866378 -8.13431e-05 1.49722e-06
-8.13431e-05 0.000296163 3.47523e-06
1.49722e-06 3.47523e-06 0.000194357
-5.87625e-05 -3.20799e-05 1.56682e-06
-3.20799e-05 -3.26475e-05 4.34215e-06
1.56682e-06 4.34215e-06 -0.000168012
0.000435942 -0.000202265 -8.96716e-07
-0.000202265 0.000256001 -7.52035e-07
-8.96716e-07 -7.52035e-07 7.46526e-05
0.001707 -0.000358227 2.71574e-05
-0.000358227 0.000813552 -1.82075e-05
2.71574e-05 -1.82075e-05 0.000557219
0.00223886 -0.000218267 -6.5259e-06
-0.000218267 0.000993402 4.27424e-06
-6.5259e-06 4.27424e-06 0.000870013
0.00184376 -0.000367612 4.3547e-06
-0.000367612 0.000761385 -7.8253e-07
4.3547e-06 -7.8253e-07 0.000515348
0.00132143 -0.00034551 1.21305e-05
-0.00034551 0.000489442 1.93432e-06
1.21305e-05 1.93432e-06 8.15647e-05
0.000320036 -0.000159805 -2.97562e-06
-0.000159805 -0.000172659 -6.24802e-07
-2.97562e-06 -6.24802e-07 -0.000322342
0.00146169 -0.000333019 -1.65349e-06
-0.000333019 0.0003713 1.23391e-06
-1.65349e-06 1.23391e-06 9.80099e-05
0.00176171 -0.000428972 -5.06153e-07
-0.000428972 0.000478952 2.32128e-06
-5.06153e-07 2.32128e-06 0.000119586
0.00170331 -0.00044538 -3.77764e-06
-0.00044538 0.00032922 3.34007e-06
-3.77764e-06 3.34007e-06 2.44514e-05
0.00110117 -0.000298261 1.51859e-07
-0.000298261 0.000120782 3.74317e-06
1.51859e-07 3.74317e-06 -0.000123693
0.001321 -0.000338952 -2.58857e-06
-0.000338952 0.000210515 1.67765e-06
-2.58857e-06 1.67765e-06 -6.24572e-05
0.00111559 -0.000275504 -7.35652e-06
-0.000275504 0.000177823 2.23996e-06
-7.35652e-06 2.23996e-06 -7.52758e-05
0.00175113 -0.000313326 5.23154e-06
-0.000313326 0.000611308 -8.48674e-07
5.23154e-06 -8.48674e-07 0.000386558
0.00153525 -0.000298341 2.90124e-06
-0.000298341 0.000454968 -2.93639e-06
2.90124e-06 -2.93639e-06 0.000234524
3.77134e-06 -6.44563e-05 1.31953e-06
-6.44563e-05 -0.000315495 2.82729e-07
1.31953e-06 2.82729e-07 -0.000491973
0.000824456 -0.000195979 1.90345e-06
-0.000195979 0.000157454 -1.26288e-06
1.90345e-06 -1.26288e-06 -5.00923e-05
0.00107892 -0.000238742 5.71803e-06
-0.000238742 0.0002279 -5.02471e-06
5.71803e-06 -5.02471e-06 9.09685e-06
0.000333563 8.85091e-06 1.15578e-06
8.85091e-06 -0.00011214 1.67668e-06
1.15578e-06 1.67668e-06 -0.000236724
0.000915376 -0.000108054 -4.05251e-07
-0.000108054 0.000252716 4.30305e-07
-4.05251e-07 4.30305e-07 9.38714e-05
0.00105138 -0.000213343 -1.13978e-06
-0.000213343 0.000340781 -8.6994e-07
-1.13978e-06 -8.6994e-07 0.000150113
0.000619217 1.68007e-05 -1.11729e-06
1.68007e-05 2.902e-05 2.65919e-06
-1.11729e-06 2.65919e-06 -4.11119e-05
0.000722671 -2.58996e-05 -4.6261e-07
-2.58996e-05 0.000107809 -3.17831e-07
-4.6261e-07 -3.17831e-07 3.63831e-06
0.000486676 -4.3809e-05 -6.11325e-08
-4.3809e-05 -2.21412e-07 2.78619e-07
-6.11325e-08 2.78619e-07 -0.000128532
0.000762057 -4.18036e-05 3.51368e-07
-4.18036e-05 0.000137935 -1.19396e-06
3.51368e-07 -1.19396e-06 3.9345e-05
0.000634702 2.04353e-06 -2.57854e-07
2.04353e-06 3.26227e-05 -1.81895e-07
-2.57854e-07 -1.81895e-07 -2.95689e-05
0.000532456 5.09427e-05 -3.41896e-07
5.09427e-05 -3.21364e-05 4.85651e-06
-3.41896e-07 4.85651e-06 -5.68682e-05
0.000647305 -7.27525e-06 1.79207e-06
-7.27525e-06 3.69323e-05 -2.02175e-06
1.79207e-06 -2.02175e-06 -1.98311e-05
0.000556666 4.36021e-05 -2.05685e-07
4.36021e-05 -2.66953e-05 -5.26528e-08
-2.05685e-07 -5.26528e-08 -4.77508e-05
0.00233662 8.37687e-05 -2.50376e-05
8.37687e-05 0.00104829 3.88978e-06
-2.50376e-05 3.88978e-06 0.00105642
0.0005474 3.30654e-05 9.98362e-07
3.30654e-05 -3.93225e-05 -4.18917e-06
9.98362e-07 -4.18917e-06 -5.76191e-05
0.00155902 5.80072e-05 1.13689e-05
5.80072e-05 0.000575005 -9.9373e-07
1.13689e-05 -9.9373e-07 0.000581773
0.00237999 5.99805e-05 1.66743e-05
5.99805e-05 0.00106263 -4.56862e-06
1.66743e-05 -4.56862e-06 0.00107449
0.000702358 6.71792e-05 5.95748e-07
6.71792e-05 9.86221e-05 -1.09102e-06
5.95748e-07 -1.09102e-06 -8.44635e-06
0.000620174 2.61885e-05 -1.67085e-07
2.61885e-05 2.0625e-05 -2.43493e-06
-1.67085e-07 -2.43493e-06 -4.1439e-05
0.00055687 4.06683e-05 -1.17894e-06
4.06683e-05 1.7813e-05 -1.14742e-06
-1.17894e-06 -1.14742e-06 -9.00295e-05
0.000559344 -1.76835e-05 6.08841e-07
-1.76835e-05 -3.60141e-05 -4.36659e-06
6.08841e-07 -4.36659e-06 -5.16625e-05
0.000437013 1.8078e-05 -1.48591e-06
1.8078e-05 -8.55904e-05 -1.24774e-06
-1.48591e-06 -1.24774e-06 -0.000143675
0.000769365 4.38129e-05 -4.29767e-07
4.38129e-05 0.000145346 -8.39981e-07
-4.29767e-07 -8.39981e-07 4.49136e-05
0.00224434 -3.83737e-05 -1.59327e-05
-3.83737e-05 0.000973689 -4.69179e-06
-1.59327e-05 -4.69179e-06 0.000989723
0.000561355 -1.27543e-05 -1.93206e-07
-1.27543e-05 -3.68093e-05 -7.4719e-08
-1.93206e-07 -7.4719e-08 -4.87995e-05
0.000243005 2.84457e-06 -9.22397e-07
2.84457e-06 -0.000199748 8.8121e-07
-9.22397e-07 8.8121e-07 -0.000253665
0.00215017 -2.31543e-05 -4.09662e-06
-2.31543e-05 0.000915318 9.81415e-08
-4.09662e-06 9.81415e-08 0.000933187
0.000562962 -8.09379e-06 -6.18598e-07
-8.09379e-06 -3.68763e-05 3.50984e-06
-6.18598e-07 3.50984e-06 -4.61307e-05
0.00208084 -8.22354e-06 6.96973e-06
-8.22354e-06 0.000872957 4.7283e-06
6.96973e-06 4.7283e-06 0.000891895
0.00153194 -4.63157e-05 -1.49631e-05
-4.63157e-05 -0.000258313 1.74694e-05
-1.49631e-05 1.74694e-05 -6.01274e-05
0.000787322 -3.57759e-05 9.65679e-06
-3.57759e-05 0.000460323 -2.13868e-06
9.65679e-06 -2.13868e-06 0.000375648
0.00124898 -0.000132074 0.000109904
-0.000132074 0.000347299 -3.32696e-05
0.000109904 -3.32696e-05 -0.00131397
0.000524843 2.3445e-05 6.92264e-07
2.3445e-05 -3.01447e-05 -5.37193e-07
6.92264e-07 -5.37193e-07 -0.00014057
0.00096346 5.78982e-05 -7.65968e-07
5.78982e-05 0.000224292 5.68656e-07
-7.65968e-07 5.68656e-07 0.000101071
0.000792278 9.95231e-05 -3.8597e-07
9.95231e-05 0.000154209 1.78072e-08
-3.8597e-07 1.78072e-08 3.27026e-05
0.000571075 4.66867e-05 2.16365e-07
4.66867e-05 1.4619e-06 2.70829e-07
2.16365e-07 2.70829e-07 -0.000110652
0.000690256 6.24841e-05 1.25361e-07
6.24841e-05 9.17772e-05 3.76237e-07
1.25361e-07 3.76237e-07 -3.63271e-05
0.000658845 5.75646e-05 1.40971e-06
5.75646e-05 6.47354e-05 -1.68968e-06
1.40971e-06 -1.68968e-06 -5.72764e-05
0.000654273 0.000148587 4.11599e-06
0.000148587 9.51475e-05 3.52064e-06
4.11599e-06 3.52064e-06 -5.24167e-05
3.54217e-05 7.15735e-05 6.04955e-05
7.15735e-05 -5.29251e-05 0.000163813
6.04955e-05 0.000163813 -0.00146531
0.00270255 -3.83519e-05 -1.07651e-05
-3.83519e-05 0.000389151 5.09021e-05
-1.07651e-05 5.09021e-05 -0.000356216
0.00314167 -0.000179173 3.60558e-05
-0.000179173 0.00222269 -6.75392e-05
3.60558e-05 -6.75392e-05 0.00110779
0.0042795 -0.000118447 -6.98329e-06
-0.000118447 -0.00431279 6.1294e-05
-6.98329e-06 6.1294e-05 -0.00136189
0.00295493 -0.0012114 -9.3671e-05
-0.0012114 0.000927605 6.71618e-05
-9.3671e-05 6.71618e-05 0.000101387
-0.00192473 -0.00145806 -3.31301e-05
-0.00145806 -0.000185991 8.36988e-05
-3.31301e-05 8.36988e-05 -0.00418952
0.00898348 0.00191686 7.558e-05
0.00191686 0.00476448 -5.74339e-05
7.558e-05 -5.74339e-05 0.00269039
0.0033144 -0.00109736 -2.79401e-05
-0.00109736 0.000869167 4.70733e-06
-2.79401e-05 4.70733e-06 0.000404325
-0.000484892 -0.000525112 3.05153e-05
-0.000525112 0.00168714 2.84929e-05
3.05153e-05 2.84929e-05 -0.00295454
0.00468794 0.000169954 2.07561e-05
0.000169954 0.00254097 -1.06389e-05
2.07561e-05 -1.06389e-05 0.00109617
0.00947537 -0.0013001 -3.32945e-05
-0.0013001 0.00123391 -3.85243e-05
-3.32945e-05 -3.85243e-05 0.00243672
-0.00150572 -2.78354e-05 -0.000158694
-2.78354e-05 -0.00135124 8.08335e-05
-0.000158694 8.08335e-05 -0.00119756
0.000741649 0.00135017 -5.61011e-05
0.00135017 0.00204855 -8.31286e-05
-5.61011e-05 -8.31286e-05 -0.00264608
-0.00657929 -0.00209699 4.94263e-05
-0.00209699 -0.00357612 -0.000138599
4.94263e-05 -0.000138599 -0.00581425
0.00593823 -0.00127131 4.31657e-05
-0.00127131 -0.000306163 -0.000270322
4.31657e-05 -0.000270322 0.000660763
0.000885224 2.42281e-05 4.68783e-06
2.42281e-05 0.000227835 -6.14241e-07
4.68783e-06 -6.14241e-07 0.000103443
0.00063904 7.02417e-05 4.05563e-08
7.02417e-05 7.45547e-05 -1.25903e-06
4.05563e-08 -1.25903e-06 -6.66178e-05
0.000847523 -8.97473e-06 2.80599e-07
-8.97473e-06 0.000237844 -2.75308e-06
2.80599e-07 -2.75308e-06 6.1146e-05
0.000808083 5.75954e-05 -1.47004e-06
5.75954e-05 0.000172119 -4.67167e-06
-1.47004e-06 -4.67167e-06 2.79486e-05
0.000360923 -0.000429291 -5.65628e-06
-0.000429291 -0.000447273 3.28242e-05
-5.65628e-06 3.28242e-05 -0.000536044
0.00182 -7.81992e-05 -2.43252e-05
-7.81992e-05 0.00112376 -2.30532e-05
-2.43252e-05 -2.30532e-05 0.00095765
0.000735904 4.15829e-05 -3.24104e-06
4.15829e-05 0.000117092 -4.12962e-06
-3.24104e-06 -4.12962e-06 -5.71731e-06
0.000692409 0.000159726 -1.74888e-06
0.000159726 0.000193743 4.27739e-06
-1.74888e-06 4.27739e-06 2.41673e-05
0.00277684 -3.55954e-05 1.08073e-05
-3.55954e-05 0.00153319 -2.06648e-05
1.08073e-05 -2.06648e-05 0.00130987
0.000926039 7.02826e-05 2.1412e-06
7.02826e-05 0.000256013 3.57984e-06
2.1412e-06 3.57984e-06 0.000135621
0.000629195 0.000116311 -2.64445e-06
0.000116311 0.000345762 -1.27307e-06
-2.64445e-06 -1.27307e-06 8.18653e-05
0.000405425 -2.77848e-05 3.72554e-05
-2.77848e-05 0.000459239 -1.30741e-05
3.72554e-05 -1.30741e-05 -0.000111895
0.000205252 2.05625e-05 2.43902e-05
2.05625e-05 0.000223852 -9.93547e-07
2.43902e-05 -9.93547e-07 7.97508e-05
0.000700695 0.000136228 2.90073e-07
0.000136228 0.000329461 -7.52114e-06
2.90073e-07 -7.52114e-06 0.000147286
-0.000433997 -6.31609e-05 -3.33303e-05
-6.31609e-05 0.000457664 -4.59959e-05
-3.33303e-05 -4.59959e-05 -0.000785897
0.0039025 0.000162378 2.66101e-05
0.000162378 0.00216269 2.28866e-05
2.66101e-05 2.28866e-05 0.0019302
0.000378543 6.60382e-06 -4.72664e-06
6.60382e-06 0.000743186 1.28769e-05
-4.72664e-06 1.28769e-05 9.17702e-05
0.00128337 -2.88575e-05 -9.31933e-08
-2.88575e-05 5.10418e-05 6.36126e-07
-9.31933e-08 6.36126e-07 -0.000150336
-7.56241e-06 -9.97909e-06 1.57446e-06
-9.97909e-06 0.000285628 -1.81401e-05
1.57446e-06 -1.81401e-05 -0.0001239
-0.000171709 0.000105484 -8.19443e-07
0.000105484 7.0365e-05 5.4146e-06
-8.19443e-07 5.4146e-06 -0.000121949
-0.00104588 0.000328887 6.3523e-05
0.000328887 -0.000806749 5.20619e-05
6.3523e-05 5.20619e-05 -0.00108607
0.00127903 -2.44858e-05 1.91004e-05
-2.44858e-05 -0.000428932 -6.38293e-06
1.91004e-05 -6.38293e-06 -0.000146953
0.00315207 -0.0011616 0.000130648
-0.0011616 0.00365308 -0.000126937
0.000130648 -0.000126937 -0.0018907
0.00946504 0.00192948 -7.67811e-05
0.00192948 0.0044212 5.46419e-05
-7.67811e-05 5.46419e-05 0.00262893
0.00317243 -0.000117286 -4.08009e-05
-0.000117286 0.00217857 7.00363e-05
-4.08009e-05 7.00363e-05 0.00106342
0.0058801 0.00179574 -3.01349e-05
0.00179574 0.00034057 -5.28685e-05
-3.01349e-05 -5.28685e-05 9.08118e-05
-4.92709e-05 0.00012448 -3.85426e-05
0.00012448 0.000476209 1.0159e-05
-3.85426e-05 1.0159e-05 -8.35844e-05
0.000880594 3.71892e-06 -1.14759e-05
3.71892e-06 0.0004585 2.26826e-06
-1.14759e-05 2.26826e-06 0.00039871
0.0036397 -0.000454542 0.00010825
-0.000454542 0.00118915 -1.00026e-05
0.00010825 -1.00026e-05 -0.00171888
-0.000152725 -0.000199357 9.99894e-06
-0.000199357 -0.000460735 2.52528e-05
9.99894e-06 2.52528e-05 -0.00053864
-0.000580905 0.00244871 0.000157031
0.00244871 0.000788879 -7.52288e-05
0.000157031 -7.52288e-05 0.00169581
0.0071921 0.00116033 -7.06518e-05
0.00116033 0.00056377 0.000135903
-7.06518e-05 0.000135903 0.000136206
-0.00306204 -0.000793598 7.54005e-05
-0.000793598 0.00062522 -7.58739e-05
7.54005e-05 -7.58739e-05 -0.00463927
0.000441095 -0.000164192 3.96957e-05
-0.000164192 0.000435296 -7.97171e-06
3.96957e-05 -7.97171e-06 2.22332e-05
0.000536759 -0.000188166 9.41969e-05
-0.000188166 -0.000204488 -3.19916e-05
9.41969e-05 -3.19916e-05 -0.00180482
-0.00200661 7.67865e-05 -0.000290863
7.67865e-05 0.00227345 1.7541e-05
-0.000290863 1.7541e-05 0.000540866
0.00419809 0.00228725 -0.000225823
0.00228725 0.000493408 0.000299637
-0.000225823 0.000299637 0.00065751
0.00804963 -0.000970464 -1.17152e-05
-0.000970464 0.00362439 3.73054e-06
-1.17152e-05 3.73054e-06 0.000234297
0.00304743 -0.000578441 -6.13705e-05
-0.000578441 0.00111996 4.65165e-05
-6.13705e-05 4.65165e-05 0.000743086
-0.00078672 3.89997e-05 2.57673e-05
3.89997e-05 -0.000312006 8.41807e-06
2.57673e-05 8.41807e-06 -0.000493789
0.00021996 -0.000207161 -8.23273e-07
-0.000207161 0.000286091 3.49036e-07
-8.23273e-07 3.49036e-07 -1.82793e-05
0.000662442 -0.000314324 1.60498e-05
-0.000314324 0.000240026 -4.47526e-06
1.60498e-05 -4.47526e-06 7.79323e-05
-0.000454035 -0.000174244 -6.72514e-06
-0.000174244 -0.000204919 6.10592e-06
-6.72514e-06 6.10592e-06 -0.0003798
-0.000593625 -0.000190066 -1.32332e-06
-0.000190066 -0.000407179 -4.09925e-06
-1.32332e-06 -4.09925e-06 -0.000661774
0.00317951 -0.000586255 3.07787e-05
-0.000586255 0.00127086 -4.94777e-07
3.07787e-05 -4.94777e-07 0.000988986
0.0043438 -0.000617161 -9.41551e-06
-0.000617161 0.00208814 3.71017e-06
-9.41551e-06 3.71017e-06 0.00181999
0.00226484 -0.000436767 6.61819e-06
-0.000436767 0.000936581 5.18045e-07
6.61819e-06 5.18045e-07 0.000552501
0.00121456 -0.000407634 8.25902e-06
-0.000407634 0.000208264 -5.72703e-06
8.25902e-06 -5.72703e-06 -0.000202439
0.00176654 -0.000361311 -8.16322e-06
-0.000361311 0.000512753 2.06507e-06
-8.16322e-06 2.06507e-06 0.000231055
0.00214344 -0.000474454 1.08079e-06
-0.000474454 0.000657196 5.24532e-07
1.08079e-06 5.24532e-07 0.000289308
0.00195535 -0.000481579 1.31307e-06
-0.000481579 0.000509515 -5.53535e-06
1.31307e-06 -5.53535e-06 0.000140392
0.00196983 -0.000453365 -1.28964e-06
-0.000453365 0.000401856 -2.80001e-06
-1.28964e-06 -2.80001e-06 0.000132273
0.00179907 -0.000448404 -1.24393e-06
-0.000448404 0.000365631 2.71294e-06
-1.24393e-06 2.71294e-06 8.11708e-05
0.00170891 -0.000450287 -9.70616e-07
-0.000450287 0.000333567 -1.56979e-07
-9.70616e-07 -1.56979e-07 2.29616e-05
0.000668154 -0.000240741 6.44901e-06
-0.000240741 -0.000125007 1.92366e-06
6.44901e-06 1.92366e-06 -0.000341288
0.0011627 -0.000296938 1.82234e-06
-0.000296938 0.000152367 6.39902e-08
1.82234e-06 6.39902e-08 -8.45385e-05
0.0012809 -0.000336814 6.60515e-07
-0.000336814 0.000189342 -2.40257e-06
6.60515e-07 -2.40257e-06 -8.77302e-05
0.00129688 -0.000255034 3.53714e-06
-0.000255034 0.000379135 1.89501e-06
3.53714e-06 1.89501e-06 0.000156953
0.0012846 -0.000267302 -2.07953e-06
-0.000267302 0.00033195 -1.67208e-06
-2.07953e-06 -1.67208e-06 0.00011486
0.000711271 -0.00021949 5.16028e-06
-0.00021949 -2.65329e-05 -5.26492e-06
5.16028e-06 -5.26492e-06 -0.00022953
0.000423651 -7.96637e-05 2.14578e-06
-7.96637e-05 -5.10712e-05 9.88547e-07
2.14578e-06 9.88547e-07 -0.000218935
0.000489449 -0.00010893 -6.74091e-07
-0.00010893 -1.51791e-05 9.9606e-07
-6.74091e-07 9.9606e-07 -0.000199607
0.00140856 -0.00025536 2.84939e-06
-0.00025536 0.000507374 -4.44062e-06
2.84939e-06 -4.44062e-06 0.000291426
0.000458606 2.05745e-05 -3.05751e-08
2.05745e-05 -5.78899e-05 3.20842e-06
-3.05751e-08 3.20842e-06 -0.000141393
0.000717879 -3.3445e-05 -3.36025e-07
-3.3445e-05 0.000121511 -2.9668e-07
-3.36025e-07 -2.9668e-07 -1.29024e-05
0.00118937 -0.000147074 7.00808e-07
-0.000147074 0.000420135 -1.12101e-07
7.00808e-07 -1.12101e-07 0.000252463
0.000502249 5.67748e-05 -9.79135e-07
5.67748e-05 -4.02008e-05 7.00326e-06
-9.79135e-07 7.00326e-06 -6.91074e-05
0.000642064 1.2229e-05 -2.91317e-07
1.2229e-05 4.03244e-05 -2.3902e-07
-2.91317e-07 -2.3902e-07 -2.96054e-05
0.000908654 -5.10352e-05 -2.16677e-07
-5.10352e-05 0.000221626 -1.4913e-06
-2.16677e-07 -1.4913e-06 0.000111791
0.000666071 6.26924e-07 1.47462e-06
6.26924e-07 5.012e-05 -2.44842e-06
1.47462e-06 -2.44842e-06 -1.20812e-05
0.000541266 5.35149e-05 1.75182e-07
5.35149e-05 -2.55556e-05 1.4563e-09
1.75182e-07 1.4563e-09 -5.09908e-05
0.00240368 9.98688e-05 -2.69627e-05
9.98688e-05 0.00109687 3.55825e-06
-2.69627e-05 3.55825e-06 0.00110133
0.000562462 4.70281e-05 -1.46644e-07
4.70281e-05 -2.26541e-05 -4.56578e-06
-1.46644e-07 -4.56578e-06 -4.43209e-05
0.00236914 8.67821e-05 2.71642e-06
8.67821e-05 0.00106861 2.52388e-07
2.71642e-06 2.52388e-07 0.00107612
0.00234847 7.36089e-05 2.01786e-05
7.36089e-05 0.00104959 -4.11999e-06
2.01786e-05 -4.11999e-06 0.00105965
0.000701981 6.01736e-05 -2.37057e-07
6.01736e-05 0.000105297 -9.21843e-07
-2.37057e-07 -9.21843e-07 -2.60308e-05
0.000771463 8.74205e-05 6.38794e-07
8.74205e-05 0.000149884 -1.40119e-06
6.38794e-07 -1.40119e-06 2.79715e-05
0.000638885 1.79112e-05 -7.53905e-08
1.79112e-05 3.19288e-05 -2.7858e-06
-7.53905e-08 -2.7858e-06 -3.6119e-05
0.000701475 7.91213e-05 -4.64666e-08
7.91213e-05 9.66653e-05 -3.02023e-08
-4.64666e-08 -3.02023e-08 -1.0148e-05
0.000549954 -2.08913e-05 -1.16548e-07
-2.08913e-05 -3.80486e-05 -5.00211e-06
-1.16548e-07 -5.00211e-06 -5.76456e-05
0.000622129 2.65804e-05 -7.69348e-09
2.65804e-05 2.24596e-05 -9.15311e-08
-7.69348e-09 -9.15311e-08 -3.96289e-05
0.000634012 4.27163e-05 -2.13367e-06
4.27163e-05 5.27966e-05 3.37922e-07
-2.13367e-06 3.37922e-07 -4.61305e-05
0.00234437 -5.26642e-05 -2.0896e-05
-5.26642e-05 0.00103626 -4.639e-06
-2.0896e-05 -4.639e-06 0.00105013
0.000559328 -1.84451e-05 -3.17762e-07
-1.84451e-05 -3.56611e-05 -6.7806e-08
-3.17762e-07 -6.7806e-08 -5.1221e-05
0.000554857 2.96908e-05 -1.41914e-06
2.96908e-05 -1.52938e-05 8.17257e-07
-1.41914e-06 8.17257e-07 -7.2203e-05
0.00222083 -3.69557e-05 -4.08109e-06
-3.69557e-05 0.000959268 1.55651e-07
-4.08109e-06 1.55651e-07 0.00097564
0.000561224 -1.26185e-05 -6.68119e-07
-1.26185e-05 -3.71859e-05 3.70809e-06
-6.68119e-07 3.70809e-06 -4.89419e-05
0.00212539 -2.18103e-05 1.10799e-05
-2.18103e-05 0.000900171 4.68433e-06
1.10799e-05 4.68433e-06 0.000918302
0.000381556 -7.56288e-05 1.69269e-07
-7.56288e-05 9.80588e-06 7.56315e-06
1.69269e-07 7.56315e-06 7.74404e-05
0.00145781 -8.51719e-05 -1.59485e-05
-8.51719e-05 -0.000350649 2.57186e-05
-1.59485e-05 2.57186e-05 -0.000101383
0.000834905 -6.02101e-05 8.41363e-06
-6.02101e-05 0.000426807 -1.42711e-05
8.41363e-06 -1.42711e-05 0.000366424
0.000728768 6.12301e-05 -2.24946e-07
6.12301e-05 0.00011086 1.38526e-07
-2.24946e-07 1.38526e-07 -1.42883e-05
0.000716806 4.44423e-05 1.11771e-06
4.44423e-05 7.98328e-05 -2.47182e-07
1.11771e-06 -2.47182e-07 -3.9906e-05
0.000139233 3.13502e-05 -3.79958e-06
3.13502e-05 -0.000259559 -4.31525e-06
-3.79958e-06 -4.31525e-06 -0.000372187
0.000382107 1.18936e-05 2.78162e-07
1.18936e-05 -0.000102804 4.72143e-07
2.78162e-07 4.72143e-07 -0.000222196
0.0014095 0.000157856 -8.85396e-07
0.000157856 0.000520675 -9.94345e-07
-8.85396e-07 -9.94345e-07 0.000371408
0.000646565 2.94486e-05 -1.47315e-06
2.94486e-05 3.9285e-05 7.70028e-07
-1.47315e-06 7.70028e-07 -6.91174e-05
0.000668098 5.26834e-05 -2.27928e-06
5.26834e-05 6.99347e-05 -2.6756e-06
-2.27928e-06 -2.6756e-06 -5.15761e-05
0.000767835 6.30828e-05 -1.07757e-07
6.30828e-05 0.000129635 -2.05768e-07
-1.07757e-07 -2.05768e-07 5.20675e-06
0.00098893 0.000100582 1.73547e-07
0.000100582 0.000270662 2.02817e-09
1.73547e-07 2.02817e-09 0.000136149
0.00107859 7.89046e-05 2.52203e-06
7.89046e-05 0.000342134 -1.96374e-06
2.52203e-06 -1.96374e-06 0.000201815
0.00316004 0.000250441 0.000170362
0.000250441 0.00196568 0.000240249
0.000170362 0.000240249 -0.00103765
0.000537201 9.39702e-05 9.10253e-06
9.39702e-05 6.2839e-05 6.45475e-05
9.10253e-06 6.45475e-05 -0.00149315
0.00263728 -4.48351e-05 -1.11031e-05
-4.48351e-05 0.000644904 -4.85087e-06
-1.11031e-05 -4.85087e-06 9.58986e-05
0.00976692 -0.00113619 -9.85139e-05
-0.00113619 0.00137311 -0.000106237
-9.85139e-05 -0.000106237 0.00277935
-0.0101396 0.00090807 -2.44293e-05
0.00090807 -0.0034023 0.000252275
-2.44293e-05 0.000252275 -0.00593342
0.00526347 -0.00120118 -0.000126841
-0.00120118 0.00201595 4.37118e-05
-0.000126841 4.37118e-05 0.00156959
0.010902 -0.00100435 -6.11745e-05
-0.00100435 0.00486333 -1.41151e-06
-6.11745e-05 -1.41151e-06 0.00124021
0.00219117 -0.000237147 -1.8811e-05
-0.000237147 0.000533561 6.27054e-05
-1.8811e-05 6.27054e-05 0.000279263
0.01155 -0.000118578 -8.26204e-06
-0.000118578 0.00588937 -1.28352e-05
-8.26204e-06 -1.28352e-05 0.00144053
0.00243675 -0.00130019 5.3703e-05
-0.00130019 0.000673792 7.18031e-05
5.3703e-05 7.18031e-05 -0.00112202
0.00516368 -0.00154435 -0.000142403
-0.00154435 -0.00109127 -0.000327717
-0.000142403 -0.000327717 -0.000208042
0.00315338 5.88566e-05 -0.000125928
5.88566e-05 0.000898868 4.90062e-05
-0.000125928 4.90062e-05 0.000334686
0.00995626 0.00106515 -4.32961e-05
0.00106515 0.0046501 1.68649e-05
-4.32961e-05 1.68649e-05 0.00105532
0.011272 -0.00225812 -7.78318e-05
-0.00225812 0.0038669 -0.000282353
-7.78318e-05 -0.000282353 0.00344999
0.00829084 -0.00252967 7.23802e-05
-0.00252967 0.00190576 2.08181e-06
7.23802e-05 2.08181e-06 0.00305583
0.000164579 7.53339e-05 3.92746e-06
7.53339e-05 -0.000115338 -5.1252e-06
3.92746e-06 -5.1252e-06 -0.000250917
0.00092694 2.45618e-05 1.00671e-06
2.45618e-05 0.000268889 2.97795e-06
1.00671e-06 2.97795e-06 0.000124182
0.000733525 8.2678e-05 -2.57627e-06
8.2678e-05 0.000132722 -6.04957e-06
-2.57627e-06 -6.04957e-06 -1.24309e-05
0.00172239 -0.000169477 -3.22366e-05
-0.000169477 0.00107769 2.27464e-05
-3.22366e-05 2.27464e-05 0.000360179
0.00102786 -3.41771e-05 -6.97989e-05
-3.41771e-05 0.000705095 -2.259e-05
-6.97989e-05 -2.259e-05 0.000578701
0.000693757 9.2788e-06 -4.13038e-06
9.2788e-06 0.000120606 5.46538e-06
-4.13038e-06 5.46538e-06 7.08433e-07
-0.00117305 0.000104496 -8.52434e-06
0.000104496 -0.000632996 -3.87751e-06
-8.52434e-06 -3.87751e-06 -0.000938288
0.000461356 7.60196e-05 5.47066e-07
7.60196e-05 0.000186187 -2.59222e-06
5.47066e-07 -2.59222e-06 -4.11772e-06
0.000621464 0.000136915 -9.60079e-07
0.000136915 0.000406837 2.92761e-06
-9.60079e-07 2.92761e-06 0.000128937
-0.000368023 -6.97345e-05 0.000125891
-6.97345e-05 0.000715629 -4.17938e-05
0.000125891 -4.17938e-05 -0.000510052
-0.00227759 9.04004e-06 -2.25916e-05
9.04004e-06 -0.00121673 1.3384e-05
-2.25916e-05 1.3384e-05 -0.00143154
0.0024805 0.000300717 -4.54405e-05
0.000300717 0.00156551 -4.40473e-05
-4.54405e-05 -4.40473e-05 0.000731195
0.00185671 3.26211e-05 8.54628e-05
3.26211e-05 0.00112577 1.36661e-05
8.54628e-05 1.36661e-05 -0.00084481
0.000165376 3.92743e-06 1.53068e-05
3.92743e-06 0.000531023 1.39423e-05
1.53068e-05 1.39423e-05 -2.16177e-05
0.0017602 -6.84351e-05 3.92227e-07
-6.84351e-05 0.000273334 -4.46522e-07
3.92227e-07 -4.46522e-07 0.000355201
-0.00180314 0.000271 9.85352e-05
0.000271 -0.000460712 8.07962e-06
9.85352e-05 8.07962e-06 -0.00113295
0.00324849 0.000140651 -2.86482e-05
0.000140651 0.00155543 1.22282e-05
-2.86482e-05 1.22282e-05 0.000846135
0.000875692 -3.2397e-05 -7.43622e-06
-3.2397e-05 0.000426875 1.17708e-05
-7.43622e-06 1.17708e-05 0.000376548
0.0161605 -0.0016713 0.000132667
-0.0016713 0.0070035 -4.15555e-05
0.000132667 -4.15555e-05 0.00290914
0.0112366 0.00173154 -6.7993e-05
0.00173154 0.00391502 -5.2604e-05
-6.7993e-05 -5.2604e-05 0.00297212
0.00396736 -0.000502132 -7.97301e-05
-0.000502132 0.00144029 0.000128099
-7.97301e-05 0.000128099 -0.00166535
-0.00727899 0.00274568 0.000733291
0.00274568 -0.00314671 -0.000556406
0.000733291 -0.000556406 -0.00178651
0.00081713 -0.000184685 1.0815e-05
-0.000184685 0.00074716 -3.99462e-06
1.0815e-05 -3.99462e-06 0.000254032
0.000868257 -0.00014667 2.22436e-07
-0.00014667 4.69928e-05 1.17894e-05
2.22436e-07 1.17894e-05 -0.0016472
-0.00286417 0.000160935 -0.000408566
0.000160935 0.00226516 0.00017255
-0.000408566 0.00017255 0.000550196
0.00148062 -0.000364982 -2.40074e-05
-0.000364982 0.000359489 3.64005e-05
-2.40074e-05 3.64005e-05 1.33655e-05
0.0119292 0.00227638 0.000102789
0.00227638 0.00363671 8.01202e-05
0.000102789 8.01202e-05 0.00388148
0.00775951 -0.00159448 8.82818e-05
-0.00159448 0.00322531 -5.47608e-05
8.82818e-05 -5.47608e-05 0.000116985
0.00181873 -0.000431045 3.66865e-06
-0.000431045 0.000757769 2.21238e-05
3.66865e-06 2.21238e-05 0.000682717
-0.00435848 -0.000431556 4.02417e-05
-0.000431556 0.00178502 -2.49874e-05
4.02417e-05 -2.49874e-05 -0.000521871
0.0104245 0.00210651 -0.0004478
0.00210651 0.00475533 0.000210654
-0.0004478 0.000210654 0.00448866
0.00252534 -0.000974421 -0.000208695
-0.000974421 -0.000294337 0.000139276
-0.000208695 0.000139276 -0.0035232
0.00227822 -0.000935121 0.000100582
-0.000935121 0.000399837 -4.8138e-05
0.000100582 -4.8138e-05 0.000333523
-0.000116711 -0.000190542 -4.76587e-05
-0.000190542 8.30228e-05 1.31167e-05
-4.76587e-05 1.31167e-05 -0.000198214
0.000641562 -0.000294545 -6.02763e-06
-0.000294545 0.000285085 7.9242e-06
-6.02763e-06 7.9242e-06 6.07354e-05
0.00358697 -0.000592006 3.14633e-05
-0.000592006 0.00145762 2.85919e-06
3.14633e-05 2.85919e-06 0.00130992
-0.00279902 -5.13264e-05 -2.34603e-06
-5.13264e-05 -0.00156741 9.91189e-06
-2.34603e-06 9.91189e-06 -0.0018198
0.000788105 -0.000345089 4.40856e-06
-0.000345089 4.64243e-05 2.4132e-06
4.40856e-06 2.4132e-06 -0.000236868
0.0021672 -0.000559547 5.3394e-06
-0.000559547 0.000482233 1.3011e-06
5.3394e-06 1.3011e-06 0.000220138
0.00299994 -0.000504822 -1.39395e-05
-0.000504822 0.00127054 4.74382e-06
-1.39395e-05 4.74382e-06 0.000913782
0.0012947 -0.000406424 -2.54751e-06
-0.000406424 0.000223609 -3.81796e-06
-2.54751e-06 -3.81796e-06 -0.000163455
0.00186832 -0.000536566 4.53939e-06
-0.000536566 0.000303419 -5.53596e-06
4.53939e-06 -5.53596e-06 5.16977e-07
0.00258206 -0.000523912 -3.87383e-06
-0.000523912 0.000869041 -1.55233e-06
-3.87383e-06 -1.55233e-06 0.000493734
0.00163071 -0.000455678 1.00252e-07
-0.000455678 0.000304376 -3.50801e-06
1.00252e-07 -3.50801e-06 -4.97223e-05
0.00205004 -0.000467126 2.71877e-07
-0.000467126 0.000388144 -6.56145e-06
2.71877e-07 -6.56145e-06 0.000127621
0.00168817 -0.000363686 -3.09465e-06
-0.000363686 0.000129294 -3.22456e-06
-3.09465e-06 -3.22456e-06 -7.64715e-05
0.00161129 -0.000432605 1.80412e-06
-0.000432605 0.00018021 -6.44508e-07
1.80412e-06 -6.44508e-07 -8.42936e-05
0.00177769 -0.000436468 1.9429e-06
-0.000436468 0.000294984 -2.39935e-06
1.9429e-06 -2.39935e-06 2.96819e-05
0.00170391 -0.000379015 -3.18451e-07
-0.000379015 0.000369907 2.18484e-06
-3.18451e-07 2.18484e-06 0.000113327
0.00177676 -0.000447224 -1.93953e-06
-0.000447224 0.000371094 1.14246e-07
-1.93953e-06 1.14246e-07 8.22654e-05
0.00170768 -0.000455677 1.2927e-06
-0.000455677 0.000333375 -3.7336e-06
1.2927e-06 -3.7336e-06 1.70628e-05
0.00138981 -0.000284385 3.67702e-06
-0.000284385 0.000337238 1.19077e-06
3.67702e-06 1.19077e-06 0.000113538
0.000833992 -0.00025222 7.33435e-07
-0.00025222 -2.47829e-05 -2.34221e-07
7.33435e-07 -2.34221e-07 -0.000239511
0.00133068 -0.000306351 4.08208e-06
-0.000306351 0.000245111 -3.4582e-06
4.08208e-06 -3.4582e-06 1.45964e-05
0.000641765 -0.000178368 -1.51228e-07
-0.000178368 2.93615e-05 4.96742e-08
-1.51228e-07 4.96742e-08 -0.000162292
0.000913417 -0.000214467 1.68095e-08
-0.000214467 0.000154893 -4.76307e-07
1.68095e-08 -4.76307e-07 -5.85994e-05
0.000874372 -0.000226182 -3.76399e-06
-0.000226182 8.60074e-05 -1.42282e-06
-3.76399e-06 -1.42282e-06 -0.000124423
0.000340002 1.95792e-05 5.9119e-07
1.95792e-05 -0.000121914 4.92893e-06
5.9119e-07 4.92893e-06 -0.000232535
0.000776068 -0.000101092 1.12479e-06
-0.000101092 0.000164341 6.50257e-07
1.12479e-06 6.50257e-07 -1.29654e-05
0.00105753 -0.000157781 -2.40095e-06
-0.000157781 0.000333779 6.04004e-07
-2.40095e-06 6.04004e-07 0.000140556
0.00142706 9.11413e-05 -1.64938e-05
9.11413e-05 0.000525444 4.6903e-06
-1.64938e-05 4.6903e-06 0.000491735
0.000676196 -4.68356e-06 -2.81618e-07
-4.68356e-06 6.73289e-05 -6.72433e-07
-2.81618e-07 -6.72433e-07 -1.73208e-05
0.00106534 -6.85017e-05 -1.92726e-06
-6.85017e-05 0.000333103 -1.6534e-06
-1.92726e-06 -1.6534e-06 0.000188999
0.000745635 4.95222e-05 -2.88146e-05
4.95222e-05 0.000110739 3.68992e-06
-2.88146e-05 3.68992e-06 0.000108384
0.000985874 7.17072e-05 -8.73114e-06
7.17072e-05 0.000250792 -6.82759e-08
-8.73114e-06 -6.82759e-08 0.000222239
0.000671925 6.27445e-06 1.1241e-06
6.27445e-06 5.53471e-05 -3.0969e-06
1.1241e-06 -3.0969e-06 -1.42771e-05
0.000553525 5.71474e-05 -5.4576e-07
5.71474e-05 -1.65378e-05 -5.19205e-06
-5.4576e-07 -5.19205e-06 -4.29404e-05
0.0024386 0.000101954 3.89999e-06
0.000101954 0.00111849 3.52672e-07
3.89999e-06 3.52672e-07 0.00112253
0.00238109 8.89148e-05 2.27291e-05
8.89148e-05 0.00107672 -3.87609e-06
2.27291e-05 -3.87609e-06 0.00108377
0.000709152 5.97506e-05 4.58498e-07
5.97506e-05 9.36428e-05 5.12895e-07
4.58498e-07 5.12895e-07 -2.88389e-05
0.000789313 7.63945e-05 3.1862e-07
7.63945e-05 0.000158575 -1.96981e-06
3.1862e-07 -1.96981e-06 3.32594e-05
0.000616941 4.68137e-05 -2.60403e-07
4.68137e-05 3.86267e-05 3.45064e-07
-2.60403e-07 3.45064e-07 -8.1145e-05
0.000643338 7.13146e-06 -2.93845e-07
7.13146e-06 3.48347e-05 -3.01419e-06
-2.93845e-07 -3.01419e-06 -3.87187e-05
0.000726703 6.34084e-05 5.8543e-07
6.34084e-05 0.000111123 3.50319e-08
5.8543e-07 3.50319e-08 -5.60312e-07
0.000549434 -2.25946e-05 -7.48458e-07
-2.25946e-05 -3.35386e-05 -5.53472e-06
-7.48458e-07 -5.53472e-06 -5.7465e-05
0.000616985 2.08925e-05 -2.39528e-08
2.08925e-05 2.00804e-05 -1.16442e-07
-2.39528e-08 -1.16442e-07 -4.84156e-05
0.000736586 6.7587e-05 -6.49657e-07
6.7587e-05 0.000133458 1.7512e-06
-6.49657e-07 1.7512e-06 1.47353e-05
0.00248378 -6.76531e-05 -2.72764e-05
-6.76531e-05 0.00112366 -4.50167e-06
-2.72764e-05 -4.50167e-06 0.00113485
0.000541291 -2.30408e-05 -4.53355e-07
-2.30408e-05 -4.30932e-05 -4.72486e-08
-4.53355e-07 -4.72486e-08 -6.26345e-05
0.000609013 2.89797e-05 2.78637e-07
2.89797e-05 1.552e-05 2.56203e-06
2.78637e-07 2.56203e-06 -4.65749e-05
0.00235141 -5.19243e-05 -4.32806e-06
-5.19243e-05 0.00104017 2.29341e-07
-4.32806e-06 2.29341e-07 0.00105421
0.000544263 -1.89897e-05 -9.18108e-07
-1.89897e-05 -4.43774e-05 4.19543e-06
-9.18108e-07 4.19543e-06 -5.98098e-05
0.00222245 -3.56564e-05 1.59164e-05
-3.56564e-05 0.000959842 4.61279e-06
1.59164e-05 4.61279e-06 0.000976417
0.00451323 8.23049e-05 0.000103406
8.23049e-05 0.00181075 2.47302e-05
0.000103406 2.47302e-05 0.000655556
0.00033543 -7.16337e-05 -9.26051e-07
-7.16337e-05 1.5384e-05 2.39944e-07
-9.26051e-07 2.39944e-07 6.60217e-05
0.00133138 -7.69592e-05 -1.67361e-05
-7.69592e-05 -0.000401936 4.42755e-06
-1.67361e-05 4.42755e-06 -0.000112891
0.000519602 0.000102971 -5.82754e-06
0.000102971 -2.83707e-05 -1.59046e-06
-5.82754e-06 -1.59046e-06 -0.000153495
0.000823956 6.28916e-05 -7.6024e-07
6.28916e-05 0.000163328 3.47992e-07
-7.6024e-07 3.47992e-07 4.24809e-05
0.000521885 3.43424e-05 7.54323e-07
3.43424e-05 -3.60899e-05 3.99072e-08
7.54323e-07 3.99072e-08 -0.00015237
0.000808725 3.76184e-05 3.71259e-08
3.76184e-05 0.000140229 -1.23174e-07
3.71259e-08 -1.23174e-07 2.1299e-05
0.00075135 7.81801e-05 -6.70956e-07
7.81801e-05 9.96516e-05 9.38473e-08
-6.70956e-07 9.38473e-08 -1.98604e-05
0.00111613 0.000131291 6.85748e-07
0.000131291 0.000343812 -2.09328e-07
6.85748e-07 -2.09328e-07 0.000205122
0.000871301 0.000102945 -1.34319e-06
0.000102945 0.00017552 -6.22313e-06
-1.34319e-06 -6.22313e-06 2.13435e-05
7.82386e-05 2.35726e-05 2.24317e-07
2.35726e-05 -0.000248876 5.2439e-08
2.24317e-07 5.2439e-08 -0.000383194
0.00080445 0.000115783 -1.57569e-06
0.000115783 0.000163001 1.37179e-06
-1.57569e-06 1.37179e-06 2.90623e-05
0.000443753 2.00963e-05 -2.85915e-06
2.00963e-05 -7.1051e-05 -2.2929e-06
-2.85915e-06 -2.2929e-06 -0.000183213
0.000561619 5.8677e-05 -1.46281e-07
5.8677e-05 3.48728e-05 9.21821e-07
-1.46281e-07 9.21821e-07 -9.97855e-05
0.00160093 0.00016491 8.85168e-06
0.00016491 0.000689073 6.15466e-06
8.85168e-06 6.15466e-06 0.000540977
0.0011595 -0.00090889 0.000120272
-0.00090889 0.00265043 0.000199392
0.000120272 0.000199392 0.000601429
0.00361622 0.000328648 2.44576e-05
0.000328648 0.00192104 8.40729e-05
2.44576e-05 8.40729e-05 -0.00117447
0.000826799 0.000100546 -2.20881e-05
0.000100546 0.000249225 -4.03471e-05
-2.20881e-05 -4.03471e-05 -0.0014467
0.00981926 -0.00197807 -0.000261068
-0.00197807 0.00140714 -0.000194263
-0.000261068 -0.000194263 0.00222492
0.00562935 -0.000706932 6.6476e-05
-0.000706932 0.00140943 0.000245848
6.6476e-05 0.000245848 3.5648e-05
0.000717321 -0.000825409 -0.000100754
-0.000825409 0.00190723 9.02891e-05
-0.000100754 9.02891e-05 -0.00286781
0.000991527 -0.000330337 8.22819e-06
-0.000330337 0.000150172 6.22917e-05
8.22819e-06 6.22917e-05 -0.000419888
0.00238716 -0.000120143 2.80629e-05
-0.000120143 0.000645322 5.20574e-05
2.80629e-05 5.20574e-05 0.000263365
0.000864157 -0.00259374 0.000125278
-0.00259374 -0.000537264 0.000138551
0.000125278 0.000138551 0.000765149
0.00477493 0.000919033 -9.98935e-06
0.000919033 0.00362765 -2.52104e-05
-9.98935e-06 -2.52104e-05 -0.000799933
0.00304881 -0.00133587 -4.12268e-05
-0.00133587 -0.000725779 5.24686e-05
-4.12268e-05 5.24686e-05 -0.00127647
0.000724494 0.00033498 -5.16995e-06
0.00033498 -1.87554e-05 4.81421e-05
-5.16995e-06 4.81421e-05 -0.000128353
0.00826196 0.00103645 -4.21536e-05
0.00103645 0.00386566 -1.81505e-05
-4.21536e-05 -1.81505e-05 0.000682836
0.00378884 -0.0022054 -0.00024003
-0.0022054 3.54414e-05 -0.000211382
-0.00024003 -0.000211382 0.000111347
0.000914896 0.000327532 6.00841e-06
0.000327532 0.000219779 -1.28884e-05
6.00841e-06 -1.28884e-05 7.69106e-05
0.000640574 9.312e-05 2.84059e-06
9.312e-05 0.000150076 -4.55126e-07
2.84059e-06 -4.55126e-07 2.01419e-05
0.000460509 4.14977e-05 -3.31736e-06
4.14977e-05 5.2417e-06 -1.77063e-06
-3.31736e-06 -1.77063e-06 -0.000148463
-4.58529e-05 -7.43318e-05 -0.000167146
-7.43318e-05 0.00102492 -4.39118e-05
-0.000167146 -4.39118e-05 -0.000147159
-0.00210118 0.000143521 2.97253e-06
0.000143521 -0.0010927 -1.62153e-05
2.97253e-06 -1.62153e-05 -0.00139447
-5.01375e-06 0.000103762 -4.2937e-06
0.000103762 -7.06578e-05 5.1349e-06
-4.2937e-06 5.1349e-06 -0.000282799
0.000559765 0.000311573 1.16127e-05
0.000311573 0.000258994 3.33526e-06
1.16127e-05 3.33526e-06 2.56146e-05
0.000761797 0.000263683 -1.49717e-06
0.000263683 0.00058377 -3.36204e-05
-1.49717e-06 -3.36204e-05 -0.000133373
-6.56825e-05 0.000511806 3.00448e-05
0.000511806 -0.000447998 7.67126e-06
3.00448e-05 7.67126e-06 -0.000799275
-0.0013397 0.000333683 0.000162387
0.000333683 0.00338747 5.51902e-06
0.000162387 5.51902e-06 0.000692193
0.00206166 -1.63906e-05 -5.99388e-06
-1.63906e-05 0.00125802 2.28562e-05
-5.99388e-06 2.28562e-05 -0.000298395
-6.45828e-05 -1.72038e-05 1.27555e-06
-1.72038e-05 0.000298589 1.65911e-05
1.27555e-06 1.65911e-05 -0.000128567
0.00017836 -0.000134204 -5.21582e-05
-0.000134204 0.000508046 4.69385e-06
-5.21582e-05 4.69385e-06 7.83316e-06
-0.000222508 -9.36689e-05 -6.15905e-05
-9.36689e-05 -0.000987208 2.10626e-05
-6.15905e-05 2.10626e-05 -0.000772008
0.00132922 -0.000119479 -9.49398e-05
-0.000119479 0.000227456 3.40124e-05
-9.49398e-05 3.40124e-05 -0.00140205
-0.00211141 -0.00144772 7.3047e-05
-0.00144772 -1.20933e-05 -0.000100285
7.3047e-05 -0.000100285 -0.00410354
-0.00100563 0.00183801 0.00020169
0.00183801 -0.00335186 -0.000184343
0.00020169 -0.000184343 -0.00294386
0.00272453 0.000849683 -0.000206303
0.000849683 0.00352753 0.000164182
-0.000206303 0.000164182 0.00229129
0.00153153 -0.000198717 -7.63122e-06
-0.000198717 0.000572166 -1.41399e-06
-7.63122e-06 -1.41399e-06 0.000587329
0.00151509 0.00019002 3.3183e-05
0.00019002 0.00368157 7.02815e-06
3.3183e-05 7.02815e-06 0.00216095
-0.00340884 0.00130011 2.64218e-05
0.00130011 -0.00082745 1.54102e-05
2.64218e-05 1.54102e-05 -0.00233296
0.00367211 -0.00114306 4.58956e-05
-0.00114306 0.00130005 -1.33287e-05
4.58956e-05 -1.33287e-05 0.000699864
0.011492 -0.000876866 1.60983e-05
-0.000876866 0.00367319 -1.15713e-05
1.60983e-05 -1.15713e-05 0.00174792
0.00304221 -0.000680108 -1.0333e-05
-0.000680108 0.00101116 2.35363e-05
-1.0333e-05 2.35363e-05 0.00102356
-0.00830702 0.000496944 -0.000218678
0.000496944 -0.00374509 7.86404e-06
-0.000218678 7.86404e-06 -0.00470855
0.0124302 -0.000500664 -9.68707e-05
-0.000500664 0.00317669 3.01106e-05
-9.68707e-05 3.01106e-05 0.0016221
0.00340808 -0.00126688 2.31978e-05
-0.00126688 -0.000121431 -2.588e-05
2.31978e-05 -2.588e-05 -0.000605143
0.000192741 -0.000214532 -1.31727e-05
-0.000214532 0.000106616 1.67077e-05
-1.31727e-05 1.67077e-05 -0.000180659
0.00162114 -0.000459428 -2.89143e-06
-0.000459428 0.00030935 1.41166e-06
-2.89143e-06 1.41166e-06 0.000267767
0.00319905 -0.000546912 1.07117e-05
-0.000546912 0.000955931 -4.13964e-06
1.07117e-05 -4.13964e-06 0.000867603
-0.00146955 -0.000119147 -4.90628e-06
-0.000119147 -0.00110309 1.4407e-06
-4.90628e-06 1.4407e-06 -0.00139098
0.00133667 -0.000473577 -5.30414e-06
-0.000473577 8.60937e-05 -3.33511e-06
-5.30414e-06 -3.33511e-06 -0.000183874
0.00227049 -0.000587518 3.54211e-06
-0.000587518 0.000385587 -7.76035e-07
3.54211e-06 -7.76035e-07 0.000158198
0.00135585 -0.000405573 -1.50737e-05
-0.000405573 0.000234735 -2.21431e-06
-1.50737e-05 -2.21431e-06 -0.000132175
0.00154933 -0.000498838 1.34119e-07
-0.000498838 0.000144782 2.88266e-07
1.34119e-07 2.88266e-07 -0.000159928
0.00161293 -0.000445493 4.40936e-07
-0.000445493 4.47761e-06 -5.5328e-06
4.40936e-07 -5.5328e-06 -0.00019753
0.00126497 -0.0004271 -3.96994e-06
-0.0004271 7.74501e-05 -5.50548e-07
-3.96994e-06 -5.50548e-07 -0.000262774
0.00163074 -0.00042781 -4.11738e-07
-0.00042781 0.000157218 6.42097e-07
-4.11738e-07 6.42097e-07 -9.61372e-05
0.00174968 -0.000358469 -1.79546e-06
-0.000358469 0.000100476 -5.08514e-06
-1.79546e-06 -5.08514e-06 -6.54273e-05
0.00163463 -0.000286838 -4.27454e-06
-0.000286838 4.7469e-05 -2.94315e-06
-4.27454e-06 -2.94315e-06 -9.81614e-05
0.001541 -0.000350729 -3.10162e-06
-0.000350729 6.48853e-05 -2.10751e-06
-3.10162e-06 -2.10751e-06 -0.000145919
0.00163564 -0.000351955 1.01351e-06
-0.000351955 0.000105893 1.60234e-06
1.01351e-06 1.60234e-06 -9.46269e-05
0.0014728 -0.000373264 -2.32771e-06
-0.000373264 0.000148159 -7.1783e-07
-2.32771e-06 -7.1783e-07 -9.95917e-05
0.00166089 -0.00043116 1.64659e-06
-0.00043116 0.000218979 -2.67322e-07
1.64659e-06 -2.67322e-07 -4.2881e-05
0.00163412 -0.000423288 1.6384e-06
-0.000423288 0.000215479 1.18025e-07
1.6384e-06 1.18025e-07 -4.59146e-05
0.00143913 -0.000307548 -1.47686e-06
-0.000307548 0.000271053 1.37401e-06
-1.47686e-06 1.37401e-06 4.35456e-05
0.00149813 -0.00036263 1.28748e-06
-0.00036263 0.000253493 -6.62559e-07
1.28748e-06 -6.62559e-07 -2.82875e-07
0.00168158 -0.000438772 -2.39746e-06
-0.000438772 0.000334616 -1.80347e-06
-2.39746e-06 -1.80347e-06 4.20852e-05
0.000939689 -0.000215016 -1.34534e-06
-0.000215016 0.000119865 2.82617e-06
-1.34534e-06 2.82617e-06 -7.85116e-05
0.00119059 -0.000265009 1.27359e-06
-0.000265009 0.000214509 5.23173e-07
1.27359e-06 5.23173e-07 -5.15343e-06
0.0010105 -0.000264339 -1.11252e-06
-0.000264339 8.2038e-05 -3.71942e-06
-1.11252e-06 -3.71942e-06 -0.000131731
0.000700677 -8.37878e-05 -6.08775e-07
-8.37878e-05 7.80807e-05 5.46599e-06
-6.08775e-07 5.46599e-06 -6.67527e-05
0.000975905 -0.000185984 -4.54471e-08
-0.000185984 0.000224728 -5.21763e-08
-4.54471e-08 -5.21763e-08 3.03714e-05
0.00048345 -0.000171008 -4.0694e-06
-0.000171008 -9.73975e-05 -7.2955e-07
-4.0694e-06 -7.2955e-07 -0.000301583
0.000384513 4.06912e-05 -1.00867e-07
4.06912e-05 -9.71861e-05 8.13075e-06
-1.00867e-07 8.13075e-06 -0.000142516
0.000698887 -5.1085e-05 -6.916e-07
-5.1085e-05 9.00094e-05 -5.11361e-07
-6.916e-07 -5.11361e-07 -2.79308e-05
0.00124041 -0.000127225 8.4765e-07
-0.000127225 0.000444028 -1.52753e-06
8.4765e-07 -1.52753e-06 0.000257539
0.00266474 0.000144913 -6.53727e-06
0.000144913 0.00127096 1.92954e-06
-6.53727e-06 1.92954e-06 0.00126296
0.000521179 5.16832e-05 -3.43573e-07
5.16832e-05 -2.11408e-05 -2.36068e-07
-3.43573e-07 -2.36068e-07 -5.70698e-05
0.000814089 -2.80801e-05 2.21148e-06
-2.80801e-05 0.000147549 -4.20285e-06
2.21148e-06 -4.20285e-06 6.06202e-05
0.00253561 0.000115271 3.97879e-06
0.000115271 0.00118373 3.22525e-07
3.97879e-06 3.22525e-07 0.00118467
0.000561037 5.48291e-05 -6.94992e-08
5.48291e-05 -3.72376e-06 -5.67051e-06
-6.94992e-08 -5.67051e-06 -3.36661e-05
0.00249705 0.000104295 2.88699e-05
0.000104295 0.00115408 -3.34879e-06
2.88699e-05 -3.34879e-06 0.00115765
0.000890409 0.000123925 7.22044e-07
0.000123925 0.000194043 1.93768e-06
7.22044e-07 1.93768e-06 5.66578e-05
0.000777228 7.22269e-05 2.98217e-08
7.22269e-05 0.000136304 -7.56229e-08
2.98217e-08 -7.56229e-08 1.00389e-05
0.000808562 6.20564e-05 7.01982e-08
6.20564e-05 0.000174104 -2.63145e-06
7.01982e-08 -2.63145e-06 3.87861e-05
0.000651991 5.17127e-06 -7.52302e-07
5.17127e-06 4.44952e-05 -3.68937e-06
-7.52302e-07 -3.68937e-06 -3.53146e-05
0.000718556 4.57001e-05 3.11477e-07
4.57001e-05 0.00010877 2.43146e-07
3.11477e-07 2.43146e-07 -1.01504e-05
0.000570322 6.0651e-05 9.46558e-07
6.0651e-05 1.80175e-05 1.31101e-06
9.46558e-07 1.31101e-06 -0.000107194
0.000553825 -2.40049e-05 -1.31297e-06
-2.40049e-05 -2.69356e-05 -6.0891e-06
-1.31297e-06 -6.0891e-06 -5.50737e-05
0.000625997 1.33726e-05 -3.07673e-08
1.33726e-05 2.76288e-05 -8.01328e-08
-3.07673e-08 -8.01328e-08 -4.70149e-05
0.00069308 6.02462e-05 3.07131e-07
6.02462e-05 8.73698e-05 1.50195e-06
3.07131e-07 1.50195e-06 -1.98933e-05
0.00262245 -8.23191e-05 -3.51353e-05
-8.23191e-05 0.00121181 -4.2426e-06
-3.51353e-05 -4.2426e-06 0.00122009
0.000527696 -2.25581e-05 -2.5511e-07
-2.25581e-05 -4.69319e-05 -1.00364e-07
-2.5511e-07 -1.00364e-07 -7.05016e-05
0.000618209 2.37351e-05 2.69659e-07
2.37351e-05 2.15689e-05 2.88908e-06
2.69659e-07 2.88908e-06 -4.71977e-05
0.00245924 -6.66839e-05 -4.78817e-06
-6.66839e-05 0.00110854 2.99581e-07
-4.78817e-06 2.99581e-07 0.00112
0.00053397 -2.33639e-05 -8.37052e-07
-2.33639e-05 -4.74408e-05 4.83787e-06
-8.37052e-07 4.83787e-06 -6.68095e-05
0.00231303 -5.03612e-05 2.01091e-05
-5.03612e-05 0.00101687 4.5199e-06
2.01091e-05 4.5199e-06 0.00103132
-0.0059543 0.000279662 -8.30523e-06
0.000279662 0.00139079 4.4109e-05
-8.30523e-06 4.4109e-05 -0.00151422
0.00438242 1.77885e-05 -3.69924e-06
1.77885e-05 0.00202839 5.34002e-06
-3.69924e-06 5.34002e-06 0.000854435
0.000373218 -7.47628e-05 -7.47414e-06
-7.47628e-05 -1.01684e-05 -5.53918e-06
-7.47414e-06 -5.53918e-06 2.05292e-05
0.000470885 7.28489e-05 -1.37368e-06
7.28489e-05 -6.06984e-05 1.32931e-06
-1.37368e-06 1.32931e-06 -0.000179481
0.00227287 0.000328039 -3.15575e-07
0.000328039 0.00101915 3.51424e-06
-3.15575e-07 3.51424e-06 0.00083524
0.000711768 7.53441e-05 -3.65916e-06
7.53441e-05 7.87722e-05 -3.81876e-07
-3.65916e-06 -3.81876e-07 -5.34758e-05
0.00103262 4.06806e-05 -6.38442e-07
4.06806e-05 0.00026716 -1.38392e-06
-6.38442e-07 -1.38392e-06 0.000150234
0.00133606 0.000132423 2.53189e-06
0.000132423 0.000440304 3.67169e-07
2.53189e-06 3.67169e-07 0.00031544
0.000436159 5.03733e-05 -2.1612e-06
5.03733e-05 -7.28601e-05 2.93626e-06
-2.1612e-06 2.93626e-06 -0.000188881
0.000543305 6.84833e-05 -1.14038e-06
6.84833e-05 3.15366e-05 1.21218e-06
-1.14038e-06 1.21218e-06 -0.000114771
0.00071169 8.11311e-05 -1.55689e-06
8.11311e-05 8.33825e-05 -1.84217e-06
-1.55689e-06 -1.84217e-06 -6.3318e-05
0.000935631 0.000152231 1.5509e-06
0.000152231 0.000253717 -4.39293e-06
1.5509e-06 -4.39293e-06 6.86853e-05
0.000516947 0.000224108 1.97899e-06
0.000224108 -7.58308e-05 -2.95826e-06
1.97899e-06 -2.95826e-06 -0.000185387
0.000990454 8.70168e-05 -2.62195e-06
8.70168e-05 0.000293764 4.6918e-07
-2.62195e-06 4.6918e-07 0.000149061
0.00108421 0.000144725 5.37186e-07
0.000144725 0.000391451 3.34074e-06
5.37186e-07 3.34074e-06 0.000242028
-0.0050115 -0.000964195 -0.000435
-0.000964195 -0.00102737 -1.40761e-05
-0.000435 -1.40761e-05 -0.00244186
-0.00315293 -0.000678019 0.000178405
-0.000678019 0.00161364 9.03031e-05
0.000178405 9.03031e-05 -0.000784729
0.00433956 0.000372417 -0.000154188
0.000372417 0.00202962 -7.63696e-05
-0.000154188 -7.63696e-05 -0.00116088
-0.00775233 -0.00266027 0.000615005
-0.00266027 -0.00300581 0.000480935
0.000615005 0.000480935 -0.00183629
0.0139646 -0.00157392 -5.15037e-05
-0.00157392 0.00427921 0.000145247
-5.15037e-05 0.000145247 0.00394994
-0.00148427 0.00107543 -2.95433e-06
0.00107543 0.000353215 -7.82849e-05
-2.95433e-06 -7.82849e-05 -0.00387624
0.00249973 -4.98925e-06 -0.000135933
-4.98925e-06 0.00108777 3.09697e-05
-0.000135933 3.09697e-05 0.000170319
0.00229061 0.000417766 6.56608e-07
0.000417766 0.000776693 2.45889e-05
6.56608e-07 2.45889e-05 0.000512544
0.00999453 -0.00173718 -0.000188292
-0.00173718 0.00470432 5.57719e-05
-0.000188292 5.57719e-05 0.00440924
-0.000194654 0.00113325 -1.44718e-05
0.00113325 0.00051416 -3.02152e-05
-1.44718e-05 -3.02152e-05 -0.00288026
0.00178869 0.000808584 -3.62995e-05
0.000808584 0.000329405 -6.05882e-05
-3.62995e-05 -6.05882e-05 0.000272227
0.00433824 0.00167711 -0.000192025
0.00167711 0.000202662 -0.000108429
-0.000192025 -0.000108429 -0.00214379
0.0022405 0.000648321 1.71814e-05
0.000648321 0.000621127 -2.09859e-05
1.71814e-05 -2.09859e-05 0.000383362
0.000826676 0.000300543 -4.45577e-06
0.000300543 0.000171914 5.84575e-07
-4.45577e-06 5.84575e-07 3.87696e-05
0.00120564 0.000101417 -5.98825e-06
0.000101417 0.000465187 4.40622e-06
-5.98825e-06 4.40622e-06 0.000345859
-0.00105123 0.000204634 -4.76462e-05
0.000204634 -0.000431458 -4.79538e-05
-4.76462e-05 -4.79538e-05 -0.00105464
0.00270938 0.000459927 -2.15795e-05
0.000459927 0.00137114 -1.53998e-05
-2.15795e-05 -1.53998e-05 0.00113589
0.00123705 0.000629896 1.34994e-05
0.000629896 0.000159981 -3.95334e-06
1.34994e-05 -3.95334e-06 -0.000192377
0.00310994 0.00100282 0.000103233
0.00100282 0.000476835 3.29184e-05
0.000103233 3.29184e-05 0.000342173
-0.00476222 -9.55475e-05 -0.000293204
-9.55475e-05 -0.0038054 4.5749e-06
-0.000293204 4.5749e-06 -0.00263654
-0.00341922 0.000192751 0.000141103
0.000192751 0.00272976 2.53507e-06
0.000141103 2.53507e-06 -9.81556e-05
0.00215867 -5.49385e-05 -7.21002e-05
-5.49385e-05 0.00136496 2.99925e-05
-7.21002e-05 2.99925e-05 0.000162653
0.00250876 -0.000309084 -5.77869e-05
-0.000309084 0.000921857 -3.74661e-05
-5.77869e-05 -3.74661e-05 0.000920194
0.00144481 -0.000973383 -2.08553e-05
-0.000973383 -4.97159e-05 1.62498e-05
-2.08553e-05 1.62498e-05 -0.000467461
0.00157913 0.000138713 -2.00621e-05
0.000138713 0.00363665 3.29689e-05
-2.00621e-05 3.29689e-05 0.00225355
0.00279531 -0.000989071 0.000179736
-0.000989071 8.17236e-05 -0.000131861
0.000179736 -0.000131861 -0.00241197
0.011021 0.00126459 0.000153371
0.00126459 0.00516542 -1.9417e-06
0.000153371 -1.9417e-06 0.00425654
0.00267256 -0.000802922 -2.10556e-05
-0.000802922 0.000662039 7.66464e-06
-2.10556e-05 7.66464e-06 0.000516025
-0.000479228 0.000595494 8.67548e-05
0.000595494 -0.000455506 -2.1526e-05
8.67548e-05 -2.1526e-05 -0.00108698
0.00492535 -0.00046674 -5.79386e-05
-0.00046674 -0.000497175 5.87545e-05
-5.79386e-05 5.87545e-05 -0.00265733
0.00578381 -0.00140569 -3.45481e-05
-0.00140569 0.00114771 1.57843e-05
-3.45481e-05 1.57843e-05 0.000619415
0.00122149 -0.000543964 4.47599e-05
-0.000543964 -0.000105837 -1.15746e-05
4.47599e-05 -1.15746e-05 -0.000302071
0.0103927 -0.000465255 1.06023e-05
-0.000465255 0.00245721 -2.84275e-05
1.06023e-05 -2.84275e-05 0.000944303
0.00373231 -0.000745112 7.37112e-05
-0.000745112 -0.000593769 -4.30278e-05
7.37112e-05 -4.30278e-05 -0.000449076
-0.000761405 -0.000279305 -2.32856e-05
-0.000279305 -0.00103808 9.69159e-06
-2.32856e-05 9.69159e-06 -0.000981346
0.000442062 -0.00035949 -9.73035e-06
-0.00035949 -0.000542474 -1.16577e-06
-9.73035e-06 -1.16577e-06 -0.000566049
0.00350439 -0.000581805 3.12212e-05
-0.000581805 0.000897223 -1.78008e-05
3.12212e-05 -1.78008e-05 0.000843719
0.000436593 -0.0003795 -1.41516e-05
-0.0003795 -0.000350451 -7.48352e-06
-1.41516e-05 -7.48352e-06 -0.000621459
0.00174071 -0.00053579 -4.15908e-08
-0.00053579 0.000118026 -5.52931e-07
-4.15908e-08 -5.52931e-07 -9.69432e-05
0.00216968 -0.000488064 -9.79117e-07
-0.000488064 0.000167922 -7.80864e-07
-9.79117e-07 -7.80864e-07 2.99702e-05
0.00150862 -0.000484845 -2.56415e-06
-0.000484845 0.00012904 3.91102e-06
-2.56415e-06 3.91102e-06 -0.000178784
0.00184073 -0.000460976 -2.05069e-06
-0.000460976 0.000127539 6.73906e-07
-2.05069e-06 6.73906e-07 -7.87152e-05
0.00187596 -0.00035932 -2.70787e-07
-0.00035932 6.5343e-05 -1.05719e-06
-2.70787e-07 -1.05719e-06 -5.85222e-05
0.00126652 -0.000392176 3.95372e-06
-0.000392176 -4.31239e-05 4.35527e-06
3.95372e-06 4.35527e-06 -0.000289728
0.001723 -0.000350042 -1.26935e-07
-0.000350042 9.30634e-05 9.23757e-07
-1.26935e-07 9.23757e-07 -7.10138e-05
0.00178984 -0.000296124 -3.5309e-06
-0.000296124 7.8906e-05 -1.26912e-06
-3.5309e-06 -1.26912e-06 -3.47596e-05
0.00197149 -0.000280229 -2.82034e-06
-0.000280229 0.000248517 -4.98016e-07
-2.82034e-06 -4.98016e-07 0.000131451
0.00171097 -0.000289113 -2.51213e-06
-0.000289113 8.74135e-05 3.13822e-06
-2.51213e-06 3.13822e-06 -5.36713e-05
0.00175263 -0.000303163 -1.46757e-06
-0.000303163 0.000150135 -5.41813e-06
-1.46757e-06 -5.41813e-06 -1.05745e-05
0.00167269 -0.000349212 -4.07881e-06
-0.000349212 0.000178784 -1.87697e-06
-4.07881e-06 -1.87697e-06 -3.49882e-05
0.00167746 -0.000359957 1.22424e-06
-0.000359957 0.000144157 4.36924e-07
1.22424e-06 4.36924e-07 -6.7403e-05
0.00159148 -0.00034071 3.5462e-06
-0.00034071 8.64628e-05 5.80591e-06
3.5462e-06 5.80591e-06 -0.000108823
0.00147138 -0.000322731 -6.29512e-06
-0.000322731 0.000211185 1.78802e-06
-6.29512e-06 1.78802e-06 -1.5592e-05
0.00146282 -0.000373135 -4.36296e-07
-0.000373135 0.000138563 2.75024e-07
-4.36296e-07 2.75024e-07 -0.000109105
0.00171437 -0.000430649 2.35381e-06
-0.000430649 0.000259202 4.08901e-07
2.35381e-06 4.08901e-07 -2.60262e-07
0.00113389 -0.000242082 -4.19688e-06
-0.000242082 0.00015364 3.49024e-06
-4.19688e-06 3.49024e-06 -5.15982e-05
0.0013082 -0.000297199 1.93013e-07
-0.000297199 0.0001916 2.53981e-07
1.93013e-07 2.53981e-07 -3.50682e-05
0.00130214 -0.000347451 2.21972e-06
-0.000347451 0.000141671 -2.34827e-06
2.21972e-06 -2.34827e-06 -0.000109008
0.000806505 -0.000151818 -5.34072e-06
-0.000151818 0.000101756 5.00144e-06
-5.34072e-06 5.00144e-06 -6.11992e-05
0.00108938 -0.00022871 9.13684e-07
-0.00022871 0.000208159 -2.41462e-07
9.13684e-07 -2.41462e-07 7.26202e-06
0.00100929 -0.000248158 1.17317e-06
-0.000248158 0.000102432 -1.63578e-06
1.17317e-06 -1.63578e-06 -0.000113971
0.000364288 -1.40618e-05 -5.52999e-06
-1.40618e-05 -0.000127243 1.09968e-05
-5.52999e-06 1.09968e-05 -0.000182281
0.00071042 -0.000109804 5.24174e-07
-0.000109804 8.74269e-05 6.37048e-07
5.24174e-07 6.37048e-07 -6.44205e-05
0.00130567 -0.00020571 2.89961e-07
-0.00020571 0.000419203 -1.36025e-06
2.89961e-07 -1.36025e-06 0.000219024
0.00304034 0.000152756 -4.91682e-05
0.000152756 0.00149814 2.39989e-06
-4.91682e-05 2.39989e-06 0.00148914
0.000528663 2.61487e-05 -2.42945e-07
2.61487e-05 -1.76562e-05 -6.29034e-07
-2.42945e-07 -6.29034e-07 -6.21542e-05
0.00102691 -9.95097e-05 2.37301e-06
-9.95097e-05 0.000285591 -5.02644e-06
2.37301e-06 -5.02644e-06 0.000160307
0.00181898 0.000103005 2.35704e-05
0.000103005 0.000761243 3.83729e-07
2.35704e-05 3.83729e-07 0.000754373
0.000614072 4.47627e-05 1.59313e-06
4.47627e-05 3.16948e-05 -6.82869e-06
1.59313e-06 -6.82869e-06 -3.41298e-06
0.00263949 0.000117683 3.89411e-05
0.000117683 0.00124573 -2.76138e-06
3.89411e-05 -2.76138e-06 0.00124629
0.000902336 0.000135175 3.40736e-06
0.000135175 0.000178769 8.66815e-07
3.40736e-06 8.66815e-07 4.31007e-05
0.00057315 7.29964e-05 -1.92132e-07
7.29964e-05 9.51836e-07 2.44866e-07
-1.92132e-07 2.44866e-07 -0.000122918
0.000646265 5.02839e-05 -4.29731e-07
5.02839e-05 5.50248e-05 -1.56166e-06
-4.29731e-07 -1.56166e-06 -7.08281e-05
0.000919364 9.48712e-05 6.06669e-07
9.48712e-05 0.00022375 6.08713e-07
6.06669e-07 6.08713e-07 9.19499e-05
0.000708738 3.79173e-05 2.10202e-07
3.79173e-05 9.48098e-05 5.58158e-08
2.10202e-07 5.58158e-08 -2.47462e-05
0.000665536 8.92708e-06 -1.14633e-06
8.92708e-06 5.42185e-05 -4.3764e-06
-1.14633e-06 -4.3764e-06 -3.24523e-05
0.000562505 -2.52484e-05 -1.99167e-06
-2.52484e-05 -1.55864e-05 -6.90639e-06
-1.99167e-06 -6.90639e-06 -4.8042e-05
0.000619269 5.99617e-06 2.35902e-07
5.99617e-06 2.64839e-05 -7.29525e-08
2.35902e-07 -7.29525e-08 -5.39445e-05
0.000638505 1.81717e-05 -3.13475e-07
1.81717e-05 4.12334e-05 1.8204e-06
-3.13475e-07 1.8204e-06 -6.25785e-05
0.00272552 -9.58102e-05 -4.39825e-05
-9.58102e-05 0.00127973 -3.91876e-06
-4.39825e-05 -3.91876e-06 0.00128521
0.000524685 -2.09433e-05 -1.00459e-07
-2.09433e-05 -4.36287e-05 -7.89787e-08
-1.00459e-07 -7.89787e-08 -7.14738e-05
0.000602384 1.77782e-05 6.69815e-07
1.77782e-05 1.70828e-05 3.14325e-06
6.69815e-07 3.14325e-06 -5.89508e-05
0.00259002 -8.17638e-05 -5.09647e-06
-8.17638e-05 0.00119197 3.42952e-07
-5.09647e-06 3.42952e-07 0.00120041
0.00051574 -2.64789e-05 -2.61522e-07
-2.64789e-05 -5.37806e-05 5.44947e-06
-2.61522e-07 5.44947e-06 -7.73996e-05
0.00246252 -6.60171e-05 2.51256e-05
-6.60171e-05 0.00111005 4.4464e-06
2.51256e-05 4.4464e-06 0.00112164
0.000110243 0.000321332 -0.000237581
0.000321332 0.00178379 2.26835e-05
-0.000237581 2.26835e-05 0.00060924
-0.00285187 7.59684e-06 1.52417e-05
7.59684e-06 0.00202458 1.40759e-05
1.52417e-05 1.40759e-05 -0.000890433
0.00412001 -3.54113e-05 -7.293e-05
-3.54113e-05 0.00215373 -7.94062e-06
-7.293e-05 -7.94062e-06 0.000969684
0.000474106 4.35412e-05 2.58265e-06
4.35412e-05 -6.25697e-05 -2.01347e-06
2.58265e-06 -2.01347e-06 -0.000175592
0.000628883 5.12287e-05 2.52757e-06
5.12287e-05 2.61192e-05 9.72801e-07
2.52757e-06 9.72801e-07 -0.000110015
0.00157446 0.000256073 -1.49604e-06
0.000256073 0.000611575 9.54905e-07
-1.49604e-06 9.54905e-07 0.000444411
0.00138222 0.000288781 3.22026e-06
0.000288781 0.000410541 -2.2396e-06
3.22026e-06 -2.2396e-06 0.00019418
0.00105343 0.000200674 -6.62722e-06
0.000200674 0.000330234 -5.62082e-07
-6.62722e-06 -5.62082e-07 0.000153666
0.000909201 0.000118565 7.40763e-07
0.000118565 0.000249319 3.20395e-06
7.40763e-07 3.20395e-06 9.51637e-05
0.000786807 0.000101018 4.65239e-06
0.000101018 0.000136457 3.20776e-06
4.65239e-06 3.20776e-06 -9.75335e-06
0.000601568 0.00015502 -4.55816e-06
0.00015502 7.0296e-05 -3.41057e-06
-4.55816e-06 -3.41057e-06 -0.000108697
-0.000451671 0.000134468 3.20335e-07
0.000134468 -0.000602797 -5.72215e-07
3.20335e-07 -5.72215e-07 -0.000780519
0.00157344 0.000330821 3.16288e-06
0.000330821 0.000452238 -2.5057e-06
3.16288e-06 -2.5057e-06 0.000323674
0.00204416 0.000550689 4.25412e-06
0.000550689 0.000435928 -8.17838e-06
4.25412e-06 -8.17838e-06 0.000229488
0.000784436 0.000252588 -5.93873e-06
0.000252588 9.12507e-05 -6.09953e-07
-5.93873e-06 -6.09953e-07 -2.98352e-05
0.000706442 0.000101647 -1.32917e-06
0.000101647 0.00012379 -2.45841e-06
-1.32917e-06 -2.45841e-06 -1.30493e-05
0.0113497 0.000916037 -9.75448e-05
0.000916037 0.00273212 3.82856e-05
-9.75448e-05 3.82856e-05 0.00127166
-0.000130815 -0.000767557 -0.000205695
-0.000767557 0.00214237 -6.98085e-05
-0.000205695 -6.98085e-05 0.000635967
-0.00133492 -0.0010868 0.000117924
-0.0010868 0.00165032 -1.96381e-06
0.000117924 -1.96381e-06 -0.000774513
-0.00124346 -0.000962934 3.83428e-05
-0.000962934 -0.000214078 0.000163984
3.83428e-05 0.000163984 -0.000578469
0.0112217 0.00124843 -1.55905e-06
0.00124843 0.00495179 1.42769e-06
-1.55905e-06 1.42769e-06 0.00168235
3.16473e-05 0.000305262 -3.16556e-05
0.000305262 -0.000325616 -2.54863e-05
-3.16556e-05 -2.54863e-05 -0.000493539
0.0015977 0.000762292 -2.32152e-05
0.000762292 0.000311881 -1.1948e-05
-2.32152e-05 -1.1948e-05 0.000258209
0.0107041 0.00111404 2.59353e-05
0.00111404 0.00340326 2.31895e-05
2.59353e-05 2.31895e-05 0.00142145
0.00581096 0.00156881 -4.35201e-05
0.00156881 0.000899112 -5.01084e-05
-4.35201e-05 -5.01084e-05 0.000489861
0.00166036 0.000663955 3.13174e-06
0.000663955 0.000166674 -6.58399e-06
3.13174e-06 -6.58399e-06 -6.97076e-06
0.00110403 0.000495071 5.92666e-06
0.000495071 0.000147634 -7.10762e-07
5.92666e-06 -7.10762e-07 -7.41749e-05
0.000885341 0.00027554 -1.73247e-05
0.00027554 0.000220388 1.75685e-05
-1.73247e-05 1.75685e-05 9.72861e-05
0.00270324 0.000800131 -4.61276e-05
0.000800131 0.000790024 -1.9959e-05
-4.61276e-05 -1.9959e-05 0.00045209
0.00208691 0.000913905 4.06203e-07
0.000913905 -0.000154865 1.95364e-05
4.06203e-07 1.95364e-05 -0.000294468
0.000973636 -0.00035248 -3.67156e-05
-0.00035248 -0.00322981 2.1356e-05
-3.67156e-05 2.1356e-05 -0.00345832
0.00213028 -0.00051406 -6.64224e-07
-0.00051406 0.00127673 -2.26039e-05
-6.64224e-07 -2.26039e-05 0.00135544
-0.00562843 2.93348e-05 0.000165845
2.93348e-05 0.00216979 -4.86695e-06
0.000165845 -4.86695e-06 -0.000824746
0.00192137 -0.000838438 -3.18685e-05
-0.000838438 0.000182529 7.77473e-06
-3.18685e-05 7.77473e-06 -6.0781e-05
0.00333136 -0.00125634 3.02574e-05
-0.00125634 0.000519053 -4.88635e-06
3.02574e-05 -4.88635e-06 -0.00031313
0.00123453 -0.000297365 0.000272189
-0.000297365 0.00207937 -2.01404e-05
0.000272189 -2.01404e-05 0.00111918
0.0127411 -0.000577761 -0.000142899
-0.000577761 0.0035555 6.8479e-05
-0.000142899 6.8479e-05 0.00194746
0.000977888 -0.000554796 -2.82159e-05
-0.000554796 -0.000267798 -3.61968e-06
-2.82159e-05 -3.61968e-06 -0.000412838
0.00876855 5.47958e-05 -6.70074e-05
5.47958e-05 0.00103874 3.0509e-05
-6.70074e-05 3.0509e-05 -1.75258e-05
0.00474962 -0.000817971 7.79171e-05
-0.000817971 -0.000115199 6.14777e-06
7.79171e-05 6.14777e-06 -0.00036264
0.00364095 -0.000576744 5.42364e-05
-0.000576744 0.00102283 -1.30844e-05
5.42364e-05 -1.30844e-05 0.000708532
0.00334334 -0.000300004 -9.20804e-05
-0.000300004 -9.34834e-05 6.73894e-06
-9.20804e-05 6.73894e-06 -3.17094e-05
-0.00185274 -0.000216463 -1.44153e-05
-0.000216463 -0.00181167 3.93201e-06
-1.44153e-05 3.93201e-06 -0.00177134
0.00152595 -0.000462166 -6.74678e-07
-0.000462166 -0.000158009 -5.99918e-07
-6.74678e-07 -5.99918e-07 -0.000183634
0.00241742 -0.000407337 1.71723e-05
-0.000407337 0.000177702 -9.44025e-06
1.71723e-05 -9.44025e-06 0.000210666
0.00119488 -0.000486302 -2.46342e-06
-0.000486302 -0.000156305 2.93286e-06
-2.46342e-06 2.93286e-06 -0.000361093
0.00181291 -0.000452619 -2.00722e-06
-0.000452619 -2.43755e-07 5.25887e-07
-2.00722e-06 5.25887e-07 -0.000134732
0.00202168 -0.00035634 1.76895e-06
-0.00035634 1.45824e-05 1.02755e-06
1.76895e-06 1.02755e-06 -3.65769e-05
0.00187348 -0.000460422 -4.09873e-06
-0.000460422 0.000148735 6.25138e-06
-4.09873e-06 6.25138e-06 -5.98698e-05
0.00186635 -0.00035804 3.60871e-07
-0.00035804 6.06117e-05 1.72624e-06
3.60871e-07 1.72624e-06 -6.15328e-05
0.00185977 -0.000316991 -4.80087e-07
-0.000316991 6.22322e-05 1.91484e-06
-4.80087e-07 1.91484e-06 -2.34991e-05
0.00168893 -0.000342264 3.8314e-06
-0.000342264 8.00462e-05 5.54794e-06
3.8314e-06 5.54794e-06 -8.24081e-05
0.00176781 -0.000297789 -4.14249e-07
-0.000297789 6.48255e-05 1.38717e-06
-4.14249e-07 1.38717e-06 -4.9888e-05
0.0020102 -0.000301193 -1.12443e-06
-0.000301193 0.000217698 5.17146e-07
-1.12443e-06 5.17146e-07 0.00011472
0.00183745 -0.000274975 -3.98909e-06
-0.000274975 0.000161479 3.48111e-06
-3.98909e-06 3.48111e-06 4.81048e-05
0.0018699 -0.000286294 1.39587e-06
-0.000286294 0.000210638 -3.10783e-06
1.39587e-06 -3.10783e-06 7.96987e-05
0.00178742 -0.000291938 2.8163e-06
-0.000291938 0.000127532 7.7471e-06
2.8163e-06 7.7471e-06 -9.16261e-06
0.00175627 -0.000304602 3.34476e-07
-0.000304602 0.000151308 -8.08791e-07
3.34476e-07 -8.08791e-07 -1.00349e-05
0.00168936 -0.000302021 -1.53632e-06
-0.000302021 0.000147165 -3.29322e-06
-1.53632e-06 -3.29322e-06 -3.07423e-05
0.00156931 -0.000311574 -5.26318e-06
-0.000311574 0.000188708 -6.12779e-07
-5.26318e-06 -6.12779e-07 -2.11646e-05
0.00171442 -0.000352868 3.01307e-07
-0.000352868 0.000204601 -3.13113e-07
3.01307e-07 -3.13113e-07 -1.04473e-05
0.00180901 -0.000368984 4.10933e-06
-0.000368984 0.00022116 2.71332e-06
4.10933e-06 2.71332e-06 8.84211e-06
0.00113167 -0.000239034 -7.02332e-06
-0.000239034 8.10505e-05 2.46943e-06
-7.02332e-06 2.46943e-06 -0.00011615
0.00136168 -0.000312346 -8.91839e-07
-0.000312346 0.000149071 2.98697e-07
-8.91839e-07 2.98697e-07 -7.66065e-05
0.00144461 -0.000371834 2.68306e-06
-0.000371834 0.000124407 3.95167e-07
2.68306e-06 3.95167e-07 -0.000122927
0.00081918 -0.000166393 -7.28312e-06
-0.000166393 4.17582e-05 6.50649e-06
-7.28312e-06 6.50649e-06 -0.000122767
0.00113408 -0.000242089 8.5676e-07
-0.000242089 0.000152809 4.65149e-07
8.5676e-07 4.65149e-07 -5.25564e-05
0.00111956 -0.000280269 3.02009e-06
-0.000280269 8.03649e-05 -1.50027e-06
3.02009e-06 -1.50027e-06 -0.000144056
0.000397314 -8.52694e-05 -1.52921e-05
-8.52694e-05 -0.000133867 1.2879e-05
-1.52921e-05 1.2879e-05 -0.000200853
0.000789529 -0.00016516 -4.86992e-07
-0.00016516 9.11368e-05 2.99385e-07
-4.86992e-07 2.99385e-07 -7.36261e-05
0.00114214 -0.000228792 1.84686e-06
-0.000228792 0.000239545 -2.02739e-06
1.84686e-06 -2.02739e-06 3.92564e-05
0.00372376 0.000171781 -7.83268e-05
0.000171781 0.00190672 2.77073e-06
-7.83268e-05 2.77073e-06 0.00189329
0.000544783 -3.38402e-05 1.14683e-06
-3.38402e-05 -2.471e-05 -3.58899e-07
1.14683e-06 -3.58899e-07 -8.12108e-05
0.00086508 -0.000157003 4.85544e-06
-0.000157003 0.000179856 -4.68435e-06
4.85544e-06 -4.68435e-06 2.13306e-05
0.00324676 0.000143999 9.32673e-06
0.000143999 0.00161708 3.87088e-07
9.32673e-06 3.87088e-07 0.00161107
0.000677913 8.3327e-06 6.32765e-06
8.3327e-06 6.50726e-05 -9.12234e-06
6.32765e-06 -9.12234e-06 2.08636e-05
0.0029012 0.000124928 6.08078e-05
0.000124928 0.00140548 -2.15637e-06
6.08078e-05 -2.15637e-06 0.00140477
0.00118628 0.000244122 4.29806e-06
0.000244122 0.000297555 -4.20341e-06
4.29806e-06 -4.20341e-06 9.65289e-05
0.000842357 0.000159595 1.19204e-06
0.000159595 0.000152933 -1.60117e-07
1.19204e-06 -1.60117e-07 8.98307e-06
0.000415896 5.64297e-05 4.48242e-07
5.64297e-05 -9.09198e-05 -7.89873e-07
4.48242e-07 -7.89873e-07 -0.000222551
0.000253806 3.31935e-05 -4.01458e-08
3.31935e-05 -0.000186618 -5.48164e-07
-4.01458e-08 -5.48164e-07 -0.000302202
0.000515718 2.3042e-05 -3.04889e-07
2.3042e-05 -2.55487e-05 6.74575e-07
-3.04889e-07 6.74575e-07 -0.00014792
0.000664331 1.61264e-05 -1.46104e-06
1.61264e-05 5.27134e-05 -4.49803e-06
-1.46104e-06 -4.49803e-06 -4.30685e-05
0.00061082 1.63851e-05 2.15952e-07
1.63851e-05 2.73349e-05 2.10333e-06
2.15952e-07 2.10333e-06 -8.37614e-05
0.00061102 2.3089e-06 3.21003e-07
2.3089e-06 2.38997e-05 -2.1675e-07
3.21003e-07 -2.1675e-07 -6.28631e-05
0.000567002 -2.79939e-05 -2.49866e-06
-2.79939e-05 -6.3851e-06 -7.75293e-06
-2.49866e-06 -7.75293e-06 -4.31373e-05
0.00286042 -0.000110337 -5.28423e-05
-0.000110337 0.00136843 -3.45075e-06
-5.28423e-05 -3.45075e-06 0.00137065
0.000518777 -2.30776e-05 1.32882e-07
-2.30776e-05 -4.13846e-05 -2.8491e-08
1.32882e-07 -2.8491e-08 -7.34449e-05
0.00058337 7.18037e-06 1.08653e-06
7.18037e-06 6.47604e-06 3.77629e-06
1.08653e-06 3.77629e-06 -7.43561e-05
0.0027393 -9.69054e-05 -5.46611e-06
-9.69054e-05 0.0012877 4.20711e-07
-5.46611e-06 4.20711e-07 0.00129285
0.000493304 -2.07837e-05 1.12401e-06
-2.07837e-05 -6.15664e-05 6.05418e-06
1.12401e-06 6.05418e-06 -8.92736e-05
0.00256854 -8.1034e-05 3.11203e-05
-8.1034e-05 0.00117843 4.28948e-06
3.11203e-05 4.28948e-06 0.00118709
0.0116148 0.00053774 0.000212668
0.00053774 0.00265402 5.87766e-05
0.000212668 5.87766e-05 0.0017504
-0.00328414 -0.000991974 -0.000147127
-0.000991974 -0.0025233 -2.07651e-05
-0.000147127 -2.07651e-05 -0.00284143
-0.00572674 0.000449091 -7.69859e-05
0.000449091 0.000820065 -4.19377e-05
-7.69859e-05 -4.19377e-05 -0.00266894
0.000622219 2.75781e-05 1.0197e-05
2.75781e-05 1.597e-05 1.40246e-06
1.0197e-05 1.40246e-06 -0.000123099
0.000955505 0.000198029 -3.68737e-06
0.000198029 0.000249753 1.17254e-06
-3.68737e-06 1.17254e-06 9.79198e-05
0.00134183 0.000222584 -4.18505e-07
0.000222584 0.00048519 -9.47352e-07
-4.18505e-07 -9.47352e-07 0.00030598
0.00136913 0.000284752 -4.30703e-06
0.000284752 0.000412459 1.18431e-06
-4.30703e-06 1.18431e-06 0.000198517
0.000873444 0.000279026 1.35357e-05
0.000279026 -2.55081e-05 1.7484e-06
1.35357e-05 1.7484e-06 -0.000264503
0.000148426 0.000181436 4.70643e-07
0.000181436 -0.000261181 -2.54005e-06
4.70643e-07 -2.54005e-06 -0.000448349
0.000317814 0.000142611 -3.04909e-06
0.000142611 -7.89599e-05 -2.59278e-06
-3.04909e-06 -2.59278e-06 -0.000253967
0.000300113 0.000214598 1.2574e-06
0.000214598 -0.000195096 1.79359e-06
1.2574e-06 1.79359e-06 -0.000396879
0.00108708 0.000302452 2.60935e-07
0.000302452 0.000195241 8.23117e-07
2.60935e-07 8.23117e-07 6.19869e-05
0.000747831 0.00032724 5.56309e-06
0.00032724 -0.000105125 1.92602e-06
5.56309e-06 1.92602e-06 -0.000294617
0.00322537 0.000613427 -3.08507e-06
0.000613427 0.00105911 -3.23565e-06
-3.08507e-06 -3.23565e-06 0.000871026
0.00206463 0.00058048 -4.18391e-06
0.00058048 0.00036546 5.19748e-06
-4.18391e-06 5.19748e-06 0.000173871
0.00145549 0.000498006 3.88994e-06
0.000498006 0.000132722 -3.19154e-06
3.88994e-06 -3.19154e-06 -5.42281e-05
0.000341878 0.000234749 -2.80498e-06
0.000234749 -0.000146437 1.9938e-06
-2.80498e-06 1.9938e-06 -0.000272296
0.00578377 0.000709857 -1.5138e-05
0.000709857 0.00031965 1.02477e-05
-1.5138e-05 1.02477e-05 0.000608605
0.00982228 0.000777389 0.000103589
0.000777389 0.00186895 5.2672e-05
0.000103589 5.2672e-05 0.000266661
0.00563457 -0.0015318 0.000112843
-0.0015318 0.00318781 -5.74908e-05
0.000112843 -5.74908e-05 0.00231686
0.00382602 0.0015435 0.000349595
0.0015435 -7.61544e-05 0.000166155
0.000349595 0.000166155 -0.00350453
0.000985071 0.000615529 -4.8206e-05
0.000615529 0.000108729 -3.67921e-06
-4.8206e-05 -3.67921e-06 0.000250083
0.00339295 0.00119949 -8.8264e-05
0.00119949 -8.10181e-05 -2.67702e-05
-8.8264e-05 -2.67702e-05 -0.000224637
0.00400563 0.00098811 4.28696e-05
0.00098811 0.000709493 2.04921e-05
4.28696e-05 2.04921e-05 0.000657973
0.00309621 0.00079943 9.34852e-06
0.00079943 0.000801173 6.09097e-06
9.34852e-06 6.09097e-06 0.000624613
0.000628328 0.000424475 -1.05073e-05
0.000424475 -5.1593e-05 1.85829e-05
-1.05073e-05 1.85829e-05 -0.00025698
0.00417491 0.00109907 -0.000125583
0.00109907 0.000828176 -2.72824e-05
-0.000125583 -2.72824e-05 0.000620526
0.00288984 -0.000232758 -5.86569e-05
-0.000232758 0.000344176 8.09935e-06
-5.86569e-05 8.09935e-06 0.000157615
0.0101136 -0.000302075 -1.22557e-05
-0.000302075 0.00253818 5.31325e-06
-1.22557e-05 5.31325e-06 0.00195322
-0.00954357 -0.000746939 0.000330852
-0.000746939 -0.00537432 -7.22607e-06
0.000330852 -7.22607e-06 -0.00500541
0.000377741 -0.000520966 -4.88789e-05
-0.000520966 -0.000659639 1.04322e-05
-4.88789e-05 1.04322e-05 -0.000745987
0.00705914 -0.00106486 0.000112821
-0.00106486 0.000950555 3.32172e-05
0.000112821 3.32172e-05 0.000825344
0.00144767 -0.00037319 -2.60575e-05
-0.00037319 -0.00222992 5.94973e-05
-2.60575e-05 5.94973e-05 -0.00375118
0.00158351 -0.000416527 1.71037e-05
-0.000416527 -0.000135389 1.33237e-06
1.71037e-05 1.33237e-06 -0.000270881
0.00290831 -0.000177156 -8.4213e-06
-0.000177156 -0.000373531 4.98876e-06
-8.4213e-06 4.98876e-06 -0.000391443
0.00431527 -0.000423151 2.36912e-05
-0.000423151 0.00101334 -1.05988e-05
2.36912e-05 -1.05988e-05 0.00110424
0.00367646 -0.000110581 7.05156e-05
-0.000110581 0.000862656 1.78878e-06
7.05156e-05 1.78878e-06 0.000822113
-0.000414281 -0.00035507 -8.07258e-06
-0.00035507 -0.00120065 7.57295e-06
-8.07258e-06 7.57295e-06 -0.00119129
0.00179063 -0.000378695 -3.14418e-07
-0.000378695 -0.000160015 5.14154e-07
-3.14418e-07 5.14154e-07 -0.000116294
0.00183743 -0.000265468 1.42333e-05
-0.000265468 -0.000200466 -3.00083e-06
1.42333e-05 -3.00083e-06 -8.20353e-05
0.00155831 -0.00042635 -1.13941e-08
-0.00042635 -0.000122197 1.98924e-06
-1.13941e-08 1.98924e-06 -0.000253963
0.00197018 -0.000355462 1.70637e-06
-0.000355462 -9.74071e-06 7.47265e-07
1.70637e-06 7.47265e-07 -6.18322e-05
0.00191224 -0.000292399 8.01141e-07
-0.000292399 3.05914e-05 9.44967e-07
8.01141e-07 9.44967e-07 5.19123e-06
0.00185979 -0.000356212 3.88525e-06
-0.000356212 5.73684e-05 3.75722e-06
3.88525e-06 3.75722e-06 -6.26951e-05
0.00186486 -0.000313938 7.69256e-07
-0.000313938 7.3089e-05 3.20787e-07
7.69256e-07 3.20787e-07 -1.18093e-05
0.00194284 -0.000283056 -2.56537e-06
-0.000283056 0.000134192 1.66229e-06
-2.56537e-06 1.66229e-06 5.48531e-05
0.00175027 -0.000299113 4.2664e-06
-0.000299113 5.37893e-05 3.4493e-06
4.2664e-06 3.4493e-06 -6.1814e-05
0.00184088 -0.00029404 2.96256e-07
-0.00029404 0.000127022 5.0769e-07
2.96256e-07 5.0769e-07 2.39505e-05
0.00170168 -0.000274482 2.95532e-06
-0.000274482 8.13514e-05 -1.50562e-06
2.95532e-06 -1.50562e-06 -3.14983e-05
0.00170513 -0.00026984 -1.93528e-06
-0.00026984 7.5578e-05 6.88571e-06
-1.93528e-06 6.88571e-06 -3.41512e-05
0.00188854 -0.000283664 -2.20575e-06
-0.000283664 0.000218728 1.41296e-07
-2.20575e-06 1.41296e-07 9.15012e-05
0.00181015 -0.000279917 5.51475e-07
-0.000279917 0.000200107 -1.99309e-06
5.51475e-07 -1.99309e-06 4.66127e-05
0.00175974 -0.000305487 2.49896e-06
-0.000305487 0.000152276 3.69048e-06
2.49896e-06 3.69048e-06 -9.54122e-06
0.00173013 -0.00030536 5.29253e-07
-0.00030536 0.000172717 -6.18464e-07
5.29253e-07 -6.18464e-07 -6.33172e-06
0.00171801 -0.000283726 -2.11996e-06
-0.000283726 0.000228732 -1.45817e-06
-2.11996e-06 -1.45817e-06 4.35232e-05
0.00112934 -0.000227388 -8.9603e-06
-0.000227388 2.59469e-05 2.38532e-06
-8.9603e-06 2.38532e-06 -0.000161231
0.00158165 -0.000312946 -9.26229e-07
-0.000312946 0.000199849 -2.97632e-07
-9.26229e-07 -2.97632e-07 -1.10289e-05
0.00175221 -0.000356 3.98852e-06
-0.000356 0.000228513 8.96678e-07
3.98852e-06 8.96678e-07 1.22745e-05
0.000929877 -0.000180718 -1.05814e-05
-0.000180718 4.47614e-05 6.39678e-06
-1.05814e-05 6.39678e-06 -0.000117056
0.00118496 -0.000244281 -1.97259e-07
-0.000244281 0.000107638 2.44197e-07
-1.97259e-07 2.44197e-07 -9.05187e-05
0.00128258 -0.000305188 1.94977e-06
-0.000305188 0.00010342 -4.65484e-07
1.94977e-06 -4.65484e-07 -0.00012179
0.000438301 -0.000116468 -1.82773e-05
-0.000116468 -0.000131864 1.38602e-05
-1.82773e-05 1.38602e-05 -0.000209538
0.000845018 -0.000172696 5.76087e-07
-0.000172696 5.9264e-05 4.45815e-07
5.76087e-07 4.45815e-07 -0.000106639
0.00115046 -0.000243801 6.07742e-06
-0.000243801 0.000160757 -2.34388e-06
6.07742e-06 -2.34388e-06 -4.499e-05
0.00450056 0.000182649 -0.000118187
0.000182649 0.0023698 5.52692e-06
-0.000118187 5.52692e-06 0.0023526
0.000566838 -9.06596e-05 1.19847e-07
-9.06596e-05 -3.43226e-05 -3.01507e-07
1.19847e-07 -3.01507e-07 -0.000105046
0.00078889 -0.000178818 6.71133e-06
-0.000178818 8.82784e-05 -5.97035e-06
6.71133e-06 -5.97035e-06 -7.75931e-05
0.00395408 0.000143537 9.1398e-06
0.000143537 0.00203696 4.45978e-07
9.1398e-06 4.45978e-07 0.00203021
0.000712966 -4.3439e-05 1.17176e-05
-4.3439e-05 7.14013e-05 -1.11362e-05
1.17176e-05 -1.11362e-05 1.35261e-05
0.00342867 0.000111904 0.000104104
0.000111904 0.00171844 -4.32635e-06
0.000104104 -4.32635e-06 0.00172025
0.00145681 0.00029503 -3.92791e-06
0.00029503 0.000344444 -4.11522e-06
-3.92791e-06 -4.11522e-06 0.000114809
0.00141966 0.000265106 1.05862e-06
0.000265106 0.000439315 5.04311e-07
1.05862e-06 5.04311e-07 0.000234528
0.000654517 0.000149314 -5.8306e-08
0.000149314 1.65361e-05 -5.86624e-06
-5.8306e-08 -5.86624e-06 -0.000157058
0.000692655 0.000170733 -2.14541e-06
0.000170733 7.65845e-05 -1.71737e-07
-2.14541e-06 -1.71737e-07 -7.43283e-05
0.000422279 6.8652e-05 2.84402e-07
6.8652e-05 -8.72825e-05 -5.73416e-07
2.84402e-07 -5.73416e-07 -0.000224016
0.000783621 9.5376e-05 -3.00022e-06
9.5376e-05 0.000131449 -4.76928e-06
-3.00022e-06 -4.76928e-06 9.91126e-06
0.000378086 3.54798e-06 3.85436e-07
3.54798e-06 -0.000111799 1.64515e-06
3.85436e-07 1.64515e-06 -0.000229678
0.000633899 1.54174e-05 7.40918e-08
1.54174e-05 3.66947e-05 -2.5163e-07
7.40918e-08 -2.5163e-07 -5.92908e-05
0.000575239 -2.34075e-05 -3.35486e-06
-2.34075e-05 3.27526e-06 -8.63987e-06
-3.35486e-06 -8.63987e-06 -3.81153e-05
0.000567553 -2.48161e-07 1.05077e-06
-2.48161e-07 -1.48222e-06 4.34051e-06
1.05077e-06 4.34051e-06 -8.75082e-05
0.000514219 -2.57271e-05 2.80784e-07
-2.57271e-05 -3.74134e-05 -6.60855e-08
2.80784e-07 -6.60855e-08 -7.37056e-05
0.00298648 -0.000122574 -6.34243e-05
-0.000122574 0.00145218 -2.86646e-06
-6.34243e-05 -2.86646e-06 0.00145156
0.0028386 -0.000110913 -4.35005e-06
-0.000110913 0.00135486 4.27949e-07
-4.35005e-06 4.27949e-07 0.00135678
0.000484727 -1.68501e-05 2.80432e-06
-1.68501e-05 -6.19006e-05 6.86782e-06
2.80432e-06 6.86782e-06 -9.33135e-05
0.00269111 -9.61309e-05 3.81903e-05
-9.61309e-05 0.00125852 4.01691e-06
3.81903e-05 4.01691e-06 0.00126376
0.00351293 3.42586e-05 2.92597e-05
3.42586e-05 -0.000281895 1.05593e-05
2.92597e-05 1.05593e-05 -8.0252e-05
0.00299026 -0.000579453 6.78958e-05
-0.000579453 -0.00228133 3.04552e-05
6.78958e-05 3.04552e-05 -0.00335513
0.00791117 -0.00103583 -9.32215e-05
-0.00103583 0.0029802 -5.97008e-05
-9.32215e-05 -5.97008e-05 0.00330239
0.00123149 0.000337263 6.19368e-06
0.000337263 5.63932e-05 4.76334e-06
6.19368e-06 4.76334e-06 -0.000185584
0.00157692 0.000248017 1.54124e-06
0.000248017 0.000610132 1.72294e-06
1.54124e-06 1.72294e-06 0.000427105
0.00144905 0.000290389 -5.85889e-06
0.000290389 0.000469793 7.39014e-06
-5.85889e-06 7.39014e-06 0.0002562
0.000751972 0.000244877 1.48489e-06
0.000244877 7.87671e-05 2.61144e-06
1.48489e-06 2.61144e-06 -0.000123468
0.00123965 0.000314485 -9.33882e-07
0.000314485 0.000199636 -1.55301e-06
-9.33882e-07 -1.55301e-06 -4.86112e-05
0.00102646 0.000351758 7.20615e-06
0.000351758 3.54509e-05 5.47485e-06
7.20615e-06 5.47485e-06 -0.000183153
0.0010593 0.000295408 -6.54357e-06
0.000295408 0.000220553 -3.51946e-06
-6.54357e-06 -3.51946e-06 -5.8691e-06
0.000547172 0.000271935 3.26562e-06
0.000271935 -9.36135e-05 3.60778e-06
3.26562e-06 3.60778e-06 -0.000228845
0.00133424 0.00038677 2.57051e-06
0.00038677 0.00021348 -9.73757e-07
2.57051e-06 -9.73757e-07 1.45492e-05
0.00223568 0.000527441 3.29004e-06
0.000527441 0.00051723 6.45015e-06
3.29004e-06 6.45015e-06 0.000348651
0.00171583 0.000518856 2.34341e-06
0.000518856 0.000143171 1.08465e-07
2.34341e-06 1.08465e-07 -5.67386e-05
0.00169556 0.00048353 5.99764e-06
0.00048353 0.000151467 8.83512e-06
5.99764e-06 8.83512e-06 1.48172e-05
0.00119345 0.000510382 -3.06769e-06
0.000510382 -9.89081e-05 -2.92144e-06
-3.06769e-06 -2.92144e-06 -0.000280525
0.000670789 0.000423701 -7.31328e-07
0.000423701 -0.000272784 1.00836e-07
-7.31328e-07 1.00836e-07 -0.000435358
0.00150199 0.000395711 2.98977e-05
0.000395711 -0.000264681 3.29838e-05
2.98977e-05 3.29838e-05 -0.000201092
0.00515976 0.000809046 -5.21867e-05
0.000809046 -0.000225192 -1.48364e-05
-5.21867e-05 -1.48364e-05 1.3052e-05
0.00213742 0.000481378 0.000297684
0.000481378 -0.00219244 3.8449e-05
0.000297684 3.8449e-05 -0.00398565
0.000395143 0.000876746 -2.00488e-05
0.000876746 -0.00130246 -2.49474e-05
-2.00488e-05 -2.49474e-05 -0.00139033
0.00271959 0.000792958 -2.59973e-05
0.000792958 0.000341181 -3.25316e-06
-2.59973e-05 -3.25316e-06 0.000272835
0.00259214 0.000741394 -6.57808e-05
0.000741394 0.000550826 -2.39438e-05
-6.57808e-05 -2.39438e-05 0.000371012
0.00231473 -0.000194993 -1.47032e-05
-0.000194993 -9.55728e-07 -8.63676e-06
-1.47032e-05 -8.63676e-06 4.09889e-06
0.000858064 -7.35295e-05 1.41137e-05
-7.35295e-05 -0.000263766 6.43865e-06
1.41137e-05 6.43865e-06 -0.000385147
0.00119689 0.000740623 9.53366e-05
0.000740623 -0.00319152 -2.15236e-05
9.53366e-05 -2.15236e-05 -0.00366926
-0.000504074 -0.000266579 -1.87516e-05
-0.000266579 -0.00126996 3.08625e-05
-1.87516e-05 3.08625e-05 -0.00122812
0.00380435 -0.000152547 -4.23475e-05
-0.000152547 5.34888e-05 3.70079e-05
-4.23475e-05 3.70079e-05 -0.00023435
0.00224748 -0.000305839 -1.65419e-05
-0.000305839 -4.49201e-05 5.94793e-06
-1.65419e-05 5.94793e-06 7.68252e-05
0.0031607 -0.000146814 -1.79972e-06
-0.000146814 0.00053538 -3.46011e-06
-1.79972e-06 -3.46011e-06 0.000491687
0.00155477 -0.000174787 3.16378e-05
-0.000174787 -0.000390184 -1.79019e-06
3.16378e-05 -1.79019e-06 -0.000236649
0.00327545 -4.38549e-05 2.57178e-05
-4.38549e-05 0.000987608 2.152e-07
2.57178e-05 2.152e-07 0.000947637
0.00115816 -0.000345734 -1.74434e-05
-0.000345734 -0.000491403 8.43174e-06
-1.74434e-05 8.43174e-06 -0.000439924
0.00180426 -0.000275908 4.68269e-07
-0.000275908 -0.000236372 2.19837e-06
4.68269e-07 2.19837e-06 -0.000129428
0.0019936 -0.000268528 1.88543e-06
-0.000268528 -5.92171e-05 -5.89047e-07
1.88543e-06 -5.89047e-07 9.09291e-06
0.00192542 -0.000352989 -1.10784e-07
-0.000352989 -2.6218e-05 1.75871e-06
-1.10784e-07 1.75871e-06 -7.91622e-05
0.00191823 -0.000298586 3.76072e-07
-0.000298586 3.29062e-05 7.24416e-08
3.76072e-07 7.24416e-08 2.57889e-06
0.0019332 -0.000265117 -1.7222e-06
-0.000265117 7.45302e-05 4.66732e-07
-1.7222e-06 4.66732e-07 2.2338e-05
0.00186716 -0.000311349 7.56155e-07
-0.000311349 8.25306e-05 3.35043e-07
7.56155e-07 3.35043e-07 -2.02954e-06
0.00185134 -0.000285651 -6.46273e-07
-0.000285651 8.61003e-05 6.77247e-08
-6.46273e-07 6.77247e-08 3.29006e-06
0.00176521 -0.000252035 7.83365e-08
-0.000252035 8.52883e-05 2.87346e-07
7.83365e-08 2.87346e-07 -1.25268e-05
0.00166093 -0.000286296 3.12844e-07
-0.000286296 3.04505e-05 7.22945e-07
3.12844e-07 7.22945e-07 -7.2685e-05
0.0017382 -0.000276464 8.06355e-07
-0.000276464 0.000101324 -6.56795e-07
8.06355e-07 -6.56795e-07 -1.19379e-05
0.00175297 -0.000263359 1.81251e-06
-0.000263359 0.000130372 -2.07321e-06
1.81251e-06 -2.07321e-06 -3.22349e-06
0.00190585 -0.000280739 -4.62512e-06
-0.000280739 0.000226459 4.78387e-06
-4.62512e-06 4.78387e-06 0.000102984
0.00187527 -0.000281418 -1.35214e-06
-0.000281418 0.000235376 3.78685e-07
-1.35214e-06 3.78685e-07 8.53238e-05
0.00169985 -0.000257459 -1.35907e-06
-0.000257459 0.000188955 -1.18326e-06
-1.35907e-06 -1.18326e-06 1.97787e-05
0.00177113 -0.0003091 2.54262e-06
-0.0003091 0.000198352 1.9043e-06
2.54262e-06 1.9043e-06 1.80635e-05
0.00169872 -0.000284724 9.18528e-07
-0.000284724 0.000218268 -6.93707e-07
9.18528e-07 -6.93707e-07 3.18722e-05
0.00131621 -0.000217252 -7.20873e-06
-0.000217252 9.75941e-05 2.15306e-06
-7.20873e-06 2.15306e-06 -7.95149e-05
0.000943901 -0.000172765 -1.17627e-05
-0.000172765 1.51699e-05 6.27489e-06
-1.17627e-05 6.27489e-06 -0.000138561
0.00119097 -0.000231951 -1.76475e-06
-0.000231951 6.2466e-05 3.98606e-07
-1.76475e-06 3.98606e-07 -0.000125361
0.00159837 -0.000314816 3.27434e-06
-0.000314816 0.000213603 -4.21822e-07
3.27434e-06 -4.21822e-07 1.62572e-06
0.000518859 -0.000175404 -2.15477e-05
-0.000175404 -9.17468e-05 1.44798e-05
-2.15477e-05 1.44798e-05 -0.000185871
0.000873949 -0.000177587 4.63287e-07
-0.000177587 1.41275e-05 1.05317e-07
4.63287e-07 1.05317e-07 -0.000147417
0.00122659 -0.000248423 7.09312e-06
-0.000248423 0.00012783 -2.24998e-06
7.09312e-06 -2.24998e-06 -7.10702e-05
0.00507313 0.000185878 -0.000141997
0.000185878 0.00271091 8.79514e-06
-0.000141997 8.79514e-06 0.00268972
0.000570016 -0.000154382 -1.05605e-06
-0.000154382 -4.9898e-05 1.13479e-07
-1.05605e-06 1.13479e-07 -0.00013596
0.000807049 -0.000176454 8.93373e-06
-0.000176454 3.95214e-05 -6.14424e-06
8.93373e-06 -6.14424e-06 -0.000127598
0.00467334 0.000156093 9.78298e-06
0.000156093 0.00246697 1.23018e-06
9.78298e-06 1.23018e-06 0.00245395
0.000732719 -0.00011211 1.79205e-05
-0.00011211 6.19443e-05 -1.33564e-05
1.79205e-05 -1.33564e-05 -1.25955e-05
0.00416864 0.000111752 0.000138169
0.000111752 0.00215676 -7.93045e-06
0.000138169 -7.93045e-06 0.00215555
0.0012487 0.000293253 -4.01086e-06
0.000293253 0.000124426 7.83673e-08
-4.01086e-06 7.83673e-08 -0.00010328
0.00118648 0.000268994 -2.06136e-06
0.000268994 0.000188119 -6.45854e-07
-2.06136e-06 -6.45854e-07 -3.66965e-05
0.000985195 0.000216502 -4.2042e-06
0.000216502 0.000129403 -2.28916e-06
-4.2042e-06 -2.28916e-06 -7.09116e-05
0.0016629 0.000286711 -2.63667e-06
0.000286711 0.000586801 3.59349e-06
-2.63667e-06 3.59349e-06 0.000378193
0.000895579 0.00017197 -1.22488e-06
0.00017197 0.000160596 -2.00567e-06
-1.22488e-06 -2.00567e-06 -1.73229e-05
0.000945488 0.000146039 -4.05857e-06
0.000146039 0.00022354 -5.9092e-06
-4.05857e-06 -5.9092e-06 7.66256e-05
0.00046285 8.35949e-05 -3.1006e-07
8.35949e-05 -6.55091e-05 3.43913e-07
-3.1006e-07 3.43913e-07 -0.000206519
0.00066091 4.43393e-05 -6.56259e-07
4.43393e-05 5.15325e-05 -1.94037e-07
-6.56259e-07 -1.94037e-07 -5.99223e-05
0.000588602 -6.07158e-06 -5.82201e-06
-6.07158e-06 1.08184e-05 -9.61762e-06
-5.82201e-06 -9.61762e-06 -3.69512e-05
0.000550384 -3.12117e-06 1.05974e-06
-3.12117e-06 -1.11258e-05 4.65903e-06
1.05974e-06 4.65903e-06 -0.000105903
0.000503089 -2.69505e-05 3.95996e-07
-2.69505e-05 -3.77851e-05 -1.62173e-07
3.95996e-07 -1.62173e-07 -7.91716e-05
0.00317658 -0.000130511 -7.92255e-05
-0.000130511 0.00157298 -2.52858e-06
-7.92255e-05 -2.52858e-06 0.0015704
0.000467456 -2.36201e-05 2.93947e-06
-2.36201e-05 -6.49483e-05 7.60497e-06
2.93947e-06 7.60497e-06 -0.000100767
0.00295967 -0.000125309 -3.48857e-06
-0.000125309 0.00143604 3.9371e-07
-3.48857e-06 3.9371e-07 0.00143447
0.00284242 -0.00011132 4.71789e-05
-0.00011132 0.0013567 3.67649e-06
4.71789e-05 3.67649e-06 0.00135839
0.000305619 5.422e-05 1.65266e-05
5.422e-05 -0.00101342 9.00114e-06
1.65266e-05 9.00114e-06 -0.00091843
0.0047497 3.21762e-05 5.50694e-05
3.21762e-05 0.000279964 1.01936e-06
5.50694e-05 1.01936e-06 0.000398499
0.0108093 0.000655427 -7.54644e-05
0.000655427 0.00295282 -1.67071e-05
-7.54644e-05 -1.67071e-05 0.00194244
0.00120799 0.000369197 2.73637e-06
0.000369197 9.47006e-06 2.76457e-06
2.73637e-06 2.76457e-06 -0.000215118
0.00173815 0.000404312 2.18876e-06
0.000404312 0.000241442 2.47941e-06
2.18876e-06 2.47941e-06 2.06242e-05
0.00124216 0.000345634 4.85918e-07
0.000345634 6.85427e-05 -1.59216e-06
4.85918e-07 -1.59216e-06 -0.000174259
0.00121482 0.000294829 -2.36086e-06
0.000294829 0.000335277 2.48117e-06
-2.36086e-06 2.48117e-06 0.000120828
0.00157369 0.000345963 -1.69687e-06
0.000345963 0.000405576 -1.12648e-06
-1.69687e-06 -1.12648e-06 0.000148878
0.00144378 0.0003919 7.37824e-06
0.0003919 0.000254369 9.66624e-07
7.37824e-06 9.66624e-07 3.0772e-05
0.00172494 0.000484049 -3.17683e-06
0.000484049 0.000129045 -1.61348e-06
-3.17683e-06 -1.61348e-06 -7.86288e-05
0.00196547 0.000450485 -6.11637e-06
0.000450485 0.000555245 7.15906e-07
-6.11637e-06 7.15906e-07 0.000346433
0.00116623 0.000436398 1.00474e-05
0.000436398 -6.84252e-05 1.6173e-05
1.00474e-05 1.6173e-05 -0.000218254
0.00218069 0.000552874 -2.79411e-06
0.000552874 0.000400217 6.0192e-07
-2.79411e-06 6.0192e-07 0.000198712
0.00193696 0.000485485 -1.03674e-05
0.000485485 0.000160432 1.38049e-06
-1.03674e-05 1.38049e-06 -6.25053e-06
0.000660436 0.000243114 1.61053e-05
0.000243114 -0.000507681 8.81946e-06
1.61053e-05 8.81946e-06 -0.000542382
0.00100543 0.000430919 1.01868e-05
0.000430919 -0.000200485 -2.22502e-07
1.01868e-05 -2.22502e-07 -0.000333183
0.00113169 0.000498021 -1.0156e-05
0.000498021 -0.000138324 -9.43919e-06
-1.0156e-05 -9.43919e-06 -0.000317659
0.0018778 0.000406044 3.81173e-06
0.000406044 -7.24279e-05 6.89999e-06
3.81173e-06 6.89999e-06 -5.73173e-05
0.00553362 0.000538707 2.87333e-05
0.000538707 2.2952e-05 -1.97971e-05
2.87333e-05 -1.97971e-05 -4.03667e-05
0.0028512 0.000697724 7.53378e-06
0.000697724 0.000671993 -3.12404e-05
7.53378e-06 -3.12404e-05 0.000616106
0.00149238 -4.30513e-05 2.37844e-05
-4.30513e-05 -2.05558e-05 -3.02024e-06
2.37844e-05 -3.02024e-06 -1.92462e-05
0.00216277 -0.000130076 -2.7055e-05
-0.000130076 -2.82221e-05 1.12417e-07
-2.7055e-05 1.12417e-07 -2.97467e-05
0.00152519 0.000183057 2.74011e-05
0.000183057 -0.000568718 -6.92397e-06
2.74011e-05 -6.92397e-06 -0.000738909
0.000197964 -0.000210006 -3.10811e-05
-0.000210006 -0.00110815 2.46629e-05
-3.10811e-05 2.46629e-05 -0.000972329
0.00327698 -0.000222082 -9.4098e-05
-0.000222082 0.000524372 -1.17009e-06
-9.4098e-05 -1.17009e-06 0.000518625
0.00190386 -0.000204811 3.8466e-06
-0.000204811 -0.000144112 -2.96691e-06
3.8466e-06 -2.96691e-06 -5.91125e-06
0.00233233 -6.22598e-05 -8.69727e-06
-6.22598e-05 0.000390735 3.63378e-07
-8.69727e-06 3.63378e-07 0.000356232
0.00205727 -0.000186489 4.18416e-06
-0.000186489 3.00029e-06 1.13374e-06
4.18416e-06 1.13374e-06 2.60833e-05
0.00205008 -2.34245e-05 5.34394e-06
-2.34245e-05 4.73645e-05 9.99169e-08
5.34394e-06 9.99169e-08 3.20443e-05
0.00179591 -0.000290429 -7.85951e-06
-0.000290429 -0.000266755 3.00399e-06
-7.85951e-06 3.00399e-06 -0.000169026
0.00201541 -0.000266704 -1.85058e-06
-0.000266704 -3.60115e-05 8.47401e-08
-1.85058e-06 8.47401e-08 1.97347e-05
0.00199857 -0.000207649 -1.82949e-06
-0.000207649 1.44753e-05 -4.12295e-07
-1.82949e-06 -4.12295e-07 1.12383e-07
0.00192717 -0.000304592 -1.60636e-06
-0.000304592 3.63282e-05 -5.88255e-07
-1.60636e-06 -5.88255e-07 1.26111e-06
0.00189833 -0.000260455 1.42927e-07
-0.000260455 6.43051e-05 -4.31745e-09
1.42927e-07 -4.31745e-09 6.8281e-06
0.00191251 -0.000230865 -1.40563e-06
-0.000230865 0.000102212 4.15898e-07
-1.40563e-06 4.15898e-07 2.21634e-05
0.00177142 -0.000288463 -1.06249e-06
-0.000288463 4.49217e-05 -1.10945e-06
-1.06249e-06 -1.10945e-06 -4.12983e-05
0.0017765 -0.000252014 4.32888e-07
-0.000252014 8.83463e-05 -1.99528e-07
4.32888e-07 -1.99528e-07 -9.72983e-06
0.00177407 -0.000237095 1.26309e-06
-0.000237095 0.000103711 -1.03457e-06
1.26309e-06 -1.03457e-06 -1.16642e-05
0.00177851 -0.000278655 -9.74901e-07
-0.000278655 0.000123447 1.73933e-07
-9.74901e-07 1.73933e-07 9.76203e-06
0.00177635 -0.00026382 -3.18146e-08
-0.00026382 0.000144924 -3.01634e-07
-3.18146e-08 -3.01634e-07 1.13185e-05
0.00165908 -0.000236257 -1.92493e-07
-0.000236257 0.000133964 -1.03039e-06
-1.92493e-07 -1.03039e-06 -2.23574e-05
0.00194145 -0.000283048 -1.76849e-06
-0.000283048 0.000271121 3.50326e-06
-1.76849e-06 3.50326e-06 0.000124499
0.00171496 -0.000258774 -6.58927e-07
-0.000258774 0.000198515 -1.05574e-07
-6.58927e-07 -1.05574e-07 3.02788e-05
0.00133099 -0.000197666 -6.41654e-06
-0.000197666 8.44697e-05 1.78737e-06
-6.41654e-06 1.78737e-06 -8.48859e-05
0.00167966 -0.000285644 4.24083e-06
-0.000285644 0.000207805 2.80335e-07
4.24083e-06 2.80335e-07 2.02373e-05
0.0013005 -0.000217616 -1.06325e-07
-0.000217616 8.86281e-05 -4.33823e-08
-1.06325e-07 -4.33823e-08 -8.85798e-05
0.000956232 -0.000156087 -1.29023e-05
-0.000156087 -6.27167e-07 6.06171e-06
-1.29023e-05 6.06171e-06 -0.000146657
0.000443248 -0.000166183 -1.99329e-05
-0.000166183 -0.000145944 1.37773e-05
-1.99329e-05 1.37773e-05 -0.000241691
0.000931874 -0.000171284 2.64813e-07
-0.000171284 8.29202e-06 6.46285e-08
2.64813e-07 6.46285e-08 -0.000145315
0.00125384 -0.000236622 5.59785e-06
-0.000236622 9.96109e-05 -1.88516e-06
5.59785e-06 -1.88516e-06 -8.88868e-05
0.00548311 0.00011831 -0.000175142
0.00011831 0.00292953 9.42395e-06
-0.000175142 9.42395e-06 0.00292132
0.000549909 -0.000170259 -1.91868e-06
-0.000170259 -7.93467e-05 6.5386e-07
-1.91868e-06 6.5386e-07 -0.000171043
0.000835909 -0.000176617 1.0341e-05
-0.000176617 -4.90517e-06 -5.92675e-06
1.0341e-05 -5.92675e-06 -0.000166536
0.00523632 0.000147823 4.70703e-06
0.000147823 0.00279721 4.07327e-07
4.70703e-06 4.07327e-07 0.00278265
0.000673072 -0.000156978 2.11798e-05
-0.000156978 7.57068e-06 -1.43283e-05
2.11798e-05 -1.43283e-05 -8.003e-05
0.00486716 0.000127348 0.000159894
0.000127348 0.00257394 -1.05542e-05
0.000159894 -1.05542e-05 0.00256544
0.00134122 0.000318626 -3.01387e-06
0.000318626 0.000122077 1.45258e-06
-3.01387e-06 1.45258e-06 -9.72198e-05
0.00117097 0.000287026 3.03961e-07
0.000287026 7.64012e-05 3.99422e-07
3.03961e-07 3.99422e-07 -0.000149635
0.00110368 0.000235841 -7.3615e-06
0.000235841 9.68207e-05 -1.55627e-06
-7.3615e-06 -1.55627e-06 -0.000101784
0.000917229 0.000243219 -7.28768e-07
0.000243219 3.21652e-05 2.77221e-06
-7.28768e-07 2.77221e-06 -0.000187757
0.00104706 0.000221021 -1.75338e-06
0.000221021 0.000168579 9.88802e-07
-1.75338e-06 9.88802e-07 -3.2599e-05
0.000885359 0.000178269 -6.74163e-06
0.000178269 0.000143421 -5.27605e-06
-6.74163e-06 -5.27605e-06 -2.25427e-05
0.00110049 0.000190893 -7.45024e-07
0.000190893 0.000283444 1.2393e-06
-7.45024e-07 1.2393e-06 0.000101781
0.000696419 0.000117471 -4.56955e-08
0.000117471 7.89596e-05 -3.60686e-07
-4.56955e-08 -3.60686e-07 -6.41206e-05
0.00073779 4.78459e-05 -1.16699e-05
4.78459e-05 9.03584e-05 -1.19849e-05
-1.16699e-05 -1.19849e-05 2.88505e-05
0.000587666 9.9455e-06 1.31757e-06
9.9455e-06 7.55486e-06 4.60823e-06
1.31757e-06 4.60823e-06 -9.92053e-05
0.000504463 -1.45483e-05 -1.64495e-07
-1.45483e-05 -3.63711e-05 -2.76418e-07
-1.64495e-07 -2.76418e-07 -8.39482e-05
0.00351936 -0.000131774 -0.000103298
-0.000131774 0.00178244 -3.28889e-06
-0.000103298 -3.28889e-06 0.00177877
0.000446927 -2.78384e-05 2.94213e-06
-2.78384e-05 -7.01699e-05 8.35853e-06
2.94213e-06 8.35853e-06 -0.000111261
0.00311475 -0.000138509 -3.41968e-06
-0.000138509 0.00153725 3.80279e-07
-3.41968e-06 3.80279e-07 0.0015323
0.00293184 -0.000125544 5.46529e-05
-0.000125544 0.00141902 3.23135e-06
5.46529e-05 3.23135e-06 0.00141717
0.000548609 6.3979e-05 2.01175e-05
6.3979e-05 -0.000586619 9.66456e-07
2.01175e-05 9.66456e-07 -0.00053702
0.00205392 3.388e-05 -7.61165e-06
3.388e-05 -0.000273827 -1.3558e-06
-7.61165e-06 -1.3558e-06 -0.000158624
0.00427941 4.91707e-05 0.000144249
4.91707e-05 -0.000368053 4.13286e-05
0.000144249 4.13286e-05 0.000141572
0.0021898 0.000467058 -2.00727e-06
0.000467058 0.000414377 6.00076e-07
-2.00727e-06 6.00076e-07 0.000202859
0.00139396 0.000403843 -8.50265e-07
0.000403843 0.00010362 -2.81595e-06
-8.50265e-07 -2.81595e-06 -0.000123649
0.00196317 0.000376417 -2.17396e-07
0.000376417 0.000239169 3.39265e-06
-2.17396e-07 3.39265e-06 5.41934e-05
0.00174623 0.000402502 8.36353e-07
0.000402502 0.000244688 2.69732e-07
8.36353e-07 2.69732e-07 2.46297e-05
0.00124668 0.000354248 1.48603e-06
0.000354248 7.49432e-05 -6.05942e-06
1.48603e-06 -6.05942e-06 -0.000168789
0.00184861 0.000400707 -1.41597e-06
0.000400707 8.60006e-05 1.43474e-06
-1.41597e-06 1.43474e-06 -7.79464e-05
0.00195127 0.000441077 -3.72572e-06
0.000441077 0.000526134 -1.75188e-06
-3.72572e-06 -1.75188e-06 0.000295733
0.0019505 0.000493898 -2.41481e-08
0.000493898 0.000269743 -3.48775e-07
-2.41481e-08 -3.48775e-07 5.99529e-05
0.0018057 0.000287144 -3.99896e-06
0.000287144 -1.87979e-05 1.12954e-07
-3.99896e-06 1.12954e-07 -0.000117591
0.00262925 0.000586111 3.85621e-06
0.000586111 0.000646929 2.32707e-06
3.85621e-06 2.32707e-06 0.000443984
0.00192707 0.000487636 -1.63004e-06
0.000487636 0.000145375 1.21085e-07
-1.63004e-06 1.21085e-07 -2.42383e-05
0.000889883 0.000258571 4.43275e-06
0.000258571 -0.000347368 3.0775e-06
4.43275e-06 3.0775e-06 -0.000392156
-0.000320464 0.000336013 -3.13126e-06
0.000336013 -0.000879836 -4.40039e-06
-3.13126e-06 -4.40039e-06 -0.00100415
0.00204094 0.000418969 -5.53058e-05
0.000418969 2.79609e-06 -2.72262e-05
-5.53058e-05 -2.72262e-05 -2.06219e-05
0.00186565 4.34128e-05 5.5537e-07
4.34128e-05 -6.79506e-05 -1.88924e-06
5.5537e-07 -1.88924e-06 -6.70559e-05
0.00218456 -3.67862e-05 1.15009e-06
-3.67862e-05 0.000405926 1.82144e-06
1.15009e-06 1.82144e-06 0.000409092
0.00170293 -6.07938e-05 -5.65081e-05
-6.07938e-05 -0.000179222 -1.19516e-06
-5.65081e-05 -1.19516e-06 -0.000267249
0.0022749 -0.000234067 -3.46707e-05
-0.000234067 0.000112215 2.59586e-06
-3.46707e-05 2.59586e-06 0.000229863
0.00139663 -7.51225e-05 -8.67817e-06
-7.51225e-05 -0.000194991 1.10107e-06
-8.67817e-06 1.10107e-06 -0.000223429
0.00199689 -0.000180106 3.93363e-08
-0.000180106 -3.48825e-05 -7.27117e-07
3.93363e-08 -7.27117e-07 -3.93113e-07
0.00210959 -2.45995e-05 -2.52062e-06
-2.45995e-05 6.20708e-05 1.35914e-06
-2.52062e-06 1.35914e-06 5.27755e-05
0.00207935 -6.68341e-05 -2.7551e-06
-6.68341e-05 3.39692e-05 -1.31713e-07
-2.7551e-06 -1.31713e-07 3.32586e-05
0.00202795 -0.000263187 -3.86135e-06
-0.000263187 -1.49667e-05 3.58388e-07
-3.86135e-06 3.58388e-07 2.83708e-05
0.00197659 -0.000199381 4.49345e-07
-0.000199381 1.28675e-05 -2.17048e-07
4.49345e-07 -2.17048e-07 -3.0208e-06
0.0020401 -0.000164764 -1.5444e-06
-0.000164764 9.13553e-05 -2.01142e-07
-1.5444e-06 -2.01142e-07 5.00478e-05
0.00186239 -0.000256353 1.11339e-06
-0.000256353 5.28254e-05 -1.03023e-06
1.11339e-06 -1.03023e-06 -9.80068e-06
0.00183664 -0.000226282 1.77507e-07
-0.000226282 6.41965e-05 -5.96342e-08
1.77507e-07 -5.96342e-08 -1.77041e-05
0.00176462 -0.000188425 5.73566e-07
-0.000188425 5.84206e-05 -3.86724e-07
5.73566e-07 -3.86724e-07 -3.86194e-05
0.00180235 -0.000252612 6.56911e-07
-0.000252612 9.90581e-05 -5.32933e-07
6.56911e-07 -5.32933e-07 7.61099e-07
0.00179846 -0.000237231 1.2388e-08
-0.000237231 0.000119518 -2.66373e-07
1.2388e-08 -2.66373e-07 4.1194e-06
0.00170254 -0.000210714 7.57199e-07
-0.000210714 0.000120513 -8.51988e-07
7.57199e-07 -8.51988e-07 -2.14781e-05
0.00179832 -0.000264267 -1.14518e-06
-0.000264267 0.000158476 1.29388e-06
-1.14518e-06 1.29388e-06 2.48519e-05
0.00168434 -0.000236999 -2.97039e-07
-0.000236999 0.000149337 -6.48377e-08
-2.97039e-07 -6.48377e-08 -6.68691e-06
0.00137172 -0.000179921 -4.83571e-06
-0.000179921 8.50104e-05 1.3728e-06
-4.83571e-06 1.3728e-06 -7.75945e-05
0.00172814 -0.000259921 9.31732e-07
-0.000259921 0.000206798 1.0773e-06
9.31732e-07 1.0773e-06 3.95429e-05
0.00134681 -0.000198377 -1.9788e-07
-0.000198377 9.26406e-05 7.27899e-08
-1.9788e-07 7.27899e-08 -7.64165e-05
0.000965122 -0.000138289 -1.34898e-05
-0.000138289 -9.4359e-06 5.65046e-06
-1.34898e-05 5.65046e-06 -0.000150573
0.00128937 -0.000218299 6.34912e-06
-0.000218299 8.23765e-05 -1.64758e-06
6.34912e-06 -1.64758e-06 -9.49735e-05
0.000966679 -0.000155328 1.95617e-07
-0.000155328 4.29971e-06 5.32538e-08
1.95617e-07 5.32538e-08 -0.000141467
0.00243992 -0.000115475 -3.02324e-05
-0.000115475 0.00102959 8.60931e-06
-3.02324e-05 8.60931e-06 0.000950922
0.00170585 -4.96945e-05 -0.000182659
-4.96945e-05 0.000660654 2.01677e-05
-0.000182659 2.01677e-05 0.000642733
0.00153687 -0.000150336 -5.62801e-06
-0.000150336 0.000499319 -3.28974e-07
-5.62801e-06 -3.28974e-07 0.000409717
0.000923573 -0.000170093 1.17292e-05
-0.000170093 3.72665e-06 -5.91031e-06
1.17292e-05 -5.91031e-06 -0.000149833
0.00557622 0.000101465 -6.03616e-06
0.000101465 0.00299078 -6.1889e-07
-6.03616e-06 -6.1889e-07 0.00297953
0.000616283 -0.000191629 2.28564e-05
-0.000191629 -4.00541e-05 -1.42531e-05
2.28564e-05 -1.42531e-05 -0.000135285
0.00537665 0.000136622 0.000172039
0.000136622 0.00288844 -1.51476e-05
0.000172039 -1.51476e-05 0.00286935
0.00194589 0.00029946 8.07564e-07
0.00029946 0.000196586 5.29504e-07
8.07564e-07 5.29504e-07 3.87242e-05
0.00166504 0.000335087 1.14259e-06
0.000335087 0.000193808 3.01123e-06
1.14259e-06 3.01123e-06 -6.91027e-06
0.00157029 0.00034198 -2.0837e-08
0.00034198 0.000248483 -1.09064e-08
-2.0837e-08 -1.09064e-08 2.61069e-05
0.00118129 0.000244965 -6.21541e-06
0.000244965 7.64548e-05 -2.06612e-06
-6.21541e-06 -2.06612e-06 -0.000116081
0.00110686 0.000282126 5.21676e-06
0.000282126 3.74893e-05 7.36885e-07
5.21676e-06 7.36885e-07 -0.000187226
0.00112355 0.000236113 -3.30534e-07
0.000236113 0.000109324 3.07114e-07
-3.30534e-07 3.07114e-07 -8.88232e-05
0.000804296 0.000174995 -9.47148e-06
0.000174995 1.41614e-05 -4.65805e-06
-9.47148e-06 -4.65805e-06 -0.00015072
0.0011143 0.000226148 2.14622e-06
0.000226148 0.000210301 4.6003e-06
2.14622e-06 4.6003e-06 8.20548e-06
0.000820565 0.000162139 -4.07906e-07
0.000162139 0.000106066 5.72337e-07
-4.07906e-07 5.72337e-07 -5.78016e-05
0.000743413 0.000131122 -1.9049e-05
0.000131122 7.54922e-05 -1.39123e-05
-1.9049e-05 -1.39123e-05 -5.17701e-06
0.000612106 8.46766e-05 2.03414e-06
8.46766e-05 2.52461e-05 4.48078e-06
2.03414e-06 4.48078e-06 -0.000110092
0.000509719 3.42832e-05 -1.14108e-06
3.42832e-05 -4.10599e-05 -6.27282e-07
-1.14108e-06 -6.27282e-07 -9.94299e-05
0.00410246 -0.000125628 -0.000136789
-0.000125628 0.00213239 -6.64576e-06
-0.000136789 -6.64576e-06 0.00212629
0.000391382 -2.21214e-05 3.2481e-06
-2.21214e-05 -9.973e-05 9.37977e-06
3.2481e-06 9.37977e-06 -0.000147519
0.00338011 -0.000149863 -4.61355e-06
-0.000149863 0.00170296 3.87417e-07
-4.61355e-06 3.87417e-07 0.00169474
0.00306483 -0.000140812 6.24496e-05
-0.000140812 0.00150765 2.62166e-06
6.24496e-05 2.62166e-06 0.00150184
0.00191263 0.000153873 1.05951e-06
0.000153873 -3.13954e-05 -9.13535e-07
1.05951e-06 -9.13535e-07 -6.1272e-05
0.00190956 4.90559e-05 1.63476e-05
4.90559e-05 0.000129192 1.53989e-07
1.63476e-05 1.53989e-07 0.000167398
0.00424597 3.24627e-05 -9.74272e-05
3.24627e-05 0.000664529 -1.37086e-05
-9.74272e-05 -1.37086e-05 0.000822025
0.00177614 0.00034486 -2.52357e-06
0.00034486 6.28672e-05 1.43571e-06
-2.52357e-06 1.43571e-06 -9.48507e-05
0.00186258 0.000438728 -2.15395e-06
0.000438728 0.000240777 -9.93991e-08
-2.15395e-06 -9.93991e-08 3.18313e-05
0.00149744 0.000429812 -1.22765e-05
0.000429812 0.000152591 -7.38396e-06
-1.22765e-05 -7.38396e-06 -7.54408e-05
0.00200872 0.000367584 2.71714e-06
0.000367584 0.000276235 9.91521e-07
2.71714e-06 9.91521e-07 9.35207e-05
0.00174508 0.000400065 -1.31313e-06
0.000400065 0.000243647 -2.64074e-06
-1.31313e-06 -2.64074e-06 2.43468e-05
0.00218628 0.000285422 1.03963e-06
0.000285422 0.0002043 8.90968e-07
1.03963e-06 8.90968e-07 0.000101434
0.00172521 0.000393993 -9.12526e-07
0.000393993 3.27932e-05 7.69014e-07
-9.12526e-07 7.69014e-07 -0.00013161
0.00220757 0.000506565 -1.19472e-06
0.000506565 0.000427276 -6.89513e-07
-1.19472e-06 -6.89513e-07 0.000214814
0.00180513 0.000291993 -9.87748e-07
0.000291993 -1.2685e-05 -1.20534e-07
-9.87748e-07 -1.20534e-07 -0.000113324
0.00204788 0.000498775 1.71797e-05
0.000498775 0.000192009 1.76131e-06
1.71797e-05 1.76131e-06 1.8786e-05
0.001223 0.000266628 -2.66062e-05
0.000266628 -0.000143619 -6.6106e-06
-2.66062e-05 -6.6106e-06 -0.000196212
0.00202888 5.1671e-05 -3.08317e-06
5.1671e-05 2.56767e-05 1.89221e-07
-3.08317e-06 1.89221e-07 1.50073e-05
0.0019618 5.3364e-05 -2.16831e-06
5.3364e-05 -4.46569e-06 2.89601e-07
-2.16831e-06 2.89601e-07 -7.292e-06
0.00288642 -2.59703e-05 -3.86975e-05
-2.59703e-05 0.000844104 2.70339e-06
-3.86975e-05 2.70339e-06 0.000842515
0.0019163 -0.000172377 -8.91492e-06
-0.000172377 -8.94359e-05 -9.9239e-07
-8.91492e-06 -9.9239e-07 -4.36333e-05
0.0020161 -2.40855e-05 3.16792e-07
-2.40855e-05 -1.81983e-05 -1.07181e-06
3.16792e-07 -1.07181e-06 -2.28844e-05
0.00204547 -7.0942e-05 -3.73171e-07
-7.0942e-05 -1.36368e-06 6.64833e-08
-3.73171e-07 6.64833e-08 2.95249e-06
0.00193809 -5.51048e-05 -2.06403e-06
-5.51048e-05 4.16714e-05 9.5547e-08
-2.06403e-06 9.5547e-08 1.73118e-05
0.00195309 -0.000190026 2.20823e-06
-0.000190026 1.15543e-05 5.68425e-08
2.20823e-06 5.68425e-08 -5.46855e-06
0.00191562 -0.000164051 2.30116e-07
-0.000164051 2.94936e-05 -2.5402e-08
2.30116e-07 -2.5402e-08 -1.62336e-05
0.00180185 -0.000125413 2.61789e-06
-0.000125413 5.37347e-05 -1.51901e-06
2.61789e-06 -1.51901e-06 -2.7149e-05
0.00174654 -0.00022103 1.58068e-06
-0.00022103 1.83544e-05 -4.23979e-07
1.58068e-06 -4.23979e-07 -6.54486e-05
0.00182883 -0.000191104 -3.40345e-08
-0.000191104 9.16772e-05 4.6106e-08
-3.40345e-08 4.6106e-08 -5.55987e-06
0.00178306 -0.000174365 1.0265e-06
-0.000174365 0.000125612 -6.52463e-07
1.0265e-06 -6.52463e-07 -2.24172e-06
0.00182178 -0.000237178 -5.60288e-07
-0.000237178 0.000135064 4.07724e-07
-5.60288e-07 4.07724e-07 1.9671e-05
0.0017336 -0.000211562 -2.37612e-07
-0.000211562 0.000138582 -5.53483e-08
-2.37612e-07 -5.53483e-08 -3.20859e-06
0.00142083 -0.000157961 -3.73108e-06
-0.000157961 8.86113e-05 9.59059e-07
-3.73108e-06 9.59059e-07 -6.66067e-05
0.00170913 -0.000237741 -2.94358e-07
-0.000237741 0.000164502 8.59562e-07
-2.94358e-07 8.59562e-07 8.7723e-06
0.00138535 -0.00018036 -1.65187e-07
-0.00018036 9.11314e-05 6.68134e-08
-1.65187e-07 6.68134e-08 -7.11101e-05
0.000975939 -0.000122494 -1.32695e-05
-0.000122494 -1.39454e-05 4.88725e-06
-1.32695e-05 4.88725e-06 -0.000152563
0.00136049 -0.000199009 5.56231e-06
-0.000199009 9.95399e-05 -1.50252e-06
5.56231e-06 -1.50252e-06 -6.92189e-05
0.000981564 -0.000137453 1.19364e-07
-0.000137453 -1.69656e-06 1.13499e-07
1.19364e-07 1.13499e-07 -0.000142333
0.00248091 -0.000121688 -3.78896e-05
-0.000121688 0.00104104 7.86455e-06
-3.78896e-05 7.86455e-06 0.000969819
0.000968992 -0.000154387 1.30398e-05
-0.000154387 4.63011e-06 -5.91478e-06
1.30398e-05 -5.91478e-06 -0.000140893
0.00260018 -0.000160302 3.79426e-05
-0.000160302 0.00112009 -4.84119e-06
3.79426e-05 -4.84119e-06 0.00104771
0.00178687 -8.9855e-05 -0.000187241
-8.9855e-05 0.000714948 2.44995e-05
-0.000187241 2.44995e-05 0.000695557
0.00360698 -2.34884e-05 -0.000183856
-2.34884e-05 0.00181094 1.2064e-05
-0.000183856 1.2064e-05 0.00179806
0.00269306 -0.000213082 0.000116921
-0.000213082 0.00118148 -1.61296e-05
0.000116921 -1.61296e-05 0.00111108
0.00565628 8.71508e-05 0.000187744
8.71508e-05 0.00304761 -1.81915e-05
0.000187744 -1.81915e-05 0.00303188
0.00207266 0.000295289 -1.85266e-06
0.000295289 0.000247642 -7.01391e-07
-1.85266e-06 -7.01391e-07 0.000105688
0.00157457 0.000272476 2.73479e-06
0.000272476 8.33416e-05 1.11827e-06
2.73479e-06 1.11827e-06 -9.0781e-05
0.00193068 0.000297414 3.84419e-07
0.000297414 0.000185286 -1.20507e-06
3.84419e-07 -1.20507e-06 3.20428e-05
0.00119196 0.000235204 -6.22823e-06
0.000235204 2.96274e-05 -1.04361e-06
-6.22823e-06 -1.04361e-06 -0.000155521
0.00172659 0.000337264 6.59185e-07
0.000337264 0.000220804 5.4941e-07
6.59185e-07 5.4941e-07 1.93231e-05
0.00179869 0.000365634 2.5016e-06
0.000365634 0.000373725 -9.75729e-07
2.5016e-06 -9.75729e-07 0.000148215
0.00119782 0.000242913 -6.20672e-11
0.000242913 9.06962e-05 -2.93401e-07
-6.20672e-11 -2.93401e-07 -0.000100855
0.000859267 0.000173861 -1.12055e-05
0.000173861 -1.79245e-05 -5.77117e-06
-1.12055e-05 -5.77117e-06 -0.000175383
0.00113152 0.000235533 7.03519e-06
0.000235533 0.00011482 2.16946e-06
7.03519e-06 2.16946e-06 -8.27972e-05
0.000840786 0.000172623 -5.67336e-07
0.000172623 3.18944e-05 4.98432e-07
-5.67336e-07 4.98432e-07 -0.000132272
0.000637739 0.000182017 -2.26093e-05
0.000182017 -8.22381e-06 -1.4411e-05
-2.26093e-05 -1.4411e-05 -0.000101946
0.000628436 0.00014791 3.93632e-06
0.00014791 -4.27528e-06 5.86966e-06
3.93632e-06 5.86966e-06 -0.000167024
0.000552811 0.000103516 -4.44912e-07
0.000103516 -3.35527e-05 4.34848e-08
-4.44912e-07 4.34848e-08 -0.000109542
0.00496439 -0.000123519 -0.000168249
-0.000123519 0.00265332 -1.28443e-05
-0.000168249 -1.28443e-05 0.00263776
0.000326574 7.50338e-06 5.88971e-06
7.50338e-06 -0.000142177 1.09203e-05
5.88971e-06 1.09203e-05 -0.000199644
0.00391398 -0.000164234 -8.34439e-06
-0.000164234 0.00202908 5.56844e-07
-8.34439e-06 5.56844e-07 0.00201548
0.003284 -0.000157445 7.23088e-05
-0.000157445 0.00164706 2.17095e-06
7.23088e-05 2.17095e-06 0.00163672
0.00194548 0.000167579 -8.42409e-07
0.000167579 3.17492e-06 5.46297e-07
-8.42409e-07 5.46297e-07 -5.0004e-05
0.00185805 0.000153971 8.03492e-07
0.000153971 -6.10559e-05 -2.28179e-07
8.03492e-07 -2.28179e-07 -9.14522e-05
0.00302278 3.72967e-05 -6.82629e-05
3.72967e-05 0.000721488 -6.35743e-06
-6.82629e-05 -6.35743e-06 0.000755471
0.00202374 0.000253158 1.03954e-06
0.000253158 0.000149112 8.65886e-07
1.03954e-06 8.65886e-07 3.76546e-05
0.00178757 0.000341085 -5.4957e-07
0.000341085 8.63342e-05 3.39446e-07
-5.4957e-07 3.39446e-07 -7.09957e-05
0.00154407 0.000411099 -2.40412e-07
0.000411099 7.06163e-05 -2.31082e-06
-2.40412e-07 -2.31082e-06 -0.000135867
0.00205589 0.000358478 -6.6144e-07
0.000358478 0.000314802 -2.42721e-06
-6.6144e-07 -2.42721e-06 0.000134459
0.00204359 0.000275813 -9.70928e-07
0.000275813 0.000123573 -1.70177e-07
-9.70928e-07 -1.70177e-07 2.06325e-05
0.00160469 0.00038717 -1.62637e-06
0.00038717 -1.93714e-05 -1.43859e-07
-1.62637e-06 -1.43859e-07 -0.000184183
0.00177276 0.000293501 6.418e-06
0.000293501 -1.14509e-05 -3.56666e-07
6.418e-06 -3.56666e-07 -0.000113625
0.00190404 4.77406e-05 -1.03644e-06
4.77406e-05 1.63484e-05 4.15737e-07
-1.03644e-06 4.15737e-07 -1.2563e-05
0.00198933 5.14959e-05 4.18452e-07
5.14959e-05 1.25517e-05 -8.27986e-08
4.18452e-07 -8.27986e-08 -1.28912e-06
0.00201541 6.3062e-05 -7.14921e-06
6.3062e-05 3.2844e-05 7.19974e-07
-7.14921e-06 7.19974e-07 2.7863e-05
0.00173663 -1.32343e-05 -3.16879e-06
-1.32343e-05 -3.25721e-05 1.60089e-07
-3.16879e-06 1.60089e-07 -7.39833e-05
0.00201079 -7.92639e-05 2.98817e-06
-7.92639e-05 -3.64459e-05 -5.46009e-07
2.98817e-06 -5.46009e-07 -2.76982e-05
0.00191756 -5.7755e-05 -8.20693e-07
-5.7755e-05 2.86592e-05 2.97096e-07
-8.20693e-07 2.97096e-07 3.41688e-06
0.00188497 -7.1316e-05 -1.30737e-06
-7.1316e-05 9.8989e-05 -3.31878e-07
-1.30737e-06 -3.31878e-07 3.14825e-05
0.00179549 -0.000163366 2.67935e-06
-0.000163366 -3.00886e-05 -2.7461e-07
2.67935e-06 -2.7461e-07 -8.0458e-05
0.00185296 -0.000127182 2.15687e-06
-0.000127182 7.44623e-05 -7.73945e-07
2.15687e-06 -7.73945e-07 -6.10171e-06
0.00183239 -0.000122519 2.96732e-06
-0.000122519 0.000134385 -1.34448e-06
2.96732e-06 -1.34448e-06 1.9247e-05
0.00189972 -0.000193477 -1.52422e-07
-0.000193477 0.000128936 4.42935e-07
-1.52422e-07 4.42935e-07 3.15826e-05
0.00179052 -0.000172959 -1.09148e-07
-0.000172959 0.000132301 -4.62457e-08
-1.09148e-07 -4.62457e-08 4.80185e-06
0.00146137 -0.000128272 -2.89447e-06
-0.000128272 8.70235e-05 4.64259e-07
-2.89447e-06 4.64259e-07 -5.94408e-05
0.00176374 -0.000212255 -8.42932e-07
-0.000212255 0.000156392 6.68629e-07
-8.42932e-07 6.68629e-07 1.4829e-05
0.00142089 -0.000157453 -1.58e-07
-0.000157453 8.64676e-05 1.41053e-07
-1.58e-07 1.41053e-07 -6.83534e-05
0.000983234 -0.00010461 -1.28031e-05
-0.00010461 -2.04423e-05 3.9511e-06
-1.28031e-05 3.9511e-06 -0.000156469
0.00139761 -0.000180649 4.28466e-06
-0.000180649 9.65212e-05 -1.19859e-06
4.28466e-06 -1.19859e-06 -6.53321e-05
0.000992937 -0.000120958 2.52642e-08
-0.000120958 -6.03189e-06 1.93888e-07
2.52642e-08 1.93888e-07 -0.000143939
0.00250789 -0.000129543 -4.56546e-05
-0.000129543 0.00105122 7.64259e-06
-4.56546e-05 7.64259e-06 0.000982334
0.00099818 -0.000136651 1.34235e-05
-0.000136651 5.95631e-06 -5.46635e-06
1.34235e-05 -5.46635e-06 -0.000134144
0.00258334 -0.000152025 3.44796e-05
-0.000152025 0.00110021 -4.04322e-06
3.44796e-05 -4.04322e-06 0.00103336
0.00183388 -7.79957e-05 -0.000182932
-7.79957e-05 0.00073808 2.18931e-05
-0.000182932 2.18931e-05 0.000719852
0.00273808 -0.000176678 0.000115858
-0.000176678 0.00119789 -1.80678e-05
0.000115858 -1.80678e-05 0.00113089
0.00155126 -2.70558e-05 -8.3198e-05
-2.70558e-05 0.00058151 9.5598e-06
-8.3198e-05 9.5598e-06 0.000552396
0.00537864 0.000167187 3.24516e-05
0.000167187 0.00287319 -2.25724e-06
3.24516e-05 -2.25724e-06 0.00284521
0.00187765 0.000240987 6.18325e-07
0.000240987 0.000117287 3.80132e-07
6.18325e-07 3.80132e-07 -1.30536e-05
0.00185052 0.000265661 1.20433e-08
0.000265661 0.00020032 -6.32614e-07
1.20433e-08 -6.32614e-07 4.28346e-05
0.00194427 0.000290061 -3.4091e-06
0.000290061 0.000169251 4.98993e-08
-3.4091e-06 4.98993e-08 2.53622e-05
0.00165725 0.000236893 -3.6007e-06
0.000236893 0.000265541 -5.72167e-07
-3.6007e-06 -5.72167e-07 9.2168e-05
0.00160998 0.000279581 4.01017e-07
0.000279581 9.56409e-05 -1.42906e-06
4.01017e-07 -1.42906e-06 -7.66919e-05
0.00191855 0.000295699 -2.87928e-06
0.000295699 0.000175813 -3.48394e-06
-2.87928e-06 -3.48394e-06 2.71665e-05
0.000972303 0.000171687 -1.32769e-05
0.000171687 9.2525e-06 -5.51619e-06
-1.32769e-05 -5.51619e-06 -0.000142611
0.0012719 0.000240339 -3.47031e-07
0.000240339 7.72763e-05 4.02249e-07
-3.47031e-07 4.02249e-07 -0.000108632
0.00178707 0.000339326 2.81479e-06
0.000339326 0.000246208 -1.78157e-06
2.81479e-06 -1.78157e-06 4.39682e-05
0.00122413 0.000241471 7.73653e-06
0.000241471 0.000111524 2.03413e-06
7.73653e-06 2.03413e-06 -7.91028e-05
0.000889892 0.000175712 -4.60086e-07
0.000175712 -1.59091e-07 -2.70568e-07
-4.60086e-07 -2.70568e-07 -0.000157575
0.000580127 0.000209715 -2.48829e-05
0.000209715 -5.59576e-05 -1.42105e-05
-2.48829e-05 -1.42105e-05 -0.000153522
0.00083189 0.000169694 8.76773e-06
0.000169694 2.30592e-05 5.69719e-06
8.76773e-06 5.69719e-06 -0.000140324
0.000545874 0.000174468 1.80719e-06
0.000174468 -5.98666e-05 4.68374e-07
1.80719e-06 4.68374e-07 -0.000151749
0.00555847 -0.000114222 -0.000177876
-0.000114222 0.00301964 -1.95122e-05
-0.000177876 -1.95122e-05 0.00299122
0.000350455 8.79706e-05 1.37559e-05
8.79706e-05 -0.000152348 1.33518e-05
1.37559e-05 1.33518e-05 -0.000222917
0.0046793 -0.000170936 -1.15108e-05
-0.000170936 0.00248982 9.44552e-07
-1.15108e-05 9.44552e-07 0.00246986
0.00368631 -0.000178593 8.69631e-05
-0.000178593 0.00189651 2.49048e-06
8.69631e-05 2.49048e-06 0.00187972
0.00191826 0.00013644 -9.53459e-07
0.00013644 5.4006e-05 1.45906e-06
-9.53459e-07 1.45906e-06 -1.52596e-05
0.0019716 0.000171241 7.89816e-07
0.000171241 1.24494e-05 3.26196e-07
7.89816e-07 3.26196e-07 -3.80307e-05
0.00184719 0.000158826 -3.16525e-07
0.000158826 -7.28209e-05 7.20556e-07
-3.16525e-07 7.20556e-07 -0.000104488
0.00199639 0.000248348 1.87916e-07
0.000248348 0.000136758 -5.10895e-08
1.87916e-07 -5.10895e-08 2.79171e-05
0.00178795 0.000336645 -1.01868e-06
0.000336645 0.00010417 -1.04445e-06
-1.01868e-06 -1.04445e-06 -5.27084e-05
0.00190586 0.000265977 -2.65095e-07
0.000265977 4.72127e-05 -9.66679e-07
-2.65095e-07 -9.66679e-07 -5.56732e-05
0.00185997 5.18773e-05 -1.14708e-06
5.18773e-05 4.74473e-05 -1.27537e-07
-1.14708e-06 -1.27537e-07 -2.67278e-06
0.00192358 4.56474e-05 4.26967e-07
4.56474e-05 3.11183e-05 -1.23711e-07
4.26967e-07 -1.23711e-07 1.60892e-06
0.00198464 5.20789e-05 2.37926e-06
5.20789e-05 2.09314e-05 1.00802e-07
2.37926e-06 1.00802e-07 3.85357e-06
0.00182748 -1.81485e-05 -2.23873e-06
-1.81485e-05 1.8894e-05 8.53714e-08
-2.23873e-06 8.53714e-08 -2.19809e-05
0.00176045 -3.70232e-05 -1.28027e-06
-3.70232e-05 3.54812e-05 -1.9955e-07
-1.28027e-06 -1.9955e-07 -3.69986e-05
0.00190316 -6.03783e-05 1.28085e-06
-6.03783e-05 1.91768e-05 1.80655e-07
1.28085e-06 1.80655e-07 -6.75833e-06
0.0018442 -7.0915e-05 -1.65324e-06
-7.0915e-05 7.4248e-05 5.78845e-07
-1.65324e-06 5.78845e-07 2.51924e-06
0.00188017 -7.19086e-05 3.9452e-07
-7.19086e-05 0.000167398 -4.11634e-07
3.9452e-07 -4.11634e-07 6.61577e-05
0.00189945 -0.000129217 2.21236e-06
-0.000129217 9.31704e-05 -7.6502e-08
2.21236e-06 -7.6502e-08 1.28661e-05
0.00178228 -0.000122725 2.08282e-06
-0.000122725 0.000108183 -7.20397e-07
2.08282e-06 -7.20397e-07 -7.08948e-06
0.00148107 -9.06565e-05 -1.82769e-06
-9.06565e-05 7.63294e-05 -4.28704e-08
-1.82769e-06 -4.28704e-08 -6.15074e-05
0.00178557 -0.000172963 -1.18992e-06
-0.000172963 0.000130992 5.42072e-07
-1.18992e-06 5.42072e-07 3.58313e-06
0.00145172 -0.000127811 -1.03178e-07
-0.000127811 7.81604e-05 5.84138e-08
-1.03178e-07 5.84138e-08 -6.80671e-05
0.000988917 -8.26769e-05 -1.24346e-05
-8.26769e-05 -2.77101e-05 3.00005e-06
-1.24346e-05 3.00005e-06 -0.000160077
0.00142584 -0.000157165 3.30616e-06
-0.000157165 8.66344e-05 -6.96726e-07
3.30616e-06 -6.96726e-07 -6.7796e-05
0.00100041 -0.000102777 -1.04646e-07
-0.000102777 -1.20705e-05 2.39248e-07
-1.04646e-07 2.39248e-07 -0.00014743
0.0024907 -0.000142198 -4.93497e-05
-0.000142198 0.00103759 6.88137e-06
-4.93497e-05 6.88137e-06 0.000968248
0.00100962 -0.000119483 1.32002e-05
-0.000119483 1.52263e-06 -4.58846e-06
1.32002e-05 -4.58846e-06 -0.000135656
0.00257507 -0.000136815 3.31409e-05
-0.000136815 0.0010876 -3.05796e-06
3.31409e-05 -3.05796e-06 0.00102325
0.00186701 -6.65161e-05 -0.000182795
-6.65161e-05 0.000751367 1.87849e-05
-0.000182795 1.87849e-05 0.000733628
0.00268394 -0.000151575 0.000114092
-0.000151575 0.00115479 -1.56759e-05
0.000114092 -1.56759e-05 0.00109383
0.00155541 -3.87935e-05 -7.53591e-05
-3.87935e-05 0.000577345 8.26541e-06
-7.53591e-05 8.26541e-06 0.000551413
0.00136948 -1.9363e-05 3.45853e-05
-1.9363e-05 0.000477899 -5.37993e-06
3.45853e-05 -5.37993e-06 0.000441444
0.00193367 0.000143809 -6.71688e-07
0.000143809 0.000128751 1.7087e-06
-6.71688e-07 1.7087e-06 3.18673e-05
0.00181574 0.000222226 -1.08969e-06
0.000222226 0.000148595 3.13298e-07
-1.08969e-06 3.13298e-07 4.06725e-06
0.00186898 0.000241115 -7.32282e-07
0.000241115 0.000104739 -9.54704e-08
-7.32282e-07 -9.54704e-08 -2.25602e-05
0.00173707 0.000219924 -2.85404e-06
0.000219924 0.000267571 -4.41775e-07
-2.85404e-06 -4.41775e-07 0.00010699
0.0017942 0.000260925 3.59979e-07
0.000260925 0.000172753 -3.83283e-08
3.59979e-07 -3.83283e-08 1.40974e-05
0.00181622 0.000285024 4.59319e-07
0.000285024 9.14296e-05 1.03643e-07
4.59319e-07 1.03643e-07 -5.44664e-05
0.0010118 0.000157256 -1.39041e-05
0.000157256 8.06263e-06 -5.13832e-06
-1.39041e-05 -5.13832e-06 -0.000137067
0.00150605 0.000233442 3.24456e-06
0.000233442 0.000172206 6.55933e-07
3.24456e-06 6.55933e-07 -1.5907e-06
0.00165214 0.000287055 2.34951e-07
0.000287055 0.000112426 -2.30472e-06
2.34951e-07 -2.30472e-06 -5.8136e-05
0.000511439 0.000176686 -2.25812e-05
0.000176686 -0.000106292 -1.24941e-05
-2.25812e-05 -1.24941e-05 -0.000201364
0.000955808 0.000170528 -6.69353e-07
0.000170528 1.02081e-06 2.33841e-07
-6.69353e-07 2.33841e-07 -0.00015054
0.0013633 0.000246288 7.79536e-06
0.000246288 0.000131433 2.70671e-06
7.79536e-06 2.70671e-06 -5.5356e-05
0.000921613 0.000177749 1.15104e-05
0.000177749 1.85033e-05 5.40351e-06
1.15104e-05 5.40351e-06 -0.000138983
0.000540607 0.000191279 1.57797e-06
0.000191279 -7.46849e-05 5.15084e-07
1.57797e-06 5.15084e-07 -0.0001737
0.00581627 -2.10035e-05 -0.000195381
-2.10035e-05 0.00314983 -2.20275e-05
-0.000195381 -2.20275e-05 0.00313145
0.00046238 0.000162967 2.06341e-05
0.000162967 -0.000109133 1.43451e-05
2.06341e-05 1.43451e-05 -0.000197642
0.00537299 -0.000125018 6.42894e-07
-0.000125018 0.0028923 -6.29505e-07
6.42894e-07 -6.29505e-07 0.00287467
0.00438975 -0.000210713 0.000107061
-0.000210713 0.00232895 5.18981e-06
0.000107061 5.18981e-06 0.00230093
0.00178122 9.43189e-05 -2.70328e-06
9.43189e-05 1.60999e-05 1.15023e-06
-2.70328e-06 1.15023e-06 -4.79172e-05
0.00188852 0.000135667 1.199e-06
0.000135667 3.92396e-05 7.80932e-07
1.199e-06 7.80932e-07 -2.86865e-05
0.0019753 0.000174742 -5.63608e-07
0.000174742 7.95694e-06 -2.18422e-07
-5.63608e-07 -2.18422e-07 -3.982e-05
0.00197235 0.00024326 2.08025e-06
0.00024326 0.000126296 -5.13103e-07
2.08025e-06 -5.13103e-07 2.01522e-05
0.00179373 2.98294e-07 1.3856e-06
2.98294e-07 6.3377e-05 -2.59827e-07
1.3856e-06 -2.59827e-07 -1.23578e-05
0.00191103 4.56244e-05 5.61398e-07
4.56244e-05 7.00166e-05 -6.66783e-08
5.61398e-07 -6.66783e-08 2.23882e-05
0.00194492 4.36904e-05 2.13605e-06
4.36904e-05 4.7851e-05 -8.14358e-08
2.13605e-06 -8.14358e-08 1.75959e-05
0.00192454 -2.07412e-05 -8.63398e-07
-2.07412e-05 7.37027e-05 -5.36271e-08
-8.63398e-07 -5.36271e-08 3.3384e-05
0.00174964 -2.97265e-05 -2.05714e-06
-2.97265e-05 3.07952e-05 -8.94606e-08
-2.05714e-06 -8.94606e-08 -3.88681e-05
0.00180731 -3.06557e-05 2.19617e-06
-3.06557e-05 0.000131936 -6.69984e-07
2.19617e-06 -6.69984e-07 3.19986e-05
0.00178713 -7.03699e-05 -1.59294e-06
-7.03699e-05 3.85662e-05 1.19718e-06
-1.59294e-06 1.19718e-06 -3.73807e-05
0.00177048 -7.14438e-05 -3.26067e-07
-7.14438e-05 0.000105869 3.47751e-07
-3.26067e-07 3.47751e-07 -2.05879e-07
0.00155262 -5.26616e-05 -2.58855e-06
-5.26616e-05 0.000104012 -6.18298e-08
-2.58855e-06 -6.18298e-08 -2.28151e-05
0.0017488 -0.000121731 1.13515e-06
-0.000121731 9.1686e-05 -8.11313e-08
1.13515e-06 -8.11313e-08 -2.34679e-05
0.00147253 -8.85323e-05 6.1395e-07
-8.85323e-05 6.95359e-05 -2.2871e-07
6.1395e-07 -2.2871e-07 -6.78711e-05
0.000985402 -5.71489e-05 -1.22355e-05
-5.71489e-05 -3.82079e-05 2.24134e-06
-1.22355e-05 2.24134e-06 -0.000166854
0.00144628 -0.000125302 2.626e-06
-0.000125302 7.24215e-05 -4.01887e-07
2.626e-06 -4.01887e-07 -7.32779e-05
0.000994797 -8.18505e-05 -5.33662e-08
-8.18505e-05 -2.48171e-05 1.63028e-07
-5.33662e-08 1.63028e-07 -0.000156864
0.000586646 -8.14205e-05 -1.9691e-05
-8.14205e-05 -0.000112292 4.84188e-06
-1.9691e-05 4.84188e-06 -0.000187674
0.0010177 -0.000100944 1.27017e-05
-0.000100944 -3.54454e-06 -3.52804e-06
1.27017e-05 -3.52804e-06 -0.000138213
0.00158193 -9.08815e-05 4.66128e-05
-9.08815e-05 0.000487183 -3.06007e-06
4.66128e-05 -3.06007e-06 0.00041948
0.00560952 -0.000120546 -0.000234663
-0.000120546 0.00298232 1.47797e-05
-0.000234663 1.47797e-05 0.00298881
0.00266015 -0.000123603 0.0001132
-0.000123603 0.00112999 -1.27039e-05
0.0001132 -1.27039e-05 0.00107253
0.00156912 -4.92303e-05 -6.79143e-05
-4.92303e-05 0.000581985 5.71742e-06
-6.79143e-05 5.71742e-06 0.000556036
0.0012824 -6.04167e-05 4.56469e-05
-6.04167e-05 0.000426856 -6.36149e-06
4.56469e-05 -6.36149e-06 0.000390204
0.00188592 0.00010029 -6.67152e-07
0.00010029 0.000117274 1.86783e-06
-6.67152e-07 1.86783e-06 3.46405e-05
0.00186666 0.000155381 4.03382e-07
0.000155381 0.000163956 1.45438e-06
4.03382e-07 1.45438e-06 4.04116e-05
0.00196699 0.000140884 4.393e-07
0.000140884 0.000155327 3.64949e-08
4.393e-07 3.64949e-08 5.78139e-05
0.00153202 0.000176194 -3.32082e-06
0.000176194 0.000109639 -2.84862e-07
-3.32082e-06 -2.84862e-07 -4.09415e-05
0.00179905 0.000219017 3.76102e-07
0.000219017 0.000139082 3.76207e-09
3.76102e-07 3.76207e-09 -4.77234e-06
0.00185488 0.000241373 3.21291e-07
0.000241373 8.82728e-05 -2.63478e-07
3.21291e-07 -2.63478e-07 -3.60597e-05
0.000725553 0.000123594 -1.55361e-05
0.000123594 -0.000179934 -4.54015e-06
-1.55361e-05 -4.54015e-06 -0.000319946
0.0017569 0.000221096 2.48365e-06
0.000221096 0.000279146 6.58964e-07
2.48365e-06 6.58964e-07 0.000118603
0.00173119 0.000255731 2.15252e-07
0.000255731 0.000141121 -4.63904e-07
2.15252e-07 -4.63904e-07 -1.86742e-05
0.000491155 0.000130195 -1.96059e-05
0.000130195 -0.000136738 -9.85251e-06
-1.96059e-05 -9.85251e-06 -0.000223672
0.000814668 0.000147457 5.17597e-07
0.000147457 -0.000107785 2.94048e-07
5.17597e-07 2.94048e-07 -0.000253417
0.00134111 0.00022913 9.22234e-06
0.00022913 7.04286e-05 1.56707e-06
9.22234e-06 1.56707e-06 -0.000103663
0.00585373 6.34025e-05 -0.000207609
6.34025e-05 0.00314709 -2.13234e-05
-0.000207609 -2.13234e-05 0.00314035
0.000506861 0.000164388 1.06923e-06
0.000164388 -0.000108248 7.1975e-07
1.06923e-06 7.1975e-07 -0.000204185
0.000937459 0.000169527 1.2833e-05
0.000169527 -8.19607e-06 6.08852e-06
1.2833e-05 6.08852e-06 -0.000159502
0.000458255 0.000174659 2.08362e-05
0.000174659 -0.000118604 1.404e-05
2.08362e-05 1.404e-05 -0.000218809
0.00568686 -3.26474e-05 8.74526e-06
-3.26474e-05 0.00306341 -6.81919e-07
8.74526e-06 -6.81919e-07 0.00305212
0.00515472 -0.000171279 0.000147843
-0.000171279 0.00276573 7.65402e-06
0.000147843 7.65402e-06 0.00274516
0.00186582 6.30477e-05 -1.83426e-06
6.30477e-05 0.00010484 -6.38178e-07
-1.83426e-06 -6.38178e-07 2.86868e-05
0.00184752 9.51236e-05 4.15331e-07
9.51236e-05 5.27975e-05 6.16307e-07
4.15331e-07 6.16307e-07 -1.21139e-05
0.00185819 0.000134778 1.86457e-06
0.000134778 2.425e-05 6.00428e-08
1.86457e-06 6.00428e-08 -4.22938e-05
0.00169263 3.95397e-06 2.43352e-06
3.95397e-06 5.62974e-05 -5.36481e-07
2.43352e-06 -5.36481e-07 -4.57149e-05
0.00174093 2.5399e-06 6.75013e-07
2.5399e-06 3.68675e-05 8.89492e-08
6.75013e-07 8.89492e-08 -3.71953e-05
0.00193656 3.76871e-05 1.44712e-06
3.76871e-05 7.73762e-05 -4.13947e-09
1.44712e-06 -4.13947e-09 3.22579e-05
0.00174278 -2.3592e-05 -2.29614e-06
-2.3592e-05 2.87346e-05 7.08675e-07
-2.29614e-06 7.08675e-07 -3.82188e-05
0.00177676 -2.66e-05 9.51481e-07
-2.66e-05 0.000113169 -5.33176e-08
9.51481e-07 -5.33176e-08 1.35787e-05
0.0017382 -1.97589e-05 -5.72753e-07
-1.97589e-05 0.000216957 -5.34397e-07
-5.72753e-07 -5.34397e-07 9.63522e-05
0.00165996 -7.09442e-05 -2.07508e-06
-7.09442e-05 4.44941e-05 1.10441e-06
-2.07508e-06 1.10441e-06 -6.64259e-05
0.00160798 -5.27942e-05 6.89871e-08
-5.27942e-05 0.000138446 6.17477e-08
6.89871e-08 6.17477e-08 9.99527e-06
0.000788256 -2.79398e-05 -1.37625e-05
-2.79398e-05 -0.000162225 1.39226e-06
-1.37625e-05 1.39226e-06 -0.000288376
0.00145666 -8.84431e-05 2.86859e-06
-8.84431e-05 5.82656e-05 -4.59025e-07
2.86859e-06 -4.59025e-07 -7.90032e-05
0.000991125 -5.41148e-05 -3.74609e-08
-5.41148e-05 -3.59591e-05 1.23388e-07
-3.74609e-08 1.23388e-07 -0.000164156
0.000589562 -2.06615e-05 -1.83995e-05
-2.06615e-05 -0.000114023 3.16206e-06
-1.83995e-05 3.16206e-06 -0.00018852
0.00101403 -8.03996e-05 1.2305e-05
-8.03996e-05 -1.47743e-05 -2.66509e-06
1.2305e-05 -2.66509e-06 -0.000146348
0.00059291 -6.37884e-05 -2.25596e-07
-6.37884e-05 -0.000106139 3.37921e-07
-2.25596e-07 3.37921e-07 -0.00018326
0.00561768 -1.53222e-05 -0.000225916
-1.53222e-05 0.00298374 8.97072e-06
-0.000225916 8.97072e-06 0.00299253
0.00062336 -6.70931e-05 1.60017e-05
-6.70931e-05 -8.62712e-05 -6.75529e-06
1.60017e-05 -6.75529e-06 -0.00016555
0.00353661 -7.92558e-05 0.00010506
-7.92558e-05 0.00175267 -3.92872e-06
0.00010506 -3.92872e-06 0.0017366
0.00123763 -7.28857e-05 5.18375e-05
-7.28857e-05 0.000402099 -6.894e-06
5.18375e-05 -6.894e-06 0.000363094
0.00179965 9.16457e-05 -1.07267e-06
9.16457e-05 8.70768e-05 1.9363e-07
-1.07267e-06 1.9363e-07 1.3741e-06
0.00174718 9.5117e-05 2.43677e-06
9.5117e-05 9.58372e-05 2.36698e-06
2.43677e-06 2.36698e-06 -1.63604e-05
0.00193901 9.77893e-05 3.9969e-08
9.77893e-05 0.00015048 -3.72536e-07
3.9969e-08 -3.72536e-07 6.9001e-05
0.00148795 0.00012597 -2.0708e-06
0.00012597 6.93869e-05 -7.36964e-08
-2.0708e-06 -7.36964e-08 -7.23443e-05
0.00183935 0.000154499 5.48642e-07
0.000154499 0.00014367 1.72281e-07
5.48642e-07 1.72281e-07 1.88557e-05
0.00200627 0.000137851 2.43365e-07
0.000137851 0.000185419 -1.78047e-06
2.43365e-07 -1.78047e-06 8.73122e-05
0.000783529 0.000102816 -1.46398e-05
0.000102816 -0.000161554 -3.47146e-06
-1.46398e-05 -3.47146e-06 -0.000296159
0.00163203 0.000177893 -5.32692e-08
0.000177893 0.000172037 2.30474e-07
-5.32692e-08 2.30474e-07 2.1039e-05
0.00178512 0.00021588 7.42598e-07
0.00021588 0.000131599 -5.05332e-07
7.42598e-07 -5.05332e-07 -1.15704e-05
0.00051286 9.23685e-05 -1.79837e-05
9.23685e-05 -0.000141692 -7.23203e-06
-1.79837e-05 -7.23203e-06 -0.000221961
0.000707764 0.000123024 -2.80983e-06
0.000123024 -0.000189663 -3.69135e-07
-2.80983e-06 -3.69135e-07 -0.000329833
0.00178117 0.000222738 8.01434e-06
0.000222738 0.00029336 1.85134e-06
8.01434e-06 1.85134e-06 0.000132775
0.00578356 0.00014026 -0.00022558
0.00014026 0.00309087 -2.03643e-05
-0.00022558 -2.03643e-05 0.0030915
0.000503274 0.000124682 3.65125e-07
0.000124682 -0.000130497 3.45265e-07
3.65125e-07 3.45265e-07 -0.000217886
0.000625132 0.000138309 1.36462e-05
0.000138309 -0.000219353 5.01324e-06
1.36462e-05 5.01324e-06 -0.000365561
0.00576061 7.79944e-05 1.27051e-05
7.79944e-05 0.00309333 1.26819e-06
1.27051e-05 1.26819e-06 0.0030875
0.000484523 0.000151308 1.92969e-05
0.000151308 -0.000120618 1.24892e-05
1.92969e-05 1.24892e-05 -0.000217265
0.00557218 -6.41199e-05 0.000188627
-6.41199e-05 0.00298566 1.16281e-05
0.000188627 1.16281e-05 0.00298072
0.00180149 4.43231e-05 1.03761e-06
4.43231e-05 0.000108791 -5.33349e-07
1.03761e-06 -5.33349e-07 8.68504e-06
0.00179054 6.04362e-05 -1.73717e-06
6.04362e-05 6.71599e-05 4.53723e-07
-1.73717e-06 4.53723e-07 -1.07568e-05
0.00192973 9.58003e-05 2.17844e-06
9.58003e-05 9.88628e-05 1.72044e-07
2.17844e-06 1.72044e-07 3.31255e-05
0.00174233 -1.91046e-06 5.45934e-07
-1.91046e-06 0.000225359 -3.28105e-07
5.45934e-07 -3.28105e-07 0.000107011
0.00169816 2.22679e-06 9.39605e-08
2.22679e-06 5.80241e-05 3.91721e-08
9.39605e-08 3.91721e-08 -4.22815e-05
0.00168472 6.00849e-06 1.28571e-06
6.00849e-06 7.79495e-06 2.60549e-07
1.28571e-06 2.60549e-07 -6.45853e-05
0.00174135 -2.28449e-05 -4.10696e-07
-2.28449e-05 9.16385e-05 6.38462e-07
-4.10696e-07 6.38462e-07 -7.62864e-06
0.00174461 -1.9718e-05 2.7288e-06
-1.9718e-05 0.000220183 -2.35385e-07
2.7288e-06 -2.35385e-07 9.95625e-05
0.000803818 -9.34231e-06 -1.32846e-05
-9.34231e-06 -0.000150895 5.2794e-07
-1.32846e-05 5.2794e-07 -0.000273959
0.00166619 -5.30892e-05 2.90802e-06
-5.30892e-05 0.000174519 3.63543e-08
2.90802e-06 3.63543e-08 4.44355e-05
0.000893247 -2.75418e-05 -2.23138e-06
-2.75418e-05 -0.000100125 2.20002e-07
-2.23138e-06 2.20002e-07 -0.000225795
0.00059373 -6.44808e-06 -1.86513e-05
-6.44808e-06 -0.000115555 2.05563e-06
-1.86513e-05 2.05563e-06 -0.000188635
0.00100115 -5.22557e-05 1.18572e-05
-5.22557e-05 -3.08101e-05 -1.96219e-06
1.18572e-05 -1.96219e-06 -0.000158665
0.000573396 -3.15818e-05 8.31019e-07
-3.15818e-05 -0.000125441 -5.03496e-08
8.31019e-07 -5.03496e-08 -0.000198521
0.00556928 -0.000112831 -0.000234483
-0.000112831 0.00296338 9.40853e-06
-0.000234483 9.40853e-06 0.0029689
0.000569362 -4.72767e-05 1.77906e-05
-4.72767e-05 -0.000120193 -3.80965e-06
1.77906e-05 -3.80965e-06 -0.000197084
0.00559576 -5.13247e-05 7.76885e-06
-5.13247e-05 0.00297171 -5.09921e-08
7.76885e-06 -5.09921e-08 0.00298065
0.00157033 -2.01218e-05 0.000188515
-2.01218e-05 0.000574766 -1.03876e-05
0.000188515 -1.03876e-05 0.000561623
0.00167103 6.86467e-05 2.54658e-06
6.86467e-05 4.62902e-05 5.07855e-07
2.54658e-06 5.07855e-07 -6.22593e-05
0.00178708 9.57733e-05 -3.20846e-06
9.57733e-05 7.43314e-05 -7.88421e-07
-3.20846e-06 -7.88421e-07 -8.60186e-06
0.00148893 7.76552e-05 -1.14376e-06
7.76552e-05 6.89909e-05 1.82384e-07
-1.14376e-06 1.82384e-07 -6.34271e-05
0.00175185 9.40527e-05 6.24281e-07
9.40527e-05 9.75897e-05 1.81217e-07
6.24281e-07 1.81217e-07 -1.4709e-05
0.00199101 9.55281e-05 -4.8399e-07
9.55281e-05 0.000182911 -3.07614e-06
-4.8399e-07 -3.07614e-06 0.00010257
0.0010436 7.99769e-05 -1.24446e-05
7.99769e-05 -1.21836e-05 -2.35708e-06
-1.24446e-05 -2.35708e-06 -0.000139536
0.00148557 0.000125675 9.01918e-08
0.000125675 6.94933e-05 6.82592e-08
9.01918e-08 6.82592e-08 -7.24021e-05
0.00180763 0.000153459 1.65918e-07
0.000153459 0.000120904 -9.18245e-07
1.65918e-07 -9.18245e-07 -5.18024e-06
0.000537226 6.5486e-05 -1.75335e-05
6.5486e-05 -0.000140279 -5.21876e-06
-1.75335e-05 -5.21876e-06 -0.000216931
0.000876934 0.000106607 -3.00035e-06
0.000106607 -0.000104815 -2.85769e-07
-3.00035e-06 -2.85769e-07 -0.000239046
0.00173579 0.000179494 4.27166e-06
0.000179494 0.00023686 1.06948e-06
4.27166e-06 1.06948e-06 8.54772e-05
0.00573049 0.000184282 -0.000244067
0.000184282 0.0030606 -1.95943e-05
-0.000244067 -1.95943e-05 0.00306074
0.000532665 9.16367e-05 3.55432e-08
9.16367e-05 -0.000130927 1.80422e-07
3.55432e-08 1.80422e-07 -0.000211354
0.000689057 0.000122495 9.58558e-06
0.000122495 -0.000200173 3.6372e-06
9.58558e-06 3.6372e-06 -0.000340451
0.00573677 0.000160425 1.07374e-05
0.000160425 0.00307237 2.87154e-06
1.07374e-05 2.87154e-06 0.0030688
0.00052012 0.00011783 1.84171e-05
0.00011783 -0.00012202 9.75408e-06
1.84171e-05 9.75408e-06 -0.000209416
0.00569556 7.25514e-05 0.000214357
7.25514e-05 0.00304395 1.7344e-05
0.000214357 1.7344e-05 0.00304564
0.00172762 3.01909e-05 1.27547e-06
3.01909e-05 0.000216271 -7.26767e-09
1.27547e-06 -7.26767e-09 9.73125e-05
0.00176425 3.97235e-05 -1.36065e-06
3.97235e-05 8.98249e-05 8.05451e-08
-1.36065e-06 8.05451e-08 -1.17039e-05
0.00172809 5.76772e-05 -1.39728e-06
5.76772e-05 3.77326e-05 4.05132e-07
-1.39728e-06 4.05132e-07 -4.18931e-05
0.000796724 -7.63408e-06 -1.37649e-05
-7.63408e-06 -0.000148114 -1.30036e-07
-1.37649e-05 -1.30036e-07 -0.000269614
0.00174655 3.94171e-06 3.14159e-06
3.94171e-06 0.00022774 -1.91117e-07
3.14159e-06 -1.91117e-07 0.000109348
0.00170381 3.61771e-07 -1.51037e-06
3.61771e-07 5.98619e-05 5.10768e-07
-1.51037e-06 5.10768e-07 -3.87168e-05
0.00175569 -2.00548e-05 5.86023e-06
-2.00548e-05 0.000226193 7.73922e-08
5.86023e-06 7.73922e-08 0.000105555
0.00079564 -9.44819e-06 -1.6791e-06
-9.44819e-06 -0.000156691 7.63617e-08
-1.6791e-06 7.63617e-08 -0.000280002
0.000596235 -2.87552e-05 -1.90341e-05
-2.87552e-05 -0.000114918 7.91421e-07
-1.90341e-05 7.91421e-07 -0.000185815
0.000981454 -2.6319e-05 1.01893e-05
-2.6319e-05 -4.78263e-05 -1.18938e-06
1.01893e-05 -1.18938e-06 -0.000173037
0.000574111 4.40833e-06 3.25076e-07
4.40833e-06 -0.000127501 8.60937e-08
3.25076e-07 8.60937e-08 -0.000199936
0.00560281 -8.99108e-05 -0.00024123
-8.99108e-05 0.00298084 6.66728e-06
-0.00024123 6.66728e-06 0.00298857
0.00058587 -3.43925e-05 1.85899e-05
-3.43925e-05 -0.000116333 -2.58979e-06
1.85899e-05 -2.58979e-06 -0.000190634
0.00560341 -6.65299e-06 -3.03212e-06
-6.65299e-06 0.00297462 1.61559e-06
-3.03212e-06 1.61559e-06 0.00298541
0.00560254 -6.94802e-05 0.000234611
-6.94802e-05 0.00297434 -8.36454e-06
0.000234611 -8.36454e-06 0.00298447
0.00146179 4.66585e-05 -1.00207e-06
4.66585e-05 5.82135e-05 4.64725e-08
-1.00207e-06 4.64725e-08 -6.95528e-05
0.00173207 7.19189e-05 -1.47277e-06
7.19189e-05 8.05827e-05 -1.28069e-06
-1.47277e-06 -1.28069e-06 -2.37608e-05
0.00177264 0.000100195 -4.21526e-06
0.000100195 6.04842e-05 -1.64323e-06
-4.21526e-06 -1.64323e-06 -1.97209e-05
0.00104607 4.6326e-05 -1.21959e-05
4.6326e-05 -9.56254e-06 -1.82769e-06
-1.21959e-05 -1.82769e-06 -0.000132131
0.00147446 7.74087e-05 1.8543e-07
7.74087e-05 6.0627e-05 1.3453e-08
1.8543e-07 1.3453e-08 -7.21825e-05
0.00175714 9.2909e-05 -1.0201e-06
9.2909e-05 0.000100065 -1.78767e-06
-1.0201e-06 -1.78767e-06 -1.23245e-05
0.000564517 4.10268e-05 -1.71239e-05
4.10268e-05 -0.000129592 -3.76115e-06
-1.71239e-05 -3.76115e-06 -0.000204052
0.00101254 8.11551e-05 2.24983e-07
8.11551e-05 -3.00233e-05 2.3225e-07
2.24983e-07 2.3225e-07 -0.000157908
0.00148407 0.000125429 2.68602e-06
0.000125429 6.97556e-05 2.71057e-07
2.68602e-06 2.71057e-07 -7.23181e-05
0.0056619 0.0001754 -0.0002559
0.0001754 0.00302216 -1.69505e-05
-0.0002559 -1.69505e-05 0.0030233
0.000562571 6.84847e-05 3.26005e-07
6.84847e-05 -0.000125297 1.51444e-07
3.26005e-07 1.51444e-07 -0.000202462
0.000967884 0.000110361 9.6264e-06
0.000110361 -4.97193e-05 3.03298e-06
9.6264e-06 3.03298e-06 -0.000183536
0.00571396 0.000197866 6.18811e-06
0.000197866 0.00305752 2.68799e-06
6.18811e-06 2.68799e-06 0.00305495
0.000555651 9.21188e-05 1.75909e-05
9.21188e-05 -0.000117689 7.64031e-06
1.75909e-05 7.64031e-06 -0.000198436
0.00572137 0.000183538 0.00023369
0.000183538 0.00306334 2.23884e-05
0.00023369 2.23884e-05 0.00306026
0.00100951 1.41003e-05 -1.28635e-05
1.41003e-05 -1.98463e-05 -7.12021e-07
-1.28635e-05 -7.12021e-07 -0.00013987
0.00161938 2.58032e-05 3.59558e-06
2.58032e-05 0.000152994 1.10617e-07
3.59558e-06 1.10617e-07 3.36214e-05
0.00172535 3.44955e-05 -4.0645e-06
3.44955e-05 6.95741e-05 1.09425e-07
-4.0645e-06 1.09425e-07 -3.33975e-05
0.000623728 2.9767e-05 -1.95154e-05
2.9767e-05 -0.00010558 -4.61631e-07
-1.95154e-05 -4.61631e-07 -0.000169523
0.000774918 -2.07055e-06 -1.88739e-06
-2.07055e-06 -0.000161762 5.5108e-08
-1.88739e-06 5.5108e-08 -0.000283414
0.00174725 1.02346e-05 5.82509e-06
1.02346e-05 0.000227978 1.18835e-07
5.82509e-06 1.18835e-07 0.000109526
0.00078452 -9.18349e-06 1.00074e-05
-9.18349e-06 -0.00016433 -3.96013e-07
1.00074e-05 -3.96013e-07 -0.000287867
0.000589047 -4.40385e-06 2.80113e-07
-4.40385e-06 -0.000118868 3.15953e-07
2.80113e-07 3.15953e-07 -0.000189968
0.00557174 3.93752e-05 -0.000246779
3.93752e-05 0.00295833 -4.83022e-07
-0.000246779 -4.83022e-07 0.00296987
0.000550665 1.57002e-05 1.80974e-05
1.57002e-05 -0.000142287 -1.1996e-06
1.80974e-05 -1.1996e-06 -0.000213749
0.00558305 -8.86295e-05 -7.84881e-06
-8.86295e-05 0.0029699 1.54972e-06
-7.84881e-06 1.54972e-06 0.00297731
0.00557035 1.31333e-05 0.0002262
1.31333e-05 0.00295537 -3.75879e-06
0.0002262 -3.75879e-06 0.00296586
0.00102338 2.47181e-05 -1.26449e-05
2.47181e-05 -1.65127e-05 -1.37328e-06
-1.26449e-05 -1.37328e-06 -0.000136888
0.00146779 4.60466e-05 -1.46995e-07
4.60466e-05 6.15509e-05 -6.91788e-08
-1.46995e-07 -6.91788e-08 -6.391e-05
0.00179537 7.49401e-05 -4.50381e-06
7.49401e-05 0.000115992 -2.08386e-06
-4.50381e-06 -2.08386e-06 1.58686e-05
0.00262195 5.00441e-05 -0.000118433
5.00441e-05 0.00109064 -3.77581e-06
-0.000118433 -3.77581e-06 0.00104229
0.00101381 4.8202e-05 2.61551e-07
4.8202e-05 -2.89843e-05 1.15104e-07
2.61551e-07 1.15104e-07 -0.000151933
0.00146089 7.70989e-05 2.31822e-06
7.70989e-05 5.27314e-05 -2.0147e-08
2.31822e-06 -2.0147e-08 -8.04785e-05
0.0055948 0.000138366 -0.000257967
0.000138366 0.0029804 -1.26012e-05
-0.000257967 -1.26012e-05 0.00298527
0.000597343 5.78253e-05 8.25925e-07
5.78253e-05 -0.000108296 3.43602e-07
8.25925e-07 3.43602e-07 -0.00018427
0.000985371 8.24713e-05 1.23423e-05
8.24713e-05 -4.55141e-05 2.77737e-06
1.23423e-05 2.77737e-06 -0.000173909
0.00570216 0.000187369 1.74965e-06
0.000187369 0.00304803 1.65494e-06
1.74965e-06 1.65494e-06 0.00304811
0.000598308 7.4097e-05 1.79532e-05
7.4097e-05 -0.000103126 5.99625e-06
1.79532e-05 5.99625e-06 -0.000181382
0.00569846 0.00022473 0.000244768
0.00022473 0.0030567 2.38114e-05
0.000244768 2.38114e-05 0.00304975
0.000669202 9.32795e-06 -1.63416e-05
9.32795e-06 -6.82534e-05 -1.75825e-06
-1.63416e-05 -1.75825e-06 -0.0001402
0.000885413 1.23245e-05 6.70199e-07
1.23245e-05 -9.3997e-05 2.53527e-07
6.70199e-07 2.53527e-07 -0.000214685
0.00150824 2.09218e-05 5.05724e-06
2.09218e-05 8.78982e-05 8.35886e-08
5.05724e-06 8.35886e-08 -3.18547e-05
0.00544017 -9.34672e-05 -0.000230357
-9.34672e-05 0.00289685 1.07443e-06
-0.000230357 1.07443e-06 0.00289868
0.000585133 7.80301e-06 -5.14171e-07
7.80301e-06 -0.000123634 1.30624e-07
-5.14171e-07 1.30624e-07 -0.000190227
0.000766757 2.90298e-06 9.85661e-06
2.90298e-06 -0.000167577 1.00099e-07
9.85661e-06 1.00099e-07 -0.000289339
0.000548639 2.06994e-05 1.83264e-05
2.06994e-05 -0.000143144 1.54119e-07
1.83264e-05 1.54119e-07 -0.000213642
0.00552434 3.52546e-06 2.49571e-06
3.52546e-06 0.00293477 -8.98231e-07
2.49571e-06 -8.98231e-07 0.00294295
0.00559369 -3.49515e-06 0.000235369
-3.49515e-06 0.00296693 -1.89221e-06
0.000235369 -1.89221e-06 0.00297895
0.00269041 7.65499e-06 -0.000115156
7.65499e-06 0.00112812 -2.346e-06
-0.000115156 -2.346e-06 0.00108114
0.00101868 2.76249e-05 4.72613e-08
2.76249e-05 -2.08295e-05 1.0282e-07
4.72613e-08 1.0282e-07 -0.00014146
0.00146963 4.55904e-05 2.03963e-06
4.55904e-05 6.26665e-05 -1.9103e-07
2.03963e-06 -1.9103e-07 -6.04834e-05
0.00519666 -5.65574e-05 -8.06654e-05
-5.65574e-05 0.00275527 4.82703e-07
-8.06654e-05 4.82703e-07 0.00274135
0.00061302 5.01957e-05 6.01611e-08
5.01957e-05 -0.000100812 2.1081e-07
6.01611e-08 2.1081e-07 -0.000173977
0.000998108 5.06086e-05 1.21161e-05
5.06086e-05 -3.9199e-05 2.09662e-06
1.21161e-05 2.09662e-06 -0.000162471
0.00564469 0.000108715 -1.08574e-05
0.000108715 0.0030054 -1.18183e-06
-1.08574e-05 -1.18183e-06 0.00301198
0.000627212 7.9822e-05 1.93825e-05
7.9822e-05 -9.00511e-05 5.02168e-06
1.93825e-05 5.02168e-06 -0.000166664
0.00571506 0.000211527 0.000255656
0.000211527 0.00306297 2.1898e-05
0.000255656 2.1898e-05 0.00305955
0.00166866 -4.99289e-05 -0.000194369
-4.99289e-05 0.000627924 7.32863e-07
-0.000194369 7.32863e-07 0.000619573
0.00164861 2.56669e-05 -4.80511e-05
2.56669e-05 0.000507002 2.08311e-07
-4.80511e-05 2.08311e-07 0.000451975
0.000758728 1.29884e-05 1.2413e-05
1.29884e-05 -0.000169395 9.20268e-07
1.2413e-05 9.20268e-07 -0.00029081
0.00549916 -4.0312e-05 7.75176e-06
-4.0312e-05 0.00292643 1.34394e-06
7.75176e-06 1.34394e-06 0.00293243
0.000601073 -1.24174e-05 1.88609e-05
-1.24174e-05 -0.000109005 7.99187e-07
1.88609e-05 7.99187e-07 -0.000178766
0.00555637 -6.40534e-05 0.000249496
-6.40534e-05 0.0029549 -2.14485e-06
0.000249496 -2.14485e-06 0.00296362
0.00126756 1.02828e-05 -3.93846e-05
1.02828e-05 0.000413029 -6.70244e-07
-3.93846e-05 -6.70244e-07 0.000378986
0.00163935 1.26784e-05 -4.84489e-05
1.26784e-05 0.000505059 -6.50346e-07
-4.84489e-05 -6.50346e-07 0.000446884
0.00100296 2.91454e-05 1.23658e-05
2.91454e-05 -3.13384e-05 1.62899e-06
1.23658e-05 1.62899e-06 -0.000152252
0.00343815 5.04191e-05 9.17024e-05
5.04191e-05 0.0016936 2.18549e-06
9.17024e-05 2.18549e-06 0.00168238
0.000620042 6.02605e-05 1.96343e-05
6.02605e-05 -9.65058e-05 3.88098e-06
1.96343e-05 3.88098e-06 -0.000169756
0.00569485 9.84785e-05 0.00024442
9.84785e-05 0.00302973 1.32919e-05
0.00024442 1.32919e-05 0.00303918
0.00544891 -2.17792e-05 -8.87803e-06
-2.17792e-05 0.00289912 -1.96838e-06
-8.87803e-06 -1.96838e-06 0.00290431
0.000603239 4.33868e-05 2.0247e-05
4.33868e-05 -0.000116036 1.95745e-06
2.0247e-05 1.95745e-06 -0.000179835
0.00541625 4.97649e-05 0.000236241
4.97649e-05 0.00287428 3.21063e-08
0.000236241 3.21063e-08 0.00288311
0.00338062 2.6553e-05 0.000105389
2.6553e-05 0.00166351 3.26465e-06
0.000105389 3.26465e-06 0.00165258
0.000632119 5.042e-06 1.8827e-05
5.042e-06 -9.10264e-05 2.64598e-06
1.8827e-05 2.64598e-06 -0.000161197
0.00558324 -2.4721e-05 0.000235666
-2.4721e-05 0.00296621 5.86863e-06
0.000235666 5.86863e-06 0.0029751
0.00548523 -0.000126863 0.000232529
-0.000126863 0.00292615 -2.98258e-06
0.000232529 -2.98258e-06 0.00292648
0.00547264 -9.96519e-06 0.000231938
-9.96519e-06 0.00289863 3.06984e-06
0.000231938 3.06984e-06 0.00291077
