# vtk DataFile Version 2.0
Wound Healing Simulation
ASCII
DATASET UNSTRUCTURED_GRID
POINTS 3012 float
69.9759 18.75 4
67.2507 60.3285 4
69.976 18.75 2
73.0099 25.446 4
71.1327 20.9142 4
68.6801 16.6661 4
67.8239 19.9264 3.97869
67.2507 60.3286 2
71.1327 54.0858 4
68.6801 58.3339 4
65.6939 62.2254 4
65.3106 59.0005 3.97783
74.6784 42.3946 4
73.7221 47.2057 4
69.9759 18.75 0
73.0099 25.446 2
68.6801 16.6661 2
71.1327 20.9142 2
67.8245 19.9299 2
74.6792 32.6053 4
73.7222 27.7943 4
72.1454 23.1494 4
70.6128 26.2212 3.97835
68.8842 21.9582 3.97915
67.2507 14.6715 4
66.6353 17.9727 3.97778
65.7923 21.0281 3.9678
67.2507 60.3285 0
71.1327 54.0858 2
68.6801 58.3339 2
65.694 62.2255 2
65.3119 58.9959 2
72.1454 51.8506 4
69.9759 56.25 4
68.8348 53.1131 3.97838
64.0165 64.0165 4
66.6091 57.1333 3.97842
63.8836 60.7645 3.97811
63.4959 57.7667 3.96869
60.3285 67.2507 4
74.6792 42.3947 2
73.7222 47.2057 2
74.9194 39.9526 4
74.2788 44.8158 4
72.1673 42.0857 3.97856
73.0099 49.554 4
71.248 46.598 3.97789
73.0099 25.446 0
71.1327 20.9142 0
68.6801 16.6661 0
67.8239 19.9264 0.0213084
74.6792 32.6053 2
73.7222 27.7943 2
67.2508 14.6715 2
72.1455 23.1494 2
70.6127 26.2218 2
66.6363 17.9772 2
68.8844 21.9604 2
65.7915 21.0291 2
74.9197 35.0474 4
74.2794 30.1841 4
72.184 32.9438 3.97889
71.2771 28.4318 3.97818
69.8141 24.0597 3.97893
68.3427 26.9532 3.96728
66.758 22.9353 3.9675
65.694 12.7746 4
65.3216 16.1049 3.97709
64.7087 19.1993 3.96822
63.8534 22.0492 3.96528
71.1327 54.0858 0
65.6939 62.2254 0
68.6801 58.3339 0
65.3106 59.0005 0.0221739
72.1455 51.8506 2
69.9759 56.25 2
68.8349 53.111 2
64.0165 64.0165 2
66.61 57.1291 2
63.8855 60.7604 2
63.4948 57.7664 2
62.2254 65.694 4
58.8932 65.4135 3.98762
69.7674 50.9889 3.97811
67.7821 55.1671 3.97849
66.6448 52.2077 3.9671
62.3339 62.4256 3.98054
64.6561 56.0285 3.96832
62.198 59.3955 3.96834
61.8121 56.6703 3.96409
58.3339 68.6801 4
60.3285 67.2508 2
73.7221 47.2057 0
74.6784 42.3946 0
74.9197 39.9526 2
74.2794 44.8159 2
72.1667 42.0855 2
73.0099 49.554 2
71.2478 46.5977 2
75 37.5 4
72.4046 39.8024 3.97936
71.7815 44.3529 3.97857
69.8007 41.79 3.96812
70.5737 48.8135 3.97777
68.9082 46.0144 3.96749
74.6792 32.6053 0
73.7222 27.7943 0
67.2507 14.6715 0
72.1454 23.1494 0
70.6128 26.2212 0.0216475
68.8842 21.9582 0.0208467
66.6353 17.9727 0.02222
65.7923 21.0281 0.0322
74.9197 35.0474 2
74.2794 30.1841 2
72.1833 32.9441 2
71.2768 28.4322 2
65.694 12.7745 2
65.3232 16.11 2
69.8141 24.0609 2
68.3425 26.9539 2
64.7078 19.2002 2
66.7575 22.9363 2
63.8535 22.0497 2
72.4124 35.2246 3.97935
71.803 30.6767 3.97884
69.8369 33.2697 3.96829
68.9624 29.0397 3.96758
67.607 24.9138 3.96734
66.1491 27.6462 3.96705
64.0165 10.9835 4
64.7163 23.8434 3.96593
63.8876 14.3297 3.97781
63.5079 17.4545 3.9687
62.8787 20.3355 3.96441
62.0024 22.9761 3.96725
60.6823 11.1003 3.98225
57.6095 11.4564 3.97349
72.1454 51.8506 0
69.9759 56.25 0
68.8348 53.1131 0.021621
64.0165 64.0165 0
63.8836 60.7645 0.0218929
66.6091 57.1333 0.0215756
63.4959 57.7667 0.0313057
62.2255 65.694 2
58.8952 65.4118 2
69.7673 50.9879 2
67.7826 55.1639 2
66.6441 52.2069 2
62.336 62.422 2
64.6551 56.0279 2
62.197 59.3962 2
61.8122 56.6704 2
60.6668 63.9752 3.98328
57.0242 66.7347 3.98933
57.5558 63.6858 3.9756
67.5029 50.1756 3.96691
65.6972 54.1713 3.96756
64.491 51.3721 3.96547
60.7691 60.926 3.97105
62.7993 55.0571 3.96468
60.6479 58.1442 3.9642
60.2964 55.7638 3.96423
56.25 69.9759 4
58.3339 68.6801 2
60.3285 67.2507 0
58.9198 9.65796 3.98446
62.2254 9.30607 4
73.0099 49.554 0
74.2788 44.8158 0
71.248 46.598 0.0221125
72.1673 42.0857 0.0214361
74.9194 39.9526 0
75 37.5 2
72.4045 39.8025 2
71.7814 44.3525 2
69.8001 41.7897 2
70.5735 48.8131 2
68.9081 46.0138 2
72.488 37.5124 3.97897
70.0382 39.658 3.96834
69.4269 43.9075 3.96803
67.5548 41.494 3.96928
68.2615 48.1063 3.96702
66.6548 45.4307 3.96813
74.9197 35.0474 0
74.2794 30.1841 0
72.184 32.9438 0.0211098
71.2771 28.4318 0.0218233
65.694 12.7746 0
65.3216 16.1049 0.0229059
69.8141 24.0597 0.0210698
68.3427 26.9532 0.0327163
66.758 22.9353 0.032497
64.7087 19.1993 0.0317799
63.8534 22.0492 0.0347238
72.4123 35.2246 2
71.8029 30.6773 2
69.8362 33.2702 2
68.9623 29.0404 2
64.0165 10.9835 2
63.8898 14.3345 2
63.5069 17.4553 2
67.6066 24.9147 2
66.1493 27.6466 2
62.8791 20.3358 2
64.7161 23.844 2
62.0015 22.9768 2
60.685 11.1039 2
57.6114 11.4557 2
70.0549 35.3931 3.96835
69.4638 31.1509 3.96797
67.6174 33.5964 3.96882
66.7259 29.6328 3.96756
65.4795 25.7119 3.96651
64.0223 28.2832 3.97141
62.3395 12.6579 3.97986
62.7534 24.6691 3.96874
62.1937 15.7972 3.96935
61.797 18.7012 3.96387
61.1374 21.3763 3.96517
60.2743 23.779 3.97022
59.2424 12.7985 3.97151
55.8721 10.2419 3.97611
56.3997 13.1468 3.97073
69.7674 50.9889 0.0218875
62.2254 65.694 0
58.8932 65.4135 0.0123778
67.7821 55.1671 0.0215095
66.6448 52.2077 0.0329036
62.3339 62.4256 0.0194563
62.198 59.3955 0.0316593
64.6561 56.0285 0.031678
61.8121 56.6703 0.0359118
60.6689 63.9724 2
57.0258 66.7336 2
57.5565 63.6864 2
67.5024 50.1748 2
65.6963 54.1705 2
64.4911 51.3718 2
60.768 60.9272 2
62.7999 55.0572 2
60.6476 58.1444 2
60.2972 55.764 2
55.0701 67.9316 3.99088
59.2154 62.3517 3.97224
55.8028 64.9051 3.98003
56.3212 62.0675 3.97312
65.2767 49.3951 3.96629
63.671 53.2801 3.96493
62.324 50.6204 3.96769
59.3238 59.5386 3.96503
61.0165 54.2836 3.96597
59.2605 56.9869 3.96298
59.1863 55.1522 3.96651
48.1007 68.5766 3.98646
50.9479 69.9314 3.99128
54.0858 71.1327 4
56.25 69.976 2
58.3339 68.6801 0
57.0571 8.3372 3.98619
60.3285 7.74928 4
58.9227 9.66065 2
62.2255 9.30602 2
70.5737 48.8135 0.0222264
71.7815 44.3529 0.0214318
68.9082 46.0144 0.0325075
69.8007 41.79 0.0318835
72.4046 39.8024 0.020641
75 37.5 0
72.4874 37.5124 2
70.0381 39.6579 2
69.4267 43.9071 2
67.5545 41.4938 2
68.2612 48.1056 2
66.654 45.4303 2
70.1263 37.5224 3.96839
67.797 39.5113 3.96929
67.1733 43.4636 3.96869
65.4291 41.199 3.97555
66.0112 47.4064 3.96734
64.5064 44.8252 3.97223
72.4124 35.2246 0.0206524
71.803 30.6767 0.0211647
69.8369 33.2697 0.031709
68.9624 29.0397 0.0324225
64.0165 10.9835 0
63.8876 14.3297 0.0221874
63.5079 17.4545 0.0312962
67.607 24.9138 0.032665
66.1491 27.6462 0.032954
64.7163 23.8434 0.0340705
62.8787 20.3355 0.0355859
62.0024 22.9761 0.0327467
60.6823 11.1003 0.0177469
57.6095 11.4564 0.0265062
70.0548 35.3933 2
69.4637 31.1514 2
67.6172 33.5967 2
66.7257 29.6333 2
62.3421 12.6624 2
62.1926 15.7977 2
61.7976 18.7012 2
65.4795 25.7125 2
64.0205 28.2839 2
61.1361 21.3769 2
62.7524 24.6698 2
60.274 23.7799 2
59.2439 12.7973 2
56.4006 13.1445 2
55.8735 10.2413 2
67.8372 35.5508 3.9693
67.2244 31.6301 3.96841
65.5801 33.9394 3.97475
64.5358 30.2157 3.97228
63.4243 26.4443 3.97009
62.0586 28.82 3.97577
60.7707 14.2401 3.97049
60.8775 25.3873 3.97258
60.6001 17.1483 3.96472
60.1551 19.8529 3.96287
59.5178 22.3132 3.96674
58.7772 24.3877 3.97312
54.0358 9.14294 3.9783
57.902 14.3622 3.96967
54.7819 12.0338 3.97311
55.3019 14.6901 3.96785
67.5029 50.1756 0.0330881
57.0242 66.7347 0.0106696
60.6668 63.9752 0.0167204
57.5558 63.6858 0.0244013
65.6972 54.1713 0.0324439
64.491 51.3721 0.0345259
60.7691 60.926 0.0289456
60.6479 58.1442 0.0358028
62.7993 55.0571 0.0353187
60.2964 55.7638 0.0357709
55.0714 67.9311 2
59.216 62.3546 2
55.8034 64.9055 2
56.3205 62.0699 2
65.2766 49.3948 2
63.6712 53.28 2
62.3234 50.62 2
59.3227 59.5396 2
61.017 54.2836 2
59.2635 56.9873 2
59.1885 55.1523 2
53.0421 68.9995 3.99114
53.9652 66.0101 3.9829
57.8727 60.8479 3.97056
54.6803 63.1978 3.97546
55.2009 60.5855 3.97056
63.0613 48.6303 3.96928
61.6489 52.5455 3.96679
60.0837 49.9698 3.96983
57.9992 58.238 3.96562
59.2286 53.9087 3.96761
58.0461 55.7733 3.96196
50.1074 67.855 3.98588
47.4618 66.5758 3.9823
46.0545 69.1557 3.98687
48.1009 68.5773 2
48.8018 70.7226 3.99146
50.9488 69.9311 2
51.8506 72.1454 4
54.0858 71.1327 2
56.25 69.9759 0
55.1019 7.14159 3.98865
58.3339 6.31992 4
57.0596 8.33879 2
60.3286 7.74926 2
58.9198 9.65796 0.0155434
62.2254 9.30607 0
68.2615 48.1063 0.0329785
69.4269 43.9075 0.0319701
66.6548 45.4307 0.0318682
67.5548 41.494 0.0307241
70.0382 39.658 0.0316586
72.488 37.5124 0.021034
70.1257 37.5225 2
67.7961 39.5111 2
67.1739 43.4633 2
65.4271 41.1986 2
66.0113 47.406 2
64.5044 44.8246 2
67.8977 37.5232 3.96935
65.669 39.3655 3.97595
65.04 43.0082 3.97392
63.5473 40.91 3.97685
63.8203 46.6887 3.97064
62.5826 44.1806 3.97617
70.0549 35.3931 0.0316525
69.4638 31.1509 0.0320337
67.6174 33.5964 0.0311781
66.7259 29.6328 0.032443
62.3395 12.6579 0.0201365
62.1937 15.7972 0.0306453
61.797 18.7012 0.0361269
65.4795 25.7119 0.0334874
64.0223 28.2832 0.0285893
62.7534 24.6691 0.0312623
61.1374 21.3763 0.0348278
60.2743 23.779 0.0297838
59.2424 12.7985 0.028489
56.3997 13.1468 0.0292668
55.8721 10.2419 0.0238882
67.8363 35.551 2
67.225 31.6304 2
65.5774 33.9398 2
64.5337 30.2163 2
60.7708 14.2408 2
60.5992 17.1487 2
60.1556 19.853 2
63.423 26.445 2
62.0562 28.8209 2
59.5192 22.3139 2
60.8767 25.3882 2
58.7765 24.3891 2
57.9023 14.3604 2
55.3026 14.6893 2
54.0371 9.14145 2
54.7829 12.0309 2
65.7626 35.6736 3.97565
65.0565 32.1728 3.97314
64.1037 34.2683 3.97689
62.3793 30.6736 3.97675
61.4633 27.1193 3.97378
60.601 29.1958 3.9771
59.2998 15.6942 3.96593
59.1011 25.864 3.97585
59.0895 18.3897 3.96205
58.6213 20.9096 3.96348
58.0897 23.1642 3.96786
57.7433 24.7436 3.97442
52.1112 8.15823 3.98172
53.0545 11.0327 3.97429
56.6614 15.7821 3.96761
53.8009 13.7177 3.97141
54.3568 16.0488 3.96719
55.0701 67.9316 0.00912082
65.2767 49.3951 0.0337113
55.8028 64.9051 0.019969
59.2154 62.3517 0.0277617
56.3212 62.0675 0.0268837
63.671 53.2801 0.0350702
62.324 50.6204 0.0323106
59.3238 59.5386 0.0349652
59.2605 56.9869 0.0370237
61.0165 54.2836 0.0340287
59.1863 55.1522 0.0334902
53.0432 68.9992 2
53.9658 66.0107 2
57.872 60.8503 2
54.68 63.1986 2
55.2006 60.5873 2
63.0602 48.6298 2
61.6492 52.5454 2
60.0838 49.9693 2
57.9983 58.2389 2
59.231 53.9087 2
58.0436 55.7722 2
52.0686 66.9977 3.98529
52.9514 64.211 3.97955
56.6333 59.4616 3.96794
53.6733 61.6026 3.97516
54.2415 59.2875 3.97197
60.7664 47.831 3.97116
59.5547 52.0584 3.9683
57.7787 49.5524 3.97183
56.7376 56.9539 3.96618
56.9917 54.0712 3.9658
50.1076 67.8552 2
49.3358 65.9164 3.98234
47.462 66.5764 2
46.8908 64.728 3.98094
45.5569 67.0927 3.98238
43.9719 69.5876 3.98733
46.0547 69.1562 2
46.6083 71.367 3.99161
48.1007 68.5766 0.0135374
48.8027 70.7226 2
49.554 73.0099 4
50.9479 69.9314 0.00871697
51.8506 72.1455 2
54.0858 71.1327 0
53.064 6.07247 3.99077
55.104 7.14204 2
56.25 5.02411 4
58.3339 6.3199 2
57.0571 8.3372 0.0138137
60.3285 7.74928 0
66.0112 47.4064 0.0326626
67.1733 43.4636 0.0313055
64.5064 44.8252 0.0277689
65.4291 41.199 0.0244455
67.797 39.5113 0.0307124
70.1263 37.5224 0.0316051
67.8974 37.5232 2
65.6668 39.3653 2
65.0373 43.0076 2
63.5445 40.9096 2
63.8186 46.6881 2
62.5802 44.1797 2
65.7753 37.503 3.97588
63.697 39.258 3.97682
63.1085 42.5214 3.9769
62.1651 40.6737 3.97671
61.737 45.8759 3.97343
61.1636 43.6368 3.97677
67.8372 35.5508 0.0307043
67.2244 31.6301 0.0315873
65.5801 33.9394 0.0252536
64.5358 30.2157 0.0277187
60.7707 14.2401 0.0295098
60.6001 17.1483 0.0352753
60.1551 19.8529 0.0371319
63.4243 26.4443 0.0299101
62.0586 28.82 0.02423
60.8775 25.3873 0.0274231
59.5178 22.3132 0.0332615
58.7772 24.3877 0.0268803
57.902 14.3622 0.0303346
55.3019 14.6901 0.0321496
54.0358 9.14294 0.0217037
54.7819 12.0338 0.0268877
65.7606 35.6739 2
65.0542 32.1733 2
64.1011 34.2688 2
62.3774 30.6744 2
59.2987 15.6946 2
59.0908 18.3894 2
58.6255 20.91 2
61.4616 27.1203 2
60.6 29.1968 2
58.0867 23.1662 2
59.1007 25.8653 2
57.7441 24.7456 2
56.6617 15.7803 2
54.3579 16.0506 2
53.8008 13.7109 2
52.112 8.15702 2
53.0557 11.0306 2
63.9017 35.6437 3.97666
62.7058 33.0764 3.97681
60.3287 30.6678 3.97655
59.3101 27.9772 3.97642
57.919 17.0185 3.96439
57.4802 25.8111 3.97635
57.6376 19.5282 3.96095
57.1954 21.9158 3.96357
56.9391 24.0362 3.96853
50.1119 7.288 3.98542
51.2307 10.1349 3.9766
52.1646 12.8219 3.97557
55.5122 17.0191 3.96741
52.9634 15.3116 3.96922
53.7318 17.0376 3.97337
53.0421 68.9995 0.00885502
53.9652 66.0101 0.0171007
63.0613 48.6303 0.0307162
54.6803 63.1978 0.0245425
57.8727 60.8479 0.0294395
55.2009 60.5855 0.0294433
61.6489 52.5455 0.0332076
60.0837 49.9698 0.0301745
57.9992 58.238 0.0343829
58.0461 55.7733 0.0380445
59.2286 53.9087 0.0323939
52.069 66.9983 2
52.9514 64.2117 2
56.6332 59.4631 2
53.6725 61.6022 2
54.2414 59.2896 2
60.7657 47.8303 2
59.5554 52.058 2
57.776 49.551 2
56.7359 56.9581 2
56.9892 54.0697 2
51.1668 65.1228 3.98175
52.0412 62.5278 3.97695
55.4544 58.2189 3.96985
52.8195 60.1016 3.9766
53.6133 58.4373 3.97592
57.985 46.7786 3.97499
57.367 51.7269 3.9684
55.9499 49.4776 3.97106
55.4029 55.7484 3.96427
55.196 53.3244 3.96278
50.1074 67.855 0.0141239
49.3359 65.9166 2
48.6163 64.1155 3.98123
47.4618 66.5758 0.0176998
45.5571 67.0934 2
46.8911 64.7285 2
46.3795 63.0428 3.98248
45.1313 65.1883 3.98028
43.6302 67.4636 3.9831
41.8596 69.8746 3.98692
43.9719 69.5881 2
44.3755 71.8617 3.99164
46.0545 69.1557 0.013131
46.609 71.3671 2
47.2057 73.7222 4
48.8018 70.7226 0.00853698
49.554 73.0099 2
51.8506 72.1454 0
50.9544 5.13287 3.9917
53.0654 6.07263 2
54.0858 3.86728 4
55.1019 7.14159 0.0113466
56.25 5.02406 2
58.3339 6.31992 0
63.8203 46.6887 0.0293596
65.04 43.0082 0.0260791
62.5826 44.1806 0.0238298
63.5473 40.91 0.0231549
65.669 39.3655 0.0240529
67.8977 37.5232 0.0306502
65.773 37.5031 2
63.6944 39.2579 2
63.1062 42.5207 2
62.1637 40.6732 2
61.7351 45.8751 2
61.1618 43.636 2
63.7593 37.4584 3.97667
61.8796 39.3408 3.97701
60.9104 41.9201 3.97683
59.948 44.714 3.97688
65.7626 35.6736 0.0243458
65.0565 32.1728 0.0268561
64.1037 34.2683 0.0231052
62.3793 30.6736 0.0232517
59.2998 15.6942 0.0340652
59.0895 18.3897 0.0379489
58.6213 20.9096 0.0365151
61.4633 27.1193 0.0262171
60.601 29.1958 0.0228956
59.1011 25.864 0.0241487
58.0897 23.1642 0.0321432
57.7433 24.7436 0.0255754
56.6614 15.7821 0.032387
54.3568 16.0488 0.0328146
53.8009 13.7177 0.028585
52.1112 8.15823 0.0182781
53.0545 11.0327 0.0257069
63.8991 35.6438 2
62.7042 33.0771 2
60.3277 30.6685 2
57.9178 17.0187 2
57.6422 19.5271 2
57.1959 21.9174 2
59.3091 27.9785 2
56.9428 24.0382 2
57.4794 25.8135 2
50.1126 7.28635 2
55.5136 17.019 2
53.7318 17.0361 2
52.9637 15.3094 2
52.1658 12.823 2
51.2319 10.1334 2
61.9188 35.377 3.97672
59.961 32.7921 3.97668
58.2819 30.1496 3.97669
56.9764 27.4768 3.97701
56.5977 18.2029 3.96267
56.0134 25.2056 3.97461
56.2426 20.5915 3.96108
55.886 22.9636 3.96221
48.0566 6.52929 3.98834
49.324 9.33856 3.97994
50.4283 12.0131 3.97601
51.365 14.5325 3.96975
54.3767 17.9771 3.96279
52.3378 17.1068 3.9616
52.0686 66.9977 0.0147079
52.9514 64.211 0.0204521
60.7664 47.831 0.0288402
53.6733 61.6026 0.0248352
56.6333 59.4616 0.0320562
54.2415 59.2875 0.0280252
59.5547 52.0584 0.0316955
57.7787 49.5524 0.0281676
56.7376 56.9539 0.0338223
56.9917 54.0712 0.0342045
51.1669 65.1235 2
52.0407 62.5289 2
55.4545 58.2205 2
52.8189 60.1049 2
53.613 58.439 2
57.9839 46.7776 2
57.3663 51.7257 2
55.9461 49.4762 2
55.4022 55.7487 2
55.1991 53.3249 2
50.3438 63.3732 3.98103
51.234 60.9157 3.97619
54.1781 57.2341 3.97047
52.2873 58.5954 3.97389
56.2645 44.0922 3.97716
55.1357 47.809 3.9742
54.825 51.3172 3.96537
53.8957 54.4928 3.96494
49.3358 65.9164 0.01766
48.6165 64.1155 2
47.9584 62.4651 3.98136
45.5569 67.0927 0.0176156
46.8908 64.728 0.0190644
43.6303 67.4641 2
46.3798 63.0434 2
45.1316 65.1889 2
45.9836 61.5739 3.98632
44.7654 63.4409 3.9792
43.3559 65.4982 3.98041
41.6625 67.6817 3.98264
39.7019 70.0206 3.98684
41.8596 69.8752 2
42.1099 72.2064 3.99192
43.9719 69.5876 0.0126723
44.3761 71.8618 2
44.8159 74.2794 4
46.6083 71.367 0.00838954
47.2057 73.7222 2
49.554 73.0099 0
48.7853 4.32348 3.99245
50.9553 5.13246 2
51.8506 2.85458 4
53.064 6.07247 0.00923415
54.0858 3.86728 2
56.25 5.02411 0
61.737 45.8759 0.0265724
63.1085 42.5214 0.0230953
61.1636 43.6368 0.0232344
62.1651 40.6737 0.0232947
63.697 39.258 0.023182
65.7753 37.503 0.0241237
63.7565 37.4583 2
61.8787 39.3407 2
60.9098 41.9199 2
59.9475 44.7132 2
61.7125 37.4429 3.97693
59.8861 39.8211 3.97694
58.5958 42.8572 3.97663
63.9017 35.6437 0.0233378
62.7058 33.0764 0.0231868
60.3287 30.6678 0.0234452
57.919 17.0185 0.035611
57.6376 19.5282 0.0390466
57.1954 21.9158 0.0364258
59.3101 27.9772 0.0235779
57.4802 25.8111 0.0236535
56.9391 24.0362 0.031468
55.5122 17.0191 0.0325922
53.7318 17.0376 0.0266272
52.9634 15.3116 0.0307816
50.1119 7.288 0.0145833
52.1646 12.8219 0.0244318
51.2307 10.1349 0.023404
61.918 35.3772 2
59.9601 32.7921 2
58.2818 30.1494 2
56.598 18.2027 2
56.2467 20.5894 2
55.889 22.9663 2
56.9756 27.4786 2
56.0114 25.2083 2
48.0569 6.52723 2
49.3249 9.33643 2
54.3779 17.9773 2
52.3365 17.1024 2
51.3644 14.5286 2
50.4299 12.0106 2
59.5274 35.142 3.97675
57.5768 32.333 3.97606
56.17 29.4393 3.97709
55.0876 26.7262 3.97676
55.2791 19.2494 3.96006
54.6664 24.1754 3.96472
54.8452 21.6515 3.95999
45.963 5.88325 3.98898
43.3744 7.47535 3.98536
47.3555 8.62793 3.9836
48.5977 11.3056 3.9759
49.7027 13.7651 3.9742
50.6113 16.1761 3.97346
53.0774 18.7337 3.96156
51.2686 18.1416 3.97574
51.1668 65.1228 0.0182485
52.0412 62.5278 0.0230516
57.985 46.7786 0.0250069
52.8195 60.1016 0.0233959
55.4544 58.2189 0.0301541
53.6133 58.4373 0.024083
57.367 51.7269 0.0316037
55.9499 49.4776 0.0289371
55.4029 55.7484 0.0357341
55.196 53.3244 0.0372222
50.3437 63.3733 2
51.2331 60.9146 2
54.1792 57.236 2
52.2864 58.5969 2
56.2646 44.0911 2
55.1344 47.8077 2
54.8279 51.3172 2
53.8963 54.4947 2
49.5864 61.7359 3.97928
55.063 41.6577 3.97493
50.5468 59.3017 3.97167
52.1316 56.454 3.96874
53.7057 45.4568 3.97463
52.9973 49.2388 3.96937
52.488 52.79 3.9613
48.6163 64.1155 0.0187734
47.9582 62.4646 2
47.322 60.9978 3.98641
43.6302 67.4636 0.016898
45.1313 65.1883 0.0197201
46.3795 63.0428 0.0175204
41.6628 67.6817 2
43.3561 65.4989 2
45.9836 61.5748 2
44.7657 63.4416 2
45.7579 60.6189 3.98461
44.4807 61.8186 3.98045
43.1454 63.7134 3.97858
41.5456 65.6349 3.97899
39.632 67.7599 3.98249
37.526 70.0453 3.98569
39.7017 70.0212 2
39.8169 72.4029 3.9917
41.8596 69.8746 0.0130805
42.1104 72.2066 2
42.3947 74.6792 4
44.3755 71.8617 0.00836172
44.8159 74.2794 2
47.2057 73.7222 0
43.852 5.3605 3.9886
46.5714 3.64766 3.99265
48.7858 4.32268 2
49.554 1.99015 4
50.9544 5.13287 0.00829893
51.8506 2.85453 2
54.0858 3.86728 0
59.948 44.714 0.0231183
60.9104 41.9201 0.0231677
61.8796 39.3408 0.0229947
63.7593 37.4584 0.0233255
61.7116 37.4428 2
59.8863 39.8208 2
58.5959 42.8566 2
59.3838 37.5665 3.97732
57.5387 40.6164 3.9771
54.4729 39.6725 3.9753
61.9188 35.377 0.0232805
59.961 32.7921 0.0233204
58.2819 30.1496 0.0233112
56.5977 18.2029 0.0373286
56.2426 20.5915 0.0389202
55.886 22.9636 0.0377934
56.9764 27.4768 0.0229898
56.0134 25.2056 0.0253914
54.3767 17.9771 0.0372134
52.3378 17.1068 0.038404
51.365 14.5325 0.0302462
48.0566 6.52929 0.0116597
49.324 9.33856 0.0200585
50.4283 12.0131 0.0239919
59.5279 35.142 2
45.9626 5.88284 2
43.3742 7.47465 2
57.5772 32.3338 2
56.1696 29.4398 2
55.2745 19.251 2
54.8544 21.6531 2
54.6638 24.1775 2
55.0849 26.7283 2
47.356 8.62399 2
48.599 11.3029 2
53.0764 18.7277 2
51.2693 18.1426 2
50.6121 16.1773 2
49.7029 13.7647 2
56.9244 34.7917 3.97718
55.2686 31.5981 3.9763
54.0903 28.5352 3.97726
53.4611 25.6437 3.97653
53.8785 20.2154 3.95896
53.3883 22.8312 3.95467
41.3995 7.08127 3.98531
45.3608 7.99549 3.98688
42.8665 9.41905 3.98148
46.6663 10.6607 3.98095
47.7366 13.1174 3.97654
48.9135 15.4304 3.97158
49.9717 17.7414 3.9693
51.5911 19.4205 3.96922
50.3438 63.3732 0.018968
51.234 60.9157 0.023806
56.2645 44.0922 0.0228393
55.1357 47.809 0.0257959
52.2873 58.5954 0.0261057
54.1781 57.2341 0.0295271
54.825 51.3172 0.0346255
53.8957 54.4928 0.0350621
49.5856 61.7357 2
55.0572 41.6545 2
50.546 59.3019 2
52.1326 56.4568 2
53.7048 45.4555 2
53.0062 49.2387 2
52.4896 52.7906 2
48.8353 60.1904 3.9762
51.8746 42.5306 3.98284
49.7501 57.5977 3.96711
50.4797 54.387 3.96403
51.3695 47.1638 3.9755
50.9586 50.872 3.95482
47.5487 43.6528 3.98057
47.9584 62.4651 0.0186395
47.3216 60.9973 2
46.6057 59.7859 3.9895
41.6625 67.6817 0.0173565
43.3559 65.4982 0.0195887
44.7654 63.4409 0.0208001
45.9836 61.5739 0.0136821
39.6325 67.7609 2
41.5457 65.6344 2
45.7579 60.6196 2
43.1457 63.7141 2
44.4805 61.8196 2
44.6144 60.2768 3.9895
42.948 62.0656 3.97445
41.5997 63.8058 3.97884
39.6472 65.601 3.97814
37.5631 67.7405 3.98064
31.6977 65.1177 3.9786
33.3924 67.4785 3.98058
35.3338 69.9553 3.98581
37.5258 70.0463 2
37.5092 72.4574 3.9921
39.7019 70.0206 0.0131628
39.8173 72.4032 2
39.9526 74.9197 4
42.1099 72.2064 0.00808211
42.3947 74.6792 2
44.8159 74.2794 0
41.7365 4.96953 3.98891
43.852 5.3596 2
44.3266 3.11091 3.99295
46.5715 3.64743 2
47.2057 1.27793 4
48.7853 4.32348 0.00755453
49.554 1.99013 2
51.8506 2.85458 0
58.5958 42.8572 0.0233689
59.8861 39.8211 0.02306
61.7125 37.4429 0.0230675
59.3841 37.5673 2
57.5384 40.6168 2
54.4676 39.6769 2
56.299 37.8833 3.97706
48.9018 41.24 3.98078
52.4657 39.3081 3.98394
39.4432 6.80518 3.98563
59.5274 35.142 0.0232497
57.5768 32.333 0.0239419
56.17 29.4393 0.0229126
55.2791 19.2494 0.0399381
54.8452 21.6515 0.0400145
54.6664 24.1754 0.0352785
55.0876 26.7262 0.0232392
53.0774 18.7337 0.0384429
51.2686 18.1416 0.0242625
50.6113 16.1761 0.0265415
45.963 5.88325 0.0110214
49.7027 13.7651 0.0258038
47.3555 8.62793 0.0164041
48.5977 11.3056 0.0241011
43.3744 7.47535 0.0146438
56.9238 34.7919 2
41.3996 7.08013 2
45.3601 7.99554 2
42.8661 9.41899 2
55.2712 31.5966 2
54.0905 28.5354 2
53.8807 20.2201 2
53.3857 22.8295 2
53.4582 25.6448 2
46.667 10.6537 2
47.7378 13.1125 2
51.5935 19.4219 2
49.9709 17.7389 2
48.9123 15.4325 2
54.2909 33.9882 3.97555
53.0007 30.6276 3.97682
52.1848 27.3651 3.97524
51.9086 24.2544 3.978
52.2745 21.1625 3.97093
41.0137 9.05388 3.98074
44.7267 9.99508 3.98512
42.4669 10.9047 3.99133
45.9986 12.7391 3.97618
47.6652 14.6045 3.97092
48.0787 17.0116 3.96964
49.779 19.785 3.97039
49.5864 61.7359 0.0207215
50.5468 59.3017 0.0283318
55.063 41.6577 0.0250682
53.7057 45.4568 0.0253735
52.9973 49.2388 0.0306345
52.1316 56.454 0.0312634
52.488 52.79 0.0386963
48.8342 60.1888 2
51.8914 42.5392 2
49.7482 57.5984 2
50.4804 54.3897 2
51.3757 47.164 2
50.9616 50.8715 2
47.5606 43.6798 2
47.9607 58.7218 3.97842
49.5142 45.1732 3.97897
48.5267 55.8894 3.96708
48.9621 52.5474 3.97615
49.344 48.9593 3.97331
45.2998 39.8201 3.87073
45.7798 42.5291 3.90219
45.9877 45.6704 3.98149
43.1155 41.0547 3.72677
41.7113 41.9114 3.54506
47.322 60.9978 0.0135903
46.6046 59.7851 2
45.449 58.7852 3.98956
39.632 67.7599 0.0175059
41.5456 65.6349 0.0210109
43.1454 63.7134 0.0214182
44.4807 61.8186 0.0195504
45.7579 60.6189 0.0153908
41.5997 63.8057 2
37.5634 67.7415 2
39.6471 65.6021 2
44.6149 60.2779 2
42.9477 62.0663 2
41.7513 62.4767 3.97709
42.4748 59.957 3.97861
39.8941 63.5377 3.9767
37.642 65.4971 3.97752
35.4634 67.65 3.98065
33.5756 65.3305 3.97739
31.9602 63.2842 3.97771
29.8846 64.7093 3.9809
31.6976 65.1187 2
31.3773 67.1884 3.98103
33.3926 67.4795 2
33.1572 69.7492 3.98591
35.3336 69.9563 2
35.1954 72.3718 3.99196
37.526 70.0453 0.0143085
37.5093 72.458 2
37.5 75 4
39.8169 72.4029 0.00830486
39.9526 74.9197 2
42.3947 74.6792 0
39.6243 4.71733 3.9894
41.7367 4.96867 2
42.063 2.71827 3.99325
43.852 5.3605 0.0113979
44.3267 3.11028 2
44.8158 0.721173 4
46.5714 3.64766 0.0073512
47.2057 1.27779 2
49.554 1.99015 0
57.5387 40.6164 0.0229033
59.3838 37.5665 0.0226791
54.4729 39.6725 0.0246977
48.9291 41.2566 2
56.2987 37.8815 2
52.4646 39.2803 2
53.3177 36.6285 3.97783
46.8266 40.3402 3.90594
49.8454 38.5173 3.9874
37.5172 6.67619 3.98564
39.4433 6.80354 2
39.2113 8.69625 3.98312
35.9433 8.49553 3.98425
56.9244 34.7917 0.0228237
55.2686 31.5981 0.0237007
54.0903 28.5352 0.0227369
53.8785 20.2154 0.0410427
53.3883 22.8312 0.0453256
53.4611 25.6437 0.0234696
51.5911 19.4205 0.03078
49.9717 17.7414 0.0306962
48.9135 15.4304 0.0284164
45.3608 7.99549 0.0131191
47.7366 13.1174 0.0234589
46.6663 10.6607 0.0190528
41.3995 7.08127 0.0146893
42.8665 9.41905 0.0185248
54.2867 33.9885 2
41.0138 9.05283 2
44.7247 9.99592 2
42.4666 10.9059 2
52.9966 30.627 2
52.1926 27.365 2
52.2795 21.1642 2
51.9077 24.2607 2
45.9995 12.7282 2
47.6645 14.598 2
49.7828 19.7893 2
48.0759 17.0084 2
51.8147 32.8965 3.98202
50.8065 29.3235 3.97666
50.4647 25.877 3.97218
49.8297 22.3807 3.98532
40.5682 11.6152 3.98107
43.8545 11.9122 3.9796
45.7838 15.4409 3.98558
47.4749 19.3914 3.97814
45.7334 37.4805 3.86509
48.8353 60.1904 0.0238032
49.7501 57.5977 0.0328925
51.8746 42.5306 0.0171627
51.3695 47.1638 0.0244993
50.9586 50.872 0.0451763
50.4797 54.387 0.0359695
47.5487 43.6528 0.0194288
47.9592 58.7241 2
49.5285 45.1852 2
48.5234 55.891 2
48.9625 52.5525 2
49.35 48.9578 2
45.3648 39.8373 2
45.8077 42.5691 2
45.996 45.6797 2
43.1456 41.0878 2
41.7388 41.9336 2
46.7974 57.3251 3.9771
43.8574 39.3574 3.72965
42.0664 40.8034 3.58285
47.6376 47.197 3.98026
47.0626 54.203 3.96695
47.3658 50.6962 3.97754
44.4401 47.2883 3.97589
44.4278 41.8737 3.8538
44.4732 44.4102 3.91341
42.0696 42.5196 3.75461
40.6769 42.2172 3.5636
46.6057 59.7859 0.0105023
45.4487 58.7844 2
43.8553 57.6861 3.97942
37.5631 67.7405 0.0193635
39.6472 65.601 0.021857
41.5997 63.8058 0.021156
42.948 62.0656 0.0255536
44.6144 60.2768 0.0104968
35.4637 67.6509 2
41.7508 62.4779 2
39.8938 63.5385 2
37.6421 65.4978 2
42.4756 59.957 2
40.622 61.6229 3.97908
40.4369 58.1567 3.97952
37.8377 63.1951 3.97545
35.5729 65.4196 3.978
33.5758 65.3314 2
31.9601 63.2856 2
33.6294 63.3227 3.97581
30.3797 62.8443 3.98019
32.1257 61.9872 3.98472
26.8749 61.4798 3.97707
28.0645 64.1372 3.97843
29.8841 64.7104 2
29.4072 66.7522 3.98186
31.6977 65.1177 0.0213958
31.3775 67.1893 2
31.0149 69.4141 3.98565
33.3924 67.4785 0.0194203
33.157 69.75 2
32.8931 72.1463 3.99179
35.3338 69.9553 0.0141865
35.1951 72.3724 2
35.0474 74.9194 4
37.5092 72.4574 0.00790023
37.5 75 2
39.9526 74.9197 0
35.6219 6.72702 3.98539
37.524 4.61673 3.98955
39.6244 4.71596 2
39.7896 2.47492 3.99318
41.7365 4.96953 0.0110876
42.063 2.71774 2
42.3946 0.32156 4
44.3266 3.11091 0.00704588
44.8159 0.72056 2
47.2057 1.27793 0
48.9018 41.24 0.0192168
56.299 37.8833 0.0229412
52.4657 39.3081 0.0160576
46.8527 40.3354 2
49.8488 38.51 2
53.3204 36.6436 2
50.6413 35.574 3.97508
47.4984 37.7665 3.92248
45.3119 35.1592 3.86908
43.1308 33.9194 3.72495
41.7273 33.0676 3.54323
37.4588 8.53755 3.98445
37.5172 6.67488 2
39.4432 6.80518 0.0143719
39.2117 8.69434 2
38.9767 10.1315 3.98322
35.8996 9.77767 3.98035
34.1528 8.82703 3.98241
35.9431 8.49381 2
54.2909 33.9882 0.0244491
53.0007 30.6276 0.02318
52.1848 27.3651 0.0247562
52.2745 21.1625 0.0290673
51.9086 24.2544 0.0219997
49.779 19.785 0.0296078
48.0787 17.0116 0.0303598
47.6652 14.6045 0.0290765
44.7267 9.99508 0.0148754
45.9986 12.7391 0.0238181
41.0137 9.05388 0.0192649
42.4669 10.9047 0.00866531
51.8197 32.8933 2
40.5694 11.6154 2
43.8526 11.9162 2
50.8271 29.3219 2
50.4654 25.8774 2
49.8324 22.3809 2
45.7797 15.417 2
47.477 19.4078 2
49.3776 31.5177 3.9874
48.8668 27.6449 3.97725
49.1686 24.542 3.97599
47.1228 22.1458 3.98576
38.3016 12.7438 3.97722
42.0954 14.3088 3.9798
44.7811 18.5503 3.97543
44.2494 37.4879 3.73682
45.8164 37.4836 2
47.9607 58.7218 0.0215848
48.5267 55.8894 0.0329156
49.5142 45.1732 0.0210332
49.344 48.9593 0.0266918
48.9621 52.5474 0.0238492
45.2998 39.8201 0.129265
45.7798 42.5291 0.0978063
45.9877 45.6704 0.0185137
43.1155 41.0547 0.273227
41.7113 41.9114 0.454938
46.795 57.327 2
43.9032 39.3784 2
42.065 40.8172 2
47.645 47.1981 2
47.0589 54.2072 2
47.3699 50.7024 2
44.4617 47.2703 2
44.4592 41.9003 2
44.5102 44.4316 2
42.1196 42.5597 2
40.6999 42.2232 2
45.3396 55.9078 3.99115
42.4033 39.2437 3.59279
40.561 40.6841 3.69664
45.7957 48.8475 3.99761
45.3808 52.4797 3.98187
43.169 48.2817 3.99598
43.0842 45.9294 3.89987
43.2168 43.6445 3.84359
40.7924 43.5901 3.73113
39.2136 42.4851 3.58415
45.449 58.7852 0.0104437
43.854 57.6894 2
42.0826 56.2768 3.98336
35.4634 67.65 0.0193489
37.642 65.4971 0.0224764
39.8941 63.5377 0.0232993
41.7513 62.4767 0.0229077
42.4748 59.957 0.0213896
35.5731 65.4205 2
40.6221 61.6227 2
37.8377 63.1955 2
40.4373 58.1581 2
38.9117 56.4543 3.99202
38.25 60.3073 3.97941
35.6075 63.1893 3.97536
33.5756 65.3305 0.022615
31.9602 63.2842 0.0222927
33.6295 63.3238 2
30.3794 62.8455 2
32.1263 61.9889 2
28.6851 62.1851 3.97883
33.3469 61.4959 3.97757
31.0724 61.2068 3.98037
27.5816 59.5719 3.98042
23.8101 59.0604 3.98329
25.0417 60.8545 3.97715
26.8752 61.4799 2
26.2323 63.467 3.97783
28.0641 64.1368 2
27.4642 66.1765 3.98136
29.8846 64.7093 0.019099
29.4071 66.7527 2
28.9075 68.9398 3.98528
31.3773 67.1884 0.0189736
31.0147 69.4147 2
30.6158 71.7775 3.99124
33.1572 69.7492 0.0140937
32.8924 72.1467 2
32.6054 74.6784 4
35.1954 72.3718 0.0080441
35.0474 74.9197 2
37.5 75 0
33.7249 6.98283 3.98434
35.4361 4.68681 3.98945
35.6218 6.72597 2
37.5152 2.38738 3.99324
37.524 4.61576 2
39.6243 4.71733 0.0105971
39.7893 2.47419 2
39.9526 0.0806499 4
42.063 2.71827 0.00674901
42.3947 0.320817 2
44.8158 0.721173 0
43.8642 35.6195 3.73
42.0769 34.1707 3.57541
46.8266 40.3402 0.0940638
49.8454 38.5173 0.0126039
53.3177 36.6285 0.0221723
47.4946 37.7413 2
50.6507 35.5686 2
45.3717 35.1354 2
43.1675 33.884 2
41.7525 33.0457 2
47.6784 34.3104 3.95221
44.4471 33.0852 3.84364
42.0921 32.4624 3.74922
40.6912 32.7706 3.56166
37.3113 10.635 3.98092
37.4589 8.53582 2
37.5172 6.67619 0.0143618
39.2113 8.69625 0.0168774
38.9782 10.1301 2
34.7557 10.3865 3.98128
35.9002 9.77425 2
32.3799 9.3745 3.97929
34.1516 8.82419 2
35.9433 8.49553 0.0157541
51.8147 32.8965 0.0179788
50.8065 29.3235 0.0233394
50.4647 25.877 0.0278198
49.8297 22.3807 0.0146752
47.4749 19.3914 0.0218636
45.7838 15.4409 0.0144226
43.8545 11.9122 0.0204002
40.5682 11.6152 0.0189296
49.3932 31.5136 2
38.3018 12.7421 2
42.0968 14.3152 2
48.8759 27.6452 2
49.1697 24.5383 2
47.1162 22.141 2
44.7824 18.5856 2
47.2426 29.6362 3.9845
46.856 25.2803 3.97561
44.2468 21.5116 3.97908
36.5843 12.9476 3.9749
38.6825 14.8341 3.9755
41.7422 17.899 3.97749
42.5416 37.4766 3.62362
44.2945 37.4864 2
45.7334 37.4805 0.134914
46.7974 57.3251 0.0229039
47.0626 54.203 0.0330546
47.6376 47.197 0.0197398
47.3658 50.6962 0.0224591
43.8574 39.3574 0.270353
44.4278 41.8737 0.146203
44.4732 44.4102 0.0865942
44.4401 47.2883 0.0241114
42.0696 42.5196 0.245393
42.0664 40.8034 0.417149
40.6769 42.2172 0.436404
45.3365 55.9088 2
42.3986 39.2475 2
40.5735 40.6672 2
45.801 48.8571 2
45.3788 52.4849 2
43.1794 48.2992 2
43.1371 45.9684 2
43.2606 43.6742 2
40.8266 43.6421 2
39.2115 42.4924 2
43.6674 54.3872 3.99968
40.6662 39.1044 3.71069
39.0942 40.7532 3.67506
43.4885 50.3539 4.00558
41.7902 47.4622 3.93595
41.6963 45.0328 3.85841
39.3362 44.2503 3.71621
37.5043 42.5839 3.61575
43.8553 57.6861 0.0205779
42.0819 56.2785 2
40.3922 54.8538 3.9848
35.5729 65.4196 0.0220042
37.8377 63.1951 0.0245454
40.622 61.6229 0.020917
40.4369 58.1567 0.0204823
35.6074 63.1896 2
38.2502 60.308 2
38.9128 56.4459 2
37.9874 55.1508 3.99332
36.9327 57.6044 3.98874
35.3647 60.8944 3.97771
33.6294 63.3227 0.0241923
30.3797 62.8443 0.0198128
32.1257 61.9872 0.0152795
33.3476 61.4971 2
28.685 62.1858 2
31.073 61.2091 2
29.4132 60.2682 3.97616
32.3633 59.7208 3.98786
28.046 58.3542 3.99882
27.5831 59.5724 2
25.3988 58.5761 3.97758
22.7852 58.2139 3.9685
23.4101 60.3279 3.97935
23.8114 59.0611 2
25.0422 60.8546 2
24.4364 62.7584 3.97749
26.8749 61.4798 0.0229339
26.2324 63.4678 2
25.549 65.485 3.97992
28.0645 64.1372 0.021572
27.4641 66.1768 2
26.8371 68.3284 3.98528
29.4072 66.7522 0.0181382
28.9072 68.9399 2
28.3709 71.2627 3.99081
31.0149 69.4141 0.014352
30.615 71.7776 2
30.1842 74.2788 4
32.8931 72.1463 0.00821031
32.6053 74.6792 2
35.0474 74.9194 0
31.7895 7.42278 3.98291
33.3486 4.92648 3.98867
33.7244 6.9809 2
35.2456 2.46333 3.99319
35.4358 4.68623 2
35.6219 6.72702 0.0146092
37.5 0 4
37.5147 2.38689 2
37.524 4.61673 0.0104476
39.7896 2.47492 0.00682105
39.9526 0.0802889 2
42.3946 0.32156 0
42.3927 35.7102 3.58844
43.9229 35.591 2
40.5776 34.2987 3.69623
42.0724 34.156 2
47.4984 37.7665 0.0775209
50.6413 35.574 0.0249208
45.3119 35.1592 0.130919
43.1308 33.9194 0.275053
41.7273 33.0676 0.456768
47.6921 34.3266 2
44.4789 33.0654 2
42.1455 32.4194 2
40.7142 32.764 2
45.739 31.695 3.91917
43.2381 31.3372 3.84138
40.8093 31.3962 3.73148
39.225 32.5159 3.58145
35.6948 11.7833 3.97925
37.3135 10.6324 2
37.4588 8.53755 0.0155501
38.9767 10.1315 0.0167821
33.101 11.2258 3.97538
34.7546 10.3815 2
35.8996 9.77767 0.0196496
30.4849 10.0242 3.97919
32.3786 9.37324 2
34.1528 8.82703 0.0175913
49.3776 31.5177 0.0125952
48.8668 27.6449 0.0227536
49.1686 24.542 0.0240133
47.1228 22.1458 0.0142365
44.7811 18.5503 0.0245729
42.0954 14.3088 0.0202047
38.3016 12.7438 0.0227784
36.5815 12.9344 2
47.2597 29.6006 2
38.6801 14.8194 2
41.7363 17.8908 2
46.8601 25.2772 2
44.2411 21.4956 2
45.1631 27.7712 4.00522
43.6545 24.2082 4.01739
41.3122 20.8873 3.98142
35.7735 14.7856 3.97757
38.6797 17.6352 3.97876
40.7186 37.4685 3.72402
42.5461 37.4799 2
44.2494 37.4879 0.263179
45.3396 55.9078 0.00885107
45.3808 52.4797 0.0181349
45.7957 48.8475 0.00238569
42.4033 39.2437 0.407212
43.2168 43.6445 0.156412
43.0842 45.9294 0.100126
43.169 48.2817 0.00401682
40.7924 43.5901 0.268869
40.561 40.6841 0.303355
39.2136 42.4851 0.415851
43.663 54.3869 2
40.6603 39.1015 2
39.0957 40.7402 2
43.487 50.3736 2
41.7828 47.4914 2
41.7213 45.071 2
37.5009 42.595 2
39.3492 44.3026 2
41.8235 52.8938 3.99582
39.1073 39.1239 3.69331
37.5066 40.8049 3.69607
35.7968 42.4936 3.58479
40.8438 49.525 3.99529
39.7658 45.826 3.83506
37.5029 44.4926 3.73281
42.0826 56.2768 0.0166407
40.3874 54.8655 2
38.7199 53.7076 3.99628
35.6075 63.1893 0.0246435
38.25 60.3073 0.0205925
38.9117 56.4543 0.00798022
35.3651 60.8938 2
36.9336 57.6048 2
37.9868 55.1479 2
36.3203 55.2207 3.99596
34.4919 58.5004 3.98927
33.3469 61.4959 0.0224337
28.6851 62.1851 0.021165
31.0724 61.2068 0.0196274
32.364 59.7238 2
29.4141 60.2674 2
30.3207 57.7933 3.98551
28.0479 58.3541 2
26.9915 56.8089 3.97185
27.5816 59.5719 0.0195818
25.4009 58.5768 2
23.89 56.7743 3.96072
21.3755 57.3635 3.96329
22.0082 59.5964 3.97567
22.7864 58.2154 2
22.7414 62.0097 3.97594
23.4107 60.3281 2
23.8101 59.0604 0.0167128
25.0417 60.8545 0.0228476
24.4366 62.7594 2
23.6835 64.7021 3.97901
26.2323 63.467 0.0221715
25.5487 65.4862 2
24.8096 67.5893 3.98448
27.4642 66.1765 0.018636
26.8369 68.3292 2
26.1661 70.6037 3.99089
28.9075 68.9398 0.0147166
28.37 71.2626 2
27.7943 73.7221 4
30.6158 71.7775 0.00875991
30.1841 74.2794 2
32.6054 74.6784 0
29.8122 7.99747 3.98168
31.2541 5.33338 3.9877
31.7888 7.42133 2
32.9815 2.7016 3.99285
33.3481 4.92523 2
33.7249 6.98283 0.0156581
35.0474 0.080333 4
35.245 2.46311 2
35.4361 4.68681 0.0105481
37.5 0 2
37.5152 2.38738 0.00675997
39.9526 0.0806499 0
40.6832 35.8496 3.70921
42.3908 35.7127 2
43.8642 35.6195 0.270002
28.5451 10.699 3.97838
39.0957 34.2472 3.67442
40.5795 34.3134 2
42.0769 34.1707 0.424592
47.6784 34.3104 0.047785
44.4471 33.0852 0.156363
42.0921 32.4624 0.25078
40.6912 32.7706 0.43834
45.7696 31.6722 2
43.2794 31.3054 2
40.8469 31.3423 2
39.2281 32.51 2
44.0495 29.8904 3.91416
41.6989 29.9466 3.86008
39.3497 30.7442 3.71576
37.5199 32.4277 3.61553
34.0965 12.9486 3.9746
35.6931 11.7744 2
37.3113 10.635 0.0190839
31.1893 11.9948 3.97781
33.1003 11.2244 2
34.7557 10.3865 0.0187174
30.4831 10.0216 2
32.3799 9.3745 0.0207121
47.2426 29.6362 0.0154976
46.856 25.2803 0.0243875
36.5843 12.9476 0.0250962
44.2468 21.5116 0.0209169
41.7422 17.899 0.0225122
38.6825 14.8341 0.024503
35.7752 14.7918 2
45.1672 27.7667 2
38.6752 17.6418 2
41.3058 20.8844 2
43.6526 24.1967 2
33.6117 15.8979 3.97845
42.8175 26.6218 3.99178
40.8291 23.4714 3.99889
38.408 20.4094 3.99022
35.8498 17.5386 3.97995
39.1178 37.4876 3.71322
40.7089 37.4702 2
42.5416 37.4766 0.376375
43.6674 54.3872 0.000321632
43.4885 50.3539 -0.00558474
40.6662 39.1044 0.289308
41.6963 45.0328 0.141595
41.7902 47.4622 0.0640487
39.3362 44.2503 0.283794
39.0942 40.7532 0.324945
37.5043 42.5839 0.384249
41.8155 52.895 2
39.1004 39.1099 2
37.5055 40.7878 2
40.8398 49.5447 2
35.7937 42.4995 2
39.7886 45.8768 2
37.4931 44.5362 2
39.761 51.7287 4.00221
37.5068 39.1311 3.72408
35.9233 40.7662 3.67551
34.3312 42.2333 3.56383
35.6734 44.2634 3.71035
38.6659 48.4711 3.94984
37.5184 46.1143 3.85862
40.3922 54.8538 0.0151956
38.7181 53.6943 2
36.7477 53.0229 3.99699
35.3647 60.8944 0.0222874
36.9327 57.6044 0.0112644
37.9874 55.1508 0.00668379
34.4924 58.4996 2
36.3208 55.2223 2
33.2488 55.4109 3.99244
32.3633 59.7208 0.0121411
29.4132 60.2682 0.0238418
30.3227 57.7917 2
28.7628 55.2919 3.98165
28.046 58.3542 0.00117963
26.9932 56.8091 2
25.3943 55.1095 3.96349
21.886 55.3087 3.96239
25.3988 58.5761 0.0224167
23.8909 56.7769 2
20.2555 56.9946 3.96504
20.6662 58.7462 3.96771
21.3762 57.3652 2
21.1744 61.1502 3.97447
22.0089 59.5967 2
22.7852 58.2139 0.0314972
21.8977 63.8291 3.9781
22.7417 62.0105 2
23.4101 60.3279 0.020652
24.4364 62.7584 0.0225142
23.6833 64.7029 2
22.8381 66.7322 3.98304
25.549 65.485 0.0200808
24.8093 67.5903 2
24.0103 69.8049 3.99074
26.8371 68.3284 0.0147218
26.165 70.6037 2
25.446 73.0099 4
28.3709 71.2627 0.00919472
27.7943 73.7222 2
30.1842 74.2788 0
27.822 8.65688 3.98165
29.1564 5.87964 3.98633
29.811 7.99524 2
30.7269 3.09853 3.99259
31.2535 5.33214 2
31.7895 7.42278 0.0170918
32.6053 0.320823 4
32.9808 2.70108 2
33.3486 4.92648 0.0113264
35.0474 0.0802903 2
35.2456 2.46333 0.00680996
37.5 0 0
39.1043 35.8637 3.69671
40.668 35.8525 2
42.3927 35.7102 0.411559
28.5436 10.6978 2
26.6234 11.3952 3.9785
29.2286 12.6493 3.97987
37.5111 34.2084 3.69445
39.102 34.2637 2
40.5776 34.2987 0.303771
45.739 31.695 0.0808312
43.2381 31.3372 0.158623
40.8093 31.3962 0.268515
39.225 32.5159 0.418554
44.073 29.8691 2
41.7238 29.911 2
39.3576 30.6915 2
37.5209 32.4156 2
42.1351 28.5759 3.88479
39.7626 29.159 3.85578
37.518 30.5166 3.731
35.8106 32.5195 3.58441
31.9206 14.4939 3.97873
34.0963 12.9504 2
35.6948 11.7833 0.0207481
31.1881 11.9912 2
33.101 11.2258 0.0246182
30.4849 10.0242 0.0208116
45.1631 27.7712 -0.00522021
43.6545 24.2082 -0.0173862
35.7735 14.7856 0.0224299
41.3122 20.8873 0.0185798
38.6797 17.6352 0.0212438
33.6095 15.8925 2
35.846 17.5418 2
42.8222 26.6165 2
38.3987 20.4226 2
40.8197 23.4524 2
33.5535 17.414 3.97924
40.2579 25.8509 3.96128
38.0584 23.1789 4.00088
35.5837 20.1243 3.99188
37.5079 37.4955 3.74143
39.1106 37.4841 2
40.7186 37.4685 0.275978
41.8235 52.8938 0.0041823
40.8438 49.525 0.00470801
39.1073 39.1239 0.30669
39.7658 45.826 0.164939
37.5029 44.4926 0.267194
37.5066 40.8049 0.30393
35.7968 42.4936 0.415205
39.7562 51.7357 2
37.5079 39.1227 2
35.9218 40.7535 2
38.6763 48.5202 2
34.309 42.24 2
35.6527 44.3163 2
37.5118 46.1609 2
37.6692 50.7685 3.99852
35.9141 39.1402 3.69606
34.4563 40.7079 3.69846
33.2919 41.9308 3.54707
34.2085 43.5976 3.72942
35.2094 45.8329 3.85
36.9246 48.0818 3.91705
38.7199 53.7076 0.00371504
36.7529 53.0259 2
34.4213 52.3481 3.99993
34.4919 58.5004 0.0107304
36.3203 55.2207 0.00404391
33.2509 55.4142 2
30.5984 53.3013 3.99591
30.3207 57.7933 0.0144917
28.7641 55.2923 2
27.0055 53.4008 3.96631
26.9915 56.8089 0.0281509
25.3953 55.1131 2
23.713 53.4328 3.9585
20.6389 53.163 3.96032
19.9929 55.7927 3.96296
21.8833 55.3108 2
23.89 56.7743 0.0392788
19.4621 57.8577 3.96979
20.2545 56.9961 2
19.7165 60.1707 3.97229
20.6662 58.747 2
21.3755 57.3635 0.0367107
20.2111 62.8497 3.97537
21.175 61.1524 2
22.0082 59.5964 0.0243329
20.9395 65.7607 3.98146
21.8976 63.8301 2
22.7414 62.0097 0.0240577
23.6835 64.7021 0.0209908
22.8378 66.7327 2
21.9128 68.872 3.99022
24.8096 67.5893 0.0155185
24.009 69.8047 2
23.1494 72.1454 4
26.1661 70.6037 0.00910903
25.446 73.0099 2
27.7943 73.7221 0
25.861 9.38577 3.98066
27.0711 6.54365 3.98526
27.8206 8.65578 2
28.4893 3.64443 3.99192
29.1554 5.87822 2
29.8122 7.99747 0.0183175
30.1841 0.720592 4
30.7259 3.09812 2
31.2541 5.33338 0.0122959
32.6053 0.320817 2
32.9815 2.7016 0.00714639
35.0474 0.080333 0
37.508 35.866 3.72233
39.0909 35.8693 2
40.6832 35.8496 0.290793
24.779 12.0825 3.97764
23.7567 14.375 3.97514
28.5451 10.699 0.0216151
26.6222 11.3946 2
29.2275 12.6483 2
27.2951 13.3824 3.97858
29.7869 14.2102 3.98004
35.9235 34.2493 3.67417
37.516 34.2257 2
39.0957 34.2472 0.325576
37.5199 32.4277 0.384466
44.0495 29.8904 0.0858377
41.6989 29.9466 0.139924
39.3497 30.7442 0.284241
42.1639 28.5314 2
39.7774 29.1111 2
37.5212 30.4687 2
35.8098 32.5118 2
39.9295 27.7984 3.89281
37.4928 28.8873 3.8565
35.6872 30.7604 3.7194
34.3472 32.7803 3.5637
30.9341 16.853 3.98197
31.9189 14.4879 2
34.0965 12.9486 0.0254047
31.1893 11.9948 0.0221911
42.8175 26.6218 0.00822402
40.8291 23.4714 0.00111248
33.6117 15.8979 0.0215486
35.8498 17.5386 0.0200456
38.408 20.4094 0.00977743
33.5494 17.4221 2
35.5834 20.1272 2
40.3109 25.8464 2
38.0447 23.1548 2
32.8753 19.8176 3.99272
37.6949 25.4849 3.97498
35.2016 22.859 3.99927
35.8974 37.4986 3.71505
37.5057 37.4961 2
39.1178 37.4876 0.286783
39.761 51.7287 -0.00221344
38.6659 48.4711 0.0501601
37.5068 39.1311 0.275916
37.5184 46.1143 0.141377
35.6734 44.2634 0.289645
35.9233 40.7662 0.32449
34.3312 42.2333 0.436165
37.659 50.7944 2
35.9251 39.1269 2
34.4438 40.6929 2
36.9034 48.134 2
33.2636 41.952 2
34.1792 43.649 2
35.1889 45.8773 2
35.532 49.9466 3.98683
34.3508 39.1401 3.71015
32.9407 40.8263 3.57975
32.9319 42.5363 3.75235
33.3277 45.0399 3.85377
34.393 47.2081 3.89036
36.7477 53.0229 0.00301483
34.4173 52.3546 2
32.136 51.1164 4.01823
33.2488 55.4109 0.00756235
30.5998 53.3048 2
28.5836 51.5292 3.98961
28.7628 55.2919 0.018348
27.0063 53.4041 2
25.2673 51.6814 3.95512
25.3943 55.1095 0.0365147
23.7116 53.4366 2
22.1871 51.733 3.95249
19.4516 51.5622 3.9614
19.0419 54.2578 3.96257
20.6376 53.1626 2
18.4864 56.6888 3.96491
19.9907 55.7945 2
21.886 55.3087 0.0376084
18.3836 59.0792 3.9691
19.4613 57.8589 2
20.2555 56.9946 0.0349617
18.6249 61.7435 3.97257
19.7172 60.1724 2
20.6662 58.7462 0.0322885
19.1285 64.6695 3.97995
20.2111 62.8505 2
21.1744 61.1502 0.0255335
19.887 67.8087 3.98994
20.9389 65.7612 2
21.8977 63.8291 0.0218973
22.8381 66.7322 0.0169644
21.9114 68.8714 2
20.9142 71.1327 4
24.0103 69.8049 0.00926024
23.1494 72.1455 2
25.446 73.0099 0
23.0992 12.799 3.97663
23.9737 10.1749 3.97903
25.0246 7.31439 3.98412
25.8596 9.38513 2
26.2811 4.32848 3.9913
27.0699 6.54291 2
27.822 8.65688 0.0183529
27.7943 1.27781 4
28.4878 3.64422 2
29.1564 5.87964 0.0136674
30.1841 0.720551 2
30.7269 3.09853 0.00740849
32.6053 0.320823 0
35.9039 35.8619 3.69085
37.5126 35.8771 2
39.1043 35.8637 0.30329
24.7771 12.0797 2
23.7567 14.3768 2
22.4874 15.0543 3.98029
25.3619 13.9217 3.9743
24.0384 15.6377 3.98232
26.6234 11.3952 0.0215024
29.2286 12.6493 0.0201322
27.2954 13.3821 2
29.7843 14.209 2
28.3672 15.9829 3.98077
34.4628 34.3124 3.69631
35.92 34.2618 2
37.5111 34.2084 0.305553
35.8106 32.5195 0.415586
37.518 30.5166 0.268995
42.1351 28.5759 0.115212
39.7626 29.159 0.144224
39.9487 27.7621 2
37.4941 28.8364 2
35.6713 30.7019 2
34.3218 32.7772 2
37.5878 27.5241 3.8995
35.2313 29.1773 3.85493
34.2195 31.4135 3.72951
33.3074 33.0813 3.5463
30.2219 19.3906 3.98134
30.9309 16.8465 2
31.9206 14.4939 0.0212652
40.2579 25.8509 0.0387189
38.0584 23.1789 -0.000880183
33.5535 17.414 0.0207572
35.5837 20.1243 0.00811532
32.8705 19.8262 2
35.1961 22.8461 2
37.7465 25.4636 2
32.3525 22.5331 3.9965
35.0539 25.4158 3.99841
34.2985 37.511 3.72534
35.9026 37.5013 2
37.5079 37.4955 0.258569
37.6692 50.7685 0.00148265
36.9246 48.0818 0.0829527
35.9141 39.1402 0.303938
35.2094 45.8329 0.150001
34.2085 43.5976 0.270579
34.4563 40.7079 0.30154
33.2919 41.9308 0.45293
35.5194 49.9559 2
34.36 39.1354 2
32.9413 40.8383 2
34.3906 47.2508 2
32.8907 42.5756 2
33.3057 45.0778 2
33.3571 48.9894 3.97855
32.6158 39.2789 3.59056
31.8834 41.0737 3.72727
31.7777 43.6577 3.84432
32.5144 46.1711 3.89154
34.4213 52.3481 6.90373e-05
32.1378 51.1267 2
30.088 49.6954 4.00261
30.5984 53.3013 0.00409246
28.5828 51.5257 2
26.7518 49.9037 3.9679
27.0055 53.4008 0.0336889
25.2654 51.6805 2
23.6147 50.0975 3.96255
23.713 53.4328 0.0414974
22.1856 51.7316 2
20.7593 50.2285 3.96494
18.2591 50.2574 3.9685
18.0345 52.7302 3.96383
19.4496 51.5615 2
17.5248 55.2977 3.96249
19.037 54.2583 2
20.6389 53.163 0.0396827
17.1557 57.8454 3.96433
18.4851 56.6897 2
19.9929 55.7927 0.0370352
17.1443 60.5197 3.96888
18.3834 59.0805 2
19.4621 57.8577 0.0302117
17.4096 63.4606 3.97479
18.6252 61.7436 2
19.7165 60.1707 0.0277114
17.9433 66.617 3.98827
19.1278 64.6696 2
20.2111 62.8497 0.0246314
18.75 69.9759 4
19.8853 67.8077 2
20.9395 65.7607 0.0185411
21.9128 68.872 0.00977507
20.9142 71.1327 2
23.1494 72.1454 0
21.5921 13.6251 3.97716
22.192 11.0362 3.97711
23.0984 12.8005 2
23.0424 8.18099 3.98276
23.9719 10.1732 2
24.1187 5.14327 3.9907
25.0233 7.31381 2
25.861 9.38577 0.0193361
25.446 1.99014 4
26.2793 4.32875 2
27.0711 6.54365 0.0147401
27.7943 1.27778 2
28.4893 3.64443 0.00808108
30.1841 0.720592 0
34.3553 35.8798 3.70969
35.9125 35.876 2
37.508 35.866 0.277669
21.319 15.8553 3.98387
24.779 12.0825 0.0223566
23.7567 14.375 0.0248554
25.3616 13.9164 2
22.4878 15.054 2
24.0392 15.6407 2
23.2828 16.2664 3.97462
25.3944 16.1082 3.98142
27.2951 13.3824 0.0214189
29.7869 14.2102 0.0199619
28.3642 15.9884 2
27.4564 18.8379 3.97963
32.9461 34.1916 3.58294
34.4503 34.3286 2
35.9235 34.2493 0.325832
34.3472 32.7803 0.436296
35.6872 30.7604 0.280596
37.4928 28.8873 0.143495
39.9295 27.7984 0.107187
37.5702 27.4894 2
33.2828 33.0637 2
35.2279 29.1215 2
34.1819 31.3587 2
35.1268 27.6256 3.90168
33.3228 29.9691 3.85489
32.9505 32.4713 3.7371
29.6517 21.9939 3.99799
30.2196 19.3966 2
30.9341 16.853 0.0180284
37.6949 25.4849 0.0250226
35.2016 22.859 0.000732252
32.8753 19.8176 0.00727943
32.354 22.5266 2
35.083 25.4056 2
31.8841 25.779 4.00381
32.4621 37.5106 3.62465
34.3145 37.5081 2
35.8974 37.4986 0.284947
35.532 49.9466 0.0131704
34.393 47.2081 0.109639
34.3508 39.1401 0.289854
33.3277 45.0399 0.146233
32.9319 42.5363 0.247646
32.9407 40.8263 0.420247
33.3445 48.9888 2
32.628 39.2806 2
31.8472 41.1057 2
32.4759 46.2129 2
31.7386 43.6882 2
31.4214 47.8333 3.98044
31.1506 39.3788 3.73042
30.5699 41.9123 3.84796
30.8183 44.7935 3.9101
32.136 51.1164 -0.0182294
30.0891 49.7125 2
28.2005 48.0821 3.95945
28.5836 51.5292 0.0103949
26.7506 49.9037 2
24.9919 48.3589 3.9693
25.2673 51.6814 0.044876
23.6134 50.0962 2
22.023 48.6854 3.97135
22.1871 51.733 0.0475107
20.7566 50.2273 2
19.349 49.009 3.97255
17.1449 49.2663 3.974
16.9882 51.3465 3.96755
18.2616 50.256 2
16.518 53.8233 3.96481
18.0327 52.7299 2
19.4516 51.5622 0.0385958
16.015 56.4467 3.9629
17.5207 55.2985 2
19.0419 54.2578 0.037427
15.7601 59.1873 3.96738
17.1559 57.8462 2
18.4864 56.6888 0.0350914
15.7919 62.1183 3.97152
17.1443 60.522 2
18.3836 59.0792 0.0308991
16.0901 65.2987 3.98694
17.4088 63.4616 2
18.6249 61.7435 0.0274296
16.6661 68.6801 4
17.9414 66.6156 2
19.1285 64.6695 0.0200536
18.75 69.9759 2
19.887 67.8087 0.0100554
20.9142 71.1327 0
20.2267 14.6219 3.97383
21.5916 13.625 2
20.5325 12.0095 3.9755
21.1451 9.15176 3.98121
22.1906 11.0366 2
23.0992 12.799 0.0233734
22.0178 6.0823 3.99019
23.0407 8.18 2
23.9737 10.1749 0.0209695
23.1494 2.85457 4
24.1166 5.14382 2
25.0246 7.31439 0.015879
25.446 1.99012 2
26.2811 4.32848 0.00869719
27.7943 1.27781 0
32.6069 35.7456 3.59157
34.3625 35.8823 2
35.9039 35.8619 0.309145
21.3196 15.8534 2
20.3252 16.9862 3.9787
22.1149 16.6578 3.96956
25.3619 13.9217 0.0256995
22.4874 15.0543 0.0197051
24.0384 15.6377 0.0176803
25.3945 16.1029 2
23.2838 16.2661 2
24.2253 18.5102 3.97097
27.0907 21.5359 3.99427
28.3672 15.9829 0.0192254
27.4546 18.8427 2
31.9072 33.9533 3.72465
32.9511 34.1759 2
34.4628 34.3124 0.303691
33.3074 33.0813 0.453705
34.2195 31.4135 0.270489
35.2313 29.1773 0.145065
37.5878 27.5241 0.100499
35.1342 27.581 2
32.8802 32.4312 2
33.3028 29.9363 2
32.7563 28.3071 3.91185
31.7832 31.3596 3.84098
28.9986 24.4849 3.98785
29.6479 22.0021 2
30.2219 19.3906 0.0186612
35.0539 25.4158 0.00158921
32.3525 22.5331 0.00350388
31.8785 25.7562 2
29.9364 27.4266 3.97763
30.7535 37.5109 3.7358
32.4716 37.5091 2
34.2985 37.511 0.274658
33.3571 48.9894 0.0214486
32.5144 46.1711 0.108455
32.6158 39.2789 0.40944
31.7777 43.6577 0.155681
31.8834 41.0737 0.272733
31.4072 47.8465 2
31.0915 39.4028 2
30.5387 41.9294 2
30.781 44.8272 2
29.5963 46.4475 3.99802
29.6969 39.8463 3.87168
29.2642 43.035 3.91264
30.088 49.6954 -0.00261197
28.1961 48.0763 2
26.3737 46.5337 3.97993
26.7518 49.9037 0.0320985
24.9906 48.3586 2
23.2467 46.9553 3.97518
23.6147 50.0975 0.0374506
22.0204 48.684 2
20.3342 47.5247 3.97696
20.7593 50.2285 0.0350627
19.3504 49.0076 2
17.9593 48.1055 3.97706
16.3808 48.6237 3.9764
17.1463 49.2652 2
16.0658 50.1134 3.97156
15.5323 52.3679 3.9672
16.9894 51.3457 2
18.2591 50.2574 0.0315047
14.9464 54.9437 3.96366
16.5194 53.8228 2
18.0345 52.7302 0.0361745
14.4734 57.7206 3.96486
16.0146 56.4472 2
17.5248 55.2977 0.0375117
14.2712 60.6767 3.97036
15.761 59.1881 2
17.1557 57.8454 0.0356668
14.3354 63.8569 3.98279
15.7916 62.1212 2
17.1443 60.5197 0.0311196
14.6715 67.2507 4
16.0876 65.2969 2
17.4096 63.4606 0.025206
16.6661 68.6801 2
17.9433 66.617 0.0117288
18.75 69.9759 0
18.944 15.8077 3.97551
20.2267 14.6198 2
18.9841 13.1268 3.97534
21.5921 13.6251 0.0228363
20.5317 12.0105 2
19.3447 10.2423 3.97917
19.9924 7.14703 3.98937
21.1435 9.1522 2
22.192 11.0362 0.0228885
20.9142 3.86727 4
22.0152 6.08314 2
23.0424 8.18099 0.0172418
23.1494 2.85451 2
24.1187 5.14327 0.00930114
25.446 1.99014 0
31.1691 35.6389 3.72706
32.6172 35.7412 2
34.3553 35.8798 0.290307
21.319 15.8553 0.0161271
22.1156 16.6568 2
20.3256 16.983 2
19.2874 18.4374 3.96216
21.8041 17.89 3.9828
25.3944 16.1082 0.0185827
23.2828 16.2664 0.0253752
24.2218 18.5164 2
22.3496 19.9488 3.96474
24.674 21.4282 3.98786
26.6082 23.7864 3.97846
27.0927 21.5138 2
27.4564 18.8379 0.0203686
30.6152 33.1175 3.85989
31.8729 33.9085 2
32.9461 34.1916 0.417058
32.9505 32.4713 0.262904
33.3228 29.9691 0.14511
35.1268 27.6256 0.098318
32.7215 28.2796 2
31.732 31.3254 2
30.5106 29.7058 3.93754
28.1898 26.6351 3.99272
28.9887 24.493 2
29.6517 21.9939 0.00200539
31.8841 25.779 -0.00380673
29.9283 27.4051 2
29.2634 37.5123 3.86581
30.7101 37.511 2
32.4621 37.5106 0.375347
31.4214 47.8333 0.0195567
30.8183 44.7935 0.0898957
31.1506 39.3788 0.269579
30.5699 41.9123 0.152037
29.5971 46.4469 2
29.639 39.8637 2
29.2343 43.0743 2
27.8265 44.7644 3.97225
27.4623 40.5826 3.94238
28.2005 48.0821 0.0405481
26.3699 46.5379 2
24.5299 45.0738 3.97694
24.9919 48.3589 0.0306951
23.2448 46.955 2
21.3347 45.7947 3.97794
22.023 48.6854 0.0286472
20.3326 47.5234 2
18.6653 46.6551 3.97717
19.349 49.009 0.0274503
17.9597 48.1044 2
16.6034 47.6497 3.9769
16.3824 48.6227 2
15.4096 48.9628 3.97529
17.1449 49.2663 0.0259998
16.0678 50.1124 2
14.6518 50.9399 3.96989
13.9227 53.4015 3.96552
15.5332 52.3673 2
16.9882 51.3465 0.0324458
13.2776 56.1509 3.96389
14.9465 54.9437 2
16.518 53.8233 0.035188
12.8555 59.1138 3.96827
14.4749 57.7206 2
16.015 56.4467 0.0370985
12.6814 62.2984 3.97918
14.2719 60.6773 2
15.7601 59.1873 0.0326183
12.7746 65.6939 4
14.3332 63.8533 2
15.7919 62.1183 0.0284793
14.6714 67.2507 2
16.0901 65.2987 0.0130649
16.6661 68.6801 0
17.6903 17.1854 3.96991
18.9441 15.8062 2
17.5181 14.393 3.97363
20.2267 14.6219 0.0261677
18.9835 13.1265 2
17.641 11.4627 3.97711
20.5325 12.0095 0.0245015
19.3432 10.243 2
18.0526 8.3404 3.98797
18.75 5.0241 4
19.9896 7.14883 2
21.1451 9.15176 0.0187932
20.9142 3.86727 2
22.0178 6.0823 0.00981145
23.1494 2.85457 0
29.7173 35.1893 3.8713
31.1129 35.6169 2
32.6069 35.7456 0.408426
22.1149 16.6578 0.0304447
20.3252 16.9862 0.0212955
21.8036 17.8881 2
19.2865 18.4341 2
18.0778 19.9873 3.95859
20.9396 19.4221 3.96389
24.2253 18.5102 0.0290313
22.3459 19.9503 2
24.6746 21.4228 2
22.481 21.7866 3.98133
24.8777 23.2268 3.97527
25.7842 26.0192 3.97887
26.6068 23.7853 2
27.0907 21.5359 0.00573148
28.9972 32.4657 3.91612
30.5623 33.0877 2
31.9072 33.9533 0.275354
31.7832 31.3596 0.15902
32.7563 28.3071 0.0881457
30.4906 29.7018 2
27.4818 29.2183 4.00945
28.179 26.6416 2
28.9986 24.4849 0.0121528
29.9364 27.4266 0.0223743
27.5779 37.3602 3.91949
29.1987 37.5046 2
30.7535 37.5109 0.264205
29.5963 46.4475 0.00198356
29.2642 43.035 0.0873595
29.6969 39.8463 0.128319
27.8142 44.7966 2
27.4398 40.5758 2
25.8754 43.071 3.98907
24.7204 39.4491 3.97306
26.3737 46.5337 0.0200673
24.5188 45.0755 2
22.423 43.8371 3.97742
23.2467 46.9553 0.0248188
21.3308 45.7944 2
19.3976 44.8905 3.97697
20.3342 47.5247 0.0230436
18.6652 46.6547 2
16.9423 46.1442 3.9769
17.9593 48.1055 0.0229428
16.6046 47.6488 2
15.1651 47.6178 3.97635
16.3808 48.6237 0.0235984
15.4115 48.962 2
13.9575 49.504 3.97231
16.0658 50.1134 0.0284394
14.6527 50.9393 2
12.9956 51.8434 3.96733
12.1794 54.5108 3.96457
13.9226 53.4013 2
15.5323 52.3679 0.0327955
11.5412 57.4498 3.96804
13.2783 56.151 2
14.9464 54.9437 0.0363413
11.1361 60.6244 3.97763
12.8568 59.1133 2
14.4734 57.7206 0.0351353
10.9835 64.0165 4
12.6796 62.2947 2
14.2712 60.6767 0.0296405
12.7745 65.694 2
14.3354 63.8569 0.0172141
14.6715 67.2507 0
16.4433 18.6819 3.96217
17.6892 17.1834 2
16.1133 15.807 3.96815
18.944 15.8077 0.0244945
17.5177 14.392 2
16.0234 12.8178 3.97411
18.9841 13.1268 0.0246608
17.6398 11.4645 2
16.2035 9.6638 3.98663
19.3447 10.2423 0.0208271
18.0497 8.34291 2
16.6661 6.31991 4
18.75 5.02404 2
19.9924 7.14703 0.010627
20.9142 3.86727 0
28.1119 34.827 3.90919
29.6582 35.1617 2
31.1691 35.6389 0.272944
16.7965 21.4237 3.96554
21.8041 17.89 0.0172036
19.2874 18.4374 0.0378445
20.9372 19.4201 2
18.0756 19.9858 2
19.8636 21.6324 3.96894
22.3496 19.9488 0.0352609
24.674 21.4282 0.0121436
22.4787 21.7881 2
24.8751 23.2288 2
23.1134 24.6786 3.97453
25.0256 28.6075 3.97945
25.7768 26.0261 2
26.6082 23.7864 0.0215422
26.8487 31.809 3.9786
28.9689 32.4481 2
30.6152 33.1175 0.14011
30.5106 29.7058 0.0624646
27.4955 29.2001 2
28.1898 26.6351 0.00727996
25.4072 36.8558 3.9748
27.5659 37.3609 2
29.2634 37.5123 0.134191
27.8265 44.7644 0.0277533
27.4623 40.5826 0.0576217
25.8562 43.0869 2
24.7022 39.4517 2
23.611 41.8097 3.98162
22.4379 38.5189 3.97813
24.5299 45.0738 0.0230595
22.4233 43.8367 2
20.2485 42.831 3.97623
21.3347 45.7947 0.0220574
19.3983 44.8903 2
17.3316 44.3173 3.97626
18.6653 46.6551 0.0228324
16.9439 46.1437 2
15.1168 46.0378 3.97625
16.6034 47.6497 0.023095
15.1668 47.617 2
13.4834 47.9683 3.97411
15.4096 48.9628 0.0247069
13.9587 49.5033 2
12.2231 50.224 3.96886
14.6518 50.9399 0.0301146
12.9962 51.843 2
11.1786 52.8222 3.96535
10.3319 55.7054 3.96788
12.1797 54.5107 2
13.9227 53.4015 0.0344752
9.70274 58.8472 3.97706
11.5419 57.4494 2
13.2776 56.1509 0.0361102
9.30605 62.2254 4
11.1345 60.6205 2
12.8555 59.1138 0.03173
10.9835 64.0165 2
12.6814 62.2984 0.0208224
12.7746 65.6939 0
15.2204 20.2208 3.96279
16.4453 18.6818 2
14.7632 17.3275 3.96586
17.6903 17.1854 0.0300937
16.1125 15.8052 2
14.4878 14.3098 3.97141
17.5181 14.393 0.02637
16.0226 12.8195 2
14.4464 11.1161 3.98499
17.641 11.4627 0.0228929
16.2008 9.66721 2
14.6715 7.74927 4
18.0526 8.3404 0.0120281
16.6661 6.31988 2
18.75 5.0241 0
26.0724 34.3258 3.98296
28.0909 34.8348 2
29.7173 35.1893 0.128697
18.0234 22.3798 3.97176
15.6844 22.9681 3.96903
16.796 21.4235 2
20.9396 19.4221 0.0361084
18.0778 19.9873 0.0414149
19.862 21.6316 2
19.9512 24.4614 3.97039
22.481 21.7866 0.0186699
24.8777 23.2268 0.02473
23.1105 24.678 2
22.3883 27.9234 3.97278
24.4076 31.2906 3.97682
25.0322 28.6049 2
25.7842 26.0192 0.0211278
26.8307 31.7777 2
28.9972 32.4657 0.0838818
27.4818 29.2183 -0.00944865
23.1607 36.2857 3.9826
25.3927 36.8583 2
27.5779 37.3602 0.080506
25.8754 43.071 0.0109302
24.7204 39.4491 0.0269394
23.5976 41.8101 2
22.4294 38.5167 2
21.3126 40.6263 3.9752
20.6877 37.8018 3.97705
22.423 43.8371 0.0225791
20.2473 42.832 2
17.8 42.0517 3.976
19.3976 44.8905 0.0230284
17.3325 44.3177 2
15.1593 44.1485 3.97621
16.9423 46.1442 0.023101
15.118 46.0372 2
13.179 46.2575 3.97535
15.1651 47.6178 0.023646
13.4849 47.9677 2
11.6079 48.5226 3.97024
13.9575 49.504 0.0276881
12.2242 50.2236 2
10.308 51.0675 3.966
12.9956 51.8434 0.0326657
11.1791 52.8218 2
9.24078 53.886 3.96776
8.38617 56.9808 3.97775
10.3327 55.7046 2
12.1794 54.5108 0.035426
7.74927 60.3285 4
9.70149 58.8432 2
11.5412 57.4498 0.031958
9.306 62.2255 2
11.1361 60.6244 0.0223667
10.9835 64.0165 0
14.0486 21.7861 3.96558
15.2195 20.2203 2
13.4686 18.9211 3.96465
16.4433 18.6819 0.0378258
14.765 17.3273 2
13.0341 15.9023 3.96957
16.1133 15.807 0.0318473
14.4874 14.3055 2
12.7842 12.6903 3.98187
16.0234 12.8178 0.0258937
14.4437 11.1198 2
12.7746 9.30605 4
16.2035 9.6638 0.0133716
14.6715 7.74924 2
16.6661 6.31991 0
23.7492 33.8611 3.98311
26.0495 34.3163 2
28.1119 34.827 0.0908098
17.8824 24.11 3.97049
18.0281 22.3805 2
14.5259 24.5022 3.97064
15.6853 22.9682 2
16.7965 21.4237 0.0344568
19.4268 27.2922 3.97281
19.8636 21.6324 0.0310551
19.9467 24.4612 2
21.7418 30.7646 3.97519
23.1134 24.6786 0.0254743
22.3912 27.9249 2
24.3846 31.2891 2
25.0256 28.6075 0.02055
26.8487 31.809 0.0214012
20.8108 35.9563 3.97652
23.1618 36.2859 2
25.4072 36.8558 0.0252036
23.611 41.8097 0.0183755
22.4379 38.5189 0.0218658
21.3195 40.6275 2
20.6877 37.8006 2
18.5495 38.998 3.97702
20.2485 42.831 0.023772
17.7999 42.0516 2
15.1441 41.8823 3.9764
17.3316 44.3173 0.023737
15.1602 44.1483 2
12.9419 44.3575 3.97617
15.1168 46.0378 0.0237549
13.1806 46.2569 2
11.122 46.7088 3.97174
13.4834 47.9683 0.0258859
11.6093 48.5221 2
9.57557 49.2284 3.96655
12.2231 50.224 0.0311357
10.3084 51.067 2
8.27356 52.0002 3.96756
11.1786 52.8222 0.0346467
9.24143 53.885 2
7.19517 55.0319 3.97859
6.31991 58.3339 4
8.38527 56.977 2
10.3319 55.7054 0.0321206
7.74924 60.3285 2
9.70274 58.8472 0.0229368
9.30605 62.2254 0
13.4037 25.4044 3.9743
12.9489 23.3159 3.96804
14.0477 21.7858 2
12.2681 20.5682 3.96504
15.2204 20.2208 0.0372132
13.4689 18.9204 2
11.6648 17.5778 3.96985
14.7632 17.3275 0.0341365
13.0359 15.9014 2
11.2224 14.3769 3.97755
14.4878 14.3098 0.0285867
12.7819 12.6947 2
10.9835 10.9835 4
14.4464 11.1161 0.0150083
12.7745 9.306 2
14.6715 7.74927 0
21.1753 33.4648 3.97561
23.7509 33.8516 2
26.0724 34.3258 0.0170425
16.2092 26.4677 3.97297
17.8833 24.1102 2
18.0234 22.3798 0.0282383
14.5258 24.5026 2
15.6844 22.9681 0.0309732
18.8181 30.2614 3.97506
19.4245 27.2924 2
19.9512 24.4614 0.0296058
21.7521 30.7654 2
22.3883 27.9234 0.027216
24.4076 31.2906 0.0231834
18.1596 35.9881 3.97772
20.8131 35.9572 2
23.1607 36.2857 0.0174003
21.3126 40.6263 0.0248
20.6877 37.8018 0.0229488
18.548 38.9973 2
14.6475 39.1668 3.97713
17.8 42.0517 0.0240044
15.1443 41.8821 2
12.6382 42.2496 3.97675
15.1593 44.1485 0.0237942
12.9432 44.3569 2
10.7109 44.7813 3.97291
13.179 46.2575 0.0246472
11.1237 46.7083 2
8.96147 47.3087 3.96703
11.6079 48.5226 0.0297553
9.57574 49.228 2
7.44034 50.0341 3.96726
10.308 51.0675 0.0340013
8.27402 51.9993 2
6.1358 53.0073 3.979
9.24078 53.886 0.0322366
7.19465 55.0288 2
5.0241 56.25 4
6.31988 58.3339 2
8.38617 56.9808 0.0222523
7.74927 60.3285 0
13.6735 26.8585 3.97439
12.0592 24.8188 3.97028
13.4029 25.4046 2
11.1902 22.2521 3.96561
12.9497 23.3161 2
14.0486 21.7861 0.0344186
12.2685 20.5678 2
10.3967 19.3281 3.96871
13.4686 18.9211 0.0353467
11.6667 17.5777 2
9.7631 16.1602 3.97724
13.0341 15.9023 0.0304252
11.2205 14.3818 2
9.30607 12.7746 4
12.7842 12.6903 0.0181324
10.9835 10.9835 2
12.7746 9.30605 0
18.3284 33.1717 3.97668
21.1762 33.4672 2
23.7492 33.8611 0.0168863
15.8327 29.7003 3.97563
16.2097 26.4683 2
17.8824 24.11 0.0295102
14.5259 24.5022 0.0293553
18.8172 30.262 2
19.4268 27.2922 0.0271897
21.7418 30.7646 0.0248144
15.2703 36.0346 3.97739
18.1593 35.9883 2
20.8108 35.9563 0.0234791
12.8682 37.8296 3.97726
18.5495 38.998 0.0229752
14.6476 39.1666 2
12.1428 40.1266 3.97681
15.1441 41.8823 0.0236009
12.6396 42.2491 2
10.314 42.7623 3.97346
12.9419 44.3575 0.0238323
10.7125 44.7809 2
8.4408 45.3122 3.96758
11.122 46.7088 0.02826
8.96119 47.3084 2
6.73139 47.9995 3.96708
9.57557 49.2284 0.0334484
7.44065 50.0333 2
5.21257 50.9108 3.97871
8.27356 52.0002 0.0324406
6.13556 53.0052 2
3.86727 54.0858 4
7.19517 55.0319 0.0214103
5.02404 56.25 2
6.31991 58.3339 0
13.1557 29.0733 3.97419
11.5042 26.5169 3.97072
13.673 26.8588 2
10.2505 23.9826 3.96664
12.0608 24.8192 2
13.4037 25.4044 0.0257029
9.24928 21.1432 3.96814
11.1902 22.2519 2
12.9489 23.3159 0.0319584
12.2681 20.5682 0.0349626
10.3984 19.3283 2
8.4188 18.0309 3.97732
11.6648 17.5778 0.0301537
9.76179 16.1652 2
7.74928 14.6715 4
11.2224 14.3769 0.0224517
9.30602 12.7745 2
10.9835 10.9835 0
14.8225 32.908 3.97683
18.327 33.1711 2
21.1753 33.4648 0.0243898
15.8342 29.7009 2
16.2092 26.4677 0.0270309
18.8181 30.2614 0.0249377
13.1618 36.221 3.97695
15.2697 36.0344 2
18.1596 35.9881 0.0222778
12.8696 37.8293 2
11.4803 38.3085 3.97695
14.6475 39.1668 0.0228663
12.1452 40.1262 2
9.89067 40.7452 3.97465
12.6382 42.2496 0.0232461
10.3166 42.7618 2
7.98785 43.2633 3.9683
10.7109 44.7813 0.0270903
8.44151 45.3118 2
6.13715 45.9047 3.96725
8.96147 47.3087 0.0329746
6.73169 47.9988 2
4.424 48.7514 3.97814
7.44034 50.0341 0.03274
5.21252 50.9096 2
2.85457 51.8506 4
6.1358 53.0073 0.0209961
3.86727 54.0858 2
5.0241 56.25 0
12.2909 31.2879 3.97584
10.9235 28.4414 3.97118
13.1567 29.0738 2
9.46809 25.8111 3.96726
11.5054 26.5172 2
13.6735 26.8585 0.0256102
8.23611 23.0259 3.96785
10.2508 23.9827 2
12.0592 24.8188 0.0297172
7.20098 19.9801 3.97819
9.25065 21.1437 2
11.1902 22.2521 0.0343877
10.3967 19.3281 0.0312918
8.41814 18.0354 2
6.31992 16.6661 4
9.7631 16.1602 0.0227649
7.74926 14.6714 2
9.30607 12.7746 0
12.3264 34.3174 3.97683
14.823 32.9087 2
18.3284 33.1717 0.0233226
15.8327 29.7003 0.0243687
11.0229 36.6178 3.97684
13.1627 36.2208 2
15.2703 36.0346 0.0226059
12.8682 37.8296 0.0227371
11.4832 38.3081 2
9.47302 38.8205 3.97524
12.1428 40.1266 0.0231861
9.89261 40.7448 2
7.59621 41.2072 3.96881
10.314 42.7623 0.0265396
7.98729 43.263 2
5.64871 43.7678 3.96755
8.4408 45.3122 0.0324191
6.13737 45.9041 2
3.76944 46.537 3.97799
6.73139 47.9995 0.0329243
4.42418 48.7507 2
1.99014 49.554 4
5.21257 50.9108 0.0212866
2.85451 51.8506 2
3.86727 54.0858 0
11.1113 32.9402 3.97676
10.233 30.4035 3.97211
12.2923 31.2885 2
8.77846 27.7433 3.96754
10.9248 28.4418 2
13.1557 29.0733 0.0258107
7.36135 24.9839 3.96758
9.468 25.8112 2
11.5042 26.5169 0.0292771
6.11798 22.0029 3.979
8.23696 23.0263 2
10.2505 23.9826 0.0333637
5.02411 18.75 4
7.20077 19.9834 2
9.24928 21.1432 0.0318623
8.4188 18.0309 0.0226799
6.3199 16.6661 2
7.74928 14.6715 0
10.6186 35.0118 3.97671
12.328 34.3177 2
14.8225 32.908 0.0231691
9.13797 36.9873 3.97506
11.0259 36.6178 2
13.1618 36.221 0.023047
11.4803 38.3085 0.0230469
9.47485 38.8203 2
7.27256 39.1804 3.96911
9.89067 40.7452 0.025346
7.59661 41.2069 2
5.26372 41.6136 3.96762
7.98785 43.2633 0.0316984
5.64889 43.7673 2
3.24704 44.2817 3.97827
6.13715 45.9047 0.0327522
3.76971 46.5365 2
1.27781 47.2057 4
4.424 48.7514 0.021857
1.99012 49.554 2
2.85457 51.8506 0
10.2566 33.8964 3.97666
9.51391 32.1701 3.97278
11.1136 32.9407 2
8.12246 29.7047 3.96791
10.2347 30.4039 2
12.2909 31.2879 0.024157
6.60466 27.0094 3.96748
8.77817 27.7435 2
10.9235 28.4414 0.0288234
5.17334 24.0952 3.97896
7.36183 24.9843 2
9.46809 25.8111 0.0327426
3.86728 20.9142 4
6.11798 22.0047 2
8.23611 23.0259 0.0321532
5.02406 18.75 2
7.20098 19.9801 0.021809
6.31992 16.6661 0
8.95883 35.2862 3.97475
10.6214 35.012 2
12.3264 34.3174 0.0231734
7.05057 37.2064 3.96918
9.13961 36.9872 2
11.0229 36.6178 0.0231629
9.47302 38.8205 0.0247565
7.27356 39.1802 2
4.99114 39.4672 3.96792
7.59621 41.2072 0.0311868
5.26426 41.6133 2
2.85741 42.002 3.97838
5.64871 43.7678 0.0324543
3.24716 44.2813 2
0.720592 44.8159 4
3.76944 46.537 0.0220095
1.27778 47.2057 2
1.99014 49.554 0
9.00208 33.7085 3.97398
10.2593 33.8968 2
7.55495 31.6159 3.96851
9.51611 32.1704 2
11.1113 32.9402 0.0232377
5.94949 29.0703 3.96754
8.12209 29.7048 2
10.233 30.4035 0.0278945
4.36092 26.2475 3.97853
6.60494 27.0098 2
8.77846 27.7433 0.0324622
2.85458 23.1494 4
5.17347 24.096 2
7.36135 24.9839 0.0324225
3.86728 20.9142 2
6.11798 22.0029 0.0209957
5.02411 18.75 0
6.99916 35.3085 3.96911
8.96064 35.2863 2
10.6186 35.0118 0.0232933
4.84113 37.3398 3.9684
7.05162 37.2063 2
9.13797 36.9873 0.0249371
7.27256 39.1804 0.030887
4.9917 39.467 2
2.60538 39.7136 3.9785
5.26372 41.6136 0.032385
2.85784 42.0018 2
0.320823 42.3947 4
3.24704 44.2817 0.0217326
0.720551 44.8159 2
1.27781 47.2057 0
7.16449 33.4654 3.96884
9.00404 33.7087 2
10.2566 33.8964 0.0233392
5.41981 31.134 3.96812
7.55505 31.616 2
9.51391 32.1701 0.0272234
3.68249 28.4435 3.97823
5.94975 29.0707 2
8.12246 29.7047 0.0320856
1.99015 25.446 4
4.36113 26.2478 2
6.60466 27.0094 0.0325231
2.85453 23.1494 2
5.17334 24.0952 0.0210414
3.86728 20.9142 0
4.85552 35.2518 3.96831
6.9993 35.3085 2
8.95883 35.2862 0.0252453
2.49678 37.4283 3.97934
4.84121 37.3399 2
7.05057 37.2064 0.0308231
4.99114 39.4672 0.0320776
2.60592 39.7139 2
0.080333 39.9526 4
2.85741 42.002 0.0216212
0.320817 42.3947 2
0.720592 44.8159 0
5.04896 33.1905 3.96831
7.1648 33.4655 2
9.00208 33.7085 0.0260187
3.14659 30.6662 3.97854
5.42004 31.1344 2
7.55495 31.6159 0.0314945
1.27793 27.7943 4
3.68281 28.4437 2
5.94949 29.0703 0.0324552
1.99013 25.446 2
4.36092 26.2475 0.0214656
2.85458 23.1494 0
2.5489 35.1589 3.97903
4.8562 35.252 2
6.99916 35.3085 0.0308915
0 37.5 4
2.49685 37.4287 2
4.84113 37.3398 0.0315969
2.60538 39.7136 0.0214962
0.0802903 39.9526 2
0.320823 42.3947 0
2.76655 32.9057 3.97916
5.04919 33.1909 2
7.16449 33.4654 0.0311603
0.721173 30.1842 4
3.14692 30.6666 2
5.41981 31.134 0.0318832
1.27779 27.7943 2
3.68249 28.4435 0.0217655
1.99015 25.446 0
0.0806499 35.0474 4
2.54953 35.1593 2
4.85552 35.2518 0.0316883
0 37.5 2
2.49678 37.4283 0.0206565
0.080333 39.9526 0
0.32156 32.6054 4
2.76671 32.9062 2
5.04896 33.1905 0.0316935
0.72056 30.1841 2
3.14659 30.6662 0.0214578
1.27793 27.7943 0
0.0802889 35.0474 2
2.5489 35.1589 0.0209708
0 37.5 0
0.320817 32.6053 2
2.76655 32.9057 0.0208404
0.721173 30.1842 0
0.0806499 35.0474 0
0.32156 32.6054 0
CELLS 1910 17190
8 18 6 25 56 2 0 5 16
8 57 23 6 18 17 4 0 2
8 78 36 9 29 31 11 1 7
8 31 11 1 7 79 37 10 30
8 110 57 18 50 48 17 2 14
8 50 18 56 111 14 2 16 49
8 116 62 22 55 52 20 3 15
8 56 25 67 118 16 5 24 53
8 119 63 23 57 54 21 4 17
8 55 22 63 119 15 3 21 54
8 58 26 68 121 18 6 25 56
8 122 65 26 58 57 23 6 18
8 73 31 7 27 142 79 30 71
8 143 78 29 72 73 31 7 27
8 83 147 76 34 32 74 28 8
8 84 148 78 36 33 75 29 9
8 76 34 8 28 148 84 33 75
8 37 79 150 86 10 30 77 35
8 151 87 36 78 80 38 11 31
8 80 38 11 31 152 88 37 79
8 175 100 42 94 96 44 12 40
8 44 96 176 101 12 40 95 43
8 101 176 98 46 43 95 41 13
8 46 98 178 103 13 41 97 45
8 178 103 45 97 147 83 32 74
8 189 116 55 109 106 52 15 47
8 111 56 118 191 49 16 53 107
8 192 119 57 110 108 54 17 48
8 109 55 119 192 47 15 54 108
8 194 122 58 112 110 57 18 50
8 112 58 121 195 50 18 56 111
8 115 61 19 51 197 124 59 113
8 115 61 125 198 51 19 60 114
8 198 125 62 116 114 60 20 52
8 200 127 64 120 116 62 22 55
8 118 67 132 202 53 24 66 117
8 121 68 133 203 56 25 67 118
8 120 64 128 204 55 22 63 119
8 204 128 65 122 119 63 23 57
8 206 134 68 121 123 69 26 58
8 123 69 26 58 207 131 65 122
8 226 147 74 138 140 76 28 70
8 229 148 75 139 143 78 29 72
8 140 76 28 70 229 148 75 139
8 142 79 30 71 231 150 77 141
8 144 80 31 73 232 152 79 142
8 233 151 78 143 144 80 31 73
8 150 86 35 77 235 154 81 145
8 235 154 81 145 146 82 39 91
8 146 82 39 91 236 155 90 165
8 238 157 83 147 149 85 34 76
8 239 158 84 148 151 87 36 78
8 149 85 34 76 239 158 84 148
8 152 88 37 79 241 160 86 150
8 242 161 87 151 153 89 38 80
8 153 89 38 80 243 162 88 152
8 171 98 41 92 265 178 97 169
8 265 178 97 169 226 147 74 138
8 172 96 40 93 266 176 95 170
8 266 176 95 170 171 98 41 92
8 269 175 94 173 172 96 40 93
8 271 180 99 174 175 100 42 94
8 197 124 59 113 271 180 99 174
8 272 181 100 175 177 102 44 96
8 273 182 101 176 179 104 46 98
8 177 102 44 96 273 182 101 176
8 179 104 46 98 275 184 103 178
8 275 184 103 178 238 157 83 147
8 188 115 51 105 283 197 113 186
8 188 115 198 284 105 51 114 187
8 284 198 116 189 187 114 52 106
8 286 200 120 193 189 116 55 109
8 191 118 202 288 107 53 117 190
8 195 121 203 289 111 56 118 191
8 193 120 204 290 109 55 119 192
8 290 204 122 194 192 119 57 110
8 196 123 58 112 292 207 122 194
8 293 206 121 195 196 123 58 112
8 199 126 61 115 297 211 124 197
8 298 212 127 200 198 125 62 116
8 199 126 212 298 115 61 125 198
8 205 129 64 120 300 214 127 200
8 301 217 130 201 202 132 66 117
8 209 136 168 264 301 217 130 201
8 302 219 132 202 203 133 67 118
8 303 220 133 203 206 134 68 121
8 205 129 215 304 120 64 128 204
8 304 215 131 207 204 128 65 122
8 306 221 134 206 208 135 69 123
8 208 135 69 123 307 218 131 207
8 210 137 167 263 309 223 136 209
8 328 238 147 226 230 149 76 140
8 228 146 91 166 329 236 165 260
8 231 150 77 141 330 235 145 227
8 330 235 145 227 228 146 91 166
8 332 239 148 229 233 151 78 143
8 230 149 76 140 332 239 148 229
8 232 152 79 142 334 241 150 231
8 234 153 80 144 335 243 152 232
8 336 242 151 233 234 153 80 144
8 236 155 90 165 338 245 164 259
8 241 160 86 150 339 246 154 235
8 339 246 154 235 237 156 82 146
8 237 156 82 146 340 247 155 236
8 342 249 157 238 240 159 85 149
8 343 250 158 239 242 161 87 151
8 240 159 85 149 343 250 158 239
8 243 162 88 152 345 252 160 241
8 244 163 253 346 153 89 161 242
8 244 163 89 153 347 254 162 243
8 311 224 261 371 210 137 167 263
8 263 167 262 372 209 136 168 264
8 267 179 98 171 375 275 178 265
8 375 275 178 265 328 238 147 226
8 376 273 176 266 267 179 98 171
8 268 177 96 172 376 273 176 266
8 379 272 175 269 268 177 96 172
8 380 271 174 270 269 175 94 173
8 283 197 113 186 380 271 174 270
8 381 277 180 271 272 181 100 175
8 297 211 124 197 381 277 180 271
8 382 278 181 272 274 183 102 177
8 274 183 102 177 383 279 182 273
8 383 279 182 273 276 185 104 179
8 385 281 184 275 342 249 157 238
8 276 185 104 179 385 281 184 275
8 285 199 115 188 393 297 197 283
8 394 298 200 286 284 198 116 189
8 285 199 298 394 188 115 198 284
8 291 205 120 193 396 300 200 286
8 397 301 201 287 288 202 117 190
8 295 209 264 374 397 301 201 287
8 398 302 202 288 289 203 118 191
8 399 303 203 289 293 206 121 195
8 291 205 304 400 193 120 204 290
8 400 304 207 292 290 204 122 194
8 294 208 123 196 402 307 207 292
8 403 306 206 293 294 208 123 196
8 296 210 263 373 405 309 209 295
8 408 312 213 299 297 211 126 199
8 299 213 313 409 199 126 212 298
8 409 313 214 300 298 212 127 200
8 305 216 129 205 411 315 214 300
8 412 318 217 301 302 219 132 202
8 309 223 136 209 412 318 217 301
8 413 320 219 302 303 220 133 203
8 306 221 321 414 206 134 220 303
8 307 218 131 207 415 316 215 304
8 305 216 316 415 205 129 215 304
8 417 322 221 306 308 222 135 208
8 308 222 135 208 418 319 218 307
8 310 225 137 210 420 325 223 309
8 423 326 224 311 310 225 137 210
8 329 236 165 260 441 338 259 368
8 442 342 238 328 333 240 149 230
8 331 237 146 228 443 340 236 329
8 334 241 150 231 444 339 235 330
8 444 339 235 330 331 237 146 228
8 446 343 239 332 336 242 151 233
8 333 240 149 230 446 343 239 332
8 335 243 152 232 448 345 241 334
8 337 244 153 234 449 347 243 335
8 337 244 346 450 234 153 242 336
8 338 245 164 259 452 349 258 367
8 340 247 155 236 453 350 245 338
8 345 252 160 241 454 351 246 339
8 454 351 246 339 341 248 156 237
8 341 248 156 237 455 352 247 340
8 240 159 251 344 342 249 354 457
8 242 161 253 346 343 250 355 458
8 343 250 355 458 240 159 251 344
8 347 254 162 243 460 357 252 345
8 348 255 358 461 244 163 253 346
8 348 255 163 244 462 359 254 347
8 473 360 257 365 363 256 364 482
8 452 349 258 367 365 257 366 485
8 422 324 369 488 311 224 261 371
8 371 261 370 490 263 167 262 372
8 407 311 371 491 296 210 263 373
8 373 263 372 492 295 209 264 374
8 493 385 275 375 442 342 238 328
8 377 276 179 267 493 385 275 375
8 378 274 177 268 494 383 273 376
8 494 383 273 376 377 276 179 267
8 497 382 272 379 378 274 177 268
8 498 381 271 380 379 272 175 269
8 393 297 197 283 498 381 271 380
8 499 387 277 381 382 278 181 272
8 408 312 211 297 499 387 277 381
8 500 388 278 382 384 280 183 274
8 501 389 279 383 386 282 185 276
8 384 280 183 274 501 389 279 383
8 386 282 185 276 503 391 281 385
8 503 391 281 385 457 354 249 342
8 511 408 299 395 393 297 199 285
8 395 299 409 512 285 199 298 394
8 512 409 300 396 394 298 200 286
8 401 305 205 291 514 411 300 396
8 515 412 301 397 398 302 202 288
8 405 309 209 295 515 412 301 397
8 516 413 302 398 399 303 203 289
8 403 306 414 517 293 206 303 399
8 402 307 207 292 518 415 304 400
8 401 305 415 518 291 205 304 400
8 404 308 208 294 520 418 307 402
8 521 417 306 403 404 308 208 294
8 406 310 210 296 523 420 309 405
8 526 423 311 407 406 310 210 296
8 410 314 213 299 527 424 312 408
8 528 425 315 411 409 313 214 300
8 410 314 425 528 299 213 313 409
8 416 317 216 305 530 427 315 411
8 531 430 318 412 413 320 219 302
8 420 325 223 309 531 430 318 412
8 532 432 320 413 414 321 220 303
8 417 322 433 533 306 221 321 414
8 418 319 218 307 534 428 316 415
8 416 317 428 534 305 216 316 415
8 419 323 434 536 308 222 322 417
8 419 323 222 308 537 431 319 418
8 421 327 225 310 539 438 325 420
8 421 327 439 541 310 225 326 423
8 543 437 324 422 423 326 224 311
8 441 338 259 368 559 452 367 486
8 443 340 236 329 560 453 338 441
8 333 240 344 447 442 342 457 561
8 445 341 237 331 562 455 340 443
8 448 345 241 334 563 454 339 444
8 563 454 339 444 445 341 237 331
8 336 242 346 450 446 343 458 565
8 446 343 458 565 333 240 344 447
8 449 347 243 335 567 460 345 448
8 451 348 244 337 568 462 347 449
8 451 348 461 569 337 244 346 450
8 570 463 349 452 473 360 257 365
8 453 350 245 338 570 463 349 452
8 455 352 247 340 571 464 350 453
8 460 357 252 345 572 465 351 454
8 572 465 351 454 456 353 248 341
8 456 353 248 341 573 466 352 455
8 344 251 356 459 457 354 468 575
8 458 355 469 576 344 251 356 459
8 346 253 358 461 458 355 469 576
8 462 359 254 347 578 471 357 460
8 348 255 359 462 461 358 472 579
8 591 474 360 473 475 361 256 363
8 475 361 256 363 594 477 362 479
8 363 256 364 482 479 362 480 603
8 590 473 365 484 481 363 482 605
8 482 364 257 365 606 483 366 485
8 559 452 367 486 484 365 485 607
8 542 436 487 609 422 324 369 488
8 525 422 488 611 407 311 371 491
8 488 369 489 612 371 261 370 490
8 491 371 490 613 373 263 372 492
8 495 386 276 377 614 503 385 493
8 614 503 385 493 561 457 342 442
8 615 501 383 494 495 386 276 377
8 496 384 274 378 615 501 383 494
8 618 500 382 497 496 384 274 378
8 619 499 381 498 497 382 272 379
8 511 408 297 393 619 499 381 498
8 620 505 387 499 500 388 278 382
8 527 424 312 408 620 505 387 499
8 502 390 506 621 384 280 388 500
8 622 507 389 501 504 392 282 386
8 502 390 280 384 622 507 389 501
8 504 392 282 386 624 509 391 503
8 624 509 391 503 575 468 354 457
8 513 410 299 395 630 527 408 511
8 631 528 411 514 512 409 300 396
8 513 410 528 631 395 299 409 512
8 519 416 305 401 633 530 411 514
8 634 531 412 515 516 413 302 398
8 523 420 309 405 634 531 412 515
8 635 532 413 516 517 414 303 399
8 521 417 533 636 403 306 414 517
8 520 418 307 402 637 534 415 518
8 519 416 534 637 401 305 415 518
8 522 419 308 404 639 537 418 520
8 522 419 536 640 404 308 417 521
8 524 421 310 406 642 539 420 523
8 524 421 541 644 406 310 423 526
8 646 543 422 525 526 423 311 407
8 529 426 314 410 647 544 424 527
8 528 425 545 648 411 315 427 530
8 529 426 545 648 410 314 425 528
8 535 429 317 416 649 546 427 530
8 650 548 430 531 532 432 320 413
8 539 438 325 420 650 548 430 531
8 533 433 550 651 414 321 432 532
8 536 434 551 652 417 322 433 533
8 537 431 319 418 653 547 428 534
8 535 429 547 653 416 317 428 534
8 538 435 552 654 419 323 434 536
8 538 435 323 419 655 549 431 537
8 540 440 327 421 657 556 438 539
8 540 440 557 659 421 327 439 541
8 541 439 555 660 423 326 437 543
8 661 554 436 542 543 437 324 422
8 676 570 452 559 590 473 365 484
8 560 453 338 441 676 570 452 559
8 562 455 340 443 677 571 453 560
8 447 344 459 566 561 457 575 678
8 564 456 341 445 679 573 455 562
8 567 460 345 448 680 572 454 563
8 680 572 454 563 564 456 341 445
8 565 458 576 682 447 344 459 566
8 450 346 461 569 565 458 576 682
8 568 462 347 449 684 578 460 567
8 451 348 462 568 569 461 579 685
8 686 580 463 570 591 474 360 473
8 571 464 350 453 686 580 463 570
8 573 466 352 455 687 581 464 571
8 572 465 582 688 460 357 471 578
8 574 467 582 688 456 353 465 572
8 574 467 353 456 689 583 466 573
8 459 356 470 577 575 468 585 691
8 576 469 586 692 459 356 470 577
8 461 358 472 579 576 469 586 692
8 462 359 471 578 579 472 588 694
8 704 591 473 590 593 475 363 481
8 595 476 592 705 475 361 474 591
8 593 475 363 481 707 594 479 602
8 594 477 362 479 709 598 478 600
8 595 476 361 475 711 597 477 594
8 479 362 480 603 600 478 601 720
8 481 363 482 605 602 479 603 722
8 603 480 364 482 723 604 483 606
8 605 482 365 484 724 606 485 607
8 656 553 608 726 542 436 487 609
8 645 542 609 728 525 422 488 611
8 609 487 610 729 488 369 489 612
8 611 488 612 730 491 371 490 613
8 616 504 386 495 731 624 503 614
8 731 624 503 614 678 575 457 561
8 732 622 501 615 616 504 386 495
8 617 502 384 496 732 622 501 615
8 617 502 621 735 496 384 500 618
8 736 620 499 619 618 500 382 497
8 630 527 408 511 736 620 499 619
8 621 506 626 737 500 388 505 620
8 647 544 424 527 737 626 505 620
8 623 508 627 738 502 390 506 621
8 623 508 390 502 739 628 507 622
8 625 510 628 739 504 392 507 622
8 740 629 509 624 691 585 468 575
8 625 510 392 504 740 629 509 624
8 632 529 410 513 744 647 527 630
8 631 528 648 745 514 411 530 633
8 632 529 648 745 513 410 528 631
8 638 535 416 519 746 649 530 633
8 747 650 531 634 635 532 413 516
8 642 539 420 523 747 650 531 634
8 636 533 651 748 517 414 532 635
8 640 536 652 749 521 417 533 636
8 639 537 418 520 750 653 534 637
8 638 535 653 750 519 416 534 637
8 641 538 419 522 751 655 537 639
8 641 538 654 752 522 419 536 640
8 643 540 421 524 753 657 539 642
8 643 540 659 755 524 421 541 644
8 644 541 660 757 526 423 543 646
8 758 661 542 645 646 543 422 525
8 529 426 544 647 648 545 662 759
8 530 427 545 648 649 546 663 760
8 535 429 546 649 653 547 664 761
8 762 666 548 650 651 550 432 532
8 657 556 438 539 762 666 548 650
8 652 551 668 763 533 433 550 651
8 654 552 669 764 536 434 551 652
8 655 549 431 537 765 665 547 653
8 538 435 549 655 654 552 667 766
8 661 554 671 768 542 436 553 656
8 658 558 440 540 769 674 556 657
8 658 558 675 770 540 440 557 659
8 659 557 673 771 541 439 555 660
8 660 555 672 772 543 437 554 661
8 788 686 570 676 704 591 473 590
8 677 571 453 560 788 686 570 676
8 679 573 455 562 789 687 571 677
8 566 459 577 683 678 575 691 790
8 681 574 456 564 791 689 573 679
8 680 572 688 792 567 460 578 684
8 681 574 688 792 564 456 572 680
8 682 576 692 794 566 459 577 683
8 569 461 579 685 682 576 692 794
8 568 462 578 684 685 579 694 796
8 687 581 464 571 798 696 580 686
8 798 696 580 686 705 592 474 591
8 689 583 466 573 799 697 581 687
8 688 582 698 800 578 471 588 694
8 690 584 698 800 574 467 582 688
8 690 584 467 574 801 699 583 689
8 693 587 701 803 577 470 585 691
8 693 587 470 577 804 702 586 692
8 695 589 702 804 579 472 586 692
8 695 589 472 579 805 703 588 694
8 708 595 705 813 593 475 591 704
8 710 596 706 814 595 476 592 705
8 707 594 479 602 816 709 600 719
8 708 595 475 593 817 711 594 707
8 709 598 478 600 819 715 599 717
8 711 597 477 594 820 714 598 709
8 710 596 476 595 822 713 597 711
8 600 478 601 720 717 599 718 832
8 602 479 603 722 719 600 720 834
8 720 601 480 603 835 721 604 723
8 722 603 482 605 836 723 606 724
8 767 670 725 839 656 553 608 726
8 756 656 726 841 645 542 609 728
8 726 608 727 842 609 487 610 729
8 728 609 729 843 611 488 612 730
8 844 740 624 731 790 691 575 678
8 733 625 504 616 844 740 624 731
8 734 623 502 617 845 739 622 732
8 733 625 739 845 616 504 622 732
8 734 623 738 846 617 502 621 735
8 735 621 737 847 618 500 620 736
8 744 647 527 630 847 737 620 736
8 621 506 627 738 737 626 741 848
8 647 544 626 737 759 662 741 848
8 623 508 628 739 738 627 742 849
8 740 629 585 691 850 743 700 802
8 625 510 629 740 739 628 743 850
8 632 529 647 744 745 648 759 854
8 633 530 648 745 746 649 760 855
8 638 535 649 746 750 653 761 856
8 857 762 650 747 748 651 532 635
8 753 657 539 642 857 762 650 747
8 749 652 763 858 636 533 651 748
8 752 654 764 859 640 536 652 749
8 751 655 537 639 860 765 653 750
8 641 538 655 751 752 654 766 861
8 754 658 540 643 862 769 657 753
8 754 658 770 863 643 540 659 755
8 755 659 771 864 644 541 660 757
8 758 661 768 866 645 542 656 756
8 757 660 772 867 646 543 661 758
8 759 662 773 868 648 545 663 760
8 649 546 663 760 761 664 774 871
8 765 665 547 653 872 775 664 761
8 873 777 666 762 763 668 550 651
8 769 674 556 657 873 777 666 762
8 764 669 779 874 652 551 668 763
8 654 552 667 766 764 669 778 875
8 655 549 665 765 766 667 776 876
8 768 671 782 877 656 553 670 767
8 772 672 783 878 661 554 671 768
8 658 558 674 769 770 675 786 879
8 659 557 675 770 771 673 785 881
8 882 784 672 772 771 673 555 660
8 789 687 571 677 897 798 686 788
8 897 798 686 788 813 705 591 704
8 791 689 573 679 898 799 687 789
8 795 693 803 900 683 577 691 790
8 793 690 574 681 901 801 689 791
8 792 688 800 902 684 578 694 796
8 793 690 800 902 681 574 688 792
8 795 693 577 683 903 804 692 794
8 797 695 804 903 685 579 692 794
8 797 695 579 685 904 805 694 796
8 905 806 697 799 798 696 581 687
8 814 706 806 905 705 592 696 798
8 689 583 697 799 801 699 808 907
8 800 698 809 908 694 588 703 805
8 690 584 699 801 800 698 809 908
8 803 701 810 909 691 585 700 802
8 693 587 702 804 803 701 811 910
8 695 589 703 805 804 702 812 911
8 818 710 814 919 708 595 705 813
8 821 712 815 920 710 596 706 814
8 816 709 600 719 922 819 717 831
8 817 711 594 707 923 820 709 816
8 818 710 595 708 924 822 711 817
8 819 715 599 717 926 827 716 829
8 820 714 598 709 927 826 715 819
8 929 825 713 822 820 714 597 711
8 821 712 596 710 930 824 713 822
8 717 599 718 832 829 716 830 942
8 719 600 720 834 831 717 832 944
8 832 718 601 720 945 833 721 835
8 834 720 603 722 946 835 723 836
8 869 780 838 950 767 670 725 839
8 865 767 839 952 756 656 726 841
8 839 725 840 953 726 608 727 842
8 841 726 842 954 728 609 729 843
8 844 740 691 790 955 850 802 899
8 733 625 740 844 845 739 850 955
8 734 623 739 845 846 738 849 956
8 735 621 738 846 847 737 848 957
8 744 647 737 847 854 759 848 957
8 738 627 742 849 848 741 851 958
8 848 741 851 958 759 662 773 868
8 850 743 700 802 959 852 807 906
8 849 742 628 739 959 852 743 850
8 854 759 868 965 745 648 760 855
8 746 649 760 855 856 761 871 966
8 860 765 653 750 967 872 761 856
8 968 873 762 857 858 763 651 748
8 862 769 657 753 968 873 762 857
8 859 764 874 969 749 652 763 858
8 752 654 766 861 859 764 875 970
8 751 655 765 860 861 766 876 971
8 754 658 769 862 863 770 879 972
8 755 659 770 863 864 771 881 974
8 976 882 772 867 864 771 660 757
8 866 768 877 977 756 656 767 865
8 867 772 878 978 758 661 768 866
8 760 663 773 868 871 774 883 980
8 870 781 837 948 982 890 780 869
8 982 890 780 869 877 782 670 767
8 761 664 774 871 872 775 884 984
8 876 776 665 765 985 885 775 872
8 873 777 668 763 986 887 779 874
8 769 674 777 873 879 786 887 986
8 764 669 778 875 874 779 888 987
8 766 667 776 876 875 778 886 988
8 878 783 892 989 768 671 782 877
8 878 783 672 772 990 893 784 882
8 880 787 675 770 991 896 786 879
8 880 787 895 992 770 675 785 881
8 881 785 894 993 771 673 784 882
8 1006 905 799 898 897 798 687 789
8 919 814 905 1006 813 705 798 897
8 791 689 799 898 901 801 907 1007
8 900 803 909 1009 790 691 802 899
8 795 693 804 903 900 803 910 1010
8 902 800 908 1011 796 694 805 904
8 793 690 801 901 902 800 908 1011
8 797 695 805 904 903 804 911 1012
8 799 697 806 905 907 808 912 1013
8 920 815 912 1013 814 706 806 905
8 802 700 810 909 906 807 913 1014
8 801 699 808 907 908 809 914 1015
8 805 703 809 908 911 812 915 1016
8 803 701 811 910 909 810 916 1017
8 911 812 917 1018 804 702 811 910
8 925 821 920 1030 818 710 814 919
8 928 823 921 1031 821 712 815 920
8 922 819 717 831 1033 926 829 941
8 923 820 709 816 1034 927 819 922
8 1035 929 822 924 923 820 711 817
8 925 821 710 818 1036 930 822 924
8 1038 933 825 929 927 826 714 820
8 926 827 716 829 1039 935 828 939
8 927 826 715 819 1040 934 827 926
8 928 823 712 821 1041 931 824 930
8 1042 932 824 930 929 825 713 822
8 829 716 830 942 939 828 940 1058
8 831 717 832 944 941 829 942 1060
8 942 830 718 832 1061 943 833 945
8 944 832 720 834 1062 945 835 946
8 981 889 947 1064 870 781 837 948
8 948 837 949 1067 869 780 838 950
8 975 869 950 1069 865 767 839 952
8 950 838 951 1070 839 725 840 953
8 952 839 953 1071 841 726 842 954
8 955 850 802 899 1072 959 906 1008
8 956 849 739 845 1072 959 850 955
8 846 738 849 956 957 848 958 1073
8 957 848 958 1073 854 759 868 965
8 849 742 852 959 958 851 961 1076
8 960 853 961 1076 906 807 852 959
8 958 851 961 1076 868 773 883 980
8 960 853 807 906 1077 963 913 1014
8 855 760 868 965 966 871 980 1085
8 856 761 871 966 967 872 984 1086
8 971 876 765 860 1087 985 872 967
8 968 873 763 858 1088 986 874 969
8 862 769 873 968 972 879 986 1088
8 859 764 875 970 969 874 987 1089
8 861 766 876 971 970 875 988 1090
8 973 880 770 863 1091 991 879 972
8 973 880 992 1092 863 770 881 974
8 974 881 993 1093 864 771 882 976
8 979 870 948 1066 1094 982 869 975
8 1094 982 869 975 977 877 767 865
8 978 878 772 867 1095 990 882 976
8 978 878 989 1096 866 768 877 977
8 871 774 883 980 984 884 994 1099
8 983 891 999 1100 870 781 889 981
8 1101 1000 890 982 989 892 782 877
8 983 891 781 870 1101 1000 890 982
8 872 775 884 984 985 885 995 1103
8 876 776 885 985 988 886 996 1104
8 986 887 779 874 1105 998 888 987
8 879 786 887 986 991 896 998 1105
8 875 778 886 988 987 888 997 1106
8 990 893 1002 1107 878 783 892 989
8 1108 1003 893 990 993 894 784 882
8 880 787 896 991 992 895 1005 1109
8 993 894 785 881 1110 1004 895 992
8 898 799 905 1006 1007 907 1013 1120
8 1030 920 1013 1120 919 814 905 1006
8 901 801 907 1007 1011 908 1015 1121
8 899 802 909 1009 1008 906 1014 1122
8 900 803 910 1010 1009 909 1017 1123
8 1012 911 1018 1124 903 804 910 1010
8 904 805 908 1011 1012 911 1016 1125
8 1013 912 1020 1127 907 808 914 1015
8 1031 921 1020 1127 920 815 912 1013
8 1019 918 962 1075 1128 1021 913 1014
8 1128 1021 913 1014 1017 916 810 909
8 1015 914 1022 1129 908 809 915 1016
8 1016 915 1023 1130 911 812 917 1018
8 1018 917 1024 1131 910 811 916 1017
8 1037 928 1031 1148 925 821 920 1030
8 928 823 931 1041 1031 921 1032 1149
8 1033 926 829 941 1151 1039 939 1057
8 1034 927 819 922 1152 1040 926 1033
8 1153 1038 929 1035 1034 927 820 923
8 1154 1042 930 1036 1035 929 822 924
8 1037 928 821 925 1155 1041 930 1036
8 1039 935 828 939 1156 1047 938 1055
8 1157 1043 932 1042 1038 933 825 929
8 1038 933 826 927 1158 1045 934 1040
8 1040 934 827 926 1159 1046 935 1039
8 930 824 932 1042 1041 931 1044 1160
8 1051 936 1048 1165 1175 1052 937 1053
8 1156 1047 938 1055 1053 937 1054 1178
8 939 828 940 1058 1055 938 1056 1181
8 941 829 942 1060 1057 939 1058 1183
8 942 830 943 1061 1058 940 1059 1184
8 1060 942 832 944 1185 1061 945 1062
8 1082 964 1063 1188 981 889 947 1064
8 1097 981 1064 1190 979 870 948 1066
8 1064 947 1065 1191 948 837 949 1067
8 1066 948 1067 1193 975 869 950 1069
8 1067 949 1068 1194 950 838 951 1070
8 1069 950 1070 1195 952 839 953 1071
8 956 849 959 1072 1073 958 1076 1197
8 1074 960 1076 1197 1008 906 959 1072
8 1073 958 1076 1197 965 868 980 1085
8 1074 960 906 1008 1198 1077 1014 1122
8 1133 1026 1079 1199 1019 918 962 1075
8 1077 963 913 1014 1200 1080 962 1075
8 960 853 963 1077 1076 961 1078 1201
8 980 883 961 1076 1099 994 1078 1201
8 1210 1083 964 1082 1100 999 889 981
8 966 871 980 1085 1086 984 1099 1215
8 967 872 984 1086 1087 985 1103 1216
8 971 876 985 1087 1090 988 1104 1217
8 1088 986 874 969 1218 1105 987 1089
8 972 879 986 1088 1091 991 1105 1218
8 970 875 988 1090 1089 987 1106 1219
8 973 880 991 1091 1092 992 1109 1220
8 1093 993 881 974 1221 1110 992 1092
8 1222 1108 990 1095 1093 993 882 976
8 1223 1101 982 1094 1096 989 877 977
8 1098 983 870 979 1223 1101 982 1094
8 1095 990 1107 1224 978 878 989 1096
8 1098 983 1100 1225 979 870 981 1097
8 984 884 994 1099 1103 995 1111 1227
8 1102 1001 1115 1228 983 891 999 1100
8 1101 1000 892 989 1229 1116 1002 1107
8 1102 1001 891 983 1229 1116 1000 1101
8 985 885 995 1103 1104 996 1112 1230
8 988 886 996 1104 1106 997 1113 1231
8 1105 998 888 987 1232 1114 997 1106
8 991 896 998 1105 1109 1005 1114 1232
8 1108 1003 1117 1233 990 893 1002 1107
8 1108 1003 894 993 1233 1117 1004 1110
8 992 895 1005 1109 1110 1004 1118 1234
8 1120 1013 1127 1244 1007 907 1015 1121
8 1148 1031 1127 1244 1030 920 1013 1120
8 1121 1015 1129 1245 1011 908 1016 1125
8 1126 1019 1075 1196 1246 1128 1014 1122
8 1246 1128 1014 1122 1123 1017 909 1009
8 1124 1018 1131 1247 1010 910 1017 1123
8 1125 1016 1130 1248 1012 911 1018 1124
8 1127 1020 1137 1254 1015 914 1022 1129
8 1031 921 1032 1149 1127 1020 1137 1254
8 1134 1027 918 1019 1257 1140 1021 1128
8 1257 1140 1021 1128 1131 1024 916 1017
8 1129 1022 1141 1258 1016 915 1023 1130
8 1130 1023 1142 1259 1018 917 1024 1131
8 1261 1144 1025 1132 1133 1026 1079 1199
8 1255 1138 1025 1132 1135 1028 1144 1261
8 1133 1026 918 1019 1262 1145 1027 1134
8 1136 1029 1139 1256 1263 1146 1028 1135
8 1037 928 1041 1155 1148 1031 1149 1275
8 1041 931 1044 1160 1149 1032 1150 1276
8 1151 1039 939 1057 1278 1156 1055 1180
8 1152 1040 926 1033 1279 1159 1039 1151
8 1153 1038 927 1034 1280 1158 1040 1152
8 1281 1157 1042 1154 1153 1038 929 1035
8 1036 930 1042 1154 1155 1041 1160 1282
8 1283 1164 1046 1159 1156 1047 935 1039
8 1165 1048 1164 1283 1053 937 1047 1156
8 1157 1043 933 1038 1284 1161 1045 1158
8 1157 1043 1161 1284 1042 932 1044 1160
8 1040 934 1046 1159 1158 1045 1163 1285
8 1166 1049 1167 1292 1051 936 1048 1165
8 1166 1049 936 1051 1293 1168 1050 1172
8 1051 936 1052 1175 1172 1050 1173 1306
8 1174 1051 1165 1290 1308 1175 1053 1177
8 1053 937 1054 1178 1175 1052 1176 1309
8 1278 1156 1055 1180 1177 1053 1178 1311
8 1055 938 1056 1181 1178 1054 1179 1312
8 1057 939 1058 1183 1180 1055 1181 1314
8 1058 940 1059 1184 1181 1056 1182 1315
8 1060 942 1061 1185 1183 1058 1184 1316
8 1208 1081 1187 1321 1082 964 1063 1188
8 1209 1082 1188 1322 1097 981 1064 1190
8 1188 1063 1189 1323 1064 947 1065 1191
8 1190 1064 1191 1325 1066 948 1067 1193
8 1191 1065 1192 1326 1067 949 1068 1194
8 1067 1193 1069 950 1194 1327 1195 1070
8 1250 1133 1199 1330 1126 1019 1075 1196
8 1198 1077 1014 1122 1331 1200 1075 1196
8 1074 960 1077 1198 1197 1076 1201 1332
8 1085 980 1076 1197 1215 1099 1201 1332
8 1199 1079 1203 1333 1075 962 1080 1200
8 1132 1025 1119 1243 1199 1079 1203 1333
8 1201 1078 963 1077 1334 1202 1080 1200
8 1099 994 1078 1201 1227 1111 1202 1334
8 1343 1207 1081 1208 1210 1083 964 1082
8 1214 1084 1186 1319 1343 1207 1081 1208
8 1345 1210 1082 1209 1225 1100 981 1097
8 1346 1211 1083 1210 1228 1115 999 1100
8 1086 984 1099 1215 1216 1103 1227 1352
8 1087 985 1103 1216 1217 1104 1230 1353
8 1090 988 1104 1217 1219 1106 1231 1354
8 1218 1105 987 1089 1355 1232 1106 1219
8 1091 991 1105 1218 1220 1109 1232 1355
8 1092 992 1109 1220 1221 1110 1234 1356
8 1222 1108 1233 1357 1095 990 1107 1224
8 1222 1108 993 1093 1357 1233 1110 1221
8 1223 1101 989 1096 1358 1229 1107 1224
8 1226 1102 983 1098 1358 1229 1101 1223
8 1226 1102 1228 1359 1098 983 1100 1225
8 1103 995 1111 1227 1230 1112 1235 1360
8 1107 1002 1117 1233 1229 1116 1240 1362
8 1102 1001 1116 1229 1228 1115 1240 1362
8 1104 996 1112 1230 1231 1113 1236 1363
8 1364 1237 1114 1232 1231 1113 997 1106
8 1109 1005 1114 1232 1234 1118 1238 1365
8 1110 1004 1118 1234 1233 1117 1241 1366
8 1242 1374 1255 1138 1119 1243 1132 1025
8 1244 1127 1254 1376 1121 1015 1129 1245
8 1148 1031 1149 1275 1244 1127 1254 1376
8 1245 1129 1258 1377 1125 1016 1130 1248
8 1251 1134 1019 1126 1378 1257 1128 1246
8 1378 1257 1128 1246 1247 1131 1017 1123
8 1248 1130 1259 1379 1124 1018 1131 1247
8 1261 1381 1250 1133 1132 1249 1330 1199
8 1255 1380 1252 1135 1132 1249 1381 1261
8 1250 1133 1019 1126 1382 1262 1134 1251
8 1253 1136 1256 1385 1384 1263 1135 1252
8 1254 1137 1265 1387 1129 1022 1141 1258
8 1149 1032 1150 1276 1254 1137 1265 1387
8 1028 1135 1255 1138 1139 1256 1388 1266
8 1136 1029 1147 1264 1256 1139 1267 1389
8 1390 1268 1140 1257 1259 1142 1024 1131
8 1260 1143 1027 1134 1390 1268 1140 1257
8 1258 1141 1269 1391 1130 1023 1142 1259
8 1262 1145 1027 1134 1393 1271 1143 1260
8 1261 1144 1026 1133 1394 1272 1145 1262
8 1135 1028 1144 1261 1263 1146 1272 1394
8 1136 1029 1146 1263 1264 1147 1273 1395
8 1155 1041 1160 1282 1275 1149 1276 1405
8 1276 1150 1044 1160 1406 1277 1162 1286
8 1408 1283 1159 1279 1278 1156 1039 1151
8 1290 1165 1283 1408 1177 1053 1156 1278
8 1152 1040 1159 1279 1280 1158 1285 1409
8 1281 1157 1038 1153 1410 1284 1158 1280
8 1281 1157 1284 1410 1154 1042 1160 1282
8 1159 1046 1164 1283 1285 1163 1289 1412
8 1292 1167 1289 1412 1165 1048 1164 1283
8 1158 1045 1163 1285 1284 1161 1288 1413
8 1284 1161 1288 1413 1160 1044 1162 1286
8 1291 1166 1292 1418 1174 1051 1165 1290
8 1291 1166 1051 1174 1419 1293 1172 1305
8 1294 1169 1296 1421 1166 1049 1167 1292
8 1293 1168 1050 1172 1422 1295 1171 1303
8 1294 1169 1049 1166 1423 1297 1168 1293
8 1422 1295 1171 1303 1301 1170 1302 1435
8 1172 1050 1173 1306 1303 1171 1304 1438
8 1174 1051 1175 1308 1305 1172 1306 1440
8 1175 1052 1176 1309 1306 1173 1307 1441
8 1177 1053 1178 1311 1308 1175 1309 1443
8 1178 1054 1179 1312 1309 1176 1310 1444
8 1180 1055 1181 1314 1311 1178 1312 1446
8 1056 1181 1312 1179 1182 1315 1447 1313
8 1183 1058 1184 1316 1314 1181 1315 1448
8 1319 1186 1084 1214 1451 1317 1213 1350
8 1319 1186 1318 1453 1208 1081 1187 1321
8 1321 1187 1320 1456 1188 1063 1189 1323
8 1344 1208 1321 1457 1209 1082 1188 1322
8 1322 1188 1323 1458 1190 1064 1191 1325
8 1323 1189 1324 1459 1191 1065 1192 1326
8 1191 1325 1193 1067 1326 1460 1327 1194
8 1242 1374 1243 1119 1328 1462 1335 1204
8 1330 1199 1333 1465 1196 1075 1200 1331
8 1132 1249 1330 1199 1243 1375 1465 1333
8 1332 1201 1077 1198 1466 1334 1200 1331
8 1215 1099 1201 1332 1352 1227 1334 1466
8 1119 1243 1333 1203 1204 1335 1470 1338
8 1333 1203 1338 1470 1200 1080 1202 1334
8 1227 1111 1202 1334 1360 1235 1338 1470
8 1328 1462 1335 1204 1205 1336 1471 1339
8 1337 1206 1340 1472 1464 1329 1205 1336
8 1346 1211 1342 1479 1210 1083 1207 1343
8 1346 1211 1115 1228 1479 1342 1239 1361
8 1348 1212 1084 1214 1479 1342 1207 1343
8 1480 1343 1208 1344 1345 1210 1082 1209
8 1351 1214 1319 1454 1480 1343 1208 1344
8 1481 1346 1210 1345 1359 1228 1100 1225
8 1348 1212 1347 1483 1214 1084 1213 1350
8 1216 1103 1227 1352 1353 1230 1360 1488
8 1217 1104 1230 1353 1354 1231 1363 1489
8 1490 1364 1232 1355 1354 1231 1106 1219
8 1220 1109 1232 1355 1356 1234 1365 1491
8 1221 1110 1234 1356 1357 1233 1366 1492
8 1224 1107 1233 1357 1358 1229 1362 1493
8 1226 1102 1229 1358 1359 1228 1362 1493
8 1230 1112 1235 1360 1363 1236 1367 1496
8 1361 1239 1115 1228 1497 1371 1240 1362
8 1366 1241 1372 1498 1233 1117 1240 1362
8 1364 1237 1113 1231 1499 1368 1236 1363
8 1364 1237 1368 1499 1232 1114 1238 1365
8 1234 1118 1238 1365 1366 1241 1369 1500
8 1507 1373 1242 1374 1388 1266 1138 1255
8 1508 1374 1243 1375 1380 1255 1132 1249
8 1376 1254 1387 1509 1245 1129 1258 1377
8 1275 1149 1276 1405 1376 1254 1387 1509
8 1377 1258 1391 1510 1248 1130 1259 1379
8 1511 1390 1257 1378 1379 1259 1131 1247
8 1383 1260 1134 1251 1511 1390 1257 1378
8 1252 1135 1256 1385 1380 1255 1388 1512
8 1261 1381 1513 1394 1133 1250 1382 1262
8 1135 1252 1384 1263 1261 1381 1513 1394
8 1382 1262 1134 1251 1514 1393 1260 1383
8 1253 1136 1263 1384 1386 1264 1395 1516
8 1253 1136 1264 1386 1385 1256 1389 1517
8 1387 1265 1397 1519 1258 1141 1269 1391
8 1276 1150 1277 1406 1387 1265 1397 1519
8 1256 1139 1267 1389 1388 1266 1398 1520
8 1264 1147 1274 1396 1389 1267 1399 1521
8 1392 1270 1143 1260 1522 1400 1268 1390
8 1390 1268 1142 1259 1522 1400 1269 1391
8 1392 1270 1401 1523 1260 1143 1271 1393
8 1272 1394 1524 1402 1145 1262 1393 1271
8 1395 1273 1146 1263 1524 1402 1272 1394
8 1273 1395 1264 1147 1403 1526 1396 1274
8 1405 1276 1160 1282 1534 1406 1286 1411
8 1414 1287 1407 1535 1286 1162 1277 1406
8 1279 1159 1283 1408 1409 1285 1412 1537
8 1418 1292 1412 1537 1290 1165 1283 1408
8 1280 1158 1285 1409 1410 1284 1413 1538
8 1410 1284 1413 1538 1282 1160 1286 1411
8 1285 1163 1289 1412 1413 1288 1417 1540
8 1421 1296 1417 1540 1292 1167 1289 1412
8 1414 1287 1162 1286 1541 1416 1288 1413
8 1420 1294 1421 1545 1291 1166 1292 1418
8 1419 1293 1172 1305 1546 1422 1303 1437
8 1420 1294 1166 1291 1547 1423 1293 1419
8 1294 1169 1297 1423 1421 1296 1425 1548
8 1423 1297 1168 1293 1549 1424 1295 1422
8 1301 1170 1298 1427 1422 1295 1424 1549
8 1432 1300 1428 1554 1301 1170 1298 1427
8 1431 1299 1428 1554 1560 1430 1300 1432
8 1563 1433 1300 1432 1435 1302 1170 1301
8 1546 1422 1303 1437 1434 1301 1435 1565
8 1303 1171 1304 1438 1435 1302 1436 1566
8 1305 1172 1306 1440 1437 1303 1438 1568
8 1306 1173 1307 1441 1438 1304 1439 1569
8 1308 1175 1309 1443 1440 1306 1441 1571
8 1309 1176 1310 1444 1441 1307 1442 1572
8 1311 1178 1312 1446 1443 1309 1444 1574
8 1179 1312 1444 1310 1313 1447 1575 1445
8 1314 1181 1315 1448 1446 1312 1447 1576
8 1350 1213 1349 1486 1451 1317 1449 1579
8 1451 1317 1450 1581 1319 1186 1318 1453
8 1454 1319 1214 1351 1582 1451 1350 1487
8 1453 1318 1452 1584 1321 1187 1320 1456
8 1454 1319 1453 1585 1344 1208 1321 1457
8 1456 1320 1455 1586 1323 1189 1324 1459
8 1457 1321 1456 1587 1322 1188 1323 1458
8 1458 1323 1459 1588 1325 1191 1326 1460
8 1205 1336 1464 1329 1328 1462 1590 1461
8 1507 1373 1461 1590 1374 1242 1328 1462
8 1508 1374 1462 1591 1375 1243 1335 1467
8 1337 1206 1329 1464 1473 1341 1463 1594
8 1375 1243 1335 1467 1465 1333 1470 1596
8 1465 1333 1470 1596 1331 1200 1334 1466
8 1352 1227 1334 1466 1488 1360 1470 1596
8 1591 1462 1336 1468 1467 1335 1471 1597
8 1469 1337 1472 1598 1595 1464 1336 1468
8 1471 1339 1474 1600 1335 1204 1338 1470
8 1600 1474 1367 1496 1470 1338 1235 1360
8 1336 1205 1340 1472 1471 1339 1475 1601
8 1337 1206 1341 1473 1472 1340 1476 1602
8 1495 1370 1478 1609 1361 1239 1342 1479
8 1348 1212 1342 1479 1483 1347 1478 1609
8 1481 1346 1479 1610 1345 1210 1343 1480
8 1481 1346 1228 1359 1610 1479 1361 1494
8 1484 1348 1214 1351 1610 1479 1343 1480
8 1483 1347 1482 1612 1350 1213 1349 1486
8 1484 1348 1483 1613 1351 1214 1350 1487
8 1353 1230 1360 1488 1489 1363 1496 1616
8 1490 1364 1231 1354 1617 1499 1363 1489
8 1490 1364 1499 1617 1355 1232 1365 1491
8 1356 1234 1365 1491 1492 1366 1500 1619
8 1492 1366 1498 1620 1357 1233 1362 1493
8 1494 1361 1228 1359 1621 1497 1362 1493
8 1495 1370 1239 1361 1622 1504 1371 1497
8 1363 1236 1367 1496 1499 1368 1501 1623
8 1497 1371 1240 1362 1624 1505 1372 1498
8 1625 1503 1372 1498 1500 1369 1241 1366
8 1365 1238 1368 1499 1500 1369 1502 1626
8 1520 1398 1506 1633 1388 1266 1373 1507
8 1634 1507 1374 1508 1512 1388 1255 1380
8 1509 1387 1519 1635 1377 1258 1391 1510
8 1405 1276 1406 1534 1509 1387 1519 1635
8 1515 1392 1260 1383 1636 1522 1390 1511
8 1511 1390 1259 1379 1636 1522 1391 1510
8 1385 1256 1389 1517 1512 1388 1520 1637
8 1513 1394 1262 1382 1638 1524 1393 1514
8 1395 1516 1638 1524 1263 1384 1513 1394
8 1515 1392 1523 1639 1383 1260 1393 1514
8 1516 1395 1526 1640 1386 1264 1396 1518
8 1386 1264 1396 1518 1517 1389 1521 1641
8 1519 1397 1527 1643 1391 1269 1400 1522
8 1535 1407 1527 1643 1406 1277 1397 1519
8 1389 1267 1399 1521 1520 1398 1528 1644
8 1645 1529 1399 1521 1525 1404 1274 1396
8 1392 1270 1400 1522 1523 1401 1531 1646
8 1524 1402 1271 1393 1648 1532 1401 1523
8 1403 1526 1648 1532 1273 1395 1524 1402
8 1525 1404 1274 1396 1649 1533 1403 1526
8 1539 1414 1535 1657 1411 1286 1406 1534
8 1542 1415 1536 1658 1414 1287 1407 1535
8 1409 1285 1412 1537 1538 1413 1540 1660
8 1545 1421 1540 1660 1418 1292 1412 1537
8 1539 1414 1286 1411 1661 1541 1413 1538
8 1540 1417 1544 1663 1413 1288 1416 1541
8 1421 1296 1425 1548 1540 1417 1544 1663
8 1542 1415 1287 1414 1664 1543 1416 1541
8 1420 1294 1423 1547 1545 1421 1548 1666
8 1547 1423 1293 1419 1667 1549 1422 1546
8 1434 1301 1427 1553 1546 1422 1549 1667
8 1423 1297 1424 1549 1548 1425 1550 1668
8 1551 1426 1550 1668 1427 1298 1424 1549
8 1551 1426 1298 1427 1671 1552 1428 1554
8 1562 1432 1554 1674 1434 1301 1427 1553
8 1431 1299 1429 1558 1554 1428 1555 1675
8 1431 1299 1430 1560 1558 1429 1557 1680
8 1560 1430 1300 1432 1683 1559 1433 1563
8 1561 1431 1554 1674 1684 1560 1432 1562
8 1685 1563 1432 1562 1565 1435 1301 1434
8 1435 1302 1436 1566 1563 1433 1564 1686
8 1437 1303 1438 1568 1565 1435 1566 1688
8 1438 1304 1439 1569 1566 1436 1567 1689
8 1440 1306 1441 1571 1568 1438 1569 1691
8 1441 1307 1442 1572 1569 1439 1570 1692
8 1443 1309 1444 1574 1571 1441 1572 1694
8 1310 1444 1572 1442 1445 1575 1695 1573
8 1446 1312 1447 1576 1574 1444 1575 1696
8 1486 1349 1485 1614 1579 1449 1577 1699
8 1451 1317 1449 1579 1581 1450 1578 1701
8 1487 1350 1486 1615 1582 1451 1579 1702
8 1581 1450 1580 1704 1453 1318 1452 1584
8 1582 1451 1581 1705 1454 1319 1453 1585
8 1584 1452 1583 1706 1456 1320 1455 1586
8 1585 1453 1584 1707 1457 1321 1456 1587
8 1587 1456 1586 1708 1458 1323 1459 1588
8 1633 1506 1589 1710 1507 1373 1461 1590
8 1464 1329 1461 1590 1594 1463 1589 1710
8 1468 1336 1462 1591 1595 1464 1590 1711
8 1634 1507 1590 1711 1508 1374 1462 1591
8 1473 1341 1463 1594 1603 1477 1593 1716
8 1469 1337 1464 1595 1599 1473 1594 1717
8 1471 1597 1467 1335 1600 1718 1596 1470
8 1718 1600 1496 1616 1596 1470 1360 1488
8 1336 1468 1597 1471 1472 1598 1719 1601
8 1469 1337 1473 1599 1598 1472 1602 1720
8 1722 1604 1501 1623 1600 1474 1367 1496
8 1475 1601 1471 1339 1604 1722 1600 1474
8 1602 1476 1605 1723 1472 1340 1475 1601
8 1476 1602 1724 1606 1341 1473 1603 1477
8 1483 1347 1478 1609 1612 1482 1608 1731
8 1495 1370 1504 1622 1609 1478 1608 1731
8 1618 1495 1609 1732 1494 1361 1479 1610
8 1484 1348 1479 1610 1613 1483 1609 1732
8 1486 1349 1482 1612 1614 1485 1611 1733
8 1613 1483 1612 1734 1487 1350 1486 1615
8 1489 1363 1496 1616 1617 1499 1623 1736
8 1491 1365 1499 1617 1619 1500 1626 1737
8 1618 1495 1361 1494 1738 1622 1497 1621
8 1739 1625 1498 1620 1619 1500 1366 1492
8 1621 1497 1362 1493 1740 1624 1498 1620
8 1742 1631 1504 1622 1624 1505 1371 1497
8 1743 1628 1502 1626 1623 1501 1368 1499
8 1744 1630 1505 1624 1625 1503 1372 1498
8 1745 1629 1503 1625 1626 1502 1369 1500
8 1520 1398 1528 1644 1633 1506 1632 1751
8 1637 1520 1633 1752 1512 1388 1507 1634
8 1635 1519 1643 1753 1510 1391 1522 1636
8 1657 1535 1643 1753 1534 1406 1519 1635
8 1515 1392 1522 1636 1639 1523 1646 1754
8 1517 1389 1521 1641 1637 1520 1644 1755
8 1524 1638 1756 1648 1393 1514 1639 1523
8 1640 1526 1395 1516 1756 1648 1524 1638
8 1642 1525 1396 1518 1757 1649 1526 1640
8 1758 1645 1521 1641 1642 1525 1396 1518
8 1646 1531 1400 1522 1760 1650 1527 1643
8 1535 1407 1536 1658 1643 1527 1650 1760
8 1521 1399 1529 1645 1644 1528 1651 1761
8 1647 1530 1652 1762 1525 1404 1529 1645
8 1401 1523 1648 1532 1531 1646 1763 1655
8 1525 1404 1533 1649 1647 1530 1654 1765
8 1533 1649 1766 1656 1403 1526 1648 1532
8 1662 1542 1658 1774 1539 1414 1535 1657
8 1542 1415 1543 1664 1658 1536 1659 1775
8 1660 1540 1663 1777 1538 1413 1541 1661
8 1545 1421 1548 1666 1660 1540 1663 1777
8 1662 1542 1414 1539 1778 1664 1541 1661
8 1664 1543 1416 1541 1779 1665 1544 1663
8 1548 1425 1550 1668 1663 1544 1665 1779
8 1547 1423 1549 1667 1666 1548 1668 1781
8 1670 1551 1668 1781 1553 1427 1549 1667
8 1551 1426 1552 1671 1668 1550 1669 1782
8 1670 1551 1427 1553 1784 1671 1554 1674
8 1675 1555 1672 1785 1554 1428 1552 1671
8 1678 1556 1673 1789 1558 1429 1555 1675
8 1561 1431 1558 1681 1674 1554 1675 1790
8 1794 1677 1556 1678 1680 1557 1429 1558
8 1560 1430 1559 1683 1680 1557 1679 1797
8 1561 1431 1560 1684 1681 1558 1680 1798
8 1563 1433 1564 1686 1683 1559 1682 1800
8 1684 1560 1432 1562 1801 1683 1563 1685
8 1565 1435 1566 1688 1685 1563 1686 1802
8 1566 1436 1567 1689 1686 1564 1687 1803
8 1568 1438 1569 1691 1688 1566 1689 1805
8 1569 1439 1570 1692 1689 1567 1690 1806
8 1571 1441 1572 1694 1691 1569 1692 1808
8 1442 1572 1692 1570 1573 1695 1809 1693
8 1574 1444 1575 1696 1694 1572 1695 1810
8 1614 1485 1592 1712 1699 1577 1697 1813
8 1579 1449 1577 1699 1701 1578 1698 1815
8 1615 1486 1614 1735 1702 1579 1699 1816
8 1701 1578 1700 1818 1581 1450 1580 1704
8 1582 1451 1579 1702 1705 1581 1701 1819
8 1704 1580 1703 1820 1584 1452 1583 1706
8 1705 1581 1704 1821 1585 1453 1584 1707
8 1707 1584 1706 1822 1587 1456 1586 1708
8 1710 1589 1506 1633 1824 1709 1632 1751
8 1594 1463 1589 1710 1716 1593 1709 1824
8 1752 1633 1710 1825 1634 1507 1590 1711
8 1595 1464 1590 1711 1717 1594 1710 1825
8 1830 1714 1592 1712 1733 1611 1485 1614
8 1603 1477 1593 1716 1725 1607 1715 1834
8 1599 1473 1594 1717 1721 1603 1716 1835
8 1837 1722 1623 1736 1718 1600 1496 1616
8 1719 1601 1722 1837 1597 1471 1600 1718
8 1602 1720 1598 1472 1723 1838 1719 1601
8 1720 1602 1473 1599 1839 1724 1603 1721
8 1723 1605 1726 1840 1601 1475 1604 1722
8 1840 1726 1628 1743 1722 1604 1501 1623
8 1724 1606 1727 1841 1602 1476 1605 1723
8 1725 1607 1728 1842 1603 1477 1606 1724
8 1612 1482 1608 1731 1733 1611 1730 1849
8 1741 1627 1730 1849 1622 1504 1608 1731
8 1613 1483 1609 1732 1734 1612 1731 1850
8 1618 1495 1622 1738 1732 1609 1731 1850
8 1615 1486 1612 1734 1735 1614 1733 1851
8 1852 1743 1626 1737 1736 1623 1499 1617
8 1853 1745 1625 1739 1737 1626 1500 1619
8 1855 1742 1622 1738 1740 1624 1497 1621
8 1856 1744 1624 1740 1739 1625 1498 1620
8 1741 1627 1504 1622 1857 1746 1631 1742
8 1742 1631 1505 1624 1858 1749 1630 1744
8 1859 1747 1629 1745 1743 1628 1502 1626
8 1860 1748 1630 1744 1745 1629 1503 1625
8 1644 1528 1651 1761 1751 1632 1750 1865
8 1637 1520 1644 1755 1752 1633 1751 1866
8 1754 1646 1522 1636 1867 1760 1643 1753
8 1657 1535 1658 1774 1753 1643 1760 1867
8 1639 1523 1646 1754 1756 1648 1763 1868
8 1641 1521 1645 1758 1755 1644 1761 1869
8 1757 1649 1526 1640 1870 1766 1648 1756
8 1642 1525 1649 1757 1759 1647 1765 1871
8 1759 1647 1762 1872 1642 1525 1645 1758
8 1760 1650 1767 1874 1646 1531 1655 1763
8 1658 1536 1659 1775 1760 1650 1767 1874
8 1762 1652 1768 1875 1645 1529 1651 1761
8 1764 1653 1769 1876 1647 1530 1652 1762
8 1656 1766 1877 1773 1532 1648 1763 1655
8 1771 1879 1765 1654 1653 1764 1647 1530
8 1533 1649 1765 1654 1656 1766 1880 1772
8 1662 1542 1664 1778 1774 1658 1775 1887
8 1664 1543 1665 1779 1775 1659 1776 1888
8 1778 1664 1541 1661 1890 1779 1663 1777
8 1666 1548 1668 1781 1777 1663 1779 1890
8 1782 1669 1780 1891 1668 1550 1665 1779
8 1670 1551 1671 1784 1781 1668 1782 1893
8 1671 1552 1672 1785 1782 1669 1783 1894
8 1790 1675 1785 1896 1674 1554 1671 1784
8 1675 1555 1673 1789 1785 1672 1786 1897
8 1792 1676 1788 1903 1678 1556 1673 1789
8 1795 1678 1789 1904 1681 1558 1675 1790
8 1792 1676 1556 1678 1906 1791 1677 1794
8 1680 1557 1679 1797 1794 1677 1793 1909
8 1910 1794 1678 1795 1798 1680 1558 1681
8 1683 1559 1682 1800 1797 1679 1796 1912
8 1684 1560 1683 1801 1798 1680 1797 1913
8 1686 1564 1687 1803 1800 1682 1799 1915
8 1685 1563 1686 1802 1801 1683 1800 1916
8 1688 1566 1689 1805 1802 1686 1803 1917
8 1689 1567 1690 1806 1803 1687 1804 1918
8 1691 1569 1692 1808 1805 1689 1806 1920
8 1692 1570 1693 1809 1806 1690 1807 1921
8 1694 1572 1695 1810 1808 1692 1809 1922
8 1829 1713 1811 1926 1712 1592 1697 1813
8 1813 1697 1812 1928 1699 1577 1698 1815
8 1735 1614 1712 1828 1816 1699 1813 1929
8 1815 1698 1814 1931 1701 1578 1700 1818
8 1702 1579 1699 1816 1819 1701 1815 1932
8 1818 1700 1817 1933 1704 1580 1703 1820
8 1819 1701 1818 1934 1705 1581 1704 1821
8 1821 1704 1820 1935 1707 1584 1706 1822
8 1824 1709 1632 1751 1937 1823 1750 1865
8 1716 1593 1709 1824 1834 1715 1823 1937
8 1825 1710 1633 1752 1938 1824 1751 1866
8 1717 1594 1710 1825 1835 1716 1824 1938
8 1945 1830 1712 1828 1851 1733 1614 1735
8 1830 1714 1831 1946 1712 1592 1713 1829
8 1947 1832 1714 1830 1849 1730 1611 1733
8 1843 1729 1607 1725 1950 1833 1715 1834
8 1721 1603 1716 1835 1836 1725 1834 1951
8 1836 1725 1842 1953 1721 1603 1724 1839
8 1723 1838 1719 1601 1840 1954 1837 1722
8 1954 1840 1743 1852 1837 1722 1623 1736
8 1724 1839 1720 1602 1841 1955 1838 1723
8 1841 1727 1844 1956 1723 1605 1726 1840
8 1956 1844 1747 1859 1840 1726 1628 1743
8 1728 1842 1724 1606 1845 1957 1841 1727
8 1725 1607 1729 1843 1842 1728 1846 1958
8 1741 1627 1746 1857 1849 1730 1848 1965
8 1734 1612 1731 1850 1851 1733 1849 1966
8 1854 1741 1849 1966 1738 1622 1731 1850
8 1967 1859 1745 1853 1852 1743 1626 1737
8 1968 1860 1744 1856 1853 1745 1625 1739
8 1854 1741 1622 1738 1969 1857 1742 1855
8 1855 1742 1624 1740 1970 1858 1744 1856
8 1857 1746 1631 1742 1971 1861 1749 1858
8 1858 1749 1630 1744 1972 1863 1748 1860
8 1859 1747 1862 1973 1745 1629 1748 1860
8 1875 1768 1864 1977 1761 1651 1750 1865
8 1755 1644 1761 1869 1866 1751 1865 1978
8 1867 1760 1874 1979 1754 1646 1763 1868
8 1774 1658 1775 1887 1867 1760 1874 1979
8 1870 1766 1648 1756 1980 1877 1763 1868
8 1872 1762 1875 1981 1758 1645 1761 1869
8 1757 1649 1766 1870 1871 1765 1880 1982
8 1983 1879 1764 1873 1871 1765 1647 1759
8 1873 1764 1876 1984 1759 1647 1762 1872
8 1877 1773 1655 1763 1986 1881 1767 1874
8 1775 1659 1776 1888 1874 1767 1881 1986
8 1876 1769 1882 1987 1762 1652 1768 1875
8 1878 1770 1883 1988 1764 1653 1769 1876
8 1880 1772 1656 1766 1989 1886 1773 1877
8 1878 1770 1653 1764 1990 1884 1771 1879
8 1765 1654 1772 1880 1879 1771 1885 1991
8 1778 1664 1779 1890 1887 1775 1888 1997
8 1998 1889 1776 1888 1891 1780 1665 1779
8 1893 1782 1891 2000 1781 1668 1779 1890
8 1894 1783 1892 2001 1782 1669 1780 1891
8 1784 1671 1785 1896 1893 1782 1894 2003
8 1897 1786 1895 2004 1785 1672 1783 1894
8 1790 1675 1789 1904 1896 1785 1897 2006
8 1901 1787 1898 2007 1789 1673 1786 1897
8 1903 1788 1900 2013 1789 1673 1787 1901
8 1792 1676 1791 1906 1903 1788 1902 2016
8 1907 1792 1903 2017 1795 1678 1789 1904
8 1906 1791 1677 1794 2019 1905 1793 1909
8 1907 1792 1678 1795 2020 1906 1794 1910
8 1797 1679 1796 1912 1909 1793 1908 2022
8 1798 1680 1797 1913 1910 1794 1909 2023
8 1800 1682 1799 1915 1912 1796 1911 2025
8 1801 1683 1800 1916 1913 1797 1912 2026
8 1803 1687 1804 1918 1915 1799 1914 2028
8 1802 1686 1803 1917 1916 1800 1915 2029
8 1805 1689 1806 1920 1917 1803 1918 2030
8 1806 1690 1807 1921 1918 1804 1919 2031
8 1808 1692 1809 1922 1920 1806 1921 2032
8 1939 1826 1924 2037 1829 1713 1811 1926
8 1926 1811 1925 2039 1813 1697 1812 1928
8 1944 1829 1926 2040 1828 1712 1813 1929
8 1928 1812 1927 2042 1815 1698 1814 1931
8 1929 1813 1928 2043 1816 1699 1815 1932
8 1931 1814 1930 2044 1818 1700 1817 1933
8 1932 1815 1931 2045 1819 1701 1818 1934
8 1934 1818 1933 2046 1821 1704 1820 1935
8 2048 1936 1823 1937 1977 1864 1750 1865
8 1950 1833 1715 1834 2048 1936 1823 1937
8 1938 1824 1751 1866 2049 1937 1865 1978
8 1835 1716 1824 1938 1951 1834 1937 2049
8 1939 1826 1713 1829 2053 1942 1831 1946
8 1940 1827 1923 2035 2053 1942 1826 1939
8 1945 1830 1946 2058 1828 1712 1829 1944
8 2059 1947 1830 1945 1966 1849 1733 1851
8 1947 1832 1730 1849 2060 1948 1848 1965
8 1947 1832 1948 2060 1830 1714 1831 1946
8 1959 1847 1729 1843 2063 1949 1833 1950
8 1952 1843 1725 1836 2064 1950 1834 1951
8 1836 1725 1843 1952 1953 1842 1958 2066
8 1953 1842 1957 2067 1839 1724 1841 1955
8 1841 1955 1838 1723 1956 2068 1954 1840
8 2068 1956 1859 1967 1954 1840 1743 1852
8 1956 1844 1960 2069 1859 1747 1862 1973
8 1845 1957 1841 1727 1960 2069 1956 1844
8 1728 1842 1957 1845 1846 1958 2071 1961
8 1962 2072 1959 1847 1846 1958 1843 1729
8 1971 1861 1964 2077 1857 1746 1848 1965
8 1854 1741 1857 1969 1966 1849 1965 2078
8 1967 1859 1973 2079 1853 1745 1860 1968
8 1970 1858 1744 1856 2080 1972 1860 1968
8 1969 1857 1742 1855 2081 1971 1858 1970
8 1971 1861 1749 1858 2082 1974 1863 1972
8 1973 1862 1975 2083 1860 1748 1863 1972
8 1987 1882 1976 2086 1875 1768 1864 1977
8 1981 1875 1977 2087 1869 1761 1865 1978
8 1980 1877 1763 1868 2088 1986 1874 1979
8 1887 1775 1888 1997 1979 1874 1986 2088
8 1880 1982 2089 1989 1766 1870 1980 1877
8 1984 1876 1987 2090 1872 1762 1875 1981
8 1765 1871 1983 1879 1880 1982 2091 1991
8 1985 1878 1764 1873 2092 1990 1879 1983
8 1985 1878 1988 2093 1873 1764 1876 1984
8 2094 1992 1881 1986 1998 1889 1776 1888
8 1986 1881 1992 2094 1877 1773 1886 1989
8 1988 1883 1993 2095 1876 1769 1882 1987
8 1878 1770 1884 1990 1988 1883 1994 2096
8 1991 1885 1772 1880 2097 1996 1886 1989
8 1879 1771 1885 1991 1990 1884 1995 2098
8 2103 1998 1888 1997 2000 1891 1779 1890
8 2104 1999 1889 1998 2001 1892 1780 1891
8 2003 1894 2001 2106 1893 1782 1891 2000
8 2004 1895 2002 2107 1894 1783 1892 2001
8 2006 1897 2004 2109 1896 1785 1894 2003
8 2007 1898 2005 2110 1897 1786 1895 2004
8 2014 1901 2007 2112 1904 1789 1897 2006
8 2011 1899 2008 2113 1901 1787 1898 2007
8 2119 2010 1899 2011 2013 1900 1787 1901
8 2016 1902 2012 2122 1903 1788 1900 2013
8 2017 1903 2013 2123 1904 1789 1901 2014
8 1906 1791 1905 2019 2016 1902 2015 2125
8 1907 1792 1906 2020 2017 1903 2016 2126
8 1909 1793 1908 2022 2019 1905 2018 2128
8 2020 1906 1794 1910 2129 2019 1909 2023
8 1912 1796 1911 2025 2022 1908 2021 2131
8 1913 1797 1912 2026 2023 1909 2022 2132
8 1915 1799 1914 2028 2025 1911 2024 2134
8 1916 1800 1915 2029 2026 1912 2025 2135
8 1918 1804 1919 2031 2028 1914 2027 2136
8 1917 1803 1918 2030 2029 1915 2028 2137
8 1920 1806 1921 2032 2030 1918 2031 2138
8 1940 1827 1941 2054 2035 1923 2033 2140
8 2035 1923 2034 2143 1939 1826 1924 2037
8 2037 1924 2036 2146 1926 1811 1925 2039
8 2051 1939 2037 2147 1944 1829 1926 2040
8 2039 1925 2038 2149 1928 1812 1927 2042
8 2040 1926 2039 2150 1929 1813 1928 2043
8 2042 1927 2041 2151 1931 1814 1930 2044
8 2043 1928 2042 2152 1932 1815 1931 2045
8 2045 1931 2044 2153 1934 1818 1933 2046
8 2155 2047 1936 2048 2086 1976 1864 1977
8 2063 1949 1833 1950 2155 2047 1936 2048
8 2156 2048 1937 2049 2087 1977 1865 1978
8 2064 1950 1834 1951 2156 2048 1937 2049
8 2051 1939 1829 1944 2160 2053 1946 2058
8 2052 1940 2035 2144 2160 2053 1939 2051
8 2053 1942 1831 1946 2163 2057 1948 2060
8 2055 1943 1827 1940 2163 2057 1942 2053
8 2055 1943 2056 2164 1940 1827 1941 2054
8 2059 1947 1849 1966 2167 2060 1965 2078
8 2059 1947 2060 2167 1945 1830 1946 2058
8 2077 1964 2061 2168 1965 1848 1948 2060
8 2070 1963 1847 1959 2170 2062 1949 2063
8 2065 1959 1843 1952 2171 2063 1950 2064
8 2173 2072 1958 2066 2065 1959 1843 1952
8 1953 1842 1958 2066 2067 1957 2071 2174
8 2068 1956 2069 2175 1967 1859 1973 2079
8 2067 1957 2069 2175 1955 1841 1956 2068
8 1845 1957 2069 1960 1961 2071 2176 2073
8 2069 1960 2073 2176 1973 1862 1975 2083
8 2070 1963 2075 2177 1959 1847 1962 2072
8 1846 1958 2071 1961 1962 2072 2178 2074
8 2077 1964 1861 1971 2182 2076 1974 2082
8 2081 1971 2077 2183 1969 1857 1965 2078
8 2079 1973 2083 2184 1968 1860 1972 2080
8 2081 1971 1858 1970 2185 2082 1972 2080
8 2083 1975 2084 2186 1972 1863 1974 2082
8 2086 1976 1882 1987 2189 2085 1993 2095
8 2090 1987 2086 2190 1981 1875 1977 2087
8 2191 2094 1986 2088 2103 1998 1888 1997
8 2088 1986 2094 2191 1980 1877 1989 2089
8 1991 2091 2192 2097 1880 1982 2089 1989
8 2093 1988 2095 2193 1984 1876 1987 2090
8 1879 1983 2092 1990 1991 2091 2194 2098
8 1985 1878 1990 2092 2093 1988 2096 2195
8 2097 1996 1886 1989 2196 2099 1992 2094
8 2196 2099 1992 2094 2104 1999 1889 1998
8 1994 2096 1988 1883 2100 2197 2095 1993
8 2096 1994 1884 1990 2198 2101 1995 2098
8 1995 2098 2199 2102 1885 1991 2097 1996
8 2203 2104 1998 2103 2106 2001 1891 2000
8 2107 2002 2105 2204 2001 1892 1999 2104
8 2109 2004 2107 2206 2003 1894 2001 2106
8 2110 2005 2108 2207 2004 1895 2002 2107
8 2112 2007 2110 2209 2006 1897 2004 2109
8 2113 2008 2111 2210 2007 1898 2005 2110
8 2120 2011 2113 2212 2014 1901 2007 2112
8 2117 2009 2114 2213 2011 1899 2008 2113
8 2219 2116 2009 2117 2119 2010 1899 2011
8 2222 2118 2010 2119 2122 2012 1900 2013
8 2223 2119 2011 2120 2123 2013 1901 2014
8 2016 1902 2015 2125 2122 2012 2121 2225
8 2126 2016 2122 2226 2017 1903 2013 2123
8 2019 1905 2018 2128 2125 2015 2124 2228
8 2020 1906 2019 2129 2126 2016 2125 2229
8 2022 1908 2021 2131 2128 2018 2127 2231
8 2023 1909 2022 2132 2129 2019 2128 2232
8 2025 1911 2024 2134 2131 2021 2130 2234
8 2026 1912 2025 2135 2132 2022 2131 2235
8 1914 2028 2134 2024 2027 2136 2236 2133
8 2029 1915 2028 2137 2135 2025 2134 2237
8 2030 1918 2031 2138 2137 2028 2136 2238
8 2157 2050 2139 2240 2054 1941 2033 2140
8 2052 1940 2054 2161 2144 2035 2140 2242
8 2140 2033 2141 2243 2035 1923 2034 2143
8 2143 2034 2142 2246 2037 1924 2036 2146
8 2144 2035 2143 2247 2051 1939 2037 2147
8 2146 2036 2145 2249 2039 1925 2038 2149
8 2147 2037 2146 2250 2040 1926 2039 2150
8 2149 2038 2148 2251 2042 1927 2041 2151
8 2150 2039 2149 2252 2043 1928 2042 2152
8 2152 2042 2151 2253 2045 1931 2044 2153
8 2255 2154 2047 2155 2189 2085 1976 2086
8 2170 2062 1949 2063 2255 2154 2047 2155
8 2256 2155 2048 2156 2190 2086 1977 2087
8 2171 2063 1950 2064 2256 2155 2048 2156
8 2258 2159 2050 2157 2164 2056 1941 2054
8 2160 2053 1946 2058 2262 2163 2060 2167
8 2162 2055 1940 2052 2262 2163 2053 2160
8 2162 2055 2164 2263 2052 1940 2054 2161
8 2163 2057 1948 2060 2264 2165 2061 2168
8 2055 1943 2057 2163 2164 2056 2165 2264
8 2182 2076 2166 2268 2077 1964 2061 2168
8 2183 2077 2168 2269 2078 1965 2060 2167
8 2070 1963 2062 2170 2177 2075 2169 2271
8 2172 2070 1959 2065 2272 2170 2063 2171
8 2172 2070 2177 2273 2065 1959 2072 2173
8 2066 1958 2072 2173 2174 2071 2178 2274
8 2067 1957 2071 2174 2175 2069 2176 2275
8 2175 2069 2176 2275 2079 1973 2083 2184
8 2071 1961 2074 2178 2176 2073 2179 2276
8 2176 2073 2179 2276 2083 1975 2084 2186
8 2072 1962 2075 2177 2178 2074 2180 2277
8 2182 2076 1974 2082 2280 2181 2084 2186
8 2183 2077 1971 2081 2281 2182 2082 2185
8 2184 2083 2186 2282 2080 1972 2082 2185
8 2189 2085 1993 2095 2285 2188 2100 2197
8 2190 2086 1987 2090 2286 2189 2095 2193
8 2192 2097 1989 2089 2287 2196 2094 2191
8 2287 2196 2094 2191 2203 2104 1998 2103
8 2194 2098 1991 2091 2288 2199 2097 2192
8 2195 2096 2197 2289 2093 1988 2095 2193
8 2096 2195 2290 2198 1990 2092 2194 2098
8 2097 1996 2099 2196 2199 2102 2200 2291
8 2196 2099 1999 2104 2291 2200 2105 2204
8 2100 2197 2292 2201 1994 2096 2198 2101
8 1995 2098 2198 2101 2102 2199 2293 2202
8 2206 2107 2204 2296 2106 2001 2104 2203
8 2207 2108 2205 2297 2107 2002 2105 2204
8 2209 2110 2207 2299 2109 2004 2107 2206
8 2210 2111 2208 2300 2110 2005 2108 2207
8 2212 2113 2210 2302 2112 2007 2110 2209
8 2213 2114 2211 2303 2113 2008 2111 2210
8 2220 2117 2213 2305 2120 2011 2113 2212
8 2216 2115 2214 2306 2117 2009 2114 2213
8 2216 2115 2009 2117 2311 2217 2116 2219
8 2219 2116 2010 2119 2314 2218 2118 2222
8 2315 2219 2117 2220 2223 2119 2011 2120
8 2122 2012 2121 2225 2222 2118 2221 2317
8 2318 2222 2119 2223 2226 2122 2013 2123
8 2125 2015 2124 2228 2225 2121 2224 2320
8 2126 2016 2125 2229 2226 2122 2225 2321
8 2128 2018 2127 2231 2228 2124 2227 2323
8 2129 2019 2128 2232 2229 2125 2228 2324
8 2131 2021 2130 2234 2231 2127 2230 2326
8 2132 2022 2131 2235 2232 2128 2231 2327
8 2134 2024 2133 2236 2234 2130 2233 2328
8 2135 2025 2134 2237 2235 2131 2234 2329
8 2137 2028 2136 2238 2237 2134 2236 2330
8 2157 2050 2158 2259 2240 2139 2239 2332
8 2257 2157 2240 2334 2161 2054 2140 2242
8 2240 2139 2241 2335 2140 2033 2141 2243
8 2242 2140 2243 2337 2144 2035 2143 2247
8 2243 2141 2244 2338 2143 2034 2142 2246
8 2246 2142 2245 2341 2146 2036 2145 2249
8 2247 2143 2246 2342 2147 2037 2146 2250
8 2249 2145 2248 2343 2149 2038 2148 2251
8 2250 2146 2249 2344 2150 2039 2149 2252
8 2252 2149 2251 2345 2152 2042 2151 2253
8 2169 2271 2347 2254 2062 2170 2255 2154
8 2189 2085 2188 2285 2255 2154 2254 2347
8 2348 2255 2155 2256 2286 2189 2086 2190
8 2272 2170 2063 2171 2348 2255 2155 2256
8 2349 2258 2157 2257 2263 2164 2054 2161
8 2258 2159 2261 2351 2157 2050 2158 2259
8 2258 2159 2056 2164 2351 2261 2165 2264
8 2262 2163 2060 2167 2355 2264 2168 2269
8 2162 2055 2163 2262 2263 2164 2264 2355
8 2357 2266 2165 2264 2268 2166 2061 2168
8 2268 2166 2076 2182 2361 2267 2181 2280
8 2281 2182 2268 2362 2183 2077 2168 2269
8 2271 2169 2270 2364 2177 2075 2180 2277
8 2172 2070 2170 2272 2273 2177 2271 2365
8 2072 2173 2274 2178 2177 2273 2366 2277
8 2071 2174 2275 2176 2178 2274 2367 2276
8 2275 2176 2276 2367 2184 2083 2186 2282
8 2283 2187 2084 2186 2368 2278 2179 2276
8 2178 2074 2180 2277 2276 2179 2278 2368
8 2283 2187 2279 2370 2186 2084 2181 2280
8 2281 2182 2082 2185 2371 2280 2186 2282
8 2188 2285 2374 2284 2100 2197 2292 2201
8 2286 2189 2095 2193 2375 2285 2197 2289
8 2192 2097 2196 2287 2288 2199 2291 2376
8 2287 2196 2104 2203 2376 2291 2204 2296
8 2194 2098 2199 2288 2290 2198 2293 2377
8 2289 2197 2096 2195 2378 2292 2198 2290
8 2291 2200 2105 2204 2379 2294 2205 2297
8 2199 2102 2200 2291 2293 2202 2294 2379
8 2198 2101 2202 2293 2292 2201 2295 2380
8 2299 2207 2297 2383 2206 2107 2204 2296
8 2300 2208 2298 2384 2207 2108 2205 2297
8 2302 2210 2300 2386 2209 2110 2207 2299
8 2303 2211 2301 2387 2210 2111 2208 2300
8 2305 2213 2303 2389 2212 2113 2210 2302
8 2306 2214 2304 2390 2213 2114 2211 2303
8 2310 2216 2306 2392 2220 2117 2213 2305
8 2308 2215 2307 2393 2216 2115 2214 2306
8 2308 2215 2115 2216 2396 2309 2217 2311
8 2310 2216 2117 2220 2398 2311 2219 2315
8 2311 2217 2116 2219 2399 2312 2218 2314
8 2314 2218 2118 2222 2402 2313 2221 2317
8 2315 2219 2119 2223 2403 2314 2222 2318
8 2225 2121 2224 2320 2317 2221 2316 2405
8 2226 2122 2225 2321 2318 2222 2317 2406
8 2228 2124 2227 2323 2320 2224 2319 2408
8 2229 2125 2228 2324 2321 2225 2320 2409
8 2231 2127 2230 2326 2323 2227 2322 2411
8 2232 2128 2231 2327 2324 2228 2323 2412
8 2234 2130 2233 2328 2326 2230 2325 2413
8 2235 2131 2234 2329 2327 2231 2326 2414
8 2237 2134 2236 2330 2329 2234 2328 2415
8 2259 2158 2260 2352 2332 2239 2331 2417
8 2257 2157 2259 2350 2334 2240 2332 2419
8 2240 2139 2239 2332 2335 2241 2333 2420
8 2334 2240 2335 2422 2242 2140 2243 2337
8 2335 2241 2336 2423 2243 2141 2244 2338
8 2337 2243 2338 2425 2247 2143 2246 2342
8 2338 2244 2339 2426 2246 2142 2245 2341
8 2341 2245 2340 2428 2249 2145 2248 2343
8 2342 2246 2341 2429 2250 2146 2249 2344
8 2344 2249 2343 2430 2252 2149 2251 2345
8 2188 2285 2347 2254 2284 2374 2432 2346
8 2347 2254 2346 2432 2271 2169 2270 2364
8 2365 2271 2170 2272 2433 2347 2255 2348
8 2286 2189 2285 2375 2348 2255 2347 2433
8 2349 2258 2351 2435 2257 2157 2259 2350
8 2349 2258 2164 2263 2435 2351 2264 2355
8 2259 2158 2261 2351 2352 2260 2354 2437
8 2356 2265 2354 2437 2264 2165 2261 2351
8 2441 2357 2264 2355 2362 2268 2168 2269
8 2356 2265 2165 2264 2442 2358 2266 2357
8 2443 2359 2266 2357 2361 2267 2166 2268
8 2370 2279 2360 2446 2280 2181 2267 2361
8 2362 2268 2182 2281 2447 2361 2280 2371
8 2180 2277 2368 2278 2270 2364 2449 2363
8 2271 2365 2273 2177 2364 2450 2366 2277
8 2372 2283 2186 2282 2451 2368 2276 2367
8 2178 2274 2367 2276 2277 2366 2451 2368
8 2283 2187 2278 2368 2370 2279 2369 2452
8 2372 2283 2370 2453 2282 2186 2280 2371
8 2284 2374 2455 2373 2201 2292 2380 2295
8 2375 2285 2197 2289 2456 2374 2292 2378
8 2376 2291 2204 2296 2457 2379 2297 2383
8 2288 2199 2291 2376 2377 2293 2379 2457
8 2198 2290 2378 2292 2293 2377 2458 2380
8 2293 2202 2294 2379 2380 2295 2381 2459
8 2384 2298 2381 2459 2297 2205 2294 2379
8 2386 2300 2384 2463 2299 2207 2297 2383
8 2387 2301 2385 2464 2300 2208 2298 2384
8 2389 2303 2387 2466 2302 2210 2300 2386
8 2390 2304 2388 2467 2303 2211 2301 2387
8 2392 2306 2390 2469 2305 2213 2303 2389
8 2393 2307 2391 2470 2306 2214 2304 2390
8 2395 2308 2393 2472 2310 2216 2306 2392
8 2308 2215 2309 2396 2393 2307 2394 2473
8 2395 2308 2216 2310 2475 2396 2311 2398
8 2396 2309 2217 2311 2476 2397 2312 2399
8 2398 2311 2219 2315 2478 2399 2314 2403
8 2399 2312 2218 2314 2479 2400 2313 2402
8 2317 2221 2316 2405 2402 2313 2401 2482
8 2403 2314 2222 2318 2483 2402 2317 2406
8 2320 2224 2319 2408 2405 2316 2404 2485
8 2321 2225 2320 2409 2406 2317 2405 2486
8 2323 2227 2322 2411 2408 2319 2407 2488
8 2324 2228 2323 2412 2409 2320 2408 2489
8 2326 2230 2325 2413 2411 2322 2410 2490
8 2327 2231 2326 2414 2412 2323 2411 2491
8 2329 2234 2328 2415 2414 2326 2413 2492
8 2417 2331 2260 2352 2494 2416 2353 2438
8 2350 2259 2352 2436 2419 2332 2417 2496
8 2332 2239 2331 2417 2420 2333 2418 2497
8 2334 2240 2332 2419 2422 2335 2420 2499
8 2420 2333 2421 2500 2335 2241 2336 2423
8 2422 2335 2423 2502 2337 2243 2338 2425
8 2423 2336 2424 2503 2338 2244 2339 2426
8 2425 2338 2426 2505 2342 2246 2341 2429
8 2426 2339 2427 2506 2341 2245 2340 2428
8 2429 2341 2428 2507 2344 2249 2343 2430
8 2432 2346 2284 2374 2509 2431 2373 2455
8 2432 2346 2431 2509 2364 2270 2363 2449
8 2375 2285 2374 2456 2433 2347 2432 2510
8 2347 2433 2365 2271 2432 2510 2450 2364
8 2350 2259 2351 2435 2436 2352 2437 2514
8 2440 2356 2437 2514 2355 2264 2351 2435
8 2352 2260 2354 2437 2438 2353 2439 2516
8 2356 2265 2358 2442 2437 2354 2439 2516
8 2440 2356 2264 2355 2518 2442 2357 2441
8 2519 2443 2357 2441 2447 2361 2268 2362
8 2443 2359 2444 2520 2357 2266 2358 2442
8 2443 2359 2267 2361 2520 2444 2360 2446
8 2446 2360 2279 2370 2523 2445 2369 2452
8 2453 2370 2446 2524 2371 2280 2361 2447
8 2449 2363 2448 2525 2368 2278 2369 2452
8 2366 2277 2364 2450 2451 2368 2449 2526
8 2372 2283 2368 2451 2453 2370 2452 2527
8 2455 2373 2295 2380 2529 2454 2382 2460
8 2456 2374 2292 2378 2530 2455 2380 2458
8 2377 2293 2379 2457 2458 2380 2459 2531
8 2463 2384 2459 2531 2383 2297 2379 2457
8 2533 2461 2382 2460 2459 2381 2295 2380
8 2464 2385 2461 2533 2384 2298 2381 2459
8 2466 2387 2464 2537 2386 2300 2384 2463
8 2467 2388 2465 2538 2387 2301 2385 2464
8 2469 2390 2467 2540 2389 2303 2387 2466
8 2470 2391 2468 2541 2390 2304 2388 2467
8 2472 2393 2470 2543 2392 2306 2390 2469
8 2393 2307 2394 2473 2470 2391 2471 2544
8 2395 2308 2396 2475 2472 2393 2473 2546
8 2396 2309 2397 2476 2473 2394 2474 2547
8 2475 2396 2311 2398 2549 2476 2399 2478
8 2476 2397 2312 2399 2550 2477 2400 2479
8 2478 2399 2314 2403 2552 2479 2402 2483
8 2479 2400 2313 2402 2553 2480 2401 2482
8 2405 2316 2404 2485 2482 2401 2481 2556
8 2406 2317 2405 2486 2483 2402 2482 2557
8 2408 2319 2407 2488 2485 2404 2484 2559
8 2409 2320 2408 2489 2486 2405 2485 2560
8 2411 2322 2410 2490 2488 2407 2487 2561
8 2412 2323 2411 2491 2489 2408 2488 2562
8 2414 2326 2413 2492 2491 2411 2490 2563
8 2513 2434 2493 2565 2438 2353 2416 2494
8 2496 2417 2352 2436 2567 2494 2438 2515
8 2494 2416 2495 2568 2417 2331 2418 2497
8 2419 2332 2417 2496 2499 2420 2497 2570
8 2497 2418 2498 2571 2420 2333 2421 2500
8 2499 2420 2500 2573 2422 2335 2423 2502
8 2500 2421 2501 2574 2423 2336 2424 2503
8 2502 2423 2503 2576 2425 2338 2426 2505
8 2503 2424 2504 2577 2426 2339 2427 2506
8 2505 2426 2506 2578 2429 2341 2428 2507
8 2509 2431 2373 2455 2580 2508 2454 2529
8 2509 2431 2508 2580 2449 2363 2448 2525
8 2432 2510 2581 2509 2374 2456 2530 2455
8 2432 2510 2450 2364 2509 2581 2526 2449
8 2583 2511 2434 2513 2516 2439 2353 2438
8 2436 2352 2437 2514 2515 2438 2516 2588
8 2440 2356 2442 2518 2514 2437 2516 2588
8 2442 2358 2444 2520 2516 2439 2517 2589
8 2519 2443 2520 2591 2441 2357 2442 2518
8 2519 2443 2361 2447 2591 2520 2446 2524
8 2446 2360 2445 2523 2520 2444 2521 2592
8 2525 2448 2522 2593 2452 2369 2445 2523
8 2524 2446 2370 2453 2594 2523 2452 2527
8 2526 2449 2525 2595 2451 2368 2452 2527
8 2534 2462 2528 2597 2460 2382 2454 2529
8 2530 2455 2380 2458 2598 2529 2460 2532
8 2599 2533 2460 2532 2531 2459 2380 2458
8 2537 2464 2533 2599 2463 2384 2459 2531
8 2534 2462 2382 2460 2601 2535 2461 2533
8 2538 2465 2535 2601 2464 2385 2461 2533
8 2540 2467 2538 2604 2466 2387 2464 2537
8 2541 2468 2539 2605 2467 2388 2465 2538
8 2543 2470 2541 2607 2469 2390 2467 2540
8 2470 2391 2471 2544 2541 2468 2542 2608
8 2472 2393 2473 2546 2543 2470 2544 2610
8 2473 2394 2474 2547 2544 2471 2545 2611
8 2475 2396 2476 2549 2546 2473 2547 2613
8 2476 2397 2477 2550 2547 2474 2548 2614
8 2549 2476 2399 2478 2616 2550 2479 2552
8 2479 2400 2480 2553 2550 2477 2551 2617
8 2552 2479 2402 2483 2619 2553 2482 2557
8 2482 2401 2481 2556 2553 2480 2554 2620
8 2485 2404 2484 2559 2556 2481 2555 2623
8 2486 2405 2485 2560 2557 2482 2556 2624
8 2488 2407 2487 2561 2559 2484 2558 2625
8 2489 2408 2488 2562 2560 2485 2559 2626
8 2491 2411 2490 2563 2562 2488 2561 2627
8 2513 2434 2512 2585 2565 2493 2564 2630
8 2586 2513 2565 2632 2515 2438 2494 2567
8 2565 2493 2566 2633 2494 2416 2495 2568
8 2567 2494 2568 2635 2496 2417 2497 2570
8 2568 2495 2569 2636 2497 2418 2498 2571
8 2570 2497 2571 2638 2499 2420 2500 2573
8 2571 2498 2572 2639 2500 2421 2501 2574
8 2573 2500 2574 2641 2502 2423 2503 2576
8 2574 2501 2575 2642 2503 2424 2504 2577
8 2576 2503 2577 2643 2505 2426 2506 2578
8 2597 2528 2579 2645 2529 2454 2508 2580
8 2580 2508 2579 2645 2525 2448 2522 2593
8 2581 2509 2455 2530 2646 2580 2529 2598
8 2581 2509 2580 2646 2526 2449 2525 2595
8 2583 2511 2582 2648 2513 2434 2512 2585
8 2583 2511 2439 2516 2648 2582 2517 2589
8 2649 2583 2513 2586 2588 2516 2438 2515
8 2589 2517 2444 2520 2653 2587 2521 2592
8 2518 2442 2520 2591 2588 2516 2589 2654
8 2593 2522 2590 2655 2523 2445 2521 2592
8 2524 2446 2523 2594 2591 2520 2592 2656
8 2595 2525 2593 2657 2527 2452 2523 2594
8 2602 2536 2596 2659 2534 2462 2528 2597
8 2600 2534 2597 2660 2532 2460 2529 2598
8 2600 2534 2460 2532 2661 2601 2533 2599
8 2604 2538 2601 2661 2537 2464 2533 2599
8 2602 2536 2462 2534 2663 2603 2535 2601
8 2601 2535 2465 2538 2663 2603 2539 2605
8 2607 2541 2605 2665 2540 2467 2538 2604
8 2608 2542 2606 2666 2541 2468 2539 2605
8 2543 2470 2544 2610 2607 2541 2608 2668
8 2544 2471 2545 2611 2608 2542 2609 2669
8 2546 2473 2547 2613 2610 2544 2611 2671
8 2547 2474 2548 2614 2611 2545 2612 2672
8 2549 2476 2550 2616 2613 2547 2614 2674
8 2550 2477 2551 2617 2614 2548 2615 2675
8 2552 2479 2553 2619 2616 2550 2617 2677
8 2553 2480 2554 2620 2617 2551 2618 2678
8 2557 2482 2556 2624 2619 2553 2620 2680
8 2556 2481 2555 2623 2620 2554 2621 2681
8 2559 2484 2558 2625 2623 2555 2622 2683
8 2560 2485 2559 2626 2624 2556 2623 2684
8 2562 2488 2561 2627 2626 2559 2625 2685
8 2690 2629 2564 2630 2650 2584 2512 2585
8 2586 2513 2585 2651 2632 2565 2630 2691
8 2630 2564 2631 2692 2565 2493 2566 2633
8 2632 2565 2633 2694 2567 2494 2568 2635
8 2633 2566 2634 2695 2568 2495 2569 2636
8 2635 2568 2636 2697 2570 2497 2571 2638
8 2636 2569 2637 2698 2571 2498 2572 2639
8 2638 2571 2639 2700 2573 2500 2574 2641
8 2639 2572 2640 2701 2574 2501 2575 2642
8 2641 2574 2642 2702 2576 2503 2577 2643
8 2597 2528 2596 2659 2645 2579 2644 2704
8 2645 2579 2644 2704 2593 2522 2590 2655
8 2660 2597 2645 2705 2598 2529 2580 2646
8 2646 2580 2645 2705 2595 2525 2593 2657
8 2650 2584 2512 2585 2707 2647 2582 2648
8 2648 2582 2517 2589 2707 2647 2587 2653
8 2649 2583 2648 2708 2586 2513 2585 2651
8 2649 2583 2516 2588 2708 2648 2589 2654
8 2655 2590 2652 2710 2592 2521 2587 2653
8 2654 2589 2520 2591 2711 2653 2592 2656
8 2657 2593 2655 2712 2594 2523 2592 2656
8 2602 2536 2603 2663 2659 2596 2658 2714
8 2662 2602 2659 2715 2600 2534 2597 2660
8 2662 2602 2534 2600 2717 2663 2601 2661
8 2661 2601 2538 2604 2717 2663 2605 2665
8 2666 2606 2664 2718 2605 2539 2603 2663
8 2668 2608 2666 2720 2607 2541 2605 2665
8 2608 2542 2609 2669 2666 2606 2667 2721
8 2610 2544 2611 2671 2668 2608 2669 2723
8 2611 2545 2612 2672 2669 2609 2670 2724
8 2613 2547 2614 2674 2671 2611 2672 2726
8 2614 2548 2615 2675 2672 2612 2673 2727
8 2616 2550 2617 2677 2674 2614 2675 2729
8 2617 2551 2618 2678 2675 2615 2676 2730
8 2619 2553 2620 2680 2677 2617 2678 2732
8 2620 2554 2621 2681 2678 2618 2679 2733
8 2624 2556 2623 2684 2680 2620 2681 2735
8 2681 2621 2555 2623 2736 2682 2622 2683
8 2626 2559 2625 2685 2684 2623 2683 2737
8 2688 2628 2584 2650 2740 2686 2647 2707
8 2688 2628 2687 2742 2650 2584 2629 2690
8 2690 2629 2689 2745 2630 2564 2631 2692
8 2746 2690 2630 2691 2709 2650 2585 2651
8 2691 2630 2692 2747 2632 2565 2633 2694
8 2692 2631 2693 2748 2633 2566 2634 2695
8 2694 2633 2695 2750 2635 2568 2636 2697
8 2695 2634 2696 2751 2636 2569 2637 2698
8 2697 2636 2698 2753 2638 2571 2639 2700
8 2698 2637 2699 2754 2639 2572 2640 2701
8 2700 2639 2701 2755 2641 2574 2642 2702
8 2659 2596 2658 2714 2704 2644 2703 2757
8 2704 2644 2703 2757 2655 2590 2652 2710
8 2660 2597 2659 2715 2705 2645 2704 2758
8 2705 2645 2704 2758 2657 2593 2655 2712
8 2759 2706 2647 2707 2710 2652 2587 2653
8 2709 2650 2585 2651 2760 2707 2648 2708
8 2708 2648 2589 2654 2760 2707 2653 2711
8 2712 2655 2710 2761 2656 2592 2653 2711
8 2763 2713 2658 2714 2718 2664 2603 2663
8 2662 2602 2663 2717 2715 2659 2714 2764
8 2720 2666 2718 2767 2665 2605 2663 2717
8 2768 2719 2664 2718 2721 2667 2606 2666
8 2668 2608 2669 2723 2720 2666 2721 2770
8 2669 2609 2670 2724 2721 2667 2722 2771
8 2671 2611 2672 2726 2723 2669 2724 2773
8 2672 2612 2673 2727 2724 2670 2725 2774
8 2674 2614 2675 2729 2726 2672 2727 2776
8 2675 2615 2676 2730 2727 2673 2728 2777
8 2677 2617 2678 2732 2729 2675 2730 2779
8 2678 2618 2679 2733 2730 2676 2731 2780
8 2680 2620 2681 2735 2732 2678 2733 2782
8 2733 2679 2621 2681 2783 2734 2682 2736
8 2735 2681 2623 2684 2784 2736 2683 2737
8 2740 2686 2647 2707 2787 2738 2706 2759
8 2688 2628 2686 2740 2742 2687 2739 2789
8 2743 2688 2650 2709 2790 2740 2707 2760
8 2742 2687 2741 2792 2690 2629 2689 2745
8 2743 2688 2742 2793 2709 2650 2690 2746
8 2745 2689 2744 2795 2692 2631 2693 2748
8 2746 2690 2745 2796 2691 2630 2692 2747
8 2747 2692 2748 2797 2694 2633 2695 2750
8 2748 2693 2749 2798 2695 2634 2696 2751
8 2750 2695 2751 2800 2697 2636 2698 2753
8 2751 2696 2752 2801 2698 2637 2699 2754
8 2753 2698 2754 2802 2700 2639 2701 2755
8 2763 2713 2756 2804 2714 2658 2703 2757
8 2759 2706 2652 2710 2804 2756 2703 2757
8 2715 2659 2714 2764 2758 2704 2757 2805
8 2758 2704 2757 2805 2712 2655 2710 2761
8 2806 2759 2707 2760 2761 2710 2653 2711
8 2765 2716 2762 2808 2718 2664 2713 2763
8 2809 2763 2714 2764 2767 2718 2663 2717
8 2765 2716 2664 2718 2811 2766 2719 2768
8 2813 2768 2718 2767 2770 2721 2666 2720
8 2814 2769 2719 2768 2771 2722 2667 2721
8 2723 2669 2724 2773 2770 2721 2771 2816
8 2724 2670 2725 2774 2771 2722 2772 2817
8 2726 2672 2727 2776 2773 2724 2774 2819
8 2727 2673 2728 2777 2774 2725 2775 2820
8 2729 2675 2730 2779 2776 2727 2777 2822
8 2730 2676 2731 2780 2777 2728 2778 2823
8 2732 2678 2733 2782 2779 2730 2780 2825
8 2780 2731 2679 2733 2826 2781 2734 2783
8 2782 2733 2681 2735 2827 2783 2736 2784
8 2830 2785 2738 2787 2804 2756 2706 2759
8 2789 2739 2686 2740 2832 2786 2738 2787
8 2790 2740 2707 2760 2833 2787 2759 2806
8 2742 2687 2739 2789 2792 2741 2788 2835
8 2743 2688 2740 2790 2793 2742 2789 2836
8 2792 2741 2791 2838 2745 2689 2744 2795
8 2793 2742 2792 2839 2746 2690 2745 2796
8 2795 2744 2794 2841 2748 2693 2749 2798
8 2796 2745 2795 2842 2747 2692 2748 2797
8 2797 2748 2798 2843 2750 2695 2751 2800
8 2798 2749 2799 2844 2751 2696 2752 2801
8 2800 2751 2801 2845 2753 2698 2754 2802
8 2808 2762 2803 2847 2763 2713 2756 2804
8 2809 2763 2804 2848 2764 2714 2757 2805
8 2806 2759 2710 2761 2848 2804 2757 2805
8 2765 2716 2766 2811 2808 2762 2807 2850
8 2810 2765 2808 2851 2767 2718 2763 2809
8 2810 2765 2718 2767 2852 2811 2768 2813
8 2811 2766 2719 2768 2853 2812 2769 2814
8 2855 2814 2768 2813 2816 2771 2721 2770
8 2856 2815 2769 2814 2817 2772 2722 2771
8 2773 2724 2774 2819 2816 2771 2817 2858
8 2774 2725 2775 2820 2817 2772 2818 2859
8 2776 2727 2777 2822 2819 2774 2820 2861
8 2777 2728 2778 2823 2820 2775 2821 2862
8 2779 2730 2780 2825 2822 2777 2823 2864
8 2823 2778 2731 2780 2865 2824 2781 2826
8 2825 2780 2733 2782 2866 2826 2783 2827
8 2869 2828 2785 2830 2847 2803 2756 2804
8 2871 2829 2786 2832 2830 2785 2738 2787
8 2872 2830 2787 2833 2848 2804 2759 2806
8 2789 2739 2786 2832 2835 2788 2831 2874
8 2836 2789 2740 2790 2875 2832 2787 2833
8 2792 2741 2788 2835 2838 2791 2834 2877
8 2793 2742 2789 2836 2839 2792 2835 2878
8 2838 2791 2837 2880 2795 2744 2794 2841
8 2839 2792 2838 2881 2796 2745 2795 2842
8 2841 2794 2840 2882 2798 2749 2799 2844
8 2842 2795 2841 2883 2797 2748 2798 2843
8 2843 2798 2844 2884 2800 2751 2801 2845
8 2886 2846 2803 2847 2850 2807 2762 2808
8 2851 2808 2847 2887 2809 2763 2804 2848
8 2850 2807 2766 2811 2889 2849 2812 2853
8 2810 2765 2811 2852 2851 2808 2850 2890
8 2852 2811 2768 2813 2891 2853 2814 2855
8 2853 2812 2769 2814 2892 2854 2815 2856
8 2894 2856 2814 2855 2858 2817 2771 2816
8 2817 2772 2818 2859 2856 2815 2857 2895
8 2819 2774 2820 2861 2858 2817 2859 2897
8 2820 2775 2821 2862 2859 2818 2860 2898
8 2822 2777 2823 2864 2861 2820 2862 2900
8 2823 2778 2824 2865 2862 2821 2863 2901
8 2864 2823 2780 2825 2902 2865 2826 2866
8 2904 2867 2828 2869 2886 2846 2803 2847
8 2869 2828 2868 2906 2830 2785 2829 2871
8 2907 2869 2830 2872 2887 2847 2804 2848
8 2871 2829 2870 2909 2832 2786 2831 2874
8 2910 2871 2832 2875 2872 2830 2787 2833
8 2835 2788 2831 2874 2877 2834 2873 2912
8 2836 2789 2832 2875 2878 2835 2874 2913
8 2877 2834 2876 2915 2838 2791 2837 2880
8 2839 2792 2835 2878 2881 2838 2877 2916
8 2880 2837 2879 2917 2841 2794 2840 2882
8 2881 2838 2880 2918 2842 2795 2841 2883
8 2883 2841 2882 2919 2843 2798 2844 2884
8 2921 2885 2846 2886 2889 2849 2807 2850
8 2922 2886 2847 2887 2890 2850 2808 2851
8 2889 2849 2812 2853 2924 2888 2854 2892
8 2890 2850 2811 2852 2925 2889 2853 2891
8 2891 2853 2814 2855 2926 2892 2856 2894
8 2892 2854 2815 2856 2927 2893 2857 2895
8 2858 2817 2859 2897 2894 2856 2895 2929
8 2859 2818 2860 2898 2895 2857 2896 2930
8 2861 2820 2862 2900 2897 2859 2898 2932
8 2862 2821 2863 2901 2898 2860 2899 2933
8 2864 2823 2865 2902 2900 2862 2901 2934
8 2904 2867 2846 2886 2936 2903 2885 2921
8 2904 2867 2903 2936 2869 2828 2868 2906
8 2937 2904 2869 2907 2922 2886 2847 2887
8 2906 2868 2905 2939 2871 2829 2870 2909
8 2907 2869 2906 2940 2872 2830 2871 2910
8 2909 2870 2908 2942 2874 2831 2873 2912
8 2910 2871 2909 2943 2875 2832 2874 2913
8 2912 2873 2911 2945 2877 2834 2876 2915
8 2878 2835 2874 2913 2916 2877 2912 2946
8 2915 2876 2914 2947 2880 2837 2879 2917
8 2916 2877 2915 2948 2881 2838 2880 2918
8 2918 2880 2917 2949 2883 2841 2882 2919
8 2921 2885 2849 2889 2951 2920 2888 2924
8 2952 2921 2886 2922 2925 2889 2850 2890
8 2924 2888 2854 2892 2954 2923 2893 2927
8 2925 2889 2853 2891 2955 2924 2892 2926
8 2926 2892 2856 2894 2956 2927 2895 2929
8 2895 2857 2896 2930 2927 2893 2928 2957
8 2897 2859 2898 2932 2929 2895 2930 2959
8 2898 2860 2899 2933 2930 2896 2931 2960
8 2900 2862 2901 2934 2932 2898 2933 2961
8 2936 2903 2885 2921 2963 2935 2920 2951
8 2936 2903 2935 2963 2906 2868 2905 2939
8 2937 2904 2886 2922 2964 2936 2921 2952
8 2937 2904 2936 2964 2907 2869 2906 2940
8 2939 2905 2938 2966 2909 2870 2908 2942
8 2940 2906 2939 2967 2910 2871 2909 2943
8 2942 2908 2941 2969 2912 2873 2911 2945
8 2943 2909 2942 2970 2913 2874 2912 2946
8 2945 2911 2944 2971 2915 2876 2914 2947
8 2946 2912 2945 2972 2916 2877 2915 2948
8 2948 2915 2947 2973 2918 2880 2917 2949
8 2951 2920 2888 2924 2975 2950 2923 2954
8 2952 2921 2889 2925 2976 2951 2924 2955
8 2927 2893 2928 2957 2954 2923 2953 2978
8 2955 2924 2892 2926 2979 2954 2927 2956
8 2929 2895 2930 2959 2956 2927 2957 2980
8 2930 2896 2931 2960 2957 2928 2958 2981
8 2932 2898 2933 2961 2959 2930 2960 2982
8 2951 2920 2950 2975 2963 2935 2962 2984
8 2963 2935 2962 2984 2939 2905 2938 2966
8 2964 2936 2921 2952 2985 2963 2951 2976
8 2964 2936 2963 2985 2940 2906 2939 2967
8 2966 2938 2965 2987 2942 2908 2941 2969
8 2967 2939 2966 2988 2943 2909 2942 2970
8 2969 2941 2968 2989 2945 2911 2944 2971
8 2970 2942 2969 2990 2946 2912 2945 2972
8 2972 2945 2971 2991 2948 2915 2947 2973
8 2954 2923 2953 2978 2975 2950 2974 2993
8 2976 2951 2924 2955 2994 2975 2954 2979
8 2957 2928 2958 2981 2978 2953 2977 2995
8 2956 2927 2957 2980 2979 2954 2978 2996
8 2959 2930 2960 2982 2980 2957 2981 2997
8 2984 2962 2983 2999 2966 2938 2965 2987
8 2975 2950 2974 2993 2984 2962 2983 2999
8 2976 2951 2975 2994 2985 2963 2984 3000
8 2985 2963 2984 3000 2967 2939 2966 2988
8 2987 2965 2986 3001 2969 2941 2968 2989
8 2988 2966 2987 3002 2970 2942 2969 2990
8 2990 2969 2989 3003 2972 2945 2971 2991
8 2978 2953 2977 2995 2993 2974 2992 3004
8 2979 2954 2978 2996 2994 2975 2993 3005
8 2980 2957 2981 2997 2996 2978 2995 3006
8 2974 2993 2999 2983 2992 3004 3007 2998
8 2983 2999 2987 2965 2998 3007 3001 2986
8 3000 2984 2999 3008 2988 2966 2987 3002
8 2994 2975 2993 3005 3000 2984 2999 3008
8 3002 2987 3001 3009 2990 2969 2989 3003
8 2996 2978 2995 3006 3005 2993 3004 3010
8 3005 2993 3004 3010 3008 2999 3007 3011
8 3008 2999 3007 3011 3002 2987 3001 3009

CELL_TYPES 1910
12
12
12
12
12
12
12
12
12
12
12
12
12
12
12
12
12
12
12
12
12
12
12
12
12
12
12
12
12
12
12
12
12
12
12
12
12
12
12
12
12
12
12
12
12
12
12
12
12
12
12
12
12
12
12
12
12
12
12
12
12
12
12
12
12
12
12
12
12
12
12
12
12
12
12
12
12
12
12
12
12
12
12
12
12
12
12
12
12
12
12
12
12
12
12
12
12
12
12
12
12
12
12
12
12
12
12
12
12
12
12
12
12
12
12
12
12
12
12
12
12
12
12
12
12
12
12
12
12
12
12
12
12
12
12
12
12
12
12
12
12
12
12
12
12
12
12
12
12
12
12
12
12
12
12
12
12
12
12
12
12
12
12
12
12
12
12
12
12
12
12
12
12
12
12
12
12
12
12
12
12
12
12
12
12
12
12
12
12
12
12
12
12
12
12
12
12
12
12
12
12
12
12
12
12
12
12
12
12
12
12
12
12
12
12
12
12
12
12
12
12
12
12
12
12
12
12
12
12
12
12
12
12
12
12
12
12
12
12
12
12
12
12
12
12
12
12
12
12
12
12
12
12
12
12
12
12
12
12
12
12
12
12
12
12
12
12
12
12
12
12
12
12
12
12
12
12
12
12
12
12
12
12
12
12
12
12
12
12
12
12
12
12
12
12
12
12
12
12
12
12
12
12
12
12
12
12
12
12
12
12
12
12
12
12
12
12
12
12
12
12
12
12
12
12
12
12
12
12
12
12
12
12
12
12
12
12
12
12
12
12
12
12
12
12
12
12
12
12
12
12
12
12
12
12
12
12
12
12
12
12
12
12
12
12
12
12
12
12
12
12
12
12
12
12
12
12
12
12
12
12
12
12
12
12
12
12
12
12
12
12
12
12
12
12
12
12
12
12
12
12
12
12
12
12
12
12
12
12
12
12
12
12
12
12
12
12
12
12
12
12
12
12
12
12
12
12
12
12
12
12
12
12
12
12
12
12
12
12
12
12
12
12
12
12
12
12
12
12
12
12
12
12
12
12
12
12
12
12
12
12
12
12
12
12
12
12
12
12
12
12
12
12
12
12
12
12
12
12
12
12
12
12
12
12
12
12
12
12
12
12
12
12
12
12
12
12
12
12
12
12
12
12
12
12
12
12
12
12
12
12
12
12
12
12
12
12
12
12
12
12
12
12
12
12
12
12
12
12
12
12
12
12
12
12
12
12
12
12
12
12
12
12
12
12
12
12
12
12
12
12
12
12
12
12
12
12
12
12
12
12
12
12
12
12
12
12
12
12
12
12
12
12
12
12
12
12
12
12
12
12
12
12
12
12
12
12
12
12
12
12
12
12
12
12
12
12
12
12
12
12
12
12
12
12
12
12
12
12
12
12
12
12
12
12
12
12
12
12
12
12
12
12
12
12
12
12
12
12
12
12
12
12
12
12
12
12
12
12
12
12
12
12
12
12
12
12
12
12
12
12
12
12
12
12
12
12
12
12
12
12
12
12
12
12
12
12
12
12
12
12
12
12
12
12
12
12
12
12
12
12
12
12
12
12
12
12
12
12
12
12
12
12
12
12
12
12
12
12
12
12
12
12
12
12
12
12
12
12
12
12
12
12
12
12
12
12
12
12
12
12
12
12
12
12
12
12
12
12
12
12
12
12
12
12
12
12
12
12
12
12
12
12
12
12
12
12
12
12
12
12
12
12
12
12
12
12
12
12
12
12
12
12
12
12
12
12
12
12
12
12
12
12
12
12
12
12
12
12
12
12
12
12
12
12
12
12
12
12
12
12
12
12
12
12
12
12
12
12
12
12
12
12
12
12
12
12
12
12
12
12
12
12
12
12
12
12
12
12
12
12
12
12
12
12
12
12
12
12
12
12
12
12
12
12
12
12
12
12
12
12
12
12
12
12
12
12
12
12
12
12
12
12
12
12
12
12
12
12
12
12
12
12
12
12
12
12
12
12
12
12
12
12
12
12
12
12
12
12
12
12
12
12
12
12
12
12
12
12
12
12
12
12
12
12
12
12
12
12
12
12
12
12
12
12
12
12
12
12
12
12
12
12
12
12
12
12
12
12
12
12
12
12
12
12
12
12
12
12
12
12
12
12
12
12
12
12
12
12
12
12
12
12
12
12
12
12
12
12
12
12
12
12
12
12
12
12
12
12
12
12
12
12
12
12
12
12
12
12
12
12
12
12
12
12
12
12
12
12
12
12
12
12
12
12
12
12
12
12
12
12
12
12
12
12
12
12
12
12
12
12
12
12
12
12
12
12
12
12
12
12
12
12
12
12
12
12
12
12
12
12
12
12
12
12
12
12
12
12
12
12
12
12
12
12
12
12
12
12
12
12
12
12
12
12
12
12
12
12
12
12
12
12
12
12
12
12
12
12
12
12
12
12
12
12
12
12
12
12
12
12
12
12
12
12
12
12
12
12
12
12
12
12
12
12
12
12
12
12
12
12
12
12
12
12
12
12
12
12
12
12
12
12
12
12
12
12
12
12
12
12
12
12
12
12
12
12
12
12
12
12
12
12
12
12
12
12
12
12
12
12
12
12
12
12
12
12
12
12
12
12
12
12
12
12
12
12
12
12
12
12
12
12
12
12
12
12
12
12
12
12
12
12
12
12
12
12
12
12
12
12
12
12
12
12
12
12
12
12
12
12
12
12
12
12
12
12
12
12
12
12
12
12
12
12
12
12
12
12
12
12
12
12
12
12
12
12
12
12
12
12
12
12
12
12
12
12
12
12
12
12
12
12
12
12
12
12
12
12
12
12
12
12
12
12
12
12
12
12
12
12
12
12
12
12
12
12
12
12
12
12
12
12
12
12
12
12
12
12
12
12
12
12
12
12
12
12
12
12
12
12
12
12
12
12
12
12
12
12
12
12
12
12
12
12
12
12
12
12
12
12
12
12
12
12
12
12
12
12
12
12
12
12
12
12
12
12
12
12
12
12
12
12
12
12
12
12
12
12
12
12
12
12
12
12
12
12
12
12
12
12
12
12
12
12
12
12
12
12
12
12
12
12
12
12
12
12
12
12
12
12
12
12
12
12
12
12
12
12
12
12
12
12
12
12
12
12
12
12
12
12
12
12
12
12
12
12
12
12
12
12
12
12
12
12
12
12
12
12
12
12
12
12
12
12
12
12
12
12
12
12
12
12
12
12
12
12
12
12
12
12
12
12
12
12
12
12
12
12
12
12
12
12
12
12
12
12
12
12
12
12
12
12
12
12
12
12
12
12
12
12
12
12
12
12
12
12
12
12
12
12
12
12
12
12
12
12
12
12
12
12
12
12
12
12
12
12
12
12
12
12
12
12
12
12
12
12
12
12
12
12
12
12
12
12
12
12
12
12
12
12
12
12
12
12
12
12
12
12
12
12
12
12
12
12
12
12
12
12
12
12
12
12
12
12
12
12
12
12
12
12
12
12
12
12
12
12
12
12
12
12
12
12
12
12
12
12
12
12
12
12
12
12
12
12
12
12
12
12
12
12
12
12
12
12
12
12
12
12
12
12
12
12
12
12
12
12
12
12
12
12
12
12
12
12
12
12
12
12
12
12
12
12
12
12
12
12
12
12
12
12
12
12
12
12
12
12
12
12
12
12
12
12
12
12
12
12
12
12
12
12
12
12
12
12
12
12
12
12
12
12
12
12
12
12
12
12
12
12
12
12
12
12
12
12
12
12
12
12
12
12
12
12
12
12
12
12
12
12
12
12
12
12
12
12
12
12
12
12
12
12
12
12
12
12
12
12
12
12
12
12
12
12
12
12
12
12
12
12
12
12
12
12
12
12
12
12
12
12
12
12
12
12
12
12
12
12
12
12
12
12
12
12
12
12
12
12
12
12
12
12
12
12
12
12
12
12
12
12
12
12
12
12
12
12
12
12
12
12
12
12
12
12
12
12
12
12
12
12
12
12
12
12
12
12
12
12
12
12
12
12
12
12
12
12
12
12
12
12
12
12
12
12
12
12
12
12
12
12
12
12
12
12
12
12
12
12
12
12
12
12
12
12
12
12
12
12
12
12
12
12
12
12
12
12
12
12
12
12
12
12
12
12
12
12
12
12
12
12
12
12
12
12
12
12
12
12
12
12
12
12
12
12
12
12
12
12
12
12
12
12
12
12
12
12
12
12
12
12
12
12
12
12
12
12
12
12
12
12
12
12
12
12
12
12
12
12
12
12
12
12
12
12
12
12
12
12
12
12
12
12
12
12
12
12
12
12
12
12
12
12
12
12
12
12
12
12
12
12
12
12
12
12
12
12
12
12
12
12
12
12
12
12
12
12
12
12
12
12
12

POINT_DATA 3012
SCALARS Jp_lamdaP float 4
LOOKUP_TABLE default
0.999786 1 1 0.999786
1 1 1 1
0.999792 1 1 0.999792
0.999736 1 1 0.999736
0.999786 1 1 0.999786
0.999775 1 1 0.999775
0.999129 1 1 0.999129
1 1 1 1
1 1 1 1
1 1 1 1
0.999859 1 1 0.999859
0.99927 1 1 0.99927
0.99971 1 1 0.99971
0.999732 1 1 0.999732
0.999792 1 1 0.999792
0.999756 1 1 0.999756
0.99978 1 1 0.99978
0.999798 1 1 0.999798
0.999132 1 1 0.999132
1 1 1 1
0.999715 1 1 0.999715
0.999766 1 1 0.999766
0.998999 1 1 0.998999
0.999102 1 1 0.999102
0.999789 1 1 0.999789
0.999155 1 1 0.999155
1.00331 1.00522 1 0.998107
1 1 1 1
0.999882 1 1 0.999882
0.999895 1 1 0.999895
1 1 1 1
0.999279 1 1 0.999279
0.999758 1 1 0.999758
0.999782 1 1 0.999782
0.99924 1 1 0.99924
1 1 1 1
0.999327 1 1 0.999327
0.999371 1 1 0.999371
0.999205 1.00109 1 0.998117
1 1 1 1
1 1 1 1
0.999865 1 1 0.999865
1 1 1 1
0.999728 1 1 0.999728
0.998926 1 1 0.998926
1 1 1 1
0.999142 1 1 0.999142
0.999773 1 1 0.999773
0.999805 1 1 0.999805
0.999781 1 1 0.999781
0.999137 1 1 0.999137
0.999848 1 1 0.999848
0.999734 1 1 0.999734
0.9998 1 1 0.9998
0.999783 1 1 0.999783
0.998998 1 1 0.998998
0.999159 1 1 0.999159
0.999104 1 1 0.999104
1.00371 1.00563 1 0.998092
1 1 1 1
0.999708 1 1 0.999708
0.999136 1 1 0.999136
0.998963 1 1 0.998963
0.999052 1 1 0.999052
1.00631 1.00851 1 0.997815
1.00465 1.00672 1 0.997942
0.99985 1 1 0.99985
0.999265 1 1 0.999265
1.0012 1.003 1 0.998207
1.01563 1.0184 1 0.99728
1 1 1 1
1 1 1 1
1 1 1 1
0.999287 1 1 0.999287
1 1 1 1
1 1 1 1
0.999123 1 1 0.999123
0.999957 1 1 0.999957
0.999228 1 1 0.999228
0.999449 1 1 0.999449
0.99882 1.00071 1 0.998114
1 1 1 1
1.00023 1 1.00034 0.999891
0.999055 1 1 0.999055
0.999158 1 1 0.999158
1.00646 1.00879 1 0.997692
0.999641 1 1 0.999641
1.0015 1.00349 1 0.998016
0.998395 1.00014 1 0.998258
1.00174 1.00427 1 0.997485
1 1 1 1
1 1 1 1
1 1 1 1
1 1 1 1
1 1 1 1
0.999861 1 1 0.999861
0.999025 1 1 0.999025
0.999869 1 1 0.999869
0.999077 1 1 0.999077
1 1 1 1
0.998923 1 1 0.998923
0.999121 1 1 0.999121
1.0055 1.00809 1 0.997434
0.999178 1 1 0.999178
1.00787 1.0104 1 0.997502
0.999729 1 1 0.999729
0.999751 1 1 0.999751
0.99981 1 1 0.99981
0.999797 1 1 0.999797
0.998998 1 1 0.998998
0.999108 1 1 0.999108
0.999165 1 1 0.999165
1.0041 1.00603 1 0.998077
1 1 1 1
0.999726 1 1 0.999726
0.998949 1 1 0.998949
0.99896 1 1 0.99896
0.999925 1 1 0.999925
0.99933 1 1 0.99933
0.999054 1 1 0.999054
1.0063 1.00854 1 0.997774
1.00181 1.00362 1 0.998189
1.0049 1.00694 1 0.997972
1.01555 1.01832 1 0.997285
0.998946 1 1 0.998946
0.998947 1 1 0.998947
1.00503 1.00742 1 0.99763
1.00638 1.0087 1 0.997702
1.00604 1.00823 1 0.997828
1.0236 1.02655 1 0.997124
1 1 1 1
1.01829 1.02112 1 0.997224
0.999605 1 1.00011 0.999493
0.999063 1.00085 1 0.998216
1.01244 1.01515 1 0.997335
1.0253 1.02831 1 0.997071
1.00022 1 1.00048 0.999739
1.00241 1 1.00354 0.998875
1 1 1 1
1 1 1 1
0.999129 1 1 0.999129
1 1 1 1
0.999432 1 1 0.999432
0.999234 1 1 0.999234
0.998399 1.00029 1 0.998111
1 1 1 1
0.999971 1 1.00006 0.999911
0.999134 1 1 0.999134
0.999232 1 1 0.999232
1.00587 1.00819 1 0.997693
0.99967 1 1.00004 0.999632
1.00072 1.00271 1 0.99802
0.998296 1.00004 1 0.998256
1.0016 1.00414 1 0.997468
0.999969 1 1.0002 0.999773
0.999962 1 1 0.999962
1.00065 1 1.00154 0.999108
1.0078 1.01024 1 0.997583
1.00426 1.00642 1 0.997855
1.01973 1.02271 1 0.997084
0.998579 1 1.00007 0.998506
1.00786 1.0105 1 0.997389
1.00103 1.00289 1.00057 0.997575
1.00858 1.01132 1 0.997293
1 1 1 1
1 1 1 1
1 1 1 1
0.999834 1 1 0.999834
1 1 1 1
1 1 1 1
1 1 1 1
0.999011 1 1 0.999011
0.998955 1 1 0.998955
1 1 1 1
1 1 1 1
0.998925 1 1 0.998925
0.999056 1 1 0.999056
1.00591 1.0085 1 0.997434
0.999037 1 1 0.999037
1.00801 1.01053 1 0.997501
0.998918 1 1 0.998918
1.00451 1.00714 1 0.99739
1.00678 1.00932 1 0.997478
1.02618 1.0293 1 0.996968
1.00818 1.01068 1 0.997527
1.02837 1.03145 1 0.99701
1 1 1 1
0.999745 1 1 0.999745
0.998745 1 1 0.998745
0.998958 1 1 0.998958
1 1 1 1
0.999396 1 1 0.999396
0.999057 1 1 0.999057
1.00627 1.00856 1 0.997732
1.00517 1.00718 1 0.998002
1.0024 1.00424 1 0.99817
1.01545 1.01821 1 0.997291
0.998943 1 1 0.998943
0.998944 1 1 0.998944
1.00487 1.00737 1 0.997522
1.0064 1.00869 1 0.99773
1 1 1 1
0.999532 1 1.00003 0.999507
0.999757 1.00148 1 0.998279
1.00598 1.00817 1 0.997826
1.02349 1.02647 1 0.997092
1.01186 1.01457 1 0.997324
1.01848 1.02128 1 0.997259
1.02487 1.02788 1 0.997078
1.00045 1 1.00072 0.999729
1.00218 1 1.0033 0.998877
1.00404 1.00665 1 0.997412
1.00558 1.00793 1 0.997672
1.02462 1.02764 1 0.997058
1.02413 1.02718 1 0.997033
1.02088 1.02374 1 0.997213
1.03401 1.03704 1 0.997073
1.00015 1 1.00052 0.999624
1.02726 1.03025 1 0.997094
0.998589 1.00009 1.00011 0.99839
1.0059 1.00847 1 0.997446
1.02295 1.02595 1 0.997077
1.02715 1.03008 1 0.997152
1.00198 1 1.00329 0.998691
1.00014 1 1.00104 0.999107
1.0024 1 1.00414 0.998267
0.999079 1 1 0.999079
1 1 1 1
0.999931 1 1 0.999931
0.999188 1 1 0.999188
1.00528 1.0076 1 0.997695
0.999754 1 1.00012 0.999638
0.998296 1 1.00004 0.998255
0.999904 1.00188 1 0.998023
1.00159 1.00415 1 0.997451
1.00002 1 1.00023 0.999794
0.999972 1 1 0.999972
1.00086 1 1.00175 0.99911
1.00747 1.00991 1 0.997582
1.00345 1.0056 1 0.997859
1.01981 1.0228 1 0.997081
0.998698 1 1.00019 0.99851
1.00832 1.01095 1 0.997398
1.00049 1.00245 1.00047 0.99757
1.00931 1.01206 1 0.997279
0.99999 1 1 0.99999
0.99962 1 1.00083 0.998789
1.0003 1 1.00088 0.999417
1.00118 1 1.00269 0.998496
1.02378 1.02684 1 0.997017
1.01458 1.01739 1 0.997238
1.02764 1.0308 1 0.996936
0.999362 1.00101 1.00049 0.997864
1.0161 1.01893 1 0.997226
1.00898 1.01017 1.00158 0.997243
1.0191 1.022 1 0.997155
0.999791 1 1 0.999791
1 1 1 1
1 1 1 1
1 1 1 1
1 1 1 1
0.999908 1 1 0.999908
1 1 1 1
1.00012 1 1.0003 0.999821
1 1 1 1
0.999038 1 1 0.999038
0.998987 1 1 0.998987
1.00823 1.01076 1 0.997501
1.00628 1.00887 1 0.997434
0.998927 1 1 0.998927
1 1 1 1
0.998917 1 1 0.998917
1.00476 1.00739 1 0.99739
1.00717 1.00971 1 0.997477
1.02598 1.0291 1 0.996967
1.00818 1.01068 1 0.997525
1.02825 1.03133 1 0.997008
1.00392 1.00656 1 0.997385
1.02466 1.02781 1 0.99693
1.02793 1.03103 1 0.996998
1.04046 1.04349 0.999995 0.997097
1.02726 1.03034 1 0.997008
1.03834 1.0414 1 0.997064
0.998941 1 1 0.998941
0.99894 1 1 0.99894
1.00472 1.00733 1 0.997415
1.00643 1.0087 1 0.997757
1 1 1 1
0.999521 1 1 0.999521
1.00038 1.00205 1 0.998342
1.00593 1.00812 1 0.997823
1.02339 1.02641 1 0.997061
1.01863 1.0214 1 0.997293
1.01129 1.01401 1 0.997314
1.02457 1.02756 1 0.997086
1.00056 1 1.00084 0.999718
1.0019 1 1.00303 0.998879
1.00399 1.00661 1 0.997388
1.00555 1.0079 1 0.997668
1.02463 1.02764 1 0.997064
1.02429 1.02731 1 0.997062
1.00003 1 1.00042 0.999613
0.99869 1.00024 1.00006 0.998387
1.00646 1.009 1 0.997482
1.02118 1.02404 1 0.997205
1.03408 1.03709 1 0.997097
1.02236 1.02538 1 0.997047
1.02723 1.03022 1 0.997098
1.02749 1.03043 1 0.997152
1.00124 1 1.00255 0.998693
1.00249 1 1.00423 0.998269
1.00065 1 1.00154 0.999105
1.02377 1.02684 1 0.997012
1.0252 1.02819 1 0.997086
1.0389 1.04196 1 0.997066
1.03543 1.03849 1 0.997058
1.02993 1.0329 1 0.997117
1.0336 1.03645 0.999934 0.997315
0.999022 1 1.00047 0.998558
1.02915 1.03201 1 0.99723
1.00021 1.00245 1 0.997767
1.01413 1.01716 1 0.997028
1.0243 1.02743 1 0.996953
1.02407 1.02679 1 0.99735
0.999521 1 1.0002 0.999317
0.998759 1 1.00055 0.998206
1.00411 1 1.00573 0.998387
1.0004 1 1.00234 0.998068
1.00716 1.0096 1 0.997581
0.999982 1 1 0.999982
0.999816 1 1 0.999816
1.00081 1 1.0017 0.999112
1.00265 1.0048 1 0.997864
1.01988 1.02287 1 0.997077
0.998737 1 1.00022 0.998514
0.999607 1.00172 1.00033 0.997566
1.00883 1.01145 1 0.997406
1.00962 1.01239 1 0.997266
0.999994 1 1 0.999994
1.00006 1 1.00127 0.99879
0.999929 1 1.0005 0.999426
1.00155 1 1.00307 0.998491
1.02367 1.02674 1 0.997012
1.01452 1.01733 1 0.997238
1.02745 1.03061 1 0.996934
0.99888 1.00056 1.00045 0.99787
1.01617 1.01898 1 0.997236
1.00856 1.00961 1.00173 0.997232
1.01924 1.02207 1 0.997226
0.999999 1 1 0.999999
0.999618 1 1 0.999618
0.999145 1 1.00094 0.998212
1.00107 1 1.00229 0.998788
1.00024 1 1.00204 0.9982
1.03154 1.03471 1 0.996942
1.02202 1.02504 1 0.997058
1.0251 1.02819 1 0.996998
1.00411 1.00464 1.00199 0.997488
1.01732 1.0202 1 0.99718
1.01173 1.01394 1.00086 0.996963
0.999767 1 1 0.999767
0.999331 1 1 0.999331
0.999809 1 1 0.999809
0.999793 1 1 0.999793
1 1 1 1
1 1 1 1
1 1 1 1
1 1 1 1
1 1 1 1
0.999962 1 1 0.999962
1 1 1 1
0.999894 1 1 0.999894
1 1 1 1
1.00047 1 1.00066 0.999809
1 1 1 1
1.00814 1.01065 1 0.997523
1.00749 1.01003 1 0.997477
1.02791 1.03099 1 0.997007
1.02576 1.02888 1 0.996965
1.00508 1.00771 1 0.997391
0.998916 1 1 0.998916
1.00409 1.00672 1 0.997385
1.0245 1.02766 1 0.99693
1.02754 1.03064 1 0.996997
1.03992 1.04325 0.999695 0.997115
1.0267 1.02979 1 0.997004
1.03809 1.04115 1 0.997062
1.02393 1.0271 1 0.996921
1.03906 1.04273 0.999362 0.997111
1.0403 1.04333 1 0.99709
1.03977 1.04447 0.998182 0.997317
1.0345 1.0376 1 0.997008
1.03803 1.04107 0.999722 0.99736
1.00396 1.00662 1 0.997363
1.00553 1.00789 1 0.997664
1.02468 1.02769 1 0.99707
1.02444 1.02743 1 0.997091
0.999914 1 1.00031 0.999602
0.998832 1.00045 1 0.998385
1.00722 1.00972 1 0.997518
1.02149 1.02436 1 0.997198
1.03418 1.03717 1 0.99712
1.0272 1.03019 1 0.997103
1.02164 1.02469 1 0.997016
1.02783 1.03077 1 0.997151
1.00063 1 1.00194 0.998696
1.00264 1 1.00437 0.998272
1.00107 1 1.00196 0.999102
1.02382 1.02692 1 0.996979
1.0254 1.0284 1 0.997084
1.03859 1.04166 0.999954 0.997095
1.03554 1.0386 1 0.997054
0.999072 1 1.00052 0.998556
1.00172 1.00397 1 0.997761
1.01288 1.01582 1.00003 0.997077
1.03015 1.03314 1 0.997103
1.03362 1.03641 0.999951 0.997359
1.02455 1.02772 1 0.996918
1.02892 1.03178 1 0.997233
1.02433 1.02702 1 0.99738
0.999102 1 1.0009 0.998208
1.00048 1 1.00244 0.998046
0.999701 1 1.00039 0.999313
1.00373 1 1.00532 0.998418
1.03887 1.04196 0.999977 0.997062
1.03804 1.04107 1 0.997086
1.03702 1.04187 0.998105 0.997232
1.03487 1.03874 0.998902 0.997369
1.031 1.03377 1 0.997321
1.03175 1.03532 0.999013 0.997534
0.998367 1.00032 1 0.998045
1.02513 1.02769 0.999962 0.997541
1.00461 1.00728 1 0.997349
1.0154 1.01848 1.00018 0.996798
1.0256 1.02879 1 0.996905
1.0242 1.02685 1 0.99742
0.999475 1 1 0.999475
1.00136 1 1.00275 0.998611
0.99799 1 1 0.99799
1.00299 1 1.00485 0.998151
0.999696 1 1.00168 0.998018
0.999997 1 1 0.999997
1.0235 1.02657 1 0.997008
0.99958 1 1.00015 0.999434
1.00076 1 1.00197 0.998791
1.00206 1 1.00358 0.998485
1.01449 1.0173 1 0.997237
1.0273 1.03046 1 0.996931
0.998617 1.00024 1.00051 0.997876
1.00892 1.00978 1.00193 0.997221
1.01631 1.01912 1 0.997247
1.01965 1.02241 1 0.997297
0.999999 1 1 0.999999
0.999626 1 1 0.999626
0.99905 1 1.00084 0.998214
1.00136 1 1.00258 0.998788
1.00061 1 1.00244 0.998178
1.03162 1.03479 1 0.996936
1.02221 1.02523 1 0.997057
1.025 1.02809 1 0.996987
1.00309 1.00348 1.00213 0.997494
1.01996 1.02284 1 0.997184
1.01142 1.01351 1.00096 0.996982
0.999719 1 1 0.999719
0.999473 1 1.00042 0.999058
0.999229 1.00086 1.00048 0.997891
1.00245 1 1.00402 0.998431
0.99972 1 1.00163 0.998093
1.02965 1.03267 1 0.997074
1.02041 1.02342 1 0.997062
1.02351 1.02639 1 0.997185
1.00238 1.00131 1.00379 0.997287
1.00957 1.01274 1 0.996871
0.99977 1 1 0.99977
0.999262 1 1 0.999262
0.999308 1 1 0.999308
0.999076 1 1 0.999076
0.999341 1 1 0.999341
0.999816 1 1 0.999816
0.99981 1 1 0.99981
1 1 1 1
0.999795 1 1 0.999795
1 1 1 1
1 1 1 1
1 1 1 1
1 1 1 1
1 1 1 1
0.999992 1 1 0.999992
0.999949 1 1 0.999949
1 1 1 1
1 1 1 1
0.999879 1 1 0.999879
1 1 1 1
1.02625 1.02934 1 0.997001
1.02739 1.03048 1 0.996995
1.03798 1.04105 1 0.997059
1.03948 1.04311 0.999385 0.997132
1.02422 1.02738 1 0.996931
1.00418 1.00681 1 0.997384
1.02369 1.02685 1 0.996922
1.03907 1.04269 0.999423 0.997105
1.04005 1.04309 1 0.99709
1.03921 1.04434 0.997734 0.997349
1.03513 1.03824 1 0.997002
1.03753 1.04092 0.999366 0.997382
1.03845 1.04196 0.999551 0.997079
1.0389 1.04446 0.99738 0.997287
1.03851 1.04297 0.998311 0.997403
1.03634 1.04357 0.995575 0.997479
1.03452 1.03738 1 0.99724
1.03619 1.04072 0.998064 0.997584
1.02373 1.02686 1 0.996946
1.02558 1.02858 1 0.997082
1.03817 1.04127 0.999903 0.997123
1.0356 1.03866 1 0.99705
0.999097 1 1.00054 0.998554
1.00299 1.00525 1 0.997754
1.01165 1.01438 1.00018 0.997127
1.03038 1.03339 1 0.99709
1.03358 1.03631 0.999968 0.997404
1.02869 1.03154 1 0.997236
1.02483 1.02803 1 0.996883
1.0243 1.02696 1 0.997411
0.999431 1.00002 1.00121 0.99821
1.00056 1 1.00254 0.998025
0.99989 1 1.00058 0.999308
1.00308 1 1.00463 0.99845
1.03887 1.04194 0.999989 0.997062
1.03759 1.04065 1 0.997065
1.03681 1.04158 0.998154 0.997264
1.03536 1.03883 0.999303 0.997351
0.998747 1.00071 1 0.998038
1.00416 1.00675 1.00003 0.997395
1.01577 1.01865 1.00039 0.996789
1.03044 1.03325 1 0.99728
1.03122 1.03472 0.999024 0.997591
1.02396 1.02715 1 0.996891
1.02599 1.02853 0.99999 0.997543
1.02504 1.02764 1 0.997471
0.998284 1.0003 1 0.997988
0.999362 1.00022 1.00112 0.998025
1.00361 1 1.00548 0.998144
0.999463 1 1.00002 0.999439
1.00117 1 1.00253 0.998642
1.03727 1.04334 0.996906 0.997276
1.03614 1.04113 0.997887 0.997316
1.03215 1.03832 0.996465 0.997579
1.02772 1.03146 0.998762 0.997604
0.999366 1.0016 1 0.997772
1.02969 1.03208 0.999965 0.997716
1.00332 1.00596 1.00029 0.997095
1.01377 1.01673 1.00051 0.996573
1.02198 1.02518 1 0.996882
0.99956 1 1 0.99956
0.999897 1 1.001 0.998897
1.00177 1 1.0034 0.998375
0.998502 1.00057 1 0.997935
1.00367 1 1.00574 0.997937
0.998586 1.00019 1.00047 0.997929
1 1 1 1
0.999634 1 1 0.999634
1.03172 1.0349 1 0.99693
1.00175 1 1.00296 0.998787
0.998775 1 1.00056 0.998216
1.00115 1 1.00299 0.998157
1.02228 1.0253 1 0.997056
1.02473 1.02784 1 0.996977
1.00179 1.00201 1.00229 0.997499
1.01036 1.01261 1.00077 0.997001
1.02251 1.02539 1 0.997188
0.999724 1 1 0.999724
0.999366 1 1.0003 0.999062
0.998797 1.0005 1.00041 0.99789
1.00318 1 1.00476 0.998426
0.999724 1 1.00164 0.998092
1.02968 1.03271 1 0.997068
1.02071 1.02373 1 0.997051
1.0232 1.02607 1 0.997211
1.00251 1.00202 1.00324 0.997249
1.00841 1.01155 1.00006 0.996842
0.999226 1 1 0.999226
1.00158 1 1.00294 0.998645
1.001 1.00125 1.002 0.997759
1.00235 1 1.00418 0.998175
0.998983 1 1.001 0.997989
1.0298 1.03248 0.999876 0.997523
1.01872 1.02182 1 0.996968
1.01981 1.02264 1 0.99723
1.00404 1.00263 1.00433 0.997087
1.00186 1.00523 1 0.996653
0.999773 1 1 0.999773
0.99928 1 1 0.99928
0.998994 1 1 0.998994
0.999285 1 1 0.999285
0.999341 1 1 0.999341
0.999045 1 1 0.999045
0.99891 1 1 0.99891
0.999002 1 1 0.999002
0.999347 1 1 0.999347
0.999812 1 1 0.999812
0.999816 1 1 0.999816
1 1 1 1
0.999812 1 1 0.999812
1 1 1 1
1 1 1 1
1 1 1 1
1 1 1 1
1 1 1 1
1 1 1 1
0.999985 1 1 0.999985
1 1 1 1
0.999935 1 1 0.999935
1 1 1 1
1 1 1 1
1.0357 1.03882 1 0.996996
1.03957 1.0426 1 0.997089
1.03701 1.04076 0.998994 0.997404
1.03858 1.04413 0.99729 0.997381
1.03914 1.04268 0.999502 0.997099
1.02359 1.02674 1 0.996923
1.03892 1.04224 0.999749 0.997059
1.03917 1.04449 0.997626 0.997279
1.03866 1.04287 0.998571 0.997385
1.0357 1.04326 0.995249 0.997492
1.0339 1.03677 1 0.997239
1.03482 1.03979 0.997589 0.997626
1.0386 1.04392 0.997634 0.997261
1.03709 1.04495 0.994993 0.997472
1.03625 1.04405 0.99493 0.997589
1.03333 1.03793 0.9979 0.997664
1.039 1.04207 0.999999 0.997062
1.03719 1.04026 1 0.997044
1.03666 1.04133 0.998222 0.997296
1.0359 1.039 0.999684 0.997334
0.999207 1.00117 1 0.998031
1.0037 1.00628 1 0.997441
1.01607 1.01876 1.00058 0.99678
1.02983 1.03268 1 0.99724
1.03068 1.03414 0.999008 0.997648
1.02702 1.02955 1 0.997545
1.02264 1.02585 1 0.996877
1.02646 1.02901 1 0.997522
0.998672 1.00069 1 0.997986
0.99895 1.00038 1.00054 0.998031
1.00497 1 1.00684 0.998137
0.999487 1 1.00008 0.999403
1.00115 1 1.00248 0.998673
1.03775 1.04361 0.997101 0.997278
1.03616 1.04125 0.997787 0.997313
1.032 1.03772 0.99691 0.997569
1.00027 1.00251 1 0.997765
1.00387 1.00649 1.00026 0.99714
1.01322 1.01594 1.00076 0.996562
1.02828 1.032 0.998795 0.997592
1.02269 1.0258 1 0.996971
1.02705 1.02965 0.999786 0.997689
0.999581 1 1 0.999581
0.999202 1.00128 1 0.997923
0.998355 1.00005 1.00026 0.998044
1.00412 1 1.00621 0.997921
1.00197 1 1.00358 0.998392
0.999849 1 1.00098 0.998867
1.03537 1.04366 0.994677 0.997362
1.03416 1.04391 0.993143 0.997497
1.02626 1.03562 0.993278 0.997666
1.02996 1.03582 0.996531 0.997808
1.001 1.00341 1 0.997594
1.02209 1.02482 1 0.997335
1.00301 1.00471 1.00165 0.996665
1.00723 1.0098 1.00104 0.996415
0.999726 1 1 0.999726
0.999126 1 1.00002 0.999107
1.00001 1 1.00143 0.998579
1.00355 1 1.00552 0.998042
0.999201 1.00121 1.00021 0.997785
1.00425 1 1.00651 0.997753
0.999729 1 1 0.999729
0.999169 1 1.0001 0.999066
1.02989 1.03293 1 0.997061
1.00345 1 1.00503 0.998422
0.998289 1.00013 1.00027 0.997889
0.999614 1 1.00152 0.998092
1.02129 1.02433 1 0.997041
1.0232 1.02603 1 0.997238
1.00286 1.00293 1.00273 0.997211
1.00728 1.01023 1.00027 0.996813
0.999229 1 1 0.999229
1.00146 1 1.00281 0.998648
1.00072 1.00097 1.00198 0.99777
1.00236 1 1.00419 0.998182
0.998549 1 1.00048 0.998074
1.03034 1.03315 0.999711 0.997563
1.01809 1.02117 1 0.996979
1.02122 1.02398 1 0.997303
1.00345 1.00183 1.00458 0.997049
1.00241 1.0058 1.00003 0.996597
0.998906 1 1 0.998906
1.00259 1 1.00431 0.99829
1.00249 1.0011 1.00378 0.997614
0.999466 1 1.0016 0.997867
1.03107 1.04372 0.990054 0.997804
1.02407 1.02664 0.999872 0.997625
1.01071 1.01401 1 0.99674
1.0037 1.00277 1.00426 0.996675
0.999298 1 1 0.999298
0.999007 1 1 0.999007
0.998887 1 1 0.998887
0.99934 1 1 0.99934
0.999014 1 1 0.999014
0.999346 1 1 0.999346
0.998899 1 1 0.998899
0.999016 1 1 0.999016
0.998842 1 1 0.998842
0.998832 1 1 0.998832
0.998973 1 1 0.998973
0.99933 1 1 0.99933
0.999798 1 1 0.999798
0.999811 1 1 0.999811
1 1 1 1
0.999816 1 1 0.999816
1 1 1 1
1 1 1 1
1 1 1 1
1 1 1 1
1 1 1 1
1 1 1 1
0.999999 1 1 0.999999
1 1 1 1
0.999978 1 1 0.999978
1 1 1 1
1 1 1 1
1.03319 1.03605 1 0.997239
1.03891 1.04287 0.998835 0.997367
1.03349 1.03889 0.997133 0.997669
1.0351 1.043 0.994909 0.997505
1.03945 1.04452 0.997863 0.997271
1.0393 1.04245 0.999938 0.997039
1.03839 1.04384 0.997511 0.99726
1.03669 1.04444 0.99511 0.997463
1.03555 1.04338 0.994892 0.997588
1.03505 1.03945 0.998085 0.997672
1.03707 1.04469 0.995276 0.997415
1.0376 1.04915 0.991342 0.997634
1.03785 1.04731 0.993234 0.997719
1.03819 1.04385 0.997288 0.997281
1.03616 1.04136 0.997695 0.99731
1.03193 1.03709 0.997461 0.997558
1.00111 1.00336 1 0.997758
1.00432 1.00698 1.00018 0.997185
1.0124 1.01505 1.00085 0.996551
1.02888 1.03255 0.998862 0.997579
1.0242 1.02693 0.999683 0.997661
1.02292 1.02593 1 0.997061
0.999627 1.00172 1 0.997912
0.998158 1 1 0.998158
1.00441 1 1.00651 0.997906
0.999602 1 1 0.999602
1.00153 1 1.00313 0.998408
0.999703 1 1.00087 0.998836
1.03606 1.04402 0.994994 0.99737
1.03396 1.04393 0.992929 0.997505
1.02652 1.03524 0.993906 0.997659
1.00057 1.003 1 0.997584
1.0026 1.00446 1.0014 0.996748
1.00694 1.00959 1.0009 0.996471
1.03009 1.03564 0.996819 0.997815
1.02195 1.02483 0.999874 0.997319
0.999774 1 1 0.999774
0.999107 1 1 0.999107
0.998424 1.00059 1 0.997832
1.00614 1.00012 1.00817 0.997862
1.00363 1 1.00557 0.998073
0.999967 1 1.00142 0.998554
1.03555 1.04686 0.991619 0.997554
1.02648 1.04207 0.987389 0.997627
1.02463 1.03561 0.991519 0.997857
1.02116 1.02754 0.995951 0.997833
1.00105 1.00287 1.00091 0.997274
1.00613 1.00813 1.0014 0.996623
1.00278 1.00369 1.00264 0.99646
0.999884 1 1 0.999884
0.999469 1 1 0.999469
0.999244 1 1 0.999244
0.998814 1 1.0001 0.998711
1.00066 1 1.00239 0.998273
1.00658 1 1.00867 0.997932
0.997973 1.0001 1 0.997872
1.02557 1.00012 1.02746 0.998044
0.999231 1 1 0.999231
1.00159 1 1.00294 0.99865
1.03079 1.03373 0.999548 0.997604
1.00282 1 1.00464 0.998188
1.00066 1.00073 1.00215 0.997782
0.998193 1 1.00004 0.998158
1.01708 1.02015 1 0.99699
1.0224 1.02509 1 0.997376
1.003 1.00118 1.00482 0.997012
1.00311 1.00659 1 0.996541
0.998965 1 1.00008 0.998881
1.00263 1 1.00433 0.998305
1.00282 1.00103 1.00415 0.997643
0.999317 1 1.00142 0.997901
1.03273 1.04485 0.990553 0.997821
1.02388 1.02641 0.999949 0.997581
1.0118 1.01507 1 0.996782
1.00444 1.00406 1.00377 0.996627
0.999439 1 1.00076 0.99868
1.0302 1.04782 0.985328 0.997826
1.00134 1 1.00334 0.998005
1.00175 1.00171 1.00268 0.997363
1.03054 1.03651 0.996324 0.99791
1.01154 1.01471 1 0.996879
1.00515 1.00547 1.00323 0.996462
0.99902 1 1 0.99902
0.99888 1 1 0.99888
0.998833 1 1 0.998833
0.999344 1 1 0.999344
0.999029 1 1 0.999029
0.998887 1 1 0.998887
0.999328 1 1 0.999328
0.998977 1 1 0.998977
0.998834 1 1 0.998834
0.998853 1 1 0.998853
0.99882 1 1 0.99882
0.998773 1 1 0.998773
0.99881 1 1.00003 0.998777
0.998944 1 1 0.998944
0.99929 1 1 0.99929
0.99978 1 1 0.99978
0.999797 1 1 0.999797
1 1 1 1
0.99981 1 1 0.99981
1 1 1 1
1 1 1 1
1 1 1 1
1 1 1 1
1 1 1 1
0.999912 1 1 0.999912
1 1 1 1
1 1 1 1
1 1 1 1
0.999998 1 1 0.999998
1 1 1 1
1 1 1 1
1.03679 1.04101 0.998265 0.997679
1.03481 1.04263 0.994895 0.997588
1.03626 1.04389 0.995228 0.997454
1.03819 1.04376 0.997401 0.99726
1.03662 1.04461 0.994909 0.997434
1.0377 1.04883 0.991751 0.997623
1.03692 1.0467 0.992909 0.99773
1.03741 1.04907 0.991256 0.997611
1.04303 1.05585 0.990092 0.997739
1.02844 1.04741 0.983878 0.997977
1.03677 1.04439 0.995319 0.997377
1.03371 1.04399 0.992613 0.997514
1.02656 1.03483 0.994348 0.997651
1.00066 1.00303 1.00006 0.997574
1.00253 1.00445 1.00126 0.996831
1.00719 1.00992 1.00078 0.996527
1.03032 1.03558 0.997096 0.997822
1.02187 1.02495 0.999694 0.997303
0.997954 1.00007 1 0.99788
1.00832 1.00042 1.00995 0.99797
1.00437 1 1.00628 0.998104
0.999821 1 1 0.999821
0.999107 1 1 0.999107
1.00018 1 1.00166 0.998529
1.03556 1.04719 0.991315 0.997566
0.99988 1 1 0.99988
0.999443 1 1 0.999443
1.02622 1.04125 0.987909 0.997628
1.02429 1.03571 0.991129 0.997825
1.00052 1.00212 1.00103 0.997365
1.00329 1.00356 1.0033 0.996442
1.00681 1.00938 1.00084 0.996621
1.02001 1.02658 0.995782 0.997813
0.999314 1 1 0.999314
0.998811 1 1.0001 0.998706
0.998678 1.00039 1.00051 0.997784
1.02035 1.00013 1.02207 0.998182
1.00526 1 1.00734 0.997938
1.00108 1 1.0028 0.99829
1.04186 1.05456 0.990237 0.997698
1.01186 1.03951 0.975586 0.997767
1.01891 1.03179 0.989478 0.998022
1.00409 1.01138 0.995257 0.99753
1.00164 1.00107 1.00319 0.997389
1.00364 1.00183 1.00547 0.996355
0.999443 1 1 0.999443
0.999418 1 1 0.999418
0.99916 1 1 0.99916
0.998796 1 1 0.998796
0.999206 1 1.00072 0.998484
1.00048 1 1.00248 0.998004
1.03438 1 1.03653 0.997926
1.00176 1.0002 1.00337 0.998199
0.999092 1 1.00024 0.998857
1.00226 1 1.00395 0.998321
1.03386 1.04528 0.991222 0.997838
1.02371 1.02624 1 0.997537
0.999085 1 1.00115 0.997935
1.00308 1.00101 1.00441 0.997671
1.01323 1.01643 1.00004 0.996823
1.005 1.00508 1.00335 0.996578
0.99957 1 1.0009 0.998669
1.03174 1.05006 0.984659 0.997865
1.00127 1 1.00325 0.998024
1.00138 1.00138 1.00269 0.997317
1.02917 1.03582 0.995688 0.997884
1.01171 1.01481 1 0.996944
1.00531 1.00536 1.00348 0.996478
1.00068 1 1.00232 0.998367
1.01792 1.03541 0.98482 0.998261
1.0013 1.00163 1.00191 0.997764
1.00301 1.00224 1.00379 0.996985
1.01478 1.02128 0.996113 0.997515
1.00217 1.00333 1.00221 0.99664
0.99597 1.00602 0.991886 0.998107
0.998874 1 1 0.998874
0.998995 1 1.00017 0.998829
0.998823 1 1.0001 0.99872
0.999326 1 1 0.999326
0.998981 1 1 0.998981
0.998875 1 1 0.998875
0.998827 1 1 0.998827
0.999289 1 1 0.999289
0.998934 1 1 0.998934
0.998794 1 1 0.998794
0.998785 1 1.00001 0.998777
0.998777 1 1 0.998777
0.998773 1 1 0.998773
0.99889 1 1.00027 0.998624
0.998862 1 1.0001 0.998762
0.998853 1 1 0.998853
0.999197 1 1 0.999197
0.999003 1 1 0.999003
0.999183 1 1 0.999183
0.999769 1 1 0.999769
0.999779 1 1 0.999779
1 1 1 1
0.999795 1 1 0.999795
1 1 1 1
1 1 1 1
1 1 1 1
1 1 1 1
1 1 1 1
0.999932 1 1 0.999932
0.99991 1 1 0.99991
1 1 1 1
1 1 1 1
1 1 1 1
1 1 1 1
1 1 1 1
1 1 1 1
1.03611 1.0463 0.992506 0.99774
1.03775 1.04854 0.992084 0.997613
1.03618 1.04453 0.994543 0.997453
1.03736 1.04895 0.991324 0.997609
1.04114 1.05391 0.990124 0.997736
1.02904 1.04683 0.985046 0.997927
1.0429 1.05816 0.987747 0.997802
0.985692 1.01603 0.973129 0.996931
1.0083 1.03252 0.97794 0.998571
0.999538 1 1 0.999538
1.03555 1.04745 0.991041 0.997578
1.02632 1.04053 0.988686 0.997628
1.02413 1.03588 0.990846 0.997794
0.999404 1.00113 1.00082 0.997455
1.0035 1.00307 1.00402 0.996424
1.00735 1.01031 1.00045 0.996619
1.01864 1.02537 0.995636 0.997792
0.998233 1.00054 1 0.997698
1.01478 1 1.01648 0.998323
1.00367 1 1.00574 0.997943
0.999876 1 1 0.999876
1.00133 1 1.00303 0.998308
0.999382 1 1 0.999382
0.998762 1 1.00006 0.998701
0.999418 1 1 0.999418
1.03969 1.05485 0.987896 0.997706
0.999478 1 1 0.999478
0.999417 1 1 0.999417
0.999122 1 1 0.999122
1.01451 1.03921 0.978412 0.997768
1.01921 1.03226 0.989362 0.997977
1.00038 1.00098 1.00199 0.997412
1.00375 1.00177 1.00556 0.996434
1.00325 1.00961 0.996174 0.99752
0.998837 1 1 0.998837
0.999268 1 1.00082 0.998449
1.0063 1.0001 1.0081 0.998115
1.02791 1 1.03 0.997964
1.00032 1 1.00229 0.998037
1.02852 1.04676 0.984752 0.997795
1.00692 1.03812 0.97199 0.997896
1.01127 1.01996 0.993754 0.997713
0.996849 1.00398 0.995577 0.997303
1.00325 1 1.00552 0.997736
0.999063 1 1 0.999063
0.99897 1 1 0.99897
0.998884 1 1.00003 0.998851
0.998925 1 1.00035 0.998577
1.00015 1 1.00187 0.998285
1.0234 1 1.02547 0.997987
1.02345 1 1.02556 0.997936
0.999605 1 1.00095 0.998658
1.0012 1 1.00316 0.998043
1.03265 1.05288 0.982845 0.997903
1.02788 1.03539 0.994885 0.997857
1.01154 1.01458 1 0.997009
1.00108 1.00114 1.00268 0.997272
1.00517 1.00509 1.0036 0.996494
1.00061 1 1.00221 0.998408
1.01578 1.03532 0.982814 0.998283
1.00022 1.00106 1.00138 0.997784
1.00256 1.0015 1.00408 0.996992
1.01523 1.02155 0.996193 0.997612
1.00211 1.00277 1.00273 0.996627
0.995252 1.00573 0.992156 0.997403
1.0003 1.00008 1.002 0.998225
1.00712 1.02023 0.988883 0.998246
1.00046 1.00075 1.00194 0.997767
1.00436 1.00085 1.00644 0.997089
0.995898 1.0058 0.992832 0.997303
0.943192 0.982815 0.977212 0.982064
0.952942 0.980844 0.980377 0.990999
0.983803 0.993661 0.991932 0.998133
0.809137 0.87636 0.950338 0.971542
0.749132 0.861605 0.901376 0.964593
0.999004 1 1.00018 0.998826
0.999119 1 1.00037 0.998749
0.998875 1 1.00013 0.99874
0.999288 1 1 0.999288
0.998923 1 1 0.998923
0.998777 1 1 0.998777
0.998781 1 1 0.998781
0.998767 1 1 0.998767
0.999248 1 1.00051 0.998739
0.999225 1 1 0.999225
0.99887 1 1 0.99887
0.998761 1 1 0.998761
0.999243 1 1.0006 0.998641
1.00034 1 1.00169 0.99865
1.00038 1 1.00171 0.998663
0.999328 1 1.00066 0.99867
0.998819 1 1 0.998819
0.999177 1 1 0.999177
0.998894 1 1 0.998894
0.99883 1 1 0.99883
0.998993 1 1 0.998993
0.998968 1 1 0.998968
0.999269 1 1 0.999269
0.999181 1 1 0.999181
0.999764 1 1 0.999764
0.999769 1 1 0.999769
1 1 1 1
0.999777 1 1 0.999777
1 1 1 1
1 1 1 1
1 1 1 1
1 1 1 1
1 1 1 1
0.999944 1 1 0.999944
0.999928 1 1 0.999928
1 1 1 1
0.999908 1 1 0.999908
1 1 1 1
1 1 1 1
1 1 1 1
1 1 1 1
1 1 1 1
1.03908 1.05182 0.990129 0.997734
1.03735 1.04885 0.991415 0.997607
1.03015 1.04644 0.986523 0.997877
0.989851 1.01587 0.977332 0.996989
1.04027 1.05574 0.98752 0.997801
1.01683 1.03525 0.983714 0.998464
1.03373 1.0429 0.993298 0.997894
0.947402 0.983106 0.97326 0.990158
0.999012 1.01935 0.982444 0.997559
0.999545 1 1 0.999545
0.999536 1 1 0.999536
0.999164 1 1 0.999164
0.999206 1 1 0.999206
1.03777 1.05503 0.985894 0.997713
1.01636 1.03841 0.980947 0.997769
1.01926 1.03248 0.989236 0.997931
0.999307 1.00072 1.00116 0.997434
1.00378 1.00193 1.00536 0.996513
1.00252 1.00835 0.996708 0.997509
1.01139 1 1.01338 0.99803
1.02167 1 1.02371 0.998001
0.999975 1 1.00191 0.998071
0.999416 1 1 0.999416
0.99912 1 1.00071 0.998413
0.998879 1 1 0.998879
0.999513 1 1 0.999513
0.999083 1 1 0.999083
1.02605 1.04637 0.982731 0.997809
0.999109 1 1 0.999109
0.999013 1 1 0.999013
0.998927 1 1 0.998927
1.01004 1.04032 0.972939 0.997894
1.01004 1.01938 0.993112 0.997712
1.00288 1.00005 1.00512 0.99772
0.997886 1.00441 0.99615 0.997346
0.999121 1 1.00056 0.998558
0.999752 1 1.00152 0.99823
1.02606 1.00002 1.02817 0.997926
1.0245 1 1.0266 0.997948
1.00304 1.03602 0.970171 0.997936
1.00096 1.02744 0.976321 0.997857
1.00371 1.00811 0.998222 0.997408
0.991705 1.00034 0.99329 0.99807
0.99873 1 1 0.99873
0.999487 1 1.00081 0.998673
1.0079 1 1.0095 0.998414
1.04045 1 1.04269 0.997853
0.920005 0.971868 0.965438 0.980524
1.00088 1 1.00243 0.998449
0.999351 1.00046 1.00109 0.997804
1.01456 1.03508 0.981838 0.998304
1.01592 1.02206 0.996268 0.997708
1.0024 1.0025 1.0033 0.996613
1.00226 1.0008 1.00447 0.996999
0.995664 1.00559 0.993418 0.996684
1.00023 1.00003 1.00193 0.998268
1.00782 1.02072 0.989115 0.998235
0.999934 1.00072 1.00144 0.99778
1.00408 1.0009 1.00611 0.997087
0.998536 1.0068 0.994453 0.99732
0.942097 0.98699 0.973387 0.980613
0.948291 0.978552 0.980065 0.988787
0.983893 0.991889 0.993775 0.998152
0.808973 0.874222 0.952151 0.971866
0.733773 0.850557 0.897103 0.961648
0.999674 1 1.00121 0.998465
0.83613 0.897143 0.957746 0.973109
0.791934 0.866273 0.946273 0.96609
0.98851 1.00713 0.983345 0.998131
1.00554 1.00081 1.00672 0.998013
1.01219 1.00412 1.01054 0.997524
0.974996 0.987674 0.988818 0.998327
0.937503 0.97079 0.984732 0.980684
0.929964 0.955664 0.985191 0.987735
0.788297 0.87532 0.925788 0.972773
0.810116 0.908619 0.923117 0.965848
0.999603 1 1.00083 0.998778
0.999608 1 1.00088 0.998724
1.00029 1 1.00135 0.998935
0.999252 1 1 0.999252
0.998886 1 1 0.998886
0.999513 1 1.0008 0.998715
0.999642 1 1.00099 0.998658
0.99875 1 1 0.99875
0.999178 1 1 0.999178
1.00008 1 1.00143 0.998644
0.999687 1 1.001 0.998687
0.998848 1 1 0.998848
1.00006 1 1.0014 0.99867
1.00151 1 1.00287 0.998643
1.00246 1 1.00374 0.998723
0.998686 1 1.00004 0.99865
0.998856 1 1 0.998856
0.99889 1 1 0.99889
0.998823 1 1 0.998823
0.998718 1 1 0.998718
0.999018 1 1.00019 0.998824
0.998966 1 1.00018 0.998782
0.999618 1 1.00097 0.99865
0.999168 1 1.0002 0.998965
0.998993 1 1 0.998993
0.999293 1 1 0.999293
0.998934 1 1 0.998934
0.999245 1 1 0.999245
0.999759 1 1 0.999759
0.999178 1 1 0.999178
0.999765 1 1 0.999765
1 1 1 1
0.999768 1 1 0.999768
1 1 1 1
1 1 1 1
1 1 1 1
1 1 1 1
1 1 1 1
0.999513 1 1 0.999513
0.999944 1 1 0.999944
0.999942 1 1 0.999942
1 1 1 1
0.999925 1 1 0.999925
1 1 1 1
1 1 1 1
1 1 1 1
1 1 1 1
1 1 1 1
0.992992 1.01579 0.980445 0.997051
1.03829 1.05323 0.987992 0.997799
1.02235 1.03795 0.986592 0.998356
0.941902 0.977067 0.972607 0.99116
0.9993 1.01907 0.982877 0.997683
1.03502 1.0461 0.991531 0.997851
1.01442 1.02557 0.991579 0.997529
0.956242 0.978614 0.984888 0.992132
0.942856 0.980707 0.980744 0.980281
0.795472 0.871051 0.939349 0.972197
0.725832 0.83026 0.906912 0.963956
0.999158 1 1 0.999158
0.999544 1 1 0.999544
0.999534 1 1 0.999534
0.999152 1 1 0.999152
0.998923 1 1 0.998923
0.998956 1 1 0.998956
0.99913 1 1 0.99913
0.999177 1 1 0.999177
1.02324 1.04639 0.980005 0.997823
1.01423 1.0436 0.973912 0.997893
1.00912 1.01878 0.992783 0.997711
1.0028 1.00018 1.00493 0.997705
0.999049 1.00447 0.997202 0.99739
1.02837 1 1.03052 0.997916
1.02609 1 1.02824 0.99791
0.999625 1 1.00145 0.998176
0.999056 1 1 0.999056
0.999004 1 1.00046 0.99854
0.999156 1 1 0.999156
0.999003 1 1 0.999003
1.00394 1.03657 0.970529 0.997931
0.998769 1 1.00001 0.998759
0.998995 1 1.00029 0.998704
1.00104 1.02678 0.977056 0.997834
1.00102 1.00763 0.995912 0.997526
0.993995 1.00074 0.995272 0.997978
1.01129 1 1.01299 0.998319
1.03625 1 1.03846 0.99787
0.997242 1.0267 0.973336 0.99792
0.985686 1.00825 0.979688 0.997892
0.986865 1.00089 0.988049 0.997917
0.998936 1.00029 1.00048 0.998164
0.999739 1 1.00126 0.99848
1.00389 1 1.00545 0.998449
1.03473 1 1.03668 0.99812
0.826472 0.904286 0.938329 0.974019
0.936001 0.976945 0.974768 0.98289
0.999759 1 1.00145 0.998311
0.999501 1.00064 1.00107 0.997793
1.00871 1.02144 0.989295 0.998225
1.00089 1.00776 0.995829 0.997338
1.00384 1.00105 1.00571 0.997087
0.937249 0.977333 0.978017 0.980541
0.953951 0.98496 0.97888 0.989415
0.984462 0.990434 0.995798 0.998164
0.807166 0.875813 0.946993 0.973205
0.721074 0.839688 0.895793 0.958637
0.999716 1 1.00126 0.998463
0.831183 0.901461 0.947046 0.973595
0.7839 0.858742 0.946292 0.964657
0.989685 1.00796 0.983714 0.998126
1.00533 1.00093 1.00637 0.998039
1.01022 1.00244 1.0101 0.997676
0.967197 0.981657 0.986801 0.998448
0.942342 0.979654 0.982613 0.978934
0.930806 0.959955 0.979569 0.989859
0.791379 0.870547 0.935986 0.971233
0.807385 0.911384 0.917985 0.965036
1.0012 1 1.00241 0.99879
0.82163 0.876827 0.968267 0.967759
0.893812 0.941481 0.974835 0.973876
0.990084 0.999545 0.991806 0.998718
1.01351 1.00252 1.0123 0.998688
0.977771 0.971792 1.00772 0.998447
0.917282 0.942817 0.981834 0.990917
0.919069 0.947992 0.990975 0.97832
0.802124 0.877411 0.940697 0.971826
0.842022 0.938342 0.926406 0.968637
1.00028 1 1.00157 0.998708
1.00011 1 1.0012 0.998906
1.00384 1 1.00472 0.999125
0.999178 1 1 0.999178
0.998877 1 1 0.998877
1.00014 1 1.00144 0.998704
1.00001 1 1.00138 0.998637
0.999909 1 1.00123 0.998678
0.998854 1 1 0.998854
1.00056 1 1.00192 0.998641
0.998691 1 1.00004 0.998651
1.0035 1 1.00475 0.998763
1.01842 0.999816 1.0195 0.999124
1.0004 1 1.00177 0.998632
0.998617 1 1 0.998617
0.998887 1 1 0.998887
0.998815 1 1 0.998815
0.998715 1 1 0.998714
0.999034 1 1.00022 0.998818
0.998971 1 1.00016 0.998816
0.999692 1 1.00093 0.998758
0.998941 1 1.00023 0.998708
0.99962 1 1.00081 0.998808
0.998717 1 1.00014 0.998578
0.999021 1 1.00093 0.998094
0.999544 1 1.00102 0.99853
0.999579 1 1.00093 0.998647
0.999602 1 1.00071 0.998892
0.999293 1 1.00033 0.998963
0.999285 1 1 0.999285
0.999039 1 1.00005 0.998992
0.999294 1 1 0.999294
0.999757 1 1 0.999757
0.999221 1 1 0.999221
0.99976 1 1 0.99976
1 1 1 1
0.999765 1 1 0.999765
1 1 1 1
1 1 1 1
1 1 1 1
1 1 1 1
1 1 1 1
0.99953 1 1 0.99953
0.999931 1 1 0.999931
0.999514 1 1 0.999514
1 1 1 1
0.999945 1 1 0.999945
0.99994 1 1 0.99994
1 1 1 1
1 1 1 1
1 1 1 1
1 1 1 1
1 1 1 1
0.827365 0.89189 0.954168 0.972212
0.791338 0.865845 0.945732 0.966393
0.944426 0.981307 0.970519 0.991651
1.00089 1.01871 0.984658 0.99781
1.0379 1.04931 0.991294 0.997807
0.941449 0.966205 0.980765 0.993488
1.01333 1.02498 0.990993 0.997619
0.950325 0.988979 0.978968 0.981561
0.804588 0.875788 0.945514 0.971644
0.72033 0.833434 0.8994 0.960965
0.971189 0.996622 0.979225 0.995156
0.940574 0.973745 0.984442 0.9812
0.782597 0.871997 0.923179 0.972159
0.79675 0.898989 0.918972 0.964418
0.999039 1 1.00023 0.998811
0.999184 1 1 0.999184
0.999543 1 1 0.999543
0.999139 1 1 0.999139
0.998964 1 1 0.998964
0.999289 1 1.00047 0.998816
0.998948 1 1 0.998948
0.998923 1 1 0.998923
0.999097 1 1 0.999097
0.999148 1 1 0.999148
1.00526 1.03661 0.971775 0.997927
0.999316 1.02485 0.977223 0.997813
0.998396 1.00752 0.993286 0.997644
0.995754 1.00097 0.996892 0.997887
1.03126 1.00004 1.0334 0.997887
1.01547 1 1.01727 0.998224
0.998736 1 1 0.998736
0.998788 1 1 0.998788
0.996972 1.02698 0.972769 0.997953
1.00041 1 1.00195 0.998458
1.00402 1 1.00562 0.998414
0.985176 1.00667 0.980793 0.997812
0.985428 1.00044 0.986951 0.99802
1.00017 1.00094 1.00116 0.99807
1.03093 1 1.0329 0.99809
0.993548 1.00433 0.990998 0.998251
0.980739 1 0.982061 0.998654
1.01425 1.00047 1.01554 0.998258
1.00379 1 1.00537 0.998431
1.0029 1 1.00462 0.998292
1.01911 1 1.02093 0.998212
0.837393 0.888286 0.96961 0.972254
0.836589 0.903455 0.950802 0.973903
0.925776 0.974906 0.968409 0.980583
0.999682 1 1.00122 0.998461
1.00507 1.00089 1.00612 0.998064
0.991842 1.00862 0.985215 0.998123
1.00877 1.00088 1.01009 0.997826
0.823493 0.896046 0.943669 0.97389
0.941449 0.976928 0.98257 0.980779
0.921884 0.956593 0.975591 0.987828
0.963153 0.976846 0.987394 0.99857
0.790904 0.870336 0.936507 0.970345
0.785868 0.862983 0.94383 0.964836
0.795165 0.901823 0.912892 0.965865
1.00185 1 1.00307 0.998793
0.822994 0.880281 0.964652 0.969181
0.901652 0.947924 0.976845 0.973734
0.991724 0.999551 0.993355 0.998807
1.0133 1.00111 1.01353 0.998658
0.974603 0.97035 1.0058 0.998591
0.916417 0.945849 0.979768 0.98889
0.92229 0.952431 0.988091 0.980025
0.819646 0.895625 0.942235 0.971273
0.82935 0.926861 0.923004 0.969437
1.00525 0.999726 1.00608 0.999444
0.90542 0.949313 0.975144 0.978074
0.881168 0.937415 0.961247 0.977894
0.997154 0.983337 1.01434 0.999715
0.937662 0.943628 0.999627 0.994048
0.92735 0.945403 1.00183 0.979112
0.856937 0.915549 0.964277 0.970657
0.854183 0.955269 0.92323 0.968535
0.999865 1 1.00099 0.998876
1.00314 1 1.00402 0.999128
1.01845 1 1.0191 0.999358
0.998853 1 1 0.998853
0.998653 1 1 0.998653
0.999404 1 1.00077 0.998638
1.00435 1 1.00555 0.998803
0.998615 1 1 0.998615
1.00085 1 1.00223 0.998625
1.0212 1 1.02203 0.999188
1.03242 0.997257 1.03584 0.999446
1.02078 1 1.02174 0.999069
0.9986 1 1 0.9986
0.998709 1 1 0.998709
0.998912 1 1.0001 0.998812
0.998849 1 1 0.998849
0.998791 1 1.00007 0.998722
0.999487 1 1.00073 0.998758
0.999805 1 1.00099 0.998818
0.999345 1 1.00063 0.998715
1.00297 1 1.00396 0.99902
0.998646 1 1 0.998646
0.998882 1.00005 1.00023 0.998606
0.998956 1 1.00069 0.998263
0.999061 1 1.00153 0.997539
1.00041 1 1.00198 0.998441
0.999006 1 1.00079 0.998215
0.999475 1 1.00092 0.99856
0.9998 1 1.00105 0.998753
0.999539 1 1.0009 0.998645
0.99938 1 1.00049 0.998891
0.999229 1 1 0.999229
0.999261 1 1.0003 0.99896
0.999283 1 1 0.999283
0.999751 1 1 0.999751
0.999295 1 1 0.999295
0.999757 1 1 0.999757
0.999999 1 1 0.999999
0.999761 1 1 0.999761
1 1 1 1
1 1 1 1
1 1 1 1
1 1 1 1
1 1 1 1
0.999359 1 1 0.999359
0.999907 1 1 0.999907
0.99947 1 1 0.99947
1 1 1 1
0.999934 1 1 0.999934
0.999515 1 1 0.999515
1 1 1 1
1 1 1 1
0.999946 1 1 0.999946
1 1 1 1
1 1 1 1
1 1 1 1
0.821294 0.878655 0.963653 0.969973
0.83228 0.899363 0.95141 0.972672
0.89956 0.948595 0.974126 0.973497
0.784074 0.860176 0.944252 0.965344
0.940093 0.972607 0.975 0.991354
1.01088 1.02438 0.989085 0.997715
0.957128 0.98876 0.985022 0.982728
0.809653 0.879501 0.946654 0.972459
0.719471 0.840049 0.894074 0.957933
0.969163 0.993171 0.981331 0.994391
0.937627 0.974165 0.983648 0.978494
0.795334 0.880048 0.930928 0.970794
0.798535 0.903045 0.918187 0.963061
0.95058 0.980941 0.976008 0.99287
0.930776 0.952417 0.999301 0.977962
0.820578 0.90089 0.938812 0.970219
0.836215 0.937985 0.922405 0.966497
0.999857 1 1.00125 0.998609
0.998849 1 1 0.998849
0.99921 1 1 0.99921
0.999004 1 1 0.999004
0.998695 1 1.00012 0.998571
0.998909 1 1.00006 0.998846
0.99894 1 1 0.99894
0.998888 1 1 0.998888
0.998955 1 1 0.998955
0.999065 1 1 0.999065
0.998243 1.02822 0.972808 0.997985
0.986967 1.00602 0.983289 0.997735
0.984362 1.00031 0.98591 0.998122
1.00265 1.00185 1.00283 0.997979
1.02594 1 1.02793 0.998059
1.00332 1 1.00495 0.99838
1.00069 1 1.00226 0.998435
1.00291 1 1.0045 0.998411
0.98978 1.0049 0.986671 0.998258
1.00218 1 1.00389 0.998294
1.01873 1 1.02056 0.998204
0.980126 1.00037 0.981148 0.998588
1.0134 1.00122 1.01396 0.998226
0.962623 0.988349 0.975209 0.99873
0.998261 0.996689 1.00234 0.999242
1.03068 1 1.03225 0.998474
1.00134 1 1.00303 0.998306
1.00894 1 1.01074 0.998226
0.911264 0.949878 0.978628 0.980299
0.841363 0.888313 0.974338 0.972094
0.826507 0.897877 0.945845 0.973217
1.00244 1 1.00365 0.998796
1.01293 0.99973 1.0146 0.998628
0.991016 0.999155 0.992953 0.998893
0.830065 0.885038 0.966868 0.970026
0.931314 0.951699 1.0005 0.978091
0.916917 0.944405 0.980447 0.990256
0.964301 0.965902 0.999633 0.99871
0.819806 0.895017 0.942386 0.971966
0.907493 0.952081 0.979003 0.973612
0.832163 0.929275 0.923633 0.969539
1.00403 0.999238 1.00539 0.999414
0.901935 0.947465 0.972211 0.979155
0.882638 0.938756 0.961463 0.977905
0.999572 0.986677 1.01351 0.999564
0.946197 0.950437 1.00185 0.993703
0.91067 0.940389 0.990976 0.977217
0.856764 0.956429 0.924055 0.969416
0.863479 0.919668 0.966904 0.971041
1.00485 0.989438 1.01587 0.999711
0.88367 0.933039 0.961509 0.985002
0.896035 0.953477 0.960018 0.978893
0.837196 0.938099 0.92326 0.966617
0.980409 0.967773 1.01465 0.998427
0.950737 0.959048 1.01154 0.980027
0.885814 0.931899 0.978237 0.971693
1.00297 1 1.00384 0.999128
1.01845 1 1.01919 0.99928
1.01978 0.992734 1.02769 0.999566
0.998613 1 1 0.998613
1.00115 1 1.00254 0.998618
1.02507 1 1.02584 0.999251
0.99861 1 1 0.99861
1.01964 1 1.02058 0.99908
1.03479 0.997292 1.0382 0.999421
1.02099 0.995958 1.02566 0.999489
1.0144 1 1.01535 0.999065
0.99874 1 1 0.998737
0.999415 1 1.00066 0.998758
1.0001 1 1.00127 0.998829
1.00226 1 1.00326 0.998997
0.999153 1 1.00043 0.99872
1.00128 1 1.00234 0.998937
0.998838 1 1 0.998838
1.00091 1 1.00292 0.997996
0.99901 1.00011 1.00027 0.998636
0.998869 1.0001 1.00057 0.998208
0.998357 1 1.00101 0.997347
1.00208 1.00339 1.00129 0.997409
1.0006 1 1.00242 0.998181
0.998968 1.00002 1.00138 0.99757
1.00171 1 1.00311 0.998603
1.00075 1 1.00234 0.998414
0.998981 1 1.00065 0.998336
0.999416 1 1.00083 0.99859
0.999599 1 1.00081 0.998787
0.999141 1 1 0.999141
0.99928 1 1.00039 0.998889
0.999228 1 1 0.999228
0.999724 1 1 0.999724
0.999282 1 1 0.999282
0.999749 1 1 0.999749
0.999999 1 1 0.999999
0.999757 1 1 0.999757
0.999999 1 1 0.999999
1 1 1 1
1 1 1 1
1 1 1 1
1 1 1 1
0.999171 1 1 0.999171
0.999767 1 1 0.999767
0.999358 1 1 0.999358
1 1 1 1
0.999868 1 1 0.999868
0.99941 1 1 0.99941
1 1 1 1
1 1 1 1
0.999938 1 1 0.999938
1 1 1 1
1 1 1 1
1 1 1 1
0.89875 0.947431 0.969126 0.978838
0.813439 0.877196 0.955447 0.970559
0.830941 0.895832 0.953838 0.972454
0.998776 1 1 0.998776
0.884938 0.934606 0.966801 0.979371
0.898564 0.94836 0.973386 0.973398
0.782436 0.863795 0.937702 0.96599
0.974445 0.995104 0.985712 0.993434
0.937804 0.970794 0.984948 0.98078
0.801871 0.892178 0.9267 0.96987
0.792988 0.89431 0.920346 0.963446
0.950196 0.97976 0.979268 0.990358
0.9194 0.948331 0.98934 0.979939
0.83134 0.904906 0.946737 0.970389
0.833706 0.932768 0.924721 0.96656
0.922789 0.95273 0.980222 0.988116
0.924543 0.940541 1.00533 0.977779
0.872984 0.928743 0.968036 0.971001
0.854516 0.954123 0.924725 0.968508
0.999833 1 1.00143 0.998405
1.00048 1 1.0019 0.998576
0.998886 1 1 0.998886
0.998583 1 1 0.998583
0.998856 1 1.00024 0.99862
0.998877 1 1 0.998877
0.998896 1 1 0.998896
0.998987 1 1 0.998987
0.98429 1.00531 0.980793 0.998263
0.978102 1.00018 0.979371 0.998525
1.00232 1 1.00394 0.99839
1.01302 1.00198 1.01286 0.998191
1.02032 1 1.02216 0.998195
1.00201 1 1.00372 0.998295
1.00165 1 1.00334 0.998313
0.968709 0.990652 0.979037 0.998787
1.01051 1 1.01227 0.998262
1.02457 1.00029 1.02582 0.998488
0.993207 0.996559 0.997349 0.999285
1.00048 1 1.00212 0.998367
0.960123 0.978927 0.981903 0.998868
1.00634 0.992694 1.0143 0.999454
1.04401 0.999428 1.0461 0.998576
1.00227 1 1.00388 0.998402
0.895852 0.936299 0.969849 0.986546
0.910302 0.949225 0.978171 0.980397
0.846715 0.888433 0.980563 0.971935
1.00229 0.998673 1.00424 0.999387
1.00353 0.990121 1.01414 0.999417
0.899797 0.94675 0.969582 0.980222
0.935093 0.944274 1.01079 0.979701
0.938825 0.948543 0.998773 0.99097
0.86667 0.923057 0.967918 0.970032
0.883585 0.939708 0.961514 0.977912
0.860401 0.958463 0.925171 0.970295
1.00709 0.993092 1.01443 0.999669
0.88487 0.933769 0.962075 0.984989
0.89412 0.951462 0.958467 0.980455
0.989917 0.974583 1.01607 0.999673
0.833967 0.932723 0.924989 0.966628
0.933746 0.946159 1.00826 0.978796
0.895336 0.943096 0.977561 0.97115
1.00701 0.987838 1.01964 0.99977
0.901064 0.949363 0.962222 0.986389
0.88432 0.934199 0.966436 0.979483
0.795506 0.898845 0.917559 0.96455
0.872543 0.929719 0.966905 0.970625
0.964246 0.96196 1.0055 0.996889
0.952607 0.952523 1.02446 0.976211
1.01581 1 1.01662 0.999204
1.01995 0.992723 1.0279 0.999534
1.00567 0.981404 1.02516 0.999582
0.99862 1 1 0.99862
1.01903 1 1.01996 0.999092
1.03566 0.998282 1.03807 0.999396
1.01034 1 1.0113 0.999049
1.02083 0.996892 1.02454 0.999488
1.01085 0.995189 1.01651 0.999242
1.00133 1 1.00236 0.998973
0.999039 1 1.00031 0.998725
1.00261 1 1.0037 0.998913
1.0066 1 1.00827 0.998342
0.999028 1 1 0.999028
1.00031 1 1.00218 0.998133
1.00162 1.0003 1.00413 0.997209
1.00261 1.00394 1.00188 0.996801
0.998774 1.00022 1.0004 0.998151
0.998759 1.00045 1.00109 0.997213
1.00316 1.00515 1.00053 0.997501
1.00177 1.00131 1.00261 0.997858
1.00213 1.00341 1.00125 0.997475
1.004 1 1.00558 0.998427
1.00093 1.00004 1.00273 0.998169
0.998877 1 1.00128 0.997601
0.999142 1 1.00015 0.998994
1.00162 1 1.00302 0.998604
1.0012 1 1.00282 0.998386
0.999382 1 1.00056 0.99882
0.999139 1 1 0.999139
0.99967 1 1 0.99967
0.999228 1 1 0.999228
0.999721 1 1 0.999721
0.999998 1 1 0.999998
0.999747 1 1 0.999747
0.999999 1 1 0.999999
1 1 1 1
0.999999 1 1 0.999999
1 1 1 1
1 1 1 1
0.999094 1 1 0.999094
0.999666 1 1 0.999666
0.999206 1 1 0.999206
1 1 1 1
0.999758 1 1 0.999758
0.999356 1 1 0.999356
1 1 1 1
1 1 1 1
0.999829 1 1 0.999829
1 1 1 1
1 1 1 1
1 1 1 1
0.88745 0.934524 0.963846 0.985249
0.90154 0.947296 0.972291 0.978821
0.813487 0.878064 0.954428 0.970693
0.998799 1 1 0.998799
0.998737 1 1 0.998737
0.998639 1 1 0.998639
0.893761 0.953602 0.957568 0.97878
0.882317 0.934197 0.964339 0.979391
0.899246 0.948223 0.974362 0.973302
0.955 0.982632 0.979561 0.992158
0.915909 0.947592 0.98841 0.977899
0.820762 0.889826 0.949081 0.971871
0.845985 0.940898 0.93086 0.965908
0.927323 0.955107 0.980352 0.990369
0.923221 0.941091 1.0026 0.978469
0.855344 0.908695 0.968297 0.972107
0.855816 0.955799 0.923697 0.969357
0.916171 0.944653 0.980941 0.988694
0.938206 0.948796 1.00986 0.979183
0.886393 0.930045 0.980625 0.971895
0.84402 0.939059 0.92799 0.968539
0.998436 1 1.00003 0.998404
1.00027 1 1.00188 0.99839
1.00037 1 1.00183 0.998542
0.998577 1 1 0.998577
0.99867 1 1 0.99867
0.998904 1 1 0.998904
0.975525 0.992898 0.983652 0.998831
0.988323 0.996612 0.992356 0.999321
1.00188 1 1.00357 0.99832
1.01789 1.00052 1.01888 0.998502
1.01166 1 1.01338 0.998299
1.00067 1 1.00233 0.99834
1.00159 1 1.00317 0.998424
0.968824 0.980576 0.989066 0.998938
1.03856 0.999626 1.04031 0.9987
1.00755 0.988621 1.01971 0.999451
1.00062 1 1.00207 0.998551
0.981605 0.968558 1.01454 0.998946
1.00667 0.98519 1.02231 0.9995
1.03121 0.999407 1.03303 0.998824
0.914411 0.953382 0.970632 0.988143
0.895871 0.936411 0.969323 0.986984
0.90968 0.94856 0.978094 0.980491
1.01076 0.997205 1.01397 0.999627
0.981707 0.973852 1.00919 0.998888
0.886361 0.934671 0.962778 0.984976
0.930335 0.936849 1.01064 0.98259
0.891786 0.9402 0.976756 0.971078
0.893461 0.949785 0.957924 0.982017
0.847058 0.941036 0.931785 0.966031
1.00334 0.985784 1.01803 0.999788
0.902184 0.949594 0.962666 0.986919
0.88337 0.934742 0.964817 0.979504
0.962836 0.958922 1.01042 0.993729
0.797266 0.902444 0.917154 0.963253
0.852402 0.909978 0.964034 0.971676
0.961275 0.956396 1.02657 0.979091
1.00033 0.968365 1.03369 0.999345
0.888327 0.934959 0.964247 0.985353
0.903059 0.951155 0.975073 0.973706
0.724394 0.827978 0.907282 0.964304
0.818774 0.899468 0.938223 0.970224
0.936672 0.946752 1.01092 0.978669
0.942237 0.954469 0.995462 0.991684
1.02249 0.993025 1.03019 0.999501
1.00914 0.98676 1.02311 0.999586
1.01496 0.992497 1.02312 0.999529
1.00643 1 1.00741 0.999034
1.0209 0.997513 1.02397 0.999487
1.01304 0.994261 1.01958 0.999322
1.01041 1 1.01161 0.998814
1.004 1 1.00511 0.998889
1.00663 1 1.00843 0.998214
1.01495 1.00035 1.01743 0.997212
0.999717 1 1.00145 0.998274
1.00308 1.00083 1.00509 0.997177
1.00474 1.00239 1.00596 0.996408
1.00355 1.00529 1.00191 0.996372
1.00168 1.00349 1.00108 0.997128
1.0024 1.00377 1.00189 0.996754
0.999076 1.00076 1.00124 0.997079
1.00054 1.00171 1.0011 0.997732
1.00299 1.00493 1.00048 0.997591
1.00244 1 1.00435 0.998097
1.00202 1.00138 1.00274 0.997906
1.00225 1.00355 1.00117 0.997541
1.00211 1 1.00337 0.998746
1.00313 1 1.00471 0.998428
1.00121 1.00015 1.0029 0.998157
0.999579 1 1 0.999579
0.999326 1 1.00033 0.998992
1.00137 1 1.00277 0.998605
0.999138 1 1 0.999138
0.999665 1 1 0.999665
0.999995 1 1 0.999995
0.999718 1 1 0.999718
0.999997 1 1 0.999997
1 1 1 1
0.999999 1 1 0.999999
1 1 1 1
1 1 1 1
0.999074 1 1 0.999074
0.999663 1 1 0.999663
0.999116 1 1 0.999116
1 1 1 1
0.999703 1 1 0.999703
0.999241 1 1 0.999241
1 1 1 1
1 1 1 1
0.999748 1 1 0.999748
1 1 1 1
1 1 1 1
1 1 1 1
0.900832 0.94907 0.96235 0.986308
0.88817 0.935151 0.963989 0.985241
0.902238 0.946975 0.973372 0.978822
0.998778 1 1.00009 0.998684
0.998616 1 1.00007 0.998549
0.998822 1 1 0.998822
0.998732 1 1 0.998732
0.998622 1 1 0.998622
0.99862 1 1 0.99862
0.998533 1 1 0.998533
0.879236 0.937877 0.958831 0.977727
0.893948 0.95126 0.958583 0.980355
0.879448 0.933387 0.962016 0.979413
0.857563 0.957701 0.922932 0.970211
0.916742 0.946222 0.980238 0.988377
0.923918 0.939767 1.00394 0.979274
0.862278 0.915048 0.969608 0.971868
0.909075 0.943781 0.975038 0.987886
0.931819 0.941218 1.013 0.977313
0.896964 0.94407 0.977774 0.971701
0.829563 0.927219 0.922964 0.969354
0.921169 0.946337 0.983154 0.990084
0.942656 0.949747 1.016 0.976908
0.860684 0.918943 0.964647 0.970927
0.809531 0.909111 0.922237 0.965547
1.0035 1 1.00495 0.998553
0.998743 1 1.00034 0.998409
1.00097 1 1.0026 0.998374
0.99857 1 1 0.99857
0.974695 0.980009 0.995551 0.999022
1.00843 0.985326 1.02402 0.999445
0.999771 1 1.00146 0.998313
1.00133 1 1.00289 0.998446
1.03207 0.999469 1.03384 0.998822
1.00015 1 1.00161 0.998543
1.03151 0.998437 1.03436 0.99881
0.979368 0.967274 1.01449 0.998046
1.0081 0.980916 1.0281 0.99962
1.01245 0.996355 1.01724 0.998934
0.972991 0.955273 1.02075 0.997841
1.024 0.986188 1.03907 0.999296
0.89652 0.936273 0.970549 0.986598
0.911312 0.952217 0.967893 0.98879
0.8953 0.936287 0.968404 0.987422
0.99807 0.982233 1.01632 0.999805
0.968081 0.9628 1.00839 0.997116
0.90187 0.949091 0.962321 0.987453
0.957887 0.958423 1.02331 0.976674
0.855662 0.912626 0.965185 0.971402
0.88097 0.935146 0.961759 0.979525
0.792619 0.893549 0.92052 0.963636
1.00404 0.971715 1.03381 0.999469
0.887983 0.935691 0.963125 0.985347
0.900287 0.94956 0.973813 0.973606
0.94453 0.953981 0.996057 0.994012
0.720155 0.832123 0.900234 0.961353
0.826225 0.901182 0.944949 0.970236
0.934138 0.941554 1.01477 0.977679
1.00008 0.976116 1.02624 0.998352
0.899526 0.948003 0.969159 0.97906
0.792307 0.865922 0.94644 0.966766
0.784343 0.87242 0.92447 0.972496
0.919557 0.934753 1.00473 0.979114
0.917569 0.942473 0.984453 0.988951
1.01117 0.990462 1.02132 0.99959
1.01512 0.990345 1.02551 0.999522
0.99825 0.991608 1.00736 0.999348
1.01512 0.993324 1.02256 0.999402
1.00937 0.99636 1.01418 0.998894
1.00276 1.0008 1.00405 0.997917
1.00693 1 1.00886 0.998087
1.01402 1.00035 1.01656 0.997151
1.00896 1.00034 1.01222 0.996444
1.00477 1.0016 1.00604 0.997146
1.00517 1.00222 1.00664 0.996324
1.00264 1.00212 1.00445 0.996087
1.00937 1.01297 1 0.996448
1.00707 1.00973 1.00077 0.996598
1.0041 1.00562 1.00218 0.996317
1.00048 1.00296 1.00013 0.997392
1.00109 1.00317 1.00074 0.99719
1.00222 1.00363 1.0019 0.996707
0.998895 1.00003 1.00112 0.997752
1.00082 1.00202 1.00108 0.997719
1.00267 1.00457 1.00043 0.99768
1.00333 1 1.00492 0.998418
1.00224 1 1.0041 0.998149
1.00216 1.00134 1.00288 0.997955
0.99951 1 1.00012 0.999391
1.00171 1 1.00297 0.998748
1.00248 1 1.00405 0.998429
0.999988 1 1 0.999988
0.999572 1 1 0.999572
0.999559 1 1.00057 0.99899
0.99966 1 1 0.99966
0.999993 1 1 0.999993
1 1 1 1
0.999996 1 1 0.999996
1 1 1 1
1 1 1 1
0.999108 1 1.00044 0.99867
0.99899 1 1 0.99899
0.999584 1 1 0.999584
0.999071 1 1 0.999071
0.999997 1 1 0.999997
0.999666 1 1 0.999666
0.999139 1 1 0.999139
1 1 1 1
1 1 1 1
0.999739 1 1 0.999739
1 1 1 1
1 1 1 1
1 1 1 1
0.88253 0.932931 0.960454 0.984925
0.90089 0.948925 0.962033 0.986847
0.889091 0.936163 0.963957 0.985229
0.998759 1 1.00006 0.998696
0.998873 1 1.00033 0.99854
0.998648 1 1.00012 0.998525
0.998546 1 1 0.998546
1.00104 1 1.00258 0.998468
0.998726 1 1 0.998726
0.998604 1 1 0.998604
0.998621 1 1 0.998621
0.998537 1 1 0.998537
1.00219 1 1.00361 0.998582
0.893936 0.941818 0.974884 0.973613
0.882026 0.939145 0.960545 0.977756
0.895158 0.950061 0.959554 0.981926
0.830215 0.929051 0.921757 0.969471
0.892812 0.938836 0.979055 0.971322
0.901397 0.939628 0.972191 0.986754
0.939773 0.949169 1.01143 0.978908
0.920955 0.94952 0.982074 0.98762
0.953854 0.958833 1.01629 0.978861
0.866106 0.920652 0.968191 0.97166
0.80813 0.912526 0.918042 0.964658
0.937159 0.949746 0.997273 0.989445
0.940929 0.948391 1.01301 0.979394
0.802902 0.879025 0.940181 0.971516
0.751727 0.862991 0.903786 0.963803
1.00481 1 1.00577 0.999044
1.00452 1 1.00598 0.998551
0.999575 1 1.00116 0.998413
0.980676 0.969659 1.01428 0.997122
1.0111 0.977691 1.03443 0.999746
1.00022 1 1.00169 0.998535
1.03243 0.997398 1.03637 0.998797
1.01361 0.998087 1.01663 0.998942
1.02699 0.990043 1.03806 0.999285
0.974788 0.958703 1.01897 0.997848
1.01807 0.996396 1.02242 0.999345
0.983307 0.970188 1.01572 0.997836
0.910725 0.950019 0.978095 0.980107
0.896747 0.9365 0.970136 0.987029
0.908458 0.951116 0.965348 0.989436
1.009 0.97676 1.03344 0.99958
0.945097 0.956296 0.99785 0.990418
0.889545 0.93646 0.964039 0.985335
0.938356 0.950199 1.01124 0.976559
0.815761 0.885518 0.948027 0.971728
0.899159 0.947992 0.974293 0.973514
0.720232 0.839562 0.89514 0.95836
0.999476 0.974955 1.02669 0.998505
0.901829 0.9477 0.971968 0.979042
0.785144 0.8608 0.94448 0.965726
0.921041 0.946742 0.982494 0.990187
0.796495 0.880186 0.931846 0.971102
0.907552 0.933918 0.994111 0.977525
0.968931 0.969395 1.00225 0.997273
0.821726 0.879527 0.962854 0.970326
0.796769 0.871179 0.94037 0.972582
0.929327 0.952948 0.997115 0.978034
0.90349 0.93864 0.971499 0.99079
1.01472 0.988648 1.02687 0.999515
1.00154 0.990601 1.01173 0.999321
1.00015 0.999606 1.00198 0.998571
1.00819 0.992416 1.01694 0.998972
1.00252 1.00093 1.00358 0.998008
0.99917 1.00199 0.999924 0.997266
1.01274 1.0003 1.01539 0.997089
1.0073 1.00051 1.01037 0.996457
0.999473 1.00153 1.00137 0.99658
1.00514 1.00195 1.00697 0.99624
1.00282 1.00302 1.0037 0.996114
1.00955 1.01296 1 0.99663
1.02441 1.02761 1 0.996885
1.01597 1.01951 1.00002 0.996505
1.00897 1.01254 1 0.996471
1.00611 1.00926 1 0.996874
1.00526 1.00766 1.00107 0.99655
1.00473 1.00605 1.00244 0.996263
0.999573 1.00203 1 0.997546
0.999604 1.00212 1.00002 0.997464
1.00044 1.00288 1.00032 0.997252
1.00004 1 1.00195 0.998097
0.99953 1.00045 1.0013 0.997785
1.00113 1.00233 1.0011 0.997706
1.00158 1 1.00253 0.999055
1.00304 1 1.00463 0.99842
1.002 1 1.00381 0.998202
0.99997 1 1 0.99997
0.999835 1 1.00045 0.999383
1.00133 1 1.00259 0.99875
1 1 1 1
0.999984 1 1 0.999984
0.999565 1 1 0.999565
0.999992 1 1 0.999992
1 1 1 1
1 1 1 1
0.999331 1 1.00074 0.998589
0.998971 1 1.00008 0.998895
0.999069 1 1.00041 0.998656
0.999514 1 1 0.999514
0.998989 1 1 0.998989
0.999987 1 1 0.999987
0.999588 1 1 0.999588
0.999069 1 1 0.999069
1 1 1 1
0.999998 1 1 0.999998
0.999669 1 1 0.999669
1 1 1 1
1 1 1 1
1 1 1 1
0.902066 0.949694 0.968809 0.98043
0.884129 0.933855 0.961252 0.984916
0.900743 0.948081 0.962204 0.987388
0.998541 1 1 0.998541
0.998773 1 1.00006 0.998708
0.998877 1 1.00035 0.99853
0.998654 1 1.0001 0.998556
0.998545 1 1 0.998544
1.00017 1 1.00167 0.998499
1.00449 1 1.00618 0.99832
1.00491 1 1.00646 0.998461
0.998622 1 1 0.998622
0.99854 1 1 0.99854
1.00209 1 1.00352 0.998571
1.00689 1 1.00813 0.998771
0.792512 0.86703 0.946565 0.965654
0.90155 0.948505 0.976397 0.973473
0.883638 0.939291 0.96213 0.977779
0.798358 0.904602 0.914094 0.965493
0.872024 0.927897 0.967859 0.970995
0.944348 0.950757 1.01668 0.976966
0.92426 0.946493 0.988015 0.988355
0.934903 0.946432 0.996456 0.991332
0.736737 0.852532 0.899287 0.960957
0.935584 0.943904 1.01416 0.977345
0.818029 0.895021 0.941407 0.970863
0.930803 0.949323 0.988456 0.991943
0.927337 0.942192 1.00409 0.980224
0.787569 0.876234 0.925265 0.97141
1.00058 1 1.00102 0.999558
1.00479 1 1.00574 0.999049
1.00515 1 1.00661 0.998549
0.970813 0.955023 1.01869 0.997881
1.03025 0.994376 1.03683 0.999273
1.01446 0.999237 1.01631 0.99895
1.01836 0.997796 1.02128 0.999344
0.981901 0.970565 1.01382 0.997885
0.996674 0.989351 1.0089 0.998515
0.839928 0.889251 0.973759 0.969987
0.908386 0.949116 0.975057 0.98157
0.895645 0.936335 0.968692 0.987458
0.999578 0.973275 1.02844 0.998625
0.913452 0.943688 0.976752 0.990999
0.901523 0.947316 0.972035 0.979039
0.914204 0.930502 1.00355 0.979014
0.805366 0.893945 0.92855 0.970236
0.782963 0.863928 0.937821 0.966371
0.970709 0.968905 1.00453 0.99734
0.813625 0.877703 0.95478 0.970897
0.806165 0.876365 0.946334 0.972063
0.907449 0.940378 0.976525 0.988182
0.919661 0.95145 0.986362 0.979953
0.961054 0.979114 0.982901 0.998631
0.825186 0.890548 0.952798 0.972509
0.941689 0.975993 0.983536 0.981003
0.920048 0.953903 0.976256 0.987967
1.00534 0.989871 1.01634 0.999296
0.991541 0.998389 0.994457 0.998675
0.993392 1.00253 0.992958 0.997911
1.00281 1.0011 1.00362 0.998098
1.00184 1.00242 1.00217 0.997252
1.0002 1.00343 0.999428 0.997355
1.00602 1.00074 1.00884 0.99647
0.999404 1.00115 1.00167 0.996592
1.01578 1.01855 0.999991 0.997286
1.00326 1.00395 1.00319 0.996141
1.00882 1.01222 1 0.99664
1.02421 1.02691 1 0.997377
1.02872 1.03141 1 0.99739
1.02699 1.03028 1 0.996808
1.0238 1.02696 1 0.99692
1.01605 1.0194 1 0.996716
1.01488 1.01839 1 0.996552
1.0083 1.01185 1 0.996493
1.00608 1.00885 1 0.997248
1.00605 1.00904 1.00014 0.996902
1.00351 1.00555 1.00148 0.996501
0.998288 1.00046 1 0.997833
1.00069 1.00316 1 0.99754
0.998721 1.00119 1 0.997535
1.00138 1 1.0027 0.998688
1.00004 1.00008 1.00187 0.998097
1.00015 1.00089 1.00145 0.997819
0.999909 1 1 0.999909
1.00139 1 1.00234 0.999051
1.00246 1 1.00405 0.998422
1 1 1 1
0.99996 1 1 0.99996
1.0001 1 1.00073 0.999375
1 1 1 1
0.99998 1 1 0.99998
1 1 1 1
0.998979 1 1.00044 0.998535
0.999461 1 1.00088 0.998584
0.999508 1 1.00073 0.998783
0.999443 1 1 0.999443
0.998895 1 1 0.998895
0.998963 1 1.00032 0.998641
0.999971 1 1 0.999971
0.999517 1 1 0.999517
0.998988 1 1 0.998988
1 1 1 1
0.99999 1 1 0.99999
0.999591 1 1 0.999591
1 1 1 1
1 1 1 1
1 1 1 1
0.82081 0.876358 0.967582 0.967996
0.900655 0.948192 0.968824 0.980432
0.886307 0.935296 0.962144 0.984907
0.999306 1 1.00078 0.998523
1.00007 1.00015 1.00153 0.998397
1.00291 1 1.0045 0.998414
0.99897 1 1.00041 0.998565
0.998563 1 1 0.998563
1.00022 1 1.0017 0.99853
1.00465 1 1.00621 0.998449
1.00409 1 1.00576 0.998335
1.00571 1 1.00749 0.998234
0.99635 1 0.997345 0.999002
1.00147 1 1.00291 0.998561
1.00517 1 1.00644 0.998741
0.803012 0.872742 0.947727 0.970853
0.783514 0.858272 0.946799 0.964193
0.907521 0.953127 0.978212 0.973358
0.723199 0.840766 0.897824 0.958057
0.818385 0.893307 0.942942 0.971566
0.930433 0.943518 1.00668 0.979588
0.940546 0.950145 1.00084 0.989064
0.926115 0.946749 0.988066 0.99002
0.790518 0.869472 0.936875 0.970452
0.914852 0.93556 0.99895 0.978893
0.919342 0.950366 0.976267 0.990871
0.915145 0.951913 0.982541 0.978458
1.00668 1 1.00766 0.999021
1.00029 1 1.00079 0.999495
1.00454 1 1.00549 0.999054
0.981354 0.97166 1.01207 0.997929
1.01831 0.999022 1.01997 0.999344
0.997063 0.990103 1.00861 0.998429
0.987929 0.994292 0.99599 0.997601
0.82811 0.906269 0.938099 0.974052
0.842548 0.888864 0.976353 0.970851
0.907986 0.949147 0.973162 0.983015
0.971735 0.97328 1.00095 0.997461
0.907998 0.940841 0.975999 0.988824
0.813788 0.87877 0.953693 0.971017
0.914277 0.947182 0.986896 0.978076
0.81294 0.882609 0.94676 0.97286
0.964654 0.979625 0.986784 0.997906
0.831957 0.899353 0.950767 0.972964
0.940557 0.977171 0.983621 0.978559
0.927413 0.956689 0.979051 0.990141
0.970284 0.990366 0.981195 0.9985
0.945564 0.982708 0.981576 0.980262
0.949045 0.981308 0.975167 0.991751
0.982239 0.996713 0.986689 0.998773
0.990872 1.00319 0.989811 0.997885
0.982614 1.00716 0.977802 0.997776
1.00358 1.00278 1.00356 0.997239
0.999523 1.00354 0.998648 0.997351
1.0189 1.02601 0.99516 0.997893
0.999171 1.00071 1.00186 0.996605
1.01541 1.01858 0.999613 0.997271
1.02718 1.03124 0.998178 0.997883
1.00797 1.01136 1 0.99665
1.02369 1.02645 0.999934 0.997374
1.02965 1.03212 0.99978 0.997822
1.02652 1.02888 1 0.997699
1.02959 1.03223 1 0.997449
1.02891 1.03174 1 0.997257
1.02699 1.0302 1 0.996879
1.02741 1.03069 1 0.996818
1.02335 1.02648 1 0.996956
1.01481 1.01788 1 0.996983
1.01732 1.02064 1 0.99675
1.01387 1.01733 1 0.9966
1.00081 1.00323 1 0.997584
1.0059 1.00869 1 0.997242
1.00613 1.00905 1.00017 0.996929
0.998568 1 1.00014 0.998428
0.998913 1.00108 1 0.997831
1.00178 1.00425 1 0.997534
0.999902 1 1.00014 0.999761
1.00078 1 1.00209 0.998688
1.00035 1.00023 1.00202 0.998098
1 1 1 1
1.00007 1 1.00018 0.999887
1.00127 1 1.00223 0.999047
1 1 1 1
0.999949 1 1 0.999949
1 1 1 1
0.998467 1 1 0.998467
0.999178 1 1.00064 0.998537
0.99976 1 1.00109 0.998668
0.999488 1 1.00091 0.998579
0.999605 1 1.00082 0.998782
0.999592 1 1.00025 0.999343
0.999954 1 1 0.999954
0.999445 1 1 0.999445
0.998922 1 1.00003 0.998894
1 1 1 1
0.999976 1 1 0.999976
0.99952 1 1 0.99952
1 1 1 1
0.999994 1 1 0.999994
1 1 1 1
0.833558 0.895362 0.956795 0.973013
0.823476 0.880367 0.966309 0.967992
0.899282 0.946993 0.968576 0.980428
0.999877 1 1.00137 0.998505
1.00372 1 1.00541 0.998325
0.999278 1.00009 1.00073 0.998456
0.998385 1.00022 1.00027 0.997894
1.00317 1 1.00487 0.998314
1.00454 1 1.00611 0.998437
1.00304 1 1.00469 0.998351
1.00622 1 1.00795 0.998282
0.998067 1 1 0.998067
0.991022 1.00065 0.99163 0.998739
0.994985 1.00035 0.996787 0.997842
0.998032 1 0.998978 0.999053
1.00345 1 1.00474 0.99871
0.933092 0.97225 0.979848 0.979462
0.805562 0.870332 0.952818 0.971412
0.784281 0.861289 0.94424 0.964363
0.788047 0.870891 0.93344 0.969398
0.924924 0.943008 1.00306 0.977828
0.928369 0.942823 0.992548 0.992063
0.921299 0.949477 0.977896 0.992256
0.923804 0.953625 0.987732 0.980761
0.947676 0.978323 0.977159 0.991316
0.998121 1.00132 0.998586 0.998218
1.00562 1 1.00663 0.998999
0.999886 1 1.00045 0.999432
0.998215 0.991868 1.00804 0.99837
0.992888 0.998086 0.997164 0.997621
0.922324 0.970891 0.968827 0.980542
0.838121 0.905052 0.950743 0.974025
0.84547 0.887923 0.979886 0.971734
0.970513 0.982204 0.990926 0.997145
0.925585 0.954964 0.980898 0.98811
0.832531 0.896508 0.95468 0.972722
0.938846 0.971882 0.985087 0.980633
0.975985 0.990343 0.986931 0.998552
0.951445 0.98909 0.980186 0.981385
0.94685 0.979346 0.976965 0.989615
0.992026 1.00431 0.989809 0.997938
0.968024 0.994503 0.97897 0.994285
0.990291 1.00465 0.987812 0.997873
0.983758 1.00664 0.979497 0.997726
1.00419 1.03052 0.976406 0.997991
0.999039 1.00358 0.998123 0.997346
1.01903 1.02596 0.995366 0.997874
1.02777 1.03941 0.990652 0.998133
1.0151 1.01866 0.999249 0.997256
1.02672 1.03137 0.997626 0.997863
1.02464 1.03095 0.995815 0.998051
1.02326 1.02614 0.99982 0.997372
1.02987 1.03255 0.9996 0.997803
1.02837 1.03102 0.999547 0.997879
1.02714 1.02946 1 0.997749
1.02607 1.02862 1 0.997517
1.03041 1.03299 1 0.997507
1.02887 1.03171 1 0.997248
1.02982 1.03281 1 0.997103
1.02296 1.02607 1 0.996966
1.02683 1.03006 1 0.996869
1.02776 1.03103 1 0.996827
1.00735 1.01 1 0.997372
1.01393 1.01698 1 0.997001
1.01857 1.02186 1 0.996783
0.998492 1.00026 1 0.998231
1.00215 1.00458 1 0.99758
1.00561 1.00839 1 0.997236
0.999886 1 1.00032 0.999565
0.998629 1 1.0002 0.998428
0.999516 1.00169 1 0.997829
1 1 1 1
1.00018 1 1.00045 0.999736
1.00023 1 1.00154 0.998689
1 1 1 1
1.00043 1 1.00056 0.999865
1 1 1 1
1.00061 1.00268 1 0.997934
0.998462 1 1 0.998462
0.999506 1 1.00099 0.998513
0.99948 1 1.00094 0.99854
0.999791 1 1.00115 0.998646
0.999644 1 1.00047 0.999178
0.999521 1 1.00074 0.998781
0.999436 1 1.00009 0.999345
0.999934 1 1 0.999934
1 1 1 1
0.999959 1 1 0.999959
0.999448 1 1 0.999448
1 1 1 1
0.99998 1 1 0.99998
1 1 1 1
0.945053 0.983623 0.978381 0.982019
0.828776 0.899662 0.946217 0.973569
0.832664 0.885898 0.971578 0.967406
1.0046 1 1.00637 0.998237
0.998515 1 1 0.998515
1.00242 1 1.00412 0.998306
0.999339 1.00109 1.00031 0.997932
1.0059 1.0083 1.00016 0.997451
0.998068 1 1 0.998068
1.00701 1 1.0087 0.998329
0.997916 1 1 0.997916
0.994 1.00043 0.994857 0.998711
0.99764 1.00058 0.999108 0.99795
0.9927 1.00303 0.991674 0.998013
0.996283 1.00129 0.997536 0.997458
0.994523 1.00082 0.995722 0.997978
1.00022 1 1.00112 0.999105
0.947911 0.981392 0.974213 0.99145
0.936356 0.974122 0.980822 0.980025
0.801914 0.871572 0.945907 0.972692
0.934157 0.959343 0.995575 0.978074
0.922768 0.948328 0.979744 0.993165
0.952091 0.978168 0.979225 0.993991
0.991386 1.00377 0.989753 0.997891
0.996328 1.00067 0.997421 0.998236
1.0046 1 1.00563 0.998978
0.994444 1.00077 0.996051 0.997622
0.953893 0.977025 0.984615 0.99158
0.936118 0.976277 0.975588 0.982859
0.827348 0.899061 0.945484 0.973296
0.978189 0.989261 0.990196 0.998598
0.949768 0.981983 0.975843 0.991137
0.957752 0.989052 0.985608 0.982494
0.985467 1.00307 0.984463 0.997961
0.965729 0.991424 0.980367 0.993591
0.989032 1.02425 0.967753 0.997797
1.00431 1.01609 0.99123 0.997154
0.984445 1.00613 0.980734 0.997671
1.00281 1.02948 0.97606 0.997985
1.00858 1.04307 0.968839 0.998034
1.01957 1.02642 0.995461 0.997856
1.02759 1.03928 0.990614 0.998116
1.02033 1.03335 0.989379 0.998
1.02629 1.03148 0.997114 0.997843
1.02396 1.03031 0.995796 0.998034
1.02845 1.03445 0.996347 0.99785
1.03009 1.03292 0.999478 0.997785
1.02701 1.02972 0.999494 0.997872
1.02718 1.02979 0.99987 0.9976
1.02774 1.03 1 0.997799
1.02632 1.02883 1 0.997559
1.02906 1.0319 1 0.997244
1.0289 1.03175 1 0.99724
1.02975 1.03276 1 0.997093
1.02642 1.02942 1 0.997091
1.01361 1.01642 1 0.997232
1.02289 1.02599 1 0.99698
1.02663 1.02986 1 0.996858
0.999602 1.00156 1 0.998048
1.00775 1.01041 1 0.997373
1.01319 1.01622 1 0.997018
0.999385 1 1 0.999385
0.998748 1.00052 1 0.998229
1.00341 1.00585 1 0.997576
1 1 1 1
0.999696 1 1.00015 0.999549
0.998619 1 1.00019 0.998428
1 1 1 1
1.00022 1 1.00051 0.999713
1 1 1 1
1.00478 1.00727 1 0.997531
1.00024 1.0023 1 0.997951
0.999872 1.00122 1.00049 0.998168
0.998457 1 1 0.998457
0.999384 1 1.0009 0.998483
0.999872 1 1.00092 0.998951
1.00001 1 1.00138 0.998623
0.999483 1 1.0003 0.999179
0.9999 1 1 0.9999
0.999348 1 1 0.999348
0.99994 1 1 0.99994
1 1 1 1
1 1 1 1
0.999964 1 1 0.999964
1 1 1 1
0.947609 0.981044 0.973747 0.99196
0.939502 0.983346 0.974773 0.980139
0.821723 0.893608 0.944284 0.973813
1.01516 1.01798 1.00007 0.997159
1.00163 1 1.00333 0.998298
1.00052 1.00222 1.00033 0.997971
0.998033 1 1 0.998033
1.00566 1.00782 1.00042 0.997438
1.00132 1.00343 1 0.9979
0.997766 1 1 0.997766
0.996247 1.00023 0.997326 0.998684
0.997143 1.0008 0.998368 0.997979
0.989174 1.0021 0.989121 0.997954
1.00119 1.00467 0.999226 0.997308
1.00147 1.00647 0.997585 0.997444
0.99715 1.00195 0.997787 0.997412
0.993961 1.00134 0.994509 0.998115
0.991559 1.00614 0.98709 0.998399
0.945016 0.981267 0.972401 0.99039
0.939223 0.975902 0.981084 0.980971
0.944717 0.973697 0.977916 0.992149
0.994562 1.00577 0.99045 0.998391
0.996826 1.0002 0.998374 0.99825
0.991763 1.00668 0.988055 0.99709
0.944103 0.966436 0.983836 0.992942
0.924346 0.973924 0.967821 0.980651
0.979927 1.00146 0.980473 0.997982
0.971018 0.993006 0.985057 0.992691
0.990981 1.02526 0.968637 0.997861
1.0032 1.01522 0.990801 0.997339
0.999864 1.03517 0.967969 0.997853
1.03357 1.04068 0.995422 0.997734
1.0009 1.02779 0.975812 0.997979
1.01133 1.04443 0.970223 0.998027
1.01197 1.04135 0.973876 0.997858
1.02675 1.03856 0.990505 0.9981
1.01981 1.03297 0.989239 0.997996
1.02677 1.03791 0.991507 0.997738
1.02315 1.02962 0.995688 0.998017
1.02778 1.03379 0.996311 0.997862
1.03059 1.03396 0.999192 0.997543
1.02568 1.02845 0.999438 0.997865
1.02768 1.03025 0.999911 0.997599
1.03094 1.03373 1 0.997297
1.02654 1.02901 1 0.997601
1.02916 1.03197 1 0.997277
1.02839 1.03139 1 0.997099
1.02965 1.03267 1 0.997083
1.02619 1.02921 1 0.99707
1.01706 1.01988 1 0.99723
1.00207 1.00415 1 0.997926
1.01311 1.01589 1 0.997255
1.0228 1.02588 1 0.996994
0.999244 1 1 0.999244
1.00034 1.0023 1 0.998048
1.00817 1.01083 1 0.997374
1 1 1 1
0.999372 1 1 0.999372
0.999015 1.00079 1 0.998228
1 1 1 1
0.999542 1 1.00001 0.999533
1 1 1 1
1.01006 1.01288 1 0.997208
1.00502 1.0075 1 0.997535
1.00299 1.00518 1 0.997826
0.999629 1.00166 1.00001 0.997967
0.999347 1.00064 1.00054 0.99817
0.999494 1 1.00081 0.998689
0.999353 1 1.0009 0.998453
1.00015 1 1.0012 0.998951
1.00022 1 1.00039 0.999831
0.999338 1 1.00016 0.999181
0.99991 1 1 0.99991
1 1 1 1
0.999946 1 1 0.999946
1 1 1 1
1 1 1 1
0.990178 1.01057 0.981489 0.998305
0.941998 0.978187 0.972802 0.989928
0.935833 0.974006 0.978064 0.982357
1.01143 1.01399 1.00001 0.997458
1.02194 1.02492 1 0.99709
1.01303 1.01573 1.00013 0.99721
0.997997 1 1 0.997997
1.0052 1.00705 1.00073 0.997423
1.00237 1.00462 0.999907 0.997853
1.01286 1.01559 1 0.997308
0.996788 1.00096 0.997822 0.998009
0.986054 1.00105 0.987101 0.997894
1.00197 1.00607 0.998543 0.997378
1.01535 1.0198 0.998551 0.997081
1.01016 1.0214 0.991242 0.997732
1.00287 1.00758 0.997897 0.997415
0.998357 1.00262 0.998373 0.997365
0.995642 1.00829 0.988877 0.998567
0.948847 0.982577 0.976217 0.989199
0.995074 1.00667 0.989558 0.998907
1.01774 1.031 0.988787 0.998342
0.991127 1.00539 0.988588 0.997192
0.946542 0.974428 0.980196 0.991008
0.993853 1.02666 0.970065 0.997922
1.00191 1.01469 0.989851 0.997532
0.999771 1.03564 0.967357 0.997945
1.0345 1.04237 0.994697 0.997744
1.02972 1.04819 0.984606 0.997736
1.0514 1.0607 0.993354 0.997857
1.01464 1.04669 0.971306 0.998019
1.01524 1.04144 0.976934 0.997861
1.03003 1.04568 0.987364 0.997641
1.01965 1.0328 0.98926 0.997993
1.02679 1.03733 0.992093 0.997736
1.03264 1.03909 0.996271 0.997508
1.02712 1.03312 0.996311 0.997875
1.03096 1.03423 0.999297 0.99754
1.03387 1.0367 0.999998 0.997273
1.02813 1.03066 0.999949 0.997598
1.03083 1.03362 1 0.997297
1.03135 1.03437 1 0.997081
1.02928 1.03206 1 0.997309
1.02809 1.03107 1 0.997109
1.01915 1.02203 1 0.997187
1.026 1.02904 1 0.997049
1.0169 1.01973 1 0.997222
1.00405 1.00621 1 0.997854
0.999173 1 1 0.999173
1.00267 1.00476 1 0.997925
1.01265 1.01542 1 0.997279
1 1 1 1
0.999233 1 1 0.999233
1.00109 1.00305 1 0.998047
1 1 1 1
0.999359 1 1 0.999359
1 1 1 1
1.01751 1.02053 1 0.997042
1.01076 1.01361 1 0.997187
1.00681 1.00931 1 0.997519
1.00528 1.00776 1 0.997539
1.00171 1.00389 1 0.997832
0.999103 1.00039 1.0003 0.998419
0.998688 1.00005 1.00046 0.998172
0.999928 1 1.00124 0.998691
0.999986 1 1.0003 0.999689
1.00004 1 1.00109 0.998951
0.999883 1 1.00004 0.999846
1 1 1 1
0.999919 1 1 0.999919
1 1 1 1
1 1 1 1
1.00842 1.02951 0.981264 0.998217
0.987943 1.00952 0.980811 0.997773
0.94091 0.979715 0.969421 0.990686
1.0217 1.02456 1 0.997214
1.01215 1.01455 1 0.997634
1.03561 1.03864 1 0.997076
1.02264 1.02564 1 0.997076
1.01114 1.01373 1.00018 0.997264
1.03023 1.03338 0.999927 0.997028
1.00342 1.00589 0.999732 0.997808
1.01126 1.01406 1 0.997247
1.0336 1.04297 0.993736 0.997265
1.00233 1.00742 0.997495 0.997449
1.01639 1.0209 0.998527 0.997041
1.01043 1.02186 0.991041 0.997756
1.00306 1.0077 0.998005 0.997384
0.999841 1.01026 0.990944 0.99873
1.04025 1.05457 0.988482 0.997919
1.01779 1.03094 0.988868 0.998352
0.991063 1.00409 0.989709 0.997289
0.999937 1.03544 0.967609 0.998037
1.03434 1.04316 0.993772 0.997754
1.02699 1.04785 0.982301 0.997754
1.05168 1.06201 0.992405 0.997855
1.04406 1.05704 0.989945 0.997753
1.01801 1.04115 0.979868 0.997863
1.03025 1.04517 0.988044 0.99765
1.03383 1.04465 0.992103 0.997526
1.02668 1.03673 0.992559 0.997733
1.03219 1.03855 0.996379 0.997489
1.03613 1.03944 0.999579 0.997242
1.03142 1.03458 0.999404 0.997538
1.03391 1.03674 1 0.997271
1.03484 1.03791 1 0.997044
1.03071 1.0335 1 0.997297
1.03124 1.03425 1 0.997084
1.02184 1.0248 1 0.997115
1.02778 1.03075 1 0.997119
1.01933 1.0222 1 0.997191
1.00496 1.0072 1 0.997779
1.0167 1.01954 1 0.997213
1.00428 1.00644 1 0.997852
0.999291 1 1 0.999291
0.999757 1 1 0.999757
0.999227 1 1 0.999227
1.00324 1.00533 1 0.997924
1 1 1 1
0.999221 1 1 0.999221
1 1 1 1
1.04262 1.04562 1 0.997138
1.02772 1.03075 1 0.997066
1.01841 1.02144 1 0.997035
1.01078 1.01347 1 0.997346
1.01164 1.01451 1 0.997166
1.00617 1.00868 1 0.997521
0.999968 1.00178 1 0.998188
1.00045 1.00262 1 0.997838
0.999074 1.00021 1.00044 0.998422
0.999585 1 1.0001 0.999485
1.00071 1 1.00202 0.998693
1.00011 1 1.0004 0.999709
1 1 1 1
0.99986 1 1 0.99986
1 1 1 1
1 1 1 1
1.0369 1.05305 0.986966 0.997671
1.01235 1.03357 0.98115 0.998291
0.985995 1.00962 0.979299 0.997246
1.03379 1.03684 1 0.997058
1.02088 1.02367 1 0.997274
1.01262 1.01484 1 0.997807
1.03455 1.03757 1 0.997094
1.02329 1.02631 1 0.997061
1.04082 1.04798 0.995915 0.997243
1.02685 1.03003 0.999934 0.996987
1.00977 1.01262 1 0.997186
1.03287 1.04223 0.993739 0.99726
1.01917 1.02341 0.998851 0.997001
1.01321 1.02527 0.990433 0.997786
1.04408 1.05683 0.99007 0.997848
1.04219 1.05583 0.989119 0.997942
1.018 1.03099 0.989012 0.998364
1.02541 1.04848 0.980176 0.997772
1.05282 1.06402 0.9916 0.997853
1.0442 1.05806 0.989112 0.997762
1.03798 1.04717 0.993604 0.997604
1.03043 1.04454 0.988805 0.997659
1.03379 1.04414 0.992553 0.997515
1.0382 1.04283 0.99829 0.997267
1.03173 1.03796 0.996513 0.99747
1.0368 1.04011 0.999569 0.997242
1.03791 1.04102 1 0.99701
1.03393 1.03676 1 0.997269
1.03487 1.03794 1 0.997045
1.02441 1.02745 1 0.997035
1.03113 1.03415 1 0.997087
1.02213 1.02508 1 0.997117
1.0058 1.00814 1 0.997679
1.0195 1.02237 1 0.997195
1.00519 1.00743 1 0.997777
0.999295 1 1 0.999295
1.00451 1.00668 1 0.99785
0.999286 1 1 0.999286
0.999772 1 1 0.999772
0.999883 1 1 0.999883
0.999285 1 1 0.999285
1 1 1 1
1.03894 1.04199 1 0.997074
1.03365 1.03665 1 0.99711
1.04197 1.04484 1 0.99725
1.01811 1.02093 1 0.997239
1.02956 1.0326 1 0.997056
1.01938 1.02242 1 0.997028
1.01108 1.01378 1 0.997342
1.00292 1.00493 1 0.998006
1.00556 1.00806 1 0.997523
0.999452 1.00127 1 0.998189
0.999301 1 1 0.999301
0.999049 1.0001 1.00052 0.998426
0.999686 1 1.00018 0.999504
1 1 1 1
0.99987 1 1.00014 0.999729
1 1 1 1
1 1 1 1
1.03984 1.05213 0.990738 0.997558
1.03604 1.05204 0.987094 0.997666
1.0147 1.03571 0.981329 0.998358
1.04111 1.04509 0.99903 0.997155
1.03218 1.03522 1 0.99706
1.02009 1.02282 1 0.997335
1.03334 1.03633 1 0.997113
1.03982 1.04702 0.995889 0.99722
1.02333 1.02653 0.999943 0.996946
1.02963 1.03887 0.993839 0.997254
1.03981 1.04986 0.992736 0.997666
1.04325 1.05572 0.990356 0.997809
1.044 1.05691 0.9898 0.997964
1.03725 1.04452 0.995529 0.997496
1.04401 1.05883 0.988207 0.997772
1.03771 1.04715 0.993373 0.997591
1.03948 1.04508 0.997275 0.997364
1.03379 1.04368 0.993001 0.997504
1.03849 1.04316 0.998248 0.99727
1.03919 1.04232 1 0.996999
1.03745 1.04077 0.999566 0.997242
1.03762 1.04073 1 0.997011
1.02618 1.0293 1 0.996974
1.03482 1.03789 1 0.997046
1.02466 1.0277 1 0.997037
1.00649 1.00893 1 0.997579
1.0224 1.02535 1 0.99712
1.00601 1.00835 1 0.997678
0.999271 1 1 0.999271
1.00543 1.00767 1 0.997775
0.999287 1 1 0.999287
0.999776 1 1 0.999776
0.999284 1 1 0.999284
0.999777 1 1 0.999777
1 1 1 1
1.03955 1.04271 1 0.996975
1.03478 1.03789 1 0.997004
1.04023 1.04327 1 0.997082
1.02299 1.02582 1 0.997241
1.03433 1.03731 1 0.997127
1.04144 1.04419 1 0.997361
1.0058 1.00797 1 0.997851
1.01818 1.021 1 0.997232
1.03148 1.03453 1 0.997045
1.01128 1.01398 1 0.997338
1.00188 1.00388 1 0.998007
0.999191 1 1 0.999191
0.998866 1.00068 1 0.998191
0.999315 1 1 0.999315
1 1 1 1
0.999828 1 1.0003 0.999523
1 1 1 1
1 1 1 1
1.04006 1.047 0.995947 0.997415
1.04 1.05266 0.990407 0.997543
1.0364 1.0524 0.987098 0.997662
1.04021 1.04425 0.99896 0.997169
1.0305 1.03354 1 0.997061
1.03921 1.04646 0.995856 0.997197
1.03792 1.04567 0.995082 0.997499
1.04026 1.04991 0.993133 0.997659
1.04247 1.05473 0.990586 0.997771
1.03784 1.04498 0.995642 0.997516
1.0411 1.04582 0.998178 0.997303
1.03743 1.04715 0.993128 0.997578
1.03956 1.04496 0.997503 0.997323
1.03932 1.04285 0.999548 0.997072
1.03869 1.0434 0.998204 0.997272
1.0394 1.04252 1 0.997002
1.02696 1.03012 1 0.99693
1.0375 1.04061 1 0.997013
1.02667 1.02978 1 0.996975
1.00689 1.00941 1 0.997505
1.02503 1.02808 1 0.997038
1.00664 1.00908 1 0.997579
0.999219 1 1 0.999219
1.00622 1.00856 1 0.997677
0.999257 1 1 0.999257
0.999759 1 1 0.999759
0.99928 1 1 0.99928
0.999788 1 1 0.999788
0.999778 1 1 0.999778
1.04128 1.04459 0.999624 0.997206
1.03724 1.04048 1 0.996887
1.04035 1.04364 0.999841 0.996999
1.02538 1.02835 1 0.99712
1.03414 1.03726 1 0.997
1.04144 1.04447 1 0.997091
1.00692 1.0092 1 0.99774
1.02306 1.02593 1 0.997198
1.03487 1.03784 1 0.997145
0.999147 1 1 0.999147
1.00511 1.00727 1 0.997854
1.01835 1.02118 1 0.997225
1.00085 1.00285 1 0.998009
0.999201 1 1 0.999201
1 1 1 1
0.999328 1 1 0.999328
1 1 1 1
1 1 1 1
1.03722 1.04322 0.996852 0.997394
1.03934 1.04653 0.99571 0.997409
1.03996 1.05293 0.990127 0.997527
1.03931 1.0434 0.998887 0.997184
1.03983 1.04371 0.999009 0.997263
1.03855 1.04606 0.995302 0.997509
1.04074 1.04992 0.993582 0.997652
1.03844 1.04544 0.995751 0.997537
1.04056 1.04545 0.998011 0.997314
1.03977 1.04309 0.999739 0.997079
1.03972 1.04493 0.997724 0.997282
1.03976 1.04308 0.999773 0.997037
1.02685 1.03 1 0.996937
1.03959 1.04271 1 0.997005
1.02721 1.03037 1 0.996933
1.00666 1.00924 1 0.997444
1.02694 1.03005 1 0.996976
1.00682 1.00934 1 0.997505
0.999036 1 1 0.999036
1.00674 1.00918 1 0.997579
0.999146 1 1 0.999146
1 1 1 1
0.999245 1 1 0.999245
0.999775 1 1 0.999775
0.999795 1 1 0.999795
1.03866 1.04219 0.999324 0.99729
1.03785 1.04099 1 0.996985
1.04099 1.04424 0.999682 0.997199
1.02695 1.03009 1 0.996951
1.03684 1.04006 1 0.996907
1.04122 1.04466 0.999678 0.997023
1.00747 1.00994 1 0.997552
1.02557 1.02853 1 0.997119
1.03357 1.03668 1 0.996996
0.999134 1 1 0.999134
1.00675 1.00908 1 0.997696
1.02312 1.02603 1 0.997156
1 1 1 1
0.999157 1 1 0.999157
1.00438 1.00654 1 0.997857
0.999213 1 1 0.999213
1 1 1 1
1 1 1 1
1.03833 1.04206 0.999135 0.99728
1.03783 1.04381 0.996861 0.9974
1.03856 1.04604 0.995433 0.997403
1.03931 1.04242 1 0.997018
1.03906 1.04323 0.998722 0.997276
1.03915 1.04642 0.995524 0.997519
1.04 1.04507 0.997815 0.997325
1.03953 1.04304 0.999553 0.99708
1.02518 1.02826 1 0.997001
1.04008 1.04321 1 0.997002
1.02666 1.0298 1 0.996956
1.00619 1.00888 1 0.997326
1.02756 1.03072 1 0.996935
1.00657 1.00915 1 0.997445
0.998988 1 1 0.998988
1.00683 1.00935 1 0.997505
0.999033 1 1 0.999033
1 1 1 1
0.999063 1 1 0.999063
0.999872 1 1 0.999872
0.999789 1 1 0.999789
1.03722 1.04058 0.999526 0.997243
1.03785 1.04093 1 0.997042
1.039 1.04241 0.999432 0.997297
1.02731 1.03045 1 0.996951
1.03836 1.04151 1 0.996972
1.04074 1.04392 0.999755 0.997193
1.0076 1.01017 1 0.997451
1.02688 1.02998 1 0.996988
1.03641 1.03961 1 0.996928
0.999109 1 1 0.999109
1.00743 1.00992 1 0.997539
1.02575 1.02872 1 0.997119
1 1 1 1
0.999143 1 1 0.999143
1.00662 1.00898 1 0.997652
1 1 1 1
0.999168 1 1 0.999168
1 1 1 1
1.03991 1.04301 0.999959 0.997068
1.03755 1.04128 0.999155 0.997265
1.03844 1.04441 0.996872 0.997407
1.0251 1.02819 1 0.996993
1.03923 1.04248 0.999843 0.99704
1.03837 1.0428 0.998461 0.997289
1.03932 1.04299 0.999402 0.997081
1.02524 1.02833 1 0.997001
1.0055 1.00822 1 0.997299
1.02651 1.02962 1 0.996974
1.00612 1.00878 1 0.997359
0.998929 1 1 0.998929
1.00641 1.00899 1 0.997446
0.998985 1 1 0.998985
1 1 1 1
0.99903 1 1 0.99903
1 1 1 1
0.999767 1 1 0.999767
1.03929 1.04235 1 0.997065
1.03677 1.04016 0.999466 0.997266
1.02702 1.03014 1 0.996973
1.03818 1.04126 1 0.99704
1.0394 1.0427 0.99953 0.997303
1.00699 1.00954 1 0.99748
1.02696 1.03011 1 0.996948
1.03885 1.04202 1 0.996959
0.999059 1 1 0.999059
1.00775 1.01029 1 0.997481
1.02679 1.02985 1 0.997025
1 1 1 1
0.999115 1 1 0.999115
1.00739 1.00989 1 0.997525
1 1 1 1
0.999152 1 1 0.999152
1 1 1 1
1.02583 1.02889 1 0.997026
1.03972 1.04283 0.999968 0.997056
1.03673 1.04047 0.999158 0.99725
1.00464 1.00736 1 0.997306
1.0251 1.02819 1 0.996993
1.0391 1.04252 0.999655 0.997062
1.02531 1.0284 1 0.997
1.00552 1.00824 1 0.9973
0.998889 1 1 0.998889
1.00607 1.0087 1 0.997392
0.998926 1 1 0.998926
1 1 1 1
0.998982 1 1 0.998982
1 1 1 1
1 1 1 1
1.02692 1.03003 1 0.996979
1.039 1.04209 0.999945 0.997094
1.03627 1.03966 0.999445 0.997289
1.00629 1.00885 1 0.997464
1.02673 1.02985 1 0.99697
1.03845 1.04153 1 0.997039
0.999007 1 1 0.999007
1.00726 1.0098 1 0.997477
1.02666 1.0298 1 0.996945
1 1 1 1
0.999062 1 1 0.999062
1.0079 1.01042 1 0.99751
1 1 1 1
0.999121 1 1 0.999121
1 1 1 1
1.00454 1.00717 1 0.997394
1.02569 1.02878 1 0.996991
1.03958 1.04266 1 0.997044
0.998895 1 1 0.998895
1.0047 1.00742 1 0.997304
1.02511 1.0282 1 0.996993
1.00554 1.00826 1 0.997301
0.998889 1 1 0.998889
1 1 1 1
0.998923 1 1 0.998923
1 1 1 1
1 1 1 1
1.00533 1.00791 1 0.997435
1.02649 1.0296 1 0.996987
1.03874 1.04188 0.999862 0.997124
0.999131 1 1 0.999131
1.00652 1.00908 1 0.997462
1.02644 1.02956 1 0.996967
1 1 1 1
0.999009 1 1 0.999009
1.0075 1.01005 1 0.997475
1 1 1 1
0.999066 1 1 0.999066
1 1 1 1
0.998891 1 1 0.998891
1.00473 1.00739 1 0.997364
1.02557 1.0287 1 0.996956
1 1 1 1
0.998895 1 1 0.998895
1.00476 1.00748 1 0.997302
0.998888 1 1 0.998888
1 1 1 1
1 1 1 1
0.999086 1 1 0.999086
1.00563 1.00822 1 0.997435
1.02603 1.02912 1 0.996994
1 1 1 1
0.998972 1 1 0.998972
1.00675 1.00932 1 0.99746
1 1 1 1
0.99901 1 1 0.99901
1 1 1 1
0.999695 1 1 0.999695
0.998993 1 1 0.998993
1.0049 1.00759 1 0.997333
1 1 1 1
0.998896 1 1 0.998896
1 1 1 1
0.999711 1 1 0.999711
0.999017 1 1 0.999017
1.00597 1.00855 1 0.997435
0.999857 1 1 0.999857
0.998972 1 1 0.998972
1 1 1 1
1 1 1 1
0.998918 1 1 0.998918
1 1 1 1
0.999853 1 1 0.999853
0.998944 1 1 0.998944
1 1 1 1
1 1 1 1
1 1 1 1

VECTORS lamdaE float
1.00077 1.00015 0.994356
1.00045 1.00059 0.997279
1.00038 1.00036 0.994601
1.00099 0.999989 0.994206
1.00086 0.999968 0.994416
1.00071 1.00036 0.994209
1.00209 1.00048 0.991439
1.00048 1.0005 0.997283
1.00041 1.00018 0.997651
0.99994 1.00084 0.99769
1.00046 1.00051 0.994378
1.00183 1.00128 0.990348
1.00069 0.99999 0.994492
1.00043 0.999991 0.9947
1.00003 1.00058 0.994819
1.0007 0.99997 0.994491
1.00028 1.0007 0.994428
1.00054 1.00003 0.994673
1.00228 1.0003 0.991332
1.0007 1.00001 0.997275
1.00095 1.00004 0.994184
1.00095 0.999929 0.99434
1.00234 1.00006 0.991434
1.00224 1.00013 0.991528
1.00071 1.00043 0.994104
1.00185 1.00102 0.991271
1.00474 1.00042 0.986981
1.00048 1.00046 0.997306
1.00059 1.00007 0.996019
1.00022 1.00061 0.996038
1.00045 1.00039 0.997363
1.00173 1.00142 0.990355
1.00089 0.999825 0.994312
1.00061 1.00029 0.994414
1.00254 1.00009 0.991794
0.999826 1.00034 0.997953
1.0022 1.0008 0.991747
1.00156 1.00168 0.990388
1.00401 1.00152 0.986375
0.999917 0.998965 0.998359
1.00072 0.999995 0.997256
1.00062 1 0.995966
1.00065 0.999983 0.997294
1.00031 1.00003 0.994846
1.00237 0.999972 0.99076
1.00056 0.99996 0.997567
1.00263 1.00005 0.991711
1.00041 0.999908 0.994777
1.00024 1.00007 0.994917
0.99986 1.00109 0.994631
1.00246 1.00012 0.991238
1.00054 1.00004 0.996031
1.00065 1.00005 0.994472
1.00025 1.00086 0.994299
1.00066 0.999909 0.994612
1.00247 1.00002 0.991305
1.00209 1.00076 0.991168
1.00239 1.00003 0.991417
1.00471 1.00044 0.986985
1.00063 1.00001 0.997299
1.00084 1.00005 0.994321
1.00214 1.00001 0.992377
1.0023 1.00009 0.991481
1.00232 1.00003 0.991504
1.00475 1.0001 0.98719
1.00476 1.0001 0.987043
1.00055 1.00028 0.994364
1.00139 1.00187 0.991149
1.00461 1.00076 0.986873
1.00524 1.00028 0.985496
1.00082 1.0001 0.997266
1.00037 1.00027 0.997495
1.00051 1.00046 0.997281
1.00167 1.0015 0.990356
1.00093 0.999958 0.997211
1.00069 1.00029 0.997289
1.00241 1.00005 0.990491
1.00003 1.00021 0.99643
1.00197 1.00086 0.990459
1.00144 1.00188 0.991168
1.00409 1.00138 0.986376
1.00017 0.999634 0.997917
0.999911 1.00134 0.993633
1.00261 0.999947 0.990324
1.00236 1.00028 0.99047
1.00481 1.0002 0.986354
1.00096 1.00223 0.992423
1.00442 1.00081 0.986389
1.0032 1.00278 0.986523
1.00507 1.0012 0.984797
0.99978 0.998275 0.998731
0.999784 0.99883 0.998518
1.00088 0.999984 0.997185
1.00075 0.999992 0.99725
1.00069 0.999987 0.997292
1.00054 0.999999 0.996053
1.0024 0.999961 0.991431
1.00072 0.999966 0.995926
1.00257 1.00007 0.991068
1.00067 0.999993 0.997302
1.00224 0.999896 0.990998
1.00254 1.00005 0.991887
1.00472 0.999562 0.987199
1.00264 0.999985 0.991706
1.00483 0.999793 0.986791
1.00066 1.00001 0.994538
1.00034 1.00006 0.994764
0.999792 1.00132 0.994495
1.00037 0.999864 0.994882
1.00259 1.00003 0.991176
1.00254 0.999947 0.991312
1.00234 1.00047 0.991074
1.00469 1.00047 0.986989
1.00068 0.999994 0.997299
1.00054 1.00005 0.994609
1.00229 0.999981 0.99126
1.00242 1.00007 0.991341
1.00033 1.00068 0.995841
1.00172 1.00165 0.991276
1.00245 0.999973 0.991387
1.00476 1.00003 0.987203
1.00456 1.0008 0.986882
1.00476 1.00021 0.987047
1.00524 1.00027 0.985523
1.00223 0.999943 0.991004
1.00218 1.00004 0.991673
1.00462 0.999516 0.987886
1.00471 0.999845 0.987377
1.00475 0.999992 0.987165
1.00527 0.999337 0.986662
1.00003 1.00036 0.997729
1.00525 0.999897 0.98587
1.00095 1.00265 0.990321
1.00417 1.00124 0.986357
1.00522 1.00073 0.985127
1.0052 0.999314 0.986459
1.00013 1.00273 0.991777
1.00075 1.005 0.988363
1.00092 0.999985 0.99723
1.00065 1.0003 0.997288
1.00242 1.00004 0.990484
1.00016 0.999938 0.997816
1.00111 1.00226 0.990525
1.00195 1.00087 0.990471
1.00418 1.00124 0.986379
1.00001 0.99951 0.998083
0.999841 1.00139 0.993674
1.00262 0.999983 0.991033
1.00236 1.00032 0.991137
1.0048 1.0002 0.986339
1.00065 1.0024 0.991242
1.00445 1.00076 0.986384
1.00328 1.00265 0.986515
1.00512 1.00112 0.984835
1.00014 1.00226 0.992314
0.999903 1.00032 0.994683
1.00083 1.00445 0.989268
1.00486 1.00006 0.986427
1.00467 1.00041 0.986348
1.00527 0.999902 0.985878
1.00217 1.00401 0.987083
1.00518 1.00066 0.985224
1.00474 1.00185 0.984809
1.0052 1.00099 0.9848
0.999778 0.997818 0.998933
0.999739 0.998171 0.998815
0.999702 0.998639 0.998649
0.999987 1.00212 0.992633
0.999855 0.999919 0.998025
1.00094 0.999965 0.997188
1.00079 0.999993 0.997216
1.00245 1.00009 0.990459
1.0023 0.999962 0.990837
1.00067 0.999987 0.997285
1.00064 0.999989 0.997301
1.00223 0.999907 0.990992
1.00246 1.00003 0.991252
1.00471 0.999562 0.987201
1.00253 1.00002 0.99036
1.00481 0.999796 0.986787
1.0022 0.99991 0.991042
1.00468 0.999493 0.987324
1.00476 0.999659 0.987027
1.00523 0.998143 0.987845
1.00487 0.999937 0.986569
1.0053 0.998677 0.987197
1.00065 0.999993 0.997296
1.00023 1.00009 0.994898
1.00231 0.999979 0.990263
1.00254 1.00006 0.9912
0.999751 1.00114 0.99767
1.00213 1.00127 0.991406
1.00258 0.999946 0.991271
1.00478 0.999957 0.987215
1.00475 1.0003 0.98705
1.00452 1.00086 0.986891
1.00524 1.00027 0.985551
1.00221 0.999933 0.991005
1.00231 1.00005 0.991532
1.00465 0.999501 0.987578
1.00474 0.999931 0.987338
1.00016 1.00041 0.997619
1.00118 1.0024 0.991076
1.00404 1.00155 0.986596
1.00476 1.00003 0.987132
1.00527 0.999117 0.986837
1.00522 1.0007 0.985158
1.00525 0.999956 0.985927
1.0052 0.999318 0.986485
1.00022 1.00261 0.991759
1.0009 1.00487 0.988366
1.00464 0.999552 0.987328
1.00464 0.999706 0.987683
1.00525 0.998511 0.987562
1.00528 0.9986 0.987273
1.00526 0.999419 0.986525
1.00523 0.997571 0.988328
1.00051 1.0029 0.99092
1.00521 0.99854 0.987246
1.00332 1.00243 0.986525
1.00519 1.0011 0.98473
1.0052 1.00032 0.985608
1.00518 0.997899 0.988011
1.00146 1.0047 0.987578
1.00053 1.00458 0.989261
1.00191 1.00474 0.987058
1.00252 0.99997 0.990407
0.999838 0.999391 0.998262
0.999795 1.0013 0.993713
1.00221 1.00035 0.990522
1.0048 1.0002 0.986323
1.00057 1.00252 0.991195
1.00332 1.0025 0.986504
1.00448 1.00072 0.986379
1.00516 1.00103 0.984873
1.0001 1.00224 0.992329
0.999901 1.00021 0.99473
1.00057 1.00457 0.989255
1.00485 1.00008 0.986409
1.00468 1.00041 0.986337
1.00527 0.999911 0.985857
1.00227 1.00384 0.987089
1.00521 1.00069 0.98518
1.00477 1.00178 0.984806
1.00521 1.00086 0.98487
0.999968 0.999526 0.995336
1.00144 1.00455 0.987995
1.00048 1.00337 0.990686
1.0013 1.00472 0.988064
1.00528 0.999481 0.986325
1.00525 1.00031 0.98548
1.00522 0.99883 0.986946
1.00389 1.00284 0.985397
1.00522 1.00004 0.985882
1.005 1.0015 0.984733
1.00518 1.0005 0.985287
1.00024 1.00094 0.993468
1.00021 0.998625 0.995801
0.999831 0.997513 0.999031
0.999763 0.997765 0.998973
0.999715 0.998073 0.998884
0.999997 1.00124 0.993486
0.999777 0.999364 0.998283
1.00006 1.00204 0.992611
0.999956 1.00001 0.997917
1.00252 1.00005 0.990361
1.00238 1.00002 0.990649
1.00479 0.9998 0.986783
1.00469 0.999566 0.987202
1.00224 0.999922 0.990992
1.00068 0.999982 0.997298
1.00222 0.999907 0.991044
1.00466 0.999502 0.987326
1.00475 0.999668 0.987024
1.00524 0.998152 0.987834
1.00485 0.999949 0.986555
1.00529 0.998677 0.987182
1.00464 0.999507 0.987366
1.00523 0.998027 0.987975
1.00526 0.998364 0.987569
1.00524 0.995737 0.990232
1.00529 0.999058 0.986781
1.00526 0.996897 0.989008
1.00222 0.999927 0.991011
1.00245 1.00002 0.991389
1.00467 0.999472 0.987273
1.00476 1.00001 0.987299
1.00026 1.0005 0.997509
1.00146 1.00218 0.991664
1.00403 1.00179 0.986833
1.00477 1.00006 0.987098
1.00528 0.998893 0.987012
1.00525 1.00002 0.985986
1.00521 1.00065 0.985191
1.0052 0.99932 0.986511
1.00028 1.00253 0.991744
1.00105 1.00479 0.988366
1.00464 0.999443 0.987381
1.00467 0.999685 0.987662
1.00524 0.998329 0.987778
1.00528 0.998841 0.987074
1.0006 1.00277 0.990912
1.00333 1.00255 0.98653
1.00515 1.00115 0.984719
1.00526 0.999553 0.986413
1.00523 0.997305 0.988613
1.0052 1.00021 0.985721
1.00521 0.998541 0.987259
1.00518 0.997831 0.987998
1.00152 1.00463 0.987573
1.0017 1.00466 0.987061
1.00062 1.00452 0.989268
1.00523 0.998329 0.987764
1.00526 0.998447 0.987631
1.00524 0.996265 0.989697
1.00524 0.996887 0.988969
1.00523 0.997634 0.988084
1.00518 0.995777 0.990098
1.00244 1.00361 0.986951
1.00518 0.996827 0.98885
1.00498 1.00161 0.984742
1.0052 1.00118 0.984581
1.00517 0.999259 0.986605
1.00514 0.996917 0.988973
1.00023 1.00413 0.990284
1.00284 1.00368 0.986306
1.00097 1.00509 0.987855
1.00315 1.00368 0.986266
1.00484 1.00009 0.98639
0.999903 1.0001 0.994775
0.999971 1.00238 0.992349
1.00033 1.00471 0.989243
1.00469 1.00039 0.986325
1.00527 0.99992 0.985836
1.00232 1.00369 0.987099
1.00486 1.00175 0.984804
1.00523 1.00073 0.985136
1.00521 1.00073 0.98494
0.999981 0.99942 0.995373
1.00129 1.00462 0.988008
1.00034 1.00352 0.990702
1.00116 1.00481 0.988065
1.00528 0.999491 0.986306
1.00526 1.00031 0.985458
1.00521 0.998829 0.986937
1.00393 1.00272 0.985402
1.00521 1.00012 0.985766
1.00504 1.00134 0.984736
1.00517 1.00045 0.985425
1.00012 0.998903 0.995672
1.00035 1.00232 0.991951
1.0026 1.00376 0.986734
1.00068 1.00479 0.989276
1.00214 1.00384 0.98766
1.00523 0.998187 0.987609
1.00521 0.999436 0.986313
1.00518 0.997775 0.98789
1.00441 1.00164 0.985299
1.00515 0.999435 0.986454
1.00464 1.00136 0.985085
1.0003 1.00106 0.993259
1.00032 1.00235 0.991975
1.00015 1.00093 0.993645
1.00023 1.00095 0.993464
1.0002 0.998441 0.996515
1.00019 0.998599 0.996128
1 0.997272 0.997805
0.999836 0.99747 0.999038
0.999754 0.997698 0.999002
0.999856 1.00049 0.994441
0.999775 0.998795 0.998557
1.00002 1.00125 0.993464
0.999861 0.999473 0.998193
1.00016 1.00189 0.992588
1.00007 1.00009 0.997804
1.00483 0.999958 0.986541
1.00474 0.999672 0.987021
1.00529 0.998697 0.987166
1.00524 0.998161 0.987823
1.00465 0.999512 0.987328
1.00221 0.9999 0.991043
1.00464 0.999507 0.987366
1.00523 0.998031 0.987975
1.00527 0.998382 0.98755
1.00523 0.99572 0.990274
1.00529 0.999063 0.986765
1.00526 0.996898 0.988993
1.00522 0.998022 0.987994
1.00522 0.995542 0.990557
1.00527 0.996219 0.989703
1.00524 0.994933 0.990893
1.00524 0.997569 0.9883
1.00523 0.995376 0.990261
1.00465 0.999337 0.987435
1.00469 0.999677 0.987642
1.00523 0.998163 0.987994
1.00529 0.999087 0.986876
1.0007 1.00268 0.990906
1.00317 1.00279 0.986536
1.00512 1.00121 0.984706
1.00526 0.999688 0.986301
1.00522 0.997039 0.988898
1.00522 0.998542 0.987273
1.0052 1.0001 0.985833
1.00517 0.997763 0.987984
1.00162 1.00455 0.987567
1.00163 1.00462 0.987064
1.00068 1.00443 0.989276
1.00522 0.998226 0.987851
1.00526 0.99844 0.98762
1.00525 0.996018 0.989958
1.00524 0.997045 0.988831
1.00241 1.00372 0.986947
1.0049 1.00167 0.984751
1.00519 1.00124 0.984517
1.00523 0.99791 0.987828
1.00518 0.995554 0.990253
1.00517 0.999215 0.986551
1.00518 0.996858 0.98885
1.00515 0.996775 0.989072
1.00299 1.00356 0.9863
1.00299 1.00373 0.986167
1.00032 1.00397 0.990298
1.00083 1.00508 0.987993
1.00523 0.99564 0.99039
1.00525 0.996598 0.989277
1.00523 0.99519 0.990772
1.00519 0.995089 0.990657
1.00519 0.996024 0.989614
1.00517 0.995179 0.990596
1.00437 1.00208 0.985337
1.00516 0.995549 0.989976
1.00515 1.002 0.984017
1.00513 1.00083 0.984922
1.00517 0.998617 0.986994
1.00516 0.996817 0.989041
1.00014 1.00314 0.991372
1.00046 1.00508 0.988778
1.00419 1.00231 0.985487
1.00142 1.00504 0.987461
1.00376 1.00316 0.985974
0.999987 0.999329 0.995409
1.00528 0.999499 0.986287
1.00022 1.00366 0.990718
1.00116 1.00468 0.988018
1.00102 1.00484 0.988066
1.00527 1.00031 0.985435
1.00521 0.998827 0.986928
1.00414 1.00236 0.985404
1.00515 1.00122 0.984738
1.0052 1.0002 0.985652
1.00516 1.0004 0.985563
1.00013 0.998869 0.995695
1.00027 1.00239 0.991977
1.00262 1.00373 0.986733
1.00042 1.00484 0.989269
1.00191 1.00378 0.98766
1.00523 0.998181 0.987601
1.00521 0.999428 0.986304
1.00518 0.997742 0.987869
1.00469 1.00151 0.985303
1.00515 0.999484 0.986312
1.00484 1.00135 0.985088
1.00034 1.00148 0.992828
1.0004 1.00387 0.990579
1.00364 1.00205 0.986406
1.00082 1.00503 0.988921
1.00256 1.00243 0.988296
1.00519 0.997044 0.988664
1.00516 0.99852 0.987105
1.00519 0.99695 0.988308
1.00416 1.00111 0.985899
1.00494 1.00017 0.985669
1.00031 1.00105 0.993258
1.00032 1.00232 0.991888
1.0002 1.00248 0.991939
1.00041 1.00278 0.991557
1.00022 1.00244 0.992055
1.00007 1.00094 0.993754
1.00015 1.00091 0.993648
1.00019 0.99838 0.996586
1.00023 1.00097 0.99346
1.00021 0.998458 0.996526
1.00008 0.997068 0.997855
1.00018 0.998594 0.996449
0.999947 0.997267 0.998434
0.999845 0.997411 0.999046
0.999832 0.99964 0.995341
0.999879 1.00055 0.994412
0.999718 0.998228 0.998844
0.999827 0.9989 0.998452
1.00006 1.00128 0.993442
0.999943 0.999577 0.998096
1.00528 0.999068 0.986751
1.00528 0.998381 0.987531
1.00526 0.996893 0.98898
1.00523 0.995704 0.990316
1.00522 0.998036 0.987974
1.00464 0.999508 0.987366
1.00522 0.998027 0.987995
1.00522 0.99552 0.990568
1.00526 0.996214 0.989707
1.00524 0.994932 0.990916
1.00524 0.997552 0.988282
1.00523 0.995363 0.990303
1.00523 0.995525 0.990572
1.00523 0.994951 0.990989
1.00523 0.994973 0.990762
1.00522 0.994935 0.990928
1.00521 0.996217 0.989496
1.00522 0.994938 0.990638
1.00521 0.998119 0.987936
1.00526 0.998444 0.987609
1.00525 0.99577 0.990219
1.00524 0.997197 0.988693
1.00242 1.00381 0.986943
1.00485 1.0017 0.984759
1.00519 1.00124 0.984453
1.00523 0.998186 0.987572
1.00519 0.995331 0.990409
1.00517 0.996889 0.988851
1.00518 0.999182 0.986499
1.00516 0.996635 0.989173
1.00293 1.00358 0.986296
1.00263 1.00376 0.986067
1.00042 1.00387 0.990312
1.00071 1.00507 0.988132
1.00523 0.995644 0.990384
1.00525 0.996705 0.989193
1.00523 0.995076 0.990862
1.00519 0.995086 0.990662
1.00414 1.00246 0.985317
1.00505 1.00202 0.983976
1.00513 1.00078 0.984904
1.00519 0.996245 0.989424
1.00517 0.995071 0.990653
1.00515 0.998661 0.986966
1.00517 0.995546 0.989967
1.00516 0.996566 0.989189
1.0042 1.00226 0.985492
1.00351 1.00314 0.985974
1.0014 1.00503 0.98746
1.00014 1.00311 0.991329
1.00033 1.00506 0.988897
1.00523 0.994957 0.990999
1.00519 0.994998 0.990905
1.00518 0.994923 0.990709
1.00518 0.995104 0.990477
1.00496 1.00208 0.984551
1.00519 0.995353 0.990174
1.00508 1.00208 0.983697
1.00512 1.0005 0.985113
1.00514 0.998505 0.987043
0.999972 1.00199 0.992541
1.00015 1.00478 0.989852
1.00086 1.00504 0.988555
1.00479 1.0021 0.985149
1.00179 1.00505 0.986518
1.00405 1.00289 0.984943
1.00013 0.998841 0.995717
1.0002 1.00245 0.992003
1.00522 0.998175 0.987593
1.00013 1.00491 0.989259
1.00245 1.00396 0.986734
1.0017 1.00375 0.987658
1.0052 0.999421 0.986294
1.00518 0.997711 0.987848
1.00489 1.00137 0.985308
1.00505 1.00137 0.985092
1.00515 0.999524 0.98617
1.00031 1.00146 0.992841
1.00016 1.00403 0.99058
1.00385 1.00206 0.986235
1.00057 1.00504 0.988907
1.00241 1.00222 0.988417
1.00519 0.997021 0.988654
1.00516 0.998534 0.987081
1.00519 0.996996 0.988322
1.00445 1.00105 0.985799
1.00497 1.00029 0.985672
1.00035 1.00284 0.991548
0.999765 1.00476 0.990119
1.00432 1.00044 0.986792
1.00075 1.00424 0.989202
1.00337 1.00062 0.988328
1.00519 0.99581 0.989577
1.00518 0.998477 0.986989
1.00519 0.997066 0.988058
1.00451 1.00062 0.985989
1.00498 1.00015 0.985707
1.00031 1.00103 0.993257
1.00033 1.00235 0.991905
1.00011 1.00284 0.991679
1.00011 1.00257 0.991903
1.00016 1.00254 0.992046
1.00019 1.00295 0.99156
1.00013 1.00276 0.991937
1.00007 1.0033 0.991251
1.00011 1.00254 0.992143
1.00003 1.00107 0.993719
1.00007 1.00094 0.993753
1.00015 0.998407 0.996634
1.00014 1.00089 0.993652
1.0002 0.998396 0.996594
1.00012 0.996949 0.997892
1.00022 0.99846 0.99654
1.00006 0.997055 0.99786
0.999884 0.997249 0.999079
0.999891 0.998931 0.995978
0.999823 0.999751 0.995295
0.999696 0.997804 0.999027
0.999902 1.00062 0.994383
0.999765 0.998364 0.998748
0.999884 0.998996 0.998357
1.00524 0.997535 0.988264
1.00524 0.996217 0.989711
1.00523 0.995348 0.990344
1.00524 0.994926 0.99094
1.00522 0.995498 0.99058
1.00522 0.998031 0.987997
1.00522 0.995521 0.99056
1.00523 0.994953 0.990994
1.00523 0.99496 0.990824
1.00522 0.994935 0.990894
1.00522 0.996225 0.989505
1.00522 0.994929 0.990641
1.00524 0.994956 0.991027
1.00522 0.994943 0.990981
1.00522 0.994923 0.990797
1.00522 0.995165 0.990358
1.00523 0.99565 0.990379
1.00526 0.996807 0.989109
1.00523 0.994958 0.990952
1.00518 0.995086 0.990667
1.00405 1.00267 0.985296
1.00499 1.00206 0.983935
1.00514 1.00075 0.984886
1.00518 0.996467 0.989234
1.00517 0.994966 0.99071
1.00518 0.995558 0.989957
1.00514 0.998697 0.986936
1.00517 0.996287 0.989335
1.00412 1.00226 0.985496
1.0034 1.00284 0.985971
1.00131 1.00503 0.987458
1.00017 1.003 0.991291
1.00027 1.005 0.989018
1.00523 0.994951 0.990992
1.00519 0.995082 0.9908
1.00518 0.994926 0.990734
1.00472 1.00226 0.984546
1.00497 1.00221 0.983701
1.00511 1.00044 0.985104
1.00517 0.995155 0.990439
1.00516 0.998232 0.987373
1.00516 0.995435 0.990059
1.00002 1.00182 0.992724
1.00458 1.00195 0.985091
1.00363 1.00264 0.985835
1.00197 1.00507 0.986558
1.00083 1.00505 0.988683
1.00012 1.00476 0.989744
1.0052 0.994948 0.990991
1.0052 0.994927 0.990785
1.0052 0.994903 0.990645
1.00515 0.994944 0.990605
1.00507 1.00262 0.983985
1.00513 0.996434 0.989015
1.00495 1.00202 0.98377
1.00506 1.00088 0.984836
1.00008 1.00057 0.993862
0.999969 1.00379 0.991117
1.00039 1.00505 0.989412
1.00147 1.00503 0.987378
1.00473 1.00286 0.983721
1.00357 1.00421 0.984626
1.00027 1.00145 0.992854
0.999977 1.00413 0.990581
1.0052 0.996999 0.988645
1.00029 1.00505 0.988895
1.00409 1.00201 0.986064
1.00198 1.00222 0.988543
1.00516 0.998548 0.987059
1.00519 0.997056 0.988335
1.00474 1.00104 0.985698
1.00502 1.00041 0.985675
1.00025 1.0029 0.991555
0.999933 1.00479 0.989984
1.00462 1.00041 0.986698
1.00049 1.00452 0.989261
1.00319 1.00041 0.988686
1.0052 0.995793 0.989711
1.00518 0.998405 0.987134
1.00519 0.997203 0.988041
1.00452 1.00076 0.985972
1.00499 1.00028 0.985488
0.999767 1.00349 0.991291
0.999854 1.00504 0.989482
1.00455 0.999577 0.987022
1.00211 1.0018 0.988527
1.00524 0.994963 0.990181
1.00519 0.996381 0.989331
1.00502 0.999389 0.986124
1.00487 1.00006 0.985702
1.00036 1.00232 0.991923
1.00018 1.00283 0.991673
0.999768 1.00313 0.992306
1.00009 1.00265 0.992036
0.999968 1.00313 0.991563
1.00008 1.00258 0.992133
0.999984 1.00275 0.992102
1.00011 1.00333 0.991247
0.999923 1.00188 0.993126
0.999996 1.00359 0.991282
1.00005 1.0036 0.991008
1.00011 1.00261 0.992074
0.999985 1.00126 0.993543
1.00001 1.00105 0.993715
1.00008 0.998471 0.996681
1.00006 1.00092 0.993753
1.00015 0.998433 0.996639
1.00011 0.996939 0.997914
1.0002 0.998414 0.996604
1.0001 0.996934 0.997896
1.00004 0.99705 0.99786
1 0.998397 0.996349
0.999893 0.999009 0.995928
0.99973 0.997442 0.999135
0.999813 0.999868 0.995248
0.999725 0.997878 0.99898
0.999829 0.998448 0.99863
1.00522 0.996236 0.989513
1.00523 0.994943 0.990886
1.00522 0.994918 0.990646
1.00523 0.994935 0.99086
1.00523 0.994955 0.990999
1.00521 0.995514 0.990548
1.00524 0.994958 0.991008
1.00522 0.994945 0.990972
1.00522 0.994926 0.990793
1.00521 0.995142 0.990424
1.00523 0.994956 0.990994
1.00525 0.994933 0.990849
1.00526 0.994903 0.990633
1.00524 0.994944 0.990985
1.00519 0.995163 0.990695
1.00518 0.994929 0.990758
1.00449 1.0024 0.984543
1.00484 1.00233 0.983701
1.0051 1.00036 0.985095
1.00517 0.995195 0.990402
1.00513 0.995463 0.989944
1.00516 0.997951 0.987702
1.00445 1.00191 0.985027
1.00309 1.00248 0.986718
1.00228 1.00508 0.986598
1.00006 1.00165 0.992908
1.00065 1.00505 0.98881
1.00007 1.0048 0.989633
1.0052 0.994941 0.990989
1.0052 0.994923 0.990767
1.00519 0.994901 0.990646
1.00476 1.00263 0.984026
1.00501 1.00202 0.983666
1.00505 1.00064 0.985163
1.00516 0.994936 0.990557
1.00511 0.996428 0.988941
1.00009 1.00049 0.994058
0.999977 1.00379 0.991101
1.00446 1.00252 0.984001
1.00322 1.00423 0.985466
1.00141 1.00503 0.98764
1.00034 1.00505 0.989304
1.00523 0.994932 0.990871
1.00524 0.994883 0.99052
1.00518 0.994902 0.990615
1.0051 0.994937 0.990408
1.00477 1.00311 0.982935
1.00499 0.999403 0.986322
1.00491 1.00264 0.983541
1.00025 0.999893 0.994535
1.0003 1.00104 0.993344
0.999986 1.00206 0.992663
1.00011 1.00472 0.989956
1.00059 1.00504 0.988547
1.00127 1.0047 0.98697
1.00429 1.00283 0.98426
1.00346 1.00396 0.986173
1.00014 1.00303 0.991562
1.00007 1.0049 0.989847
1.00521 0.995774 0.989844
1.00057 1.0045 0.989315
1.0049 1.00042 0.986606
1.00296 1.00023 0.989037
1.00518 0.99831 0.987281
1.00519 0.997303 0.988027
1.00466 1.00086 0.985956
1.00497 1.00038 0.98527
0.999882 1.00356 0.991165
1 1.00505 0.989501
1.0048 0.999598 0.987142
1.00239 1.00193 0.988618
1.00526 0.994962 0.990242
1.00519 0.996335 0.989182
1.00502 0.999332 0.986213
1.00492 1.0002 0.985599
0.999763 1.00402 0.99086
1.00528 0.994879 0.990335
1.00168 1.00414 0.988474
1.0044 0.999969 0.987145
1.0052 0.995312 0.990356
1.00504 0.998223 0.986293
1.00478 1.00126 0.985101
1.00021 1.00287 0.991667
0.999739 1.00305 0.992235
0.999302 1.00273 0.993648
1.00008 1.00255 0.992124
1.00014 1.00337 0.991244
0.999559 1.00303 0.992267
1.00009 1.00261 0.992064
0.999976 1.00367 0.991031
0.999515 1.00213 0.993318
1.00012 1.00344 0.99126
0.9998 1.00085 0.994826
0.999652 1.00277 0.992616
1.00004 1.0044 0.990314
1.00033 1.00356 0.990686
1.0001 1.0029 0.991773
0.99993 1.0016 0.993294
0.999945 1.00135 0.993529
0.999992 0.998651 0.996683
0.999984 1.00111 0.993712
1.00008 0.998522 0.996677
1.00005 0.996958 0.997964
1.00016 0.998461 0.996646
1.00011 0.996918 0.997915
1.0001 0.996921 0.997897
1.00019 1.00003 0.994517
1.00009 0.998088 0.996518
1 0.998448 0.996321
0.999814 0.997101 0.999195
0.999891 0.999098 0.995879
0.999746 0.997511 0.999109
0.999759 0.997978 0.998927
1.0052 0.99512 0.990489
1.00522 0.99493 0.990789
1.00523 0.994946 0.990964
1.00524 0.994961 0.99099
1.00523 0.994958 0.99099
1.00524 0.994935 0.990862
1.00524 0.994902 0.990606
1.00524 0.994937 0.990903
1.0053 0.99492 0.990663
1.00531 0.994943 0.991108
1.00521 0.994935 0.990988
1.00519 0.994921 0.990751
1.00519 0.994901 0.990648
1.00438 1.00267 0.984069
1.00506 1.00215 0.983573
1.00495 1.00046 0.985491
1.00516 0.994935 0.990509
1.00511 0.996512 0.988869
1.0044 1.00254 0.98429
1.00291 1.00428 0.986309
1.00117 1.00502 0.987902
1.00009 1.00036 0.994253
1.00011 1.00369 0.991087
1.00035 1.00505 0.989195
1.00523 0.994932 0.990863
1.0002 0.999933 0.994529
1.00024 1.0011 0.99325
1.00524 0.994894 0.990533
1.00517 0.994898 0.990626
1.00496 1.0031 0.982945
1.0048 1.00249 0.983645
1.00496 0.999273 0.986241
1.0051 0.995056 0.990333
1.00003 1.00201 0.992854
1.00013 1.00471 0.989922
1.00447 1.00325 0.983913
1.0026 1.0038 0.986972
1.00144 1.00481 0.987265
1.00065 1.00503 0.988595
1.00528 0.994925 0.990635
1.00524 0.994812 0.990528
1.00512 0.994895 0.990328
1.0048 0.995249 0.990286
1.00437 1.00346 0.983492
1.00434 1.00283 0.984293
1.00007 1.00159 0.992924
1.00029 1.00093 0.993443
1.00067 1.00112 0.992825
1.00034 1.00286 0.99128
1.00025 1.00496 0.989479
1.00192 1.00427 0.98775
1.00048 1.00519 0.987619
1.00356 1.00072 0.986672
1.00004 1.00354 0.99104
1.00027 1.00504 0.989523
1.00527 0.994955 0.990303
1.00518 0.996338 0.989034
1.00269 1.00211 0.988712
1.00491 0.999591 0.987265
1.00501 0.999301 0.986299
1.00505 1.00035 0.985497
0.999992 1.00392 0.99079
1.00529 0.994883 0.990534
1.00144 1.00422 0.988505
1.00456 1.00001 0.986916
1.0052 0.995289 0.99036
1.00503 0.998401 0.986558
1.00474 1.00112 0.985151
1.00014 1.00464 0.990213
1.00464 0.994867 0.991382
1.00298 1.0026 0.98771
1.00448 1.00119 0.985678
1.00483 0.996752 0.989495
1.00355 1.00173 0.985709
0.998552 0.997578 0.987869
0.999627 1.00308 0.992166
0.998974 1.00292 0.993623
0.999544 1.00222 0.994037
1.00004 1.00266 0.992052
0.999945 1.00374 0.991055
1.00036 1.00318 0.991239
0.999257 1.0022 0.993513
1.00007 1.00292 0.991772
1.00023 1.00368 0.990709
0.999753 1.00095 0.994506
1.00007 1.00439 0.990331
0.999866 1.00269 0.992383
0.999337 1.00157 0.994798
1.00036 1.00473 0.989667
1.0001 1.0044 0.990364
1.00049 1.00379 0.990269
1.00012 1.00325 0.991208
1.00025 1.00388 0.990752
1.00011 1.00338 0.991045
0.999938 1.00169 0.993181
0.999952 1.00159 0.993279
0.999909 0.998791 0.996099
0.999957 1.00133 0.993512
0.999987 0.998712 0.996369
1.00001 0.997081 0.999128
1.00008 0.998569 0.996675
1.00007 0.996928 0.997966
1.00011 0.996898 0.997911
1.0001 1.00004 0.994581
1.00021 0.999936 0.994536
1.00009 0.998006 0.996627
1.00007 0.998111 0.996779
0.99989 0.996923 0.99923
1 0.998489 0.996294
0.99981 0.997207 0.999181
0.999765 0.997569 0.999083
1.00522 0.994901 0.99058
1.00524 0.994936 0.990874
1.00523 0.99496 0.990985
1.00524 0.994936 0.990902
1.00529 0.994918 0.990667
1.0053 0.994939 0.990748
1.00532 0.99492 0.990697
1.00123 0.994893 0.984231
1.00446 0.994909 0.992882
0.999999 1.00148 0.993315
1.00523 0.99493 0.990855
1.00524 0.994901 0.990545
1.00515 0.994892 0.990637
1.00481 1.00289 0.982945
1.005 1.00234 0.983746
1.005 0.999235 0.986167
1.0051 0.995185 0.990257
1.0049 1.00323 0.983563
1.00175 1.00366 0.987763
1.00156 1.00494 0.987566
1.00014 1.00004 0.994524
1.00074 1.00503 0.988645
0.999998 1.00197 0.993038
1.00023 1.00469 0.989888
1.00024 1.00106 0.993156
1.00528 0.994909 0.990629
1.00009 1.00155 0.993035
1.00018 1.00109 0.993445
1.00057 1.0011 0.992905
1.00525 0.994833 0.990494
1.00513 0.994896 0.990349
1.00407 1.00374 0.983565
1.00454 1.00191 0.984902
1.00476 0.995794 0.990176
1.00004 1.00307 0.991442
1.00039 1.00493 0.989342
1.00346 1.00208 0.986499
1.00116 1.00499 0.987566
1.00164 1.00407 0.987908
1.00525 0.994872 0.990854
1.00514 0.994819 0.990769
1.00506 0.995174 0.989952
1.00455 0.997666 0.989532
1.00228 1.00334 0.987351
0.999866 1.00272 0.992102
1.00069 1.00113 0.992378
0.999919 1.00199 0.992481
1.00003 1.00443 0.9912
1.00025 1.00481 0.989699
1.00034 1.00458 0.988717
1.00167 1.00205 0.988689
1.00032 1.00378 0.990718
1.00102 1.00429 0.988535
1.0053 0.994876 0.990722
1.00521 0.995232 0.99036
1.00501 0.998594 0.986825
1.00462 1.00004 0.986685
1.00471 1.00096 0.985206
1.00039 1.00454 0.99023
1.00457 0.994866 0.991559
1.00296 1.00238 0.987543
1.00452 1.00111 0.985695
1.00492 0.99608 0.989766
1.00372 1.00188 0.985763
0.998588 0.997802 0.985858
1.00048 1.00434 0.990017
1.00256 0.998764 0.991014
1.00336 1.0016 0.986997
1.00275 1.00127 0.987355
1.0031 0.997847 0.990516
0.999989 0.994912 0.949071
0.996587 0.994834 0.968326
0.995904 1.00117 0.98817
0.999775 0.994823 0.878369
0.994702 0.994795 0.846529
0.998724 1.00311 0.993603
0.998882 1.0027 0.994309
0.999061 1.00285 0.994332
1.00006 1.00293 0.991771
1.00031 1.00351 0.99073
1.00008 1.00437 0.990347
1.00007 1.00259 0.992146
0.999704 1.00105 0.994184
1.00017 1.00428 0.990308
1.00011 1.00325 0.991292
1.00044 1.00378 0.990326
0.999535 1.00113 0.994455
1.00017 1.00464 0.989942
1.00025 1.00458 0.990077
0.999495 1.00472 0.990758
1.00006 1.00462 0.990185
1.00046 1.00411 0.989889
1.0002 1.00328 0.991062
1.00035 1.00422 0.990079
1.00029 1.0039 0.990651
0.999881 1.00405 0.990917
1.00018 1.00396 0.990667
1.00017 1.00317 0.991416
1.00014 1.00338 0.991035
0.999975 1.00165 0.993175
0.999956 1.00168 0.993184
0.99989 0.998885 0.996084
0.999939 1.00164 0.993265
0.999904 0.998823 0.996091
0.999981 0.997079 0.999147
0.999977 0.998782 0.996055
1.00001 0.997074 0.99854
1.00008 0.996898 0.997965
1.00001 1.00005 0.994724
1.00012 1.00004 0.994584
1.0001 0.99791 0.996725
1.00023 0.999851 0.994554
1.00009 0.997947 0.996888
0.999935 0.996744 0.999263
1.00006 0.998179 0.996496
0.999878 0.996987 0.999215
0.999812 0.997251 0.999167
1.00528 0.994917 0.990671
1.00524 0.994936 0.990901
1.00529 0.994939 0.990398
1.00083 0.994885 0.984356
1.00531 0.994918 0.990704
1.00431 0.995258 0.992515
1.00503 0.996336 0.991264
0.996432 0.9949 0.967591
1.00048 0.996735 0.986559
1.00005 1.00138 0.993375
1.00006 1.00145 0.993293
0.999839 1.00273 0.992317
0.999865 1.00229 0.992718
1.00528 0.994901 0.990624
1.00526 0.994859 0.99046
1.00514 0.994896 0.99037
1.00477 1.00363 0.983634
1.00442 1.00054 0.985505
1.00467 0.996287 0.990062
1.00303 1.00333 0.986342
1.00207 1.00477 0.987512
1.00144 1.00373 0.988064
1.00006 1.00135 0.993448
1.00034 1.00504 0.989205
1.00009 1.00319 0.991605
1.00009 1.00157 0.993147
1.00042 1.00109 0.992975
1.00525 0.994864 0.99086
1.00001 1.00269 0.992112
1.00075 1.00112 0.992567
0.999388 1.00188 0.993582
1.00514 0.99482 0.990668
1.005 0.99524 0.989959
1.00312 1.00228 0.987295
1.00425 0.997155 0.989981
1.00021 1.00394 0.990899
1.00038 1.00488 0.989083
1.00183 1.0032 0.988538
1.00146 1.00418 0.988394
1.00444 0.994785 0.991815
1.00496 0.995308 0.990915
1.00494 0.995929 0.989689
1.00246 0.99865 0.992049
0.999371 1.00372 0.992005
1.00041 1.0021 0.991764
0.998725 1.00443 0.992314
0.999287 1.00518 0.990074
0.999986 0.994899 0.938479
1.00052 1.00445 0.990244
1.0029 1.00229 0.987375
1.00442 0.99488 0.991753
1.005 0.99564 0.990034
1.00382 1.00199 0.985801
1.0045 1.00105 0.985705
0.998715 0.997402 0.983756
1.00043 1.00412 0.990342
1.00262 0.997919 0.991021
1.00324 1.00192 0.987023
1.0034 1.00103 0.987369
1.00349 0.997862 0.990266
1.00075 0.994904 0.937623
0.996706 0.994842 0.964208
0.996178 1.00184 0.988182
0.999568 0.994813 0.882622
0.994709 0.994798 0.835627
1.00027 1.00402 0.990712
0.999803 0.994865 0.889546
0.994696 0.994786 0.842576
1.00095 1.00006 0.991599
1.0018 1.00146 0.989717
1.00143 0.999677 0.992056
0.995546 1.00185 0.989597
0.999782 0.994956 0.945617
0.994899 0.994827 0.961469
0.997268 0.9961 0.893891
0.994736 0.994806 0.83551
0.998343 1.00302 0.994582
0.998792 1.00262 0.994202
0.999038 1.00409 0.993078
1.00015 1.00321 0.991376
1.00039 1.00384 0.990384
0.999899 1.00453 0.990254
0.999983 1.00458 0.990218
0.999756 1.00062 0.994111
1.00019 1.00331 0.991062
1.00006 1.00487 0.990025
1.00002 1.00468 0.990151
1.00055 1.00393 0.990011
0.999426 1.00479 0.990947
0.999676 1.00507 0.990627
0.998704 1.00487 0.991618
1.00029 1.00457 0.989826
1.00043 1.00408 0.990114
1.0004 1.00417 0.990068
1.00019 1.00382 0.990784
1.00041 1.00441 0.989799
0.999877 1.00414 0.99093
0.999599 1.00363 0.991227
0.999828 1.00488 0.990162
0.999778 1.00448 0.990592
0.999968 1.004 0.990924
1.00008 1.0031 0.991569
1.00012 1.00398 0.990583
1.00017 1.00315 0.991356
1.00002 1.00168 0.993093
1.0002 1.00335 0.991026
0.999962 1.00167 0.993183
0.999991 0.998838 0.996598
0.99994 1.0017 0.993186
0.99991 0.998847 0.996367
0.999968 0.997082 0.997988
0.999898 0.998842 0.996084
0.999979 0.997087 0.999151
1.00002 0.997078 0.99795
1.00012 1.0014 0.993213
0.999959 1.00006 0.994788
1.00002 1.00004 0.994723
1.00008 0.997893 0.996764
1.00014 1.00001 0.994587
1.00011 0.997866 0.996727
0.999974 0.99665 0.99928
1.00009 0.997934 0.997124
0.999952 0.996848 0.998737
0.99992 0.997063 0.998162
1.00047 0.994887 0.984491
1.0053 0.994919 0.990711
1.004 0.996101 0.992141
0.99662 0.9949 0.96851
1.00046 0.996364 0.986908
1.00503 0.995797 0.991182
1.00301 0.997094 0.987578
0.996607 0.99613 0.971522
0.99998 0.99489 0.946663
0.999477 0.995711 0.896868
0.994661 0.994764 0.845158
0.999801 1.00241 0.992585
1.00006 1.00137 0.993367
1.00015 1.00139 0.993272
0.999898 1.00266 0.992329
0.999571 1.00359 0.991972
1.00031 1.00222 0.991951
1.00005 1.00279 0.992181
0.999967 1.00226 0.992568
1.00525 0.994842 0.990863
1.00514 0.994824 0.990569
1.005 0.995183 0.989967
1.00324 1.00201 0.987246
1.00402 0.996924 0.990438
1.00206 1.00417 0.988377
1.00241 1.00392 0.988074
1.00069 1.00504 0.988473
1.0005 1.00118 0.992761
1.00015 1.00396 0.990592
1.00016 1.00266 0.992127
0.999039 1.00177 0.994674
1.00438 0.994787 0.99202
0.999454 1.00364 0.992066
1.00029 1.00243 0.992099
1.00484 0.9951 0.990886
1.00484 0.995528 0.989885
1.00226 0.998649 0.991594
0.999514 1.00493 0.991198
1.00027 1.00457 0.990227
1.00315 0.994816 0.991963
1.00425 0.99721 0.990815
1.00474 0.995207 0.990992
1.00105 0.999191 0.99304
0.999769 1.00468 0.990464
0.999405 1.00412 0.991645
0.999426 1.00529 0.991131
0.999829 0.994887 0.891747
1.00033 0.994908 0.950152
1.00045 1.00389 0.990667
1.00322 1.00213 0.987054
1.00256 0.997441 0.991029
1.00396 0.998 0.990024
1.00401 1.00081 0.987402
0.999979 0.994902 0.947671
0.996722 0.99486 0.963585
0.996319 1.00251 0.988169
0.999295 0.994886 0.896342
0.994715 0.9948 0.824211
1.00027 1.00382 0.990645
0.999815 0.994862 0.889313
0.994671 0.994788 0.836331
1.00104 1.00006 0.991656
1.00193 1.00134 0.98977
1.00155 0.999877 0.99238
0.995689 1.00226 0.990257
1.00112 0.995948 0.938845
0.994886 0.994804 0.96469
0.997729 0.998241 0.89296
0.994754 0.994795 0.834278
0.999561 1.00385 0.992701
0.994697 0.994836 0.83718
0.994752 0.994809 0.850228
0.998229 1.00147 0.995514
0.999738 1.00181 0.99428
0.994994 1.00211 0.989152
0.994896 0.996517 0.964952
0.997166 0.996301 0.93495
0.994738 0.999403 0.897941
0.994827 0.994814 0.83731
0.998689 1.00242 0.994078
0.999323 1.00365 0.992799
0.998295 1.00391 0.993388
1.00016 1.00333 0.991061
1.00061 1.00378 0.990132
1.00001 1.0047 0.990114
0.999905 1.00503 0.989974
0.999217 1.00479 0.991137
1.0004 1.00411 0.990112
0.99968 1.00498 0.990469
1.00035 1.0045 0.989833
0.998395 1.00494 0.991974
0.996487 1.00501 0.994977
0.999506 1.00474 0.991071
1.00053 1.00443 0.98968
1.00045 1.00412 0.990057
1.00017 1.0037 0.990915
1.00039 1.00451 0.989755
0.99996 1.00408 0.990873
0.999472 1.00354 0.991818
0.999533 1.00488 0.990556
0.999611 1.00452 0.990695
0.998993 1.00424 0.991974
1.00054 1.00227 0.991749
1.00092 1.00268 0.989807
0.999591 1.00479 0.990325
0.999948 1.00475 0.990183
0.999815 1.00483 0.990134
0.999825 1.00458 0.990585
0.999998 1.00338 0.991381
0.999976 1.0041 0.99093
1.0001 1.0031 0.991571
1.00008 1.0016 0.993013
1.00017 1.00316 0.991296
1.00002 1.00166 0.99311
1.00007 0.998844 0.99645
0.99996 1.00167 0.993191
0.999981 0.99882 0.996271
1.00003 0.99702 0.997926
0.999911 0.998831 0.996078
0.999981 0.997089 0.999152
0.999978 0.99709 0.999155
1.00016 1.00171 0.993134
0.999951 1.0002 0.99469
1.00008 1.00148 0.993223
1.00008 0.997889 0.996768
0.999957 1.00007 0.994789
1.00003 1.00005 0.994723
1.00009 0.99788 0.996759
1 0.996596 0.999283
1.00009 0.997839 0.997204
0.999991 0.996655 0.998786
0.99997 0.996857 0.998244
0.999828 0.994875 0.879471
0.99466 0.994771 0.837783
0.997664 0.99488 0.968425
1.00052 0.995408 0.987299
1.00506 0.995094 0.991101
0.996229 0.995733 0.972081
1.00334 0.996133 0.988015
1.00112 0.994894 0.944508
0.999742 0.994814 0.882592
0.994694 0.994774 0.83446
0.998514 0.994834 0.976443
0.999928 0.995477 0.9459
0.997321 0.997086 0.892731
0.994734 0.994769 0.838198
1.0001 1.00324 0.991532
0.99986 1.00224 0.992701
1.00009 1.00136 0.993361
0.999902 1.00263 0.992341
0.99958 1.0034 0.99213
1.00004 1.00358 0.991176
1.00025 1.00273 0.991759
1.00033 1.00331 0.990901
1.00006 1.00274 0.992068
1 1.00234 0.99242
1.00435 0.994793 0.992216
1.00474 0.994872 0.990864
1.00455 0.995284 0.990079
1.00202 0.998889 0.99114
1.00095 1.00431 0.990382
0.999667 1.00516 0.990084
1.0004 1.0022 0.992449
0.999507 1.00367 0.992122
1.00284 0.99512 0.992313
0.999822 1.00473 0.990311
0.999165 1.00428 0.991544
1.00424 0.996343 0.990906
1.00467 0.995356 0.990614
1.00098 0.999218 0.993215
0.999494 1.00524 0.990953
1.00051 0.995487 0.992379
1.00255 0.996799 0.993739
1.00001 1.00166 0.993453
0.998959 1.00483 0.990218
0.999453 1.00492 0.990327
0.999184 1.00514 0.991148
0.994727 0.994857 0.857718
0.999825 0.994895 0.896275
0.999977 0.994914 0.938741
1.00004 1.00379 0.990569
1.00214 1.00118 0.989813
1.00121 1.00005 0.991715
1.0016 0.999775 0.992701
0.999826 0.994862 0.8988
0.999735 0.994884 0.936899
0.994874 0.994824 0.96167
0.995763 1.00258 0.990899
0.997278 0.996285 0.880381
0.994654 0.994795 0.840202
0.994745 0.994801 0.844303
0.999342 1.00339 0.992516
0.994695 0.994834 0.845809
0.994778 0.994812 0.849791
0.998101 1.00117 0.995838
0.999379 1.0016 0.994235
0.995214 0.999402 0.991795
0.994908 0.996128 0.963594
0.997325 0.999146 0.945582
0.995757 0.999565 0.883796
0.994819 0.994807 0.846579
0.997326 1.00339 0.995988
0.994792 0.994856 0.858526
0.99481 0.99479 0.848663
0.995193 1.00205 1.00016
0.994858 0.99865 0.971425
0.994893 0.999941 0.945998
0.995148 0.997869 0.877432
0.994873 0.994845 0.848403
0.999557 1.00327 0.992505
0.998589 1.00384 0.993702
0.996865 1.00453 0.995791
1.00036 1.00417 0.99011
1.00045 1.0044 0.989841
0.999745 1.00491 0.990311
0.99806 1.00493 0.992336
1.00042 1.00451 0.989694
0.999499 1.00472 0.991024
0.996543 1.00496 0.995424
0.995138 1.0052 0.99743
0.996618 1.00499 0.995452
1.00006 1.00419 0.990684
1.00038 1.00462 0.989709
1.00001 1.004 0.990815
0.999264 1.00362 0.992398
0.999618 1.00452 0.990773
0.999611 1.00489 0.99058
0.999014 1.00437 0.992067
0.999406 1.0045 0.991467
0.997573 1.0049 0.993871
1.00201 0.998339 0.992537
1.00049 1.00204 0.992002
1.00091 1.00239 0.990463
1.00338 1.00249 0.986722
1.00051 1.00412 0.990467
1.00042 1.00283 0.990741
0.999911 1.00466 0.990218
0.999788 1.00483 0.989952
1.00009 1.00459 0.990203
0.999945 1.00484 0.99014
1.00004 1.00384 0.990892
1.00003 1.00452 0.990578
1.00012 1.00329 0.991365
1.00013 1.00166 0.992896
1.00021 1.00298 0.991572
1.00013 1.0016 0.993018
1.00015 0.998869 0.996306
1.00004 1.00162 0.993126
1.00007 0.998849 0.9961
1.00007 0.997093 0.997798
0.999988 0.998809 0.995975
1.00001 0.997045 0.99854
0.999987 0.997068 0.999144
1.00019 1.00224 0.992282
1.00003 1.00033 0.994462
1.0001 1.00174 0.992955
1.00007 0.997947 0.996713
0.999961 1.00017 0.994693
1.00004 1.00155 0.99323
1.00002 0.996566 0.999283
1.00007 0.997893 0.996768
0.99996 1.00008 0.994791
1.00009 0.997864 0.996754
1 0.996616 0.999283
0.999974 0.996638 0.999281
0.994687 0.994815 0.84238
0.999825 0.994874 0.889006
0.994768 0.994799 0.848044
0.994687 0.99478 0.835949
0.996008 0.995441 0.969674
1.00354 0.995257 0.988479
1.00001 0.994947 0.94186
0.999786 0.995213 0.897123
0.99473 0.994778 0.82342
0.998362 0.995189 0.975755
1.00142 0.995973 0.933399
0.997708 0.99846 0.891985
0.994753 0.994773 0.832158
0.995465 0.994891 0.96936
0.997281 0.997678 0.934644
0.994788 0.999125 0.877822
0.994821 0.994823 0.833796
1.00019 1.00423 0.990831
0.999996 1.00315 0.991656
0.99988 1.00219 0.992814
0.99958 1.00323 0.992289
1.00049 1.00402 0.989887
0.99995 1.00356 0.991338
1.00004 1.00312 0.991569
1.00071 1.0029 0.990908
1.00041 1.00332 0.990975
1.00007 1.00264 0.991955
1.00267 0.994833 0.99266
1.00429 0.99532 0.991015
1.00457 0.995533 0.990237
1.00096 0.99873 0.993408
1.00006 1.00518 0.990774
0.999327 1.00452 0.99145
0.999785 1.00491 0.990158
0.9999 1.00506 0.98992
1.00019 0.995587 0.992712
0.999804 1.00494 0.99021
0.999565 1.00516 0.991084
1.00261 0.996227 0.994028
1.00063 1.00043 0.993301
0.997793 0.996898 0.993408
0.997993 0.998468 0.999703
0.998172 1.00358 0.993731
0.999924 1.00462 0.990338
0.999078 1.00506 0.991569
0.994833 0.994836 0.86377
0.994728 0.994854 0.854581
0.999818 0.994881 0.88261
0.999256 1.00291 0.992351
0.999194 1.00141 0.994169
0.998152 1.00068 0.996171
0.994675 0.994828 0.84533
0.997355 0.997387 0.935584
0.994936 0.996278 0.964057
0.995506 0.997153 0.994646
0.994802 0.998621 0.899214
0.994789 0.994816 0.849621
0.994833 0.994818 0.847064
0.997486 1.00319 0.996373
0.994798 0.994847 0.861333
0.9948 0.994787 0.849019
0.995324 1.00181 0.999092
0.994917 0.998225 0.973188
0.995422 0.999163 0.935026
0.994863 0.994844 0.846287
0.994909 0.999608 0.885176
0.995384 1.0049 0.998921
0.994785 0.994825 0.862299
0.994842 0.994804 0.853155
0.994813 0.994823 0.834531
0.994967 0.999495 0.991414
0.994936 0.998909 0.949628
0.9953 0.998616 0.89012
0.999014 1.00394 0.99402
0.997339 1.00481 0.995049
0.995042 1.00517 0.99861
1.00034 1.00456 0.989709
0.999405 1.00473 0.990975
0.996615 1.00502 0.99586
0.999859 1.00437 0.990629
0.996847 1.00501 0.995445
0.995398 1.00519 0.997422
0.995159 1.00528 0.997912
0.997036 1.00473 0.99498
0.999569 1.00454 0.990857
0.999676 1.00492 0.990604
0.999058 1.0045 0.992171
0.997855 1.00483 0.993726
0.999352 1.00453 0.99139
0.999048 1.00285 0.993551
1.0005 0.999008 0.994594
1.0019 1.00112 0.989227
1.00042 1.00183 0.992253
1.00151 1.00239 0.99008
1.00382 1.00227 0.986116
1.00468 1.00164 0.984994
1.00143 1.00341 0.989014
1.00282 1.00243 0.986941
1.00034 1.00495 0.989482
1.00025 1.00413 0.990603
0.99989 1.00298 0.991671
1.00021 1.00454 0.99011
0.99983 1.0049 0.98996
1.00018 1.00405 0.990462
1.00003 1.00485 0.990147
1.00013 1.00373 0.990903
1.00014 1.00199 0.992555
1.00018 1.00327 0.99135
1.00015 1.00165 0.992884
1.00015 0.998875 0.996257
1.00014 1.00157 0.993023
1.00014 0.998856 0.995969
1.00009 0.997162 0.99771
1.00008 0.998829 0.995793
1.00005 0.997091 0.998457
1.00002 0.997062 0.99911
1.00041 1.00235 0.991628
1.00009 1.00065 0.99379
1.00024 1.00221 0.992279
1.00011 0.998028 0.996575
1.00002 1.00033 0.994316
1.0001 1.00174 0.992781
1.00004 0.996612 0.999266
1.00008 0.99793 0.99672
0.999964 1.00014 0.994696
1.00002 0.996589 0.999283
1.00006 0.997899 0.996768
1 0.996604 0.999283
0.994828 0.994837 0.855894
0.994698 0.994834 0.852093
0.999824 0.994863 0.8889
1.00084 1.00281 0.99067
0.994814 0.994801 0.855629
0.994764 0.994795 0.847955
0.994706 0.994794 0.845006
0.998669 0.99561 0.97474
0.999603 0.995728 0.944443
0.997218 0.996856 0.878602
0.994745 0.994795 0.837625
0.996659 0.994917 0.966197
0.997329 0.99927 0.944488
0.995616 0.999748 0.881474
0.994813 0.994814 0.838185
0.994895 0.994927 0.961625
0.994884 0.99913 0.943849
0.994872 0.99998 0.887394
0.994876 0.994843 0.848092
1.00002 1.00472 0.990186
1.00012 1.00415 0.990609
1.0001 1.00294 0.99178
1.00062 1.00338 0.990396
1.00038 1.00411 0.990127
0.999974 1.00358 0.991497
1.00073 1.00297 0.990894
1.00043 1.00335 0.991043
0.999353 0.996518 0.992918
1.00275 0.995818 0.994257
1.00018 1.00506 0.989619
1.00114 0.999978 0.993145
0.999814 1.00517 0.991017
1 1.00504 0.990097
0.999792 1.00462 0.990292
0.996887 0.996407 0.994124
0.999252 1.00466 0.991825
0.998756 1.00345 0.993863
0.997848 0.998706 0.999882
0.999793 1.00474 0.990903
0.995876 0.99975 0.990484
0.995609 1.0028 0.999267
0.996956 1.00476 0.994841
0.999188 1.00397 0.992588
0.994781 0.994799 0.867954
0.994831 0.994831 0.862539
0.994728 0.994854 0.851409
0.997529 1.00319 0.996778
0.995357 1.00121 0.998023
0.994806 0.994838 0.864009
0.994889 0.999929 0.946001
0.994882 0.997851 0.970609
0.994834 0.999705 0.884334
0.994798 0.994783 0.849276
0.994852 0.994845 0.844193
0.99559 1.00473 0.998618
0.994786 0.994827 0.862158
0.994838 0.994802 0.855828
0.994841 1.00022 0.994928
0.9948 0.99482 0.838689
0.994925 0.997675 0.942985
0.995112 0.999009 0.893219
0.994915 1.00383 0.99839
0.994804 0.99484 0.866491
0.994797 0.9948 0.856279
0.994718 0.994777 0.83878
0.995114 0.999981 0.887054
0.99491 1.00019 0.978572
0.995202 0.998858 0.935926
0.998017 1.00486 0.994319
0.995431 1.00516 0.998277
0.994932 1.00515 0.998692
0.99969 1.00445 0.990575
0.996971 1.00508 0.995442
0.995647 1.00516 0.997426
0.9972 1.00465 0.994925
0.995246 1.00502 0.997941
0.997651 1.00205 0.99755
0.998106 1.00473 0.993574
0.999263 1.00448 0.991319
0.999109 1.00294 0.993862
0.998944 1.0034 0.992081
0.999007 0.999622 0.996594
1.00183 1.00077 0.990088
1.004 1.00275 0.984761
1.00491 1.00189 0.984192
1.00211 1.00238 0.989679
1.00397 1.00244 0.985374
1.00517 1.0011 0.985081
1.00363 1.00168 0.986638
1.00443 1.00164 0.985219
1.0004 1.00508 0.98882
1.00155 1.00352 0.988901
1.00222 1.00238 0.987162
1.00019 1.00442 0.989932
1.00009 1.00501 0.98962
1.00002 1.0041 0.990741
0.99988 1.005 0.989969
1.00023 1.004 0.990472
1.00022 1.00238 0.992011
1.00022 1.00365 0.990913
1.00015 1.00201 0.992546
1.00012 0.999047 0.995502
1.00019 1.00169 0.992872
1.00017 0.998874 0.9956
0.999998 0.997158 0.999035
1.00015 0.998862 0.99565
1.00007 0.997161 0.998378
1.00004 0.997113 0.999057
1.00041 1.00249 0.991447
1.00023 1.00096 0.993255
1.00037 1.0024 0.991755
1.00015 0.998165 0.996365
1.00013 1.00064 0.993724
1.00024 1.00222 0.992274
1.00005 0.996641 0.999235
1.00011 0.998005 0.996588
1.00003 1.00033 0.994171
1.00004 0.996586 0.999272
1.00008 0.997912 0.996727
1.00002 0.99661 0.999283
0.99479 0.994833 0.865787
0.994824 0.994844 0.855963
0.99469 0.994837 0.852201
1.00074 1.00285 0.990803
1.00063 1.00307 0.990593
1.00082 1.00278 0.990884
0.994855 0.994803 0.852533
0.994814 0.994793 0.855898
0.994759 0.994788 0.847886
0.996792 0.994862 0.967869
0.997365 0.997334 0.933415
0.994778 0.999932 0.897854
0.994826 0.994823 0.833451
0.994967 0.995101 0.965046
0.995349 0.999931 0.940323
0.994824 0.999297 0.885272
0.99487 0.994838 0.845824
0.9949 0.995767 0.961389
0.994875 0.998587 0.945635
0.995338 0.998971 0.889766
0.994845 0.994815 0.837518
1.0002 1.00368 0.9907
1.00024 1.00448 0.989984
1.00033 1.00403 0.990387
1.0007 1.0033 0.990352
1.00019 1.00422 0.990372
1.00074 1.00305 0.990879
0.996236 0.996288 0.994841
0.997411 0.999036 1.00013
0.99989 1.0044 0.990244
0.999272 1.00258 0.993985
0.999251 1.00455 0.992077
0.999555 1.0047 0.990909
0.998836 1.00425 0.992705
0.995438 0.999926 0.990468
0.996823 1.00502 0.99548
0.996025 1.00291 0.998486
0.99883 1.00435 0.992762
0.995289 1.00204 0.986989
0.995647 1.00408 0.996341
0.996516 1.00465 0.996505
0.994802 0.994811 0.869456
0.99478 0.994805 0.868125
0.994831 0.994827 0.861309
0.995601 1.00445 0.998275
0.99479 1.0005 0.991333
0.994792 0.99483 0.862026
0.994835 0.999043 0.943334
0.995272 0.998611 0.879816
0.994836 0.994801 0.858484
0.994823 0.99483 0.834246
0.994938 1.00366 0.998907
0.994803 0.994842 0.867565
0.994806 0.994796 0.856553
0.994909 0.999744 0.975744
0.994747 0.994778 0.832984
0.995128 0.99997 0.883995
0.994934 0.998116 0.947966
0.995018 1.00505 0.992647
0.994784 0.994839 0.865973
0.994778 0.994805 0.849015
0.994663 0.994757 0.846339
0.995065 0.998468 0.877575
0.995112 0.999876 0.944131
0.994908 1.00067 0.969766
0.995812 1.00519 0.997933
0.995147 1.00475 0.99869
0.997146 1.00215 0.998195
0.997386 1.00462 0.994872
0.995404 1.00484 0.997938
0.99646 1.00358 0.99754
0.999161 0.997309 0.999672
0.999172 1.00314 0.994166
1.00097 1.00243 0.991516
1.00245 1.00376 0.987026
1.00168 1.00052 0.99102
1.00401 1.00264 0.985039
1.00439 1.00393 0.98311
1.00489 1.00174 0.984109
1.00507 1.00156 0.984397
1.00489 1.00198 0.984077
1.00431 1.00253 0.984637
1.00498 1.00085 0.986205
1.00509 1.00118 0.984969
1.00203 1.00328 0.987562
1.00356 1.00178 0.986853
1.00423 1.00165 0.985443
1.00025 1.00489 0.989032
1.00071 1.00504 0.988772
1.00155 1.00365 0.988785
1.00031 1.00296 0.991395
1.00039 1.00432 0.989934
0.999886 1.00505 0.989756
1.00031 1.00387 0.990483
1.00028 1.00235 0.992008
1.00007 0.999341 0.995298
1.00019 1.00197 0.992536
1.00014 0.999065 0.995486
0.999983 0.997292 0.999007
1.00018 0.998894 0.995591
1.00005 0.99719 0.998365
1.00004 0.997159 0.999028
1.00043 1.00291 0.991254
1.00032 1.00118 0.993076
1.00048 1.00243 0.991518
1.0002 0.998355 0.996082
1.00022 1.00097 0.99334
1.00036 1.00242 0.991884
1.00007 0.99672 0.999188
1.00015 0.998136 0.996383
1.00016 1.00063 0.993657
1.00005 0.996644 0.999245
1.00011 0.997984 0.996601
1.00004 0.996599 0.999279
0.99481 0.994837 0.866047
0.994792 0.994841 0.865642
0.994818 0.994855 0.856127
1.00039 1.00411 0.989881
1.00104 1.00397 0.98961
1.00062 1.00292 0.99094
1.00056 1.00327 0.990522
1.00054 1.00291 0.99095
1.00038 1.0033 0.990813
1.0004 1.00281 0.99134
0.994825 0.994788 0.848235
0.994851 0.994805 0.855288
0.994812 0.994797 0.85618
0.99486 0.994834 0.843634
0.994972 0.995277 0.961988
0.994875 0.999942 0.936307
0.994884 0.998124 0.896443
0.994886 0.996327 0.960357
0.994879 0.999386 0.934771
0.994961 0.99869 0.893446
0.994829 0.994806 0.846833
0.996179 0.996412 0.963559
0.994903 0.999544 0.935952
0.995167 0.998496 0.877847
0.994755 0.994799 0.835718
0.998959 1.00479 0.991924
1.00004 1.00395 0.9908
1.00029 1.00459 0.989781
1.00074 1.0034 0.990311
0.995071 0.999975 0.990728
0.9963 1.00315 0.997607
0.999412 1.0049 0.990916
0.998766 1.00417 0.992823
0.996945 1.00514 0.9961
0.998859 1.00411 0.99271
0.99649 1.00466 0.99649
0.996327 1.00202 0.983831
0.994891 1.00497 0.996943
0.996736 1.00437 0.996025
0.994725 1.00248 0.984294
0.995498 1.00366 0.998857
0.994778 0.9948 0.868104
0.994809 0.994811 0.87228
0.994772 0.99481 0.868289
0.994847 1.00352 0.999373
0.994943 0.998774 0.979323
0.994797 0.994838 0.868687
0.99555 0.998161 0.936742
0.995122 0.998746 0.895635
0.994813 0.994796 0.856815
0.994736 0.994797 0.838362
0.994913 1.00433 0.99341
0.994791 0.994833 0.865845
0.99476 0.994796 0.848942
0.994908 1.00049 0.970065
0.994691 0.994763 0.835803
0.995615 0.999743 0.880709
0.995046 0.99964 0.934024
0.995403 1.00447 0.987363
0.994825 0.994829 0.856314
0.994653 0.994767 0.839054
0.997599 0.99618 0.893639
0.99487 0.999862 0.943595
0.994881 0.999983 0.963048
0.995252 1.00455 0.99896
0.9962 1.00299 0.998319
0.996649 0.999328 1.00114
0.995364 1.00499 0.99752
0.997674 0.998609 0.999847
1.00198 0.998228 0.994105
1.00299 1.00134 0.990953
1.00309 1.00336 0.986632
1.00334 1.00429 0.984106
1.00383 1.00262 0.985316
1.00454 1.00384 0.982946
1.00429 1.00436 0.982784
1.00504 1.00075 0.984962
1.00507 1.00106 0.984765
1.00486 1.00194 0.984074
1.005 1.00147 0.98506
1.005 1.00144 0.984492
1.00479 1.00217 0.98396
1.00432 1.00134 0.986408
1.0047 1.00086 0.986053
1.00498 1.00126 0.984859
1.00105 1.00507 0.98785
1.00204 1.00351 0.987717
1.00358 1.00183 0.987072
1.00028 1.00377 0.990439
1.00053 1.00486 0.989052
1.00096 1.00499 0.988725
1.00004 0.999655 0.995049
1.00036 1.00284 0.991389
1.00053 1.00428 0.989936
1.0003 1.00234 0.992005
1.00008 0.999371 0.995277
0.999922 0.997504 0.998966
1.00015 0.99908 0.99547
0.999978 0.997325 0.998996
1.00002 0.997193 0.999017
1.00012 1.00486 0.989754
1.00058 1.00333 0.990615
1.00038 1.00159 0.992597
1.00046 1.00284 0.991243
1.00022 0.998619 0.995778
1.00032 1.00121 0.993071
1.00045 1.00247 0.991587
1.00007 0.996861 0.99912
1.00019 0.998351 0.9961
1.00022 1.00099 0.993423
1.00006 0.996713 0.999202
1.00015 0.99812 0.9964
1.00005 0.996618 0.999255
0.994785 0.994821 0.861889
0.994798 0.994834 0.867164
0.9948 0.994838 0.865483
1.00044 1.00422 0.989906
1.00072 1.00376 0.989746
1.00007 1.00262 0.990969
1.00013 1.00444 0.989857
1.00106 1.00369 0.990331
1.00061 1.00337 0.990449
1.00044 1.00302 0.991016
1.00047 1.00326 0.990828
1.00042 1.00293 0.991377
0.999642 1.00417 0.991391
0.994769 0.9948 0.85026
0.994815 0.994785 0.848648
0.994851 0.994802 0.857992
0.994839 0.994813 0.847279
0.995317 0.99897 0.879851
0.994876 0.99675 0.958835
0.994869 0.999194 0.945564
0.995084 0.996692 0.96036
0.994901 0.997153 0.946831
0.994845 0.999728 0.886385
0.994771 0.994787 0.834377
0.994783 0.997065 0.964787
0.994866 0.999974 0.946412
0.994742 0.999609 0.896902
0.994689 0.99478 0.845309
0.998337 1.0036 0.993941
0.998884 1.00469 0.991996
1.00003 1.00396 0.990902
0.996537 1.00201 0.980404
0.994794 1.00525 0.997608
0.998815 1.00405 0.992655
0.99624 1.00483 0.996479
0.99696 1.00409 0.995981
0.995313 1.00337 0.999074
0.995152 1.00117 0.983593
0.995882 1.00216 0.999008
0.995746 0.999745 0.988585
0.994819 0.994824 0.86281
0.994779 0.994808 0.868271
0.994815 0.994814 0.875112
0.994913 1.00331 0.99381
0.994905 0.99999 0.967145
0.9948 0.994838 0.865687
0.995135 0.99991 0.943818
0.994747 0.999905 0.896793
0.994742 0.994782 0.848922
0.994719 0.994774 0.824907
0.995538 1.0043 0.98804
0.994814 0.994839 0.856335
0.994677 0.99477 0.837354
0.99492 0.999836 0.964017
0.997647 0.998155 0.892731
0.995375 0.99986 0.938686
0.994902 1.00401 0.985837
0.994682 0.994805 0.843025
0.999596 0.99514 0.897829
0.997242 0.997418 0.934718
0.994864 0.997156 0.965919
0.995593 1.0038 0.998424
0.996372 0.999452 1.00111
0.998871 1.00252 0.995857
0.9962 0.999911 0.999986
1.00084 0.998785 0.994626
1.00331 0.999946 0.989039
1.00376 1.00281 0.986228
1.00335 1.00423 0.984022
1.00418 1.00178 0.9849
1.00477 1.00382 0.982786
1.00429 1.00399 0.982888
1.00479 1.00074 0.985455
1.0052 0.998369 0.986886
1.00517 1.00004 0.985331
1.00501 1.00064 0.985054
1.00508 1.00131 0.984718
1.00507 1.0011 0.984721
1.00485 1.00209 0.984037
1.00507 1.00139 0.985146
1.0047 1.00139 0.985148
1.00496 1.00133 0.984587
1.00281 1.00334 0.98672
1.00394 1.00159 0.98645
1.00446 1.00093 0.9859
1.00034 1.00474 0.989
1.00117 1.00497 0.987872
1.00212 1.00375 0.98787
0.999987 1.00039 0.995178
1.00044 1.00368 0.990427
1.00081 1.00486 0.989073
0.999892 0.9978 0.997399
1.00003 0.999792 0.9953
1.00041 1.00274 0.991383
1.00008 0.999405 0.995255
0.999921 0.997537 0.99895
0.999973 0.997337 0.998985
1.00011 1.00498 0.989907
1.00042 1.00439 0.989907
1.00005 1.00487 0.989732
1.00043 1.0021 0.992013
1.00041 1.0036 0.990609
1.0002 0.998948 0.995494
1.00038 1.00156 0.992606
1.00057 1.00271 0.99123
1.00006 0.997067 0.999048
1.00022 0.998603 0.995793
1.00031 1.00123 0.993067
1.00007 0.996853 0.999141
1.00018 0.998335 0.996118
1.00006 0.996702 0.999217
0.994792 0.994831 0.864801
0.994792 0.994826 0.861744
0.994786 0.994838 0.868314
1.00045 1.0025 0.991073
1.00025 1.00453 0.989931
1.0006 1.00361 0.989885
1.00047 1.00445 0.989707
1.00063 1.00256 0.991002
1.00064 1.0034 0.990961
1.00181 1.00258 0.989311
0.999171 1.00483 0.990802
1.00049 1.00323 0.990843
1.00016 1.00289 0.991412
0.999531 1.00408 0.991347
0.998669 1.00521 0.992292
0.994682 0.994788 0.842573
0.994792 0.994803 0.84982
0.99481 0.994781 0.848976
0.994757 0.994786 0.844261
0.994836 0.999691 0.885877
0.99526 0.998822 0.935976
0.994867 0.9972 0.959771
0.995076 0.996938 0.965205
0.994705 0.994777 0.834961
0.994876 0.998219 0.939879
0.9958 0.99992 0.88274
0.994892 0.996204 0.968246
0.994878 0.999922 0.946839
0.998076 0.997693 0.889531
0.999297 0.999933 0.996269
0.998414 1.00364 0.993904
0.998776 1.00457 0.992063
0.995333 1.00106 0.98347
0.995012 1.00304 0.999286
0.9972 1.00365 0.99595
0.996873 1.00195 0.999009
0.995253 0.999146 0.988692
0.996885 0.998899 0.992028
0.994726 0.994866 0.852263
0.99482 0.994813 0.86514
0.994776 0.994805 0.868414
0.995344 1.00423 0.98841
0.994862 0.999969 0.963962
0.994803 0.994843 0.856491
0.994834 0.999935 0.935226
0.997488 0.995937 0.879613
0.994704 0.994782 0.846196
0.994825 1.00404 0.985886
0.994694 0.994828 0.852674
0.999599 0.994793 0.883539
0.994858 0.996494 0.961785
0.997267 0.998923 0.944703
0.994794 1.00353 0.990685
0.999806 0.994863 0.87982
0.999892 0.99516 0.946632
0.994886 0.994868 0.961138
0.99603 0.999411 1.00116
0.998389 1.00166 0.995612
1.00181 1.00299 0.990146
0.999711 0.999439 0.995148
1.0028 1.00056 0.988898
1.0044 0.999291 0.987609
1.0033 1.00421 0.983938
1.00405 1.002 0.984892
1.00496 0.997199 0.987888
1.00429 1.00354 0.982991
1.00469 1.00051 0.985492
1.00521 0.996615 0.988542
1.00518 0.996602 0.988922
1.00521 0.998585 0.986728
1.00521 0.998252 0.987027
1.00517 1.00009 0.985349
1.00517 1.00003 0.985461
1.005 1.00053 0.985147
1.00515 1.00146 0.984515
1.00503 1.00123 0.98476
1.00508 1.0011 0.984674
1.00448 1.00138 0.985776
1.00482 1.00141 0.985129
1.0044 1.00129 0.985234
1.00132 1.00466 0.987743
1.0029 1.00333 0.986692
1.00349 1.00181 0.986495
0.99984 1.00157 0.993418
1.00074 1.0046 0.988999
1.00132 1.00495 0.987894
0.999727 0.998283 0.998764
0.999998 1.00045 0.994293
1.00061 1.00353 0.990416
0.999878 0.997771 0.998893
1.00001 0.999878 0.994915
0.999922 0.997583 0.998934
1.0012 1.0037 0.989371
1.00012 1.00484 0.98981
1.00049 1.00488 0.989337
1.00033 1.00297 0.991309
1.00034 1.0044 0.989885
1.00015 1.0047 0.989711
1.00017 0.999303 0.995195
1.00039 1.00214 0.992028
1.00027 1.00376 0.990604
1.00003 0.99728 0.99898
1.00021 0.998894 0.995509
1.00039 1.00154 0.992614
1.00006 0.997032 0.99907
1.00022 0.99859 0.995808
1.00006 0.996826 0.999162
0.9947 0.99483 0.838873
0.994808 0.994832 0.864905
0.994803 0.994831 0.861608
1.00035 1.00268 0.99104
1.00314 1.00212 0.989012
1.00079 1.00311 0.990565
1.00051 1.00446 0.989557
1.00123 1.00238 0.991031
0.999915 1.00289 0.991584
0.999624 1.0047 0.990575
1.00125 1.00301 0.989575
1.00099 1.00429 0.989133
0.999652 0.999925 0.994947
0.999933 1.004 0.991304
0.998836 1.00517 0.991999
0.999761 0.996241 0.877212
0.99466 0.994783 0.836399
0.994799 0.994806 0.849676
0.994723 0.994779 0.824183
0.995775 0.99889 0.897685
0.99484 0.999638 0.936136
0.995576 0.995451 0.962622
0.994848 0.996154 0.966773
0.997704 0.998408 0.890925
0.995392 0.999465 0.935808
0.994873 0.997623 0.968562
0.997458 0.997536 0.934478
1.00158 0.996685 0.996504
0.999228 1.0004 0.996238
0.998504 1.00375 0.99387
0.994855 0.998993 0.988862
0.997597 1.00174 0.99898
0.997305 0.999003 0.991791
0.997968 0.996816 0.990539
0.999831 0.994885 0.891278
0.994721 0.994857 0.850932
0.994831 0.99481 0.867364
0.994854 1.004 0.986165
0.994876 0.995968 0.960025
0.99469 0.994832 0.85267
0.997744 0.996474 0.934227
0.999638 0.994829 0.898262
0.994982 1.00204 0.98778
0.999815 0.994865 0.889395
1.00109 0.99574 0.934463
0.994883 0.994852 0.964152
0.997582 0.998128 0.989531
0.999982 0.994897 0.947423
0.995567 0.994914 0.96752
0.99803 1.00085 0.995301
1.00138 1.001 0.990213
1.00451 0.998319 0.989589
1.00233 1.00101 0.988769
1.00411 0.999332 0.987623
1.00504 0.996132 0.989395
1.004 1.0022 0.984887
1.00491 0.997637 0.987815
1.00518 0.995262 0.989851
1.00461 1.00027 0.985528
1.00522 0.996663 0.988492
1.00519 0.99532 0.990083
1.00517 0.995778 0.990027
1.00518 0.996465 0.989122
1.00519 0.997147 0.98856
1.00523 0.99902 0.986556
1.00521 0.998657 0.986813
1.00521 0.99814 0.987168
1.00521 1.00068 0.985059
1.00519 1.00014 0.985301
1.00516 1 0.985591
1.005 1.00124 0.985078
1.00509 1.00146 0.984548
1.00493 1.0012 0.984806
1.00261 1.00339 0.98695
1.00438 1.00157 0.985755
1.00462 1.00145 0.985111
1.00005 1.00255 0.992065
1.00146 1.00453 0.987757
1.00302 1.00312 0.986664
0.999772 0.998696 0.998561
0.999924 1.00153 0.993377
1.00106 1.00451 0.988997
0.999801 0.99829 0.997914
1.00001 1.00051 0.994299
0.999887 0.997873 0.998824
1.0022 1.00219 0.98915
1.00069 1.00389 0.989622
1.00043 1.00504 0.988999
1.00018 1.00485 0.989712
1.00032 1.00497 0.989328
1.00033 1.00375 0.990533
1.00007 0.999914 0.994771
1.00031 1.00298 0.991317
1.00021 1.00453 0.989862
0.999991 0.997506 0.9989
1.00015 0.999292 0.995212
1.00033 1.00218 0.992042
1.00003 0.997244 0.999001
1.00022 0.99886 0.995524
1.00006 0.997013 0.999091
0.999825 0.994867 0.889216
0.994693 0.994837 0.843412
0.994816 0.994831 0.864977
1.00025 1.00316 0.991003
1.00079 1.00401 0.989521
1.00238 1.00239 0.989426
1.00445 1.00334 0.98419
1.00077 1.00373 0.989644
0.999809 1.00474 0.990356
1.0009 1.00349 0.989843
1.00052 1.00432 0.989439
1.00231 1.00165 0.987978
1.00149 0.999845 0.99292
1.00381 0.99505 0.992629
1.00027 0.999448 0.994838
0.999564 1.00418 0.991708
0.998573 0.995987 0.945347
0.999805 0.995033 0.882308
0.994653 0.994783 0.840055
0.99804 0.998445 0.877597
0.994894 0.999917 0.944074
0.994812 0.995706 0.967557
0.994882 0.997328 0.970177
0.997322 0.999129 0.946189
0.995901 0.995758 0.970276
1.00112 0.995978 0.996765
1.00082 0.997463 0.996544
0.999089 1.00106 0.996207
0.997923 0.998504 0.991654
0.998494 0.997362 0.990811
0.999964 0.994919 0.938514
0.999823 0.994893 0.895911
0.994706 0.994848 0.8497
0.994889 1.00075 0.984726
0.994911 0.994861 0.961302
0.999813 0.994866 0.889381
0.999727 0.995185 0.945077
0.996868 0.99816 0.989953
1.0008 0.994904 0.944777
0.996532 0.994895 0.964862
1.00105 0.995884 0.989388
0.99878 0.994851 0.974457
1.00092 0.999152 0.990376
1.00418 0.997306 0.989547
1.00492 0.995574 0.990962
1.00373 0.999447 0.987635
1.00487 0.996208 0.989283
1.00518 0.994927 0.990331
1.0048 0.998097 0.987742
1.00518 0.995333 0.989791
1.00519 0.994925 0.99044
1.00521 0.99672 0.988442
1.00519 0.995365 0.990042
1.00518 0.995075 0.9905
1.00517 0.995608 0.990106
1.00517 0.996053 0.989775
1.00519 0.996325 0.989324
1.00519 0.99716 0.988546
1.00521 0.997949 0.987715
1.00524 0.999815 0.985927
1.00523 0.999073 0.986536
1.0052 0.998727 0.986898
1.00523 1.00095 0.984892
1.00521 1.00073 0.984963
1.0052 1.00018 0.98525
1.00359 1.00211 0.986413
1.00488 1.00134 0.985095
1.005 1.00148 0.984579
1.00074 1.00254 0.99087
1.00255 1.00345 0.986956
1.00422 1.00187 0.985734
0.999892 0.99948 0.998202
1.00018 1.00239 0.992049
1.00168 1.00441 0.987772
0.999856 0.9989 0.998447
1.00005 1.00137 0.993334
0.999876 0.998342 0.99864
1.00405 1.00198 0.985604
1.00231 1.00191 0.989047
1.00079 1.00466 0.988441
1.00023 1.00384 0.989877
1.00041 1.00502 0.988931
1.00051 1.00433 0.989671
1.0002 1.00501 0.98932
1.00025 1.00383 0.990523
1.00007 1.00053 0.994196
0.999935 0.997898 0.998772
1.00007 0.999847 0.994793
1.00028 1.00298 0.991325
0.999988 0.997498 0.998927
1.00014 0.999262 0.995227
1.00004 0.997209 0.999022
0.999991 0.994917 0.949194
0.999837 0.994868 0.88851
0.994681 0.994834 0.838715
1.00076 1.00475 0.988479
1.00178 1.00237 0.989846
1.00145 1.00363 0.989211
1.00398 1.00353 0.984866
1.00454 1.00276 0.983761
1.00249 1.00308 0.986337
1.00013 1.00435 0.989736
1.00324 1.00143 0.987038
1.00138 0.999596 0.99311
1.00316 0.998453 0.989856
1.00431 0.995576 0.992074
1.00365 0.995681 0.992457
1.00346 0.995205 0.992842
1.00001 0.999945 0.994728
0.996032 0.995042 0.968888
0.999796 0.995957 0.94174
0.998451 0.995961 0.896315
0.99717 0.998729 0.934388
0.994884 0.997465 0.97062
0.995534 0.996229 0.975686
0.999618 0.996572 0.992157
1.00161 0.995544 0.99644
1.00025 0.998125 0.996592
0.999314 0.998413 0.991104
0.996776 0.996613 0.969874
1.00006 0.994921 0.950099
0.999819 0.994879 0.882164
0.996252 0.998329 0.990259
0.996817 0.994869 0.966245
1.00001 0.995026 0.94196
1.0004 0.995384 0.989553
0.998449 0.995262 0.973891
1.00326 0.994958 0.990772
1.00288 0.997588 0.985951
1.00377 0.996107 0.989474
1.00472 0.995367 0.990982
1.00515 0.994797 0.99081
1.00478 0.9963 0.989173
1.00518 0.994926 0.990298
1.00522 0.994913 0.990482
1.00519 0.995405 0.989732
1.00519 0.994931 0.99041
1.00522 0.994934 0.990521
1.0052 0.995398 0.99
1.00517 0.995092 0.990464
1.00519 0.99523 0.990356
1.00518 0.995445 0.990184
1.00517 0.995921 0.989871
1.0052 0.997143 0.988703
1.00519 0.997175 0.988531
1.00522 0.998009 0.987691
1.00523 0.999124 0.986722
1.00527 1.00041 0.985299
1.00525 0.999915 0.985801
1.00523 0.999128 0.986515
1.00434 1.00106 0.986235
1.00517 1.00097 0.984915
1.00521 1.00078 0.984867
1.00128 1.00224 0.990235
1.00355 1.00228 0.986401
1.00474 1.00145 0.985111
1.00024 1.00003 0.997731
1.00084 1.00245 0.990853
1.0025 1.00352 0.986963
1.00005 0.999588 0.998017
1.00024 1.00233 0.992039
0.999969 0.998989 0.998304
1.00457 1.00199 0.984549
1.00434 1.00196 0.985728
1.00292 1.00287 0.986509
1.00226 1.00186 0.988943
1.00099 1.00443 0.988247
1.00105 1.00474 0.988585
1.00032 1.00497 0.988863
1.00045 1.00442 0.98966
1.00006 1.00117 0.993536
1.00021 1.00394 0.990513
1.00002 1.0005 0.994222
0.99988 0.998349 0.998602
0.999929 0.997827 0.99882
1.00006 0.999805 0.994817
0.999982 0.997448 0.998952
0.996945 0.994878 0.970117
0.999993 0.995074 0.937764
0.999823 0.994868 0.898423
1.00518 1.00037 0.98498
1.00216 1.00363 0.988785
1.00349 1.00371 0.985542
1.00309 1.0028 0.986523
1.0046 1.00303 0.983666
1.00415 1.00026 0.986933
1.00409 1.00163 0.986097
1.00109 0.999263 0.993301
1.0036 0.998623 0.989545
1.00424 0.995548 0.991428
1.0048 0.99537 0.990196
1.00395 0.995471 0.992418
1.00358 0.995369 0.992477
1.00313 0.995389 0.993051
0.999579 0.996627 0.990842
0.995895 0.994879 0.967202
0.99925 0.995354 0.938404
0.995124 0.996566 0.974068
0.999457 0.996312 0.994407
1.00157 0.994962 0.99608
1.00102 0.99713 0.984254
0.99671 0.995723 0.970794
0.999963 0.994915 0.938491
0.999502 0.995247 0.98977
0.998648 0.995541 0.973002
1.00248 0.995317 0.991181
1.00294 0.997168 0.986646
1.00421 0.994807 0.991242
1.00464 0.997478 0.990635
1.0045 0.995144 0.990993
1.00515 0.994804 0.990702
1.00527 0.994803 0.990449
1.00518 0.994922 0.990264
1.00521 0.994905 0.990474
1.00525 0.994902 0.990464
1.00519 0.994932 0.99038
1.00521 0.994931 0.990524
1.00521 0.995025 0.990558
1.00516 0.995107 0.990429
1.0052 0.995211 0.990337
1.0052 0.996123 0.989591
1.00518 0.995789 0.989967
1.0052 0.996984 0.988884
1.00523 0.998477 0.987405
1.00522 0.998069 0.987667
1.00523 0.999098 0.986744
1.00526 1.00014 0.985663
1.00462 1.00051 0.986321
1.00526 1.0005 0.985228
1.00525 1.00001 0.985676
1.00183 1.00144 0.990113
1.00428 1.00116 0.986232
1.00515 1.00099 0.984937
1.00047 1.00034 0.997405
1.00148 1.00195 0.990225
1.00352 1.00239 0.986389
1.00036 1.00012 0.997588
1.00097 1.00232 0.990837
1.00021 0.999776 0.997833
1.00523 1.00116 0.98445
1.00493 1.00192 0.984495
1.00457 1.00165 0.985273
1.00475 1.00195 0.985854
1.00318 1.00302 0.98631
1.00187 1.00443 0.987486
1.00122 1.00421 0.988052
1.0008 1.00484 0.988603
1.00013 1.00189 0.992696
1.00032 1.0045 0.98965
1.00003 1.00114 0.993567
0.999835 0.998922 0.998408
0.999983 1.00045 0.994248
0.999875 0.99827 0.998665
0.999926 0.997772 0.998862
1.00103 0.994888 0.988345
0.996737 0.994893 0.96693
0.999968 0.994885 0.949269
1.00514 0.998946 0.986763
1.0052 0.998457 0.987164
1.00517 1.00022 0.985206
1.00364 1.00236 0.986703
1.00467 1.00333 0.983567
1.00423 1.00006 0.987232
1.00515 0.99637 0.988646
1.00417 0.998572 0.989244
1.00429 0.995843 0.99078
1.00475 0.996012 0.99032
1.00519 0.995056 0.990395
1.00406 0.995643 0.991702
1.00362 0.995715 0.992371
1.00378 0.995031 0.992503
1.00009 0.996359 0.990983
0.995639 0.994869 0.965615
0.99961 0.996123 0.99675
1.00441 0.995333 0.991244
1.00093 0.997102 0.984443
0.996642 0.995288 0.968672
1.00216 0.994827 0.991567
1.00294 0.996775 0.987371
1.00424 0.994867 0.991798
1.00467 0.996659 0.990693
1.00528 0.994901 0.990633
1.00536 0.994959 0.990823
1.00516 0.994813 0.990598
1.00528 0.994833 0.990424
1.00528 0.994882 0.990431
1.0052 0.994899 0.990466
1.00525 0.994899 0.990487
1.00522 0.994921 0.990612
1.0052 0.994929 0.990527
1.00522 0.995001 0.99054
1.00521 0.995509 0.990209
1.0052 0.995195 0.990318
1.00521 0.99615 0.989577
1.00524 0.997817 0.988004
1.0052 0.99682 0.989065
1.00523 0.998407 0.987474
1.00527 0.999821 0.985967
1.00523 0.999075 0.986767
1.00527 1.00008 0.985727
1.00472 1.00026 0.986403
1.00211 1.00077 0.990264
1.0046 1.00055 0.986322
1.00525 1.00059 0.985157
1.00057 1.00047 0.997259
1.00187 1.00138 0.990114
1.00419 1.00132 0.98623
1.00052 1.0004 0.997335
1.00161 1.00179 0.990217
1.00044 1.00023 0.997467
1.00525 0.999661 0.985911
1.00523 1.00108 0.984595
1.00516 1.00085 0.985143
1.00517 1.00182 0.984438
1.00473 1.00144 0.985311
1.00286 1.00313 0.986844
1.00343 1.00311 0.986111
1.00163 1.00452 0.98749
1.00043 1.00261 0.991512
1.0006 1.00495 0.988622
1.00004 1.00199 0.992726
0.999881 0.999534 0.998118
0.999992 1.00111 0.993596
0.999815 0.998779 0.998482
0.999863 0.998181 0.998723
1.00427 0.994871 0.99218
1.00103 0.994892 0.986369
0.99661 0.994897 0.965891
1.00516 0.997721 0.988126
1.00514 0.998512 0.987049
1.00524 0.997127 0.98843
1.0052 0.998444 0.987148
1.00517 1.00005 0.98543
1.00524 0.995622 0.989379
1.00434 0.999926 0.987525
1.00515 0.996721 0.988558
1.0053 0.994876 0.990289
1.00466 0.996398 0.990444
1.00513 0.995094 0.990215
1.00399 0.995666 0.991883
1.00306 0.995907 0.992323
1.00044 0.996026 0.991005
1.00532 0.994937 0.990592
1.00435 0.99619 0.991379
1.00093 0.996874 0.984649
1.0042 0.994975 0.992338
1.00468 0.995936 0.990755
1.00527 0.994876 0.990688
1.00536 0.994956 0.990767
1.00531 0.994936 0.990715
1.00529 0.99486 0.990399
1.00528 0.994895 0.990443
1.00522 0.994906 0.990694
1.00525 0.994897 0.990509
1.00522 0.994917 0.990611
1.00522 0.995108 0.99063
1.00522 0.994976 0.990522
1.00521 0.995531 0.99019
1.00524 0.997156 0.988691
1.00522 0.996177 0.989562
1.00524 0.99783 0.988016
1.00529 0.999482 0.986324
1.00523 0.998337 0.987543
1.00527 0.999817 0.98599
1.00476 1.00018 0.986441
1.00527 1.00002 0.985791
1.00473 1.00027 0.986407
1.00219 1.00038 0.992017
1.00084 1.00016 0.9942
1.00215 1.00074 0.991018
1.00457 1.0006 0.986323
1.00059 1.00051 0.997233
1.00199 1.0012 0.990112
1.00055 1.00047 0.997272
1.00525 0.996884 0.988827
1.00522 0.998596 0.987165
1.00524 0.999672 0.986073
1.00519 1.00043 0.98543
1.00522 1.00101 0.98474
1.00517 1.00082 0.985108
1.00381 1.00151 0.986694
1.00487 1.00125 0.98535
1.00296 1.00288 0.986836
1.00104 1.00255 0.990454
1.00143 1.00467 0.987492
1.00033 1.00266 0.991525
1.00007 1.00027 0.997667
0.999976 1.00192 0.992754
0.999803 0.9994 0.998237
0.99981 0.998666 0.998549
1.00533 0.99488 0.990536
1.00455 0.994866 0.991961
1.00124 0.994899 0.984442
1.00521 0.996149 0.989249
1.00514 0.997647 0.987969
1.00514 0.998104 0.987338
1.00523 0.997265 0.988421
1.0052 0.998435 0.987132
1.00528 0.995063 0.99035
1.00522 0.995643 0.98936
1.00514 0.997146 0.988469
1.00529 0.994875 0.990298
1.00511 0.995149 0.990035
1.00402 0.995723 0.992072
1.00528 0.994939 0.990802
1.00533 0.994939 0.990771
1.00429 0.996902 0.991518
1.00526 0.994854 0.990734
1.00537 0.994952 0.990714
1.00531 0.99493 0.990673
1.00522 0.994961 0.990909
1.00528 0.994907 0.990455
1.00522 0.99491 0.990674
1.00524 0.994937 0.990862
1.00523 0.994913 0.99061
1.00521 0.995119 0.990618
1.00524 0.996607 0.989241
1.00521 0.995557 0.99017
1.00524 0.997175 0.988697
1.00529 0.999153 0.986679
1.00524 0.997843 0.988029
1.00529 0.999477 0.986347
1.00478 1.00016 0.986457
1.00528 0.999811 0.986012
1.00477 1.00017 0.986452
1.0023 1.0001 0.992132
1.00473 1.00028 0.98641
1.00237 1.00028 0.991916
1.00087 0.999998 0.994352
1.0006 1.00042 0.995762
1.00234 1.00068 0.991622
1.00059 1.00056 0.997218
1.00522 0.995968 0.989841
1.00523 0.998203 0.987513
1.00524 0.996681 0.98904
1.00527 0.999879 0.985876
1.00523 0.998667 0.98713
1.00523 0.999688 0.986236
1.00522 1.00043 0.98538
1.00437 1.00062 0.986633
1.00521 1.00082 0.985072
1.00393 1.0013 0.986697
1.00158 1.00189 0.99011
1.00301 1.0026 0.986829
1.00088 1.00272 0.990453
1.00022 1.00087 0.997319
1.00013 1.00287 0.991541
0.999921 1.00011 0.997851
0.99975 0.999236 0.998339
1.00527 0.994865 0.990652
1.00532 0.994881 0.990518
1.00473 0.99487 0.991721
1.00524 0.99527 0.990286
1.00521 0.996237 0.989221
1.00512 0.99757 0.987818
1.00523 0.997405 0.988413
1.00528 0.995046 0.990314
1.00521 0.995677 0.98934
1.00525 0.994873 0.990307
1.00523 0.994955 0.990929
1.00527 0.994936 0.99079
1.00533 0.994941 0.990948
1.00519 0.994976 0.991009
1.00531 0.994925 0.990632
1.00522 0.99496 0.990902
1.00526 0.994938 0.990927
1.00522 0.994915 0.990655
1.00523 0.994937 0.990853
1.00524 0.996256 0.989661
1.0052 0.995128 0.990606
1.00525 0.99663 0.989241
1.00529 0.998844 0.987042
1.00524 0.997194 0.988704
1.0053 0.999145 0.986698
1.00478 1.0001 0.986516
1.00529 0.999471 0.986371
1.00479 1.00014 0.986473
1.00235 1.00006 0.992088
1.00479 1.00016 0.986462
1.00245 1.00004 0.992006
1.00092 0.999889 0.994392
1.00254 1.00017 0.991824
1.00051 1.00017 0.994588
1.00009 1.00074 0.997622
1.00522 0.995831 0.989854
1.00524 0.997443 0.988371
1.00523 0.99605 0.98966
1.0053 0.999563 0.986289
1.00524 0.997916 0.987749
1.00523 0.996482 0.989251
1.00472 1.00007 0.986596
1.00527 0.999883 0.98584
1.00524 0.998733 0.987095
1.00525 1.00041 0.985329
1.00442 1.00052 0.986631
1.00189 1.00122 0.990223
1.00401 1.00108 0.986702
1.00145 1.00207 0.990113
1.00028 1.00109 0.997216
1.0008 1.00287 0.990455
1.00015 1.00071 0.997437
0.99981 0.99993 0.998018
1.00523 0.994922 0.990851
1.00527 0.994867 0.990635
1.00532 0.994881 0.990501
1.00523 0.995216 0.990365
1.0052 0.996317 0.989193
1.00528 0.995018 0.990278
1.0052 0.994963 0.990991
1.00523 0.994952 0.990939
1.00527 0.994933 0.990777
1.00519 0.994975 0.991018
1.00524 0.994954 0.990928
1.00522 0.994957 0.990894
1.00525 0.99498 0.990879
1.00524 0.995939 0.990086
1.00522 0.994937 0.990844
1.00526 0.996232 0.989653
1.00526 0.998574 0.98739
1.00526 0.996643 0.98924
1.00529 0.998831 0.987051
1.00477 0.999994 0.986662
1.0053 0.999137 0.986716
1.0048 1.00009 0.986529
1.00236 1.00013 0.99198
1.00481 1.00012 0.986488
1.00249 1.00001 0.991944
1.00098 0.999899 0.994304
1.00258 0.999984 0.991889
1.00061 0.999941 0.99465
1.00017 1.00035 0.994808
1.0052 0.99533 0.990584
1.00523 0.997172 0.988664
1.00523 0.995669 0.989976
1.00529 0.998969 0.986929
1.00524 0.997564 0.988228
1.00524 0.996131 0.989479
1.00484 0.999851 0.986652
1.0053 0.99936 0.986405
1.00525 0.997633 0.987986
1.00213 1.00052 0.990464
1.00473 1.00004 0.986594
1.00527 0.99989 0.985804
1.00447 1.00043 0.986629
1.00183 1.0013 0.990234
1.00035 1.00104 0.997231
1.00134 1.00226 0.990116
1.00027 1.00099 0.997244
1.00002 1.00059 0.997583
1.00518 0.994943 0.990986
1.00523 0.99492 0.990812
1.00527 0.994869 0.990617
1.00523 0.995171 0.990444
1.00523 0.994975 0.990915
1.0052 0.994965 0.990994
1.00523 0.994951 0.99095
1.00519 0.994977 0.991026
1.00525 0.994993 0.990926
1.00524 0.996042 0.989932
1.00525 0.995031 0.99083
1.00525 0.996142 0.989829
1.00522 0.998077 0.988046
1.00528 0.996217 0.989645
1.00525 0.998568 0.987398
1.00473 0.999873 0.986848
1.00529 0.998828 0.987059
1.00477 0.999984 0.986671
1.00238 1.00019 0.990457
1.00481 1.00007 0.986543
1.00249 1.0001 0.991112
1.00085 0.999959 0.997232
1.00262 0.999978 0.991801
1.00069 0.999887 0.994573
1.00032 0.99998 0.994891
1.00518 0.995259 0.990774
1.00522 0.996712 0.98925
1.00521 0.995392 0.990481
1.00526 0.998601 0.987273
1.00522 0.997177 0.988646
1.00524 0.995506 0.990099
1.00484 0.999645 0.986747
1.00529 0.998965 0.986939
1.00523 0.997683 0.988085
1.00231 0.999991 0.990674
1.00482 0.999777 0.98665
1.00529 0.999148 0.986521
1.0005 1.0007 0.997302
1.00214 1.00051 0.990472
1.00474 1 0.986591
1.00176 1.00136 0.990249
1.00036 1.00096 0.99722
1.00024 1.00093 0.997283
1.00521 0.994976 0.990962
1.00518 0.994945 0.99098
1.00524 0.99492 0.990773
1.00524 0.996159 0.989832
1.00523 0.994974 0.990961
1.00519 0.994967 0.990997
1.00525 0.995043 0.990924
1.00523 0.996093 0.989933
1.0052 0.998102 0.98812
1.00526 0.996333 0.989572
1.00521 0.998332 0.98778
1.0047 0.999547 0.987163
1.00525 0.998551 0.987407
1.00473 0.999865 0.986854
1.00235 1.00014 0.990564
1.00478 0.999977 0.98668
1.00239 1.00018 0.990462
1.00082 1 0.997215
1.00252 1.00008 0.990362
1.00073 0.999957 0.995899
1.00041 0.999854 0.99484
1.00522 0.99531 0.990624
1.00524 0.996648 0.989335
1.00519 0.99517 0.990799
1.00526 0.998682 0.987201
1.00521 0.996797 0.98916
1.00522 0.995455 0.990379
1.00483 0.999588 0.986848
1.00526 0.998809 0.9871
1.00522 0.997182 0.988628
1.00242 0.999802 0.990703
1.00482 0.999636 0.986757
1.00529 0.998963 0.986949
1.00068 1.00028 0.997332
1.00234 0.999968 0.990678
1.00481 0.9997 0.986646
1.0005 1.00068 0.99727
1.00214 1.0005 0.990479
1.00033 1.00093 0.997228
1.00525 0.996152 0.989825
1.00521 0.995061 0.990901
1.00518 0.994948 0.990975
1.00522 0.998007 0.988179
1.00524 0.996125 0.989867
1.00524 0.994958 0.991008
1.00523 0.996136 0.989934
1.0052 0.998096 0.988124
1.00466 0.999416 0.98736
1.0052 0.998591 0.987513
1.00471 0.999642 0.987079
1.00234 1.00004 0.99069
1.00474 0.999855 0.98686
1.00233 1.00015 0.99057
1.00077 1.00002 0.997209
1.00238 1.00016 0.990466
1.0008 1.00002 0.997208
1.00081 0.999918 0.994328
1.00526 0.996611 0.989295
1.00522 0.995156 0.990729
1.00526 0.998497 0.987432
1.00524 0.996651 0.989337
1.0052 0.995085 0.990823
1.00479 0.999722 0.986891
1.00526 0.998691 0.987197
1.0052 0.996879 0.98907
1.00246 0.999842 0.990622
1.00481 0.999682 0.986808
1.00526 0.999022 0.986926
1.00082 1.00002 0.997289
1.00243 0.999798 0.990704
1.00481 0.999619 0.986766
1.00066 1.00032 0.997322
1.00235 0.999961 0.990682
1.00051 1.00067 0.997242
1.00524 0.998047 0.988065
1.00524 0.99624 0.989756
1.00521 0.995161 0.990839
1.00462 0.999357 0.987475
1.00522 0.998004 0.988186
1.00523 0.996105 0.989902
1.0052 0.998089 0.988128
1.00468 0.999406 0.987331
1.00227 0.999993 0.990856
1.00471 0.999737 0.986996
1.00232 1.00005 0.990695
1.00076 1.00002 0.997221
1.00233 1.00015 0.990576
1.00075 1.00004 0.997217
1.00079 1.00002 0.997207
1.00526 0.998334 0.987619
1.00526 0.996362 0.98955
1.00522 0.994974 0.990835
1.00473 0.999667 0.987076
1.00525 0.998503 0.987427
1.00523 0.996654 0.98934
1.00242 0.999944 0.990607
1.00477 0.999736 0.986886
1.00525 0.998699 0.987194
1.00087 0.999942 0.997222
1.00246 0.999858 0.990622
1.00479 0.99977 0.986768
1.00079 1.00007 0.997308
1.00244 0.99981 0.990705
1.00067 1.00032 0.997304
1.00464 0.999565 0.987322
1.00524 0.997929 0.988142
1.00524 0.996313 0.989687
1.00222 0.999925 0.991021
1.00463 0.999341 0.987464
1.00522 0.998 0.988194
1.0047 0.999392 0.987303
1.00227 0.999971 0.990864
1.00073 1.00002 0.997228
1.0023 1.00006 0.990699
1.00074 1.00003 0.997217
1.00073 1.00005 0.997221
1.00467 0.999609 0.987237
1.00525 0.998162 0.987801
1.00526 0.996132 0.989805
1.00245 0.999991 0.992018
1.00471 0.999672 0.987077
1.00525 0.998511 0.987422
1.00083 0.999956 0.997199
1.00243 0.999963 0.990606
1.00475 0.99975 0.98688
1.00086 0.99997 0.997249
1.00247 0.999881 0.990622
1.00078 1.00009 0.997321
1.0023 0.999928 0.990937
1.00463 0.999458 0.987383
1.00524 0.99781 0.98822
1.00066 0.999988 0.99728
1.00221 0.999925 0.991018
1.00464 0.999328 0.987454
1.00226 0.999951 0.990868
1.0007 1.00001 0.997244
1.00073 1.00004 0.997221
1.00244 0.999964 0.992103
1.00466 0.99961 0.987237
1.00525 0.997987 0.987984
1.00035 0.999993 0.997666
1.00234 0.999994 0.990734
1.00469 0.999673 0.987079
1.00084 0.999967 0.997212
1.00243 0.999983 0.990603
1.00085 0.999991 0.997273
1.00064 0.999966 0.994603
1.00232 0.999927 0.991597
1.00463 0.999353 0.987443
1.00068 0.99999 0.997286
1.00221 0.999928 0.991022
1.00072 1 0.997257
1.00023 0.99999 0.99501
1.00235 0.999955 0.991504
1.00465 0.999615 0.987236
1.00054 0.999986 0.996069
1.00234 0.999995 0.990747
1.00085 0.999977 0.997227
1.00067 0.999979 0.997281
1.00221 0.999919 0.991028
1.00064 0.999991 0.997285
1.00046 0.999975 0.996149
1.00227 0.99995 0.99093
1.00078 0.999981 0.997224
1.00069 0.999976 0.99729
1.00069 0.999979 0.997265

TENSORS stress float
0.00193746 -0.000123862 0.000218182
-0.000123862 0.000849637 -3.37846e-05
0.000218182 -3.37846e-05 0.000826026
0.00605432 -2.29336e-05 0.000232284
-2.29336e-05 0.00338307 2.46764e-05
0.000232284 2.46764e-05 0.0033775
0.00166252 -5.59281e-05 9.56122e-05
-5.59281e-05 0.00068352 -1.352e-05
9.56122e-05 -1.352e-05 0.000650137
0.00202348 -7.19209e-05 0.000215444
-7.19209e-05 0.000876656 -2.01826e-05
0.000215444 -2.01826e-05 0.000859889
0.00199911 -0.000110147 0.000214031
-0.000110147 0.000877564 -2.99789e-05
0.000214031 -2.99789e-05 0.000856694
0.00187902 -0.000123045 0.000223998
-0.000123045 0.00081506 -3.44402e-05
0.000223998 -3.44402e-05 0.000792463
0.0016482 -0.000106859 3.93942e-05
-0.000106859 0.000591178 -1.1505e-05
3.93942e-05 -1.1505e-05 0.000494399
0.00598443 -3.04968e-05 -6.99695e-06
-3.04968e-05 0.00333024 -5.21674e-07
-6.99695e-06 -5.21674e-07 0.00332978
0.00592008 0.000146588 0.000114786
0.000146588 0.00327209 9.26346e-06
0.000114786 9.26346e-06 0.00325281
0.00577744 -0.000114061 4.96519e-05
-0.000114061 0.00319703 2.60828e-06
4.96519e-05 2.60828e-06 0.00317325
0.00175386 0.000154995 0.000226172
0.000154995 0.000726467 2.46067e-05
0.000226172 2.46067e-05 0.000723035
0.00057444 0.000229176 2.59261e-05
0.000229176 -4.2689e-05 1.71749e-05
2.59261e-05 1.71749e-05 -0.000153732
0.00171189 -3.43644e-05 0.000218761
-3.43644e-05 0.000682577 3.30604e-06
0.000218761 3.30604e-06 0.000679478
0.00135803 -3.5582e-06 4.99251e-05
-3.5582e-06 0.000489366 1.35604e-06
4.99251e-05 1.35604e-06 0.000448211
0.00144108 -5.33457e-05 -4.37948e-05
-5.33457e-05 0.000553675 7.63529e-06
-4.37948e-05 7.63529e-06 0.000509657
0.00169229 -7.39508e-05 7.24552e-05
-7.39508e-05 0.000689824 -4.26381e-06
7.24552e-05 -4.26381e-06 0.000659215
0.00165845 -4.0988e-05 0.000103141
-4.0988e-05 0.000688785 -1.38193e-05
0.000103141 -1.38193e-05 0.000651796
0.0016799 -6.78306e-05 8.51847e-05
-6.78306e-05 0.00068479 -1.08656e-05
8.51847e-05 -1.08656e-05 0.00065502
0.00170625 -0.000144685 -3.57937e-05
-0.000144685 0.000621721 4.50011e-06
-3.57937e-05 4.50011e-06 0.000533629
0.00578849 -0.000125269 0.000274651
-0.000125269 0.00320105 -1.00177e-05
0.000274651 -1.00177e-05 0.00321224
0.00197715 -5.15271e-05 0.000215444
-5.15271e-05 0.000847325 -1.49864e-05
0.000215444 -1.49864e-05 0.00083243
0.00203362 -9.24802e-05 0.00021408
-9.24802e-05 0.000889046 -2.53453e-05
0.00021408 -2.53453e-05 0.000870725
0.00164617 -0.000121435 6.08189e-05
-0.000121435 0.000570246 -9.20092e-06
6.08189e-05 -9.20092e-06 0.000483928
0.00165422 -0.000117362 4.885e-05
-0.000117362 0.00058072 -1.08269e-05
4.885e-05 -1.08269e-05 0.00049137
0.00183799 -9.84907e-05 0.000221951
-9.84907e-05 0.000781658 -3.08956e-05
0.000221951 -3.08956e-05 0.0007629
0.00161564 -9.74093e-05 3.16446e-05
-9.74093e-05 0.000591493 -1.23172e-05
3.16446e-05 -1.23172e-05 0.000485065
0.00203903 -0.000263015 1.5677e-05
-0.000263015 0.000661141 -6.83316e-06
1.5677e-05 -6.83316e-06 0.000488795
0.00596086 -4.55865e-05 -0.000230163
-4.55865e-05 0.00330683 -1.58131e-05
-0.000230163 -1.58131e-05 0.00331087
0.00382117 0.000115916 -0.000125408
0.000115916 0.00199233 -1.25647e-05
-0.000125408 -1.25647e-05 0.00197242
0.00371145 1.62049e-05 -0.00012041
1.62049e-05 0.00194144 -9.0304e-06
-0.00012041 -9.0304e-06 0.0019199
0.00585566 -9.92995e-05 -3.16494e-06
-9.92995e-05 0.00326493 2.48311e-07
-3.16494e-06 2.48311e-07 0.0032579
0.00053096 0.000210524 -1.63943e-06
0.000210524 -6.57251e-05 -1.01487e-06
-1.63943e-06 -1.01487e-06 -0.000176606
0.00170978 6.07302e-05 0.00021987
6.07302e-05 0.000688165 1.86456e-05
0.00021987 1.86456e-05 0.000674073
0.00183751 0.000143045 0.000223345
0.000143045 0.000795413 2.85842e-05
0.000223345 2.85842e-05 0.000772426
0.00271066 0.000192144 0.000135379
0.000192144 0.00121885 1.83795e-05
0.000135379 1.83795e-05 0.00114554
0.00507486 -0.000359658 -1.7598e-05
-0.000359658 0.00286657 8.47618e-06
-1.7598e-05 8.47618e-06 0.00279473
0.00280428 0.0002547 0.000137172
0.0002547 0.00131061 2.22358e-05
0.000137172 2.22358e-05 0.00122682
0.000522568 0.000188234 2.74745e-05
0.000188234 -6.97549e-05 2.20295e-05
2.74745e-05 2.20295e-05 -0.000177393
0.00086103 0.000204187 1.17835e-05
0.000204187 2.98395e-05 5.75484e-06
1.17835e-05 5.75484e-06 -0.000154669
0.00388007 -0.000103684 0.000142729
-0.000103684 0.00207332 8.94713e-06
0.000142729 8.94713e-06 0.00207615
0.00579862 7.60491e-05 3.68567e-06
7.60491e-05 0.0031961 -1.61634e-06
3.68567e-06 -1.61634e-06 0.00321321
0.00369713 7.65731e-05 -0.000104509
7.65731e-05 0.00191231 -4.2584e-06
-0.000104509 -4.2584e-06 0.00189983
0.00567052 5.97985e-05 0.000268564
5.97985e-05 0.00312089 3.6055e-06
0.000268564 3.6055e-06 0.00313826
0.00133902 8.14175e-05 5.28491e-05
8.14175e-05 0.000478057 3.22968e-06
5.28491e-05 3.22968e-06 0.000441678
0.000597758 1.03921e-05 1.59089e-05
1.03921e-05 -9.79532e-05 1.79478e-06
1.59089e-05 1.79478e-06 -0.00017689
0.00579753 0.000211409 0.000147533
0.000211409 0.00322198 1.35776e-05
0.000147533 1.35776e-05 0.0031981
0.00274635 6.739e-05 0.000129586
6.739e-05 0.00120799 7.9146e-06
0.000129586 7.9146e-06 0.00115334
0.00130774 -7.81113e-05 -6.40087e-05
-7.81113e-05 0.000471661 7.90566e-06
-6.40087e-05 7.90566e-06 0.000426238
0.00135039 -8.86006e-05 -5.62708e-05
-8.86006e-05 0.000501068 9.13346e-06
-5.62708e-05 9.13346e-06 0.000455141
0.00149992 -6.81498e-06 -3.19575e-05
-6.81498e-06 0.000592841 7.01344e-06
-3.19575e-05 7.01344e-06 0.00054711
0.00173901 -0.000150086 -0.000118023
-0.000150086 0.000634697 2.03486e-05
-0.000118023 2.03486e-05 0.000555526
0.00363008 -3.97133e-06 -0.000108429
-3.97133e-06 0.00187956 -1.98244e-06
-0.000108429 -1.98244e-06 0.0018656
0.00166893 -5.66477e-05 7.80996e-05
-5.66477e-05 0.000671151 -3.49445e-06
7.80996e-05 -3.49445e-06 0.000643775
0.00161806 -1.77856e-05 0.000106787
-1.77856e-05 0.000666684 -1.19319e-05
0.000106787 -1.19319e-05 0.000628733
0.00169144 -7.22258e-05 7.74412e-05
-7.22258e-05 0.000688319 -7.30472e-06
7.74412e-05 -7.30472e-06 0.000659067
0.00170923 -0.000100569 -2.88169e-05
-0.000100569 0.000599788 1.63866e-06
-2.88169e-05 1.63866e-06 0.000522787
0.00168116 -0.000141383 -4.12816e-05
-0.000141383 0.000620034 4.87164e-06
-4.12816e-05 4.87164e-06 0.000525973
0.00171047 -0.000137393 -3.06784e-05
-0.000137393 0.000613806 3.19943e-06
-3.06784e-05 3.19943e-06 0.000530791
0.00202531 -0.000262212 -8.37489e-06
-0.000262212 0.000649057 2.25008e-06
-8.37489e-06 2.25008e-06 0.000476839
0.00564898 2.3996e-05 0.000263422
2.3996e-05 0.00310652 -8.77589e-07
0.000263422 -8.77589e-07 0.00312493
0.00192388 -2.97286e-05 0.000212801
-2.97286e-05 0.00081825 -1.03011e-05
0.000212801 -1.03011e-05 0.000805889
0.00242725 4.40946e-06 4.42666e-05
4.40946e-06 0.00103498 -9.35883e-07
4.42666e-05 -9.35883e-07 0.000970852
0.00163098 -9.83804e-05 5.3884e-05
-9.83804e-05 0.000553937 -6.10086e-06
5.3884e-05 -6.10086e-06 0.000473973
0.00164777 -0.000121223 5.6305e-05
-0.000121223 0.000572061 -1.0336e-05
5.6305e-05 -1.0336e-05 0.000485042
0.00189481 -0.000167387 1.15329e-05
-0.000167387 0.000507031 -2.97069e-06
1.15329e-05 -2.97069e-06 0.000363416
0.00176242 -0.000222762 1.64351e-05
-0.000222762 0.000458279 -5.59667e-06
1.64351e-05 -5.59667e-06 0.000296953
0.00158826 -5.67458e-05 0.000197324
-5.67458e-05 0.000629145 -2.34922e-05
0.000197324 -2.34922e-05 0.000614115
0.00153034 -5.96829e-05 2.29148e-05
-5.96829e-05 0.000558547 -1.20803e-05
2.29148e-05 -1.20803e-05 0.000451275
0.00201614 -0.000281152 1.52024e-05
-0.000281152 0.000686665 -7.67934e-06
1.52024e-05 -7.67934e-06 0.000503919
0.00142895 -0.000308887 6.44664e-06
-0.000308887 0.000122359 -1.55789e-06
6.44664e-06 -1.55789e-06 -9.32788e-05
0.00621612 0.00020668 -0.000286217
0.00020668 0.00345408 -2.81538e-05
-0.000286217 -2.81538e-05 0.00345793
0.00567476 -0.000123357 -0.000198198
-0.000123357 0.00315592 -1.26572e-05
-0.000198198 -1.26572e-05 0.0031498
0.00601536 3.14604e-05 -0.000247264
3.14604e-05 0.00332967 -1.94552e-05
-0.000247264 -1.94552e-05 0.00333894
0.000489251 0.00020325 -2.47164e-05
0.00020325 -8.60242e-05 -1.77443e-05
-2.47164e-05 -1.77443e-05 -0.000198958
0.00620487 0.000203184 -2.67196e-06
0.000203184 0.0034447 -2.12016e-06
-2.67196e-06 -2.12016e-06 0.00345045
0.00622145 0.00014644 -8.88761e-06
0.00014644 0.00345419 -2.115e-06
-8.88761e-06 -2.115e-06 0.00345993
0.000449158 0.000126312 5.94599e-08
0.000126312 -0.000162267 -2.70668e-07
5.94599e-08 -2.70668e-07 -0.000261457
0.00321076 -0.000122247 -8.69935e-05
-0.000122247 0.00166945 -3.17862e-06
-8.69935e-05 -3.17862e-06 0.0016373
0.000454002 0.00019522 -1.45372e-07
0.00019522 -0.000118066 -4.08718e-07
-1.45372e-07 -4.08718e-07 -0.000229743
0.00165102 0.000186062 4.65812e-05
0.000186062 0.000622946 2.25842e-06
4.65812e-05 2.25842e-06 0.000533369
0.00084791 0.000201087 3.5672e-07
0.000201087 2.03942e-05 -1.28929e-08
3.5672e-07 -1.28929e-08 -0.000162734
0.0048308 -0.000121674 0.000175589
-0.000121674 0.00265659 1.35278e-05
0.000175589 1.35278e-05 0.00265204
0.000592892 9.59836e-06 8.34186e-06
9.59836e-06 3.8334e-05 1.12378e-05
8.34186e-06 1.12378e-05 -1.68992e-05
0.000552077 9.63734e-05 1.62511e-05
9.63734e-05 -0.000120441 9.34686e-06
1.62511e-05 9.34686e-06 -0.000214324
0.000595402 0.000153516 2.11669e-05
0.000153516 -5.94969e-05 1.6432e-05
2.11669e-05 1.6432e-05 -0.000165098
0.00103079 0.000187205 1.44863e-05
0.000187205 -5.49404e-06 5.32874e-06
1.44863e-05 5.32874e-06 -0.000173755
0.00277614 0.000135161 0.000115342
0.000135161 0.00133067 1.5214e-05
0.000115342 1.5214e-05 0.00126446
0.000912083 0.000205583 1.33023e-05
0.000205583 1.0779e-05 6.5613e-06
1.33023e-05 6.5613e-06 -0.000168626
0.000835596 0.000206827 1.1086e-05
0.000206827 7.69521e-05 5.24597e-06
1.1086e-05 5.24597e-06 -0.00011433
0.0010343 0.000278318 4.16649e-06
0.000278318 5.90591e-05 7.47898e-07
4.16649e-06 7.47898e-07 -0.000171935
0.00307702 -0.000120901 8.38977e-05
-0.000120901 0.00157838 3.55992e-06
8.38977e-05 3.55992e-06 0.00157846
0.0035873 -0.000149144 1.53132e-05
-0.000149144 0.00190221 -1.88305e-07
1.53132e-05 -1.88305e-07 0.00189399
0.00608026 4.29813e-05 -0.000276966
4.29813e-05 0.00335725 -1.26475e-05
-0.000276966 -1.26475e-05 0.00337307
0.00586516 6.64064e-05 -0.00027565
6.64064e-05 0.00323359 -7.80798e-06
-0.00027565 -7.80798e-06 0.00325158
0.00575797 8.4579e-05 -4.20479e-08
8.4579e-05 0.00317961 -3.27509e-06
-4.20479e-08 -3.27509e-06 0.00319331
0.00361529 2.33888e-05 -0.000117032
2.33888e-05 0.00186146 -5.4794e-06
-0.000117032 -5.4794e-06 0.00185324
0.00163264 3.6103e-05 5.5892e-05
3.6103e-05 0.000534538 1.29159e-06
5.5892e-05 1.29159e-06 0.000470231
0.00382393 0.000129495 -0.000106872
0.000129495 0.00199406 -5.83401e-06
-0.000106872 -5.83401e-06 0.00197529
0.00167752 8.54925e-05 5.60234e-05
8.54925e-05 0.000560107 2.49482e-06
5.60234e-05 2.49482e-06 0.000488455
0.00572186 0.000131894 0.000271822
0.000131894 0.00316734 6.81687e-06
0.000271822 6.81687e-06 0.00317541
0.000514699 1.07215e-05 1.87951e-05
1.07215e-05 -0.000143916 6.98527e-07
1.87951e-05 6.98527e-07 -0.000220439
0.00275295 3.29283e-05 0.000128673
3.29283e-05 0.00121278 5.38354e-06
0.000128673 5.38354e-06 0.00116234
0.00104154 4.66732e-05 1.2357e-05
4.66732e-05 -2.64293e-05 1.07367e-06
1.2357e-05 1.07367e-06 -0.000154656
0.00268041 0.00011054 0.000133492
0.00011054 0.00117387 1.03484e-05
0.000133492 1.03484e-05 0.00111395
0.00110035 0.000109814 1.22938e-05
0.000109814 -3.34997e-06 2.20272e-06
1.22938e-05 2.20272e-06 -0.000145201
0.00174031 4.29367e-05 -0.000217882
4.29367e-05 0.00070034 2.24714e-06
-0.000217882 2.24714e-06 0.000698201
0.00132445 -7.39698e-06 -5.07559e-05
-7.39698e-06 0.000473672 2.11911e-06
-5.07559e-05 2.11911e-06 0.000432815
0.00148232 3.06693e-05 -2.36722e-05
3.06693e-05 0.000588064 6.99392e-06
-2.36722e-05 6.99392e-06 0.000539763
0.00130931 -8.97407e-05 -6.47218e-05
-8.97407e-05 0.000475466 9.39729e-06
-6.47218e-05 9.39729e-06 0.000429658
0.0018274 -8.02002e-05 -0.000114876
-8.02002e-05 0.000662819 1.02828e-05
-0.000114876 1.02828e-05 0.000595324
0.00179117 -0.000127181 -0.00011563
-0.000127181 0.000654216 1.72451e-05
-0.00011563 1.72451e-05 0.000580806
0.00169528 -0.000160326 -0.000120059
-0.000160326 0.000620026 2.15894e-05
-0.000120059 2.15894e-05 0.000535671
0.00200658 -0.000260874 -3.01496e-05
-0.000260874 0.000634309 1.04243e-05
-3.01496e-05 1.04243e-05 0.000462468
0.00574975 -9.3856e-05 2.1675e-06
-9.3856e-05 0.00317691 -1.69746e-06
2.1675e-06 -1.69746e-06 0.00318922
0.00158856 3.81413e-05 8.57904e-05
3.81413e-05 0.000619129 -3.73165e-06
8.57904e-05 -3.73165e-06 0.000597376
0.00113684 -5.76157e-06 -5.89295e-05
-5.76157e-06 0.000238276 1.41261e-06
-5.89295e-05 1.41261e-06 0.000172436
0.001692 -6.29997e-05 -3.23315e-05
-6.29997e-05 0.000585351 2.24771e-06
-3.23315e-05 2.24771e-06 0.000512776
0.00378702 1.30124e-05 0.000206218
1.30124e-05 0.00199728 -8.65507e-06
0.000206218 -8.65507e-06 0.00198554
0.00219268 -0.000135829 -3.70936e-05
-0.000135829 0.00094569 2.08729e-06
-3.70936e-05 2.08729e-06 0.000851132
0.0017144 -0.000121155 -2.82163e-05
-0.000121155 0.000608537 2.18483e-06
-2.82163e-05 2.18483e-06 0.000529019
0.00187937 -0.00016421 -9.54738e-06
-0.00016421 0.000493777 1.6909e-06
-9.54738e-06 1.6909e-06 0.000351136
0.00199932 -0.000282551 -7.11183e-06
-0.000282551 0.000672421 2.11426e-06
-7.11183e-06 2.11426e-06 0.000488872
0.00189568 -0.000228713 -6.09762e-06
-0.000228713 0.000539941 1.56627e-06
-6.09762e-06 1.56627e-06 0.000378505
0.00145203 -0.000309769 4.58274e-07
-0.000309769 0.000137538 -1.52514e-07
4.58274e-07 -1.52514e-07 -7.75729e-05
0.000554311 1.18861e-05 1.94373e-05
1.18861e-05 -0.000122925 -9.91149e-07
1.94373e-05 -9.91149e-07 -0.000196222
0.00154968 7.27853e-06 4.46758e-05
7.27853e-06 0.000498611 -2.60625e-06
4.46758e-05 -2.60625e-06 0.000427358
0.00171236 -4.62127e-05 1.19773e-05
-4.62127e-05 0.000385756 -8.692e-07
1.19773e-05 -8.692e-07 0.000268416
0.00171594 -0.00012797 1.20061e-05
-0.00012797 0.00038688 -1.98022e-06
1.20061e-05 -1.98022e-06 0.000252369
0.00174309 -0.000192119 1.44442e-05
-0.000192119 0.000421966 -4.08817e-06
1.44442e-05 -4.08817e-06 0.000270799
0.00178516 -0.000223328 7.04707e-07
-0.000223328 0.000228488 -3.74256e-07
7.04707e-07 -3.74256e-07 6.51986e-05
0.00529052 0.000169796 0.000160961
0.000169796 0.00295131 -1.18665e-05
0.000160961 -1.18665e-05 0.00293204
0.00146176 -0.000285068 5.31279e-06
-0.000285068 0.000100118 -1.25257e-06
5.31279e-06 -1.25257e-06 -9.863e-05
0.000365561 -0.000145843 2.06982e-05
-0.000145843 -0.000162311 -1.72073e-05
2.06982e-05 -1.72073e-05 -0.000254533
0.000849568 -0.000209891 1.17352e-05
-0.000209891 1.76691e-05 -7.65505e-06
1.17352e-05 -7.65505e-06 -0.000167556
0.00145347 -0.000339356 7.35677e-06
-0.000339356 0.000193291 -2.2403e-06
7.35677e-06 -2.2403e-06 -4.31519e-05
0.00171897 -0.000384432 3.043e-06
-0.000384432 0.000179575 1.27536e-06
3.043e-06 1.27536e-06 -4.02583e-05
0.000481697 -8.92007e-05 1.68299e-05
-8.92007e-05 -4.47067e-05 -1.42062e-05
1.68299e-05 -1.42062e-05 -0.000120107
0.000458841 -7.44595e-05 -5.92901e-07
-7.44595e-05 -2.72018e-05 -4.87686e-06
-5.92901e-07 -4.87686e-06 -0.000200172
0.00623784 0.000223057 -0.000297781
0.000223057 0.00347015 -2.78636e-05
-0.000297781 -2.78636e-05 0.00347304
0.00612125 0.000129613 -0.000267279
0.000129613 0.00339153 -2.44113e-05
-0.000267279 -2.44113e-05 0.00340063
0.00044866 0.000121933 -1.85838e-05
0.000121933 -0.000164352 -1.14044e-05
-1.85838e-05 -1.14044e-05 -0.000263578
0.00511692 -0.000188589 -0.000153076
-0.000188589 0.00284662 -1.11114e-05
-0.000153076 -1.11114e-05 0.00282656
0.000445483 0.000164175 -2.29746e-05
0.000164175 -0.000114 -1.65089e-05
-2.29746e-05 -1.65089e-05 -0.000207715
0.000436501 0.000180954 -2.0997e-05
0.000180954 -0.000126158 -1.64558e-05
-2.0997e-05 -1.64558e-05 -0.000239188
0.000866255 0.000201353 -1.27464e-05
0.000201353 2.99708e-05 -6.10282e-06
-1.27464e-05 -6.10282e-06 -0.000152323
0.00450039 -0.000149336 1.33728e-05
-0.000149336 0.00246454 -1.13719e-06
1.33728e-05 -1.13719e-06 0.00245463
0.000549715 -3.08155e-06 1.00426e-06
-3.08155e-06 1.6218e-05 7.38139e-07
1.00426e-06 7.38139e-07 -3.70251e-05
0.00166429 0.000131282 5.70968e-05
0.000131282 0.000561836 4.41517e-06
5.70968e-05 4.41517e-06 0.000480382
0.00162558 0.000186863 5.6145e-05
0.000186863 0.000574093 4.50445e-06
5.6145e-05 4.50445e-06 0.000480496
0.00100303 0.000186094 9.70701e-08
0.000186094 -1.66957e-05 -2.52039e-07
9.70701e-08 -2.52039e-07 -0.000185409
0.000532865 0.000126282 -7.12515e-07
0.000126282 -4.13432e-05 -1.79203e-07
-7.12515e-07 -1.79203e-07 -0.000122688
0.000903369 0.000203318 6.8769e-07
0.000203318 1.01861e-05 9.28446e-08
6.8769e-07 9.28446e-08 -0.00016855
0.000833867 0.000202371 3.24431e-07
0.000202371 7.18519e-05 -7.7245e-07
3.24431e-07 -7.7245e-07 -0.00011787
0.00112779 0.000290496 -1.51309e-08
0.000290496 0.000112476 -3.81993e-07
-1.51309e-08 -3.81993e-07 -0.000120406
0.000630462 7.79522e-05 1.69267e-05
7.79522e-05 4.7624e-05 1.3362e-05
1.69267e-05 1.3362e-05 -2.37926e-05
0.000592254 -3.27163e-05 3.30294e-06
-3.27163e-05 4.09793e-05 9.20281e-06
3.30294e-06 9.20281e-06 -8.18659e-07
0.00113698 0.000114944 2.65787e-06
0.000114944 0.000391792 5.87028e-06
2.65787e-06 5.87028e-06 0.000232566
0.00107459 0.000165328 1.36465e-05
0.000165328 -4.14596e-06 4.18545e-06
1.36465e-05 4.18545e-06 -0.000164185
0.000967311 0.000201876 1.44363e-05
0.000201876 -4.47762e-06 6.22398e-06
1.44363e-05 6.22398e-06 -0.000179639
0.00157516 0.000305028 4.86259e-06
0.000305028 0.000156545 7.66073e-07
4.86259e-06 7.66073e-07 -4.85016e-05
0.000775523 0.000207364 8.65622e-06
0.000207364 0.000110735 5.36938e-06
8.65622e-06 5.36938e-06 -8.08616e-05
0.00133427 0.000325348 4.27165e-06
0.000325348 0.000160283 5.0831e-07
4.27165e-06 5.0831e-07 -7.14486e-05
0.00109371 0.000279498 4.70008e-06
0.000279498 0.000144892 1.32799e-06
4.70008e-06 1.32799e-06 -9.68404e-05
0.00136689 0.000367462 -4.55963e-06
0.000367462 0.000185153 -2.5649e-06
-4.55963e-06 -2.5649e-06 -7.32798e-05
0.00270003 -0.000126023 4.55855e-05
-0.000126023 0.00134292 3.14013e-06
4.55855e-05 3.14013e-06 0.00134137
0.00294683 -0.000144665 1.09857e-05
-0.000144665 0.00150294 -7.97411e-07
1.09857e-05 -7.97411e-07 0.00149617
0.00329555 -0.000170267 -6.25823e-05
-0.000170267 0.00172785 -3.24968e-06
-6.25823e-05 -3.24968e-06 0.00171334
0.000471046 -5.6926e-05 1.1718e-05
-5.6926e-05 -3.97906e-05 -1.24172e-05
1.1718e-05 -1.24172e-05 -0.000103411
0.00463468 0.00017298 0.000129641
0.00017298 0.00256123 -1.11049e-05
0.000129641 -1.11049e-05 0.00254075
0.00620978 0.000195921 -0.000299313
0.000195921 0.00344949 -2.37283e-05
-0.000299313 -2.37283e-05 0.00345639
0.00590432 8.04181e-05 -0.000275084
8.04181e-05 0.00325505 -1.08371e-05
-0.000275084 -1.08371e-05 0.00327198
0.000532013 9.41649e-05 -1.97675e-05
9.41649e-05 -0.000137135 -5.15848e-06
-1.97675e-05 -5.15848e-06 -0.000222267
0.000513898 4.2289e-05 -1.93407e-05
4.2289e-05 -0.000143811 -2.62125e-06
-1.93407e-05 -2.62125e-06 -0.000223453
0.0057019 -9.04348e-06 -0.000265307
-9.04348e-06 0.00313603 -2.00968e-06
-0.000265307 -2.00968e-06 0.00315514
0.00565782 1.31446e-05 -3.81337e-07
1.31446e-05 0.00311071 -7.375e-07
-3.81337e-07 -7.375e-07 0.00312964
0.000497883 8.13868e-07 -1.04569e-07
8.13868e-07 -0.000156832 5.23438e-08
-1.04569e-07 5.23438e-08 -0.000231525
0.00161738 3.58894e-05 5.59022e-05
3.58894e-05 0.000522036 2.28986e-06
5.59022e-05 2.28986e-06 0.000456682
0.00101242 5.03067e-05 -4.96533e-08
5.03067e-05 -4.59467e-05 -1.61769e-07
-4.96533e-08 -1.61769e-07 -0.000174787
0.000493233 7.97073e-05 -4.0326e-07
7.97073e-05 -0.000158067 -3.6349e-07
-4.0326e-07 -3.6349e-07 -0.000248265
0.00104327 0.0001107 -1.96559e-07
0.0001107 -3.74129e-05 -1.61513e-07
-1.96559e-07 -1.61513e-07 -0.000180106
0.000491697 -2.99695e-05 1.9359e-05
-2.99695e-05 -0.000162232 -7.87577e-07
1.9359e-05 -7.87577e-07 -0.000234455
0.00100826 1.96486e-05 1.21398e-05
1.96486e-05 -3.94305e-05 4.62932e-07
1.21398e-05 4.62932e-07 -0.000164785
0.00104853 7.77191e-05 1.19918e-05
7.77191e-05 -2.88081e-05 1.79441e-06
1.19918e-05 1.79441e-06 -0.000162635
0.00157736 7.75938e-05 -4.54859e-07
7.75938e-05 5.00414e-05 -1.27047e-07
-4.54859e-07 -1.27047e-07 -6.98361e-05
0.00110313 0.000138493 1.28517e-05
0.000138493 8.30931e-07 3.05164e-06
1.28517e-05 3.05164e-06 -0.000150081
0.00169022 0.000181751 1.29318e-06
0.000181751 0.000112312 -3.23806e-07
1.29318e-06 -3.23806e-07 -3.32417e-05
0.00567297 -5.45466e-05 -0.000270594
-5.45466e-05 0.00312453 1.6292e-06
-0.000270594 1.6292e-06 0.00314079
0.00128265 -0.000145691 -5.2474e-05
-0.000145691 0.000458103 5.84481e-06
-5.2474e-05 5.84481e-06 0.000415582
-0.000270541 -3.72736e-06 -1.25718e-05
-3.72736e-06 -0.000616315 2.0673e-06
-1.25718e-05 2.0673e-06 -0.000704495
0.00178958 -5.58453e-05 -0.000113921
-5.58453e-05 0.000638868 7.25909e-06
-0.000113921 7.25909e-06 0.000574028
0.00567597 0.000332007 -1.21863e-06
0.000332007 0.00321179 5.88703e-06
-1.21863e-06 5.88703e-06 0.00314659
0.00283593 -0.00022207 -0.000122641
-0.00022207 0.00133028 2.20574e-05
-0.000122641 2.20574e-05 0.00124162
0.00182325 -0.000103784 -0.000115029
-0.000103784 0.000665016 1.37013e-05
-0.000115029 1.37013e-05 0.00059544
0.00183777 -0.000159728 -2.90142e-05
-0.000159728 0.000464376 5.48953e-06
-2.90142e-05 5.48953e-06 0.000322972
0.00200696 -0.000233156 -2.88146e-05
-0.000233156 0.000607814 8.76449e-06
-2.88146e-05 8.76449e-06 0.000446661
0.00200964 -0.000285612 -2.77755e-05
-0.000285612 0.000675689 1.11476e-05
-2.77755e-05 1.11476e-05 0.000491061
0.00147944 -0.000310937 -5.03813e-06
-0.000310937 0.000155549 1.20441e-06
-5.03813e-06 1.20441e-06 -5.90789e-05
0.00049322 6.1926e-06 -5.28819e-08
6.1926e-06 -0.000158074 1.64604e-07
-5.28819e-08 1.64604e-07 -0.000232346
0.00167865 -7.55607e-05 -3.12576e-05
-7.55607e-05 0.000579856 3.65384e-07
-3.12576e-05 3.65384e-07 0.000510923
0.00131366 -4.18843e-05 -8.78011e-06
-4.18843e-05 0.000143898 5.00533e-07
-8.78011e-06 5.00533e-07 2.2079e-05
0.00184543 -0.000129346 -6.94933e-06
-0.000129346 0.000465381 1.07476e-06
-6.94933e-06 1.07476e-06 0.000331219
0.00551504 0.000153977 -3.44728e-07
0.000153977 0.00308291 3.63412e-08
-3.44728e-07 3.63412e-08 0.00306652
0.00163429 -0.000138295 4.03813e-07
-0.000138295 0.000625275 2.46052e-07
4.03813e-07 2.46052e-07 0.00052177
0.00133263 -0.000241958 1.39846e-06
-0.000241958 0.000317114 -9.67644e-07
1.39846e-06 -9.67644e-07 0.000129773
0.00178452 -0.000193763 -7.14305e-06
-0.000193763 0.000446981 1.71386e-06
-7.14305e-06 1.71386e-06 0.000295469
0.00174456 -0.000223997 -1.66787e-06
-0.000223997 0.00020013 3.02089e-07
-1.66787e-06 3.02089e-07 3.93841e-05
0.00143576 -0.000337471 7.91442e-07
-0.000337471 0.000186727 -1.83819e-07
7.91442e-07 -1.83819e-07 -4.8988e-05
0.00162354 -0.000292056 4.86826e-07
-0.000292056 0.000199848 -1.82193e-07
4.86826e-07 -1.82193e-07 1.80149e-06
0.00175355 -0.000385244 6.91368e-07
-0.000385244 0.000205138 5.9854e-08
6.91368e-07 5.9854e-08 -1.4198e-05
0.000514192 -9.45133e-05 -2.12351e-07
-9.45133e-05 -2.63856e-05 5.59286e-07
-2.12351e-07 5.59286e-07 -0.0001054
0.00064787 -0.000103799 2.16849e-07
-0.000103799 8.22543e-05 3.29878e-08
2.16849e-07 3.29878e-08 -9.11971e-05
0.000989656 -2.03263e-05 1.20832e-05
-2.03263e-05 -4.38599e-05 -7.93771e-07
1.20832e-05 -7.93771e-07 -0.000169205
0.00175948 -8.3004e-05 1.10089e-05
-8.3004e-05 0.000414239 -1.3361e-06
1.10089e-05 -1.3361e-06 0.000290802
0.00171022 -7.60226e-05 -4.00984e-07
-7.60226e-05 0.000148921 2.38504e-07
-4.00984e-07 2.38504e-07 2.56625e-05
0.00163153 -0.000178798 1.4143e-06
-0.000178798 0.000109597 3.83898e-07
1.4143e-06 3.83898e-07 -3.39873e-05
0.00172506 -0.000266163 2.2027e-06
-0.000266163 0.000223498 -2.03427e-07
2.2027e-06 -2.03427e-07 4.58213e-05
0.00188344 -0.00026535 1.28722e-07
-0.00026535 0.000157666 4.81813e-07
1.28722e-07 4.81813e-07 1.46641e-05
0.000461952 -0.000128478 1.91729e-05
-0.000128478 -7.85188e-05 -1.64348e-05
1.91729e-05 -1.64348e-05 -0.000165059
0.00177243 -0.00035238 1.14453e-06
-0.00035238 0.000170571 1.08012e-06
1.14453e-06 1.08012e-06 -2.04276e-05
0.000612413 -0.0001948 8.02298e-06
-0.0001948 -6.08292e-05 -7.58759e-06
8.02298e-06 -7.58759e-06 -0.000249259
0.00121464 -0.000329182 9.65704e-06
-0.000329182 0.00013077 -3.80376e-06
9.65704e-06 -3.80376e-06 -0.000117393
0.00188968 -0.000437076 2.67777e-06
-0.000437076 0.000342872 6.47901e-07
2.67777e-06 6.47901e-07 8.55655e-05
0.00207282 -0.00041993 -2.25664e-06
-0.00041993 0.000343062 3.62159e-06
-2.25664e-06 3.62159e-06 0.00014593
0.000654403 -0.000169859 1.00261e-06
-0.000169859 9.26702e-05 -5.0182e-06
1.00261e-06 -5.0182e-06 -0.000114388
0.00056876 -6.39209e-05 -3.38382e-07
-6.39209e-05 3.12365e-05 -4.86203e-06
-3.38382e-07 -4.86203e-06 -0.000105135
0.00111032 -0.000226494 -2.1411e-06
-0.000226494 0.000387643 6.46326e-07
-2.1411e-06 6.46326e-07 0.000138236
0.000477364 0.000101189 -1.79629e-05
0.000101189 -0.000160707 -8.71824e-06
-1.79629e-05 -8.71824e-06 -0.000255463
0.00416402 -0.000185875 -0.000104081
-0.000185875 0.00226798 -6.36874e-06
-0.000104081 -6.36874e-06 0.00224901
0.000352458 -1.68908e-05 -3.15518e-06
-1.68908e-05 -9.68787e-05 -1.06797e-05
-3.15518e-06 -1.06797e-05 -0.000150643
0.000430815 0.000151448 -1.98017e-05
0.000151448 -0.000152315 -1.43786e-05
-1.98017e-05 -1.43786e-05 -0.000258479
0.000975546 0.000185232 -1.50856e-05
0.000185232 -2.78587e-05 -5.81216e-06
-1.50856e-05 -5.81216e-06 -0.000197042
0.000453005 0.00011831 -2.13474e-05
0.00011831 -9.1951e-05 -1.48821e-05
-2.13474e-05 -1.48821e-05 -0.000169566
0.000686214 0.00018879 -9.84958e-06
0.00018879 -1.99777e-05 -6.79204e-06
-9.84958e-06 -6.79204e-06 -0.000207482
0.0009123 0.00020232 -1.34265e-05
0.00020232 2.04961e-05 -6.77783e-06
-1.34265e-05 -6.77783e-06 -0.000157727
0.00116776 0.000298512 -5.09029e-06
0.000298512 0.000132969 -1.79463e-06
-5.09029e-06 -1.79463e-06 -0.000101291
0.000493401 6.56473e-05 2.05415e-06
6.56473e-05 -3.44386e-05 7.32931e-07
2.05415e-06 7.32931e-07 -0.000103358
0.00048675 -5.05719e-05 8.49289e-08
-5.05719e-05 -1.62879e-05 3.42367e-07
8.49289e-08 3.42367e-07 -6.08527e-05
0.000641233 6.67928e-05 1.33571e-06
6.67928e-05 7.51852e-05 2.34486e-08
1.33571e-06 2.34486e-08 -6.67578e-05
0.00103849 0.000165069 -7.12868e-08
0.000165069 -2.2192e-05 -2.66281e-07
-7.12868e-08 -2.66281e-07 -0.00018303
0.000957937 0.000200358 3.53426e-07
0.000200358 -3.75974e-06 -2.02565e-07
3.53426e-07 -2.02565e-07 -0.000178864
0.00156271 0.000304573 2.739e-08
0.000304573 0.000147793 -6.22867e-08
2.739e-08 -6.22867e-08 -5.76671e-05
0.000779395 0.000200979 -4.97884e-07
0.000200979 0.000109511 -1.65407e-07
-4.97884e-07 -1.65407e-07 -8.16757e-05
0.00137819 0.00032642 -1.14817e-07
0.00032642 0.000184142 -1.2126e-07
-1.14817e-07 -1.2126e-07 -4.7855e-05
0.00108632 0.000278373 -9.96979e-08
0.000278373 0.000142249 -5.85788e-07
-9.96979e-08 -5.85788e-07 -9.83812e-05
0.00134206 0.000378589 -8.40031e-07
0.000378589 0.00015743 5.36965e-07
-8.40031e-07 5.36965e-07 -0.000103926
0.00054353 -5.41029e-05 -9.80492e-07
-5.41029e-05 1.0034e-05 7.58868e-06
-9.80492e-07 7.58868e-06 -2.49485e-05
0.000998368 0.000148309 5.34913e-06
0.000148309 0.000285674 4.38023e-06
5.34913e-06 4.38023e-06 0.000105751
0.000733481 3.33983e-05 1.38804e-06
3.33983e-05 0.000120214 5.62375e-06
1.38804e-06 5.62375e-06 1.31934e-05
0.000997952 0.000140864 8.5073e-07
0.000140864 0.000335201 2.69858e-07
8.5073e-07 2.69858e-07 0.00011518
0.00163704 0.000271075 3.11008e-06
0.000271075 0.000139565 -4.03922e-07
3.11008e-06 -4.03922e-07 -4.47916e-05
0.00147161 0.000325038 5.14449e-06
0.000325038 0.000162437 1.09697e-06
5.14449e-06 1.09697e-06 -5.98698e-05
0.00187362 0.0003804 1.21686e-06
0.0003804 0.000226893 -5.20578e-07
1.21686e-06 -5.20578e-07 2.04848e-05
0.00112483 0.00025618 5.31637e-06
0.00025618 0.000232978 1.88754e-06
5.31637e-06 1.88754e-06 1.93063e-06
0.00194001 0.00045904 -2.4046e-06
0.00045904 0.000414457 -1.29395e-06
-2.4046e-06 -1.29395e-06 0.000156395
0.00139759 0.000367796 -2.40422e-06
0.000367796 0.000264351 -2.16191e-06
-2.40422e-06 -2.16191e-06 -1.87163e-05
0.00157584 0.000427873 -6.92706e-07
0.000427873 0.000194779 -9.34134e-07
-6.92706e-07 -9.34134e-07 -7.14877e-05
0.000580315 2.37276e-05 2.31584e-06
2.37276e-05 2.51329e-05 2.83971e-06
2.31584e-06 2.83971e-06 -3.30578e-05
0.000500267 -3.83513e-05 5.87435e-07
-3.83513e-05 -3.91833e-05 5.52144e-06
5.87435e-07 5.52144e-06 -6.20035e-05
0.00253114 -0.000114678 3.122e-05
-0.000114678 0.00123171 3.49433e-06
3.122e-05 3.49433e-06 0.00123322
0.00264372 -0.000131709 4.79044e-06
-0.000131709 0.00130981 -5.41222e-07
4.79044e-06 -5.41222e-07 0.00130657
0.00284368 -0.000153225 -3.91215e-05
-0.000153225 0.00144188 -3.16067e-06
-3.91215e-05 -3.16067e-06 0.00143238
0.000443462 -3.83572e-05 8.4638e-06
-3.83572e-05 -5.47678e-05 -1.07208e-05
8.4638e-06 -1.07208e-05 -0.000108221
0.00400697 0.000146154 0.000111469
0.000146154 0.002166 -8.29354e-06
0.000111469 -8.29354e-06 0.00215437
0.000520708 -6.01432e-05 -1.20292e-06
-6.01432e-05 -1.31029e-05 3.01852e-07
-1.20292e-06 3.01852e-07 -7.89554e-05
0.00485925 0.000153297 -8.93865e-06
0.000153297 0.00269059 -1.32489e-06
-8.93865e-06 -1.32489e-06 0.00267474
0.000523779 0.000104885 -1.93439e-05
0.000104885 -0.000137414 -6.94182e-06
-1.93439e-05 -6.94182e-06 -0.000229347
0.000533867 3.38433e-05 -1.84782e-05
3.38433e-05 -0.000136823 -3.37157e-06
-1.84782e-05 -3.37157e-06 -0.000217166
0.0010078 0.000111544 -1.21071e-05
0.000111544 -5.9782e-05 -2.48175e-06
-1.21071e-05 -2.48175e-06 -0.000203175
0.000984453 5.24933e-05 -1.21685e-05
5.24933e-05 -6.46646e-05 -1.35434e-06
-1.21685e-05 -1.35434e-06 -0.000193959
0.000552745 -7.41146e-06 -1.94944e-05
-7.41146e-06 -0.000126997 -7.7069e-07
-1.94944e-05 -7.7069e-07 -0.000199756
0.00574387 -9.62616e-05 -0.000277364
-9.62616e-05 0.0031729 4.47622e-06
-0.000277364 4.47622e-06 0.00318652
0.00053814 -1.29935e-06 9.10232e-08
-1.29935e-06 -0.000134678 -5.76689e-07
9.10232e-08 -5.76689e-07 -0.000206979
0.000993214 2.46441e-05 -8.60819e-08
2.46441e-05 -4.94594e-05 -3.57315e-08
-8.60819e-08 -3.57315e-08 -0.000175123
0.00103627 7.97669e-05 -1.54607e-07
7.97669e-05 -3.85255e-05 -2.03337e-08
-1.54607e-07 -2.03337e-08 -0.000172962
0.00158964 7.68226e-05 -7.65905e-08
7.68226e-05 5.90002e-05 2.1637e-07
-7.65905e-08 2.1637e-07 -6.10071e-05
0.0010541 0.000139488 -2.34682e-07
0.000139488 -2.73025e-05 -2.57894e-07
-2.34682e-07 -2.57894e-07 -0.000179309
0.00165551 0.000180664 -1.14561e-07
0.000180664 9.20891e-05 2.26926e-08
-1.14561e-07 2.26926e-08 -5.39287e-05
0.000983004 -2.13905e-06 1.20544e-05
-2.13905e-06 -4.81316e-05 -2.51146e-07
1.20544e-05 -2.51146e-07 -0.000172873
0.00156317 3.79613e-05 1.1658e-07
3.79613e-05 5.09219e-05 -2.29492e-08
1.1658e-07 -2.29492e-08 -6.40468e-05
0.00162222 0.000126742 -1.81527e-07
0.000126742 6.85696e-05 -4.81067e-07
-1.81527e-07 -4.81067e-07 -6.16852e-05
0.00186911 0.00010516 2.6028e-07
0.00010516 6.72039e-05 -2.47796e-07
2.6028e-07 -2.47796e-07 -1.30395e-05
0.00168424 0.000230918 2.29566e-06
0.000230918 0.000126698 -1.99253e-07
2.29566e-06 -1.99253e-07 -3.74318e-05
0.00193772 0.0002254 8.89522e-07
0.0002254 0.000141728 -1.46264e-06
8.89522e-07 -1.46264e-06 2.08304e-05
0.000520253 -9.41654e-07 -1.86271e-05
-9.41654e-07 -0.000138939 9.95483e-07
-1.86271e-05 9.95483e-07 -0.000215257
0.00176699 -3.24601e-05 -0.000112579
-3.24601e-05 0.00062639 4.80599e-06
-0.000112579 4.80599e-06 0.000565406
0.000884154 -3.64679e-05 -1.58649e-05
-3.64679e-05 -0.000116124 1.78416e-06
-1.58649e-05 1.78416e-06 -0.00024272
0.0019548 -0.000129597 -2.62731e-05
-0.000129597 0.000531183 3.97297e-06
-2.62731e-05 3.97297e-06 0.000397535
0.00574172 0.000152608 -0.000191571
0.000152608 0.00322608 1.82538e-05
-0.000191571 1.82538e-05 0.00320598
0.00287851 -0.000200333 -0.000127127
-0.000200333 0.00137248 1.76209e-05
-0.000127127 1.76209e-05 0.00129398
0.00198682 -0.000290317 -2.299e-05
-0.000290317 0.000717091 9.91093e-06
-2.299e-05 9.91093e-06 0.00052483
0.001805 -0.000193916 -2.82238e-05
-0.000193916 0.000458877 7.09235e-06
-2.82238e-05 7.09235e-06 0.000307373
0.00170078 -0.000224603 -4.31807e-06
-0.000224603 0.000169417 4.63599e-07
-4.31807e-06 4.63599e-07 1.12124e-05
0.00178541 -0.000299066 -5.37293e-06
-0.000299066 0.000300175 1.4244e-06
-5.37293e-06 1.4244e-06 0.000102819
0.00141171 -0.000335519 -6.32499e-06
-0.000335519 0.000175665 1.43716e-06
-6.32499e-06 1.43716e-06 -5.93623e-05
0.00178594 -0.000386271 -1.21719e-06
-0.000386271 0.000228202 -1.28713e-06
-1.21719e-06 -1.28713e-06 9.2843e-06
0.000527969 -0.000107135 -1.67411e-05
-0.000107135 -1.72861e-05 1.49907e-05
-1.67411e-05 1.49907e-05 -9.99277e-05
0.000901657 -0.00013472 -7.25878e-07
-0.00013472 0.000234344 4.66398e-06
-7.25878e-07 4.66398e-06 5.8414e-05
0.00092708 -1.49357e-05 -2.32514e-08
-1.49357e-05 -8.35843e-05 -3.01248e-08
-2.32514e-08 -3.01248e-08 -0.000208012
0.00176151 -8.37825e-05 -7.32853e-06
-8.37825e-05 0.000413945 8.50427e-07
-7.32853e-06 8.50427e-07 0.000290648
0.00174561 -7.24768e-05 -9.2491e-07
-7.24768e-05 0.000168647 2.32553e-07
-9.2491e-07 2.32553e-07 4.95251e-05
0.00168154 -0.000179448 -1.36407e-06
-0.000179448 0.000143583 4.33947e-07
-1.36407e-06 4.33947e-07 -3.13636e-06
0.000488047 -0.000141635 6.3122e-07
-0.000141635 -6.36408e-05 2.29117e-07
6.3122e-07 2.29117e-07 -0.000152867
0.000813277 -0.000207812 -4.36021e-07
-0.000207812 5.92904e-05 -1.96061e-07
-4.36021e-07 -1.96061e-07 -0.000130797
0.00115758 -0.0003248 1.72462e-06
-0.0003248 9.54873e-05 -7.18136e-07
1.72462e-06 -7.18136e-07 -0.000152187
0.00175052 -0.000265726 -3.07244e-06
-0.000265726 0.000238997 8.26253e-07
-3.07244e-06 8.26253e-07 5.96228e-05
0.00192881 -0.000269426 1.54122e-06
-0.000269426 0.000179289 -3.56627e-07
1.54122e-06 -3.56627e-07 4.09588e-05
0.00193494 -0.000445428 -1.16668e-06
-0.000445428 0.000369474 -1.93591e-07
-1.16668e-06 -1.93591e-07 0.000111548
0.00179987 -0.000353868 5.14862e-07
-0.000353868 0.000187678 8.82721e-09
5.14862e-07 8.82721e-09 -3.24428e-06
0.00196579 -0.000415216 8.3339e-07
-0.000415216 0.000271191 6.78375e-07
8.3339e-07 6.78375e-07 7.4242e-05
0.00070857 -0.000173333 1.43975e-07
-0.000173333 0.00011901 -2.16267e-07
1.43975e-07 -2.16267e-07 -8.27051e-05
0.000474639 -0.000142927 -8.01903e-07
-0.000142927 -1.60498e-05 -2.75048e-07
-8.01903e-07 -2.75048e-07 -0.000246159
0.000706516 -8.28945e-05 3.87319e-07
-8.28945e-05 0.000113973 1.16874e-07
3.87319e-07 1.16874e-07 -2.68678e-05
0.0016662 -3.18425e-05 -6.13233e-07
-3.18425e-05 0.00012537 1.40745e-07
-6.13233e-07 1.40745e-07 7.86019e-06
0.00180558 -0.000123295 -1.11485e-06
-0.000123295 0.000203678 1.01917e-06
-1.11485e-06 1.01917e-06 7.67582e-05
0.00180715 -9.53186e-05 8.92933e-07
-9.53186e-05 4.77173e-05 7.81477e-07
8.92933e-07 7.81477e-07 -4.0847e-05
0.00183774 -0.000218842 -1.89768e-06
-0.000218842 9.91333e-05 1.1787e-06
-1.89768e-06 1.1787e-06 -2.10828e-05
0.00171987 -0.000315018 -6.19768e-07
-0.000315018 9.26098e-05 1.99866e-06
-6.19768e-07 1.99866e-06 -6.96429e-05
0.00203418 -0.000293062 1.2482e-06
-0.000293062 0.000197388 1.55021e-07
1.2482e-06 1.55021e-07 8.46158e-05
0.000671854 -0.000204637 4.47979e-06
-0.000204637 4.2195e-05 -6.4593e-06
4.47979e-06 -6.4593e-06 -0.000153862
0.00183816 -0.000382005 -2.03943e-06
-0.000382005 0.000145778 1.88498e-06
-2.03943e-06 1.88498e-06 -2.14355e-05
0.00122785 -0.000306231 6.32864e-06
-0.000306231 0.00022722 -4.59026e-06
6.32864e-06 -4.59026e-06 -1.6211e-05
0.00160667 -0.000469678 4.19785e-06
-0.000469678 0.000272378 3.1746e-07
4.19785e-06 3.1746e-07 -2.89429e-05
0.00202317 -0.00047781 1.86953e-06
-0.00047781 0.000363959 3.45904e-06
1.86953e-06 3.45904e-06 0.000112962
0.00212782 -0.00043824 -3.1011e-06
-0.00043824 0.000364123 2.96079e-06
-3.1011e-06 2.96079e-06 0.000182095
0.000617921 -5.63213e-05 -2.32268e-07
-5.63213e-05 7.46335e-05 -4.81182e-06
-2.32268e-07 -4.81182e-06 -4.34736e-05
0.000853464 -0.00022314 -2.84565e-07
-0.00022314 0.000145453 -4.04135e-07
-2.84565e-07 -4.04135e-07 -7.32993e-05
0.000378895 -0.000122638 -1.74086e-06
-0.000122638 -2.38515e-05 2.04909e-06
-1.74086e-06 2.04909e-06 -0.000257154
0.00161188 -0.000300973 -4.69575e-06
-0.000300973 0.000625467 1.74012e-06
-4.69575e-06 1.74012e-06 0.000372484
0.000999504 0.000164965 -1.43096e-05
0.000164965 -4.21448e-05 -4.67682e-06
-1.43096e-05 -4.67682e-06 -0.0002038
0.000398282 -5.91709e-05 3.12126e-06
-5.91709e-05 -6.49758e-05 -9.33623e-06
3.12126e-06 -9.33623e-06 -0.000111403
0.000404815 4.51847e-05 -1.20529e-05
4.51847e-05 -8.54299e-05 -1.3051e-05
-1.20529e-05 -1.3051e-05 -0.000150095
0.000224647 3.6519e-05 -7.48561e-07
3.6519e-05 -0.000176718 -5.45806e-06
-7.48561e-07 -5.45806e-06 -0.000311714
0.000944362 0.000198903 -1.46541e-05
0.000198903 -5.60663e-06 -6.72129e-06
-1.46541e-05 -6.72129e-06 -0.000180707
0.00155225 0.000304131 -4.77792e-06
0.000304131 0.000140365 -7.52036e-07
-4.77792e-06 -7.52036e-07 -6.54827e-05
0.000674854 0.000188429 -6.07863e-06
0.000188429 4.25317e-05 -4.19427e-06
-6.07863e-06 -4.19427e-06 -0.000146084
0.00125737 0.000292447 -6.56968e-06
0.000292447 0.000249516 -2.60433e-06
-6.56968e-06 -2.60433e-06 7.93266e-06
0.00140683 0.000326166 -4.10589e-06
0.000326166 0.000198936 -1.02028e-06
-4.10589e-06 -1.02028e-06 -3.31703e-05
0.00130679 0.000386759 6.89389e-07
0.000386759 0.000126834 2.10793e-06
6.89389e-07 2.10793e-06 -0.0001366
0.000468759 -5.81783e-05 -2.03858e-06
-5.81783e-05 -3.32431e-05 6.4366e-07
-2.03858e-06 6.4366e-07 -6.9077e-05
0.000714483 0.000156952 2.00588e-07
0.000156952 0.000125306 -7.21415e-07
2.00588e-07 -7.21415e-07 -5.87176e-05
0.000605965 1.35291e-05 5.58923e-07
1.35291e-05 4.62818e-05 4.77666e-07
5.58923e-07 4.77666e-07 -5.67642e-05
0.000772415 0.000122691 1.42014e-06
0.000122691 0.000194909 -4.58584e-07
1.42014e-06 -4.58584e-07 -2.01383e-05
0.00162436 0.000270112 -4.91217e-07
0.000270112 0.000132282 -6.55387e-07
-4.91217e-07 -6.55387e-07 -5.23562e-05
0.00146065 0.000324812 2.81555e-08
0.000324812 0.000156037 -1.08181e-07
2.81555e-08 -1.08181e-07 -6.6784e-05
0.00184806 0.00037808 2.86503e-07
0.00037808 0.000213103 2.20993e-07
2.86503e-07 2.20993e-07 6.90775e-06
0.00104485 0.000253195 1.88562e-06
0.000253195 0.000188097 -2.16599e-07
1.88562e-06 -2.16599e-07 -4.20666e-05
0.00184876 0.000443628 -8.47916e-07
0.000443628 0.000363607 8.03197e-09
-8.47916e-07 8.03197e-09 0.000107675
0.00130135 0.000360101 2.21078e-07
0.000360101 0.000204107 -1.34778e-06
2.21078e-07 -1.34778e-06 -7.85832e-05
0.00166295 0.000429722 -3.69283e-06
0.000429722 0.000248764 1.26444e-06
-3.69283e-06 1.26444e-06 -1.36551e-05
0.000502571 -4.76039e-05 7.41607e-08
-4.76039e-05 -2.84589e-05 6.22294e-06
7.41607e-08 6.22294e-06 -5.56156e-05
0.000666994 8.81309e-06 3.78098e-07
8.81309e-06 8.20522e-05 4.87707e-06
3.78098e-07 4.87707e-06 -3.54451e-07
0.00098667 0.000226898 8.59297e-07
0.000226898 0.000236817 7.01293e-07
8.59297e-07 7.01293e-07 2.0898e-05
0.00125989 0.000106154 -1.52435e-06
0.000106154 0.000506473 2.5733e-06
-1.52435e-06 2.5733e-06 0.000318531
0.00130691 0.000239441 -2.74668e-06
0.000239441 0.000481727 -9.51597e-07
-2.74668e-06 -9.51597e-07 0.000250791
0.00192688 0.000336921 6.14618e-07
0.000336921 0.000202927 -2.18826e-06
6.14618e-07 -2.18826e-06 2.6343e-05
0.00182443 0.000422064 4.42061e-07
0.000422064 0.000264768 -5.85229e-07
4.42061e-07 -5.85229e-07 2.90311e-05
0.00192088 0.000415997 -7.92785e-07
0.000415997 0.000225745 -6.52047e-07
-7.92785e-07 -6.52047e-07 2.75129e-05
0.000820827 0.000297065 2.1797e-06
0.000297065 -5.30286e-06 1.7066e-06
2.1797e-06 1.7066e-06 -0.000272512
0.00209158 0.000513599 -5.44479e-07
0.000513599 0.00044627 -7.95284e-07
-5.44479e-07 -7.95284e-07 0.000182791
0.00106426 0.000380391 4.74349e-06
0.000380391 3.0983e-06 -2.37164e-06
4.74349e-06 -2.37164e-06 -0.000283322
0.000592616 1.85302e-05 2.4491e-06
1.85302e-05 3.1514e-05 3.07538e-06
2.4491e-06 3.07538e-06 -2.96806e-05
0.000653633 6.29242e-05 -1.85077e-07
6.29242e-05 0.000101261 1.27566e-06
-1.85077e-07 1.27566e-06 4.61423e-07
0.000602258 3.3985e-05 2.29112e-06
3.3985e-05 4.3694e-05 2.85113e-06
2.29112e-06 2.85113e-06 -1.37093e-05
0.000563107 -4.39703e-06 -5.68555e-07
-4.39703e-06 1.58939e-05 2.82895e-09
-5.68555e-07 2.82895e-09 -4.27628e-05
0.00124778 -4.79353e-05 8.87993e-07
-4.79353e-05 0.000416065 3.12196e-06
8.87993e-07 3.12196e-06 0.000399432
0.00089037 -4.74467e-05 4.73115e-07
-4.74467e-05 0.000200499 -1.41966e-07
4.73115e-07 -1.41966e-07 0.000179596
0.000858831 -5.33325e-05 2.51598e-05
-5.33325e-05 0.000190486 8.14499e-06
2.51598e-05 8.14499e-06 0.000190595
0.00249136 -0.00011205 5.19113e-06
-0.00011205 0.00120625 -4.84966e-07
5.19113e-06 -4.84966e-07 0.00120834
0.00256708 -0.0001276 -3.57608e-05
-0.0001276 0.00126214 -3.2424e-06
-3.57608e-05 -3.2424e-06 0.00125994
0.000380278 -1.28885e-05 3.59088e-06
-1.28885e-05 -8.6848e-05 -8.31126e-06
3.59088e-06 -8.31126e-06 -0.000128906
0.00357533 0.000142909 7.97401e-05
0.000142909 0.00189038 -4.94845e-06
7.97401e-05 -4.94845e-06 0.00188145
0.000488663 -3.8598e-05 -9.63881e-07
-3.8598e-05 -2.89724e-05 2.69376e-07
-9.63881e-07 2.69376e-07 -8.3133e-05
0.00424493 0.000133156 -8.75703e-06
0.000133156 0.00230761 -9.6401e-07
-8.75703e-06 -9.6401e-07 0.00229876
0.000510058 -6.2213e-05 -1.21601e-05
-6.2213e-05 -2.32058e-05 1.26707e-05
-1.21601e-05 1.26707e-05 -9.18331e-05
0.00510877 0.000134698 -0.000172968
0.000134698 0.00283589 1.4765e-05
-0.000172968 1.4765e-05 0.00282439
0.00100855 0.000140414 -1.30278e-05
0.000140414 -5.32742e-05 -3.5152e-06
-1.30278e-05 -3.5152e-06 -0.000206271
0.0010048 8.33777e-05 -1.20417e-05
8.33777e-05 -5.86635e-05 -1.80223e-06
-1.20417e-05 -1.80223e-06 -0.000193987
0.00164741 0.000176697 -2.30151e-06
0.000176697 8.91163e-05 2.662e-07
-2.30151e-06 2.662e-07 -5.67453e-05
0.00159874 7.62175e-05 -3.19869e-07
7.62175e-05 6.624e-05 5.36723e-07
-3.19869e-07 5.36723e-07 -5.39265e-05
0.000984363 2.88956e-05 -1.21192e-05
2.88956e-05 -5.64552e-05 -5.71024e-07
-1.21192e-05 -5.71024e-07 -0.000182435
0.0005007 2.88867e-05 -1.93486e-05
2.88867e-05 -0.000158315 -3.85724e-07
-1.93486e-05 -3.85724e-07 -0.000229769
0.000982084 9.21339e-07 -1.32508e-08
9.21339e-07 -4.98723e-05 -9.35308e-08
-1.32508e-08 -9.35308e-08 -0.000174667
0.00155898 3.87489e-05 -6.47718e-08
3.87489e-05 5.01175e-05 8.22997e-08
-6.47718e-08 8.22997e-08 -6.49667e-05
0.00163947 0.000124555 -4.15155e-08
0.000124555 8.09177e-05 1.77494e-08
-4.15155e-08 1.77494e-08 -4.93193e-05
0.00189968 0.000103749 -1.14129e-07
0.000103749 8.42343e-05 4.40854e-07
-1.14129e-07 4.40854e-07 7.63772e-06
0.00165871 0.000228724 -3.41567e-07
0.000228724 0.000114708 -5.66848e-08
-3.41567e-07 -5.66848e-08 -4.94664e-05
0.00191892 0.000222874 -4.92578e-07
0.000222874 0.000132299 9.8102e-09
-4.92578e-07 9.8102e-09 1.15883e-05
0.00154023 1.13436e-06 3.66972e-07
1.13436e-06 4.25592e-05 -7.04459e-09
3.66972e-07 -7.04459e-09 -7.13188e-05
0.00194752 5.44309e-05 -5.33498e-07
5.44309e-05 0.000118942 9.56615e-08
-5.33498e-07 9.56615e-08 5.41016e-05
0.00193907 0.00016649 9.76554e-07
0.00016649 0.000117216 -1.24384e-06
9.76554e-07 -1.24384e-06 1.96162e-05
0.00182068 0.000105024 6.15166e-06
0.000105024 -1.54727e-05 8.96488e-07
6.15166e-06 8.96488e-07 -6.49271e-05
0.00195497 0.000284465 5.54487e-07
0.000284465 0.000185236 -1.50591e-06
5.54487e-07 -1.50591e-06 3.78145e-05
0.00183769 0.000238981 1.65103e-06
0.000238981 1.90808e-05 -3.17322e-07
1.65103e-06 -3.17322e-07 -7.5263e-05
0.000865531 -1.09944e-05 -1.22094e-05
-1.09944e-05 -0.00012269 6.3746e-07
-1.22094e-05 6.3746e-07 -0.000246281
0.00178496 -8.55178e-05 -2.55456e-05
-8.55178e-05 0.000426697 2.9179e-06
-2.55456e-05 2.9179e-06 0.000303481
0.00180436 -6.71227e-05 -3.26017e-06
-6.71227e-05 0.000201843 -2.72663e-07
-3.26017e-06 -2.72663e-07 8.71523e-05
0.00173648 -0.00017998 -3.32418e-06
-0.00017998 0.0001808 7.18503e-07
-3.32418e-06 7.18503e-07 3.09745e-05
0.000600078 -0.000158284 -2.21673e-05
-0.000158284 5.15631e-06 1.69117e-05
-2.21673e-05 1.69117e-05 -8.86329e-05
0.000798741 -0.000206132 -1.00747e-05
-0.000206132 5.48076e-05 7.46166e-06
-1.00747e-05 7.46166e-06 -0.000135206
0.0011447 -0.000324617 -4.73364e-06
-0.000324617 8.64019e-05 2.40663e-06
-4.73364e-06 2.40663e-06 -0.000161672
0.00177651 -0.000265148 -6.76823e-06
-0.000265148 0.000254753 1.7639e-06
-6.76823e-06 1.7639e-06 7.37213e-05
0.00197286 -0.000273313 8.81278e-07
-0.000273313 0.000199811 -1.36512e-06
8.81278e-07 -1.36512e-06 6.6196e-05
0.00182848 -0.000355431 -5.71392e-07
-0.000355431 0.000205439 -9.50392e-07
-5.71392e-07 -9.50392e-07 1.45871e-05
0.00196385 -0.000451765 -3.70403e-06
-0.000451765 0.000387528 -1.85951e-06
-3.70403e-06 -1.85951e-06 0.000129437
0.00185645 -0.000408854 3.51171e-06
-0.000408854 0.00019825 -2.72911e-06
3.51171e-06 -2.72911e-06 2.01047e-06
0.000817018 -0.00016852 -3.24124e-06
-0.00016852 0.000171534 5.68377e-06
-3.24124e-06 5.68377e-06 -2.19689e-05
0.000242973 -0.000116351 1.1367e-06
-0.000116351 -0.000154152 -1.19852e-06
1.1367e-06 -1.19852e-06 -0.000384072
0.000752307 -0.000101995 -7.76841e-07
-0.000101995 0.000140984 4.44734e-06
-7.76841e-07 4.44734e-06 -3.51042e-06
0.00163347 -2.87392e-05 -1.20652e-06
-2.87392e-05 0.000103933 1.78673e-07
-1.20652e-06 1.78673e-07 -1.23182e-05
0.00179086 -0.000131176 -2.90439e-06
-0.000131176 0.000192928 4.45404e-07
-2.90439e-06 4.45404e-07 6.47103e-05
0.00185849 -9.38214e-05 2.52183e-06
-9.38214e-05 7.6938e-05 -2.28104e-07
2.52183e-06 -2.28104e-07 -5.86717e-06
0.0018561 -0.000214838 -2.14167e-06
-0.000214838 0.000111461 5.79983e-07
-2.14167e-06 5.79983e-07 -1.04564e-05
0.000753445 -0.000211503 4.84009e-07
-0.000211503 9.46259e-05 -3.96593e-07
4.84009e-07 -3.96593e-07 -0.000103472
0.00113729 -0.000302315 -1.10107e-06
-0.000302315 0.0001624 -3.10103e-08
-1.10107e-06 -3.10103e-08 -8.12058e-05
0.00154955 -0.00045812 2.03467e-06
-0.00045812 0.000251832 3.79405e-08
2.03467e-06 3.79405e-08 -4.76384e-05
0.00173601 -0.00031437 -1.39248e-06
-0.00031437 0.000105954 8.34241e-07
-1.39248e-06 8.34241e-07 -6.09283e-05
0.00196131 -0.000291073 1.74705e-06
-0.000291073 0.000147443 -5.62066e-07
1.74705e-06 -5.62066e-07 3.82389e-05
0.00191901 -0.000477177 -5.18672e-07
-0.000477177 0.000294042 4.10421e-07
-5.18672e-07 4.10421e-07 4.06336e-05
0.00186105 -0.000381996 6.60146e-08
-0.000381996 0.00016164 4.96187e-07
6.60146e-08 4.96187e-07 -5.48981e-06
0.00210475 -0.000429479 1.95387e-06
-0.000429479 0.000342687 -4.94289e-07
1.95387e-06 -4.94289e-07 0.000165654
0.00107049 -0.000249423 6.76211e-08
-0.000249423 0.000279194 7.4122e-07
6.76211e-08 7.4122e-07 5.13043e-05
0.00113011 -0.000263592 -6.39489e-07
-0.000263592 0.000338737 1.9226e-07
-6.39489e-07 1.9226e-07 8.61509e-05
0.000631137 -6.79996e-05 -2.33445e-07
-6.79996e-05 7.99436e-05 4.89142e-08
-2.33445e-07 4.89142e-08 -3.97396e-05
0.000225515 -6.71517e-05 9.26842e-08
-6.71517e-05 -0.000134822 -1.12365e-06
9.26842e-08 -1.12365e-06 -0.000348195
0.00184747 -4.81726e-05 -1.52904e-07
-4.81726e-05 6.84541e-05 5.74356e-07
-1.52904e-07 5.74356e-07 -4.90753e-06
0.00179696 -0.000155726 8.11771e-07
-0.000155726 4.82884e-05 6.64486e-07
8.11771e-07 6.64486e-07 -5.46622e-05
0.00194263 -0.000101462 5.65334e-06
-0.000101462 8.874e-05 -5.95087e-07
5.65334e-06 -5.95087e-07 3.7473e-05
0.00190206 -0.000238849 -1.43235e-06
-0.000238849 6.61938e-05 4.82061e-08
-1.43235e-06 4.82061e-08 -1.39337e-05
0.00177069 -0.000337525 -2.95747e-06
-0.000337525 6.81734e-05 1.52795e-06
-2.95747e-06 1.52795e-06 -6.87333e-05
0.00200528 -0.000304998 4.06183e-06
-0.000304998 0.000150977 -1.69466e-06
4.06183e-06 -1.69466e-06 5.67789e-05
0.00107967 -0.000274634 2.46368e-06
-0.000274634 0.000201399 -4.34371e-06
2.46368e-06 -4.34371e-06 -2.92987e-05
0.00176317 -0.000393086 -4.18212e-06
-0.000393086 8.92575e-05 1.17865e-06
-4.18212e-06 1.17865e-06 -5.65739e-05
0.00158494 -0.000442842 3.04798e-06
-0.000442842 0.00039121 -2.71381e-06
3.04798e-06 -2.71381e-06 8.34685e-05
0.00178609 -0.000535301 -2.55127e-07
-0.000535301 0.00032449 1.80899e-06
-2.55127e-07 1.80899e-06 5.84695e-06
0.00187254 -0.0004848 2.17921e-06
-0.0004848 0.000219584 4.29742e-06
2.17921e-06 4.29742e-06 -2.6921e-05
0.00221074 -0.000437984 -1.22646e-06
-0.000437984 0.000390327 -6.28246e-07
-1.22646e-06 -6.28246e-07 0.000212859
0.000501052 -5.74196e-05 -1.70227e-07
-5.74196e-05 4.64411e-06 -4.49057e-06
-1.70227e-07 -4.49057e-06 -9.60003e-05
0.000404996 -8.32679e-05 -3.66639e-06
-8.32679e-05 -1.21316e-05 8.71649e-08
-3.66639e-06 8.71649e-08 -0.00020117
0.00119466 -0.000301453 -2.07061e-06
-0.000301453 0.000295863 4.39665e-07
-2.07061e-06 4.39665e-07 5.29802e-05
0.000923639 -0.000191935 -3.05858e-06
-0.000191935 0.000294793 3.71943e-06
-3.05858e-06 3.71943e-06 4.86946e-05
0.0020367 -0.000381637 -9.2548e-06
-0.000381637 0.000865127 3.73505e-06
-9.2548e-06 3.73505e-06 0.00059372
0.000400655 -6.00564e-05 -1.91322e-07
-6.00564e-05 -7.35672e-05 -6.69676e-06
-1.91322e-07 -6.69676e-06 -0.000109354
0.00160871 0.000268801 -4.00065e-06
0.000268801 0.000123637 -7.91961e-07
-4.00065e-06 -7.91961e-07 -6.12329e-05
0.000518137 -8.29553e-06 7.30725e-07
-8.29553e-06 -1.29655e-06 -5.71612e-06
7.30725e-07 -5.71612e-06 -0.000102661
0.000514216 0.00015387 -3.51435e-06
0.00015387 -4.44384e-06 -2.98055e-06
-3.51435e-06 -2.98055e-06 -0.000182004
0.000469502 0.000105603 2.15259e-06
0.000105603 7.71874e-06 5.86152e-07
2.15259e-06 5.86152e-07 -0.000202738
0.00145496 0.000325136 -4.99407e-06
0.000325136 0.000152506 -1.1502e-06
-4.99407e-06 -1.1502e-06 -7.09326e-05
0.0018206 0.000375738 -5.04925e-09
0.000375738 0.00019788 1.11493e-06
-5.04925e-09 1.11493e-06 -8.12912e-06
0.00102238 0.000258861 -3.51101e-06
0.000258861 0.000175005 -3.53158e-06
-3.51101e-06 -3.53158e-06 -5.76127e-05
0.00146417 0.000383175 -1.73539e-07
0.000383175 0.000294881 -1.38198e-06
-1.73539e-07 -1.38198e-06 5.87417e-06
0.00175337 0.000428291 9.68272e-08
0.000428291 0.000309351 1.48094e-06
9.68272e-08 1.48094e-06 5.54975e-05
0.00176678 0.000436272 1.97612e-07
0.000436272 0.000312677 6.81282e-06
1.97612e-07 6.81282e-06 5.25441e-05
0.000501528 -4.32529e-05 1.74877e-07
-4.32529e-05 -3.07682e-05 3.30064e-08
1.74877e-07 3.30064e-08 -5.68068e-05
0.000605554 -1.11484e-06 -6.1391e-07
-1.11484e-06 4.87874e-05 4.9863e-07
-6.1391e-07 4.9863e-07 -3.36005e-05
0.000992084 0.000231965 4.36615e-07
0.000231965 0.000243555 9.15154e-07
4.36615e-07 9.15154e-07 2.60605e-05
0.000682183 5.43368e-05 -8.66521e-07
5.43368e-05 0.000146209 -2.53064e-07
-8.66521e-07 -2.53064e-07 -2.85412e-05
0.000660746 0.000167534 7.13453e-07
0.000167534 7.04375e-05 -5.7475e-08
7.13453e-07 -5.7475e-08 -0.000140369
0.00189969 0.000336394 -8.40041e-07
0.000336394 0.000185312 -1.27204e-06
-8.40041e-07 -1.27204e-06 8.45514e-06
0.00178644 0.000419641 5.58839e-07
0.000419641 0.000240893 1.48618e-07
5.58839e-07 1.48618e-07 5.2812e-06
0.00185519 0.000412923 1.65695e-06
0.000412923 0.000188633 2.67694e-07
1.65695e-06 2.67694e-07 -9.86671e-06
0.00133079 0.000346511 1.36525e-06
0.000346511 0.000312333 7.33453e-07
1.36525e-06 7.33453e-07 3.55863e-05
0.00194101 0.000498149 1.62119e-06
0.000498149 0.000339318 8.14993e-08
1.62119e-06 8.14993e-08 7.69952e-05
0.00157068 0.000428068 -2.20967e-06
0.000428068 0.000309827 -2.36365e-07
-2.20967e-06 -2.36365e-07 1.58514e-05
0.000678427 1.24835e-05 1.20324e-06
1.24835e-05 8.50796e-05 3.63857e-06
1.20324e-06 3.63857e-06 1.68105e-05
0.00107208 0.00010883 5.467e-07
0.00010883 0.000370932 2.64266e-06
5.467e-07 2.64266e-06 0.000232712
0.000831796 0.000259066 -2.64658e-06
0.000259066 7.44061e-05 -1.64325e-06
-2.64658e-06 -1.64325e-06 -0.000152319
0.00150257 0.000135833 -1.6694e-06
0.000135833 0.000655341 8.45429e-07
-1.6694e-06 8.45429e-07 0.000441038
0.00129364 0.000205311 -9.25389e-06
0.000205311 0.000395169 -5.87935e-06
-9.25389e-06 -5.87935e-06 0.000204054
0.00189842 0.000349091 -3.55341e-06
0.000349091 0.000159278 -2.81278e-06
-3.55341e-06 -2.81278e-06 2.60249e-07
0.00191409 0.000471053 -9.38319e-08
0.000471053 0.000271039 -3.88278e-08
-9.38319e-08 -3.88278e-08 3.55659e-05
0.00168358 0.00044402 4.04612e-06
0.00044402 5.17098e-05 -3.429e-07
4.04612e-06 -3.429e-07 -0.000146547
0.000478063 0.000303806 6.7111e-07
0.000303806 -0.000181025 -8.56599e-07
6.7111e-07 -8.56599e-07 -0.000471505
0.00141736 0.000454949 7.7328e-06
0.000454949 0.000126194 -8.98619e-07
7.7328e-06 -8.98619e-07 -0.000151534
0.000589338 1.16047e-05 -1.94581e-07
1.16047e-05 2.78511e-05 7.47675e-08
-1.94581e-07 7.47675e-08 -3.24028e-05
0.000498542 4.00772e-05 8.28016e-07
4.00772e-05 -5.70624e-06 1.87482e-06
8.28016e-07 1.87482e-06 -0.000100392
0.000489468 3.44341e-05 -6.30259e-07
3.44341e-05 -1.01812e-05 -1.89366e-07
-6.30259e-07 -1.89366e-07 -0.000101308
0.000934194 0.000119015 -5.07399e-07
0.000119015 0.000274997 -1.24408e-06
-5.07399e-07 -1.24408e-06 0.000159157
0.000666572 9.15193e-05 1.8814e-06
9.15193e-05 0.000111212 1.80281e-06
1.8814e-06 1.80281e-06 1.21796e-05
0.000565821 4.55164e-05 2.5573e-06
4.55164e-05 2.79257e-05 2.89969e-06
2.5573e-06 2.89969e-06 -3.02547e-05
0.000563282 2.34683e-06 -6.21842e-07
2.34683e-06 2.0406e-05 -1.59185e-08
-6.21842e-07 -1.59185e-08 -3.69573e-05
0.00123866 -3.36613e-05 8.45676e-07
-3.36613e-05 0.00040814 2.85434e-06
8.45676e-07 2.85434e-06 0.000393829
0.000575859 2.82464e-06 -1.44404e-06
2.82464e-06 2.04792e-05 -2.95016e-06
-1.44404e-06 -2.95016e-06 -3.60673e-05
0.00129822 -4.40751e-05 -6.29961e-06
-4.40751e-05 0.000446617 -1.4632e-06
-6.29961e-06 -1.4632e-06 0.000430764
0.000833881 -4.05561e-05 2.63725e-05
-4.05561e-05 0.000167196 8.1056e-06
2.63725e-05 8.1056e-06 0.000170996
0.00131901 -5.35481e-05 -1.05237e-05
-5.35481e-05 0.000464441 -4.42129e-06
-1.05237e-05 -4.42129e-06 0.000446064
0.0016201 -7.33401e-05 2.41453e-05
-7.33401e-05 0.000660362 1.7314e-06
2.41453e-05 1.7314e-06 0.000663486
0.00243939 -0.000108412 -3.16457e-05
-0.000108412 0.001173 -3.74682e-06
-3.16457e-05 -3.74682e-06 0.00117589
0.000367264 7.58003e-05 -4.6374e-06
7.58003e-05 -7.75799e-05 -6.70212e-06
-4.6374e-06 -6.70212e-06 -0.000119706
0.000474982 -2.41633e-06 3.97218e-07
-2.41633e-06 -2.58389e-05 5.14657e-07
3.97218e-07 5.14657e-07 -7.1838e-05
0.00302549 0.000150203 2.34033e-05
0.000150203 0.00155027 -4.62181e-06
2.34033e-05 -4.62181e-06 0.00153978
0.00370181 0.000116976 -9.99254e-06
0.000116976 0.00196542 -7.26058e-07
-9.99254e-06 -7.26058e-07 0.00196249
0.000599248 -3.985e-05 -8.74301e-06
-3.985e-05 3.58089e-05 1.07748e-05
-8.74301e-06 1.07748e-05 -1.91946e-05
0.00446136 0.000112487 -0.000149977
0.000112487 0.00243361 1.20179e-05
-0.000149977 1.20179e-05 0.00242923
0.00163372 0.000226947 -3.07425e-06
0.000226947 0.000102268 1.21549e-07
-3.07425e-06 1.21549e-07 -6.20458e-05
0.0016302 0.000124936 -9.35152e-07
0.000124936 7.58833e-05 4.41701e-07
-9.35152e-07 4.41701e-07 -5.49038e-05
0.00189245 0.000221438 -1.5051e-06
0.000221438 0.000117361 1.56779e-06
-1.5051e-06 1.56779e-06 -3.40179e-06
0.00193591 0.000102395 -5.17816e-07
0.000102395 0.0001039 1.28045e-06
-5.17816e-07 1.28045e-06 3.10494e-05
0.00155838 4.09696e-05 -2.48874e-07
4.09696e-05 5.268e-05 1.80683e-07
-2.48874e-07 1.80683e-07 -6.25237e-05
0.000988953 5.61103e-06 -1.1925e-05
5.61103e-06 -4.65878e-05 -4.66313e-08
-1.1925e-05 -4.66313e-08 -0.000171345
0.00154895 4.66922e-06 5.68184e-08
4.66922e-06 5.06903e-05 1.08657e-07
5.68184e-08 1.08657e-07 -6.3204e-05
0.00192337 4.51506e-05 -1.18318e-06
4.51506e-05 0.000104551 -2.98132e-08
-1.18318e-06 -2.98132e-08 3.97336e-05
0.00190429 0.000163411 -5.04525e-07
0.000163411 9.75483e-05 4.12701e-08
-5.04525e-07 4.12701e-08 3.77714e-07
0.0018753 0.000104929 1.63711e-06
0.000104929 1.37629e-05 2.14424e-07
1.63711e-06 2.14424e-07 -3.07027e-05
0.00192218 0.000284822 -3.48146e-07
0.000284822 0.000159683 -1.50486e-07
-3.48146e-07 -1.50486e-07 1.16854e-05
0.00186655 0.000235347 -2.81347e-07
0.000235347 3.61481e-05 6.59326e-07
-2.81347e-07 6.59326e-07 -5.31417e-05
0.00192985 -1.36056e-06 1.25407e-07
-1.36056e-06 0.000117596 1.49382e-07
1.25407e-07 1.49382e-07 5.25892e-05
0.00187244 4.93346e-05 6.16614e-06
4.93346e-05 1.80013e-05 1.97979e-07
6.16614e-06 1.97979e-07 -1.8795e-05
0.00185279 0.000166297 2.42576e-06
0.000166297 4.92881e-06 5.53463e-07
2.42576e-06 5.53463e-07 -5.51075e-05
0.00194632 0.000105757 5.75909e-06
0.000105757 3.33976e-05 7.56663e-07
5.75909e-06 7.56663e-07 9.75702e-06
0.00185813 0.000280717 7.00994e-07
0.000280717 8.33544e-05 -1.84694e-06
7.00994e-07 -1.84694e-06 -3.82697e-05
0.00192877 0.000239568 4.08486e-06
0.000239568 3.38414e-05 1.15722e-06
4.08486e-06 1.15722e-06 -3.55246e-05
0.00158949 -2.57145e-05 -1.71299e-06
-2.57145e-05 7.6753e-05 -7.13591e-08
-1.71299e-06 -7.13591e-08 -3.82394e-05
0.00179594 -0.000137083 -4.66192e-06
-0.000137083 0.000194012 3.00644e-07
-4.66192e-06 3.00644e-07 6.48046e-05
0.00190943 -9.35904e-05 1.38428e-06
-9.35904e-05 0.000106898 -1.66943e-06
1.38428e-06 -1.66943e-06 2.97288e-05
0.00186403 -0.000211213 -1.18964e-06
-0.000211213 0.00011798 -5.85622e-08
-1.18964e-06 -5.85622e-08 -5.74723e-06
0.000884357 -0.000229417 -6.9374e-06
-0.000229417 0.000177473 7.13515e-06
-6.9374e-06 7.13515e-06 -2.44507e-05
0.00109757 -0.000302877 -6.72645e-06
-0.000302877 0.000129762 4.1401e-06
-6.72645e-06 4.1401e-06 -0.000114706
0.00140031 -0.00043729 6.88616e-07
-0.00043729 0.000175938 -7.27467e-08
6.88616e-07 -7.27467e-08 -0.000120505
0.00175265 -0.000313846 -1.05271e-06
-0.000313846 0.000119489 2.11939e-08
-1.05271e-06 2.11939e-08 -5.20598e-05
0.00188949 -0.000288776 1.28997e-06
-0.000288776 9.89021e-05 -1.08684e-06
1.28997e-06 -1.08684e-06 -6.65539e-06
0.00187902 -0.00038169 2.21703e-06
-0.00038169 0.000174634 -8.26854e-07
2.21703e-06 -8.26854e-07 7.60677e-06
0.00184042 -0.000480256 -9.0039e-07
-0.000480256 0.000238862 -2.25386e-06
-9.0039e-07 -2.25386e-06 -1.78569e-05
0.00207554 -0.000422172 6.53573e-06
-0.000422172 0.000320409 -5.59673e-06
6.53573e-06 -5.59673e-06 0.000147792
0.000948496 -0.000240244 7.72559e-07
-0.000240244 0.000206356 1.18939e-06
7.72559e-07 1.18939e-06 -2.22038e-05
0.000140297 -0.000155957 2.30917e-06
-0.000155957 -0.00027245 7.39223e-07
2.30917e-06 7.39223e-07 -0.000507614
0.00074111 -7.92303e-05 -7.09952e-07
-7.92303e-05 0.000143419 3.96366e-06
-7.09952e-07 3.96366e-06 2.22078e-05
0.000116659 -3.65525e-05 2.98021e-06
-3.65525e-05 -0.000212752 -3.67134e-06
2.98021e-06 -3.67134e-06 -0.000409447
0.00185134 -4.79152e-05 1.00175e-07
-4.79152e-05 7.10798e-05 3.21044e-07
1.00175e-07 3.21044e-07 -2.46649e-06
0.00183789 -0.000156773 1.58836e-06
-0.000156773 7.77727e-05 -5.78058e-07
1.58836e-06 -5.78058e-07 -2.68248e-05
0.00191574 -0.000100928 1.93986e-06
-0.000100928 7.23037e-05 -5.9501e-07
1.93986e-06 -5.9501e-07 2.27586e-05
0.00187071 -0.000235662 -1.99859e-06
-0.000235662 5.30569e-05 5.579e-07
-1.99859e-06 5.579e-07 -3.05343e-05
0.00103378 -0.000264633 -1.63977e-06
-0.000264633 0.000175505 1.90651e-08
-1.63977e-06 1.90651e-08 -5.32836e-05
0.00123861 -0.000400507 1.48197e-06
-0.000400507 0.000188339 -1.07955e-06
1.48197e-06 -1.07955e-06 -0.000109898
0.0017104 -0.000535175 -8.22127e-08
-0.000535175 0.000274732 3.8737e-07
-8.22127e-08 3.8737e-07 -4.74073e-05
0.00177698 -0.0003355 -1.50808e-06
-0.0003355 8.11999e-05 8.01287e-07
-1.50808e-06 8.01287e-07 -5.92969e-05
0.00193828 -0.000303846 1.42996e-06
-0.000303846 0.000112804 -8.81241e-07
1.42996e-06 -8.81241e-07 2.01514e-05
0.0018509 -0.000487076 -1.19208e-07
-0.000487076 0.00021971 5.36176e-07
-1.19208e-07 5.36176e-07 -2.88243e-05
0.00178415 -0.000396003 -8.18443e-07
-0.000396003 9.26994e-05 1.15033e-06
-8.18443e-07 1.15033e-06 -5.39949e-05
0.00204839 -0.000423917 3.78997e-06
-0.000423917 0.000285938 -5.67048e-06
3.78997e-06 -5.67048e-06 0.000115094
0.00114358 -0.000296623 3.10392e-07
-0.000296623 0.000259058 8.46997e-07
3.10392e-07 8.46997e-07 1.78371e-05
0.00139271 -0.00031243 5.58753e-06
-0.00031243 0.000461823 1.20866e-06
5.58753e-06 1.20866e-06 0.00020802
0.000856728 -0.000163749 -1.8224e-07
-0.000163749 0.000251828 -1.95144e-08
-1.8224e-07 -1.95144e-08 4.66529e-06
0.000400859 -3.09618e-05 -1.89106e-06
-3.09618e-05 -5.76096e-05 5.90697e-07
-1.89106e-06 5.90697e-07 -0.000158711
0.00022427 -3.50692e-05 -4.19092e-07
-3.50692e-05 -0.000128462 -6.08137e-07
-4.19092e-07 -6.08137e-07 -0.000306764
0.00190803 -5.65136e-05 5.32708e-06
-5.65136e-05 4.34854e-05 -3.57733e-07
5.32708e-06 -3.57733e-07 1.08249e-05
0.00190282 -0.00014824 4.73307e-06
-0.00014824 5.29992e-05 -1.0749e-06
4.73307e-06 -1.0749e-06 1.51877e-06
0.00196538 -0.000282433 2.64003e-06
-0.000282433 5.67629e-05 -1.38518e-06
2.64003e-06 -1.38518e-06 -5.23405e-06
0.00183154 -0.000341965 5.11022e-07
-0.000341965 7.08889e-05 -1.70651e-06
5.11022e-07 -1.70651e-06 -3.42447e-05
0.00160777 -0.000372828 -1.05469e-06
-0.000372828 0.00049293 -2.87261e-06
-1.05469e-06 -2.87261e-06 0.000220683
0.002129 -0.00047585 -3.71493e-07
-0.00047585 0.000225269 -2.00423e-06
-3.71493e-07 -2.00423e-06 6.76662e-05
0.00137143 -0.000494323 1.12435e-06
-0.000494323 0.000243752 -8.26656e-07
1.12435e-06 -8.26656e-07 -9.94086e-05
0.0018639 -0.00059426 1.67279e-06
-0.00059426 0.000326527 4.08603e-07
1.67279e-06 4.08603e-07 -1.08029e-05
0.00184408 -0.000473868 -9.27606e-07
-0.000473868 0.000199311 2.83665e-06
-9.27606e-07 2.83665e-06 -4.11984e-05
9.03326e-05 -7.93288e-07 -1.05405e-06
-7.93288e-07 -0.000245506 -4.33175e-06
-1.05405e-06 -4.33175e-06 -0.000327293
0.000726276 -8.27986e-05 -1.30816e-06
-8.27986e-05 0.00019059 6.0623e-07
-1.30816e-06 6.0623e-07 2.88996e-05
0.00106169 -0.000120031 -2.52059e-06
-0.000120031 0.000383357 2.59841e-08
-2.52059e-06 2.59841e-08 0.000173575
0.00204138 -0.000410815 -9.52201e-06
-0.000410815 0.000782054 7.55196e-07
-9.52201e-06 7.55196e-07 0.000510306
0.000570366 -0.000159861 2.57684e-06
-0.000159861 5.17102e-05 5.5328e-06
2.57684e-06 5.5328e-06 -0.000209227
0.00106247 -0.00031055 -2.97744e-06
-0.00031055 0.000219499 1.18154e-06
-2.97744e-06 1.18154e-06 -4.36044e-05
0.000497014 -4.53425e-05 -7.00528e-07
-4.53425e-05 -3.35886e-05 -5.67252e-06
-7.00528e-07 -5.67252e-06 -5.96678e-05
0.000559096 -5.51451e-06 -6.43761e-07
-5.51451e-06 2.44407e-05 -4.48338e-06
-6.43761e-07 -4.48338e-06 -5.801e-05
0.00187251 0.000335876 -2.14715e-06
0.000335876 0.000167672 -3.06348e-07
-2.14715e-06 -3.06348e-07 -9.46299e-06
2.0746e-05 -4.01591e-05 1.92535e-06
-4.01591e-05 -0.000255003 -2.27301e-06
1.92535e-06 -2.27301e-06 -0.000421776
0.000895384 0.000224286 -1.18344e-06
0.000224286 0.000191528 -1.35982e-07
-1.18344e-06 -1.35982e-07 -2.33961e-05
6.70565e-05 0.000100718 3.41553e-06
0.000100718 -0.000305895 5.52047e-07
3.41553e-06 5.52047e-07 -0.000499474
0.00174915 0.000416896 5.39918e-07
0.000416896 0.000218421 8.85593e-07
5.39918e-07 8.85593e-07 -1.69509e-05
0.00178686 0.000409235 1.33106e-06
0.000409235 0.000151315 6.38423e-07
1.33106e-06 6.38423e-07 -4.73072e-05
0.0016217 0.000371728 1.18159e-06
0.000371728 0.000501102 6.65777e-07
1.18159e-06 6.65777e-07 0.000218645
0.00213546 0.000478725 -1.63711e-06
0.000478725 0.000651175 2.46827e-07
-1.63711e-06 2.46827e-07 0.000351802
0.00178543 0.000482385 -6.69041e-07
0.000482385 0.000229503 1.35533e-06
-6.69041e-07 1.35533e-06 -3.16379e-05
0.000587522 1.32442e-05 -4.6086e-07
1.32442e-05 3.09951e-05 4.75568e-07
-4.6086e-07 4.75568e-07 -3.67977e-05
0.000723685 3.20976e-05 -8.26126e-07
3.20976e-05 0.000155537 2.85028e-07
-8.26126e-07 2.85028e-07 2.74863e-05
0.00112682 0.000290287 -9.9431e-07
0.000290287 0.00025483 -4.20234e-07
-9.9431e-07 -4.20234e-07 1.99912e-05
0.000866694 8.36456e-05 4.66122e-07
8.36456e-05 0.000260413 6.11048e-07
4.66122e-07 6.11048e-07 5.86132e-05
0.000778687 0.000199919 3.48716e-06
0.000199919 0.000102636 1.47506e-06
3.48716e-06 1.47506e-06 -9.24503e-05
0.00186081 0.000349897 -2.2455e-06
0.000349897 0.000138347 -1.65595e-06
-2.2455e-06 -1.65595e-06 -2.1663e-05
0.00189144 0.000468081 1.7292e-06
0.000468081 0.000257508 5.50215e-07
1.7292e-06 5.50215e-07 2.23803e-05
0.00177545 0.000444173 4.1347e-07
0.000444173 0.000107997 -1.30682e-07
4.1347e-07 -1.30682e-07 -8.87725e-05
0.00103008 0.0003725 2.50702e-06
0.0003725 0.000134464 2.88132e-06
2.50702e-06 2.88132e-06 -0.000165855
0.001661 0.000479656 -2.66215e-06
0.000479656 0.000284944 -1.71976e-06
-2.66215e-06 -1.71976e-06 4.74271e-07
0.000816847 5.61748e-05 -1.36439e-07
5.61748e-05 0.000202671 2.2546e-06
-1.36439e-07 2.2546e-06 9.24649e-05
0.000168608 1.57678e-06 -2.25178e-06
1.57678e-06 -0.000157493 1.79149e-06
-2.25178e-06 1.79149e-06 -0.000313056
0.00092918 0.000295541 -5.40437e-06
0.000295541 9.03707e-05 -2.60602e-06
-5.40437e-06 -2.60602e-06 -0.000149481
0.000606176 0.000171704 -7.79763e-06
0.000171704 0.000110546 -4.04935e-06
-7.79763e-06 -4.04935e-06 -0.000105137
0.000851515 0.000259848 -3.81488e-06
0.000259848 9.1815e-05 -3.5912e-06
-3.81488e-06 -3.5912e-06 -0.000106728
0.00178966 0.000377364 -2.9101e-07
0.000377364 2.79941e-05 -1.49387e-06
-2.9101e-07 -1.49387e-06 -0.000112441
0.00201296 0.000517116 3.75955e-06
0.000517116 0.000309765 -1.69358e-06
3.75955e-06 -1.69358e-06 5.7504e-05
0.00169216 0.000462682 2.85959e-06
0.000462682 4.57573e-05 5.51202e-07
2.85959e-06 5.51202e-07 -0.000160173
0.000992036 0.000381827 4.06608e-06
0.000381827 7.59103e-05 4.32411e-06
4.06608e-06 4.32411e-06 -0.000235277
0.00178126 0.000526465 -1.81731e-06
0.000526465 0.000363664 -8.47529e-07
-1.81731e-06 -8.47529e-07 6.41373e-05
0.000565729 2.49737e-06 -1.58179e-06
2.49737e-06 1.30366e-05 -3.15994e-06
-1.58179e-06 -3.15994e-06 -4.68731e-05
0.000569926 4.54522e-05 1.19565e-06
4.54522e-05 3.96609e-05 3.98883e-07
1.19565e-06 3.98883e-07 -5.58882e-05
0.000449822 3.11767e-05 -6.42658e-07
3.11767e-05 -3.96544e-05 7.24872e-07
-6.42658e-07 7.24872e-07 -0.000134644
0.000348169 -2.22621e-05 -4.09507e-07
-2.22621e-05 -9.26852e-05 -1.79086e-06
-4.09507e-07 -1.79086e-06 -0.000184419
0.000623742 4.98851e-05 -3.08941e-07
4.98851e-05 8.46179e-05 1.15281e-08
-3.08941e-07 1.15281e-08 -1.25916e-05
0.000649025 7.0859e-05 -6.78499e-07
7.0859e-05 8.95705e-05 -2.29197e-07
-6.78499e-07 -2.29197e-07 -1.31388e-05
0.000766467 0.000105879 -2.46366e-06
0.000105879 0.000171363 -3.51129e-06
-2.46366e-06 -3.51129e-06 6.28096e-05
0.000395061 2.77531e-07 5.42206e-07
2.77531e-07 -4.55462e-05 -3.18282e-07
5.42206e-07 -3.18282e-07 -0.000161041
0.000675534 7.97816e-05 9.13178e-07
7.97816e-05 0.000111581 2.16392e-06
9.13178e-07 2.16392e-06 1.91653e-05
0.00059178 5.3728e-05 3.05026e-06
5.3728e-05 4.79483e-05 2.87006e-06
3.05026e-06 2.87006e-06 -1.23837e-05
0.000563265 1.18342e-05 -1.84545e-06
1.18342e-05 2.51582e-05 -7.81272e-09
-1.84545e-06 -7.81272e-09 -3.23261e-05
0.00123548 -2.01221e-05 1.09983e-06
-2.01221e-05 0.000407265 2.7097e-06
1.09983e-06 2.7097e-06 0.000394003
0.000505302 -5.36813e-05 8.77007e-07
-5.36813e-05 -9.91861e-06 -2.90714e-06
8.77007e-07 -2.90714e-06 -7.00452e-05
0.00129062 -2.98237e-05 -5.51479e-06
-2.98237e-05 0.000439604 -1.51143e-06
-5.51479e-06 -1.51143e-06 0.000425838
0.000810118 -3.13942e-05 2.26896e-05
-3.13942e-05 0.000148442 8.41411e-06
2.26896e-05 8.41411e-06 0.00015408
0.00133593 -4.13844e-05 -9.54604e-06
-4.13844e-05 0.000469359 -6.02058e-06
-9.54604e-06 -6.02058e-06 0.000453912
0.000783184 -4.24904e-05 8.39202e-06
-4.24904e-05 0.000135626 3.14424e-06
8.39202e-06 3.14424e-06 0.000138381
0.002355 -0.000101672 -3.54005e-06
-0.000101672 0.00111322 -2.27863e-06
-3.54005e-06 -2.27863e-06 0.00111737
0.000416109 5.23361e-05 -2.11865e-06
5.23361e-05 -6.75481e-05 -4.28369e-06
-2.11865e-06 -4.28369e-06 -9.3857e-05
0.000450813 3.10873e-05 -2.35542e-06
3.10873e-05 -3.8954e-05 4.46577e-08
-2.35542e-06 4.46577e-08 -7.47233e-05
0.00261854 0.000120934 1.99467e-05
0.000120934 0.00129353 -4.12178e-06
1.99467e-05 -4.12178e-06 0.00129121
0.00059543 -2.59607e-05 -6.73072e-06
-2.59607e-05 4.06135e-05 8.74475e-06
-6.73072e-06 8.74475e-06 -3.13969e-06
0.00320087 0.000130079 -2.89249e-05
0.000130079 0.00165378 -8.84605e-07
-2.89249e-05 -8.84605e-07 0.0016485
0.0038468 9.67502e-05 -0.000127057
9.67502e-05 0.00205033 9.3065e-06
-0.000127057 9.3065e-06 0.00205175
0.00188796 0.000284954 -2.3504e-06
0.000284954 0.000133634 9.94798e-07
-2.3504e-06 9.94798e-07 -1.48934e-05
0.00188241 0.000159496 -2.2917e-07
0.000159496 8.7485e-05 1.66735e-06
-2.2917e-07 1.66735e-06 -9.04652e-06
0.00189651 0.00023159 -6.40775e-07
0.00023159 5.36444e-05 1.92751e-06
-6.40775e-07 1.92751e-06 -3.04241e-05
0.00192473 0.000104808 -2.9421e-06
0.000104808 4.01443e-05 -5.37723e-07
-2.9421e-06 -5.37723e-07 6.46195e-07
0.00189288 3.7816e-05 -1.97096e-06
3.7816e-05 8.6209e-05 2.46286e-07
-1.97096e-06 2.46286e-07 2.1156e-05
0.00156306 7.44202e-06 -9.31907e-08
7.44202e-06 6.07494e-05 2.23646e-07
-9.31907e-08 2.23646e-07 -5.30893e-05
0.00187795 -7.84754e-07 -1.04014e-06
-7.84754e-07 8.54483e-05 6.43972e-08
-1.04014e-06 6.43972e-08 1.81601e-05
0.00187193 4.73622e-05 1.5633e-06
4.73622e-05 2.12845e-05 1.36624e-08
1.5633e-06 1.36624e-08 -1.76671e-05
0.00191981 0.000167074 -2.74676e-07
0.000167074 4.89949e-05 1.1455e-07
-2.74676e-07 1.1455e-07 -1.25063e-05
0.00193234 0.000107172 1.01823e-06
0.000107172 2.12754e-05 1.80991e-07
1.01823e-06 1.80991e-07 3.62205e-07
0.00186979 0.000278873 -8.08982e-07
0.000278873 9.84995e-05 -3.55548e-07
-8.08982e-07 -3.55548e-07 -2.25614e-05
0.00193435 0.000244286 3.24348e-06
0.000244286 3.6469e-05 1.07841e-06
3.24348e-06 1.07841e-06 -2.88068e-05
0.0019091 -7.13046e-06 5.90959e-06
-7.13046e-06 5.2918e-05 2.17907e-07
5.90959e-06 2.17907e-07 1.52324e-05
0.0019293 4.99534e-05 4.52867e-06
4.99534e-05 1.61852e-05 3.61801e-08
4.52867e-06 3.61801e-08 2.4132e-06
0.00198119 0.00016898 3.39651e-06
0.00016898 2.47505e-05 9.97991e-07
3.39651e-06 9.97991e-07 -1.43775e-06
0.00198618 0.000316085 6.68191e-08
0.000316085 7.70685e-05 3.42846e-07
6.68191e-08 3.42846e-07 -1.06204e-05
0.00186271 -4.76227e-05 -7.32312e-07
-4.76227e-05 7.7296e-05 7.97948e-08
-7.32312e-07 7.97948e-08 3.59977e-06
0.00187173 -0.000158767 1.84403e-06
-0.000158767 0.000102821 -1.31272e-06
1.84403e-06 -1.31272e-06 -3.56753e-06
0.00187527 -9.98878e-05 -1.41775e-06
-9.98878e-05 4.74857e-05 -3.07718e-07
-1.41775e-06 -3.07718e-07 -5.16836e-07
0.00184562 -0.000232249 -3.79167e-06
-0.000232249 4.25232e-05 1.26664e-06
-3.79167e-06 1.26664e-06 -4.42545e-05
0.00109523 -0.000270062 -4.37152e-06
-0.000270062 0.000214097 3.78077e-06
-4.37152e-06 3.78077e-06 -1.70872e-05
0.00105735 -0.000375462 -1.8679e-07
-0.000375462 8.47057e-05 8.92632e-07
-1.8679e-07 8.92632e-07 -0.000207057
0.00166985 -0.000539206 9.64849e-07
-0.000539206 0.000247311 -1.20775e-06
9.64849e-07 -1.20775e-06 -7.9475e-05
0.00178574 -0.000333798 -9.52315e-07
-0.000333798 9.59559e-05 4.07846e-08
-9.52315e-07 4.07846e-08 -4.81777e-05
0.00187315 -0.000302906 1.62364e-07
-0.000302906 7.55784e-05 9.13595e-07
1.62364e-07 9.13595e-07 -1.53636e-05
0.00182693 -0.000400538 2.71464e-06
-0.000400538 0.000107643 1.06674e-06
2.71464e-06 1.06674e-06 -4.00528e-05
0.00182766 -0.000485686 -2.22259e-06
-0.000485686 0.000216512 -2.25228e-06
-2.22259e-06 -2.25228e-06 -3.27944e-05
0.00188407 -0.0004095 3.6091e-06
-0.0004095 0.000175096 -9.20032e-06
3.6091e-06 -9.20032e-06 1.11375e-05
0.000961804 -0.000279111 2.31964e-06
-0.000279111 0.000144113 1.23735e-06
2.31964e-06 1.23735e-06 -9.35045e-05
0.000687852 -0.00023715 3.90556e-06
-0.00023715 8.32393e-06 8.78209e-07
3.90556e-06 8.78209e-07 -0.000221547
0.000626465 -0.000137045 3.97821e-06
-0.000137045 0.000113418 -4.98028e-06
3.97821e-06 -4.98028e-06 -0.000136726
0.000261169 -1.03377e-05 -2.00157e-08
-1.03377e-05 -0.000142899 3.88163e-06
-2.00157e-08 3.88163e-06 -0.000245855
0.000174876 3.29571e-06 3.21088e-06
3.29571e-06 -0.000163439 -7.81668e-07
3.21088e-06 -7.81668e-07 -0.000334981
0.00190946 -6.40601e-05 -3.7268e-07
-6.40601e-05 4.30692e-05 -1.06601e-07
-3.7268e-07 -1.06601e-07 8.07992e-06
0.0018837 -0.00014737 1.38235e-06
-0.00014737 3.98485e-05 -3.464e-07
1.38235e-06 -3.464e-07 -1.27569e-05
0.00195844 -0.000276712 -1.29698e-06
-0.000276712 6.60934e-05 1.63156e-07
-1.29698e-06 1.63156e-07 1.00733e-06
0.00126799 -0.000340465 -1.48289e-06
-0.000340465 0.000283017 5.03483e-08
-1.48289e-06 5.03483e-08 1.58314e-05
0.00123663 -0.000467815 2.10877e-06
-0.000467815 0.000164108 -1.0895e-06
2.10877e-06 -1.0895e-06 -0.000170695
0.00176188 -0.000587151 -8.72088e-08
-0.000587151 0.000271518 -3.46889e-07
-8.72088e-08 -3.46889e-07 -6.80118e-05
0.00183717 -0.000341467 4.6483e-07
-0.000341467 7.12413e-05 6.79183e-08
4.6483e-07 6.79183e-08 -3.48916e-05
0.00196401 -0.000487741 7.81685e-07
-0.000487741 0.000263423 -3.01382e-06
7.81685e-07 -3.01382e-06 2.75573e-05
0.00197657 -0.000457988 -7.16441e-07
-0.000457988 0.00016105 -8.11752e-07
-7.16441e-07 -8.11752e-07 5.66646e-06
0.000216379 4.36736e-05 -1.08862e-06
4.36736e-05 -0.000176059 -8.1745e-07
-1.08862e-06 -8.1745e-07 -0.000252413
0.00120279 -0.000324013 2.86079e-07
-0.000324013 0.000258459 8.54202e-07
2.86079e-07 8.54202e-07 5.69247e-06
0.000892568 -0.00028934 1.5249e-06
-0.00028934 0.000124361 2.91969e-06
1.5249e-06 2.91969e-06 -0.000120357
0.00111661 -0.000223152 -3.60059e-07
-0.000223152 0.000394072 1.82365e-07
-3.60059e-07 1.82365e-07 0.00011699
0.00119561 -0.000124127 8.24816e-07
-0.000124127 0.000465427 -2.3859e-06
8.24816e-07 -2.3859e-06 0.000256563
0.000489004 -2.16161e-05 -6.71347e-07
-2.16161e-05 3.55784e-05 1.19586e-06
-6.71347e-07 1.19586e-06 -0.000119982
0.0019187 -7.66724e-05 4.34515e-06
-7.66724e-05 1.78525e-05 -4.98413e-07
4.34515e-06 -4.98413e-07 4.27227e-06
0.00203202 -0.000191464 2.32084e-06
-0.000191464 3.00896e-05 -7.26256e-07
2.32084e-06 -7.26256e-07 1.59736e-05
0.0020151 -0.000333238 2.15918e-06
-0.000333238 6.68838e-05 -1.62021e-06
2.15918e-06 -1.62021e-06 2.21527e-05
0.0020906 -0.00041634 2.43204e-06
-0.00041634 0.000132304 -2.95257e-06
2.43204e-06 -2.95257e-06 3.45215e-05
0.00208566 -0.00047551 -3.3508e-06
-0.00047551 0.000754622 -5.09065e-06
-3.3508e-06 -5.09065e-06 0.000439403
0.00194032 -0.000517723 4.27729e-06
-0.000517723 0.000179638 1.5682e-06
4.27729e-06 1.5682e-06 -2.33512e-05
0.00144569 -0.000560432 -4.77719e-06
-0.000560432 0.000249128 1.12435e-06
-4.77719e-06 1.12435e-06 -0.000130983
0.00206799 -0.000639149 -5.04612e-06
-0.000639149 0.000457598 1.05222e-06
-5.04612e-06 1.05222e-06 9.73029e-05
0.00020418 5.84387e-05 -3.14194e-06
5.84387e-05 -0.000188024 -1.70696e-06
-3.14194e-06 -1.70696e-06 -0.000248629
0.000658521 8.51249e-06 -1.29951e-06
8.51249e-06 0.000131297 -1.55471e-07
-1.29951e-06 -1.55471e-07 7.23393e-06
0.00110351 -0.000146002 -4.07149e-06
-0.000146002 0.00042151 3.14101e-06
-4.07149e-06 3.14101e-06 0.000238033
0.000929017 -4.38982e-05 -3.41602e-06
-4.38982e-05 0.000276187 2.60622e-06
-3.41602e-06 2.60622e-06 3.79172e-05
0.00116777 -0.00036648 -3.338e-06
-0.00036648 0.000218427 -5.59816e-06
-3.338e-06 -5.59816e-06 -7.63847e-05
0.00128041 -0.000321116 -1.0528e-05
-0.000321116 0.000415854 8.30695e-06
-1.0528e-05 8.30695e-06 9.77927e-05
0.00048934 5.83039e-06 -1.73739e-06
5.83039e-06 -2.84642e-05 -3.32847e-06
-1.73739e-06 -3.32847e-06 -9.51389e-05
0.000424374 -1.18195e-05 1.78258e-06
-1.18195e-05 -3.99631e-05 -2.0221e-06
1.78258e-06 -2.0221e-06 -0.000152776
0.00183049 0.000351724 -2.19736e-06
0.000351724 0.000120047 -6.86179e-07
-2.19736e-06 -6.86179e-07 -4.1142e-05
0.000176622 3.04883e-05 1.2897e-06
3.04883e-05 -0.000169759 -3.54563e-07
1.2897e-06 -3.54563e-07 -0.000355142
0.0013875 0.000317492 1.20345e-06
0.000317492 0.000412415 9.43588e-07
1.20345e-06 9.43588e-07 0.000171694
-0.000101596 9.59305e-05 6.37097e-06
9.59305e-05 -0.000445686 2.36845e-06
6.37097e-06 2.36845e-06 -0.000611796
0.00187002 0.000465646 1.07941e-06
0.000465646 0.000242666 6.30802e-07
1.07941e-06 6.30802e-07 7.74094e-06
0.00189768 0.000446809 -3.27496e-06
0.000446809 0.000179275 6.23239e-07
-3.27496e-06 6.23239e-07 -1.64758e-05
0.00161028 0.000443741 -7.43223e-07
0.000443741 0.00047115 2.06349e-06
-7.43223e-07 2.06349e-06 0.000158861
0.00196454 0.000509686 -2.75185e-06
0.000509686 0.000480822 3.85304e-07
-2.75185e-06 3.85304e-07 0.000187636
0.000680397 2.7905e-05 -1.01164e-06
2.7905e-05 0.000114839 2.22701e-07
-1.01164e-06 2.22701e-07 1.06392e-05
0.00043425 4.44652e-05 9.32305e-07
4.44652e-05 5.66473e-06 5.29701e-07
9.32305e-07 5.29701e-07 -0.000157368
0.00148313 0.000352399 -1.1555e-06
0.000352399 0.000430843 -1.35791e-06
-1.1555e-06 -1.35791e-06 0.000178621
0.000460145 7.22441e-05 -1.56175e-06
7.22441e-05 -1.68439e-05 -1.7188e-07
-1.56175e-06 -1.7188e-07 -0.000196872
0.000624708 0.000225856 7.25567e-07
0.000225856 -5.48198e-05 -1.42244e-06
7.25567e-07 -1.42244e-06 -0.000233842
0.00199414 0.000390723 -3.00528e-06
0.000390723 0.000142583 -1.23546e-06
-3.00528e-06 -1.23546e-06 4.1355e-06
0.00211239 0.000517055 2.29105e-06
0.000517055 0.000372467 -2.58112e-07
2.29105e-06 -2.58112e-07 0.000124534
0.00189249 0.00048432 2.28895e-06
0.00048432 0.000153051 2.76255e-06
2.28895e-06 2.76255e-06 -5.73163e-05
0.00122867 0.000409219 4.74664e-06
0.000409219 0.000227669 2.99383e-06
4.74664e-06 2.99383e-06 -9.05865e-05
0.00170926 0.000532862 -4.12297e-06
0.000532862 0.000319042 1.12468e-07
-4.12297e-06 1.12468e-07 1.12798e-05
-8.47019e-06 -3.01628e-06 -1.61168e-06
-3.01628e-06 -0.00029525 2.87137e-06
-1.61168e-06 2.87137e-06 -0.000401783
-0.000111131 0.000103131 9.58049e-07
0.000103131 -0.000279362 1.59925e-06
9.58049e-07 1.59925e-06 -0.000487617
0.000691148 0.00028232 -5.80499e-07
0.00028232 -6.08694e-05 1.5733e-06
-5.80499e-07 1.5733e-06 -0.000314336
-0.000304042 0.000127637 3.44764e-06
0.000127637 -0.000563404 -9.36211e-07
3.44764e-06 -9.36211e-07 -0.000745902
0.0020035 0.000394398 1.05185e-06
0.000394398 -8.16152e-05 1.38196e-06
1.05185e-06 1.38196e-06 -0.00011517
0.00262097 0.000497307 2.29884e-06
0.000497307 0.000514196 -9.66984e-08
2.29884e-06 -9.66984e-08 0.000342519
0.00190859 0.000563911 -4.85435e-06
0.000563911 0.000280153 -4.39605e-06
-4.85435e-06 -4.39605e-06 -9.16072e-06
0.00114801 0.000457583 -7.3527e-07
0.000457583 9.89102e-05 9.66407e-08
-7.3527e-07 9.66407e-08 -0.000237301
0.000630149 8.05736e-05 -6.88735e-07
8.05736e-05 8.14794e-05 -1.10996e-06
-6.88735e-07 -1.10996e-06 -1.76064e-05
0.00060319 6.08108e-05 -3.77995e-07
6.08108e-05 6.50981e-05 -4.34702e-09
-3.77995e-07 -4.34702e-09 -3.87913e-05
0.000966761 5.99907e-05 -4.57734e-06
5.99907e-05 0.000283839 -2.13179e-06
-4.57734e-06 -2.13179e-06 0.000191735
0.000610885 2.80503e-05 -1.27913e-06
2.80503e-05 6.0474e-05 -1.99625e-06
-1.27913e-06 -1.99625e-06 -2.50137e-05
0.000350189 1.97743e-05 -2.98602e-07
1.97743e-05 -9.06944e-05 -7.90578e-08
-2.98602e-07 -7.90578e-08 -0.000188666
0.000630243 4.04821e-05 -3.0304e-07
4.04821e-05 8.65381e-05 7.04354e-08
-3.0304e-07 7.04354e-08 -6.77562e-06
0.00063137 0.000103936 -1.13342e-06
0.000103936 0.000102872 2.29208e-07
-1.13342e-06 2.29208e-07 -8.53826e-06
0.00053982 3.67204e-05 1.02361e-06
3.67204e-05 4.6519e-05 2.10504e-07
1.02361e-06 2.10504e-07 -7.27422e-05
0.000717526 7.67126e-05 1.32363e-06
7.67126e-05 0.000125859 -2.03032e-06
1.32363e-06 -2.03032e-06 4.08299e-05
0.000700552 2.50375e-07 3.4498e-06
2.50375e-07 0.000138578 -3.60303e-06
3.4498e-06 -3.60303e-06 2.12918e-05
0.000427995 6.02416e-05 3.87208e-07
6.02416e-05 -2.01102e-05 1.88532e-06
3.87208e-07 1.88532e-06 -0.000141686
0.000660278 9.17774e-05 1.8904e-06
9.17774e-05 0.000108181 2.58224e-06
1.8904e-06 2.58224e-06 1.10538e-05
0.000513237 6.20061e-05 2.76015e-06
6.20061e-05 6.74985e-06 2.70676e-06
2.76015e-06 2.70676e-06 -5.85815e-05
0.000521225 4.70747e-06 -1.47289e-06
4.70747e-06 5.99532e-06 -1.4211e-07
-1.47289e-06 -1.4211e-07 -5.44901e-05
0.00122003 -4.99339e-06 1.13606e-06
-4.99339e-06 0.000401397 2.52709e-06
1.13606e-06 2.52709e-06 0.00038842
0.000515213 -4.77765e-05 1.80232e-07
-4.77765e-05 -1.75342e-06 -2.72558e-06
1.80232e-07 -2.72558e-06 -6.04349e-05
0.0012913 -1.60625e-05 -4.87735e-06
-1.60625e-05 0.000441478 -1.5981e-06
-4.87735e-06 -1.5981e-06 0.000428501
0.000801925 -2.21956e-05 1.98737e-05
-2.21956e-05 0.000142856 8.65215e-06
1.98737e-05 8.65215e-06 0.000149289
0.00133446 -2.71023e-05 -8.42966e-06
-2.71023e-05 0.000466637 -5.9175e-06
-8.42966e-06 -5.9175e-06 0.000453043
0.000771511 -3.28939e-05 7.08444e-06
-3.28939e-05 0.000123849 3.23025e-06
7.08444e-06 3.23025e-06 0.000128789
0.000726784 -4.16922e-05 -5.93588e-07
-4.16922e-05 0.000100564 -2.52074e-06
-5.93588e-07 -2.52074e-06 0.000103136
0.000458488 3.917e-05 -1.85866e-07
3.917e-05 -5.74389e-05 -3.22332e-06
-1.85866e-07 -3.22332e-06 -7.48773e-05
0.000461833 6.40087e-05 -6.25685e-08
6.40087e-05 -3.50749e-05 1.99262e-07
-6.25685e-08 1.99262e-07 -6.4809e-05
0.00233115 9.82172e-05 1.63766e-05
9.82172e-05 0.00110917 -3.92357e-06
1.63766e-05 -3.92357e-06 0.00111305
0.000528488 2.93873e-05 -3.55601e-06
2.93873e-05 1.05988e-05 7.19446e-06
-3.55601e-06 7.19446e-06 -2.73113e-05
0.00272946 0.000126108 -5.73071e-06
0.000126108 0.00136169 -5.75946e-07
-5.73071e-06 -5.75946e-07 0.00135802
0.00330793 8.70612e-05 -0.000100661
8.70612e-05 0.00171449 6.96762e-06
-0.000100661 6.96762e-06 0.00171942
0.00188171 0.00027678 -6.56459e-07
0.00027678 0.000114868 1.74335e-06
-6.56459e-07 1.74335e-06 -5.6034e-06
0.0019812 0.000167748 -4.32713e-06
0.000167748 8.88028e-05 -4.05646e-07
-4.32713e-06 -4.05646e-07 2.58014e-05
0.00193912 0.000248975 -2.61699e-07
0.000248975 3.86115e-05 -3.21211e-07
-2.61699e-07 -3.21211e-07 -2.27429e-05
0.00192222 0.000108915 -4.09884e-06
0.000108915 1.10684e-05 -7.20508e-07
-4.09884e-06 -7.20508e-07 -7.05953e-06
0.00187364 4.58857e-05 -4.06333e-06
4.58857e-05 2.58092e-05 -2.08902e-07
-4.06333e-06 -2.08902e-07 -1.52504e-05
0.00181525 -2.89063e-06 -1.77675e-06
-2.89063e-06 4.67784e-05 2.47528e-07
-1.77675e-06 2.47528e-07 -2.26776e-05
0.00188065 -4.98707e-06 -6.44846e-07
-4.98707e-06 3.4945e-05 -6.81237e-08
-6.44846e-07 -6.81237e-08 -2.00914e-06
0.00192833 5.16167e-05 1.14976e-06
5.16167e-05 2.12843e-05 1.19496e-07
1.14976e-06 1.19496e-07 6.09536e-06
0.00199791 0.000173901 7.07909e-07
0.000173901 3.75767e-05 2.24549e-07
7.07909e-07 2.24549e-07 1.08148e-05
0.00203462 0.000312921 5.88341e-07
0.000312921 9.47337e-05 2.50941e-07
5.88341e-07 2.50941e-07 7.84745e-06
0.00190685 -1.12302e-05 3.26453e-06
-1.12302e-05 1.58016e-05 1.93998e-08
3.26453e-06 1.93998e-08 5.31718e-07
0.00204404 0.000100108 1.79808e-06
0.000100108 -1.35278e-06 3.88244e-09
1.79808e-06 3.88244e-09 1.37682e-05
0.00219258 0.000267641 2.72724e-06
0.000267641 7.46058e-05 1.26815e-06
2.72724e-06 1.26815e-06 4.53322e-05
0.00191008 -7.17387e-05 -4.48651e-06
-7.17387e-05 4.22753e-05 5.37512e-07
-4.48651e-06 5.37512e-07 5.04113e-06
0.00185915 -0.000146504 -1.95062e-06
-0.000146504 2.35714e-05 -1.63096e-07
-1.95062e-06 -1.63096e-07 -3.02163e-05
0.00194936 -0.000271018 -3.32668e-06
-0.000271018 7.53426e-05 1.38007e-06
-3.32668e-06 1.38007e-06 6.23513e-06
0.000902933 -0.000304767 -1.09098e-06
-0.000304767 5.7135e-05 2.67162e-06
-1.09098e-06 2.67162e-06 -0.000203835
0.00101252 -0.000431171 4.01809e-06
-0.000431171 3.18361e-05 -1.10303e-06
4.01809e-06 -1.10303e-06 -0.000291986
0.00162368 -0.000578328 -1.37913e-07
-0.000578328 0.000196303 3.07779e-07
-1.37913e-07 3.07779e-07 -0.0001442
0.00182749 -0.000339976 -9.61608e-07
-0.000339976 6.23271e-05 1.04843e-06
-9.61608e-07 1.04843e-06 -4.49069e-05
0.00174018 -0.000434728 -6.11799e-07
-0.000434728 4.82875e-05 -3.46111e-07
-6.11799e-07 -3.46111e-07 -0.000104599
0.0020233 -0.000497463 4.92508e-08
-0.000497463 0.000296077 -7.42012e-06
4.92508e-08 -7.42012e-06 6.5124e-05
0.00074584 -0.000277723 3.63218e-06
-0.000277723 -2.62066e-05 5.23168e-06
3.63218e-06 5.23168e-06 -0.000269763
0.000542693 -0.000250316 -9.84346e-06
-0.000250316 -7.63604e-05 6.52275e-06
-9.84346e-06 6.52275e-06 -0.000299504
0.00196155 -0.00030768 2.14625e-06
-0.00030768 0.000928323 -7.37047e-07
2.14625e-06 -7.37047e-07 0.000624348
0.000362328 4.18224e-05 1.73391e-06
4.18224e-05 -8.95243e-05 7.18704e-07
1.73391e-06 7.18704e-07 -0.000163579
0.000928371 -0.000128047 3.66568e-06
-0.000128047 0.000294146 -7.1642e-07
3.66568e-06 -7.1642e-07 0.00010013
0.000254462 3.41336e-05 4.55239e-06
3.41336e-05 -0.000115976 1.06504e-06
4.55239e-06 1.06504e-06 -0.000265233
0.00191322 -7.70276e-05 -5.21598e-07
-7.70276e-05 1.46157e-05 9.89669e-08
-5.21598e-07 9.89669e-08 -1.721e-06
0.00199493 -0.000197257 2.17577e-07
-0.000197257 4.4913e-06 -7.4795e-08
2.17577e-07 -7.4795e-08 -8.77202e-06
0.00199279 -0.000328698 -4.26695e-07
-0.000328698 6.11107e-05 4.87913e-07
-4.26695e-07 4.87913e-07 1.19573e-05
0.00138732 -0.00040328 -2.49402e-06
-0.00040328 0.000335967 -2.3443e-07
-2.49402e-06 -2.3443e-07 3.5636e-05
0.00144851 -0.000556736 1.54768e-06
-0.000556736 0.000249632 -1.10105e-06
1.54768e-06 -1.10105e-06 -0.000127413
0.00215124 -0.000638356 -4.8149e-06
-0.000638356 0.000504364 9.67912e-07
-4.8149e-06 9.67912e-07 0.000153601
0.00202 -0.000419296 5.76669e-07
-0.000419296 9.24978e-05 -2.87354e-07
5.76669e-07 -2.87354e-07 -9.84392e-06
0.00178858 -0.000503612 1.40983e-06
-0.000503612 8.9117e-05 -3.25627e-06
1.40983e-06 -3.25627e-06 -0.000111325
0.000395493 5.63108e-05 -8.63363e-07
5.63108e-05 -7.50607e-05 -1.03907e-06
-8.63363e-07 -1.03907e-06 -0.000131129
0.00066961 -1.3139e-05 -7.16173e-07
-1.3139e-05 0.000134291 3.70272e-07
-7.16173e-07 3.70272e-07 1.23286e-05
0.000384291 -0.000285341 -5.055e-06
-0.000285341 -0.00025081 4.74663e-06
-5.055e-06 4.74663e-06 -0.000521903
0.00160789 -0.000327301 4.14288e-06
-0.000327301 0.000639355 -2.58403e-06
4.14288e-06 -2.58403e-06 0.000315955
0.0011458 -0.000100791 -1.37771e-07
-0.000100791 0.000421681 -1.99973e-06
-1.37771e-07 -1.99973e-06 0.000179087
0.000835451 -0.000111187 -6.86314e-07
-0.000111187 0.000255762 9.5029e-07
-6.86314e-07 9.5029e-07 7.42705e-05
0.00198813 -0.000102265 4.07041e-07
-0.000102265 -1.10545e-05 -6.84636e-08
4.07041e-07 -6.84636e-08 1.78473e-06
0.00208961 -0.000281977 -1.22968e-07
-0.000281977 -1.69602e-05 9.24881e-08
-1.22968e-07 9.24881e-08 3.79863e-06
0.00205828 -0.000372351 2.23881e-06
-0.000372351 6.28922e-05 -1.69906e-06
2.23881e-06 -1.69906e-06 2.66431e-05
0.00208788 -0.000552251 6.59907e-06
-0.000552251 0.000114192 -2.679e-06
6.59907e-06 -2.679e-06 -2.20458e-05
0.000916711 -0.00041712 -4.14434e-09
-0.00041712 3.20846e-05 -5.23653e-06
-4.14434e-09 -5.23653e-06 -0.000312624
0.0020955 -0.000654565 -5.14096e-07
-0.000654565 0.000410756 1.24936e-05
-5.14096e-07 1.24936e-05 7.99273e-05
0.00221602 -0.000684473 -5.11888e-06
-0.000684473 0.000655161 -2.69601e-06
-5.11888e-06 -2.69601e-06 0.000231372
0.000598798 5.13421e-05 5.14621e-07
5.13421e-05 3.52758e-05 -1.0547e-06
5.14621e-07 -1.0547e-06 -9.61033e-06
0.000662194 -0.000124501 3.94952e-06
-0.000124501 0.000120223 -2.53093e-06
3.94952e-06 -2.53093e-06 2.82744e-05
0.000398631 7.2594e-05 -4.30562e-06
7.2594e-05 -4.13883e-05 8.06442e-07
-4.30562e-06 8.06442e-07 -0.000136769
0.000707104 -4.55439e-05 -3.17166e-06
-4.55439e-05 0.000175327 4.65589e-06
-3.17166e-06 4.65589e-06 1.6855e-05
0.000388352 -5.71755e-05 1.13016e-06
-5.71755e-05 -5.39232e-05 -5.22082e-07
1.13016e-06 -5.22082e-07 -0.000235801
-0.000683604 -1.33918e-05 2.24707e-07
-1.33918e-05 -0.000655185 -1.45614e-07
2.24707e-07 -1.45614e-07 -0.000936643
0.00086564 -0.000360097 -1.32933e-05
-0.000360097 4.66417e-05 -7.16308e-08
-1.32933e-05 -7.16308e-08 -0.000237105
0.00302209 -0.00048407 -1.49334e-05
-0.00048407 0.00157207 5.03157e-06
-1.49334e-05 5.03157e-06 0.00109878
0.000619894 5.17894e-06 -4.37517e-07
5.17894e-06 7.16645e-05 -1.21107e-06
-4.37517e-07 -1.21107e-06 -2.53415e-05
0.000749517 8.75218e-05 7.96168e-07
8.75218e-05 0.00020246 -9.53443e-07
7.96168e-07 -9.53443e-07 2.92588e-05
0.00218908 0.000403147 -1.95278e-06
0.000403147 0.00025266 -1.22786e-06
-1.95278e-06 -1.22786e-06 0.00011639
0.000716476 0.000115116 -1.04086e-06
0.000115116 0.000152829 2.78774e-06
-1.04086e-06 2.78774e-06 -4.0694e-05
0.00205631 0.000411674 1.09947e-06
0.000411674 0.000783589 1.2645e-06
1.09947e-06 1.2645e-06 0.000517255
0.000273006 0.000178523 5.74999e-07
0.000178523 -0.000275126 -5.02143e-07
5.74999e-07 -5.02143e-07 -0.000432992
0.00217091 0.000511784 -2.60113e-06
0.000511784 0.000414859 -3.27219e-07
-2.60113e-06 -3.27219e-07 0.00017249
0.0020366 0.000501633 -4.09366e-06
0.000501633 0.000228997 5.53609e-06
-4.09366e-06 5.53609e-06 1.51509e-05
0.00175105 0.000472193 -6.97267e-07
0.000472193 0.000543426 7.80147e-07
-6.97267e-07 7.80147e-07 0.000212894
0.00148819 0.00052581 6.04959e-07
0.00052581 0.000185421 5.34594e-07
6.04959e-07 5.34594e-07 -0.000127641
0.000201538 2.8794e-05 -1.50169e-07
2.8794e-05 -0.000162073 1.12425e-06
-1.50169e-07 1.12425e-06 -0.000277276
0.000296772 0.00014018 -8.55131e-07
0.00014018 -3.1878e-05 -2.86393e-06
-8.55131e-07 -2.86393e-06 -0.000244303
0.00155696 0.000378499 3.70988e-06
0.000378499 0.000458286 -6.32315e-07
3.70988e-06 -6.32315e-07 0.000187664
0.000706549 0.000209664 -2.96972e-06
0.000209664 4.5861e-05 -2.54184e-06
-2.96972e-06 -2.54184e-06 -0.000146855
0.0021176 0.000385712 9.47754e-07
0.000385712 -1.76344e-05 -7.87983e-07
9.47754e-07 -7.87983e-07 -5.07261e-05
0.00233906 0.000489041 3.21642e-06
0.000489041 0.000355517 5.10606e-07
3.21642e-06 5.10606e-07 0.000179914
0.00194283 0.000557552 -5.35553e-07
0.000557552 0.000295937 5.01999e-07
-5.35553e-07 5.01999e-07 1.12099e-05
0.00135361 0.000479888 5.41461e-07
0.000479888 0.000202359 5.14847e-07
5.41461e-07 5.14847e-07 -0.0001333
0.00016113 4.70158e-05 -1.8989e-06
4.70158e-05 -0.000191961 3.84977e-06
-1.8989e-06 3.84977e-06 -0.000312157
0.00206825 0.000313233 4.16607e-06
0.000313233 -0.000111119 3.42128e-06
4.16607e-06 3.42128e-06 -7.81666e-05
0.00180595 0.000345389 4.44443e-06
0.000345389 0.000833954 6.8888e-06
4.44443e-06 6.8888e-06 0.00057294
0.00126536 0.000364223 5.34684e-06
0.000364223 0.000259555 8.76227e-07
5.34684e-06 8.76227e-07 -4.333e-06
0.00245147 0.000480714 -1.74896e-05
0.000480714 0.000289411 -6.67016e-06
-1.74896e-05 -6.67016e-06 0.000179816
0.000988973 0.000510718 -9.13353e-06
0.000510718 -0.000348012 -9.25807e-06
-9.13353e-06 -9.25807e-06 -0.000614316
0.00209143 0.000583832 -3.49353e-06
0.000583832 0.000570324 2.42772e-06
-3.49353e-06 2.42772e-06 0.000210637
0.000716343 7.79431e-05 -9.97294e-07
7.79431e-05 0.000132794 -7.16002e-07
-9.97294e-07 -7.16002e-07 2.91777e-05
0.000665112 7.31918e-05 -2.36124e-06
7.31918e-05 0.000110358 -5.90528e-07
-2.36124e-06 -5.90528e-07 1.34958e-05
0.00118224 6.94004e-05 -3.47302e-06
6.94004e-05 0.000428238 -9.17098e-07
-3.47302e-06 -9.17098e-07 0.000347885
0.000563885 1.52391e-06 2.08932e-07
1.52391e-06 4.93758e-05 -2.77103e-06
2.08932e-07 -2.77103e-06 -4.57244e-05
0.000671255 6.68712e-05 1.42349e-06
6.68712e-05 0.000128993 6.00985e-08
1.42349e-06 6.00985e-08 7.16656e-06
0.000216438 4.94144e-05 -1.22459e-06
4.94144e-05 -0.000134652 3.56728e-06
-1.22459e-06 3.56728e-06 -0.000241427
0.000593068 1.18619e-05 -8.85055e-07
1.18619e-05 7.51174e-05 2.15793e-08
-8.85055e-07 2.15793e-08 -2.64805e-05
0.000376865 -1.5131e-05 -7.344e-07
-1.5131e-05 -4.05568e-05 3.26674e-07
-7.344e-07 3.26674e-07 -0.000166471
0.000338081 2.90512e-05 4.74742e-07
2.90512e-05 -9.30508e-05 5.8051e-07
4.74742e-07 5.8051e-07 -0.000170952
0.00075063 6.76361e-05 8.76977e-07
6.76361e-05 0.000182695 -7.69544e-07
8.76977e-07 -7.69544e-07 5.35859e-05
0.00139743 8.53217e-05 -3.04426e-07
8.53217e-05 0.000523295 -2.52367e-06
-3.04426e-07 -2.52367e-06 0.000463765
0.00060628 6.22259e-06 5.44679e-06
6.22259e-06 6.8101e-05 -4.45925e-06
5.44679e-06 -4.45925e-06 -2.15657e-05
0.000589559 6.99943e-05 1.14662e-07
6.99943e-05 9.34165e-05 1.96953e-06
1.14662e-07 1.96953e-06 -5.01495e-05
0.00060346 4.10142e-05 2.44032e-06
4.10142e-05 9.68041e-05 1.93876e-06
2.44032e-06 1.93876e-06 -4.22032e-05
0.00061513 3.07613e-05 2.01001e-06
3.07613e-05 8.22735e-05 2.41072e-06
2.01001e-06 2.41072e-06 -1.92181e-05
0.00051575 -4.30314e-05 -4.47328e-08
-4.30314e-05 7.26594e-06 2.6228e-06
-4.47328e-08 2.6228e-06 -5.9029e-05
0.000535898 -4.03215e-07 -3.30172e-07
-4.03215e-07 1.63765e-05 -1.50126e-07
-3.30172e-07 -1.50126e-07 -4.57192e-05
0.00127744 9.98351e-06 1.80292e-06
9.98351e-06 0.00044206 2.49129e-06
1.80292e-06 2.49129e-06 0.000427705
0.000536269 -1.69979e-05 6.17059e-07
-1.69979e-05 1.11337e-05 -2.79808e-06
6.17059e-07 -2.79808e-06 -4.64024e-05
0.00129524 -1.62562e-07 -3.77522e-06
-1.62562e-07 0.000447893 -1.61885e-06
-3.77522e-06 -1.61885e-06 0.000434727
0.000773833 -1.38242e-05 1.52179e-05
-1.38242e-05 0.000127687 8.53063e-06
1.52179e-05 8.53063e-06 0.000134523
0.00135463 -1.21368e-05 -6.76242e-06
-1.21368e-05 0.000480441 -6.0498e-06
-6.76242e-06 -6.0498e-06 0.000467387
0.00079138 -2.41123e-05 4.994e-06
-2.41123e-05 0.000134329 3.32774e-06
4.994e-06 3.32774e-06 0.000140217
0.000751399 -3.26454e-05 -3.80157e-07
-3.26454e-05 0.000109737 -2.44105e-06
-3.80157e-07 -2.44105e-06 0.000114637
0.000643335 4.82449e-06 1.67046e-06
4.82449e-06 6.01638e-05 -1.76914e-06
1.67046e-06 -1.76914e-06 1.77586e-05
0.000492779 2.86954e-05 4.74799e-07
2.86954e-05 -4.65211e-05 -3.4223e-06
4.74799e-07 -3.4223e-06 -5.91097e-05
0.000500527 4.12016e-05 3.03624e-07
4.12016e-05 -3.05443e-05 1.87324e-07
3.03624e-07 1.87324e-07 -4.87252e-05
0.00212858 7.71738e-05 1.61226e-05
7.71738e-05 0.000975406 -3.95306e-06
1.61226e-05 -3.95306e-06 0.000984795
0.000515622 6.32081e-05 4.58971e-06
6.32081e-05 -2.62615e-06 5.77953e-06
4.58971e-06 5.77953e-06 -3.28665e-05
0.00243444 0.000102906 -5.3833e-06
0.000102906 0.00117303 -4.93854e-07
-5.3833e-06 -4.93854e-07 0.00117581
0.0028849 0.000122694 -2.6082e-05
0.000122694 0.00145485 4.77404e-06
-2.6082e-05 4.77404e-06 0.00145158
0.00208321 0.000310178 -2.81745e-07
0.000310178 0.000112066 2.46281e-07
-2.81745e-07 2.46281e-07 2.5956e-05
0.00201381 0.00017853 -3.34681e-06
0.00017853 5.08948e-05 -7.99558e-07
-3.34681e-06 -7.99558e-07 2.32375e-05
0.00192324 5.47201e-05 -4.09771e-06
5.47201e-05 2.42723e-05 -3.73747e-07
-4.09771e-06 -3.73747e-07 7.67786e-06
0.00185605 -2.78991e-06 -4.69724e-06
-2.78991e-06 1.9569e-05 -9.85574e-08
-4.69724e-06 -9.85574e-08 -1.67452e-05
0.00190843 -6.54137e-06 -9.02164e-07
-6.54137e-06 1.38383e-05 3.06666e-08
-9.02164e-07 3.06666e-08 2.03032e-06
0.00202413 9.34303e-05 -4.50782e-08
9.34303e-05 -5.2719e-06 9.36565e-08
-4.50782e-08 9.36565e-08 6.92621e-06
0.00212268 0.000270544 -9.0042e-07
0.000270544 3.37866e-05 -7.3051e-08
-9.0042e-07 -7.3051e-08 6.76471e-06
0.00199687 -8.57538e-06 6.40436e-07
-8.57538e-06 -2.13607e-05 -5.03436e-07
6.40436e-07 -5.03436e-07 -6.05968e-07
0.00217464 0.000145936 4.10278e-06
0.000145936 -1.23402e-05 -3.73712e-08
4.10278e-06 -3.73712e-08 8.89945e-06
0.0023663 9.80189e-05 1.47855e-06
9.80189e-05 0.000162812 1.00557e-05
1.47855e-06 1.00557e-05 0.000225528
0.00190868 -7.74838e-05 -4.53741e-06
-7.74838e-05 1.19334e-05 4.32433e-07
-4.53741e-06 4.32433e-07 -7.231e-06
0.00196471 -0.00020416 -2.96229e-06
-0.00020416 -1.85843e-05 6.61357e-07
-2.96229e-06 6.61357e-07 -3.03318e-05
0.00197488 -0.000324034 -2.55695e-06
-0.000324034 5.71944e-05 9.8211e-07
-2.55695e-06 9.8211e-07 5.13715e-06
0.000553843 -0.000317129 -4.48791e-08
-0.000317129 -0.000167595 2.94748e-06
-4.48791e-08 2.94748e-06 -0.000450627
0.00159891 -0.000567944 2.17633e-06
-0.000567944 0.000336884 -3.38782e-08
2.17633e-06 -3.38782e-08 -4.12854e-05
0.0020586 -0.000615688 -1.99267e-06
-0.000615688 0.000458968 2.19424e-08
-1.99267e-06 2.19424e-08 0.000121004
0.00194581 -0.000421171 -2.33735e-07
-0.000421171 5.11463e-05 2.24972e-06
-2.33735e-07 2.24972e-06 -5.52818e-05
0.0017788 -0.000499088 -6.77489e-06
-0.000499088 8.31732e-05 -4.67963e-06
-6.77489e-06 -4.67963e-06 -0.000115778
0.000678154 -0.000309592 -6.79373e-06
-0.000309592 -7.07573e-05 5.46902e-06
-6.79373e-06 5.46902e-06 -0.000341517
0.00208945 -0.000355201 1.38207e-05
-0.000355201 0.000963352 -3.89017e-06
1.38207e-05 -3.89017e-06 0.000629801
0.000890188 -4.72966e-05 9.29914e-07
-4.72966e-05 0.000254854 6.43521e-07
9.29914e-07 6.43521e-07 3.00528e-05
0.000470784 1.64934e-05 8.87463e-07
1.64934e-05 -3.2109e-05 -2.92607e-07
8.87463e-07 -2.92607e-07 -8.3783e-05
0.000830108 3.59387e-05 3.98401e-06
3.59387e-05 0.000227716 5.30789e-07
3.98401e-06 5.30789e-07 0.000104367
0.000717271 -7.62739e-05 1.19378e-06
-7.62739e-05 0.000180585 1.29708e-06
1.19378e-06 1.29708e-06 -1.83176e-06
0.00200049 -0.000104723 4.84485e-07
-0.000104723 -1.15104e-05 6.79387e-08
4.84485e-07 6.79387e-08 3.42558e-06
0.000535897 1.65039e-05 1.23191e-06
1.65039e-05 -2.55755e-06 2.0558e-07
1.23191e-06 2.0558e-07 -4.69064e-05
0.000472677 -5.8856e-05 -1.83974e-06
-5.8856e-05 -1.96596e-05 -1.56428e-07
-1.83974e-06 -1.56428e-07 -9.60413e-05
0.00208141 -0.000272073 -2.2721e-07
-0.000272073 -4.64728e-06 1.54137e-07
-2.2721e-07 1.54137e-07 1.25632e-05
0.00201467 -0.000366334 -1.39873e-06
-0.000366334 3.70728e-05 1.24641e-07
-1.39873e-06 1.24641e-07 5.55268e-06
0.00140941 -0.000472679 -2.23219e-06
-0.000472679 0.000314494 2.63429e-07
-2.23219e-06 2.63429e-07 -3.99595e-05
0.00181908 -0.000641799 9.69824e-07
-0.000641799 0.000439935 1.11277e-06
9.69824e-07 1.11277e-06 1.74397e-05
0.00170891 -0.000616515 4.3632e-06
-0.000616515 0.00018497 -2.3998e-06
4.3632e-06 -2.3998e-06 -0.000135709
0.00215386 -0.000553172 2.5775e-06
-0.000553172 0.000162373 -6.93992e-07
2.5775e-06 -6.93992e-07 2.53897e-05
0.000724308 -3.26868e-06 3.49808e-07
-3.26868e-06 0.000163325 -1.41201e-06
3.49808e-07 -1.41201e-06 6.53417e-05
0.000699488 -3.26787e-05 6.24277e-08
-3.26787e-05 0.000172205 1.59584e-06
6.24277e-08 1.59584e-06 1.21164e-05
0.00141167 -0.000399757 1.04726e-06
-0.000399757 0.000367877 -2.01802e-07
1.04726e-06 -2.01802e-07 6.93282e-05
0.00169983 -0.000340981 1.6915e-05
-0.000340981 0.000779681 -4.15487e-06
1.6915e-05 -4.15487e-06 0.000380111
0.000371467 -5.38411e-05 -3.76895e-06
-5.38411e-05 -4.64247e-05 -1.17859e-06
-3.76895e-06 -1.17859e-06 -0.000304636
0.000612889 -3.93676e-05 9.14473e-07
-3.93676e-05 9.5077e-05 -1.1077e-06
9.14473e-07 -1.1077e-06 -9.7754e-05
0.00203728 -0.000122422 2.70921e-06
-0.000122422 -8.46667e-05 -8.75672e-07
2.70921e-06 -8.75672e-07 -6.21415e-05
0.00203502 -0.000340605 -4.56966e-08
-0.000340605 -0.000142185 1.21483e-06
-4.56966e-08 1.21483e-06 -1.88201e-05
0.00212278 -0.000495378 -4.53188e-06
-0.000495378 3.23047e-05 -4.43566e-07
-4.53188e-06 -4.43566e-07 -2.28892e-05
0.00158723 -0.000636833 4.30986e-06
-0.000636833 -4.7255e-05 -2.39211e-06
4.30986e-06 -2.39211e-06 -0.00022787
0.00121453 -0.000459711 -2.70028e-06
-0.000459711 0.000227282 -7.1436e-06
-2.70028e-06 -7.1436e-06 -0.000135644
0.00234357 -0.000755594 -1.02149e-05
-0.000755594 0.000680254 1.00182e-05
-1.02149e-05 1.00182e-05 0.000226235
0.000277703 4.93627e-05 -1.24319e-06
4.93627e-05 -0.000125931 -2.68512e-06
-1.24319e-06 -2.68512e-06 -0.000209483
0.000636508 -5.95947e-05 4.74459e-06
-5.95947e-05 7.65817e-05 -7.93533e-07
4.74459e-06 -7.93533e-07 2.74665e-06
0.000965531 -0.000119903 1.72426e-06
-0.000119903 0.000286606 3.71259e-06
1.72426e-06 3.71259e-06 0.000183781
0.00048646 2.17477e-05 -3.58398e-06
2.17477e-05 2.60884e-05 8.42012e-06
-3.58398e-06 8.42012e-06 -0.000111276
0.000778843 -8.03908e-05 -4.77646e-06
-8.03908e-05 0.000193434 6.87834e-06
-4.77646e-06 6.87834e-06 3.33928e-05
0.00149954 -4.81699e-05 3.95488e-06
-4.81699e-05 0.000562038 -4.99892e-07
3.95488e-06 -4.99892e-07 0.000365151
-0.001005 -0.000145703 7.79603e-06
-0.000145703 -0.00057569 -1.25399e-06
7.79603e-06 -1.25399e-06 -0.00113722
-0.000282225 -0.000357952 -2.68924e-05
-0.000357952 -0.000648926 4.14474e-07
-2.68924e-05 4.14474e-07 -0.000930329
0.000358414 5.47819e-05 7.95414e-08
5.47819e-05 -5.89258e-05 -7.12939e-07
7.95414e-08 -7.12939e-07 -0.000185425
0.000985233 0.000188727 -7.46263e-06
0.000188727 0.000379816 -4.93421e-06
-7.46263e-06 -4.93421e-06 0.000163633
0.00220471 0.000376209 -5.51228e-06
0.000376209 3.61321e-05 -3.04031e-06
-5.51228e-06 -3.04031e-06 2.06198e-06
0.00212071 0.00048412 -2.2644e-06
0.00048412 0.000234371 6.86597e-07
-2.2644e-06 6.86597e-07 5.42723e-05
0.00187936 0.000284251 -6.93231e-06
0.000284251 0.000738213 -1.23407e-06
-6.93231e-06 -1.23407e-06 0.00054217
0.00200638 0.000427258 -5.00231e-06
0.000427258 0.000729589 -4.81027e-06
-5.00231e-06 -4.81027e-06 0.000450855
0.00198201 0.000552234 2.68466e-06
0.000552234 0.000313229 2.4322e-06
2.68466e-06 2.4322e-06 3.22971e-05
0.00177504 0.000522043 8.22894e-09
0.000522043 0.000433042 -3.96478e-07
8.22894e-09 -3.96478e-07 9.45098e-05
0.000483109 8.28374e-05 7.25058e-07
8.28374e-05 1.76913e-05 -9.40139e-07
7.25058e-07 -9.40139e-07 -0.000119955
0.00220319 0.0002977 -1.72408e-06
0.0002977 -2.99653e-05 -1.34368e-06
-1.72408e-06 -1.34368e-06 7.11696e-06
0.00136827 0.000265033 1.38668e-06
0.000265033 0.000553112 1.4289e-06
1.38668e-06 1.4289e-06 0.000314698
0.00139869 0.000378921 1.51115e-06
0.000378921 0.00034761 6.06837e-07
1.51115e-06 6.06837e-07 7.63746e-05
0.00241367 0.00047955 1.96989e-06
0.00047955 0.000273106 4.90888e-07
1.96989e-06 4.90888e-07 0.000165498
0.00159699 0.000554625 -1.71029e-06
0.000554625 -2.63277e-06 -4.42044e-06
-1.71029e-06 -4.42044e-06 -0.000271295
0.00187291 0.000557914 2.75188e-07
0.000557914 0.000454155 5.36709e-07
2.75188e-07 5.36709e-07 9.80351e-05
0.00113177 0.000201861 -4.45959e-06
0.000201861 0.000436954 4.36671e-06
-4.45959e-06 4.36671e-06 0.000247945
0.00271132 0.000369636 -6.09647e-05
0.000369636 0.000323936 -1.74792e-05
-6.09647e-05 -1.74792e-05 0.000377226
0.0019923 0.000433871 -5.53891e-06
0.000433871 0.000835736 2.00626e-06
-5.53891e-06 2.00626e-06 0.000565024
0.00161087 0.000464792 -4.81595e-06
0.000464792 0.000387582 -4.3513e-06
-4.81595e-06 -4.3513e-06 6.7455e-05
0.0024688 0.000634074 -3.31268e-05
0.000634074 0.000366144 -1.59708e-05
-3.31268e-05 -1.59708e-05 0.00016886
0.000868927 0.000484817 -2.42982e-05
0.000484817 -0.000164864 -3.19502e-06
-2.42982e-05 -3.19502e-06 -0.000496614
0.000905686 0.000527538 3.2134e-05
0.000527538 -0.000801249 -3.04214e-05
3.2134e-05 -3.04214e-05 -0.000921383
0.00031247 8.54707e-05 2.11358e-06
8.54707e-05 -8.77193e-05 -2.52639e-07
2.11358e-06 -2.52639e-07 -0.000190379
0.00057431 7.50997e-05 -4.18517e-07
7.50997e-05 8.60319e-05 1.00092e-06
-4.18517e-07 1.00092e-06 9.78145e-07
0.00162693 0.000116815 4.41993e-07
0.000116815 0.000686557 -1.59008e-06
4.41993e-07 -1.59008e-06 0.000603379
0.000514396 -6.43435e-05 6.72538e-07
-6.43435e-05 3.56905e-05 -3.23101e-06
6.72538e-07 -3.23101e-06 -6.99625e-05
0.00044621 -4.02739e-05 -1.18004e-06
-4.02739e-05 -2.94417e-06 -3.98986e-07
-1.18004e-06 -3.98986e-07 -0.000124903
0.000933046 0.000155692 -6.40837e-08
0.000155692 0.000296294 1.3621e-06
-6.40837e-08 1.3621e-06 0.000158901
7.9029e-05 1.14584e-05 -2.51971e-06
1.14584e-05 -0.000234823 8.44416e-06
-2.51971e-06 8.44416e-06 -0.000312521
0.000578212 -1.93e-05 -4.65606e-07
-1.93e-05 7.39342e-05 -2.63603e-08
-4.65606e-07 -2.63603e-08 -3.58375e-05
0.000561599 5.43428e-05 4.39479e-08
5.43428e-05 5.48285e-05 -5.35376e-07
4.39479e-08 -5.35376e-07 -7.08408e-05
0.000956433 7.22534e-05 2.48213e-08
7.22534e-05 0.000259277 2.50283e-06
2.48213e-08 2.50283e-06 0.000196754
0.000683077 4.1797e-05 1.37498e-06
4.1797e-05 0.000134462 5.19604e-07
1.37498e-06 5.19604e-07 9.4288e-08
0.000684815 3.04445e-05 -1.43103e-06
3.04445e-05 0.000110807 -1.13147e-06
-1.43103e-06 -1.13147e-06 1.62921e-05
0.00124575 8.3587e-05 6.50431e-07
8.3587e-05 0.000451185 -7.89681e-06
6.50431e-07 -7.89681e-06 0.00038748
0.000967884 7.96667e-05 -2.369e-06
7.96667e-05 0.000289702 -2.23477e-06
-2.369e-06 -2.23477e-06 0.000145835
0.000828324 0.000100218 7.5901e-07
0.000100218 0.000214565 9.81687e-07
7.5901e-07 9.81687e-07 8.40117e-05
0.000719945 5.84961e-05 4.31566e-07
5.84961e-05 0.000168914 1.255e-06
4.31566e-07 1.255e-06 1.97881e-05
0.000366784 -2.32867e-05 -3.18609e-08
-2.32867e-05 -7.19712e-05 2.8936e-06
-3.18609e-08 2.8936e-06 -0.000179084
0.000954954 -3.57011e-05 1.13133e-07
-3.57011e-05 0.000340864 -1.37231e-06
1.13133e-07 -1.37231e-06 0.000186061
0.000305662 -2.88513e-05 -1.51508e-06
-2.88513e-05 -0.000105562 2.60366e-06
-1.51508e-06 2.60366e-06 -0.000216944
0.000504235 3.29146e-06 -1.79143e-06
3.29146e-06 4.2579e-06 2.77084e-06
-1.79143e-06 2.77084e-06 -6.60836e-05
0.000524358 3.06781e-05 2.06929e-06
3.06781e-05 1.44933e-05 -1.12903e-07
2.06929e-06 -1.12903e-07 -5.37567e-05
0.000448433 2.153e-05 1.48295e-06
2.153e-05 -5.89413e-05 4.04621e-06
1.48295e-06 4.04621e-06 -7.85029e-05
0.000512257 4.88662e-06 -2.75497e-06
4.88662e-06 5.7409e-06 -2.77196e-06
-2.75497e-06 -2.77196e-06 -5.92016e-05
0.000907382 1.27317e-05 -2.91366e-06
1.27317e-05 0.000216915 -1.64766e-06
-2.91366e-06 -1.64766e-06 0.000200193
0.00250407 -1.11353e-05 1.18591e-05
-1.11353e-05 0.00118763 5.27208e-06
1.18591e-05 5.27208e-06 0.00120165
0.00136967 2.3636e-06 -5.44214e-06
2.3636e-06 0.000493942 -5.90474e-06
-5.44214e-06 -5.90474e-06 0.000480407
0.00078204 -1.47965e-05 3.49066e-06
-1.47965e-05 0.000129799 3.30815e-06
3.49066e-06 3.30815e-06 0.000136494
0.000777902 -2.33354e-05 1.64346e-07
-2.33354e-05 0.000123675 -2.41007e-06
1.64346e-07 -2.41007e-06 0.000129675
0.000542825 1.69524e-05 -1.12003e-06
1.69524e-05 3.18515e-06 -1.59721e-06
-1.12003e-06 -1.59721e-06 -3.8857e-05
0.000582464 -9.30051e-06 1.03073e-06
-9.30051e-06 2.39425e-05 -2.39593e-07
1.03073e-06 -2.39593e-07 -1.92113e-05
0.000536898 2.24519e-05 4.10971e-07
2.24519e-05 -2.20123e-05 -3.40788e-06
4.10971e-07 -3.40788e-06 -3.25931e-05
0.000824701 3.62673e-05 -2.4477e-07
3.62673e-05 0.000159138 7.49267e-08
-2.4477e-07 7.49267e-08 0.000147709
0.00211002 6.20714e-05 1.25796e-05
6.20714e-05 0.000956651 -4.19748e-06
1.25796e-05 -4.19748e-06 0.000969208
0.000511866 4.6949e-05 2.25804e-06
4.6949e-05 -2.10385e-05 3.98645e-06
2.25804e-06 3.98645e-06 -4.08329e-05
0.0022543 8.27182e-05 -2.95054e-06
8.27182e-05 0.00105384 -2.29639e-07
-2.95054e-06 -2.29639e-07 0.00106181
0.00252723 0.000107338 -1.43119e-05
0.000107338 0.00123036 4.53868e-06
-1.43119e-05 4.53868e-06 0.00123204
0.00205989 0.000273884 -3.12002e-06
0.000273884 -4.90106e-06 -1.56358e-06
-3.12002e-06 -1.56358e-06 -2.90533e-05
0.00200606 8.80977e-05 -5.45429e-07
8.80977e-05 -8.85445e-06 1.86747e-07
-5.45429e-07 1.86747e-07 1.04797e-06
0.00190936 -3.13495e-06 -3.9342e-06
-3.13495e-06 1.13325e-05 -1.28959e-07
-3.9342e-06 -1.28959e-07 3.02141e-06
0.00199383 -5.66453e-06 1.44856e-07
-5.66453e-06 -2.09741e-05 -1.99591e-07
1.44856e-07 -1.99591e-07 -6.44049e-07
0.00215477 0.000148253 -1.89312e-07
0.000148253 -8.16196e-06 2.7333e-07
-1.89312e-07 2.7333e-07 1.16763e-05
0.00206693 7.94359e-05 7.14953e-06
7.94359e-05 -3.36212e-05 -3.94083e-06
7.14953e-06 -3.94083e-06 2.34129e-05
0.0021677 -3.34947e-06 5.81679e-07
-3.34947e-06 -4.74088e-05 -8.47776e-07
5.81679e-07 -8.47776e-07 4.24357e-06
0.00377858 0.000509696 4.09152e-05
0.000509696 -0.000361361 7.58674e-06
4.09152e-05 7.58674e-06 8.60447e-05
0.00237248 5.63603e-05 -3.0032e-05
5.63603e-05 0.000311611 2.5505e-05
-3.0032e-05 2.5505e-05 0.000457003
0.000524238 9.47754e-05 -1.01462e-06
9.47754e-05 3.19379e-05 1.31699e-08
-1.01462e-06 1.31699e-08 -4.97096e-05
0.00201086 -0.000106024 -1.11272e-06
-0.000106024 -1.21961e-05 2.77639e-08
-1.11272e-06 2.77639e-08 4.68505e-06
0.00205948 -0.000262051 4.24763e-07
-0.000262051 3.10824e-07 2.00435e-07
4.24763e-07 2.00435e-07 1.20792e-05
0.00197422 -0.000362749 -1.03097e-06
-0.000362749 1.20428e-05 1.61133e-06
-1.03097e-06 1.61133e-06 -1.60274e-05
0.000682829 -0.000399649 -8.46413e-06
-0.000399649 -0.000110694 6.29412e-06
-8.46413e-06 6.29412e-06 -0.000448853
0.00229928 -0.000691067 3.5572e-06
-0.000691067 0.000708994 6.75198e-06
3.5572e-06 6.75198e-06 0.000277802
0.00168865 -0.000618546 -1.92591e-06
-0.000618546 0.000154993 -9.02492e-06
-1.92591e-06 -9.02492e-06 -0.000163172
0.00224202 -0.000555446 -3.99054e-06
-0.000555446 0.000225136 -1.13718e-06
-3.99054e-06 -1.13718e-06 8.6655e-05
0.00199575 -0.000438005 1.72109e-05
-0.000438005 0.000687251 -9.19035e-06
1.72109e-05 -9.19035e-06 0.000385977
0.000393951 -0.000199028 1.41748e-05
-0.000199028 8.52354e-07 -4.31197e-06
1.41748e-05 -4.31197e-06 -0.000332338
0.00131972 -9.20304e-05 2.61377e-06
-9.20304e-05 0.000500133 -2.18972e-07
2.61377e-06 -2.18972e-07 0.000264343
0.000541591 6.83589e-06 -1.80923e-07
6.83589e-06 2.53079e-06 1.35815e-06
-1.80923e-07 1.35815e-06 -4.14545e-05
0.000887882 -2.15734e-05 2.76042e-06
-2.15734e-05 0.000271932 2.00249e-07
2.76042e-06 2.00249e-07 6.97252e-05
0.0008315 -2.274e-05 3.7882e-06
-2.274e-05 0.000236333 -2.21209e-06
3.7882e-06 -2.21209e-06 0.000138014
0.000863138 -3.47599e-05 2.22892e-06
-3.47599e-05 0.000267658 -3.0599e-06
2.22892e-06 -3.0599e-06 0.000106144
0.000281206 -3.66492e-05 -3.57549e-06
-3.66492e-05 -0.000143598 1.34814e-06
-3.57549e-06 1.34814e-06 -0.000216568
0.0020756 -0.000138121 -3.70974e-07
-0.000138121 -8.89288e-05 5.81573e-08
-3.70974e-07 5.81573e-08 -4.69503e-05
0.000421742 3.33358e-05 -9.47898e-08
3.33358e-05 -2.94825e-05 -1.70802e-06
-9.47898e-08 -1.70802e-06 -0.00011745
0.000602437 -5.33504e-05 1.62783e-06
-5.33504e-05 7.26005e-05 7.39465e-07
1.62783e-06 7.39465e-07 -9.15101e-06
0.000815489 -9.2434e-05 1.39681e-06
-9.2434e-05 0.000191775 5.50142e-07
1.39681e-06 5.50142e-07 9.38519e-05
0.00206236 -0.000347121 1.51399e-06
-0.000347121 -0.000105848 -5.44821e-07
1.51399e-06 -5.44821e-07 -1.04585e-05
0.00214987 -0.000499325 5.0977e-07
-0.000499325 4.97933e-05 -7.84486e-07
5.0977e-07 -7.84486e-07 -5.8381e-06
0.000915472 -0.000403527 7.281e-06
-0.000403527 5.80646e-05 -6.81285e-08
7.281e-06 -6.81285e-08 -0.000281861
0.00238137 -0.000762379 8.98043e-06
-0.000762379 0.000701835 -4.4208e-07
8.98043e-06 -4.4208e-07 0.000258121
0.00211865 -0.000677729 -2.16233e-06
-0.000677729 0.000269221 1.69105e-06
-2.16233e-06 1.69105e-06 6.93706e-05
0.00027442 -2.81266e-05 -5.20767e-07
-2.81266e-05 -0.000101194 -9.77137e-07
-5.20767e-07 -9.77137e-07 -0.000229383
0.000870484 -8.6694e-05 -1.5649e-06
-8.6694e-05 0.000261509 9.83126e-07
-1.5649e-06 9.83126e-07 8.71488e-05
0.00119498 -0.000507681 -7.03576e-06
-0.000507681 0.000207871 9.8988e-07
-7.03576e-06 9.8988e-07 -0.000131718
0.000454072 -0.000133904 4.18854e-07
-0.000133904 0.000137916 -3.08784e-06
4.18854e-07 -3.08784e-06 -0.00030467
0.000719433 -6.03791e-05 4.72224e-07
-6.03791e-05 9.30524e-05 1.30481e-06
4.72224e-07 1.30481e-06 -9.37842e-05
0.00248401 -0.000264913 -1.52893e-06
-0.000264913 0.000143254 3.0907e-07
-1.52893e-06 3.0907e-07 0.000188186
0.00188122 -0.000374162 -1.43517e-05
-0.000374162 -0.000212361 4.46144e-06
-1.43517e-05 4.46144e-06 -7.12208e-05
0.00217543 -0.000643666 -9.87802e-06
-0.000643666 0.000134262 9.58323e-07
-9.87802e-06 9.58323e-07 -1.7513e-05
0.0031715 -0.000823797 -2.1382e-05
-0.000823797 0.000976918 -1.19131e-06
-2.1382e-05 -1.19131e-06 0.000705729
0.00102923 -0.000497767 -2.50777e-05
-0.000497767 0.000131564 -2.89466e-06
-2.50777e-05 -2.89466e-06 -0.000228297
0.00026292 -1.44569e-05 1.91701e-06
-1.44569e-05 -0.000123288 5.77758e-07
1.91701e-06 5.77758e-07 -0.000224834
0.000406929 1.04975e-05 8.72029e-07
1.04975e-05 -7.66761e-05 3.0836e-06
8.72029e-07 3.0836e-06 -0.000171939
-0.000105844 -2.68083e-05 -5.30032e-07
-2.68083e-05 -0.000351214 -3.0106e-06
-5.30032e-07 -3.0106e-06 -0.00045181
0.00190655 -0.000234419 -9.53218e-06
-0.000234419 0.000915211 1.39276e-05
-9.53218e-06 1.39276e-05 0.000749588
0.000892567 -8.86346e-05 -4.88455e-06
-8.86346e-05 0.000243672 1.3752e-05
-4.88455e-06 1.3752e-05 8.73042e-05
-0.000926187 -8.89353e-05 2.00051e-06
-8.89353e-05 -0.000474928 5.33928e-06
2.00051e-06 5.33928e-06 -0.000989268
-0.000454792 -0.00058734 -2.60193e-06
-0.00058734 -0.000384151 -7.91571e-06
-2.60193e-06 -7.91571e-06 -0.00095922
0.000992588 0.000144367 -4.95537e-07
0.000144367 0.000339479 -5.21679e-06
-4.95537e-07 -5.21679e-06 0.000181655
0.000460093 0.000129368 -3.61584e-06
0.000129368 -1.68082e-05 -2.70056e-06
-3.61584e-06 -2.70056e-06 -0.000219484
0.00232617 0.000276571 6.58478e-06
0.000276571 3.59187e-05 3.55414e-07
6.58478e-06 3.55414e-07 8.52524e-05
0.00233189 0.000476187 1.58208e-05
0.000476187 0.000230061 4.9929e-06
1.58208e-05 4.9929e-06 0.000127269
0.00220993 0.000598159 1.75003e-05
0.000598159 0.000348121 4.82678e-06
1.75003e-05 4.82678e-06 7.73567e-05
0.0012133 0.000360249 -3.40254e-07
0.000360249 0.000243353 5.69508e-07
-3.40254e-07 5.69508e-07 -2.88053e-05
0.001633 0.00052998 3.03775e-06
0.00052998 0.000325543 3.13757e-06
3.03775e-06 3.13757e-06 -2.54743e-05
0.00163093 0.0001969 9.98126e-08
0.0001969 0.000706027 -2.56085e-07
9.98126e-08 -2.56085e-07 0.000531768
0.00248186 0.000316584 -8.8237e-07
0.000316584 0.000226526 1.20876e-06
-8.8237e-07 1.20876e-06 0.000291544
0.0013567 0.000340481 -1.74064e-06
0.000340481 0.000435367 2.3452e-06
-1.74064e-06 2.3452e-06 0.00018838
0.00157589 0.000464243 1.65854e-06
0.000464243 0.00039912 4.74277e-08
1.65854e-06 4.74277e-08 6.85918e-05
0.00211266 0.000601628 -1.84507e-06
0.000601628 0.000168172 -3.14393e-06
-1.84507e-06 -3.14393e-06 -6.91954e-06
0.00162479 0.00056452 -4.43406e-06
0.00056452 0.000268495 4.94111e-06
-4.43406e-06 4.94111e-06 -8.04948e-05
0.00280863 0.000718183 5.90001e-05
0.000718183 -0.000120856 5.32438e-06
5.90001e-05 5.32438e-06 -0.000336851
0.00127516 0.000268875 -6.0747e-06
0.000268875 0.000521799 1.44642e-06
-6.0747e-06 1.44642e-06 0.000316977
0.00376928 0.000589306 -8.17389e-05
0.000589306 0.00109201 -3.168e-05
-8.17389e-05 -3.168e-05 0.00102304
0.000933772 0.0003423 -3.58141e-06
0.0003423 6.06274e-05 -2.77191e-07
-3.58141e-06 -2.77191e-07 -0.000193949
-3.27963e-05 0.000326277 -3.16555e-06
0.000326277 -0.000532209 -1.16812e-05
-3.16555e-06 -1.16812e-05 -0.000846088
0.000654241 0.000569072 -3.28337e-05
0.000569072 -0.000431658 -6.7647e-06
-3.28337e-05 -6.7647e-06 -0.000628452
0.0126937 0.000391438 -0.000329807
0.000391438 0.00232715 -5.28763e-05
-0.000329807 -5.28763e-05 0.00152926
0.00551989 0.00120419 6.37522e-05
0.00120419 2.40104e-06 -6.84012e-05
6.37522e-05 -6.84012e-05 0.000247207
-0.00046178 0.000794157 1.18841e-07
0.000794157 -0.00112812 3.77066e-06
1.18841e-07 3.77066e-06 -0.00145378
-0.00291384 -0.00130264 0.00083481
-0.00130264 0.000124855 0.000171045
0.00083481 0.000171045 -0.00221856
0.0144369 -0.00505707 -1.93274e-05
-0.00505707 0.00432229 4.91512e-05
-1.93274e-05 4.91512e-05 0.00437933
0.000187636 7.85688e-05 6.50323e-06
7.85688e-05 -0.000127645 1.28715e-06
6.50323e-06 1.28715e-06 -0.000216391
0.00102646 8.5484e-05 9.03658e-07
8.5484e-05 0.000357875 -2.05666e-06
9.03658e-07 -2.05666e-06 0.000277197
0.00172419 0.000195589 -1.28161e-06
0.000195589 0.000798733 -6.26798e-07
-1.28161e-06 -6.26798e-07 0.000688549
0.000554056 -6.03847e-05 -6.98391e-07
-6.03847e-05 6.80178e-05 -2.30999e-06
-6.98391e-07 -2.30999e-06 -4.69545e-05
0.000541687 6.23035e-05 -1.11738e-06
6.23035e-05 4.61609e-05 -1.86084e-06
-1.11738e-06 -1.86084e-06 -8.34735e-05
0.0006935 -1.62767e-05 -9.7886e-08
-1.62767e-05 0.000141259 -8.91333e-07
-9.7886e-08 -8.91333e-07 6.49418e-06
0.000696499 5.24237e-05 -3.78861e-06
5.24237e-05 0.000112898 6.69874e-06
-3.78861e-06 6.69874e-06 1.41893e-05
0.000508282 5.46546e-05 1.35364e-06
5.46546e-05 -1.0337e-05 6.48744e-06
1.35364e-06 6.48744e-06 -7.49577e-05
0.000738289 9.91403e-05 -2.00555e-06
9.91403e-05 0.000179807 -4.50777e-07
-2.00555e-06 -4.50777e-07 3.29703e-05
0.000463299 -7.02284e-06 3.32714e-07
-7.02284e-06 -4.96946e-06 9.07132e-07
3.32714e-07 9.07132e-07 -0.000115918
0.000657021 2.8724e-05 -3.1987e-07
2.8724e-05 0.000125867 -1.44669e-08
-3.1987e-07 -1.44669e-08 -1.80462e-05
0.000595093 6.75978e-05 6.9082e-08
6.75978e-05 5.01591e-05 -5.94906e-07
6.9082e-08 -5.94906e-07 -1.41575e-05
0.000742083 8.34069e-05 -1.29783e-06
8.34069e-05 0.000157473 -3.11389e-07
-1.29783e-06 -3.11389e-07 1.81647e-05
0.0010486 0.000127446 -1.76193e-06
0.000127446 0.000359149 -9.68544e-07
-1.76193e-06 -9.68544e-07 0.000205144
0.000356126 8.08066e-05 6.7521e-07
8.08066e-05 -4.20751e-05 -3.18292e-06
6.7521e-07 -3.18292e-06 -0.000182051
0.000785383 9.32979e-05 2.60236e-06
9.32979e-05 0.000199217 6.61114e-07
2.60236e-06 6.61114e-07 5.90038e-05
0.000557951 -3.16495e-05 1.67671e-06
-3.16495e-05 5.15909e-05 5.50088e-07
1.67671e-06 5.50088e-07 -8.90208e-05
0.000384274 -6.33009e-05 -1.37956e-06
-6.33009e-05 -5.57891e-05 2.50684e-06
-1.37956e-06 2.50684e-06 -0.000170273
0.000729551 -1.32268e-05 -8.00723e-07
-1.32268e-05 0.000168044 5.18741e-08
-8.00723e-07 5.18741e-08 2.50458e-05
0.000956607 2.76056e-05 -1.28258e-07
2.76056e-05 0.000305499 -6.52807e-06
-1.28258e-07 -6.52807e-06 0.000166849
0.000535709 -3.11729e-05 -6.18169e-07
-3.11729e-05 7.14499e-05 -3.02538e-07
-6.18169e-07 -3.02538e-07 -6.34785e-05
0.000780477 -3.70295e-05 1.51649e-06
-3.70295e-05 0.000210839 -6.28524e-07
1.51649e-06 -6.28524e-07 7.16053e-05
0.000660923 -0.000104846 -2.50551e-06
-0.000104846 0.000118629 1.66835e-06
-2.50551e-06 1.66835e-06 5.95418e-06
0.000364401 -1.87241e-05 1.54845e-07
-1.87241e-05 -6.6799e-05 1.05719e-06
1.54845e-07 1.05719e-06 -0.000180957
0.000537151 -3.88442e-05 -2.11068e-06
-3.88442e-05 1.60442e-05 2.98489e-06
-2.11068e-06 2.98489e-06 -5.02437e-05
0.000537804 -2.91515e-05 1.56723e-06
-2.91515e-05 2.22791e-05 5.48332e-08
1.56723e-06 5.48332e-08 -4.70337e-05
0.000509701 5.00292e-06 1.3618e-06
5.00292e-06 -2.03477e-05 5.91408e-06
1.3618e-06 5.91408e-06 -4.04554e-05
0.000553585 3.61324e-05 -1.50163e-06
3.61324e-05 2.77882e-05 -2.84848e-06
-1.50163e-06 -2.84848e-06 -3.76444e-05
0.000472421 1.78085e-05 4.10088e-07
1.78085e-05 -4.41813e-05 4.96225e-08
4.10088e-07 4.96225e-08 -6.38308e-05
0.00244779 -1.75967e-07 1.2402e-07
-1.75967e-07 0.00115454 5.27242e-06
1.2402e-07 5.27242e-06 0.00116853
0.000533446 1.93548e-05 -2.0551e-06
1.93548e-05 -1.10539e-05 -6.25363e-06
-2.0551e-06 -6.25363e-06 -3.07218e-05
0.00166013 -8.8049e-06 -5.39133e-07
-8.8049e-06 0.000669972 1.03303e-07
-5.39133e-07 1.03303e-07 0.000679752
0.000781541 -1.37714e-05 4.73898e-07
-1.37714e-05 0.000126449 -2.22815e-06
4.73898e-07 -2.22815e-06 0.000133395
0.000532563 -1.14016e-05 7.29597e-07
-1.14016e-05 -1.98121e-06 -1.22552e-06
7.29597e-07 -1.22552e-06 -4.1141e-05
0.000583339 -3.10078e-05 3.08824e-07
-3.10078e-05 2.92959e-05 -4.7874e-08
3.08824e-07 -4.7874e-08 -1.42757e-05
0.000551146 1.3563e-05 7.9823e-07
1.3563e-05 -1.54418e-05 -3.05492e-06
7.9823e-07 -3.05492e-06 -2.40113e-05
0.000541489 -2.6181e-05 -1.79657e-06
-2.6181e-05 -2.14548e-06 1.33392e-06
-1.79657e-06 1.33392e-06 -4.49721e-05
0.000813066 2.66063e-05 -4.94781e-08
2.66063e-05 0.000147561 -7.3918e-07
-4.94781e-08 -7.3918e-07 0.000139035
0.00200711 4.61162e-05 8.99915e-06
4.61162e-05 0.000888493 -4.30963e-06
8.99915e-06 -4.30963e-06 0.000903915
0.000518151 3.20574e-05 -3.11832e-07
3.20574e-05 -2.79607e-05 3.377e-06
-3.11832e-07 3.377e-06 -4.16443e-05
0.0021485 6.47164e-05 -6.66087e-06
6.47164e-05 0.000982768 1.11778e-06
-6.66087e-06 1.11778e-06 0.000994616
0.00230343 8.6733e-05 -1.11827e-05
8.6733e-05 0.00108508 4.32331e-06
-1.11827e-05 4.32331e-06 0.00109212
0.00212633 0.000151445 -2.92985e-06
0.000151445 -8.36548e-06 -1.16808e-06
-2.92985e-06 -1.16808e-06 1.03827e-05
0.00198967 -4.44635e-06 -4.42767e-07
-4.44635e-06 -2.1444e-05 9.06701e-08
-4.42767e-07 9.06701e-08 -1.7046e-06
0.00180114 5.95454e-05 3.43756e-06
5.95454e-05 -0.000216433 1.42094e-06
3.43756e-06 1.42094e-06 -0.000163903
0.00236403 0.000366433 5.95473e-05
0.000366433 -0.00091447 1.34797e-05
5.95473e-05 1.34797e-05 -0.000563583
0.00213387 -2.3255e-05 -1.774e-06
-2.3255e-05 -5.11984e-05 -1.74711e-06
-1.774e-06 -1.74711e-06 1.06946e-06
0.00203658 6.12725e-05 2.33769e-06
6.12725e-05 0.000124075 -6.93079e-06
2.33769e-06 -6.93079e-06 0.000231016
0.00315231 -2.72811e-05 -2.80997e-05
-2.72811e-05 0.000865928 3.7819e-06
-2.80997e-05 3.7819e-06 0.00085721
0.00239348 -1.984e-05 8.76843e-06
-1.984e-05 -0.00172478 -2.94812e-05
8.76843e-06 -2.94812e-05 -0.00112191
0.00253536 0.00014289 7.28666e-05
0.00014289 -0.000439696 4.47381e-05
7.28666e-05 4.47381e-05 -8.9368e-05
0.000589061 7.81177e-05 3.62719e-07
7.81177e-05 7.36171e-05 -2.16656e-07
3.62719e-07 -2.16656e-07 -1.00791e-05
0.000599888 -6.93433e-06 4.79957e-07
-6.93433e-06 8.48471e-05 -1.50699e-07
4.79957e-07 -1.50699e-07 -2.90231e-06
0.000521627 -9.97807e-05 -2.07288e-06
-9.97807e-05 4.07589e-05 1.34145e-06
-2.07288e-06 1.34145e-06 -6.17123e-05
0.000514418 -4.69533e-05 -1.53826e-06
-4.69533e-05 5.63629e-05 1.01177e-06
-1.53826e-06 1.01177e-06 -5.34127e-05
0.00212782 -0.00015346 -4.62322e-06
-0.00015346 -8.05872e-05 2.56235e-07
-4.62322e-06 2.56235e-07 -2.25435e-05
0.00209252 -0.000348565 5.87744e-07
-0.000348565 -6.27909e-05 -8.51018e-07
5.87744e-07 -8.51018e-07 7.54135e-06
0.00216479 -0.000498738 -2.5413e-06
-0.000498738 6.28316e-05 1.34638e-06
-2.5413e-06 1.34638e-06 7.95942e-06
0.00275129 -0.000604943 1.12154e-05
-0.000604943 0.00109987 2.37157e-06
1.12154e-05 2.37157e-06 0.000733582
0.00084076 -0.000608795 9.92252e-06
-0.000608795 -0.000145975 -2.73982e-06
9.92252e-06 -2.73982e-06 -0.000560645
0.00242243 -0.00069686 5.38012e-06
-0.00069686 0.000458885 -3.11123e-06
5.38012e-06 -3.11123e-06 0.000246724
0.00166809 -0.000557915 -2.94758e-06
-0.000557915 0.000484996 1.43821e-06
-2.94758e-06 1.43821e-06 0.000106658
0.00248538 -0.00016287 2.30434e-06
-0.00016287 0.00118676 8.13667e-07
2.30434e-06 8.13667e-07 0.000861867
-4.36473e-05 -3.95729e-05 -4.20488e-08
-3.95729e-05 -0.000379506 -6.91988e-07
-4.20488e-08 -6.91988e-07 -0.000548188
0.00066753 -5.0493e-05 1.69416e-07
-5.0493e-05 0.000116336 9.26825e-07
1.69416e-07 9.26825e-07 3.44258e-05
0.00068154 -0.000109376 1.68576e-06
-0.000109376 0.000161392 -6.512e-06
1.68576e-06 -6.512e-06 -2.15263e-05
0.000796952 2.44514e-06 2.16292e-06
2.44514e-06 0.000227127 -4.40391e-06
2.16292e-06 -4.40391e-06 9.21676e-05
0.000627193 2.778e-06 3.08646e-09
2.778e-06 0.000106157 4.82798e-08
3.08646e-09 4.82798e-08 1.29045e-05
0.000535436 -2.90819e-05 -6.64846e-06
-2.90819e-05 1.44491e-05 3.33601e-06
-6.64846e-06 3.33601e-06 -7.48665e-05
0.0024421 -0.000247665 1.58992e-06
-0.000247665 0.000125631 1.07943e-06
1.58992e-06 1.07943e-06 0.000187135
0.000592982 -2.37222e-05 5.81948e-07
-2.37222e-05 9.21272e-05 3.56965e-07
5.81948e-07 3.56965e-07 -2.20856e-05
0.000796417 -1.54863e-05 4.15789e-06
-1.54863e-05 0.000178848 -7.3706e-07
4.15789e-06 -7.3706e-07 7.13602e-05
2.14524e-05 3.76693e-07 1.0617e-06
3.76693e-07 -0.000268048 9.84749e-07
1.0617e-06 9.84749e-07 -0.000347196
0.00183603 -0.000377496 -2.95944e-08
-0.000377496 -0.000266694 -1.31702e-06
-2.95944e-08 -1.31702e-06 -0.000130113
0.00208405 -0.000630691 2.00049e-06
-0.000630691 9.19476e-05 -1.05375e-06
2.00049e-06 -1.05375e-06 -5.11848e-05
0.00173037 -0.000607932 -1.38673e-06
-0.000607932 0.000513472 4.33659e-08
-1.38673e-06 4.33659e-08 0.000138076
0.00223077 -0.00074737 -6.01518e-06
-0.00074737 0.000462592 1.45288e-06
-6.01518e-06 1.45288e-06 0.000198426
0.00121557 -9.73297e-05 -1.00913e-06
-9.73297e-05 0.000463458 1.20769e-06
-1.00913e-06 1.20769e-06 0.000315601
0.000438593 -6.27801e-05 2.5823e-06
-6.27801e-05 -3.88595e-05 8.88711e-07
2.5823e-06 8.88711e-07 -0.000197559
0.00144599 -0.00072474 4.30508e-06
-0.00072474 0.00068261 -1.03622e-06
4.30508e-06 -1.03622e-06 9.31404e-05
0.00118566 -0.000269867 -1.99899e-06
-0.000269867 0.000534384 -5.29693e-07
-1.99899e-06 -5.29693e-07 0.000131907
0.00276281 -0.000333335 -2.68563e-05
-0.000333335 0.000194041 1.37408e-07
-2.68563e-05 1.37408e-07 0.00039244
0.00240824 -0.000515696 -3.74322e-05
-0.000515696 0.000186169 1.05295e-05
-3.74322e-05 1.05295e-05 0.000221627
0.0024188 -0.000763381 -7.1269e-06
-0.000763381 0.000405299 -1.98003e-06
-7.1269e-06 -1.98003e-06 0.0001561
0.00208067 -0.000680993 -1.38133e-05
-0.000680993 0.0005612 -5.42761e-07
-1.38133e-05 -5.42761e-07 0.00030602
0.000388017 -3.91341e-05 -5.12188e-07
-3.91341e-05 -7.54725e-06 -2.62373e-06
-5.12188e-07 -2.62373e-06 -0.000130695
0.000245355 -7.85549e-05 -3.05822e-06
-7.85549e-05 -0.000121669 -9.06235e-06
-3.05822e-06 -9.06235e-06 -0.000263905
0.00015016 -0.000144175 -4.58468e-06
-0.000144175 3.30367e-06 2.25261e-05
-4.58468e-06 2.25261e-05 -0.000242961
-0.000688181 -0.000422829 -5.24526e-06
-0.000422829 -0.000115043 -1.98651e-05
-5.24526e-06 -1.98651e-05 -0.000870496
0.00160693 -0.000493002 3.45614e-05
-0.000493002 -0.00413814 1.90132e-06
3.45614e-05 1.90132e-06 -0.00424116
0.00185307 0.000185806 6.11269e-09
0.000185806 0.000823734 -4.42344e-06
6.11269e-09 -4.42344e-06 0.000656719
0.000804669 0.000269011 3.16729e-07
0.000269011 0.000101039 1.0014e-06
3.16729e-07 1.0014e-06 -0.000133582
0.00210628 0.00027796 6.31191e-05
0.00027796 2.77843e-05 1.5855e-05
6.31191e-05 1.5855e-05 0.000104005
0.00204858 0.000588811 2.5233e-05
0.000588811 0.000129186 8.86379e-06
2.5233e-05 8.86379e-06 -2.98005e-05
0.00207825 0.00061334 1.29116e-05
0.00061334 0.000539465 1.14126e-05
1.29116e-05 1.14126e-05 0.000176364
0.00144838 0.000455027 7.29627e-06
0.000455027 0.000345307 6.46891e-06
7.29627e-06 6.46891e-06 7.57733e-06
0.00395382 0.00086576 0.000102021
0.00086576 0.000161803 4.07099e-05
0.000102021 4.07099e-05 -0.000196255
0.00131087 0.000240939 4.72646e-06
0.000240939 0.000535594 4.65342e-07
4.72646e-06 4.65342e-07 0.000340077
0.00255567 0.000508838 -1.01302e-05
0.000508838 0.000395994 -1.84582e-07
-1.01302e-05 -1.84582e-07 0.000359721
0.00107519 0.000357632 -1.43529e-06
0.000357632 0.000172135 1.76265e-06
-1.43529e-06 1.76265e-06 -8.84112e-05
0.00132744 0.000488428 1.4906e-06
0.000488428 0.000240483 -4.15092e-06
1.4906e-06 -4.15092e-06 -0.000100594
0.00149791 0.000636523 -7.79316e-06
0.000636523 8.60235e-06 -3.02749e-07
-7.79316e-06 -3.02749e-07 -0.000205032
0.00354271 -0.000495725 -0.000154952
-0.000495725 -0.0035774 -4.96392e-05
-0.000154952 -4.96392e-05 -0.00461601
0.00696976 0.00111165 -6.16267e-05
0.00111165 0.000560947 -6.1137e-05
-6.16267e-05 -6.1137e-05 0.000553674
0.00114268 0.000813539 -9.88094e-06
0.000813539 -0.000197526 7.41372e-06
-9.88094e-06 7.41372e-06 -0.000589679
-0.00114311 -0.00107621 0.000322188
-0.00107621 0.0019217 0.000137899
0.000322188 0.000137899 -0.000336619
0.0060699 -0.00502071 -0.000283296
-0.00502071 0.00195467 -0.000276791
-0.000283296 -0.000276791 0.002044
0.00146748 0.000271015 -1.17057e-05
0.000271015 0.000584337 2.54411e-07
-1.17057e-05 2.54411e-07 0.000396587
0.000491001 0.000515247 0.000437053
0.000515247 0.00293232 3.89582e-05
0.000437053 3.89582e-05 0.00133953
0.00150592 -0.00152645 -0.000156945
-0.00152645 0.00386067 -0.000214073
-0.000156945 -0.000214073 0.000420527
0.00262938 0.000799342 -4.34462e-05
0.000799342 0.000454255 -9.57119e-06
-4.34462e-05 -9.57119e-06 0.000384667
0.000762756 0.000236411 -2.04225e-05
0.000236411 2.5649e-06 -6.65049e-06
-2.04225e-05 -6.65049e-06 -0.000221349
0.000533563 0.000498376 -3.14591e-05
0.000498376 -0.000153181 -2.19559e-05
-3.14591e-05 -2.19559e-05 -0.00045021
0.000226412 0.000810057 3.59072e-05
0.000810057 -0.000673533 8.50211e-05
3.59072e-05 8.50211e-05 -0.000932186
0.0124398 0.00153398 1.09424e-05
0.00153398 0.00243572 -5.25701e-05
1.09424e-05 -5.25701e-05 0.000925759
0.00251681 0.00150013 -1.54467e-06
0.00150013 1.80058e-05 -2.15831e-05
-1.54467e-06 -2.15831e-05 -0.000663509
0.00749383 -0.00437122 0.000670622
-0.00437122 0.0015316 0.000408889
0.000670622 0.000408889 0.000375304
0.00934269 -0.00210179 -4.93188e-05
-0.00210179 0.00115437 0.000415326
-4.93188e-05 0.000415326 0.000890339
0.000514877 6.96463e-05 5.91188e-06
6.96463e-05 7.77954e-05 -2.07795e-06
5.91188e-06 -2.07795e-06 -2.62384e-06
0.000503269 0.000117146 6.97926e-06
0.000117146 7.12788e-05 4.26852e-07
6.97926e-06 4.26852e-07 -3.20978e-05
0.00163978 0.000229525 1.56564e-06
0.000229525 0.000763225 -3.19448e-06
1.56564e-06 -3.19448e-06 0.000615314
0.000599293 9.80589e-06 8.29352e-07
9.80589e-06 9.94144e-05 -6.72441e-07
8.29352e-07 -6.72441e-07 -2.4724e-05
0.000704384 5.13848e-05 -1.03453e-06
5.13848e-05 0.000152829 -1.56975e-06
-1.03453e-06 -1.56975e-06 1.20683e-05
0.000356923 1.17486e-05 -1.52625e-06
1.17486e-05 -6.60881e-05 4.07535e-07
-1.52625e-06 4.07535e-07 -0.000198024
0.000603746 8.19066e-05 -5.58438e-06
8.19066e-05 8.20753e-05 1.05617e-06
-5.58438e-06 1.05617e-06 -5.56922e-05
-0.000110108 5.04083e-05 -3.20695e-06
5.04083e-05 -0.000384479 7.80434e-07
-3.20695e-06 7.80434e-07 -0.000449048
0.000392298 -9.59059e-06 1.85092e-07
-9.59059e-06 -4.4875e-05 9.09428e-07
1.85092e-07 9.09428e-07 -0.000162744
0.000933814 7.75318e-05 1.4296e-06
7.75318e-05 0.000289484 4.76738e-08
1.4296e-06 4.76738e-08 0.000140767
0.000706613 4.30027e-05 6.42404e-07
4.30027e-05 0.000158121 3.3032e-07
6.42404e-07 3.3032e-07 1.34676e-05
0.000707196 2.15523e-05 1.09913e-06
2.15523e-05 0.000159219 -4.47944e-07
1.09913e-06 -4.47944e-07 7.12896e-06
0.000556992 8.98724e-05 -3.08364e-07
8.98724e-05 8.08531e-05 -1.71081e-06
-3.08364e-07 -1.71081e-06 -5.69265e-05
0.00113537 9.4693e-05 -1.84108e-06
9.4693e-05 0.000429661 -2.0237e-06
-1.84108e-06 -2.0237e-06 0.00028034
-0.000174781 3.33777e-05 -3.86412e-06
3.33777e-05 -0.000306933 -4.29637e-06
-3.86412e-06 -4.29637e-06 -0.000456043
0.000753218 -9.05167e-05 -1.6119e-07
-9.05167e-05 0.000179586 -1.24553e-07
-1.6119e-07 -1.24553e-07 3.27839e-05
0.000766 -6.94332e-05 -5.80435e-07
-6.94332e-05 0.0002046 -7.12323e-08
-5.80435e-07 -7.12323e-08 5.07301e-05
0.000755688 -3.59208e-05 -1.80634e-07
-3.59208e-05 0.000196289 -3.13578e-07
-1.80634e-07 -3.13578e-07 4.41359e-05
0.000796465 -7.96514e-06 -2.13546e-06
-7.96514e-06 0.000196969 -1.72836e-07
-2.13546e-06 -1.72836e-07 6.93311e-05
0.000760865 2.56772e-05 -4.43387e-06
2.56772e-05 0.000208709 -3.41515e-06
-4.43387e-06 -3.41515e-06 4.36569e-05
0.000698968 -8.58164e-06 2.02691e-06
-8.58164e-06 0.000152036 -4.88815e-06
2.02691e-06 -4.88815e-06 2.37369e-05
-0.000302036 -2.52158e-05 -9.65685e-07
-2.52158e-05 -0.000469903 -4.69889e-06
-9.65685e-07 -4.69889e-06 -0.000577367
0.000594529 -2.87148e-05 1.4449e-06
-2.87148e-05 6.25141e-05 -7.21813e-07
1.4449e-06 -7.21813e-07 -6.63794e-05
0.000468387 -6.63303e-05 1.84183e-06
-6.63303e-05 3.33558e-06 1.00674e-06
1.84183e-06 1.00674e-06 -0.000117985
0.000683455 -6.77735e-05 -9.0636e-07
-6.77735e-05 0.000155186 -2.82433e-07
-9.0636e-07 -2.82433e-07 2.12051e-05
0.00057642 -6.99014e-05 -2.0244e-06
-6.99014e-05 5.22393e-05 1.3532e-06
-2.0244e-06 1.3532e-06 -4.70282e-05
0.000540835 -5.44385e-05 2.25258e-06
-5.44385e-05 4.06297e-05 2.69873e-07
2.25258e-06 2.69873e-07 -8.27815e-05
0.000547161 -9.51438e-05 1.10067e-07
-9.51438e-05 4.62848e-05 2.40633e-07
1.10067e-07 2.40633e-07 -6.52991e-05
0.000577969 -3.81239e-05 -2.35214e-06
-3.81239e-05 3.89865e-05 3.29917e-06
-2.35214e-06 3.29917e-06 -2.81816e-05
0.000436648 -6.57417e-06 1.4041e-06
-6.57417e-06 -1.05958e-05 -7.72975e-07
1.4041e-06 -7.72975e-07 -0.000133942
0.000535014 9.2961e-07 1.71601e-06
9.2961e-07 2.12708e-05 4.14091e-08
1.71601e-06 4.14091e-08 -4.86371e-05
0.00141666 -6.77827e-06 -5.13446e-06
-6.77827e-06 0.000529548 6.01899e-06
-5.13446e-06 6.01899e-06 0.000513556
0.000535156 5.15321e-05 -1.05259e-06
5.15321e-05 2.1083e-05 -2.84666e-06
-1.05259e-06 -2.84666e-06 -4.80585e-05
0.000907443 -5.47019e-06 -2.65805e-06
-5.47019e-06 0.000222435 7.61318e-07
-2.65805e-06 7.61318e-07 0.000204584
0.00078708 2.80005e-06 -3.96606e-06
2.80005e-06 0.000139887 4.85196e-06
-3.96606e-06 4.85196e-06 0.000145956
0.000472303 -4.31163e-06 1.59468e-06
-4.31163e-06 -4.40174e-05 -4.27273e-06
1.59468e-06 -4.27273e-06 -6.3647e-05
0.00246097 9.62121e-07 5.29126e-06
9.62121e-07 0.00116269 -1.23457e-08
5.29126e-06 -1.23457e-08 0.00117668
0.000867331 -1.18577e-06 -5.04819e-06
-1.18577e-06 0.000185614 -5.1167e-06
-5.04819e-06 -5.1167e-06 0.000191457
0.00053667 6.35903e-05 2.551e-06
6.35903e-05 4.65046e-05 5.03498e-07
2.551e-06 5.03498e-07 -4.38753e-05
0.000514888 4.04904e-05 -1.76103e-06
4.04904e-05 -4.58705e-06 -1.76109e-06
-1.76103e-06 -1.76109e-06 -4.70341e-05
0.000533511 -6.22724e-06 1.25131e-06
-6.22724e-06 4.73598e-06 2.84478e-08
1.25131e-06 2.84478e-08 -3.84322e-05
0.000541233 8.40221e-06 7.57695e-07
8.40221e-06 -2.12795e-05 -2.97227e-06
7.57695e-07 -2.97227e-06 -2.91836e-05
0.000578219 -4.70642e-05 -1.76754e-06
-4.70642e-05 2.94526e-05 1.5668e-06
-1.76754e-06 1.5668e-06 -1.66145e-05
0.000517136 1.38187e-05 5.23286e-08
1.38187e-05 -3.69301e-05 -7.55565e-07
5.23286e-08 -7.55565e-07 -4.51721e-05
0.00199188 3.14573e-05 6.14983e-06
3.14573e-05 0.000875378 -4.4637e-06
6.14983e-06 -4.4637e-06 0.000892556
0.00110773 3.37986e-05 -6.18725e-07
3.37986e-05 0.000329222 1.80311e-06
-6.18725e-07 1.80311e-06 0.000321963
0.00146008 3.99074e-05 -6.86474e-08
3.99074e-05 0.000552641 1.38845e-06
-6.86474e-08 1.38845e-06 0.000563837
0.000881686 4.34493e-05 -1.11933e-05
4.34493e-05 0.000202693 7.27739e-06
-1.11933e-05 7.27739e-06 0.000207686
0.00113659 0.000246106 8.65167e-05
0.000246106 -0.0014342 1.48987e-05
8.65167e-05 1.48987e-05 -0.00112088
0.00209332 -3.88065e-05 -7.39364e-07
-3.88065e-05 -5.08126e-05 2.95125e-06
-7.39364e-07 2.95125e-06 -4.49653e-06
0.00198928 7.24572e-05 3.68299e-05
7.24572e-05 0.000114881 -1.45713e-05
3.68299e-05 -1.45713e-05 0.000212308
0.00198025 0.000225901 -3.55328e-05
0.000225901 -0.00147095 -2.53146e-05
-3.55328e-05 -2.53146e-05 -0.000659631
0.00194305 8.90866e-05 2.78717e-05
8.90866e-05 -0.000589654 -1.55296e-06
2.78717e-05 -1.55296e-06 -0.000323694
0.00241393 -3.26768e-05 2.42292e-06
-3.26768e-05 0.000358065 -6.1088e-06
2.42292e-06 -6.1088e-06 0.000363974
0.00384584 -0.000181812 -4.92566e-05
-0.000181812 0.00089586 -9.32064e-06
-4.92566e-05 -9.32064e-06 0.000871347
0.00264444 -9.41919e-05 3.24016e-05
-9.41919e-05 4.26052e-05 2.14387e-05
3.24016e-05 2.14387e-05 0.000114969
0.0125237 -0.000680478 6.44581e-06
-0.000680478 0.00253756 3.43576e-05
6.44581e-06 3.43576e-05 0.0010417
0.0130891 0.00334295 0.000827878
0.00334295 0.00533342 -0.000341726
0.000827878 -0.000341726 0.00412441
0.0106162 0.0038149 -1.831e-05
0.0038149 0.00738232 9.04918e-06
-1.831e-05 9.04918e-06 0.00649046
0.000340409 -9.53629e-05 1.34894e-06
-9.53629e-05 -6.32541e-05 -3.71749e-07
1.34894e-06 -3.71749e-07 -0.000165079
0.00059201 -1.09827e-05 1.28459e-06
-1.09827e-05 7.76206e-05 -1.42843e-07
1.28459e-06 -1.42843e-07 -7.76383e-06
0.000672051 -8.66669e-05 -1.43608e-06
-8.66669e-05 0.000136517 1.3296e-06
-1.43608e-06 1.3296e-06 4.17274e-05
0.0005874 -4.57403e-05 6.86891e-08
-4.57403e-05 8.07203e-05 4.29954e-07
6.86891e-08 4.29954e-07 -2.30621e-05
0.000633538 6.51912e-05 -2.14727e-06
6.51912e-05 0.000133965 2.12224e-06
-2.14727e-06 2.12224e-06 1.29848e-05
0.00043859 0.000114358 1.9783e-06
0.000114358 -2.38089e-05 5.50548e-06
1.9783e-06 5.50548e-06 -0.00013591
0.000937118 -1.74945e-05 3.60264e-06
-1.74945e-05 0.000312961 1.66533e-06
3.60264e-06 1.66533e-06 0.000190673
0.000509239 -2.46271e-05 -1.45875e-06
-2.46271e-05 3.63415e-05 1.14788e-06
-1.45875e-06 1.14788e-06 -6.77939e-05
0.00237658 -0.000234084 4.89671e-06
-0.000234084 8.20011e-05 -4.93419e-08
4.89671e-06 -4.93419e-08 0.000166929
0.00183372 -0.000392374 1.20681e-05
-0.000392374 -0.000307099 -4.81338e-06
1.20681e-05 -4.81338e-06 -0.000178564
0.00196456 -0.000616876 5.44262e-06
-0.000616876 3.04651e-05 8.9022e-07
5.44262e-06 8.9022e-07 -0.000106041
0.00165037 -0.000598248 2.16341e-05
-0.000598248 0.000455514 4.75768e-07
2.16341e-05 4.75768e-07 8.51764e-05
0.00190573 -0.000732395 3.08591e-06
-0.000732395 0.000282501 5.6543e-06
3.08591e-06 5.6543e-06 1.8992e-05
0.00326837 -0.000852004 1.56488e-05
-0.000852004 0.00169618 2.02126e-06
1.56488e-05 2.02126e-06 0.00108725
0.00298709 -0.000432135 2.5332e-06
-0.000432135 0.00142256 -3.38142e-06
2.5332e-06 -3.38142e-06 0.00109024
0.000552536 -0.000136459 8.45293e-06
-0.000136459 5.03947e-05 -1.28395e-05
8.45293e-06 -1.28395e-05 -0.000137058
0.000560754 -4.7659e-05 -6.77183e-07
-4.7659e-05 3.59788e-05 4.00056e-06
-6.77183e-07 4.00056e-06 -6.30548e-05
0.000672531 -8.21819e-05 5.93752e-06
-8.21819e-05 0.000111006 -1.67669e-05
5.93752e-06 -1.67669e-05 -2.14546e-05
0.000944843 -3.11591e-05 1.99816e-06
-3.11591e-05 0.000307868 -2.10877e-07
1.99816e-06 -2.10877e-07 0.000188642
0.000580699 5.13711e-05 1.91183e-06
5.13711e-05 7.72578e-05 1.63277e-06
1.91183e-06 1.63277e-06 1.36243e-05
0.00215403 -0.000307463 -1.46743e-06
-0.000307463 -7.47589e-05 3.06097e-06
-1.46743e-06 3.06097e-06 0.000108437
0.000556862 -1.41173e-05 -1.97063e-06
-1.41173e-05 9.38095e-05 -9.68947e-07
-1.97063e-06 -9.68947e-07 -3.05867e-05
0.000944068 -0.000136318 -4.84807e-06
-0.000136318 0.000295102 5.14682e-06
-4.84807e-06 5.14682e-06 0.000163608
0.00172773 -0.000487783 4.46398e-06
-0.000487783 -0.000196889 -1.84802e-06
4.46398e-06 -1.84802e-06 -0.000147259
0.00166467 -0.000677045 5.25576e-07
-0.000677045 -7.99888e-06 -8.47689e-07
5.25576e-07 -8.47689e-07 -0.000208947
0.00089546 -0.000565244 -5.72612e-07
-0.000565244 -9.80808e-05 -1.25351e-06
-5.72612e-07 -1.25351e-06 -0.000342253
0.00137546 -0.00023481 8.33713e-07
-0.00023481 0.000670163 -1.14008e-05
8.33713e-07 -1.14008e-05 0.00040085
0.0013509 -0.000472471 -2.27024e-06
-0.000472471 0.000933186 2.45431e-06
-2.27024e-06 2.45431e-06 0.000281415
0.003396 -0.000498489 -3.80769e-05
-0.000498489 0.000510539 7.47815e-06
-3.80769e-05 7.47815e-06 0.000621704
0.00341416 -0.000733739 -4.48994e-05
-0.000733739 0.000916336 1.36049e-05
-4.48994e-05 1.36049e-05 0.000824008
0.00213414 -0.000783815 -8.6081e-06
-0.000783815 0.00033257 9.91567e-07
-8.6081e-06 9.91567e-07 0.000125263
-5.54386e-05 -0.000386483 -1.58974e-05
-0.000386483 -0.000398057 1.46728e-05
-1.58974e-05 1.46728e-05 -0.000590221
0.000559672 -0.000141359 1.95869e-06
-0.000141359 0.000106919 4.77857e-06
1.95869e-06 4.77857e-06 -6.02893e-05
0.00052246 -0.000140468 3.93669e-06
-0.000140468 0.000126488 9.16276e-07
3.93669e-06 9.16276e-07 -6.47853e-05
0.00147986 -0.000167217 -2.01634e-06
-0.000167217 0.000974328 -1.05307e-05
-2.01634e-06 -1.05307e-05 0.000461085
-0.00614592 -0.000209655 0.000369339
-0.000209655 -0.00457174 1.5027e-06
0.000369339 1.5027e-06 -0.00330087
0.010817 -0.00021495 3.62888e-05
-0.00021495 0.00219785 3.45816e-06
3.62888e-05 3.45816e-06 0.00175952
0.00152514 0.000207852 7.78773e-06
0.000207852 0.000636325 -6.25932e-06
7.78773e-06 -6.25932e-06 0.000462491
0.00130211 0.000381291 -1.33723e-06
0.000381291 0.000338258 2.75152e-06
-1.33723e-06 2.75152e-06 6.9111e-05
0.00153362 0.000409797 6.58002e-05
0.000409797 -0.000163006 3.10304e-05
6.58002e-05 3.10304e-05 -0.000168518
0.00276164 0.000745768 2.48267e-05
0.000745768 0.000671689 7.62364e-06
2.48267e-05 7.62364e-06 0.000433135
0.00267506 0.000647245 1.66852e-05
0.000647245 0.000999776 4.67248e-06
1.66852e-05 4.67248e-06 0.000634463
0.0131667 0.000698876 6.9711e-05
0.000698876 0.00307499 8.13755e-06
6.9711e-05 8.13755e-06 0.00201499
0.00800505 0.00153005 -0.000189498
0.00153005 0.000323071 1.61919e-05
-0.000189498 1.61919e-05 0.000381824
0.00225542 0.00083247 5.0658e-06
0.00083247 0.000474594 -2.66527e-05
5.0658e-06 -2.66527e-05 2.85119e-06
0.011389 -0.00256266 -0.000277221
-0.00256266 0.00493103 -1.22936e-05
-0.000277221 -1.22936e-05 0.00339471
-0.00365039 -0.00511143 -0.00144802
-0.00511143 -0.00061103 -0.00102417
-0.00144802 -0.00102417 -0.000853333
0.000993291 0.000259892 4.42406e-07
0.000259892 0.00033622 3.20252e-07
4.42406e-07 3.20252e-07 0.000136235
-0.0024298 -0.00147481 0.000271054
-0.00147481 -0.00266357 4.76731e-05
0.000271054 4.76731e-05 -0.00355256
-0.00338065 -0.00110506 -0.000293374
-0.00110506 0.00312828 -0.000142684
-0.000293374 -0.000142684 -0.000647587
0.00304691 0.000748785 -1.62905e-05
0.000748785 0.000666881 -7.10139e-07
-1.62905e-05 -7.10139e-07 0.000617354
0.000990271 0.000324264 -5.43352e-06
0.000324264 0.000166676 3.77832e-06
-5.43352e-06 3.77832e-06 -9.14532e-05
0.00153568 0.000630977 4.58203e-06
0.000630977 0.000388627 2.27343e-06
4.58203e-06 2.27343e-06 5.97183e-05
0.00143087 0.000763351 3.20669e-05
0.000763351 0.000136662 2.09227e-05
3.20669e-05 2.09227e-05 -5.59558e-06
0.0127558 0.00137553 -0.000108954
0.00137553 0.00178025 -5.93872e-05
-0.000108954 -5.93872e-05 -0.000146383
0.00553334 0.00215138 -6.85445e-05
0.00215138 0.000686415 -4.34686e-05
-6.85445e-05 -4.34686e-05 0.000378697
0.015102 -0.00318258 0.000294506
-0.00318258 0.00619621 -2.67986e-05
0.000294506 -2.67986e-05 0.00483902
0.00989022 -0.00274294 0.000197071
-0.00274294 0.000331983 0.000515585
0.000197071 0.000515585 0.000151835
0.00216388 0.000297294 -1.86983e-05
0.000297294 0.00102127 -1.19144e-05
-1.86983e-05 -1.19144e-05 0.000849531
-0.00916372 0.000758938 -0.000114241
0.000758938 0.00210946 -0.000104181
-0.000114241 -0.000104181 -0.00250558
0.0041043 0.000565231 -0.000266303
0.000565231 0.00279462 -0.00034936
-0.000266303 -0.00034936 -0.00118512
0.00204516 0.00060344 -2.46677e-05
0.00060344 0.000371182 9.35634e-06
-2.46677e-05 9.35634e-06 0.000383771
0.00191872 0.000564333 -6.26237e-05
0.000564333 0.000754452 -2.37682e-05
-6.26237e-05 -2.37682e-05 0.000475857
0.00165451 0.00060485 -6.2853e-05
0.00060485 0.00110663 -1.33371e-05
-6.2853e-05 -1.33371e-05 0.000534165
0.000244811 0.00134215 -6.2523e-05
0.00134215 -0.000235871 -3.17579e-05
-6.2523e-05 -3.17579e-05 -0.000420469
-0.000668156 0.00164592 0.000258722
0.00164592 -0.00147572 0.000131468
0.000258722 0.000131468 -0.00450621
0.0143347 -0.00382395 0.000221484
-0.00382395 0.00616765 0.000483542
0.000221484 0.000483542 0.00422423
0.00710856 -0.001223 -9.87966e-05
-0.001223 -0.00204519 -9.85152e-05
-9.87966e-05 -9.85152e-05 -0.000871656
-0.000255603 0.000106422 2.56263e-06
0.000106422 -0.000355317 -5.18875e-06
2.56263e-06 -5.18875e-06 -0.000475458
0.00130403 0.000209818 8.91791e-06
0.000209818 0.000547994 3.69765e-06
8.91791e-06 3.69765e-06 0.000402775
-0.00014514 8.40649e-05 3.21669e-06
8.40649e-05 -0.000254632 -1.10751e-05
3.21669e-06 -1.10751e-05 -0.00040026
0.000375782 5.01091e-05 1.81619e-06
5.01091e-05 -5.4545e-05 -7.16685e-07
1.81619e-06 -7.16685e-07 -0.000172032
0.000806796 6.03196e-05 -7.26801e-07
6.03196e-05 0.000226204 -1.56432e-06
-7.26801e-07 -1.56432e-06 7.01226e-05
0.000677297 -2.76958e-06 -1.32697e-06
-2.76958e-06 0.000144465 1.74854e-06
-1.32697e-06 1.74854e-06 -4.37624e-06
0.000695105 2.54428e-05 4.69742e-06
2.54428e-05 0.000155911 1.68872e-07
4.69742e-06 1.68872e-07 4.20967e-06
0.00031527 6.94713e-05 -2.38786e-06
6.94713e-05 -6.00976e-05 1.52985e-06
-2.38786e-06 1.52985e-06 -0.000192397
0.000745469 4.54433e-05 1.21125e-07
4.54433e-05 0.000192784 -8.86073e-07
1.21125e-07 -8.86073e-07 3.91194e-05
0.000784262 6.5719e-05 6.18895e-07
6.5719e-05 0.000209596 8.36949e-09
6.18895e-07 8.36949e-09 6.72482e-05
0.000792291 -5.29915e-05 -8.75601e-07
-5.29915e-05 0.000203622 1.29677e-06
-8.75601e-07 1.29677e-06 5.53044e-05
-0.000340434 2.94503e-05 1.28228e-06
2.94503e-05 -0.000379742 8.82212e-07
1.28228e-06 8.82212e-07 -0.000537004
-0.000843833 2.5642e-05 -1.61398e-06
2.5642e-05 -0.000440962 3.14843e-06
-1.61398e-06 3.14843e-06 -0.000720415
0.000852985 -9.36459e-06 -4.49825e-06
-9.36459e-06 0.00027171 -6.28578e-06
-4.49825e-06 -6.28578e-06 0.000129783
0.000921873 -7.3377e-06 7.42779e-08
-7.3377e-06 0.000305572 -6.7567e-07
7.42779e-08 -6.7567e-07 0.000135603
0.000788382 -6.55507e-05 -3.60874e-07
-6.55507e-05 0.000222431 -9.75e-07
-3.60874e-07 -9.75e-07 6.49353e-05
0.000759208 -5.7664e-05 1.54502e-06
-5.7664e-05 0.000166375 3.95984e-06
1.54502e-06 3.95984e-06 4.53252e-05
0.000783951 -5.56261e-05 9.00485e-07
-5.56261e-05 0.000210832 -1.10424e-06
9.00485e-07 -1.10424e-06 5.34618e-05
0.00073872 -1.63092e-05 -1.20697e-06
-1.63092e-05 0.000168588 -1.32942e-08
-1.20697e-06 -1.32942e-08 4.18057e-05
0.000104975 -5.97826e-05 1.12591e-06
-5.97826e-05 -0.000209802 2.37887e-06
1.12591e-06 2.37887e-06 -0.00031679
0.000412136 -1.53015e-05 1.76627e-06
-1.53015e-05 -2.05578e-05 8.24281e-08
1.76627e-06 8.24281e-08 -0.000149694
0.000238715 -4.9488e-06 -4.77792e-06
-4.9488e-06 -0.00010257 -4.44169e-06
-4.77792e-06 -4.44169e-06 -0.000242549
0.000141639 -5.72531e-05 2.94916e-06
-5.72531e-05 -0.000158989 -3.30308e-06
2.94916e-06 -3.30308e-06 -0.000273368
0.000918781 -7.28376e-05 5.31484e-06
-7.28376e-05 0.000202173 -1.07982e-05
5.31484e-06 -1.07982e-05 0.000103845
-0.00025949 -3.01029e-05 5.5942e-08
-3.01029e-05 -0.000505307 2.28826e-06
5.5942e-08 2.28826e-06 -0.000645149
0.000107184 -2.66597e-05 -3.2977e-06
-2.66597e-05 -0.000219264 -1.6938e-06
-3.2977e-06 -1.6938e-06 -0.000349556
0.000746132 -4.51415e-05 5.48148e-07
-4.51415e-05 0.000150074 -2.62544e-07
5.48148e-07 -2.62544e-07 1.92369e-05
0.00041266 -3.41516e-05 4.20783e-07
-3.41516e-05 -3.94507e-05 1.90612e-07
4.20783e-07 1.90612e-07 -0.000164771
0.000711755 -6.81206e-05 4.30535e-07
-6.81206e-05 0.000168837 6.18812e-08
4.30535e-07 6.18812e-08 3.39138e-05
0.000509049 -1.22257e-05 3.89378e-07
-1.22257e-05 1.8295e-05 1.51599e-06
3.89378e-07 1.51599e-06 -8.60513e-05
0.000869486 -6.07545e-05 -1.54053e-06
-6.07545e-05 0.000264854 2.42121e-07
-1.54053e-06 2.42121e-07 0.000132181
0.000637529 -6.41958e-05 -8.55612e-07
-6.41958e-05 0.000100629 4.11275e-08
-8.55612e-07 4.11275e-08 -6.31016e-06
0.000483373 3.61629e-05 -7.42885e-07
3.61629e-05 -1.96718e-05 3.02012e-06
-7.42885e-07 3.02012e-06 -8.82039e-05
0.000483285 -8.57579e-05 1.99227e-06
-8.57579e-05 1.65794e-06 -9.00196e-07
1.99227e-06 -9.00196e-07 -0.00010735
0.00055138 -2.15531e-05 -3.88888e-07
-2.15531e-05 2.08033e-05 7.64945e-08
-3.88888e-07 7.64945e-08 -4.47341e-05
0.00141111 9.94449e-06 -5.97785e-06
9.94449e-06 0.000522177 6.3764e-06
-5.97785e-06 6.3764e-06 0.000505219
0.000539225 -4.40573e-05 1.45141e-06
-4.40573e-05 2.02988e-05 -2.72575e-06
1.45141e-06 -2.72575e-06 -4.72752e-05
0.000905819 -5.28721e-06 -3.83396e-06
-5.28721e-06 0.000217265 7.14862e-07
-3.83396e-06 7.14862e-07 0.000199279
0.000757391 1.38715e-05 5.89022e-07
1.38715e-05 0.000115745 2.08251e-06
5.89022e-07 2.08251e-06 0.000121491
0.000480915 -6.62252e-06 1.51686e-06
-6.62252e-06 -4.00342e-05 -4.16337e-06
1.51686e-06 -4.16337e-06 -5.93784e-05
0.00247035 1.38345e-05 5.69217e-06
1.38345e-05 0.00116853 5.22479e-08
5.69217e-06 5.22479e-08 0.00118244
0.00246952 2.06049e-06 -4.65192e-07
2.06049e-06 0.00116796 -5.11158e-06
-4.65192e-07 -5.11158e-06 0.00118191
0.000994184 7.36856e-05 -4.77811e-07
7.36856e-05 0.000321649 -1.16128e-07
-4.77811e-07 -1.16128e-07 0.000230931
0.000544525 4.95651e-05 -1.31007e-06
4.95651e-05 1.75295e-05 -2.13565e-06
-1.31007e-06 -2.13565e-06 -2.86518e-05
0.000587858 -1.30377e-05 3.77263e-07
-1.30377e-05 7.87446e-05 8.47819e-07
3.77263e-07 8.47819e-07 -1.14371e-05
0.000536522 4.70934e-06 7.84654e-07
4.70934e-06 -2.41698e-05 -3.22851e-06
7.84654e-07 -3.22851e-06 -3.18884e-05
0.000526076 -1.52619e-05 3.73652e-07
-1.52619e-05 2.46757e-06 -6.30841e-08
3.73652e-07 -6.30841e-08 -4.01019e-05
0.0005702 -4.72262e-05 -1.53516e-06
-4.72262e-05 2.87124e-05 1.29528e-06
-1.53516e-06 1.29528e-06 -1.5867e-05
0.000526074 7.52565e-06 -3.5248e-07
7.52565e-06 -3.07532e-05 -2.55841e-08
-3.5248e-07 -2.55841e-08 -3.85705e-05
0.00198447 1.80639e-05 1.35059e-06
1.80639e-05 0.000868391 -4.60709e-06
1.35059e-06 -4.60709e-06 0.000886545
0.00110414 2.19462e-05 -7.49007e-07
2.19462e-05 0.000324302 1.80798e-06
-7.49007e-07 1.80798e-06 0.000319163
0.0013477 2.6263e-05 -1.48285e-07
2.6263e-05 0.000478523 -1.21459e-08
-1.48285e-07 -1.21459e-08 0.000492414
0.000824555 3.115e-05 -1.10925e-05
3.115e-05 0.000161874 7.00743e-06
-1.10925e-05 7.00743e-06 0.000170242
-0.00932535 0.000748164 0.000311786
0.000748164 -0.00372332 -2.09416e-06
0.000311786 -2.09416e-06 -0.00550462
-0.00235981 -0.000105598 0.000570274
-0.000105598 0.00399177 -0.000127246
0.000570274 -0.000127246 0.00131231
0.00377334 0.000258428 -0.000203987
0.000258428 -0.000789534 -2.27455e-05
-0.000203987 -2.27455e-05 0.000216094
0.000789241 4.92203e-05 2.30008e-05
4.92203e-05 -0.00116736 -3.19336e-05
2.30008e-05 -3.19336e-05 -0.000918493
0.00154081 -4.93746e-05 1.26999e-05
-4.93746e-05 -0.000235064 7.55695e-06
1.26999e-05 7.55695e-06 -0.000227726
-0.000712846 5.44969e-05 -5.21418e-05
5.44969e-05 -0.00107421 -1.5691e-05
-5.21418e-05 -1.5691e-05 -0.000594154
0.00333716 -0.000227435 -7.14553e-07
-0.000227435 0.000447622 4.83445e-06
-7.14553e-07 4.83445e-06 0.000465924
0.0105824 2.54627e-05 0.000117143
2.54627e-05 0.000390219 -4.34946e-05
0.000117143 -4.34946e-05 -0.000613453
-0.00152719 0.00214397 -8.88388e-06
0.00214397 -1.65377e-05 -3.86362e-05
-8.88388e-06 -3.86362e-05 -0.00233518
0.00411613 0.00426107 -0.00029569
0.00426107 0.00363718 0.000159361
-0.00029569 0.000159361 0.00323672
0.00217412 -0.000449449 7.22295e-05
-0.000449449 -0.00118532 -2.93924e-05
7.22295e-05 -2.93924e-05 -0.000666197
0.0143342 -0.00117897 0.000161436
-0.00117897 0.002691 -5.19774e-05
0.000161436 -5.19774e-05 0.00105189
0.00834599 0.00413368 0.00027926
0.00413368 0.00186372 -0.000424502
0.00027926 -0.000424502 0.000930496
0.0123611 0.0027415 -0.00029203
0.0027415 0.00282092 0.000203146
-0.00029203 0.000203146 0.00191941
0.000795263 0.000122003 -2.14748e-06
0.000122003 0.00023719 2.73527e-06
-2.14748e-06 2.73527e-06 9.14303e-05
0.000419753 2.62367e-05 2.14563e-08
2.62367e-05 -2.37387e-05 -8.83722e-07
2.14563e-08 -8.83722e-07 -0.000120164
0.000611305 -9.35329e-05 -4.25672e-07
-9.35329e-05 9.62293e-05 6.53657e-07
-4.25672e-07 6.53657e-07 5.95158e-06
0.000567755 -4.04747e-06 2.48221e-06
-4.04747e-06 7.61106e-05 -1.0111e-06
2.48221e-06 -1.0111e-06 -3.20894e-05
0.000604664 5.8675e-05 1.44245e-06
5.8675e-05 0.000121708 1.31884e-06
1.44245e-06 1.31884e-06 -4.01909e-07
0.000631495 2.74455e-05 9.16995e-07
2.74455e-05 0.000134687 5.46233e-06
9.16995e-07 5.46233e-06 -1.05063e-05
0.00074404 9.28909e-05 1.23869e-06
9.28909e-05 0.00018042 2.28011e-06
1.23869e-06 2.28011e-06 5.52087e-05
0.000543235 4.02792e-05 4.92621e-06
4.02792e-05 4.35053e-05 8.85952e-07
4.92621e-06 8.85952e-07 -8.30938e-05
0.00072939 -3.39447e-05 2.1454e-06
-3.39447e-05 0.000186426 -1.04022e-06
2.1454e-06 -1.04022e-06 6.30338e-05
0.000501436 -8.3631e-06 7.25213e-08
-8.3631e-06 1.78951e-05 -1.17358e-06
7.25213e-08 -1.17358e-06 -8.05573e-05
0.00165293 -0.000278589 2.1717e-05
-0.000278589 -0.00027097 -2.33612e-06
2.1717e-05 -2.33612e-06 -0.000113946
0.00103699 -0.000445765 3.27703e-05
-0.000445765 -0.000576016 -8.55355e-06
3.27703e-05 -8.55355e-06 -0.000504307
0.000586513 -0.000559016 1.2684e-05
-0.000559016 -0.000597455 -1.21594e-06
1.2684e-05 -1.21594e-06 -0.000736823
-6.13522e-05 -0.000477708 6.40251e-06
-0.000477708 -0.000617712 2.15631e-06
6.40251e-06 2.15631e-06 -0.00085001
0.00312098 -0.000513882 5.97883e-06
-0.000513882 0.00184347 2.16165e-05
5.97883e-06 2.16165e-05 0.00128328
0.000563124 -0.000327069 6.69725e-06
-0.000327069 0.000175801 -4.31085e-06
6.69725e-06 -4.31085e-06 -0.00014174
0.00141182 -0.000168993 8.06608e-07
-0.000168993 0.000560424 -9.20177e-07
8.06608e-07 -9.20177e-07 0.000442781
0.000812919 -2.7535e-05 -2.64148e-06
-2.7535e-05 0.000247105 2.43592e-06
-2.64148e-06 2.43592e-06 0.000122181
0.00223905 -0.000410629 1.19329e-05
-0.000410629 -4.23709e-05 -6.15094e-06
1.19329e-05 -6.15094e-06 9.49743e-05
0.000541137 -6.59612e-05 -1.07006e-07
-6.59612e-05 9.85208e-05 1.2196e-07
-1.07006e-07 1.2196e-07 -7.69282e-05
2.7093e-07 -0.000127226 9.90847e-07
-0.000127226 -0.000176631 -2.95797e-06
9.90847e-07 -2.95797e-06 -0.00036867
0.00197775 -0.000623811 1.09965e-05
-0.000623811 0.000133466 -1.69325e-06
1.09965e-05 -1.69325e-06 8.49412e-05
0.00180288 -0.000770325 3.54083e-07
-0.000770325 8.37659e-05 4.42258e-06
3.54083e-07 4.42258e-06 -7.37482e-05
0.000174655 -0.00046745 1.29178e-05
-0.00046745 -0.000260528 -8.46938e-06
1.29178e-05 -8.46938e-06 -0.000499711
0.00135865 -0.000234555 -3.53777e-07
-0.000234555 0.000887789 -9.56009e-06
-3.53777e-07 -9.56009e-06 0.000386718
0.00230152 -0.000628132 -5.8261e-05
-0.000628132 0.000452783 1.57662e-05
-5.8261e-05 1.57662e-05 0.000134578
0.00164666 -0.000609551 -4.34583e-05
-0.000609551 0.000178853 1.24602e-05
-4.34583e-05 1.24602e-05 0.00010737
0.00112801 -0.000455806 -6.39714e-05
-0.000455806 0.000537488 3.88829e-05
-6.39714e-05 3.88829e-05 0.000197741
-0.00163195 -0.000115072 -7.3028e-07
-0.000115072 -0.00118844 6.40694e-06
-7.3028e-07 6.40694e-06 -0.001368
-9.66007e-05 -0.000110578 4.32763e-06
-0.000110578 -0.000234645 4.70222e-06
4.32763e-06 4.70222e-06 -0.000445348
0.000763603 -6.41779e-05 6.77464e-06
-6.41779e-05 0.000368988 -4.96101e-07
6.77464e-06 -4.96101e-07 5.86048e-05
-0.00131968 0.000719623 -0.000260759
0.000719623 0.00557608 1.33484e-05
-0.000260759 1.33484e-05 0.00231225
0.00117591 -0.000889391 2.94638e-06
-0.000889391 0.00168983 2.42267e-05
2.94638e-06 2.42267e-05 0.00151869
0.00153536 0.00096315 -8.0562e-05
0.00096315 -0.00414002 -2.75426e-05
-8.0562e-05 -2.75426e-05 -0.00445299
0.00019109 0.000187384 6.82404e-06
0.000187384 -0.000125542 -1.14645e-06
6.82404e-06 -1.14645e-06 -0.000316622
0.00137005 0.000431807 9.38552e-06
0.000431807 0.000410411 1.58892e-05
9.38552e-06 1.58892e-05 0.000115279
0.00365831 0.000690914 5.15599e-05
0.000690914 0.00101073 1.35279e-05
5.15599e-05 1.35279e-05 0.000959843
0.0018394 0.000683294 2.12306e-05
0.000683294 0.000561581 1.89269e-05
2.12306e-05 1.89269e-05 0.000211515
0.00974213 -0.00168285 0.000121646
-0.00168285 0.0032706 4.11017e-05
0.000121646 4.11017e-05 0.00327323
0.00359034 0.000567905 -0.000270371
0.000567905 -0.00300134 -2.49176e-05
-0.000270371 -2.49176e-05 -0.00495443
0.00407175 0.00197812 -2.89562e-05
0.00197812 -0.000139276 6.50087e-06
-2.89562e-05 6.50087e-06 -0.000292211
0.00228784 0.000638636 4.03832e-05
0.000638636 0.000842428 -2.63521e-05
4.03832e-05 -2.63521e-05 0.00074425
-0.000913867 -0.00206751 -0.00026841
-0.00206751 0.000541569 -0.000254187
-0.00026841 -0.000254187 -0.00111809
-0.000852602 -0.00178985 -0.000317842
-0.00178985 0.00329354 -0.000106517
-0.000317842 -0.000106517 -0.000541352
0.0157156 -0.0034511 0.000410426
-0.0034511 0.00340626 0.00026061
0.000410426 0.00026061 0.00329474
0.000635184 0.000190523 1.16904e-05
0.000190523 0.000139583 -3.33741e-06
1.16904e-05 -3.33741e-06 -3.20289e-05
-0.00345351 0.000286623 -0.000136779
0.000286623 0.00376035 -3.06336e-05
-0.000136779 -3.06336e-05 -0.0001077
0.00450432 0.000682243 -5.01743e-05
0.000682243 0.00254117 -0.00012616
-5.01743e-05 -0.00012616 -0.00170552
0.00164039 0.000600965 -1.2466e-06
0.000600965 0.00023107 5.39891e-06
-1.2466e-06 5.39891e-06 0.000183548
0.000415439 0.000408374 8.23629e-06
0.000408374 1.12273e-05 3.48021e-06
8.23629e-06 3.48021e-06 -0.000280356
2.81685e-06 0.00058106 -1.30658e-05
0.00058106 6.36797e-05 -4.96685e-05
-1.30658e-05 -4.96685e-05 -0.00035828
0.00370221 0.00204692 -1.83936e-06
0.00204692 0.0011738 9.74901e-06
-1.83936e-06 9.74901e-06 0.000797802
0.0155844 0.00217034 7.97217e-05
0.00217034 0.00465643 2.4464e-05
7.97217e-05 2.4464e-05 0.00255085
0.00588174 -0.00243968 6.08355e-05
-0.00243968 0.00107443 -6.32459e-05
6.08355e-05 -6.32459e-05 -0.00126613
0.0124414 -0.00182846 -3.14781e-06
-0.00182846 0.00166447 -5.56521e-05
-3.14781e-06 -5.56521e-05 0.00298544
0.000108353 0.000246434 -4.38397e-06
0.000246434 -0.000119872 -1.41622e-05
-4.38397e-06 -1.41622e-05 -0.000300984
0.00249307 0.000162682 -0.000216144
0.000162682 0.00150107 -4.27893e-05
-0.000216144 -4.27893e-05 -0.00162527
0.000206368 0.000314284 -5.47448e-05
0.000314284 -0.000141265 -0.000134872
-5.47448e-05 -0.000134872 -0.00164717
-0.000899715 0.000179371 -3.85503e-06
0.000179371 -0.000364968 -2.26413e-05
-3.85503e-06 -2.26413e-05 -0.000562356
6.52509e-05 0.000362906 -8.94927e-05
0.000362906 0.00102688 1.82954e-05
-8.94927e-05 1.82954e-05 0.00025294
0.0121339 0.0027358 5.82208e-05
0.0027358 0.00436416 -9.22823e-06
5.82208e-05 -9.22823e-06 0.000750945
-0.00523261 -0.00349026 -1.71657e-05
-0.00349026 -0.00203385 0.000200029
-1.71657e-05 0.000200029 -0.00540041
0.0100144 0.000568949 4.25153e-05
0.000568949 -0.00140391 -0.000256148
4.25153e-05 -0.000256148 0.00112948
0.000927192 0.000164752 -7.15019e-07
0.000164752 0.000300007 1.21694e-05
-7.15019e-07 1.21694e-05 0.000166579
0.000961526 0.000189883 -8.12934e-06
0.000189883 0.00041168 -1.88393e-06
-8.12934e-06 -1.88393e-06 0.000249115
0.000323669 0.000121857 1.11115e-06
0.000121857 0.000209643 -6.28617e-06
1.11115e-06 -6.28617e-06 -4.47087e-05
0.000722486 8.17537e-05 -1.86719e-06
8.17537e-05 0.000165691 -1.87228e-06
-1.86719e-06 -1.87228e-06 2.14091e-05
0.000931037 -3.82335e-05 -7.59434e-07
-3.82335e-05 0.000293808 2.66234e-06
-7.59434e-07 2.66234e-06 0.000139023
0.000623348 6.22027e-05 2.61448e-06
6.22027e-05 0.000104951 1.9273e-06
2.61448e-06 1.9273e-06 -3.18343e-05
-0.000703935 1.69344e-05 2.13678e-06
1.69344e-05 -0.000571251 2.35117e-06
2.13678e-06 2.35117e-06 -0.000733445
0.000782495 -1.93509e-05 1.16634e-06
-1.93509e-05 0.000199103 1.6216e-07
1.16634e-06 1.6216e-07 4.60006e-05
0.000739382 2.11368e-05 -3.79223e-08
2.11368e-05 0.00020786 -1.94397e-06
-3.79223e-08 -1.94397e-06 6.14061e-05
-0.000120997 -9.94471e-06 2.39029e-07
-9.94471e-06 -1.83906e-05 2.19535e-06
2.39029e-07 2.19535e-06 -0.000291142
-0.000904141 1.84663e-05 -1.81306e-06
1.84663e-05 -0.000232201 5.79709e-06
-1.81306e-06 5.79709e-06 -0.000648134
0.000197567 8.91264e-06 -2.7809e-06
8.91264e-06 0.000168911 -3.85572e-06
-2.7809e-06 -3.85572e-06 -0.000104826
0.000857759 2.37761e-05 -1.24291e-06
2.37761e-05 0.00026074 -5.30075e-06
-1.24291e-06 -5.30075e-06 0.000115998
0.000862881 -0.000127531 1.18362e-06
-0.000127531 0.000244834 1.04544e-06
1.18362e-06 1.04544e-06 9.5734e-05
0.000669889 -1.16911e-05 -9.57152e-07
-1.16911e-05 0.000117292 9.78268e-07
-9.57152e-07 9.78268e-07 -5.1154e-06
0.000541519 -7.94264e-05 5.35286e-07
-7.94264e-05 6.49597e-05 7.75155e-06
5.35286e-07 7.75155e-06 -3.70856e-05
0.000375019 -3.15748e-05 1.94198e-06
-3.15748e-05 -3.40681e-05 2.5856e-06
1.94198e-06 2.5856e-06 -0.000163979
0.00065702 -2.60282e-05 6.91367e-07
-2.60282e-05 0.00012433 7.83717e-08
6.91367e-07 7.83717e-08 -4.8187e-06
0.00054305 -4.19641e-05 -1.78801e-07
-4.19641e-05 7.80879e-05 -1.2624e-06
-1.78801e-07 -1.2624e-06 -3.37933e-05
0.000858887 -4.68046e-05 -3.24049e-06
-4.68046e-05 0.00024131 -5.01218e-06
-3.24049e-06 -5.01218e-06 0.000128005
0.000272255 -4.7904e-05 5.28782e-06
-4.7904e-05 2.24529e-05 -6.38114e-06
5.28782e-06 -6.38114e-06 -0.000109177
0.000119096 -0.000117136 4.61027e-07
-0.000117136 -0.000347185 8.15642e-07
4.61027e-07 8.15642e-07 -0.000437455
0.000814205 -0.000114132 -5.82008e-06
-0.000114132 0.000152789 -5.71627e-07
-5.82008e-06 -5.71627e-07 4.56764e-05
0.000233542 -0.000121282 6.1779e-06
-0.000121282 -0.000193793 3.96955e-06
6.1779e-06 3.96955e-06 -0.000340558
0.00144896 -0.000335231 2.02774e-06
-0.000335231 0.00045965 1.16455e-05
2.02774e-06 1.16455e-05 0.000202
0.00167363 -0.000176192 1.26375e-06
-0.000176192 0.000720322 -3.04243e-06
1.26375e-06 -3.04243e-06 0.00055538
3.56081e-05 -7.30153e-05 -5.41865e-06
-7.30153e-05 -0.000293127 -4.94557e-06
-5.41865e-06 -4.94557e-06 -0.000433171
0.000576671 -4.64361e-05 -1.12951e-07
-4.64361e-05 4.60911e-05 2.50199e-07
-1.12951e-07 2.50199e-07 -8.40714e-05
9.37215e-05 -3.21346e-05 -6.45333e-07
-3.21346e-05 -0.000226991 -7.9426e-07
-6.45333e-07 -7.9426e-07 -0.000360354
0.000892516 -7.06048e-05 -1.16617e-06
-7.06048e-05 0.000233586 1.1781e-06
-1.16617e-06 1.1781e-06 0.000100947
0.000764292 -8.33301e-05 -8.15047e-07
-8.33301e-05 0.000187872 5.79685e-07
-8.15047e-07 5.79685e-07 4.96632e-05
0.000602544 -4.49484e-05 -1.82389e-07
-4.49484e-05 6.19259e-05 1.58528e-06
-1.82389e-07 1.58528e-06 -4.21777e-05
0.00109703 -0.000115376 -7.43664e-07
-0.000115376 0.000421402 -9.99902e-07
-7.43664e-07 -9.99902e-07 0.000268438
0.000659004 -7.84989e-05 -4.72006e-07
-7.84989e-05 0.000110379 -3.41423e-08
-4.72006e-07 -3.41423e-08 1.97112e-06
0.000532464 1.75812e-05 -2.05627e-06
1.75812e-05 7.23292e-06 2.57794e-06
-2.05627e-06 2.57794e-06 -6.19484e-05
0.000715742 -0.00010914 1.59188e-06
-0.00010914 0.000150447 -1.80135e-06
1.59188e-06 -1.80135e-06 3.94779e-05
0.00060654 -3.49896e-05 -2.37398e-07
-3.49896e-05 5.10054e-05 1.02242e-07
-2.37398e-07 1.02242e-07 -1.60086e-05
0.00142336 1.70185e-05 -1.0078e-05
1.70185e-05 0.000526813 6.56804e-06
-1.0078e-05 6.56804e-06 0.000508378
0.000566413 -5.18824e-05 2.30098e-06
-5.18824e-05 3.5179e-05 -2.85651e-06
2.30098e-06 -2.85651e-06 -3.38418e-05
0.000915364 2.18872e-06 -4.90216e-06
2.18872e-06 0.00021906 6.60722e-07
-4.90216e-06 6.60722e-07 0.000199734
0.000776134 2.30019e-05 5.57406e-07
2.30019e-05 0.000126699 2.46105e-06
5.57406e-07 2.46105e-06 0.00013045
0.000489932 -9.63807e-06 1.0742e-06
-9.63807e-06 -3.86323e-05 -4.37211e-06
1.0742e-06 -4.37211e-06 -5.85858e-05
0.00161033 2.32884e-05 7.4462e-06
2.32884e-05 0.000640623 -1.47646e-06
7.4462e-06 -1.47646e-06 0.000650303
0.00244193 1.54408e-05 6.28087e-06
1.54408e-05 0.0011508 -5.09442e-06
6.28087e-06 -5.09442e-06 0.00116476
0.000622735 2.99479e-05 2.04452e-06
2.99479e-05 8.05888e-05 -1.03532e-06
2.04452e-06 -1.03532e-06 -1.26674e-05
0.000611967 4.73599e-05 -6.95275e-07
4.73599e-05 5.46605e-05 -1.87956e-06
-6.95275e-07 -1.87956e-06 6.22767e-06
0.000642722 -2.08688e-06 1.21704e-06
-2.08688e-06 0.000103535 5.07461e-07
1.21704e-06 5.07461e-07 1.44853e-05
0.000522892 1.47659e-07 1.14662e-06
1.47659e-07 -3.13792e-05 -3.53837e-06
1.14662e-06 -3.53837e-06 -3.98625e-05
0.000537472 3.91197e-05 1.28248e-07
3.91197e-05 9.93703e-06 -6.65088e-08
1.28248e-07 -6.65088e-08 -3.4305e-05
0.000585781 -0.00010265 -3.59153e-06
-0.00010265 7.12331e-05 9.454e-07
-3.59153e-06 9.454e-07 -1.40086e-05
0.00199758 4.747e-06 -3.60326e-06
4.747e-06 0.000874774 -4.71647e-06
-3.60326e-06 -4.71647e-06 0.000893457
0.000518424 3.69396e-06 -2.14435e-07
3.69396e-06 -3.46527e-05 1.38127e-08
-2.14435e-07 1.38127e-08 -4.23972e-05
0.000544602 -1.85572e-05 -1.91188e-06
-1.85572e-05 1.17857e-05 1.61983e-06
-1.91188e-06 1.61983e-06 -2.96208e-05
0.000506321 6.77855e-06 -1.09381e-06
6.77855e-06 -4.30903e-05 3.09483e-06
-1.09381e-06 3.09483e-06 -5.08355e-05
0.00201221 1.95631e-05 -4.6147e-06
1.95631e-05 0.000885589 -7.21617e-08
-4.6147e-06 -7.21617e-08 0.000903574
0.00197688 3.24182e-05 -7.76148e-06
3.24182e-05 0.00086615 4.34269e-06
-7.76148e-06 4.34269e-06 0.00088347
-0.00602775 -0.00099258 -0.000112034
-0.00099258 0.00344867 3.89731e-05
-0.000112034 3.89731e-05 0.000230011
0.000577873 0.000819768 -0.000163729
0.000819768 -5.80375e-05 4.48476e-05
-0.000163729 4.48476e-05 -0.00120429
0.00298293 -0.000708718 -0.000450024
-0.000708718 0.00114731 0.00021304
-0.000450024 0.00021304 -0.00286967
-0.00270629 0.000119647 0.000704168
0.000119647 0.00399357 -0.00026545
0.000704168 -0.00026545 0.00115829
0.000830696 0.000385934 -1.36568e-05
0.000385934 -0.00132907 -2.02117e-05
-1.36568e-05 -2.02117e-05 -0.000871384
0.00252421 -0.00029138 9.49083e-05
-0.00029138 -0.00011778 1.37404e-06
9.49083e-05 1.37404e-06 -8.5177e-05
0.000700848 -0.000373154 0.000144847
-0.000373154 -0.00343058 -7.12221e-05
0.000144847 -7.12221e-05 -0.00536416
0.0151521 0.00201229 -0.000381986
0.00201229 0.00699753 2.51302e-05
-0.000381986 2.51302e-05 0.00533829
-0.00336162 0.00491156 -0.00137847
0.00491156 -0.000709658 0.00100994
-0.00137847 0.00100994 -0.000891131
0.00364673 -0.000334856 6.18604e-06
-0.000334856 -0.000290906 5.68211e-06
6.18604e-06 5.68211e-06 -4.6165e-06
0.00758848 -0.0011731 9.86998e-05
-0.0011731 -0.000470503 -8.81731e-05
9.86998e-05 -8.81731e-05 -0.00283129
0.0165322 0.00361789 -0.000187748
0.00361789 0.004838 -9.71367e-05
-0.000187748 -9.71367e-05 0.00401777
0.00871566 0.00281911 -7.72713e-05
0.00281911 0.000381835 0.000275099
-7.72713e-05 0.000275099 -0.000718714
0.00165674 -0.00106472 -8.46434e-05
-0.00106472 -0.00213791 2.20565e-05
-8.46434e-05 2.20565e-05 -0.00159058
0.0036523 -0.00196101 0.000265897
-0.00196101 -0.00018904 -0.000182991
0.000265897 -0.000182991 -0.00399818
-0.000763547 0.00231412 -3.80044e-06
0.00231412 -0.00216389 -0.000543932
-3.80044e-06 -0.000543932 -0.00389495
0.00671745 0.00114893 -0.000157195
0.00114893 -0.00284704 4.26064e-06
-0.000157195 4.26064e-06 -0.00156802
0.00146601 -6.40823e-05 2.27148e-06
-6.40823e-05 0.000683967 9.58478e-06
2.27148e-06 9.58478e-06 0.00049092
0.000589944 0.000105257 -1.7469e-06
0.000105257 9.90604e-05 -1.94619e-06
-1.7469e-06 -1.94619e-06 -3.20824e-05
0.000568126 8.46384e-05 2.08973e-07
8.46384e-05 6.01853e-05 -1.86993e-06
2.08973e-07 -1.86993e-06 -3.1522e-05
0.000581299 5.01398e-05 4.77761e-06
5.01398e-05 0.000109439 4.33665e-07
4.77761e-06 4.33665e-07 -1.11205e-05
0.000541052 6.85725e-05 3.57542e-06
6.85725e-05 6.45717e-05 2.3786e-06
3.57542e-06 2.3786e-06 -9.99121e-05
0.00061055 4.83363e-05 -1.88339e-07
4.83363e-05 0.000117633 1.93755e-06
-1.88339e-07 1.93755e-06 -1.89978e-05
0.000520579 4.48634e-05 6.61599e-07
4.48634e-05 4.6594e-05 -1.20599e-06
6.61599e-07 -1.20599e-06 -7.68908e-05
0.000872655 0.000149618 2.62964e-06
0.000149618 0.000268856 3.27495e-06
2.62964e-06 3.27495e-06 0.000115901
0.000844544 0.00010316 -1.51571e-08
0.00010316 0.000256965 3.41444e-07
-1.51571e-08 3.41444e-07 0.000109513
0.000434704 -1.66128e-05 -4.53252e-06
-1.66128e-05 -4.55379e-07 -3.56293e-06
-4.53252e-06 -3.56293e-06 -0.000120596
0.000660781 -0.000320344 5.72878e-05
-0.000320344 -0.000859426 -2.32639e-05
5.72878e-05 -2.32639e-05 -0.000700884
0.000515439 -0.00052933 3.37809e-05
-0.00052933 -0.000672125 -1.03872e-05
3.37809e-05 -1.03872e-05 -0.000690196
0.00141166 -0.000737896 7.87883e-06
-0.000737896 -0.00015957 4.647e-06
7.87883e-06 4.647e-06 -0.000279764
-0.000206543 -0.000487476 1.07036e-05
-0.000487476 -0.000460294 -1.05187e-05
1.07036e-05 -1.05187e-05 -0.000754918
0.00255537 -0.000298655 -7.39104e-06
-0.000298655 0.00147078 3.42133e-05
-7.39104e-06 3.42133e-05 0.00106221
0.000633864 -0.000121607 -2.95367e-06
-0.000121607 0.000210872 1.99198e-06
-2.95367e-06 1.99198e-06 8.52973e-06
0.000484749 8.92856e-05 -1.6896e-06
8.92856e-05 6.92489e-05 -9.01172e-06
-1.6896e-06 -9.01172e-06 -0.000110606
0.000647054 -9.24505e-05 -1.20058e-06
-9.24505e-05 0.000187575 6.5439e-06
-1.20058e-06 6.5439e-06 -2.23323e-05
0.00151252 -0.000537009 7.70595e-07
-0.000537009 -9.72702e-05 -3.93516e-06
7.70595e-07 -3.93516e-06 -0.000232834
0.000663037 -3.79714e-05 3.58477e-07
-3.79714e-05 0.000193544 3.29223e-06
3.58477e-07 3.29223e-06 -8.02749e-06
0.00168915 -0.000196649 2.18286e-07
-0.000196649 0.000915787 -1.17622e-06
2.18286e-07 -1.17622e-06 0.000594737
0.00153737 -0.000608733 1.09383e-06
-0.000608733 8.85639e-05 3.57806e-06
1.09383e-06 3.57806e-06 3.39265e-05
0.000764239 -0.000489092 -1.68173e-05
-0.000489092 0.00027108 6.14545e-06
-1.68173e-05 6.14545e-06 -5.70181e-05
0.00252677 -0.00100137 1.77716e-05
-0.00100137 0.000393092 -2.04231e-05
1.77716e-05 -2.04231e-05 0.000347405
0.00031085 -0.000384539 -1.3674e-05
-0.000384539 -0.000102812 1.61277e-05
-1.3674e-05 1.61277e-05 -0.000206082
-0.000758454 -4.13448e-05 5.05967e-06
-4.13448e-05 -0.000343305 9.9055e-06
5.05967e-06 9.9055e-06 -0.000770374
0.000682957 8.51425e-06 -1.48421e-06
8.51425e-06 0.000171549 -2.18908e-06
-1.48421e-06 -2.18908e-06 -5.87147e-06
0.00101664 3.5656e-05 7.00049e-06
3.5656e-05 0.0004913 -4.08913e-06
7.00049e-06 -4.08913e-06 0.000240641
0.00150795 2.44684e-05 -2.2751e-05
2.44684e-05 0.00160536 -1.14004e-05
-2.2751e-05 -1.14004e-05 -0.00134842
-0.00462528 0.000260014 -0.000222135
0.000260014 0.00485391 -1.05069e-05
-0.000222135 -1.05069e-05 0.0010993
-0.0117707 -0.00137498 -0.00046174
-0.00137498 -0.00579343 -1.84798e-05
-0.00046174 -1.84798e-05 -0.00568162
-0.000561643 0.000130155 7.38091e-06
0.000130155 -0.000536683 -3.63934e-07
7.38091e-06 -3.63934e-07 -0.00072194
-0.000569742 0.000322946 -8.87623e-07
0.000322946 -0.000464252 1.05312e-05
-8.87623e-07 1.05312e-05 -0.000771358
0.00155484 0.000669601 3.15046e-05
0.000669601 0.000179041 1.14568e-05
3.15046e-05 1.14568e-05 0.000112877
-0.00492192 0.00112122 1.07437e-05
0.00112122 0.00370482 3.81143e-05
1.07437e-05 3.81143e-05 0.00017301
0.00302704 0.00182002 -0.000156559
0.00182002 -6.00218e-05 -0.000136134
-0.000156559 -0.000136134 -0.00388124
0.00256188 0.00152873 0.000285024
0.00152873 0.000639607 8.4819e-05
0.000285024 8.4819e-05 0.000418055
-0.000410127 0.000550799 9.55611e-06
0.000550799 -0.000323632 -3.77014e-05
9.55611e-06 -3.77014e-05 -0.000448976
0.017938 -0.00253982 -9.25018e-05
-0.00253982 0.00549053 -0.000223455
-9.25018e-05 -0.000223455 0.00399433
0.00488982 0.000808224 0.000297473
0.000808224 0.00251672 0.000111275
0.000297473 0.000111275 -0.0020178
0.0123108 -0.0016045 9.77486e-05
-0.0016045 0.00186481 2.69992e-05
9.77486e-05 2.69992e-05 0.00323726
0.000779618 0.000309849 3.23306e-06
0.000309849 0.000335365 -2.56921e-06
3.23306e-06 -2.56921e-06 0.000140918
0.00376915 0.000274341 6.85699e-06
0.000274341 0.00224696 1.3318e-05
6.85699e-06 1.3318e-05 -0.000103436
0.000926077 0.00032375 3.72576e-05
0.00032375 -7.25468e-06 9.51269e-06
3.72576e-05 9.51269e-06 -0.00156758
-0.000740581 0.000318452 -2.40264e-06
0.000318452 -0.000373321 -2.2104e-06
-2.40264e-06 -2.2104e-06 -0.000625243
0.00123064 0.000827258 -9.36433e-05
0.000827258 0.00111881 -4.26313e-05
-9.36433e-05 -4.26313e-05 3.24717e-05
0.00189821 0.00274592 0.000123236
0.00274592 0.000769352 7.81924e-05
0.000123236 7.81924e-05 -0.00300764
0.0077819 0.000184795 -1.32686e-05
0.000184795 -0.00318724 -0.000172355
-1.32686e-05 -0.000172355 -0.000341276
0.00372739 -0.00199222 -5.18857e-05
-0.00199222 0.00182589 -0.000101502
-5.18857e-05 -0.000101502 -0.00131388
0.00118872 0.000261451 -3.66208e-06
0.000261451 0.000805606 -1.76416e-05
-3.66208e-06 -1.76416e-05 0.000575386
-0.00131975 2.6206e-05 4.60724e-06
2.6206e-05 -0.000155722 2.47698e-06
4.60724e-06 2.47698e-06 -0.00011793
0.00354044 6.66489e-06 5.85709e-05
6.66489e-06 -0.000143569 -0.000129749
5.85709e-05 -0.000129749 -0.00114609
0.00673895 0.00120916 0.000164267
0.00120916 -0.00266837 -1.32364e-05
0.000164267 -1.32364e-05 -0.00151057
-0.00153371 0.000111351 1.01601e-05
0.000111351 -6.16756e-05 -2.96565e-05
1.01601e-05 -2.96565e-05 -0.000725505
0.0116904 0.00222352 0.000189117
0.00222352 0.00531121 5.62694e-05
0.000189117 5.62694e-05 0.000875316
-0.00547701 -0.000472591 8.93302e-05
-0.000472591 0.000731267 0.000317345
8.93302e-05 0.000317345 -0.00195687
0.00265903 0.000345159 2.11154e-05
0.000345159 0.00144166 1.74619e-05
2.11154e-05 1.74619e-05 0.00124909
0.000850867 0.000193841 -5.79147e-06
0.000193841 0.00052222 -2.04948e-06
-5.79147e-06 -2.04948e-06 0.000240218
-0.000138802 7.84791e-05 1.11875e-06
7.84791e-05 0.000178018 1.69937e-06
1.11875e-06 1.69937e-06 -0.000149967
0.00067329 0.000147379 7.20675e-07
0.000147379 0.000147826 7.27123e-07
7.20675e-07 7.27123e-07 -1.22512e-05
0.00044891 5.48534e-05 1.8283e-06
5.48534e-05 2.65326e-05 2.31159e-06
1.8283e-06 2.31159e-06 -0.000115308
0.000790597 -5.4433e-07 1.00065e-05
-5.4433e-07 0.000537963 2.61851e-07
1.00065e-05 2.61851e-07 0.000251443
0.000558989 3.5969e-05 1.66725e-07
3.5969e-05 7.35032e-05 -6.01701e-07
1.66725e-07 -6.01701e-07 -6.22867e-05
0.000792207 -1.45285e-05 -3.04979e-06
-1.45285e-05 0.000508179 -2.19672e-06
-3.04979e-06 -2.19672e-06 0.000243604
-9.79758e-05 3.61069e-05 1.74561e-06
3.61069e-05 0.000219842 1.1485e-06
1.74561e-06 1.1485e-06 -0.000186289
6.15394e-05 9.20716e-06 -8.83223e-06
9.20716e-06 0.000202865 -4.77214e-06
-8.83223e-06 -4.77214e-06 -7.22887e-05
0.000220199 -2.84311e-05 -7.71035e-07
-2.84311e-05 0.000125709 -7.048e-06
-7.71035e-07 -7.048e-06 -0.000105236
0.000426311 -6.05375e-05 1.55764e-06
-6.05375e-05 -1.69692e-05 6.89415e-06
1.55764e-06 6.89415e-06 -0.000135724
0.000893662 -3.19391e-05 -1.37225e-06
-3.19391e-05 0.000265146 7.40918e-07
-1.37225e-06 7.40918e-07 0.000135152
0.00100472 -4.29307e-05 -9.7459e-06
-4.29307e-05 0.000354344 7.80664e-06
-9.7459e-06 7.80664e-06 0.000242427
0.0006847 -6.2255e-05 3.20772e-06
-6.2255e-05 0.000247844 -2.71989e-07
3.20772e-06 -2.71989e-07 0.000123603
0.000645396 -4.28027e-05 -1.49752e-06
-4.28027e-05 0.000115023 -6.18009e-07
-1.49752e-06 -6.18009e-07 2.02487e-06
0.000526787 -0.000118993 1.80943e-06
-0.000118993 8.58267e-05 7.20943e-07
1.80943e-06 7.20943e-07 -3.80376e-05
0.000186597 -0.000110606 -6.32231e-06
-0.000110606 -0.000238309 -1.10592e-06
-6.32231e-06 -1.10592e-06 -0.000307679
-0.000863755 -0.000194012 9.25705e-06
-0.000194012 -0.000826865 7.65248e-06
9.25705e-06 7.65248e-06 -0.00104558
0.000713559 -0.000161505 2.00863e-06
-0.000161505 0.000105372 1.05183e-06
2.00863e-06 1.05183e-06 -9.24937e-06
0.00124227 -0.000232292 -1.20862e-06
-0.000232292 0.000400428 5.92715e-06
-1.20862e-06 5.92715e-06 0.000228152
0.00155687 -0.000388871 -6.75416e-06
-0.000388871 0.000511599 7.48645e-06
-6.75416e-06 7.48645e-06 0.00023073
0.00112377 -0.000328715 -3.57582e-06
-0.000328715 0.000168051 -5.01496e-07
-3.57582e-06 -5.01496e-07 -0.000103761
0.000895666 -0.000225424 -1.34812e-06
-0.000225424 0.000251589 5.92737e-06
-1.34812e-06 5.92737e-06 3.50512e-05
0.000216661 -0.000195462 7.07081e-06
-0.000195462 -0.000277283 -1.92707e-06
7.07081e-06 -1.92707e-06 -0.000502507
0.00100635 -0.000119906 1.45098e-06
-0.000119906 0.000330459 -1.96273e-06
1.45098e-06 -1.96273e-06 0.000157981
0.00120926 -0.000167017 -4.05896e-06
-0.000167017 0.000465395 -2.52732e-07
-4.05896e-06 -2.52732e-07 0.000291286
0.00021082 -0.000104526 6.80082e-06
-0.000104526 -0.000156766 -1.33442e-05
6.80082e-06 -1.33442e-05 -0.000293344
0.00101518 -6.70286e-05 -8.48364e-09
-6.70286e-05 0.000293401 1.0086e-06
-8.48364e-09 1.0086e-06 0.000163484
0.000303675 -4.89468e-05 4.51644e-07
-4.89468e-05 -9.63366e-05 -3.49071e-07
4.51644e-07 -3.49071e-07 -0.000232683
0.000647986 -3.64527e-05 1.15679e-07
-3.64527e-05 8.02995e-05 9.00331e-07
1.15679e-07 9.00331e-07 -2.84008e-05
0.000987094 -0.000127815 -8.2926e-07
-0.000127815 0.000337727 6.10849e-08
-8.2926e-07 6.10849e-08 0.000187165
0.00066742 -6.40485e-05 -1.07394e-07
-6.40485e-05 0.000112188 5.7282e-08
-1.07394e-07 5.7282e-08 -1.18892e-06
0.000542483 2.15582e-05 7.30886e-07
2.15582e-05 2.07176e-05 3.02705e-06
7.30886e-07 3.02705e-06 -5.7261e-05
0.000753511 -9.98025e-05 2.17024e-07
-9.98025e-05 0.000178131 -2.0342e-06
2.17024e-07 -2.0342e-06 6.1359e-05
0.000552248 1.27601e-05 -1.5339e-06
1.27601e-05 2.34699e-05 -1.31709e-07
-1.5339e-06 -1.31709e-07 -4.89495e-05
0.00137317 3.24688e-05 -1.11419e-05
3.24688e-05 0.000497696 4.45503e-06
-1.11419e-05 4.45503e-06 0.000478113
0.000612418 -4.67836e-05 2.62064e-06
-4.67836e-05 5.70692e-05 -3.03892e-06
2.62064e-06 -3.03892e-06 -1.17554e-05
0.000915924 1.37223e-05 -6.01825e-06
1.37223e-05 0.000216341 6.3726e-07
-6.01825e-06 6.3726e-07 0.000195774
0.000819665 3.26412e-05 -1.90976e-07
3.26412e-05 0.000153541 2.67091e-06
-1.90976e-07 2.67091e-06 0.000155361
0.000493947 -8.16989e-07 1.13253e-06
-8.16989e-07 -4.09779e-05 -4.86395e-06
1.13253e-06 -4.86395e-06 -6.23118e-05
0.00165357 3.56148e-05 1.02724e-05
3.56148e-05 0.000666709 -1.31748e-06
1.02724e-05 -1.31748e-06 0.000674892
0.00245581 3.09644e-05 9.85579e-06
3.09644e-05 0.00115884 -5.26347e-06
9.85579e-06 -5.26347e-06 0.00117214
0.000361555 1.15131e-05 1.28356e-06
1.15131e-05 -6.76213e-05 -3.69575e-07
1.28356e-06 -3.69575e-07 -0.000182291
0.000246474 1.26809e-05 2.79592e-07
1.26809e-05 -0.000170461 -3.27217e-06
2.79592e-07 -3.27217e-06 -0.000227134
0.00067675 3.56785e-05 -1.11172e-09
3.56785e-05 0.000121512 1.18025e-07
-1.11172e-09 1.18025e-07 2.19375e-05
0.00052026 -2.36976e-06 1.0133e-06
-2.36976e-06 -3.35124e-05 -3.67669e-06
1.0133e-06 -3.67669e-06 -4.3601e-05
0.000383024 2.43106e-06 1.41919e-06
2.43106e-06 -8.85003e-05 -2.71572e-08
1.41919e-06 -2.71572e-08 -0.000136074
0.000366458 -9.1347e-05 -1.99057e-06
-9.1347e-05 -6.46136e-05 2.37241e-07
-1.99057e-06 2.37241e-07 -0.000155835
0.00207008 -8.97369e-06 -8.24382e-06
-8.97369e-06 0.000918944 -4.76048e-06
-8.24382e-06 -4.76048e-06 0.000937212
0.000517192 -2.09834e-07 -6.36502e-08
-2.09834e-07 -3.5271e-05 -4.80831e-08
-6.36502e-08 -4.80831e-08 -4.36079e-05
0.000503411 -1.92102e-05 -2.28589e-06
-1.92102e-05 -1.37326e-05 1.96557e-06
-2.28589e-06 1.96557e-06 -5.5988e-05
0.0020218 6.15469e-06 -4.28123e-06
6.15469e-06 0.000889938 1.64552e-08
-4.28123e-06 1.64552e-08 0.000908435
0.000503222 3.08563e-06 -1.01685e-06
3.08563e-06 -4.3362e-05 3.19757e-06
-1.01685e-06 3.19757e-06 -5.1152e-05
0.00199477 2.08514e-05 -9.8183e-07
2.08514e-05 0.000874925 4.55122e-06
-9.8183e-07 4.55122e-06 0.000892912
0.000227539 -0.000415422 -0.000167529
-0.000415422 -0.000241845 4.71046e-05
-0.000167529 4.71046e-05 -0.00240986
0.00128148 0.000291532 -5.87366e-05
0.000291532 0.00528324 1.9371e-06
-5.87366e-05 1.9371e-06 0.00274202
0.001282 -0.000311052 -0.000477992
-0.000311052 0.00287851 6.58274e-05
-0.000477992 6.58274e-05 0.00147049
0.000724263 0.000103048 3.14993e-06
0.000103048 0.000151249 1.86705e-06
3.14993e-06 1.86705e-06 9.03506e-06
0.00390235 -0.000505646 -2.49106e-05
-0.000505646 0.00276739 0.000154975
-2.49106e-05 0.000154975 0.00111143
0.00381792 -0.000843329 -0.000191419
-0.000843329 0.00146105 1.44989e-05
-0.000191419 1.44989e-05 -0.0024707
0.00559045 0.00152539 0.000301068
0.00152539 0.00530036 -0.000228305
0.000301068 -0.000228305 0.0029569
0.00570601 -0.000525259 6.42132e-05
-0.000525259 0.000775086 -2.73029e-05
6.42132e-05 -2.73029e-05 0.000686978
0.0123236 -0.00125218 0.000188713
-0.00125218 0.00185445 -8.19858e-05
0.000188713 -8.19858e-05 0.000273044
0.00188014 0.0031401 -0.000340538
0.0031401 -0.00241315 0.000287224
-0.000340538 0.000287224 -0.003091
0.00940452 0.00290411 3.07359e-05
0.00290411 0.00202414 0.000121083
3.07359e-05 0.000121083 0.000453092
0.00598384 -0.00135276 -0.000114815
-0.00135276 0.00024954 -5.84514e-06
-0.000114815 -5.84514e-06 0.000249326
0.0149871 -0.00202542 4.91096e-05
-0.00202542 0.00451257 -2.14855e-05
4.91096e-05 -2.14855e-05 0.00225765
0.00834 0.00190077 0.000125242
0.00190077 0.00147561 -0.000219986
0.000125242 -0.000219986 -0.000415801
0.00871396 0.00110112 1.24743e-05
0.00110112 -0.00122684 2.03835e-05
1.24743e-05 2.03835e-05 -0.000409596
0.00273479 -0.00174197 -1.81125e-05
-0.00174197 -0.000200055 2.93765e-05
-1.81125e-05 2.93765e-05 -0.000624969
0.0111295 -0.00262644 0.00012826
-0.00262644 0.00490507 -7.83385e-05
0.00012826 -7.83385e-05 0.000827388
0.00607142 -2.9472e-05 0.000113216
-2.9472e-05 0.00216478 -0.000315023
0.000113216 -0.000315023 0.000611338
0.00978944 0.000618976 -8.33664e-05
0.000618976 -0.00127265 0.000173325
-8.33664e-05 0.000173325 0.00101991
0.000812716 -1.76963e-05 3.67047e-06
-1.76963e-05 0.000269459 4.01406e-06
3.67047e-06 4.01406e-06 8.46561e-05
0.000835387 -9.63088e-05 -5.65399e-07
-9.63088e-05 0.000299155 2.93082e-07
-5.65399e-07 2.93082e-07 0.00010688
0.000713759 0.000127083 -3.87582e-07
0.000127083 0.000177542 -4.12741e-06
-3.87582e-07 -4.12741e-06 4.36877e-05
0.000665579 8.21997e-05 1.30992e-06
8.21997e-05 0.000101984 4.5963e-06
1.30992e-06 4.5963e-06 -3.50923e-05
0.000738443 0.000125516 -7.90294e-08
0.000125516 0.000196955 7.23438e-07
-7.90294e-08 7.23438e-07 2.99265e-05
0.000934071 7.24663e-05 -4.6642e-06
7.24663e-05 0.000316326 -2.35369e-06
-4.6642e-06 -2.35369e-06 0.000179816
0.00101156 0.000147116 -1.14523e-06
0.000147116 0.000354051 -8.26367e-09
-1.14523e-06 -8.26367e-09 0.000199836
0.00103241 0.000159066 3.80286e-07
0.000159066 0.000386411 2.01324e-06
3.80286e-07 2.01324e-06 0.000229608
0.000116124 -0.0003643 7.35594e-05
-0.0003643 -0.00091315 -3.47165e-05
7.35594e-05 -3.47165e-05 -0.000862151
0.00184272 -0.000646664 6.15006e-06
-0.000646664 0.000204695 -1.25956e-05
6.15006e-06 -1.25956e-05 0.000169722
0.000921542 -0.000202595 -8.63315e-07
-0.000202595 0.000360391 -1.40199e-05
-8.63315e-07 -1.40199e-05 0.000136476
0.00127897 -0.000560685 2.32785e-05
-0.000560685 0.000534788 -1.98606e-05
2.32785e-05 -1.98606e-05 0.000209908
0.00230968 -0.000328475 -1.0705e-05
-0.000328475 0.00125115 5.13036e-06
-1.0705e-05 5.13036e-06 0.000934852
0.00115583 -0.000103636 -1.62815e-06
-0.000103636 0.000478135 -1.29846e-05
-1.62815e-06 -1.29846e-05 0.000274831
0.000285157 -3.9425e-05 1.52131e-06
-3.9425e-05 -6.62285e-05 4.17865e-06
1.52131e-06 4.17865e-06 -0.000242818
9.08884e-05 -0.000765288 1.88908e-07
-0.000765288 -0.000877206 -2.25959e-06
1.88908e-07 -2.25959e-06 -0.000854964
0.00122392 3.66529e-05 -6.2502e-07
3.66529e-05 0.00062031 1.3912e-06
-6.2502e-07 1.3912e-06 0.000357004
0.000917888 -0.000206551 6.60284e-07
-0.000206551 0.000529946 2.22149e-06
6.60284e-07 2.22149e-06 0.000163867
0.00041559 -0.000333672 1.74062e-05
-0.000333672 -5.97249e-05 2.92395e-06
1.74062e-05 2.92395e-06 -0.000108978
0.00137839 0.000116903 1.13309e-07
0.000116903 0.000560851 -1.19737e-06
1.13309e-07 -1.19737e-06 0.000416872
0.0015096 -0.000758706 -4.75654e-06
-0.000758706 0.000235295 -3.47139e-05
-4.75654e-06 -3.47139e-05 0.000197746
-0.000446935 -0.000293946 -1.42389e-05
-0.000293946 -0.000263919 1.9624e-05
-1.42389e-05 1.9624e-05 -0.000454814
-0.000565088 6.43731e-05 1.14884e-05
6.43731e-05 -3.98239e-05 -1.04006e-06
1.14884e-05 -1.04006e-06 -0.000573515
0.00117494 0.000207692 2.5187e-06
0.000207692 0.000529899 -4.60405e-06
2.5187e-06 -4.60405e-06 0.000346124
-0.00049484 3.52662e-05 3.20838e-05
3.52662e-05 0.000886401 -1.02946e-06
3.20838e-05 -1.02946e-06 0.000256431
0.000900705 -3.49138e-05 0.000110657
-3.49138e-05 0.00120941 -2.34677e-05
0.000110657 -2.34677e-05 -0.00172016
-0.0081975 -0.000184167 -0.000188686
-0.000184167 0.004259 1.61899e-05
-0.000188686 1.61899e-05 -9.7389e-05
0.00140616 0.000356148 1.49408e-05
0.000356148 0.000785149 4.89013e-06
1.49408e-05 4.89013e-06 0.000579323
-0.0014329 0.000420121 3.6301e-06
0.000420121 -0.00079095 1.2992e-05
3.6301e-06 1.2992e-05 -0.00113141
0.00491648 0.000316813 0.000170558
0.000316813 0.00284594 2.26483e-05
0.000170558 2.26483e-05 0.0012397
0.00886007 0.00201277 0.000226649
0.00201277 0.00358144 0.0001265
0.000226649 0.0001265 -0.000408059
0.00314399 0.00135683 -8.3689e-05
0.00135683 0.00184017 -8.03466e-05
-8.3689e-05 -8.03466e-05 0.000624344
0.00519335 -0.00152569 -9.47087e-05
-0.00152569 0.0027104 -0.000337409
-9.47087e-05 -0.000337409 0.00017619
0.00163901 0.00031565 8.56804e-05
0.00031565 0.000121957 0.000160882
8.56804e-05 0.000160882 -0.00141518
0.00570887 -0.000114352 -3.12717e-05
-0.000114352 -0.00502791 -0.000190856
-3.12717e-05 -0.000190856 -0.00176136
0.000782655 0.000281625 1.38275e-06
0.000281625 0.000572781 -1.45608e-06
1.38275e-06 -1.45608e-06 0.000320569
-0.00117024 -7.78409e-06 -7.54107e-07
-7.78409e-06 -0.000141057 -9.0808e-07
-7.54107e-07 -9.0808e-07 -0.000177752
0.00344325 5.55813e-05 6.87146e-05
5.55813e-05 -5.06648e-05 2.19018e-05
6.87146e-05 2.19018e-05 -0.00050462
-0.00122974 0.000270738 -8.6257e-06
0.000270738 -0.000338282 -6.75751e-06
-8.6257e-06 -6.75751e-06 -0.000900678
0.00865378 0.00120028 -8.96143e-06
0.00120028 -0.00117911 -1.74795e-05
-8.96143e-06 -1.74795e-05 -0.000426538
0.0038321 0.00134587 0.000158463
0.00134587 0.00327396 9.73897e-05
0.000158463 9.73897e-05 -0.0015068
0.00495839 0.000631976 -0.000123418
0.000631976 0.00287843 3.2069e-06
-0.000123418 3.2069e-06 0.000585688
0.000428545 0.000292604 -1.18499e-05
0.000292604 0.000398739 -2.15039e-05
-1.18499e-05 -2.15039e-05 2.64925e-05
0.00135043 6.89994e-05 1.49462e-05
6.89994e-05 -0.000303969 -2.18259e-05
1.49462e-05 -2.18259e-05 -9.22363e-05
0.00361032 -0.0005011 1.83422e-05
-0.0005011 0.00272624 -0.000157417
1.83422e-05 -0.000157417 0.00117887
0.0123305 0.00293439 0.000273952
0.00293439 0.00264512 -0.000203375
0.000273952 -0.000203375 0.00185582
0.00650772 -5.96154e-05 -9.44694e-05
-5.96154e-05 0.00244027 0.000320596
-9.44694e-05 0.000320596 0.000829256
0.00065281 0.000284859 -7.00472e-06
0.000284859 0.000362584 -9.9322e-05
-7.00472e-06 -9.9322e-05 1.04339e-05
0.00133605 0.00139862 0.00019863
0.00139862 0.00408657 4.20016e-05
0.00019863 4.20016e-05 -0.00284897
0.00166434 0.000304433 2.74074e-06
0.000304433 0.000950021 1.83887e-05
2.74074e-06 1.83887e-05 0.00067203
0.000555584 0.000166444 2.74169e-06
0.000166444 0.000554933 -1.58385e-07
2.74169e-06 -1.58385e-07 0.000236269
0.00026394 -2.18837e-05 -1.0147e-05
-2.18837e-05 0.000456047 -1.23145e-05
-1.0147e-05 -1.23145e-05 0.000215132
0.000177372 -3.77421e-05 8.46244e-07
-3.77421e-05 -0.000172504 5.36716e-06
8.46244e-07 5.36716e-06 -0.000294704
0.00120685 1.76472e-06 3.97824e-06
1.76472e-06 0.000737851 3.98235e-07
3.97824e-06 3.98235e-07 0.000483823
0.000568333 1.43605e-05 2.75534e-06
1.43605e-05 0.000570907 -2.15171e-06
2.75534e-06 -2.15171e-06 0.000189663
0.000454251 -4.18619e-05 7.04668e-07
-4.18619e-05 0.000219843 -2.17874e-07
7.04668e-07 -2.17874e-07 2.76179e-05
-6.81341e-05 -1.44483e-05 3.19458e-06
-1.44483e-05 0.000128626 1.35502e-06
3.19458e-06 1.35502e-06 -0.000155411
0.00121228 -0.000226372 2.25224e-06
-0.000226372 0.000726305 -1.21687e-05
2.25224e-06 -1.21687e-05 0.000478707
0.000957509 -7.74504e-05 -3.74505e-06
-7.74504e-05 0.00039154 7.17943e-06
-3.74505e-06 7.17943e-06 0.000274776
0.000248861 -1.3469e-05 -9.37257e-07
-1.3469e-05 -0.00012049 2.65374e-06
-9.37257e-07 2.65374e-06 -0.000232359
0.00132308 -0.000196371 2.49075e-06
-0.000196371 0.000545131 3.13732e-06
2.49075e-06 3.13732e-06 0.000404204
-0.00121978 -0.000189225 1.19541e-05
-0.000189225 -0.000849349 5.2219e-06
1.19541e-05 5.2219e-06 -0.00111189
0.000146764 -9.87606e-05 -1.89383e-06
-9.87606e-05 -0.000198489 5.03921e-07
-1.89383e-06 5.03921e-07 -0.00024643
-0.000239293 -0.000226529 2.76532e-06
-0.000226529 -0.000476689 -2.5704e-06
2.76532e-06 -2.5704e-06 -0.000677922
0.00113913 -0.000394621 6.64208e-06
-0.000394621 0.000211591 -4.82903e-06
6.64208e-06 -4.82903e-06 -0.000121729
0.00148868 -0.000454018 -2.35449e-06
-0.000454018 0.000312358 1.4123e-07
-2.35449e-06 1.4123e-07 -1.81207e-05
0.00217863 -0.000335677 4.26015e-07
-0.000335677 0.000951571 -1.90847e-07
4.26015e-07 -1.90847e-07 0.000754664
0.00115504 -0.000345541 1.14781e-06
-0.000345541 0.000247609 4.34222e-07
1.14781e-06 4.34222e-07 -3.50326e-05
0.00170185 -0.000399111 2.5842e-06
-0.000399111 0.000490255 -2.29323e-06
2.5842e-06 -2.29323e-06 0.000216426
0.000625482 -0.00023965 -1.25971e-06
-0.00023965 -4.0501e-05 4.21797e-06
-1.25971e-06 4.21797e-06 -0.000282954
0.000762829 -0.000283663 -4.25081e-07
-0.000283663 -4.26894e-05 -2.35058e-06
-4.25081e-07 -2.35058e-06 -0.000301859
0.000368686 -0.000104337 1.17742e-06
-0.000104337 -2.76828e-05 -2.25094e-06
1.17742e-06 -2.25094e-06 -0.000238249
0.0011807 -0.00028109 -6.22473e-06
-0.00028109 0.000438546 3.14917e-06
-6.22473e-06 3.14917e-06 0.000202716
-0.00108763 -4.7923e-05 -3.43822e-06
-4.7923e-05 -0.00105632 -5.5445e-06
-3.43822e-06 -5.5445e-06 -0.0012488
0.000460167 -2.96585e-05 9.81362e-07
-2.96585e-05 -3.1207e-05 1.17002e-06
9.81362e-07 1.17002e-06 -0.000151811
0.000650958 -9.8398e-05 4.1598e-09
-9.8398e-05 0.000128848 -1.82133e-07
4.1598e-09 -1.82133e-07 -4.25672e-05
0.000793609 -0.000161937 6.04733e-06
-0.000161937 0.000238754 -2.1422e-06
6.04733e-06 -2.1422e-06 5.4257e-05
0.000595937 -6.5571e-05 3.80233e-07
-6.5571e-05 8.3932e-05 3.9701e-07
3.80233e-07 3.9701e-07 -5.55355e-05
0.000692678 -5.24162e-05 -5.43653e-07
-5.24162e-05 0.000121459 9.48852e-08
-5.43653e-07 9.48852e-08 2.30398e-06
0.0005215 1.76289e-05 6.23549e-07
1.76289e-05 1.31647e-06 3.78748e-06
6.23549e-07 3.78748e-06 -8.10533e-05
0.000790421 -8.08699e-05 -3.1518e-08
-8.08699e-05 0.000197042 -1.21365e-06
-3.1518e-08 -1.21365e-06 7.47946e-05
0.000570819 1.30939e-05 -1.17696e-06
1.30939e-05 3.3759e-05 -2.09047e-07
-1.17696e-06 -2.09047e-07 -4.19798e-05
0.000481205 3.00663e-05 -9.33798e-07
3.00663e-05 -4.50379e-05 5.50185e-06
-9.33798e-07 5.50185e-06 -7.19357e-05
0.000676168 -4.07574e-05 2.12653e-06
-4.07574e-05 9.29241e-05 -2.97102e-06
2.12653e-06 -2.97102e-06 2.30812e-05
0.000501161 1.79166e-05 1.26319e-07
1.79166e-05 -3.90244e-05 -3.02182e-08
1.26319e-07 -3.02182e-08 -6.28107e-05
0.00244397 8.5005e-05 -3.15653e-06
8.5005e-05 0.00115734 2.2896e-06
-3.15653e-06 2.2896e-06 0.00116447
0.000501717 8.9778e-06 1.4115e-06
8.9778e-06 -3.87601e-05 -5.09884e-06
1.4115e-06 -5.09884e-06 -6.15894e-05
0.00168744 4.87e-05 1.23927e-05
4.87e-05 0.00068869 -1.10566e-06
1.23927e-05 -1.10566e-06 0.000694859
0.00251626 4.6882e-05 1.59047e-05
4.6882e-05 0.00119641 -5.31939e-06
1.59047e-05 -5.31939e-06 0.00120833
0.000323421 1.03955e-05 1.08497e-06
1.03955e-05 -0.000106766 -1.49634e-06
1.08497e-06 -1.49634e-06 -0.000214304
0.000259773 6.92893e-06 7.8761e-07
6.92893e-06 -0.000165508 -3.0016e-06
7.8761e-07 -3.0016e-06 -0.000230026
0.000521244 2.38034e-05 -4.91999e-07
2.38034e-05 2.93537e-05 -1.13281e-06
-4.91999e-07 -1.13281e-06 -8.23505e-05
0.000530666 -6.75985e-06 1.51237e-06
-6.75985e-06 -2.73863e-05 -4.03656e-06
1.51237e-06 -4.03656e-06 -4.00397e-05
0.000234329 1.03555e-05 -5.98368e-07
1.03555e-05 -0.000178306 -1.50936e-06
-5.98368e-07 -1.50936e-06 -0.000236219
0.000685828 4.4068e-05 -6.67041e-07
4.4068e-05 0.000137383 1.33235e-06
-6.67041e-07 1.33235e-06 3.11431e-05
0.00210752 -2.23172e-05 -1.34753e-05
-2.23172e-05 0.000941741 -4.65965e-06
-1.34753e-05 -4.65965e-06 0.000959417
0.00051737 -3.60355e-06 -3.8195e-07
-3.60355e-06 -3.56795e-05 -5.85056e-08
-3.8195e-07 -5.85056e-08 -4.55111e-05
0.000183495 9.21626e-06 7.34197e-07
9.21626e-06 -0.000207929 1.69256e-06
7.34197e-07 1.69256e-06 -0.000258756
0.00204162 -7.5239e-06 -3.88042e-06
-7.5239e-06 0.000901298 5.04559e-08
-3.88042e-06 5.04559e-08 0.000919802
0.00050958 -4.63374e-07 -1.12409e-06
-4.63374e-07 -4.01762e-05 3.44902e-06
-1.12409e-06 3.44902e-06 -4.83199e-05
0.00204478 7.6613e-06 3.99634e-06
7.6613e-06 0.000904333 4.70414e-06
3.99634e-06 4.70414e-06 0.000922596
0.000423158 -1.79644e-05 5.70874e-05
-1.79644e-05 0.000971491 1.24287e-05
5.70874e-05 1.24287e-05 0.000819237
0.000138138 -0.000248395 -2.09699e-05
-0.000248395 0.000117733 -1.49671e-05
-2.09699e-05 -1.49671e-05 -0.00250037
0.000560387 0.00023672 3.55508e-05
0.00023672 0.00501492 -2.92349e-05
3.55508e-05 -2.92349e-05 0.00257007
0.000758691 0.000111492 4.88635e-08
0.000111492 0.000164748 2.67039e-07
4.88635e-08 2.67039e-07 3.11769e-05
0.000508619 7.6269e-05 3.1802e-06
7.6269e-05 -3.57273e-06 6.67397e-07
3.1802e-06 6.67397e-07 -0.000126769
0.000981949 0.000157898 4.39618e-06
0.000157898 0.000300571 3.51445e-06
4.39618e-06 3.51445e-06 0.000160899
0.00395995 -8.86118e-05 -1.41414e-05
-8.86118e-05 -0.000324112 0.000211556
-1.41414e-05 0.000211556 -0.00105281
0.00385833 -0.000476893 4.72771e-05
-0.000476893 0.00261503 -5.95115e-06
4.72771e-05 -5.95115e-06 0.00130652
0.00436948 -0.000968965 0.00010267
-0.000968965 0.00179695 -0.000175339
0.00010267 -0.000175339 -0.00226688
0.00768255 -0.00167999 -7.04755e-05
-0.00167999 0.000851455 -1.91411e-05
-7.04755e-05 -1.91411e-05 0.00101542
0.000913592 -0.00176141 -0.000226322
-0.00176141 -0.0012335 9.91299e-05
-0.000226322 9.91299e-05 -0.00416404
0.0174817 0.0027127 0.000128101
0.0027127 0.00676311 9.02674e-05
0.000128101 9.02674e-05 0.00448011
0.00510612 0.000186825 0.000159886
0.000186825 -0.00310659 -0.000160915
0.000159886 -0.000160915 -0.00274216
0.0049096 -0.00198944 -3.15262e-05
-0.00198944 0.000701126 1.10837e-05
-3.15262e-05 1.10837e-05 0.000402455
0.00730616 -0.0022675 -6.8267e-05
-0.0022675 0.00301283 2.31595e-05
-6.8267e-05 2.31595e-05 -0.000940555
-0.00341342 0.00241501 -6.55688e-05
0.00241501 0.0016253 -0.000217084
-6.55688e-05 -0.000217084 -0.0016617
0.00775589 0.000218859 -3.82562e-05
0.000218859 -0.00325701 9.68823e-05
-3.82562e-05 9.68823e-05 -0.000382076
0.00101288 -0.0011431 -8.79119e-05
-0.0011431 0.000181215 1.88665e-05
-8.79119e-05 1.88665e-05 -0.000162187
0.011146 -0.00219243 -0.000164198
-0.00219243 0.00524507 0.000114286
-0.000164198 0.000114286 0.000933787
-0.00571332 -2.70603e-05 3.43116e-05
-2.70603e-05 0.000956744 -0.000281072
3.43116e-05 -0.000281072 -0.00198632
0.00685487 -0.00123835 7.43043e-05
-0.00123835 -0.00200622 2.08174e-05
7.43043e-05 2.08174e-05 -0.00101416
0.000514798 7.95694e-05 2.5904e-06
7.95694e-05 3.37991e-05 9.06105e-06
2.5904e-06 9.06105e-06 -0.000107879
0.000745124 -2.05635e-05 2.36324e-06
-2.05635e-05 0.000218798 -1.87708e-06
2.36324e-06 -1.87708e-06 2.91578e-05
0.000885858 -0.000105809 -8.04976e-07
-0.000105809 0.000301474 -6.48001e-06
-8.04976e-07 -6.48001e-06 0.000115588
0.000697246 0.000100099 -1.40867e-06
0.000100099 0.000124264 2.30553e-07
-1.40867e-06 2.30553e-07 -1.73924e-05
0.00077104 0.000132701 4.26879e-10
0.000132701 0.000220108 -2.35642e-06
4.26879e-10 -2.35642e-06 6.02624e-05
0.00113713 0.000161009 -3.48978e-06
0.000161009 0.000436055 -1.62442e-06
-3.48978e-06 -1.62442e-06 0.000277745
-0.000930826 -0.000672205 1.7657e-05
-0.000672205 -0.00145882 1.26033e-06
1.7657e-05 1.26033e-06 -0.00141002
-9.50612e-06 -0.000244972 2.18943e-05
-0.000244972 -0.000301942 -2.06087e-05
2.18943e-05 -2.06087e-05 -0.000300976
0.000131755 2.189e-05 -2.94637e-06
2.189e-05 -0.00015254 -6.38607e-06
-2.94637e-06 -6.38607e-06 -0.000335505
0.00129096 -0.000332946 4.49547e-05
-0.000332946 0.000671099 -2.66964e-05
4.49547e-05 -2.66964e-05 0.000339164
0.00140937 -2.65748e-05 -5.35769e-06
-2.65748e-05 0.000727919 -3.98462e-06
-5.35769e-06 -3.98462e-06 0.00046716
0.000691692 9.34722e-05 1.47129e-06
9.34722e-05 0.000173448 2.11165e-06
1.47129e-06 2.11165e-06 1.98071e-05
0.000873787 0.00014958 5.14249e-08
0.00014958 0.000344281 -2.57552e-06
5.14249e-08 -2.57552e-06 0.000181515
0.00035655 -0.000773318 3.55843e-06
-0.000773318 -0.000406516 -4.70157e-06
3.55843e-06 -4.70157e-06 -0.000531009
0.000308819 3.7171e-06 -4.12316e-06
3.7171e-06 0.000387138 2.90919e-06
-4.12316e-06 2.90919e-06 -4.11132e-05
0.00110221 -0.000209273 8.94865e-06
-0.000209273 0.000591318 -5.24425e-06
8.94865e-06 -5.24425e-06 0.000366514
0.00109884 0.000146395 2.62173e-06
0.000146395 0.000460516 -5.17902e-06
2.62173e-06 -5.17902e-06 0.000317637
-0.00237918 -9.20729e-05 -9.84641e-05
-9.20729e-05 -0.000693761 -1.89412e-05
-9.84641e-05 -1.89412e-05 -0.00134016
-5.31802e-05 -0.000124381 -2.09958e-05
-0.000124381 0.000188064 1.07132e-05
-2.09958e-05 1.07132e-05 -5.53359e-05
0.000354271 0.000110772 5.64265e-06
0.000110772 0.000376137 6.81679e-06
5.64265e-06 6.81679e-06 3.13677e-05
0.000254769 3.49399e-05 -1.75896e-06
3.49399e-05 -0.000506296 4.42509e-07
-1.75896e-06 4.42509e-07 -0.00100139
-0.000850946 4.21351e-05 5.7673e-06
4.21351e-05 0.000587431 -1.54011e-05
5.7673e-06 -1.54011e-05 6.80839e-05
0.000190221 -9.23432e-05 0.000241452
-9.23432e-05 0.000796728 4.93057e-06
0.000241452 4.93057e-06 -0.00214208
-0.000378203 0.00022144 -3.08686e-06
0.00022144 -9.62121e-05 2.01173e-05
-3.08686e-06 2.01173e-05 -0.000373226
0.000844462 0.00059134 -1.91699e-06
0.00059134 0.00029446 -5.93825e-06
-1.91699e-06 -5.93825e-06 -0.000153054
-0.00107455 -2.42419e-05 1.99614e-06
-2.42419e-05 -0.000147866 -4.58777e-06
1.99614e-06 -4.58777e-06 -0.000269389
-0.00370905 0.000636998 5.20382e-05
0.000636998 0.00125429 0.00012598
5.20382e-05 0.00012598 -0.00337016
-0.00709072 0.000989439 -0.000156217
0.000989439 -0.00315629 -0.000367994
-0.000156217 -0.000367994 -0.00625483
0.00306757 8.65973e-05 5.8609e-05
8.65973e-05 1.36119e-05 9.17632e-05
5.8609e-05 9.17632e-05 -2.97261e-05
0.00501311 0.000252328 -0.00016516
0.000252328 -0.0029584 0.000160235
-0.00016516 0.000160235 -0.00270977
0.000452643 0.000247598 4.2184e-06
0.000247598 0.000444197 -1.26157e-06
4.2184e-06 -1.26157e-06 0.00012578
0.00109409 9.89087e-06 2.18692e-05
9.89087e-06 -0.000420203 -2.87283e-05
2.18692e-05 -2.87283e-05 -0.000178963
0.00355766 -0.000376915 -4.90525e-05
-0.000376915 0.00256054 7.41654e-06
-4.90525e-05 7.41654e-06 0.00125515
0.000760653 0.00040667 -7.5472e-05
0.00040667 0.000945054 -6.38658e-06
-7.5472e-05 -6.38658e-06 -2.53508e-05
0.00845949 0.00295162 7.37101e-05
0.00295162 0.000277149 -0.000269712
7.37101e-05 -0.000269712 -0.00070061
-0.00184282 0.0019352 5.91547e-05
0.0019352 0.00151182 0.000215821
5.91547e-05 0.000215821 -0.00149214
0.00658782 0.000282955 4.84655e-05
0.000282955 0.00615012 -2.46307e-05
4.84655e-05 -2.46307e-05 -0.000153972
0.00114048 -2.68009e-05 4.08087e-05
-2.68009e-05 0.00136515 -2.49189e-05
4.08087e-05 -2.49189e-05 0.000651122
0.000374503 -2.89865e-05 -4.78631e-05
-2.89865e-05 0.000928922 3.1927e-06
-4.78631e-05 3.1927e-06 0.000759402
0.00269752 -0.000660704 0.000474814
-0.000660704 0.000961333 -0.000205413
0.000474814 -0.000205413 -0.00310359
0.0103547 0.00402013 -8.09532e-06
0.00402013 0.00747978 3.74152e-06
-8.09532e-06 3.74152e-06 0.00652424
-0.000866816 0.00234281 -4.31219e-05
0.00234281 -0.00213811 0.000529332
-4.31219e-05 0.000529332 -0.00378164
0.0123636 -0.0022687 0.000187517
-0.0022687 0.00539119 -0.000161322
0.000187517 -0.000161322 0.000830371
0.00324344 -0.000614893 -5.98522e-05
-0.000614893 0.00207656 5.38886e-05
-5.98522e-05 5.38886e-05 0.00146446
0.00128198 0.000229244 8.43138e-06
0.000229244 0.000966891 5.87026e-06
8.43138e-06 5.87026e-06 0.000646024
-4.19552e-06 -2.25923e-05 -1.29755e-05
-2.25923e-05 0.000241863 -7.61849e-07
-1.29755e-05 -7.61849e-07 -6.24528e-06
0.00160587 -0.000352164 2.38796e-05
-0.000352164 0.00100591 -1.01698e-05
2.38796e-05 -1.01698e-05 0.000643355
0.000803985 -8.59431e-05 5.98879e-07
-8.59431e-05 0.00039504 4.09037e-06
5.98879e-07 4.09037e-06 0.000233377
9.11739e-05 -3.95858e-05 -3.76377e-06
-3.95858e-05 0.000212828 3.82384e-06
-3.76377e-06 3.82384e-06 -7.19355e-05
0.000354954 -0.000206692 -2.16789e-06
-0.000206692 0.000314102 -4.39584e-07
-2.16789e-06 -4.39584e-07 6.01831e-05
0.00102691 -0.000406409 2.69889e-05
-0.000406409 0.000410405 -2.12058e-05
2.69889e-05 -2.12058e-05 0.00022202
0.00227393 -0.0002816 -4.23336e-06
-0.0002816 0.00110256 3.84729e-06
-4.23336e-06 3.84729e-06 0.000938359
0.00210661 -0.000517308 9.47502e-06
-0.000517308 0.000945585 -2.14469e-06
9.47502e-06 -2.14469e-06 0.000646671
0.00193475 -0.000520281 1.3675e-05
-0.000520281 0.000817132 -9.62006e-07
1.3675e-05 -9.62006e-07 0.000346719
0.000410468 -0.000238457 -3.97056e-06
-0.000238457 -0.000117408 -2.05721e-06
-3.97056e-06 -2.05721e-06 -0.000290867
0.00150934 -0.000432472 -2.79119e-06
-0.000432472 0.000387796 6.06891e-07
-2.79119e-06 6.06891e-07 5.04743e-05
0.00210947 -0.000586887 4.2038e-07
-0.000586887 0.000675744 1.21728e-06
4.2038e-07 1.21728e-06 0.000241764
0.00169968 -0.000586437 -3.65731e-06
-0.000586437 0.000330146 1.89732e-06
-3.65731e-06 1.89732e-06 -4.53746e-05
0.0015306 -0.000456399 -1.08548e-06
-0.000456399 0.000354172 9.36121e-07
-1.08548e-06 9.36121e-07 3.68446e-05
0.00143131 -0.000452295 -3.42686e-06
-0.000452295 0.000273537 1.42399e-06
-3.42686e-06 1.42399e-06 -5.9413e-05
0.00115524 -0.000346872 -5.6783e-06
-0.000346872 0.000215676 5.10434e-07
-5.6783e-06 5.10434e-07 -7.65073e-05
0.0023387 -0.000440446 3.58981e-06
-0.000440446 0.000931312 -1.15398e-07
3.58981e-06 -1.15398e-07 0.000663561
0.00143909 -0.000374434 4.73043e-06
-0.000374434 0.000334726 -2.43256e-06
4.73043e-06 -2.43256e-06 6.45113e-05
0.000133481 -0.000131624 -3.86249e-07
-0.000131624 -0.000256237 2.7102e-09
-3.86249e-07 2.7102e-09 -0.000476863
0.000892261 -0.000278126 3.5658e-06
-0.000278126 0.000137697 -1.80312e-06
3.5658e-06 -1.80312e-06 -0.000112677
0.000546135 -0.000254807 2.29144e-06
-0.000254807 -0.000164998 -4.7262e-06
2.29144e-06 -4.7262e-06 -0.000414895
-2.33317e-05 -1.34673e-05 5.78367e-07
-1.34673e-05 -0.000293344 1.87521e-06
5.78367e-07 1.87521e-06 -0.000461765
0.00103902 -0.000162319 -3.88011e-07
-0.000162319 0.000379508 -7.31519e-08
-3.88011e-07 -7.31519e-08 0.000159476
0.00122696 -0.000311739 -2.44649e-06
-0.000311739 0.000481752 -2.17273e-06
-2.44649e-06 -2.17273e-06 0.000231532
0.000686555 -4.50621e-06 -8.12963e-07
-4.50621e-06 9.91541e-05 4.41084e-06
-8.12963e-07 4.41084e-06 7.85543e-06
0.000800515 -7.54954e-05 -2.13498e-07
-7.54954e-05 0.000176256 -2.04506e-07
-2.13498e-07 -2.04506e-07 4.81515e-05
0.000389587 -7.71854e-05 -2.46706e-07
-7.71854e-05 -1.95863e-05 1.13521e-06
-2.46706e-07 1.13521e-06 -0.000188137
0.000722855 -7.35856e-05 3.9477e-07
-7.35856e-05 0.000144551 -1.14179e-06
3.9477e-07 -1.14179e-06 1.99731e-05
0.000614926 -2.40909e-05 -9.65304e-08
-2.40909e-05 5.30432e-05 -2.47224e-07
-9.65304e-08 -2.47224e-07 -2.78184e-05
0.000487913 3.73153e-05 1.35323e-07
3.73153e-05 -3.41294e-05 6.51467e-06
1.35323e-07 6.51467e-06 -6.55624e-05
0.000615744 -3.07898e-05 1.36339e-06
-3.07898e-05 5.63215e-05 -3.01362e-06
1.36339e-06 -3.01362e-06 -1.7716e-05
0.00051484 3.10567e-05 -8.82829e-07
3.10567e-05 -2.48044e-05 -1.2341e-07
-8.82829e-07 -1.2341e-07 -5.20436e-05
0.00255397 9.34328e-05 -2.97289e-05
9.34328e-05 0.00123147 4.29724e-06
-2.97289e-05 4.29724e-06 0.00123737
0.000528887 1.87393e-05 1.35021e-06
1.87393e-05 -2.23638e-05 -5.19593e-06
1.35021e-06 -5.19593e-06 -4.63423e-05
0.00166096 6.23355e-05 1.44919e-05
6.23355e-05 0.000676039 -8.76104e-07
1.44919e-05 -8.76104e-07 0.000680455
0.00254726 6.38466e-05 2.03793e-05
6.38466e-05 0.00121771 -4.99517e-06
2.03793e-05 -4.99517e-06 0.00122792
0.000701074 7.7327e-05 2.06257e-06
7.7327e-05 0.00013376 -6.19314e-07
2.06257e-06 -6.19314e-07 1.59952e-05
0.000556316 3.61422e-05 8.57943e-07
3.61422e-05 1.43627e-05 -2.64301e-06
8.57943e-07 -2.64301e-06 -5.37758e-05
0.000497529 4.3999e-05 -1.1387e-06
4.3999e-05 1.27785e-05 -1.19857e-06
-1.1387e-06 -1.19857e-06 -0.00010405
0.000517535 -7.74411e-06 9.48392e-07
-7.74411e-06 -3.50754e-05 -4.75279e-06
9.48392e-07 -4.75279e-06 -5.12574e-05
0.000383884 2.85823e-05 -1.9117e-06
2.85823e-05 -8.87363e-05 -1.50202e-06
-1.9117e-06 -1.50202e-06 -0.00015249
0.000719615 5.88414e-05 -9.29827e-07
5.88414e-05 0.000151974 -9.90243e-07
-9.29827e-07 -9.90243e-07 4.09762e-05
0.00218872 -3.69248e-05 -1.7927e-05
-3.69248e-05 0.000992235 -4.67793e-06
-1.7927e-05 -4.67793e-06 0.00100852
0.000514453 -8.04359e-06 -1.42585e-07
-8.04359e-06 -3.75262e-05 -9.35624e-08
-1.42585e-07 -9.35624e-08 -4.9914e-05
0.000184283 8.62687e-06 -1.53436e-06
8.62687e-06 -0.000209186 5.37879e-07
-1.53436e-06 5.37879e-07 -0.000268105
0.00212451 -2.13867e-05 -4.73133e-06
-2.13867e-05 0.000952106 1.09072e-07
-4.73133e-06 1.09072e-07 0.000969811
0.000512065 -5.27694e-06 -1.57272e-06
-5.27694e-06 -3.92156e-05 3.50592e-06
-1.57272e-06 3.50592e-06 -4.88453e-05
0.00207377 -6.05929e-06 8.82954e-06
-6.05929e-06 0.000920983 4.74236e-06
8.82954e-06 4.74236e-06 0.00093937
0.0012325 -0.000105912 -2.3548e-05
-0.000105912 -0.000341975 2.61392e-05
-2.3548e-05 2.61392e-05 -0.000165902
0.000224737 -0.00012588 3.11761e-05
-0.00012588 0.00084291 -2.00343e-06
3.11761e-05 -2.00343e-06 0.00069132
7.054e-05 -0.000250256 0.000135728
-0.000250256 0.000286113 -7.31258e-05
0.000135728 -7.31258e-05 -0.00250347
0.000423255 4.08544e-05 2.47761e-06
4.08544e-05 -6.45406e-05 8.92974e-07
2.47761e-06 8.92974e-07 -0.000185939
0.00148868 8.72533e-05 1.07445e-08
8.72533e-05 0.000567518 3.31859e-06
1.07445e-08 3.31859e-06 0.00042696
0.00076074 0.000120552 -1.29182e-06
0.000120552 0.000165476 -8.65131e-07
-1.29182e-06 -8.65131e-07 3.69986e-05
0.000526414 6.28828e-05 4.28342e-07
6.28828e-05 -2.99343e-06 6.26525e-07
4.28342e-07 6.26525e-07 -0.00011874
0.0005939 8.22508e-05 1.82725e-07
8.22508e-05 5.82627e-05 -5.2184e-08
1.82725e-07 -5.2184e-08 -6.91526e-05
0.000580739 7.19476e-05 2.60964e-06
7.19476e-05 3.90124e-05 -4.7922e-07
2.60964e-06 -4.7922e-07 -7.90315e-05
0.000638579 0.00016465 6.19623e-06
0.00016465 0.000122409 3.12602e-06
6.19623e-06 3.12602e-06 -2.25061e-05
0.000443745 0.00029766 9.9579e-05
0.00029766 -0.000350218 0.000213275
9.9579e-05 0.000213275 -0.00160594
0.00342475 -6.27436e-05 -2.28131e-05
-6.27436e-05 -5.85187e-05 5.65854e-05
-2.28131e-05 5.65854e-05 -0.000584533
0.00353641 -0.00036861 8.39893e-05
-0.00036861 0.00241596 -8.7815e-05
8.39893e-05 -8.7815e-05 0.00143525
0.00574162 -0.000127671 -7.39584e-06
-0.000127671 -0.00525874 0.000113895
-7.39584e-06 0.000113895 -0.00172525
0.00302482 -0.0016718 -8.91311e-05
-0.0016718 0.000689882 6.2118e-05
-8.91311e-05 6.2118e-05 0.000231676
-0.000927883 -0.00232831 -8.92432e-05
-0.00232831 0.000526776 8.98978e-05
-8.92432e-05 8.98978e-05 -0.00417458
0.011429 0.0028926 8.71586e-05
0.0028926 0.00574146 -0.000101831
8.71586e-05 -0.000101831 0.00275865
0.00303551 -0.00151148 -3.47416e-05
-0.00151148 0.000629031 1.38465e-05
-3.47416e-05 1.38465e-05 0.000564011
-0.00116087 -0.000595574 -1.86746e-06
-0.000595574 0.00243708 4.08769e-05
-1.86746e-06 4.08769e-05 -0.0031026
0.0055587 0.000350742 9.44305e-05
0.000350742 0.00265902 -1.51659e-05
9.44305e-05 -1.51659e-05 0.000355139
0.0122058 -0.00182052 -4.70742e-05
-0.00182052 0.0015947 -3.16905e-05
-4.70742e-05 -3.16905e-05 0.00293739
-0.000354118 -0.000287486 -9.96141e-05
-0.000287486 -0.000214056 9.25773e-05
-9.96141e-05 9.25773e-05 2.84237e-05
0.00214249 0.00184278 -0.00011716
0.00184278 0.00346807 -8.02205e-05
-0.00011716 -8.02205e-05 -0.00219324
-0.00465912 -0.00328679 4.51861e-05
-0.00328679 -0.00212953 -0.000198526
4.51861e-05 -0.000198526 -0.00541529
0.00926332 -0.00206743 7.78177e-05
-0.00206743 0.00104313 -0.000415005
7.78177e-05 -0.000415005 0.000916495
0.000834124 2.82489e-05 8.36885e-06
2.82489e-05 0.000282526 2.0877e-06
8.36885e-06 2.0877e-06 0.000133851
0.000656585 0.000116985 -8.99707e-07
0.000116985 0.000128603 -1.24625e-06
-8.99707e-07 -1.24625e-06 -1.53867e-05
0.000720249 -1.73136e-05 -7.71465e-07
-1.73136e-05 0.000213907 -2.58615e-06
-7.71465e-07 -2.58615e-06 1.09173e-05
0.00087161 9.90097e-05 -2.76898e-06
9.90097e-05 0.000252981 -5.39634e-06
-2.76898e-06 -5.39634e-06 9.48591e-05
-0.00041337 -0.000576511 -6.48241e-06
-0.000576511 -0.000731031 3.89654e-05
-6.48241e-06 3.89654e-05 -0.000870204
0.00217846 -0.000224551 -6.96224e-07
-0.000224551 0.00132149 -2.05104e-05
-6.96224e-07 -2.05104e-05 0.00102174
0.000659372 6.46985e-05 -4.02639e-06
6.46985e-05 0.000135656 -6.38098e-06
-4.02639e-06 -6.38098e-06 5.83954e-07
0.00075781 0.000199396 -2.37769e-06
0.000199396 0.000286334 4.61857e-07
-2.37769e-06 4.61857e-07 0.000118262
0.00160021 5.97813e-05 1.94807e-07
5.97813e-05 0.00106792 -1.01868e-05
1.94807e-07 -1.01868e-05 0.00073517
0.000765671 7.52579e-05 3.90676e-06
7.52579e-05 0.000225043 2.74974e-06
3.90676e-06 2.74974e-06 0.000105578
0.000276994 0.000133465 -1.17231e-06
0.000133465 0.000358884 9.39754e-07
-1.17231e-06 9.39754e-07 -8.09275e-06
0.0013629 -0.000290845 -5.80498e-06
-0.000290845 0.00118124 4.13646e-06
-5.80498e-06 4.13646e-06 0.000348352
-0.000135207 -7.74367e-05 2.86469e-05
-7.74367e-05 0.000264601 -1.29142e-07
2.86469e-05 -1.29142e-07 -2.89637e-05
0.00016018 0.000109366 3.83919e-06
0.000109366 0.000136804 -1.62779e-06
3.83919e-06 -1.62779e-06 -8.44048e-05
0.00072093 -7.88682e-05 -4.25018e-05
-7.88682e-05 0.0017855 -4.04704e-05
-4.25018e-05 -4.04704e-05 0.000397023
0.00143546 0.000243345 -4.36339e-07
0.000243345 0.00108498 1.79129e-05
-4.36339e-07 1.79129e-05 0.000678259
-0.000603287 4.22715e-05 -3.083e-05
4.22715e-05 0.000922629 1.26251e-05
-3.083e-05 1.26251e-05 0.000235432
0.000987097 -6.0444e-06 2.15568e-06
-6.0444e-06 -0.000197537 8.24853e-07
2.15568e-06 8.24853e-07 -0.000261478
-0.00114907 4.53222e-05 2.96188e-06
4.53222e-05 0.000286729 -3.22436e-05
2.96188e-06 -3.22436e-05 -7.59959e-05
0.000124018 0.000153992 -6.70248e-06
0.000153992 0.00034344 8.05036e-06
-6.70248e-06 8.05036e-06 9.1891e-05
-0.00125477 0.0005136 8.85505e-05
0.0005136 -0.000639103 7.75024e-05
8.85505e-05 7.75024e-05 -0.00111122
0.000924272 -4.42118e-06 3.16325e-05
-4.42118e-06 -0.000497801 -4.88332e-06
3.16325e-05 -4.88332e-06 -0.000142724
0.00337109 -0.00161031 0.000125132
-0.00161031 0.00421484 -0.000156246
0.000125132 -0.000156246 -0.00257275
0.0130028 0.00262022 -0.000126244
0.00262022 0.00587843 9.26963e-05
-0.000126244 9.26963e-05 0.0032185
0.00350333 -0.000283081 -8.33571e-05
-0.000283081 0.0022912 9.31668e-05
-8.33571e-05 9.31668e-05 0.00138803
0.00894317 0.00294507 -1.57734e-05
0.00294507 0.00201616 -0.000112311
-1.57734e-05 -0.000112311 0.000408101
0.000313893 0.000126463 -4.36922e-05
0.000126463 0.000828271 1.02075e-05
-4.36922e-05 1.02075e-05 0.000101502
0.000450224 -5.80878e-05 -3.60461e-05
-5.80878e-05 0.000796874 1.57509e-06
-3.60461e-05 1.57509e-06 0.000753331
0.00360957 -0.000831899 0.000189379
-0.000831899 0.00139799 -1.69494e-05
0.000189379 -1.69494e-05 -0.00252641
-0.00100639 -0.000186537 2.16995e-05
-0.000186537 -0.000329582 2.81851e-05
2.16995e-05 2.81851e-05 -0.000616145
0.00374029 0.0044261 0.000312974
0.0044261 0.00371224 -0.00015438
0.000312974 -0.00015438 0.00324878
0.00761053 0.00189348 -0.000119756
0.00189348 0.00122746 0.000221644
-0.000119756 0.000221644 -0.00052838
-0.00297499 -0.000923276 9.41243e-05
-0.000923276 0.00172534 -0.000103563
9.41243e-05 -0.000103563 -0.00433566
-6.5986e-05 -0.000288721 2.37241e-05
-0.000288721 0.000439031 -1.79669e-05
2.37241e-05 -1.79669e-05 -0.00026392
0.000265724 -0.00038499 0.000165921
-0.00038499 -0.000310722 -3.68713e-05
0.000165921 -3.68713e-05 -0.00245825
-0.00230017 -1.99333e-05 -0.000553976
-1.99333e-05 0.00408596 0.000138111
-0.000553976 0.000138111 0.00137713
0.00862626 0.0041938 -0.000395894
0.0041938 0.00192554 0.00043821
-0.000395894 0.00043821 0.000940645
0.00836655 -0.00189469 -5.95666e-05
-0.00189469 0.0036005 2.03765e-05
-5.95666e-05 2.03765e-05 -2.12686e-05
0.00272084 -0.000933445 -4.51397e-05
-0.000933445 0.00156857 2.88724e-05
-4.51397e-05 2.88724e-05 0.00108137
0.000146815 -3.1698e-05 1.09812e-05
-3.1698e-05 0.000277357 1.27858e-05
1.09812e-05 1.27858e-05 3.52076e-05
0.000357721 -0.000258377 5.40998e-06
-0.000258377 0.000373504 -5.32677e-07
5.40998e-06 -5.32677e-07 1.36206e-05
0.00128429 -0.000520023 1.38303e-05
-0.000520023 0.000600403 -2.82735e-07
1.38303e-05 -2.82735e-07 0.000457809
-0.00044662 -0.000185266 -1.64987e-06
-0.000185266 -6.93065e-05 7.36522e-06
-1.64987e-06 7.36522e-06 -0.000324887
-0.000776431 -0.000246371 1.02473e-06
-0.000246371 -0.000486487 -1.78221e-06
1.02473e-06 -1.78221e-06 -0.000682874
0.00270225 -0.000633774 4.09264e-05
-0.000633774 0.00106784 -3.10947e-06
4.09264e-05 -3.10947e-06 0.000802999
0.00529022 -0.000855421 -1.34359e-05
-0.000855421 0.00265886 5.14826e-06
-1.34359e-05 5.14826e-06 0.00231743
0.00263453 -0.000603163 6.87771e-06
-0.000603163 0.00112197 2.42319e-07
6.87771e-06 2.42319e-07 0.000665713
0.00160685 -0.000579431 1.038e-05
-0.000579431 0.00040678 -8.35216e-06
1.038e-05 -8.35216e-06 -8.04066e-05
0.00148007 -0.000426644 -9.70468e-06
-0.000426644 0.000341901 2.3564e-07
-9.70468e-06 2.3564e-07 6.52462e-06
0.00222916 -0.000610546 2.08507e-06
-0.000610546 0.000714203 6.32407e-08
2.08507e-06 6.32407e-08 0.000272693
0.00226728 -0.000653697 3.41344e-06
-0.000653697 0.000684017 -8.31594e-06
3.41344e-06 -8.31594e-06 0.000238812
0.00202153 -0.000577799 -1.62521e-06
-0.000577799 0.00039956 -4.3674e-06
-1.62521e-06 -4.3674e-06 7.70244e-05
0.00196496 -0.00061167 -8.50373e-07
-0.00061167 0.000459928 1.46415e-06
-8.50373e-07 1.46415e-06 0.000104755
0.00187957 -0.000608391 -1.71073e-06
-0.000608391 0.000429167 -3.13156e-08
-1.71073e-06 -3.13156e-08 4.52154e-05
0.00196643 -0.00046965 7.44898e-06
-0.00046965 0.000645563 2.58449e-06
7.44898e-06 2.58449e-06 0.000349707
0.00125569 -0.000419852 1.0119e-06
-0.000419852 0.00019426 2.64287e-07
1.0119e-06 2.64287e-07 -0.000108907
0.00130559 -0.000441163 -2.71366e-07
-0.000441163 0.000198785 8.08203e-08
-2.71366e-07 8.08203e-08 -0.000135088
0.00157239 -0.000339089 3.67696e-06
-0.000339089 0.00050581 -1.92832e-07
3.67696e-06 -1.92832e-07 0.000259925
0.00145346 -0.000351021 -1.35176e-06
-0.000351021 0.000389295 -1.56102e-06
-1.35176e-06 -1.56102e-06 0.000137375
0.00110127 -0.000341371 9.69886e-06
-0.000341371 0.000134931 -5.55647e-06
9.69886e-06 -5.55647e-06 -0.000129714
0.000588997 -0.000151986 2.96236e-06
-0.000151986 0.000100869 8.3064e-07
2.96236e-06 8.3064e-07 -0.000134965
0.000678085 -0.000178033 -2.26969e-06
-0.000178033 9.22678e-05 2.06294e-06
-2.26969e-06 2.06294e-06 -0.000138384
0.00132749 -0.000333818 6.99594e-06
-0.000333818 0.000416216 -6.24534e-06
6.99594e-06 -6.24534e-06 0.000155486
0.000431151 -8.22026e-06 7.83268e-07
-8.22026e-06 -5.81241e-05 5.15708e-06
7.83268e-07 5.15708e-06 -0.000162615
0.000687649 -5.63265e-05 -8.31697e-07
-5.63265e-05 0.000143692 -2.56547e-08
-8.31697e-07 -2.56547e-08 -3.5911e-05
0.00152799 -0.000224539 1.134e-06
-0.000224539 0.000679982 -6.79208e-07
1.134e-06 -6.79208e-07 0.000449657
0.000481416 3.09302e-05 -2.66621e-06
3.09302e-05 -3.52745e-05 9.4139e-06
-2.66621e-06 9.4139e-06 -6.96552e-05
0.000634698 -1.06772e-05 -3.8227e-07
-1.06772e-05 6.35939e-05 -2.154e-07
-3.8227e-07 -2.154e-07 -2.6848e-05
0.00111122 -0.000109567 -6.18034e-09
-0.000109567 0.000373365 -1.43417e-06
-6.18034e-09 -1.43417e-06 0.000233944
0.000656711 -2.38107e-05 9.77731e-07
-2.38107e-05 7.77295e-05 -3.52184e-06
9.77731e-07 -3.52184e-06 -3.48741e-06
0.000507932 3.43164e-05 2.82325e-07
3.43164e-05 -2.28078e-05 -2.34854e-08
2.82325e-07 -2.34854e-08 -5.39878e-05
0.00265155 0.000113819 -3.11958e-05
0.000113819 0.00129978 4.04503e-06
-3.11958e-05 4.04503e-06 0.00130107
0.000548921 3.2919e-05 1.3615e-07
3.2919e-05 -4.79706e-06 -5.84115e-06
1.3615e-07 -5.84115e-06 -3.22772e-05
0.00257467 9.68101e-05 3.58002e-06
9.68101e-05 0.00124503 3.77192e-07
3.58002e-06 3.77192e-07 0.00125021
0.00252025 8.01656e-05 2.39995e-05
8.01656e-05 0.00120549 -4.56524e-06
2.39995e-05 -4.56524e-06 0.00121379
0.000654526 7.90254e-05 6.50488e-07
7.90254e-05 0.000136962 -7.74988e-07
6.50488e-07 -7.74988e-07 -2.02336e-05
0.000760627 9.96078e-05 3.14504e-06
9.96078e-05 0.000182208 -1.21851e-06
3.14504e-06 -1.21851e-06 4.4245e-05
0.000597146 2.83205e-05 1.3982e-06
2.83205e-05 3.88863e-05 -3.20255e-06
1.3982e-06 -3.20255e-06 -3.62984e-05
0.000656765 9.04368e-05 1.07002e-07
9.04368e-05 0.000103726 -1.62212e-07
1.07002e-07 -1.62212e-07 -1.28371e-05
0.000505705 -8.27638e-06 -2.20664e-07
-8.27638e-06 -3.96609e-05 -5.68103e-06
-2.20664e-07 -5.68103e-06 -6.01841e-05
0.000574898 3.88471e-05 1.91532e-07
3.88471e-05 2.61391e-05 -1.14243e-07
1.91532e-07 -1.14243e-07 -4.20744e-05
0.000600449 4.76912e-05 -3.09178e-06
4.76912e-05 6.37439e-05 -9.93824e-09
-3.09178e-06 -9.93824e-09 -4.42888e-05
0.00230854 -5.21295e-05 -2.34054e-05
-5.21295e-05 0.00106769 -4.70856e-06
-2.34054e-05 -4.70856e-06 0.00108179
0.000514324 -1.18328e-05 -5.33558e-07
-1.18328e-05 -3.64188e-05 -8.27471e-08
-5.33558e-07 -8.27471e-08 -5.25441e-05
0.000511761 4.39875e-05 -2.47316e-06
4.39875e-05 -9.6556e-06 8.60726e-07
-2.47316e-06 8.60726e-07 -7.25333e-05
0.0021947 -3.59912e-05 -4.45334e-06
-3.59912e-05 0.000995823 1.95911e-07
-4.45334e-06 1.95911e-07 0.00101222
0.000514083 -8.14851e-06 -1.67285e-06
-8.14851e-06 -3.79343e-05 3.77742e-06
-1.67285e-06 3.77742e-06 -5.00923e-05
0.00210528 -2.03203e-05 1.30437e-05
-2.03203e-05 0.000940031 4.6648e-06
1.30437e-05 4.6648e-06 0.000957907
-0.000992888 -1.04069e-05 -8.16454e-06
-1.04069e-05 -0.000126832 -2.47348e-06
-8.16454e-06 -2.47348e-06 -1.15054e-06
0.00121434 -0.000126733 -1.76444e-05
-0.000126733 -0.000383612 2.70083e-05
-1.76444e-05 2.70083e-05 -0.000107053
0.000356633 -0.000143141 8.32777e-06
-0.000143141 0.000804575 -2.3555e-05
8.32777e-06 -2.3555e-05 0.000649684
0.000739553 8.09189e-05 -2.64757e-07
8.09189e-05 0.000158518 2.77697e-07
-2.64757e-07 2.77697e-07 1.63997e-05
0.00058684 6.87584e-05 2.67382e-06
6.87584e-05 2.42769e-05 -7.95701e-07
2.67382e-06 -7.95701e-07 -0.000108528
-0.000954044 1.2907e-05 -4.36995e-06
1.2907e-05 -0.000892467 -5.99625e-06
-4.36995e-06 -5.99625e-06 -0.000999616
0.000246375 2.36127e-05 2.1152e-06
2.36127e-05 -0.000156363 6.25775e-06
2.1152e-06 6.25775e-06 -0.000284534
0.00221084 0.000275804 -9.78436e-07
0.000275804 0.00105741 8.51415e-07
-9.78436e-07 8.51415e-07 0.000865909
0.000705911 3.94426e-05 -3.3576e-06
3.94426e-05 9.74607e-05 -6.64652e-07
-3.3576e-06 -6.64652e-07 -1.55333e-05
0.000597103 7.42718e-05 -3.7385e-06
7.42718e-05 5.07709e-05 -4.26073e-06
-3.7385e-06 -4.26073e-06 -6.77927e-05
0.000744841 7.13285e-05 3.10703e-08
7.13285e-05 0.000141718 -2.90425e-07
3.10703e-08 -2.90425e-07 1.9899e-05
0.000950727 0.000127962 -6.95166e-08
0.000127962 0.000285688 -7.33665e-07
-6.95166e-08 -7.33665e-07 0.000155732
0.000820469 9.33219e-05 4.39323e-06
9.33219e-05 0.000270433 -3.97225e-06
4.39323e-06 -3.97225e-06 0.000106547
0.00412976 0.000498829 0.000258986
0.000498829 0.00281507 0.000343621
0.000258986 0.000343621 -0.00122953
0.00105993 0.000283871 1.32148e-05
0.000283871 -8.09798e-05 7.97015e-05
1.32148e-05 7.97015e-05 -0.00156455
0.0030372 -5.70569e-05 -4.06393e-06
-5.70569e-05 0.00012617 -1.32182e-05
-4.06393e-06 -1.32182e-05 -0.000159708
0.0122643 -0.00157278 -0.000158163
-0.00157278 0.00166791 -0.000131773
-0.000158163 -0.000131773 0.00329796
-0.00716855 0.00141038 2.37974e-05
0.00141038 -0.00279134 0.000345651
2.37974e-05 0.000345651 -0.00612377
0.00385735 -0.0016275 -9.61475e-05
-0.0016275 0.00122671 1.47615e-05
-9.61475e-05 1.47615e-05 0.00119615
0.0106752 -0.00148873 -0.000101046
-0.00148873 0.0051638 3.45783e-06
-0.000101046 3.45783e-06 0.00109064
0.00105198 -0.000391522 -2.50248e-05
-0.000391522 0.000238157 8.04849e-05
-2.50248e-05 8.04849e-05 0.000129819
0.010398 -0.000264011 -6.57636e-05
-0.000264011 0.00592523 -8.54517e-06
-6.57636e-05 -8.54517e-06 0.000537506
0.00362602 -0.00196587 7.80527e-05
-0.00196587 0.00182934 0.000117572
7.80527e-05 0.000117572 -0.00121916
0.00969045 -0.00266279 -0.000172615
-0.00266279 0.000220593 -0.000491541
-0.000172615 -0.000491541 6.26414e-05
0.00313757 0.000118595 -0.000109647
0.000118595 0.00182142 7.46777e-05
-0.000109647 7.46777e-05 0.00118027
0.0115533 0.00177381 -0.000103724
0.00177381 0.00557882 2.56532e-05
-0.000103724 2.56532e-05 0.00142455
0.0137668 -0.00378584 -0.000162448
-0.00378584 0.00573767 -0.000446537
-0.000162448 -0.000446537 0.00399746
0.0135509 -0.0046984 8.16779e-05
-0.0046984 0.00417146 -2.64197e-05
8.16779e-05 -2.64197e-05 0.00407405
0.000294366 0.00011031 9.21628e-06
0.00011031 3.35571e-05 8.50848e-07
9.21628e-06 8.50848e-07 -0.000139951
0.000573068 3.58122e-05 1.34751e-06
3.58122e-05 0.000156848 2.08186e-06
1.34751e-06 2.08186e-06 -1.30539e-05
0.000790247 0.00013512 -5.01257e-06
0.00013512 0.000214648 -6.96316e-06
-5.01257e-06 -6.96316e-06 6.60299e-05
0.00270429 -0.00030602 -4.91165e-05
-0.00030602 0.00148826 3.5866e-05
-4.91165e-05 3.5866e-05 0.000539898
0.000822898 -4.92513e-05 -2.87139e-05
-4.92513e-05 0.000840381 -3.19614e-05
-2.87139e-05 -3.19614e-05 0.000554245
0.000491718 3.74137e-06 -7.63366e-06
3.74137e-06 5.09e-05 -1.1786e-06
-7.63366e-06 -1.1786e-06 -6.12866e-05
-7.11242e-05 4.1262e-05 -1.69898e-06
4.1262e-05 0.000168142 -3.86281e-06
-1.69898e-06 -3.86281e-06 -0.000200543
0.000283402 9.244e-05 1.05475e-06
9.244e-05 0.000181258 -1.20497e-06
1.05475e-06 -1.20497e-06 -4.28131e-05
0.000584945 0.000218113 7.8924e-06
0.000218113 0.000574795 1.65519e-06
7.8924e-06 1.65519e-06 0.000165603
-0.00126426 -8.08848e-05 0.000187568
-8.08848e-05 0.000644845 -2.18463e-05
0.000187568 -2.18463e-05 -0.000846458
-0.00161784 0.000137427 -1.25359e-05
0.000137427 -0.000823876 1.28654e-05
-1.25359e-05 1.28654e-05 -0.00111698
0.00247237 0.000517114 -0.000104239
0.000517114 0.00176874 -6.24325e-05
-0.000104239 -6.24325e-05 0.000725804
0.00167712 0.000142897 0.000119136
0.000142897 0.00149658 3.56934e-05
0.000119136 3.56934e-05 -0.00148268
-0.000908546 4.95058e-05 -4.73302e-06
4.95058e-05 0.000640071 1.74086e-05
-4.73302e-06 1.74086e-05 4.5526e-05
0.00172325 -0.00011209 -4.6001e-06
-0.00011209 0.000136967 1.06668e-06
-4.6001e-06 1.06668e-06 0.000458622
-0.00123767 0.000375224 0.000113649
0.000375224 -8.56804e-05 1.10628e-05
0.000113649 1.10628e-05 -0.000910257
0.0018676 0.000222105 -5.53388e-05
0.000222105 0.00138131 4.73469e-05
-5.53388e-05 4.73469e-05 0.000320862
0.00035562 -0.000121434 -1.46006e-05
-0.000121434 0.000779548 9.51875e-06
-1.46006e-05 9.51875e-06 0.000632932
0.0159487 -0.00264437 0.000146014
-0.00264437 0.00733701 -6.18424e-05
0.000146014 -6.18424e-05 0.00245417
0.0159573 0.00287287 -6.24171e-05
0.00287287 0.00649623 -8.20515e-05
-6.24171e-05 -8.20515e-05 0.00423383
0.00442841 -0.000901464 -0.000123011
-0.000901464 0.00193619 0.000167954
-0.000123011 0.000167954 -0.00204491
-0.00346923 0.0050626 0.00141565
0.0050626 -0.000598925 -0.00102323
0.00141565 -0.00102323 -0.000822972
0.000703687 -0.000302373 2.04832e-05
-0.000302373 0.000899254 -5.83556e-06
2.04832e-05 -5.83556e-06 0.000118781
0.000225488 -0.00027818 1.78276e-05
-0.00027818 6.26993e-05 1.52767e-05
1.78276e-05 1.52767e-05 -0.00247661
-0.0025511 0.000227845 -0.00070935
0.000227845 0.00401586 0.000265936
-0.00070935 0.000265936 0.00122342
0.000926721 -0.000533342 -1.13416e-05
-0.000533342 0.000660217 3.47159e-05
-1.13416e-05 3.47159e-05 0.000228895
0.0162905 0.00380769 0.00019859
0.00380769 0.00471736 8.31531e-05
0.00019859 8.31531e-05 0.00385446
0.00777992 -0.00269052 0.000128284
-0.00269052 0.00297587 -6.39129e-05
0.000128284 -6.39129e-05 -0.000417933
0.00222316 -0.000825778 -9.01091e-06
-0.000825778 0.00113092 2.7828e-05
-9.01091e-06 2.7828e-05 0.000752953
-0.00593698 -0.000971206 7.84799e-05
-0.000971206 0.00329998 -4.38267e-05
7.84799e-05 -4.38267e-05 0.000239621
0.0128961 0.00345805 -0.000860824
0.00345805 0.00529462 0.000380843
-0.000860824 0.000380843 0.00408036
0.00334216 -0.00183939 -0.00028421
-0.00183939 -0.000547281 0.000165398
-0.00028421 0.000165398 -0.00412227
0.00227185 -0.00137232 0.000153188
-0.00137232 0.000469625 -8.32864e-05
0.000153188 -8.32864e-05 0.000947316
-9.23349e-05 -0.000264704 -6.14425e-05
-0.000264704 0.000109276 2.01399e-05
-6.14425e-05 2.01399e-05 -0.000228887
0.000697492 -0.00044696 -9.04813e-06
-0.00044696 0.000340557 1.19575e-05
-9.04813e-06 1.19575e-05 0.000124927
0.0032588 -0.000683006 2.576e-05
-0.000683006 0.00146991 3.06878e-06
2.576e-05 3.06878e-06 0.00121616
-0.00258812 -9.75895e-05 6.62361e-07
-9.75895e-05 -0.00137868 1.08764e-05
6.62361e-07 1.08764e-05 -0.0015838
0.000895758 -0.00043049 6.21046e-06
-0.00043049 0.000136796 1.09762e-06
6.21046e-06 1.09762e-06 -0.000119477
0.00220943 -0.000674528 7.80251e-06
-0.000674528 0.000539328 -1.51147e-06
7.80251e-06 -1.51147e-06 0.000243456
0.00318861 -0.000667551 -2.2198e-05
-0.000667551 0.00134862 7.14433e-06
-2.2198e-05 7.14433e-06 0.000909256
0.00140869 -0.000542004 -1.4909e-06
-0.000542004 0.000277481 -2.51209e-06
-1.4909e-06 -2.51209e-06 -0.000186485
0.0017575 -0.000675437 5.64312e-06
-0.000675437 0.000245206 -9.32861e-06
5.64312e-06 -9.32861e-06 -0.000128894
0.00263875 -0.000664205 -4.35977e-06
-0.000664205 0.000914808 1.76444e-06
-4.35977e-06 1.76444e-06 0.00046489
0.00185572 -0.000615711 2.27301e-07
-0.000615711 0.000435768 -4.7064e-06
2.27301e-07 -4.7064e-06 8.7719e-06
0.00234232 -0.000611106 2.4822e-06
-0.000611106 0.000522967 -8.22313e-06
2.4822e-06 -8.22313e-06 0.000209848
0.00167773 -0.00043453 -4.35926e-06
-0.00043453 6.16802e-05 -3.46e-06
-4.35926e-06 -3.46e-06 -0.000165605
0.00171732 -0.000565868 1.2509e-06
-0.000565868 0.000190565 -1.076e-06
1.2509e-06 -1.076e-06 -0.000126331
0.00190969 -0.000566218 2.33425e-06
-0.000566218 0.000335033 -2.8515e-06
2.33425e-06 -2.8515e-06 1.67583e-05
0.00189305 -0.00053116 9.91506e-07
-0.00053116 0.00048621 -6.4771e-09
9.91506e-07 -6.4771e-09 0.00016459
0.00195512 -0.000610632 -2.08351e-06
-0.000610632 0.000469984 1.23886e-07
-2.08351e-06 1.23886e-07 0.0001102
0.00204316 -0.000630543 4.49627e-07
-0.000630543 0.000517416 -3.13078e-06
4.49627e-07 -3.13078e-06 0.000125189
0.00189326 -0.000404286 4.70841e-06
-0.000404286 0.000632965 1.50405e-06
4.70841e-06 1.50405e-06 0.000365246
0.00118901 -0.000386042 1.60627e-06
-0.000386042 0.000190504 7.71681e-07
1.60627e-06 7.71681e-07 -8.54272e-05
0.0010788 -0.00039502 2.44147e-06
-0.00039502 8.97513e-05 -3.43297e-08
2.44147e-06 -3.43297e-08 -0.000200996
0.000949051 -0.000269021 -8.34005e-07
-0.000269021 0.000218988 4.59849e-07
-8.34005e-07 4.59849e-07 -1.63156e-05
0.00103117 -0.000280844 -1.27252e-06
-0.000280844 0.000183006 -9.79947e-07
-1.27252e-06 -9.79947e-07 -5.2125e-05
0.000740592 -0.000279085 -3.55226e-06
-0.000279085 -4.68371e-05 -2.00594e-06
-3.55226e-06 -2.00594e-06 -0.000286872
-5.44826e-05 -3.4866e-05 -1.1159e-06
-3.4866e-05 -0.0003427 5.25195e-06
-1.1159e-06 5.25195e-06 -0.000486894
0.000761044 -0.000161954 2.11837e-06
-0.000161954 0.0002045 2.30803e-07
2.11837e-06 2.30803e-07 -3.31536e-05
0.00144003 -0.000231404 -1.5009e-06
-0.000231404 0.000572471 1.24263e-06
-1.5009e-06 1.24263e-06 0.000328611
0.00159733 6.82674e-05 -2.60284e-05
6.82674e-05 0.000659954 6.35041e-06
-2.60284e-05 6.35041e-06 0.000620087
0.000692182 -4.64792e-05 6.43714e-07
-4.64792e-05 9.45141e-05 -4.96817e-07
6.43714e-07 -4.96817e-07 -1.29605e-05
0.00141426 -0.00010026 -2.89715e-06
-0.00010026 0.000591843 -2.41557e-06
-2.89715e-06 -2.41557e-06 0.000399947
0.000776837 4.89144e-05 -3.6324e-05
4.89144e-05 0.000151196 4.58956e-06
-3.6324e-05 4.58956e-06 0.000145651
0.00101309 4.71487e-05 -1.15287e-05
4.71487e-05 0.000293635 -4.35268e-07
-1.15287e-05 -4.35268e-07 0.00025955
0.000614027 -1.83593e-05 6.98724e-07
-1.83593e-05 4.65117e-05 -4.55714e-06
6.98724e-07 -4.55714e-06 -4.2912e-05
0.000527452 3.54481e-05 9.38403e-07
3.54481e-05 -1.07509e-05 -6.80987e-06
9.38403e-07 -6.80987e-06 -4.23498e-05
0.00267215 0.000115089 5.91728e-06
0.000115089 0.00131305 5.4978e-07
5.91728e-06 5.4978e-07 0.00131417
0.00256295 9.8464e-05 2.63446e-05
9.8464e-05 0.00123866 -4.39354e-06
2.63446e-05 -4.39354e-06 0.00124347
0.00104986 0.000112691 4.52858e-06
0.000112691 0.000358119 4.36027e-06
4.52858e-06 4.36027e-06 0.000209111
0.00090672 0.000113714 2.58529e-06
0.000113714 0.000281339 -2.42671e-06
2.58529e-06 -2.42671e-06 0.000129683
0.00048105 6.40874e-05 -7.43439e-07
6.40874e-05 5.07202e-06 1.28396e-06
-7.43439e-07 1.28396e-06 -0.000133489
0.000634986 1.91811e-05 1.49791e-06
1.91811e-05 6.10255e-05 -4.08055e-06
1.49791e-06 -4.08055e-06 -2.23141e-05
0.0007358 8.2581e-05 5.91185e-07
8.2581e-05 0.000156502 1.43515e-08
5.91185e-07 1.43515e-08 2.92921e-05
0.000503339 -7.39099e-06 -8.9189e-07
-7.39099e-06 -3.66147e-05 -6.50699e-06
-8.9189e-07 -6.50699e-06 -6.16348e-05
0.000567883 2.98151e-05 -5.04693e-08
2.98151e-05 2.23978e-05 -2.39543e-07
-5.04693e-08 -2.39543e-07 -5.33412e-05
0.000705808 6.84361e-05 -1.95289e-06
6.84361e-05 0.00015202 1.34176e-06
-1.95289e-06 1.34176e-06 2.12558e-05
0.00247896 -6.86725e-05 -3.05744e-05
-6.86725e-05 0.00117596 -4.59452e-06
-3.05744e-05 -4.59452e-06 0.0011872
0.000495199 -1.07706e-05 -7.42128e-07
-1.07706e-05 -4.58591e-05 -8.0178e-08
-7.42128e-07 -8.0178e-08 -6.61669e-05
0.000575199 4.31985e-05 -1.99731e-07
4.31985e-05 2.71308e-05 2.86244e-06
-1.99731e-07 2.86244e-06 -4.11808e-05
0.00232047 -5.1817e-05 -5.1214e-06
-5.1817e-05 0.00107493 2.96706e-07
-5.1214e-06 2.96706e-07 0.00108909
0.000495666 -1.45536e-05 -2.3778e-06
-1.45536e-05 -4.73877e-05 4.57426e-06
-2.3778e-06 4.57426e-06 -6.34225e-05
0.002198 -3.46496e-05 1.83455e-05
-3.46496e-05 0.000997711 4.57051e-06
1.83455e-05 4.57051e-06 0.00101427
0.00586736 0.000291848 0.000190657
0.000291848 0.00275924 3.39977e-05
0.000190657 3.39977e-05 0.00120489
-0.000886494 -2.82633e-05 -7.34746e-07
-2.82633e-05 -0.000132108 -2.92862e-06
-7.34746e-07 -2.92862e-06 -0.000104302
0.00102419 -5.13163e-05 -2.41943e-05
-5.13163e-05 -0.000387558 1.4012e-06
-2.41943e-05 1.4012e-06 -4.96451e-05
-3.18185e-05 9.41614e-05 -6.75015e-06
9.41614e-05 -0.000327185 -1.78464e-06
-6.75015e-06 -1.78464e-06 -0.000451283
0.000747634 7.59567e-05 -3.21754e-06
7.59567e-05 0.000158233 -1.00042e-06
-3.21754e-06 -1.00042e-06 2.49614e-05
0.000264612 5.61567e-05 3.45086e-07
5.61567e-05 -0.000174049 -2.71727e-06
3.45086e-07 -2.71727e-06 -0.000299993
0.000901033 5.47804e-05 4.36265e-07
5.47804e-05 0.000226486 -4.28895e-07
4.36265e-07 -4.28895e-07 9.46003e-05
0.000435846 8.64032e-05 -1.2307e-06
8.64032e-05 -6.60462e-05 1.53182e-07
-1.2307e-06 1.53182e-07 -0.000181072
0.00163608 0.000216914 7.05489e-07
0.000216914 0.000705597 -2.39715e-06
7.05489e-07 -2.39715e-06 0.00054297
0.000994038 0.000171198 -2.43275e-06
0.000171198 0.000287003 -1.04981e-05
-2.43275e-06 -1.04981e-05 7.81628e-05
-0.00025906 3.99146e-05 2.2201e-06
3.99146e-05 -0.000346552 5.13018e-06
2.2201e-06 5.13018e-06 -0.000540812
0.000766054 0.000127757 -2.65426e-06
0.000127757 0.000172228 -5.02688e-07
-2.65426e-06 -5.02688e-07 3.87416e-05
0.000303169 4.00475e-05 -4.20199e-06
4.00475e-05 -0.000138878 -3.15463e-06
-4.20199e-06 -3.15463e-06 -0.000240086
0.000345726 5.65589e-05 1.33603e-07
5.65589e-05 -2.49914e-05 9.99848e-07
1.33603e-07 9.99848e-07 -0.000179897
0.00122774 0.000210432 1.28233e-05
0.000210432 0.000598526 8.00781e-06
1.28233e-05 8.00781e-06 0.00037586
0.00141652 -0.00158457 0.000148207
-0.00158457 0.00376679 0.000234891
0.000148207 0.000234891 0.000158615
0.00468547 0.000646842 5.36269e-05
0.000646842 0.00254972 0.000127951
5.36269e-05 0.000127951 -0.0016966
0.00153904 0.00022249 -2.73519e-05
0.00022249 0.00024736 -6.39339e-05
-2.73519e-05 -6.39339e-05 -0.00144493
0.0154888 -0.00329357 -0.000428911
-0.00329357 0.00331141 -0.000270371
-0.000428911 -0.000270371 0.00308811
0.00627613 -0.00119445 0.000152899
-0.00119445 0.00240651 0.000357333
0.000152899 0.000357333 0.000139735
0.00236934 -0.00109348 -0.000142831
-0.00109348 0.00340516 8.50484e-05
-0.000142831 8.50484e-05 -0.00235226
0.00104992 -0.000510981 4.23056e-05
-0.000510981 0.000995833 2.97297e-05
4.23056e-05 2.97297e-05 0.000338625
0.00143034 -9.56175e-05 1.75702e-05
-9.56175e-05 0.000948145 5.01529e-05
1.75702e-05 5.01529e-05 0.000598687
0.00561685 -0.00484283 0.000255157
-0.00484283 0.0018444 0.000249298
0.000255157 0.000249298 0.00170278
0.00330423 0.00121468 -4.98249e-05
0.00121468 0.00377481 -5.18979e-05
-4.98249e-05 -5.18979e-05 -0.00161255
0.0051386 -0.00229779 -7.6275e-05
-0.00229779 0.000863654 7.38605e-05
-7.6275e-05 7.38605e-05 -0.00131728
0.000432334 0.000439427 -2.06084e-05
0.000439427 0.000500738 6.24892e-05
-2.06084e-05 6.24892e-05 0.000346782
0.00979809 0.00212508 -7.89815e-05
0.00212508 0.00399288 -7.08525e-06
-7.89815e-05 -7.08525e-06 0.000554414
0.00871612 -0.00398763 -0.000507205
-0.00398763 0.00181504 -0.000354497
-0.000507205 -0.000354497 0.000683647
0.0004592 0.000385194 4.43313e-06
0.000385194 -5.94607e-05 -4.85649e-06
4.43313e-06 -4.85649e-06 -0.000223661
0.000536915 0.000110103 4.81745e-06
0.000110103 0.000169052 1.26569e-06
4.81745e-06 1.26569e-06 4.22487e-06
0.000214119 4.86799e-05 -6.07459e-06
4.86799e-05 -5.44108e-05 -3.18914e-06
-6.07459e-06 -3.18914e-06 -0.000227237
-0.00168119 -0.00022768 -0.000104468
-0.00022768 0.000551531 -4.58481e-05
-0.000104468 -4.58481e-05 -0.000907679
-0.000687341 0.00016685 6.1735e-06
0.00016685 -0.00018757 -1.71574e-05
6.1735e-06 -1.71574e-05 -0.000601289
0.000194938 7.91191e-05 -8.84684e-06
7.91191e-05 0.000113018 4.97053e-07
-8.84684e-06 4.97053e-07 -0.000120254
0.000709604 0.000420867 1.35238e-05
0.000420867 0.000377368 3.24306e-06
1.35238e-05 3.24306e-06 5.44868e-05
-4.92879e-05 0.000313072 3.69983e-05
0.000313072 0.000502711 -2.89988e-05
3.69983e-05 -2.89988e-05 -0.000406211
0.000397248 0.000805034 4.08066e-05
0.000805034 -0.000180147 3.82629e-06
4.08066e-05 3.82629e-06 -0.000725336
-0.00374396 0.000684441 0.000226817
0.000684441 0.00431908 1.15685e-05
0.000226817 1.15685e-05 -0.000205988
0.00224272 -2.19354e-05 -4.82712e-06
-2.19354e-05 0.00167747 4.26451e-05
-4.82712e-06 4.26451e-05 -0.000509925
-0.00124367 -3.36676e-05 -5.72932e-06
-3.36676e-05 0.000276266 2.73e-05
-5.72932e-06 2.73e-05 -0.000104195
-2.10375e-05 -0.000191681 -6.15809e-05
-0.000191681 0.000631717 1.15788e-05
-6.15809e-05 1.15788e-05 -0.000159064
-0.00101274 -0.000209122 -6.54367e-05
-0.000209122 -0.000787236 3.52518e-05
-6.54367e-05 3.52518e-05 -0.000483259
0.000437664 -0.00021276 -0.000127628
-0.00021276 0.000230417 6.50499e-05
-0.000127628 6.50499e-05 -0.00239013
-0.00177036 -0.00223392 0.000135179
-0.00223392 0.000940495 -0.000104066
0.000135179 -0.000104066 -0.00383891
0.00239059 0.00327024 0.000388704
0.00327024 -0.00232802 -0.000308429
0.000388704 -0.000308429 -0.00311902
0.00524562 0.00159277 -0.00031302
0.00159277 0.00522811 0.00020926
-0.00031302 0.00020926 0.00291172
0.00131203 -0.000468296 -4.14187e-06
-0.000468296 0.000859619 -3.21419e-06
-4.14187e-06 -3.21419e-06 0.000510846
0.00134437 0.000289485 6.32914e-05
0.000289485 0.00513126 -2.54253e-06
6.32914e-05 -2.54253e-06 0.00270706
-0.00174913 0.00225896 1.64324e-05
0.00225896 -7.26644e-05 3.72072e-05
1.64324e-05 3.72072e-05 -0.0024299
0.00281748 -0.00160181 7.35872e-05
-0.00160181 0.000919983 -2.59776e-05
7.35872e-05 -2.59776e-05 0.000727246
0.0150983 -0.00191887 2.56283e-05
-0.00191887 0.00405448 -1.31159e-05
2.56283e-05 -1.31159e-05 0.00215343
0.00288901 -0.00103181 -1.84463e-05
-0.00103181 0.000979297 2.51797e-05
-1.84463e-05 2.51797e-05 0.000877668
-0.00907549 0.000755491 -0.0003311
0.000755491 -0.00361286 2.91023e-05
-0.0003311 2.91023e-05 -0.00523673
0.0145772 -0.00123499 -0.000161927
-0.00123499 0.00284404 5.31866e-05
-0.000161927 5.31866e-05 0.00129224
0.00340504 -0.00184635 6.17922e-05
-0.00184635 -0.000209495 -5.10923e-05
6.17922e-05 -5.10923e-05 -0.000315182
-0.000188675 -0.00032241 -1.45938e-05
-0.00032241 -6.26389e-05 1.4704e-05
-1.45938e-05 1.4704e-05 -0.000350403
0.0012366 -0.000550358 -2.68234e-06
-0.000550358 0.000270892 6.28746e-07
-2.68234e-06 6.28746e-07 0.000137996
0.0042296 -0.000726737 1.72721e-05
-0.000726737 0.00165984 -3.84375e-06
1.72721e-05 -3.84375e-06 0.00140753
-0.000754804 -0.000249409 -9.98784e-06
-0.000249409 -0.000700968 4.86108e-06
-9.98784e-06 4.86108e-06 -0.000957143
0.00137432 -0.000587685 -6.8618e-06
-0.000587685 0.000131374 -3.45792e-06
-6.8618e-06 -3.45792e-06 -0.000181403
0.00266587 -0.000775265 5.26115e-06
-0.000775265 0.000594157 -7.05828e-06
5.26115e-06 -7.05828e-06 0.000291936
0.00113471 -0.000498939 -1.64604e-05
-0.000498939 0.000109095 1.87162e-06
-1.64604e-05 1.87162e-06 -0.000333383
0.00168531 -0.000652621 -7.09309e-07
-0.000652621 0.000221054 -3.37884e-07
-7.09309e-07 -3.37884e-07 -0.000156136
0.00150188 -0.000547782 3.83447e-06
-0.000547782 -9.73554e-05 -5.52478e-06
3.83447e-06 -5.52478e-06 -0.000335619
0.00132989 -0.000567326 -7.42013e-06
-0.000567326 0.000122978 7.53989e-07
-7.42013e-06 7.53989e-07 -0.000286451
0.00175093 -0.000547151 -4.35024e-07
-0.000547151 0.000200928 1.11965e-06
-4.35024e-07 1.11965e-06 -9.96218e-05
0.00183323 -0.000434287 -7.01474e-07
-0.000434287 8.94872e-05 -5.02292e-06
-7.01474e-07 -5.02292e-06 -9.48516e-05
0.00171443 -0.000347213 -4.89628e-06
-0.000347213 5.48479e-05 -2.08677e-06
-4.89628e-06 -2.08677e-06 -9.98069e-05
0.00157522 -0.000431501 -4.57939e-06
-0.000431501 1.96247e-05 -2.16059e-06
-4.57939e-06 -2.16059e-06 -0.000214261
0.00168249 -0.00042646 1.30354e-06
-0.00042646 7.25158e-05 2.20767e-06
1.30354e-06 2.20767e-06 -0.000149461
0.00151675 -0.000485928 -3.06285e-06
-0.000485928 0.000127232 -1.85691e-06
-3.06285e-06 -1.85691e-06 -0.000163369
0.00185268 -0.000570017 2.04002e-06
-0.000570017 0.000282642 -4.76321e-07
2.04002e-06 -4.76321e-07 -3.10231e-05
0.0018704 -0.000560667 1.63684e-06
-0.000560667 0.000311792 8.28194e-07
1.63684e-06 8.28194e-07 -2.89673e-06
0.0015353 -0.000431035 -1.60792e-06
-0.000431035 0.000327534 1.15301e-06
-1.60792e-06 1.15301e-06 3.60164e-05
0.00171505 -0.000516693 8.00962e-07
-0.000516693 0.000381297 -2.57698e-07
8.00962e-07 -2.57698e-07 6.13556e-05
0.00191078 -0.000605025 -3.84927e-06
-0.000605025 0.000459897 -8.88133e-07
-3.84927e-06 -8.88133e-07 9.60086e-05
0.00105722 -0.000269442 -2.83068e-06
-0.000269442 0.000159636 1.16158e-06
-2.83068e-06 1.16158e-06 -6.02349e-05
0.00127212 -0.000344567 1.74617e-06
-0.000344567 0.000248245 2.56687e-07
1.74617e-06 2.56687e-07 -8.21543e-06
0.000357219 -0.00029601 -1.0959e-06
-0.00029601 -0.000297139 -1.73148e-06
-1.0959e-06 -1.73148e-06 -0.000552098
0.000504407 -0.000149543 -2.82146e-06
-0.000149543 -1.58114e-05 3.14555e-06
-2.82146e-06 3.14555e-06 -0.000204748
0.00113583 -0.000280048 -1.79778e-07
-0.000280048 0.000320394 2.54577e-07
-1.79778e-07 2.54577e-07 8.77292e-05
0.00027205 -0.000205654 -4.87585e-06
-0.000205654 -0.000271792 -2.54441e-07
-4.87585e-06 -2.54441e-07 -0.000492929
0.000436064 7.91113e-06 -3.79375e-06
7.91113e-06 -5.02391e-05 1.06492e-05
-3.79375e-06 1.06492e-05 -0.000106679
0.000760148 -0.00010208 -6.65006e-08
-0.00010208 0.000156523 1.1144e-07
-6.65006e-08 1.1144e-07 -3.44088e-06
0.00114009 -0.000171237 9.34283e-07
-0.000171237 0.000432697 -1.56025e-06
9.34283e-07 -1.56025e-06 0.000193605
0.00301306 0.000174854 -3.02633e-06
0.000174854 0.00154623 3.13225e-06
-3.02633e-06 3.13225e-06 0.00152886
0.000463065 2.18517e-05 -1.49105e-07
2.18517e-05 -4.20792e-05 -7.43779e-08
-1.49105e-07 -7.43779e-08 -8.66217e-05
0.000887591 -7.43488e-05 2.74819e-06
-7.43488e-05 0.000213249 -5.91426e-06
2.74819e-06 -5.91426e-06 9.90329e-05
0.00282348 0.000131043 5.54737e-06
0.000131043 0.00141334 4.39092e-07
5.54737e-06 4.39092e-07 0.00141083
0.000554913 2.84565e-05 1.60604e-06
2.84565e-05 1.07626e-05 -7.8418e-06
1.60604e-06 -7.8418e-06 -2.56587e-05
0.00271972 0.000116101 3.57261e-05
0.000116101 0.00134267 -3.76224e-06
3.57261e-05 -3.76224e-06 0.00134371
0.00113964 0.000177188 5.10601e-06
0.000177188 0.00038009 5.82268e-06
5.10601e-06 5.82268e-06 0.000215049
0.000727342 0.000104141 5.56747e-07
0.000104141 0.000168205 2.17968e-07
5.56747e-07 2.17968e-07 1.49257e-05
0.000986777 0.00010083 1.27083e-06
0.00010083 0.000340074 -3.16108e-06
1.27083e-06 -3.16108e-06 0.000167656
0.000647723 2.2077e-05 1.13353e-06
2.2077e-05 7.65062e-05 -5.75837e-06
1.13353e-06 -5.75837e-06 -1.87945e-05
0.000704129 7.01731e-05 1.71578e-07
7.01731e-05 0.000145565 3.47073e-07
1.71578e-07 3.47073e-07 4.3296e-06
0.000428081 8.12181e-05 -2.96956e-07
8.12181e-05 -2.06212e-05 1.45867e-06
-2.96956e-07 1.45867e-06 -0.00016543
0.000518316 -7.01923e-06 -1.78324e-06
-7.01923e-06 -2.39852e-05 -7.56324e-06
-1.78324e-06 -7.56324e-06 -5.35893e-05
0.000599883 2.67678e-05 -6.12315e-08
2.67678e-05 4.42977e-05 -2.22866e-07
-6.12315e-08 -2.22866e-07 -4.04926e-05
0.000606619 7.35339e-05 -1.80441e-06
7.35339e-05 7.1935e-05 1.29081e-06
-1.80441e-06 1.29081e-06 -4.75967e-05
0.00262102 -8.43463e-05 -3.89789e-05
-8.43463e-05 0.00126831 -4.30245e-06
-3.89789e-05 -4.30245e-06 0.00127668
0.00047181 -1.73556e-05 1.66587e-06
-1.73556e-05 -5.54838e-05 -1.10997e-07
1.66587e-06 -1.10997e-07 -8.06109e-05
0.000571738 3.4062e-05 -1.00275e-06
3.4062e-05 2.56042e-05 3.27054e-06
-1.00275e-06 3.27054e-06 -5.0604e-05
0.00245749 -6.81596e-05 -5.51402e-06
-6.81596e-05 0.00116245 3.75793e-07
-5.51402e-06 3.75793e-07 0.00117381
0.000488071 -1.58051e-05 -1.87854e-06
-1.58051e-05 -4.98544e-05 5.4754e-06
-1.87854e-06 5.4754e-06 -7.01264e-05
0.00230442 -5.08383e-05 2.19877e-05
-5.08383e-05 0.00106494 4.5262e-06
2.19877e-05 4.5262e-06 0.00107932
-0.00843859 0.000676164 -4.31274e-05
0.000676164 0.00238945 7.15864e-05
-4.31274e-05 7.15864e-05 -0.00201587
0.00556953 0.000162219 -7.06387e-06
0.000162219 0.00286295 -2.65673e-06
-7.06387e-06 -2.65673e-06 0.001371
-0.00073347 -4.82479e-05 1.2323e-06
-4.82479e-05 -0.000152103 -3.43041e-06
1.2323e-06 -3.43041e-06 -0.000233706
-4.31104e-05 6.77876e-05 -2.38371e-06
6.77876e-05 -0.000336306 2.14386e-06
-2.38371e-06 2.14386e-06 -0.000460488
0.00334441 0.000516031 5.30673e-06
0.000516031 0.00168762 7.63745e-06
5.30673e-06 7.63745e-06 0.0014303
0.000995824 0.000100071 -4.59723e-06
0.000100071 0.000308014 3.3982e-08
-4.59723e-06 3.3982e-08 0.000139685
0.00080873 6.04134e-05 -3.80338e-06
6.04134e-05 0.000165646 -6.64158e-06
-3.80338e-06 -6.64158e-06 3.36917e-05
0.00171038 0.000184036 2.41833e-06
0.000184036 0.000693619 -1.61506e-06
2.41833e-06 -1.61506e-06 0.000566503
-5.04955e-05 5.88047e-05 -5.77746e-06
5.88047e-05 -0.000323837 1.86664e-06
-5.77746e-06 1.86664e-06 -0.00044498
0.000380575 7.29355e-05 -1.14215e-06
7.29355e-05 2.08047e-05 2.90548e-06
-1.14215e-06 2.90548e-06 -0.000174661
0.000564461 0.00012151 -3.30424e-06
0.00012151 4.94265e-05 -4.22729e-06
-3.30424e-06 -4.22729e-06 -0.00015261
0.00128556 0.00025812 6.56077e-06
0.00025812 0.000530759 -1.02549e-05
6.56077e-06 -1.02549e-05 0.000250712
0.000330238 0.000324155 -3.55335e-06
0.000324155 -0.00016163 1.13986e-05
-3.55335e-06 1.13986e-05 -0.00028707
0.0011905 7.9017e-05 -5.15165e-06
7.9017e-05 0.000482133 3.11629e-06
-5.15165e-06 3.11629e-06 0.000318729
0.00111649 0.000181513 2.08184e-06
0.000181513 0.000537703 1.16867e-06
2.08184e-06 1.16867e-06 0.000319451
-0.00265714 -0.00143337 -0.000805192
-0.00143337 0.000357889 -0.000129405
-0.000805192 -0.000129405 -0.00191942
-0.0035429 -0.00115936 0.000304179
-0.00115936 0.00313379 0.000144852
0.000304179 0.000144852 -0.00079431
0.0052365 0.000765529 -0.000293199
0.000765529 0.00249485 -0.000106701
-0.000293199 -0.000106701 -0.00199052
-0.00404734 -0.00505367 0.00129092
-0.00505367 -0.000634633 0.00093771
0.00129092 0.00093771 -0.00115785
0.0190454 -0.00245426 1.04915e-06
-0.00245426 0.00606781 0.000232467
1.04915e-06 0.000232467 0.00473659
-0.00190577 0.00140071 3.32929e-07
0.00140071 0.00118227 -0.000137263
3.32929e-07 -0.000137263 -0.00366971
1.12871e-05 0.000149018 -0.000253939
0.000149018 0.000573937 -2.34754e-05
-0.000253939 -2.34754e-05 -0.000536119
0.00152992 0.000552451 3.986e-05
0.000552451 0.00100582 3.76485e-05
3.986e-05 3.76485e-05 0.000819085
0.0134311 -0.00295816 -0.000344563
-0.00295816 0.00585812 3.92253e-05
-0.000344563 3.92253e-05 0.00438073
-0.00126907 0.00181516 -5.1773e-05
0.00181516 0.000503493 -4.40844e-05
-5.1773e-05 -4.40844e-05 -0.00358788
0.00239251 0.00131706 -2.20957e-05
0.00131706 0.000626339 -5.83205e-05
-2.20957e-05 -5.83205e-05 0.00096086
0.00323819 0.00271335 -0.000244047
0.00271335 -0.000941764 -0.000131343
-0.000244047 -0.000131343 -0.00361403
0.00265976 0.000862197 1.64267e-05
0.000862197 0.000844651 -1.20248e-05
1.64267e-05 -1.20248e-05 0.000551114
0.00092962 0.000408906 -5.22073e-06
0.000408906 0.000240082 -2.93639e-08
-5.22073e-06 -2.93639e-08 7.58215e-05
0.000933732 0.00015248 -7.60918e-06
0.00015248 0.000403227 -8.49786e-07
-7.60918e-06 -8.49786e-07 0.000236526
-0.0014163 0.000227264 -5.87379e-05
0.000227264 -0.000279233 -5.87009e-05
-5.87379e-05 -5.87009e-05 -0.00107349
0.00218614 0.000615058 -3.0784e-05
0.000615058 0.00111905 -1.82011e-05
-3.0784e-05 -1.82011e-05 0.000782108
0.00148276 0.000924826 1.36591e-05
0.000924826 0.000301892 -5.68346e-06
1.36591e-05 -5.68346e-06 -0.000233626
0.00103853 0.00119519 0.000103933
0.00119519 -0.000675265 3.71254e-05
0.000103933 3.71254e-05 -0.000902435
-0.00547933 -0.000218367 -0.000387952
-0.000218367 -0.00453925 1.76726e-05
-0.000387952 1.76726e-05 -0.00333091
-0.0058074 0.000332409 0.000227187
0.000332409 0.00410956 7.82081e-06
0.000227187 7.82081e-06 -0.000362268
0.00279666 -9.4247e-05 -9.07384e-05
-9.4247e-05 0.00186264 3.27068e-05
-9.07384e-05 3.27068e-05 0.000344988
0.00183512 -0.000546163 -4.18888e-05
-0.000546163 0.000815527 -4.77173e-05
-4.18888e-05 -4.77173e-05 0.000485218
0.000658056 -0.00138785 -1.36838e-05
-0.00138785 -0.000360088 3.80667e-05
-1.36838e-05 3.80667e-05 -0.000393868
0.000838852 0.000296767 -9.51787e-06
0.000296767 0.00488457 2.74369e-05
-9.51787e-06 2.74369e-05 0.00253446
0.00211333 -0.00183026 0.000285662
-0.00183026 -0.000888736 -0.000139097
0.000285662 -0.000139097 -0.00353495
0.0149254 0.0020898 0.00038519
0.0020898 0.00671286 -5.28302e-05
0.00038519 -5.28302e-05 0.00504161
0.00242481 -0.00117925 -2.63809e-05
-0.00117925 0.000658353 8.0789e-06
-2.63809e-05 8.0789e-06 0.00028122
0.000586147 0.000841496 0.000155969
0.000841496 -0.000165028 -4.26683e-05
0.000155969 -4.26683e-05 -0.0012187
0.00721294 -0.00111395 -0.000100697
-0.00111395 -0.000769734 8.97823e-05
-0.000100697 8.97823e-05 -0.00306236
0.00505256 -0.00196628 -2.7453e-05
-0.00196628 0.000538608 2.23374e-05
-2.7453e-05 2.23374e-05 0.000380873
0.00269509 -0.000935522 7.62233e-05
-0.000935522 0.000548141 -9.3656e-06
7.62233e-05 -9.3656e-06 0.000341202
0.0130268 -0.000629557 -3.66185e-06
-0.000629557 0.00290318 -6.10638e-06
-3.66185e-06 -6.10638e-06 0.00137019
0.00223763 -0.00109543 9.64554e-05
-0.00109543 -0.00211645 -7.32903e-05
9.64554e-05 -7.32903e-05 -0.00152885
-0.000407314 -0.000425273 -2.97015e-05
-0.000425273 -0.000712034 1.57477e-05
-2.97015e-05 1.57477e-05 -0.000731925
0.00014233 -0.000405823 -1.97982e-05
-0.000405823 -0.000600761 5.89152e-07
-1.97982e-05 5.89152e-07 -0.000695158
0.00432558 -0.000792398 4.51789e-05
-0.000792398 0.00132507 -2.20134e-05
4.51789e-05 -2.20134e-05 0.00122034
0.00043801 -0.000486837 -1.98308e-05
-0.000486837 -0.000337716 -5.33197e-06
-1.98308e-05 -5.33197e-06 -0.000656162
0.00186193 -0.000687879 -2.96644e-07
-0.000687879 0.000184987 -1.53856e-06
-2.96644e-07 -1.53856e-06 -9.67526e-05
0.00255183 -0.000645676 2.12919e-06
-0.000645676 0.000308791 -3.36753e-06
2.12919e-06 -3.36753e-06 0.000141578
0.00182846 -0.000651889 -5.74336e-06
-0.000651889 0.000307454 5.61829e-06
-5.74336e-06 5.61829e-06 -7.46348e-05
0.00192125 -0.000582555 -7.96144e-07
-0.000582555 0.000129088 1.56135e-06
-7.96144e-07 1.56135e-06 -0.000114242
0.0019667 -0.000444878 2.43487e-06
-0.000444878 5.56344e-05 -1.74482e-07
2.43487e-06 -1.74482e-07 -7.73444e-05
0.00120529 -0.000486949 2.94965e-06
-0.000486949 -9.67477e-05 6.39201e-06
2.94965e-06 6.39201e-06 -0.000385196
0.00181361 -0.000426299 -6.13169e-07
-0.000426299 8.3158e-05 1.52278e-06
-6.13169e-07 1.52278e-06 -9.90006e-05
0.0018728 -0.000375891 -2.43912e-06
-0.000375891 7.64316e-05 1.66351e-07
-2.43912e-06 1.66351e-07 -5.17978e-05
0.00204578 -0.000358448 -3.95606e-06
-0.000358448 0.000255913 2.57383e-07
-3.95606e-06 2.57383e-07 0.000125839
0.00181172 -0.000351959 -2.68396e-06
-0.000351959 0.000105543 3.33276e-06
-2.68396e-06 3.33276e-06 -4.51018e-05
0.00186405 -0.000371031 -2.17216e-06
-0.000371031 0.000172914 -4.95519e-06
-2.17216e-06 -4.95519e-06 2.44899e-06
0.00179881 -0.000443832 -4.88695e-06
-0.000443832 0.000186874 -2.25089e-06
-4.88695e-06 -2.25089e-06 -5.25427e-05
0.00176668 -0.000446739 1.51338e-06
-0.000446739 0.000136103 5.93608e-07
1.51338e-06 5.93608e-07 -9.91644e-05
0.00169617 -0.00041933 5.19518e-06
-0.00041933 8.70695e-05 6.88762e-06
5.19518e-06 6.88762e-06 -0.000129786
0.00164345 -0.000456765 -6.3487e-06
-0.000456765 0.000270648 -6.31623e-07
-6.3487e-06 -6.31623e-07 -1.31239e-05
0.00153662 -0.000491936 -6.65813e-07
-0.000491936 0.000128817 2.13155e-07
-6.65813e-07 2.13155e-07 -0.000164063
0.00196823 -0.000573608 3.70385e-06
-0.000573608 0.000361937 3.99424e-07
3.70385e-06 3.99424e-07 5.13815e-05
0.00126423 -0.000307185 -6.14312e-06
-0.000307185 0.000228464 3.77846e-06
-6.14312e-06 3.77846e-06 -8.3478e-06
0.0014621 -0.000421746 3.79273e-07
-0.000421746 0.000283425 8.79665e-07
3.79273e-07 8.79665e-07 -5.43944e-06
0.00146499 -0.000495433 1.09513e-06
-0.000495433 0.000231655 1.909e-07
1.09513e-06 1.909e-07 -8.48706e-05
0.000786003 -0.000197371 -6.41529e-06
-0.000197371 8.86419e-05 4.53877e-06
-6.41529e-06 4.53877e-06 -0.000100443
0.00104666 -0.000270446 4.00271e-07
-0.000270446 0.000154333 -3.00334e-07
4.00271e-07 -3.00334e-07 -6.76077e-05
0.00081059 -0.000300716 1.31439e-07
-0.000300716 -3.95108e-05 -1.13405e-06
1.31439e-07 -1.13405e-06 -0.00028792
0.000437774 -7.08793e-05 -1.36963e-05
-7.08793e-05 -7.26969e-05 1.3472e-05
-1.36963e-05 1.3472e-05 -0.000141015
0.00067941 -0.000150674 5.67925e-07
-0.000150674 9.71583e-05 8.99507e-07
5.67925e-07 8.99507e-07 -9.76901e-05
0.00108684 -0.000294264 9.02455e-07
-0.000294264 0.000278914 -4.48739e-07
9.02455e-07 -4.48739e-07 4.75469e-05
0.00342467 0.000171972 -6.5289e-05
0.000171972 0.00180306 3.43499e-06
-6.5289e-05 3.43499e-06 0.00178803
0.000533621 -1.25639e-05 6.54918e-07
-1.25639e-05 1.18835e-06 -6.03355e-07
6.54918e-07 -6.03355e-07 -5.53243e-05
0.00143408 -0.000146626 1.92796e-06
-0.000146626 0.000567829 -6.11807e-06
1.92796e-06 -6.11807e-06 0.00039628
0.00199187 0.000112561 3.41585e-05
0.000112561 0.000911687 9.86077e-07
3.41585e-05 9.86077e-07 0.000899135
0.00058504 1.59294e-05 4.29915e-06
1.59294e-05 2.95458e-05 -9.49231e-06
4.29915e-06 -9.49231e-06 -1.46763e-05
0.00289448 0.0001267 5.25635e-05
0.0001267 0.00145642 -3.42406e-06
5.25635e-05 -3.42406e-06 0.00145495
0.00115643 0.000210908 6.98932e-06
0.000210908 0.000334965 1.36248e-06
6.98932e-06 1.36248e-06 0.00017059
0.000512532 0.000102716 -8.82225e-07
0.000102716 -4.21333e-06 -3.97025e-07
-8.82225e-07 -3.97025e-07 -0.000149159
0.000625443 0.000107723 1.02434e-06
0.000107723 8.78601e-05 -1.55835e-06
1.02434e-06 -1.55835e-06 -7.12243e-05
0.000737811 0.000109092 -1.326e-06
0.000109092 0.000175754 -1.29536e-06
-1.326e-06 -1.29536e-06 1.92905e-05
0.000685281 7.29611e-05 1.12533e-07
7.29611e-05 0.000130641 4.20213e-07
1.12533e-07 4.20213e-07 -2.05685e-05
0.000668195 4.34251e-05 -2.40372e-07
4.34251e-05 8.94574e-05 -6.60493e-06
-2.40372e-07 -6.60493e-06 -1.86863e-05
0.000559545 -6.91333e-07 -2.98089e-06
-6.91333e-07 8.50031e-06 -9.20721e-06
-2.98089e-06 -9.20721e-06 -2.80619e-05
0.000611456 2.09393e-05 4.01954e-07
2.09393e-05 5.78646e-05 -1.62161e-07
4.01954e-07 -1.62161e-07 -3.85985e-05
0.000545079 3.91338e-05 -2.50305e-06
3.91338e-05 2.27298e-05 2.66715e-06
-2.50305e-06 2.66715e-06 -9.86189e-05
0.00272816 -9.78489e-05 -5.01797e-05
-9.78489e-05 0.0013405 -4.09072e-06
-5.01797e-05 -4.09072e-06 0.00134633
0.00048155 -6.71426e-06 4.61507e-07
-6.71426e-06 -4.39282e-05 -1.53706e-07
4.61507e-07 -1.53706e-07 -7.39435e-05
0.000535262 2.74568e-05 -1.26742e-06
2.74568e-05 1.06169e-05 4.04812e-06
-1.26742e-06 4.04812e-06 -7.60565e-05
0.00259672 -8.4525e-05 -5.96847e-06
-8.4525e-05 0.00125317 4.4243e-07
-5.96847e-06 4.4243e-07 0.0012614
0.000463305 -2.20592e-05 -1.87628e-07
-2.20592e-05 -5.94314e-05 6.32567e-06
-1.87628e-07 6.32567e-06 -8.49832e-05
0.00245981 -6.76251e-05 2.74957e-05
-6.76251e-05 0.00116354 4.55177e-06
2.74957e-05 4.55177e-06 0.00117495
0.000346549 0.000302544 -0.00045103
0.000302544 0.00275588 -1.20556e-05
-0.00045103 -1.20556e-05 0.00116825
-0.00450933 0.000128028 3.30787e-05
0.000128028 0.00315961 7.51946e-06
3.30787e-05 7.51946e-06 -0.00131013
0.00523207 5.11024e-05 -0.000129164
5.11024e-05 0.00289137 -3.07278e-05
-0.000129164 -3.07278e-05 0.0014865
0.00035685 5.19115e-05 3.19638e-07
5.19115e-05 -9.69375e-05 -5.13516e-06
3.19638e-07 -5.13516e-06 -0.000220314
0.000802466 6.97513e-05 4.60953e-06
6.97513e-05 0.000191517 2.77954e-06
4.60953e-06 2.77954e-06 7.31962e-06
0.00237968 0.000405893 -2.5682e-06
0.000405893 0.00112436 2.45994e-06
-2.5682e-06 2.45994e-06 0.000896845
0.00179317 0.000436786 7.02082e-06
0.000436786 0.000636002 -2.94842e-06
7.02082e-06 -2.94842e-06 0.000325088
0.000643862 0.000234894 -1.07309e-06
0.000234894 0.000154105 -1.44687e-06
-1.07309e-06 -1.44687e-06 -8.5433e-05
0.000581908 0.000111518 -2.64265e-06
0.000111518 0.000144719 3.22128e-06
-2.64265e-06 3.22128e-06 -6.02303e-05
0.000772076 0.000142808 8.03194e-06
0.000142808 0.000196947 5.4273e-06
8.03194e-06 5.4273e-06 -2.76448e-06
0.000533096 0.000240307 -6.52584e-06
0.000240307 0.000112936 -3.58049e-06
-6.52584e-06 -3.58049e-06 -0.000168915
-0.000641974 0.000247655 5.77193e-06
0.000247655 -0.000763302 -1.55192e-06
5.77193e-06 -1.55192e-06 -0.000999258
0.00211934 0.000539432 4.38025e-06
0.000539432 0.00076394 7.34601e-06
4.38025e-06 7.34601e-06 0.000610464
0.0014374 0.000650556 1.63686e-05
0.000650556 9.12718e-05 -8.18274e-06
1.63686e-05 -8.18274e-06 -0.000102301
0.00101435 0.000403367 -7.72257e-06
0.000403367 0.000247345 -5.74771e-07
-7.72257e-06 -5.74771e-07 8.58992e-05
0.00114063 0.000165159 -6.02768e-06
0.000165159 0.000475695 1.78951e-06
-6.02768e-06 1.78951e-06 0.000281253
0.0131432 0.00153834 -7.83183e-05
0.00153834 0.00245627 5.35644e-05
-7.83183e-05 5.35644e-05 0.00101905
-0.000477304 -0.00119119 -0.000345187
-0.00119119 0.00263907 -0.000126871
-0.000345187 -0.000126871 0.00027355
-0.00113673 -0.00187351 0.000334563
-0.00187351 0.00335469 8.25588e-05
0.000334563 8.25588e-05 -0.000591579
0.00210232 -0.00173331 0.00013147
-0.00173331 0.00126739 0.000261609
0.00013147 0.000261609 -0.000162648
0.0116564 0.00250944 -3.76337e-05
0.00250944 0.00465464 -2.60805e-05
-3.76337e-05 -2.60805e-05 0.000885017
-0.00210929 0.000197414 -4.36354e-05
0.000197414 -0.000556141 -4.32108e-05
-4.36354e-05 -4.32108e-05 -0.000775989
0.00171098 0.00115292 -3.3506e-05
0.00115292 0.000403423 -1.14727e-05
-3.3506e-05 -1.14727e-05 0.00070686
0.0143671 0.00232333 2.49144e-05
0.00232333 0.00410544 2.86535e-05
2.49144e-05 2.86535e-05 0.00192155
0.00636442 0.00233362 -2.92707e-05
0.00233362 0.000738652 -7.86796e-05
-2.92707e-05 -7.86796e-05 0.000543268
0.00165228 0.000857375 7.2667e-06
0.000857375 0.000162062 -1.08449e-06
7.2667e-06 -1.08449e-06 -3.57594e-05
0.00134258 0.000669588 5.83839e-06
0.000669588 0.000279458 -1.26704e-06
5.83839e-06 -1.26704e-06 1.13314e-05
0.00145652 0.000418129 -1.94745e-05
0.000418129 0.000578658 7.10117e-06
-1.94745e-05 7.10117e-06 0.000418158
0.002522 0.00108287 -5.23379e-05
0.00108287 0.000741861 -1.77159e-05
-5.23379e-05 -1.77159e-05 0.000221586
0.0020109 0.0012857 2.56793e-05
0.0012857 -0.000333504 2.02809e-05
2.56793e-05 2.02809e-05 -0.000577968
0.00134976 -0.000385254 -7.26882e-05
-0.000385254 -0.00381637 3.53331e-05
-7.26882e-05 3.53331e-05 -0.00415851
0.00151613 -0.000959888 5.32071e-06
-0.000959888 0.00149026 -2.08283e-05
5.32071e-06 -2.08283e-05 0.00130062
-0.0083016 -9.47441e-05 0.000220645
-9.47441e-05 0.00402844 -1.77679e-05
0.000220645 -1.77679e-05 -0.000393461
0.000824164 -0.00117615 -2.35198e-05
-0.00117615 -0.00030545 2.05681e-06
-2.35198e-05 2.05681e-06 -0.000857225
0.00348348 -0.00186216 3.91998e-05
-0.00186216 0.000256119 2.00752e-05
3.91998e-05 2.00752e-05 -0.000243187
0.00137269 -0.000272224 0.000495566
-0.000272224 0.002927 -9.50201e-05
0.000495566 -9.50201e-05 0.00151497
0.0124768 -0.00133857 -0.000197574
-0.00133857 0.00201841 9.01652e-05
-0.000197574 9.01652e-05 0.000477424
0.00119841 -0.000886751 -3.12388e-05
-0.000886751 -0.000235569 -9.65015e-07
-3.12388e-05 -9.65015e-07 -0.000467885
0.00975113 -5.76989e-06 -0.000129155
-5.76989e-06 0.000110223 3.74944e-05
-0.000129155 3.74944e-05 -0.00096053
0.00597789 -0.00127522 9.30964e-05
-0.00127522 -2.86653e-05 1.28164e-05
9.30964e-05 1.28164e-05 0.00014705
0.00475725 -0.00088869 7.52941e-05
-0.00088869 0.00142653 -1.52571e-05
7.52941e-05 -1.52571e-05 0.00108587
0.00285265 -0.000479863 -6.48282e-05
-0.000479863 -0.000886245 1.4549e-05
-6.48282e-05 1.4549e-05 -0.000417655
-0.00367001 -0.000107335 -9.31465e-06
-0.000107335 -0.00269652 4.84618e-06
-9.31465e-06 4.84618e-06 -0.00267226
0.00165008 -0.000591075 -5.95833e-06
-0.000591075 -0.000111316 -1.96308e-08
-5.95833e-06 -1.96308e-08 -0.000148457
0.00289934 -0.000559179 2.56723e-05
-0.000559179 0.000379479 -1.2319e-05
2.56723e-05 -1.2319e-05 0.000417465
0.00087784 -0.000588411 -5.37793e-06
-0.000588411 -0.000311498 8.23489e-06
-5.37793e-06 8.23489e-06 -0.000573127
0.00193708 -0.000589779 -2.18829e-06
-0.000589779 -2.69803e-07 2.13636e-06
-2.18829e-06 2.13636e-06 -0.000162601
0.00218976 -0.000472962 4.69429e-06
-0.000472962 2.34412e-05 5.89852e-07
4.69429e-06 5.89852e-07 -2.57831e-05
0.00221546 -0.000603674 -6.63215e-06
-0.000603674 0.000290871 8.45465e-06
-6.63215e-06 8.45465e-06 4.4301e-05
0.00196015 -0.00044312 1.68477e-07
-0.00044312 5.14804e-05 1.45188e-06
1.68477e-07 1.45188e-06 -7.77307e-05
0.00206976 -0.000420369 -1.46611e-07
-0.000420369 0.000115124 1.42336e-06
-1.46611e-07 1.42336e-06 2.57577e-05
0.00178947 -0.000418576 2.56996e-06
-0.000418576 7.40151e-05 6.10352e-06
2.56996e-06 6.10352e-06 -0.000105739
0.00187287 -0.000378938 -1.80283e-07
-0.000378938 7.41602e-05 1.52345e-06
-1.80283e-07 1.52345e-06 -5.44135e-05
0.00201195 -0.000397781 -1.83761e-06
-0.000397781 0.000163116 1.18531e-06
-1.83761e-06 1.18531e-06 4.15546e-05
0.0019358 -0.000356673 -4.10908e-06
-0.000356673 0.000182042 3.28912e-06
-4.10908e-06 3.28912e-06 5.39606e-05
0.00201504 -0.000362925 -1.30443e-07
-0.000362925 0.000260114 -2.39946e-06
-1.30443e-07 -2.39946e-06 0.000120782
0.00190479 -0.000357265 3.72288e-06
-0.000357265 0.000154187 7.58633e-06
3.72288e-06 7.58633e-06 7.33833e-06
0.00187263 -0.000371537 3.55048e-07
-0.000371537 0.00017672 -8.05957e-07
3.55048e-07 -8.05957e-07 5.99278e-06
0.00177583 -0.000379826 -2.03582e-06
-0.000379826 0.000135185 -3.56057e-06
-2.03582e-06 -3.56057e-06 -5.59708e-05
0.00178603 -0.000414718 -4.36921e-06
-0.000414718 0.000254506 -2.36389e-06
-4.36921e-06 -2.36389e-06 1.16968e-05
0.00185224 -0.000449602 -5.80042e-08
-0.000449602 0.000220335 -1.36469e-07
-5.80042e-08 -1.36469e-07 -2.10223e-05
0.00195796 -0.000461572 6.18951e-06
-0.000461572 0.000253588 3.35754e-06
6.18951e-06 3.35754e-06 1.70574e-05
0.00132975 -0.000335181 -8.36851e-06
-0.000335181 0.000180184 3.00354e-06
-8.36851e-06 3.00354e-06 -6.40156e-05
0.00155683 -0.000444543 -1.49982e-06
-0.000444543 0.000226487 2.61259e-08
-1.49982e-06 2.61259e-08 -5.59294e-05
0.0015481 -0.00049616 3.40479e-06
-0.00049616 0.000126195 1.34808e-06
3.40479e-06 1.34808e-06 -0.000168574
0.000659026 -0.000188287 -8.32362e-06
-0.000188287 -5.72301e-05 6.66919e-06
-8.32362e-06 6.66919e-06 -0.000242209
0.00116972 -0.000303236 1.07771e-06
-0.000303236 0.000165009 1.98985e-07
1.07771e-06 1.98985e-07 -7.24823e-05
0.00128238 -0.000400792 3.51414e-06
-0.000400792 0.000177116 1.52148e-08
3.51414e-06 1.52148e-08 -0.000106755
0.000434316 -0.000140509 -2.05684e-05
-0.000140509 -0.00010534 1.58174e-05
-2.05684e-05 1.58174e-05 -0.000192683
0.000752384 -0.000205462 -6.97086e-07
-0.000205462 7.29456e-05 2.84508e-07
-6.97086e-07 2.84508e-07 -0.000118277
0.00104358 -0.000266475 3.16124e-06
-0.000266475 0.000152356 -1.72269e-06
3.16124e-06 -1.72269e-06 -6.93329e-05
0.00434535 0.000199396 -9.83084e-05
0.000199396 0.00237762 6.06921e-06
-9.83084e-05 6.06921e-06 0.00235491
0.000519133 -8.74185e-05 1.60347e-07
-8.74185e-05 -2.21666e-05 -7.40071e-07
1.60347e-07 -7.40071e-07 -9.73503e-05
0.00110363 -0.000184547 4.25837e-06
-0.000184547 0.000359048 -3.61628e-06
4.25837e-06 -3.61628e-06 0.000156355
0.00376719 0.000159033 1.30182e-05
0.000159033 0.00200921 2.9199e-07
1.30182e-05 2.9199e-07 0.00199851
0.000563788 -3.2428e-05 1.07504e-05
-3.2428e-05 1.35871e-05 -1.16655e-05
1.07504e-05 -1.16655e-05 -4.57535e-05
0.00328143 0.000129963 8.45382e-05
0.000129963 0.0016995 -3.28495e-06
8.45382e-05 -3.28495e-06 0.00169757
0.000623514 0.000262024 5.68288e-06
0.000262024 -8.77777e-05 -5.90167e-06
5.68288e-06 -5.90167e-06 -0.000322271
0.000866924 0.000203028 2.41655e-06
0.000203028 0.000160668 -9.4785e-07
2.41655e-06 -9.4785e-07 -6.0929e-06
0.000154964 9.79999e-05 3.75708e-06
9.79999e-05 -0.000211926 -5.24318e-07
3.75708e-06 -5.24318e-07 -0.000380453
-0.000330601 3.14314e-05 -3.28043e-06
3.14314e-05 -0.000509554 -3.27144e-06
-3.28043e-06 -3.27144e-06 -0.000641844
0.000452731 5.36614e-05 -2.71357e-08
5.36614e-05 -2.49807e-05 9.24574e-07
-2.71357e-08 9.24574e-07 -0.000178868
0.000743587 6.70871e-05 -7.71412e-07
6.70871e-05 0.000124873 -7.54681e-06
-7.71412e-07 -7.54681e-06 3.29728e-06
0.000457096 3.72569e-05 -1.63303e-06
3.72569e-05 -2.30344e-05 2.89365e-06
-1.63303e-06 2.89365e-06 -0.000160757
0.000582905 3.02208e-05 -2.48512e-08
3.02208e-05 4.17051e-05 -1.24605e-07
-2.48512e-08 -1.24605e-07 -6.61426e-05
0.000620828 -5.17144e-07 -4.33664e-06
-5.17144e-07 4.80683e-05 -1.08999e-05
-4.33664e-06 -1.08999e-05 3.46982e-06
0.00297576 -0.000112302 -6.60986e-05
-0.000112302 0.00150103 -4.13801e-06
-6.60986e-05 -4.13801e-06 0.00150345
0.000470619 -8.18374e-06 8.41619e-07
-8.18374e-06 -4.39369e-05 -2.34116e-07
8.41619e-07 -2.34116e-07 -8.05646e-05
0.000538483 2.23791e-05 -9.30896e-07
2.23791e-05 1.60171e-05 5.73518e-06
-9.30896e-07 5.73518e-06 -8.08361e-05
0.00275114 -0.000101258 -6.65271e-06
-0.000101258 0.00135485 5.46111e-07
-6.65271e-06 5.46111e-07 0.0013596
0.000415993 -3.69603e-05 -2.5301e-06
-3.69603e-05 -8.00117e-05 7.2941e-06
-2.5301e-06 7.2941e-06 -0.000111543
0.00258709 -8.4525e-05 3.39271e-05
-8.4525e-05 0.00124663 4.43307e-06
3.39271e-05 4.43307e-06 0.00125481
0.0130642 0.000524257 0.000328743
0.000524257 0.0024106 9.00269e-05
0.000328743 9.00269e-05 0.00165176
-0.0025982 -0.00165915 -0.00027231
-0.00165915 -0.00278851 -4.85475e-05
-0.00027231 -4.85475e-05 -0.00370394
-0.00770462 0.000897395 -0.000119615
0.000897395 0.00225611 -8.91212e-05
-0.000119615 -8.91212e-05 -0.00276008
0.000302372 2.81122e-05 1.62879e-05
2.81122e-05 -0.000109636 9.74629e-07
1.62879e-05 9.74629e-07 -0.000310834
0.00139343 0.000292815 -1.28077e-05
0.000292815 0.00053512 3.08089e-06
-1.28077e-05 3.08089e-06 0.000341204
0.00164754 0.000341151 -4.70278e-06
0.000341151 0.000729698 -2.25147e-06
-4.70278e-06 -2.25147e-06 0.000467223
0.00179677 0.000430421 -1.21804e-06
0.000430421 0.000665458 9.75998e-07
-1.21804e-06 9.75998e-07 0.000361135
0.000886578 0.000386568 1.08177e-05
0.000386568 -3.00748e-05 8.86875e-06
1.08177e-05 8.86875e-06 -0.000339542
-0.000428396 0.00023926 1.31923e-05
0.00023926 -0.00064854 -9.19627e-07
1.31923e-05 -9.19627e-07 -0.000902099
-2.56158e-05 0.000199669 -7.06469e-06
0.000199669 -0.000184288 -2.3106e-06
-7.06469e-06 -2.3106e-06 -0.000471855
0.000165714 0.000342916 4.32692e-06
0.000342916 -0.000325995 3.00126e-07
4.32692e-06 3.00126e-07 -0.000592394
0.00177963 0.000512595 6.07466e-07
0.000512595 0.000593041 1.94584e-06
6.07466e-07 1.94584e-06 0.000414531
0.000206679 0.000410684 7.19063e-06
0.000410684 -0.000428063 3.80188e-06
7.19063e-06 3.80188e-06 -0.000642926
0.00287503 0.000735913 2.17738e-06
0.000735913 0.000855529 2.74962e-07
2.17738e-06 2.74962e-07 0.000674502
0.00174366 0.000707091 9.71764e-06
0.000707091 0.00019442 1.28948e-07
9.71764e-06 1.28948e-07 -2.00085e-05
0.000979819 0.000597364 3.05068e-06
0.000597364 -0.000161474 -2.23725e-06
3.05068e-06 -2.23725e-06 -0.000324725
0.00081882 0.000379512 -1.51982e-06
0.000379512 0.000159502 -1.43601e-05
-1.51982e-06 -1.43601e-05 -1.34399e-05
0.00559649 0.00108271 3.58199e-06
0.00108271 -0.000265346 6.45367e-06
3.58199e-06 6.45367e-06 0.00043473
0.0113914 0.0015293 0.000178681
0.0015293 0.00159149 8.50267e-05
0.000178681 8.50267e-05 -0.000181486
0.00956687 -0.00250457 0.000224996
-0.00250457 0.00460513 -4.44629e-05
0.000224996 -4.44629e-05 0.00302063
0.00462393 0.00264575 0.000410746
0.00264575 -0.000327482 0.000230986
0.000410746 0.000230986 -0.00427512
0.000183369 0.000794872 -5.72919e-05
0.000794872 -5.42988e-05 -7.91688e-06
-5.72919e-05 -7.91688e-06 0.000327666
0.00338721 0.00170949 -0.000107179
0.00170949 -0.000288224 -3.93355e-05
-0.000107179 -3.93355e-05 -0.000215953
0.00534359 0.00150718 6.34749e-05
0.00150718 0.00112927 1.90222e-05
6.34749e-05 1.90222e-05 0.000957635
0.00349406 0.00107584 1.48266e-05
0.00107584 0.000978427 3.56377e-06
1.48266e-05 3.56377e-06 0.000751956
0.000504606 0.00054843 -1.57273e-05
0.00054843 -0.000111609 1.01314e-05
-1.57273e-05 1.01314e-05 -0.000351102
0.00495207 0.00158 -0.000143981
0.00158 0.00100167 -1.64108e-05
-0.000143981 -1.64108e-05 0.000705222
0.00290825 -0.000319974 -7.97328e-06
-0.000319974 0.000237209 5.33999e-06
-7.97328e-06 5.33999e-06 0.000299394
0.010582 -0.000398599 -1.88698e-05
-0.000398599 0.00209834 4.17807e-06
-1.88698e-05 4.17807e-06 0.00159759
-0.0111515 -0.00142986 0.000479452
-0.00142986 -0.0057052 8.22857e-07
0.000479452 8.22857e-07 -0.00565051
5.84772e-05 -0.000765317 -5.84486e-05
-0.000765317 -0.000850178 6.32545e-06
-5.84486e-05 6.32545e-06 -0.0010411
0.008255 -0.00166624 6.66681e-05
-0.00166624 0.000773799 7.06953e-05
6.66681e-05 7.06953e-05 0.00118322
0.0011973 -0.000295514 -0.000149396
-0.000295514 -0.00311855 4.74916e-05
-0.000149396 4.74916e-05 -0.00510577
0.00188388 -0.000630101 1.17289e-05
-0.000630101 -0.000203455 2.68388e-06
1.17289e-05 2.68388e-06 -0.000283007
0.00404269 -0.000364111 -2.20213e-05
-0.000364111 -0.000217669 -1.2593e-06
-2.20213e-05 -1.2593e-06 7.56055e-05
0.00471645 -0.00058935 3.24793e-05
-0.00058935 0.00102046 -1.51363e-05
3.24793e-05 -1.51363e-05 0.00120044
0.0039999 -0.000212979 7.43741e-05
-0.000212979 0.000878341 5.63576e-06
7.43741e-05 5.63576e-06 0.00082674
-0.00156136 -0.000375793 -4.92548e-06
-0.000375793 -0.00187887 1.21782e-05
-4.92548e-06 1.21782e-05 -0.0018049
0.00194125 -0.000500319 -2.0847e-06
-0.000500319 -0.000147125 2.61411e-08
-2.0847e-06 2.61411e-08 -7.32559e-05
0.00198326 -0.000366271 1.77845e-05
-0.000366271 -0.000242888 -3.94705e-06
1.77845e-05 -3.94705e-06 -6.59312e-05
0.00161438 -0.000561544 -1.90662e-06
-0.000561544 -0.000166803 5.42366e-06
-1.90662e-06 5.42366e-06 -0.000328392
0.00214637 -0.000473402 1.55546e-06
-0.000473402 2.48091e-06 8.04081e-07
1.55546e-06 8.04081e-07 -4.82062e-05
0.00210085 -0.000402059 1.28264e-06
-0.000402059 3.4241e-05 8.49269e-07
1.28264e-06 8.49269e-07 1.82471e-05
0.00197376 -0.000442635 -5.29932e-08
-0.000442635 5.83904e-05 3.58411e-06
-5.29932e-08 3.58411e-06 -6.73089e-05
0.00199462 -0.000410163 3.9164e-07
-0.000410163 8.19986e-05 3.24203e-07
3.9164e-07 3.24203e-07 -5.84187e-06
0.0019893 -0.000368725 -3.08839e-06
-0.000368725 7.62435e-05 1.06492e-06
-3.08839e-06 1.06492e-06 -4.46073e-06
0.00186152 -0.000380933 3.97791e-06
-0.000380933 6.50503e-05 2.72792e-06
3.97791e-06 2.72792e-06 -6.40819e-05
0.00192441 -0.000390902 -7.00515e-08
-0.000390902 0.000126394 1.22922e-07
-7.00515e-08 1.22922e-07 5.08996e-06
0.00185801 -0.000358448 1.02741e-06
-0.000358448 0.00011889 -4.51222e-07
1.02741e-06 -4.51222e-07 -4.23114e-06
0.00183008 -0.000354981 -4.17576e-07
-0.000354981 0.000111228 4.58187e-06
-4.17576e-07 4.58187e-06 -1.48814e-05
0.00196737 -0.000356117 -2.20839e-06
-0.000356117 0.000225957 4.19231e-07
-2.20839e-06 4.19231e-07 9.04952e-05
0.00195939 -0.000360394 1.29223e-07
-0.000360394 0.000235921 -1.91815e-06
1.29223e-07 -1.91815e-06 7.40116e-05
0.00188053 -0.000371065 3.69899e-06
-0.000371065 0.000180189 3.62215e-06
3.69899e-06 3.62215e-06 9.48308e-06
0.00183358 -0.000385014 2.24314e-07
-0.000385014 0.000171217 -4.39853e-07
2.24314e-07 -4.39853e-07 -2.15085e-05
0.00185335 -0.000368771 -1.40474e-06
-0.000368771 0.000247757 -2.27175e-06
-1.40474e-06 -2.27175e-06 4.11948e-05
0.00137312 -0.000327489 -8.91941e-06
-0.000327489 0.000119431 1.07496e-06
-8.91941e-06 1.07496e-06 -0.00010962
0.00176049 -0.000415672 -9.47061e-07
-0.000415672 0.000240192 -6.33597e-07
-9.47061e-07 -6.33597e-07 -5.64507e-06
0.00190356 -0.000455431 4.04531e-06
-0.000455431 0.000253116 1.735e-06
4.04531e-06 1.735e-06 9.76849e-06
0.00085132 -0.000204781 -1.19722e-05
-0.000204781 -1.05523e-06 6.6014e-06
-1.19722e-05 6.6014e-06 -0.000185206
0.00126806 -0.000330297 3.69245e-07
-0.000330297 0.000140736 4.13526e-07
3.69245e-07 4.13526e-07 -0.000102482
0.0014645 -0.00043231 2.75657e-06
-0.00043231 0.000177532 6.64467e-07
2.75657e-06 6.64467e-07 -0.000103562
0.000448343 -0.000157285 -2.06747e-05
-0.000157285 -0.00011919 1.63721e-05
-2.06747e-05 1.63721e-05 -0.000217148
0.000824499 -0.000201453 4.89783e-07
-0.000201453 4.42228e-05 4.10966e-07
4.89783e-07 4.10966e-07 -0.000143714
0.00100013 -0.000292263 6.68718e-06
-0.000292263 5.72946e-05 -2.5196e-06
6.68718e-06 -2.5196e-06 -0.000179672
0.00533888 0.000169686 -0.000159521
0.000169686 0.00296421 8.84168e-06
-0.000159521 8.84168e-06 0.00294902
0.000519595 -0.000147941 -9.97577e-07
-0.000147941 -5.39404e-05 -1.44748e-07
-9.97577e-07 -1.44748e-07 -0.000144183
0.000733077 -0.000214046 7.52809e-06
-0.000214046 6.35557e-05 -5.12354e-06
7.52809e-06 -5.12354e-06 -0.000128228
0.00463199 0.000148031 1.08191e-05
0.000148031 0.00253693 4.08445e-07
1.08191e-05 4.08445e-07 0.00252659
0.000572549 -9.86157e-05 1.67114e-05
-9.86157e-05 8.67954e-06 -1.41418e-05
1.67114e-05 -1.41418e-05 -6.88228e-05
0.00396793 0.000110565 0.000135526
0.000110565 0.00212236 -8.18718e-06
0.000135526 -8.18718e-06 0.00212261
0.000678805 0.000313945 -4.64273e-06
0.000313945 -0.000132584 -3.0293e-06
-4.64273e-06 -3.0293e-06 -0.000399231
0.00146686 0.000341333 -5.54999e-07
0.000341333 0.000434413 -7.68737e-07
-5.54999e-07 -7.68737e-07 0.000186388
0.000229889 0.000163069 2.05577e-08
0.000163069 -0.000275002 -2.72579e-06
2.05577e-08 -2.72579e-06 -0.000473821
0.000534417 0.000190752 -5.39423e-06
0.000190752 -2.95895e-05 -1.91952e-06
-5.39423e-06 -1.91952e-06 -0.000200536
4.43415e-05 9.71826e-05 9.40241e-07
9.71826e-05 -0.000287185 -7.05453e-07
9.40241e-07 -7.05453e-07 -0.000457682
0.00113192 0.000176993 -2.90698e-06
0.000176993 0.000382861 -7.00086e-06
-2.90698e-06 -7.00086e-06 0.000213373
4.74786e-05 2.57125e-05 -1.09712e-06
2.57125e-05 -0.000275928 2.09132e-07
-1.09712e-06 2.09132e-07 -0.000425064
0.000714155 6.40157e-05 1.81744e-07
6.40157e-05 0.000112548 -3.6675e-07
1.81744e-07 -3.6675e-07 -9.99933e-06
0.00058482 1.10199e-05 -6.51457e-06
1.10199e-05 2.61183e-05 -1.25645e-05
-6.51457e-06 -1.25645e-05 -2.66515e-05
0.000616362 2.09457e-05 -8.56719e-07
2.09457e-05 6.48854e-05 7.4006e-06
-8.56719e-07 7.4006e-06 -4.294e-05
0.000492048 3.86444e-06 1.88167e-07
3.86444e-06 -2.77494e-05 -2.01252e-07
1.88167e-07 -2.01252e-07 -7.16787e-05
0.00324635 -0.000125291 -8.25032e-05
-0.000125291 0.0016762 -4.50517e-06
-8.25032e-05 -4.50517e-06 0.00167489
0.00292528 -0.000117898 -6.32769e-06
-0.000117898 0.00147058 5.92453e-07
-6.32769e-06 5.92453e-07 0.00147127
0.000417088 8.6568e-06 3.80939e-06
8.6568e-06 -7.68318e-05 8.93082e-06
3.80939e-06 8.93082e-06 -0.000112185
0.00269947 -0.000100793 4.15533e-05
-0.000100793 0.00132305 4.1877e-06
4.15533e-05 4.1877e-06 0.00132764
0.00398882 0.000105531 7.09084e-05
0.000105531 -0.000669235 1.86721e-05
7.09084e-05 1.86721e-05 0.000159817
0.00383537 -0.000757164 0.000107048
-0.000757164 -0.00315585 5.38028e-05
0.000107048 5.38028e-05 -0.00431744
0.00976271 -0.00178009 -0.000145429
-0.00178009 0.00360086 -7.28467e-05
-0.000145429 -7.28467e-05 0.00348044
0.00110665 0.000438323 8.65524e-06
0.000438323 -6.17466e-05 6.72003e-06
8.65524e-06 6.72003e-06 -0.000349658
0.00285448 0.000469183 -5.40833e-06
0.000469183 0.00143286 5.73009e-06
-5.40833e-06 5.73009e-06 0.00114315
0.00176237 0.000422075 -3.49416e-06
0.000422075 0.000668641 3.39326e-06
-3.49416e-06 3.39326e-06 0.000371566
0.00100973 0.000397526 2.97968e-06
0.000397526 0.000200935 1.90842e-06
2.97968e-06 1.90842e-06 -8.39729e-05
0.00129823 0.000428387 -2.32115e-06
0.000428387 0.000234915 1.16463e-06
-2.32115e-06 1.16463e-06 -8.9078e-05
0.0012542 0.000510005 1.53474e-05
0.000510005 0.0001547 1.20906e-05
1.53474e-05 1.20906e-05 -0.000131859
0.00138006 0.000475927 -2.18569e-05
0.000475927 0.000363354 -8.10134e-06
-2.18569e-05 -8.10134e-06 5.68251e-05
0.00079253 0.000441711 1.04608e-05
0.000441711 5.43046e-05 -6.86709e-06
1.04608e-05 -6.86709e-06 -0.000132852
0.00116979 0.000519481 1.88639e-06
0.000519481 0.00010758 -1.5995e-06
1.88639e-06 -1.5995e-06 -0.000127391
0.00166426 0.000622751 3.78416e-06
0.000622751 0.000155581 3.47605e-06
3.78416e-06 3.47605e-06 3.2364e-05
0.00160126 0.000654125 9.12074e-06
0.000654125 5.74376e-05 -1.01611e-06
9.12074e-06 -1.01611e-06 -0.000174618
0.00163654 0.000614 1.74781e-05
0.000614 9.87064e-05 8.74105e-06
1.74781e-05 8.74105e-06 -6.4734e-05
0.00109712 0.000647329 -3.98823e-06
0.000647329 -0.000152005 -5.23653e-06
-3.98823e-06 -5.23653e-06 -0.000351574
0.000572827 0.000547926 -8.5032e-06
0.000547926 -0.00037676 -1.23771e-06
-8.5032e-06 -1.23771e-06 -0.000513508
0.00159811 0.000579811 4.07642e-05
0.000579811 -0.000520196 3.46471e-05
4.07642e-05 3.46471e-05 -0.000394998
0.00563109 0.00114369 -7.54374e-05
0.00114369 -0.000616662 -2.08186e-05
-7.54374e-05 -2.08186e-05 0.000151445
0.00360276 0.00101678 0.000380493
0.00101678 -0.00282969 6.23857e-05
0.000380493 6.23857e-05 -0.00470683
0.00035738 0.0012654 -8.37659e-05
0.0012654 -0.00141487 -3.0236e-05
-8.37659e-05 -3.0236e-05 -0.00120341
0.00382881 0.00121353 -3.14101e-05
0.00121353 0.000689458 -7.21158e-06
-3.14101e-05 -7.21158e-06 0.000556481
0.0033801 0.00106841 -9.88191e-05
0.00106841 0.000875072 -3.04521e-05
-9.88191e-05 -3.04521e-05 0.000639968
0.00266023 -0.000245849 -3.98887e-05
-0.000245849 -0.000130611 -1.54171e-05
-3.98887e-05 -1.54171e-05 3.68666e-05
0.000377199 -0.000157249 4.04388e-05
-0.000157249 -0.000349638 9.88468e-06
4.04388e-05 9.88468e-06 -0.000152404
0.00168204 0.000834045 0.000137247
0.000834045 -0.00413953 -1.04553e-05
0.000137247 -1.04553e-05 -0.00435349
-0.00120521 -0.000400368 -2.74188e-05
-0.000400368 -0.00183395 3.59461e-05
-2.74188e-05 3.59461e-05 -0.0017141
0.0054967 -0.000366964 -9.68112e-05
-0.000366964 0.000621178 3.78745e-05
-9.68112e-05 3.78745e-05 0.000540035
0.00244229 -0.000440096 -2.46815e-05
-0.000440096 -0.000171995 9.16265e-06
-2.46815e-05 9.16265e-06 6.44417e-05
0.00381764 -0.000255488 1.98254e-06
-0.000255488 0.00069486 -4.06931e-06
1.98254e-06 -4.06931e-06 0.000681401
0.00199508 -0.000257552 4.14041e-05
-0.000257552 -0.000335754 -3.70185e-06
4.14041e-05 -3.70185e-06 -7.3425e-05
0.00345617 -7.61318e-05 3.04627e-05
-7.61318e-05 0.00104319 -6.91385e-07
3.04627e-05 -6.91385e-07 0.00100771
0.000875646 -0.00042695 -2.3264e-05
-0.00042695 -0.000721066 1.20571e-05
-2.3264e-05 1.20571e-05 -0.000607662
0.001924 -0.000377393 -5.05163e-07
-0.000377393 -0.00029935 2.09323e-06
-5.05163e-07 2.09323e-06 -0.000130722
0.00216738 -0.000345022 2.5245e-06
-0.000345022 -0.000121323 -7.6224e-07
2.5245e-06 -7.6224e-07 1.33389e-05
0.00209066 -0.000468577 -2.83118e-06
-0.000468577 -1.8837e-05 1.64073e-06
-2.83118e-06 1.64073e-06 -6.9694e-05
0.00209728 -0.000400816 3.3335e-07
-0.000400816 3.77969e-05 -1.04947e-07
3.3335e-07 -1.04947e-07 2.10325e-05
0.00206164 -0.000333125 -1.93156e-06
-0.000333125 3.32752e-05 1.4626e-07
-1.93156e-06 1.4626e-07 5.7398e-06
0.00190893 -0.000398985 -2.44778e-07
-0.000398985 4.28604e-05 3.94424e-07
-2.44778e-07 3.94424e-07 -4.26621e-05
0.00197661 -0.000374527 -6.39745e-07
-0.000374527 7.5166e-05 1.23435e-07
-6.39745e-07 1.23435e-07 -7.2735e-06
0.00192824 -0.00032945 -1.57257e-06
-0.00032945 0.000106486 1.09833e-06
-1.57257e-06 1.09833e-06 3.7576e-06
0.00183676 -0.000383799 4.0691e-07
-0.000383799 8.94901e-05 -1.66517e-07
4.0691e-07 -1.66517e-07 -3.14934e-05
0.00181491 -0.000357027 1.07335e-06
-0.000357027 8.84256e-05 -7.27978e-07
1.07335e-06 -7.27978e-07 -3.51548e-05
0.0018455 -0.000338041 1.26064e-06
-0.000338041 0.000125074 -1.83768e-06
1.26064e-06 -1.83768e-06 -1.26192e-05
0.00192124 -0.000349369 -3.2707e-06
-0.000349369 0.000193117 3.99334e-06
-3.2707e-06 3.99334e-06 6.15163e-05
0.00199934 -0.000360019 -1.79397e-06
-0.000360019 0.000255774 5.05631e-07
-1.79397e-06 5.05631e-07 9.79862e-05
0.00189524 -0.00034282 -1.02382e-06
-0.00034282 0.000239503 -1.76427e-06
-1.02382e-06 -1.76427e-06 5.65372e-05
0.0018935 -0.000390797 2.47343e-06
-0.000390797 0.000208339 2.39277e-06
2.47343e-06 2.39277e-06 1.38931e-05
0.00185206 -0.000371056 7.55236e-07
-0.000371056 0.000247631 -5.67465e-07
7.55236e-07 -5.67465e-07 4.04528e-05
0.0015052 -0.000298488 -6.91633e-06
-0.000298488 0.000150926 1.13047e-06
-6.91633e-06 1.13047e-06 -5.66592e-05
0.000901771 -0.000202903 -1.33519e-05
-0.000202903 -1.6558e-05 6.65305e-06
-1.33519e-05 6.65305e-06 -0.000194366
0.00136586 -0.000324747 -1.26362e-06
-0.000324747 0.000121693 -2.45326e-08
-1.26362e-06 -2.45326e-08 -0.000107779
0.00173515 -0.00041696 2.789e-06
-0.00041696 0.000225634 5.48922e-07
2.789e-06 5.48922e-07 -2.33292e-05
0.000479512 -0.000202414 -2.26966e-05
-0.000202414 -0.000102189 1.70229e-05
-2.26966e-05 1.70229e-05 -0.000216882
0.000839767 -0.000206184 4.85916e-07
-0.000206184 -1.01556e-05 1.15777e-07
4.85916e-07 1.15777e-07 -0.000195315
0.00127286 -0.000331252 7.66974e-06
-0.000331252 0.000141148 -1.56106e-06
7.66974e-06 -1.56106e-06 -0.000102024
0.00588956 0.000128432 -0.000200344
0.000128432 0.00328078 1.17383e-05
-0.000200344 1.17383e-05 0.00327286
0.00050215 -0.000200523 -1.16458e-06
-0.000200523 -8.21107e-05 4.17562e-07
-1.16458e-06 4.17562e-07 -0.000188344
0.000880616 -0.000211069 1.08377e-05
-0.000211069 8.04082e-05 -6.3227e-06
1.08377e-05 -6.3227e-06 -0.000110437
0.00554277 0.000140426 3.2629e-07
0.000140426 0.00308448 -6.67111e-08
3.2629e-07 -6.67111e-08 0.00307281
0.000647697 -0.000169513 2.2093e-05
-0.000169513 2.57669e-05 -1.65863e-05
2.2093e-05 -1.65863e-05 -7.01885e-05
0.0050318 0.000121363 0.000175599
0.000121363 0.00277647 -1.41333e-05
0.000175599 -1.41333e-05 0.00276935
0.00127434 0.000394295 -2.94032e-06
0.000394295 0.000120384 2.66975e-06
-2.94032e-06 2.66975e-06 -0.000158988
0.00139087 0.000387239 -3.71165e-06
0.000387239 0.000295161 -1.49012e-06
-3.71165e-06 -1.49012e-06 1.34364e-05
0.000973272 0.000276318 -5.91084e-06
0.000276318 6.9216e-05 -1.65484e-06
-5.91084e-06 -1.65484e-06 -0.000160839
0.0026672 0.000455365 -1.66408e-06
0.000455365 0.00117602 3.91365e-06
-1.66408e-06 3.91365e-06 0.000907693
0.000805027 0.000221366 -1.6807e-06
0.000221366 8.41789e-05 -1.01844e-06
-1.6807e-06 -1.01844e-06 -0.000129608
0.00115251 0.000209824 -5.15022e-06
0.000209824 0.00036715 -3.72039e-06
-5.15022e-06 -3.72039e-06 0.000174896
3.18774e-05 9.36759e-05 -2.69997e-06
9.36759e-05 -0.000303978 -9.41062e-07
-2.69997e-06 -9.41062e-07 -0.000477357
0.000671042 9.98476e-05 -5.08376e-07
9.98476e-05 8.93099e-05 -2.94633e-07
-5.08376e-07 -2.94633e-07 -6.4375e-05
0.000592614 4.3122e-05 -1.12981e-05
4.3122e-05 2.53151e-05 -1.36384e-05
-1.12981e-05 -1.36384e-05 -3.93927e-05
0.000482821 3.35374e-05 2.74279e-07
3.35374e-05 -2.6295e-05 8.13668e-06
2.74279e-07 8.13668e-06 -0.000145257
0.000496481 6.85631e-06 2.23993e-07
6.85631e-06 -2.46565e-05 -2.0309e-07
2.23993e-07 -2.0309e-07 -7.70873e-05
0.00369194 -0.000136925 -0.000106841
-0.000136925 0.00195922 -5.0951e-06
-0.000106841 -5.0951e-06 0.00195431
0.000352183 7.18037e-06 4.35862e-06
7.18037e-06 -0.000110635 1.07766e-05
4.35862e-06 1.07766e-05 -0.00015393
0.00321315 -0.00013484 -6.03767e-06
-0.00013484 0.00165698 6.02589e-07
-6.03767e-06 6.02589e-07 0.00165315
0.00290198 -0.00011963 5.09452e-05
-0.00011963 0.00145616 3.99539e-06
5.09452e-05 3.99539e-06 0.00145623
0.000519696 8.8249e-05 8.90047e-06
8.8249e-05 -0.00129777 1.41695e-05
8.90047e-06 1.41695e-05 -0.00097096
0.00524689 2.74597e-05 5.98759e-05
2.74597e-05 7.36046e-05 5.8611e-06
5.98759e-05 5.8611e-06 0.000753315
0.0121874 0.000750894 -6.18517e-05
0.000750894 0.0028151 -1.134e-05
-6.18517e-05 -1.134e-05 0.00204364
0.00184874 0.000572958 4.41886e-06
0.000572958 0.000333851 3.67106e-06
4.41886e-06 3.67106e-06 4.77202e-05
0.00194881 0.00055845 2.7679e-06
0.00055845 0.000287452 2.85503e-06
2.7679e-06 2.85503e-06 2.3176e-05
0.00124153 0.000455947 7.07715e-07
0.000455947 3.26728e-05 -3.10621e-06
7.07715e-07 -3.10621e-06 -0.00025601
0.00206654 0.000516495 -5.37048e-06
0.000516495 0.000821414 5.14069e-06
-5.37048e-06 5.14069e-06 0.000514177
0.00175075 0.000471796 -4.07268e-06
0.000471796 0.000529259 -4.58527e-06
-4.07268e-06 -4.58527e-06 0.00018992
0.00163991 0.000551294 7.22146e-06
0.000551294 0.000354155 2.79896e-06
7.22146e-06 2.79896e-06 6.6451e-05
0.00169172 0.000613586 3.87643e-07
0.000613586 6.528e-05 -2.13256e-06
3.87643e-07 -2.13256e-06 -0.000184053
0.00221078 0.000633399 -1.40142e-05
0.000633399 0.000671853 -1.48354e-06
-1.40142e-05 -1.48354e-06 0.0004143
0.00128981 0.000582044 1.52738e-06
0.000582044 -8.0361e-05 1.59755e-05
1.52738e-06 1.59755e-05 -0.000166316
0.00248628 0.00073537 -1.49463e-06
0.00073537 0.000550847 7.756e-07
-1.49463e-06 7.756e-07 0.000306043
0.00240957 0.000646062 -6.61185e-06
0.000646062 0.000352381 1.3797e-07
-6.61185e-06 1.3797e-07 0.000154245
0.000893976 0.000326337 2.12296e-05
0.000326337 -0.000441861 1.43076e-05
2.12296e-05 1.43076e-05 -0.000458239
0.000955677 0.000553045 1.0773e-05
0.000553045 -0.000241174 -1.66813e-06
1.0773e-05 -1.66813e-06 -0.000399768
0.001192 0.000652792 -2.4038e-05
0.000652792 -0.00010466 2.22151e-06
-2.4038e-05 2.22151e-06 -0.00030746
0.00259286 0.000635911 4.53197e-06
0.000635911 -1.61258e-06 8.82617e-06
4.53197e-06 8.82617e-06 5.52847e-05
0.00533743 0.000775556 -2.26634e-06
0.000775556 -0.00069592 -2.31946e-05
-2.26634e-06 -2.31946e-05 -0.000350469
0.00346462 0.00101442 -1.42976e-05
0.00101442 0.000824365 -3.62779e-05
-1.42976e-05 -3.62779e-05 0.000733167
0.00145411 -5.46226e-05 2.65187e-05
-5.46226e-05 -0.000178273 2.49909e-07
2.65187e-05 2.49909e-07 -0.00012779
0.00228936 -0.000177904 -3.93544e-05
-0.000177904 -0.000235914 1.71826e-06
-3.93544e-05 1.71826e-06 -0.000129062
0.00191442 0.000253243 1.75499e-05
0.000253243 -0.000598879 -7.09657e-06
1.75499e-05 -7.09657e-06 -0.000516874
0.000161656 -0.000311071 -4.04718e-05
-0.000311071 -0.0013678 3.00855e-05
-4.04718e-05 3.00855e-05 -0.00111464
0.00352564 -0.000330677 -9.97371e-05
-0.000330677 0.000443469 -5.16802e-06
-9.97371e-05 -5.16802e-06 0.000477772
0.0021826 -0.000281969 6.43571e-06
-0.000281969 -0.00014539 -3.70614e-06
6.43571e-06 -3.70614e-06 8.94238e-05
0.00243403 -7.80653e-05 -9.80884e-06
-7.80653e-05 0.000390206 4.18988e-07
-9.80884e-06 4.18988e-07 0.000364151
0.00220681 -0.000214721 5.7473e-06
-0.000214721 -1.15446e-05 -1.48951e-07
5.7473e-06 -1.48951e-07 4.39468e-05
0.00214087 -1.52678e-05 6.42755e-06
-1.52678e-05 -5.26133e-06 8.12063e-07
6.42755e-06 8.12063e-07 -1.10827e-06
0.00190512 -0.000396237 -1.10943e-05
-0.000396237 -0.000343166 3.65514e-06
-1.10943e-05 3.65514e-06 -0.000182811
0.00219527 -0.000350024 -2.17004e-06
-0.000350024 -9.08368e-05 4.04386e-07
-2.17004e-06 4.04386e-07 1.69726e-05
0.00214329 -0.000253539 -7.54212e-07
-0.000253539 -2.47072e-05 -4.16129e-07
-7.54212e-07 -4.16129e-07 1.60727e-06
0.00209033 -0.000400848 -2.81828e-06
-0.000400848 3.73357e-05 -3.64571e-07
-2.81828e-06 -3.64571e-07 1.87303e-05
0.00206597 -0.000330289 -9.3455e-08
-0.000330289 4.70075e-05 7.76531e-08
-9.3455e-08 7.76531e-08 1.4885e-05
0.00197934 -0.00028504 -1.98263e-06
-0.00028504 4.61042e-05 5.38162e-07
-1.98263e-06 5.38162e-07 -1.63066e-05
0.00196593 -0.000380729 1.23414e-07
-0.000380729 7.5328e-05 -1.46735e-06
1.23414e-07 -1.46735e-06 -9.16538e-06
0.00188396 -0.000325476 6.40758e-07
-0.000325476 7.72591e-05 -1.33488e-07
6.40758e-07 -1.33488e-07 -2.58188e-05
0.00187836 -0.000300406 -5.91626e-08
-0.000300406 0.000102333 -5.32471e-07
-5.91626e-08 -5.32471e-07 -1.22648e-05
0.00177024 -0.000355615 7.76957e-07
-0.000355615 5.73278e-05 -9.21244e-07
7.76957e-07 -9.21244e-07 -6.66948e-05
0.00188051 -0.000339728 1.61535e-07
-0.000339728 0.000145969 -3.99012e-07
1.61535e-07 -3.99012e-07 7.89149e-06
0.00182757 -0.000313298 -3.42153e-07
-0.000313298 0.00015954 -1.54292e-06
-3.42153e-07 -1.54292e-06 -3.44427e-06
0.00203565 -0.000359512 -2.03133e-06
-0.000359512 0.000273022 3.71312e-06
-2.03133e-06 3.71312e-06 0.000119373
0.00189582 -0.000343288 -5.77496e-07
-0.000343288 0.000240721 -1.41548e-07
-5.77496e-07 -1.41548e-07 5.88679e-05
0.00149516 -0.000271775 -5.74476e-06
-0.000271775 0.000111623 9.20791e-07
-5.74476e-06 9.20791e-07 -8.07031e-05
0.00185483 -0.000373485 3.34081e-06
-0.000373485 0.000249951 1.2726e-06
3.34081e-06 1.2726e-06 4.21474e-05
0.00152773 -0.000301219 -3.81226e-07
-0.000301219 0.000165057 -1.12784e-08
-3.81226e-07 -1.12784e-08 -4.2082e-05
0.000945473 -0.000189608 -1.41766e-05
-0.000189608 -2.27846e-05 6.37994e-06
-1.41766e-05 6.37994e-06 -0.000192335
0.000394376 -0.000181506 -2.00909e-05
-0.000181506 -0.00016521 1.5849e-05
-2.00909e-05 1.5849e-05 -0.000277795
0.000928411 -0.000205955 2.33061e-07
-0.000205955 -3.71937e-06 7.1565e-08
2.33061e-07 7.1565e-08 -0.000182323
0.00136729 -0.000322642 5.83679e-06
-0.000322642 0.00012906 -1.23779e-06
5.83679e-06 -1.23779e-06 -0.000100936
0.00614641 5.31037e-05 -0.000228676
5.31037e-05 0.00341421 1.38138e-05
-0.000228676 1.38138e-05 0.00341713
0.000485004 -0.000197694 -1.50232e-06
-0.000197694 -0.000106126 9.44388e-07
-1.50232e-06 9.44388e-07 -0.000216608
0.00087041 -0.000209591 1.22078e-05
-0.000209591 6.73847e-06 -6.2518e-06
1.22078e-05 -6.2518e-06 -0.000179664
0.00601032 0.000104638 -1.41627e-06
0.000104638 0.0033525 1.67842e-08
-1.41627e-06 1.67842e-08 0.00334554
0.00057955 -0.000204703 2.4581e-05
-0.000204703 -4.02842e-05 -1.69559e-05
2.4581e-05 -1.69559e-05 -0.000147085
0.0057313 0.000126339 0.000198153
0.000126339 0.00319868 -1.68e-05
0.000198153 -1.68e-05 0.00318653
0.00158389 0.000464252 -1.13922e-06
0.000464252 0.000184229 3.75512e-06
-1.13922e-06 3.75512e-06 -8.29713e-05
0.00136279 0.000410539 3.41412e-07
0.000410539 0.000171087 9.16014e-07
3.41412e-07 9.16014e-07 -0.000111037
0.0012621 0.000321459 -7.19281e-06
0.000321459 0.000162446 -9.35802e-07
-7.19281e-06 -9.35802e-07 -7.46869e-05
0.00176409 0.00042644 1.11925e-06
0.00042644 0.000517154 2.46115e-06
1.11925e-06 2.46115e-06 0.000227186
0.00110763 0.000283566 -1.41569e-06
0.000283566 0.000153294 5.87459e-08
-1.41569e-06 5.87459e-08 -7.5231e-05
0.000909568 0.000217349 -9.55341e-06
0.000217349 0.000150196 -3.02231e-06
-9.55341e-06 -3.02231e-06 -4.2054e-05
0.0012716 0.000266399 -2.83356e-06
0.000266399 0.000372326 -3.45814e-07
-2.83356e-06 -3.45814e-07 0.0001478
0.000695784 0.000178593 3.59814e-07
0.000178593 9.80097e-05 4.22644e-07
3.59814e-07 4.22644e-07 -9.32158e-05
0.000705382 0.000113614 -1.97491e-05
0.000113614 7.95872e-05 -1.53996e-05
-1.97491e-05 -1.53996e-05 -2.78944e-06
0.000355295 5.13802e-05 5.5258e-07
5.13802e-05 -0.000108298 6.25429e-06
5.5258e-07 6.25429e-06 -0.000251341
0.000546186 3.26605e-05 -1.04996e-06
3.26605e-05 5.33111e-07 -5.0952e-07
-1.04996e-06 -5.0952e-07 -6.12437e-05
0.00427674 -0.000143167 -0.000136668
-0.000143167 0.00232434 -7.75407e-06
-0.000136668 -7.75407e-06 0.0023156
0.000401395 6.95257e-06 5.64276e-06
6.95257e-06 -8.00385e-05 1.22199e-05
5.64276e-06 1.22199e-05 -0.00013187
0.00353874 -0.000151903 -6.14484e-06
-0.000151903 0.00186775 5.94469e-07
-6.14484e-06 5.94469e-07 0.00185871
0.0031383 -0.000139597 6.21432e-05
-0.000139597 0.00161175 3.94469e-06
6.21432e-05 3.94469e-06 0.00160634
0.000740954 9.69866e-05 2.11903e-05
9.69866e-05 -0.00059821 1.45209e-05
2.11903e-05 1.45209e-05 -0.000472257
0.00231049 9.05451e-05 -1.01537e-05
9.05451e-05 -0.000576957 -3.43213e-06
-1.01537e-05 -3.43213e-06 -0.000221485
0.00391782 0.000139531 0.000170207
0.000139531 -0.00114763 4.84487e-05
0.000170207 4.84487e-05 1.95658e-06
0.00251188 0.000626031 -3.73553e-06
0.000626031 0.0005445 -1.93993e-07
-3.73553e-06 -1.93993e-07 0.000289509
0.00169982 0.000578633 -4.61373e-06
0.000578633 0.000231487 -4.35819e-06
-4.61373e-06 -4.35819e-06 -5.09264e-05
0.0020263 0.000468742 -3.12654e-07
0.000468742 0.00018986 3.88436e-06
-3.12654e-07 3.88436e-06 -1.4563e-05
0.00190781 0.000546448 1.00334e-06
0.000546448 0.000261481 3.1622e-07
1.00334e-06 3.1622e-07 2.8625e-07
0.00135268 0.000471045 1.09678e-08
0.000471045 0.000110653 -9.68589e-06
1.09678e-08 -9.68589e-06 -0.000178239
0.00181974 0.000483078 -8.90341e-07
0.000483078 2.83847e-07 1.303e-06
-8.90341e-07 1.303e-06 -0.000184907
0.00219216 0.000611469 -6.64955e-06
0.000611469 0.000654563 -3.19147e-06
-6.64955e-06 -3.19147e-06 0.000361691
0.00202058 0.000632196 2.90771e-07
0.000632196 0.000271476 -4.04298e-07
2.90771e-07 -4.04298e-07 1.73069e-05
0.00195954 0.000366108 -8.63921e-06
0.000366108 -5.2341e-05 -2.10335e-07
-8.63921e-06 -2.10335e-07 -0.000121293
0.00290319 0.000779214 -3.06603e-06
0.000779214 0.000777055 5.96426e-06
-3.06603e-06 5.96426e-06 0.000531084
0.00218363 0.000632007 -1.07828e-06
0.000632007 0.000218845 -2.09157e-07
-1.07828e-06 -2.09157e-07 2.0307e-05
0.000813586 0.000328554 5.1411e-06
0.000328554 -0.000449316 3.26043e-06
5.1411e-06 3.26043e-06 -0.0004725
-0.000431808 0.000440772 -1.56576e-05
0.000440772 -0.000957346 -2.37503e-06
-1.56576e-05 -2.37503e-06 -0.00109746
0.00287452 0.000672927 -8.11103e-05
0.000672927 0.000124153 -2.84429e-05
-8.11103e-05 -2.84429e-05 0.000123253
0.00198583 5.59837e-05 -1.41562e-06
5.59837e-05 -0.000126036 -1.21879e-06
-1.41562e-06 -1.21879e-06 -8.38746e-05
0.00234678 -5.42471e-05 3.736e-06
-5.42471e-05 0.00039554 5.61414e-07
3.736e-06 5.61414e-07 0.000437328
0.00191656 -0.000139636 -6.42163e-05
-0.000139636 -0.000337242 4.41873e-06
-6.42163e-05 4.41873e-06 -0.000325867
0.00231808 -0.000304313 -4.7487e-05
-0.000304313 1.24359e-05 4.86561e-06
-4.7487e-05 4.86561e-06 0.000212354
0.00149393 -9.15185e-05 -9.19387e-06
-9.15185e-05 -0.000210026 2.03247e-06
-9.19387e-06 2.03247e-06 -0.000225683
0.00215378 -0.000211073 -7.55199e-09
-0.000211073 -4.91258e-05 -1.25794e-06
-7.55199e-09 -1.25794e-06 2.26158e-05
0.00219132 -1.66771e-05 -1.8606e-06
-1.66771e-05 -1.22349e-06 1.31157e-06
-1.8606e-06 1.31157e-06 1.00769e-05
0.00220075 -7.31154e-05 -1.33072e-06
-7.31154e-05 -1.62258e-06 -2.177e-07
-1.33072e-06 -2.177e-07 2.72664e-05
0.00221761 -0.000351693 -4.47403e-06
-0.000351693 -5.88939e-05 2.73537e-07
-4.47403e-06 2.73537e-07 2.33306e-05
0.00211708 -0.000244358 4.39555e-07
-0.000244358 -2.51947e-05 -1.84952e-07
4.39555e-07 -1.84952e-07 -3.56777e-06
0.00205637 -0.000193259 -1.38862e-06
-0.000193259 1.09299e-05 1.48799e-07
-1.38862e-06 1.48799e-07 5.24703e-06
0.00207314 -0.000327564 1.07522e-06
-0.000327564 6.18834e-05 -5.74854e-07
1.07522e-06 -5.74854e-07 2.6022e-05
0.00197482 -0.000281751 1.63139e-07
-0.000281751 4.94832e-05 5.37535e-08
1.63139e-07 5.37535e-08 -1.3404e-05
0.00193293 -0.000240583 -1.21997e-06
-0.000240583 9.06902e-05 1.15555e-07
-1.21997e-06 1.15555e-07 2.60578e-06
0.00183879 -0.000321381 2.1947e-06
-0.000321381 4.67828e-05 -1.13818e-06
2.1947e-06 -1.13818e-06 -5.66317e-05
0.00189215 -0.000300808 2.33402e-07
-0.000300808 0.000108756 -2.49822e-07
2.33402e-07 -2.49822e-07 -6.1353e-06
0.00185419 -0.00027456 1.04821e-07
-0.00027456 0.000131195 -1.38055e-06
1.04821e-07 -1.38055e-06 -8.16841e-06
0.00191508 -0.000341429 -1.61489e-07
-0.000341429 0.000166644 8.72758e-07
-1.61489e-07 8.72758e-07 2.81745e-05
0.00185346 -0.00031425 -3.40254e-07
-0.00031425 0.000176475 -2.02832e-08
-3.40254e-07 -2.02832e-08 1.35921e-05
0.00154706 -0.000247906 -3.8356e-06
-0.000247906 0.000108563 5.56654e-07
-3.8356e-06 5.56654e-07 -6.95474e-05
0.00189468 -0.000343546 4.55736e-07
-0.000343546 0.000240769 1.6161e-06
4.55736e-07 1.6161e-06 6.00819e-05
0.00152626 -0.000273656 -3.59042e-07
-0.000273656 0.000129694 9.61664e-08
-3.59042e-07 9.61664e-08 -6.2371e-05
0.000966698 -0.000170988 -1.43589e-05
-0.000170988 -2.8772e-05 5.77955e-06
-1.43589e-05 5.77955e-06 -0.000191213
0.001546 -0.000303683 5.91526e-06
-0.000303683 0.000176657 -7.81973e-07
5.91526e-06 -7.81973e-07 -3.00023e-05
0.000974809 -0.000190547 1.52336e-07
-0.000190547 -7.55834e-06 8.48685e-08
1.52336e-07 8.48685e-08 -0.000176896
0.0025761 -0.000147424 -3.93731e-05
-0.000147424 0.00114977 1.01132e-05
-3.93731e-05 1.01132e-05 0.00106037
0.00189855 -7.22271e-05 -0.000215334
-7.22271e-05 0.000809871 2.65418e-05
-0.000215334 2.65418e-05 0.000791717
0.00156313 -0.000176904 -9.32748e-06
-0.000176904 0.000541966 -3.43601e-07
-9.32748e-06 -3.43601e-07 0.000437866
0.000943691 -0.000208231 1.31777e-05
-0.000208231 2.66101e-06 -6.20456e-06
1.31777e-05 -6.20456e-06 -0.000176667
0.00620168 3.59488e-05 -6.78259e-06
3.59488e-05 0.00345474 2.31525e-07
-6.78259e-06 2.31525e-07 0.00345427
0.000513756 -0.000224098 2.48312e-05
-0.000224098 -8.95143e-05 -1.65456e-05
2.48312e-05 -1.65456e-05 -0.00020201
0.00609396 8.36217e-05 0.000221646
8.36217e-05 0.00340824 -1.97374e-05
0.000221646 -1.97374e-05 0.00339894
0.00203377 0.000361076 2.68502e-07
0.000361076 0.000169004 7.17028e-07
2.68502e-07 7.17028e-07 9.1015e-06
0.00187405 0.00045473 2.30352e-06
0.00045473 0.000238756 4.30357e-06
2.30352e-06 4.30357e-06 7.65278e-06
0.00184221 0.000487525 1.15765e-07
0.000487525 0.00033191 2.33516e-07
1.15765e-07 2.33516e-07 6.31063e-05
0.00136714 0.000347159 -6.1616e-06
0.000347159 0.000159419 -7.1911e-09
-6.1616e-06 -7.1911e-09 -7.69924e-05
0.00146499 0.000429567 4.78862e-06
0.000429567 0.000227964 -4.21839e-07
4.78862e-06 -4.21839e-07 -5.77261e-05
0.00120492 0.000313835 -5.22658e-07
0.000313835 0.000130186 3.056e-07
-5.22658e-07 3.056e-07 -0.000105323
0.000811898 0.000199034 -1.15554e-05
0.000199034 4.42778e-06 -5.05911e-06
-1.15554e-05 -5.05911e-06 -0.000175245
0.00122139 0.000288926 4.70926e-06
0.000288926 0.000225732 2.13767e-06
4.70926e-06 2.13767e-06 -1.00499e-06
0.00077011 0.000198657 4.49248e-07
0.000198657 5.99668e-05 9.02645e-07
4.49248e-07 9.02645e-07 -0.000129585
0.000615754 0.000194525 -2.48043e-05
0.000194525 6.75377e-06 -1.67221e-05
-2.48043e-05 -1.67221e-05 -9.65851e-05
0.000421028 0.000147224 1.98738e-06
0.000147224 -6.48887e-05 2.89251e-06
1.98738e-06 2.89251e-06 -0.000255559
0.000529009 9.93538e-05 -1.5629e-06
9.93538e-05 -2.5706e-05 -6.92958e-07
-1.5629e-06 -6.92958e-07 -0.000104774
0.00516379 -0.000141805 -0.000178848
-0.000141805 0.00287157 -1.37611e-05
-0.000178848 -1.37611e-05 0.00285645
0.000329233 2.23497e-05 7.98352e-06
2.23497e-05 -0.000125706 1.34545e-05
7.98352e-06 1.34545e-05 -0.00018692
0.00405974 -0.000170536 -7.49608e-06
-0.000170536 0.00219833 6.34419e-07
-7.49608e-06 6.34419e-07 0.00218309
0.00345974 -0.0001595 7.77378e-05
-0.0001595 0.00182011 4.00174e-06
7.77378e-05 4.00174e-06 0.00180901
0.00210805 0.000187449 -3.30514e-06
0.000187449 -7.1552e-05 -6.21481e-07
-3.30514e-06 -6.21481e-07 -3.09345e-05
0.00200175 6.90642e-05 2.26149e-05
6.90642e-05 5.28459e-05 -2.66712e-06
2.26149e-05 -2.66712e-06 0.000169658
0.00474959 0.00013412 -0.000107511
0.00013412 0.000482061 -1.38551e-05
-0.000107511 -1.38551e-05 0.000872709
0.00191768 0.00041874 -4.1436e-06
0.00041874 8.00825e-05 1.40571e-06
-4.1436e-06 1.40571e-06 -8.90868e-05
0.00207776 0.000582286 -3.02146e-06
0.000582286 0.000311338 -2.02875e-07
-3.02146e-06 -2.02875e-07 6.20691e-05
0.00158607 0.000587153 -8.21282e-06
0.000587153 0.000150876 -8.42307e-06
-8.21282e-06 -8.42307e-06 -0.00012785
0.00215061 0.000463679 2.97726e-06
0.000463679 0.000281512 1.24386e-06
2.97726e-06 1.24386e-06 7.98387e-05
0.00186534 0.000535285 -1.68815e-06
0.000535285 0.000235655 -3.88475e-06
-1.68815e-06 -3.88475e-06 -2.2858e-05
0.00225281 0.000351233 -7.81347e-07
0.000351233 0.000126005 2.46828e-07
-7.81347e-07 2.46828e-07 4.48789e-05
0.00177585 0.000480571 1.35883e-07
0.000480571 2.40638e-06 9.08894e-07
1.35883e-07 9.08894e-07 -0.000183632
0.00245798 0.000660491 -5.95349e-06
0.000660491 0.000538562 -1.37742e-06
-5.95349e-06 -1.37742e-06 0.000277309
0.00197395 0.000363677 -6.44401e-07
0.000363677 -3.69963e-05 -4.80844e-07
-6.44401e-07 -4.80844e-07 -0.000105221
0.00207385 0.000624788 1.36907e-05
0.000624788 0.000142409 2.52684e-06
1.36907e-05 2.52684e-06 -5.91092e-05
0.00101732 0.000330746 -3.50223e-05
0.000330746 -0.000312848 -1.2361e-05
-3.50223e-05 -1.2361e-05 -0.000343294
0.00216429 6.48468e-05 -6.82847e-07
6.48468e-05 -9.1658e-06 3.08714e-07
-6.82847e-07 3.08714e-07 2.12666e-05
0.00211084 6.71686e-05 -1.92595e-06
6.71686e-05 -3.57034e-05 3.22712e-07
-1.92595e-06 3.22712e-07 2.03062e-06
0.00304859 -4.80044e-05 -3.96633e-05
-4.80044e-05 0.000861865 2.91109e-06
-3.96633e-05 2.91109e-06 0.000892204
0.00207898 -0.000204904 -1.09881e-05
-0.000204904 -0.000103252 1.38001e-06
-1.09881e-05 1.38001e-06 -1.62406e-05
0.00223193 -1.45257e-05 -3.27462e-06
-1.45257e-05 -7.60322e-06 -2.08315e-06
-3.27462e-06 -2.08315e-06 1.03628e-05
0.0021659 -7.84384e-05 -5.39555e-07
-7.84384e-05 -4.11057e-05 -9.53248e-08
-5.39555e-07 -9.53248e-08 -5.38253e-06
0.00196842 -6.12505e-05 -1.62812e-06
-6.12505e-05 -1.3156e-06 2.56064e-07
-1.62812e-06 2.56064e-07 -3.30554e-06
0.00208574 -0.000233916 8.15541e-07
-0.000233916 -2.66785e-05 -2.76128e-08
8.15541e-07 -2.76128e-08 -1.0275e-05
0.00201354 -0.000196272 -1.0386e-07
-0.000196272 -5.24224e-06 2.06583e-08
-1.0386e-07 2.06583e-08 -1.58375e-05
0.00197286 -0.000164422 -2.82577e-07
-0.000164422 7.59305e-05 -3.90712e-08
-2.82577e-07 -3.90712e-08 1.77025e-05
0.00197153 -0.000278515 2.34508e-06
-0.000278515 5.41983e-05 -5.40469e-07
2.34508e-06 -5.40469e-07 -9.40331e-06
0.00190776 -0.000239195 5.66487e-08
-0.000239195 6.98224e-05 -1.18365e-07
5.66487e-08 -1.18365e-07 -1.83774e-05
0.0018656 -0.000222844 -1.09139e-07
-0.000222844 9.26253e-05 -8.70264e-07
-1.09139e-07 -8.70264e-07 -2.42268e-05
0.00191221 -0.00030141 1.16012e-06
-0.00030141 0.000119137 6.04007e-09
1.16012e-06 6.04007e-09 3.96895e-06
0.00188369 -0.000275897 -3.10787e-07
-0.000275897 0.000149212 -1.11208e-07
-3.10787e-07 -1.11208e-07 9.76652e-06
0.00159062 -0.000216859 -2.59284e-06
-0.000216859 0.000101018 2.48702e-07
-2.59284e-06 2.48702e-07 -6.23811e-05
0.00188058 -0.000315314 9.45088e-08
-0.000315314 0.000194086 1.36419e-06
9.45088e-08 1.36419e-06 3.12886e-05
0.00157283 -0.000249433 -2.97989e-07
-0.000249433 0.000122644 6.52304e-08
-2.97989e-07 6.52304e-08 -5.51565e-05
0.000983401 -0.000152714 -1.38121e-05
-0.000152714 -3.38969e-05 4.8906e-06
-1.38121e-05 4.8906e-06 -0.000191175
0.00155702 -0.00027555 4.80467e-06
-0.00027555 0.000147558 -7.27966e-07
4.80467e-06 -7.27966e-07 -4.42504e-05
0.00100214 -0.000171506 4.60878e-08
-0.000171506 -1.06643e-05 1.38702e-07
4.60878e-08 1.38702e-07 -0.000172514
0.00259981 -0.000148547 -4.73826e-05
-0.000148547 0.00115277 9.49392e-06
-4.73826e-05 9.49392e-06 0.00107115
0.00100228 -0.000191744 1.41802e-05
-0.000191744 6.57654e-06 -6.11036e-06
1.41802e-05 -6.11036e-06 -0.000162622
0.00272057 -0.000188896 4.25897e-05
-0.000188896 0.00123612 -6.09495e-06
4.25897e-05 -6.09495e-06 0.00115337
0.0019526 -0.000110842 -0.000217774
-0.000110842 0.000849247 3.11384e-05
-0.000217774 3.11384e-05 0.000828977
0.00396244 -6.52965e-05 -0.000213176
-6.52965e-05 0.00208724 1.80357e-05
-0.000213176 1.80357e-05 0.00207816
0.00280766 -0.000243598 0.000136648
-0.000243598 0.00130078 -2.06253e-05
0.000136648 -2.06253e-05 0.00121856
0.00625013 2.13977e-05 0.000236806
2.13977e-05 0.00349336 -2.3352e-05
0.000236806 -2.3352e-05 0.00348863
0.00223322 0.000359716 -2.34775e-06
0.000359716 0.000280827 -4.34259e-07
-2.34775e-06 -4.34259e-07 0.000142953
0.00171873 0.000351025 2.94941e-06
0.000351025 9.05476e-05 1.6374e-06
2.94941e-06 1.6374e-06 -9.62366e-05
0.00202297 0.000354297 5.26886e-07
0.000354297 0.000165178 -1.66809e-06
5.26886e-07 -1.66809e-06 1.19367e-05
0.00152933 0.000345338 -5.03299e-06
0.000345338 0.00016484 5.94037e-07
-5.03299e-06 5.94037e-07 -5.66707e-05
0.00195739 0.000459789 4.83142e-07
0.000459789 0.000276653 4.48001e-07
4.83142e-07 4.48001e-07 4.48063e-05
0.00211039 0.000512098 1.3108e-06
0.000512098 0.000485385 -3.08432e-06
1.3108e-06 -3.08432e-06 0.00021473
0.00135738 0.000347913 1.08015e-07
0.000347913 0.00015016 2.62382e-07
1.08015e-07 2.62382e-07 -8.73627e-05
0.000901195 0.000215018 -1.32665e-05
0.000215018 -5.37511e-06 -5.46334e-06
-1.32665e-05 -5.46334e-06 -0.00018467
0.00123729 0.000314177 8.16106e-06
0.000314177 0.000152877 2.57667e-06
8.16106e-06 2.57667e-06 -8.25223e-05
0.000778663 0.000195014 -2.08217e-07
0.000195014 -1.79846e-05 -1.90677e-07
-2.08217e-07 -1.90677e-07 -0.000195582
0.000498574 0.000226341 -2.57404e-05
0.000226341 -8.25452e-05 -1.71317e-05
-2.57404e-05 -1.71317e-05 -0.000193768
0.000480351 0.000179718 6.47419e-06
0.000179718 -0.000119343 3.39294e-06
6.47419e-06 3.39294e-06 -0.000306058
0.000456833 0.000164296 1.57521e-06
0.000164296 -9.23557e-05 4.47078e-07
1.57521e-06 4.47078e-07 -0.000188653
0.00593072 -0.00012629 -0.000204722
-0.00012629 0.0033424 -2.02434e-05
-0.000204722 -2.02434e-05 0.0033196
0.00035512 6.76213e-05 1.40704e-05
6.76213e-05 -0.000127346 1.46324e-05
1.40704e-05 1.46324e-05 -0.000200693
0.00483239 -0.00017969 -9.71089e-06
-0.00017969 0.00267476 3.24118e-07
-9.71089e-06 3.24118e-07 0.00265449
0.00383445 -0.000181961 9.18471e-05
-0.000181961 0.00206325 4.64858e-06
9.18471e-05 4.64858e-06 0.00204487
0.00216182 0.000209079 -1.26739e-06
0.000209079 -2.92282e-06 2.63844e-07
-1.26739e-06 2.63844e-07 1.12636e-06
0.00204339 0.000190631 1.15847e-06
0.000190631 -0.000102935 -4.78268e-08
1.15847e-06 -4.78268e-08 -6.34639e-05
0.00298831 4.70921e-05 -7.78295e-05
4.70921e-05 0.000558875 -1.16963e-05
-7.78295e-05 -1.16963e-05 0.000673881
0.00204467 0.000306973 -4.17457e-07
0.000306973 8.49539e-05 3.14858e-07
-4.17457e-07 3.14858e-07 -1.99443e-05
0.00196549 0.000419384 -9.27177e-08
0.000419384 0.000130023 4.78026e-07
-9.27177e-08 4.78026e-07 -3.97864e-05
0.00164128 0.000537027 1.52565e-06
0.000537027 7.67254e-05 -2.10155e-06
1.52565e-06 -2.10155e-06 -0.000166363
0.00227547 0.000458314 -1.81333e-07
0.000458314 0.000374119 -2.89414e-06
-1.81333e-07 -2.89414e-06 0.000175325
0.00214619 0.000338525 -6.21515e-07
0.000338525 7.05429e-05 4.04574e-09
-6.21515e-07 4.04574e-09 -8.91464e-06
0.00173805 0.000478673 -4.1045e-06
0.000478673 8.156e-06 -1.28061e-07
-4.1045e-06 -1.28061e-07 -0.000178872
0.00189016 0.000355891 1.04275e-05
0.000355891 -5.7579e-05 4.72918e-07
1.04275e-05 4.72918e-07 -0.000124982
0.00201986 5.62069e-05 2.13795e-07
5.62069e-05 3.07574e-06 5.05814e-07
2.13795e-07 5.05814e-07 1.00534e-05
0.00212116 6.26202e-05 4.25338e-08
6.26202e-05 -2.38037e-05 -1.83541e-08
4.25338e-08 -1.83541e-08 3.80054e-06
0.00222094 8.12965e-05 -7.51797e-06
8.12965e-05 4.82519e-05 -2.06615e-07
-7.51797e-06 -2.06615e-07 8.14764e-05
0.00189212 -1.05339e-05 -4.74647e-06
-1.05339e-05 8.62639e-06 5.22304e-07
-4.74647e-06 5.22304e-07 -8.37875e-06
0.00214433 -8.91572e-05 2.0221e-06
-8.91572e-05 -7.16308e-05 -4.25378e-07
2.0221e-06 -4.25378e-07 -2.89681e-05
0.00198388 -6.40108e-05 -7.51448e-07
-6.40108e-05 3.63812e-06 2.99186e-07
-7.51448e-07 2.99186e-07 2.83959e-06
0.00193919 -9.49552e-05 -3.89388e-06
-9.49552e-05 4.17849e-05 4.73336e-07
-3.89388e-06 4.73336e-07 2.99902e-06
0.00197346 -0.000199275 2.00302e-06
-0.000199275 -2.02792e-05 -2.37976e-07
2.00302e-06 -2.37976e-07 -3.57907e-05
0.00193044 -0.000161815 1.94977e-06
-0.000161815 4.74432e-05 -4.62226e-07
1.94977e-06 -4.62226e-07 -1.03864e-05
0.00190722 -0.00015521 2.19513e-06
-0.00015521 9.77386e-05 -1.61665e-06
2.19513e-06 -1.61665e-06 6.40024e-07
0.00188033 -0.000237162 1.66111e-06
-0.000237162 4.74293e-05 -3.48977e-07
1.66111e-06 -3.48977e-07 -4.0796e-05
0.00191739 -0.000223177 -1.35673e-07
-0.000223177 0.000126696 -1.69287e-07
-1.35673e-07 -1.69287e-07 1.00348e-05
0.00163048 -0.000173523 -1.70691e-06
-0.000173523 9.82921e-05 -3.3713e-08
-1.70691e-06 -3.3713e-08 -4.92729e-05
0.00191153 -0.000276965 -5.3397e-08
-0.000276965 0.000166795 9.77692e-07
-5.3397e-08 9.77692e-07 2.73173e-05
0.00160929 -0.00021706 -2.49433e-07
-0.00021706 0.000111059 6.32626e-08
-2.49433e-07 6.32626e-08 -5.18414e-05
0.00099811 -0.000131555 -1.30894e-05
-0.000131555 -3.90482e-05 3.86015e-06
-1.30894e-05 3.86015e-06 -0.000190646
0.00159776 -0.000250807 3.06799e-06
-0.000250807 0.000136335 -4.36893e-07
3.06799e-06 -4.36893e-07 -4.1122e-05
0.00101964 -0.000152283 -8.11617e-08
-0.000152283 -1.53347e-05 2.10156e-07
-8.11617e-08 2.10156e-07 -0.000171717
0.00260239 -0.000149607 -5.50771e-05
-0.000149607 0.00115039 9.30416e-06
-5.50771e-05 9.30416e-06 0.00107159
0.00103863 -0.000172126 1.42542e-05
-0.000172126 7.84334e-06 -5.51992e-06
1.42542e-05 -5.51992e-06 -0.000153375
0.0026906 -0.00017447 3.89516e-05
-0.00017447 0.00120761 -4.90725e-06
3.89516e-05 -4.90725e-06 0.00113151
0.00199607 -9.55365e-05 -0.00021317
-9.55365e-05 0.000869063 2.75079e-05
-0.00021317 2.75079e-05 0.000850734
0.00284652 -0.000200308 0.000133857
-0.000200308 0.00130866 -2.20493e-05
0.000133857 -2.20493e-05 0.00123327
0.00167698 -4.97412e-05 -9.22878e-05
-4.97412e-05 0.000684556 1.21791e-05
-9.22878e-05 1.21791e-05 0.000653548
0.00590196 9.08937e-05 6.00636e-05
9.08937e-05 0.00326562 -2.57054e-06
6.00636e-05 -2.57054e-06 0.00324432
0.00197984 0.000298971 7.16875e-07
0.000298971 0.000108705 5.38972e-07
7.16875e-07 5.38972e-07 -1.39777e-05
0.00201189 0.000331845 2.82303e-07
0.000331845 0.000219905 -3.11396e-07
2.82303e-07 -3.11396e-07 5.92423e-05
0.00210414 0.000355104 -3.89322e-06
0.000355104 0.000194525 -1.65484e-08
-3.89322e-06 -1.65484e-08 5.39428e-05
0.00174846 0.000314234 -2.32607e-06
0.000314234 0.000238471 3.36146e-07
-2.32607e-06 3.36146e-07 4.08108e-05
0.00172768 0.000356952 -2.83384e-07
0.000356952 8.19584e-05 -1.87219e-06
-2.83384e-07 -1.87219e-06 -0.000101709
0.00201714 0.000347857 -3.79316e-06
0.000347857 0.000164341 -5.14363e-06
-3.79316e-06 -5.14363e-06 1.77355e-05
0.000998073 0.000214528 -1.44858e-05
0.000214528 -2.51942e-06 -5.23272e-06
-1.44858e-05 -5.23272e-06 -0.000176689
0.00147863 0.000342488 4.42707e-07
0.000342488 0.000132825 3.42751e-07
4.42707e-07 3.42751e-07 -8.90979e-05
0.00203575 0.000464214 2.7176e-06
0.000464214 0.000310887 -2.94406e-06
2.7176e-06 -2.94406e-06 7.84168e-05
0.0013284 0.000346775 7.23567e-06
0.000346775 0.000130036 9.41802e-07
7.23567e-06 9.41802e-07 -0.000108257
0.000864331 0.000209155 -8.34805e-07
0.000209155 -2.2439e-05 2.28267e-08
-8.34805e-07 2.28267e-08 -0.000199896
0.000465465 0.000226753 -2.51362e-05
0.000226753 -0.000106603 -1.6465e-05
-2.51362e-05 -1.6465e-05 -0.000222412
0.00066961 0.000184919 1.11898e-05
0.000184919 -8.56114e-05 4.63579e-06
1.11898e-05 4.63579e-06 -0.000260185
0.000458067 0.000212303 2.19584e-06
0.000212303 -0.000101178 5.96912e-07
2.19584e-06 5.96912e-07 -0.000213042
0.00625307 -4.72093e-05 -0.000225704
-4.72093e-05 0.00352329 -2.52599e-05
-0.000225704 -2.52599e-05 0.00350555
0.000480978 0.000150981 2.22468e-05
0.000150981 -8.23748e-05 1.64105e-05
2.22468e-05 1.64105e-05 -0.000173544
0.00568987 -0.000152946 1.33758e-07
-0.000152946 0.00318774 -7.29175e-07
1.33758e-07 -7.29175e-07 0.00316883
0.00452711 -0.000217994 0.000110987
-0.000217994 0.00250198 6.74886e-06
0.000110987 6.74886e-06 0.00247194
0.00203101 0.000167647 -1.71315e-06
0.000167647 4.45014e-05 -8.52726e-09
-1.71315e-06 -8.52726e-09 8.00212e-06
0.00216899 0.000212536 2.57728e-07
0.000212536 -6.96374e-06 5.29746e-07
2.57728e-07 5.29746e-07 -5.45821e-07
0.00204506 0.000194677 3.5262e-06
0.000194677 -0.000107814 4.83185e-07
3.5262e-06 4.83185e-07 -6.90226e-05
0.00205054 0.00030242 -1.52097e-08
0.00030242 9.57129e-05 -2.56175e-08
-1.52097e-08 -2.56175e-08 -5.49517e-06
0.00200068 0.000418864 -2.67225e-07
0.000418864 0.000173521 -7.47814e-07
-2.67225e-07 -7.47814e-07 3.24393e-06
0.00205947 0.000326745 9.77567e-07
0.000326745 2.36708e-05 -4.69081e-07
9.77567e-07 -4.69081e-07 -5.40833e-05
0.00194603 5.88128e-05 -2.77147e-06
5.88128e-05 2.2035e-05 3.18494e-07
-2.77147e-06 3.18494e-07 7.34179e-06
0.00200877 5.21154e-05 4.03632e-07
5.21154e-05 1.54948e-06 -9.84555e-08
4.03632e-07 -9.84555e-08 5.33985e-06
0.0020755 6.06312e-05 8.33946e-07
6.06312e-05 -4.14932e-05 -2.45254e-07
8.33946e-07 -2.45254e-07 -1.61159e-05
0.00190904 -1.235e-05 -1.4156e-06
-1.235e-05 1.60775e-05 6.75266e-08
-1.4156e-06 6.75266e-08 -1.57712e-06
0.00180349 -3.68819e-05 -5.46541e-06
-3.68819e-05 -2.86976e-05 4.00855e-07
-5.46541e-06 4.00855e-07 -7.27558e-05
0.00199866 -6.65361e-05 1.64287e-06
-6.65361e-05 7.94149e-06 -1.93834e-07
1.64287e-06 -1.93834e-07 8.46591e-06
0.00190907 -9.29813e-05 -1.59837e-06
-9.29813e-05 2.82223e-05 2.68516e-07
-1.59837e-06 2.68516e-07 -1.37724e-05
0.00194328 -9.52237e-05 -2.32148e-06
-9.52237e-05 0.000114595 -1.05507e-07
-2.32148e-06 -1.05507e-07 3.69156e-05
0.00188592 -0.000159487 4.14561e-06
-0.000159487 1.86768e-05 -8.21704e-07
4.14561e-06 -8.21704e-07 -3.88295e-05
0.00190884 -0.000156953 2.68298e-06
-0.000156953 9.65782e-05 -9.17343e-07
2.68298e-06 -9.17343e-07 -7.66709e-07
0.00165721 -0.000123725 3.36482e-07
-0.000123725 9.69904e-05 -7.08045e-07
3.36482e-07 -7.08045e-07 -3.64497e-05
0.00195339 -0.000224682 1.54199e-08
-0.000224682 0.000150158 4.76255e-07
1.54199e-08 4.76255e-07 3.33756e-05
0.00163646 -0.00017424 -1.65262e-07
-0.00017424 9.78711e-05 5.39087e-08
-1.65262e-07 5.39087e-08 -4.95125e-05
0.0010128 -0.000105117 -1.25728e-05
-0.000105117 -4.14458e-05 2.80237e-06
-1.25728e-05 2.80237e-06 -0.000185818
0.00163175 -0.000217591 1.86086e-06
-0.000217591 0.000122379 -1.18231e-07
1.86086e-06 -1.18231e-07 -4.00633e-05
0.00103123 -0.000130357 -2.13239e-07
-0.000130357 -2.16289e-05 2.75049e-07
-2.13239e-07 2.75049e-07 -0.000172329
0.00256674 -0.000156492 -5.82017e-05
-0.000156492 0.00112649 8.26289e-06
-5.82017e-05 8.26289e-06 0.00104872
0.00105583 -0.000151903 1.3691e-05
-0.000151903 2.96919e-06 -4.54414e-06
1.3691e-05 -4.54414e-06 -0.000152494
0.00266805 -0.000153128 3.74281e-05
-0.000153128 0.00118607 -3.73434e-06
3.74281e-05 -3.73434e-06 0.00111384
0.00202336 -8.06483e-05 -0.000212483
-8.06483e-05 0.000878813 2.33859e-05
-0.000212483 2.33859e-05 0.000861532
0.00278145 -0.000170077 0.000131449
-0.000170077 0.0012566 -1.88898e-05
0.000131449 -1.88898e-05 0.00118871
0.00167828 -5.76255e-05 -8.37213e-05
-5.76255e-05 0.000679611 1.00221e-05
-8.37213e-05 1.00221e-05 0.000651333
0.00144154 -4.6431e-05 4.70565e-05
-4.6431e-05 0.000548376 -7.14036e-06
4.70565e-05 -7.14036e-06 0.000505844
0.00203279 0.000189229 -7.00199e-07
0.000189229 0.000120178 1.17854e-06
-7.00199e-07 1.17854e-06 3.97927e-05
0.00196746 0.000275498 -8.03695e-07
0.000275498 0.000160571 7.17729e-07
-8.03695e-07 7.17729e-07 2.02365e-05
0.00197159 0.000300018 -3.03267e-07
0.000300018 8.99678e-05 6.50083e-08
-3.03267e-07 6.50083e-08 -2.89253e-05
0.00185376 0.000288152 -1.36706e-06
0.000288152 0.000253088 3.25794e-07
-1.36706e-06 3.25794e-07 7.70567e-05
0.00194887 0.000326615 -3.38183e-07
0.000326615 0.000189892 -2.39385e-07
-3.38183e-07 -2.39385e-07 2.75875e-05
0.00196981 0.000350554 3.77213e-07
0.000350554 0.000105254 -1.06262e-07
3.77213e-07 -1.06262e-07 -3.81255e-05
0.00107026 0.00019771 -1.50726e-05
0.00019771 1.24071e-05 -4.83838e-06
-1.50726e-05 -4.83838e-06 -0.000152983
0.00164971 0.000313263 2.9095e-06
0.000313263 0.000170906 3.3686e-07
2.9095e-06 3.3686e-07 -2.55751e-05
0.00174695 0.000363694 -7.68458e-07
0.000363694 7.99574e-05 -3.38508e-06
-7.68458e-07 -3.38508e-06 -0.0001007
0.00039537 0.000183094 -2.25249e-05
0.000183094 -0.000166502 -1.38668e-05
-2.25249e-05 -1.38668e-05 -0.000275213
0.000961613 0.000210136 -5.73702e-07
0.000210136 -1.98652e-05 9.0437e-08
-5.73702e-07 9.0437e-08 -0.000193089
0.00143562 0.000340558 6.64661e-06
0.000340558 0.000104733 3.5455e-07
6.64661e-06 3.5455e-07 -0.000117805
0.000861559 0.000205987 1.33541e-05
0.000205987 -1.91839e-05 6.09416e-06
1.33541e-05 6.09416e-06 -0.000195244
0.000454666 0.000210145 1.12871e-06
0.000210145 -0.000109978 8.02815e-07
1.12871e-06 8.02815e-07 -0.000226958
0.00639864 5.22615e-05 -0.000240917
5.22615e-05 0.00359189 -2.88512e-05
-0.000240917 -2.88512e-05 0.00358085
0.000442083 0.000196463 2.29525e-05
0.000196463 -0.000108788 1.64679e-05
2.29525e-05 1.64679e-05 -0.000219396
0.00613825 -7.24857e-05 6.33586e-06
-7.24857e-05 0.0034411 -6.31064e-07
6.33586e-06 -6.31064e-07 0.00343059
0.00540619 -0.00019067 0.00015618
-0.00019067 0.00301944 8.39336e-06
0.00015618 8.39336e-06 0.00299608
0.00194503 0.000116092 -4.96074e-06
0.000116092 4.95984e-05 -6.80871e-07
-4.96074e-06 -6.80871e-07 1.32914e-05
0.00199702 0.000169061 9.59991e-07
0.000169061 2.36224e-05 4.40902e-07
9.59991e-07 4.40902e-07 -1.13087e-05
0.0021648 0.000216121 4.06579e-07
0.000216121 -1.56908e-05 -5.02095e-07
4.06579e-07 -5.02095e-07 -7.34881e-06
0.00206757 0.000297908 3.42392e-06
0.000297908 0.000113367 2.47537e-07
3.42392e-06 2.47537e-07 1.58931e-05
0.00174188 6.78261e-06 -3.7839e-06
6.78261e-06 -3.9444e-05 6.52658e-08
-3.7839e-06 6.52658e-08 -9.13462e-05
0.00193189 4.94499e-05 1.3056e-07
4.94499e-05 1.34096e-05 6.26664e-08
1.3056e-07 6.26664e-08 -2.72141e-06
0.00199894 4.80162e-05 5.3278e-07
4.80162e-05 1.63273e-06 -3.10711e-07
5.3278e-07 -3.10711e-07 1.70949e-06
0.00192763 -1.25861e-05 1.99834e-06
-1.25861e-05 2.47843e-05 -6.33926e-07
1.99834e-06 -6.33926e-07 6.42662e-06
0.00187043 -3.21187e-05 -1.29241e-06
-3.21187e-05 1.53623e-05 4.01741e-08
-1.29241e-06 4.01741e-08 -2.7104e-05
0.00177983 -4.02068e-05 -5.46627e-07
-4.02068e-05 1.88363e-05 -2.68691e-07
-5.46627e-07 -2.68691e-07 -5.94394e-05
0.00189217 -9.1352e-05 1.684e-06
-9.1352e-05 2.23402e-05 7.44914e-08
1.684e-06 7.44914e-08 -2.28362e-05
0.00188255 -9.5257e-05 -1.28534e-06
-9.5257e-05 7.87851e-05 6.31096e-07
-1.28534e-06 6.31096e-07 -5.61444e-06
0.00176643 -7.5577e-05 -1.16392e-06
-7.5577e-05 0.000158557 -3.65439e-07
-1.16392e-06 -3.65439e-07 4.2063e-05
0.00192573 -0.000157795 3.71635e-06
-0.000157795 0.000104318 -3.07753e-07
3.71635e-06 -3.07753e-07 6.9838e-06
0.00164374 -0.000121432 1.33537e-06
-0.000121432 8.63096e-05 -4.64277e-07
1.33537e-06 -4.64277e-07 -4.66009e-05
0.0010121 -7.54471e-05 -1.22744e-05
-7.54471e-05 -4.67705e-05 2.0314e-06
-1.22744e-05 2.0314e-06 -0.00018419
0.00165362 -0.000172966 1.46813e-06
-0.000172966 0.000105606 8.69806e-08
1.46813e-06 8.69806e-08 -4.11923e-05
0.00102265 -0.000104308 -1.25175e-07
-0.000104308 -3.54695e-05 1.78466e-07
-1.25175e-07 1.78466e-07 -0.000179336
0.000509308 -8.60133e-05 -1.99936e-05
-8.60133e-05 -0.000146867 5.37185e-06
-1.99936e-05 5.37185e-06 -0.000231407
0.00106225 -0.000128998 1.30551e-05
-0.000128998 -5.13883e-06 -3.39389e-06
1.30551e-05 -3.39389e-06 -0.000154899
0.00158256 -0.000101527 5.44263e-05
-0.000101527 0.000513612 -3.8377e-06
5.44263e-05 -3.8377e-06 0.000438464
0.00604109 -0.000140281 -0.000279739
-0.000140281 0.00334076 1.91412e-05
-0.000279739 1.91412e-05 0.00335258
0.00275034 -0.000138128 0.000129866
-0.000138128 0.00122689 -1.51466e-05
0.000129866 -1.51466e-05 0.00116363
0.00168984 -6.21684e-05 -7.57061e-05
-6.21684e-05 0.000684292 6.64949e-06
-7.57061e-05 6.64949e-06 0.000655935
0.00135924 -7.96062e-05 5.85634e-05
-7.96062e-05 0.000501256 -8.54149e-06
5.85634e-05 -8.54149e-06 0.000457606
0.00200518 0.00014246 -2.25692e-06
0.00014246 0.000130234 5.99918e-07
-2.25692e-06 5.99918e-07 6.39154e-05
0.00198654 0.000201889 4.24789e-07
0.000201889 0.000160096 1.54502e-06
4.24789e-07 1.54502e-06 4.77345e-05
0.00198704 0.000184344 9.55105e-07
0.000184344 9.6573e-05 5.40147e-07
9.55105e-07 5.40147e-07 1.44383e-05
0.00172748 0.00023132 -1.3559e-06
0.00023132 0.00014442 5.58711e-07
-1.3559e-06 5.58711e-07 -1.19758e-05
0.00192938 0.000271219 6.4158e-07
0.000271219 0.000140258 4.26719e-08
6.4158e-07 4.26719e-08 5.79711e-07
0.00196355 0.000301597 8.93941e-07
0.000301597 7.07211e-05 2.34981e-07
8.93941e-07 2.34981e-07 -4.44742e-05
0.000948235 0.000167651 -1.59887e-05
0.000167651 -8.58502e-05 -3.96926e-06
-1.59887e-05 -3.96926e-06 -0.000242382
0.00185814 0.000287805 2.58715e-06
0.000287805 0.00025517 6.71556e-07
2.58715e-06 6.71556e-07 7.94769e-05
0.00187716 0.000320632 -9.58555e-07
0.000320632 0.000154927 -1.16172e-06
-9.58555e-07 -1.16172e-06 -8.93549e-06
0.000393179 0.000131567 -1.95218e-05
0.000131567 -0.000191189 -1.04017e-05
-1.95218e-05 -1.04017e-05 -0.000288736
0.00092616 0.000190396 3.84569e-07
0.000190396 -7.60344e-05 3.55637e-07
3.84569e-07 3.55637e-07 -0.000241195
0.00153862 0.000311363 7.86037e-06
0.000311363 9.56096e-05 9.2038e-08
7.86037e-06 9.2038e-08 -9.95074e-05
0.00637256 0.000135026 -0.000252635
0.000135026 0.0035555 -2.86199e-05
-0.000252635 -2.86199e-05 0.00355268
0.000415503 0.000173626 6.20883e-07
0.000173626 -0.000154729 7.53491e-07
6.20883e-07 7.53491e-07 -0.000264311
0.000915386 0.000205243 1.4579e-05
0.000205243 -4.27215e-05 5.69518e-06
1.4579e-05 5.69518e-06 -0.000214951
0.000387799 0.000193469 2.1037e-05
0.000193469 -0.000146712 1.62043e-05
2.1037e-05 1.62043e-05 -0.000264594
0.00627861 4.12388e-05 9.84833e-06
4.12388e-05 0.00351049 2.05396e-07
9.84833e-06 2.05396e-07 0.00350639
0.00601352 -0.000105959 0.000207726
-0.000105959 0.00335778 1.16158e-05
0.000207726 1.16158e-05 0.00335047
0.00186937 6.43688e-05 -6.80755e-06
6.43688e-05 4.35325e-05 -4.343e-07
-6.80755e-06 -4.343e-07 -1.09809e-05
0.00193031 0.000113651 2.97667e-07
0.000113651 3.62217e-05 1.44386e-07
2.97667e-07 1.44386e-07 -3.03599e-08
0.00196537 0.000170621 2.20572e-06
0.000170621 4.16843e-06 4.54237e-07
2.20572e-06 4.54237e-07 -2.88403e-05
0.00178484 1.33305e-06 3.69235e-07
1.33305e-06 3.36892e-05 -1.27484e-08
3.69235e-07 -1.27484e-08 -4.84561e-05
0.0018254 1.18194e-05 -2.72572e-08
1.18194e-05 1.31844e-05 -3.78519e-08
-2.72572e-08 -3.78519e-08 -3.52951e-05
0.00191793 3.88964e-05 2.20203e-06
3.88964e-05 4.8545e-06 -3.81749e-07
2.20203e-06 -3.81749e-07 -1.26849e-05
0.00194951 -2.82405e-05 2.13537e-06
-2.82405e-05 6.69268e-05 -1.09036e-07
2.13537e-06 -1.09036e-07 2.6319e-05
0.00184159 -3.8891e-05 -3.92965e-07
-3.8891e-05 5.77131e-05 1.69971e-07
-3.92965e-07 1.69971e-07 -1.89308e-05
0.00181219 -3.28504e-05 1.43579e-06
-3.28504e-05 0.000203336 -5.1237e-07
1.43579e-06 -5.1237e-07 9.15015e-05
0.00180456 -9.47827e-05 -1.35983e-06
-9.47827e-05 3.29166e-05 1.25133e-06
-1.35983e-06 1.25133e-06 -5.81727e-05
0.0017244 -7.59399e-05 3.65907e-07
-7.59399e-05 0.000136454 6.65347e-08
3.65907e-07 6.65347e-08 1.55569e-05
0.000922113 -4.1234e-05 -1.32729e-05
-4.1234e-05 -0.000106706 1.26575e-06
-1.32729e-05 1.26575e-06 -0.000236541
0.00161597 -0.000121024 2.21732e-06
-0.000121024 6.66571e-05 -2.63612e-07
2.21732e-06 -2.63612e-07 -6.61053e-05
0.00101324 -7.18632e-05 -6.38139e-08
-7.18632e-05 -4.60188e-05 8.04431e-08
-6.38139e-08 8.04431e-08 -0.000182766
0.000511558 -2.1971e-05 -1.85961e-05
-2.1971e-05 -0.000148849 3.34228e-06
-1.85961e-05 3.34228e-06 -0.000229791
0.00105097 -0.000103006 1.24302e-05
-0.000103006 -1.95094e-05 -2.4691e-06
1.24302e-05 -2.4691e-06 -0.000162686
0.000511551 -6.99821e-05 -1.70306e-07
-6.99821e-05 -0.000143743 3.92069e-07
-1.70306e-07 3.92069e-07 -0.000229332
0.00600177 -3.39523e-05 -0.000270113
-3.39523e-05 0.00331247 1.16387e-05
-0.000270113 1.16387e-05 0.0033278
0.000544595 -7.2107e-05 1.53544e-05
-7.2107e-05 -0.000124003 -7.26525e-06
1.53544e-05 -7.26525e-06 -0.000213244
0.00379492 -9.17914e-05 0.000122041
-9.17914e-05 0.00197207 -5.51248e-06
0.000122041 -5.51248e-06 0.00195622
0.00132445 -8.09481e-05 6.47495e-05
-8.09481e-05 0.000480601 -8.7591e-06
6.47495e-05 -8.7591e-06 0.000436165
0.00192081 0.000112234 -4.74693e-06
0.000112234 9.23719e-05 -1.23597e-07
-4.74693e-06 -1.23597e-07 2.46714e-05
0.0019163 0.000143043 1.39278e-06
0.000143043 0.000122923 2.17236e-06
1.39278e-06 2.17236e-06 2.30726e-05
0.00193341 0.000136247 -1.29372e-07
0.000136247 8.27726e-05 8.11109e-08
-1.29372e-07 8.11109e-08 1.68864e-05
0.00165492 0.00017051 -6.22225e-07
0.00017051 8.96635e-05 6.9324e-07
-6.22225e-07 6.9324e-07 -5.43458e-05
0.00195151 0.000200535 5.20483e-07
0.000200535 0.000135313 4.01804e-08
5.20483e-07 4.01804e-08 2.14093e-05
0.00194028 0.000179146 2.11399e-06
0.000179146 7.22993e-05 -3.26532e-07
2.11399e-06 -3.26532e-07 -1.16388e-05
0.000956491 0.000137204 -1.46114e-05
0.000137204 -9.26234e-05 -3.00667e-06
-1.46114e-05 -3.00667e-06 -0.000240301
0.00175908 0.000230464 7.2521e-07
0.000230464 0.000168833 4.35937e-07
7.2521e-07 4.35937e-07 1.00495e-05
0.00189237 0.00026689 6.56051e-08
0.00026689 0.000120761 -1.0369e-06
6.56051e-08 -1.0369e-06 -1.82259e-05
0.000416715 9.35606e-05 -1.81329e-05
9.35606e-05 -0.000195216 -7.46628e-06
-1.81329e-05 -7.46628e-06 -0.000284656
0.000890108 0.000164258 -2.07396e-06
0.000164258 -0.000119762 -1.32257e-07
-2.07396e-06 -1.32257e-07 -0.000276061
0.00186751 0.000287906 6.63167e-06
0.000287906 0.00026027 1.06182e-06
6.63167e-06 1.06182e-06 8.48341e-05
0.00625996 0.000203114 -0.00027011
0.000203114 0.00347983 -2.76428e-05
-0.00027011 -2.76428e-05 0.00348111
0.000421396 0.000128815 6.93612e-08
0.000128815 -0.000175448 4.2127e-07
6.93612e-08 4.2127e-07 -0.000273466
0.000790793 0.000183988 1.44525e-05
0.000183988 -0.000159512 4.82886e-06
1.44525e-05 4.82886e-06 -0.000324549
0.00629506 0.000150182 1.33668e-05
0.000150182 0.0035132 2.43833e-06
1.33668e-05 2.43833e-06 0.00350967
0.000424221 0.000163117 1.9897e-05
0.000163117 -0.000149852 1.37088e-05
1.9897e-05 1.37088e-05 -0.000260148
0.0061746 7.8568e-06 0.000236375
7.8568e-06 0.00343568 1.75059e-05
0.000236375 1.75059e-05 0.00343898
0.00185248 4.39977e-05 -9.84033e-07
4.39977e-05 6.27044e-05 -1.16402e-07
-9.84033e-07 -1.16402e-07 -1.96649e-05
0.00188214 6.54627e-05 -1.35321e-06
6.54627e-05 6.16198e-05 9.39617e-08
-1.35321e-06 9.39617e-08 5.50941e-06
0.00191153 0.000111079 4.30682e-06
0.000111079 2.04482e-05 5.17792e-07
4.30682e-06 5.17792e-07 -1.57531e-05
0.00179767 -4.01712e-06 2.16962e-06
-4.01712e-06 0.000192946 -2.96003e-07
2.16962e-06 -2.96003e-07 8.29556e-05
0.00178563 1.57472e-06 -1.07537e-06
1.57472e-06 3.11365e-05 6.71184e-08
-1.07537e-06 6.71184e-08 -4.88247e-05
0.00188943 1.82339e-05 6.05987e-06
1.82339e-05 5.31123e-05 1.80921e-07
6.05987e-06 1.80921e-07 7.81209e-06
0.00189396 -3.80426e-05 -6.05691e-07
-3.80426e-05 9.09618e-05 5.80892e-07
-6.05691e-07 5.80892e-07 1.56589e-05
0.00181026 -3.16977e-05 3.08544e-06
-3.16977e-05 0.000201337 -3.06516e-07
3.08544e-06 -3.06516e-07 8.96471e-05
0.000912018 -1.51098e-05 -1.29359e-05
-1.51098e-05 -0.000108266 4.11639e-07
-1.29359e-05 4.11639e-07 -0.000233916
0.0016891 -7.66611e-05 9.08369e-07
-7.66611e-05 0.000118345 2.97873e-07
9.08369e-07 2.97873e-07 -6.9858e-06
0.000961659 -4.10723e-05 -1.35465e-06
-4.10723e-05 -8.10355e-05 1.13173e-07
-1.35465e-06 1.13173e-07 -0.000211726
0.000513917 -7.36911e-06 -1.88231e-05
-7.36911e-06 -0.000149602 2.18532e-06
-1.88231e-05 2.18532e-06 -0.000228426
0.00101705 -6.94988e-05 1.17175e-05
-6.94988e-05 -4.30156e-05 -1.85179e-06
1.17175e-05 -1.85179e-06 -0.000179224
0.000491584 -3.38128e-05 8.45188e-07
-3.38128e-05 -0.000161737 -1.73781e-07
8.45188e-07 -1.73781e-07 -0.000241701
0.00588517 -0.000130716 -0.000275414
-0.000130716 0.00325364 1.26298e-05
-0.000275414 1.26298e-05 0.00326442
0.000479102 -5.32155e-05 1.79769e-05
-5.32155e-05 -0.00016331 -4.14237e-06
1.79769e-05 -4.14237e-06 -0.000248548
0.00596052 -7.01691e-05 7.59053e-06
-7.01691e-05 0.00328927 -6.67593e-08
7.59053e-06 -6.67593e-08 0.00330445
0.00166348 -2.75887e-05 0.000216452
-2.75887e-05 0.000659119 -1.31221e-05
0.000216452 -1.31221e-05 0.000647755
0.00180713 9.66645e-05 4.82338e-07
9.66645e-05 4.3528e-05 6.36492e-07
4.82338e-07 6.36492e-07 -5.17503e-05
0.00189031 0.000115304 -3.5073e-06
0.000115304 7.03363e-05 -9.84541e-07
-3.5073e-06 -9.84541e-07 5.258e-06
0.00165572 0.000116299 2.03011e-07
0.000116299 8.67574e-05 7.58346e-07
2.03011e-07 7.58346e-07 -4.36842e-05
0.00191045 0.000142084 7.50865e-07
0.000142084 0.000116614 1.82386e-07
7.50865e-07 1.82386e-07 1.68335e-05
0.00187197 0.000130435 2.62584e-06
0.000130435 4.1005e-05 -1.01651e-06
2.62584e-06 -1.01651e-06 -2.43969e-05
0.00108147 0.000103651 -1.27183e-05
0.000103651 -1.3087e-05 -1.93297e-06
-1.27183e-05 -1.93297e-06 -0.000152724
0.00165459 0.000169714 1.41559e-07
0.000169714 9.23406e-05 1.11274e-07
1.41559e-07 1.11274e-07 -5.17285e-05
0.00191348 0.000199028 4.77117e-07
0.000199028 0.000108806 -1.36559e-06
4.77117e-07 -1.36559e-06 -6.62412e-06
0.000457708 6.78897e-05 -1.77907e-05
6.78897e-05 -0.000181101 -5.39572e-06
-1.77907e-05 -5.39572e-06 -0.000266376
0.000976661 0.000138213 -2.10296e-06
0.000138213 -7.72223e-05 -8.36353e-08
-2.10296e-06 -8.36353e-08 -0.000225738
0.00179512 0.000229602 2.98221e-06
0.000229602 0.000196357 5.27027e-07
2.98221e-06 5.27027e-07 3.52093e-05
0.00615488 0.000233156 -0.000287772
0.000233156 0.00342229 -2.6259e-05
-0.000287772 -2.6259e-05 0.0034224
0.000455262 9.50429e-05 -7.43653e-08
9.50429e-05 -0.00017323 1.65481e-07
-7.43653e-08 1.65481e-07 -0.000263022
0.000833651 0.000160937 1.05581e-05
0.000160937 -0.000152988 3.49284e-06
1.05581e-05 3.49284e-06 -0.000308978
0.0062341 0.000224768 1.10539e-05
0.000224768 0.00347544 3.91722e-06
1.10539e-05 3.91722e-06 0.00347147
0.000454853 0.000124429 1.86932e-05
0.000124429 -0.000157067 1.05085e-05
1.86932e-05 1.05085e-05 -0.000255147
0.00625102 0.000147025 0.000261562
0.000147025 0.00347628 2.53352e-05
0.000261562 2.53352e-05 0.00347968
0.00177615 3.5347e-05 3.0874e-06
3.5347e-05 0.000171776 2.61763e-07
3.0874e-06 2.61763e-07 5.97152e-05
0.00184995 4.1648e-05 -2.04051e-06
4.1648e-05 6.6239e-05 1.71361e-08
-2.04051e-06 1.71361e-08 -1.74824e-05
0.00191504 6.64428e-05 3.20729e-06
6.64428e-05 9.25105e-05 1.20786e-07
3.20729e-06 1.20786e-07 3.49817e-05
0.000896441 -7.994e-06 -1.33303e-05
-7.994e-06 -0.000109396 -1.67335e-07
-1.33303e-05 -1.67335e-07 -0.000233211
0.00179824 1.12544e-06 3.44237e-06
1.12544e-06 0.000193437 -9.28248e-08
3.44237e-06 -9.28248e-08 8.35147e-05
0.00180404 1.32165e-06 -1.2041e-06
1.32165e-06 3.98599e-05 3.04777e-07
-1.2041e-06 3.04777e-07 -3.76635e-05
0.00180646 -3.07484e-05 4.62508e-06
-3.07484e-05 0.000198073 1.80711e-07
4.62508e-06 1.80711e-07 8.65329e-05
0.000907525 -1.56795e-05 -1.01654e-06
-1.56795e-05 -0.000112454 5.00402e-08
-1.01654e-06 5.00402e-08 -0.000238362
0.000519634 -3.11778e-05 -1.9316e-05
-3.11778e-05 -0.000146173 9.49055e-07
-1.9316e-05 9.49055e-07 -0.000222307
0.000982796 -4.00049e-05 1.08743e-05
-4.00049e-05 -6.64482e-05 -1.25951e-06
1.08743e-05 -1.25951e-06 -0.000198016
0.000493825 3.8491e-06 3.42184e-07
3.8491e-06 -0.000162515 7.71501e-08
3.42184e-07 7.71501e-08 -0.000240425
0.00587038 -0.000105094 -0.000279536
-0.000105094 0.00324269 9.24151e-06
-0.000279536 9.24151e-06 0.00325611
0.000504417 -3.98719e-05 1.88105e-05
-3.98719e-05 -0.00015192 -2.91772e-06
1.88105e-05 -2.91772e-06 -0.000233008
0.0059013 -2.52749e-05 -3.03252e-06
-2.52749e-05 0.00325272 2.18856e-06
-3.03252e-06 2.18856e-06 0.00326998
0.00594459 -8.59431e-05 0.000274908
-8.59431e-05 0.00327945 -1.1151e-05
0.000274908 -1.1151e-05 0.00329534
0.00160959 6.9422e-05 3.7122e-07
6.9422e-05 6.08139e-05 4.19312e-07
3.7122e-07 4.19312e-07 -6.15943e-05
0.00184649 9.76114e-05 -2.54662e-06
9.76114e-05 6.37795e-05 -1.16495e-06
-2.54662e-06 -1.16495e-06 -2.61318e-05
0.00181941 0.000117838 -8.71201e-07
0.000117838 2.37125e-05 -7.47016e-07
-8.71201e-07 -7.47016e-07 -3.90283e-05
0.00107642 6.4501e-05 -1.22741e-05
6.4501e-05 -1.24616e-05 -1.48119e-06
-1.22741e-05 -1.48119e-06 -0.000144126
0.00163931 0.000114963 2.29931e-07
0.000114963 7.93275e-05 -5.79217e-08
2.29931e-07 -5.79217e-08 -5.13428e-05
0.00190169 0.000140941 -2.92321e-07
0.000140941 0.000109097 -1.83255e-06
-2.92321e-07 -1.83255e-06 9.39438e-06
0.000483801 4.43185e-05 -1.73726e-05
4.43185e-05 -0.000168282 -3.76763e-06
-1.73726e-05 -3.76763e-06 -0.000250641
0.00104346 0.000104818 3.02387e-07
0.000104818 -3.64199e-05 3.30646e-07
3.02387e-07 3.30646e-07 -0.00017689
0.00165361 0.00016892 1.23102e-06
0.00016892 9.42749e-05 -4.13348e-07
1.23102e-06 -4.13348e-07 -4.98746e-05
0.00604701 0.000206636 -0.000298868
0.000206636 0.0033577 -2.21871e-05
-0.000298868 -2.21871e-05 0.00336169
0.000486995 7.25756e-05 3.81653e-07
7.25756e-05 -0.000163238 1.45549e-07
3.81653e-07 1.45549e-07 -0.000249367
0.000994974 0.000139123 1.06024e-05
0.000139123 -6.32201e-05 2.95575e-06
1.06024e-05 2.95575e-06 -0.000212519
0.00616752 0.000247453 6.35022e-06
0.000247453 0.00343614 3.15598e-06
6.35022e-06 3.15598e-06 0.00343372
0.000497771 9.83245e-05 1.8082e-05
9.83245e-05 -0.000147851 8.00082e-06
1.8082e-05 8.00082e-06 -0.000238396
0.00623325 0.000252147 0.000280036
0.000252147 0.00347872 3.14331e-05
0.000280036 3.14331e-05 0.00347296
0.00100841 1.85076e-05 -1.27046e-05
1.85076e-05 -3.71184e-05 -5.54263e-07
-1.27046e-05 -5.54263e-07 -0.000162905
0.0017172 3.12891e-05 3.78897e-06
3.12891e-05 0.00013491 1.28818e-07
3.78897e-06 1.28818e-07 2.39911e-05
0.00182874 3.87876e-05 -4.112e-06
3.87876e-05 5.78163e-05 -2.80923e-07
-4.112e-06 -2.80923e-07 -2.74641e-05
0.000552998 3.09592e-05 -1.98999e-05
3.09592e-05 -0.000133111 -6.04311e-07
-1.98999e-05 -6.04311e-07 -0.000201668
0.000880628 -2.2081e-06 -1.2276e-06
-2.2081e-06 -0.000120246 9.86678e-09
-1.2276e-06 9.86678e-09 -0.000244208
0.00179862 7.30197e-06 4.7366e-06
7.30197e-06 0.000193712 9.24713e-08
4.7366e-06 9.24713e-08 8.384e-05
0.000900593 -1.58816e-05 1.10278e-05
-1.58816e-05 -0.000118282 -4.55925e-07
1.10278e-05 -4.55925e-07 -0.000244431
0.000513358 -5.19293e-06 3.67879e-07
-5.19293e-06 -0.000149735 3.85543e-07
3.67879e-07 3.85543e-07 -0.000226054
0.00581757 2.74023e-05 -0.000284152
2.74023e-05 0.00320458 3.47915e-07
-0.000284152 3.47915e-07 0.00322349
0.000473121 1.53401e-05 1.8346e-05
1.53401e-05 -0.00017647 -1.25581e-06
1.8346e-05 -1.25581e-06 -0.000253169
0.00584651 -0.000103285 -7.79138e-06
-0.000103285 0.00322919 1.76793e-06
-7.79138e-06 1.76793e-06 0.00324228
0.00585451 -6.61206e-06 0.000264967
-6.61206e-06 0.00322438 -5.43735e-06
0.000264967 -5.43735e-06 0.00324164
0.00104284 3.60015e-05 -1.25253e-05
3.60015e-05 -2.35464e-05 -1.23772e-06
-1.25253e-05 -1.23772e-06 -0.000150729
0.00162978 6.72559e-05 -2.3397e-07
6.72559e-05 7.40331e-05 -1.05452e-07
-2.3397e-07 -1.05452e-07 -4.50654e-05
0.00191155 9.88913e-05 -4.0411e-06
9.88913e-05 9.9738e-05 -2.3008e-06
-4.0411e-06 -2.3008e-06 1.53842e-05
0.00264523 5.73139e-05 -0.00013303
5.73139e-05 0.0011507 -4.42221e-06
-0.00013303 -4.42221e-06 0.00110063
0.00103034 6.6104e-05 3.61094e-07
6.6104e-05 -4.06349e-05 7.89347e-08
3.61094e-07 7.89347e-08 -0.000172942
0.00162597 0.000113623 1.10838e-06
0.000113623 7.37102e-05 -7.56778e-07
1.10838e-06 -7.56778e-07 -5.71926e-05
0.00593386 0.000154836 -0.000298584
0.000154836 0.00328435 -1.6074e-05
-0.000298584 -1.6074e-05 0.00329489
0.000519563 6.28946e-05 8.35256e-07
6.28946e-05 -0.000144476 4.39303e-07
8.35256e-07 4.39303e-07 -0.000228699
0.00100861 0.000106004 1.25101e-05
0.000106004 -5.77656e-05 2.5056e-06
1.25101e-05 2.5056e-06 -0.00019904
0.00610804 0.000220009 1.71804e-06
0.000220009 0.00339648 1.64073e-06
1.71804e-06 1.64073e-06 0.00339928
0.000527087 8.0162e-05 1.82562e-05
8.0162e-05 -0.00013766 6.30711e-06
1.82562e-05 6.30711e-06 -0.000225304
0.00617372 0.000278651 0.00029146
0.000278651 0.00345126 3.23797e-05
0.00029146 3.23797e-05 0.00344275
0.000607942 1.05757e-05 -1.61384e-05
1.05757e-05 -8.89475e-05 -1.77912e-06
-1.61384e-05 -1.77912e-06 -0.000166288
0.000939921 1.73788e-05 5.15295e-07
1.73788e-05 -8.20086e-05 2.50719e-07
5.15295e-07 2.50719e-07 -0.000207123
0.00165667 2.62338e-05 3.81122e-06
2.62338e-05 9.68956e-05 -1.11441e-07
3.81122e-06 -1.11441e-07 -1.28353e-05
0.00566339 -9.72342e-05 -0.000267256
-9.72342e-05 0.00312832 2.47421e-06
-0.000267256 2.47421e-06 0.00313682
0.000509709 8.50053e-06 -5.62888e-07
8.50053e-06 -0.000154844 -8.48884e-09
-5.62888e-07 -8.48884e-09 -0.000225991
0.000879361 2.60525e-06 1.08586e-05
2.60525e-06 -0.000122472 -6.60674e-09
1.08586e-05 -6.60674e-09 -0.000246528
0.000468193 2.09044e-05 1.85857e-05
2.09044e-05 -0.000178068 2.17497e-07
1.85857e-05 2.17497e-07 -0.000253491
0.00576037 -8.58006e-06 2.24717e-06
-8.58006e-06 0.00317518 -1.29374e-06
2.24717e-06 -1.29374e-06 0.00319009
0.00584761 -2.25139e-05 0.00027293
-2.25139e-05 0.003219 -3.43793e-06
0.00027293 -3.43793e-06 0.00323755
0.00272463 1.22765e-05 -0.000128545
1.22765e-05 0.00119729 -2.62694e-06
-0.000128545 -2.62694e-06 0.00114948
0.00102548 3.91317e-05 7.74903e-08
3.91317e-05 -3.57779e-05 3.7843e-08
7.74903e-08 3.7843e-08 -0.000163443
0.00164436 6.51882e-05 1.17995e-06
6.51882e-05 8.412e-05 -6.75378e-07
1.17995e-06 -6.75378e-07 -3.16581e-05
0.00546779 -4.44297e-05 -0.000107608
-4.44297e-05 0.00301186 5.32064e-07
-0.000107608 5.32064e-07 0.00299934
0.000534515 5.50554e-05 4.61067e-08
5.50554e-05 -0.000135148 1.98836e-07
4.61067e-08 1.98836e-07 -0.000215105
0.00100087 6.83208e-05 1.21759e-05
6.83208e-05 -5.93442e-05 1.63334e-06
1.21759e-05 1.63334e-06 -0.000192237
0.00600073 0.000128379 -1.06874e-05
0.000128379 0.00331998 -1.55048e-06
-1.06874e-05 -1.55048e-06 0.00333206
0.00055158 8.58435e-05 1.96247e-05
8.58435e-05 -0.000124473 5.34766e-06
1.96247e-05 5.34766e-06 -0.000209575
0.00614046 0.00024398 0.000301258
0.00024398 0.0034234 2.85493e-05
0.000301258 2.85493e-05 0.00342296
0.00171558 -5.22701e-05 -0.000217084
-5.22701e-05 0.000688904 1.07161e-06
-0.000217084 1.07161e-06 0.000684556
0.00162638 2.86238e-05 -5.44969e-05
2.86238e-05 0.000525321 1.81158e-07
-5.44969e-05 1.81158e-07 0.000467636
0.000867492 1.88598e-05 1.23959e-05
1.88598e-05 -0.000128828 8.10119e-07
1.23959e-05 8.10119e-07 -0.000253345
0.00573202 -4.41779e-05 7.27161e-06
-4.41779e-05 0.0031641 2.04501e-06
7.27161e-06 2.04501e-06 0.00317739
0.000525891 -1.2432e-05 1.92119e-05
-1.2432e-05 -0.0001389 7.10304e-07
1.92119e-05 7.10304e-07 -0.000213727
0.00579554 -7.38081e-05 0.000285716
-7.38081e-05 0.00319913 -3.5001e-06
0.000285716 -3.5001e-06 0.00321405
0.00129974 1.79352e-05 -5.14756e-05
1.79352e-05 0.000460462 -8.08025e-07
-5.14756e-05 -8.08025e-07 0.000424608
0.00161594 1.5843e-05 -5.50063e-05
1.5843e-05 0.000522068 -1.02605e-06
-5.50063e-05 -1.02605e-06 0.000460734
0.000998358 4.08671e-05 1.23097e-05
4.08671e-05 -5.37875e-05 1.35036e-06
1.23097e-05 1.35036e-06 -0.00018196
0.00361905 6.02069e-05 0.000105473
6.02069e-05 0.00186581 2.85014e-06
0.000105473 2.85014e-06 0.00185661
0.00054543 6.56561e-05 1.99613e-05
6.56561e-05 -0.000128634 4.01031e-06
1.99613e-05 4.01031e-06 -0.000208597
0.00607084 0.000116468 0.000288372
0.000116468 0.0033558 1.71481e-05
0.000288372 1.71481e-05 0.00337126
0.00568284 -2.0479e-05 -8.89913e-06
-2.0479e-05 0.00313706 -2.65177e-06
-8.89913e-06 -2.65177e-06 0.00314928
0.00052618 4.72921e-05 2.06965e-05
4.72921e-05 -0.000148877 2.18228e-06
2.06965e-05 2.18228e-06 -0.000217018
0.00564228 4.30279e-05 0.000273231
4.30279e-05 0.0031058 2.03018e-07
0.000273231 2.03018e-07 0.00312241
0.00352006 2.93478e-05 0.000118301
2.93478e-05 0.00181011 4.25203e-06
0.000118301 4.25203e-06 0.00180207
0.000555277 7.02118e-06 1.90947e-05
7.02118e-06 -0.000122566 2.60945e-06
1.90947e-05 2.60945e-06 -0.000198259
0.00589804 -1.06281e-05 0.000277741
-1.06281e-05 0.00325254 7.48908e-06
0.000277741 7.48908e-06 0.00326882
0.00572876 -0.000122046 0.000270355
-0.000122046 0.00316971 -3.75515e-06
0.000270355 -3.75515e-06 0.00317734
0.00572875 6.89354e-07 0.000271214
6.89354e-07 0.00314922 4.15689e-06
0.000271214 4.15689e-06 0.0031685
