# vtk DataFile Version 2.0
Wound Healing Simulation
ASCII
DATASET UNSTRUCTURED_GRID
POINTS 3012 float
69.9759 18.75 4
67.2507 60.3285 4
69.976 18.75 2
73.0099 25.446 4
71.1327 20.9142 4
68.6801 16.6661 4
67.8219 19.9262 3.97467
67.2507 60.3286 2
71.1327 54.0858 4
68.6801 58.3339 4
65.6939 62.2254 4
65.3089 58.999 3.973
74.6784 42.3946 4
73.7221 47.2057 4
69.9759 18.75 0
73.0099 25.446 2
68.6801 16.6661 2
71.1327 20.9142 2
67.8228 19.9303 2
74.6792 32.6053 4
73.7222 27.7943 4
72.1454 23.1494 4
70.6116 26.2215 3.9745
68.8824 21.9578 3.97505
67.2507 14.6715 4
66.6332 17.9729 3.97341
65.7759 21.0324 3.96323
67.2507 60.3285 0
71.1327 54.0858 2
68.6801 58.3339 2
65.694 62.2255 2
65.3098 58.9945 2
72.1454 51.8506 4
69.9759 56.25 4
68.8329 53.1138 3.97463
64.0165 64.0165 4
66.6071 57.1327 3.97442
63.8821 60.7631 3.97263
63.4914 57.7636 3.96462
60.3285 67.2507 4
74.6792 42.3947 2
73.7222 47.2057 2
74.9194 39.9526 4
74.2788 44.8158 4
72.1663 42.0857 3.97589
73.0099 49.554 4
71.2468 46.5982 3.97441
73.0099 25.446 0
71.1327 20.9142 0
68.6801 16.6661 0
67.8219 19.9262 0.0253278
74.6792 32.6053 2
73.7222 27.7943 2
67.2508 14.6715 2
72.1455 23.1494 2
70.611 26.2224 2
66.6347 17.9777 2
68.8827 21.9608 2
65.7732 21.0347 2
74.9197 35.0474 4
74.2794 30.1841 4
72.183 32.9444 3.97635
71.276 28.4324 3.9748
69.8126 24.0596 3.97477
68.3363 26.9558 3.96414
66.7443 22.9391 3.9635
65.694 12.7746 4
65.3192 16.1058 3.97159
64.6965 19.2031 3.96301
63.7796 22.077 3.96424
71.1327 54.0858 0
65.6939 62.2254 0
68.6801 58.3339 0
65.3089 58.999 0.0269975
72.1455 51.8506 2
69.9759 56.25 2
68.8331 53.111 2
64.0165 64.0165 2
66.6083 57.1284 2
63.8834 60.7579 2
63.4891 57.7634 2
62.2254 65.694 4
58.8915 65.4126 3.98233
69.7657 50.9896 3.97435
67.7801 55.1674 3.97474
66.6262 52.204 3.96356
62.3323 62.4244 3.97651
64.6486 56.0263 3.96382
62.1947 59.3905 3.96469
61.7563 56.6469 3.96106
58.3339 68.6801 4
60.3285 67.2508 2
73.7221 47.2057 0
74.6784 42.3946 0
74.9197 39.9526 2
74.2794 44.8159 2
72.1655 42.0855 2
73.0099 49.554 2
71.2461 46.5977 2
75 37.5 4
72.4037 39.8025 3.97711
71.7804 44.3531 3.97567
69.7983 41.7898 3.96655
70.5723 48.814 3.97411
68.902 46.013 3.9653
74.6792 32.6053 0
73.7222 27.7943 0
67.2507 14.6715 0
72.1454 23.1494 0
70.6116 26.2215 0.0255007
68.8824 21.9578 0.0249507
66.6332 17.9729 0.0265949
65.7759 21.0324 0.0367658
74.9197 35.0474 2
74.2794 30.1841 2
72.1822 32.9447 2
71.2755 28.4327 2
65.694 12.7745 2
65.3209 16.111 2
69.8124 24.0614 2
68.3385 26.9568 2
64.6902 19.2057 2
66.7443 22.941 2
63.7788 22.078 2
72.4116 35.225 3.97717
71.8019 30.6774 3.9758
69.8346 33.2715 3.96661
68.9598 29.0419 3.96499
67.5974 24.917 3.96374
66.0728 27.6669 3.96886
64.0165 10.9835 4
64.6414 23.8693 3.96594
63.8853 14.3309 3.97183
63.5022 17.4576 3.96276
62.8052 20.3651 3.96232
61.8871 23.0221 3.96888
60.6806 11.1021 3.97735
57.6048 11.4771 3.96863
72.1454 51.8506 0
69.9759 56.25 0
68.8329 53.1138 0.0253662
64.0165 64.0165 0
63.8821 60.7631 0.0273658
66.6071 57.1327 0.0255842
63.4914 57.7636 0.0353779
62.2255 65.694 2
58.8936 65.4084 2
69.7655 50.9878 2
67.7808 55.1636 2
66.6257 52.2026 2
62.3346 62.4195 2
64.6421 56.0245 2
62.1919 59.3903 2
61.7552 56.6473 2
60.6656 63.9732 3.97908
57.0222 66.7335 3.98505
57.5513 63.6717 3.97094
67.4855 50.1721 3.96397
65.6829 54.1682 3.96357
64.4048 51.3464 3.96612
60.7672 60.9171 3.96776
62.7292 55.0318 3.96339
60.6094 58.1237 3.95979
60.1957 55.7232 3.96489
56.25 69.9759 4
58.3339 68.6801 2
60.3285 67.2507 0
58.9179 9.66013 3.9787
62.2254 9.30607 4
73.0099 49.554 0
74.2788 44.8158 0
71.2468 46.5982 0.0255934
72.1663 42.0857 0.0241078
74.9194 39.9526 0
75 37.5 2
72.4034 39.8025 2
71.7801 44.3526 2
69.7975 41.7896 2
70.5717 48.813 2
68.9047 46.0126 2
72.4871 37.5127 3.97672
70.036 39.6582 3.96706
69.4246 43.9071 3.96629
67.4895 41.4876 3.97361
68.2478 48.1037 3.96451
66.5739 45.415 3.97111
74.9197 35.0474 0
74.2794 30.1841 0
72.183 32.9444 0.0236483
71.276 28.4324 0.0252034
65.694 12.7746 0
65.3192 16.1058 0.0284149
69.8126 24.0596 0.0252276
68.3363 26.9558 0.0358562
66.7443 22.9391 0.0365048
64.6965 19.2031 0.0369857
63.7796 22.077 0.0357587
72.4114 35.225 2
71.8017 30.678 2
69.8338 33.2722 2
68.9596 29.0427 2
64.0165 10.9835 2
63.8873 14.3363 2
63.4985 17.4591 2
67.5987 24.9184 2
66.0716 27.6678 2
62.8037 20.366 2
64.6401 23.8705 2
61.886 23.0231 2
60.6833 11.1068 2
57.6057 11.4701 2
70.0529 35.3944 3.96714
69.4613 31.153 3.96565
67.5538 33.6048 3.97269
66.6528 29.6497 3.97006
65.4047 25.7354 3.9676
63.8987 28.3179 3.97566
62.3374 12.659 3.9755
62.6323 24.7122 3.9713
62.189 15.8019 3.96492
61.7288 18.731 3.96001
61.0229 21.4256 3.96566
60.1272 23.8413 3.97286
59.2386 12.8112 3.96544
55.8677 10.2616 3.97246
56.3926 13.1754 3.96933
69.7657 50.9896 0.0256466
62.2254 65.694 0
58.8915 65.4126 0.0176698
67.7801 55.1674 0.0252552
66.6262 52.204 0.0364443
62.3323 62.4244 0.0234884
62.1947 59.3905 0.0353075
64.6486 56.0263 0.0361827
61.7563 56.6469 0.0389401
60.6679 63.9703 2
57.025 66.7307 2
57.5522 63.6759 2
67.4866 50.171 2
65.6798 54.1666 2
64.404 51.3458 2
60.7654 60.9186 2
62.7278 55.0318 2
60.6111 58.1254 2
60.1943 55.7231 2
55.068 67.931 3.98719
59.2126 62.3356 3.9682
55.7997 64.8989 3.97332
56.3149 62.0419 3.97166
65.1883 49.3715 3.96764
63.5883 53.2534 3.96466
62.1848 50.5782 3.97029
59.3113 59.5224 3.96059
60.8979 54.2409 3.9675
59.1647 56.9445 3.96118
59.0523 55.1006 3.968
48.0994 68.5732 3.98298
50.9459 69.9311 3.98928
54.0858 71.1327 4
56.25 69.976 2
58.3339 68.6801 0
57.0554 8.33901 3.9811
60.3285 7.74928 4
58.921 9.6642 2
62.2255 9.30602 2
70.5723 48.814 0.0258896
71.7804 44.3531 0.024334
68.902 46.013 0.0346986
69.7983 41.7898 0.0334508
72.4037 39.8025 0.0228935
75 37.5 0
72.4863 37.5126 2
70.0358 39.6582 2
69.4239 43.9066 2
67.4872 41.4873 2
68.25 48.1029 2
66.5723 45.4144 2
70.1241 37.5232 3.96717
67.7347 39.5088 3.9737
67.0993 43.4527 3.97224
65.3018 41.1865 3.97632
65.925 47.3862 3.9696
64.3722 44.7975 3.97633
72.4116 35.225 0.0228266
71.8019 30.6774 0.0241991
69.8346 33.2715 0.033392
68.9598 29.0419 0.0350063
64.0165 10.9835 0
63.8853 14.3309 0.0281723
63.5022 17.4576 0.0372366
67.5974 24.917 0.0362627
66.0728 27.6669 0.0311415
64.6414 23.8693 0.0340558
62.8052 20.3651 0.0376815
61.8871 23.0221 0.0311247
60.6806 11.1021 0.022647
57.6048 11.4771 0.0313737
70.0526 35.3948 2
69.461 31.1537 2
67.5518 33.6053 2
66.6506 29.6505 2
62.34 12.6643 2
62.1871 15.8031 2
61.7272 18.7316 2
65.4031 25.7366 2
63.8964 28.3193 2
61.0221 21.4264 2
62.6306 24.7135 2
60.1253 23.8426 2
59.2389 12.8118 2
56.394 13.1731 2
55.8701 10.2603 2
67.7729 35.5556 3.97316
67.1578 31.6426 3.97183
65.4586 33.9539 3.97664
64.4085 30.2457 3.9762
63.3008 26.4834 3.97368
61.8942 28.8714 3.97587
60.7673 14.2477 3.96586
60.7201 25.4477 3.97513
60.5578 17.173 3.95918
60.0379 19.9058 3.96194
59.3738 22.3791 3.96852
58.6055 24.4658 3.97441
54.0332 9.14953 3.97179
57.8941 14.3818 3.96355
54.7742 12.074 3.96703
55.2891 14.724 3.9636
67.4855 50.1721 0.036033
57.0222 66.7335 0.0149501
60.6656 63.9732 0.0209175
57.5513 63.6717 0.0290633
65.6829 54.1682 0.0364336
64.4048 51.3464 0.033877
60.7672 60.9171 0.0322351
60.6094 58.1237 0.0402114
62.7292 55.0318 0.0366094
60.1957 55.7232 0.0351144
55.0707 67.9289 2
59.2124 62.3386 2
55.8005 64.8972 2
56.3135 62.042 2
65.1869 49.3708 2
63.5882 53.2533 2
62.184 50.5776 2
59.3135 59.5263 2
60.8978 54.2409 2
59.171 56.9463 2
59.0572 55.1015 2
53.0401 68.9992 3.98864
53.9627 66.0037 3.97733
57.8659 60.8308 3.96813
54.6717 63.1685 3.97077
55.1916 60.5616 3.97526
62.9198 48.5918 3.97257
61.5198 52.5024 3.96879
59.9012 49.912 3.9729
57.943 58.2048 3.96043
59.0831 53.8544 3.96979
57.9065 55.7158 3.96318
50.106 67.8509 3.9819
47.4598 66.5684 3.97729
46.0535 69.1528 3.98449
48.1006 68.5729 2
48.7999 70.7224 3.98984
50.948 69.9301 2
51.8506 72.1454 4
54.0858 71.1327 2
56.25 69.9759 0
55.1003 7.14333 3.98488
58.3339 6.31992 4
57.0587 8.3427 2
60.3286 7.74926 2
58.9179 9.66013 0.0213011
62.2254 9.30607 0
68.2478 48.1037 0.0354932
69.4246 43.9071 0.0337139
66.5739 45.415 0.0288891
67.4895 41.4876 0.0263869
70.036 39.6582 0.0329367
72.4871 37.5127 0.0232772
70.1234 37.5234 2
67.7322 39.5087 2
67.0978 43.4524 2
65.2988 41.1861 2
65.9237 47.3855 2
64.3707 44.7966 2
67.835 37.5244 3.97352
65.5415 39.3605 3.97654
64.912 42.9861 3.97654
63.3916 40.8974 3.97657
63.6805 46.6554 3.9747
62.4068 44.1422 3.9762
70.0529 35.3944 0.0328606
69.4613 31.153 0.0343451
67.5538 33.6048 0.0273135
66.6528 29.6497 0.029939
62.3374 12.659 0.0244998
62.189 15.8019 0.0350828
61.7288 18.731 0.0399913
65.4047 25.7354 0.032405
63.8987 28.3179 0.0243386
62.6323 24.7122 0.0286965
61.0229 21.4256 0.0343381
60.1272 23.8413 0.0271428
59.2386 12.8112 0.0345589
56.3926 13.1754 0.0306665
55.8677 10.2616 0.0275393
67.7702 35.556 2
67.1563 31.6432 2
65.4547 33.9546 2
64.4057 30.247 2
60.7667 14.2488 2
60.553 17.1738 2
60.0357 19.9068 2
63.2987 26.4848 2
61.8921 28.8721 2
59.3753 22.3798 2
60.718 25.4491 2
58.6027 24.4674 2
57.8928 14.3826 2
55.2908 14.7207 2
54.0358 9.14898 2
54.775 12.0711 2
65.6401 35.6821 3.97655
64.9313 32.1945 3.97622
63.9612 34.2827 3.97644
62.2115 30.71 3.97607
61.3048 27.1763 3.97561
60.408 29.2516 3.97616
59.2826 15.7141 3.95959
58.9185 25.9439 3.97605
58.9884 18.4408 3.95976
58.4759 20.9794 3.96373
57.9272 23.2441 3.96998
57.5589 24.8311 3.97549
52.1091 8.16435 3.97579
53.0472 11.0628 3.96906
56.6401 15.8146 3.95917
53.7876 13.7629 3.96691
54.3262 16.0957 3.95998
55.068 67.931 0.0128081
65.1883 49.3715 0.0323643
55.7997 64.8989 0.0266789
59.2126 62.3356 0.0317999
56.3149 62.0419 0.0283406
63.5883 53.2534 0.0353426
62.1848 50.5782 0.0297095
59.3113 59.5224 0.0394056
59.1647 56.9445 0.0388198
60.8979 54.2409 0.0324958
59.0523 55.1006 0.0320021
53.0425 68.9979 2
53.964 66.0031 2
57.865 60.832 2
54.6709 63.1697 2
55.1891 60.5614 2
62.9181 48.5909 2
61.5202 52.5023 2
59.9023 49.9117 2
57.9414 58.2061 2
59.0874 53.855 2
57.9026 55.7143 2
52.0671 66.9927 3.9805
52.9456 64.1967 3.97473
56.6142 59.4392 3.96331
53.6583 61.5621 3.97251
54.222 59.2634 3.97066
60.5748 47.7755 3.97422
59.3917 52.0015 3.97085
57.56 49.4769 3.9741
56.6488 56.9061 3.96263
56.8115 54.0011 3.96674
50.107 67.8505 2
49.3331 65.9085 3.97753
47.4605 66.5677 2
46.8871 64.7157 3.97622
45.5558 67.0867 3.97929
43.9712 69.5851 3.98557
46.0548 69.153 2
46.6064 71.3668 3.99056
48.0994 68.5732 0.0170155
48.8018 70.7218 2
49.554 73.0099 4
50.9459 69.9311 0.0107151
51.8506 72.1455 2
54.0858 71.1327 0
53.0627 6.07375 3.9882
55.1038 7.1449 2
56.25 5.02411 4
58.3339 6.3199 2
57.0554 8.33901 0.0188995
60.3285 7.74928 0
65.925 47.3862 0.0304036
67.0993 43.4527 0.0277555
64.3722 44.7975 0.0236656
65.3018 41.1865 0.0236832
67.7347 39.5088 0.026295
70.1241 37.5232 0.0328288
67.8326 37.5246 2
65.5383 39.3603 2
64.9087 42.9852 2
63.3911 40.897 2
63.6785 46.6544 2
62.4058 44.142 2
65.6505 37.505 3.97651
63.5417 39.2529 3.97662
62.9441 42.5025 3.97622
61.982 40.6587 3.97661
61.5516 45.8268 3.9758
60.9545 43.6019 3.97603
67.7729 35.5556 0.026841
67.1578 31.6426 0.028171
65.4586 33.9539 0.0233601
64.4085 30.2457 0.023802
60.7673 14.2477 0.0341445
60.5578 17.173 0.0408151
60.0379 19.9058 0.0380562
63.3008 26.4834 0.026317
61.8942 28.8714 0.0241268
60.7201 25.4477 0.0248737
59.3738 22.3791 0.0314787
58.6055 24.4658 0.02559
57.8941 14.3818 0.0364481
55.2891 14.724 0.0364042
54.0332 9.14953 0.02821
54.7742 12.074 0.0329658
65.6365 35.6822 2
64.928 32.1953 2
63.9599 34.2831 2
62.2101 30.7103 2
59.2818 15.713 2
58.9983 18.4385 2
58.4743 20.9808 2
61.3029 27.1774 2
60.4076 29.2523 2
57.9171 23.2475 2
58.9173 25.9449 2
57.5627 24.8326 2
56.6358 15.8155 2
54.3317 16.0901 2
53.7863 13.7532 2
52.1113 8.16388 2
53.0487 11.0603 2
63.7519 35.6522 3.97641
62.5363 33.0993 3.97612
60.1215 30.7169 3.9758
59.1033 28.0486 3.97592
57.8611 17.0606 3.95844
57.2684 25.907 3.97591
57.5009 19.5983 3.95961
57.0238 22.0017 3.9644
56.7516 24.129 3.97099
50.1103 7.2931 3.98141
51.2248 10.1512 3.97259
52.1526 12.8707 3.96692
55.46 17.0715 3.95775
52.9378 15.3643 3.96286
53.6821 17.0965 3.9571
53.0401 68.9992 0.0113582
53.9627 66.0037 0.0226658
62.9198 48.5918 0.0274278
54.6717 63.1685 0.0292277
57.8659 60.8308 0.0318668
55.1916 60.5616 0.0247439
61.5198 52.5024 0.0312141
59.9012 49.912 0.0270987
57.943 58.2048 0.0395669
57.9065 55.7158 0.0368244
59.0831 53.8544 0.0302086
52.0682 66.9926 2
52.9453 64.1992 2
56.6133 59.4397 2
53.6566 61.563 2
54.2176 59.2651 2
60.5744 47.7749 2
59.3934 52.0014 2
57.5597 49.4762 2
56.6444 56.9093 2
56.8085 53.9999 2
51.1633 65.1143 3.97682
52.029 62.5019 3.9714
55.4074 58.1846 3.96058
52.7931 60.0579 3.96994
53.5813 58.4037 3.96601
57.7331 46.6967 3.97585
57.1686 51.6539 3.97099
55.7012 49.388 3.97329
55.2902 55.6912 3.96298
54.9946 53.2453 3.96298
50.106 67.8509 0.018099
49.3334 65.9079 2
48.6111 64.104 3.97796
47.4598 66.5684 0.0227107
45.5564 67.0876 2
46.8877 64.7149 2
46.3732 63.0259 3.98207
45.1293 65.179 3.97769
43.6297 67.4591 3.98118
41.859 69.8721 3.98527
43.9721 69.5854 2
44.3739 71.8614 3.99097
46.0535 69.1528 0.0155122
46.608 71.3666 2
47.2057 73.7222 4
48.7999 70.7224 0.0101584
49.554 73.0099 2
51.8506 72.1454 0
50.9538 5.13427 3.9902
53.0653 6.07452 2
54.0858 3.86728 4
55.1003 7.14333 0.0151178
56.25 5.02406 2
58.3339 6.31992 0
63.6805 46.6554 0.025302
64.912 42.9861 0.0234569
62.4068 44.1422 0.0237978
63.3916 40.8974 0.0234267
65.5415 39.3605 0.0234633
67.835 37.5244 0.0264788
65.647 37.5049 2
63.5413 39.2528 2
62.9437 42.5022 2
61.9831 40.6585 2
61.5505 45.826 2
60.9545 43.602 2
63.6059 37.4596 3.97652
61.6889 39.333 3.97676
60.6989 41.8923 3.97661
59.7081 44.6534 3.9761
65.6401 35.6821 0.0234543
64.9313 32.1945 0.0237752
63.9612 34.2827 0.0235616
62.2115 30.71 0.0239309
59.2826 15.7141 0.0404074
58.9884 18.4408 0.0402405
58.4759 20.9794 0.036269
61.3048 27.1763 0.0243867
60.408 29.2516 0.023843
58.9185 25.9439 0.0239483
57.9272 23.2441 0.0300214
57.5589 24.8311 0.0245085
56.6401 15.8146 0.0408277
54.3262 16.0957 0.0400188
53.7876 13.7629 0.0330859
52.1091 8.16435 0.0242088
53.0472 11.0628 0.0309374
63.7513 35.6523 2
62.5367 33.0997 2
60.1221 30.7171 2
57.864 17.06 2
57.5171 19.594 2
57.019 22.0045 2
59.1029 28.0491 2
56.7655 24.1299 2
57.2708 25.9092 2
50.1123 7.29067 2
55.4648 17.0691 2
53.6931 17.0869 2
52.9355 15.3567 2
52.1535 12.8739 2
51.2269 10.1476 2
61.7326 35.3875 3.97652
59.7388 32.8249 3.97606
58.0331 30.2129 3.97568
56.743 27.5665 3.97631
56.5082 18.2641 3.95958
55.7914 25.3092 3.97507
56.0875 20.6756 3.96058
55.6936 23.0617 3.96425
48.0558 6.53285 3.9857
49.32 9.34778 3.97542
50.4181 12.0463 3.97101
51.3408 14.584 3.96332
54.2989 18.046 3.95922
52.2973 17.1661 3.95825
52.0671 66.9927 0.0195049
52.9456 64.1967 0.0252727
60.5748 47.7755 0.025785
53.6583 61.5621 0.0274854
56.6142 59.4392 0.0366924
54.222 59.2634 0.029338
59.3917 52.0015 0.0291518
57.56 49.4769 0.0258959
56.6488 56.9061 0.0373659
56.8115 54.0011 0.0332585
51.1632 65.1139 2
52.0278 62.5032 2
55.4048 58.1855 2
52.7918 60.0606 2
53.5786 58.4062 2
57.7329 46.6961 2
57.1656 51.6528 2
55.6967 49.3866 2
55.2871 55.691 2
54.9944 53.2455 2
50.3358 63.3618 3.978
51.2097 60.8716 3.97473
54.1157 57.1895 3.9663
52.223 58.551 3.96543
55.9504 44.021 3.97638
54.8461 47.709 3.97521
54.5733 51.2245 3.96586
53.7535 54.4248 3.96526
49.3331 65.9085 0.0224694
48.6108 64.1021 2
47.9477 62.4512 3.98235
45.5558 67.0867 0.0207106
46.8871 64.7157 0.0237752
43.63 67.4596 2
46.373 63.0265 2
45.13 65.1781 2
45.9729 61.5546 3.99011
44.7616 63.424 3.97689
43.3557 65.4911 3.97831
41.6623 67.6775 3.98083
39.7014 70.018 3.98467
41.8598 69.8725 2
42.1087 72.2056 3.99133
43.9712 69.5851 0.0144309
44.3752 71.8612 2
44.8159 74.2794 4
46.6064 71.3668 0.0094443
47.2057 73.7222 2
49.554 73.0099 0
48.7853 4.32451 3.99107
50.9555 5.1338 2
51.8506 2.85458 4
53.0627 6.07375 0.011798
54.0858 3.86728 2
56.25 5.02411 0
61.5516 45.8268 0.024196
62.9441 42.5025 0.0237762
60.9545 43.6019 0.0239655
61.982 40.6587 0.0233916
63.5417 39.2529 0.023379
65.6505 37.505 0.0234884
63.6055 37.4595 2
61.6901 39.333 2
60.7006 41.8924 2
59.7086 44.6531 2
61.5172 37.4462 3.97692
59.648 39.8061 3.97679
58.3266 42.8162 3.97598
63.7519 35.6522 0.0235927
62.5363 33.0993 0.0238782
60.1215 30.7169 0.0242008
57.8611 17.0606 0.0415587
57.5009 19.5983 0.0403873
57.0238 22.0017 0.0356038
59.1033 28.0486 0.0240835
57.2684 25.907 0.024087
56.7516 24.129 0.0290093
55.46 17.0715 0.0422511
53.6821 17.0965 0.0428969
52.9378 15.3643 0.0371411
50.1103 7.2931 0.0185867
52.1526 12.8707 0.0330752
51.2248 10.1512 0.0274092
61.7337 35.3875 2
59.7391 32.8246 2
58.0342 30.2122 2
56.5104 18.2629 2
56.1126 20.6688 2
55.7032 23.0657 2
56.7439 27.5683 2
55.7992 25.3148 2
48.0568 6.53176 2
49.3219 9.34569 2
54.3163 18.0442 2
52.2892 17.1599 2
51.3373 14.5851 2
50.4202 12.0459 2
59.2826 35.1595 3.97656
57.3001 32.3796 3.97556
55.8876 29.5196 3.97597
54.8412 26.8398 3.97547
55.1762 19.3224 3.96213
54.472 24.2781 3.97342
54.6743 21.746 3.96067
45.9626 5.88644 3.98772
43.3745 7.48064 3.98337
47.3532 8.63469 3.98045
48.5895 11.3268 3.97313
49.6816 13.8025 3.968
50.5771 16.2368 3.9608
52.9926 18.8153 3.96346
51.2145 18.2251 3.95994
51.1633 65.1143 0.0231839
52.029 62.5019 0.0286013
57.7331 46.6967 0.0241493
52.7931 60.0579 0.030058
55.4074 58.1846 0.0394159
53.5813 58.4037 0.0339879
57.1686 51.6539 0.0290139
55.7012 49.388 0.0267149
55.2902 55.6912 0.0370208
54.9946 53.2453 0.0370207
50.335 63.3605 2
51.2078 60.8706 2
54.1141 57.1909 2
52.2181 58.5529 2
55.9513 44.0214 2
54.8439 47.7077 2
54.5697 51.2234 2
53.7506 54.4263 2
49.5692 61.7222 3.97501
54.679 41.6201 3.97399
50.5002 59.2593 3.96967
52.0246 56.3949 3.96557
53.3508 45.3419 3.97435
52.7021 49.1344 3.96959
52.2752 52.7041 3.9599
48.6111 64.104 0.0220426
47.9469 62.4476 2
47.3052 60.9818 3.99432
43.6297 67.4591 0.0188164
45.1293 65.179 0.0223095
46.3732 63.0259 0.0179325
41.6631 67.6769 2
43.3571 65.4917 2
45.9726 61.5553 2
44.7619 63.4228 2
45.7397 60.6003 3.99126
44.4736 61.7979 3.979
43.1434 63.7004 3.97818
41.5459 65.6295 3.97607
39.632 67.7547 3.97995
37.5258 70.0424 3.98388
39.702 70.0182 2
39.8161 72.4023 3.99137
41.859 69.8721 0.014732
42.1096 72.2059 2
42.3947 74.6792 4
44.3739 71.8614 0.00903482
44.8159 74.2794 2
47.2057 73.7222 0
43.852 5.363 3.98701
46.5715 3.64888 3.99165
48.786 4.32418 2
49.554 1.99015 4
50.9538 5.13427 0.00979606
51.8506 2.85453 2
54.0858 3.86728 0
59.7081 44.6534 0.0239041
60.6989 41.8923 0.0233916
61.6889 39.333 0.023237
63.6059 37.4596 0.0234786
61.5181 37.446 2
59.6497 39.8056 2
58.3276 42.8167 2
59.1374 37.566 3.97733
57.2487 40.5865 3.97731
54.0774 39.6373 3.97547
61.7326 35.3875 0.0234838
59.7388 32.8249 0.0239398
58.0331 30.2129 0.0243229
56.5082 18.2641 0.0404235
56.0875 20.6756 0.0394172
55.6936 23.0617 0.0357494
56.743 27.5665 0.0236946
55.7914 25.3092 0.0249313
54.2989 18.046 0.0407773
52.2973 17.1661 0.0417453
51.3408 14.584 0.0366778
48.0558 6.53285 0.0143
49.32 9.34778 0.024577
50.4181 12.0463 0.0289902
59.2834 35.1588 2
45.9631 5.88504 2
43.3747 7.47813 2
57.3009 32.3802 2
55.8872 29.519 2
55.1663 19.3282 2
54.7146 21.7463 2
54.4738 24.2852 2
54.8407 26.8411 2
47.3547 8.63199 2
48.5917 11.3237 2
53.004 18.7866 2
51.2197 18.2173 2
50.5742 16.237 2
49.6805 13.8074 2
56.6192 34.8186 3.97712
54.9394 31.6689 3.97556
53.8008 28.6327 3.97703
53.2193 25.757 3.97451
53.7648 20.2958 3.96077
53.2126 22.9368 3.95827
41.4004 7.08453 3.98334
45.3599 8.00035 3.98668
42.8667 9.4278 3.97609
46.6623 10.6718 3.97831
47.7192 13.1396 3.97295
48.8835 15.478 3.96822
49.9185 17.7986 3.95668
51.5072 19.512 3.97501
50.3358 63.3618 0.0219956
51.2097 60.8716 0.0252711
55.9504 44.021 0.0236166
54.8461 47.709 0.0247875
52.223 58.551 0.0345668
54.1157 57.1895 0.0337013
54.5733 51.2245 0.0341406
53.7535 54.4248 0.0347438
49.5678 61.7202 2
54.6704 41.6159 2
50.4965 59.2621 2
52.0282 56.3991 2
53.3455 45.3398 2
52.699 49.1323 2
52.2782 52.7044 2
48.8042 60.1714 3.97984
51.4216 42.4899 3.98344
49.6777 57.5546 3.96383
50.3278 54.317 3.96133
51.0207 47.0442 3.97565
50.7076 50.7757 3.95462
47.1182 43.5262 3.97317
47.9477 62.4512 0.0176533
47.3042 60.9781 2
46.5799 59.7716 3.99341
41.6623 67.6775 0.0191695
43.3557 65.4911 0.0216921
44.7616 63.424 0.023109
45.9729 61.5546 0.00988743
39.6331 67.7552 2
41.547 65.6271 2
45.7399 60.6009 2
43.1429 63.6991 2
44.472 61.7991 2
44.5966 60.2545 3.99568
42.9424 62.0523 3.97487
41.5987 63.7982 3.97705
39.6469 65.5939 3.97542
37.5633 67.7356 3.97818
31.6985 65.1119 3.97502
33.3933 67.4739 3.97812
35.3341 69.9531 3.98423
37.5259 70.0439 2
37.509 72.4565 3.99192
39.7014 70.018 0.015333
39.8169 72.4023 2
39.9526 74.9197 4
42.1087 72.2056 0.008669
42.3947 74.6792 2
44.8159 74.2794 0
41.7368 4.97105 3.98794
43.8523 5.36114 2
44.3271 3.11176 3.99235
46.5719 3.64835 2
47.2057 1.27793 4
48.7853 4.32451 0.00892623
49.554 1.99013 2
51.8506 2.85458 0
58.3266 42.8162 0.0240224
59.648 39.8061 0.0232099
61.5172 37.4462 0.0230792
59.1388 37.5664 2
57.2504 40.5882 2
54.0688 39.6457 2
55.9719 37.874 3.97684
48.4468 41.2087 3.96982
52.0068 39.2716 3.98158
39.444 6.80784 3.98368
59.2826 35.1595 0.0234396
57.3001 32.3796 0.024439
55.8876 29.5196 0.024029
55.1762 19.3224 0.037865
54.6743 21.746 0.0393335
54.472 24.2781 0.0265821
54.8412 26.8398 0.0245275
52.9926 18.8153 0.0365374
51.2145 18.2251 0.0400641
50.5771 16.2368 0.0392028
45.9626 5.88644 0.0122798
49.6816 13.8025 0.0319955
47.3532 8.63469 0.0195489
48.5895 11.3268 0.0268697
43.3745 7.48064 0.0166259
56.6189 34.8183 2
41.4005 7.08414 2
45.3605 7.9984 2
42.8669 9.4256 2
54.9416 31.6684 2
53.7998 28.6342 2
53.7697 20.3122 2
53.1985 22.9415 2
53.216 25.7574 2
46.6641 10.6664 2
47.7201 13.1351 2
51.5279 19.5101 2
49.9183 17.8046 2
48.8762 15.493 2
53.8986 34.0213 3.97487
52.6332 30.7308 3.9752
51.9136 27.492 3.97507
51.7151 24.3854 3.97832
52.1574 21.2599 3.97594
41.0136 9.0585 3.97708
44.7266 10.0025 3.98563
42.459 10.9117 4.00528
45.9816 12.7471 3.96784
47.6415 14.6544 3.96584
48.0277 17.0535 3.96659
49.7222 19.913 3.98139
49.5692 61.7222 0.0249869
50.5002 59.2593 0.0303295
54.679 41.6201 0.0260123
53.3508 45.3419 0.0256479
52.7021 49.1344 0.0304066
52.0246 56.3949 0.0344283
52.2752 52.7041 0.0401003
48.8009 60.168 2
51.4337 42.5014 2
49.6746 57.5547 2
50.3296 54.3197 2
51.0233 47.0436 2
50.712 50.7754 2
47.1285 43.5601 2
47.9146 58.6829 3.9906
49.1098 45.0702 3.98103
48.4247 55.8371 3.95784
48.7763 52.4652 3.97628
49.0594 48.8497 3.96993
44.8418 39.7654 3.84516
45.3504 42.4538 3.88649
45.6362 45.5176 3.98239
42.6857 40.9885 3.64966
41.4843 41.7351 3.44906
47.3052 60.9818 0.00567984
46.5785 59.7672 2
45.4165 58.766 3.99496
39.632 67.7547 0.020054
41.5459 65.6295 0.0239272
43.1434 63.7004 0.0218242
44.4736 61.7979 0.0209984
45.7397 60.6003 0.00873785
41.599 63.7954 2
37.564 67.7374 2
39.6485 65.5944 2
44.5978 60.2561 2
42.9405 62.0522 2
41.7462 62.4585 3.97683
42.4596 59.9465 3.98334
39.8939 63.5301 3.97638
37.6417 65.4899 3.97468
35.4639 67.6454 3.97813
33.5764 65.3232 3.97425
31.961 63.2704 3.97686
29.8866 64.7016 3.97912
31.698 65.1115 2
31.3784 67.1849 3.97855
33.3929 67.4751 2
33.1578 69.7466 3.98416
35.3336 69.9545 2
35.1959 72.3712 3.99201
37.5258 70.0424 0.0161227
37.5094 72.4571 2
37.5 75 4
39.8161 72.4023 0.00863059
39.9526 74.9197 2
42.3947 74.6792 0
39.6249 4.7187 3.98896
41.7368 4.9705 2
42.0636 2.71878 3.99272
43.852 5.363 0.0129878
44.3271 3.1108 2
44.8158 0.721173 4
46.5715 3.64888 0.00834693
47.2057 1.27779 2
49.554 1.99015 0
57.2487 40.5865 0.0226863
59.1374 37.566 0.0226653
54.0774 39.6373 0.0245304
48.4694 41.2169 2
55.9743 37.8707 2
52.0008 39.2357 2
52.8641 36.6139 3.97757
46.3774 40.2849 3.89262
49.384 38.5015 3.98247
37.518 6.67723 3.98502
39.4446 6.8061 2
39.2115 8.70076 3.98143
35.9441 8.49823 3.98316
56.6192 34.8186 0.0228821
54.9394 31.6689 0.0244358
53.8008 28.6327 0.0229706
53.7648 20.2958 0.0392258
53.2126 22.9368 0.0417306
53.2193 25.757 0.0254871
51.5072 19.512 0.0249935
49.9185 17.7986 0.0433187
48.8835 15.478 0.0317762
45.3599 8.00035 0.0133221
47.7192 13.1396 0.027053
46.6623 10.6718 0.0216868
41.4004 7.08453 0.0166646
42.8667 9.4278 0.0239129
53.8965 34.0174 2
41.0147 9.05994 2
44.7262 9.99968 2
42.4602 10.9132 2
52.6262 30.728 2
51.9223 27.4939 2
52.155 21.2698 2
51.7008 24.3888 2
45.9828 12.7394 2
47.6336 14.6259 2
49.742 19.9018 2
48.0247 17.065 2
51.3883 32.9485 3.98196
50.467 29.4529 3.97727
50.2185 25.9863 3.97001
49.723 22.5132 3.9859
40.5625 11.6204 3.98442
43.8371 11.9161 3.97517
45.7586 15.5044 3.99008
47.4302 19.5276 3.98107
45.2998 37.4835 3.84423
48.8042 60.1714 0.0201647
49.6777 57.5546 0.0361741
51.4216 42.4899 0.0165586
51.0207 47.0442 0.0243495
50.7076 50.7757 0.0453824
50.3278 54.317 0.0386682
47.1182 43.5262 0.0268326
47.9106 58.6886 2
49.1257 45.0859 2
48.4206 55.8394 2
48.7776 52.4707 2
49.0644 48.852 2
44.9464 39.7912 2
45.3785 42.474 2
45.6442 45.5377 2
42.7444 41.0436 2
41.524 41.7598 2
46.7354 57.2883 3.9809
43.3932 39.3477 3.64745
41.8646 40.6829 3.4523
47.3142 47.0957 3.98376
46.9338 54.1398 3.95901
47.1452 50.6059 3.97727
44.1993 47.147 3.98507
44.0011 41.7966 3.84426
44.1342 44.2526 3.87939
41.766 42.376 3.6961
40.5336 42.0228 3.41736
46.5799 59.7716 0.00658574
45.4163 58.7648 2
43.8239 57.6443 3.98328
37.5633 67.7356 0.0218159
39.6469 65.5939 0.0245797
41.5987 63.7982 0.0229502
42.9424 62.0523 0.0251283
44.5966 60.2545 0.00432039
35.464 67.6476 2
41.7445 62.4611 2
39.8932 63.5304 2
37.6427 65.492 2
42.4623 59.9439 2
40.6164 61.5994 3.98261
40.4231 58.1203 3.985
37.8371 63.1861 3.97258
35.573 65.4128 3.97649
33.5765 65.3231 2
31.963 63.274 2
33.6297 63.3141 3.97553
30.3813 62.8333 3.98148
32.1306 61.9731 3.98738
26.8845 61.4489 3.98129
28.0681 64.1306 3.98005
29.8861 64.7016 2
29.4085 66.7476 3.97861
31.6985 65.1119 0.0249764
31.3781 67.1847 2
31.0157 69.4123 3.98403
33.3933 67.4739 0.0218824
33.1571 69.7477 2
32.8941 72.1456 3.99132
35.3341 69.9531 0.0157689
35.1956 72.372 2
35.0474 74.9194 4
37.509 72.4565 0.00807808
37.5 75 2
39.9526 74.9197 0
35.6224 6.72877 3.98412
37.5248 4.61769 3.98932
39.6249 4.71717 2
39.7901 2.4754 3.99283
41.7368 4.97105 0.0120565
42.0633 2.71836 2
42.3946 0.32156 4
44.3271 3.11176 0.00764952
44.8159 0.72056 2
47.2057 1.27793 0
48.4468 41.2087 0.0301759
55.9719 37.874 0.0231648
52.0068 39.2716 0.0184249
46.3972 40.2923 2
49.3825 38.4968 2
52.8693 36.6419 2
50.1905 35.5554 3.97441
47.0313 37.7509 3.89665
44.87 35.1995 3.84422
42.7362 33.9616 3.64938
41.5219 33.2176 3.44796
37.4595 8.53793 3.98432
37.5184 6.67671 2
39.444 6.80784 0.0163164
39.2133 8.69837 2
38.9755 10.1372 3.98603
35.9001 9.78116 3.98008
34.154 8.83025 3.98105
35.945 8.49579 2
53.8986 34.0213 0.0251271
52.6332 30.7308 0.024804
51.9136 27.492 0.0249339
52.1574 21.2599 0.0240612
51.7151 24.3854 0.0216796
49.7222 19.913 0.0186081
48.0277 17.0535 0.033412
47.6415 14.6544 0.0341559
44.7266 10.0025 0.0143654
45.9816 12.7471 0.0321564
41.0136 9.0585 0.022922
42.459 10.9117 -0.0052828
51.4014 32.9403 2
40.5655 11.6244 2
43.8364 11.9076 2
50.4837 29.4538 2
50.2146 25.9949 2
49.7056 22.4947 2
45.746 15.4468 2
47.4336 19.5584 2
48.9786 31.5604 3.98486
48.5797 27.7553 3.97611
48.9823 24.6261 3.98084
47.0487 22.3004 3.99054
38.2987 12.7542 3.97732
42.0793 14.334 3.98127
44.7459 18.6321 3.97327
43.8132 37.4837 3.66145
45.3999 37.4873 2
47.9146 58.6829 0.00940455
48.4247 55.8371 0.0421613
49.1098 45.0702 0.018968
49.0594 48.8497 0.0300693
48.7763 52.4652 0.0237228
44.8418 39.7654 0.15484
45.3504 42.4538 0.113509
45.6362 45.5176 0.0176073
42.6857 40.9885 0.350342
41.4843 41.7351 0.550944
46.7318 57.2947 2
43.47 39.3743 2
41.8748 40.6958 2
47.3223 47.0935 2
46.9285 54.1444 2
47.1477 50.6153 2
44.2347 47.1464 2
44.0658 41.8318 2
44.1922 44.2812 2
41.8213 42.4388 2
40.5691 42.0397 2
45.2626 55.8647 4.00073
42.2082 39.18 3.46288
40.4227 40.5655 3.56229
45.5496 48.7385 4.00149
45.2108 52.3991 3.98657
42.9677 48.1392 3.99326
42.8465 45.7772 3.87519
42.9361 43.5603 3.8295
40.6715 43.3503 3.66945
39.161 42.2803 3.47523
45.4165 58.766 0.00503796
43.8215 57.654 2
42.0465 56.2194 3.98976
35.4639 67.6454 0.0218655
37.6417 65.4899 0.0253223
39.8939 63.5301 0.0236249
41.7462 62.4585 0.0231715
42.4596 59.9465 0.0166602
35.5739 65.4163 2
40.6164 61.5974 2
37.8377 63.1847 2
40.4234 58.1248 2
38.9026 56.3599 3.99407
38.2448 60.2805 3.98226
35.6071 63.1803 3.97221
33.5764 65.3232 0.0257523
31.961 63.2704 0.0231406
33.6318 63.3157 2
30.3828 62.8359 2
32.133 61.9758 2
28.6893 62.1723 3.98009
33.3494 61.4787 3.97941
31.0816 61.2001 3.98627
27.6018 59.5436 3.97853
23.838 59.0163 3.99219
25.0562 60.8144 3.97693
26.8857 61.4499 2
26.2383 63.4604 3.97552
28.0675 64.1288 2
27.4658 66.1705 3.97839
29.8866 64.7016 0.0208829
29.4079 66.7468 2
28.9084 68.9374 3.98295
31.3784 67.1849 0.0214542
31.0148 69.4121 2
30.6171 71.7772 3.99067
33.1578 69.7466 0.015836
32.8932 72.1461 2
32.6054 74.6784 4
35.1959 72.3712 0.00799106
35.0474 74.9197 2
37.5 75 0
33.7255 6.98492 3.98276
35.4369 4.68778 3.98887
35.6229 6.72751 2
37.5159 2.38778 3.99295
37.5247 4.61698 2
39.6249 4.7187 0.0110438
39.7897 2.47458 2
39.9526 0.0806499 4
42.0636 2.71878 0.00727938
42.3947 0.320817 2
44.8158 0.721173 0
43.4146 35.6145 3.65252
41.8902 34.2649 3.43824
46.3774 40.2849 0.10738
49.384 38.5015 0.0175325
52.8641 36.6139 0.0224265
47.0278 37.7318 2
50.204 35.5596 2
44.956 35.1818 2
42.7802 33.9114 2
41.5497 33.1923 2
47.2442 34.371 3.93975
44.0582 33.1636 3.83573
41.8204 32.5787 3.69408
40.5632 32.9391 3.41642
37.3116 10.6354 3.98132
37.4609 8.53794 2
37.518 6.67723 0.0149849
39.2115 8.70076 0.018573
38.9792 10.1351 2
34.7571 10.3911 3.97957
35.9028 9.77611 2
32.3811 9.37666 3.9773
34.1533 8.82593 2
35.9441 8.49823 0.0168394
51.3883 32.9485 0.0180414
50.467 29.4529 0.0227297
50.2185 25.9863 0.0299913
49.723 22.5132 0.0141012
47.4302 19.5276 0.0189299
45.7586 15.5044 0.00992094
43.8371 11.9161 0.0248342
40.5625 11.6204 0.0155829
48.9993 31.544 2
38.3006 12.7492 2
42.0858 14.347 2
48.5793 27.7569 2
48.9746 24.6331 2
47.0343 22.3024 2
44.7513 18.7017 2
46.9119 29.7514 3.98287
46.6659 25.3408 3.97371
44.1936 21.6366 3.98178
36.5861 12.9681 3.97488
38.676 14.871 3.97582
41.7166 17.9654 3.97683
42.378 37.462 3.49917
43.8777 37.4852 2
45.2998 37.4835 0.155769
46.7354 57.2883 0.019096
46.9338 54.1398 0.0409892
47.3142 47.0957 0.0162409
47.1452 50.6059 0.0227324
43.3932 39.3477 0.352545
44.0011 41.7966 0.155744
44.1342 44.2526 0.120614
44.1993 47.147 0.0149321
41.766 42.376 0.303901
41.8646 40.6829 0.547696
40.5336 42.0228 0.582635
45.2589 55.8677 2
42.2149 39.1874 2
40.4668 40.553 2
45.5511 48.7589 2
45.206 52.4018 2
43.0034 48.1547 2
42.906 45.8312 2
42.9844 43.5937 2
40.7171 43.4225 2
39.1544 42.3011 2
43.583 54.3171 3.9976
40.5202 39.0237 3.58493
39.0569 40.6439 3.53175
43.2865 50.23 4.00324
41.6156 47.2807 3.9233
41.5236 44.8734 3.83879
39.3488 43.9994 3.63813
37.5036 42.4056 3.52297
43.8239 57.6443 0.0167198
42.051 56.2119 2
40.36 54.7775 3.99478
35.573 65.4128 0.0235106
37.8371 63.1861 0.0274232
40.6164 61.5994 0.0173908
40.4231 58.1203 0.0150026
35.6087 63.1775 2
38.2431 60.2798 2
38.9054 56.3416 2
37.9762 55.0363 3.99485
36.9255 57.5559 3.99134
35.3646 60.8766 3.98021
33.6297 63.3141 0.0244675
30.3813 62.8333 0.0185244
32.1306 61.9731 0.0126212
33.3511 61.4786 2
28.6904 62.1767 2
31.0838 61.2051 2
29.4275 60.2566 3.9775
32.3691 59.6882 3.99619
28.0757 58.3307 4.0164
27.6035 59.5414 2
25.4271 58.5372 3.97875
22.8283 58.1724 3.96843
23.4269 60.2813 3.9761
23.8403 59.0165 2
25.058 60.8134 2
24.4448 62.739 3.97599
26.8845 61.4489 0.0187058
26.2386 63.4589 2
25.5508 65.4796 3.97696
28.0681 64.1306 0.0199494
27.4655 66.171 2
26.8382 68.3249 3.9826
29.4085 66.7476 0.0213919
28.9076 68.9368 2
28.3724 71.2625 3.98983
31.0157 69.4123 0.0159718
30.616 71.7769 2
30.1842 74.2788 4
32.8941 72.1456 0.00868228
32.6053 74.6792 2
35.0474 74.9194 0
31.7899 7.42438 3.98128
33.3494 4.92754 3.98782
33.7252 6.98242 2
35.2464 2.46363 3.993
35.4367 4.68712 2
35.6224 6.72877 0.0158838
37.5 0 4
37.5151 2.38736 2
37.5248 4.61769 0.0106811
39.7901 2.4754 0.00716834
39.9526 0.0802889 2
42.3946 0.32156 0
42.2028 35.7418 3.44351
43.5001 35.5845 2
40.4696 34.3821 3.56333
41.8913 34.2474 2
47.0313 37.7509 0.103355
50.1905 35.5554 0.0255946
44.87 35.1995 0.15578
42.7362 33.9616 0.350624
41.5219 33.2176 0.552037
47.2767 34.3863 2
44.1038 33.1238 2
41.872 32.5154 2
40.595 32.9222 2
45.3732 31.7978 3.89698
42.9882 31.3987 3.82151
40.717 31.6081 3.66918
39.1787 32.699 3.47076
35.6966 11.7896 3.97613
37.3163 10.6346 2
37.4595 8.53793 0.0156801
38.9755 10.1372 0.0139653
33.1024 11.2294 3.9726
34.7569 10.3831 2
35.9001 9.78116 0.0199231
30.4869 10.0287 3.97688
32.3802 9.37529 2
34.154 8.83025 0.0189533
48.9786 31.5604 0.0151442
48.5797 27.7553 0.0238858
48.9823 24.6261 0.0191603
47.0487 22.3004 0.00946408
44.7459 18.6321 0.0267286
42.0793 14.334 0.0187266
38.2987 12.7542 0.0226808
36.5833 12.9463 2
46.9153 29.6959 2
38.6752 14.8499 2
41.7091 17.9672 2
46.6645 25.3412 2
44.177 21.6148 2
44.9061 27.8919 3.99346
43.5318 24.2778 4.02375
41.2721 20.981 3.99145
35.7709 14.808 3.98063
38.6576 17.6926 3.98371
40.5765 37.4411 3.6032
42.3915 37.4667 2
43.8132 37.4837 0.338549
45.2626 55.8647 -0.000727437
45.2108 52.3991 0.0134327
45.5496 48.7385 -0.00148787
42.2082 39.18 0.537118
42.9361 43.5603 0.170501
42.8465 45.7772 0.124813
42.9677 48.1392 0.00673603
40.6715 43.3503 0.330553
40.4227 40.5655 0.437713
39.161 42.2803 0.524766
43.5797 54.3134 2
40.5364 39.0246 2
39.0542 40.6421 2
43.2783 50.2441 2
41.6154 47.3149 2
41.5463 44.919 2
37.4998 42.4293 2
39.3696 44.072 2
41.7328 52.7765 4.00026
39.0658 39.068 3.53582
37.5063 40.6981 3.57099
35.8547 42.2909 3.47145
40.7667 49.3667 3.99363
39.6945 45.5874 3.80285
37.5011 44.2732 3.67514
42.0465 56.2194 0.0102449
40.3599 54.7858 2
38.7173 53.5673 3.99663
35.6071 63.1803 0.0277881
38.2448 60.2805 0.0177376
38.9026 56.3599 0.00592755
35.3641 60.866 2
36.9272 57.5668 2
37.9757 55.0319 2
36.3139 55.1223 3.99751
34.4933 58.4705 3.99339
33.3494 61.4787 0.0205945
28.6893 62.1723 0.0199071
31.0816 61.2001 0.0137278
32.3685 59.6904 2
29.429 60.2571 2
30.3443 57.7726 3.98711
28.079 58.3283 2
27.0516 56.7759 3.96933
27.6018 59.5436 0.0214663
25.4298 58.5363 2
23.9638 56.7258 3.96024
21.4557 57.3111 3.95836
22.0296 59.5561 3.97959
22.8303 58.1735 2
22.7523 61.9773 3.97293
23.4287 60.2814 2
23.838 59.0163 0.00780725
25.0562 60.8144 0.0230675
24.4457 62.7404 2
23.6872 64.6939 3.97475
26.2383 63.4604 0.0244768
25.5508 65.4811 2
24.8106 67.5863 3.98166
27.4658 66.1705 0.0216132
26.8373 68.3264 2
26.1677 70.6031 3.98951
28.9084 68.9374 0.0170452
28.3711 71.2621 2
27.7943 73.7221 4
30.6171 71.7772 0.00932948
30.1841 74.2794 2
32.6054 74.6784 0
29.8128 8.00063 3.9794
31.2548 5.33428 3.98681
31.7893 7.42288 2
32.9824 2.70183 3.99256
33.3488 4.9261 2
33.7255 6.98492 0.0172394
35.0474 0.080333 4
35.2454 2.46342 2
35.4369 4.68778 0.0111254
37.5 0 2
37.5159 2.38778 0.00704641
39.9526 0.0806499 0
40.5807 35.8885 3.59241
42.2134 35.7423 2
43.4146 35.6145 0.347478
28.5471 10.7029 3.97694
39.0699 34.3349 3.52731
40.4818 34.3876 2
41.8902 34.2649 0.561757
47.2442 34.371 0.0602471
44.0582 33.1636 0.164267
41.8204 32.5787 0.30592
40.5632 32.9391 0.583581
45.4081 31.7797 2
43.0362 31.3602 2
40.7617 31.5352 2
39.1794 32.6769 2
43.7759 30.0358 3.88768
41.5496 30.0776 3.83926
39.378 30.9665 3.63769
37.5318 32.5825 3.52022
34.1004 12.9536 3.97533
35.6968 11.7761 2
37.3116 10.6354 0.0186812
31.1931 12.0011 3.97782
33.103 11.2278 2
34.7571 10.3911 0.0204339
30.4842 10.0233 2
32.3811 9.37666 0.0226995
46.9119 29.7514 0.0171302
46.6659 25.3408 0.0262921
36.5861 12.9681 0.0251159
44.1936 21.6366 0.0182231
41.7166 17.9654 0.0231652
38.676 14.871 0.0241829
35.774 14.8137 2
44.899 27.8894 2
38.6573 17.6964 2
41.2555 20.9709 2
43.5177 24.2588 2
33.6179 15.9117 3.98821
42.6858 26.7224 3.98112
40.7716 23.5865 3.99413
38.3823 20.4766 3.99443
35.8452 17.5769 3.98779
39.0869 37.4864 3.54504
40.5844 37.4465 2
42.378 37.462 0.500829
43.583 54.3171 0.00240095
43.2865 50.23 -0.00324429
40.5202 39.0237 0.41507
41.5236 44.8734 0.161209
41.6156 47.2807 0.0766998
39.3488 43.9994 0.36187
39.0569 40.6439 0.468255
37.5036 42.4056 0.477027
41.7235 52.7772 2
39.0572 39.056 2
37.5008 40.6909 2
40.7465 49.3803 2
35.8567 42.3091 2
39.7139 45.6491 2
37.4964 44.3404 2
39.7066 51.5629 4.00252
37.511 39.0687 3.57796
35.9641 40.6591 3.53308
34.4748 42.0402 3.41911
35.6511 44.017 3.63111
38.6502 48.2415 3.93213
37.5326 45.8814 3.83712
40.36 54.7775 0.00521712
38.716 53.5675 2
36.7686 52.8962 3.9969
35.3646 60.8766 0.0197922
36.9255 57.5559 0.00865919
37.9762 55.0363 0.00515276
34.4916 58.4711 2
36.3175 55.1118 2
33.2781 55.3251 3.99288
32.3691 59.6882 0.0038148
29.4275 60.2566 0.0225048
30.347 57.7675 2
28.8522 55.2807 3.98984
28.0757 58.3307 -0.0164036
27.0551 56.7733 2
25.5052 55.0557 3.95437
22.0246 55.2372 3.96082
25.4271 58.5372 0.021249
23.9669 56.7271 2
20.3311 56.9426 3.96276
20.693 58.7115 3.96412
21.4586 57.3122 2
21.1881 61.1062 3.97251
22.031 59.5573 2
22.8283 58.1724 0.0315681
21.9034 63.8118 3.97398
22.7538 61.9782 2
23.4269 60.2813 0.0239039
24.4448 62.739 0.0240123
23.6871 64.6936 2
22.8393 66.7281 3.97842
25.5508 65.4796 0.0230415
24.8096 67.5868 2
24.012 69.8049 3.98943
26.8382 68.3249 0.0174013
26.1659 70.6033 2
25.446 73.0099 4
28.3724 71.2625 0.010166
27.7943 73.7222 2
30.1842 74.2788 0
27.8227 8.66032 3.97993
29.157 5.88122 3.98494
29.8111 7.99666 2
30.7279 3.09863 3.99225
31.254 5.33286 2
31.7899 7.42438 0.0187218
32.6053 0.320823 4
32.9812 2.70135 2
33.3494 4.92754 0.0121754
35.0474 0.0802903 2
35.2464 2.46363 0.00700275
37.5 0 0
39.0423 35.9121 3.54749
40.562 35.8868 2
42.2028 35.7418 0.556488
28.5445 10.7 2
26.6263 11.4014 3.9773
29.2342 12.6515 3.98124
37.5304 34.2962 3.5708
39.0904 34.3505 2
40.4696 34.3821 0.436671
45.3732 31.7978 0.103024
42.9882 31.3987 0.178486
40.717 31.6081 0.330818
39.1787 32.699 0.529245
43.8052 30.0041 2
41.5784 30.0331 2
39.3904 30.8956 2
37.5352 32.5559 2
41.9705 28.7325 3.86113
39.6999 29.3691 3.82507
37.5291 30.714 3.68072
35.8731 32.6987 3.47765
31.9308 14.5001 3.98158
34.1006 12.9584 2
35.6966 11.7896 0.0238719
31.1906 11.992 2
33.1024 11.2294 0.0274021
30.4869 10.0287 0.0231243
44.9061 27.8919 0.00654052
43.5318 24.2778 -0.0237487
35.7709 14.808 0.019372
41.2721 20.981 0.00854714
38.6576 17.6926 0.0162899
33.6107 15.8944 2
35.8401 17.5668 2
42.7318 26.7004 2
38.3664 20.5291 2
40.7626 23.5738 2
33.5536 17.456 3.9838
40.2067 26.0417 3.96118
38.0271 23.3388 3.99744
35.5523 20.2438 3.99621
37.5191 37.485 3.59366
39.071 37.4773 2
40.5765 37.4411 0.396804
41.7328 52.7765 -0.000262032
40.7667 49.3667 0.00636598
39.0658 39.068 0.464183
39.6945 45.5874 0.197153
37.5011 44.2732 0.324863
37.5063 40.6981 0.42901
35.8547 42.2909 0.528549
39.6872 51.5638 2
37.5122 39.0667 2
35.9605 40.6475 2
38.6694 48.3028 2
34.4445 42.0564 2
35.6331 44.0833 2
37.5217 45.9414 2
37.6817 50.5502 3.9932
35.9807 39.078 3.54735
34.5891 40.5921 3.56624
33.5182 41.7549 3.45168
34.3478 43.3654 3.66176
35.2701 45.6168 3.82396
36.9198 47.8506 3.89657
38.7173 53.5673 0.00337479
36.7632 52.8593 2
34.4688 52.2179 3.99911
34.4933 58.4705 0.00661325
36.3139 55.1223 0.00248601
33.2833 55.333 2
30.6961 53.2418 3.99685
30.3443 57.7726 0.0128882
28.8549 55.2753 2
27.1505 53.3403 3.95699
27.0516 56.7759 0.0306661
25.5092 55.0561 2
23.8845 53.3466 3.95432
20.8486 53.073 3.95823
20.1227 55.7269 3.96149
22.0249 55.2387 2
23.9638 56.7258 0.039755
19.512 57.8146 3.96202
20.3283 56.9446 2
19.729 60.1391 3.97452
20.6924 58.7128 2
21.4557 57.3111 0.0416416
20.2191 62.816 3.97156
21.1893 61.1079 2
22.0296 59.5561 0.0204114
20.9415 65.7536 3.97558
21.9038 63.8152 2
22.7523 61.9773 0.0270676
23.6872 64.6939 0.0252525
22.8384 66.7283 2
21.9148 68.8719 3.98852
24.8106 67.5863 0.0183407
24.0097 69.804 2
23.1494 72.1454 4
26.1677 70.6031 0.0104853
25.446 73.0099 2
27.7943 73.7221 0
25.8622 9.39023 3.97835
27.0717 6.54561 3.98347
27.8202 8.65809 2
28.4904 3.64459 3.99138
29.1557 5.87889 2
29.8128 8.00063 0.0205982
30.1841 0.720592 4
30.7262 3.09833 2
31.2548 5.33428 0.0131864
32.6053 0.320817 2
32.9824 2.70183 0.00744356
35.0474 0.080333 0
37.5145 35.9069 3.57187
39.0252 35.9013 2
40.5807 35.8885 0.407593
24.7846 12.0877 3.97612
23.7702 14.4046 3.97826
28.5471 10.7029 0.0230618
26.6233 11.3973 2
29.2309 12.6501 2
27.3015 13.3868 3.97719
29.7984 14.2105 3.98383
35.972 34.3348 3.53451
37.5387 34.3006 2
39.0699 34.3349 0.472691
37.5318 32.5825 0.479779
43.7759 30.0358 0.112324
41.5496 30.0776 0.160745
39.378 30.9665 0.362312
42.0073 28.6685 2
39.7248 29.3086 2
37.5307 30.6462 2
35.876 32.6818 2
39.8636 28.0017 3.87277
37.4894 29.0963 3.82893
35.6842 30.9842 3.64014
34.4928 32.9518 3.4208
30.949 16.855 3.99343
31.9239 14.4847 2
34.1004 12.9536 0.0246705
31.1931 12.0011 0.0221808
42.6858 26.7224 0.018876
40.7716 23.5865 0.00587293
33.6179 15.9117 0.0117937
35.8452 17.5769 0.0122106
38.3823 20.4766 0.00556639
33.5458 17.4627 2
35.5567 20.2524 2
40.2725 26.0178 2
38.0175 23.305 2
32.9032 19.8672 3.99556
37.6695 25.6769 3.96372
35.2684 22.9929 4.00404
35.9582 37.4803 3.54775
37.509 37.4843 2
39.0869 37.4864 0.454959
39.7066 51.5629 -0.00252077
38.6502 48.2415 0.0678706
37.511 39.0687 0.422036
37.5326 45.8814 0.162878
35.6511 44.017 0.368888
35.9641 40.6591 0.466919
34.4748 42.0402 0.580892
37.6616 50.59 2
36.0042 39.0656 2
34.5468 40.5898 2
36.9105 47.9138 2
33.4798 41.7819 2
34.2982 43.4348 2
35.2492 45.6723 2
35.5679 49.7457 3.98416
34.4834 39.0693 3.58953
33.1457 40.7096 3.44416
33.2352 42.3943 3.70043
33.5175 44.881 3.82802
34.5182 47.0062 3.86927
36.7686 52.8962 0.00310369
34.4558 52.23 2
32.2725 51.0341 4.00756
33.2781 55.3251 0.00712284
30.7004 53.2419 2
28.7573 51.439 3.98102
28.8522 55.2807 0.0101587
27.1532 53.3374 2
25.4701 51.5795 3.95281
25.5052 55.0557 0.0456279
23.8875 53.3536 2
22.4213 51.6335 3.95234
19.7173 51.4607 3.96193
19.2293 54.1783 3.96143
20.8523 53.0711 2
18.5906 56.6324 3.96305
20.1218 55.7281 2
22.0246 55.2372 0.0391765
18.4032 59.0497 3.96405
19.5097 57.8162 2
20.3311 56.9426 0.0372421
18.6333 61.71 3.97164
19.7299 60.1409 2
20.693 58.7115 0.0358798
19.1313 64.6637 3.97422
20.2198 62.8199 2
21.1881 61.1062 0.0274864
19.8891 67.808 3.9859
20.9407 65.753 2
21.9034 63.8118 0.0260243
22.8393 66.7281 0.0215786
21.9119 68.8705 2
20.9142 71.1327 4
24.012 69.8049 0.0105725
23.1494 72.1455 2
25.446 73.0099 0
23.1076 12.8195 3.97688
23.9748 10.1786 3.97535
25.0253 7.31688 3.98174
25.859 9.38789 2
26.2822 4.32869 3.99044
27.0698 6.54442 2
27.8227 8.66032 0.0200749
27.7943 1.27781 4
28.4879 3.64442 2
29.157 5.88122 0.0150569
30.1841 0.720551 2
30.7279 3.09863 0.00775186
32.6053 0.320823 0
35.9614 35.8956 3.53648
37.5386 35.9158 2
39.0423 35.9121 0.452513
24.7806 12.0892 2
23.7702 14.4079 2
22.5059 15.0964 3.97731
25.3714 13.9486 3.97181
24.0607 15.6634 3.98687
26.6263 11.4014 0.0226972
29.2342 12.6515 0.0187607
27.3019 13.3842 2
29.7899 14.2093 2
28.3868 15.977 3.98601
34.609 34.405 3.56123
35.9717 34.3369 2
37.5304 34.2962 0.429202
35.8731 32.6987 0.522355
37.5291 30.714 0.319276
41.9705 28.7325 0.138873
39.6999 29.3691 0.174927
39.8925 27.954 2
37.4895 29.039 2
35.6699 30.9095 2
34.4577 32.9366 2
37.6267 27.7307 3.87074
35.3324 29.3843 3.8232
34.3501 31.6253 3.66803
33.5352 33.2354 3.44944
30.2474 19.4613 3.98057
30.9399 16.8413 2
31.9308 14.5001 0.0184246
40.2067 26.0417 0.0388154
38.0271 23.3388 0.00255808
33.5536 17.456 0.0162008
35.5523 20.2438 0.0037876
32.9043 19.894 2
35.2578 22.9826 2
37.7127 25.657 2
32.4654 22.6083 3.99749
35.151 25.581 3.98944
34.445 37.5047 3.60829
35.9571 37.492 2
37.5191 37.485 0.406344
37.6817 50.5502 0.00680139
36.9198 47.8506 0.103434
35.9807 39.078 0.452651
35.2701 45.6168 0.17604
34.3478 43.3654 0.338244
34.5891 40.5921 0.433759
33.5182 41.7549 0.548319
35.55 49.7599 2
34.4748 39.0684 2
33.1374 40.7222 2
34.4829 47.0664 2
33.1878 42.456 2
33.488 44.9292 2
33.4446 48.849 3.97283
32.8188 39.2219 3.44847
32.3007 41.0096 3.65075
32.0636 43.5758 3.82759
32.7192 45.9979 3.86942
34.4688 52.2179 0.000890043
32.2866 51.0395 2
30.3075 49.586 4.00088
30.6961 53.2418 0.00315387
28.7619 51.4374 2
26.9958 49.8028 3.97486
27.1505 53.3403 0.0430118
25.4719 51.5821 2
23.8782 49.9883 3.9663
23.8845 53.3466 0.0456772
22.4249 51.6313 2
21.0508 50.1187 3.96435
18.492 50.166 3.9705
18.2588 52.6424 3.96449
19.714 51.4599 2
17.6841 55.2293 3.96239
19.2285 54.1778 2
20.8486 53.073 0.0417723
17.2233 57.8028 3.96084
18.5877 56.6335 2
20.1227 55.7269 0.0385084
17.1484 60.4992 3.96599
18.4027 59.0508 2
19.512 57.8146 0.0379833
17.4149 63.4382 3.96893
18.635 61.7109 2
19.729 60.1391 0.0254758
17.9451 66.6154 3.98394
19.1309 64.6619 2
20.2191 62.816 0.0284426
18.75 69.9759 4
19.8861 67.8054 2
20.9415 65.7536 0.0244176
21.9148 68.8719 0.0114793
20.9142 71.1327 2
23.1494 72.1454 0
21.6039 13.6539 3.97429
22.1954 11.0489 3.97302
23.1055 12.8201 2
23.0424 8.18378 3.97889
23.9725 10.1812 2
24.12 5.14357 3.98995
25.0225 7.31563 2
25.8622 9.39023 0.0216493
25.446 1.99014 4
26.2791 4.32939 2
27.0717 6.54561 0.0165296
27.7943 1.27778 2
28.4904 3.64459 0.00862217
30.1841 0.720592 0
34.515 35.932 3.58404
35.9746 35.9111 2
37.5145 35.9069 0.428135
21.3417 15.9006 3.97576
24.7846 12.0877 0.0238797
23.7702 14.4046 0.0217352
25.3702 13.9224 2
22.5075 15.0901 2
24.0647 15.668 2
23.3122 16.3041 3.96581
25.4181 16.1336 3.98667
27.3015 13.3868 0.0228108
29.7984 14.2105 0.0161706
28.3774 15.9932 2
27.4867 18.8959 3.98279
33.1581 34.2883 3.45498
34.5647 34.4173 2
35.972 34.3348 0.465487
34.4928 32.9518 0.579203
35.6842 30.9842 0.359861
37.4894 29.0963 0.171073
39.8636 28.0017 0.127228
37.5981 27.6919 2
33.5013 33.2103 2
35.3289 29.3205 2
34.3053 31.554 2
35.2178 27.8204 3.88382
33.5071 30.0992 3.83025
33.2541 32.5954 3.69847
29.7814 22.0656 4.00725
30.2486 19.4781 2
30.949 16.855 0.00657047
37.6695 25.6769 0.0362756
35.2684 22.9929 -0.00403714
32.9032 19.8672 0.00443975
32.4665 22.5947 2
35.1783 25.5728 2
32.0517 25.8813 4.00809
32.6421 37.5016 3.49719
34.4534 37.4982 2
35.9582 37.4803 0.45225
35.5679 49.7457 0.01584
34.5182 47.0062 0.130732
34.4834 39.0693 0.410474
33.5175 44.881 0.171977
33.2352 42.3943 0.299574
33.1457 40.7096 0.55584
33.4271 48.8495 2
32.8254 39.2312 2
32.2531 41.0627 2
32.6931 46.0515 2
32.01 43.6104 2
31.6584 47.693 3.98256
31.6165 39.3665 3.65285
30.9864 41.8199 3.83947
31.1456 44.6337 3.87948
32.2725 51.0341 -0.0075597
30.3153 49.6163 2
28.4826 47.9772 3.96922
28.7573 51.439 0.0189811
26.996 49.8056 2
25.3011 48.2436 3.96595
25.4701 51.5795 0.0471939
23.8822 49.9867 2
22.3459 48.5627 3.97121
22.4213 51.6335 0.0476598
21.0518 50.1173 2
19.6174 48.9062 3.97378
17.3665 49.1822 3.97518
17.1986 51.2653 3.96956
18.4941 50.1642 2
16.7014 53.7511 3.96573
18.2559 52.6421 2
19.7173 51.4607 0.0380695
16.1292 56.3944 3.96198
17.6839 55.2295 2
19.2293 54.1783 0.0385678
15.7699 59.167 3.962
17.2181 57.8048 2
18.5906 56.6324 0.0369493
15.7938 62.0999 3.96829
17.1504 60.5012 2
18.4032 59.0497 0.0359499
16.0916 65.2975 3.98169
17.4139 63.4427 2
18.6333 61.71 0.0283635
16.6661 68.6801 4
17.9422 66.6124 2
19.1313 64.6637 0.0257821
18.75 69.9759 2
19.8891 67.808 0.0140981
20.9142 71.1327 0
20.2402 14.6605 3.96815
21.6017 13.665 2
20.5382 12.0351 3.97359
21.1458 9.15724 3.97683
22.1924 11.0473 2
23.1076 12.8195 0.0231206
22.0192 6.08212 3.98904
23.0401 8.18463 2
23.9748 10.1786 0.0246528
23.1494 2.85457 4
24.1161 5.14455 2
25.0253 7.31688 0.0182599
25.446 1.99012 2
26.2822 4.32869 0.0095564
27.7943 1.27781 0
32.8088 35.7869 3.46324
34.4945 35.9317 2
35.9614 35.8956 0.463516
21.3456 15.8938 2
20.3598 17.0274 3.96606
22.1454 16.7007 3.96343
25.3714 13.9486 0.0281888
22.5059 15.0964 0.0226881
24.0607 15.6634 0.0131333
25.4199 16.131 2
23.3172 16.2998 2
24.2691 18.5843 3.97105
27.2141 21.6908 3.99386
28.3868 15.977 0.013989
27.4845 18.937 2
32.3381 33.9798 3.64513
33.1519 34.2722 2
34.609 34.405 0.438769
33.5352 33.2354 0.550562
34.3501 31.6253 0.331975
35.3324 29.3843 0.176803
37.6267 27.7307 0.129258
35.2181 27.7729 2
33.1811 32.5318 2
33.4764 30.0559 2
32.9614 28.4638 3.89191
32.0698 31.4131 3.81837
29.1871 24.5607 4.01002
29.7655 22.094 2
30.2474 19.4613 0.0194322
35.151 25.581 0.0105574
32.4654 22.6083 0.00250947
32.04 25.8544 2
30.2103 27.546 3.97626
31.2104 37.4901 3.65811
32.6446 37.501 2
34.445 37.5047 0.391712
33.4446 48.849 0.0271713
32.7192 45.9979 0.130577
32.8188 39.2219 0.551535
32.0636 43.5758 0.172407
32.3007 41.0096 0.349254
31.6093 47.7196 2
31.5365 39.3856 2
30.9334 41.8602 2
31.1012 44.6738 2
29.9181 46.3016 3.98924
30.1552 39.7836 3.84725
29.6669 42.9267 3.89243
30.3075 49.586 -0.000881596
28.4811 47.9797 2
26.7258 46.4083 3.98033
26.9958 49.8028 0.0251439
25.3031 48.2419 2
23.6057 46.8251 3.97321
23.8782 49.9883 0.0336981
22.3465 48.5628 2
20.6336 47.4124 3.97652
21.0508 50.1187 0.0356489
19.6183 48.9045 2
18.209 48.0118 3.97696
16.5986 48.5439 3.97657
17.3666 49.1811 2
16.2603 50.0397 3.97374
15.7084 52.3008 3.96961
17.1999 51.2642 2
18.492 50.166 0.029502
15.0859 54.8878 3.96418
16.7022 53.7507 2
18.2588 52.6424 0.0355096
14.5164 57.6944 3.96119
16.1298 56.3946 2
17.6841 55.2293 0.0376115
14.272 60.6666 3.96698
15.773 59.1676 2
17.2233 57.8028 0.0391627
14.3365 63.8538 3.97748
15.7946 62.1013 2
17.1484 60.4992 0.0340072
14.6715 67.2507 4
16.0892 65.2937 2
17.4149 63.4382 0.0310666
16.6661 68.6801 2
17.9451 66.6154 0.0160575
18.75 69.9759 0
18.9616 15.8421 3.97467
20.242 14.6579 2
18.9922 13.1588 3.97245
21.6039 13.6539 0.0257098
20.5366 12.0349 2
19.3465 10.2485 3.97373
19.994 7.14763 3.98689
21.143 9.15774 2
22.1954 11.0489 0.0269759
20.9142 3.86727 4
22.0148 6.08466 2
23.0424 8.18378 0.0211062
23.1494 2.85451 2
24.12 5.14357 0.0100514
25.446 1.99014 0
31.6439 35.6294 3.64738
32.8104 35.778 2
34.515 35.932 0.415965
21.3417 15.9006 0.0242379
22.1486 16.6936 2
20.3621 17.0237 2
19.377 18.5006 3.9577
21.8446 17.9543 3.97664
25.4181 16.1336 0.0133317
23.3122 16.3041 0.0341886
24.2584 18.6055 2
22.4625 20.0296 3.9766
24.7975 21.5462 3.98823
26.8145 23.8419 3.98509
27.2189 21.6038 2
27.4867 18.8959 0.0172075
31.0376 33.1775 3.84
32.2911 33.9256 2
33.1581 34.2883 0.545023
33.2541 32.5954 0.30153
33.5071 30.0992 0.16975
35.2178 27.8204 0.116178
32.9231 28.431 2
32.0138 31.3681 2
30.8356 29.8419 3.91763
28.4783 26.7272 3.99768
29.1745 24.5555 2
29.7814 22.0656 -0.00725399
32.0517 25.8813 -0.00809308
30.2024 27.5209 2
29.7152 37.4867 3.84537
31.141 37.4882 2
32.6421 37.5016 0.502808
31.6584 47.693 0.0174448
31.1456 44.6337 0.120525
31.6165 39.3665 0.347148
30.9864 41.8199 0.160533
29.9209 46.3075 2
30.0765 39.7997 2
29.6349 42.9521 2
28.2104 44.6289 3.96815
27.9104 40.4982 3.92961
28.4826 47.9772 0.0307802
26.7248 46.4091 2
24.9227 44.9384 3.97943
25.3011 48.2436 0.0340497
23.6048 46.8241 2
21.6677 45.6987 3.97787
22.3459 48.5627 0.0287887
20.6344 47.4112 2
18.9513 46.5663 3.97643
19.6174 48.9062 0.0262194
18.2097 48.0104 2
16.8442 47.5683 3.97622
16.5999 48.5428 2
15.6086 48.8915 3.97552
17.3665 49.1822 0.024824
16.2622 50.0386 2
14.8199 50.879 3.973
14.0559 53.3507 3.96716
15.7095 52.3001 2
17.1986 51.2653 0.0304397
13.3592 56.1179 3.96128
15.0862 54.8876 2
16.7014 53.7511 0.0342686
12.86 59.1061 3.96525
14.5209 57.6941 2
16.1292 56.3944 0.0380227
12.6825 62.2967 3.97555
14.2733 60.6665 2
15.7699 59.167 0.0379968
12.7746 65.6939 4
14.3343 63.8503 2
15.7938 62.0999 0.0317141
14.6714 67.2507 2
16.0916 65.2975 0.0183079
16.6661 68.6801 0
17.7387 17.226 3.96196
18.9616 15.8408 2
17.5288 14.4257 3.96763
20.2402 14.6605 0.0318548
18.992 13.1631 2
17.6446 11.4753 3.97296
20.5382 12.0351 0.0264116
19.3429 10.2493 2
18.0541 8.34122 3.98456
18.75 5.0241 4
19.9891 7.15055 2
21.1458 9.15724 0.0231719
20.9142 3.86727 2
22.0192 6.08212 0.0109614
23.1494 2.85457 0
30.1835 35.2136 3.84569
31.5642 35.6054 2
32.8088 35.7869 0.536765
22.1454 16.7007 0.03657
20.3598 17.0274 0.033945
21.8436 17.9526 2
19.3696 18.494 2
18.2215 20.0577 3.96155
21.0438 19.5003 3.9658
24.2691 18.5843 0.0289487
22.4536 20.0356 2
24.8047 21.5313 2
22.651 21.8765 3.98026
25.0944 23.2766 3.9729
26.0865 26.1006 3.97887
26.8119 23.8359 2
27.2141 21.6908 0.0061426
29.4314 32.5264 3.89247
30.9637 33.1424 2
32.3381 33.9798 0.354869
32.0698 31.4131 0.181628
32.9614 28.4638 0.10809
30.8131 29.8314 2
27.8582 29.3116 4.01342
28.4668 26.7307 2
29.1871 24.5607 -0.01002
30.2103 27.546 0.0237411
28.0669 37.3696 3.89197
29.6392 37.4822 2
31.2104 37.4901 0.341893
29.9181 46.3016 0.0107619
29.6669 42.9267 0.107566
30.1552 39.7836 0.152746
28.2061 44.6836 2
27.8781 40.5002 2
26.3075 43.0159 3.98441
25.1892 39.4334 3.97167
26.7258 46.4083 0.0196672
24.9125 44.9405 2
22.8431 43.7355 3.97517
23.6057 46.8251 0.0267873
21.6646 45.6999 2
19.7341 44.8045 3.97601
20.6336 47.4124 0.0234778
18.9512 46.5667 2
17.2075 46.0676 3.976
18.209 48.0118 0.0230418
16.8453 47.5677 2
15.378 47.5465 3.97583
16.5986 48.5439 0.0234349
15.6105 48.8906 2
14.1308 49.4464 3.97501
16.2603 50.0397 0.0262593
14.8213 50.8782 2
13.1249 51.7976 3.96979
12.2653 54.479 3.96345
14.0563 53.3501 2
15.7084 52.3008 0.030388
11.5483 57.4453 3.96305
13.3601 56.1175 2
15.0859 54.8878 0.0358171
11.1379 60.6215 3.97091
12.8619 59.1053 2
14.5164 57.6944 0.0388124
10.9835 64.0165 4
12.6807 62.2921 2
14.272 60.6666 0.0330243
12.7745 65.694 2
14.3365 63.8538 0.0225177
14.6715 67.2507 0
16.5511 18.7356 3.96164
17.7306 17.2219 2
16.1236 15.8284 3.96402
18.9616 15.8421 0.0253283
17.5292 14.4228 2
16.0285 12.8447 3.96925
18.9922 13.1588 0.0275511
17.6423 11.4844 2
16.2053 9.66569 3.98197
19.3465 10.2485 0.0262666
18.049 8.34632 2
16.6661 6.31991 4
18.75 5.02404 2
19.994 7.14763 0.0131103
20.9142 3.86727 0
28.5776 34.8568 3.89512
30.092 35.1755 2
31.6439 35.6294 0.352616
16.9664 21.4951 3.96766
21.8446 17.9543 0.0233613
19.377 18.5006 0.0422984
21.0324 19.4957 2
18.2223 20.0556 2
20.0561 21.721 3.97184
22.4625 20.0296 0.023402
24.7975 21.5462 0.0117745
22.6494 21.8815 2
25.0852 23.2847 2
23.3988 24.766 3.97176
25.412 28.6996 3.98379
26.0796 26.1072 2
26.8145 23.8419 0.0149127
27.2878 31.8858 3.98154
29.3936 32.504 2
31.0376 33.1775 0.16
30.8356 29.8419 0.0823732
27.8704 29.2868 2
28.4783 26.7272 0.00232381
25.8903 36.8465 3.97296
28.0445 37.3698 2
29.7152 37.4867 0.154633
28.2104 44.6289 0.0318519
27.9104 40.4982 0.0703858
26.2848 43.039 2
25.1623 39.4378 2
24.0642 41.7529 3.98181
22.9075 38.5197 3.97882
24.9227 44.9384 0.0205661
22.8408 43.7365 2
20.6219 42.7579 3.97521
21.6677 45.6987 0.0221319
19.7348 44.8049 2
17.6214 44.2498 3.97541
18.9513 46.5663 0.0235689
17.208 46.0678 2
15.3441 45.9743 3.97559
16.8442 47.5683 0.0237786
15.3793 47.5457 2
13.6623 47.9123 3.97556
15.6086 48.8915 0.0244808
14.1325 49.4455 2
12.3579 50.1816 3.97192
14.8199 50.879 0.0270045
13.1259 51.7968 2
11.2607 52.7937 3.96505
10.3511 55.6997 3.96341
12.2657 54.4784 2
14.0559 53.3507 0.0328368
9.70469 58.8453 3.97242
11.5513 57.4437 2
13.3592 56.1179 0.0387207
9.30605 62.2254 4
11.1366 60.6171 2
12.86 59.1061 0.0347515
10.9835 64.0165 2
12.6825 62.2967 0.0244544
12.7746 65.6939 0
15.3467 20.275 3.96402
16.5546 18.7352 2
14.8019 17.353 3.96248
17.7387 17.226 0.0380384
16.1258 15.827 2
14.4904 14.3246 3.9683
17.5288 14.4257 0.0323663
16.0281 12.8416 2
14.4478 11.1178 3.97936
17.6446 11.4753 0.0270358
16.2007 9.67154 2
14.6715 7.74927 4
18.0541 8.34122 0.0154434
16.6661 6.31988 2
18.75 5.0241 0
26.5363 34.3733 3.97395
28.5603 34.8649 2
30.1835 35.2136 0.154306
18.2344 22.4654 3.97508
15.8729 23.039 3.97169
16.9699 21.4948 2
21.0438 19.5003 0.0341961
18.2215 20.0577 0.0384487
20.0561 21.719 2
20.1877 24.5631 3.97199
22.651 21.8765 0.0197423
25.0944 23.2766 0.0271011
23.3941 24.7673 2
22.7746 28.0392 3.97148
24.8537 31.3893 3.9824
25.4179 28.6857 2
26.0865 26.1006 0.0211302
27.2599 31.8472 2
29.4314 32.5264 0.107527
27.8582 29.3116 -0.0134188
23.6391 36.3041 3.97813
25.8682 36.8411 2
28.0669 37.3696 0.108034
26.3075 43.0159 0.0155921
25.1892 39.4334 0.0283286
24.0425 41.7511 2
22.8931 38.5156 2
21.7409 40.5786 3.97442
21.0834 37.7983 3.97676
22.8431 43.7355 0.0248269
20.6223 42.7579 2
18.1029 42.0049 3.97565
19.7341 44.8045 0.0239943
17.6218 44.25 2
15.3936 44.0975 3.97531
17.2075 46.0676 0.0239985
15.3446 45.9741 2
13.3629 46.2048 3.97563
15.378 47.5465 0.0241674
13.6639 47.9115 2
11.748 48.4835 3.97392
14.1308 49.4464 0.0249925
12.3597 50.1805 2
10.3918 51.0414 3.96646
13.1249 51.7976 0.0302062
11.2614 52.7929 2
9.26228 53.8807 3.96362
8.38819 56.9801 3.97384
10.3555 55.6975 2
12.2653 54.479 0.0365532
7.74927 60.3285 4
9.70335 58.841 2
11.5483 57.4453 0.0369468
9.306 62.2255 2
11.1379 60.6215 0.029092
10.9835 64.0165 0
14.1861 21.8381 3.96769
15.3455 20.2738 2
13.5344 18.9505 3.96214
16.5511 18.7356 0.0383571
14.803 17.3519 2
13.0369 15.9095 3.96825
16.1236 15.8284 0.0359831
14.4927 14.3229 2
12.7857 12.6932 3.97649
16.0285 12.8447 0.0307517
14.4446 11.125 2
12.7746 9.30605 4
16.2053 9.66569 0.0180338
14.6715 7.74924 2
16.6661 6.31991 0
24.2102 33.8858 3.98105
26.5162 34.3738 2
28.5776 34.8568 0.104876
18.1113 24.1991 3.9734
18.2431 22.4659 2
14.7063 24.5671 3.9737
15.8744 23.0387 2
16.9664 21.4951 0.0323433
19.7349 27.4012 3.97392
20.0561 21.721 0.0281636
20.1809 24.5612 2
22.157 30.8508 3.97436
23.3988 24.766 0.0282385
22.7747 28.0415 2
24.8169 31.391 2
25.412 28.6996 0.0162114
27.2878 31.8858 0.0184625
21.1975 35.9652 3.97664
23.6368 36.3035 2
25.8903 36.8465 0.0270449
24.0642 41.7529 0.0181927
22.9075 38.5197 0.0211814
21.7458 40.5817 2
21.0839 37.7977 2
18.8697 38.9791 3.97701
20.6219 42.7579 0.0247882
18.103 42.0049 2
15.3786 41.8527 3.97597
17.6214 44.2498 0.0245933
15.3932 44.0974 2
13.126 44.3169 3.97565
15.3441 45.9743 0.0244086
13.3642 46.2042 2
11.2635 46.6732 3.97551
13.6623 47.9123 0.0244364
11.7502 48.4824 2
9.66198 49.2046 3.96815
12.3579 50.1816 0.02808
10.393 51.0403 2
8.29218 51.9959 3.96384
11.2607 52.7937 0.0349499
9.26387 53.8788 2
7.19732 55.0321 3.9748
6.31991 58.3339 4
8.38694 56.9759 2
10.3511 55.6997 0.0365882
7.74924 60.3285 2
9.70469 58.8453 0.0275758
9.30605 62.2254 0
13.5646 25.4586 3.97619
13.0888 23.3637 3.97078
14.1857 21.8374 2
12.3554 20.5998 3.96377
15.3467 20.275 0.0359832
13.5346 18.9495 2
11.6709 17.5821 3.96577
14.8019 17.353 0.0375198
13.0407 15.9084 2
11.2239 14.3792 3.97239
14.4904 14.3246 0.0316956
12.7836 12.6994 2
10.9835 10.9835 4
14.4478 11.1178 0.0206405
12.7745 9.306 2
14.6715 7.74927 0
21.546 33.5093 3.97624
24.2142 33.8695 2
26.5363 34.3733 0.0260508
16.4378 26.5503 3.97461
18.1146 24.1988 2
18.2344 22.4654 0.0249177
14.7053 24.567 2
15.8729 23.039 0.0283142
19.1377 30.3386 3.9746
19.7352 27.4018 2
20.1877 24.5631 0.028012
22.1757 30.8519 2
22.7746 28.0392 0.0285186
24.8537 31.3893 0.0175984
18.4683 36.0035 3.97778
21.2003 35.9654 2
23.6391 36.3041 0.0218726
21.7409 40.5786 0.0255813
21.0834 37.7983 0.0232424
18.8685 38.9783 2
14.8725 39.1557 3.97692
18.1029 42.0049 0.0243513
15.378 41.8524 2
12.8203 42.2277 3.97598
15.3936 44.0975 0.0246907
13.1265 44.3166 2
10.8516 44.75 3.97621
13.3629 46.2048 0.0243745
11.2662 46.672 2
9.04899 47.2879 3.96949
11.748 48.4835 0.0260762
9.66342 49.2036 2
7.45438 50.0308 3.96398
10.3918 51.0414 0.0335443
8.29186 51.9943 2
6.13786 53.008 3.975
9.26228 53.8807 0.0363765
7.19649 55.0284 2
5.0241 56.25 4
6.31988 58.3339 2
8.38819 56.9801 0.0261641
7.74927 60.3285 0
13.8498 26.9168 3.97576
12.1973 24.861 3.9739
13.564 25.4585 2
11.2852 22.2825 3.96582
13.0891 23.3637 2
14.1861 21.8381 0.0323106
12.3574 20.5996 2
10.4096 19.3316 3.96405
13.5344 18.9505 0.0378627
11.6749 17.5817 2
9.765 16.1625 3.97143
13.0369 15.9095 0.0317519
11.2228 14.3849 2
9.30607 12.7746 4
12.7857 12.6932 0.023512
10.9835 10.9835 2
12.7746 9.30605 0
18.6286 33.195 3.97592
21.544 33.5131 2
24.2102 33.8858 0.0189471
16.0639 29.7641 3.97534
16.4372 26.5501 2
18.1113 24.1991 0.0266049
14.7063 24.5671 0.0263043
19.1358 30.3385 2
19.7349 27.4012 0.0260837
22.157 30.8508 0.0256364
15.5087 36.039 3.97743
18.4682 36.0041 2
21.1975 35.9652 0.0233551
13.0512 37.8281 3.97698
18.8697 38.9791 0.0229872
14.8721 39.1555 2
12.3189 40.1137 3.97651
15.3786 41.8527 0.0240274
12.8205 42.2272 2
10.4517 42.7392 3.976
13.126 44.3169 0.0243541
10.8538 44.749 2
8.52419 45.2958 3.97076
11.2635 46.6732 0.0244918
9.05027 47.2871 2
6.74099 47.9971 3.9642
9.66198 49.2046 0.0318492
7.45293 50.0296 2
5.21442 50.9115 3.97456
8.29218 51.9959 0.0361561
6.13751 53.0052 2
3.86727 54.0858 4
7.19732 55.0321 0.0251953
5.02404 56.25 2
6.31991 58.3339 0
13.3316 29.1198 3.97505
11.6431 26.5551 3.97482
13.8494 26.9169 2
10.337 24.0083 3.96801
12.2002 24.8617 2
13.5646 25.4586 0.0238142
9.27575 21.1485 3.96427
11.2853 22.2825 2
13.0888 23.3637 0.0292233
12.3554 20.5998 0.0362325
10.42 19.3335 2
8.42098 18.0318 3.97345
11.6709 17.5821 0.03423
9.76437 16.1671 2
7.74928 14.6715 4
11.2239 14.3792 0.0276101
9.30602 12.7745 2
10.9835 10.9835 0
15.0487 32.926 3.97624
18.6275 33.1946 2
21.546 33.5093 0.0237587
16.0641 29.7641 2
16.4378 26.5503 0.0253886
19.1377 30.3386 0.0253955
13.3548 36.2219 3.97672
15.5084 36.039 2
18.4683 36.0035 0.0222156
13.0509 37.828 2
11.6412 38.3038 3.97676
14.8725 39.1557 0.0230762
12.3195 40.1136 2
10.0268 40.7324 3.97627
12.8203 42.2277 0.0240174
10.4549 42.7386 2
8.0634 43.2518 3.97221
10.8516 44.75 0.0237904
8.52662 45.295 2
6.14091 45.9032 3.96482
9.04899 47.2879 0.0305105
6.73882 47.9962 2
4.42548 48.7518 3.97421
7.45438 50.0308 0.0360241
5.21448 50.9095 2
2.85457 51.8506 4
6.13786 53.008 0.0250043
3.86727 54.0858 2
5.0241 56.25 0
12.4605 31.314 3.97594
11.0542 28.4729 3.97578
13.3318 29.1198 2
9.55188 25.8332 3.96911
11.6458 26.5558 2
13.8498 26.9168 0.0242384
8.25792 23.0298 3.9645
10.339 24.0088 2
12.1973 24.861 0.026098
7.20312 19.9797 3.97476
9.28209 21.1503 2
11.2852 22.2825 0.0341762
10.4096 19.3316 0.0359542
8.41984 18.0359 2
6.31992 16.6661 4
9.765 16.1625 0.0285733
7.74926 14.6714 2
9.30607 12.7746 0
12.4961 34.328 3.97653
15.0481 32.9267 2
18.6286 33.195 0.0240775
16.0639 29.7641 0.0246607
11.175 36.6208 3.97657
13.3546 36.2219 2
15.5087 36.039 0.0225678
13.0512 37.8281 0.0230224
11.6421 38.3034 2
9.60503 38.8159 3.97658
12.3189 40.1137 0.0234853
10.0299 40.7319 2
7.66524 41.2002 3.97293
10.4517 42.7392 0.0239972
8.06461 43.2512 2
5.65137 43.7666 3.96542
8.52419 45.2958 0.0292375
6.14043 45.9025 2
3.77076 46.5369 3.97432
6.74099 47.9971 0.0357967
4.42601 48.7507 2
1.99014 49.554 4
5.21442 50.9115 0.0254381
2.85451 51.8506 2
3.86727 54.0858 0
11.2628 32.9595 3.97648
10.3597 30.427 3.97596
12.4606 31.3146 2
8.85789 27.7614 3.96967
11.0567 28.4736 2
13.3316 29.1198 0.02495
7.377 24.9866 3.96451
9.55385 25.8339 2
11.6431 26.5551 0.0251844
6.12009 22.0017 3.97535
8.25967 23.0312 2
10.337 24.0083 0.0319868
5.02411 18.75 4
7.20255 19.9833 2
9.27575 21.1485 0.0357274
8.42098 18.0318 0.0265528
6.3199 16.6661 2
7.74928 14.6715 0
10.7571 35.0196 3.97648
12.4955 34.3281 2
15.0487 32.926 0.0237635
9.26055 36.9888 3.97668
11.1761 36.6208 2
13.3548 36.2219 0.0232762
11.6412 38.3038 0.0232355
9.60822 38.8155 2
7.33979 39.1775 3.97298
10.0268 40.7324 0.0237329
7.66749 41.1998 2
5.26625 41.6127 3.96584
8.0634 43.2518 0.0277856
5.65184 43.7659 2
3.24821 44.2815 3.97509
6.14091 45.9032 0.0351814
3.77132 46.5364 2
1.27781 47.2057 4
4.42548 48.7518 0.025793
1.99012 49.554 2
2.85457 51.8506 0
10.3894 33.9077 3.97621
9.63295 32.1859 3.97639
11.2642 32.9599 2
8.19407 29.7181 3.97061
10.3621 30.4278 2
12.4605 31.314 0.0240565
6.61333 27.011 3.96476
8.85982 27.7621 2
11.0542 28.4729 0.0242233
5.17514 24.094 3.97507
7.37578 24.9875 2
9.55188 25.8332 0.0308919
3.86728 20.9142 4
6.11984 22.0043 2
8.25792 23.0298 0.0355043
5.02406 18.75 2
7.20312 19.9797 0.0252401
6.31992 16.6661 0
9.07289 35.2927 3.97686
10.7587 35.0197 2
12.4961 34.328 0.0234725
7.11693 37.2069 3.97262
9.26391 36.9886 2
11.175 36.6208 0.0234345
9.60503 38.8159 0.0234203
7.34243 39.1772 2
4.9933 39.4667 3.96659
7.66524 41.2002 0.0270671
5.26697 41.6123 2
2.85844 42.0017 3.97555
5.65137 43.7666 0.0345788
3.24848 44.2811 2
0.720592 44.8159 4
3.77076 46.5369 0.0256775
1.27778 47.2057 2
1.99014 49.554 0
9.11242 33.7188 3.97691
10.3918 33.9079 2
7.62154 31.6254 3.97142
9.63618 32.1866 2
11.2628 32.9595 0.0235249
5.95274 29.0713 3.96509
8.19566 29.7187 2
10.3597 30.427 0.0240394
4.3623 26.2468 3.97477
6.61075 27.0115 2
8.85789 27.7614 0.0303309
2.85458 23.1494 4
5.17534 24.0956 2
7.377 24.9866 0.0354899
3.86728 20.9142 2
6.12009 22.0017 0.0246495
5.02411 18.75 0
7.06557 35.3118 3.97219
9.0767 35.2927 2
10.7571 35.0196 0.0235213
4.84338 37.3398 3.96706
7.11992 37.2068 2
9.26055 36.9888 0.0233214
7.33979 39.1775 0.0270231
4.99403 39.4665 2
2.60627 39.7133 3.97614
5.26625 41.6127 0.0341638
2.85906 42.0015 2
0.320823 42.3947 4
3.24821 44.2815 0.0249073
0.720551 44.8159 2
1.27781 47.2057 0
7.22904 33.4716 3.97193
9.11616 33.7192 2
10.3894 33.9077 0.0237899
5.42236 31.1349 3.96573
7.62371 31.6257 2
9.63295 32.1859 0.0236142
3.68365 28.4433 3.97479
5.95251 29.0717 2
8.19407 29.7181 0.0293944
1.99015 25.446 4
4.36283 26.2476 2
6.61333 27.011 0.03524
2.85453 23.1494 2
5.17514 24.094 0.0249293
3.86728 20.9142 0
4.85762 35.2522 3.96693
7.06774 35.3119 2
9.07289 35.2927 0.0231429
2.49769 37.4281 3.97704
4.84357 37.3399 2
7.11693 37.2069 0.0273814
4.9933 39.4667 0.0334108
2.60698 39.7137 2
0.080333 39.9526 4
2.85844 42.0017 0.024445
0.320817 42.3947 2
0.720592 44.8159 0
5.05119 33.1913 3.96652
7.23143 33.4719 2
9.11242 33.7188 0.0230863
3.14768 30.6663 3.97546
5.42285 31.1355 2
7.62154 31.6254 0.0285826
1.27793 27.7943 4
3.68426 28.4436 2
5.95274 29.0713 0.0349143
1.99013 25.446 2
4.3623 26.2468 0.0252335
2.85458 23.1494 0
2.54975 35.1589 3.97679
4.85845 35.2526 2
7.06557 35.3118 0.0278106
0 37.5 4
2.49789 37.4285 2
4.84338 37.3398 0.0329376
2.60627 39.7133 0.0238567
0.0802903 39.9526 2
0.320823 42.3947 0
2.76747 32.9058 3.97669
5.05154 33.1918 2
7.22904 33.4716 0.0280701
0.721173 30.1842 4
3.14818 30.6668 2
5.42236 31.1349 0.0342687
1.27779 27.7943 2
3.68365 28.4433 0.0252108
1.99015 25.446 0
0.0806499 35.0474 4
2.55055 35.1594 2
4.85762 35.2522 0.0330692
0 37.5 2
2.49769 37.4281 0.0229581
0.080333 39.9526 0
0.32156 32.6054 4
2.76778 32.9064 2
5.05119 33.1913 0.0334847
0.72056 30.1841 2
3.14768 30.6663 0.0245437
1.27793 27.7943 0
0.0802889 35.0474 2
2.54975 35.1589 0.0232109
0 37.5 0
0.320817 32.6053 2
2.76747 32.9058 0.0233103
0.721173 30.1842 0
0.0806499 35.0474 0
0.32156 32.6054 0
CELLS 1910 17190
8 18 6 25 56 2 0 5 16
8 57 23 6 18 17 4 0 2
8 78 36 9 29 31 11 1 7
8 31 11 1 7 79 37 10 30
8 110 57 18 50 48 17 2 14
8 50 18 56 111 14 2 16 49
8 116 62 22 55 52 20 3 15
8 56 25 67 118 16 5 24 53
8 119 63 23 57 54 21 4 17
8 55 22 63 119 15 3 21 54
8 58 26 68 121 18 6 25 56
8 122 65 26 58 57 23 6 18
8 73 31 7 27 142 79 30 71
8 143 78 29 72 73 31 7 27
8 83 147 76 34 32 74 28 8
8 84 148 78 36 33 75 29 9
8 76 34 8 28 148 84 33 75
8 37 79 150 86 10 30 77 35
8 151 87 36 78 80 38 11 31
8 80 38 11 31 152 88 37 79
8 175 100 42 94 96 44 12 40
8 44 96 176 101 12 40 95 43
8 101 176 98 46 43 95 41 13
8 46 98 178 103 13 41 97 45
8 178 103 45 97 147 83 32 74
8 189 116 55 109 106 52 15 47
8 111 56 118 191 49 16 53 107
8 192 119 57 110 108 54 17 48
8 109 55 119 192 47 15 54 108
8 194 122 58 112 110 57 18 50
8 112 58 121 195 50 18 56 111
8 115 61 19 51 197 124 59 113
8 115 61 125 198 51 19 60 114
8 198 125 62 116 114 60 20 52
8 200 127 64 120 116 62 22 55
8 118 67 132 202 53 24 66 117
8 121 68 133 203 56 25 67 118
8 120 64 128 204 55 22 63 119
8 204 128 65 122 119 63 23 57
8 206 134 68 121 123 69 26 58
8 123 69 26 58 207 131 65 122
8 226 147 74 138 140 76 28 70
8 229 148 75 139 143 78 29 72
8 140 76 28 70 229 148 75 139
8 142 79 30 71 231 150 77 141
8 144 80 31 73 232 152 79 142
8 233 151 78 143 144 80 31 73
8 150 86 35 77 235 154 81 145
8 235 154 81 145 146 82 39 91
8 146 82 39 91 236 155 90 165
8 238 157 83 147 149 85 34 76
8 239 158 84 148 151 87 36 78
8 149 85 34 76 239 158 84 148
8 152 88 37 79 241 160 86 150
8 242 161 87 151 153 89 38 80
8 153 89 38 80 243 162 88 152
8 171 98 41 92 265 178 97 169
8 265 178 97 169 226 147 74 138
8 172 96 40 93 266 176 95 170
8 266 176 95 170 171 98 41 92
8 269 175 94 173 172 96 40 93
8 271 180 99 174 175 100 42 94
8 197 124 59 113 271 180 99 174
8 272 181 100 175 177 102 44 96
8 273 182 101 176 179 104 46 98
8 177 102 44 96 273 182 101 176
8 179 104 46 98 275 184 103 178
8 275 184 103 178 238 157 83 147
8 188 115 51 105 283 197 113 186
8 188 115 198 284 105 51 114 187
8 284 198 116 189 187 114 52 106
8 286 200 120 193 189 116 55 109
8 191 118 202 288 107 53 117 190
8 195 121 203 289 111 56 118 191
8 193 120 204 290 109 55 119 192
8 290 204 122 194 192 119 57 110
8 196 123 58 112 292 207 122 194
8 293 206 121 195 196 123 58 112
8 199 126 61 115 297 211 124 197
8 298 212 127 200 198 125 62 116
8 199 126 212 298 115 61 125 198
8 205 129 64 120 300 214 127 200
8 301 217 130 201 202 132 66 117
8 209 136 168 264 301 217 130 201
8 302 219 132 202 203 133 67 118
8 303 220 133 203 206 134 68 121
8 205 129 215 304 120 64 128 204
8 304 215 131 207 204 128 65 122
8 306 221 134 206 208 135 69 123
8 208 135 69 123 307 218 131 207
8 210 137 167 263 309 223 136 209
8 328 238 147 226 230 149 76 140
8 228 146 91 166 329 236 165 260
8 231 150 77 141 330 235 145 227
8 330 235 145 227 228 146 91 166
8 332 239 148 229 233 151 78 143
8 230 149 76 140 332 239 148 229
8 232 152 79 142 334 241 150 231
8 234 153 80 144 335 243 152 232
8 336 242 151 233 234 153 80 144
8 236 155 90 165 338 245 164 259
8 241 160 86 150 339 246 154 235
8 339 246 154 235 237 156 82 146
8 237 156 82 146 340 247 155 236
8 342 249 157 238 240 159 85 149
8 343 250 158 239 242 161 87 151
8 240 159 85 149 343 250 158 239
8 243 162 88 152 345 252 160 241
8 244 163 253 346 153 89 161 242
8 244 163 89 153 347 254 162 243
8 311 224 261 371 210 137 167 263
8 263 167 262 372 209 136 168 264
8 267 179 98 171 375 275 178 265
8 375 275 178 265 328 238 147 226
8 376 273 176 266 267 179 98 171
8 268 177 96 172 376 273 176 266
8 379 272 175 269 268 177 96 172
8 380 271 174 270 269 175 94 173
8 283 197 113 186 380 271 174 270
8 381 277 180 271 272 181 100 175
8 297 211 124 197 381 277 180 271
8 382 278 181 272 274 183 102 177
8 274 183 102 177 383 279 182 273
8 383 279 182 273 276 185 104 179
8 385 281 184 275 342 249 157 238
8 276 185 104 179 385 281 184 275
8 285 199 115 188 393 297 197 283
8 394 298 200 286 284 198 116 189
8 285 199 298 394 188 115 198 284
8 291 205 120 193 396 300 200 286
8 397 301 201 287 288 202 117 190
8 295 209 264 374 397 301 201 287
8 398 302 202 288 289 203 118 191
8 399 303 203 289 293 206 121 195
8 291 205 304 400 193 120 204 290
8 400 304 207 292 290 204 122 194
8 294 208 123 196 402 307 207 292
8 403 306 206 293 294 208 123 196
8 296 210 263 373 405 309 209 295
8 408 312 213 299 297 211 126 199
8 299 213 313 409 199 126 212 298
8 409 313 214 300 298 212 127 200
8 305 216 129 205 411 315 214 300
8 412 318 217 301 302 219 132 202
8 309 223 136 209 412 318 217 301
8 413 320 219 302 303 220 133 203
8 306 221 321 414 206 134 220 303
8 307 218 131 207 415 316 215 304
8 305 216 316 415 205 129 215 304
8 417 322 221 306 308 222 135 208
8 308 222 135 208 418 319 218 307
8 310 225 137 210 420 325 223 309
8 423 326 224 311 310 225 137 210
8 329 236 165 260 441 338 259 368
8 442 342 238 328 333 240 149 230
8 331 237 146 228 443 340 236 329
8 334 241 150 231 444 339 235 330
8 444 339 235 330 331 237 146 228
8 446 343 239 332 336 242 151 233
8 333 240 149 230 446 343 239 332
8 335 243 152 232 448 345 241 334
8 337 244 153 234 449 347 243 335
8 337 244 346 450 234 153 242 336
8 338 245 164 259 452 349 258 367
8 340 247 155 236 453 350 245 338
8 345 252 160 241 454 351 246 339
8 454 351 246 339 341 248 156 237
8 341 248 156 237 455 352 247 340
8 240 159 251 344 342 249 354 457
8 242 161 253 346 343 250 355 458
8 343 250 355 458 240 159 251 344
8 347 254 162 243 460 357 252 345
8 348 255 358 461 244 163 253 346
8 348 255 163 244 462 359 254 347
8 473 360 257 365 363 256 364 482
8 452 349 258 367 365 257 366 485
8 422 324 369 488 311 224 261 371
8 371 261 370 490 263 167 262 372
8 407 311 371 491 296 210 263 373
8 373 263 372 492 295 209 264 374
8 493 385 275 375 442 342 238 328
8 377 276 179 267 493 385 275 375
8 378 274 177 268 494 383 273 376
8 494 383 273 376 377 276 179 267
8 497 382 272 379 378 274 177 268
8 498 381 271 380 379 272 175 269
8 393 297 197 283 498 381 271 380
8 499 387 277 381 382 278 181 272
8 408 312 211 297 499 387 277 381
8 500 388 278 382 384 280 183 274
8 501 389 279 383 386 282 185 276
8 384 280 183 274 501 389 279 383
8 386 282 185 276 503 391 281 385
8 503 391 281 385 457 354 249 342
8 511 408 299 395 393 297 199 285
8 395 299 409 512 285 199 298 394
8 512 409 300 396 394 298 200 286
8 401 305 205 291 514 411 300 396
8 515 412 301 397 398 302 202 288
8 405 309 209 295 515 412 301 397
8 516 413 302 398 399 303 203 289
8 403 306 414 517 293 206 303 399
8 402 307 207 292 518 415 304 400
8 401 305 415 518 291 205 304 400
8 404 308 208 294 520 418 307 402
8 521 417 306 403 404 308 208 294
8 406 310 210 296 523 420 309 405
8 526 423 311 407 406 310 210 296
8 410 314 213 299 527 424 312 408
8 528 425 315 411 409 313 214 300
8 410 314 425 528 299 213 313 409
8 416 317 216 305 530 427 315 411
8 531 430 318 412 413 320 219 302
8 420 325 223 309 531 430 318 412
8 532 432 320 413 414 321 220 303
8 417 322 433 533 306 221 321 414
8 418 319 218 307 534 428 316 415
8 416 317 428 534 305 216 316 415
8 419 323 434 536 308 222 322 417
8 419 323 222 308 537 431 319 418
8 421 327 225 310 539 438 325 420
8 421 327 439 541 310 225 326 423
8 543 437 324 422 423 326 224 311
8 441 338 259 368 559 452 367 486
8 443 340 236 329 560 453 338 441
8 333 240 344 447 442 342 457 561
8 445 341 237 331 562 455 340 443
8 448 345 241 334 563 454 339 444
8 563 454 339 444 445 341 237 331
8 336 242 346 450 446 343 458 565
8 446 343 458 565 333 240 344 447
8 449 347 243 335 567 460 345 448
8 451 348 244 337 568 462 347 449
8 451 348 461 569 337 244 346 450
8 570 463 349 452 473 360 257 365
8 453 350 245 338 570 463 349 452
8 455 352 247 340 571 464 350 453
8 460 357 252 345 572 465 351 454
8 572 465 351 454 456 353 248 341
8 456 353 248 341 573 466 352 455
8 344 251 356 459 457 354 468 575
8 458 355 469 576 344 251 356 459
8 346 253 358 461 458 355 469 576
8 462 359 254 347 578 471 357 460
8 348 255 359 462 461 358 472 579
8 591 474 360 473 475 361 256 363
8 475 361 256 363 594 477 362 479
8 363 256 364 482 479 362 480 603
8 590 473 365 484 481 363 482 605
8 482 364 257 365 606 483 366 485
8 559 452 367 486 484 365 485 607
8 542 436 487 609 422 324 369 488
8 525 422 488 611 407 311 371 491
8 488 369 489 612 371 261 370 490
8 491 371 490 613 373 263 372 492
8 495 386 276 377 614 503 385 493
8 614 503 385 493 561 457 342 442
8 615 501 383 494 495 386 276 377
8 496 384 274 378 615 501 383 494
8 618 500 382 497 496 384 274 378
8 619 499 381 498 497 382 272 379
8 511 408 297 393 619 499 381 498
8 620 505 387 499 500 388 278 382
8 527 424 312 408 620 505 387 499
8 502 390 506 621 384 280 388 500
8 622 507 389 501 504 392 282 386
8 502 390 280 384 622 507 389 501
8 504 392 282 386 624 509 391 503
8 624 509 391 503 575 468 354 457
8 513 410 299 395 630 527 408 511
8 631 528 411 514 512 409 300 396
8 513 410 528 631 395 299 409 512
8 519 416 305 401 633 530 411 514
8 634 531 412 515 516 413 302 398
8 523 420 309 405 634 531 412 515
8 635 532 413 516 517 414 303 399
8 521 417 533 636 403 306 414 517
8 520 418 307 402 637 534 415 518
8 519 416 534 637 401 305 415 518
8 522 419 308 404 639 537 418 520
8 522 419 536 640 404 308 417 521
8 524 421 310 406 642 539 420 523
8 524 421 541 644 406 310 423 526
8 646 543 422 525 526 423 311 407
8 529 426 314 410 647 544 424 527
8 528 425 545 648 411 315 427 530
8 529 426 545 648 410 314 425 528
8 535 429 317 416 649 546 427 530
8 650 548 430 531 532 432 320 413
8 539 438 325 420 650 548 430 531
8 533 433 550 651 414 321 432 532
8 536 434 551 652 417 322 433 533
8 537 431 319 418 653 547 428 534
8 535 429 547 653 416 317 428 534
8 538 435 552 654 419 323 434 536
8 538 435 323 419 655 549 431 537
8 540 440 327 421 657 556 438 539
8 540 440 557 659 421 327 439 541
8 541 439 555 660 423 326 437 543
8 661 554 436 542 543 437 324 422
8 676 570 452 559 590 473 365 484
8 560 453 338 441 676 570 452 559
8 562 455 340 443 677 571 453 560
8 447 344 459 566 561 457 575 678
8 564 456 341 445 679 573 455 562
8 567 460 345 448 680 572 454 563
8 680 572 454 563 564 456 341 445
8 565 458 576 682 447 344 459 566
8 450 346 461 569 565 458 576 682
8 568 462 347 449 684 578 460 567
8 451 348 462 568 569 461 579 685
8 686 580 463 570 591 474 360 473
8 571 464 350 453 686 580 463 570
8 573 466 352 455 687 581 464 571
8 572 465 582 688 460 357 471 578
8 574 467 582 688 456 353 465 572
8 574 467 353 456 689 583 466 573
8 459 356 470 577 575 468 585 691
8 576 469 586 692 459 356 470 577
8 461 358 472 579 576 469 586 692
8 462 359 471 578 579 472 588 694
8 704 591 473 590 593 475 363 481
8 595 476 592 705 475 361 474 591
8 593 475 363 481 707 594 479 602
8 594 477 362 479 709 598 478 600
8 595 476 361 475 711 597 477 594
8 479 362 480 603 600 478 601 720
8 481 363 482 605 602 479 603 722
8 603 480 364 482 723 604 483 606
8 605 482 365 484 724 606 485 607
8 656 553 608 726 542 436 487 609
8 645 542 609 728 525 422 488 611
8 609 487 610 729 488 369 489 612
8 611 488 612 730 491 371 490 613
8 616 504 386 495 731 624 503 614
8 731 624 503 614 678 575 457 561
8 732 622 501 615 616 504 386 495
8 617 502 384 496 732 622 501 615
8 617 502 621 735 496 384 500 618
8 736 620 499 619 618 500 382 497
8 630 527 408 511 736 620 499 619
8 621 506 626 737 500 388 505 620
8 647 544 424 527 737 626 505 620
8 623 508 627 738 502 390 506 621
8 623 508 390 502 739 628 507 622
8 625 510 628 739 504 392 507 622
8 740 629 509 624 691 585 468 575
8 625 510 392 504 740 629 509 624
8 632 529 410 513 744 647 527 630
8 631 528 648 745 514 411 530 633
8 632 529 648 745 513 410 528 631
8 638 535 416 519 746 649 530 633
8 747 650 531 634 635 532 413 516
8 642 539 420 523 747 650 531 634
8 636 533 651 748 517 414 532 635
8 640 536 652 749 521 417 533 636
8 639 537 418 520 750 653 534 637
8 638 535 653 750 519 416 534 637
8 641 538 419 522 751 655 537 639
8 641 538 654 752 522 419 536 640
8 643 540 421 524 753 657 539 642
8 643 540 659 755 524 421 541 644
8 644 541 660 757 526 423 543 646
8 758 661 542 645 646 543 422 525
8 529 426 544 647 648 545 662 759
8 530 427 545 648 649 546 663 760
8 535 429 546 649 653 547 664 761
8 762 666 548 650 651 550 432 532
8 657 556 438 539 762 666 548 650
8 652 551 668 763 533 433 550 651
8 654 552 669 764 536 434 551 652
8 655 549 431 537 765 665 547 653
8 538 435 549 655 654 552 667 766
8 661 554 671 768 542 436 553 656
8 658 558 440 540 769 674 556 657
8 658 558 675 770 540 440 557 659
8 659 557 673 771 541 439 555 660
8 660 555 672 772 543 437 554 661
8 788 686 570 676 704 591 473 590
8 677 571 453 560 788 686 570 676
8 679 573 455 562 789 687 571 677
8 566 459 577 683 678 575 691 790
8 681 574 456 564 791 689 573 679
8 680 572 688 792 567 460 578 684
8 681 574 688 792 564 456 572 680
8 682 576 692 794 566 459 577 683
8 569 461 579 685 682 576 692 794
8 568 462 578 684 685 579 694 796
8 687 581 464 571 798 696 580 686
8 798 696 580 686 705 592 474 591
8 689 583 466 573 799 697 581 687
8 688 582 698 800 578 471 588 694
8 690 584 698 800 574 467 582 688
8 690 584 467 574 801 699 583 689
8 693 587 701 803 577 470 585 691
8 693 587 470 577 804 702 586 692
8 695 589 702 804 579 472 586 692
8 695 589 472 579 805 703 588 694
8 708 595 705 813 593 475 591 704
8 710 596 706 814 595 476 592 705
8 707 594 479 602 816 709 600 719
8 708 595 475 593 817 711 594 707
8 709 598 478 600 819 715 599 717
8 711 597 477 594 820 714 598 709
8 710 596 476 595 822 713 597 711
8 600 478 601 720 717 599 718 832
8 602 479 603 722 719 600 720 834
8 720 601 480 603 835 721 604 723
8 722 603 482 605 836 723 606 724
8 767 670 725 839 656 553 608 726
8 756 656 726 841 645 542 609 728
8 726 608 727 842 609 487 610 729
8 728 609 729 843 611 488 612 730
8 844 740 624 731 790 691 575 678
8 733 625 504 616 844 740 624 731
8 734 623 502 617 845 739 622 732
8 733 625 739 845 616 504 622 732
8 734 623 738 846 617 502 621 735
8 735 621 737 847 618 500 620 736
8 744 647 527 630 847 737 620 736
8 621 506 627 738 737 626 741 848
8 647 544 626 737 759 662 741 848
8 623 508 628 739 738 627 742 849
8 740 629 585 691 850 743 700 802
8 625 510 629 740 739 628 743 850
8 632 529 647 744 745 648 759 854
8 633 530 648 745 746 649 760 855
8 638 535 649 746 750 653 761 856
8 857 762 650 747 748 651 532 635
8 753 657 539 642 857 762 650 747
8 749 652 763 858 636 533 651 748
8 752 654 764 859 640 536 652 749
8 751 655 537 639 860 765 653 750
8 641 538 655 751 752 654 766 861
8 754 658 540 643 862 769 657 753
8 754 658 770 863 643 540 659 755
8 755 659 771 864 644 541 660 757
8 758 661 768 866 645 542 656 756
8 757 660 772 867 646 543 661 758
8 759 662 773 868 648 545 663 760
8 649 546 663 760 761 664 774 871
8 765 665 547 653 872 775 664 761
8 873 777 666 762 763 668 550 651
8 769 674 556 657 873 777 666 762
8 764 669 779 874 652 551 668 763
8 654 552 667 766 764 669 778 875
8 655 549 665 765 766 667 776 876
8 768 671 782 877 656 553 670 767
8 772 672 783 878 661 554 671 768
8 658 558 674 769 770 675 786 879
8 659 557 675 770 771 673 785 881
8 882 784 672 772 771 673 555 660
8 789 687 571 677 897 798 686 788
8 897 798 686 788 813 705 591 704
8 791 689 573 679 898 799 687 789
8 795 693 803 900 683 577 691 790
8 793 690 574 681 901 801 689 791
8 792 688 800 902 684 578 694 796
8 793 690 800 902 681 574 688 792
8 795 693 577 683 903 804 692 794
8 797 695 804 903 685 579 692 794
8 797 695 579 685 904 805 694 796
8 905 806 697 799 798 696 581 687
8 814 706 806 905 705 592 696 798
8 689 583 697 799 801 699 808 907
8 800 698 809 908 694 588 703 805
8 690 584 699 801 800 698 809 908
8 803 701 810 909 691 585 700 802
8 693 587 702 804 803 701 811 910
8 695 589 703 805 804 702 812 911
8 818 710 814 919 708 595 705 813
8 821 712 815 920 710 596 706 814
8 816 709 600 719 922 819 717 831
8 817 711 594 707 923 820 709 816
8 818 710 595 708 924 822 711 817
8 819 715 599 717 926 827 716 829
8 820 714 598 709 927 826 715 819
8 929 825 713 822 820 714 597 711
8 821 712 596 710 930 824 713 822
8 717 599 718 832 829 716 830 942
8 719 600 720 834 831 717 832 944
8 832 718 601 720 945 833 721 835
8 834 720 603 722 946 835 723 836
8 869 780 838 950 767 670 725 839
8 865 767 839 952 756 656 726 841
8 839 725 840 953 726 608 727 842
8 841 726 842 954 728 609 729 843
8 844 740 691 790 955 850 802 899
8 733 625 740 844 845 739 850 955
8 734 623 739 845 846 738 849 956
8 735 621 738 846 847 737 848 957
8 744 647 737 847 854 759 848 957
8 738 627 742 849 848 741 851 958
8 848 741 851 958 759 662 773 868
8 850 743 700 802 959 852 807 906
8 849 742 628 739 959 852 743 850
8 854 759 868 965 745 648 760 855
8 746 649 760 855 856 761 871 966
8 860 765 653 750 967 872 761 856
8 968 873 762 857 858 763 651 748
8 862 769 657 753 968 873 762 857
8 859 764 874 969 749 652 763 858
8 752 654 766 861 859 764 875 970
8 751 655 765 860 861 766 876 971
8 754 658 769 862 863 770 879 972
8 755 659 770 863 864 771 881 974
8 976 882 772 867 864 771 660 757
8 866 768 877 977 756 656 767 865
8 867 772 878 978 758 661 768 866
8 760 663 773 868 871 774 883 980
8 870 781 837 948 982 890 780 869
8 982 890 780 869 877 782 670 767
8 761 664 774 871 872 775 884 984
8 876 776 665 765 985 885 775 872
8 873 777 668 763 986 887 779 874
8 769 674 777 873 879 786 887 986
8 764 669 778 875 874 779 888 987
8 766 667 776 876 875 778 886 988
8 878 783 892 989 768 671 782 877
8 878 783 672 772 990 893 784 882
8 880 787 675 770 991 896 786 879
8 880 787 895 992 770 675 785 881
8 881 785 894 993 771 673 784 882
8 1006 905 799 898 897 798 687 789
8 919 814 905 1006 813 705 798 897
8 791 689 799 898 901 801 907 1007
8 900 803 909 1009 790 691 802 899
8 795 693 804 903 900 803 910 1010
8 902 800 908 1011 796 694 805 904
8 793 690 801 901 902 800 908 1011
8 797 695 805 904 903 804 911 1012
8 799 697 806 905 907 808 912 1013
8 920 815 912 1013 814 706 806 905
8 802 700 810 909 906 807 913 1014
8 801 699 808 907 908 809 914 1015
8 805 703 809 908 911 812 915 1016
8 803 701 811 910 909 810 916 1017
8 911 812 917 1018 804 702 811 910
8 925 821 920 1030 818 710 814 919
8 928 823 921 1031 821 712 815 920
8 922 819 717 831 1033 926 829 941
8 923 820 709 816 1034 927 819 922
8 1035 929 822 924 923 820 711 817
8 925 821 710 818 1036 930 822 924
8 1038 933 825 929 927 826 714 820
8 926 827 716 829 1039 935 828 939
8 927 826 715 819 1040 934 827 926
8 928 823 712 821 1041 931 824 930
8 1042 932 824 930 929 825 713 822
8 829 716 830 942 939 828 940 1058
8 831 717 832 944 941 829 942 1060
8 942 830 718 832 1061 943 833 945
8 944 832 720 834 1062 945 835 946
8 981 889 947 1064 870 781 837 948
8 948 837 949 1067 869 780 838 950
8 975 869 950 1069 865 767 839 952
8 950 838 951 1070 839 725 840 953
8 952 839 953 1071 841 726 842 954
8 955 850 802 899 1072 959 906 1008
8 956 849 739 845 1072 959 850 955
8 846 738 849 956 957 848 958 1073
8 957 848 958 1073 854 759 868 965
8 849 742 852 959 958 851 961 1076
8 960 853 961 1076 906 807 852 959
8 958 851 961 1076 868 773 883 980
8 960 853 807 906 1077 963 913 1014
8 855 760 868 965 966 871 980 1085
8 856 761 871 966 967 872 984 1086
8 971 876 765 860 1087 985 872 967
8 968 873 763 858 1088 986 874 969
8 862 769 873 968 972 879 986 1088
8 859 764 875 970 969 874 987 1089
8 861 766 876 971 970 875 988 1090
8 973 880 770 863 1091 991 879 972
8 973 880 992 1092 863 770 881 974
8 974 881 993 1093 864 771 882 976
8 979 870 948 1066 1094 982 869 975
8 1094 982 869 975 977 877 767 865
8 978 878 772 867 1095 990 882 976
8 978 878 989 1096 866 768 877 977
8 871 774 883 980 984 884 994 1099
8 983 891 999 1100 870 781 889 981
8 1101 1000 890 982 989 892 782 877
8 983 891 781 870 1101 1000 890 982
8 872 775 884 984 985 885 995 1103
8 876 776 885 985 988 886 996 1104
8 986 887 779 874 1105 998 888 987
8 879 786 887 986 991 896 998 1105
8 875 778 886 988 987 888 997 1106
8 990 893 1002 1107 878 783 892 989
8 1108 1003 893 990 993 894 784 882
8 880 787 896 991 992 895 1005 1109
8 993 894 785 881 1110 1004 895 992
8 898 799 905 1006 1007 907 1013 1120
8 1030 920 1013 1120 919 814 905 1006
8 901 801 907 1007 1011 908 1015 1121
8 899 802 909 1009 1008 906 1014 1122
8 900 803 910 1010 1009 909 1017 1123
8 1012 911 1018 1124 903 804 910 1010
8 904 805 908 1011 1012 911 1016 1125
8 1013 912 1020 1127 907 808 914 1015
8 1031 921 1020 1127 920 815 912 1013
8 1019 918 962 1075 1128 1021 913 1014
8 1128 1021 913 1014 1017 916 810 909
8 1015 914 1022 1129 908 809 915 1016
8 1016 915 1023 1130 911 812 917 1018
8 1018 917 1024 1131 910 811 916 1017
8 1037 928 1031 1148 925 821 920 1030
8 928 823 931 1041 1031 921 1032 1149
8 1033 926 829 941 1151 1039 939 1057
8 1034 927 819 922 1152 1040 926 1033
8 1153 1038 929 1035 1034 927 820 923
8 1154 1042 930 1036 1035 929 822 924
8 1037 928 821 925 1155 1041 930 1036
8 1039 935 828 939 1156 1047 938 1055
8 1157 1043 932 1042 1038 933 825 929
8 1038 933 826 927 1158 1045 934 1040
8 1040 934 827 926 1159 1046 935 1039
8 930 824 932 1042 1041 931 1044 1160
8 1051 936 1048 1165 1175 1052 937 1053
8 1156 1047 938 1055 1053 937 1054 1178
8 939 828 940 1058 1055 938 1056 1181
8 941 829 942 1060 1057 939 1058 1183
8 942 830 943 1061 1058 940 1059 1184
8 1060 942 832 944 1185 1061 945 1062
8 1082 964 1063 1188 981 889 947 1064
8 1097 981 1064 1190 979 870 948 1066
8 1064 947 1065 1191 948 837 949 1067
8 1066 948 1067 1193 975 869 950 1069
8 1067 949 1068 1194 950 838 951 1070
8 1069 950 1070 1195 952 839 953 1071
8 956 849 959 1072 1073 958 1076 1197
8 1074 960 1076 1197 1008 906 959 1072
8 1073 958 1076 1197 965 868 980 1085
8 1074 960 906 1008 1198 1077 1014 1122
8 1133 1026 1079 1199 1019 918 962 1075
8 1077 963 913 1014 1200 1080 962 1075
8 960 853 963 1077 1076 961 1078 1201
8 980 883 961 1076 1099 994 1078 1201
8 1210 1083 964 1082 1100 999 889 981
8 966 871 980 1085 1086 984 1099 1215
8 967 872 984 1086 1087 985 1103 1216
8 971 876 985 1087 1090 988 1104 1217
8 1088 986 874 969 1218 1105 987 1089
8 972 879 986 1088 1091 991 1105 1218
8 970 875 988 1090 1089 987 1106 1219
8 973 880 991 1091 1092 992 1109 1220
8 1093 993 881 974 1221 1110 992 1092
8 1222 1108 990 1095 1093 993 882 976
8 1223 1101 982 1094 1096 989 877 977
8 1098 983 870 979 1223 1101 982 1094
8 1095 990 1107 1224 978 878 989 1096
8 1098 983 1100 1225 979 870 981 1097
8 984 884 994 1099 1103 995 1111 1227
8 1102 1001 1115 1228 983 891 999 1100
8 1101 1000 892 989 1229 1116 1002 1107
8 1102 1001 891 983 1229 1116 1000 1101
8 985 885 995 1103 1104 996 1112 1230
8 988 886 996 1104 1106 997 1113 1231
8 1105 998 888 987 1232 1114 997 1106
8 991 896 998 1105 1109 1005 1114 1232
8 1108 1003 1117 1233 990 893 1002 1107
8 1108 1003 894 993 1233 1117 1004 1110
8 992 895 1005 1109 1110 1004 1118 1234
8 1120 1013 1127 1244 1007 907 1015 1121
8 1148 1031 1127 1244 1030 920 1013 1120
8 1121 1015 1129 1245 1011 908 1016 1125
8 1126 1019 1075 1196 1246 1128 1014 1122
8 1246 1128 1014 1122 1123 1017 909 1009
8 1124 1018 1131 1247 1010 910 1017 1123
8 1125 1016 1130 1248 1012 911 1018 1124
8 1127 1020 1137 1254 1015 914 1022 1129
8 1031 921 1032 1149 1127 1020 1137 1254
8 1134 1027 918 1019 1257 1140 1021 1128
8 1257 1140 1021 1128 1131 1024 916 1017
8 1129 1022 1141 1258 1016 915 1023 1130
8 1130 1023 1142 1259 1018 917 1024 1131
8 1261 1144 1025 1132 1133 1026 1079 1199
8 1255 1138 1025 1132 1135 1028 1144 1261
8 1133 1026 918 1019 1262 1145 1027 1134
8 1136 1029 1139 1256 1263 1146 1028 1135
8 1037 928 1041 1155 1148 1031 1149 1275
8 1041 931 1044 1160 1149 1032 1150 1276
8 1151 1039 939 1057 1278 1156 1055 1180
8 1152 1040 926 1033 1279 1159 1039 1151
8 1153 1038 927 1034 1280 1158 1040 1152
8 1281 1157 1042 1154 1153 1038 929 1035
8 1036 930 1042 1154 1155 1041 1160 1282
8 1283 1164 1046 1159 1156 1047 935 1039
8 1165 1048 1164 1283 1053 937 1047 1156
8 1157 1043 933 1038 1284 1161 1045 1158
8 1157 1043 1161 1284 1042 932 1044 1160
8 1040 934 1046 1159 1158 1045 1163 1285
8 1166 1049 1167 1292 1051 936 1048 1165
8 1166 1049 936 1051 1293 1168 1050 1172
8 1051 936 1052 1175 1172 1050 1173 1306
8 1174 1051 1165 1290 1308 1175 1053 1177
8 1053 937 1054 1178 1175 1052 1176 1309
8 1278 1156 1055 1180 1177 1053 1178 1311
8 1055 938 1056 1181 1178 1054 1179 1312
8 1057 939 1058 1183 1180 1055 1181 1314
8 1058 940 1059 1184 1181 1056 1182 1315
8 1060 942 1061 1185 1183 1058 1184 1316
8 1208 1081 1187 1321 1082 964 1063 1188
8 1209 1082 1188 1322 1097 981 1064 1190
8 1188 1063 1189 1323 1064 947 1065 1191
8 1190 1064 1191 1325 1066 948 1067 1193
8 1191 1065 1192 1326 1067 949 1068 1194
8 1067 1193 1069 950 1194 1327 1195 1070
8 1250 1133 1199 1330 1126 1019 1075 1196
8 1198 1077 1014 1122 1331 1200 1075 1196
8 1074 960 1077 1198 1197 1076 1201 1332
8 1085 980 1076 1197 1215 1099 1201 1332
8 1199 1079 1203 1333 1075 962 1080 1200
8 1132 1025 1119 1243 1199 1079 1203 1333
8 1201 1078 963 1077 1334 1202 1080 1200
8 1099 994 1078 1201 1227 1111 1202 1334
8 1343 1207 1081 1208 1210 1083 964 1082
8 1214 1084 1186 1319 1343 1207 1081 1208
8 1345 1210 1082 1209 1225 1100 981 1097
8 1346 1211 1083 1210 1228 1115 999 1100
8 1086 984 1099 1215 1216 1103 1227 1352
8 1087 985 1103 1216 1217 1104 1230 1353
8 1090 988 1104 1217 1219 1106 1231 1354
8 1218 1105 987 1089 1355 1232 1106 1219
8 1091 991 1105 1218 1220 1109 1232 1355
8 1092 992 1109 1220 1221 1110 1234 1356
8 1222 1108 1233 1357 1095 990 1107 1224
8 1222 1108 993 1093 1357 1233 1110 1221
8 1223 1101 989 1096 1358 1229 1107 1224
8 1226 1102 983 1098 1358 1229 1101 1223
8 1226 1102 1228 1359 1098 983 1100 1225
8 1103 995 1111 1227 1230 1112 1235 1360
8 1107 1002 1117 1233 1229 1116 1240 1362
8 1102 1001 1116 1229 1228 1115 1240 1362
8 1104 996 1112 1230 1231 1113 1236 1363
8 1364 1237 1114 1232 1231 1113 997 1106
8 1109 1005 1114 1232 1234 1118 1238 1365
8 1110 1004 1118 1234 1233 1117 1241 1366
8 1242 1374 1255 1138 1119 1243 1132 1025
8 1244 1127 1254 1376 1121 1015 1129 1245
8 1148 1031 1149 1275 1244 1127 1254 1376
8 1245 1129 1258 1377 1125 1016 1130 1248
8 1251 1134 1019 1126 1378 1257 1128 1246
8 1378 1257 1128 1246 1247 1131 1017 1123
8 1248 1130 1259 1379 1124 1018 1131 1247
8 1261 1381 1250 1133 1132 1249 1330 1199
8 1255 1380 1252 1135 1132 1249 1381 1261
8 1250 1133 1019 1126 1382 1262 1134 1251
8 1253 1136 1256 1385 1384 1263 1135 1252
8 1254 1137 1265 1387 1129 1022 1141 1258
8 1149 1032 1150 1276 1254 1137 1265 1387
8 1028 1135 1255 1138 1139 1256 1388 1266
8 1136 1029 1147 1264 1256 1139 1267 1389
8 1390 1268 1140 1257 1259 1142 1024 1131
8 1260 1143 1027 1134 1390 1268 1140 1257
8 1258 1141 1269 1391 1130 1023 1142 1259
8 1262 1145 1027 1134 1393 1271 1143 1260
8 1261 1144 1026 1133 1394 1272 1145 1262
8 1135 1028 1144 1261 1263 1146 1272 1394
8 1136 1029 1146 1263 1264 1147 1273 1395
8 1155 1041 1160 1282 1275 1149 1276 1405
8 1276 1150 1044 1160 1406 1277 1162 1286
8 1408 1283 1159 1279 1278 1156 1039 1151
8 1290 1165 1283 1408 1177 1053 1156 1278
8 1152 1040 1159 1279 1280 1158 1285 1409
8 1281 1157 1038 1153 1410 1284 1158 1280
8 1281 1157 1284 1410 1154 1042 1160 1282
8 1159 1046 1164 1283 1285 1163 1289 1412
8 1292 1167 1289 1412 1165 1048 1164 1283
8 1158 1045 1163 1285 1284 1161 1288 1413
8 1284 1161 1288 1413 1160 1044 1162 1286
8 1291 1166 1292 1418 1174 1051 1165 1290
8 1291 1166 1051 1174 1419 1293 1172 1305
8 1294 1169 1296 1421 1166 1049 1167 1292
8 1293 1168 1050 1172 1422 1295 1171 1303
8 1294 1169 1049 1166 1423 1297 1168 1293
8 1422 1295 1171 1303 1301 1170 1302 1435
8 1172 1050 1173 1306 1303 1171 1304 1438
8 1174 1051 1175 1308 1305 1172 1306 1440
8 1175 1052 1176 1309 1306 1173 1307 1441
8 1177 1053 1178 1311 1308 1175 1309 1443
8 1178 1054 1179 1312 1309 1176 1310 1444
8 1180 1055 1181 1314 1311 1178 1312 1446
8 1056 1181 1312 1179 1182 1315 1447 1313
8 1183 1058 1184 1316 1314 1181 1315 1448
8 1319 1186 1084 1214 1451 1317 1213 1350
8 1319 1186 1318 1453 1208 1081 1187 1321
8 1321 1187 1320 1456 1188 1063 1189 1323
8 1344 1208 1321 1457 1209 1082 1188 1322
8 1322 1188 1323 1458 1190 1064 1191 1325
8 1323 1189 1324 1459 1191 1065 1192 1326
8 1191 1325 1193 1067 1326 1460 1327 1194
8 1242 1374 1243 1119 1328 1462 1335 1204
8 1330 1199 1333 1465 1196 1075 1200 1331
8 1132 1249 1330 1199 1243 1375 1465 1333
8 1332 1201 1077 1198 1466 1334 1200 1331
8 1215 1099 1201 1332 1352 1227 1334 1466
8 1119 1243 1333 1203 1204 1335 1470 1338
8 1333 1203 1338 1470 1200 1080 1202 1334
8 1227 1111 1202 1334 1360 1235 1338 1470
8 1328 1462 1335 1204 1205 1336 1471 1339
8 1337 1206 1340 1472 1464 1329 1205 1336
8 1346 1211 1342 1479 1210 1083 1207 1343
8 1346 1211 1115 1228 1479 1342 1239 1361
8 1348 1212 1084 1214 1479 1342 1207 1343
8 1480 1343 1208 1344 1345 1210 1082 1209
8 1351 1214 1319 1454 1480 1343 1208 1344
8 1481 1346 1210 1345 1359 1228 1100 1225
8 1348 1212 1347 1483 1214 1084 1213 1350
8 1216 1103 1227 1352 1353 1230 1360 1488
8 1217 1104 1230 1353 1354 1231 1363 1489
8 1490 1364 1232 1355 1354 1231 1106 1219
8 1220 1109 1232 1355 1356 1234 1365 1491
8 1221 1110 1234 1356 1357 1233 1366 1492
8 1224 1107 1233 1357 1358 1229 1362 1493
8 1226 1102 1229 1358 1359 1228 1362 1493
8 1230 1112 1235 1360 1363 1236 1367 1496
8 1361 1239 1115 1228 1497 1371 1240 1362
8 1366 1241 1372 1498 1233 1117 1240 1362
8 1364 1237 1113 1231 1499 1368 1236 1363
8 1364 1237 1368 1499 1232 1114 1238 1365
8 1234 1118 1238 1365 1366 1241 1369 1500
8 1507 1373 1242 1374 1388 1266 1138 1255
8 1508 1374 1243 1375 1380 1255 1132 1249
8 1376 1254 1387 1509 1245 1129 1258 1377
8 1275 1149 1276 1405 1376 1254 1387 1509
8 1377 1258 1391 1510 1248 1130 1259 1379
8 1511 1390 1257 1378 1379 1259 1131 1247
8 1383 1260 1134 1251 1511 1390 1257 1378
8 1252 1135 1256 1385 1380 1255 1388 1512
8 1261 1381 1513 1394 1133 1250 1382 1262
8 1135 1252 1384 1263 1261 1381 1513 1394
8 1382 1262 1134 1251 1514 1393 1260 1383
8 1253 1136 1263 1384 1386 1264 1395 1516
8 1253 1136 1264 1386 1385 1256 1389 1517
8 1387 1265 1397 1519 1258 1141 1269 1391
8 1276 1150 1277 1406 1387 1265 1397 1519
8 1256 1139 1267 1389 1388 1266 1398 1520
8 1264 1147 1274 1396 1389 1267 1399 1521
8 1392 1270 1143 1260 1522 1400 1268 1390
8 1390 1268 1142 1259 1522 1400 1269 1391
8 1392 1270 1401 1523 1260 1143 1271 1393
8 1272 1394 1524 1402 1145 1262 1393 1271
8 1395 1273 1146 1263 1524 1402 1272 1394
8 1273 1395 1264 1147 1403 1526 1396 1274
8 1405 1276 1160 1282 1534 1406 1286 1411
8 1414 1287 1407 1535 1286 1162 1277 1406
8 1279 1159 1283 1408 1409 1285 1412 1537
8 1418 1292 1412 1537 1290 1165 1283 1408
8 1280 1158 1285 1409 1410 1284 1413 1538
8 1410 1284 1413 1538 1282 1160 1286 1411
8 1285 1163 1289 1412 1413 1288 1417 1540
8 1421 1296 1417 1540 1292 1167 1289 1412
8 1414 1287 1162 1286 1541 1416 1288 1413
8 1420 1294 1421 1545 1291 1166 1292 1418
8 1419 1293 1172 1305 1546 1422 1303 1437
8 1420 1294 1166 1291 1547 1423 1293 1419
8 1294 1169 1297 1423 1421 1296 1425 1548
8 1423 1297 1168 1293 1549 1424 1295 1422
8 1301 1170 1298 1427 1422 1295 1424 1549
8 1432 1300 1428 1554 1301 1170 1298 1427
8 1431 1299 1428 1554 1560 1430 1300 1432
8 1563 1433 1300 1432 1435 1302 1170 1301
8 1546 1422 1303 1437 1434 1301 1435 1565
8 1303 1171 1304 1438 1435 1302 1436 1566
8 1305 1172 1306 1440 1437 1303 1438 1568
8 1306 1173 1307 1441 1438 1304 1439 1569
8 1308 1175 1309 1443 1440 1306 1441 1571
8 1309 1176 1310 1444 1441 1307 1442 1572
8 1311 1178 1312 1446 1443 1309 1444 1574
8 1179 1312 1444 1310 1313 1447 1575 1445
8 1314 1181 1315 1448 1446 1312 1447 1576
8 1350 1213 1349 1486 1451 1317 1449 1579
8 1451 1317 1450 1581 1319 1186 1318 1453
8 1454 1319 1214 1351 1582 1451 1350 1487
8 1453 1318 1452 1584 1321 1187 1320 1456
8 1454 1319 1453 1585 1344 1208 1321 1457
8 1456 1320 1455 1586 1323 1189 1324 1459
8 1457 1321 1456 1587 1322 1188 1323 1458
8 1458 1323 1459 1588 1325 1191 1326 1460
8 1205 1336 1464 1329 1328 1462 1590 1461
8 1507 1373 1461 1590 1374 1242 1328 1462
8 1508 1374 1462 1591 1375 1243 1335 1467
8 1337 1206 1329 1464 1473 1341 1463 1594
8 1375 1243 1335 1467 1465 1333 1470 1596
8 1465 1333 1470 1596 1331 1200 1334 1466
8 1352 1227 1334 1466 1488 1360 1470 1596
8 1591 1462 1336 1468 1467 1335 1471 1597
8 1469 1337 1472 1598 1595 1464 1336 1468
8 1471 1339 1474 1600 1335 1204 1338 1470
8 1600 1474 1367 1496 1470 1338 1235 1360
8 1336 1205 1340 1472 1471 1339 1475 1601
8 1337 1206 1341 1473 1472 1340 1476 1602
8 1495 1370 1478 1609 1361 1239 1342 1479
8 1348 1212 1342 1479 1483 1347 1478 1609
8 1481 1346 1479 1610 1345 1210 1343 1480
8 1481 1346 1228 1359 1610 1479 1361 1494
8 1484 1348 1214 1351 1610 1479 1343 1480
8 1483 1347 1482 1612 1350 1213 1349 1486
8 1484 1348 1483 1613 1351 1214 1350 1487
8 1353 1230 1360 1488 1489 1363 1496 1616
8 1490 1364 1231 1354 1617 1499 1363 1489
8 1490 1364 1499 1617 1355 1232 1365 1491
8 1356 1234 1365 1491 1492 1366 1500 1619
8 1492 1366 1498 1620 1357 1233 1362 1493
8 1494 1361 1228 1359 1621 1497 1362 1493
8 1495 1370 1239 1361 1622 1504 1371 1497
8 1363 1236 1367 1496 1499 1368 1501 1623
8 1497 1371 1240 1362 1624 1505 1372 1498
8 1625 1503 1372 1498 1500 1369 1241 1366
8 1365 1238 1368 1499 1500 1369 1502 1626
8 1520 1398 1506 1633 1388 1266 1373 1507
8 1634 1507 1374 1508 1512 1388 1255 1380
8 1509 1387 1519 1635 1377 1258 1391 1510
8 1405 1276 1406 1534 1509 1387 1519 1635
8 1515 1392 1260 1383 1636 1522 1390 1511
8 1511 1390 1259 1379 1636 1522 1391 1510
8 1385 1256 1389 1517 1512 1388 1520 1637
8 1513 1394 1262 1382 1638 1524 1393 1514
8 1395 1516 1638 1524 1263 1384 1513 1394
8 1515 1392 1523 1639 1383 1260 1393 1514
8 1516 1395 1526 1640 1386 1264 1396 1518
8 1386 1264 1396 1518 1517 1389 1521 1641
8 1519 1397 1527 1643 1391 1269 1400 1522
8 1535 1407 1527 1643 1406 1277 1397 1519
8 1389 1267 1399 1521 1520 1398 1528 1644
8 1645 1529 1399 1521 1525 1404 1274 1396
8 1392 1270 1400 1522 1523 1401 1531 1646
8 1524 1402 1271 1393 1648 1532 1401 1523
8 1403 1526 1648 1532 1273 1395 1524 1402
8 1525 1404 1274 1396 1649 1533 1403 1526
8 1539 1414 1535 1657 1411 1286 1406 1534
8 1542 1415 1536 1658 1414 1287 1407 1535
8 1409 1285 1412 1537 1538 1413 1540 1660
8 1545 1421 1540 1660 1418 1292 1412 1537
8 1539 1414 1286 1411 1661 1541 1413 1538
8 1540 1417 1544 1663 1413 1288 1416 1541
8 1421 1296 1425 1548 1540 1417 1544 1663
8 1542 1415 1287 1414 1664 1543 1416 1541
8 1420 1294 1423 1547 1545 1421 1548 1666
8 1547 1423 1293 1419 1667 1549 1422 1546
8 1434 1301 1427 1553 1546 1422 1549 1667
8 1423 1297 1424 1549 1548 1425 1550 1668
8 1551 1426 1550 1668 1427 1298 1424 1549
8 1551 1426 1298 1427 1671 1552 1428 1554
8 1562 1432 1554 1674 1434 1301 1427 1553
8 1431 1299 1429 1558 1554 1428 1555 1675
8 1431 1299 1430 1560 1558 1429 1557 1680
8 1560 1430 1300 1432 1683 1559 1433 1563
8 1561 1431 1554 1674 1684 1560 1432 1562
8 1685 1563 1432 1562 1565 1435 1301 1434
8 1435 1302 1436 1566 1563 1433 1564 1686
8 1437 1303 1438 1568 1565 1435 1566 1688
8 1438 1304 1439 1569 1566 1436 1567 1689
8 1440 1306 1441 1571 1568 1438 1569 1691
8 1441 1307 1442 1572 1569 1439 1570 1692
8 1443 1309 1444 1574 1571 1441 1572 1694
8 1310 1444 1572 1442 1445 1575 1695 1573
8 1446 1312 1447 1576 1574 1444 1575 1696
8 1486 1349 1485 1614 1579 1449 1577 1699
8 1451 1317 1449 1579 1581 1450 1578 1701
8 1487 1350 1486 1615 1582 1451 1579 1702
8 1581 1450 1580 1704 1453 1318 1452 1584
8 1582 1451 1581 1705 1454 1319 1453 1585
8 1584 1452 1583 1706 1456 1320 1455 1586
8 1585 1453 1584 1707 1457 1321 1456 1587
8 1587 1456 1586 1708 1458 1323 1459 1588
8 1633 1506 1589 1710 1507 1373 1461 1590
8 1464 1329 1461 1590 1594 1463 1589 1710
8 1468 1336 1462 1591 1595 1464 1590 1711
8 1634 1507 1590 1711 1508 1374 1462 1591
8 1473 1341 1463 1594 1603 1477 1593 1716
8 1469 1337 1464 1595 1599 1473 1594 1717
8 1471 1597 1467 1335 1600 1718 1596 1470
8 1718 1600 1496 1616 1596 1470 1360 1488
8 1336 1468 1597 1471 1472 1598 1719 1601
8 1469 1337 1473 1599 1598 1472 1602 1720
8 1722 1604 1501 1623 1600 1474 1367 1496
8 1475 1601 1471 1339 1604 1722 1600 1474
8 1602 1476 1605 1723 1472 1340 1475 1601
8 1476 1602 1724 1606 1341 1473 1603 1477
8 1483 1347 1478 1609 1612 1482 1608 1731
8 1495 1370 1504 1622 1609 1478 1608 1731
8 1618 1495 1609 1732 1494 1361 1479 1610
8 1484 1348 1479 1610 1613 1483 1609 1732
8 1486 1349 1482 1612 1614 1485 1611 1733
8 1613 1483 1612 1734 1487 1350 1486 1615
8 1489 1363 1496 1616 1617 1499 1623 1736
8 1491 1365 1499 1617 1619 1500 1626 1737
8 1618 1495 1361 1494 1738 1622 1497 1621
8 1739 1625 1498 1620 1619 1500 1366 1492
8 1621 1497 1362 1493 1740 1624 1498 1620
8 1742 1631 1504 1622 1624 1505 1371 1497
8 1743 1628 1502 1626 1623 1501 1368 1499
8 1744 1630 1505 1624 1625 1503 1372 1498
8 1745 1629 1503 1625 1626 1502 1369 1500
8 1520 1398 1528 1644 1633 1506 1632 1751
8 1637 1520 1633 1752 1512 1388 1507 1634
8 1635 1519 1643 1753 1510 1391 1522 1636
8 1657 1535 1643 1753 1534 1406 1519 1635
8 1515 1392 1522 1636 1639 1523 1646 1754
8 1517 1389 1521 1641 1637 1520 1644 1755
8 1524 1638 1756 1648 1393 1514 1639 1523
8 1640 1526 1395 1516 1756 1648 1524 1638
8 1642 1525 1396 1518 1757 1649 1526 1640
8 1758 1645 1521 1641 1642 1525 1396 1518
8 1646 1531 1400 1522 1760 1650 1527 1643
8 1535 1407 1536 1658 1643 1527 1650 1760
8 1521 1399 1529 1645 1644 1528 1651 1761
8 1647 1530 1652 1762 1525 1404 1529 1645
8 1401 1523 1648 1532 1531 1646 1763 1655
8 1525 1404 1533 1649 1647 1530 1654 1765
8 1533 1649 1766 1656 1403 1526 1648 1532
8 1662 1542 1658 1774 1539 1414 1535 1657
8 1542 1415 1543 1664 1658 1536 1659 1775
8 1660 1540 1663 1777 1538 1413 1541 1661
8 1545 1421 1548 1666 1660 1540 1663 1777
8 1662 1542 1414 1539 1778 1664 1541 1661
8 1664 1543 1416 1541 1779 1665 1544 1663
8 1548 1425 1550 1668 1663 1544 1665 1779
8 1547 1423 1549 1667 1666 1548 1668 1781
8 1670 1551 1668 1781 1553 1427 1549 1667
8 1551 1426 1552 1671 1668 1550 1669 1782
8 1670 1551 1427 1553 1784 1671 1554 1674
8 1675 1555 1672 1785 1554 1428 1552 1671
8 1678 1556 1673 1789 1558 1429 1555 1675
8 1561 1431 1558 1681 1674 1554 1675 1790
8 1794 1677 1556 1678 1680 1557 1429 1558
8 1560 1430 1559 1683 1680 1557 1679 1797
8 1561 1431 1560 1684 1681 1558 1680 1798
8 1563 1433 1564 1686 1683 1559 1682 1800
8 1684 1560 1432 1562 1801 1683 1563 1685
8 1565 1435 1566 1688 1685 1563 1686 1802
8 1566 1436 1567 1689 1686 1564 1687 1803
8 1568 1438 1569 1691 1688 1566 1689 1805
8 1569 1439 1570 1692 1689 1567 1690 1806
8 1571 1441 1572 1694 1691 1569 1692 1808
8 1442 1572 1692 1570 1573 1695 1809 1693
8 1574 1444 1575 1696 1694 1572 1695 1810
8 1614 1485 1592 1712 1699 1577 1697 1813
8 1579 1449 1577 1699 1701 1578 1698 1815
8 1615 1486 1614 1735 1702 1579 1699 1816
8 1701 1578 1700 1818 1581 1450 1580 1704
8 1582 1451 1579 1702 1705 1581 1701 1819
8 1704 1580 1703 1820 1584 1452 1583 1706
8 1705 1581 1704 1821 1585 1453 1584 1707
8 1707 1584 1706 1822 1587 1456 1586 1708
8 1710 1589 1506 1633 1824 1709 1632 1751
8 1594 1463 1589 1710 1716 1593 1709 1824
8 1752 1633 1710 1825 1634 1507 1590 1711
8 1595 1464 1590 1711 1717 1594 1710 1825
8 1830 1714 1592 1712 1733 1611 1485 1614
8 1603 1477 1593 1716 1725 1607 1715 1834
8 1599 1473 1594 1717 1721 1603 1716 1835
8 1837 1722 1623 1736 1718 1600 1496 1616
8 1719 1601 1722 1837 1597 1471 1600 1718
8 1602 1720 1598 1472 1723 1838 1719 1601
8 1720 1602 1473 1599 1839 1724 1603 1721
8 1723 1605 1726 1840 1601 1475 1604 1722
8 1840 1726 1628 1743 1722 1604 1501 1623
8 1724 1606 1727 1841 1602 1476 1605 1723
8 1725 1607 1728 1842 1603 1477 1606 1724
8 1612 1482 1608 1731 1733 1611 1730 1849
8 1741 1627 1730 1849 1622 1504 1608 1731
8 1613 1483 1609 1732 1734 1612 1731 1850
8 1618 1495 1622 1738 1732 1609 1731 1850
8 1615 1486 1612 1734 1735 1614 1733 1851
8 1852 1743 1626 1737 1736 1623 1499 1617
8 1853 1745 1625 1739 1737 1626 1500 1619
8 1855 1742 1622 1738 1740 1624 1497 1621
8 1856 1744 1624 1740 1739 1625 1498 1620
8 1741 1627 1504 1622 1857 1746 1631 1742
8 1742 1631 1505 1624 1858 1749 1630 1744
8 1859 1747 1629 1745 1743 1628 1502 1626
8 1860 1748 1630 1744 1745 1629 1503 1625
8 1644 1528 1651 1761 1751 1632 1750 1865
8 1637 1520 1644 1755 1752 1633 1751 1866
8 1754 1646 1522 1636 1867 1760 1643 1753
8 1657 1535 1658 1774 1753 1643 1760 1867
8 1639 1523 1646 1754 1756 1648 1763 1868
8 1641 1521 1645 1758 1755 1644 1761 1869
8 1757 1649 1526 1640 1870 1766 1648 1756
8 1642 1525 1649 1757 1759 1647 1765 1871
8 1759 1647 1762 1872 1642 1525 1645 1758
8 1760 1650 1767 1874 1646 1531 1655 1763
8 1658 1536 1659 1775 1760 1650 1767 1874
8 1762 1652 1768 1875 1645 1529 1651 1761
8 1764 1653 1769 1876 1647 1530 1652 1762
8 1656 1766 1877 1773 1532 1648 1763 1655
8 1771 1879 1765 1654 1653 1764 1647 1530
8 1533 1649 1765 1654 1656 1766 1880 1772
8 1662 1542 1664 1778 1774 1658 1775 1887
8 1664 1543 1665 1779 1775 1659 1776 1888
8 1778 1664 1541 1661 1890 1779 1663 1777
8 1666 1548 1668 1781 1777 1663 1779 1890
8 1782 1669 1780 1891 1668 1550 1665 1779
8 1670 1551 1671 1784 1781 1668 1782 1893
8 1671 1552 1672 1785 1782 1669 1783 1894
8 1790 1675 1785 1896 1674 1554 1671 1784
8 1675 1555 1673 1789 1785 1672 1786 1897
8 1792 1676 1788 1903 1678 1556 1673 1789
8 1795 1678 1789 1904 1681 1558 1675 1790
8 1792 1676 1556 1678 1906 1791 1677 1794
8 1680 1557 1679 1797 1794 1677 1793 1909
8 1910 1794 1678 1795 1798 1680 1558 1681
8 1683 1559 1682 1800 1797 1679 1796 1912
8 1684 1560 1683 1801 1798 1680 1797 1913
8 1686 1564 1687 1803 1800 1682 1799 1915
8 1685 1563 1686 1802 1801 1683 1800 1916
8 1688 1566 1689 1805 1802 1686 1803 1917
8 1689 1567 1690 1806 1803 1687 1804 1918
8 1691 1569 1692 1808 1805 1689 1806 1920
8 1692 1570 1693 1809 1806 1690 1807 1921
8 1694 1572 1695 1810 1808 1692 1809 1922
8 1829 1713 1811 1926 1712 1592 1697 1813
8 1813 1697 1812 1928 1699 1577 1698 1815
8 1735 1614 1712 1828 1816 1699 1813 1929
8 1815 1698 1814 1931 1701 1578 1700 1818
8 1702 1579 1699 1816 1819 1701 1815 1932
8 1818 1700 1817 1933 1704 1580 1703 1820
8 1819 1701 1818 1934 1705 1581 1704 1821
8 1821 1704 1820 1935 1707 1584 1706 1822
8 1824 1709 1632 1751 1937 1823 1750 1865
8 1716 1593 1709 1824 1834 1715 1823 1937
8 1825 1710 1633 1752 1938 1824 1751 1866
8 1717 1594 1710 1825 1835 1716 1824 1938
8 1945 1830 1712 1828 1851 1733 1614 1735
8 1830 1714 1831 1946 1712 1592 1713 1829
8 1947 1832 1714 1830 1849 1730 1611 1733
8 1843 1729 1607 1725 1950 1833 1715 1834
8 1721 1603 1716 1835 1836 1725 1834 1951
8 1836 1725 1842 1953 1721 1603 1724 1839
8 1723 1838 1719 1601 1840 1954 1837 1722
8 1954 1840 1743 1852 1837 1722 1623 1736
8 1724 1839 1720 1602 1841 1955 1838 1723
8 1841 1727 1844 1956 1723 1605 1726 1840
8 1956 1844 1747 1859 1840 1726 1628 1743
8 1728 1842 1724 1606 1845 1957 1841 1727
8 1725 1607 1729 1843 1842 1728 1846 1958
8 1741 1627 1746 1857 1849 1730 1848 1965
8 1734 1612 1731 1850 1851 1733 1849 1966
8 1854 1741 1849 1966 1738 1622 1731 1850
8 1967 1859 1745 1853 1852 1743 1626 1737
8 1968 1860 1744 1856 1853 1745 1625 1739
8 1854 1741 1622 1738 1969 1857 1742 1855
8 1855 1742 1624 1740 1970 1858 1744 1856
8 1857 1746 1631 1742 1971 1861 1749 1858
8 1858 1749 1630 1744 1972 1863 1748 1860
8 1859 1747 1862 1973 1745 1629 1748 1860
8 1875 1768 1864 1977 1761 1651 1750 1865
8 1755 1644 1761 1869 1866 1751 1865 1978
8 1867 1760 1874 1979 1754 1646 1763 1868
8 1774 1658 1775 1887 1867 1760 1874 1979
8 1870 1766 1648 1756 1980 1877 1763 1868
8 1872 1762 1875 1981 1758 1645 1761 1869
8 1757 1649 1766 1870 1871 1765 1880 1982
8 1983 1879 1764 1873 1871 1765 1647 1759
8 1873 1764 1876 1984 1759 1647 1762 1872
8 1877 1773 1655 1763 1986 1881 1767 1874
8 1775 1659 1776 1888 1874 1767 1881 1986
8 1876 1769 1882 1987 1762 1652 1768 1875
8 1878 1770 1883 1988 1764 1653 1769 1876
8 1880 1772 1656 1766 1989 1886 1773 1877
8 1878 1770 1653 1764 1990 1884 1771 1879
8 1765 1654 1772 1880 1879 1771 1885 1991
8 1778 1664 1779 1890 1887 1775 1888 1997
8 1998 1889 1776 1888 1891 1780 1665 1779
8 1893 1782 1891 2000 1781 1668 1779 1890
8 1894 1783 1892 2001 1782 1669 1780 1891
8 1784 1671 1785 1896 1893 1782 1894 2003
8 1897 1786 1895 2004 1785 1672 1783 1894
8 1790 1675 1789 1904 1896 1785 1897 2006
8 1901 1787 1898 2007 1789 1673 1786 1897
8 1903 1788 1900 2013 1789 1673 1787 1901
8 1792 1676 1791 1906 1903 1788 1902 2016
8 1907 1792 1903 2017 1795 1678 1789 1904
8 1906 1791 1677 1794 2019 1905 1793 1909
8 1907 1792 1678 1795 2020 1906 1794 1910
8 1797 1679 1796 1912 1909 1793 1908 2022
8 1798 1680 1797 1913 1910 1794 1909 2023
8 1800 1682 1799 1915 1912 1796 1911 2025
8 1801 1683 1800 1916 1913 1797 1912 2026
8 1803 1687 1804 1918 1915 1799 1914 2028
8 1802 1686 1803 1917 1916 1800 1915 2029
8 1805 1689 1806 1920 1917 1803 1918 2030
8 1806 1690 1807 1921 1918 1804 1919 2031
8 1808 1692 1809 1922 1920 1806 1921 2032
8 1939 1826 1924 2037 1829 1713 1811 1926
8 1926 1811 1925 2039 1813 1697 1812 1928
8 1944 1829 1926 2040 1828 1712 1813 1929
8 1928 1812 1927 2042 1815 1698 1814 1931
8 1929 1813 1928 2043 1816 1699 1815 1932
8 1931 1814 1930 2044 1818 1700 1817 1933
8 1932 1815 1931 2045 1819 1701 1818 1934
8 1934 1818 1933 2046 1821 1704 1820 1935
8 2048 1936 1823 1937 1977 1864 1750 1865
8 1950 1833 1715 1834 2048 1936 1823 1937
8 1938 1824 1751 1866 2049 1937 1865 1978
8 1835 1716 1824 1938 1951 1834 1937 2049
8 1939 1826 1713 1829 2053 1942 1831 1946
8 1940 1827 1923 2035 2053 1942 1826 1939
8 1945 1830 1946 2058 1828 1712 1829 1944
8 2059 1947 1830 1945 1966 1849 1733 1851
8 1947 1832 1730 1849 2060 1948 1848 1965
8 1947 1832 1948 2060 1830 1714 1831 1946
8 1959 1847 1729 1843 2063 1949 1833 1950
8 1952 1843 1725 1836 2064 1950 1834 1951
8 1836 1725 1843 1952 1953 1842 1958 2066
8 1953 1842 1957 2067 1839 1724 1841 1955
8 1841 1955 1838 1723 1956 2068 1954 1840
8 2068 1956 1859 1967 1954 1840 1743 1852
8 1956 1844 1960 2069 1859 1747 1862 1973
8 1845 1957 1841 1727 1960 2069 1956 1844
8 1728 1842 1957 1845 1846 1958 2071 1961
8 1962 2072 1959 1847 1846 1958 1843 1729
8 1971 1861 1964 2077 1857 1746 1848 1965
8 1854 1741 1857 1969 1966 1849 1965 2078
8 1967 1859 1973 2079 1853 1745 1860 1968
8 1970 1858 1744 1856 2080 1972 1860 1968
8 1969 1857 1742 1855 2081 1971 1858 1970
8 1971 1861 1749 1858 2082 1974 1863 1972
8 1973 1862 1975 2083 1860 1748 1863 1972
8 1987 1882 1976 2086 1875 1768 1864 1977
8 1981 1875 1977 2087 1869 1761 1865 1978
8 1980 1877 1763 1868 2088 1986 1874 1979
8 1887 1775 1888 1997 1979 1874 1986 2088
8 1880 1982 2089 1989 1766 1870 1980 1877
8 1984 1876 1987 2090 1872 1762 1875 1981
8 1765 1871 1983 1879 1880 1982 2091 1991
8 1985 1878 1764 1873 2092 1990 1879 1983
8 1985 1878 1988 2093 1873 1764 1876 1984
8 2094 1992 1881 1986 1998 1889 1776 1888
8 1986 1881 1992 2094 1877 1773 1886 1989
8 1988 1883 1993 2095 1876 1769 1882 1987
8 1878 1770 1884 1990 1988 1883 1994 2096
8 1991 1885 1772 1880 2097 1996 1886 1989
8 1879 1771 1885 1991 1990 1884 1995 2098
8 2103 1998 1888 1997 2000 1891 1779 1890
8 2104 1999 1889 1998 2001 1892 1780 1891
8 2003 1894 2001 2106 1893 1782 1891 2000
8 2004 1895 2002 2107 1894 1783 1892 2001
8 2006 1897 2004 2109 1896 1785 1894 2003
8 2007 1898 2005 2110 1897 1786 1895 2004
8 2014 1901 2007 2112 1904 1789 1897 2006
8 2011 1899 2008 2113 1901 1787 1898 2007
8 2119 2010 1899 2011 2013 1900 1787 1901
8 2016 1902 2012 2122 1903 1788 1900 2013
8 2017 1903 2013 2123 1904 1789 1901 2014
8 1906 1791 1905 2019 2016 1902 2015 2125
8 1907 1792 1906 2020 2017 1903 2016 2126
8 1909 1793 1908 2022 2019 1905 2018 2128
8 2020 1906 1794 1910 2129 2019 1909 2023
8 1912 1796 1911 2025 2022 1908 2021 2131
8 1913 1797 1912 2026 2023 1909 2022 2132
8 1915 1799 1914 2028 2025 1911 2024 2134
8 1916 1800 1915 2029 2026 1912 2025 2135
8 1918 1804 1919 2031 2028 1914 2027 2136
8 1917 1803 1918 2030 2029 1915 2028 2137
8 1920 1806 1921 2032 2030 1918 2031 2138
8 1940 1827 1941 2054 2035 1923 2033 2140
8 2035 1923 2034 2143 1939 1826 1924 2037
8 2037 1924 2036 2146 1926 1811 1925 2039
8 2051 1939 2037 2147 1944 1829 1926 2040
8 2039 1925 2038 2149 1928 1812 1927 2042
8 2040 1926 2039 2150 1929 1813 1928 2043
8 2042 1927 2041 2151 1931 1814 1930 2044
8 2043 1928 2042 2152 1932 1815 1931 2045
8 2045 1931 2044 2153 1934 1818 1933 2046
8 2155 2047 1936 2048 2086 1976 1864 1977
8 2063 1949 1833 1950 2155 2047 1936 2048
8 2156 2048 1937 2049 2087 1977 1865 1978
8 2064 1950 1834 1951 2156 2048 1937 2049
8 2051 1939 1829 1944 2160 2053 1946 2058
8 2052 1940 2035 2144 2160 2053 1939 2051
8 2053 1942 1831 1946 2163 2057 1948 2060
8 2055 1943 1827 1940 2163 2057 1942 2053
8 2055 1943 2056 2164 1940 1827 1941 2054
8 2059 1947 1849 1966 2167 2060 1965 2078
8 2059 1947 2060 2167 1945 1830 1946 2058
8 2077 1964 2061 2168 1965 1848 1948 2060
8 2070 1963 1847 1959 2170 2062 1949 2063
8 2065 1959 1843 1952 2171 2063 1950 2064
8 2173 2072 1958 2066 2065 1959 1843 1952
8 1953 1842 1958 2066 2067 1957 2071 2174
8 2068 1956 2069 2175 1967 1859 1973 2079
8 2067 1957 2069 2175 1955 1841 1956 2068
8 1845 1957 2069 1960 1961 2071 2176 2073
8 2069 1960 2073 2176 1973 1862 1975 2083
8 2070 1963 2075 2177 1959 1847 1962 2072
8 1846 1958 2071 1961 1962 2072 2178 2074
8 2077 1964 1861 1971 2182 2076 1974 2082
8 2081 1971 2077 2183 1969 1857 1965 2078
8 2079 1973 2083 2184 1968 1860 1972 2080
8 2081 1971 1858 1970 2185 2082 1972 2080
8 2083 1975 2084 2186 1972 1863 1974 2082
8 2086 1976 1882 1987 2189 2085 1993 2095
8 2090 1987 2086 2190 1981 1875 1977 2087
8 2191 2094 1986 2088 2103 1998 1888 1997
8 2088 1986 2094 2191 1980 1877 1989 2089
8 1991 2091 2192 2097 1880 1982 2089 1989
8 2093 1988 2095 2193 1984 1876 1987 2090
8 1879 1983 2092 1990 1991 2091 2194 2098
8 1985 1878 1990 2092 2093 1988 2096 2195
8 2097 1996 1886 1989 2196 2099 1992 2094
8 2196 2099 1992 2094 2104 1999 1889 1998
8 1994 2096 1988 1883 2100 2197 2095 1993
8 2096 1994 1884 1990 2198 2101 1995 2098
8 1995 2098 2199 2102 1885 1991 2097 1996
8 2203 2104 1998 2103 2106 2001 1891 2000
8 2107 2002 2105 2204 2001 1892 1999 2104
8 2109 2004 2107 2206 2003 1894 2001 2106
8 2110 2005 2108 2207 2004 1895 2002 2107
8 2112 2007 2110 2209 2006 1897 2004 2109
8 2113 2008 2111 2210 2007 1898 2005 2110
8 2120 2011 2113 2212 2014 1901 2007 2112
8 2117 2009 2114 2213 2011 1899 2008 2113
8 2219 2116 2009 2117 2119 2010 1899 2011
8 2222 2118 2010 2119 2122 2012 1900 2013
8 2223 2119 2011 2120 2123 2013 1901 2014
8 2016 1902 2015 2125 2122 2012 2121 2225
8 2126 2016 2122 2226 2017 1903 2013 2123
8 2019 1905 2018 2128 2125 2015 2124 2228
8 2020 1906 2019 2129 2126 2016 2125 2229
8 2022 1908 2021 2131 2128 2018 2127 2231
8 2023 1909 2022 2132 2129 2019 2128 2232
8 2025 1911 2024 2134 2131 2021 2130 2234
8 2026 1912 2025 2135 2132 2022 2131 2235
8 1914 2028 2134 2024 2027 2136 2236 2133
8 2029 1915 2028 2137 2135 2025 2134 2237
8 2030 1918 2031 2138 2137 2028 2136 2238
8 2157 2050 2139 2240 2054 1941 2033 2140
8 2052 1940 2054 2161 2144 2035 2140 2242
8 2140 2033 2141 2243 2035 1923 2034 2143
8 2143 2034 2142 2246 2037 1924 2036 2146
8 2144 2035 2143 2247 2051 1939 2037 2147
8 2146 2036 2145 2249 2039 1925 2038 2149
8 2147 2037 2146 2250 2040 1926 2039 2150
8 2149 2038 2148 2251 2042 1927 2041 2151
8 2150 2039 2149 2252 2043 1928 2042 2152
8 2152 2042 2151 2253 2045 1931 2044 2153
8 2255 2154 2047 2155 2189 2085 1976 2086
8 2170 2062 1949 2063 2255 2154 2047 2155
8 2256 2155 2048 2156 2190 2086 1977 2087
8 2171 2063 1950 2064 2256 2155 2048 2156
8 2258 2159 2050 2157 2164 2056 1941 2054
8 2160 2053 1946 2058 2262 2163 2060 2167
8 2162 2055 1940 2052 2262 2163 2053 2160
8 2162 2055 2164 2263 2052 1940 2054 2161
8 2163 2057 1948 2060 2264 2165 2061 2168
8 2055 1943 2057 2163 2164 2056 2165 2264
8 2182 2076 2166 2268 2077 1964 2061 2168
8 2183 2077 2168 2269 2078 1965 2060 2167
8 2070 1963 2062 2170 2177 2075 2169 2271
8 2172 2070 1959 2065 2272 2170 2063 2171
8 2172 2070 2177 2273 2065 1959 2072 2173
8 2066 1958 2072 2173 2174 2071 2178 2274
8 2067 1957 2071 2174 2175 2069 2176 2275
8 2175 2069 2176 2275 2079 1973 2083 2184
8 2071 1961 2074 2178 2176 2073 2179 2276
8 2176 2073 2179 2276 2083 1975 2084 2186
8 2072 1962 2075 2177 2178 2074 2180 2277
8 2182 2076 1974 2082 2280 2181 2084 2186
8 2183 2077 1971 2081 2281 2182 2082 2185
8 2184 2083 2186 2282 2080 1972 2082 2185
8 2189 2085 1993 2095 2285 2188 2100 2197
8 2190 2086 1987 2090 2286 2189 2095 2193
8 2192 2097 1989 2089 2287 2196 2094 2191
8 2287 2196 2094 2191 2203 2104 1998 2103
8 2194 2098 1991 2091 2288 2199 2097 2192
8 2195 2096 2197 2289 2093 1988 2095 2193
8 2096 2195 2290 2198 1990 2092 2194 2098
8 2097 1996 2099 2196 2199 2102 2200 2291
8 2196 2099 1999 2104 2291 2200 2105 2204
8 2100 2197 2292 2201 1994 2096 2198 2101
8 1995 2098 2198 2101 2102 2199 2293 2202
8 2206 2107 2204 2296 2106 2001 2104 2203
8 2207 2108 2205 2297 2107 2002 2105 2204
8 2209 2110 2207 2299 2109 2004 2107 2206
8 2210 2111 2208 2300 2110 2005 2108 2207
8 2212 2113 2210 2302 2112 2007 2110 2209
8 2213 2114 2211 2303 2113 2008 2111 2210
8 2220 2117 2213 2305 2120 2011 2113 2212
8 2216 2115 2214 2306 2117 2009 2114 2213
8 2216 2115 2009 2117 2311 2217 2116 2219
8 2219 2116 2010 2119 2314 2218 2118 2222
8 2315 2219 2117 2220 2223 2119 2011 2120
8 2122 2012 2121 2225 2222 2118 2221 2317
8 2318 2222 2119 2223 2226 2122 2013 2123
8 2125 2015 2124 2228 2225 2121 2224 2320
8 2126 2016 2125 2229 2226 2122 2225 2321
8 2128 2018 2127 2231 2228 2124 2227 2323
8 2129 2019 2128 2232 2229 2125 2228 2324
8 2131 2021 2130 2234 2231 2127 2230 2326
8 2132 2022 2131 2235 2232 2128 2231 2327
8 2134 2024 2133 2236 2234 2130 2233 2328
8 2135 2025 2134 2237 2235 2131 2234 2329
8 2137 2028 2136 2238 2237 2134 2236 2330
8 2157 2050 2158 2259 2240 2139 2239 2332
8 2257 2157 2240 2334 2161 2054 2140 2242
8 2240 2139 2241 2335 2140 2033 2141 2243
8 2242 2140 2243 2337 2144 2035 2143 2247
8 2243 2141 2244 2338 2143 2034 2142 2246
8 2246 2142 2245 2341 2146 2036 2145 2249
8 2247 2143 2246 2342 2147 2037 2146 2250
8 2249 2145 2248 2343 2149 2038 2148 2251
8 2250 2146 2249 2344 2150 2039 2149 2252
8 2252 2149 2251 2345 2152 2042 2151 2253
8 2169 2271 2347 2254 2062 2170 2255 2154
8 2189 2085 2188 2285 2255 2154 2254 2347
8 2348 2255 2155 2256 2286 2189 2086 2190
8 2272 2170 2063 2171 2348 2255 2155 2256
8 2349 2258 2157 2257 2263 2164 2054 2161
8 2258 2159 2261 2351 2157 2050 2158 2259
8 2258 2159 2056 2164 2351 2261 2165 2264
8 2262 2163 2060 2167 2355 2264 2168 2269
8 2162 2055 2163 2262 2263 2164 2264 2355
8 2357 2266 2165 2264 2268 2166 2061 2168
8 2268 2166 2076 2182 2361 2267 2181 2280
8 2281 2182 2268 2362 2183 2077 2168 2269
8 2271 2169 2270 2364 2177 2075 2180 2277
8 2172 2070 2170 2272 2273 2177 2271 2365
8 2072 2173 2274 2178 2177 2273 2366 2277
8 2071 2174 2275 2176 2178 2274 2367 2276
8 2275 2176 2276 2367 2184 2083 2186 2282
8 2283 2187 2084 2186 2368 2278 2179 2276
8 2178 2074 2180 2277 2276 2179 2278 2368
8 2283 2187 2279 2370 2186 2084 2181 2280
8 2281 2182 2082 2185 2371 2280 2186 2282
8 2188 2285 2374 2284 2100 2197 2292 2201
8 2286 2189 2095 2193 2375 2285 2197 2289
8 2192 2097 2196 2287 2288 2199 2291 2376
8 2287 2196 2104 2203 2376 2291 2204 2296
8 2194 2098 2199 2288 2290 2198 2293 2377
8 2289 2197 2096 2195 2378 2292 2198 2290
8 2291 2200 2105 2204 2379 2294 2205 2297
8 2199 2102 2200 2291 2293 2202 2294 2379
8 2198 2101 2202 2293 2292 2201 2295 2380
8 2299 2207 2297 2383 2206 2107 2204 2296
8 2300 2208 2298 2384 2207 2108 2205 2297
8 2302 2210 2300 2386 2209 2110 2207 2299
8 2303 2211 2301 2387 2210 2111 2208 2300
8 2305 2213 2303 2389 2212 2113 2210 2302
8 2306 2214 2304 2390 2213 2114 2211 2303
8 2310 2216 2306 2392 2220 2117 2213 2305
8 2308 2215 2307 2393 2216 2115 2214 2306
8 2308 2215 2115 2216 2396 2309 2217 2311
8 2310 2216 2117 2220 2398 2311 2219 2315
8 2311 2217 2116 2219 2399 2312 2218 2314
8 2314 2218 2118 2222 2402 2313 2221 2317
8 2315 2219 2119 2223 2403 2314 2222 2318
8 2225 2121 2224 2320 2317 2221 2316 2405
8 2226 2122 2225 2321 2318 2222 2317 2406
8 2228 2124 2227 2323 2320 2224 2319 2408
8 2229 2125 2228 2324 2321 2225 2320 2409
8 2231 2127 2230 2326 2323 2227 2322 2411
8 2232 2128 2231 2327 2324 2228 2323 2412
8 2234 2130 2233 2328 2326 2230 2325 2413
8 2235 2131 2234 2329 2327 2231 2326 2414
8 2237 2134 2236 2330 2329 2234 2328 2415
8 2259 2158 2260 2352 2332 2239 2331 2417
8 2257 2157 2259 2350 2334 2240 2332 2419
8 2240 2139 2239 2332 2335 2241 2333 2420
8 2334 2240 2335 2422 2242 2140 2243 2337
8 2335 2241 2336 2423 2243 2141 2244 2338
8 2337 2243 2338 2425 2247 2143 2246 2342
8 2338 2244 2339 2426 2246 2142 2245 2341
8 2341 2245 2340 2428 2249 2145 2248 2343
8 2342 2246 2341 2429 2250 2146 2249 2344
8 2344 2249 2343 2430 2252 2149 2251 2345
8 2188 2285 2347 2254 2284 2374 2432 2346
8 2347 2254 2346 2432 2271 2169 2270 2364
8 2365 2271 2170 2272 2433 2347 2255 2348
8 2286 2189 2285 2375 2348 2255 2347 2433
8 2349 2258 2351 2435 2257 2157 2259 2350
8 2349 2258 2164 2263 2435 2351 2264 2355
8 2259 2158 2261 2351 2352 2260 2354 2437
8 2356 2265 2354 2437 2264 2165 2261 2351
8 2441 2357 2264 2355 2362 2268 2168 2269
8 2356 2265 2165 2264 2442 2358 2266 2357
8 2443 2359 2266 2357 2361 2267 2166 2268
8 2370 2279 2360 2446 2280 2181 2267 2361
8 2362 2268 2182 2281 2447 2361 2280 2371
8 2180 2277 2368 2278 2270 2364 2449 2363
8 2271 2365 2273 2177 2364 2450 2366 2277
8 2372 2283 2186 2282 2451 2368 2276 2367
8 2178 2274 2367 2276 2277 2366 2451 2368
8 2283 2187 2278 2368 2370 2279 2369 2452
8 2372 2283 2370 2453 2282 2186 2280 2371
8 2284 2374 2455 2373 2201 2292 2380 2295
8 2375 2285 2197 2289 2456 2374 2292 2378
8 2376 2291 2204 2296 2457 2379 2297 2383
8 2288 2199 2291 2376 2377 2293 2379 2457
8 2198 2290 2378 2292 2293 2377 2458 2380
8 2293 2202 2294 2379 2380 2295 2381 2459
8 2384 2298 2381 2459 2297 2205 2294 2379
8 2386 2300 2384 2463 2299 2207 2297 2383
8 2387 2301 2385 2464 2300 2208 2298 2384
8 2389 2303 2387 2466 2302 2210 2300 2386
8 2390 2304 2388 2467 2303 2211 2301 2387
8 2392 2306 2390 2469 2305 2213 2303 2389
8 2393 2307 2391 2470 2306 2214 2304 2390
8 2395 2308 2393 2472 2310 2216 2306 2392
8 2308 2215 2309 2396 2393 2307 2394 2473
8 2395 2308 2216 2310 2475 2396 2311 2398
8 2396 2309 2217 2311 2476 2397 2312 2399
8 2398 2311 2219 2315 2478 2399 2314 2403
8 2399 2312 2218 2314 2479 2400 2313 2402
8 2317 2221 2316 2405 2402 2313 2401 2482
8 2403 2314 2222 2318 2483 2402 2317 2406
8 2320 2224 2319 2408 2405 2316 2404 2485
8 2321 2225 2320 2409 2406 2317 2405 2486
8 2323 2227 2322 2411 2408 2319 2407 2488
8 2324 2228 2323 2412 2409 2320 2408 2489
8 2326 2230 2325 2413 2411 2322 2410 2490
8 2327 2231 2326 2414 2412 2323 2411 2491
8 2329 2234 2328 2415 2414 2326 2413 2492
8 2417 2331 2260 2352 2494 2416 2353 2438
8 2350 2259 2352 2436 2419 2332 2417 2496
8 2332 2239 2331 2417 2420 2333 2418 2497
8 2334 2240 2332 2419 2422 2335 2420 2499
8 2420 2333 2421 2500 2335 2241 2336 2423
8 2422 2335 2423 2502 2337 2243 2338 2425
8 2423 2336 2424 2503 2338 2244 2339 2426
8 2425 2338 2426 2505 2342 2246 2341 2429
8 2426 2339 2427 2506 2341 2245 2340 2428
8 2429 2341 2428 2507 2344 2249 2343 2430
8 2432 2346 2284 2374 2509 2431 2373 2455
8 2432 2346 2431 2509 2364 2270 2363 2449
8 2375 2285 2374 2456 2433 2347 2432 2510
8 2347 2433 2365 2271 2432 2510 2450 2364
8 2350 2259 2351 2435 2436 2352 2437 2514
8 2440 2356 2437 2514 2355 2264 2351 2435
8 2352 2260 2354 2437 2438 2353 2439 2516
8 2356 2265 2358 2442 2437 2354 2439 2516
8 2440 2356 2264 2355 2518 2442 2357 2441
8 2519 2443 2357 2441 2447 2361 2268 2362
8 2443 2359 2444 2520 2357 2266 2358 2442
8 2443 2359 2267 2361 2520 2444 2360 2446
8 2446 2360 2279 2370 2523 2445 2369 2452
8 2453 2370 2446 2524 2371 2280 2361 2447
8 2449 2363 2448 2525 2368 2278 2369 2452
8 2366 2277 2364 2450 2451 2368 2449 2526
8 2372 2283 2368 2451 2453 2370 2452 2527
8 2455 2373 2295 2380 2529 2454 2382 2460
8 2456 2374 2292 2378 2530 2455 2380 2458
8 2377 2293 2379 2457 2458 2380 2459 2531
8 2463 2384 2459 2531 2383 2297 2379 2457
8 2533 2461 2382 2460 2459 2381 2295 2380
8 2464 2385 2461 2533 2384 2298 2381 2459
8 2466 2387 2464 2537 2386 2300 2384 2463
8 2467 2388 2465 2538 2387 2301 2385 2464
8 2469 2390 2467 2540 2389 2303 2387 2466
8 2470 2391 2468 2541 2390 2304 2388 2467
8 2472 2393 2470 2543 2392 2306 2390 2469
8 2393 2307 2394 2473 2470 2391 2471 2544
8 2395 2308 2396 2475 2472 2393 2473 2546
8 2396 2309 2397 2476 2473 2394 2474 2547
8 2475 2396 2311 2398 2549 2476 2399 2478
8 2476 2397 2312 2399 2550 2477 2400 2479
8 2478 2399 2314 2403 2552 2479 2402 2483
8 2479 2400 2313 2402 2553 2480 2401 2482
8 2405 2316 2404 2485 2482 2401 2481 2556
8 2406 2317 2405 2486 2483 2402 2482 2557
8 2408 2319 2407 2488 2485 2404 2484 2559
8 2409 2320 2408 2489 2486 2405 2485 2560
8 2411 2322 2410 2490 2488 2407 2487 2561
8 2412 2323 2411 2491 2489 2408 2488 2562
8 2414 2326 2413 2492 2491 2411 2490 2563
8 2513 2434 2493 2565 2438 2353 2416 2494
8 2496 2417 2352 2436 2567 2494 2438 2515
8 2494 2416 2495 2568 2417 2331 2418 2497
8 2419 2332 2417 2496 2499 2420 2497 2570
8 2497 2418 2498 2571 2420 2333 2421 2500
8 2499 2420 2500 2573 2422 2335 2423 2502
8 2500 2421 2501 2574 2423 2336 2424 2503
8 2502 2423 2503 2576 2425 2338 2426 2505
8 2503 2424 2504 2577 2426 2339 2427 2506
8 2505 2426 2506 2578 2429 2341 2428 2507
8 2509 2431 2373 2455 2580 2508 2454 2529
8 2509 2431 2508 2580 2449 2363 2448 2525
8 2432 2510 2581 2509 2374 2456 2530 2455
8 2432 2510 2450 2364 2509 2581 2526 2449
8 2583 2511 2434 2513 2516 2439 2353 2438
8 2436 2352 2437 2514 2515 2438 2516 2588
8 2440 2356 2442 2518 2514 2437 2516 2588
8 2442 2358 2444 2520 2516 2439 2517 2589
8 2519 2443 2520 2591 2441 2357 2442 2518
8 2519 2443 2361 2447 2591 2520 2446 2524
8 2446 2360 2445 2523 2520 2444 2521 2592
8 2525 2448 2522 2593 2452 2369 2445 2523
8 2524 2446 2370 2453 2594 2523 2452 2527
8 2526 2449 2525 2595 2451 2368 2452 2527
8 2534 2462 2528 2597 2460 2382 2454 2529
8 2530 2455 2380 2458 2598 2529 2460 2532
8 2599 2533 2460 2532 2531 2459 2380 2458
8 2537 2464 2533 2599 2463 2384 2459 2531
8 2534 2462 2382 2460 2601 2535 2461 2533
8 2538 2465 2535 2601 2464 2385 2461 2533
8 2540 2467 2538 2604 2466 2387 2464 2537
8 2541 2468 2539 2605 2467 2388 2465 2538
8 2543 2470 2541 2607 2469 2390 2467 2540
8 2470 2391 2471 2544 2541 2468 2542 2608
8 2472 2393 2473 2546 2543 2470 2544 2610
8 2473 2394 2474 2547 2544 2471 2545 2611
8 2475 2396 2476 2549 2546 2473 2547 2613
8 2476 2397 2477 2550 2547 2474 2548 2614
8 2549 2476 2399 2478 2616 2550 2479 2552
8 2479 2400 2480 2553 2550 2477 2551 2617
8 2552 2479 2402 2483 2619 2553 2482 2557
8 2482 2401 2481 2556 2553 2480 2554 2620
8 2485 2404 2484 2559 2556 2481 2555 2623
8 2486 2405 2485 2560 2557 2482 2556 2624
8 2488 2407 2487 2561 2559 2484 2558 2625
8 2489 2408 2488 2562 2560 2485 2559 2626
8 2491 2411 2490 2563 2562 2488 2561 2627
8 2513 2434 2512 2585 2565 2493 2564 2630
8 2586 2513 2565 2632 2515 2438 2494 2567
8 2565 2493 2566 2633 2494 2416 2495 2568
8 2567 2494 2568 2635 2496 2417 2497 2570
8 2568 2495 2569 2636 2497 2418 2498 2571
8 2570 2497 2571 2638 2499 2420 2500 2573
8 2571 2498 2572 2639 2500 2421 2501 2574
8 2573 2500 2574 2641 2502 2423 2503 2576
8 2574 2501 2575 2642 2503 2424 2504 2577
8 2576 2503 2577 2643 2505 2426 2506 2578
8 2597 2528 2579 2645 2529 2454 2508 2580
8 2580 2508 2579 2645 2525 2448 2522 2593
8 2581 2509 2455 2530 2646 2580 2529 2598
8 2581 2509 2580 2646 2526 2449 2525 2595
8 2583 2511 2582 2648 2513 2434 2512 2585
8 2583 2511 2439 2516 2648 2582 2517 2589
8 2649 2583 2513 2586 2588 2516 2438 2515
8 2589 2517 2444 2520 2653 2587 2521 2592
8 2518 2442 2520 2591 2588 2516 2589 2654
8 2593 2522 2590 2655 2523 2445 2521 2592
8 2524 2446 2523 2594 2591 2520 2592 2656
8 2595 2525 2593 2657 2527 2452 2523 2594
8 2602 2536 2596 2659 2534 2462 2528 2597
8 2600 2534 2597 2660 2532 2460 2529 2598
8 2600 2534 2460 2532 2661 2601 2533 2599
8 2604 2538 2601 2661 2537 2464 2533 2599
8 2602 2536 2462 2534 2663 2603 2535 2601
8 2601 2535 2465 2538 2663 2603 2539 2605
8 2607 2541 2605 2665 2540 2467 2538 2604
8 2608 2542 2606 2666 2541 2468 2539 2605
8 2543 2470 2544 2610 2607 2541 2608 2668
8 2544 2471 2545 2611 2608 2542 2609 2669
8 2546 2473 2547 2613 2610 2544 2611 2671
8 2547 2474 2548 2614 2611 2545 2612 2672
8 2549 2476 2550 2616 2613 2547 2614 2674
8 2550 2477 2551 2617 2614 2548 2615 2675
8 2552 2479 2553 2619 2616 2550 2617 2677
8 2553 2480 2554 2620 2617 2551 2618 2678
8 2557 2482 2556 2624 2619 2553 2620 2680
8 2556 2481 2555 2623 2620 2554 2621 2681
8 2559 2484 2558 2625 2623 2555 2622 2683
8 2560 2485 2559 2626 2624 2556 2623 2684
8 2562 2488 2561 2627 2626 2559 2625 2685
8 2690 2629 2564 2630 2650 2584 2512 2585
8 2586 2513 2585 2651 2632 2565 2630 2691
8 2630 2564 2631 2692 2565 2493 2566 2633
8 2632 2565 2633 2694 2567 2494 2568 2635
8 2633 2566 2634 2695 2568 2495 2569 2636
8 2635 2568 2636 2697 2570 2497 2571 2638
8 2636 2569 2637 2698 2571 2498 2572 2639
8 2638 2571 2639 2700 2573 2500 2574 2641
8 2639 2572 2640 2701 2574 2501 2575 2642
8 2641 2574 2642 2702 2576 2503 2577 2643
8 2597 2528 2596 2659 2645 2579 2644 2704
8 2645 2579 2644 2704 2593 2522 2590 2655
8 2660 2597 2645 2705 2598 2529 2580 2646
8 2646 2580 2645 2705 2595 2525 2593 2657
8 2650 2584 2512 2585 2707 2647 2582 2648
8 2648 2582 2517 2589 2707 2647 2587 2653
8 2649 2583 2648 2708 2586 2513 2585 2651
8 2649 2583 2516 2588 2708 2648 2589 2654
8 2655 2590 2652 2710 2592 2521 2587 2653
8 2654 2589 2520 2591 2711 2653 2592 2656
8 2657 2593 2655 2712 2594 2523 2592 2656
8 2602 2536 2603 2663 2659 2596 2658 2714
8 2662 2602 2659 2715 2600 2534 2597 2660
8 2662 2602 2534 2600 2717 2663 2601 2661
8 2661 2601 2538 2604 2717 2663 2605 2665
8 2666 2606 2664 2718 2605 2539 2603 2663
8 2668 2608 2666 2720 2607 2541 2605 2665
8 2608 2542 2609 2669 2666 2606 2667 2721
8 2610 2544 2611 2671 2668 2608 2669 2723
8 2611 2545 2612 2672 2669 2609 2670 2724
8 2613 2547 2614 2674 2671 2611 2672 2726
8 2614 2548 2615 2675 2672 2612 2673 2727
8 2616 2550 2617 2677 2674 2614 2675 2729
8 2617 2551 2618 2678 2675 2615 2676 2730
8 2619 2553 2620 2680 2677 2617 2678 2732
8 2620 2554 2621 2681 2678 2618 2679 2733
8 2624 2556 2623 2684 2680 2620 2681 2735
8 2681 2621 2555 2623 2736 2682 2622 2683
8 2626 2559 2625 2685 2684 2623 2683 2737
8 2688 2628 2584 2650 2740 2686 2647 2707
8 2688 2628 2687 2742 2650 2584 2629 2690
8 2690 2629 2689 2745 2630 2564 2631 2692
8 2746 2690 2630 2691 2709 2650 2585 2651
8 2691 2630 2692 2747 2632 2565 2633 2694
8 2692 2631 2693 2748 2633 2566 2634 2695
8 2694 2633 2695 2750 2635 2568 2636 2697
8 2695 2634 2696 2751 2636 2569 2637 2698
8 2697 2636 2698 2753 2638 2571 2639 2700
8 2698 2637 2699 2754 2639 2572 2640 2701
8 2700 2639 2701 2755 2641 2574 2642 2702
8 2659 2596 2658 2714 2704 2644 2703 2757
8 2704 2644 2703 2757 2655 2590 2652 2710
8 2660 2597 2659 2715 2705 2645 2704 2758
8 2705 2645 2704 2758 2657 2593 2655 2712
8 2759 2706 2647 2707 2710 2652 2587 2653
8 2709 2650 2585 2651 2760 2707 2648 2708
8 2708 2648 2589 2654 2760 2707 2653 2711
8 2712 2655 2710 2761 2656 2592 2653 2711
8 2763 2713 2658 2714 2718 2664 2603 2663
8 2662 2602 2663 2717 2715 2659 2714 2764
8 2720 2666 2718 2767 2665 2605 2663 2717
8 2768 2719 2664 2718 2721 2667 2606 2666
8 2668 2608 2669 2723 2720 2666 2721 2770
8 2669 2609 2670 2724 2721 2667 2722 2771
8 2671 2611 2672 2726 2723 2669 2724 2773
8 2672 2612 2673 2727 2724 2670 2725 2774
8 2674 2614 2675 2729 2726 2672 2727 2776
8 2675 2615 2676 2730 2727 2673 2728 2777
8 2677 2617 2678 2732 2729 2675 2730 2779
8 2678 2618 2679 2733 2730 2676 2731 2780
8 2680 2620 2681 2735 2732 2678 2733 2782
8 2733 2679 2621 2681 2783 2734 2682 2736
8 2735 2681 2623 2684 2784 2736 2683 2737
8 2740 2686 2647 2707 2787 2738 2706 2759
8 2688 2628 2686 2740 2742 2687 2739 2789
8 2743 2688 2650 2709 2790 2740 2707 2760
8 2742 2687 2741 2792 2690 2629 2689 2745
8 2743 2688 2742 2793 2709 2650 2690 2746
8 2745 2689 2744 2795 2692 2631 2693 2748
8 2746 2690 2745 2796 2691 2630 2692 2747
8 2747 2692 2748 2797 2694 2633 2695 2750
8 2748 2693 2749 2798 2695 2634 2696 2751
8 2750 2695 2751 2800 2697 2636 2698 2753
8 2751 2696 2752 2801 2698 2637 2699 2754
8 2753 2698 2754 2802 2700 2639 2701 2755
8 2763 2713 2756 2804 2714 2658 2703 2757
8 2759 2706 2652 2710 2804 2756 2703 2757
8 2715 2659 2714 2764 2758 2704 2757 2805
8 2758 2704 2757 2805 2712 2655 2710 2761
8 2806 2759 2707 2760 2761 2710 2653 2711
8 2765 2716 2762 2808 2718 2664 2713 2763
8 2809 2763 2714 2764 2767 2718 2663 2717
8 2765 2716 2664 2718 2811 2766 2719 2768
8 2813 2768 2718 2767 2770 2721 2666 2720
8 2814 2769 2719 2768 2771 2722 2667 2721
8 2723 2669 2724 2773 2770 2721 2771 2816
8 2724 2670 2725 2774 2771 2722 2772 2817
8 2726 2672 2727 2776 2773 2724 2774 2819
8 2727 2673 2728 2777 2774 2725 2775 2820
8 2729 2675 2730 2779 2776 2727 2777 2822
8 2730 2676 2731 2780 2777 2728 2778 2823
8 2732 2678 2733 2782 2779 2730 2780 2825
8 2780 2731 2679 2733 2826 2781 2734 2783
8 2782 2733 2681 2735 2827 2783 2736 2784
8 2830 2785 2738 2787 2804 2756 2706 2759
8 2789 2739 2686 2740 2832 2786 2738 2787
8 2790 2740 2707 2760 2833 2787 2759 2806
8 2742 2687 2739 2789 2792 2741 2788 2835
8 2743 2688 2740 2790 2793 2742 2789 2836
8 2792 2741 2791 2838 2745 2689 2744 2795
8 2793 2742 2792 2839 2746 2690 2745 2796
8 2795 2744 2794 2841 2748 2693 2749 2798
8 2796 2745 2795 2842 2747 2692 2748 2797
8 2797 2748 2798 2843 2750 2695 2751 2800
8 2798 2749 2799 2844 2751 2696 2752 2801
8 2800 2751 2801 2845 2753 2698 2754 2802
8 2808 2762 2803 2847 2763 2713 2756 2804
8 2809 2763 2804 2848 2764 2714 2757 2805
8 2806 2759 2710 2761 2848 2804 2757 2805
8 2765 2716 2766 2811 2808 2762 2807 2850
8 2810 2765 2808 2851 2767 2718 2763 2809
8 2810 2765 2718 2767 2852 2811 2768 2813
8 2811 2766 2719 2768 2853 2812 2769 2814
8 2855 2814 2768 2813 2816 2771 2721 2770
8 2856 2815 2769 2814 2817 2772 2722 2771
8 2773 2724 2774 2819 2816 2771 2817 2858
8 2774 2725 2775 2820 2817 2772 2818 2859
8 2776 2727 2777 2822 2819 2774 2820 2861
8 2777 2728 2778 2823 2820 2775 2821 2862
8 2779 2730 2780 2825 2822 2777 2823 2864
8 2823 2778 2731 2780 2865 2824 2781 2826
8 2825 2780 2733 2782 2866 2826 2783 2827
8 2869 2828 2785 2830 2847 2803 2756 2804
8 2871 2829 2786 2832 2830 2785 2738 2787
8 2872 2830 2787 2833 2848 2804 2759 2806
8 2789 2739 2786 2832 2835 2788 2831 2874
8 2836 2789 2740 2790 2875 2832 2787 2833
8 2792 2741 2788 2835 2838 2791 2834 2877
8 2793 2742 2789 2836 2839 2792 2835 2878
8 2838 2791 2837 2880 2795 2744 2794 2841
8 2839 2792 2838 2881 2796 2745 2795 2842
8 2841 2794 2840 2882 2798 2749 2799 2844
8 2842 2795 2841 2883 2797 2748 2798 2843
8 2843 2798 2844 2884 2800 2751 2801 2845
8 2886 2846 2803 2847 2850 2807 2762 2808
8 2851 2808 2847 2887 2809 2763 2804 2848
8 2850 2807 2766 2811 2889 2849 2812 2853
8 2810 2765 2811 2852 2851 2808 2850 2890
8 2852 2811 2768 2813 2891 2853 2814 2855
8 2853 2812 2769 2814 2892 2854 2815 2856
8 2894 2856 2814 2855 2858 2817 2771 2816
8 2817 2772 2818 2859 2856 2815 2857 2895
8 2819 2774 2820 2861 2858 2817 2859 2897
8 2820 2775 2821 2862 2859 2818 2860 2898
8 2822 2777 2823 2864 2861 2820 2862 2900
8 2823 2778 2824 2865 2862 2821 2863 2901
8 2864 2823 2780 2825 2902 2865 2826 2866
8 2904 2867 2828 2869 2886 2846 2803 2847
8 2869 2828 2868 2906 2830 2785 2829 2871
8 2907 2869 2830 2872 2887 2847 2804 2848
8 2871 2829 2870 2909 2832 2786 2831 2874
8 2910 2871 2832 2875 2872 2830 2787 2833
8 2835 2788 2831 2874 2877 2834 2873 2912
8 2836 2789 2832 2875 2878 2835 2874 2913
8 2877 2834 2876 2915 2838 2791 2837 2880
8 2839 2792 2835 2878 2881 2838 2877 2916
8 2880 2837 2879 2917 2841 2794 2840 2882
8 2881 2838 2880 2918 2842 2795 2841 2883
8 2883 2841 2882 2919 2843 2798 2844 2884
8 2921 2885 2846 2886 2889 2849 2807 2850
8 2922 2886 2847 2887 2890 2850 2808 2851
8 2889 2849 2812 2853 2924 2888 2854 2892
8 2890 2850 2811 2852 2925 2889 2853 2891
8 2891 2853 2814 2855 2926 2892 2856 2894
8 2892 2854 2815 2856 2927 2893 2857 2895
8 2858 2817 2859 2897 2894 2856 2895 2929
8 2859 2818 2860 2898 2895 2857 2896 2930
8 2861 2820 2862 2900 2897 2859 2898 2932
8 2862 2821 2863 2901 2898 2860 2899 2933
8 2864 2823 2865 2902 2900 2862 2901 2934
8 2904 2867 2846 2886 2936 2903 2885 2921
8 2904 2867 2903 2936 2869 2828 2868 2906
8 2937 2904 2869 2907 2922 2886 2847 2887
8 2906 2868 2905 2939 2871 2829 2870 2909
8 2907 2869 2906 2940 2872 2830 2871 2910
8 2909 2870 2908 2942 2874 2831 2873 2912
8 2910 2871 2909 2943 2875 2832 2874 2913
8 2912 2873 2911 2945 2877 2834 2876 2915
8 2878 2835 2874 2913 2916 2877 2912 2946
8 2915 2876 2914 2947 2880 2837 2879 2917
8 2916 2877 2915 2948 2881 2838 2880 2918
8 2918 2880 2917 2949 2883 2841 2882 2919
8 2921 2885 2849 2889 2951 2920 2888 2924
8 2952 2921 2886 2922 2925 2889 2850 2890
8 2924 2888 2854 2892 2954 2923 2893 2927
8 2925 2889 2853 2891 2955 2924 2892 2926
8 2926 2892 2856 2894 2956 2927 2895 2929
8 2895 2857 2896 2930 2927 2893 2928 2957
8 2897 2859 2898 2932 2929 2895 2930 2959
8 2898 2860 2899 2933 2930 2896 2931 2960
8 2900 2862 2901 2934 2932 2898 2933 2961
8 2936 2903 2885 2921 2963 2935 2920 2951
8 2936 2903 2935 2963 2906 2868 2905 2939
8 2937 2904 2886 2922 2964 2936 2921 2952
8 2937 2904 2936 2964 2907 2869 2906 2940
8 2939 2905 2938 2966 2909 2870 2908 2942
8 2940 2906 2939 2967 2910 2871 2909 2943
8 2942 2908 2941 2969 2912 2873 2911 2945
8 2943 2909 2942 2970 2913 2874 2912 2946
8 2945 2911 2944 2971 2915 2876 2914 2947
8 2946 2912 2945 2972 2916 2877 2915 2948
8 2948 2915 2947 2973 2918 2880 2917 2949
8 2951 2920 2888 2924 2975 2950 2923 2954
8 2952 2921 2889 2925 2976 2951 2924 2955
8 2927 2893 2928 2957 2954 2923 2953 2978
8 2955 2924 2892 2926 2979 2954 2927 2956
8 2929 2895 2930 2959 2956 2927 2957 2980
8 2930 2896 2931 2960 2957 2928 2958 2981
8 2932 2898 2933 2961 2959 2930 2960 2982
8 2951 2920 2950 2975 2963 2935 2962 2984
8 2963 2935 2962 2984 2939 2905 2938 2966
8 2964 2936 2921 2952 2985 2963 2951 2976
8 2964 2936 2963 2985 2940 2906 2939 2967
8 2966 2938 2965 2987 2942 2908 2941 2969
8 2967 2939 2966 2988 2943 2909 2942 2970
8 2969 2941 2968 2989 2945 2911 2944 2971
8 2970 2942 2969 2990 2946 2912 2945 2972
8 2972 2945 2971 2991 2948 2915 2947 2973
8 2954 2923 2953 2978 2975 2950 2974 2993
8 2976 2951 2924 2955 2994 2975 2954 2979
8 2957 2928 2958 2981 2978 2953 2977 2995
8 2956 2927 2957 2980 2979 2954 2978 2996
8 2959 2930 2960 2982 2980 2957 2981 2997
8 2984 2962 2983 2999 2966 2938 2965 2987
8 2975 2950 2974 2993 2984 2962 2983 2999
8 2976 2951 2975 2994 2985 2963 2984 3000
8 2985 2963 2984 3000 2967 2939 2966 2988
8 2987 2965 2986 3001 2969 2941 2968 2989
8 2988 2966 2987 3002 2970 2942 2969 2990
8 2990 2969 2989 3003 2972 2945 2971 2991
8 2978 2953 2977 2995 2993 2974 2992 3004
8 2979 2954 2978 2996 2994 2975 2993 3005
8 2980 2957 2981 2997 2996 2978 2995 3006
8 2974 2993 2999 2983 2992 3004 3007 2998
8 2983 2999 2987 2965 2998 3007 3001 2986
8 3000 2984 2999 3008 2988 2966 2987 3002
8 2994 2975 2993 3005 3000 2984 2999 3008
8 3002 2987 3001 3009 2990 2969 2989 3003
8 2996 2978 2995 3006 3005 2993 3004 3010
8 3005 2993 3004 3010 3008 2999 3007 3011
8 3008 2999 3007 3011 3002 2987 3001 3009

CELL_TYPES 1910
12
12
12
12
12
12
12
12
12
12
12
12
12
12
12
12
12
12
12
12
12
12
12
12
12
12
12
12
12
12
12
12
12
12
12
12
12
12
12
12
12
12
12
12
12
12
12
12
12
12
12
12
12
12
12
12
12
12
12
12
12
12
12
12
12
12
12
12
12
12
12
12
12
12
12
12
12
12
12
12
12
12
12
12
12
12
12
12
12
12
12
12
12
12
12
12
12
12
12
12
12
12
12
12
12
12
12
12
12
12
12
12
12
12
12
12
12
12
12
12
12
12
12
12
12
12
12
12
12
12
12
12
12
12
12
12
12
12
12
12
12
12
12
12
12
12
12
12
12
12
12
12
12
12
12
12
12
12
12
12
12
12
12
12
12
12
12
12
12
12
12
12
12
12
12
12
12
12
12
12
12
12
12
12
12
12
12
12
12
12
12
12
12
12
12
12
12
12
12
12
12
12
12
12
12
12
12
12
12
12
12
12
12
12
12
12
12
12
12
12
12
12
12
12
12
12
12
12
12
12
12
12
12
12
12
12
12
12
12
12
12
12
12
12
12
12
12
12
12
12
12
12
12
12
12
12
12
12
12
12
12
12
12
12
12
12
12
12
12
12
12
12
12
12
12
12
12
12
12
12
12
12
12
12
12
12
12
12
12
12
12
12
12
12
12
12
12
12
12
12
12
12
12
12
12
12
12
12
12
12
12
12
12
12
12
12
12
12
12
12
12
12
12
12
12
12
12
12
12
12
12
12
12
12
12
12
12
12
12
12
12
12
12
12
12
12
12
12
12
12
12
12
12
12
12
12
12
12
12
12
12
12
12
12
12
12
12
12
12
12
12
12
12
12
12
12
12
12
12
12
12
12
12
12
12
12
12
12
12
12
12
12
12
12
12
12
12
12
12
12
12
12
12
12
12
12
12
12
12
12
12
12
12
12
12
12
12
12
12
12
12
12
12
12
12
12
12
12
12
12
12
12
12
12
12
12
12
12
12
12
12
12
12
12
12
12
12
12
12
12
12
12
12
12
12
12
12
12
12
12
12
12
12
12
12
12
12
12
12
12
12
12
12
12
12
12
12
12
12
12
12
12
12
12
12
12
12
12
12
12
12
12
12
12
12
12
12
12
12
12
12
12
12
12
12
12
12
12
12
12
12
12
12
12
12
12
12
12
12
12
12
12
12
12
12
12
12
12
12
12
12
12
12
12
12
12
12
12
12
12
12
12
12
12
12
12
12
12
12
12
12
12
12
12
12
12
12
12
12
12
12
12
12
12
12
12
12
12
12
12
12
12
12
12
12
12
12
12
12
12
12
12
12
12
12
12
12
12
12
12
12
12
12
12
12
12
12
12
12
12
12
12
12
12
12
12
12
12
12
12
12
12
12
12
12
12
12
12
12
12
12
12
12
12
12
12
12
12
12
12
12
12
12
12
12
12
12
12
12
12
12
12
12
12
12
12
12
12
12
12
12
12
12
12
12
12
12
12
12
12
12
12
12
12
12
12
12
12
12
12
12
12
12
12
12
12
12
12
12
12
12
12
12
12
12
12
12
12
12
12
12
12
12
12
12
12
12
12
12
12
12
12
12
12
12
12
12
12
12
12
12
12
12
12
12
12
12
12
12
12
12
12
12
12
12
12
12
12
12
12
12
12
12
12
12
12
12
12
12
12
12
12
12
12
12
12
12
12
12
12
12
12
12
12
12
12
12
12
12
12
12
12
12
12
12
12
12
12
12
12
12
12
12
12
12
12
12
12
12
12
12
12
12
12
12
12
12
12
12
12
12
12
12
12
12
12
12
12
12
12
12
12
12
12
12
12
12
12
12
12
12
12
12
12
12
12
12
12
12
12
12
12
12
12
12
12
12
12
12
12
12
12
12
12
12
12
12
12
12
12
12
12
12
12
12
12
12
12
12
12
12
12
12
12
12
12
12
12
12
12
12
12
12
12
12
12
12
12
12
12
12
12
12
12
12
12
12
12
12
12
12
12
12
12
12
12
12
12
12
12
12
12
12
12
12
12
12
12
12
12
12
12
12
12
12
12
12
12
12
12
12
12
12
12
12
12
12
12
12
12
12
12
12
12
12
12
12
12
12
12
12
12
12
12
12
12
12
12
12
12
12
12
12
12
12
12
12
12
12
12
12
12
12
12
12
12
12
12
12
12
12
12
12
12
12
12
12
12
12
12
12
12
12
12
12
12
12
12
12
12
12
12
12
12
12
12
12
12
12
12
12
12
12
12
12
12
12
12
12
12
12
12
12
12
12
12
12
12
12
12
12
12
12
12
12
12
12
12
12
12
12
12
12
12
12
12
12
12
12
12
12
12
12
12
12
12
12
12
12
12
12
12
12
12
12
12
12
12
12
12
12
12
12
12
12
12
12
12
12
12
12
12
12
12
12
12
12
12
12
12
12
12
12
12
12
12
12
12
12
12
12
12
12
12
12
12
12
12
12
12
12
12
12
12
12
12
12
12
12
12
12
12
12
12
12
12
12
12
12
12
12
12
12
12
12
12
12
12
12
12
12
12
12
12
12
12
12
12
12
12
12
12
12
12
12
12
12
12
12
12
12
12
12
12
12
12
12
12
12
12
12
12
12
12
12
12
12
12
12
12
12
12
12
12
12
12
12
12
12
12
12
12
12
12
12
12
12
12
12
12
12
12
12
12
12
12
12
12
12
12
12
12
12
12
12
12
12
12
12
12
12
12
12
12
12
12
12
12
12
12
12
12
12
12
12
12
12
12
12
12
12
12
12
12
12
12
12
12
12
12
12
12
12
12
12
12
12
12
12
12
12
12
12
12
12
12
12
12
12
12
12
12
12
12
12
12
12
12
12
12
12
12
12
12
12
12
12
12
12
12
12
12
12
12
12
12
12
12
12
12
12
12
12
12
12
12
12
12
12
12
12
12
12
12
12
12
12
12
12
12
12
12
12
12
12
12
12
12
12
12
12
12
12
12
12
12
12
12
12
12
12
12
12
12
12
12
12
12
12
12
12
12
12
12
12
12
12
12
12
12
12
12
12
12
12
12
12
12
12
12
12
12
12
12
12
12
12
12
12
12
12
12
12
12
12
12
12
12
12
12
12
12
12
12
12
12
12
12
12
12
12
12
12
12
12
12
12
12
12
12
12
12
12
12
12
12
12
12
12
12
12
12
12
12
12
12
12
12
12
12
12
12
12
12
12
12
12
12
12
12
12
12
12
12
12
12
12
12
12
12
12
12
12
12
12
12
12
12
12
12
12
12
12
12
12
12
12
12
12
12
12
12
12
12
12
12
12
12
12
12
12
12
12
12
12
12
12
12
12
12
12
12
12
12
12
12
12
12
12
12
12
12
12
12
12
12
12
12
12
12
12
12
12
12
12
12
12
12
12
12
12
12
12
12
12
12
12
12
12
12
12
12
12
12
12
12
12
12
12
12
12
12
12
12
12
12
12
12
12
12
12
12
12
12
12
12
12
12
12
12
12
12
12
12
12
12
12
12
12
12
12
12
12
12
12
12
12
12
12
12
12
12
12
12
12
12
12
12
12
12
12
12
12
12
12
12
12
12
12
12
12
12
12
12
12
12
12
12
12
12
12
12
12
12
12
12
12
12
12
12
12
12
12
12
12
12
12
12
12
12
12
12
12
12
12
12
12
12
12
12
12
12
12
12
12
12
12
12
12
12
12
12
12
12
12
12
12
12
12
12
12
12
12
12
12
12
12
12
12
12
12
12
12
12
12
12
12
12
12
12
12
12
12
12
12
12
12
12
12
12
12
12
12
12
12
12
12
12
12
12
12
12
12
12
12
12
12
12
12
12
12
12
12
12
12
12
12
12
12
12
12
12
12
12
12
12
12
12
12
12
12
12
12
12
12
12
12
12
12
12
12
12
12
12
12
12
12
12
12
12
12
12
12
12
12
12
12
12
12
12
12
12
12
12
12
12
12
12
12
12
12
12
12
12
12
12
12
12
12
12
12
12
12
12
12
12
12
12
12
12
12
12
12
12
12
12
12
12
12
12
12
12
12
12
12
12
12
12
12
12
12
12
12
12
12
12
12
12
12
12
12
12
12
12
12
12
12
12
12
12
12
12
12
12
12
12
12
12
12
12
12
12
12
12
12
12
12
12
12
12
12
12
12
12
12
12
12
12
12
12
12
12
12
12
12
12
12
12
12
12
12
12
12
12
12
12
12
12
12
12
12
12
12
12
12
12
12
12
12
12
12
12
12
12
12
12
12
12
12
12
12
12
12
12
12
12
12
12
12
12
12
12
12
12
12
12
12
12
12
12
12
12
12
12
12
12
12
12
12
12

POINT_DATA 3012
SCALARS Jp_lamdaP float 4
LOOKUP_TABLE default
0.999614 1 1 0.999614
1 1 1 1
0.999626 1 1 0.999626
0.999558 1 1 0.999558
0.999616 1 1 0.999616
0.999592 1 1 0.999592
1.00131 1.00261 1 0.99871
1 1 1 1
1 1 1 1
1 1 1 1
0.999688 1 1 0.999688
0.999098 1.0003 1 0.998799
0.999567 1 1 0.999567
0.999568 1 1 0.999568
0.999629 1 1 0.999629
0.999588 1 1 0.999588
0.999599 1 1 0.999599
0.999636 1 1 0.999636
1.00141 1.0027 1 0.998711
1 1 1 1
0.999542 1 1 0.999542
0.999592 1 1 0.999592
0.999261 1.00067 1 0.998591
1.00088 1.00219 1 0.998691
0.999591 1 1 0.999591
1.00032 1.0016 1 0.998718
1.01954 1.02226 1 0.997344
1 1 1 1
0.9998 1 1 0.9998
0.999813 1 1 0.999813
1 1 1 1
0.999119 1.00031 1 0.998808
0.999593 1 1 0.999593
0.999621 1 1 0.999621
1.00177 1.0029 1 0.998875
1 1 1 1
1.00047 1.00152 1 0.998954
0.998898 1 1 0.998898
1.01096 1.01368 1 0.997316
1 1 1 1
1 1 1 1
0.999785 1 1 0.999785
1 1 1 1
0.999578 1 1 0.999578
0.998525 1 1 0.998525
1 1 1 1
0.999024 1.00024 1 0.99878
0.999613 1 1 0.999613
0.99965 1 1 0.99965
0.999601 1 1 0.999601
1.00152 1.00281 1 0.998716
0.999769 1 1 0.999769
0.999569 1 1 0.999569
0.999605 1 1 0.999605
0.999618 1 1 0.999618
0.999086 1.0005 1 0.998587
1.00061 1.00189 1 0.998721
1.00086 1.00217 1 0.998691
1.01962 1.02234 1 0.997331
1 1 1 1
0.999547 1 1 0.999547
0.998825 1 1 0.998825
0.99863 1.00006 1 0.998567
0.999975 1.00133 1 0.998644
1.02194 1.02492 1 0.997097
1.02038 1.02324 1 0.997204
0.999656 1 1 0.999656
0.998814 1 1 0.998814
1.01674 1.01937 1 0.997428
1.03981 1.04351 1 0.996453
1 1 1 1
1 1 1 1
1 1 1 1
0.998981 1.00017 1 0.998816
1 1 1 1
1 1 1 1
1.00148 1.00282 1 0.99867
0.999881 1 1 0.999881
0.999833 1.00106 1 0.998769
0.999087 1 1.00005 0.999032
1.00955 1.01227 1 0.997312
1 1 1 1
1.00141 1 1.00173 0.999689
1.00106 1.00247 1 0.998588
1.00126 1.00256 1 0.998701
1.02401 1.0272 1 0.996897
0.999697 1 1.00038 0.999314
1.01556 1.0184 1 0.997215
1.00588 1.00843 1 0.997471
1.02269 1.02621 1 0.996568
1 1 1 1
1 1 1 1
1 1 1 1
1 1 1 1
1 1 1 1
0.999788 1 1 0.999788
0.998666 1 1 0.998666
0.999785 1 1 0.999785
0.999355 1.00068 1 0.998672
1 1 1 1
0.998546 1 1 0.998546
0.99878 1 1 0.99878
1.01912 1.02244 1 0.996755
1.00021 1.0014 1 0.998812
1.02488 1.0282 1 0.996769
0.99959 1 1 0.99959
0.999593 1 1 0.999593
0.999616 1 1 0.999616
0.999641 1 1 0.999641
0.998942 1.00036 1 0.998584
1.00086 1.00217 1 0.998694
1.0008 1.00208 1 0.998727
1.01966 1.0224 1 0.997318
1 1 1 1
0.999572 1 1 0.999572
0.998577 1 1 0.998577
0.998606 1.00005 1 0.99856
0.99983 1 1 0.99983
0.999089 1.00019 1 0.998896
0.999877 1.00124 1 0.998642
1.02206 1.02507 1 0.997065
1.01674 1.01938 1 0.997411
1.02078 1.02362 1 0.997228
1.03973 1.04342 1 0.996462
0.998569 1 1 0.998569
0.998571 1 1 0.998571
1.01842 1.02147 1 0.997018
1.02145 1.0245 1 0.997024
1.02159 1.02455 1 0.997112
1.05058 1.05434 1 0.996439
1 1 1 1
1.04342 1.04714 1 0.996447
0.999313 1 1.00031 0.999006
1.01019 1.01283 1 0.997392
1.03636 1.04005 1 0.996458
1.04504 1.04883 1 0.996381
1.00147 1 1.0021 0.999373
1.00657 1 1.00837 0.998208
1 1 1 1
1 1 1 1
1.00137 1.0027 1 0.998675
1 1 1 1
0.999203 1 1.00023 0.998973
0.999676 1.0009 1 0.998776
1.00864 1.01136 1 0.997309
1 1 1 1
1.00111 1 1.0014 0.999713
1.00134 1.00262 1 0.998717
1.00104 1.00222 1 0.99882
1.0234 1.02658 1 0.996897
0.999984 1 1.00075 0.999236
1.01505 1.01788 1 0.997217
1.0045 1.00701 1.00004 0.997469
1.0241 1.02764 1 0.996561
1.00115 1 1.00169 0.999466
1.00042 1 1.00057 0.999843
1.00393 1 1.00541 0.998522
1.02601 1.0293 1 0.996802
1.02056 1.02357 1 0.997054
1.04661 1.05048 1 0.996324
1.00207 1.00362 1.00069 0.997767
1.03264 1.03622 1 0.996545
1.01562 1.01845 1.00057 0.99665
1.03219 1.03589 1 0.996426
1 1 1 1
1 1 1 1
1 1 1 1
1.00154 1 1.002 0.999533
1 1 1 1
1 1 1 1
1 1 1 1
0.999506 1.00094 1 0.998567
0.99856 1 1 0.99856
1 1 1 1
1 1 1 1
0.998547 1 1 0.998547
0.998696 1.00002 1 0.998674
1.01988 1.0232 1 0.996755
1.00032 1.00174 1 0.998577
1.02466 1.02798 1 0.996768
0.998546 1 1 0.998546
1.01769 1.02103 1 0.996728
1.02167 1.02497 1 0.996774
1.05565 1.05944 1 0.996425
1.02634 1.02967 1 0.996767
1.0573 1.06112 1 0.996403
1 1 1 1
0.999598 1 1 0.999598
0.998303 1 1 0.998303
0.998561 1.00001 1 0.998554
1 1 1 1
0.999556 1.00058 1 0.99898
0.999786 1.00114 1 0.998643
1.0222 1.02524 1 0.997032
1.0213 1.02411 1 0.997252
1.01664 1.01929 1 0.997395
1.03973 1.04341 1 0.99647
0.998567 1 1 0.998567
0.998563 1 1 0.998563
1.01836 1.02154 1 0.996885
1.0216 1.02463 1 0.997042
1 1 1 1
0.999275 1.00007 1.00014 0.999067
1.01177 1.01433 1 0.997477
1.02185 1.02482 1 0.997106
1.05054 1.0543 1 0.996434
1.03605 1.03973 1 0.996453
1.04366 1.04735 1 0.996482
1.04462 1.0484 1 0.99639
1.00129 1 1.00193 0.999361
1.0053 1 1.0071 0.99821
1.01763 1.02095 1 0.996749
1.0194 1.02244 1 0.997029
1.05263 1.05635 1 0.996473
1.05134 1.05539 0.999735 0.996432
1.04756 1.05124 1 0.996504
1.05529 1.05942 0.999514 0.996585
1.00042 1 1.00123 0.99919
1.04795 1.05164 1 0.996492
1.00459 1.00691 1.00011 0.997585
1.03009 1.03369 1 0.996515
1.0423 1.04618 1 0.996288
1.04456 1.0481 1 0.99662
1.00323 1.00058 1.00471 0.997957
1.00604 1 1.00754 0.998516
1.00375 1.00079 1.00546 0.997511
1.00138 1.00276 1 0.998619
1 1 1 1
1.00043 1 1.00069 0.999737
1.00059 1.00186 1 0.998736
1.02287 1.02606 1 0.996897
1.00017 1 1.00094 0.999237
1.0029 1.00541 1.00004 0.997468
1.01397 1.0168 1 0.997219
1.02546 1.029 1 0.996553
1.00115 1 1.00167 0.999488
1.00001 1 1.00015 0.999861
1.00488 1 1.00637 0.998522
1.02535 1.02864 1 0.9968
1.01992 1.02294 1 0.997057
1.04674 1.05061 1 0.996318
1.00078 1.0025 1.00051 0.997771
1.03363 1.03721 1 0.996547
1.01636 1.0193 1.00047 0.996643
1.03314 1.03685 1 0.996426
0.999921 1 1 0.999921
1.00216 1.0008 1.00325 0.998114
1.00355 1 1.00461 0.998943
1.00515 1.00078 1.00654 0.997832
1.05109 1.05498 1 0.99631
1.04085 1.04458 1 0.996426
1.04939 1.05328 1 0.99631
1.00856 1.0111 1.00049 0.996994
1.03713 1.04079 1 0.996488
1.0286 1.03075 1.00158 0.996343
1.04101 1.04481 1 0.996367
0.999608 1 1 0.999608
0.999979 1 1 0.999979
1 1 1 1
1 1 1 1
1 1 1 1
1.0008 1 1.00111 0.999687
1 1 1 1
1.00178 1 1.00226 0.999518
1 1 1 1
1.00064 1.00207 1 0.998578
0.998775 1.00021 1 0.998567
1.02475 1.02807 1 0.996767
1.02064 1.02396 1 0.996755
0.998549 1 1 0.998549
1 1 1 1
0.998545 1 1 0.998545
1.01803 1.02137 1 0.996728
1.02253 1.02584 1 0.996774
1.05471 1.0585 1 0.996424
1.02582 1.02915 1 0.996764
1.05702 1.06084 1 0.9964
1.01733 1.02067 1 0.996726
1.05343 1.05723 1 0.996402
1.0574 1.06119 1 0.996428
1.05798 1.06515 0.996506 0.996747
1.05544 1.0593 1 0.996354
1.05986 1.06459 0.998916 0.996641
0.998565 1 1 0.998565
0.998556 1 1 0.998556
1.01831 1.02163 1 0.996752
1.02172 1.02473 1 0.997059
1 1 1 1
0.999139 1.00001 1 0.999128
1.01322 1.0157 1 0.99756
1.0221 1.02508 1 0.9971
1.05047 1.05424 1 0.996429
1.04376 1.04741 1 0.996516
1.03591 1.0396 1 0.996449
1.04431 1.04808 1 0.9964
1.00128 1 1.00193 0.999348
1.00467 1.00005 1.00642 0.998212
1.01752 1.02085 1 0.996735
1.01951 1.02256 1 0.997024
1.05231 1.05621 0.999806 0.996498
1.05172 1.05564 0.999853 0.996432
1.00009 1 1.00091 0.99918
1.00622 1.00856 1.0001 0.997583
1.02938 1.03295 1 0.996545
1.04761 1.05131 1 0.996484
1.05484 1.05919 0.999258 0.996632
1.04209 1.04599 1 0.996274
1.04778 1.05147 1 0.996496
1.04466 1.0482 1 0.996616
1.00326 1.00089 1.00442 0.997958
1.00443 1.001 1.00594 0.997509
1.00626 1 1.00776 0.998515
1.05193 1.05568 1 0.996448
1.05268 1.05669 0.999696 0.996506
1.05767 1.06363 0.997707 0.996679
1.05594 1.06117 0.998426 0.99664
1.05064 1.05466 0.999589 0.996597
1.0485 1.05689 0.995112 0.996932
1.0007 1.00233 1.0006 0.997782
1.04648 1.05042 0.999479 0.996771
1.01701 1.02027 1 0.996805
1.0342 1.03821 1 0.996136
1.04068 1.04457 1 0.996285
1.03849 1.04182 0.999917 0.996884
1.00426 1 1.00546 0.998807
1.00079 1.00275 1.00067 0.997373
1.00863 1 1.01098 0.997673
1.00366 1.00378 1.00266 0.997225
1.02474 1.02803 1 0.996797
0.999879 1 1 0.999879
1.00132 1 1.00181 0.999511
1.00661 1 1.0081 0.998521
1.01928 1.02228 1 0.99706
1.0468 1.05068 1 0.996313
0.999393 1.00121 1.00041 0.997776
1.01669 1.01979 1.00033 0.996636
1.03486 1.03845 1 0.996549
1.03302 1.03672 1 0.996425
0.999933 1 1 0.999933
1.0027 1.00043 1.00415 0.998116
1.00334 1 1.00439 0.998952
1.00518 1.00044 1.00693 0.997826
1.0511 1.055 1 0.996303
1.041 1.04474 1 0.996424
1.04892 1.05281 1 0.996307
1.00679 1.00937 1.00045 0.997001
1.03676 1.04042 1 0.996483
1.02714 1.02914 1.00173 0.996331
1.04068 1.04439 1 0.996452
0.999961 1 1 0.999961
1.00119 1 1.00193 0.999258
1.00409 1.00473 1.00191 0.997453
1.00685 1 1.00866 0.998204
1.00273 1.00197 1.00322 0.997552
1.05436 1.05818 1 0.996385
1.04298 1.04679 1 0.996365
1.04419 1.0479 1 0.996458
1.01151 1.01293 1.00199 0.996606
1.0359 1.03953 1 0.996504
1.02372 1.02681 1.00086 0.996136
0.999553 1 1 0.999553
0.999004 1 1 0.999004
0.999653 1 1 0.999653
0.99961 1 1 0.99961
0.999987 1 1 0.999987
0.999981 1 1 0.999981
1 1 1 1
1 1 1 1
1 1 1 1
1.00005 1 1.00021 0.999836
1 1 1 1
1.00124 1 1.00157 0.999671
1 1 1 1
1.00163 1 1.00213 0.999503
1 1 1 1
1.02533 1.02866 1 0.99676
1.02311 1.02642 1 0.996773
1.05647 1.06029 1 0.996397
1.05373 1.05751 1 0.996422
1.01841 1.02175 1 0.996728
0.998544 1 1 0.998544
1.01739 1.02073 1 0.996726
1.05316 1.05696 1 0.996403
1.05628 1.06007 1 0.996426
1.05806 1.06561 0.996132 0.996765
1.05496 1.05883 1 0.996349
1.06002 1.0646 0.999058 0.996639
1.05206 1.05587 1 0.996394
1.05785 1.06528 0.996244 0.99677
1.05875 1.06515 0.997262 0.996715
1.05321 1.06284 0.993942 0.996982
1.05731 1.06119 0.999827 0.996522
1.05352 1.06448 0.992688 0.996987
1.01743 1.02077 1 0.996721
1.01963 1.02268 1 0.997018
1.052 1.0561 0.999597 0.996524
1.05216 1.05592 1 0.996433
0.999759 1 1.00059 0.999169
1.00811 1.01048 1.00008 0.997582
1.02934 1.03288 1 0.996574
1.04768 1.0514 1 0.996464
1.05439 1.05899 0.998977 0.996679
1.04764 1.05132 1 0.996501
1.0418 1.04571 1 0.996259
1.04481 1.04836 1 0.996611
1.00304 1.00123 1.00386 0.997959
1.00509 1.0013 1.00629 0.997508
1.00631 1 1.0078 0.998515
1.05198 1.05575 1 0.996429
1.05269 1.05673 0.999664 0.996504
1.05718 1.06352 0.997312 0.996725
1.05562 1.06079 0.998503 0.996618
1.00219 1.00363 1.00078 0.99778
1.01761 1.02087 1 0.996802
1.03292 1.03685 1.00003 0.996174
1.05092 1.05478 0.999779 0.996559
1.04821 1.05718 0.994521 0.996982
1.04154 1.04547 1 0.996246
1.04671 1.05064 0.999487 0.996773
1.03947 1.04276 0.999924 0.99692
1.00232 1.00379 1.00117 0.997373
1.00391 1.00396 1.00277 0.997187
1.00447 1 1.00568 0.998803
1.00821 1.00001 1.01051 0.997713
1.05723 1.06367 0.997223 0.996721
1.05816 1.06413 0.997719 0.996668
1.04815 1.05814 0.993641 0.996898
1.0468 1.05882 0.991615 0.997009
1.04763 1.05338 0.997622 0.996912
1.04573 1.05686 0.992282 0.997162
1.00597 1.00887 1 0.997123
1.03948 1.04594 0.996669 0.997139
1.02069 1.02441 1 0.996371
1.03133 1.03534 1.00018 0.995956
1.04204 1.04593 1 0.996279
1.04074 1.04392 1 0.99695
1.00061 1 1.00155 0.999058
1.01019 1 1.01224 0.997973
1.00368 1.00665 1 0.997055
1.00506 1.00124 1.00645 0.997376
1.00505 1.00549 1.00251 0.997061
0.999945 1 1 0.999945
1.05106 1.05497 1 0.996297
1.00259 1 1.00363 0.99896
1.0032 1.00026 1.00483 0.998118
1.00495 1.00012 1.00703 0.997819
1.0412 1.04494 1 0.996421
1.04853 1.05242 1 0.996304
1.00595 1.00846 1.00051 0.997007
1.02747 1.02928 1.00193 0.996318
1.03652 1.04019 1 0.996478
1.04109 1.04471 1 0.996536
0.999967 1 1 0.999967
1.00072 1 1.00145 0.999268
1.00228 1.00349 1.00134 0.997458
1.00806 1 1.00988 0.998201
1.00274 1.00159 1.00363 0.997527
1.05419 1.05802 1 0.996379
1.04278 1.04658 1 0.996363
1.04421 1.04793 1 0.996447
1.0124 1.01368 1.00213 0.996608
1.03863 1.04228 1 0.996494
1.02408 1.02704 1.00096 0.996162
0.999743 1 1.00029 0.999451
1.00351 1 1.00494 0.998581
1.00142 1.00386 1.00048 0.997099
1.00881 1.00152 1.00946 0.997835
1.00362 1.00412 1.00203 0.997474
1.05139 1.05531 0.999686 0.996601
1.03842 1.04212 1 0.996448
1.04378 1.0473 0.999963 0.996673
1.00441 1.00419 1.00379 0.99644
1.02179 1.02577 1 0.996117
0.999556 1 1 0.999556
0.99892 1 1 0.99892
0.999108 1 1.00013 0.998978
0.998888 1 1.00017 0.99872
0.999127 1 1.00009 0.999036
0.99968 1 1 0.99968
0.999655 1 1 0.999655
0.999994 1 1 0.999994
0.999612 1 1 0.999612
0.99999 1 1 0.99999
1 1 1 1
0.999984 1 1 0.999984
1 1 1 1
1 1 1 1
0.999942 1 1 0.999942
1.00043 1 1.00062 0.999816
1 1 1 1
1 1 1 1
1.00177 1 1.00212 0.999654
1 1 1 1
1.05452 1.05839 1 0.996345
1.05546 1.05925 1 0.996423
1.06038 1.06483 0.999185 0.996637
1.0582 1.06614 0.995759 0.996782
1.05283 1.05663 1 0.996403
1.01741 1.02075 1 0.996726
1.05214 1.05594 1 0.996395
1.05766 1.06501 0.996315 0.996765
1.05936 1.06572 0.997305 0.996716
1.05261 1.06276 0.993412 0.997012
1.05807 1.06192 0.999855 0.996515
1.05382 1.06444 0.99299 0.997009
1.05762 1.06457 0.996717 0.99674
1.05101 1.06163 0.99302 0.996958
1.05333 1.06421 0.992705 0.997052
1.05294 1.06628 0.990329 0.997133
1.05493 1.0613 0.997164 0.996824
1.05241 1.06707 0.989021 0.997214
1.05195 1.05574 1 0.996409
1.05266 1.05675 0.999632 0.996502
1.05668 1.06337 0.996932 0.99677
1.05519 1.06033 0.998551 0.996597
1.0035 1.00476 1.00097 0.997778
1.01688 1.02015 1 0.996798
1.03099 1.03472 1.00018 0.996212
1.05119 1.05486 1 0.996522
1.04794 1.05742 0.993982 0.997031
1.04684 1.05076 0.999491 0.996775
1.04221 1.04618 1 0.996208
1.03973 1.04295 0.999953 0.996957
1.00401 1.00486 1.00179 0.997373
1.00402 1.00398 1.0029 0.99715
1.00465 1 1.00586 0.9988
1.00752 1.00008 1.0097 0.997753
1.0572 1.06365 0.997209 0.99672
1.05773 1.06356 0.997869 0.996649
1.04828 1.05835 0.993533 0.99693
1.04777 1.0591 0.992294 0.996992
1.00664 1.00955 1 0.997116
1.01913 1.02277 1.00003 0.99641
1.03113 1.03493 1.00039 0.995945
1.04807 1.05335 0.998119 0.996862
1.04451 1.05601 0.991865 0.997218
1.03816 1.04205 1 0.996265
1.04042 1.04683 0.996733 0.997139
1.04157 1.04469 1 0.997012
1.00331 1.00627 1 0.997055
1.0045 1.00565 1.00181 0.997054
1.00623 1.00152 1.00735 0.99737
1.00126 1 1.00224 0.999023
1.00982 1 1.01183 0.998016
1.04949 1.06036 0.992782 0.996944
1.04946 1.06096 0.99217 0.99697
1.04528 1.06104 0.987914 0.997203
1.0407 1.05272 0.99133 0.997224
1.00941 1.01268 1 0.996775
1.0447 1.05139 0.996315 0.997313
1.01152 1.01516 1.00029 0.996128
1.02639 1.03023 1.00051 0.995766
1.03436 1.03824 1 0.996269
0.999573 1 1.0003 0.99927
1.00672 1 1.00837 0.998366
1.00723 1 1.00954 0.997714
1.00389 1.00693 1.00006 0.996921
1.00512 1.00167 1.0064 0.997064
1.00606 1.00671 1.00246 0.996897
0.999973 1 1 0.999973
1.00005 1 1.00077 0.999278
1.05401 1.05785 1 0.996374
1.0094 1 1.01122 0.998198
0.999893 1.00169 1.00074 0.997462
1.00266 1.00126 1.0039 0.997502
1.0424 1.0462 1 0.996361
1.04423 1.04797 1 0.996435
1.01233 1.01346 1.00229 0.99661
1.02322 1.02634 1.00077 0.996187
1.04141 1.04508 1 0.996484
0.999526 1 1.00007 0.999457
1.0039 1 1.00533 0.998585
1.00274 1.00525 1.00041 0.997091
1.00959 1.00121 1.01057 0.997829
1.00384 1.00464 1.00174 0.997471
1.05093 1.05476 0.999777 0.996595
1.03933 1.04305 1 0.996436
1.04398 1.04751 0.999936 0.996698
1.0056 1.00596 1.00324 0.996404
1.02036 1.02431 1.00006 0.996088
0.999961 1 1.00112 0.998843
1.00952 1 1.01139 0.998144
1.0037 1.00477 1.002 0.996948
1.00935 1.00449 1.00726 0.997598
1.01257 1.01428 1.001 0.997325
1.04674 1.0545 0.995536 0.997093
1.03972 1.04354 1 0.996336
1.04264 1.04617 0.999954 0.996678
1.00742 1.00679 1.00433 0.996307
1.00992 1.01408 1 0.995896
0.999559 1 1 0.999559
0.998938 1 1 0.998938
0.998655 1 1 0.998655
0.99903 1 1.00008 0.998952
0.999079 1 1.00005 0.999034
0.999068 1 1.00038 0.998693
0.999064 1 1.00044 0.99863
0.999497 1 1.00087 0.998633
0.999077 1 1.00001 0.999065
0.999674 1 1 0.999674
0.99968 1 1 0.99968
0.999998 1 1 0.999998
0.999657 1 1 0.999657
0.999996 1 1 0.999996
1 1 1 1
0.999992 1 1 0.999992
1 1 1 1
1 1 1 1
0.999988 1 1 0.999988
0.999923 1 1 0.999923
1 1 1 1
1.0009 1 1.00111 0.999795
1 1 1 1
1 1 1 1
1.05879 1.06261 0.999889 0.996509
1.05974 1.06605 0.997352 0.996716
1.05406 1.06432 0.993308 0.997031
1.05197 1.06265 0.992887 0.997042
1.05748 1.06476 0.996394 0.996759
1.05229 1.0561 1 0.996395
1.05756 1.06434 0.996894 0.996721
1.05159 1.06181 0.993404 0.996951
1.05254 1.06356 0.992576 0.997037
1.05168 1.06575 0.989618 0.997144
1.05462 1.06069 0.997439 0.996826
1.05019 1.0656 0.988249 0.997253
1.05169 1.0615 0.993797 0.996933
1.05284 1.06739 0.989205 0.997132
1.05327 1.06843 0.988551 0.997229
1.04677 1.06284 0.987567 0.997275
1.05723 1.06369 0.997197 0.99672
1.05738 1.06306 0.998019 0.996629
1.04844 1.05859 0.993431 0.996962
1.04884 1.05949 0.992948 0.996974
1.00796 1.01088 1 0.997108
1.01842 1.02204 1 0.996451
1.031 1.03461 1.00058 0.995934
1.04848 1.05334 0.998568 0.996811
1.04324 1.05516 0.9914 0.997275
1.04162 1.048 0.996769 0.99714
1.03521 1.03911 1 0.99625
1.04375 1.04681 0.999999 0.997074
1.00225 1.00521 1 0.997056
1.00423 1.00636 1.00084 0.997046
1.00752 1.0015 1.00867 0.997365
1.00175 1 1.00277 0.998989
1.00971 1 1.01167 0.998059
1.04974 1.06055 0.992833 0.996946
1.05001 1.06158 0.99211 0.996965
1.04531 1.06028 0.988655 0.997195
1.00901 1.01228 1 0.996771
1.01205 1.01568 1.00026 0.996168
1.02466 1.02824 1.00076 0.995754
1.04109 1.05271 0.991726 0.997211
1.03789 1.04166 1 0.996383
1.04107 1.048 0.996097 0.99728
0.999584 1 1.00027 0.99931
1.00384 1.0067 1.00025 0.996914
1.00404 1.00533 1.00171 0.997016
1.00764 1.00296 1.00763 0.997057
1.00765 1 1.00993 0.997739
1.00675 1 1.00843 0.998331
1.05127 1.06534 0.989739 0.99702
1.04928 1.06822 0.985088 0.997132
1.03903 1.05888 0.983932 0.997283
1.03787 1.0552 0.986124 0.997424
1.00766 1.01111 1 0.996581
1.0364 1.04106 0.998647 0.996878
1.00526 1.00791 1.00165 0.995733
1.01444 1.01786 1.00104 0.995606
0.999585 1 1 0.999585
1.00153 1 1.00283 0.998702
1.00685 1 1.00885 0.99802
1.00692 1 1.00969 0.997257
1.00354 1.00491 1.00188 0.996756
1.0089 1.00329 1.00889 0.996728
0.999463 1 1 0.999463
1.00453 1 1.00594 0.99859
1.05064 1.05437 0.999871 0.996589
1.01021 1.00077 1.01163 0.997822
1.00413 1.0068 1.00027 0.997082
1.00343 1.00445 1.00152 0.997468
1.04041 1.04415 1 0.996423
1.04426 1.04778 0.999916 0.996723
1.00717 1.00808 1.00273 0.996367
1.0189 1.02266 1.00027 0.996058
0.999875 1 1.00103 0.998846
1.00989 1 1.01179 0.998129
1.00415 1.00522 1.00198 0.996956
1.00888 1.00463 1.00664 0.997602
1.01359 1.01576 1.00048 0.997392
1.04839 1.05616 0.995483 0.99714
1.03918 1.04298 1 0.996363
1.04375 1.04723 0.99992 0.996753
1.00763 1.00679 1.00458 0.996274
1.00988 1.01409 1.00003 0.99582
1.00099 1 1.00247 0.998523
1.01 1.00101 1.01125 0.997764
1.00994 1.00929 1.00378 0.996866
1.01127 1.01247 1.00161 0.997209
1.04515 1.07205 0.977456 0.997393
1.04302 1.04848 0.997619 0.997161
1.02662 1.03072 1 0.996013
1.01281 1.01268 1.00426 0.995896
0.998956 1 1 0.998956
0.998717 1 1.00005 0.998666
0.998647 1 1 0.998647
0.999239 1 1.00021 0.999033
0.99933 1 1.00066 0.998667
0.999108 1 1.00005 0.999063
0.998882 1 1.00024 0.998641
0.999746 1 1.00111 0.998642
0.998713 1 1 0.998713
1.00013 1 1.00164 0.998492
0.999745 1 1.00115 0.998597
0.999045 1 1 0.999045
0.999641 1 1 0.999641
0.999673 1 1 0.999673
1 1 1 1
0.99968 1 1 0.99968
0.999999 1 1 0.999999
1 1 1 1
0.999997 1 1 0.999997
1 1 1 1
1 1 1 1
0.999999 1 1 0.999999
0.999978 1 1 0.999978
1 1 1 1
0.999904 1 1 0.999904
1 1 1 1
1 1 1 1
1.05423 1.06001 0.997708 0.996827
1.05186 1.06304 0.992439 0.997022
1.04805 1.06421 0.987493 0.997291
1.05044 1.06528 0.988881 0.997155
1.05218 1.06202 0.993775 0.996944
1.05746 1.06408 0.997066 0.996702
1.05146 1.06138 0.9937 0.996933
1.05268 1.06705 0.989376 0.997122
1.05179 1.06758 0.987944 0.997228
1.04789 1.06369 0.987825 0.997285
1.05389 1.06733 0.990301 0.997077
1.05435 1.07399 0.984395 0.997283
1.05303 1.07448 0.982644 0.997344
1.04997 1.06074 0.992877 0.996948
1.05051 1.06214 0.992066 0.996961
1.04542 1.0595 0.989498 0.997186
1.0091 1.01238 1 0.996768
1.01192 1.01559 1.00018 0.996207
1.02259 1.02609 1.00085 0.995742
1.04153 1.05274 0.992128 0.997197
1.03686 1.0443 0.995615 0.997247
1.04035 1.044 1 0.996496
1.00321 1.00566 1.00066 0.996906
0.999694 1.00198 1.00058 0.997135
1.0095 1.00396 1.0085 0.99705
0.999615 1 1.00026 0.99935
1.00716 1.00012 1.0093 0.997763
1.00697 1 1.00869 0.998296
1.05206 1.06584 0.990014 0.997028
1.04856 1.06794 0.984673 0.997138
1.03928 1.05861 0.984421 0.997275
1.00506 1.00851 1 0.996574
1.00518 1.008 1.0014 0.995809
1.01464 1.01811 1.0009 0.995692
1.03812 1.05486 0.986674 0.997427
1.03299 1.03837 0.997963 0.996856
0.999652 1 1 0.999652
1.00155 1 1.00286 0.9987
1.00091 1.00336 1.00076 0.9968
1.01103 1.00258 1.01159 0.996883
1.00661 1.00048 1.00885 0.997306
1.00666 1 1.00869 0.997981
1.05175 1.07178 0.984061 0.997203
1.04031 1.06949 0.975404 0.997237
1.03603 1.05876 0.981016 0.99747
1.02814 1.04254 0.988734 0.997428
1.00242 1.00481 1.00133 0.996289
1.01595 1.01863 1.00139 0.995987
1.00609 1.00795 1.00264 0.995525
0.999822 1 1 0.999822
0.999302 1 1 0.999302
0.999276 1 1.00027 0.999008
1.0022 1 1.00399 0.998218
1.00763 1 1.01002 0.997628
1.00964 1.00058 1.01204 0.997049
1.0004 1.00192 1.00158 0.996911
1.03498 1.00125 1.03663 0.997154
0.999703 1 1.00085 0.99885
1.0104 1 1.01231 0.998113
1.05008 1.05785 0.99546 0.997187
1.00985 1.00594 1.0063 0.997607
1.00483 1.00572 1.00215 0.996965
1.01438 1.01693 1.00004 0.99746
1.03847 1.04223 1 0.99639
1.04477 1.04822 0.999875 0.996829
1.00779 1.00674 1.00482 0.996242
1.00958 1.01389 1 0.995745
1.00145 1 1.00297 0.998485
1.00886 1.00044 1.01067 0.997768
1.01267 1.01163 1.00415 0.996891
1.01088 1.01224 1.00142 0.997246
1.047 1.07437 0.977049 0.997412
1.04459 1.04949 0.998218 0.997109
1.02607 1.03013 1 0.996064
1.01452 1.01493 1.00377 0.995843
1.0026 1 1.00432 0.998285
1.04986 1.07912 0.97541 0.997418
1.00347 1.00089 1.00519 0.997405
1.01246 1.01316 1.00268 0.996647
1.03739 1.05989 0.981198 0.99752
1.02291 1.02698 0.999883 0.996154
1.01074 1.0119 1.00323 0.99563
0.998678 1 1 0.998678
0.998582 0.999926 1.00002 0.998636
0.999119 1 1.00038 0.998741
0.999061 1 1 0.999061
0.999915 1 1.00126 0.998652
0.998967 1 1.00031 0.998652
0.999042 1 1 0.999042
0.999832 1 1.00123 0.998602
0.998731 1 1 0.998731
0.999727 1 1.00122 0.998507
0.998815 1 1 0.998815
0.998767 1 1.00017 0.998598
1.00011 1 1.00175 0.998366
0.998665 1 1.00013 0.998532
0.998971 1 1 0.998971
0.999599 1 1 0.999599
0.999638 1 1 0.999638
1 1 1 1
0.999671 1 1 0.999671
1 1 1 1
1 1 1 1
1 1 1 1
1 1 1 1
1 1 1 1
0.99985 1 1 0.99985
1 1 1 1
0.999997 1 1 0.999997
1 1 1 1
0.999969 1 1 0.999969
1 1 1 1
1 1 1 1
1.04898 1.06454 0.988056 0.997296
1.05028 1.06666 0.987383 0.997226
1.0525 1.06668 0.989567 0.997113
1.05122 1.06123 0.99361 0.996933
1.05351 1.06724 0.990013 0.997096
1.05416 1.07343 0.984731 0.997273
1.05071 1.07207 0.982677 0.997351
1.05391 1.07394 0.984043 0.997264
1.06439 1.08619 0.98251 0.997372
1.0591 1.08447 0.978927 0.997638
1.05283 1.06631 0.990293 0.997037
1.04775 1.06768 0.98415 0.997144
1.03948 1.05838 0.984837 0.997267
1.00423 1.00763 1.00006 0.996568
1.00584 1.00872 1.00126 0.995887
1.01724 1.02076 1.00078 0.995778
1.03846 1.05431 0.987504 0.997431
1.02959 1.0354 0.997546 0.996835
1.00156 1.00369 1.00104 0.996846
1.01435 1.00312 1.0142 0.997034
1.00746 1.00074 1.00938 0.997354
0.999718 1 1 0.999718
1.00143 1 1.00274 0.998698
1.00663 1 1.00871 0.997942
1.05162 1.0721 0.983638 0.997214
0.999817 1 1 0.999817
0.999266 1 1 0.999266
1.04112 1.06865 0.976932 0.997239
1.03427 1.0575 0.980546 0.997439
1.00321 1.00495 1.0019 0.996373
1.00614 1.00733 1.00332 0.995522
1.0162 1.01983 1.00047 0.995977
1.02706 1.04217 0.988069 0.997402
0.99937 1 1.00028 0.999093
1.00221 1 1.00401 0.998209
1.00177 1.00183 1.00314 0.996805
1.03027 1.0013 1.03171 0.997306
1.00761 1.0004 1.01018 0.997066
1.00713 1 1.00951 0.997643
1.06158 1.08603 0.980109 0.997325
1.02152 1.06704 0.959862 0.997373
1.02292 1.04951 0.976996 0.997619
1.00891 1.02318 0.9889 0.997121
1.00537 1.00278 1.00612 0.996481
1.00581 1.0048 1.0055 0.99553
0.999224 1 1 0.999224
0.999267 1 1 0.999267
0.998962 1 1 0.998962
0.998705 1 1.00028 0.998421
1.00576 1 1.00783 0.997951
1.00577 1.00023 1.00827 0.997285
1.0506 1.00006 1.05359 0.997091
1.00087 1.00049 1.00286 0.997519
1.0021 1 1.00365 0.998448
1.00733 1 1.00958 0.997772
1.04812 1.07568 0.976891 0.997432
1.04571 1.0501 0.998761 0.997056
1.01056 1.01215 1.00115 0.997282
1.01568 1.01435 1.00441 0.996915
1.02589 1.02985 1.00004 0.996115
1.01663 1.01752 1.00335 0.99579
1.00274 1 1.00448 0.998266
1.05276 1.08265 0.974849 0.997477
1.00394 1.0005 1.00602 0.997435
1.01061 1.01136 1.00269 0.996584
1.0364 1.05902 0.981095 0.997495
1.02193 1.02589 0.999897 0.996238
1.01191 1.01281 1.00348 0.995646
1.00596 0.999994 1.00801 0.997971
1.01316 1.04909 0.967781 0.997903
1.00446 1.00326 1.00407 0.997135
1.00491 1.005 1.00379 0.996129
1.01777 1.03029 0.990764 0.997057
1.00274 1.00469 1.00221 0.995856
0.97452 1.00334 0.973982 0.997218
0.998382 0.999661 1.00009 0.998626
0.999148 0.999311 1.0011 0.998741
0.999632 1 1.00097 0.998668
0.999039 1 1 0.999039
1.00021 1 1.0016 0.998607
0.999076 1 1.00055 0.998522
0.998749 1 1 0.998749
0.99897 1 1 0.99897
0.998793 1 1.00027 0.998525
0.998781 1 1 0.998781
1.00001 1 1.00164 0.998368
0.998731 1 1.00015 0.998578
0.998991 1 1.00022 0.99877
0.998781 1 1.00059 0.998187
1.00101 1 1.00267 0.998339
0.99852 1 1.00011 0.998408
0.998824 1 1 0.998824
0.999262 1 1.00067 0.998591
0.998874 1 1.00008 0.998792
0.999578 1 1 0.999578
0.999596 1 1 0.999596
1 1 1 1
0.999634 1 1 0.999634
1 1 1 1
1 1 1 1
1 1 1 1
1 1 1 1
1 1 1 1
0.999878 1 1 0.999878
0.99985 1 1 0.99985
1 1 1 1
1 1 1 1
1 1 1 1
0.999995 1 1 0.999995
1 1 1 1
1 1 1 1
1.04861 1.07 0.982606 0.997359
1.05381 1.07285 0.984946 0.997264
1.05319 1.06721 0.989725 0.997115
1.05386 1.07381 0.984113 0.997262
1.06183 1.08381 0.982299 0.997368
1.05812 1.08252 0.979851 0.997561
1.06677 1.09311 0.978412 0.997437
0.970889 1.01605 0.959929 0.995436
1.01517 1.04865 0.969675 0.998345
0.999372 1 1 0.999372
1.05151 1.0724 0.98325 0.997224
1.04204 1.06788 0.978508 0.997241
1.03239 1.05636 0.979849 0.997409
1.00005 1.00279 1.00082 0.996455
1.00468 1.00516 1.00402 0.995518
1.01525 1.01942 0.999941 0.995967
1.0258 1.0418 0.98724 0.997375
0.998852 1.00199 1.00017 0.996702
1.02363 1.00041 1.02582 0.997462
1.00531 1.00004 1.00821 0.997084
0.999812 1 1 0.999812
1.00785 1 1.01021 0.997659
0.99946 1 1.00028 0.999176
1.00229 1 1.00409 0.9982
0.999229 1 1 0.999229
1.05805 1.08621 0.976675 0.997332
0.999271 1 1 0.999271
0.999267 1 1 0.999267
0.998731 1.00009 0.999719 0.998926
1.02606 1.06753 0.963689 0.997371
1.0232 1.0496 0.977221 0.997572
1.00181 1.00215 1.00316 0.99651
1.00976 1.0086 1.00552 0.995657
1.00791 1.02092 0.990125 0.997104
0.998822 1 1.00034 0.998478
1.00573 1 1.00785 0.9979
1.00803 1.00031 1.01034 0.9974
1.04035 1.00013 1.04323 0.997114
1.0052 1.00037 1.00751 0.997335
1.03826 1.07457 0.968686 0.99744
1.00303 1.05622 0.951992 0.997528
1.01539 1.03215 0.986463 0.99727
0.991491 1.00881 0.985932 0.996862
1.00369 1 1.00656 0.997146
0.998795 1 1 0.998795
0.99873 1 1 0.99873
0.999773 1 1.0011 0.998673
1.00585 1 1.00765 0.998209
1.00856 1 1.01079 0.997794
1.03749 0.999908 1.0403 0.997384
1.03126 1.00168 1.03215 0.997465
1.00269 1 1.00446 0.998246
1.00408 1 1.00663 0.997465
1.05473 1.08701 0.972698 0.997534
1.03595 1.05898 0.980734 0.997469
1.02131 1.02519 0.999886 0.996322
1.00815 1.00896 1.00268 0.996522
1.01265 1.01341 1.0036 0.995663
1.00555 1 1.00755 0.998013
1.01286 1.04959 0.966988 0.997943
1.00159 1.00206 1.00239 0.997145
1.00398 1.00379 1.00408 0.996131
1.01671 1.03027 0.989626 0.997176
1.00325 1.00469 1.00273 0.99585
0.974207 1.00333 0.974666 0.996211
1.00621 1.00065 1.00771 0.997872
1.00176 1.02428 0.980081 0.997888
1.0005 1.00137 1.00214 0.996994
1.00432 1.00151 1.00644 0.996393
0.992115 1.00606 0.989172 0.99693
0.913639 0.976857 0.959597 0.974663
0.909678 0.968159 0.952053 0.986916
0.968492 0.984343 0.986488 0.997373
0.72795 0.83714 0.915355 0.949979
0.646504 0.797476 0.867332 0.934691
0.999093 0.998708 1.00165 0.998742
1.00064 0.999167 1.00276 0.998721
1.00035 1 1.00165 0.998704
0.99897 1 1 0.99897
0.998671 1 1.00015 0.998518
0.999579 1 1.00121 0.998369
0.998704 1 1.00015 0.998557
0.998747 1 1 0.998747
1.00165 1 1.00334 0.998315
0.998859 1 1 0.998859
0.998502 1 1.00007 0.998428
0.999003 1 1.00028 0.998724
0.999073 1 1.00084 0.998232
1.00288 1 1.00464 0.998245
1.0034 1 1.00504 0.998373
1.00236 1 1.00412 0.998252
0.998934 1 1.00061 0.99833
0.998789 1 1 0.998789
0.998883 1 1.00046 0.998421
0.999111 1 1.00067 0.998437
0.999038 1 1.00042 0.998621
0.999312 1 1.00076 0.998551
0.998912 1 1 0.998912
0.998953 1 1.00016 0.998789
0.999572 1 1 0.999572
0.999578 1 1 0.999578
1 1 1 1
0.999593 1 1 0.999593
1 1 1 1
1 1 1 1
1 1 1 1
1 1 1 1
1 1 1 1
0.999912 1 1 0.999912
0.999875 1 1 0.999875
1 1 1 1
0.999851 1 1 0.999851
1 1 1 1
1 1 1 1
1 1 1 1
1 1 1 1
1 1 1 1
1.05891 1.08114 0.982034 0.997364
1.05389 1.07372 0.984226 0.99726
1.05753 1.08076 0.980977 0.997485
0.972016 1.01587 0.961145 0.995514
1.06375 1.09045 0.978022 0.997437
1.02754 1.05217 0.978337 0.998214
1.04604 1.06449 0.985061 0.997566
0.926752 0.979782 0.959277 0.986029
0.991003 1.01935 0.975756 0.996344
0.999396 1 1 0.999396
0.999368 1 1 0.999368
0.998907 1 1 0.998907
0.999006 1 1 0.999006
1.05554 1.08639 0.974202 0.99734
1.0302 1.0674 0.967691 0.997369
1.02364 1.04953 0.97775 0.997524
1.00047 1.00092 1.00302 0.99654
1.01465 1.01379 1.00508 0.995783
1.00711 1.01911 0.991119 0.997086
1.0185 1 1.02128 0.99728
1.03259 1.00023 1.03532 0.997137
1.00365 1.00025 1.00603 0.997384
0.999266 1 1 0.999266
1.00406 1 1.00622 0.99785
0.998888 1 1.00035 0.998536
0.999317 1 1 0.999317
0.99889 1.00021 0.999792 0.99889
1.03612 1.07454 0.966707 0.997455
0.998832 1 1 0.998832
0.998794 1.0001 0.999896 0.998794
0.999521 0.999897 1.00079 0.998837
1.00873 1.05908 0.954828 0.997519
1.01523 1.03217 0.986287 0.997269
1.00351 1.00065 1.00575 0.997128
0.99484 1.00884 0.989153 0.996936
1.00423 1 1.0061 0.998145
1.00781 1 1.01015 0.997676
1.03789 1.00168 1.03881 0.997445
1.03774 1.0002 1.04034 0.997301
0.995837 1.04653 0.953806 0.997643
0.995312 1.036 0.963112 0.997518
1.00573 1.01261 0.996254 0.996935
0.982329 1.00095 0.983504 0.997857
1.00063 1 1.0021 0.998532
1.00183 1 1.00343 0.998397
1.01462 0.999663 1.01677 0.998222
1.05848 1.00006 1.06109 0.997478
0.891505 0.968043 0.948042 0.971409
1.00591 1 1.00787 0.998055
0.999274 1.00091 1.00122 0.997153
1.01397 1.04981 0.967814 0.997986
1.01573 1.02974 0.989073 0.997294
1.00371 1.00459 1.0033 0.995841
1.00355 1.00297 1.00447 0.996131
0.974584 1.00462 0.97481 0.995176
1.00467 1.00013 1.00663 0.997927
1.00118 1.02534 0.978521 0.997872
1.0003 1.00147 1.00183 0.99701
1.0046 1.00211 1.00611 0.996398
0.995729 1.0072 0.991659 0.996923
0.911085 0.983044 0.954029 0.971459
0.903007 0.964535 0.951353 0.984083
0.972465 0.985014 0.98983 0.997403
0.724302 0.832355 0.914924 0.9511
0.632689 0.787513 0.863888 0.929984
1.00184 0.999664 1.00409 0.998095
0.755492 0.852575 0.929201 0.953647
0.683419 0.804469 0.907887 0.935719
0.987731 1.0061 0.983825 0.997886
1.00778 1.00161 1.00867 0.997522
1.01353 1.00508 1.01113 0.997304
0.962277 0.976268 0.987941 0.997701
0.893013 0.956521 0.9597 0.972811
0.875002 0.937558 0.950025 0.982372
0.715796 0.831245 0.902409 0.954239
0.703362 0.851493 0.885262 0.933095
1.00213 0.998561 1.0048 0.998773
1.00112 0.999457 1.00299 0.998677
1.0055 1 1.00667 0.998839
0.998894 1 1 0.998894
0.998449 1 1 0.998449
1.00227 1 1.00398 0.998292
0.999703 1 1.00143 0.998278
0.998678 1 1 0.998678
0.99879 1 1 0.99879
1.00322 1 1.005 0.99823
1.0027 1 1.00445 0.998259
0.998566 1 1.0002 0.99837
1.00375 1 1.00535 0.998403
1.00537 1 1.00705 0.998324
1.01383 1 1.01534 0.998519
1.00114 1 1.00296 0.998178
0.998955 1 1.00057 0.998387
0.998588 1 1.00017 0.998417
0.999494 1 1.00105 0.998449
0.9998 1 1.00155 0.998252
0.999293 1 1.0008 0.998489
1.00155 1 1.00306 0.998487
1.00582 1 1.00756 0.998271
0.999905 1 1.00132 0.998583
0.998913 1 1.00029 0.998623
0.998949 1 1 0.998949
0.999077 1 1.00057 0.998512
0.998882 1 1 0.998882
0.999559 1 1 0.999559
0.998998 1 1.00021 0.998785
0.999574 1 1 0.999574
0.999999 1 1 0.999999
0.999578 1 1 0.999578
1 1 1 1
1 1 1 1
1 1 1 1
1 1 1 1
1 1 1 1
0.999348 1 1 0.999348
0.999919 1 1 0.999919
0.999908 1 1 0.999908
1 1 1 1
0.999872 1 1 0.999872
1 1 1 1
1 1 1 1
1 1 1 1
1 1 1 1
1 1 1 1
0.973813 1.01559 0.963104 0.995597
1.06157 1.08764 0.978541 0.997436
1.03543 1.05544 0.982925 0.998082
0.919318 0.974027 0.956093 0.987176
0.990315 1.01915 0.975094 0.996526
1.045 1.06847 0.980459 0.997521
1.0012 1.02823 0.976963 0.996671
0.934052 0.975194 0.968862 0.988594
0.912177 0.977027 0.960073 0.972452
0.726469 0.835094 0.911711 0.954167
0.610893 0.75495 0.866536 0.933814
0.998951 1 1 0.998951
0.999394 1 1 0.999394
0.999363 1 1 0.999363
0.998903 1 1 0.998903
0.998681 1 1 0.998681
0.998688 1 1 0.998688
0.998871 1 1 0.998871
0.998963 1 1 0.998963
1.03286 1.07505 0.963197 0.997469
1.01489 1.06311 0.957033 0.997509
1.01472 1.03218 0.985772 0.997269
1.00327 1.00186 1.00431 0.997111
0.997591 1.00835 0.992299 0.997012
1.0425 1.00125 1.04388 0.997422
1.038 1.00083 1.04003 0.997219
1.00829 1 1.01076 0.997559
0.998468 1.00017 0.999439 0.998857
1.00432 1 1.00625 0.998078
0.998869 1 1 0.998869
0.999002 1 1 0.999002
0.994737 1.04729 0.952045 0.997663
1.00045 1 1.00192 0.998542
1.00228 1 1.00383 0.998453
0.993195 1.03435 0.962629 0.997493
1.00284 1.01315 0.992721 0.997079
0.984781 1.00122 0.985822 0.99773
1.02373 0.999996 1.02579 0.997997
1.05438 1.00147 1.05546 0.997512
0.977353 1.02779 0.95322 0.997593
0.987613 1.01122 0.979097 0.997509
0.975858 1.00166 0.976628 0.997556
0.986002 1.00118 0.986796 0.998023
1.00501 1 1.00692 0.998102
1.01206 1 1.01389 0.998195
1.05126 1 1.05354 0.997828
0.760051 0.862102 0.922551 0.955639
0.909198 0.975855 0.954932 0.975665
1.00209 0.999478 1.00464 0.997984
0.999984 1.00132 1.00165 0.997027
1.00074 1.02672 0.976791 0.997856
0.998811 1.00873 0.993228 0.996918
1.005 1.0029 1.00571 0.996406
0.908938 0.974557 0.95869 0.972857
0.907626 0.972108 0.948179 0.984696
0.974257 0.983849 0.992803 0.997429
0.730597 0.834218 0.916981 0.955077
0.620058 0.777946 0.861554 0.925126
1.00118 0.999684 1.00341 0.998096
0.757018 0.8601 0.922133 0.954473
0.667924 0.790161 0.905973 0.933032
0.987706 1.00716 0.982766 0.997882
1.00782 1.00205 1.00824 0.997539
1.01175 1.00339 1.01091 0.997455
0.955471 0.970265 0.986839 0.997886
0.904383 0.968757 0.962337 0.970086
0.870649 0.933859 0.946618 0.984888
0.722324 0.829558 0.914367 0.95228
0.702929 0.858083 0.878874 0.932085
1.00332 1 1.00471 0.998612
0.71389 0.816809 0.933231 0.93653
0.785253 0.890848 0.933511 0.94425
0.986782 0.994481 0.993589 0.998661
1.01516 1.00263 1.01393 0.998586
0.964325 0.961832 1.00513 0.997475
0.883078 0.924286 0.968822 0.986163
0.856489 0.921862 0.959266 0.968538
0.726856 0.823514 0.92592 0.953244
0.754593 0.902914 0.892421 0.936476
1.002 0.999215 1.00414 0.998652
1.0044 1 1.00561 0.998797
1.00695 0.999308 1.00858 0.999074
0.998791 1 1 0.998791
0.99841 1 1 0.99841
1.00343 1 1.00518 0.998266
1.00384 1 1.00564 0.998216
1.00381 1 1.00539 0.998433
0.998845 1 1.00046 0.998385
1.00401 1 1.00572 0.998298
1.00116 1 1.00299 0.998181
1.01315 0.999802 1.0148 0.998579
1.03285 0.998709 1.03513 0.999094
1.00778 1 1.00945 0.998336
1.00045 1 1.00232 0.998137
0.998477 1 1.00007 0.998412
0.999952 1 1.00149 0.99846
1.00028 1 1.00204 0.998243
0.999674 1 1.0012 0.998476
1.00009 1 1.00151 0.998581
1.00323 1 1.00482 0.998416
1.00276 1 1.00439 0.998373
1.00242 0.999587 1.00424 0.9986
0.999356 1 1.00101 0.998344
0.998983 1.00034 1.00093 0.997712
1.00489 1 1.00674 0.998167
1.00488 1 1.00662 0.998272
1.00443 1 1.00597 0.998461
1.00068 1 1.0021 0.998581
0.998947 1 1.00002 0.998928
0.999079 1 1.00045 0.998624
0.998961 1 1.00001 0.998952
0.999547 1 1 0.999547
0.998853 1 1 0.998853
0.999562 1 1 0.999562
0.999994 1 1 0.999994
0.999575 1 1 0.999575
0.999998 1 1 0.999998
1 1 1 1
1 1 1 1
1 1 1 1
1 1 1 1
0.999353 1 1 0.999353
0.999894 1 1 0.999894
0.99935 1 1 0.99935
1 1 1 1
0.999919 1 1 0.999919
0.999904 1 1 0.999904
1 1 1 1
1 1 1 1
1 1 1 1
1 1 1 1
1 1 1 1
0.749767 0.850975 0.926489 0.950976
0.673463 0.79896 0.901816 0.934697
0.9194 0.976291 0.953436 0.987719
0.991908 1.01913 0.976496 0.996716
1.04684 1.07235 0.978682 0.997476
0.91667 0.958231 0.966305 0.989984
1.00175 1.0274 0.978135 0.996833
0.924631 0.989308 0.960121 0.973444
0.723485 0.836421 0.909571 0.950973
0.613999 0.766374 0.862336 0.929073
0.947979 0.996002 0.95896 0.992518
0.909188 0.968218 0.964793 0.9733
0.715524 0.831673 0.902254 0.953549
0.690217 0.843469 0.877699 0.932333
1.0001 1 1.00158 0.998516
0.998988 1 1 0.998988
0.999392 1 1 0.999392
0.998899 1 1 0.998899
0.998774 1 1.00003 0.998743
0.999545 1 1.00109 0.99846
0.998663 1 1 0.998663
0.998536 1 1 0.998536
0.998828 1 1 0.998828
0.998921 1 1 0.998921
0.993906 1.04731 0.951216 0.997683
0.989876 1.03159 0.962001 0.99747
1.00101 1.01405 0.989888 0.997223
0.986936 1.00146 0.987862 0.997604
1.04828 1.00318 1.04753 0.997547
1.03328 1.00027 1.0353 0.997774
1.00145 1 1.00294 0.998509
1.0002 0.999877 1.00178 0.998552
0.977861 1.02816 0.953296 0.99767
1.00607 1 1.00803 0.998062
1.01181 1 1.01369 0.998146
0.984032 1.00932 0.977435 0.997449
0.973752 1.0014 0.974678 0.997656
0.986131 1.00198 0.986198 0.997959
1.04456 0.999941 1.04695 0.997778
0.975699 1.00362 0.974237 0.997893
0.967617 0.99893 0.970249 0.998356
1.01346 1.00082 1.01447 0.99818
1.00874 1 1.01076 0.998006
1.01048 1 1.01259 0.997917
1.02775 1 1.02987 0.997937
0.74083 0.832738 0.941065 0.945346
0.766343 0.860861 0.931293 0.955881
0.897741 0.972349 0.950321 0.971536
1.00058 0.999382 1.00311 0.998095
1.00748 1.00207 1.00786 0.997554
0.990203 1.00823 0.984208 0.997879
1.01034 1.00205 1.0107 0.997601
0.754115 0.855246 0.922082 0.956262
0.89841 0.965188 0.958133 0.971487
0.868613 0.930913 0.949716 0.98248
0.952603 0.966255 0.987785 0.998063
0.716989 0.831151 0.908878 0.949132
0.666761 0.789914 0.903684 0.934058
0.697268 0.851196 0.875962 0.935157
1.00345 0.999778 1.00508 0.998597
0.71585 0.818766 0.930491 0.939614
0.797575 0.902437 0.936257 0.943973
0.98647 0.99247 0.995195 0.998754
1.01542 1.00179 1.0151 0.998539
0.961526 0.960127 1.00349 0.997974
0.875015 0.928265 0.958183 0.983774
0.87977 0.933232 0.970021 0.971849
0.743101 0.843183 0.927501 0.950192
0.743962 0.892614 0.887621 0.938987
1.00748 0.998758 1.00931 0.999431
0.816203 0.908821 0.944587 0.950775
0.786953 0.900894 0.921201 0.948246
0.984474 0.969705 1.01552 0.999715
0.908192 0.925478 0.990726 0.990507
0.883342 0.919324 0.990121 0.970447
0.796807 0.884898 0.949896 0.947946
0.78443 0.932876 0.895726 0.938762
1.00417 1 1.00543 0.998755
1.00749 0.998884 1.00956 0.999066
1.02367 0.995355 1.02911 0.999354
0.999005 1 1.00062 0.998383
1.00112 1 1.00294 0.998183
1.00219 1 1.00393 0.998271
1.01275 0.9996 1.01453 0.99864
1.00095 1 1.00282 0.998136
1.00731 1 1.009 0.998327
1.03783 0.999553 1.03915 0.999173
1.04488 0.995913 1.04975 0.999446
1.03717 0.999122 1.03905 0.999068
1.00166 1 1.0034 0.998264
1.00047 1 1.00224 0.998234
0.999725 1 1.00126 0.998463
0.998831 1 1.00016 0.998674
1.00241 1 1.00402 0.998393
1.00229 1 1.00388 0.998417
1.00356 0.99989 1.00506 0.99862
1.00176 1 1.00333 0.998438
1.00812 0.99882 1.01036 0.998962
0.996609 1.00048 0.997665 0.998462
0.999954 1.00065 1.00095 0.998357
0.998635 1 1.00069 0.997942
1.00218 1.00383 1.00153 0.996835
1.00298 1.00024 1.00469 0.998058
0.998872 1.00011 1.00079 0.997972
1.00464 1 1.00647 0.998177
1.00816 1 1.00988 0.998291
1.00352 1 1.00526 0.998273
1.00412 1 1.00567 0.99846
0.999514 1 1.0007 0.998819
1.0011 1 1.00252 0.998579
0.998925 1 1 0.998925
0.999526 1 1 0.999526
0.998954 1 1 0.998954
0.999547 1 1 0.999547
0.999984 1 1 0.999984
0.999565 1 1 0.999565
0.999991 1 1 0.999991
1 1 1 1
0.999997 1 1 0.999997
1 1 1 1
1 1 1 1
0.999103 1 1 0.999103
0.999849 1 1 0.999849
0.999277 1 1 0.999277
1 1 1 1
0.999899 1 1 0.999899
0.999351 1 1 0.999351
1 1 1 1
1 1 1 1
0.99992 1 1 0.99992
1 1 1 1
1 1 1 1
1 1 1 1
0.706892 0.814412 0.923814 0.939559
0.75678 0.858071 0.925255 0.953201
0.790896 0.90066 0.930764 0.94345
0.669838 0.796586 0.901001 0.93328
0.91735 0.967764 0.959946 0.987458
0.999771 1.02687 0.976532 0.997005
0.928433 0.986578 0.965994 0.974192
0.734463 0.839446 0.91683 0.954308
0.62043 0.781008 0.859509 0.924245
0.947424 0.990465 0.964631 0.991617
0.901792 0.967384 0.962481 0.968535
0.729534 0.839914 0.912689 0.951674
0.688874 0.845357 0.876407 0.929809
0.920303 0.974772 0.954678 0.988943
0.87185 0.924748 0.974104 0.967861
0.753237 0.861459 0.922376 0.947957
0.749525 0.90019 0.891816 0.933635
1.00175 1 1.00354 0.998213
0.999362 1 1.0008 0.998563
0.999025 1 1 0.999025
0.998805 1 1 0.998805
0.998497 1 1.0004 0.998096
0.998858 1 1.00035 0.998508
0.998639 1 1 0.998639
0.998504 1 1 0.998504
0.998583 1 1.00001 0.998575
0.998786 1 1 0.998786
0.979018 1.02931 0.95329 0.997747
0.982433 1.00814 0.977053 0.997392
0.970567 1.00129 0.9715 0.997754
0.98878 1.00324 0.987668 0.997898
1.03685 1 1.03921 0.997726
1.01154 1 1.01347 0.998099
1.00651 1 1.00851 0.998022
1.00793 1 1.00999 0.997961
0.97374 1.00385 0.972033 0.997916
1.0091 1 1.01123 0.9979
1.02779 1 1.02994 0.997918
0.966424 0.999464 0.968543 0.998348
1.00918 1.00196 1.00909 0.998137
0.951462 0.98091 0.971646 0.998284
0.979941 0.985665 0.994956 0.999232
1.03956 0.999594 1.04166 0.99839
1.00477 1 1.00685 0.997929
1.01972 1 1.02172 0.998034
0.827133 0.91624 0.945766 0.954515
0.740814 0.831746 0.942945 0.944566
0.755583 0.85563 0.92674 0.95288
1.00341 0.999747 1.00508 0.998583
1.01597 1.00076 1.01672 0.998492
0.982961 0.990454 0.993578 0.998849
0.717201 0.819705 0.930443 0.940359
0.87152 0.925856 0.972235 0.968195
0.879713 0.926119 0.96408 0.985284
0.952831 0.955525 0.998706 0.998473
0.746578 0.849281 0.921801 0.953644
0.804875 0.908231 0.938963 0.943808
0.74813 0.895049 0.889958 0.939207
1.00582 0.998705 1.00774 0.999379
0.813754 0.908115 0.940897 0.95238
0.786705 0.900397 0.921325 0.948342
0.986567 0.973325 1.01407 0.999542
0.920856 0.936038 0.99341 0.990307
0.854842 0.911995 0.969528 0.966791
0.783849 0.932019 0.895412 0.939257
0.811746 0.891766 0.958685 0.949496
1.00064 0.977429 1.02404 0.999711
0.798367 0.895164 0.930461 0.958522
0.814753 0.926284 0.925601 0.950293
0.748072 0.898648 0.891385 0.933874
0.958123 0.947315 1.01394 0.997508
0.913335 0.935346 1.00484 0.971761
0.859228 0.931821 0.969054 0.951543
1.00842 0.998441 1.01094 0.999056
1.02341 0.995631 1.02866 0.99927
1.02345 0.98398 1.04056 0.999566
1.00103 1 1.0029 0.998136
1.00612 1 1.00781 0.998316
1.04227 0.999605 1.04346 0.999251
1.00221 1 1.00395 0.99827
1.03649 0.999207 1.03827 0.999079
1.04648 0.995723 1.05159 0.999421
1.03573 0.990941 1.04574 0.999489
1.02266 0.998297 1.02537 0.999058
1.00188 1 1.00347 0.998414
1.00178 1 1.00337 0.998418
1.00454 1 1.0059 0.998642
1.00755 0.999204 1.00943 0.998933
1.0014 1 1.00297 0.998437
1.00221 1 1.00337 0.998839
0.997715 1.00018 0.998784 0.998746
1.00261 1.00041 1.00473 0.997479
1.0005 1.00125 1.00088 0.998376
0.9994 1.00097 1.00058 0.997847
0.998976 1.00141 1.00101 0.996561
1.01408 1.01635 1.00129 0.996482
1.00286 1.00241 1.00276 0.997693
1.00082 1.00255 1.00138 0.996894
1.00964 1 1.01158 0.998075
1.00415 1.00074 1.00537 0.998058
0.998874 1 1.00065 0.998229
1.00466 1 1.00648 0.998188
1.0074 1 1.00909 0.998326
1.00116 1 1.00249 0.998673
1.00396 1 1.00551 0.99846
0.99948 1 1.00066 0.998819
0.999457 1 1 0.999457
0.998922 1 1 0.998922
0.999523 1 1 0.999523
0.999977 1 1 0.999977
0.999548 1 1 0.999548
0.999982 1 1 0.999982
1 1 1 1
0.999988 1 1 0.999988
1 1 1 1
1 1 1 1
0.998844 1 1 0.998844
0.999649 1 1 0.999649
0.999101 1 1 0.999101
1 1 1 1
0.999797 1 1 0.999797
0.999202 1 1 0.999202
1 1 1 1
1 1 1 1
0.999904 1 1 0.999904
1 1 1 1
1 1 1 1
1 1 1 1
0.814337 0.913985 0.936635 0.951249
0.706885 0.814494 0.921192 0.942129
0.751682 0.853565 0.924388 0.952671
0.998384 1 1 0.998384
0.793572 0.899029 0.928278 0.9509
0.789775 0.900316 0.929949 0.943298
0.675702 0.805267 0.896632 0.935839
0.955893 0.993651 0.971243 0.990485
0.896027 0.957335 0.962308 0.972619
0.732378 0.852751 0.905586 0.948382
0.682983 0.83212 0.881123 0.93151
0.917041 0.969995 0.958907 0.985922
0.877424 0.929368 0.971808 0.971496
0.757644 0.857012 0.932082 0.948472
0.745885 0.89524 0.891613 0.934449
0.872501 0.927033 0.957748 0.982698
0.867468 0.910556 0.983437 0.968726
0.825121 0.902927 0.961921 0.950004
0.78593 0.932154 0.898185 0.938707
1.00108 1 1.00309 0.997994
1.00302 1 1.00486 0.998169
0.998877 1 1.00027 0.99861
0.998204 1 1.00002 0.998188
0.998731 1 1.00056 0.998168
0.998555 1 1 0.998555
0.998509 1 1 0.998509
0.99864 1 1.00003 0.998614
0.971037 1.00454 0.968651 0.997931
0.965396 1.00076 0.96626 0.998347
1.00757 1 1.00968 0.997917
1.00499 1.00297 1.00393 0.998092
1.02951 1 1.03168 0.997899
1.00879 1 1.01093 0.997885
1.00538 1 1.00745 0.997941
0.954419 0.980553 0.974908 0.9984
1.01808 1 1.02006 0.998056
1.02927 1.00028 1.0306 0.998429
0.977198 0.987418 0.990358 0.999285
1.00731 1 1.00923 0.998097
0.944437 0.963099 0.982555 0.998034
1.00207 0.983683 1.01923 0.999475
1.05275 0.997188 1.05726 0.998536
1.01873 0.999873 1.02066 0.998229
0.807659 0.897546 0.935874 0.96151
0.826784 0.916433 0.945342 0.954339
0.742447 0.830498 0.947241 0.94377
1.00374 0.998648 1.00578 0.999331
0.989341 0.97631 1.01398 0.999373
0.813927 0.909829 0.937785 0.953943
0.880832 0.912388 0.99398 0.971261
0.909649 0.934001 0.986825 0.98693
0.809668 0.889911 0.9597 0.948036
0.787694 0.901628 0.921158 0.94841
0.78474 0.932456 0.895535 0.939755
1.00538 0.98475 1.02128 0.999669
0.800024 0.896695 0.930829 0.958491
0.814527 0.924135 0.925397 0.952449
0.967578 0.953134 1.01582 0.999346
0.743961 0.893409 0.891006 0.934586
0.889311 0.918329 0.999063 0.969309
0.864134 0.936972 0.969687 0.951093
0.997876 0.971442 1.02748 0.99974
0.825389 0.918838 0.934706 0.961047
0.79085 0.895388 0.928577 0.951184
0.687553 0.841451 0.876215 0.932538
0.823391 0.901922 0.961527 0.949458
0.947272 0.946845 1.00607 0.994413
0.921931 0.933969 1.02244 0.965444
1.02118 0.996607 1.02549 0.999188
1.02547 0.98425 1.04237 0.999534
1.01342 0.972385 1.04264 0.999582
1.00317 1 1.0049 0.998276
1.03917 0.999268 1.04088 0.999091
1.05031 0.996644 1.05448 0.999396
1.01785 0.998579 1.02027 0.999045
1.03538 0.992764 1.04346 0.999488
1.01012 0.987804 1.02337 0.999235
1.00718 0.99973 1.00856 0.998903
1.00116 1 1.00273 0.998436
1.00497 1 1.00616 0.998817
1.01133 0.999686 1.01356 0.99812
0.999028 1 1 0.999028
0.999985 1.00029 1.00202 0.997681
1.00258 1.00118 1.00523 0.996193
1.00515 1.00746 1.00189 0.995821
1.00019 1.00205 1.0004 0.997747
0.999641 1.00208 1.00121 0.996366
1.01529 1.01825 1.00053 0.996569
1.00901 1.00928 1.00261 0.997133
1.01308 1.01528 1.00125 0.996579
1.00758 1.0001 1.00962 0.997879
1.00541 1.0044 1.00335 0.997664
0.999138 1.00091 1.00128 0.996954
1.00614 1 1.00768 0.998472
1.00892 1 1.01084 0.998096
1.00541 1.00123 1.00613 0.998058
1.00683 1 1.00848 0.998362
1.00165 1 1.00298 0.998673
0.999609 1 1.00028 0.999328
0.999617 1 1.0008 0.99882
0.99947 1 1.00002 0.999453
0.99997 1 1 0.99997
0.99952 1 1 0.99952
0.999976 1 1 0.999976
1 1 1 1
0.99998 1 1 0.99998
1 1 1 1
1 1 1 1
0.998756 1 1 0.998756
0.999492 1 1 0.999492
0.998892 1 1 0.998892
1 1 1 1
0.999632 1 1 0.999632
0.999098 1 1 0.999098
1 1 1 1
1 1 1 1
0.999746 1 1 0.999746
1 1 1 1
1 1 1 1
1 1 1 1
0.805013 0.898297 0.933724 0.959764
0.816767 0.913391 0.940049 0.951242
0.707723 0.814239 0.922411 0.942295
0.998422 1 1 0.998422
0.998346 1 1 0.998346
0.998307 1 1 0.998307
0.814496 0.928075 0.923787 0.950023
0.79007 0.898433 0.924705 0.950992
0.788589 0.899729 0.929294 0.943161
0.923324 0.97599 0.957571 0.987956
0.856338 0.920955 0.960831 0.967743
0.752382 0.842705 0.936568 0.953287
0.756078 0.903887 0.896661 0.932876
0.875471 0.932062 0.953095 0.98551
0.877178 0.916778 0.987425 0.96899
0.805934 0.882108 0.960901 0.950822
0.78424 0.932501 0.89552 0.939127
0.877632 0.9231 0.967008 0.983181
0.893475 0.922298 0.99853 0.970175
0.859282 0.929714 0.970998 0.951849
0.758625 0.906134 0.893994 0.936484
0.998737 1 1.00064 0.998096
1.00171 1 1.00376 0.997961
1.0029 1 1.00478 0.998124
0.998188 1 1.00001 0.998177
0.998578 1 1.00034 0.998241
0.998514 1 1 0.998514
0.955672 0.976894 0.979744 0.998501
0.973135 0.986641 0.986984 0.999318
1.00575 1 1.00781 0.997952
1.02073 1.00048 1.02181 0.998466
1.01838 1 1.02034 0.998078
1.00943 1 1.01135 0.998099
1.01595 0.99841 1.01934 0.99826
0.952368 0.963171 0.990639 0.998128
1.0498 0.99622 1.05518 0.998678
1.00591 0.979385 1.02774 0.999356
1.01072 0.997532 1.01483 0.998419
0.974725 0.958402 1.01925 0.997826
1.00856 0.975879 1.03416 0.999346
1.03588 0.985171 1.05274 0.998792
0.838485 0.924558 0.941252 0.963509
0.809854 0.898388 0.937058 0.962003
0.826181 0.916519 0.944737 0.954164
1.01098 0.991762 1.01976 0.999627
0.956496 0.950244 1.00856 0.998032
0.801347 0.897594 0.931464 0.958461
0.885238 0.906507 1.00322 0.973408
0.85899 0.934905 0.9684 0.94878
0.814923 0.922636 0.92526 0.954602
0.756436 0.902944 0.897769 0.933139
0.993545 0.968455 1.02614 0.999776
0.826114 0.918049 0.935537 0.961863
0.792246 0.898723 0.926671 0.951281
0.942874 0.942436 1.01003 0.990531
0.686894 0.843253 0.875751 0.930146
0.801079 0.879903 0.958368 0.949968
0.930798 0.940526 1.0197 0.970537
1.00226 0.957281 1.0483 0.998753
0.805857 0.897153 0.935732 0.95993
0.799737 0.906896 0.934274 0.943876
0.610628 0.753057 0.867754 0.934441
0.744386 0.852948 0.920732 0.947856
0.895163 0.919404 1.00436 0.969409
0.921153 0.937577 0.994771 0.987647
1.02598 0.984481 1.04267 0.999501
1.01818 0.979502 1.03992 0.999586
1.00998 0.982496 1.02848 0.999507
1.01209 0.99894 1.01414 0.999032
1.03208 0.994011 1.03883 0.999487
1.01382 0.985286 1.02967 0.999319
1.00787 0.999128 1.00996 0.998795
1.00776 1 1.00898 0.998795
1.00902 0.999873 1.01125 0.997919
1.02128 1.00086 1.02404 0.99644
0.997248 1.00005 0.999309 0.997885
1.00399 1.00139 1.00642 0.996204
1.00458 1.00252 1.00677 0.995317
1.00681 1.00952 1.00191 0.995413
1.00848 1.01125 1.00108 0.996185
1.00508 1.00733 1.00201 0.995767
0.999948 1.00255 1.00124 0.996172
1.00808 1.01012 1.0011 0.996886
1.01574 1.01866 1.00048 0.996656
1.00288 1.0008 1.00464 0.997453
1.01081 1.01088 1.00274 0.997206
1.01266 1.01485 1.00117 0.996676
1.00984 1 1.0117 0.99816
1.0073 1.00064 1.0088 0.997876
1.00798 1.00651 1.00383 0.997634
1.00033 1 1.00116 0.999165
1.00536 1 1.0069 0.99847
1.00785 1 1.00976 0.998116
1.00155 1 1.00289 0.998672
0.999722 1 1.0004 0.999324
0.999948 1 1 0.999948
0.999461 1 1.00001 0.999448
0.999965 1 1 0.999965
1 1 1 1
0.999975 1 1 0.999975
1 1 1 1
1 1 1 1
0.998714 1 1 0.998714
0.999467 1 1 0.999467
0.998784 1 1 0.998784
0.999997 1 1 0.999997
0.999535 1 1 0.999535
0.99894 1 1 0.99894
1 1 1 1
1 1 1 1
0.999616 1 1 0.999616
1 1 1 1
1 1 1 1
1 1 1 1
0.824415 0.918602 0.934058 0.960826
0.807946 0.89921 0.936197 0.959741
0.818555 0.912286 0.943221 0.95127
1.00125 1 1.00303 0.998225
1.00122 1 1.00312 0.998098
0.99846 1 1 0.99846
0.998332 1 1 0.998332
0.998303 1 1 0.998303
0.998829 1 1.00054 0.998287
0.998291 1 1 0.998291
0.789085 0.904733 0.919974 0.948043
0.817134 0.926327 0.926396 0.95221
0.789302 0.896619 0.925581 0.951088
0.783576 0.932972 0.893895 0.939564
0.872581 0.930729 0.953705 0.983034
0.876782 0.912676 0.991234 0.969167
0.814871 0.894241 0.956629 0.952556
0.866426 0.924214 0.954455 0.982208
0.893669 0.915377 1.01023 0.966398
0.86237 0.93482 0.969234 0.951781
0.745848 0.894797 0.887698 0.938989
0.897765 0.930108 0.979963 0.984963
0.908429 0.925788 1.0157 0.966081
0.800893 0.88824 0.950776 0.948345
0.704693 0.85418 0.884362 0.932869
1.01848 1 1.02012 0.998397
1.00032 1 1.00221 0.998118
1.00278 1 1.00486 0.997928
0.998166 1 1 0.998166
0.960996 0.964205 0.998415 0.998254
1.00774 0.977302 1.03194 0.999231
1.00881 1 1.01073 0.998102
1.01288 0.998185 1.01646 0.998291
1.04115 0.993095 1.04963 0.998821
1.00982 0.999191 1.01224 0.998421
1.03816 0.985187 1.05505 0.998779
0.974659 0.958093 1.02092 0.996444
1.00708 0.966679 1.04232 0.999497
1.0119 0.986947 1.02641 0.998906
0.953757 0.929112 1.03067 0.995979
1.00907 0.961934 1.04974 0.999294
0.809073 0.89708 0.93788 0.961633
0.836437 0.923456 0.938812 0.964802
0.812132 0.899091 0.938482 0.962492
0.989151 0.963959 1.02633 0.999805
0.948784 0.94662 1.00755 0.994776
0.82482 0.916416 0.934934 0.962688
0.930675 0.944241 1.02017 0.96615
0.805524 0.887342 0.953774 0.951792
0.7939 0.900973 0.926199 0.951371
0.68209 0.83025 0.881669 0.93181
1.00332 0.95985 1.0464 0.998943
0.807532 0.90041 0.934304 0.959912
0.793548 0.901875 0.93235 0.94373
0.923474 0.937825 0.994436 0.990208
0.614453 0.765704 0.863088 0.929764
0.74794 0.848815 0.929414 0.948078
0.89398 0.916776 1.00871 0.96672
0.994459 0.965487 1.03296 0.997138
0.81614 0.916196 0.936156 0.951542
0.673401 0.797304 0.902963 0.935363
0.717871 0.833981 0.902146 0.954143
0.858277 0.897822 0.985458 0.97006
0.883178 0.915672 0.980462 0.983733
1.02457 0.98382 1.04184 0.99959
1.01233 0.980116 1.03337 0.999509
0.982886 0.977554 1.00616 0.999299
1.01887 0.983394 1.03669 0.999402
1.00534 0.991504 1.01509 0.998889
1.0021 1.0008 1.00356 0.997744
1.00685 1.00003 1.00913 0.997719
1.01915 1.00081 1.02209 0.99632
1.01034 1.00056 1.01438 0.995455
1.00581 1.00186 1.00775 0.996216
1.00531 1.00229 1.00782 0.995226
1.00182 1.00234 1.00448 0.995026
1.02444 1.02896 1 0.995599
1.01533 1.01892 1.00077 0.995714
1.00716 1.00966 1.00218 0.995356
1.00681 1.01023 1.00013 0.996488
1.00724 1.01028 1.00074 0.996249
1.00511 1.00714 1.00228 0.995714
1.00553 1.00749 1.00112 0.996951
1.00779 1.00987 1.00108 0.996859
1.01591 1.0188 1.00043 0.996742
1.00605 1.00045 1.00786 0.997757
1.00378 1.00163 1.00463 0.997526
1.01236 1.01221 1.00288 0.99728
1.00414 1 1.00525 0.998889
1.0085 1 1.01035 0.998166
1.0071 1.0012 1.00803 0.997872
0.999908 1 1 0.999908
1.00101 1 1.00186 0.999158
1.00495 1 1.00649 0.998468
1 1 1.00068 0.999319
0.999939 1 1 0.999939
1 1 1 1
0.99996 1 1 0.99996
1 1 1 1
1 1 1 1
1.00413 1 1.00592 0.998218
0.999422 1 1.00086 0.998558
0.999337 1 1 0.999337
0.998711 1 1 0.998711
0.999983 1 1 0.999983
0.99947 1 1 0.99947
0.998812 1 1 0.998812
1 1 1 1
0.999998 1 1 0.999998
0.999579 1 1 0.999579
1 1 1 1
1 1 1 1
1 1 1 1
0.79855 0.89561 0.930323 0.958406
0.822103 0.915938 0.933338 0.961659
0.808757 0.901786 0.934488 0.959712
1.00201 1 1.00378 0.998237
1.00304 1 1.00495 0.998104
1.00055 1 1.00243 0.99812
1.00363 1 1.00553 0.998113
1.00758 1 1.00953 0.998072
0.998733 1 1.00042 0.998318
0.998298 1 1 0.998298
0.998785 1 1.0005 0.998289
0.998297 1 1 0.998297
1.01139 1 1.01305 0.998358
0.785914 0.892882 0.932452 0.943962
0.78908 0.90323 0.921373 0.948172
0.818541 0.925695 0.926509 0.954385
0.747998 0.896701 0.888151 0.939217
0.860074 0.933563 0.97062 0.949168
0.861435 0.919897 0.954793 0.980786
0.901928 0.92307 1.00755 0.969771
0.892151 0.932632 0.974348 0.981778
0.917319 0.93697 1.00945 0.969857
0.815318 0.892347 0.961359 0.950403
0.704929 0.861107 0.878576 0.93177
0.907713 0.924084 0.998084 0.98417
0.899775 0.917407 1.01059 0.970506
0.731563 0.82701 0.928319 0.952893
0.646342 0.796952 0.868397 0.933925
1.01839 1 1.01944 0.998972
1.02 1 1.02163 0.998411
1.00313 1 1.005 0.998142
0.976099 0.95996 1.02192 0.995003
1.00908 0.960369 1.05108 0.999656
1.01004 1 1.01163 0.998422
1.04218 0.984625 1.05976 0.998767
1.01402 0.990433 1.02493 0.998912
1.01529 0.969675 1.04779 0.999283
0.958684 0.938603 1.02558 0.995924
1.01649 0.991664 1.02571 0.999345
0.969879 0.955861 1.01821 0.996523
0.826294 0.916175 0.945285 0.954098
0.81274 0.899295 0.939336 0.962118
0.834099 0.92201 0.936394 0.966103
1.00452 0.966345 1.04044 0.999107
0.918742 0.934404 0.997301 0.985898
0.811811 0.903606 0.935958 0.959885
0.89684 0.923224 1.00448 0.967087
0.741323 0.832555 0.934504 0.952825
0.786505 0.896896 0.929319 0.943615
0.619994 0.779349 0.860039 0.924991
0.992005 0.963713 1.03207 0.997375
0.816604 0.912922 0.940067 0.951522
0.670409 0.796221 0.901513 0.933974
0.89343 0.925928 0.979366 0.985231
0.73125 0.841182 0.912983 0.952167
0.85442 0.9059 0.974693 0.967661
0.950615 0.949662 1.00541 0.99562
0.707677 0.815411 0.923195 0.940081
0.726952 0.834932 0.91191 0.954778
0.869106 0.925271 0.970391 0.967959
0.861362 0.914843 0.954816 0.986097
1.01137 0.977267 1.0354 0.999511
0.985097 0.974327 1.01179 0.999274
0.994688 0.991628 1.00466 0.998438
1.00142 0.982189 1.02062 0.998979
1.00197 1.00073 1.00342 0.997831
0.998023 1.00213 0.999119 0.996781
1.01697 1.00071 1.02012 0.996199
1.00907 1.00096 1.0127 0.995459
0.999168 1.00208 1.00137 0.995726
1.0055 1.002 1.00841 0.995135
1.00206 1.00333 1.0037 0.995061
1.02189 1.02617 1 0.995826
1.04699 1.05095 1 0.996228
1.03477 1.03924 1.00002 0.995688
1.02461 1.02911 1 0.995629
1.01844 1.02253 1 0.996002
1.01396 1.01729 1.00107 0.995659
1.00791 1.01021 1.00244 0.995299
1.01091 1.01431 1 0.996643
1.00514 1.00858 1.00002 0.996562
1.00576 1.00916 1.00032 0.996313
1.00214 1.00273 1.00208 0.997338
1.00432 1.00605 1.0013 0.99699
1.00775 1.00985 1.0011 0.996832
1.0086 1 1.01018 0.998434
1.007 1.00094 1.00831 0.99776
1.00473 1.00234 1.0048 0.997599
1.00002 1 1.00018 0.99984
1.00445 1 1.00558 0.998882
1.00776 1 1.0096 0.998172
0.999992 1 1 0.999992
0.999895 1 1 0.999895
1.00159 1 1.00244 0.999152
0.99993 1 1 0.99993
1 1 1 1
1 1 1 1
1.00583 1 1.00774 0.998104
1.00204 1 1.00365 0.998397
1.00506 1 1.00688 0.998197
0.999553 1 1.00036 0.999198
0.999618 1 1.00106 0.998556
0.999957 1 1 0.999957
0.999342 1 1 0.999342
0.998707 1 1 0.998707
1 1 1 1
0.999988 1 1 0.999988
0.999472 1 1 0.999472
1 1 1 1
1 1 1 1
1 1 1 1
0.812537 0.909568 0.936055 0.954348
0.802122 0.898336 0.931671 0.958383
0.82246 0.913018 0.935916 0.962495
0.999265 1.00076 1.00039 0.998112
1.00198 1 1.00374 0.998247
1.0023 1 1.0042 0.99811
1.00115 1 1.00306 0.998101
1.00054 1 1.0024 0.998145
1.00447 1 1.00629 0.998184
1.01242 1 1.01472 0.997727
1.01617 1 1.01805 0.998152
0.998519 1 1.00023 0.998292
0.998302 1 1 0.998302
1.01183 1 1.01351 0.998341
1.02595 0.999828 1.02761 0.998552
0.683554 0.803847 0.909252 0.935223
0.797557 0.904123 0.934767 0.943694
0.789942 0.902974 0.922546 0.948271
0.700062 0.855156 0.87574 0.934793
0.814376 0.893564 0.959951 0.949402
0.91187 0.930038 1.01481 0.966159
0.892537 0.924888 0.982195 0.982515
0.906277 0.924307 0.994246 0.986167
0.633889 0.788933 0.864592 0.929313
0.893216 0.917001 1.00712 0.967176
0.74693 0.845755 0.929924 0.949702
0.906638 0.933351 0.983661 0.987514
0.881345 0.916682 0.989392 0.97176
0.717789 0.833416 0.903982 0.952742
0.994463 1 0.994924 0.999537
1.01745 1 1.01849 0.998977
1.02049 1 1.0221 0.998423
0.958363 0.94075 1.02287 0.995949
1.02193 0.977693 1.04601 0.999273
1.01566 0.994555 1.02232 0.998919
1.01539 0.99156 1.0247 0.999344
0.966261 0.954505 1.0158 0.996568
0.991284 0.985184 1.00851 0.997703
0.740898 0.83191 0.94545 0.941984
0.82327 0.915272 0.940846 0.956034
0.813313 0.900531 0.938248 0.962589
0.993108 0.962975 1.03384 0.997532
0.883491 0.921948 0.971786 0.986109
0.81498 0.909821 0.941369 0.951549
0.863052 0.898967 0.991179 0.968592
0.736199 0.856161 0.9061 0.948993
0.677862 0.805895 0.898184 0.936478
0.951169 0.946494 1.00929 0.995691
0.707969 0.815227 0.921314 0.942602
0.724694 0.836719 0.910162 0.951604
0.859882 0.916131 0.955121 0.982705
0.876749 0.932507 0.967722 0.971567
0.94584 0.961431 0.985856 0.997898
0.747326 0.847879 0.926482 0.951347
0.910947 0.970611 0.964333 0.973243
0.867151 0.928055 0.951064 0.982452
0.988494 0.972541 1.01716 0.999255
0.986034 0.991463 0.995993 0.998526
0.994869 1.00103 0.996307 0.997527
1.00229 1.0008 1.00357 0.997919
1.00109 1.0025 1.00184 0.996757
1.0006 1.00446 0.999428 0.996725
1.00789 1.00137 1.0111 0.995462
0.999095 1.0017 1.00167 0.995734
1.02567 1.03063 0.998502 0.996679
1.00235 1.00409 1.00319 0.995096
1.02062 1.02489 1 0.995837
1.04754 1.05169 0.999208 0.996845
1.04941 1.05294 0.999734 0.996907
1.04909 1.05315 1 0.996143
1.04748 1.0514 1 0.996274
1.03653 1.04078 1 0.995913
1.03304 1.03745 1 0.99575
1.02415 1.02861 1 0.995659
1.02531 1.02908 1 0.996333
1.01878 1.0227 1.00014 0.996028
1.01268 1.01565 1.00148 0.995603
1.00673 1.00978 1 0.996979
1.01049 1.0139 1 0.996638
1.00337 1.00676 1 0.996637
1.00353 1.00034 1.00522 0.99798
1.00414 1.00447 1.00234 0.997333
1.00269 1.00423 1.00145 0.99703
1.00129 1 1.0016 0.999684
1.0065 1.00003 1.00805 0.998431
1.00705 1.00147 1.00782 0.997763
1 1 1 1
1.00041 1 1.00059 0.999813
1.00419 1 1.00532 0.998874
1 1 1 1
0.999882 1 1 0.999882
1 1 1 1
1.00041 1.00059 1.00185 0.997966
1.00474 1 1.00666 0.998087
1.00571 1 1.00748 0.998246
1.00082 1 1.00177 0.99905
1.00276 1 1.00438 0.998394
1.00603 1 1.00787 0.998176
0.999919 1 1 0.999919
0.999323 1 1.00012 0.999203
0.999408 1 1.00086 0.998553
1 1 1 1
0.999964 1 1 0.999964
0.999346 1 1 0.999346
1 1 1 1
0.999993 1 1 0.999993
1 1 1 1
0.713829 0.816954 0.932367 0.937152
0.814448 0.91139 0.936354 0.954374
0.805948 0.90134 0.933015 0.958363
1.00154 1.00029 1.00317 0.99809
1.00579 1.00306 1.005 0.997739
1.00968 1.00032 1.01147 0.997916
1.00254 1 1.00446 0.998089
1.00028 1.00002 1.00209 0.998169
1.00494 1 1.00665 0.998295
1.0154 1 1.01733 0.998107
1.01216 1.00013 1.01427 0.997797
1.01559 1.00098 1.01692 0.997707
0.985518 1.00114 0.985409 0.998968
1.01048 1 1.01218 0.998324
1.02173 0.999903 1.02333 0.998531
0.725939 0.833287 0.917898 0.949097
0.667463 0.789215 0.906906 0.932546
0.80516 0.910491 0.937227 0.943543
0.622033 0.780089 0.862443 0.924568
0.750481 0.850049 0.926285 0.953128
0.881171 0.911296 0.997864 0.969013
0.912127 0.929706 0.997545 0.983507
0.894561 0.924892 0.981752 0.985182
0.721054 0.82832 0.915091 0.951273
0.863012 0.906513 0.982849 0.968626
0.880808 0.930455 0.959523 0.986575
0.859311 0.929491 0.95457 0.968495
1.00208 1 1.00306 0.999021
0.99549 1 0.996005 0.999482
1.01663 1 1.01767 0.998982
0.96203 0.952763 1.01315 0.996617
1.01398 0.99069 1.02418 0.999344
0.99249 0.986921 1.00802 0.997646
0.978177 0.990721 0.990618 0.996689
0.761648 0.864139 0.922399 0.955546
0.739871 0.830029 0.945703 0.942558
0.824834 0.916983 0.939015 0.957928
0.954424 0.9533 1.00534 0.995858
0.86316 0.915805 0.958622 0.983197
0.709154 0.815662 0.922238 0.942731
0.853632 0.921113 0.957258 0.968118
0.737339 0.842039 0.916961 0.954957
0.948685 0.963951 0.987346 0.996775
0.757534 0.857816 0.926085 0.953579
0.904396 0.969284 0.96309 0.968815
0.870031 0.930396 0.949295 0.985067
0.957883 0.983483 0.976156 0.997762
0.917325 0.979034 0.963401 0.972565
0.915125 0.973016 0.952368 0.987542
0.9769 0.990345 0.98781 0.998597
0.990882 1.00144 0.991939 0.997499
0.982103 1.00804 0.976832 0.997373
1.00299 1.00284 1.00343 0.996733
0.999968 1.00462 0.998648 0.99672
1.02411 1.03844 0.988787 0.997388
0.998917 1.00132 1.00186 0.995742
1.02436 1.03024 0.997624 0.996659
1.04036 1.05302 0.990516 0.997439
1.01974 1.02399 1 0.995847
1.04638 1.05122 0.99856 0.996838
1.04596 1.05369 0.995247 0.997411
1.04549 1.05002 0.998395 0.99729
1.05027 1.054 0.999477 0.99698
1.04815 1.05156 1 0.996757
1.05056 1.05456 1 0.996207
1.04912 1.05316 1 0.996162
1.04839 1.05226 1 0.996321
1.03843 1.04245 1 0.996151
1.03824 1.04247 1 0.995943
1.03136 1.03569 1 0.995813
1.01993 1.02333 1 0.996675
1.02481 1.02858 1 0.99633
1.01904 1.0229 1.00017 0.996053
0.999525 1.00159 1.00026 0.997672
1.00828 1.01133 1 0.996975
1.01088 1.0143 1 0.996633
1.00198 1 1.00256 0.999423
1.00354 1.00066 1.00491 0.99798
1.00676 1.00643 1.003 0.997329
1 1 1 1
1.00197 1 1.00231 0.999658
1.00544 1.00007 1.00696 0.998428
0.999992 1 1 0.999992
1.00101 1 1.00121 0.999799
1 1 1 1
0.999482 1.00163 1 0.997855
1.00125 1.00038 1.00289 0.997984
1.00495 1 1.00686 0.998098
1.00293 1 1.00487 0.998069
1.00602 1 1.00779 0.998247
1.00318 1 1.00431 0.998874
0.999868 1 1 0.999868
1.00036 1 1.00131 0.999052
1.00381 1 1.00543 0.998392
1 1 1 1
0.999931 1 1 0.999931
0.999208 1 1 0.999208
1 1 1 1
0.999973 1 1 0.999973
1 1 1 1
0.754606 0.852432 0.928493 0.953415
0.716364 0.818538 0.933053 0.93797
0.814667 0.912057 0.935901 0.954395
1.00407 1 1.00601 0.998067
1.01183 1 1.01411 0.997749
1.00344 1.00197 1.00366 0.997813
1.00432 1.00649 1.00096 0.996884
1.01187 1.00138 1.01274 0.997769
1.01392 1 1.01589 0.998065
1.01031 1 1.01247 0.997868
1.01785 1.00083 1.01925 0.997798
0.999317 1.00287 0.998964 0.997486
0.97665 1.00171 0.976426 0.998526
0.974192 1.00035 0.976099 0.997696
0.985526 1.00087 0.985646 0.999004
1.01633 1 1.01785 0.998511
0.893723 0.959761 0.958769 0.971238
0.721119 0.828507 0.915726 0.950484
0.665452 0.788471 0.904069 0.933534
0.718399 0.832566 0.910167 0.948039
0.873094 0.917174 0.982572 0.968824
0.898714 0.921001 0.988066 0.987587
0.881511 0.92919 0.959907 0.988313
0.883594 0.93646 0.970136 0.972592
0.907113 0.966151 0.950839 0.987437
0.993749 1.00132 0.994212 0.998218
1.00074 1 1.00174 0.998999
0.996744 1 0.997315 0.999428
0.994851 0.99 1.00729 0.997632
0.983593 0.993506 0.993042 0.996959
0.893679 0.966231 0.952118 0.971426
0.767646 0.862616 0.930933 0.955927
0.737701 0.826459 0.946388 0.943169
0.952941 0.969208 0.987575 0.995586
0.876175 0.937947 0.950645 0.98264
0.75374 0.854251 0.92581 0.953047
0.895482 0.957359 0.961701 0.972617
0.964703 0.983122 0.983383 0.997847
0.926757 0.989367 0.962397 0.973317
0.912571 0.968984 0.956161 0.984961
0.973169 1.00363 0.972335 0.997236
0.945374 0.993092 0.960243 0.991364
0.991133 1.00369 0.989974 0.997495
0.98057 1.00777 0.97562 0.997326
0.995082 1.0367 0.962088 0.997679
0.999299 1.00448 0.998123 0.996714
1.02568 1.03938 0.989434 0.997359
1.03726 1.06078 0.98005 0.997727
1.0229 1.02979 0.996658 0.996639
1.04005 1.05318 0.99009 0.997415
1.03447 1.05244 0.985237 0.997654
1.04486 1.05042 0.997863 0.99683
1.04576 1.0539 0.994874 0.99739
1.04299 1.05309 0.992904 0.997491
1.04545 1.05036 0.997969 0.997346
1.04411 1.04822 0.998971 0.997101
1.05084 1.0548 0.99919 0.997053
1.04797 1.05138 1 0.996748
1.0498 1.05344 1 0.996543
1.04772 1.05169 1 0.996231
1.05034 1.05435 1 0.996195
1.04911 1.05313 1 0.996182
1.03364 1.0373 1 0.996467
1.03831 1.04232 1 0.996157
1.04011 1.04431 1 0.995973
1.00388 1.00646 1 0.997438
1.01914 1.02254 1 0.996674
1.02406 1.02783 1 0.996327
1.00033 1 1.0012 0.999132
1.00106 1.00287 1.00052 0.997673
1.00942 1.01249 1 0.996972
1 1 1 1
1.00168 1 1.00228 0.999398
1.00305 1.00095 1.00412 0.997981
1 1 1 1
1.00231 1 1.00268 0.999633
1 1 1 1
1.00659 1.0096 1 0.997025
0.999906 1.00207 1 0.997841
1.00068 1.00056 1.00226 0.997872
1.00261 1 1.00461 0.998004
1.0043 1 1.00625 0.998063
1.00499 1 1.00637 0.998629
1.00696 1 1.00873 0.998247
1.00308 1 1.00421 0.998874
1.00039 1 1.00059 0.999796
1 1 1 1
0.99988 1 1 0.99988
0.999773 1 1.00072 0.999054
1 1 1 1
0.999941 1 1 0.999941
1 1 1 1
0.91658 0.979364 0.960315 0.974569
0.756751 0.859673 0.922407 0.954326
0.719638 0.820774 0.936303 0.936427
1.0136 1 1.01606 0.997582
1.00139 1.00154 1.00197 0.997887
1.01007 1.00158 1.01079 0.997713
1.00528 1.00717 1.00116 0.996974
1.01704 1.02042 1.00016 0.996525
1.00003 1.00271 1 0.997324
1.02152 1.00113 1.02253 0.997887
1.00041 1.00353 0.999599 0.99729
0.982886 1.00221 0.982184 0.998509
0.995504 1.0021 0.995874 0.997533
0.972134 1.00345 0.970979 0.997748
0.994395 1.00145 0.995682 0.997264
0.976304 1.00082 0.977641 0.997816
0.989734 1.0007 0.989986 0.999042
0.916348 0.974122 0.952674 0.987421
0.901299 0.967015 0.959644 0.971238
0.72812 0.829686 0.91961 0.954301
0.878599 0.935396 0.970363 0.967968
0.890027 0.930454 0.96688 0.989317
0.908824 0.960471 0.954801 0.991021
0.980485 1.00377 0.979459 0.99729
0.991641 1.00067 0.992793 0.998173
0.999228 0.999999 1.00025 0.998978
0.985107 0.995318 0.992509 0.997211
0.932075 0.973322 0.969444 0.987806
0.908899 0.973434 0.957046 0.97561
0.756027 0.856926 0.925893 0.952868
0.963558 0.978982 0.986287 0.997929
0.917941 0.975092 0.954122 0.986655
0.929152 0.986801 0.966745 0.97397
0.966392 1.00184 0.967229 0.997297
0.944678 0.989066 0.964229 0.990554
0.967464 1.02463 0.946735 0.997334
0.988244 1.01736 0.975179 0.996108
0.977892 1.0075 0.973268 0.997272
0.992574 1.03473 0.961492 0.997674
1.00561 1.0611 0.949907 0.997677
1.02785 1.0409 0.990098 0.997331
1.03687 1.06051 0.979954 0.997706
1.03442 1.05756 0.980472 0.997605
1.04021 1.05361 0.989872 0.99739
1.03472 1.0519 0.985999 0.997635
1.04396 1.05907 0.988242 0.997458
1.04585 1.05427 0.994629 0.997368
1.04112 1.05085 0.993243 0.997483
1.04447 1.05219 0.995436 0.997212
1.04561 1.05086 0.997597 0.997401
1.04444 1.04848 0.998997 0.997147
1.04846 1.05196 0.999903 0.99677
1.0479 1.05132 1 0.99674
1.04989 1.05355 1 0.996532
1.04949 1.05325 1 0.996434
1.0409 1.04467 1 0.996395
1.04795 1.05191 1 0.996228
1.05006 1.05408 1 0.996183
1.01226 1.01507 1 0.997234
1.03243 1.03609 1 0.996472
1.03814 1.04214 1 0.996164
0.999145 1 1.00025 0.998896
1.0061 1.00867 1.00001 0.997436
1.01821 1.02161 1 0.996673
1 1 1 1
0.99999 1 1.00088 0.999115
1.00257 1.00414 1.00077 0.997673
1 1 1 1
1.00155 1 1.00218 0.999374
1 1 1 1
1.01825 1.02171 1 0.996617
1.00871 1.01169 1 0.997056
1.00635 1.00835 1.00066 0.997355
0.99952 1.0017 1 0.997826
1.00023 1.00021 1.0022 0.997824
1.00325 1.00056 1.00438 0.998307
1.00365 1 1.00563 0.998028
1.00541 1 1.00679 0.998631
1.00202 1 1.00233 0.999691
1.0034 1 1.00453 0.998874
1.00026 1 1.00046 0.999806
1 1 1 1
1 1 1 1
0.999893 1 1 0.999893
1 1 1 1
0.922086 0.974615 0.957408 0.988191
0.907097 0.978439 0.954932 0.970839
0.751198 0.852532 0.921644 0.95605
1.03393 1.03762 1.00007 0.996376
1.00825 1.00139 1.00921 0.997659
1.0064 1.008 1.00135 0.997064
1.00034 1.00303 1 0.997316
1.01588 1.01901 1.00042 0.996506
1.00475 1.00767 0.999834 0.997275
1.00016 1.00307 1 0.997095
0.984477 1.00192 0.984075 0.998492
0.993542 1.00256 0.993446 0.997545
0.965703 1.00246 0.965637 0.997619
1.0059 1.01313 0.995994 0.996862
0.997575 1.00704 0.993269 0.997311
0.994894 1.00206 0.995601 0.997233
0.977368 1.00134 0.978083 0.997935
0.978249 1.00613 0.974445 0.997792
0.910733 0.970788 0.951393 0.986069
0.900711 0.968401 0.957243 0.971646
0.903752 0.953847 0.958268 0.988743
0.983461 1.00514 0.980315 0.998075
0.991541 1.0002 0.993211 0.998119
0.981013 1.00688 0.978588 0.995626
0.91708 0.958003 0.967686 0.98925
0.896425 0.970424 0.950789 0.971557
0.964045 0.99964 0.966948 0.997356
0.952345 0.991125 0.971065 0.989504
0.971421 1.02606 0.949164 0.997456
0.99146 1.01723 0.978188 0.996396
0.99227 1.04238 0.954305 0.99751
1.04541 1.06393 0.985195 0.997367
0.989414 1.03219 0.960794 0.997669
1.01043 1.06247 0.953253 0.997661
1.02432 1.07017 0.959599 0.99746
1.03576 1.05974 0.979643 0.997685
1.03196 1.05599 0.979594 0.997601
1.04395 1.0661 0.981834 0.997341
1.03461 1.05118 0.986593 0.997616
1.04223 1.05766 0.987912 0.997471
1.04647 1.0581 0.991816 0.997162
1.0391 1.04855 0.993499 0.997476
1.04495 1.05266 0.995458 0.99721
1.05046 1.05512 0.99869 0.996886
1.0447 1.04866 0.99902 0.997193
1.04889 1.05233 0.999915 0.996815
1.0515 1.05517 1 0.996519
1.04998 1.05364 1 0.996521
1.04923 1.053 1 0.996419
1.04335 1.04708 1 0.996437
1.01911 1.02206 1 0.997113
1.04034 1.04409 1 0.996407
1.04814 1.05211 1 0.996226
0.999362 1.00062 1 0.998745
1.01352 1.01633 1 0.997234
1.03144 1.03508 1 0.996476
1 1 1 1
0.999115 1.00015 1.00009 0.998882
1.00858 1.01118 1 0.997434
1 1 1 1
0.999538 1 1.00044 0.999098
1 1 1 1
1.03295 1.03675 1 0.996339
1.02026 1.02373 1 0.996613
1.01706 1.02018 1 0.996947
1.01134 1.01429 1.00001 0.997086
1.006 1.00811 1.00056 0.997348
1.00341 1.00328 1.00216 0.997971
0.999733 1 1.00196 0.997776
1.00379 1.00023 1.00525 0.998309
1.00193 1 1.0024 0.999536
1.00491 1 1.00629 0.998632
1.00111 1 1.00141 0.999703
1 1 1 1
0.999919 1 1.0001 0.999817
1 1 1 1
1 1 1 1
0.97652 1.01057 0.968743 0.997488
0.916766 0.972059 0.956915 0.985582
0.905802 0.969869 0.957966 0.974923
1.02434 1.02758 1.00001 0.996835
1.04388 1.04755 1 0.996488
1.03199 1.03552 1.00013 0.996451
1.00105 1.00376 1 0.997307
1.01462 1.01745 1.00073 0.996486
1.00624 1.01006 0.998964 0.997255
1.02508 1.03063 0.997804 0.996808
0.992943 1.00366 0.991749 0.997557
0.96268 1.00189 0.963285 0.997488
1.00705 1.01501 0.995188 0.996961
1.0236 1.03543 0.991837 0.996704
1.00159 1.02579 0.978827 0.997523
1.00142 1.00902 0.995188 0.997264
0.996146 1.00262 0.996327 0.997201
0.982542 1.00782 0.976816 0.99806
0.914893 0.973894 0.954086 0.984625
0.983688 1.00531 0.979588 0.998885
1.0251 1.05011 0.978176 0.997965
0.979047 1.00566 0.97768 0.995758
0.920618 0.969011 0.96259 0.986983
0.974404 1.02784 0.950318 0.997572
0.994613 1.0176 0.980648 0.9967
0.989126 1.04284 0.950714 0.997662
1.04449 1.06507 0.983244 0.997386
1.04056 1.07656 0.969107 0.997374
1.07688 1.09762 0.98355 0.997515
1.01516 1.0646 0.955808 0.997645
1.03016 1.07178 0.963612 0.99746
1.04726 1.07603 0.975949 0.997247
1.02973 1.05457 0.978804 0.997598
1.04365 1.06518 0.982393 0.99734
1.04712 1.06396 0.987011 0.997127
1.04059 1.05628 0.987628 0.997484
1.04705 1.05868 0.991839 0.997158
1.05125 1.05907 0.995707 0.996895
1.04543 1.05311 0.99548 0.997208
1.05087 1.05549 0.998726 0.996884
1.05479 1.05843 1 0.996561
1.04932 1.0527 0.999928 0.996859
1.05103 1.05468 1 0.996534
1.04665 1.0504 1 0.996433
1.04899 1.05277 1 0.996403
1.04329 1.04702 1 0.996437
1.02134 1.02437 1 0.99705
1.00099 1.0023 1 0.998692
1.01894 1.02189 1 0.997112
1.03999 1.04372 1 0.996419
1 1 1 1
0.999745 1.00101 1 0.998733
1.01465 1.01747 1 0.997234
1 1 1 1
0.999036 1.00017 1 0.998868
1 1 1 1
1.0414 1.04525 1 0.996316
1.03246 1.03626 1 0.996334
1.02669 1.03014 1 0.996648
1.02147 1.02495 1 0.996609
1.01628 1.01939 1 0.996953
1.00666 1.00865 1.00035 0.99768
1.00489 1.0071 1.00046 0.997341
1.00271 1.00216 1.00257 0.997973
1.00049 1 1.00119 0.999299
1.00518 1 1.00688 0.998311
1.00195 1 1.0024 0.999553
1 1 1 1
1.00077 1 1.00106 0.999715
1 1 1 1
1 1 1 1
1.00394 1.04168 0.96574 0.997962
0.97349 1.00952 0.967559 0.996642
0.918076 0.97403 0.955647 0.9863
1.03887 1.04238 0.999939 0.996693
1.02572 1.02877 1 0.997037
1.05876 1.06251 0.999895 0.996581
1.0444 1.04809 1 0.996471
1.0301 1.03351 1.00018 0.996526
1.04919 1.05865 0.994465 0.996584
1.0078 1.01269 0.997929 0.997235
1.02525 1.03026 0.998388 0.996746
1.04331 1.06804 0.979913 0.996871
1.00668 1.01677 0.992991 0.99706
1.02436 1.03622 0.991892 0.99664
1.00252 1.02833 0.977287 0.997559
1.00258 1.00929 0.996129 0.997214
0.987467 1.00954 0.979796 0.998308
1.06299 1.0884 0.979052 0.997552
1.02859 1.05003 0.981555 0.99799
0.977848 1.00445 0.977537 0.995887
0.986734 1.0425 0.948581 0.997812
1.04231 1.06503 0.981209 0.997407
1.03572 1.07516 0.965832 0.997398
1.07917 1.10022 0.983317 0.997506
1.0647 1.09014 0.979218 0.997392
1.03574 1.07304 0.9677 0.99746
1.04796 1.07534 0.977217 0.997256
1.04822 1.06917 0.9832 0.997156
1.04331 1.06423 0.982952 0.99734
1.04718 1.06379 0.987241 0.997108
1.04996 1.06143 0.992294 0.996882
1.04766 1.05927 0.991864 0.997155
1.05161 1.0594 0.995736 0.996891
1.05777 1.06184 0.999579 0.996589
1.05128 1.05587 0.99876 0.996883
1.05471 1.05834 1 0.996564
1.05112 1.05491 1 0.996407
1.05057 1.0542 1 0.996548
1.04659 1.05033 1 0.996439
1.02214 1.02524 1 0.996983
1.04318 1.04691 1 0.996436
1.02162 1.02464 1 0.997049
1.00236 1.00344 1 0.998924
0.999575 1 1 0.999575
1.00142 1.00263 1 0.99879
1.01842 1.02137 1 0.997112
1 1 1 1
1.0002 1.00148 1 0.99872
1 1 1 1
1.06404 1.06771 0.999883 0.996678
1.05032 1.05405 1 0.996461
1.0422 1.04604 1 0.996325
1.03456 1.03818 1 0.996516
1.03243 1.03623 1 0.996329
1.02782 1.03128 1 0.996645
1.01192 1.01452 1 0.997432
1.01619 1.01928 1 0.99696
1.00501 1.00685 1.00048 0.997682
0.999138 1 1.00012 0.999017
1.00182 1.00103 1.00282 0.997975
1.00083 1 1.00151 0.999319
1 1 1 1
1.00153 1 1.00196 0.99957
1 1 1 1
1 1 1 1
1.05413 1.08622 0.973087 0.997299
1.00879 1.04872 0.963855 0.998007
0.970282 1.00962 0.965083 0.99581
1.05476 1.06119 0.997318 0.996615
1.03539 1.03883 0.999946 0.996742
1.02679 1.02964 1 0.997236
1.05716 1.06087 0.9999 0.996597
1.04495 1.04867 0.999998 0.996454
1.05617 1.07884 0.982082 0.99685
1.04572 1.05555 0.99412 0.996544
1.02524 1.0295 0.999173 0.996683
1.04121 1.06578 0.980011 0.996867
1.02816 1.03937 0.992611 0.996575
1.00755 1.03539 0.975455 0.997604
1.06462 1.08608 0.982701 0.997493
1.06605 1.09099 0.97951 0.997589
1.03139 1.05034 0.983915 0.998017
1.0325 1.07512 0.962845 0.997419
1.0826 1.1038 0.983256 0.997498
1.06492 1.09117 0.978486 0.997398
1.0548 1.07084 0.987723 0.997258
1.04868 1.07459 0.978568 0.997266
1.04867 1.06893 0.983855 0.997142
1.05169 1.06363 0.991829 0.99692
1.04727 1.06366 0.987473 0.997088
1.05071 1.06218 0.992304 0.996881
1.05925 1.06481 0.998161 0.996606
1.05196 1.05973 0.995768 0.996887
1.05779 1.06186 0.999569 0.996589
1.05431 1.05815 1 0.996372
1.05465 1.05828 1 0.996567
1.05107 1.05485 1 0.996411
1.02332 1.02651 1 0.996894
1.04652 1.05025 1 0.996445
1.02295 1.02605 1 0.996983
1.00208 1.00315 1 0.998937
1.02195 1.02498 1 0.997048
1.00236 1.00345 1 0.998918
0.999601 1 1 0.999601
0.999797 1 1 0.999797
1.00202 1.00312 1 0.998898
1 1 1 1
1.05756 1.0636 0.997628 0.996686
1.05531 1.05897 1 0.996537
1.06282 1.06647 0.99977 0.996804
1.04542 1.04912 1 0.99647
1.05248 1.05623 1 0.996449
1.04302 1.04686 1 0.996334
1.03553 1.03916 1 0.996507
1.01724 1.02006 1 0.997227
1.02871 1.03218 1 0.996642
1.0102 1.0128 1 0.997433
0.999487 1.00068 1 0.998805
1.00321 1.00502 1.00052 0.997685
0.999438 1 1.0004 0.999035
1 1 1 1
1.00128 1 1.00194 0.999339
1 1 1 1
1 1 1 1
1.0553 1.07993 0.979948 0.997186
1.05015 1.08196 0.973236 0.997296
1.01189 1.05268 0.963132 0.998044
1.05519 1.07018 0.989186 0.996771
1.0518 1.05845 0.997086 0.996614
1.03225 1.03561 0.999964 0.996793
1.05535 1.05904 0.999898 0.996613
1.05459 1.07688 0.982425 0.996826
1.04215 1.05235 0.99378 0.996504
1.03444 1.0585 0.980344 0.996864
1.05896 1.07418 0.98848 0.99732
1.06287 1.08411 0.982919 0.997453
1.06871 1.09298 0.980123 0.997625
1.05349 1.06542 0.991619 0.997159
1.06448 1.09178 0.977529 0.997405
1.05468 1.07089 0.987582 0.997244
1.05364 1.06454 0.992708 0.997025
1.04913 1.06868 0.984536 0.997129
1.05174 1.06373 0.991778 0.996922
1.05944 1.06628 0.996951 0.996627
1.05143 1.06288 0.992318 0.99688
1.05868 1.06423 0.998174 0.996606
1.05551 1.05938 1 0.996352
1.05769 1.06177 0.99956 0.99659
1.0545 1.05834 1 0.996375
1.02404 1.02732 1 0.996809
1.05095 1.05473 1 0.996416
1.02411 1.0273 1 0.996894
1.00117 1.00227 1 0.998911
1.02382 1.02692 1 0.996983
1.00186 1.00294 1 0.998925
0.999605 1 1 0.999605
1.00232 1.00341 1 0.998915
0.999611 1 1 0.999611
1 1 1 1
1.05514 1.06415 0.994921 0.996592
1.05747 1.06159 0.999606 0.996511
1.05925 1.06531 0.997621 0.996683
1.05185 1.05553 1 0.996509
1.05671 1.06041 0.999929 0.996577
1.0618 1.06544 0.999658 0.99693
1.0238 1.02681 1 0.997072
1.04513 1.04885 1 0.99646
1.05477 1.05854 1 0.996437
1.0366 1.04024 1 0.996499
1.01709 1.01992 1 0.997228
1.00179 1.00308 1 0.998709
1.00892 1.01151 1 0.997434
0.999447 1.00063 1 0.99882
1 1 1 1
0.999716 1 1.00066 0.999053
1 1 1 1
1 1 1 1
1.05344 1.06982 0.987597 0.997062
1.05536 1.08029 0.979695 0.997168
1.04887 1.08074 0.97315 0.997293
1.0547 1.06971 0.989141 0.996788
1.0485 1.05538 0.996858 0.996614
1.05417 1.0761 0.982766 0.996802
1.05538 1.06734 0.991612 0.997158
1.05911 1.07431 0.988507 0.997314
1.06126 1.08231 0.98309 0.997413
1.05395 1.06564 0.991832 0.997179
1.05258 1.0622 0.993947 0.996977
1.05456 1.07096 0.987416 0.99723
1.05389 1.06449 0.993033 0.996985
1.05921 1.0666 0.996345 0.996715
1.05182 1.06386 0.991726 0.996925
1.05899 1.06588 0.9969 0.996629
1.05551 1.05939 1 0.996343
1.05829 1.06384 0.998172 0.996607
1.05646 1.06032 1 0.996354
1.02378 1.02711 1 0.996756
1.05474 1.05857 1 0.996379
1.02447 1.02775 1 0.99681
1.00016 1.00131 1 0.998856
1.02494 1.02813 1 0.996895
1.0009 1.00201 1 0.998893
0.999582 1 1 0.999582
1.00161 1.0027 1 0.998917
0.999625 1 1 0.999625
0.999615 1 1 0.999615
1.05478 1.06556 0.99301 0.996851
1.0586 1.06346 0.998986 0.996439
1.05521 1.0653 0.993883 0.99662
1.05492 1.05866 1 0.996462
1.05682 1.06087 0.999683 0.996497
1.06091 1.06698 0.997624 0.996681
1.02647 1.02959 1 0.99697
1.05173 1.05544 1 0.996488
1.05794 1.06167 0.999868 0.996616
1.00304 1.00435 1 0.998692
1.02352 1.02652 1 0.997074
1.04508 1.04881 1 0.996449
1.01628 1.0191 1 0.997229
1.00098 1.00226 1 0.998721
1 1 1 1
0.999168 1.00033 1 0.998835
1 1 1 1
1 1 1 1
1.05227 1.06435 0.991575 0.997051
1.0538 1.06998 0.987786 0.997053
1.0548 1.07996 0.97949 0.997149
1.05423 1.06929 0.989084 0.996805
1.05314 1.06105 0.995594 0.996935
1.05545 1.0674 0.991613 0.997169
1.05929 1.07441 0.988587 0.997308
1.05445 1.06587 0.99207 0.9972
1.05274 1.06251 0.993803 0.996987
1.0594 1.06571 0.997368 0.996698
1.05417 1.06444 0.993381 0.996945
1.05961 1.06649 0.996874 0.996663
1.05478 1.05905 0.999559 0.996406
1.05848 1.0654 0.996862 0.996632
1.05638 1.06026 1 0.996345
1.02221 1.02558 1 0.996721
1.05719 1.06105 1 0.996355
1.02357 1.0269 1 0.996757
0.999091 1.0005 1 0.998589
1.02503 1.02831 1 0.996811
0.999794 1.00106 1 0.998738
1 1 1 1
1.00061 1.00174 1 0.998877
0.999608 1 1 0.999608
0.999638 1 1 0.999638
1.05334 1.06217 0.994732 0.996945
1.05764 1.06377 0.997657 0.996574
1.05526 1.06521 0.993789 0.996842
1.05573 1.0596 1 0.996345
1.05767 1.06296 0.998565 0.996449
1.05531 1.06648 0.992854 0.996647
1.02597 1.02925 1 0.996811
1.05487 1.05861 1 0.996462
1.05619 1.06019 0.999742 0.996484
1.00224 1.00355 1 0.998698
1.02577 1.02893 1 0.996933
1.05144 1.05516 1 0.996466
1 1 1 1
1.00276 1.00406 1 0.998703
1.02305 1.02605 1 0.997075
1.00055 1.00182 1 0.998733
1 1 1 1
1 1 1 1
1.05156 1.05921 0.995823 0.996945
1.05263 1.06444 0.991823 0.997058
1.0541 1.07014 0.987934 0.997045
1.05906 1.06451 0.998231 0.996638
1.05257 1.06086 0.995227 0.996947
1.05553 1.06747 0.991607 0.997179
1.05284 1.06281 0.99361 0.996997
1.05902 1.0655 0.997215 0.996699
1.0537 1.05779 0.999674 0.99646
1.05994 1.06633 0.997382 0.996611
1.05518 1.05923 0.999775 0.996394
1.02037 1.0238 1 0.996652
1.05741 1.06129 1 0.996347
1.02173 1.02509 1 0.996722
0.998594 1.00004 1 0.998557
1.02339 1.02672 1 0.996758
0.998869 1.00028 1 0.998587
1 1 1 1
0.999317 1.00072 1 0.998601
0.999782 1 1 0.999782
0.99963 1 1 0.99963
1.0514 1.05886 0.996046 0.996903
1.05869 1.06387 0.99848 0.996648
1.05313 1.06182 0.994851 0.996953
1.0559 1.05978 1 0.996335
1.05866 1.06448 0.99796 0.996559
1.05569 1.06484 0.99456 0.996832
1.02457 1.02794 1 0.996726
1.0553 1.05916 1 0.996356
1.0567 1.06243 0.998134 0.996458
1.00071 1.00204 1 0.998675
1.02559 1.02889 1 0.996799
1.05481 1.05855 1 0.996463
1 1 1 1
1.00258 1.00388 1 0.998708
1.02533 1.02852 1 0.996896
1 1 1 1
1.0025 1.00379 1 0.998714
1 1 1 1
1.05835 1.06362 0.998354 0.996682
1.05116 1.05883 0.995818 0.996931
1.05293 1.06446 0.992084 0.997064
1.05306 1.05711 0.999716 0.996457
1.05843 1.06421 0.997903 0.996659
1.05201 1.06066 0.994873 0.996959
1.05867 1.06528 0.997086 0.9967
1.05352 1.05771 0.999572 0.99646
1.01924 1.02267 1 0.996647
1.0556 1.05943 1 0.996382
1.0202 1.02361 1 0.996671
0.998517 1 1 0.998517
1.02109 1.02444 1 0.996723
0.998555 1 1 0.998555
1 1 1 1
0.998669 1.00008 1 0.998584
1 1 1 1
0.999603 1 1 0.999603
1.05936 1.06439 0.99861 0.996658
1.05068 1.05869 0.995497 0.996924
1.05489 1.05872 1 0.99638
1.05914 1.06435 0.998457 0.996647
1.05296 1.06153 0.99496 0.99696
1.02224 1.02557 1 0.996749
1.05507 1.05895 1 0.996332
1.05969 1.0652 0.998276 0.996544
0.999314 1.00069 1 0.998622
1.02461 1.02796 1 0.996744
1.05476 1.0586 1 0.996367
1 1 1 1
1.00113 1.00245 1 0.998681
1.02528 1.02859 1 0.996786
1 1 1 1
1.00288 1.00417 1 0.998716
1 1 1 1
1.05314 1.05705 0.99982 0.996481
1.05821 1.0634 0.998447 0.99667
1.05079 1.05846 0.995823 0.996916
1.01871 1.02212 1 0.996662
1.05286 1.05697 0.999649 0.996457
1.05776 1.06389 0.997553 0.99668
1.05333 1.05763 0.999472 0.99646
1.01936 1.02279 1 0.996645
0.998497 1 1 0.998497
1.02006 1.02345 1 0.996689
0.998515 1 1 0.998515
1 1 1 1
0.998553 1 1 0.998553
1 1 1 1
1 1 1 1
1.05425 1.05805 1 0.996405
1.059 1.06427 0.99834 0.996705
1.04995 1.05853 0.994938 0.996945
1.02069 1.02401 1 0.996756
1.0545 1.05833 1 0.996377
1.05959 1.06482 0.998434 0.996646
0.998641 1.00006 1 0.998576
1.02268 1.02602 1 0.996747
1.05433 1.05822 1 0.996328
1 1 1 1
0.999739 1.00112 1 0.998625
1.02489 1.02822 1 0.996763
1 1 1 1
1.00148 1.0028 1 0.998687
1 1 1 1
1.01915 1.0225 1 0.996721
1.05285 1.05688 0.999727 0.996459
1.05808 1.06321 0.998519 0.996658
0.998518 1 1 0.998518
1.01888 1.0223 1 0.996659
1.05268 1.05685 0.999593 0.996457
1.01947 1.02291 1 0.996644
0.998497 1 1 0.998497
1 1 1 1
0.998512 1 1 0.998512
1 1 1 1
1 1 1 1
1.01981 1.02314 1 0.996748
1.05387 1.05774 0.999906 0.996431
1.05868 1.06413 0.998113 0.996751
0.998801 1 1 0.998801
1.02107 1.0244 1 0.996754
1.05412 1.05795 1 0.996374
1 1 1 1
0.998814 1.00024 1 0.998577
1.02299 1.02633 1 0.996744
1 1 1 1
1.00003 1.00141 1 0.998629
1 1 1 1
0.998506 1 1 0.998506
1.0193 1.02267 1 0.996702
1.05259 1.05673 0.999644 0.996437
1 1 1 1
0.998517 1 1 0.998517
1.01905 1.02247 1 0.996657
0.998496 1 1 0.998496
1 1 1 1
1 1 1 1
0.998767 1 1 0.998767
1.02008 1.02341 1 0.996749
1.05343 1.0574 0.999781 0.996457
1 1 1 1
0.998558 1 1 0.998558
1.0214 1.02473 1 0.996753
1 1 1 1
0.999034 1.00046 1 0.998578
1 1 1 1
0.999563 1 1 0.999563
0.998649 1 1 0.998649
1.01943 1.02282 1 0.996684
1 1 1 1
0.998518 1 1 0.998518
1 1 1 1
0.999577 1 1 0.999577
0.998661 1 1 0.998661
1.0204 1.02373 1 0.996749
0.999785 1 1 0.999785
0.998594 1.00004 1 0.998559
1 1 1 1
1 1 1 1
0.99854 1 1 0.99854
1 1 1 1
0.999787 1 1 0.999787
0.998554 1 1 0.998554
1 1 1 1
1 1 1 1
1 1 1 1

VECTORS lamdaE float
1.00173 1.00004 0.993305
1.00131 1.0008 0.996641
1.00121 1.00028 0.993637
1.00177 1.00006 0.9932
1.00178 0.999933 0.993339
1.00172 1.00028 0.993082
1.003 1.0005 0.990252
1.00133 1.00077 0.996606
1.00114 1.00011 0.997225
1.00064 1.00089 0.997235
1.0011 1.00109 0.993106
1.00291 1.00121 0.988659
1.00123 1.00001 0.993848
1.00105 0.99999 0.993967
1.00074 1.00053 0.993941
1.00141 1.00003 0.993569
1.00114 1.00066 0.993379
1.00136 0.999995 0.993689
1.00324 1.00034 0.990093
1.00126 1.00002 0.996864
1.00165 1.00011 0.993296
1.00181 0.999972 0.993254
1.00309 1.00016 0.990485
1.00309 1.00023 0.9904
1.00181 1.0005 0.992734
1.0029 1.00099 0.989913
1.00527 1.00103 0.985643
1.00134 1.00074 0.996599
1.00138 0.999993 0.995348
1.00102 1.00063 0.995308
1.00121 1.00086 0.996652
1.00281 1.00138 0.988679
1.00166 0.999783 0.993392
1.00144 1.00014 0.993487
1.0034 1.00009 0.9907
1.00013 1.00116 0.997495
1.00325 1.00067 0.990462
1.00251 1.00199 0.988565
1.00488 1.00142 0.985151
1.00034 0.999844 0.997756
1.00128 0.999994 0.99684
1.00128 0.999986 0.995357
1.00118 0.99997 0.996919
1.00083 1.00001 0.994226
1.00293 0.999962 0.989983
1.00123 0.999945 0.997147
1.00341 1.00006 0.990768
1.00107 0.999961 0.993938
1.00095 1.00006 0.994026
1.0006 1.00107 0.993655
1.00346 1.00017 0.989949
1.00106 1.00004 0.995541
1.00127 1.00014 0.993664
1.00118 1.00099 0.993013
1.00144 0.999944 0.993617
1.00326 1.00011 0.990298
1.00319 1.00074 0.989761
1.00329 1.00013 0.990235
1.00527 1.001 0.985687
1.00115 1 0.996917
1.00149 1.00008 0.993529
1.00265 0.999994 0.991787
1.00294 1.00018 0.990689
1.00313 1.00015 0.990427
1.00525 1.00015 0.986514
1.00525 1.00039 0.986227
1.00143 1.00057 0.992973
1.00262 1.0019 0.989491
1.00528 1.00145 0.985207
1.00527 1.00018 0.985737
1.00168 1.00001 0.996721
1.00109 1.00075 0.996853
1.00139 1.00054 0.996655
1.0027 1.00152 0.988687
1.00173 0.999903 0.996662
1.00156 1.00019 0.996742
1.00326 1.00003 0.989236
1.00041 1.00093 0.995664
1.003 1.00068 0.988998
1.00237 1.0022 0.989559
1.00499 1.00129 0.985138
1.00062 1.00026 0.997363
1.0005 1.00233 0.991718
1.00342 1 0.98909
1.0033 1.00013 0.989158
1.00528 1.00043 0.985602
1.00173 1.00268 0.991068
1.00517 1.00096 0.985191
1.00394 1.00281 0.985386
1.00535 1.00145 0.984257
1.00014 0.999024 0.998168
1.00018 0.999575 0.997928
1.00161 0.99997 0.996657
1.00133 0.999991 0.996819
1.00122 0.999977 0.99691
1.0011 1 0.995527
1.00297 0.999952 0.990698
1.00143 0.999947 0.995271
1.0033 1.00008 0.990055
1.00118 0.999983 0.996938
1.00276 0.999831 0.990336
1.00319 1.00004 0.99109
1.00501 0.999248 0.987347
1.00342 1.00004 0.990692
1.00526 0.999512 0.986654
1.0012 0.999997 0.993914
1.00089 1.00011 0.994036
1.00056 1.0015 0.993288
1.00107 0.999904 0.993977
1.00342 1.00011 0.990111
1.00348 1.00004 0.990077
1.00346 1.00049 0.989619
1.00527 1.00098 0.985728
1.0012 0.999982 0.996927
1.00111 1.00009 0.993892
1.00285 0.999947 0.990627
1.0031 1.00014 0.990499
1.0012 1.00103 0.994772
1.00299 1.00169 0.989562
1.0033 1.00009 0.990252
1.00525 0.999993 0.986714
1.00526 1.00144 0.985267
1.00526 1.00056 0.9861
1.00528 1.00018 0.985768
1.00274 0.999862 0.990364
1.00278 1.00007 0.990999
1.00492 0.999028 0.988259
1.00513 0.999618 0.987254
1.00525 1.00004 0.986609
1.00534 0.998289 0.987805
1.0007 1.00089 0.997104
1.00529 0.999406 0.986496
1.00199 1.00289 0.988353
1.0051 1.00175 0.984473
1.00527 1.00106 0.984951
1.00525 0.997937 0.987848
1.0011 1.00305 0.989884
1.0023 1.00441 0.986622
1.00175 0.999921 0.996682
1.00155 1.00024 0.996729
1.00328 1 0.989219
1.00064 1.0006 0.997252
1.00197 1.0025 0.988817
1.00302 1.00066 0.989019
1.00505 1.0012 0.98513
1.00046 1.00026 0.997508
1.00042 1.00243 0.991732
1.00343 1.00003 0.98988
1.00333 1.00019 0.989893
1.00528 1.00044 0.985575
1.0013 1.00285 0.989724
1.0052 1.00092 0.985177
1.00418 1.00239 0.98536
1.00535 1.00135 0.984438
1.00089 1.00262 0.990658
1.00028 1.00172 0.992768
1.00196 1.00463 0.987503
1.00529 1.00014 0.985917
1.00527 1.00068 0.985342
1.00529 0.999171 0.986823
1.00323 1.00335 0.985953
1.00532 1.00042 0.985553
1.00522 1.00216 0.983862
1.00531 1.00024 0.985358
1.00006 0.998476 0.99849
1.00006 0.998955 0.998302
1.00009 0.999446 0.998089
1.0008 1.00296 0.99058
1.0004 1.00073 0.997362
1.00173 0.999929 0.996642
1.00143 0.999985 0.996732
1.00314 1.00012 0.989404
1.00283 0.999964 0.990067
1.0012 0.999975 0.99689
1.00115 0.999975 0.996933
1.00275 0.999844 0.990327
1.00311 1.00004 0.990384
1.00498 0.999265 0.987347
1.00328 1.00008 0.989198
1.00524 0.99954 0.986645
1.0027 0.999827 0.990428
1.00496 0.999119 0.987553
1.0051 0.999373 0.987047
1.00532 0.996245 0.989996
1.00529 0.999835 0.986265
1.00536 0.997132 0.989031
1.00116 0.999982 0.996927
1.00071 1.00016 0.994253
1.00287 0.99994 0.989619
1.00328 1.00014 0.990306
1.00045 1.00163 0.997043
1.00343 1.00128 0.989636
1.00348 1.00005 0.99008
1.00525 0.999825 0.986916
1.00526 1.00072 0.985969
1.00524 1.00143 0.985331
1.00527 1.00019 0.9858
1.00272 0.999856 0.990368
1.00294 1.0001 0.990808
1.00495 0.998996 0.987991
1.00516 0.999797 0.987054
1.00085 1.00093 0.996979
1.00224 1.00262 0.989275
1.00493 1.00205 0.984756
1.00526 1.00009 0.986566
1.00535 0.997924 0.988215
1.00529 1.00095 0.985022
1.00528 0.999549 0.986444
1.00525 0.997966 0.987862
1.00114 1.00299 0.989863
1.00236 1.0043 0.986621
1.00492 0.999172 0.987575
1.00501 0.999363 0.987801
1.00532 0.996959 0.989259
1.00536 0.997085 0.988977
1.00531 0.998585 0.987414
1.00526 0.995682 0.990373
1.00143 1.00312 0.989122
1.00526 0.996807 0.989016
1.00435 1.00265 0.984793
1.00533 1.00178 0.983974
1.00525 0.999508 0.986434
1.00522 0.996245 0.989707
1.00313 1.00371 0.985686
1.0016 1.00495 0.98745
1.0039 1.00234 0.986064
1.0033 1.00002 0.989182
1.00025 1.00009 0.997673
1.00032 1.00249 0.991746
1.00318 1.00017 0.989203
1.00528 1.00045 0.985548
1.00124 1.00301 0.989636
1.00439 1.00201 0.985334
1.00526 1.00088 0.985158
1.00535 1.00123 0.984618
1.00084 1.00272 0.990672
1.00014 1.00177 0.9928
1.00163 1.00471 0.987477
1.00528 1.00016 0.985888
1.00527 1.00069 0.985318
1.00529 0.999171 0.986802
1.00338 1.00317 0.985963
1.0053 1.00053 0.985454
1.00532 1.00211 0.983813
1.00533 0.999951 0.985579
1.00015 1.00094 0.993696
1.00279 1.0038 0.986667
1.00117 1.00476 0.988426
1.00311 1.00232 0.987458
1.0053 0.998444 0.987601
1.00529 0.999889 0.986064
1.00525 0.997055 0.988783
1.00484 1.00231 0.984315
1.00523 0.998653 0.987325
1.00534 1.0013 0.984636
1.00535 0.998953 0.986663
1.00023 1.00252 0.992013
1.00027 0.999639 0.994776
1.00007 0.997939 0.998701
1.00002 0.99836 0.998572
0.999991 0.998825 0.998413
1.00035 1.00268 0.991508
1.0002 1.00035 0.997631
1.00086 1.00284 0.990537
1.00052 1.00075 0.997274
1.00326 1.00011 0.989198
1.00298 1.00002 0.989745
1.00521 0.999568 0.986641
1.00497 0.999288 0.987346
1.00276 0.999862 0.990325
1.00121 0.999962 0.996931
1.00272 0.999819 0.990431
1.00494 0.999129 0.987559
1.0051 0.999381 0.987042
1.00532 0.996267 0.990003
1.00528 0.999851 0.986241
1.00534 0.997111 0.989033
1.00492 0.999099 0.987629
1.0053 0.996135 0.990177
1.00537 0.996597 0.98957
1.00531 0.994947 0.991255
1.0053 0.997751 0.988376
1.00524 0.995083 0.991046
1.00272 0.999855 0.990378
1.00311 1.00007 0.990619
1.00498 0.998945 0.987726
1.00518 0.999971 0.986854
1.001 1.00098 0.996829
1.00265 1.00244 0.989972
1.00481 1.00229 0.985034
1.00527 1.00014 0.986522
1.00535 0.997562 0.988623
1.00528 0.999697 0.986395
1.00531 1.00084 0.985093
1.00524 0.997995 0.987875
1.00118 1.00292 0.989844
1.0024 1.00417 0.986621
1.00492 0.998953 0.987791
1.00503 0.999334 0.987775
1.00532 0.996844 0.989397
1.00538 0.997477 0.988574
1.0015 1.00309 0.989127
1.0042 1.00285 0.984823
1.00533 1.00191 0.98383
1.00529 0.998805 0.987259
1.00524 0.995493 0.99058
1.00525 0.999272 0.986672
1.00526 0.996836 0.989007
1.00522 0.996212 0.989614
1.00314 1.00389 0.985632
1.00381 1.00257 0.985856
1.00156 1.00481 0.9875
1.00531 0.996757 0.989509
1.00534 0.997082 0.989125
1.00528 0.995138 0.991075
1.00529 0.994999 0.991047
1.00525 0.995915 0.989941
1.00523 0.99492 0.990945
1.00362 1.00349 0.985164
1.00523 0.995261 0.990435
1.00531 1.00277 0.983124
1.00527 1.00067 0.984993
1.00522 0.997841 0.988044
1.0052 0.995757 0.990137
1.00095 1.00508 0.988084
1.00468 1.00279 0.984525
1.00304 1.00351 0.98621
1.00506 1.00239 0.984544
1.00527 1.00018 0.98586
1.00007 1.0018 0.992827
1.00069 1.00294 0.990694
1.00134 1.00471 0.98745
1.00528 1.00069 0.985292
1.00529 0.999173 0.986781
1.00351 1.00285 0.985978
1.00535 1.00209 0.983763
1.0053 1.00064 0.985353
1.00533 0.99967 0.9858
1.00012 1.0009 0.993738
1.00267 1.00364 0.986716
1.00096 1.00489 0.988401
1.00307 1.0023 0.987497
1.0053 0.998447 0.987581
1.00529 0.999886 0.986042
1.00525 0.997043 0.988783
1.00496 1.0023 0.9843
1.00523 0.998838 0.987095
1.00531 1.00117 0.984612
1.00535 0.998814 0.986837
1.00022 1.00015 0.994392
1.00078 1.00418 0.989647
1.00387 1.00229 0.985998
1.00221 1.00381 0.987989
1.00378 0.999984 0.988753
1.00525 0.99621 0.98968
1.00524 0.997873 0.987917
1.00523 0.995843 0.989809
1.00511 1.00206 0.984195
1.00526 0.997564 0.98816
1.00516 1.00001 0.985838
1.00042 1.00269 0.991514
1.00032 1.00433 0.990126
1.00009 1.0022 0.99257
1.0002 1.00253 0.992016
1.00022 0.999344 0.99581
1.00025 0.999577 0.995191
1.00024 0.997508 0.99729
1.00006 0.99788 0.998743
1 0.998251 0.99864
0.999936 1.00211 0.992752
1.00001 0.999822 0.998023
1.00046 1.00259 0.991501
1.00032 1.00045 0.997523
1.00094 1.00275 0.990493
1.00064 1.00079 0.997186
1.00526 0.999867 0.986219
1.00511 0.999379 0.987033
1.00533 0.997116 0.989036
1.00532 0.996285 0.99001
1.00492 0.99914 0.987567
1.00271 0.999805 0.990428
1.00491 0.999099 0.987634
1.0053 0.996141 0.99018
1.00535 0.996623 0.989582
1.00531 0.994943 0.99126
1.00531 0.997735 0.988362
1.00525 0.995066 0.991065
1.00531 0.996187 0.990137
1.0053 0.994957 0.991308
1.00528 0.994932 0.991232
1.00524 0.994958 0.991224
1.00524 0.995519 0.990503
1.00525 0.994886 0.991018
1.00493 0.998736 0.988008
1.00506 0.999314 0.987749
1.00532 0.996762 0.989534
1.0054 0.997852 0.988171
1.00157 1.00306 0.989138
1.00399 1.00319 0.984861
1.00534 1.00204 0.983687
1.00528 0.999014 0.987104
1.00522 0.995301 0.990787
1.00527 0.996868 0.988998
1.00525 0.999038 0.986911
1.00522 0.996162 0.989519
1.00318 1.00417 0.985575
1.00373 1.0027 0.985647
1.00152 1.00463 0.987548
1.00531 0.996541 0.989761
1.00534 0.997038 0.989138
1.00528 0.995054 0.991166
1.00527 0.995195 0.990852
1.00355 1.00367 0.985172
1.00529 1.00279 0.98318
1.00527 1.00084 0.984784
1.00526 0.996151 0.989687
1.00524 0.994916 0.99092
1.00523 0.997709 0.988021
1.00524 0.99528 0.990408
1.0052 0.995662 0.990178
1.00438 1.00307 0.984505
1.0049 1.00237 0.984308
1.00114 1.00494 0.9881
1.0029 1.00344 0.986213
1.00528 0.994961 0.991349
1.00529 0.99522 0.990833
1.00523 0.994949 0.991276
1.00523 0.994907 0.990968
1.00526 0.994933 0.990768
1.00529 0.99491 0.990762
1.0052 1.00305 0.983242
1.00522 0.994954 0.990622
1.00525 1.00218 0.983573
1.00522 0.999791 0.9858
1.0052 0.997078 0.988562
1.00523 0.995726 0.990045
1.00067 1.00462 0.989092
1.00175 1.00504 0.986442
1.00513 1.00331 0.983008
1.00469 1.00278 0.985465
1.00493 1.00385 0.983023
1.00007 1.00082 0.99378
1.0053 0.998449 0.987561
1.00075 1.00502 0.988376
1.0025 1.00364 0.986762
1.00305 1.00217 0.987535
1.00529 0.999885 0.986021
1.00525 0.997029 0.988782
1.00519 1.0021 0.984282
1.0053 1.00108 0.98459
1.00523 0.999011 0.986867
1.00534 0.998694 0.987011
1.0002 1.00009 0.994421
1.00054 1.00433 0.989656
1.00413 1.00192 0.986078
1.00186 1.00384 0.987911
1.00377 1.00003 0.988258
1.00525 0.996181 0.98969
1.00523 0.997853 0.987916
1.00523 0.995794 0.989813
1.00513 1.00213 0.984108
1.00527 0.997654 0.98798
1.00519 1.00003 0.986009
1.00048 1.00333 0.990821
1.00122 1.00499 0.988647
1.00451 1.00185 0.985423
1.00293 1.00177 0.98846
1.00488 1.00051 0.987514
1.00527 0.995218 0.990461
1.00522 0.996572 0.988957
1.00523 0.995423 0.989939
1.00499 1.0013 0.984647
1.00515 0.99866 0.986882
1.00039 1.00276 0.991506
1.00057 1.00381 0.990008
1.00008 1.00438 0.990125
1.00054 1.00442 0.99003
1.00011 1.00408 0.99077
1 1.0019 0.992987
1.00004 1.00222 0.992589
1.00017 0.999099 0.996077
1.00018 1.00256 0.992019
1.00024 0.999273 0.99585
1.00026 0.997226 0.997463
1.00024 0.999545 0.995596
1.00015 0.997565 0.998067
1.00006 0.997786 0.99878
0.999785 1.00099 0.994083
1.00003 1.00199 0.992748
0.999809 0.999081 0.998476
1.00014 0.999881 0.997861
1.00055 1.00245 0.991496
1.00042 1.00052 0.997422
1.00533 0.997717 0.988348
1.00532 0.996627 0.989593
1.00526 0.995048 0.991084
1.0053 0.994937 0.991266
1.00531 0.996146 0.990183
1.00491 0.9991 0.987639
1.00531 0.99619 0.990136
1.00529 0.994958 0.991315
1.00529 0.994933 0.991248
1.00525 0.994959 0.991204
1.00524 0.99547 0.99052
1.00525 0.994884 0.991009
1.00528 0.994958 0.991338
1.00525 0.99494 0.991321
1.00524 0.99495 0.991113
1.00528 0.994937 0.991154
1.00528 0.994914 0.990851
1.00532 0.994899 0.990864
1.00531 0.996322 0.990013
1.00534 0.997003 0.989151
1.00529 0.994949 0.991258
1.00526 0.995401 0.990656
1.00349 1.00375 0.98518
1.00525 1.00277 0.983231
1.00527 1.00095 0.984572
1.00526 0.996384 0.989432
1.00525 0.994907 0.990896
1.00524 0.995297 0.99038
1.00524 0.997585 0.987999
1.00521 0.995514 0.990225
1.00398 1.00359 0.984488
1.00496 1.00251 0.984075
1.00133 1.0048 0.988116
1.00281 1.00318 0.986218
1.00528 0.994961 0.991344
1.0053 0.995196 0.990875
1.00524 0.994946 0.991249
1.00523 0.994914 0.990984
1.005 1.00328 0.983257
1.00526 1.00226 0.983452
1.00522 0.999763 0.985785
1.00526 0.994946 0.990731
1.00528 0.994907 0.990742
1.0052 0.997068 0.988564
1.00523 0.994929 0.990606
1.00523 0.995529 0.99018
1.00511 1.00342 0.98308
1.00478 1.00411 0.982828
1.00415 1.00254 0.9855
1.00066 1.00442 0.989158
1.00167 1.00506 0.986572
1.00525 0.994949 0.991271
1.00526 0.994937 0.991092
1.0053 0.994895 0.99069
1.00527 0.994891 0.990713
1.00518 1.0034 0.982689
1.00524 0.994962 0.990511
1.00516 1.00147 0.983997
1.00518 0.999123 0.986386
1.0052 0.996704 0.988777
1.00002 1.00373 0.990786
1.00135 1.00508 0.987855
1.00238 1.00505 0.986026
1.00492 1.00457 0.982428
1.00505 1.00282 0.984231
1.0049 1.0035 0.982638
1.00018 1.00004 0.99445
1.00034 1.00455 0.989665
1.00525 0.996154 0.989699
1.00151 1.00398 0.987832
1.00438 1.00179 0.986163
1.00379 1.00023 0.987767
1.00523 0.997833 0.987914
1.00523 0.995748 0.989816
1.00519 1.0021 0.984022
1.0052 1.00006 0.986182
1.00529 0.997729 0.987799
1.00041 1.00343 0.99082
1.00076 1.00508 0.988629
1.00479 1.00173 0.985105
1.00282 1.0017 0.988476
1.00448 0.999944 0.987298
1.00526 0.995178 0.990485
1.00524 0.996591 0.988934
1.00524 0.995465 0.989904
1.00502 1.00134 0.984748
1.00515 0.998776 0.986836
1.00081 1.00447 0.989548
1.0007 1.00435 0.988717
1.00486 1.00209 0.984601
1.00373 1.00055 0.987487
1.00493 1.00111 0.986079
1.00524 0.994896 0.990531
1.00528 0.996766 0.988504
1.00529 0.995813 0.989314
1.00505 1.0003 0.985771
1.00512 0.999054 0.986667
1.00036 1.0028 0.991498
1.00058 1.00393 0.989974
0.99996 1.00396 0.990742
0.999937 1.00441 0.990121
0.999958 1.00421 0.990766
0.999947 1.0047 0.990175
0.999946 1.00337 0.991609
0.999751 1.00485 0.990253
0.999923 1.00375 0.991342
0.999995 1.00189 0.993016
1 1.00187 0.99299
1.00008 0.99901 0.996286
1 1.00217 0.992605
1.00018 0.999071 0.996115
1.00022 0.9971 0.997635
1.00026 0.999214 0.995894
1.00022 0.997284 0.997458
1.00003 0.997596 0.998867
0.999808 0.999932 0.99511
0.999837 1.00103 0.994034
0.999737 0.998434 0.998797
1.00019 1.00185 0.992746
0.999938 0.999256 0.99831
1.00026 1.00004 0.997713
1.00524 0.99542 0.990538
1.00529 0.994935 0.991264
1.00526 0.994882 0.991001
1.00526 0.994961 0.991182
1.00529 0.994959 0.991323
1.0053 0.996194 0.990136
1.00528 0.994961 0.991351
1.00525 0.99494 0.991324
1.00525 0.994951 0.991119
1.00528 0.994935 0.991142
1.00527 0.99492 0.990877
1.00531 0.994898 0.990805
1.00525 0.994945 0.991318
1.00528 0.994926 0.991238
1.0053 0.994928 0.991004
1.00531 0.994858 0.990676
1.00529 0.994962 0.991338
1.00531 0.995173 0.990917
1.00524 0.994943 0.991223
1.00523 0.99492 0.991
1.00486 1.00332 0.983272
1.00526 1.00238 0.983335
1.00522 0.999785 0.985769
1.00527 0.994969 0.990694
1.00528 0.994904 0.990723
1.00523 0.994928 0.99059
1.0052 0.997028 0.988562
1.00521 0.99546 0.990313
1.00477 1.00356 0.983149
1.00477 1.00424 0.982637
1.00375 1.00268 0.985531
1.00067 1.0042 0.989235
1.00164 1.00507 0.986704
1.00524 0.99495 0.991262
1.00526 0.994937 0.991114
1.0053 0.994902 0.990717
1.00519 1.0034 0.982743
1.00514 1.00171 0.983884
1.00517 0.999129 0.986388
1.00526 0.994893 0.990716
1.0052 0.996595 0.988997
1.00524 0.994967 0.990481
0.99996 1.00355 0.991029
1.00468 1.00444 0.982517
1.00465 1.00485 0.982221
1.00471 1.00309 0.984359
1.00278 1.00471 0.98597
1.00107 1.00508 0.987883
1.00528 0.994933 0.99118
1.0053 0.994909 0.990892
1.0053 0.994891 0.990606
1.00526 0.994855 0.990594
1.00503 1.00333 0.983012
1.0052 0.995231 0.9904
1.00503 1.00102 0.984775
1.00513 0.99894 0.986603
0.999935 1.00182 0.992734
1.00037 1.00496 0.989563
1.002 1.00508 0.987424
1.00327 1.00479 0.984646
1.00449 1.00477 0.98338
1.00485 1.00403 0.9829
1.00033 1.00352 0.99082
1.0003 1.00511 0.988613
1.00524 0.995135 0.990509
1.00272 1.00155 0.988488
1.00515 1.00158 0.984784
1.00379 0.999995 0.987075
1.00526 0.996609 0.988911
1.00524 0.995504 0.989868
1.00505 1.00146 0.984846
1.00516 0.998914 0.986791
1.0006 1.00451 0.98956
1.00117 1.00431 0.98846
1.00485 1.00209 0.984578
1.00405 1.0006 0.987533
1.00472 1.0014 0.985911
1.00525 0.99495 0.990552
1.00527 0.996663 0.988739
1.00528 0.995858 0.989405
1.00503 1.00028 0.985769
1.00507 0.999306 0.986441
0.999609 1.00442 0.989903
1.00094 1.00337 0.988806
1.00485 1.00108 0.985619
1.00478 1.00057 0.98586
1.00534 0.99484 0.990437
1.00527 0.995311 0.990154
1.00524 0.998019 0.987148
1.0051 0.999655 0.985973
1.00079 1.00389 0.989939
1.00013 1.00394 0.990656
0.999157 1.00368 0.993077
0.999798 1.00435 0.990765
0.999335 1.00497 0.990321
0.999911 1.00374 0.991324
0.999596 1.00347 0.992027
0.999827 1.00493 0.990181
0.999753 1.00098 0.994339
0.999741 1.00447 0.990935
0.999703 1.00462 0.990418
1.00006 1.00353 0.991325
0.999959 1.0021 0.992796
0.999955 1.00189 0.993004
0.999971 0.999044 0.996403
0.999976 1.00186 0.992995
1.0001 0.999 0.996305
1.00014 0.997117 0.997743
1.00019 0.999034 0.996156
1.00021 0.997123 0.997627
1.00018 0.997344 0.997444
0.999955 0.999147 0.995714
0.999809 1.00007 0.995043
0.999724 0.997926 0.998974
0.999848 1.00114 0.993983
0.999787 0.998542 0.998708
1.00008 0.999314 0.998128
1.00527 0.994926 0.990902
1.00525 0.994952 0.991125
1.00531 0.994896 0.990746
1.00527 0.994933 0.991129
1.00525 0.99494 0.991326
1.00528 0.994963 0.991364
1.00525 0.994945 0.991328
1.00528 0.994924 0.991232
1.0053 0.994924 0.990981
1.00531 0.994855 0.990687
1.00528 0.994926 0.991261
1.00528 0.994917 0.991151
1.00533 0.994882 0.990783
1.00524 0.994951 0.991253
1.00525 0.994938 0.991137
1.0053 0.994908 0.990744
1.00524 1.00335 0.982801
1.00514 1.00188 0.983769
1.00516 0.999011 0.986389
1.00526 0.994893 0.99072
1.00525 0.994972 0.990449
1.00522 0.996386 0.989214
1.00454 1.00429 0.982604
1.00484 1.00511 0.981827
1.0043 1.00321 0.984486
0.999996 1.00336 0.99128
1.00321 1.00444 0.985914
1.00074 1.00509 0.987901
1.00528 0.994936 0.991199
1.0053 0.994905 0.99086
1.00531 0.994888 0.990598
1.00503 1.00335 0.983032
1.00496 1.00091 0.984689
1.00512 0.998737 0.98694
1.00526 0.994858 0.990564
1.00503 0.995241 0.990346
0.999945 1.00181 0.992952
1.00027 1.00494 0.989542
1.00451 1.00357 0.98323
1.00469 1.00388 0.983097
1.00362 1.00448 0.984795
1.00174 1.00508 0.987225
1.00529 0.994909 0.991131
1.00533 0.99485 0.990609
1.0053 0.994883 0.99056
1.0052 0.994887 0.990377
1.00442 1.00245 0.984177
1.00515 0.996488 0.989135
1.00499 1.00096 0.985074
1.00013 1.00088 0.993809
1.00024 1.00206 0.992588
0.999566 1.00368 0.991726
1.00086 1.00503 0.988631
1.00158 1.00507 0.986526
1.00416 1.00434 0.983302
1.00322 1.00437 0.984886
1.0037 1.00517 0.984596
1.00031 1.00455 0.989572
1.00164 1.0043 0.988203
1.00527 0.995001 0.990572
1.00438 0.99963 0.987582
1.00483 1.00208 0.98456
1.00462 1.00167 0.98575
1.00527 0.996538 0.988977
1.00527 0.995889 0.989498
1.00502 1.0002 0.985767
1.00502 0.999494 0.986216
1.00028 1.00414 0.989722
1.00153 1.00346 0.988532
1.0049 1.00108 0.985477
1.00503 1.00077 0.986062
1.00535 0.994816 0.990433
1.00529 0.995276 0.990091
1.00519 0.997961 0.987261
1.00512 0.999743 0.986005
0.999508 1.00441 0.990482
1.00538 0.994887 0.990428
1.00315 1.00281 0.9881
1.0049 1.00047 0.985839
1.0053 0.994755 0.990788
1.00519 0.997144 0.987114
1.00506 1.00063 0.985593
1.00026 1.00396 0.990568
0.999015 1.00351 0.992997
0.997918 1.0023 0.996097
0.999911 1.00366 0.991307
0.999843 1.00501 0.990107
0.998449 1.00424 0.99244
1.00008 1.00342 0.991312
0.999721 1.00469 0.990433
0.998715 1.00188 0.994743
0.999856 1.00441 0.99081
0.999303 0.999607 0.997261
0.998874 1.00293 0.993543
0.999644 1.00502 0.990283
1.00031 1.00454 0.989806
1.00019 1.00364 0.990913
0.999929 1.00235 0.992609
0.999894 1.00224 0.992775
0.999846 0.999231 0.99647
0.99991 1.00199 0.992994
0.999986 0.999081 0.996404
1.00002 0.997247 0.997826
1.00011 0.998978 0.996327
1.00015 0.997131 0.997738
1.0002 0.997152 0.997613
1.00013 1.00082 0.993912
1.00003 0.998705 0.996045
0.999939 0.999245 0.995668
0.9998 0.997568 0.999066
0.999808 1.00018 0.994978
0.999759 0.998052 0.998934
0.99987 0.998685 0.998589
1.0053 0.994855 0.990697
1.0053 0.99492 0.990958
1.00528 0.994922 0.991226
1.00525 0.994944 0.991338
1.00528 0.994923 0.991268
1.00528 0.994915 0.991161
1.00531 0.994885 0.990742
1.00528 0.994911 0.991204
1.00535 0.9949 0.991001
1.0055 0.995097 0.991081
1.00528 0.994937 0.991218
1.0053 0.994899 0.990828
1.00531 0.994887 0.990591
1.00478 1.00341 0.983055
1.00502 1.00129 0.984627
1.0049 0.998619 0.987269
1.00525 0.994869 0.990533
1.00502 0.99533 0.990295
1.00417 1.00402 0.98308
1.00437 1.00435 0.983248
1.00374 1.00405 0.984943
0.999952 1.00171 0.993168
1.00016 1.00499 0.989517
1.00152 1.00508 0.987022
1.00529 0.994907 0.99111
1.00012 1.00086 0.9938
1.00016 1.00208 0.99244
1.00533 0.994865 0.990622
1.00528 0.994886 0.990569
1.00468 1.00269 0.984084
1.00476 1.00085 0.985327
1.00507 0.996438 0.989049
1.00521 0.994874 0.990333
0.999668 1.00361 0.991883
1.00083 1.00504 0.988577
1.00343 1.00426 0.984757
1.00369 1.00477 0.983877
1.00434 1.00441 0.983266
1.00176 1.00507 0.986477
1.00538 0.994868 0.99086
1.00533 0.994846 0.990492
1.00524 0.994853 0.990499
1.00518 0.994899 0.990403
1.00394 1.00209 0.985563
1.00463 1.00005 0.987037
1.0001 1.00252 0.99199
0.999921 1.00217 0.992835
1.0016 1.00051 0.992267
1.00063 1.00384 0.989843
1.0011 1.0051 0.988054
1.00272 1.00452 0.986209
1.00263 1.00509 0.984093
1.00209 1.00136 0.989314
1.00077 1.00393 0.989544
1.00215 1.00363 0.988255
1.00535 0.994794 0.990428
1.00531 0.995291 0.990029
1.00522 1.00121 0.986263
1.00496 1.00112 0.985333
1.00515 0.997922 0.987373
1.00515 0.99986 0.986041
1.00014 1.00401 0.990362
1.00539 0.994911 0.990662
1.0024 1.00301 0.988321
1.005 1.00055 0.985724
1.0053 0.994779 0.990801
1.00519 0.997322 0.987318
1.00494 1.00051 0.985547
0.999189 1.00504 0.991744
1.00495 0.994777 0.990761
1.00237 1.00232 0.988256
1.00465 1.00167 0.984739
1.00509 0.995597 0.989989
1.00372 1.00099 0.986291
0.998814 0.994795 0.985854
0.998777 1.00358 0.992926
0.997668 1.00258 0.99614
0.997796 1.00179 0.997294
1 1.00346 0.9913
0.999625 1.00488 0.990449
1.00033 1.00414 0.990688
0.998195 1.00213 0.995163
1.00012 1.00374 0.990913
1.00021 1.00449 0.989909
0.999214 0.999367 0.997199
0.99969 1.00497 0.990286
0.999319 1.00298 0.993075
0.997957 1.00149 0.997382
1.00039 1.00403 0.990311
1.00009 1.0049 0.990053
1.00073 1.00434 0.989551
1.00015 1.00404 0.990352
1.00038 1.00489 0.989838
1.00008 1.00429 0.990154
0.999901 1.0024 0.992567
0.999913 1.00237 0.992593
0.999723 0.999298 0.995935
0.999884 1.00223 0.992753
0.999831 0.99927 0.996147
0.999989 0.997376 0.999092
0.999996 0.999125 0.996406
1.00004 0.997223 0.997823
1.00016 0.997143 0.997728
1.00004 1.00068 0.99411
1.00015 1.00071 0.993946
1.00008 0.998436 0.996289
1.00002 0.998724 0.996331
0.999858 0.997288 0.999138
0.999914 0.999375 0.995621
0.9998 0.997646 0.999046
0.999794 0.99809 0.998894
1.00529 0.994887 0.990701
1.00528 0.994914 0.991171
1.00528 0.994921 0.991274
1.00528 0.99491 0.991205
1.00534 0.994899 0.990968
1.0055 0.995029 0.990864
1.00543 0.994876 0.990993
1.00127 0.994835 0.981292
1.00487 0.995088 0.991833
1.00013 1.00191 0.992736
1.00529 0.994907 0.991089
1.00533 0.994877 0.990634
1.00527 0.99488 0.990578
1.00476 1.00239 0.983966
1.005 1.00036 0.98556
1.00483 0.996274 0.988956
1.00522 0.99486 0.990292
1.00401 1.00338 0.984681
1.00433 1.00441 0.983231
1.00419 1.00439 0.983226
1.0001 1.00089 0.993792
1.00236 1.00508 0.986427
0.999731 1.00354 0.992025
1.00079 1.00504 0.988523
1.00011 1.0021 0.992295
1.00538 0.994863 0.990862
1.00008 1.00247 0.992161
0.999895 1.00225 0.992864
1.00105 1.00076 0.992699
1.00534 0.994847 0.990467
1.00522 0.994848 0.990454
1.00317 1.00304 0.98566
1.00484 0.99882 0.987503
1.00517 0.994899 0.990349
1.00047 1.00384 0.990045
1.00136 1.00508 0.987893
1.00247 1.00259 0.988525
1.00326 1.00506 0.983809
1.00314 1.00367 0.986366
1.00537 0.994757 0.990996
1.00525 0.994818 0.990704
1.00519 0.99489 0.990024
1.0051 0.996695 0.990525
1.00175 1.00136 0.989526
0.999501 1.00344 0.991866
1.00163 1.00085 0.991586
1.0001 1.00029 0.993058
1.00097 1.00431 0.989979
1.00066 1.00496 0.989071
1.00095 1.00407 0.988171
1.00159 1.00013 0.991685
1.00115 1.00352 0.990231
1.00141 1.0032 0.988548
1.0054 0.994963 0.990886
1.00531 0.994765 0.990806
1.00518 0.997467 0.987522
1.00509 1.00061 0.985604
1.00482 1.00037 0.985509
0.999679 1.00477 0.991769
1.00465 0.994813 0.990969
1.00263 1.00225 0.988116
1.00478 1.00164 0.984668
1.00505 0.99548 0.990285
1.00398 1.00089 0.986369
0.998576 0.9959 0.983921
0.998034 1.00439 0.993431
1.00315 0.995418 0.991119
1.00324 1.00245 0.98604
1.00304 1.00119 0.98694
1.00354 0.997528 0.990619
0.999959 0.99488 0.942512
0.995108 0.994771 0.963987
0.995767 0.999015 0.987841
0.998931 0.994795 0.855981
0.994707 0.99486 0.817042
0.997534 1.00268 0.996174
0.997456 1.00192 0.99744
0.997345 1.00309 0.997044
1.0001 1.00377 0.990914
1.0002 1.00442 0.990011
0.999833 1.00494 0.99029
0.999619 1.00317 0.992586
0.999084 0.998964 0.997127
0.999968 1.00495 0.990121
1.0002 1.00401 0.990431
1.00063 1.00438 0.989555
0.998356 1.00057 0.996848
0.999933 1.00432 0.990707
1.00047 1.00437 0.990808
0.99853 1.00423 0.992873
0.999919 1.00472 0.990485
1.00057 1.00465 0.989017
1.00016 1.00412 0.990324
1.00024 1.00499 0.989421
1.00039 1.00403 0.990754
0.999695 1.00492 0.990602
1.00019 1.00482 0.989845
1.00025 1.00409 0.990439
1.00013 1.00427 0.990161
0.999897 1.00246 0.992552
0.999911 1.00242 0.992572
0.999698 0.999344 0.995971
0.999872 1.00248 0.992577
0.999707 0.999341 0.995933
0.99994 0.997368 0.999125
0.999807 0.999324 0.995827
0.999956 0.997375 0.998479
1.00007 0.997202 0.997817
0.999915 1.0005 0.994452
1.00002 1.00073 0.994115
1.00009 0.998245 0.996483
1.00018 1.00058 0.993978
1.00007 0.99838 0.99658
0.999915 0.996981 0.999198
1.00004 0.998796 0.995985
0.999858 0.997426 0.999107
0.999811 0.997752 0.999028
1.00533 0.994898 0.990935
1.00528 0.99491 0.991207
1.00547 0.994904 0.990653
1.00055 0.994836 0.981459
1.00543 0.994876 0.99099
1.00472 0.994963 0.991694
1.00535 0.995485 0.991171
0.99608 0.994893 0.963887
1.00175 0.995017 0.983086
1.00019 1.0016 0.993028
1.0001 1.00207 0.992698
0.999435 1.00383 0.991815
0.99986 1.0025 0.992496
1.00537 0.99486 0.990863
1.00534 0.994856 0.990441
1.00521 0.994853 0.99041
1.00409 1.00355 0.985765
1.00464 0.997079 0.988002
1.00516 0.994903 0.990299
1.0021 1.00314 0.987693
1.00473 1.00486 0.983514
1.00336 1.002 0.986512
0.999846 1.00235 0.992896
1.00117 1.00507 0.98775
1.00037 1.00392 0.990247
0.999984 1.00261 0.992329
1.00047 1.0011 0.993104
1.00537 0.994769 0.990997
0.99985 1.00346 0.991608
1.00159 1.00049 0.991911
0.998132 1.00104 0.995844
1.00526 0.994835 0.990632
1.00519 0.994945 0.990039
1.00309 1.0003 0.989553
1.00472 0.995774 0.990729
1.00108 1.00443 0.989259
1.0009 1.00457 0.988151
1.00141 1.00134 0.991634
1.00257 1.00341 0.98756
1.00424 0.995362 0.991417
1.00516 0.994998 0.990964
1.00509 0.995773 0.989708
1.00352 0.996096 0.993515
0.997707 1.00463 0.993685
1.00133 1.00153 0.990973
0.998021 1.00457 0.993401
0.999152 1.00444 0.991803
0.999995 0.994892 0.928594
0.999871 1.00458 0.991796
1.0027 1.00258 0.987964
1.00426 0.994832 0.991208
1.005 0.995394 0.990577
1.00415 1.00084 0.986425
1.0047 1.0017 0.984586
0.998451 0.996685 0.981838
0.998662 1.00417 0.993358
1.00303 0.995758 0.991003
1.0032 1.00288 0.986012
1.00363 1.00103 0.987063
1.00382 0.997679 0.990392
0.999943 0.994865 0.92915
0.9955 0.994804 0.960582
0.995742 0.999429 0.988102
0.997912 0.99477 0.860772
0.994719 0.994856 0.808666
0.999061 1.00421 0.991941
0.999745 0.994817 0.866895
0.99473 0.994819 0.808642
1.00052 0.99919 0.992582
1.00154 1.00198 0.989502
1.00152 0.999673 0.99251
0.994911 0.997943 0.990855
0.997535 0.99481 0.941648
0.994889 0.994782 0.956546
0.996145 0.994824 0.879866
0.994732 0.994823 0.798207
0.997124 1.00214 0.997599
0.997169 1.00257 0.996938
0.997214 1.00465 0.995949
1.00027 1.00395 0.990506
1.00059 1.00437 0.98956
0.999478 1.00505 0.990189
0.999616 1.00456 0.991101
0.998881 0.999819 0.996324
1.00022 1.00404 0.990325
1.0002 1.00444 0.990631
0.999799 1.00488 0.990265
1.00073 1.00466 0.989162
0.998465 1.004 0.993178
0.999326 1.00418 0.992448
0.997172 1.00502 0.994058
0.999981 1.00505 0.98964
1.0005 1.0047 0.989474
1.0004 1.00499 0.989394
1.00016 1.00354 0.991097
1.00015 1.00498 0.989992
1.00008 1.00318 0.991746
0.99911 1.00226 0.992774
0.998878 1.005 0.991377
0.999398 1.00476 0.990812
0.999804 1.00472 0.990627
1.00012 1.00415 0.990491
1.00005 1.00482 0.989853
1.00026 1.00408 0.990366
0.999988 1.00249 0.992399
1.00019 1.00426 0.990168
0.999923 1.0024 0.992564
0.999897 0.999316 0.996399
0.999873 1.00245 0.992576
0.999749 0.999312 0.996227
0.999893 0.997335 0.997969
0.999695 0.99935 0.995928
0.999933 0.997383 0.999134
0.999943 0.997406 0.997864
1.00029 1.00158 0.992826
0.999924 1.00036 0.994598
0.999916 1.00054 0.994445
1.00005 0.998171 0.996593
1 1.00079 0.99412
1.00009 0.99821 0.996478
0.999963 0.996856 0.999231
1.00007 0.998376 0.996827
0.999916 0.997157 0.998615
0.999879 0.99749 0.997916
1.00007 0.994818 0.981598
1.00545 0.994872 0.990984
1.00465 0.995183 0.991541
0.996313 0.994836 0.964405
1.0019 0.995033 0.983471
1.00529 0.995512 0.991158
1.00344 0.996169 0.986298
0.997433 0.994843 0.966871
0.999945 0.994862 0.941172
0.997268 0.99481 0.881445
0.994665 0.994812 0.815575
0.999664 1.00261 0.992546
1.0002 1.00157 0.993014
1.00021 1.00196 0.992658
0.99976 1.00325 0.992011
0.99891 1.00436 0.992576
1.00052 1.00221 0.991804
1.00023 1.00307 0.991721
1.00014 1.00227 0.992373
1.00539 0.99479 0.99099
1.00528 0.994849 0.990565
1.00518 0.995049 0.990049
1.00303 1.00073 0.989575
1.00457 0.995482 0.990926
1.00117 1.00185 0.991565
1.0039 1.00359 0.986962
1.00205 1.00486 0.98724
1.00146 1.00023 0.992225
1.00125 1.00456 0.988494
1.00039 1.00317 0.991367
0.996711 1.0019 0.998558
1.00425 0.994884 0.991705
0.998098 1.00435 0.993575
1.00101 1.00183 0.9919
1.00487 0.994909 0.990935
1.00471 0.995818 0.990089
1.00279 0.996239 0.993194
0.999516 1.00504 0.991508
1.0002 1.0031 0.992047
1.00338 0.995001 0.990797
1.00376 0.998591 0.990575
1.0045 0.995482 0.991496
1.00082 0.997463 0.994592
0.999209 1.00485 0.991265
0.998569 1.00475 0.992411
0.999325 1.0051 0.992064
0.999789 0.994922 0.869165
1.00018 0.994865 0.943124
0.999798 1.0036 0.993296
1.00338 1.00319 0.985998
1.00292 0.99642 0.990884
1.00409 0.997851 0.99018
1.00413 1.00097 0.987216
0.999988 0.994847 0.94075
0.995799 0.9948 0.960116
0.995742 0.999395 0.988403
0.997407 0.994827 0.879272
0.994739 0.994837 0.799794
0.999345 1.00421 0.991913
0.999814 0.994854 0.865696
0.994697 0.994803 0.801889
1.00058 0.999152 0.992511
1.00157 1.00219 0.98952
1.00139 0.999812 0.992938
0.994904 0.998985 0.991653
0.998211 0.994825 0.935094
0.994954 0.994797 0.957494
0.995566 0.994831 0.879666
0.994748 0.994821 0.796456
0.998203 1.0043 0.994626
0.994724 0.994797 0.798382
0.994744 0.994776 0.805692
0.996949 1.00179 0.996896
0.999886 1.00169 0.995126
0.994906 0.99928 0.988617
0.99507 0.994871 0.959484
0.995176 0.994779 0.930375
0.994752 0.994877 0.884146
0.994831 0.99485 0.804573
0.997267 1.00198 0.996839
0.99775 1.00403 0.995637
0.996529 1.00387 0.996383
1.00026 1.00396 0.990326
1.00082 1.00455 0.989309
0.999872 1.00503 0.990043
0.999836 1.00454 0.990457
0.998055 1.00383 0.993486
1.00049 1.00475 0.989456
0.9994 1.00392 0.992025
1.00024 1.00499 0.989663
0.996775 1.00492 0.994382
0.995974 1.00514 0.996666
0.998582 1.00482 0.992468
1.00057 1.00505 0.98953
1.00056 1.00474 0.989368
1.00001 1.00311 0.991431
1.00005 1.00491 0.989937
1.0002 1.00301 0.991644
0.998853 1.00284 0.993327
0.998868 1.00441 0.991823
0.998423 1.00511 0.991958
0.998564 1.00248 0.99449
1.00029 1.00206 0.992504
1.00303 0.999263 0.990776
0.998988 1.00489 0.991128
0.999127 1.00489 0.991417
0.999467 1.00505 0.990071
0.999493 1.00493 0.990825
1.00011 1.00421 0.990384
0.999704 1.0048 0.990651
1.00013 1.00416 0.990539
1.00002 1.0026 0.992129
1.00028 1.00412 0.990294
0.999973 1.00249 0.992411
1.00003 0.999303 0.996171
0.999928 1.00238 0.992576
0.999878 0.99929 0.996043
1.00001 0.997257 0.99781
0.999742 0.999301 0.995937
0.999951 0.997321 0.999145
0.999928 0.997377 0.999144
1.00037 1.00198 0.992653
0.99996 1.00051 0.994424
1.00018 1.00177 0.992839
1.00005 0.998124 0.996638
0.99991 1.00038 0.994594
0.999907 1.00059 0.994438
1.00006 0.99817 0.996582
0.999992 0.99677 0.999247
1.00007 0.998226 0.996984
0.999973 0.996862 0.998694
0.999932 0.997164 0.998093
0.999738 0.994831 0.853258
0.994702 0.994785 0.797955
0.99638 0.994842 0.964844
1.00152 0.994904 0.983972
1.00526 0.994779 0.991158
0.997158 0.994946 0.966123
1.0035 0.995098 0.986834
1.00044 0.99487 0.937261
0.997849 0.99477 0.861497
0.994707 0.99484 0.807519
0.9978 0.994757 0.972897
0.997933 0.994848 0.94212
0.996491 0.99484 0.879755
0.994765 0.994837 0.805722
0.999952 1.00351 0.991761
0.999814 1.00238 0.992657
1.00013 1.0017 0.993004
0.999886 1.00296 0.992206
0.998709 1.00417 0.99301
1.00032 1.0036 0.990698
1.00019 1.00299 0.991707
1.00061 1.00348 0.990291
1.00019 1.00306 0.991599
0.999954 1.00265 0.992245
1.00406 0.994764 0.991979
1.00473 0.994853 0.990904
1.00426 0.9958 0.990473
1.00227 0.996716 0.992868
1.00064 1.00261 0.992282
0.999504 1.00512 0.989654
1.00035 1.00192 0.99294
0.99833 1.00411 0.993443
1.0024 0.995076 0.991278
0.999286 1.00494 0.991032
0.998276 1.00495 0.992347
1.00343 0.997761 0.990703
1.00417 0.995526 0.991729
1.00097 0.997861 0.994828
0.999117 1.00506 0.991674
1.00017 0.995352 0.989691
1.00114 0.998852 0.993946
0.998127 1.00195 0.995685
0.998684 1.0045 0.990683
0.99823 1.00498 0.99163
0.99869 1.00508 0.992168
0.994719 0.994832 0.821613
0.999786 0.99488 0.874695
1.00001 0.994877 0.929013
0.999258 1.0042 0.991861
1.00184 1.00244 0.989504
1.00063 0.998945 0.992432
1.00114 0.999816 0.99337
0.99982 0.994887 0.878971
0.997761 0.994824 0.929379
0.994858 0.994815 0.956604
0.994903 1.00029 0.992337
0.996419 0.994829 0.864237
0.994669 0.994794 0.807848
0.994788 0.994836 0.811479
0.998099 1.00369 0.99433
0.994711 0.994807 0.808381
0.994766 0.994781 0.805077
0.997113 1.00025 0.997509
0.999387 1.0015 0.995015
0.994893 0.998075 0.990862
0.995333 0.99482 0.958333
0.996177 0.995362 0.94182
0.994708 0.997105 0.866137
0.995056 0.994848 0.814837
0.996889 1.00348 0.997497
0.994774 0.994824 0.813916
0.994813 0.994805 0.802657
0.994944 1.0023 0.999965
0.995161 0.996824 0.967435
0.994826 0.996336 0.94025
0.994993 0.995026 0.859087
0.995579 0.994889 0.824907
0.998225 1.0029 0.995287
0.996894 1.00418 0.996513
0.995565 1.00414 0.998306
1.00035 1.0048 0.989436
1.00038 1.00505 0.989687
0.999519 1.00359 0.991602
0.996612 1.00474 0.994709
1.00014 1.00506 0.989547
0.998504 1.00488 0.992425
0.995686 1.0051 0.996955
0.994998 1.00489 0.998345
0.995878 1.00514 0.996816
0.999232 1.0051 0.991668
1.00008 1.00505 0.989877
1.00025 1.00262 0.991544
0.998459 1.00324 0.993863
0.998475 1.00511 0.99206
0.99922 1.00431 0.991791
0.998283 1.00293 0.99458
0.998471 1.00445 0.992817
0.995884 1.00515 0.996725
1.00188 0.998004 0.994168
0.999805 1.00174 0.993316
1.00157 1.00063 0.991351
1.00486 1.00006 0.987285
1.00214 1.00142 0.990642
1.00191 0.99892 0.992603
0.999546 1.00464 0.990887
0.999714 1.00513 0.989508
0.999446 1.00471 0.991458
0.999865 1.00508 0.990074
1.00022 1.00456 0.98978
0.999913 1.00479 0.990836
1.00035 1.00402 0.99037
1.00012 1.00281 0.991852
1.00032 1.00389 0.990587
1.00012 1.00258 0.992135
1.00016 0.99937 0.995913
1.00003 1.00241 0.992424
1.00002 0.999314 0.995778
1.0001 0.997321 0.997639
0.999886 0.999258 0.995746
1 0.997267 0.998476
0.999963 0.997291 0.999125
1.00028 1.00262 0.991753
1.00011 1.00064 0.994114
1.00025 1.00204 0.992468
1.00005 0.998171 0.996583
0.999978 1.00046 0.994433
1.00017 1.00174 0.992851
1.00002 0.996723 0.999256
1.00004 0.998127 0.996638
0.999911 1.00042 0.994592
1.00007 0.998159 0.996571
0.999992 0.996808 0.999243
0.999958 0.99686 0.999227
0.994693 0.994769 0.800597
0.999736 0.994845 0.865792
0.994754 0.99477 0.802915
0.994717 0.994779 0.797553
0.997358 0.994875 0.964401
1.00339 0.99479 0.987373
0.99979 0.994839 0.932646
0.998963 0.994817 0.881211
0.994753 0.994838 0.799266
0.998404 0.994818 0.971888
0.998292 0.995414 0.927948
0.995705 0.995436 0.878466
0.994727 0.994827 0.798264
0.995054 0.99482 0.964334
0.996143 0.995276 0.928853
0.994861 0.997395 0.85838
0.994831 0.994868 0.804514
1.00067 1.0046 0.990447
0.999589 1.00348 0.991883
1.00001 1.00208 0.992764
0.998352 1.0038 0.993451
1.00098 1.0036 0.989535
1.00022 1.00353 0.990902
0.999716 1.00346 0.991615
1.00114 1.00289 0.99037
1.00069 1.00361 0.99037
1.00026 1.00283 0.991478
1.002 0.994784 0.991745
1.00315 0.997179 0.990836
1.00372 0.995616 0.991965
1.00063 0.997238 0.995077
1.0003 1.00501 0.991263
0.998638 1.0051 0.992295
0.999346 1.00503 0.990795
0.999934 1.00464 0.990392
0.999846 0.995882 0.990243
0.999176 1.00501 0.991351
0.999422 1.00499 0.991993
1.00098 0.99865 0.9945
0.999204 1.00078 0.995489
0.996395 1.00035 0.989153
0.996745 0.999564 1.00022
0.996073 1.00425 0.996343
0.998893 1.00435 0.992329
0.997475 1.0051 0.993888
0.994802 0.994812 0.820215
0.994712 0.994811 0.817366
0.999802 0.994899 0.85687
0.998159 1.00345 0.994096
0.99911 1.00109 0.994902
0.997318 0.99972 0.99812
0.994684 0.994791 0.806643
0.996226 0.995027 0.930192
0.995431 0.99485 0.957741
0.994854 0.996188 0.993452
0.994761 0.996675 0.885221
0.994772 0.994786 0.805221
0.99525 0.99485 0.816245
0.997246 1.00339 0.997442
0.994784 0.994825 0.816693
0.994799 0.994805 0.803655
0.995205 1.00153 0.999045
0.995179 0.99599 0.969294
0.994809 0.995854 0.928465
0.995219 0.994876 0.820614
0.995099 0.998624 0.867685
0.994909 1.00466 1.0002
0.994792 0.994831 0.806621
0.994869 0.994831 0.812838
0.994821 0.994874 0.804706
0.994771 0.998763 0.989805
0.994867 0.997964 0.943436
0.997674 0.996182 0.876839
0.997335 1.00477 0.996668
0.995711 1.0047 0.998066
0.995042 1.00508 0.999171
1.00004 1.00506 0.989565
0.998522 1.00499 0.992379
0.995466 1.00518 0.997237
0.998832 1.0051 0.991662
0.99596 1.00517 0.996819
0.995083 1.00502 0.998273
0.994952 1.00517 0.998493
0.995607 1.00511 0.997062
0.998322 1.0051 0.992183
0.999493 1.00436 0.991757
0.998219 1.00356 0.994687
0.996103 1.00495 0.996605
0.998389 1.0046 0.992792
0.998748 1.00178 0.9953
0.999117 0.998064 0.998076
1.00228 0.999802 0.989857
0.999395 1.00136 0.994064
1.00208 1.00052 0.990965
1.00456 1.00153 0.986003
1.00488 1.00248 0.984315
1.00399 0.998982 0.989729
1.00393 1.00007 0.987634
1.00108 1.00479 0.988656
1.00134 1.00184 0.991039
1.00069 0.998594 0.994402
1.00011 1.00444 0.990647
0.999987 1.00513 0.989498
1.0003 1.0051 0.98902
1.00027 1.00507 0.99008
1.00038 1.00452 0.989779
1.00016 1.0032 0.991301
1.00049 1.00389 0.990355
1.00017 1.0027 0.991845
1.00019 0.999491 0.995739
1.00011 1.00258 0.992142
1.00014 0.999405 0.995511
1.0002 0.997366 0.997454
1.00003 0.999333 0.99545
1.00009 0.997298 0.998354
1.00004 0.997254 0.99906
1.00063 1.00277 0.990908
1.00014 1.00101 0.993379
1.00043 1.00247 0.991749
1.00012 0.998225 0.996419
1.00008 1.00066 0.993954
1.00019 1.00209 0.992286
1.00005 0.996735 0.999241
1.00006 0.998141 0.996594
0.999991 1.00039 0.994441
1.00002 0.996748 0.999254
1.00003 0.998145 0.996639
0.999992 0.996789 0.99924
0.994819 0.994818 0.810381
0.994701 0.994807 0.814031
0.999721 0.994815 0.864618
1.00115 1.00269 0.99041
0.994817 0.994801 0.809137
0.994756 0.994772 0.802872
0.99475 0.994784 0.810976
0.998944 0.994852 0.971136
0.997423 0.994824 0.941438
0.996175 0.994855 0.861744
0.994693 0.994829 0.807821
0.996191 0.994825 0.962082
0.996278 0.996237 0.940398
0.994763 0.996019 0.861888
0.994841 0.994863 0.808165
0.994812 0.994776 0.95628
0.994811 0.994822 0.938117
0.99555 0.999787 0.87127
0.995153 0.994894 0.825169
0.99943 1.00464 0.991056
1.00005 1.00439 0.990435
0.999775 1.0034 0.992006
1.00084 1.00273 0.990697
1.00076 1.00402 0.989763
1.00016 1.00387 0.991104
1.00115 1.00303 0.990317
1.00069 1.00366 0.990442
0.998654 0.997373 0.990641
1.00039 0.998262 0.994977
1.00015 1.00471 0.990095
1.0004 0.999762 0.995303
0.999649 1.00482 0.991823
0.999663 1.00506 0.991076
0.998779 1.00424 0.992297
0.995986 0.999825 0.989715
0.997957 1.00492 0.994007
0.997015 1.00335 0.99662
0.996146 1.00035 1.00031
0.998405 1.00399 0.993707
0.994769 1.00156 0.987019
0.995357 1.00276 0.998754
0.995798 1.0049 0.997295
0.997151 1.00507 0.995392
0.994775 0.994811 0.811938
0.994805 0.994814 0.817539
0.994703 0.994794 0.812992
0.997447 1.00345 0.997361
0.995454 1.00056 0.998102
0.994801 0.994828 0.819276
0.994757 0.996044 0.941295
0.995548 0.996012 0.966476
0.995251 0.997429 0.865973
0.994801 0.994807 0.804423
0.994894 0.994867 0.81631
0.995269 1.00458 0.999907
0.994795 0.994829 0.806753
0.99487 0.994842 0.813322
0.994795 0.999352 0.993548
0.994839 0.994858 0.808281
0.99485 0.996491 0.935616
0.996237 0.997441 0.879031
0.994822 1.00327 0.998315
0.994838 0.99484 0.814346
0.994802 0.994804 0.810536
0.994766 0.994824 0.805686
0.995959 0.99976 0.870094
0.994867 1.00108 0.973687
0.995587 0.997583 0.928565
0.996045 1.00501 0.997838
0.99511 1.00514 0.999164
0.994892 1.00523 0.998354
0.998282 1.00512 0.991654
0.99564 1.0052 0.996828
0.994978 1.00516 0.998216
0.995623 1.00498 0.997006
0.99495 1.00513 0.998508
0.997601 1.00225 0.998006
0.996105 1.00485 0.996468
0.99822 1.00471 0.992792
0.998453 1.00202 0.995926
0.998622 1.00109 0.993716
0.996481 0.998275 1.00177
1.00194 0.999601 0.99116
1.00442 1.00455 0.982269
1.00444 1.0029 0.984205
1.00254 1.00041 0.990518
1.00434 1.00187 0.98548
1.0051 1.00226 0.984035
1.00507 1.00017 0.986419
1.00456 1.00223 0.984635
1.00233 1.00234 0.988774
1.00345 0.999663 0.989491
1.00312 1.0001 0.98801
1.00051 1.00514 0.988415
1.00058 1.00479 0.988871
1.00051 1.00218 0.991422
1.00023 1.0051 0.989487
1.0005 1.00506 0.989047
1.00022 1.00421 0.990245
1.00053 1.00464 0.989779
1.00022 1.00325 0.991286
1.00016 0.999716 0.99481
1.00031 1.00265 0.991839
1.00021 0.999505 0.994976
1.00012 0.997368 0.998895
1.00012 0.999482 0.995161
1.00016 0.997356 0.998215
1.00011 0.99729 0.998979
1.00053 1.00297 0.990843
1.00031 1.00145 0.992697
1.00057 1.00282 0.99107
1.00019 0.998386 0.996158
1.00023 1.00097 0.9933
1.00048 1.00245 0.99174
1.00008 0.996731 0.999203
1.00013 0.998199 0.996434
1.00009 1.00065 0.993795
1.00005 0.996722 0.999247
1.00007 0.998108 0.996606
1.00001 0.996787 0.999252
0.994797 0.994829 0.814405
0.994815 0.994817 0.810715
0.994694 0.994822 0.813772
1.00109 1.00268 0.990566
1.00052 1.00331 0.990318
1.0013 1.00171 0.991448
0.994873 0.994838 0.811875
0.994817 0.994796 0.809982
0.994756 0.994759 0.80294
0.996904 0.994802 0.962402
0.995367 0.994757 0.928459
0.994801 0.997332 0.88366
0.994834 0.994847 0.802497
0.995004 0.99492 0.95835
0.994875 0.996969 0.934081
0.995549 0.997451 0.867976
0.995165 0.994885 0.820588
0.995456 0.995066 0.955709
0.994832 0.997109 0.938487
0.996555 0.996028 0.87844
0.99484 0.994852 0.805778
0.999603 1.00256 0.992661
1.00012 1.00387 0.990859
1.00011 1.00403 0.990421
1.00099 1.00263 0.990635
1.00041 1.00432 0.989992
1.00111 1.00322 0.990264
0.996026 0.998585 0.990457
0.996043 1.00129 1.00055
0.999301 1.00349 0.992264
0.998318 1.00256 0.996802
0.998328 1.00453 0.994119
0.997788 1.0038 0.994293
0.996666 1.0047 0.995691
0.994766 1.00216 0.986891
0.995497 1.00516 0.997657
0.995277 1.00348 0.998104
0.996721 1.00499 0.995553
0.995078 1.00174 0.985067
0.995327 1.00525 0.995088
0.99492 1.00411 0.998856
0.994853 0.994837 0.811013
0.99478 0.99482 0.811089
0.994807 0.994812 0.814909
0.995674 1.00396 0.999576
0.994821 0.999552 0.989305
0.994792 0.994827 0.806896
0.994831 0.997558 0.935173
0.996763 0.99619 0.863808
0.994871 0.994843 0.813783
0.99483 0.994846 0.802864
0.9948 1.00314 0.9988
0.994828 0.99484 0.814356
0.99482 0.994803 0.811447
0.994875 1.00007 0.971153
0.994718 0.994823 0.798664
0.995731 0.998982 0.865983
0.994883 0.995664 0.942302
0.994875 1.00519 0.989953
0.994789 0.994835 0.814913
0.994772 0.994784 0.804327
0.994677 0.994822 0.817064
0.994812 0.997363 0.857351
0.994861 0.99814 0.937747
0.994867 1.00127 0.965493
0.995115 1.00512 0.999117
0.994917 1.00523 0.998275
0.995988 1.0043 0.997375
0.995864 1.00474 0.996956
0.994945 1.00508 0.998548
0.99624 1.00389 0.997952
0.999155 0.999325 0.998219
0.998102 1.00236 0.996536
1.00108 1.0008 0.992722
1.00219 1.00501 0.985859
1.00139 0.999414 0.992759
1.0043 1.00425 0.98324
1.00427 1.00454 0.982398
1.005 1.00128 0.98447
1.00504 1.00175 0.984476
1.00443 1.00299 0.984042
1.00439 1.00215 0.984975
1.00511 1.00161 0.984643
1.00511 1.00214 0.984128
1.00433 1.00035 0.987412
1.00469 1.00025 0.986728
1.00419 1.00198 0.984956
1.00103 1.00482 0.987953
1.00221 1.00269 0.988703
1.00287 1.00044 0.989244
1.00049 1.00483 0.989199
1.00086 1.00512 0.988423
1.00027 1.0048 0.989087
1.00075 1.00504 0.989074
1.00039 1.00401 0.990255
1.00008 1.00036 0.994265
1.00036 1.00313 0.991271
1.00018 0.999761 0.994784
1.00014 0.997516 0.998854
1.00023 0.999506 0.994977
1.00019 0.9974 0.998135
1.00015 0.997375 0.998908
1.00085 1.00327 0.99043
1.00044 1.00175 0.992401
1.0007 1.00277 0.990903
1.00027 0.998625 0.995782
1.00031 1.00145 0.992783
1.00057 1.0028 0.991237
1.00012 0.996801 0.999144
1.0002 0.998328 0.996177
1.00028 1.00093 0.993222
1.00008 0.996746 0.999215
1.00013 0.998173 0.996449
1.00005 0.996742 0.999254
0.994834 0.994838 0.813253
0.994799 0.994844 0.814561
0.994813 0.994825 0.811074
0.999872 1.00501 0.989711
1.00099 1.00416 0.990451
1.00091 1.00276 0.99073
1.00046 1.00373 0.99021
1.00068 1.00187 0.9917
1.00026 1.00298 0.991309
0.999849 1.0016 0.993219
0.99483 0.994813 0.803484
0.994882 0.994847 0.812452
0.99481 0.994825 0.810844
0.994895 0.994878 0.816048
0.99535 0.995147 0.956493
0.99483 0.997822 0.928739
0.995636 0.994907 0.882009
0.995096 0.995234 0.955044
0.994858 0.998265 0.925573
0.995715 0.997444 0.879582
0.994909 0.994851 0.815889
0.995769 0.996408 0.959377
0.994942 0.998396 0.927562
0.994893 0.995471 0.859862
0.994742 0.994822 0.799318
0.997344 1.00459 0.994712
0.999296 1.00314 0.993052
1.00021 1.00404 0.990664
1.00102 1.00287 0.990581
0.994816 1.00181 0.986845
0.995319 1.00396 0.997339
0.99734 1.00469 0.994878
0.996774 1.00462 0.995999
0.99533 1.00515 0.998118
0.996442 1.00499 0.995689
0.995374 1.00422 0.998895
0.995516 1.0013 0.981812
0.995213 1.00524 0.99527
0.995742 1.00404 0.997698
0.995104 1.00397 0.979367
0.995246 1.00304 0.999075
0.994774 0.994819 0.812716
0.994843 0.994837 0.814421
0.994787 0.994836 0.810217
0.994787 1.00319 0.999272
0.994867 1.00035 0.974443
0.994818 0.994838 0.814412
0.994986 0.9977 0.929687
0.996431 0.995638 0.880412
0.994827 0.994825 0.812254
0.994686 0.99483 0.807932
0.994887 1.00483 0.990872
0.994806 0.994836 0.815095
0.994758 0.994783 0.804342
0.994861 0.999861 0.965537
0.994716 0.994831 0.809052
0.994737 0.997004 0.860187
0.994857 0.998365 0.925553
0.994881 1.00463 0.984837
0.994833 0.994815 0.810554
0.994692 0.994788 0.799597
0.996152 0.994828 0.881422
0.994765 0.996177 0.937626
0.994789 0.999977 0.959035
0.994933 1.00529 0.998598
0.995456 1.00455 0.997461
0.996639 1.00062 0.998571
0.995194 1.0051 0.997889
0.997252 1.00107 0.998593
1.00188 1.00062 0.992494
1.0036 1.00036 0.991737
1.0031 1.00504 0.985109
1.00413 1.00301 0.983898
1.00393 1.00399 0.98421
1.0044 1.00452 0.982349
1.0045 1.00355 0.983331
1.00524 0.999331 0.985939
1.00512 1.00068 0.985311
1.00504 1.00145 0.98441
1.00511 1.00156 0.984579
1.00502 1.0016 0.984483
1.00436 1.00312 0.983878
1.00512 1.00139 0.985112
1.00508 1.00184 0.984525
1.00512 1.00203 0.984226
1.00295 1.00289 0.987395
1.00368 1.00082 0.987878
1.00435 1.00028 0.987041
1.00071 1.00507 0.988211
1.00142 1.00459 0.98801
1.00185 1.00313 0.988631
1.0002 1.00096 0.993474
1.00063 1.00467 0.989217
1.00113 1.0051 0.988429
1.00049 1.00391 0.990264
1.0001 1.00042 0.994231
1.0001 0.997766 0.99877
1.00019 0.999806 0.99476
1.00014 0.997506 0.998839
1.00017 0.997354 0.998873
1.00016 1.00509 0.989907
1.00073 1.00468 0.989465
1.00064 1.00222 0.991621
1.00063 1.00347 0.990405
1.00027 0.998998 0.99539
1.00044 1.00177 0.992395
1.00072 1.00275 0.990965
1.00014 0.996963 0.999051
1.00026 0.998618 0.995803
1.00032 1.00146 0.992866
1.00011 0.996792 0.999162
1.00021 0.998297 0.996199
1.00008 0.996731 0.999228
0.9948 0.994836 0.807242
0.99482 0.994833 0.813293
0.994807 0.994835 0.814713
1.00016 1.00506 0.989699
1.00015 1.00354 0.990659
1.00073 1.00291 0.989135
0.999111 1.0044 0.990653
1.00125 1.00323 0.99091
1.00064 1.00405 0.990101
1.00047 1.00203 0.991951
1.00028 1.00327 0.991337
1.00023 1.0015 0.993316
0.998914 1.00394 0.993395
0.994755 0.994773 0.806182
0.994812 0.994813 0.80456
0.994883 0.994838 0.812964
0.995144 0.994852 0.817217
0.99553 0.996036 0.86497
0.99487 0.995085 0.954047
0.994816 0.997094 0.937879
0.995406 0.996208 0.955529
0.994859 0.996075 0.939625
0.995038 0.99867 0.868626
0.994758 0.994824 0.797613
0.994915 0.998175 0.958617
0.994844 0.999847 0.939162
0.994791 0.995586 0.884312
0.994712 0.994867 0.818622
0.998597 1.00129 0.996247
0.996987 1.00439 0.995177
0.999291 1.00295 0.993462
0.99544 1.00223 0.978277
0.995025 1.00522 0.995332
0.996241 1.00491 0.995816
0.994903 1.00452 0.99893
0.996023 1.00396 0.997668
0.99514 1.00234 0.999471
0.994894 1.00228 0.978946
0.996096 1.00098 1.00022
0.995516 1.00022 0.9857
0.99481 0.99482 0.819379
0.994791 0.99483 0.811875
0.994832 0.994834 0.817892
0.994917 1.00447 0.991152
0.994836 0.999839 0.963182
0.994823 0.994842 0.815273
0.994836 0.998736 0.937507
0.994777 0.997258 0.881085
0.994747 0.994762 0.804561
0.994746 0.994841 0.800782
0.995341 1.00481 0.985548
0.994816 0.99482 0.810764
0.994714 0.994791 0.79924
0.995024 0.998855 0.960114
0.995525 0.994922 0.879391
0.994812 0.997222 0.93198
0.995229 1.00246 0.982605
0.994697 0.994777 0.801469
0.997529 0.994819 0.882515
0.995924 0.995224 0.929165
0.994846 0.996058 0.960981
0.995626 1.00508 0.997566
0.996117 1.00219 0.998462
0.998861 1.00185 0.995809
0.995631 1.00338 0.998978
1.0006 1.00076 0.993573
1.00406 0.998423 0.989906
1.00393 1.00502 0.984344
1.00394 1.00326 0.983792
1.0045 1.00001 0.986254
1.00464 1.00455 0.982301
1.00458 1.00305 0.983424
1.00501 0.99942 0.986362
1.00532 0.99676 0.988268
1.00525 0.998852 0.986312
1.00525 0.999256 0.986009
1.00517 1.0006 0.985476
1.00513 1.00071 0.985232
1.00506 1.00157 0.984348
1.0052 1.00201 0.98431
1.00508 1.00147 0.984585
1.00499 1.00148 0.984488
1.00456 1.00158 0.985981
1.00462 1.00177 0.985312
1.00505 1.0021 0.984407
1.00147 1.00462 0.987181
1.0027 1.00296 0.987374
1.00321 1.00116 0.98834
1.00019 1.00201 0.99352
1.00102 1.005 0.988232
1.00177 1.0043 0.988068
1.00016 0.998373 0.996468
1.0002 1.00116 0.993847
1.00078 1.00453 0.989235
1.00013 1.00051 0.994194
1.00012 0.997866 0.99871
1.00015 0.997529 0.998821
1.001 1.00451 0.988935
1.00101 1.00511 0.988754
0.99957 1.0051 0.98985
1.00052 1.00343 0.99064
1.00061 1.00455 0.989438
1.00023 0.999432 0.995026
1.00053 1.00238 0.991643
1.00061 1.00358 0.990375
1.00013 0.997243 0.998965
1.00028 0.998964 0.995409
1.00043 1.00179 0.992389
1.00013 0.996962 0.999081
1.00025 0.998589 0.995823
1.00011 0.996788 0.999181
0.994782 0.994821 0.820312
0.994806 0.994836 0.807406
0.994808 0.994849 0.813337
1.00257 1.0013 0.988376
0.999828 1.00504 0.989684
0.999883 1.00357 0.990895
1.00009 1.00508 0.990297
1.00172 1.00247 0.989262
1.00049 1.0032 0.992054
1.00335 1.00256 0.986942
0.997563 1.00494 0.992704
1.00005 1.00343 0.99136
1.00003 1.0009 0.993411
0.998259 1.00379 0.993337
0.998334 1.00404 0.993866
0.99473 0.994814 0.809195
0.994771 0.994778 0.805613
0.994813 0.994812 0.805426
0.994797 0.994973 0.812358
0.994934 0.997963 0.867159
0.994845 0.998399 0.927729
0.995212 0.995018 0.955406
0.994965 0.998534 0.958413
0.994731 0.994952 0.810022
0.994863 0.996513 0.930891
0.994739 0.997334 0.866518
0.994877 0.996397 0.963585
0.994814 0.997815 0.940739
0.995632 0.99485 0.881453
1.00001 0.994819 1.00048
0.998491 1.0013 0.996151
0.99674 1.00426 0.995613
0.99491 1.00187 0.978777
0.995259 1.00139 0.999826
0.996532 1.00391 0.997656
0.997092 1.00027 1.00049
0.995151 0.999135 0.985838
0.996157 0.99847 0.992293
0.99471 0.994827 0.81632
0.994807 0.994813 0.820446
0.994803 0.994831 0.810926
0.994986 1.00451 0.985784
0.994846 0.999964 0.959661
0.994799 0.994827 0.811182
0.994832 0.997802 0.926725
0.995935 0.994837 0.863216
0.994756 0.99481 0.812277
0.994815 1.00485 0.982492
0.994705 0.994819 0.814627
0.997646 0.994763 0.862506
0.994865 0.995727 0.956762
0.996054 0.99601 0.940825
0.994887 1.00199 0.989512
0.999788 0.994853 0.853402
0.997727 0.994827 0.94282
0.994848 0.994817 0.95569
0.995269 1.00341 0.998372
0.998176 1.00153 0.995636
1.001 1.00183 0.992194
0.999634 1.00063 0.994649
1.00337 0.999013 0.989688
1.00457 0.998682 0.988376
1.00385 1.00352 0.983682
1.00442 1.00017 0.986153
1.00507 0.996479 0.988678
1.00463 1.00247 0.983521
1.00494 0.999276 0.986333
1.00533 0.995754 0.989306
1.00528 0.995446 0.990085
1.00529 0.996926 0.98826
1.00533 0.996714 0.988375
1.00526 0.998766 0.986479
1.00524 0.998834 0.986499
1.00523 0.999206 0.98608
1.00526 1.00108 0.984725
1.00518 1.0005 0.985429
1.00513 1.00071 0.985151
1.00518 1.00168 0.984532
1.00509 1.00197 0.984354
1.00505 1.00136 0.984591
1.00286 1.0034 0.986526
1.00424 1.00194 0.985893
1.00405 1.00216 0.985514
1.00042 1.00266 0.991372
1.00194 1.00457 0.987195
1.00251 1.00322 0.987349
0.999869 0.999326 0.998301
1.00029 1.00196 0.992358
1.00128 1.00491 0.988253
1.00014 0.998311 0.998497
1.00021 1.00123 0.993321
1.00014 0.997923 0.998641
1.00345 1.00252 0.987681
1.00111 1.00431 0.988799
1.00127 1.00498 0.988347
1.00066 1.00426 0.989637
1.00071 1.00513 0.988732
0.999798 1.00516 0.989799
1.00012 1.0002 0.994495
1.00049 1.00341 0.990653
1.00049 1.0044 0.989409
1.00011 0.997442 0.998881
1.00022 0.999406 0.995045
1.00042 1.0025 0.991662
1.00012 0.997183 0.998989
1.00028 0.998934 0.995425
1.00012 0.996914 0.99911
0.994725 0.994794 0.800761
0.994801 0.994823 0.820661
0.99481 0.994835 0.807603
1.00244 1.00217 0.988242
1.00482 1.0019 0.986413
1.0024 1.00313 0.987545
0.999836 1.00504 0.989937
1.00303 1.00211 0.989389
0.998975 1.00225 0.993156
0.998668 1.00448 0.992168
1.00216 1.00308 0.988023
1.00214 1.00173 0.989856
0.998874 0.99965 0.996406
0.999058 1.00382 0.993262
0.998642 1.00429 0.993712
0.998519 0.994802 0.855884
0.994701 0.994802 0.802738
0.994778 0.994782 0.805769
0.994752 0.994844 0.800898
0.994803 0.997144 0.885391
0.994847 0.997061 0.926585
0.994847 0.996941 0.956922
0.994867 0.996722 0.961295
0.995862 0.996034 0.879531
0.994837 0.996283 0.928326
0.994861 0.997371 0.964696
0.99569 0.994772 0.929266
0.999597 0.995358 1.00255
0.99966 0.995852 1.00046
0.99828 1.00117 0.996137
0.994856 0.998885 0.98614
0.997656 0.999555 1.00076
0.996577 0.998677 0.991882
0.996151 0.996649 0.990268
0.999792 0.994934 0.868056
0.994701 0.994814 0.813511
0.994813 0.994815 0.821316
0.994799 1.00496 0.982858
0.994851 0.994879 0.954931
0.994699 0.994829 0.814206
0.995284 0.99476 0.929789
0.998643 0.99482 0.882484
0.994902 0.999972 0.986159
0.999755 0.994856 0.866041
0.997966 0.994902 0.929012
0.994842 0.99479 0.957061
0.996485 0.998327 0.987278
0.999962 0.994888 0.941757
0.995121 0.994815 0.962882
0.997166 1.00096 0.995459
1.00008 1.00078 0.992204
1.00356 0.999519 0.990892
1.00249 0.999991 0.989489
1.00427 0.998598 0.988319
1.00518 0.996215 0.989234
1.00439 1.00037 0.986058
1.00493 0.996993 0.988624
1.00529 0.994894 0.990096
1.0049 0.999156 0.986302
1.00533 0.995779 0.989253
1.00527 0.994907 0.990537
1.00529 0.995061 0.99057
1.00528 0.995415 0.990205
1.00524 0.995759 0.990049
1.00529 0.997304 0.988239
1.0053 0.996972 0.988398
1.00535 0.996653 0.988485
1.00529 0.999629 0.986014
1.00526 0.998817 0.986428
1.00524 0.998792 0.986685
1.0053 1.00172 0.984156
1.00528 1.00109 0.984753
1.00518 1.00044 0.98538
1.00361 1.00278 0.985917
1.00513 1.00174 0.984542
1.00492 1.00196 0.9844
1.00088 1.00306 0.990265
1.00289 1.00344 0.986489
1.00405 1.002 0.985808
1.00012 0.999568 0.997991
1.00058 1.00255 0.991354
1.00227 1.00447 0.987209
1.00006 0.999215 0.997111
1.00046 1.00182 0.992375
1.00015 0.998569 0.998367
1.00454 1.00084 0.987097
1.00266 1.0025 0.98774
1.0014 1.00451 0.987881
1.00104 1.00427 0.988655
1.0009 1.00505 0.988389
1.00099 1.00478 0.98878
1.00016 1.00098 0.993672
1.00058 1.0044 0.989614
1.00017 1.00513 0.988712
1.00008 0.997856 0.998718
1.00012 1.00007 0.994522
1.00051 1.00345 0.990667
1.00009 0.997471 0.998907
1.0002 0.999377 0.995074
1.00012 0.997165 0.999014
0.999705 0.994817 0.866241
0.99471 0.994802 0.806649
0.994811 0.994822 0.821054
1.00213 1.00243 0.988112
1.00269 1.00353 0.986673
1.00445 1.00238 0.98637
1.0049 1.00347 0.983558
1.00218 1.00302 0.988173
0.999483 1.00479 0.991682
1.00183 1.00351 0.989096
1.00151 1.00175 0.990511
1.00454 0.996594 0.989582
1.00213 0.998619 0.993482
1.00208 0.996471 0.995079
1.00022 0.998867 0.99609
0.999776 1.00264 0.993557
0.997567 0.994846 0.93931
0.998539 0.99477 0.86049
0.994674 0.994797 0.808475
0.996029 0.994846 0.865163
0.994819 0.997568 0.938422
0.994883 0.995868 0.96268
0.99486 0.996707 0.966357
0.996454 0.996754 0.941657
0.995739 0.994792 0.96528
0.998889 0.996869 1.0004
0.998802 0.996025 1.00261
0.999304 0.997032 1.00037
0.997071 0.997992 0.991588
0.997235 0.99708 0.990404
0.999985 0.994895 0.928431
0.999793 0.994887 0.874013
0.994687 0.994796 0.810824
0.994914 0.999192 0.982475
0.995119 0.994778 0.956041
0.999778 0.994814 0.865068
0.997602 0.994812 0.942175
0.996246 0.998087 0.987519
1.00008 0.994868 0.937415
0.99581 0.994828 0.960755
1.0004 0.994976 0.986768
0.997957 0.994795 0.97108
0.999277 0.99923 0.992247
1.00269 0.997982 0.990926
1.0051 0.99512 0.99129
1.00415 0.998289 0.98825
1.00513 0.996031 0.989147
1.00529 0.994823 0.990387
1.00469 0.997438 0.988571
1.00529 0.994955 0.990047
1.00527 0.994815 0.990513
1.00532 0.99579 0.989199
1.00526 0.994935 0.990509
1.0053 0.99484 0.990636
1.00528 0.995015 0.990626
1.00527 0.995212 0.990568
1.00528 0.995379 0.990325
1.00524 0.995742 0.990052
1.00522 0.996259 0.989547
1.00529 0.998375 0.987404
1.00529 0.997366 0.988224
1.00529 0.997019 0.988536
1.00535 1.0012 0.984556
1.0053 0.999727 0.985867
1.00527 0.998871 0.986378
1.00445 1.00208 0.985249
1.00527 1.00173 0.984215
1.00529 1.00111 0.984781
1.00134 1.00318 0.989206
1.00341 1.00306 0.985928
1.0049 1.00197 0.98455
1.00026 1.00034 0.997566
1.00099 1.00289 0.990253
1.00309 1.00352 0.986453
1.00019 0.999774 0.997835
1.00071 1.00242 0.991336
1.00019 0.999166 0.998076
1.00518 1.00283 0.984061
1.00417 1.00077 0.987038
1.00292 1.00274 0.986998
1.00215 1.00247 0.987813
1.00148 1.00445 0.987721
1.0013 1.00502 0.987935
1.00065 1.0051 0.988427
1.00073 1.00492 0.988745
1.00026 1.00175 0.992707
1.00006 0.998403 0.998456
1.0001 1.00093 0.993695
1.00041 1.00449 0.989592
1.00006 0.997758 0.998779
1.00014 0.999968 0.994532
1.00008 0.997419 0.998932
0.999964 0.994886 0.942306
0.999813 0.994853 0.865346
0.994687 0.99479 0.800655
1.00235 1.00466 0.985795
1.00371 1.00272 0.986328
1.00328 1.00295 0.987477
1.00446 1.0033 0.983927
1.00518 1.00068 0.985024
1.00364 1.00006 0.987195
1.00068 1.00224 0.991131
1.00453 0.995837 0.990049
1.0021 0.998316 0.993518
1.00432 0.995334 0.99062
1.00358 0.99738 0.992578
1.00222 0.997298 0.993701
1.00167 0.996745 0.994916
0.999721 0.999592 0.995786
0.99563 0.9948 0.963592
0.998498 0.995788 0.934658
0.9974 0.994828 0.878149
0.995654 0.995666 0.929025
0.994891 0.996731 0.966726
0.995538 0.995701 0.970993
0.999263 0.994808 0.991938
0.999756 0.996159 0.999773
0.998065 0.996614 1.00269
0.998678 0.998889 0.990586
0.997359 0.994926 0.965441
1.00003 0.994875 0.942825
0.999807 0.99491 0.856096
0.995897 0.998127 0.987881
0.996291 0.994829 0.961023
0.999763 0.994833 0.932611
0.999726 0.995919 0.987184
0.998303 0.994834 0.970152
1.00293 0.995579 0.989162
1.00356 0.995964 0.984674
1.00167 0.996968 0.990948
1.00459 0.995107 0.991313
1.00527 0.99484 0.990725
1.00507 0.995978 0.98906
1.00529 0.99482 0.990336
1.00531 0.994901 0.990474
1.00529 0.995037 0.989995
1.00527 0.994829 0.990495
1.00532 0.994895 0.9905
1.00525 0.994969 0.990481
1.00529 0.994856 0.990645
1.00531 0.994895 0.990635
1.00527 0.994974 0.990681
1.00527 0.995172 0.990577
1.00524 0.995602 0.990335
1.00524 0.99573 0.990055
1.00522 0.996271 0.989548
1.00526 0.997566 0.988355
1.0053 1.00018 0.985654
1.00529 0.998565 0.98715
1.00529 0.997429 0.988208
1.00526 1.00109 0.984911
1.00533 1.00123 0.984606
1.00531 0.99983 0.985722
1.00209 1.00277 0.988379
1.00424 1.00234 0.985265
1.00524 1.00175 0.984272
1.00068 1.00084 0.997114
1.00144 1.00309 0.989192
1.00323 1.00333 0.985938
1.00048 1.00048 0.997388
1.00104 1.00276 0.990249
1.00035 0.999987 0.997654
1.00525 1.00148 0.984592
1.00517 1.00234 0.98418
1.00461 1.0021 0.985012
1.00414 1.00131 0.986979
1.00301 1.00281 0.986786
1.00236 1.004 0.987009
1.00149 1.00441 0.987565
1.00114 1.00502 0.987949
1.00051 1.00243 0.991697
1.00046 1.00512 0.988716
1.00014 1.00192 0.992726
1.00004 0.999232 0.998145
1.00003 0.998347 0.998553
1.00006 1.00096 0.993724
1.00005 0.997737 0.998832
0.996593 0.994885 0.965863
0.999906 0.994879 0.927929
0.999819 0.994884 0.878388
1.00528 0.998491 0.986853
1.00453 1.00286 0.986801
1.00406 1.00308 0.984294
1.00429 0.999846 0.98767
1.00518 1.00089 0.984985
1.00501 0.99716 0.988587
1.0049 0.996541 0.990525
1.00188 0.997531 0.993569
1.00474 0.995945 0.990652
1.00328 0.997803 0.991632
1.00454 0.996749 0.98974
1.00328 0.994893 0.994285
1.00219 0.996838 0.993825
1.00159 0.996951 0.994743
0.998646 0.994777 0.990552
0.99575 0.994809 0.962048
0.99828 0.994812 0.929027
0.995245 0.996194 0.970716
0.99888 0.994827 0.994665
1.00001 0.995435 0.999089
1.00228 0.994878 0.981424
0.997372 0.994881 0.965138
0.999997 0.994882 0.928567
0.99873 0.996206 0.987595
0.998579 0.994849 0.969519
1.00206 0.995118 0.989696
1.00325 0.995463 0.985504
1.00387 0.995512 0.990603
1.00527 0.996172 0.99074
1.0041 0.995006 0.99133
1.00524 0.994857 0.990648
1.00538 0.99491 0.990326
1.00529 0.994816 0.990286
1.0053 0.994886 0.990485
1.00536 0.994893 0.990429
1.00528 0.994844 0.990477
1.00531 0.994885 0.990515
1.00532 0.994907 0.990629
1.00528 0.994871 0.990655
1.00531 0.994895 0.990628
1.00528 0.994996 0.990761
1.00526 0.995133 0.990586
1.00524 0.995474 0.990412
1.00526 0.996594 0.989407
1.00523 0.996278 0.989549
1.00526 0.997462 0.988459
1.00529 0.999729 0.986288
1.0053 1.00092 0.985031
1.00532 1.00036 0.985472
1.0053 0.998753 0.986896
1.00293 1.00143 0.988388
1.00511 1.00126 0.984906
1.00531 1.00125 0.984656
1.00108 1.00104 0.996727
1.00231 1.00249 0.988356
1.00404 1.00255 0.985288
1.00082 1.0009 0.996963
1.00161 1.00299 0.989186
1.00062 1.00059 0.997234
1.00525 1.00004 0.985634
1.00524 1.00149 0.98451
1.00516 1.00149 0.98466
1.00517 1.00181 0.9843
1.00485 1.00189 0.984913
1.00319 1.0033 0.986462
1.00324 1.00249 0.986574
1.00229 1.00412 0.987026
1.00077 1.00284 0.990682
1.00103 1.00508 0.987949
1.00032 1.00256 0.991723
1.00006 0.999956 0.997801
0.999986 1.00199 0.992745
0.999995 0.999039 0.998261
1.00001 0.99818 0.998642
1.00014 0.995218 0.986375
0.996505 0.99489 0.961983
0.99998 0.994862 0.942079
1.00525 0.996689 0.988745
1.00525 0.996436 0.989064
1.00527 0.998202 0.987131
1.0049 0.999213 0.988139
1.00517 1.00117 0.984951
1.00511 0.997105 0.988819
1.00526 0.995372 0.98959
1.00497 0.995727 0.990686
1.00302 0.998249 0.990693
1.00437 0.997067 0.990194
1.00515 0.99494 0.990816
1.00372 0.994781 0.993052
1.00292 0.994927 0.993982
1.00247 0.996411 0.993961
0.99932 0.99477 0.990598
0.99587 0.994818 0.960754
0.998891 0.994926 0.997529
1.005 0.994904 0.990448
1.00222 0.994989 0.981562
0.997549 0.994871 0.96385
1.00174 0.994792 0.990176
1.00296 0.994815 0.986349
1.00393 0.995228 0.991273
1.00526 0.995422 0.990832
1.00543 0.99482 0.990842
1.00552 0.994845 0.991076
1.00528 0.994873 0.990571
1.0054 0.994906 0.990307
1.00537 0.994894 0.990547
1.00528 0.994869 0.990495
1.00536 0.994893 0.990455
1.00533 0.994911 0.990638
1.0053 0.994876 0.99053
1.00532 0.994907 0.990625
1.00527 0.994908 0.990887
1.00531 0.994894 0.99062
1.00528 0.994985 0.990735
1.00526 0.995823 0.990114
1.00525 0.995341 0.990487
1.00527 0.99654 0.989425
1.00531 0.999096 0.986898
1.00525 0.997358 0.988562
1.00529 0.999617 0.986419
1.00528 1.00066 0.98533
1.00309 1.00063 0.988846
1.00527 1.00093 0.985045
1.00533 1.00054 0.98529
1.00144 1.00092 0.996505
1.00294 1.0014 0.988375
1.00492 1.0015 0.984899
1.00123 1.00108 0.996593
1.00247 1.00231 0.988321
1.001 1.00101 0.996786
1.00525 0.998139 0.987503
1.00525 0.999882 0.985841
1.00528 1.00104 0.984958
1.00523 1.00145 0.98442
1.00522 1.00149 0.984618
1.00373 1.00255 0.986156
1.00512 1.00174 0.984817
1.0032 1.00293 0.986451
1.00114 1.0032 0.989636
1.00211 1.00408 0.987052
1.00071 1.00297 0.990699
1.00022 1.00077 0.99743
1.00019 1.00272 0.991746
0.999997 0.999834 0.997935
0.999941 0.998917 0.998369
1.00426 0.995194 0.991886
1.00017 0.995103 0.984134
0.996498 0.994915 0.96171
1.00528 0.995543 0.989912
1.00525 0.996233 0.989095
1.00524 0.995439 0.990225
1.00525 0.996512 0.989026
1.00527 0.997873 0.987404
1.00536 0.994861 0.990219
1.00514 0.997262 0.989042
1.00526 0.995625 0.989598
1.00532 0.994789 0.990582
1.00424 0.997407 0.990645
1.00515 0.995023 0.990494
1.00333 0.994947 0.993317
1.00225 0.995395 0.993686
0.999681 0.994767 0.990411
1.00553 0.994861 0.990829
1.00506 0.995273 0.990411
1.00198 0.99527 0.981791
1.00387 0.994806 0.991935
1.00522 0.994812 0.990936
1.0054 0.99483 0.990872
1.00556 0.994853 0.991026
1.0054 0.994865 0.99101
1.00542 0.994903 0.990291
1.00536 0.994895 0.990561
1.00531 0.994905 0.990852
1.00536 0.994893 0.990481
1.00533 0.994911 0.990631
1.00526 0.994921 0.990957
1.00533 0.994908 0.990621
1.00528 0.994909 0.990869
1.00528 0.995265 0.990753
1.00529 0.994975 0.99071
1.00527 0.995853 0.990094
1.00533 0.998394 0.987647
1.00527 0.996485 0.989443
1.0053 0.9991 0.986921
1.00528 1.00047 0.985566
1.00529 0.999505 0.986551
1.00529 1.00065 0.985348
1.0031 1.00033 0.990904
1.00177 1.00018 0.993172
1.00312 1.00066 0.989704
1.00525 1.00094 0.985056
1.00143 1.00089 0.996549
1.00302 1.00122 0.988361
1.00129 1.00115 0.996521
1.00521 0.995321 0.990574
1.00524 0.996817 0.989023
1.00524 0.998109 0.98771
1.00527 1.0003 0.98566
1.00525 0.999738 0.986048
1.00527 1.00109 0.984882
1.00451 1.00144 0.985637
1.00526 1.00148 0.984575
1.00391 1.00204 0.986128
1.00197 1.00287 0.988638
1.00336 1.00257 0.986439
1.00111 1.00327 0.989623
1.00057 1.00132 0.99697
1.00059 1.00304 0.990723
1.0001 1.00052 0.997577
0.999925 0.999662 0.998059
1.00548 0.994803 0.990812
1.00421 0.995076 0.991523
1.00055 0.99489 0.981962
1.00528 0.994923 0.990575
1.00525 0.995574 0.989806
1.00524 0.995804 0.989448
1.00524 0.995598 0.990175
1.00524 0.996595 0.988987
1.00538 0.994834 0.990573
1.00535 0.994863 0.990202
1.00527 0.995804 0.989604
1.00528 0.994788 0.990626
1.00513 0.995082 0.990172
1.00314 0.994691 0.993578
1.00533 0.994893 0.991135
1.00553 0.994846 0.990884
1.00517 0.995403 0.990369
1.00537 0.99484 0.99088
1.00559 0.994871 0.990979
1.00541 0.994866 0.990959
1.00531 0.994914 0.991148
1.00536 0.994898 0.990576
1.00532 0.994906 0.990813
1.00527 0.994936 0.991062
1.00533 0.994911 0.990624
1.00526 0.99492 0.990957
1.0053 0.994972 0.991086
1.00529 0.994909 0.990852
1.00526 0.995278 0.990733
1.00535 0.997719 0.988348
1.00528 0.995882 0.990072
1.00532 0.998405 0.987667
1.00528 1.00026 0.985796
1.0053 0.999103 0.986944
1.00529 1.00044 0.985593
1.00317 1.00013 0.990993
1.0053 1.00063 0.985365
1.00332 1.00022 0.990766
1.00184 0.99984 0.993371
1.00144 1.00049 0.994995
1.00332 1.00065 0.99038
1.0014 1.00086 0.996591
1.00522 0.994904 0.991012
1.00523 0.99646 0.98944
1.00522 0.99526 0.990679
1.00528 0.999318 0.986632
1.00525 0.996855 0.989021
1.00524 0.99808 0.987917
1.00527 1.00031 0.985606
1.00512 1.00079 0.985383
1.00527 1.00114 0.984807
1.00472 1.00122 0.985635
1.00275 1.00179 0.988308
1.00407 1.00165 0.986105
1.00177 1.00305 0.988655
1.00097 1.00156 0.996582
1.00098 1.0034 0.989621
1.0004 1.00116 0.997158
1 1.00039 0.997719
1.00533 0.994895 0.990835
1.0054 0.994807 0.990873
1.00397 0.995088 0.991162
1.00528 0.994866 0.990801
1.00528 0.994973 0.990515
1.00522 0.9956 0.98971
1.00523 0.995758 0.990123
1.00537 0.994835 0.990575
1.00534 0.994864 0.990185
1.00525 0.994793 0.990668
1.00528 0.994933 0.991203
1.00532 0.994895 0.991106
1.00553 0.994823 0.990936
1.00529 0.994932 0.991235
1.00542 0.994867 0.990907
1.0053 0.994915 0.99114
1.00527 0.994935 0.99118
1.00532 0.994908 0.990774
1.00527 0.994937 0.991071
1.00532 0.994925 0.991194
1.00526 0.994918 0.990958
1.00529 0.994976 0.991068
1.00536 0.997149 0.988976
1.00524 0.99529 0.990713
1.00535 0.99774 0.988355
1.00526 1.00005 0.986071
1.00531 0.998417 0.987688
1.00529 1.00024 0.985825
1.00319 1.00014 0.990937
1.0053 1.00042 0.98562
1.00336 1.00005 0.990824
1.00189 0.999765 0.99335
1.00353 1.00009 0.990636
1.00135 1.00003 0.993692
1.00077 1.00085 0.997177
1.00521 0.994891 0.991087
1.00523 0.995658 0.990323
1.00521 0.994953 0.990978
1.00528 0.998899 0.98712
1.00523 0.996171 0.989682
1.00522 0.9952 0.990785
1.0053 1.00033 0.985628
1.00528 0.999305 0.986597
1.00525 0.996893 0.989021
1.00527 1.00031 0.98555
1.00516 1.00072 0.985383
1.00297 1.00093 0.988756
1.00485 1.001 0.985636
1.00258 1.00201 0.988347
1.00117 1.00138 0.996541
1.00167 1.00314 0.988661
1.00084 1.00143 0.996722
1.00023 1.00098 0.997329
1.00528 0.994937 0.991018
1.00534 0.994892 0.990783
1.00535 0.994807 0.990939
1.00529 0.994867 0.990801
1.00527 0.995025 0.990455
1.00537 0.994837 0.990575
1.00527 0.994949 0.991225
1.00528 0.994931 0.991224
1.00532 0.994897 0.991078
1.00529 0.994935 0.991234
1.00524 0.994946 0.991344
1.0053 0.994916 0.991132
1.00527 0.994937 0.991203
1.00532 0.994952 0.991216
1.00526 0.994937 0.991081
1.00532 0.994926 0.99118
1.00535 0.996697 0.989508
1.00528 0.994978 0.991049
1.00538 0.997145 0.988969
1.00519 0.999868 0.986409
1.00536 0.997762 0.988363
1.00528 1.00003 0.98609
1.00312 1.00023 0.990911
1.0053 1.00021 0.985854
1.00337 1.00009 0.990756
1.00191 0.999855 0.993229
1.00354 0.999979 0.990664
1.00147 0.999821 0.993698
1.00089 1.00025 0.993997
1.00521 0.994945 0.991113
1.00524 0.995005 0.991035
1.00519 0.994889 0.991051
1.00534 0.997829 0.988167
1.00524 0.9957 0.990273
1.00521 0.994994 0.990942
1.00529 1.00008 0.985926
1.00528 0.998501 0.987468
1.00524 0.995882 0.989924
1.00304 1.00031 0.989261
1.00529 1.00034 0.985606
1.00528 0.999292 0.986564
1.00526 1.00063 0.985377
1.00294 1.00096 0.988762
1.00124 1.00096 0.996686
1.00239 1.00226 0.988378
1.00115 1.00136 0.996528
1.00069 1.00135 0.996885
1.00527 0.99495 0.991172
1.00529 0.994938 0.990989
1.00534 0.99489 0.990731
1.0053 0.994866 0.990801
1.00523 0.994961 0.991357
1.00527 0.994945 0.991231
1.00527 0.994928 0.991244
1.00529 0.994938 0.991233
1.00525 0.994944 0.991339
1.00529 0.995061 0.991121
1.00527 0.994939 0.991226
1.00532 0.995032 0.991136
1.00533 0.996317 0.990002
1.00532 0.994927 0.991167
1.00536 0.996683 0.989499
1.00511 0.999658 0.98676
1.00541 0.997155 0.988962
1.00521 0.999823 0.986421
1.00308 1.00032 0.989296
1.0053 1 0.986111
1.00329 1.0002 0.989909
1.00165 0.99994 0.996654
1.00354 1.00004 0.990576
1.00153 0.999838 0.993587
1.00107 0.999875 0.994031
1.00521 0.994959 0.9912
1.00527 0.994942 0.991096
1.00521 0.994945 0.991145
1.00538 0.996993 0.989018
1.00525 0.995203 0.990777
1.00518 0.994887 0.991015
1.00529 0.999522 0.986516
1.00533 0.997818 0.988182
1.00525 0.995741 0.990221
1.00318 0.999921 0.989453
1.00528 0.999895 0.986083
1.00528 0.998099 0.987816
1.00138 1.0005 0.996788
1.00309 1.00025 0.989254
1.00529 1.00035 0.985581
1.00294 1.001 0.988778
1.00129 1.00098 0.996627
1.00111 1.00133 0.996561
1.00521 0.994962 0.991289
1.00527 0.994954 0.991168
1.00529 0.994939 0.99096
1.00527 0.995116 0.991169
1.00523 0.994959 0.991333
1.00527 0.994941 0.991237
1.00525 0.994942 0.991334
1.00529 0.995116 0.991117
1.00532 0.996642 0.989621
1.00532 0.995127 0.991055
1.00533 0.99662 0.989638
1.00501 0.999053 0.987625
1.00537 0.996655 0.989489
1.0051 0.999652 0.986766
1.003 1.00019 0.989565
1.00523 0.999783 0.986434
1.00311 1.00027 0.989306
1.00155 1.00002 0.996659
1.00333 1.00019 0.989058
1.00148 0.999962 0.995158
1.00116 0.999814 0.993944
1.00518 0.994957 0.991343
1.00527 0.994962 0.991247
1.00521 0.994961 0.991207
1.00538 0.99714 0.988913
1.00527 0.99494 0.991131
1.0052 0.994946 0.991176
1.00526 0.999335 0.986771
1.00537 0.997401 0.988615
1.00526 0.995405 0.990519
1.00323 0.99987 0.989437
1.00529 0.99948 0.986539
1.00533 0.997813 0.988196
1.00155 1.0001 0.996788
1.0032 0.999877 0.989449
1.00527 0.999709 0.98624
1.00139 1.00051 0.996755
1.00313 1.00018 0.989248
1.00126 1.00102 0.996568
1.00525 0.995173 0.991076
1.00522 0.994961 0.991309
1.00527 0.994958 0.991165
1.00532 0.996662 0.989621
1.00527 0.995162 0.991142
1.00523 0.994957 0.991308
1.00529 0.995169 0.991114
1.00532 0.996676 0.989628
1.00495 0.998863 0.987908
1.00533 0.996906 0.989275
1.00503 0.999248 0.98733
1.00291 1.00005 0.989854
1.0051 0.99964 0.986772
1.00297 1.00021 0.989574
1.00143 1.00003 0.996699
1.00312 1.00023 0.989313
1.00152 1.00003 0.996667
1.00158 0.999929 0.993357
1.00524 0.995243 0.991053
1.00518 0.994954 0.991277
1.00534 0.996928 0.989223
1.00526 0.99496 0.991256
1.0052 0.994963 0.991214
1.00521 0.999624 0.986585
1.00537 0.99716 0.988919
1.00527 0.994938 0.991166
1.00321 0.999975 0.989402
1.00525 0.999532 0.986572
1.00536 0.997813 0.988214
1.00163 0.99993 0.996726
1.00325 0.999862 0.989434
1.00528 0.999437 0.986563
1.00155 1.00014 0.996793
1.00324 0.999844 0.989445
1.00143 1.00054 0.996719
1.00532 0.996764 0.989488
1.00525 0.995213 0.991102
1.00522 0.99496 0.991329
1.00492 0.99881 0.987984
1.00532 0.996701 0.989622
1.00526 0.995212 0.991116
1.00532 0.996715 0.989636
1.00497 0.998834 0.987873
1.00279 0.999956 0.990153
1.00505 0.999446 0.987033
1.0029 1.00006 0.989865
1.00136 1.00002 0.996765
1.00297 1.00022 0.989585
1.0014 1.00006 0.996729
1.00148 1.00004 0.996685
1.00532 0.996819 0.989444
1.00524 0.995112 0.991168
1.00519 0.994952 0.991211
1.0051 0.999559 0.986874
1.00534 0.996943 0.98923
1.00526 0.994959 0.991264
1.00313 1.00004 0.989501
1.00518 0.999678 0.986581
1.00536 0.997177 0.988925
1.0016 0.99993 0.996674
1.0032 0.999994 0.9894
1.00525 0.999717 0.986375
1.00163 0.999957 0.996751
1.00326 0.999864 0.989429
1.00157 1.00015 0.996787
1.00495 0.999249 0.987445
1.00532 0.996598 0.989707
1.00525 0.995255 0.991127
1.00272 0.999867 0.990377
1.00493 0.998777 0.987978
1.00531 0.996734 0.989623
1.005 0.998799 0.987838
1.0028 0.999929 0.990164
1.00128 1.00002 0.996818
1.00287 1.00006 0.989874
1.00133 1.00003 0.996778
1.00134 1.00008 0.99675
1.00501 0.999387 0.98721
1.00532 0.996671 0.989609
1.00523 0.994963 0.991283
1.00309 1.00005 0.991177
1.00508 0.999565 0.986881
1.00535 0.996962 0.989237
1.0015 0.999967 0.996689
1.0031 1.00009 0.989499
1.00514 0.999736 0.986575
1.00162 0.999936 0.996693
1.0032 1.00002 0.989395
1.00165 0.999968 0.996773
1.00283 0.999862 0.990273
1.00494 0.999049 0.98766
1.00532 0.996429 0.989927
1.00118 0.999979 0.9969
1.00271 0.999863 0.990373
1.00494 0.998748 0.987973
1.00279 0.999904 0.990171
1.00124 1.00001 0.996848
1.00129 1.00005 0.9968
1.00303 0.999954 0.991426
1.00499 0.999395 0.987215
1.00532 0.996538 0.989773
1.00087 1.00001 0.997308
1.00296 1.00006 0.989769
1.00506 0.999563 0.986887
1.00153 0.999976 0.996687
1.00308 1.00014 0.989496
1.00165 0.999939 0.996712
1.00116 0.999935 0.994035
1.00285 0.99987 0.990961
1.00493 0.998846 0.987875
1.0012 0.999982 0.996909
1.00272 0.999863 0.990377
1.00125 0.999994 0.996871
1.00067 0.999997 0.99448
1.00294 0.999935 0.99076
1.00497 0.99941 0.987219
1.00111 1 0.995517
1.00295 1.00006 0.989794
1.00156 0.999975 0.996689
1.00119 0.999966 0.996904
1.00272 0.99986 0.990367
1.00116 0.999982 0.996908
1.00096 0.999964 0.995695
1.00282 0.999929 0.990156
1.00142 0.999993 0.996729
1.00122 0.999968 0.996904
1.00127 0.999978 0.996829

TENSORS stress float
0.00234289 -0.000162177 0.000271091
-0.000162177 0.00114941 -4.73868e-05
0.000271091 -4.73868e-05 0.0011229
0.00726706 8.3321e-05 0.000318264
8.3321e-05 0.0042714 3.7011e-05
0.000318264 3.7011e-05 0.00427955
0.00194668 -9.21138e-05 0.000112618
-9.21138e-05 0.000897198 -1.84086e-05
0.000112618 -1.84086e-05 0.000858204
0.00228538 -9.14994e-05 0.000260645
-9.14994e-05 0.00108981 -2.70203e-05
0.000260645 -2.70203e-05 0.00107324
0.00235522 -0.000142169 0.000264433
-0.000142169 0.00114743 -4.17228e-05
0.000264433 -4.17228e-05 0.00112447
0.00232615 -0.000166759 0.000282444
-0.000166759 0.00113962 -4.92307e-05
0.000282444 -4.92307e-05 0.00111317
0.00191058 -0.000157922 5.37858e-05
-0.000157922 0.000771703 -1.51054e-05
5.37858e-05 -1.51054e-05 0.000651224
0.00721626 7.56932e-05 -7.84332e-06
7.56932e-05 0.00423102 -1.92466e-06
-7.84332e-06 -1.92466e-06 0.00424389
0.00670706 0.000229868 0.000157058
0.000229868 0.00391647 1.61218e-05
0.000157058 1.61218e-05 0.00388837
0.00671987 -1.16314e-06 9.21961e-05
-1.16314e-06 0.00390233 4.9712e-06
9.21961e-05 4.9712e-06 0.00388283
0.00206735 0.000213335 0.000294012
0.000213335 0.000985301 4.00154e-05
0.000294012 4.00154e-05 0.000973208
0.000365953 0.00026649 2.67806e-05
0.00026649 -0.000163168 2.05103e-05
2.67806e-05 2.05103e-05 -0.000310797
0.00185755 -3.2623e-05 0.000253937
-3.2623e-05 0.000819284 4.18376e-06
0.000253937 4.18376e-06 0.000821178
0.00157095 3.62347e-06 6.8324e-05
3.62347e-06 0.000658267 2.03303e-06
6.8324e-05 2.03303e-06 0.000610265
0.00163553 -9.11286e-05 -6.13684e-05
-9.11286e-05 0.00071275 1.15314e-05
-6.13684e-05 1.15314e-05 0.000654947
0.0019295 -9.08554e-05 8.45506e-05
-9.08554e-05 0.000882526 -5.35936e-06
8.45506e-05 -5.35936e-06 0.000846874
0.00195946 -8.07059e-05 0.000122519
-8.07059e-05 0.000909521 -1.99153e-05
0.000122519 -1.99153e-05 0.000866649
0.00194478 -9.80082e-05 0.00010043
-9.80082e-05 0.00089038 -1.40995e-05
0.00010043 -1.40995e-05 0.000854239
0.00200152 -0.000194092 -4.27034e-05
-0.000194092 0.000827736 6.47627e-06
-4.27034e-05 6.47627e-06 0.000716519
0.00629416 -0.000150972 0.000331674
-0.000150972 0.00366428 -1.49662e-05
0.000331674 -1.49662e-05 0.00368455
0.00221934 -6.79187e-05 0.000257446
-6.79187e-05 0.00104899 -1.99282e-05
0.000257446 -1.99282e-05 0.00103576
0.00235126 -0.000117763 0.000262809
-0.000117763 0.00113577 -3.46894e-05
0.000262809 -3.46894e-05 0.00111635
0.00187794 -0.000145375 7.27766e-05
-0.000145375 0.00075481 -1.14443e-05
7.27766e-05 -1.14443e-05 0.000652501
0.00190446 -0.000159323 6.20394e-05
-0.000159323 0.000762444 -1.46486e-05
6.20394e-05 -1.46486e-05 0.000651197
0.00235943 -0.000146716 0.000289326
-0.000146716 0.00114815 -4.62319e-05
0.000289326 -4.62319e-05 0.00112443
0.00191361 -0.000157929 4.79269e-05
-0.000157929 0.000794031 -1.54563e-05
4.79269e-05 -1.54563e-05 0.000660245
0.00207031 -0.000354586 1.99763e-05
-0.000354586 0.000620809 -8.72334e-06
1.99763e-05 -8.72334e-06 0.000389534
0.00718932 5.9512e-05 -0.000318971
5.9512e-05 0.00420273 -2.75131e-05
-0.000318971 -2.75131e-05 0.00422018
0.00438195 0.000169179 -0.00015172
0.000169179 0.00243733 -1.75851e-05
-0.00015172 -1.75851e-05 0.00241425
0.00441452 8.86032e-05 -0.000153602
8.86032e-05 0.00246347 -1.61178e-05
-0.000153602 -1.61178e-05 0.00244213
0.0071217 1.36964e-06 -3.0988e-06
1.36964e-06 0.00418089 -6.91718e-07
-3.0988e-06 -6.91718e-07 0.0041902
0.000401086 0.000249265 -7.81614e-07
0.000249265 -0.000139122 -1.3985e-06
-7.81614e-07 -1.3985e-06 -0.000286772
0.00192543 7.21658e-05 0.00026409
7.21658e-05 0.000861045 2.54058e-05
0.00026409 2.54058e-05 0.000849403
0.00205777 0.000163247 0.000271835
0.000163247 0.000978741 3.92903e-05
0.000271835 3.92903e-05 0.000954398
0.00287033 0.000221391 0.000161953
0.000221391 0.00136491 2.42541e-05
0.000161953 2.42541e-05 0.00127778
0.00622022 -0.000274332 2.22352e-05
-0.000274332 0.00367313 4.2775e-06
2.22352e-05 4.2775e-06 0.00362193
0.00299641 0.000300178 0.000170919
0.000300178 0.00148851 3.01173e-05
0.000170919 3.01173e-05 0.00138332
0.000403095 0.000235764 2.60878e-05
0.000235764 -0.000130666 2.83389e-05
2.60878e-05 2.83389e-05 -0.000279003
0.000880756 0.000289217 1.66032e-05
0.000289217 -2.1313e-05 6.31768e-06
1.66032e-05 6.31768e-06 -0.000262257
0.00510795 -0.000114811 0.000192191
-0.000114811 0.00297843 2.00013e-05
0.000192191 2.00013e-05 0.00297336
0.00628022 8.52958e-05 3.10463e-06
8.52958e-05 0.00364092 -1.97079e-06
3.10463e-06 -1.97079e-06 0.00366903
0.00412939 9.54505e-05 -0.000127028
9.54505e-05 0.00227396 -5.99782e-06
-0.000127028 -5.99782e-06 0.00226301
0.0061175 5.77883e-05 0.000322041
5.77883e-05 0.00354129 4.52635e-06
0.000322041 4.52635e-06 0.00357025
0.00145305 9.03121e-05 6.94197e-05
9.03121e-05 0.000589045 4.64896e-06
6.94197e-05 4.64896e-06 0.000546071
0.000478971 1.21453e-05 1.48617e-05
1.21453e-05 -0.000153526 1.61344e-06
1.48617e-05 1.61344e-06 -0.000243106
0.00652882 0.000240808 0.000187379
0.000240808 0.00382604 1.84239e-05
0.000187379 1.84239e-05 0.00380019
0.0029211 8.13332e-05 0.00015222
8.13332e-05 0.00137634 9.87682e-06
0.00015222 9.87682e-06 0.00131618
0.00152015 -9.12195e-05 -8.27704e-05
-9.12195e-05 0.000642327 1.08655e-05
-8.27704e-05 1.08655e-05 0.000587067
0.00154767 -0.00011712 -7.45851e-05
-0.00011712 0.000664406 1.37725e-05
-7.45851e-05 1.37725e-05 0.000604405
0.00169865 -4.95777e-05 -4.91106e-05
-4.95777e-05 0.000746134 9.61329e-06
-4.91106e-05 9.61329e-06 0.000688296
0.00205521 -0.000196151 -0.000146524
-0.000196151 0.000852335 2.80737e-05
-0.000146524 2.80737e-05 0.000753371
0.00394799 -2.58954e-05 -0.000128984
-2.58954e-05 0.00217167 -1.51396e-06
-0.000128984 -1.51396e-06 0.00216067
0.00187982 -7.04155e-05 8.9582e-05
-7.04155e-05 0.000849232 -4.26354e-06
8.9582e-05 -4.26354e-06 0.000818053
0.00202317 -5.94193e-05 0.000130135
-5.94193e-05 0.00094731 -1.93883e-05
0.000130135 -1.93883e-05 0.000902233
0.00194478 -9.50193e-05 9.12076e-05
-9.50193e-05 0.000889252 -9.2544e-06
9.12076e-05 -9.2544e-06 0.00085376
0.00195056 -0.000123078 -3.45129e-05
-0.000123078 0.000789646 2.55266e-06
-3.45129e-05 2.55266e-06 0.000699853
0.00200775 -0.000200202 -4.98033e-05
-0.000200202 0.00084602 7.49725e-06
-4.98033e-05 7.49725e-06 0.000725166
0.00199348 -0.000176041 -3.7046e-05
-0.000176041 0.000816961 4.65187e-06
-3.7046e-05 4.65187e-06 0.00071444
0.00211044 -0.000358067 -1.05055e-05
-0.000358067 0.000644148 2.73974e-06
-1.05055e-05 2.73974e-06 0.000413399
0.00609962 -6.10437e-07 0.000318023
-6.10437e-07 0.00352785 -2.92234e-06
0.000318023 -2.92234e-06 0.00355809
0.00213546 -4.25456e-05 0.000252088
-4.25456e-05 0.000999912 -1.37913e-05
0.000252088 -1.37913e-05 0.000990818
0.00245026 -1.34238e-05 5.42648e-05
-1.34238e-05 0.00111079 -1.03467e-06
5.42648e-05 -1.03467e-06 0.00104056
0.0018416 -0.000117468 6.56884e-05
-0.000117468 0.000731917 -7.34711e-06
6.56884e-05 -7.34711e-06 0.000638995
0.00189835 -0.00015409 6.89142e-05
-0.00015409 0.000762202 -1.36524e-05
6.89142e-05 -1.36524e-05 0.000655611
0.00193459 -0.000230331 7.70219e-06
-0.000230331 0.000456909 -2.81191e-06
7.70219e-06 -2.81191e-06 0.000282576
0.00195708 -0.000310903 1.63159e-05
-0.000310903 0.000510055 -6.19549e-06
1.63159e-05 -6.19549e-06 0.000304228
0.00189556 -0.000104045 0.000258791
-0.000104045 0.000862404 -3.77181e-05
0.000258791 -3.77181e-05 0.000841846
0.0019756 -0.000125978 3.87711e-05
-0.000125978 0.000849627 -1.42938e-05
3.87711e-05 -1.42938e-05 0.000711616
0.00206439 -0.000389505 2.29701e-05
-0.000389505 0.000664199 -9.649e-06
2.29701e-05 -9.649e-06 0.000409451
0.00179458 -0.000469821 7.25396e-06
-0.000469821 0.000210931 -7.88625e-07
7.25396e-06 -7.88625e-07 -6.65936e-05
0.00711561 0.000285341 -0.000363419
0.000285341 0.00417271 -4.23359e-05
-0.000363419 -4.23359e-05 0.00417924
0.00695398 -2.83868e-05 -0.000282421
-2.83868e-05 0.00407756 -2.18678e-05
-0.000282421 -2.18678e-05 0.00408848
0.00710472 0.000138401 -0.000334643
0.000138401 0.00414746 -3.27443e-05
-0.000334643 -3.27443e-05 0.00416625
0.000367728 0.000236031 -2.52914e-05
0.000236031 -0.000153083 -2.08804e-05
-2.52914e-05 -2.08804e-05 -0.000303
0.00697811 0.000251975 -2.24529e-06
0.000251975 0.00408032 -2.47675e-06
-2.24529e-06 -2.47675e-06 0.00409233
0.00712748 0.000239593 -8.99863e-06
0.000239593 0.00417159 -3.24806e-06
-8.99863e-06 -3.24806e-06 0.0041813
0.000342162 0.000138858 3.59548e-07
0.000138858 -0.000238186 -2.70249e-07
3.59548e-07 -2.70249e-07 -0.000359069
0.00388645 -7.85036e-05 -0.000126189
-7.85036e-05 0.00217675 -6.06439e-06
-0.000126189 -6.06439e-06 0.00214499
0.000292312 0.000214632 7.6745e-07
0.000214632 -0.000219102 -5.36867e-07
7.6745e-07 -5.36867e-07 -0.000360367
0.00181038 0.00024976 6.24083e-05
0.00024976 0.000762943 3.93647e-06
6.24083e-05 3.93647e-06 0.000639492
0.000918538 0.00028997 8.41565e-07
0.00028997 1.0176e-05 1.94195e-07
8.41565e-07 1.94195e-07 -0.000229734
0.00583736 -0.000133685 0.000217607
-0.000133685 0.00344697 2.68752e-05
0.000217607 2.68752e-05 0.00343115
0.000568601 8.66274e-05 2.01225e-05
8.66274e-05 2.86512e-05 1.43546e-05
2.01225e-05 1.43546e-05 -5.27285e-05
0.000457371 0.000108311 1.47361e-05
0.000108311 -0.00018302 1.11415e-05
1.47361e-05 1.11415e-05 -0.000296897
0.000461218 0.000168719 1.94208e-05
0.000168719 -0.000149671 1.89856e-05
1.94208e-05 1.89856e-05 -0.000278865
0.0012399 0.000279508 1.5564e-05
0.000279508 2.3151e-05 5.91089e-06
1.5564e-05 5.91089e-06 -0.0001911
0.00314308 0.000240797 0.000154595
0.000240797 0.00161581 2.25508e-05
0.000154595 2.25508e-05 0.00153017
0.00104368 0.00031032 2.12589e-05
0.00031032 1.84083e-05 7.50052e-06
2.12589e-05 7.50052e-06 -0.000222116
0.000873051 0.000285501 1.40849e-05
0.000285501 8.06588e-05 5.97591e-06
1.40849e-05 5.97591e-06 -0.000165236
0.00139954 0.000482155 4.93244e-06
0.000482155 0.000174653 -2.71602e-06
4.93244e-06 -2.71602e-06 -0.000156338
0.00404135 -0.000130194 0.00012502
-0.000130194 0.00228633 9.44778e-06
0.00012502 9.44778e-06 0.00228232
0.00458931 -0.000170911 2.41036e-05
-0.000170911 0.00265547 -3.88604e-07
2.41036e-05 -3.88604e-07 0.00263838
0.00678668 6.82832e-05 -0.000342877
6.82832e-05 0.00394295 -1.77419e-05
-0.000342877 -1.77419e-05 0.00396971
0.00638404 7.67197e-05 -0.00033416
7.67197e-05 0.00370213 -1.08245e-05
-0.00033416 -1.08245e-05 0.0037315
0.00621123 8.37677e-05 -3.24754e-08
8.37677e-05 0.00360511 -4.00083e-06
-3.24754e-08 -4.00083e-06 0.00363103
0.00396696 3.6928e-05 -0.000138061
3.6928e-05 0.00217314 -7.56061e-06
-0.000138061 -7.56061e-06 0.00216752
0.00159052 3.98366e-05 6.57444e-05
3.98366e-05 0.000550616 1.84082e-06
6.57444e-05 1.84082e-06 0.000479826
0.00430762 0.000156228 -0.000130398
0.000156228 0.00239201 -7.92941e-06
-0.000130398 -7.92941e-06 0.00237259
0.00163228 9.53215e-05 6.70412e-05
9.53215e-05 0.000566196 3.44733e-06
6.70412e-05 3.44733e-06 0.000483599
0.00615337 0.000117765 0.000324512
0.000117765 0.00357749 7.32752e-06
0.000324512 7.32752e-06 0.00359865
0.000374073 1.02999e-05 1.81575e-05
1.02999e-05 -0.00021457 7.37545e-07
1.81575e-05 7.37545e-07 -0.000299967
0.00281248 4.23724e-05 0.000148971
4.23724e-05 0.00131554 6.54565e-06
0.000148971 6.54565e-06 0.00126157
0.00112263 7.14015e-05 1.12826e-05
7.14015e-05 -5.15955e-05 4.70622e-07
1.12826e-05 4.70622e-07 -0.000186629
0.0028109 0.000127614 0.000156857
0.000127614 0.00130765 1.3513e-05
0.000156857 1.3513e-05 0.00123956
0.00123335 0.000156851 8.01937e-06
0.000156851 -2.86835e-05 1.33213e-06
8.01937e-06 1.33213e-06 -0.000187756
0.00187686 4.09772e-05 -0.000252858
4.09772e-05 0.000829307 3.44955e-06
-0.000252858 3.44955e-06 0.000833866
0.00145739 -2.15288e-05 -6.81565e-05
-2.15288e-05 0.000594964 3.19456e-06
-6.81565e-05 3.19456e-06 0.000546474
0.00169018 -2.01217e-05 -4.31143e-05
-2.01217e-05 0.000739403 8.92681e-06
-4.31143e-05 8.92681e-06 0.00067969
0.0015174 -0.000108208 -8.37148e-05
-0.000108208 0.000643803 1.34824e-05
-8.37148e-05 1.34824e-05 0.000586169
0.00207651 -0.000101327 -0.000136741
-0.000101327 0.00085804 1.34272e-05
-0.000136741 1.34272e-05 0.000780826
0.00209065 -0.000162052 -0.000141458
-0.000162052 0.000865162 2.3648e-05
-0.000141458 2.3648e-05 0.000776412
0.00205764 -0.000216782 -0.000152052
-0.000216782 0.000870809 2.99281e-05
-0.000152052 2.99281e-05 0.000761593
0.00215259 -0.000361657 -3.64239e-05
-0.000361657 0.000669947 1.29579e-05
-3.64239e-05 1.29579e-05 0.000439829
0.00619734 -0.000110628 2.39843e-06
-0.000110628 0.00360253 -1.95555e-06
2.39843e-06 -1.95555e-06 0.00362472
0.0017679 2.57327e-05 9.64751e-05
2.57327e-05 0.000771426 -4.95029e-06
9.64751e-05 -4.95029e-06 0.000749904
0.00117048 -1.32388e-05 -6.87985e-05
-1.32388e-05 0.000290832 2.25843e-06
-6.87985e-05 2.25843e-06 0.000219775
0.0018915 -8.13731e-05 -3.76543e-05
-8.13731e-05 0.000754464 3.21148e-06
-3.76543e-05 3.21148e-06 0.000672333
0.00464919 -6.31363e-05 0.000269683
-6.31363e-05 0.00261706 -2.04018e-05
0.000269683 -2.04018e-05 0.00261125
0.0026128 -0.000209907 -4.69802e-05
-0.000209907 0.00124088 4.57262e-06
-4.69802e-05 4.57262e-06 0.00111653
0.00198597 -0.000150646 -3.43515e-05
-0.000150646 0.000810993 3.32056e-06
-3.43515e-05 3.32056e-06 0.000715334
0.00200929 -0.000230941 -9.45277e-06
-0.000230941 0.000500188 1.79984e-06
-9.45277e-06 1.79984e-06 0.000329943
0.00211368 -0.000396958 -9.0558e-06
-0.000396958 0.000695663 2.53079e-06
-9.0558e-06 2.53079e-06 0.000439888
0.00203741 -0.00031435 -9.34172e-06
-0.00031435 0.000561084 2.46614e-06
-9.34172e-06 2.46614e-06 0.000353537
0.00184207 -0.000472643 9.50324e-07
-0.000472643 0.000242338 -2.07248e-07
9.50324e-07 -2.07248e-07 -3.4901e-05
0.000408685 8.69117e-06 1.89251e-05
8.69117e-06 -0.000196179 -6.12593e-07
1.89251e-05 -6.12593e-07 -0.000277801
0.00173311 -8.49062e-06 5.61082e-05
-8.49062e-06 0.00065298 -2.74825e-06
5.61082e-05 -2.74825e-06 0.000574237
0.0018909 -7.74485e-05 9.13035e-06
-7.74485e-05 0.000438489 -2.86286e-07
9.13035e-06 -2.86286e-07 0.000319399
0.00188632 -0.000181825 9.07745e-06
-0.000181825 0.000421371 -1.00986e-06
9.07745e-06 -1.00986e-06 0.000269822
0.00197004 -0.000272072 1.15287e-05
-0.000272072 0.000490922 -4.1103e-06
1.15287e-05 -4.1103e-06 0.000305576
0.00196629 -0.000328462 -3.30725e-07
-0.000328462 0.000178356 -2.9817e-07
-3.30725e-07 -2.9817e-07 -8.46165e-07
0.00659303 7.78051e-05 0.000243144
7.78051e-05 0.0038746 -1.97365e-05
0.000243144 -1.97365e-05 0.00387488
0.00177682 -0.000430202 5.11055e-06
-0.000430202 0.000143012 -5.94672e-07
5.11055e-06 -5.94672e-07 -0.00010122
0.000211805 -0.000193632 2.02331e-05
-0.000193632 -0.000266496 -2.27436e-05
2.02331e-05 -2.27436e-05 -0.000398118
0.00096217 -0.00031386 1.86446e-05
-0.00031386 3.43486e-05 -1.03919e-05
1.86446e-05 -1.03919e-05 -0.000224812
0.00191815 -0.000528296 1.07488e-05
-0.000528296 0.000355403 -1.15053e-06
1.07488e-05 -1.15053e-06 3.45953e-05
0.00198961 -0.000541577 2.37293e-06
-0.000541577 0.000228602 2.47217e-06
2.37293e-06 2.47217e-06 -3.2282e-05
0.000449158 -0.000163346 2.28971e-05
-0.000163346 -7.83537e-05 -1.83323e-05
2.28971e-05 -1.83323e-05 -0.000189238
0.000715132 -0.000148745 -6.34836e-07
-0.000148745 0.00013855 -1.24895e-06
-6.34836e-07 -1.24895e-06 -0.000113541
0.00706806 0.000276971 -0.000370487
0.000276971 0.00414309 -3.96305e-05
-0.000370487 -3.96305e-05 0.00415177
0.007144 0.000229333 -0.000351188
0.000229333 0.00418001 -3.91766e-05
-0.000351188 -3.91766e-05 0.0041935
0.000328607 0.000137066 -1.82262e-05
0.000137066 -0.00024829 -1.37433e-05
-1.82262e-05 -1.37433e-05 -0.000369591
0.00622433 -0.000103886 -0.000227991
-0.000103886 0.00365318 -1.71576e-05
-0.000227991 -1.71576e-05 0.0036527
0.00023475 0.000210567 -2.28072e-05
0.000210567 -0.000236353 -2.18224e-05
-2.28072e-05 -2.18224e-05 -0.000368245
0.000366554 0.000207674 -2.16939e-05
0.000207674 -0.00017175 -1.8835e-05
-2.16939e-05 -1.8835e-05 -0.000314667
0.000913755 0.00028779 -1.82311e-05
0.00028779 1.21167e-05 -7.20046e-06
-1.82311e-05 -7.20046e-06 -0.000226762
0.00565983 -0.000118195 -6.23396e-06
-0.000118195 0.00331935 1.57326e-06
-6.23396e-06 1.57326e-06 0.00331315
0.000540806 6.85999e-05 1.70376e-06
6.85999e-05 1.39179e-05 3.64456e-07
1.70376e-06 3.64456e-07 -6.41107e-05
0.00168834 0.000152017 6.95206e-05
0.000152017 0.000599736 6.26321e-06
6.95206e-05 6.26321e-06 0.000502037
0.0016787 0.000216308 7.14781e-05
0.000216308 0.000628955 7.32253e-06
7.14781e-05 7.32253e-06 0.000514602
0.00121333 0.000278595 8.5689e-10
0.000278595 1.17082e-05 -3.44219e-07
8.5689e-10 -3.44219e-07 -0.000203536
0.000416642 0.000184238 -4.35951e-07
0.000184238 -0.000103945 -3.78769e-07
-4.35951e-07 -3.78769e-07 -0.000218879
0.00103414 0.000306618 1.41934e-06
0.000306618 1.553e-05 1.44187e-07
1.41934e-06 1.44187e-07 -0.000223913
0.000773016 0.00026718 4.09154e-07
0.00026718 1.2711e-05 -9.79511e-07
4.09154e-07 -9.79511e-07 -0.000226613
0.00154602 0.000505237 -4.84465e-07
0.000505237 0.000254534 -4.76638e-07
-4.84465e-07 -4.76638e-07 -8.00804e-05
0.000418227 0.000143722 1.97494e-05
0.000143722 -8.14256e-05 1.72986e-05
1.97494e-05 1.72986e-05 -0.000185124
0.000635029 2.91038e-05 1.13352e-05
2.91038e-05 8.46784e-05 1.34026e-05
1.13352e-05 1.34026e-05 2.18452e-05
0.0014301 0.000239732 5.01926e-06
0.000239732 0.000611981 3.55422e-06
5.01926e-06 3.55422e-06 0.000383634
0.0012666 0.000243335 1.13696e-05
0.000243335 4.39764e-06 4.21337e-06
1.13696e-05 4.21337e-06 -0.000191127
0.00118946 0.000306851 2.01481e-05
0.000306851 4.32989e-05 7.36863e-06
2.01481e-05 7.36863e-06 -0.000187804
0.00198576 0.000461258 4.15314e-06
0.000461258 0.000253264 -3.34614e-07
4.15314e-06 -3.34614e-07 4.63255e-06
0.000596539 0.000230385 1.01904e-05
0.000230385 -1.67713e-05 5.86836e-06
1.01904e-05 5.86836e-06 -0.00024896
0.00194463 0.000546896 5.59476e-06
0.000546896 0.00039458 -1.62403e-06
5.59476e-06 -1.62403e-06 7.84372e-05
0.00131406 0.000465377 2.05463e-06
0.000465377 0.000237546 -3.25135e-06
2.05463e-06 -3.25135e-06 -0.000111597
0.00159873 0.000579441 -6.067e-06
0.000579441 0.000186245 -5.68618e-06
-6.067e-06 -5.68618e-06 -0.000161982
0.00353609 -0.000135789 8.25517e-05
-0.000135789 0.00195771 5.30975e-06
8.25517e-05 5.30975e-06 0.00195279
0.00395557 -0.000171011 1.67812e-05
-0.000171011 0.00223978 -1.11055e-06
1.67812e-05 -1.11055e-06 0.00222497
0.00443224 -0.000219184 -9.34324e-05
-0.000219184 0.00256418 -8.78553e-06
-9.34324e-05 -8.78553e-06 0.00253487
0.00055639 -0.000150462 2.23151e-05
-0.000150462 1.06841e-05 -1.60111e-05
2.23151e-05 -1.60111e-05 -8.71444e-05
0.00599586 0.000126531 0.000203983
0.000126531 0.00353253 -1.96596e-05
0.000203983 -1.96596e-05 0.00352096
0.00698168 0.000230523 -0.00036844
0.000230523 0.00408179 -3.26076e-05
-0.00036844 -3.26076e-05 0.00409761
0.0064904 0.000101456 -0.000336892
0.000101456 0.00376503 -1.52408e-05
-0.000336892 -1.52408e-05 0.00379257
0.000382943 0.000100708 -1.86262e-05
0.000100708 -0.000222956 -5.86001e-06
-1.86262e-05 -5.86001e-06 -0.00032381
0.00033721 4.28653e-05 -1.8411e-05
4.28653e-05 -0.000236573 -2.67372e-06
-1.8411e-05 -2.67372e-06 -0.000326893
0.00615482 -4.41273e-06 -0.000320095
-4.41273e-06 0.00356049 -2.89138e-06
-0.000320095 -2.89138e-06 0.00359083
0.00609222 3.04167e-06 -5.9881e-08
3.04167e-06 0.00352276 -1.11674e-06
-5.9881e-08 -1.11674e-06 0.0035533
0.000350854 7.33129e-07 7.11126e-08
7.33129e-07 -0.000231894 2.27183e-07
7.11126e-08 2.27183e-07 -0.000315565
0.00159 4.24796e-05 6.62903e-05
4.24796e-05 0.000543642 3.21016e-06
6.62903e-05 3.21016e-06 0.000470008
0.0010826 7.48767e-05 1.87824e-07
7.48767e-05 -8.10709e-05 -1.23827e-07
1.87824e-07 -1.23827e-07 -0.000217263
0.000370827 8.89681e-05 -7.11829e-07
8.89681e-05 -0.000234113 -3.84653e-07
-7.11829e-07 -3.84653e-07 -0.000342229
0.0012075 0.000158524 -2.35373e-08
0.000158524 -4.21922e-05 -1.73241e-07
-2.35373e-08 -1.73241e-07 -0.000202575
0.00035085 -3.22499e-05 1.86815e-05
-3.22499e-05 -0.000232913 -9.00336e-07
1.86815e-05 -9.00336e-07 -0.000313535
0.00108079 3.15599e-05 1.08056e-05
3.15599e-05 -6.72381e-05 1.09102e-07
1.08056e-05 1.09102e-07 -0.000196219
0.00112615 0.000114942 9.57176e-06
0.000114942 -6.80081e-05 1.11111e-06
9.57176e-06 1.11111e-06 -0.000213706
0.00188299 0.00011819 1.46936e-06
0.00011819 3.77495e-05 -3.20102e-07
1.46936e-06 -3.20102e-07 -5.77012e-05
0.00127647 0.000199924 8.28923e-06
0.000199924 -5.28597e-06 2.55463e-06
8.28923e-06 2.55463e-06 -0.000181639
0.00207587 0.000273606 1.94363e-07
0.000273606 0.000173396 -9.41439e-07
1.94363e-07 -9.41439e-07 3.24058e-05
0.00611435 -7.23149e-05 -0.000323677
-7.23149e-05 0.00354431 3.80818e-06
-0.000323677 3.80818e-06 0.00357053
0.00141879 -0.00015949 -6.86521e-05
-0.00015949 0.000590681 8.51384e-06
-6.86521e-05 8.51384e-06 0.000536325
-0.000231507 -7.88993e-06 -1.17668e-05
-7.88993e-06 -0.000591168 1.6309e-06
-1.17668e-05 1.6309e-06 -0.000689076
0.00202074 -7.29248e-05 -0.000135128
-7.29248e-05 0.000828507 9.15039e-06
-0.000135128 9.15039e-06 0.000756717
0.00703292 0.000237955 -4.25774e-05
0.000237955 0.00414356 3.44716e-06
-4.25774e-05 3.44716e-06 0.00409734
0.00312267 -0.000287205 -0.000158419
-0.000287205 0.00156252 3.10724e-05
-0.000158419 3.10724e-05 0.00144498
0.00209794 -0.000130432 -0.000139005
-0.000130432 0.000868425 1.85248e-05
-0.000139005 1.85248e-05 0.000786406
0.00207372 -0.000231415 -2.88107e-05
-0.000231415 0.000536996 5.48212e-06
-2.88107e-05 5.48212e-06 0.000370974
0.00209388 -0.000316391 -3.25508e-05
-0.000316391 0.000595554 1.11975e-05
-3.25508e-05 1.11975e-05 0.000386639
0.00214234 -0.000401079 -3.82203e-05
-0.000401079 0.00071455 1.39215e-05
-3.82203e-05 1.39215e-05 0.000458695
0.00188218 -0.000474998 -5.88944e-06
-0.000474998 0.000268575 5.49977e-07
-5.88944e-06 5.49977e-07 -8.34355e-06
0.000350675 3.76086e-06 4.85227e-09
3.76086e-06 -0.000230769 3.6303e-07
4.85227e-09 3.6303e-07 -0.000313394
0.00187288 -9.11632e-05 -3.61728e-05
-9.11632e-05 0.000748819 5.6862e-07
-3.61728e-05 5.6862e-07 0.000671426
0.00154917 -7.31296e-05 -1.15774e-05
-7.31296e-05 0.000221574 7.52251e-07
-1.15774e-05 7.52251e-07 9.83861e-05
0.00194265 -0.000182411 -9.84164e-06
-0.000182411 0.000454524 1.65895e-06
-9.84164e-06 1.65895e-06 0.000300746
0.00682093 7.67247e-05 4.72159e-06
7.67247e-05 0.00402031 4.07694e-07
4.72159e-06 4.07694e-07 0.00401855
0.00175158 -0.000201789 6.8096e-06
-0.000201789 0.00072018 7.05053e-07
6.8096e-06 7.05053e-07 0.000579516
0.00140989 -0.000344433 3.34294e-07
-0.000344433 0.000313781 -1.26806e-06
3.34294e-07 -1.26806e-06 5.34557e-05
0.00201575 -0.00027544 -9.65317e-06
-0.00027544 0.000516692 2.56115e-06
-9.65317e-06 2.56115e-06 0.000330539
0.00207322 -0.000336686 3.32241e-07
-0.000336686 0.000242754 -2.64475e-07
3.32241e-07 -2.64475e-07 6.95019e-05
0.00190921 -0.000527323 1.19286e-06
-0.000527323 0.000350108 -1.3858e-07
1.19286e-06 -1.3858e-07 3.08879e-05
0.00189004 -0.000434229 4.25102e-07
-0.000434229 0.000218204 -2.59624e-07
4.25102e-07 -2.59624e-07 -2.66867e-05
0.00203332 -0.000543629 8.72941e-07
-0.000543629 0.000260991 1.67176e-07
8.72941e-07 1.67176e-07 -2.8692e-08
0.000448298 -0.000176455 1.96634e-06
-0.000176455 -8.41584e-05 3.57991e-07
1.96634e-06 3.57991e-07 -0.000194623
0.00073112 -0.000201909 1.62365e-06
-0.000201909 0.000140927 5.03496e-07
1.62365e-06 5.03496e-07 -0.00010567
0.00108062 -3.61974e-05 1.11189e-05
-3.61974e-05 -6.361e-05 -5.37883e-07
1.11189e-05 -5.37883e-07 -0.000192562
0.0019606 -0.000126713 8.33287e-06
-0.000126713 0.000477868 -5.00947e-07
8.33287e-06 -5.00947e-07 0.000345894
0.00183488 -0.000128008 1.76987e-06
-0.000128008 3.77273e-05 -1.17794e-07
1.76987e-06 -1.17794e-07 -7.08982e-05
0.00193318 -0.000270493 -2.80921e-08
-0.000270493 0.000118312 6.78396e-07
-2.80921e-08 6.78396e-07 -2.04653e-05
0.00189293 -0.000388283 2.71082e-07
-0.000388283 0.00016557 1.83151e-07
2.71082e-07 1.83151e-07 -4.1869e-05
0.00208869 -0.000375037 3.87217e-06
-0.000375037 0.000150577 -1.23064e-06
3.87217e-06 -1.23064e-06 1.22581e-05
0.0002872 -0.000179318 2.02828e-05
-0.000179318 -0.000194976 -2.17821e-05
2.02828e-05 -2.17821e-05 -0.000320012
0.00202215 -0.000497511 1.38986e-06
-0.000497511 0.00019639 1.5143e-06
1.38986e-06 1.5143e-06 -1.93911e-05
0.000778975 -0.0002732 1.27032e-05
-0.0002732 1.22623e-05 -9.52464e-06
1.27032e-05 -9.52464e-06 -0.000236897
0.00162715 -0.000554663 1.45549e-05
-0.000554663 0.000260143 -1.96325e-06
1.45549e-05 -1.96325e-06 -0.000104728
0.00222592 -0.000608609 3.26035e-06
-0.000608609 0.000448289 1.53227e-06
3.26035e-06 1.53227e-06 0.000127932
0.00230529 -0.000581627 3.7292e-07
-0.000581627 0.000394864 3.68334e-06
3.7292e-07 3.68334e-06 0.000162049
0.000432122 -0.000205439 9.404e-07
-0.000205439 -6.98662e-05 -4.79922e-06
9.404e-07 -4.79922e-06 -0.000331408
0.000932431 -0.000139501 -2.92076e-07
-0.000139501 0.000301671 -1.58706e-06
-2.92076e-07 -1.58706e-06 7.42649e-05
0.000910199 -0.000277459 -8.32573e-07
-0.000277459 0.000238509 1.77127e-06
-8.32573e-07 1.77127e-06 -5.99056e-05
0.00034252 0.000114312 -1.72084e-05
0.000114312 -0.000250921 -1.06333e-05
-1.72084e-05 -1.06333e-05 -0.00036626
0.00514453 -0.000164303 -0.000159411
-0.000164303 0.00300179 -1.26443e-05
-0.000159411 -1.26443e-05 0.00298709
0.000374127 5.75158e-05 -1.5074e-05
5.75158e-05 -9.01458e-05 -1.40866e-05
-1.5074e-05 -1.40866e-05 -0.000161421
0.000298043 0.000167471 -1.9784e-05
0.000167471 -0.000243103 -1.68691e-05
-1.9784e-05 -1.68691e-05 -0.000373322
0.00117798 0.000277478 -1.66469e-05
0.000277478 -5.95036e-06 -6.51311e-06
-1.66469e-05 -6.51311e-06 -0.000222197
0.000376288 0.000175688 -2.2925e-05
0.000175688 -0.000132796 -1.98859e-05
-2.2925e-05 -1.98859e-05 -0.0002462
0.000666097 0.000252054 -1.27084e-05
0.000252054 -5.4637e-05 -7.85089e-06
-1.27084e-05 -7.85089e-06 -0.00028829
0.00108525 0.000305653 -2.2174e-05
0.000305653 5.35634e-05 -8.43774e-06
-2.2174e-05 -8.43774e-06 -0.000184693
0.00166658 0.000525661 -6.61818e-06
0.000525661 0.000317298 1.23392e-06
-6.61818e-06 1.23392e-06 -2.02238e-05
0.000479707 0.000143508 -2.11703e-06
0.000143508 -5.16691e-05 1.47609e-06
-2.11703e-06 1.47609e-06 -0.000147163
0.00042612 7.32003e-06 1.13692e-06
7.32003e-06 -3.77931e-05 4.22381e-07
1.13692e-06 4.22381e-07 -9.9788e-05
0.000721101 0.000153658 2.0268e-06
0.000153658 0.000149285 -4.72228e-07
2.0268e-06 -4.72228e-07 -6.06759e-05
0.00123731 0.000242743 -1.6016e-07
0.000242743 -8.32552e-06 -3.03085e-07
-1.6016e-07 -3.03085e-07 -0.000204978
0.00114519 0.000303102 3.48448e-07
0.000303102 2.09483e-05 -2.08833e-07
3.48448e-07 -2.08833e-07 -0.000210288
0.00195877 0.000459296 -3.29127e-07
0.000459296 0.000234802 -1.43094e-07
-3.29127e-07 -1.43094e-07 -1.3871e-05
0.000692934 0.000232022 -3.25532e-07
0.000232022 4.47491e-05 5.14535e-08
-3.25532e-07 5.14535e-08 -0.000183696
0.00190229 0.000539972 -2.89679e-07
0.000539972 0.000364713 -4.16288e-07
-2.89679e-07 -4.16288e-07 4.86167e-05
0.00140853 0.000480991 -2.91244e-07
0.000480991 0.000289323 -1.12849e-06
-2.91244e-07 -1.12849e-06 -6.41268e-05
0.00160046 0.000590066 -8.46128e-07
0.000590066 0.000168118 2.10408e-06
-8.46128e-07 2.10408e-06 -0.000179549
0.000534997 -8.17196e-06 3.34557e-06
-8.17196e-06 3.07787e-05 1.17272e-05
3.34557e-06 1.17272e-05 -1.97359e-05
0.00108191 0.00020524 5.67131e-06
0.00020524 0.000343893 2.63257e-06
5.67131e-06 2.63257e-06 0.000113395
0.00100906 0.000107659 2.7259e-06
0.000107659 0.000329838 5.72457e-06
2.7259e-06 5.72457e-06 0.000160297
0.000866587 0.000221773 -3.53452e-09
0.000221773 0.00025425 1.40637e-06
-3.53452e-09 1.40637e-06 -2.24436e-05
0.00202755 0.000407078 1.55032e-06
0.000407078 0.000217036 -1.81834e-06
1.55032e-06 -1.81834e-06 6.66486e-06
0.00192448 0.000507329 5.35414e-06
0.000507329 0.000290986 -3.87679e-07
5.35414e-06 -3.87679e-07 4.61775e-06
0.00213096 0.000526844 2.47906e-07
0.000526844 0.0002549 -1.37186e-06
2.47906e-07 -1.37186e-06 2.19472e-05
0.000974559 0.00037089 2.51373e-06
0.00037089 0.000101582 -7.59754e-07
2.51373e-06 -7.59754e-07 -0.000208991
0.00231683 0.000657067 -4.13179e-06
0.000657067 0.000520165 -2.84129e-06
-4.13179e-06 -2.84129e-06 0.000199407
0.00196431 0.000650076 -5.86601e-06
0.000650076 0.000530848 -8.45014e-06
-5.86601e-06 -8.45014e-06 0.000115375
0.00201689 0.000639742 -1.65975e-06
0.000639742 0.000332329 -2.47292e-06
-1.65975e-06 -2.47292e-06 -2.56064e-06
0.00057718 5.92878e-05 1.75149e-06
5.92878e-05 7.92448e-05 5.65817e-06
1.75149e-06 5.65817e-06 -7.71244e-06
0.000472805 -7.52766e-06 2.17008e-06
-7.52766e-06 -1.8114e-05 8.30195e-06
2.17008e-06 8.30195e-06 -5.24514e-05
0.00307889 -0.000124049 5.42993e-05
-0.000124049 0.00165833 4.65453e-06
5.42993e-05 4.65453e-06 0.00165629
0.00340007 -0.000153448 9.87554e-06
-0.000153448 0.00187503 -9.57223e-07
9.87554e-06 -9.57223e-07 0.00186495
0.00376565 -0.000188868 -6.52015e-05
-0.000188868 0.00212273 -5.31576e-06
-6.52015e-05 -5.31576e-06 0.00210216
0.00039867 -0.000133999 2.05923e-05
-0.000133999 -6.50844e-05 -1.50373e-05
2.05923e-05 -1.50373e-05 -0.000147854
0.00534232 0.000156955 0.00016139
0.000156955 0.00313672 -1.80261e-05
0.00016139 -1.80261e-05 0.00311745
0.000486814 -0.000153206 1.71e-06
-0.000153206 -3.67429e-05 6.24285e-07
1.71e-06 6.24285e-07 -0.000137563
0.00618434 0.000106147 6.01404e-06
0.000106147 0.00364497 5.79248e-07
6.01404e-06 5.79248e-07 0.00363617
0.000370436 0.00011435 -1.81978e-05
0.00011435 -0.000232825 -8.29556e-06
-1.81978e-05 -8.29556e-06 -0.000343356
0.000345094 3.46005e-05 -1.67715e-05
3.46005e-05 -0.000241065 -3.21394e-06
-1.67715e-05 -3.21394e-06 -0.000334065
0.00117842 0.000159747 -8.33852e-06
0.000159747 -5.96184e-05 -1.65669e-06
-8.33852e-06 -1.65669e-06 -0.000221287
0.00109488 7.86156e-05 -1.1454e-05
7.86156e-05 -7.86073e-05 -6.8878e-07
-1.1454e-05 -6.8878e-07 -0.000215609
0.000409805 -7.5815e-06 -1.88767e-05
-7.5815e-06 -0.000197856 -5.46106e-07
-1.88767e-05 -5.46106e-07 -0.000279795
0.00618673 -0.00010135 -0.000330553
-0.00010135 0.00359452 5.8721e-06
-0.000330553 5.8721e-06 0.00361886
0.000397392 -2.75232e-06 5.16103e-08
-2.75232e-06 -0.000204581 -7.11329e-07
5.16103e-08 -7.11329e-07 -0.000285054
0.00105944 3.6794e-05 -1.31301e-07
3.6794e-05 -8.25468e-05 8.86131e-08
-1.31301e-07 8.86131e-08 -0.000212033
0.00115953 0.00011798 -2.04263e-08
0.00011798 -5.45344e-05 8.57656e-08
-2.04263e-08 8.57656e-08 -0.000201049
0.0019157 0.000117035 -2.35172e-07
0.000117035 6.80502e-05 3.40922e-07
-2.35172e-07 3.40922e-07 -2.72169e-05
0.00124031 0.000200679 -3.0774e-07
0.000200679 -2.32557e-05 -2.67917e-07
-3.0774e-07 -2.67917e-07 -0.00020104
0.00200728 0.000270207 -1.9049e-07
0.000270207 0.000130805 1.27871e-07
-1.9049e-07 1.27871e-07 -1.00869e-05
0.00104689 -4.07292e-06 1.08883e-05
-4.07292e-06 -8.39303e-05 -4.06013e-07
1.08883e-05 -4.06013e-07 -0.000211427
0.00187697 5.79651e-05 2.08354e-06
5.79651e-05 4.82749e-05 3.65454e-08
2.08354e-06 3.65454e-08 -3.89407e-05
0.00198561 0.000193269 7.85719e-07
0.000193269 0.000102055 -1.00474e-06
7.85719e-07 -1.00474e-06 -1.19651e-05
0.002115 0.000146705 5.21988e-06
0.000146705 7.45784e-05 6.96661e-07
5.21988e-06 6.96661e-07 3.35976e-05
0.00203896 0.000343712 9.57592e-07
0.000343712 0.000174796 -1.05952e-06
9.57592e-07 -1.05952e-06 1.13853e-06
0.00204945 0.000295053 2.64873e-06
0.000295053 6.48978e-05 5.48489e-07
2.64873e-06 5.48489e-07 -3.36585e-05
0.000384098 -3.45719e-06 -1.79371e-05
-3.45719e-06 -0.000206407 8.64562e-07
-1.79371e-05 8.64562e-07 -0.00029127
0.00197222 -4.70099e-05 -0.000132742
-4.70099e-05 0.000801243 6.21531e-06
-0.000132742 6.21531e-06 0.000735312
0.00117187 -6.80908e-05 -1.88001e-05
-6.80908e-05 -1.75979e-05 1.59864e-06
-1.88001e-05 1.59864e-06 -0.000145283
0.00195899 -0.00018096 -2.80379e-05
-0.00018096 0.000462455 3.99936e-06
-2.80379e-05 3.99936e-06 0.000306552
0.0070558 5.1319e-05 -0.000280601
5.1319e-05 0.00416155 2.8234e-05
-0.000280601 2.8234e-05 0.00416234
0.00347741 -0.000288664 -0.000168949
-0.000288664 0.00180428 2.69551e-05
-0.000168949 2.69551e-05 0.00169418
0.00189086 -0.000390635 -2.97869e-05
-0.000390635 0.000617768 1.17284e-05
-2.97869e-05 1.17284e-05 0.000351122
0.00205032 -0.000277988 -3.04033e-05
-0.000277988 0.00053524 8.57368e-06
-3.04033e-05 8.57368e-06 0.000348511
0.00217295 -0.000344654 -1.93502e-06
-0.000344654 0.00030259 -3.68128e-07
-1.93502e-06 -3.68128e-07 0.00013521
0.00200387 -0.000438139 -3.82436e-06
-0.000438139 0.000295462 1.00746e-06
-3.82436e-06 1.00746e-06 4.99168e-05
0.00191426 -0.000527878 -8.53743e-06
-0.000527878 0.000351791 5.15669e-07
-8.53743e-06 5.15669e-07 3.3909e-05
0.00207266 -0.00054569 -6.80019e-07
-0.00054569 0.000289568 -2.10272e-06
-6.80019e-07 -2.10272e-06 2.83471e-05
0.000416319 -0.000186426 -2.20384e-05
-0.000186426 -0.000100026 1.94968e-05
-2.20384e-05 1.94968e-05 -0.000215988
0.000637746 -0.000224214 1.6269e-07
-0.000224214 8.84103e-05 1.07204e-06
1.6269e-07 1.07204e-06 -0.000161839
0.00110362 -3.12952e-05 4.71461e-07
-3.12952e-05 -5.05357e-05 5.1648e-08
4.71461e-07 5.1648e-08 -0.000175487
0.00194136 -0.000126866 -1.01602e-05
-0.000126866 0.000462991 1.34159e-06
-1.01602e-05 1.34159e-06 0.000331224
0.00187579 -0.000125064 8.87201e-07
-0.000125064 6.13624e-05 -2.36456e-07
8.87201e-07 -2.36456e-07 -4.21773e-05
0.00192898 -0.000271021 -2.56821e-06
-0.000271021 0.000121174 8.69232e-07
-2.56821e-06 8.69232e-07 -2.58966e-05
0.000412729 -0.000202193 3.9395e-07
-0.000202193 -0.000116289 2.84617e-07
3.9395e-07 2.84617e-07 -0.000242727
0.000762246 -0.000280743 -6.98809e-07
-0.000280743 -3.17512e-06 5.42541e-08
-6.98809e-07 5.42541e-08 -0.000256366
0.00158858 -0.000548574 2.10848e-06
-0.000548574 0.000242985 -2.86438e-07
2.10848e-06 -2.86438e-07 -0.000122453
0.00193593 -0.000389055 -2.76514e-06
-0.000389055 0.000197855 8.59861e-07
-2.76514e-06 8.59861e-07 -1.26278e-05
0.00210682 -0.000377751 2.32495e-06
-0.000377751 0.000155538 -8.41588e-07
2.32495e-06 -8.41588e-07 2.31468e-05
0.00226732 -0.000616432 -5.38986e-07
-0.000616432 0.000469205 -8.61053e-07
-5.38986e-07 -8.61053e-07 0.000150622
0.00206312 -0.000500494 5.18214e-07
-0.000500494 0.000223649 4.85608e-08
5.18214e-07 4.85608e-08 7.14031e-06
0.00213502 -0.00057351 7.17933e-07
-0.00057351 0.000281146 8.87864e-07
7.17933e-07 8.87864e-07 4.75171e-05
0.000634864 -0.000212488 3.07115e-07
-0.000212488 5.87652e-05 -6.57284e-07
3.07115e-07 -6.57284e-07 -0.000203039
0.000729091 -0.000221528 1.25585e-06
-0.000221528 9.70165e-05 8.2967e-07
1.25585e-06 8.2967e-07 -0.000183081
0.00072128 -0.000154809 6.28786e-07
-0.000154809 0.00017566 9.74561e-08
6.28786e-07 9.74561e-08 -5.69978e-05
0.00182714 -5.88758e-05 1.9852e-06
-5.88758e-05 3.52618e-05 -1.79202e-07
1.9852e-06 -1.79202e-07 -6.2962e-05
0.00198338 -0.000194329 -4.54666e-07
-0.000194329 0.000132668 5.90138e-07
-4.54666e-07 5.90138e-07 1.52846e-05
0.00200935 -0.000136961 7.37357e-06
-0.000136961 2.88141e-05 -7.70021e-07
7.37357e-06 -7.70021e-07 -2.6305e-05
0.00209749 -0.000311721 2.25356e-06
-0.000311721 0.000111319 -1.17439e-06
2.25356e-06 -1.17439e-06 1.51968e-05
0.00200373 -0.000446392 2.04905e-07
-0.000446392 0.000133499 1.34499e-06
2.04905e-07 1.34499e-06 -3.86971e-05
0.00212208 -0.000394819 4.03943e-06
-0.000394819 9.82052e-05 -1.28734e-06
4.03943e-06 -1.28734e-06 1.11584e-05
0.000622055 -0.000244645 7.62931e-06
-0.000244645 -1.32318e-06 -7.97721e-06
7.62931e-06 -7.97721e-06 -0.000247014
0.00203095 -0.000527862 1.09777e-06
-0.000527862 0.000156471 6.90173e-07
1.09777e-06 6.90173e-07 -3.37055e-05
0.00142586 -0.000515834 1.16377e-05
-0.000515834 0.000296305 -3.77666e-06
1.16377e-05 -3.77666e-06 -8.05828e-05
0.0019752 -0.000693525 7.90915e-06
-0.000693525 0.000376904 2.44852e-06
7.90915e-06 2.44852e-06 -2.58983e-05
0.00233334 -0.000644799 6.40847e-06
-0.000644799 0.000471343 3.48831e-06
6.40847e-06 3.48831e-06 0.000170515
0.00233599 -0.000603409 1.67993e-07
-0.000603409 0.000420921 1.88277e-06
1.67993e-07 1.88277e-06 0.000193342
0.000420814 -0.000120855 -4.83078e-07
-0.000120855 8.81643e-06 -5.7138e-06
-4.83078e-07 -5.7138e-06 -0.000192833
0.00137797 -0.000343547 1.53483e-07
-0.000343547 0.000438765 -5.25426e-06
1.53483e-07 -5.25426e-06 0.000153014
0.000574842 -0.000220666 -1.30104e-06
-0.000220666 0.000118 4.84462e-06
-1.30104e-06 4.84462e-06 -0.000217756
0.00177946 -0.000425698 -4.39514e-06
-0.000425698 0.000722601 2.48342e-06
-4.39514e-06 2.48342e-06 0.0003856
0.00120547 0.000242334 -1.26865e-05
0.000242334 -2.31528e-05 -4.73025e-06
-1.26865e-05 -4.73025e-06 -0.000220972
0.000329561 -1.89418e-05 -1.8948e-08
-1.89418e-05 -8.3055e-05 -1.43296e-05
-1.8948e-08 -1.43296e-05 -0.000150596
0.00043982 0.000115959 -2.28979e-05
0.000115959 -7.2656e-05 -1.47825e-05
-2.28979e-05 -1.47825e-05 -0.000164299
-3.58653e-05 0.000115377 -3.561e-06
0.000115377 -0.000311205 -1.77409e-06
-3.561e-06 -1.77409e-06 -0.000528644
0.00112185 0.000301102 -2.08591e-05
0.000301102 1.18691e-05 -7.91833e-06
-2.08591e-05 -7.91833e-06 -0.000219758
0.00193153 0.000457066 -3.91245e-06
0.000457066 0.000216639 3.87936e-07
-3.91245e-06 3.87936e-07 -3.19936e-05
0.000540915 0.000215446 -7.0266e-06
0.000215446 -5.1673e-05 -3.73927e-06
-7.0266e-06 -3.73927e-06 -0.000272755
0.00138962 0.000482374 -4.88863e-06
0.000482374 0.000272362 3.30983e-07
-4.88863e-06 3.30983e-07 -8.15895e-05
0.00190892 0.000538326 -6.34385e-06
0.000538326 0.000364557 1.0202e-06
-6.34385e-06 1.0202e-06 4.73943e-05
0.00157549 0.000594656 4.35386e-06
0.000594656 0.000141443 8.47683e-06
4.35386e-06 8.47683e-06 -0.000203857
0.00043597 -2.28328e-05 -3.75424e-06
-2.28328e-05 -2.28795e-05 8.98554e-07
-3.75424e-06 8.98554e-07 -7.64837e-05
0.000634469 0.000213419 -1.43211e-06
0.000213419 7.89738e-05 -7.65412e-07
-1.43211e-06 -7.65412e-07 -0.000159505
0.000638493 9.20009e-05 1.15671e-06
9.20009e-05 0.000100179 -4.93403e-07
1.15671e-06 -4.93403e-07 -6.43066e-05
0.000795851 0.000207119 -7.65515e-07
0.000207119 0.000188467 3.75704e-07
-7.65515e-07 3.75704e-07 -7.39855e-05
0.00200744 0.000405275 -1.49802e-06
0.000405275 0.000203862 -1.18965e-06
-1.49802e-06 -1.18965e-06 -6.56142e-06
0.00189471 0.000505735 -5.43113e-07
0.000505735 0.000271466 -2.57554e-07
-5.43113e-07 -2.57554e-07 -1.52806e-05
0.00210666 0.000523197 2.21939e-07
0.000523197 0.000243806 2.00561e-07
2.21939e-07 2.00561e-07 1.17497e-05
0.00119618 0.000384321 3.35748e-06
0.000384321 0.000257938 -1.27677e-07
3.35748e-06 -1.27677e-07 -5.29285e-05
0.00221142 0.000640017 6.1708e-07
0.000640017 0.00046405 5.80342e-07
6.1708e-07 5.80342e-07 0.00014402
0.00170671 0.00062244 -1.04818e-06
0.00062244 0.000374206 -1.91987e-06
-1.04818e-06 -1.91987e-06 -3.72539e-05
0.00201338 0.000627348 -5.11877e-06
0.000627348 0.000335565 2.26484e-06
-5.11877e-06 2.26484e-06 1.02227e-05
0.000543518 -1.34073e-05 2.2276e-06
-1.34073e-05 3.1537e-05 9.56886e-06
2.2276e-06 9.56886e-06 -9.1547e-06
0.000936226 8.15552e-05 1.19086e-06
8.15552e-05 0.00029596 7.50191e-06
1.19086e-06 7.50191e-06 0.0001626
0.000718548 0.000252842 -1.21199e-06
0.000252842 3.31826e-05 2.15733e-06
-1.21199e-06 2.15733e-06 -0.000221144
0.00153426 0.00019471 1.33971e-06
0.00019471 0.000738625 -1.48792e-06
1.33971e-06 -1.48792e-06 0.000456445
0.00108298 0.000280936 -2.94304e-06
0.000280936 0.000316591 5.49439e-06
-2.94304e-06 5.49439e-06 7.35824e-05
0.00217097 0.000465635 1.90663e-07
0.000465635 0.000210937 -3.0913e-06
1.90663e-07 -3.0913e-06 2.37749e-05
0.00211445 0.000590265 -1.29464e-06
0.000590265 0.000316901 -1.81196e-06
-1.29464e-06 -1.81196e-06 3.66097e-05
0.00212333 0.000572623 -2.74421e-06
0.000572623 0.000235007 -1.60407e-06
-2.74421e-06 -1.60407e-06 7.45996e-06
0.00153451 0.000578913 3.97146e-06
0.000578913 0.000448134 -1.73563e-06
3.97146e-06 -1.73563e-06 3.02673e-05
0.00239052 0.000701181 -3.69446e-06
0.000701181 0.000512485 -2.50391e-06
-3.69446e-06 -2.50391e-06 0.00019467
0.00167981 0.000668071 6.96045e-06
0.000668071 0.000289749 -4.72988e-06
6.96045e-06 -4.72988e-06 -0.000111339
0.000549636 5.4616e-05 1.58374e-06
5.4616e-05 5.57998e-05 5.87748e-06
1.58374e-06 5.87748e-06 -3.74054e-05
0.000701843 0.000121221 -7.01905e-07
0.000121221 0.000204414 3.16535e-06
-7.01905e-07 3.16535e-06 5.69012e-05
0.000597868 6.36202e-05 1.28659e-06
6.36202e-05 9.76016e-05 5.07033e-06
1.28659e-06 5.07033e-06 1.63103e-05
0.000524621 1.69568e-05 -6.47064e-07
1.69568e-05 4.64699e-05 -6.88106e-08
-6.47064e-07 -6.88106e-08 -4.01121e-05
0.00140481 -2.85829e-05 1.67101e-06
-2.85829e-05 0.000574685 4.95575e-06
1.67101e-06 4.95575e-06 0.00054777
0.000924943 -2.09063e-05 2.15235e-07
-2.09063e-05 0.000270449 -1.47245e-07
2.15235e-07 -1.47245e-07 0.000238305
0.000858623 -4.5843e-05 3.97277e-05
-4.5843e-05 0.000229332 1.02457e-05
3.97277e-05 1.02457e-05 0.000226063
0.00303941 -0.000129695 8.62944e-06
-0.000129695 0.00163419 -8.20809e-07
8.62944e-06 -8.20809e-07 0.00163058
0.00328737 -0.000157037 -5.19841e-05
-0.000157037 0.00180453 -4.65539e-06
-5.19841e-05 -4.65539e-06 0.00179334
0.000353968 -7.89801e-05 1.1323e-05
-7.89801e-05 -7.24475e-05 -1.25224e-05
1.1323e-05 -1.25224e-05 -0.000137553
0.00469531 0.000177158 0.00011314
0.000177158 0.00273026 -1.29004e-05
0.00011314 -1.29004e-05 0.00270681
0.000521311 -0.00012609 -7.463e-07
-0.00012609 1.3372e-05 8.8548e-07
-7.463e-07 8.8548e-07 -7.53355e-05
0.00561996 0.000134817 -4.94044e-06
0.000134817 0.00330824 1.07678e-07
-4.94044e-06 1.07678e-07 0.00329275
0.000484878 -0.000152777 -2.14959e-05
-0.000152777 -4.07935e-05 1.69569e-05
-2.14959e-05 1.69569e-05 -0.00014414
0.00641147 0.000110331 -0.000233873
0.000110331 0.00379241 2.65105e-05
-0.000233873 2.65105e-05 0.00378103
0.00118384 0.000200523 -9.20603e-06
0.000200523 -5.42298e-05 -3.02675e-06
-9.20603e-06 -3.02675e-06 -0.000233385
0.00116704 0.00012184 -1.08588e-05
0.00012184 -5.47886e-05 -9.71375e-07
-1.08588e-05 -9.71375e-07 -0.000202397
0.00197543 0.000264469 -1.04999e-06
0.000264469 0.000113182 1.29673e-06
-1.04999e-06 1.29673e-06 -2.68262e-05
0.00194167 0.000115866 -1.41053e-06
0.000115866 9.42006e-05 1.17366e-06
-1.41053e-06 1.17366e-06 -9.04119e-07
0.00103311 4.15902e-05 -1.07919e-05
4.15902e-05 -0.000101313 4.71801e-08
-1.07919e-05 4.71801e-08 -0.000231357
0.000356923 2.88073e-05 -1.86851e-05
2.88073e-05 -0.000232249 -6.27737e-07
-1.86851e-05 -6.27737e-07 -0.000311214
0.00104162 -5.15855e-08 -3.87556e-08
-5.15855e-08 -8.71859e-05 -3.65303e-08
-3.87556e-08 -3.65303e-08 -0.000214696
0.00190111 5.87464e-05 -3.61517e-08
5.87464e-05 6.75661e-05 1.78515e-07
-3.61517e-08 1.78515e-07 -1.96284e-05
0.00197612 0.000188762 -1.1353e-07
0.000188762 0.000103604 1.83756e-08
-1.1353e-07 1.83756e-08 -9.79225e-06
0.00211411 0.000142953 -1.79618e-07
0.000142953 6.49971e-05 2.4168e-08
-1.79618e-07 2.4168e-08 2.8215e-05
0.00202198 0.000341007 -5.67314e-07
0.000341007 0.000166214 -2.84563e-08
-5.67314e-07 -2.84563e-08 -7.01375e-06
0.00208781 0.000298428 -3.16465e-07
0.000298428 9.18577e-05 4.17858e-07
-3.16465e-07 4.17858e-07 -7.97704e-06
0.00189162 -4.37596e-07 2.33734e-06
-4.37596e-07 6.84702e-05 9.04209e-08
2.33734e-06 9.04209e-08 -1.75972e-05
0.0020847 6.94443e-05 4.2002e-06
6.94443e-05 5.18927e-05 3.52775e-07
4.2002e-06 3.52775e-07 2.21864e-05
0.002063 0.000215076 4.12297e-06
0.000215076 5.20597e-05 1.01676e-06
4.12297e-06 1.01676e-06 -8.59961e-06
0.00203093 0.000127962 5.36689e-06
0.000127962 -3.09811e-06 8.24061e-07
5.36689e-06 8.24061e-07 -1.57819e-05
0.0021645 0.000391854 1.7514e-06
0.000391854 0.000167874 -6.76703e-07
1.7514e-06 -6.76703e-07 2.4656e-05
0.00214458 0.000314061 2.51802e-06
0.000314061 2.51235e-05 6.71583e-07
2.51802e-06 6.71583e-07 -1.43704e-05
0.00111914 -2.73385e-05 -1.16938e-05
-2.73385e-05 -4.18582e-05 7.42462e-07
-1.16938e-05 7.42462e-07 -0.000162935
0.0019387 -0.000127491 -2.82581e-05
-0.000127491 0.000458487 2.91693e-06
-2.82581e-05 2.91693e-06 0.000326863
0.00197004 -0.000121318 -2.09325e-06
-0.000121318 0.000119481 -3.56671e-07
-2.09325e-06 -3.56671e-07 2.15196e-05
0.00191368 -0.000270869 -2.89635e-06
-0.000270869 0.000116197 6.90097e-07
-2.89635e-06 6.90097e-07 -3.92735e-05
0.000554091 -0.000235261 -2.6605e-05
-0.000235261 -2.78299e-05 2.1848e-05
-2.6605e-05 2.1848e-05 -0.000155722
0.000827996 -0.00029209 -1.33269e-05
-0.00029209 3.37823e-05 9.32732e-06
-1.33269e-05 9.32732e-06 -0.000223829
0.00158976 -0.000549569 -1.07619e-05
-0.000549569 0.000245878 2.18627e-06
-1.07619e-05 2.18627e-06 -0.00012217
0.00196413 -0.000388712 -4.46834e-06
-0.000388712 0.000220024 1.25153e-06
-4.46834e-06 1.25153e-06 6.72519e-06
0.00211802 -0.000380062 -2.46587e-07
-0.000380062 0.000155375 -2.16565e-07
-2.46587e-07 -2.16565e-07 2.9218e-05
0.00210594 -0.000503657 -1.36666e-06
-0.000503657 0.000252102 -1.06765e-06
-1.36666e-06 -1.06765e-06 3.4812e-05
0.00230946 -0.000623386 -2.62568e-06
-0.000623386 0.000492071 -4.36617e-06
-2.62568e-06 -4.36617e-06 0.00017561
0.00194327 -0.000560314 2.61469e-07
-0.000560314 0.000153812 -1.9997e-06
2.61469e-07 -1.9997e-06 -7.89528e-05
0.001046 -0.000241078 -6.25156e-06
-0.000241078 0.000310631 5.60447e-06
-6.25156e-06 5.60447e-06 5.17614e-05
0.000403501 -0.000175717 2.84827e-06
-0.000175717 -0.000119162 4.61418e-07
2.84827e-06 4.61418e-07 -0.00039333
0.000469886 -0.000186155 -2.08847e-07
-0.000186155 1.79525e-05 1.25145e-06
-2.08847e-07 1.25145e-06 -0.000215367
0.00188084 -5.56622e-05 1.10293e-06
-5.56622e-05 6.74708e-05 -9.86e-08
1.10293e-06 -9.86e-08 -2.62969e-05
0.00194177 -0.000201126 -1.73469e-06
-0.000201126 0.000105976 1.96056e-08
-1.73469e-06 1.96056e-08 -1.24267e-05
0.00205851 -0.000135261 2.04085e-06
-0.000135261 5.42912e-05 -2.81309e-07
2.04085e-06 -2.81309e-07 5.72057e-06
0.00203517 -0.000300188 -1.27029e-06
-0.000300188 7.72729e-05 4.67973e-07
-1.27029e-06 4.67973e-07 -2.12901e-05
0.000740155 -0.000259164 9.43855e-07
-0.000259164 7.12514e-05 -4.07919e-07
9.43855e-07 -4.07919e-07 -0.000180884
0.00151552 -0.000528343 -6.89567e-07
-0.000528343 0.000348159 -4.31461e-07
-6.89567e-07 -4.31461e-07 -3.09656e-05
0.00188044 -0.000682891 5.54789e-07
-0.000682891 0.000331402 1.11712e-06
5.54789e-07 1.11712e-06 -7.36948e-05
0.00195879 -0.000441263 -9.90882e-07
-0.000441263 0.000110549 9.51685e-07
-9.90882e-07 9.51685e-07 -6.75707e-05
0.00212851 -0.000400431 4.48566e-07
-0.000400431 9.10981e-05 -2.92489e-07
4.48566e-07 -2.92489e-07 8.70999e-06
0.00218788 -0.000638756 -3.05533e-07
-0.000638756 0.000366056 3.79453e-07
-3.05533e-07 3.79453e-07 6.47604e-05
0.00202544 -0.000526322 -4.45414e-07
-0.000526322 0.000150197 8.32793e-07
-4.45414e-07 8.32793e-07 -3.99671e-05
0.00225355 -0.000586862 6.1808e-07
-0.000586862 0.000360549 -4.21149e-07
6.1808e-07 -4.21149e-07 0.000139672
0.00103678 -0.000323403 -1.68504e-06
-0.000323403 0.000236207 5.58185e-07
-1.68504e-06 5.58185e-07 -5.74459e-05
0.00104251 -0.000347684 -1.61102e-06
-0.000347684 0.000248288 2.15597e-06
-1.61102e-06 2.15597e-06 -7.69386e-05
0.000694974 -0.00014051 9.08868e-08
-0.00014051 0.000176056 -8.93671e-07
9.08868e-08 -8.93671e-07 -2.85685e-05
0.000132289 -0.000142162 2.30178e-06
-0.000142162 -0.000192059 -1.41167e-06
2.30178e-06 -1.41167e-06 -0.000497456
0.00208648 -7.22153e-05 6.58782e-06
-7.22153e-05 7.63489e-05 -3.63388e-07
6.58782e-06 -3.63388e-07 3.71348e-05
0.00198928 -0.000218744 4.60639e-06
-0.000218744 6.60001e-06 -1.12997e-06
4.60639e-06 -1.12997e-06 -6.52616e-05
0.00203757 -0.000126581 6.5272e-06
-0.000126581 3.87066e-05 -8.70403e-07
6.5272e-06 -8.70403e-07 2.8766e-05
0.00211005 -0.000323268 1.31266e-06
-0.000323268 2.95097e-05 -6.37592e-07
1.31266e-06 -6.37592e-07 -3.11191e-06
0.00205122 -0.000473706 5.44959e-08
-0.000473706 0.000108842 -5.8417e-07
5.44959e-08 -5.8417e-07 -3.21124e-05
0.00216757 -0.000419221 3.67788e-06
-0.000419221 7.29937e-05 -1.35025e-06
3.67788e-06 -1.35025e-06 8.04334e-06
0.00137355 -0.000442762 7.49799e-06
-0.000442762 0.000390905 -5.74904e-06
7.49799e-06 -5.74904e-06 4.34694e-05
0.00206395 -0.000562452 -1.92693e-06
-0.000562452 0.00014455 1.3062e-07
-1.92693e-06 1.3062e-07 -2.14858e-05
0.00172179 -0.000701708 -6.81864e-06
-0.000701708 0.000403625 4.53416e-06
-6.81864e-06 4.53416e-06 -5.11377e-05
0.00212975 -0.000750096 6.49447e-06
-0.000750096 0.000428726 2.83452e-06
6.49447e-06 2.83452e-06 1.98757e-05
0.00214224 -0.000646467 4.14769e-06
-0.000646467 0.000298488 3.62313e-06
4.14769e-06 3.62313e-06 6.251e-06
0.00229146 -0.000623432 -8.71436e-06
-0.000623432 0.00034891 -1.65885e-06
-8.71436e-06 -1.65885e-06 0.000116595
0.000500642 -0.000127834 -1.82044e-06
-0.000127834 4.5491e-05 -6.57957e-06
-1.82044e-06 -6.57957e-06 -0.00010926
-7.57867e-05 -0.000142691 -2.52531e-06
-0.000142691 -0.000217169 -1.08392e-06
-2.52531e-06 -1.08392e-06 -0.000556581
0.00129144 -0.000461828 -1.22178e-06
-0.000461828 0.000374589 -3.51718e-06
-1.22178e-06 -3.51718e-06 3.78714e-06
0.00261319 -0.000453681 -2.71158e-06
-0.000453681 0.00132066 9.2417e-06
-2.71158e-06 9.2417e-06 0.000975633
0.00158618 -0.000471923 -1.54474e-05
-0.000471923 0.000603448 8.1959e-06
-1.54474e-05 8.1959e-06 0.000207704
0.000274175 -2.9228e-05 -1.64502e-06
-2.9228e-05 -0.000122482 -1.09963e-05
-1.64502e-06 -1.09963e-05 -0.000174949
0.00198395 0.000402954 -3.96784e-06
0.000402954 0.000189073 -2.91714e-07
-3.96784e-06 -2.91714e-07 -2.12943e-05
0.00028522 4.97594e-05 -3.65973e-07
4.97594e-05 -0.000109981 -6.79394e-06
-3.65973e-07 -6.79394e-06 -0.000272257
0.000299514 0.000208237 -7.03355e-06
0.000208237 -0.000157874 2.65496e-07
-7.03355e-06 2.65496e-07 -0.000377062
0.000606207 0.000193311 -8.53147e-07
0.000193311 4.96e-05 2.85877e-06
-8.53147e-07 2.85877e-06 -0.000197833
0.00185474 0.00050338 -5.14256e-06
0.00050338 0.000245237 3.47169e-07
-5.14256e-06 3.47169e-07 -4.18057e-05
0.00208431 0.000519844 1.01233e-06
0.000519844 0.000233435 1.95762e-06
1.01233e-06 1.95762e-06 2.20727e-06
0.00138004 0.000418627 -1.48284e-06
0.000418627 0.000396972 -3.15464e-06
-1.48284e-06 -3.15464e-06 7.31849e-05
0.00159023 0.000619097 1.35205e-06
0.000619097 0.000295709 4.57233e-06
1.35205e-06 4.57233e-06 -0.000119246
0.00208779 0.000620392 2.07884e-06
0.000620392 0.000395081 4.13128e-06
2.07884e-06 4.13128e-06 7.65134e-05
0.00205953 0.000625476 5.96958e-06
0.000625476 0.000367235 1.13644e-05
5.96958e-06 1.13644e-05 4.77928e-05
0.000447822 -9.20702e-06 -8.37235e-07
-9.20702e-06 -2.76579e-05 2.68459e-07
-8.37235e-07 2.68459e-07 -6.76592e-05
0.000589862 5.97747e-05 -3.50698e-07
5.97747e-05 8.37579e-05 4.77929e-07
-3.50698e-07 4.77929e-07 -4.5511e-05
0.000906377 0.000288467 1.61472e-06
0.000288467 0.000162192 1.73256e-06
1.61472e-06 1.73256e-06 -9.52405e-05
0.000617213 0.000137763 7.26604e-07
0.000137763 0.000149046 -1.496e-06
7.26604e-07 -1.496e-06 -0.000119904
0.000417401 0.000199395 -1.14e-06
0.000199395 -0.000132104 3.3968e-06
-1.14e-06 3.3968e-06 -0.000354363
0.002147 0.000464156 -1.94456e-06
0.000464156 0.000196413 -1.95246e-06
-1.94456e-06 -1.95246e-06 9.63452e-06
0.00207525 0.000585623 5.06877e-07
0.000585623 0.00029514 1.84828e-07
5.06877e-07 1.84828e-07 1.59703e-05
0.00206488 0.000568941 1.64967e-06
0.000568941 0.00020061 1.31667e-07
1.64967e-06 1.31667e-07 -2.66615e-05
0.00154343 0.000579995 1.76809e-06
0.000579995 0.000457931 -5.01084e-07
1.76809e-06 -5.01084e-07 3.62843e-05
0.00228424 0.00068941 2.59947e-06
0.00068941 0.000430323 4.87887e-07
2.59947e-06 4.87887e-07 0.000112744
0.00203171 0.00070476 -4.07263e-06
0.00070476 0.000515126 7.34417e-08
-4.07263e-06 7.34417e-08 0.000109147
0.000642186 6.25044e-05 9.68182e-07
6.25044e-05 0.000114692 6.06861e-06
9.68182e-07 6.06861e-06 9.11007e-06
0.00174608 0.000214164 -1.92596e-08
0.000214164 0.000881916 1.14277e-06
-1.92596e-08 1.14277e-06 0.000650114
0.00109013 0.000415125 -9.93977e-07
0.000415125 0.000275813 5.51375e-06
-9.93977e-07 5.51375e-06 -4.7535e-05
0.00110638 0.000148078 5.27568e-06
0.000148078 0.00037811 -1.54669e-06
5.27568e-06 -1.54669e-06 0.000119596
0.00298631 0.000431273 -4.04707e-06
0.000431273 0.00138967 3.30796e-07
-4.04707e-06 3.30796e-07 0.00112111
0.00213519 0.000489566 -3.87985e-06
0.000489566 0.000156918 -2.13825e-06
-3.87985e-06 -2.13825e-06 -1.6229e-05
0.00210113 0.000639074 -2.80038e-06
0.000639074 0.000275872 -1.39029e-06
-2.80038e-06 -1.39029e-06 -1.41461e-06
0.00203004 0.000622294 3.67061e-06
0.000622294 0.000137048 -4.25652e-07
3.67061e-06 -4.25652e-07 -0.00010284
0.00115716 0.000615193 1.16505e-05
0.000615193 0.000236678 -4.88999e-06
1.16505e-05 -4.88999e-06 -0.000220168
0.00171342 0.000695121 1.26168e-05
0.000695121 0.000206801 -2.15552e-06
1.26168e-05 -2.15552e-06 -0.000161039
0.000583648 4.91226e-05 -3.81314e-07
4.91226e-05 7.56447e-05 1.45258e-07
-3.81314e-07 1.45258e-07 -1.60239e-05
0.000371238 8.48576e-05 1.17705e-06
8.48576e-05 -3.89609e-05 3.209e-06
1.17705e-06 3.209e-06 -0.000172278
0.000225859 6.85153e-05 1.27411e-07
6.85153e-05 -0.000117461 -5.06448e-07
1.27411e-07 -5.06448e-07 -0.000246739
0.00124462 0.000190385 -2.17516e-06
0.000190385 0.000556365 -1.48076e-06
-2.17516e-06 -1.48076e-06 0.000387077
0.000779343 0.000132764 -3.62839e-08
0.000132764 0.00025796 3.09529e-06
-3.62839e-08 3.09529e-06 0.000118902
0.000539439 7.11977e-05 1.84361e-06
7.11977e-05 6.63227e-05 4.18337e-06
1.84361e-06 4.18337e-06 -1.17655e-05
0.000517497 2.07179e-05 -8.65111e-07
2.07179e-05 4.80186e-05 9.19366e-09
-8.65111e-07 9.19366e-09 -3.25164e-05
0.00132736 -1.30107e-05 1.5033e-06
-1.30107e-05 0.000524504 4.25405e-06
1.5033e-06 4.25405e-06 0.000502053
0.000530023 3.68621e-05 -4.59933e-07
3.68621e-05 4.37186e-05 -5.6775e-06
-4.59933e-07 -5.6775e-06 -3.8712e-05
0.00139883 -2.14608e-05 -9.30468e-06
-2.14608e-05 0.000569709 -1.72052e-06
-9.30468e-06 -1.72052e-06 0.000544974
0.000763749 -3.21775e-05 3.72477e-05
-3.21775e-05 0.000162879 1.00043e-05
3.72477e-05 1.00043e-05 0.000164385
0.00143629 -2.72322e-05 -1.7608e-05
-2.72322e-05 0.000597347 -6.50222e-06
-1.7608e-05 -6.50222e-06 0.000568983
0.00184074 -7.62743e-05 3.84552e-05
-7.62743e-05 0.000859208 1.37311e-06
3.84552e-05 1.37311e-06 0.000858123
0.00295089 -0.000126766 -4.37913e-05
-0.000126766 0.0015769 -4.79501e-06
-4.37913e-05 -4.79501e-06 0.00157386
0.000275924 6.69535e-05 -5.13411e-06
6.69535e-05 -9.43942e-05 -9.68114e-06
-5.13411e-06 -9.68114e-06 -0.000154412
0.000408316 -6.00086e-05 -5.95213e-07
-6.00086e-05 -3.50066e-05 5.46078e-07
-5.95213e-07 5.46078e-07 -0.000106755
0.00380822 0.000191957 2.048e-05
0.000191957 0.00215421 -7.64021e-06
2.048e-05 -7.64021e-06 0.00212797
0.00485305 0.000137195 -1.70795e-05
0.000137195 0.00282428 -1.72845e-06
-1.70795e-05 -1.72845e-06 0.00280958
0.00052672 -0.000130578 -1.9226e-05
-0.000130578 1.24828e-05 1.43679e-05
-1.9226e-05 1.43679e-05 -7.92092e-05
0.00582023 0.000137023 -0.000198304
0.000137023 0.00344346 2.64527e-05
-0.000198304 2.64527e-05 0.00342345
0.00200328 0.000338493 -1.89699e-06
0.000338493 0.000156151 1.22641e-06
-1.89699e-06 1.22641e-06 -1.67166e-05
0.00193419 0.000186561 -8.16652e-07
0.000186561 8.29713e-05 1.25065e-06
-8.16652e-07 1.25065e-06 -3.05616e-05
0.00210966 0.000302264 -2.58501e-06
0.000302264 0.00010665 4.5327e-07
-2.58501e-06 4.5327e-07 5.37364e-06
0.00211457 0.000139229 -4.7079e-06
0.000139229 5.57923e-05 -6.44491e-07
-4.7079e-06 -6.44491e-07 2.32002e-05
0.00192932 6.07679e-05 -2.12788e-06
6.07679e-05 9.00844e-05 3.53068e-07
-2.12788e-06 3.53068e-07 2.91097e-06
0.0010512 4.7178e-06 -1.05503e-05
4.7178e-06 -8.10875e-05 2.16547e-07
-1.05503e-05 2.16547e-07 -0.000208479
0.00189606 2.52895e-06 1.00125e-07
2.52895e-06 7.19546e-05 1.36565e-07
1.00125e-07 1.36565e-07 -1.41878e-05
0.00207882 6.06679e-05 -7.14216e-07
6.06679e-05 5.10863e-05 -2.1142e-08
-7.14216e-07 -2.1142e-08 2.12221e-05
0.00210215 0.00021623 7.49764e-08
0.00021623 7.34103e-05 1.94622e-07
7.49764e-08 1.94622e-07 1.2641e-05
0.0020383 0.000128256 5.56774e-08
0.000128256 -4.85511e-06 8.40504e-08
5.56774e-08 8.40504e-08 -1.25266e-05
0.00213674 0.000392505 -4.18333e-07
0.000392505 0.00014399 1.10474e-07
-4.18333e-07 1.10474e-07 5.42894e-07
0.00211953 0.000305909 1.58833e-07
0.000305909 1.03019e-05 1.11099e-07
1.58833e-07 1.11099e-07 -2.9537e-05
0.00206139 -5.90922e-06 5.19222e-06
-5.90922e-06 4.79847e-05 1.12461e-07
5.19222e-06 1.12461e-07 1.61422e-05
0.00205507 5.56817e-05 4.68219e-06
5.56817e-05 2.07287e-05 2.69991e-07
4.68219e-06 2.69991e-07 2.38678e-05
0.00208493 0.00020515 1.73837e-06
0.00020515 -1.48151e-06 1.95209e-07
1.73837e-06 1.95209e-07 -1.61633e-05
0.00213549 0.000133738 9.08564e-07
0.000133738 -9.04348e-06 3.74236e-07
9.08564e-07 3.74236e-07 1.17597e-05
0.00209938 0.000390644 1.03081e-06
0.000390644 5.96777e-05 3.00806e-07
1.03081e-06 3.00806e-07 -4.60374e-05
0.00229731 0.000310908 1.75996e-06
0.000310908 4.41262e-05 3.51808e-07
1.75996e-06 3.51808e-07 4.02145e-05
0.0019284 -5.23564e-05 -2.09768e-06
-5.23564e-05 9.62631e-05 -1.5058e-07
-2.09768e-06 -1.5058e-07 6.98048e-06
0.00192156 -0.000206743 -2.81872e-06
-0.000206743 9.17169e-05 -2.89101e-07
-2.81872e-06 -2.89101e-07 -2.7316e-05
0.00207696 -0.000133628 -2.9676e-06
-0.000133628 5.97038e-05 1.74908e-07
-2.9676e-06 1.74908e-07 1.73995e-05
0.00199105 -0.000289991 -3.80884e-06
-0.000289991 5.64593e-05 1.01854e-06
-3.80884e-06 1.01854e-06 -4.45107e-05
0.000729986 -0.000261424 -1.05975e-05
-0.000261424 6.0651e-05 9.34289e-06
-1.05975e-05 9.34289e-06 -0.000194605
0.00146002 -0.000520304 -1.20023e-05
-0.000520304 0.000316839 2.80527e-06
-1.20023e-05 2.80527e-06 -5.88512e-05
0.00168269 -0.000660282 1.005e-06
-0.000660282 0.000227171 -2.11518e-06
1.005e-06 -2.11518e-06 -0.000178088
0.00191127 -0.000435923 -2.40983e-06
-0.000435923 8.65466e-05 5.57047e-07
-2.40983e-06 5.57047e-07 -9.77036e-05
0.00212626 -0.000405063 -2.0144e-06
-0.000405063 7.92844e-05 6.83852e-07
-2.0144e-06 6.83852e-07 1.29742e-06
0.00202456 -0.000524801 -1.14054e-06
-0.000524801 0.000147503 6.71737e-07
-1.14054e-06 6.71737e-07 -4.259e-05
0.00204871 -0.000639038 -4.85775e-06
-0.000639038 0.000265436 -3.38883e-06
-4.85775e-06 -3.38883e-06 -3.87819e-05
0.00212588 -0.00057424 5.10846e-06
-0.00057424 0.000275849 -3.86822e-06
5.10846e-06 -3.86822e-06 5.96425e-05
0.000812225 -0.00030439 -7.47069e-07
-0.00030439 0.000107363 3.31769e-06
-7.47069e-07 3.31769e-06 -0.000191695
0.0010561 -0.000327312 3.22583e-06
-0.000327312 0.000227621 9.72987e-07
3.22583e-06 9.72987e-07 -8.74267e-05
0.000976955 -0.000151882 -3.62457e-07
-0.000151882 0.000345585 5.40348e-06
-3.62457e-07 5.40348e-06 0.000139808
-0.000456055 -8.757e-05 7.59862e-07
-8.757e-05 -0.000588724 -6.27532e-06
7.59862e-07 -6.27532e-06 -0.000867765
0.00208809 -7.22085e-05 -2.18633e-07
-7.22085e-05 7.73014e-05 6.88715e-08
-2.18633e-07 6.88715e-08 3.81423e-05
0.00202924 -0.000220754 2.65814e-06
-0.000220754 3.83401e-05 -7.33016e-07
2.65814e-06 -7.33016e-07 -3.47261e-05
0.00201088 -0.000125271 8.13355e-07
-0.000125271 1.6361e-05 -2.09129e-07
8.13355e-07 -2.09129e-07 7.77364e-06
0.00210902 -0.000322662 -5.58782e-07
-0.000322662 3.63413e-05 1.38219e-07
-5.58782e-07 1.38219e-07 -2.53185e-06
0.00126754 -0.000415701 -2.92273e-06
-0.000415701 0.000306789 1.86255e-07
-2.92273e-06 1.86255e-07 -2.89329e-05
0.00162923 -0.00068082 1.37131e-06
-0.00068082 0.000358614 -1.91616e-07
1.37131e-06 -1.91616e-07 -9.06175e-05
0.00206788 -0.000758661 -6.18217e-07
-0.000758661 0.000388089 4.79189e-07
-6.18217e-07 4.79189e-07 -2.80899e-05
0.0020125 -0.000466516 -1.26965e-06
-0.000466516 9.10561e-05 4.29918e-07
-1.26965e-06 4.29918e-07 -5.41535e-05
0.00213341 -0.00041793 1.04636e-06
-0.00041793 5.27104e-05 -3.11003e-07
1.04636e-06 -3.11003e-07 -7.86398e-06
0.00214351 -0.000650217 -4.74015e-07
-0.000650217 0.000323598 4.34455e-07
-4.74015e-07 4.34455e-07 2.92256e-05
0.00203384 -0.000562375 -9.26094e-07
-0.000562375 0.000118119 9.25322e-07
-9.26094e-07 9.25322e-07 -4.85737e-05
0.002185 -0.000613138 3.94851e-06
-0.000613138 0.000274563 -4.23278e-06
3.94851e-06 -4.23278e-06 4.88458e-05
0.0015001 -0.000486138 -8.67301e-07
-0.000486138 0.000512292 -1.33696e-06
-8.67301e-07 -1.33696e-06 0.000135757
0.00135479 -0.000445146 -1.24934e-06
-0.000445146 0.000444211 1.48605e-06
-1.24934e-06 1.48605e-06 6.0389e-05
0.00101325 -0.000305998 2.0133e-06
-0.000305998 0.000302623 -1.11705e-06
2.0133e-06 -1.11705e-06 -1.98273e-05
0.000292297 -9.95587e-05 -2.54179e-06
-9.95587e-05 -8.77395e-05 1.09744e-06
-2.54179e-06 1.09744e-06 -0.000243561
-3.36508e-05 -0.000113511 -1.24048e-06
-0.000113511 -0.000215724 -1.25636e-06
-1.24048e-06 -1.25636e-06 -0.000533619
0.00200263 -7.18579e-05 4.00877e-06
-7.18579e-05 -8.37486e-06 -2.14614e-07
4.00877e-06 -2.14614e-07 -4.43018e-06
0.00205235 -0.000193391 2.7502e-06
-0.000193391 -6.23502e-06 -6.14e-07
2.7502e-06 -6.14e-07 -1.36248e-05
0.00218361 -0.000383254 3.20522e-07
-0.000383254 -6.7449e-06 -4.03052e-07
3.20522e-07 -4.03052e-07 -1.96088e-05
0.00215528 -0.000494071 1.37566e-06
-0.000494071 8.78452e-05 -1.6134e-06
1.37566e-06 -1.6134e-06 5.64467e-06
0.00144629 -0.000577964 -4.12961e-06
-0.000577964 0.00040008 2.35318e-07
-4.12961e-06 2.35318e-07 -2.73941e-05
0.00230887 -0.000677633 -7.95482e-06
-0.000677633 0.000191322 -4.99778e-06
-7.95482e-06 -4.99778e-06 -2.81968e-06
0.00140819 -0.000747031 -2.1856e-05
-0.000747031 0.000212256 8.29898e-06
-2.1856e-05 8.29898e-06 -0.000267485
0.00221269 -0.000823228 1.23791e-06
-0.000823228 0.000440334 1.18657e-06
1.23791e-06 1.18657e-06 1.21788e-05
0.00201056 -0.000622768 -1.34209e-05
-0.000622768 0.000237336 8.56041e-07
-1.34209e-05 8.56041e-07 -4.09648e-05
9.33365e-05 -2.35136e-05 -2.38954e-06
-2.35136e-05 -0.000198003 -5.88447e-06
-2.38954e-06 -5.88447e-06 -0.00031873
0.00104348 -0.000172783 -3.67033e-06
-0.000172783 0.00048623 -6.26768e-07
-3.67033e-06 -6.26768e-07 0.000197241
0.000938297 -0.000259142 -7.3337e-07
-0.000259142 0.000368225 -3.08305e-06
-7.3337e-07 -3.08305e-06 4.68169e-05
0.00201035 -0.000608895 -1.58294e-05
-0.000608895 0.000823332 4.95519e-06
-1.58294e-05 4.95519e-06 0.000385691
0.0020111 -0.000399263 -1.76234e-06
-0.000399263 0.000874239 9.02058e-06
-1.76234e-06 9.02058e-06 0.000524138
0.000758101 -0.000427905 -1.71155e-05
-0.000427905 3.57117e-05 1.6672e-05
-1.71155e-05 1.6672e-05 -0.000360752
0.000368353 -6.75396e-06 -2.75773e-06
-6.75396e-06 -7.70525e-05 -9.04511e-06
-2.75773e-06 -9.04511e-06 -0.000116419
0.000452002 4.43198e-05 -4.51585e-07
4.43198e-05 2.57682e-06 -7.68376e-06
-4.51585e-07 -7.68376e-06 -0.000122911
0.00212663 0.000462799 -3.19272e-06
0.000462799 0.000184545 -5.26294e-07
-3.19272e-06 -5.26294e-07 -1.85555e-06
-0.000180616 4.88117e-05 1.34253e-07
4.88117e-05 -0.000360028 -3.22916e-07
1.34253e-07 -3.22916e-07 -0.000619514
0.00143889 0.000325855 1.82625e-06
0.000325855 0.000498619 -2.71621e-07
1.82625e-06 -2.71621e-07 0.000245464
8.9103e-05 0.00015382 -3.81768e-06
0.00015382 -0.000363405 3.80656e-07
-3.81768e-06 3.80656e-07 -0.000574405
0.00204123 0.000580954 2.24626e-06
0.000580954 0.0002779 2.08082e-06
2.24626e-06 2.08082e-06 -4.35963e-08
0.00201592 0.000565925 2.82025e-06
0.000565925 0.000171835 1.16901e-06
2.82025e-06 1.16901e-06 -5.52276e-05
0.00152465 0.000573709 -1.04378e-08
0.000573709 0.000454328 1.28481e-06
-1.04378e-08 1.28481e-06 3.12113e-05
0.00232468 0.0007276 -5.29464e-06
0.0007276 0.000707852 4.52229e-06
-5.29464e-06 4.52229e-06 0.000303475
0.00216566 0.000677737 2.19684e-06
0.000677737 0.00033931 3.3806e-06
2.19684e-06 3.3806e-06 2.17455e-05
0.000617312 5.64117e-05 -1.34541e-07
5.64117e-05 0.000101284 5.31672e-07
-1.34541e-07 5.31672e-07 -3.22248e-06
0.00074512 0.000100278 -1.21106e-06
0.000100278 0.00024324 -1.7473e-07
-1.21106e-06 -1.7473e-07 2.82488e-05
0.00115027 0.000427536 6.98071e-07
0.000427536 0.000295049 2.00876e-06
6.98071e-07 2.00876e-06 -3.37821e-05
0.000739242 0.000110266 7.16739e-07
0.000110266 0.000141114 -1.08744e-06
7.16739e-07 -1.08744e-06 -0.000112115
0.000901743 0.000251419 3.77212e-06
0.000251419 6.3128e-05 -2.61083e-06
3.77212e-06 -2.61083e-06 -0.000169261
0.00207813 0.000487921 -2.29861e-06
0.000487921 0.000129192 -1.37044e-06
-2.29861e-06 -1.37044e-06 -4.51713e-05
0.00214296 0.00064273 2.08234e-06
0.00064273 0.000296212 6.29322e-07
2.08234e-06 6.29322e-07 1.8212e-05
0.00207724 0.000622519 1.19212e-06
0.000622519 0.00016081 1.80298e-07
1.19212e-06 1.80298e-07 -7.79151e-05
0.00146274 0.000663824 2.19889e-06
0.000663824 0.000403732 7.39999e-07
2.19889e-06 7.39999e-07 -5.96568e-05
0.00182128 0.000710331 -1.96035e-06
0.000710331 0.000292122 -2.06181e-06
-1.96035e-06 -2.06181e-06 -8.33695e-05
0.0012666 0.000154276 1.29266e-06
0.000154276 0.000552713 3.35485e-06
1.29266e-06 3.35485e-06 0.000382989
-0.000301264 1.1516e-05 -4.30616e-07
1.1516e-05 -0.000375751 4.36059e-07
-4.30616e-07 4.36059e-07 -0.000647112
0.00141598 0.000520336 -4.56976e-07
0.000520336 0.000457664 -3.29624e-06
-4.56976e-07 -3.29624e-06 6.71532e-05
0.000105866 0.000174886 5.71004e-06
0.000174886 -0.000410672 1.34721e-06
5.71004e-06 1.34721e-06 -0.000639698
0.00220357 0.000558283 3.9455e-07
0.000558283 0.0008307 -3.69415e-06
3.9455e-07 -3.69415e-06 0.000497534
0.00207078 0.00053691 -5.8823e-07
0.00053691 2.74167e-05 -4.40474e-07
-5.8823e-07 -4.40474e-07 -0.000111962
0.00220244 0.000705657 9.32881e-06
0.000705657 0.000292543 -2.5623e-06
9.32881e-06 -2.5623e-06 -1.73979e-05
0.00219583 0.000660802 9.37108e-06
0.000660802 0.00019022 1.36609e-06
9.37108e-06 1.36609e-06 -6.84453e-05
0.00170605 0.000716717 1.38156e-05
0.000716717 0.000496753 -4.17644e-08
1.38156e-05 -4.17644e-08 3.24267e-05
0.00213022 0.000821599 5.44158e-06
0.000821599 0.000496329 -6.44582e-07
5.44158e-06 -6.44582e-07 7.6347e-05
0.000565462 4.07124e-05 -1.3501e-06
4.07124e-05 6.27469e-05 -6.10889e-06
-1.3501e-06 -6.10889e-06 -2.74684e-05
0.000518834 9.60931e-05 1.16465e-06
9.60931e-05 5.82131e-05 -1.41655e-07
1.16465e-06 -1.41655e-07 -7.82073e-05
0.000245079 7.6676e-05 -4.63403e-07
7.6676e-05 -0.000116452 6.01125e-07
-4.63403e-07 6.01125e-07 -0.000237244
-8.21347e-05 -2.10703e-05 1.70002e-06
-2.10703e-05 -0.000308632 -4.09862e-06
1.70002e-06 -4.09862e-06 -0.000436594
0.000603447 7.57929e-05 -7.83911e-07
7.57929e-05 0.000145145 2.49729e-07
-7.83911e-07 2.49729e-07 1.07582e-05
0.000467478 0.000101417 3.73653e-07
0.000101417 5.06203e-05 -1.66244e-07
3.73653e-07 -1.66244e-07 -9.2838e-05
0.000600977 0.000144998 -2.2448e-06
0.000144998 0.000144652 -5.36716e-06
-2.2448e-06 -5.36716e-06 4.20663e-06
0.000326758 4.6574e-05 -3.17168e-06
4.6574e-05 -1.72753e-05 4.14127e-07
-3.17168e-06 4.14127e-07 -0.000171312
0.000681657 0.000106221 -1.31438e-07
0.000106221 0.000181752 2.78521e-06
-1.31438e-07 2.78521e-06 6.26034e-05
0.000545716 7.80624e-05 2.77294e-06
7.80624e-05 7.26489e-05 4.12316e-06
2.77294e-06 4.12316e-06 -6.77488e-06
0.000506861 2.75619e-05 -2.71623e-06
2.75619e-05 4.28651e-05 6.08627e-08
-2.71623e-06 6.08627e-08 -3.3365e-05
0.00128777 2.21122e-06 2.12175e-06
2.21122e-06 0.000502587 3.69362e-06
2.12175e-06 3.69362e-06 0.000482417
0.000379844 -7.04884e-05 3.93467e-06
-7.04884e-05 -3.01811e-05 -4.66476e-06
3.93467e-06 -4.66476e-06 -0.000114967
0.00135942 -9.48832e-06 -8.12864e-06
-9.48832e-06 0.000544405 -1.7184e-06
-8.12864e-06 -1.7184e-06 0.000523425
0.000737463 -2.31308e-05 3.21344e-05
-2.31308e-05 0.000145041 9.65061e-06
3.21344e-05 9.65061e-06 0.000149084
0.00141882 -1.67127e-05 -1.5022e-05
-1.67127e-05 0.000581288 -8.19886e-06
-1.5022e-05 -8.19886e-06 0.000557828
0.000753748 -3.86916e-05 1.3516e-05
-3.86916e-05 0.000156752 3.66137e-06
1.3516e-05 3.66137e-06 0.000155312
0.00274387 -0.000120833 -6.99287e-07
-0.000120833 0.00143757 -3.25769e-06
-6.99287e-07 -3.25769e-06 0.00143497
0.000271677 6.63633e-05 -4.34169e-06
6.63633e-05 -0.000104575 -6.24686e-06
-4.34169e-06 -6.24686e-06 -0.00014939
0.000390624 1.4615e-06 -3.68705e-06
1.4615e-06 -3.77822e-05 3.46253e-07
-3.68705e-06 3.46253e-07 -9.16393e-05
0.00315946 0.000168728 -5.63853e-06
0.000168728 0.00173602 -7.66926e-06
-5.63853e-06 -7.66926e-06 0.00171869
0.000577642 -9.20072e-05 -1.33684e-05
-9.20072e-05 6.36436e-05 1.24953e-05
-1.33684e-05 1.24953e-05 -9.69794e-06
0.00412605 0.000142922 -3.72894e-05
0.000142922 0.00234883 -5.91305e-08
-3.72894e-05 -5.91305e-08 0.0023355
0.00516036 0.000107806 -0.000177997
0.000107806 0.00301199 2.1439e-05
-0.000177997 2.1439e-05 0.00300361
0.00211007 0.000393078 -2.5842e-06
0.000393078 0.000121257 1.01393e-06
-2.5842e-06 1.01393e-06 -2.24185e-05
0.00214929 0.000216464 -3.88997e-06
0.000216464 0.000101509 -6.37426e-07
-3.88997e-06 -6.37426e-07 4.08893e-05
0.0020942 0.000297294 -8.52992e-07
0.000297294 -3.8823e-06 -6.75995e-08
-8.52992e-07 -6.75995e-08 -4.41256e-05
0.00204717 0.000128733 -1.62322e-06
0.000128733 -5.28115e-06 -3.1206e-07
-1.62322e-06 -3.1206e-07 -8.03442e-06
0.00207047 5.33254e-05 -5.88323e-06
5.33254e-05 4.87816e-05 -9.85659e-08
-5.88323e-06 -9.85659e-08 1.86271e-05
0.00189928 4.82975e-06 -2.27769e-06
4.82975e-06 7.37956e-05 2.32663e-07
-2.27769e-06 2.32663e-07 -1.2379e-05
0.00207026 -7.12462e-06 -5.33195e-08
-7.12462e-06 5.8604e-05 1.83453e-08
-5.33195e-08 1.83453e-08 2.50688e-05
0.00205088 5.65212e-05 1.23971e-06
5.65212e-05 2.11376e-05 3.8958e-08
1.23971e-06 3.8958e-08 2.06361e-05
0.002103 0.000203632 -2.18417e-07
0.000203632 1.38573e-05 -7.95987e-08
-2.18417e-07 -7.95987e-08 6.2769e-07
0.00211926 0.00013479 6.22248e-07
0.00013479 -2.41813e-05 1.81214e-07
6.22248e-07 1.81214e-07 3.35554e-06
0.00211146 0.000391146 -4.63274e-07
0.000391146 7.70144e-05 3.21106e-07
-4.63274e-07 3.21106e-07 -3.09483e-05
0.0022286 0.000311345 2.63258e-06
0.000311345 -4.67164e-07 3.27951e-07
2.63258e-06 3.27951e-07 2.43148e-06
0.00200658 -1.3426e-05 3.83454e-06
-1.3426e-05 2.13929e-08 1.77679e-07
3.83454e-06 1.77679e-07 -2.92534e-06
0.00212919 6.43084e-05 -4.8069e-07
6.43084e-05 -2.43155e-05 6.67255e-08
-4.8069e-07 6.67255e-08 1.4039e-05
0.00220191 0.000206585 -1.52726e-06
0.000206585 -1.70781e-05 -3.92897e-07
-1.52726e-06 -3.92897e-07 8.61308e-06
0.00227034 0.000428597 -1.08013e-06
0.000428597 2.72534e-05 1.97308e-07
-1.08013e-06 1.97308e-07 3.92251e-06
0.00209009 -7.23558e-05 -6.80292e-06
-7.23558e-05 7.80482e-05 4.77117e-07
-6.80292e-06 4.77117e-07 3.89198e-05
0.00206029 -0.000223272 -1.87468e-06
-0.000223272 6.4647e-05 2.82123e-07
-1.87468e-06 2.82123e-07 -9.76905e-06
0.00198205 -0.000124352 -4.64086e-06
-0.000124352 -7.32371e-06 6.71426e-07
-4.64086e-06 6.71426e-07 -1.46833e-05
0.00211036 -0.000322289 -5.13435e-06
-0.000322289 4.28535e-05 1.16032e-06
-5.13435e-06 1.16032e-06 -2.06846e-06
0.00102788 -0.0003981 -7.63397e-06
-0.0003981 0.00014597 3.33052e-06
-7.63397e-06 3.33052e-06 -0.000187576
0.00159485 -0.000667841 1.34677e-05
-0.000667841 0.000344371 -4.59081e-06
1.34677e-05 -4.59081e-06 -0.000100913
0.00206219 -0.00077372 -3.86733e-06
-0.00077372 0.00038132 -2.63456e-06
-3.86733e-06 -2.63456e-06 -4.39e-05
0.00197955 -0.000459961 -3.93266e-06
-0.000459961 7.66529e-05 1.34581e-06
-3.93266e-06 1.34581e-06 -7.25486e-05
0.00210885 -0.000417645 -2.40653e-07
-0.000417645 3.83233e-05 1.18933e-06
-2.40653e-07 1.18933e-06 -1.77358e-05
0.00201658 -0.000564014 -3.85467e-07
-0.000564014 9.78347e-05 1.8201e-06
-3.85467e-07 1.8201e-06 -6.97329e-05
0.00208854 -0.000636243 -4.32423e-06
-0.000636243 0.000309939 -2.3295e-06
-4.32423e-06 -2.3295e-06 1.94154e-05
0.00219574 -0.000607376 1.37212e-05
-0.000607376 0.000270562 -6.18162e-06
1.37212e-05 -6.18162e-06 5.06533e-05
0.000971528 -0.000420136 -1.17112e-06
-0.000420136 0.000186964 1.25777e-06
-1.17112e-06 1.25777e-06 -0.000172426
0.00127289 -0.00044248 1.73471e-05
-0.00044248 0.00037458 -7.18527e-06
1.73471e-05 -7.18527e-06 -2.85233e-06
0.000212486 -0.000169226 -3.22165e-07
-0.000169226 -0.000204184 -1.15356e-05
-3.22165e-07 -1.15356e-05 -0.000511141
0.000101734 -9.07333e-05 3.03072e-07
-9.07333e-05 -0.00020929 4.89168e-06
3.03072e-07 4.89168e-06 -0.000366747
0.000103037 -9.84435e-05 4.67696e-06
-9.84435e-05 -0.000143676 -6.84668e-07
4.67696e-06 -6.84668e-07 -0.000449409
0.00198919 -8.02379e-05 1.30534e-07
-8.02379e-05 -1.86387e-05 -1.51797e-07
1.30534e-07 -1.51797e-07 -1.59228e-05
0.00208166 -0.000194623 1.51032e-06
-0.000194623 8.64795e-06 -1.77136e-08
1.51032e-06 -1.77136e-08 1.23485e-06
0.00219021 -0.000376809 -6.4817e-07
-0.000376809 1.45011e-05 8.72624e-08
-6.4817e-07 8.72624e-08 -3.97597e-06
0.00155958 -0.000588909 -1.35425e-06
-0.000588909 0.000469691 -6.6346e-07
-1.35425e-06 -6.6346e-07 4.14212e-05
0.00152515 -0.000741709 3.81953e-06
-0.000741709 0.000283334 -7.76698e-07
3.81953e-06 -7.76698e-07 -0.000192041
0.0021938 -0.000830837 -4.39026e-07
-0.000830837 0.000435496 -4.00809e-07
-4.39026e-07 -4.00809e-07 8.08592e-07
0.00213816 -0.000489956 4.7211e-07
-0.000489956 8.13983e-05 2.60803e-08
4.7211e-07 2.60803e-08 -3.36931e-06
0.00217445 -0.000657848 2.68765e-06
-0.000657848 0.000308739 -3.96094e-06
2.68765e-06 -3.96094e-06 2.63932e-05
0.00222204 -0.00065506 -1.39656e-06
-0.00065506 0.000171534 -2.50841e-07
-1.39656e-06 -2.50841e-07 -1.64533e-05
2.45442e-05 4.47695e-05 -1.96412e-06
4.47695e-05 -0.000252511 -9.53724e-07
-1.96412e-06 -9.53724e-07 -0.000361446
0.00133565 -0.000521834 2.01015e-07
-0.000521834 0.00040389 -1.98258e-06
2.01015e-07 -1.98258e-06 -1.04725e-05
0.001493 -0.000518766 -4.2163e-06
-0.000518766 0.000514991 1.17458e-06
-4.2163e-06 1.17458e-06 8.72208e-05
0.0017113 -0.000380396 -1.20375e-06
-0.000380396 0.000715467 2.49335e-06
-1.20375e-06 2.49335e-06 0.000350989
0.00132283 -0.000305987 1.73169e-06
-0.000305987 0.000599873 -1.89044e-06
1.73169e-06 -1.89044e-06 0.000271222
0.000420798 -9.25633e-05 -8.73626e-07
-9.25633e-05 8.1312e-05 1.22007e-06
-8.73626e-07 1.22007e-06 -0.000192115
0.00208486 -0.000102873 6.46481e-07
-0.000102873 -3.43765e-05 1.65925e-07
6.46481e-07 1.65925e-07 -5.4675e-06
0.00225096 -0.000262489 -1.20647e-07
-0.000262489 -3.22791e-05 2.55272e-07
-1.20647e-07 2.55272e-07 1.30132e-05
0.00226308 -0.000464143 3.76598e-07
-0.000464143 9.73993e-06 -4.36869e-07
3.76598e-07 -4.36869e-07 1.02661e-05
0.00229507 -0.000588124 1.18342e-07
-0.000588124 7.08409e-05 -2.86405e-06
1.18342e-07 -2.86405e-06 8.78997e-06
0.001795 -0.000692229 -1.48903e-05
-0.000692229 0.000580868 6.4823e-06
-1.48903e-05 6.4823e-06 0.000113407
0.0025156 -0.000777029 -1.01009e-05
-0.000777029 0.000401076 -7.66264e-06
-1.01009e-05 -7.66264e-06 0.000136786
0.00189798 -0.000864864 -5.10878e-05
-0.000864864 0.000485684 7.84375e-06
-5.10878e-05 7.84375e-06 -3.24854e-05
0.00228131 -0.000885208 -2.99798e-05
-0.000885208 0.000505833 1.54953e-06
-2.99798e-05 1.54953e-06 5.18357e-05
-0.000114045 4.97799e-05 -6.17934e-06
4.97799e-05 -0.000343523 -2.86064e-06
-6.17934e-06 -2.86064e-06 -0.000424835
0.000977486 -1.34436e-06 -3.6491e-06
-1.34436e-06 0.000413647 1.75895e-07
-3.6491e-06 1.75895e-07 0.000216139
0.00200717 -0.000312967 -6.82876e-06
-0.000312967 0.00109888 5.33187e-07
-6.82876e-06 5.33187e-07 0.000774985
0.000823537 -0.000198262 2.35825e-07
-0.000198262 0.000229188 -6.59387e-06
2.35825e-07 -6.59387e-06 -9.9043e-05
0.00290141 -0.000742395 -2.39985e-05
-0.000742395 0.0013466 1.5266e-05
-2.39985e-05 1.5266e-05 0.000872153
0.00172097 -0.000520384 -1.97916e-06
-0.000520384 0.000703519 2.02532e-05
-1.97916e-06 2.02532e-05 0.000235408
0.000564011 4.13501e-05 -1.04187e-06
4.13501e-05 6.87275e-05 -6.31419e-06
-1.04187e-06 -6.31419e-06 -3.42374e-05
-0.000358206 2.9989e-05 9.84782e-07
2.9989e-05 -0.000454681 -4.5075e-07
9.84782e-07 -4.5075e-07 -0.0006566
0.00201588 0.000486506 -1.70753e-06
0.000486506 9.67779e-05 -7.91779e-07
-1.70753e-06 -7.91779e-07 -7.89533e-05
0.000278552 8.56477e-05 -2.95235e-06
8.56477e-05 -0.000157023 2.82038e-06
-2.95235e-06 2.82038e-06 -0.000402732
0.00132768 0.000454574 2.07979e-08
0.000454574 0.000387128 -5.22429e-06
2.07979e-08 -5.22429e-06 4.99431e-05
-0.00104686 5.16995e-05 -5.99804e-06
5.16995e-05 -0.00116989 -5.18761e-06
-5.99804e-06 -5.18761e-06 -0.00134921
0.00218437 0.000646726 3.6739e-06
0.000646726 0.00031495 1.95036e-06
3.6739e-06 1.95036e-06 3.61137e-05
0.0021051 0.00062059 -5.67435e-06
0.00062059 0.000172561 3.02573e-07
-5.67435e-06 3.02573e-07 -6.47047e-05
0.00187435 0.000724246 -6.39641e-06
0.000724246 0.000637735 4.47428e-06
-6.39641e-06 4.47428e-06 0.000164151
0.00199172 0.000732127 -8.05644e-06
0.000732127 0.00041883 1.57763e-06
-8.05644e-06 1.57763e-06 3.29641e-05
0.00083723 0.000118555 -6.76159e-07
0.000118555 0.000271352 3.42148e-08
-6.76159e-07 3.42148e-08 0.000114596
0.000423597 0.000104746 1.95381e-06
0.000104746 7.36422e-05 -6.15467e-07
1.95381e-06 -6.15467e-07 -0.000212235
0.00132436 0.000501817 -3.77226e-06
0.000501817 0.000397925 -1.2931e-06
-3.77226e-06 -1.2931e-06 1.41136e-05
0.00102601 0.000206111 -2.05936e-07
0.000206111 0.000152397 1.83748e-07
-2.05936e-07 1.83748e-07 -7.29999e-05
0.00187237 0.000466432 1.64651e-06
0.000466432 0.000605468 -3.04454e-06
1.64651e-06 -3.04454e-06 0.000302698
0.00222946 0.000553538 -2.4619e-06
0.000553538 0.000110674 -8.54791e-07
-2.4619e-06 -8.54791e-07 -3.07277e-05
0.00235555 0.000705767 2.86241e-06
0.000705767 0.000391743 -6.33569e-07
2.86241e-06 -6.33569e-07 8.91112e-05
0.0023703 0.000683553 1.69439e-06
0.000683553 0.000290284 2.75369e-06
1.69439e-06 2.75369e-06 2.79529e-05
0.00164632 0.000715791 4.44683e-06
0.000715791 0.000462188 1.12965e-06
4.44683e-06 1.12965e-06 -6.41129e-06
0.00203415 0.000838674 -4.90521e-06
0.000838674 0.000441916 6.01517e-07
-4.90521e-06 6.01517e-07 6.83562e-06
-0.00113372 1.13799e-05 -4.98108e-06
1.13799e-05 -0.000952672 6.30623e-06
-4.98108e-06 6.30623e-06 -0.00110272
-0.000995166 0.000185093 1.63042e-06
0.000185093 -0.000756135 6.20984e-07
1.63042e-06 6.20984e-07 -0.00108464
0.00157454 0.000569125 5.14301e-06
0.000569125 0.000504471 -2.44285e-06
5.14301e-06 -2.44285e-06 0.000100749
0.000715937 0.000314478 6.15884e-06
0.000314478 -0.00014244 1.01088e-07
6.15884e-06 1.01088e-07 -0.000401706
0.0025075 0.000559659 4.61627e-06
0.000559659 -2.94845e-05 1.77204e-06
4.61627e-06 1.77204e-06 1.76193e-06
0.00264816 0.000680656 8.41681e-06
0.000680656 0.000378082 9.86375e-07
8.41681e-06 9.86375e-07 0.000172228
0.00229243 0.000818134 8.21663e-06
0.000818134 0.000369535 -3.74321e-06
8.21663e-06 -3.74321e-06 -1.31359e-05
0.00167304 0.000812521 3.21783e-06
0.000812521 0.000338048 -1.37532e-06
3.21783e-06 -1.37532e-06 -0.000156089
0.000899521 0.000143493 -5.84213e-07
0.000143493 0.00031121 -2.96119e-06
-5.84213e-07 -2.96119e-06 0.000162151
0.000484815 0.000137339 -1.89169e-06
0.000137339 5.12112e-05 -9.51214e-07
-1.89169e-06 -9.51214e-07 -8.45457e-05
0.00129989 0.000126398 -8.66343e-06
0.000126398 0.000571151 -3.69521e-06
-8.66343e-06 -3.69521e-06 0.0004665
0.000441195 4.804e-05 2.29981e-07
4.804e-05 1.65886e-05 -3.17108e-06
2.29981e-07 -3.17108e-06 -9.85713e-05
-0.00039199 4.35772e-05 5.47413e-07
4.35772e-05 -0.000483419 -1.26569e-06
5.47413e-07 -1.26569e-06 -0.000615783
0.000611403 5.73949e-05 -7.8333e-07
5.73949e-05 0.000138988 1.80399e-07
-7.8333e-07 1.80399e-07 1.90035e-05
0.000507934 0.000148916 9.69169e-07
0.000148916 0.000109757 1.052e-06
9.69169e-07 1.052e-06 -3.13241e-05
0.000506743 7.14606e-05 6.96368e-07
7.14606e-05 0.000111008 3.96324e-07
6.96368e-07 3.96324e-07 -5.60026e-05
0.000647312 0.000127863 4.64881e-06
0.000127863 0.000130161 -4.16069e-06
4.64881e-06 -4.16069e-06 4.43104e-05
0.000744801 3.31782e-05 2.3963e-06
3.31782e-05 0.000251736 -4.68911e-06
2.3963e-06 -4.68911e-06 9.21887e-05
0.00010479 7.14058e-05 -4.15905e-07
7.14058e-05 -0.000155435 2.793e-06
-4.15905e-07 2.793e-06 -0.000308203
0.000670422 0.000117754 1.92129e-06
0.000117754 0.000175381 4.01658e-06
1.92129e-06 4.01658e-06 5.24122e-05
0.000454397 8.27384e-05 2.75698e-06
8.27384e-05 2.15181e-05 3.99989e-06
2.75698e-06 3.99989e-06 -6.40511e-05
0.000443686 1.85581e-05 -1.55685e-06
1.85581e-05 5.74468e-06 -3.59814e-07
-1.55685e-06 -3.59814e-07 -7.13676e-05
0.00124041 9.45995e-06 1.09962e-06
9.45995e-06 0.000478216 3.20722e-06
1.09962e-06 3.20722e-06 0.000458406
0.000431826 -4.18098e-05 9.10127e-07
-4.18098e-05 -7.22917e-06 -3.57134e-06
9.10127e-07 -3.57134e-06 -8.10796e-05
0.00132735 -3.63315e-06 -7.76119e-06
-3.63315e-06 0.000527198 -1.72227e-06
-7.76119e-06 -1.72227e-06 0.000508034
0.000717946 -1.33073e-05 2.93489e-05
-1.33073e-05 0.000135137 9.54133e-06
2.93489e-05 9.54133e-06 0.000140208
0.00137183 -1.76164e-05 -1.12068e-05
-1.76164e-05 0.000552423 -7.38319e-06
-1.12068e-05 -7.38319e-06 0.000532227
0.000739916 -2.7978e-05 1.16794e-05
-2.7978e-05 0.000144983 3.63282e-06
1.16794e-05 3.63282e-06 0.000147077
0.000732323 -4.09598e-05 8.42319e-07
-4.09598e-05 0.000143077 -3.65714e-06
8.42319e-07 -3.65714e-06 0.000140322
0.000366654 4.69839e-05 -1.85488e-06
4.69839e-05 -6.80988e-05 -4.34446e-06
-1.85488e-06 -4.34446e-06 -9.73317e-05
0.00038555 6.9762e-05 -7.39018e-07
6.9762e-05 -3.29519e-05 2.75624e-07
-7.39018e-07 2.75624e-07 -7.90474e-05
0.00264713 0.000127702 2.80471e-06
0.000127702 0.00139792 -5.81139e-06
2.80471e-06 -5.81139e-06 0.00139199
0.000512489 -1.06607e-06 -7.48664e-06
-1.06607e-06 3.97808e-05 1.05846e-05
-7.48664e-06 1.05846e-05 -1.64275e-05
0.00330769 0.000162451 -2.22693e-05
0.000162451 0.00182679 -2.24106e-06
-2.22693e-05 -2.24106e-06 0.00181054
0.00428998 8.31364e-05 -0.000145796
8.31364e-05 0.00244703 1.57226e-05
-0.000145796 1.57226e-05 0.00244781
0.00212532 0.000391481 -8.15287e-07
0.000391481 9.61091e-05 4.41424e-07
-8.15287e-07 4.41424e-07 -1.39992e-05
0.00212079 0.000202648 -3.63873e-06
0.000202648 2.78282e-05 -7.68579e-07
-3.63873e-06 -7.68579e-07 1.60473e-05
0.00215981 0.000311633 1.12069e-06
0.000311633 -4.55881e-05 7.83921e-07
1.12069e-06 7.83921e-07 -3.59405e-05
0.00210016 0.000135991 1.01174e-06
0.000135991 -4.18039e-05 -8.68107e-08
1.01174e-06 -8.68107e-08 -7.27231e-06
0.00204606 5.75356e-05 -3.69806e-06
5.75356e-05 2.08307e-05 -3.32819e-07
-3.69806e-06 -3.32819e-07 1.68279e-05
0.00208327 -1.01952e-05 -7.46823e-06
-1.01952e-05 7.18869e-05 6.98991e-08
-7.46823e-06 6.98991e-08 3.67535e-05
0.00201772 -1.1808e-05 1.68801e-07
-1.1808e-05 8.23996e-06 -1.17123e-08
1.68801e-07 -1.17123e-08 6.09175e-06
0.0021111 6.70991e-05 1.11734e-06
6.70991e-05 -3.162e-05 1.17678e-07
1.11734e-06 1.17678e-07 4.91372e-06
0.00219407 0.000213222 1.09522e-06
0.000213222 -2.37874e-05 1.91876e-07
1.09522e-06 1.91876e-07 5.73071e-06
0.00226295 0.000416621 5.37638e-07
0.000416621 1.57545e-05 1.61772e-07
5.37638e-07 1.61772e-07 -5.68804e-06
0.00207831 -1.69067e-05 -9.5913e-07
-1.69067e-05 -4.14432e-05 7.58023e-08
-9.5913e-07 7.58023e-08 -1.11732e-05
0.0022381 0.000118561 -3.03887e-06
0.000118561 -6.78435e-05 -4.31203e-07
-3.03887e-06 -4.31203e-07 1.03659e-05
0.00243352 0.000322931 4.67978e-07
0.000322931 -3.50915e-06 -5.55943e-07
4.67978e-07 -5.55943e-07 4.77238e-05
0.00197608 -8.84791e-05 -3.59337e-06
-8.84791e-05 -2.87028e-05 1.81791e-07
-3.59337e-06 1.81791e-07 -2.71392e-05
0.00211148 -0.000195285 -3.06661e-06
-0.000195285 2.46267e-05 4.33157e-07
-3.06661e-06 4.33157e-07 1.71371e-05
0.00218894 -0.00036955 -1.79386e-06
-0.00036955 3.17271e-05 5.32446e-07
-1.79386e-06 5.32446e-07 6.93941e-06
0.00170648 -0.000606739 2.78013e-06
-0.000606739 0.000553822 -1.13331e-06
2.78013e-06 -1.13331e-06 0.000123014
0.00156209 -0.000720287 2.46473e-05
-0.000720287 0.00031138 -8.12717e-06
2.46473e-05 -8.12717e-06 -0.000153782
0.00201046 -0.000819342 7.27165e-07
-0.000819342 0.000341943 -2.27783e-07
7.27165e-07 -2.27783e-07 -9.37351e-05
0.002122 -0.000485986 -1.47927e-06
-0.000485986 7.49673e-05 1.41593e-06
-1.47927e-06 1.41593e-06 -1.23346e-05
0.00217277 -0.00063526 8.6874e-06
-0.00063526 0.000172808 2.85226e-06
8.6874e-06 2.85226e-06 -7.07765e-06
0.00225949 -0.000692191 1.3137e-05
-0.000692191 0.000334144 -7.05387e-06
1.3137e-05 -7.05387e-06 4.72988e-05
0.000900541 -0.000461171 8.18159e-06
-0.000461171 0.000131677 -6.19414e-06
8.18159e-06 -6.19414e-06 -0.000267139
0.00179187 -0.000571146 1.98005e-05
-0.000571146 0.000716173 -1.69931e-05
1.98005e-05 -1.69931e-05 0.000276465
0.00103612 -0.000386833 -3.17936e-06
-0.000386833 0.000332071 -8.17726e-06
-3.17936e-06 -8.17726e-06 -5.32129e-05
0.000211768 3.92908e-05 4.15562e-06
3.92908e-05 -0.000138129 1.96654e-06
4.15562e-06 1.96654e-06 -0.000242475
0.00193027 -0.000339544 2.28073e-06
-0.000339544 0.000949208 3.9636e-06
2.28073e-06 3.9636e-06 0.000627712
-0.000350661 5.69829e-06 6.98038e-06
5.69829e-06 -0.000416911 -6.39068e-07
6.98038e-06 -6.39068e-07 -0.0006741
0.00209974 -9.99712e-05 -5.73672e-07
-9.99712e-05 -2.47666e-05 1.28807e-07
-5.73672e-07 1.28807e-07 2.0209e-06
0.00222242 -0.00027103 1.37446e-07
-0.00027103 -5.38704e-05 -1.01654e-07
1.37446e-07 -1.01654e-07 -6.61052e-06
0.00225283 -0.000455999 -6.69522e-07
-0.000455999 8.43759e-06 3.32905e-07
-6.69522e-07 3.32905e-07 6.69716e-06
0.00182868 -0.000694982 -7.63579e-07
-0.000694982 0.000615854 8.86401e-07
-7.63579e-07 8.86401e-07 0.000147683
0.00140519 -0.000795628 6.76997e-06
-0.000795628 0.000201607 -2.31336e-06
6.76997e-06 -2.31336e-06 -0.000297797
0.00245051 -0.000879872 -3.13787e-06
-0.000879872 0.000605911 -5.10442e-07
-3.13787e-06 -5.10442e-07 0.000167079
0.00226842 -0.000597403 2.51983e-07
-0.000597403 5.75118e-05 -3.51041e-07
2.51983e-07 -3.51041e-07 -1.30513e-05
0.00198765 -0.00071227 2.41379e-06
-0.00071227 0.000113538 -8.94836e-07
2.41379e-06 -8.94836e-07 -0.000131901
0.000217404 6.04807e-05 -1.97165e-06
6.04807e-05 -0.00013529 -1.38191e-06
-1.97165e-06 -1.38191e-06 -0.000213454
0.000661281 -3.74432e-05 -1.0273e-06
-3.74432e-05 0.000202678 9.86732e-07
-1.0273e-06 9.86732e-07 1.55547e-05
0.00101749 -0.000526201 -2.88721e-06
-0.000526201 0.000183227 1.67649e-06
-2.88721e-06 1.67649e-06 -0.000233103
0.00134708 -0.000450695 -5.66121e-06
-0.000450695 0.000482139 1.79224e-06
-5.66121e-06 1.79224e-06 2.21307e-05
0.00148669 -0.000236704 -1.05734e-06
-0.000236704 0.000637587 -1.68863e-06
-1.05734e-06 -1.68863e-06 0.000301411
0.0011043 -0.000221047 -2.01331e-07
-0.000221047 0.0005187 1.8432e-06
-2.01331e-07 1.8432e-06 0.000207321
0.00221484 -0.000137963 -2.27849e-06
-0.000137963 -6.61372e-05 1.22652e-06
-2.27849e-06 1.22652e-06 1.25839e-05
0.00236855 -0.000390316 -2.03598e-06
-0.000390316 -9.64158e-05 9.06783e-07
-2.03598e-06 9.06783e-07 7.23812e-06
0.00235417 -0.000563263 2.24791e-06
-0.000563263 1.33532e-05 -1.16552e-06
2.24791e-06 -1.16552e-06 1.6213e-05
0.00242264 -0.000764167 5.08705e-06
-0.000764167 0.000167939 -3.87607e-06
5.08705e-06 -3.87607e-06 1.38393e-05
0.00100459 -0.000633667 -1.23435e-05
-0.000633667 0.000107627 -7.06647e-06
-1.23435e-05 -7.06647e-06 -0.000349732
0.00268957 -0.000957709 -7.63799e-06
-0.000957709 0.000651905 -2.17646e-06
-7.63799e-06 -2.17646e-06 0.000241446
0.002447 -0.00101031 -5.81528e-05
-0.00101031 0.000730437 -1.37825e-06
-5.81528e-05 -1.37825e-06 0.000162994
0.000545041 4.45938e-05 -5.58312e-08
4.45938e-05 5.3761e-05 -1.67993e-07
-5.58312e-08 -1.67993e-07 -4.99386e-06
0.00073292 -0.000154483 3.99393e-06
-0.000154483 0.000238748 -1.40428e-06
3.99393e-06 -1.40428e-06 0.000116845
0.000279408 8.95324e-05 -8.78776e-06
8.95324e-05 -4.56869e-05 -4.86083e-08
-8.78776e-06 -4.86083e-08 -0.000172629
0.000935486 -6.95001e-05 -4.71338e-06
-6.95001e-05 0.000401547 3.84316e-06
-4.71338e-06 3.84316e-06 0.000157772
-0.000229321 -0.000160191 2.10004e-06
-0.000160191 -0.00037346 -9.21837e-06
2.10004e-06 -9.21837e-06 -0.000664766
0.000477612 -0.000204406 6.98557e-06
-0.000204406 6.16437e-05 -5.52492e-06
6.98557e-06 -5.52492e-06 -0.000359491
0.00120753 -0.000578655 -3.93281e-05
-0.000578655 0.000320186 3.04743e-05
-3.93281e-05 3.04743e-05 -9.636e-05
0.00306315 -0.000590133 -3.16524e-05
-0.000590133 0.00173652 1.87004e-05
-3.16524e-05 1.87004e-05 0.00102775
0.000226487 5.99622e-05 -1.59549e-07
5.99622e-05 -0.000133628 -1.58997e-06
-1.59549e-07 -1.58997e-06 -0.000269462
0.00118531 0.000253568 -6.961e-07
0.000253568 0.000529455 3.3327e-07
-6.961e-07 3.3327e-07 0.000236727
0.00238392 0.000570417 -2.13224e-06
0.000570417 0.000191308 -1.19553e-06
-2.13224e-06 -1.19553e-06 4.76463e-05
0.000492275 0.000190861 -5.529e-06
0.000190861 -0.000172418 -1.25797e-06
-5.529e-06 -1.25797e-06 -0.000415277
0.00121415 0.000482902 -2.41618e-06
0.000482902 0.000326894 -3.49628e-07
-2.41618e-06 -3.49628e-07 -5.21853e-05
0.00182803 0.000409448 -7.17172e-06
0.000409448 0.000559293 -1.76386e-06
-7.17172e-06 -1.76386e-06 0.000277604
0.00248361 0.000701401 -7.04661e-06
0.000701401 0.000477481 -1.46157e-07
-7.04661e-06 -1.46157e-07 0.000183637
0.00252578 0.000704725 -1.03475e-05
0.000704725 0.00037976 5.34164e-06
-1.03475e-05 5.34164e-06 0.000114372
0.00158539 0.000717956 -5.70456e-06
0.000717956 0.000421403 1.65716e-06
-5.70456e-06 1.65716e-06 -5.12499e-05
0.00184982 0.000847553 -8.89753e-06
0.000847553 0.00033415 2.21081e-07
-8.89753e-06 2.21081e-07 -0.00011345
-0.000205833 7.35485e-05 1.26457e-06
7.35485e-05 -0.000358773 1.38386e-06
1.26457e-06 1.38386e-06 -0.000538866
0.00016614 0.000288769 7.47459e-07
0.000288769 -3.11417e-05 -2.36764e-06
7.47459e-07 -2.36764e-06 -0.000369413
0.00155709 0.000577755 2.36303e-06
0.000577755 0.000472204 2.14116e-07
2.36303e-06 2.14116e-07 6.01809e-05
0.00188149 0.000424005 -4.68528e-06
0.000424005 0.000617902 1.46281e-06
-4.68528e-06 1.46281e-06 0.000334582
0.00245908 0.000536586 5.74103e-07
0.000536586 -8.43472e-05 -9.17855e-07
5.74103e-07 -9.17855e-07 -3.7965e-05
0.00258336 0.000685504 3.28275e-06
0.000685504 0.000338782 6.74349e-09
3.28275e-06 6.74349e-09 0.000122956
0.00219452 0.000792495 -2.72624e-06
0.000792495 0.000333117 6.74891e-09
-2.72624e-06 6.74891e-09 -4.00062e-05
0.00192883 0.000834252 1.41476e-06
0.000834252 0.00046971 1.87189e-07
1.41476e-06 1.87189e-07 -2.02137e-05
-0.000553115 3.65823e-05 -4.02462e-06
3.65823e-05 -0.000559776 4.46413e-06
-4.02462e-06 4.46413e-06 -0.000732263
0.00233569 0.000401245 1.12391e-05
0.000401245 -0.00019607 2.89028e-06
1.12391e-05 2.89028e-06 -0.000102439
0.00274066 0.000574905 7.28685e-06
0.000574905 0.00152011 9.02673e-06
7.28685e-06 9.02673e-06 0.0011453
0.00146843 0.000569908 3.87274e-06
0.000569908 0.000339784 -4.32712e-06
3.87274e-06 -4.32712e-06 -4.84782e-05
0.00255955 0.00066791 -1.25785e-05
0.00066791 0.000126971 -8.01005e-06
-1.25785e-05 -8.01005e-06 7.7743e-05
0.00130185 0.000740513 4.06488e-06
0.000740513 -0.000290625 -8.98433e-06
4.06488e-06 -8.98433e-06 -0.00064153
0.00285124 0.000966682 1.968e-06
0.000966682 0.00093944 3.38943e-06
1.968e-06 3.38943e-06 0.000420178
0.000683738 0.000134034 -1.23907e-06
0.000134034 0.000179231 -2.76082e-06
-1.23907e-06 -2.76082e-06 3.94946e-05
0.000569292 0.000123838 -3.66538e-06
0.000123838 0.000136707 -1.38531e-06
-3.66538e-06 -1.38531e-06 2.54758e-05
0.000636338 0.000101089 -3.14459e-06
0.000101089 0.000199868 4.57614e-06
-3.14459e-06 4.57614e-06 0.000125465
0.000458762 9.76559e-06 1.45626e-06
9.76559e-06 4.24288e-05 -3.82147e-06
1.45626e-06 -3.82147e-06 -7.69044e-05
0.000556181 8.65419e-05 2.82955e-06
8.65419e-05 0.000144412 -2.03645e-06
2.82955e-06 -2.03645e-06 -2.57477e-05
-0.000553524 0.00010633 -3.37305e-06
0.00010633 -0.000517644 6.99404e-06
-3.37305e-06 6.99404e-06 -0.000648238
0.000530746 2.50044e-05 -1.61679e-06
2.50044e-05 9.12314e-05 7.69458e-09
-1.61679e-06 7.69458e-09 -3.43742e-05
0.000267876 -2.63096e-06 -8.04169e-07
-2.63096e-06 -3.61401e-05 -2.50254e-07
-8.04169e-07 -2.50254e-07 -0.00020003
2.48402e-05 6.78021e-05 -2.27149e-06
6.78021e-05 -0.000228796 2.49778e-06
-2.27149e-06 2.49778e-06 -0.000301124
0.000739578 0.000121302 1.1971e-06
0.000121302 0.000261968 -1.61239e-06
1.1971e-06 -1.61239e-06 9.19303e-05
0.00180346 0.000164392 -1.43655e-06
0.000164392 0.000843232 -2.33607e-06
-1.43655e-06 -2.33607e-06 0.000794503
0.000207644 2.93018e-05 1.05977e-05
2.93018e-05 -0.000115186 -8.68439e-06
1.05977e-05 -8.68439e-06 -0.000204756
0.000366155 0.000120519 6.92469e-07
0.000120519 3.74985e-05 3.21743e-06
6.92469e-07 3.21743e-06 -0.000141059
0.00054288 6.04069e-05 1.11867e-06
6.04069e-05 0.000125782 4.3614e-06
1.11867e-06 4.3614e-06 -4.76973e-05
0.000541221 2.85368e-05 2.10672e-06
2.85368e-05 8.63484e-05 3.48766e-06
2.10672e-06 3.48766e-06 -4.00146e-05
0.000484896 -6.50667e-05 -1.31586e-06
-6.50667e-05 3.57316e-05 3.16036e-06
-1.31586e-06 3.16036e-06 -4.92033e-05
0.000475978 1.37808e-05 5.29076e-07
1.37808e-05 2.48144e-05 -4.24581e-07
5.29076e-07 -4.24581e-07 -5.36778e-05
0.00131105 2.95779e-05 3.47274e-06
2.95779e-05 0.000530524 3.44011e-06
3.47274e-06 3.44011e-06 0.000508919
0.000478134 9.4836e-06 6.2097e-07
9.4836e-06 1.6022e-05 -3.72429e-06
6.2097e-07 -3.72429e-06 -5.35124e-05
0.00132694 1.59245e-05 -7.63635e-06
1.59245e-05 0.000533747 -1.81287e-06
-7.63635e-06 -1.81287e-06 0.000513561
0.00074717 -6.38004e-06 2.44843e-05
-6.38004e-06 0.000158919 9.188e-06
2.44843e-05 9.188e-06 0.000163448
0.00134749 -1.22569e-05 -8.78348e-06
-1.22569e-05 0.000539605 -7.08495e-06
-8.78348e-06 -7.08495e-06 0.000521137
0.000763305 -1.83968e-05 9.33144e-06
-1.83968e-05 0.000161009 3.61555e-06
9.33144e-06 3.61555e-06 0.000164502
0.000748111 -3.04894e-05 6.69849e-07
-3.04894e-05 0.000148156 -3.13256e-06
6.69849e-07 -3.13256e-06 0.000149358
0.000615967 -1.61745e-05 1.55751e-06
-1.61745e-05 9.26545e-05 -1.41507e-06
1.55751e-06 -1.41507e-06 3.84963e-05
0.000381021 2.84494e-05 -1.21829e-07
2.84494e-05 -7.17744e-05 -3.82027e-06
-1.21829e-07 -3.82027e-06 -9.24017e-05
0.000402899 4.89877e-05 3.21009e-07
4.89877e-05 -4.27557e-05 2.81771e-07
3.21009e-07 2.81771e-07 -7.33856e-05
0.00244132 9.96769e-05 9.15742e-06
9.96769e-05 0.00125529 -4.96082e-06
9.15742e-06 -4.96082e-06 0.00125709
0.000455867 5.57788e-05 4.142e-06
5.57788e-05 3.33348e-06 7.65543e-06
4.142e-06 7.65543e-06 -3.95364e-05
0.00285484 0.000139576 -4.7366e-06
0.000139576 0.00153228 -5.49295e-07
-4.7366e-06 -5.49295e-07 0.00152361
0.00354439 0.000116412 -5.97338e-05
0.000116412 0.00196473 6.7357e-06
-5.97338e-05 6.7357e-06 0.00195833
0.00226009 0.000405485 1.13266e-06
0.000405485 6.92152e-06 2.44831e-07
1.13266e-06 2.44831e-07 -1.26623e-05
0.00218889 0.000220021 5.25072e-07
0.000220021 -2.77364e-05 3.82734e-07
5.25072e-07 3.82734e-07 5.06467e-06
0.0020937 7.08604e-05 5.6709e-07
7.08604e-05 -3.76692e-05 -1.14311e-07
5.6709e-07 -1.14311e-07 -3.17915e-06
0.00202744 -1.00936e-05 -4.02178e-06
-1.00936e-05 1.58537e-05 -2.50982e-07
-4.02178e-06 -2.50982e-07 1.447e-05
0.00208761 -1.17879e-05 -9.47117e-07
-1.17879e-05 -3.7029e-05 -3.56781e-08
-9.47117e-07 -3.56781e-08 -3.89872e-06
0.00222752 0.000112228 8.87849e-08
0.000112228 -6.48998e-05 4.30893e-07
8.87849e-08 4.30893e-07 1.08047e-05
0.00235077 0.000330107 -1.15367e-06
0.000330107 -3.99696e-05 -1.72045e-07
-1.15367e-06 -1.72045e-07 9.93355e-06
0.00220655 -1.15827e-05 -3.03331e-06
-1.15827e-05 -8.4381e-05 3.41232e-07
-3.03331e-06 3.41232e-07 3.87693e-06
0.00247048 0.000167914 1.81645e-06
0.000167914 -5.404e-05 -1.62472e-06
1.81645e-06 -1.62472e-06 3.66492e-05
0.00259954 0.000128882 1.21706e-05
0.000128882 9.03053e-05 1.22439e-05
1.21706e-05 1.22439e-05 0.000187775
0.00211595 -9.76341e-05 -5.72526e-07
-9.76341e-05 -1.39748e-05 -1.11407e-07
-5.72526e-07 -1.11407e-07 1.06265e-05
0.00219705 -0.000280942 -3.06347e-07
-0.000280942 -7.49553e-05 -3.95417e-07
-3.06347e-07 -3.95417e-07 -2.50388e-05
0.0022492 -0.000447359 8.59704e-08
-0.000447359 1.15242e-05 -1.99263e-07
8.59704e-08 -1.99263e-07 8.11275e-06
0.00132309 -0.000643129 1.08153e-05
-0.000643129 0.000307123 -4.19167e-06
1.08153e-05 -4.19167e-06 -0.000151667
0.0020146 -0.000869073 3.63375e-05
-0.000869073 0.000549991 -3.08665e-06
3.63375e-05 -3.08665e-06 3.38353e-05
0.00206996 -0.000808108 1.56608e-05
-0.000808108 0.000397114 -2.20834e-06
1.56608e-05 -2.20834e-06 -1.50917e-05
0.00223642 -0.000603459 2.39595e-06
-0.000603459 4.61141e-05 2.88881e-06
2.39595e-06 2.88881e-06 -3.45464e-05
0.00197973 -0.000698002 1.36576e-05
-0.000698002 0.000129668 4.61559e-06
1.36576e-05 4.61559e-06 -0.000108574
0.000560927 -0.000462141 1.97547e-05
-0.000462141 -8.67624e-05 -2.17034e-05
1.97547e-05 -2.17034e-05 -0.000495175
0.00129437 -0.000420436 1.66165e-05
-0.000420436 0.000502771 -2.10668e-05
1.66165e-05 -2.10668e-05 3.23462e-05
0.00132985 -0.000175404 -4.80415e-06
-0.000175404 0.000499987 3.30983e-06
-4.80415e-06 3.30983e-06 0.000188915
0.000407916 1.57429e-05 2.70675e-06
1.57429e-05 -1.66497e-05 9.90431e-07
2.70675e-06 9.90431e-07 -9.07112e-05
0.000443806 2.37835e-05 7.66772e-06
2.37835e-05 5.71122e-05 6.17454e-07
7.66772e-06 6.17454e-07 -0.00012171
0.000304182 -0.000154479 1.89714e-06
-0.000154479 -4.57744e-06 6.90855e-06
1.89714e-06 6.90855e-06 -0.000300612
0.00222365 -0.000140671 5.63069e-07
-0.000140671 -7.00946e-05 -2.48645e-08
5.63069e-07 -2.48645e-08 1.12494e-05
0.000475943 6.61465e-06 1.87156e-06
6.61465e-06 1.03523e-05 3.59906e-07
1.87156e-06 3.59906e-07 -4.84684e-05
0.00038509 -7.8567e-05 -2.81176e-06
-7.8567e-05 -1.82114e-05 -7.11707e-07
-2.81176e-06 -7.11707e-07 -0.000117296
0.00234254 -0.00037922 -2.39402e-07
-0.00037922 -8.80206e-05 8.18512e-08
-2.39402e-07 8.18512e-08 3.79428e-06
0.00230292 -0.000548457 -1.88328e-06
-0.000548457 -5.75544e-06 4.32297e-07
-1.88328e-06 4.32297e-07 4.91183e-06
0.00187402 -0.000753911 -8.82232e-07
-0.000753911 0.000621065 2.11019e-06
-8.82232e-07 2.11019e-06 0.000127725
0.00196836 -0.000946347 1.04418e-05
-0.000946347 0.000480597 1.92483e-07
1.04418e-05 1.92483e-07 -7.76228e-05
0.00226458 -0.000911729 1.83933e-06
-0.000911729 0.000395767 -5.77957e-06
1.83933e-06 -5.77957e-06 1.86492e-06
0.0023806 -0.000761127 2.89323e-06
-0.000761127 0.000142918 -9.08725e-07
2.89323e-06 -9.08725e-07 -5.74034e-06
0.000642133 1.01024e-05 -9.91706e-07
1.01024e-05 0.000191241 -1.41623e-06
-9.91706e-07 -1.41623e-06 6.00928e-05
0.000778032 -6.27721e-05 1.56953e-06
-6.27721e-05 0.000299938 2.18137e-06
1.56953e-06 2.18137e-06 5.90028e-05
0.00141896 -0.000578898 6.06078e-06
-0.000578898 0.000476478 7.07916e-06
6.06078e-06 7.07916e-06 4.65078e-05
0.00132996 -0.000433378 1.31919e-05
-0.000433378 0.000652585 -9.05356e-06
1.31919e-05 -9.05356e-06 4.69684e-05
0.000934234 -0.000183188 -4.14832e-09
-0.000183188 0.00028596 -3.63765e-07
-4.14832e-09 -3.63765e-07 -8.87588e-05
0.000131459 -0.000124808 8.94961e-07
-0.000124808 -0.000137512 -2.85042e-06
8.94961e-07 -2.85042e-06 -0.00043903
0.00222918 -0.00016532 2.82988e-07
-0.00016532 -0.000231192 1.16145e-06
2.82988e-07 1.16145e-06 -0.000116771
0.00235683 -0.000490006 -5.07434e-07
-0.000490006 -0.000238287 3.09695e-06
-5.07434e-07 3.09695e-06 -1.01342e-05
0.00261784 -0.000769093 -4.8172e-06
-0.000769093 0.000114323 -2.4019e-06
-4.8172e-06 -2.4019e-06 7.99268e-05
0.00261824 -0.000993928 1.25419e-05
-0.000993928 0.000364654 -5.06673e-06
1.25419e-05 -5.06673e-06 0.000107486
0.00116087 -0.000713033 -5.03182e-06
-0.000713033 0.000250129 -2.02542e-05
-5.03182e-06 -2.02542e-05 -0.000258558
0.00333491 -0.00120053 -1.40102e-05
-0.00120053 0.0011389 5.87204e-06
-1.40102e-05 5.87204e-06 0.000537473
0.000217405 5.91295e-05 -2.80547e-06
5.91295e-05 -0.000120258 -4.54563e-06
-2.80547e-06 -4.54563e-06 -0.000226033
0.000505488 -4.73443e-05 4.76183e-06
-4.73443e-05 6.41083e-05 7.96333e-07
4.76183e-06 7.96333e-07 -2.95318e-05
0.00132549 -0.000183063 -4.11118e-06
-0.000183063 0.000541436 1.67493e-05
-4.11118e-06 1.67493e-05 0.000416651
0.000376076 1.16721e-05 -4.50416e-06
1.16721e-05 3.94358e-06 5.36466e-06
-4.50416e-06 5.36466e-06 -0.000171177
0.000812646 -0.000122098 -5.35925e-06
-0.000122098 0.000307025 9.74285e-06
-5.35925e-06 9.74285e-06 4.21531e-05
0.00126853 -0.000100202 1.38246e-05
-0.000100202 0.000484631 -1.59558e-05
1.38246e-05 -1.59558e-05 0.000215638
-0.00102229 -0.000349169 -2.37256e-06
-0.000349169 -0.000408754 -3.42408e-06
-2.37256e-06 -3.42408e-06 -0.00129247
0.000307687 -0.00062246 -6.14542e-05
-0.00062246 -0.000255803 3.09581e-05
-6.14542e-05 3.09581e-05 -0.000632714
0.000388606 0.000112441 -9.20158e-07
0.000112441 4.62808e-05 -2.28571e-06
-9.20158e-07 -2.28571e-06 -0.000173153
0.00155313 0.00035485 -1.2027e-05
0.00035485 0.000801008 -6.79154e-06
-1.2027e-05 -6.79154e-06 0.000477407
0.00241408 0.000512733 -8.53166e-06
0.000512733 -0.000128217 -2.13343e-06
-8.53166e-06 -2.13343e-06 -6.94794e-05
0.00258773 0.000695169 -8.17356e-06
0.000695169 0.000344494 -8.47489e-07
-8.17356e-06 -8.47489e-07 0.000117934
0.00325321 0.000509289 -6.4459e-06
0.000509289 0.00147718 1.70073e-06
-6.4459e-06 1.70073e-06 0.00119067
0.00157604 0.000588897 -6.47623e-06
0.000588897 0.000467058 -2.11216e-06
-6.47623e-06 -2.11216e-06 4.63153e-05
0.00213758 0.000771241 -6.32397e-06
0.000771241 0.000319537 2.1262e-06
-6.32397e-06 2.1262e-06 -4.53751e-05
0.00225073 0.00085999 -6.70771e-06
0.00085999 0.000641435 -3.91188e-07
-6.70771e-06 -3.91188e-07 0.000154794
0.000193431 0.0001275 1.68451e-06
0.0001275 -5.59078e-05 -1.06578e-06
1.68451e-06 -1.06578e-06 -0.000275299
0.00247526 0.000385934 -2.18736e-06
0.000385934 -0.000106643 -2.03898e-06
-2.18736e-06 -2.03898e-06 -6.51723e-06
0.00151191 0.000393001 1.30311e-06
0.000393001 0.000737462 2.09254e-06
1.30311e-06 2.09254e-06 0.000414312
0.00161466 0.000578716 2.19581e-06
0.000578716 0.000459325 1.34637e-06
2.19581e-06 1.34637e-06 6.68333e-05
0.00263405 0.000660501 1.3892e-06
0.000660501 0.000192308 2.84151e-07
1.3892e-06 2.84151e-07 0.000140231
0.00179682 0.000789065 -1.99123e-06
0.000789065 5.95258e-06 -4.8668e-06
-1.99123e-06 -4.8668e-06 -0.000351653
0.00228871 0.00088189 -3.73104e-07
0.00088189 0.000634802 7.526e-08
-3.73104e-07 7.526e-08 0.000133146
0.00139698 0.000337632 -2.64404e-06
0.000337632 0.000811065 -7.49596e-07
-2.64404e-06 -7.49596e-07 0.000513048
0.00368072 0.00058636 -8.25214e-05
0.00058636 0.000583595 -2.10887e-05
-8.25214e-05 -2.10887e-05 0.00076833
0.00066138 0.000484713 -1.04804e-05
0.000484713 0.000159012 6.19374e-06
-1.04804e-05 6.19374e-06 -0.00021111
0.00150856 0.000659078 -4.62006e-06
0.000659078 0.000333152 -8.65601e-06
-4.62006e-06 -8.65601e-06 -0.00011935
0.00251024 0.000882048 -3.40795e-05
0.000882048 0.000256665 -2.16563e-05
-3.40795e-05 -2.16563e-05 1.67859e-05
0.00116495 0.000761832 -2.4715e-05
0.000761832 -3.88543e-05 -3.70092e-06
-2.4715e-05 -3.70092e-06 -0.000493735
0.000478015 0.000963459 3.56672e-05
0.000963459 -0.00198914 -3.71809e-05
3.56672e-05 -3.71809e-05 -0.00147281
-4.6108e-05 0.000144569 5.1264e-06
0.000144569 -0.000205606 -8.79648e-07
5.1264e-06 -8.79648e-07 -0.000330423
0.000474765 0.000118619 3.01535e-06
0.000118619 0.00013981 2.35954e-06
3.01535e-06 2.35954e-06 5.17392e-05
0.00129973 0.00015543 1.64835e-06
0.00015543 0.000621708 2.23144e-06
1.64835e-06 2.23144e-06 0.000545189
0.000381542 -6.54832e-05 1.35826e-06
-6.54832e-05 4.17154e-06 -4.63188e-06
1.35826e-06 -4.63188e-06 -0.000124238
0.000345127 -3.0653e-05 -4.89785e-07
-3.0653e-05 1.05132e-05 -2.0182e-06
-4.89785e-07 -2.0182e-06 -0.00015076
0.00132718 0.000220102 1.92932e-07
0.000220102 0.000632991 1.15173e-07
1.92932e-07 1.15173e-07 0.000451103
-0.000265241 4.29476e-05 -7.1489e-06
4.29476e-05 -0.000385821 1.54685e-05
-7.1489e-06 1.54685e-05 -0.000454759
0.000503183 -1.61402e-05 -2.39557e-07
-1.61402e-05 8.02102e-05 -1.86604e-07
-2.39557e-07 -1.86604e-07 -5.57186e-05
0.000409662 7.63709e-05 2.18702e-07
7.63709e-05 1.72172e-05 -7.40686e-07
2.18702e-07 -7.40686e-07 -0.000137325
0.00113875 0.000138108 2.86232e-06
0.000138108 0.00042804 4.45186e-06
2.86232e-06 4.45186e-06 0.000382926
0.000420135 7.80021e-05 1.6432e-06
7.80021e-05 4.79568e-05 7.95942e-07
1.6432e-06 7.95942e-07 -0.000116999
0.000680914 6.98149e-05 -9.48326e-07
6.98149e-05 0.000174826 -2.08257e-06
-9.48326e-07 -2.08257e-06 7.16221e-05
0.00139994 0.000145708 -3.76909e-06
0.000145708 0.000643094 -1.42349e-05
-3.76909e-06 -1.42349e-05 0.000585236
0.000817277 0.000153306 -2.68006e-06
0.000153306 0.000237053 -2.72179e-06
-2.68006e-06 -2.72179e-06 8.83439e-05
0.000932195 0.000139975 1.69741e-06
0.000139975 0.000362477 2.637e-06
1.69741e-06 2.637e-06 0.000184294
0.00088977 0.000112832 -5.45696e-07
0.000112832 0.000338297 1.92363e-06
-5.45696e-07 1.92363e-06 0.000154943
0.000212764 -2.46246e-05 -1.55546e-06
-2.46246e-05 -0.000126153 2.00183e-06
-1.55546e-06 2.00183e-06 -0.000255779
0.00124319 -0.000104133 6.47731e-07
-0.000104133 0.00061658 -1.4019e-06
6.47731e-07 -1.4019e-06 0.00040743
0.000128938 -4.7235e-05 -1.05496e-06
-4.7235e-05 -0.00017355 3.82757e-06
-1.05496e-06 3.82757e-06 -0.000308429
0.000431973 3.25699e-06 -2.23425e-06
3.25699e-06 8.70617e-06 2.99051e-06
-2.23425e-06 2.99051e-06 -8.04238e-05
0.000451607 4.03746e-05 2.52506e-06
4.03746e-05 1.91012e-05 -1.24833e-07
2.52506e-06 -1.24833e-07 -6.83866e-05
0.000362145 2.12524e-05 -8.39218e-07
2.12524e-05 -6.50547e-05 4.72808e-06
-8.39218e-07 4.72808e-06 -9.07189e-05
0.000400494 4.68113e-06 -1.94355e-06
4.68113e-06 -1.24761e-05 -4.07425e-06
-1.94355e-06 -4.07425e-06 -9.74074e-05
0.000875245 1.67465e-05 -3.87734e-06
1.67465e-05 0.000254631 -1.52434e-06
-3.87734e-06 -1.52434e-06 0.000231756
0.00265673 -1.59258e-06 2.28237e-05
-1.59258e-06 0.00137031 5.70954e-06
2.28237e-05 5.70954e-06 0.00138268
0.0014126 3.28668e-05 -1.23921e-05
3.28668e-05 0.000589348 -7.23745e-06
-1.23921e-05 -7.23745e-06 0.000568488
0.000766782 -8.85673e-06 8.53427e-06
-8.85673e-06 0.000167836 3.54527e-06
8.53427e-06 3.54527e-06 0.000171677
0.00081319 -2.06421e-05 8.86917e-07
-2.06421e-05 0.000188924 -2.88852e-06
8.86917e-07 -2.88852e-06 0.000191939
0.00046564 1.33815e-05 -2.03497e-06
1.33815e-05 5.20125e-06 -2.37133e-06
-2.03497e-06 -2.37133e-06 -4.91764e-05
0.000545691 -3.06305e-05 7.1654e-07
-3.06305e-05 5.18548e-05 -3.48532e-07
7.1654e-07 -3.48532e-07 -4.2255e-06
0.00047448 2.34355e-05 3.3683e-07
2.34355e-05 -1.91574e-05 -3.50739e-06
3.3683e-07 -3.50739e-06 -3.54277e-05
0.000793636 4.14617e-05 7.9514e-09
4.14617e-05 0.000192193 1.80142e-07
7.9514e-09 1.80142e-07 0.000172421
0.00227708 7.72653e-05 7.22483e-06
7.72653e-05 0.00114221 -4.75279e-06
7.22483e-06 -4.75279e-06 0.0011495
0.000464984 6.05533e-05 5.29111e-06
6.05533e-05 3.29915e-06 5.96449e-06
5.29111e-06 5.96449e-06 -3.14684e-05
0.0025259 0.000106515 -2.75926e-06
0.000106515 0.00131091 -2.76638e-07
-2.75926e-06 -2.76638e-07 0.00131102
0.00293407 0.00014402 1.16093e-05
0.00014402 0.00158304 8.37461e-06
1.16093e-05 8.37461e-06 0.00157334
0.00226095 0.000336731 -5.10357e-07
0.000336731 -8.45144e-05 6.87704e-07
-5.10357e-07 6.87704e-07 -3.46307e-05
0.00221197 0.000107453 4.14547e-06
0.000107453 -6.61747e-05 2.26372e-07
4.14547e-06 2.26372e-07 8.21786e-06
0.00209733 -7.32036e-06 6.75993e-07
-7.32036e-06 -3.30343e-05 -3.41063e-07
6.75993e-07 -3.41063e-07 3.003e-06
0.00218972 -6.88672e-06 4.95388e-08
-6.88672e-06 -9.35366e-05 -3.15607e-07
4.95388e-08 -3.15607e-07 -5.47708e-06
0.00241391 0.000174245 -1.35882e-08
0.000174245 -7.55302e-05 4.15321e-07
-1.35882e-08 4.15321e-07 1.43522e-05
0.00243135 0.000104591 8.09297e-06
0.000104591 -2.59104e-05 -6.68416e-06
8.09297e-06 -6.68416e-06 6.41825e-05
0.00250338 4.14972e-06 -2.49907e-06
4.14972e-06 -0.000108534 -1.4521e-06
-2.49907e-06 -1.4521e-06 2.93304e-05
0.0047652 0.00100804 7.39951e-05
0.00100804 -0.000649397 1.53101e-05
7.39951e-05 1.53101e-05 0.000204231
0.00299684 8.77531e-05 -2.27718e-05
8.77531e-05 0.000470439 3.09462e-05
-2.27718e-05 3.09462e-05 0.000711916
0.000477863 0.000114234 -2.78735e-06
0.000114234 5.24301e-05 -1.09722e-06
-2.78735e-06 -1.09722e-06 -4.91692e-05
0.00222651 -0.000141609 1.65845e-06
-0.000141609 -7.72664e-05 -1.36992e-06
1.65845e-06 -1.36992e-06 6.55882e-06
0.00231857 -0.000368252 2.16687e-06
-0.000368252 -7.92835e-05 -5.18633e-07
2.16687e-06 -5.18633e-07 4.38143e-07
0.00225625 -0.000537201 1.72987e-07
-0.000537201 -2.64523e-05 8.58057e-07
1.72987e-07 8.58057e-07 -6.76651e-06
0.00142679 -0.000712194 3.74461e-06
-0.000712194 0.000368988 1.02842e-05
3.74461e-06 1.02842e-05 -0.000111894
0.00228642 -0.000970941 3.53313e-05
-0.000970941 0.000661464 9.07586e-06
3.53313e-05 9.07586e-06 0.000107099
0.00123014 -0.000795842 -1.4213e-07
-0.000795842 -0.000187619 -5.82193e-07
-1.4213e-07 -5.82193e-07 -0.000553221
0.00234959 -0.000760848 -2.77283e-06
-0.000760848 0.000122752 1.96374e-06
-2.77283e-06 1.96374e-06 -1.98302e-05
0.00157487 -0.000568422 4.80883e-05
-0.000568422 0.000478156 -3.98604e-05
4.80883e-05 -3.98604e-05 9.54063e-05
0.00152608 -0.00047645 2.50386e-05
-0.00047645 0.000704214 -4.19155e-05
2.50386e-05 -4.19155e-05 0.000149762
0.000468245 -7.00148e-05 6.81723e-07
-7.00148e-05 -4.9631e-05 9.76933e-06
6.81723e-07 9.76933e-06 -0.00038013
0.00047308 1.07765e-05 2.65447e-06
1.07765e-05 1.01703e-05 9.76813e-07
2.65447e-06 9.76813e-07 -4.96967e-05
0.00156207 -0.000137829 1.01667e-06
-0.000137829 0.000762047 1.0141e-05
1.01667e-06 1.0141e-05 0.000438085
0.0008818 -2.3968e-05 8.00143e-06
-2.3968e-05 0.000355438 -1.5486e-06
8.00143e-06 -1.5486e-06 0.000218804
0.000626504 -6.30213e-05 3.68021e-06
-6.30213e-05 0.000193709 -3.33793e-06
3.68021e-06 -3.33793e-06 -4.08017e-05
5.70232e-05 -4.54219e-05 -3.98942e-06
-4.54219e-05 -0.000235275 -6.89844e-07
-3.98942e-06 -6.89844e-07 -0.000328631
0.0023127 -0.000184222 -1.49293e-07
-0.000184222 -0.000210731 2.96356e-07
-1.49293e-07 2.96356e-07 -6.84317e-05
0.00033296 3.09042e-05 5.60595e-07
3.09042e-05 -3.53682e-05 -2.70183e-06
5.60595e-07 -2.70183e-06 -0.000145869
0.0005958 -6.56349e-05 2.9975e-06
-6.56349e-05 0.00014193 1.10856e-06
2.9975e-06 1.10856e-06 3.5935e-05
0.00103444 -0.00015005 5.6143e-06
-0.00015005 0.000360395 -1.68471e-07
5.6143e-06 -1.68471e-07 0.000248247
0.00237124 -0.000505504 2.17049e-06
-0.000505504 -0.000210987 -9.731e-07
2.17049e-06 -9.731e-07 -2.35695e-05
0.00249242 -0.000759216 4.33088e-07
-0.000759216 4.56483e-05 -3.53596e-07
4.33088e-07 -3.53596e-07 1.30396e-05
0.000569002 -0.000569633 7.19378e-06
-0.000569633 -9.97737e-05 -8.78147e-08
7.19378e-06 -8.78147e-08 -0.000533998
0.00278344 -0.0011468 2.10391e-05
-0.0011468 0.000803714 5.9446e-07
2.10391e-05 5.9446e-07 0.000229606
0.00252761 -0.000992064 -6.35146e-07
-0.000992064 0.000329097 2.20667e-06
-6.35146e-07 2.20667e-06 6.13707e-05
0.00027718 -2.57682e-05 -2.75114e-07
-2.57682e-05 -5.69568e-05 3.0707e-07
-2.75114e-07 3.0707e-07 -0.000225901
0.00118078 -0.000146698 1.24103e-07
-0.000146698 0.000559781 3.35625e-06
1.24103e-07 3.35625e-06 0.000268698
0.00196601 -0.000836273 3.67401e-08
-0.000836273 0.000716236 1.80264e-06
3.67401e-08 1.80264e-06 0.000229597
0.000236784 -0.000281839 -1.61473e-06
-0.000281839 9.36258e-05 4.48616e-06
-1.61473e-06 4.48616e-06 -0.000586598
0.00126997 -0.00014159 1.57156e-06
-0.00014159 0.000485875 6.44684e-06
1.57156e-06 6.44684e-06 0.000211873
0.00275211 -0.00035213 -8.58363e-06
-0.00035213 4.20488e-05 4.79977e-06
-8.58363e-06 4.79977e-06 0.000200392
0.00212467 -0.000564521 -1.50185e-05
-0.000564521 -0.000335084 7.72731e-06
-1.50185e-05 7.72731e-06 -6.90849e-05
0.00228295 -0.000892699 -8.51507e-06
-0.000892699 6.2424e-05 -4.33691e-06
-8.51507e-06 -4.33691e-06 -0.00012775
0.00486809 -0.00136815 -2.16998e-06
-0.00136815 0.0017733 -1.78611e-06
-2.16998e-06 -1.78611e-06 0.00137194
-0.000221762 -0.000673445 -1.71248e-05
-0.000673445 -0.000597474 -3.35073e-06
-1.71248e-05 -3.35073e-06 -0.0010618
-1.40973e-05 -3.0056e-05 1.13865e-06
-3.0056e-05 -0.000250798 2.79735e-06
1.13865e-06 2.79735e-06 -0.000363079
0.000945872 -5.84856e-06 -5.20272e-06
-5.84856e-06 0.000266171 1.61247e-05
-5.20272e-06 1.61247e-05 0.000153824
-0.00142556 -0.000151929 -7.16369e-06
-0.000151929 -0.0011745 2.61047e-06
-7.16369e-06 2.61047e-06 -0.00126118
0.00214016 -0.000319405 -3.20123e-05
-0.000319405 0.00112833 2.99336e-05
-3.20123e-05 2.99336e-05 0.000886345
0.00100319 -0.00013483 -4.53498e-06
-0.00013483 0.00043233 2.77787e-05
-4.53498e-06 2.77787e-05 0.000164758
-0.00151018 -0.000137878 6.04171e-06
-0.000137878 -0.000511266 -2.67133e-06
6.04171e-06 -2.67133e-06 -0.0013113
0.000643027 -0.000891675 -2.41003e-05
-0.000891675 0.000261768 1.13269e-05
-2.41003e-05 1.13269e-05 -0.000439662
0.00174669 0.000354 -5.54086e-06
0.000354 0.000918467 -6.04808e-06
-5.54086e-06 -6.04808e-06 0.000661182
-0.000327372 0.000152919 -5.36827e-06
0.000152919 -0.000410279 -1.86732e-06
-5.36827e-06 -1.86732e-06 -0.000671674
0.00262506 0.000361822 2.20039e-06
0.000361822 -1.86672e-05 1.75356e-06
2.20039e-06 1.75356e-06 9.72499e-05
0.00265293 0.000649814 1.19115e-05
0.000649814 0.000216448 6.28956e-06
1.19115e-05 6.28956e-06 0.000166547
0.00223137 0.000830894 5.5724e-06
0.000830894 0.000266778 3.47525e-06
5.5724e-06 3.47525e-06 -9.56839e-05
0.00167063 0.000576706 -2.49589e-06
0.000576706 0.000527582 3.13896e-06
-2.49589e-06 3.13896e-06 0.000133448
0.00172483 0.000800068 2.09773e-06
0.000800068 0.000328954 3.97278e-06
2.09773e-06 3.97278e-06 -0.000155241
0.00227299 0.000400679 9.78139e-07
0.000400679 0.00127331 -9.97026e-07
9.78139e-07 -9.97026e-07 0.00101287
0.00288084 0.0004725 7.15557e-06
0.0004725 0.000159124 3.73681e-06
7.15557e-06 3.73681e-06 0.000384264
0.00100336 0.000442166 -4.82667e-06
0.000442166 0.000331724 5.49368e-06
-4.82667e-06 5.49368e-06 9.45681e-07
0.00169144 0.000688524 3.23346e-06
0.000688524 0.000480079 -9.46445e-07
3.23346e-06 -9.46445e-07 7.96574e-06
0.00248731 0.000863948 -2.89522e-06
0.000863948 0.000261363 -3.89614e-06
-2.89522e-06 -3.89614e-06 4.44634e-05
0.00189386 0.000856985 -4.41518e-06
0.000856985 0.00037273 5.67955e-06
-4.41518e-06 5.67955e-06 -0.000105021
0.003098 0.00130643 3.54669e-05
0.00130643 -0.000879651 7.49935e-06
3.54669e-05 7.49935e-06 -0.000543117
4.1645e-05 0.000284667 1.33216e-06
0.000284667 1.70832e-05 2.43136e-07
1.33216e-06 2.43136e-07 -0.00026888
0.00282637 0.000866139 -8.53844e-05
0.000866139 0.000251636 -4.14861e-05
-8.53844e-05 -4.14861e-05 0.000223504
0.000509879 0.000438108 -9.89814e-06
0.000438108 -0.000166078 4.35762e-06
-9.89814e-06 4.35762e-06 -0.000515131
-1.33311e-05 0.000531002 -3.17681e-06
0.000531002 -0.000528171 -1.85853e-05
-3.17681e-06 -1.85853e-05 -0.000963589
0.0017072 0.000961918 -4.33425e-05
0.000961918 3.41113e-05 -1.65145e-05
-4.33425e-05 -1.65145e-05 -0.000283036
0.0152875 0.000505024 -0.00059141
0.000505024 0.00200643 -9.51126e-05
-0.00059141 -9.51126e-05 0.00180663
0.00325703 0.0020012 -7.49701e-05
0.0020012 -0.0026138 -7.04751e-05
-7.49701e-05 -7.04751e-05 -0.000839935
0.000758686 0.00152432 2.04485e-05
0.00152432 -0.000803553 -2.71986e-07
2.04485e-05 -2.71986e-07 -0.00104121
0.00415392 -0.00271206 0.0018573
-0.00271206 0.00254279 0.000333227
0.0018573 0.000333227 -0.00152576
0.0248846 -0.0101693 -4.9621e-05
-0.0101693 0.0106961 8.26568e-05
-4.9621e-05 8.26568e-05 0.00648284
0.000321998 0.000131425 7.302e-06
0.000131425 7.20677e-05 2.07224e-06
7.302e-06 2.07224e-06 -2.58565e-05
0.000854944 0.000128062 -2.24823e-06
0.000128062 0.000383497 -2.90633e-06
-2.24823e-06 -2.90633e-06 0.00029691
0.00163315 0.000271896 3.07691e-06
0.000271896 0.000887016 -1.29435e-06
3.07691e-06 -1.29435e-06 0.000750864
0.000499148 -5.87848e-05 3.30443e-07
-5.87848e-05 8.79516e-05 -3.06947e-06
3.30443e-07 -3.06947e-06 -5.37678e-05
0.000402209 6.96964e-05 -5.12658e-07
6.96964e-05 1.67382e-05 -3.89575e-06
-5.12658e-07 -3.89575e-06 -0.000138265
0.000726362 -1.6197e-05 -4.37692e-07
-1.6197e-05 0.000239593 -2.06705e-06
-4.37692e-07 -2.06705e-06 7.28927e-05
0.000982079 9.48709e-05 -2.19839e-06
9.48709e-05 0.00035265 1.07016e-05
-2.19839e-06 1.07016e-05 0.000243157
0.000119811 9.57883e-05 3.96294e-06
9.57883e-05 -0.000204967 8.59712e-06
3.96294e-06 8.59712e-06 -0.00024345
0.000811121 0.000163455 -1.31162e-06
0.000163455 0.000323334 -1.34113e-07
-1.31162e-06 -1.34113e-07 0.000122926
0.000397166 -1.67387e-05 3.20635e-07
-1.67387e-05 3.83433e-07 1.12638e-06
3.20635e-07 1.12638e-06 -0.000135682
0.000708549 6.20627e-05 -8.27184e-07
6.20627e-05 0.000217421 4.00629e-08
-8.27184e-07 4.00629e-08 4.15879e-05
0.000258205 0.000100875 -1.32371e-06
0.000100875 -7.72756e-05 -2.82904e-06
-1.32371e-06 -2.82904e-06 -0.000131716
0.000700643 0.000130241 -1.58165e-06
0.000130241 0.000184798 -2.98547e-07
-1.58165e-06 -2.98547e-07 3.86112e-05
0.00220718 0.000267536 -1.56795e-06
0.000267536 0.00117573 -2.0265e-07
-1.56795e-06 -2.0265e-07 0.000967511
0.000193475 0.000106707 -7.16639e-07
0.000106707 -2.7739e-05 -4.44062e-06
-7.16639e-07 -4.44062e-06 -0.000201112
0.000879851 0.000105803 2.8494e-06
0.000105803 0.000348801 2.62734e-07
2.8494e-06 2.62734e-07 0.000163568
0.000208439 -7.29375e-07 -4.68618e-08
-7.29375e-07 -0.000120879 9.16038e-08
-4.68618e-08 9.16038e-08 -0.000289507
0.000315955 -7.31599e-05 -8.51019e-07
-7.31599e-05 -4.96795e-05 4.36769e-07
-8.51019e-07 4.36769e-07 -0.000187568
0.000514576 -2.77357e-05 -7.48138e-07
-2.77357e-05 9.25161e-05 -1.43286e-06
-7.48138e-07 -1.43286e-06 -7.65882e-05
0.00140438 -3.64081e-05 9.25678e-07
-3.64081e-05 0.000648438 -1.15864e-05
9.25678e-07 -1.15864e-05 0.000483647
0.00077998 -5.60014e-05 -1.70236e-06
-5.60014e-05 0.000305385 -1.02869e-06
-1.70236e-06 -1.02869e-06 0.000132885
0.000729825 -8.77324e-05 1.92266e-06
-8.77324e-05 0.000250073 -9.30003e-07
1.92266e-06 -9.30003e-07 7.24502e-05
0.00063959 -0.000129936 -1.95832e-06
-0.000129936 0.000162543 4.37863e-06
-1.95832e-06 4.37863e-06 1.95945e-05
0.000231249 -2.69051e-05 2.4139e-07
-2.69051e-05 -0.000103398 9.68081e-07
2.4139e-07 9.68081e-07 -0.000243217
0.000495532 -6.30619e-05 -1.90306e-06
-6.30619e-05 3.95245e-05 3.90268e-06
-1.90306e-06 3.90268e-06 -4.41373e-05
0.000494695 -4.23499e-05 2.01501e-06
-4.23499e-05 4.60093e-05 1.15845e-07
2.01501e-06 1.15845e-07 -4.19941e-05
0.000415991 1.93448e-06 3.1865e-06
1.93448e-06 -2.74213e-05 6.56322e-06
3.1865e-06 6.56322e-06 -5.47153e-05
0.00048822 5.72062e-05 -1.42272e-06
5.72062e-05 3.57025e-05 -3.46747e-06
-1.42272e-06 -3.46747e-06 -4.73148e-05
0.000382953 3.20873e-05 4.00227e-07
3.20873e-05 -5.01413e-05 9.08189e-08
4.00227e-07 9.08189e-08 -7.66587e-05
0.00257654 7.4558e-06 8.78576e-06
7.4558e-06 0.00132138 5.48193e-06
8.78576e-06 5.48193e-06 0.00133329
0.00043765 4.82334e-05 -4.00602e-06
4.82334e-05 -1.81137e-05 -7.73881e-06
-4.00602e-06 -7.73881e-06 -4.64353e-05
0.00171235 -3.50677e-06 -5.54675e-06
-3.50677e-06 0.000771034 1.85326e-07
-5.54675e-06 1.85326e-07 0.000778317
0.000811598 -1.01384e-05 6.05151e-07
-1.01384e-05 0.00019149 -2.44364e-06
6.05151e-07 -2.44364e-06 0.000195267
0.000415052 1.14927e-05 -1.98444e-07
1.14927e-05 -3.32545e-05 -1.73095e-06
-1.98444e-07 -1.73095e-06 -7.76686e-05
0.000512982 -4.0829e-05 1.53505e-07
-4.0829e-05 3.86848e-05 6.64426e-08
1.53505e-07 6.64426e-08 -1.78906e-05
0.000506441 1.14127e-05 1.42779e-06
1.14127e-05 -2.43272e-06 -3.27769e-06
1.42779e-06 -3.27769e-06 -1.50516e-05
0.000478829 -4.36761e-05 -1.43588e-06
-4.36761e-05 1.03212e-05 1.40159e-07
-1.43588e-06 1.40159e-07 -4.63853e-05
0.000788414 2.84848e-05 -1.38216e-07
2.84848e-05 0.000180855 -7.42846e-07
-1.38216e-07 -7.42846e-07 0.000166828
0.00205186 5.62771e-05 4.51928e-06
5.62771e-05 0.000991814 -4.7321e-06
4.51928e-06 -4.7321e-06 0.00100393
0.000455525 3.79712e-05 1.41404e-06
3.79712e-05 -2.22626e-05 4.06949e-06
1.41404e-06 4.06949e-06 -4.50794e-05
0.00242956 8.45607e-05 -4.96069e-06
8.45607e-05 0.00124278 1.26079e-06
-4.96069e-06 1.26079e-06 0.00124817
0.00267913 0.00011677 5.76317e-06
0.00011677 0.0014113 6.60883e-06
5.76317e-06 6.60883e-06 0.00140916
0.00235815 0.000183421 -8.25978e-08
0.000183421 -9.3986e-05 -6.39288e-07
-8.25978e-08 -6.39288e-07 -4.61144e-06
0.00218057 -5.08681e-06 3.27792e-06
-5.08681e-06 -9.74091e-05 -8.10326e-07
3.27792e-06 -8.10326e-07 -1.00242e-05
0.00217412 7.43349e-05 -7.26433e-06
7.43349e-05 -0.000211866 4.78382e-06
-7.26433e-06 4.78382e-06 -0.000122447
0.00258335 0.000761366 0.000105073
0.000761366 -0.00179024 2.41079e-05
0.000105073 2.41079e-05 -0.000822276
0.00247375 -2.81026e-05 2.87675e-07
-2.81026e-05 -0.000102466 -2.97948e-06
2.87675e-07 -2.97948e-06 3.34025e-05
0.00231993 7.57127e-05 -2.02767e-06
7.57127e-05 5.70727e-05 -1.00312e-05
-2.02767e-06 -1.00312e-05 0.000233869
0.00288322 -4.99035e-05 -2.62955e-05
-4.99035e-05 0.000499962 -4.17364e-06
-2.62955e-05 -4.17364e-06 0.000560476
0.00337078 0.000283704 -3.39871e-05
0.000283704 -0.00214869 -4.57815e-05
-3.39871e-05 -4.57815e-05 -0.000789744
0.00236876 0.000259071 0.00014337
0.000259071 -0.00114049 5.42509e-05
0.00014337 5.42509e-05 -0.000534704
0.000583269 9.16345e-05 4.03558e-07
9.16345e-05 0.000122124 -9.83529e-07
4.03558e-07 -9.83529e-07 2.10871e-05
0.00057609 -4.43772e-06 1.45052e-07
-4.43772e-06 0.000129014 -1.39888e-07
1.45052e-07 -1.39888e-07 1.83676e-05
0.000324303 -9.5179e-05 -6.18266e-06
-9.5179e-05 -2.2309e-05 2.6158e-06
-6.18266e-06 2.6158e-06 -0.000143058
0.00036295 -4.60881e-05 -3.54127e-06
-4.60881e-05 9.87741e-06 2.11472e-06
-3.54127e-06 2.11472e-06 -0.000113772
0.00238411 -0.000204256 -3.24219e-06
-0.000204256 -0.000190271 -2.399e-06
-3.24219e-06 -2.399e-06 -2.95231e-05
0.00235377 -0.000513916 -1.29996e-07
-0.000513916 -0.000194925 -1.95118e-06
-1.29996e-07 -1.95118e-06 -4.73006e-05
0.0023912 -0.000748964 -1.98833e-06
-0.000748964 -6.05639e-06 1.94684e-06
-1.98833e-06 1.94684e-06 -3.97011e-05
0.00401984 -0.000962969 2.45552e-05
-0.000962969 0.00188082 1.38855e-05
2.45552e-05 1.38855e-05 0.00137006
0.000322229 -0.000874884 -2.74778e-06
-0.000874884 -0.000586338 4.51727e-06
-2.74778e-06 4.51727e-06 -0.00110267
0.00242392 -0.000990443 -1.23106e-06
-0.000990443 0.000283739 -1.69601e-06
-1.23106e-06 -1.69601e-06 6.33178e-06
0.00065637 -0.000745934 2.5697e-05
-0.000745934 -6.08377e-05 -2.6837e-05
2.5697e-05 -2.6837e-05 -0.00058134
0.00353936 -0.000381563 1.38202e-05
-0.000381563 0.00170891 -4.86352e-06
1.38202e-05 -4.86352e-06 0.00128883
-0.000368408 -3.8796e-05 -7.18281e-06
-3.8796e-05 -0.000583076 8.2449e-06
-7.18281e-06 8.2449e-06 -0.000818408
0.000682997 -7.11376e-05 3.91943e-06
-7.11376e-05 0.000198206 -8.95533e-07
3.91943e-06 -8.95533e-07 9.14946e-05
0.000493254 -0.000128987 -6.51782e-06
-0.000128987 0.000152282 -1.36141e-05
-6.51782e-06 -1.36141e-05 -0.000144221
0.000465356 -2.32856e-05 5.84708e-06
-2.32856e-05 6.29909e-05 -2.17937e-06
5.84708e-06 -2.17937e-06 -0.000102523
0.000550141 -8.1872e-07 4.38523e-07
-8.1872e-07 0.00012731 1.5466e-06
4.38523e-07 1.5466e-06 4.59195e-06
0.000734852 -8.35377e-05 -9.39535e-06
-8.35377e-05 0.000171058 -3.98213e-07
-9.39535e-06 -3.98213e-07 7.34551e-05
0.00268262 -0.000332831 2.18685e-06
-0.000332831 1.18156e-05 1.59502e-06
2.18685e-06 1.59502e-06 0.000186806
0.000455783 -3.24064e-05 -8.45382e-07
-3.24064e-05 6.62038e-05 2.6409e-06
-8.45382e-07 2.6409e-06 -6.88928e-05
0.000807809 -5.68327e-05 7.90824e-06
-5.68327e-05 0.000197069 -8.46072e-07
7.90824e-06 -8.46072e-07 7.65281e-05
-0.00105555 -4.86341e-05 6.734e-06
-4.86341e-05 -0.000870213 -1.26694e-06
6.734e-06 -1.26694e-06 -0.00093373
0.0021361 -0.000580699 7.31116e-07
-0.000580699 -0.000346845 -1.20683e-06
7.31116e-07 -1.20683e-06 -0.000103853
0.00235126 -0.000902557 2.29265e-06
-0.000902557 9.45435e-05 -1.47499e-06
2.29265e-06 -1.47499e-06 -9.26909e-05
0.00204732 -0.000975153 -6.97055e-06
-0.000975153 0.000664218 9.44805e-07
-6.97055e-06 9.44805e-07 0.000143361
0.00274579 -0.00114364 -5.91455e-06
-0.00114364 0.000615365 1.53658e-06
-5.91455e-06 1.53658e-06 0.000247922
0.00151832 -0.000176583 6.28951e-06
-0.000176583 0.000736873 -3.69699e-06
6.28951e-06 -3.69699e-06 0.000495811
-0.000285242 -4.10823e-05 6.58936e-06
-4.10823e-05 -0.000390911 8.50566e-06
6.58936e-06 8.50566e-06 -0.000660098
0.00180199 -0.00116659 -3.48952e-07
-0.00116659 0.00100094 -2.28433e-06
-3.48952e-07 -2.28433e-06 0.000197899
0.00150039 -0.000466727 -1.03195e-05
-0.000466727 0.000736166 -3.99158e-07
-1.03195e-05 -3.99158e-07 0.000204256
0.00360411 -0.000491814 -4.96392e-05
-0.000491814 0.000492565 1.21283e-05
-4.96392e-05 1.21283e-05 0.000777199
0.00276501 -0.000754547 -4.07668e-05
-0.000754547 0.000240387 1.28477e-05
-4.07668e-05 1.28477e-05 0.000307248
0.00267998 -0.00104432 2.96432e-06
-0.00104432 0.000489712 -1.59733e-05
2.96432e-06 -1.59733e-05 0.00013088
0.00318974 -0.00117152 1.42835e-05
-0.00117152 0.00109468 1.6783e-05
1.42835e-05 1.6783e-05 0.000705056
1.51925e-05 -8.81744e-05 -3.01028e-06
-8.81744e-05 -0.000109811 -7.22763e-06
-3.01028e-06 -7.22763e-06 -0.000252831
0.000353254 -0.000150316 -1.46796e-05
-0.000150316 1.14541e-05 -5.04086e-08
-1.46796e-05 -5.04086e-08 -0.000207229
4.13005e-06 -0.000197194 -5.52146e-06
-0.000197194 9.49758e-05 5.71497e-05
-5.52146e-06 5.71497e-05 -0.00025629
0.00010721 -0.00101903 -3.9314e-06
-0.00101903 0.000739937 -3.09254e-05
-3.9314e-06 -3.09254e-05 -0.00044168
0.00340052 -0.000450521 6.61541e-05
-0.000450521 -0.00571118 -2.55772e-05
6.61541e-05 -2.55772e-05 -0.00577027
0.002501 0.00034459 4.15101e-06
0.00034459 0.00138992 -3.06804e-06
4.15101e-06 -3.06804e-06 0.00113223
0.00142843 0.000418712 -1.54785e-06
0.000418712 0.000578819 -4.42925e-07
-1.54785e-06 -4.42925e-07 0.000270795
0.00188611 0.000378528 5.36423e-05
0.000378528 -0.000403073 1.64147e-05
5.36423e-05 1.64147e-05 -0.000143219
0.00250251 0.000848938 2.5183e-05
0.000848938 0.000289902 1.21451e-05
2.5183e-05 1.21451e-05 9.20567e-05
0.00239339 0.000919856 1.07292e-05
0.000919856 0.000663266 1.27974e-05
1.07292e-05 1.27974e-05 0.000168151
0.00142919 0.000662501 9.95885e-06
0.000662501 0.000356819 9.64847e-06
9.95885e-06 9.64847e-06 -0.000122147
0.0054835 0.00167769 0.0001107
0.00167769 1.46438e-05 3.41563e-05
0.0001107 3.41563e-05 0.000148539
0.00119516 0.000341117 5.07662e-06
0.000341117 0.000677791 -1.69875e-07
5.07662e-06 -1.69875e-07 0.00040241
0.00264404 0.000821651 -2.66026e-05
0.000821651 0.000136398 9.06736e-07
-2.66026e-05 9.06736e-07 0.00015143
0.000936842 0.000492051 -6.35764e-06
0.000492051 0.000141796 4.59849e-06
-6.35764e-06 4.59849e-06 -0.000230563
0.00155243 0.000749743 4.97076e-07
0.000749743 0.000368923 -7.3164e-06
4.97076e-07 -7.3164e-06 -0.000112602
0.00244556 0.00101799 -1.15817e-05
0.00101799 0.000442093 -3.20624e-07
-1.15817e-05 -3.20624e-07 0.000100715
0.00514401 -0.000618363 -0.000180463
-0.000618363 -0.00527463 -0.000105954
-0.000180463 -0.000105954 -0.00593549
0.00685329 0.00211438 -0.000160799
0.00211438 -0.000763359 -6.66758e-05
-0.000160799 -6.66758e-05 0.000727703
0.00150057 0.00152633 -7.37241e-07
0.00152633 -0.000381376 3.27652e-06
-7.37241e-07 3.27652e-06 -0.000741017
0.002461 -0.00249171 0.000641637
-0.00249171 0.00340152 0.000235271
0.000641637 0.000235271 8.86232e-05
0.0173886 -0.0105357 -0.00054125
-0.0105357 0.00908939 -0.000485188
-0.00054125 -0.000485188 0.00466351
0.000469384 0.00026149 -1.33799e-05
0.00026149 7.61953e-05 -2.67313e-06
-1.33799e-05 -2.67313e-06 -0.000159301
0.00190641 0.000510692 0.000931185
0.000510692 0.00461436 7.98935e-05
0.000931185 7.98935e-05 0.0024995
0.00505097 -0.00406223 -0.000165244
-0.00406223 0.00683333 -0.000222334
-0.000165244 -0.000222334 0.000603687
0.00348912 0.00135023 -6.78469e-05
0.00135023 0.000735563 -2.04713e-05
-6.78469e-05 -2.04713e-05 0.000494619
0.000541794 0.000389589 -3.04004e-05
0.000389589 -0.000112885 -7.09173e-06
-3.04004e-05 -7.09173e-06 -0.000437147
0.00114803 0.000768314 -4.03547e-05
0.000768314 0.000189054 -3.25539e-05
-4.03547e-05 -3.25539e-05 -0.000219058
-0.000409463 0.00135741 7.63137e-05
0.00135741 -0.00105989 0.000104589
7.63137e-05 0.000104589 -0.0014333
0.0129745 0.00289317 8.86212e-05
0.00289317 0.00107191 -9.83753e-06
8.86212e-05 -9.83753e-06 0.00065496
0.00548601 0.00314232 -6.1201e-05
0.00314232 -0.000427324 -6.13942e-05
-6.1201e-05 -6.13942e-05 0.000680639
0.0186518 -0.00719144 0.00115125
-0.00719144 0.00651235 0.000519141
0.00115125 0.000519141 0.00155681
0.0146813 -0.00320935 -0.000149173
-0.00320935 0.0049924 0.000675845
-0.000149173 0.000675845 0.00261569
0.000592884 9.99288e-05 1.91151e-06
9.99288e-05 0.000260203 -3.57647e-06
1.91151e-06 -3.57647e-06 0.000156558
0.000263023 0.000151861 7.53081e-06
0.000151861 5.51027e-05 1.46693e-06
7.53081e-06 1.46693e-06 -6.91653e-05
0.00180273 0.000315014 3.12969e-06
0.000315014 0.00101676 -3.52557e-06
3.12969e-06 -3.52557e-06 0.000811454
0.000587926 1.70488e-06 1.86983e-06
1.70488e-06 0.000148475 2.62816e-07
1.86983e-06 2.62816e-07 -5.4943e-06
0.000611081 7.3039e-05 1.85083e-07
7.3039e-05 0.000146905 -2.35675e-06
1.85083e-07 -2.35675e-06 -2.16393e-05
-0.000113047 3.80014e-05 -1.31142e-06
3.80014e-05 -0.000283345 6.04983e-07
-1.31142e-06 6.04983e-07 -0.00045553
0.000842062 0.000134245 -7.04045e-06
0.000134245 0.00029758 2.08992e-06
-7.04045e-06 2.08992e-06 0.00014553
-0.00030999 7.43782e-05 -2.62355e-06
7.43782e-05 -0.000451894 1.3776e-06
-2.62355e-06 1.3776e-06 -0.000502507
0.000335198 -1.27161e-05 -2.09353e-07
-1.27161e-05 -3.23516e-05 7.19134e-07
-2.09353e-07 7.19134e-07 -0.000174743
0.00140415 0.000167845 2.48797e-06
0.000167845 0.000647724 7.31644e-07
2.48797e-06 7.31644e-07 0.00045881
0.00050253 6.23751e-05 -3.46613e-07
6.23751e-05 0.00012351 -3.40552e-07
-3.46613e-07 -3.40552e-07 -7.02637e-05
0.000799597 4.24234e-05 1.49585e-06
4.24234e-05 0.000288717 -2.79406e-07
1.49585e-06 -2.79406e-07 9.59179e-05
0.000148004 9.97733e-05 -7.61843e-07
9.97733e-05 -5.2996e-05 -3.35937e-06
-7.61843e-07 -3.35937e-06 -0.000226035
0.00154342 0.000154083 -2.52644e-06
0.000154083 0.000765246 -2.91872e-06
-2.52644e-06 -2.91872e-06 0.000586847
-0.000362434 7.08502e-05 -7.40379e-06
7.08502e-05 -0.000196343 -4.7736e-06
-7.40379e-06 -4.7736e-06 -0.000468207
0.000284075 -6.48614e-05 -8.85471e-08
-6.48614e-05 -3.04944e-05 1.59756e-06
-8.85471e-08 1.59756e-06 -0.000218412
0.000748077 -8.68118e-05 -2.54717e-06
-8.68118e-05 0.000263509 -1.23066e-06
-2.54717e-06 -1.23066e-06 7.40933e-05
0.000828186 -6.05439e-05 -3.92856e-07
-6.05439e-05 0.000313713 -8.64959e-07
-3.92856e-07 -8.64959e-07 0.000126553
0.000656294 -4.5323e-05 -4.12006e-06
-4.5323e-05 0.000162699 8.75683e-07
-4.12006e-06 8.75683e-07 1.7771e-05
0.00108411 1.27477e-05 -7.91962e-06
1.27477e-05 0.000517507 -5.64449e-06
-7.91962e-06 -5.64449e-06 0.000305215
0.00087035 -9.98774e-05 2.61526e-06
-9.98774e-05 0.000291477 -1.26145e-05
2.61526e-06 -1.26145e-05 0.000158823
-0.00135341 1.51921e-06 -5.58564e-06
1.51921e-06 -0.00105871 -8.72082e-06
-5.58564e-06 -8.72082e-06 -0.00118336
7.61811e-05 -3.93376e-05 1.88197e-06
-3.93376e-05 -0.000109026 -2.38911e-06
1.88197e-06 -2.38911e-06 -0.000314279
0.000176794 -7.24999e-05 8.43607e-07
-7.24999e-05 -0.00011459 -1.5053e-08
8.43607e-07 -1.5053e-08 -0.000256861
0.000802588 -0.000125833 -1.01395e-06
-0.000125833 0.000300973 5.0235e-07
-1.01395e-06 5.0235e-07 0.000137139
0.00050496 -9.10294e-05 -1.23189e-06
-9.10294e-05 5.73586e-05 3.28597e-06
-1.23189e-06 3.28597e-06 -6.91364e-05
0.000432505 -9.96277e-05 3.64739e-06
-9.96277e-05 2.45933e-05 4.28846e-07
3.64739e-06 4.28846e-07 -0.000125332
0.00054975 -0.000122311 6.88372e-09
-0.000122311 0.00010285 1.24706e-07
6.88372e-09 1.24706e-07 -3.94765e-05
0.000522898 -6.24231e-05 -2.25716e-06
-6.24231e-05 5.40216e-05 5.24768e-06
-2.25716e-06 5.24768e-06 -3.14053e-05
0.000362954 -6.11005e-06 7.59922e-07
-6.11005e-06 -2.1224e-06 -9.23904e-07
7.59922e-07 -9.23904e-07 -0.000154815
0.000474254 3.97482e-08 2.45131e-06
3.97482e-08 3.3877e-05 1.53133e-07
2.45131e-06 1.53133e-07 -5.48998e-05
0.00144646 -3.90281e-05 -1.14025e-05
-3.90281e-05 0.000617109 7.00776e-06
-1.14025e-05 7.00776e-06 0.000594011
0.000451931 7.19384e-05 -2.04029e-06
7.19384e-05 1.92176e-05 -3.15143e-06
-2.04029e-06 -3.15143e-06 -6.79921e-05
0.000852624 -2.07985e-05 -4.49006e-06
-2.07985e-05 0.000248268 7.32924e-07
-4.49006e-06 7.32924e-07 0.000223057
0.000798225 3.1611e-06 -3.27877e-06
3.1611e-06 0.000196289 4.77009e-06
-3.27877e-06 4.77009e-06 0.000200397
0.000360748 -2.62847e-05 4.37978e-06
-2.62847e-05 -6.46969e-05 -5.15595e-06
4.37978e-06 -5.15595e-06 -9.04902e-05
0.00259594 4.50963e-06 8.28714e-06
4.50963e-06 0.00133409 -8.6734e-10
8.28714e-06 -8.6734e-10 0.00134592
0.000866931 4.40038e-06 -1.10392e-05
4.40038e-06 0.000237941 -5.5142e-06
-1.10392e-05 -5.5142e-06 0.000240928
0.000504256 7.10675e-05 2.72961e-06
7.10675e-05 7.33557e-05 6.80076e-07
2.72961e-06 6.80076e-07 -3.3284e-05
0.000442669 5.73815e-05 -2.28781e-06
5.73815e-05 -3.18848e-06 -2.44359e-06
-2.28781e-06 -2.44359e-06 -5.40592e-05
0.000463069 -6.87873e-07 1.55165e-06
-6.87873e-07 1.02117e-05 1.89154e-07
1.55165e-06 1.89154e-07 -4.24042e-05
0.000463416 9.89619e-06 1.34309e-06
9.89619e-06 -2.88171e-05 -3.11998e-06
1.34309e-06 -3.11998e-06 -3.99591e-05
0.000551235 -6.83597e-05 -2.08585e-06
-6.83597e-05 7.2143e-05 2.03773e-06
-2.08585e-06 2.03773e-06 1.02935e-05
0.000461315 1.27976e-05 1.50326e-07
1.27976e-05 -3.1331e-05 -7.31357e-07
1.50326e-07 -7.31357e-07 -4.37922e-05
0.00203287 3.93098e-05 2.96173e-06
3.93098e-05 0.000974937 -4.77462e-06
2.96173e-06 -4.77462e-06 0.000989661
0.00110897 3.75661e-05 -1.52131e-08
3.75661e-05 0.000385861 1.6629e-06
-1.52131e-08 1.6629e-06 0.000372886
0.0014907 4.86876e-05 -5.48096e-07
4.86876e-05 0.000636203 1.42732e-06
-5.48096e-07 1.42732e-06 0.00064325
0.000897488 5.29991e-05 -3.49335e-06
5.29991e-05 0.000266072 8.71184e-06
-3.49335e-06 8.71184e-06 0.000264426
0.00100208 0.00054853 7.62778e-05
0.00054853 -0.00253463 1.71585e-05
7.62778e-05 1.71585e-05 -0.00153389
0.00244509 -5.18262e-05 -1.58674e-06
-5.18262e-05 -8.54682e-05 6.39608e-06
-1.58674e-06 6.39608e-06 4.1224e-05
0.00225455 7.34867e-05 3.37288e-05
7.34867e-05 4.18551e-05 -1.28631e-05
3.37288e-05 -1.28631e-05 0.000183324
0.00301941 0.000499921 -6.68762e-05
0.000499921 -0.00219599 -4.02247e-05
-6.68762e-05 -4.02247e-05 -0.000459286
0.00294172 0.000120419 5.77654e-05
0.000120419 -0.000626204 -1.91384e-06
5.77654e-05 -1.91384e-06 -7.8544e-05
0.00281629 -5.22765e-05 9.77216e-07
-5.22765e-05 0.000392275 -1.02668e-05
9.77216e-07 -1.02668e-05 0.00048913
0.00509373 -0.000441659 -6.56823e-05
-0.000441659 0.00106756 -2.55132e-05
-6.56823e-05 -2.55132e-05 0.00136079
0.00367831 -0.000406548 3.00997e-05
-0.000406548 -0.000674037 -4.87897e-06
3.00997e-05 -4.87897e-06 0.000327238
0.0182495 -0.000980482 7.99848e-05
-0.000980482 0.00303865 -5.23834e-05
7.99848e-05 -5.23834e-05 0.00223805
0.0156119 0.0067378 0.00172669
0.0067378 0.00613721 -0.000471256
0.00172669 -0.000471256 0.00227682
0.0227933 0.00776572 8.75328e-05
0.00776572 0.0146449 2.29603e-05
8.75328e-05 2.29603e-05 0.0104418
0.000127363 -0.000101785 6.17078e-07
-0.000101785 -0.000144117 -4.30729e-07
6.17078e-07 -4.30729e-07 -0.000260653
0.00053064 -5.66685e-06 1.70985e-06
-5.66685e-06 8.74351e-05 -3.67588e-08
1.70985e-06 -3.67588e-08 -1.29024e-05
0.000613828 -9.13108e-05 -9.38454e-07
-9.13108e-05 0.000159306 3.31775e-06
-9.38454e-07 3.31775e-06 4.20312e-05
0.00053457 -3.62885e-05 1.28687e-06
-3.62885e-05 9.87382e-05 2.80686e-07
1.28687e-06 2.80686e-07 -1.99999e-05
0.000950248 0.000123954 -5.06357e-06
0.000123954 0.000422674 1.18093e-06
-5.06357e-06 1.18093e-06 0.000281481
0.000527429 0.000140191 6.33136e-07
0.000140191 7.92595e-05 7.43692e-06
6.33136e-07 7.43692e-06 -4.9629e-05
0.000949693 4.69209e-06 2.67335e-06
4.69209e-06 0.000382659 3.97073e-06
2.67335e-06 3.97073e-06 0.000236137
0.000516548 -2.54517e-05 -1.51274e-06
-2.54517e-05 8.81527e-05 1.31452e-06
-1.51274e-06 1.31452e-06 -3.27893e-05
0.00267497 -0.000319704 1.28053e-05
-0.000319704 1.56604e-06 -5.51248e-06
1.28053e-05 -5.51248e-06 0.00020644
0.00218986 -0.000607806 1.3939e-05
-0.000607806 -0.000345954 -6.67224e-06
1.3939e-05 -6.67224e-06 -0.000125903
0.00245487 -0.000913575 1.08085e-06
-0.000913575 0.00014538 6.24482e-06
1.08085e-06 6.24482e-06 -3.5924e-05
0.00259598 -0.00101212 1.59068e-05
-0.00101212 0.000926788 6.0676e-06
1.59068e-05 6.0676e-06 0.000427654
0.00223286 -0.00110592 -2.51724e-05
-0.00110592 0.000334703 2.77064e-06
-2.51724e-05 2.77064e-06 -4.19602e-05
0.00170895 -0.00121922 3.83628e-05
-0.00121922 0.00104484 -1.22881e-05
3.83628e-05 -1.22881e-05 0.000140345
0.00469485 -0.000820537 7.57242e-06
-0.000820537 0.0023618 8.39236e-06
7.57242e-06 8.39236e-06 0.00192089
0.00159559 -0.000330261 1.45626e-05
-0.000330261 0.000855459 -5.06083e-05
1.45626e-05 -5.06083e-05 0.000485628
0.000583965 -0.000116061 1.82409e-06
-0.000116061 3.83136e-05 1.61562e-08
1.82409e-06 1.61562e-08 -6.42706e-05
0.00102452 -8.69716e-05 1.21483e-05
-8.69716e-05 0.00039268 -2.36971e-05
1.21483e-05 -2.36971e-05 0.000166093
0.00097937 -5.42535e-05 3.96296e-06
-5.42535e-05 0.000386793 1.17032e-06
3.96296e-06 1.17032e-06 0.000241158
0.000749178 9.19191e-06 9.49861e-06
9.19191e-06 0.000281357 -7.4334e-06
9.49861e-06 -7.4334e-06 0.000253949
0.00246974 -0.000432833 -5.69282e-07
-0.000432833 -0.000134132 2.9058e-06
-5.69282e-07 2.9058e-06 0.00019619
0.000401226 -9.38218e-05 -4.54559e-06
-9.38218e-05 0.000111541 -9.46387e-07
-4.54559e-06 -9.46387e-07 -3.20909e-05
0.00136596 -0.000212052 -9.26069e-06
-0.000212052 0.000617661 4.22085e-06
-9.26069e-06 4.22085e-06 0.000432177
0.00172323 -0.00068419 8.79619e-06
-0.00068419 -0.000369422 -4.10199e-06
8.79619e-06 -4.10199e-06 -0.000238102
0.00199419 -0.000929215 1.91238e-06
-0.000929215 0.000109879 1.89795e-06
1.91238e-06 1.89795e-06 -0.000168034
0.000981966 -0.000895682 -4.24591e-06
-0.000895682 -0.00018002 -9.43124e-06
-4.24591e-06 -9.43124e-06 -0.000492566
0.00188465 -0.000402097 -1.68005e-07
-0.000402097 0.00112442 -2.82583e-05
-1.68005e-07 -2.82583e-05 0.000696451
0.00145936 -0.000718569 1.01733e-05
-0.000718569 0.0012724 4.19028e-06
1.01733e-05 4.19028e-06 0.000348024
0.00572423 -0.000963669 -5.84376e-05
-0.000963669 0.00147218 3.10947e-05
-5.84376e-05 3.10947e-05 0.00169618
0.00403326 -0.00105701 -4.60647e-05
-0.00105701 0.00124675 1.03446e-05
-4.60647e-05 1.03446e-05 0.00102323
0.00230226 -0.00108988 1.54182e-05
-0.00108988 0.000396518 -1.84048e-06
1.54182e-05 -1.84048e-06 0.000102073
-0.00109346 -0.000492801 -1.53647e-06
-0.000492801 -0.00104026 1.46394e-05
-1.53647e-06 1.46394e-05 -0.00116021
0.000458439 -0.000160949 1.1604e-06
-0.000160949 0.000186917 8.35345e-06
1.1604e-06 8.35345e-06 -5.93954e-05
0.000360063 -0.000180019 4.87122e-06
-0.000180019 0.000203772 1.27804e-06
4.87122e-06 1.27804e-06 -9.87388e-05
0.00209732 -0.000254666 -1.24583e-05
-0.000254666 0.00158214 -2.45582e-05
-1.24583e-05 -2.45582e-05 0.000844656
-0.00721837 -0.00047168 0.000676282
-0.00047168 -0.00394855 -4.1345e-05
0.000676282 -4.1345e-05 -0.00427822
0.0119599 -0.000402696 7.74581e-05
-0.000402696 0.000565825 3.10304e-05
7.74581e-05 3.10304e-05 0.000988623
0.00314886 0.000446978 1.17811e-05
0.000446978 0.00178291 -1.13175e-05
1.17811e-05 -1.13175e-05 0.00154039
0.00175996 0.00059494 -2.10189e-06
0.00059494 0.000686527 6.93525e-06
-2.10189e-06 6.93525e-06 0.000278975
0.00291751 0.000781847 0.00010867
0.000781847 0.00029898 4.77133e-05
0.00010867 4.77133e-05 0.000342266
0.00321227 0.00108846 2.91118e-05
0.00108846 0.000860173 1.3343e-05
2.91118e-05 1.3343e-05 0.000495929
0.00300708 0.000949311 2.13183e-05
0.000949311 0.00119658 8.13236e-06
2.13183e-05 8.13236e-06 0.000675962
0.0168593 0.000787017 0.000102785
0.000787017 0.00269046 -5.61633e-05
0.000102785 -5.61633e-05 0.0022343
0.00852709 0.00266666 -0.000246932
0.00266666 -0.00107668 -3.58914e-05
-0.000246932 -3.58914e-05 0.000780971
0.00156046 0.00143786 1.22972e-05
0.00143786 -0.000149519 -3.12864e-05
1.22972e-05 -3.12864e-05 -0.000633038
0.0146562 -0.00517557 -0.000593929
-0.00517557 0.00635879 1.4781e-05
-0.000593929 1.4781e-05 0.00278079
0.00807776 -0.0112195 -0.00274926
-0.0112195 0.00738755 -0.00164201
-0.00274926 -0.00164201 0.00250485
0.000990945 0.00035256 3.42153e-06
0.00035256 0.00046334 -2.48546e-06
3.42153e-06 -2.48546e-06 0.000187811
-0.00109281 -0.00305088 0.000596258
-0.00305088 -0.00244086 8.96026e-05
0.000596258 8.96026e-05 -0.00497274
-0.00145353 -0.00315147 -0.000629764
-0.00315147 0.0069258 -0.000206154
-0.000629764 -0.000206154 0.000684108
0.00362061 0.00126105 -1.74093e-05
0.00126105 0.000760327 2.1855e-06
-1.74093e-05 2.1855e-06 0.000582216
0.000834617 0.000489454 -1.00065e-05
0.000489454 0.00012179 8.60585e-06
-1.00065e-05 8.60585e-06 -0.000256766
0.00156756 0.000893418 6.32939e-06
0.000893418 0.000415828 1.86195e-06
6.32939e-06 1.86195e-06 -4.57026e-05
0.00121282 0.00135855 5.69896e-05
0.00135855 0.000102254 4.24674e-05
5.69896e-05 4.24674e-05 -0.000221542
0.0142108 0.00317391 -0.000157805
0.00317391 0.000588516 -0.000103362
-0.000157805 -0.000103362 -0.000902793
0.00400125 0.00326146 -2.28576e-05
0.00326146 -0.000836474 -3.9452e-05
-2.28576e-05 -3.9452e-05 0.000449265
0.0193061 -0.0058099 0.000646126
-0.0058099 0.00810444 -1.91675e-05
0.000646126 -1.91675e-05 0.0030505
0.0187317 -0.00485946 8.55556e-05
-0.00485946 0.00444746 0.000791221
8.55556e-05 0.000791221 0.00135846
0.00189989 0.000423189 -2.03913e-05
0.000423189 0.000962546 -1.6727e-05
-2.03913e-05 -1.6727e-05 0.000718443
-0.0100812 0.00133774 -0.00013424
0.00133774 0.00437095 -0.000149334
-0.00013424 -0.000149334 -0.0029831
0.00565854 0.00113343 -0.000440101
0.00113343 0.0045908 -0.000544568
-0.000440101 -0.000544568 -0.000426951
0.0025977 0.000934688 -3.52498e-05
0.000934688 0.000616771 -1.09971e-05
-3.52498e-05 -1.09971e-05 0.000543876
0.00288208 0.000946485 -8.34365e-05
0.000946485 0.0012666 -3.09856e-05
-8.34365e-05 -3.09856e-05 0.000836173
0.00134347 0.0010081 -9.76119e-05
0.0010081 0.00097885 -2.73353e-05
-9.76119e-05 -2.73353e-05 0.000233785
-0.00265104 0.00209065 1.03895e-05
0.00209065 -0.00109006 -3.46922e-05
1.03895e-05 -3.46922e-05 -0.00127595
0.00209452 0.00404874 0.000489342
0.00404874 -0.00195588 0.000141822
0.000489342 0.000141822 -0.00385654
0.0199419 -0.00739883 0.000103937
-0.00739883 0.0109056 0.000788502
0.000103937 0.000788502 0.00520184
0.00917168 -0.000479686 -0.000196473
-0.000479686 -0.00198641 -0.000180642
-0.000196473 -0.000180642 -0.00115522
-0.000561723 0.000142076 7.22813e-07
0.000142076 -0.000408683 -5.05671e-06
7.22813e-07 -5.05671e-06 -0.000558705
0.00181407 0.00034068 1.07494e-05
0.00034068 0.00100774 2.61276e-06
1.07494e-05 2.61276e-06 0.000798767
-0.00064285 8.49426e-05 -2.63771e-06
8.49426e-05 -0.00041113 -1.38378e-06
-2.63771e-06 -1.38378e-06 -0.000587675
0.000337783 5.1984e-05 2.27341e-06
5.1984e-05 -3.24104e-05 1.50195e-06
2.27341e-06 1.50195e-06 -0.000174612
0.00105461 9.06917e-05 1.83604e-07
9.06917e-05 0.000459869 -1.53168e-06
1.83604e-07 -1.53168e-06 0.00026117
0.000571346 3.07815e-05 -2.01538e-06
3.07815e-05 0.000173347 1.50223e-06
-2.01538e-06 1.50223e-06 -3.12268e-05
0.000425221 0.000107261 6.56719e-06
0.000107261 5.25415e-05 5.92738e-06
6.56719e-06 5.92738e-06 -0.00014141
-0.000701608 3.91917e-05 -4.10624e-06
3.91917e-05 -0.000556557 1.22092e-06
-4.10624e-06 1.22092e-06 -0.000723707
0.00077048 3.92104e-05 3.52792e-07
3.92104e-05 0.00028096 -7.52332e-07
3.52792e-07 -7.52332e-07 8.95052e-05
0.000719324 9.67397e-05 6.82311e-07
9.67397e-05 0.000244501 -1.54192e-07
6.82311e-07 -1.54192e-07 7.32304e-05
0.000837836 -3.97178e-05 -1.30936e-06
-3.97178e-05 0.000331083 2.19703e-06
-1.30936e-06 2.19703e-06 0.000128493
-0.00103817 3.51856e-05 2.00169e-06
3.51856e-05 -0.00059677 5.04238e-07
2.00169e-06 5.04238e-07 -0.000859471
0.000466567 6.52002e-05 -3.02704e-06
6.52002e-05 0.000485158 5.76558e-06
-3.02704e-06 5.76558e-06 0.00010014
0.000636297 -2.31358e-05 -9.00838e-07
-2.31358e-05 0.00030299 -6.54032e-06
-9.00838e-07 -6.54032e-06 8.21129e-05
0.00149665 -1.40296e-05 -2.12834e-06
-1.40296e-05 0.000792723 2.6095e-06
-2.12834e-06 2.6095e-06 0.000553155
0.000810089 -8.64617e-05 -3.43736e-07
-8.64617e-05 0.000302944 -1.5478e-06
-3.43736e-07 -1.5478e-06 0.000112022
0.000153568 -0.000102774 5.07132e-06
-0.000102774 -0.000163012 1.14281e-05
5.07132e-06 1.14281e-05 -0.000296637
0.000652872 -9.04416e-05 5.07678e-07
-9.04416e-05 0.000222115 -8.45e-07
5.07678e-07 -8.45e-07 2.54741e-05
0.00076082 -9.78652e-05 -2.47926e-06
-9.78652e-05 0.000212959 -6.56516e-07
-2.47926e-06 -6.56516e-07 8.04339e-05
-0.000330334 -6.8024e-05 2.17731e-06
-6.8024e-05 -0.000414941 5.24145e-06
2.17731e-06 5.24145e-06 -0.000531584
-0.000159706 -5.69751e-05 -1.83186e-07
-5.69751e-05 -0.000281493 -5.00845e-06
-1.83186e-07 -5.00845e-06 -0.000445943
-6.33831e-05 -3.60911e-05 -8.75467e-06
-3.60911e-05 -0.000153425 -3.31883e-06
-8.75467e-06 -3.31883e-06 -0.000345682
8.10579e-05 -0.000104049 1.96352e-06
-0.000104049 -0.000131087 -8.33385e-06
1.96352e-06 -8.33385e-06 -0.000260583
0.000981484 -0.000123563 1.46605e-05
-0.000123563 0.000299163 -1.6019e-05
1.46605e-05 -1.6019e-05 0.000186497
0.00138427 -0.00029782 -1.44728e-06
-0.00029782 0.000485126 4.22583e-06
-1.44728e-06 4.22583e-06 0.000288793
-0.000164194 -6.58884e-05 -7.14105e-06
-6.58884e-05 -0.000277124 -1.9046e-06
-7.14105e-06 -1.9046e-06 -0.000473821
0.000590385 -5.1619e-05 1.8425e-06
-5.1619e-05 0.000196564 -8.03054e-07
1.8425e-06 -8.03054e-07 -2.08632e-06
-0.00032782 -2.90453e-05 2.94809e-06
-2.90453e-05 -0.000398364 -1.91391e-07
2.94809e-06 -1.91391e-07 -0.000590385
0.000669125 -0.000132667 -8.69918e-07
-0.000132667 0.000219875 -4.6568e-07
-8.69918e-07 -4.6568e-07 5.32717e-05
0.000421377 -3.30983e-05 5.59685e-07
-3.30983e-05 6.88352e-06 1.04094e-06
5.59685e-07 1.04094e-06 -0.000123352
0.000725503 -0.000133497 9.60266e-08
-0.000133497 0.000238051 4.19392e-07
9.60266e-08 4.19392e-07 8.40152e-05
0.000618366 -8.95913e-05 -5.4831e-07
-8.95913e-05 0.000145566 2.20046e-07
-5.4831e-07 2.20046e-07 8.49981e-06
0.000373232 3.16361e-05 8.0798e-08
3.16361e-05 -4.20686e-05 4.76725e-06
8.0798e-08 4.76725e-06 -0.000129761
0.000564446 -0.000118851 8.15282e-07
-0.000118851 0.000105818 -2.74686e-06
8.15282e-07 -2.74686e-06 -3.43637e-05
0.000505102 -4.5324e-05 -5.51365e-07
-4.5324e-05 3.84585e-05 1.24542e-07
-5.51365e-07 1.24542e-07 -4.3729e-05
0.00141808 1.8287e-05 -8.05007e-06
1.8287e-05 0.000589881 7.56218e-06
-8.05007e-06 7.56218e-06 0.000567636
0.00047909 -6.78545e-05 1.39663e-06
-6.78545e-05 3.08841e-05 -3.62494e-06
1.39663e-06 -3.62494e-06 -5.41363e-05
0.000861426 -2.1644e-05 -8.39239e-06
-2.1644e-05 0.000246145 8.59891e-07
-8.39239e-06 8.59891e-07 0.000221299
0.000742443 1.14904e-05 1.26462e-06
1.14904e-05 0.000151244 2.21929e-06
1.26462e-06 2.21929e-06 0.000154489
0.000415838 -2.45304e-05 3.2876e-06
-2.45304e-05 -3.34334e-05 -4.73211e-06
3.2876e-06 -4.73211e-06 -5.83686e-05
0.00256352 1.11653e-05 7.18086e-06
1.11653e-05 0.0013125 1.38469e-08
7.18086e-06 1.38469e-08 0.00132488
0.00259062 6.35505e-07 3.1085e-06
6.35505e-07 0.00133064 -5.06683e-06
3.1085e-06 -5.06683e-06 0.00134251
0.00104227 8.35099e-05 -5.32261e-07
8.35099e-05 0.000414661 7.1297e-07
-5.32261e-07 7.1297e-07 0.000302097
0.000500468 6.65028e-05 -1.60837e-06
6.65028e-05 3.71152e-05 -2.74748e-06
-1.60837e-06 -2.74748e-06 -1.93257e-05
0.000533113 -1.39302e-05 -4.00393e-07
-1.39302e-05 9.674e-05 7.963e-07
-4.00393e-07 7.963e-07 -1.0899e-05
0.000460402 8.61966e-06 1.39734e-06
8.61966e-06 -3.10835e-05 -3.43878e-06
1.39734e-06 -3.43878e-06 -4.14601e-05
0.000437657 -1.11232e-05 1.26055e-06
-1.11232e-05 -8.05122e-06 -2.10557e-07
1.26055e-06 -2.10557e-07 -5.76878e-05
0.000508224 -6.26766e-05 -2.09527e-06
-6.26766e-05 4.35119e-05 2.20578e-06
-2.09527e-06 2.20578e-06 -1.21138e-05
0.000466354 7.31467e-06 -5.2922e-07
7.31467e-06 -2.73179e-05 2.0915e-09
-5.2922e-07 2.0915e-09 -3.84286e-05
0.00199815 2.48259e-05 -2.43726e-06
2.48259e-05 0.000949903 -4.8618e-06
-2.43726e-06 -4.8618e-06 0.000966276
0.00113393 2.4882e-05 -7.6729e-07
2.4882e-05 0.000398112 2.05293e-06
-7.6729e-07 2.05293e-06 0.000388494
0.00131178 3.12309e-05 -2.28793e-06
3.12309e-05 0.000514862 -3.6842e-08
-2.28793e-06 -3.6842e-08 0.000526137
0.00080703 3.76047e-05 -6.92081e-06
3.76047e-05 0.000200318 7.56936e-06
-6.92081e-06 7.56936e-06 0.000204402
-0.00801262 0.00160502 0.000670795
0.00160502 -0.00266702 -8.01939e-05
0.000670795 -8.01939e-05 -0.00598602
0.000161299 0.000703615 0.00146929
0.000703615 0.00744913 -0.000346042
0.00146929 -0.000346042 0.00301715
0.00217002 0.000466224 -0.000165256
0.000466224 -0.00271841 -3.25186e-05
-0.000165256 -3.25186e-05 -0.000704559
0.00205518 -1.39151e-05 1.3808e-05
-1.39151e-05 -0.00109189 -2.98394e-05
1.3808e-05 -2.98394e-05 -0.000484662
0.00176589 -8.03542e-05 1.52232e-05
-8.03542e-05 -0.000347021 2.46322e-05
1.52232e-05 2.46322e-05 -0.000234123
-0.00171106 6.50395e-06 -0.000111742
6.50395e-06 -0.00223448 -3.05959e-05
-0.000111742 -3.05959e-05 -0.000818169
0.00390976 -0.000496379 3.42779e-06
-0.000496379 0.000233048 5.38047e-06
3.42779e-06 5.38047e-06 0.000494064
0.0124054 -0.00017372 0.000217307
-0.00017372 -0.00136667 -9.70351e-05
0.000217307 -9.70351e-05 -0.00190393
0.00272023 0.00443115 -5.65402e-07
0.00443115 0.00125292 -7.30474e-05
-5.65402e-07 -7.30474e-05 -0.00270981
0.0171396 0.00908777 -0.000626147
0.00908777 0.0113998 0.000284917
-0.000626147 0.000284917 0.00708196
0.00179773 -0.000976647 1.07358e-05
-0.000976647 -0.00277873 -3.69463e-05
1.07358e-05 -3.69463e-05 -0.00124439
0.0158819 -0.00296707 0.000254353
-0.00296707 0.00149377 -7.32758e-05
0.000254353 -7.32758e-05 0.000248426
0.0206778 0.00686162 0.000414446
0.00686162 0.00696614 -0.000542191
0.000414446 -0.000542191 0.00204979
0.0228654 0.00494865 -0.00033405
0.00494865 0.00754561 0.000309775
-0.00033405 0.000309775 0.00458953
0.00101539 0.000175466 -3.4428e-06
0.000175466 0.000469332 3.28278e-06
-3.4428e-06 3.28278e-06 0.000282573
0.000320737 4.07717e-05 4.87442e-07
4.07717e-05 -3.87151e-05 -1.02553e-06
4.87442e-07 -1.02553e-06 -0.000147129
0.000541381 -9.88431e-05 1.734e-06
-9.88431e-05 0.000107236 1.51162e-06
1.734e-06 1.51162e-06 5.62521e-08
0.000688191 5.10012e-06 6.68876e-06
5.10012e-06 0.000205616 -1.64526e-06
6.68876e-06 -1.64526e-06 8.0299e-05
0.000814864 8.52045e-05 2.87882e-06
8.52045e-05 0.000346493 9.70417e-07
2.87882e-06 9.70417e-07 0.000209776
0.000497481 3.32908e-05 1.02285e-07
3.32908e-05 9.87625e-05 8.46082e-06
1.02285e-07 8.46082e-06 -7.25584e-05
0.000739328 9.60643e-05 4.63833e-07
9.60643e-05 0.000241911 3.1922e-06
4.63833e-07 3.1922e-06 9.95749e-05
0.000442534 7.13744e-05 5.56812e-06
7.13744e-05 1.7679e-05 2.86729e-06
5.56812e-06 2.86729e-06 -0.000127354
0.000666838 -2.02108e-05 2.5598e-06
-2.02108e-05 0.000201903 -1.19246e-06
2.5598e-06 -1.19246e-06 5.74999e-05
0.000458105 -1.65053e-05 2.13449e-06
-1.65053e-05 4.2447e-05 -2.7049e-06
2.13449e-06 -2.7049e-06 -7.06281e-05
0.00130783 -0.00036051 3.79273e-05
-0.00036051 -0.000762353 -1.25234e-05
3.79273e-05 -1.25234e-05 -0.000392635
0.00109288 -0.000630816 2.75109e-05
-0.000630816 -0.000711225 -9.23295e-06
2.75109e-05 -9.23295e-06 -0.000542352
0.00101601 -0.000787362 1.63811e-06
-0.000787362 -0.000435388 8.15943e-06
1.63811e-06 8.15943e-06 -0.000628379
-0.00018765 -0.000744984 -2.06966e-05
-0.000744984 -0.000816236 9.6468e-07
-2.06966e-05 9.6468e-07 -0.00109352
0.00244952 -0.00051777 7.31834e-06
-0.00051777 0.00161238 3.92515e-05
7.31834e-06 3.92515e-05 0.000902735
-0.000598256 -0.000580612 -7.96069e-06
-0.000580612 -0.000360341 -8.11829e-06
-7.96069e-06 -8.11829e-06 -0.000944308
0.00139906 -0.000284436 7.2255e-06
-0.000284436 0.000646839 -5.848e-06
7.2255e-06 -5.848e-06 0.000486976
0.000417339 -6.34896e-05 9.25248e-07
-6.34896e-05 0.000101339 2.65755e-06
9.25248e-07 2.65755e-06 -3.57414e-05
0.00256369 -0.000680721 1.43636e-05
-0.000680721 -0.000260309 -9.78309e-06
1.43636e-05 -9.78309e-06 8.83593e-05
0.000456422 -7.87398e-05 3.76805e-07
-7.87398e-05 0.000182727 1.82751e-06
3.76805e-07 1.82751e-06 -7.18278e-05
-0.000166563 -0.000220017 -2.63913e-06
-0.000220017 -0.000106402 -5.85566e-06
-2.63913e-06 -5.85566e-06 -0.000412284
0.00181058 -0.000838553 1.91144e-05
-0.000838553 -1.04248e-05 -1.17748e-06
1.91144e-05 -1.17748e-06 -9.47969e-05
0.00197234 -0.00104556 -1.52759e-06
-0.00104556 0.000147941 3.28403e-07
-1.52759e-06 3.28403e-07 -6.20027e-05
0.000288186 -0.000772514 1.97584e-05
-0.000772514 -0.000226333 -1.71852e-05
1.97584e-05 -1.71852e-05 -0.000483744
0.000959172 -0.000376232 1.11468e-05
-0.000376232 0.000926879 -2.14964e-05
1.11468e-05 -2.14964e-05 0.000182867
0.00199837 -0.0010248 -7.0693e-05
-0.0010248 -7.79745e-05 4.79625e-05
-7.0693e-05 4.79625e-05 -0.000306849
0.0012009 -0.00081039 -2.64249e-05
-0.00081039 -0.000110132 3.66686e-06
-2.64249e-05 3.66686e-06 -0.000129365
-0.000333506 -0.0006287 -6.063e-05
-0.0006287 -0.000137131 3.7219e-05
-6.063e-05 3.7219e-05 -0.000565033
-0.00218504 -0.000203267 -9.24233e-06
-0.000203267 -0.00147299 1.26703e-05
-9.24233e-06 1.26703e-05 -0.00171863
-0.00123734 -1.63877e-05 6.69085e-08
-1.63877e-05 -0.000777046 1.19397e-05
6.69085e-08 1.19397e-05 -0.00107759
0.000837009 -9.12835e-05 7.29858e-06
-9.12835e-05 0.000544393 -1.50993e-05
7.29858e-06 -1.50993e-05 0.000149989
-0.0027169 0.00141674 -0.000487819
0.00141674 0.00753482 2.32405e-05
-0.000487819 2.32405e-05 0.00197184
-3.65996e-05 -0.00179523 -1.78329e-05
-0.00179523 0.00281457 -6.95179e-07
-1.78329e-05 -6.95179e-07 0.00152826
0.00349524 0.000993384 -0.000145124
0.000993384 -0.00578021 -2.13282e-05
-0.000145124 -2.13282e-05 -0.00594962
0.000563168 0.000320719 1.41379e-05
0.000320719 0.000239795 -3.63261e-06
1.41379e-05 -3.63261e-06 -3.91127e-05
0.00183124 0.000681383 1.52746e-05
0.000681383 0.000759 2.39125e-05
1.52746e-05 2.39125e-05 0.000307553
0.00355553 0.00111439 7.72293e-05
0.00111439 0.000708291 2.84376e-05
7.72293e-05 2.84376e-05 0.000580328
0.00137395 0.000938007 1.75729e-05
0.000938007 0.000344052 2.48548e-05
1.75729e-05 2.48548e-05 -0.000160067
0.0138011 -0.00355117 0.000284075
-0.00355117 0.0055458 9.10189e-05
0.000284075 9.10189e-05 0.0036131
0.00361137 0.00189531 -0.000411678
0.00189531 -0.00509279 -9.95533e-05
-0.000411678 -9.95533e-05 -0.0064138
0.0054312 0.00317255 5.13232e-05
0.00317255 0.000360678 2.94294e-05
5.13232e-05 2.94294e-05 0.00115848
0.0032599 0.00141476 6.23536e-05
0.00141476 0.00136544 -6.01526e-06
6.23536e-05 -6.01526e-06 0.00107103
0.0115508 -0.00347492 -0.000486826
-0.00347492 0.00480674 -0.000367072
-0.000486826 -0.000367072 0.000352267
0.000521723 -0.00434583 -0.000895429
-0.00434583 0.00763257 -0.00025565
-0.000895429 -0.00025565 0.00129606
0.0277714 -0.00646261 0.000889129
-0.00646261 0.00830482 0.00042483
0.000889129 0.00042483 0.00473496
0.00028866 0.000281645 1.74727e-05
0.000281645 1.74586e-05 -4.74471e-06
1.74727e-05 -4.74471e-06 -0.00021627
-0.00391158 0.000452954 -0.000196261
0.000452954 0.00642949 -3.39923e-05
-0.000196261 -3.39923e-05 0.000129096
0.00636765 0.0015518 -0.000171289
0.0015518 0.00365106 -0.000187266
-0.000171289 -0.000187266 -0.00195312
0.00180073 0.000963359 9.03779e-06
0.000963359 0.000293605 2.72094e-06
9.03779e-06 2.72094e-06 0.000146868
0.000779522 0.000717943 1.68706e-05
0.000717943 0.000239809 5.97474e-06
1.68706e-05 5.97474e-06 -0.000203214
0.000902164 0.00112275 -6.88255e-05
0.00112275 0.000605919 -6.75624e-05
-6.88255e-05 -6.75624e-05 -8.48328e-06
0.00404918 0.0036455 3.93413e-05
0.0036455 0.00113755 3.90556e-05
3.93413e-05 3.90556e-05 0.00108736
0.015765 0.00518602 8.65247e-06
0.00518602 0.00284907 6.7432e-06
8.65247e-06 6.7432e-06 0.000601426
0.00997286 -0.00414225 9.19334e-05
-0.00414225 0.00530906 -0.000112176
9.19334e-05 -0.000112176 -0.000757114
0.0164959 -0.00218769 -2.08608e-05
-0.00218769 0.00237302 -7.12563e-05
-2.08608e-05 -7.12563e-05 0.00334359
0.000731135 0.000553681 -1.54077e-05
0.000553681 0.000268175 -9.86262e-06
-1.54077e-05 -9.86262e-06 -5.76779e-05
0.00169839 0.000269191 -0.000408774
0.000269191 0.00253828 -0.00010451
-0.000408774 -0.00010451 -0.00284416
0.00137899 0.00105249 -0.000153736
0.00105249 -0.00010258 -0.000189085
-0.000153736 -0.000189085 -0.0017978
-0.000792197 0.00035287 -6.26665e-06
0.00035287 -0.000176165 -2.10887e-05
-6.26665e-06 -2.10887e-05 -0.000473377
-0.00130498 0.000778378 -0.000188063
0.000778378 0.000877108 -1.16584e-05
-0.000188063 -1.16584e-05 9.43534e-05
0.0114704 0.00558109 0.000129741
0.00558109 0.00381039 -3.7456e-05
0.000129741 -3.7456e-05 -0.000890053
-0.000949784 -0.00608542 -2.6345e-05
-0.00608542 6.90321e-05 0.000235444
-2.6345e-05 0.000235444 -0.00560917
0.0129427 -4.47234e-05 6.8237e-05
-4.47234e-05 -0.00155005 -0.000339029
6.8237e-05 -0.000339029 0.000838126
0.000882857 0.000218611 -3.09956e-06
0.000218611 0.000389715 1.9062e-05
-3.09956e-06 1.9062e-05 0.000225466
0.000942489 0.000259719 -9.45e-06
0.000259719 0.000567368 -5.55672e-06
-9.45e-06 -5.55672e-06 0.000342107
-0.000348757 0.000142646 1.03952e-06
0.000142646 -1.82854e-05 -2.02129e-06
1.03952e-06 -2.02129e-06 -0.00036052
0.000509822 8.67622e-05 -5.09152e-07
8.67622e-05 9.42218e-05 -8.85388e-07
-5.09152e-07 -8.85388e-07 -8.05462e-05
0.0012957 -2.8478e-05 -2.45277e-06
-2.8478e-05 0.00063981 3.67834e-06
-2.45277e-06 3.67834e-06 0.000421004
-8.28944e-05 7.80351e-05 3.24796e-06
7.80351e-05 -0.000264839 2.23318e-06
3.24796e-06 2.23318e-06 -0.000429997
-0.00124489 4.90889e-05 2.43818e-06
4.90889e-05 -0.000709813 1.11437e-06
2.43818e-06 1.11437e-06 -0.000972517
0.000519525 -2.05097e-05 1.30411e-06
-2.05097e-05 0.000133653 5.08158e-07
1.30411e-06 5.08158e-07 -6.91741e-05
0.000475675 5.50695e-05 7.50036e-07
5.50695e-05 0.000194047 -2.32591e-06
7.50036e-07 -2.32591e-06 -1.9591e-05
8.39717e-05 4.9246e-05 2.77338e-06
4.9246e-05 0.000318185 2.91184e-06
2.77338e-06 2.91184e-06 -0.00011455
-0.000616954 5.33108e-05 -2.76492e-06
5.33108e-05 5.30362e-05 1.248e-05
-2.76492e-06 1.248e-05 -0.000472077
0.000607325 1.3616e-05 -2.44833e-06
1.3616e-05 0.000609749 -5.73931e-06
-2.44833e-06 -5.73931e-06 0.000197489
0.00146731 3.24874e-05 -2.10867e-06
3.24874e-05 0.000795411 -4.94457e-07
-2.10867e-06 -4.94457e-07 0.000589993
0.000859198 -0.000169868 3.86599e-06
-0.000169868 0.000349343 2.02959e-06
3.86599e-06 2.02959e-06 0.00015238
0.000184218 -6.78473e-05 1.58316e-06
-6.78473e-05 -0.000167488 6.26167e-06
1.58316e-06 6.26167e-06 -0.000288894
8.79525e-05 -8.94848e-05 6.83868e-06
-8.94848e-05 -0.000151767 1.69882e-05
6.83868e-06 1.69882e-05 -0.000252118
0.000208907 -3.47181e-05 1.85279e-06
-3.47181e-05 1.15711e-06 1.88645e-06
1.85279e-06 1.88645e-06 -0.000179134
0.000510443 -4.59569e-05 -1.63971e-07
-4.59569e-05 0.000119321 1.21951e-06
-1.63971e-07 1.21951e-06 -4.02887e-05
0.000196552 -5.38656e-05 -1.45095e-06
-5.38656e-05 -4.71083e-05 -1.79504e-06
-1.45095e-06 -1.79504e-06 -0.000178786
0.000372685 -7.3935e-05 -7.0582e-06
-7.3935e-05 4.54553e-05 -4.95536e-06
-7.0582e-06 -4.95536e-06 -9.32231e-05
0.000635065 -9.18724e-05 8.73913e-06
-9.18724e-05 0.000403823 -8.19454e-06
8.73913e-06 -8.19454e-06 0.000226563
0.00158278 -0.000292099 2.63298e-06
-0.000292099 0.000583492 5.62865e-06
2.63298e-06 5.62865e-06 0.000487714
0.000541264 -0.00013434 -1.61988e-05
-0.00013434 4.69509e-05 -4.82313e-07
-1.61988e-05 -4.82313e-07 -6.82159e-05
0.000575665 -0.000246699 7.38677e-06
-0.000246699 2.48787e-05 6.6511e-06
7.38677e-06 6.6511e-06 -0.000154097
0.00238251 -0.000636387 -4.14496e-06
-0.000636387 0.00105216 2.22636e-05
-4.14496e-06 2.22636e-05 0.000677724
0.0019159 -0.000274231 5.0011e-06
-0.000274231 0.000883905 -1.02131e-05
5.0011e-06 -1.02131e-05 0.000676508
0.000688355 -0.000233446 -5.77103e-06
-0.000233446 8.92467e-05 -6.72636e-06
-5.77103e-06 -6.72636e-06 -6.92784e-05
0.00050131 -9.20104e-05 -3.70528e-07
-9.20104e-05 0.000108427 -1.04081e-06
-3.70528e-07 -1.04081e-06 -8.65098e-05
-0.000419803 -4.70269e-05 -4.94468e-07
-4.70269e-05 -0.000429468 -1.30172e-06
-4.94468e-07 -1.30172e-06 -0.000668966
0.00118236 -5.18596e-05 1.37317e-06
-5.18596e-05 0.000552395 1.3284e-06
1.37317e-06 1.3284e-06 0.000359346
0.000705974 -0.000146749 4.62952e-07
-0.000146749 0.00024836 -1.77997e-07
4.62952e-07 -1.77997e-07 4.50662e-05
0.000359052 -6.42922e-05 6.0989e-07
-6.42922e-05 -4.69505e-05 1.02216e-06
6.0989e-07 1.02216e-06 -0.000182155
0.0014927 -0.000221976 -2.95699e-06
-0.000221976 0.000757812 -1.57994e-07
-2.95699e-06 -1.57994e-07 0.000563736
0.000699342 -0.000122206 -5.40999e-07
-0.000122206 0.000185096 7.10314e-09
-5.40999e-07 7.10314e-09 4.65418e-05
0.000514886 -1.07139e-06 -1.62722e-06
-1.07139e-06 3.92597e-05 3.56196e-06
-1.62722e-06 3.56196e-06 -4.87458e-05
0.000723439 -0.000138142 8.48128e-07
-0.000138142 0.000213735 -2.35412e-06
8.48128e-07 -2.35412e-06 7.20291e-05
0.000584236 -6.2555e-05 -6.82234e-08
-6.2555e-05 8.80897e-05 1.1337e-07
-6.82234e-08 1.1337e-07 2.04193e-07
0.00144906 8.75438e-06 -1.32771e-05
8.75438e-06 0.000605273 7.96438e-06
-1.32771e-05 7.96438e-06 0.000580578
0.000535261 -7.3152e-05 1.70539e-06
-7.3152e-05 6.64244e-05 -4.93323e-06
1.70539e-06 -4.93323e-06 -2.21221e-05
0.000855685 -1.62592e-05 -9.74068e-06
-1.62592e-05 0.000235418 7.55411e-07
-9.74068e-06 7.55411e-07 0.000209402
0.000806635 2.06887e-05 1.23856e-06
2.06887e-05 0.000189056 3.02151e-06
1.23856e-06 3.02151e-06 0.000190105
0.00042055 -3.73213e-05 2.99286e-06
-3.73213e-05 -3.5389e-05 -5.24143e-06
2.99286e-06 -5.24143e-06 -6.23921e-05
0.00166406 1.93992e-05 1.23762e-05
1.93992e-05 0.000739081 -1.53078e-06
1.23762e-05 -1.53078e-06 0.000747094
0.00252008 9.46902e-06 1.4017e-05
9.46902e-06 0.00128423 -5.18882e-06
1.4017e-05 -5.18882e-06 0.00129685
0.00047771 5.92357e-05 1.75402e-06
5.92357e-05 3.23436e-05 -8.1637e-07
1.75402e-06 -8.1637e-07 -7.48302e-05
0.000586693 6.81825e-05 -1.02994e-06
6.81825e-05 8.56688e-05 -2.24546e-06
-1.02994e-06 -2.24546e-06 2.60513e-05
0.000572204 6.02705e-06 6.7674e-07
6.02705e-06 0.000108246 8.56757e-07
6.7674e-07 8.56757e-07 1.93662e-06
0.000451393 6.34099e-06 2.14077e-06
6.34099e-06 -3.61439e-05 -3.81691e-06
2.14077e-06 -3.81691e-06 -4.71647e-05
0.000480655 5.76045e-05 -1.4647e-08
5.76045e-05 1.94799e-05 -1.88674e-07
-1.4647e-08 -1.88674e-07 -3.38097e-05
0.00049004 -0.000115321 -3.0946e-06
-0.000115321 5.79313e-05 1.02208e-06
-3.0946e-06 1.02208e-06 -4.22413e-05
0.00201601 1.07725e-05 -7.64302e-06
1.07725e-05 0.000958984 -4.91076e-06
-7.64302e-06 -4.91076e-06 0.000976356
0.000440883 6.72505e-06 -2.61386e-07
6.72505e-06 -4.30116e-05 3.00163e-08
-2.61386e-07 3.00163e-08 -5.33692e-05
0.000490731 -5.32914e-06 -1.60844e-06
-5.32914e-06 1.98729e-05 2.23836e-06
-1.60844e-06 2.23836e-06 -2.63224e-05
0.000454966 4.90661e-06 -1.9806e-06
4.90661e-06 -3.51871e-05 3.36395e-06
-1.9806e-06 3.36395e-06 -4.62723e-05
0.00204891 2.63958e-05 -5.58892e-06
2.63958e-05 0.000982481 -1.20224e-07
-5.58892e-06 -1.20224e-07 0.000998489
0.00202001 4.06872e-05 -3.72351e-06
4.06872e-05 0.000967109 4.79459e-06
-3.72351e-06 4.79459e-06 0.000981718
-0.00584624 -0.00200942 -0.000228614
-0.00200942 0.00656544 6.20067e-05
-0.000228614 6.20067e-05 0.00204632
0.00290093 0.001777 -0.000314657
0.001777 0.00120098 0.000101943
-0.000314657 0.000101943 -0.00150136
0.00292427 -0.00109271 -0.000656339
-0.00109271 0.00129916 0.000280719
-0.000656339 0.000280719 -0.00349447
0.00137854 0.00128634 0.00125808
0.00128634 0.00730041 -0.000334773
0.00125808 -0.000334773 0.00232306
0.00367964 0.000721214 -5.59923e-05
0.000721214 -0.00078057 1.29184e-05
-5.59923e-05 1.29184e-05 0.000338143
0.0032196 -0.000559123 9.81719e-05
-0.000559123 -0.000188169 1.24296e-05
9.81719e-05 1.24296e-05 2.24134e-05
0.00110765 -0.000400431 0.000337234
-0.000400431 -0.00575776 -5.21096e-05
0.000337234 -5.21096e-05 -0.00700322
0.0251878 0.00384156 -0.00110079
0.00384156 0.0111597 7.66711e-05
-0.00110079 7.66711e-05 0.00738031
0.00961568 0.0106886 -0.00263641
0.0106886 0.00723292 0.0016321
-0.00263641 0.0016321 0.00251051
0.0051142 -0.000808409 3.88921e-05
-0.000808409 -0.000627171 5.90259e-06
3.88921e-05 5.90259e-06 0.000369346
0.00841449 -0.0028434 0.000199161
-0.0028434 -0.00277129 -0.000160834
0.000199161 -0.000160834 -0.00476262
0.0215244 0.00635579 -0.000380243
0.00635579 0.00735822 -0.000124914
-0.000380243 -0.000124914 0.0023593
0.017074 0.00492873 5.65248e-05
0.00492873 0.00444713 0.000440428
5.65248e-05 0.000440428 0.0013396
0.00169351 -0.00205165 -0.000120723
-0.00205165 -0.00366285 3.97496e-05
-0.000120723 3.97496e-05 -0.00204178
0.00664508 -0.00447825 0.000523854
-0.00447825 -0.000243975 -0.000241019
0.000523854 -0.000241019 -0.00379994
0.0104013 0.00373831 4.97462e-05
0.00373831 0.00284725 -0.000918483
4.97462e-05 -0.000918483 -0.00228471
0.00917499 0.000447859 -0.00034398
0.000447859 -0.00174351 2.84058e-05
-0.00034398 2.84058e-05 -0.00132975
0.00246654 -7.66261e-05 1.0357e-06
-7.66261e-05 0.00143582 1.78664e-05
1.0357e-06 1.78664e-05 0.0011568
0.000280714 9.28236e-05 -1.62067e-06
9.28236e-05 -2.84277e-05 -2.25931e-06
-1.62067e-06 -2.25931e-06 -0.000175197
0.000524808 0.000107449 2.80056e-06
0.000107449 7.76918e-05 -7.57968e-07
2.80056e-06 -7.57968e-07 -2.60841e-05
6.17448e-05 -1.97985e-05 5.29099e-06
-1.97985e-05 -0.000159107 -3.7855e-06
5.29099e-06 -3.7855e-06 -0.000258227
0.000440245 0.000113954 4.24512e-06
0.000113954 3.42409e-05 7.08024e-06
4.24512e-06 7.08024e-06 -0.000152102
0.000461726 5.35745e-05 -9.41917e-08
5.35745e-05 6.74076e-05 1.80228e-06
-9.41917e-08 1.80228e-06 -9.10537e-05
0.000164301 2.52506e-05 1.51427e-06
2.52506e-05 -0.000121766 -3.57631e-06
1.51427e-06 -3.57631e-06 -0.000254307
0.000903424 0.000185509 6.09985e-06
0.000185509 0.000347034 9.57025e-06
6.09985e-06 9.57025e-06 0.000165503
0.000917203 0.000142835 -2.89248e-07
0.000142835 0.000366824 -5.37733e-07
-2.89248e-07 -5.37733e-07 0.000187431
0.000333632 -8.40088e-06 -3.8706e-06
-8.40088e-06 -2.41886e-05 -6.68887e-06
-3.8706e-06 -6.68887e-06 -0.000161589
0.0004397 -0.000531086 9.32275e-05
-0.000531086 -0.00142062 -5.2146e-05
9.32275e-05 -5.2146e-05 -0.00101056
0.000118127 -0.000682557 6.94371e-06
-0.000682557 -0.000976395 -6.70193e-06
6.94371e-06 -6.70193e-06 -0.000963114
0.00130745 -0.000966548 -1.4177e-05
-0.000966548 -0.000279868 2.27871e-05
-1.4177e-05 2.27871e-05 -0.00036939
-0.00120432 -0.000756577 3.61568e-06
-0.000756577 -0.00103947 -1.10651e-06
3.61568e-06 -1.10651e-06 -0.00137016
0.00348457 -0.000499365 -3.30472e-05
-0.000499365 0.00219748 7.55541e-05
-3.30472e-05 7.55541e-05 0.00164664
0.000877354 -0.000224359 -2.80497e-06
-0.000224359 0.000551225 7.02713e-06
-2.80497e-06 7.02713e-06 0.000221943
0.000389722 0.000121074 -2.31151e-06
0.000121074 0.000123603 -1.6585e-05
-2.31151e-06 -1.6585e-05 -0.000124085
0.000706078 -4.36103e-05 -3.39938e-06
-4.36103e-05 0.000321067 8.8948e-06
-3.39938e-06 8.8948e-06 3.89297e-05
0.00205264 -0.000958439 -1.5384e-05
-0.000958439 -0.000142951 -2.3688e-06
-1.5384e-05 -2.3688e-06 -0.000172438
0.000760568 -4.03279e-05 1.48415e-06
-4.03279e-05 0.000401501 4.62994e-06
1.48415e-06 4.62994e-06 0.000115897
0.00231518 -0.000339511 3.09317e-06
-0.000339511 0.00142349 -2.59898e-06
3.09317e-06 -2.59898e-06 0.00100906
0.0014118 -0.00083108 1.10942e-05
-0.00083108 2.26068e-06 7.74228e-07
1.10942e-05 7.74228e-07 -3.45201e-05
0.000506717 -0.000694358 -3.56232e-05
-0.000694358 0.000268335 9.58675e-06
-3.56232e-05 9.58675e-06 -0.000123204
0.00209119 -0.0016522 6.62075e-05
-0.0016522 1.31687e-05 -2.65727e-05
6.62075e-05 -2.65727e-05 -0.000175056
-0.000120369 -0.000567927 -4.94475e-06
-0.000567927 -0.000265203 2.30838e-05
-4.94475e-06 2.30838e-05 -0.000372183
-0.00158276 -0.000107775 1.69017e-05
-0.000107775 -0.00067036 -1.88725e-06
1.69017e-05 -1.88725e-06 -0.00115773
0.000516143 5.28173e-05 -4.21037e-06
5.28173e-05 0.00019394 5.87921e-06
-4.21037e-06 5.87921e-06 -1.87301e-05
0.000348127 -4.75775e-05 3.37435e-06
-4.75775e-05 0.000273302 -3.75379e-06
3.37435e-06 -3.75379e-06 -6.85281e-05
0.00137433 0.000187458 -6.19427e-05
0.000187458 0.00202082 -2.38864e-05
-6.19427e-05 -2.38864e-05 -0.0023908
-0.00718662 0.000457567 -0.000440332
0.000457567 0.00695004 -2.16333e-05
-0.000440332 -2.16333e-05 0.00138204
-0.0137035 -0.00299913 -0.000857714
-0.00299913 -0.0049438 -6.02414e-06
-0.000857714 -6.02414e-06 -0.0063397
-0.000310925 0.000267725 1.33365e-05
0.000267725 -0.000271271 -3.80528e-06
1.33365e-05 -3.80528e-06 -0.000540271
-0.000919189 0.000551143 -2.00528e-06
0.000551143 -0.000606396 1.03332e-05
-2.00528e-06 1.03332e-05 -0.00106182
0.00260225 0.00115009 4.04599e-05
0.00115009 0.000732412 3.44481e-05
4.04599e-05 3.44481e-05 0.000523678
-0.00525029 0.00222862 0.000107168
0.00222862 0.00715766 6.23506e-05
0.000107168 6.23506e-05 0.0021149
0.00678098 0.00442162 -0.000382268
0.00442162 -0.000242438 -0.000192309
-0.000382268 -0.000192309 -0.00343773
0.000899268 0.00233423 0.000454205
0.00233423 -6.05638e-05 0.000174515
0.000454205 0.000174515 -0.000103854
-0.000269459 0.00101489 4.60929e-06
0.00101489 -9.47564e-05 -4.92312e-05
4.60929e-06 -4.92312e-05 -0.000401258
0.029 -0.00407999 -0.000150052
-0.00407999 0.00983277 -0.000427684
-0.000150052 -0.000427684 0.00546554
0.00698328 0.00202037 0.000667593
0.00202037 0.00345765 0.000238339
0.000667593 0.000238339 -0.00265505
0.0139667 -0.00164973 0.000181204
-0.00164973 0.00250269 5.11264e-05
0.000181204 5.11264e-05 0.00380504
0.00138288 0.000621591 5.57229e-06
0.000621591 0.00072496 -1.52882e-06
5.57229e-06 -1.52882e-06 0.000384323
0.00385107 0.000771796 -2.37216e-05
0.000771796 0.00351711 1.06634e-05
-2.37216e-05 1.06634e-05 -0.00056169
0.00188961 0.000935204 8.46982e-05
0.000935204 0.000210606 -4.50287e-06
8.46982e-05 -4.50287e-06 -0.00149964
-0.000459811 0.000556638 -2.18664e-06
0.000556638 -0.000100004 -5.45604e-06
-2.18664e-06 -5.45604e-06 -0.00047065
-0.000218583 0.00148361 -0.000129188
0.00148361 0.000685549 -6.76812e-05
-0.000129188 -6.76812e-05 -0.000615051
0.0021364 0.0054697 0.000262642
0.0054697 0.00109895 0.000122394
0.000262642 0.000122394 -0.00335236
0.0104969 -0.000243932 4.74125e-06
-0.000243932 -0.00348163 -0.000224648
4.74125e-06 -0.000224648 -0.000781834
0.00704286 -0.00270224 -8.74759e-05
-0.00270224 0.00408622 -0.000183455
-8.74759e-05 -0.000183455 -0.00141542
0.00099832 0.000493862 -7.47822e-06
0.000493862 0.000826644 -1.50949e-05
-7.47822e-06 -1.50949e-05 0.000429392
-0.00347426 0.00036256 2.20831e-05
0.00036256 0.000252042 3.85359e-05
2.20831e-05 3.85359e-05 -0.000523456
0.0057907 -0.000381607 0.000155593
-0.000381607 -0.000133014 -0.000155175
0.000155593 -0.000155175 -0.00155198
0.00894569 0.000579045 0.000318968
0.000579045 -0.0016432 -1.80825e-05
0.000318968 -1.80825e-05 -0.00115327
-0.0027861 0.000180474 5.00473e-05
0.000180474 -6.52833e-05 -2.38683e-05
5.00473e-05 -2.38683e-05 -0.000954407
0.0122924 0.0038247 0.000372303
0.0038247 0.00625678 0.000105412
0.000372303 0.000105412 0.000539657
0.00387231 -0.000693665 -2.37509e-06
-0.000693665 0.00314489 0.000413825
-2.37509e-06 0.000413825 -0.000844416
0.00316224 0.000497319 2.69273e-05
0.000497319 0.00194674 1.20191e-05
2.69273e-05 1.20191e-05 0.00165863
0.000383029 0.000243672 -7.2257e-06
0.000243672 0.000445174 -1.87117e-06
-7.2257e-06 -1.87117e-06 6.01445e-05
0.000235313 0.000217901 4.07432e-06
0.000217901 0.000522337 -4.60199e-06
4.07432e-06 -4.60199e-06 2.7467e-05
0.000321974 0.000128963 1.53816e-06
0.000128963 1.8291e-05 -2.94605e-06
1.53816e-06 -2.94605e-06 -0.000187721
0.000620203 0.000107138 1.04885e-06
0.000107138 0.000260872 8.51283e-07
1.04885e-06 8.51283e-07 6.51377e-05
0.000116574 -3.74571e-06 6.99534e-06
-3.74571e-06 0.000361388 -3.75974e-06
6.99534e-06 -3.75974e-06 -8.1722e-05
0.000504945 3.71541e-05 2.26326e-07
3.71541e-05 0.000175588 -7.93901e-07
2.26326e-07 -7.93901e-07 -1.03817e-05
0.000816 -4.07794e-05 -4.68843e-07
-4.07794e-05 0.000751276 -2.59581e-06
-4.68843e-07 -2.59581e-06 0.000332081
-6.34631e-05 2.73351e-05 1.58143e-07
2.73351e-05 0.000385316 -3.79094e-07
1.58143e-07 -3.79094e-07 -0.000133159
-4.63521e-05 -3.59629e-05 -1.44538e-06
-3.59629e-05 0.000361589 1.36209e-05
-1.44538e-06 1.36209e-05 -8.95418e-05
0.000336955 -3.25951e-05 -1.22433e-06
-3.25951e-05 0.000398828 -8.74723e-06
-1.22433e-06 -8.74723e-06 7.18099e-05
2.30197e-05 -6.0127e-05 5.46998e-06
-6.0127e-05 -0.000145456 9.22338e-06
5.46998e-06 9.22338e-06 -0.000300887
0.00119872 -4.72697e-05 6.04632e-07
-4.72697e-05 0.000534596 4.34054e-06
6.04632e-07 4.34054e-06 0.000377981
0.00115312 -7.72301e-05 -1.50762e-05
-7.72301e-05 0.000548124 1.29757e-05
-1.50762e-05 1.29757e-05 0.00041392
0.000734649 -9.43746e-05 4.75543e-06
-9.43746e-05 0.000443502 -4.07636e-07
4.75543e-06 -4.07636e-07 0.000275461
0.000334059 -5.18546e-05 -1.20643e-06
-5.18546e-05 2.57386e-05 -1.56065e-06
-1.20643e-06 -1.56065e-06 -0.000111039
0.000703625 -0.000227757 -6.09755e-07
-0.000227757 0.000237722 4.60024e-06
-6.09755e-07 4.60024e-06 9.85363e-05
0.000343859 -0.000187707 -1.6012e-05
-0.000187707 -5.76159e-05 -4.37519e-07
-1.6012e-05 -4.37519e-07 -0.000110512
-0.000983662 -0.000287927 1.20801e-05
-0.000287927 -0.0008143 2.36054e-05
1.20801e-05 2.36054e-05 -0.00112231
8.89324e-05 -0.000145357 4.65497e-06
-0.000145357 -0.000208527 -6.72952e-07
4.65497e-06 -6.72952e-07 -0.000324896
0.00115964 -0.0003154 -4.81988e-06
-0.0003154 0.000368 1.15566e-05
-4.81988e-06 1.15566e-05 0.000168106
0.00222128 -0.000646816 -6.9756e-06
-0.000646816 0.000947221 1.44245e-05
-6.9756e-06 1.44245e-05 0.000542139
0.00181514 -0.000618924 -7.22845e-06
-0.000618924 0.000600963 -5.3034e-07
-7.22845e-06 -5.3034e-07 0.000173747
0.00169956 -0.000421273 6.34774e-07
-0.000421273 0.000702149 1.32083e-06
6.34774e-07 1.32083e-06 0.000438642
0.000555099 -0.000396065 9.29462e-06
-0.000396065 -7.67125e-05 -4.17377e-06
9.29462e-06 -4.17377e-06 -0.000382809
0.00123052 -0.000193179 2.48277e-06
-0.000193179 0.000571112 -3.20764e-06
2.48277e-06 -3.20764e-06 0.000287466
0.00113245 -0.000234738 -8.47906e-06
-0.000234738 0.000445074 1.99523e-06
-8.47906e-06 1.99523e-06 0.000225963
-0.000258548 -0.000138306 1.82812e-05
-0.000138306 -0.000478641 -1.7067e-05
1.82812e-05 -1.7067e-05 -0.000589755
0.00127047 -0.000125104 -2.20332e-06
-0.000125104 0.000558145 1.75845e-06
-2.20332e-06 1.75845e-06 0.000362675
0.000230398 -9.55101e-05 8.20343e-07
-9.55101e-05 -3.46564e-05 1.7958e-07
8.20343e-07 1.7958e-07 -0.000271381
0.00024205 -5.51612e-05 1.07354e-06
-5.51612e-05 -0.000110493 5.44467e-07
1.07354e-06 5.44467e-07 -0.000272359
0.00170807 -0.000267868 -2.2727e-06
-0.000267868 0.000878624 -4.29751e-07
-2.2727e-06 -4.29751e-07 0.000660003
0.000673802 -0.000110429 -3.49706e-07
-0.000110429 0.000169068 -1.46387e-08
-3.49706e-07 -1.46387e-08 1.78008e-05
0.000378492 5.51691e-06 2.55216e-06
5.51691e-06 -3.35978e-05 4.33039e-06
2.55216e-06 4.33039e-06 -0.000137763
0.00081567 -0.000152547 -9.13959e-08
-0.000152547 0.00027092 -2.07119e-06
-9.13959e-08 -2.07119e-06 0.000120722
0.000463148 4.77014e-06 -2.22137e-06
4.77014e-06 1.84301e-05 -1.86418e-07
-2.22137e-06 -1.86418e-07 -7.80138e-05
0.00144794 7.00587e-07 -1.92465e-05
7.00587e-07 0.000604622 5.58825e-06
-1.92465e-05 5.58825e-06 0.000578096
0.000585618 -7.1765e-05 2.28743e-06
-7.1765e-05 9.4962e-05 -4.79382e-06
2.28743e-06 -4.79382e-06 3.69442e-06
0.000871907 -1.23103e-05 -9.42289e-06
-1.23103e-05 0.000240201 5.52418e-07
-9.42289e-06 5.52418e-07 0.000212667
0.000839633 3.09036e-05 4.78701e-07
3.09036e-05 0.000207291 3.22853e-06
4.78701e-07 3.22853e-06 0.000205816
0.000443176 -3.0392e-05 3.13641e-06
-3.0392e-05 -2.82273e-05 -6.33363e-06
3.13641e-06 -6.33363e-06 -5.69945e-05
0.00174268 3.16909e-05 1.54468e-05
3.16909e-05 0.00078623 -1.25859e-06
1.54468e-05 -1.25859e-06 0.000792755
0.00254686 2.31204e-05 1.91541e-05
2.31204e-05 0.0012984 -5.52901e-06
1.91541e-05 -5.52901e-06 0.00131078
0.000297048 2.1243e-05 2.11381e-06
2.1243e-05 -6.41808e-05 2.49125e-06
2.11381e-06 2.49125e-06 -0.000202216
0.000124154 2.17912e-05 3.13971e-07
2.17912e-05 -0.000211872 -3.90868e-06
3.13971e-07 -3.90868e-06 -0.00027881
0.000609583 5.78172e-05 1.02841e-07
5.78172e-05 0.000127495 2.67842e-07
1.02841e-07 2.67842e-07 9.40943e-06
0.000453462 6.68388e-06 1.91858e-06
6.68388e-06 -3.69306e-05 -4.0208e-06
1.91858e-06 -4.0208e-06 -4.95652e-05
0.000314642 7.98098e-06 1.68633e-06
7.98098e-06 -9.33062e-05 5.31388e-08
1.68633e-06 5.31388e-08 -0.000149902
0.000223314 -9.52847e-05 -1.10805e-06
-9.52847e-05 -0.000114753 -4.29688e-07
-1.10805e-06 -4.29688e-07 -0.000220461
0.00206862 -3.34791e-06 -1.23423e-05
-3.34791e-06 0.000991382 -4.95056e-06
-1.23423e-05 -4.95056e-06 0.00100881
0.000447587 5.05834e-06 2.33746e-08
5.05834e-06 -3.93756e-05 -6.67951e-08
2.33746e-08 -6.67951e-08 -5.01057e-05
0.000419825 -1.39539e-05 -3.23561e-06
-1.39539e-05 -2.45149e-05 2.53143e-06
-3.23561e-06 2.53143e-06 -7.4222e-05
0.00203845 1.21649e-05 -4.80711e-06
1.21649e-05 0.000973718 5.2404e-09
-4.80711e-06 5.2404e-09 0.000990817
0.000442415 5.85699e-06 -1.79057e-06
5.85699e-06 -4.14211e-05 3.34022e-06
-1.79057e-06 3.34022e-06 -5.18626e-05
0.00201741 2.7428e-05 2.47133e-06
2.7428e-05 0.000962473 4.96088e-06
2.47133e-06 4.96088e-06 0.000978461
-0.000492553 -0.000980769 -0.000277412
-0.000980769 -0.000124982 0.000112466
-0.000277412 0.000112466 -0.00367892
0.00231021 0.000892116 -0.000142654
0.000892116 0.00847392 3.27103e-05
-0.000142654 3.27103e-05 0.00365601
0.00290255 0.000147921 -0.00104127
0.000147921 0.00413401 0.000231101
-0.00104127 0.000231101 0.002119
0.00070839 0.000125255 7.4117e-06
0.000125255 0.000194367 7.10511e-06
7.4117e-06 7.10511e-06 3.2103e-05
0.0055176 -0.00108145 -0.00012821
-0.00108145 0.00341997 0.000271499
-0.00012821 0.000271499 0.00108667
0.00423811 -0.00141055 -0.000297966
-0.00141055 0.00184265 3.01565e-05
-0.000297966 3.01565e-05 -0.00297781
0.013528 0.00440257 0.000337891
0.00440257 0.00880685 -0.00039225
0.000337891 -0.00039225 0.00366071
0.00763179 -0.00127351 0.00013901
-0.00127351 0.000613102 -2.16401e-05
0.00013901 -2.16401e-05 0.00114417
0.0133311 -0.00269684 0.00028841
-0.00269684 0.000875541 -0.000167243
0.00028841 -0.000167243 0.000124702
0.0122688 0.00518184 -0.000796763
0.00518184 0.00209911 0.000442751
-0.000796763 0.000442751 -0.00254169
0.014718 0.00456358 0.000157292
0.00456358 0.00624369 0.000252084
0.000157292 0.000252084 0.00314215
0.00780455 -0.0026463 -0.000115185
-0.0026463 -8.42143e-07 -3.67894e-06
-0.000115185 -3.67894e-06 0.000757993
0.0165882 -0.00494213 2.0857e-05
-0.00494213 0.00334025 -3.82547e-05
2.0857e-05 -3.82547e-05 0.000825172
0.00951791 0.00298245 0.000135134
0.00298245 0.00422485 -0.000388174
0.000135134 -0.000388174 -0.000951642
0.0132084 0.00128134 5.11866e-06
0.00128134 0.000198963 4.69889e-05
5.11866e-06 4.69889e-05 -9.73429e-05
0.00282602 -0.00268222 -6.94321e-05
-0.00268222 5.3463e-05 8.60377e-05
-6.94321e-05 8.60377e-05 0.000320391
0.0101885 -0.00498049 0.000206744
-0.00498049 0.0043247 -0.000114631
0.000206744 -0.000114631 7.85292e-05
0.0103031 -0.000326028 0.00011738
-0.000326028 0.00542156 -0.000478299
0.00011738 -0.000478299 0.00196002
0.0128426 0.000107211 -0.000164868
0.000107211 -0.00119836 0.000284808
-0.000164868 0.000284808 0.000689625
0.000401356 8.75288e-05 6.71141e-06
8.75288e-05 0.000107467 1.44945e-05
6.71141e-06 1.44945e-05 -0.000106519
0.000627405 -0.00012612 6.1498e-07
-0.00012612 0.000264575 2.95737e-08
6.1498e-07 2.95737e-08 1.68539e-05
0.000783686 0.000111852 2.4195e-06
0.000111852 0.000304762 -4.8842e-06
2.4195e-06 -4.8842e-06 0.000147023
0.000515882 0.000148892 4.6165e-06
0.000148892 4.70493e-05 1.43391e-05
4.6165e-06 1.43391e-05 -9.84436e-05
0.000843812 0.000205878 2.50373e-07
0.000205878 0.000321502 2.87319e-07
2.50373e-07 2.87319e-07 0.000120113
0.00108531 0.000119015 -4.5543e-06
0.000119015 0.000481937 -5.34816e-06
-4.5543e-06 -5.34816e-06 0.000314339
0.00106761 0.000182757 -1.59713e-06
0.000182757 0.000455562 3.98344e-08
-1.59713e-06 3.98344e-08 0.000269865
0.00106571 0.000194155 1.07402e-06
0.000194155 0.00047938 1.54323e-06
1.07402e-06 1.54323e-06 0.000289003
0.000741537 -0.000734326 0.000130343
-0.000734326 -0.000939068 -7.54337e-05
0.000130343 -7.54337e-05 -0.000728765
5.27035e-05 -0.0007133 -3.50025e-05
-0.0007133 -0.00082863 -9.39911e-07
-3.50025e-05 -9.39911e-07 -0.000770014
0.000870088 -0.000220804 4.81191e-06
-0.000220804 0.000439784 -3.16794e-05
4.81191e-06 -3.16794e-05 0.000141234
0.0018653 -0.000746263 2.30286e-05
-0.000746263 0.000983408 -2.06319e-05
2.30286e-05 -2.06319e-05 0.000628396
0.0024845 -0.000507291 -2.27694e-05
-0.000507291 0.00146375 2.34378e-05
-2.27694e-05 2.34378e-05 0.00105342
0.00163459 -0.000166754 6.50096e-06
-0.000166754 0.000933492 -2.23064e-05
6.50096e-06 -2.23064e-05 0.000628755
5.52241e-05 5.31962e-07 3.76348e-06
5.31962e-07 -0.000101558 7.2402e-06
3.76348e-06 7.2402e-06 -0.000310589
0.000745247 -0.00140811 -8.68517e-06
-0.00140811 -0.000549269 -5.7978e-06
-8.68517e-06 -5.7978e-06 -0.000716162
0.00139163 -1.93002e-05 -1.01538e-06
-1.93002e-05 0.000913522 -2.02036e-07
-1.01538e-06 -2.02036e-07 0.000565664
8.55139e-07 -0.000241892 -6.28917e-06
-0.000241892 0.000178246 6.77991e-06
-6.28917e-06 6.77991e-06 -0.000273784
-0.000546486 -0.000447226 2.40557e-05
-0.000447226 -0.000574415 -9.24777e-07
2.40557e-05 -9.24777e-07 -0.000555937
0.000814934 0.000118406 3.01355e-06
0.000118406 0.000379401 8.67048e-06
3.01355e-06 8.67048e-06 0.000188086
0.000108442 -0.00135929 -7.50063e-05
-0.00135929 -0.000140801 -2.67331e-05
-7.50063e-05 -2.67331e-05 -0.000541617
-0.00107983 -0.000464496 -1.89589e-05
-0.000464496 -0.000485502 2.58749e-05
-1.89589e-05 2.58749e-05 -0.000832645
0.00015973 0.00015936 1.2722e-05
0.00015936 0.000465316 -2.28258e-05
1.2722e-05 -2.28258e-05 -6.05209e-05
0.00158226 0.000262055 -1.0764e-06
0.000262055 0.00109048 -1.76279e-08
-1.0764e-06 -1.76279e-08 0.000744942
-0.00119246 0.000119467 0.000152056
0.000119467 0.00195702 3.42053e-05
0.000152056 3.42053e-05 0.000777888
0.000289267 -2.05115e-06 0.000176279
-2.05115e-06 0.00126551 -3.58234e-05
0.000176279 -3.58234e-05 -0.00322363
-0.0124985 -0.000408455 -0.000318042
-0.000408455 0.00644383 2.86502e-05
-0.000318042 2.86502e-05 0.000626596
0.00175169 0.000641172 2.09114e-05
0.000641172 0.00103041 3.404e-06
2.09114e-05 3.404e-06 0.000684519
-0.000560653 0.000785423 1.41162e-05
0.000785423 -0.000186501 1.07006e-05
1.41162e-05 1.07006e-05 -0.000685144
0.00571606 0.00104372 0.00038327
0.00104372 0.004064 8.19934e-05
0.00038327 8.19934e-05 0.0011822
0.00811935 0.00423067 0.000252557
0.00423067 0.00301343 0.000212193
0.000252557 0.000212193 -0.00112181
0.00425747 0.00283752 -0.000124802
0.00283752 0.00240637 -0.000116207
-0.000124802 -0.000116207 0.000918634
0.00420504 -0.00236111 -0.000166034
-0.00236111 0.0045841 -0.000477383
-0.000166034 -0.000477383 0.000279714
0.00299931 0.000750213 0.000143013
0.000750213 0.000495278 0.000188444
0.000143013 0.000188444 -0.00120943
0.00834078 -0.000347737 -5.05976e-05
-0.000347737 -0.00548435 -0.00024944
-5.05976e-05 -0.00024944 -0.00237886
0.00100358 0.000580947 4.60602e-06
0.000580947 0.000779159 9.49656e-07
4.60602e-06 9.49656e-07 0.000345037
-0.00283471 0.000178439 -2.7099e-06
0.000178439 0.000360202 4.39031e-06
-2.7099e-06 4.39031e-06 -0.000566874
0.00496599 -0.000216966 0.000134147
-0.000216966 -0.000196357 2.03632e-05
0.000134147 2.03632e-05 -0.00101826
-0.00187585 0.000503742 -1.67304e-05
0.000503742 -0.000206704 -1.18888e-05
-1.67304e-05 -1.18888e-05 -0.00100752
0.0129956 0.00146808 -5.09282e-07
0.00146808 0.000178909 -5.17759e-05
-5.09282e-07 -5.17759e-05 -0.000111242
0.00307918 0.00218471 0.000258596
0.00218471 0.00428625 0.000154433
0.000258596 0.000154433 -0.00166842
0.00832644 0.000738276 -0.000190824
0.000738276 0.00348454 6.06628e-06
-0.000190824 6.06628e-06 -0.00057221
0.000273142 0.000489514 8.42594e-06
0.000489514 0.000548779 -2.24462e-05
8.42594e-06 -2.24462e-05 -3.35938e-05
0.00181395 -2.80225e-05 6.82189e-07
-2.80225e-05 0.000604521 -8.60732e-06
6.82189e-07 -8.60732e-06 -0.000108867
0.00404926 -0.00147766 0.000116507
-0.00147766 0.00341198 -0.000260375
0.000116507 -0.000260375 0.00138682
0.0226988 0.00546139 0.000333276
0.00546139 0.00740764 -0.000306011
0.000333276 -0.000306011 0.00436287
0.00981578 -0.000265496 -0.00013504
-0.000265496 0.00570004 0.000510523
-0.00013504 0.000510523 0.00195358
-0.000350826 0.000480799 -4.24249e-05
0.000480799 0.000715936 -0.000136889
-4.24249e-05 -0.000136889 -8.35024e-05
0.0047078 0.00137027 0.000278599
0.00137027 0.00661448 2.77004e-05
0.000278599 2.77004e-05 -0.00214761
0.00128682 0.00038413 8.9625e-06
0.00038413 0.000960669 1.16429e-05
8.9625e-06 1.16429e-05 0.00055449
0.00071912 0.000282286 4.44475e-06
0.000282286 0.000801467 3.86584e-06
4.44475e-06 3.86584e-06 0.000328005
0.000575201 -4.5997e-05 -1.08457e-05
-4.5997e-05 0.000892891 8.0252e-06
-1.08457e-05 8.0252e-06 0.000472212
-0.000798375 -1.83363e-05 2.14683e-06
-1.83363e-05 -0.000650645 -7.23319e-07
2.14683e-06 -7.23319e-07 -0.00082125
2.75178e-05 -2.76537e-05 3.94239e-06
-2.76537e-05 0.000327779 2.42037e-06
3.94239e-06 2.42037e-06 -0.000134524
-6.97242e-05 4.20194e-05 2.65949e-06
4.20194e-05 0.00040219 -7.4398e-06
2.65949e-06 -7.4398e-06 -0.000130472
0.000104169 -2.76658e-05 1.86406e-07
-2.76658e-05 0.000199133 7.39649e-07
1.86406e-07 7.39649e-07 -7.52226e-05
-0.000107141 -4.93436e-05 2.46602e-06
-4.93436e-05 0.000314812 1.39325e-06
2.46602e-06 1.39325e-06 -0.00013678
0.00173248 -0.000414715 5.84307e-06
-0.000414715 0.00115975 -1.00893e-05
5.84307e-06 -1.00893e-05 0.000814933
0.000398709 -7.87041e-05 -5.35596e-06
-7.87041e-05 0.000227129 6.04356e-06
-5.35596e-06 6.04356e-06 6.47738e-05
7.73674e-05 8.42365e-06 7.03803e-08
8.42365e-06 -0.000126224 2.66048e-06
7.03803e-08 2.66048e-06 -0.000260218
0.00126748 -0.000306082 3.37918e-07
-0.000306082 0.000581433 5.91981e-06
3.37918e-07 5.91981e-06 0.000401822
-0.00349849 -5.80823e-05 1.98613e-05
-5.80823e-05 -0.00208962 2.41376e-05
1.98613e-05 2.41376e-05 -0.00243507
-0.000616065 -9.99818e-05 1.56657e-05
-9.99818e-05 -0.000549749 -2.03794e-06
1.56657e-05 -2.03794e-06 -0.000563915
-0.000133659 -0.000349757 -1.65202e-06
-0.000349757 -0.000351718 -5.98478e-06
-1.65202e-06 -5.98478e-06 -0.000623006
0.00143313 -0.000612422 -1.95025e-06
-0.000612422 0.000434674 1.23959e-06
-1.95025e-06 1.23959e-06 -7.48308e-05
0.00177526 -0.000725012 -1.01062e-05
-0.000725012 0.000531 1.36509e-06
-1.01062e-05 1.36509e-06 5.04195e-05
0.00154715 -0.000369515 6.62214e-06
-0.000369515 0.000589576 -6.03721e-06
6.62214e-06 -6.03721e-06 0.000371573
0.00140319 -0.00054725 7.72318e-07
-0.00054725 0.000439459 4.0127e-07
7.72318e-07 4.0127e-07 4.8086e-05
0.00163533 -0.000622915 3.23291e-06
-0.000622915 0.00044812 -3.8862e-06
3.23291e-06 -3.8862e-06 2.61628e-05
0.00154578 -0.000469895 -2.98235e-06
-0.000469895 0.000511208 8.45162e-06
-2.98235e-06 8.45162e-06 0.000176989
0.00105557 -0.00052149 2.25679e-06
-0.00052149 0.000141191 -4.56345e-06
2.25679e-06 -4.56345e-06 -0.000256053
0.000901602 -0.000201064 4.17765e-07
-0.000201064 0.000292286 -5.33741e-06
4.17765e-07 -5.33741e-06 2.71013e-05
0.00105215 -0.000369499 -5.32407e-06
-0.000369499 0.000305052 2.72989e-06
-5.32407e-06 2.72989e-06 3.59815e-05
-0.000942098 -0.000193711 2.08887e-06
-0.000193711 -0.000991246 -9.99153e-06
2.08887e-06 -9.99153e-06 -0.00123809
-6.87843e-05 -6.74817e-05 4.54267e-07
-6.74817e-05 -0.000268877 -2.74721e-06
4.54267e-07 -2.74721e-06 -0.000490823
0.000309291 -0.000153967 3.18316e-07
-0.000153967 2.56184e-05 2.47563e-07
3.18316e-07 2.47563e-07 -0.000257359
0.000121933 -0.000183309 1.22262e-05
-0.000183309 -0.000131216 3.88451e-07
1.22262e-05 3.88451e-07 -0.000362061
0.000777935 -0.000147959 -5.4004e-08
-0.000147959 0.000292381 1.18521e-06
-5.4004e-08 1.18521e-06 6.14649e-05
0.000697367 -0.000129902 1.33492e-07
-0.000129902 0.000189525 3.79119e-07
1.33492e-07 3.79119e-07 1.09854e-05
0.000488672 -1.40581e-05 1.26733e-06
-1.40581e-05 2.53548e-05 6.08219e-06
1.26733e-06 6.08219e-06 -8.88299e-05
0.00118128 -0.000172733 -1.26996e-06
-0.000172733 0.000508959 -9.47845e-07
-1.26996e-06 -9.47845e-07 0.000339058
0.000587708 -2.09155e-05 -1.258e-06
-2.09155e-05 8.48255e-05 -3.34925e-07
-1.258e-06 -3.34925e-07 -1.31083e-05
0.000372423 5.07129e-05 2.83604e-06
5.07129e-05 -6.73766e-05 7.44085e-06
2.83604e-06 7.44085e-06 -0.000107865
0.000712246 -7.44153e-05 1.69484e-06
-7.44153e-05 0.000165491 -3.72366e-06
1.69484e-06 -3.72366e-06 7.17938e-05
0.000443013 -3.32935e-06 -1.67622e-06
-3.32935e-06 -3.45259e-05 -7.88848e-08
-1.67622e-06 -7.88848e-08 -6.76068e-05
0.00267056 9.27924e-05 -1.69569e-06
9.27924e-05 0.00137866 2.70181e-06
-1.69569e-06 2.70181e-06 0.00138226
0.000469759 -2.28052e-05 3.22155e-06
-2.28052e-05 -1.56058e-05 -6.534e-06
3.22155e-06 -6.534e-06 -4.67231e-05
0.00178523 4.53527e-05 1.85699e-05
4.53527e-05 0.000812704 -1.04511e-06
1.85699e-05 -1.04511e-06 0.000817036
0.00264504 3.92787e-05 2.62434e-05
3.92787e-05 0.00135927 -5.79933e-06
2.62434e-05 -5.79933e-06 0.00137057
0.000254798 2.91516e-05 3.0225e-06
2.91516e-05 -0.000109159 1.70482e-06
3.0225e-06 1.70482e-06 -0.000235058
0.000199676 1.10738e-05 2.11686e-06
1.10738e-05 -0.000165622 -2.65289e-06
2.11686e-06 -2.65289e-06 -0.00024422
0.000455105 3.88016e-05 -5.09024e-07
3.88016e-05 3.05456e-05 -1.26499e-06
-5.09024e-07 -1.26499e-06 -0.000100441
0.000477069 8.40378e-06 1.68585e-06
8.40378e-06 -2.25169e-05 -4.53432e-06
1.68585e-06 -4.53432e-06 -3.83308e-05
0.000174979 1.88742e-05 -6.66875e-07
1.88742e-05 -0.000180467 -1.82896e-06
-6.66875e-07 -1.82896e-06 -0.000249648
0.000657144 6.05506e-05 -3.51515e-07
6.05506e-05 0.000171517 1.41299e-06
-3.51515e-07 1.41299e-06 4.37858e-05
0.00209641 -1.70381e-05 -1.76795e-05
-1.70381e-05 0.00100773 -4.87809e-06
-1.76795e-05 -4.87809e-06 0.00102498
0.000456012 4.41819e-06 -7.37859e-07
4.41819e-06 -3.58869e-05 -8.32056e-08
-7.37859e-07 -8.32056e-08 -4.81387e-05
9.02689e-05 1.74871e-05 1.38445e-06
1.74871e-05 -0.00023229 2.06561e-06
1.38445e-06 2.06561e-06 -0.000292878
0.00205658 -2.22732e-06 -4.11889e-06
-2.22732e-06 0.000983664 5.59462e-08
-4.11889e-06 5.59462e-08 0.00100118
0.000437952 4.47472e-06 -2.07071e-06
4.47472e-06 -4.60408e-05 3.61309e-06
-2.07071e-06 3.61309e-06 -5.64158e-05
0.00208164 1.37118e-05 8.09977e-06
1.37118e-05 0.00100167 5.0284e-06
8.09977e-06 5.0284e-06 0.00101833
0.000514601 -5.823e-05 0.000162936
-5.823e-05 0.00274033 7.53323e-05
0.000162936 7.53323e-05 0.00180852
-0.000373954 -0.000446774 -6.10594e-05
-0.000446774 0.000457534 -7.25267e-06
-6.10594e-05 -7.25267e-06 -0.00377931
0.00024013 0.00087988 -8.54095e-05
0.00087988 0.00807571 -5.71874e-05
-8.54095e-05 -5.71874e-05 0.00301104
0.000797856 0.000142379 8.41721e-07
0.000142379 0.000235867 2.20164e-07
8.41721e-07 2.20164e-07 8.58035e-05
1.39119e-05 8.53318e-05 7.43032e-06
8.53318e-05 -0.000263188 5.09373e-06
7.43032e-06 5.09373e-06 -0.000400126
0.00119977 0.000213168 1.26344e-05
0.000213168 0.000492163 9.61187e-06
1.26344e-05 9.61187e-06 0.00033816
0.00682605 -0.000558864 -0.000141694
-0.000558864 -0.000302812 0.000219949
-0.000141694 0.000219949 -0.00159189
0.00550329 -0.00137081 0.000112684
-0.00137081 0.00304968 1.43213e-05
0.000112684 1.43213e-05 0.00145668
0.00463951 -0.00216679 0.000237004
-0.00216679 0.00192752 -0.00028606
0.000237004 -0.00028606 -0.00291393
0.00947872 -0.00322027 -5.48148e-06
-0.00322027 0.000154063 -4.63034e-05
-5.48148e-06 -4.63034e-05 0.00108943
0.00152487 -0.00397295 -0.000515525
-0.00397295 -0.00218934 8.46149e-05
-0.000515525 8.46149e-05 -0.00442199
0.0270596 0.00485357 0.000298568
0.00485357 0.0116904 0.000199772
0.000298568 0.000199772 0.00571498
0.00781955 -0.000353718 0.000346016
-0.000353718 -0.00241586 -0.000272114
0.000346016 -0.000272114 -0.00292398
0.00365002 -0.00304111 -2.91046e-05
-0.00304111 -0.000346493 1.78735e-05
-2.91046e-05 1.78735e-05 0.000397695
0.00746088 -0.00501942 -0.000152791
-0.00501942 0.00270747 2.16951e-05
-0.000152791 2.16951e-05 -0.00213585
-0.000223211 0.00404118 -9.87001e-05
0.00404118 0.00481075 -0.000336254
-9.87001e-05 -0.000336254 -0.000577458
0.0109145 -6.79009e-05 -9.50023e-05
-6.79009e-05 -0.00339143 0.000157376
-9.50023e-05 0.000157376 -0.000752948
0.000462621 -0.00208424 -0.000125406
-0.00208424 0.000717563 5.76516e-05
-0.000125406 5.76516e-05 0.000297733
0.0107247 -0.00342406 -0.000343944
-0.00342406 0.00605055 0.00021168
-0.000343944 0.00021168 0.000736628
0.00102918 -0.00023692 6.14994e-05
-0.00023692 0.00276655 -0.000347324
6.14994e-05 -0.000347324 -0.00136562
0.00946429 -0.000535627 0.000129597
-0.000535627 -0.00190321 8.57413e-05
0.000129597 8.57413e-05 -0.00130436
0.000122382 0.000106248 1.14299e-05
0.000106248 -0.000138935 2.45621e-05
1.14299e-05 2.45621e-05 -0.000279111
0.000674352 2.66438e-06 2.47875e-06
2.66438e-06 0.000254217 -2.95672e-06
2.47875e-06 -2.95672e-06 3.12057e-05
0.000300873 -0.000166489 3.05292e-06
-0.000166489 -1.93743e-05 -1.24027e-05
3.05292e-06 -1.24027e-05 -0.000227982
0.000640755 0.000145736 -1.95315e-06
0.000145736 0.000130856 1.98428e-06
-1.95315e-06 1.98428e-06 -2.21651e-05
0.000772065 0.000154336 1.74469e-06
0.000154336 0.000281134 -7.75127e-06
1.74469e-06 -7.75127e-06 9.03866e-05
0.0011711 0.000206169 -5.4505e-06
0.000206169 0.000521461 -5.91443e-06
-5.4505e-06 -5.91443e-06 0.000335068
2.2689e-05 -0.00121194 4.19246e-05
-0.00121194 -0.00079493 -1.91219e-05
4.19246e-05 -1.91219e-05 -0.000929726
0.000965304 -0.000428864 2.18732e-05
-0.000428864 0.0002461 -2.22256e-05
2.18732e-05 -2.22256e-05 0.000288931
0.000175094 0.000106983 -2.4516e-06
0.000106983 -1.24557e-05 -2.00886e-05
-2.4516e-06 -2.00886e-05 -0.000241899
0.00263061 -0.000510716 6.92804e-05
-0.000510716 0.00162106 -2.84e-05
6.92804e-05 -2.84e-05 0.00121427
0.00189247 -0.000152942 1.50594e-06
-0.000152942 0.00115915 8.70637e-07
1.50594e-06 8.70637e-07 0.000848799
-0.000168043 0.000101984 4.80984e-06
0.000101984 -0.000161497 4.08441e-06
4.80984e-06 4.08441e-06 -0.000378404
0.000323682 8.04497e-05 1.53589e-06
8.04497e-05 0.000294454 3.41255e-07
1.53589e-06 3.41255e-07 -3.14931e-07
0.000980332 -0.00140559 -4.39195e-05
-0.00140559 0.000252333 2.29249e-06
-4.39195e-05 2.29249e-06 -0.000216725
0.000137988 -3.57592e-05 -5.12479e-06
-3.57592e-05 0.000501911 3.44325e-06
-5.12479e-06 3.44325e-06 -5.15785e-05
0.000720138 -0.000397631 -1.11589e-05
-0.000397631 0.000637957 -5.53845e-06
-1.11589e-05 -5.53845e-06 0.000182435
0.000676318 0.000179343 4.67023e-06
0.000179343 0.000493298 -9.34078e-06
4.67023e-06 -9.34078e-06 0.000223549
-0.00181642 -0.000384572 -2.41308e-05
-0.000384572 5.66053e-05 -2.47106e-05
-2.41308e-05 -2.47106e-05 -0.000909939
0.000717873 -0.000231234 -2.73196e-05
-0.000231234 0.000994526 2.37316e-06
-2.73196e-05 2.37316e-06 0.000480708
-0.00125263 -2.16294e-05 -1.3331e-05
-2.16294e-05 -0.000175687 2.10714e-07
-1.3331e-05 2.10714e-07 -0.000710746
-0.000109042 0.000267069 -1.29062e-05
0.000267069 -0.000556201 2.91245e-06
-1.29062e-05 2.91245e-06 -0.00213955
-0.00197291 0.000292751 7.9153e-05
0.000292751 0.00169023 -1.09263e-05
7.9153e-05 -1.09263e-05 0.000467523
-0.0006393 -0.000149748 0.000368183
-0.000149748 0.000596194 3.53339e-05
0.000368183 3.53339e-05 -0.00387863
0.000264238 0.000575999 6.27632e-06
0.000575999 0.000326039 1.83402e-05
6.27632e-06 1.83402e-05 -0.000137141
0.000110339 0.00087187 -2.45582e-05
0.00087187 0.000427561 -1.59965e-05
-2.45582e-05 -1.59965e-05 -0.000298748
-0.00254202 0.000129263 -6.56458e-05
0.000129263 0.000469195 -2.82804e-05
-6.56458e-05 -2.82804e-05 -0.00060982
-0.00476965 0.000753512 8.97035e-05
0.000753512 0.0029259 0.000204543
8.97035e-05 0.000204543 -0.00270203
0.000654411 0.00100139 -0.000164862
0.00100139 -0.00146594 -0.000504063
-0.000164862 -0.000504063 -0.00647004
0.00415618 -3.63588e-05 9.45869e-05
-3.63588e-05 -0.000309484 8.65648e-05
9.45869e-05 8.65648e-05 -0.000578716
0.00712759 -0.000139918 -0.000332914
-0.000139918 -0.00234152 0.000261981
-0.000332914 0.000261981 -0.0030057
0.00017874 0.000402994 -1.49499e-06
0.000402994 0.000539206 -5.94224e-07
-1.49499e-06 -5.94224e-07 3.2703e-05
0.00117259 5.8282e-05 3.64594e-05
5.8282e-05 0.000528488 -4.33709e-06
3.64594e-05 -4.33709e-06 -0.000167876
0.00457357 -0.00104661 -0.000106956
-0.00104661 0.00304275 -3.5339e-06
-0.000106956 -3.5339e-06 0.00139646
-0.00053624 0.000740521 -0.000145192
0.000740521 0.00133181 -9.14922e-06
-0.000145192 -9.14922e-06 -0.000246186
0.0163387 0.00549299 -3.74295e-05
0.00549299 0.00445539 -0.000431764
-3.74295e-05 -0.000431764 0.00130321
0.00122505 0.00350944 9.38034e-05
0.00350944 0.00507322 0.000351536
9.38034e-05 0.000351536 -0.00061824
0.00516174 0.000946688 6.59333e-05
0.000946688 0.0060128 -1.78136e-05
6.59333e-05 -1.78136e-05 -0.0015137
0.000336082 2.06917e-06 3.67638e-05
2.06917e-06 0.0013955 -2.40451e-05
3.67638e-05 -2.40451e-05 0.000246496
1.65367e-05 -0.000152896 -0.000148296
-0.000152896 0.00294382 2.9827e-06
-0.000148296 2.9827e-06 0.00179868
0.00169672 -0.00095454 0.000776636
-0.00095454 0.000605211 -0.000268137
0.000776636 -0.000268137 -0.00452384
0.021975 0.00839256 -7.89473e-05
0.00839256 0.0148313 -1.27022e-05
-7.89473e-05 -1.27022e-05 0.010382
0.00887561 0.00410686 -5.21875e-05
0.00410686 0.00298103 0.000893841
-5.21875e-05 0.000893841 -0.00210434
0.0120967 -0.00392587 0.000327809
-0.00392587 0.00644342 -0.000261093
0.000327809 -0.000261093 0.00025825
0.00315819 -0.000810752 -7.06992e-05
-0.000810752 0.00331425 3.54934e-05
-7.06992e-05 3.54934e-05 0.00227363
0.000878668 0.000264495 -4.86309e-06
0.000264495 0.000908024 2.50338e-06
-4.86309e-06 2.50338e-06 0.000456583
-1.818e-05 -6.35306e-05 -4.98835e-06
-6.35306e-05 0.000476961 -4.29793e-06
-4.98835e-06 -4.29793e-06 9.89069e-06
0.00116147 -0.000553929 4.53184e-05
-0.000553929 0.000922836 -1.21853e-05
4.53184e-05 -1.21853e-05 0.000362284
0.000265974 -7.57756e-05 -2.36844e-06
-7.57756e-05 0.000249393 6.77523e-06
-2.36844e-06 6.77523e-06 2.22686e-05
-0.000118511 -7.042e-05 -2.87193e-06
-7.042e-05 0.000271056 -1.63252e-05
-2.87193e-06 -1.63252e-05 -0.000153198
0.000550134 -0.000320429 -4.86601e-06
-0.000320429 0.000599963 3.83013e-07
-4.86601e-06 3.83013e-07 0.000235928
0.00127186 -0.000676283 2.67327e-05
-0.000676283 0.000584932 -1.69821e-05
2.67327e-05 -1.69821e-05 0.000246697
0.00180471 -0.000391019 1.14818e-06
-0.000391019 0.000934598 -7.72856e-08
1.14818e-06 -7.72856e-08 0.000694025
0.00153154 -0.000657079 1.58761e-05
-0.000657079 0.000682977 -2.86079e-06
1.58761e-05 -2.86079e-06 0.000259035
0.00122541 -0.000633702 8.35118e-06
-0.000633702 0.000505997 2.74827e-06
8.35118e-06 2.74827e-06 -0.000173301
0.000606286 -0.000373987 -6.07534e-06
-0.000373987 5.62782e-05 -8.39176e-06
-6.07534e-06 -8.39176e-06 -0.000163845
0.00215706 -0.000702846 -3.32419e-06
-0.000702846 0.000821108 -1.99616e-06
-3.32419e-06 -1.99616e-06 0.000312234
0.00188425 -0.000830963 -1.24208e-05
-0.000830963 0.000545559 -7.57604e-07
-1.24208e-05 -7.57604e-07 -5.89138e-05
0.00207724 -0.000924568 -1.4008e-05
-0.000924568 0.000498934 2.32735e-06
-1.4008e-05 2.32735e-06 -3.56523e-05
0.00192641 -0.000794393 -5.06382e-06
-0.000794393 0.000579992 5.43309e-07
-5.06382e-06 5.43309e-07 9.29853e-05
0.00169133 -0.000715641 -4.66048e-06
-0.000715641 0.000471652 8.89171e-07
-4.66048e-06 8.89171e-07 -1.03211e-05
0.00126423 -0.000535379 2.22315e-06
-0.000535379 0.000330151 -7.49422e-06
2.22315e-06 -7.49422e-06 -6.59128e-05
0.00142681 -0.000562711 8.61436e-06
-0.000562711 0.00039473 -2.54263e-06
8.61436e-06 -2.54263e-06 1.38132e-06
0.00163056 -0.000631963 6.62528e-06
-0.000631963 0.000449297 -1.63136e-06
6.62528e-06 -1.63136e-06 2.54081e-05
0.00111473 -0.000291369 4.42678e-07
-0.000291369 0.000307195 1.59355e-07
4.42678e-07 1.59355e-07 4.44861e-05
0.00116129 -0.00043767 5.71776e-06
-0.00043767 0.000268887 -4.61048e-06
5.71776e-06 -4.61048e-06 -5.76423e-05
0.000191053 -0.000413623 -2.99422e-06
-0.000413623 -0.000387062 -8.05385e-06
-2.99422e-06 -8.05385e-06 -0.000752664
7.93748e-05 -8.36125e-05 -1.2799e-07
-8.36125e-05 -0.000169124 -3.67987e-06
-1.2799e-07 -3.67987e-06 -0.000436227
0.00101867 -0.00024056 -4.50204e-07
-0.00024056 0.000380794 4.92798e-07
-4.50204e-07 4.92798e-07 0.000108477
0.000434091 -0.00031735 -3.54452e-06
-0.00031735 -7.62493e-05 -1.94619e-06
-3.54452e-06 -1.94619e-06 -0.000349677
0.000553589 -5.83977e-05 -2.21269e-07
-5.83977e-05 6.18144e-05 6.96681e-06
-2.21269e-07 6.96681e-06 -7.34505e-05
0.000778133 -0.000124547 -3.00842e-07
-0.000124547 0.000255137 8.91195e-08
-3.00842e-07 8.91195e-08 3.0969e-05
-0.000137759 -0.000124952 1.45289e-07
-0.000124952 -0.000246798 4.17287e-06
1.45289e-07 4.17287e-06 -0.000516777
0.00129912 -0.000162088 3.72614e-07
-0.000162088 0.000579433 -4.09787e-07
3.72614e-07 -4.09787e-07 0.000387944
0.000619812 -6.23416e-05 -4.751e-07
-6.23416e-05 0.000107065 -3.30666e-07
-4.751e-07 -3.30666e-07 -1.07877e-05
0.000327947 2.05746e-05 2.11039e-06
2.05746e-05 -9.11e-05 9.81963e-06
2.11039e-06 9.81963e-06 -0.000138025
0.000707447 -6.94856e-05 6.39011e-07
-6.94856e-05 0.000159314 -4.47478e-06
6.39011e-07 -4.47478e-06 5.87137e-05
0.000465541 9.55014e-06 -3.46962e-06
9.55014e-06 -1.57566e-05 -3.02993e-07
-3.46962e-06 -3.02993e-07 -5.31382e-05
0.00287575 9.86749e-05 -4.12695e-05
9.86749e-05 0.00151612 4.86911e-06
-4.12695e-05 4.86911e-06 0.00151964
0.000485308 -1.46299e-05 3.12532e-06
-1.46299e-05 -1.06962e-05 -6.53176e-06
3.12532e-06 -6.53176e-06 -4.28056e-05
0.00180493 6.27906e-05 2.21158e-05
6.27906e-05 0.000827394 -7.47894e-07
2.21158e-05 -7.47894e-07 0.000829031
0.00277045 5.94278e-05 3.25538e-05
5.94278e-05 0.00143986 -5.42387e-06
3.25538e-05 -5.42387e-06 0.00144906
0.000864327 0.000111829 6.00813e-06
0.000111829 0.000287349 7.7555e-09
6.00813e-06 7.7555e-09 0.000140164
0.000508744 5.11874e-05 3.16429e-06
5.11874e-05 3.14685e-05 -2.21621e-06
3.16429e-06 -2.21621e-06 -5.41663e-05
0.000443834 5.21608e-05 -7.3026e-07
5.21608e-05 2.62895e-05 -1.41179e-06
-7.3026e-07 -1.41179e-06 -0.00011226
0.000470037 8.89004e-06 1.26372e-06
8.89004e-06 -2.6925e-05 -5.59099e-06
1.26372e-06 -5.59099e-06 -4.75952e-05
0.000307713 4.15742e-05 -2.39781e-06
4.15742e-05 -9.55017e-05 -1.96593e-06
-2.39781e-06 -1.96593e-06 -0.000173704
0.00066216 8.34136e-05 -1.96643e-06
8.34136e-05 0.000166648 -3.5444e-06
-1.96643e-06 -3.5444e-06 3.4491e-05
0.00219034 -3.27725e-05 -2.13197e-05
-3.27725e-05 0.00106745 -4.96393e-06
-2.13197e-05 -4.96393e-06 0.00108334
0.00045 -1.41973e-06 2.30929e-07
-1.41973e-06 -4.0816e-05 -1.49604e-07
2.30929e-07 -1.49604e-07 -5.59304e-05
0.000115401 1.62197e-05 -1.9755e-06
1.62197e-05 -0.000218762 2.96829e-07
-1.9755e-06 2.96829e-07 -0.000289252
0.00213058 -1.64648e-05 -5.64188e-06
-1.64648e-05 0.00102966 1.30596e-07
-5.64188e-06 1.30596e-07 0.0010468
0.000449686 5.5296e-07 -3.08013e-06
5.5296e-07 -4.0351e-05 3.82144e-06
-3.08013e-06 3.82144e-06 -5.22772e-05
0.00209808 -7.2765e-07 1.3054e-05
-7.2765e-07 0.00101017 5.01344e-06
1.3054e-05 5.01344e-06 0.00102747
0.00172421 -0.000299626 -7.82162e-05
-0.000299626 0.000447846 3.38997e-05
-7.82162e-05 3.38997e-05 -0.000285542
-0.000993994 -0.000198623 8.05124e-05
-0.000198623 0.00231549 -4.40718e-06
8.05124e-05 -4.40718e-06 0.00110848
-0.000980461 -0.000387326 0.000163183
-0.000387326 0.000824993 -0.000178535
0.000163183 -0.000178535 -0.00397907
8.93424e-05 4.77332e-05 4.60373e-06
4.77332e-05 -0.00018375 8.60362e-06
4.60373e-06 8.60362e-06 -0.000348676
0.00263784 0.000110221 3.15639e-06
0.000110221 0.00140852 8.85245e-06
3.15639e-06 8.85245e-06 0.00121653
0.000720391 0.000158058 -5.30882e-06
0.000158058 0.000196365 -6.3442e-06
-5.30882e-06 -6.3442e-06 4.64947e-05
0.000316701 8.60444e-05 1.06582e-06
8.60444e-05 -7.52339e-05 9.67024e-07
1.06582e-06 9.67024e-07 -0.000210898
0.000300343 8.87078e-05 4.59701e-07
8.87078e-05 -9.59573e-05 -1.31189e-06
4.59701e-07 -1.31189e-06 -0.000217626
0.000349946 0.000105747 8.91518e-06
0.000105747 -3.76346e-05 2.03851e-06
8.91518e-06 2.03851e-06 -0.000173488
0.00010249 0.000113074 1.69297e-05
0.000113074 -0.000170116 6.44494e-06
1.69297e-05 6.44494e-06 -0.000288154
0.00229294 0.00127237 0.000249373
0.00127237 -0.000388724 0.00025365
0.000249373 0.00025365 -0.00186211
0.00559808 -0.000347604 -6.34905e-05
-0.000347604 -0.00012891 5.32307e-05
-6.34905e-05 5.32307e-05 -0.00131568
0.00430397 -0.000816063 0.000268022
-0.000816063 0.00307534 -0.000120055
0.000268022 -0.000120055 0.00151236
0.00875402 -0.000207709 -1.11171e-06
-0.000207709 -0.00573651 0.000187182
-1.11171e-06 0.000187182 -0.00232977
0.00600443 -0.00350449 -0.000128762
-0.00350449 0.000930574 3.33468e-05
-0.000128762 3.33468e-05 0.00129973
0.00111407 -0.00451942 -0.000320428
-0.00451942 0.00156388 0.000103258
-0.000320428 0.000103258 -0.00435209
0.0170208 0.00455813 0.000155242
0.00455813 0.00763226 -0.000187165
0.000155242 -0.000187165 0.00254411
0.00237749 -0.00272559 -6.18146e-05
-0.00272559 0.000162359 2.56202e-05
-6.18146e-05 2.56202e-05 0.000568059
-0.00145692 -0.000999943 -5.81532e-05
-0.000999943 0.00422977 5.45569e-05
-5.81532e-05 5.45569e-05 -0.00318318
0.00997482 0.000548454 0.000233005
0.000548454 0.00389062 -3.1097e-05
0.000233005 -3.1097e-05 5.9325e-05
0.016379 -0.0020086 -8.10467e-05
-0.0020086 0.00211829 -1.31573e-05
-8.10467e-05 -1.31573e-05 0.00323885
-0.00180277 -0.000572108 -0.000170956
-0.000572108 0.000375994 0.000164696
-0.000170956 0.000164696 0.000166241
0.00275954 0.00215384 -0.000219867
0.00215384 0.00546795 -0.000118389
-0.000219867 -0.000118389 -0.00212752
-0.000619467 -0.00578401 3.80126e-06
-0.00578401 -3.9488e-05 -0.000253325
3.80126e-06 -0.000253325 -0.00560802
0.01505 -0.00304406 0.000171078
-0.00304406 0.00478436 -0.00067925
0.000171078 -0.00067925 0.00265449
0.000509209 1.89099e-05 1.92631e-05
1.89099e-05 0.000316825 6.71056e-08
1.92631e-05 6.71056e-08 5.04661e-05
0.000788653 0.000188988 -1.68896e-06
0.000188988 0.000307718 -4.18494e-06
-1.68896e-06 -4.18494e-06 0.000149542
0.00088313 -1.3708e-05 -1.58114e-06
-1.3708e-05 0.000402486 -6.77343e-06
-1.58114e-06 -6.77343e-06 0.000153802
0.00098221 0.000158959 -6.25582e-06
0.000158959 0.000370209 -1.22233e-05
-6.25582e-06 -1.22233e-05 0.000198194
0.00055228 -0.00119578 4.79126e-05
-0.00119578 7.82779e-05 3.20705e-05
4.79126e-05 3.20705e-05 -0.000439183
0.00227619 -0.000390215 8.48648e-06
-0.000390215 0.00156372 -2.53823e-05
8.48648e-06 -2.53823e-05 0.00102558
0.00090838 0.00011072 -1.65779e-05
0.00011072 0.000497138 -2.31503e-05
-1.65779e-05 -2.31503e-05 0.000301571
0.000928939 3.10777e-05 -2.15551e-07
3.10777e-05 0.000633878 -8.27899e-06
-2.15551e-07 -8.27899e-06 0.000371873
0.000295693 -3.33371e-05 -1.04085e-06
-3.33371e-05 0.000595355 1.43334e-05
-1.04085e-06 1.43334e-05 0.000110976
0.000251166 8.0651e-05 2.15343e-06
8.0651e-05 0.00016784 3.79372e-06
2.15343e-06 3.79372e-06 -5.33564e-05
0.000173994 1.63021e-06 6.53608e-07
1.63021e-06 0.000609969 8.81987e-07
6.53608e-07 8.81987e-07 9.62705e-05
0.000224217 -0.000495881 -8.95385e-06
-0.000495881 0.00107821 6.91219e-06
-8.95385e-06 6.91219e-06 -0.000205326
0.000404413 -0.000137837 6.38356e-06
-0.000137837 0.000972587 -3.37028e-06
6.38356e-06 -3.37028e-06 0.00046593
-0.000586333 0.000112339 4.19178e-06
0.000112339 -0.000145258 -1.27688e-05
4.19178e-06 -1.27688e-05 -0.000425362
0.00124961 7.32464e-05 -0.000145567
7.32464e-05 0.00339626 -1.93525e-05
-0.000145567 -1.93525e-05 0.00140966
0.00108961 0.000369273 -2.01579e-05
0.000369273 0.00127195 8.09257e-06
-2.01579e-05 8.09257e-06 0.000700632
-0.00221493 4.82873e-05 -8.95665e-05
4.82873e-05 0.00198161 -3.2112e-05
-8.95665e-05 -3.2112e-05 0.000700834
0.00108677 9.63179e-05 1.99799e-05
9.63179e-05 8.16385e-05 8.49885e-06
1.99799e-05 8.49885e-06 -0.000689935
-0.0031846 0.000420715 -3.0385e-05
0.000420715 0.0012229 -7.08851e-05
-3.0385e-05 -7.08851e-05 -8.5094e-05
0.000362628 0.00032486 -2.55701e-05
0.00032486 0.000731918 4.59003e-06
-2.55701e-05 4.59003e-06 0.000315163
-0.00130575 0.000882131 0.000160886
0.000882131 0.000237462 0.000112694
0.000160886 0.000112694 -0.00061947
0.000787057 4.71847e-05 7.51584e-05
4.71847e-05 0.000482345 -7.23667e-06
7.51584e-05 -7.23667e-06 3.48125e-05
0.00593119 -0.00232309 0.000278692
-0.00232309 0.00603144 -0.000189608
0.000278692 -0.000189608 -0.00259578
0.0196191 0.00390382 -0.000190732
0.00390382 0.00846042 0.000171298
-0.000190732 0.000171298 0.00334802
0.00326886 -0.000745439 -0.000240134
-0.000745439 0.00227462 0.000114744
-0.000240134 0.000114744 0.000868331
0.0137068 0.00491206 -0.000112556
0.00491206 0.0063377 -0.000246613
-0.000112556 -0.000246613 0.00301726
0.000480403 0.000241521 -5.64243e-05
0.000241521 0.00130227 1.32363e-05
-5.64243e-05 1.32363e-05 0.00021342
-3.83879e-05 -0.000261584 -8.95406e-05
-0.000261584 0.00231515 1.09361e-06
-8.95406e-05 1.09361e-06 0.00145605
0.00308618 -0.00159528 0.00028978
-0.00159528 0.00162415 -4.44402e-05
0.00028978 -4.44402e-05 -0.00333691
-0.0030559 -0.000111294 5.30234e-05
-0.000111294 -0.000433489 3.29127e-05
5.30234e-05 3.29127e-05 -0.000954276
0.0162305 0.00961978 0.000686968
0.00961978 0.0114409 -0.000283301
0.000686968 -0.000283301 0.00695341
0.00928159 0.00317394 -0.000162941
0.00317394 0.00444958 0.000390868
-0.000162941 0.000390868 -0.000689381
-0.00305358 -0.00124738 0.000185112
-0.00124738 0.00298224 -0.000150945
0.000185112 -0.000150945 -0.00490555
-0.00126746 -0.000425211 4.03617e-06
-0.000425211 0.000418528 -3.06311e-05
4.03617e-06 -3.06311e-05 -0.0006948
0.000494962 -0.000881141 0.000321903
-0.000881141 -0.000127858 -8.23224e-05
0.000321903 -8.23224e-05 -0.00365252
-0.000102014 0.000955643 -0.00138459
0.000955643 0.00774454 0.00035073
-0.00138459 0.00035073 0.00324812
0.0206236 0.00735387 -0.000571017
0.00735387 0.00679403 0.000541648
-0.000571017 0.000541648 0.00186442
0.00685566 -0.00372284 -0.000195344
-0.00372284 0.00323268 6.3424e-05
-0.000195344 6.3424e-05 -0.000417387
0.00285211 -0.00171491 4.21478e-05
-0.00171491 0.00300686 -8.30463e-07
4.21478e-05 -8.30463e-07 0.00202083
0.000164503 -5.15735e-05 2.31566e-06
-5.15735e-05 0.000532924 -1.00298e-05
2.31566e-06 -1.00298e-05 3.28068e-05
1.45109e-05 -0.000397817 4.45668e-06
-0.000397817 0.000380692 -2.05221e-06
4.45668e-06 -2.05221e-06 -0.00020623
-9.25001e-05 -0.000721095 -5.35103e-06
-0.000721095 3.50555e-05 1.16794e-06
-5.35103e-06 1.16794e-06 -0.000322996
-0.000446502 -0.000220553 -4.76203e-07
-0.000220553 0.000134134 6.61736e-06
-4.76203e-07 6.61736e-06 -0.000243086
-0.000725336 -0.000397858 -6.33796e-07
-0.000397858 -0.000394589 2.64548e-06
-6.33796e-07 2.64548e-06 -0.000692328
0.0031598 -0.00096196 3.95638e-05
-0.00096196 0.0013565 -1.85388e-05
3.95638e-05 -1.85388e-05 0.000919363
0.00650299 -0.00127341 -1.22826e-05
-0.00127341 0.00341275 -2.64675e-06
-1.22826e-05 -2.64675e-06 0.0029036
0.00290521 -0.000864204 1.03645e-05
-0.000864204 0.00133948 -2.95269e-06
1.03645e-05 -2.95269e-06 0.000667538
0.00190759 -0.000919592 4.05252e-06
-0.000919592 0.000500573 -1.75468e-05
4.05252e-06 -1.75468e-05 -0.000165341
0.00224163 -0.000708574 -9.99988e-06
-0.000708574 0.000841199 -8.05407e-06
-9.99988e-06 -8.05407e-06 0.000347775
0.0021944 -0.000875973 1.32535e-06
-0.000875973 0.000706957 -2.1589e-06
1.32535e-06 -2.1589e-06 8.79235e-05
0.00267759 -0.00101691 -5.62571e-06
-0.00101691 0.000862265 -1.15437e-05
-5.62571e-06 -1.15437e-05 0.000251526
0.00222938 -0.000799417 -5.21273e-06
-0.000799417 0.000398022 -4.50052e-06
-5.21273e-06 -4.50052e-06 -1.51412e-05
0.00257691 -0.000977536 -9.97983e-06
-0.000977536 0.000749526 1.81829e-06
-9.97983e-06 1.81829e-06 0.000232909
0.00241365 -0.000968554 -3.19567e-06
-0.000968554 0.000679975 1.06419e-08
-3.19567e-06 1.06419e-08 0.000132293
0.00176808 -0.000753268 7.0446e-06
-0.000753268 0.00050954 -3.77009e-06
7.0446e-06 -3.77009e-06 4.97092e-05
0.0016033 -0.000740997 2.99635e-06
-0.000740997 0.000395359 -1.09791e-06
2.99635e-06 -1.09791e-06 -7.15767e-05
0.00150109 -0.000691002 7.33548e-06
-0.000691002 0.0003472 -5.41834e-07
7.33548e-06 -5.41834e-07 -0.000132914
0.00162563 -0.000508289 8.67472e-06
-0.000508289 0.000557735 5.05389e-06
8.67472e-06 5.05389e-06 0.00020064
0.00152105 -0.000570108 -1.30804e-06
-0.000570108 0.00046038 -2.20186e-06
-1.30804e-06 -2.20186e-06 6.33223e-05
0.00164628 -0.000642321 6.13478e-06
-0.000642321 0.000462341 2.65533e-06
6.13478e-06 2.65533e-06 3.68807e-05
0.00123167 -0.000226897 7.61569e-07
-0.000226897 0.000460161 -4.383e-06
7.61569e-07 -4.383e-06 0.00019337
0.000855269 -0.000276312 -3.66047e-06
-0.000276312 0.000172191 2.65451e-06
-3.66047e-06 2.65451e-06 -8.45906e-05
0.000817862 -0.0004098 -2.58387e-07
-0.0004098 5.3297e-05 -1.22199e-05
-2.58387e-07 -1.22199e-05 -0.000266696
2.75651e-06 -7.54114e-05 -2.13553e-06
-7.54114e-05 -0.000267785 4.7643e-06
-2.13553e-06 4.7643e-06 -0.000451964
0.000785872 -0.000157954 2.2789e-07
-0.000157954 0.000270841 8.3331e-07
2.2789e-07 8.3331e-07 -6.19223e-07
0.000679174 -0.000270168 3.81799e-06
-0.000270168 0.000201857 1.28293e-06
3.81799e-06 1.28293e-06 -8.41024e-05
0.000338499 -1.99787e-05 -6.84449e-06
-1.99787e-05 -9.82678e-05 1.49493e-05
-6.84449e-06 1.49493e-05 -0.000149056
0.000669562 -8.19359e-05 7.29685e-07
-8.19359e-05 0.000126897 1.3709e-07
7.29685e-07 1.3709e-07 -9.20463e-06
0.0014246 -0.000206876 -1.11393e-06
-0.000206876 0.000652567 2.31792e-06
-1.11393e-06 2.31792e-06 0.000426323
0.000733806 -7.29268e-05 1.88909e-07
-7.29268e-05 0.000176142 -5.39802e-06
1.88909e-07 -5.39802e-06 5.64461e-05
0.000431601 6.26196e-06 -6.6972e-07
6.26196e-06 -3.23031e-05 -5.23892e-07
-6.6972e-07 -5.23892e-07 -7.69011e-05
0.00300147 0.000125236 -4.11827e-05
0.000125236 0.00160581 4.85919e-06
-4.11827e-05 4.85919e-06 0.00160307
0.000518764 -4.09952e-06 2.50562e-06
-4.09952e-06 1.3046e-05 -7.93106e-06
2.50562e-06 -7.93106e-06 -2.22558e-05
0.00283716 0.000100777 5.16538e-06
0.000100777 0.00149173 6.12614e-07
5.16538e-06 6.12614e-07 0.00149496
0.00272692 7.86984e-05 3.5305e-05
7.86984e-05 0.00141489 -4.93585e-06
3.5305e-05 -4.93585e-06 0.0014222
0.00114933 0.000102916 4.23952e-06
0.000102916 0.000572381 -1.81763e-06
4.23952e-06 -1.81763e-06 0.000331603
0.00124431 0.000150061 7.04081e-06
0.000150061 0.000586535 -2.27485e-06
7.04081e-06 -2.27485e-06 0.000387207
0.000540074 3.88854e-05 4.8599e-06
3.88854e-05 4.55145e-05 -4.65854e-06
4.8599e-06 -4.65854e-06 -5.09759e-05
0.000606143 0.000114663 1.76638e-07
0.000114663 0.00013006 -1.91809e-07
1.76638e-07 -1.91809e-07 -1.54615e-05
0.000443969 -1.07594e-06 2.21893e-06
-1.07594e-06 -4.01604e-05 -6.82595e-06
2.21893e-06 -6.82595e-06 -6.59528e-05
0.000521107 5.40205e-05 2.24055e-07
5.40205e-05 3.94661e-05 -2.33556e-07
2.24055e-07 -2.33556e-07 -4.61411e-05
0.000566192 5.73518e-05 -5.82193e-06
5.73518e-05 8.95802e-05 -2.6938e-06
-5.82193e-06 -2.6938e-06 -3.99977e-05
0.00233933 -4.92384e-05 -2.74958e-05
-4.92384e-05 0.00116395 -5.16975e-06
-2.74958e-05 -5.16975e-06 0.00117748
0.000460844 3.55059e-06 -8.45865e-07
3.55059e-06 -3.21443e-05 -1.61656e-07
-8.45865e-07 -1.61656e-07 -5.22751e-05
0.000462347 5.89823e-05 -4.33279e-06
5.89823e-05 4.24223e-06 1.16472e-08
-4.33279e-06 1.16472e-08 -7.37003e-05
0.00219419 -3.22287e-05 -4.89334e-06
-3.22287e-05 0.00106987 2.48283e-07
-4.89334e-06 2.48283e-07 0.00108584
0.000461409 3.88e-07 -3.1271e-06
3.88e-07 -3.43583e-05 4.19906e-06
-3.1271e-06 4.19906e-06 -4.90615e-05
0.00212566 -1.59644e-05 1.68999e-05
-1.59644e-05 0.0010264 4.88288e-06
1.68999e-05 4.88288e-06 0.00104353
-0.00258538 0.000340693 -1.50705e-05
0.000340693 0.000611058 -6.17307e-05
-1.50705e-05 -6.17307e-05 -0.000151906
0.00184486 -0.000240503 -1.60455e-05
-0.000240503 0.00076244 -7.0928e-06
-1.60455e-05 -7.0928e-06 0.000225331
-6.72283e-05 -0.000247202 1.19606e-05
-0.000247202 0.0021287 -4.3886e-05
1.19606e-05 -4.3886e-05 0.00116878
0.000791575 0.000108932 7.81259e-07
0.000108932 0.000314733 -1.86078e-06
7.81259e-07 -1.86078e-06 0.00010322
1.58143e-05 0.000100061 6.33216e-06
0.000100061 -0.000221707 -2.50848e-06
6.33216e-06 -2.50848e-06 -0.000404982
-0.00169236 -6.60548e-06 -2.23395e-07
-6.60548e-06 -0.00133863 -9.78859e-06
-2.23395e-07 -9.78859e-06 -0.00150265
-0.00131097 1.48912e-05 -1.48513e-06
1.48912e-05 -0.00100233 2.17192e-05
-1.48513e-06 2.17192e-05 -0.00119046
0.00275534 0.000390873 7.39656e-07
0.000390873 0.00150515 5.64567e-07
7.39656e-07 5.64567e-07 0.00122257
0.0010782 5.26235e-05 -7.05669e-06
5.26235e-05 0.000392233 -4.91441e-06
-7.05669e-06 -4.91441e-06 0.000255387
0.000420381 0.000115285 -1.24242e-05
0.000115285 -1.3044e-05 -1.06482e-05
-1.24242e-05 -1.06482e-05 -0.000133227
0.000874175 4.34895e-05 1.44298e-06
4.34895e-05 0.000276144 -3.32676e-07
1.44298e-06 -3.32676e-07 0.000149454
0.00104488 0.000179378 -1.36022e-06
0.000179378 0.000411773 -3.6884e-06
-1.36022e-06 -3.6884e-06 0.000286648
0.00147497 0.00014846 8.44448e-06
0.00014846 0.000845323 -1.8891e-05
8.44448e-06 -1.8891e-05 0.000595275
0.0061942 0.00121984 0.000462559
0.00121984 0.00442047 0.000530779
0.000462559 0.000530779 -0.000462705
0.00264875 0.00100841 2.34722e-05
0.00100841 0.000218926 9.17039e-05
2.34722e-05 9.17039e-05 -0.00149298
0.00492968 -0.000266934 6.60946e-05
-0.000266934 -0.000226656 -2.06776e-05
6.60946e-05 -2.06776e-05 -0.00090797
0.0142915 -0.00148004 -0.000294228
-0.00148004 0.00216726 -0.000134477
-0.000294228 -0.000134477 0.00389047
-0.00278809 0.00113969 8.09574e-05
0.00113969 -0.00238485 0.000426163
8.09574e-05 0.000426163 -0.00737068
0.00232294 -0.00276627 -5.04221e-05
-0.00276627 0.000634495 -3.93815e-05
-5.04221e-05 -3.93815e-05 0.00081417
0.00754147 -0.0022082 -0.000177563
-0.0022082 0.00535469 3.87304e-05
-0.000177563 3.87304e-05 -0.000159795
0.000937564 -0.00118959 -0.000120583
-0.00118959 0.00106342 0.000127182
-0.000120583 0.000127182 0.000671377
0.0101916 -4.50145e-05 -0.000194978
-4.50145e-05 0.00704263 -9.28746e-07
-0.000194978 -9.28746e-07 0.000197265
0.00668494 -0.00273954 9.96437e-05
-0.00273954 0.00419423 0.000205157
9.96437e-05 0.000205157 -0.00117576
0.0189382 -0.00463992 -8.74911e-05
-0.00463992 0.00423695 -0.000786418
-8.74911e-05 -0.000786418 0.00131649
0.00178648 0.000196236 -0.000150289
0.000196236 0.00289561 0.000110455
-0.000150289 0.000110455 0.00157558
0.0121282 0.00277634 -0.000254562
0.00277634 0.00729285 -1.57821e-05
-0.000254562 -1.57821e-05 0.00175249
0.0203673 -0.00755914 -5.83046e-05
-0.00755914 0.0108195 -0.000788088
-5.83046e-05 -0.000788088 0.00503438
0.0252606 -0.00975083 9.80168e-05
-0.00975083 0.0109383 -7.45121e-05
9.80168e-05 -7.45121e-05 0.00676587
0.000859119 0.000298664 2.07976e-05
0.000298664 0.000541126 -1.25779e-05
2.07976e-05 -1.25779e-05 0.000177236
-5.90329e-05 4.43275e-05 4.40632e-06
4.43275e-05 4.78251e-05 1.99956e-06
4.40632e-06 1.99956e-06 -0.000273152
0.00108827 0.000199553 -1.89322e-05
0.000199553 0.000513385 -1.93971e-05
-1.89322e-05 -1.93971e-05 0.000339505
0.00273348 -0.00085461 7.17412e-05
-0.00085461 0.00201228 1.08539e-05
7.17412e-05 1.08539e-05 0.000467757
-0.000367772 -0.000128943 4.43773e-05
-0.000128943 0.000736341 -2.63492e-05
4.43773e-05 -2.63492e-05 0.000157824
-0.000120852 7.51153e-05 -6.87672e-06
7.51153e-05 -6.78956e-05 -2.47403e-06
-6.87672e-06 -2.47403e-06 -0.000281011
-0.000408971 -5.36419e-05 1.50281e-05
-5.36419e-05 0.000311403 -3.06104e-06
1.50281e-05 -3.06104e-06 -0.000245433
-2.29308e-05 0.000137478 -9.42548e-07
0.000137478 0.000160167 -9.5971e-07
-9.42548e-07 -9.5971e-07 -0.000125634
0.000186086 0.000325519 1.55776e-05
0.000325519 0.000622696 2.79684e-06
1.55776e-05 2.79684e-06 3.27887e-05
-0.00234037 7.96717e-06 0.000231578
7.96717e-06 0.00103159 -2.9692e-05
0.000231578 -2.9692e-05 -0.000960805
-0.000601308 0.000459681 3.77767e-06
0.000459681 -0.000301331 1.6588e-05
3.77767e-06 1.6588e-05 -0.000701791
0.0026005 0.000965348 -0.000146218
0.000965348 0.0022037 -9.56248e-05
-0.000146218 -9.56248e-05 0.000685763
0.00106754 0.000156105 0.000209784
0.000156105 0.00176448 7.29354e-05
0.000209784 7.29354e-05 -0.00272375
-0.00250636 0.000258796 -8.63048e-05
0.000258796 0.00172281 1.22934e-05
-8.63048e-05 1.22934e-05 0.000255078
0.00274182 -0.000277038 -4.16184e-05
-0.000277038 0.00101684 -3.35598e-06
-4.16184e-05 -3.35598e-06 0.0009614
-0.000258673 0.000561096 0.000113842
0.000561096 0.00069907 1.40489e-05
0.000113842 1.40489e-05 -0.000450245
0.00129958 0.000310052 -0.000114206
0.000310052 0.00273986 0.000108819
-0.000114206 0.000108819 0.00120617
-0.00048872 -0.000267959 -7.11896e-06
-0.000267959 0.00192757 -1.94522e-05
-7.11896e-06 -1.94522e-05 0.00083774
0.0165489 -0.00458159 0.00025891
-0.00458159 0.00875192 -0.000127638
0.00025891 -0.000127638 0.00216134
0.023778 0.00541358 -0.000235753
0.00541358 0.0113562 -0.000185359
-0.000235753 -0.000185359 0.00534819
0.00526031 -0.00186906 -0.000330509
-0.00186906 0.00274398 0.000280696
-0.000330509 0.000280696 -0.00185298
0.00872139 0.0111463 0.00273271
0.0111463 0.00726654 -0.00166935
0.00273271 -0.00166935 0.00251795
0.00115541 -0.000593136 4.4547e-05
-0.000593136 0.00162309 -1.34776e-05
4.4547e-05 -1.34776e-05 0.000436389
-0.000367815 -0.000622533 5.45821e-05
-0.000622533 0.000537036 1.17905e-05
5.45821e-05 1.17905e-05 -0.00363466
0.00124079 0.00142597 -0.00129494
0.00142597 0.0073581 0.00033524
-0.00129494 0.00033524 0.00244755
0.000233534 -0.00092062 2.32765e-05
-0.00092062 0.00136303 2.93756e-05
2.32765e-05 2.93756e-05 0.000500136
0.0207343 0.00691745 0.000388219
0.00691745 0.00700349 0.000107588
0.000388219 0.000107588 0.00191476
0.00793547 -0.00571705 0.000246679
-0.00571705 0.002684 -8.4063e-05
0.000246679 -8.4063e-05 -0.0013836
0.000352375 -0.00137574 1.59932e-06
-0.00137574 0.000514427 2.90081e-05
1.59932e-06 2.90081e-05 -0.000459223
-0.00572043 -0.00193204 0.000167479
-0.00193204 0.00636922 -9.27559e-05
0.000167479 -9.27559e-05 0.00205042
0.0168421 0.00690497 -0.00173934
0.00690497 0.00668051 0.000524705
-0.00173934 0.000524705 0.00281345
0.00635539 -0.00425267 -0.000483377
-0.00425267 -0.00061817 0.000204987
-0.000483377 0.000204987 -0.00374097
0.000435608 -0.00210207 0.00019415
-0.00210207 -0.000107141 -0.000137958
0.00019415 -0.000137958 0.000836297
0.00133112 -0.000599233 -0.000112362
-0.000599233 0.000968037 3.51666e-05
-0.000112362 3.51666e-05 0.000437228
0.000843829 -0.000672474 -1.04923e-05
-0.000672474 0.000603738 1.22073e-05
-1.04923e-05 1.22073e-05 0.000186808
0.00299167 -0.00098291 1.66486e-05
-0.00098291 0.00136824 -2.00373e-05
1.66486e-05 -2.00373e-05 0.00093035
-0.00106093 -0.000234699 1.02544e-05
-0.000234699 -0.000416637 6.73724e-06
1.02544e-05 6.73724e-06 -0.000707843
0.00118184 -0.000710307 2.00511e-06
-0.000710307 0.000314553 -3.34099e-06
2.00511e-06 -3.34099e-06 -8.52878e-05
0.00324023 -0.00110418 7.52628e-06
-0.00110418 0.00102588 -5.54531e-06
7.52628e-06 -5.54531e-06 0.000583482
0.00425535 -0.00104626 -2.89776e-05
-0.00104626 0.00200953 6.8023e-07
-2.89776e-05 6.8023e-07 0.00134812
0.00153198 -0.000838758 -1.84657e-06
-0.000838758 0.000293898 -1.48158e-06
-1.84657e-06 -1.48158e-06 -0.000346869
0.00222805 -0.00104858 -6.61558e-07
-0.00104858 0.000415899 -1.10313e-05
-6.61558e-07 -1.10313e-05 -9.95529e-05
0.0028732 -0.000968008 6.11889e-06
-0.000968008 0.0010714 7.40214e-06
6.11889e-06 7.40214e-06 0.000434769
0.00231688 -0.000973359 1.85439e-06
-0.000973359 0.000638223 -4.30117e-06
1.85439e-06 -4.30117e-06 4.95464e-05
0.00262433 -0.000860154 -3.60895e-06
-0.000860154 0.00057522 -9.10815e-06
-3.60895e-06 -9.10815e-06 0.000162805
0.00181821 -0.000547748 -4.02584e-06
-0.000547748 2.02037e-06 -2.15768e-06
-4.02584e-06 -2.15768e-06 -0.000251597
0.00195056 -0.000794709 -6.00688e-07
-0.000794709 0.000182437 -1.57378e-06
-6.00688e-07 -1.57378e-06 -0.000228223
0.0022398 -0.00080622 3.24238e-06
-0.00080622 0.000392788 -2.67633e-06
3.24238e-06 -2.67633e-06 -2.04551e-05
0.00241221 -0.000862942 -4.86199e-06
-0.000862942 0.000716627 -5.81938e-07
-4.86199e-06 -5.81938e-07 0.000251787
0.0025433 -0.00097291 -3.30922e-06
-0.00097291 0.000739303 -4.45558e-08
-3.30922e-06 -4.45558e-08 0.000218166
0.00259487 -0.000994596 9.9283e-06
-0.000994596 0.000771469 -5.39319e-06
9.9283e-06 -5.39319e-06 0.000213801
0.00189725 -0.000663018 7.02616e-06
-0.000663018 0.000639125 -6.56465e-07
7.02616e-06 -6.56465e-07 0.000216426
0.00153571 -0.000716357 2.35037e-06
-0.000716357 0.00038451 -6.28843e-07
2.35037e-06 -6.28843e-07 -6.33421e-05
0.00132189 -0.000696072 4.03521e-06
-0.000696072 0.000234282 1.42286e-06
4.03521e-06 1.42286e-06 -0.000214674
0.00140135 -0.000353692 1.09685e-07
-0.000353692 0.000472967 9.53537e-07
1.09685e-07 9.53537e-07 0.000191716
0.00119504 -0.000446294 1.24803e-06
-0.000446294 0.000310026 1.93503e-07
1.24803e-06 1.93503e-07 -3.03066e-05
0.00165021 -0.00058024 -4.81046e-06
-0.00058024 0.000549376 7.70744e-07
-4.81046e-06 7.70744e-07 0.000147766
-0.000248065 -0.00011754 -2.2459e-06
-0.00011754 -0.000442221 2.14647e-06
-2.2459e-06 2.14647e-06 -0.000676847
0.000683358 -0.000242443 -1.16266e-06
-0.000242443 0.000142665 -1.01893e-06
-1.16266e-06 -1.01893e-06 -0.000138624
0.000859913 -0.000290175 -3.58891e-06
-0.000290175 0.000202727 -1.24531e-07
-3.58891e-06 -1.24531e-07 -5.64477e-05
0.00192169 6.25214e-06 -5.30117e-05
6.25214e-06 0.000913067 9.59891e-06
-5.30117e-05 9.59891e-06 0.000859545
0.000719361 -0.000129437 -2.62404e-07
-0.000129437 0.000162887 -3.74155e-07
-2.62404e-07 -3.74155e-07 -2.03016e-05
0.00132192 -0.00022983 6.93047e-07
-0.00022983 0.000607721 4.65386e-06
6.93047e-07 4.65386e-06 0.000327687
0.000749269 2.97339e-05 -5.75049e-05
2.97339e-05 0.000169933 6.4144e-06
-5.75049e-05 6.4144e-06 0.00015825
0.00117548 1.00876e-06 -1.90645e-05
1.00876e-06 0.000436154 -6.41125e-07
-1.90645e-05 -6.41125e-07 0.000387153
0.000869131 -0.000103536 3.8803e-06
-0.000103536 0.0002453 -5.8043e-06
3.8803e-06 -5.8043e-06 0.000107859
0.000592525 -4.19476e-06 3.44408e-06
-4.19476e-06 6.42041e-05 -1.00839e-05
3.44408e-06 -1.00839e-05 2.06033e-05
0.00310596 0.00012536 9.18759e-06
0.00012536 0.00167223 7.91226e-07
9.18759e-06 7.91226e-07 0.00166963
0.00285543 0.000100559 4.03823e-05
0.000100559 0.0015034 -4.80048e-06
4.03823e-05 -4.80048e-06 0.00150689
0.000949657 0.000181799 1.34887e-05
0.000181799 0.000400254 -8.48307e-07
1.34887e-05 -8.48307e-07 0.000146459
0.00153479 0.000192713 5.06197e-06
0.000192713 0.000788401 -2.26413e-06
5.06197e-06 -2.26413e-06 0.000545709
-0.000326925 3.32283e-05 1.30531e-06
3.32283e-05 -0.000388537 -1.50132e-07
1.30531e-06 -1.50132e-07 -0.00059729
0.000607064 5.56095e-05 2.63985e-06
5.56095e-05 9.77575e-05 -6.81846e-06
2.63985e-06 -6.81846e-06 -1.72459e-05
0.000742664 0.000118294 4.79007e-07
0.000118294 0.000239553 2.2102e-07
4.79007e-07 2.2102e-07 6.03089e-05
0.000436862 1.00867e-05 -9.2943e-07
1.00867e-05 -3.78113e-05 -9.1197e-06
-9.2943e-07 -9.1197e-06 -7.04548e-05
0.000556958 5.05381e-05 -9.28682e-08
5.05381e-05 6.43301e-05 -4.38685e-07
-9.28682e-08 -4.38685e-07 -3.44407e-05
0.000653851 4.75953e-05 -5.3091e-06
4.75953e-05 0.000183444 8.64383e-07
-5.3091e-06 8.64383e-07 2.42519e-05
0.0026053 -6.86095e-05 -3.62907e-05
-6.86095e-05 0.00133763 -5.05313e-06
-3.62907e-05 -5.05313e-06 0.00134775
0.000434415 2.87484e-06 -2.03877e-07
2.87484e-06 -4.53641e-05 -5.46874e-08
-2.03877e-07 -5.46874e-08 -7.12731e-05
0.000524502 6.00894e-05 -2.0874e-06
6.00894e-05 4.28898e-05 2.62313e-06
-2.0874e-06 2.62313e-06 -4.32972e-05
0.0023643 -5.01175e-05 -6.36233e-06
-5.01175e-05 0.00117997 3.975e-07
-6.36233e-06 3.975e-07 0.00119329
0.000421041 -1.16425e-05 -5.54049e-06
-1.16425e-05 -5.70109e-05 5.20734e-06
-5.54049e-06 5.20734e-06 -7.67694e-05
0.00221751 -3.09676e-05 2.24289e-05
-3.09676e-05 0.00108465 4.87147e-06
2.24289e-05 4.87147e-06 0.00110074
0.00671471 0.000830338 0.000392228
0.000830338 0.0041755 9.10049e-05
0.000392228 9.10049e-05 0.0015756
-0.00222844 0.000245099 -5.08602e-06
0.000245099 0.000547398 -9.65239e-06
-5.08602e-06 -9.65239e-06 -0.000503235
0.000500937 0.00026152 -9.45333e-06
0.00026152 0.000865523 -1.26775e-05
-9.45333e-06 -1.26775e-05 0.000144775
-0.000585815 0.000124193 -1.02363e-05
0.000124193 -0.000725448 2.9317e-06
-1.02363e-05 2.9317e-06 -0.000901287
-2.31632e-05 2.83169e-05 -6.75019e-06
2.83169e-05 -0.000250732 -1.61747e-06
-6.75019e-06 -1.61747e-06 -0.000419471
-0.000244968 5.43272e-05 -4.60781e-06
5.43272e-05 -0.000383588 -1.23422e-05
-4.60781e-06 -1.23422e-05 -0.000553951
0.00157821 8.24954e-05 2.989e-06
8.24954e-05 0.000756122 6.43933e-07
2.989e-06 6.43933e-07 0.000578503
0.000255162 0.000123316 -3.29977e-06
0.000123316 -0.000145822 -4.39531e-06
-3.29977e-06 -4.39531e-06 -0.000318503
0.00245457 0.000347756 -9.87986e-06
0.000347756 0.00131551 -3.82557e-06
-9.87986e-06 -3.82557e-06 0.00109585
0.00114399 0.000275943 -4.1003e-06
0.000275943 0.000422829 -1.26071e-05
-4.1003e-06 -1.26071e-05 9.39539e-05
-0.00147402 0.000135248 1.18359e-06
0.000135248 -0.000801878 4.99204e-07
1.18359e-06 4.99204e-07 -0.00118373
0.000563268 0.000126315 -8.19032e-06
0.000126315 0.000117025 -4.24165e-06
-8.19032e-06 -4.24165e-06 -2.50784e-05
-0.000160521 5.54431e-05 -1.53708e-05
5.54431e-05 -0.000400406 -7.92455e-06
-1.53708e-05 -7.92455e-06 -0.000481583
-0.000456081 3.05767e-05 -1.24706e-06
3.05767e-05 -0.000335469 1.99843e-06
-1.24706e-06 1.99843e-06 -0.000586828
0.000919154 0.000341435 2.00215e-05
0.000341435 0.00064919 -4.97504e-07
2.00215e-05 -4.97504e-07 0.000182258
0.00471062 -0.00397458 9.33824e-05
-0.00397458 0.00690349 0.000246388
9.33824e-05 0.000246388 0.00047973
0.00697481 0.00167778 0.00017374
0.00167778 0.00350078 0.000183854
0.00017374 0.000183854 -0.00190325
0.00350595 0.000598822 -3.08153e-05
0.000598822 0.000826944 -8.08791e-05
-3.08153e-05 -8.08791e-05 -0.00113628
0.0279959 -0.00613861 -0.00088419
-0.00613861 0.00808195 -0.000419514
-0.00088419 -0.000419514 0.00467369
0.00549094 -0.0016996 0.000298696
-0.0016996 0.0041353 0.000533353
0.000298696 0.000533353 0.0002225
0.00295925 -0.00179302 -0.000268528
-0.00179302 0.00520785 0.000117818
-0.000268528 0.000117818 -0.00236721
-0.0015514 -0.00065538 0.000111494
-0.00065538 0.0011378 2.04791e-05
0.000111494 2.04791e-05 8.69909e-05
-0.000781835 -0.0001429 0.000134881
-0.0001429 0.0012701 5.19345e-05
0.000134881 5.19345e-05 0.000428379
0.0181308 -0.0103654 0.000504222
-0.0103654 0.00922066 0.000476149
0.000504222 0.000476149 0.00471023
0.00224702 0.00178016 -0.000116124
0.00178016 0.00460209 -9.36601e-05
-0.000116124 -9.36601e-05 -0.00221827
0.00983799 -0.00416611 -0.000139719
-0.00416611 0.00530592 0.000123789
-0.000139719 0.000123789 -0.000893653
0.000178529 0.00079097 -2.09034e-05
0.00079097 0.00118945 5.04794e-05
-2.09034e-05 5.04794e-05 0.000678335
0.0107373 0.00462551 -0.000138293
0.00462551 0.0036173 4.1043e-06
-0.000138293 4.1043e-06 -0.000311197
0.0182169 -0.00729138 -0.000903783
-0.00729138 0.00613565 -0.000502258
-0.000903783 -0.000502258 0.000885314
0.000512443 0.000611583 8.60807e-06
0.000611583 -0.000110895 -1.23211e-05
8.60807e-06 -1.23211e-05 -0.000274681
0.000495101 0.00021238 7.4669e-06
0.00021238 0.000296872 6.09311e-06
7.4669e-06 6.09311e-06 -1.06632e-05
-0.000253994 4.44875e-05 -1.61727e-05
4.44875e-05 -7.57548e-05 -3.13812e-06
-1.61727e-05 -3.13812e-06 -0.000391284
-0.00348267 -0.00031636 -0.000125834
-0.00031636 0.00017806 -6.14602e-05
-0.000125834 -6.14602e-05 -0.00171198
-0.000589542 0.000241029 6.57203e-06
0.000241029 -5.19855e-05 -1.46812e-05
6.57203e-06 -1.46812e-05 -0.000599916
0.00112379 0.000248287 -5.99539e-06
0.000248287 0.00080171 1.22806e-05
-5.99539e-06 1.22806e-05 0.00049203
0.00124944 0.000736585 1.30297e-05
0.000736585 0.000657426 3.74756e-06
1.30297e-05 3.74756e-06 0.000220622
-0.000388176 0.00056816 4.03145e-05
0.00056816 0.000810023 -3.27068e-05
4.03145e-05 -3.27068e-05 -0.000485645
0.00112631 0.00154832 7.63085e-05
0.00154832 0.000239404 4.54966e-06
7.63085e-05 4.54966e-06 -0.00071227
-0.00645868 0.00121871 0.000407537
0.00121871 0.00575919 -2.07188e-06
0.000407537 -2.07188e-06 -0.00183799
0.00227931 -0.00026141 -1.21499e-05
-0.00026141 0.00211347 7.47137e-05
-1.21499e-05 7.47137e-05 -0.000915476
-0.00287132 -3.84029e-05 -1.75681e-05
-3.84029e-05 0.00116434 6.56018e-05
-1.75681e-05 6.56018e-05 -5.71571e-05
-0.000608807 -0.000335424 -6.40858e-05
-0.000335424 0.000780073 1.75524e-05
-6.40858e-05 1.75524e-05 -0.000468853
-0.00163455 -0.000560073 -7.66312e-05
-0.000560073 -0.000193261 6.1111e-05
-7.66312e-05 6.1111e-05 -1.36109e-05
-0.000527656 -0.000566356 -0.000213627
-0.000566356 0.00101262 0.000139622
-0.000213627 0.000139622 -0.00348702
-0.00114206 -0.00433766 0.000266378
-0.00433766 0.00204457 -0.000111064
0.000266378 -0.000111064 -0.00414209
0.0129997 0.00568804 0.000772238
0.00568804 0.00206999 -0.000471013
0.000772238 -0.000471013 -0.0026215
0.0127563 0.00435349 -0.0004402
0.00435349 0.00868137 0.00037762
-0.0004402 0.00037762 0.0033876
0.00106687 -0.000971489 -1.57101e-05
-0.000971489 0.00139906 2.91684e-07
-1.57101e-05 2.91684e-07 0.000472142
0.00242817 0.000758755 0.000162555
0.000758755 0.00827971 -3.15465e-05
0.000162555 -3.15465e-05 0.00350855
0.00224558 0.00472529 8.22869e-06
0.00472529 0.001201 7.82535e-05
8.22869e-06 7.82535e-05 -0.00284847
0.00253908 -0.00302733 8.67582e-05
-0.00302733 0.000840605 -4.95809e-05
8.67582e-05 -4.95809e-05 0.00107639
0.0165873 -0.0047911 6.77843e-06
-0.0047911 0.002675 3.08338e-06
6.77843e-06 3.08338e-06 0.000775057
0.00323381 -0.00186713 -7.13363e-07
-0.00186713 0.00132782 1.90332e-05
-7.13363e-07 1.90332e-05 0.000860047
-0.00757198 0.00147349 -0.000703
0.00147349 -0.0020004 0.000115875
-0.000703 0.000115875 -0.00528357
0.0158926 -0.00306267 -0.000227044
-0.00306267 0.00162474 6.71976e-05
-0.000227044 6.71976e-05 0.000423019
0.00402136 -0.00298871 0.000122281
-0.00298871 2.02364e-05 -7.63898e-05
0.000122281 -7.63898e-05 0.000812358
0.000345096 -0.000527636 -2.66367e-06
-0.000527636 0.000390232 8.74162e-06
-2.66367e-06 8.74162e-06 -6.66646e-05
0.00169984 -0.000959953 2.78992e-06
-0.000959953 0.000559326 -4.38556e-06
2.78992e-06 -4.38556e-06 0.000230922
0.00454143 -0.00110742 2.21283e-05
-0.00110742 0.00176731 -1.79304e-05
2.21283e-05 -1.79304e-05 0.00138096
-0.000280344 -0.00052686 -7.09247e-06
-0.00052686 -0.000425058 1.0156e-05
-7.09247e-06 1.0156e-05 -0.000821994
0.00168315 -0.000922349 -3.13126e-06
-0.000922349 0.000225712 1.23919e-06
-3.13126e-06 1.23919e-06 -0.00021357
0.00333998 -0.00116056 2.38725e-06
-0.00116056 0.000883428 -7.99734e-06
2.38725e-06 -7.99734e-06 0.000437196
0.00145633 -0.000800165 -9.80331e-06
-0.000800165 0.000232649 9.86011e-06
-9.80331e-06 9.86011e-06 -0.000386561
0.00206481 -0.00101983 -7.93929e-07
-0.00101983 0.000336909 2.519e-06
-7.93929e-07 2.519e-06 -0.000180638
0.00203455 -0.000818689 -3.57719e-06
-0.000818689 7.50668e-05 -5.27274e-06
-3.57719e-06 -5.27274e-06 -0.000242945
0.00174082 -0.000903843 3.76424e-06
-0.000903843 0.000300553 4.43338e-06
3.76424e-06 4.43338e-06 -0.000263673
0.00211963 -0.000791406 -1.71047e-06
-0.000791406 0.000300499 1.66758e-06
-1.71047e-06 1.66758e-06 -9.54308e-05
0.00214183 -0.000584544 -2.61671e-06
-0.000584544 0.000120185 -3.11983e-06
-2.61671e-06 -3.11983e-06 -0.000101003
0.00195394 -0.00049158 -4.17784e-06
-0.00049158 7.76778e-05 9.87616e-09
-4.17784e-06 9.87616e-09 -0.00010539
0.00177457 -0.000563053 -4.69392e-06
-0.000563053 -2.60234e-06 -1.61018e-06
-4.69392e-06 -1.61018e-06 -0.000268185
0.00188394 -0.000547351 1.68874e-06
-0.000547351 4.24006e-05 2.65624e-06
1.68874e-06 2.65624e-06 -0.000207693
0.00175647 -0.000690407 -5.45462e-06
-0.000690407 0.000130697 -2.81568e-06
-5.45462e-06 -2.81568e-06 -0.000238033
0.00213439 -0.000804201 2.85413e-06
-0.000804201 0.000314218 -1.46569e-07
2.85413e-06 -1.46569e-07 -9.33602e-05
0.00223557 -0.000807919 5.78927e-06
-0.000807919 0.000384771 1.14334e-06
5.78927e-06 1.14334e-06 -2.70704e-05
0.0018242 -0.000726443 -1.2549e-06
-0.000726443 0.000401565 -2.12067e-06
-1.2549e-06 -2.12067e-06 -3.12654e-05
0.00224431 -0.000849852 2.11496e-06
-0.000849852 0.00061082 -6.82974e-07
2.11496e-06 -6.82974e-07 0.000145815
0.00244335 -0.000958367 3.35508e-06
-0.000958367 0.000691323 -2.76535e-06
3.35508e-06 -2.76535e-06 0.000167704
0.00127206 -0.000431822 -7.71443e-06
-0.000431822 0.000285565 3.55861e-06
-7.71443e-06 3.55861e-06 -3.31114e-05
0.00164215 -0.000625676 1.60639e-06
-0.000625676 0.000477089 8.8655e-07
1.60639e-06 8.8655e-07 6.67295e-05
0.00127703 -0.000674028 -3.21099e-06
-0.000674028 0.000245546 1.63766e-06
-3.21099e-06 1.63766e-06 -0.000189013
0.000528897 -0.000228356 -8.06267e-06
-0.000228356 -4.6112e-05 -1.14611e-07
-8.06267e-06 -1.14611e-07 -0.000264388
0.00103744 -0.000334752 1.3343e-06
-0.000334752 0.000233385 -8.21391e-07
1.3343e-06 -8.21391e-07 -4.33874e-05
0.00059456 -0.000370831 -8.00201e-06
-0.000370831 -3.83127e-05 4.00876e-07
-8.00201e-06 4.00876e-07 -0.000359582
0.00033152 -7.16321e-05 -1.44839e-05
-7.16321e-05 -0.000117595 1.39121e-05
-1.44839e-05 1.39121e-05 -0.000199149
0.000859904 -0.000202791 3.21162e-06
-0.000202791 0.000256844 1.52758e-06
3.21162e-06 1.52758e-06 1.20981e-05
0.000576001 -0.000270938 -2.76367e-07
-0.000270938 9.42791e-05 1.21608e-06
-2.76367e-07 1.21608e-06 -0.000195813
0.00405592 0.000250232 8.76618e-06
0.000250232 0.00232235 6.27867e-06
8.76618e-06 6.27867e-06 0.00228035
0.00042908 -4.30092e-05 3.94525e-07
-4.30092e-05 -4.47e-05 -2.00409e-07
3.94525e-07 -2.00409e-07 -0.000111925
0.00127103 -0.000129586 2.3642e-07
-0.000129586 0.000508442 -5.82974e-06
2.3642e-07 -5.82974e-06 0.000320164
0.00349109 0.000143231 9.72074e-06
0.000143231 0.00192451 7.09741e-07
9.72074e-06 7.09741e-07 0.00191739
0.000573258 -1.89458e-05 5.96452e-06
-1.89458e-05 5.0104e-05 -1.19582e-05
5.96452e-06 -1.19582e-05 -4.25289e-06
0.00314334 0.000116364 5.94606e-05
0.000116364 0.00169396 -5.28163e-06
5.94606e-05 -5.28163e-06 0.0016937
0.00228166 0.000380196 5.30598e-06
0.000380196 0.00113237 1.58453e-06
5.30598e-06 1.58453e-06 0.000872597
0.000727867 0.000188555 2.75649e-07
0.000188555 0.000267923 -4.79128e-06
2.75649e-07 -4.79128e-06 7.25713e-06
0.00142862 0.000236782 -8.33442e-07
0.000236782 0.000720629 -4.54357e-06
-8.33442e-07 -4.54357e-06 0.000445563
0.000754667 8.96281e-05 1.91504e-06
8.96281e-05 0.000190704 -6.86977e-06
1.91504e-06 -6.86977e-06 5.17454e-05
0.000813879 0.000111299 5.3626e-07
0.000111299 0.000321237 1.45402e-06
5.3626e-07 1.45402e-06 9.17922e-05
0.000216856 0.000119717 -2.67656e-06
0.000119717 1.28505e-06 2.62885e-06
-2.67656e-06 2.62885e-06 -0.000247084
0.000537149 6.2667e-07 -1.6584e-06
6.2667e-07 3.45463e-05 -1.13278e-05
-1.6584e-06 -1.13278e-05 -7.80706e-06
0.000552941 4.63824e-05 -3.36957e-07
4.63824e-05 6.71035e-05 -1.85806e-07
-3.36957e-07 -1.85806e-07 -4.83799e-05
0.000187604 8.86688e-05 -5.48902e-06
8.86688e-05 -0.000136013 3.14505e-06
-5.48902e-06 3.14505e-06 -0.000294816
0.00271841 -8.5102e-05 -4.48236e-05
-8.5102e-05 0.00141513 -5.17647e-06
-4.48236e-05 -5.17647e-06 0.00142249
0.000402976 -2.37878e-05 2.90117e-06
-2.37878e-05 -5.60741e-05 -2.5682e-07
2.90117e-06 -2.5682e-07 -8.9553e-05
0.000474007 4.64113e-05 -3.64808e-06
4.64113e-05 1.79024e-05 4.34491e-06
-3.64808e-06 4.34491e-06 -8.16708e-05
0.00253704 -6.84143e-05 -7.0006e-06
-6.84143e-05 0.00129406 5.29067e-07
-7.0006e-06 5.29067e-07 0.00130411
0.000426014 3.48695e-07 -2.69523e-06
3.48695e-07 -5.0717e-05 6.56936e-06
-2.69523e-06 6.56936e-06 -7.61222e-05
0.00231942 -4.92578e-05 2.41826e-05
-4.92578e-05 0.00115134 4.90712e-06
2.41826e-05 4.90712e-06 0.00116494
-0.00928423 0.0011191 -0.000156295
0.0011191 0.00436184 7.91893e-05
-0.000156295 7.91893e-05 -0.00267855
0.00631786 0.000635018 1.47405e-05
0.000635018 0.00386622 -9.26622e-07
1.47405e-05 -9.26622e-07 0.00138861
-0.00174659 0.000174093 7.21341e-05
0.000174093 0.000567511 3.77206e-05
7.21341e-05 3.77206e-05 -0.000750278
0.00014305 0.000161076 6.59703e-10
0.000161076 -0.000225251 4.275e-06
6.59703e-10 4.275e-06 -0.000444009
0.00337294 0.000743496 1.81159e-05
0.000743496 0.00173897 1.30772e-05
1.81159e-05 1.30772e-05 0.00134023
0.000328692 0.000178822 -8.93617e-06
0.000178822 4.05968e-05 4.05309e-06
-8.93617e-06 4.05309e-06 -0.000314884
0.000361246 6.81473e-05 -8.06606e-06
6.81473e-05 1.06145e-05 -2.35721e-05
-8.06606e-06 -2.35721e-05 -0.000176632
0.00314845 0.000354289 3.74108e-06
0.000354289 0.00162693 -1.89283e-06
3.74108e-06 -1.89283e-06 0.00143015
-0.00116715 1.25399e-05 -1.43094e-05
1.25399e-05 -0.000912625 1.07745e-05
-1.43094e-05 1.07745e-05 -0.00107064
-0.000111568 0.000152141 -9.97165e-07
0.000152141 -9.98516e-05 7.9078e-06
-9.97165e-07 7.9078e-06 -0.000410128
0.000419988 0.000159092 -3.64933e-06
0.000159092 5.27352e-05 -6.06029e-06
-3.64933e-06 -6.06029e-06 -0.000280567
0.00155737 0.000608385 7.70122e-06
0.000608385 0.00076895 -2.30804e-05
7.70122e-06 -2.30804e-05 0.000276326
-0.000503368 0.000500754 -2.00478e-05
0.000500754 -0.000619987 5.69525e-05
-2.00478e-05 5.69525e-05 -0.000777905
0.00148049 6.69498e-05 -1.74696e-05
6.69498e-05 0.000798709 1.81571e-05
-1.74696e-05 1.81571e-05 0.000578824
0.00166492 0.000343783 7.45829e-06
0.000343783 0.00108301 -9.57194e-06
7.45829e-06 -9.57194e-06 0.000670478
0.00183448 -0.00285096 -0.00188685
-0.00285096 0.00221962 -0.000281503
-0.00188685 -0.000281503 -0.00229646
-0.0013018 -0.00306479 0.00062856
-0.00306479 0.0070594 0.000201113
0.00062856 0.000201113 0.000651739
0.00774358 0.00212546 -0.0006763
0.00212546 0.00323061 -0.000229719
-0.0006763 -0.000229719 -0.00263558
0.00855369 -0.0111064 0.00271103
-0.0111064 0.00736752 0.00161622
0.00271103 0.00161622 0.00228074
0.0285844 -0.00422449 4.76822e-05
-0.00422449 0.0100111 0.000412441
4.76822e-05 0.000412441 0.00559002
-0.00361848 0.00144343 -2.53506e-05
0.00144343 0.00259633 -0.000198597
-2.53506e-05 -0.000198597 -0.00343057
-0.00249231 0.00016218 -0.000334102
0.00016218 0.00123211 -6.07773e-05
-0.000334102 -6.07773e-05 -0.000561686
0.000652877 0.00081133 7.77238e-05
0.00081133 0.00168097 5.67074e-05
7.77238e-05 5.67074e-05 0.00125689
0.0211962 -0.00562964 -0.000748948
-0.00562964 0.00890525 1.51657e-05
-0.000748948 1.51657e-05 0.00376906
-0.00230519 0.00362484 -0.000143656
0.00362484 0.000447714 -4.9358e-05
-0.000143656 -4.9358e-05 -0.00440363
0.00344818 0.00255356 2.51243e-05
0.00255356 0.00111085 -7.74966e-05
2.51243e-05 -7.74966e-05 0.00185995
0.00415913 0.00575792 -0.000498979
0.00575792 -0.00192212 -0.000116565
-0.000498979 -0.000116565 -0.0043925
0.0033421 0.00128873 2.49331e-05
0.00128873 0.00128895 -6.85643e-06
2.49331e-05 -6.85643e-06 0.000899135
0.00108911 0.000633245 -4.59199e-06
0.000633245 0.000302151 -2.88201e-06
-4.59199e-06 -2.88201e-06 0.00014003
-0.000233345 0.000182843 -1.57204e-05
0.000182843 -0.000150902 1.40423e-05
-1.57204e-05 1.40423e-05 -0.000450967
-0.00167409 0.000412238 -9.64201e-05
0.000412238 0.000210537 -7.19952e-05
-9.64201e-05 -7.19952e-05 -0.000900675
0.0018947 0.000830718 -4.52173e-05
0.000830718 0.000939268 -2.587e-05
-4.52173e-05 -2.587e-05 0.00049951
0.00216151 0.00169515 1.06385e-05
0.00169515 0.000639303 -8.95212e-06
1.06385e-05 -8.95212e-06 -0.000298557
-0.00110814 0.00174378 0.000103292
0.00174378 -0.001888 5.48122e-05
0.000103292 5.48122e-05 -0.00228482
-0.00660129 -0.000567302 -0.000701547
-0.000567302 -0.00395399 5.5587e-05
-0.000701547 5.5587e-05 -0.00445346
-0.00933825 0.000517559 0.000467684
0.000517559 0.00611704 1.85289e-05
0.000467684 1.85289e-05 -0.000704185
0.00287322 -5.24891e-05 -0.000144549
-5.24891e-05 0.00212185 3.4031e-05
-0.000144549 3.4031e-05 0.000194887
0.00193626 -0.00112418 -6.45234e-05
-0.00112418 0.00140554 -4.53424e-05
-6.45234e-05 -4.53424e-05 0.000515483
-0.000896348 -0.00219741 9.25974e-05
-0.00219741 -0.000590313 4.24988e-05
9.25974e-05 4.24988e-05 -0.000334691
0.000842741 0.000873188 0.000114746
0.000873188 0.00795271 5.70794e-05
0.000114746 5.70794e-05 0.00296346
0.00326594 -0.00411909 0.000545719
-0.00411909 -0.00181832 -0.000103102
0.000545719 -0.000103102 -0.00360569
0.024867 0.00405229 0.00104522
0.00405229 0.0109985 -9.47648e-05
0.00104522 -9.47648e-05 0.00721452
0.00169858 -0.00197144 -2.1655e-05
-0.00197144 0.000415069 3.7902e-06
-2.1655e-05 3.7902e-06 -0.000320675
0.00296659 0.00181486 0.000316686
0.00181486 0.00126372 -9.6593e-05
0.000316686 -9.6593e-05 -0.00152553
0.0075837 -0.00270465 -0.000195097
-0.00270465 -0.00303673 0.000161224
-0.000195097 0.000161224 -0.00501592
0.0031027 -0.00290344 -8.01467e-06
-0.00290344 -0.000836926 2.54827e-05
-8.01467e-06 2.54827e-05 0.000361644
0.0026117 -0.00162601 7.66359e-05
-0.00162601 0.00022994 -2.07783e-05
7.66359e-05 -2.07783e-05 6.81965e-06
0.018441 -0.000986047 -9.88418e-05
-0.000986047 0.0035331 6.03624e-05
-9.88418e-05 6.03624e-05 0.00246905
0.00272132 -0.00206315 0.000136004
-0.00206315 -0.00343277 -8.50119e-05
0.000136004 -8.50119e-05 -0.00157675
-0.000851362 -0.000756928 -2.29743e-05
-0.000756928 -0.000916283 3.70701e-05
-2.29743e-05 3.70701e-05 -0.00107193
0.000268233 -0.000677489 -4.13778e-05
-0.000677489 -0.000563108 4.48891e-06
-4.13778e-05 4.48891e-06 -0.000736909
0.00632771 -0.00126834 6.21358e-05
-0.00126834 0.00237888 -2.58855e-05
6.21358e-05 -2.58855e-05 0.00212078
0.000137855 -0.000724588 -8.9568e-06
-0.000724588 -0.000545276 5.45275e-06
-8.9568e-06 5.45275e-06 -0.000973242
0.00220333 -0.00101483 -2.90769e-06
-0.00101483 0.000300047 -3.11776e-06
-2.90769e-06 -3.11776e-06 -0.000110027
0.00287474 -0.000910815 -1.27751e-07
-0.000910815 0.000348451 -4.69813e-06
-1.27751e-07 -4.69813e-06 0.000132043
0.00215268 -0.00102215 7.2048e-06
-0.00102215 0.000387861 1.02401e-05
7.2048e-06 1.02401e-05 -0.000136506
0.00230936 -0.00083806 -1.79084e-06
-0.00083806 0.000233082 2.86076e-07
-1.79084e-06 2.86076e-07 -8.53673e-05
0.00219753 -0.000607537 -8.62097e-07
-0.000607537 9.89621e-06 -7.22943e-07
-8.62097e-07 -7.22943e-07 -0.000108091
0.00175214 -0.000740084 8.60176e-06
-0.000740084 9.74067e-05 6.99681e-06
8.60176e-06 6.99681e-06 -0.00028577
0.00207133 -0.00057156 -3.56982e-07
-0.00057156 7.74723e-05 2.55472e-06
-3.56982e-07 2.55472e-06 -0.000135179
0.00215344 -0.000551302 -2.78316e-06
-0.000551302 8.66625e-05 2.24754e-06
-2.78316e-06 2.24754e-06 -5.12642e-05
0.00211175 -0.000521505 -4.18461e-06
-0.000521505 0.0001586 1.55121e-06
-4.18461e-06 1.55121e-06 -2.10934e-06
0.00207894 -0.000502086 -3.08255e-06
-0.000502086 0.000146756 3.09787e-06
-3.08255e-06 3.09787e-06 -3.25495e-05
0.00213416 -0.000507212 -2.48298e-06
-0.000507212 0.000238646 -2.94095e-06
-2.48298e-06 -2.94095e-06 4.27406e-05
0.00209815 -0.000597846 -6.51173e-06
-0.000597846 0.000224409 -2.55839e-06
-6.51173e-06 -2.55839e-06 -5.18061e-05
0.00201407 -0.00058079 1.57593e-06
-0.00058079 0.000152443 1.00509e-06
1.57593e-06 1.00509e-06 -0.000113857
0.00196227 -0.000549247 5.248e-06
-0.000549247 8.62031e-05 7.1052e-06
5.248e-06 7.1052e-06 -0.00016081
0.00200723 -0.000690313 -7.39314e-06
-0.000690313 0.000345235 -2.89709e-06
-7.39314e-06 -2.89709e-06 -2.97942e-05
0.00176185 -0.00069952 -6.05415e-07
-0.00069952 0.000119346 1.37999e-07
-6.05415e-07 1.37999e-07 -0.00025347
0.00229648 -0.000813104 8.043e-06
-0.000813104 0.000430653 1.45881e-06
8.043e-06 1.45881e-06 2.6069e-05
0.0014471 -0.000544556 -1.2109e-05
-0.000544556 0.000258841 3.25211e-06
-1.2109e-05 3.25211e-06 -0.000107386
0.00192965 -0.000738889 -5.22106e-07
-0.000738889 0.000464978 8.44093e-07
-5.22106e-07 8.44093e-07 2.98516e-05
0.00212009 -0.000843599 4.54859e-06
-0.000843599 0.000529634 5.83822e-07
4.54859e-06 5.83822e-07 6.29892e-05
0.000670798 -0.000228934 -8.05011e-06
-0.000228934 1.08176e-05 5.85855e-06
-8.05011e-06 5.85855e-06 -0.000212288
0.00128709 -0.000441268 1.41275e-06
-0.000441268 0.000285497 3.50108e-07
1.41275e-06 3.50108e-07 -3.73871e-05
0.00128845 -0.000580896 -2.43655e-06
-0.000580896 0.000247749 2.2305e-06
-2.43655e-06 2.2305e-06 -0.000149538
0.000488947 -0.000147749 -2.55075e-05
-0.000147749 -5.15186e-05 1.52275e-05
-2.55075e-05 1.52275e-05 -0.000153721
0.000600062 -0.000226563 -2.76116e-06
-0.000226563 2.83028e-05 6.70071e-07
-2.76116e-06 6.70071e-07 -0.000210527
0.000564618 -0.000337031 2.17797e-06
-0.000337031 -6.91029e-05 -1.25282e-06
2.17797e-06 -1.25282e-06 -0.00035321
0.00453878 0.000220228 -9.40447e-05
0.000220228 0.00262903 8.83663e-06
-9.40447e-05 8.83663e-06 0.00259841
0.000558968 -9.05284e-05 1.99808e-06
-9.05284e-05 2.03177e-05 -1.53733e-07
1.99808e-06 -1.53733e-07 -6.73244e-05
0.00157402 -0.000287261 7.2386e-06
-0.000287261 0.00069943 -3.06598e-06
7.2386e-06 -3.06598e-06 0.000450062
0.00263658 0.000136151 5.80787e-05
0.000136151 0.00139711 1.44352e-06
5.80787e-05 1.44352e-06 0.00137029
0.000652138 -4.9647e-05 1.24887e-05
-4.9647e-05 8.97275e-05 -1.38697e-05
1.24887e-05 -1.38697e-05 1.88918e-05
0.00372472 0.000132624 8.97825e-05
0.000132624 0.00207245 -5.99358e-06
8.97825e-05 -5.99358e-06 0.00206799
0.00184598 0.000377705 2.76521e-06
0.000377705 0.000734323 -3.99717e-06
2.76521e-06 -3.99717e-06 0.000494139
0.000421126 0.000168625 -4.85539e-06
0.000168625 -7.55304e-05 7.40266e-09
-4.85539e-06 7.40266e-09 -0.000280633
0.000421387 0.000184509 9.03149e-07
0.000184509 3.4172e-05 -7.6298e-06
9.03149e-07 -7.6298e-06 -0.000220981
0.000299643 0.000149287 -2.08524e-06
0.000149287 -2.50736e-05 9.81239e-06
-2.08524e-06 9.81239e-06 -0.000259831
0.000684132 0.000113676 5.2476e-07
0.000113676 0.000233249 2.31659e-07
5.2476e-07 2.31659e-07 -1.99298e-05
0.00110497 0.000131992 -4.76207e-07
0.000131992 0.00040468 -9.62515e-06
-4.76207e-07 -9.62515e-06 0.000236104
0.000596138 4.2945e-05 -6.51183e-06
4.2945e-05 6.96779e-05 -1.37134e-05
-6.51183e-06 -1.37134e-05 1.67678e-05
0.000714537 8.10455e-05 5.41064e-07
8.10455e-05 0.000170854 -1.77392e-07
5.41064e-07 -1.77392e-07 3.21448e-05
-0.000496888 2.14415e-05 -6.16385e-06
2.14415e-05 -0.000533566 1.31994e-06
-6.16385e-06 1.31994e-06 -0.000736257
0.00301783 -9.99094e-05 -6.4191e-05
-9.99094e-05 0.00161399 -5.8672e-06
-6.4191e-05 -5.8672e-06 0.00161824
0.000388197 2.02673e-05 1.10371e-06
2.02673e-05 -5.83994e-05 -3.41591e-07
1.10371e-06 -3.41591e-07 -0.000100331
0.000647167 6.02095e-05 -3.5286e-06
6.02095e-05 0.000131801 7.19712e-06
-3.5286e-06 7.19712e-06 1.36322e-05
0.00276882 -8.82935e-05 -7.81586e-06
-8.82935e-05 0.00144811 6.71364e-07
-7.81586e-06 6.71364e-07 0.00145431
0.000354074 -1.32849e-05 -1.10422e-06
-1.32849e-05 -8.52466e-05 8.20965e-06
-1.10422e-06 8.20965e-06 -0.00011852
0.00253945 -6.86721e-05 3.01646e-05
-6.86721e-05 0.00129536 5.12865e-06
3.01646e-05 5.12865e-06 0.00130519
0.00181958 -3.36121e-05 -0.00103791
-3.36121e-05 0.0041736 -7.1645e-05
-0.00103791 -7.1645e-05 0.00189944
-0.00575982 9.76387e-05 2.93712e-05
9.76387e-05 0.00549023 -1.15602e-05
2.93712e-05 -1.15602e-05 -0.00183604
0.00609079 0.000309331 -0.000313859
0.000309331 0.00369941 -8.46417e-05
-0.000313859 -8.46417e-05 0.00139362
-0.000441959 5.7456e-05 5.01163e-06
5.7456e-05 -0.000580047 -6.30342e-06
5.01163e-06 -6.30342e-06 -0.000801567
0.000412905 0.00011749 7.12924e-06
0.00011749 1.68737e-05 6.81737e-06
7.12924e-06 6.81737e-06 -0.000312683
0.00300913 0.000674774 -3.69661e-06
0.000674774 0.00154403 3.5954e-06
-3.69661e-06 3.5954e-06 0.00115432
0.00229847 0.0007739 1.85633e-05
0.0007739 0.000959793 9.35383e-06
1.85633e-05 9.35383e-06 0.000461026
0.000912321 0.000517362 1.14089e-05
0.000517362 0.000410985 8.25361e-06
1.14089e-05 8.25361e-06 -2.75735e-05
0.00165231 0.000240848 -8.40614e-06
0.000240848 0.000957896 6.34429e-06
-8.40614e-06 6.34429e-06 0.000652684
0.00173032 0.000248534 1.05488e-05
0.000248534 0.000895522 9.55605e-06
1.05488e-05 9.55605e-06 0.000580812
0.000812795 0.000526598 -4.33575e-06
0.000526598 0.00037477 -1.88986e-07
-4.33575e-06 -1.88986e-07 -0.000111387
0.000207363 0.000705184 1.8124e-05
0.000705184 -0.000394667 -9.19229e-06
1.8124e-05 -9.19229e-06 -0.000771473
0.00271262 0.000941695 -8.59752e-06
0.000941695 0.0010491 2.7497e-05
-8.59752e-06 2.7497e-05 0.000775851
0.00159001 0.000981613 3.25219e-05
0.000981613 0.000123275 1.29814e-05
3.25219e-05 1.29814e-05 -3.61659e-05
0.00151698 0.000719025 -4.45173e-06
0.000719025 0.000575933 -2.92443e-06
-4.45173e-06 -2.92443e-06 0.0003203
0.00206718 0.00046567 -6.7102e-06
0.00046567 0.00120303 3.34105e-05
-6.7102e-06 3.34105e-05 0.00079865
0.0139364 0.00300528 -0.000137606
0.00300528 0.00144105 5.7605e-05
-0.000137606 5.7605e-05 0.000360075
0.00398375 -0.00244931 -0.000655175
-0.00244931 0.0042693 -0.000226046
-0.000655175 -0.000226046 0.000761117
0.00079254 -0.00439136 0.000969219
-0.00439136 0.00780882 0.000238262
0.000969219 0.000238262 0.00130064
0.0110898 -0.0032851 0.000373622
-0.0032851 0.00449666 0.000320517
0.000373622 0.000320517 -0.000116084
0.0139247 0.00570018 -0.000109552
0.00570018 0.00461411 -5.70297e-05
-0.000109552 -5.70297e-05 0.000500063
-0.00296907 0.000332921 -4.48362e-05
0.000332921 0.000258346 -4.03595e-05
-4.48362e-05 -4.03595e-05 -0.000277717
0.00205658 0.00218065 -7.36936e-05
0.00218065 0.000506007 -2.78268e-05
-7.36936e-05 -2.78268e-05 0.00140235
0.0165939 0.00554127 2.01498e-05
0.00554127 0.0030395 3.92625e-05
2.01498e-05 3.92625e-05 0.000496921
0.00686691 0.00414431 -0.000112538
0.00414431 -0.000309452 -0.000119993
-0.000112538 -0.000119993 0.00036403
0.00183843 0.00134659 4.39907e-06
0.00134659 0.000222638 6.88741e-06
4.39907e-06 6.88741e-06 -8.20482e-05
0.00161789 0.00102017 1.21909e-05
0.00102017 0.000465876 -4.29206e-06
1.21909e-05 -4.29206e-06 0.00014054
0.00169487 0.00063446 -3.28589e-05
0.00063446 0.000764023 5.82461e-06
-3.28589e-05 5.82461e-06 0.000594358
0.00243436 0.00182204 -7.44268e-05
0.00182204 0.00061814 -2.79266e-05
-7.44268e-05 -2.79266e-05 -0.000299054
0.00151293 0.00205834 8.61398e-05
0.00205834 -0.000763695 4.60542e-05
8.61398e-05 4.60542e-05 -0.0012742
0.00309961 -0.000290208 -0.000141098
-0.000290208 -0.00531733 5.08146e-05
-0.000141098 5.08146e-05 -0.0055767
0.000493045 -0.00195408 1.35203e-05
-0.00195408 0.00261656 2.15155e-05
1.35203e-05 2.15155e-05 0.0012466
-0.0126739 -0.000345557 0.00037177
-0.000345557 0.00676318 -2.24639e-05
0.00037177 -2.24639e-05 0.00084692
0.00105671 -0.00224515 -6.92484e-05
-0.00224515 -0.00022732 3.25448e-05
-6.92484e-05 3.25448e-05 -0.00118506
0.00636918 -0.00373474 2.76732e-05
-0.00373474 0.000303118 4.99249e-05
2.76732e-05 4.99249e-05 0.000984772
0.00317665 0.000171714 0.00111477
0.000171714 0.00430977 -0.000264207
0.00111477 -0.000264207 0.00221883
0.0146949 -0.00287589 -0.000336674
-0.00287589 0.00150353 0.000178976
-0.000336674 0.000178976 0.000883385
0.00176229 -0.00160307 -3.06763e-05
-0.00160307 -0.000167354 3.21575e-06
-3.06763e-05 3.21575e-06 -0.000507007
0.0117223 -0.00016774 -0.000216176
-0.00016774 -0.00158521 7.86596e-05
-0.000216176 7.86596e-05 -0.00226541
0.00721095 -0.00239039 9.68912e-05
-0.00239039 -0.000655095 1.08187e-05
9.68912e-05 1.08187e-05 0.000458716
0.00368899 -0.00137234 6.56078e-05
-0.00137234 0.000247075 -4.37371e-05
6.56078e-05 -4.37371e-05 0.000108745
0.00244647 -0.000903913 9.07973e-06
-0.000903913 -0.00247456 3.21356e-06
9.07973e-06 3.21356e-06 -0.000978302
-0.00437146 -0.000227676 1.03204e-05
-0.000227676 -0.00309226 1.72959e-05
1.03204e-05 1.72959e-05 -0.00308974
0.00140208 -0.000809039 -2.04681e-05
-0.000809039 -0.000347038 2.77806e-06
-2.04681e-05 2.77806e-06 -0.000357467
0.00379663 -0.000855273 3.90872e-05
-0.000855273 0.000721099 -1.43774e-05
3.90872e-05 -1.43774e-05 0.000775243
0.00126071 -0.00090091 -9.94606e-06
-0.00090091 -0.000189932 7.55304e-06
-9.94606e-06 7.55304e-06 -0.000571316
0.002287 -0.000855462 -4.03397e-06
-0.000855462 3.37039e-05 3.24532e-06
-4.03397e-06 3.24532e-06 -0.000176964
0.00251012 -0.000691161 5.333e-06
-0.000691161 -9.83821e-06 -6.25926e-07
5.333e-06 -6.25926e-07 -3.06151e-05
0.00221842 -0.000813041 -2.9075e-06
-0.000813041 0.000198315 9.24598e-06
-2.9075e-06 9.24598e-06 -0.000110518
0.00219438 -0.000605675 4.78369e-07
-0.000605675 7.23976e-06 1.41788e-06
4.78369e-07 1.41788e-06 -0.000108106
0.00234186 -0.000602736 -6.99602e-07
-0.000602736 7.0371e-05 6.44155e-07
-6.99602e-07 6.44155e-07 1.63729e-05
0.00195112 -0.000552553 5.41142e-06
-0.000552553 7.81616e-06 5.74243e-06
5.41142e-06 5.74243e-06 -0.000194707
0.00212301 -0.000548317 4.60671e-08
-0.000548317 6.78266e-05 1.26736e-06
4.60671e-08 1.26736e-06 -6.76656e-05
0.00227728 -0.000586412 -2.27823e-06
-0.000586412 0.00013426 1.9285e-06
-2.27823e-06 1.9285e-06 1.30012e-05
0.00211878 -0.000529348 -4.5742e-06
-0.000529348 0.000153461 2.11367e-06
-4.5742e-06 2.11367e-06 -4.14386e-06
0.00222215 -0.000522 -1.44623e-06
-0.000522 0.00027003 -3.16635e-07
-1.44623e-06 -3.16635e-07 9.90055e-05
0.00218536 -0.000511618 2.45568e-06
-0.000511618 0.000206275 4.55527e-06
2.45568e-06 4.55527e-06 3.09844e-05
0.00212399 -0.00050638 7.03432e-07
-0.00050638 0.000231222 -5.84214e-07
7.03432e-07 -5.84214e-07 3.56045e-05
0.00204037 -0.000524274 -3.37311e-06
-0.000524274 0.000184657 -2.06023e-06
-3.37311e-06 -2.06023e-06 -3.14583e-05
0.00213354 -0.000583294 -3.74953e-06
-0.000583294 0.000321056 -4.21835e-06
-3.74953e-06 -4.21835e-06 3.20106e-05
0.00216278 -0.00060626 -5.24137e-07
-0.00060626 0.000267769 5.0898e-08
-5.24137e-07 5.0898e-08 -1.14317e-05
0.00224953 -0.000597613 7.91101e-06
-0.000597613 0.000306884 3.99959e-06
7.91101e-06 3.99959e-06 4.00947e-05
0.00171618 -0.000582996 -1.13034e-05
-0.000582996 0.000269675 2.43175e-06
-1.13034e-05 2.43175e-06 -9.09045e-05
0.00193495 -0.00068197 -1.9722e-06
-0.00068197 0.000300716 -3.56476e-07
-1.9722e-06 -3.56476e-07 -7.51815e-05
0.00178423 -0.000709867 5.91644e-06
-0.000709867 0.000117699 2.20841e-06
5.91644e-06 2.20841e-06 -0.000259419
0.00084508 -0.000278944 -1.20582e-05
-0.000278944 4.16994e-05 8.28409e-06
-1.20582e-05 8.28409e-06 -0.000199107
0.00146348 -0.000545219 5.07562e-07
-0.000545219 0.000275534 3.48051e-07
5.07562e-07 3.48051e-07 -9.00354e-05
0.00202903 -0.000749005 3.09521e-06
-0.000749005 0.000527222 2.54213e-06
3.09521e-06 2.54213e-06 9.06539e-05
0.000252166 -0.000191565 -2.11323e-05
-0.000191565 -0.000204492 1.95511e-05
-2.11323e-05 1.95511e-05 -0.000333879
0.000616865 -0.000232662 -3.48076e-07
-0.000232662 -1.8271e-05 3.47136e-07
-3.48076e-07 3.47136e-07 -0.000247618
0.00107992 -0.000418346 8.76598e-06
-0.000418346 0.000147941 -1.65191e-06
8.76598e-06 -1.65191e-06 -0.000169789
0.00539355 0.000156163 -0.000160084
0.000156163 0.00314818 1.05863e-05
-0.000160084 1.05863e-05 0.00313458
0.000501799 -0.000168625 -4.30896e-06
-0.000168625 -4.0603e-05 -9.04513e-07
-4.30896e-06 -9.04513e-07 -0.000148951
0.00115015 -0.000278783 5.63654e-06
-0.000278783 0.000392708 -3.34958e-06
5.63654e-06 -3.34958e-06 0.00013521
0.0047877 0.000177032 2.08883e-05
0.000177032 0.00277683 1.75479e-07
2.08883e-05 1.75479e-07 0.00275781
0.000660459 -0.00011682 2.29563e-05
-0.00011682 8.08861e-05 -1.46895e-05
2.29563e-05 -1.46895e-05 -1.17157e-05
0.00424642 0.000141074 0.000122768
0.000141074 0.00241401 -8.61737e-06
0.000122768 -8.61737e-06 0.00240701
0.00243524 0.000680309 6.63872e-06
0.000680309 0.00105887 3.23026e-07
6.63872e-06 3.23026e-07 0.000631335
0.000726711 0.000291866 -1.78562e-06
0.000291866 4.83528e-05 -3.00287e-06
-1.78562e-06 -3.00287e-06 -0.000185474
0.0003675 0.000172604 4.87949e-06
0.000172604 -0.000135766 2.29685e-06
4.87949e-06 2.29685e-06 -0.000347177
-0.000755507 5.50442e-05 -2.31658e-06
5.50442e-05 -0.000800921 1.32662e-06
-2.31658e-06 1.32662e-06 -0.00100577
0.000327516 0.000145321 5.41871e-07
0.000145321 -6.31995e-05 1.9621e-06
5.41871e-07 1.9621e-06 -0.000294472
0.00102168 0.000130437 -8.05486e-07
0.000130437 0.000355203 -1.23198e-05
-8.05486e-07 -1.23198e-05 0.000151228
0.000211292 7.0757e-05 -3.35333e-06
7.0757e-05 -7.83094e-05 2.39229e-06
-3.35333e-06 2.39229e-06 -0.000318956
0.000604298 9.77519e-05 -2.31297e-08
9.77519e-05 0.000106458 6.42892e-07
-2.31297e-08 6.42892e-07 -6.53862e-05
0.000545286 5.43372e-05 -9.76617e-06
5.43372e-05 3.46699e-05 -1.63883e-05
-9.76617e-06 -1.63883e-05 -3.29088e-05
0.00338324 -0.000107596 -9.27398e-05
-0.000107596 0.00185636 -7.86627e-06
-9.27398e-05 -7.86627e-06 0.00185831
0.000399608 1.94577e-05 1.44828e-06
1.94577e-05 -4.77367e-05 -4.54803e-07
1.44828e-06 -4.54803e-07 -0.000101635
0.000389759 6.26616e-05 -3.04808e-06
6.26616e-05 -2.92019e-05 8.0335e-06
-3.04808e-06 8.0335e-06 -0.000164395
0.00291608 -0.000107689 -8.9924e-06
-0.000107689 0.00155008 8.58796e-07
-8.9924e-06 8.58796e-07 0.00155182
0.000273085 -5.48184e-05 -7.71182e-06
-5.48184e-05 -0.000122282 1.09008e-05
-7.71182e-06 1.09008e-05 -0.000168279
0.00269317 -8.77004e-05 3.75129e-05
-8.77004e-05 0.00140007 5.20583e-06
3.75129e-05 5.20583e-06 0.00140601
0.0154594 0.000677324 0.00054599
0.000677324 0.00170405 0.000132107
0.00054599 0.000132107 0.00160682
-0.000519509 -0.0033923 -0.000621556
-0.0033923 -0.00219207 -9.16678e-05
-0.000621556 -9.16678e-05 -0.00498955
-0.00948069 0.00164522 -0.000238318
0.00164522 0.00503062 -0.000130099
-0.000238318 -0.000130099 -0.00245513
-2.24468e-05 5.41982e-05 1.50286e-05
5.41982e-05 -0.000251538 -1.1019e-05
1.50286e-05 -1.1019e-05 -0.000595697
0.00153803 0.000491651 -8.14084e-06
0.000491651 0.000653864 -1.24548e-06
-8.14084e-06 -1.24548e-06 0.0002978
0.00267491 0.000701871 -1.10418e-05
0.000701871 0.00142582 -2.91337e-06
-1.10418e-05 -2.91337e-06 0.000942025
0.0014213 0.000658855 1.10889e-06
0.000658855 0.000430297 -9.16582e-07
1.10889e-06 -9.16582e-07 -3.78946e-05
0.001534 0.000723705 1.17315e-05
0.000723705 0.000284968 1.98578e-05
1.17315e-05 1.98578e-05 -0.000160584
-0.00055196 0.000520334 3.51176e-05
0.000520334 -0.000788537 9.38528e-06
3.51176e-05 9.38528e-06 -0.00117165
0.000169196 0.000399813 -1.42696e-05
0.000399813 6.11195e-05 9.35367e-06
-1.42696e-05 9.35367e-06 -0.000434482
-0.000206625 0.000633139 7.62565e-06
0.000633139 -0.000649424 -1.68747e-06
7.62565e-06 -1.68747e-06 -0.000999312
0.00223571 0.000892314 1.05042e-05
0.000892314 0.000832295 7.13673e-06
1.05042e-05 7.13673e-06 0.000514733
-6.35078e-05 0.000666808 6.37364e-06
0.000666808 -0.000698526 -6.24638e-06
6.37364e-06 -6.24638e-06 -0.000980513
0.00388552 0.00114689 6.85327e-06
0.00114689 0.00137185 1.31464e-05
6.85327e-06 1.31464e-05 0.00114731
0.0014066 0.000967185 2.23505e-05
0.000967185 4.24126e-05 7.12121e-06
2.23505e-05 7.12121e-06 -0.000281712
0.000596797 0.000853214 4.73185e-06
0.000853214 -0.000451801 -2.74428e-07
4.73185e-06 -2.74428e-07 -0.000530292
0.000852281 0.00059635 -4.71174e-06
0.00059635 0.000192203 -6.06973e-05
-4.71174e-06 -6.06973e-05 -3.49084e-05
0.00463681 0.00199542 2.42965e-05
0.00199542 -0.00213982 3.17735e-05
2.42965e-05 3.17735e-05 -0.000291204
0.0140563 0.00365608 0.000317622
0.00365608 0.000473782 0.000174782
0.000317622 0.000174782 -0.000977615
0.01248 -0.00504993 0.000651608
-0.00504993 0.00607161 -5.01616e-05
0.000651608 -5.01616e-05 0.00207438
0.00586375 0.00582576 0.000648473
0.00582576 -0.00116163 0.000357507
0.000648473 0.000357507 -0.00528261
-0.000180867 0.00149345 -5.31114e-05
0.00149345 3.53768e-05 1.03566e-05
-5.31114e-05 1.03566e-05 0.000709038
0.00379817 0.002756 -0.000103464
0.002756 -0.000836956 -5.4868e-05
-0.000103464 -5.4868e-05 0.000250782
0.00641557 0.00243511 6.54553e-05
0.00243511 0.00114868 3.49162e-05
6.54553e-05 3.49162e-05 0.000913817
0.00472427 0.00178501 2.27359e-05
0.00178501 0.00150693 9.53611e-06
2.27359e-05 9.53611e-06 0.00110172
0.000203712 0.000803012 -2.95143e-05
0.000803012 -0.00027371 3.6235e-06
-2.95143e-05 3.6235e-06 -0.000518191
0.00763522 0.00284597 -0.00019322
0.00284597 0.00207707 -2.07488e-05
-0.00019322 -2.07488e-05 0.00134631
0.00318893 -0.000613746 8.84902e-06
-0.000613746 -0.00106992 2.04651e-05
8.84902e-06 2.04651e-05 -4.18521e-05
0.011681 -0.000594067 -5.42584e-05
-0.000594067 0.000704078 -2.22107e-05
-5.42584e-05 -2.22107e-05 0.000939779
-0.013012 -0.00321695 0.000907555
-0.00321695 -0.00486599 8.37887e-07
0.000907555 8.37887e-07 -0.00643177
0.00112878 -0.00141446 -0.000123288
-0.00141446 -0.000385034 3.8231e-05
-0.000123288 3.8231e-05 -0.000667896
0.00844371 -0.00290493 -2.80115e-05
-0.00290493 -0.000752046 8.63044e-05
-2.80115e-05 8.63044e-05 0.000600938
0.00124936 -0.000316488 -0.000325046
-0.000316488 -0.00553996 4.13442e-05
-0.000325046 4.13442e-05 -0.00692265
0.00310371 -0.00119122 3.5339e-05
-0.00119122 -8.90348e-05 1.3143e-06
3.5339e-05 1.3143e-06 7.22658e-05
0.00524512 -0.000858686 -5.5393e-05
-0.000858686 -0.000758581 2.04303e-06
-5.5393e-05 2.04303e-06 0.000298554
0.00628617 -0.00100887 5.36574e-05
-0.00100887 0.00144717 -3.54723e-05
5.36574e-05 -3.54723e-05 0.00184177
0.00593897 -0.000545854 0.000116954
-0.000545854 0.00125015 -1.62495e-06
0.000116954 -1.62495e-06 0.00162939
-0.00312486 -0.000412725 1.11985e-05
-0.000412725 -0.00292788 1.2352e-05
1.11985e-05 1.2352e-05 -0.0026494
0.00216296 -0.000721441 -7.89204e-06
-0.000721441 -0.000220278 2.26364e-06
-7.89204e-06 2.26364e-06 -4.39298e-05
0.00239699 -0.000546421 2.56879e-05
-0.000546421 -0.000262006 -6.43007e-06
2.56879e-05 -6.43007e-06 2.88636e-05
0.00187341 -0.000822314 1.90395e-06
-0.000822314 -0.000193317 5.35732e-06
1.90395e-06 5.35732e-06 -0.000404346
0.00244076 -0.000685676 1.3022e-06
-0.000685676 -4.23662e-05 1.69444e-06
1.3022e-06 1.69444e-06 -6.39963e-05
0.00248981 -0.000601025 1.47576e-06
-0.000601025 1.89686e-05 -2.37128e-07
1.47576e-06 -2.37128e-07 2.72087e-05
0.00222506 -0.000608863 3.17971e-06
-0.000608863 2.35187e-05 4.96724e-06
3.17971e-06 4.96724e-06 -9.19084e-05
0.00230246 -0.000596336 2.34245e-07
-0.000596336 6.06443e-05 4.31389e-07
2.34245e-07 4.31389e-07 1.59151e-06
0.00230017 -0.000529548 -2.14019e-06
-0.000529548 4.93527e-05 2.64251e-07
-2.14019e-06 2.64251e-07 -8.12789e-06
0.00210916 -0.000547566 3.80074e-06
-0.000547566 5.80737e-05 7.58953e-07
3.80074e-06 7.58953e-07 -7.64193e-05
0.00225881 -0.000580849 -8.67461e-08
-0.000580849 0.000149278 -3.48559e-09
-8.67461e-08 -3.48559e-09 2.54879e-05
0.0021493 -0.000515611 5.73919e-08
-0.000515611 0.000126791 7.41724e-07
5.73919e-08 7.41724e-07 -2.85316e-06
0.00213639 -0.000537779 -1.41147e-06
-0.000537779 0.000154512 9.05078e-07
-1.41147e-06 9.05078e-07 -5.28286e-07
0.00215611 -0.000512437 -1.6884e-06
-0.000512437 0.000224844 1.898e-07
-1.6884e-06 1.898e-07 5.70941e-05
0.00223515 -0.000511631 -2.49441e-06
-0.000511631 0.00029359 -5.74693e-08
-2.49441e-06 -5.74693e-08 0.000106856
0.00212238 -0.000504753 4.61166e-06
-0.000504753 0.000229017 2.03714e-06
4.61166e-06 2.03714e-06 3.40601e-05
0.00207807 -0.000526718 -3.54483e-07
-0.000526718 0.00020717 -6.47471e-08
-3.54483e-07 -6.47471e-08 -9.4411e-06
0.00212409 -0.000523305 -1.19947e-06
-0.000523305 0.000278894 -2.38579e-06
-1.19947e-06 -2.38579e-06 3.95578e-05
0.0017942 -0.000516912 -8.43155e-06
-0.000516912 0.0002183 -9.18918e-07
-8.43155e-06 -9.18918e-07 -8.40079e-05
0.00206692 -0.000583668 -6.95608e-07
-0.000583668 0.000277251 -1.2566e-06
-6.95608e-07 -1.2566e-06 -1.80175e-05
0.00222903 -0.00061522 4.77856e-06
-0.00061522 0.000312636 2.6898e-06
4.77856e-06 2.6898e-06 3.02638e-05
0.00104955 -0.000326529 -1.83466e-05
-0.000326529 5.18194e-05 9.78274e-06
-1.83466e-05 9.78274e-06 -0.000200824
0.00176721 -0.000580055 -2.57835e-07
-0.000580055 0.000311911 9.49029e-07
-2.57835e-07 9.49029e-07 -4.54702e-05
0.00187565 -0.000674535 3.06972e-06
-0.000674535 0.0002648 1.9535e-06
3.06972e-06 1.9535e-06 -0.000112044
0.000278879 -0.000200665 -1.82335e-05
-0.000200665 -0.000213325 2.12932e-05
-1.82335e-05 2.12932e-05 -0.000353086
0.000794781 -0.000285613 1.51743e-06
-0.000285613 3.48337e-06 -1.16565e-07
1.51743e-06 -1.16565e-07 -0.000242267
0.00150182 -0.000547501 1.23816e-05
-0.000547501 0.000307 -2.25897e-06
1.23816e-05 -2.25897e-06 -5.81159e-05
0.00649396 7.51859e-05 -0.000239548
7.51859e-05 0.00380976 1.57119e-05
-0.000239548 1.57119e-05 0.00381175
0.000351195 -0.000202279 -1.80255e-06
-0.000202279 -0.000142987 -3.52899e-07
-1.80255e-06 -3.52899e-07 -0.000273408
0.000608285 -0.000239255 9.60169e-06
-0.000239255 -1.92312e-05 -6.72278e-06
9.60169e-06 -6.72278e-06 -0.000255073
0.0058586 0.000111804 -8.72804e-06
0.000111804 0.00343796 -2.04461e-06
-8.72804e-06 -2.04461e-06 0.0034302
0.000409503 -0.000167774 2.08594e-05
-0.000167774 -9.05424e-05 -1.74001e-05
2.08594e-05 -1.74001e-05 -0.000205554
0.00521726 0.000115721 0.000189914
0.000115721 0.0030424 -1.87179e-05
0.000189914 -1.87179e-05 0.00303509
0.00188724 0.000684642 -4.72398e-06
0.000684642 0.000548005 4.57271e-06
-4.72398e-06 4.57271e-06 0.000123963
0.00183529 0.000607767 -1.52496e-06
0.000607767 0.000660282 -1.39725e-06
-1.52496e-06 -1.39725e-06 0.000256551
0.000992937 0.000369611 -1.44757e-06
0.000369611 0.000157742 -2.75799e-06
-1.44757e-06 -2.75799e-06 -0.000141316
0.0013403 0.000387151 -9.10354e-06
0.000387151 0.000477686 -2.75036e-06
-9.10354e-06 -2.75036e-06 0.000205921
0.000374492 0.000193058 1.80647e-06
0.000193058 -0.000112083 -4.85143e-07
1.80647e-06 -4.85143e-07 -0.000336809
0.000781878 0.00024169 -3.03276e-06
0.00024169 0.000191167 -7.17905e-06
-3.03276e-06 -7.17905e-06 -4.79776e-05
7.88858e-05 9.13013e-05 -2.15453e-07
9.13013e-05 -0.000235311 3.18288e-06
-2.15453e-07 3.18288e-06 -0.000454053
0.000635342 0.000144081 1.00704e-06
0.000144081 0.000134279 -5.77291e-07
1.00704e-06 -5.77291e-07 -8.29858e-05
0.000702194 9.54287e-05 -1.76639e-05
9.54287e-05 0.00011924 -1.82428e-05
-1.76639e-05 -1.82428e-05 3.38213e-05
0.000199766 6.86423e-05 -2.85003e-06
6.86423e-05 -0.000124087 1.08806e-05
-2.85003e-06 1.08806e-05 -0.000305899
0.00052299 6.1457e-05 2.17421e-07
6.1457e-05 2.57624e-05 -1.70416e-07
2.17421e-07 -1.70416e-07 -4.07248e-05
0.0040947 -0.000131629 -0.000119292
-0.000131629 0.00232354 -1.0672e-05
-0.000119292 -1.0672e-05 0.0023179
0.00337876 -0.000131492 -1.19877e-05
-0.000131492 0.00185698 1.03859e-06
-1.19877e-05 1.03859e-06 0.00185254
0.000367021 4.91689e-05 6.68814e-06
4.91689e-05 -6.72188e-05 1.37374e-05
6.68814e-06 1.37374e-05 -0.000119858
0.00293424 -0.000110197 4.58605e-05
-0.000110197 0.00156197 5.39089e-06
4.58605e-05 5.39089e-06 0.00156292
0.0038339 0.000204818 9.35687e-05
0.000204818 -0.00147666 3.13066e-05
9.35687e-05 3.13066e-05 0.000213796
0.00565606 -0.000912536 0.000204033
-0.000912536 -0.00475467 9.66288e-05
0.000204033 9.66288e-05 -0.00555378
0.013686 -0.00369077 -0.000254574
-0.00369077 0.00584699 -0.000111446
-0.000254574 -0.000111446 0.00382904
0.00156252 0.000697332 5.67629e-06
0.000697332 9.71502e-05 9.46932e-06
5.67629e-06 9.46932e-06 -0.000278025
0.00480938 0.000921 -1.41223e-05
0.000921 0.00263332 -2.12694e-06
-1.41223e-05 -2.12694e-06 0.00212097
0.000583825 0.000547895 -1.06331e-05
0.000547895 -7.35e-05 -7.09022e-06
-1.06331e-05 -7.09022e-06 -0.000511749
0.00153601 0.00077805 1.29839e-06
0.00077805 0.000463394 -3.4217e-06
1.29839e-06 -3.4217e-06 2.1932e-05
0.00177557 0.000752544 -1.66433e-06
0.000752544 0.000456195 3.81765e-06
-1.66433e-06 3.81765e-06 -2.67324e-06
0.00159517 0.000814984 2.22566e-05
0.000814984 0.000280876 1.32312e-05
2.22566e-05 1.32312e-05 -0.000113416
0.00253797 0.000933154 -4.46943e-05
0.000933154 0.00100017 -2.74618e-06
-4.46943e-05 -2.74618e-06 0.00057086
0.000521193 0.000692399 1.50128e-05
0.000692399 -0.000120722 -3.6808e-05
1.50128e-05 -3.6808e-05 -0.000416592
0.00197124 0.000946004 4.2122e-07
0.000946004 0.000457122 -1.64698e-06
4.2122e-07 -1.64698e-06 0.000113599
0.00229807 0.000981421 9.58132e-06
0.000981421 0.000404986 -3.58456e-06
9.58132e-06 -3.58456e-06 0.000328637
0.00229949 0.000992454 1.7103e-05
0.000992454 0.000365833 -3.47127e-06
1.7103e-05 -3.47127e-06 1.19553e-05
0.00194707 0.000838874 2.6195e-05
0.000838874 0.000249055 2.40439e-05
2.6195e-05 2.40439e-05 4.69684e-05
0.000743267 0.000889969 -7.52316e-06
0.000889969 -0.000312165 -6.32136e-06
-7.52316e-06 -6.32136e-06 -0.000603784
0.000366847 0.000819762 -2.16915e-05
0.000819762 -0.000559477 -2.53684e-05
-2.16915e-05 -2.53684e-05 -0.000625228
0.00156472 0.000897111 5.45621e-05
0.000897111 -0.00115223 3.71627e-05
5.45621e-05 3.71627e-05 -0.00066767
0.0061252 0.00209238 -9.78599e-05
0.00209238 -0.0015253 -3.01495e-05
-9.78599e-05 -3.01495e-05 0.000220527
0.0043756 0.00249503 0.000619481
0.00249503 -0.00506925 0.000149924
0.000619481 0.000149924 -0.00655549
0.00251442 0.00225325 -0.000204241
0.00225325 -0.000599762 -8.38003e-05
-0.000204241 -8.38003e-05 0.000305095
0.00485255 0.00198324 -3.09161e-05
0.00198324 0.000788366 -9.5635e-06
-3.09161e-05 -9.5635e-06 0.000649112
0.00549049 0.00190996 -0.000160709
0.00190996 0.00178503 -4.95176e-05
-0.000160709 -4.95176e-05 0.00135922
0.00302689 -0.000244068 -5.3579e-05
-0.000244068 -0.000536216 -1.80954e-05
-5.3579e-05 -1.80954e-05 -9.79532e-05
-0.000646973 -0.000345356 0.000100007
-0.000345356 -0.00157742 2.2578e-05
0.000100007 2.2578e-05 -0.000384515
0.00414632 0.000733055 0.000253404
0.000733055 -0.00536318 -1.88716e-05
0.000253404 -1.88716e-05 -0.00554525
0.000597421 -0.000899989 -5.60304e-05
-0.000899989 -0.00133991 7.78178e-05
-5.60304e-05 7.78178e-05 -0.000975741
0.00687934 -0.000965001 -0.00018117
-0.000965001 0.000156982 5.36413e-05
-0.00018117 5.36413e-05 0.000740267
0.00275391 -0.000748041 -2.38446e-05
-0.000748041 -0.000509659 1.1827e-05
-2.38446e-05 1.1827e-05 -7.27107e-06
0.00445256 -0.000536842 -1.09253e-05
-0.000536842 0.000445677 -2.8456e-06
-1.09253e-05 -2.8456e-06 0.000727582
0.00306652 -0.00041356 6.97882e-05
-0.00041356 2.94536e-05 -1.04633e-05
6.97882e-05 -1.04633e-05 0.000393985
0.00381234 -0.000117728 5.32857e-05
-0.000117728 0.00106106 6.58704e-07
5.32857e-05 6.58704e-07 0.00110341
0.000436506 -0.00056681 -2.13315e-05
-0.00056681 -0.00118335 1.2965e-05
-2.13315e-05 1.2965e-05 -0.000888284
0.00229662 -0.000568625 -2.85449e-06
-0.000568625 -0.000335731 1.11749e-06
-2.85449e-06 1.11749e-06 -6.24618e-05
0.00249319 -0.000469058 4.00848e-06
-0.000469058 -0.000202497 -1.25336e-06
4.00848e-06 -1.25336e-06 2.50645e-05
0.00236182 -0.000674771 -1.47848e-06
-0.000674771 -7.46498e-05 3.03777e-06
-1.47848e-06 3.03777e-06 -9.429e-05
0.00246782 -0.000584867 -1.65426e-09
-0.000584867 2.84857e-05 -5.18632e-07
-1.65426e-09 -5.18632e-07 4.37934e-05
0.002356 -0.000457622 -1.07576e-06
-0.000457622 -3.24289e-05 -1.40935e-07
-1.07576e-06 -1.40935e-07 -8.78322e-06
0.00226056 -0.000588181 -1.25319e-07
-0.000588181 5.10249e-05 5.87666e-07
-1.25319e-07 5.87666e-07 -1.14399e-05
0.00228927 -0.000533847 -8.35172e-07
-0.000533847 5.42834e-05 6.41737e-08
-8.35172e-07 6.41737e-08 -2.59539e-06
0.00218234 -0.000449697 -1.34313e-06
-0.000449697 6.31083e-05 9.92674e-07
-1.34313e-06 9.92674e-07 -9.75263e-06
0.00223749 -0.000574612 3.94406e-07
-0.000574612 0.000162708 -1.5053e-06
3.94406e-07 -1.5053e-06 3.72368e-05
0.00213362 -0.000515854 9.7505e-07
-0.000515854 0.000113876 -4.45891e-07
9.7505e-07 -4.45891e-07 -1.61741e-05
0.00211748 -0.000474754 -1.38766e-06
-0.000474754 0.000157122 4.46948e-07
-1.38766e-06 4.46948e-07 5.64031e-06
0.00208871 -0.000503227 -1.25484e-06
-0.000503227 0.000179361 8.609e-07
-1.25484e-06 8.609e-07 1.47792e-05
0.00216934 -0.000505339 -1.61628e-06
-0.000505339 0.000244496 6.38199e-07
-1.61628e-06 6.38199e-07 6.15376e-05
0.00220397 -0.000497228 -1.41028e-06
-0.000497228 0.000288273 -1.72538e-06
-1.41028e-06 -1.72538e-06 8.42101e-05
0.00211266 -0.000529243 3.1164e-06
-0.000529243 0.000227257 2.45743e-06
3.1164e-06 2.45743e-06 1.0103e-05
0.00212734 -0.00052551 2.54547e-07
-0.00052551 0.000281097 -3.55093e-07
2.54547e-07 -3.55093e-07 4.25244e-05
0.00191856 -0.000461708 -5.91448e-06
-0.000461708 0.000256668 3.42591e-07
-5.91448e-06 3.42591e-07 -3.68138e-06
0.00113896 -0.000327885 -2.05144e-05
-0.000327885 3.52599e-05 8.79354e-06
-2.05144e-05 8.79354e-06 -0.000211351
0.00180903 -0.000516359 -1.04982e-06
-0.000516359 0.000235494 -6.79878e-07
-1.04982e-06 -6.79878e-07 -6.96153e-05
0.00199187 -0.00058351 2.30591e-06
-0.00058351 0.000227967 1.36812e-06
2.30591e-06 1.36812e-06 -7.35149e-05
0.000383732 -0.000243071 -2.29886e-05
-0.000243071 -0.00015902 1.9647e-05
-2.29886e-05 1.9647e-05 -0.000312969
0.000948351 -0.000321832 2.11691e-06
-0.000321832 -1.6297e-05 4.19991e-08
2.11691e-06 4.19991e-08 -0.000270143
0.00181497 -0.000577645 9.99438e-06
-0.000577645 0.00035034 -5.07572e-07
9.99438e-06 -5.07572e-07 -4.08529e-06
0.00718958 2.98324e-05 -0.000282202
2.98324e-05 0.0042235 2.09674e-05
-0.000282202 2.09674e-05 0.00423051
0.000375732 -0.00025314 -9.98748e-07
-0.00025314 -0.000142185 1.2159e-06
-9.98748e-07 1.2159e-06 -0.000293725
0.000664998 -0.000289205 1.23399e-05
-0.000289205 -8.62039e-05 -7.76162e-06
1.23399e-05 -7.76162e-06 -0.000336769
0.0066988 5.99081e-05 -4.61053e-06
5.99081e-05 0.00394105 -1.66543e-07
-4.61053e-06 -1.66543e-07 0.00394138
0.0006273 -0.000251092 2.60511e-05
-0.000251092 2.76148e-05 -2.05615e-05
2.60511e-05 -2.05615e-05 -0.000105381
0.00612518 0.00012401 0.000219686
0.00012401 0.00362282 -2.66608e-05
0.000219686 -2.66608e-05 0.00360558
0.0016246 0.000636468 -2.4088e-06
0.000636468 0.000203368 6.44541e-06
-2.4088e-06 6.44541e-06 -0.000171324
0.00176382 0.000676792 -1.59285e-06
0.000676792 0.000460139 6.20562e-07
-1.59285e-06 6.20562e-07 3.54605e-05
0.00127959 0.000483131 -8.0188e-06
0.000483131 0.000207678 -1.10514e-07
-8.0188e-06 -1.10514e-07 -0.000129557
0.00123984 0.000538657 -6.29175e-06
0.000538657 0.000252697 -1.98476e-06
-6.29175e-06 -1.98476e-06 -0.000127571
0.00111111 0.000360336 -4.07949e-06
0.000360336 0.00021675 -1.99433e-06
-4.07949e-06 -1.99433e-06 -7.37533e-05
0.00105564 0.000251057 -9.61508e-06
0.000251057 0.000295021 -3.06792e-06
-9.61508e-06 -3.06792e-06 5.89467e-05
0.000173139 0.000166915 -3.35584e-06
0.000166915 -0.000248601 -1.10695e-06
-3.35584e-06 -1.10695e-06 -0.000470957
0.000807043 0.000177369 -4.19848e-07
0.000177369 0.000184321 -1.02474e-07
-4.19848e-07 -1.02474e-07 -3.77996e-05
0.000504011 0.000142993 -2.59551e-05
0.000142993 -3.25986e-05 -1.79651e-05
-2.59551e-05 -1.79651e-05 -0.000127622
0.000448385 0.000112514 8.95407e-07
0.000112514 3.98814e-06 1.14096e-05
8.95407e-07 1.14096e-05 -0.00019931
0.000464854 8.83755e-05 -9.66297e-07
8.83755e-05 -2.38845e-05 -3.04654e-07
-9.66297e-07 -3.04654e-07 -0.000103871
0.00469531 -0.000153787 -0.000144413
-0.000153787 0.00272079 -1.43293e-05
-0.000144413 -1.43293e-05 0.0027061
0.000292875 6.56472e-05 1.04809e-05
6.56472e-05 -0.000113662 1.61197e-05
1.04809e-05 1.61197e-05 -0.000177604
0.00386696 -0.00015082 -1.12881e-05
-0.00015082 0.00218341 1.20746e-06
-1.12881e-05 1.20746e-06 0.00217244
0.00321623 -0.000137526 5.44893e-05
-0.000137526 0.00175328 6.05947e-06
5.44893e-05 6.05947e-06 0.00174671
0.000757569 0.000196795 -3.64233e-06
0.000196795 -0.00185104 8.86093e-06
-3.64233e-06 8.86093e-06 -0.00102553
0.00500175 9.64281e-05 6.76779e-05
9.64281e-05 -0.000967923 2.15813e-05
6.76779e-05 2.15813e-05 0.000631471
0.015013 0.000844765 -3.1729e-06
0.000844765 0.00197851 2.57419e-05
-3.1729e-06 2.57419e-05 0.00198213
0.00199292 0.000810142 -9.3365e-07
0.000810142 0.000322793 5.7179e-06
-9.3365e-07 5.7179e-06 -4.31194e-05
0.00220663 0.000768845 4.49342e-07
0.000768845 0.000293606 4.46456e-06
4.49342e-07 4.46456e-06 -3.12972e-05
0.00158149 0.000701235 -5.95273e-07
0.000701235 0.000119636 -4.08591e-06
-5.95273e-07 -4.08591e-06 -0.000251983
0.00291967 0.000952465 -1.56989e-05
0.000952465 0.00128017 1.02385e-06
-1.56989e-05 1.02385e-06 0.000805315
0.00209925 0.000789603 -5.57545e-06
0.000789603 0.000679697 -1.01506e-05
-5.57545e-06 -1.01506e-05 0.000205138
0.00212976 0.000903322 7.70606e-06
0.000903322 0.000551342 3.91663e-06
7.70606e-06 3.91663e-06 0.00014598
0.0021496 0.00090586 -1.88167e-06
0.00090586 0.000196456 -3.16615e-06
-1.88167e-06 -3.16615e-06 -0.000136546
0.00229829 0.00101196 -1.65572e-05
0.00101196 0.000590938 5.51426e-06
-1.65572e-05 5.51426e-06 0.000241956
0.000879506 0.000833292 -1.7728e-05
0.000833292 -0.000467476 2.11868e-05
-1.7728e-05 2.11868e-05 -0.000406697
0.00278834 0.0010523 5.27207e-07
0.0010523 0.00064681 3.37926e-06
5.27207e-07 3.37926e-06 0.00028295
0.00279925 0.000899836 -4.45954e-06
0.000899836 0.000427963 4.70394e-06
-4.45954e-06 4.70394e-06 0.000189632
0.00136817 0.000427587 4.32573e-05
0.000427587 -0.000275694 1.58054e-05
4.32573e-05 1.58054e-05 -0.00019183
0.000387654 0.000690737 8.84847e-06
0.000690737 -0.000568465 -4.94365e-06
8.84847e-06 -4.94365e-06 -0.000753241
0.00106191 0.000925219 -3.56553e-05
0.000925219 -0.000139607 -4.69402e-06
-3.56553e-05 -4.69402e-06 -0.000441525
0.00327492 0.00104684 1.223e-05
0.00104684 -0.000202169 9.46104e-06
1.223e-05 9.46104e-06 0.000130684
0.00768712 0.00177142 -3.92998e-05
0.00177142 -0.000738202 -4.27759e-05
-3.92998e-05 -4.27759e-05 0.00061691
0.00475776 0.00167764 -5.23218e-05
0.00167764 0.00118821 -6.46467e-05
-5.23218e-05 -6.46467e-05 0.00111496
0.00263616 -9.98691e-05 4.74285e-05
-9.98691e-05 0.000168227 5.45295e-06
4.74285e-05 5.45295e-06 0.000378096
0.00289608 -0.000238144 -7.04401e-05
-0.000238144 -0.000614283 4.66872e-06
-7.04401e-05 4.66872e-06 -9.15418e-05
0.00450982 0.000433277 2.3658e-05
0.000433277 -0.00017395 -2.19151e-05
2.3658e-05 -2.19151e-05 0.000685227
0.000813562 -0.000628863 -7.3715e-05
-0.000628863 -0.0015661 5.45166e-05
-7.3715e-05 5.45166e-05 -0.00101938
0.00271182 -0.000574425 -0.000100259
-0.000574425 -0.00049547 1.43766e-06
-0.000100259 1.43766e-06 -0.000306768
0.00275924 -0.000404165 8.17336e-06
-0.000404165 -8.39509e-05 -2.60871e-06
8.17336e-06 -2.60871e-06 0.000305444
0.00258496 -0.000107173 -1.78936e-05
-0.000107173 0.000250473 8.06782e-07
-1.78936e-05 8.06782e-07 0.000322012
0.0025629 -0.000262101 1.50056e-05
-0.000262101 -3.49705e-05 -1.46935e-06
1.50056e-05 -1.46935e-06 0.000136871
0.00236258 1.99517e-05 1.06905e-05
1.99517e-05 -0.00013829 2.21559e-06
1.06905e-05 2.21559e-06 -4.56455e-05
0.00234582 -0.000600469 -1.92379e-05
-0.000600469 -0.000322067 5.37638e-06
-1.92379e-05 5.37638e-06 -7.39743e-05
0.00251912 -0.000488017 -2.65587e-06
-0.000488017 -0.000187294 8.10023e-07
-2.65587e-06 8.10023e-07 1.61797e-06
0.00242862 -0.000337998 -4.75689e-07
-0.000337998 -0.000108023 -7.45388e-07
-4.75689e-07 -7.45388e-07 3.47854e-06
0.00244404 -0.000569587 -3.44789e-06
-0.000569587 3.34818e-05 5.70951e-07
-3.44789e-06 5.70951e-07 5.57372e-05
0.00236726 -0.000455752 5.21023e-08
-0.000455752 -1.27207e-05 -1.97554e-07
5.21023e-08 -1.97554e-07 6.11787e-06
0.00226647 -0.000376399 -5.6038e-07
-0.000376399 8.80122e-06 4.14608e-07
-5.6038e-07 4.14608e-07 4.01226e-06
0.00228189 -0.000538566 -3.89108e-07
-0.000538566 6.07489e-05 -8.28501e-07
-3.89108e-07 -8.28501e-07 4.06052e-06
0.00219076 -0.000449359 4.64485e-07
-0.000449359 6.37476e-05 -1.01295e-07
4.64485e-07 -1.01295e-07 -8.99067e-06
0.00213503 -0.000408257 -2.51074e-06
-0.000408257 9.84851e-05 1.08047e-06
-2.51074e-06 1.08047e-06 2.75639e-07
0.00212001 -0.000516148 2.32188e-06
-0.000516148 0.00010222 -1.54755e-06
2.32188e-06 -1.54755e-06 -2.82278e-05
0.00208555 -0.00047224 7.39202e-07
-0.00047224 0.000132596 -4.35619e-07
7.39202e-07 -4.35619e-07 -1.89007e-05
0.00207375 -0.000443534 -1.67226e-06
-0.000443534 0.000163904 -9.4875e-07
-1.67226e-06 -9.4875e-07 -7.7045e-06
0.00209997 -0.000498951 -3.19975e-07
-0.000498951 0.0001929 1.48149e-06
-3.19975e-07 1.48149e-06 1.37126e-05
0.00217085 -0.000496068 -3.61473e-07
-0.000496068 0.000268305 -1.61316e-07
-3.61473e-07 -1.61316e-07 6.47547e-05
0.00191344 -0.000427306 -4.59902e-06
-0.000427306 0.000203848 2.01522e-07
-4.59902e-06 2.01522e-07 -2.86755e-05
0.0021283 -0.000527519 2.22705e-06
-0.000527519 0.000281899 2.27076e-06
2.22705e-06 2.27076e-06 4.41167e-05
0.00195663 -0.000466685 -8.0975e-07
-0.000466685 0.000280259 -1.81915e-08
-8.0975e-07 -1.81915e-08 2.08794e-05
0.00114813 -0.000289432 -1.80311e-05
-0.000289432 7.39292e-07 8.15106e-06
-1.80311e-05 8.15106e-06 -0.000223565
0.000251162 -0.000205355 -1.91842e-05
-0.000205355 -0.00026188 1.85449e-05
-1.91842e-05 1.85449e-05 -0.000404939
0.00111133 -0.000325547 4.55026e-07
-0.000325547 1.85748e-05 -4.80835e-08
4.55026e-07 -4.80835e-08 -0.000227365
0.00182214 -0.000516271 6.34831e-06
-0.000516271 0.000250096 -9.91063e-07
6.34831e-06 -9.91063e-07 -5.79958e-05
0.00755836 -5.88128e-05 -0.000326272
-5.88128e-05 0.00442986 2.59213e-05
-0.000326272 2.59213e-05 0.00444573
0.000333973 -0.000237628 -9.16987e-07
-0.000237628 -0.000199934 1.42493e-06
-9.16987e-07 1.42493e-06 -0.000348163
0.00085545 -0.000316998 1.71865e-05
-0.000316998 -7.77628e-05 -7.73703e-06
1.71865e-05 -7.73703e-06 -0.000332743
0.00741112 -5.11729e-06 -1.18687e-06
-5.11729e-06 0.0043596 9.25689e-07
-1.18687e-06 9.25689e-07 0.00436851
0.000450637 -0.000255608 2.41931e-05
-0.000255608 -0.000101329 -2.11502e-05
2.41931e-05 -2.11502e-05 -0.000252995
0.00702945 1.78028e-05 0.00029206
1.78028e-05 0.00413972 -2.76078e-05
0.00029206 -2.76078e-05 0.00414511
0.00192981 0.000690007 -1.40216e-07
0.000690007 0.000244059 6.81558e-06
-1.40216e-07 6.81558e-06 -9.71745e-05
0.00170967 0.000650999 -6.93642e-09
0.000650999 0.000261254 7.19474e-07
-6.93642e-09 7.19474e-07 -0.000114478
0.00166167 0.000549812 -8.17055e-06
0.000549812 0.000322343 1.54119e-06
-8.17055e-06 1.54119e-06 -2.21442e-05
0.00153888 0.000654211 9.28414e-07
0.000654211 0.000314744 -3.4544e-06
9.28414e-07 -3.4544e-06 -0.000106384
0.00133965 0.000484215 -8.63436e-07
0.000484215 0.000251015 1.65022e-07
-8.63436e-07 1.65022e-07 -8.56399e-05
0.00102614 0.000269284 -1.28121e-05
0.000269284 0.000179834 -4.30465e-06
-1.28121e-05 -4.30465e-06 -5.16004e-05
0.00138842 0.000362511 1.90784e-06
0.000362511 0.000384471 -8.83381e-07
1.90784e-06 -8.83381e-07 9.99559e-05
0.000526162 0.000206662 9.92403e-07
0.000206662 -4.07531e-05 8.51326e-07
9.92403e-07 8.51326e-07 -0.000268647
0.000447286 0.000210831 -2.93081e-05
0.000210831 -8.33649e-05 -1.9922e-05
-2.93081e-05 -1.9922e-05 -0.00019685
0.000350634 0.00012958 1.63032e-06
0.00012958 -9.27655e-05 7.07395e-06
1.63032e-06 7.07395e-06 -0.000320386
0.000547694 0.000125018 -2.96744e-07
0.000125018 4.19115e-07 -6.82565e-07
-2.96744e-07 -6.82565e-07 -9.39413e-05
0.00572145 -0.000173008 -0.000187443
-0.000173008 0.00338741 -2.03708e-05
-0.000187443 -2.03708e-05 0.00336233
0.000403053 8.32142e-05 1.53217e-05
8.32142e-05 -5.65441e-05 1.85101e-05
1.53217e-05 1.85101e-05 -0.000135032
0.00455502 -0.000180776 -1.14866e-05
-0.000180776 0.00263921 1.39618e-06
-1.14866e-05 1.39618e-06 0.00261775
0.00371832 -0.000165757 7.66078e-05
-0.000165757 0.00209163 7.64784e-06
7.66078e-05 7.64784e-06 0.00207618
0.0015544 0.000206957 3.45884e-05
0.000206957 -0.000354756 1.82744e-05
3.45884e-05 1.82744e-05 -8.82021e-05
0.00254281 0.000258964 -2.5269e-05
0.000258964 -0.00121915 -2.21232e-06
-2.5269e-05 -2.21232e-06 -0.000326105
0.00444867 0.000387988 0.000236907
0.000387988 -0.00171812 7.15724e-05
0.000236907 7.15724e-05 0.000324663
0.00256445 0.000819983 -8.00293e-06
0.000819983 0.000454849 4.85852e-07
-8.00293e-06 4.85852e-07 0.000144595
0.00190017 0.000824355 -7.29557e-06
0.000824355 0.000246533 -5.38473e-06
-7.29557e-06 -5.38473e-06 -0.000116557
0.00225657 0.000621451 2.01661e-06
0.000621451 0.000199326 4.82023e-06
2.01661e-06 4.82023e-06 -3.61403e-05
0.00223479 0.000761048 1.50792e-06
0.000761048 0.00031475 5.08576e-07
1.50792e-06 5.08576e-07 -7.83706e-06
0.00156231 0.000701403 4.40352e-06
0.000701403 0.000117234 -1.20525e-05
4.40352e-06 -1.20525e-05 -0.000250015
0.0023494 0.000702454 -2.46162e-06
0.000702454 0.000120142 9.40694e-07
-2.46162e-06 9.40694e-07 -8.11093e-05
0.00274143 0.00100046 -7.65139e-06
0.00100046 0.000869357 -4.42407e-06
-7.65139e-06 -4.42407e-06 0.000449499
0.00251393 0.000920815 1.15289e-06
0.000920815 0.000420828 2.37239e-07
1.15289e-06 2.37239e-07 8.08202e-05
0.00213359 0.000452541 -1.45125e-05
0.000452541 -0.000184084 -1.10191e-06
-1.45125e-05 -1.10191e-06 -0.000157655
0.00345468 0.0011416 -6.4691e-06
0.0011416 0.00101032 8.01513e-06
-6.4691e-06 8.01513e-06 0.000640095
0.0025811 0.000879931 3.02673e-08
0.000879931 0.000306712 -6.56942e-07
3.02673e-08 -6.56942e-07 6.67078e-05
0.000684025 0.000420792 -3.21945e-06
0.000420792 -0.000673813 1.63858e-06
-3.21945e-06 1.63858e-06 -0.000565255
-0.00139931 0.000516774 -2.51425e-05
0.000516774 -0.00149296 -1.10344e-05
-2.51425e-05 -1.10344e-05 -0.00164465
0.00381482 0.00115415 -0.00013496
0.00115415 7.69147e-05 -4.49494e-05
-0.00013496 -4.49494e-05 0.000288633
0.00230453 0.000125386 -1.73717e-06
0.000125386 -0.000178735 -1.1512e-06
-1.73717e-06 -1.1512e-06 -5.8725e-05
0.0028164 -8.1934e-05 -7.65635e-08
-8.1934e-05 0.000386309 -5.38441e-07
-7.65635e-08 -5.38441e-07 0.000522753
0.0026908 -0.000270104 -0.00010286
-0.000270104 -0.000726835 5.45334e-07
-0.00010286 5.45334e-07 -0.000137911
0.00198675 -0.000380394 -7.54456e-05
-0.000380394 -0.000477285 8.32738e-06
-7.54456e-05 8.32738e-06 -6.53816e-05
0.00150749 -0.000113746 -1.70092e-05
-0.000113746 -0.000462657 1.52663e-06
-1.70092e-05 1.52663e-06 -0.00036501
0.00252335 -0.00026672 1.97994e-06
-0.00026672 -8.17122e-05 -1.83176e-06
1.97994e-06 -1.83176e-06 0.000116898
0.00246826 2.59594e-05 -2.87209e-06
2.59594e-05 -9.70989e-05 4.53658e-08
-2.87209e-06 4.53658e-08 -4.64736e-06
0.00245716 -7.7406e-05 -1.31119e-07
-7.7406e-05 -0.000112462 -9.38237e-07
-1.31119e-07 -9.38237e-07 1.65625e-05
0.00253745 -0.00050368 -4.64121e-06
-0.00050368 -0.000169387 6.15876e-07
-4.64121e-06 6.15876e-07 -1.97953e-05
0.00237606 -0.00032539 3.62455e-07
-0.00032539 -0.00012233 -2.1122e-07
3.62455e-07 -2.1122e-07 -1.92727e-05
0.00230953 -0.000249307 3.74871e-07
-0.000249307 -3.18639e-05 -2.33016e-07
3.74871e-07 -2.33016e-07 3.21664e-05
0.00237909 -0.000454136 -1.81473e-08
-0.000454136 8.16614e-06 1.19905e-07
-1.81473e-08 1.19905e-07 2.193e-05
0.0022572 -0.000372875 1.23748e-07
-0.000372875 6.51005e-06 2.09496e-07
1.23748e-07 2.09496e-07 4.99011e-07
0.00214921 -0.000315137 -2.69831e-06
-0.000315137 4.65921e-05 9.31833e-07
-2.69831e-06 9.31833e-07 8.18937e-06
0.00219889 -0.000448946 2.00702e-06
-0.000448946 6.40367e-05 -1.09201e-06
2.00702e-06 -1.09201e-06 -8.57389e-06
0.0021322 -0.000408162 6.00382e-07
-0.000408162 9.33088e-05 -1.81056e-07
6.00382e-07 -1.81056e-07 -5.1993e-06
0.00213468 -0.000381858 -2.41666e-06
-0.000381858 0.000159216 9.84993e-08
-2.41666e-06 9.84993e-08 2.53453e-05
0.00205249 -0.000469719 2.30158e-06
-0.000469719 0.000107371 -1.0917e-06
2.30158e-06 -1.0917e-06 -4.41362e-05
0.00209923 -0.000445337 -2.27629e-07
-0.000445337 0.000179872 -2.1963e-07
-2.27629e-07 -2.1963e-07 7.64575e-06
0.00196022 -0.000386874 -2.82435e-06
-0.000386874 0.000183494 -3.01631e-07
-2.82435e-06 -3.01631e-07 -1.88966e-05
0.00213849 -0.000494799 1.1162e-06
-0.000494799 0.000248637 1.35657e-06
1.1162e-06 1.35657e-06 4.56812e-05
0.00193487 -0.000428727 -6.25277e-07
-0.000428727 0.000218732 2.01089e-07
-6.25277e-07 2.01089e-07 -1.36047e-05
0.00115848 -0.000254656 -1.45187e-05
-0.000254656 -1.44593e-05 6.80419e-06
-1.45187e-05 6.80419e-06 -0.000221269
0.00199733 -0.000471737 5.04446e-06
-0.000471737 0.000305725 -1.18634e-07
5.04446e-06 -1.18634e-07 4.73364e-05
0.00117785 -0.000290549 1.01383e-07
-0.000290549 1.57994e-05 1.36495e-07
1.01383e-07 1.36495e-07 -0.00020775
0.00281362 -0.000201504 -5.25227e-05
-0.000201504 0.0013354 1.34888e-05
-5.25227e-05 1.34888e-05 0.00122341
0.00245123 -0.000116673 -0.000279334
-0.000116673 0.00119962 3.93775e-05
-0.000279334 3.93775e-05 0.00118163
0.00160442 -0.000220461 -1.51626e-05
-0.000220461 0.000587152 -1.4181e-08
-1.51626e-05 -1.4181e-08 0.000454381
0.00111561 -0.000324591 1.94788e-05
-0.000324591 2.50049e-05 -8.19147e-06
1.94788e-05 -8.19147e-06 -0.000220278
0.00754882 -7.48102e-05 -8.38779e-06
-7.48102e-05 0.00443276 1.70612e-06
-8.38779e-06 1.70612e-06 0.00444491
0.000238975 -0.000263813 2.54914e-05
-0.000263813 -0.00025696 -1.98402e-05
2.54914e-05 -1.98402e-05 -0.000408108
0.00757278 -2.48402e-05 0.000316774
-2.48402e-05 0.00446656 -3.16681e-05
0.000316774 -3.16681e-05 0.00447184
0.00212127 0.000474318 -1.36635e-07
0.000474318 0.000112981 7.70605e-07
-1.36635e-07 7.70605e-07 -5.91669e-05
0.00220175 0.000627682 3.36335e-06
0.000627682 0.000308349 6.1071e-06
3.36335e-06 6.1071e-06 3.60178e-05
0.00219176 0.000710359 4.85332e-07
0.000710359 0.000403202 1.53273e-07
4.85332e-07 1.53273e-07 6.24763e-05
0.00187745 0.000577986 -7.90773e-06
0.000577986 0.00034076 2.29526e-06
-7.90773e-06 2.29526e-06 1.04249e-05
0.00182199 0.00067008 5.97739e-06
0.00067008 0.000332433 -4.42752e-06
5.97739e-06 -4.42752e-06 -4.57506e-05
0.00161942 0.000551043 -3.09624e-07
0.000551043 0.000286176 7.96399e-07
-3.09624e-07 7.96399e-07 -6.08881e-05
0.000753945 0.00029387 -1.78594e-05
0.00029387 -9.45131e-05 -5.25669e-06
-1.78594e-05 -5.25669e-06 -0.000333663
0.00135001 0.000483108 8.30677e-06
0.000483108 0.000257906 1.29719e-06
8.30677e-06 1.29719e-06 -7.82412e-05
0.000662423 0.000249173 7.37207e-07
0.000249173 -4.32474e-05 5.84453e-08
7.37207e-07 5.84453e-08 -0.000269394
0.00054033 0.000277018 -2.93683e-05
0.000277018 -3.69002e-05 -2.10883e-05
-2.93683e-05 -2.10883e-05 -0.000177078
0.00038706 0.000191795 6.32772e-06
0.000191795 -0.000136951 2.07086e-06
6.32772e-06 2.07086e-06 -0.000357793
0.000444575 0.000189586 2.68376e-06
0.000189586 -8.9278e-05 -1.21791e-06
2.68376e-06 -1.21791e-06 -0.00019872
0.00671696 -0.000112556 -0.000247788
-0.000112556 0.00398616 -2.55845e-05
-0.000247788 -2.55845e-05 0.00397069
0.000385385 0.000116798 2.197e-05
0.000116798 -9.94975e-05 1.84881e-05
2.197e-05 1.84881e-05 -0.000187936
0.0052857 -0.000179446 -2.61795e-06
-0.000179446 0.0030998 -8.9857e-07
-2.61795e-06 -8.9857e-07 0.00307757
0.00430891 -0.000197343 0.000100224
-0.000197343 0.00248788 1.05426e-05
0.000100224 1.05426e-05 0.00246172
0.00235032 0.000229699 -7.25128e-06
0.000229699 -0.000199101 -1.6602e-06
-7.25128e-06 -1.6602e-06 -3.88574e-05
0.00200198 0.000159259 1.72433e-05
0.000159259 -0.000258883 -3.22511e-06
1.72433e-05 -3.22511e-06 7.62942e-05
0.00519481 0.000374367 -0.000121229
0.000374367 -7.59029e-05 -1.66106e-06
-0.000121229 -1.66106e-06 0.000873657
0.00228012 0.000571089 -2.63966e-06
0.000571089 0.00014437 1.30906e-06
-2.63966e-06 1.30906e-06 -3.27555e-05
0.00229726 0.000779765 -4.31346e-06
0.000779765 0.000339059 -4.16644e-07
-4.31346e-06 -4.16644e-07 3.55995e-05
0.00183602 0.000840357 -2.19368e-06
0.000840357 0.000189176 -1.10638e-05
-2.19368e-06 -1.10638e-05 -0.000170814
0.00233754 0.000613179 2.57141e-06
0.000613179 0.000267884 1.4289e-06
2.57141e-06 1.4289e-06 3.5441e-05
0.00226271 0.000753378 -9.40106e-08
0.000753378 0.000336177 -5.6203e-06
-9.40106e-08 -5.6203e-06 1.57559e-05
0.00250986 0.000456668 -8.04746e-08
0.000456668 7.6338e-06 4.10465e-07
-8.04746e-08 4.10465e-07 2.18487e-05
0.00233307 0.000707136 -8.23035e-07
0.000707136 0.000125763 9.33971e-08
-8.23035e-07 9.33971e-08 -7.48991e-05
0.00279198 0.000926493 -7.30332e-06
0.000926493 0.000598904 -2.7342e-06
-7.30332e-06 -2.7342e-06 0.00025248
0.00207872 0.000436908 8.66716e-08
0.000436908 -0.000187896 -2.78829e-07
8.66716e-08 -2.78829e-07 -0.000158428
0.0022784 0.000847027 1.42708e-05
0.000847027 0.000126948 2.11988e-06
1.42708e-05 2.11988e-06 -0.000110949
-9.8773e-05 0.000376251 -4.18058e-05
0.000376251 -0.00113653 -1.81354e-05
-4.18058e-05 -1.81354e-05 -0.000997478
0.00244144 9.63643e-05 1.44122e-07
9.63643e-05 -5.36915e-05 1.32648e-07
1.44122e-07 1.32648e-07 4.29069e-05
0.00227476 0.000131079 -8.97797e-07
0.000131079 -0.000197121 7.07936e-07
-8.97797e-07 7.07936e-07 -8.05035e-05
0.00281543 -6.19063e-05 -5.09716e-05
-6.19063e-05 0.000473537 -7.37125e-07
-5.09716e-05 -7.37125e-07 0.000551134
0.00245044 -0.000265334 -2.44612e-05
-0.000265334 -0.000155021 3.62595e-06
-2.44612e-05 3.62595e-06 7.01842e-05
0.00258523 3.72064e-05 -6.32752e-06
3.72064e-05 -5.40627e-05 -2.42298e-06
-6.32752e-06 -2.42298e-06 3.73282e-05
0.00242118 -8.67672e-05 -2.83939e-07
-8.67672e-05 -0.000149948 -1.69588e-07
-2.83939e-07 -1.69588e-07 -1.56798e-05
0.00217371 -7.46073e-05 3.33733e-07
-7.46073e-05 -4.90367e-05 5.02987e-08
3.33733e-07 5.02987e-08 1.96611e-06
0.00232099 -0.000311961 5.43118e-07
-0.000311961 -0.000136572 -1.00221e-07
5.43118e-07 -1.00221e-07 -4.25139e-05
0.00225674 -0.000255137 -1.29976e-07
-0.000255137 -5.85051e-05 2.57218e-08
-1.29976e-07 2.57218e-08 -1.89529e-06
0.00211629 -0.000212198 -1.48815e-06
-0.000212198 7.42915e-06 8.36997e-08
-1.48815e-06 8.36997e-08 -1.48988e-06
0.00224534 -0.000369248 6.156e-07
-0.000369248 2.47709e-06 8.91848e-08
6.156e-07 8.91848e-08 -4.72438e-06
0.00214701 -0.000316109 1.51011e-07
-0.000316109 3.97988e-05 6.17252e-08
1.51011e-07 6.17252e-08 1.25557e-06
0.00216376 -0.000306633 -3.43553e-06
-0.000306633 0.000123735 8.72996e-07
-3.43553e-06 8.72996e-07 3.17489e-05
0.00213373 -0.000408158 3.26021e-06
-0.000408158 9.09286e-05 -1.2959e-06
3.26021e-06 -1.2959e-06 -7.86708e-06
0.00208157 -0.00037857 -1.38373e-07
-0.00037857 0.000123398 -2.91193e-07
-1.38373e-07 -2.91193e-07 -1.04396e-05
0.00194142 -0.000328821 -1.81939e-06
-0.000328821 0.000129754 -3.522e-07
-1.81939e-06 -3.522e-07 -4.10285e-05
0.00212621 -0.000447316 2.26962e-06
-0.000447316 0.000196676 1.97177e-07
2.26962e-06 1.97177e-07 2.37939e-05
0.00197445 -0.000387883 -5.90864e-07
-0.000387883 0.000194155 -1.06899e-09
-5.90864e-07 -1.06899e-09 -8.1191e-06
0.00115534 -0.000224354 -1.14675e-05
-0.000224354 -3.74473e-05 5.20411e-06
-1.14675e-05 5.20411e-06 -0.000230352
0.00195509 -0.000429979 3.71788e-06
-0.000429979 0.00023303 -2.85086e-08
3.71788e-06 -2.85086e-08 9.16325e-07
0.00119455 -0.000256625 -5.63503e-08
-0.000256625 4.25134e-07 2.06572e-07
-5.63503e-08 2.06572e-07 -0.000205629
0.0027969 -0.000191123 -6.01132e-05
-0.000191123 0.00131779 1.30823e-05
-6.01132e-05 1.30823e-05 0.0012153
0.00119912 -0.000291511 1.74767e-05
-0.000291511 2.51816e-05 -7.73488e-06
1.74767e-05 -7.73488e-06 -0.000197685
0.00295528 -0.000238598 5.16981e-05
-0.000238598 0.00142613 -8.33776e-06
5.16981e-05 -8.33776e-06 0.00132266
0.00239039 -0.000147924 -0.000271928
-0.000147924 0.0011679 4.38367e-05
-0.000271928 4.38367e-05 0.00114699
0.00475324 -0.000135232 -0.000266329
-0.000135232 0.00267358 2.92417e-05
-0.000266329 2.92417e-05 0.00266897
0.00303564 -0.000296637 0.000169515
-0.000296637 0.00149566 -2.85797e-05
0.000169515 -2.85797e-05 0.00139019
0.00751929 -8.65362e-05 0.00032222
-8.65362e-05 0.00442292 -3.56271e-05
0.00032222 -3.56271e-05 0.00443077
0.00230074 0.000468144 -2.22059e-06
0.000468144 0.000201104 -6.02677e-07
-2.22059e-06 -6.02677e-07 6.49876e-05
0.0020006 0.000486891 3.92975e-07
0.000486891 0.000143203 1.64593e-06
3.92975e-07 1.64593e-06 -6.26075e-05
0.00216427 0.000467278 2.32031e-07
0.000467278 0.000148905 -1.41444e-06
2.32031e-07 -1.41444e-06 -1.63749e-05
0.00195982 0.000528428 -5.73678e-06
0.000528428 0.000271538 2.44606e-06
-5.73678e-06 2.44606e-06 -1.20365e-05
0.00227638 0.000636682 7.33121e-07
0.000636682 0.000339347 3.9044e-07
7.33121e-07 3.9044e-07 6.5699e-05
0.00246116 0.000733057 2.30264e-08
0.000733057 0.000566974 -5.93932e-06
2.30264e-08 -5.93932e-06 0.000226052
0.00180377 0.00057417 4.96155e-07
0.00057417 0.000286626 5.37353e-07
4.96155e-07 5.37353e-07 -4.46556e-05
0.00106105 0.000343019 -2.5865e-05
0.000343019 1.30911e-05 -6.74042e-06
-2.5865e-05 -6.74042e-06 -0.000236645
0.00157766 0.000551472 1.00001e-05
0.000551472 0.000251974 6.16147e-07
1.00001e-05 6.16147e-07 -9.73498e-05
0.000906898 0.000301718 -1.74561e-06
0.000301718 8.5298e-06 -2.45514e-07
-1.74561e-06 -2.45514e-07 -0.000229387
0.000359178 0.000275062 -2.71171e-05
0.000275062 -0.000167505 -2.00624e-05
-2.71171e-05 -2.00624e-05 -0.000319528
0.000421873 0.000230423 1.07063e-05
0.000230423 -0.000187456 3.26813e-06
1.07063e-05 3.26813e-06 -0.000408316
0.000327105 0.000232438 3.43498e-06
0.000232438 -0.000172188 5.07049e-07
3.43498e-06 5.07049e-07 -0.000305958
0.00747851 -1.94389e-05 -0.000297718
-1.94389e-05 0.00443117 -3.21283e-05
-0.000297718 -3.21283e-05 0.00442573
0.000304832 0.000146342 2.4156e-05
0.000146342 -0.000173951 1.88643e-05
2.4156e-05 1.88643e-05 -0.00028014
0.00633068 -0.000146567 7.13596e-06
-0.000146567 0.00374417 -2.70792e-06
7.13596e-06 -2.70792e-06 0.00372664
0.0050582 -0.000223317 0.000128302
-0.000223317 0.00297475 1.29085e-05
0.000128302 1.29085e-05 0.00293998
0.00244776 0.000270313 3.37795e-07
0.000270313 -5.77644e-05 6.58427e-07
3.37795e-07 6.58427e-07 3.18934e-05
0.002244 0.00023404 1.95256e-06
0.00023404 -0.000229938 -3.62372e-07
1.95256e-06 -3.62372e-07 -6.99367e-05
0.00215315 0.000114897 -7.00383e-05
0.000114897 -0.000321859 -9.28342e-06
-7.00383e-05 -9.28342e-06 8.36252e-05
0.00226971 0.000407266 1.12122e-06
0.000407266 1.43211e-05 3.4752e-07
1.12122e-06 3.4752e-07 -2.35983e-05
0.00224117 0.000565795 -7.57205e-07
0.000565795 0.000142259 3.1689e-07
-7.57205e-07 3.1689e-07 -3.29624e-05
0.00202858 0.000738681 6.576e-06
0.000738681 0.000220845 -2.96241e-06
6.576e-06 -2.96241e-06 -7.55529e-05
0.00242203 0.000604988 -1.13249e-06
0.000604988 0.000338524 -3.00199e-06
-1.13249e-06 -3.00199e-06 0.000109262
0.00245084 0.00043876 -1.04963e-06
0.00043876 -1.10372e-05 -1.54073e-07
-1.04963e-06 -1.54073e-07 4.78924e-06
0.00230013 0.000710587 -3.14454e-06
0.000710587 0.000121899 -2.87995e-07
-3.14454e-06 -2.87995e-07 -7.79246e-05
0.00201668 0.000425973 1.35783e-05
0.000425973 -0.000161796 5.22476e-07
1.35783e-05 5.22476e-07 -0.000132345
0.00222656 7.36396e-05 1.87271e-06
7.36396e-05 -3.26242e-05 3.28215e-07
1.87271e-06 3.28215e-07 1.19577e-05
0.00236945 9.09818e-05 2.00717e-07
9.09818e-05 -8.42057e-05 4.99114e-09
2.00717e-07 4.99114e-09 1.02903e-05
0.00220914 0.000142236 -7.11457e-06
0.000142236 -0.000234695 -1.46952e-06
-7.11457e-06 -1.46952e-06 -0.000122702
0.00207964 -1.3639e-05 -2.36326e-06
-1.3639e-05 -1.69589e-05 3.02936e-07
-2.36326e-06 3.02936e-07 1.64726e-06
0.00238651 -0.000102785 5.08558e-07
-0.000102785 -0.000185644 1.75644e-07
5.08558e-07 1.75644e-07 -4.43843e-05
0.00218614 -7.80939e-05 -6.20671e-07
-7.80939e-05 -4.49342e-05 2.57997e-07
-6.20671e-07 2.57997e-07 5.96274e-06
0.00204365 -0.000114616 -2.89966e-06
-0.000114616 -2.65325e-05 3.34285e-07
-2.89966e-06 3.34285e-07 -2.65069e-05
0.00220555 -0.000260793 1.67713e-07
-0.000260793 -8.39153e-05 2.05192e-07
1.67713e-07 2.05192e-07 -3.49811e-05
0.00211033 -0.000209425 9.95696e-07
-0.000209425 3.3066e-06 -3.06264e-07
9.95696e-07 -3.06264e-07 -4.66267e-06
0.00216622 -0.000214715 -2.68418e-06
-0.000214715 9.49569e-05 4.94514e-07
-2.68418e-06 4.94514e-07 3.71647e-05
0.00214513 -0.000316785 2.8753e-06
-0.000316785 3.31702e-05 -9.07362e-07
2.8753e-06 -9.07362e-07 -5.48068e-06
0.00211386 -0.000300754 1.84093e-07
-0.000300754 9.50004e-05 -2.86698e-07
1.84093e-07 -2.86698e-07 3.49889e-06
0.00194381 -0.000256985 -1.46965e-06
-0.000256985 0.000105151 -5.12961e-07
-1.46965e-06 -5.12961e-07 -3.4578e-05
0.00202842 -0.000375015 2.8926e-06
-0.000375015 8.84228e-05 -8.46539e-07
2.8926e-06 -8.46539e-07 -4.53004e-05
0.00199679 -0.000331253 -3.62973e-07
-0.000331253 0.000166076 9.05071e-09
-3.62973e-07 9.05071e-09 -4.664e-06
0.00117363 -0.000192726 -9.88794e-06
-0.000192726 -4.16822e-05 3.59661e-06
-9.88794e-06 3.59661e-06 -0.000220786
0.00198951 -0.000388693 1.98935e-06
-0.000388693 0.000205797 2.57404e-08
1.98935e-06 2.57404e-08 3.7159e-06
0.00120397 -0.000225695 -2.35959e-07
-0.000225695 -1.44434e-05 2.38132e-07
-2.35959e-07 2.38132e-07 -0.00020625
0.00276106 -0.000180179 -6.72354e-05
-0.000180179 0.00129733 1.25051e-05
-6.72354e-05 1.25051e-05 0.00119965
0.00122432 -0.000258426 1.38296e-05
-0.000258426 1.07772e-05 -6.42882e-06
1.38296e-05 -6.42882e-06 -0.000194494
0.00289195 -0.000212073 4.72161e-05
-0.000212073 0.00137816 -6.58646e-06
4.72161e-05 -6.58646e-06 0.00128409
0.00238077 -0.000125347 -0.000264894
-0.000125347 0.00115305 3.83891e-05
-0.000264894 3.83891e-05 0.00113474
0.00307364 -0.000245113 0.000162961
-0.000245113 0.00149555 -2.9524e-05
0.000162961 -2.9524e-05 0.00140336
0.00198762 -8.44317e-05 -0.000109188
-8.44317e-05 0.000915157 1.645e-05
-0.000109188 1.645e-05 0.000880192
0.00688084 -2.23636e-05 0.000102669
-2.23636e-05 0.00400269 -5.70795e-06
0.000102669 -5.70795e-06 0.00398357
0.00227431 0.000403705 -1.27218e-06
0.000403705 0.000144507 -6.45364e-07
-1.27218e-06 -6.45364e-07 5.50916e-05
0.00216952 0.000442806 -3.04734e-06
0.000442806 0.000185047 -8.30534e-07
-3.04734e-06 -8.30534e-07 2.08303e-05
0.00229093 0.000469309 -3.46552e-06
0.000469309 0.000186571 -7.63141e-08
-3.46552e-06 -7.63141e-08 4.92604e-05
0.00194559 0.000449368 -2.97066e-06
0.000449368 0.000195982 5.56702e-07
-2.97066e-06 5.56702e-07 -4.20946e-05
0.0019938 0.00049433 -1.1357e-06
0.00049433 0.00011876 -2.35829e-06
-1.1357e-06 -2.35829e-06 -8.36729e-05
0.00220859 0.000460315 -3.37972e-06
0.000460315 0.00018551 -3.85699e-06
-3.37972e-06 -3.85699e-06 2.7142e-05
0.00123701 0.000330478 -2.46467e-05
0.000330478 3.85604e-05 -6.97233e-06
-2.46467e-05 -6.97233e-06 -0.000194827
0.00189744 0.000523956 1.32538e-06
0.000523956 0.000233354 4.51102e-07
1.32538e-06 4.51102e-07 -5.02112e-05
0.00234663 0.000644766 1.32289e-06
0.000644766 0.000367443 -4.9428e-06
1.32289e-06 -4.9428e-06 9.26925e-05
0.00174961 0.000572444 9.4919e-06
0.000572444 0.000244226 -1.21295e-06
9.4919e-06 -1.21295e-06 -8.84652e-05
0.00103981 0.000337991 -1.93973e-06
0.000337991 -4.87743e-07 -6.38402e-08
-1.93973e-06 -6.38402e-08 -0.000248297
0.000284353 0.000249835 -2.57014e-05
0.000249835 -0.000229432 -1.84948e-05
-2.57014e-05 -1.84948e-05 -0.000378492
0.000875598 0.00029704 1.84163e-05
0.00029704 -4.87292e-06 6.54624e-06
1.84163e-05 6.54624e-06 -0.000240303
0.000330205 0.000260008 1.40533e-06
0.000260008 -0.000179704 1.48624e-06
1.40533e-06 1.48624e-06 -0.000332001
0.00765366 6.95401e-05 -0.000312857
6.95401e-05 0.0045246 -3.86188e-05
-0.000312857 -3.86188e-05 0.00452019
0.000233352 0.000207406 2.40056e-05
0.000207406 -0.000234632 2.08288e-05
2.40056e-05 2.08288e-05 -0.000364335
0.00718071 -6.64577e-05 4.69489e-06
-6.64577e-05 0.00424084 -5.61522e-07
4.69489e-06 -5.61522e-07 0.00423647
0.00591407 -0.000175285 0.000178133
-0.000175285 0.00348017 1.19975e-05
0.000178133 1.19975e-05 0.00346075
0.00221941 0.000216004 3.86328e-07
0.000216004 -2.28858e-05 -1.15133e-07
3.86328e-07 -1.15133e-07 6.51768e-06
0.00241809 0.000275433 -2.3078e-07
0.000275433 -8.5292e-05 5.62336e-07
-2.3078e-07 5.62336e-07 6.50719e-06
0.00222433 0.00023614 3.49773e-06
0.00023614 -0.000232137 7.68034e-07
3.49773e-06 7.68034e-07 -7.1467e-05
0.00227331 0.000402109 -7.31536e-08
0.000402109 1.91264e-05 7.40189e-08
-7.31536e-08 7.40189e-08 -1.61038e-05
0.00220086 0.000559487 1.08241e-08
0.000559487 0.000142481 -8.7107e-07
1.08241e-08 -8.7107e-07 -3.07367e-05
0.00241161 0.000422611 1.96121e-06
0.000422611 -2.5006e-05 -2.15949e-07
1.96121e-06 -2.15949e-07 -7.99587e-06
0.00211709 6.64513e-05 -3.36409e-07
6.64513e-05 -1.13547e-05 1.5805e-07
-3.36409e-07 1.5805e-07 4.3975e-06
0.00221385 6.9624e-05 3.29645e-07
6.9624e-05 -3.84242e-05 -2.02516e-07
3.29645e-07 -2.02516e-07 6.84739e-06
0.00230343 8.5407e-05 -7.20797e-07
8.5407e-05 -0.000112414 -8.62902e-08
-7.20797e-07 -8.62902e-08 -1.95007e-05
0.00208282 -1.1393e-05 -8.41268e-07
-1.1393e-05 -1.54755e-05 6.64876e-08
-8.41268e-07 6.64876e-08 1.47208e-06
0.00205425 -3.68712e-05 -5.63237e-06
-3.68712e-05 2.46017e-05 5.86855e-07
-5.63237e-06 5.86855e-07 2.03864e-05
0.00219983 -8.13557e-05 -3.17446e-07
-8.13557e-05 -4.04902e-05 2.33213e-07
-3.17446e-07 2.33213e-07 1.05153e-05
0.00206305 -0.000114482 -1.54953e-06
-0.000114482 -7.91005e-06 2.53498e-07
-1.54953e-06 2.53498e-07 -1.10224e-05
0.00209811 -0.00013575 -6.40567e-06
-0.00013575 4.45802e-05 6.2497e-07
-6.40567e-06 6.2497e-07 6.20615e-06
0.00210417 -0.000206968 3.61584e-06
-0.000206968 -6.92575e-07 -8.16884e-07
3.61584e-06 -8.16884e-07 -7.79492e-06
0.00213983 -0.00021458 2.64423e-06
-0.00021458 8.15492e-05 -4.78302e-07
2.64423e-06 -4.78302e-07 2.37975e-05
0.00198489 -0.000188138 4.30734e-07
-0.000188138 0.000114481 -1.09904e-06
4.30734e-07 -1.09904e-06 -5.18062e-07
0.00205375 -0.000295687 3.44858e-06
-0.000295687 5.88937e-05 -1.39807e-06
3.44858e-06 -1.39807e-06 -3.23191e-05
0.00199354 -0.000261019 -2.07089e-07
-0.000261019 0.000129681 1.04424e-08
-2.07089e-07 1.04424e-08 -1.04184e-05
0.00118661 -0.0001554 -1.0503e-05
-0.0001554 -3.88055e-05 2.31157e-06
-1.0503e-05 2.31157e-06 -0.000203332
0.00204241 -0.000333374 1.09929e-06
-0.000333374 0.000195512 1.58496e-07
1.09929e-06 1.58496e-07 2.47778e-05
0.00120877 -0.000191364 -3.76444e-07
-0.000191364 -2.455e-05 2.98052e-07
-3.76444e-07 2.98052e-07 -0.000202215
0.00267106 -0.000176987 -6.92477e-05
-0.000176987 0.00124574 1.04738e-05
-6.92477e-05 1.04738e-05 0.00115182
0.00124706 -0.000226909 1.08478e-05
-0.000226909 4.58891e-06 -4.82517e-06
1.08478e-05 -4.82517e-06 -0.000186112
0.00284071 -0.000179999 4.51246e-05
-0.000179999 0.00134258 -5.05427e-06
4.51246e-05 -5.05427e-06 0.00125506
0.0023766 -0.000103921 -0.000262635
-0.000103921 0.00114361 3.21325e-05
-0.000262635 3.21325e-05 0.00112669
0.0029852 -0.000203715 0.000158618
-0.000203715 0.00142866 -2.51545e-05
0.000158618 -2.51545e-05 0.00134691
0.00196917 -8.47561e-05 -9.89886e-05
-8.47561e-05 0.000898362 1.30333e-05
-9.89886e-05 1.30333e-05 0.000865702
0.00165052 -8.1135e-05 6.57611e-05
-8.1135e-05 0.000716042 -1.09098e-05
6.57611e-05 -1.09098e-05 0.000662022
0.00210811 0.000251552 -1.36997e-06
0.000251552 4.10577e-07 -6.33132e-07
-1.36997e-06 -6.33132e-07 -2.81308e-05
0.00216026 0.000366106 -3.41089e-06
0.000366106 0.000141272 -2.79448e-07
-3.41089e-06 -2.79448e-07 2.14376e-05
0.00221965 0.00040304 -4.3318e-07
0.00040304 8.84348e-05 -1.69377e-07
-4.3318e-07 -1.69377e-07 8.59903e-06
0.00207878 0.000411524 -1.01909e-07
0.000411524 0.000216717 7.09899e-07
-1.01909e-07 7.09899e-07 1.74367e-05
0.00215651 0.000439695 -1.59463e-06
0.000439695 0.000184661 -6.52286e-07
-1.59463e-06 -6.52286e-07 1.96313e-05
0.00227314 0.000470761 2.34897e-06
0.000470761 0.000166812 4.90083e-07
2.34897e-06 4.90083e-07 2.80578e-05
0.00126548 0.000284607 -1.88293e-05
0.000284607 1.45547e-05 -6.15502e-06
-1.88293e-05 -6.15502e-06 -0.00019488
0.00191747 0.00045277 1.7728e-06
0.00045277 0.000170272 -3.657e-07
1.7728e-06 -3.657e-07 -6.30332e-05
0.00199582 0.000502708 -1.70936e-06
0.000502708 0.00010002 -5.11597e-06
-1.70936e-06 -5.11597e-06 -9.92861e-05
0.000282414 0.000199173 -2.21819e-05
0.000199173 -0.000253971 -1.59863e-05
-2.21819e-05 -1.59863e-05 -0.000388533
0.00118351 0.000325705 -5.66364e-07
0.000325705 7.9142e-06 3.63575e-08
-5.66364e-07 3.63575e-08 -0.0002253
0.00182669 0.000519482 7.47453e-06
0.000519482 0.000188154 -1.76467e-06
7.47453e-06 -1.76467e-06 -9.55327e-05
0.00112042 0.000338838 2.69305e-05
0.000338838 5.27743e-05 8.381e-06
2.69305e-05 8.381e-06 -0.000193388
0.000267061 0.000238051 4.87012e-07
0.000238051 -0.000235689 1.06232e-06
4.87012e-07 1.06232e-06 -0.000385562
0.00743637 0.000168607 -0.000316199
0.000168607 0.00437562 -4.26869e-05
-0.000316199 -4.26869e-05 0.0043728
0.000272622 0.000236068 2.24358e-05
0.000236068 -0.000211919 1.93109e-05
2.24358e-05 1.93109e-05 -0.000361699
0.0075517 4.42136e-05 7.46305e-06
4.42136e-05 0.00444846 6.13284e-07
7.46305e-06 6.13284e-07 0.00445265
0.00693272 -9.81607e-05 0.00024413
-9.81607e-05 0.00408205 1.55714e-05
0.00024413 1.55714e-05 0.00407827
0.00213696 0.000130851 -2.37762e-06
0.000130851 1.83657e-05 -5.38558e-07
-2.37762e-06 -5.38558e-07 2.73275e-05
0.0022078 0.000220556 7.1783e-07
0.000220556 -3.32489e-05 3.55279e-07
7.1783e-07 3.55279e-07 -6.56456e-06
0.00237111 0.00028081 -3.28509e-07
0.00028081 -0.000119265 -5.69723e-07
-3.28509e-07 -5.69723e-07 -2.56513e-05
0.00227154 0.000395784 1.33583e-06
0.000395784 2.02051e-05 -2.23926e-07
1.33583e-06 -2.23926e-07 -1.18576e-05
0.00202442 2.27335e-05 -5.64084e-06
2.27335e-05 3.17194e-05 3.89449e-07
-5.64084e-06 3.89449e-07 1.21893e-05
0.00211051 5.7338e-05 -2.9351e-08
5.7338e-05 -1.52957e-05 -2.99118e-08
-2.9351e-08 -2.99118e-08 1.31666e-06
0.00220021 6.5506e-05 -9.87341e-07
6.5506e-05 -4.42057e-05 -7.87322e-08
-9.87341e-07 -7.87322e-08 1.22511e-06
0.00208492 -8.28714e-06 -5.40599e-07
-8.28714e-06 -1.42197e-05 -3.46927e-07
-5.40599e-07 -3.46927e-07 8.02503e-07
0.0020588 -3.11486e-05 -7.13344e-07
-3.11486e-05 2.31306e-05 -1.49479e-07
-7.13344e-07 -1.49479e-07 2.04586e-05
0.00191606 -5.85969e-05 -5.43868e-06
-5.85969e-05 -5.31334e-05 5.33381e-07
-5.43868e-06 5.33381e-07 -9.67091e-05
0.00208149 -0.000114433 3.27232e-06
-0.000114433 1.01521e-05 -3.54128e-08
3.27232e-06 -3.54128e-08 3.70773e-06
0.0020813 -0.000137163 -1.87823e-06
-0.000137163 4.19798e-05 3.70319e-07
-1.87823e-06 3.70319e-07 -3.63997e-06
0.00207498 -0.000128002 -2.08857e-06
-0.000128002 0.000159738 -1.99898e-07
-2.08857e-06 -1.99898e-07 6.81102e-05
0.00212146 -0.000213638 7.48882e-06
-0.000213638 7.30109e-05 -1.32483e-06
7.48882e-06 -1.32483e-06 1.54871e-05
0.00198085 -0.000186876 1.34779e-06
-0.000186876 0.000102787 -5.71112e-07
1.34779e-06 -5.71112e-07 -1.17845e-05
0.0011655 -0.000116816 -1.16623e-05
-0.000116816 -4.8038e-05 1.63778e-06
-1.16623e-05 1.63778e-06 -0.000199516
0.00207355 -0.000263995 1.58349e-06
-0.000263995 0.000175214 3.66741e-07
1.58349e-06 3.66741e-07 3.52186e-05
0.00118865 -0.00015417 -5.00721e-08
-0.00015417 -3.76615e-05 1.3116e-07
-5.00721e-08 1.3116e-07 -0.000201135
0.000353536 -9.1207e-05 -1.9291e-05
-9.1207e-05 -0.000233378 5.96826e-06
-1.9291e-05 5.96826e-06 -0.000335654
0.00124674 -0.000190293 9.48701e-06
-0.000190293 -6.60298e-06 -3.14516e-06
9.48701e-06 -3.14516e-06 -0.000182835
0.00158117 -0.000116508 6.65181e-05
-0.000116508 0.000541186 -5.27067e-06
6.65181e-05 -5.27067e-06 0.000451524
0.0068205 -0.000173853 -0.000348432
-0.000173853 0.0039731 2.68781e-05
-0.000348432 2.68781e-05 0.00399389
0.00292843 -0.000162495 0.000155521
-0.000162495 0.00138726 -1.98306e-05
0.000155521 -1.98306e-05 0.00131238
0.00196859 -8.11439e-05 -8.98222e-05
-8.11439e-05 0.000896939 8.53504e-06
-8.98222e-05 8.53504e-06 0.000864067
0.00157342 -0.000103018 7.77928e-05
-0.000103018 0.000671305 -1.27611e-05
7.77928e-05 -1.27611e-05 0.000616284
0.00205468 0.000169812 -3.35068e-06
0.000169812 1.4304e-05 -1.00255e-06
-3.35068e-06 -1.00255e-06 -1.23612e-05
0.00207796 0.000277709 -2.01513e-06
0.000277709 5.83615e-05 -2.3777e-08
-2.01513e-06 -2.3777e-08 -2.20273e-05
0.00212402 0.000245504 -1.90337e-07
0.000245504 2.21537e-05 -7.47856e-08
-1.90337e-07 -7.47856e-08 -1.23569e-05
0.00207101 0.000333496 2.85354e-07
0.000333496 0.000179931 1.36596e-06
2.85354e-07 1.36596e-06 2.16976e-05
0.00209587 0.000362566 9.49716e-07
0.000362566 0.000100003 2.12758e-07
9.49716e-07 2.12758e-07 -1.94695e-05
0.00216607 0.000402617 8.41639e-07
0.000402617 3.31086e-05 1.96699e-07
8.41639e-07 1.96699e-07 -3.73406e-05
0.00130389 0.000250266 -1.40934e-05
0.000250266 1.97838e-05 -3.87192e-06
-1.40934e-05 -3.87192e-06 -0.000167153
0.00205785 0.000407364 2.093e-06
0.000407364 0.000204326 5.13618e-07
2.093e-06 5.13618e-07 6.35704e-06
0.00213481 0.000435634 1.01805e-06
0.000435634 0.000178928 -1.32726e-06
1.01805e-06 -1.32726e-06 1.33915e-05
0.000322216 0.0001413 -1.93774e-05
0.0001413 -0.000252038 -1.24825e-05
-1.93774e-05 -1.24825e-05 -0.000370249
0.00121179 0.000281744 4.94388e-07
0.000281744 -1.68163e-05 4.63568e-07
4.94388e-07 4.63568e-07 -0.000223839
0.00187636 0.000454173 6.68223e-06
0.000454173 0.000137104 -2.01706e-06
6.68223e-06 -2.01706e-06 -9.09103e-05
0.00722035 0.000239894 -0.000323192
0.000239894 0.0042308 -4.23658e-05
-0.000323192 -4.23658e-05 0.00423165
0.000310282 0.000192107 5.72151e-08
0.000192107 -0.000238413 7.04852e-07
5.72151e-08 7.04852e-07 -0.000373374
0.00116202 0.000322983 2.57611e-05
0.000322983 -6.20019e-07 7.56395e-06
2.57611e-05 7.56395e-06 -0.000233882
0.00035491 0.000230193 2.26425e-05
0.000230193 -0.00017832 1.77731e-05
2.26425e-05 1.77731e-05 -0.000329841
0.00749139 0.000161269 1.0997e-05
0.000161269 0.00440378 1.82689e-06
1.0997e-05 1.82689e-06 0.00440743
0.00746359 4.31e-06 0.000297981
4.31e-06 0.00438129 2.21387e-05
0.000297981 2.21387e-05 0.00439001
0.00199592 7.55068e-05 -7.33802e-06
7.55068e-05 1.821e-05 -1.19101e-07
-7.33802e-06 -1.19101e-07 -6.57292e-06
0.00212738 0.000126892 7.4288e-08
0.000126892 1.38096e-05 7.95527e-09
7.4288e-08 7.95527e-09 2.10132e-05
0.00219901 0.00022509 6.49577e-08
0.00022509 -4.21555e-05 1.10547e-07
6.49577e-08 1.10547e-07 -1.78434e-05
0.00195589 6.58341e-06 -6.8121e-06
6.58341e-06 -3.49414e-06 2.55071e-07
-6.8121e-06 2.55071e-07 -5.37824e-05
0.0020066 2.78077e-05 5.28606e-07
2.78077e-05 1.63202e-05 -9.53887e-10
5.28606e-07 -9.53887e-10 -1.01907e-07
0.00210564 4.72306e-05 -2.46105e-07
4.72306e-05 -1.85228e-05 -1.04103e-07
-2.46105e-07 -1.04103e-07 -9.53402e-07
0.00206464 -2.59811e-05 3.45242e-06
-2.59811e-05 2.19643e-05 -4.0079e-07
3.45242e-06 -4.0079e-07 2.12945e-05
0.00198675 -5.74959e-05 -1.09062e-06
-5.74959e-05 -3.47007e-06 1.26669e-07
-1.09062e-06 1.26669e-07 -4.55461e-05
0.00189013 -6.23217e-05 -1.20302e-06
-6.23217e-05 5.27444e-05 -7.79871e-08
-1.20302e-06 -7.79871e-08 -4.01027e-05
0.0020814 -0.000138721 3.16114e-06
-0.000138721 5.16152e-05 -8.81635e-08
3.16114e-06 -8.81635e-08 -1.05497e-06
0.00197824 -0.000128558 5.71698e-07
-0.000128558 9.99868e-05 2.48477e-08
5.71698e-07 2.48477e-08 -1.97712e-07
0.00126408 -7.27178e-05 -1.14982e-05
-7.27178e-05 2.45943e-05 6.74617e-07
-1.14982e-05 6.74617e-07 -0.000106812
0.0019555 -0.00018721 3.06062e-06
-0.00018721 7.66135e-05 -2.04494e-07
3.06062e-06 -2.04494e-07 -3.80138e-05
0.00114003 -0.000111457 3.20179e-08
-0.000111457 -5.9783e-05 4.08049e-08
3.20179e-08 4.08049e-08 -0.000210187
0.000364771 -2.48902e-05 -1.79464e-05
-2.48902e-05 -0.000228264 3.22378e-06
-1.79464e-05 3.22378e-06 -0.000322744
0.00118128 -0.000151253 9.94093e-06
-0.000151253 -4.27177e-05 -2.04233e-06
9.94093e-06 -2.04233e-06 -0.00020494
0.000364139 -7.63134e-05 -3.43157e-07
-7.63134e-05 -0.000225759 5.03906e-07
-3.43157e-07 5.03906e-07 -0.000328125
0.00672268 -6.37312e-05 -0.000337384
-6.37312e-05 0.00390571 1.67661e-05
-0.000337384 1.67661e-05 0.00393201
0.000433997 -7.959e-05 1.39475e-05
-7.959e-05 -0.000187645 -8.26812e-06
1.39475e-05 -8.26812e-06 -0.000295841
0.00429134 -0.000113358 0.000148012
-0.000113358 0.00237496 -8.09236e-06
0.000148012 -8.09236e-06 0.00235888
0.00155044 -9.37483e-05 8.40398e-05
-9.37483e-05 0.000655494 -1.23157e-05
8.40398e-05 -1.23157e-05 0.000601385
0.00205926 0.000132955 -8.17286e-06
0.000132955 6.35789e-05 -7.94505e-07
-8.17286e-06 -7.94505e-07 3.07137e-05
0.00213209 0.000205346 -3.71212e-06
0.000205346 0.000104654 -7.20805e-09
-3.71212e-06 -7.20805e-09 3.55611e-05
0.00204352 0.000164104 -7.00219e-07
0.000164104 1.10211e-05 -1.65728e-07
-7.00219e-07 -1.65728e-07 -1.55756e-05
0.00200521 0.000260336 -5.37328e-07
0.000260336 0.000124348 9.41463e-07
-5.37328e-07 9.41463e-07 -1.53674e-05
0.00212681 0.000278554 -3.7709e-08
0.000278554 8.77876e-05 -5.87048e-08
-3.7709e-08 -5.87048e-08 5.20803e-06
0.00213459 0.000239395 2.66081e-06
0.000239395 4.05264e-05 7.59411e-07
2.66081e-06 7.59411e-07 1.61517e-07
0.00125322 0.000201183 -1.11759e-05
0.000201183 -1.4791e-05 -2.4206e-06
-1.11759e-05 -2.4206e-06 -0.000183397
0.00204296 0.000329931 2.57091e-06
0.000329931 0.00017134 8.88456e-07
2.57091e-06 8.88456e-07 6.54019e-06
0.00204655 0.000359784 2.16924e-06
0.000359784 6.86569e-05 -1.44601e-07
2.16924e-06 -1.44601e-07 -5.04104e-05
0.000335197 9.98665e-05 -1.78188e-05
9.98665e-05 -0.000253506 -9.08445e-06
-1.78188e-05 -9.08445e-06 -0.000361598
0.00124903 0.000244962 -1.17401e-07
0.000244962 -1.16135e-05 5.78546e-07
-1.17401e-07 5.78546e-07 -0.000197364
0.0020473 0.000404205 4.76779e-06
0.000404205 0.000198993 4.55152e-07
4.76779e-06 4.55152e-07 2.08581e-06
0.0070324 0.000288097 -0.000338584
0.000288097 0.00411614 -4.06399e-05
-0.000338584 -4.06399e-05 0.00411803
0.00032059 0.000140901 7.24874e-08
0.000140901 -0.000256649 4.02474e-07
7.24874e-08 4.02474e-07 -0.000375655
0.00114794 0.00027964 1.85364e-05
0.00027964 -5.63466e-05 5.83767e-06
1.85364e-05 5.83767e-06 -0.0002613
0.00722048 0.000258569 1.39176e-05
0.000258569 0.00423974 4.24546e-06
1.39176e-05 4.24546e-06 0.00423801
0.000292869 0.000183346 2.01388e-05
0.000183346 -0.000251715 1.59184e-05
2.01388e-05 1.59184e-05 -0.000386797
0.00738274 0.000130234 0.000327199
0.000130234 0.00432184 3.14619e-05
0.000327199 3.14619e-05 0.00433477
0.00192374 5.79597e-05 -7.03026e-06
5.79597e-05 -2.22169e-05 1.28281e-07
-7.03026e-06 1.28281e-07 -7.59642e-05
0.00202175 8.17585e-05 -9.46248e-07
8.17585e-05 4.06121e-05 -1.63131e-07
-9.46248e-07 -1.63131e-07 1.53166e-05
0.00211505 0.000123258 2.07177e-06
0.000123258 8.36399e-06 3.38931e-07
2.07177e-06 3.38931e-07 1.36636e-05
0.00188126 -8.39385e-06 -5.38975e-07
-8.39385e-06 5.40554e-05 -1.18081e-07
-5.38975e-07 -1.18081e-07 -3.72962e-05
0.00198561 7.91514e-06 -1.45728e-06
7.91514e-06 1.63675e-05 7.0759e-08
-1.45728e-06 7.0759e-08 -3.09845e-05
0.00198807 3.39745e-05 6.10277e-06
3.39745e-05 6.2646e-07 -1.40955e-07
6.10277e-06 -1.40955e-07 -1.28442e-05
0.00205493 -5.64068e-05 3.01814e-06
-5.64068e-05 4.4802e-05 -2.33471e-07
3.01814e-06 -2.33471e-07 3.98696e-06
0.00193699 -6.22967e-05 1.36159e-06
-6.22967e-05 8.53421e-05 3.81355e-08
1.36159e-06 3.81355e-08 -6.39547e-06
0.00121997 -3.20871e-05 -1.12198e-05
-3.20871e-05 5.98703e-06 -1.07966e-07
-1.12198e-05 -1.07966e-07 -0.000117729
0.0018594 -0.000128927 1.03752e-06
-0.000128927 2.48843e-05 2.21786e-07
1.03752e-06 2.21786e-07 -8.39394e-05
0.00116398 -7.13485e-05 1.13762e-06
-7.13485e-05 -3.85058e-05 -1.91129e-07
1.13762e-06 -1.91129e-07 -0.000174384
0.000358908 -9.03699e-06 -1.82603e-05
-9.03699e-06 -0.000230806 1.92824e-06
-1.82603e-05 1.92824e-06 -0.00032102
0.00111744 -0.000107699 1.04604e-05
-0.000107699 -6.86643e-05 -1.48066e-06
1.04604e-05 -1.48066e-06 -0.00021817
0.000333579 -3.6845e-05 8.56916e-07
-3.6845e-05 -0.000247158 -3.09411e-07
8.56916e-07 -3.09411e-07 -0.000341123
0.00650722 -0.000158725 -0.000338295
-0.000158725 0.00378838 1.81858e-05
-0.000338295 1.81858e-05 0.00380806
0.00034991 -6.02844e-05 1.74187e-05
-6.02844e-05 -0.000235028 -4.46322e-06
1.74187e-05 -4.46322e-06 -0.00033649
0.00666026 -0.00010057 7.75773e-06
-0.00010057 0.00387031 3.47708e-08
7.75773e-06 3.47708e-08 0.00389571
0.00186909 -3.92282e-05 0.000261048
-3.92282e-05 0.000824753 -1.82157e-05
0.000261048 -1.82157e-05 0.000815549
0.00204032 0.000136743 -7.01536e-06
0.000136743 5.21373e-05 -5.34602e-07
-7.01536e-06 -5.34602e-07 -1.24363e-05
0.0020156 0.000134159 -1.72632e-06
0.000134159 2.59186e-05 -1.26532e-07
-1.72632e-06 -1.26532e-07 -2.44978e-06
0.00196179 0.000189223 -2.80181e-07
0.000189223 9.27593e-05 9.07261e-07
-2.80181e-07 9.07261e-07 -2.58431e-05
0.00213538 0.000204974 7.30766e-07
0.000204974 0.00010245 2.0384e-08
7.30766e-07 2.0384e-08 3.38835e-05
0.00203512 0.000158291 4.273e-06
0.000158291 8.89359e-06 5.57042e-07
4.273e-06 5.57042e-07 -1.75173e-05
0.00119401 0.000152235 -1.05019e-05
0.000152235 -3.53658e-05 -1.64612e-06
-1.05019e-05 -1.64612e-06 -0.000195117
0.00201589 0.000258703 1.96633e-07
0.000258703 0.000138681 3.38291e-08
1.96633e-07 3.38291e-08 -7.49662e-07
0.00217028 0.000278991 3.29684e-06
0.000278991 0.000113925 3.65152e-07
3.29684e-06 3.65152e-07 2.90423e-05
0.000354555 7.23853e-05 -1.7421e-05
7.23853e-05 -0.000241251 -6.37282e-06
-1.7421e-05 -6.37282e-06 -0.000343827
0.00122369 0.000200051 6.13667e-07
0.000200051 -2.89547e-05 5.82756e-07
6.13667e-07 5.82756e-07 -0.000201031
0.00200993 0.000325975 1.85361e-06
0.000325975 0.000160711 2.9647e-07
1.85361e-06 2.9647e-07 -1.06105e-05
0.00686822 0.000293145 -0.000353656
0.000293145 0.00402362 -3.73419e-05
-0.000353656 -3.73419e-05 0.00402565
0.000357383 0.000103864 3.4655e-07
0.000103864 -0.00024254 2.327e-07
3.4655e-07 2.327e-07 -0.00035165
0.00119354 0.000239346 1.09519e-05
0.000239346 -4.40247e-05 4.43006e-06
1.09519e-05 4.43006e-06 -0.000228409
0.00708468 0.000313433 1.02253e-05
0.000313433 0.00416157 5.12798e-06
1.02253e-05 5.12798e-06 0.00415767
0.000350335 0.000140902 1.83574e-05
0.000140902 -0.0002419 1.28906e-05
1.83574e-05 1.28906e-05 -0.000361543
0.00730507 0.00026439 0.000344557
0.00026439 0.00428497 4.16039e-05
0.000344557 4.16039e-05 0.00428909
0.00185233 5.47117e-05 1.03462e-06
5.47117e-05 3.76915e-05 -6.96566e-08
1.03462e-06 -6.96566e-08 -5.81851e-05
0.00198939 5.94444e-05 -3.26713e-06
5.94444e-05 2.8507e-05 -1.05115e-07
-3.26713e-06 -1.05115e-07 -2.60491e-05
0.00204713 8.74876e-05 7.12175e-06
8.74876e-05 6.27182e-05 2.328e-07
7.12175e-06 2.328e-07 3.68861e-05
0.00117896 -1.17997e-05 -1.17034e-05
-1.17997e-05 -1.41932e-05 -2.68248e-07
-1.17034e-05 -2.68248e-07 -0.000135956
0.00192438 -4.513e-06 1.90137e-06
-4.513e-06 8.52514e-05 -6.6465e-09
1.90137e-06 -6.6465e-09 -5.50888e-06
0.00201922 8.70046e-06 2.95461e-06
8.70046e-06 3.8994e-05 -6.44298e-08
2.95461e-06 -6.44298e-08 -5.20325e-06
0.00198974 -6.27693e-05 3.55789e-06
-6.27693e-05 0.000122081 1.40149e-07
3.55789e-06 1.40149e-07 3.14189e-05
0.00119389 -3.36588e-05 8.38842e-07
-3.36588e-05 -1.41643e-05 -9.25216e-08
8.38842e-07 -9.25216e-08 -0.000138205
0.000373593 -3.255e-05 -1.88849e-05
-3.255e-05 -0.000219617 7.47286e-07
-1.88849e-05 7.47286e-07 -0.000305619
0.0010687 -6.94255e-05 1.21112e-05
-6.94255e-05 -9.8826e-05 -1.11515e-06
1.21112e-05 -1.11515e-06 -0.000239116
0.000352082 2.19138e-06 3.75659e-07
2.19138e-06 -0.000236679 1.02708e-07
3.75659e-07 1.02708e-07 -0.000325558
0.00642093 -0.000128376 -0.000338635
-0.000128376 0.00373302 1.36636e-05
-0.000338635 1.36636e-05 0.00375615
0.000368991 -4.50915e-05 1.84378e-05
-4.50915e-05 -0.000222615 -2.99982e-06
1.84378e-05 -2.99982e-06 -0.000317728
0.00651629 -5.37145e-05 -2.85523e-06
-5.37145e-05 0.00378077 3.06837e-06
-2.85523e-06 3.06837e-06 0.00380869
0.00661737 -0.000114183 0.000337572
-0.000114183 0.0038449 -1.62718e-05
0.000337572 -1.62718e-05 0.00387037
0.00192629 0.000119525 -5.1064e-07
0.000119525 7.95801e-05 2.49438e-07
-5.1064e-07 2.49438e-07 -2.53446e-05
0.00204706 0.000134984 -3.04085e-06
0.000134984 4.95866e-05 -4.21219e-07
-3.04085e-06 -4.21219e-07 -9.3387e-06
0.00197508 0.000135868 6.3734e-06
0.000135868 -9.76217e-06 6.08436e-07
6.3734e-06 6.08436e-07 -3.36259e-05
0.00118209 0.000103673 -1.14367e-05
0.000103673 -2.94122e-05 -1.00553e-06
-1.14367e-05 -1.00553e-06 -0.000175901
0.00199426 0.000188403 3.19131e-07
0.000188403 0.00011826 -1.33926e-07
3.19131e-07 -1.33926e-07 -1.9254e-07
0.00213807 0.000204501 3.8674e-06
0.000204501 9.99179e-05 -1.76746e-07
3.8674e-06 -1.76746e-07 3.18897e-05
0.000375186 4.9946e-05 -1.71238e-05
4.9946e-05 -0.00022573 -4.22281e-06
-1.71238e-05 -4.22281e-06 -0.000323678
0.00119448 0.000154517 2.22375e-07
0.000154517 -3.49219e-05 2.77594e-07
2.22375e-07 2.77594e-07 -0.000196072
0.00203121 0.000257452 9.81337e-07
0.000257452 0.000155257 -9.99154e-07
9.81337e-07 -9.99154e-07 1.60653e-05
0.00672248 0.000243591 -0.000362762
0.000243591 0.00393031 -3.04083e-05
-0.000362762 -3.04083e-05 0.00394112
0.000376191 7.94141e-05 7.9731e-07
7.94141e-05 -0.000228995 1.97273e-07
7.9731e-07 1.97273e-07 -0.000333167
0.00118433 0.000198419 8.61486e-06
0.000198419 -5.22609e-05 3.17035e-06
8.61486e-06 3.17035e-06 -0.000227694
0.00694791 0.000310886 5.53338e-06
0.000310886 0.00407868 3.49487e-06
5.53338e-06 3.49487e-06 0.0040786
0.000380575 0.000109772 1.72897e-05
0.000109772 -0.000229594 9.96509e-06
1.72897e-05 9.96509e-06 -0.000340312
0.00714296 0.000348947 0.000355939
0.000348947 0.00420813 4.79595e-05
0.000355939 4.79595e-05 0.00419914
0.00108751 2.92516e-05 -1.1917e-05
2.92516e-05 -7.16201e-05 -5.63058e-07
-1.1917e-05 -5.63058e-07 -0.000202772
0.00192759 5.25087e-05 2.07382e-06
5.25087e-05 8.63672e-05 8.6069e-09
2.07382e-06 8.6069e-09 -4.90084e-06
0.00206081 6.13954e-05 2.06015e-06
6.13954e-05 8.25384e-05 5.96741e-08
2.06015e-06 5.96741e-08 2.7313e-05
0.000411796 3.20214e-05 -1.93498e-05
3.20214e-05 -0.000202774 -9.71291e-07
-1.93498e-05 -9.71291e-07 -0.000279908
0.00114832 -6.49247e-06 6.09214e-07
-6.49247e-06 -3.68224e-05 2.62199e-08
6.09214e-07 2.62199e-08 -0.000158619
0.00196137 8.49275e-07 4.12119e-06
8.49275e-07 0.000112141 -4.22456e-08
4.12119e-06 -4.22456e-08 2.18701e-05
0.00116124 -3.47397e-05 1.2798e-05
-3.47397e-05 -3.87984e-05 -4.1758e-07
1.2798e-05 -4.1758e-07 -0.000163156
0.000368765 -5.90637e-06 4.99101e-07
-5.90637e-06 -0.000222835 3.71257e-07
4.99101e-07 3.71257e-07 -0.000308725
0.00628872 8.89467e-06 -0.00033948
8.89467e-06 0.00364204 2.21472e-06
-0.00033948 2.21472e-06 0.00367298
0.000322395 1.40708e-05 1.76999e-05
1.40708e-05 -0.000257131 -8.171e-07
1.76999e-05 -8.171e-07 -0.000344515
0.00636922 -0.000125755 -7.96127e-06
-0.000125755 0.00370252 2.12296e-06
-7.96127e-06 2.12296e-06 0.00372511
0.00643988 -3.59337e-05 0.000324237
-3.59337e-05 0.00373304 -8.87086e-06
0.000324237 -8.87086e-06 0.00376115
0.00115123 6.21391e-05 -1.18988e-05
6.21391e-05 -3.90418e-05 -9.64689e-07
-1.18988e-05 -9.64689e-07 -0.000175279
0.00197145 0.000116466 -2.70364e-07
0.000116466 0.000107789 -3.81011e-07
-2.70364e-07 -3.81011e-07 7.22721e-06
0.0020286 0.000132475 5.91301e-07
0.000132475 3.00353e-05 -5.49142e-07
5.91301e-07 -5.49142e-07 -2.3573e-05
0.00271747 6.71276e-05 -0.000155065
6.71276e-05 0.00125937 -5.58341e-06
-0.000155065 -5.58341e-06 0.00120495
0.00115274 0.000105333 2.84391e-07
0.000105333 -5.02695e-05 1.71865e-07
2.84391e-07 1.71865e-07 -0.000197689
0.00203773 0.000187859 1.33607e-06
0.000187859 0.000150898 -1.12692e-06
1.33607e-06 -1.12692e-06 3.25967e-05
0.00655631 0.000176389 -0.00036029
0.000176389 0.00381917 -2.1631e-05
-0.00036029 -2.1631e-05 0.00383988
0.000381242 6.86741e-05 1.18689e-06
6.86741e-05 -0.000218786 5.28815e-07
1.18689e-06 5.28815e-07 -0.000319125
0.00118658 0.000156272 1.06998e-05
0.000156272 -3.80776e-05 2.1123e-06
1.06998e-05 2.1123e-06 -0.000200602
0.00680277 0.000259558 9.68889e-07
0.000259558 0.00398216 1.57486e-06
9.68889e-07 1.57486e-06 0.00399135
0.000389742 8.84204e-05 1.74561e-05
8.84204e-05 -0.00021988 7.51557e-06
1.74561e-05 7.51557e-06 -0.000326274
0.00703102 0.000347296 0.000365715
0.000347296 0.00414465 4.68516e-05
0.000365715 4.68516e-05 0.00413751
0.000501725 1.26913e-05 -1.53078e-05
1.26913e-05 -0.000135495 -1.99484e-06
-1.53078e-05 -1.99484e-06 -0.000221867
0.0011095 2.88227e-05 -1.38741e-08
2.88227e-05 -6.20953e-05 1.59691e-07
-1.38741e-08 1.59691e-07 -0.000189891
0.00199832 4.89056e-05 4.24948e-06
4.89056e-05 0.000131802 -1.7968e-07
4.24948e-06 -1.7968e-07 4.50924e-05
0.00610359 -0.000103979 -0.000320701
-0.000103979 0.0035448 4.64616e-06
-0.000320701 4.64616e-06 0.00356438
0.000369389 1.00031e-05 -5.90267e-07
1.00031e-05 -0.000225185 -1.57221e-07
-5.90267e-07 -1.57221e-07 -0.000304958
0.00113486 -2.49791e-06 1.27615e-05
-2.49791e-06 -4.87979e-05 2.30051e-08
1.27615e-05 2.30051e-08 -0.000170559
0.000327907 2.08598e-05 1.80733e-05
2.08598e-05 -0.000250341 5.33477e-07
1.80733e-05 5.33477e-07 -0.000334858
0.00622424 -2.63896e-05 1.88919e-06
-2.63896e-05 0.00360835 -1.74096e-06
1.88919e-06 -1.74096e-06 0.00363422
0.00635255 -4.91503e-05 0.000328159
-4.91503e-05 0.0036796 -6.35358e-06
0.000328159 -6.35358e-06 0.00370847
0.00278982 1.89996e-05 -0.000148168
1.89996e-05 0.0013055 -3.05687e-06
-0.000148168 -3.05687e-06 0.00125567
0.00111856 6.52328e-05 2.72415e-08
6.52328e-05 -6.16051e-05 -7.54646e-08
2.72415e-08 -7.54646e-08 -0.00019871
0.00203282 0.000113834 2.0378e-06
0.000113834 0.0001476 -7.88661e-07
2.0378e-06 -7.88661e-07 5.16418e-05
0.00600211 -2.80905e-05 -0.000145124
-2.80905e-05 0.00348342 1.12559e-07
-0.000145124 1.12559e-07 0.00347274
0.000377942 6.03684e-05 2.51485e-07
6.03684e-05 -0.000217879 2.925e-07
2.51485e-07 2.925e-07 -0.000311486
0.00112566 0.000107196 1.17429e-05
0.000107196 -7.00129e-05 1.31483e-06
1.17429e-05 1.31483e-06 -0.00021832
0.00663371 0.000153331 -1.05819e-05
0.000153331 0.00386221 -1.85146e-06
-1.05819e-05 -1.85146e-06 0.00388406
0.000396557 9.14263e-05 1.9023e-05
9.14263e-05 -0.00020796 6.02672e-06
1.9023e-05 6.02672e-06 -0.000309773
0.00689687 0.000283866 0.000371006
0.000283866 0.00404686 3.91777e-05
0.000371006 3.91777e-05 0.00405386
0.00185231 -5.38086e-05 -0.000251932
-5.38086e-05 0.000820685 1.55857e-06
-0.000251932 1.55857e-06 0.000822152
0.00156937 3.26328e-05 -6.40435e-05
3.26328e-05 0.00053256 6.07025e-09
-6.40435e-05 6.07025e-09 0.00046988
0.00112187 3.09694e-05 1.25278e-05
3.09694e-05 -5.80167e-05 5.48665e-07
1.25278e-05 5.48665e-07 -0.000182542
0.00617594 -5.07008e-05 6.66069e-06
-5.07008e-05 0.00358365 2.88949e-06
6.66069e-06 2.88949e-06 0.00360898
0.000385498 -1.09448e-05 1.86611e-05
-1.09448e-05 -0.000208376 8.9511e-07
1.86611e-05 8.9511e-07 -0.000292131
0.00625393 -8.82863e-05 0.000339071
-8.82863e-05 0.00363177 -5.78136e-06
0.000339071 -5.78136e-06 0.00365704
0.00140617 2.40961e-05 -6.77321e-05
2.40961e-05 0.00056715 -1.19027e-06
-6.77321e-05 -1.19027e-06 0.000526658
0.00156767 2.09975e-05 -6.51594e-05
2.09975e-05 0.000533106 -1.63381e-06
-6.51594e-05 -1.63381e-06 0.000465294
0.00109483 6.70489e-05 1.18841e-05
6.70489e-05 -7.87564e-05 7.87656e-07
1.18841e-05 7.87656e-07 -0.000216666
0.00396987 7.3201e-05 0.000127301
7.3201e-05 0.00217711 4.09041e-06
0.000127301 4.09041e-06 0.0021705
0.000391516 7.04162e-05 1.93887e-05
7.04162e-05 -0.000209259 4.37139e-06
1.93887e-05 4.37139e-06 -0.000302808
0.00671737 0.000140478 0.000353136
0.000140478 0.00390652 2.34924e-05
0.000353136 2.34924e-05 0.00393209
0.00612263 -1.95648e-05 -8.71596e-06
-1.95648e-05 0.00355373 -3.43148e-06
-8.71596e-06 -3.43148e-06 0.00357761
0.000379975 5.15721e-05 2.03604e-05
5.15721e-05 -0.000223287 2.55117e-06
2.03604e-05 2.55117e-06 -0.000299961
0.00608464 3.34941e-05 0.000326582
3.34941e-05 0.0035215 1.57589e-07
0.000326582 1.57589e-07 0.00355064
0.00381647 3.44255e-05 0.000138249
3.44255e-05 0.00208632 5.6587e-06
0.000138249 5.6587e-06 0.00208233
0.000403143 1.05024e-05 1.8713e-05
1.05024e-05 -0.000200354 2.49787e-06
1.8713e-05 2.49787e-06 -0.000286688
0.00646808 8.77629e-06 0.000339481
8.77629e-06 0.00375093 1.06304e-05
0.000339481 1.06304e-05 0.00377904
0.00617949 -0.000115452 0.000325402
-0.000115452 0.00359314 -4.44498e-06
0.000325402 -4.44498e-06 0.00361286
0.00624082 1.45068e-05 0.000330511
1.45068e-05 0.00360961 6.22878e-06
0.000330511 6.22878e-06 0.00364076
