# vtk DataFile Version 2.0
Wound Healing Simulation
ASCII
DATASET UNSTRUCTURED_GRID
POINTS 3012 float
69.9759 18.75 4
67.2507 60.3285 4
69.976 18.75 2
73.0099 25.446 4
71.1327 20.9142 4
68.6801 16.6661 4
67.8265 19.9261 3.98448
67.2507 60.3286 2
71.1327 54.0858 4
68.6801 58.3339 4
65.6939 62.2254 4
65.3132 59.0023 3.98557
74.6784 42.3946 4
73.7221 47.2057 4
69.9759 18.75 0
73.0099 25.446 2
68.6801 16.6661 2
71.1327 20.9142 2
67.8269 19.9287 2
74.6792 32.6053 4
73.7222 27.7943 4
72.1454 23.1494 4
70.615 26.2213 3.98449
68.8866 21.9585 3.98478
67.2507 14.6715 4
66.6381 17.9712 3.98486
65.799 21.0248 3.97672
67.2507 60.3285 0
71.1327 54.0858 2
68.6801 58.3339 2
65.694 62.2255 2
65.3144 59.0001 2
72.1454 51.8506 4
69.9759 56.25 4
68.8371 53.1129 3.98383
64.0165 64.0165 4
66.6117 57.1344 3.98509
63.8868 60.7671 3.98735
63.5026 57.774 3.9792
60.3285 67.2507 4
74.6792 42.3947 2
73.7222 47.2057 2
74.9194 39.9526 4
74.2788 44.8158 4
72.1686 42.0857 3.98264
73.0099 49.554 4
71.2499 46.5982 3.98342
73.0099 25.446 0
71.1327 20.9142 0
68.6801 16.6661 0
67.8265 19.9261 0.0155163
74.6792 32.6053 2
73.7222 27.7943 2
67.2508 14.6715 2
72.1455 23.1494 2
70.615 26.2218 2
66.639 17.9737 2
68.8869 21.9605 2
65.7987 21.0249 2
74.9197 35.0474 4
74.2794 30.1841 4
72.1853 32.9432 3.98301
71.2789 28.4314 3.98397
69.8164 24.0602 3.98473
68.3487 26.951 3.9752
66.7643 22.933 3.97599
65.694 12.7746 4
65.3249 16.1021 3.98638
64.7161 19.1934 3.97799
63.8885 22.0349 3.97262
71.1327 54.0858 0
65.6939 62.2254 0
68.6801 58.3339 0
65.3132 59.0023 0.0144282
72.1455 51.8506 2
69.9759 56.25 2
68.8374 53.1107 2
64.0165 64.0165 2
66.6126 57.1317 2
63.8879 60.7658 2
63.5027 57.7748 2
62.2254 65.694 4
58.8952 65.4148 3.99224
69.7696 50.9887 3.98385
67.7845 55.1674 3.98416
66.6507 52.2095 3.9748
62.3371 62.4284 3.98952
64.6631 56.0332 3.97839
62.2047 59.4074 3.98052
61.8254 56.684 3.97522
58.3339 68.6801 4
60.3285 67.2508 2
73.7221 47.2057 0
74.6784 42.3946 0
74.9197 39.9526 2
74.2794 44.8159 2
72.1683 42.0857 2
73.0099 49.554 2
71.25 46.5978 2
75 37.5 4
72.4058 39.8023 3.98263
71.7831 44.3531 3.98318
69.8049 41.7899 3.9732
70.5757 48.8135 3.98354
68.9138 46.0154 3.97414
74.6792 32.6053 0
73.7222 27.7943 0
67.2507 14.6715 0
72.1454 23.1494 0
70.615 26.2213 0.0155135
68.8866 21.9585 0.0152192
66.6381 17.9712 0.0151427
65.799 21.0248 0.0232839
74.9197 35.0474 2
74.2794 30.1841 2
72.185 32.9434 2
71.2789 28.4317 2
65.694 12.7745 2
65.326 16.1038 2
69.8166 24.0614 2
68.3486 26.9513 2
64.716 19.1929 2
66.764 22.9333 2
63.8882 22.0346 2
72.4136 35.2241 3.98261
71.8044 30.6762 3.98329
69.841 33.2679 3.97384
68.9679 29.0377 3.97482
67.613 24.9118 3.97536
66.1963 27.6337 3.97172
64.0165 10.9835 4
64.758 23.8296 3.97223
63.8912 14.3258 3.98808
63.5159 17.4439 3.98035
62.9089 20.3191 3.97323
62.0929 22.9433 3.97068
60.6847 11.0966 3.9903
57.613 11.4441 3.98425
72.1454 51.8506 0
69.9759 56.25 0
68.8371 53.1129 0.0161683
64.0165 64.0165 0
63.8868 60.7671 0.0126477
66.6117 57.1344 0.0149128
63.5026 57.774 0.0208046
62.2255 65.694 2
58.8957 65.4147 2
69.7698 50.9874 2
67.7851 55.1647 2
66.6504 52.2091 2
62.3381 62.4277 2
64.663 56.0336 2
62.2049 59.4084 2
61.8255 56.6851 2
60.6696 63.9778 3.99108
57.0259 66.7356 3.99291
57.559 63.6944 3.98615
67.5088 50.1771 3.9742
65.7035 54.1739 3.97588
64.5382 51.3858 3.97071
60.7745 60.941 3.98238
62.8223 55.0699 3.97472
60.6603 58.1632 3.97627
60.3293 55.788 3.97436
56.25 69.9759 4
58.3339 68.6801 2
60.3285 67.2507 0
58.9219 9.65494 3.99125
62.2254 9.30607 4
73.0099 49.554 0
74.2788 44.8158 0
71.2499 46.5982 0.016579
72.1686 42.0857 0.017364
74.9194 39.9526 0
75 37.5 2
72.4057 39.8024 2
71.7831 44.3527 2
69.8047 41.7897 2
70.5758 48.8128 2
68.9138 46.0151 2
72.4891 37.5121 3.98239
70.0419 39.6574 3.97296
69.4317 43.908 3.97383
67.5979 41.4979 3.96985
68.2672 48.1076 3.97386
66.7113 45.4408 3.97062
74.9197 35.0474 0
74.2794 30.1841 0
72.1853 32.9432 0.0169921
71.2789 28.4314 0.0160251
65.694 12.7746 0
65.3249 16.1021 0.013625
69.8164 24.0602 0.01527
68.3487 26.951 0.0247987
66.7643 22.933 0.0240078
64.7161 19.1934 0.0220079
63.8885 22.0349 0.0273759
72.4135 35.2241 2
71.8044 30.6765 2
69.8407 33.2682 2
68.9679 29.0378 2
64.0165 10.9835 2
63.8922 14.3268 2
63.516 17.443 2
67.6127 24.9121 2
66.1962 27.6337 2
62.9089 20.3184 2
64.7577 23.8295 2
62.0928 22.9432 2
60.6854 11.0972 2
57.6132 11.4434 2
70.0585 35.3917 3.97306
69.4682 31.1491 3.97392
67.6563 33.5903 3.97029
66.7738 29.6218 3.97101
65.5254 25.6987 3.97179
64.1476 28.2545 3.9708
62.3425 12.6538 3.98925
62.8572 24.637 3.97093
62.2012 15.7812 3.98214
61.8164 18.6818 3.97569
61.2177 21.3416 3.97023
60.4239 23.7283 3.97071
59.2472 12.7757 3.98276
55.8748 10.2308 3.98581
56.4059 13.1095 3.98088
69.7696 50.9887 0.0161454
62.2254 65.694 0
58.8952 65.4148 0.00775786
67.7845 55.1674 0.0158411
66.6507 52.2095 0.0252011
62.3371 62.4284 0.0104799
62.2047 59.4074 0.0194762
64.6631 56.0332 0.0216132
61.8254 56.684 0.0247796
60.6704 63.9774 2
57.0264 66.7357 2
57.559 63.6955 2
67.5086 50.1767 2
65.7032 54.1738 2
64.5379 51.3858 2
60.7747 60.9422 2
62.8223 55.0706 2
60.6605 58.1644 2
60.3296 55.7887 2
55.0714 67.9326 3.99316
59.2203 62.369 3.98357
55.8058 64.9124 3.98839
56.3279 62.094 3.98227
65.3325 49.409 3.97019
63.7066 53.2928 3.97121
62.4407 50.6522 3.96899
59.3349 59.5611 3.97931
61.0777 54.3106 3.97343
59.2904 57.015 3.97293
59.2427 55.1837 3.97611
48.1038 68.58 3.98937
50.949 69.9322 3.99337
54.0858 71.1327 4
56.25 69.976 2
58.3339 68.6801 0
57.0591 8.33504 3.99164
60.3285 7.74928 4
58.9226 9.65528 2
62.2255 9.30602 2
70.5757 48.8135 0.01646
71.7831 44.3531 0.0168248
68.9138 46.0154 0.0258607
69.8049 41.7899 0.0268027
72.4058 39.8023 0.0173687
75 37.5 0
72.4889 37.5121 2
70.0418 39.6573 2
69.4316 43.9078 2
67.5977 41.4978 2
68.2671 48.1072 2
66.7113 45.4407 2
70.1298 37.5214 3.97298
67.8349 39.5124 3.96968
67.2249 43.4705 3.97019
65.5552 41.2101 3.96984
66.0695 47.4187 3.97021
64.6535 44.849 3.96988
72.4136 35.2241 0.0173928
71.8044 30.6762 0.0167132
69.841 33.2679 0.0261637
68.9679 29.0377 0.0251789
64.0165 10.9835 0
63.8912 14.3258 0.0119218
63.5159 17.4439 0.0196488
67.613 24.9118 0.0246392
66.1963 27.6337 0.0282802
64.758 23.8296 0.0277672
62.9089 20.3191 0.0267713
62.0929 22.9433 0.0293227
60.6847 11.0966 0.00969501
57.613 11.4441 0.015749
70.0584 35.3918 2
69.4682 31.1493 2
67.6561 33.5903 2
66.7739 29.6217 2
62.3433 12.6546 2
62.2012 15.7803 2
61.8165 18.6806 2
65.5252 25.6987 2
64.1476 28.2545 2
61.2178 21.3411 2
62.857 24.637 2
60.4238 23.7283 2
59.2472 12.7751 2
56.4058 13.1086 2
55.875 10.23 2
67.8708 35.5472 3.96977
67.266 31.6216 3.97014
65.6984 33.9268 3.96988
64.664 30.1911 3.97
63.5386 26.4136 3.97074
62.2581 28.7771 3.97147
60.7767 14.2202 3.98254
61.0439 25.3378 3.97098
60.6152 17.1238 3.97895
60.2234 19.8149 3.97235
59.6586 22.2601 3.96881
58.9746 24.3217 3.97151
54.0379 9.13394 3.9867
57.9113 14.3282 3.98089
54.7872 12.0087 3.98229
55.313 14.6425 3.97948
67.5088 50.1771 0.0257955
57.0259 66.7356 0.00709309
60.6696 63.9778 0.00892245
57.559 63.6944 0.013847
65.7035 54.1739 0.0241243
64.5382 51.3858 0.0292852
60.7745 60.941 0.0176249
60.6603 58.1632 0.0237317
62.8223 55.0699 0.0252761
60.3293 55.788 0.025641
55.0717 67.9327 2
59.2205 62.3702 2
55.8057 64.9133 2
56.3279 62.0953 2
65.3323 49.4089 2
63.7064 53.2932 2
62.4406 50.6522 2
59.335 59.5623 2
61.078 54.3111 2
59.2908 57.0157 2
59.2431 55.1841 2
53.0432 69.0005 3.99331
53.9681 66.0147 3.98909
57.8817 60.8738 3.98077
54.6848 63.2115 3.98441
55.2122 60.6207 3.98028
63.1938 48.6615 3.96899
61.7395 52.575 3.96874
60.2689 50.018 3.96852
58.0191 58.2645 3.97542
59.326 53.9469 3.97286
58.1263 55.811 3.97111
50.1105 67.858 3.98935
47.4641 66.5836 3.98689
46.0573 69.1594 3.98938
48.1038 68.5805 2
48.8031 70.7235 3.99347
50.9493 69.9324 2
51.8506 72.1454 4
54.0858 71.1327 2
56.25 69.9759 0
55.1035 7.13966 3.99194
58.3339 6.31992 4
57.0597 8.33519 2
60.3286 7.74926 2
58.9219 9.65494 0.0087502
62.2254 9.30607 0
68.2672 48.1076 0.0261422
69.4317 43.908 0.0261651
66.7113 45.4408 0.0293763
67.5979 41.4979 0.0301493
70.0419 39.6574 0.0270432
72.4891 37.5121 0.0176075
70.1297 37.5214 2
67.8349 39.5124 2
67.2248 43.4704 2
65.555 41.21 2
66.0695 47.4186 2
64.6535 44.849 2
67.9311 37.5219 3.96969
65.7848 39.3703 3.96983
65.1769 43.0257 3.96993
63.7423 40.9297 3.9715
63.9656 46.7172 3.96938
62.8057 44.2165 3.97173
70.0585 35.3917 0.0269393
69.4682 31.1491 0.0260849
67.6563 33.5903 0.0297146
66.7738 29.6218 0.0289893
62.3425 12.6538 0.0107472
62.2012 15.7812 0.0178568
61.8164 18.6818 0.0243083
65.5254 25.6987 0.0282137
64.1476 28.2545 0.0292049
62.8572 24.637 0.0290682
61.2177 21.3416 0.0297667
60.4239 23.7283 0.0292898
59.2472 12.7757 0.0172353
56.4059 13.1095 0.0191216
55.8748 10.2308 0.01419
67.8707 35.5472 2
67.266 31.6216 2
65.6982 33.9267 2
64.664 30.1911 2
60.7767 14.2195 2
60.6152 17.1225 2
60.2238 19.8139 2
63.5385 26.4135 2
62.258 28.7771 2
59.6587 22.26 2
61.0437 25.3378 2
58.9745 24.322 2
57.911 14.3274 2
55.3127 14.6416 2
54.038 9.13319 2
54.7871 12.0077 2
65.8743 35.6665 3.96973
65.1859 32.1536 3.9695
64.2771 34.2495 3.97092
62.5909 30.6354 3.97106
61.6503 27.0718 3.97101
60.8453 29.1401 3.97378
59.3122 15.665 3.98047
59.3234 25.7976 3.97247
59.125 18.3525 3.97656
58.7378 20.8551 3.96867
58.2793 23.0954 3.96939
57.9605 24.6664 3.97161
52.1126 8.15213 3.98742
53.0582 11.0147 3.98332
56.6773 15.7387 3.98012
53.8097 13.6774 3.98054
54.3764 15.9952 3.97961
55.0714 67.9326 0.00684335
65.3325 49.409 0.0298058
55.8058 64.9124 0.0116134
59.2203 62.369 0.0164349
56.3279 62.094 0.0177291
63.7066 53.2928 0.0287886
62.4407 50.6522 0.0310124
59.3349 59.5611 0.0206897
59.2904 57.015 0.0270679
61.0777 54.3106 0.0265723
59.2427 55.1837 0.0238858
53.0435 69.0006 2
53.968 66.0154 2
57.8817 60.8751 2
54.6848 63.2126 2
55.2122 60.6221 2
63.1937 48.6614 2
61.7396 52.5752 2
60.269 50.0178 2
58.0196 58.2658 2
59.3265 53.947 2
58.1268 55.811 2
52.0716 67.0011 3.98929
52.9543 64.2221 3.98607
56.6491 59.4925 3.97894
53.6819 61.6272 3.9822
54.2605 59.3258 3.97803
60.9829 47.8793 3.9692
59.7044 52.1034 3.96835
58.0112 49.6134 3.97082
56.7767 56.9872 3.97311
57.117 54.1176 3.97077
50.1104 67.8586 2
49.3379 65.9239 3.98692
47.4639 66.5842 2
46.8933 64.7398 3.98552
45.559 67.1008 3.98673
43.9741 69.5916 3.98927
46.0573 69.1598 2
46.6096 71.368 3.99347
48.1038 68.58 0.010627
48.8034 70.7237 2
49.554 73.0099 4
50.949 69.9322 0.00662859
51.8506 72.1455 2
54.0858 71.1327 0
53.0646 6.0711 3.99222
55.104 7.13962 2
56.25 5.02411 4
58.3339 6.3199 2
57.0591 8.33504 0.00836332
60.3285 7.74928 0
66.0695 47.4187 0.0297935
67.2249 43.4705 0.0298114
64.6535 44.849 0.0301224
65.5552 41.2101 0.0301583
67.8349 39.5124 0.0303158
70.1298 37.5214 0.0270163
67.931 37.5219 2
65.7846 39.3702 2
65.1768 43.0257 2
63.7423 40.9296 2
63.9655 46.7171 2
62.8054 44.2164 2
65.8878 37.5017 3.96971
63.8766 39.2667 3.97114
63.3201 42.5503 3.97151
62.4038 40.6978 3.97321
61.9636 45.9188 3.97096
61.4372 43.6833 3.974
67.8708 35.5472 0.0302267
67.266 31.6216 0.0298565
65.6984 33.9268 0.0301197
64.664 30.1911 0.0300032
60.7767 14.2202 0.0174591
60.6152 17.1238 0.0210537
60.2234 19.8149 0.0276464
63.5386 26.4136 0.0292608
62.2581 28.7771 0.0285335
61.0439 25.3378 0.0290157
59.6586 22.2601 0.0311873
58.9746 24.3217 0.0284857
57.9113 14.3282 0.0191055
55.313 14.6425 0.0205205
54.0379 9.13394 0.0132951
54.7872 12.0087 0.0177123
65.8743 35.6665 2
65.186 32.1535 2
64.2771 34.2494 2
62.5911 30.6353 2
59.312 15.664 2
59.1252 18.3512 2
58.7385 20.8544 2
61.6501 27.0718 2
60.8456 29.1402 2
58.2795 23.0957 2
59.3239 25.7978 2
57.9605 24.6667 2
56.6769 15.7377 2
54.3759 15.9944 2
53.8096 13.6763 2
52.1126 8.15152 2
53.0582 11.0138 2
64.0736 35.6321 3.97074
62.9155 33.0462 3.97124
60.6023 30.6118 3.97353
59.5611 27.9109 3.9734
57.9404 16.9797 3.97932
57.7258 25.7278 3.97383
57.7139 19.4749 3.97347
57.3646 21.8459 3.96693
57.1763 23.9494 3.9705
50.1127 7.28389 3.98795
51.2328 10.1226 3.9843
52.1721 12.7945 3.98185
55.5376 16.9688 3.97965
52.9774 15.2605 3.97855
53.7577 16.9775 3.98038
53.0432 69.0005 0.00669257
53.9681 66.0147 0.0109084
63.1938 48.6615 0.0310109
54.6848 63.2115 0.015592
57.8817 60.8738 0.0192324
55.2122 60.6207 0.0197233
61.7395 52.575 0.0312639
60.2689 50.018 0.0314787
58.0191 58.2645 0.0245844
58.1263 55.811 0.0288851
59.326 53.9469 0.0271424
52.0715 67.0017 2
52.9541 64.223 2
56.6492 59.4939 2
53.6819 61.6285 2
54.2607 59.3273 2
60.9824 47.8791 2
59.7047 52.1033 2
58.0104 49.613 2
56.7767 56.9916 2
57.1177 54.1176 2
51.1688 65.131 3.98668
52.0471 62.5433 3.9841
55.4809 58.2533 3.97801
52.8348 60.1402 3.9801
53.6397 58.4755 3.98002
58.2835 46.8464 3.97352
57.5509 51.7814 3.96857
56.2249 49.5494 3.97258
55.4694 55.786 3.97031
55.3483 53.3745 3.96997
50.1105 67.858 0.0106536
49.3377 65.9246 2
48.6191 64.1264 3.9855
47.4641 66.5836 0.0131119
45.5589 67.1013 2
46.893 64.7405 2
46.3828 63.0578 3.9847
45.1335 65.2009 3.98546
43.632 67.4713 3.98672
41.8611 69.879 3.98905
43.9741 69.5922 2
44.3769 71.8628 3.99336
46.0573 69.1594 0.010622
46.6099 71.3682 2
47.2057 73.7222 4
48.8031 70.7235 0.00653308
49.554 73.0099 2
51.8506 72.1454 0
50.9544 5.13137 3.99252
53.065 6.071 2
54.0858 3.86728 4
55.1035 7.13966 0.00806147
56.25 5.02406 2
58.3339 6.31992 0
63.9656 46.7172 0.0306172
65.1769 43.0257 0.0300688
62.8057 44.2165 0.0282731
63.7423 40.9297 0.0284973
65.7848 39.3703 0.0301746
67.9311 37.5219 0.0303076
65.8876 37.5016 2
63.8763 39.2666 2
63.32 42.5502 2
62.4038 40.6978 2
61.963 45.9187 2
61.4367 43.6831 2
63.9387 37.4569 3.97102
62.1169 39.355 3.97241
61.1877 41.9582 3.9738
60.2394 44.77 3.97436
65.8743 35.6665 0.0302721
65.1859 32.1536 0.0305022
64.2771 34.2495 0.0290762
62.5909 30.6354 0.0289372
59.3122 15.665 0.0195332
59.125 18.3525 0.0234433
58.7378 20.8551 0.0313314
61.6503 27.0718 0.028994
60.8453 29.1401 0.0262245
59.3234 25.7976 0.0275281
58.2793 23.0954 0.0306088
57.9605 24.6664 0.0283879
56.6773 15.7387 0.0198822
54.3764 15.9952 0.0203896
53.8097 13.6774 0.0194551
52.1126 8.15213 0.0125849
53.0582 11.0147 0.016678
64.0736 35.6321 2
62.9154 33.0462 2
60.6027 30.6118 2
57.9402 16.9786 2
57.7145 19.4736 2
57.3654 21.8459 2
59.5615 27.9111 2
57.176 23.95 2
57.7265 25.7281 2
50.1127 7.28333 2
55.5373 16.9678 2
53.7574 16.9766 2
52.9771 15.2594 2
52.1719 12.7935 2
51.2326 10.1219 2
62.1521 35.3596 3.97192
60.2581 32.7456 3.97344
58.5984 30.0767 3.97519
57.2663 27.3838 3.97489
56.636 18.1535 3.97901
56.2753 25.1041 3.9717
56.3532 20.5243 3.96966
56.0973 22.8759 3.96706
48.0564 6.52678 3.98851
49.3246 9.33025 3.98481
50.4333 11.992 3.9825
51.3775 14.4958 3.98052
54.4139 17.918 3.98051
52.36 17.0344 3.97785
52.0716 67.0011 0.0107064
52.9543 64.2221 0.0139279
60.9829 47.8793 0.0308009
53.6819 61.6272 0.0178012
56.6491 59.4925 0.0210622
54.2605 59.3258 0.0219736
59.7044 52.1034 0.0316464
58.0112 49.6134 0.0291819
56.7767 56.9872 0.0268923
57.117 54.1176 0.029235
51.1686 65.1318 2
52.0468 62.5444 2
55.4812 58.2546 2
52.835 60.1414 2
53.6399 58.4769 2
58.2832 46.8461 2
57.5513 51.7812 2
56.2243 49.5488 2
55.4703 55.7869 2
55.3492 53.3748 2
50.3472 63.3848 3.98497
51.2447 60.9404 3.98165
54.2179 57.2697 3.97821
52.3124 58.6382 3.9779
56.6663 44.1793 3.97669
55.4621 47.8909 3.97482
55.0546 51.3818 3.96899
53.9971 54.5326 3.96882
49.3379 65.9239 0.0130819
48.6188 64.1272 2
47.963 62.4792 3.9845
45.559 67.1008 0.0132657
46.8933 64.7398 0.0144827
43.6319 67.472 2
46.3826 63.0586 2
45.1332 65.2016 2
45.9884 61.5908 3.98417
44.768 63.4585 3.98481
43.3573 65.5104 3.98537
41.6639 67.6901 3.98654
39.7025 70.0261 3.98903
41.8611 69.8796 2
42.1112 72.2076 3.9932
43.9741 69.5916 0.0107334
44.3772 71.8631 2
44.8159 74.2794 4
46.6096 71.368 0.00652598
47.2057 73.7222 2
49.554 73.0099 0
48.7848 4.32226 3.99283
50.9547 5.13119 2
51.8506 2.85458 4
53.0646 6.0711 0.00778449
54.0858 3.86728 2
56.25 5.02411 0
61.9636 45.9188 0.0290439
63.3201 42.5503 0.0284921
61.4372 43.6833 0.0260044
62.4038 40.6978 0.0267879
63.8766 39.2667 0.0288621
65.8878 37.5017 0.030293
63.9383 37.4569 2
62.1166 39.355 2
61.1874 41.9581 2
60.2386 44.7698 2
61.9517 37.4446 3.97241
60.2007 39.8469 3.97457
58.951 42.9167 3.97557
64.0736 35.6321 0.0292581
62.9155 33.0462 0.0287631
60.6023 30.6118 0.0264657
57.9404 16.9797 0.0206806
57.7139 19.4749 0.0265276
57.3646 21.8459 0.0330703
59.5611 27.9109 0.0266004
57.7258 25.7278 0.0261688
57.1763 23.9494 0.0294981
55.5376 16.9688 0.0203501
53.7577 16.9775 0.0196194
52.9774 15.2605 0.021448
50.1127 7.28389 0.0120463
52.1721 12.7945 0.0181543
51.2328 10.1226 0.0156961
62.1519 35.3596 2
60.2581 32.7456 2
58.5982 30.0769 2
56.636 18.1522 2
56.3536 20.5216 2
56.098 22.8764 2
57.2674 27.3839 2
56.2755 25.1049 2
48.0564 6.52627 2
49.3245 9.32971 2
54.4137 17.9171 2
52.3597 17.0335 2
51.3772 14.4947 2
50.4331 11.9912 2
59.8384 35.1197 3.97341
57.9536 32.271 3.9764
56.5146 29.3427 3.97631
55.4198 26.6026 3.97495
55.3396 19.1871 3.97751
54.9113 24.0626 3.97026
54.9923 21.5688 3.96818
45.9623 5.88178 3.98898
43.3736 7.47257 3.98649
47.355 8.62364 3.98536
48.6001 11.2931 3.98301
49.7137 13.7422 3.98141
50.6326 16.1307 3.9794
53.1223 18.6584 3.9765
51.2994 18.048 3.98387
51.1688 65.131 0.0133215
52.0471 62.5433 0.0159004
58.2835 46.8464 0.0264819
52.8348 60.1402 0.0199038
55.4809 58.2533 0.0219851
53.6397 58.4755 0.0199835
57.5509 51.7814 0.0314267
56.2249 49.5494 0.0274195
55.4694 55.786 0.0296941
55.3483 53.3745 0.0300325
50.3469 63.3855 2
51.2448 60.9415 2
54.2182 57.2713 2
52.3126 58.6394 2
56.665 44.1789 2
55.4611 47.8902 2
55.0552 51.3813 2
53.9981 54.5345 2
49.5926 61.7492 3.98376
55.5558 41.6999 3.97706
50.567 59.3326 3.97786
52.1817 56.4919 3.97332
54.1249 45.5567 3.97731
53.2966 49.3203 3.97227
52.6522 52.837 3.96624
48.6191 64.1264 0.014496
47.9628 62.4799 2
47.3302 61.014 3.98372
43.632 67.4713 0.0132782
45.1335 65.2009 0.0145387
46.3828 63.0578 0.0152962
41.6638 67.6906 2
43.3571 65.5112 2
45.9884 61.5917 2
44.7678 63.4593 2
45.7671 60.6353 3.9831
44.4843 61.8401 3.98383
43.1472 63.7307 3.98438
41.5467 65.6479 3.98493
39.6328 67.7698 3.9863
37.5259 70.0513 3.98895
39.7026 70.0268 2
39.8179 72.4047 3.99307
41.8611 69.879 0.0109477
42.1114 72.2079 2
42.3947 74.6792 4
44.3769 71.8628 0.00664014
44.8159 74.2794 2
47.2057 73.7222 0
43.8517 5.35864 3.98928
46.5708 3.64676 3.99305
48.7851 4.32206 2
49.554 1.99015 4
50.9544 5.13137 0.00748263
51.8506 2.85453 2
54.0858 3.86728 0
60.2394 44.77 0.025642
61.1877 41.9582 0.026195
62.1169 39.355 0.0275906
63.9387 37.4569 0.0289756
61.9514 37.4446 2
60.2003 39.8469 2
58.9503 42.9166 2
59.6906 37.5663 3.97346
57.9326 40.6555 3.97649
55.007 39.7177 3.97764
62.1521 35.3596 0.028085
60.2581 32.7456 0.0265597
58.5984 30.0767 0.0248066
56.636 18.1535 0.020992
56.3532 20.5243 0.0303383
56.0973 22.8759 0.0329387
57.2663 27.3838 0.0251085
56.2753 25.1041 0.0282965
54.4139 17.918 0.0194913
52.36 17.0344 0.0221542
51.3775 14.4958 0.0194818
48.0564 6.52678 0.0114885
49.3246 9.33025 0.0151932
50.4333 11.992 0.0174981
59.838 35.1197 2
45.9623 5.88127 2
43.3736 7.47208 2
57.9555 32.2712 2
56.515 29.3429 2
55.3399 19.186 2
54.9932 21.5678 2
54.9116 24.0638 2
55.4151 26.6041 2
47.355 8.62309 2
48.5998 11.2927 2
53.1224 18.6575 2
51.2992 18.0469 2
50.6323 16.1297 2
49.7134 13.7414 2
57.3243 34.7609 3.97723
55.6839 31.5226 3.97746
54.4503 28.4102 3.97861
53.7497 25.5027 3.97394
53.9641 20.1379 3.97651
53.5651 22.7209 3.9647
41.3987 7.07766 3.987
45.3597 7.9947 3.98601
42.8655 9.41533 3.98449
46.6664 10.6535 3.98329
47.7453 13.1021 3.98208
48.9305 15.4012 3.97992
50.0042 17.6999 3.97983
51.6458 19.3224 3.98651
50.3472 63.3848 0.0150322
51.2447 60.9404 0.0183509
56.6663 44.1793 0.023314
55.4621 47.8909 0.0251813
52.3124 58.6382 0.0221033
54.2179 57.2697 0.0217861
55.0546 51.3818 0.0310076
53.9971 54.5326 0.0311839
49.5924 61.7499 2
55.5562 41.6996 2
50.5671 59.3339 2
52.1823 56.4928 2
54.127 45.5561 2
53.2993 49.3195 2
52.6539 52.8363 2
48.8496 60.2065 3.98223
52.4255 42.6317 3.9778
49.7882 57.629 3.97773
50.5829 54.4231 3.97057
51.7417 47.2584 3.97604
51.1833 50.934 3.96771
48.0572 43.7936 3.99266
47.963 62.4792 0.0155001
47.3301 61.0146 2
46.6195 59.8005 3.98306
41.6639 67.6901 0.013456
43.3573 65.5104 0.0146318
44.768 63.4585 0.0151872
45.9884 61.5908 0.0158258
39.6328 67.7705 2
41.5464 65.6484 2
45.767 60.6362 2
43.147 63.7314 2
44.4843 61.8409 2
44.6243 60.2976 3.9832
42.9513 62.0881 3.9836
41.6005 63.8239 3.98438
39.6479 65.616 3.98445
37.5633 67.7521 3.98613
31.6965 65.1346 3.98484
33.3918 67.4896 3.98611
35.3331 69.9614 3.98896
37.5259 70.052 2
37.5094 72.4592 3.993
39.7025 70.0261 0.0109701
39.818 72.405 2
39.9526 74.9197 4
42.1112 72.2076 0.00679526
42.3947 74.6792 2
44.8159 74.2794 0
41.7362 4.96774 3.98962
43.8517 5.35813 2
44.326 3.10992 3.99329
46.571 3.64652 2
47.2057 1.27793 4
48.7848 4.32226 0.00717244
49.554 1.99013 2
51.8506 2.85458 0
58.951 42.9167 0.0244337
60.2007 39.8469 0.0254289
61.9517 37.4446 0.0275936
59.6906 37.5664 2
57.932 40.6553 2
55.0072 39.7178 2
56.7304 37.895 3.97732
49.4585 41.3306 3.98802
53.0261 39.3031 3.97931
39.4421 6.80103 3.98706
59.8384 35.1197 0.0265948
57.9536 32.271 0.0236024
56.5146 29.3427 0.0236905
55.3396 19.1871 0.0224921
54.9923 21.5688 0.031817
54.9113 24.0626 0.0297377
55.4198 26.6026 0.025047
53.1223 18.6584 0.0235026
51.2994 18.048 0.0161299
50.6326 16.1307 0.0205999
45.9623 5.88178 0.0110234
49.7137 13.7422 0.0185912
47.355 8.62364 0.0146351
48.6001 11.2931 0.0169852
43.3736 7.47257 0.0135105
57.3234 34.761 2
41.3988 7.07712 2
45.3597 7.99419 2
42.8655 9.41483 2
55.6839 31.5227 2
54.4473 28.4119 2
53.9648 20.1371 2
53.5656 22.7185 2
53.7483 25.5037 2
46.6662 10.653 2
47.7449 13.1016 2
51.6458 19.3212 2
50.0039 17.6988 2
48.9301 15.4005 2
54.7946 33.9754 3.97775
53.4211 30.4932 3.97614
52.5476 27.2086 3.97595
52.1194 24.1069 3.97256
52.3809 21.0569 3.9804
41.0135 9.04802 3.98458
44.7237 9.99582 3.98388
42.4685 10.9027 3.9833
46.005 12.7305 3.98123
47.681 14.5852 3.98098
48.1117 16.9903 3.97841
49.815 19.6199 3.97603
49.5926 61.7492 0.0162383
50.567 59.3326 0.022136
55.5558 41.6999 0.0229381
54.1249 45.5567 0.0226936
53.2966 49.3203 0.0277311
52.1817 56.4919 0.026682
52.6522 52.837 0.033758
48.8495 60.2072 2
52.4284 42.6301 2
49.7885 57.6306 2
50.5839 54.4245 2
51.7432 47.257 2
51.1859 50.9326 2
48.0604 43.8034 2
47.9871 58.7475 3.98002
50 45.2674 3.97793
48.5929 55.9197 3.97817
49.1095 52.586 3.97201
49.6225 49.0373 3.97286
45.8623 39.8717 3.89588
46.3011 42.6749 3.93884
46.4062 45.8405 3.99301
43.7024 41.1686 3.8632
41.9586 42.0235 3.79264
47.3302 61.014 0.0162782
46.6192 59.8012 2
45.4691 58.7972 3.98333
39.6328 67.7698 0.013696
41.5467 65.6479 0.015071
43.1472 63.7307 0.0156221
44.4843 61.8401 0.0161656
45.7671 60.6353 0.0169032
41.6004 63.8244 2
37.5633 67.7529 2
39.6477 65.6166 2
44.6242 60.2985 2
42.9512 62.0889 2
41.7542 62.4989 3.98371
42.4818 59.9892 3.98444
39.894 63.5587 3.98376
37.6423 65.5149 3.98414
35.4632 67.6614 3.98607
33.575 65.3479 3.98435
31.9589 63.3072 3.98412
29.8824 64.7258 3.98536
31.6965 65.1353 2
31.3762 67.1994 3.98629
33.3918 67.4904 2
33.1557 69.7546 3.98888
35.3331 69.9621 2
35.1947 72.3736 3.99295
37.5259 70.0513 0.0110458
37.5095 72.4597 2
37.5 75 4
39.8179 72.4047 0.00693212
39.9526 74.9197 2
42.3947 74.6792 0
39.6238 4.71479 3.98982
41.7363 4.96724 2
42.0623 2.71748 3.99341
43.8517 5.35864 0.0107163
44.3262 3.10962 2
44.8158 0.721173 4
46.5708 3.64676 0.0069523
47.2057 1.27779 2
49.554 1.99015 0
57.9326 40.6555 0.0235137
59.6906 37.5663 0.0265384
55.007 39.7177 0.0223635
49.4726 41.3335 2
56.7293 37.8949 2
53.0276 39.3058 2
53.8756 36.6291 3.97766
47.3855 40.4074 3.94287
50.398 38.5122 3.98834
37.516 6.67199 3.98733
39.4422 6.80047 2
39.2109 8.69044 3.98501
35.9414 8.49013 3.98538
57.3243 34.7609 0.022768
55.6839 31.5226 0.0225402
54.4503 28.4102 0.0213946
53.9641 20.1379 0.0234877
53.5651 22.7209 0.0352975
53.7497 25.5027 0.0260597
51.6458 19.3224 0.0134895
50.0042 17.6999 0.0201675
48.9305 15.4012 0.0200793
45.3597 7.9947 0.0139894
47.7453 13.1021 0.0179158
46.6664 10.6535 0.0167103
41.3987 7.07766 0.0129992
42.8655 9.41533 0.0155087
54.7967 33.9746 2
41.0134 9.04752 2
44.7235 9.99541 2
42.4682 10.9022 2
53.4174 30.4928 2
52.5509 27.2099 2
52.3817 21.055 2
52.1204 24.1082 2
46.0046 12.7298 2
47.6806 14.5846 2
49.8152 19.6188 2
48.1114 16.9896 2
52.3594 32.8841 3.97995
51.2537 29.1633 3.97809
50.7492 25.7385 3.97227
49.9307 22.2036 3.97712
40.5697 11.6066 3.98217
43.858 11.9189 3.98208
45.8021 15.4232 3.98023
47.5022 19.2327 3.97657
46.1959 37.494 3.90079
48.8496 60.2065 0.0177733
49.7882 57.629 0.0222717
52.4255 42.6317 0.0221976
51.7417 47.2584 0.0239624
51.1833 50.934 0.0322946
50.5829 54.4231 0.0294261
48.0572 43.7936 0.0073381
47.987 58.7486 2
50.0054 45.2701 2
48.5935 55.922 2
49.1107 52.5879 2
49.6256 49.0363 2
45.8865 39.8801 2
46.3177 42.6878 2
46.4067 45.8339 2
43.7239 41.1836 2
41.967 42.0301 2
46.8375 57.3497 3.98278
44.4497 39.4486 3.8586
42.3069 40.8877 3.81991
48.0088 47.2339 3.97617
47.1572 54.2441 3.97704
47.5548 50.7412 3.96849
44.7371 47.4224 3.99192
44.9648 41.9627 3.89768
44.8605 44.576 3.94669
42.5587 42.6878 3.86447
40.8562 42.3714 3.82252
46.6195 59.8005 0.0169371
45.4687 58.7981 2
43.8767 57.7228 3.9847
37.5633 67.7521 0.0138659
39.6479 65.616 0.0155507
41.6005 63.8239 0.0156242
42.9513 62.0881 0.0164013
44.6243 60.2976 0.0168016
35.4632 67.6622 2
41.7541 62.4995 2
39.8939 63.5593 2
37.6422 65.5157 2
42.4818 59.9901 2
40.6236 61.6571 3.9833
40.4455 58.222 3.98504
37.8371 63.2197 3.98301
35.5728 65.437 3.98417
33.575 65.3486 2
31.9588 63.3079 2
33.6286 63.3468 3.98352
30.3777 62.866 3.98442
32.1225 62.0139 3.98461
26.8674 61.5094 3.98385
28.0612 64.1537 3.98534
29.8825 64.7265 2
29.4055 66.7631 3.9865
31.6965 65.1346 0.0151595
31.3763 67.2001 2
31.0128 69.4195 3.98887
33.3918 67.4896 0.0138867
33.1557 69.7553 2
32.8916 72.1478 3.993
35.3331 69.9614 0.0110372
35.1947 72.374 2
35.0474 74.9194 4
37.5094 72.4592 0.00699995
37.5 75 2
39.9526 74.9197 0
35.6205 6.72308 3.98711
37.5231 4.61431 3.98995
39.6239 4.71429 2
39.7886 2.47385 3.99355
41.7362 4.96774 0.0103766
42.0624 2.71718 2
42.3946 0.32156 4
44.326 3.10992 0.00670926
44.8159 0.72056 2
47.2057 1.27793 0
49.4585 41.3306 0.0119838
56.7304 37.895 0.0226758
53.0261 39.3031 0.0206894
47.4004 40.4196 2
50.4111 38.5112 2
53.8803 36.6301 2
51.1988 35.5808 3.97858
48.0407 37.7449 3.95835
45.8659 35.1375 3.89673
43.713 33.8326 3.85879
41.9671 32.9872 3.78907
37.4577 8.53186 3.98523
37.516 6.67129 2
39.4421 6.80103 0.0129378
39.2109 8.68983 2
38.9765 10.124 3.98447
35.8983 9.77037 3.98392
34.15 8.81967 3.98509
35.9414 8.48939 2
54.7946 33.9754 0.0222457
53.4211 30.4932 0.0238552
52.5476 27.2086 0.0240537
52.3809 21.0569 0.0196004
52.1194 24.1069 0.0274443
49.815 19.6199 0.0239749
48.1117 16.9903 0.0215947
47.681 14.5852 0.0190232
44.7237 9.99582 0.0161189
46.005 12.7305 0.0187748
41.0135 9.04802 0.0154214
42.4685 10.9027 0.0166995
52.3602 32.884 2
40.5693 11.6063 2
43.8576 11.9184 2
51.2649 29.1628 2
50.7502 25.741 2
49.9318 22.2028 2
45.8017 15.4226 2
47.5022 19.2307 2
49.8863 31.4171 3.9692
49.2308 27.4978 3.97682
49.3784 24.4177 3.98117
47.1812 21.9663 3.97451
38.3022 12.7323 3.98187
42.1013 14.3055 3.98073
44.7994 18.4627 3.97833
44.7408 37.5003 3.85888
46.2252 37.5007 2
47.9871 58.7475 0.0199758
48.5929 55.9197 0.0218328
50 45.2674 0.022069
49.6225 49.0373 0.0271359
49.1095 52.586 0.0279871
45.8623 39.8717 0.104118
46.3011 42.6749 0.061159
46.4062 45.8405 0.00698722
43.7024 41.1686 0.136803
41.9586 42.0235 0.207364
46.8374 57.3512 2
44.4631 39.4592 2
42.303 40.8885 2
48.0106 47.2353 2
47.1582 54.2481 2
47.5571 50.7425 2
44.741 47.3986 2
44.9815 41.9757 2
44.8754 44.591 2
42.5842 42.7081 2
40.8544 42.3723 2
45.395 55.9384 3.98707
42.6322 39.2774 3.83403
40.7641 40.8099 3.88762
46.0441 48.9121 3.98608
45.5223 52.5364 3.98197
43.4043 48.4524 4.0061
43.3309 46.131 3.94306
43.593 43.7726 3.89412
41.0885 43.857 3.86138
39.2891 42.729 3.83535
45.4691 58.7972 0.0166674
43.8764 57.7235 2
42.1065 56.3498 3.98827
35.4632 67.6614 0.0139322
37.6423 65.5149 0.015857
39.894 63.5587 0.0162382
41.7542 62.4989 0.0162863
42.4818 59.9892 0.0155624
35.5728 65.4379 2
40.6234 61.6578 2
37.837 63.2203 2
40.4452 58.2234 2
38.9253 56.5186 3.99083
38.2505 60.3402 3.98344
35.6069 63.2131 3.98283
33.575 65.3479 0.0156511
31.9589 63.3072 0.0158787
33.6286 63.3475 2
30.3776 62.8667 2
32.1224 62.0146 2
28.6801 62.2112 3.98467
33.3453 61.5264 3.98381
31.0657 61.2313 3.98429
27.5669 59.6069 3.9824
23.7903 59.0921 3.98032
25.0331 60.8815 3.98258
26.8675 61.51 2
26.2278 63.4861 3.9852
28.0614 64.1545 2
27.462 66.187 3.98659
29.8824 64.7258 0.014638
29.4056 66.7638 2
28.9049 68.945 3.98894
31.3762 67.1994 0.0137081
31.0128 69.4201 2
30.6139 71.7788 3.99305
33.1557 69.7546 0.0111217
32.8915 72.1482 2
32.6054 74.6784 4
35.1947 72.3736 0.00704697
35.0474 74.9197 2
37.5 75 0
33.7231 6.97768 3.98668
35.4345 4.68463 3.98976
35.6205 6.72243 2
37.5141 2.38652 3.99356
37.5231 4.61379 2
39.6238 4.71479 0.010179
39.7887 2.47355 2
39.9526 0.0806499 4
42.0623 2.71748 0.00659311
42.3947 0.320817 2
44.8158 0.721173 0
44.4705 35.552 3.85313
42.3191 34.1157 3.81659
47.3855 40.4074 0.0571266
50.398 38.5122 0.0116648
53.8756 36.6291 0.0223409
48.0539 37.754 2
51.208 35.5802 2
45.8838 35.1215 2
43.7361 33.8165 2
41.9756 32.9796 2
48.222 34.3071 3.97965
44.9719 33.0393 3.89252
42.5672 32.3234 3.86247
40.8657 32.6384 3.82017
37.3106 10.6273 3.98321
37.4576 8.53095 2
37.516 6.67199 0.0126658
39.2109 8.69044 0.0149915
38.9764 10.1233 2
34.7535 10.3763 3.98345
35.8982 9.76961 2
32.3766 9.36631 3.9845
34.1498 8.81898 2
35.9414 8.49013 0.0146227
52.3594 32.8841 0.0200529
51.2537 29.1633 0.0219109
50.7492 25.7385 0.0277282
49.9307 22.2036 0.0228771
47.5022 19.2327 0.0234278
45.8021 15.4232 0.0197684
43.858 11.9189 0.0179232
40.5697 11.6066 0.0178298
49.8927 31.4121 2
38.3017 12.7317 2
42.1008 14.305 2
49.2323 27.5011 2
49.3797 24.4171 2
47.1823 21.9666 2
44.7993 18.4626 2
47.7173 29.5322 3.99091
47.0756 25.1576 3.98228
44.2864 21.3258 3.97536
36.5819 12.9283 3.98211
38.6813 14.8038 3.98075
41.7495 17.8379 3.97994
42.7689 37.4922 3.83406
44.7547 37.5001 2
46.1959 37.494 0.0992075
46.8375 57.3497 0.0172171
47.1572 54.2441 0.0229613
48.0088 47.2339 0.0238251
47.5548 50.7412 0.0315138
44.4497 39.4486 0.141396
44.9648 41.9627 0.102322
44.8605 44.576 0.0533063
44.7371 47.4224 0.00808487
42.5587 42.6878 0.135529
42.3069 40.8877 0.180095
40.8562 42.3714 0.177484
45.3953 55.9398 2
42.6322 39.2755 2
40.7594 40.8054 2
46.0455 48.9128 2
45.5247 52.5412 2
43.4071 48.4688 2
43.353 46.154 2
43.6103 43.7897 2
41.1069 43.8765 2
39.2817 42.7232 2
43.7315 54.4546 3.9973
40.8689 39.1757 3.91567
39.1693 40.9018 3.91689
43.6705 50.5056 3.99884
41.9242 47.6789 3.97651
41.8506 45.1941 3.89628
39.3652 44.5936 3.87499
37.4907 42.8503 3.84681
43.8767 57.7228 0.0153039
42.1059 56.3512 2
40.4175 54.9609 3.99243
35.5728 65.437 0.0158276
37.8371 63.2197 0.0169939
40.6236 61.6571 0.0166967
40.4455 58.222 0.0149586
35.6068 63.2139 2
38.2502 60.3409 2
38.9247 56.521 2
37.999 55.2761 3.99175
36.9343 57.6443 3.9848
35.3633 60.9249 3.9833
33.6286 63.3468 0.0164835
30.3777 62.866 0.0155752
32.1225 62.0139 0.0153944
33.3451 61.5272 2
28.6801 62.2119 2
31.0656 61.232 2
29.4018 60.3013 3.98399
32.3557 59.7593 3.98595
28.0209 58.3867 3.9855
27.5668 59.6075 2
25.3772 58.6047 3.97998
22.7544 58.2486 3.97511
23.399 60.3606 3.98066
23.7902 59.0931 2
25.0332 60.8823 2
24.4305 62.7784 3.98441
26.8674 61.5094 0.0161478
26.228 63.4867 2
25.5459 65.497 3.98664
28.0612 64.1537 0.0146615
27.4621 66.1876 2
26.8344 68.3333 3.98899
29.4055 66.7631 0.0135013
28.9049 68.9456 2
28.3689 71.2639 3.99313
31.0128 69.4195 0.0111269
30.6137 71.7791 2
30.1842 74.2788 4
32.8916 72.1478 0.00700441
32.6053 74.6792 2
35.0474 74.9194 0
31.7875 7.4175 3.9863
33.3464 4.92379 3.98957
33.723 6.97704 2
35.2442 2.46264 3.99356
35.4344 4.68411 2
35.6205 6.72308 0.0128862
37.5 0 4
37.5141 2.3862 2
37.5231 4.61431 0.0100481
39.7886 2.47385 0.00645197
39.9526 0.0802889 2
42.3946 0.32156 0
42.6413 35.7153 3.83449
44.4794 35.5425 2
40.7751 34.1958 3.88643
42.3142 34.1162 2
48.0407 37.7449 0.0416469
51.1988 35.5808 0.0214203
45.8659 35.1375 0.103268
43.713 33.8326 0.141205
41.9671 32.9872 0.210927
48.2343 34.2903 2
44.9897 33.0272 2
42.5897 32.3052 2
40.8642 32.6369 2
46.2358 31.559 3.95642
43.5992 31.2404 3.88901
41.1031 31.1584 3.86275
39.2967 32.2797 3.83445
35.6921 11.7722 3.98226
37.3106 10.6265 2
37.4577 8.53186 0.0147733
38.9765 10.124 0.0155335
33.0973 11.213 3.98238
34.7534 10.3755 2
35.8983 9.77037 0.0160761
30.4813 10.0143 3.98399
32.3765 9.3656 2
34.15 8.81967 0.0149084
49.8863 31.4171 0.0307983
49.2308 27.4978 0.0231806
49.3784 24.4177 0.0188276
47.1812 21.9663 0.0254933
44.7994 18.4627 0.0216672
42.1013 14.3055 0.0192701
38.3022 12.7323 0.0181328
36.5815 12.9278 2
47.7192 29.5191 2
38.6806 14.8033 2
41.749 17.8369 2
47.0777 25.1579 2
44.2874 21.321 2
45.5056 27.651 4.00064
43.7869 24.0529 3.99879
41.3403 20.7157 3.98064
35.7718 14.754 3.98138
38.6811 17.5933 3.97856
40.9177 37.4844 3.92727
42.7726 37.4935 2
44.7408 37.5003 0.141124
45.395 55.9384 0.0129324
45.5223 52.5364 0.0180259
46.0441 48.9121 0.0139193
42.6322 39.2774 0.165967
43.593 43.7726 0.105878
43.3309 46.131 0.0569379
43.4043 48.4524 -0.0061039
41.0885 43.857 0.13862
40.7641 40.8099 0.112385
39.2891 42.729 0.164654
43.7324 54.4569 2
40.864 39.1728 2
39.1632 40.8939 2
43.6737 50.5172 2
41.9259 47.6908 2
41.874 45.2101 2
37.4923 42.8416 2
39.3866 44.6017 2
41.8734 53.0314 3.99495
39.1853 39.1778 3.94792
37.4922 40.9493 3.93338
35.7 42.7275 3.83593
40.9041 49.7345 4.00188
39.8034 46.0982 3.87812
37.4931 44.8221 3.86858
42.1065 56.3498 0.0117337
40.4168 54.9626 2
38.7276 53.8927 3.99512
35.6069 63.2131 0.0171671
38.2505 60.3402 0.0165603
38.9253 56.5186 0.00917484
35.363 60.9256 2
36.9338 57.6453 2
37.9984 55.2775 2
36.3195 55.4056 3.99222
34.4869 58.5372 3.98561
33.3453 61.5264 0.0161905
28.6801 62.2112 0.0153277
31.0657 61.2313 0.015708
32.3555 59.7601 2
29.4017 60.3019 2
30.2966 57.8338 3.98589
28.0205 58.3873 2
26.9438 56.8363 3.97981
27.5669 59.6069 0.0176021
25.3771 58.6055 2
23.8373 56.8088 3.9734
21.3315 57.4056 3.97491
21.9918 59.6311 3.97981
22.7542 58.2499 2
22.7344 62.0294 3.9831
23.399 60.3615 2
23.7903 59.0921 0.0196764
25.0331 60.8815 0.0174161
24.4306 62.7791 2
23.6798 64.7154 3.98623
26.2278 63.4861 0.0148004
25.5461 65.4976 2
24.8065 67.5944 3.98904
27.462 66.187 0.0134063
26.8344 68.3339 2
26.1641 70.6047 3.9932
28.9049 68.945 0.0110643
28.3687 71.2642 2
27.7943 73.7221 4
30.6139 71.7788 0.00695449
30.1841 74.2794 2
32.6054 74.6784 0
29.8099 7.99075 3.9858
31.2515 5.33092 3.98916
31.7873 7.41679 2
32.9798 2.70082 3.99343
33.3463 4.92324 2
33.7231 6.97768 0.0133229
35.0474 0.080333 4
35.2442 2.46233 2
35.4345 4.68463 0.0102356
37.5 0 2
37.5141 2.38652 0.00643675
39.9526 0.0806499 0
40.8739 35.8055 3.91744
42.6404 35.7181 2
44.4705 35.552 0.146866
28.542 10.6895 3.98381
39.1768 34.1058 3.91642
40.7683 34.2008 2
42.3191 34.1157 0.183407
48.222 34.3071 0.0203525
44.9719 33.0393 0.107476
42.5672 32.3234 0.137528
40.8657 32.6384 0.179828
46.2546 31.5513 2
43.6106 31.2259 2
41.122 31.1393 2
39.2916 32.2844 2
44.3734 29.7485 3.94553
41.8709 29.8217 3.89968
39.386 30.4146 3.87613
37.4996 32.1598 3.84791
34.0919 12.9304 3.98158
35.692 11.7714 2
37.3106 10.6273 0.0167929
31.1851 11.981 3.98279
33.0972 11.2122 2
34.7535 10.3763 0.0165537
30.4811 10.0134 2
32.3766 9.36631 0.0154974
47.7173 29.5322 0.00909145
47.0756 25.1576 0.0177224
36.5819 12.9283 0.0178922
44.2864 21.3258 0.0246354
41.7495 17.8379 0.0200604
38.6813 14.8038 0.0192469
35.7711 14.7536 2
45.5069 27.6498 2
38.6802 17.5924 2
41.3401 20.7133 2
43.7886 24.0517 2
33.607 15.8703 3.98124
43.0306 26.4827 3.99806
40.9102 23.2838 4.00056
38.4202 20.3261 3.97949
35.8477 17.5035 3.9817
39.2024 37.4855 3.95574
40.9092 37.4844 2
42.7689 37.4922 0.165936
43.7315 54.4546 0.00270455
43.6705 50.5056 0.00116263
40.8689 39.1757 0.0843258
41.8506 45.1941 0.103716
41.9242 47.6789 0.0234875
39.3652 44.5936 0.125015
39.1693 40.9018 0.0831115
37.4907 42.8503 0.153191
41.8757 53.0357 2
39.1781 39.1759 2
37.4922 40.9411 2
40.9107 49.739 2
35.7045 42.7228 2
39.8276 46.1194 2
37.4904 44.826 2
39.8107 51.9442 3.99446
37.4907 39.1915 3.96673
35.8138 40.9106 3.91657
34.1278 42.369 3.82122
35.6001 44.5936 3.87264
38.6966 48.7531 3.98754
37.4826 46.4207 3.88135
40.4175 54.9609 0.00756523
38.7276 53.893 2
36.7188 53.2431 4.00669
35.3633 60.9249 0.0167002
36.9343 57.6443 0.0152
37.999 55.2761 0.00824577
34.4865 58.538 2
36.3188 55.407 2
33.2263 55.5226 3.98897
32.3557 59.7593 0.0140509
29.4018 60.3013 0.0160142
30.2963 57.8346 2
28.6897 55.3256 3.97899
28.0209 58.3867 0.0145014
26.9432 56.8367 2
25.3096 55.146 3.97474
21.8076 55.3515 3.96996
25.3772 58.6047 0.0200206
23.8369 56.8105 2
20.2162 57.0329 3.97827
20.6431 58.7879 3.97784
21.3312 57.4072 2
21.1648 61.1779 3.98131
21.9917 59.6323 2
22.7544 58.2486 0.0248914
21.8933 63.8431 3.98552
22.7345 62.0303 2
23.399 60.3606 0.0193354
24.4305 62.7784 0.0155872
23.68 64.716 2
22.8347 66.7381 3.98909
25.5459 65.497 0.0133606
24.8066 67.5949 2
24.0083 69.8058 3.99322
26.8344 68.3333 0.011005
26.1638 70.6049 2
25.446 73.0099 4
28.3689 71.2639 0.00687252
27.7943 73.7222 2
30.1842 74.2788 0
27.8197 8.65037 3.98553
29.1534 5.87669 3.98873
29.8097 7.98995 2
30.725 3.09801 3.99323
31.2514 5.33035 2
31.7875 7.4175 0.0137001
32.6053 0.320823 4
32.9798 2.70048 2
33.3464 4.92379 0.0104325
35.0474 0.0802903 2
35.2442 2.46264 0.00643541
37.5 0 0
39.1973 35.8057 3.94693
40.8677 35.8088 2
42.6413 35.7153 0.165511
28.5419 10.6888 2
26.6207 11.3846 3.98398
29.2239 12.6373 3.98335
37.4982 34.0599 3.93358
39.1695 34.1136 2
40.7751 34.1958 0.113567
46.2358 31.559 0.0435804
43.5992 31.2404 0.110991
41.1031 31.1584 0.137246
39.2967 32.2797 0.165552
44.3901 29.7338 2
41.8903 29.8035 2
39.4022 30.4011 2
37.501 32.1686 2
42.3535 28.3888 3.93206
39.8573 28.9074 3.89496
37.5172 30.1763 3.86697
35.7071 32.2766 3.83467
31.9133 14.4751 3.98218
34.0918 12.9296 2
35.6921 11.7722 0.0177426
31.1851 11.9802 2
33.0973 11.213 0.0176191
30.4813 10.0143 0.0160121
45.5056 27.651 -0.000644207
43.7869 24.0529 0.00120681
35.7718 14.754 0.0186196
41.3403 20.7157 0.0193569
38.6811 17.5933 0.0214352
33.6063 15.8699 2
35.8465 17.5036 2
43.0343 26.4828 2
38.4198 20.3248 2
40.9099 23.277 2
33.549 17.3791 3.98308
40.4101 25.6243 4.0067
38.0748 22.8586 3.99436
35.583 20.0706 3.98481
37.4948 37.4952 3.97529
39.1938 37.4856 2
40.9177 37.4844 0.0727322
41.8734 53.0314 0.00505118
40.9041 49.7345 -0.00187801
39.1853 39.1778 0.0520794
39.8034 46.0982 0.12188
37.4931 44.8221 0.131416
37.4922 40.9493 0.0666234
35.7 42.7275 0.164071
39.8158 51.9472 2
37.492 39.1882 2
35.8212 40.9032 2
38.6976 48.7834 2
34.1286 42.3701 2
35.5882 44.6092 2
37.4843 46.4414 2
37.6482 51.0397 4.00975
35.8011 39.1939 3.94869
34.2227 40.8185 3.88748
33.02 42.0214 3.78998
33.883 43.8464 3.86151
35.1475 46.0847 3.88931
36.8513 48.3964 3.96522
38.7276 53.8927 0.0048837
36.7196 53.2447 2
34.3605 52.4962 3.99399
34.4869 58.5372 0.0143895
36.3195 55.4056 0.00777813
33.2255 55.5234 2
30.519 53.3919 3.9805
30.2966 57.8338 0.0141073
28.689 55.3269 2
26.8828 53.4378 3.97458
26.9438 56.8363 0.020189
25.3091 55.1489 2
23.5741 53.48 3.96807
20.4687 53.2181 3.96429
19.9299 55.8345 3.97347
21.8067 55.3529 2
23.8373 56.8088 0.0266027
19.4357 57.8948 3.97707
20.2157 57.0345 2
19.7045 60.2101 3.97952
20.6429 58.7891 2
21.3315 57.4056 0.0250909
20.2059 62.8637 3.98384
21.1648 61.1791 2
21.9918 59.6311 0.0201945
20.9362 65.767 3.98885
21.8934 63.844 2
22.7344 62.0294 0.0168988
23.6798 64.7154 0.0137744
22.8348 66.7387 2
21.9107 68.8728 3.99321
24.8065 67.5944 0.010962
24.008 69.8059 2
23.1494 72.1454 4
26.1641 70.6047 0.00680003
25.446 73.0099 2
27.7943 73.7221 0
25.8587 9.37851 3.98527
27.0681 6.54078 3.98826
27.8195 8.6496 2
28.4871 3.64399 3.993
29.1533 5.87606 2
29.8099 7.99075 0.0141999
30.1841 0.720592 4
30.7248 3.09769 2
31.2515 5.33092 0.0108364
32.6053 0.320817 2
32.9798 2.70082 0.00656942
35.0474 0.080333 0
37.4978 35.805 3.96784
39.1872 35.8078 2
40.8739 35.8055 0.0825559
24.7756 12.0674 3.98417
23.7501 14.3523 3.98328
28.542 10.6895 0.0161889
26.6208 11.384 2
29.2239 12.6366 2
27.29 13.3697 3.98361
29.7789 14.1964 3.9829
35.8236 34.0983 3.9175
37.4982 34.0679 2
39.1768 34.1058 0.0835784
37.4996 32.1598 0.152089
44.3734 29.7485 0.0544748
41.8709 29.8217 0.100316
39.386 30.4146 0.123868
42.3721 28.3694 2
39.8722 28.8829 2
37.5174 30.1729 2
35.7142 32.2813 2
40.0466 27.5353 3.92761
37.5283 28.5822 3.89185
35.6266 30.4162 3.8763
34.1436 32.6324 3.8202
30.9246 16.8311 3.9827
31.9131 14.4744 2
34.0919 12.9304 0.0184176
31.1851 11.981 0.0172105
43.0306 26.4827 0.00194126
40.9102 23.2838 -0.000558114
33.607 15.8703 0.018757
35.8477 17.5035 0.0182962
38.4202 20.3261 0.0205117
33.5481 17.3793 2
35.5826 20.0705 2
40.4103 25.6181 2
38.0727 22.8569 2
32.8618 19.7847 3.98393
37.8005 25.17 4.01435
35.2002 22.6258 3.99178
35.7922 37.501 3.95819
37.4952 37.4946 2
39.2024 37.4855 0.0442616
39.8107 51.9442 0.00554124
38.6966 48.7531 0.0124628
37.4907 39.1915 0.0332673
37.4826 46.4207 0.118646
35.6001 44.5936 0.127358
35.8138 40.9106 0.0834349
34.1278 42.369 0.178777
37.6545 51.0507 2
35.8116 39.191 2
34.2288 40.8135 2
36.8433 48.414 2
33.0121 42.028 2
33.8692 43.8622 2
35.1321 46.1016 2
35.4668 50.1684 4.00824
34.1282 39.1913 3.91858
32.6686 40.8907 3.81867
32.4197 42.6847 3.86706
33.1307 45.186 3.8979
34.2635 47.457 3.93823
36.7188 53.2431 -0.00668696
34.3616 52.4999 2
32.0047 51.1996 4.00101
33.2263 55.5226 0.0110318
30.5184 53.3956 2
28.4296 51.6054 3.97851
28.6897 55.3256 0.0210055
26.8819 53.4399 2
25.0817 51.7483 3.96555
25.3096 55.146 0.0252634
23.5731 53.4815 2
21.9689 51.8012 3.96469
19.2028 51.6334 3.96876
18.9212 54.3065 3.96632
20.4676 53.2178 2
18.4448 56.7259 3.97678
19.9292 55.8361 2
21.8076 55.3515 0.0300382
18.3671 59.1149 3.97666
19.4352 57.8959 2
20.2162 57.0329 0.0217313
18.6171 61.77 3.98177
19.7044 60.2114 2
20.6431 58.7879 0.0221617
19.1253 64.6776 3.9879
20.2059 62.8649 2
21.1648 61.1779 0.0186865
19.8848 67.8094 3.99306
20.9363 65.7678 2
21.8933 63.8431 0.014477
22.8347 66.7381 0.0109115
21.9105 68.873 2
20.9142 71.1327 4
24.0083 69.8058 0.00678234
23.1494 72.1455 2
25.446 73.0099 0
23.0949 12.7821 3.9838
23.9712 10.1651 3.98513
25.0218 7.31104 3.98791
25.8587 9.37787 2
26.2788 4.32826 3.99276
27.0679 6.54017 2
27.8197 8.65037 0.0144661
27.7943 1.27781 4
28.4869 3.64368 2
29.1534 5.87669 0.0112748
30.1841 0.720551 2
30.725 3.09801 0.0067693
32.6053 0.320823 0
35.8036 35.8107 3.94991
37.4975 35.8075 2
39.1973 35.8057 0.0530726
24.7757 12.067 2
23.7504 14.352 2
22.4789 15.029 3.98266
25.3562 13.9016 3.98317
24.0233 15.6146 3.98212
26.6207 11.3846 0.016018
29.2239 12.6373 0.0166522
27.2902 13.3693 2
29.7789 14.1958 2
28.3549 15.9699 3.98326
34.2355 34.1903 3.88647
35.8307 34.1055 2
37.4982 34.0599 0.0664168
35.7071 32.2766 0.165331
37.5172 30.1763 0.133033
42.3535 28.3888 0.0679411
39.8573 28.9074 0.105037
40.0595 27.5204 2
37.5317 28.5587 2
35.6119 30.3976 2
34.1438 32.6312 2
37.6192 27.2229 3.93864
35.1866 28.9019 3.89231
33.8952 31.1524 3.86148
33.044 32.9783 3.79075
30.2066 19.3334 3.98589
30.9242 16.831 2
31.9133 14.4751 0.0178244
40.4101 25.6243 -0.00670288
38.0748 22.8586 0.00564005
33.549 17.3791 0.0169214
35.583 20.0706 0.0151855
32.8609 19.7856 2
35.1973 22.6235 2
37.789 25.1698 2
32.3097 22.3988 3.99064
34.9853 25.1596 4.00698
34.0782 37.5021 3.9281
35.8017 37.5004 2
37.4948 37.4952 0.0247099
37.6482 51.0397 -0.00974629
36.8513 48.3964 0.0347763
35.8011 39.1939 0.0513092
35.1475 46.0847 0.110691
33.883 43.8464 0.138491
34.2227 40.8185 0.11252
33.02 42.0214 0.210018
35.4638 50.1809 2
34.1379 39.1884 2
32.6719 40.8899 2
34.2588 47.4902 2
32.4006 42.6992 2
33.1143 45.2038 2
33.2469 49.1575 4.00648
32.3485 39.2854 3.83623
31.2655 41.1696 3.85936
31.3935 43.767 3.89067
32.2502 46.3739 3.93681
34.3605 52.4962 0.00601335
32.0033 51.2074 2
29.8623 49.7188 3.98951
30.519 53.3919 0.0195007
28.4279 51.6047 2
26.5138 49.9881 3.97104
26.8828 53.4378 0.025424
25.08 51.7474 2
23.3488 50.1946 3.9716
23.5741 53.48 0.0319348
21.9679 51.8005 2
20.4673 50.3168 3.96986
17.9905 50.3311 3.96984
17.835 52.789 3.96655
19.2022 51.6329 2
17.4358 55.3403 3.96997
18.9201 54.3067 2
20.4687 53.2181 0.0357136
17.1333 57.876 3.97655
18.4441 56.7269 2
19.9299 55.8345 0.0265323
17.135 60.5517 3.97904
18.3669 59.1162 2
19.4357 57.8948 0.0229275
17.4061 63.4696 3.98576
18.6172 61.7713 2
19.7045 60.2101 0.0204759
17.941 66.6178 3.99279
19.1253 64.6786 2
20.2059 62.8637 0.0161617
18.75 69.9759 4
19.8845 67.8095 2
20.9362 65.767 0.0111549
21.9107 68.8728 0.00678849
20.9142 71.1327 2
23.1494 72.1454 0
21.5859 13.6023 3.9832
22.1893 11.0243 3.98481
23.0953 12.7819 2
23.0397 8.17648 3.98771
23.9712 10.1646 2
24.1164 5.14304 3.99253
25.0216 7.31051 2
25.8587 9.37851 0.0147277
25.446 1.99014 4
26.2785 4.32801 2
27.0681 6.54078 0.0117446
27.7943 1.27778 2
28.4871 3.64399 0.00699757
30.1841 0.720592 0
34.1254 35.8138 3.91668
35.8122 35.8124 2
37.4978 35.805 0.0321592
21.3041 15.8247 3.98233
24.7756 12.0674 0.0158275
23.7501 14.3523 0.0167185
25.3564 13.9012 2
22.4793 15.0289 2
24.0238 15.6144 2
23.2627 16.2465 3.98191
25.3787 16.0827 3.98299
27.29 13.3697 0.016394
29.7789 14.1964 0.0170953
28.3552 15.9699 2
27.4384 18.7918 3.98468
32.6927 34.1094 3.81731
34.2433 34.1951 2
35.8236 34.0983 0.0825014
34.1436 32.6324 0.179796
35.6266 30.4162 0.123704
37.5283 28.5822 0.108152
40.0466 27.5353 0.0723858
37.6209 27.1935 2
33.033 32.9727 2
35.1724 28.8828 2
33.8802 31.1317 2
35.0696 27.3486 3.94313
33.1509 29.8205 3.89272
32.4318 32.3088 3.85879
29.5755 21.9266 3.99608
30.2062 19.3346 2
30.9246 16.8311 0.0172955
37.8005 25.17 -0.0143535
35.2002 22.6258 0.00822149
32.8618 19.7847 0.0160736
32.3065 22.3994 2
34.9983 25.1562 2
31.7043 25.6154 4.0014
32.219 37.5037 3.83555
34.0882 37.5026 2
35.7922 37.501 0.0418147
35.4668 50.1684 -0.00824458
34.2635 47.457 0.0617676
34.1282 39.1913 0.0814171
33.1307 45.186 0.102102
32.4197 42.6847 0.132941
32.6686 40.8907 0.181328
33.2417 49.1487 2
32.3499 39.2827 2
31.2445 41.1815 2
32.228 46.3963 2
31.3783 43.7799 2
31.1563 47.9839 3.99513
30.518 39.4498 3.85479
30.0134 41.9653 3.89454
30.4346 44.9585 3.94465
32.0047 51.1996 -0.00101246
29.8597 49.7176 2
27.8848 48.1858 3.97489
28.4296 51.6054 0.0214928
26.512 49.987 2
24.6617 48.4734 3.97638
25.0817 51.7483 0.0344526
23.3477 50.1937 2
21.6737 48.7924 3.97163
21.9689 51.8012 0.0353147
20.4668 50.3161 2
19.0395 49.0942 3.97245
16.8954 49.332 3.97217
16.7757 51.4063 3.96904
17.9905 50.3306 2
16.3904 53.8677 3.96724
17.8343 52.7887 2
19.2028 51.6334 0.0312427
15.9756 56.4764 3.97343
17.4351 55.3412 2
18.9212 54.3065 0.0336839
15.7487 59.2117 3.97793
17.1329 57.8773 2
18.4448 56.7259 0.0232243
15.7871 62.1391 3.98278
17.135 60.5531 2
18.3671 59.1149 0.0233439
16.0878 65.3003 3.9921
17.406 63.4707 2
18.6171 61.77 0.0182281
16.6661 68.6801 4
17.9406 66.6179 2
19.1253 64.6776 0.0121044
18.75 69.9759 2
19.8848 67.8094 0.00694389
20.9142 71.1327 0
20.2181 14.5912 3.98242
21.5863 13.6023 2
20.5286 11.9941 3.98422
21.1426 9.14626 3.98762
22.1894 11.024 2
23.0949 12.7821 0.0161984
22.0154 6.08206 3.99242
23.0395 8.17605 2
23.9712 10.1651 0.0148656
23.1494 2.85457 4
24.116 5.14288 2
25.0218 7.31104 0.0120924
25.446 1.99012 2
26.2788 4.32826 0.00723898
27.7943 1.27781 0
32.3576 35.7166 3.83344
34.1335 35.8176 2
35.8036 35.8107 0.0500863
21.3045 15.8244 2
20.3019 16.959 3.98234
22.0959 16.6306 3.98052
25.3562 13.9016 0.0168333
22.4789 15.029 0.0173409
24.0233 15.6146 0.0178765
25.3792 16.0824 2
23.2632 16.2463 2
24.2027 18.4465 3.98001
27.0139 21.4504 3.98881
28.3549 15.9699 0.0167445
27.4386 18.7919 2
31.3011 33.8357 3.86203
32.6957 34.1116 2
34.2355 34.1903 0.11353
33.044 32.9783 0.209251
33.8952 31.1524 0.13852
35.1866 28.9019 0.107689
37.6192 27.2229 0.0613643
35.0536 27.32 2
32.4132 32.299 2
33.1339 29.7929 2
32.56 28.0828 3.96065
31.3948 31.2389 3.89539
28.8102 24.3946 3.98373
29.5721 21.9292 2
30.2066 19.3334 0.0141081
34.9853 25.1596 -0.00697538
32.3097 22.3988 0.00935737
31.7126 25.6022 2
29.6651 27.305 3.96769
30.2395 37.4965 3.85928
32.2192 37.5023 2
34.0782 37.5021 0.0719004
33.2469 49.1575 -0.00647601
32.2502 46.3739 0.0631894
32.3485 39.2854 0.163771
31.3935 43.767 0.109328
31.2655 41.1696 0.140637
31.154 47.9855 2
30.5033 39.4607 2
29.9968 41.9775 2
30.4119 44.9739 2
29.2026 46.5825 4.00046
29.1131 39.8566 3.8945
28.7317 43.177 3.94924
29.8623 49.7188 0.0104931
27.8824 48.1819 2
25.9706 46.6619 3.97615
26.5138 49.9881 0.0289643
24.6602 48.4717 2
22.8335 47.0813 3.9764
23.3488 50.1946 0.0284012
21.6725 48.7915 2
19.9945 47.6211 3.97696
20.4673 50.3168 0.0301418
19.0403 49.0936 2
17.6754 48.1796 3.97512
16.1435 48.6834 3.97353
16.8959 49.3316 2
15.851 50.1697 3.97014
15.3805 52.4131 3.96858
16.7753 51.4059 2
17.9905 50.3311 0.030163
14.8695 54.9755 3.96988
16.3899 53.8682 2
17.835 52.789 0.0334518
14.4584 57.74 3.97637
15.9751 56.4775 2
17.4358 55.3403 0.0300276
14.2655 60.6927 3.98128
15.7486 59.2131 2
17.1333 57.876 0.0234462
14.3324 63.8593 3.99065
15.7869 62.1402 2
17.135 60.5517 0.020958
14.6715 67.2507 4
16.0873 65.3001 2
17.4061 63.4696 0.0142359
16.6661 68.6801 2
17.941 66.6178 0.00720875
18.75 69.9759 0
18.9322 15.7787 3.98155
20.2184 14.5911 2
18.9784 13.105 3.98334
21.5859 13.6023 0.016797
20.5289 11.994 2
19.3419 10.2341 3.98736
19.99 7.14671 3.99238
21.1425 9.14594 2
22.1893 11.0243 0.0151902
20.9142 3.86727 4
22.0149 6.08204 2
23.0397 8.17648 0.0122912
23.1494 2.85451 2
24.1164 5.14304 0.00747415
25.446 1.99014 0
30.5419 35.5599 3.85895
32.3616 35.719 2
34.1254 35.8138 0.0833242
21.3041 15.8247 0.0176699
22.0963 16.6304 2
20.3021 16.9583 2
19.2425 18.4066 3.97974
21.7806 17.8475 3.98105
25.3787 16.0827 0.0170118
23.2627 16.2465 0.018093
24.2031 18.4463 2
22.278 19.8911 3.97686
24.5921 21.3197 3.98249
26.4245 23.7157 3.97338
27.0126 21.4509 2
27.4384 18.7918 0.0153155
30.0396 33.039 3.89523
31.272 33.8114 2
32.6927 34.1094 0.182686
32.4318 32.3088 0.141209
33.1509 29.8205 0.10728
35.0696 27.3486 0.0568692
32.5523 28.0711 2
31.3948 31.2271 2
30.1441 29.5362 3.96069
27.9046 26.5358 3.97654
28.8131 24.4026 2
29.5755 21.9266 0.00392075
31.7043 25.6154 -0.0014023
29.6623 27.2669 2
28.7808 37.5135 3.90148
30.233 37.4992 2
32.219 37.5037 0.164448
31.1563 47.9839 0.00486788
30.4346 44.9585 0.055352
30.518 39.4498 0.145212
30.0134 41.9653 0.105464
29.2003 46.597 2
29.0938 39.8718 2
28.7103 43.1903 2
27.3173 44.8709 3.98642
26.8823 40.5892 3.97026
27.8848 48.1858 0.0251089
25.9676 46.6647 2
24.0473 45.2207 3.9791
24.6617 48.4734 0.0236215
22.8324 47.08 2
20.9627 45.8969 3.97898
21.6737 48.7924 0.0283726
19.9954 47.6204 2
18.333 46.7386 3.97717
19.0395 49.0942 0.0275475
17.6755 48.1792 2
16.337 47.7134 3.97456
16.1439 48.683 2
15.1956 49.015 3.972
16.8954 49.332 0.0278304
15.8512 50.1695 2
14.493 50.9833 3.97008
13.8327 53.4314 3.96954
15.3803 52.4131 2
16.7757 51.4063 0.03096
13.2549 56.1664 3.97338
14.8691 54.9762 2
16.3904 53.8677 0.032764
12.8481 59.126 3.98041
14.4582 57.7412 2
15.9756 56.4764 0.0265726
12.6781 62.3016 3.98858
14.2653 60.6938 2
15.7487 59.2117 0.0220707
12.7746 65.6939 4
14.3317 63.859 2
15.7871 62.1391 0.0172192
14.6714 67.2507 2
16.0878 65.3003 0.00790178
16.6661 68.6801 0
17.667 17.1547 3.97971
18.9324 15.7783 2
17.5103 14.3698 3.98207
20.2181 14.5912 0.0175815
18.9788 13.1047 2
17.6376 11.4531 3.98651
20.5286 11.9941 0.0157836
19.342 10.2338 2
18.0501 8.33955 3.99232
18.75 5.0241 4
19.9895 7.14688 2
21.1426 9.14626 0.0123771
20.9142 3.86727 2
22.0154 6.08206 0.00758378
23.1494 2.85457 0
29.1341 35.1258 3.89711
30.5249 35.5469 2
32.3576 35.7166 0.166562
22.0959 16.6306 0.0194843
20.3019 16.959 0.0176598
21.7809 17.8471 2
19.2428 18.4059 2
17.9807 19.9399 3.97676
20.8758 19.3772 3.97945
24.2027 18.4465 0.0199855
22.2783 19.8906 2
24.5918 21.3206 2
22.3594 21.7177 3.97945
24.7003 23.1658 3.97249
25.4863 25.9451 3.9672
26.4279 23.7163 2
27.0139 21.4504 0.0111864
28.4116 32.3292 3.9435
30.0189 33.0305 2
31.3011 33.8357 0.137965
31.3948 31.2389 0.104609
32.56 28.0828 0.0393476
30.1234 29.5234 2
27.062 29.1281 4.0009
27.902 26.5334 2
28.8102 24.3946 0.0162668
29.6651 27.305 0.0323063
27.0103 37.3737 3.95463
28.7559 37.5059 2
30.2395 37.4965 0.140719
29.2026 46.5825 -0.000464816
28.7317 43.177 0.0507566
29.1131 39.8566 0.105497
27.3147 44.883 2
26.8702 40.6044 2
25.3314 43.1752 3.97116
24.1309 39.4306 3.97984
25.9706 46.6619 0.0238547
24.0388 45.2208 2
21.9467 43.9542 3.97826
22.8335 47.0813 0.0236041
20.9638 45.896 2
19.0064 44.9701 3.97807
19.9945 47.6211 0.0230411
18.3332 46.7383 2
16.6356 46.2123 3.97503
17.6754 48.1796 0.0248769
16.3371 47.7131 2
14.927 47.6696 3.97253
16.1435 48.6834 0.026469
15.1959 49.0147 2
13.79 49.5452 3.97098
15.851 50.1697 0.0298601
14.4932 50.9832 2
12.8992 51.8719 3.97062
12.1438 54.5246 3.97209
13.8326 53.4318 2
15.3805 52.4131 0.0314233
11.5334 57.4576 3.97827
13.2547 56.1674 2
14.8695 54.9755 0.0301182
11.1329 60.6275 3.98704
12.8479 59.1269 2
14.4584 57.74 0.0236309
10.9835 64.0165 4
12.6773 62.3009 2
14.2655 60.6927 0.0187178
12.7745 65.694 2
14.3324 63.8593 0.00934587
14.6715 67.2507 0
16.4006 18.6497 3.97787
17.6671 17.1541 2
16.1015 15.7792 3.9813
18.9322 15.7787 0.0184457
17.5105 14.3691 2
16.0195 12.8068 3.98453
18.9784 13.105 0.0166575
17.6378 11.4526 2
16.2013 9.66259 3.99214
19.3419 10.2341 0.0126381
18.0497 8.33986 2
16.6661 6.31991 4
18.75 5.02404 2
19.99 7.14671 0.00762168
20.9142 3.86727 0
27.5282 34.7755 3.94366
29.1088 35.1132 2
30.5419 35.5599 0.141045
16.6844 21.3779 3.97242
21.7806 17.8475 0.0189501
19.2425 18.4066 0.0202575
20.8761 19.3766 2
17.981 19.939 2
19.7262 21.5725 3.97989
22.278 19.8911 0.0231364
24.5921 21.3197 0.0175076
22.3596 21.7175 2
24.7018 23.1655 2
22.8548 24.6001 3.97094
24.6043 28.526 3.97209
25.4841 25.9438 2
26.4245 23.7157 0.026623
26.2536 31.6983 3.99007
28.3911 32.3136 2
30.0396 33.039 0.104772
30.1441 29.5362 0.0393122
27.0699 29.1261 2
27.9046 26.5358 0.0234579
24.8348 36.856 3.98647
26.992 37.3711 2
28.7808 37.5135 0.0985234
27.3173 44.8709 0.0135844
26.8823 40.5892 0.0297444
25.3211 43.1799 2
24.1202 39.431 2
23.0308 41.7965 3.9804
21.8496 38.5064 3.97714
24.0473 45.2207 0.0209018
21.946 43.9536 2
19.7843 42.8863 3.97789
20.9627 45.8969 0.0210153
19.0061 44.97 2
16.9775 44.3793 3.97544
18.333 46.7386 0.0228302
16.6357 46.212 2
14.8527 46.0898 3.97255
16.337 47.7134 0.0254413
14.9273 47.6694 2
13.2962 48.0081 3.9708
15.1956 49.015 0.0280024
13.7902 49.5451 2
12.1177 50.2516 3.97091
14.493 50.9833 0.0299243
12.8994 51.8719 2
11.1396 52.8345 3.97213
10.3249 55.7093 3.9766
12.1438 54.5251 2
13.8327 53.4314 0.0304606
9.69971 58.8496 3.98528
11.5332 57.4584 2
13.2549 56.1664 0.0266213
9.30605 62.2254 4
11.1318 60.6263 2
12.8481 59.126 0.0195877
10.9835 64.0165 2
12.6781 62.3016 0.0114246
12.7746 65.6939 0
15.148 20.186 3.97331
16.4008 18.6489 2
14.7477 17.3026 3.97907
17.667 17.1547 0.0202897
16.1017 15.7783 2
14.4822 14.2892 3.98305
17.5103 14.3698 0.0179326
16.0197 12.8061 2
14.4442 11.1136 3.99156
17.6376 11.4531 0.0134867
16.2009 9.66298 2
14.6715 7.74927 4
18.0501 8.33955 0.00767662
16.6661 6.31988 2
18.75 5.0241 0
25.4825 34.2632 3.98929
27.5082 34.7689 2
29.1341 35.1258 0.102886
17.8605 22.323 3.98348
15.5328 22.9205 3.96981
16.6846 21.377 2
20.8758 19.3772 0.0205488
17.9807 19.9399 0.0232421
19.7264 21.5717 2
19.6741 24.3798 3.96923
22.3594 21.7177 0.0205456
24.7003 23.1658 0.0275076
22.855 24.5994 2
21.972 27.8227 3.97088
23.8151 31.1859 3.97465
24.6087 28.525 2
25.4863 25.9451 0.0327956
26.2464 31.6901 2
28.4116 32.3292 0.0564951
27.062 29.1281 -0.000904673
22.5825 36.2782 3.97765
24.8174 36.8547 2
27.0103 37.3737 0.0453718
25.3314 43.1752 0.0288438
24.1309 39.4306 0.020157
23.0269 41.7949 2
21.8447 38.5062 2
20.7715 40.6362 3.97733
20.183 37.7846 3.97711
21.9467 43.9542 0.0217398
19.7847 42.8866 2
17.4015 42.0997 3.9762
19.0064 44.9701 0.021927
16.9777 44.3792 2
14.8632 44.1995 3.97264
16.6356 46.2123 0.0249703
14.8527 46.0896 2
12.9684 46.2952 3.97049
14.927 47.6696 0.0274735
13.2964 48.0081 2
11.4886 48.5493 3.97044
13.79 49.5452 0.0290197
12.1179 50.2516 2
10.2651 51.0792 3.97214
12.8992 51.8719 0.0293788
11.1398 52.8346 2
9.23404 53.8881 3.97614
8.38356 56.982 3.98402
10.3249 55.7095 2
12.1438 54.5246 0.0279068
7.74927 60.3285 4
9.69854 58.8476 2
11.5334 57.4576 0.0217262
9.306 62.2255 2
11.1329 60.6275 0.0129575
10.9835 64.0165 0
13.9626 21.7538 3.9703
15.1482 20.1851 2
13.4498 18.9009 3.97597
16.4006 18.6497 0.0221298
14.7479 17.3014 2
13.0278 15.8823 3.98199
16.1015 15.7792 0.0186967
14.4823 14.2882 2
12.7818 12.687 3.99011
16.0195 12.8068 0.0154721
14.4438 11.1141 2
12.7746 9.30605 4
16.2013 9.66259 0.0078639
14.6715 7.74924 2
16.6661 6.31991 0
23.1516 33.7999 3.9768
25.463 34.2602 2
27.5282 34.7755 0.0563404
17.6365 24.0403 3.97006
17.8607 22.3221 2
14.3164 24.4499 3.97028
15.5331 22.92 2
16.6844 21.3779 0.0275779
19.0775 27.202 3.97031
19.7262 21.5725 0.0201081
19.6741 24.3793 2
21.2383 30.6629 3.97234
22.8548 24.6001 0.0290615
21.9728 27.8226 2
23.8073 31.1862 2
24.6043 28.526 0.027909
26.2536 31.6983 0.00992507
20.3167 35.9233 3.97637
22.581 36.2775 2
24.8348 36.856 0.0135341
23.0308 41.7965 0.0195965
21.8496 38.5064 0.0228615
20.7687 40.6364 2
20.1813 37.7847 2
18.1389 39.0003 3.97605
19.7843 42.8863 0.0221093
17.4013 42.0997 2
14.8359 41.9169 3.97314
16.9775 44.3793 0.0245566
14.8634 44.1994 2
12.7117 44.3912 3.97037
14.8527 46.0898 0.0274547
12.9685 46.2952 2
10.9896 46.7335 3.96991
13.2962 48.0081 0.0291978
11.4888 48.5493 2
9.52822 49.2396 3.97165
12.1177 50.2516 0.0290899
10.2654 51.0791 2
8.26696 52.0016 3.97589
11.1396 52.8345 0.0278654
9.23434 53.8877 2
7.19266 55.0321 3.98404
6.31991 58.3339 4
8.38265 56.9792 2
10.3249 55.7093 0.0233987
7.74924 60.3285 2
9.69971 58.8496 0.0147155
9.30605 62.2254 0
13.2305 25.3621 3.97118
12.8311 23.2826 3.97003
13.9629 21.7531 2
12.237 20.5508 3.97336
15.148 20.186 0.0266893
13.4501 18.8997 2
11.6582 17.5639 3.98027
14.7477 17.3026 0.020928
13.0279 15.8812 2
11.2193 14.3721 3.98823
14.4822 14.2892 0.0169462
12.7812 12.6875 2
10.9835 10.9835 4
14.4442 11.1136 0.00844416
12.7745 9.306 2
14.6715 7.74927 0
20.6794 33.395 3.97468
23.1577 33.8002 2
25.4825 34.2632 0.0107078
15.9216 26.399 3.97019
17.6366 24.0398 2
17.8605 22.323 0.0165166
14.3167 24.4496 2
15.5328 22.9205 0.0301893
18.4309 30.1717 3.97295
19.0763 27.2018 2
19.6741 24.3798 0.030765
21.2442 30.6629 2
21.972 27.8227 0.0291211
23.8151 31.1859 0.0253463
17.7675 35.9628 3.97616
20.3175 35.9235 2
22.5825 36.2782 0.0223483
20.7715 40.6362 0.0226723
20.183 37.7846 0.0228904
18.1401 39.0004 2
14.3659 39.175 3.97364
17.4015 42.0997 0.0238006
14.8361 41.9169 2
12.4109 42.2755 3.97056
14.8632 44.1995 0.0273646
12.7118 44.3911 2
10.5665 44.8023 3.96956
12.9684 46.2952 0.0295128
10.9896 46.7336 2
8.91035 47.3192 3.97109
11.4886 48.5493 0.0295648
9.5284 49.2395 2
7.43396 50.0352 3.97529
10.2651 51.0792 0.0278553
8.26724 52.0012 2
6.13329 53.0069 3.98456
9.23404 53.8881 0.0238593
7.19212 55.0293 2
5.0241 56.25 4
6.31988 58.3339 2
8.38356 56.982 0.0159793
7.74927 60.3285 0
13.4713 26.8137 3.97036
11.9421 24.7882 3.97155
13.2308 25.3618 2
11.1417 22.2364 3.9714
12.8316 23.2822 2
13.9626 21.7538 0.0297002
12.2374 20.5499 2
10.3893 19.3193 3.97832
13.4498 18.9009 0.0240285
11.6583 17.5628 2
9.7603 16.1559 3.98645
13.0278 15.8823 0.0180069
11.2185 14.3729 2
9.30607 12.7746 4
12.7818 12.687 0.00988716
10.9835 10.9835 2
12.7746 9.30605 0
17.9302 33.1098 3.97496
20.6798 33.395 2
23.1516 33.7999 0.0231969
15.5228 29.6357 3.97183
15.9207 26.3987 2
17.6365 24.0403 0.0299436
14.3164 24.4499 0.0297175
18.432 30.1717 2
19.0775 27.202 0.0296928
21.2383 30.6629 0.0276644
14.9726 36.0174 3.97415
17.7672 35.963 2
20.3167 35.9233 0.0236265
12.6373 37.8285 3.97324
18.1389 39.0003 0.0239547
14.3665 39.175 2
11.9341 40.1394 3.97136
14.8359 41.9169 0.0268554
12.4106 42.2754 2
10.1672 42.7775 3.96886
12.7117 44.3912 0.0296343
10.5665 44.8023 2
8.38836 45.3212 3.97034
10.9896 46.7335 0.0300907
8.91039 47.3192 2
6.72523 48.0006 3.97483
9.52822 49.2396 0.0283536
7.43412 50.0348 2
5.21017 50.9102 3.98457
8.26696 52.0016 0.0241058
6.13298 53.0048 2
3.86727 54.0858 4
7.19266 55.0321 0.015961
5.02404 56.25 2
6.31991 58.3339 0
12.9318 29.0322 3.97002
11.3718 26.4871 3.97012
13.4706 26.8135 2
10.2001 23.9682 3.97243
11.9425 24.7879 2
13.2305 25.3621 0.0288237
9.24279 21.1388 3.97586
11.1423 22.2358 2
12.8311 23.2826 0.0299679
12.237 20.5508 0.0266412
10.3897 19.3185 2
8.41633 18.0275 3.98506
11.6582 17.5639 0.0197332
9.75936 16.1574 2
7.74928 14.6715 4
11.2193 14.3721 0.0117704
9.30602 12.7745 2
10.9835 10.9835 0
14.5326 32.8619 3.97325
17.9307 33.1099 2
20.6794 33.395 0.0253155
15.5229 29.6356 2
15.9216 26.399 0.0298087
18.4309 30.1717 0.0270528
12.9315 36.2084 3.97244
14.9727 36.0174 2
17.7675 35.9628 0.0238369
12.6377 37.8284 2
11.2887 38.309 3.97183
14.3659 39.175 0.0263569
11.9345 40.1393 2
9.75716 40.7538 3.96925
12.4109 42.2755 0.0294359
10.1672 42.7775 2
7.93834 43.2699 3.96938
10.5665 44.8023 0.0304387
8.38836 45.3212 2
6.13156 45.9058 3.97419
8.91035 47.3192 0.0289097
6.72526 48.0003 2
4.4218 48.7511 3.98426
7.43396 50.0352 0.0247083
5.20999 50.9089 2
2.85457 51.8506 4
6.13329 53.0069 0.0154394
3.86727 54.0858 2
5.0241 56.25 0
12.0787 31.2557 3.97105
10.784 28.4144 3.96941
12.9318 29.032 2
9.41476 25.7979 3.9713
11.3719 26.4869 2
13.4713 26.8137 0.0296363
8.22984 23.0234 3.97556
10.2006 23.9679 2
11.9421 24.7882 0.0284514
7.1988 19.9784 3.98388
9.24345 21.1386 2
11.1417 22.2364 0.0286045
10.3893 19.3193 0.0216787
8.4156 18.0298 2
6.31992 16.6661 4
9.7603 16.1559 0.0135515
7.74926 14.6714 2
9.30607 12.7746 0
12.1137 34.2942 3.97253
14.5324 32.8618 2
17.9302 33.1098 0.0250432
15.5228 29.6357 0.0281743
10.8512 36.6106 3.97156
12.9317 36.2084 2
14.9726 36.0174 0.0258473
12.6373 37.8285 0.0267614
11.289 38.3089 2
9.35305 38.823 3.9697
11.9341 40.1394 0.0286374
9.75751 40.7537 2
7.55001 41.2111 3.96913
10.1672 42.7775 0.0311425
7.93839 43.2698 2
5.64409 43.7686 3.97334
8.38836 45.3212 0.0296648
6.13156 45.9055 2
3.76752 46.537 3.98372
6.72523 48.0006 0.0251709
4.42171 48.7505 2
1.99014 49.554 4
5.21017 50.9102 0.0154253
2.85451 51.8506 2
3.86727 54.0858 0
10.9325 32.9186 3.97176
10.0981 30.3815 3.96939
12.0789 31.2557 2
8.72308 27.7316 3.97046
10.7839 28.4142 2
12.9318 29.0322 0.0299801
7.35526 24.9823 3.97508
9.41497 25.7977 2
11.3718 26.4871 0.0298778
6.11579 22.0024 3.98418
8.23041 23.0235 2
10.2001 23.9682 0.027572
5.02411 18.75 4
7.19852 19.9807 2
9.24279 21.1388 0.0241427
8.41633 18.0275 0.0149377
6.3199 16.6661 2
7.74928 14.6715 0
10.4575 34.9996 3.97134
12.1142 34.2942 2
14.5326 32.8619 0.0267471
9.02289 36.9846 3.96995
10.8518 36.6105 2
12.9315 36.2084 0.0275588
11.2887 38.309 0.0281736
9.3533 38.823 2
7.23063 39.1819 3.96941
9.75716 40.7538 0.030752
7.5502 41.211 2
5.2598 41.6142 3.97261
7.93834 43.2699 0.0306167
5.64413 43.7684 2
3.24547 44.282 3.98296
6.13156 45.9058 0.0258075
3.76753 46.5368 2
1.27781 47.2057 4
4.4218 48.7511 0.0157438
1.99012 49.554 2
2.85457 51.8506 0
10.0968 33.881 3.97131
9.39002 32.154 3.96986
10.9326 32.9185 2
8.07231 29.6951 3.97006
10.0982 30.3814 2
12.0787 31.2557 0.0289471
6.59927 27.0083 3.97427
8.72309 27.7314 2
10.784 28.4144 0.0305919
5.1711 24.0953 3.98451
7.35553 24.9823 2
9.41476 25.7979 0.028704
3.86728 20.9142 4
6.11572 22.004 2
8.22984 23.0234 0.0244444
5.02406 18.75 2
7.1988 19.9784 0.0161232
6.31992 16.6661 0
8.8475 35.2791 3.97019
10.4578 34.9995 2
12.1137 34.2942 0.0274729
7.01428 37.2057 3.96963
9.02279 36.9845 2
10.8512 36.6106 0.0284409
9.35305 38.823 0.0303049
7.23072 39.1818 2
4.98782 39.4675 3.97235
7.55001 41.2111 0.0308694
5.25999 41.614 2
2.85613 42.0024 3.98238
5.64409 43.7686 0.026658
3.24554 44.2819 2
0.720592 44.8159 4
3.76752 46.537 0.0162834
1.27778 47.2057 2
1.99014 49.554 0
8.88578 33.6974 3.97029
10.0971 33.8809 2
7.50989 31.6089 3.97023
9.39007 32.1539 2
10.9325 32.9186 0.0282373
5.94461 29.0693 3.97394
8.07222 29.695 2
10.0981 30.3815 0.0306103
4.35894 26.2478 3.98395
6.59934 27.0083 2
8.72308 27.7316 0.0295352
2.85458 23.1494 4
5.17107 24.0961 2
7.35526 24.9823 0.0249168
3.86728 20.9142 2
6.11579 22.0024 0.0158214
5.02411 18.75 0
6.96436 35.3058 3.96984
8.84778 35.279 2
10.4575 34.9996 0.0286631
4.83788 37.3398 3.9728
7.01437 37.2056 2
9.02289 36.9846 0.0300524
7.23063 39.1819 0.0305887
4.9879 39.4673 2
2.60436 39.7141 3.98191
5.2598 41.6142 0.0273879
2.85635 42.0026 2
0.320823 42.3947 4
3.24547 44.282 0.0170368
0.720551 44.8159 2
1.27781 47.2057 0
7.12388 33.4606 3.97035
8.88587 33.6973 2
10.0968 33.881 0.0286903
5.41562 31.1332 3.97378
7.50987 31.6088 2
9.39002 32.154 0.0301413
3.68079 28.4435 3.98338
5.94452 29.0693 2
8.07231 29.6951 0.0299438
1.99015 25.446 4
4.35894 26.248 2
6.59927 27.0083 0.0257304
2.85453 23.1494 2
5.1711 24.0953 0.0154928
3.86728 20.9142 0
4.85209 35.2514 3.973
6.96456 35.3058 2
8.8475 35.2791 0.0298117
2.49573 37.4286 3.98235
4.83796 37.3398 2
7.01428 37.2057 0.0303674
4.98782 39.4675 0.0276476
2.60449 39.7144 2
0.080333 39.9526 4
2.85613 42.0024 0.0176242
0.320817 42.3947 2
0.720592 44.8159 0
5.04521 33.1899 3.97355
7.124 33.4606 2
8.88578 33.6974 0.0297053
3.1452 30.6661 3.98288
5.41559 31.1333 2
7.50989 31.6089 0.0297693
1.27793 27.7943 4
3.68079 28.4436 2
5.94461 29.0693 0.0260618
1.99013 25.446 2
4.35894 26.2478 0.0160549
2.85458 23.1494 0
2.54783 35.1591 3.9825
4.8523 35.2516 2
6.96436 35.3058 0.030165
0 37.5 4
2.49586 37.4289 2
4.83788 37.3398 0.0271977
2.60436 39.7141 0.018086
0.0802903 39.9526 2
0.320823 42.3947 0
2.76532 32.9058 3.98276
5.04533 33.1901 2
7.12388 33.4606 0.0296457
0.721173 30.1842 4
3.14527 30.6664 2
5.41562 31.1332 0.0262155
1.27779 27.7943 2
3.68079 28.4435 0.016618
1.99015 25.446 0
0.0806499 35.0474 4
2.54806 35.1594 2
4.85209 35.2514 0.0270033
0 37.5 2
2.49573 37.4286 0.0176538
0.080333 39.9526 0
0.32156 32.6054 4
2.76546 32.9062 2
5.04521 33.1899 0.026446
0.72056 30.1841 2
3.1452 30.6661 0.0171154
1.27793 27.7943 0
0.0802889 35.0474 2
2.54783 35.1591 0.0175007
0 37.5 0
0.320817 32.6053 2
2.76532 32.9058 0.0172395
0.721173 30.1842 0
0.0806499 35.0474 0
0.32156 32.6054 0
CELLS 1910 17190
8 18 6 25 56 2 0 5 16
8 57 23 6 18 17 4 0 2
8 78 36 9 29 31 11 1 7
8 31 11 1 7 79 37 10 30
8 110 57 18 50 48 17 2 14
8 50 18 56 111 14 2 16 49
8 116 62 22 55 52 20 3 15
8 56 25 67 118 16 5 24 53
8 119 63 23 57 54 21 4 17
8 55 22 63 119 15 3 21 54
8 58 26 68 121 18 6 25 56
8 122 65 26 58 57 23 6 18
8 73 31 7 27 142 79 30 71
8 143 78 29 72 73 31 7 27
8 83 147 76 34 32 74 28 8
8 84 148 78 36 33 75 29 9
8 76 34 8 28 148 84 33 75
8 37 79 150 86 10 30 77 35
8 151 87 36 78 80 38 11 31
8 80 38 11 31 152 88 37 79
8 175 100 42 94 96 44 12 40
8 44 96 176 101 12 40 95 43
8 101 176 98 46 43 95 41 13
8 46 98 178 103 13 41 97 45
8 178 103 45 97 147 83 32 74
8 189 116 55 109 106 52 15 47
8 111 56 118 191 49 16 53 107
8 192 119 57 110 108 54 17 48
8 109 55 119 192 47 15 54 108
8 194 122 58 112 110 57 18 50
8 112 58 121 195 50 18 56 111
8 115 61 19 51 197 124 59 113
8 115 61 125 198 51 19 60 114
8 198 125 62 116 114 60 20 52
8 200 127 64 120 116 62 22 55
8 118 67 132 202 53 24 66 117
8 121 68 133 203 56 25 67 118
8 120 64 128 204 55 22 63 119
8 204 128 65 122 119 63 23 57
8 206 134 68 121 123 69 26 58
8 123 69 26 58 207 131 65 122
8 226 147 74 138 140 76 28 70
8 229 148 75 139 143 78 29 72
8 140 76 28 70 229 148 75 139
8 142 79 30 71 231 150 77 141
8 144 80 31 73 232 152 79 142
8 233 151 78 143 144 80 31 73
8 150 86 35 77 235 154 81 145
8 235 154 81 145 146 82 39 91
8 146 82 39 91 236 155 90 165
8 238 157 83 147 149 85 34 76
8 239 158 84 148 151 87 36 78
8 149 85 34 76 239 158 84 148
8 152 88 37 79 241 160 86 150
8 242 161 87 151 153 89 38 80
8 153 89 38 80 243 162 88 152
8 171 98 41 92 265 178 97 169
8 265 178 97 169 226 147 74 138
8 172 96 40 93 266 176 95 170
8 266 176 95 170 171 98 41 92
8 269 175 94 173 172 96 40 93
8 271 180 99 174 175 100 42 94
8 197 124 59 113 271 180 99 174
8 272 181 100 175 177 102 44 96
8 273 182 101 176 179 104 46 98
8 177 102 44 96 273 182 101 176
8 179 104 46 98 275 184 103 178
8 275 184 103 178 238 157 83 147
8 188 115 51 105 283 197 113 186
8 188 115 198 284 105 51 114 187
8 284 198 116 189 187 114 52 106
8 286 200 120 193 189 116 55 109
8 191 118 202 288 107 53 117 190
8 195 121 203 289 111 56 118 191
8 193 120 204 290 109 55 119 192
8 290 204 122 194 192 119 57 110
8 196 123 58 112 292 207 122 194
8 293 206 121 195 196 123 58 112
8 199 126 61 115 297 211 124 197
8 298 212 127 200 198 125 62 116
8 199 126 212 298 115 61 125 198
8 205 129 64 120 300 214 127 200
8 301 217 130 201 202 132 66 117
8 209 136 168 264 301 217 130 201
8 302 219 132 202 203 133 67 118
8 303 220 133 203 206 134 68 121
8 205 129 215 304 120 64 128 204
8 304 215 131 207 204 128 65 122
8 306 221 134 206 208 135 69 123
8 208 135 69 123 307 218 131 207
8 210 137 167 263 309 223 136 209
8 328 238 147 226 230 149 76 140
8 228 146 91 166 329 236 165 260
8 231 150 77 141 330 235 145 227
8 330 235 145 227 228 146 91 166
8 332 239 148 229 233 151 78 143
8 230 149 76 140 332 239 148 229
8 232 152 79 142 334 241 150 231
8 234 153 80 144 335 243 152 232
8 336 242 151 233 234 153 80 144
8 236 155 90 165 338 245 164 259
8 241 160 86 150 339 246 154 235
8 339 246 154 235 237 156 82 146
8 237 156 82 146 340 247 155 236
8 342 249 157 238 240 159 85 149
8 343 250 158 239 242 161 87 151
8 240 159 85 149 343 250 158 239
8 243 162 88 152 345 252 160 241
8 244 163 253 346 153 89 161 242
8 244 163 89 153 347 254 162 243
8 311 224 261 371 210 137 167 263
8 263 167 262 372 209 136 168 264
8 267 179 98 171 375 275 178 265
8 375 275 178 265 328 238 147 226
8 376 273 176 266 267 179 98 171
8 268 177 96 172 376 273 176 266
8 379 272 175 269 268 177 96 172
8 380 271 174 270 269 175 94 173
8 283 197 113 186 380 271 174 270
8 381 277 180 271 272 181 100 175
8 297 211 124 197 381 277 180 271
8 382 278 181 272 274 183 102 177
8 274 183 102 177 383 279 182 273
8 383 279 182 273 276 185 104 179
8 385 281 184 275 342 249 157 238
8 276 185 104 179 385 281 184 275
8 285 199 115 188 393 297 197 283
8 394 298 200 286 284 198 116 189
8 285 199 298 394 188 115 198 284
8 291 205 120 193 396 300 200 286
8 397 301 201 287 288 202 117 190
8 295 209 264 374 397 301 201 287
8 398 302 202 288 289 203 118 191
8 399 303 203 289 293 206 121 195
8 291 205 304 400 193 120 204 290
8 400 304 207 292 290 204 122 194
8 294 208 123 196 402 307 207 292
8 403 306 206 293 294 208 123 196
8 296 210 263 373 405 309 209 295
8 408 312 213 299 297 211 126 199
8 299 213 313 409 199 126 212 298
8 409 313 214 300 298 212 127 200
8 305 216 129 205 411 315 214 300
8 412 318 217 301 302 219 132 202
8 309 223 136 209 412 318 217 301
8 413 320 219 302 303 220 133 203
8 306 221 321 414 206 134 220 303
8 307 218 131 207 415 316 215 304
8 305 216 316 415 205 129 215 304
8 417 322 221 306 308 222 135 208
8 308 222 135 208 418 319 218 307
8 310 225 137 210 420 325 223 309
8 423 326 224 311 310 225 137 210
8 329 236 165 260 441 338 259 368
8 442 342 238 328 333 240 149 230
8 331 237 146 228 443 340 236 329
8 334 241 150 231 444 339 235 330
8 444 339 235 330 331 237 146 228
8 446 343 239 332 336 242 151 233
8 333 240 149 230 446 343 239 332
8 335 243 152 232 448 345 241 334
8 337 244 153 234 449 347 243 335
8 337 244 346 450 234 153 242 336
8 338 245 164 259 452 349 258 367
8 340 247 155 236 453 350 245 338
8 345 252 160 241 454 351 246 339
8 454 351 246 339 341 248 156 237
8 341 248 156 237 455 352 247 340
8 240 159 251 344 342 249 354 457
8 242 161 253 346 343 250 355 458
8 343 250 355 458 240 159 251 344
8 347 254 162 243 460 357 252 345
8 348 255 358 461 244 163 253 346
8 348 255 163 244 462 359 254 347
8 473 360 257 365 363 256 364 482
8 452 349 258 367 365 257 366 485
8 422 324 369 488 311 224 261 371
8 371 261 370 490 263 167 262 372
8 407 311 371 491 296 210 263 373
8 373 263 372 492 295 209 264 374
8 493 385 275 375 442 342 238 328
8 377 276 179 267 493 385 275 375
8 378 274 177 268 494 383 273 376
8 494 383 273 376 377 276 179 267
8 497 382 272 379 378 274 177 268
8 498 381 271 380 379 272 175 269
8 393 297 197 283 498 381 271 380
8 499 387 277 381 382 278 181 272
8 408 312 211 297 499 387 277 381
8 500 388 278 382 384 280 183 274
8 501 389 279 383 386 282 185 276
8 384 280 183 274 501 389 279 383
8 386 282 185 276 503 391 281 385
8 503 391 281 385 457 354 249 342
8 511 408 299 395 393 297 199 285
8 395 299 409 512 285 199 298 394
8 512 409 300 396 394 298 200 286
8 401 305 205 291 514 411 300 396
8 515 412 301 397 398 302 202 288
8 405 309 209 295 515 412 301 397
8 516 413 302 398 399 303 203 289
8 403 306 414 517 293 206 303 399
8 402 307 207 292 518 415 304 400
8 401 305 415 518 291 205 304 400
8 404 308 208 294 520 418 307 402
8 521 417 306 403 404 308 208 294
8 406 310 210 296 523 420 309 405
8 526 423 311 407 406 310 210 296
8 410 314 213 299 527 424 312 408
8 528 425 315 411 409 313 214 300
8 410 314 425 528 299 213 313 409
8 416 317 216 305 530 427 315 411
8 531 430 318 412 413 320 219 302
8 420 325 223 309 531 430 318 412
8 532 432 320 413 414 321 220 303
8 417 322 433 533 306 221 321 414
8 418 319 218 307 534 428 316 415
8 416 317 428 534 305 216 316 415
8 419 323 434 536 308 222 322 417
8 419 323 222 308 537 431 319 418
8 421 327 225 310 539 438 325 420
8 421 327 439 541 310 225 326 423
8 543 437 324 422 423 326 224 311
8 441 338 259 368 559 452 367 486
8 443 340 236 329 560 453 338 441
8 333 240 344 447 442 342 457 561
8 445 341 237 331 562 455 340 443
8 448 345 241 334 563 454 339 444
8 563 454 339 444 445 341 237 331
8 336 242 346 450 446 343 458 565
8 446 343 458 565 333 240 344 447
8 449 347 243 335 567 460 345 448
8 451 348 244 337 568 462 347 449
8 451 348 461 569 337 244 346 450
8 570 463 349 452 473 360 257 365
8 453 350 245 338 570 463 349 452
8 455 352 247 340 571 464 350 453
8 460 357 252 345 572 465 351 454
8 572 465 351 454 456 353 248 341
8 456 353 248 341 573 466 352 455
8 344 251 356 459 457 354 468 575
8 458 355 469 576 344 251 356 459
8 346 253 358 461 458 355 469 576
8 462 359 254 347 578 471 357 460
8 348 255 359 462 461 358 472 579
8 591 474 360 473 475 361 256 363
8 475 361 256 363 594 477 362 479
8 363 256 364 482 479 362 480 603
8 590 473 365 484 481 363 482 605
8 482 364 257 365 606 483 366 485
8 559 452 367 486 484 365 485 607
8 542 436 487 609 422 324 369 488
8 525 422 488 611 407 311 371 491
8 488 369 489 612 371 261 370 490
8 491 371 490 613 373 263 372 492
8 495 386 276 377 614 503 385 493
8 614 503 385 493 561 457 342 442
8 615 501 383 494 495 386 276 377
8 496 384 274 378 615 501 383 494
8 618 500 382 497 496 384 274 378
8 619 499 381 498 497 382 272 379
8 511 408 297 393 619 499 381 498
8 620 505 387 499 500 388 278 382
8 527 424 312 408 620 505 387 499
8 502 390 506 621 384 280 388 500
8 622 507 389 501 504 392 282 386
8 502 390 280 384 622 507 389 501
8 504 392 282 386 624 509 391 503
8 624 509 391 503 575 468 354 457
8 513 410 299 395 630 527 408 511
8 631 528 411 514 512 409 300 396
8 513 410 528 631 395 299 409 512
8 519 416 305 401 633 530 411 514
8 634 531 412 515 516 413 302 398
8 523 420 309 405 634 531 412 515
8 635 532 413 516 517 414 303 399
8 521 417 533 636 403 306 414 517
8 520 418 307 402 637 534 415 518
8 519 416 534 637 401 305 415 518
8 522 419 308 404 639 537 418 520
8 522 419 536 640 404 308 417 521
8 524 421 310 406 642 539 420 523
8 524 421 541 644 406 310 423 526
8 646 543 422 525 526 423 311 407
8 529 426 314 410 647 544 424 527
8 528 425 545 648 411 315 427 530
8 529 426 545 648 410 314 425 528
8 535 429 317 416 649 546 427 530
8 650 548 430 531 532 432 320 413
8 539 438 325 420 650 548 430 531
8 533 433 550 651 414 321 432 532
8 536 434 551 652 417 322 433 533
8 537 431 319 418 653 547 428 534
8 535 429 547 653 416 317 428 534
8 538 435 552 654 419 323 434 536
8 538 435 323 419 655 549 431 537
8 540 440 327 421 657 556 438 539
8 540 440 557 659 421 327 439 541
8 541 439 555 660 423 326 437 543
8 661 554 436 542 543 437 324 422
8 676 570 452 559 590 473 365 484
8 560 453 338 441 676 570 452 559
8 562 455 340 443 677 571 453 560
8 447 344 459 566 561 457 575 678
8 564 456 341 445 679 573 455 562
8 567 460 345 448 680 572 454 563
8 680 572 454 563 564 456 341 445
8 565 458 576 682 447 344 459 566
8 450 346 461 569 565 458 576 682
8 568 462 347 449 684 578 460 567
8 451 348 462 568 569 461 579 685
8 686 580 463 570 591 474 360 473
8 571 464 350 453 686 580 463 570
8 573 466 352 455 687 581 464 571
8 572 465 582 688 460 357 471 578
8 574 467 582 688 456 353 465 572
8 574 467 353 456 689 583 466 573
8 459 356 470 577 575 468 585 691
8 576 469 586 692 459 356 470 577
8 461 358 472 579 576 469 586 692
8 462 359 471 578 579 472 588 694
8 704 591 473 590 593 475 363 481
8 595 476 592 705 475 361 474 591
8 593 475 363 481 707 594 479 602
8 594 477 362 479 709 598 478 600
8 595 476 361 475 711 597 477 594
8 479 362 480 603 600 478 601 720
8 481 363 482 605 602 479 603 722
8 603 480 364 482 723 604 483 606
8 605 482 365 484 724 606 485 607
8 656 553 608 726 542 436 487 609
8 645 542 609 728 525 422 488 611
8 609 487 610 729 488 369 489 612
8 611 488 612 730 491 371 490 613
8 616 504 386 495 731 624 503 614
8 731 624 503 614 678 575 457 561
8 732 622 501 615 616 504 386 495
8 617 502 384 496 732 622 501 615
8 617 502 621 735 496 384 500 618
8 736 620 499 619 618 500 382 497
8 630 527 408 511 736 620 499 619
8 621 506 626 737 500 388 505 620
8 647 544 424 527 737 626 505 620
8 623 508 627 738 502 390 506 621
8 623 508 390 502 739 628 507 622
8 625 510 628 739 504 392 507 622
8 740 629 509 624 691 585 468 575
8 625 510 392 504 740 629 509 624
8 632 529 410 513 744 647 527 630
8 631 528 648 745 514 411 530 633
8 632 529 648 745 513 410 528 631
8 638 535 416 519 746 649 530 633
8 747 650 531 634 635 532 413 516
8 642 539 420 523 747 650 531 634
8 636 533 651 748 517 414 532 635
8 640 536 652 749 521 417 533 636
8 639 537 418 520 750 653 534 637
8 638 535 653 750 519 416 534 637
8 641 538 419 522 751 655 537 639
8 641 538 654 752 522 419 536 640
8 643 540 421 524 753 657 539 642
8 643 540 659 755 524 421 541 644
8 644 541 660 757 526 423 543 646
8 758 661 542 645 646 543 422 525
8 529 426 544 647 648 545 662 759
8 530 427 545 648 649 546 663 760
8 535 429 546 649 653 547 664 761
8 762 666 548 650 651 550 432 532
8 657 556 438 539 762 666 548 650
8 652 551 668 763 533 433 550 651
8 654 552 669 764 536 434 551 652
8 655 549 431 537 765 665 547 653
8 538 435 549 655 654 552 667 766
8 661 554 671 768 542 436 553 656
8 658 558 440 540 769 674 556 657
8 658 558 675 770 540 440 557 659
8 659 557 673 771 541 439 555 660
8 660 555 672 772 543 437 554 661
8 788 686 570 676 704 591 473 590
8 677 571 453 560 788 686 570 676
8 679 573 455 562 789 687 571 677
8 566 459 577 683 678 575 691 790
8 681 574 456 564 791 689 573 679
8 680 572 688 792 567 460 578 684
8 681 574 688 792 564 456 572 680
8 682 576 692 794 566 459 577 683
8 569 461 579 685 682 576 692 794
8 568 462 578 684 685 579 694 796
8 687 581 464 571 798 696 580 686
8 798 696 580 686 705 592 474 591
8 689 583 466 573 799 697 581 687
8 688 582 698 800 578 471 588 694
8 690 584 698 800 574 467 582 688
8 690 584 467 574 801 699 583 689
8 693 587 701 803 577 470 585 691
8 693 587 470 577 804 702 586 692
8 695 589 702 804 579 472 586 692
8 695 589 472 579 805 703 588 694
8 708 595 705 813 593 475 591 704
8 710 596 706 814 595 476 592 705
8 707 594 479 602 816 709 600 719
8 708 595 475 593 817 711 594 707
8 709 598 478 600 819 715 599 717
8 711 597 477 594 820 714 598 709
8 710 596 476 595 822 713 597 711
8 600 478 601 720 717 599 718 832
8 602 479 603 722 719 600 720 834
8 720 601 480 603 835 721 604 723
8 722 603 482 605 836 723 606 724
8 767 670 725 839 656 553 608 726
8 756 656 726 841 645 542 609 728
8 726 608 727 842 609 487 610 729
8 728 609 729 843 611 488 612 730
8 844 740 624 731 790 691 575 678
8 733 625 504 616 844 740 624 731
8 734 623 502 617 845 739 622 732
8 733 625 739 845 616 504 622 732
8 734 623 738 846 617 502 621 735
8 735 621 737 847 618 500 620 736
8 744 647 527 630 847 737 620 736
8 621 506 627 738 737 626 741 848
8 647 544 626 737 759 662 741 848
8 623 508 628 739 738 627 742 849
8 740 629 585 691 850 743 700 802
8 625 510 629 740 739 628 743 850
8 632 529 647 744 745 648 759 854
8 633 530 648 745 746 649 760 855
8 638 535 649 746 750 653 761 856
8 857 762 650 747 748 651 532 635
8 753 657 539 642 857 762 650 747
8 749 652 763 858 636 533 651 748
8 752 654 764 859 640 536 652 749
8 751 655 537 639 860 765 653 750
8 641 538 655 751 752 654 766 861
8 754 658 540 643 862 769 657 753
8 754 658 770 863 643 540 659 755
8 755 659 771 864 644 541 660 757
8 758 661 768 866 645 542 656 756
8 757 660 772 867 646 543 661 758
8 759 662 773 868 648 545 663 760
8 649 546 663 760 761 664 774 871
8 765 665 547 653 872 775 664 761
8 873 777 666 762 763 668 550 651
8 769 674 556 657 873 777 666 762
8 764 669 779 874 652 551 668 763
8 654 552 667 766 764 669 778 875
8 655 549 665 765 766 667 776 876
8 768 671 782 877 656 553 670 767
8 772 672 783 878 661 554 671 768
8 658 558 674 769 770 675 786 879
8 659 557 675 770 771 673 785 881
8 882 784 672 772 771 673 555 660
8 789 687 571 677 897 798 686 788
8 897 798 686 788 813 705 591 704
8 791 689 573 679 898 799 687 789
8 795 693 803 900 683 577 691 790
8 793 690 574 681 901 801 689 791
8 792 688 800 902 684 578 694 796
8 793 690 800 902 681 574 688 792
8 795 693 577 683 903 804 692 794
8 797 695 804 903 685 579 692 794
8 797 695 579 685 904 805 694 796
8 905 806 697 799 798 696 581 687
8 814 706 806 905 705 592 696 798
8 689 583 697 799 801 699 808 907
8 800 698 809 908 694 588 703 805
8 690 584 699 801 800 698 809 908
8 803 701 810 909 691 585 700 802
8 693 587 702 804 803 701 811 910
8 695 589 703 805 804 702 812 911
8 818 710 814 919 708 595 705 813
8 821 712 815 920 710 596 706 814
8 816 709 600 719 922 819 717 831
8 817 711 594 707 923 820 709 816
8 818 710 595 708 924 822 711 817
8 819 715 599 717 926 827 716 829
8 820 714 598 709 927 826 715 819
8 929 825 713 822 820 714 597 711
8 821 712 596 710 930 824 713 822
8 717 599 718 832 829 716 830 942
8 719 600 720 834 831 717 832 944
8 832 718 601 720 945 833 721 835
8 834 720 603 722 946 835 723 836
8 869 780 838 950 767 670 725 839
8 865 767 839 952 756 656 726 841
8 839 725 840 953 726 608 727 842
8 841 726 842 954 728 609 729 843
8 844 740 691 790 955 850 802 899
8 733 625 740 844 845 739 850 955
8 734 623 739 845 846 738 849 956
8 735 621 738 846 847 737 848 957
8 744 647 737 847 854 759 848 957
8 738 627 742 849 848 741 851 958
8 848 741 851 958 759 662 773 868
8 850 743 700 802 959 852 807 906
8 849 742 628 739 959 852 743 850
8 854 759 868 965 745 648 760 855
8 746 649 760 855 856 761 871 966
8 860 765 653 750 967 872 761 856
8 968 873 762 857 858 763 651 748
8 862 769 657 753 968 873 762 857
8 859 764 874 969 749 652 763 858
8 752 654 766 861 859 764 875 970
8 751 655 765 860 861 766 876 971
8 754 658 769 862 863 770 879 972
8 755 659 770 863 864 771 881 974
8 976 882 772 867 864 771 660 757
8 866 768 877 977 756 656 767 865
8 867 772 878 978 758 661 768 866
8 760 663 773 868 871 774 883 980
8 870 781 837 948 982 890 780 869
8 982 890 780 869 877 782 670 767
8 761 664 774 871 872 775 884 984
8 876 776 665 765 985 885 775 872
8 873 777 668 763 986 887 779 874
8 769 674 777 873 879 786 887 986
8 764 669 778 875 874 779 888 987
8 766 667 776 876 875 778 886 988
8 878 783 892 989 768 671 782 877
8 878 783 672 772 990 893 784 882
8 880 787 675 770 991 896 786 879
8 880 787 895 992 770 675 785 881
8 881 785 894 993 771 673 784 882
8 1006 905 799 898 897 798 687 789
8 919 814 905 1006 813 705 798 897
8 791 689 799 898 901 801 907 1007
8 900 803 909 1009 790 691 802 899
8 795 693 804 903 900 803 910 1010
8 902 800 908 1011 796 694 805 904
8 793 690 801 901 902 800 908 1011
8 797 695 805 904 903 804 911 1012
8 799 697 806 905 907 808 912 1013
8 920 815 912 1013 814 706 806 905
8 802 700 810 909 906 807 913 1014
8 801 699 808 907 908 809 914 1015
8 805 703 809 908 911 812 915 1016
8 803 701 811 910 909 810 916 1017
8 911 812 917 1018 804 702 811 910
8 925 821 920 1030 818 710 814 919
8 928 823 921 1031 821 712 815 920
8 922 819 717 831 1033 926 829 941
8 923 820 709 816 1034 927 819 922
8 1035 929 822 924 923 820 711 817
8 925 821 710 818 1036 930 822 924
8 1038 933 825 929 927 826 714 820
8 926 827 716 829 1039 935 828 939
8 927 826 715 819 1040 934 827 926
8 928 823 712 821 1041 931 824 930
8 1042 932 824 930 929 825 713 822
8 829 716 830 942 939 828 940 1058
8 831 717 832 944 941 829 942 1060
8 942 830 718 832 1061 943 833 945
8 944 832 720 834 1062 945 835 946
8 981 889 947 1064 870 781 837 948
8 948 837 949 1067 869 780 838 950
8 975 869 950 1069 865 767 839 952
8 950 838 951 1070 839 725 840 953
8 952 839 953 1071 841 726 842 954
8 955 850 802 899 1072 959 906 1008
8 956 849 739 845 1072 959 850 955
8 846 738 849 956 957 848 958 1073
8 957 848 958 1073 854 759 868 965
8 849 742 852 959 958 851 961 1076
8 960 853 961 1076 906 807 852 959
8 958 851 961 1076 868 773 883 980
8 960 853 807 906 1077 963 913 1014
8 855 760 868 965 966 871 980 1085
8 856 761 871 966 967 872 984 1086
8 971 876 765 860 1087 985 872 967
8 968 873 763 858 1088 986 874 969
8 862 769 873 968 972 879 986 1088
8 859 764 875 970 969 874 987 1089
8 861 766 876 971 970 875 988 1090
8 973 880 770 863 1091 991 879 972
8 973 880 992 1092 863 770 881 974
8 974 881 993 1093 864 771 882 976
8 979 870 948 1066 1094 982 869 975
8 1094 982 869 975 977 877 767 865
8 978 878 772 867 1095 990 882 976
8 978 878 989 1096 866 768 877 977
8 871 774 883 980 984 884 994 1099
8 983 891 999 1100 870 781 889 981
8 1101 1000 890 982 989 892 782 877
8 983 891 781 870 1101 1000 890 982
8 872 775 884 984 985 885 995 1103
8 876 776 885 985 988 886 996 1104
8 986 887 779 874 1105 998 888 987
8 879 786 887 986 991 896 998 1105
8 875 778 886 988 987 888 997 1106
8 990 893 1002 1107 878 783 892 989
8 1108 1003 893 990 993 894 784 882
8 880 787 896 991 992 895 1005 1109
8 993 894 785 881 1110 1004 895 992
8 898 799 905 1006 1007 907 1013 1120
8 1030 920 1013 1120 919 814 905 1006
8 901 801 907 1007 1011 908 1015 1121
8 899 802 909 1009 1008 906 1014 1122
8 900 803 910 1010 1009 909 1017 1123
8 1012 911 1018 1124 903 804 910 1010
8 904 805 908 1011 1012 911 1016 1125
8 1013 912 1020 1127 907 808 914 1015
8 1031 921 1020 1127 920 815 912 1013
8 1019 918 962 1075 1128 1021 913 1014
8 1128 1021 913 1014 1017 916 810 909
8 1015 914 1022 1129 908 809 915 1016
8 1016 915 1023 1130 911 812 917 1018
8 1018 917 1024 1131 910 811 916 1017
8 1037 928 1031 1148 925 821 920 1030
8 928 823 931 1041 1031 921 1032 1149
8 1033 926 829 941 1151 1039 939 1057
8 1034 927 819 922 1152 1040 926 1033
8 1153 1038 929 1035 1034 927 820 923
8 1154 1042 930 1036 1035 929 822 924
8 1037 928 821 925 1155 1041 930 1036
8 1039 935 828 939 1156 1047 938 1055
8 1157 1043 932 1042 1038 933 825 929
8 1038 933 826 927 1158 1045 934 1040
8 1040 934 827 926 1159 1046 935 1039
8 930 824 932 1042 1041 931 1044 1160
8 1051 936 1048 1165 1175 1052 937 1053
8 1156 1047 938 1055 1053 937 1054 1178
8 939 828 940 1058 1055 938 1056 1181
8 941 829 942 1060 1057 939 1058 1183
8 942 830 943 1061 1058 940 1059 1184
8 1060 942 832 944 1185 1061 945 1062
8 1082 964 1063 1188 981 889 947 1064
8 1097 981 1064 1190 979 870 948 1066
8 1064 947 1065 1191 948 837 949 1067
8 1066 948 1067 1193 975 869 950 1069
8 1067 949 1068 1194 950 838 951 1070
8 1069 950 1070 1195 952 839 953 1071
8 956 849 959 1072 1073 958 1076 1197
8 1074 960 1076 1197 1008 906 959 1072
8 1073 958 1076 1197 965 868 980 1085
8 1074 960 906 1008 1198 1077 1014 1122
8 1133 1026 1079 1199 1019 918 962 1075
8 1077 963 913 1014 1200 1080 962 1075
8 960 853 963 1077 1076 961 1078 1201
8 980 883 961 1076 1099 994 1078 1201
8 1210 1083 964 1082 1100 999 889 981
8 966 871 980 1085 1086 984 1099 1215
8 967 872 984 1086 1087 985 1103 1216
8 971 876 985 1087 1090 988 1104 1217
8 1088 986 874 969 1218 1105 987 1089
8 972 879 986 1088 1091 991 1105 1218
8 970 875 988 1090 1089 987 1106 1219
8 973 880 991 1091 1092 992 1109 1220
8 1093 993 881 974 1221 1110 992 1092
8 1222 1108 990 1095 1093 993 882 976
8 1223 1101 982 1094 1096 989 877 977
8 1098 983 870 979 1223 1101 982 1094
8 1095 990 1107 1224 978 878 989 1096
8 1098 983 1100 1225 979 870 981 1097
8 984 884 994 1099 1103 995 1111 1227
8 1102 1001 1115 1228 983 891 999 1100
8 1101 1000 892 989 1229 1116 1002 1107
8 1102 1001 891 983 1229 1116 1000 1101
8 985 885 995 1103 1104 996 1112 1230
8 988 886 996 1104 1106 997 1113 1231
8 1105 998 888 987 1232 1114 997 1106
8 991 896 998 1105 1109 1005 1114 1232
8 1108 1003 1117 1233 990 893 1002 1107
8 1108 1003 894 993 1233 1117 1004 1110
8 992 895 1005 1109 1110 1004 1118 1234
8 1120 1013 1127 1244 1007 907 1015 1121
8 1148 1031 1127 1244 1030 920 1013 1120
8 1121 1015 1129 1245 1011 908 1016 1125
8 1126 1019 1075 1196 1246 1128 1014 1122
8 1246 1128 1014 1122 1123 1017 909 1009
8 1124 1018 1131 1247 1010 910 1017 1123
8 1125 1016 1130 1248 1012 911 1018 1124
8 1127 1020 1137 1254 1015 914 1022 1129
8 1031 921 1032 1149 1127 1020 1137 1254
8 1134 1027 918 1019 1257 1140 1021 1128
8 1257 1140 1021 1128 1131 1024 916 1017
8 1129 1022 1141 1258 1016 915 1023 1130
8 1130 1023 1142 1259 1018 917 1024 1131
8 1261 1144 1025 1132 1133 1026 1079 1199
8 1255 1138 1025 1132 1135 1028 1144 1261
8 1133 1026 918 1019 1262 1145 1027 1134
8 1136 1029 1139 1256 1263 1146 1028 1135
8 1037 928 1041 1155 1148 1031 1149 1275
8 1041 931 1044 1160 1149 1032 1150 1276
8 1151 1039 939 1057 1278 1156 1055 1180
8 1152 1040 926 1033 1279 1159 1039 1151
8 1153 1038 927 1034 1280 1158 1040 1152
8 1281 1157 1042 1154 1153 1038 929 1035
8 1036 930 1042 1154 1155 1041 1160 1282
8 1283 1164 1046 1159 1156 1047 935 1039
8 1165 1048 1164 1283 1053 937 1047 1156
8 1157 1043 933 1038 1284 1161 1045 1158
8 1157 1043 1161 1284 1042 932 1044 1160
8 1040 934 1046 1159 1158 1045 1163 1285
8 1166 1049 1167 1292 1051 936 1048 1165
8 1166 1049 936 1051 1293 1168 1050 1172
8 1051 936 1052 1175 1172 1050 1173 1306
8 1174 1051 1165 1290 1308 1175 1053 1177
8 1053 937 1054 1178 1175 1052 1176 1309
8 1278 1156 1055 1180 1177 1053 1178 1311
8 1055 938 1056 1181 1178 1054 1179 1312
8 1057 939 1058 1183 1180 1055 1181 1314
8 1058 940 1059 1184 1181 1056 1182 1315
8 1060 942 1061 1185 1183 1058 1184 1316
8 1208 1081 1187 1321 1082 964 1063 1188
8 1209 1082 1188 1322 1097 981 1064 1190
8 1188 1063 1189 1323 1064 947 1065 1191
8 1190 1064 1191 1325 1066 948 1067 1193
8 1191 1065 1192 1326 1067 949 1068 1194
8 1067 1193 1069 950 1194 1327 1195 1070
8 1250 1133 1199 1330 1126 1019 1075 1196
8 1198 1077 1014 1122 1331 1200 1075 1196
8 1074 960 1077 1198 1197 1076 1201 1332
8 1085 980 1076 1197 1215 1099 1201 1332
8 1199 1079 1203 1333 1075 962 1080 1200
8 1132 1025 1119 1243 1199 1079 1203 1333
8 1201 1078 963 1077 1334 1202 1080 1200
8 1099 994 1078 1201 1227 1111 1202 1334
8 1343 1207 1081 1208 1210 1083 964 1082
8 1214 1084 1186 1319 1343 1207 1081 1208
8 1345 1210 1082 1209 1225 1100 981 1097
8 1346 1211 1083 1210 1228 1115 999 1100
8 1086 984 1099 1215 1216 1103 1227 1352
8 1087 985 1103 1216 1217 1104 1230 1353
8 1090 988 1104 1217 1219 1106 1231 1354
8 1218 1105 987 1089 1355 1232 1106 1219
8 1091 991 1105 1218 1220 1109 1232 1355
8 1092 992 1109 1220 1221 1110 1234 1356
8 1222 1108 1233 1357 1095 990 1107 1224
8 1222 1108 993 1093 1357 1233 1110 1221
8 1223 1101 989 1096 1358 1229 1107 1224
8 1226 1102 983 1098 1358 1229 1101 1223
8 1226 1102 1228 1359 1098 983 1100 1225
8 1103 995 1111 1227 1230 1112 1235 1360
8 1107 1002 1117 1233 1229 1116 1240 1362
8 1102 1001 1116 1229 1228 1115 1240 1362
8 1104 996 1112 1230 1231 1113 1236 1363
8 1364 1237 1114 1232 1231 1113 997 1106
8 1109 1005 1114 1232 1234 1118 1238 1365
8 1110 1004 1118 1234 1233 1117 1241 1366
8 1242 1374 1255 1138 1119 1243 1132 1025
8 1244 1127 1254 1376 1121 1015 1129 1245
8 1148 1031 1149 1275 1244 1127 1254 1376
8 1245 1129 1258 1377 1125 1016 1130 1248
8 1251 1134 1019 1126 1378 1257 1128 1246
8 1378 1257 1128 1246 1247 1131 1017 1123
8 1248 1130 1259 1379 1124 1018 1131 1247
8 1261 1381 1250 1133 1132 1249 1330 1199
8 1255 1380 1252 1135 1132 1249 1381 1261
8 1250 1133 1019 1126 1382 1262 1134 1251
8 1253 1136 1256 1385 1384 1263 1135 1252
8 1254 1137 1265 1387 1129 1022 1141 1258
8 1149 1032 1150 1276 1254 1137 1265 1387
8 1028 1135 1255 1138 1139 1256 1388 1266
8 1136 1029 1147 1264 1256 1139 1267 1389
8 1390 1268 1140 1257 1259 1142 1024 1131
8 1260 1143 1027 1134 1390 1268 1140 1257
8 1258 1141 1269 1391 1130 1023 1142 1259
8 1262 1145 1027 1134 1393 1271 1143 1260
8 1261 1144 1026 1133 1394 1272 1145 1262
8 1135 1028 1144 1261 1263 1146 1272 1394
8 1136 1029 1146 1263 1264 1147 1273 1395
8 1155 1041 1160 1282 1275 1149 1276 1405
8 1276 1150 1044 1160 1406 1277 1162 1286
8 1408 1283 1159 1279 1278 1156 1039 1151
8 1290 1165 1283 1408 1177 1053 1156 1278
8 1152 1040 1159 1279 1280 1158 1285 1409
8 1281 1157 1038 1153 1410 1284 1158 1280
8 1281 1157 1284 1410 1154 1042 1160 1282
8 1159 1046 1164 1283 1285 1163 1289 1412
8 1292 1167 1289 1412 1165 1048 1164 1283
8 1158 1045 1163 1285 1284 1161 1288 1413
8 1284 1161 1288 1413 1160 1044 1162 1286
8 1291 1166 1292 1418 1174 1051 1165 1290
8 1291 1166 1051 1174 1419 1293 1172 1305
8 1294 1169 1296 1421 1166 1049 1167 1292
8 1293 1168 1050 1172 1422 1295 1171 1303
8 1294 1169 1049 1166 1423 1297 1168 1293
8 1422 1295 1171 1303 1301 1170 1302 1435
8 1172 1050 1173 1306 1303 1171 1304 1438
8 1174 1051 1175 1308 1305 1172 1306 1440
8 1175 1052 1176 1309 1306 1173 1307 1441
8 1177 1053 1178 1311 1308 1175 1309 1443
8 1178 1054 1179 1312 1309 1176 1310 1444
8 1180 1055 1181 1314 1311 1178 1312 1446
8 1056 1181 1312 1179 1182 1315 1447 1313
8 1183 1058 1184 1316 1314 1181 1315 1448
8 1319 1186 1084 1214 1451 1317 1213 1350
8 1319 1186 1318 1453 1208 1081 1187 1321
8 1321 1187 1320 1456 1188 1063 1189 1323
8 1344 1208 1321 1457 1209 1082 1188 1322
8 1322 1188 1323 1458 1190 1064 1191 1325
8 1323 1189 1324 1459 1191 1065 1192 1326
8 1191 1325 1193 1067 1326 1460 1327 1194
8 1242 1374 1243 1119 1328 1462 1335 1204
8 1330 1199 1333 1465 1196 1075 1200 1331
8 1132 1249 1330 1199 1243 1375 1465 1333
8 1332 1201 1077 1198 1466 1334 1200 1331
8 1215 1099 1201 1332 1352 1227 1334 1466
8 1119 1243 1333 1203 1204 1335 1470 1338
8 1333 1203 1338 1470 1200 1080 1202 1334
8 1227 1111 1202 1334 1360 1235 1338 1470
8 1328 1462 1335 1204 1205 1336 1471 1339
8 1337 1206 1340 1472 1464 1329 1205 1336
8 1346 1211 1342 1479 1210 1083 1207 1343
8 1346 1211 1115 1228 1479 1342 1239 1361
8 1348 1212 1084 1214 1479 1342 1207 1343
8 1480 1343 1208 1344 1345 1210 1082 1209
8 1351 1214 1319 1454 1480 1343 1208 1344
8 1481 1346 1210 1345 1359 1228 1100 1225
8 1348 1212 1347 1483 1214 1084 1213 1350
8 1216 1103 1227 1352 1353 1230 1360 1488
8 1217 1104 1230 1353 1354 1231 1363 1489
8 1490 1364 1232 1355 1354 1231 1106 1219
8 1220 1109 1232 1355 1356 1234 1365 1491
8 1221 1110 1234 1356 1357 1233 1366 1492
8 1224 1107 1233 1357 1358 1229 1362 1493
8 1226 1102 1229 1358 1359 1228 1362 1493
8 1230 1112 1235 1360 1363 1236 1367 1496
8 1361 1239 1115 1228 1497 1371 1240 1362
8 1366 1241 1372 1498 1233 1117 1240 1362
8 1364 1237 1113 1231 1499 1368 1236 1363
8 1364 1237 1368 1499 1232 1114 1238 1365
8 1234 1118 1238 1365 1366 1241 1369 1500
8 1507 1373 1242 1374 1388 1266 1138 1255
8 1508 1374 1243 1375 1380 1255 1132 1249
8 1376 1254 1387 1509 1245 1129 1258 1377
8 1275 1149 1276 1405 1376 1254 1387 1509
8 1377 1258 1391 1510 1248 1130 1259 1379
8 1511 1390 1257 1378 1379 1259 1131 1247
8 1383 1260 1134 1251 1511 1390 1257 1378
8 1252 1135 1256 1385 1380 1255 1388 1512
8 1261 1381 1513 1394 1133 1250 1382 1262
8 1135 1252 1384 1263 1261 1381 1513 1394
8 1382 1262 1134 1251 1514 1393 1260 1383
8 1253 1136 1263 1384 1386 1264 1395 1516
8 1253 1136 1264 1386 1385 1256 1389 1517
8 1387 1265 1397 1519 1258 1141 1269 1391
8 1276 1150 1277 1406 1387 1265 1397 1519
8 1256 1139 1267 1389 1388 1266 1398 1520
8 1264 1147 1274 1396 1389 1267 1399 1521
8 1392 1270 1143 1260 1522 1400 1268 1390
8 1390 1268 1142 1259 1522 1400 1269 1391
8 1392 1270 1401 1523 1260 1143 1271 1393
8 1272 1394 1524 1402 1145 1262 1393 1271
8 1395 1273 1146 1263 1524 1402 1272 1394
8 1273 1395 1264 1147 1403 1526 1396 1274
8 1405 1276 1160 1282 1534 1406 1286 1411
8 1414 1287 1407 1535 1286 1162 1277 1406
8 1279 1159 1283 1408 1409 1285 1412 1537
8 1418 1292 1412 1537 1290 1165 1283 1408
8 1280 1158 1285 1409 1410 1284 1413 1538
8 1410 1284 1413 1538 1282 1160 1286 1411
8 1285 1163 1289 1412 1413 1288 1417 1540
8 1421 1296 1417 1540 1292 1167 1289 1412
8 1414 1287 1162 1286 1541 1416 1288 1413
8 1420 1294 1421 1545 1291 1166 1292 1418
8 1419 1293 1172 1305 1546 1422 1303 1437
8 1420 1294 1166 1291 1547 1423 1293 1419
8 1294 1169 1297 1423 1421 1296 1425 1548
8 1423 1297 1168 1293 1549 1424 1295 1422
8 1301 1170 1298 1427 1422 1295 1424 1549
8 1432 1300 1428 1554 1301 1170 1298 1427
8 1431 1299 1428 1554 1560 1430 1300 1432
8 1563 1433 1300 1432 1435 1302 1170 1301
8 1546 1422 1303 1437 1434 1301 1435 1565
8 1303 1171 1304 1438 1435 1302 1436 1566
8 1305 1172 1306 1440 1437 1303 1438 1568
8 1306 1173 1307 1441 1438 1304 1439 1569
8 1308 1175 1309 1443 1440 1306 1441 1571
8 1309 1176 1310 1444 1441 1307 1442 1572
8 1311 1178 1312 1446 1443 1309 1444 1574
8 1179 1312 1444 1310 1313 1447 1575 1445
8 1314 1181 1315 1448 1446 1312 1447 1576
8 1350 1213 1349 1486 1451 1317 1449 1579
8 1451 1317 1450 1581 1319 1186 1318 1453
8 1454 1319 1214 1351 1582 1451 1350 1487
8 1453 1318 1452 1584 1321 1187 1320 1456
8 1454 1319 1453 1585 1344 1208 1321 1457
8 1456 1320 1455 1586 1323 1189 1324 1459
8 1457 1321 1456 1587 1322 1188 1323 1458
8 1458 1323 1459 1588 1325 1191 1326 1460
8 1205 1336 1464 1329 1328 1462 1590 1461
8 1507 1373 1461 1590 1374 1242 1328 1462
8 1508 1374 1462 1591 1375 1243 1335 1467
8 1337 1206 1329 1464 1473 1341 1463 1594
8 1375 1243 1335 1467 1465 1333 1470 1596
8 1465 1333 1470 1596 1331 1200 1334 1466
8 1352 1227 1334 1466 1488 1360 1470 1596
8 1591 1462 1336 1468 1467 1335 1471 1597
8 1469 1337 1472 1598 1595 1464 1336 1468
8 1471 1339 1474 1600 1335 1204 1338 1470
8 1600 1474 1367 1496 1470 1338 1235 1360
8 1336 1205 1340 1472 1471 1339 1475 1601
8 1337 1206 1341 1473 1472 1340 1476 1602
8 1495 1370 1478 1609 1361 1239 1342 1479
8 1348 1212 1342 1479 1483 1347 1478 1609
8 1481 1346 1479 1610 1345 1210 1343 1480
8 1481 1346 1228 1359 1610 1479 1361 1494
8 1484 1348 1214 1351 1610 1479 1343 1480
8 1483 1347 1482 1612 1350 1213 1349 1486
8 1484 1348 1483 1613 1351 1214 1350 1487
8 1353 1230 1360 1488 1489 1363 1496 1616
8 1490 1364 1231 1354 1617 1499 1363 1489
8 1490 1364 1499 1617 1355 1232 1365 1491
8 1356 1234 1365 1491 1492 1366 1500 1619
8 1492 1366 1498 1620 1357 1233 1362 1493
8 1494 1361 1228 1359 1621 1497 1362 1493
8 1495 1370 1239 1361 1622 1504 1371 1497
8 1363 1236 1367 1496 1499 1368 1501 1623
8 1497 1371 1240 1362 1624 1505 1372 1498
8 1625 1503 1372 1498 1500 1369 1241 1366
8 1365 1238 1368 1499 1500 1369 1502 1626
8 1520 1398 1506 1633 1388 1266 1373 1507
8 1634 1507 1374 1508 1512 1388 1255 1380
8 1509 1387 1519 1635 1377 1258 1391 1510
8 1405 1276 1406 1534 1509 1387 1519 1635
8 1515 1392 1260 1383 1636 1522 1390 1511
8 1511 1390 1259 1379 1636 1522 1391 1510
8 1385 1256 1389 1517 1512 1388 1520 1637
8 1513 1394 1262 1382 1638 1524 1393 1514
8 1395 1516 1638 1524 1263 1384 1513 1394
8 1515 1392 1523 1639 1383 1260 1393 1514
8 1516 1395 1526 1640 1386 1264 1396 1518
8 1386 1264 1396 1518 1517 1389 1521 1641
8 1519 1397 1527 1643 1391 1269 1400 1522
8 1535 1407 1527 1643 1406 1277 1397 1519
8 1389 1267 1399 1521 1520 1398 1528 1644
8 1645 1529 1399 1521 1525 1404 1274 1396
8 1392 1270 1400 1522 1523 1401 1531 1646
8 1524 1402 1271 1393 1648 1532 1401 1523
8 1403 1526 1648 1532 1273 1395 1524 1402
8 1525 1404 1274 1396 1649 1533 1403 1526
8 1539 1414 1535 1657 1411 1286 1406 1534
8 1542 1415 1536 1658 1414 1287 1407 1535
8 1409 1285 1412 1537 1538 1413 1540 1660
8 1545 1421 1540 1660 1418 1292 1412 1537
8 1539 1414 1286 1411 1661 1541 1413 1538
8 1540 1417 1544 1663 1413 1288 1416 1541
8 1421 1296 1425 1548 1540 1417 1544 1663
8 1542 1415 1287 1414 1664 1543 1416 1541
8 1420 1294 1423 1547 1545 1421 1548 1666
8 1547 1423 1293 1419 1667 1549 1422 1546
8 1434 1301 1427 1553 1546 1422 1549 1667
8 1423 1297 1424 1549 1548 1425 1550 1668
8 1551 1426 1550 1668 1427 1298 1424 1549
8 1551 1426 1298 1427 1671 1552 1428 1554
8 1562 1432 1554 1674 1434 1301 1427 1553
8 1431 1299 1429 1558 1554 1428 1555 1675
8 1431 1299 1430 1560 1558 1429 1557 1680
8 1560 1430 1300 1432 1683 1559 1433 1563
8 1561 1431 1554 1674 1684 1560 1432 1562
8 1685 1563 1432 1562 1565 1435 1301 1434
8 1435 1302 1436 1566 1563 1433 1564 1686
8 1437 1303 1438 1568 1565 1435 1566 1688
8 1438 1304 1439 1569 1566 1436 1567 1689
8 1440 1306 1441 1571 1568 1438 1569 1691
8 1441 1307 1442 1572 1569 1439 1570 1692
8 1443 1309 1444 1574 1571 1441 1572 1694
8 1310 1444 1572 1442 1445 1575 1695 1573
8 1446 1312 1447 1576 1574 1444 1575 1696
8 1486 1349 1485 1614 1579 1449 1577 1699
8 1451 1317 1449 1579 1581 1450 1578 1701
8 1487 1350 1486 1615 1582 1451 1579 1702
8 1581 1450 1580 1704 1453 1318 1452 1584
8 1582 1451 1581 1705 1454 1319 1453 1585
8 1584 1452 1583 1706 1456 1320 1455 1586
8 1585 1453 1584 1707 1457 1321 1456 1587
8 1587 1456 1586 1708 1458 1323 1459 1588
8 1633 1506 1589 1710 1507 1373 1461 1590
8 1464 1329 1461 1590 1594 1463 1589 1710
8 1468 1336 1462 1591 1595 1464 1590 1711
8 1634 1507 1590 1711 1508 1374 1462 1591
8 1473 1341 1463 1594 1603 1477 1593 1716
8 1469 1337 1464 1595 1599 1473 1594 1717
8 1471 1597 1467 1335 1600 1718 1596 1470
8 1718 1600 1496 1616 1596 1470 1360 1488
8 1336 1468 1597 1471 1472 1598 1719 1601
8 1469 1337 1473 1599 1598 1472 1602 1720
8 1722 1604 1501 1623 1600 1474 1367 1496
8 1475 1601 1471 1339 1604 1722 1600 1474
8 1602 1476 1605 1723 1472 1340 1475 1601
8 1476 1602 1724 1606 1341 1473 1603 1477
8 1483 1347 1478 1609 1612 1482 1608 1731
8 1495 1370 1504 1622 1609 1478 1608 1731
8 1618 1495 1609 1732 1494 1361 1479 1610
8 1484 1348 1479 1610 1613 1483 1609 1732
8 1486 1349 1482 1612 1614 1485 1611 1733
8 1613 1483 1612 1734 1487 1350 1486 1615
8 1489 1363 1496 1616 1617 1499 1623 1736
8 1491 1365 1499 1617 1619 1500 1626 1737
8 1618 1495 1361 1494 1738 1622 1497 1621
8 1739 1625 1498 1620 1619 1500 1366 1492
8 1621 1497 1362 1493 1740 1624 1498 1620
8 1742 1631 1504 1622 1624 1505 1371 1497
8 1743 1628 1502 1626 1623 1501 1368 1499
8 1744 1630 1505 1624 1625 1503 1372 1498
8 1745 1629 1503 1625 1626 1502 1369 1500
8 1520 1398 1528 1644 1633 1506 1632 1751
8 1637 1520 1633 1752 1512 1388 1507 1634
8 1635 1519 1643 1753 1510 1391 1522 1636
8 1657 1535 1643 1753 1534 1406 1519 1635
8 1515 1392 1522 1636 1639 1523 1646 1754
8 1517 1389 1521 1641 1637 1520 1644 1755
8 1524 1638 1756 1648 1393 1514 1639 1523
8 1640 1526 1395 1516 1756 1648 1524 1638
8 1642 1525 1396 1518 1757 1649 1526 1640
8 1758 1645 1521 1641 1642 1525 1396 1518
8 1646 1531 1400 1522 1760 1650 1527 1643
8 1535 1407 1536 1658 1643 1527 1650 1760
8 1521 1399 1529 1645 1644 1528 1651 1761
8 1647 1530 1652 1762 1525 1404 1529 1645
8 1401 1523 1648 1532 1531 1646 1763 1655
8 1525 1404 1533 1649 1647 1530 1654 1765
8 1533 1649 1766 1656 1403 1526 1648 1532
8 1662 1542 1658 1774 1539 1414 1535 1657
8 1542 1415 1543 1664 1658 1536 1659 1775
8 1660 1540 1663 1777 1538 1413 1541 1661
8 1545 1421 1548 1666 1660 1540 1663 1777
8 1662 1542 1414 1539 1778 1664 1541 1661
8 1664 1543 1416 1541 1779 1665 1544 1663
8 1548 1425 1550 1668 1663 1544 1665 1779
8 1547 1423 1549 1667 1666 1548 1668 1781
8 1670 1551 1668 1781 1553 1427 1549 1667
8 1551 1426 1552 1671 1668 1550 1669 1782
8 1670 1551 1427 1553 1784 1671 1554 1674
8 1675 1555 1672 1785 1554 1428 1552 1671
8 1678 1556 1673 1789 1558 1429 1555 1675
8 1561 1431 1558 1681 1674 1554 1675 1790
8 1794 1677 1556 1678 1680 1557 1429 1558
8 1560 1430 1559 1683 1680 1557 1679 1797
8 1561 1431 1560 1684 1681 1558 1680 1798
8 1563 1433 1564 1686 1683 1559 1682 1800
8 1684 1560 1432 1562 1801 1683 1563 1685
8 1565 1435 1566 1688 1685 1563 1686 1802
8 1566 1436 1567 1689 1686 1564 1687 1803
8 1568 1438 1569 1691 1688 1566 1689 1805
8 1569 1439 1570 1692 1689 1567 1690 1806
8 1571 1441 1572 1694 1691 1569 1692 1808
8 1442 1572 1692 1570 1573 1695 1809 1693
8 1574 1444 1575 1696 1694 1572 1695 1810
8 1614 1485 1592 1712 1699 1577 1697 1813
8 1579 1449 1577 1699 1701 1578 1698 1815
8 1615 1486 1614 1735 1702 1579 1699 1816
8 1701 1578 1700 1818 1581 1450 1580 1704
8 1582 1451 1579 1702 1705 1581 1701 1819
8 1704 1580 1703 1820 1584 1452 1583 1706
8 1705 1581 1704 1821 1585 1453 1584 1707
8 1707 1584 1706 1822 1587 1456 1586 1708
8 1710 1589 1506 1633 1824 1709 1632 1751
8 1594 1463 1589 1710 1716 1593 1709 1824
8 1752 1633 1710 1825 1634 1507 1590 1711
8 1595 1464 1590 1711 1717 1594 1710 1825
8 1830 1714 1592 1712 1733 1611 1485 1614
8 1603 1477 1593 1716 1725 1607 1715 1834
8 1599 1473 1594 1717 1721 1603 1716 1835
8 1837 1722 1623 1736 1718 1600 1496 1616
8 1719 1601 1722 1837 1597 1471 1600 1718
8 1602 1720 1598 1472 1723 1838 1719 1601
8 1720 1602 1473 1599 1839 1724 1603 1721
8 1723 1605 1726 1840 1601 1475 1604 1722
8 1840 1726 1628 1743 1722 1604 1501 1623
8 1724 1606 1727 1841 1602 1476 1605 1723
8 1725 1607 1728 1842 1603 1477 1606 1724
8 1612 1482 1608 1731 1733 1611 1730 1849
8 1741 1627 1730 1849 1622 1504 1608 1731
8 1613 1483 1609 1732 1734 1612 1731 1850
8 1618 1495 1622 1738 1732 1609 1731 1850
8 1615 1486 1612 1734 1735 1614 1733 1851
8 1852 1743 1626 1737 1736 1623 1499 1617
8 1853 1745 1625 1739 1737 1626 1500 1619
8 1855 1742 1622 1738 1740 1624 1497 1621
8 1856 1744 1624 1740 1739 1625 1498 1620
8 1741 1627 1504 1622 1857 1746 1631 1742
8 1742 1631 1505 1624 1858 1749 1630 1744
8 1859 1747 1629 1745 1743 1628 1502 1626
8 1860 1748 1630 1744 1745 1629 1503 1625
8 1644 1528 1651 1761 1751 1632 1750 1865
8 1637 1520 1644 1755 1752 1633 1751 1866
8 1754 1646 1522 1636 1867 1760 1643 1753
8 1657 1535 1658 1774 1753 1643 1760 1867
8 1639 1523 1646 1754 1756 1648 1763 1868
8 1641 1521 1645 1758 1755 1644 1761 1869
8 1757 1649 1526 1640 1870 1766 1648 1756
8 1642 1525 1649 1757 1759 1647 1765 1871
8 1759 1647 1762 1872 1642 1525 1645 1758
8 1760 1650 1767 1874 1646 1531 1655 1763
8 1658 1536 1659 1775 1760 1650 1767 1874
8 1762 1652 1768 1875 1645 1529 1651 1761
8 1764 1653 1769 1876 1647 1530 1652 1762
8 1656 1766 1877 1773 1532 1648 1763 1655
8 1771 1879 1765 1654 1653 1764 1647 1530
8 1533 1649 1765 1654 1656 1766 1880 1772
8 1662 1542 1664 1778 1774 1658 1775 1887
8 1664 1543 1665 1779 1775 1659 1776 1888
8 1778 1664 1541 1661 1890 1779 1663 1777
8 1666 1548 1668 1781 1777 1663 1779 1890
8 1782 1669 1780 1891 1668 1550 1665 1779
8 1670 1551 1671 1784 1781 1668 1782 1893
8 1671 1552 1672 1785 1782 1669 1783 1894
8 1790 1675 1785 1896 1674 1554 1671 1784
8 1675 1555 1673 1789 1785 1672 1786 1897
8 1792 1676 1788 1903 1678 1556 1673 1789
8 1795 1678 1789 1904 1681 1558 1675 1790
8 1792 1676 1556 1678 1906 1791 1677 1794
8 1680 1557 1679 1797 1794 1677 1793 1909
8 1910 1794 1678 1795 1798 1680 1558 1681
8 1683 1559 1682 1800 1797 1679 1796 1912
8 1684 1560 1683 1801 1798 1680 1797 1913
8 1686 1564 1687 1803 1800 1682 1799 1915
8 1685 1563 1686 1802 1801 1683 1800 1916
8 1688 1566 1689 1805 1802 1686 1803 1917
8 1689 1567 1690 1806 1803 1687 1804 1918
8 1691 1569 1692 1808 1805 1689 1806 1920
8 1692 1570 1693 1809 1806 1690 1807 1921
8 1694 1572 1695 1810 1808 1692 1809 1922
8 1829 1713 1811 1926 1712 1592 1697 1813
8 1813 1697 1812 1928 1699 1577 1698 1815
8 1735 1614 1712 1828 1816 1699 1813 1929
8 1815 1698 1814 1931 1701 1578 1700 1818
8 1702 1579 1699 1816 1819 1701 1815 1932
8 1818 1700 1817 1933 1704 1580 1703 1820
8 1819 1701 1818 1934 1705 1581 1704 1821
8 1821 1704 1820 1935 1707 1584 1706 1822
8 1824 1709 1632 1751 1937 1823 1750 1865
8 1716 1593 1709 1824 1834 1715 1823 1937
8 1825 1710 1633 1752 1938 1824 1751 1866
8 1717 1594 1710 1825 1835 1716 1824 1938
8 1945 1830 1712 1828 1851 1733 1614 1735
8 1830 1714 1831 1946 1712 1592 1713 1829
8 1947 1832 1714 1830 1849 1730 1611 1733
8 1843 1729 1607 1725 1950 1833 1715 1834
8 1721 1603 1716 1835 1836 1725 1834 1951
8 1836 1725 1842 1953 1721 1603 1724 1839
8 1723 1838 1719 1601 1840 1954 1837 1722
8 1954 1840 1743 1852 1837 1722 1623 1736
8 1724 1839 1720 1602 1841 1955 1838 1723
8 1841 1727 1844 1956 1723 1605 1726 1840
8 1956 1844 1747 1859 1840 1726 1628 1743
8 1728 1842 1724 1606 1845 1957 1841 1727
8 1725 1607 1729 1843 1842 1728 1846 1958
8 1741 1627 1746 1857 1849 1730 1848 1965
8 1734 1612 1731 1850 1851 1733 1849 1966
8 1854 1741 1849 1966 1738 1622 1731 1850
8 1967 1859 1745 1853 1852 1743 1626 1737
8 1968 1860 1744 1856 1853 1745 1625 1739
8 1854 1741 1622 1738 1969 1857 1742 1855
8 1855 1742 1624 1740 1970 1858 1744 1856
8 1857 1746 1631 1742 1971 1861 1749 1858
8 1858 1749 1630 1744 1972 1863 1748 1860
8 1859 1747 1862 1973 1745 1629 1748 1860
8 1875 1768 1864 1977 1761 1651 1750 1865
8 1755 1644 1761 1869 1866 1751 1865 1978
8 1867 1760 1874 1979 1754 1646 1763 1868
8 1774 1658 1775 1887 1867 1760 1874 1979
8 1870 1766 1648 1756 1980 1877 1763 1868
8 1872 1762 1875 1981 1758 1645 1761 1869
8 1757 1649 1766 1870 1871 1765 1880 1982
8 1983 1879 1764 1873 1871 1765 1647 1759
8 1873 1764 1876 1984 1759 1647 1762 1872
8 1877 1773 1655 1763 1986 1881 1767 1874
8 1775 1659 1776 1888 1874 1767 1881 1986
8 1876 1769 1882 1987 1762 1652 1768 1875
8 1878 1770 1883 1988 1764 1653 1769 1876
8 1880 1772 1656 1766 1989 1886 1773 1877
8 1878 1770 1653 1764 1990 1884 1771 1879
8 1765 1654 1772 1880 1879 1771 1885 1991
8 1778 1664 1779 1890 1887 1775 1888 1997
8 1998 1889 1776 1888 1891 1780 1665 1779
8 1893 1782 1891 2000 1781 1668 1779 1890
8 1894 1783 1892 2001 1782 1669 1780 1891
8 1784 1671 1785 1896 1893 1782 1894 2003
8 1897 1786 1895 2004 1785 1672 1783 1894
8 1790 1675 1789 1904 1896 1785 1897 2006
8 1901 1787 1898 2007 1789 1673 1786 1897
8 1903 1788 1900 2013 1789 1673 1787 1901
8 1792 1676 1791 1906 1903 1788 1902 2016
8 1907 1792 1903 2017 1795 1678 1789 1904
8 1906 1791 1677 1794 2019 1905 1793 1909
8 1907 1792 1678 1795 2020 1906 1794 1910
8 1797 1679 1796 1912 1909 1793 1908 2022
8 1798 1680 1797 1913 1910 1794 1909 2023
8 1800 1682 1799 1915 1912 1796 1911 2025
8 1801 1683 1800 1916 1913 1797 1912 2026
8 1803 1687 1804 1918 1915 1799 1914 2028
8 1802 1686 1803 1917 1916 1800 1915 2029
8 1805 1689 1806 1920 1917 1803 1918 2030
8 1806 1690 1807 1921 1918 1804 1919 2031
8 1808 1692 1809 1922 1920 1806 1921 2032
8 1939 1826 1924 2037 1829 1713 1811 1926
8 1926 1811 1925 2039 1813 1697 1812 1928
8 1944 1829 1926 2040 1828 1712 1813 1929
8 1928 1812 1927 2042 1815 1698 1814 1931
8 1929 1813 1928 2043 1816 1699 1815 1932
8 1931 1814 1930 2044 1818 1700 1817 1933
8 1932 1815 1931 2045 1819 1701 1818 1934
8 1934 1818 1933 2046 1821 1704 1820 1935
8 2048 1936 1823 1937 1977 1864 1750 1865
8 1950 1833 1715 1834 2048 1936 1823 1937
8 1938 1824 1751 1866 2049 1937 1865 1978
8 1835 1716 1824 1938 1951 1834 1937 2049
8 1939 1826 1713 1829 2053 1942 1831 1946
8 1940 1827 1923 2035 2053 1942 1826 1939
8 1945 1830 1946 2058 1828 1712 1829 1944
8 2059 1947 1830 1945 1966 1849 1733 1851
8 1947 1832 1730 1849 2060 1948 1848 1965
8 1947 1832 1948 2060 1830 1714 1831 1946
8 1959 1847 1729 1843 2063 1949 1833 1950
8 1952 1843 1725 1836 2064 1950 1834 1951
8 1836 1725 1843 1952 1953 1842 1958 2066
8 1953 1842 1957 2067 1839 1724 1841 1955
8 1841 1955 1838 1723 1956 2068 1954 1840
8 2068 1956 1859 1967 1954 1840 1743 1852
8 1956 1844 1960 2069 1859 1747 1862 1973
8 1845 1957 1841 1727 1960 2069 1956 1844
8 1728 1842 1957 1845 1846 1958 2071 1961
8 1962 2072 1959 1847 1846 1958 1843 1729
8 1971 1861 1964 2077 1857 1746 1848 1965
8 1854 1741 1857 1969 1966 1849 1965 2078
8 1967 1859 1973 2079 1853 1745 1860 1968
8 1970 1858 1744 1856 2080 1972 1860 1968
8 1969 1857 1742 1855 2081 1971 1858 1970
8 1971 1861 1749 1858 2082 1974 1863 1972
8 1973 1862 1975 2083 1860 1748 1863 1972
8 1987 1882 1976 2086 1875 1768 1864 1977
8 1981 1875 1977 2087 1869 1761 1865 1978
8 1980 1877 1763 1868 2088 1986 1874 1979
8 1887 1775 1888 1997 1979 1874 1986 2088
8 1880 1982 2089 1989 1766 1870 1980 1877
8 1984 1876 1987 2090 1872 1762 1875 1981
8 1765 1871 1983 1879 1880 1982 2091 1991
8 1985 1878 1764 1873 2092 1990 1879 1983
8 1985 1878 1988 2093 1873 1764 1876 1984
8 2094 1992 1881 1986 1998 1889 1776 1888
8 1986 1881 1992 2094 1877 1773 1886 1989
8 1988 1883 1993 2095 1876 1769 1882 1987
8 1878 1770 1884 1990 1988 1883 1994 2096
8 1991 1885 1772 1880 2097 1996 1886 1989
8 1879 1771 1885 1991 1990 1884 1995 2098
8 2103 1998 1888 1997 2000 1891 1779 1890
8 2104 1999 1889 1998 2001 1892 1780 1891
8 2003 1894 2001 2106 1893 1782 1891 2000
8 2004 1895 2002 2107 1894 1783 1892 2001
8 2006 1897 2004 2109 1896 1785 1894 2003
8 2007 1898 2005 2110 1897 1786 1895 2004
8 2014 1901 2007 2112 1904 1789 1897 2006
8 2011 1899 2008 2113 1901 1787 1898 2007
8 2119 2010 1899 2011 2013 1900 1787 1901
8 2016 1902 2012 2122 1903 1788 1900 2013
8 2017 1903 2013 2123 1904 1789 1901 2014
8 1906 1791 1905 2019 2016 1902 2015 2125
8 1907 1792 1906 2020 2017 1903 2016 2126
8 1909 1793 1908 2022 2019 1905 2018 2128
8 2020 1906 1794 1910 2129 2019 1909 2023
8 1912 1796 1911 2025 2022 1908 2021 2131
8 1913 1797 1912 2026 2023 1909 2022 2132
8 1915 1799 1914 2028 2025 1911 2024 2134
8 1916 1800 1915 2029 2026 1912 2025 2135
8 1918 1804 1919 2031 2028 1914 2027 2136
8 1917 1803 1918 2030 2029 1915 2028 2137
8 1920 1806 1921 2032 2030 1918 2031 2138
8 1940 1827 1941 2054 2035 1923 2033 2140
8 2035 1923 2034 2143 1939 1826 1924 2037
8 2037 1924 2036 2146 1926 1811 1925 2039
8 2051 1939 2037 2147 1944 1829 1926 2040
8 2039 1925 2038 2149 1928 1812 1927 2042
8 2040 1926 2039 2150 1929 1813 1928 2043
8 2042 1927 2041 2151 1931 1814 1930 2044
8 2043 1928 2042 2152 1932 1815 1931 2045
8 2045 1931 2044 2153 1934 1818 1933 2046
8 2155 2047 1936 2048 2086 1976 1864 1977
8 2063 1949 1833 1950 2155 2047 1936 2048
8 2156 2048 1937 2049 2087 1977 1865 1978
8 2064 1950 1834 1951 2156 2048 1937 2049
8 2051 1939 1829 1944 2160 2053 1946 2058
8 2052 1940 2035 2144 2160 2053 1939 2051
8 2053 1942 1831 1946 2163 2057 1948 2060
8 2055 1943 1827 1940 2163 2057 1942 2053
8 2055 1943 2056 2164 1940 1827 1941 2054
8 2059 1947 1849 1966 2167 2060 1965 2078
8 2059 1947 2060 2167 1945 1830 1946 2058
8 2077 1964 2061 2168 1965 1848 1948 2060
8 2070 1963 1847 1959 2170 2062 1949 2063
8 2065 1959 1843 1952 2171 2063 1950 2064
8 2173 2072 1958 2066 2065 1959 1843 1952
8 1953 1842 1958 2066 2067 1957 2071 2174
8 2068 1956 2069 2175 1967 1859 1973 2079
8 2067 1957 2069 2175 1955 1841 1956 2068
8 1845 1957 2069 1960 1961 2071 2176 2073
8 2069 1960 2073 2176 1973 1862 1975 2083
8 2070 1963 2075 2177 1959 1847 1962 2072
8 1846 1958 2071 1961 1962 2072 2178 2074
8 2077 1964 1861 1971 2182 2076 1974 2082
8 2081 1971 2077 2183 1969 1857 1965 2078
8 2079 1973 2083 2184 1968 1860 1972 2080
8 2081 1971 1858 1970 2185 2082 1972 2080
8 2083 1975 2084 2186 1972 1863 1974 2082
8 2086 1976 1882 1987 2189 2085 1993 2095
8 2090 1987 2086 2190 1981 1875 1977 2087
8 2191 2094 1986 2088 2103 1998 1888 1997
8 2088 1986 2094 2191 1980 1877 1989 2089
8 1991 2091 2192 2097 1880 1982 2089 1989
8 2093 1988 2095 2193 1984 1876 1987 2090
8 1879 1983 2092 1990 1991 2091 2194 2098
8 1985 1878 1990 2092 2093 1988 2096 2195
8 2097 1996 1886 1989 2196 2099 1992 2094
8 2196 2099 1992 2094 2104 1999 1889 1998
8 1994 2096 1988 1883 2100 2197 2095 1993
8 2096 1994 1884 1990 2198 2101 1995 2098
8 1995 2098 2199 2102 1885 1991 2097 1996
8 2203 2104 1998 2103 2106 2001 1891 2000
8 2107 2002 2105 2204 2001 1892 1999 2104
8 2109 2004 2107 2206 2003 1894 2001 2106
8 2110 2005 2108 2207 2004 1895 2002 2107
8 2112 2007 2110 2209 2006 1897 2004 2109
8 2113 2008 2111 2210 2007 1898 2005 2110
8 2120 2011 2113 2212 2014 1901 2007 2112
8 2117 2009 2114 2213 2011 1899 2008 2113
8 2219 2116 2009 2117 2119 2010 1899 2011
8 2222 2118 2010 2119 2122 2012 1900 2013
8 2223 2119 2011 2120 2123 2013 1901 2014
8 2016 1902 2015 2125 2122 2012 2121 2225
8 2126 2016 2122 2226 2017 1903 2013 2123
8 2019 1905 2018 2128 2125 2015 2124 2228
8 2020 1906 2019 2129 2126 2016 2125 2229
8 2022 1908 2021 2131 2128 2018 2127 2231
8 2023 1909 2022 2132 2129 2019 2128 2232
8 2025 1911 2024 2134 2131 2021 2130 2234
8 2026 1912 2025 2135 2132 2022 2131 2235
8 1914 2028 2134 2024 2027 2136 2236 2133
8 2029 1915 2028 2137 2135 2025 2134 2237
8 2030 1918 2031 2138 2137 2028 2136 2238
8 2157 2050 2139 2240 2054 1941 2033 2140
8 2052 1940 2054 2161 2144 2035 2140 2242
8 2140 2033 2141 2243 2035 1923 2034 2143
8 2143 2034 2142 2246 2037 1924 2036 2146
8 2144 2035 2143 2247 2051 1939 2037 2147
8 2146 2036 2145 2249 2039 1925 2038 2149
8 2147 2037 2146 2250 2040 1926 2039 2150
8 2149 2038 2148 2251 2042 1927 2041 2151
8 2150 2039 2149 2252 2043 1928 2042 2152
8 2152 2042 2151 2253 2045 1931 2044 2153
8 2255 2154 2047 2155 2189 2085 1976 2086
8 2170 2062 1949 2063 2255 2154 2047 2155
8 2256 2155 2048 2156 2190 2086 1977 2087
8 2171 2063 1950 2064 2256 2155 2048 2156
8 2258 2159 2050 2157 2164 2056 1941 2054
8 2160 2053 1946 2058 2262 2163 2060 2167
8 2162 2055 1940 2052 2262 2163 2053 2160
8 2162 2055 2164 2263 2052 1940 2054 2161
8 2163 2057 1948 2060 2264 2165 2061 2168
8 2055 1943 2057 2163 2164 2056 2165 2264
8 2182 2076 2166 2268 2077 1964 2061 2168
8 2183 2077 2168 2269 2078 1965 2060 2167
8 2070 1963 2062 2170 2177 2075 2169 2271
8 2172 2070 1959 2065 2272 2170 2063 2171
8 2172 2070 2177 2273 2065 1959 2072 2173
8 2066 1958 2072 2173 2174 2071 2178 2274
8 2067 1957 2071 2174 2175 2069 2176 2275
8 2175 2069 2176 2275 2079 1973 2083 2184
8 2071 1961 2074 2178 2176 2073 2179 2276
8 2176 2073 2179 2276 2083 1975 2084 2186
8 2072 1962 2075 2177 2178 2074 2180 2277
8 2182 2076 1974 2082 2280 2181 2084 2186
8 2183 2077 1971 2081 2281 2182 2082 2185
8 2184 2083 2186 2282 2080 1972 2082 2185
8 2189 2085 1993 2095 2285 2188 2100 2197
8 2190 2086 1987 2090 2286 2189 2095 2193
8 2192 2097 1989 2089 2287 2196 2094 2191
8 2287 2196 2094 2191 2203 2104 1998 2103
8 2194 2098 1991 2091 2288 2199 2097 2192
8 2195 2096 2197 2289 2093 1988 2095 2193
8 2096 2195 2290 2198 1990 2092 2194 2098
8 2097 1996 2099 2196 2199 2102 2200 2291
8 2196 2099 1999 2104 2291 2200 2105 2204
8 2100 2197 2292 2201 1994 2096 2198 2101
8 1995 2098 2198 2101 2102 2199 2293 2202
8 2206 2107 2204 2296 2106 2001 2104 2203
8 2207 2108 2205 2297 2107 2002 2105 2204
8 2209 2110 2207 2299 2109 2004 2107 2206
8 2210 2111 2208 2300 2110 2005 2108 2207
8 2212 2113 2210 2302 2112 2007 2110 2209
8 2213 2114 2211 2303 2113 2008 2111 2210
8 2220 2117 2213 2305 2120 2011 2113 2212
8 2216 2115 2214 2306 2117 2009 2114 2213
8 2216 2115 2009 2117 2311 2217 2116 2219
8 2219 2116 2010 2119 2314 2218 2118 2222
8 2315 2219 2117 2220 2223 2119 2011 2120
8 2122 2012 2121 2225 2222 2118 2221 2317
8 2318 2222 2119 2223 2226 2122 2013 2123
8 2125 2015 2124 2228 2225 2121 2224 2320
8 2126 2016 2125 2229 2226 2122 2225 2321
8 2128 2018 2127 2231 2228 2124 2227 2323
8 2129 2019 2128 2232 2229 2125 2228 2324
8 2131 2021 2130 2234 2231 2127 2230 2326
8 2132 2022 2131 2235 2232 2128 2231 2327
8 2134 2024 2133 2236 2234 2130 2233 2328
8 2135 2025 2134 2237 2235 2131 2234 2329
8 2137 2028 2136 2238 2237 2134 2236 2330
8 2157 2050 2158 2259 2240 2139 2239 2332
8 2257 2157 2240 2334 2161 2054 2140 2242
8 2240 2139 2241 2335 2140 2033 2141 2243
8 2242 2140 2243 2337 2144 2035 2143 2247
8 2243 2141 2244 2338 2143 2034 2142 2246
8 2246 2142 2245 2341 2146 2036 2145 2249
8 2247 2143 2246 2342 2147 2037 2146 2250
8 2249 2145 2248 2343 2149 2038 2148 2251
8 2250 2146 2249 2344 2150 2039 2149 2252
8 2252 2149 2251 2345 2152 2042 2151 2253
8 2169 2271 2347 2254 2062 2170 2255 2154
8 2189 2085 2188 2285 2255 2154 2254 2347
8 2348 2255 2155 2256 2286 2189 2086 2190
8 2272 2170 2063 2171 2348 2255 2155 2256
8 2349 2258 2157 2257 2263 2164 2054 2161
8 2258 2159 2261 2351 2157 2050 2158 2259
8 2258 2159 2056 2164 2351 2261 2165 2264
8 2262 2163 2060 2167 2355 2264 2168 2269
8 2162 2055 2163 2262 2263 2164 2264 2355
8 2357 2266 2165 2264 2268 2166 2061 2168
8 2268 2166 2076 2182 2361 2267 2181 2280
8 2281 2182 2268 2362 2183 2077 2168 2269
8 2271 2169 2270 2364 2177 2075 2180 2277
8 2172 2070 2170 2272 2273 2177 2271 2365
8 2072 2173 2274 2178 2177 2273 2366 2277
8 2071 2174 2275 2176 2178 2274 2367 2276
8 2275 2176 2276 2367 2184 2083 2186 2282
8 2283 2187 2084 2186 2368 2278 2179 2276
8 2178 2074 2180 2277 2276 2179 2278 2368
8 2283 2187 2279 2370 2186 2084 2181 2280
8 2281 2182 2082 2185 2371 2280 2186 2282
8 2188 2285 2374 2284 2100 2197 2292 2201
8 2286 2189 2095 2193 2375 2285 2197 2289
8 2192 2097 2196 2287 2288 2199 2291 2376
8 2287 2196 2104 2203 2376 2291 2204 2296
8 2194 2098 2199 2288 2290 2198 2293 2377
8 2289 2197 2096 2195 2378 2292 2198 2290
8 2291 2200 2105 2204 2379 2294 2205 2297
8 2199 2102 2200 2291 2293 2202 2294 2379
8 2198 2101 2202 2293 2292 2201 2295 2380
8 2299 2207 2297 2383 2206 2107 2204 2296
8 2300 2208 2298 2384 2207 2108 2205 2297
8 2302 2210 2300 2386 2209 2110 2207 2299
8 2303 2211 2301 2387 2210 2111 2208 2300
8 2305 2213 2303 2389 2212 2113 2210 2302
8 2306 2214 2304 2390 2213 2114 2211 2303
8 2310 2216 2306 2392 2220 2117 2213 2305
8 2308 2215 2307 2393 2216 2115 2214 2306
8 2308 2215 2115 2216 2396 2309 2217 2311
8 2310 2216 2117 2220 2398 2311 2219 2315
8 2311 2217 2116 2219 2399 2312 2218 2314
8 2314 2218 2118 2222 2402 2313 2221 2317
8 2315 2219 2119 2223 2403 2314 2222 2318
8 2225 2121 2224 2320 2317 2221 2316 2405
8 2226 2122 2225 2321 2318 2222 2317 2406
8 2228 2124 2227 2323 2320 2224 2319 2408
8 2229 2125 2228 2324 2321 2225 2320 2409
8 2231 2127 2230 2326 2323 2227 2322 2411
8 2232 2128 2231 2327 2324 2228 2323 2412
8 2234 2130 2233 2328 2326 2230 2325 2413
8 2235 2131 2234 2329 2327 2231 2326 2414
8 2237 2134 2236 2330 2329 2234 2328 2415
8 2259 2158 2260 2352 2332 2239 2331 2417
8 2257 2157 2259 2350 2334 2240 2332 2419
8 2240 2139 2239 2332 2335 2241 2333 2420
8 2334 2240 2335 2422 2242 2140 2243 2337
8 2335 2241 2336 2423 2243 2141 2244 2338
8 2337 2243 2338 2425 2247 2143 2246 2342
8 2338 2244 2339 2426 2246 2142 2245 2341
8 2341 2245 2340 2428 2249 2145 2248 2343
8 2342 2246 2341 2429 2250 2146 2249 2344
8 2344 2249 2343 2430 2252 2149 2251 2345
8 2188 2285 2347 2254 2284 2374 2432 2346
8 2347 2254 2346 2432 2271 2169 2270 2364
8 2365 2271 2170 2272 2433 2347 2255 2348
8 2286 2189 2285 2375 2348 2255 2347 2433
8 2349 2258 2351 2435 2257 2157 2259 2350
8 2349 2258 2164 2263 2435 2351 2264 2355
8 2259 2158 2261 2351 2352 2260 2354 2437
8 2356 2265 2354 2437 2264 2165 2261 2351
8 2441 2357 2264 2355 2362 2268 2168 2269
8 2356 2265 2165 2264 2442 2358 2266 2357
8 2443 2359 2266 2357 2361 2267 2166 2268
8 2370 2279 2360 2446 2280 2181 2267 2361
8 2362 2268 2182 2281 2447 2361 2280 2371
8 2180 2277 2368 2278 2270 2364 2449 2363
8 2271 2365 2273 2177 2364 2450 2366 2277
8 2372 2283 2186 2282 2451 2368 2276 2367
8 2178 2274 2367 2276 2277 2366 2451 2368
8 2283 2187 2278 2368 2370 2279 2369 2452
8 2372 2283 2370 2453 2282 2186 2280 2371
8 2284 2374 2455 2373 2201 2292 2380 2295
8 2375 2285 2197 2289 2456 2374 2292 2378
8 2376 2291 2204 2296 2457 2379 2297 2383
8 2288 2199 2291 2376 2377 2293 2379 2457
8 2198 2290 2378 2292 2293 2377 2458 2380
8 2293 2202 2294 2379 2380 2295 2381 2459
8 2384 2298 2381 2459 2297 2205 2294 2379
8 2386 2300 2384 2463 2299 2207 2297 2383
8 2387 2301 2385 2464 2300 2208 2298 2384
8 2389 2303 2387 2466 2302 2210 2300 2386
8 2390 2304 2388 2467 2303 2211 2301 2387
8 2392 2306 2390 2469 2305 2213 2303 2389
8 2393 2307 2391 2470 2306 2214 2304 2390
8 2395 2308 2393 2472 2310 2216 2306 2392
8 2308 2215 2309 2396 2393 2307 2394 2473
8 2395 2308 2216 2310 2475 2396 2311 2398
8 2396 2309 2217 2311 2476 2397 2312 2399
8 2398 2311 2219 2315 2478 2399 2314 2403
8 2399 2312 2218 2314 2479 2400 2313 2402
8 2317 2221 2316 2405 2402 2313 2401 2482
8 2403 2314 2222 2318 2483 2402 2317 2406
8 2320 2224 2319 2408 2405 2316 2404 2485
8 2321 2225 2320 2409 2406 2317 2405 2486
8 2323 2227 2322 2411 2408 2319 2407 2488
8 2324 2228 2323 2412 2409 2320 2408 2489
8 2326 2230 2325 2413 2411 2322 2410 2490
8 2327 2231 2326 2414 2412 2323 2411 2491
8 2329 2234 2328 2415 2414 2326 2413 2492
8 2417 2331 2260 2352 2494 2416 2353 2438
8 2350 2259 2352 2436 2419 2332 2417 2496
8 2332 2239 2331 2417 2420 2333 2418 2497
8 2334 2240 2332 2419 2422 2335 2420 2499
8 2420 2333 2421 2500 2335 2241 2336 2423
8 2422 2335 2423 2502 2337 2243 2338 2425
8 2423 2336 2424 2503 2338 2244 2339 2426
8 2425 2338 2426 2505 2342 2246 2341 2429
8 2426 2339 2427 2506 2341 2245 2340 2428
8 2429 2341 2428 2507 2344 2249 2343 2430
8 2432 2346 2284 2374 2509 2431 2373 2455
8 2432 2346 2431 2509 2364 2270 2363 2449
8 2375 2285 2374 2456 2433 2347 2432 2510
8 2347 2433 2365 2271 2432 2510 2450 2364
8 2350 2259 2351 2435 2436 2352 2437 2514
8 2440 2356 2437 2514 2355 2264 2351 2435
8 2352 2260 2354 2437 2438 2353 2439 2516
8 2356 2265 2358 2442 2437 2354 2439 2516
8 2440 2356 2264 2355 2518 2442 2357 2441
8 2519 2443 2357 2441 2447 2361 2268 2362
8 2443 2359 2444 2520 2357 2266 2358 2442
8 2443 2359 2267 2361 2520 2444 2360 2446
8 2446 2360 2279 2370 2523 2445 2369 2452
8 2453 2370 2446 2524 2371 2280 2361 2447
8 2449 2363 2448 2525 2368 2278 2369 2452
8 2366 2277 2364 2450 2451 2368 2449 2526
8 2372 2283 2368 2451 2453 2370 2452 2527
8 2455 2373 2295 2380 2529 2454 2382 2460
8 2456 2374 2292 2378 2530 2455 2380 2458
8 2377 2293 2379 2457 2458 2380 2459 2531
8 2463 2384 2459 2531 2383 2297 2379 2457
8 2533 2461 2382 2460 2459 2381 2295 2380
8 2464 2385 2461 2533 2384 2298 2381 2459
8 2466 2387 2464 2537 2386 2300 2384 2463
8 2467 2388 2465 2538 2387 2301 2385 2464
8 2469 2390 2467 2540 2389 2303 2387 2466
8 2470 2391 2468 2541 2390 2304 2388 2467
8 2472 2393 2470 2543 2392 2306 2390 2469
8 2393 2307 2394 2473 2470 2391 2471 2544
8 2395 2308 2396 2475 2472 2393 2473 2546
8 2396 2309 2397 2476 2473 2394 2474 2547
8 2475 2396 2311 2398 2549 2476 2399 2478
8 2476 2397 2312 2399 2550 2477 2400 2479
8 2478 2399 2314 2403 2552 2479 2402 2483
8 2479 2400 2313 2402 2553 2480 2401 2482
8 2405 2316 2404 2485 2482 2401 2481 2556
8 2406 2317 2405 2486 2483 2402 2482 2557
8 2408 2319 2407 2488 2485 2404 2484 2559
8 2409 2320 2408 2489 2486 2405 2485 2560
8 2411 2322 2410 2490 2488 2407 2487 2561
8 2412 2323 2411 2491 2489 2408 2488 2562
8 2414 2326 2413 2492 2491 2411 2490 2563
8 2513 2434 2493 2565 2438 2353 2416 2494
8 2496 2417 2352 2436 2567 2494 2438 2515
8 2494 2416 2495 2568 2417 2331 2418 2497
8 2419 2332 2417 2496 2499 2420 2497 2570
8 2497 2418 2498 2571 2420 2333 2421 2500
8 2499 2420 2500 2573 2422 2335 2423 2502
8 2500 2421 2501 2574 2423 2336 2424 2503
8 2502 2423 2503 2576 2425 2338 2426 2505
8 2503 2424 2504 2577 2426 2339 2427 2506
8 2505 2426 2506 2578 2429 2341 2428 2507
8 2509 2431 2373 2455 2580 2508 2454 2529
8 2509 2431 2508 2580 2449 2363 2448 2525
8 2432 2510 2581 2509 2374 2456 2530 2455
8 2432 2510 2450 2364 2509 2581 2526 2449
8 2583 2511 2434 2513 2516 2439 2353 2438
8 2436 2352 2437 2514 2515 2438 2516 2588
8 2440 2356 2442 2518 2514 2437 2516 2588
8 2442 2358 2444 2520 2516 2439 2517 2589
8 2519 2443 2520 2591 2441 2357 2442 2518
8 2519 2443 2361 2447 2591 2520 2446 2524
8 2446 2360 2445 2523 2520 2444 2521 2592
8 2525 2448 2522 2593 2452 2369 2445 2523
8 2524 2446 2370 2453 2594 2523 2452 2527
8 2526 2449 2525 2595 2451 2368 2452 2527
8 2534 2462 2528 2597 2460 2382 2454 2529
8 2530 2455 2380 2458 2598 2529 2460 2532
8 2599 2533 2460 2532 2531 2459 2380 2458
8 2537 2464 2533 2599 2463 2384 2459 2531
8 2534 2462 2382 2460 2601 2535 2461 2533
8 2538 2465 2535 2601 2464 2385 2461 2533
8 2540 2467 2538 2604 2466 2387 2464 2537
8 2541 2468 2539 2605 2467 2388 2465 2538
8 2543 2470 2541 2607 2469 2390 2467 2540
8 2470 2391 2471 2544 2541 2468 2542 2608
8 2472 2393 2473 2546 2543 2470 2544 2610
8 2473 2394 2474 2547 2544 2471 2545 2611
8 2475 2396 2476 2549 2546 2473 2547 2613
8 2476 2397 2477 2550 2547 2474 2548 2614
8 2549 2476 2399 2478 2616 2550 2479 2552
8 2479 2400 2480 2553 2550 2477 2551 2617
8 2552 2479 2402 2483 2619 2553 2482 2557
8 2482 2401 2481 2556 2553 2480 2554 2620
8 2485 2404 2484 2559 2556 2481 2555 2623
8 2486 2405 2485 2560 2557 2482 2556 2624
8 2488 2407 2487 2561 2559 2484 2558 2625
8 2489 2408 2488 2562 2560 2485 2559 2626
8 2491 2411 2490 2563 2562 2488 2561 2627
8 2513 2434 2512 2585 2565 2493 2564 2630
8 2586 2513 2565 2632 2515 2438 2494 2567
8 2565 2493 2566 2633 2494 2416 2495 2568
8 2567 2494 2568 2635 2496 2417 2497 2570
8 2568 2495 2569 2636 2497 2418 2498 2571
8 2570 2497 2571 2638 2499 2420 2500 2573
8 2571 2498 2572 2639 2500 2421 2501 2574
8 2573 2500 2574 2641 2502 2423 2503 2576
8 2574 2501 2575 2642 2503 2424 2504 2577
8 2576 2503 2577 2643 2505 2426 2506 2578
8 2597 2528 2579 2645 2529 2454 2508 2580
8 2580 2508 2579 2645 2525 2448 2522 2593
8 2581 2509 2455 2530 2646 2580 2529 2598
8 2581 2509 2580 2646 2526 2449 2525 2595
8 2583 2511 2582 2648 2513 2434 2512 2585
8 2583 2511 2439 2516 2648 2582 2517 2589
8 2649 2583 2513 2586 2588 2516 2438 2515
8 2589 2517 2444 2520 2653 2587 2521 2592
8 2518 2442 2520 2591 2588 2516 2589 2654
8 2593 2522 2590 2655 2523 2445 2521 2592
8 2524 2446 2523 2594 2591 2520 2592 2656
8 2595 2525 2593 2657 2527 2452 2523 2594
8 2602 2536 2596 2659 2534 2462 2528 2597
8 2600 2534 2597 2660 2532 2460 2529 2598
8 2600 2534 2460 2532 2661 2601 2533 2599
8 2604 2538 2601 2661 2537 2464 2533 2599
8 2602 2536 2462 2534 2663 2603 2535 2601
8 2601 2535 2465 2538 2663 2603 2539 2605
8 2607 2541 2605 2665 2540 2467 2538 2604
8 2608 2542 2606 2666 2541 2468 2539 2605
8 2543 2470 2544 2610 2607 2541 2608 2668
8 2544 2471 2545 2611 2608 2542 2609 2669
8 2546 2473 2547 2613 2610 2544 2611 2671
8 2547 2474 2548 2614 2611 2545 2612 2672
8 2549 2476 2550 2616 2613 2547 2614 2674
8 2550 2477 2551 2617 2614 2548 2615 2675
8 2552 2479 2553 2619 2616 2550 2617 2677
8 2553 2480 2554 2620 2617 2551 2618 2678
8 2557 2482 2556 2624 2619 2553 2620 2680
8 2556 2481 2555 2623 2620 2554 2621 2681
8 2559 2484 2558 2625 2623 2555 2622 2683
8 2560 2485 2559 2626 2624 2556 2623 2684
8 2562 2488 2561 2627 2626 2559 2625 2685
8 2690 2629 2564 2630 2650 2584 2512 2585
8 2586 2513 2585 2651 2632 2565 2630 2691
8 2630 2564 2631 2692 2565 2493 2566 2633
8 2632 2565 2633 2694 2567 2494 2568 2635
8 2633 2566 2634 2695 2568 2495 2569 2636
8 2635 2568 2636 2697 2570 2497 2571 2638
8 2636 2569 2637 2698 2571 2498 2572 2639
8 2638 2571 2639 2700 2573 2500 2574 2641
8 2639 2572 2640 2701 2574 2501 2575 2642
8 2641 2574 2642 2702 2576 2503 2577 2643
8 2597 2528 2596 2659 2645 2579 2644 2704
8 2645 2579 2644 2704 2593 2522 2590 2655
8 2660 2597 2645 2705 2598 2529 2580 2646
8 2646 2580 2645 2705 2595 2525 2593 2657
8 2650 2584 2512 2585 2707 2647 2582 2648
8 2648 2582 2517 2589 2707 2647 2587 2653
8 2649 2583 2648 2708 2586 2513 2585 2651
8 2649 2583 2516 2588 2708 2648 2589 2654
8 2655 2590 2652 2710 2592 2521 2587 2653
8 2654 2589 2520 2591 2711 2653 2592 2656
8 2657 2593 2655 2712 2594 2523 2592 2656
8 2602 2536 2603 2663 2659 2596 2658 2714
8 2662 2602 2659 2715 2600 2534 2597 2660
8 2662 2602 2534 2600 2717 2663 2601 2661
8 2661 2601 2538 2604 2717 2663 2605 2665
8 2666 2606 2664 2718 2605 2539 2603 2663
8 2668 2608 2666 2720 2607 2541 2605 2665
8 2608 2542 2609 2669 2666 2606 2667 2721
8 2610 2544 2611 2671 2668 2608 2669 2723
8 2611 2545 2612 2672 2669 2609 2670 2724
8 2613 2547 2614 2674 2671 2611 2672 2726
8 2614 2548 2615 2675 2672 2612 2673 2727
8 2616 2550 2617 2677 2674 2614 2675 2729
8 2617 2551 2618 2678 2675 2615 2676 2730
8 2619 2553 2620 2680 2677 2617 2678 2732
8 2620 2554 2621 2681 2678 2618 2679 2733
8 2624 2556 2623 2684 2680 2620 2681 2735
8 2681 2621 2555 2623 2736 2682 2622 2683
8 2626 2559 2625 2685 2684 2623 2683 2737
8 2688 2628 2584 2650 2740 2686 2647 2707
8 2688 2628 2687 2742 2650 2584 2629 2690
8 2690 2629 2689 2745 2630 2564 2631 2692
8 2746 2690 2630 2691 2709 2650 2585 2651
8 2691 2630 2692 2747 2632 2565 2633 2694
8 2692 2631 2693 2748 2633 2566 2634 2695
8 2694 2633 2695 2750 2635 2568 2636 2697
8 2695 2634 2696 2751 2636 2569 2637 2698
8 2697 2636 2698 2753 2638 2571 2639 2700
8 2698 2637 2699 2754 2639 2572 2640 2701
8 2700 2639 2701 2755 2641 2574 2642 2702
8 2659 2596 2658 2714 2704 2644 2703 2757
8 2704 2644 2703 2757 2655 2590 2652 2710
8 2660 2597 2659 2715 2705 2645 2704 2758
8 2705 2645 2704 2758 2657 2593 2655 2712
8 2759 2706 2647 2707 2710 2652 2587 2653
8 2709 2650 2585 2651 2760 2707 2648 2708
8 2708 2648 2589 2654 2760 2707 2653 2711
8 2712 2655 2710 2761 2656 2592 2653 2711
8 2763 2713 2658 2714 2718 2664 2603 2663
8 2662 2602 2663 2717 2715 2659 2714 2764
8 2720 2666 2718 2767 2665 2605 2663 2717
8 2768 2719 2664 2718 2721 2667 2606 2666
8 2668 2608 2669 2723 2720 2666 2721 2770
8 2669 2609 2670 2724 2721 2667 2722 2771
8 2671 2611 2672 2726 2723 2669 2724 2773
8 2672 2612 2673 2727 2724 2670 2725 2774
8 2674 2614 2675 2729 2726 2672 2727 2776
8 2675 2615 2676 2730 2727 2673 2728 2777
8 2677 2617 2678 2732 2729 2675 2730 2779
8 2678 2618 2679 2733 2730 2676 2731 2780
8 2680 2620 2681 2735 2732 2678 2733 2782
8 2733 2679 2621 2681 2783 2734 2682 2736
8 2735 2681 2623 2684 2784 2736 2683 2737
8 2740 2686 2647 2707 2787 2738 2706 2759
8 2688 2628 2686 2740 2742 2687 2739 2789
8 2743 2688 2650 2709 2790 2740 2707 2760
8 2742 2687 2741 2792 2690 2629 2689 2745
8 2743 2688 2742 2793 2709 2650 2690 2746
8 2745 2689 2744 2795 2692 2631 2693 2748
8 2746 2690 2745 2796 2691 2630 2692 2747
8 2747 2692 2748 2797 2694 2633 2695 2750
8 2748 2693 2749 2798 2695 2634 2696 2751
8 2750 2695 2751 2800 2697 2636 2698 2753
8 2751 2696 2752 2801 2698 2637 2699 2754
8 2753 2698 2754 2802 2700 2639 2701 2755
8 2763 2713 2756 2804 2714 2658 2703 2757
8 2759 2706 2652 2710 2804 2756 2703 2757
8 2715 2659 2714 2764 2758 2704 2757 2805
8 2758 2704 2757 2805 2712 2655 2710 2761
8 2806 2759 2707 2760 2761 2710 2653 2711
8 2765 2716 2762 2808 2718 2664 2713 2763
8 2809 2763 2714 2764 2767 2718 2663 2717
8 2765 2716 2664 2718 2811 2766 2719 2768
8 2813 2768 2718 2767 2770 2721 2666 2720
8 2814 2769 2719 2768 2771 2722 2667 2721
8 2723 2669 2724 2773 2770 2721 2771 2816
8 2724 2670 2725 2774 2771 2722 2772 2817
8 2726 2672 2727 2776 2773 2724 2774 2819
8 2727 2673 2728 2777 2774 2725 2775 2820
8 2729 2675 2730 2779 2776 2727 2777 2822
8 2730 2676 2731 2780 2777 2728 2778 2823
8 2732 2678 2733 2782 2779 2730 2780 2825
8 2780 2731 2679 2733 2826 2781 2734 2783
8 2782 2733 2681 2735 2827 2783 2736 2784
8 2830 2785 2738 2787 2804 2756 2706 2759
8 2789 2739 2686 2740 2832 2786 2738 2787
8 2790 2740 2707 2760 2833 2787 2759 2806
8 2742 2687 2739 2789 2792 2741 2788 2835
8 2743 2688 2740 2790 2793 2742 2789 2836
8 2792 2741 2791 2838 2745 2689 2744 2795
8 2793 2742 2792 2839 2746 2690 2745 2796
8 2795 2744 2794 2841 2748 2693 2749 2798
8 2796 2745 2795 2842 2747 2692 2748 2797
8 2797 2748 2798 2843 2750 2695 2751 2800
8 2798 2749 2799 2844 2751 2696 2752 2801
8 2800 2751 2801 2845 2753 2698 2754 2802
8 2808 2762 2803 2847 2763 2713 2756 2804
8 2809 2763 2804 2848 2764 2714 2757 2805
8 2806 2759 2710 2761 2848 2804 2757 2805
8 2765 2716 2766 2811 2808 2762 2807 2850
8 2810 2765 2808 2851 2767 2718 2763 2809
8 2810 2765 2718 2767 2852 2811 2768 2813
8 2811 2766 2719 2768 2853 2812 2769 2814
8 2855 2814 2768 2813 2816 2771 2721 2770
8 2856 2815 2769 2814 2817 2772 2722 2771
8 2773 2724 2774 2819 2816 2771 2817 2858
8 2774 2725 2775 2820 2817 2772 2818 2859
8 2776 2727 2777 2822 2819 2774 2820 2861
8 2777 2728 2778 2823 2820 2775 2821 2862
8 2779 2730 2780 2825 2822 2777 2823 2864
8 2823 2778 2731 2780 2865 2824 2781 2826
8 2825 2780 2733 2782 2866 2826 2783 2827
8 2869 2828 2785 2830 2847 2803 2756 2804
8 2871 2829 2786 2832 2830 2785 2738 2787
8 2872 2830 2787 2833 2848 2804 2759 2806
8 2789 2739 2786 2832 2835 2788 2831 2874
8 2836 2789 2740 2790 2875 2832 2787 2833
8 2792 2741 2788 2835 2838 2791 2834 2877
8 2793 2742 2789 2836 2839 2792 2835 2878
8 2838 2791 2837 2880 2795 2744 2794 2841
8 2839 2792 2838 2881 2796 2745 2795 2842
8 2841 2794 2840 2882 2798 2749 2799 2844
8 2842 2795 2841 2883 2797 2748 2798 2843
8 2843 2798 2844 2884 2800 2751 2801 2845
8 2886 2846 2803 2847 2850 2807 2762 2808
8 2851 2808 2847 2887 2809 2763 2804 2848
8 2850 2807 2766 2811 2889 2849 2812 2853
8 2810 2765 2811 2852 2851 2808 2850 2890
8 2852 2811 2768 2813 2891 2853 2814 2855
8 2853 2812 2769 2814 2892 2854 2815 2856
8 2894 2856 2814 2855 2858 2817 2771 2816
8 2817 2772 2818 2859 2856 2815 2857 2895
8 2819 2774 2820 2861 2858 2817 2859 2897
8 2820 2775 2821 2862 2859 2818 2860 2898
8 2822 2777 2823 2864 2861 2820 2862 2900
8 2823 2778 2824 2865 2862 2821 2863 2901
8 2864 2823 2780 2825 2902 2865 2826 2866
8 2904 2867 2828 2869 2886 2846 2803 2847
8 2869 2828 2868 2906 2830 2785 2829 2871
8 2907 2869 2830 2872 2887 2847 2804 2848
8 2871 2829 2870 2909 2832 2786 2831 2874
8 2910 2871 2832 2875 2872 2830 2787 2833
8 2835 2788 2831 2874 2877 2834 2873 2912
8 2836 2789 2832 2875 2878 2835 2874 2913
8 2877 2834 2876 2915 2838 2791 2837 2880
8 2839 2792 2835 2878 2881 2838 2877 2916
8 2880 2837 2879 2917 2841 2794 2840 2882
8 2881 2838 2880 2918 2842 2795 2841 2883
8 2883 2841 2882 2919 2843 2798 2844 2884
8 2921 2885 2846 2886 2889 2849 2807 2850
8 2922 2886 2847 2887 2890 2850 2808 2851
8 2889 2849 2812 2853 2924 2888 2854 2892
8 2890 2850 2811 2852 2925 2889 2853 2891
8 2891 2853 2814 2855 2926 2892 2856 2894
8 2892 2854 2815 2856 2927 2893 2857 2895
8 2858 2817 2859 2897 2894 2856 2895 2929
8 2859 2818 2860 2898 2895 2857 2896 2930
8 2861 2820 2862 2900 2897 2859 2898 2932
8 2862 2821 2863 2901 2898 2860 2899 2933
8 2864 2823 2865 2902 2900 2862 2901 2934
8 2904 2867 2846 2886 2936 2903 2885 2921
8 2904 2867 2903 2936 2869 2828 2868 2906
8 2937 2904 2869 2907 2922 2886 2847 2887
8 2906 2868 2905 2939 2871 2829 2870 2909
8 2907 2869 2906 2940 2872 2830 2871 2910
8 2909 2870 2908 2942 2874 2831 2873 2912
8 2910 2871 2909 2943 2875 2832 2874 2913
8 2912 2873 2911 2945 2877 2834 2876 2915
8 2878 2835 2874 2913 2916 2877 2912 2946
8 2915 2876 2914 2947 2880 2837 2879 2917
8 2916 2877 2915 2948 2881 2838 2880 2918
8 2918 2880 2917 2949 2883 2841 2882 2919
8 2921 2885 2849 2889 2951 2920 2888 2924
8 2952 2921 2886 2922 2925 2889 2850 2890
8 2924 2888 2854 2892 2954 2923 2893 2927
8 2925 2889 2853 2891 2955 2924 2892 2926
8 2926 2892 2856 2894 2956 2927 2895 2929
8 2895 2857 2896 2930 2927 2893 2928 2957
8 2897 2859 2898 2932 2929 2895 2930 2959
8 2898 2860 2899 2933 2930 2896 2931 2960
8 2900 2862 2901 2934 2932 2898 2933 2961
8 2936 2903 2885 2921 2963 2935 2920 2951
8 2936 2903 2935 2963 2906 2868 2905 2939
8 2937 2904 2886 2922 2964 2936 2921 2952
8 2937 2904 2936 2964 2907 2869 2906 2940
8 2939 2905 2938 2966 2909 2870 2908 2942
8 2940 2906 2939 2967 2910 2871 2909 2943
8 2942 2908 2941 2969 2912 2873 2911 2945
8 2943 2909 2942 2970 2913 2874 2912 2946
8 2945 2911 2944 2971 2915 2876 2914 2947
8 2946 2912 2945 2972 2916 2877 2915 2948
8 2948 2915 2947 2973 2918 2880 2917 2949
8 2951 2920 2888 2924 2975 2950 2923 2954
8 2952 2921 2889 2925 2976 2951 2924 2955
8 2927 2893 2928 2957 2954 2923 2953 2978
8 2955 2924 2892 2926 2979 2954 2927 2956
8 2929 2895 2930 2959 2956 2927 2957 2980
8 2930 2896 2931 2960 2957 2928 2958 2981
8 2932 2898 2933 2961 2959 2930 2960 2982
8 2951 2920 2950 2975 2963 2935 2962 2984
8 2963 2935 2962 2984 2939 2905 2938 2966
8 2964 2936 2921 2952 2985 2963 2951 2976
8 2964 2936 2963 2985 2940 2906 2939 2967
8 2966 2938 2965 2987 2942 2908 2941 2969
8 2967 2939 2966 2988 2943 2909 2942 2970
8 2969 2941 2968 2989 2945 2911 2944 2971
8 2970 2942 2969 2990 2946 2912 2945 2972
8 2972 2945 2971 2991 2948 2915 2947 2973
8 2954 2923 2953 2978 2975 2950 2974 2993
8 2976 2951 2924 2955 2994 2975 2954 2979
8 2957 2928 2958 2981 2978 2953 2977 2995
8 2956 2927 2957 2980 2979 2954 2978 2996
8 2959 2930 2960 2982 2980 2957 2981 2997
8 2984 2962 2983 2999 2966 2938 2965 2987
8 2975 2950 2974 2993 2984 2962 2983 2999
8 2976 2951 2975 2994 2985 2963 2984 3000
8 2985 2963 2984 3000 2967 2939 2966 2988
8 2987 2965 2986 3001 2969 2941 2968 2989
8 2988 2966 2987 3002 2970 2942 2969 2990
8 2990 2969 2989 3003 2972 2945 2971 2991
8 2978 2953 2977 2995 2993 2974 2992 3004
8 2979 2954 2978 2996 2994 2975 2993 3005
8 2980 2957 2981 2997 2996 2978 2995 3006
8 2974 2993 2999 2983 2992 3004 3007 2998
8 2983 2999 2987 2965 2998 3007 3001 2986
8 3000 2984 2999 3008 2988 2966 2987 3002
8 2994 2975 2993 3005 3000 2984 2999 3008
8 3002 2987 3001 3009 2990 2969 2989 3003
8 2996 2978 2995 3006 3005 2993 3004 3010
8 3005 2993 3004 3010 3008 2999 3007 3011
8 3008 2999 3007 3011 3002 2987 3001 3009

CELL_TYPES 1910
12
12
12
12
12
12
12
12
12
12
12
12
12
12
12
12
12
12
12
12
12
12
12
12
12
12
12
12
12
12
12
12
12
12
12
12
12
12
12
12
12
12
12
12
12
12
12
12
12
12
12
12
12
12
12
12
12
12
12
12
12
12
12
12
12
12
12
12
12
12
12
12
12
12
12
12
12
12
12
12
12
12
12
12
12
12
12
12
12
12
12
12
12
12
12
12
12
12
12
12
12
12
12
12
12
12
12
12
12
12
12
12
12
12
12
12
12
12
12
12
12
12
12
12
12
12
12
12
12
12
12
12
12
12
12
12
12
12
12
12
12
12
12
12
12
12
12
12
12
12
12
12
12
12
12
12
12
12
12
12
12
12
12
12
12
12
12
12
12
12
12
12
12
12
12
12
12
12
12
12
12
12
12
12
12
12
12
12
12
12
12
12
12
12
12
12
12
12
12
12
12
12
12
12
12
12
12
12
12
12
12
12
12
12
12
12
12
12
12
12
12
12
12
12
12
12
12
12
12
12
12
12
12
12
12
12
12
12
12
12
12
12
12
12
12
12
12
12
12
12
12
12
12
12
12
12
12
12
12
12
12
12
12
12
12
12
12
12
12
12
12
12
12
12
12
12
12
12
12
12
12
12
12
12
12
12
12
12
12
12
12
12
12
12
12
12
12
12
12
12
12
12
12
12
12
12
12
12
12
12
12
12
12
12
12
12
12
12
12
12
12
12
12
12
12
12
12
12
12
12
12
12
12
12
12
12
12
12
12
12
12
12
12
12
12
12
12
12
12
12
12
12
12
12
12
12
12
12
12
12
12
12
12
12
12
12
12
12
12
12
12
12
12
12
12
12
12
12
12
12
12
12
12
12
12
12
12
12
12
12
12
12
12
12
12
12
12
12
12
12
12
12
12
12
12
12
12
12
12
12
12
12
12
12
12
12
12
12
12
12
12
12
12
12
12
12
12
12
12
12
12
12
12
12
12
12
12
12
12
12
12
12
12
12
12
12
12
12
12
12
12
12
12
12
12
12
12
12
12
12
12
12
12
12
12
12
12
12
12
12
12
12
12
12
12
12
12
12
12
12
12
12
12
12
12
12
12
12
12
12
12
12
12
12
12
12
12
12
12
12
12
12
12
12
12
12
12
12
12
12
12
12
12
12
12
12
12
12
12
12
12
12
12
12
12
12
12
12
12
12
12
12
12
12
12
12
12
12
12
12
12
12
12
12
12
12
12
12
12
12
12
12
12
12
12
12
12
12
12
12
12
12
12
12
12
12
12
12
12
12
12
12
12
12
12
12
12
12
12
12
12
12
12
12
12
12
12
12
12
12
12
12
12
12
12
12
12
12
12
12
12
12
12
12
12
12
12
12
12
12
12
12
12
12
12
12
12
12
12
12
12
12
12
12
12
12
12
12
12
12
12
12
12
12
12
12
12
12
12
12
12
12
12
12
12
12
12
12
12
12
12
12
12
12
12
12
12
12
12
12
12
12
12
12
12
12
12
12
12
12
12
12
12
12
12
12
12
12
12
12
12
12
12
12
12
12
12
12
12
12
12
12
12
12
12
12
12
12
12
12
12
12
12
12
12
12
12
12
12
12
12
12
12
12
12
12
12
12
12
12
12
12
12
12
12
12
12
12
12
12
12
12
12
12
12
12
12
12
12
12
12
12
12
12
12
12
12
12
12
12
12
12
12
12
12
12
12
12
12
12
12
12
12
12
12
12
12
12
12
12
12
12
12
12
12
12
12
12
12
12
12
12
12
12
12
12
12
12
12
12
12
12
12
12
12
12
12
12
12
12
12
12
12
12
12
12
12
12
12
12
12
12
12
12
12
12
12
12
12
12
12
12
12
12
12
12
12
12
12
12
12
12
12
12
12
12
12
12
12
12
12
12
12
12
12
12
12
12
12
12
12
12
12
12
12
12
12
12
12
12
12
12
12
12
12
12
12
12
12
12
12
12
12
12
12
12
12
12
12
12
12
12
12
12
12
12
12
12
12
12
12
12
12
12
12
12
12
12
12
12
12
12
12
12
12
12
12
12
12
12
12
12
12
12
12
12
12
12
12
12
12
12
12
12
12
12
12
12
12
12
12
12
12
12
12
12
12
12
12
12
12
12
12
12
12
12
12
12
12
12
12
12
12
12
12
12
12
12
12
12
12
12
12
12
12
12
12
12
12
12
12
12
12
12
12
12
12
12
12
12
12
12
12
12
12
12
12
12
12
12
12
12
12
12
12
12
12
12
12
12
12
12
12
12
12
12
12
12
12
12
12
12
12
12
12
12
12
12
12
12
12
12
12
12
12
12
12
12
12
12
12
12
12
12
12
12
12
12
12
12
12
12
12
12
12
12
12
12
12
12
12
12
12
12
12
12
12
12
12
12
12
12
12
12
12
12
12
12
12
12
12
12
12
12
12
12
12
12
12
12
12
12
12
12
12
12
12
12
12
12
12
12
12
12
12
12
12
12
12
12
12
12
12
12
12
12
12
12
12
12
12
12
12
12
12
12
12
12
12
12
12
12
12
12
12
12
12
12
12
12
12
12
12
12
12
12
12
12
12
12
12
12
12
12
12
12
12
12
12
12
12
12
12
12
12
12
12
12
12
12
12
12
12
12
12
12
12
12
12
12
12
12
12
12
12
12
12
12
12
12
12
12
12
12
12
12
12
12
12
12
12
12
12
12
12
12
12
12
12
12
12
12
12
12
12
12
12
12
12
12
12
12
12
12
12
12
12
12
12
12
12
12
12
12
12
12
12
12
12
12
12
12
12
12
12
12
12
12
12
12
12
12
12
12
12
12
12
12
12
12
12
12
12
12
12
12
12
12
12
12
12
12
12
12
12
12
12
12
12
12
12
12
12
12
12
12
12
12
12
12
12
12
12
12
12
12
12
12
12
12
12
12
12
12
12
12
12
12
12
12
12
12
12
12
12
12
12
12
12
12
12
12
12
12
12
12
12
12
12
12
12
12
12
12
12
12
12
12
12
12
12
12
12
12
12
12
12
12
12
12
12
12
12
12
12
12
12
12
12
12
12
12
12
12
12
12
12
12
12
12
12
12
12
12
12
12
12
12
12
12
12
12
12
12
12
12
12
12
12
12
12
12
12
12
12
12
12
12
12
12
12
12
12
12
12
12
12
12
12
12
12
12
12
12
12
12
12
12
12
12
12
12
12
12
12
12
12
12
12
12
12
12
12
12
12
12
12
12
12
12
12
12
12
12
12
12
12
12
12
12
12
12
12
12
12
12
12
12
12
12
12
12
12
12
12
12
12
12
12
12
12
12
12
12
12
12
12
12
12
12
12
12
12
12
12
12
12
12
12
12
12
12
12
12
12
12
12
12
12
12
12
12
12
12
12
12
12
12
12
12
12
12
12
12
12
12
12
12
12
12
12
12
12
12
12
12
12
12
12
12
12
12
12
12
12
12
12
12
12
12
12
12
12
12
12
12
12
12
12
12
12
12
12
12
12
12
12
12
12
12
12
12
12
12
12
12
12
12
12
12
12
12
12
12
12
12
12
12
12
12
12
12
12
12
12
12
12
12
12
12
12
12
12
12
12
12
12
12
12
12
12
12
12
12
12
12
12
12
12
12
12
12
12
12
12
12
12
12
12
12
12
12
12
12
12
12
12
12
12
12
12
12
12
12
12
12
12
12
12
12
12
12
12
12
12
12
12
12
12
12
12
12
12
12
12
12
12
12
12
12
12
12
12
12
12
12
12
12
12
12
12
12
12
12
12
12
12
12
12
12
12
12
12
12
12
12
12
12
12
12
12
12
12
12
12
12
12
12
12
12
12
12
12
12
12
12
12
12
12
12
12
12
12
12
12
12
12
12
12
12
12
12
12
12
12
12
12
12
12
12
12
12
12
12
12
12
12
12
12
12
12
12
12
12
12
12
12
12
12
12
12
12
12
12
12
12
12
12
12
12
12
12
12
12
12
12
12
12
12
12
12
12
12
12
12
12
12
12
12
12
12
12
12
12
12
12
12
12
12
12
12
12
12
12
12
12
12
12
12
12
12
12
12
12
12
12
12
12
12
12
12
12
12
12
12
12
12
12
12
12
12
12
12
12
12
12
12
12
12
12
12
12
12
12
12
12
12
12
12
12
12
12
12
12
12
12
12
12
12
12
12
12
12
12
12
12
12
12
12
12
12
12
12
12
12
12
12
12
12
12
12
12
12
12
12
12
12
12
12
12
12
12
12
12
12
12
12
12
12
12
12
12
12
12
12
12
12
12
12
12
12
12
12
12
12
12
12
12
12
12
12
12
12
12
12
12
12
12
12
12

POINT_DATA 3012
SCALARS Jp_lamdaP float 4
LOOKUP_TABLE default
0.999978 1 1 0.999978
1 1 1 1
0.99998 1 1 0.99998
0.999953 1 1 0.999953
0.999972 1 1 0.999972
0.999986 1 1 0.999986
0.999748 1 1 0.999748
1 1 1 1
1 1 1 1
1 1 1 1
1 1 1 1
0.999887 1 1 0.999887
0.99992 1 1 0.99992
0.99995 1 1 0.99995
0.999981 1 1 0.999981
0.999958 1 1 0.999958
0.999988 1 1 0.999988
0.999975 1 1 0.999975
0.999751 1 1 0.999751
1 1 1 1
0.999945 1 1 0.999945
0.999963 1 1 0.999963
0.999635 1 1 0.999635
0.99971 1 1 0.99971
0.999996 1 1 0.999996
0.999795 1 1 0.999795
0.999364 1 1 0.999364
1 1 1 1
0.999981 1 1 0.999981
0.999993 1 1 0.999993
1 1 1 1
0.999894 1 1 0.999894
0.999959 1 1 0.999959
0.999979 1 1 0.999979
0.99978 1 1 0.99978
1 1 1 1
0.99986 1 1 0.99986
0.999925 1 1 0.999925
0.99945 1 1 0.99945
1 1 1 1
1 1 1 1
0.999973 1 1 0.999973
1 1 1 1
0.999939 1 1 0.999939
0.999595 1 1 0.999595
1 1 1 1
0.999715 1 1 0.999715
0.999962 1 1 0.999962
0.999977 1 1 0.999977
0.99999 1 1 0.99999
0.999754 1 1 0.999754
0.999961 1 1 0.999961
0.999951 1 1 0.999951
0.999998 1 1 0.999998
0.999967 1 1 0.999967
0.999636 1 1 0.999636
0.999798 1 1 0.999798
0.999713 1 1 0.999713
0.999351 1 1 0.999351
1 1 1 1
0.999933 1 1 0.999933
0.999663 1 1 0.999663
0.999614 1 1 0.999614
0.99967 1 1 0.99967
0.999097 1 1 0.999097
0.999232 1 1 0.999232
1 1 1 1
0.999863 1 1 0.999863
0.999467 1 1 0.999467
0.998942 1 1 0.998942
1 1 1 1
1 1 1 1
1 1 1 1
0.999901 1 1 0.999901
1 1 1 1
1 1 1 1
0.999769 1 1 0.999769
1 1 1 1
0.99986 1 1 0.99986
0.999937 1 1 0.999937
0.999448 1 1 0.999448
1 1 1 1
1 1 1 1
0.999724 1 1 0.999724
0.999805 1 1 0.999805
0.999143 1 1 0.999143
0.999967 1 1 0.999967
0.999387 1 1 0.999387
0.999511 1 1 0.999511
0.999161 1 1 0.999161
1 1 1 1
1 1 1 1
1 1 1 1
1 1 1 1
1 1 1 1
0.999966 1 1 0.999966
0.999629 1 1 0.999629
0.999976 1 1 0.999976
0.999705 1 1 0.999705
1 1 1 1
0.999563 1 1 0.999563
0.999685 1 1 0.999685
0.998838 1 1 0.998838
0.999735 1 1 0.999735
0.998942 1 1 0.998942
0.99993 1 1 0.99993
0.999955 1 1 0.999955
0.999999 1 1 0.999999
0.99997 1 1 0.99997
0.999638 1 1 0.999638
0.999717 1 1 0.999717
0.999801 1 1 0.999801
0.999337 1 1 0.999337
1 1 1 1
0.99994 1 1 0.99994
0.999586 1 1 0.999586
0.999615 1 1 0.999615
1 1 1 1
0.999889 1 1 0.999889
0.999673 1 1 0.999673
0.999073 1 1 0.999073
0.99945 1 1 0.99945
0.999248 1 1 0.999248
0.998943 1 1 0.998943
0.99958 1 1 0.99958
0.999594 1 1 0.999594
0.998922 1 1 0.998922
0.999018 1 1 0.999018
0.999128 1 1 0.999128
0.998701 1 1 0.998701
1 1 1 1
0.998862 1 1 0.998862
0.99996 1 1 0.99996
0.999511 1 1 0.999511
0.999026 1 1 0.999026
0.998766 1 1 0.998766
0.999994 1 1 0.999994
0.999711 1 1 0.999711
1 1 1 1
1 1 1 1
0.999775 1 1 0.999775
1 1 1 1
0.999949 1 1 0.999949
0.999864 1 1 0.999864
0.999446 1 1 0.999446
1 1 1 1
1 1 1 1
0.999743 1 1 0.999743
0.999821 1 1 0.999821
0.999145 1 1 0.999145
0.999976 1 1 0.999976
0.999389 1 1 0.999389
0.99951 1 1 0.99951
0.99915 1 1 0.99915
0.999993 1 1 0.999993
1 1 1 1
0.999766 1 1 0.999766
0.999043 1 1 0.999043
0.999275 1 1 0.999275
0.998793 1 1 0.998793
0.999592 1 1 0.999592
0.999085 1 1 0.999085
0.999203 1 1 0.999203
0.99904 1 1 0.99904
1 1 1 1
1 1 1 1
1 1 1 1
1 1 1 1
1 1 1 1
1 1 1 1
1 1 1 1
0.999693 1 1 0.999693
0.999612 1 1 0.999612
1 1 1 1
1 1 1 1
0.999566 1 1 0.999566
0.999675 1 1 0.999675
0.998838 1 1 0.998838
0.999712 1 1 0.999712
0.998943 1 1 0.998943
0.999552 1 1 0.999552
0.998778 1 1 0.998778
0.9989 1 1 0.9989
0.998902 1.00039 1 0.998509
0.998982 1 1 0.998982
0.998619 1 1 0.998619
1 1 1 1
0.999946 1 1 0.999946
0.999506 1 1 0.999506
0.999616 1 1 0.999616
1 1 1 1
0.999916 1 1 0.999916
0.999676 1 1 0.999676
0.999048 1 1 0.999048
0.999265 1 1 0.999265
0.999434 1 1 0.999434
0.998945 1 1 0.998945
0.999577 1 1 0.999577
0.999595 1 1 0.999595
0.998872 1 1 0.998872
0.999037 1 1 0.999037
1 1 1 1
0.999951 1 1 0.999951
0.999532 1 1 0.999532
0.999129 1 1 0.999129
0.998671 1 1 0.998671
0.999022 1 1 0.999022
0.998877 1 1 0.998877
0.998769 1 1 0.998769
0.999991 1 1 0.999991
0.99971 1 1 0.99971
0.998791 1 1 0.998791
0.998981 1 1 0.998981
0.998604 1.00003 1 0.998576
0.998598 1 1 0.998598
0.99879 1 1 0.99879
0.998723 1.00016 1 0.998561
0.999981 1 1 0.999981
0.998714 1.00001 1 0.998699
0.999565 1 1 0.999565
0.99915 1 1 0.99915
0.99885 1 1 0.99885
0.998828 1.00012 1 0.998711
0.999634 1 1 0.999634
0.999801 1 1 0.999801
0.999376 1 1 0.999376
0.999737 1 1 0.999737
1 1 1 1
1 1 1 1
0.999824 1 1 0.999824
0.999148 1 1 0.999148
0.999985 1 1 0.999985
0.99951 1 1 0.99951
0.999391 1 1 0.999391
0.99914 1 1 0.99914
0.999996 1 1 0.999996
1 1 1 1
0.999767 1 1 0.999767
0.999044 1 1 0.999044
0.999279 1 1 0.999279
0.998793 1 1 0.998793
0.999592 1 1 0.999592
0.999094 1 1 0.999094
0.999201 1 1 0.999201
0.999029 1 1 0.999029
1 1 1 1
0.999673 1 1 0.999673
0.999858 1 1 0.999858
0.999445 1 1 0.999445
0.998699 1 1 0.998699
0.998952 1 1 0.998952
0.999552 1.00093 1 0.998621
0.999291 1 1 0.999291
0.998963 1 1 0.998963
0.999446 1 1.00044 0.999006
0.998939 1 1 0.998939
0.999969 1 1 0.999969
1 1 1 1
1 1 1 1
1 1 1 1
1 1 1 1
1 1 1 1
1 1 1 1
0.999998 1 1 0.999998
1 1 1 1
0.999714 1 1 0.999714
0.99966 1 1 0.99966
0.998943 1 1 0.998943
0.998839 1 1 0.998839
0.999568 1 1 0.999568
1 1 1 1
0.999552 1 1 0.999552
0.998779 1 1 0.998779
0.9989 1 1 0.9989
0.998798 1.00029 1 0.998508
0.998982 1 1 0.998982
0.998626 1.00001 1 0.99862
0.998764 1 1 0.998764
0.999144 1.0007 1 0.998448
0.998647 1.00008 1 0.998571
1.00207 1.00365 1 0.998426
0.998655 1 1 0.998655
0.999973 1.00146 1 0.998516
0.999574 1 1 0.999574
0.999596 1 1 0.999596
0.998822 1 1 0.998822
0.999056 1 1 0.999056
1 1 1 1
0.999943 1 1 0.999943
0.999553 1 1 0.999553
0.999131 1 1 0.999131
0.998642 1 1 0.998642
0.998893 1 1 0.998893
0.999019 1 1 0.999019
0.998771 1 1 0.998771
0.999988 1 1 0.999988
0.99971 1 1 0.99971
0.998775 1 1 0.998775
0.99898 1 1 0.99898
0.998672 1.00011 1 0.998564
0.998629 1 1 0.998629
0.999976 1 1 0.999976
0.999564 1 1 0.999564
0.999173 1 1 0.999173
0.99879 1 1 0.99879
0.998875 1.00032 1 0.998554
0.998825 1 1 0.998825
0.998734 1.00003 1 0.9987
0.999012 1.0003 1 0.998712
0.999636 1 1 0.999636
0.999373 1 1 0.999373
0.999799 1 1 0.999799
0.998823 1.00031 1 0.998515
0.998642 1.00004 1 0.998601
1.00141 1.00299 1 0.998423
0.999294 1.0008 1 0.998491
0.998758 1.00013 1 0.998628
1.00092 1.00236 1 0.998559
0.999596 1 1 0.999596
0.999538 1.00087 1 0.998666
0.999295 1 1 0.999295
0.998938 1 1 0.998938
0.998705 1 1 0.998705
0.999978 1.00122 1 0.998762
0.999869 1 1 0.999869
0.99936 1 1 0.99936
0.999418 1 1 0.999418
0.999252 1 1 0.999252
0.999044 1 1 0.999044
1 1 1 1
0.999998 1 1 0.999998
0.999768 1 1 0.999768
0.999283 1 1 0.999283
0.998792 1 1 0.998792
0.999593 1 1 0.999593
0.9992 1 1 0.9992
0.999103 1 1 0.999103
0.999018 1 1 0.999018
1 1 1 1
0.999673 1 1 0.999673
0.999861 1 1 0.999861
0.999444 1 1 0.999444
0.998697 1 1 0.998697
0.998955 1 1 0.998955
0.99926 1.00064 1 0.998621
0.999292 1 1 0.999292
0.998974 1 1 0.998974
0.999308 1 1.00031 0.998999
0.998981 1 1 0.998981
1 1 1 1
0.999914 1 1 0.999914
0.999374 1 1 0.999374
0.999532 1 1 0.999532
0.999264 1 1 0.999264
0.999908 1.00136 1 0.998551
0.998927 1.00013 1 0.998793
1.00022 1.00165 1 0.998566
0.999566 1 1.00049 0.999073
0.998896 1 1 0.998896
0.999291 1 1.00048 0.99881
0.999958 1 1 0.999958
0.999743 1 1 0.999743
0.999977 1 1 0.999977
0.999972 1 1 0.999972
1 1 1 1
1 1 1 1
1 1 1 1
1 1 1 1
1 1 1 1
1 1 1 1
1 1 1 1
1 1 1 1
1 1 1 1
0.999997 1 1 0.999997
1 1 1 1
0.998983 1 1 0.998983
0.9989 1 1 0.9989
0.99863 1.00001 1 0.99862
0.998688 1.00018 1 0.998507
0.998779 1 1 0.998779
0.999551 1 1 0.999551
0.998763 1 1 0.998763
0.999073 1.00063 1 0.998449
0.99861 1.00004 1 0.998571
1.00201 1.00359 1 0.998422
0.998659 1.00001 1 0.998654
0.999724 1.00121 1 0.998516
0.999088 1.00066 1 0.998433
1.00411 1.00574 1 0.998372
1.00107 1.00261 1 0.99847
1.00691 1.0085 1 0.998431
0.999567 1.00103 1 0.998539
1.00327 1.00472 1 0.998562
0.998758 1 1 0.998758
0.998979 1 1 0.998979
0.99874 1.00019 1 0.998551
0.99866 1 1 0.99866
0.99997 1 1 0.99997
0.999564 1 1 0.999564
0.999196 1 1 0.999196
0.998791 1 1 0.998791
0.999033 1.00049 1 0.998547
0.998753 1.00005 1 0.998701
0.998801 1 1 0.998801
0.999223 1.00051 1 0.998712
0.999637 1 1 0.999637
0.999371 1 1 0.999371
0.999797 1 1 0.999797
0.99891 1.00042 1 0.998488
0.99864 1.00004 1 0.998601
1.00162 1.00321 1 0.998413
0.999705 1.00121 1 0.998496
0.999597 1 1 0.999597
0.999291 1 1 0.999291
0.998966 1 1 0.998966
0.998785 1.00015 1 0.998638
1.00089 1.00233 1 0.998568
0.998687 1 1 0.998687
0.999831 1.00117 1 0.998667
0.999943 1.00117 1 0.998772
0.999363 1 1 0.999363
0.999237 1 1 0.999237
0.999866 1 1 0.999866
0.99943 1 1 0.99943
1.00255 1.00419 1 0.998364
1.00076 1.00231 1 0.998456
1.00691 1.00855 1 0.998379
1.00233 1.00384 1 0.99849
1.00069 1.00207 1 0.99862
1.00425 1.00566 1 0.9986
0.999348 1 1 0.999348
1.00158 1.00282 1 0.99876
0.999115 1 1 0.999115
0.998904 1 1.00014 0.998767
0.998892 1.00027 1 0.998623
1.00145 1.00268 1 0.998774
0.999904 1 1 0.999904
0.999501 1 1 0.999501
0.999244 1 1 0.999244
0.999268 1 1 0.999268
0.999192 1 1 0.999192
1 1 1 1
0.998695 1 1 0.998695
0.999865 1 1 0.999865
0.999673 1 1 0.999673
0.999442 1 1 0.999442
0.998957 1 1 0.998957
0.998982 1.00036 1 0.998621
0.999294 1 1 0.999294
0.99926 1 1.00027 0.998992
0.998986 1 1 0.998986
0.999024 1 1 0.999024
1 1 1 1
0.999919 1 1 0.999919
0.999374 1 1 0.999374
0.999532 1 1 0.999532
0.999252 1 1 0.999252
0.99987 1.00132 1 0.998548
0.99888 1.00009 1 0.998794
1.00026 1.00171 1 0.998561
0.999429 1 1.00035 0.999075
0.998906 1 1 0.998906
0.999521 1 1.0007 0.998826
0.999942 1 1 0.999942
0.999616 1 1 0.999616
0.999172 1 1 0.999172
0.999331 1 1 0.999331
0.999152 1 1 0.999152
1.00174 1.00323 1 0.998524
0.999411 1.00068 1 0.998728
1.00103 1.00238 1 0.998656
1.00136 1 1.00248 0.998886
0.998717 1 1 0.998717
0.999961 1 1 0.999961
0.999687 1 1 0.999687
0.999728 1 1 0.999728
0.999583 1 1 0.999583
0.999751 1 1 0.999751
0.999981 1 1 0.999981
0.999978 1 1 0.999978
1 1 1 1
0.999974 1 1 0.999974
1 1 1 1
1 1 1 1
1 1 1 1
1 1 1 1
1 1 1 1
1 1 1 1
1 1 1 1
1 1 1 1
1 1 1 1
1 1 1 1
1 1 1 1
0.998665 1.00001 1 0.998653
0.998574 1 1 0.998571
0.99948 1.00097 1 0.998516
1.00194 1.00353 1 0.998419
0.99901 1.00056 1 0.998449
0.998763 1 1 0.998763
0.999124 1.00069 1 0.998433
1.0042 1.00584 1 0.998364
1.0007 1.00223 1 0.99847
1.00696 1.00854 1 0.998434
0.999749 1.00121 1 0.998537
1.00313 1.00457 1 0.998563
1.00384 1.00551 1 0.998341
1.00974 1.01139 1 0.998373
1.00491 1.00643 1 0.998493
1.00843 1.00999 1 0.998452
1.0031 1.00455 1 0.998555
1.00633 1.00773 1 0.998615
0.998993 1.00053 1 0.998462
0.998636 1.00004 1 0.9986
1.00182 1.00342 1 0.998404
1.00012 1.00162 1 0.998501
0.999598 1 1 0.999598
0.999288 1 1 0.999288
0.998995 1 1 0.998995
0.998813 1.00016 1 0.998648
1.00085 1.00228 1 0.998576
1.00009 1.00143 1 0.998667
0.998669 1 1 0.998669
0.999908 1.00113 1 0.998781
0.999365 1 1 0.999365
0.999223 1 1 0.999223
0.999863 1 1 0.999863
0.999442 1 1 0.999442
1.0028 1.00444 1 0.998365
1.00099 1.00254 1 0.998456
1.00646 1.00809 1 0.998383
1.002 1.00352 1 0.99849
0.999348 1 1 0.999348
0.999138 1 1 0.999138
0.999021 1 1.00026 0.998764
1.00071 1.0021 1 0.998614
1.00415 1.00553 1 0.998631
0.998925 1.00031 1 0.998614
1.00175 1.003 1 0.998761
1.00127 1.00247 1 0.998804
0.999245 1 1 0.999245
0.999188 1 1 0.999188
0.999266 1 1 0.999266
0.999881 1 1 0.999881
0.999511 1 1 0.999511
1.00908 1.01075 1 0.998347
1.00637 1.008 1 0.998391
1.00548 1.00695 1 0.998541
1.00429 1.00561 1 0.998684
0.999234 1 1 0.999234
1.00382 1.00499 1 0.998836
0.999179 1 1.00019 0.998988
0.999022 1 1.00046 0.998561
1.00013 1.00158 1 0.998556
0.999888 1 1 0.999888
0.99961 1 1 0.99961
0.999351 1 1 0.999351
0.999209 1 1 0.999209
0.99915 1 1 0.99915
0.999148 1 1 0.999148
1 1 1 1
0.999924 1 1 0.999924
0.999809 1.00127 1 0.998545
0.999532 1 1 0.999532
0.999373 1 1 0.999373
0.999239 1 1 0.999239
0.998833 1.00004 1 0.998795
1.00022 1.00167 1 0.998556
0.999339 1 1.00026 0.999078
0.999444 1 1.0006 0.998842
0.998915 1 1 0.998915
0.999946 1 1 0.999946
0.999616 1 1 0.999616
0.99925 1 1.00007 0.999181
0.99933 1 1 0.99933
0.999139 1 1 0.999139
1.00179 1.00327 1 0.998521
0.999172 1.00045 1 0.998723
1.00101 1.00234 1 0.998673
1.00078 1 1.00191 0.998875
0.998743 1 1.00006 0.998687
0.999675 1 1 0.999675
0.999382 1 1 0.999382
1.00011 1 1.00108 0.999033
0.999154 1 1 0.999154
0.999056 1 1 0.999056
1.00528 1.00655 1 0.998732
0.999333 1.0007 1 0.998631
1.00209 1.00341 1 0.998684
1.00232 1 1.00356 0.998767
0.998493 1 1 0.998493
0.999965 1 1 0.999965
0.9997 1 1 0.9997
0.9995 1 1 0.9995
0.999713 1 1 0.999713
0.999751 1 1 0.999751
0.99956 1 1 0.99956
0.999443 1 1 0.999443
0.999554 1 1 0.999554
0.999758 1 1 0.999758
0.99998 1 1 0.99998
0.999981 1 1 0.999981
1 1 1 1
0.99998 1 1 0.99998
1 1 1 1
1 1 1 1
1 1 1 1
1 1 1 1
1 1 1 1
1 1 1 1
1 1 1 1
1 1 1 1
1 1 1 1
1 1 1 1
1 1 1 1
0.999942 1.00141 1 0.998535
1.00033 1.00186 1 0.99847
1.00298 1.00442 1 0.998565
1.00702 1.0086 1 0.998438
1.00428 1.00594 1 0.998357
0.99916 1.00073 1 0.998433
1.0039 1.00558 1 0.998336
1.00965 1.0113 1 0.998373
1.00531 1.00683 1 0.998482
1.00875 1.01032 1 0.99845
1.00258 1.00403 1 0.998556
1.00623 1.00761 1 0.998634
1.00981 1.01149 1 0.998342
1.01031 1.01191 1 0.998421
1.00893 1.01041 1 0.998531
1.00644 1.00775 1 0.9987
1.00305 1.00469 1 0.998366
1.00121 1.00276 1 0.998455
1.006 1.00763 1 0.998386
1.00169 1.0032 1 0.998489
0.999347 1 1 0.999347
0.999161 1 1 0.999161
0.999235 1 1.00047 0.998761
1.00073 1.00213 1 0.998608
1.00408 1.00543 1 0.998661
1.00196 1.0032 1 0.998763
0.998944 1.00034 1 0.998604
1.00107 1.00224 1 0.998834
0.999245 1 1 0.999245
0.999184 1 1 0.999184
0.999263 1 1 0.999263
0.999857 1 1 0.999857
0.999522 1 1 0.999522
1.00865 1.01032 1 0.998351
1.00629 1.0079 1 0.998398
1.00535 1.00682 1 0.998547
0.999231 1 1 0.999231
0.999197 1 1.00018 0.999014
0.999276 1 1.00072 0.998555
1.00442 1.00575 1 0.998676
1.00021 1.00161 1 0.998594
1.00304 1.00421 1 0.998836
0.99989 1 1 0.99989
0.999207 1 1 0.999207
0.999161 1 1 0.999161
0.999145 1 1 0.999145
0.999358 1 1 0.999358
0.999592 1 1 0.999592
1.00988 1.01154 1 0.998365
1.00738 1.00896 1 0.998438
1.00659 1.00799 1 0.998606
1.0063 1.00753 1 0.998781
0.999162 1 1 0.999162
1.00141 1.00275 1 0.998663
1.00021 1 1.00148 0.99873
0.999881 1.00042 1.00104 0.998422
0.999917 1 1 0.999917
0.999666 1 1 0.999666
0.999424 1 1 0.999424
0.999179 1 1 0.999179
0.999147 1 1 0.999147
0.999089 1 1 0.999089
0.99995 1 1 0.99995
0.999617 1 1 0.999617
1.00188 1.00337 1 0.998518
0.999329 1 1 0.999329
0.99919 1 1 0.99919
0.999126 1 1 0.999126
0.99897 1.00025 1 0.998718
1.00107 1.00238 1 0.998689
1.00024 1 1.00137 0.998865
0.998925 1 1.00027 0.998657
0.999676 1 1 0.999676
0.99939 1 1 0.99939
0.999961 1 1.00091 0.99905
0.99916 1 1 0.99916
0.999067 1 1 0.999067
1.00522 1.00649 1 0.998739
0.999315 1.00069 1 0.99863
1.00215 1.0034 1 0.99876
1.00255 1 1.0038 0.998754
0.998484 1 1.00003 0.998455
0.999459 1 1 0.999459
0.999197 1 1 0.999197
1.00198 1 1.00306 0.998929
0.998991 1 1 0.998991
1.01153 1.01276 1 0.998785
1.00737 1.00869 0.999872 0.998827
1.00067 1.00221 1 0.998459
1.00243 1 1.00396 0.998479
0.999712 1 1 0.999712
0.999511 1 1 0.999511
0.999385 1 1 0.999385
0.999751 1 1 0.999751
0.999537 1 1 0.999537
0.999758 1 1 0.999758
0.999425 1 1 0.999425
0.999562 1 1 0.999562
0.999328 1 1 0.999328
0.999426 1 1 0.999426
0.99956 1 1 0.99956
0.999758 1 1 0.999758
0.999978 1 1 0.999978
0.99998 1 1 0.99998
1 1 1 1
0.999981 1 1 0.999981
1 1 1 1
1 1 1 1
1 1 1 1
1 1 1 1
1 1 1 1
1 1 1 1
1 1 1 1
1 1 1 1
1 1 1 1
1 1 1 1
1 1 1 1
1.00206 1.00351 1 0.998557
1.0057 1.00724 1 0.998471
1.00613 1.00748 1 0.998653
1.00905 1.01061 1 0.998448
1.00955 1.01119 1 0.998372
1.00398 1.00565 1 0.998332
1.0096 1.01127 1 0.998348
1.00996 1.01156 1 0.998419
1.00869 1.01017 1 0.998537
1.00729 1.0086 1 0.998694
1.01128 1.01291 1 0.998389
1.01106 1.01256 1 0.998517
1.01054 1.01192 1 0.998639
1.00823 1.00989 1 0.998354
1.00621 1.00782 1 0.998405
1.00517 1.00663 1 0.998553
0.999228 1 1 0.999228
0.999119 1 1.00008 0.999041
0.99936 1 1.00081 0.998549
1.00452 1.00587 1 0.998667
1.00238 1.00355 1 0.998835
1.00032 1.00169 1 0.998633
0.999206 1 1 0.999206
0.999174 1 1 0.999174
0.999141 1 1 0.999141
0.999892 1 1 0.999892
0.999366 1 1 0.999366
0.999574 1 1 0.999574
1.0105 1.01215 1 0.998367
1.00723 1.00881 1 0.998438
1.00654 1.00796 1 0.998593
0.999156 1 1 0.999156
1.00001 1 1.00123 0.998778
0.999748 1.00042 1.0009 0.998429
1.0067 1.00791 1 0.998799
1.00169 1.00304 1 0.998656
0.999936 1 1 0.999936
0.999666 1 1 0.999666
0.999149 1 1 0.999149
0.99911 1 1 0.99911
0.99918 1 1 0.99918
0.99941 1 1 0.99941
1.01079 1.01237 1 0.998444
1.00816 1.00971 0.999957 0.998514
1.00907 1.01053 0.999796 0.99876
1.00627 1.00743 1 0.998843
0.999817 1 1.00078 0.999034
1.00054 1.00076 1.0014 0.99838
1.00119 1 1.00261 0.998582
0.999975 1 1 0.999975
0.999774 1 1 0.999774
0.999671 1 1 0.999671
0.999448 1 1 0.999448
0.999247 1 1 0.999247
0.999055 1 1 0.999055
0.999169 1 1 0.999169
1.00153 1 1.00239 0.999143
0.999677 1 1 0.999677
0.999398 1 1 0.999398
1.00507 1.00633 1 0.998745
0.999165 1 1 0.999165
1.00001 1 1.00095 0.999066
0.999078 1 1 0.999078
0.999261 1.00063 1 0.99863
1.00213 1.0033 1 0.998835
1.00279 1 1.00405 0.998741
0.998417 1 1 0.998417
0.999451 1 1 0.999451
0.999205 1 1 0.999205
1.00232 1 1.00338 0.998942
0.999006 1 1 0.999006
1.01105 1.01228 1 0.998779
1.00673 1.00797 0.999949 0.998818
1.00103 1.00254 1 0.998493
1.00196 1 1.00351 0.998457
0.999324 1 1 0.999324
1.01196 1.01413 0.999129 0.998727
0.999093 1 1.00003 0.999061
1.00116 1 1.00237 0.998791
1.0135 1.01493 0.999722 0.998865
1.0054 1.00691 1 0.998499
1.00249 1.00093 1.00323 0.998332
0.999521 1 1 0.999521
0.999385 1 1 0.999385
0.999276 1 1 0.999276
0.999758 1 1 0.999758
0.99957 1 1 0.99957
0.999408 1 1 0.999408
0.999758 1 1 0.999758
0.99956 1 1 0.99956
0.999313 1 1 0.999313
0.999443 1 1 0.999443
0.99924 1 1 0.99924
0.999313 1 1 0.999313
0.999455 1 1 0.999455
0.999574 1 1 0.999574
0.999751 1 1 0.999751
0.999974 1 1 0.999974
0.999977 1 1 0.999977
1 1 1 1
0.999979 1 1 0.999979
1 1 1 1
1 1 1 1
1 1 1 1
1 1 1 1
1 1 1 1
0.999986 1 1 0.999986
1 1 1 1
1 1 1 1
1 1 1 1
1 1 1 1
1 1 1 1
1 1 1 1
1.00815 1.00948 1 0.998689
1.00845 1.00992 1 0.998542
1.00962 1.01122 1 0.998418
1.00938 1.01104 1 0.998353
1.0111 1.01272 1 0.998397
1.01148 1.01299 1 0.998506
1.01106 1.01242 1 0.998653
1.01154 1.01308 1 0.998488
1.0134 1.01482 1 0.998602
1.00836 1.01194 0.997691 0.998765
1.01108 1.01273 1 0.998369
1.00711 1.00868 1 0.998439
1.00658 1.00801 1 0.99858
0.99915 1 1 0.99915
0.999961 1 1.00114 0.998826
0.999591 1.00038 1.00078 0.998437
1.00713 1.00832 1 0.998817
1.00171 1.00307 1 0.99865
0.999151 1 1 0.999151
0.99913 1 1 0.99913
0.999182 1 1 0.999182
0.999955 1 1 0.999955
0.999667 1 1 0.999667
0.999396 1 1 0.999396
1.01035 1.01191 1 0.998456
0.999971 1 1 0.999971
0.999761 1 1 0.999761
1.00784 1.00935 0.999988 0.998513
1.01026 1.0116 0.999949 0.998731
0.999787 1 1.00072 0.999064
1.00183 1 1.00328 0.99855
1.00014 1.00091 1.00084 0.998387
1.00573 1.0069 1 0.998839
0.999707 1 1 0.999707
0.999447 1 1 0.999447
0.999139 1 1 0.999139
1.0004 1 1.0012 0.999204
0.999034 1 1 0.999034
0.999251 1 1 0.999251
1.01223 1.01388 0.999795 0.998577
1.01206 1.01348 0.999977 0.998623
1.00987 1.01184 0.999107 0.99895
1.00148 1.00285 1 0.998624
1.00134 1 1.00233 0.999015
1.00397 1.00014 1.00547 0.99837
0.999777 1 1 0.999777
0.999738 1 1 0.999738
0.9996 1 1 0.9996
0.999452 1 1 0.999452
0.999308 1 1 0.999308
0.999094 1 1 0.999094
1.00178 1 1.00283 0.998954
0.99922 1 1 0.99922
0.999443 1 1 0.999443
0.999214 1 1 0.999214
1.01074 1.01198 1 0.998774
1.00629 1.00749 1 0.99881
0.99902 1 1 0.99902
1.00253 1 1.00358 0.998955
1.00147 1.00291 1.00004 0.998527
1.00154 1 1.00311 0.998434
0.999322 1 1 0.999322
1.01204 1.01426 0.999067 0.998745
0.999077 1 1.00001 0.999065
1.0012 1 1.00244 0.998771
1.01329 1.01473 0.999734 0.998849
1.00591 1.0074 1 0.998517
1.00261 1.00079 1.00348 0.99834
0.999162 1 1 0.999162
1.01809 1.02192 0.997342 0.998905
0.99896 1 1.00002 0.998937
1.0023 1 1.00372 0.998583
1.0065 1.01069 0.997225 0.998627
1.00187 1.00132 1.00221 0.998338
1.00629 1.00883 0.998499 0.998984
0.999384 1 1 0.999384
0.999275 1 1 0.999275
0.999191 1 1 0.999191
0.999758 1 1 0.999758
0.99956 1 1 0.99956
0.99946 1 1 0.99946
0.999299 1 1 0.999299
0.99975 1 1 0.99975
0.999564 1 1 0.999564
0.999235 1 1 0.999235
0.999454 1 1 0.999454
0.999328 1 1 0.999328
0.999224 1 1 0.999224
0.999369 1 1 0.999369
0.999461 1 1 0.999461
0.999539 1 1 0.999539
0.999714 1 1 0.999714
0.999595 1 1 0.999595
0.999716 1 1 0.999716
0.999972 1 1 0.999972
0.999974 1 1 0.999974
1 1 1 1
0.999976 1 1 0.999976
1 1 1 1
1 1 1 1
1 1 1 1
1 1 1 1
1 1 1 1
0.999991 1 1 0.999991
0.999983 1 1 0.999983
1 1 1 1
1 1 1 1
1 1 1 1
1 1 1 1
1 1 1 1
1 1 1 1
1.0115 1.01285 1 0.998667
1.01192 1.01344 1 0.998496
1.01094 1.01255 1 0.998406
1.01197 1.0135 1 0.998487
1.01263 1.01407 0.999978 0.998604
1.00944 1.01246 0.998239 0.998771
1.01237 1.01422 0.999511 0.998664
1.0094 1.01596 0.994757 0.998775
1.01918 1.02362 0.996683 0.99898
0.999823 1 1 0.999823
1.00994 1.01149 1 0.998469
1.00736 1.00886 0.999999 0.998511
1.01122 1.01253 1 0.998703
0.999777 1 1.00068 0.999094
1.00253 1 1.00401 0.998517
1.00003 1.00118 1.00045 0.998395
1.00521 1.00638 1 0.998836
0.99911 1 1 0.99911
0.999265 1 1 0.999265
0.999013 1 1 0.999013
0.999968 1 1 0.999968
0.999254 1 1 0.999254
0.999742 1 1 0.999742
0.999446 1 1 0.999446
0.999749 1 1 0.999749
1.01254 1.01418 0.999795 0.99858
0.999793 1 1 0.999793
0.999737 1 1 0.999737
0.999573 1 1 0.999573
1.01247 1.01397 0.999891 0.998626
1.00874 1.01065 0.999195 0.998912
1.0006 1 1.00158 0.999028
1.00395 1.00006 1.00553 0.998365
1.00174 1.00295 1.00016 0.998629
0.99947 1 1 0.99947
0.999299 1 1 0.999299
0.999913 1 1.00073 0.99918
1.00156 1 1.00258 0.998983
0.99911 1 1 0.99911
1.01198 1.01492 0.998476 0.99863
1.01107 1.015 0.997374 0.998747
1.00477 1.00676 0.999276 0.998752
1.00352 1.0017 1.00332 0.99851
1.00371 1 1.00478 0.998938
0.999574 1 1 0.999574
0.999506 1 1 0.999506
0.999432 1 1 0.999432
0.999316 1 1 0.999316
0.999185 1 1 0.999185
1.00011 1 1.00111 0.999001
1.00496 1 1.00607 0.9989
0.999319 1 1 0.999319
0.99907 1 1 0.99907
1.01212 1.01429 0.999096 0.998762
1.01291 1.0144 0.999702 0.998833
1.0062 1.00768 1 0.998535
1.00121 1 1.00247 0.998751
1.00259 1.00064 1.0036 0.998348
0.999187 1 1.00001 0.999182
1.01807 1.02238 0.99687 0.998909
0.999027 1 1.00008 0.998945
1.00253 1 1.00394 0.998593
1.00745 1.01098 0.99784 0.998669
1.00226 1.00124 1.00269 0.998331
1.00723 1.00975 0.998679 0.998824
0.999068 1 1 0.999068
1.00278 1.01365 0.990398 0.998874
1.00051 1 1.00161 0.998901
1.00485 1 1.00635 0.99851
1.00181 1.0023 1.00104 0.998479
0.960777 0.971568 0.995979 0.992886
0.995635 0.993413 1.00537 0.996887
0.985096 1.00434 0.981703 0.999119
0.910417 0.93256 0.981369 0.994789
0.901722 0.945949 0.957984 0.995054
0.999274 1 1 0.999274
0.999199 1 1 0.999199
0.99919 1 1 0.99919
0.99975 1 1 0.99975
0.999555 1 1 0.999555
0.999454 1 1 0.999454
0.999342 1 1 0.999342
0.999229 1 1 0.999229
0.999446 1 1 0.999446
0.999728 1 1 0.999728
0.999551 1 1 0.999551
0.999231 1 1 0.999231
0.999365 1 1 0.999365
0.999375 1 1 0.999375
0.999296 1 1 0.999296
0.999413 1 1 0.999413
0.999522 1 1 0.999522
0.999712 1 1 0.999712
0.999564 1 1 0.999564
0.999462 1 1 0.999462
0.999566 1 1 0.999566
0.999574 1 1 0.999574
0.999745 1 1 0.999745
0.999715 1 1 0.999715
0.999972 1 1 0.999972
0.999972 1 1 0.999972
1 1 1 1
0.999973 1 1 0.999973
1 1 1 1
1 1 1 1
1 1 1 1
1 1 1 1
1 1 1 1
0.999993 1 1 0.999993
0.99999 1 1 0.99999
1 1 1 1
0.999981 1 1 0.999981
1 1 1 1
1 1 1 1
1 1 1 1
1 1 1 1
1 1 1 1
1.0119 1.01336 0.999948 0.998606
1.01232 1.01385 1 0.998485
1.01033 1.01289 0.998691 0.998776
1.00976 1.01572 0.995324 0.998798
1.0121 1.01395 0.99952 0.998664
1.0201 1.0244 0.996861 0.998935
1.02129 1.02378 0.998946 0.998623
0.975592 0.984914 0.994239 0.996275
1.01574 1.01935 0.997483 0.998972
0.999832 1 1 0.999832
0.999823 1 1 0.999823
0.999629 1 1 0.999629
0.999651 1 1 0.999651
1.01294 1.01452 0.999866 0.998582
1.01305 1.01453 0.999907 0.99863
1.0077 1.00941 0.999439 0.998874
0.999764 1 1.00072 0.999042
1.00371 1 1.00536 0.998361
1.00199 1.00323 1.00013 0.998634
1.00061 1 1.00147 0.999139
1.00129 1 1.00228 0.999012
0.999125 1 1 0.999125
0.999736 1 1 0.999736
0.99929 1 1 0.99929
0.999489 1 1 0.999489
0.999809 1 1 0.999809
0.999546 1 1 0.999546
1.01065 1.01309 0.998942 0.998646
0.999602 1 1 0.999602
0.999521 1 1 0.999521
0.999428 1 1 0.999428
1.01296 1.01607 0.998182 0.998758
1.00347 1.00565 0.999077 0.998748
1.00358 1 1.00465 0.998935
1.00318 1.00184 1.00285 0.998496
0.99932 1 1 0.99932
0.999194 1 1 0.999194
1.00387 1 1.00498 0.9989
1.00076 1 1.00178 0.998982
1.01819 1.02089 0.998692 0.998658
1.00168 1.01201 0.991037 0.998741
1.0029 1.0037 1.00073 0.998476
1.00188 1 1.00306 0.998814
0.999378 1 1 0.999378
0.999361 1 1 0.999361
0.999137 1 1 0.999137
1.00662 1 1.00783 0.998795
0.94987 0.968347 0.988146 0.992686
0.999201 1 1 0.999201
0.999083 1 1.00013 0.998953
1.01762 1.02268 0.996135 0.998913
1.00846 1.01121 0.99857 0.998711
1.00285 1.00123 1.0033 0.998323
1.00287 1 1.00427 0.998603
1.0077 1.01044 0.998633 0.998662
0.999147 1 1.00006 0.999082
1.002 1.01321 0.990066 0.998862
1.00011 1 1.0012 0.998907
1.0046 1 1.00609 0.998512
1.00185 1.00313 1.00023 0.998491
0.958489 0.970969 0.994037 0.993069
0.990742 0.991772 1.00315 0.995827
0.987704 1.00414 0.984454 0.999169
0.916568 0.935118 0.985667 0.994415
0.890871 0.938065 0.954771 0.994677
0.99953 1 1.0004 0.999127
0.92422 0.941069 0.987957 0.994067
0.925986 0.948557 0.980669 0.995448
0.979023 1.00383 0.976382 0.998875
1.00416 1 1.00525 0.998917
1.00904 1.00028 1.01012 0.998649
0.987866 1.00212 0.986486 0.999276
0.967715 0.97282 1.0022 0.992566
0.989716 0.987547 1.00668 0.995546
0.902553 0.936266 0.969166 0.994662
0.935012 0.972193 0.965383 0.996243
0.999207 1 1 0.999207
0.999189 1 1 0.999189
0.999261 1 1 0.999261
0.999743 1 1 0.999743
0.999562 1 1 0.999562
0.999431 1 1 0.999431
0.999361 1 1 0.999361
0.999238 1 1 0.999238
0.999712 1 1 0.999712
0.999376 1 1 0.999376
0.999429 1 1 0.999429
0.999538 1 1 0.999538
0.999287 1 1 0.999287
0.999329 1 1 0.999329
0.999486 1 1.0002 0.999289
0.999419 1 1 0.999419
0.999551 1 1 0.999551
0.999564 1 1 0.999564
0.999448 1 1 0.999448
0.999436 1 1 0.999436
0.999437 1 1 0.999437
0.999379 1 1 0.999379
0.999345 1 1 0.999345
0.999545 1 1 0.999545
0.999566 1 1 0.999566
0.999743 1 1 0.999743
0.999552 1 1 0.999552
0.999733 1 1 0.999733
0.999971 1 1 0.999971
0.999714 1 1 0.999714
0.999971 1 1 0.999971
1 1 1 1
0.999972 1 1 0.999972
1 1 1 1
1 1 1 1
1 1 1 1
1 1 1 1
1 1 1 1
0.999826 1 1 0.999826
0.999994 1 1 0.999994
0.999992 1 1 0.999992
1 1 1 1
0.999988 1 1 0.999988
1 1 1 1
1 1 1 1
1 1 1 1
1 1 1 1
1 1 1 1
1.01098 1.0158 0.996429 0.998822
1.01187 1.01377 0.999458 0.998664
1.02154 1.02535 0.997397 0.99889
0.977991 0.984343 0.996647 0.99689
1.01515 1.01907 0.997143 0.99901
1.02186 1.02503 0.998302 0.99861
1.01924 1.0227 0.997867 0.99875
0.980632 0.986526 0.996976 0.997041
0.959022 0.971372 0.995319 0.99193
0.898527 0.929532 0.972885 0.993586
0.893453 0.933615 0.961842 0.994947
0.999621 1 1 0.999621
0.999831 1 1 0.999831
0.999823 1 1 0.999823
0.999621 1 1 0.999621
0.999499 1 1 0.999499
0.999528 1 1 0.999528
0.999632 1 1 0.999632
0.999638 1 1 0.999638
1.00904 1.01115 0.999259 0.998663
1.01496 1.01747 0.998765 0.998769
1.0024 1.00475 0.998918 0.998744
1.00357 1 1.00465 0.998932
1.00299 1.00179 1.00272 0.998481
1.00288 1 1.00398 0.998901
1.00152 1 1.00256 0.998962
0.999202 1 1 0.999202
0.999536 1 1 0.999536
0.999324 1 1 0.999324
0.99963 1 1 0.99963
0.999424 1 1 0.999424
1.01865 1.02173 0.998353 0.998634
0.999393 1 1 0.999393
0.999361 1 1 0.999361
1.0027 1.01077 0.993277 0.998731
1.00281 1.00408 1.0002 0.998539
1.00348 1 1.00472 0.998773
0.999246 1 1.00012 0.99913
1.006 1 1.00721 0.998799
1.01425 1.02111 0.99468 0.998588
0.98958 1.00337 0.987546 0.998689
0.999711 1 1.00103 0.998681
1.00669 1 1.00789 0.998812
0.999301 1 1 0.999301
0.999203 1 1 0.999203
1.00103 1 1.00207 0.99896
0.914097 0.94103 0.97687 0.99438
0.9561 0.970006 0.992444 0.993168
0.999239 1 1.00014 0.999096
0.999821 1 1.00091 0.998913
1.00209 1.01317 0.990197 0.99885
1.00194 1.00405 0.999393 0.998503
1.00422 1 1.00571 0.998514
0.959523 0.971961 0.99534 0.991825
0.991381 0.99299 1.00182 0.996565
0.990775 1.00415 0.987452 0.999218
0.91154 0.936404 0.979352 0.993971
0.879382 0.929178 0.951834 0.9943
0.99938 1 1.00025 0.999127
0.919245 0.944119 0.979031 0.994508
0.926175 0.946103 0.983509 0.995352
0.981681 1.0045 0.978395 0.998865
1.00356 1 1.00464 0.998928
1.00823 1.00017 1.00939 0.998693
0.981408 0.999657 0.982446 0.999287
0.968403 0.974141 1.00202 0.992109
0.988516 0.987907 1.00407 0.996566
0.905044 0.935035 0.974037 0.993725
0.934227 0.972291 0.964713 0.995997
1.00027 1 1.00109 0.999181
0.94303 0.950205 0.996226 0.99621
0.989869 0.991263 1.00086 0.997731
0.986884 1.00033 0.987378 0.999166
1.00913 1 1.00996 0.99918
1.0039 0.997285 1.00702 0.999621
0.981518 0.985548 0.99834 0.997566
0.970151 0.970388 1.00758 0.992234
0.925961 0.958531 0.972114 0.993732
0.956008 0.989904 0.968584 0.997083
0.999189 1 1 0.999189
0.999242 1 1 0.999242
0.999771 1 1.00042 0.99935
0.999711 1 1 0.999711
0.999555 1 1 0.999555
0.999445 1 1 0.999445
0.999376 1 1 0.999376
0.999277 1 1 0.999277
0.999551 1 1 0.999551
0.99934 1 1 0.99934
0.999419 1 1 0.999419
0.999539 1 1.00024 0.999294
0.9999 1 1.00055 0.999346
0.999416 1 1.00009 0.999329
0.99942 1 1 0.99942
0.999563 1 1 0.999563
0.999433 1 1 0.999433
0.999436 1 1 0.999436
0.999436 1 1 0.999436
0.999377 1 1 0.999377
0.999404 1 1 0.999404
0.999363 1 1 0.999363
0.99934 1 1 0.99934
0.99921 1 1 0.99921
0.999672 1 1.00058 0.999092
0.999271 1 1 0.999271
0.999343 1 1 0.999343
0.999506 1 1 0.999506
0.999544 1 1 0.999544
0.999733 1 1 0.999733
0.999566 1 1 0.999566
0.999743 1 1 0.999743
0.99997 1 1 0.99997
0.99972 1 1 0.99972
0.999971 1 1 0.999971
1 1 1 1
0.999971 1 1 0.999971
1 1 1 1
1 1 1 1
1 1 1 1
1 1 1 1
1 1 1 1
0.999842 1 1 0.999842
0.999992 1 1 0.999992
0.999826 1 1 0.999826
1 1 1 1
0.999994 1 1 0.999994
0.999992 1 1 0.999992
1 1 1 1
1 1 1 1
1 1 1 1
1 1 1 1
1 1 1 1
0.917186 0.938797 0.982191 0.994695
0.932802 0.950073 0.985906 0.995857
0.98094 0.985021 0.998525 0.997328
1.01487 1.01871 0.997174 0.999048
1.02243 1.02617 0.997756 0.998596
0.980145 0.985026 0.996993 0.998047
1.0199 1.02252 0.998677 0.998761
0.960904 0.972365 0.995156 0.993023
0.90989 0.932969 0.980573 0.994586
0.88466 0.930484 0.955945 0.994569
0.998492 1.00011 0.999737 0.998645
0.965848 0.972052 1.0007 0.992919
0.897136 0.933314 0.966492 0.994563
0.933366 0.969233 0.967176 0.995676
0.999452 1 1 0.999452
0.999632 1 1 0.999632
0.999831 1 1 0.999831
0.999613 1 1 0.999613
0.999514 1 1 0.999514
0.999476 1 1 0.999476
0.999528 1 1 0.999528
0.999558 1 1 0.999558
0.999616 1 1 0.999616
0.999626 1 1 0.999626
1.01919 1.02252 0.998127 0.998611
1.00287 1.00885 0.995344 0.998721
1.00264 1.00441 0.999638 0.998602
1.0049 1 1.00617 0.998731
1.00503 1 1.00623 0.998803
0.999317 1 1.00019 0.999123
0.999361 1 1 0.999361
0.999408 1 1 0.999408
1.01386 1.02126 0.994186 0.998567
0.999295 1 1 0.999295
0.999187 1 1 0.999187
0.991135 1.00328 0.989237 0.998646
1.00007 1 1.00133 0.998734
1.00565 1 1.00689 0.998769
1.00193 1 1.00298 0.998948
1.00677 1.0097 0.998389 0.998704
0.99561 1 0.99657 0.999036
1.00619 1 1.00732 0.998879
0.999282 1 1 0.999282
0.999181 1 1 0.999181
0.999043 1 1 0.999043
0.943631 0.953081 0.993604 0.996458
0.9188 0.940855 0.982603 0.993849
0.953776 0.971053 0.989471 0.992659
0.999126 1 1 0.999126
1.00292 1 1.00399 0.998939
0.98432 1.00501 0.980537 0.998855
1.00746 1 1.00873 0.998736
0.916568 0.942701 0.978356 0.993787
0.967396 0.973342 1.0004 0.993494
0.98769 0.989312 1.00277 0.995602
0.978726 0.997551 0.981812 0.999304
0.907522 0.933878 0.977023 0.994632
0.927552 0.94862 0.982473 0.995234
0.930064 0.970748 0.962189 0.99574
1.00046 1 1.00128 0.99918
0.941286 0.951769 0.992766 0.996193
0.990832 0.991877 1.00122 0.997728
0.989717 1.00014 0.990378 0.999193
1.00907 0.999991 1.00991 0.999175
1.00373 0.998468 1.00604 0.999242
0.982052 0.984616 1.00125 0.996146
0.966671 0.971004 1.00332 0.992244
0.928634 0.961364 0.970909 0.994898
0.949649 0.983991 0.968166 0.996833
1.00119 1 1.00169 0.999496
0.990478 0.992194 0.999919 0.99835
0.998628 0.995428 1.00451 0.998711
1.00945 0.999488 1.01025 0.999715
0.991542 0.986932 1.00595 0.998726
0.970471 0.972485 1.00599 0.991983
0.955896 0.975186 0.984942 0.995205
0.957084 0.994843 0.965198 0.996734
0.999223 1 1 0.999223
0.999715 1 1.00036 0.99936
1.00075 1 1.0013 0.999451
0.999551 1 1 0.999551
0.999418 1 1 0.999418
0.99935 1 1 0.99935
0.99958 1 1.00028 0.999299
0.99942 1 1 0.99942
0.999358 1 1.00003 0.999327
1.00029 1 1.00093 0.999361
1.00031 1 1.00086 0.999456
0.999544 1 1.00021 0.999331
0.999348 1 1 0.999348
0.999436 1 1 0.999436
0.999435 1 1 0.999435
0.999375 1 1 0.999375
0.999365 1 1 0.999365
0.999403 1 1 0.999403
0.999344 1 1 0.999344
0.999297 1 1 0.999297
0.999331 1 1 0.999331
0.999191 1 1 0.999191
0.99922 1 1 0.99922
0.999701 1 1.00059 0.999112
0.999604 1 1.00067 0.998934
0.999247 1 1 0.999247
0.999533 1 1.0004 0.999137
0.999292 1 1 0.999292
0.999426 1 1 0.999426
0.999342 1 1 0.999342
0.999505 1 1 0.999505
0.999709 1 1 0.999709
0.999543 1 1 0.999543
0.999732 1 1 0.999732
0.999968 1 1 0.999968
0.999742 1 1 0.999742
0.99997 1 1 0.99997
1 1 1 1
0.999971 1 1 0.999971
1 1 1 1
1 1 1 1
1 1 1 1
1 1 1 1
1 1 1 1
0.999778 1 1 0.999778
0.99999 1 1 0.99999
0.999813 1 1 0.999813
1 1 1 1
0.999993 1 1 0.999993
0.999826 1 1 0.999826
1 1 1 1
1 1 1 1
0.999994 1 1 0.999994
1 1 1 1
1 1 1 1
1 1 1 1
0.94675 0.953798 0.99601 0.996587
0.917403 0.940027 0.981696 0.994129
0.990427 0.993415 0.99935 0.997641
0.926355 0.945511 0.984009 0.995662
0.976033 0.983685 0.995451 0.996755
1.01976 1.02235 0.998691 0.99877
0.960701 0.972787 0.993405 0.994132
0.908312 0.934658 0.977965 0.993708
0.876317 0.927942 0.949886 0.994189
0.996178 0.99938 0.998645 0.998148
0.967093 0.971466 1.00312 0.992399
0.901843 0.937365 0.96831 0.993591
0.930645 0.968155 0.965554 0.995549
0.994088 0.997002 0.998989 0.998086
0.969405 0.969402 1.00797 0.992093
0.928304 0.961757 0.970247 0.994815
0.954679 0.990805 0.966683 0.996747
0.999356 1 1 0.999356
0.999469 1 1 0.999469
0.999642 1 1 0.999642
0.99953 1 1 0.99953
0.99938 1 1 0.99938
0.999487 1 1 0.999487
0.999528 1 1 0.999528
0.999541 1 1 0.999541
0.999575 1 1 0.999575
0.999601 1 1 0.999601
1.01397 1.02203 0.993558 0.998547
0.993561 1.00355 0.99143 0.998603
1.00038 1 1.00159 0.998786
1.00501 1 1.00629 0.998726
1.00292 1 1.00399 0.998936
0.999172 1 1 0.999172
0.999289 1 1 0.999289
0.999283 1 1 0.999283
1.00165 1.00849 0.994485 0.998724
0.999191 1 1 0.999191
0.99915 1 1.00011 0.999037
0.993911 1 0.99492 0.998986
1.00514 1 1.00627 0.998875
0.986049 1.00152 0.985427 0.99911
1.0105 1 1.0112 0.999315
0.999889 1 1.00086 0.999028
0.999207 1 1 0.999207
0.999054 1 1 0.999054
0.989484 0.991045 0.999768 0.998656
0.94608 0.953228 0.995867 0.99662
0.917156 0.940387 0.980472 0.994721
1.00069 1 1.00151 0.999179
1.00893 0.999947 1.00982 0.99917
0.991038 1 0.991814 0.999218
0.947211 0.954285 0.996053 0.99652
0.970906 0.96996 1.00905 0.992003
0.983948 0.985929 1.0008 0.997196
0.997719 0.998549 1.00033 0.998837
0.927734 0.958638 0.973876 0.993722
0.991007 0.991643 1.00164 0.997725
0.9445 0.979703 0.96708 0.996884
1.00136 0.999974 1.00189 0.9995
0.98954 0.990872 1.00009 0.998569
1.00093 0.997354 1.00487 0.998722
1.00921 0.999508 1.01013 0.999589
0.990774 0.987443 1.00507 0.998308
0.97371 0.974905 1.00706 0.991774
0.958016 0.997933 0.962853 0.997037
0.940471 0.966933 0.977922 0.994592
1.00256 0.999336 1.00352 0.999711
0.99823 0.998317 1.00033 0.999582
1.00847 1.00447 1.00511 0.998881
0.956907 0.991653 0.968105 0.996754
1.00102 0.988201 1.01337 0.99961
0.978125 0.976374 1.00949 0.992376
0.933185 0.952612 0.984456 0.995074
0.999637 1 1.00027 0.99937
1.0005 1 1.00109 0.999414
1.00312 1 1.00355 0.999566
0.99942 1 1 0.99942
0.999325 1 1 0.999325
1.00075 1 1.00138 0.999376
0.99935 1 1 0.99935
0.999658 1 1.00033 0.999333
1.00069 1 1.00126 0.999429
0.99985 1 1.00035 0.999496
0.999319 1 1 0.999319
0.999368 1 1 0.999368
0.999401 1 1 0.999401
0.999348 1 1 0.999348
0.999328 1 1 0.999328
0.999304 1 1 0.999304
0.999587 1 1.00029 0.999295
0.999227 1 1 0.999227
1.00143 1 1.00249 0.998941
0.999229 1 1 0.999229
0.999594 1 1.00049 0.999103
0.999702 1 1.0009 0.998803
0.999536 1 1.00061 0.998922
0.999176 1 1 0.999176
0.999584 1 1.00064 0.998941
0.999378 1 1 0.999378
0.99923 1 1 0.99923
0.999396 1 1.00021 0.999182
0.999313 1 1 0.999313
0.999444 1 1 0.999444
0.999669 1 1 0.999669
0.999504 1 1 0.999504
0.999708 1 1 0.999708
0.999962 1 1 0.999962
0.999731 1 1 0.999731
0.999967 1 1 0.999967
1 1 1 1
0.999969 1 1 0.999969
1 1 1 1
1 1 1 1
1 1 1 1
1 1 1 1
1 1 1 1
0.999692 1 1 0.999692
0.999946 1 1 0.999946
0.999776 1 1 0.999776
1 1 1 1
0.999974 1 1 0.999974
0.999783 1 1 0.999783
1 1 1 1
1 1 1 1
0.999993 1 1 0.999993
1 1 1 1
1 1 1 1
1 1 1 1
0.9888 0.990598 0.999662 0.998522
0.939564 0.952719 0.989914 0.99624
0.9184 0.938392 0.984729 0.993873
0.999488 1 1 0.999488
0.996133 0.993033 1.00423 0.998896
0.991955 0.993439 1.00087 0.997639
0.920453 0.944926 0.978568 0.995434
0.994566 0.999221 0.997732 0.997603
0.970605 0.973505 1.00423 0.992819
0.90614 0.94207 0.967179 0.994501
0.925419 0.965401 0.963021 0.995394
0.996537 0.999005 1.00083 0.996702
0.965283 0.967969 1.00487 0.99239
0.932186 0.962342 0.974092 0.994428
0.953869 0.990254 0.966631 0.996509
0.986709 0.988316 1.0025 0.995887
0.974481 0.968834 1.01492 0.991042
0.94098 0.968546 0.9772 0.994206
0.9559 0.994437 0.964406 0.996725
0.99927 1 1 0.99927
0.999347 1 1 0.999347
0.999485 1 1 0.999485
0.999371 1 1 0.999371
0.999401 1 1 0.999401
0.999499 1 1 0.999499
0.999546 1 1 0.999546
0.999591 1 1 0.999591
0.996082 1.00687 0.990526 0.998743
0.991869 1 0.992925 0.998937
0.999284 1 1 0.999284
1.00406 1 1.0052 0.998871
0.999413 1 1.00038 0.999032
0.999201 1 1 0.999201
0.99921 1 1 0.99921
0.990765 1.00322 0.98846 0.999117
0.999075 1 1 0.999075
1.00078 1 1.00176 0.999025
1.00634 1 1.00702 0.99932
0.999226 1 1 0.999226
0.982984 0.994767 0.988624 0.999526
1.01256 0.999489 1.01363 0.999454
0.999131 1 1 0.999131
0.99917 1 1 0.99917
0.99837 0.999345 0.99935 0.999675
0.989065 0.990635 0.999736 0.998679
0.949043 0.95348 0.998555 0.996786
1.00148 0.999983 1.00199 0.999506
1.00999 0.999579 1.01096 0.999464
0.988391 0.989596 0.999995 0.998787
0.975936 0.97266 1.01127 0.992183
0.989917 0.985046 1.00813 0.996844
0.944163 0.969512 0.979704 0.994028
1.00301 0.999013 1.00527 0.998733
0.960895 1.00263 0.96093 0.997341
1.00288 0.99943 1.00378 0.999678
0.997018 0.997479 0.999948 0.99959
1.00761 1.00367 1.00484 0.999094
1.00715 0.993226 1.01409 0.999931
0.954796 0.990844 0.966998 0.996506
0.975691 0.974467 1.00894 0.992389
0.940135 0.964146 0.980993 0.993988
1.00663 0.996422 1.01047 0.999771
1.00681 1.00597 1.00111 0.999722
0.996472 0.994479 1.00311 0.9989
0.934282 0.970682 0.966658 0.9957
0.940509 0.970186 0.975147 0.994117
0.992691 0.986798 1.00622 0.999758
0.979535 0.970411 1.01785 0.991703
1.00027 1 1.00089 0.999376
1.00223 1 1.00268 0.99955
1.00806 0.99591 1.01262 0.999582
0.999352 1 1 0.999352
0.9997 1 1.00037 0.999335
1.00094 1 1.00154 0.999403
0.999315 1 1 0.999315
0.99993 1 1.00043 0.999497
1.00442 0.999763 1.00529 0.999367
0.999326 1 1 0.999326
0.999312 1 1 0.999312
1 1 1.00073 0.999273
1.00563 1 1.00663 0.999013
0.999263 1 1 0.999263
1.0009 1 1.00191 0.998986
1.0028 1 1.00412 0.998682
1.00051 1 1.00188 0.998633
0.99946 1 1.00037 0.999094
0.999716 1 1.00095 0.998769
0.999452 1 1.00046 0.998994
0.999763 1 1.00066 0.999102
0.999494 1 1.00054 0.99895
0.99933 1 1 0.99933
0.999189 1 1.00002 0.999172
0.999587 1 1.00064 0.998947
0.999612 1 1 0.999612
0.999372 1 1 0.999372
0.999212 1 1 0.999212
0.999462 1 1 0.999462
0.999668 1 1 0.999668
0.999951 1 1 0.999951
0.999707 1 1 0.999707
0.99996 1 1 0.99996
1 1 1 1
0.999965 1 1 0.999965
1 1 1 1
1 1 1 1
1 1 1 1
1 1 1 1
1 1 1 1
0.999657 1 1 0.999657
0.99992 1 1 0.99992
0.999709 1 1 0.999709
1 1 1 1
0.999945 1 1 0.999945
0.999775 1 1 0.999775
1 1 1 1
1 1 1 1
0.999957 1 1 0.999957
1 1 1 1
1 1 1 1
1 1 1 1
0.996063 0.996478 1.00002 0.999568
0.988607 0.990354 0.999705 0.99853
0.939976 0.953392 0.989625 0.996264
0.999494 1 1 0.999494
0.999457 1 1 0.999457
0.999387 1 1 0.999387
1.00819 1.00319 1.00611 0.998879
0.996773 0.993694 1.00419 0.998911
0.993182 0.993489 1.00206 0.997637
1.00233 0.999735 1.00479 0.997814
0.967285 0.968954 1.00616 0.992165
0.928253 0.958883 0.974137 0.993758
0.955645 0.992253 0.966408 0.996584
0.981788 0.983423 1.00125 0.99709
0.97029 0.968572 1.00981 0.992047
0.940215 0.964265 0.979802 0.99516
0.95826 0.997993 0.963045 0.997032
0.973639 0.978361 0.998407 0.996762
0.981233 0.972904 1.01651 0.992177
0.933679 0.952197 0.9854 0.99508
0.955112 0.988467 0.969109 0.997056
0.999258 1 1 0.999258
0.999267 1 1 0.999267
0.999338 1 1 0.999338
0.99937 1 1 0.99937
0.999421 1 1 0.999421
0.99955 1 1 0.99955
0.996026 1.00487 0.992071 0.999123
1.00217 1 1.00285 0.999324
0.999214 1 1 0.999214
1.00133 1 1.00231 0.999022
0.999096 1 1 0.999096
0.999215 1 1 0.999215
0.999174 1 1 0.999174
0.992364 0.997439 0.995394 0.999517
0.999171 1 1 0.999171
1.00942 0.997206 1.01277 0.99948
0.99924 1 1 0.99924
1.00731 0.989572 1.01818 0.999753
0.994655 0.994602 1.00044 0.999618
0.999244 1 1 0.999244
1.00932 1.00999 0.999502 0.999835
0.99823 0.999202 0.999306 0.99972
0.988944 0.99038 0.999849 0.9987
1.0031 0.99952 1.00394 0.999644
1.00198 0.994243 1.00793 0.999848
0.996082 0.99689 0.99959 0.999599
0.982211 0.976301 1.0114 0.99471
0.946106 0.963895 0.986166 0.995314
1.00659 1.00283 1.00444 0.999307
0.956194 0.992896 0.96633 0.996591
1.00633 0.997595 1.00897 0.999788
1.00704 1.00626 1.00102 0.999757
0.99753 0.995147 1.00348 0.998915
0.991195 0.982967 1.01032 0.99807
0.931981 0.969734 0.965338 0.995578
0.938139 0.966553 0.975419 0.995063
0.990319 0.976513 1.02204 0.992267
1.0153 0.989936 1.02574 0.999888
0.996533 0.997016 0.999943 0.999572
0.991386 0.99472 0.998987 0.997659
0.893467 0.93427 0.961138 0.994993
0.92898 0.961555 0.971133 0.994841
0.983422 0.975228 1.01636 0.99217
0.965426 0.976908 0.990748 0.997476
1.0012 1 1.00167 0.999534
1.01034 0.997108 1.01369 0.999586
1.01931 0.999812 1.01998 0.999529
0.999312 1 1 0.999312
1.00005 1 1.00055 0.999497
1.0038 0.999925 1.00448 0.999391
1.01385 1 1.01472 0.999136
1.00039 1 1.00114 0.99925
1.00567 1 1.00672 0.998963
1.01112 1 1.01254 0.998595
1.00047 1 1.00144 0.999032
1.00355 1 1.00489 0.998673
1.00343 1 1.00502 0.998413
1.0004 1.00008 1.00191 0.998413
0.999917 1 1.00107 0.998847
1.00047 1 1.00186 0.998613
0.999778 1 1.00104 0.998735
0.999731 1 1.00063 0.999099
0.999476 1 1.00045 0.999031
0.999497 1 1.00027 0.999226
0.999669 1 1.00055 0.999123
0.99942 1 1.00044 0.998978
0.999538 1 1 0.999538
0.999331 1 1 0.999331
0.999183 1 1.00001 0.999169
0.999927 1 1 0.999927
0.999612 1 1 0.999612
0.999366 1 1 0.999366
0.999666 1 1 0.999666
0.999947 1 1 0.999947
1 1 1 1
0.999957 1 1 0.999957
1 1 1 1
1 1 1 1
1 1 1 1
1 1 1 1
1 1 1 1
0.999655 1 1 0.999655
0.99994 1 1 0.99994
0.999669 1 1 0.999669
1 1 1 1
0.999941 1 1 0.999941
0.999726 1 1 0.999726
1 1 1 1
1 1 1 1
0.999944 1 1 0.999944
1 1 1 1
1 1 1 1
1 1 1 1
1.00766 1.00579 1.00214 0.99972
0.997916 0.997483 1.00086 0.999578
0.988784 0.990059 1.00017 0.998539
0.99944 1 1 0.99944
0.999357 1 1 0.999357
0.999501 1 1 0.999501
0.999455 1 1 0.999455
0.999372 1 1 0.999372
0.999367 1 1 0.999367
0.999304 1 1 0.999304
0.998256 0.994506 1.00508 0.9987
1.0063 1.00185 1.00535 0.999092
0.997678 0.994342 1.00443 0.998927
0.961976 1.00254 0.9621 0.99734
0.977887 0.981318 1.00052 0.995984
0.97629 0.972657 1.01074 0.993073
0.942452 0.96004 0.987639 0.993967
0.973351 0.978648 0.99839 0.996192
0.974453 0.970227 1.01248 0.991979
0.941767 0.964595 0.982078 0.994152
0.949827 0.984135 0.968245 0.996792
0.964534 0.974058 0.992814 0.99739
0.971548 0.972013 1.00777 0.991817
0.959149 0.977911 0.985559 0.995186
0.93332 0.970961 0.964914 0.996185
0.999279 1 1 0.999279
0.999256 1 1 0.999256
0.999265 1 1 0.999265
0.999368 1 1 0.999368
1.00072 1.00005 1.00117 0.999509
1.00678 0.99519 1.01215 0.999505
0.999205 1 1 0.999205
0.999179 1 1 0.999179
0.999211 1 1 0.999211
0.999236 1 1 0.999236
0.999232 1 1 0.999232
1.00262 0.988097 1.01515 0.999553
0.99612 0.996002 1.00044 0.999681
0.999262 1 1 0.999262
1.00854 0.984742 1.02453 0.999647
1.00172 0.997738 1.00461 0.999385
0.998812 0.999381 0.999753 0.999678
1.00815 1.00883 0.999468 0.999858
0.998048 0.99895 0.999332 0.999766
1.00612 0.998675 1.00765 0.999805
0.99253 0.982929 1.01005 0.999716
1.00716 1.00646 1.00091 0.999793
0.978221 0.97001 1.01678 0.99182
0.941838 0.962071 0.985003 0.993873
0.998708 0.995831 1.00396 0.99893
0.92739 0.966786 0.963657 0.995428
1.0185 0.990282 1.02863 0.999872
0.997837 0.997777 1.00048 0.999581
0.992806 0.994746 1.00039 0.997657
0.969437 0.979742 0.990394 0.999078
0.885633 0.931441 0.955963 0.99462
0.930155 0.960772 0.973559 0.994427
0.986319 0.974993 1.01928 0.992482
1.00238 0.986885 1.01598 0.999725
0.990333 0.991751 1.00004 0.998534
0.934053 0.951057 0.986155 0.995909
0.898859 0.933187 0.968441 0.994603
0.977496 0.970847 1.01475 0.992209
0.960058 0.974925 0.988203 0.996507
1.01322 0.998783 1.01487 0.99959
1.01872 0.998487 1.02075 0.999522
1.01297 1 1.01358 0.999402
1.0031 1 1.00368 0.999415
1.01425 1 1.01508 0.999176
1.0092 1 1.01051 0.998697
1.00579 1 1.00688 0.998912
1.01073 1 1.01219 0.998559
1.0052 1 1.00689 0.998326
1.00421 1 1.00556 0.998663
1.00346 1 1.00509 0.998383
1.0022 1.00077 1.00316 0.998279
0.998801 1.00041 1 0.998387
0.999349 1 1.00077 0.998584
1.00059 1.00003 1.00218 0.998378
0.999117 1 1.00012 0.998999
0.999609 1 1.00074 0.998871
1.00042 1 1.00183 0.998593
0.999394 1 1.00025 0.999143
0.999817 1 1.00073 0.999092
0.999494 1 1.00043 0.999068
0.999437 1 1 0.999437
0.999399 1 1.00015 0.999245
0.999602 1 1.00046 0.999143
0.999871 1 1 0.999871
0.999539 1 1 0.999539
0.999333 1 1 0.999333
1 1 1 1
0.999922 1 1 0.999922
0.999611 1 1 0.999611
0.999943 1 1 0.999943
1 1 1 1
1 1 1 1
1 1 1 1
1 1 1 1
1 1 1 1
0.999437 1 1 0.999437
0.999626 1 1 0.999626
0.999925 1 1 0.999925
0.999655 1 1 0.999655
1 1 1 1
0.999944 1 1 0.999944
0.999682 1 1 0.999682
1 1 1 1
1 1 1 1
0.999963 1 1 0.999963
1 1 1 1
1 1 1 1
1 1 1 1
0.998572 0.997533 1.00146 0.999585
1.00778 1.00602 1.002 0.999756
0.999359 0.998498 1.00128 0.999587
0.999447 1 1 0.999447
0.999346 1 1 0.999346
0.9993 1 1 0.9993
0.999345 1 1 0.999345
0.99929 1 1 0.99929
0.999453 1 1 0.999453
0.999358 1 1 0.999358
0.999367 1 1 0.999367
0.999299 1 1 0.999299
0.999314 1 1 0.999314
0.988335 0.989689 1.00094 0.997694
1.00012 0.996053 1.00537 0.998713
1.00422 1.00051 1.00441 0.999305
0.945809 0.980926 0.967248 0.996849
0.943867 0.961478 0.986264 0.995356
0.965957 0.973465 0.996693 0.99558
0.977469 0.97588 1.0096 0.992102
0.966098 0.974512 0.995323 0.996025
0.982809 0.977714 1.01327 0.992048
0.944691 0.969972 0.97917 0.994656
0.93286 0.971243 0.964406 0.99593
0.981137 0.978533 1.00606 0.996625
0.974528 0.975828 1.00642 0.992296
0.925905 0.958694 0.971931 0.99369
0.899382 0.944956 0.956601 0.994951
0.999446 1 1 0.999446
0.99928 1 1 0.99928
0.999255 1 1 0.999255
0.998358 0.986311 1.01287 0.999351
0.99639 0.996238 1.00041 0.999748
0.999232 1 1 0.999232
0.99922 1 1 0.99922
0.999305 1 1.00003 0.999271
1.00242 0.998316 1.00474 0.999379
1.00673 0.984539 1.02288 0.999662
1.00375 1 1.00435 0.999394
1.00581 0.992162 1.01437 0.9994
0.989741 0.991105 1 0.998623
0.998767 0.999331 0.999712 0.999724
1.00693 1.00765 0.999408 0.999882
1.02097 0.99012 1.03131 0.999855
0.969471 0.980194 0.992008 0.997029
0.998886 0.99855 1.00075 0.99959
0.97806 0.974212 1.01332 0.99075
0.927934 0.95793 0.974736 0.993794
0.994015 0.994817 1.00154 0.997655
0.878444 0.929326 0.950719 0.994247
1.00267 0.987133 1.01598 0.999763
0.990304 0.991758 0.999993 0.998542
0.927485 0.946562 0.984063 0.995714
0.95965 0.975826 0.986103 0.997282
0.903102 0.937314 0.969662 0.993646
0.969313 0.968989 1.00887 0.991537
0.983121 0.987733 0.996018 0.999311
0.947323 0.954129 0.996221 0.996633
0.900288 0.930202 0.974036 0.99364
0.973592 0.97114 1.0105 0.992107
0.976717 0.981371 0.997878 0.997374
1.01768 0.997081 1.02115 0.999515
1.01529 1 1.0159 0.999393
0.993331 1 0.994269 0.999057
1.01445 1 1.01524 0.999215
1.00917 1 1.01044 0.998747
1.00202 1.00082 1.00272 0.998491
1.01021 1 1.01171 0.998524
1.00438 1.00003 1.00603 0.998333
0.999283 1.00084 1.00003 0.998407
1.00338 1 1.00503 0.998352
1.00208 1.00134 1.00245 0.998291
1.0017 1.00325 1 0.998449
1.00049 1.00195 1 0.998544
0.998585 1.0001 1.00002 0.998472
0.99889 1.00049 1 0.998397
0.998788 1 1 0.998788
0.99962 1 1.00107 0.99855
1.00078 1 1.00244 0.998344
0.999121 1 1 0.999121
0.99905 1 1.00002 0.999028
0.999213 1 1.00032 0.998896
0.999333 1 1 0.999333
0.999545 1 1.00039 0.999151
0.999905 1 1.00082 0.999085
0.999774 1 1 0.999774
0.999437 1 1 0.999437
0.999297 1 1.00003 0.999265
1 1 1 1
0.999868 1 1 0.999868
0.999539 1 1 0.999539
1 1 1 1
1 1 1 1
0.999918 1 1 0.999918
1 1 1 1
1 1 1 1
1 1 1 1
0.999384 1 1 0.999384
0.99959 1 1 0.99959
0.999429 1 1 0.999429
0.999913 1 1 0.999913
0.999626 1 1 0.999626
1 1 1 1
0.999928 1 1 0.999928
0.999655 1 1 0.999655
1 1 1 1
1 1 1 1
0.999948 1 1 0.999948
1 1 1 1
1 1 1 1
1 1 1 1
0.990898 0.992117 1 0.998772
0.997665 0.996927 1.00115 0.999594
1.00783 1.00615 1.00188 0.999792
0.999294 1 1 0.999294
0.999454 1 1 0.999454
0.999335 1 1 0.999335
0.999356 1 1 0.999356
0.999311 1 1 0.999311
0.999285 1 1 0.999285
0.999239 1 1 0.999239
0.999271 1 1 0.999271
0.999368 1 1 0.999368
0.999294 1 1 0.999294
0.99931 1 1 0.99931
0.999324 1 1 0.999324
0.925925 0.947884 0.981364 0.995383
0.989453 0.990394 1.00136 0.997689
1.00151 0.997128 1.00567 0.998725
0.92925 0.970421 0.961751 0.995656
0.949647 0.973533 0.98115 0.994205
0.971838 0.972024 1.00802 0.991852
0.96839 0.973547 0.997597 0.9971
0.980989 0.97796 1.00522 0.997892
0.889367 0.936948 0.95438 0.99459
0.979493 0.974506 1.01378 0.991454
0.925734 0.959009 0.970376 0.994772
0.980071 0.982883 0.999058 0.998079
0.97296 0.970144 1.01034 0.992642
0.898018 0.933197 0.967634 0.994491
1.00006 1 1.00041 0.999657
0.999449 1 1 0.999449
0.99928 1 1 0.99928
1.00738 0.987217 1.02076 0.999672
1.00403 0.999593 1.00506 0.999373
0.999332 1 1.00005 0.999281
1.00404 1 1.00465 0.999398
1.00469 0.992523 1.01284 0.999429
1.00626 0.997357 1.00939 0.999545
0.944086 0.953063 0.99453 0.996029
0.99007 0.991187 0.999986 0.998887
0.998714 0.999207 0.999735 0.999771
1.00266 0.987106 1.01596 0.999802
0.959714 0.977574 0.983842 0.997853
0.990442 0.991716 1.00017 0.99855
0.974639 0.971621 1.01004 0.99314
0.908625 0.942944 0.968882 0.994552
0.920533 0.945446 0.978062 0.995488
0.98229 0.988271 0.994589 0.999356
0.939968 0.952979 0.990024 0.996286
0.911044 0.932296 0.982454 0.994656
0.97618 0.978293 1.0018 0.996043
0.967691 0.97012 1.00518 0.992357
0.972807 0.994883 0.978369 0.99943
0.917854 0.939885 0.981713 0.994752
0.968661 0.972804 1.00306 0.9927
0.988504 0.990886 1.00177 0.995838
1.01845 1 1.01907 0.999383
0.989747 1 0.990637 0.999101
0.981646 1.00112 0.981634 0.998895
1.00945 1 1.01066 0.998797
1.00218 1.00104 1.00265 0.99849
1.0001 1.00198 0.999428 0.99869
1.00363 1.00003 1.00527 0.99834
0.999262 1.00047 1.00037 0.998421
1.00517 1.00647 1 0.998705
1.00203 1.00189 1.00185 0.998302
1.00159 1.00314 1 0.998454
1.00383 1.00511 1 0.998731
1.00231 1.00356 1 0.998754
0.99936 1.00081 1 0.998556
1.00055 1.002 1 0.998562
0.998645 1 1 0.998645
0.998597 1.0001 1 0.998498
0.998982 1.00058 1 0.998406
0.999015 1 1 0.999015
0.998924 1 1.00013 0.99879
0.999982 1 1.00147 0.998515
0.999269 1 1 0.999269
0.999118 1 1 0.999118
0.999058 1 1 0.999058
0.999658 1 1 0.999658
0.999335 1 1 0.999335
0.999699 1 1.00054 0.99916
1 1 1 1
0.999772 1 1 0.999772
0.999437 1 1 0.999437
1 1 1 1
1 1 1 1
0.999865 1 1 0.999865
1 1 1 1
1 1 1 1
1 1 1 1
0.999373 1 1 0.999373
0.999387 1 1 0.999387
0.999544 1 1 0.999544
0.999896 1 1 0.999896
0.99959 1 1 0.99959
0.99942 1 1 0.99942
1 1 1 1
0.999915 1 1 0.999915
0.999626 1 1 0.999626
1 1 1 1
1 1 1 1
0.999931 1 1 0.999931
1 1 1 1
1 1 1 1
1 1 1 1
0.943674 0.951256 0.995783 0.996231
0.990132 0.991337 1 0.998785
0.996967 0.996522 1.00084 0.999603
0.999284 1 1 0.999284
0.999263 1 1 0.999263
0.999235 1 1 0.999235
0.999367 1 1 0.999367
0.999322 1 1 0.999322
0.999281 1 1 0.999281
0.99927 1 1 0.99927
0.999237 1 1 0.999237
0.999178 1 1 0.999178
0.999309 1 1 0.999309
0.999306 1 1 0.999306
0.999324 1 1 0.999324
0.908232 0.931395 0.980385 0.994641
0.924598 0.944911 0.983131 0.995292
0.990361 0.990822 1.00185 0.997687
0.879237 0.928842 0.952089 0.994229
0.924107 0.956348 0.972439 0.993673
0.986531 0.980561 1.01274 0.993427
0.985231 0.976829 1.01214 0.9965
0.977391 0.980257 1.00031 0.996763
0.90122 0.933207 0.971959 0.993586
0.972044 0.97014 1.00913 0.992894
0.981003 0.981671 1.00227 0.997052
0.972225 0.973663 1.0062 0.992371
1.00748 1 1.00819 0.999299
0.999904 1 1.00027 0.999637
0.999451 1 1 0.999451
1.00093 0.990406 1.01118 0.999456
1.00434 1 1.00494 0.999402
1.00687 0.998241 1.00918 0.999469
1.0011 1.00067 1.00146 0.998965
0.914414 0.942225 0.975917 0.994433
0.945963 0.952785 0.996423 0.996405
0.990662 0.991586 0.999918 0.999149
0.98057 0.988668 0.992394 0.99941
0.975934 0.978078 1.00081 0.997003
0.940744 0.953614 0.990158 0.99631
0.971594 0.970754 1.00876 0.992172
0.910033 0.93525 0.979152 0.993756
0.976295 0.995404 0.981535 0.999254
0.918173 0.940509 0.981986 0.994159
0.970086 0.972513 1.00524 0.992304
0.989935 0.987822 1.00517 0.996988
0.990893 1.0018 0.989896 0.999205
0.958818 0.972184 0.994395 0.991811
0.992859 0.994401 1.00086 0.99759
0.986106 1 0.986948 0.999147
0.982512 1.00119 0.982451 0.998877
0.98246 1.00284 0.980798 0.998859
1.00199 1.00121 1.00229 0.998488
0.999789 1.00246 0.998648 0.998686
1.00519 1.00898 0.997232 0.999013
0.999329 1.00018 1.00071 0.998436
1.00558 1.00689 1 0.998702
1.0094 1.01045 1 0.998958
1.00151 1.00305 1 0.998459
1.00348 1.00475 1 0.99873
1.00421 1.00531 1 0.998903
1.00207 1.00322 1 0.998859
1.00217 1.0034 1 0.998777
1.0004 1.00168 1 0.998725
0.998889 1.00025 1 0.998642
0.999396 1.00084 1 0.998559
1.00056 1.00198 1 0.99858
0.998833 1 1 0.998833
0.998672 1 1 0.998672
0.998635 1.00011 1 0.998523
0.999197 1 1 0.999197
0.999011 1 1 0.999011
0.998958 1 1.00017 0.998793
0.999569 1 1 0.999569
0.99927 1 1 0.99927
0.999115 1 1 0.999115
0.999995 1 1 0.999995
0.999658 1 1 0.999658
0.999337 1 1 0.999337
1 1 1 1
0.999999 1 1 0.999999
0.99977 1 1 0.99977
1 1 1 1
1 1 1 1
1 1 1 1
0.999322 1 1 0.999322
0.99936 1 1 0.99936
0.999495 1 1 0.999495
0.999389 1 1 0.999389
0.999543 1 1 0.999543
0.999862 1 1 0.999862
1 1 1 1
0.999898 1 1 0.999898
0.999591 1 1 0.999591
1 1 1 1
1 1 1 1
0.999917 1 1 0.999917
1 1 1 1
1 1 1 1
1 1 1 1
0.923629 0.940068 0.988372 0.994073
0.942039 0.952089 0.993434 0.995983
0.988987 0.990177 1 0.998798
0.999274 1 1 0.999274
0.999221 1 1 0.999221
0.999276 1 1 0.999276
0.999212 1 1 0.999212
0.999202 1 1 0.999202
0.99927 1 1 0.99927
0.999236 1 1 0.999236
0.999185 1 1 0.999185
0.999145 1 1 0.999145
0.999189 1 1 0.999189
0.999133 1 1.00026 0.998876
0.999321 1 1 0.999321
0.999325 1 1 0.999325
0.967908 0.977698 0.998398 0.991575
0.913686 0.933332 0.984584 0.99428
0.925582 0.94642 0.982733 0.995166
0.901644 0.932569 0.972198 0.994487
0.97562 0.970207 1.01454 0.991164
0.979667 0.979302 1.00222 0.998158
0.984024 0.984565 1.00166 0.99779
0.970878 0.974292 1.0038 0.992724
0.988646 0.997037 0.994687 0.99688
1.00562 1.00132 1.0057 0.998604
1.00594 1 1.00666 0.999284
0.999618 1 1 0.999618
1.00693 0.9995 1.00804 0.999398
1.00012 1.00101 1.00017 0.998937
0.950787 0.970885 0.98653 0.992671
0.918933 0.94187 0.981603 0.993933
0.948739 0.952721 0.999032 0.996785
0.980055 0.996478 0.984431 0.999073
0.988764 0.986313 1.00664 0.995875
0.918842 0.939417 0.98412 0.99388
0.972986 0.973623 1.00673 0.992661
0.988835 1.00273 0.986941 0.999189
0.961372 0.973419 0.994722 0.992864
0.995073 0.996479 1.00221 0.996384
1.00278 1.00672 0.997287 0.998796
0.994425 0.996872 0.999176 0.998367
0.982884 1.0013 0.982733 0.998858
0.985263 1.00246 0.984008 0.998823
1.00341 1.01552 0.98918 0.998887
0.999642 1.00284 0.998123 0.998681
1.00374 1.00755 0.997211 0.999006
1.0108 1.01491 0.996881 0.999066
1.00591 1.00722 1 0.9987
1.00976 1.01084 0.999984 0.998945
1.00749 1.00854 0.999987 0.998972
1.00317 1.00444 1 0.99873
1.0043 1.00541 1 0.998892
1.00327 1.0044 1 0.99888
1.0021 1.00322 1 0.998886
1.00053 1.00175 1 0.998786
1.0021 1.0033 1 0.998801
1.00039 1.00167 1 0.99872
0.999072 1.00037 1 0.998704
0.998746 1 1 0.998746
0.998855 1.00022 1 0.998637
0.999421 1.00086 1 0.998561
0.99908 1 1 0.99908
0.998852 1 1 0.998852
0.998699 1 1 0.998699
0.999502 1 1 0.999502
0.999194 1 1 0.999194
0.999006 1 1 0.999006
0.999975 1 1 0.999975
0.99957 1 1 0.99957
0.999271 1 1 0.999271
1 1 1 1
0.99999 1 1 0.99999
0.999658 1 1 0.999658
1 1 1 1
0.999999 1 1 0.999999
1 1 1 1
0.999238 1 1 0.999238
0.999322 1 1 0.999322
0.999415 1 1 0.999415
0.999348 1 1 0.999348
0.99948 1 1 0.99948
0.999794 1 1 0.999794
0.999543 1 1 0.999543
0.999863 1 1 0.999863
1 1 1 1
1 1 1 1
1 1 1 1
0.999899 1 1 0.999899
1 1 1 1
1 1 1 1
1 1 1 1
0.965145 0.9753 0.996793 0.992771
0.918627 0.942914 0.979549 0.994582
0.946807 0.954044 0.996326 0.996075
0.999207 1 1 0.999207
0.999289 1 1 0.999289
0.999209 1 1 0.999209
0.999215 1 1 0.999215
0.999109 1 1 0.999109
0.999192 1 1 0.999192
0.999192 1 1 0.999192
0.999109 1 1 0.999109
0.99917 1 1 0.99917
0.999043 1 1 0.999043
1.00033 1.00141 1 0.998917
0.999169 1.00065 1.00011 0.998404
0.999342 1.00038 1.00006 0.998908
0.999332 1 1 0.999332
0.98587 0.993397 0.995336 0.997074
0.966939 0.975348 0.998941 0.992429
0.908117 0.934355 0.978039 0.993742
0.97377 0.973639 1.00799 0.992206
0.980802 0.985227 0.99706 0.998444
0.992238 0.99697 0.9971 0.998147
0.996345 1.00479 0.992807 0.998781
1.00274 1.00067 1.00337 0.9987
1.00489 1 1.00563 0.999269
0.997954 1.00112 0.997932 0.998902
0.981349 0.986386 0.998053 0.996835
0.95806 0.972037 0.992433 0.993136
0.916637 0.941293 0.978908 0.994789
0.98848 1.00384 0.985521 0.999171
1.00053 0.997312 1.00592 0.99732
0.960906 0.973551 0.99301 0.993959
0.996816 1.00524 0.9928 0.99881
0.99306 0.996707 0.99845 0.997888
1.01053 1.01918 0.992848 0.998648
1.00959 1.0143 0.996723 0.998624
0.988339 1.0022 0.987373 0.998786
1.00481 1.01515 0.990922 0.998882
1.01287 1.0181 0.995984 0.998871
1.00247 1.00639 0.997109 0.998998
1.01102 1.01459 0.99743 0.999057
1.00919 1.01147 0.998879 0.998868
1.01013 1.01124 0.999964 0.998932
1.00685 1.00791 0.999982 0.998961
1.00504 1.00627 1 0.998779
1.00433 1.00545 1 0.998881
1.00299 1.00411 1 0.998888
1.00157 1.00283 1 0.998737
1.0021 1.00319 1 0.998914
1.00049 1.00169 1 0.998802
0.999021 1.00031 1 0.998712
1.00037 1.00165 1 0.998716
0.999059 1.00036 1 0.998699
0.99876 1 1 0.99876
0.998948 1 1 0.998948
0.998764 1 1 0.998764
0.998825 1.00019 1 0.998631
0.999414 1 1 0.999414
0.999079 1 1 0.999079
0.998871 1 1 0.998871
0.999939 1 1 0.999939
0.999501 1 1 0.999501
0.999191 1 1 0.999191
1 1 1 1
0.999966 1 1 0.999966
0.999571 1 1 0.999571
1 1 1 1
0.999985 1 1 0.999985
1 1 1 1
0.999147 1 1 0.999147
0.999248 1 1 0.999248
0.999346 1 1 0.999346
0.999323 1 1 0.999323
0.999406 1 1 0.999406
0.999703 1 1 0.999703
0.999465 1 1 0.999465
0.999795 1 1 0.999795
1 1 1 1
0.999864 1 1 0.999864
1 1 1 1
1 1 1 1
1 1 1 1
1 1 1 1
1 1 1 1
0.978851 0.986272 0.995315 0.997148
0.958945 0.972727 0.993215 0.992566
0.916374 0.942599 0.978237 0.993806
0.998964 1 1 0.998964
0.999216 1 1 0.999216
0.999218 1 1 0.999218
0.999186 1 1 0.999186
0.999102 1 1 0.999102
0.999199 1 1 0.999199
0.999073 1 1 0.999073
0.999152 1 1 0.999152
0.999075 1 1 0.999075
0.999745 1.00081 1 0.998932
1.00037 1.00184 1 0.998529
1.00386 1.00576 0.999968 0.998151
0.999584 1.00107 1.00013 0.998387
0.999682 1.00074 1 0.99894
1.00082 1.00641 0.995365 0.999082
0.987467 0.994982 0.9959 0.996532
0.970286 0.977147 0.999563 0.993413
0.992423 0.996792 0.998513 0.9971
1.00141 1.00655 0.99602 0.998868
1.0013 1.0002 1.00231 0.998798
1.00537 1.00667 0.9999 0.998809
0.98125 0.985341 0.998076 0.997768
0.955781 0.972153 0.990376 0.992713
0.990251 1.00337 0.988087 0.998822
0.99216 0.996316 0.998477 0.997348
1.01082 1.01957 0.992764 0.998643
1.00907 1.01241 0.997987 0.998716
1.01862 1.0231 0.997011 0.998607
1.01263 1.01504 0.999078 0.998541
1.00599 1.01446 0.992764 0.998878
1.01402 1.01917 0.996057 0.99888
1.00764 1.01035 0.998589 0.998726
1.01117 1.01419 0.997971 0.999048
1.01024 1.01221 0.999191 0.998865
1.00593 1.00735 0.999954 0.998638
1.00624 1.00732 0.99998 0.998949
1.00486 1.00607 1 0.9988
1.00353 1.00493 1 0.998604
1.00274 1.00385 1 0.998897
1.00143 1.0027 1 0.998737
0.999591 1.00095 1 0.998646
1.00046 1.00165 1 0.998818
0.999147 1.00043 1 0.998718
0.998715 1 1 0.998715
0.999044 1.00035 1 0.998695
0.998748 1 1 0.998748
0.9989 1 1 0.9989
0.999316 1 1 0.999316
0.998967 1 1 0.998967
0.998782 1 1 0.998782
0.99989 1 1 0.99989
0.999412 1 1 0.999412
0.999078 1 1 0.999078
1 1 1 1
0.99993 1 1 0.99993
0.999501 1 1 0.999501
1 1 1 1
0.999957 1 1 0.999957
1 1 1 1
0.999007 1 1 0.999007
0.999149 1 1 0.999149
0.999272 1 1 0.999272
0.999257 1 1 0.999257
0.999352 1 1 0.999352
0.999618 1 1 0.999618
0.999397 1 1 0.999397
0.999703 1 1 0.999703
0.999997 1 1 0.999997
0.999796 1 1 0.999796
1 1 1 1
1 1 1 1
1 1 1 1
1 1 1 1
1 1 1 1
1.00616 1.01 0.99705 0.999141
0.978867 0.987453 0.995196 0.99609
0.962807 0.972308 0.997318 0.992891
0.999013 1 1 0.999013
0.999022 1.00031 1 0.998713
0.998984 1 1 0.998984
0.99918 1 1 0.99918
0.999095 1 1 0.999095
0.999167 1 1 0.999167
1.00105 1.0024 1 0.998651
0.999107 1 1 0.999107
0.999002 1.00005 1 0.998948
1.00045 1.00189 1 0.998559
1.00368 1.00551 1 0.998179
1.01018 1.01236 0.999391 0.998452
1.00264 1.00453 0.999957 0.998157
0.999921 1.00155 1 0.99837
1.00374 1.00904 0.995614 0.999132
0.985953 0.994234 0.995783 0.99587
1.00454 1.00773 0.997877 0.998956
1.01066 1.01183 0.999894 0.998948
1.0037 1.00539 0.99946 0.99886
0.978008 0.98512 0.996212 0.996555
1.01101 1.02019 0.992347 0.998639
1.00787 1.01041 0.998677 0.998807
1.01818 1.02323 0.996417 0.998641
1.01421 1.01638 0.999299 0.998565
1.00935 1.01279 0.997992 0.998608
1.01482 1.01613 1 0.998713
1.01509 1.02035 0.995957 0.99889
1.00758 1.01047 0.998407 0.998731
1.00751 1.00965 0.999329 0.998548
1.0112 1.01286 0.999503 0.998863
1.00584 1.00722 0.999986 0.998645
1.00594 1.00745 1 0.998503
1.00465 1.00584 1 0.99882
1.00338 1.00478 1 0.998602
1.00107 1.00254 1 0.998535
1.00128 1.00254 1 0.998737
0.999852 1.00121 1 0.998645
0.998696 1.00005 1 0.998646
0.999272 1.00055 1 0.998723
0.998716 1 1 0.998716
0.998846 1 1 0.998846
0.998736 1 1 0.998736
0.998893 1 1 0.998893
0.99924 1 1 0.99924
0.99984 1 1 0.99984
0.999316 1 1 0.999316
0.998986 1 1 0.998986
1 1 1 1
0.999881 1 1 0.999881
0.999411 1 1 0.999411
1 1 1 1
0.99992 1 1 0.99992
1 1 1 1
0.998798 1 1 0.998798
0.998986 1 1 0.998986
0.99915 1 1 0.99915
0.999151 1 1 0.999151
0.999274 1 1 0.999274
0.999543 1 1 0.999543
0.999358 1 1 0.999358
0.999618 1 1 0.999618
0.999978 1 1 0.999978
0.999703 1 1 0.999703
0.999998 1 1 0.999998
1 1 1 1
1 1 1 1
1 1 1 1
1 1 1 1
1.00969 1.01175 0.999168 0.998798
1.00522 1.00922 0.997 0.999032
0.978267 0.986214 0.995106 0.996819
1.00118 1.00251 1 0.998669
0.999125 1 1 0.999125
1.00151 1.00298 1 0.998536
0.998889 1.00019 1 0.998701
0.999004 1 1 0.999004
1.00768 1.0094 1 0.998291
0.999136 1 1 0.999136
1.00102 1.00241 1 0.998618
1.0091 1.01082 1 0.998306
1.00054 1.00196 1 0.99859
1.00439 1.00624 1 0.998156
1.00816 1.0102 0.999524 0.998452
1.00106 1.0029 1 0.998163
1.00602 1.01098 0.995909 0.999184
1.0143 1.0155 1 0.998822
1.01067 1.01189 0.999847 0.998944
1.0026 1.00409 0.999609 0.99891
1.01802 1.02357 0.9959 0.998674
1.01583 1.01779 0.999486 0.998589
1.0099 1.01314 0.998189 0.998616
1.01528 1.01658 1 0.998722
1.01356 1.01495 1 0.998627
1.00757 1.01059 0.998271 0.998736
1.00761 1.00943 0.999639 0.998553
1.00876 1.0103 1 0.998472
1.00577 1.00712 1 0.998652
1.00555 1.00707 1 0.998495
1.00347 1.00504 1 0.99844
1.00324 1.00465 1 0.998601
1.00128 1.00275 1 0.998533
0.998865 1.00031 1 0.998553
1.00012 1.00148 1 0.998645
0.998745 1.0001 1 0.998646
0.998765 1 1 0.998765
0.998717 1 1 0.998717
0.998847 1 1 0.998847
0.99917 1 1 0.99917
0.998887 1 1 0.998887
0.999239 1 1 0.999239
0.999817 1 1 0.999817
0.999976 1 1 0.999976
0.999838 1 1 0.999838
0.999315 1 1 0.999315
1 1 1 1
0.999872 1 1 0.999872
1 1 1 1
1.00225 1.00368 1 0.998575
0.998847 1.00016 1 0.998692
0.998778 1 1 0.998778
0.999026 1 1 0.999026
0.998965 1 1 0.998965
0.999154 1 1 0.999154
0.999467 1 1 0.999467
0.999277 1 1 0.999277
0.999544 1 1 0.999544
0.999942 1 1 0.999942
0.999617 1 1 0.999617
0.999985 1 1 0.999985
1 1 1 1
1 1 1 1
1 1 1 1
1 1 1 1
1.01279 1.0142 1 0.998618
1.013 1.01475 0.999412 0.998859
1.00554 1.00959 0.997069 0.998923
1.00673 1.00836 1 0.998381
1.00037 1.00163 1 0.998739
0.999234 1 1 0.999234
1.00178 1.00322 1 0.99856
0.998743 1.00005 1 0.998688
1.01351 1.01526 1 0.998272
1.00731 1.00907 1 0.998261
1.00105 1.00247 1 0.998586
1.00974 1.01146 1 0.998298
1.00575 1.00763 1 0.998133
1.00792 1.00993 0.999563 0.998453
1.01665 1.01796 1 0.998709
1.0144 1.01561 1 0.998816
1.01103 1.01224 0.999864 0.998941
1.01039 1.01342 0.998385 0.998623
1.01604 1.01733 1 0.99873
1.01396 1.01552 0.999826 0.998639
1.01361 1.01512 1 0.998518
1.00774 1.00926 0.999938 0.998559
1.00822 1.00977 1 0.998468
1.00669 1.00829 1 0.998411
1.00517 1.00669 1 0.998487
1.00354 1.00511 1 0.99844
0.999549 1.00108 1 0.99847
1.00148 1.00296 1 0.998531
0.99904 1.00049 1 0.998551
0.998678 1 1 0.998678
0.998793 1.00015 1 0.998646
0.998765 1 1 0.998765
0.999089 1 1 0.999089
0.998848 1 1 0.998848
0.999169 1 1 0.999169
0.999799 1 1 0.999799
0.999238 1 1 0.999238
0.999811 1 1 0.999811
0.999971 1 1 0.999971
0.999988 1 1 0.999988
0.999836 1 1 0.999836
1 1 1 1
1.00435 1.00596 1 0.998402
0.998943 1.00026 1 0.998681
1.00185 1.00319 1 0.998663
0.998898 1 1 0.998898
0.998947 1.00026 1 0.998689
0.998757 1 1 0.998757
0.999027 1 1 0.999027
0.999371 1 1 0.999371
0.999158 1 1 0.999158
0.999468 1 1 0.999468
0.9999 1 1 0.9999
0.999544 1 1 0.999544
0.999953 1 1 0.999953
1 1 1 1
0.999992 1 1 0.999992
1 1 1 1
1 1 1 1
1.01536 1.01689 1 0.998495
1.01225 1.01365 1 0.998616
1.0146 1.01609 0.999612 0.998919
1.01138 1.01311 1 0.998297
1.00643 1.00806 1 0.998384
0.999571 1.00076 1 0.998809
1.00205 1.00347 1 0.998584
1.01319 1.01495 1 0.998267
1.0068 1.00859 1 0.998231
1.00901 1.01074 1 0.99829
1.01507 1.01653 1 0.998573
1.01633 1.01768 1 0.998679
1.01399 1.0152 1 0.99881
1.01387 1.01542 1 0.998471
1.0142 1.01593 0.999655 0.998651
1.01352 1.01503 1 0.998517
1.0101 1.01168 1 0.99844
1.00769 1.00924 1 0.998464
1.00677 1.00837 1 0.998413
1.00134 1.00293 1 0.998419
1.0036 1.00517 1 0.99844
0.999972 1.0015 1 0.99847
0.998605 1 1 0.998605
0.999214 1.00067 1 0.99855
0.998678 1 1 0.998678
0.99901 1 1 0.99901
0.998765 1 1 0.998765
0.999087 1 1 0.999087
0.99978 1 1 0.99978
0.999167 1 1 0.999167
0.999793 1 1 0.999793
0.999969 1 1 0.999969
0.999806 1 1 0.999806
0.999972 1 1 0.999972
1 1 1 1
1.00598 1.00769 1 0.998304
0.999953 1.00146 1 0.998498
1.00431 1.00588 1 0.998432
0.998831 1 1 0.998831
0.99899 1.00031 1 0.998679
1.00146 1.00271 1 0.998751
0.999243 1 1 0.999243
0.998895 1 1 0.998895
0.999049 1.00036 1 0.998686
0.999028 1 1 0.999028
0.999373 1 1 0.999373
0.999851 1 1 0.999851
0.999469 1 1 0.999469
0.99991 1 1 0.99991
1 1 1 1
0.999965 1 1 0.999965
1 1 1 1
1 1 1 1
1.01363 1.01523 1 0.998431
1.01548 1.01703 1 0.998477
1.01276 1.01417 1 0.998614
1.0112 1.01292 1 0.998297
1.00613 1.00776 1 0.998387
1.01312 1.01489 1 0.998262
1.01326 1.01481 1 0.998471
1.01521 1.01666 1 0.998569
1.01619 1.01756 1 0.998649
1.01414 1.01569 1 0.998478
1.0111 1.0127 1 0.998416
1.01341 1.01492 1 0.998517
1.01013 1.01172 1 0.998433
1.00353 1.00512 1 0.998412
1.00687 1.00847 1 0.998415
1.0017 1.00328 1 0.998421
0.998708 1.00017 1 0.998541
1.00041 1.00194 1 0.998471
0.998627 1.00002 1 0.998604
0.998951 1 1 0.998951
0.998677 1 1 0.998677
0.999008 1 1 0.999008
0.999756 1 1 0.999756
0.999085 1 1 0.999085
0.999774 1 1 0.999774
0.999963 1 1 0.999963
0.999789 1 1 0.999789
0.999972 1 1 0.999972
0.999973 1 1 0.999973
1.0087 1.01032 1 0.998397
1.00079 1.00242 1 0.998373
1.00597 1.00769 1 0.9983
0.998682 1 1 0.998682
0.999738 1.00123 1 0.99851
1.00422 1.00577 1 0.998464
0.999124 1 1 0.999124
0.998798 1 1 0.998798
0.999047 1.00037 1 0.998676
0.999795 1 1 0.999795
0.999245 1 1 0.999245
0.998893 1 1 0.998893
0.999375 1 1 0.999375
0.99986 1 1 0.99986
1 1 1 1
0.99992 1 1 0.99992
1 1 1 1
1 1 1 1
1.01203 1.01363 1 0.998413
1.0135 1.0151 1 0.998428
1.01541 1.01698 1 0.998459
1.01101 1.01273 1 0.998298
1.01148 1.01311 1 0.99839
1.01371 1.01525 1 0.998477
1.01536 1.01682 1 0.998566
1.01438 1.01592 1 0.998484
1.01103 1.01263 1 0.998419
1.0047 1.0063 1 0.998408
1.01018 1.01177 1 0.998426
1.00358 1.00517 1 0.998415
0.999241 1.00075 1 0.998489
1.00203 1.00361 1 0.998424
0.998864 1.00032 1 0.998542
0.998896 1 1 0.998896
0.998652 1.00005 1 0.998604
0.99895 1 1 0.99895
0.999708 1 1 0.999708
0.999007 1 1 0.999007
0.999741 1 1 0.999741
1 1 1 1
0.999768 1 1 0.999768
0.999967 1 1 0.999967
0.999972 1 1 0.999972
1.00867 1.01026 1 0.998421
1.00169 1.00329 1 0.9984
1.00866 1.01028 1 0.998399
0.998657 1.00013 1 0.99853
1.00059 1.0022 1 0.998389
1.00598 1.0077 1 0.998297
0.998968 1 1 0.998968
0.998681 1 1 0.998681
0.999552 1.00103 1 0.998522
0.999748 1 1 0.999748
0.999095 1 1 0.999095
0.998764 1 1 0.998764
1 1 1 1
0.999805 1 1 0.999805
0.999248 1 1 0.999248
0.999868 1 1 0.999868
1 1 1 1
1 1 1 1
1.01069 1.01232 1 0.998394
1.01246 1.01406 1 0.998421
1.01337 1.01497 1 0.998425
1.00535 1.007 1 0.998364
1.01095 1.01258 1 0.998389
1.01417 1.01571 1 0.998483
1.01098 1.01258 1 0.998422
1.00472 1.00632 1 0.998408
0.999981 1.00148 1 0.998503
1.00364 1.00523 1 0.998419
0.999425 1.00091 1 0.998517
0.998787 1 1 0.998787
0.999026 1.00048 1 0.998543
0.998896 1 1 0.998896
0.999671 1 1 0.999671
0.998949 1 1 0.998949
0.999706 1 1 0.999706
1 1 1 1
0.999724 1 1 0.999724
0.99998 1 1 0.99998
0.99997 1 1 0.99997
1.00699 1.00858 1 0.99842
1.00182 1.00339 1 0.998436
1.00863 1.01022 1 0.998421
0.998754 1.00022 1 0.998536
1.0019 1.00351 1 0.998402
1.00864 1.01026 1 0.998401
0.99888 1 1 0.99888
0.998653 1.00009 1 0.998565
1.00036 1.00195 1 0.998406
0.999718 1 1 0.999718
0.998957 1 1 0.998957
0.998679 1 1 0.998679
1 1 1 1
0.999756 1 1 0.999756
0.999066 1 1 0.999066
1 1 1 1
0.999815 1 1 0.999815
1 1 1 1
1.00508 1.00671 1 0.998386
1.01033 1.01196 1 0.998393
1.01293 1.01452 1 0.99843
0.999702 1.00124 1 0.998469
1.00532 1.00696 1 0.998369
1.01047 1.0121 1 0.998388
1.00476 1.00636 1 0.998408
0.999971 1.00147 1 0.998502
0.998736 1 1 0.998736
0.999601 1.00106 1 0.998546
0.998815 1 1 0.998815
0.999613 1 1 0.999613
0.998896 1 1 0.998896
0.999668 1 1 0.999668
1 1 1 1
0.999704 1 1 0.999704
1 1 1 1
0.999964 1 1 0.999964
1.00211 1.00367 1 0.998447
1.00699 1.00858 1 0.99842
0.998651 1.00012 1 0.998536
1.00185 1.00342 1 0.998436
1.00857 1.01016 1 0.998422
0.998885 1 1 0.998885
0.998747 1.00021 1 0.998534
1.00212 1.00372 1 0.998404
0.999693 1 1 0.999693
0.998899 1 1 0.998899
0.998642 1.00004 1 0.998601
1 1 1 1
0.999723 1 1 0.999723
0.998945 1 1 0.998945
1 1 1 1
0.999765 1 1 0.999765
1 1 1 1
0.999347 1.00085 1 0.998497
1.00494 1.00656 1 0.998387
1.0099 1.01152 1 0.998393
0.998716 1 1 0.998716
0.999696 1.00123 1 0.998469
1.00526 1.00689 1 0.998375
0.999959 1.00146 1 0.998502
0.998741 1 1 0.998741
0.99956 1 1 0.99956
0.998842 1 1 0.998842
0.999609 1 1 0.999609
1 1 1 1
0.999665 1 1 0.999665
1 1 1 1
1 1 1 1
0.998652 1.00013 1 0.998522
1.00198 1.00355 1 0.998442
1.00699 1.00859 1 0.99842
0.99886 1 1 0.99886
0.998708 1.00017 1 0.998535
1.00188 1.00345 1 0.998436
0.999664 1 1 0.999664
0.998884 1 1 0.998884
0.998748 1.00022 1 0.998532
1 1 1 1
0.999696 1 1 0.999696
0.998919 1 1 0.998919
1 1 1 1
0.999728 1 1 0.999728
1 1 1 1
0.998775 1 1 0.998775
0.999326 1.00086 1 0.99847
1.00483 1.00645 1 0.998389
0.999542 1 1 0.999542
0.998717 1 1 0.998717
0.999692 1.00122 1 0.998469
0.998746 1 1 0.998746
0.999559 1 1 0.999559
1 1 1 1
0.999606 1 1 0.999606
1 1 1 1
1 1 1 1
0.998821 1 1 0.998821
0.998647 1.00014 1 0.998511
1.00187 1.00343 1 0.998437
0.999671 1 1 0.999671
0.998859 1 1 0.998859
0.998767 1.00023 1 0.998533
1 1 1 1
0.999665 1 1 0.999665
0.998882 1 1 0.998882
1 1 1 1
0.999699 1 1 0.999699
1 1 1 1
0.999541 1 1 0.999541
0.998755 1 1 0.998755
0.999305 1.00086 1 0.998443
1 1 1 1
0.999541 1 1 0.999541
0.998718 1 1 0.998718
0.999557 1 1 0.999557
1 1 1 1
1 1 1 1
0.999626 1 1 0.999626
0.998821 1 1 0.998821
0.998638 1.00014 1 0.998501
1 1 1 1
0.99963 1 1 0.99963
0.998857 1 1 0.998857
1 1 1 1
0.999666 1 1 0.999666
1 1 1 1
0.999892 1 1 0.999892
0.999579 1 1 0.999579
0.998734 1 1 0.998734
1 1 1 1
0.999541 1 1 0.999541
1 1 1 1
0.999909 1 1 0.999909
0.99961 1 1 0.99961
0.998821 1 1 0.998821
0.99996 1 1 0.99996
0.999628 1 1 0.999628
1 1 1 1
1 1 1 1
0.999553 1 1 0.999553
1 1 1 1
0.999951 1 1 0.999951
0.999587 1 1 0.999587
1 1 1 1
1 1 1 1
1 1 1 1

VECTORS lamdaE float
0.999441 1.00026 0.995961
0.99941 0.999855 0.99831
0.999266 1.00045 0.996071
0.99977 0.99992 0.995878
0.99956 1.00011 0.995988
0.999363 1.00017 0.996083
1.00049 1.00068 0.993458
0.999397 0.999731 0.998363
0.999417 1.00033 0.998284
0.999114 1.00032 0.998424
0.999465 0.99943 0.996716
1.00019 1.00089 0.993436
0.9999 1.00001 0.995513
0.999596 0.999917 0.995898
0.999096 1.00069 0.99616
0.99963 0.999894 0.996012
0.999224 1.00035 0.996177
0.99939 1.00022 0.9961
1.00059 1.00059 0.993426
0.999862 1 0.99796
0.999816 0.999966 0.99573
0.999696 0.999956 0.995959
1.00101 0.999909 0.993339
1.00075 1.00026 0.993441
0.999388 0.999709 0.996435
1.00012 1.00105 0.993677
1.00255 1.00074 0.989835
0.999371 0.999611 0.998427
0.999515 1.00019 0.997052
0.999239 1.00026 0.997249
0.999422 0.999252 0.998531
1.00009 1.001 0.993448
0.999765 0.99992 0.995785
0.999492 1.00046 0.995899
1.00107 1.00024 0.993597
0.999328 0.998645 0.998882
1.00051 1.00079 0.994022
0.999965 1.00074 0.993948
1.00127 1.00204 0.990346
0.999421 0.997994 0.999092
0.999898 1.00001 0.997925
0.999706 0.999974 0.996954
0.999922 1 0.997898
0.999605 1.00001 0.995853
1.00136 1.00006 0.99205
0.99963 0.999973 0.998236
1.00131 1 0.99339
0.999489 0.999844 0.996146
0.999231 1.00035 0.996198
0.99906 1.0006 0.996287
1.00068 1.00047 0.993403
0.999793 1.00001 0.996841
0.99967 0.999948 0.995882
0.999269 0.999834 0.99653
0.999544 0.999981 0.996081
1.00107 0.999872 0.993288
1.00021 1.00097 0.993668
1.00084 1.00018 0.993401
1.00257 1.00079 0.989792
0.999881 1 0.997933
0.999886 1.00001 0.995566
1.00123 1 0.993428
1.00106 0.999972 0.993178
1.00094 0.999981 0.993396
1.00326 0.999809 0.989454
1.00297 1.00011 0.989415
0.999516 0.998984 0.996914
0.99963 1.00111 0.994359
1.00176 1.00157 0.99035
1.00363 1.00058 0.987473
0.999617 1.00019 0.99811
0.9994 0.99905 0.998652
0.999346 1.00005 0.998283
0.999999 1.00108 0.993459
0.999783 1.00003 0.998078
0.999511 1.00032 0.998144
1.00097 1.00021 0.992532
0.999377 0.998728 0.998051
1.00033 1.00089 0.993073
0.999876 1.00075 0.994503
1.00127 1.002 0.990343
0.999443 0.998314 0.998935
0.99959 0.999267 0.996118
1.00122 0.999929 0.992432
1.00079 1.00055 0.992648
1.00321 1.00022 0.988543
0.999726 1.00028 0.995624
1.00195 1.00142 0.989721
1.00068 1.00252 0.990962
1.00196 1.00233 0.988696
0.999447 0.99767 0.999195
0.999394 0.997934 0.999131
0.999822 0.999969 0.998034
0.999874 1 0.997952
0.999923 1 0.997906
0.999729 0.999996 0.996903
1.00136 1.00004 0.992666
0.999711 0.999953 0.996984
1.00127 1.00003 0.992865
0.999933 1 0.9979
1.00136 0.999994 0.992071
1.00134 1.00008 0.993292
1.00364 0.999868 0.988105
1.00127 0.999929 0.993488
1.00352 0.999884 0.98834
0.999875 1.00002 0.99557
0.99952 0.999906 0.996039
0.999145 0.999944 0.996648
0.999396 0.999998 0.996197
1.00114 0.99986 0.993237
1.00093 1.00009 0.993367
1.00032 1.00084 0.993651
1.00259 1.00084 0.989749
0.999915 1 0.997914
0.999726 1 0.995727
1.00131 0.999994 0.992471
1.00112 0.999943 0.993127
0.999419 0.999055 0.997772
0.999815 1.001 0.994491
1.00101 0.999934 0.99335
1.00327 0.999788 0.989324
1.00183 1.00163 0.990248
1.00296 1.00018 0.989515
1.00359 1.0006 0.987492
1.00134 1.00002 0.992105
1.00117 0.999992 0.992951
1.00359 0.999785 0.988604
1.0033 0.999832 0.989056
1.00321 0.999803 0.989275
1.00439 0.999466 0.987451
0.999486 0.998502 0.998831
1.00404 0.999906 0.987381
0.999672 1.00072 0.994432
1.00078 1.00225 0.990863
1.0029 1.00179 0.987712
1.00434 1.00013 0.986599
0.999703 0.999814 0.995289
1.00014 1.00175 0.992625
0.999752 1.00006 0.998083
0.999424 1.00025 0.998187
1.00097 1.00019 0.992542
0.999402 0.998559 0.998874
0.999749 1.00089 0.994101
1.00025 1.00097 0.993072
1.00127 1.00197 0.990339
0.999405 0.998256 0.998993
0.999595 0.999195 0.996155
1.00122 0.99996 0.992986
1.00073 1.00056 0.993239
1.00321 1.00022 0.988547
0.999671 1.00027 0.994949
1.00193 1.0014 0.989739
1.00065 1.00253 0.990964
1.00197 1.00232 0.988631
0.999595 0.999801 0.995567
0.999675 0.998742 0.996505
1.00001 1.00123 0.993379
1.00345 0.99997 0.98836
1.00264 1.00081 0.989004
1.00432 1.00004 0.986686
1.00038 1.00233 0.991708
1.0028 1.00148 0.987916
1.00124 1.00329 0.989241
1.00215 1.00258 0.988128
0.999528 0.997366 0.999245
0.999442 0.997611 0.999213
0.999372 0.99787 0.999166
0.999724 0.999394 0.995685
0.999502 0.998208 0.998955
0.999816 0.999978 0.99806
0.999824 0.999984 0.998003
1.00122 1.00003 0.992327
1.0013 1.00005 0.992125
0.999901 1 0.997917
0.999924 1 0.997899
1.00135 1 0.992071
1.00128 1.00007 0.992779
1.00365 0.999868 0.988105
1.00122 0.999927 0.992393
1.00351 0.99989 0.988337
1.00136 0.999993 0.992056
1.00371 0.999805 0.988038
1.00355 0.99991 0.988258
1.00473 0.999417 0.9866
1.00352 0.999893 0.988318
1.0046 0.999535 0.986726
0.999922 1 0.9979
0.999569 1 0.995892
1.00132 0.999988 0.991587
1.00118 0.999936 0.993075
0.999255 0.999057 0.998729
1.00001 1.00088 0.994614
1.00107 0.999897 0.993306
1.00329 0.999757 0.989194
1.00296 1.00025 0.989615
1.0019 1.00173 0.990146
1.00356 1.00061 0.987511
1.00133 1 0.992101
1.00123 0.999996 0.992891
1.00359 0.999771 0.988335
1.00333 0.999866 0.989151
0.99948 0.998572 0.998786
0.999754 1.00063 0.994818
1.0009 1.00229 0.990968
1.0032 0.999843 0.989267
1.00439 0.999384 0.987315
1.00278 1.00179 0.987706
1.00404 0.999945 0.987494
1.00431 1.00014 0.98662
0.99969 0.999865 0.995278
1.00017 1.0017 0.992624
1.0037 0.999792 0.988068
1.00351 0.999839 0.988702
1.00467 0.999457 0.986939
1.00444 0.99941 0.987012
1.0043 0.999534 0.987456
1.00491 0.998925 0.986871
0.999691 1.00026 0.994844
1.0047 0.999289 0.986763
1.00038 1.00237 0.991495
1.00162 1.00275 0.988634
1.00364 1.00177 0.986699
1.00476 0.999337 0.986612
1.00024 1.00208 0.992152
1.00014 1.00121 0.993167
1.00041 1.00273 0.99121
1.00116 0.999942 0.992467
0.999372 0.998198 0.999047
0.999596 0.999125 0.996191
1.0006 1.00065 0.992751
1.00322 1.00021 0.98855
0.999642 1.00029 0.994902
1.00061 1.00252 0.990967
1.0019 1.00139 0.989758
1.00198 1.00231 0.988565
0.999596 0.999729 0.995596
0.999668 0.998709 0.996527
0.999981 1.00127 0.993392
1.00344 0.999982 0.988361
1.00264 1.0008 0.989022
1.00434 1.00004 0.986671
1.00032 1.00237 0.991714
1.00284 1.0015 0.987946
1.00122 1.00328 0.989227
1.00217 1.00256 0.988104
0.999772 0.998366 0.9967
1.00017 1.00184 0.992489
0.999973 1.0005 0.994179
1.00018 1.00251 0.991863
1.00453 0.999757 0.986598
1.00369 1.00079 0.987128
1.00491 0.99975 0.985916
1.00073 1.00335 0.99014
1.0033 1.00141 0.987255
1.00136 1.00404 0.988086
1.00251 1.00223 0.987681
1.00023 0.999436 0.994799
0.999935 0.997934 0.996819
0.99963 0.997105 0.99927
0.999537 0.997312 0.999254
0.999442 0.997544 0.99923
0.999781 0.999039 0.995952
0.999509 0.997967 0.999044
0.999715 0.999451 0.995663
0.999515 0.998252 0.998914
1.00122 0.999937 0.99239
1.00124 1.00006 0.992236
1.00351 0.999895 0.988334
1.00365 0.999868 0.988104
1.00135 1.00001 0.992071
0.999935 1 0.997896
1.00137 0.999995 0.992056
1.00371 0.99981 0.988037
1.00354 0.999918 0.988258
1.00473 0.999419 0.986595
1.00352 0.999905 0.988311
1.0046 0.999536 0.986721
1.00372 0.999796 0.988037
1.00478 0.999341 0.986572
1.00462 0.999526 0.986692
1.00509 0.998766 0.986574
1.00462 0.999581 0.986635
1.00503 0.998974 0.986477
1.00135 0.999987 0.992096
1.0013 0.999989 0.992828
1.00359 0.999746 0.988067
1.00336 0.999888 0.989245
0.999479 0.998645 0.998737
0.999847 1.00059 0.99516
1.00105 1.00231 0.991072
1.00318 0.999877 0.989259
1.0044 0.999299 0.987179
1.00403 0.999984 0.987607
1.00266 1.0018 0.9877
1.00427 1.00014 0.986642
0.999681 0.999918 0.995266
1.00019 1.00164 0.992624
1.00369 0.999762 0.98799
1.00352 0.99983 0.988693
1.00469 0.999414 0.986914
1.00445 0.999477 0.98715
0.999709 1.00027 0.994844
1.00046 1.00237 0.99148
1.00161 1.00275 0.988799
1.00431 0.999575 0.987475
1.00491 0.998844 0.986866
1.00357 1.00173 0.986562
1.00468 0.999295 0.986771
1.00475 0.999313 0.986586
1.00026 1.00202 0.992162
1.00037 1.00273 0.991227
1.00015 1.00121 0.993155
1.00476 0.999421 0.986813
1.00465 0.999454 0.986898
1.00511 0.998866 0.986564
1.00496 0.998937 0.986664
1.00486 0.99886 0.986844
1.00511 0.998221 0.98712
1.00029 1.00223 0.991883
1.005 0.998604 0.986839
1.00097 1.00287 0.990042
1.00219 1.0033 0.987094
1.0041 1.00124 0.986171
1.00505 0.998616 0.986895
1.00016 1.00079 0.993572
1.00056 1.00258 0.991081
1.00027 1.00255 0.991573
1.00053 1.00303 0.990778
1.00344 0.999989 0.988361
0.999658 0.998683 0.996549
0.999603 0.999653 0.995623
0.999973 1.00129 0.993405
1.00263 1.00079 0.989041
1.00436 1.00004 0.986657
1.00026 1.00242 0.991721
1.0012 1.00329 0.989213
1.00289 1.00153 0.987977
1.00217 1.00253 0.98808
0.999764 0.998355 0.996707
1.00016 1.00188 0.992491
0.999983 1.00047 0.994198
1.00015 1.00258 0.991853
1.00454 0.999755 0.98659
1.00368 1.00079 0.987133
1.0049 0.999756 0.985902
1.0007 1.00333 0.99016
1.00334 1.00144 0.987297
1.0014 1.00415 0.988039
1.00245 1.00202 0.988031
0.999862 0.998111 0.996782
1.00006 0.999932 0.994608
1.00044 1.00295 0.991041
1.00014 1.00175 0.992688
1.00009 1.00353 0.991036
1.005 0.999429 0.98608
1.00428 1.00056 0.986256
1.00508 0.999421 0.985909
1.00082 1.00451 0.988811
1.00349 1.0012 0.987064
1.00178 1.00368 0.987221
1.0002 0.999507 0.994793
1.00025 1.0005 0.993744
1.00027 0.9994 0.994778
1.00023 0.999452 0.994795
0.999979 0.997751 0.997325
0.999922 0.997923 0.997061
0.999787 0.996921 0.99833
0.999644 0.997062 0.999275
0.99955 0.997259 0.999262
0.999843 0.998765 0.996125
0.999548 0.997748 0.999096
0.999777 0.999082 0.995934
0.999525 0.998002 0.999017
0.999706 0.999507 0.995641
0.999529 0.998302 0.998872
1.00352 0.999913 0.988304
1.00354 0.999924 0.988258
1.00459 0.999547 0.986717
1.00473 0.999421 0.98659
1.00371 0.999815 0.988036
1.00136 0.999997 0.992055
1.00372 0.999793 0.988037
1.00478 0.999343 0.986571
1.00462 0.99954 0.986685
1.00511 0.998708 0.986631
1.00462 0.999579 0.986628
1.00503 0.998992 0.986472
1.00479 0.999329 0.986574
1.00512 0.998635 0.986683
1.00504 0.998864 0.986566
1.00515 0.998089 0.987174
1.00505 0.999149 0.986277
1.00515 0.998012 0.987211
1.00368 0.999732 0.987911
1.00353 0.999829 0.988683
1.00469 0.999376 0.986889
1.00446 0.999545 0.987287
0.999729 1.00028 0.994843
1.00049 1.00238 0.991465
1.0016 1.00275 0.988963
1.00431 0.999616 0.987494
1.0049 0.998763 0.986862
1.00467 0.999302 0.986779
1.0035 1.00169 0.986425
1.00474 0.999281 0.986561
1.00027 1.00196 0.992173
1.00036 1.00271 0.991245
1.00016 1.0012 0.993144
1.00476 0.999389 0.986702
1.00465 0.999447 0.986891
1.00511 0.998773 0.986602
1.00496 0.998968 0.986682
1.00032 1.00219 0.991883
1.00103 1.00286 0.990008
1.00208 1.00337 0.987316
1.00486 0.998948 0.986861
1.0051 0.998105 0.987221
1.00406 1.00121 0.986043
1.005 0.99861 0.986852
1.00503 0.998538 0.986938
1.00058 1.00259 0.991091
1.00053 1.00306 0.990728
1.00016 1.00079 0.993564
1.00024 1.0025 0.991648
1.00512 0.998776 0.986553
1.00509 0.998916 0.986631
1.0052 0.998266 0.986915
1.00514 0.997942 0.987326
1.00508 0.998224 0.98715
1.00515 0.997377 0.987833
1.00073 1.00254 0.990814
1.00512 0.9978 0.987409
1.00103 1.00371 0.988773
1.00278 1.00359 0.986067
1.00461 1.00023 0.986123
1.00515 0.998183 0.987093
1.00018 1.00049 0.993837
1.00021 1.00215 0.992067
1.00067 1.00282 0.990669
1.00032 1.00313 0.991019
1.00064 1.00296 0.990629
0.999756 0.998347 0.996714
1.00455 0.999754 0.986582
0.999995 1.00043 0.994216
1.00012 1.00195 0.992493
1.00011 1.00265 0.991843
1.00368 1.00079 0.987136
1.0049 0.999762 0.985888
1.00068 1.00328 0.990181
1.00145 1.00427 0.987992
1.00337 1.00147 0.987339
1.0024 1.00182 0.988378
0.999855 0.99811 0.996784
1.00007 0.999913 0.994617
1.00042 1.00294 0.99105
1.00011 1.00179 0.992695
1.00007 1.00363 0.990927
1.005 0.999433 0.98606
1.00426 1.00058 0.986257
1.00508 0.999432 0.985878
1.00075 1.00457 0.988827
1.00351 1.00121 0.987133
1.00195 1.00358 0.987279
1.00014 0.999648 0.994753
1.00018 1.00104 0.993335
1.00044 1.00405 0.989956
0.999989 1.00298 0.991755
1.00016 1.00413 0.990433
1.00511 0.998864 0.986383
1.00452 1.00022 0.986082
1.00509 0.998495 0.986591
1.00081 1.00503 0.988139
1.00316 1.00214 0.986678
1.00019 0.999523 0.99479
1.00023 1.00052 0.993685
1.00024 1.0005 0.993709
1.00017 1.00119 0.993293
1.00026 1.00053 0.993699
1.00029 0.999419 0.994721
1.00026 0.999411 0.994776
1.00004 0.997623 0.99733
1.00023 0.999468 0.99479
0.999988 0.997749 0.997325
0.999892 0.996693 0.998356
0.999911 0.997916 0.997299
0.999761 0.996874 0.998811
0.999658 0.997021 0.99928
0.99991 0.998499 0.996274
0.999844 0.998785 0.996112
0.999611 0.997516 0.999135
0.999556 0.99778 0.999081
0.999772 0.999123 0.995915
0.999542 0.998034 0.998987
1.00463 0.999577 0.986623
1.00462 0.999545 0.986678
1.00502 0.999007 0.986467
1.00512 0.998649 0.986687
1.00478 0.999344 0.98657
1.00372 0.999791 0.988036
1.00479 0.999329 0.986575
1.00512 0.998641 0.986682
1.00504 0.998875 0.986562
1.00515 0.997997 0.987291
1.00504 0.999157 0.986263
1.00515 0.99792 0.987292
1.00512 0.998676 0.986663
1.00515 0.998107 0.987184
1.00514 0.997827 0.987453
1.00511 0.997498 0.987855
1.00515 0.998293 0.986885
1.00516 0.997283 0.988024
1.00477 0.999355 0.98659
1.00465 0.999444 0.986883
1.0051 0.998677 0.98664
1.00497 0.998997 0.9867
1.00037 1.00216 0.991883
1.0011 1.00284 0.989975
1.00197 1.00345 0.987537
1.00486 0.999037 0.986879
1.00509 0.997987 0.987322
1.005 0.998615 0.986866
1.00402 1.00117 0.985915
1.00502 0.998457 0.986981
1.00057 1.00261 0.9911
1.00049 1.00312 0.990678
1.00016 1.0008 0.993557
1.00023 1.00243 0.991724
1.00511 0.998779 0.986557
1.00509 0.998944 0.986556
1.0052 0.998223 0.986954
1.00513 0.998022 0.987243
1.00075 1.0026 0.990793
1.00103 1.00364 0.98898
1.00271 1.00374 0.986023
1.00507 0.998318 0.987066
1.00515 0.997258 0.987925
1.00462 1.00007 0.986113
1.0051 0.997815 0.98743
1.00515 0.998111 0.987048
1.0007 1.00283 0.990667
1.00065 1.00295 0.990634
1.00029 1.00318 0.99101
1.00017 1.00049 0.993761
1.0002 1.0021 0.992126
1.00517 0.998146 0.987134
1.00517 0.997987 0.987235
1.00515 0.996923 0.988311
1.00512 0.997206 0.987952
1.00075 1.0031 0.990222
1.00512 0.997511 0.987798
1.00094 1.00441 0.987941
1.00354 1.00295 0.985434
1.00504 0.999062 0.986302
1.00018 1.00025 0.993902
1.0002 1.00177 0.992619
1.00018 1.00285 0.991598
1.00076 1.00281 0.990572
1.00038 1.00348 0.990578
1.00079 1.0027 0.990502
0.999849 0.99811 0.996786
1.00008 0.99989 0.994626
1.005 0.999437 0.986041
1.00008 1.00184 0.992702
1.00037 1.00295 0.991059
1.00004 1.00372 0.990817
1.00424 1.0006 0.986258
1.00508 0.999442 0.985848
1.00069 1.00457 0.988842
1.00212 1.00354 0.987337
1.00352 1.00122 0.987204
1.00014 0.999651 0.994754
1.00017 1.00104 0.993348
1.0004 1.00405 0.989968
0.999967 1.003 0.991754
1.00012 1.0041 0.990402
1.00512 0.998902 0.986362
1.00453 1.00024 0.986052
1.00509 0.998453 0.98669
1.00081 1.005 0.988024
1.0032 1.00227 0.986594
1.00021 1.00067 0.993659
0.999994 1.00222 0.99236
1.00049 1.0044 0.989415
0.999933 1.00396 0.99072
1.00037 1.00406 0.990047
1.00513 0.997237 0.987891
1.00464 0.99995 0.986272
1.00508 0.997893 0.987149
1.00168 1.00449 0.987574
1.00333 1.00172 0.986189
1.00019 0.999539 0.994787
1.00023 1.0005 0.993727
1.0001 1.00127 0.993175
1.00023 1.0005 0.993675
1.00025 1.00054 0.993699
1.00014 1.00121 0.993237
1.00006 1.00167 0.992979
1.00014 1.00125 0.993147
1.00026 1.00059 0.993644
1.00028 0.999498 0.994652
1.00028 0.99943 0.994721
1.0001 0.99756 0.997298
1.00026 0.999422 0.994774
1.00005 0.997632 0.997326
0.999965 0.996555 0.998357
0.999996 0.997747 0.997327
0.99988 0.996667 0.998361
0.999731 0.996817 0.999299
0.99997 0.99825 0.996422
0.999912 0.998513 0.996265
0.999688 0.997269 0.999171
0.999844 0.99881 0.9961
0.999611 0.997561 0.999123
0.999565 0.997813 0.999065
1.00504 0.999166 0.98625
1.00505 0.998888 0.986557
1.00516 0.997826 0.987374
1.00515 0.997905 0.987407
1.00512 0.998648 0.986682
1.00479 0.999329 0.986576
1.00512 0.998715 0.986619
1.00515 0.998155 0.987136
1.00514 0.997876 0.98738
1.00511 0.997392 0.987935
1.00514 0.998318 0.986887
1.00516 0.997118 0.988103
1.00513 0.998214 0.987143
1.00512 0.997485 0.987819
1.00512 0.996951 0.988337
1.00514 0.996987 0.988331
1.0051 0.998783 0.986562
1.00509 0.99897 0.986481
1.0052 0.998183 0.986992
1.00512 0.998103 0.987159
1.00079 1.00262 0.990771
1.00102 1.00356 0.989187
1.00264 1.00389 0.98598
1.00506 0.998415 0.986982
1.00515 0.997143 0.988016
1.00509 0.99783 0.987452
1.00462 0.999925 0.986103
1.00515 0.998061 0.987004
1.00073 1.00284 0.990665
1.00069 1.0029 0.990639
1.00025 1.00323 0.991001
1.00017 1.00049 0.993683
1.00019 1.00204 0.992185
1.00517 0.998159 0.98712
1.00517 0.998007 0.987247
1.00515 0.99703 0.988203
1.00081 1.00311 0.990193
1.00108 1.00441 0.988114
1.00345 1.00299 0.985386
1.00512 0.997264 0.987946
1.00504 0.998858 0.986421
1.00512 0.997459 0.987682
1.00018 1.00022 0.993936
1.0008 1.00278 0.990553
1.00076 1.00264 0.990643
1.00039 1.00356 0.990517
1.00018 1.00284 0.991617
1.00019 1.00176 0.992556
1.00515 0.997723 0.987474
1.00513 0.996894 0.988379
1.00512 0.996331 0.988789
1.00512 0.996524 0.988705
1.00082 1.0035 0.989753
1.0051 0.997863 0.987331
1.00171 1.00482 0.986384
1.00423 1.00164 0.985438
1.00019 0.999971 0.994169
1.0002 1.00148 0.992905
1.00018 1.00252 0.99198
1.00014 1.00343 0.99103
1.00086 1.00283 0.990291
1.00086 1.00295 0.990216
1.00014 0.999654 0.994754
1.00016 1.00102 0.993362
1.00512 0.998941 0.986341
0.999947 1.00302 0.991754
1.00036 1.00409 0.989979
1.00005 1.00411 0.990372
1.00454 1.00026 0.986023
1.00509 0.998412 0.98679
1.00083 1.00499 0.987907
1.00324 1.0024 0.98651
1.00021 1.00064 0.993667
1.00002 1.0022 0.992401
1.0005 1.00442 0.989456
0.999886 1.00409 0.990717
1.00025 1.00393 0.990287
1.00513 0.997217 0.988053
1.0047 0.999957 0.986143
1.00509 0.997903 0.987195
1.00153 1.00459 0.987476
1.00343 1.00169 0.986313
1.00005 1.00152 0.992975
0.999884 1.00331 0.991354
1.00082 1.00419 0.989097
0.99996 1.00454 0.989695
1.00514 0.995874 0.989275
1.0051 0.99676 0.988497
1.00475 0.999596 0.986207
1.00213 1.00346 0.986361
1.00024 1.00048 0.99377
1.0001 1.00129 0.993195
0.999958 1.00194 0.992864
1.00025 1.00054 0.993698
1.00012 1.00122 0.993181
1.00026 1.00058 0.993642
1.00005 1.00166 0.992942
1.00015 1.00122 0.99317
1.00001 1.00198 0.992717
1.00011 1.00163 0.992869
1.00017 1.00128 0.993035
1.00026 1.00067 0.99356
1.00026 0.999578 0.994605
1.00028 0.9995 0.994652
1.00013 0.99756 0.997244
1.00028 0.999435 0.994722
1.0001 0.997586 0.997289
1.00002 0.996484 0.998331
1.00006 0.997644 0.997322
0.999958 0.996527 0.998363
0.999871 0.996642 0.998363
1.00003 0.998009 0.996562
0.999974 0.998255 0.996413
0.999767 0.997022 0.999208
0.999914 0.998529 0.996255
0.999682 0.99732 0.99916
0.999613 0.9976 0.99911
1.00513 0.998342 0.98689
1.00514 0.997926 0.987306
1.00516 0.996956 0.988182
1.00511 0.997288 0.988015
1.00515 0.998204 0.987088
1.00512 0.998755 0.986576
1.00513 0.998205 0.987134
1.00511 0.997517 0.987796
1.00512 0.996955 0.988313
1.00515 0.996942 0.988344
1.00512 0.997696 0.987638
1.0051 0.996683 0.988719
1.00515 0.996184 0.988936
1.00518 0.998172 0.987107
1.00516 0.998027 0.98726
1.00515 0.997136 0.988094
1.00086 1.00312 0.990163
1.00125 1.00437 0.988286
1.00336 1.00303 0.985338
1.00512 0.99732 0.98794
1.00512 0.997412 0.987565
1.00506 0.998653 0.98654
1.00083 1.00275 0.990534
1.0007 1.00259 0.990784
1.00041 1.00361 0.990457
1.00018 1.00019 0.993969
1.00018 1.00283 0.991637
1.00019 1.00174 0.992492
1.00515 0.997769 0.987498
1.00513 0.996858 0.988439
1.00511 0.996374 0.988798
1.00084 1.00352 0.989704
1.00157 1.00492 0.986716
1.00426 1.00144 0.985531
1.00511 0.996581 0.98865
1.0051 0.99784 0.987309
1.00018 0.999953 0.994279
1.0002 1.00148 0.992903
1.00076 1.00272 0.990363
1.00083 1.00288 0.990462
1.00017 1.00339 0.991001
1.00015 1.00256 0.991927
1.00514 0.996883 0.988373
1.00511 0.995796 0.989423
1.00511 0.995783 0.98937
1.00506 0.99679 0.988734
1.00076 1.00398 0.98885
1.00479 0.999429 0.986403
1.00272 1.00424 0.985933
1.00019 0.999752 0.994559
1.00015 1.00094 0.993478
1.00018 1.00128 0.992971
1.00012 1.00235 0.992147
1.00002 1.00325 0.991392
1.00008 1.00361 0.99077
1.00126 1.00144 0.990725
1.00072 1.00261 0.99141
1.0002 1.00063 0.993675
1.00005 1.00218 0.992442
1.00513 0.997202 0.988216
0.999906 1.00415 0.990713
1.00048 1.00446 0.989498
1.00012 1.00383 0.990527
1.00475 0.999942 0.986015
1.00509 0.997908 0.987241
1.00137 1.00464 0.98738
1.00351 1.0016 0.986437
1.00007 1.00155 0.992925
0.999928 1.00334 0.99136
1.00074 1.00424 0.989148
1.00013 1.00452 0.989803
1.00515 0.995836 0.989356
1.0051 0.996866 0.988308
1.00471 0.999588 0.9863
1.00248 1.00348 0.986245
0.99991 1.0024 0.992466
1.00519 0.995153 0.989778
0.999991 1.00451 0.990479
1.00089 1.00474 0.988332
1.00509 0.995726 0.989626
1.00501 0.997937 0.98703
1.00381 1.00215 0.985744
1.00011 1.00131 0.993214
0.999957 1.00194 0.992854
0.999852 1.00248 0.992537
1.00026 1.00057 0.99364
1.00015 1.00121 0.993193
1.00002 1.00167 0.992905
1.00026 1.00066 0.993555
1.00017 1.00128 0.993051
0.999992 1.00201 0.992675
1.00012 1.0016 0.992909
1.00002 1.00214 0.992474
1.00011 1.00186 0.99262
1.00016 1.00168 0.992771
1.00027 1.00129 0.992907
1.00026 1.00076 0.993459
1.00024 0.999642 0.994578
1.00026 0.999584 0.994604
1.00015 0.997579 0.997192
1.00028 0.999508 0.994651
1.00013 0.997589 0.997236
1.00006 0.996449 0.998295
1.0001 0.997611 0.997281
1.00002 0.996447 0.998338
0.99995 0.996499 0.998367
1.00019 0.9996 0.994727
1.00007 0.997808 0.996682
1.00003 0.998015 0.996554
0.999844 0.996801 0.999241
0.999979 0.998264 0.996405
0.99976 0.997075 0.999197
0.999678 0.99737 0.999148
1.00516 0.996895 0.988357
1.00511 0.996956 0.98829
1.0051 0.997546 0.987773
1.00514 0.998195 0.987125
1.00512 0.997654 0.9877
1.0051 0.996696 0.988671
1.00514 0.996179 0.988932
1.00514 0.996779 0.988468
1.00517 0.995675 0.989599
1.00515 0.994904 0.990102
1.00515 0.997815 0.987521
1.00513 0.99682 0.9885
1.00511 0.996417 0.988807
1.00085 1.00359 0.989656
1.00143 1.005 0.987049
1.00428 1.00121 0.985624
1.00511 0.996636 0.988595
1.00511 0.997781 0.987288
1.00068 1.00262 0.990435
1.00082 1.00281 0.990702
1.00012 1.00346 0.990971
1.00019 0.999931 0.994388
1.0002 1.00148 0.9929
1.00013 1.0026 0.991875
1.00514 0.996799 0.988485
1.0002 0.999751 0.994558
1.00014 1.00095 0.99343
1.00511 0.995845 0.989413
1.0051 0.995767 0.989317
1.00064 1.00411 0.989159
1.00261 1.00421 0.985899
1.00465 0.999465 0.986396
1.00498 0.996712 0.988618
1.00019 1.00127 0.993121
1.00013 1.00234 0.992139
1.00141 1.00171 0.990405
1.00044 1.00236 0.991742
1.00006 1.0037 0.990748
1.00004 1.00322 0.991404
1.00517 0.995589 0.989595
1.00513 0.995362 0.989846
1.00508 0.995256 0.989705
1.00505 0.99682 0.988143
1.00109 1.00325 0.98935
1.0035 1.00281 0.985957
1.00013 1.00079 0.993523
1.00016 1.0011 0.993295
1.00007 1.00194 0.992759
1.00009 1.00231 0.992082
1.00001 1.0031 0.991728
0.999961 1.00374 0.990816
0.999696 1.00439 0.990815
1.00069 1.00135 0.991935
1.00009 1.00156 0.992876
0.999978 1.00336 0.991367
1.00515 0.995785 0.989436
1.00509 0.996987 0.988119
1.00029 1.00452 0.989912
1.00067 1.00428 0.989198
1.00467 0.999597 0.986393
1.00284 1.00357 0.986129
0.999911 1.00242 0.992434
1.00519 0.995132 0.98982
0.999891 1.00438 0.990572
1.0009 1.00464 0.988259
1.00509 0.995657 0.989502
1.005 0.997889 0.987246
1.00371 1.00236 0.985791
0.999845 1.00362 0.991512
1.00499 0.995077 0.99099
1.00057 1.00468 0.989774
1.00188 1.0046 0.987429
1.0049 0.996581 0.988834
1.00385 1.00062 0.98671
0.999675 0.998856 0.992547
0.999953 1.00193 0.992844
0.99984 1.00249 0.992521
0.999975 1.0027 0.992138
1.00027 1.00065 0.99355
1.00016 1.00129 0.993067
1.00013 1.00156 0.992949
0.999984 1.00204 0.992632
1.00026 1.00075 0.993454
1.00026 1.00129 0.992905
1.00003 1.00219 0.992432
1.00016 1.00168 0.992768
1.00012 1.00186 0.99265
1.00016 1.00194 0.992475
1.00022 1.00173 0.992575
1.00022 1.00162 0.992693
1.00035 1.00134 0.992711
1.00029 1.00081 0.99327
1.00026 1.00131 0.993003
1.00027 1.00081 0.993287
1.00023 0.999674 0.994561
1.00024 0.999646 0.994578
1.00018 0.997633 0.99666
1.00026 0.999591 0.994604
1.00016 0.997612 0.996938
1.00003 0.996394 0.999267
1.00013 0.99762 0.997228
1.00006 0.996409 0.998301
1.00001 0.996412 0.998343
1.00017 0.999489 0.994865
1.00019 0.999597 0.994725
1.00011 0.997651 0.996781
1.00006 0.997809 0.996925
0.99991 0.996613 0.999269
1.00004 0.998022 0.996546
0.999835 0.996844 0.999231
0.999753 0.997125 0.999185
1.00514 0.996175 0.988929
1.0051 0.996705 0.988622
1.00511 0.997615 0.987762
1.00514 0.996769 0.98846
1.00517 0.995691 0.989487
1.00515 0.994915 0.990084
1.00518 0.995261 0.989801
1.00075 0.999298 0.988448
1.00486 0.994957 0.991528
1.00012 1.00072 0.993763
1.00515 0.996714 0.988597
1.00511 0.995891 0.989403
1.00509 0.995776 0.989264
1.00054 1.00422 0.989468
1.00251 1.00419 0.985866
1.00449 0.99953 0.986389
1.00491 0.99667 0.988501
1.00157 1.00191 0.990093
1.00015 1.00213 0.992087
1.00008 1.00372 0.990727
1.0002 0.999752 0.994556
1.00007 1.00319 0.991417
1.0002 1.00124 0.993271
1.00013 1.00233 0.99213
1.00013 1.00095 0.993382
1.00517 0.99545 0.989726
1.00013 1.00078 0.993606
1.00017 1.0011 0.993293
1.00008 1.00193 0.992653
1.00514 0.995262 0.989848
1.00508 0.995406 0.989549
1.00118 1.00304 0.98942
1.00309 1.00264 0.98611
1.00497 0.997066 0.988131
1.0001 1.00231 0.992151
1.00003 1.00307 0.991663
1.00062 1.00174 0.991605
0.999741 1.00424 0.990962
1.00002 1.0037 0.990878
1.00512 0.994971 0.990366
1.00512 0.995716 0.989668
1.0051 0.995894 0.989093
1.00392 0.999837 0.987916
1.00083 1.00318 0.989957
1.0001 1.00173 0.992648
1.00007 1.00212 0.992326
1.00001 1.00269 0.992065
0.999991 1.00316 0.991555
0.999868 1.00369 0.991166
0.999743 1.00453 0.99055
0.99974 1.00462 0.990478
0.999916 1.00243 0.992402
0.999791 1.00424 0.990666
1.0052 0.995121 0.989862
1.0051 0.995582 0.989379
1.005 0.997813 0.987462
1.0009 1.00453 0.988188
1.00361 1.00254 0.98584
0.999802 1.00351 0.991679
1.00495 0.995033 0.990971
1.0003 1.00452 0.989913
1.00152 1.00474 0.987483
1.00492 0.996328 0.989023
1.00392 1.00055 0.986648
0.999621 0.998864 0.99085
0.999995 1.00389 0.990988
1.00457 0.995455 0.991604
1.00029 1.00464 0.989768
1.00197 1.00347 0.987587
1.00412 0.997605 0.988172
1.00113 0.995311 0.959228
0.995954 0.998544 0.977624
0.998786 1.00064 0.992604
0.999863 0.996843 0.932284
0.994957 0.998133 0.921748
0.999838 1.00251 0.992506
0.999896 1.00275 0.992212
0.99998 1.00231 0.992493
1.00026 1.00075 0.99345
1.00026 1.00126 0.992901
1.00016 1.00168 0.992766
1.00013 1.00186 0.992681
1.00004 1.00223 0.992389
1.00024 1.0016 0.992661
1.00028 1.00081 0.993327
1.00035 1.00133 0.992735
1.00015 1.00196 0.992478
1.00021 1.00175 0.992589
1.00025 1.00168 0.992532
1.0002 1.00152 0.992761
1.00034 1.00162 0.992495
1.0004 1.00141 0.992524
1.00029 1.00084 0.993244
1.00034 1.00137 0.992741
1.00029 1.00152 0.992718
1.00016 1.00133 0.993064
1.00026 1.00132 0.992943
1.00026 1.00073 0.993473
1.00028 1.00082 0.993279
1.00024 0.999673 0.994548
1.00023 0.999672 0.994561
1.00017 0.997688 0.996644
1.00023 0.999647 0.994578
1.00018 0.997637 0.996659
1.00004 0.996392 0.999263
1.00017 0.997643 0.996684
1.00006 0.996394 0.998769
1.00006 0.996369 0.998306
1.00016 0.999412 0.994964
1.00017 0.999489 0.994864
1.00013 0.997531 0.996857
1.00019 0.999596 0.994722
1.0001 0.997631 0.997024
0.999963 0.996457 0.999291
1.00008 0.997834 0.996656
0.9999 0.996684 0.999255
0.999827 0.996889 0.999222
1.00517 0.995707 0.989375
1.00514 0.996763 0.988452
1.00515 0.994925 0.990066
1.00077 0.998507 0.98856
1.00517 0.99525 0.989817
1.00486 0.99522 0.991397
1.00496 0.995935 0.990622
0.997123 0.999225 0.974865
1.00212 0.996531 0.989807
1.00011 1.00068 0.993811
1.00013 1.00071 0.993761
1.00005 1.00168 0.992899
1.00009 1.00151 0.993019
1.00518 0.995316 0.989858
1.00515 0.995172 0.98985
1.00512 0.995496 0.989392
1.0013 1.00284 0.989491
1.00269 1.00242 0.986261
1.00486 0.997365 0.98812
1.00053 1.0022 0.991262
0.9998 1.00409 0.991109
1.00006 1.00366 0.990939
1.00017 1.00111 0.99329
1.00004 1.00303 0.991598
1.00011 1.00231 0.99222
1.00013 1.00077 0.993689
1.00009 1.00193 0.992546
1.00506 0.994988 0.990338
1.00009 1.00177 0.992765
1.00008 1.00211 0.992394
0.99999 1.00261 0.992108
1.00508 0.995461 0.98972
1.0051 0.995737 0.989072
1.00098 1.00299 0.989922
1.0039 0.999879 0.987919
0.999998 1.00321 0.991553
0.999879 1.00366 0.991196
0.99977 1.0046 0.990484
0.999876 1.0045 0.99053
1.00504 0.996038 0.989809
1.00507 0.995389 0.989947
1.00422 0.998183 0.988727
1.00104 1.00295 0.989966
1.00004 1.00272 0.991859
0.999986 1.00296 0.991717
0.999772 1.00413 0.990919
0.999861 1.00512 0.989659
1.00052 0.99495 0.954622
0.999752 1.00342 0.991846
1 1.00442 0.990052
1.00491 0.994979 0.990947
1.00496 0.996085 0.98921
1.00394 1.00044 0.986586
1.00113 1.00485 0.987535
0.999619 0.998849 0.989122
0.999847 1.00394 0.991135
1.00457 0.995362 0.991552
1.00017 1.00464 0.989827
1.00195 1.00338 0.987563
1.00435 0.997627 0.98826
1.00156 0.995602 0.954666
0.995611 0.998792 0.973814
0.998806 1.00053 0.992638
0.999099 0.997149 0.934079
0.994698 0.998138 0.916067
0.999723 1.00369 0.991764
0.999902 0.995109 0.936814
0.995026 0.999284 0.923307
1.00387 0.997099 0.991197
0.999888 1.00471 0.990262
1.0024 1.00133 0.98829
0.997943 1.00118 0.994132
0.999457 0.996981 0.95906
0.994843 0.998798 0.972518
0.998302 0.998821 0.935268
0.99468 0.999861 0.92526
0.999808 1.0028 0.992286
0.999927 1.00245 0.992449
0.99994 1.00125 0.993783
1.00027 1.0008 0.993384
1.00034 1.00133 0.992759
1.00022 1.00163 0.992628
1.00021 1.00176 0.992604
1.00014 1.00199 0.992481
1.00029 1.00084 0.993244
1.00026 1.00172 0.992513
1.00033 1.00162 0.992518
1.0004 1.0014 0.992594
1.0002 1.00147 0.992817
1.00033 1.00161 0.992512
1.00027 1.00079 0.993341
1.00043 1.00166 0.992294
1.00039 1.00141 0.992622
1.00036 1.00136 0.992733
1.00029 1.00151 0.992716
1.00041 1.00151 0.992469
1.00017 1.00159 0.99281
1.00021 1.00151 0.992745
0.999856 1.00238 0.99253
1.00006 1.00144 0.993132
1.00016 1.00134 0.993067
1.00024 1.0007 0.993552
1.00027 1.00134 0.992884
1.00027 1.00075 0.993429
1.00026 0.999646 0.994555
1.00028 1.00084 0.99327
1.00024 0.999664 0.994549
1.00012 0.997721 0.997156
1.00023 0.99967 0.994561
1.00015 0.997678 0.996899
1.00009 0.996417 0.998242
1.00018 0.997642 0.996659
1.00004 0.996397 0.999261
1.00009 0.996395 0.99827
1.00013 1.00071 0.993753
1.00016 0.999376 0.994997
1.00016 0.99941 0.994964
1.00015 0.997453 0.996907
1.00017 0.999486 0.994863
1.00014 0.997516 0.996856
1 0.996344 0.999307
1.00009 0.997641 0.997252
0.999976 0.99652 0.998796
0.999942 0.996723 0.998256
1.00073 0.997693 0.988688
1.00517 0.995238 0.989832
1.00487 0.995485 0.991266
0.996563 0.998503 0.976553
1.00192 0.996885 0.990043
1.00498 0.995473 0.990554
1.00417 0.995896 0.990336
0.998096 0.996547 0.979079
1.0003 0.995537 0.957718
0.998828 0.997395 0.936755
0.994624 0.998187 0.920568
1.00004 1.00161 0.99288
1.00012 1.00068 0.993808
1.00013 1.0007 0.993759
1.00006 1.00169 0.992868
1.00001 1.00233 0.992348
1.00016 1.002 0.992482
1.00011 1.00161 0.992918
1.00006 1.00159 0.992959
1.00505 0.994986 0.99031
1.00509 0.995168 0.989767
1.00507 0.995562 0.989053
1.0011 1.00277 0.989888
1.00389 0.999834 0.98792
0.999799 1.00455 0.990494
1.00001 1.00448 0.990512
0.999897 1.00363 0.991226
1.00008 1.00209 0.992462
1 1.00327 0.991551
1.00009 1.0018 0.992882
0.999991 1.00251 0.992152
1.00501 0.995754 0.989821
1.00002 1.00271 0.991941
0.999982 1.00298 0.991749
1.00502 0.995288 0.989823
1.00384 0.997813 0.989087
1.00121 1.0028 0.98982
0.999829 1.00415 0.990898
0.999991 1.0051 0.989671
1.00325 1.00037 0.989685
1.00446 0.996098 0.990812
1.00214 0.999374 0.990032
1.00052 1.00352 0.99013
1.00001 1.00295 0.991617
0.999899 1.00362 0.991266
0.999771 1.00475 0.990314
0.999967 0.994876 0.935472
1.00105 0.994976 0.961224
0.999721 1.00395 0.991281
1.00007 1.00458 0.989886
1.00455 0.995201 0.991505
1.00456 0.99767 0.988347
1.00196 1.00337 0.98754
1.00055 0.99507 0.9572
0.996002 0.999112 0.97385
0.998797 1.00027 0.992671
0.998394 0.997038 0.939034
0.994595 0.998151 0.910371
0.999667 1.00362 0.991783
0.999923 0.995489 0.935333
0.995084 0.999202 0.920428
1.00392 0.997038 0.991164
0.999806 1.00465 0.990376
1.00201 1.00133 0.988927
0.998253 1.00082 0.994833
1.0003 0.997 0.955376
0.995271 0.998408 0.975487
0.997857 0.99917 0.936028
0.994845 0.999841 0.923293
0.999254 1.00324 0.993048
0.995086 0.999114 0.925441
0.994899 1.00259 0.939902
1.00078 0.999344 0.99386
0.999213 1.00415 0.99246
0.996859 1.00248 0.995331
0.994905 0.999804 0.977762
0.997078 0.999203 0.953848
0.995437 0.999891 0.939608
0.994627 0.999688 0.932503
0.999906 1.00254 0.992406
0.999949 1.00138 0.993629
0.999693 0.999716 0.995398
1.00029 1.00083 0.993244
1.00039 1.00139 0.992663
1.00032 1.00162 0.992541
1.00026 1.00175 0.992494
1.0002 1.00145 0.992873
1.00039 1.00142 0.992618
1.00032 1.00164 0.992514
1.00044 1.00166 0.992292
1.00015 1.00075 0.99354
0.999829 1.00008 0.994893
1.00043 1.00132 0.99264
1.0005 1.00161 0.992252
1.00037 1.00135 0.992726
1.0003 1.0015 0.992714
1.00042 1.00151 0.992465
1.00018 1.00158 0.992802
1.00021 1.0015 0.992791
1.00002 1.00181 0.992817
1.00031 1.00147 0.992578
1.0001 1.0015 0.992994
0.999999 1.00269 0.991999
0.999657 1.00472 0.990338
0.999709 1.00309 0.991915
0.999853 1.00244 0.992508
0.999976 1.00168 0.993033
1.00006 1.00145 0.993127
1.00019 1.0007 0.993618
1.00015 1.00136 0.993069
1.00024 1.0007 0.993556
1.00025 0.99962 0.994587
1.00027 1.00076 0.993385
1.00026 0.999632 0.994557
1.00009 0.997761 0.99717
1.00025 0.999655 0.99455
1.00013 0.997713 0.996905
1.00005 0.996432 0.998251
1.00017 0.997664 0.996645
1.00003 0.996421 0.999257
1.00004 0.996401 0.999259
1.00016 1.00079 0.993801
1.00017 0.999413 0.994941
1.00012 1.00072 0.993751
1.00015 0.997423 0.996925
1.00016 0.999376 0.994997
1.00016 0.999411 0.994963
1.00015 0.997454 0.996905
1.00003 0.996279 0.999317
1.00011 0.997511 0.997326
1.00002 0.996365 0.998826
1.00001 0.996519 0.998321
0.999917 0.995569 0.93229
0.99527 0.998785 0.923575
0.997659 0.997803 0.977508
1.00173 0.997244 0.990281
1.00499 0.994983 0.990489
0.997308 0.996595 0.981295
1.00414 0.995909 0.99041
1.00115 0.995422 0.957968
0.999498 0.996535 0.932469
0.994607 0.998157 0.914736
0.998735 0.997661 0.984634
0.998975 0.99735 0.959728
0.998278 0.99881 0.934199
0.99472 0.999841 0.923286
1.00011 1.0023 0.992173
1.00005 1.0016 0.992932
1.00013 1.00067 0.993805
1.00007 1.00167 0.992837
1.00001 1.00225 0.992434
1.00018 1.00212 0.992298
1.00016 1.00197 0.992467
1.00017 1.00173 0.992644
1.00012 1.00161 0.992858
1.00005 1.00163 0.992899
1.00494 0.995367 0.989837
1.00496 0.995212 0.989709
1.00345 0.997427 0.989451
1.00136 1.00271 0.989675
1.00013 1.00507 0.989684
0.9999 1.00416 0.990877
0.999974 1.00301 0.991781
0.999989 1.00269 0.992023
1.00347 0.999057 0.989872
1.00002 1.00298 0.99161
0.999912 1.00362 0.991219
1.00434 0.995897 0.990567
1.00189 0.999681 0.990509
1.0007 1.0036 0.989734
0.999914 1.00477 0.990188
1.00032 1.00083 0.992966
1.00153 0.99859 0.993496
0.999782 1.00419 0.99052
1.00004 1.00293 0.991653
1.00001 1.00334 0.991207
0.999936 1.00399 0.990817
0.994803 0.999156 0.934582
0.999942 0.995227 0.937896
1.00058 0.994941 0.95446
0.999584 1.00365 0.991802
0.999731 1.0046 0.990493
1.004 0.99696 0.991129
1.00162 1.0015 0.989564
0.999914 0.995265 0.938783
0.99899 0.996939 0.955923
0.994897 0.997882 0.97253
0.998624 0.999763 0.995471
0.998218 0.99893 0.930778
0.995071 0.999094 0.921156
0.994991 0.999853 0.925091
0.999131 1.00328 0.993062
0.995102 0.999159 0.928542
0.995077 1.00272 0.939366
1.00104 0.999213 0.99396
0.998759 1.00441 0.992447
0.996594 1.00039 0.998003
0.995125 0.999189 0.975183
0.997053 0.999355 0.959549
0.997576 0.999895 0.934743
0.99463 0.999678 0.934835
0.998105 1.00225 0.995972
0.994809 1.00143 0.948762
0.994305 1.00256 0.953017
0.996454 1.00232 0.998586
0.995048 1.00004 0.984346
0.995475 1.00003 0.958849
0.994896 0.999924 0.935499
0.994739 0.998996 0.932389
0.999937 1.0015 0.993478
0.999771 0.999683 0.995492
0.999315 0.999225 0.996832
1.00039 1.00143 0.992614
1.00044 1.00167 0.992291
1.00033 1.00166 0.992516
1.00005 1.00069 0.993739
1.00047 1.00163 0.992251
1.00042 1.00135 0.992608
0.999797 0.999831 0.995135
0.998841 0.999682 0.996984
1.00007 1.00068 0.994035
1.00044 1.00151 0.992386
1.00042 1.00151 0.99246
1.00018 1.00157 0.992795
1.00021 1.00151 0.992836
1.00031 1.00149 0.992602
1.00002 1.00185 0.992805
1.00011 1.00152 0.992982
1.00006 1.0018 0.992819
0.999897 1.00144 0.993394
1.00007 1.00222 0.992244
1.00002 1.00259 0.99211
0.999741 1.00403 0.991005
1.00044 1.00501 0.988947
0.9998 1.00398 0.99129
0.999616 1.00473 0.990493
0.99974 1.0031 0.992029
0.999889 1.00214 0.992585
0.999852 1.0025 0.992486
0.999991 1.0017 0.99302
1.00016 1.00077 0.993613
1.00008 1.00146 0.993123
1.0002 1.0007 0.993617
1.00022 0.999646 0.994621
1.00025 1.00071 0.993559
1.00025 0.999613 0.994588
1.00004 0.997812 0.997194
1.00026 0.999624 0.994559
1.0001 0.997754 0.996924
1 0.996515 0.998264
1.00015 0.997692 0.996651
1.00003 0.996449 0.998752
1.00002 0.996435 0.999257
1.00018 1.0009 0.993503
1.00019 0.999482 0.99485
1.00014 1.0008 0.993667
1.00015 0.997448 0.996905
1.00017 0.999408 0.994945
1.00011 1.00073 0.993749
1.00003 0.996263 0.99932
1.00016 0.997424 0.996925
1.00016 0.999371 0.994996
1.00015 0.997455 0.996902
1.00002 0.996289 0.999315
1 0.996364 0.999302
0.994843 0.998231 0.931023
0.999935 0.99532 0.934768
0.995182 1.00283 0.939156
0.995227 0.999081 0.921634
0.998153 0.996648 0.977627
1.00408 0.996324 0.990477
1.00083 0.995654 0.958077
0.999892 0.997038 0.937573
0.994596 0.998143 0.90893
0.998556 0.99749 0.983286
1.00048 0.996901 0.95277
0.998167 0.998966 0.934853
0.9947 0.999841 0.92009
0.995005 1.00074 0.980014
0.998458 0.999888 0.952757
0.995823 0.999833 0.932615
0.994671 0.999407 0.927578
1.00014 1.00259 0.991886
1.00009 1.0023 0.992249
1.00004 1.00165 0.992984
1.00001 1.00218 0.99252
1.00026 1.00221 0.991977
1.00018 1.0021 0.992338
1.00015 1.00196 0.992451
1.00026 1.00167 0.992626
1.0002 1.00169 0.992711
1.00012 1.00162 0.992797
1.00363 0.997856 0.990069
1.00423 0.995773 0.990325
1.00169 1.00004 0.990983
1.00089 1.00365 0.989343
1 1.00489 0.99006
0.999934 1.0036 0.991172
1.00005 1.00298 0.991603
1.00004 1.00292 0.991683
1.00059 1.00025 0.993226
1.00004 1.0034 0.991229
0.999991 1.00404 0.990782
1.00158 0.998703 0.993133
1.00018 1.00392 0.990422
0.998842 0.998234 0.995829
0.998987 0.999653 0.99755
0.999869 1.00306 0.991486
1.00015 1.00292 0.991498
1.00013 1.0038 0.990612
0.994412 1.00099 0.953931
0.994789 0.999561 0.933624
0.999935 0.995654 0.933434
0.999023 1.00333 0.993068
0.998407 1.00448 0.992419
1.00122 0.999158 0.994069
0.995061 0.998966 0.93004
0.997891 0.999204 0.954016
0.994889 0.998734 0.976093
0.996467 0.999652 1.00087
0.996018 0.999743 0.939138
0.995302 1.00286 0.93884
0.994623 0.999684 0.934954
0.998164 1.00207 0.996157
0.994833 1.0008 0.951075
0.994344 1.00267 0.952802
0.996625 1.00282 0.998315
0.994918 1.0001 0.984806
0.996454 1.00002 0.953473
0.994699 0.999154 0.934119
0.995023 0.999959 0.938802
0.99703 1.00238 0.998152
0.993999 1.0011 0.970852
0.994377 1.00135 0.955932
0.994694 0.999405 0.92775
0.994991 1.00172 0.995253
0.996209 0.999303 0.960876
0.994748 0.999976 0.938788
0.99992 0.999607 0.995581
0.999339 0.999322 0.99666
0.998275 0.999771 0.998237
1.00046 1.00164 0.992249
1.0004 1.00139 0.992576
0.999759 0.99961 0.99538
1.00041 1.00152 0.992405
1.00005 1.00061 0.994027
0.999015 0.999564 0.996846
0.99844 0.999869 0.997462
0.999916 1.00133 0.993553
1.0003 1.00151 0.992627
1.00001 1.00188 0.992792
1.00014 1.00154 0.992971
0.999961 1.00143 0.993348
1.00007 1.00172 0.992859
0.999548 1.00224 0.993264
0.999807 1.00238 0.99258
1.00009 1.00378 0.9905
1.00005 1.00248 0.992222
0.999964 1.00398 0.990885
1.0005 1.00481 0.9886
1.00048 1.005 0.988669
0.999897 1.00442 0.990521
1.00034 1.00493 0.989033
0.99992 1.00285 0.99202
0.999778 1.00402 0.991168
0.999576 1.00474 0.99065
0.99977 1.00312 0.992143
0.999907 1.00211 0.992674
1.00012 1.00097 0.993473
1 1.00171 0.993008
1.00017 1.00078 0.993607
1.00017 0.999709 0.994648
1.00021 1.0007 0.993616
1.00022 0.999633 0.994623
0.999973 0.997897 0.99722
1.00026 0.9996 0.99459
1.00005 0.997812 0.996952
0.999937 0.996614 0.998284
1.00012 0.997731 0.996674
0.999983 0.996526 0.99876
0.999993 0.99649 0.99926
1.00025 1.00099 0.993146
1.0002 0.99962 0.994516
1.00019 1.0009 0.993503
1.00014 0.997528 0.996844
1.00018 0.99949 0.994751
1.00013 1.00081 0.993534
1.00002 0.996299 0.999314
1.00015 0.997447 0.996908
1.00017 0.999402 0.994948
1.00003 0.996263 0.999319
1.00016 0.997424 0.996926
1.00002 0.996299 0.999312
0.994546 1.00052 0.95249
0.994861 0.998288 0.932346
0.999906 0.995547 0.935589
1.00031 1.00164 0.992493
0.994319 1.00221 0.95534
0.995222 1.00286 0.938674
0.995248 0.999236 0.923397
0.998774 0.997712 0.98175
0.999412 0.998114 0.959398
0.998373 0.998902 0.929587
0.994682 0.99986 0.92098
0.995505 0.99974 0.976175
0.997343 0.999547 0.958242
0.9974 0.999895 0.935452
0.994685 0.999548 0.927969
0.995267 0.999647 0.972225
0.995453 1.00082 0.957294
0.994796 0.999938 0.938869
0.994716 0.998913 0.932443
1.00024 1.00258 0.991684
1.00013 1.00261 0.991857
1.0001 1.00227 0.992326
1.00028 1.00209 0.992086
1.00026 1.0022 0.992056
1.00017 1.00208 0.992377
1.00027 1.00169 0.992634
1.00022 1.00167 0.992777
1.00089 0.9999 0.993459
1.0016 0.998815 0.992758
1.00004 1.00291 0.991712
1.00058 1.00369 0.990319
1.00007 1.00401 0.990747
1.00001 1.0035 0.99125
1.00015 1.00295 0.991509
0.998827 0.998976 0.996207
1.00013 1.00361 0.990851
1.00019 1.0028 0.991519
0.999084 0.999025 0.997539
1.00018 1.00261 0.991775
0.997384 0.999296 0.9967
0.997641 1.00043 0.999551
1.00007 1.00269 0.991646
1.00013 1.00283 0.991666
0.993896 1.00136 0.974128
0.994398 1.00145 0.954521
0.994784 0.999967 0.932698
0.998112 1.00197 0.996363
0.996718 1.00291 0.998016
0.994896 1.0004 0.95336
0.995587 1.00012 0.959884
0.994879 0.999168 0.98092
0.995169 0.999954 0.938103
0.994365 1.00277 0.9526
0.99466 0.999287 0.935845
0.997153 1.00232 0.997978
0.993959 1.00121 0.970826
0.994297 1.00144 0.959946
0.995253 1.00276 0.998082
0.994706 0.999517 0.928027
0.995362 0.999273 0.957693
0.995077 0.999952 0.940168
0.996601 1.00288 0.998512
0.993932 1.00003 0.976755
0.994311 1.00221 0.955531
0.994744 0.999801 0.923502
0.995401 0.999928 0.938064
0.995576 0.999026 0.990659
0.996541 1.00034 0.951599
0.999315 0.999394 0.99648
0.998138 1.00038 0.997945
0.996499 1.00007 1.00149
1.00038 1.00153 0.992423
1.00003 1.00052 0.994018
0.999174 0.99941 0.996697
0.999928 1.00133 0.993505
0.998569 0.999555 0.997564
0.998228 1.00297 0.994821
1.00003 1.00142 0.993303
1.00006 1.00165 0.992899
0.999723 1.00232 0.993131
0.999297 1.00439 0.991304
0.999523 1.00253 0.992912
0.999899 1.00372 0.990833
1.00069 1.00492 0.988519
1.00182 1.00461 0.986715
1.00019 1.00393 0.990764
1.00066 1.00484 0.988431
1.00094 1.00454 0.988805
0.99988 1.00478 0.989772
1.00051 1.00488 0.988827
0.999898 1.00355 0.991348
0.999937 1.0044 0.990511
1.00025 1.00487 0.989119
1.00008 1.00144 0.993097
0.999903 1.00283 0.991992
0.999756 1.00408 0.991046
0.999927 1.00208 0.992763
1.00013 1.00099 0.99346
1.0001 0.999845 0.994632
1.00018 1.00079 0.9936
1.00017 0.999699 0.994647
0.999918 0.998029 0.996743
1.00023 0.999619 0.994624
0.999997 0.997897 0.996733
0.999808 0.996732 0.99928
1.00007 0.997792 0.996705
0.999921 0.996621 0.998772
0.999945 0.996568 0.999265
1.00029 1.00102 0.993047
1.00022 0.999775 0.994301
1.00025 1.00099 0.993224
1.00012 0.997659 0.996748
1.0002 0.999627 0.994489
1.0002 1.0009 0.993502
0.999997 0.996388 0.999297
1.00014 0.997526 0.996849
1.00018 0.9995 0.994653
1.00002 0.996288 0.999316
1.00015 0.997446 0.996911
1.00003 0.996262 0.999319
0.993892 1.00058 0.971624
0.994524 1.0013 0.952283
0.994883 0.998802 0.932462
1.0003 1.00165 0.992537
1.00028 1.0016 0.992541
1.00028 1.00197 0.992274
0.994388 1.00098 0.956058
0.994353 1.00213 0.95515
0.995234 1.00316 0.938196
0.995046 1.00026 0.978552
0.997992 1.00002 0.952167
0.99519 0.99991 0.939894
0.994694 0.999689 0.926044
0.995558 0.999325 0.975125
0.996408 1.00006 0.956232
0.994992 0.999968 0.940353
0.994686 0.999063 0.934158
0.994886 0.99944 0.971829
0.99586 1.00005 0.958811
0.99472 1.00002 0.939063
0.994639 0.999607 0.932399
1.00031 1.00231 0.991815
1.00025 1.00257 0.99167
1.00013 1.00264 0.991827
1.00029 1.0021 0.992072
1.00027 1.00218 0.992136
1.00029 1.00169 0.992643
0.998809 0.999406 0.996574
0.99895 0.998542 0.997536
1.00016 1.003 0.99152
1.00048 1.00244 0.991553
1.00006 1.00353 0.991092
1.00025 1.00256 0.991682
1.00005 1.00287 0.991779
0.997407 0.999147 0.997051
0.999964 1.00268 0.992168
0.99745 1.0003 0.999632
1.00009 1.00234 0.992286
0.995829 0.998797 0.997815
0.997414 1.002 0.998501
0.999597 1.00209 0.993535
0.993877 1.00105 0.981179
0.99381 1.00117 0.975856
0.99437 1.00181 0.955072
0.997392 1.0023 0.997792
0.99596 1.00257 0.995936
0.993922 1.00129 0.970797
0.995258 0.999319 0.962888
0.994762 0.999961 0.93678
0.994234 1.00152 0.963956
0.994711 0.999639 0.926285
0.996274 1.00336 0.998743
0.993885 0.999911 0.978199
0.994345 1.00209 0.955343
0.995023 0.999256 0.986146
0.99472 0.999804 0.920469
0.995204 0.999939 0.939249
0.995573 1.00039 0.958171
0.99521 1.00205 1.00056
0.993863 1.00031 0.972066
0.995059 1.00278 0.939705
0.994602 0.998174 0.921467
0.995807 0.999185 0.93265
0.995935 1.00004 0.958074
0.995847 0.999428 0.981111
0.997989 1.00113 0.997713
0.996792 0.999645 1.00135
0.996749 1.00183 0.999094
0.999936 1.00135 0.993458
0.99872 0.999276 0.99765
0.997991 1.00308 0.995132
0.998859 1.00371 0.993414
0.999909 1.00239 0.992999
0.999864 1.0043 0.990957
1.0007 1.00506 0.988351
0.999695 1.00366 0.99117
1.00077 1.00486 0.988429
1.00231 1.00476 0.986101
1.0035 1.00321 0.98515
1.00134 1.00443 0.987495
1.00181 1.00476 0.986622
1.00082 1.00487 0.988262
1.00067 1.00428 0.989441
1.00073 1.00436 0.989131
0.999899 1.00441 0.990354
0.999966 1.00482 0.989883
1.00055 1.00475 0.988986
1.00003 1.00221 0.992409
0.999958 1.00346 0.991354
0.999967 1.0044 0.9905
1.00003 1.00013 0.994473
1.00009 1.00144 0.993082
0.999888 1.0028 0.991964
1.00015 1.001 0.993446
1.0001 0.999848 0.994629
0.999826 0.998207 0.996729
1.00018 0.99969 0.994647
0.999922 0.998026 0.996743
0.99974 0.996894 0.999273
1 0.997888 0.996732
0.999837 0.996755 0.998783
0.999882 0.996665 0.99927
1.00032 1.00103 0.993071
1.00025 0.999893 0.994293
1.00029 1.00102 0.993083
1.00009 0.997823 0.996636
1.00023 0.999778 0.994371
1.00026 1.00099 0.993301
0.999957 0.996521 0.999274
1.00012 0.997654 0.996755
1.00021 0.999634 0.994463
1 0.996367 0.999303
1.00014 0.997525 0.996854
1.00003 0.996279 0.999318
0.993969 0.999689 0.976884
0.993955 1.00028 0.971606
0.994501 1.00155 0.952155
1.00022 1.00171 0.992527
1.0001 1.0023 0.992254
1.00027 1.00166 0.992581
1.00027 1.00162 0.992547
1.00026 1.00198 0.99225
1.0002 1.00195 0.99241
1.00029 1.00206 0.992161
0.994345 1.00193 0.953224
0.994309 1.00114 0.960106
0.994386 1.00193 0.954965
0.994669 0.999203 0.935873
0.994838 0.999835 0.972548
0.995306 1.00007 0.956128
0.99481 0.99996 0.941742
0.995325 0.999565 0.971218
0.995192 1.00007 0.954344
0.994873 0.99997 0.941531
0.994642 0.999553 0.93481
0.996054 0.997669 0.975258
0.995148 1.00008 0.953645
0.995109 0.999935 0.936075
0.994702 0.999832 0.924609
1.00007 1.00221 0.992394
1.0003 1.00229 0.991835
1.00025 1.00256 0.991656
1.0003 1.0021 0.992058
0.997546 0.999242 0.997376
0.997436 1.00016 0.999704
1.00028 1.00254 0.991589
1.00005 1.00278 0.991891
0.99991 1.00271 0.992693
1.00007 1.00234 0.992232
0.999494 1.00211 0.993484
0.995739 0.99962 0.99557
0.996952 1.00252 0.998785
0.999339 1.00222 0.993544
0.995551 0.999479 0.994772
0.997869 1.00268 0.997635
0.993849 1.00077 0.974968
0.993771 1.00034 0.983073
0.993744 1.00102 0.977586
0.996102 1.00367 0.998913
0.995345 0.998519 0.991574
0.993826 0.999815 0.979657
0.99679 1.00039 0.95218
0.995095 0.999914 0.940709
0.994379 1.0019 0.955153
0.994702 0.99985 0.921311
0.995466 1.00116 1.00084
0.993926 1.00011 0.972046
0.995167 1.00273 0.939217
0.994859 0.999588 0.984243
0.994592 0.998148 0.915522
0.997552 0.999861 0.935013
0.995299 1.00005 0.954179
0.99568 1.0022 0.997025
0.994575 1.00008 0.95321
0.995175 0.998789 0.924334
0.998289 0.997722 0.935673
0.995569 1.00055 0.958453
0.994905 0.999165 0.975727
0.997215 0.998986 1.00114
0.996633 1.00253 0.999036
0.998908 0.999004 0.998656
0.997798 1.00322 0.995444
0.998183 1.00375 0.99374
1.00159 1.00175 0.990078
1.00043 1.00421 0.990607
1.00093 1.00503 0.988227
1.00251 1.00306 0.986487
1.00085 1.00481 0.98834
1.00232 1.00483 0.985917
1.00386 1.00212 0.985224
1.00475 1.00029 0.985532
1.0031 1.00426 0.985257
1.00356 1.00322 0.984949
1.00109 1.00407 0.9883
1.00135 1.0044 0.98772
1.0018 1.00493 0.986529
1.00049 1.00449 0.989429
1.00059 1.00432 0.989424
1.00052 1.00421 0.989456
1.00006 1.00309 0.991443
0.999926 1.0043 0.990483
1.00006 1.00483 0.989995
0.999966 1.00069 0.994015
1.00006 1.00217 0.992405
1.00002 1.00336 0.991359
0.999739 0.998424 0.996674
1.00002 1.00015 0.994463
1.00011 1.00144 0.993068
1.0001 0.99985 0.994625
0.999832 0.99821 0.996727
0.999642 0.997079 0.999269
0.999926 0.998024 0.996744
0.999728 0.996925 0.999272
0.999806 0.996792 0.999273
1.00021 1.00182 0.992496
1.00034 1.00108 0.993
1.00027 1.00002 0.99415
1.00033 1.00104 0.993064
1.00005 0.998012 0.99652
1.00025 0.999912 0.99429
1.00028 1.00105 0.993119
0.999906 0.996685 0.999247
1.00009 0.997819 0.996643
1.00023 0.999782 0.994441
0.999963 0.996492 0.999281
1.00012 0.99765 0.996761
1.00001 0.996345 0.999308
0.994 1.00017 0.971582
0.993902 0.999608 0.97832
0.994015 1.00009 0.971583
1.00025 1.00167 0.992553
1.00008 1.00232 0.992211
1.00004 1.00268 0.991917
1.00009 1.00218 0.992271
1.00008 1.00269 0.991952
1.00027 1.00163 0.992552
1.00024 1.00199 0.992226
1.00019 1.00195 0.992408
1.00028 1.00206 0.99216
1.00009 1.00218 0.992444
0.994918 1.00249 0.939535
0.99437 1.00207 0.953047
0.994225 1.0013 0.964148
0.994648 0.999494 0.934952
0.99473 0.999999 0.937399
0.994869 0.999518 0.969974
0.995063 1.00007 0.958274
0.995521 0.997797 0.97163
0.995743 1.00006 0.95836
0.99489 0.999936 0.939822
0.994902 0.999817 0.922491
0.996077 0.995568 0.976139
0.995317 1.00006 0.959056
0.995728 0.999876 0.93923
0.995035 0.998151 0.920433
0.999376 1.00159 0.994146
1.00004 1.00229 0.992412
1.0003 1.00227 0.991855
0.995579 1.00027 0.99334
0.996713 1.00289 0.999048
1.00007 1.00235 0.992178
0.99934 1.00225 0.993433
0.999326 1.00226 0.99356
0.997628 1.0022 0.997518
0.995252 0.999536 0.994978
0.997875 1.00185 0.996678
0.995886 1.00111 0.994215
0.994486 1.00088 0.953838
0.993773 1.00055 0.976661
0.993657 0.999595 0.984967
0.995502 1.00047 1.00118
0.995252 0.999389 0.978762
0.993985 0.999989 0.97202
0.99687 1.00008 0.955259
0.995171 0.999893 0.939387
0.995212 1.00296 0.938745
0.994581 0.998145 0.909593
0.995748 1.00199 0.997308
0.994545 1.00088 0.952989
0.995159 0.999027 0.922401
0.994985 0.999085 0.97712
0.99836 0.998607 0.935658
0.996257 1.00003 0.955331
0.997017 0.999313 0.994419
0.994876 0.998069 0.93178
0.998522 0.996818 0.937566
0.998303 0.999115 0.953289
0.994861 0.999078 0.977294
0.996547 1.003 0.998963
0.998749 0.998929 0.99867
1.00256 0.997734 0.993432
0.997626 1.00368 0.994045
1.00097 1.002 0.990549
1.00331 0.998944 0.988676
1.00118 1.00497 0.988102
1.00255 1.00314 0.986542
1.00432 0.999672 0.986679
1.00233 1.00496 0.985734
1.00385 1.00218 0.985269
1.00506 0.998922 0.986267
1.00507 0.9988 0.986395
1.00417 1.00206 0.984949
1.00471 1.0003 0.985562
1.00241 1.00429 0.986171
1.00292 1.00426 0.985133
1.0036 1.00324 0.984748
1.00107 1.00388 0.988875
1.00103 1.00401 0.988577
1.00135 1.00439 0.987946
1.00042 1.00344 0.990458
1.0004 1.00442 0.989528
1.0005 1.00434 0.989406
0.999958 1.00155 0.993148
1.00011 1.00305 0.991446
0.999952 1.0042 0.990612
0.999641 0.998764 0.99699
0.999966 1.00071 0.993997
1.0001 1.00212 0.992401
0.999557 0.997333 0.998244
0.999739 0.99846 0.996899
1.00002 1.00018 0.994453
0.999837 0.998215 0.996726
0.99963 0.997121 0.999265
0.999716 0.996957 0.999271
1.00016 1.00218 0.992184
1.00032 1.00126 0.992871
1.00019 1.00187 0.992461
1.00024 1.00015 0.994061
1.00032 1.00111 0.993
0.999995 0.998202 0.996423
1.00026 1.00004 0.994148
1.00034 1.00105 0.993058
0.999846 0.996872 0.999218
1.00005 0.998009 0.996527
1.00024 0.999932 0.994286
0.999912 0.996653 0.999255
1.00009 0.997816 0.99665
0.999969 0.996464 0.999288
0.994861 1.00003 0.954675
0.993964 1.00028 0.971573
0.993828 0.999562 0.979766
1.00005 1.00282 0.991823
1.00025 1.00169 0.992578
1.00008 1.00235 0.992168
1.00012 1.00219 0.992304
1.00009 1.00262 0.991961
1.00006 1.0027 0.991912
1.00005 1.00301 0.991623
0.999965 1.00269 0.991937
1.00019 1.00195 0.992405
1.00026 1.00206 0.99216
1.00005 1.00222 0.9924
0.999698 1.00261 0.993003
0.994977 0.999464 0.922577
0.995106 1.00261 0.938982
0.994381 1.00222 0.952875
0.995103 0.999805 0.924417
0.995146 0.999932 0.939606
0.995147 1.00008 0.953813
0.99608 0.997905 0.96978
0.996252 0.995305 0.977959
0.99479 0.998148 0.914846
0.995547 1.00005 0.955462
0.997347 0.999873 0.934337
0.995571 0.997344 0.978832
0.995831 1.00003 0.960364
0.998518 0.998491 0.933483
0.999188 1.00058 0.995505
0.999531 1.00153 0.994125
0.999991 1.00238 0.99243
0.994903 0.999553 0.995142
0.997643 1.00149 0.997395
0.999353 1.00224 0.993576
0.99861 1.00159 0.996485
0.995666 1.00127 0.994404
0.997764 1.00084 0.99436
0.994807 0.999777 0.928885
0.994413 1.00047 0.957905
0.993724 1.00036 0.978355
0.995696 1.00233 0.997627
0.994913 0.999048 0.978043
0.994516 1.00129 0.95283
0.99529 1.00007 0.955379
0.998365 0.997853 0.930666
0.995232 0.999079 0.924061
0.997091 0.999413 0.994485
0.994894 0.998119 0.933064
0.999614 0.996095 0.933193
0.995004 0.999165 0.973252
0.997665 0.99888 0.958647
0.998562 0.998609 0.995124
0.999903 0.995439 0.932746
0.998694 0.997808 0.959441
0.995252 0.999133 0.972089
0.998463 0.998991 0.99873
1.00195 0.99741 0.99416
1.00377 0.997045 0.991193
1.00034 1.00229 0.991021
1.00323 0.999435 0.988598
1.00474 0.996766 0.988652
1.0026 1.00329 0.986597
1.00425 0.999847 0.986692
1.00495 0.997565 0.987814
1.00384 1.0022 0.985313
1.00506 0.998887 0.98626
1.00511 0.99764 0.98752
1.00513 0.998136 0.987008
1.00498 0.999779 0.985814
1.00508 0.998788 0.986426
1.00353 1.00258 0.985378
1.00415 1.00198 0.985074
1.00468 1.00032 0.985591
1.00182 1.00367 0.987692
1.0022 1.00425 0.986286
1.00273 1.00421 0.985007
1.001 1.00316 0.989723
1.00113 1.00385 0.988844
1.00098 1.00392 0.988853
1.00014 1.0023 0.992111
1.00047 1.00342 0.990467
1.00033 1.00435 0.989627
0.999601 0.999219 0.996084
1 1.00151 0.99313
1.00017 1.003 0.991449
0.999423 0.997599 0.999232
0.999651 0.998818 0.996451
0.999968 1.00072 0.993978
0.999536 0.997332 0.999249
0.999745 0.998476 0.996642
0.99962 0.997165 0.999261
1.00017 1.00245 0.99199
1.00018 1.00218 0.992175
1.00028 1.00156 0.992635
1.00019 1.00032 0.99399
1.00029 1.00127 0.992876
1.00019 1.00188 0.992426
0.999934 0.998375 0.996365
1.00024 1.00016 0.994061
1.00031 1.00112 0.992999
0.999778 0.997058 0.999195
0.999993 0.998198 0.996428
1.00025 1.00006 0.994146
0.999852 0.996837 0.999227
1.00004 0.998006 0.996533
0.999919 0.996618 0.999263
0.994914 0.999378 0.925583
0.994798 1.00008 0.954481
0.993929 1.00036 0.971561
0.999986 1.00292 0.991779
1.00019 1.00321 0.991347
0.999968 1.00323 0.991528
1.00014 1.0022 0.992336
1.00012 1.00255 0.992004
0.999994 1.00274 0.991871
1.00002 1.00268 0.991909
1.00002 1.00304 0.991592
0.999903 1.00363 0.991328
1.00017 1.00163 0.992692
1.00009 1.00218 0.992357
0.999697 1.00241 0.992943
0.999809 0.996775 0.931402
0.994969 0.999496 0.919566
0.995305 1.00273 0.938458
0.994632 0.998147 0.909262
0.996164 0.999312 0.938586
0.995834 1.00002 0.956864
0.996002 0.995074 0.975568
0.995278 0.997496 0.977063
0.997996 0.998656 0.93507
0.996392 1 0.95537
0.995785 0.997919 0.978384
0.998061 0.998943 0.953645
1.00156 0.999436 0.99299
0.999404 1.00049 0.995304
0.999639 1.00145 0.994113
0.995176 1.0017 0.994568
0.999094 1.00141 0.996289
0.998115 1.00114 0.993774
1.00105 0.999082 0.989944
0.999957 0.994871 0.935716
0.994822 0.999922 0.930891
0.99435 1.00018 0.961917
0.997195 0.999361 0.99462
0.994861 0.999169 0.972864
0.994914 0.998521 0.933181
0.99753 0.998722 0.952982
0.999922 0.997323 0.93839
0.998465 0.998864 0.993499
0.999938 0.995317 0.935229
1.00078 0.996577 0.953054
0.995298 0.998777 0.974915
0.999332 0.997056 0.994723
1.00034 0.996415 0.957373
0.995715 1.00035 0.977715
1.00131 0.997036 0.994876
1.00365 0.996635 0.991166
1.00499 0.995418 0.990103
1.00315 0.999885 0.988518
1.00465 0.996775 0.988644
1.00488 0.99597 0.989366
1.00414 0.999938 0.986706
1.00491 0.997567 0.987776
1.00509 0.996231 0.988856
1.00506 0.998846 0.986253
1.0051 0.997578 0.987537
1.00513 0.996784 0.988277
1.00515 0.997598 0.987607
1.00512 0.998046 0.987101
1.00511 0.998721 0.986583
1.00468 1.00044 0.985831
1.00499 0.999664 0.985846
1.00509 0.998773 0.986458
1.00295 1.00272 0.986342
1.00353 1.00268 0.985478
1.00413 1.00188 0.985199
1.00153 1.00299 0.988901
1.00186 1.00366 0.987658
1.00198 1.00425 0.9864
1.00046 1.00247 0.991333
1.00106 1.00313 0.989715
1.00118 1.00382 0.988813
0.999623 0.999839 0.995401
1.00019 1.00221 0.992108
1.00053 1.00338 0.990476
0.999403 0.997871 0.999151
0.999597 0.999299 0.996047
1.00004 1.00148 0.993112
0.999453 0.997632 0.998697
0.999657 0.998844 0.996436
0.999529 0.997411 0.999236
1.00023 1.00275 0.991563
1.00011 1.00252 0.991972
1.00018 1.00201 0.992331
1.00021 1.00219 0.992167
1.00025 1.00159 0.992637
1.00011 1.0006 0.993842
0.999858 0.998553 0.996332
1.00018 1.00032 0.993995
1.00026 1.00131 0.99288
0.999701 0.99723 0.99918
0.999931 0.998372 0.996368
1.00023 1.00017 0.994061
0.999785 0.997029 0.999202
0.99999 0.998198 0.996432
0.999859 0.996801 0.999236
0.999913 0.995126 0.936781
0.994942 0.999731 0.925661
0.994706 1.00013 0.954278
0.999929 1.00303 0.991736
0.999935 1.0034 0.991402
1.00008 1.00318 0.991472
1.0006 1.00331 0.990467
0.999915 1.00385 0.99108
1.00006 1.0027 0.991881
1.00001 1.00306 0.99156
0.999859 1.00348 0.991393
0.999885 1.00375 0.990561
1.00039 1.00221 0.991783
1.00339 1.00029 0.988302
0.999881 1.00182 0.992989
0.999765 1.00219 0.992882
1.00027 0.997124 0.95698
0.999169 0.996825 0.933469
0.99496 0.999373 0.920405
0.998423 0.998882 0.929487
0.995791 1.00009 0.956992
0.995541 0.99758 0.979484
0.995527 0.997932 0.980393
0.997235 0.999227 0.960212
0.997199 0.999636 0.977175
1.00383 0.99699 0.990748
1.00122 0.99927 0.993012
0.999599 1.00043 0.995097
0.998446 1.00131 0.993227
1.00178 1.00011 0.988593
1.00038 0.99541 0.954446
0.999945 0.995176 0.938146
0.994835 0.999782 0.932946
0.998313 0.999176 0.991853
0.994872 0.999032 0.97229
0.999916 0.995404 0.935967
0.999414 0.998221 0.959307
0.999161 0.998234 0.994994
1.00152 0.995553 0.957238
0.995668 0.999565 0.974626
1.00069 1.00067 0.991858
0.999783 0.997422 0.982288
1.00354 0.996232 0.991152
1.00498 0.995244 0.989882
1.00509 0.994934 0.990147
1.00453 0.996836 0.988634
1.0048 0.995972 0.989347
1.00506 0.99507 0.989917
1.00487 0.99758 0.987737
1.00509 0.996186 0.988842
1.00512 0.995815 0.989286
1.00508 0.997515 0.987553
1.00514 0.996817 0.988246
1.00513 0.996896 0.988369
1.00515 0.997471 0.98766
1.00512 0.998178 0.987129
1.00512 0.997952 0.987193
1.00511 0.998723 0.986578
1.00495 0.999258 0.986388
1.00409 1.001 0.986093
1.00467 1.00036 0.985815
1.005 0.99955 0.985878
1.00233 1.00256 0.987888
1.00289 1.00281 0.986427
1.00352 1.00279 0.985579
1.00082 1.00239 0.990698
1.00158 1.00298 0.988876
1.00191 1.00365 0.987624
0.99975 1.00039 0.994609
1.0005 1.00243 0.991339
1.00109 1.00312 0.989708
0.99942 0.998207 0.999013
0.999631 0.999895 0.99537
1.00024 1.00212 0.992107
0.999428 0.99793 0.999113
0.999594 0.999377 0.996008
0.999467 0.997681 0.999184
1.00069 1.00295 0.990549
1.00025 1.00268 0.991558
1.00022 1.00243 0.991795
1.00006 1.00256 0.991953
1.00016 1.00209 0.992264
1.00006 1.00106 0.993459
1.00023 1.0016 0.992639
1.00011 1.00059 0.99385
0.999767 0.998783 0.996275
0.999617 0.997409 0.999169
0.999854 0.998548 0.996335
1.00018 1.00032 0.993999
0.99971 0.99721 0.999184
0.999928 0.99837 0.99637
0.999791 0.996997 0.999209
1.00126 0.995132 0.959509
0.999925 0.995394 0.935379
0.994953 1.00026 0.924157
0.999896 1.00356 0.991277
0.99998 1.00312 0.991596
0.99994 1.00383 0.991127
1.00054 1.00329 0.990526
1.00098 1.00356 0.989427
1.00006 1.00368 0.99065
0.999815 1.00335 0.991458
1.00018 1.00386 0.990233
1.00033 1.00253 0.991513
1.00129 1.00207 0.989624
1.00342 1.00029 0.988854
1.00431 0.998555 0.987733
1.00294 1.0003 0.988773
0.999545 1.00217 0.993286
0.996289 0.99968 0.976346
1.00015 0.996496 0.956365
0.998849 0.997125 0.938507
0.998857 0.999477 0.953448
0.9953 0.998066 0.981721
0.997511 0.999252 0.981509
1.00146 0.99848 0.991719
1.00371 0.997011 0.991034
1.00118 0.999022 0.993033
1.00302 1.00119 0.987202
0.998447 0.996559 0.977902
1.00101 0.995093 0.960964
0.999921 0.995578 0.933694
0.999066 0.999046 0.995209
0.995435 0.999736 0.97672
1.00106 0.99562 0.957041
1.00075 1.00017 0.992005
0.999047 0.997278 0.98106
1.00346 1.00097 0.989293
1.00433 0.995973 0.989826
1.00492 0.995064 0.989651
1.00507 0.994949 0.990086
1.00508 0.995007 0.990203
1.00474 0.99598 0.989332
1.00506 0.99518 0.989875
1.0051 0.995248 0.989882
1.00509 0.996143 0.988827
1.00513 0.995836 0.989255
1.00512 0.996442 0.988882
1.00514 0.996852 0.988214
1.00513 0.9969 0.988287
1.00514 0.997734 0.987451
1.00516 0.997348 0.987713
1.00511 0.998092 0.987211
1.00499 0.998855 0.986741
1.0051 0.998746 0.986572
1.00495 0.999258 0.986381
1.00454 0.999811 0.98666
1.0033 1.00128 0.987161
1.00403 1.00107 0.986164
1.00465 1.00028 0.985799
1.00142 1.00213 0.989911
1.00234 1.00254 0.987888
1.00284 1.00289 0.986512
0.99987 1.00087 0.993894
1.00087 1.00241 0.990688
1.00163 1.00296 0.988851
0.999479 0.998602 0.998807
0.999785 1.00039 0.994598
1.00054 1.00238 0.991344
0.999461 0.998285 0.998947
0.999639 0.999956 0.995339
0.99946 0.997991 0.999069
1.00108 1.00333 0.989472
1.00072 1.00293 0.990588
1.00054 1.00266 0.991062
1.00025 1.00265 0.991553
1.00024 1.00246 0.991714
1.00013 1.00155 0.992847
1.00015 1.00216 0.992196
1.00006 1.00105 0.993468
0.999676 0.999107 0.996111
1.00011 1.00058 0.993858
0.999767 0.998759 0.996283
0.999539 0.99761 0.999152
0.999627 0.997386 0.999173
0.999852 0.998541 0.996338
0.999717 0.997187 0.999188
0.99738 0.99824 0.977961
1.00109 0.995636 0.953726
0.999885 0.995103 0.938777
1.00215 1.00269 0.988214
0.999973 1.00381 0.991174
1.00047 1.00328 0.990585
1.00017 1.00376 0.990573
1.00093 1.00368 0.989363
1.00112 1.00218 0.990203
1.00046 1.00395 0.989906
1.00035 1.00278 0.991244
1.00147 1.00201 0.989852
1.00347 1.00028 0.988395
1.00445 0.999049 0.987179
1.00455 0.997067 0.988995
1.00439 0.99864 0.987368
1.00258 1.00022 0.989244
1.0003 0.999017 0.993672
0.996564 0.999514 0.974924
0.99965 0.996992 0.956153
0.997639 0.998426 0.979857
1.00149 0.997344 0.993724
1.00317 0.99713 0.991307
1.00254 0.996037 0.989076
0.99765 0.99593 0.980349
1.0005 0.995152 0.954457
1.00064 0.999914 0.992151
0.9992 0.997268 0.979736
1.00339 0.999083 0.989508
1.00426 0.995785 0.989768
1.00506 0.996081 0.989976
1.00489 0.996262 0.990523
1.0051 0.994966 0.990026
1.00508 0.994975 0.990231
1.00512 0.995132 0.990064
1.00505 0.995275 0.989831
1.0051 0.995294 0.989884
1.00512 0.996008 0.989245
1.00513 0.995859 0.989224
1.00512 0.996426 0.98882
1.00515 0.997505 0.987673
1.00512 0.996906 0.988206
1.00513 0.997746 0.987467
1.00506 0.998598 0.986776
1.00511 0.998001 0.987293
1.00499 0.99878 0.98677
1.0047 0.999335 0.986716
1.00496 0.999251 0.986373
1.00455 0.999766 0.986593
1.0039 1.0003 0.987275
1.0022 1.00135 0.989279
1.00325 1.00137 0.98724
1.00396 1.00115 0.986234
1.00009 1.00112 0.99324
1.00144 1.00214 0.989901
1.00235 1.00252 0.987888
0.99948 0.99906 0.998592
0.999978 1.00076 0.993882
1.0009 1.00242 0.990678
0.999506 0.998688 0.998731
0.999822 1.00038 0.994586
0.999505 0.998354 0.998873
1.00184 1.00313 0.988114
1.00106 1.00332 0.989485
1.00098 1.00284 0.990189
1.00076 1.00291 0.990626
1.00055 1.00263 0.991078
1.00026 1.002 0.992206
1.00026 1.00249 0.991634
1.00008 1.00163 0.992847
0.999611 0.999568 0.99575
1.00005 1.00106 0.993478
0.999682 0.999055 0.996131
0.999486 0.997822 0.999109
0.999768 0.998739 0.996291
0.999545 0.997578 0.999159
0.999635 0.997366 0.999176
1.00129 0.998277 0.991555
0.997475 0.997748 0.974459
1.00027 0.995599 0.959908
1.00243 1.00129 0.988633
1.00421 1.00019 0.986638
1.0019 1.00264 0.98842
1.00027 1.00384 0.990495
1.00088 1.00381 0.989291
1.00147 1.00205 0.989978
1.00426 0.999364 0.987652
1.00159 1.00197 0.99008
1.0034 1.00028 0.987937
1.00436 0.999086 0.987368
1.00506 0.99782 0.987451
1.00492 0.995931 0.989522
1.00462 0.997204 0.988772
1.00441 0.998785 0.987007
1.00072 0.998899 0.993785
0.996224 1.00011 0.972999
1.00167 0.996316 0.99574
1.00503 0.995433 0.990719
1.00233 0.996604 0.989223
0.998316 0.995874 0.977144
1.0035 0.997445 0.989726
1.00421 0.995973 0.989717
1.00506 0.995543 0.990126
1.00495 0.995787 0.990336
1.00508 0.995074 0.990052
1.00515 0.995341 0.989626
1.00509 0.994954 0.990256
1.00512 0.995066 0.990052
1.00514 0.995893 0.989323
1.0051 0.995344 0.989886
1.00512 0.996093 0.989126
1.00513 0.997165 0.988073
1.00512 0.996407 0.988757
1.00514 0.997519 0.987684
1.00513 0.99849 0.986782
1.00512 0.997759 0.987482
1.00506 0.998599 0.986789
1.00482 0.99923 0.986624
1.00499 0.998709 0.9868
1.0047 0.999317 0.986707
1.00413 0.999874 0.987272
1.00455 0.999717 0.986526
1.00386 1.00029 0.987225
1.00278 1.00053 0.98905
1.00041 1.00094 0.992782
1.00219 1.00137 0.989279
1.00321 1.00146 0.987318
0.999431 0.999588 0.998397
1.00018 1.00104 0.99322
1.00145 1.00217 0.989892
0.999497 0.999176 0.998523
1.00006 1.0007 0.993867
0.999535 0.998777 0.998656
1.00313 1.00172 0.986776
1.00183 1.00307 0.98801
1.00166 1.00278 0.988947
1.00103 1.00331 0.989497
1.00092 1.00285 0.990215
1.00049 1.00232 0.991535
1.00055 1.00261 0.991094
1.00021 1.00207 0.992204
0.999662 1.00007 0.995166
1.00005 1.00169 0.992848
0.999625 0.999495 0.995776
0.999472 0.99809 0.999002
0.999688 0.999006 0.996153
0.999482 0.997788 0.999126
0.999551 0.997551 0.999165
1.00506 0.995512 0.98991
1.00144 0.997874 0.990513
0.997104 0.996919 0.975227
1.00464 0.999231 0.986944
1.00208 1.00093 0.989648
1.005 0.998809 0.986594
1.00432 1.00028 0.986575
1.00166 1.00257 0.988635
1.00508 0.99815 0.987034
1.00181 1.00189 0.989761
1.00444 0.999366 0.987239
1.00512 0.996948 0.988072
1.00433 0.999115 0.987558
1.00502 0.997776 0.987476
1.00487 0.995973 0.989629
1.00452 0.997327 0.988539
1.00098 0.998732 0.993928
1.00516 0.99564 0.989239
1.00504 0.995804 0.990719
1.00214 0.996846 0.989348
1.00506 0.994901 0.990283
1.00493 0.995314 0.990152
1.00508 0.995044 0.990173
1.00515 0.995309 0.98967
1.00518 0.995811 0.989247
1.00512 0.994977 0.990041
1.00514 0.995851 0.989331
1.0051 0.996959 0.988356
1.00513 0.996188 0.989006
1.00513 0.997258 0.987966
1.00516 0.998421 0.986819
1.00514 0.997534 0.987696
1.00512 0.998495 0.986792
1.00492 0.999188 0.986486
1.00506 0.998599 0.986801
1.00482 0.999229 0.986629
1.00427 0.99971 0.987164
1.0047 0.999297 0.986698
1.00411 0.999882 0.987277
1.00303 1.00014 0.988976
1.00382 1.00027 0.987175
1.00276 1.00055 0.989047
1.00065 1.0006 0.993803
0.99955 0.999933 0.995941
1.00049 1.00088 0.993338
1.00218 1.00139 0.989279
0.999468 0.999712 0.998324
1.00031 1.00091 0.993199
0.999515 0.999272 0.998448
1.00511 0.998644 0.986758
1.00435 0.999844 0.986638
1.0033 1.00171 0.986677
1.00251 1.00224 0.987842
1.00183 1.00302 0.987906
1.00161 1.0028 0.988973
1.00093 1.00232 0.990729
1.00086 1.00285 0.99024
1.00043 1.00233 0.991549
0.999823 1.00054 0.994439
1.00016 1.00215 0.992203
0.999648 1.00004 0.99518
0.999467 0.998469 0.998818
0.999639 0.999416 0.9958
0.999452 0.998036 0.999043
0.999479 0.997755 0.999141
1.00517 0.996184 0.988741
1.00511 0.995532 0.990316
1.00174 0.9975 0.989471
1.00514 0.998361 0.98678
1.00447 0.999308 0.987237
1.00175 1.00059 0.990642
1.00502 0.998919 0.986596
1.00444 1.00037 0.986512
1.0051 0.997196 0.988217
1.00507 0.998145 0.98699
1.00462 0.999391 0.986822
1.00512 0.996937 0.988079
1.00502 0.997748 0.987499
1.00488 0.995998 0.989751
1.00516 0.996071 0.9892
1.00517 0.995637 0.989305
1.00506 0.996178 0.990724
1.00512 0.995019 0.99029
1.00516 0.995314 0.989713
1.00517 0.995706 0.989363
1.00514 0.997021 0.988273
1.00514 0.995821 0.989339
1.0051 0.99698 0.988327
1.00516 0.998285 0.98696
1.00513 0.997349 0.987858
1.00515 0.99842 0.986832
1.00502 0.999187 0.986326
1.00511 0.9985 0.986801
1.00492 0.999187 0.986494
1.0044 0.999676 0.986962
1.00482 0.999229 0.986634
1.00427 0.999713 0.987164
1.00317 1.00002 0.988847
1.0041 0.999889 0.987281
1.00303 1.00014 0.98897
1.00082 1.00023 0.9939
1.00274 1.00057 0.989044
1.00078 1.00053 0.993761
0.99961 1.00012 0.99586
0.999468 1.00011 0.997037
1.00064 1.0008 0.99381
0.999501 0.999829 0.99825
1.00515 0.998456 0.986776
1.00483 0.99907 0.986924
1.00511 0.998563 0.986741
1.00347 1.0009 0.987325
1.0044 0.999858 0.986615
1.00346 1.0017 0.986578
1.00251 1.00227 0.987833
1.00159 1.00197 0.989816
1.00155 1.00282 0.989
1.00089 1.0023 0.990748
1.00003 1.00092 0.993717
1.00037 1.00235 0.991562
0.999749 1.0006 0.994451
0.999415 0.999025 0.998593
0.999631 1.00001 0.995195
0.999448 0.998391 0.998887
0.999442 0.997988 0.99908
1.00513 0.99658 0.988652
1.00516 0.996178 0.988745
1.00512 0.995548 0.990696
1.00513 0.997763 0.987508
1.00514 0.998363 0.986806
1.00428 0.99938 0.987537
1.00504 0.999023 0.986598
1.0051 0.997199 0.988096
1.00507 0.998142 0.986946
1.0051 0.996939 0.988087
1.00512 0.996868 0.988448
1.00515 0.996126 0.989102
1.00519 0.995613 0.989371
1.00512 0.997402 0.987856
1.00517 0.995594 0.989479
1.00514 0.997031 0.988262
1.00515 0.998056 0.987309
1.0051 0.996999 0.988298
1.00516 0.998281 0.986968
1.00511 0.999136 0.986214
1.00514 0.998423 0.986845
1.005 0.999187 0.986339
1.00454 0.99971 0.986675
1.00491 0.999186 0.986502
1.0044 0.999674 0.986964
1.00328 0.99999 0.988663
1.00426 0.999715 0.987165
1.00318 1 0.988843
1.00094 1.00003 0.993922
1.00303 1.00013 0.988963
1.00092 1.00018 0.993852
0.999646 1.00003 0.995937
1.00091 1.00044 0.993726
0.999428 1.00029 0.995959
0.999234 1.00031 0.99833
1.00515 0.998422 0.986777
1.00495 0.998933 0.986697
1.00517 0.998461 0.986747
1.0041 0.999826 0.987561
1.0048 0.998949 0.986885
1.0051 0.998483 0.986724
1.00241 1.00109 0.989128
1.00352 1.00091 0.987297
1.00446 0.99987 0.986593
1.00251 1.00229 0.987823
1.00158 1.00193 0.98983
1.00027 1.00109 0.993091
1.00085 1.00228 0.990767
0.999915 1.00103 0.993737
0.999339 0.999685 0.998384
0.999682 1.00066 0.994462
0.999411 0.998903 0.998678
0.999434 0.998304 0.998949
1.00512 0.99728 0.987941
1.00512 0.996505 0.98868
1.00517 0.996181 0.988749
1.00512 0.997738 0.98753
1.00514 0.998367 0.986832
1.0051 0.997203 0.987975
1.00511 0.997455 0.987914
1.00512 0.996938 0.988394
1.00514 0.996178 0.989005
1.00513 0.997387 0.987926
1.00513 0.998073 0.987252
1.00513 0.997042 0.988252
1.00515 0.998132 0.987165
1.00513 0.998913 0.986418
1.00515 0.998273 0.986976
1.00509 0.999136 0.986229
1.00471 0.999681 0.986386
1.00498 0.999183 0.986353
1.00454 0.999705 0.986679
1.00341 1.00001 0.988398
1.0044 0.999671 0.986966
1.00329 0.999977 0.988661
1.00102 0.999997 0.993801
1.00319 0.999986 0.988839
1.00102 0.999996 0.993854
0.99972 0.999949 0.99592
1.00102 1.00013 0.993813
0.999479 1.00012 0.996047
0.999252 1.00051 0.996043
1.00514 0.998047 0.987268
1.00507 0.998903 0.986436
1.00516 0.998333 0.986861
1.00439 0.999469 0.987294
1.00496 0.998968 0.986703
1.00518 0.998467 0.986718
1.003 1.00021 0.988917
1.00412 0.999741 0.987426
1.00477 0.998832 0.986845
1.00057 1.00085 0.992707
1.00243 1.00108 0.989127
1.00357 1.00092 0.987269
1.00157 1.00191 0.989845
1.00016 1.00119 0.993115
0.999348 1.00026 0.998213
0.999805 1.00114 0.993755
0.999331 0.999541 0.998461
0.999408 0.998771 0.998753
1.00511 0.997584 0.987721
1.00512 0.997256 0.987972
1.00512 0.996431 0.988707
1.00512 0.997715 0.987553
1.00512 0.998119 0.987232
1.00511 0.997461 0.98793
1.00512 0.997009 0.98834
1.00513 0.997375 0.987997
1.00513 0.998024 0.987296
1.00512 0.998809 0.986631
1.00515 0.998208 0.987021
1.00512 0.999001 0.98634
1.00482 0.999502 0.986288
1.00506 0.999139 0.986243
1.0047 0.999683 0.986395
1.0036 0.999992 0.988072
1.00453 0.999706 0.986683
1.00343 0.999998 0.988396
1.00113 1.00005 0.992441
1.00331 0.99996 0.988659
1.0011 0.999962 0.99317
0.999713 0.999965 0.998131
1.0011 0.999975 0.993789
0.999573 0.999965 0.99604
0.999325 1.00023 0.996139
1.00513 0.99801 0.987359
1.0051 0.998778 0.986567
1.00514 0.9981 0.987229
1.00462 0.999274 0.986749
1.00507 0.998906 0.986509
1.00517 0.998243 0.986945
1.00325 0.99979 0.988586
1.0044 0.999483 0.987288
1.00496 0.999001 0.986708
1.00084 1.00032 0.992675
1.00301 1.00016 0.988811
1.00414 0.99965 0.987291
0.999424 1.0005 0.998139
1.00052 1.00089 0.992724
1.00244 1.00106 0.989126
1.00005 1.00126 0.993143
0.999295 1.00012 0.998274
0.99932 0.999377 0.99854
1.00512 0.998089 0.987271
1.00511 0.997579 0.987729
1.00511 0.997231 0.988002
1.00511 0.998767 0.986634
1.00511 0.998073 0.98728
1.00512 0.997468 0.987945
1.00513 0.997971 0.987341
1.00512 0.998797 0.986633
1.00485 0.999396 0.986595
1.00511 0.999091 0.986263
1.00481 0.999574 0.986385
1.00376 0.999873 0.987626
1.00469 0.99968 0.986403
1.0036 0.999989 0.988072
1.00125 1.00008 0.992175
1.00344 0.99999 0.988393
1.00114 1.00004 0.99243
0.999748 0.999975 0.998088
1.00112 0.999947 0.992602
0.999656 0.999938 0.997071
0.999429 0.999972 0.996156
1.00513 0.998234 0.987118
1.00511 0.998716 0.986573
1.00513 0.997991 0.987356
1.00472 0.999298 0.986714
1.0051 0.998803 0.986505
1.00513 0.998153 0.987191
1.00347 0.999646 0.988316
1.00463 0.999348 0.986888
1.00508 0.99891 0.986581
1.00102 0.999963 0.992701
1.00327 0.999791 0.988556
1.00441 0.999494 0.987282
0.999542 1.00036 0.998145
1.00083 1.00032 0.992682
1.00302 1.00012 0.988704
0.99939 1.00039 0.998154
1.00045 1.00092 0.992746
0.999246 0.999988 0.998342
1.0051 0.99866 0.986772
1.00512 0.99811 0.987222
1.00511 0.997573 0.987737
1.00481 0.999285 0.986757
1.00511 0.998723 0.986695
1.00511 0.998035 0.987328
1.00512 0.998784 0.986636
1.00485 0.999401 0.98659
1.00382 0.999786 0.987613
1.0048 0.999649 0.986482
1.00375 0.999909 0.987736
1.00138 1.00007 0.991955
1.0036 0.999983 0.988074
1.00126 1.00008 0.992165
0.999821 0.999992 0.998006
1.00115 1.00004 0.992419
0.999773 0.999976 0.998058
0.999717 0.999868 0.995883
1.0051 0.998728 0.986684
1.00514 0.998147 0.987146
1.00473 0.999274 0.986729
1.00511 0.99872 0.986573
1.00513 0.99797 0.987353
1.00359 0.999672 0.988385
1.00471 0.999297 0.986709
1.00511 0.998827 0.986443
1.00117 0.999844 0.992552
1.00348 0.999693 0.988407
1.00463 0.999426 0.987027
0.99969 1.00012 0.998123
1.00102 0.999955 0.99271
1.00328 0.99979 0.988526
0.999518 1.00034 0.998134
1.00082 1.00032 0.992684
0.999319 1.00035 0.998186
1.00476 0.999246 0.986886
1.0051 0.998686 0.986738
1.00512 0.998132 0.987175
1.00376 0.999726 0.987766
1.00481 0.999297 0.986757
1.00511 0.998675 0.986756
1.00485 0.999408 0.986585
1.00382 0.999784 0.987601
1.00144 1.00005 0.991878
1.00374 0.999942 0.987845
1.00138 1.00006 0.99195
0.999914 1.00001 0.997923
1.00127 1.00009 0.992155
0.999854 0.999996 0.997975
0.999799 0.999978 0.998024
1.00473 0.999263 0.986765
1.0051 0.998638 0.986733
1.00514 0.99806 0.987175
1.00362 0.999708 0.988304
1.00473 0.999276 0.986721
1.0051 0.998724 0.986574
1.00126 0.999882 0.992344
1.00359 0.999681 0.98838
1.00471 0.999297 0.986704
0.999812 0.999976 0.998053
1.00116 0.999849 0.992561
1.00349 0.999732 0.988498
0.999646 1.00015 0.998135
1.00101 0.999957 0.992718
0.999499 1.00032 0.998123
1.00371 0.999781 0.988084
1.00477 0.999213 0.986781
1.0051 0.99871 0.986704
1.00142 0.999997 0.991961
1.00378 0.99972 0.987745
1.00481 0.999309 0.986757
1.00383 0.99978 0.98759
1.00144 1.00003 0.991882
0.999974 1.00001 0.997861
1.00138 1.00006 0.991944
0.999937 1.00001 0.997893
0.999882 1 0.997946
1.00366 0.999751 0.988205
1.00473 0.999208 0.986752
1.0051 0.998549 0.986781
1.00136 0.99998 0.993328
1.00363 0.999708 0.988298
1.00472 0.999278 0.986713
0.999869 0.999947 0.99798
1.00126 0.999903 0.992349
1.00359 0.999689 0.988374
0.99977 1.00001 0.998082
1.00115 0.999865 0.99257
0.999618 1.00016 0.998138
1.00141 0.99999 0.992007
1.00371 0.999742 0.987986
1.00478 0.999177 0.986676
0.999971 1 0.997867
1.00141 1 0.991963
1.00379 0.999716 0.987723
1.00143 1.00003 0.991883
0.99998 1.00001 0.997859
0.999966 1.00001 0.997875
1.00144 0.999993 0.993203
1.00366 0.999745 0.988205
1.00474 0.999153 0.986739
0.999652 0.999983 0.998182
1.0013 0.999985 0.992208
1.00364 0.999708 0.988292
0.99985 0.999966 0.99801
1.00126 0.999929 0.992354
0.999736 1.00003 0.998108
0.999936 1 0.995482
1.00142 0.999989 0.992609
1.00371 0.999705 0.987887
0.999965 1 0.99787
1.0014 1 0.99197
0.999988 1.00001 0.997849
0.999659 1.00001 0.995778
1.00138 0.999993 0.992675
1.00367 0.99974 0.988205
0.999761 0.999988 0.996877
1.0013 0.999984 0.992208
0.999825 0.999983 0.998037
0.999935 0.999997 0.997891
1.00136 0.999993 0.992072
0.999947 1 0.997879
0.999786 0.999996 0.996842
1.00133 0.999994 0.992135
0.999869 0.999977 0.997977
0.999919 0.999993 0.997911
0.999891 0.999986 0.997938

TENSORS stress float
0.00141753 -5.12762e-05 0.000121189
-5.12762e-05 0.000446434 -1.40697e-05
0.000121189 -1.40697e-05 0.000425379
0.00415352 -9.58705e-05 0.000113053
-9.58705e-05 0.00198388 7.34543e-06
0.000113053 7.34543e-06 0.00197322
0.00137398 2.51223e-05 6.39498e-05
2.51223e-05 0.000439393 -4.33749e-06
6.39498e-05 -4.33749e-06 0.000406799
0.00169579 -3.57057e-05 0.000126172
-3.57057e-05 0.000577213 -9.6172e-06
0.000126172 -9.6172e-06 0.00055794
0.00156446 -4.87865e-05 0.00012216
-4.87865e-05 0.000520579 -1.32234e-05
0.00012216 -1.32234e-05 0.000499685
0.0012368 -3.71597e-05 0.00011272
-3.71597e-05 0.000345598 -1.26094e-05
0.00011272 -1.26094e-05 0.000328142
0.00131323 -1.20939e-05 1.10628e-05
-1.20939e-05 0.00033389 -7.50433e-06
1.10628e-05 -7.50433e-06 0.000264259
0.0040119 -0.000122794 6.7937e-06
-0.000122794 0.00190659 -8.12966e-07
6.7937e-06 -8.12966e-07 0.00189431
0.00485722 -8.96608e-05 2.87325e-05
-8.96608e-05 0.00235687 1.84151e-06
2.87325e-05 1.84151e-06 0.0023405
0.00417718 -0.000265104 -7.96046e-06
-0.000265104 0.00204281 4.5987e-06
-7.96046e-06 4.5987e-06 0.00199845
0.00137061 -4.00521e-06 9.7233e-05
-4.00521e-06 0.000413193 7.02952e-06
9.7233e-05 7.02952e-06 0.000402354
0.000754216 8.94181e-05 1.26549e-05
8.94181e-05 3.07268e-05 8.88357e-06
1.26549e-05 8.88357e-06 -2.95673e-05
0.00165514 -1.81262e-05 0.000142501
-1.81262e-05 0.000544696 1.62748e-06
0.000142501 1.62748e-06 0.000526116
0.00124818 4.06848e-07 1.67547e-05
4.06848e-07 0.000335788 1.72862e-06
1.67547e-05 1.72862e-06 0.000305691
0.00140168 6.28997e-05 -7.19105e-06
6.28997e-05 0.000459083 4.25427e-06
-7.19105e-06 4.25427e-06 0.000422957
0.00147484 -2.47306e-05 5.00685e-05
-2.47306e-05 0.000460521 -2.99276e-06
5.00685e-05 -2.99276e-06 0.000437431
0.00126888 2.91517e-05 5.71945e-05
2.91517e-05 0.000380972 -4.13754e-06
5.71945e-05 -4.13754e-06 0.000351272
0.00143043 1.85638e-06 5.74829e-05
1.85638e-06 0.000454535 -4.79691e-06
5.74829e-05 -4.79691e-06 0.000427899
0.00140474 -5.64496e-05 -2.42726e-05
-5.64496e-05 0.00037046 1.23546e-06
-2.42726e-05 1.23546e-06 0.000310104
0.00510942 -8.71045e-05 0.000152029
-8.71045e-05 0.00248341 -2.89372e-06
0.000152029 -2.89372e-06 0.00247845
0.00167158 -2.24607e-05 0.000129051
-2.24607e-05 0.000560567 -7.49049e-06
0.000129051 -7.49049e-06 0.000540994
0.00166586 -4.42072e-05 0.000124041
-4.42072e-05 0.000566494 -1.15815e-05
0.000124041 -1.15815e-05 0.000546728
0.00144944 -5.7638e-05 2.97806e-05
-5.7638e-05 0.000355863 -4.50873e-06
2.97806e-05 -4.50873e-06 0.000299501
0.00140311 -3.51356e-05 1.95859e-05
-3.51356e-05 0.000354992 -6.1979e-06
1.95859e-05 -6.1979e-06 0.000293657
0.00115077 1.04136e-05 9.02321e-05
1.04136e-05 0.00029573 -1.00251e-05
9.02321e-05 -1.00251e-05 0.0002794
0.00113617 -1.0356e-05 1.00874e-05
-1.0356e-05 0.000257966 -7.19207e-06
1.00874e-05 -7.19207e-06 0.000190554
0.00186044 -0.00015803 8.68304e-06
-0.00015803 0.000504303 -3.80872e-06
8.68304e-06 -3.80872e-06 0.000396993
0.0038563 -0.000146037 -8.64233e-05
-0.000146037 0.00182235 -4.22256e-06
-8.64233e-05 -4.22256e-06 0.00180776
0.00311353 -1.7819e-05 -7.19055e-05
-1.7819e-05 0.00138648 -2.83672e-06
-7.19055e-05 -2.83672e-06 0.0013657
0.0027435 -0.000101386 -4.96524e-05
-0.000101386 0.00121073 -1.74776e-06
-4.96524e-05 -1.74776e-06 0.00118307
0.00362179 -0.000123794 4.88533e-06
-0.000123794 0.00168104 -3.45768e-07
4.88533e-06 -3.45768e-07 0.00167285
0.000649651 7.77225e-05 -8.19966e-08
7.77225e-05 -2.21428e-05 -3.12875e-07
-8.19966e-08 -3.12875e-07 -8.16684e-05
0.00155379 4.55005e-05 0.000129249
4.55005e-05 0.000500228 8.83216e-06
0.000129249 8.83216e-06 0.000480236
0.00177073 7.92482e-05 0.000128252
7.92482e-05 0.000636784 1.16771e-05
0.000128252 1.16771e-05 0.000617314
0.00246647 0.000131152 7.87898e-05
0.000131152 0.000929016 9.21348e-06
7.87898e-05 9.21348e-06 0.000877203
0.00298891 -0.000141903 1.47114e-05
-0.000141903 0.00132884 1.55185e-06
1.47114e-05 1.55185e-06 0.00131852
0.00235566 0.000111629 6.81315e-05
0.000111629 0.000908588 9.2566e-06
6.81315e-05 9.2566e-06 0.0008561
0.000675516 4.07847e-05 1.13977e-05
4.07847e-05 -4.59357e-06 1.06649e-05
1.13977e-05 1.06649e-05 -5.66619e-05
0.000949793 0.000117181 5.29209e-06
0.000117181 8.88888e-05 2.5462e-06
5.29209e-06 2.5462e-06 -1.92272e-05
0.00259314 -9.08308e-05 5.28672e-05
-9.08308e-05 0.00109338 2.55897e-06
5.28672e-05 2.55897e-06 0.00109799
0.00516628 4.75351e-05 1.36333e-06
4.75351e-05 0.0025085 -1.03441e-06
1.36333e-06 -1.03441e-06 0.00250646
0.00317599 2.83499e-05 -5.66509e-05
2.83499e-05 0.00140823 -1.22091e-06
-5.66509e-05 -1.22091e-06 0.00139054
0.00518632 8.07648e-05 0.000154097
8.07648e-05 0.00252263 1.19447e-06
0.000154097 1.19447e-06 0.00251832
0.00134283 -8.9013e-06 1.29129e-05
-8.9013e-06 0.000388598 1.26391e-06
1.29129e-05 1.26391e-06 0.000357594
0.000747057 4.12984e-07 1.57886e-05
4.12984e-07 -6.56445e-05 2.0986e-06
1.57886e-05 2.0986e-06 -0.000128709
0.00484719 0.000100573 5.86109e-05
0.000100573 0.00234218 3.8272e-06
5.86109e-05 3.8272e-06 0.00232841
0.00248897 2.89102e-05 7.97034e-05
2.89102e-05 0.000911699 4.79565e-06
7.97034e-05 4.79565e-06 0.000866661
0.00121307 -4.52836e-05 -2.8136e-05
-4.52836e-05 0.000325071 3.19366e-06
-2.8136e-05 3.19366e-06 0.000295974
0.00133065 -8.88224e-07 -1.97777e-05
-8.88224e-07 0.000402232 3.55231e-06
-1.97777e-05 3.55231e-06 0.000373428
0.00134256 0.000117658 2.42168e-06
0.000117658 0.000446067 5.45761e-06
2.42168e-06 5.45761e-06 0.000400047
0.00144299 -8.01909e-05 -6.61173e-05
-8.01909e-05 0.000383533 9.16572e-06
-6.61173e-05 9.16572e-06 0.000328634
0.00329367 3.04973e-05 -6.10817e-05
3.04973e-05 0.00148016 -1.04578e-06
-6.10817e-05 -1.04578e-06 0.00145522
0.00147119 -3.39508e-05 5.20239e-05
-3.39508e-05 0.000458583 -1.85126e-06
5.20239e-05 -1.85126e-06 0.000433406
0.00115125 4.45055e-05 4.44415e-05
4.45055e-05 0.000308445 -3.18379e-06
4.44415e-05 -3.18379e-06 0.000284403
0.00146871 -1.73403e-05 5.24416e-05
-1.73403e-05 0.000462325 -4.18994e-06
5.24416e-05 -4.18994e-06 0.00043894
0.00148978 -5.91933e-05 -1.87632e-05
-5.91933e-05 0.000375262 6.68843e-07
-1.87632e-05 6.68843e-07 0.000321631
0.0012754 -3.36404e-05 -2.52907e-05
-3.36404e-05 0.000326987 3.97218e-07
-2.52907e-05 3.97218e-07 0.000264908
0.00146561 -6.75563e-05 -2.06357e-05
-6.75563e-05 0.000382272 1.23568e-06
-2.06357e-05 1.23568e-06 0.000326092
0.00191948 -0.000159815 -4.21708e-06
-0.000159815 0.000534914 1.11314e-06
-4.21708e-06 1.11314e-06 0.000426975
0.00513155 6.33269e-05 0.000144257
6.33269e-05 0.00249046 -3.20342e-08
0.000144257 -3.20342e-08 0.00248838
0.0016837 -8.2984e-06 0.000134045
-8.2984e-06 0.000563098 -5.09756e-06
0.000134045 -5.09756e-06 0.000542997
0.00234537 6.6768e-05 1.56295e-05
6.6768e-05 0.000843151 -1.30585e-06
1.56295e-05 -1.30585e-06 0.000786129
0.00143668 -6.3645e-05 2.93512e-05
-6.3645e-05 0.000346557 -4.03886e-06
2.93512e-05 -4.03886e-06 0.000288259
0.00144925 -5.2118e-05 2.63715e-05
-5.2118e-05 0.000361931 -5.24848e-06
2.63715e-05 -5.24848e-06 0.000304792
0.00194648 -0.000102048 9.11294e-06
-0.000102048 0.00047872 -2.1625e-06
9.11294e-06 -2.1625e-06 0.000382535
0.00150275 -0.000128785 1.10962e-05
-0.000128785 0.000266474 -4.00149e-06
1.10962e-05 -4.00149e-06 0.000161933
0.00114149 4.34368e-05 6.7744e-05
4.34368e-05 0.000279904 -8.00081e-06
6.7744e-05 -8.00081e-06 0.000266478
0.000880538 1.76303e-05 8.18225e-06
1.76303e-05 0.000138639 -5.58099e-06
8.18225e-06 -5.58099e-06 8.2841e-05
0.00164395 -0.000148187 6.21778e-06
-0.000148187 0.0004412 -3.49977e-06
6.21778e-06 -3.49977e-06 0.000334153
0.0012748 -0.00015377 5.72679e-06
-0.00015377 9.6056e-05 -1.76067e-06
5.72679e-06 -1.76067e-06 -3.89464e-05
0.00494654 1.16538e-05 -0.000139766
1.16538e-05 0.00239695 -8.16204e-06
-0.000139766 -8.16204e-06 0.0023938
0.00344306 -0.00013444 -7.32705e-05
-0.00013444 0.00158178 -2.89291e-06
-7.32705e-05 -2.89291e-06 0.00157306
0.00421762 -0.000148705 -9.56816e-05
-0.000148705 0.00203332 -6.49051e-06
-9.56816e-05 -6.49051e-06 0.00201382
0.000553667 7.36464e-05 -1.09516e-05
7.36464e-05 -7.11472e-05 -9.21529e-06
-1.09516e-05 -9.21529e-06 -0.000130111
0.00511504 6.53529e-05 -2.67553e-06
6.53529e-05 0.00248059 -1.00452e-06
-2.67553e-06 -1.00452e-06 0.00247834
0.00488511 -6.50449e-05 -6.80139e-06
-6.50449e-05 0.00238382 4.17169e-07
-6.80139e-06 4.17169e-07 0.00237103
0.000599785 0.000103005 -5.81925e-07
0.000103005 -0.000105952 -2.567e-07
-5.81925e-07 -2.567e-07 -0.000172331
0.00204147 -9.13223e-05 -3.03531e-05
-9.13223e-05 0.000793793 -1.96934e-07
-3.03531e-05 -1.96934e-07 0.000783678
0.000616585 0.000109164 -4.99069e-07
0.000109164 -5.39796e-05 -8.36695e-08
-4.99069e-07 -8.36695e-08 -0.000117561
0.00125275 2.0137e-05 1.9191e-05
2.0137e-05 0.000324526 2.58357e-07
1.9191e-05 2.58357e-07 0.00027811
0.000880195 0.00011073 2.9913e-07
0.00011073 4.90461e-05 -1.8087e-07
2.9913e-07 -1.8087e-07 -5.79828e-05
0.00289493 -9.63068e-05 6.79492e-05
-9.63068e-05 0.00126324 2.8313e-06
6.79492e-05 2.8313e-06 0.00126565
0.000636116 -6.78606e-05 -1.20199e-06
-6.78606e-05 -3.22528e-06 5.46175e-06
-1.20199e-06 5.46175e-06 -3.20315e-05
0.000723991 7.3796e-05 1.65783e-05
7.3796e-05 -5.82843e-05 7.75525e-06
1.65783e-05 7.75525e-06 -0.000122124
0.000761322 0.000115675 1.99693e-05
0.000115675 -4.88042e-07 1.17475e-05
1.99693e-05 1.17475e-05 -6.8791e-05
0.00106083 0.000113951 1.03475e-05
0.000113951 9.78548e-07 4.21414e-06
1.03475e-05 4.21414e-06 -0.000112059
0.00177102 -3.0239e-05 3.81617e-05
-3.0239e-05 0.000621713 4.85241e-06
3.81617e-05 4.85241e-06 0.000587862
0.00100206 0.000125852 6.79539e-06
0.000125852 6.96267e-05 4.34118e-06
6.79539e-06 4.34118e-06 -4.17575e-05
0.000931284 9.68064e-05 4.79494e-06
9.68064e-05 0.000119374 2.85036e-06
4.79494e-06 2.85036e-06 1.50117e-05
0.000897173 0.000140439 1.95624e-06
0.000140439 2.04218e-05 5.25206e-08
1.95624e-06 5.25206e-08 -0.000113682
0.00233879 -8.33549e-05 3.97414e-05
-8.33549e-05 0.000946592 2.63701e-06
3.97414e-05 2.63701e-06 0.000953638
0.00248705 -9.33707e-05 2.57569e-06
-9.33707e-05 0.00103567 -1.8733e-07
2.57569e-06 -1.8733e-07 0.00103964
0.00507073 2.94506e-05 -0.000146403
2.94506e-05 0.0024536 -5.66407e-06
-0.000146403 -5.66407e-06 0.00245317
0.00513555 4.37388e-05 -0.000147013
4.37388e-05 0.00249045 -2.62617e-06
-0.000147013 -2.62617e-06 0.00248957
0.00520091 7.41242e-05 1.91204e-06
7.41242e-05 0.00253229 -9.41899e-07
1.91204e-06 -9.41899e-07 0.00252699
0.00319956 -1.76529e-05 -6.79811e-05
-1.76529e-05 0.00141709 -1.47642e-06
-6.79811e-05 -1.47642e-06 0.00140142
0.00164418 1.52811e-05 3.43175e-05
1.52811e-05 0.00043538 2.9595e-07
3.43175e-05 2.9595e-07 0.00038078
0.00320847 5.97919e-05 -6.29748e-05
5.97919e-05 0.00142366 -2.95055e-06
-6.29748e-05 -2.95055e-06 0.00140672
0.00164276 4.45102e-05 3.24017e-05
4.45102e-05 0.000444584 8.73542e-07
3.24017e-05 8.73542e-07 0.00039039
0.00521094 0.000139839 0.000149213
0.000139839 0.00254578 2.35349e-06
0.000149213 2.35349e-06 0.00253492
0.000690782 -2.84843e-06 1.58418e-05
-2.84843e-06 -9.85425e-05 5.66729e-07
1.58418e-05 5.66729e-07 -0.0001612
0.00254882 1.83641e-06 8.14417e-05
1.83641e-06 0.000941861 3.43757e-06
8.14417e-05 3.43757e-06 0.000896342
0.0011598 2.4471e-05 1.09334e-05
2.4471e-05 5.57769e-06 1.42341e-06
1.09334e-05 1.42341e-06 -0.000100874
0.00243118 7.29749e-05 7.95545e-05
7.29749e-05 0.000886852 5.72663e-06
7.95545e-05 5.72663e-06 0.000839681
0.00115802 6.10488e-05 1.04952e-05
6.10488e-05 1.93908e-05 2.47814e-06
1.04952e-05 2.47814e-06 -8.65214e-05
0.00168256 2.50243e-05 -0.000141063
2.50243e-05 0.000561781 8.05444e-07
-0.000141063 8.05444e-07 0.000543283
0.00122854 -2.39799e-05 -2.08523e-05
-2.39799e-05 0.000330393 2.00285e-06
-2.08523e-05 2.00285e-06 0.000301112
0.00114612 9.73915e-05 -4.30576e-06
9.73915e-05 0.000321291 3.94098e-06
-4.30576e-06 3.94098e-06 0.000286331
0.00126398 -2.78823e-05 -2.61712e-05
-2.78823e-05 0.000356279 3.4145e-06
-2.61712e-05 3.4145e-06 0.000328282
0.00157118 -4.55853e-05 -6.82895e-05
-4.55853e-05 0.000415689 5.4141e-06
-6.82895e-05 5.4141e-06 0.000365724
0.00151068 -7.27879e-05 -6.66309e-05
-7.27879e-05 0.0004023 8.41712e-06
-6.66309e-05 8.41712e-06 0.00034952
0.00134734 -6.64643e-05 -6.04826e-05
-6.64643e-05 0.000355135 8.60212e-06
-6.04826e-05 8.60212e-06 0.000300648
0.00199023 -0.000162673 -1.72169e-05
-0.000162673 0.000572445 6.14374e-06
-1.72169e-05 6.14374e-06 0.000463706
0.00519235 -6.6899e-05 -1.14594e-06
-6.6899e-05 0.00252632 -7.7964e-07
-1.14594e-06 -7.7964e-07 0.00252171
0.00147661 2.27518e-05 6.08673e-05
2.27518e-05 0.000455912 -1.70169e-06
6.08673e-05 -1.70169e-06 0.000431062
0.00114689 6.12643e-06 -3.68355e-05
6.12643e-06 0.0001619 5.08122e-07
-3.68355e-05 5.08122e-07 0.000105305
0.00148557 -4.12183e-05 -2.12475e-05
-4.12183e-05 0.000368205 5.48495e-07
-2.12475e-05 5.48495e-07 0.000314169
0.00222761 7.60746e-05 6.54806e-05
7.60746e-05 0.000895768 -4.80689e-07
6.54806e-05 -4.80689e-07 0.000886722
0.0014233 -3.44822e-07 -1.63104e-05
-3.44822e-07 0.000430348 -3.70004e-07
-1.63104e-05 -3.70004e-07 0.000377827
0.00149417 -6.56938e-05 -1.89714e-05
-6.56938e-05 0.000383827 9.23145e-07
-1.89714e-05 9.23145e-07 0.000329564
0.00177053 -9.45849e-05 -6.35092e-06
-9.45849e-05 0.000379375 1.14201e-06
-6.35092e-06 1.14201e-06 0.000282093
0.0017891 -0.000158225 -3.12527e-06
-0.000158225 0.00051832 1.01251e-06
-3.12527e-06 1.01251e-06 0.000408866
0.00174816 -0.000137278 -2.18239e-06
-0.000137278 0.000402885 4.44529e-07
-2.18239e-06 4.44529e-07 0.00029903
0.00123254 -0.000150473 2.282e-08
-0.000150473 7.40764e-05 -1.6174e-07
2.282e-08 -1.6174e-07 -6.03907e-05
0.000719747 6.26335e-06 1.61104e-05
6.26335e-06 -8.06622e-05 -1.23578e-06
1.61104e-05 -1.23578e-06 -0.000142682
0.00144929 -9.68278e-07 2.27923e-05
-9.68278e-07 0.000341968 -2.44571e-06
2.27923e-05 -2.44571e-06 0.000284099
0.00160784 -1.89443e-05 1.09063e-05
-1.89443e-05 0.000258752 -1.24796e-06
1.09063e-05 -1.24796e-06 0.000158715
0.0015359 -7.24117e-05 1.02601e-05
-7.24117e-05 0.000244267 -2.31985e-06
1.02601e-05 -2.31985e-06 0.000145344
0.00154187 -0.000111248 1.10954e-05
-0.000111248 0.00026281 -3.2278e-06
1.10954e-05 -3.2278e-06 0.000161661
0.00176893 -0.000109157 3.13068e-06
-0.000109157 0.000290994 -7.49357e-07
3.13068e-06 -7.49357e-07 0.000173101
0.00313874 0.000116383 6.57249e-05
0.000116383 0.0013991 -2.47993e-06
6.57249e-05 -2.47993e-06 0.0013967
0.00133364 -0.000140101 5.50411e-06
-0.000140101 8.81952e-05 -1.54796e-06
5.50411e-06 -1.54796e-06 -4.00376e-05
0.000543337 2.06687e-05 4.65239e-06
2.06687e-05 -6.13601e-05 -6.76689e-06
4.65239e-06 -6.76689e-06 -0.000107366
0.000656864 -9.59906e-05 3.85403e-06
-9.59906e-05 -4.46061e-05 -2.88441e-06
3.85403e-06 -2.88441e-06 -0.000146523
0.00135794 -0.000170693 5.00721e-06
-0.000170693 0.000206938 -2.84782e-06
5.00721e-06 -2.84782e-06 6.31767e-05
0.00144838 -0.000170756 3.28051e-06
-0.000170756 0.000131025 -5.44571e-08
3.28051e-06 -5.44571e-08 -1.33416e-05
0.000537062 5.36024e-05 1.1108e-06
5.36024e-05 -6.42013e-05 -6.34299e-06
1.1108e-06 -6.34299e-06 -0.000100777
0.000706532 2.59103e-05 5.16976e-07
2.59103e-05 1.12752e-05 -3.128e-06
5.16976e-07 -3.128e-06 -6.01455e-05
0.00508232 6.9533e-05 -0.00015335
6.9533e-05 0.00246428 -8.80067e-06
-0.00015335 -8.80067e-06 0.00246198
0.00459901 -8.20679e-05 -0.000115168
-8.20679e-05 0.00222677 -7.2404e-06
-0.000115168 -7.2404e-06 0.00221616
0.000588897 9.31306e-05 -1.51844e-05
9.31306e-05 -0.000112099 -8.542e-06
-1.51844e-05 -8.542e-06 -0.000178543
0.00305282 -0.000117843 -6.20717e-05
-0.000117843 0.00135786 -2.43266e-06
-6.20717e-05 -2.43266e-06 0.00135481
0.000528271 1.07061e-05 -5.4232e-06
1.07061e-05 -7.56821e-05 -8.13727e-06
-5.4232e-06 -8.13727e-06 -0.000124237
0.000515689 0.000101336 -1.39475e-05
0.000101336 -0.000106546 -9.34094e-06
-1.39475e-05 -9.34094e-06 -0.00016974
0.0008318 0.000105929 -5.36594e-06
0.000105929 2.11358e-05 -3.11942e-06
-5.36594e-06 -3.11942e-06 -8.50612e-05
0.00278933 -0.000102166 3.02053e-06
-0.000102166 0.00120687 -2.10303e-07
3.02053e-06 -2.10303e-07 0.00120814
0.000597212 -7.12473e-05 6.96123e-08
-7.12473e-05 -2.37839e-05 2.11033e-07
6.96123e-08 2.11033e-07 -5.29275e-05
0.00157759 8.93011e-05 3.14559e-05
8.93011e-05 0.000419018 1.21268e-06
3.14559e-05 1.21268e-06 0.000361767
0.00146801 0.000117617 2.80392e-05
0.000117617 0.000396709 8.30592e-07
2.80392e-05 8.30592e-07 0.000336899
0.00107517 0.000116159 2.46833e-07
0.000116159 9.61686e-06 -1.8596e-07
2.46833e-07 -1.8596e-07 -0.000103802
0.000632936 -2.82959e-05 -5.45225e-07
-2.82959e-05 -1.14545e-05 1.57101e-07
-5.45225e-07 1.57101e-07 -5.17039e-05
0.000946785 0.000121848 3.61068e-07
0.000121848 4.00252e-05 4.6069e-07
3.61068e-07 4.6069e-07 -7.0713e-05
0.000834781 8.91273e-05 2.64414e-07
8.91273e-05 6.53129e-05 -2.30242e-07
2.64414e-07 -2.30242e-07 -3.70778e-05
0.000825927 0.000136046 -3.6538e-09
0.000136046 -2.02888e-05 -1.81104e-08
-3.6538e-09 -1.81104e-08 -0.000154693
0.000629439 -5.02993e-05 2.83211e-06
-5.02993e-05 -6.30998e-06 5.93453e-06
2.83211e-06 5.93453e-06 -4.1444e-05
0.000670662 -6.22612e-05 -3.08439e-07
-6.22612e-05 4.76157e-06 4.39902e-06
-3.08439e-07 4.39902e-06 -1.65511e-05
0.000677416 -2.52345e-06 1.965e-06
-2.52345e-06 8.22993e-06 2.84691e-06
1.965e-06 2.84691e-06 -5.88165e-05
0.0011089 9.68726e-05 1.05386e-05
9.68726e-05 4.66722e-06 3.7425e-06
1.05386e-05 3.7425e-06 -0.000105858
0.00103227 0.000125678 9.06847e-06
0.000125678 3.23148e-05 4.46064e-06
9.06847e-06 4.46064e-06 -8.20811e-05
0.00130793 0.000142656 5.98952e-06
0.000142656 5.58109e-05 1.7084e-06
5.98952e-06 1.7084e-06 -8.16801e-05
0.00087297 6.98135e-05 3.7712e-06
6.98135e-05 0.000106016 2.99564e-06
3.7712e-06 2.99564e-06 1.14736e-05
0.000901534 0.000141864 2.30942e-06
0.000141864 -4.44737e-05 1.96452e-06
2.30942e-06 1.96452e-06 -0.000180869
0.00111871 0.000150447 2.10141e-06
0.000150447 0.000198401 8.05373e-07
2.10141e-06 8.05373e-07 6.28335e-05
0.0010529 0.000161265 -2.51905e-06
0.000161265 9.27628e-05 -1.35374e-06
-2.51905e-06 -1.35374e-06 -5.34819e-05
0.00218776 -7.39225e-05 3.3108e-05
-7.39225e-05 0.000853948 2.88069e-06
3.3108e-05 2.88069e-06 0.000863946
0.0022664 -8.30641e-05 1.28654e-06
-8.30641e-05 0.000905984 -1.40351e-07
1.28654e-06 -1.40351e-07 0.000913158
0.00238241 -9.30887e-05 -3.8524e-05
-9.30887e-05 0.000978177 -2.5016e-06
-3.8524e-05 -2.5016e-06 0.000982205
0.000559413 6.31005e-05 3.95637e-07
6.31005e-05 -5.33266e-05 -5.55346e-06
3.95637e-07 -5.55346e-06 -8.56709e-05
0.00293194 0.000106228 5.62078e-05
0.000106228 0.00127958 -2.61663e-06
5.62078e-05 -2.61663e-06 0.00128029
0.00510407 9.81416e-05 -0.000157428
9.81416e-05 0.00247642 -8.50363e-06
-0.000157428 -8.50363e-06 0.00247286
0.00505118 -6.17625e-06 -0.000142578
-6.17625e-06 0.00244413 -3.76941e-06
-0.000142578 -3.76941e-06 0.00244366
0.000728177 5.34601e-05 -1.6057e-05
5.34601e-05 -6.25142e-05 -4.09266e-06
-1.6057e-05 -4.09266e-06 -0.000124417
0.000697677 2.01195e-05 -1.61725e-05
2.01195e-05 -8.81838e-05 -2.32839e-06
-1.61725e-05 -2.32839e-06 -0.000151216
0.00516191 -6.67296e-05 -0.000144676
-6.67296e-05 0.00250764 -5.89924e-07
-0.000144676 -5.89924e-07 0.00250486
0.00519547 4.67118e-06 -1.02763e-06
4.67118e-06 0.00252437 4.29018e-07
-1.02763e-06 4.29018e-07 0.00252213
0.000689034 -2.96183e-06 -1.55502e-07
-2.96183e-06 -9.92365e-05 -1.93773e-07
-1.55502e-07 -1.93773e-07 -0.000161787
0.00161975 1.81809e-05 3.32803e-05
1.81809e-05 0.000428338 7.33306e-07
3.32803e-05 7.33306e-07 0.000374645
0.00117176 2.86996e-05 1.55871e-07
2.86996e-05 1.22954e-05 -2.25283e-07
1.55871e-07 -2.25283e-07 -9.43145e-05
0.00067253 5.14909e-05 2.10142e-07
5.14909e-05 -9.14369e-05 -1.69532e-07
2.10142e-07 -1.69532e-07 -0.000153307
0.0011481 6.33377e-05 -1.3684e-07
6.33377e-05 1.45457e-05 1.85439e-08
-1.3684e-07 1.85439e-08 -9.17384e-05
0.000681696 -1.5204e-05 1.6166e-05
-1.5204e-05 -0.000104706 -4.0394e-07
1.6166e-05 -4.0394e-07 -0.00016712
0.00117079 1.05588e-05 1.08889e-05
1.05588e-05 5.0053e-06 5.66843e-07
1.08889e-05 5.66843e-07 -0.000101851
0.00115908 4.33403e-05 1.06554e-05
4.33403e-05 1.51463e-05 2.2115e-06
1.06554e-05 2.2115e-06 -9.06113e-05
0.0014279 3.20391e-05 4.4367e-06
3.20391e-05 6.51562e-05 6.58717e-07
4.4367e-06 6.58717e-07 -5.65032e-05
0.00113451 7.7895e-05 1.0536e-05
7.7895e-05 9.59545e-06 2.78013e-06
1.0536e-05 2.78013e-06 -9.83489e-05
0.00142431 7.31179e-05 4.33982e-06
7.31179e-05 8.1258e-05 1.03402e-06
4.33982e-06 1.03402e-06 -4.20077e-05
0.00518559 -6.22048e-05 -0.000156414
-6.22048e-05 0.00252234 -3.63907e-07
-0.000156414 -3.63907e-07 0.00251782
0.00128773 -5.65303e-05 -1.7557e-05
-5.65303e-05 0.000361209 1.75794e-06
-1.7557e-05 1.75794e-06 0.000329971
-0.000143304 -3.99612e-07 -1.35744e-05
-3.99612e-07 -0.000556495 2.21977e-06
-1.35744e-05 2.21977e-06 -0.000625789
0.0015772 -3.0525e-05 -6.97405e-05
-3.0525e-05 0.000415127 4.01714e-06
-6.97405e-05 4.01714e-06 0.000364453
0.00317185 0.000160977 -1.56127e-05
0.000160977 0.00144084 1.55604e-06
-1.56127e-05 1.55604e-06 0.001424
0.00197724 -5.01686e-05 -5.01185e-05
-5.01686e-05 0.000722582 7.1525e-06
-5.01185e-05 7.1525e-06 0.000677442
0.00155386 -6.10172e-05 -6.74567e-05
-6.10172e-05 0.0004128 7.08882e-06
-6.74567e-05 7.08882e-06 0.000361784
0.00157615 -8.68456e-05 -2.02623e-05
-8.68456e-05 0.000269654 3.93513e-06
-2.02623e-05 3.93513e-06 0.000171398
0.00199447 -0.000146217 -1.66624e-05
-0.000146217 0.000540006 5.12486e-06
-1.66624e-05 5.12486e-06 0.000436824
0.00198618 -0.000170096 -1.40547e-05
-0.000170096 0.000624474 6.23791e-06
-1.40547e-05 6.23791e-06 0.000512355
0.00119788 -0.000147619 -4.94759e-06
-0.000147619 5.62324e-05 1.22601e-06
-4.94759e-06 1.22601e-06 -7.77474e-05
0.000681642 9.22223e-06 2.96013e-08
9.22223e-06 -0.000102244 -1.94897e-07
2.96013e-08 -1.94897e-07 -0.000164063
0.00153799 -3.43834e-05 -2.32862e-05
-3.43834e-05 0.000388822 1.42141e-07
-2.32862e-05 1.42141e-07 0.00033338
0.00119064 -1.63555e-05 -4.41591e-06
-1.63555e-05 2.71614e-05 2.03832e-07
-4.41591e-06 2.03832e-07 -7.62116e-05
0.00180113 -7.55365e-05 -3.05837e-06
-7.55365e-05 0.000389292 4.04731e-07
-3.05837e-06 4.04731e-07 0.000292011
0.00315924 0.000113022 -1.50445e-06
0.000113022 0.00141115 -2.91394e-07
-1.50445e-06 -2.91394e-07 0.001409
0.00119239 5.80494e-06 2.11548e-06
5.80494e-06 0.000297772 4.37444e-07
2.11548e-06 4.37444e-07 0.000252444
0.00119712 -0.00011772 5.73133e-07
-0.00011772 0.000250553 -3.80495e-07
5.73133e-07 -3.80495e-07 0.000147931
0.00155451 -0.000110444 -3.43152e-06
-0.000110444 0.000270382 6.48527e-07
-3.43152e-06 6.48527e-07 0.000169158
0.00146996 -9.99638e-05 -2.38172e-06
-9.99638e-05 0.000123748 6.44618e-07
-2.38172e-06 6.44618e-07 4.67411e-06
0.00101744 -0.000149983 -7.82533e-07
-0.000149983 2.29053e-05 -4.29887e-07
-7.82533e-07 -4.29887e-07 -0.0001191
0.00154337 -0.00014674 1.76424e-07
-0.00014674 0.000205174 -1.19997e-07
1.76424e-07 -1.19997e-07 7.80175e-05
0.00138993 -0.000167036 2.88729e-07
-0.000167036 0.000100656 -4.72579e-08
2.88729e-07 -4.72579e-08 -4.31735e-05
0.000566008 4.75644e-05 -6.563e-07
4.75644e-05 -4.90308e-05 8.70525e-08
-6.563e-07 8.70525e-08 -8.52719e-05
0.000690301 1.16816e-05 -1.66229e-07
1.16816e-05 5.87573e-07 1.53334e-07
-1.66229e-07 1.53334e-07 -7.08583e-05
0.00115989 -8.30625e-06 1.07452e-05
-8.30625e-06 4.96307e-09 -1.24275e-06
1.07452e-05 -1.24275e-06 -0.00010623
0.00160902 -4.13978e-05 1.04647e-05
-4.13978e-05 0.000266999 -1.66352e-06
1.04647e-05 -1.66352e-06 0.000167146
0.0018189 -2.52097e-05 3.3344e-06
-2.52097e-05 0.000288483 -3.02478e-07
3.3344e-06 -3.02478e-07 0.000171954
0.00119226 -7.19059e-05 5.09558e-06
-7.19059e-05 -3.67714e-05 -1.59701e-06
5.09558e-06 -1.59701e-06 -0.000157294
0.00164949 -0.000133653 4.5225e-06
-0.000133653 0.000237053 -1.05229e-06
4.5225e-06 -1.05229e-06 0.000114823
0.00168846 -0.000106771 3.81124e-07
-0.000106771 0.000193921 -3.62497e-09
3.81124e-07 -3.62497e-09 7.26611e-05
0.000511494 3.36765e-05 3.39632e-06
3.36765e-05 -8.00513e-05 -6.59655e-06
3.39632e-06 -6.59655e-06 -0.00012053
0.00146196 -0.000149914 2.2912e-06
-0.000149914 9.91819e-05 -1.24791e-07
2.2912e-06 -1.24791e-07 -3.33611e-05
0.000639339 -6.50197e-05 2.65682e-06
-6.50197e-05 -2.92068e-05 -1.84804e-06
2.65682e-06 -1.84804e-06 -0.000123101
0.000516662 -0.000118321 3.27696e-06
-0.000118321 -0.000168729 -3.69961e-06
3.27696e-06 -3.69961e-06 -0.000304973
0.00197924 -0.000219513 2.04007e-06
-0.000219513 0.000497913 -7.46239e-07
2.04007e-06 -7.46239e-07 0.000337019
0.00156359 -0.000178753 9.4508e-08
-0.000178753 0.000146975 1.91488e-06
9.4508e-08 1.91488e-06 7.25195e-06
0.000765845 -1.91023e-05 1.6078e-06
-1.91023e-05 4.84464e-05 -2.96255e-06
1.6078e-06 -2.96255e-06 -3.56831e-05
0.000685477 2.5075e-05 1.18651e-06
2.5075e-05 -3.19418e-06 -2.51078e-06
1.18651e-06 -2.51078e-06 -6.52651e-05
0.000836323 -5.54088e-05 5.78017e-07
-5.54088e-05 8.59384e-05 -6.99927e-07
5.78017e-07 -6.99927e-07 -1.7215e-05
0.000637602 7.54171e-05 -1.50722e-05
7.54171e-05 -0.000101874 -6.78486e-06
-1.50722e-05 -6.78486e-06 -0.000166038
0.00269302 -0.000105453 -4.85762e-05
-0.000105453 0.00115509 -2.34697e-06
-4.85762e-05 -2.34697e-06 0.00115565
0.000550464 -6.41859e-05 -4.01463e-07
-6.41859e-05 -5.22158e-05 -4.67873e-06
-4.01463e-07 -4.67873e-06 -7.93843e-05
0.000524763 0.000105236 -1.49638e-05
0.000105236 -0.000122226 -9.6827e-06
-1.49638e-05 -9.6827e-06 -0.000188414
0.00108574 0.000118538 -1.05942e-05
0.000118538 1.61836e-05 -4.61048e-06
-1.05942e-05 -4.61048e-06 -9.76538e-05
0.000508392 -3.76777e-05 -2.70408e-06
-3.76777e-05 -7.76483e-05 -6.93548e-06
-2.70408e-06 -6.93548e-06 -0.000118402
0.000720555 7.9344e-05 -3.35423e-06
7.9344e-05 1.88027e-06 -2.98752e-06
-3.35423e-06 -2.98752e-06 -9.86299e-05
0.000891428 0.000117678 -6.29183e-06
0.000117678 1.07029e-05 -3.55358e-06
-6.29183e-06 -3.55358e-06 -9.94084e-05
0.000746029 0.000131204 -3.26073e-06
0.000131204 -6.6027e-05 -1.05821e-06
-3.26073e-06 -1.05821e-06 -0.000200643
0.000569266 -5.54224e-05 1.68902e-06
-5.54224e-05 -4.00837e-05 7.5406e-08
1.68902e-06 7.5406e-08 -7.43567e-05
0.00063489 -5.73983e-05 -2.43514e-07
-5.73983e-05 -1.63484e-05 1.4847e-07
-2.43514e-07 1.4847e-07 -3.65205e-05
0.000671966 -3.44939e-05 3.20565e-07
-3.44939e-05 1.478e-06 3.52702e-07
3.20565e-07 3.52702e-07 -6.16645e-05
0.00111393 9.88992e-05 1.02043e-07
9.88992e-05 8.30552e-06 -1.7043e-07
1.02043e-07 -1.7043e-07 -0.000102643
0.00101628 0.000125339 6.15376e-07
0.000125339 2.476e-05 -3.47417e-07
6.15376e-07 -3.47417e-07 -8.95382e-05
0.00133926 0.000145282 3.41421e-07
0.000145282 7.2329e-05 2.60489e-08
3.41421e-07 2.60489e-08 -6.56281e-05
0.000794026 6.06886e-05 9.6374e-08
6.06886e-05 6.49622e-05 -5.67892e-09
9.6374e-08 -5.67892e-09 -2.9168e-05
0.00109276 0.00015317 -2.22467e-07
0.00015317 6.14029e-05 -1.66869e-07
-2.22467e-07 -1.66869e-07 -7.58358e-05
0.00102459 0.00014331 3.58234e-07
0.00014331 0.000146785 -4.06874e-07
3.58234e-07 -4.06874e-07 1.19531e-05
0.00101938 0.000161844 -8.87579e-07
0.000161844 7.30165e-05 1.04499e-06
-8.87579e-07 1.04499e-06 -7.37757e-05
0.000677488 -5.09604e-05 1.58422e-06
-5.09604e-05 -4.31039e-06 3.60971e-06
1.58422e-06 3.60971e-06 -1.96159e-05
0.000722626 2.92162e-05 2.39439e-06
2.92162e-05 2.69204e-05 2.56743e-06
2.39439e-06 2.56743e-06 -5.26898e-05
0.000671269 -4.88546e-05 1.44007e-07
-4.88546e-05 -2.87546e-06 2.37821e-06
1.44007e-07 2.37821e-06 -5.34935e-05
0.00082106 3.49204e-05 1.96318e-07
3.49204e-05 9.23735e-05 8.44898e-07
1.96318e-07 8.44898e-07 -4.08293e-06
0.00136623 0.00011896 6.06314e-06
0.00011896 6.43688e-05 1.5976e-06
6.06314e-06 1.5976e-06 -6.78007e-05
0.00125917 0.000158419 5.28696e-06
0.000158419 8.46396e-05 2.94853e-06
5.28696e-06 2.94853e-06 -5.62754e-05
0.00151226 0.000161094 3.44526e-06
0.000161094 0.000109559 4.62909e-07
3.44526e-06 4.62909e-07 -3.74953e-05
0.00108697 0.000118946 2.32569e-06
0.000118946 0.00021179 2.11929e-06
2.32569e-06 2.11929e-06 8.93212e-05
0.00132529 0.000179119 -5.70158e-07
0.000179119 0.000151067 2.05717e-06
-5.70158e-07 2.05717e-06 2.55855e-06
0.000915813 0.000151684 -4.81596e-07
0.000151684 8.0269e-05 -1.81747e-06
-4.81596e-07 -1.81747e-06 -7.86303e-05
0.000936283 0.00016291 -5.12767e-07
0.00016291 -5.70039e-06 -5.48704e-07
-5.12767e-07 -5.48704e-07 -0.000156096
0.000731762 -2.63592e-05 1.36037e-06
-2.63592e-05 2.83828e-06 1.67818e-06
1.36037e-06 1.67818e-06 -3.20594e-05
0.000675193 -3.841e-05 1.29014e-06
-3.841e-05 -2.28176e-05 3.47548e-06
1.29014e-06 3.47548e-06 -3.26122e-05
0.00212271 -6.52423e-05 2.84634e-05
-6.52423e-05 0.000808321 3.20769e-06
2.84634e-05 3.20769e-06 0.000820907
0.00214741 -7.32061e-05 1.51079e-06
-7.32061e-05 0.000830345 -1.35082e-07
1.51079e-06 -1.35082e-07 0.000840632
0.00219043 -8.14224e-05 -3.39866e-05
-8.14224e-05 0.000863035 -2.73071e-06
-3.39866e-05 -2.73071e-06 0.000870694
0.000588752 5.44784e-05 1.29415e-06
5.44784e-05 -4.64791e-05 -4.80247e-06
1.29415e-06 -4.80247e-06 -7.2764e-05
0.00272648 9.62534e-05 4.76879e-05
9.62534e-05 0.00116185 -2.86796e-06
4.76879e-05 -2.86796e-06 0.00116512
0.000586969 5.80559e-05 -3.43569e-07
5.80559e-05 -3.90054e-05 9.65231e-08
-3.43569e-07 9.65231e-08 -7.08137e-05
0.00297318 0.000103074 -1.72806e-06
0.000103074 0.00130179 -2.0419e-07
-1.72806e-06 -2.0419e-07 0.00130301
0.000694553 6.45023e-05 -1.56729e-05
6.45023e-05 -7.81343e-05 -5.38285e-06
-1.56729e-05 -5.38285e-06 -0.000141023
0.00069208 3.01693e-05 -1.56874e-05
3.01693e-05 -8.56182e-05 -3.24191e-06
-1.56874e-05 -3.24191e-06 -0.000147808
0.00114193 6.49257e-05 -1.03557e-05
6.49257e-05 1.15834e-05 -2.38232e-06
-1.03557e-05 -2.38232e-06 -9.49864e-05
0.00117291 3.07783e-05 -1.09106e-05
3.07783e-05 1.31807e-05 -1.84744e-06
-1.09106e-05 -1.84744e-06 -9.35221e-05
0.000714963 -6.77332e-07 -1.64132e-05
-6.77332e-07 -8.5852e-05 -1.05449e-06
-1.64132e-05 -1.05449e-06 -0.000147783
0.00522012 -8.77137e-05 -0.0001556
-8.77137e-05 0.00254068 1.45366e-06
-0.0001556 1.45366e-06 0.00253681
0.000704634 -1.34467e-06 1.0162e-07
-1.34467e-06 -9.2916e-05 -3.07257e-07
1.0162e-07 -3.07257e-07 -0.000155044
0.00117738 1.49437e-05 2.53711e-09
1.49437e-05 8.79507e-06 -1.72867e-07
2.53711e-09 -1.72867e-07 -9.81272e-05
0.00115534 4.43647e-05 2.54229e-09
4.43647e-05 1.36798e-05 -5.11474e-08
2.54229e-09 -5.11474e-08 -9.22347e-05
0.00143123 3.17623e-05 7.96918e-09
3.17623e-05 6.75417e-05 -1.05763e-07
7.96918e-09 -1.05763e-07 -5.41565e-05
0.00113775 8.05977e-05 6.14963e-09
8.05977e-05 1.19329e-05 -2.772e-07
6.14963e-09 -2.772e-07 -9.65407e-05
0.00141493 7.51555e-05 -8.40536e-08
7.51555e-05 7.64877e-05 1.65368e-07
-8.40536e-08 1.65368e-07 -4.70976e-05
0.00118358 -4.56278e-07 1.08552e-05
-4.56278e-07 1.11134e-05 -1.93271e-07
1.08552e-05 -1.93271e-07 -9.56333e-05
0.00144729 1.95577e-05 4.29669e-06
1.95577e-05 6.75385e-05 3.0791e-07
4.29669e-06 3.0791e-07 -5.40083e-05
0.00142087 5.30791e-05 4.41177e-06
5.30791e-05 7.43882e-05 9.92603e-07
4.41177e-06 9.92603e-07 -4.77927e-05
0.00156337 3.84011e-05 3.74208e-07
3.84011e-05 7.4089e-05 1.0257e-07
3.74208e-07 1.0257e-07 -4.45409e-05
0.00140349 9.56954e-05 4.69658e-06
9.56954e-05 7.28614e-05 7.55891e-07
4.69658e-06 7.55891e-07 -5.41958e-05
0.00154054 8.19594e-05 4.29604e-07
8.19594e-05 9.02222e-05 -1.1191e-07
4.29604e-07 -1.1191e-07 -3.34016e-05
0.000688469 1.2378e-05 -1.55394e-05
1.2378e-05 -9.94307e-05 7.21511e-07
-1.55394e-05 7.21511e-07 -0.000161276
0.00160407 -1.20711e-05 -7.18605e-05
-1.20711e-05 0.000422011 2.82606e-06
-7.18605e-05 2.82606e-06 0.000369803
0.000764422 -1.23149e-05 -1.1586e-05
-1.23149e-05 -0.000209408 1.65896e-06
-1.1586e-05 1.65896e-06 -0.000316173
0.00204339 -7.72523e-05 -1.77984e-05
-7.72523e-05 0.000521355 3.02965e-06
-1.77984e-05 3.02965e-06 0.0004259
0.00319052 0.000106394 -7.65154e-05
0.000106394 0.00142851 2.86987e-06
-7.65154e-05 2.86987e-06 0.00142723
0.00189555 -1.95458e-06 -4.2094e-05
-1.95458e-06 0.000685456 4.92386e-06
-4.2094e-05 4.92386e-06 0.000645419
0.0017872 -0.000147441 -9.46679e-06
-0.000147441 0.000572236 4.31413e-06
-9.46679e-06 4.31413e-06 0.000468075
0.00155578 -0.000109147 -1.75171e-05
-0.000109147 0.000271578 4.37021e-06
-1.75171e-05 4.37021e-06 0.000170411
0.00116526 -9.04801e-05 -6.3509e-06
-9.04801e-05 -4.66536e-05 1.68451e-06
-6.3509e-06 1.68451e-06 -0.000166879
0.0017527 -0.000153442 -6.35173e-06
-0.000153442 0.000321923 1.6048e-06
-6.35173e-06 1.6048e-06 0.000195828
0.000668563 -0.000128576 -4.46698e-06
-0.000128576 -0.000165529 1.46366e-06
-4.46698e-06 1.46366e-06 -0.00030571
0.00132804 -0.000163091 -2.27527e-06
-0.000163091 6.84204e-05 -1.38503e-07
-2.27527e-06 -1.38503e-07 -7.48455e-05
0.000604024 3.90977e-05 -3.61002e-06
3.90977e-05 -2.83721e-05 6.02171e-06
-3.61002e-06 6.02171e-06 -6.45244e-05
0.000683595 -2.94001e-06 -1.83257e-06
-2.94001e-06 -3.5588e-06 2.77835e-06
-1.83257e-06 2.77835e-06 -7.59771e-05
0.000973404 -4.1921e-06 -4.58763e-07
-4.1921e-06 -0.000102417 -2.49638e-07
-4.58763e-07 -2.49638e-07 -0.000209858
0.0016113 -4.27977e-05 -3.65712e-06
-4.27977e-05 0.000267679 2.7782e-07
-3.65712e-06 2.7782e-07 0.000167783
0.0017556 -2.18068e-05 -2.31354e-06
-2.18068e-05 0.000251346 3.79662e-07
-2.31354e-06 3.79662e-07 0.000134669
0.00152993 -7.80055e-05 1.01063e-06
-7.80055e-05 0.000149476 -3.47133e-07
1.01063e-06 -3.47133e-07 3.08154e-05
0.000579041 2.37684e-05 1.51683e-07
2.37684e-05 -4.51163e-05 1.56576e-07
1.51683e-07 1.56576e-07 -8.51966e-05
0.000820944 -8.13252e-05 -1.36549e-07
-8.13252e-05 6.98423e-05 1.87197e-07
-1.36549e-07 1.87197e-07 -2.61796e-05
0.000705543 -0.000129693 1.18635e-06
-0.000129693 -6.14515e-05 -1.21974e-06
1.18635e-06 -1.21974e-06 -0.000196806
0.00173679 -0.000134867 -1.30673e-06
-0.000134867 0.000285267 3.08802e-07
-1.30673e-06 3.08802e-07 0.000163301
0.00155879 -0.000101888 -6.84658e-07
-0.000101888 0.000119791 4.2185e-07
-6.84658e-07 4.2185e-07 -1.00301e-06
0.00154454 -0.000194153 -1.64171e-06
-0.000194153 0.00025814 5.66059e-07
-1.64171e-06 5.66059e-07 9.78835e-05
0.00144837 -0.000148835 2.31895e-07
-0.000148835 9.22553e-05 4.61559e-08
2.31895e-07 4.61559e-08 -4.01328e-05
0.00146993 -0.000174383 4.06898e-07
-0.000174383 9.36466e-05 4.55675e-07
4.06898e-07 4.55675e-07 -4.60101e-05
0.000737362 -2.4122e-05 -2.84517e-07
-2.4122e-05 3.18726e-05 -1.68068e-07
-2.84517e-07 -1.68068e-07 -5.23054e-05
0.000747654 -2.46725e-05 -7.11224e-07
-2.46725e-05 3.18543e-05 -3.56245e-07
-7.11224e-07 -3.56245e-07 -6.6323e-05
0.00069364 1.67148e-05 4.44876e-07
1.67148e-05 -2.33777e-07 2.7232e-07
4.44876e-07 2.7232e-07 -6.20465e-05
0.00182921 -5.33446e-06 3.1098e-06
-5.33446e-06 0.000284162 -3.78065e-07
3.1098e-06 -3.78065e-07 0.000166495
0.00170134 -4.79981e-05 3.80871e-06
-4.79981e-05 0.000226386 -5.94425e-07
3.80871e-06 -5.94425e-07 0.00010814
0.00172601 -2.51991e-05 5.10659e-07
-2.51991e-05 0.000170092 3.86172e-07
5.10659e-07 3.86172e-07 5.17175e-05
0.00154646 -7.67139e-05 4.65329e-07
-7.67139e-05 0.000102264 -6.5675e-07
4.65329e-07 -6.5675e-07 -1.88525e-05
0.00143145 -0.000127157 2.13831e-06
-0.000127157 5.93269e-05 -1.59433e-07
2.13831e-06 -1.59433e-07 -6.58713e-05
0.00166924 -0.000104695 -2.45246e-06
-0.000104695 0.000135826 8.01506e-07
-2.45246e-06 8.01506e-07 2.21774e-05
0.000723854 -4.78905e-05 2.48451e-06
-4.78905e-05 2.66818e-05 -1.99242e-06
2.48451e-06 -1.99242e-06 -6.41105e-05
0.00152423 -0.000155489 -5.33233e-07
-0.000155489 8.8714e-05 5.56357e-07
-5.33233e-07 5.56357e-07 -3.90654e-05
0.000881421 -0.000130209 1.20543e-06
-0.000130209 8.32156e-05 -7.6535e-07
1.20543e-06 -7.6535e-07 -3.92521e-05
0.000726549 -0.000149212 3.64248e-06
-0.000149212 -8.7536e-05 -4.19043e-06
3.64248e-06 -4.19043e-06 -0.000249783
0.00186627 -0.000220145 1.23216e-06
-0.000220145 0.000384724 1.55244e-06
1.23216e-06 1.55244e-06 0.000220101
0.00184542 -0.000199012 -2.65081e-06
-0.000199012 0.000255104 1.81421e-06
-2.65081e-06 1.81421e-06 0.000122063
0.000704297 1.42376e-05 1.46148e-06
1.42376e-05 3.12281e-06 -2.1597e-06
1.46148e-06 -2.1597e-06 -5.14718e-05
0.000832625 -7.57275e-05 1.36643e-06
-7.57275e-05 7.25458e-05 3.4461e-07
1.36643e-06 3.4461e-07 -3.00787e-05
0.000698259 -6.1695e-06 5.52703e-07
-6.1695e-06 1.22901e-05 -1.47223e-06
5.52703e-07 -1.47223e-06 -8.25e-05
0.000990597 -0.000121401 -2.78798e-07
-0.000121401 0.000170607 1.38783e-06
-2.78798e-07 1.38783e-06 5.56409e-05
0.00111512 0.000101131 -1.09263e-05
0.000101131 9.80603e-06 -4.03139e-06
-1.09263e-05 -4.03139e-06 -0.000101581
0.000604851 -5.37571e-05 -1.70973e-06
-5.37571e-05 -3.37113e-05 -3.7649e-06
-1.70973e-06 -3.7649e-06 -5.30705e-05
0.000510311 -7.33368e-05 1.46294e-06
-7.33368e-05 -6.7404e-05 -6.18181e-06
1.46294e-06 -6.18181e-06 -0.000104497
0.000690688 -6.10794e-05 9.97575e-07
-6.10794e-05 1.53734e-05 -2.94638e-06
9.97575e-07 -2.94638e-06 -4.92939e-05
0.000993096 0.00012478 -8.00131e-06
0.00012478 1.34426e-05 -5.18109e-06
-8.00131e-06 -5.18109e-06 -0.000100782
0.00136075 0.000147263 -5.69679e-06
0.000147263 8.3575e-05 -1.75971e-06
-5.69679e-06 -1.75971e-06 -5.4798e-05
0.0007125 5.298e-05 -2.21301e-06
5.298e-05 2.17219e-05 -2.5495e-06
-2.21301e-06 -2.5495e-06 -7.12996e-05
0.000965325 0.000138527 -2.84358e-06
0.000138527 0.000114828 -2.40044e-06
-2.84358e-06 -2.40044e-06 -1.96514e-05
0.00130119 0.000165561 -3.00967e-06
0.000165561 0.000176878 -2.15699e-06
-3.00967e-06 -2.15699e-06 3.86577e-05
0.000947006 0.000159701 -1.36018e-06
0.000159701 3.25966e-05 6.16975e-07
-1.36018e-06 6.16975e-07 -0.000114476
0.000651643 -4.89863e-05 4.8672e-08
-4.89863e-05 -1.88411e-05 3.08108e-08
4.8672e-08 3.08108e-08 -3.38284e-05
0.000741292 2.32179e-05 2.52337e-07
2.32179e-05 4.20401e-05 -8.70616e-08
2.52337e-07 -8.70616e-08 -3.98682e-05
0.000677374 -5.79567e-05 -4.05852e-07
-5.79567e-05 1.83054e-06 4.25634e-07
-4.05852e-07 4.25634e-07 -4.95717e-05
0.00080516 1.23287e-05 4.0277e-07
1.23287e-05 8.25341e-05 -2.20131e-07
4.0277e-07 -2.20131e-07 -1.20904e-05
0.00138052 0.000120148 9.98517e-07
0.000120148 7.16369e-05 1.26979e-07
9.98517e-07 1.26979e-07 -6.07412e-05
0.00124704 0.000158902 1.5331e-07
0.000158902 7.93287e-05 1.34849e-07
1.5331e-07 1.34849e-07 -6.18499e-05
0.00149076 0.000159825 3.40543e-07
0.000159825 0.000100172 3.54521e-08
3.40543e-07 3.54521e-08 -4.69906e-05
0.000990279 0.000116417 3.41126e-07
0.000116417 0.000159049 4.13579e-07
3.41126e-07 4.13579e-07 3.79537e-05
0.00152821 0.000190689 -8.78737e-07
0.000190689 0.000263893 -1.74508e-06
-8.78737e-07 -1.74508e-06 0.000114685
0.00111635 0.000165877 3.05713e-07
0.000165877 0.000191486 -1.38742e-06
3.05713e-07 -1.38742e-06 3.06732e-05
0.000951882 0.000163564 -1.94992e-06
0.000163564 6.59277e-06 -3.87593e-07
-1.94992e-06 -3.87593e-07 -0.00013871
0.000675481 -4.43945e-05 1.54468e-06
-4.43945e-05 -1.51109e-05 3.47639e-06
1.54468e-06 3.47639e-06 -2.7132e-05
0.00070624 -4.90071e-05 5.64047e-07
-4.90071e-05 7.52283e-06 1.90921e-06
5.64047e-07 1.90921e-06 -3.50781e-05
0.000979821 6.8889e-05 1.74054e-06
6.8889e-05 0.000167297 1.00473e-06
1.74054e-06 1.00473e-06 5.94841e-05
0.000781276 1.88607e-05 3.74531e-08
1.88607e-05 6.35538e-05 1.43703e-06
3.74531e-08 1.43703e-06 -1.61881e-05
0.000890612 8.88177e-05 5.03311e-07
8.88177e-05 0.000141701 -5.33488e-08
5.03311e-07 -5.33488e-08 2.82129e-05
0.00154511 0.000129433 2.87989e-06
0.000129433 0.000107601 7.02405e-08
2.87989e-06 7.02405e-08 -2.97861e-05
0.0014215 0.000178264 1.6391e-06
0.000178264 0.000121549 3.82847e-06
1.6391e-06 3.82847e-06 -3.10575e-05
0.00162471 0.000179261 6.11122e-08
0.000179261 0.000139297 -2.77443e-07
6.11122e-08 -2.77443e-07 -8.65542e-06
0.00113346 0.000158135 2.56851e-06
0.000158135 0.0002441 3.2404e-06
2.56851e-06 3.2404e-06 8.96841e-05
0.0013675 0.00019304 1.55269e-06
0.00019304 0.000149159 2.75116e-06
1.55269e-06 2.75116e-06 -3.12414e-06
0.000342361 0.000124532 1.53101e-06
0.000124532 -0.000274952 -2.95221e-06
1.53101e-06 -2.95221e-06 -0.000442207
0.000728072 -3.09346e-05 1.63066e-06
-3.09346e-05 4.49635e-06 1.54855e-06
1.63066e-06 1.54855e-06 -3.14148e-05
0.000763373 1.1006e-05 5.60903e-07
1.1006e-05 3.62596e-05 5.54706e-07
5.60903e-07 5.54706e-07 -2.07234e-05
0.000745396 -1.91702e-05 9.80264e-07
-1.91702e-05 7.04265e-06 1.77144e-06
9.80264e-07 1.77144e-06 -2.72946e-05
0.00073843 -2.57199e-05 1.0872e-07
-2.57199e-05 6.83025e-06 -1.09784e-08
1.0872e-07 -1.09784e-08 -2.81577e-05
0.00125503 -4.2047e-05 1.5238e-06
-4.2047e-05 0.00029697 2.12787e-06
1.5238e-06 2.12787e-06 0.000292128
0.00096882 -4.26272e-05 7.97531e-07
-4.26272e-05 0.000142472 -3.82414e-08
7.97531e-07 -3.82414e-08 0.000134255
0.000942733 -3.71311e-05 2.36163e-05
-3.71311e-05 0.000134405 6.31203e-06
2.36163e-05 6.31203e-06 0.000143308
0.00210578 -6.46411e-05 1.51756e-06
-6.46411e-05 0.000797626 -1.26472e-07
1.51756e-06 -1.26472e-07 0.00081047
0.00211568 -7.23361e-05 -3.03041e-05
-7.23361e-05 0.000811434 -3.03408e-06
-3.03041e-05 -3.03408e-06 0.000822063
0.000615451 4.53174e-05 1.69875e-06
4.53174e-05 -4.07032e-05 -4.35412e-06
1.69875e-06 -4.35412e-06 -6.23994e-05
0.00259026 8.71534e-05 4.09855e-05
8.71534e-05 0.00108079 -3.1761e-06
4.09855e-05 -3.1761e-06 0.00108635
0.000613621 5.73376e-05 -1.71501e-07
5.73376e-05 -3.13216e-05 3.54992e-08
-1.71501e-07 3.54992e-08 -5.84271e-05
0.00278388 9.51573e-05 -2.03777e-06
9.51573e-05 0.00119297 -1.76775e-07
-2.03777e-06 -1.76775e-07 0.0011965
0.000612895 5.67411e-05 -8.14762e-07
5.67411e-05 -2.43902e-05 5.82115e-06
-8.14762e-07 5.82115e-06 -5.64786e-05
0.00302321 9.93203e-05 -6.77799e-05
9.93203e-05 0.00132871 2.91918e-06
-6.77799e-05 2.91918e-06 0.00133053
0.00114851 8.3416e-05 -1.0672e-05
8.3416e-05 1.80221e-05 -3.272e-06
-1.0672e-05 -3.272e-06 -9.09201e-05
0.00115865 4.81309e-05 -1.04359e-05
4.81309e-05 1.61312e-05 -2.27216e-06
-1.04359e-05 -2.27216e-06 -9.00678e-05
0.00139869 7.35596e-05 -4.60278e-06
7.35596e-05 6.80241e-05 -7.08915e-07
-4.60278e-06 -7.08915e-07 -5.56424e-05
0.00143607 3.1733e-05 -4.5733e-06
3.1733e-05 7.07533e-05 -8.37602e-07
-4.5733e-06 -8.37602e-07 -5.09858e-05
0.00118399 1.80212e-05 -1.10245e-05
1.80212e-05 1.26212e-05 -9.45754e-07
-1.10245e-05 -9.45754e-07 -9.43866e-05
0.000688292 1.26987e-05 -1.60864e-05
1.26987e-05 -0.000101215 -2.19504e-07
-1.60864e-05 -2.19504e-07 -0.000163548
0.0011767 1.65929e-06 2.20051e-08
1.65929e-06 7.33552e-06 -1.34177e-07
2.20051e-08 -1.34177e-07 -9.94523e-05
0.00143846 2.12426e-05 -7.81899e-08
2.12426e-05 6.35265e-05 -8.15388e-08
-7.81899e-08 -8.15388e-08 -5.80891e-05
0.00141901 5.06275e-05 5.50571e-08
5.06275e-05 7.36969e-05 -5.63366e-08
5.50571e-08 -5.63366e-08 -4.84661e-05
0.00160288 3.94733e-05 -1.00044e-07
3.94733e-05 9.40007e-05 6.34004e-08
-1.00044e-07 6.34004e-08 -2.36006e-05
0.00140243 9.6032e-05 -1.31911e-07
9.6032e-05 7.1858e-05 -1.741e-07
-1.31911e-07 -1.741e-07 -5.53071e-05
0.00154507 8.12528e-05 -1.34447e-07
8.12528e-05 9.5099e-05 1.51354e-07
-1.34447e-07 1.51354e-07 -2.85992e-05
0.00143628 6.16627e-06 4.53329e-06
6.16627e-06 6.13312e-05 -9.85239e-09
4.53329e-06 -9.85239e-09 -6.00445e-05
0.00162736 2.90494e-05 -1.35375e-07
2.90494e-05 8.81922e-05 2.87427e-07
-1.35375e-07 2.87427e-07 -2.86221e-05
0.00152621 6.05606e-05 3.52107e-07
6.05606e-05 6.89584e-05 5.2012e-08
3.52107e-07 5.2012e-08 -5.16352e-05
0.00171446 5.00432e-05 -1.01714e-06
5.00432e-05 9.84414e-05 2.27472e-07
-1.01714e-06 2.27472e-07 -9.78872e-06
0.00155808 9.92863e-05 6.14973e-07
9.92863e-05 0.000106312 -4.99853e-07
6.14973e-07 -4.99853e-07 -2.24279e-05
0.00165555 8.98847e-05 -2.74121e-06
8.98847e-05 9.73005e-05 -4.41642e-07
-2.74121e-06 -4.41642e-07 -1.20004e-05
0.000779907 -1.89256e-06 -1.06594e-05
-1.89256e-06 -0.000208451 6.2074e-07
-1.06594e-05 6.2074e-07 -0.000317152
0.0016324 -4.59216e-05 -1.76132e-05
-4.59216e-05 0.000278667 2.36657e-06
-1.76132e-05 2.36657e-06 0.000178706
0.00169014 -1.51922e-05 -7.5801e-06
-1.51922e-05 0.000213106 8.79697e-07
-7.5801e-06 8.79697e-07 9.63809e-05
0.00186945 -8.43585e-05 -4.88496e-06
-8.43585e-05 0.000336744 1.17298e-06
-4.88496e-06 1.17298e-06 0.000219929
0.000647635 1.37486e-05 -5.75594e-06
1.37486e-05 -7.97422e-06 6.24367e-06
-5.75594e-06 6.24367e-06 -4.87369e-05
0.00091737 -9.10297e-05 -4.31924e-06
-9.10297e-05 0.000123452 2.77521e-06
-4.31924e-06 2.77521e-06 2.57834e-05
0.000908101 -0.000142318 -1.02977e-06
-0.000142318 5.32253e-05 8.91127e-07
-1.02977e-06 8.91127e-07 -8.14103e-05
0.00182779 -0.000136223 -7.09167e-06
-0.000136223 0.000335511 1.70331e-06
-7.09167e-06 1.70331e-06 0.000213806
0.00143192 -9.70231e-05 -1.5358e-06
-9.70231e-05 4.71132e-05 6.30651e-07
-1.5358e-06 6.30651e-07 -7.32108e-05
0.00143662 -0.000147809 -2.15993e-06
-0.000147809 8.63124e-05 2.81732e-07
-2.15993e-06 2.81732e-07 -4.59175e-05
0.00109784 -0.000168204 -3.74215e-06
-0.000168204 1.17757e-05 1.2476e-06
-3.74215e-06 1.2476e-06 -0.000147791
0.00136986 -0.000169649 9.99147e-07
-0.000169649 3.6403e-05 -1.06691e-06
9.99147e-07 -1.06691e-06 -0.000103112
0.000709699 -2.71523e-05 -2.62603e-06
-2.71523e-05 1.43186e-05 2.39243e-06
-2.62603e-06 2.39243e-06 -6.8976e-05
0.000708178 -1.4707e-05 -1.51354e-06
-1.4707e-05 1.05826e-05 3.19388e-10
-1.51354e-06 3.19388e-10 -8.73008e-05
0.000698901 9.96388e-06 -1.10124e-06
9.96388e-06 1.49791e-06 2.63691e-06
-1.10124e-06 2.63691e-06 -6.02915e-05
0.00163996 -3.94533e-06 -2.31057e-06
-3.94533e-06 0.000178047 1.39441e-07
-2.31057e-06 1.39441e-07 5.87321e-05
0.00167656 -5.26031e-05 -1.54153e-06
-5.26031e-05 0.000213039 2.28267e-07
-1.54153e-06 2.28267e-07 9.44877e-05
0.00163318 -2.18706e-05 -5.99872e-07
-2.18706e-05 0.000116373 1.96974e-07
-5.99872e-07 1.96974e-07 -1.23703e-06
0.00163366 -7.60974e-05 -3.27218e-07
-7.60974e-05 0.000146709 -1.23502e-07
-3.27218e-07 -1.23502e-07 2.59506e-05
0.000771078 -5.49774e-05 1.37275e-08
-5.49774e-05 5.18882e-05 -1.64058e-07
1.37275e-08 -1.64058e-07 -3.95323e-05
0.00100069 -0.000139152 -3.43534e-07
-0.000139152 0.000146229 5.85148e-07
-3.43534e-07 5.85148e-07 2.24807e-05
0.000842591 -0.000153619 9.23289e-07
-0.000153619 -1.57747e-05 -1.72398e-06
9.23289e-07 -1.72398e-06 -0.000175948
0.00157751 -0.000132243 2.21813e-07
-0.000132243 0.000141378 -7.40002e-08
2.21813e-07 -7.40002e-08 1.58413e-05
0.00162689 -0.000102461 3.33592e-07
-0.000102461 0.000111612 4.2936e-07
3.33592e-07 4.2936e-07 -3.83715e-08
0.00151466 -0.000201678 -3.63966e-07
-0.000201678 0.0001918 9.76329e-07
-3.63966e-07 9.76329e-07 2.683e-05
0.00155387 -0.000156337 -6.00638e-08
-0.000156337 0.000102742 1.04416e-07
-6.00638e-08 1.04416e-07 -2.49053e-05
0.00176311 -0.000194496 3.89668e-07
-0.000194496 0.000209132 -5.40062e-07
3.89668e-07 -5.40062e-07 7.75236e-05
0.000912759 -8.42274e-05 -1.57439e-07
-8.42274e-05 0.000119055 -3.87636e-08
-1.57439e-07 -3.87636e-08 1.43995e-05
0.000952452 -0.000120237 -3.46551e-07
-0.000120237 0.00015085 3.67321e-07
-3.46551e-07 3.67321e-07 3.43836e-05
0.000711613 8.48717e-06 1.65139e-07
8.48717e-06 6.75756e-06 1.31439e-07
1.65139e-07 1.31439e-07 -4.79764e-05
0.000652885 1.44508e-05 -1.09364e-07
1.44508e-05 -1.70572e-05 -5.76625e-07
-1.09364e-07 -5.76625e-07 -0.000107038
0.00162295 -1.09726e-05 8.94246e-07
-1.09726e-05 0.000101243 -5.96929e-08
8.94246e-07 -5.96929e-08 -1.73413e-05
0.00184259 -5.04287e-05 4.12003e-07
-5.04287e-05 0.000242137 3.46699e-07
4.12003e-07 3.46699e-07 0.00012358
0.00170016 -3.77899e-05 1.04429e-07
-3.77899e-05 9.08518e-05 2.05341e-07
1.04429e-07 2.05341e-07 -2.12011e-05
0.00167748 -8.73074e-05 -2.96802e-06
-8.73074e-05 0.000117258 -4.13237e-08
-2.96802e-06 -4.13237e-08 9.47423e-06
0.00164684 -0.000132113 -2.1291e-06
-0.000132113 0.000131321 1.20113e-06
-2.1291e-06 1.20113e-06 1.39275e-05
0.00168753 -0.000105553 -9.77851e-07
-0.000105553 9.96493e-05 1.80687e-07
-9.77851e-07 1.80687e-07 -5.37481e-07
0.000852819 -0.00012157 1.18241e-06
-0.00012157 8.15863e-05 3.11425e-07
1.18241e-06 3.11425e-07 -2.965e-05
0.00163045 -0.000168708 -3.84197e-06
-0.000168708 0.000102533 1.42462e-06
-3.84197e-06 1.42462e-06 -1.43911e-05
0.000490486 -0.000119337 -4.97233e-07
-0.000119337 -0.000137007 -3.36543e-06
-4.97233e-07 -3.36543e-06 -0.000279644
0.00138952 -0.000204224 2.77187e-06
-0.000204224 0.000239237 -1.60918e-06
2.77187e-06 -1.60918e-06 5.56626e-05
0.00184847 -0.000225947 -1.1973e-07
-0.000225947 0.000316057 2.72682e-06
-1.1973e-07 2.72682e-06 0.000155686
0.00191045 -0.000206595 -1.22927e-06
-0.000206595 0.000254661 7.14709e-07
-1.22927e-06 7.14709e-07 0.0001259
0.000716505 3.95198e-06 1.9546e-06
3.95198e-06 6.44275e-06 -2.07771e-06
1.9546e-06 -2.07771e-06 -4.36123e-05
0.000650296 4.76611e-06 3.01728e-07
4.76611e-06 -9.29661e-06 -1.35198e-06
3.01728e-07 -1.35198e-06 -9.78537e-05
0.000909363 -0.000134989 1.96865e-07
-0.000134989 0.00012199 1.72546e-06
1.96865e-07 1.72546e-06 3.31626e-06
0.000909467 -8.82181e-05 1.3457e-06
-8.82181e-05 0.000131985 1.24285e-07
1.3457e-06 1.24285e-07 2.36982e-05
0.000959085 -0.000139664 -8.33315e-07
-0.000139664 0.000151751 2.59735e-06
-8.33315e-07 2.59735e-06 3.06338e-05
0.000628115 -4.74238e-05 -1.81311e-06
-4.74238e-05 -3.18986e-05 -3.54311e-06
-1.81311e-06 -3.54311e-06 -4.66463e-05
0.00138478 0.000121017 -4.20522e-06
0.000121017 7.36233e-05 -1.3899e-06
-4.20522e-06 -1.3899e-06 -5.89776e-05
0.000676208 -6.48705e-05 -1.83041e-07
-6.48705e-05 2.57194e-06 -1.92927e-06
-1.83041e-07 -1.92927e-06 -4.96737e-05
0.000749211 5.27509e-06 -2.33127e-07
5.27509e-06 4.50714e-05 -2.96507e-06
-2.33127e-07 -2.96507e-06 -3.45769e-05
0.000799417 -9.54587e-06 1.14627e-06
-9.54587e-06 7.8062e-05 -1.03296e-06
1.14627e-06 -1.03296e-06 -1.45542e-05
0.00124943 0.000160048 -5.08955e-06
0.000160048 8.16529e-05 -2.725e-06
-5.08955e-06 -2.725e-06 -5.98121e-05
0.00148022 0.000159204 -2.28469e-06
0.000159204 9.6527e-05 -3.38543e-07
-2.28469e-06 -3.38543e-07 -5.08004e-05
0.00088772 0.000123527 -1.5337e-06
0.000123527 0.000105345 -1.14022e-06
-1.5337e-06 -1.14022e-06 -1.65478e-05
0.00136177 0.000183479 -1.864e-06
0.000183479 0.000327613 -1.46735e-06
-1.864e-06 -1.46735e-06 0.000163754
0.00171889 0.000201512 -2.01562e-06
0.000201512 0.000369834 -4.07696e-06
-2.01562e-06 -4.07696e-06 0.000220042
0.00102077 0.000167505 -3.69676e-06
0.000167505 4.81749e-05 6.5501e-07
-3.69676e-06 6.5501e-07 -9.2451e-05
0.00065817 -4.31581e-05 5.72211e-08
-4.31581e-05 -2.46462e-05 4.09778e-09
5.72211e-08 4.09778e-09 -3.65461e-05
0.000707385 -5.15562e-05 -3.70613e-07
-5.15562e-05 8.46882e-06 1.45545e-07
-3.70613e-07 1.45545e-07 -3.43605e-05
0.000919652 7.20373e-05 7.0241e-07
7.20373e-05 0.00013574 -5.27599e-08
7.0241e-07 -5.27599e-08 2.77809e-05
0.000768958 -1.85324e-05 -2.96984e-07
-1.85324e-05 5.53201e-05 1.76152e-07
-2.96984e-07 1.76152e-07 -2.23072e-05
0.000809173 6.26467e-05 7.58884e-07
6.26467e-05 9.31203e-05 -2.76026e-07
7.58884e-07 -2.76026e-07 -1.85981e-05
0.00151519 0.000128891 1.14305e-06
0.000128891 9.16333e-05 3.29672e-08
1.14305e-06 3.29672e-08 -4.60793e-05
0.00139246 0.000177411 -1.58214e-07
0.000177411 0.000107766 1.49343e-06
-1.58214e-07 1.49343e-06 -4.50583e-05
0.00160888 0.000180408 1.36867e-06
0.000180408 0.00012988 3.1055e-07
1.36867e-06 3.1055e-07 -1.88911e-05
0.00105375 0.000151871 1.32053e-06
0.000151871 0.000203418 1.31085e-06
1.32053e-06 1.31085e-06 5.04717e-05
0.00151389 0.000200311 1.47615e-06
0.000200311 0.000231177 -1.7261e-06
1.47615e-06 -1.7261e-06 7.91292e-05
0.000781697 0.000154449 -2.01195e-06
0.000154449 -3.91684e-05 -1.16912e-06
-2.01195e-06 -1.16912e-06 -0.000209577
0.000726845 -3.93699e-05 1.46735e-06
-3.93699e-05 9.95131e-06 1.57715e-06
1.46735e-06 1.57715e-06 -2.81991e-05
0.000791085 1.03525e-05 3.75193e-07
1.03525e-05 5.67675e-05 1.15132e-06
3.75193e-07 1.15132e-06 -7.82109e-06
0.00103985 0.000140495 -6.99382e-07
0.000140495 0.000211815 -1.55787e-07
-6.99382e-07 -1.55787e-07 7.88822e-05
0.000842722 1.69693e-05 1.51482e-07
1.69693e-05 0.000105512 7.03371e-07
1.51482e-07 7.03371e-07 1.12975e-05
0.00108532 7.27613e-05 -2.11465e-06
7.27613e-05 0.000240843 -2.79152e-06
-2.11465e-06 -2.79152e-06 0.000120848
0.00155872 0.000131315 -2.25222e-06
0.000131315 7.80854e-05 -2.34133e-06
-2.25222e-06 -2.34133e-06 -5.3045e-05
0.00148056 0.000195597 8.89808e-07
0.000195597 0.00011596 3.82657e-06
8.89808e-07 3.82657e-06 -3.99037e-05
0.00146497 0.000192945 -2.19268e-06
0.000192945 1.98747e-05 -1.53942e-06
-2.19268e-06 -1.53942e-06 -0.000117792
0.000927436 0.000149949 -3.48736e-07
0.000149949 0.000140079 6.40996e-07
-3.48736e-07 6.40996e-07 -4.18743e-05
0.0012894 0.000201411 2.31913e-06
0.000201411 0.000134316 4.12167e-07
2.31913e-06 4.12167e-07 -3.29674e-05
0.000730951 -3.04995e-05 1.76791e-08
-3.04995e-05 6.51073e-06 -1.13217e-08
1.76791e-08 -1.13217e-08 -2.94796e-05
0.000656397 -9.04586e-06 1.25397e-06
-9.04586e-06 -2.77378e-05 9.0506e-07
1.25397e-06 9.0506e-07 -8.2549e-05
0.000694874 -2.2546e-05 -6.13642e-07
-2.2546e-05 -3.65201e-06 -8.0474e-08
-6.13642e-07 -8.0474e-08 -5.96718e-05
0.000938695 3.08369e-05 1.14661e-06
3.08369e-05 0.000144434 -4.63036e-07
1.14661e-06 -4.63036e-07 7.54597e-05
0.000782078 2.53597e-05 1.67809e-06
2.53597e-05 4.38927e-05 6.83513e-07
1.67809e-06 6.83513e-07 -1.21224e-05
0.000746301 -8.03012e-06 1.005e-06
-8.03012e-06 5.71137e-06 1.71317e-06
1.005e-06 1.71317e-06 -2.87811e-05
0.000747433 -1.9645e-05 -7.80776e-08
-1.9645e-05 8.53946e-06 2.15031e-09
-7.80776e-08 2.15031e-09 -2.5875e-05
0.00125692 -3.38906e-05 1.01787e-06
-3.38906e-05 0.000291689 2.15545e-06
1.01787e-06 2.15545e-06 0.000288423
0.000744934 -2.54128e-05 -1.25707e-06
-2.54128e-05 1.07436e-05 -1.76103e-06
-1.25707e-06 -1.76103e-06 -2.43468e-05
0.00127494 -3.96079e-05 -4.54806e-06
-3.96079e-05 0.000307505 -1.20973e-06
-4.54806e-06 -1.20973e-06 0.000303011
0.00093407 -3.09766e-05 2.08524e-05
-3.09766e-05 0.000120587 6.51109e-06
2.08524e-05 6.51109e-06 0.000131693
0.00126689 -4.44658e-05 -9.79866e-06
-4.44658e-05 0.000310402 -3.18867e-06
-9.79866e-06 -3.18867e-06 0.000304145
0.00149127 -4.66088e-05 1.91165e-05
-4.66088e-05 0.000443354 1.95458e-06
1.91165e-05 1.95458e-06 0.000455333
0.00209134 -6.39098e-05 -2.69991e-05
-6.39098e-05 0.000788329 -3.34413e-06
-2.69991e-05 -3.34413e-06 0.00080145
0.000634199 4.00882e-05 1.49838e-06
4.00882e-05 -3.83226e-05 -4.11445e-06
1.49838e-06 -4.11445e-06 -5.63721e-05
0.000630217 4.78904e-05 -8.39759e-08
4.78904e-05 -3.1735e-05 3.71568e-08
-8.39759e-08 3.71568e-08 -5.39435e-05
0.00247787 7.77177e-05 3.51503e-05
7.77177e-05 0.00101139 -3.48251e-06
3.51503e-05 -3.48251e-06 0.00101938
0.00263576 8.6873e-05 -2.15679e-06
8.6873e-05 0.00110591 -1.82083e-07
-2.15679e-06 -1.82083e-07 0.00111157
0.000633402 5.43699e-05 -5.85447e-07
5.43699e-05 -2.06555e-05 5.15568e-06
-5.85447e-07 5.15568e-06 -4.75336e-05
0.00283423 9.20841e-05 -5.81872e-05
9.20841e-05 0.00121994 2.95583e-06
-5.81872e-05 2.95583e-06 0.00122415
0.00140092 9.64856e-05 -4.84658e-06
9.64856e-05 7.05907e-05 -1.08024e-06
-4.84658e-06 -1.08024e-06 -5.66979e-05
0.00142349 5.15451e-05 -4.59347e-06
5.15451e-05 7.6441e-05 -1.11402e-06
-4.59347e-06 -1.11402e-06 -4.59256e-05
0.00154479 8.15086e-05 -5.66706e-07
8.15086e-05 9.74239e-05 4.33379e-07
-5.66706e-07 4.33379e-07 -2.64248e-05
0.00163582 4.04838e-05 -3.49173e-07
4.04838e-05 0.000110467 -1.12559e-07
-3.49173e-07 -1.12559e-07 -6.11241e-06
0.0014335 2.43905e-05 -4.33422e-06
2.43905e-05 6.15299e-05 -4.51428e-07
-4.33422e-06 -4.51428e-07 -6.01857e-05
0.00118225 6.52382e-06 -1.08137e-05
6.52382e-06 1.00601e-05 -1.61142e-07
-1.08137e-05 -1.61142e-07 -9.66933e-05
0.00144322 9.95825e-06 7.8726e-08
9.95825e-06 6.48522e-05 -7.33554e-08
7.8726e-08 -7.33554e-08 -5.65878e-05
0.00163961 1.89677e-05 -4.22606e-07
1.89677e-05 9.44445e-05 -1.649e-08
-4.22606e-07 -1.649e-08 -2.22935e-05
0.00155756 5.96821e-05 -6.7978e-08
5.96821e-05 8.85557e-05 1.15225e-08
-6.7978e-08 1.15225e-08 -3.19212e-05
0.0017639 5.26735e-05 5.84511e-07
5.26735e-05 0.00012309 4.55518e-07
5.84511e-07 4.55518e-07 1.67939e-05
0.00152838 9.97604e-05 -1.4032e-07
9.97604e-05 8.91786e-05 -4.17575e-08
-1.4032e-07 -4.17575e-08 -3.99875e-05
0.00165123 8.89867e-05 -1.20094e-07
8.89867e-05 9.43237e-05 5.88009e-07
-1.20094e-07 5.88009e-07 -1.33674e-05
0.0016391 -1.06835e-06 6.57116e-07
-1.06835e-06 9.87009e-05 1.52908e-07
6.57116e-07 1.52908e-07 -1.83852e-05
0.00174884 3.8337e-05 -3.08695e-07
3.8337e-05 9.65734e-05 6.66785e-07
-3.08695e-07 6.66785e-07 -1.20075e-05
0.00171059 7.32968e-05 -2.76644e-06
7.32968e-05 0.000109729 -1.68194e-07
-2.76644e-06 -1.68194e-07 5.28239e-06
0.00180649 5.96943e-05 -2.76244e-07
5.96943e-05 0.000126637 2.34513e-07
-2.76244e-07 2.34513e-07 2.95472e-05
0.00155985 9.51399e-05 -1.95935e-06
9.51399e-05 5.35577e-05 -1.63213e-06
-1.95935e-06 -1.63213e-06 -6.25957e-05
0.00188938 0.000100731 -2.31725e-07
0.000100731 0.000182501 -3.34846e-08
-2.31725e-07 -3.34846e-08 8.70881e-05
0.0014484 -3.00139e-06 -6.35993e-06
-3.00139e-06 7.0657e-05 5.15995e-07
-6.35993e-06 5.15995e-07 -5.03028e-05
0.00165454 -5.41269e-05 -6.7807e-06
-5.41269e-05 0.000201164 1.11623e-06
-6.7807e-06 1.11623e-06 8.2423e-05
0.00154006 -2.03611e-05 -1.59504e-06
-2.03611e-05 6.25156e-05 -1.12993e-07
-1.59504e-06 -1.12993e-07 -5.43903e-05
0.00171924 -7.59899e-05 -1.29282e-06
-7.59899e-05 0.000190298 4.85994e-07
-1.29282e-06 4.85994e-07 6.98693e-05
0.000835927 -6.40563e-05 -3.39415e-06
-6.40563e-05 8.63396e-05 2.12594e-06
-3.39415e-06 2.12594e-06 -5.59009e-06
0.00112291 -0.000148229 -1.94724e-06
-0.000148229 0.000211008 1.96923e-06
-1.94724e-06 1.96923e-06 8.59372e-05
0.000978224 -0.000158906 -1.23476e-06
-0.000158906 6.6881e-05 1.18578e-06
-1.23476e-06 1.18578e-06 -9.13108e-05
0.00172043 -0.000137161 -1.99319e-06
-0.000137161 0.000221725 2.01332e-07
-1.99319e-06 2.01332e-07 9.58615e-05
0.00158163 -0.000100199 2.3308e-06
-0.000100199 8.58586e-05 -3.5378e-07
2.3308e-06 -3.5378e-07 -2.37862e-05
0.00157719 -0.000156884 9.65345e-07
-0.000156884 0.00011368 -4.66888e-07
9.65345e-07 -4.66888e-07 -1.38196e-05
0.00115857 -0.000182961 -2.36376e-06
-0.000182961 -3.70598e-06 -4.87781e-07
-2.36376e-06 -4.87781e-07 -0.000168973
0.00167671 -0.000189631 4.15055e-06
-0.000189631 0.000160703 -2.79061e-06
4.15055e-06 -2.79061e-06 3.05952e-05
0.000934922 -7.78392e-05 -1.31332e-06
-7.78392e-05 0.000130962 -3.49166e-07
-1.31332e-06 -3.49166e-07 2.70434e-05
0.000871926 -9.00606e-05 -1.06124e-06
-9.00606e-05 9.99394e-05 -8.27709e-07
-1.06124e-06 -8.27709e-07 -1.16024e-05
0.000717292 6.01158e-06 -1.48665e-06
6.01158e-06 9.35098e-06 2.24967e-06
-1.48665e-06 2.24967e-06 -4.54502e-05
0.000634747 2.77683e-05 9.50112e-08
2.77683e-05 -2.90629e-05 2.49384e-07
9.50112e-08 2.49384e-07 -0.000116238
0.00161023 -1.0527e-05 1.56433e-08
-1.0527e-05 9.29999e-05 -6.84384e-08
1.56433e-08 -6.84384e-08 -2.56187e-05
0.00177187 -4.81157e-05 -6.72312e-07
-4.81157e-05 0.000201433 2.5877e-07
-6.72312e-07 2.5877e-07 8.18226e-05
0.00169465 -3.7055e-05 1.65727e-07
-3.7055e-05 9.12773e-05 -1.51246e-07
1.65727e-07 -1.51246e-07 -2.00044e-05
0.00163774 -8.58933e-05 -3.37572e-07
-8.58933e-05 0.000100208 3.22e-08
-3.37572e-07 3.22e-08 -9.03567e-06
0.000954698 -0.000114173 -3.35649e-07
-0.000114173 0.00013474 3.75615e-07
-3.35649e-07 3.75615e-07 2.46427e-05
0.000663764 -0.000129162 8.71672e-07
-0.000129162 -3.98937e-05 -1.17076e-06
8.71672e-07 -1.17076e-06 -0.000180553
0.00135729 -0.000200265 -4.49585e-07
-0.000200265 0.000226273 4.71114e-07
-4.49585e-07 4.71114e-07 4.07806e-05
0.00163697 -0.00013238 -7.99271e-07
-0.00013238 0.000127705 2.63303e-07
-7.99271e-07 2.63303e-07 8.68508e-06
0.00164413 -0.000105335 1.39466e-06
-0.000105335 7.59942e-05 -4.58536e-07
1.39466e-06 -4.58536e-07 -2.2274e-05
0.00163933 -0.000214852 -4.63017e-07
-0.000214852 0.000198314 7.56696e-07
-4.63017e-07 7.56696e-07 3.93446e-05
0.00165039 -0.000169101 -2.84831e-07
-0.000169101 0.000113176 2.41469e-07
-2.84831e-07 2.41469e-07 -3.62871e-06
0.00173664 -0.000198298 2.13165e-06
-0.000198298 0.00015996 -1.97893e-06
2.13165e-06 -1.97893e-06 3.21647e-05
0.000982396 -0.000140187 1.78859e-07
-0.000140187 0.000161892 2.34175e-07
1.78859e-07 2.34175e-07 4.25604e-05
0.000990553 -0.000134103 4.65218e-07
-0.000134103 0.000165692 4.12396e-07
4.65218e-07 4.12396e-07 4.64087e-05
0.000874689 -6.12307e-05 -3.47912e-07
-6.12307e-05 0.000109783 -8.83714e-08
-3.47912e-07 -8.83714e-08 4.55352e-06
0.000589208 1.58916e-05 -5.04074e-07
1.58916e-05 -6.35809e-05 6.53382e-08
-5.04074e-07 6.53382e-08 -0.000115145
0.000634387 2.34508e-05 1.14047e-07
2.34508e-05 -2.26774e-05 -4.36843e-07
1.14047e-07 -4.36843e-07 -0.000107137
0.00178784 -2.50409e-05 3.79761e-08
-2.50409e-05 0.000122077 -4.81286e-09
3.79761e-08 -4.81286e-09 1.30787e-05
0.00172275 -5.41602e-05 -4.20316e-07
-5.41602e-05 0.000102742 2.29201e-07
-4.20316e-07 2.29201e-07 -4.55866e-06
0.00174069 -0.000100132 -2.42366e-06
-0.000100132 0.000108463 -5.1217e-07
-2.42366e-06 -5.1217e-07 1.72605e-05
0.00156744 -0.000129396 -2.41321e-06
-0.000129396 3.31036e-05 9.93015e-07
-2.41321e-06 9.93015e-07 -6.80945e-05
0.000874518 -0.000135712 -6.13425e-07
-0.000135712 9.81756e-05 6.66466e-07
-6.13425e-07 6.66466e-07 -2.67719e-05
0.00199368 -0.000200301 -2.34827e-06
-0.000200301 0.000257859 1.58263e-06
-2.34827e-06 1.58263e-06 0.000144445
8.51362e-05 -9.75804e-05 -5.19416e-07
-9.75804e-05 -0.000356453 -5.00865e-06
-5.19416e-07 -5.00865e-06 -0.000513287
0.00177287 -0.000240217 2.48664e-06
-0.000240217 0.000383727 1.0233e-07
2.48664e-06 1.0233e-07 0.000189304
0.00173851 -0.00022601 2.95674e-07
-0.00022601 0.00019043 1.50374e-06
2.95674e-07 1.50374e-06 3.8622e-05
0.000457308 2.01915e-05 1.33363e-06
2.01915e-05 -0.000138909 -2.89096e-06
1.33363e-06 -2.89096e-06 -0.00018802
0.000873956 -9.87819e-06 1.45453e-06
-9.87819e-06 0.000113284 -7.47717e-07
1.45453e-06 -7.47717e-07 3.39276e-05
0.000924596 -4.08717e-05 -2.47596e-07
-4.08717e-05 0.000143165 5.78835e-08
-2.47596e-07 5.78835e-08 4.66651e-05
0.000987928 -0.000142412 -1.56361e-06
-0.000142412 0.000160178 2.36231e-06
-1.56361e-06 2.36231e-06 3.92586e-05
0.000962578 -9.10047e-05 8.87252e-07
-9.10047e-05 0.000154808 1.78844e-06
8.87252e-07 1.78844e-06 4.05113e-05
0.000830288 -0.000133144 -4.68852e-07
-0.000133144 6.74089e-05 1.8543e-06
-4.68852e-07 1.8543e-06 -5.31913e-05
0.000643141 -4.21123e-05 -1.59618e-06
-4.21123e-05 -3.2857e-05 -3.515e-06
-1.59618e-06 -3.515e-06 -4.4667e-05
0.000703735 -5.04495e-05 -1.61626e-06
-5.04495e-05 5.82113e-06 -1.44773e-06
-1.61626e-06 -1.44773e-06 -3.66574e-05
0.0014929 0.000128569 -9.69082e-07
0.000128569 7.98238e-05 -1.37302e-07
-9.69082e-07 -1.37302e-07 -5.82027e-05
0.000766024 -5.78281e-05 7.70369e-07
-5.78281e-05 5.23001e-05 -1.17506e-06
7.70369e-07 -1.17506e-06 -2.33007e-05
0.000813268 6.28715e-05 -9.46405e-08
6.28715e-05 7.59718e-05 -5.33065e-07
-9.46405e-08 -5.33065e-07 -2.94086e-05
0.000718615 3.62789e-05 1.37666e-06
3.62789e-05 3.9092e-05 -7.37303e-08
1.37666e-06 -7.37303e-08 -7.03971e-05
0.00136027 0.000176378 -2.47936e-06
0.000176378 9.24409e-05 -1.03848e-06
-2.47936e-06 -1.03848e-06 -6.06058e-05
0.00158494 0.000180921 8.31672e-07
0.000180921 0.000116854 6.08762e-07
8.31672e-07 6.08762e-07 -3.26557e-05
0.000915735 0.000141464 3.55453e-07
0.000141464 0.000129227 -6.11098e-07
3.55453e-07 -6.11098e-07 -2.17387e-05
0.00126262 0.000186968 -3.82094e-07
0.000186968 0.00021839 -7.75217e-08
-3.82094e-07 -7.75217e-08 4.67564e-05
0.0016598 0.000207802 -2.85859e-06
0.000207802 0.000312892 -4.6965e-06
-2.85859e-06 -4.6965e-06 0.000161043
0.00072509 -3.80455e-05 -1.14771e-07
-3.80455e-05 8.93658e-06 1.83038e-08
-1.14771e-07 1.83038e-08 -2.90819e-05
0.000766838 -2.44899e-05 -6.09725e-07
-2.44899e-05 4.28773e-05 3.30143e-07
-6.09725e-07 3.30143e-07 -2.0682e-05
0.000953819 0.000134424 -5.41818e-07
0.000134424 0.000166251 1.79932e-08
-5.41818e-07 1.79932e-08 3.36397e-05
0.000815273 -1.17458e-05 2.53479e-07
-1.17458e-05 8.74657e-05 6.08183e-08
2.53479e-07 6.08183e-08 -4.02796e-06
0.000899857 7.46823e-05 8.65242e-08
7.46823e-05 0.00014282 -4.75008e-07
8.65242e-08 -4.75008e-07 2.0686e-05
0.00159668 0.000135399 -1.24397e-06
0.000135399 9.88517e-05 -1.05306e-06
-1.24397e-06 -1.05306e-06 -3.32911e-05
0.00149386 0.000195575 1.13668e-06
0.000195575 0.000124871 1.65278e-06
1.13668e-06 1.65278e-06 -3.13207e-05
0.0015529 0.00019397 7.33212e-07
0.00019397 6.72129e-05 2.54308e-07
7.33212e-07 2.54308e-07 -6.84994e-05
0.000723895 0.000137963 3.47517e-07
0.000137963 2.34012e-05 2.38675e-06
3.47517e-07 2.38675e-06 -0.000155216
0.00148457 0.000214572 -1.30079e-06
0.000214572 0.000241913 -2.87551e-07
-1.30079e-06 -2.87551e-07 7.09181e-05
0.000790281 7.33605e-06 1.00247e-06
7.33605e-06 4.96569e-05 6.74383e-07
1.00247e-06 6.74383e-07 -7.08815e-06
0.000617822 -3.29467e-05 -1.07791e-06
-3.29467e-05 -2.95749e-05 1.5396e-06
-1.07791e-06 1.5396e-06 -0.00010879
0.00095316 0.000142579 -2.3247e-06
0.000142579 0.000164928 -2.14759e-06
-2.3247e-06 -2.14759e-06 1.42586e-05
0.000644462 2.59205e-05 -1.47274e-06
2.59205e-05 2.14074e-06 -8.22062e-07
-1.47274e-06 -8.22062e-07 -0.000109239
0.00100454 0.00011635 -1.31766e-06
0.00011635 0.000191913 -2.19756e-06
-1.31766e-06 -2.19756e-06 6.07656e-05
0.00161625 0.000148175 -3.02785e-06
0.000148175 4.39937e-05 -2.23392e-06
-3.02785e-06 -2.23392e-06 -5.99361e-05
0.00187619 0.000237423 -8.36488e-07
0.000237423 0.000306281 7.65629e-07
-8.36488e-07 7.65629e-07 0.000147366
0.00148375 0.000195499 2.05127e-07
0.000195499 2.37437e-06 -1.68884e-07
2.05127e-07 -1.68884e-07 -0.000125167
0.00180354 0.000214836 2.22102e-06
0.000214836 0.000571364 4.02565e-06
2.22102e-06 4.02565e-06 0.000369934
0.000565412 0.000169892 -1.06267e-06
0.000169892 -0.000292547 -2.92942e-07
-1.06267e-06 -2.92942e-07 -0.000464101
0.000734839 -2.94863e-05 -1.6959e-06
-2.94863e-05 9.01424e-06 -1.55216e-06
-1.6959e-06 -1.55216e-06 -2.70199e-05
0.000709975 -7.76574e-06 2.16444e-07
-7.76574e-06 3.66149e-06 4.38197e-07
2.16444e-07 4.38197e-07 -5.17176e-05
0.000689701 -3.50836e-05 -2.36036e-07
-3.50836e-05 1.00515e-06 2.7101e-07
-2.36036e-07 2.7101e-07 -6.45441e-05
0.000629964 -4.7024e-05 -9.32453e-07
-4.7024e-05 -4.03091e-05 -4.94936e-07
-9.32453e-07 -4.94936e-07 -9.62429e-05
0.000774881 -4.01029e-07 8.94739e-08
-4.01029e-07 3.91421e-05 5.3005e-09
8.94739e-08 5.3005e-09 -1.61888e-05
0.000795621 -7.81106e-06 9.87204e-08
-7.81106e-06 5.96194e-05 -3.44376e-07
9.87204e-08 -3.44376e-07 -5.55167e-06
0.000882835 1.64622e-05 1.75128e-09
1.64622e-05 0.000114622 -8.467e-07
1.75128e-09 -8.467e-07 4.20871e-05
0.000714606 -3.36051e-05 6.67604e-07
-3.36051e-05 1.85736e-05 -1.26587e-07
6.67604e-07 -1.26587e-07 -5.01426e-05
0.000801884 8.39337e-06 4.74771e-07
8.39337e-06 5.00025e-05 4.93998e-07
4.74771e-07 4.93998e-07 -3.44205e-06
0.000744876 2.16795e-07 9.77673e-07
2.16795e-07 5.68208e-06 1.59821e-06
9.77673e-07 1.59821e-06 -2.97608e-05
0.000749248 -1.17285e-05 -1.7923e-07
-1.17285e-05 7.84266e-06 -8.05456e-10
-1.7923e-07 -8.05456e-10 -2.67752e-05
0.00126061 -2.49374e-05 9.77397e-07
-2.49374e-05 0.000289056 2.1015e-06
9.77397e-07 2.1015e-06 0.000286542
0.000747709 -1.99813e-05 -9.98537e-07
-1.99813e-05 9.07063e-06 -1.78818e-06
-9.98537e-07 -1.78818e-06 -2.54173e-05
0.00127957 -3.15933e-05 -3.87565e-06
-3.15933e-05 0.00030409 -1.2653e-06
-3.87565e-06 -1.2653e-06 0.000300961
0.000937198 -2.55419e-05 1.70559e-05
-2.55419e-05 0.000116146 6.72748e-06
1.70559e-05 6.72748e-06 0.000128447
0.00129583 -3.78518e-05 -8.31831e-06
-3.78518e-05 0.000318723 -4.65299e-06
-8.31831e-06 -4.65299e-06 0.000314387
0.00087458 -3.21048e-05 6.77023e-06
-3.21048e-05 8.74642e-05 2.51149e-06
6.77023e-06 2.51149e-06 9.8225e-05
0.0020244 -6.08687e-05 -6.1339e-06
-6.08687e-05 0.000743455 -1.56716e-06
-6.1339e-06 -1.56716e-06 0.000757714
0.000651285 3.55476e-05 1.09006e-06
3.55476e-05 -3.59026e-05 -3.94032e-06
1.09006e-06 -3.94032e-06 -5.05877e-05
0.000645758 4.12619e-05 -1.49041e-07
4.12619e-05 -3.15892e-05 3.51305e-08
-1.49041e-07 3.51305e-08 -4.98881e-05
0.00238198 6.81599e-05 2.97972e-05
6.81599e-05 0.000950262 -3.7465e-06
2.97972e-05 -3.7465e-06 0.000960806
0.000648727 5.05228e-05 -9.4388e-07
5.05228e-05 -2.05533e-05 4.56176e-06
-9.4388e-07 4.56176e-06 -4.33508e-05
0.00252785 7.82343e-05 -2.10819e-06
7.82343e-05 0.00103965 -1.65141e-07
-2.10819e-06 -1.65141e-07 0.00104748
0.00268485 8.57356e-05 -4.82985e-05
8.57356e-05 0.0011329 3.05186e-06
-4.82985e-05 3.05186e-06 0.00113885
0.00149785 0.000100165 -1.58789e-06
0.000100165 7.15162e-05 2.45685e-07
-1.58789e-06 2.45685e-07 -5.80777e-05
0.00159331 5.79638e-05 -1.58147e-07
5.79638e-05 0.00011043 4.12858e-08
-1.58147e-07 4.12858e-08 -9.8611e-06
0.00164208 8.80137e-05 2.6917e-06
8.80137e-05 8.8665e-05 1.27818e-06
2.6917e-06 1.27818e-06 -1.74112e-05
0.00181361 5.52242e-05 2.2639e-06
5.52242e-05 0.000147764 5.6014e-08
2.2639e-06 5.6014e-08 4.3405e-05
0.00165164 1.17345e-05 -9.54372e-07
1.17345e-05 0.000100747 -1.48293e-07
-9.54372e-07 -1.48293e-07 -1.5952e-05
0.00144797 1.30561e-05 -4.22372e-06
1.30561e-05 6.71728e-05 -1.14879e-07
-4.22372e-06 -1.14879e-07 -5.42934e-05
0.00162621 2.10322e-06 -3.28648e-07
2.10322e-06 9.16994e-05 -1.2525e-08
-3.28648e-07 -1.2525e-08 -2.62077e-05
0.00174818 3.20123e-05 5.48428e-07
3.20123e-05 9.83455e-05 -1.93613e-08
5.48428e-07 -1.93613e-08 -1.09422e-05
0.00168419 7.0588e-05 -8.35288e-07
7.0588e-05 9.24302e-05 -1.63762e-07
-8.35288e-07 -1.63762e-07 -1.31081e-05
0.00177557 5.98254e-05 1.30785e-06
5.98254e-05 0.000104838 -1.34374e-07
1.30785e-06 -1.34374e-07 9.18426e-06
0.00157596 9.45934e-05 -6.71539e-07
9.45934e-05 6.75671e-05 7.16368e-08
-6.71539e-07 7.16368e-08 -4.85702e-05
0.00178527 0.00010323 2.79006e-06
0.00010323 0.000122713 5.44434e-07
2.79006e-06 5.44434e-07 2.89779e-05
0.00176624 1.79751e-06 -4.58736e-07
1.79751e-06 0.000111867 2.50604e-07
-4.58736e-07 2.50604e-07 2.39039e-06
0.00173837 4.32588e-05 -3.76457e-07
4.32588e-05 7.76147e-05 7.05031e-07
-3.76457e-07 7.05031e-07 -2.01067e-05
0.00179334 7.63744e-05 -9.74866e-07
7.63744e-05 0.000104365 3.08571e-08
-9.74866e-07 3.08571e-08 1.54279e-05
0.00192521 0.000124696 -1.35515e-06
0.000124696 0.0001961 -9.21482e-07
-1.35515e-06 -9.21482e-07 0.000104058
0.001596 -1.01115e-05 -8.53018e-07
-1.01115e-05 8.3985e-05 -5.13274e-08
-8.53018e-07 -5.13274e-08 -3.46715e-05
0.00169597 -4.74416e-05 -1.7222e-06
-4.74416e-05 0.000158089 1.2976e-07
-1.7222e-06 1.2976e-07 3.73524e-05
0.0016896 -3.64892e-05 4.50519e-07
-3.64892e-05 9.20292e-05 -3.25292e-07
4.50519e-07 -3.25292e-07 -1.85051e-05
0.0015984 -8.39897e-05 1.47833e-06
-8.39897e-05 8.32503e-05 -1.22169e-07
1.47833e-06 -1.22169e-07 -2.74143e-05
0.00107214 -0.000119384 -1.45656e-06
-0.000119384 0.000198956 4.32823e-07
-1.45656e-06 4.32823e-07 8.75783e-05
0.00083663 -0.00013942 1.0461e-06
-0.00013942 5.69698e-05 8.47058e-07
1.0461e-06 8.47058e-07 -8.18028e-05
0.00132183 -0.000195614 -2.13683e-06
-0.000195614 0.000212437 3.29212e-06
-2.13683e-06 3.29212e-06 2.40733e-05
0.00163079 -0.000132729 1.05483e-07
-0.000132729 0.000126106 -3.3367e-07
1.05483e-07 -3.3367e-07 5.45421e-06
0.00160623 -0.000105505 3.70341e-06
-0.000105505 5.50993e-05 -1.04743e-06
3.70341e-06 -1.04743e-06 -4.12929e-05
0.00167571 -0.00016973 3.42083e-06
-0.00016973 0.00012646 -9.52966e-07
3.42083e-06 -9.52966e-07 9.76487e-06
0.00141772 -0.000203109 -1.17591e-06
-0.000203109 7.45403e-05 -2.23527e-06
-1.17591e-06 -2.23527e-06 -8.30267e-05
0.0015916 -0.000191672 2.78228e-06
-0.000191672 8.17738e-05 -5.12433e-06
2.78228e-06 -5.12433e-06 -4.53449e-05
0.00106947 -0.00014638 3.38983e-07
-0.00014638 0.000209811 -1.16723e-06
3.38983e-07 -1.16723e-06 8.9637e-05
0.00103895 -0.000138378 6.0268e-07
-0.000138378 0.000190333 -2.62846e-06
6.0268e-07 -2.62846e-06 7.1032e-05
0.000829427 -3.7184e-05 4.38085e-08
-3.7184e-05 8.28419e-05 -6.18864e-09
4.38085e-08 -6.18864e-09 -1.99895e-05
0.000458959 1.96171e-05 -1.76277e-06
1.96171e-05 -0.000135435 2.11094e-06
-1.76277e-06 2.11094e-06 -0.000188379
0.000621899 3.80478e-05 1.13546e-07
3.80478e-05 -3.25487e-05 2.45628e-07
1.13546e-07 2.45628e-07 -0.000114026
0.00179279 -2.62851e-05 2.02768e-07
-2.62851e-05 0.000128274 -8.35268e-08
2.02768e-07 -8.35268e-08 1.91176e-05
0.00175623 -5.59168e-05 2.40462e-07
-5.59168e-05 0.00012294 -2.01488e-07
2.40462e-07 -2.01488e-07 1.56683e-05
0.00173074 -0.000100497 -9.08944e-07
-0.000100497 0.000105768 -8.7694e-09
-9.08944e-07 -8.7694e-09 1.26161e-05
0.00101289 -0.000144823 -1.19791e-07
-0.000144823 0.000172395 6.75046e-07
-1.19791e-07 6.75046e-07 4.61867e-05
0.000738588 -0.000140004 1.63021e-06
-0.000140004 -2.3046e-07 -2.12381e-06
1.63021e-06 -2.12381e-06 -0.000158802
0.00150499 -0.000221639 -8.19439e-07
-0.000221639 0.000243527 9.13834e-07
-8.19439e-07 9.13834e-07 4.69832e-05
0.00164066 -0.0001312 7.10188e-07
-0.0001312 7.31175e-05 -1.63036e-07
7.10188e-07 -1.63036e-07 -2.8553e-05
0.00160852 -0.000216294 6.11331e-07
-0.000216294 0.000118423 -1.18544e-06
6.11331e-07 -1.18544e-06 -2.9238e-05
0.00174111 -0.000192019 -2.49952e-07
-0.000192019 0.000126566 -8.94452e-07
-2.49952e-07 -8.94452e-07 1.23086e-05
0.00045801 2.38532e-05 8.52407e-08
2.38532e-05 -0.000139194 -7.11491e-07
8.52407e-08 -7.11491e-07 -0.000187532
0.00102889 -0.000145077 -8.04898e-08
-0.000145077 0.000180434 3.50924e-07
-8.04898e-08 3.50924e-07 5.92663e-05
0.000849388 -0.000133847 -7.085e-07
-0.000133847 7.96216e-05 2.7102e-07
-7.085e-07 2.7102e-07 -3.917e-05
0.00100128 -9.75871e-05 -3.87812e-07
-9.75871e-05 0.000180184 8.16813e-07
-3.87812e-07 8.16813e-07 6.22495e-05
0.000952332 -3.86163e-05 -5.77807e-08
-3.86163e-05 0.000158738 6.8668e-08
-5.77807e-08 6.8668e-08 6.22502e-05
0.000742178 1.09718e-05 -2.4092e-07
1.09718e-05 3.63858e-05 2.98154e-07
-2.4092e-07 2.98154e-07 -4.11904e-05
0.0016679 -3.61686e-05 -8.63124e-07
-3.61686e-05 4.01347e-05 2.09588e-07
-8.63124e-07 2.09588e-07 -6.29846e-05
0.00178627 -8.08594e-05 -2.28324e-06
-8.08594e-05 0.000107169 -1.07694e-07
-2.28324e-06 -1.07694e-07 1.86559e-05
0.00155741 -0.000110998 -1.6364e-06
-0.000110998 -9.94401e-06 1.94707e-07
-1.6364e-06 1.94707e-07 -9.37062e-05
0.00190705 -0.000166429 -9.64088e-07
-0.000166429 0.000171094 1.11953e-07
-9.64088e-07 1.11953e-07 7.93821e-05
0.000998172 -0.000147437 -1.79424e-06
-0.000147437 0.000163148 5.24829e-07
-1.79424e-06 5.24829e-07 2.90387e-05
0.00180669 -0.000221792 1.27738e-06
-0.000221792 0.000177415 2.42663e-06
1.27738e-06 2.42663e-06 4.8812e-05
0.000670068 -0.000151397 -5.86273e-07
-0.000151397 -7.5253e-05 -2.5272e-06
-5.86273e-07 -2.5272e-06 -0.000270467
0.00193366 -0.00026151 -2.40437e-07
-0.00026151 0.000402607 2.18728e-06
-2.40437e-07 2.18728e-06 0.000207681
0.000458933 2.89597e-05 2.9971e-07
2.89597e-05 -0.000141235 -2.79945e-06
2.9971e-07 -2.79945e-06 -0.000185848
0.000869997 -6.80767e-06 1.28591e-06
-6.80767e-06 0.000106935 -1.04829e-06
1.28591e-06 -1.04829e-06 3.41839e-05
0.00100405 -5.73346e-05 5.18819e-08
-5.73346e-05 0.000189621 8.0722e-07
5.18819e-08 8.0722e-07 9.71702e-05
0.000866924 -2.03103e-05 3.23886e-07
-2.03103e-05 0.000110496 -1.38145e-07
3.23886e-07 -1.38145e-07 5.30247e-06
0.000884012 -0.000139052 -9.76127e-07
-0.000139052 9.35058e-05 1.42322e-06
-9.76127e-07 1.42322e-06 -3.06556e-05
0.000969579 -0.000143449 -3.40132e-06
-0.000143449 0.000141426 3.26982e-06
-3.40132e-06 3.26982e-06 1.51346e-05
0.000723712 -3.71797e-05 -1.88541e-06
-3.71797e-05 8.14745e-06 -1.43226e-06
-1.88541e-06 -1.43226e-06 -2.97716e-05
0.000728408 -5.77997e-05 -1.06179e-07
-5.77997e-05 2.31743e-05 -7.32369e-07
-1.06179e-07 -7.32369e-07 -4.07563e-05
0.0016418 0.000139931 2.69867e-08
0.000139931 0.000123008 3.72321e-07
2.69867e-08 3.72321e-07 -1.01929e-05
0.000794073 -3.61923e-05 6.97643e-07
-3.61923e-05 7.31889e-05 -5.32584e-07
6.97643e-07 -5.32584e-07 -1.58916e-05
0.000929988 0.000132544 5.93316e-07
0.000132544 0.000155482 -4.45956e-07
5.93316e-07 -4.45956e-07 2.34398e-05
0.000667099 4.08171e-05 1.41783e-06
4.08171e-05 1.04514e-05 -2.41316e-07
1.41783e-06 -2.41316e-07 -0.000107097
0.0015127 0.000195981 -1.16747e-06
0.000195981 0.000136471 -9.70599e-07
-1.16747e-06 -9.70599e-07 -2.01014e-05
0.0016534 0.000195945 2.02421e-06
0.000195945 0.000120313 1.61285e-06
2.02421e-06 1.61285e-06 -1.35455e-05
0.000588553 0.000130024 6.7976e-07
0.000130024 -5.60992e-05 1.41593e-06
6.7976e-07 1.41593e-06 -0.000231577
0.00166734 0.000226463 -2.58491e-07
0.000226463 0.000343279 -6.85834e-07
-2.58491e-07 -6.85834e-07 0.000167657
0.000762836 -1.71367e-05 -5.6838e-07
-1.71367e-05 3.50631e-05 1.26549e-07
-5.6838e-07 1.26549e-07 -2.17923e-05
0.000721359 -1.58188e-05 6.85118e-09
-1.58188e-05 2.7366e-05 8.99795e-07
6.85118e-09 8.99795e-07 -5.21656e-05
0.00105094 0.000148134 -6.66328e-07
0.000148134 0.000220768 -1.86169e-06
-6.66328e-07 -1.86169e-06 7.06206e-05
0.000698276 -1.2447e-05 -2.62433e-07
-1.2447e-05 2.48846e-05 1.08061e-07
-2.62433e-07 1.08061e-07 -8.01543e-05
0.000844646 9.65897e-05 -1.142e-06
9.65897e-05 0.000104898 -9.43255e-07
-1.142e-06 -9.43255e-07 -1.99778e-05
0.00183766 0.000154349 -2.1175e-06
0.000154349 0.000165381 -9.13274e-07
-2.1175e-06 -9.13274e-07 6.33724e-05
0.00185759 0.000234618 8.42414e-07
0.000234618 0.000292155 6.38499e-07
8.42414e-07 6.38499e-07 0.000132462
0.00157676 0.000202915 6.623e-07
0.000202915 5.39035e-05 1.79906e-06
6.623e-07 1.79906e-06 -7.32483e-05
0.00137964 0.000188527 1.98293e-06
0.000188527 0.000349511 3.10427e-06
1.98293e-06 3.10427e-06 0.000145386
0.000962904 0.00019621 -1.84433e-06
0.00019621 -7.69548e-05 -6.89127e-07
-1.84433e-06 -6.89127e-07 -0.000250203
0.000637646 -3.70317e-05 -3.33482e-07
-3.70317e-05 -2.39836e-05 7.20305e-07
-3.33482e-07 7.20305e-07 -9.34209e-05
0.000460582 3.17475e-05 -7.24582e-07
3.17475e-05 -9.87821e-05 2.42624e-07
-7.24582e-07 2.42624e-07 -0.000200572
0.00110891 0.000153603 -2.01085e-07
0.000153603 0.000245225 4.69324e-07
-2.01085e-07 4.69324e-07 7.31574e-05
8.64528e-05 3.78632e-05 5.01799e-07
3.78632e-05 -0.000305662 4.12488e-08
5.01799e-07 4.12488e-08 -0.000432805
0.00193783 0.000151677 -2.02668e-06
0.000151677 0.000125447 -4.23383e-07
-2.02668e-06 -4.23383e-07 4.83112e-05
0.00194221 0.000192812 1.23486e-06
0.000192812 0.000180096 -4.94792e-07
1.23486e-06 -4.94792e-07 8.21823e-05
0.0017137 0.000252958 -1.40974e-06
0.000252958 0.000180714 -1.41025e-06
-1.40974e-06 -1.41025e-06 1.71101e-05
-0.000108238 0.000104327 -6.58115e-07
0.000104327 -0.000529846 1.29251e-06
-6.58115e-07 1.29251e-06 -0.000745597
0.000763632 7.14042e-06 -8.36471e-07
7.14042e-06 3.76012e-05 4.60534e-09
-8.36471e-07 4.60534e-09 -2.00544e-05
0.000755755 -1.03152e-05 -3.32511e-07
-1.03152e-05 4.14107e-05 4.07932e-07
-3.32511e-07 4.07932e-07 -2.63425e-05
0.000848622 -3.47298e-05 -3.78948e-07
-3.47298e-05 9.859e-05 -1.23309e-07
-3.78948e-07 -1.23309e-07 2.55765e-05
0.00075817 -3.27027e-05 -1.02878e-06
-3.27027e-05 2.77452e-05 -5.8381e-07
-1.02878e-06 -5.8381e-07 -2.59745e-05
0.000654863 -3.92634e-05 -2.02669e-07
-3.92634e-05 -1.75554e-05 -1.32777e-07
-2.02669e-07 -1.32777e-07 -8.32913e-05
0.000779993 -8.01938e-06 2.93342e-08
-8.01938e-06 3.89586e-05 2.5756e-08
2.93342e-08 2.5756e-08 -1.51868e-05
0.000793698 2.20607e-05 -3.34982e-07
2.20607e-05 7.13338e-05 -2.66389e-07
-3.34982e-07 -2.66389e-07 -5.33891e-06
0.000737385 -8.64851e-06 3.66569e-07
-8.64851e-06 3.28292e-05 2.43023e-07
3.66569e-07 2.43023e-07 -3.68521e-05
0.00083551 -7.36467e-06 2.09181e-07
-7.36467e-06 8.87123e-05 -4.81017e-07
2.09181e-07 -4.81017e-07 1.24331e-05
0.000800512 -3.94741e-05 2.22976e-07
-3.94741e-05 6.85825e-05 -3.46712e-07
2.22976e-07 -3.46712e-07 -6.47186e-06
0.000689032 1.22622e-05 4.84613e-07
1.22622e-05 2.20186e-06 1.19333e-07
4.84613e-07 1.19333e-07 -6.72273e-05
0.000780036 2.2172e-05 6.3892e-07
2.2172e-05 3.95751e-05 5.17541e-07
6.3892e-07 5.17541e-07 -1.55674e-05
0.000732749 7.5603e-06 6.04222e-07
7.5603e-06 1.20991e-06 1.48703e-06
6.04222e-07 1.48703e-06 -3.52619e-05
0.000743216 -6.00727e-06 -1.49803e-07
-6.00727e-06 5.029e-06 9.44441e-09
-1.49803e-07 9.44441e-09 -3.05049e-05
0.00127649 -1.64655e-05 8.11934e-07
-1.64655e-05 0.000295159 2.06505e-06
8.11934e-07 2.06505e-06 0.000292617
0.000746666 -1.60257e-05 -6.82513e-07
-1.60257e-05 6.83047e-06 -1.68057e-06
-6.82513e-07 -1.68057e-06 -2.79109e-05
0.00129376 -2.2959e-05 -3.20977e-06
-2.2959e-05 0.000307711 -1.32717e-06
-3.20977e-06 -1.32717e-06 0.000305096
0.000947585 -1.95055e-05 1.4165e-05
-1.95055e-05 0.000117458 6.95551e-06
1.4165e-05 6.95551e-06 0.000130292
0.00130808 -2.99232e-05 -6.7558e-06
-2.99232e-05 0.000319775 -4.70752e-06
-6.7558e-06 -4.70752e-06 0.000316634
0.000886639 -2.62685e-05 5.43444e-06
-2.62685e-05 8.76884e-05 2.59592e-06
5.43444e-06 2.59592e-06 9.98677e-05
0.000818701 -3.20236e-05 -2.05874e-06
-3.20236e-05 5.61304e-05 -1.72561e-06
-2.05874e-06 -1.72561e-06 6.68849e-05
0.000660598 3.04544e-05 7.55303e-07
3.04544e-05 -3.74316e-05 -3.76317e-06
7.55303e-07 -3.76317e-06 -4.88938e-05
0.000659502 3.62098e-05 -1.79008e-07
3.62098e-05 -3.13754e-05 3.84289e-08
-1.79008e-07 3.84289e-08 -4.61847e-05
0.00229038 5.83209e-05 2.47717e-05
5.83209e-05 0.000891452 -3.94985e-06
2.47717e-05 -3.94985e-06 0.000904572
0.000659267 4.28975e-05 -1.37043e-06
4.28975e-05 -2.36226e-05 4.20405e-06
-1.37043e-06 4.20405e-06 -4.2247e-05
0.00242338 6.8851e-05 -2.13649e-06
6.8851e-05 0.000974147 -1.47632e-07
-2.13649e-06 -1.47632e-07 0.000984409
0.00256942 7.80791e-05 -4.04558e-05
7.80791e-05 0.00106306 3.35394e-06
-4.04558e-05 3.35394e-06 0.0010709
0.00159123 9.40826e-05 1.73643e-06
9.40826e-05 8.11898e-05 2.03612e-06
1.73643e-06 2.03612e-06 -3.4931e-05
0.00166134 6.78966e-05 9.64167e-07
6.78966e-05 7.70596e-05 8.83002e-08
9.64167e-07 8.83002e-08 -2.95711e-05
0.00168568 0.00010577 4.68565e-06
0.00010577 6.54351e-05 6.58187e-07
4.68565e-06 6.58187e-07 -2.66377e-05
0.00174746 5.99996e-05 2.78745e-06
5.99996e-05 8.48681e-05 -7.38682e-07
2.78745e-06 -7.38682e-07 -9.36064e-06
0.00174729 2.66166e-05 1.55468e-06
2.66166e-05 0.000100183 -2.09035e-07
1.55468e-06 -2.09035e-07 -9.8709e-06
0.00161437 1.02027e-06 -1.06358e-06
1.02027e-06 8.50922e-05 -1.42526e-07
-1.06358e-06 -1.42526e-07 -3.35903e-05
0.0017534 2.88322e-06 -1.11028e-07
2.88322e-06 0.000105961 -1.58114e-08
-1.11028e-07 -1.58114e-08 -3.55185e-06
0.00172091 3.94286e-05 6.05577e-07
3.94286e-05 7.17553e-05 -1.73295e-07
6.05577e-07 -1.73295e-07 -2.63322e-05
0.00175093 7.76297e-05 7.73537e-07
7.76297e-05 8.27333e-05 -1.8028e-07
7.73537e-07 -1.8028e-07 -6.66746e-06
0.00189653 0.000119802 4.69709e-07
0.000119802 0.000172537 2.67308e-07
4.69709e-07 2.67308e-07 8.12879e-05
0.00175719 3.16846e-06 -1.30935e-06
3.16846e-06 8.69325e-05 3.75449e-07
-1.30935e-06 3.75449e-07 -1.39605e-05
0.00192978 5.99673e-05 -1.08789e-07
5.99673e-05 0.000158257 4.25196e-07
-1.08789e-07 4.25196e-07 7.64777e-05
0.00174328 0.000114055 -2.10771e-07
0.000114055 4.28609e-05 -1.40499e-07
-2.10771e-07 -1.40499e-07 -3.70609e-05
0.00180004 -2.73047e-05 5.70221e-07
-2.73047e-05 0.000135694 -2.96834e-07
5.70221e-07 -2.96834e-07 2.63867e-05
0.00178906 -5.75453e-05 7.50394e-07
-5.75453e-05 0.00014274 -3.07234e-07
7.50394e-07 -3.07234e-07 3.5497e-05
0.00171947 -0.000100248 1.83341e-06
-0.000100248 0.000102851 -1.03359e-10
1.83341e-06 -1.03359e-10 7.79995e-06
0.00113645 -0.000152769 -3.7428e-08
-0.000152769 0.000238139 9.30448e-07
-3.7428e-08 9.30448e-07 0.000110889
0.00139021 -0.000182755 7.37091e-08
-0.000182755 0.000352971 1.66909e-06
7.37091e-08 1.66909e-06 0.000193843
0.00124637 -0.000204 -1.9914e-06
-0.000204 0.000107407 1.62532e-06
-1.9914e-06 1.62532e-06 -9.01699e-05
0.00171021 -0.000132662 1.84676e-06
-0.000132662 0.000111344 -7.52985e-07
1.84676e-06 -7.52985e-07 9.23857e-06
0.00150108 -0.000185172 -5.44185e-07
-0.000185172 5.52585e-07 -2.23155e-06
-5.44185e-07 -2.23155e-06 -0.000114755
0.00151475 -0.000209023 -7.59606e-07
-0.000209023 6.51468e-05 -4.33362e-06
-7.59606e-07 -4.33362e-06 -7.85883e-05
0.00105513 -0.000146725 7.60602e-07
-0.000146725 0.000192856 -1.18415e-06
7.60602e-07 -1.18415e-06 7.15306e-05
0.00082314 -0.00013118 -2.74903e-06
-0.00013118 6.76173e-05 -2.15788e-06
-2.74903e-06 -2.15788e-06 -4.90252e-05
0.00104708 -0.000111238 5.39317e-07
-0.000111238 0.000212245 1.58315e-07
5.39317e-07 1.58315e-07 8.84452e-05
0.000457631 2.20104e-05 -8.88789e-07
2.20104e-05 -0.000139869 1.35523e-06
-8.88789e-07 1.35523e-06 -0.000187561
0.000972158 -3.06397e-05 1.45716e-07
-3.06397e-05 0.000166895 -1.79218e-07
1.45716e-07 -1.79218e-07 7.24423e-05
0.000611609 2.84183e-05 3.64207e-07
2.84183e-05 -4.01509e-05 1.26031e-06
3.64207e-07 1.26031e-06 -0.000115786
0.00177239 -3.45511e-05 -2.07489e-07
-3.45511e-05 9.43384e-05 1.2109e-07
-2.07489e-07 1.2109e-07 -8.58242e-06
0.00182227 -8.2415e-05 6.27302e-07
-8.2415e-05 0.000128469 -4.49058e-08
6.27302e-07 -4.49058e-08 4.07123e-05
0.00160974 -0.000111403 -3.85663e-07
-0.000111403 2.0467e-05 1.3966e-07
-3.85663e-07 1.3966e-07 -6.33925e-05
0.00102057 -0.000148211 1.72513e-07
-0.000148211 0.000172987 1.45728e-06
1.72513e-07 1.45728e-06 3.85005e-05
0.000901497 -0.000164347 -1.98678e-07
-0.000164347 6.12421e-05 9.83034e-09
-1.98678e-07 9.83034e-09 -0.00012959
0.00184923 -0.000253936 -2.53835e-06
-0.000253936 0.00035179 6.85765e-07
-2.53835e-06 6.85765e-07 0.000160549
0.00190336 -0.00016787 6.16064e-07
-0.00016787 0.000167306 -6.37549e-07
6.16064e-07 -6.37549e-07 7.4365e-05
0.00176221 -0.000220882 1.7475e-06
-0.000220882 0.000149882 -4.18175e-07
1.7475e-06 -4.18175e-07 2.11695e-05
0.000593367 2.01371e-05 3.62036e-07
2.01371e-05 -6.72407e-05 -6.86586e-07
3.62036e-07 -6.86586e-07 -0.000109994
0.000863856 1.9722e-06 -3.05848e-07
1.9722e-06 0.000102234 2.24136e-07
-3.05848e-07 2.24136e-07 3.03773e-05
0.000573488 -0.000117208 -1.51341e-06
-0.000117208 -7.81504e-05 1.33731e-06
-1.51341e-06 1.33731e-06 -0.000198295
0.00114628 -0.000148315 7.66687e-07
-0.000148315 0.000240903 6.27207e-07
7.66687e-07 6.27207e-07 0.000118039
0.000867756 -3.4361e-05 2.10639e-07
-3.4361e-05 0.000112175 -3.80207e-07
2.10639e-07 -3.80207e-07 4.68972e-06
0.000912349 -4.46884e-05 -6.79148e-07
-4.46884e-05 0.00013923 1.00135e-06
-6.79148e-07 1.00135e-06 4.66277e-05
0.0018189 -5.4276e-05 -1.73241e-06
-5.4276e-05 9.77911e-05 -1.73018e-07
-1.73241e-06 -1.73018e-07 1.04845e-05
0.0017473 -0.000109716 -4.09623e-06
-0.000109716 5.78376e-05 -2.52436e-07
-4.09623e-06 -2.52436e-07 -1.29195e-05
0.00175116 -0.000128679 6.25452e-08
-0.000128679 5.26492e-05 1.27377e-08
6.25452e-08 1.27377e-08 -2.01063e-05
0.00242761 -0.000246592 4.39664e-06
-0.000246592 0.000429144 -6.90812e-07
4.39664e-06 -6.90812e-07 0.000325466
0.000261152 -0.000104139 -2.42096e-06
-0.000104139 -0.000239687 -7.57801e-07
-2.42096e-06 -7.57801e-07 -0.000391317
0.00186176 -0.000263868 -3.09674e-06
-0.000263868 0.000276598 4.08574e-06
-3.09674e-06 4.08574e-06 0.000102315
0.00210098 -0.000261935 1.80262e-06
-0.000261935 0.000645949 -2.99116e-06
1.80262e-06 -2.99116e-06 0.000429331
0.000738698 1.67918e-05 6.72356e-07
1.67918e-05 1.06049e-05 -1.90862e-06
6.72356e-07 -1.90862e-06 -2.76752e-05
0.000752665 -7.0827e-05 1.33142e-06
-7.0827e-05 4.68417e-05 -1.40572e-06
1.33142e-06 -1.40572e-06 -1.98241e-05
0.000595712 1.04898e-05 5.17312e-07
1.04898e-05 -4.38342e-05 -1.99729e-06
5.17312e-07 -1.99729e-06 -0.000115996
0.000839309 -3.76601e-05 1.19096e-06
-3.76601e-05 0.000102828 1.97608e-08
1.19096e-06 1.97608e-08 1.19315e-05
0.00081808 -4.68829e-08 6.49238e-07
-4.68829e-08 8.44122e-05 -3.70132e-07
6.49238e-07 -3.70132e-07 -1.16397e-05
0.000617879 -0.000112815 5.00599e-07
-0.000112815 -8.27558e-06 2.6604e-06
5.00599e-07 2.6604e-06 -0.000129955
0.000627863 -0.000123186 -3.69406e-06
-0.000123186 -8.92881e-05 1.23899e-06
-3.69406e-06 1.23899e-06 -0.000197471
0.0018506 -0.000197211 -5.41378e-06
-0.000197211 0.000654106 3.81259e-06
-5.41378e-06 3.81259e-06 0.000517086
0.000748164 -4.53574e-05 -5.46205e-07
-4.53574e-05 2.66749e-05 -4.79765e-07
-5.46205e-07 -4.79765e-07 -2.96783e-05
0.000823455 -6.19257e-06 -8.79903e-08
-6.19257e-06 8.43038e-05 3.41733e-07
-8.79903e-08 3.41733e-07 4.17486e-06
0.0020573 0.000159735 7.09454e-07
0.000159735 0.000287023 4.63187e-07
7.09454e-07 4.63187e-07 0.000187019
0.000829091 7.11527e-06 -1.3957e-08
7.11527e-06 0.000101123 -5.39416e-07
-1.3957e-08 -5.39416e-07 -7.28556e-06
0.00112818 0.000152835 7.83847e-07
0.000152835 0.000267964 -9.7392e-07
7.83847e-07 -9.7392e-07 0.000116386
0.000677411 7.57941e-05 -1.03108e-07
7.57941e-05 1.49387e-05 1.73671e-06
-1.03108e-07 1.73671e-06 -0.000103821
0.00179826 0.000229277 1.06418e-06
0.000229277 0.000256071 6.41359e-08
1.06418e-06 6.41359e-08 9.59617e-05
0.001652 0.000209505 4.06118e-06
0.000209505 9.63774e-05 4.41108e-06
4.06118e-06 4.41108e-06 -3.02479e-05
0.00085735 0.000156188 1.55704e-06
0.000156188 7.41978e-05 6.01464e-07
1.55704e-06 6.01464e-07 -0.000132696
0.00122231 0.000213936 -2.86605e-06
0.000213936 6.24587e-05 -5.91464e-07
-2.86605e-06 -5.91464e-07 -0.000110894
0.000650041 -1.51654e-05 8.36929e-08
-1.51654e-05 -1.3402e-05 6.18862e-07
8.36929e-08 6.18862e-07 -8.65091e-05
0.0006312 4.63766e-05 -1.5376e-07
4.63766e-05 -4.70025e-06 -1.36312e-06
-1.5376e-07 -1.36312e-06 -0.000107763
0.0010243 0.000148454 8.70877e-07
0.000148454 0.000207495 -1.43863e-06
8.70877e-07 -1.43863e-06 3.21696e-05
0.000692505 7.86214e-05 -6.04633e-07
7.86214e-05 2.48535e-05 -1.28987e-06
-6.04633e-07 -1.28987e-06 -0.000105225
0.00199055 0.000149449 1.83463e-07
0.000149449 0.000159661 -5.0069e-07
1.83463e-07 -5.0069e-07 8.41749e-05
0.00179561 0.000192287 1.82538e-06
0.000192287 0.000110017 3.92697e-07
1.82538e-06 3.92697e-07 7.92039e-06
0.00170548 0.000247342 -1.5326e-06
0.000247342 0.000176392 -6.94345e-07
-1.5326e-06 -6.94345e-07 1.52001e-05
0.000761882 0.000166368 6.15762e-07
0.000166368 -7.87512e-05 1.32116e-07
6.15762e-07 1.32116e-07 -0.000292975
0.000818494 -1.78355e-05 -2.36814e-07
-1.78355e-05 8.32129e-05 -8.13072e-09
-2.36814e-07 -8.13072e-09 5.41749e-06
0.00177355 0.000113972 -1.19421e-06
0.000113972 4.14766e-06 4.94143e-07
-1.19421e-06 4.94143e-07 -5.09114e-05
0.00125463 0.000143383 -1.04127e-06
0.000143383 0.000359277 2.14899e-06
-1.04127e-06 2.14899e-06 0.000226378
0.00103365 0.00015438 -4.50193e-08
0.00015438 0.000195156 2.2048e-06
-4.50193e-08 2.2048e-06 1.34004e-05
0.00231418 0.000191235 -4.40499e-06
0.000191235 0.000294302 2.02424e-07
-4.40499e-06 2.02424e-07 0.000220258
0.00149421 0.000253579 -2.34957e-06
0.000253579 -4.90187e-05 -3.05997e-06
-2.34957e-06 -3.05997e-06 -0.000191359
0.00198063 0.000267135 -2.00388e-06
0.000267135 0.000469153 2.01118e-06
-2.00388e-06 2.01118e-06 0.000252695
0.000827868 -3.18883e-06 -1.50856e-06
-3.18883e-06 8.14254e-05 3.55299e-07
-1.50856e-06 3.55299e-07 1.39215e-05
0.000821235 -1.5898e-05 -8.82439e-08
-1.5898e-05 8.25115e-05 4.00578e-08
-8.82439e-08 4.00578e-08 9.99541e-06
0.000875602 -2.80702e-05 -5.50178e-07
-2.80702e-05 0.000120022 1.37756e-07
-5.50178e-07 1.37756e-07 4.03511e-05
0.000759658 -2.72448e-05 -4.51007e-07
-2.72448e-05 2.89682e-05 -6.37773e-07
-4.51007e-07 -6.37773e-07 -2.60675e-05
0.000767609 4.27086e-06 1.10889e-07
4.27086e-06 5.04341e-05 4.94862e-07
1.10889e-07 4.94862e-07 -1.95721e-05
0.000679704 -1.1476e-05 -5.64837e-07
-1.1476e-05 1.17207e-05 1.05602e-07
-5.64837e-07 1.05602e-07 -6.68729e-05
0.000768878 -1.55165e-05 -1.19668e-07
-1.55165e-05 3.68717e-05 8.05694e-09
-1.19668e-07 8.05694e-09 -2.08067e-05
0.000700135 -2.48823e-05 -5.31996e-07
-2.48823e-05 1.17524e-05 2.80091e-07
-5.31996e-07 2.80091e-07 -5.95374e-05
0.000775793 -4.39099e-05 3.79919e-07
-4.39099e-05 5.64121e-05 -3.49469e-07
3.79919e-07 -3.49469e-07 -2.03377e-05
0.0008413 9.19826e-06 2.42045e-07
9.19826e-06 9.69879e-05 3.91606e-07
2.42045e-07 3.91606e-07 1.83481e-05
0.000754425 -2.61108e-05 6.04389e-07
-2.61108e-05 3.90365e-05 -1.15027e-06
6.04389e-07 -1.15027e-06 -3.86245e-05
0.000789512 -6.23306e-05 2.65807e-07
-6.23306e-05 6.01295e-05 -3.85275e-07
2.65807e-07 -3.85275e-07 -1.85893e-05
0.000875322 1.2736e-05 6.04849e-07
1.2736e-05 0.000111024 -4.66815e-07
6.04849e-07 -4.66815e-07 3.28293e-05
0.000775253 1.65433e-05 1.54314e-06
1.65433e-05 5.25942e-05 1.91827e-08
1.54314e-06 1.91827e-08 -2.30038e-05
0.000778404 5.98551e-06 7.21219e-07
5.98551e-06 3.86948e-05 5.71786e-07
7.21219e-07 5.71786e-07 -1.77265e-05
0.000721944 8.81318e-06 4.31672e-07
8.81318e-06 -2.64816e-06 1.43582e-06
4.31672e-07 1.43582e-06 -3.97415e-05
0.000736038 7.28702e-07 -2.02596e-07
7.28702e-07 3.12519e-06 1.59218e-08
-2.02596e-07 1.59218e-08 -3.33101e-05
0.0012839 -7.96872e-06 5.7201e-07
-7.96872e-06 0.0002979 2.01184e-06
5.7201e-07 2.01184e-06 0.00029506
0.000748648 -1.18988e-05 -2.89319e-07
-1.18988e-05 8.33829e-06 -1.63386e-06
-2.89319e-07 -1.63386e-06 -2.72891e-05
0.00130673 -1.46172e-05 -2.3952e-06
-1.46172e-05 0.000312472 -1.38133e-06
-2.3952e-06 -1.38133e-06 0.000309749
0.000954032 -1.33524e-05 1.07165e-05
-1.33524e-05 0.000117998 7.19859e-06
1.07165e-05 7.19859e-06 0.000130942
0.00132595 -2.15269e-05 -5.08383e-06
-2.15269e-05 0.000325811 -4.7635e-06
-5.08383e-06 -4.7635e-06 0.000323001
0.000899453 -2.00016e-05 3.89196e-06
-2.00016e-05 8.99363e-05 2.69344e-06
3.89196e-06 2.69344e-06 0.000102831
0.000832938 -2.59004e-05 -1.48415e-06
-2.59004e-05 5.74544e-05 -1.74042e-06
-1.48415e-06 -1.74042e-06 6.97589e-05
0.000740561 6.38612e-06 4.70397e-07
6.38612e-06 1.01477e-05 -1.83511e-06
4.70397e-07 -1.83511e-06 -2.54112e-05
0.000670821 2.44171e-05 6.47337e-07
2.44171e-05 -3.73419e-05 -3.64009e-06
6.47337e-07 -3.64009e-06 -4.60364e-05
0.000671723 3.10066e-05 -1.35474e-07
3.10066e-05 -3.13291e-05 3.64629e-08
-1.35474e-07 3.64629e-08 -4.2905e-05
0.00222456 4.84547e-05 2.03877e-05
4.84547e-05 0.000847507 -4.12246e-06
2.03877e-05 -4.12246e-06 0.00086297
0.000671404 3.71044e-05 -1.22213e-06
3.71044e-05 -2.4713e-05 3.98967e-06
-1.22213e-06 3.98967e-06 -3.96912e-05
0.00233067 5.92048e-05 -2.23757e-06
5.92048e-05 0.00091487 -1.32017e-07
-2.23757e-06 -1.32017e-07 0.000927624
0.00246947 6.93432e-05 -3.38083e-05
6.93432e-05 0.00100056 3.66092e-06
-3.38083e-05 3.66092e-06 0.00101059
0.00186789 0.00011482 1.74225e-06
0.00011482 0.00014886 1.58013e-06
1.74225e-06 1.58013e-06 5.84135e-05
0.00170591 7.87712e-05 1.69725e-06
7.87712e-05 5.95892e-05 -1.59847e-07
1.69725e-06 -1.59847e-07 -3.02604e-05
0.00169576 3.88769e-05 1.63635e-06
3.88769e-05 6.14973e-05 -6.27416e-07
1.63635e-06 -6.27416e-07 -3.69747e-05
0.00174006 4.19356e-06 7.59364e-07
4.19356e-06 9.97119e-05 -2.82384e-07
7.59364e-07 -2.82384e-07 -9.7864e-06
0.00177504 3.67631e-06 -5.90196e-07
3.67631e-06 9.76444e-05 9.78767e-08
-5.90196e-07 9.78767e-08 -2.04194e-06
0.0018753 5.7899e-05 5.70076e-07
5.7899e-05 0.000125371 -3.20882e-07
5.70076e-07 -3.20882e-07 4.28233e-05
0.00172455 0.000114444 -5.14621e-07
0.000114444 2.83696e-05 -1.43027e-07
-5.14621e-07 -1.43027e-07 -5.15617e-05
0.00179883 6.48181e-06 -1.29763e-06
6.48181e-06 8.19459e-05 9.66464e-07
-1.29763e-06 9.66464e-07 -2.86639e-06
0.00197257 7.51274e-05 -4.26647e-07
7.51274e-05 0.000145916 2.37454e-08
-4.26647e-07 2.37454e-08 7.99363e-05
0.00178959 5.35934e-05 -1.34293e-06
5.35934e-05 2.3388e-05 -1.23717e-06
-1.34293e-06 -1.23717e-06 -9.59121e-06
0.00188086 -3.31205e-05 3.52389e-07
-3.31205e-05 0.000150796 -1.46265e-07
3.52389e-07 -1.46265e-07 4.80937e-05
0.00186366 -8.51147e-05 3.38155e-06
-8.51147e-05 0.00015214 2.33891e-07
3.38155e-06 2.33891e-07 6.51033e-05
0.00166288 -0.000113278 4.59044e-07
-0.000113278 5.0348e-05 -4.67288e-08
4.59044e-07 -4.67288e-08 -3.3745e-05
0.00108743 -0.000152032 -3.72334e-09
-0.000152032 0.000208929 2.8364e-06
-3.72334e-09 2.8364e-06 7.34381e-05
0.00109926 -0.000174889 8.23033e-07
-0.000174889 0.000179785 4.28261e-06
8.23033e-07 4.28261e-06 -7.53376e-06
0.00169164 -0.00024141 -2.03227e-06
-0.00024141 0.000262363 -7.34872e-07
-2.03227e-06 -7.34872e-07 7.55378e-05
0.00188259 -0.000167423 3.38474e-06
-0.000167423 0.000154677 -1.31442e-06
3.38474e-06 -1.31442e-06 6.07439e-05
0.00165134 -0.000214838 3.31784e-07
-0.000214838 8.90242e-05 -2.41297e-06
3.31784e-07 -2.41297e-06 -3.90574e-05
0.000302367 -9.80544e-05 -2.02512e-06
-9.80544e-05 -0.000227804 2.13358e-06
-2.02512e-06 2.13358e-06 -0.000344334
0.00135876 -0.000158849 7.67929e-06
-0.000158849 0.000360984 -3.94483e-06
7.67929e-06 -3.94483e-06 0.000240385
0.000786584 -3.04265e-06 -8.37008e-08
-3.04265e-06 5.91335e-05 -6.80377e-07
-8.37008e-08 -6.80377e-07 -4.14405e-05
0.000730267 1.56334e-05 -7.16032e-07
1.56334e-05 8.287e-06 1.33036e-06
-7.16032e-07 1.33036e-06 -3.28414e-05
0.00086358 1.92316e-05 -7.46966e-07
1.92316e-05 0.000101429 1.39096e-06
-7.46966e-07 1.39096e-06 2.99282e-05
0.000826006 -1.91403e-05 -5.9502e-07
-1.91403e-05 9.18979e-05 1.0897e-06
-5.9502e-07 1.0897e-06 -8.63606e-07
0.00187007 -5.54245e-05 3.88499e-08
-5.54245e-05 0.000127887 6.67123e-08
3.88499e-08 6.67123e-08 4.25378e-05
0.000738152 1.16749e-05 3.79069e-07
1.16749e-05 1.02965e-05 3.52266e-08
3.79069e-07 3.52266e-08 -2.80581e-05
0.000677738 -1.81906e-05 -6.09924e-07
-1.81906e-05 -4.88021e-06 4.40583e-08
-6.09924e-07 4.40583e-08 -6.53912e-05
0.00180438 -0.000109324 -3.14103e-07
-0.000109324 9.32671e-05 -1.56641e-07
-3.14103e-07 -1.56641e-07 2.17061e-05
0.00161549 -0.000124691 -1.84535e-06
-0.000124691 -2.63602e-05 9.63945e-07
-1.84535e-06 9.63945e-07 -0.000101102
0.000576734 -0.000123706 1.03316e-07
-0.000123706 -5.75924e-05 2.75471e-06
1.03316e-07 2.75471e-06 -0.000207138
0.00168968 -0.000231313 -1.8013e-06
-0.000231313 0.000430898 7.89747e-07
-1.8013e-06 7.89747e-07 0.000208747
0.00149237 -0.000238504 6.24324e-07
-0.000238504 8.26669e-05 -9.71528e-07
6.24324e-07 -9.71528e-07 -8.56266e-05
0.00189797 -0.000228582 2.61931e-06
-0.000228582 0.000152557 -9.07305e-07
2.61931e-06 -9.07305e-07 4.86686e-05
0.000821611 -2.3141e-05 1.1727e-06
-2.3141e-05 8.07829e-05 -6.71223e-07
1.1727e-06 -6.71223e-07 1.08965e-05
0.000821794 -2.58185e-05 -2.87818e-07
-2.58185e-05 9.40974e-05 6.36814e-07
-2.87818e-07 6.36814e-07 2.19353e-06
0.000938619 -0.000132337 -2.61157e-07
-0.000132337 7.78869e-05 -3.11809e-07
-2.61157e-07 -3.11809e-07 -3.49903e-05
0.0011919 -0.00015569 6.3723e-06
-0.00015569 0.000290296 -1.9282e-06
6.3723e-06 -1.9282e-06 0.000172361
0.000646125 -8.53302e-05 -9.8853e-07
-8.53302e-05 1.24201e-06 2.03945e-07
-9.8853e-07 2.03945e-07 -0.00011617
0.000843186 -5.93643e-06 2.79879e-07
-5.93643e-06 0.000100695 -4.66907e-07
2.79879e-07 -4.66907e-07 2.62715e-06
0.00192895 -6.78128e-05 -3.84133e-06
-6.78128e-05 0.000113046 -1.57032e-07
-3.84133e-06 -1.57032e-07 5.00614e-05
0.00184945 -9.89042e-05 1.00993e-06
-9.89042e-05 7.94742e-05 6.38684e-07
1.00993e-06 6.38684e-07 1.67465e-05
0.00185064 -0.000215256 -6.1646e-07
-0.000215256 3.42559e-05 -1.98065e-06
-6.1646e-07 -1.98065e-06 -3.51173e-05
0.00159834 -0.000258079 1.39026e-06
-0.000258079 2.06336e-05 7.51332e-07
1.39026e-06 7.51332e-07 -0.000100674
0.000840951 -0.000109676 -4.84567e-06
-0.000109676 6.10867e-05 -3.06605e-06
-4.84567e-06 -3.06605e-06 -9.02347e-05
0.00245899 -0.000308596 -3.38553e-06
-0.000308596 0.000755099 2.71597e-06
-3.38553e-06 2.71597e-06 0.00052123
0.000564683 4.69494e-05 -1.24223e-06
4.69494e-05 -6.42669e-05 -2.00514e-06
-1.24223e-06 -2.00514e-06 -0.000125645
0.000763495 -3.74981e-05 1.06562e-06
-3.74981e-05 4.32747e-05 -1.30222e-06
1.06562e-06 -1.30222e-06 -1.99972e-05
0.000965059 -4.76823e-05 1.00501e-06
-4.76823e-05 0.000174332 -3.23747e-07
1.00501e-06 -3.23747e-07 9.35124e-05
0.000587978 1.61514e-05 -2.34193e-07
1.61514e-05 -3.17424e-05 -7.37085e-07
-2.34193e-07 -7.37085e-07 -0.000125253
0.00104679 -3.06645e-05 4.14796e-07
-3.06645e-05 0.000215571 -1.55504e-07
4.14796e-07 -1.55504e-07 0.000121484
0.000532938 -3.29973e-05 7.64558e-07
-3.29973e-05 -6.28958e-05 3.22832e-07
7.64558e-07 3.22832e-07 -0.000173547
0.000770898 -8.25085e-05 5.55953e-06
-8.25085e-05 0.000116615 9.85899e-07
5.55953e-06 9.85899e-07 -3.14783e-05
0.000697068 -0.000141708 -1.43968e-05
-0.000141708 -2.74664e-05 4.98728e-06
-1.43968e-05 4.98728e-06 -0.000127802
0.000643519 2.34354e-06 -3.61309e-08
2.34354e-06 -1.33041e-05 2.95252e-07
-3.61309e-08 2.95252e-07 -9.00457e-05
0.000812931 6.2703e-05 -1.92937e-06
6.2703e-05 9.48525e-05 -2.40394e-06
-1.92937e-06 -2.40394e-06 -9.25224e-06
0.00202236 0.000147415 -9.45618e-07
0.000147415 0.000180801 -3.76012e-07
-9.45618e-07 -3.76012e-07 0.000106955
0.00167602 0.000193195 1.27464e-06
0.000193195 5.27681e-05 1.73079e-06
1.27464e-06 1.73079e-06 -5.35443e-05
0.00129038 0.000100302 -2.72052e-06
0.000100302 0.000347016 -8.33955e-07
-2.72052e-06 -8.33955e-07 0.000216979
0.00096076 0.000144259 -3.22058e-07
0.000144259 0.000179084 -4.10005e-06
-3.22058e-07 -4.10005e-06 1.99984e-06
0.00175783 0.000244974 1.87465e-06
0.000244974 0.000204731 3.01867e-07
1.87465e-06 3.01867e-07 4.53206e-05
0.00175766 0.000236096 -8.70437e-07
0.000236096 0.000442574 -1.02489e-06
-8.70437e-07 -1.02489e-06 0.000228131
0.00078809 8.60692e-06 7.1345e-07
8.60692e-06 7.2552e-05 -6.28154e-07
7.1345e-07 -6.28154e-07 -9.63271e-06
0.00183709 0.000110266 -3.98692e-07
0.000110266 3.69806e-05 -3.75264e-08
-3.98692e-07 -3.75264e-08 -1.66622e-05
0.000930905 9.71595e-05 2.72675e-07
9.71595e-05 0.00017654 1.6133e-06
2.72675e-07 1.6133e-06 5.17501e-05
0.000792304 0.000137887 4.92538e-07
0.000137887 6.2913e-05 -2.2559e-07
4.92538e-07 -2.2559e-07 -0.000119777
0.00203308 0.000182264 2.40075e-06
0.000182264 0.000141189 -2.01825e-07
2.40075e-06 -2.01825e-07 6.65285e-05
0.00172974 0.000261901 -3.37726e-07
0.000261901 7.36724e-05 -1.35126e-06
-3.37726e-07 -1.35126e-06 -6.60547e-05
0.00207005 0.000275524 1.04223e-06
0.000275524 0.00052912 1.26181e-06
1.04223e-06 1.26181e-06 0.000311179
0.00104671 3.49756e-05 -2.4292e-06
3.49756e-05 0.000229039 1.0682e-06
-2.4292e-06 1.0682e-06 0.000125711
0.00217118 0.000126055 -1.62545e-05
0.000126055 0.000220163 -1.76097e-06
-1.62545e-05 -1.76097e-06 0.000186593
0.00212675 0.00020061 -3.49583e-06
0.00020061 0.000810157 -3.87297e-07
-3.49583e-06 -3.87297e-07 0.000661882
0.00238007 0.000265217 -5.56575e-06
0.000265217 0.000860921 1.69547e-06
-5.56575e-06 1.69547e-06 0.00065686
0.00205066 0.000277438 -4.97953e-06
0.000277438 0.000148849 -4.06573e-06
-4.97953e-06 -4.06573e-06 5.78125e-05
0.001525 0.000263639 -6.62986e-06
0.000263639 0.000141602 1.15852e-07
-6.62986e-06 1.15852e-07 -4.87425e-05
0.000209184 0.00012856 9.41501e-06
0.00012856 -0.00053526 -1.00953e-06
9.41501e-06 -1.00953e-06 -0.000704255
0.000787332 -1.39519e-06 9.318e-08
-1.39519e-06 6.54132e-05 1.45134e-07
9.318e-08 1.45134e-07 -8.17791e-06
0.000843984 -2.33976e-05 -2.80284e-07
-2.33976e-05 0.000103708 2.07384e-07
-2.80284e-07 2.07384e-07 2.35277e-05
0.000966077 -1.1664e-05 -8.5211e-08
-1.1664e-05 0.00016201 -1.29274e-06
-8.5211e-08 -1.29274e-06 7.73059e-05
0.000755328 -4.87119e-05 -2.68877e-07
-4.87119e-05 3.2227e-05 -7.33678e-07
-2.68877e-07 -7.33678e-07 -2.74981e-05
0.000724195 -4.93876e-05 -1.14498e-06
-4.93876e-05 2.42495e-05 5.50298e-07
-1.14498e-06 5.50298e-07 -4.61577e-05
0.000871214 6.75469e-05 -7.43238e-07
6.75469e-05 0.000116602 7.99419e-07
-7.43238e-07 7.99419e-07 3.62997e-05
0.000722728 -4.79178e-05 -1.25513e-07
-4.79178e-05 2.91918e-05 3.46824e-07
-1.25513e-07 3.46824e-07 -4.92179e-05
0.000759845 -2.59549e-05 -6.83858e-08
-2.59549e-05 3.50711e-05 4.61044e-09
-6.83858e-08 4.61044e-09 -2.58018e-05
0.000738109 1.11345e-05 -1.97501e-09
1.11345e-05 2.44107e-05 -1.37658e-07
-1.97501e-09 -1.37658e-07 -4.58467e-05
0.000787633 -3.02455e-05 2.55915e-07
-3.02455e-05 5.76352e-05 -4.45666e-07
2.55915e-07 -4.45666e-07 -2.10018e-05
0.000864403 -1.48187e-05 2.88019e-08
-1.48187e-05 0.000100511 -1.85735e-08
2.88019e-08 -1.85735e-08 2.53504e-05
0.000862667 -4.1482e-05 2.06405e-07
-4.1482e-05 9.92137e-05 -2.66252e-09
2.06405e-07 -2.66252e-09 2.15076e-05
0.000838572 -3.81281e-05 6.67894e-08
-3.81281e-05 7.83686e-05 -1.17133e-06
6.67894e-08 -1.17133e-06 5.99723e-07
0.000819485 -4.85995e-06 3.04142e-07
-4.85995e-06 6.65659e-05 -1.45728e-06
3.04142e-07 -1.45728e-06 -8.92194e-06
0.000846177 1.99254e-05 5.24122e-07
1.99254e-05 8.23295e-05 -4.8928e-07
5.24122e-07 -4.8928e-07 9.57983e-06
0.000788633 2.67446e-05 2.5112e-07
2.67446e-05 5.74456e-05 4.85932e-08
2.5112e-07 4.85932e-08 -2.16311e-05
0.00066026 -1.19583e-05 2.77653e-08
-1.19583e-05 -2.87278e-05 9.88819e-07
2.77653e-08 9.88819e-07 -8.73655e-05
0.000903769 -6.72592e-06 2.81568e-07
-6.72592e-06 0.000135076 -7.35978e-07
2.81568e-07 -7.35978e-07 5.42011e-05
0.000638873 3.19117e-06 -6.62508e-07
3.19117e-06 -3.58257e-05 9.53341e-07
-6.62508e-07 9.53341e-07 -9.68629e-05
0.000724882 1.04815e-05 -2.40892e-08
1.04815e-05 -2.47587e-07 1.40178e-06
-2.40892e-08 1.40178e-06 -3.77414e-05
0.000724342 4.08401e-06 3.29812e-09
4.08401e-06 -1.29444e-06 1.00786e-08
3.29812e-09 1.00786e-08 -3.83662e-05
0.000681244 1.06297e-06 1.49145e-07
1.06297e-06 -4.11386e-05 3.34666e-06
1.49145e-07 3.34666e-06 -4.78833e-05
0.000739876 -4.69197e-06 -1.20369e-07
-4.69197e-06 5.43199e-06 -1.52494e-06
-1.20369e-07 -1.52494e-06 -3.10197e-05
0.00100211 -5.83016e-06 -1.54458e-06
-5.83016e-06 0.0001397 -1.45155e-06
-1.54458e-06 -1.45155e-06 0.000134959
0.0021856 -9.61617e-06 6.62895e-06
-9.61617e-06 0.00080895 4.53921e-06
6.62895e-06 4.53921e-06 0.000828846
0.00134071 -1.33968e-05 -3.00913e-06
-1.33968e-05 0.000331867 -4.79722e-06
-3.00913e-06 -4.79722e-06 0.00032887
0.000908153 -1.35632e-05 2.07509e-06
-1.35632e-05 9.1449e-05 2.78419e-06
2.07509e-06 2.78419e-06 0.000104584
0.000847567 -1.93499e-05 -9.5286e-07
-1.93499e-05 6.03827e-05 -1.73223e-06
-9.5286e-07 -1.73223e-06 7.35436e-05
0.000728384 1.04022e-05 6.29593e-08
1.04022e-05 3.41074e-06 -1.81305e-06
6.29593e-08 -1.81305e-06 -3.02649e-05
0.000738084 6.9657e-06 8.918e-08
6.9657e-06 8.68399e-06 1.51727e-08
8.918e-08 1.51727e-08 -2.69486e-05
0.000684512 1.82583e-05 3.75365e-07
1.82583e-05 -3.4077e-05 -3.50676e-06
3.75365e-07 -3.50676e-06 -4.05504e-05
0.000998436 2.83037e-05 -4.95126e-07
2.83037e-05 0.000146825 2.93909e-08
-4.95126e-07 2.93909e-08 0.000139666
0.00216997 3.83013e-05 1.67696e-05
3.83013e-05 0.000810888 -4.24473e-06
1.67696e-05 -4.24473e-06 0.000828398
0.000681926 3.16344e-05 -8.52827e-07
3.16344e-05 -2.56749e-05 3.83132e-06
-8.52827e-07 3.83132e-06 -3.73769e-05
0.00225006 4.93381e-05 -2.24881e-06
4.93381e-05 0.00086267 -1.12588e-07
-2.24881e-06 -1.12588e-07 0.0008778
0.00236785 5.98516e-05 -2.78396e-05
5.98516e-05 0.000936507 3.92404e-06
-2.78396e-05 3.92404e-06 0.000948949
0.0017027 0.000115019 -1.36031e-06
0.000115019 1.26928e-05 -1.7105e-07
-1.36031e-06 -1.7105e-07 -6.72687e-05
0.001819 5.6484e-05 1.37319e-06
5.6484e-05 9.14047e-05 -9.92028e-07
1.37319e-06 -9.92028e-07 8.06388e-06
0.00179851 1.06037e-06 7.23002e-08
1.06037e-06 0.000111263 -2.48844e-07
7.23002e-08 -2.48844e-07 1.27948e-05
0.00176387 8.45411e-06 3.7496e-07
8.45411e-06 5.99938e-05 3.36287e-07
3.7496e-07 3.36287e-07 -2.50096e-05
0.00182327 7.29151e-05 -5.52418e-07
7.29151e-05 6.97531e-05 -1.34618e-07
-5.52418e-07 -1.34618e-07 2.482e-06
0.00179453 5.35875e-05 2.19009e-06
5.35875e-05 2.67846e-05 4.40376e-07
2.19009e-06 4.40376e-07 -1.10491e-05
0.00170125 1.17394e-05 -8.48883e-07
1.17394e-05 -8.26941e-06 7.54936e-08
-8.48883e-07 7.54936e-08 -6.2711e-05
0.00319777 8.11993e-05 1.36418e-05
8.11993e-05 0.000530265 3.48891e-07
1.36418e-05 3.48891e-07 0.000481695
0.00171604 3.91584e-05 -1.33399e-05
3.91584e-05 2.78812e-05 -3.38874e-06
-1.33399e-05 -3.38874e-06 1.2765e-05
0.0007673 4.23745e-05 -4.18037e-07
4.23745e-05 4.55792e-05 -1.11166e-06
-4.18037e-07 -1.11166e-06 -1.02475e-05
0.00191593 -5.62449e-05 2.09752e-06
-5.62449e-05 0.000155069 2.4204e-07
2.09752e-06 2.4204e-07 7.16555e-05
0.00185114 -0.000106319 2.52017e-06
-0.000106319 0.000124983 -1.31289e-07
2.52017e-06 -1.31289e-07 5.29468e-05
0.00151005 -0.000120923 1.70412e-06
-0.000120923 -8.77485e-05 4.66412e-07
1.70412e-06 4.66412e-07 -0.000163737
0.000894548 -0.000143031 2.09625e-06
-0.000143031 0.000125034 4.89507e-06
2.09625e-06 4.89507e-06 -2.2296e-05
0.00132114 -0.000203404 1.7543e-06
-0.000203404 0.000239757 4.82729e-06
1.7543e-06 4.82729e-06 1.07035e-05
0.00111044 -0.000213735 -9.70069e-07
-0.000213735 -0.000117365 -3.95127e-06
-9.70069e-07 -3.95127e-06 -0.000281114
0.00150406 -0.000218547 -4.27476e-06
-0.000218547 -5.44443e-05 -1.93724e-06
-4.27476e-06 -1.93724e-06 -0.000159375
0.00120558 -0.000145333 9.43243e-06
-0.000145333 0.000220529 -3.42416e-06
9.43243e-06 -3.42416e-06 0.000102517
0.000530177 -0.000115352 3.70872e-06
-0.000115352 -7.28636e-05 -9.82932e-06
3.70872e-06 -9.82932e-06 -0.000172425
0.000719707 -8.52141e-05 -2.15461e-07
-8.52141e-05 3.93424e-05 -1.49448e-06
-2.15461e-07 -1.49448e-06 -7.80423e-05
0.000737185 5.03591e-06 -1.07661e-06
5.03591e-06 9.48711e-06 1.97692e-06
-1.07661e-06 1.97692e-06 -2.87203e-05
0.000870107 -1.50084e-05 -1.09284e-07
-1.50084e-05 0.000119015 -4.55826e-07
-1.09284e-07 -4.55826e-07 1.81094e-05
0.0010409 -5.50362e-05 -3.36369e-07
-5.50362e-05 0.0002062 6.47858e-07
-3.36369e-07 6.47858e-07 0.000135549
0.000793358 -1.81936e-05 -1.07726e-06
-1.81936e-05 7.77535e-05 1.06682e-06
-1.07726e-06 1.06682e-06 -1.38053e-05
0.000590796 -1.32175e-05 -4.45522e-07
-1.32175e-05 -5.69847e-05 1.2299e-06
-4.45522e-07 1.2299e-06 -0.000115563
0.00192593 -7.28061e-05 -7.44755e-07
-7.28061e-05 0.000107011 -1.34062e-07
-7.44755e-07 -1.34062e-07 4.63043e-05
0.000657816 2.17646e-05 8.23421e-08
2.17646e-05 -1.0793e-05 -7.63701e-07
8.23421e-08 -7.63701e-07 -7.21077e-05
0.000769675 -4.79355e-05 -2.42392e-07
-4.79355e-05 5.16762e-05 9.8581e-08
-2.42392e-07 9.8581e-08 -1.52492e-05
0.000825898 -2.18587e-05 -6.61588e-07
-2.18587e-05 9.80491e-05 6.62889e-07
-6.61588e-07 6.62889e-07 1.46538e-05
0.00175104 -0.000105106 5.94401e-07
-0.000105106 1.49416e-05 -5.22627e-07
5.94401e-07 -5.22627e-07 -4.65718e-05
0.00179033 -0.000212784 -9.25084e-07
-0.000212784 1.51222e-05 -2.64281e-07
-9.25084e-07 -2.64281e-07 -5.84398e-05
0.000887431 -0.000124375 2.14787e-06
-0.000124375 7.20269e-05 -1.51304e-07
2.14787e-06 -1.51304e-07 -7.14174e-05
0.00118982 -0.000223518 2.27626e-06
-0.000223518 0.000105187 -3.35491e-08
2.27626e-06 -3.35491e-08 -0.000128606
0.00172575 -0.000271459 -5.93178e-08
-0.000271459 9.3048e-05 4.78328e-07
-5.93178e-08 4.78328e-07 -3.25469e-05
0.00071271 -3.96276e-06 -2.28384e-07
-3.96276e-06 3.74627e-05 3.48685e-08
-2.28384e-07 3.48685e-08 -5.54379e-05
0.000939026 -4.71466e-05 -1.0314e-07
-4.71466e-05 0.000160617 1.06338e-07
-1.0314e-07 1.06338e-07 6.22838e-05
0.000579667 -0.000135227 -6.1417e-06
-0.000135227 -7.86636e-05 1.27513e-06
-6.1417e-06 1.27513e-06 -0.000191398
0.000894983 -7.89696e-05 8.08294e-07
-7.89696e-05 0.000175063 -2.13462e-07
8.08294e-07 -2.13462e-07 3.50591e-05
0.000716012 -5.74303e-05 -5.84926e-07
-5.74303e-05 3.76646e-05 4.42031e-07
-5.84926e-07 4.42031e-07 -7.40362e-05
0.00211613 -0.000134276 -4.85686e-06
-0.000134276 0.000158819 5.33412e-07
-4.85686e-06 5.33412e-07 0.000117646
0.00222911 -0.000140316 -1.32652e-06
-0.000140316 0.000244646 1.32402e-06
-1.32652e-06 1.32402e-06 0.000194047
0.00220099 -0.000305439 -1.41553e-07
-0.000305439 0.000237802 -6.21949e-07
-1.41553e-07 -6.21949e-07 0.000139859
0.00230425 -0.000318241 -1.08114e-05
-0.000318241 0.000566161 6.54319e-07
-1.08114e-05 6.54319e-07 0.000388065
0.000928593 -0.000125356 -6.41772e-06
-0.000125356 0.000132292 -1.9641e-06
-6.41772e-06 -1.9641e-06 -4.56456e-05
0.00057871 1.40721e-05 5.63425e-07
1.40721e-05 -4.34875e-05 -1.41087e-06
5.63425e-07 -1.41087e-06 -0.000124364
0.000602208 5.29073e-05 -3.41385e-09
5.29073e-05 -2.70617e-05 -9.56521e-07
-3.41385e-09 -9.56521e-07 -0.00011412
0.000908856 1.33395e-05 8.66284e-07
1.33395e-05 0.000147038 2.03389e-07
8.66284e-07 2.03389e-07 5.45298e-05
0.000821719 -7.69872e-05 1.66957e-06
-7.69872e-05 0.000102605 -3.2553e-07
1.66957e-06 -3.2553e-07 1.30833e-07
0.000714805 -2.00562e-05 6.43497e-07
-2.00562e-05 3.3769e-05 4.90468e-07
6.43497e-07 4.90468e-07 -6.50882e-05
0.000715541 -2.17752e-05 2.01785e-06
-2.17752e-05 6.12167e-05 -4.89397e-07
2.01785e-06 -4.89397e-07 -6.59531e-05
0.000747541 -0.000112044 8.70658e-06
-0.000112044 0.000122029 1.21462e-06
8.70658e-06 1.21462e-06 -6.70707e-05
0.000766271 4.55923e-05 1.0085e-06
4.55923e-05 6.72564e-05 -1.59438e-06
1.0085e-06 -1.59438e-06 -1.98459e-05
0.000579838 5.04022e-05 1.20237e-06
5.04022e-05 -2.11218e-05 2.97477e-07
1.20237e-06 2.97477e-07 -0.00013783
0.00191397 0.000106467 1.82209e-06
0.000106467 7.86047e-05 -2.27478e-07
1.82209e-06 -2.27478e-07 2.55222e-05
0.00174403 0.00017298 3.87321e-06
0.00017298 -1.51947e-05 -5.86026e-07
3.87321e-06 -5.86026e-07 -9.00752e-05
0.00195841 0.000269672 4.35851e-06
0.000269672 0.000193142 4.05631e-07
4.35851e-06 4.05631e-07 5.62969e-05
0.000531283 0.000120826 2.19611e-06
0.000120826 -8.07778e-05 -9.32585e-07
2.19611e-06 -9.32585e-07 -0.000263966
0.00213737 0.000283376 3.28195e-06
0.000283376 0.000575229 1.24569e-06
3.28195e-06 1.24569e-06 0.000357308
0.00101772 2.65199e-05 -2.26511e-07
2.65199e-05 0.000210023 4.49892e-07
-2.26511e-07 4.49892e-07 0.000112625
0.00193481 0.000117199 -1.44937e-06
0.000117199 8.89289e-05 -9.31702e-08
-1.44937e-06 -9.31702e-08 6.11875e-05
0.00131919 0.000150096 -1.08721e-06
0.000150096 0.000372779 -3.87073e-07
-1.08721e-06 -3.87073e-07 0.000232512
0.0016257 0.000212153 -7.78298e-07
0.000212153 0.000476256 1.31638e-06
-7.78298e-07 1.31638e-06 0.00026949
0.00203737 0.000268921 7.66516e-07
0.000268921 0.000141459 -1.28333e-06
7.66516e-07 -1.28333e-06 5.28082e-05
0.001508 0.00026555 -1.31803e-06
0.00026555 0.000132234 1.68748e-06
-1.31803e-06 1.68748e-06 -6.25948e-05
0.00119146 0.000154641 1.54204e-05
0.000154641 -0.000252897 1.27044e-06
1.54204e-05 1.27044e-06 -0.00046207
0.00111211 6.63673e-05 -2.68558e-06
6.63673e-05 0.000259306 -1.66896e-06
-2.68558e-06 -1.66896e-06 0.000147327
0.00250304 0.000190211 -2.21935e-05
0.000190211 0.000404761 -1.13247e-05
-2.21935e-05 -1.13247e-05 0.000407722
0.00132627 0.000179392 -5.9828e-06
0.000179392 0.00037613 -1.85417e-06
-5.9828e-06 -1.85417e-06 0.000218913
0.00139549 0.000220787 -6.8866e-06
0.000220787 0.000276048 -1.51104e-07
-6.8866e-06 -1.51104e-07 5.51654e-05
0.000480696 0.000274961 -9.71237e-06
0.000274961 -0.000545119 -2.46393e-06
-9.71237e-06 -2.46393e-06 -0.00069892
0.00818401 8.63248e-05 -9.20429e-05
8.63248e-05 0.00248339 -3.44637e-05
-9.20429e-05 -3.44637e-05 0.00158531
0.00380188 0.000317088 0.000102558
0.000317088 0.000518775 -1.43378e-06
0.000102558 -1.43378e-06 -0.00017575
0.000519184 0.000249028 1.0798e-05
0.000249028 -0.000410589 1.76979e-05
1.0798e-05 1.76979e-05 -0.000522556
-0.00260798 -0.000360715 7.87169e-05
-0.000360715 -0.000950043 -9.07085e-06
7.87169e-05 -9.07085e-06 -0.00121812
0.00359545 -0.000805111 -2.17089e-05
-0.000805111 0.000433695 -9.46062e-06
-2.17089e-05 -9.46062e-06 0.00177857
0.000833723 -1.40057e-05 4.97451e-07
-1.40057e-05 9.72448e-05 -4.13658e-08
4.97451e-07 -4.13658e-08 1.74507e-05
0.000924066 -2.49754e-05 9.62783e-07
-2.49754e-05 0.000143858 -2.96903e-07
9.62783e-07 -2.96903e-07 5.95966e-05
0.000913721 2.34939e-05 -5.1394e-07
2.34939e-05 0.000139755 -2.49347e-06
-5.1394e-07 -2.49347e-06 5.51167e-05
0.000748305 -5.30079e-05 7.83079e-08
-5.30079e-05 3.32064e-05 -7.19822e-07
7.83079e-08 -7.19822e-07 -3.06878e-05
0.000702304 4.66863e-05 -9.52081e-07
4.66863e-05 6.63001e-06 1.5969e-08
-9.52081e-07 1.5969e-08 -6.52864e-05
0.000857527 -4.16212e-05 -1.13959e-07
-4.16212e-05 9.69211e-05 3.87287e-07
-1.13959e-07 3.87287e-07 2.16114e-05
0.000929547 -1.86547e-05 -8.64421e-07
-1.86547e-05 0.000134072 8.03541e-07
-8.64421e-07 8.03541e-07 5.78847e-05
0.00082999 -4.16122e-05 1.77794e-08
-4.16122e-05 8.17525e-05 -9.16552e-08
1.77794e-08 -9.16552e-08 1.57951e-06
0.000799352 4.07809e-05 -7.29953e-07
4.07809e-05 6.25212e-05 -2.65337e-07
-7.29953e-07 -2.65337e-07 -1.51112e-05
0.00070096 -4.96348e-06 -3.62445e-08
-4.96348e-06 -1.53001e-06 5.40751e-07
-3.62445e-08 5.40751e-07 -6.19374e-05
0.000794725 2.32917e-05 -2.57593e-07
2.32917e-05 5.95194e-05 -4.40431e-08
-2.57593e-07 -4.40431e-08 -1.81204e-05
0.000854741 -3.5439e-05 -1.83915e-07
-3.5439e-05 8.68926e-05 5.0474e-07
-1.83915e-07 5.0474e-07 9.65373e-06
0.00084834 -7.06379e-06 -1.60591e-07
-7.06379e-06 8.22129e-05 -1.53834e-07
-1.60591e-07 -1.53834e-07 7.41293e-06
0.000783243 2.63361e-05 1.33342e-07
2.63361e-05 4.24982e-05 -1.09175e-06
1.33342e-07 -1.09175e-06 -3.17873e-05
0.000730428 -7.78129e-06 6.88824e-07
-7.78129e-06 1.15043e-05 -2.26291e-06
6.88824e-07 -2.26291e-06 -5.88208e-05
0.000881489 3.22937e-05 1.3534e-06
3.22937e-05 9.67677e-05 -1.48008e-07
1.3534e-06 -1.48008e-07 2.07792e-05
0.000742167 1.04024e-06 1.0728e-06
1.04024e-06 2.10748e-05 -2.83604e-07
1.0728e-06 -2.83604e-07 -5.49117e-05
0.000648978 -4.19241e-05 -1.26501e-06
-4.19241e-05 -2.94836e-05 9.55948e-07
-1.26501e-06 9.55948e-07 -9.18689e-05
0.000861761 1.25445e-05 -4.96292e-07
1.25445e-05 9.71121e-05 -2.86907e-07
-4.96292e-07 -2.86907e-07 1.96656e-05
0.000898213 5.69536e-05 6.73822e-09
5.69536e-05 0.000117553 -1.47942e-06
6.73822e-09 -1.47942e-06 3.89948e-05
0.000757398 4.58464e-06 -7.44776e-07
4.58464e-06 4.92291e-05 -3.89279e-07
-7.44776e-07 -3.89279e-07 -2.52287e-05
0.000857887 6.79677e-06 7.05023e-07
6.79677e-06 0.000100949 -3.98197e-07
7.05023e-07 -3.98197e-07 2.45596e-05
0.000766117 -3.65334e-05 -1.54694e-06
-3.65334e-05 3.61275e-05 4.34563e-07
-1.54694e-06 4.34563e-07 -2.30555e-05
0.000645064 5.81131e-06 1.25943e-07
5.81131e-06 -2.96694e-05 5.3784e-07
1.25943e-07 5.3784e-07 -9.26288e-05
0.000736348 1.09439e-05 -2.9797e-07
1.09439e-05 5.35909e-06 1.45658e-06
-2.9797e-07 1.45658e-06 -3.22389e-05
0.000722843 2.96851e-06 -4.278e-08
2.96851e-06 -1.56783e-06 -6.2581e-09
-4.278e-08 -6.2581e-09 -3.89509e-05
0.000701964 6.95153e-06 -3.70271e-07
6.95153e-06 -2.8117e-05 4.79419e-06
-3.70271e-07 4.79419e-06 -3.54371e-05
0.000724395 4.33275e-08 2.98823e-07
4.33275e-08 -1.32757e-06 -1.44976e-06
2.98823e-07 -1.44976e-06 -3.83228e-05
0.000686358 1.31304e-06 2.34411e-07
1.31304e-06 -3.82443e-05 -4.38464e-09
2.34411e-07 -4.38464e-09 -4.50191e-05
0.00219158 -9.77052e-07 2.60169e-07
-9.77052e-07 0.000811786 4.60163e-06
2.60169e-07 4.60163e-06 0.000831652
0.000709774 -4.41114e-06 -4.90469e-07
-4.41114e-06 -2.45833e-05 -4.82958e-06
-4.90469e-07 -4.82958e-06 -3.12581e-05
0.00154484 -7.62781e-06 -3.70185e-07
-7.62781e-06 0.000447946 3.39888e-08
-3.70185e-07 3.39888e-08 0.00046445
0.000859671 -1.25254e-05 -4.34557e-07
-1.25254e-05 6.34724e-05 -1.74656e-06
-4.34557e-07 -1.74656e-06 7.69562e-05
0.000731654 8.07554e-06 -2.42017e-07
8.07554e-06 5.01723e-06 -1.77483e-06
-2.42017e-07 -1.77483e-06 -2.72793e-05
0.000733671 3.54127e-06 6.72794e-08
3.54127e-06 6.07484e-06 2.21109e-08
6.72794e-08 2.21109e-08 -2.75679e-05
0.000692118 1.22608e-05 1.40529e-07
1.22608e-05 -3.30271e-05 -3.45636e-06
1.40529e-07 -3.45636e-06 -3.78313e-05
0.000740422 1.87152e-06 -9.38529e-07
1.87152e-06 9.7677e-06 1.88875e-06
-9.38529e-07 1.88875e-06 -2.58665e-05
0.000984598 2.08338e-05 -2.25542e-07
2.08338e-05 0.00013442 -7.13145e-07
-2.25542e-07 -7.13145e-07 0.000129686
0.002122 2.82794e-05 1.26852e-05
2.82794e-05 0.000779118 -4.37069e-06
1.26852e-05 -4.37069e-06 0.000798274
0.000684555 2.55188e-05 -5.91651e-07
2.55188e-05 -2.95393e-05 3.68755e-06
-5.91651e-07 3.68755e-06 -3.86388e-05
0.00222809 3.85816e-05 -7.37081e-06
3.85816e-05 0.000844959 1.18015e-06
-7.37081e-06 1.18015e-06 0.000862014
0.00227921 5.01014e-05 -2.23909e-05
5.01014e-05 0.000879862 4.11428e-06
-2.23909e-05 4.11428e-06 0.000894667
0.00167839 7.09693e-05 3.55732e-09
7.09693e-05 -4.37599e-06 -4.83536e-07
3.55732e-09 -4.83536e-07 -7.28773e-05
0.00173054 9.73992e-06 1.30683e-06
9.73992e-06 3.94315e-05 -1.79092e-07
1.30683e-06 -1.79092e-07 -4.57357e-05
0.0018127 5.46061e-05 5.27778e-06
5.46061e-05 3.71417e-05 1.39765e-06
5.27778e-06 1.39765e-06 -4.77035e-06
0.0020795 6.39336e-05 1.58559e-05
6.39336e-05 -2.38235e-06 2.84849e-06
1.58559e-05 2.84849e-06 -6.93217e-05
0.00176626 1.04022e-05 -1.28128e-06
1.04022e-05 2.46471e-05 -6.85418e-08
-1.28128e-06 -6.85418e-08 -2.96806e-05
0.00189046 4.12357e-05 2.4025e-06
4.12357e-05 0.000130592 8.82812e-07
2.4025e-06 8.82812e-07 0.000113406
0.00247177 -1.13643e-07 -1.18794e-05
-1.13643e-07 0.00044143 -7.04499e-07
-1.18794e-05 -7.04499e-07 0.000397114
0.00309116 2.51236e-06 0.000136274
2.51236e-06 0.000295676 -5.20715e-06
0.000136274 -5.20715e-06 -3.22011e-06
0.0018888 -1.34845e-05 -1.23898e-05
-1.34845e-05 -1.70476e-05 -5.71793e-06
-1.23898e-05 -5.71793e-06 -8.01951e-05
0.000766935 4.61984e-05 -7.24318e-07
4.61984e-05 4.7511e-05 -1.05485e-06
-7.24318e-07 -1.05485e-06 -9.01433e-06
0.000766736 -1.18506e-05 6.80918e-07
-1.18506e-05 4.92478e-05 -5.90296e-08
6.80918e-07 -5.90296e-08 -9.55427e-06
0.000744891 -6.20202e-05 7.19655e-08
-6.20202e-05 4.3808e-05 -3.93599e-07
7.19655e-08 -3.93599e-07 -2.87241e-05
0.000763043 -2.26326e-05 -1.24109e-06
-2.26326e-05 6.25625e-05 -8.47597e-08
-1.24109e-06 -8.47597e-08 -1.52115e-05
0.00193495 -7.90602e-05 1.93066e-06
-7.90602e-05 0.000107245 -1.36816e-07
1.93066e-06 -1.36816e-07 4.81223e-05
0.00168872 -0.000113071 -1.14969e-06
-0.000113071 -2.99845e-05 8.57134e-08
-1.14969e-06 8.57134e-08 -9.15598e-05
0.00175797 -0.000210926 -4.9502e-06
-0.000210926 8.45207e-06 1.02334e-06
-4.9502e-06 1.02334e-06 -6.99584e-05
0.00105297 -0.000165447 3.99366e-06
-0.000165447 0.000154803 2.78861e-06
3.99366e-06 2.78861e-06 1.41518e-05
-0.000102463 -0.000136356 4.44964e-06
-0.000136356 -0.000562216 -9.96546e-07
4.44964e-06 -9.96546e-07 -0.000793566
0.00186173 -0.000285809 2.62174e-07
-0.000285809 0.000173133 -2.34096e-06
2.62174e-07 -2.34096e-06 4.38036e-05
0.000512233 -0.000119424 -7.13458e-06
-0.000119424 -0.000106433 7.00114e-07
-7.13458e-06 7.00114e-07 -0.000229375
0.001051 -7.59443e-05 -1.254e-06
-7.59443e-05 0.000249753 -1.52466e-06
-1.254e-06 -1.52466e-06 0.000118439
0.000867337 -8.23161e-05 -2.25892e-06
-8.23161e-05 0.00012082 8.56769e-07
-2.25892e-06 8.56769e-07 8.46147e-06
0.000781263 -2.28658e-05 -1.10214e-06
-2.28658e-05 5.45742e-05 1.42237e-06
-1.10214e-06 1.42237e-06 -1.01592e-05
0.000829091 -5.99326e-05 -7.36315e-07
-5.99326e-05 0.000105889 1.9142e-07
-7.36315e-07 1.9142e-07 2.19443e-06
0.000834471 -8.76408e-06 -1.01444e-06
-8.76408e-06 0.000102898 9.80743e-07
-1.01444e-06 9.80743e-07 1.22786e-05
0.000762666 -2.17331e-06 5.07992e-08
-2.17331e-06 5.01114e-05 5.97381e-07
5.07992e-08 5.97381e-07 -1.18029e-05
0.000685776 2.01101e-05 -2.40295e-07
2.01101e-05 2.20249e-05 1.69707e-06
-2.40295e-07 1.69707e-06 -6.42572e-05
0.00196023 -0.000116782 3.22755e-07
-0.000116782 0.000103231 2.69268e-07
3.22755e-07 2.69268e-07 5.86375e-05
0.000771997 8.01423e-06 6.71179e-07
8.01423e-06 6.55008e-05 -5.30664e-07
6.71179e-07 -5.30664e-07 -1.45383e-05
0.000708014 1.8352e-05 6.22026e-07
1.8352e-05 3.36132e-05 -6.05142e-08
6.22026e-07 -6.05142e-08 -5.41465e-05
0.000805519 6.20863e-05 -2.66379e-07
6.20863e-05 9.31318e-05 1.00386e-06
-2.66379e-07 1.00386e-06 -3.79473e-07
0.0019373 -0.000135532 -2.75088e-06
-0.000135532 7.28305e-05 8.82592e-07
-2.75088e-06 8.82592e-07 1.86576e-05
0.00191959 -0.000284763 8.9731e-07
-0.000284763 9.69489e-05 -8.74998e-07
8.9731e-07 -8.74998e-07 3.57707e-06
0.00102549 -0.00017057 -1.36815e-06
-0.00017057 0.000172605 -4.63422e-08
-1.36815e-06 -4.63422e-08 -7.64316e-06
0.00233546 -0.000321842 -1.29566e-06
-0.000321842 0.000579154 6.53225e-07
-1.29566e-06 6.53225e-07 0.000397894
0.000916061 -2.7976e-05 -3.57513e-07
-2.7976e-05 0.000150648 2.95445e-08
-3.57513e-07 2.95445e-08 5.05674e-05
0.00074261 -3.79881e-05 -2.9947e-07
-3.79881e-05 5.45984e-05 9.25475e-07
-2.9947e-07 9.25475e-07 -4.78885e-05
0.000812606 -0.000116701 3.76392e-06
-0.000116701 0.000147109 -1.00614e-06
3.76392e-06 -1.00614e-06 -3.3129e-05
0.00102255 -7.52168e-05 1.0203e-06
-7.52168e-05 0.000234054 -7.7475e-07
1.0203e-06 -7.7475e-07 9.64242e-05
0.00228123 -9.62337e-05 -7.31279e-06
-9.62337e-05 0.000250805 4.89449e-06
-7.31279e-06 4.89449e-06 0.000195584
0.00242025 -0.000251717 -5.59536e-06
-0.000251717 0.000271451 -1.15337e-06
-5.59536e-06 -1.15337e-06 0.000257118
0.00237285 -0.000334827 -5.16886e-06
-0.000334827 0.000465483 -3.15813e-06
-5.16886e-06 -3.15813e-06 0.000321115
0.00142578 -0.00024959 -1.63834e-06
-0.00024959 0.000351093 -2.6189e-07
-1.63834e-06 -2.6189e-07 0.000165412
0.000726463 2.65915e-05 -4.51664e-07
2.65915e-05 5.07193e-05 -7.1894e-07
-4.51664e-07 -7.1894e-07 -4.90548e-05
0.000740567 -4.39858e-05 5.62475e-07
-4.39858e-05 6.10652e-05 -1.1777e-06
5.62475e-07 -1.1777e-06 -4.07421e-05
0.000742696 -3.44539e-05 6.7277e-07
-3.44539e-05 6.30336e-05 -4.07929e-07
6.7277e-07 -4.07929e-07 -4.53569e-05
0.000605627 -9.17808e-06 -1.386e-07
-9.17808e-06 4.85969e-05 4.6756e-07
-1.386e-07 4.6756e-07 -0.000153188
0.000375039 -0.000128775 1.92622e-05
-0.000128775 -0.00164148 -2.55345e-06
1.92622e-05 -2.55345e-06 -0.00213737
0.000990181 1.4266e-05 1.39846e-06
1.4266e-05 0.000192201 -1.14012e-06
1.39846e-06 -1.14012e-06 0.000100742
0.000547839 9.5581e-05 2.97065e-06
9.5581e-05 -4.41691e-05 1.55531e-06
2.97065e-06 1.55531e-06 -0.000175668
0.00169732 0.00011029 1.53646e-05
0.00011029 -4.34127e-05 1.16458e-06
1.53646e-05 1.16458e-06 -6.37788e-05
0.00210517 0.000263659 4.56221e-06
0.000263659 0.000176475 -2.74174e-08
4.56221e-06 -2.74174e-08 8.96299e-05
0.00133192 0.000257535 5.73148e-06
0.000257535 4.02292e-05 2.70168e-06
5.73148e-06 2.70168e-06 -0.000160403
0.000749608 0.000149909 4.80579e-06
0.000149909 2.63403e-05 1.30265e-06
4.80579e-06 1.30265e-06 -0.000183223
0.00222896 0.000190795 1.85484e-05
0.000190795 7.94084e-05 3.27877e-06
1.85484e-05 3.27877e-06 -0.000184428
0.000985849 5.54262e-05 7.95278e-07
5.54262e-05 0.000197163 -7.39641e-07
7.95278e-07 -7.39641e-07 8.7225e-05
0.0022764 0.000185112 -6.84342e-06
0.000185112 0.000289839 -1.86392e-06
-6.84342e-06 -1.86392e-06 0.000301974
0.0010591 0.000159747 4.82574e-07
0.000159747 0.000237115 -3.70147e-07
4.82574e-07 -3.70147e-07 8.36365e-05
0.00116718 0.000212179 -2.26111e-07
0.000212179 0.000163536 4.17841e-07
-2.26111e-07 4.17841e-07 -5.91942e-05
0.00130548 0.000321409 -2.25836e-06
0.000321409 -0.000140177 -1.25704e-06
-2.25836e-06 -1.25704e-06 -0.000287177
0.00276129 -0.000134125 -6.23374e-05
-0.000134125 -0.000230617 -1.99236e-05
-6.23374e-05 -1.99236e-05 -0.00108505
0.0037236 0.000230051 8.0487e-06
0.000230051 0.000297602 -1.59325e-05
8.0487e-06 -1.59325e-05 -0.000477984
0.000279972 0.00020047 5.29318e-06
0.00020047 -0.000509345 6.08774e-06
5.29318e-06 6.08774e-06 -0.000636315
-0.00160939 -0.000237046 5.89123e-05
-0.000237046 -0.000178271 1.74598e-05
5.89123e-05 1.74598e-05 -0.00073367
-0.000397756 -0.000811937 -7.47942e-06
-0.000811937 -0.00137693 -2.17195e-05
-7.47942e-06 -2.17195e-05 0.000164547
0.00119256 0.000113754 -3.57402e-06
0.000113754 0.000326659 -3.49068e-06
-3.57402e-06 -3.49068e-06 0.000215008
0.000656944 0.000176437 -2.20291e-05
0.000176437 0.000836032 -2.58861e-05
-2.20291e-05 -2.58861e-05 0.000268474
0.00133483 -0.00036522 -5.75529e-05
-0.00036522 0.000919652 -5.86471e-05
-5.75529e-05 -5.86471e-05 0.000857842
0.00241449 0.000269012 -2.35253e-05
0.000269012 0.000422692 -6.092e-06
-2.35253e-05 -6.092e-06 0.000438015
0.0010844 0.000103155 -1.04959e-05
0.000103155 0.000257116 -2.58352e-06
-1.04959e-05 -2.58352e-06 9.11334e-05
0.00101677 0.000320111 -1.71324e-05
0.000320111 1.27963e-05 -8.20779e-06
-1.71324e-05 -8.20779e-06 -0.000219444
-0.000164369 0.000254402 1.367e-05
0.000254402 -0.000748744 4.97907e-05
1.367e-05 4.97907e-05 -0.000764594
0.00812513 1.97739e-05 -4.08748e-05
1.97739e-05 0.00283339 -1.97323e-05
-4.08748e-05 -1.97323e-05 0.00144628
0.00368923 0.000478808 -5.25239e-06
0.000478808 0.000647716 1.41164e-05
-5.25239e-06 1.41164e-05 -0.00049233
0.000740669 -0.000652297 3.21505e-05
-0.000652297 -0.000230263 2.2107e-05
3.21505e-05 2.2107e-05 0.000149009
0.00134442 -0.000453294 -1.98572e-05
-0.000453294 -0.00164474 5.0851e-05
-1.98572e-05 5.0851e-05 -0.000453496
0.000864562 -3.0336e-05 1.49904e-06
-3.0336e-05 0.000116095 -4.22409e-07
1.49904e-06 -4.22409e-07 3.25665e-05
0.000906745 1.74534e-05 3.25084e-07
1.74534e-05 0.000137131 1.41381e-07
3.25084e-07 1.41381e-07 5.29374e-05
0.0011221 6.09595e-05 -1.54549e-06
6.09595e-05 0.000252691 -3.62901e-06
-1.54549e-06 -3.62901e-06 0.000186129
0.000748927 4.21104e-06 -5.93068e-08
4.21104e-06 3.6218e-05 4.88315e-09
-5.93068e-08 4.88315e-09 -3.04099e-05
0.00081089 2.05829e-05 -6.4223e-07
2.05829e-05 6.7213e-05 -1.81865e-07
-6.4223e-07 -1.81865e-07 -9.04541e-06
0.000736875 -3.08609e-05 -5.51987e-07
-3.08609e-05 2.11753e-05 2.36368e-07
-5.51987e-07 2.36368e-07 -5.19087e-05
0.000888127 -8.10554e-06 -9.04473e-08
-8.10554e-06 0.000104061 7.81264e-07
-9.04473e-08 7.81264e-07 2.96562e-05
0.000883873 -3.45629e-05 -3.46302e-07
-3.45629e-05 0.000103099 1.73353e-06
-3.46302e-07 1.73353e-06 2.60603e-05
0.000645972 -8.93534e-07 5.23506e-07
-8.93534e-07 -2.87642e-05 5.37563e-07
5.23506e-07 5.37563e-07 -9.27837e-05
0.000827161 -3.55623e-06 -1.03315e-07
-3.55623e-06 6.6349e-05 -1.19149e-07
-1.03315e-07 -1.19149e-07 -7.86363e-06
0.000882276 -2.78587e-06 2.44247e-08
-2.78587e-06 9.90588e-05 3.02638e-07
2.44247e-08 3.02638e-07 2.26984e-05
0.000819407 2.19612e-05 5.68895e-07
2.19612e-05 7.2906e-05 -2.44261e-07
5.68895e-07 -2.44261e-07 -7.79677e-06
0.000759277 -5.14013e-06 1.08457e-07
-5.14013e-06 2.70703e-05 -1.11e-07
1.08457e-07 -1.11e-07 -4.25367e-05
0.000864382 -1.03576e-05 4.87923e-07
-1.03576e-05 7.99724e-05 -1.18661e-06
4.87923e-07 -1.18661e-06 7.31146e-06
0.000718877 2.24496e-05 -9.3776e-07
2.24496e-05 -4.60598e-07 -5.19136e-06
-9.3776e-07 -5.19136e-06 -6.51972e-05
0.000883601 -6.18259e-05 2.09408e-07
-6.18259e-05 9.67299e-05 -6.13513e-07
2.09408e-07 -6.13513e-07 1.64003e-05
0.00086576 -4.80675e-05 -5.12724e-07
-4.80675e-05 0.000101501 -7.36878e-07
-5.12724e-07 -7.36878e-07 1.95216e-05
0.000871326 -1.18793e-05 -4.64459e-07
-1.18793e-05 0.000104671 -1.89169e-07
-4.64459e-07 -1.89169e-07 2.52234e-05
0.000896449 4.31134e-05 -5.38108e-07
4.31134e-05 0.000112478 -2.92909e-07
-5.38108e-07 -2.92909e-07 3.63157e-05
0.000859442 2.01654e-05 -7.12759e-07
2.01654e-05 9.88483e-05 -1.35263e-06
-7.12759e-07 -1.35263e-06 1.14374e-05
0.000821247 4.62295e-05 3.89749e-07
4.62295e-05 7.73951e-05 -1.05009e-06
3.89749e-07 -1.05009e-06 1.55916e-06
0.00073422 3.59566e-05 3.01569e-07
3.59566e-05 1.77432e-05 -1.53797e-06
3.01569e-07 -1.53797e-06 -5.37509e-05
0.000724072 5.21616e-05 1.89378e-06
5.21616e-05 3.91235e-05 8.40919e-07
1.89378e-06 8.40919e-07 -4.15591e-05
0.000754789 1.16856e-05 -1.71702e-07
1.16856e-05 4.11862e-05 -3.67499e-07
-1.71702e-07 -3.67499e-07 -2.54272e-05
0.000778122 -3.63309e-06 -1.16732e-07
-3.63309e-06 5.77651e-05 2.9584e-08
-1.16732e-07 2.9584e-08 -1.47754e-05
0.000760015 1.04564e-06 -1.21144e-06
1.04564e-06 2.88646e-05 2.32965e-07
-1.21144e-06 2.32965e-07 -2.61187e-05
0.000808378 7.96053e-06 8.90741e-07
7.96053e-06 6.35028e-05 -5.31659e-08
8.90741e-07 -5.31659e-08 -7.49495e-06
0.000730871 -3.14626e-05 -2.21866e-08
-3.14626e-05 1.60297e-05 4.52076e-08
-2.21866e-08 4.52076e-08 -4.35224e-05
0.000747128 1.36061e-05 -7.13924e-07
1.36061e-05 1.03588e-05 1.50458e-06
-7.13924e-07 1.50458e-06 -2.7128e-05
0.000650555 5.846e-06 5.77545e-07
5.846e-06 -2.23698e-05 5.66074e-08
5.77545e-07 5.66074e-08 -8.81631e-05
0.000732437 8.29595e-06 1.57191e-08
8.29595e-06 2.89654e-06 -1.4277e-08
1.57191e-08 -1.4277e-08 -3.46218e-05
0.00135009 1.55771e-05 -2.94665e-06
1.55771e-05 0.000338901 4.7025e-06
-2.94665e-06 4.7025e-06 0.000334606
0.000719397 9.6821e-07 4.5914e-07
9.6821e-07 -3.56295e-06 -1.39054e-06
4.5914e-07 -1.39054e-06 -4.0897e-05
0.00102117 8.33757e-06 -1.4694e-06
8.33757e-06 0.000151529 7.16713e-07
-1.4694e-06 7.16713e-07 0.000145999
0.000912766 3.81538e-06 -3.23331e-06
3.81538e-06 9.24038e-05 4.45043e-06
-3.23331e-06 4.45043e-06 0.000105235
0.000691996 1.55347e-06 3.89802e-08
1.55347e-06 -3.50351e-05 -3.3225e-06
3.89802e-08 -3.3225e-06 -4.18479e-05
0.00219525 -5.78994e-08 3.05981e-06
-5.78994e-08 0.000813887 -1.37331e-09
3.05981e-06 -1.37331e-09 0.000833716
0.000922082 -3.77783e-06 -2.902e-06
-3.77783e-06 9.74346e-05 -4.46733e-06
-2.902e-06 -4.46733e-06 0.000110631
0.000766576 6.03762e-05 7.48909e-07
6.03762e-05 5.21749e-05 -3.09856e-07
7.48909e-07 -3.09856e-07 -8.7284e-06
0.000738356 4.04438e-06 -1.28596e-07
4.04438e-06 7.95514e-06 -1.73891e-06
-1.28596e-07 -1.73891e-06 -2.37782e-05
0.000731847 3.63337e-06 2.85322e-08
3.63337e-06 4.93824e-06 6.49107e-09
2.85322e-08 6.49107e-09 -2.73211e-05
0.000693599 6.03809e-06 -7.78478e-08
6.03809e-06 -3.40885e-05 -3.41153e-06
-7.78478e-08 -3.41153e-06 -3.78095e-05
0.00073569 4.63175e-07 -4.82487e-07
4.63175e-07 6.94319e-06 1.81194e-06
-4.82487e-07 1.81194e-06 -2.66895e-05
0.000684599 1.23903e-05 2.88464e-09
1.23903e-05 -3.76795e-05 -7.21319e-07
2.88464e-09 -7.21319e-07 -4.23685e-05
0.0020889 1.84529e-05 8.43412e-06
1.84529e-05 0.000756962 -4.46618e-06
8.43412e-06 -4.46618e-06 0.00077731
0.00129071 2.52613e-05 -1.07032e-06
2.52613e-05 0.000306954 2.10754e-06
-1.07032e-06 2.10754e-06 0.000303546
0.00154143 2.41479e-05 3.88876e-07
2.41479e-05 0.000453437 1.41473e-06
3.88876e-07 1.41473e-06 0.000468831
0.000972972 2.68326e-05 -1.67792e-05
2.68326e-05 0.000139 7.17794e-06
-1.67792e-05 7.17794e-06 0.000149245
0.000749783 4.90693e-05 2.97151e-05
4.90693e-05 -0.000643192 1.13852e-05
2.97151e-05 1.13852e-05 -0.000739202
0.00182636 8.62121e-06 2.98719e-06
8.62121e-06 5.36804e-05 6.83973e-07
2.98719e-06 6.83973e-07 1.24078e-07
0.00209147 4.11799e-05 1.69002e-05
4.11799e-05 0.000250103 8.80703e-07
1.69002e-05 8.80703e-07 0.000228511
0.000871819 2.893e-05 1.68923e-05
2.893e-05 -0.000586239 -3.23952e-06
1.68923e-05 -3.23952e-06 -0.000920516
0.00177457 -6.06148e-06 3.24884e-06
-6.06148e-06 -4.14479e-05 9.64873e-07
3.24884e-06 9.64873e-07 -8.39697e-05
0.00205745 -1.00582e-05 -2.44438e-06
-1.00582e-05 0.000157274 -6.23624e-07
-2.44438e-06 -6.23624e-07 0.000118544
0.00268264 -2.59408e-05 -3.99443e-05
-2.59408e-05 0.000444732 4.02359e-06
-3.99443e-05 4.02359e-06 0.000420673
0.00220379 -0.000103754 0.000140919
-0.000103754 4.30086e-05 -1.03751e-05
0.000140919 -1.03751e-05 -0.000231377
0.00793404 -0.000114208 -2.24042e-05
-0.000114208 0.0023545 7.45778e-06
-2.24042e-05 7.45778e-06 0.00137069
0.00476029 0.000774865 7.18388e-05
0.000774865 0.00231879 -2.356e-05
7.18388e-05 -2.356e-05 0.0024979
0.00216357 0.000740958 -1.09016e-05
0.000740958 0.000863096 1.52463e-05
-1.09016e-05 1.52463e-05 0.00187763
0.000566865 -6.33193e-05 1.46457e-06
-6.33193e-05 -5.18037e-05 -1.11653e-06
1.46457e-06 -1.11653e-06 -0.000126185
0.000768976 -9.01914e-06 6.3542e-07
-9.01914e-06 5.01919e-05 -4.79201e-08
6.3542e-07 -4.79201e-08 -7.50677e-06
0.000764381 -6.38372e-05 -1.16831e-06
-6.38372e-05 5.23828e-05 1.3298e-06
-1.16831e-06 1.3298e-06 -9.61322e-06
0.000739743 -2.90204e-05 -3.26798e-07
-2.90204e-05 4.46853e-05 6.84047e-08
-3.26798e-07 6.84047e-08 -3.11914e-05
0.000782525 4.67049e-05 2.57228e-07
4.67049e-05 8.18013e-05 6.17676e-07
2.57228e-07 6.17676e-07 -9.35805e-06
0.000902016 9.30004e-05 7.8384e-07
9.30004e-05 0.000134501 7.67453e-07
7.8384e-07 7.67453e-07 4.92622e-05
0.000828245 -1.84796e-05 9.27382e-07
-1.84796e-05 9.23588e-05 -1.32202e-06
9.27382e-07 -1.32202e-06 1.65336e-05
0.000718216 -3.29808e-05 -5.23036e-07
-3.29808e-05 3.28941e-05 6.39799e-07
-5.23036e-07 6.39799e-07 -4.16822e-05
0.001872 -9.83281e-05 4.95158e-06
-9.83281e-05 8.2399e-05 -9.50998e-07
4.95158e-06 -9.50998e-07 3.59218e-05
0.0017147 -0.000136291 1.46371e-06
-0.000136291 -7.31616e-05 -1.00078e-06
1.46371e-06 -1.00078e-06 -0.000129381
0.00150137 -0.000259885 -1.95581e-06
-0.000259885 -0.000115454 1.03554e-06
-1.95581e-06 1.03554e-06 -0.000204681
0.00100892 -0.000189797 2.01934e-06
-0.000189797 0.000145833 2.99388e-06
2.01934e-06 2.99388e-06 -3.21741e-05
0.00226322 -0.000319213 2.0129e-06
-0.000319213 0.000537543 8.98917e-07
2.0129e-06 8.98917e-07 0.000352369
0.000841506 -0.000118897 -1.03549e-06
-0.000118897 0.000154405 -9.07429e-07
-1.03549e-06 -9.07429e-07 -1.78003e-05
0.00132655 -0.000127613 -7.74868e-07
-0.000127613 0.000406697 -3.41449e-07
-7.74868e-07 -3.41449e-07 0.000257352
0.000795788 -6.49605e-05 -1.79132e-06
-6.49605e-05 8.93484e-05 1.43425e-06
-1.79132e-06 1.43425e-06 -1.69826e-05
0.000790585 -8.39399e-06 1.14667e-07
-8.39399e-06 8.06198e-05 1.07269e-06
1.14667e-07 1.07269e-06 -7.12476e-06
0.00100247 8.04541e-06 -1.54402e-06
8.04541e-06 0.000194414 1.3909e-07
-1.54402e-06 1.3909e-07 9.68909e-05
0.00099888 -4.48982e-06 7.97409e-07
-4.48982e-06 0.000191468 4.92208e-07
7.97409e-07 4.92208e-07 0.000112894
0.000717775 0.000100323 1.48609e-06
0.000100323 4.73486e-05 1.96574e-06
1.48609e-06 1.96574e-06 -4.74205e-05
0.00163155 -9.60931e-05 -9.40984e-07
-9.60931e-05 -0.000105094 -2.27048e-06
-9.40984e-07 -2.27048e-06 -0.000154255
0.00077772 3.25607e-05 -6.35992e-07
3.25607e-05 7.87721e-05 3.38569e-07
-6.35992e-07 3.38569e-07 -1.89967e-05
0.000813072 -3.75519e-05 -4.24012e-07
-3.75519e-05 9.67607e-05 -3.70543e-07
-4.24012e-07 -3.70543e-07 -1.69123e-06
0.00202079 -0.000246604 -2.79279e-07
-0.000246604 7.35277e-05 -1.19415e-06
-2.79279e-07 -1.19415e-06 4.47726e-05
0.00126933 -0.000275408 1.40876e-07
-0.000275408 -0.00010348 1.76749e-06
1.40876e-07 1.76749e-06 -0.000232815
0.00153416 -0.000257436 1.72411e-06
-0.000257436 0.000403188 -1.59422e-06
1.72411e-06 -1.59422e-06 0.000203837
0.00088865 -3.73086e-05 3.7152e-07
-3.73086e-05 0.00014642 -4.60798e-07
3.7152e-07 -4.60798e-07 3.34287e-05
0.000961008 -4.31909e-05 -1.31852e-07
-4.31909e-05 0.000234824 3.79184e-07
-1.31852e-07 3.79184e-07 3.6731e-05
0.00348726 -0.000179336 -1.08774e-05
-0.000179336 0.00102901 8.30351e-06
-1.08774e-05 8.30351e-06 0.000935013
0.00295335 -0.000340094 -1.46939e-05
-0.000340094 0.000627996 1.10396e-06
-1.46939e-05 1.10396e-06 0.000621322
-0.000229627 -0.000209085 -4.57552e-06
-0.000209085 -0.000704638 -1.75153e-06
-4.57552e-06 -1.75153e-06 -0.00084716
0.0010842 -0.000158186 -4.50174e-06
-0.000158186 0.000226945 5.46923e-06
-4.50174e-06 5.46923e-06 1.24514e-05
0.000661587 -8.40219e-05 8.26791e-07
-8.40219e-05 9.16214e-06 -3.98293e-07
8.26791e-07 -3.98293e-07 -9.04816e-05
0.000831315 -3.93187e-05 1.03235e-06
-3.93187e-05 0.00010853 -2.90619e-07
1.03235e-06 -2.90619e-07 3.84809e-06
0.000761716 -1.44222e-05 -1.42396e-06
-1.44222e-05 9.33614e-05 3.8906e-07
-1.42396e-06 3.8906e-07 -4.49858e-05
-0.00376535 -2.57627e-05 0.000125255
-2.57627e-05 -0.00180123 2.23324e-06
0.000125255 2.23324e-06 -0.00156235
0.00877412 -7.52998e-05 -2.77199e-05
-7.52998e-05 0.0028744 -1.46716e-07
-2.77199e-05 -1.46716e-07 0.0022824
0.000862084 4.73094e-05 2.45758e-06
4.73094e-05 0.000135346 4.01532e-07
2.45758e-06 4.01532e-07 2.72591e-05
0.000739599 0.000136522 4.45499e-06
0.000136522 6.76515e-05 7.48839e-08
4.45499e-06 7.48839e-08 -8.17733e-05
0.00185704 0.000167918 1.08404e-05
0.000167918 6.81579e-05 8.27682e-06
1.08404e-05 8.27682e-06 9.41571e-05
0.00213292 0.00036794 5.64052e-06
0.00036794 0.000266437 2.38032e-06
5.64052e-06 2.38032e-06 0.000126946
0.00109838 0.000214003 7.2325e-06
0.000214003 0.000135732 1.55415e-06
7.2325e-06 1.55415e-06 -8.82001e-05
0.00610779 0.00025851 6.75086e-05
0.00025851 0.00139984 3.94992e-06
6.75086e-05 3.94992e-06 0.000415692
0.00587544 0.000341443 -9.73029e-05
0.000341443 0.00120507 -2.61717e-05
-9.73029e-05 -2.61717e-05 0.000543992
-0.000269607 0.000141397 3.52475e-06
0.000141397 -0.000770591 -2.0312e-05
3.52475e-06 -2.0312e-05 -0.000905925
0.00430372 -0.000634191 4.96689e-06
-0.000634191 0.00217229 2.31685e-05
4.96689e-06 2.31685e-05 0.00200807
-0.00437491 -0.000842233 -8.16902e-05
-0.000842233 -0.00309184 -8.66488e-05
-8.16902e-05 -8.66488e-05 -0.00134117
0.000952974 0.000115304 1.64352e-07
0.000115304 0.000201745 -8.52645e-07
1.64352e-07 -8.52645e-07 8.9277e-05
-0.00243965 -0.000220555 3.63467e-05
-0.000220555 -0.00141615 4.23062e-06
3.63467e-05 4.23062e-06 -0.00145311
-0.000827195 -0.000316688 -4.14643e-05
-0.000316688 7.82774e-05 -1.62356e-05
-4.14643e-05 -1.62356e-05 -0.000209021
0.00249919 0.000260124 -4.40599e-06
0.000260124 0.000435083 -2.53265e-06
-4.40599e-06 -2.53265e-06 0.000469555
0.000899875 0.000120051 -1.2236e-06
0.000120051 0.000177019 -5.70109e-07
-1.2236e-06 -5.70109e-07 7.64346e-06
0.000647839 0.000252555 2.78276e-06
0.000252555 -0.000149638 1.85211e-06
2.78276e-06 1.85211e-06 -0.000375475
0.000591692 0.000188293 1.07031e-05
0.000188293 -0.000279195 9.96176e-06
1.07031e-05 9.96176e-06 -0.000246003
0.00655125 2.94313e-05 -1.23607e-05
2.94313e-05 0.00188139 -9.40863e-06
-1.23607e-05 -9.40863e-06 0.000379353
0.00638979 0.000644779 -3.9901e-05
0.000644779 0.00167717 -1.77087e-05
-3.9901e-05 -1.77087e-05 0.000893521
0.00568128 -0.00087776 2.90002e-05
-0.00087776 0.00251951 -1.89733e-05
2.90002e-05 -1.89733e-05 0.00262606
0.00126856 -0.000525885 3.89777e-05
-0.000525885 -0.00181231 8.59526e-05
3.89777e-05 8.59526e-05 -0.000566365
0.00107248 7.33633e-05 -8.91512e-06
7.33633e-05 0.000288416 -6.92713e-06
-8.91512e-06 -6.92713e-06 0.000193324
-0.00267163 -6.46237e-05 -7.55192e-05
-6.46237e-05 -0.000207219 -2.24578e-05
-7.55192e-05 -2.24578e-05 -0.00106681
0.00203578 1.46539e-05 -7.35572e-05
1.46539e-05 0.000387758 -8.50006e-05
-7.35572e-05 -8.50006e-05 -0.000412403
0.000203706 0.000226024 -2.38353e-05
0.000226024 -0.000436546 1.53535e-06
-2.38353e-05 1.53535e-06 -0.000428609
0.00163027 0.000279654 -3.26551e-05
0.000279654 0.000628081 -8.99045e-06
-3.26551e-05 -8.99045e-06 0.000444948
0.00277004 0.000190284 -5.94075e-05
0.000190284 0.00113018 -1.03429e-06
-5.94075e-05 -1.03429e-06 0.000966934
0.00371668 0.000643853 -7.28091e-05
0.000643853 0.000464339 4.37574e-07
-7.28091e-05 4.37574e-07 8.38524e-05
-0.0010897 7.0747e-05 6.6161e-05
7.0747e-05 -0.000978197 5.4137e-05
6.6161e-05 5.4137e-05 -0.00301241
0.00673868 -0.000811256 -4.08174e-05
-0.000811256 0.00171869 5.2344e-05
-4.08174e-05 5.2344e-05 0.00178444
0.00193502 -0.000311087 -9.67098e-06
-0.000311087 -0.00198115 -2.08307e-05
-9.67098e-06 -2.08307e-05 -0.000749898
0.000925561 3.29011e-05 1.78356e-06
3.29011e-05 0.000153146 2.95977e-06
1.78356e-06 2.95977e-06 6.5267e-05
0.00111197 6.49687e-05 2.39822e-06
6.49687e-05 0.000248913 2.00613e-06
2.39822e-06 2.00613e-06 0.000178771
0.000550391 5.46937e-05 -7.38732e-07
5.46937e-05 -5.66693e-05 -8.4986e-06
-7.38732e-07 -8.4986e-06 -0.000103985
0.000636226 4.20159e-05 5.48215e-07
4.20159e-05 -3.46187e-05 8.87198e-08
5.48215e-07 8.87198e-08 -9.83568e-05
0.000878872 3.76688e-05 -8.11352e-07
3.76688e-05 0.00011116 -3.06252e-07
-8.11352e-07 -3.06252e-07 2.84469e-05
0.000868301 -2.07096e-05 -4.17387e-07
-2.07096e-05 9.19653e-05 7.51933e-07
-4.17387e-07 7.51933e-07 1.60442e-05
0.000859663 -1.92854e-05 -3.91084e-07
-1.92854e-05 8.58658e-05 2.35672e-07
-3.91084e-07 2.35672e-07 1.03967e-05
0.0007916 -8.88001e-06 -5.28669e-07
-8.88001e-06 4.5026e-05 2.69666e-06
-5.28669e-07 2.69666e-06 -2.39416e-05
0.000866176 3.06941e-05 2.43018e-07
3.06941e-05 0.000102298 -5.21284e-07
2.43018e-07 -5.21284e-07 2.00409e-05
0.000907145 -9.85903e-06 -1.07993e-07
-9.85903e-06 0.000104217 3.98835e-07
-1.07993e-07 3.98835e-07 3.13808e-05
0.000896211 -3.28937e-05 2.34038e-08
-3.28937e-05 0.000106415 3.35378e-07
2.34038e-08 3.35378e-07 2.42158e-05
0.000622768 7.79979e-06 8.39967e-08
7.79979e-06 -4.8188e-05 -5.488e-07
8.39967e-08 -5.488e-07 -0.000110044
0.000725488 -1.74093e-05 1.78929e-06
-1.74093e-05 2.83021e-05 -5.09944e-06
1.78929e-06 -5.09944e-06 -2.20692e-05
0.000901909 -2.76461e-05 -3.1144e-08
-2.76461e-05 9.86885e-05 -3.29377e-06
-3.1144e-08 -3.29377e-06 2.46481e-05
0.000924585 2.53835e-06 1.16393e-07
2.53835e-06 0.000131934 -1.14908e-06
1.16393e-07 -1.14908e-06 4.08702e-05
0.000873701 -3.8502e-05 4.38941e-08
-3.8502e-05 0.00010892 -1.55162e-07
4.38941e-08 -1.55162e-07 2.71115e-05
0.000894099 1.04214e-05 -4.27738e-07
1.04214e-05 0.000106581 8.41931e-07
-4.27738e-07 8.41931e-07 3.29918e-05
0.000861673 -1.46845e-05 3.3381e-07
-1.46845e-05 9.48628e-05 -3.26899e-07
3.3381e-07 -3.26899e-07 1.06881e-05
0.00081371 4.26155e-05 -7.76395e-08
4.26155e-05 7.13408e-05 1.67475e-08
-7.76395e-08 1.67475e-08 -3.60501e-06
0.000786356 7.90023e-06 -2.23437e-07
7.90023e-06 4.58691e-05 3.52779e-07
-2.23437e-07 3.52779e-07 -2.44091e-05
0.000756812 5.79903e-05 9.63875e-07
5.79903e-05 4.7723e-05 -3.31143e-07
9.63875e-07 -3.31143e-07 -2.77879e-05
0.00070109 2.40092e-05 -6.37461e-08
2.40092e-05 5.49653e-06 -2.10035e-06
-6.37461e-08 -2.10035e-06 -7.52507e-05
0.00076756 2.08921e-05 1.08808e-06
2.08921e-05 4.06929e-05 -1.36813e-06
1.08808e-06 -1.36813e-06 -2.78033e-05
0.000819071 2.47044e-05 2.73835e-06
2.47044e-05 7.94318e-05 -1.38695e-06
2.73835e-06 -1.38695e-06 -6.96109e-06
0.000439476 -3.09901e-05 5.9253e-07
-3.09901e-05 -8.65281e-05 -2.20421e-09
5.9253e-07 -2.20421e-09 -0.000212817
0.000474996 3.47123e-05 6.24867e-07
3.47123e-05 -8.95873e-05 4.28772e-08
6.24867e-07 4.28772e-08 -0.00017897
0.000776614 4.46653e-05 4.6319e-07
4.46653e-05 6.71991e-05 5.02869e-07
4.6319e-07 5.02869e-07 -1.31473e-05
0.000739162 4.53902e-05 5.03162e-07
4.53902e-05 3.85695e-05 2.92791e-07
5.03162e-07 2.92791e-07 -3.12493e-05
0.000780005 1.17672e-05 -2.02614e-07
1.17672e-05 5.9577e-05 -4.31889e-08
-2.02614e-07 -4.31889e-08 -1.02996e-05
0.000740228 2.69814e-05 -6.76208e-07
2.69814e-05 2.21511e-05 2.02132e-07
-6.76208e-07 2.02132e-07 -3.36334e-05
0.000800714 9.69101e-06 4.81816e-07
9.69101e-06 6.85523e-05 5.00559e-07
4.81816e-07 5.00559e-07 -2.75924e-06
0.000773165 -6.26272e-06 -1.71689e-07
-6.26272e-06 3.9307e-05 8.81255e-09
-1.71689e-07 8.81255e-09 -1.78318e-05
0.000735623 2.28663e-05 -1.03108e-06
2.28663e-05 4.89244e-06 1.50397e-06
-1.03108e-06 1.50397e-06 -3.26408e-05
0.000688186 -2.32587e-05 8.31468e-07
-2.32587e-05 -1.02394e-05 -2.13885e-07
8.31468e-07 -2.13885e-07 -6.88817e-05
0.000736781 1.22299e-05 -8.06209e-08
1.22299e-05 4.31124e-06 9.18895e-11
-8.06209e-08 9.18895e-11 -3.30841e-05
0.00134568 2.33454e-05 -4.93277e-06
2.33454e-05 0.000339145 4.68572e-06
-4.93277e-06 4.68572e-06 0.000334397
0.000727859 6.77758e-07 7.82288e-07
6.77758e-07 2.28217e-08 -1.39118e-06
7.82288e-07 -1.39118e-06 -3.7396e-05
0.00101966 1.53754e-05 -2.33176e-06
1.53754e-05 0.000152643 6.95524e-07
-2.33176e-06 6.95524e-07 0.000146732
0.000855946 1.25874e-05 -5.34007e-07
1.25874e-05 6.21957e-05 1.70083e-06
-5.34007e-07 1.70083e-06 7.47978e-05
0.000682976 7.55303e-06 2.77934e-07
7.55303e-06 -3.9265e-05 -3.32541e-06
2.77934e-07 -3.32541e-06 -4.64043e-05
0.00219956 9.61138e-06 2.71123e-06
9.61138e-06 0.000817073 2.59856e-08
2.71123e-06 2.59856e-08 0.000836663
0.00219817 8.6874e-07 5.2824e-07
8.6874e-07 0.000815549 -4.60762e-06
5.2824e-07 -4.60762e-06 0.000835325
0.00105053 5.01771e-05 -1.20464e-06
5.01771e-05 0.000205094 -8.07203e-07
-1.20464e-06 -8.07203e-07 0.000146662
0.000748138 4.84666e-07 -3.75341e-07
4.84666e-07 1.29068e-05 -1.82668e-06
-3.75341e-07 -1.82668e-06 -1.95247e-05
0.000758326 3.78457e-06 6.62544e-07
3.78457e-06 4.64885e-05 6.17821e-07
6.62544e-07 6.17821e-07 -1.35743e-05
0.00069491 -3.54909e-07 -1.44543e-07
-3.54909e-07 -3.41352e-05 -3.4343e-06
-1.44543e-07 -3.4343e-06 -3.74598e-05
0.000739732 1.21216e-06 1.91823e-07
1.21216e-06 8.72484e-06 -1.48682e-08
1.91823e-07 -1.48682e-08 -2.30118e-05
0.000736549 1.32128e-06 -3.50919e-07
1.32128e-06 7.43917e-06 1.75899e-06
-3.50919e-07 1.75899e-06 -2.4825e-05
0.000696917 6.29115e-06 -1.4978e-07
6.29115e-06 -3.23228e-05 2.38121e-09
-1.4978e-07 2.38121e-09 -3.60677e-05
0.00207232 8.67001e-06 3.99855e-06
8.67001e-06 0.000745582 -4.53697e-06
3.99855e-06 -4.53697e-06 0.000766622
0.00128193 1.69815e-05 -6.58326e-07
1.69815e-05 0.000298665 2.07375e-06
-6.58326e-07 2.07375e-06 0.000297067
0.00148677 1.61677e-05 2.20581e-06
1.61677e-05 0.000418094 6.60651e-08
2.20581e-06 6.60651e-08 0.000435044
0.000947888 1.93538e-05 -1.47347e-05
1.93538e-05 0.000118783 7.11299e-06
-1.47347e-05 7.11299e-06 0.00013132
-0.00615959 0.000133377 7.71277e-05
0.000133377 -0.00298467 -2.37263e-06
7.71277e-05 -2.37263e-06 -0.0032281
-0.0014568 0.00022294 4.70487e-05
0.00022294 -0.000109881 2.00831e-05
4.70487e-05 2.00831e-05 -0.000384231
0.00350009 4.16424e-05 -0.000148097
4.16424e-05 0.000693508 1.87007e-06
-0.000148097 1.87007e-06 0.000351083
0.00170974 -2.80453e-06 2.82975e-05
-2.80453e-06 -2.46461e-05 3.61041e-06
2.82975e-05 3.61041e-06 -6.66689e-05
0.00157078 -2.06164e-05 8.02893e-06
-2.06164e-05 -0.00016925 9.58066e-07
8.02893e-06 9.58066e-07 -0.000203208
0.00103968 4.84286e-06 2.51293e-05
4.84286e-06 -0.000396073 -1.13921e-06
2.51293e-05 -1.13921e-06 -0.000553384
0.00215167 -4.40967e-05 3.28433e-07
-4.40967e-05 0.000166048 1.22234e-06
3.28433e-07 1.22234e-06 0.000121323
0.00626817 0.000189623 -8.09652e-06
0.000189623 0.00150333 -1.89499e-05
-8.09652e-06 -1.89499e-05 0.000670291
-0.00360504 0.000322144 -2.49795e-05
0.000322144 -0.00139777 -9.16356e-07
-2.49795e-05 -9.16356e-07 -0.0017064
-0.00122055 0.000787346 -2.19539e-05
0.000787346 -0.00117563 8.14174e-06
-2.19539e-05 8.14174e-06 0.0002542
0.00206442 -0.000130924 6.46086e-05
-0.000130924 6.29299e-05 9.90578e-06
6.46086e-05 9.90578e-06 -0.000192907
0.00724016 0.000226487 2.22466e-05
0.000226487 0.00229619 -5.84407e-06
2.22466e-05 -5.84407e-06 0.00108163
0.000175325 0.000630447 4.80154e-06
0.000630447 -0.000483199 -5.36642e-05
4.80154e-06 -5.36642e-05 4.80157e-05
0.00392003 0.000573363 -7.13052e-05
0.000573363 -3.89247e-05 5.26087e-05
-7.13052e-05 5.26087e-05 0.000850792
0.000771578 5.69172e-05 -6.53043e-07
5.69172e-05 7.15622e-05 -2.5971e-07
-6.53043e-07 -2.5971e-07 -2.33533e-05
0.000675621 6.93249e-06 -2.14014e-07
6.93249e-06 5.13476e-06 -4.54057e-07
-2.14014e-07 -4.54057e-07 -6.68794e-05
0.000765775 -6.2936e-05 -8.52431e-07
-6.2936e-05 5.18294e-05 1.1242e-06
-8.52431e-07 1.1242e-06 -8.44966e-06
0.000681202 -8.62906e-07 1.63661e-07
-8.62906e-07 1.53133e-05 6.85233e-07
1.63661e-07 6.85233e-07 -6.31727e-05
0.000779521 5.21194e-05 8.00346e-07
5.21194e-05 8.1259e-05 1.05522e-06
8.00346e-07 1.05522e-06 -9.40576e-06
0.000881202 5.21028e-05 -5.30862e-07
5.21028e-05 0.000125689 1.88404e-07
-5.30862e-07 1.88404e-07 3.43388e-05
0.000840137 6.64644e-05 1.50325e-06
6.64644e-05 0.000103679 1.25168e-06
1.50325e-06 1.25168e-06 1.58263e-05
0.000759382 -1.13985e-05 8.96118e-07
-1.13985e-05 4.88558e-05 -3.51003e-09
8.96118e-07 -3.51003e-09 -2.98325e-05
0.000752656 -2.14272e-05 4.03162e-07
-2.14272e-05 5.35433e-05 -6.98378e-07
4.03162e-07 -6.98378e-07 -2.53408e-05
0.00066577 -1.49663e-05 5.89148e-08
-1.49663e-05 -6.42193e-07 9.64108e-07
5.89148e-08 9.64108e-07 -7.2725e-05
0.000771942 -9.33233e-05 3.63905e-06
-9.33233e-05 -0.00058163 -4.03334e-06
3.63905e-06 -4.03334e-06 -0.000625295
0.00163714 -0.0002372 7.34788e-06
-0.0002372 -0.000106405 6.57026e-07
7.34788e-06 6.57026e-07 -0.000149664
9.52107e-05 -0.00021009 6.53929e-06
-0.00021009 -0.000709008 3.25478e-06
6.53929e-06 3.25478e-06 -0.000821378
0.00163087 -0.000264996 1.90593e-06
-0.000264996 0.000450975 6.53262e-07
1.90593e-06 6.53262e-07 0.00023933
0.0013281 -7.98665e-05 1.06946e-06
-7.98665e-05 0.000423705 -8.33846e-07
1.06946e-06 -8.33846e-07 0.000232704
0.00106312 -5.16468e-05 -4.51417e-07
-5.16468e-05 0.000245343 -2.17409e-07
-4.51417e-07 -2.17409e-07 0.000127523
0.000888522 -2.93809e-05 -9.01684e-07
-2.93809e-05 0.000132926 1.00693e-08
-9.01684e-07 1.00693e-08 3.86958e-05
0.000798161 3.96941e-05 -1.10762e-06
3.96941e-05 8.9702e-05 5.93946e-07
-1.10762e-06 5.93946e-07 -5.62137e-06
0.00178971 -0.000147568 -2.9887e-06
-0.000147568 0.000103235 1.68553e-06
-2.9887e-06 1.68553e-06 3.31621e-05
0.00070349 -3.51008e-05 -6.19508e-08
-3.51008e-05 3.46863e-05 6.1236e-08
-6.19508e-08 6.1236e-08 -6.67844e-05
0.000796847 -3.7199e-05 4.30693e-07
-3.7199e-05 8.8791e-05 -3.76726e-07
4.30693e-07 -3.76726e-07 -1.66596e-05
0.00192983 -0.000297326 4.07582e-06
-0.000297326 0.000105547 -2.20425e-06
4.07582e-06 -2.20425e-06 9.22037e-05
0.000225498 -0.000232306 1.52074e-06
-0.000232306 -0.000447644 1.33512e-06
1.52074e-06 1.33512e-06 -0.000589043
0.00112622 -0.000159451 2.99404e-06
-0.000159451 0.000240062 -1.70748e-06
2.99404e-06 -1.70748e-06 2.91563e-05
0.0010021 -4.67632e-05 -5.48637e-07
-4.67632e-05 0.000228688 -8.08989e-07
-5.48637e-07 -8.08989e-07 7.90085e-05
0.00153634 -0.000222864 9.10301e-07
-0.000222864 0.000280982 -5.00908e-06
9.10301e-07 -5.00908e-06 6.32073e-05
0.00162142 -0.000254411 -1.77061e-05
-0.000254411 0.000277824 2.5777e-06
-1.77061e-05 2.5777e-06 0.000211776
0.000395931 -3.2189e-05 -1.26315e-05
-3.2189e-05 -7.20286e-05 1.4145e-05
-1.26315e-05 1.4145e-05 -0.000259778
0.000770655 3.09757e-05 5.75134e-07
3.09757e-05 6.65992e-05 8.19403e-07
5.75134e-07 8.19403e-07 -3.24341e-05
0.000627632 -7.82733e-05 1.06456e-06
-7.82733e-05 -8.8251e-06 7.69768e-08
1.06456e-06 7.69768e-08 -0.000115037
0.00082641 -2.50116e-05 6.71592e-07
-2.50116e-05 9.51118e-05 1.61177e-06
6.71592e-07 1.61177e-06 -1.14725e-05
0.000885389 2.05081e-05 -9.3167e-05
2.05081e-05 0.00166771 -1.36654e-06
-9.3167e-05 -1.36654e-06 0.00114761
0.00191985 -0.000116741 1.38916e-05
-0.000116741 0.00128697 7.11741e-06
1.38916e-05 7.11741e-06 0.00113542
-6.15245e-05 0.000291336 -5.55108e-05
0.000291336 -0.00196755 2.20391e-05
-5.55108e-05 2.20391e-05 -0.00254435
0.000786731 0.000102506 4.06974e-06
0.000102506 0.000113858 2.09734e-06
4.06974e-06 2.09734e-06 4.03177e-06
0.000740307 0.000136153 7.64729e-06
0.000136153 0.000108012 3.26536e-06
7.64729e-06 3.26536e-06 -6.32953e-05
0.00262881 0.000248274 1.27096e-05
0.000248274 0.000482436 4.28336e-06
1.27096e-05 4.28336e-06 0.000525538
0.000522285 0.000183832 1.28388e-05
0.000183832 -0.000185099 5.97821e-06
1.28388e-05 5.97821e-06 -0.000404843
0.00436778 -0.000348727 4.0954e-05
-0.000348727 0.00187007 1.8357e-05
4.0954e-05 1.8357e-05 0.00193041
-0.000492544 -0.000128504 -3.34124e-05
-0.000128504 -0.00159399 3.03908e-06
-3.34124e-05 3.03908e-06 -0.00286485
0.00347719 0.000542348 -7.60227e-05
0.000542348 -3.09235e-05 -3.92967e-05
-7.60227e-05 -3.92967e-05 -0.000872649
0.000401478 0.000106628 2.63426e-05
0.000106628 -0.000297646 -1.66615e-05
2.63426e-05 -1.66615e-05 -0.000258348
-0.00345512 -0.000399216 5.46781e-06
-0.000399216 -0.0014939 -1.13795e-05
5.46781e-06 -1.13795e-05 -0.00157784
0.00075618 -0.000358683 1.81628e-05
-0.000358683 0.000554998 2.40203e-05
1.81628e-05 2.40203e-05 0.000269466
0.00491135 -0.00065574 8.20691e-05
-0.00065574 0.000126131 6.61132e-05
8.20691e-05 6.61132e-05 0.00145572
0.000809615 7.65809e-05 1.86623e-06
7.65809e-05 0.000154631 -1.77434e-06
1.86623e-06 -1.77434e-06 5.49962e-05
-0.000392318 -0.000118709 -3.2369e-05
-0.000118709 0.000729697 -1.13356e-05
-3.2369e-05 -1.13356e-05 0.000115351
0.00228183 2.00694e-05 -3.00426e-06
2.00694e-05 0.000517585 -1.91194e-05
-3.00426e-06 -1.91194e-05 -0.000310975
0.000773805 0.000192757 -7.44626e-06
0.000192757 -8.52177e-05 2.76716e-06
-7.44626e-06 2.76716e-06 -0.000131015
0.000685321 0.00014263 -4.85822e-07
0.00014263 0.000157958 1.10141e-06
-4.85822e-07 1.10141e-06 -3.12167e-05
0.00028325 0.000153185 3.14502e-05
0.000153185 -0.000147182 -1.98265e-05
3.14502e-05 -1.98265e-05 -0.000259368
0.00563271 0.000831297 -1.85739e-05
0.000831297 0.00151454 8.04362e-08
-1.85739e-05 8.04362e-08 0.000782727
0.00859729 -0.000169288 3.94213e-05
-0.000169288 0.00327748 1.16991e-05
3.94213e-05 1.16991e-05 0.00170667
0.00186815 -0.00051334 1.8461e-06
-0.00051334 -0.00100515 -8.36425e-06
1.8461e-06 -8.36425e-06 -0.000741371
0.00578992 -0.000416815 5.39915e-06
-0.000416815 0.000549953 -9.69492e-06
5.39915e-06 -9.69492e-06 0.0017001
0.000749507 0.00010516 -1.33581e-05
0.00010516 0.000172273 -1.00717e-05
-1.33581e-05 -1.00717e-05 9.80935e-05
0.0018139 -4.86368e-05 -6.37521e-05
-4.86368e-05 0.000268884 -2.85284e-05
-6.37521e-05 -2.85284e-05 -0.00029398
0.00133841 1.77538e-05 -1.5933e-05
1.77538e-05 0.000211168 -4.87829e-05
-1.5933e-05 -4.87829e-05 -0.000494576
-0.00094655 -5.37588e-06 -2.41245e-05
-5.37588e-06 -0.000531407 -1.55062e-05
-2.41245e-05 -1.55062e-05 -0.000646382
0.00268924 0.000340302 -3.97082e-06
0.000340302 0.000683588 5.52494e-05
-3.97082e-06 5.52494e-05 0.000198914
0.00817893 2.81681e-05 2.15454e-05
2.81681e-05 0.00298536 4.50647e-06
2.15454e-05 4.50647e-06 0.00113445
-0.00601217 -0.000486831 -5.36349e-05
-0.000486831 -0.00395625 1.39973e-05
-5.36349e-05 1.39973e-05 -0.00482162
0.00497718 0.00010693 -2.87739e-06
0.00010693 -0.000393599 -7.11625e-05
-2.87739e-06 -7.11625e-05 0.000957038
0.00103414 6.32604e-05 2.63627e-06
6.32604e-05 0.000206434 5.82127e-06
2.63627e-06 5.82127e-06 0.000134353
0.000857988 7.40642e-05 -3.09017e-06
7.40642e-05 0.000112637 -5.79995e-07
-3.09017e-06 -5.79995e-07 6.44056e-05
0.000912777 5.97441e-05 -1.77667e-06
5.97441e-05 0.000169137 -5.97527e-06
-1.77667e-06 -5.97527e-06 0.00013039
0.000879187 6.66791e-05 -1.42829e-06
6.66791e-05 0.000103093 -3.61253e-07
-1.42829e-06 -3.61253e-07 2.49746e-05
0.000919704 -3.00613e-05 -2.02182e-07
-3.00613e-05 0.000124867 1.34189e-06
-2.02182e-07 1.34189e-06 3.89434e-05
0.000948939 -5.31542e-07 -6.00448e-07
-5.31542e-07 0.000127923 1.79467e-06
-6.00448e-07 1.79467e-06 5.46842e-05
0.00053951 -3.24893e-06 -4.54469e-07
-3.24893e-06 -8.81048e-05 3.99339e-06
-4.54469e-07 3.99339e-06 -0.000148055
0.000889876 8.33947e-06 5.16413e-07
8.33947e-06 0.000103428 3.54908e-08
5.16413e-07 3.54908e-08 1.91965e-05
0.000870599 -1.03946e-05 -1.99575e-07
-1.03946e-05 8.25747e-05 -2.34721e-07
-1.99575e-07 -2.34721e-07 8.03681e-06
0.000631619 -1.49213e-05 1.94534e-07
-1.49213e-05 -2.00666e-05 1.00621e-06
1.94534e-07 1.00621e-06 -7.05029e-05
0.0005437 -2.18569e-05 -3.60685e-07
-2.18569e-05 -1.49755e-05 -4.64841e-06
-3.60685e-07 -4.64841e-06 -4.8078e-05
0.00099645 -2.47748e-05 3.50616e-06
-2.47748e-05 0.000164868 -6.09265e-06
3.50616e-06 -6.09265e-06 0.000108333
0.000813223 3.50018e-05 4.70945e-07
3.50018e-05 6.07223e-05 -2.29722e-06
4.70945e-07 -2.29722e-06 -2.21209e-05
0.000878458 -4.85251e-05 9.50494e-07
-4.85251e-05 9.75298e-05 6.84556e-07
9.50494e-07 6.84556e-07 1.73284e-05
0.000794052 4.64624e-05 -2.59638e-07
4.64624e-05 5.91757e-05 6.98564e-07
-2.59638e-07 6.98564e-07 -1.51369e-05
0.000844289 1.11303e-06 -8.0914e-07
1.11303e-06 7.85801e-05 1.81502e-06
-8.0914e-07 1.81502e-06 8.70929e-06
0.000752065 1.80571e-05 3.10181e-07
1.80571e-05 2.90162e-05 3.12921e-07
3.10181e-07 3.12921e-07 -4.80896e-05
0.000781853 5.34447e-05 2.25552e-07
5.34447e-05 6.16247e-05 2.36037e-07
2.25552e-07 2.36037e-07 -1.41469e-05
0.000834243 3.43685e-05 -2.71858e-07
3.43685e-05 7.79726e-05 8.77227e-08
-2.71858e-07 8.77227e-08 8.60521e-06
0.000866506 4.02554e-05 1.74248e-06
4.02554e-05 0.000100266 -1.11198e-06
1.74248e-06 -1.11198e-06 2.63555e-05
0.000701636 1.63771e-05 1.64733e-06
1.63771e-05 1.58147e-05 -2.44702e-06
1.64733e-06 -2.44702e-06 -4.85509e-05
0.000682038 -5.93792e-05 1.60333e-06
-5.93792e-05 8.146e-06 -6.30193e-07
1.60333e-06 -6.30193e-07 -8.25539e-05
0.000899777 9.20427e-06 -9.6888e-07
9.20427e-06 0.000126559 -2.02901e-07
-9.6888e-07 -2.02901e-07 3.87445e-05
0.000638122 -4.39061e-05 2.04991e-06
-4.39061e-05 1.38785e-05 1.39218e-06
2.04991e-06 1.39218e-06 -0.000102087
0.00102064 -0.000148723 -1.16567e-06
-0.000148723 0.000203786 3.33168e-06
-1.16567e-06 3.33168e-06 4.63089e-05
0.00113434 -3.48867e-05 1.29222e-06
-3.48867e-05 0.000279716 -6.12103e-07
1.29222e-06 -6.12103e-07 0.00017564
0.000579144 -4.86606e-05 -2.97644e-07
-4.86606e-05 -5.38549e-06 -2.71638e-06
-2.97644e-07 -2.71638e-06 -0.000130074
0.000746384 3.49033e-05 -6.08616e-07
3.49033e-05 5.78332e-05 -5.80251e-07
-6.08616e-07 -5.80251e-07 -2.96853e-05
0.000524274 3.84539e-05 1.04677e-06
3.84539e-05 -7.45447e-05 6.19263e-07
1.04677e-06 6.19263e-07 -0.000151486
0.000833863 3.2672e-05 -6.81602e-07
3.2672e-05 9.73828e-05 2.11117e-07
-6.81602e-07 2.11117e-07 1.76046e-05
0.000790491 1.13393e-05 -3.48761e-07
1.13393e-05 6.83911e-05 3.5539e-07
-3.48761e-07 3.5539e-07 -3.09024e-06
0.00073093 3.48344e-05 -6.83825e-07
3.48344e-05 1.88783e-05 3.49627e-07
-6.83825e-07 3.49627e-07 -3.73577e-05
0.00081905 -1.64688e-05 3.43123e-07
-1.64688e-05 8.64416e-05 2.54407e-07
3.43123e-07 2.54407e-07 1.25173e-05
0.000767559 -3.98081e-06 -4.1271e-07
-3.98081e-06 3.88019e-05 3.39137e-08
-4.1271e-07 3.39137e-08 -1.83383e-05
0.000730956 2.91482e-05 -1.29456e-06
2.91482e-05 5.41933e-06 1.47914e-06
-1.29456e-06 1.47914e-06 -3.25058e-05
0.000799397 -3.10482e-05 1.25055e-06
-3.10482e-05 5.59895e-05 -2.1776e-07
1.25055e-06 -2.1776e-07 -2.66819e-06
0.00074149 1.81012e-05 -1.60378e-07
1.81012e-05 7.50729e-06 3.2321e-09
-1.60378e-07 3.2321e-09 -2.97831e-05
0.00133335 3.13015e-05 -6.83096e-06
3.13015e-05 0.000336187 4.61825e-06
-6.83096e-06 4.61825e-06 0.000330852
0.000735035 7.01706e-06 1.17201e-06
7.01706e-06 2.88966e-06 -1.41243e-06
1.17201e-06 -1.41243e-06 -3.43213e-05
0.0010127 2.25171e-05 -3.13852e-06
2.25171e-05 0.000151753 6.63499e-07
-3.13852e-06 6.63499e-07 0.000145401
0.000855192 1.94078e-05 -1.02031e-06
1.94078e-05 6.60197e-05 1.70669e-06
-1.02031e-06 1.70669e-06 7.78377e-05
0.000674253 1.37735e-05 4.30301e-07
1.37735e-05 -4.22622e-05 -3.34746e-06
4.30301e-07 -3.34746e-06 -4.97417e-05
0.00152856 1.72085e-05 4.94288e-06
1.72085e-05 0.000441036 -1.36252e-06
4.94288e-06 -1.36252e-06 0.000456893
0.0022089 1.1115e-05 4.83907e-06
1.1115e-05 0.000822698 -4.53802e-06
4.83907e-06 -4.53802e-06 0.000842163
0.000829009 -1.7494e-05 5.82628e-07
-1.7494e-05 7.66448e-05 -6.84511e-07
5.82628e-07 -6.84511e-07 1.71027e-05
0.000752533 -4.36228e-06 -2.29675e-07
-4.36228e-06 1.53114e-05 -1.8403e-06
-2.29675e-07 -1.8403e-06 -1.83677e-05
0.000817858 -2.56911e-06 4.57494e-07
-2.56911e-06 7.47314e-05 1.40536e-07
4.57494e-07 1.40536e-07 1.60649e-05
0.000696851 -6.67877e-06 -3.07487e-07
-6.67877e-06 -3.25301e-05 -3.44511e-06
-3.07487e-07 -3.44511e-06 -3.62373e-05
0.000741939 -1.17926e-06 -4.81509e-08
-1.17926e-06 9.52194e-06 -2.25191e-08
-4.81509e-08 -2.25191e-08 -2.28425e-05
0.000756026 -4.75592e-05 -1.79726e-06
-4.75592e-05 4.10068e-05 1.6201e-06
-1.79726e-06 1.6201e-06 -1.59974e-05
0.00207031 -1.11745e-06 -2.88722e-07
-1.11745e-06 0.000743913 -4.54789e-06
-2.88722e-07 -4.54789e-06 0.000765133
0.000697399 -8.71896e-08 -9.82773e-08
-8.71896e-08 -3.27634e-05 -1.58674e-09
-9.82773e-08 -1.58674e-09 -3.6088e-05
0.000733738 -2.63375e-06 -3.54976e-08
-2.63375e-06 5.29039e-06 1.75113e-06
-3.54976e-08 1.75113e-06 -2.63985e-05
0.000699982 6.5486e-06 -3.44561e-08
6.5486e-06 -3.06914e-05 3.42953e-06
-3.44561e-08 3.42953e-06 -3.4462e-05
0.00207681 9.52088e-06 -2.81947e-06
9.52088e-06 0.000748311 -2.64558e-08
-2.81947e-06 -2.64558e-08 0.000769278
0.00210318 1.87457e-05 -1.1079e-05
1.87457e-05 0.000765229 4.41431e-06
-1.1079e-05 4.41431e-06 0.000785507
-0.0019206 2.51251e-05 -4.23782e-05
2.51251e-05 5.71142e-05 8.88788e-06
-4.23782e-05 8.88788e-06 -0.000662727
-0.000993475 0.000278948 -1.18067e-05
0.000278948 -0.000377329 5.22595e-06
-1.18067e-05 5.22595e-06 -0.000567547
0.00243081 4.91184e-06 -9.29817e-05
4.91184e-06 0.000366967 7.14434e-05
-9.29817e-05 7.14434e-05 -0.000355503
-0.0019328 0.000253845 9.2732e-05
0.000253845 -0.00013666 -3.86343e-05
9.2732e-05 -3.86343e-05 -0.000322588
0.00275606 0.000118075 -9.66355e-05
0.000118075 0.000355254 1.56601e-05
-9.66355e-05 1.56601e-05 7.12723e-05
0.0019988 -6.31838e-05 6.20139e-05
-6.31838e-05 8.79716e-05 -1.00648e-05
6.20139e-05 -1.00648e-05 3.93202e-05
0.0016462 -0.000323706 -8.90334e-05
-0.000323706 -0.000811958 -3.64988e-05
-8.90334e-05 -3.64988e-05 -0.00154581
0.00799709 0.000508129 3.42533e-05
0.000508129 0.00396803 -1.69919e-05
3.42533e-05 -1.69919e-05 0.00391056
-0.0045714 0.000858001 -8.37068e-05
0.000858001 -0.00325189 9.10721e-05
-8.37068e-05 9.10721e-05 -0.0013693
0.0015363 -1.62809e-05 -5.69615e-06
-1.62809e-05 -0.000338137 -5.15163e-06
-5.69615e-06 -5.15163e-06 -0.000582902
0.00278261 8.77405e-05 1.87953e-05
8.77405e-05 0.000205744 -2.39807e-05
1.87953e-05 -2.39807e-05 -0.00146855
0.00605568 0.000919242 -2.02402e-05
0.000919242 0.00196279 -2.64835e-05
-2.02402e-05 -2.64835e-05 0.00248981
0.0017551 0.000558101 -1.94186e-05
0.000558101 -0.00134297 4.192e-05
-1.94186e-05 4.192e-05 -0.000374734
0.00307574 -0.000246075 -3.67444e-05
-0.000246075 0.000277609 1.25262e-05
-3.67444e-05 1.25262e-05 -0.000159253
0.00398057 -7.6739e-06 0.000100316
-7.6739e-06 0.00130944 -6.49141e-05
0.000100316 -6.49141e-05 -0.000745378
-0.00547184 0.000260326 -6.82218e-05
0.000260326 -0.00438271 -7.14855e-05
-6.82218e-05 -7.14855e-05 -0.00409282
0.00136065 0.000346513 -2.26557e-05
0.000346513 -0.00255639 1.64483e-05
-2.26557e-05 1.64483e-05 -0.00135928
0.000854208 -1.74548e-05 1.05622e-06
-1.74548e-05 0.000114667 3.10588e-07
1.05622e-06 3.10588e-07 1.54114e-05
0.0008327 4.43792e-05 -1.66922e-06
4.43792e-05 0.000104942 -5.01811e-07
-1.66922e-06 -5.01811e-07 1.21652e-05
0.000787519 2.70124e-05 6.07279e-07
2.70124e-05 6.81246e-05 -5.0622e-08
6.07279e-07 -5.0622e-08 -3.32944e-06
0.000819017 5.97267e-05 1.86235e-06
5.97267e-05 0.000103622 1.50682e-06
1.86235e-06 1.50682e-06 1.36737e-05
0.000754604 2.1373e-05 -2.26911e-07
2.1373e-05 5.49739e-05 5.62285e-07
-2.26911e-07 5.62285e-07 -4.38229e-05
0.000902776 5.41839e-05 2.24475e-07
5.41839e-05 0.0001392 6.44944e-07
2.24475e-07 6.44944e-07 4.75628e-05
0.000777689 8.78326e-06 -1.9164e-07
8.78326e-06 6.58067e-05 1.73535e-06
-1.9164e-07 1.73535e-06 -1.96465e-05
0.000904142 8.2244e-05 -4.72896e-07
8.2244e-05 0.000141183 3.6697e-07
-4.72896e-07 3.6697e-07 5.08227e-05
0.000878017 4.09748e-05 -2.19462e-07
4.09748e-05 0.000126269 3.69976e-07
-2.19462e-07 3.69976e-07 3.99924e-05
0.000691676 -1.33677e-05 -1.07103e-06
-1.33677e-05 2.2101e-05 -5.05838e-08
-1.07103e-06 -5.05838e-08 -5.9518e-05
3.03342e-05 -0.000111137 1.60813e-05
-0.000111137 -0.000839324 -1.05407e-05
1.60813e-05 -1.05407e-05 -0.000879729
0.00108344 -0.000269951 1.35525e-05
-0.000269951 -0.000325116 -2.21574e-07
1.35525e-05 -2.21574e-07 -0.000352674
0.000911198 -0.000270086 9.71763e-06
-0.000270086 -7.15382e-05 1.16854e-06
9.71763e-06 1.16854e-06 -0.000213755
0.00119304 -0.000160636 6.69163e-06
-0.000160636 0.000266703 -4.36881e-06
6.69163e-06 -4.36881e-06 5.54407e-05
0.00123263 -5.13868e-05 8.53165e-07
-5.13868e-05 0.0003596 -6.86348e-07
8.53165e-07 -6.86348e-07 0.00019959
0.000751209 -4.72995e-05 -7.06679e-07
-4.72995e-05 6.78196e-05 -5.40723e-07
-7.06679e-07 -5.40723e-07 -4.18974e-05
0.000778548 5.72543e-05 -1.38801e-07
5.72543e-05 7.8688e-05 -9.88883e-08
-1.38801e-07 -9.88883e-08 -2.58021e-05
0.00079606 -3.67218e-05 -2.0095e-07
-3.67218e-05 8.4907e-05 5.60403e-07
-2.0095e-07 5.60403e-07 -1.65603e-05
0.00122586 -0.00018095 1.26333e-06
-0.00018095 9.20696e-05 -3.80617e-07
1.26333e-06 -3.80617e-07 -5.14669e-05
0.000835954 5.23886e-06 -4.33818e-07
5.23886e-06 0.000110744 -3.90625e-07
-4.33818e-07 -3.90625e-07 5.81175e-07
0.00100688 -4.22016e-05 2.50604e-07
-4.22016e-05 0.000201433 1.11079e-07
2.50604e-07 1.11079e-07 8.74889e-05
0.00138368 -0.000242614 -1.52502e-06
-0.000242614 0.000140518 1.40965e-08
-1.52502e-06 1.40965e-08 8.86991e-05
0.00100503 -5.69925e-05 -5.25646e-06
-5.69925e-05 0.000225532 2.56707e-06
-5.25646e-06 2.56707e-06 4.711e-05
-0.000639902 -0.000212246 -2.25444e-06
-0.000212246 -0.000922883 -1.20078e-05
-2.25444e-06 -1.20078e-05 -0.000941337
0.00120788 -9.32878e-05 -1.51447e-05
-9.32878e-05 0.00038248 1.19409e-05
-1.51447e-05 1.19409e-05 0.000271706
0.00038582 1.36449e-05 -2.52305e-06
1.36449e-05 -0.000148139 1.09776e-05
-2.52305e-06 1.09776e-05 -0.000253128
0.000817163 -2.78944e-06 3.72216e-07
-2.78944e-06 7.98698e-05 3.6562e-07
3.72216e-07 3.6562e-07 -1.72609e-05
0.000759902 1.98954e-05 -1.61965e-07
1.98954e-05 5.87966e-05 7.89987e-07
-1.61965e-07 7.89987e-07 -5.61309e-05
0.00129509 -7.27091e-06 -2.93325e-05
-7.27091e-06 5.88151e-05 -4.60878e-06
-2.93325e-05 -4.60878e-06 -0.000400982
-0.000605858 -5.20528e-06 -4.51185e-05
-5.20528e-06 0.00092979 -1.61472e-06
-4.51185e-05 -1.61472e-06 0.000268453
-0.00650876 -0.000140837 -0.000134746
-0.000140837 -0.00324731 1.87106e-06
-0.000134746 1.87106e-06 -0.00325458
0.000583637 8.83799e-05 8.05704e-06
8.83799e-05 4.33883e-05 2.33513e-06
8.05704e-06 2.33513e-06 -6.33117e-05
-0.00028122 2.64842e-05 8.12578e-06
2.64842e-05 -0.000332263 3.22116e-06
8.12578e-06 3.22116e-06 -0.000528533
0.00124949 0.000151604 1.76106e-05
0.000151604 0.000193246 -7.70078e-07
1.76106e-05 -7.70078e-07 0.00012488
-0.00184125 -1.26703e-05 1.14337e-05
-1.26703e-05 5.10144e-05 7.48615e-06
1.14337e-05 7.48615e-06 -0.000699804
0.00315738 -0.00012202 -3.1842e-05
-0.00012202 0.000975206 -2.77214e-05
-3.1842e-05 -2.77214e-05 -0.00113998
0.00380456 0.000689069 4.89683e-05
0.000689069 0.000382608 -1.09654e-05
4.89683e-05 -1.09654e-05 -0.000148952
0.000656654 0.000171787 9.93569e-06
0.000171787 7.01623e-05 -4.23931e-06
9.93569e-06 -4.23931e-06 6.91732e-05
0.00702296 -0.000695622 3.02322e-05
-0.000695622 0.00203155 -1.0906e-06
3.02322e-05 -1.0906e-06 0.00207136
0.0025376 1.6026e-05 6.31932e-05
1.6026e-05 0.000703331 4.65556e-05
6.31932e-05 4.65556e-05 -0.000152864
0.00556854 -0.000371561 2.63694e-05
-0.000371561 0.000684225 1.21608e-05
2.63694e-05 1.21608e-05 0.00187608
0.000895687 0.000114289 -2.57034e-07
0.000114289 0.000262818 -2.16835e-06
-2.57034e-07 -2.16835e-06 0.000185703
0.00182992 -4.20736e-05 4.14722e-06
-4.20736e-05 0.000369649 -7.65234e-06
4.14722e-06 -7.65234e-06 -0.000137858
0.0015573 2.73424e-05 4.16364e-06
2.73424e-05 0.000214338 8.63489e-06
4.16364e-06 8.63489e-06 -0.000505473
0.000140069 0.000104796 -5.30818e-06
0.000104796 2.744e-05 -3.7122e-07
-5.30818e-06 -3.7122e-07 -0.000105008
0.00282545 0.000429338 -3.59019e-05
0.000429338 0.000532561 -3.23968e-05
-3.59019e-05 -3.23968e-05 0.000125193
0.00312702 0.000478586 4.38521e-05
0.000478586 0.000546197 2.63882e-05
4.38521e-05 2.63882e-05 -0.00158765
0.00371064 3.78958e-05 -2.01657e-06
3.78958e-05 -0.00153402 -3.82766e-05
-2.01657e-06 -3.82766e-05 9.11864e-05
0.000610808 -0.000283369 -1.36156e-05
-0.000283369 -0.000580886 8.76837e-06
-1.36156e-05 8.76837e-06 -0.000947161
0.000808876 5.44285e-05 -3.71123e-06
5.44285e-05 0.00030737 -1.04052e-05
-3.71123e-06 -1.04052e-05 0.000244524
0.0012348 -3.43433e-05 -1.40104e-05
-3.43433e-05 0.000130333 -1.98137e-05
-1.40104e-05 -1.98137e-05 -8.14334e-05
0.00185634 5.90928e-06 7.031e-06
5.90928e-06 0.000104634 -4.60226e-05
7.031e-06 -4.60226e-05 -0.000536738
0.00144078 0.000343465 2.00013e-05
0.000343465 -0.00245627 -1.9331e-05
2.00013e-05 -1.9331e-05 -0.00135218
-0.00140788 2.18225e-05 9.42407e-07
2.18225e-05 -0.000619381 -1.02538e-05
9.42407e-07 -1.02538e-05 -0.000924883
0.00981478 0.000352726 8.84974e-05
0.000352726 0.00393751 3.99066e-05
8.84974e-05 3.99066e-05 0.00182728
-0.00555371 -0.000141709 3.1546e-05
-0.000141709 -0.000994686 2.15066e-05
3.1546e-05 2.15066e-05 -0.00183607
0.00129343 0.000110176 1.02038e-05
0.000110176 0.000349884 8.45204e-06
1.02038e-05 8.45204e-06 0.000299505
0.000857556 7.74253e-05 -3.01111e-06
7.74253e-05 0.000141366 1.21149e-06
-3.01111e-06 1.21149e-06 9.8566e-05
0.000474005 4.33826e-05 -7.60905e-06
4.33826e-05 2.11648e-05 -7.60465e-06
-7.60905e-06 -7.60465e-06 -2.63064e-05
0.00086085 9.72631e-05 9.44116e-08
9.72631e-05 9.29541e-05 1.18332e-06
9.44116e-08 1.18332e-06 5.5685e-06
0.000837402 1.5877e-05 -3.56946e-07
1.5877e-05 6.27347e-05 2.24444e-06
-3.56946e-07 2.24444e-06 -1.04104e-05
0.000565607 -2.57321e-05 -2.51746e-06
-2.57321e-05 -5.283e-05 9.49329e-06
-2.51746e-06 9.49329e-06 -0.000103359
0.000793196 3.87048e-05 -1.42953e-07
3.87048e-05 4.80987e-05 -1.39203e-07
-1.42953e-07 -1.39203e-07 -3.27152e-05
0.000827202 -3.36765e-05 4.30362e-07
-3.36765e-05 7.46073e-05 -1.15218e-06
4.30362e-07 -1.15218e-06 1.63979e-05
0.000655082 -4.39367e-05 3.43823e-06
-4.39367e-05 3.98449e-05 3.08825e-06
3.43823e-06 3.08825e-06 7.5268e-07
0.00049315 -3.90816e-06 -4.16913e-07
-3.90816e-06 -2.28969e-05 -6.60233e-06
-4.16913e-07 -6.60233e-06 -5.0981e-05
0.000813789 2.1096e-06 -4.82717e-07
2.1096e-06 7.67011e-05 -4.52406e-06
-4.82717e-07 -4.52406e-06 1.4584e-05
0.000802017 1.49612e-05 -1.55702e-07
1.49612e-05 5.10593e-05 2.13456e-06
-1.55702e-07 2.13456e-06 -2.18253e-05
0.000802965 5.21514e-05 -4.21907e-07
5.21514e-05 7.36882e-05 5.99214e-07
-4.21907e-07 5.99214e-07 -2.45178e-06
0.000903668 4.13754e-05 -1.8075e-06
4.13754e-05 0.000116198 2.25836e-06
-1.8075e-06 2.25836e-06 4.61978e-05
0.000800057 1.72499e-05 5.30682e-07
1.72499e-05 6.66422e-05 2.61305e-08
5.30682e-07 2.61305e-08 1.90516e-06
0.000830094 4.06369e-05 6.76079e-07
4.06369e-05 7.99966e-05 2.02629e-07
6.76079e-07 2.02629e-07 6.5057e-06
0.000726809 -3.56095e-05 1.84374e-06
-3.56095e-05 6.58907e-05 1.10425e-07
1.84374e-06 1.10425e-07 -1.4495e-05
0.000674567 -3.41813e-05 -8.15762e-07
-3.41813e-05 1.47166e-05 -1.05598e-06
-8.15762e-07 -1.05598e-06 -6.91331e-05
0.000496805 -7.36367e-05 3.96678e-06
-7.36367e-05 -6.62583e-05 6.1428e-07
3.96678e-06 6.1428e-07 -0.000208088
0.000989034 -6.82373e-06 -1.84294e-06
-6.82373e-06 0.00017731 3.31534e-07
-1.84294e-06 3.31534e-07 8.84709e-05
0.0010065 -7.10894e-05 -9.3445e-07
-7.10894e-05 0.000207412 1.00241e-06
-9.3445e-07 1.00241e-06 8.77716e-05
0.000442581 -0.000116603 3.4411e-07
-0.000116603 -0.000123955 2.00576e-06
3.4411e-07 2.00576e-06 -0.000285667
0.000718224 -0.000126717 -3.61382e-06
-0.000126717 3.14673e-05 -2.75279e-07
-3.61382e-06 -2.75279e-07 -0.000126673
0.000926949 -0.000105995 -1.04289e-06
-0.000105995 0.00017406 2.06424e-06
-1.04289e-06 2.06424e-06 5.03269e-05
0.000768679 -0.000129201 -6.15559e-08
-0.000129201 6.73442e-05 8.02746e-07
-6.15559e-08 8.02746e-07 -8.66756e-05
0.000847151 -8.87675e-06 9.23662e-07
-8.87675e-06 0.00010632 7.4323e-07
9.23662e-07 7.4323e-07 1.92553e-05
0.000960322 -3.24344e-05 -5.92191e-07
-3.24344e-05 0.000186251 -6.55809e-07
-5.92191e-07 -6.55809e-07 7.95937e-05
0.000697246 -6.33933e-05 4.23125e-07
-6.33933e-05 6.33555e-05 -4.81573e-06
4.23125e-07 -4.81573e-06 -5.93899e-05
0.00102039 3.64345e-05 -1.99424e-06
3.64345e-05 0.000206827 -1.15846e-06
-1.99424e-06 -1.15846e-06 0.000121092
0.000662727 2.84596e-05 1.45121e-07
2.84596e-05 1.81531e-06 -2.78406e-08
1.45121e-07 -2.78406e-08 -7.44643e-05
0.000730186 4.90954e-05 -1.5227e-08
4.90954e-05 2.43362e-05 6.23829e-07
-1.5227e-08 6.23829e-07 -3.66818e-05
0.000830396 -1.18568e-05 -2.05681e-07
-1.18568e-05 9.29174e-05 2.56807e-07
-2.05681e-07 2.56807e-07 1.91627e-05
0.000765593 8.22456e-06 -6.65391e-07
8.22456e-06 3.93573e-05 -9.2531e-08
-6.65391e-07 -9.2531e-08 -1.82424e-05
0.00072792 3.51779e-05 -1.52092e-06
3.51779e-05 8.29594e-06 1.43925e-06
-1.52092e-06 1.43925e-06 -3.0438e-05
0.000792531 -2.6948e-05 1.25578e-06
-2.6948e-05 5.38747e-05 -2.86426e-07
1.25578e-06 -2.86426e-07 -4.4975e-06
0.000736619 2.72503e-05 -1.43068e-07
2.72503e-05 7.82511e-06 9.56595e-09
-1.43068e-07 9.56595e-09 -2.9901e-05
0.00129809 3.9257e-05 -7.73431e-06
3.9257e-05 0.000322607 3.17909e-06
-7.73431e-06 3.17909e-06 0.000316305
0.000739827 1.45385e-05 1.35482e-06
1.45385e-05 5.9131e-06 -1.43495e-06
1.35482e-06 -1.43495e-06 -3.11486e-05
0.0010054 2.97864e-05 -3.8846e-06
2.97864e-05 0.000151894 6.0677e-07
-3.8846e-06 6.0677e-07 0.00014492
0.000846029 2.59193e-05 -1.55335e-06
2.59193e-05 6.63538e-05 1.6972e-06
-1.55335e-06 1.6972e-06 7.72071e-05
0.000669404 2.02769e-05 6.26147e-07
2.02769e-05 -4.19368e-05 -3.37547e-06
6.26147e-07 -3.37547e-06 -4.98448e-05
0.00152134 2.56018e-05 6.53586e-06
2.56018e-05 0.000441004 -1.26883e-06
6.53586e-06 -1.26883e-06 0.000456089
0.00220708 2.12614e-05 8.90922e-06
2.12614e-05 0.000824377 -4.40639e-06
8.90922e-06 -4.40639e-06 0.000843299
0.000600196 3.04363e-06 -2.91639e-07
3.04363e-06 -4.50962e-05 -1.23523e-06
-2.91639e-07 -1.23523e-06 -0.000114944
0.000492437 -1.02592e-05 -3.13819e-07
-1.02592e-05 -0.000128542 -2.47494e-06
-3.13819e-07 -2.47494e-06 -0.000166566
0.000855783 -4.46047e-06 2.28938e-08
-4.46047e-06 9.44638e-05 9.36869e-08
2.28938e-08 9.36869e-08 3.27619e-05
0.000695252 -1.30741e-05 -2.86131e-07
-1.30741e-05 -3.1664e-05 -3.48144e-06
-2.86131e-07 -3.48144e-06 -3.65521e-05
0.000610547 -6.83697e-06 2.34265e-07
-6.83697e-06 -6.33825e-05 -1.23034e-08
2.34265e-07 -1.23034e-08 -9.82331e-05
0.00058554 -5.03971e-05 2.15579e-07
-5.03971e-05 -5.23426e-05 1.1074e-06
2.15579e-07 1.1074e-06 -0.000113469
0.00208469 -1.08343e-05 -4.82495e-06
-1.08343e-05 0.000752953 -4.52204e-06
-4.82495e-06 -4.52204e-06 0.000773821
0.000696617 -6.40992e-06 -1.7468e-07
-6.40992e-06 -3.26564e-05 -4.84339e-09
-1.7468e-07 -4.84339e-09 -3.63318e-05
0.000733652 -6.13075e-06 -1.83281e-07
-6.13075e-06 5.01495e-06 1.76025e-06
-1.83281e-07 1.76025e-06 -2.7299e-05
0.00207057 -2.7556e-07 -2.77251e-06
-2.7556e-07 0.000744048 2.36264e-10
-2.77251e-06 2.36264e-10 0.000765276
0.000699086 1.79443e-07 1.45149e-07
1.79443e-07 -3.18395e-05 3.41144e-06
1.45149e-07 3.41144e-06 -3.51637e-05
0.00208285 1.03569e-05 -4.94572e-06
1.03569e-05 0.000751909 4.52157e-06
-4.94572e-06 4.52157e-06 0.000772776
0.00108671 -2.98616e-06 -5.64719e-05
-2.98616e-06 -8.58117e-05 2.27105e-05
-5.64719e-05 2.27105e-05 -0.000583928
0.00137075 0.000159654 -4.21499e-06
0.000159654 0.00156549 -6.3727e-06
-4.21499e-06 -6.3727e-06 0.00120361
0.00102082 -0.000151733 -4.51829e-05
-0.000151733 0.000981796 -1.41827e-05
-4.51829e-05 -1.41827e-05 0.000581243
0.000803522 3.57637e-05 -3.03088e-08
3.57637e-05 7.44756e-05 4.88439e-07
-3.03088e-08 4.88439e-07 -1.26367e-05
0.00238847 -1.10641e-05 -2.45017e-05
-1.10641e-05 0.000848554 5.07918e-05
-2.45017e-05 5.07918e-05 0.000270972
0.00247041 -1.38632e-05 -2.55615e-05
-1.38632e-05 0.000456708 3.47771e-06
-2.55615e-05 3.47771e-06 -0.000350335
0.00145204 0.000384379 8.08487e-05
0.000384379 0.00130535 -6.67436e-05
8.08487e-05 -6.67436e-05 0.00142886
0.00296712 -0.000106138 -1.50752e-05
-0.000106138 0.000160725 -1.4937e-05
-1.50752e-05 -1.4937e-05 -9.88602e-05
0.00977315 0.000358544 3.54169e-05
0.000358544 0.00361836 -3.10928e-05
3.54169e-05 -3.10928e-05 0.00214166
-0.00285832 0.000501261 -5.45722e-06
0.000501261 -0.00267154 2.17252e-05
-5.45722e-06 2.17252e-05 -0.00200176
0.00329717 0.000608029 2.83909e-05
0.000608029 -0.000478872 -6.77975e-06
2.83909e-05 -6.77975e-06 0.00051418
0.00334981 -0.000364681 -5.53234e-05
-0.000364681 0.000111604 1.18169e-06
-5.53234e-05 1.18169e-06 -0.00058505
0.00736302 0.000106653 3.00851e-05
0.000106653 0.00294415 -1.43461e-05
3.00851e-05 -1.43461e-05 0.00123215
0.00490061 0.000544906 9.77207e-06
0.000544906 0.000402219 -2.75262e-05
9.77207e-06 -2.75262e-05 0.00057681
0.0034186 0.000363964 -1.06428e-05
0.000363964 -0.00137834 1.00058e-06
-1.06428e-05 1.00058e-06 -0.000238666
0.00435501 -0.000652411 -4.94046e-06
-0.000652411 0.000674982 -1.39837e-05
-4.94046e-06 -1.39837e-05 -0.000277965
0.00906288 -0.000187807 4.71064e-05
-0.000187807 0.00430279 -1.13897e-06
4.71064e-05 -1.13897e-06 0.00173112
0.00135203 5.90798e-05 1.29445e-05
5.90798e-05 -0.000645482 -2.13273e-05
1.29445e-05 -2.13273e-05 -0.000751721
0.00495184 4.60083e-05 -8.39145e-06
4.60083e-05 -0.000455075 3.75749e-05
-8.39145e-06 3.75749e-05 0.000938849
0.000840211 -2.96159e-05 4.53372e-07
-2.96159e-05 9.89067e-05 3.12573e-07
4.53372e-07 3.12573e-07 -2.40926e-06
0.000827178 -3.72211e-05 4.89443e-07
-3.72211e-05 0.000103027 -6.71974e-09
4.89443e-07 -6.71974e-09 1.33685e-06
0.00091527 6.63869e-05 -1.15106e-06
6.63869e-05 0.000153073 5.67846e-08
-1.15106e-06 5.67846e-08 5.96407e-05
0.000801437 -1.9744e-06 -2.77638e-07
-1.9744e-06 6.51595e-05 1.9306e-07
-2.77638e-07 1.9306e-07 -2.27907e-05
0.000866229 5.64561e-05 -6.57993e-07
5.64561e-05 0.00011706 4.04384e-07
-6.57993e-07 4.04384e-07 1.9011e-05
0.000905676 3.80853e-05 6.72618e-07
3.80853e-05 0.000141305 1.31308e-06
6.72618e-07 1.31308e-06 5.03847e-05
0.00095994 7.62959e-05 -6.40788e-07
7.62959e-05 0.000170155 6.68189e-08
-6.40788e-07 6.68189e-08 8.09869e-05
0.00100212 8.42816e-05 8.85115e-07
8.42816e-05 0.000200104 1.24038e-06
8.85115e-07 1.24038e-06 0.000110798
0.00127354 -0.000158288 2.74615e-05
-0.000158288 8.2387e-05 -1.31902e-05
2.74615e-05 -1.31902e-05 1.26809e-05
0.00103056 -0.000224666 8.66546e-06
-0.000224666 -6.0093e-05 -5.8535e-06
8.66546e-06 -5.8535e-06 -9.03276e-05
0.000817154 -0.000122091 -1.24439e-06
-0.000122091 0.000106601 5.84773e-08
-1.24439e-06 5.84773e-08 -9.42276e-07
0.00168621 -8.78822e-05 4.98624e-06
-8.78822e-05 0.000563251 -6.76142e-06
4.98624e-06 -6.76142e-06 0.00039374
0.00113433 -6.41958e-05 -4.23968e-07
-6.41958e-05 0.000275169 -8.90167e-07
-4.23968e-07 -8.90167e-07 0.000154556
0.00094643 -3.24548e-05 -1.17402e-06
-3.24548e-05 0.000167238 -1.85128e-07
-1.17402e-06 -1.85128e-07 6.10939e-05
0.000886646 1.49994e-05 -1.75188e-08
1.49994e-05 0.000125464 -1.78699e-07
-1.75188e-08 -1.78699e-07 2.38642e-05
0.000720973 -0.000288655 -6.88331e-06
-0.000288655 -0.000246539 4.309e-07
-6.88331e-06 4.309e-07 -0.000291565
0.000852809 2.36191e-05 -1.74186e-07
2.36191e-05 0.00011518 -4.84545e-07
-1.74186e-07 -4.84545e-07 -1.18435e-06
0.000961296 -4.02853e-05 3.64651e-07
-4.02853e-05 0.000153148 8.84728e-07
3.64651e-07 8.84728e-07 4.14788e-05
0.000466594 -7.91231e-05 7.11216e-07
-7.91231e-05 -3.83943e-05 3.50183e-06
7.11216e-07 3.50183e-06 -0.00011511
0.00085947 -6.45067e-07 6.36444e-07
-6.45067e-07 9.08147e-05 8.14607e-07
6.36444e-07 8.14607e-07 4.64532e-06
0.00035931 -0.000279304 5.24838e-05
-0.000279304 -0.000327247 -2.90498e-05
5.24838e-05 -2.90498e-05 -0.000274753
0.00104941 -5.51776e-05 -1.18536e-05
-5.51776e-05 0.000476987 1.70779e-05
-1.18536e-05 1.70779e-05 0.000363594
0.000570086 3.8588e-06 -1.0325e-06
3.8588e-06 -5.71508e-05 5.33907e-06
-1.0325e-06 5.33907e-06 -0.000153759
0.00090682 0.00010892 1.66709e-06
0.00010892 0.000141497 1.035e-06
1.66709e-06 1.035e-06 3.76567e-05
0.00139778 -1.51555e-05 -1.8163e-05
-1.51555e-05 0.000251391 -3.73285e-07
-1.8163e-05 -3.73285e-07 0.000101709
0.00124537 -2.5611e-05 3.38865e-05
-2.5611e-05 6.8948e-05 -2.12115e-06
3.38865e-05 -2.12115e-06 -0.000389096
-0.00210299 -3.99585e-05 -1.24419e-05
-3.99585e-05 0.000212559 1.43355e-06
-1.24419e-05 1.43355e-06 -0.000617177
0.000887529 0.000104508 1.47538e-05
0.000104508 0.000275532 4.20415e-06
1.47538e-05 4.20415e-06 0.000197496
0.000345393 0.000181412 2.37754e-05
0.000181412 0.000130449 1.03329e-05
2.37754e-05 1.03329e-05 -2.78452e-05
0.00201606 -3.379e-05 5.83833e-05
-3.379e-05 0.000553607 1.24165e-05
5.83833e-05 1.24165e-05 0.000116189
0.00754275 -0.000178957 7.97241e-05
-0.000178957 0.00310069 3.87006e-05
7.97241e-05 3.87006e-05 0.00096413
0.00229666 0.000424975 -6.57682e-05
0.000424975 0.000429624 -8.51743e-05
-6.57682e-05 -8.51743e-05 -0.000385019
0.00316248 -0.000254714 2.51206e-05
-0.000254714 0.000297951 -9.36347e-06
2.51206e-05 -9.36347e-06 -0.000175729
0.00176884 3.45822e-05 2.27659e-05
3.45822e-05 0.000214617 6.62711e-05
2.27659e-05 6.62711e-05 -0.000521999
0.00253565 1.03362e-06 4.11256e-06
1.03362e-06 -0.00270534 -2.57734e-05
4.11256e-06 -2.57734e-05 -0.000824589
0.000786637 9.43677e-05 5.64761e-08
9.43677e-05 0.000299965 -2.66489e-07
5.64761e-08 -2.66489e-07 0.000224139
0.00128888 -3.10192e-05 -1.82783e-07
-3.10192e-05 0.000162219 -6.55126e-06
-1.82783e-07 -6.55126e-06 -3.7787e-05
0.00211174 1.02866e-05 1.38248e-05
1.02866e-05 0.000370804 5.02664e-06
1.38248e-05 5.02664e-06 -0.000172908
-0.000826864 7.20011e-05 -1.43251e-05
7.20011e-05 -0.000339822 -4.78436e-06
-1.43251e-05 -4.78436e-06 -0.000578278
0.00346693 0.000372995 7.35102e-06
0.000372995 -0.00136058 -7.08831e-07
7.35102e-06 -7.08831e-07 -0.000240544
0.0054508 0.000614026 5.2968e-05
0.000614026 0.00186577 1.18394e-05
5.2968e-05 1.18394e-05 -0.000284405
0.00284008 0.000161125 -4.6697e-05
0.000161125 0.00136727 -1.62504e-06
-4.6697e-05 -1.62504e-06 0.000863025
0.000470491 0.000111049 -1.8972e-05
0.000111049 0.000220065 -1.13665e-05
-1.8972e-05 -1.13665e-05 9.34577e-05
0.00150735 1.13667e-06 -6.30565e-07
1.13667e-06 0.000200223 -1.95327e-05
-6.30565e-07 -1.95327e-05 2.66628e-05
0.00246983 -8.84554e-06 2.40326e-05
-8.84554e-06 0.000814309 -5.09118e-05
2.40326e-05 -5.09118e-05 0.000280989
0.00404427 0.000588683 6.66952e-05
0.000588683 -9.06333e-05 -5.05397e-05
6.66952e-05 -5.05397e-05 0.000841142
0.00270226 0.000142825 -2.797e-05
0.000142825 -0.000213392 2.02254e-05
-2.797e-05 2.02254e-05 -0.000168104
0.0024578 0.000263907 1.71879e-05
0.000263907 0.000398727 -2.30092e-05
1.71879e-05 -2.30092e-05 0.000472855
0.00199341 8.17238e-05 8.76483e-05
8.17238e-05 0.00161658 3.14459e-05
8.76483e-05 3.14459e-05 -0.00147522
0.000621127 9.00738e-05 4.00205e-06
9.00738e-05 1.59863e-05 7.69535e-06
4.00205e-06 7.69535e-06 -3.02974e-05
0.000660238 3.70057e-05 7.35254e-06
3.70057e-05 0.000125596 7.63758e-07
7.35254e-06 7.63758e-07 7.99584e-05
9.92004e-06 -2.0796e-06 5.67727e-06
-2.0796e-06 -1.80058e-05 -1.29969e-05
5.67727e-06 -1.29969e-05 -9.10909e-05
0.000755042 1.63223e-05 -5.55376e-08
1.63223e-05 2.18406e-05 2.32665e-06
-5.55376e-08 2.32665e-06 -5.43163e-05
0.000643616 -3.18552e-05 -1.14585e-06
-3.18552e-05 -2.67287e-05 4.47829e-06
-1.14585e-06 4.47829e-06 -8.45746e-05
0.000657088 -4.53755e-05 -3.6961e-06
-4.53755e-05 3.11348e-05 9.83241e-06
-3.6961e-06 9.83241e-06 -1.04605e-05
0.000780114 -1.14484e-05 -5.42837e-08
-1.14484e-05 5.80854e-05 -2.4986e-07
-5.42837e-08 -2.4986e-07 -4.92305e-06
0.000543114 -1.08509e-05 9.06219e-07
-1.08509e-05 -6.2275e-06 2.21904e-06
9.06219e-07 2.21904e-06 -3.20333e-05
0.000407956 -8.68391e-05 4.19878e-06
-8.68391e-05 3.46858e-05 -5.61485e-06
4.19878e-06 -5.61485e-06 -8.97905e-05
0.000900535 1.21075e-05 -4.71659e-07
1.21075e-05 0.000118914 2.38468e-06
-4.71659e-07 2.38468e-06 5.36011e-05
0.000759856 5.04614e-05 -1.02577e-06
5.04614e-05 4.25387e-05 1.63318e-06
-1.02577e-06 1.63318e-06 -3.0856e-05
0.00113951 -5.29267e-05 9.67209e-07
-5.29267e-05 0.000282674 9.48909e-07
9.67209e-07 9.48909e-07 0.000196792
0.0003117 -6.51892e-05 3.90761e-06
-6.51892e-05 -7.85181e-05 1.25149e-06
3.90761e-06 1.25149e-06 -0.000255786
0.000604882 -5.71402e-06 -4.42476e-06
-5.71402e-06 -1.20777e-05 3.1119e-07
-4.42476e-06 3.1119e-07 -8.91463e-05
0.000361535 -7.12883e-05 1.20528e-06
-7.12883e-05 -0.000134753 -5.03809e-07
1.20528e-06 -5.03809e-07 -0.000267473
0.00105355 -0.00016651 4.70542e-06
-0.00016651 0.000216538 -9.87121e-07
4.70542e-06 -9.87121e-07 2.20218e-05
0.00113508 -0.000177218 -1.69295e-06
-0.000177218 0.000175911 3.72565e-06
-1.69295e-06 3.72565e-06 -2.00965e-05
0.00139634 -9.9769e-05 -2.31842e-06
-9.9769e-05 0.000412952 -4.60557e-07
-2.31842e-06 -4.60557e-07 0.000289489
0.000685152 -0.000134697 -3.53026e-07
-0.000134697 1.42566e-06 3.39993e-08
-3.53026e-07 3.39993e-08 -0.000164745
0.00154305 -0.000188788 9.95882e-07
-0.000188788 0.000465842 -1.43074e-06
9.95882e-07 -1.43074e-06 0.000306885
0.000320191 -8.23894e-05 -1.14779e-06
-8.23894e-05 -0.000156015 -3.22224e-07
-1.14779e-06 -3.22224e-07 -0.000294352
0.000866937 -0.000136535 5.5596e-08
-0.000136535 0.000112192 4.64298e-07
5.5596e-08 4.64298e-07 -4.36896e-05
0.000848298 -1.24261e-05 1.49415e-07
-1.24261e-05 0.000111564 6.81312e-07
1.49415e-07 6.81312e-07 1.37956e-05
0.000998428 -0.00010523 -1.94286e-06
-0.00010523 0.000212035 1.60782e-06
-1.94286e-06 1.60782e-06 8.75108e-05
0.000539456 -0.000111405 -9.80204e-07
-0.000111405 -5.58734e-05 -7.85562e-07
-9.80204e-07 -7.85562e-07 -0.000207027
0.000749203 5.17168e-05 2.32408e-07
5.17168e-05 4.04617e-05 8.27376e-07
2.32408e-07 8.27376e-07 -2.78026e-05
0.000722331 -3.98704e-06 6.77051e-07
-3.98704e-06 3.8836e-05 -1.24854e-07
6.77051e-07 -1.24854e-07 -4.89353e-05
0.000794815 -3.1444e-05 7.77924e-07
-3.1444e-05 9.75971e-05 -2.55643e-06
7.77924e-07 -2.55643e-06 -1.17493e-05
0.000806715 1.58959e-05 -1.10971e-07
1.58959e-05 8.07694e-05 -5.34896e-07
-1.10971e-07 -5.34896e-07 5.43934e-06
0.000771871 1.77539e-05 -4.98605e-07
1.77539e-05 4.51596e-05 -1.60825e-07
-4.98605e-07 -1.60825e-07 -1.51134e-05
0.000719922 4.57151e-05 -1.51329e-06
4.57151e-05 1.11839e-05 1.38107e-06
-1.51329e-06 1.38107e-06 -2.98947e-05
0.000799274 -1.59258e-05 8.78648e-07
-1.59258e-05 5.83828e-05 -5.61826e-07
8.78648e-07 -5.61826e-07 5.82877e-08
0.000730232 3.52431e-05 -1.12741e-07
3.52431e-05 9.19567e-06 7.84885e-09
-1.12741e-07 7.84885e-09 -2.95037e-05
0.000655241 3.85085e-05 -1.15893e-06
3.85085e-05 -3.22806e-05 3.4231e-06
-1.15893e-06 3.4231e-06 -4.33569e-05
0.000740631 2.50475e-05 1.36432e-06
2.50475e-05 9.27667e-06 -1.45154e-06
1.36432e-06 -1.45154e-06 -2.82284e-05
0.000669778 3.30489e-05 1.24872e-07
3.30489e-05 -3.1289e-05 3.03821e-08
1.24872e-07 3.03821e-08 -4.09138e-05
0.00208328 5.24811e-05 -4.71376e-06
5.24811e-05 0.000769837 1.63168e-06
-4.71376e-06 1.63168e-06 0.000785341
0.000668023 2.68631e-05 8.00768e-07
2.68631e-05 -3.83843e-05 -3.39166e-06
8.00768e-07 -3.39166e-06 -4.69344e-05
0.00150641 3.36418e-05 7.9315e-06
3.36418e-05 0.000437877 -1.15499e-06
7.9315e-06 -1.15499e-06 0.000451976
0.00219588 3.11423e-05 1.27583e-05
3.11423e-05 0.000822183 -4.21576e-06
1.27583e-05 -4.21576e-06 0.000840309
0.000619859 -1.55135e-05 -1.42649e-07
-1.55135e-05 -4.25236e-05 -9.29561e-07
-1.42649e-07 -9.29561e-07 -0.000109827
0.000472018 -1.25185e-05 -3.6841e-07
-1.25185e-05 -0.000139532 -2.37757e-06
-3.6841e-07 -2.37757e-06 -0.000180722
0.000736364 4.87001e-06 -3.2501e-07
4.87001e-06 2.94205e-05 -5.92203e-07
-3.2501e-07 -5.92203e-07 -3.88472e-05
0.000689038 -1.95382e-05 -2.96602e-07
-1.95382e-05 -3.2013e-05 -3.54148e-06
-2.96602e-07 -3.54148e-06 -3.88184e-05
0.000474909 -1.11493e-05 -7.33282e-08
-1.11493e-05 -0.000138304 -7.32926e-07
-7.33282e-08 -7.32926e-07 -0.000176712
0.000875903 6.09723e-06 -1.00963e-07
6.09723e-06 0.000110465 9.59907e-07
-1.00963e-07 9.59907e-07 4.54227e-05
0.00212044 -2.07523e-05 -8.81422e-06
-2.07523e-05 0.000775388 -4.46807e-06
-8.81422e-06 -4.46807e-06 0.000795327
0.000692988 -1.27686e-05 -1.22363e-07
-1.27686e-05 -3.28985e-05 -1.59722e-08
-1.22363e-07 -1.59722e-08 -3.77351e-05
0.000470269 -8.19749e-06 1.63325e-07
-8.19749e-06 -0.000141139 1.76939e-06
1.63325e-07 1.76939e-06 -0.000177119
0.00207904 -1.00317e-05 -2.92731e-06
-1.00317e-05 0.000749558 2.76645e-08
-2.92731e-06 2.76645e-08 0.000770526
0.000696766 -6.14753e-06 1.96781e-07
-6.14753e-06 -3.25588e-05 3.40367e-06
1.96781e-07 3.40367e-06 -3.62067e-05
0.00206955 5.69274e-07 -4.5908e-07
5.69274e-07 0.000743467 4.54297e-06
-4.5908e-07 4.54297e-06 0.000764691
0.00143062 2.18466e-05 -1.50257e-05
2.18466e-05 0.000285472 1.66164e-05
-1.50257e-05 1.66164e-05 8.93679e-05
0.00150019 1.00064e-05 8.46564e-06
1.00064e-05 0.000182258 -2.66913e-06
8.46564e-06 -2.66913e-06 -0.000315137
0.00162645 0.000124599 4.07225e-05
0.000124599 0.00173497 -2.20942e-05
4.07225e-05 -2.20942e-05 0.0014098
0.000843347 3.67294e-05 5.79737e-08
3.67294e-05 9.23441e-05 1.51036e-07
5.79737e-08 1.51036e-07 9.11666e-06
0.000747753 5.2676e-06 9.56845e-08
5.2676e-06 3.21489e-05 4.2014e-07
9.56845e-08 4.2014e-07 -4.62888e-05
0.000903305 5.55886e-05 -1.23402e-07
5.55886e-05 0.000124446 1.06682e-06
-1.23402e-07 1.06682e-06 3.67167e-05
0.00173668 5.89032e-06 2.00771e-06
5.89032e-06 8.59462e-05 8.02951e-05
2.00771e-06 8.02951e-05 -0.00058197
0.00240961 -6.83599e-07 -5.94686e-06
-6.83599e-07 0.00083701 1.2781e-06
-5.94686e-06 1.2781e-06 0.000262676
0.00264635 -2.81836e-05 4.40824e-05
-2.81836e-05 0.000610647 -5.82493e-05
4.40824e-05 -5.82493e-05 -0.00025688
0.00453149 -0.000392341 -5.8406e-05
-0.000392341 0.000877715 2.99202e-10
-5.8406e-05 2.99202e-10 0.000191513
0.000728618 -0.000116387 -5.67422e-05
-0.000116387 -0.000132007 2.98491e-05
-5.67422e-05 2.98491e-05 -0.00210284
0.0055713 0.000660599 6.2437e-05
0.000660599 0.00142445 -5.76339e-06
6.2437e-05 -5.76339e-06 0.00139772
0.00139522 0.000238537 1.46266e-05
0.000238537 -0.00261152 -3.85816e-05
1.46266e-05 -3.85816e-05 -0.00142904
0.00494071 -0.000711606 -7.83274e-06
-0.000711606 0.00127956 4.7557e-06
-7.83274e-06 4.7557e-06 0.00061155
0.00577359 -0.000219497 1.01397e-05
-0.000219497 0.00239847 -1.87933e-06
1.01397e-05 -1.87933e-06 0.000253635
-0.000827458 0.000136106 -9.23974e-06
0.000136106 -0.000745413 -2.50321e-05
-9.23974e-06 -2.50321e-05 -0.00119064
0.00371033 9.46924e-06 -7.90145e-06
9.46924e-06 -0.00154772 1.04105e-05
-7.90145e-06 1.04105e-05 4.60454e-05
0.00224415 -0.000534866 -2.91103e-05
-0.000534866 -0.000133873 -2.87781e-05
-2.91103e-05 -2.87781e-05 -0.000725012
0.00982327 -0.000520561 5.08064e-05
-0.000520561 0.00450276 1.95146e-05
5.08064e-05 1.95146e-05 0.00190378
-0.00560499 4.13619e-05 3.76764e-05
4.13619e-05 -0.00102905 -4.40796e-05
3.76764e-05 -4.40796e-05 -0.00191066
0.00187449 -0.000311932 1.36409e-07
-0.000311932 -0.0019077 9.69299e-07
1.36409e-07 9.69299e-07 -0.000715816
0.00084088 1.60255e-05 -1.49595e-07
1.60255e-05 8.66635e-05 1.11501e-06
-1.49595e-07 1.11501e-06 -7.48836e-06
0.000822919 -1.01323e-05 1.58647e-07
-1.01323e-05 9.07251e-05 -1.223e-07
1.58647e-07 -1.223e-07 -1.19572e-05
0.000816111 -4.93814e-05 7.20774e-08
-4.93814e-05 9.85423e-05 -1.95532e-07
7.20774e-08 -1.95532e-07 -4.66289e-06
0.000826548 2.15311e-05 -3.62766e-07
2.15311e-05 8.00514e-05 -3.19752e-07
-3.62766e-07 -3.19752e-07 -9.23991e-06
0.000969955 9.6228e-05 1.23171e-06
9.6228e-05 0.000173764 2.83972e-07
1.23171e-06 2.83972e-07 7.7181e-05
0.00102409 8.65348e-05 -3.36232e-07
8.65348e-05 0.000206528 1.91931e-07
-3.36232e-07 1.91931e-07 0.000116391
0.00163167 -0.00033533 1.27105e-06
-0.00033533 0.000217036 5.67406e-06
1.27105e-06 5.67406e-06 0.000131468
-0.000726641 -5.8011e-05 9.34316e-06
-5.8011e-05 -0.00068242 -8.55394e-06
9.34316e-06 -8.55394e-06 -0.000730579
0.000998765 5.57712e-05 -3.10568e-07
5.57712e-05 0.00019455 -3.10565e-07
-3.10568e-07 -3.10565e-07 8.8044e-05
0.00132549 -8.57814e-05 9.94557e-06
-8.57814e-05 0.000335075 -1.24976e-05
9.94557e-06 -1.24976e-05 0.00022029
0.000941886 1.23143e-05 -3.497e-07
1.23143e-05 0.000165741 -1.8395e-06
-3.497e-07 -1.8395e-06 5.26805e-05
0.000833098 4.58014e-06 1.10289e-07
4.58014e-06 7.61887e-05 -2.74615e-07
1.10289e-07 -2.74615e-07 -1.35224e-05
0.000916698 6.15779e-05 5.98507e-07
6.15779e-05 0.000144176 -3.99613e-07
5.98507e-07 -3.99613e-07 4.66874e-05
0.000534862 -0.000262437 -5.29884e-06
-0.000262437 -0.000247609 -2.25005e-06
-5.29884e-06 -2.25005e-06 -0.000258134
0.000984334 -2.85849e-05 1.59723e-06
-2.85849e-05 0.000179047 -2.6644e-06
1.59723e-06 -2.6644e-06 8.86134e-05
0.000428511 -2.75812e-05 1.4106e-05
-2.75812e-05 0.000153097 -3.83834e-07
1.4106e-05 -3.83834e-07 4.30655e-05
0.000937588 3.01871e-05 2.10731e-06
3.01871e-05 0.000145481 9.43705e-07
2.10731e-06 9.43705e-07 6.13783e-05
-0.00212674 2.12854e-05 -2.58806e-06
2.12854e-05 -0.00102781 -2.78304e-05
-2.58806e-06 -2.78304e-05 -0.00133253
0.00111729 -2.10262e-06 5.61094e-06
-2.10262e-06 0.000473656 1.99904e-05
5.61094e-06 1.99904e-05 0.00042721
0.0010436 -2.01823e-06 2.3556e-06
-2.01823e-06 0.000234768 3.3842e-06
2.3556e-06 3.3842e-06 0.000160548
0.0016019 -1.12334e-05 -1.69515e-06
-1.12334e-05 0.000261313 6.22357e-08
-1.69515e-06 6.22357e-08 0.000171232
0.00113755 -1.23962e-05 -7.26243e-06
-1.23962e-05 0.000117514 -1.87038e-06
-7.26243e-06 -1.87038e-06 -1.37973e-05
0.00110778 -3.15983e-05 0.000101111
-3.15983e-05 2.49306e-05 -1.81699e-06
0.000101111 -1.81699e-06 -0.00044196
0.00113053 0.000141896 1.89003e-05
0.000141896 0.00047933 1.31109e-05
1.89003e-05 1.31109e-05 0.000393558
0.00348434 0.000368217 1.90486e-06
0.000368217 0.00144116 -1.63507e-05
1.90486e-06 -1.63507e-05 0.00129699
0.00132848 -2.87056e-05 1.01282e-05
-2.87056e-05 0.000181689 6.59012e-06
1.01282e-05 6.59012e-06 -6.76633e-06
0.000190044 0.000308299 -5.82716e-07
0.000308299 -0.000207394 3.86635e-06
-5.82716e-07 3.86635e-06 -0.00233205
-0.00808877 1.92255e-05 -3.35057e-05
1.92255e-05 -0.00346452 -2.87371e-05
-3.35057e-05 -2.87371e-05 -0.00442036
0.00236053 1.73905e-05 1.67859e-05
1.73905e-05 0.000640733 4.26208e-05
1.67859e-05 4.26208e-05 0.000206523
0.00152875 0.00025431 -1.21363e-05
0.00025431 -0.0025666 3.89123e-05
-1.21363e-05 3.89123e-05 -0.00137922
0.000398557 8.08734e-05 1.77066e-06
8.08734e-05 0.000196886 -8.21752e-07
1.77066e-06 -8.21752e-07 8.5193e-05
0.00131355 -4.76706e-06 3.9604e-06
-4.76706e-06 0.000102458 -8.05197e-06
3.9604e-06 -8.05197e-06 -4.89449e-05
0.00246231 -2.34931e-06 6.09884e-06
-2.34931e-06 0.000798657 -1.34231e-06
6.09884e-06 -1.34231e-06 0.000253574
0.00109207 0.000216322 3.38865e-05
0.000216322 -0.000343097 -1.11891e-06
3.38865e-05 -1.11891e-06 -0.000516034
0.00192051 0.000563842 1.741e-05
0.000563842 -0.00134876 -4.03684e-05
1.741e-05 -4.03684e-05 -0.000363049
-0.000683518 0.000150546 9.3526e-06
0.000150546 -0.00115279 2.15465e-05
9.3526e-06 2.15465e-05 -0.00126331
0.0063134 6.8566e-05 5.74495e-05
6.8566e-05 0.00352457 -1.74591e-05
5.74495e-05 -1.74591e-05 0.000251854
4.72193e-05 1.51254e-05 3.73074e-06
1.51254e-05 0.000227687 -1.11723e-05
3.73074e-06 -1.11723e-05 -1.02746e-05
0.00138667 1.89591e-05 1.33239e-05
1.89591e-05 0.000241268 -1.62206e-05
1.33239e-05 -1.62206e-05 5.2153e-05
0.00246523 3.47233e-06 9.17094e-05
3.47233e-06 0.000320775 -7.13258e-05
9.17094e-05 -7.13258e-05 -0.000377789
0.00246191 0.000775732 6.4227e-06
0.000775732 0.000928148 -9.31155e-06
6.4227e-06 -9.31155e-06 0.00198188
-0.00625725 0.000201411 5.14305e-05
0.000201411 -0.00464197 7.40946e-05
5.14305e-05 7.40946e-05 -0.00439209
0.00945707 -0.000250854 3.7865e-05
-0.000250854 0.00398708 -5.69451e-05
3.7865e-05 -5.69451e-05 0.00141988
0.00473956 -0.00028321 -7.16904e-05
-0.00028321 0.00117416 0.00011961
-7.16904e-05 0.00011961 0.00123605
0.00108919 3.21308e-05 7.56854e-07
3.21308e-05 0.000373612 6.6205e-06
7.56854e-07 6.6205e-06 0.000326641
5.81986e-05 -1.39619e-05 -3.33631e-07
-1.39619e-05 -1.16052e-05 -1.14625e-06
-3.33631e-07 -1.14625e-06 -9.48336e-05
-0.000441018 -0.000110089 6.30127e-06
-0.000110089 -0.000188378 -1.19996e-05
6.30127e-06 -1.19996e-05 -0.000375854
0.000762674 -2.54732e-05 -1.36344e-08
-2.54732e-05 5.08797e-05 2.15846e-06
-1.36344e-08 2.15846e-06 -1.45202e-05
0.000680001 -1.14812e-05 8.03737e-06
-1.14812e-05 5.69048e-05 1.19906e-05
8.03737e-06 1.19906e-05 3.34614e-05
0.000395623 -3.78788e-05 -9.72915e-07
-3.78788e-05 2.67238e-05 -3.77134e-09
-9.72915e-07 -3.77134e-09 -8.37607e-05
0.00118567 -0.000163015 1.76388e-05
-0.000163015 0.000482584 -1.14426e-05
1.76388e-05 -1.14426e-05 0.000257413
0.00159495 -7.23084e-05 -2.48869e-06
-7.23084e-05 0.000522597 2.0909e-06
-2.48869e-06 2.0909e-06 0.000431227
0.00129915 -0.000156622 9.94944e-07
-0.000156622 0.000420318 4.87041e-07
9.94944e-07 4.87041e-07 0.000238861
0.00107297 -0.000181203 7.0452e-06
-0.000181203 0.000290998 1.90832e-06
7.0452e-06 1.90832e-06 1.02428e-05
0.000197204 -6.51936e-05 -2.13692e-06
-6.51936e-05 -0.000219768 -1.62305e-06
-2.13692e-06 -1.62305e-06 -0.000342671
0.00107487 -0.000165685 -2.92845e-07
-0.000165685 0.000221543 9.44662e-07
-2.92845e-07 9.44662e-07 2.11245e-05
0.00199922 -0.000259906 2.0745e-06
-0.000259906 0.000621145 1.1937e-06
2.0745e-06 1.1937e-06 0.000379851
0.00170112 -0.000241919 -2.77714e-06
-0.000241919 0.000349077 4.10655e-07
-2.77714e-06 4.10655e-07 0.000135133
0.000623364 -0.000134795 -2.25813e-07
-0.000134795 -7.66081e-05 4.71213e-06
-2.25813e-07 4.71213e-06 -0.000251094
0.0012051 -0.000182424 -1.91866e-06
-0.000182424 0.000214289 1.34834e-06
-1.91866e-06 1.34834e-06 1.64855e-05
0.000929935 -0.000152828 -3.22576e-06
-0.000152828 0.000128377 3.55034e-07
-3.22576e-06 3.55034e-07 -4.2535e-05
0.00131678 -0.00016897 2.6531e-06
-0.00016897 0.00035786 -2.32237e-06
2.6531e-06 -2.32237e-06 0.000208554
0.00115065 -0.000159001 2.41992e-06
-0.000159001 0.000257347 -2.14861e-06
2.41992e-06 -2.14861e-06 0.000106359
0.000672795 -4.49917e-05 1.01795e-06
-4.49917e-05 2.53802e-05 9.27919e-07
1.01795e-06 9.27919e-07 -9.39138e-05
0.000776879 -0.000109545 1.06911e-06
-0.000109545 9.48574e-05 -3.69777e-07
1.06911e-06 -3.69777e-07 -4.41916e-05
0.00100144 -0.000145223 4.54312e-06
-0.000145223 0.000184642 -2.62742e-06
4.54312e-06 -2.62742e-06 3.15374e-05
0.000745013 5.95196e-05 8.92801e-07
5.95196e-05 4.682e-05 1.23436e-06
8.92801e-07 1.23436e-06 -3.4247e-05
0.000883059 -3.13837e-05 -1.60837e-07
-3.13837e-05 0.000131714 -2.25664e-08
-1.60837e-07 -2.25664e-08 3.12099e-05
0.00106109 -0.000104069 -6.43512e-07
-0.000104069 0.000244968 -2.88356e-08
-6.43512e-07 -2.88356e-08 0.000120223
0.000696575 5.67496e-05 -8.46195e-07
5.67496e-05 7.6653e-06 1.50841e-06
-8.46195e-07 1.50841e-06 -3.84243e-05
0.000772072 2.64165e-05 -6.72891e-07
2.64165e-05 5.1279e-05 -2.74447e-07
-6.72891e-07 -2.74447e-07 -1.65553e-05
0.000602218 7.56552e-07 -3.16985e-07
7.56552e-07 -2.58252e-05 -7.83797e-07
-3.16985e-07 -7.83797e-07 -0.000114481
0.000803842 -4.81276e-06 7.67692e-07
-4.81276e-06 6.22881e-05 -9.14366e-07
7.67692e-07 -9.14366e-07 1.72305e-06
0.000722234 4.39447e-05 -2.41647e-07
4.39447e-05 1.2224e-05 -4.44602e-08
-2.41647e-07 -4.44602e-08 -2.87259e-05
0.000640319 4.43676e-05 -1.36235e-06
4.43676e-05 -3.19365e-05 3.40023e-06
-1.36235e-06 3.40023e-06 -4.51137e-05
0.000735239 3.5081e-05 1.42153e-06
3.5081e-05 1.15583e-05 -1.52828e-06
1.42153e-06 -1.52828e-06 -2.7078e-05
0.000663142 3.93332e-05 8.59605e-08
3.93332e-05 -2.79641e-05 2.17415e-08
8.59605e-08 2.17415e-08 -3.90723e-05
0.00212144 5.69386e-05 -2.203e-05
5.69386e-05 0.000798086 3.5922e-06
-2.203e-05 3.5922e-06 0.000812482
0.000670557 3.36174e-05 9.40632e-07
3.36174e-05 -3.11585e-05 -3.39064e-06
9.40632e-07 -3.39064e-06 -4.07614e-05
0.00149051 4.18512e-05 9.27139e-06
4.18512e-05 0.000436016 -1.0247e-06
9.27139e-06 -1.0247e-06 0.000448692
0.00217389 4.06414e-05 1.62848e-05
4.06414e-05 0.000815208 -3.97489e-06
1.62848e-05 -3.97489e-06 0.000832296
0.000778622 3.20099e-05 -5.67108e-07
3.20099e-05 4.45786e-05 -3.57884e-07
-5.67108e-07 -3.57884e-07 -2.30402e-05
0.000719408 -1.16212e-05 -6.75245e-07
-1.16212e-05 -2.12867e-06 -1.71292e-06
-6.75245e-07 -1.71292e-06 -4.38134e-05
0.000689522 2.23215e-05 -8.00002e-07
2.23215e-05 1.31559e-06 -5.07546e-07
-8.00002e-07 -5.07546e-07 -6.89492e-05
0.000677766 -2.61146e-05 -1.95492e-07
-2.61146e-05 -3.392e-05 -3.64244e-06
-1.95492e-07 -3.64244e-06 -4.31295e-05
0.000594189 -1.05324e-05 -4.17899e-07
-1.05324e-05 -7.172e-05 -7.39217e-07
-4.17899e-07 -7.39217e-07 -0.000112027
0.000874005 7.53796e-06 1.20898e-07
7.53796e-06 0.000106247 6.89152e-08
1.20898e-07 6.89152e-08 3.85739e-05
0.00217375 -3.07282e-05 -1.29091e-05
-3.07282e-05 0.000808944 -4.37166e-06
-1.29091e-05 -4.37166e-06 0.000827486
0.000685784 -1.91551e-05 -1.86276e-07
-1.91551e-05 -3.38717e-05 -1.56649e-08
-1.86276e-07 -1.56649e-08 -4.05914e-05
0.000455439 -1.16064e-05 -8.03016e-08
-1.16064e-05 -0.000149205 1.06355e-06
-8.03016e-08 1.06355e-06 -0.000187949
0.00211006 -1.99063e-05 -2.70692e-06
-1.99063e-05 0.000769149 5.46199e-08
-2.70692e-06 5.46199e-08 0.000789282
0.000691973 -1.24857e-05 3.272e-07
-1.24857e-05 -3.34233e-05 3.45968e-06
3.272e-07 3.45968e-06 -3.82195e-05
0.00207556 -9.22015e-06 3.81651e-06
-9.22015e-06 0.000747378 4.53199e-06
3.81651e-06 4.53199e-06 0.000768415
0.0014708 -4.38368e-06 -2.66355e-06
-4.38368e-06 0.000205432 2.0456e-05
-2.66355e-06 2.0456e-05 5.61025e-06
0.00135571 1.81205e-05 -4.04061e-06
1.81205e-05 0.000234659 8.24936e-07
-4.04061e-06 8.24936e-07 2.12343e-05
0.00162535 1.82469e-05 7.3127e-05
1.82469e-05 0.000293817 -1.81971e-05
7.3127e-05 -1.81971e-05 -0.000216395
0.000723758 -3.41534e-05 8.38673e-08
-3.41534e-05 1.46258e-05 -1.18115e-07
8.38673e-08 -1.18115e-07 -5.95249e-05
0.000883171 -1.20365e-06 -5.21833e-07
-1.20365e-06 0.000111003 -4.01137e-07
-5.21833e-07 -4.01137e-07 3.04893e-05
0.000864701 3.42914e-05 1.24619e-06
3.42914e-05 0.000103242 -1.53332e-07
1.24619e-06 -1.53332e-07 2.19712e-05
0.000752342 -9.72649e-06 1.32746e-07
-9.72649e-06 3.03843e-05 7.43933e-08
1.32746e-07 7.43933e-08 -4.48826e-05
0.000827547 1.71178e-05 -3.4718e-08
1.71178e-05 8.17998e-05 2.11312e-07
-3.4718e-08 2.11312e-07 -5.14188e-06
0.000852386 -5.05253e-06 -9.06981e-07
-5.05253e-06 9.44455e-05 4.26943e-07
-9.06981e-07 4.26943e-07 1.213e-05
0.000883308 0.000124928 8.32516e-07
0.000124928 0.000124586 9.91841e-07
8.32516e-07 9.91841e-07 2.64219e-05
0.00124337 1.14163e-05 2.52965e-05
1.14163e-05 0.000191373 7.68392e-05
2.52965e-05 7.68392e-05 -0.000526579
0.00202917 1.1797e-05 -3.25483e-06
1.1797e-05 0.00039054 2.3232e-05
-3.25483e-06 2.3232e-05 -0.000157301
0.00235915 9.76091e-06 1.28323e-05
9.76091e-06 0.00078967 -4.53814e-05
1.28323e-05 -4.53814e-05 0.000211279
0.00248212 -2.6714e-05 -8.64471e-06
-2.6714e-05 -0.00265022 -4.15784e-07
-8.64471e-06 -4.15784e-07 -0.000862544
0.00323157 -0.000612845 -2.40813e-05
-0.000612845 0.000624142 5.23749e-05
-2.40813e-05 5.23749e-05 -0.000226969
-0.00124815 -0.000365414 4.28631e-05
-0.000365414 -0.000937056 6.88376e-06
4.28631e-05 6.88376e-06 -0.00318822
0.00517165 0.000614866 4.09606e-05
0.000614866 0.00273383 -2.6406e-05
4.09606e-05 -2.6406e-05 0.00171453
0.00473599 -0.000730317 -1.65335e-05
-0.000730317 0.00108115 3.50131e-06
-1.65335e-05 3.50131e-06 0.000345087
0.000778634 -0.000282966 4.14999e-05
-0.000282966 0.00028836 -1.28645e-05
4.14999e-05 -1.28645e-05 -0.00214285
0.00359363 -4.10097e-05 -2.71144e-05
-4.10097e-05 0.00162264 2.07193e-06
-2.71144e-05 2.07193e-06 0.00112007
0.0057969 -0.000419595 -1.45839e-05
-0.000419595 0.000557029 -2.09882e-05
-1.45839e-05 -2.09882e-05 0.00170852
0.00250467 -0.000151312 -3.0256e-05
-0.000151312 -7.50913e-05 1.93296e-05
-3.0256e-05 1.93296e-05 -6.09591e-06
0.000500514 6.16576e-05 3.27144e-05
6.16576e-05 -0.000250593 -6.25675e-05
3.27144e-05 -6.25675e-05 -0.00230033
-0.0050647 -0.000518227 3.65855e-05
-0.000518227 -0.0036713 -1.50987e-05
3.65855e-05 -1.50987e-05 -0.0045123
0.00121554 -0.00043628 2.02627e-05
-0.00043628 -0.00168685 -5.13195e-05
2.02627e-05 -5.13195e-05 -0.000459194
0.00087825 -3.15398e-05 -5.79394e-07
-3.15398e-05 0.000107542 1.84941e-06
-5.79394e-07 1.84941e-06 2.88137e-05
0.000800123 1.49401e-05 1.65442e-07
1.49401e-05 6.48866e-05 6.25431e-08
1.65442e-07 6.25431e-08 -2.90643e-05
0.00079334 3.5816e-06 -5.38103e-07
3.5816e-06 7.84419e-05 -1.17841e-06
-5.38103e-07 -1.17841e-06 -2.71173e-05
0.000843578 2.69492e-05 -9.8495e-08
2.69492e-05 9.47361e-05 -1.35394e-06
-9.8495e-08 -1.35394e-06 1.42134e-06
0.00136596 -0.000294935 4.01272e-07
-0.000294935 0.000132477 1.7483e-05
4.01272e-07 1.7483e-05 7.60103e-05
0.000359726 -1.71343e-05 -2.46806e-06
-1.71343e-05 0.000120031 -1.3093e-05
-2.46806e-06 -1.3093e-05 2.18285e-05
0.000750181 -1.58784e-05 -2.53903e-07
-1.58784e-05 2.37269e-05 -1.93557e-06
-2.53903e-07 -1.93557e-06 -6.39352e-05
0.000934672 8.04009e-05 -6.58566e-07
8.04009e-05 0.000161545 -1.58863e-06
-6.58566e-07 -1.58863e-06 6.09996e-05
0.0015928 -3.24954e-05 8.49303e-06
-3.24954e-05 0.000534022 -1.32459e-05
8.49303e-06 -1.32459e-05 0.000439795
0.000820325 9.848e-06 -5.68039e-07
9.848e-06 7.90743e-05 -5.79133e-08
-5.68039e-07 -5.79133e-08 -4.20328e-06
0.000747709 8.96536e-06 -4.86622e-07
8.96536e-06 7.90711e-05 -9.57841e-07
-4.86622e-07 -9.57841e-07 1.85831e-06
-0.00065291 -1.8246e-05 -1.34835e-05
-1.8246e-05 -0.000330113 -1.00885e-05
-1.34835e-05 -1.00885e-05 -0.000677701
0.000953587 -3.10056e-05 6.47189e-06
-3.10056e-05 0.000415612 8.10815e-07
6.47189e-06 8.10815e-07 0.000377223
0.000699603 4.10457e-06 2.8185e-06
4.10457e-06 5.24631e-05 5.65625e-07
2.8185e-06 5.65625e-07 -2.24295e-05
0.000735367 3.02664e-08 -1.6381e-05
3.02664e-08 0.000884502 -5.26467e-05
-1.6381e-05 -5.26467e-05 -6.14246e-05
0.00205228 4.49481e-06 3.06737e-06
4.49481e-06 0.00095838 1.46014e-05
3.06737e-06 1.46014e-05 0.000883789
0.00143504 -1.45893e-05 1.60909e-05
-1.45893e-05 0.000276852 7.64502e-07
1.60909e-05 7.64502e-07 0.000126254
0.00116935 -1.01855e-05 -4.23581e-07
-1.01855e-05 5.62659e-05 -1.15998e-07
-4.23581e-07 -1.15998e-07 -1.81354e-05
0.000914952 -8.90325e-06 3.40212e-06
-8.90325e-06 1.54766e-05 -1.86418e-06
3.40212e-06 -1.86418e-06 -9.89221e-05
0.000471719 6.80513e-05 9.24621e-06
6.80513e-05 0.000233179 8.07118e-06
9.24621e-06 8.07118e-06 0.000139548
0.00126309 0.000178961 -5.03155e-05
0.000178961 -7.28218e-05 2.00012e-05
-5.03155e-05 2.00012e-05 -8.8617e-05
0.00112717 -8.56077e-06 6.56176e-06
-8.56077e-06 1.16745e-05 4.34994e-06
6.56176e-06 4.34994e-06 -0.000120277
0.00330994 -0.000339957 0.00013003
-0.000339957 0.002069 -0.000119937
0.00013003 -0.000119937 -0.00084532
0.00571384 0.000664668 -3.45195e-05
0.000664668 0.0026012 2.56707e-05
-3.45195e-05 2.56707e-05 0.00175664
0.00241093 1.26878e-06 -1.38694e-05
1.26878e-06 0.000757371 4.60544e-05
-1.38694e-05 4.60544e-05 0.000199006
0.00341751 0.000604584 -2.36701e-05
0.000604584 -0.000435272 8.15481e-06
-2.36701e-05 8.15481e-06 0.000521834
-0.000519938 -7.82387e-06 1.6927e-05
-7.82387e-06 -2.53753e-05 5.90759e-07
1.6927e-05 5.90759e-07 -0.000314494
0.00136441 1.61014e-05 4.71062e-06
1.61014e-05 0.000222377 -7.16256e-07
4.71062e-06 -7.16256e-07 2.33865e-05
0.00251655 -1.9105e-05 2.54437e-05
-1.9105e-05 0.000412376 -3.15014e-06
2.54437e-05 -3.15014e-06 -0.000365501
0.00126132 -9.5519e-05 -1.30572e-05
-9.5519e-05 -0.000624638 2.56148e-05
-1.30572e-05 2.56148e-05 -0.000344087
-0.000994078 0.00081658 2.29107e-05
0.00081658 -0.00111853 -7.89844e-06
2.29107e-05 -7.89844e-06 0.00031158
0.00512427 0.000584005 -8.40925e-06
0.000584005 0.000493536 2.67361e-05
-8.40925e-06 2.67361e-05 0.000728887
-0.000394962 -0.000450078 4.99028e-05
-0.000450078 -8.51385e-05 -3.06963e-05
4.99028e-05 -3.06963e-05 -0.00317256
0.00083926 -2.83631e-05 4.69285e-05
-2.83631e-05 0.000338635 -8.28389e-06
4.69285e-05 -8.28389e-06 0.000276511
0.00107524 -9.24024e-06 5.19128e-05
-9.24024e-06 -0.000120145 -2.22657e-05
5.19128e-05 -2.22657e-05 -0.000622647
-0.00135073 0.000228779 -4.48819e-05
0.000228779 -9.75258e-05 -1.91044e-05
-4.48819e-05 -1.91044e-05 -0.000374794
-4.58261e-05 0.000632034 -2.52062e-05
0.000632034 -0.000458375 6.33116e-05
-2.52062e-05 6.33116e-05 -3.41137e-05
0.0078547 9.56807e-05 1.67231e-05
9.56807e-05 0.00343027 -3.1019e-05
1.67231e-05 -3.1019e-05 0.00100718
0.00282344 -0.0003036 -7.3378e-05
-0.0003036 0.000245451 7.68834e-05
-7.3378e-05 7.68834e-05 -5.11768e-05
3.70766e-06 -2.51789e-05 -8.14725e-06
-2.51789e-05 -5.89221e-05 1.01738e-05
-8.14725e-06 1.01738e-05 -0.000157959
0.000219431 -5.67447e-05 1.86959e-07
-5.67447e-05 0.000164634 -4.52946e-07
1.86959e-07 -4.52946e-07 -1.06333e-05
0.00105933 -0.000175668 1.90044e-05
-0.000175668 0.000382193 -8.60314e-06
1.90044e-05 -8.60314e-06 0.000256324
0.000563178 1.39514e-05 -4.10751e-06
1.39514e-05 0.00011393 3.76621e-06
-4.10751e-06 3.76621e-06 1.79861e-05
-0.000184969 -8.68377e-05 1.16365e-06
-8.68377e-05 -0.000209883 -3.17231e-06
1.16365e-06 -3.17231e-06 -0.000444352
0.00162007 -0.000250858 1.70398e-05
-0.000250858 0.00044233 -2.7121e-06
1.70398e-05 -2.7121e-06 0.000219625
0.00227587 -0.00024897 -4.70541e-06
-0.00024897 0.000913993 8.76917e-07
-4.70541e-06 8.76917e-07 0.000726953
0.00153506 -0.000208458 1.5136e-06
-0.000208458 0.000511843 1.03326e-06
1.5136e-06 1.03326e-06 0.000239798
0.000872141 -0.000211461 4.00131e-06
-0.000211461 -3.94596e-05 -3.98068e-06
4.00131e-06 -3.98068e-06 -0.000288132
0.00112363 -0.000167482 -3.98209e-06
-0.000167482 0.000240412 1.15214e-07
-3.98209e-06 1.15214e-07 3.49875e-05
0.00187307 -0.00025052 1.24269e-06
-0.00025052 0.000546085 1.02011e-07
1.24269e-06 1.02011e-07 0.000304229
0.00141629 -0.000240781 1.77153e-06
-0.000240781 0.000136369 -3.63049e-06
1.77153e-06 -3.63049e-06 -8.34518e-05
0.00157522 -0.000234064 5.15805e-07
-0.000234064 0.000145461 -1.58438e-06
5.15805e-07 -1.58438e-06 -2.84846e-05
0.00219122 -0.000262638 -4.80706e-06
-0.000262638 0.000659723 4.67604e-06
-4.80706e-06 4.67604e-06 0.000451423
0.00160527 -0.000236541 -1.3118e-06
-0.000236541 0.000293461 -2.91246e-07
-1.3118e-06 -2.91246e-07 7.51033e-05
0.000524615 -0.000125495 2.66256e-06
-0.000125495 -0.000121982 -2.18451e-07
2.66256e-06 -2.18451e-07 -0.000274639
0.000927089 -0.000154213 1.77643e-06
-0.000154213 8.87044e-05 -2.23321e-07
1.77643e-06 -2.23321e-07 -8.12746e-05
0.0013153 -0.000190513 -1.2138e-06
-0.000190513 0.000273922 -1.45613e-06
-1.2138e-06 -1.45613e-06 7.44569e-05
0.00106976 -0.000145176 1.0905e-06
-0.000145176 0.000229092 -9.26456e-08
1.0905e-06 -9.26456e-08 8.5535e-05
0.00111356 -0.000153336 -8.70819e-07
-0.000153336 0.000248643 -9.56984e-07
-8.70819e-07 -9.56984e-07 9.97198e-05
0.000793721 -0.000131808 2.6246e-06
-0.000131808 6.91198e-05 -1.94227e-06
2.6246e-06 -1.94227e-06 -7.43542e-05
0.000721229 9.59389e-06 1.27063e-06
9.59389e-06 4.18912e-05 1.29395e-06
1.27063e-06 1.29395e-06 -5.84975e-05
0.000775004 -5.45265e-05 9.83636e-08
-5.45265e-05 8.32957e-05 7.15175e-07
9.83636e-08 7.15175e-07 -3.58198e-05
0.00123865 -0.000136721 1.47029e-06
-0.000136721 0.000348584 -1.13619e-06
1.47029e-06 -1.13619e-06 0.000208215
0.000672763 7.21561e-05 2.94551e-07
7.21561e-05 6.49519e-06 2.04439e-06
2.94551e-07 2.04439e-06 -5.06135e-05
0.000768906 2.04675e-05 -2.98205e-07
2.04675e-05 6.03928e-05 -1.84175e-07
-2.98205e-07 -1.84175e-07 -2.229e-05
0.000902966 -4.55254e-05 -3.06241e-07
-4.55254e-05 0.000143558 -6.6151e-07
-3.06241e-07 -6.6151e-07 4.05088e-05
0.000632652 4.98921e-05 -2.29102e-06
4.98921e-05 -2.71042e-05 4.72585e-06
-2.29102e-06 4.72585e-06 -4.29729e-05
0.000701987 5.51814e-05 -2.76004e-07
5.51814e-05 1.06608e-05 -1.8124e-07
-2.76004e-07 -1.8124e-07 -3.54265e-05
0.000796415 1.8676e-06 1.61001e-07
1.8676e-06 6.31463e-05 -1.23448e-06
1.61001e-07 -1.23448e-06 -4.3989e-06
0.000721188 4.30819e-05 9.70464e-07
4.30819e-05 1.1548e-05 -1.63993e-06
9.70464e-07 -1.63993e-06 -2.93549e-05
0.00065718 4.55471e-05 5.38657e-09
4.55471e-05 -2.25595e-05 -1.25696e-08
5.38657e-09 -1.25696e-08 -3.58602e-05
0.00211676 6.55769e-05 -2.49331e-05
6.55769e-05 0.000803947 3.28829e-06
-2.49331e-05 3.28829e-06 0.000816318
0.000673621 4.02809e-05 1.13361e-06
4.02809e-05 -2.21822e-05 -3.36688e-06
1.13361e-06 -3.36688e-06 -3.33451e-05
0.00213273 5.78668e-05 1.66302e-06
5.78668e-05 0.000805434 1.14234e-07
1.66302e-06 1.14234e-07 0.000819602
0.00215267 4.98251e-05 1.94772e-05
4.98251e-05 0.000809913 -3.71318e-06
1.94772e-05 -3.71318e-06 0.000825619
0.000809199 1.06188e-05 1.79172e-08
1.06188e-05 7.36128e-05 -4.66198e-07
1.79172e-08 -4.66198e-07 -8.2795e-06
0.000802525 4.2527e-05 -9.38324e-07
4.2527e-05 6.5139e-05 -8.60689e-07
-9.38324e-07 -8.60689e-07 -9.07995e-06
0.000721353 -2.00578e-05 -8.13034e-07
-2.00578e-05 5.559e-08 -1.79867e-06
-8.13034e-07 -1.79867e-06 -4.40572e-05
0.000788908 3.48901e-05 -7.83794e-08
3.48901e-05 5.06811e-05 -9.72175e-09
-7.83794e-08 -9.72175e-09 -1.72707e-05
0.000663513 -3.23137e-05 -3.27826e-07
-3.23137e-05 -3.63408e-05 -3.76877e-06
-3.27826e-07 -3.76877e-06 -4.8248e-05
0.000728457 -1.30005e-05 -1.22067e-07
-1.30005e-05 3.46549e-06 -1.59446e-08
-1.22067e-07 -1.59446e-08 -3.83699e-05
0.0007569 2.26713e-05 -2.54134e-07
2.26713e-05 3.06698e-05 6.76947e-08
-2.54134e-07 6.76947e-08 -3.34944e-05
0.00223448 -4.07027e-05 -1.68838e-05
-4.07027e-05 0.000847741 -4.24536e-06
-1.68838e-05 -4.24536e-06 0.000864549
0.000676025 -2.5545e-05 -1.70668e-07
-2.5545e-05 -3.49748e-05 -1.6363e-08
-1.70668e-07 -1.6363e-08 -4.40822e-05
0.000716996 -9.79915e-06 -1.47465e-07
-9.79915e-06 -3.58188e-06 1.08367e-06
-1.47465e-07 1.08367e-06 -4.30117e-05
0.00215723 -2.99182e-05 -2.74632e-06
-2.99182e-05 0.000799119 8.19756e-08
-2.74632e-06 8.19756e-08 0.000817917
0.000683478 -1.88128e-05 2.62083e-07
-1.88128e-05 -3.51762e-05 3.50704e-06
2.62083e-07 3.50704e-06 -4.18199e-05
0.00209718 -1.90146e-05 8.22948e-06
-1.90146e-05 0.000761504 4.46223e-06
8.22948e-06 4.46223e-06 0.00078183
0.00114482 -4.10774e-05 1.2472e-05
-4.10774e-05 0.000120021 2.17999e-05
1.2472e-05 2.17999e-05 -0.000115096
0.00127223 -7.73963e-06 -4.90836e-06
-7.73963e-06 0.000101998 8.37924e-06
-4.90836e-06 8.37924e-06 -7.21935e-05
0.00134322 1.23669e-05 8.80013e-06
1.23669e-05 0.000209137 -1.26954e-05
8.80013e-06 -1.26954e-05 -9.09655e-06
0.000788951 6.752e-06 -2.2594e-07
6.752e-06 5.74387e-05 -6.18541e-08
-2.2594e-07 -6.18541e-08 -2.17434e-05
0.000798588 -1.66165e-05 -1.81443e-07
-1.66165e-05 6.50136e-05 2.55672e-07
-1.81443e-07 2.55672e-07 -1.59709e-05
0.000766007 -2.0434e-05 -3.47147e-07
-2.0434e-05 4.93544e-05 -1.52031e-06
-3.47147e-07 -1.52031e-06 -3.57802e-05
0.000696531 -3.11549e-05 -2.14233e-07
-3.11549e-05 6.90547e-06 -6.20915e-07
-2.14233e-07 -6.20915e-07 -7.26469e-05
0.000963219 5.5032e-05 -8.68234e-07
5.5032e-05 0.000166756 -7.94398e-08
-8.68234e-07 -7.94398e-08 7.44098e-05
0.000759905 -2.75888e-05 -6.38868e-08
-2.75888e-05 3.21885e-05 -2.12446e-07
-6.38868e-08 -2.12446e-07 -4.13368e-05
0.000756488 -7.587e-06 4.93377e-07
-7.587e-06 3.85878e-05 -8.31464e-07
4.93377e-07 -8.31464e-07 -4.55483e-05
0.000826367 1.28203e-05 -9.72682e-08
1.28203e-05 8.14937e-05 -4.23205e-08
-9.72682e-08 -4.23205e-08 -1.52653e-06
0.000883401 4.06152e-05 7.42442e-09
4.06152e-05 0.000112432 1.71946e-07
7.42442e-09 1.71946e-07 2.2494e-05
0.00094551 1.52554e-05 -1.89248e-07
1.52554e-05 0.000158685 5.36467e-07
-1.89248e-07 5.36467e-07 7.07108e-05
0.00193235 -3.66227e-06 7.15888e-05
-3.66227e-06 0.000410075 8.65867e-05
7.15888e-05 8.65867e-05 -0.00040513
0.00147731 2.25613e-05 4.68762e-06
2.25613e-05 0.000216568 2.07511e-05
4.68762e-06 2.07511e-05 -0.000511157
0.00232506 2.04355e-05 -6.49447e-06
2.04355e-05 0.000688416 -1.91987e-05
-6.49447e-06 -1.91987e-05 0.000266416
0.00560021 -0.000381542 -2.89156e-05
-0.000381542 0.00063648 -5.49204e-05
-2.89156e-05 -5.49204e-05 0.00182082
-0.00799669 0.000247437 -3.53214e-05
0.000247437 -0.00331201 5.47703e-05
-3.53214e-05 5.47703e-05 -0.00427183
0.00412117 -0.000683666 -6.77266e-05
-0.000683666 0.0010305 5.19928e-05
-6.77266e-05 5.19928e-05 0.000266801
0.00736406 -0.00020729 -9.02964e-06
-0.00020729 0.00248289 -4.75634e-05
-9.02964e-06 -4.75634e-05 0.000553735
0.00348065 -0.00026726 -4.04972e-05
-0.00026726 0.00043055 4.32901e-05
-4.04972e-05 4.32901e-05 0.000140641
0.00971896 -0.000202399 5.78364e-05
-0.000202399 0.00417008 -1.49586e-05
5.78364e-05 -1.49586e-05 0.00169113
0.000660508 -0.000318523 2.41865e-05
-0.000318523 -0.000644674 5.78369e-06
2.41865e-05 5.78369e-06 -0.00101732
0.00113698 -0.000502487 -3.76625e-05
-0.000502487 -0.00185328 -8.64777e-05
-3.76625e-05 -8.64777e-05 -0.000578969
0.00468963 4.78119e-05 -0.000108294
4.78119e-05 0.00096133 -1.63127e-05
-0.000108294 -1.63127e-05 0.000705434
0.00792777 -0.000117902 -1.59744e-05
-0.000117902 0.00280025 4.49846e-05
-1.59744e-05 4.49846e-05 0.00104658
0.00767647 -0.00098068 -5.08245e-06
-0.00098068 0.00211022 -3.94874e-05
-5.08245e-06 -3.94874e-05 0.00221867
0.00335477 -0.000780337 1.9912e-05
-0.000780337 0.000307235 1.84394e-06
1.9912e-05 1.84394e-06 0.00174708
0.000622679 2.63221e-05 2.27097e-06
2.63221e-05 1.37148e-05 1.66987e-06
2.27097e-06 1.66987e-06 -5.32463e-05
0.000917117 -2.75104e-05 -5.19924e-08
-2.75104e-05 0.000134503 6.16278e-07
-5.19924e-08 6.16278e-07 5.34822e-05
0.000805774 1.43906e-05 -7.80977e-08
1.43906e-05 6.59731e-05 -1.15682e-06
-7.80977e-08 -1.15682e-06 -2.64141e-05
0.000217802 2.32119e-05 -2.92243e-05
2.32119e-05 7.18287e-05 1.80661e-05
-2.92243e-05 1.80661e-05 -0.000313348
0.00113372 -6.37957e-05 -3.19053e-05
-6.37957e-05 0.000529633 -8.97367e-06
-3.19053e-05 -8.97367e-06 0.000504365
0.000740886 -1.13441e-05 -9.85611e-07
-1.13441e-05 3.67935e-05 -5.48566e-07
-9.85611e-07 -5.48566e-07 -4.82179e-05
0.0004842 -2.83463e-05 -3.22752e-07
-2.83463e-05 -6.66281e-05 -5.4512e-06
-3.22752e-07 -5.4512e-06 -0.000139252
0.00074655 8.07427e-06 -3.32422e-07
8.07427e-06 8.17756e-05 -1.59886e-06
-3.32422e-07 -1.59886e-06 5.23091e-06
0.000434216 -4.9832e-06 -2.0361e-06
-4.9832e-06 9.82745e-05 4.16703e-06
-2.0361e-06 4.16703e-06 2.15071e-05
4.78434e-05 -1.74851e-05 4.78412e-05
-1.74851e-05 0.000557006 -3.46573e-05
4.78412e-05 -3.46573e-05 -0.000370128
-0.000750263 -1.37808e-05 -8.64697e-06
-1.37808e-05 -0.000557453 8.6098e-06
-8.64697e-06 8.6098e-06 -0.000641203
0.00114149 0.000126643 -7.25598e-06
0.000126643 0.00053959 -3.16948e-05
-7.25598e-06 -3.16948e-05 5.16693e-06
0.00141162 -4.89045e-06 5.42074e-05
-4.89045e-06 0.000143777 7.08517e-06
5.42074e-05 7.08517e-06 -0.000331943
0.00116055 -1.19633e-05 8.03699e-06
-1.19633e-05 0.000134026 2.05491e-06
8.03699e-06 2.05491e-06 1.17363e-06
0.000716472 -9.30616e-06 9.19099e-07
-9.30616e-06 -0.000168239 -4.58277e-07
9.19099e-07 -4.58277e-07 -0.000226579
-0.0015234 -4.27411e-05 -3.7254e-05
-4.27411e-05 -0.000454687 1.19216e-05
-3.7254e-05 1.19216e-05 -0.000820386
0.0026674 3.18982e-05 6.38065e-07
3.18982e-05 -1.4841e-05 -3.948e-05
6.38065e-07 -3.948e-05 -0.000147442
0.00138176 1.01134e-05 -5.76798e-06
1.01134e-05 0.000219459 1.21864e-05
-5.76798e-06 1.21864e-05 1.87387e-05
0.0128613 -0.000381261 9.94497e-05
-0.000381261 0.00556897 -9.17981e-06
9.94497e-05 -9.17981e-06 0.00304176
0.00527232 0.000701503 -4.37454e-05
0.000701503 0.00133223 1.70333e-06
-4.37454e-05 1.70333e-06 0.0012609
0.00268363 -3.39035e-05 -4.46463e-05
-3.39035e-05 0.000556799 5.76299e-05
-4.46463e-05 5.76299e-05 -0.000279131
-0.00441907 0.000878932 9.81042e-05
0.000878932 -0.00320865 -0.000101569
9.81042e-05 -0.000101569 -0.00137839
0.000539878 -3.40215e-05 -7.96633e-06
-3.40215e-05 0.000224826 -1.12187e-06
-7.96633e-06 -1.12187e-06 0.000129283
0.0014914 -4.00395e-06 -8.75338e-06
-4.00395e-06 0.000136288 2.79519e-06
-8.75338e-06 2.79519e-06 -0.000364219
-0.00181599 0.00026518 -9.38916e-05
0.00026518 -0.000135227 3.97345e-05
-9.38916e-05 3.97345e-05 -0.000314966
0.00188146 -0.000292597 -2.49992e-05
-0.000292597 -0.000193992 2.97723e-05
-2.49992e-05 2.97723e-05 -0.000393267
0.00678289 0.00103039 2.17231e-05
0.00103039 0.00233219 2.23883e-05
2.17231e-05 2.23883e-05 0.00278219
0.00690855 -0.000289167 5.19982e-05
-0.000289167 0.00264453 -3.00023e-05
5.19982e-05 -3.00023e-05 0.000460958
0.00160991 -0.000204213 1.65658e-05
-0.000204213 0.000283477 1.85267e-05
1.65658e-05 1.85267e-05 0.000446395
-0.00184989 2.04861e-05 4.00927e-05
2.04861e-05 9.4426e-05 -9.17438e-06
4.00927e-05 -9.17438e-06 -0.000620408
0.00330648 0.000703537 -7.1412e-05
0.000703537 0.0016758 3.21785e-05
-7.1412e-05 3.21785e-05 0.00177966
0.00370363 7.24665e-05 -8.9011e-05
7.24665e-05 0.00111193 7.1519e-05
-8.9011e-05 7.1519e-05 -0.00112679
0.00270247 -0.000619421 2.6354e-05
-0.000619421 0.000205316 3.46901e-07
2.6354e-05 3.46901e-07 -0.000370611
0.000561434 -1.74352e-05 7.93145e-06
-1.74352e-05 0.000350342 1.0537e-05
7.93145e-06 1.0537e-05 0.000188385
0.000552144 -0.000156861 -2.59508e-06
-0.000156861 0.000132618 1.01753e-06
-2.59508e-06 1.01753e-06 -1.91262e-05
0.0026131 -0.000296083 2.14013e-05
-0.000296083 0.000772481 1.04446e-06
2.14013e-05 1.04446e-06 0.000743252
-0.00140299 -1.33194e-05 -5.30477e-06
-1.33194e-05 -0.000830292 6.71073e-06
-5.30477e-06 6.71073e-06 -0.00107046
0.000774441 -0.00018731 4.62645e-06
-0.00018731 3.74173e-05 -5.81213e-07
4.62645e-06 -5.81213e-07 -0.00018966
0.00081502 -0.000248204 4.79242e-06
-0.000248204 -0.000245135 -2.1398e-06
4.79242e-06 -2.1398e-06 -0.000412272
0.0019893 -0.000234197 -5.90159e-06
-0.000234197 0.000725497 1.50377e-06
-5.90159e-06 1.50377e-06 0.000464166
0.00118836 -0.000228354 -2.49045e-06
-0.000228354 0.000119598 -2.3363e-06
-2.49045e-06 -2.3363e-06 -0.000118971
0.00152823 -0.000280665 5.29027e-06
-0.000280665 8.29652e-05 -2.21886e-06
5.29027e-06 -2.21886e-06 -8.42826e-05
0.00183104 -0.000245964 -2.63728e-06
-0.000245964 0.000516494 -8.32073e-07
-2.63728e-06 -8.32073e-07 0.000274431
0.0015334 -0.000246416 -1.24359e-07
-0.000246416 0.000193649 -2.01865e-06
-1.24359e-07 -2.01865e-06 -2.05138e-05
0.00171202 -0.00024922 7.1225e-07
-0.00024922 0.000141248 -3.00143e-06
7.1225e-07 -3.00143e-06 -1.56716e-05
0.00156182 -0.000201483 1.84016e-07
-0.000201483 8.33287e-05 -1.74642e-06
1.84016e-07 -1.74642e-06 -6.11509e-05
0.00156584 -0.000226065 -1.29173e-07
-0.000226065 0.000210355 -1.08342e-06
-1.29173e-07 -1.08342e-06 2.08924e-05
0.00152903 -0.000229757 1.49047e-06
-0.000229757 0.000122758 1.34111e-07
1.49047e-06 1.34111e-07 -5.02816e-05
0.0015228 -0.00020609 -1.52286e-06
-0.00020609 0.000341658 4.45766e-06
-1.52286e-06 4.45766e-06 0.000156878
0.00147558 -0.000216349 -6.58625e-08
-0.000216349 0.000277402 2.7595e-07
-6.58625e-08 2.7595e-07 6.75871e-05
0.00146294 -0.000227976 -7.58365e-07
-0.000227976 0.00021384 -1.71359e-06
-7.58365e-07 -1.71359e-06 -8.97904e-06
0.00098195 -0.000149326 1.39148e-06
-0.000149326 0.000139118 -1.21945e-06
1.39148e-06 -1.21945e-06 -6.04989e-06
0.000659269 -0.000133072 -3.30169e-07
-0.000133072 -4.41787e-05 -1.80403e-06
-3.30169e-07 -1.80403e-06 -0.000193097
0.00125358 -0.000175323 4.10042e-06
-0.000175323 0.000266321 -4.46254e-06
4.10042e-06 -4.46254e-06 0.000101225
0.00082193 -7.95284e-05 3.87587e-07
-7.95284e-05 8.40906e-05 1.2007e-06
3.87587e-07 1.2007e-06 -3.42619e-05
0.000887639 -0.000124026 2.60526e-07
-0.000124026 0.000129536 4.67209e-07
2.60526e-07 4.67209e-07 -1.0866e-05
0.000876341 -0.000135263 -7.64816e-07
-0.000135263 0.000120339 1.11619e-06
-7.64816e-07 1.11619e-06 -2.78236e-05
0.000667316 8.07923e-05 1.5074e-06
8.07923e-05 1.08326e-05 3.03555e-06
1.5074e-06 3.03555e-06 -6.159e-05
0.000809791 -1.18814e-05 1.12637e-07
-1.18814e-05 9.31208e-05 -9.39809e-08
1.12637e-07 -9.39809e-08 -1.07838e-05
0.000879419 -7.15262e-05 -1.03017e-06
-7.15262e-05 0.000142555 1.39991e-07
-1.03017e-06 1.39991e-07 2.35828e-05
0.00130607 6.99723e-05 -1.37728e-05
6.99723e-05 0.000362023 2.99943e-06
-1.37728e-05 2.99943e-06 0.000344715
0.000684042 5.19035e-05 -4.5956e-07
5.19035e-05 8.20513e-06 -4.12034e-07
-4.5956e-07 -4.12034e-07 -4.64188e-05
0.000800101 -1.33363e-05 9.64295e-08
-1.33363e-05 7.8785e-05 -1.49606e-06
9.64295e-08 -1.49606e-06 -6.0845e-06
0.000786163 4.00697e-05 -2.37516e-05
4.00697e-05 6.57308e-05 3.22754e-06
-2.37516e-05 3.22754e-06 7.04454e-05
0.00100789 5.88068e-05 -6.5729e-06
5.88068e-05 0.000183972 2.65297e-07
-6.5729e-06 2.65297e-07 0.000169141
0.000704393 5.12304e-05 1.82265e-07
5.12304e-05 1.14228e-05 -1.92574e-06
1.82265e-07 -1.92574e-06 -3.42988e-05
0.000677192 4.69883e-05 1.10431e-06
4.69883e-05 -1.13689e-05 -3.39095e-06
1.10431e-06 -3.39095e-06 -2.48362e-05
0.00214068 6.66347e-05 1.38404e-06
6.66347e-05 0.000818419 1.16032e-07
1.38404e-06 1.16032e-07 0.000830467
0.00214464 5.86872e-05 2.27555e-05
5.86872e-05 0.000813148 -3.42194e-06
2.27555e-05 -3.42194e-06 0.0008271
0.000743755 -1.22101e-05 1.82839e-07
-1.22101e-05 3.44351e-05 -1.01757e-06
1.82839e-07 -1.01757e-06 -4.83295e-05
0.000804067 2.45549e-05 -4.50641e-07
2.45549e-05 6.52984e-05 -1.33565e-06
-4.50641e-07 -1.33565e-06 -9.65269e-06
0.000786462 -1.39473e-05 1.24448e-07
-1.39473e-05 5.78426e-05 -7.16015e-08
1.24448e-07 -7.16015e-08 -2.18496e-05
0.000723376 -3.15729e-05 -9.261e-07
-3.15729e-05 4.90452e-06 -2.0103e-06
-9.261e-07 -2.0103e-06 -4.16033e-05
0.000792375 1.37171e-05 6.87258e-07
1.37171e-05 5.36395e-05 -4.71847e-08
6.87258e-07 -4.71847e-08 -1.60299e-05
0.000651926 -3.82934e-05 -4.8681e-07
-3.82934e-05 -3.66016e-05 -3.91699e-06
-4.8681e-07 -3.91699e-06 -5.11747e-05
0.000723604 -1.67857e-05 -1.59668e-07
-1.67857e-05 2.08585e-06 -1.24211e-10
-1.59668e-07 -1.24211e-10 -4.21623e-05
0.00080614 4.70456e-05 9.64802e-07
4.70456e-05 6.8404e-05 6.91001e-07
9.64802e-07 6.91001e-07 -5.12312e-06
0.00230213 -5.0386e-05 -2.1547e-05
-5.0386e-05 0.000891283 -4.07825e-06
-2.1547e-05 -4.07825e-06 0.000906147
0.00066346 -3.1654e-05 -2.98796e-07
-3.1654e-05 -3.6481e-05 -6.49773e-09
-2.98796e-07 -6.49773e-09 -4.82818e-05
0.00073665 -1.33698e-05 3.66287e-07
-1.33698e-05 8.57552e-06 1.8213e-06
3.66287e-07 1.8213e-06 -3.33933e-05
0.00221703 -3.99783e-05 -2.57179e-06
-3.99783e-05 0.000837327 1.05946e-07
-2.57179e-06 1.05946e-07 0.000854398
0.000674104 -2.50525e-05 2.75878e-07
-2.50525e-05 -3.60883e-05 3.59994e-06
2.75878e-07 3.59994e-06 -4.51082e-05
0.00214272 -2.90655e-05 1.20282e-05
-2.90655e-05 0.000790402 4.37997e-06
1.20282e-05 4.37997e-06 0.000809441
0.00210267 -4.90097e-05 5.41287e-05
-4.90097e-05 0.000501746 2.98754e-05
5.41287e-05 2.98754e-05 7.10543e-05
0.00120485 -3.68043e-05 5.91247e-07
-3.68043e-05 0.000153118 7.00617e-06
5.91247e-07 7.00617e-06 -7.21919e-05
0.0010912 -1.08189e-05 -4.50539e-06
-1.08189e-05 1.27809e-05 -5.25024e-06
-4.50539e-06 -5.25024e-06 -0.000140035
0.000872651 5.67787e-05 -1.42128e-06
5.67787e-05 0.000119728 -4.96356e-07
-1.42128e-06 -4.96356e-07 2.50869e-05
0.00085432 2.93217e-06 1.80419e-07
2.93217e-06 9.32988e-05 7.71376e-08
1.80419e-07 7.71376e-08 1.46773e-05
0.000768064 -2.57441e-05 1.18537e-07
-2.57441e-05 4.79032e-05 3.91664e-07
1.18537e-07 3.91664e-07 -3.33424e-05
0.000842168 -1.91045e-05 9.71845e-08
-1.91045e-05 8.46514e-05 -1.29306e-07
9.71845e-08 -1.29306e-07 6.46235e-06
0.000873617 1.07884e-05 1.09657e-07
1.07884e-05 0.000109537 -3.11063e-07
1.09657e-07 -3.11063e-07 2.29193e-05
0.000852399 3.72691e-05 2.10852e-07
3.72691e-05 0.00010387 6.65106e-07
2.10852e-07 6.65106e-07 1.30311e-05
0.000868598 2.54405e-05 -4.37431e-07
2.54405e-05 0.000114075 -1.45999e-06
-4.37431e-07 -1.45999e-06 1.836e-05
0.000616231 -2.38726e-05 2.15124e-07
-2.38726e-05 -2.95031e-05 -9.05477e-08
2.15124e-07 -9.05477e-08 -0.000115452
0.000826407 6.23337e-05 2.85001e-07
6.23337e-05 8.44757e-05 -4.31358e-07
2.85001e-07 -4.31358e-07 -6.73568e-07
0.000837015 -4.07568e-05 7.75404e-07
-4.07568e-05 7.37018e-05 -7.59859e-07
7.75404e-07 -7.59859e-07 -7.00671e-06
0.000846332 9.74117e-06 -1.81843e-07
9.74117e-06 9.99701e-05 1.26325e-07
-1.81843e-07 1.26325e-07 1.51688e-05
0.00133199 3.10231e-05 4.29021e-06
3.10231e-05 0.000392818 2.03732e-06
4.29021e-06 2.03732e-06 0.000309934
0.00120892 -0.000370412 6.22878e-05
-0.000370412 0.000955978 6.11942e-05
6.22878e-05 6.11942e-05 0.000844052
0.00217976 8.41603e-06 4.31207e-06
8.41603e-06 0.000535362 1.90352e-05
4.31207e-06 1.90352e-05 -0.000312148
0.00167849 3.0497e-05 -1.24499e-05
3.0497e-05 0.000248784 -3.50819e-05
-1.24499e-05 -3.50819e-05 -0.000486256
0.00489601 -0.000647537 -7.94343e-05
-0.000647537 0.000120901 -6.82398e-05
-7.94343e-05 -6.82398e-05 0.00149016
0.00386188 -0.000233775 -6.63168e-06
-0.000233775 0.000407629 2.26695e-05
-6.63168e-06 2.26695e-05 -2.52636e-05
0.000704669 -0.000372616 -9.01762e-05
-0.000372616 -0.000216816 5.9382e-05
-9.01762e-05 5.9382e-05 -0.00226332
0.00299662 -0.000207077 -5.12415e-05
-0.000207077 0.000386249 9.23064e-05
-5.12415e-05 9.23064e-05 -5.97842e-05
0.00417349 -0.000185656 -2.69657e-06
-0.000185656 0.00073856 3.53509e-05
-2.69657e-06 3.53509e-05 0.000632863
-0.000576826 -0.000776273 9.41457e-06
-0.000776273 -0.00140399 2.10794e-05
9.41457e-06 2.10794e-05 0.000175198
0.0053393 0.000157623 7.55675e-06
0.000157623 0.00232796 1.80561e-05
7.55675e-06 1.80561e-05 -0.000178429
0.00106302 -0.00048459 -6.46515e-06
-0.00048459 -0.00122857 1.39137e-05
-6.46515e-06 1.39137e-05 -0.000945973
0.00235295 0.000208643 -4.08588e-05
0.000208643 5.43049e-05 -8.44592e-06
-4.08588e-05 -8.44592e-06 -0.000154448
0.00873437 -0.000280158 -3.80131e-05
-0.000280158 0.00389159 3.70157e-05
-3.80131e-05 3.70157e-05 0.00183644
-0.000177908 -0.000577876 -6.17245e-05
-0.000577876 -0.000528659 -4.807e-05
-6.17245e-05 -4.807e-05 -6.06757e-05
0.000533196 0.000155102 5.8191e-07
0.000155102 -5.33753e-05 -2.67298e-06
5.8191e-07 -2.67298e-06 -0.000122312
0.000924681 3.51225e-05 4.67011e-06
3.51225e-05 0.000172051 -1.70734e-08
4.67011e-06 -1.70734e-08 0.000106532
0.000950429 -8.24079e-06 -7.93539e-07
-8.24079e-06 0.000156869 -2.88104e-07
-7.93539e-07 -2.88104e-07 7.47895e-05
-0.00070274 -8.20347e-06 -5.72036e-05
-8.20347e-06 4.32001e-05 -1.33151e-05
-5.72036e-05 -1.33151e-05 -0.000826204
-0.000820821 4.01817e-05 5.11635e-06
4.01817e-05 -0.000585791 -6.79198e-06
5.11635e-06 -6.79198e-06 -0.000666153
0.00081769 3.92059e-05 4.05625e-07
3.92059e-05 0.000123118 -2.56943e-06
4.05625e-07 -2.56943e-06 4.40234e-05
0.000793394 9.63947e-05 3.37273e-06
9.63947e-05 0.000216199 2.03876e-06
3.37273e-06 2.03876e-06 0.000124254
0.000775046 0.000165249 1.92876e-06
0.000165249 0.000285035 -2.2393e-05
1.92876e-06 -2.2393e-05 -0.000137547
0.000464128 0.000240804 1.65837e-05
0.000240804 -0.000129031 5.35511e-06
1.65837e-05 5.35511e-06 -0.000300228
0.000271163 2.98703e-06 9.57082e-05
2.98703e-06 0.00130712 7.68364e-07
9.57082e-05 7.68364e-07 0.000602802
0.00145259 -2.24348e-05 -5.44423e-06
-2.24348e-05 0.000219811 6.51002e-06
-5.44423e-06 6.51002e-06 -0.000175614
0.000921776 -1.04315e-05 -1.32557e-06
-1.04315e-05 1.9166e-05 1.48582e-06
-1.32557e-06 1.48582e-06 -9.73366e-05
0.000947697 -4.9094e-05 -2.16524e-05
-4.9094e-05 0.000460192 5.57115e-06
-2.16524e-05 5.57115e-06 0.000365248
0.00101337 -0.000207494 6.14933e-07
-0.000207494 -0.000841553 -2.14415e-05
6.14933e-07 -2.14415e-05 -0.00081208
0.00170091 1.08359e-06 -6.85181e-05
1.08359e-06 0.000284277 1.83291e-05
-6.85181e-05 1.83291e-05 -0.000219709
-0.000719962 -0.000385085 3.26065e-05
-0.000385085 -0.000810089 -3.82095e-05
3.26065e-05 -3.82095e-05 -0.00304706
-0.00328772 0.000508604 1.11646e-05
0.000508604 -0.00282825 -3.61135e-05
1.11646e-05 -3.61135e-05 -0.00223956
0.00146514 0.000395159 -7.87434e-05
0.000395159 0.00125794 6.22615e-05
-7.87434e-05 6.22615e-05 0.00141753
0.00176877 -0.00011773 -3.19497e-06
-0.00011773 0.00021975 2.9548e-06
-3.19497e-06 2.9548e-06 0.000505764
0.0014177 0.000148355 3.64339e-06
0.000148355 0.00159206 6.22554e-06
3.64339e-06 6.22554e-06 0.00123843
-0.00368715 0.000338551 2.68973e-05
0.000338551 -0.00128038 6.48585e-07
2.68973e-05 6.48585e-07 -0.00170027
0.00415135 -0.000666382 5.32445e-07
-0.000666382 0.00117591 1.07215e-06
5.32445e-07 1.07215e-06 0.000220445
0.00870199 0.000227747 1.52249e-05
0.000227747 0.00338355 -1.17234e-06
1.52249e-05 -1.17234e-06 0.0016611
0.000609498 -0.000220386 1.87241e-06
-0.000220386 -0.00029224 1.58697e-05
1.87241e-06 1.58697e-05 -0.000204613
-0.0061994 0.000150653 -7.31575e-05
0.000150653 -0.00312761 7.82418e-07
-7.31575e-05 7.82418e-07 -0.00333326
0.00666928 0.00015061 -1.5416e-05
0.00015061 0.00222522 7.9696e-06
-1.5416e-05 7.9696e-06 0.00079835
0.00546183 -0.000644404 2.32845e-07
-0.000644404 0.000907439 1.566e-05
2.32845e-07 1.566e-05 2.19967e-05
-4.2936e-05 -0.000127426 -1.84144e-05
-0.000127426 -0.000145878 1.26774e-05
-1.84144e-05 1.26774e-05 -0.000338018
0.00124328 -0.000219293 -1.31263e-06
-0.000219293 5.35927e-05 7.60061e-07
-1.31263e-06 7.60061e-07 7.26586e-05
0.00203674 -0.000252962 1.44366e-05
-0.000252962 0.000221944 -2.59454e-06
1.44366e-05 -2.59454e-06 0.000272213
-4.0921e-05 -0.00012487 -5.54035e-06
-0.00012487 -0.000350946 5.0624e-07
-5.54035e-06 5.0624e-07 -0.000585363
0.00119996 -0.000269466 -3.85118e-06
-0.000269466 -3.98405e-05 -1.2096e-06
-3.85118e-06 -1.2096e-06 -0.000211724
0.00191118 -0.000317708 3.32125e-06
-0.000317708 0.000148856 -1.92885e-07
3.32125e-06 -1.92885e-07 2.9897e-05
0.00162553 -0.000252568 -6.24184e-06
-0.000252568 0.000344416 -1.68373e-06
-6.24184e-06 -1.68373e-06 0.000113444
0.00157741 -0.000279652 2.04617e-06
-0.000279652 0.000120164 4.87719e-07
2.04617e-06 4.87719e-07 -5.05035e-05
0.00189986 -0.000257998 7.82126e-07
-0.000257998 0.000172437 -3.95127e-06
7.82126e-07 -3.95127e-06 4.53335e-05
0.00158414 -0.000248091 -3.92069e-06
-0.000248091 0.000215935 3.2166e-07
-3.92069e-06 3.2166e-07 6.85477e-06
0.00162931 -0.000242849 4.63928e-08
-0.000242849 9.66387e-05 4.92973e-07
4.63928e-08 4.92973e-07 -5.93181e-05
0.00177838 -0.000207182 -5.59435e-08
-0.000207182 0.000136892 -4.00727e-06
-5.59435e-08 -4.00727e-06 1.58641e-05
0.00163793 -0.000172444 -3.01788e-07
-0.000172444 9.56092e-05 -2.23099e-06
-3.01788e-07 -2.23099e-06 -2.86509e-05
0.0017769 -0.000211367 -5.57237e-07
-0.000211367 0.000240868 -1.36637e-06
-5.57237e-07 -1.36637e-06 8.28387e-05
0.00159935 -0.000201398 2.027e-07
-0.000201398 0.000104202 3.00149e-07
2.027e-07 3.00149e-07 -3.93474e-05
0.00104606 -0.000182986 -2.31012e-06
-0.000182986 -1.69295e-05 8.44976e-07
-2.31012e-06 8.44976e-07 -0.000198686
0.00155909 -0.000221894 1.98129e-06
-0.000221894 0.000208424 -5.1634e-07
1.98129e-06 -5.1634e-07 2.19728e-05
0.00149812 -0.000226433 2.05672e-06
-0.000226433 0.000108027 2.04734e-06
2.05672e-06 2.04734e-06 -6.42016e-05
0.00108689 -0.000166084 3.34958e-07
-0.000166084 0.000143991 2.01295e-06
3.34958e-07 2.01295e-06 -1.49794e-05
0.00101457 -0.000171686 1.6256e-06
-0.000171686 7.17146e-05 -8.67771e-07
1.6256e-06 -8.67771e-07 -0.000109627
0.000706171 -0.00016617 -3.88748e-07
-0.00016617 -0.00013445 -3.05768e-06
-3.88748e-07 -3.05768e-06 -0.000345913
0.000930458 -0.000128936 -1.47355e-06
-0.000128936 0.000108627 2.242e-07
-1.47355e-06 2.242e-07 -1.76538e-05
0.00106194 -0.000154074 -7.84465e-08
-0.000154074 0.000178968 -8.07654e-07
-7.84465e-08 -8.07654e-07 3.34352e-05
0.000788435 -0.00014023 -1.34854e-06
-0.00014023 3.06276e-05 -3.84539e-06
-1.34854e-06 -3.84539e-06 -0.00011513
0.000749321 -5.57046e-06 2.53648e-07
-5.57046e-06 4.43025e-05 3.30304e-06
2.53648e-07 3.30304e-06 -4.02237e-05
0.000920574 -8.08694e-05 1.02035e-06
-8.08694e-05 0.000136829 4.23753e-07
1.02035e-06 4.23753e-07 1.81725e-05
0.00070938 -9.93608e-05 -7.61624e-07
-9.93608e-05 3.18624e-05 1.26742e-06
-7.61624e-07 1.26742e-06 -0.000105405
0.000545737 6.67999e-05 7.51613e-08
6.67999e-05 -5.37195e-05 4.7054e-06
7.51613e-08 4.7054e-06 -8.28103e-05
0.000696604 1.96756e-05 -6.58884e-07
1.96756e-05 1.88704e-05 -4.22437e-07
-6.58884e-07 -4.22437e-07 -5.02831e-05
0.000898077 -3.79106e-05 -1.81077e-07
-3.79106e-05 0.00014308 -1.69574e-06
-1.81077e-07 -1.69574e-06 3.63179e-05
0.00222321 9.19132e-05 -9.47421e-06
9.19132e-05 0.00088298 1.23879e-06
-9.47421e-06 1.23879e-06 0.000887877
0.000639085 6.01643e-05 -6.63294e-08
6.01643e-05 -1.14468e-05 -1.01164e-07
-6.63294e-08 -1.01164e-07 -3.33596e-05
0.000690732 3.16074e-05 1.20447e-06
3.16074e-05 8.84033e-06 -2.33366e-06
1.20447e-06 -2.33366e-06 -4.43228e-05
0.0021673 7.45492e-05 1.46716e-06
7.45492e-05 0.000841683 1.18828e-07
1.46716e-06 1.18828e-07 0.000851522
0.000678691 5.43623e-05 8.49789e-07
5.43623e-05 -3.31673e-07 -3.5957e-06
8.49789e-07 -3.5957e-06 -1.73057e-05
0.00216884 6.75139e-05 2.62906e-05
6.75139e-05 0.000835232 -3.13633e-06
2.62906e-05 -3.13633e-06 0.000846991
0.000882902 4.76123e-05 -4.04198e-07
4.76123e-05 0.000117067 -1.58093e-07
-4.04198e-07 -1.58093e-07 2.72968e-05
0.000785756 1.01067e-06 -6.46137e-08
1.01067e-06 5.78259e-05 -2.91598e-07
-6.46137e-08 -2.91598e-07 -2.57743e-05
0.000788243 8.43592e-06 -2.41986e-07
8.43592e-06 6.23874e-05 -1.7228e-06
-2.41986e-07 -1.7228e-06 -1.86901e-05
0.000713558 -3.61033e-05 -9.10865e-07
-3.61033e-05 4.75191e-06 -2.35048e-06
-9.10865e-07 -2.35048e-06 -4.40313e-05
0.000764927 -4.12547e-06 8.32757e-07
-4.12547e-06 4.37935e-05 -6.16859e-08
8.32757e-07 -6.16859e-08 -3.03537e-05
0.00074392 -1.2489e-07 5.48961e-07
-1.2489e-07 3.7283e-05 6.03761e-07
5.48961e-07 6.03761e-07 -4.48643e-05
0.000649638 -4.39254e-05 -9.11313e-07
-4.39254e-05 -3.12693e-05 -4.06571e-06
-9.11313e-07 -4.06571e-06 -4.81484e-05
0.000717879 -2.43899e-05 -1.78661e-07
-2.43899e-05 1.74e-06 4.44054e-09
-1.78661e-07 4.44054e-09 -4.44789e-05
0.00077145 5.86471e-06 1.2076e-06
5.86471e-06 4.10758e-05 7.99758e-07
1.2076e-06 7.99758e-07 -2.75006e-05
0.00235205 -5.96046e-05 -2.60576e-05
-5.96046e-05 0.00092554 -3.84105e-06
-2.60576e-05 -3.84105e-06 0.000938463
0.000648941 -3.72608e-05 -2.62681e-07
-3.72608e-05 -3.84434e-05 1.49617e-08
-2.62681e-07 1.49617e-08 -5.2872e-05
0.000727604 -1.50308e-05 8.56388e-07
-1.50308e-05 4.75459e-06 1.87527e-06
8.56388e-07 1.87527e-06 -3.95251e-05
0.00228096 -4.9797e-05 -2.72332e-06
-4.9797e-05 0.000878779 1.33492e-07
-2.72332e-06 1.33492e-07 0.000893885
0.000660096 -3.0994e-05 2.46534e-07
-3.0994e-05 -3.84121e-05 3.74631e-06
2.46534e-07 3.74631e-06 -5.01101e-05
0.00219606 -3.91015e-05 1.58668e-05
-3.91015e-05 0.000824898 4.26361e-06
1.58668e-05 4.26361e-06 0.000842262
-0.00264536 -0.000100746 3.18534e-05
-0.000100746 -0.000276729 2.26333e-05
3.18534e-05 2.26333e-05 -0.00110647
0.00205517 -5.8341e-05 2.06209e-06
-5.8341e-05 0.000506288 8.67045e-06
2.06209e-06 8.67045e-06 7.83419e-05
0.00125932 -3.25373e-05 -8.18684e-06
-3.25373e-05 0.00018003 -7.5491e-06
-8.18684e-06 -7.5491e-06 -3.52037e-05
0.000787675 2.00781e-05 -8.0019e-07
2.00781e-05 6.97377e-05 6.19239e-07
-8.0019e-07 6.19239e-07 -2.13896e-05
0.00115116 0.000138861 4.95442e-08
0.000138861 0.000283732 7.00976e-07
4.95442e-08 7.00976e-07 0.000169986
0.000837115 2.78753e-05 -7.98249e-07
2.78753e-05 0.000104362 7.22246e-08
-7.98249e-07 7.22246e-08 5.27103e-06
0.000943881 -2.88849e-05 3.17954e-07
-2.88849e-05 0.000140787 -3.54876e-07
3.17954e-07 -3.54876e-07 6.25335e-05
0.000948082 4.23118e-05 8.75019e-07
4.23118e-05 0.000148755 4.03299e-07
8.75019e-07 4.03299e-07 6.27327e-05
0.000675846 -8.1715e-06 -3.40264e-07
-8.1715e-06 5.32493e-07 1.44794e-06
-3.40264e-07 1.44794e-06 -8.47179e-05
0.000720207 9.20644e-06 -8.09894e-07
9.20644e-06 3.22485e-05 -2.80274e-08
-8.09894e-07 -2.80274e-08 -5.88553e-05
0.000790836 1.18327e-05 1.88584e-07
1.18327e-05 6.98414e-05 -2.39654e-07
1.88584e-07 -2.39654e-07 -2.43423e-05
0.000960074 5.78538e-05 1.25872e-06
5.78538e-05 0.000185345 -1.56679e-06
1.25872e-06 -1.56679e-06 7.42642e-05
0.000893563 9.26147e-05 4.50012e-06
9.26147e-05 0.000100801 -5.6556e-06
4.50012e-06 -5.6556e-06 1.01465e-05
0.0008233 3.80917e-05 -9.40475e-08
3.80917e-05 8.90703e-05 -7.29018e-07
-9.40475e-08 -7.29018e-07 1.24547e-06
0.000937495 4.83464e-05 7.47058e-07
4.83464e-05 0.000177157 1.10122e-06
7.47058e-07 1.10122e-06 9.24364e-05
-0.00328567 -0.000406697 -8.25917e-05
-0.000406697 -0.00124305 1.4986e-05
-8.25917e-05 1.4986e-05 -0.00148664
-0.00100133 -0.000338724 4.56754e-05
-0.000338724 6.9792e-05 1.7289e-05
4.56754e-05 1.7289e-05 -0.000207873
0.00241684 4.37556e-06 -6.02618e-05
4.37556e-06 0.000679895 -4.88921e-05
-6.02618e-05 -4.88921e-05 -0.000199114
-0.00450719 -0.000790474 6.52433e-05
-0.000790474 -0.00310475 8.51498e-05
6.52433e-05 8.51498e-05 -0.00136454
0.00632021 -0.000709473 -6.76418e-06
-0.000709473 0.00182944 6.84654e-06
-6.76418e-06 6.84654e-06 0.00195264
0.00214572 0.00047742 5.6125e-05
0.00047742 0.000486586 -1.53661e-05
5.6125e-05 -1.53661e-05 -0.00192882
0.00317061 -0.000217394 -0.00014501
-0.000217394 0.000438538 7.79457e-05
-0.00014501 7.79457e-05 -0.000155309
0.00314884 0.000163171 -2.59987e-05
0.000163171 0.000432825 7.56466e-06
-2.59987e-05 7.56466e-06 0.000132039
0.00532861 -0.000868703 -2.70492e-05
-0.000868703 0.0023645 2.67333e-05
-2.70492e-05 2.67333e-05 0.00258723
0.00194213 0.000158342 8.7237e-06
0.000158342 0.000593453 9.69024e-06
8.7237e-06 9.69024e-06 -0.0015138
0.00250431 0.000433562 -0.000111673
0.000433562 0.000646598 -7.28895e-05
-0.000111673 -7.28895e-05 -9.49407e-05
0.00169748 0.000520362 -0.000159013
0.000520362 0.00011341 -6.0845e-05
-0.000159013 -6.0845e-05 -0.00187427
0.00218782 0.000369778 1.00639e-05
0.000369778 0.000583819 -1.13849e-05
1.00639e-05 -1.13849e-05 0.000433314
0.000786009 0.000154958 -3.32896e-06
0.000154958 7.65932e-05 9.3015e-07
-3.32896e-06 9.3015e-07 9.11665e-06
0.00107935 3.37045e-05 -1.39247e-06
3.37045e-05 0.000250983 -2.77185e-06
-1.39247e-06 -2.77185e-06 0.000186538
-1.95257e-06 0.000141837 -3.12987e-05
0.000141837 -8.32189e-05 -1.99303e-05
-3.12987e-05 -1.99303e-05 -0.00040896
0.00174035 0.00015785 -7.04275e-06
0.00015785 0.000681697 -6.75208e-06
-7.04275e-06 -6.75208e-06 0.000583406
0.00118762 0.000295821 8.39242e-06
0.000295821 0.000157146 -1.4483e-06
8.39242e-06 -1.4483e-06 -2.46278e-06
0.00217642 0.000438359 6.57621e-05
0.000438359 0.000130272 3.33621e-05
6.57621e-05 3.33621e-05 9.63035e-05
-0.00360458 -5.01393e-05 -0.00013489
-5.01393e-05 -0.00188744 -7.89455e-06
-0.00013489 -7.89455e-06 -0.00157641
-0.000744118 -5.21882e-06 4.08176e-05
-5.21882e-06 0.000867187 7.53274e-07
4.08176e-05 7.53274e-07 0.000110313
0.00155678 -3.26324e-05 -5.01613e-05
-3.26324e-05 0.000312986 6.23133e-06
-5.01613e-05 6.23133e-06 -2.49414e-07
0.00201221 -0.00017878 -4.10552e-05
-0.00017878 0.000303541 -2.26421e-05
-4.10552e-05 -2.26421e-05 0.000581026
0.00333973 -0.000673604 -5.29115e-05
-0.000673604 0.000524847 8.58543e-07
-5.29115e-05 8.58543e-07 -0.000211294
0.00163943 0.000113416 -3.96307e-05
0.000113416 0.0017467 2.23196e-05
-3.96307e-05 2.23196e-05 0.00140058
-0.00126598 -0.000197087 8.07716e-05
-0.000197087 -0.00103424 -6.79687e-05
8.07716e-05 -6.79687e-05 -0.00319861
0.00905249 0.000511409 -5.12274e-05
0.000511409 0.00454271 5.73563e-06
-5.12274e-05 5.73563e-06 0.00443696
0.00190058 -0.000353371 -1.35964e-06
-0.000353371 0.000276984 1.98294e-06
-1.35964e-06 1.98294e-06 0.000258381
-0.000995323 0.000288638 -1.2616e-06
0.000288638 -0.000387377 -4.62137e-06
-1.2616e-06 -4.62137e-06 -0.000593195
0.00328376 0.000139093 -1.78384e-05
0.000139093 0.000548234 2.43152e-05
-1.78384e-05 2.43152e-05 -0.00127506
0.00557458 -0.000654341 -3.63293e-05
-0.000654341 0.00143158 1.08789e-05
-3.63293e-05 1.08789e-05 0.000568589
-0.000910312 -0.000140678 1.42435e-05
-0.000140678 -0.000962066 -4.20498e-06
1.42435e-05 -4.20498e-06 -0.00117695
0.00835841 -0.000143992 5.32835e-05
-0.000143992 0.00250935 -3.98698e-06
5.32835e-05 -3.98698e-06 0.00156598
0.0041538 -0.000224094 2.48467e-05
-0.000224094 0.000824673 -1.57909e-05
2.48467e-05 -1.57909e-05 0.000251981
-0.000268479 -0.000137422 -1.86106e-05
-0.000137422 -0.000738464 5.49496e-06
-1.86106e-05 5.49496e-06 -0.000670809
0.00100277 -0.000213732 -1.31112e-06
-0.000213732 -0.000317717 -8.64166e-07
-1.31112e-06 -8.64166e-07 -0.000254767
0.00213868 -0.000290921 1.19569e-05
-0.000290921 0.00010603 -1.24498e-05
1.19569e-05 -1.24498e-05 0.000164378
0.00152412 -0.000286273 -1.03236e-05
-0.000286273 0.000133703 -1.64492e-06
-1.03236e-05 -1.64492e-06 -3.93865e-05
0.0016444 -0.000302458 -2.50056e-07
-0.000302458 4.95607e-06 8.42991e-07
-2.50056e-07 8.42991e-07 -0.000105739
0.0020962 -0.000280602 -2.02295e-06
-0.000280602 0.000158922 -6.51604e-07
-2.02295e-06 -6.51604e-07 8.79453e-05
0.00140648 -0.000266172 -1.46743e-06
-0.000266172 4.15174e-05 2.66894e-06
-1.46743e-06 2.66894e-06 -0.000131374
0.00172893 -0.000252238 -2.2067e-06
-0.000252238 7.64878e-05 -4.13917e-07
-2.2067e-06 -4.13917e-07 -5.05493e-05
0.0018923 -0.000209194 -4.87164e-07
-0.000209194 0.000104445 -1.83982e-06
-4.87164e-07 -1.83982e-06 1.18989e-05
0.00155856 -0.000237178 1.35676e-06
-0.000237178 5.7908e-05 3.00596e-06
1.35676e-06 3.00596e-06 -9.70806e-05
0.00167907 -0.000199385 -2.44968e-07
-0.000199385 8.63066e-05 -9.3593e-08
-2.44968e-07 -9.3593e-08 -3.32367e-05
0.00169403 -0.000166875 5.37465e-07
-0.000166875 7.58876e-05 -1.93533e-06
5.37465e-07 -1.93533e-06 -2.20486e-05
0.00175428 -0.000155323 2.06985e-07
-0.000155323 0.000154027 -7.99414e-07
2.06985e-07 -7.99414e-07 4.48039e-05
0.00161568 -0.00016855 -2.02223e-06
-0.00016855 8.47415e-05 1.5401e-06
-2.02223e-06 1.5401e-06 -3.70633e-05
0.00170927 -0.000174793 1.10767e-06
-0.000174793 0.000171165 -3.02666e-06
1.10767e-06 -3.02666e-06 3.78857e-05
0.0018259 -0.000208585 -2.0222e-06
-0.000208585 0.00031218 -1.14997e-06
-2.0222e-06 -1.14997e-06 0.00015154
0.00167568 -0.000205744 9.31606e-07
-0.000205744 0.00018442 6.04084e-07
9.31606e-07 6.04084e-07 2.78853e-05
0.00163427 -0.000200791 -9.49436e-07
-0.000200791 0.00012418 2.88069e-06
-9.49436e-07 2.88069e-06 -1.83401e-05
0.000907251 -0.000163561 -4.11863e-06
-0.000163561 -4.33545e-05 3.25074e-06
-4.11863e-06 3.25074e-06 -0.000211613
0.00132598 -0.000196897 6.83364e-07
-0.000196897 0.000139201 -2.75215e-07
6.83364e-07 -2.75215e-07 -4.24905e-05
0.00152662 -0.000216445 3.13796e-06
-0.000216445 0.000191706 1.26604e-07
3.13796e-06 1.26604e-07 8.3722e-06
0.000973659 -0.000142087 -1.55516e-06
-0.000142087 9.80728e-05 1.09726e-06
-1.55516e-06 1.09726e-06 -3.82017e-05
0.00112837 -0.000167581 3.451e-07
-0.000167581 0.000163165 -2.05141e-07
3.451e-07 -2.05141e-07 4.15243e-06
0.000590973 -0.000142865 9.80439e-08
-0.000142865 -0.000152135 -4.85445e-06
9.80439e-08 -4.85445e-06 -0.000329819
0.00076071 -6.47722e-05 -3.11174e-06
-6.47722e-05 3.4329e-05 2.69739e-06
-3.11174e-06 2.69739e-06 -6.14972e-05
0.00102987 -0.000136831 1.36602e-07
-0.000136831 0.000161565 -1.54726e-07
1.36602e-07 -1.54726e-07 3.4355e-05
0.00112703 -0.000157807 1.82068e-07
-0.000157807 0.000210999 -1.18747e-06
1.82068e-07 -1.18747e-06 6.51748e-05
0.000517129 6.38849e-05 1.73593e-06
6.38849e-05 -6.70453e-05 6.29292e-06
1.73593e-06 6.29292e-06 -0.000105188
0.000752283 -2.20882e-05 2.63258e-07
-2.20882e-05 4.79749e-05 1.66822e-07
2.63258e-07 1.66822e-07 -3.98311e-05
0.00104 -8.99989e-05 1.2055e-06
-8.99989e-05 0.000202107 -2.99661e-07
1.2055e-06 -2.99661e-07 8.18086e-05
0.00244961 9.5703e-05 -3.71305e-05
9.5703e-05 0.00101382 2.46072e-06
-3.71305e-05 2.46072e-06 0.00101741
0.000601035 6.90731e-05 -2.93641e-07
6.90731e-05 -2.21792e-05 -3.05183e-07
-2.93641e-07 -3.05183e-07 -5.22381e-05
0.000720204 -1.94368e-05 2.18429e-06
-1.94368e-05 2.88281e-05 -3.23271e-06
2.18429e-06 -3.23271e-06 -4.00932e-05
0.00158877 7.07538e-05 1.50931e-05
7.07538e-05 0.000525209 -4.56077e-07
1.50931e-05 -4.56077e-07 0.000528415
0.000670292 6.41764e-05 -5.62896e-07
6.41764e-05 6.85408e-06 -4.35012e-06
-5.62896e-07 -4.35012e-06 -1.59397e-05
0.0022447 7.64467e-05 3.11171e-05
7.64467e-05 0.000886089 -2.81944e-06
3.11171e-05 -2.81944e-06 0.000895335
0.000892343 6.52505e-05 6.88595e-07
6.52505e-05 0.000120604 3.95034e-07
6.88595e-07 3.95034e-07 2.33926e-05
0.000806091 1.01765e-05 -2.47752e-07
1.01765e-05 7.03992e-05 4.89266e-07
-2.47752e-07 4.89266e-07 -1.49572e-05
0.000772701 -2.45232e-05 2.52764e-07
-2.45232e-05 5.60766e-05 -1.65249e-06
2.52764e-07 -1.65249e-06 -2.79843e-05
0.000862605 2.24124e-05 2.51685e-07
2.24124e-05 0.000100769 5.88933e-07
2.51685e-07 5.88933e-07 1.5855e-05
0.000766737 -2.34274e-05 4.27997e-07
-2.34274e-05 4.61255e-05 -6.89451e-08
4.27997e-07 -6.89451e-08 -3.11418e-05
0.000688292 -3.62834e-05 -8.83931e-07
-3.62834e-05 -3.05643e-06 -2.67704e-06
-8.83931e-07 -2.67704e-06 -5.54392e-05
0.00065171 -5.01297e-05 -1.13555e-06
-5.01297e-05 -2.23036e-05 -4.27098e-06
-1.13555e-06 -4.27098e-06 -4.15248e-05
0.000709283 -3.2469e-05 1.10046e-07
-3.2469e-05 2.43767e-06 -3.80622e-08
1.10046e-07 -3.80622e-08 -4.61622e-05
0.00074141 -4.22523e-05 -1.85417e-07
-4.22523e-05 2.52787e-05 1.16205e-06
-1.85417e-07 1.16205e-06 -4.41287e-05
0.0023724 -6.81854e-05 -3.03666e-05
-6.81854e-05 0.000943839 -3.53034e-06
-3.03666e-05 -3.53034e-06 0.000954948
0.000640012 -4.26249e-05 -2.64795e-07
-4.26249e-05 -3.67398e-05 3.7816e-08
-2.64795e-07 3.7816e-08 -5.3455e-05
0.000717832 -1.64712e-05 1.63412e-06
-1.64712e-05 1.74436e-06 2.01089e-06
1.63412e-06 2.01089e-06 -4.42937e-05
0.00233946 -5.91862e-05 -2.45433e-06
-5.91862e-05 0.000917848 1.53196e-07
-2.45433e-06 1.53196e-07 0.000930923
0.000647105 -3.63938e-05 4.9874e-07
-3.63938e-05 -3.95088e-05 3.92836e-06
4.9874e-07 3.92836e-06 -5.38403e-05
0.00225936 -4.91269e-05 1.95859e-05
-4.91269e-05 0.000865985 4.11688e-06
1.95859e-05 4.11688e-06 0.000881349
0.000810564 0.00017274 3.07147e-05
0.00017274 0.000952271 3.79611e-05
3.07147e-05 3.79611e-05 0.000350038
-0.000690172 -0.000153431 9.10374e-07
-0.000153431 0.000547645 7.9439e-06
9.10374e-07 7.9439e-06 -0.000175176
0.00196197 -6.73864e-05 -5.25496e-05
-6.73864e-05 0.000499661 -1.29201e-05
-5.25496e-05 -1.29201e-05 7.43408e-05
0.000733151 -1.02687e-05 4.04596e-07
-1.02687e-05 3.76159e-05 4.28546e-07
4.04596e-07 4.28546e-07 -5.08124e-05
0.000804588 5.19271e-06 3.58215e-08
5.19271e-06 8.38971e-05 6.46056e-07
3.58215e-08 6.46056e-07 -1.40791e-05
0.000968613 0.000121189 -3.25596e-07
0.000121189 0.000187777 2.90682e-07
-3.25596e-07 2.90682e-07 7.67833e-05
0.00116753 0.000159766 1.2429e-06
0.000159766 0.000271076 3.39878e-08
1.2429e-06 3.39878e-08 0.000143186
0.000937386 9.38194e-05 -1.90046e-06
9.38194e-05 0.000179786 -7.63667e-07
-1.90046e-06 -7.63667e-07 6.25156e-05
0.00081734 4.77109e-05 7.91416e-07
4.77109e-05 8.50056e-05 1.03676e-06
7.91416e-07 1.03676e-06 -7.14292e-06
0.000751346 2.10681e-05 5.57081e-07
2.10681e-05 4.72327e-05 1.05578e-06
5.57081e-07 1.05578e-06 -4.64748e-05
0.000708316 6.47383e-05 -1.28499e-06
6.47383e-05 4.53594e-05 -1.28847e-06
-1.28499e-06 -1.28847e-06 -6.17077e-05
-2.11162e-05 7.57035e-05 -3.24964e-07
7.57035e-05 -0.000355209 3.30859e-07
-3.24964e-07 3.30859e-07 -0.000475542
0.00100745 0.000139637 5.41225e-07
0.000139637 0.000151644 -4.74841e-06
5.41225e-07 -4.74841e-06 4.38126e-05
0.00206037 0.000302095 5.33531e-06
0.000302095 0.000466094 -1.07417e-05
5.33531e-06 -1.07417e-05 0.000310729
0.000743764 8.57658e-05 -1.96547e-06
8.57658e-05 4.37251e-05 -4.76293e-07
-1.96547e-06 -4.76293e-07 -4.51756e-05
0.000707791 1.33211e-05 -4.19279e-07
1.33211e-05 3.7666e-05 -8.61068e-07
-4.19279e-07 -8.61068e-07 -4.13798e-05
0.0109428 6.75919e-05 -4.92117e-05
6.75919e-05 0.00363358 6.75606e-07
-4.92117e-05 6.75606e-07 0.00236334
-0.00201275 -0.000313502 -6.4152e-05
-0.000313502 -0.0003411 -1.27271e-05
-6.4152e-05 -1.27271e-05 -0.00083665
0.000609341 -0.000388808 -1.92688e-05
-0.000388808 0.000648621 -2.93031e-05
-1.92688e-05 -2.93031e-05 0.000335293
-0.00357032 -0.000385932 1.40162e-05
-0.000385932 -0.00175581 3.95609e-05
1.40162e-05 3.95609e-05 -0.00154488
0.00911992 -0.000214961 8.32764e-05
-0.000214961 0.00420335 -6.47705e-06
8.32764e-05 -6.47705e-06 0.00156846
0.00281853 0.00021523 -1.48268e-05
0.00021523 0.000448662 5.89564e-06
-1.48268e-05 5.89564e-06 0.000256431
0.00157407 0.000401642 -4.45754e-05
0.000401642 3.97586e-05 -1.82142e-05
-4.45754e-05 -1.82142e-05 -0.000568989
0.00798898 -0.000197719 5.84831e-05
-0.000197719 0.00289671 1.77717e-05
5.84831e-05 1.77717e-05 0.00133506
0.00400974 0.000548122 7.23979e-06
0.000548122 0.00060408 -2.66228e-05
7.23979e-06 -2.66228e-05 -1.15303e-05
0.0020067 0.000414032 2.98538e-06
0.000414032 0.000283679 1.37036e-05
2.98538e-06 1.37036e-05 0.000126632
0.000876855 0.000259524 3.15509e-06
0.000259524 -7.24711e-06 -4.35377e-06
3.15509e-06 -4.35377e-06 -0.000162581
0.000997366 0.000147688 -1.12514e-05
0.000147688 0.000190042 6.54581e-06
-1.12514e-05 6.54581e-06 0.00012584
0.00155847 0.000334917 -2.93916e-05
0.000334917 0.000261646 -1.56009e-05
-2.93916e-05 -1.56009e-05 0.000116894
0.00139186 0.000398739 -1.6752e-05
0.000398739 -0.000221119 1.47354e-05
-1.6752e-05 1.47354e-05 -0.000279609
0.000389929 -0.000151025 -1.66638e-05
-0.000151025 -0.00190963 -4.52838e-06
-1.66638e-05 -4.52838e-06 -0.00229151
0.00210838 -0.000110336 -1.92241e-07
-0.000110336 0.00122815 -5.51601e-06
-1.92241e-07 -5.51601e-06 0.00115331
-0.00196924 -2.2271e-05 2.004e-05
-2.2271e-05 0.000354891 -4.90604e-07
2.004e-05 -4.90604e-07 -0.00049645
0.00286977 -0.000449838 -5.44426e-05
-0.000449838 0.000689811 4.82551e-06
-5.44426e-05 4.82551e-06 0.000612412
0.00382845 -0.000588887 -9.7116e-06
-0.000588887 0.000814175 -1.43089e-05
-9.7116e-06 -1.43089e-05 -0.000363782
0.000728461 -0.000132682 2.45778e-05
-0.000132682 0.000720936 1.83928e-05
2.45778e-05 1.83928e-05 0.000375291
0.00971784 0.000202816 -5.12694e-05
0.000202816 0.00386161 3.01229e-05
-5.12694e-05 3.01229e-05 0.00220646
0.000672215 -0.000204926 -6.73824e-06
-0.000204926 -0.000243955 -8.43434e-07
-6.73824e-06 -8.43434e-07 -0.000378591
0.00644158 9.66776e-05 1.17057e-05
9.66776e-05 0.00151351 2.02467e-05
1.17057e-05 2.02467e-05 0.000679275
0.00372681 -0.000311968 4.47689e-05
-0.000311968 0.000319446 -1.5265e-06
4.47689e-05 -1.5265e-06 -0.000498017
0.00238817 -0.000238897 5.50582e-06
-0.000238897 0.000679345 1.44266e-06
5.50582e-06 1.44266e-06 0.000410051
0.00372108 -8.43824e-05 -8.20607e-05
-8.43824e-05 0.000848827 -1.11689e-05
-8.20607e-05 -1.11689e-05 0.00056562
7.84107e-05 -0.000178354 -1.49893e-05
-0.000178354 -0.000813137 5.20918e-06
-1.49893e-05 5.20918e-06 -0.000731061
0.00151909 -0.000273885 -1.46986e-07
-0.000273885 -0.000192803 3.60483e-07
-1.46986e-07 3.60483e-07 -0.0001563
0.00187579 -0.000195923 5.44666e-06
-0.000195923 -6.11528e-05 -1.31567e-06
5.44666e-06 -1.31567e-06 -4.26784e-05
0.00136926 -0.000287108 -5.77024e-07
-0.000287108 -0.000137583 1.9335e-06
-5.77024e-07 1.9335e-06 -0.000242566
0.00178056 -0.000255999 -8.10374e-07
-0.000255999 1.67545e-05 -2.05073e-07
-8.10374e-07 -2.05073e-07 -5.20796e-05
0.00181237 -0.000178887 -7.84345e-07
-0.000178887 -2.72987e-05 1.01437e-06
-7.84345e-07 1.01437e-06 -6.72471e-05
0.00161491 -0.000249069 -4.01511e-06
-0.000249069 1.05499e-05 2.88016e-06
-4.01511e-06 2.88016e-06 -0.000116599
0.00179578 -0.00020598 3.19852e-07
-0.00020598 5.05889e-05 1.15145e-06
3.19852e-07 1.15145e-06 -4.1753e-05
0.0018535 -0.000174393 1.95161e-06
-0.000174393 0.000106645 1.44147e-07
1.95161e-06 1.44147e-07 2.77103e-05
0.00156011 -0.000190928 1.04363e-06
-0.000190928 2.49076e-05 3.17995e-06
1.04363e-06 3.17995e-06 -9.31357e-05
0.00169926 -0.000169209 5.05592e-08
-0.000169209 7.92208e-05 1.06687e-06
5.05592e-08 1.06687e-06 -1.97605e-05
0.00188176 -0.000157261 1.93892e-06
-0.000157261 0.000196544 -4.6496e-07
1.93892e-06 -4.6496e-07 0.000101234
0.00166989 -0.000153667 -3.14848e-06
-0.000153667 0.000105433 2.22374e-06
-3.14848e-06 2.22374e-06 -2.23686e-06
0.00172774 -0.000154231 2.56935e-06
-0.000154231 0.000170785 -1.94039e-06
2.56935e-06 -1.94039e-06 5.19474e-05
0.00159062 -0.000164943 -6.82756e-07
-0.000164943 7.16787e-05 4.99327e-06
-6.82756e-07 4.99327e-06 -4.77286e-05
0.00169599 -0.000173889 8.54667e-07
-0.000173889 0.000163905 -6.31725e-07
8.54667e-07 -6.31725e-07 3.06373e-05
0.00165967 -0.000172202 -1.27647e-06
-0.000172202 0.000182747 -1.47165e-06
-1.27647e-06 -1.47165e-06 4.35952e-05
0.00126508 -0.000174979 -4.75756e-06
-0.000174979 5.8607e-05 5.48462e-07
-4.75756e-06 5.48462e-07 -9.98139e-05
0.00164744 -0.000199331 5.30584e-07
-0.000199331 0.000213978 -6.78357e-07
5.30584e-07 -6.78357e-07 5.40696e-05
0.00157532 -0.000200439 1.75527e-06
-0.000200439 0.000128558 2.24463e-06
1.75527e-06 2.24463e-06 -2.65371e-05
0.00111574 -0.000159131 -3.19588e-06
-0.000159131 0.000119823 2.71693e-06
-3.19588e-06 2.71693e-06 -2.67992e-05
0.0010159 -0.000168278 -1.17251e-06
-0.000168278 2.05488e-05 1.31784e-06
-1.17251e-06 1.31784e-06 -0.000147243
0.0015922 -0.000209618 3.20601e-06
-0.000209618 0.000288698 -1.28263e-06
3.20601e-06 -1.28263e-06 0.000107114
0.000731268 -8.42284e-05 -3.64443e-06
-8.42284e-05 -6.02069e-06 2.57128e-06
-3.64443e-06 2.57128e-06 -0.000108422
0.00106583 -0.00014896 1.8324e-07
-0.00014896 0.000146377 -4.00547e-07
1.8324e-07 -4.00547e-07 9.1837e-06
0.0011909 -0.000170638 1.25957e-06
-0.000170638 0.000193932 -2.67395e-06
1.25957e-06 -2.67395e-06 3.46729e-05
0.000521721 1.67515e-05 -3.55217e-06
1.67515e-05 -7.98282e-05 7.01801e-06
-3.55217e-06 7.01801e-06 -0.000121503
0.000814353 -7.02085e-05 2.04131e-07
-7.02085e-05 6.36271e-05 2.79932e-07
2.04131e-07 2.79932e-07 -3.32976e-05
0.00110183 -0.000136665 1.65922e-06
-0.000136665 0.000198538 -5.43483e-07
1.65922e-06 -5.43483e-07 7.17573e-05
0.00278929 0.000110224 -4.57354e-05
0.000110224 0.00120604 2.38742e-06
-4.57354e-05 2.38742e-06 0.0012056
0.000581696 4.32056e-05 5.86429e-07
4.32056e-05 -3.72865e-05 -2.93948e-07
5.86429e-07 -2.93948e-07 -7.27448e-05
0.000775479 -5.71403e-05 2.64619e-06
-5.71403e-05 5.75316e-05 -2.86025e-06
2.64619e-06 -2.86025e-06 -3.03273e-05
0.00254853 9.63635e-05 2.06253e-06
9.63635e-05 0.00106792 1.75251e-07
2.06253e-06 1.75251e-07 0.00107132
0.00065104 5.84353e-05 3.8345e-07
5.84353e-05 2.62908e-06 -5.24274e-06
3.8345e-07 -5.24274e-06 -2.59991e-05
0.00239494 8.58327e-05 3.80183e-05
8.58327e-05 0.000976877 -2.58358e-06
3.80183e-05 -2.58358e-06 0.000983402
0.000970008 0.000137347 8.1024e-07
0.000137347 0.000152253 -6.72238e-07
8.1024e-07 -6.72238e-07 3.19199e-05
0.000834523 9.53189e-05 4.72646e-07
9.53189e-05 9.39006e-05 2.48236e-08
4.72646e-07 2.48236e-08 -7.39721e-06
0.000705241 -1.34891e-05 -5.04708e-07
-1.34891e-05 1.89354e-05 -1.00644e-06
-5.04708e-07 -1.00644e-06 -7.409e-05
0.000717105 -2.07037e-05 -1.82857e-07
-2.07037e-05 2.04981e-05 9.6143e-07
-1.82857e-07 9.6143e-07 -6.31259e-05
0.000727867 -3.97547e-05 2.12308e-07
-3.97547e-05 2.96267e-05 8.57618e-08
2.12308e-07 8.57618e-08 -5.36769e-05
0.000663691 -3.52047e-05 -8.97756e-07
-3.52047e-05 -1.17692e-05 -2.93072e-06
-8.97756e-07 -2.93072e-06 -7.11321e-05
0.000726208 -4.48941e-05 -3.28874e-07
-4.48941e-05 2.21001e-05 1.61038e-06
-3.28874e-07 1.61038e-06 -5.32831e-05
0.000688159 -4.07552e-05 3.30497e-07
-4.07552e-05 -2.35694e-06 -1.60892e-07
3.30497e-07 -1.60892e-07 -5.50512e-05
0.000647755 -5.97861e-05 -4.48568e-07
-5.97861e-05 -1.39927e-05 -4.63767e-06
-4.48568e-07 -4.63767e-06 -3.6855e-05
0.00238809 -7.66964e-05 -3.41513e-05
-7.66964e-05 0.000960165 -3.16217e-06
-3.41513e-05 -3.16217e-06 0.000969331
0.000637253 -4.84113e-05 -4.87247e-08
-4.84113e-05 -3.05411e-05 2.96857e-08
-4.87247e-08 2.96857e-08 -4.95067e-05
0.000698376 -2.96741e-05 1.81244e-06
-2.96741e-05 -3.48164e-06 2.19606e-06
1.81244e-06 2.19606e-06 -5.18897e-05
0.00237224 -6.791e-05 -2.14877e-06
-6.791e-05 0.000943052 1.6476e-07
-2.14877e-06 1.6476e-07 0.000954213
0.000634446 -4.14099e-05 8.097e-07
-4.14099e-05 -3.99398e-05 4.09877e-06
8.097e-07 4.09877e-06 -5.65179e-05
0.00232122 -5.8633e-05 2.40471e-05
-5.8633e-05 0.00090696 3.93114e-06
2.40471e-05 3.93114e-06 0.000920228
0.00915281 0.000213315 0.000109886
0.000213315 0.00275686 3.75759e-05
0.000109886 3.75759e-05 0.00183118
-0.00241176 -0.000239655 -3.56108e-05
-0.000239655 -0.00130507 -3.26686e-06
-3.56108e-05 -3.26686e-06 -0.00138422
-0.00213458 -5.50557e-05 -4.73753e-05
-5.50557e-05 -0.000145741 -1.01323e-05
-4.73753e-05 -1.01323e-05 -0.00105361
0.000751725 -3.03281e-05 9.76526e-07
-3.03281e-05 5.31356e-05 1.63215e-06
9.76526e-07 1.63215e-06 -4.41412e-05
0.000792039 0.000116143 -8.06911e-07
0.000116143 9.42975e-05 8.1249e-07
-8.06911e-07 8.1249e-07 -1.40499e-05
0.00105433 9.99888e-05 5.12159e-07
9.99888e-05 0.000243773 -3.37637e-08
5.12159e-07 -3.37637e-08 0.000126358
0.00103049 0.000149753 -1.37721e-06
0.000149753 0.000198287 6.95968e-08
-1.37721e-06 6.95968e-08 7.22563e-05
0.00110652 0.000161945 1.01832e-05
0.000161945 0.000207551 1.89941e-06
1.01832e-05 1.89941e-06 6.7183e-05
0.000485636 0.00011194 -1.16978e-06
0.00011194 -7.97267e-05 -2.01505e-07
-1.16978e-06 -2.01505e-07 -0.000202877
0.000481263 6.78623e-05 -1.0424e-06
6.78623e-05 -7.67908e-05 -5.24177e-07
-1.0424e-06 -5.24177e-07 -0.000182759
0.000474536 0.000112995 5.90261e-07
0.000112995 -9.36195e-05 6.02642e-07
5.90261e-07 6.02642e-07 -0.000222629
0.000925712 0.000123529 -1.628e-06
0.000123529 0.000109921 -2.67877e-08
-1.628e-06 -2.67877e-08 -1.58643e-06
0.000230856 0.000128238 6.6833e-07
0.000128238 -0.000327615 -1.42252e-06
6.6833e-07 -1.42252e-06 -0.000456176
0.00282936 0.00032595 -1.91743e-06
0.00032595 0.000881885 -3.62797e-06
-1.91743e-06 -3.62797e-06 0.000734764
0.00146354 0.000302522 1.41185e-06
0.000302522 1.71288e-05 9.13218e-07
1.41185e-06 9.13218e-07 -0.000136006
0.00143783 0.000263773 3.69722e-06
0.000263773 0.000161159 -2.64621e-06
3.69722e-06 -2.64621e-06 1.43325e-05
0.000724965 9.20459e-05 -5.55781e-06
9.20459e-05 5.19002e-05 4.54733e-06
-5.55781e-06 4.54733e-06 -3.61347e-05
0.00340949 0.000182217 7.11068e-06
0.000182217 8.8729e-05 6.491e-06
7.11068e-06 6.491e-06 -0.00017731
0.00556008 4.62437e-05 1.81145e-05
4.62437e-05 0.00118549 1.17216e-05
1.81145e-05 1.17216e-05 -7.41443e-05
0.00559017 -0.000712682 -2.52119e-05
-0.000712682 0.00289265 -3.60758e-05
-2.52119e-05 -3.60758e-05 0.00280248
0.00624641 0.000175737 0.000279673
0.000175737 0.0021484 7.70105e-05
0.000279673 7.70105e-05 2.93995e-05
0.00127231 0.000364232 2.82241e-05
0.000364232 -0.000319087 2.97375e-05
2.82241e-05 2.97375e-05 -0.000512849
0.00250542 0.000414025 -7.34106e-05
0.000414025 5.15363e-05 -2.17015e-05
-7.34106e-05 -2.17015e-05 -0.000368681
0.0030034 0.000428318 5.09045e-05
0.000428318 0.000553361 2.15315e-05
5.09045e-05 2.15315e-05 0.000561575
0.00216769 0.000419407 6.49805e-07
0.000419407 0.000342358 4.94983e-06
6.49805e-07 4.94983e-06 0.000209803
0.000456404 0.000217551 -7.70756e-07
0.000217551 -0.000204394 6.32903e-06
-7.70756e-07 6.32903e-06 -0.000351201
0.00233725 0.000475243 -7.59754e-05
0.000475243 0.000246654 -4.65198e-05
-7.59754e-05 -4.65198e-05 0.000161994
0.00280013 -0.000141339 -0.000140621
-0.000141339 0.000349531 2.96261e-06
-0.000140621 2.96261e-06 -2.23684e-05
0.00873793 -0.000117911 1.07525e-05
-0.000117911 0.00272534 -1.77358e-06
1.07525e-05 -1.77358e-06 0.00213043
-0.00632154 -0.000178717 0.000138335
-0.000178717 -0.00335568 1.47715e-06
0.000138335 1.47715e-06 -0.00325373
0.00181855 -0.00025733 -1.17154e-05
-0.00025733 0.000291076 6.48905e-06
-1.17154e-05 6.48905e-06 0.000187576
0.00528487 -0.000360886 8.99478e-05
-0.000360886 0.00121295 5.91591e-06
8.99478e-05 5.91591e-06 0.000416122
0.000975808 -0.000333555 8.15002e-05
-0.000333555 -0.00124939 3.8413e-05
8.15002e-05 3.8413e-05 -0.00200137
0.0013414 -0.000164573 6.87587e-06
-0.000164573 0.000130002 -9.67937e-07
6.87587e-06 -9.67937e-07 -5.61815e-05
0.00158288 -4.13861e-06 -7.35028e-06
-4.13861e-06 -0.000381142 4.10972e-06
-7.35028e-06 4.10972e-06 -0.00066595
0.0050159 -0.000179304 1.05413e-05
-0.000179304 0.00183152 -3.42476e-06
1.05413e-05 -3.42476e-06 0.00172086
0.002768 -6.21126e-07 4.9924e-05
-6.21126e-07 0.000488911 -3.88221e-06
4.9924e-05 -3.88221e-06 0.000465202
0.000688023 -0.000252193 -8.68362e-06
-0.000252193 -0.000599899 4.6671e-06
-8.68362e-06 4.6671e-06 -0.000582179
0.0018146 -0.000203332 -3.04094e-07
-0.000203332 -7.87153e-05 1.27225e-06
-3.04094e-07 1.27225e-06 -7.44005e-05
0.00179148 -9.40392e-05 6.95939e-06
-9.40392e-05 -3.46688e-05 5.48558e-07
6.95939e-06 5.48558e-07 -5.39446e-05
0.00155234 -0.000237306 1.15943e-06
-0.000237306 -8.54717e-05 2.26011e-07
1.15943e-06 2.26011e-07 -0.000152205
0.00186574 -0.000180665 1.62886e-06
-0.000180665 1.52426e-05 7.44792e-07
1.62886e-06 7.44792e-07 -3.11252e-05
0.00171939 -0.000117445 2.19354e-06
-0.000117445 7.41199e-06 9.66746e-07
2.19354e-06 9.66746e-07 -4.50653e-05
0.00170647 -0.000202979 3.92534e-06
-0.000202979 5.2546e-07 3.08724e-06
3.92534e-06 3.08724e-06 -9.16173e-05
0.00181759 -0.000169902 1.0915e-06
-0.000169902 9.6263e-05 4.16666e-07
1.0915e-06 4.16666e-07 1.71971e-05
0.00193907 -0.000138786 1.61606e-06
-0.000138786 0.000205918 4.24558e-07
1.61606e-06 4.24558e-07 0.000121753
0.00170507 -0.000170989 1.84731e-07
-0.000170989 8.3353e-05 3.27878e-06
1.84731e-07 3.27878e-06 -1.65988e-05
0.00174801 -0.000155923 -5.03872e-07
-0.000155923 0.000127263 4.07712e-07
-5.03872e-07 4.07712e-07 3.0664e-05
0.00161508 -0.000141155 3.56972e-06
-0.000141155 9.02794e-05 -6.87381e-07
3.56972e-06 -6.87381e-07 -2.06319e-05
0.0015911 -0.000152162 -3.44974e-06
-0.000152162 6.02604e-05 4.70569e-06
-3.44974e-06 4.70569e-06 -4.58632e-05
0.00171019 -0.000152361 -1.04557e-06
-0.000152361 0.000159928 -1.51829e-07
-1.04557e-06 -1.51829e-07 4.29062e-05
0.00167808 -0.000149382 4.88231e-07
-0.000149382 0.000182627 -6.69055e-07
4.88231e-07 -6.69055e-07 5.48486e-05
0.0017055 -0.000173979 6.39196e-07
-0.000173979 0.000169579 1.44798e-06
6.39196e-07 1.44798e-06 3.61582e-05
0.00165206 -0.000171317 6.99129e-07
-0.000171317 0.00017842 -1.81883e-07
6.99129e-07 -1.81883e-07 3.92709e-05
0.00160519 -0.00016833 -2.746e-06
-0.00016833 0.000200936 -3.61872e-07
-2.746e-06 -3.61872e-07 6.14056e-05
0.00090253 -0.000145841 -6.71535e-06
-0.000145841 -7.82509e-05 2.35432e-06
-6.71535e-06 2.35432e-06 -0.000222766
0.00128432 -0.000174942 -9.81488e-07
-0.000174942 7.45261e-05 1.60249e-07
-9.81488e-07 1.60249e-07 -8.34581e-05
0.00144853 -0.000188979 2.93881e-06
-0.000188979 0.000104485 5.18529e-07
2.93881e-06 5.18529e-07 -5.45625e-05
0.000858157 -0.000111003 -4.94077e-06
-0.000111003 2.67512e-05 3.85059e-06
-4.94077e-06 3.85059e-06 -8.53501e-05
0.00111961 -0.000158555 4.5726e-07
-0.000158555 0.000120186 3.62488e-07
4.5726e-07 3.62488e-07 -2.59764e-05
0.00112264 -0.000172907 1.30224e-06
-0.000172907 8.29371e-05 -5.81293e-07
1.30224e-06 -5.81293e-07 -8.43157e-05
0.000528568 -8.85136e-06 -6.62115e-06
-8.85136e-06 -8.34286e-05 7.65954e-06
-6.62115e-06 7.65954e-06 -0.000133144
0.00086743 -9.50442e-05 4.43404e-08
-9.50442e-05 6.89978e-05 -1.8933e-07
4.43404e-08 -1.8933e-07 -3.50424e-05
0.00114947 -0.000155181 2.4971e-06
-0.000155181 0.000190058 -2.12708e-06
2.4971e-06 -2.12708e-06 5.20223e-05
0.00323245 0.000124841 -6.06748e-05
0.000124841 0.00145361 2.41137e-06
-6.06748e-05 2.41137e-06 0.00144897
0.000607709 9.50504e-06 3.61128e-07
9.50504e-06 -3.40003e-05 -1.82672e-07
3.61128e-07 -1.82672e-07 -7.644e-05
0.000881836 -7.7274e-05 4.08709e-06
-7.7274e-05 9.93009e-05 -2.42281e-06
4.08709e-06 -2.42281e-06 1.80274e-06
0.00291978 0.000107981 2.80242e-06
0.000107981 0.00127657 2.08882e-07
2.80242e-06 2.08882e-07 0.00127649
0.000651433 3.99176e-05 3.14554e-06
3.99176e-05 9.68545e-07 -6.03117e-06
3.14554e-06 -6.03117e-06 -3.52576e-05
0.00266496 9.45309e-05 5.02486e-05
9.45309e-05 0.00113115 -2.55764e-06
5.02486e-05 -2.55764e-06 0.00113498
0.00109239 0.000154622 -1.28571e-07
0.000154622 0.000194696 -2.8007e-06
-1.28571e-07 -2.8007e-06 5.84614e-05
0.00109317 0.000145913 4.11718e-07
0.000145913 0.000220442 2.10203e-07
4.11718e-07 2.10203e-07 9.95512e-05
0.000878199 7.76891e-05 -1.32662e-06
7.76891e-05 0.000101328 -1.37668e-06
-1.32662e-06 -1.37668e-06 -5.24515e-06
0.000771091 0.000114844 -7.32706e-08
0.000114844 6.45957e-05 3.86949e-07
-7.32706e-08 3.86949e-07 -4.047e-05
0.000695897 7.74761e-06 -5.5548e-07
7.74761e-06 1.37134e-05 -1.72207e-07
-5.5548e-07 -1.72207e-07 -8.12815e-05
0.000700653 1.65873e-05 -2.041e-06
1.65873e-05 1.39807e-05 -2.63278e-06
-2.041e-06 -2.63278e-06 -5.94888e-05
0.000691003 -5.73304e-05 -1.70191e-07
-5.73304e-05 1.03094e-05 1.5223e-06
-1.70191e-07 1.5223e-06 -7.41404e-05
0.000673957 -3.80767e-05 4.06591e-07
-3.80767e-05 -4.25924e-06 -3.6606e-07
4.06591e-07 -3.6606e-07 -6.45169e-05
0.000630341 -7.2526e-05 1.52232e-06
-7.2526e-05 -1.1104e-05 -5.44525e-06
1.52232e-06 -5.44525e-06 -4.00392e-05
0.000687238 -4.38254e-05 1.10341e-06
-4.38254e-05 -2.42528e-06 2.51166e-06
1.10341e-06 2.51166e-06 -5.52269e-05
0.000625757 -5.63738e-05 2.08635e-07
-5.63738e-05 -2.73832e-05 -1.89457e-08
2.08635e-07 -1.89457e-08 -4.94911e-05
0.00244118 -8.55307e-05 -3.85816e-05
-8.55307e-05 0.000997289 -2.73575e-06
-3.85816e-05 -2.73575e-06 0.00100428
0.00238733 -7.63933e-05 -1.38973e-06
-7.63933e-05 0.00095892 1.5636e-07
-1.38973e-06 1.5636e-07 0.000968147
0.000623535 -4.67803e-05 1.34071e-06
-4.67803e-05 -3.84093e-05 4.26206e-06
1.34071e-06 4.26206e-06 -5.71334e-05
0.00236486 -6.75593e-05 2.84951e-05
-6.75593e-05 0.000938284 3.68641e-06
2.84951e-05 3.68641e-06 0.000949517
0.00293701 -4.00304e-07 -4.87169e-05
-4.00304e-07 0.000258487 1.50073e-05
-4.87169e-05 1.50073e-05 7.85467e-05
0.00186129 -0.000232117 2.12175e-05
-0.000232117 -0.000874903 8.77002e-06
2.12175e-05 8.77002e-06 -0.00174477
0.00416279 -0.000396616 -4.46962e-05
-0.000396616 0.00176582 -2.58634e-05
-4.46962e-05 -2.58634e-05 0.00184715
0.00137521 0.000187449 1.01614e-05
0.000187449 0.00026906 2.56478e-06
1.01614e-05 2.56478e-06 0.000118753
0.0011914 0.000112653 7.25771e-07
0.000112653 0.000318072 4.70145e-07
7.25771e-07 4.70145e-07 0.000200657
0.000898782 0.000140124 -1.28105e-06
0.000140124 0.000128739 1.12261e-06
-1.28105e-06 1.12261e-06 4.46881e-06
0.000783596 0.000133851 5.70554e-07
0.000133851 8.19369e-05 7.66748e-07
5.70554e-07 7.66748e-07 -4.52056e-05
0.00103701 0.000158544 -3.0699e-07
0.000158544 0.000173609 -1.47902e-06
-3.0699e-07 -1.47902e-06 3.17906e-05
0.000681706 0.000144864 -5.10311e-07
0.000144864 -6.32199e-05 4.82754e-07
-5.10311e-07 4.82754e-07 -0.000185759
0.00089859 0.000146063 -8.14244e-07
0.000146063 0.000128922 -4.43147e-07
-8.14244e-07 -4.43147e-07 -8.3086e-06
0.000979133 0.00011706 -2.52919e-06
0.00011706 0.000135657 5.26512e-06
-2.52919e-06 5.26512e-06 2.01465e-05
0.000969613 0.000175605 5.39842e-07
0.000175605 6.66914e-05 4.17761e-09
5.39842e-07 4.17761e-09 -6.37235e-05
0.00225431 0.000289776 1.06453e-06
0.000289776 0.000575547 5.20358e-06
1.06453e-06 5.20358e-06 0.00042781
0.00169504 0.000287074 -1.99484e-06
0.000287074 0.000151161 -9.54501e-07
-1.99484e-06 -9.54501e-07 -4.32351e-06
0.00150617 0.000251176 1.3671e-05
0.000251176 -1.29766e-05 1.057e-05
1.3671e-05 1.057e-05 -0.00012851
0.00134867 0.000297938 -2.07579e-06
0.000297938 -5.14432e-05 -2.47537e-06
-2.07579e-06 -2.47537e-06 -0.000209472
0.000943478 0.00022866 1.01292e-06
0.00022866 -8.5556e-05 5.68121e-06
1.01292e-06 5.68121e-06 -0.000223012
0.000190732 0.000163324 1.1528e-05
0.000163324 -0.000496377 4.2318e-06
1.1528e-05 4.2318e-06 -0.000496793
0.00477462 0.00028125 -2.36097e-05
0.00028125 0.000591677 1.6767e-07
-2.36097e-05 1.6767e-07 0.00020644
0.000980744 -6.10861e-05 5.9922e-05
-6.10861e-05 -0.00104805 1.51742e-05
5.9922e-05 1.51742e-05 -0.00225657
0.00211609 0.000438689 5.95424e-05
0.000438689 -0.000195052 7.83685e-06
5.95424e-05 7.83685e-06 -0.000765351
0.00171846 0.00032543 -1.94793e-05
0.00032543 0.000111934 -3.23508e-06
-1.94793e-05 -3.23508e-06 9.44603e-05
0.00101998 0.000325794 -2.94874e-05
0.000325794 -0.000166661 -2.24729e-05
-2.94874e-05 -2.24729e-05 -0.000303415
0.00189441 -9.50787e-05 1.63395e-05
-9.50787e-05 2.6211e-05 9.50402e-07
1.63395e-05 9.50402e-07 -7.40305e-05
0.00110299 2.8742e-06 -1.6396e-05
2.8742e-06 -0.00042326 1.4892e-06
-1.6396e-05 1.4892e-06 -0.000642579
0.000320017 0.000299611 6.0514e-05
0.000299611 -0.00185954 -1.92974e-05
6.0514e-05 -1.92974e-05 -0.00248725
0.000240536 -8.3599e-05 1.09482e-06
-8.3599e-05 -0.000471622 1.35401e-05
1.09482e-06 1.35401e-05 -0.000550952
0.00242999 -2.43729e-05 9.7622e-06
-2.43729e-05 -0.000103938 1.57719e-05
9.7622e-06 1.57719e-05 -0.000455038
0.00159269 -0.000103103 -3.40671e-06
-0.000103103 -1.90342e-05 -8.03855e-07
-3.40671e-06 -8.03855e-07 -8.12204e-05
0.00216531 -2.76013e-05 -3.92826e-06
-2.76013e-05 0.000171861 -8.03204e-07
-3.92826e-06 -8.03204e-07 0.000125031
0.00211663 -3.99117e-05 1.68437e-05
-3.99117e-05 0.000180095 -2.05856e-06
1.68437e-05 -2.05856e-06 0.00013989
0.00267228 -2.8929e-05 1.28455e-05
-2.8929e-05 0.000573755 2.05994e-07
1.28455e-05 2.05994e-07 0.000525911
0.00190122 -0.000214684 -6.11544e-06
-0.000214684 -1.62231e-05 6.1693e-07
-6.11544e-06 6.1693e-07 -2.93629e-05
0.00192823 -0.00010385 2.8082e-06
-0.00010385 2.38959e-05 -5.33409e-07
2.8082e-06 -5.33409e-07 2.96199e-06
0.00189646 -0.000109944 1.56303e-06
-0.000109944 9.6902e-05 2.63327e-07
1.56303e-06 2.63327e-07 5.21503e-05
0.00187959 -0.000181096 2.19146e-06
-0.000181096 3.69721e-05 9.43285e-07
2.19146e-06 9.43285e-07 -1.5428e-05
0.00181982 -0.000131265 6.978e-07
-0.000131265 5.63085e-05 -8.3701e-08
6.978e-07 -8.3701e-08 -3.28359e-07
0.00181075 -0.000119556 2.91873e-06
-0.000119556 0.000119477 2.85455e-07
2.91873e-06 2.85455e-07 4.45904e-05
0.00178629 -0.000166119 -1.61633e-06
-0.000166119 8.81978e-05 1.65905e-06
-1.61633e-06 1.65905e-06 8.86584e-06
0.00182107 -0.000141471 -1.25369e-06
-0.000141471 0.000143319 7.11559e-08
-1.25369e-06 7.11559e-08 5.79296e-05
0.00163448 -0.000123134 2.38386e-06
-0.000123134 7.83058e-05 2.19438e-07
2.38386e-06 2.19438e-07 -2.6781e-05
0.00161385 -0.000154701 -3.20739e-06
-0.000154701 5.76385e-05 1.34422e-06
-3.20739e-06 1.34422e-06 -4.0283e-05
0.00162315 -0.000141218 3.47883e-07
-0.000141218 9.6828e-05 -3.39756e-07
3.47883e-07 -3.39756e-07 -1.39879e-05
0.00156453 -0.000131144 1.00389e-06
-0.000131144 0.000103282 6.96539e-08
1.00389e-06 6.96539e-08 -2.03281e-05
0.0016864 -0.000150226 -3.81406e-06
-0.000150226 0.000145403 2.2804e-06
-3.81406e-06 2.2804e-06 3.0234e-05
0.00162077 -0.000145942 -1.81858e-07
-0.000145942 0.000148169 -3.74053e-07
-1.81858e-07 -3.74053e-07 2.1525e-05
0.00144433 -0.00013933 -2.2253e-06
-0.00013933 9.01695e-05 2.8173e-07
-2.2253e-06 2.8173e-07 -4.09517e-05
0.00164562 -0.000170529 2.22056e-06
-0.000170529 0.000174378 4.53364e-07
2.22056e-06 4.53364e-07 3.52778e-05
0.00146482 -0.000161949 6.43258e-07
-0.000161949 0.000121597 -3.96014e-07
6.43258e-07 -3.96014e-07 -1.81657e-05
0.00133428 -0.000149744 -5.85457e-06
-0.000149744 0.000107347 1.51612e-06
-5.85457e-06 1.51612e-06 -2.64952e-05
0.00098473 -0.000124027 -7.20318e-06
-0.000124027 4.14111e-05 4.36215e-06
-7.20318e-06 4.36215e-06 -7.39794e-05
0.00101344 -0.000150582 -1.55188e-06
-0.000150582 -1.30791e-05 7.83864e-07
-1.55188e-06 7.83864e-07 -0.000157289
0.00131173 -0.000174975 2.78025e-06
-0.000174975 9.51387e-05 6.46113e-09
2.78025e-06 6.46113e-09 -6.24223e-05
0.000553906 -7.71226e-05 -1.04447e-05
-7.71226e-05 -7.7541e-05 9.08388e-06
-1.04447e-05 9.08388e-06 -0.000138132
0.000909277 -0.000116278 3.85607e-07
-0.000116278 5.49111e-05 6.46243e-08
3.85607e-07 6.46243e-08 -5.80799e-05
0.00112926 -0.000158571 3.83266e-06
-0.000158571 0.000123723 -1.85125e-06
3.83266e-06 -1.85125e-06 -2.20712e-05
0.00359273 0.0001365 -7.58791e-05
0.0001365 0.00165968 2.78183e-06
-7.58791e-05 2.78183e-06 0.00165058
0.000638067 -4.17232e-05 -1.8023e-08
-4.17232e-05 -2.65546e-05 -1.65868e-07
-1.8023e-08 -1.65868e-07 -7.82159e-05
0.000964606 -0.000104729 4.87789e-06
-0.000104729 0.000122522 -3.27838e-06
4.87789e-06 -3.27838e-06 1.70172e-05
0.00332105 0.000115899 2.65556e-06
0.000115899 0.00150119 2.97738e-07
2.65556e-06 2.97738e-07 0.00149791
0.000684702 -7.28658e-06 7.23289e-06
-7.28658e-06 6.46604e-06 -6.71129e-06
7.23289e-06 -6.71129e-06 -3.6523e-05
0.00303274 9.86719e-05 6.85518e-05
9.86719e-05 0.00133646 -2.99539e-06
6.85518e-05 -2.99539e-06 0.001338
0.000961222 0.000155836 -6.83424e-07
0.000155836 6.45741e-05 -1.85273e-06
-6.83424e-07 -1.85273e-06 -8.54215e-05
0.00101163 0.00014877 -1.17028e-07
0.00014877 0.000151472 -1.23947e-06
-1.17028e-07 -1.23947e-06 1.60465e-05
0.00110994 0.000139821 -1.09641e-06
0.000139821 0.000206979 -1.47294e-06
-1.09641e-06 -1.47294e-06 8.58849e-05
0.00121625 0.000154527 -5.42616e-07
0.000154527 0.000288377 2.18007e-07
-5.42616e-07 2.18007e-07 0.000166944
0.000886279 8.30267e-05 -1.06725e-06
8.30267e-05 0.000104573 -6.97212e-07
-1.06725e-06 -6.97212e-07 -1.1506e-06
0.000780998 3.95292e-05 -2.29371e-06
3.95292e-05 5.77281e-05 -2.1654e-06
-2.29371e-06 -2.1654e-06 -2.83142e-05
0.000693566 2.81341e-05 -2.46396e-07
2.81341e-05 1.171e-05 3.97666e-07
-2.46396e-07 3.97666e-07 -8.48694e-05
0.00069 -2.19607e-05 -3.84922e-07
-2.19607e-05 7.72768e-06 -6.73357e-08
-3.84922e-07 -6.73357e-08 -6.36783e-05
0.000602048 -6.85493e-05 -1.37365e-07
-6.85493e-05 -2.12725e-05 -5.65076e-06
-1.37365e-07 -5.65076e-06 -5.53253e-05
0.000670921 -5.38195e-05 5.87711e-07
-5.38195e-05 -3.29693e-06 2.88503e-06
5.87711e-07 2.88503e-06 -6.45381e-05
0.000600789 -6.90357e-05 2.24226e-07
-6.90357e-05 -2.92396e-05 -1.11932e-07
2.24226e-07 -1.11932e-07 -5.7055e-05
0.00254393 -9.41912e-05 -4.47503e-05
-9.41912e-05 0.00106056 -2.36519e-06
-4.47503e-05 -2.36519e-06 0.00106529
0.000611661 -5.36308e-05 1.57511e-06
-5.36308e-05 -3.61885e-05 4.42103e-06
1.57511e-06 4.42103e-06 -5.7699e-05
0.00242078 -8.52655e-05 -9.1437e-07
-8.52655e-05 0.000985248 1.41785e-07
-9.1437e-07 1.41785e-07 0.000992296
0.00238485 -7.58836e-05 3.28653e-05
-7.58836e-05 0.000956849 3.35856e-06
3.28653e-05 3.35856e-06 0.000966164
0.000320787 2.40773e-05 9.68401e-06
2.40773e-05 -0.00056627 3.42858e-06
9.68401e-06 3.42858e-06 -0.000589711
0.0039006 3.87418e-05 1.04137e-05
3.87418e-05 0.000506118 1.06676e-05
1.04137e-05 1.06676e-05 0.000172079
0.00686252 0.000282598 -9.9201e-05
0.000282598 0.00195928 -2.62977e-05
-9.9201e-05 -2.62977e-05 0.000980324
0.000780007 0.000150059 2.76972e-06
0.000150059 -0.000104247 5.81397e-07
2.76972e-06 5.81397e-07 -0.000236673
0.00132504 0.000190616 3.71726e-06
0.000190616 6.46199e-05 -3.57164e-06
3.71726e-06 -3.57164e-06 -8.64274e-05
0.000917702 0.000161556 1.88415e-08
0.000161556 2.85964e-05 -1.99989e-06
1.88415e-08 -1.99989e-06 -0.00011731
0.00107723 0.000155272 -1.43416e-06
0.000155272 0.000241522 -5.18737e-07
-1.43416e-06 -5.18737e-07 0.000110443
0.000978431 0.000155585 -1.31464e-06
0.000155585 0.000145003 -9.27102e-07
-1.31464e-06 -9.27102e-07 1.743e-06
0.00116119 0.000179363 4.80091e-06
0.000179363 0.000179038 2.4023e-06
4.80091e-06 2.4023e-06 5.09423e-05
0.00212073 0.000282659 -6.80473e-06
0.000282659 0.000421644 -5.47047e-06
-6.80473e-06 -5.47047e-06 0.000273552
0.0016052 0.000216926 6.61053e-08
0.000216926 0.000409241 2.04281e-06
6.61053e-08 2.04281e-06 0.000277227
0.00131029 0.000232454 4.944e-06
0.000232454 7.86398e-05 1.22646e-05
4.944e-06 1.22646e-05 -6.8296e-05
0.00178562 0.00028833 -9.75005e-07
0.00028833 0.000207183 1.23353e-06
-9.75005e-07 1.23353e-06 5.37144e-05
0.00220802 0.000286482 -6.4955e-06
0.000286482 0.000322033 2.85597e-06
-6.4955e-06 2.85597e-06 0.000181816
0.00120637 0.000118005 1.4096e-05
0.000118005 -0.000232918 4.63332e-06
1.4096e-05 4.63332e-06 -0.000304091
0.00160267 0.000251006 8.2868e-06
0.000251006 4.33393e-05 2.18712e-06
8.2868e-06 2.18712e-06 -7.49705e-05
0.00117049 0.000284532 -6.17618e-06
0.000284532 -0.000151509 -4.91985e-06
-6.17618e-06 -4.91985e-06 -0.000312367
0.000996246 0.000155646 -4.57167e-06
0.000155646 -9.61454e-05 1.73333e-06
-4.57167e-06 1.73333e-06 -0.000105295
0.0048174 0.000129572 4.17432e-05
0.000129572 0.000527485 2.21591e-06
4.17432e-05 2.21591e-06 0.000113265
0.00110636 0.000259897 2.21015e-06
0.000259897 -2.90363e-05 -9.87759e-06
2.21015e-06 -9.87759e-06 -5.31571e-05
0.00140592 -2.75297e-05 1.28234e-05
-2.75297e-05 -6.11149e-05 1.46147e-06
1.28234e-05 1.46147e-06 -0.000108999
0.0020362 -4.90538e-05 -5.89915e-06
-4.90538e-05 0.000135615 -2.86094e-07
-5.89915e-06 -2.86094e-07 5.47141e-05
0.00233437 0.000130951 5.71867e-05
0.000130951 -1.94459e-05 -5.6115e-06
5.71867e-05 -5.6115e-06 -0.000292037
-0.0010378 -6.18941e-05 -1.51055e-05
-6.18941e-05 -0.00144236 9.22461e-06
-1.51055e-05 9.22461e-06 -0.00146341
0.00209202 -6.03115e-05 -5.3977e-05
-6.03115e-05 0.000131618 7.24734e-06
-5.3977e-05 7.24734e-06 7.68488e-05
0.00154671 -7.37467e-05 4.41268e-07
-7.37467e-05 -0.000164492 1.87966e-06
4.41268e-07 1.87966e-06 -0.000192048
0.00225966 -4.28859e-05 -1.62707e-06
-4.28859e-05 0.000303887 3.1474e-07
-1.62707e-06 3.1474e-07 0.00025387
0.00188855 -0.000116779 5.72761e-06
-0.000116779 3.70212e-05 8.8962e-07
5.72761e-06 8.8962e-07 -9.29888e-07
0.00182397 -3.30669e-05 2.74717e-06
-3.30669e-05 2.09882e-05 3.58115e-08
2.74717e-06 3.58115e-08 -4.0347e-05
0.0020894 -0.000114501 -1.63138e-06
-0.000114501 9.33127e-05 -6.32511e-08
-1.63138e-06 -6.32511e-08 7.21423e-05
0.00179896 -0.000108418 -1.64176e-06
-0.000108418 3.79771e-05 1.02431e-07
-1.64176e-06 1.02431e-07 -4.59038e-06
0.00190595 -0.000110076 3.08413e-06
-0.000110076 0.000123921 2.68786e-07
3.08413e-06 2.68786e-07 5.85441e-05
0.00192376 -0.000143741 -2.45557e-06
-0.000143741 0.0001085 -2.62575e-07
-2.45557e-06 -2.62575e-07 4.77674e-05
0.00176243 -0.000119175 -5.65204e-08
-0.000119175 9.48732e-05 -1.87204e-07
-5.65204e-08 -1.87204e-07 1.77733e-05
0.0017135 -0.000104302 2.25145e-06
-0.000104302 8.91101e-05 1.20674e-07
2.25145e-06 1.20674e-07 -6.66583e-06
0.00169839 -0.00014361 -5.76173e-06
-0.00014361 7.82068e-05 1.07551e-07
-5.76173e-06 1.07551e-07 -8.32989e-06
0.00166046 -0.000122963 1.19644e-07
-0.000122963 9.4026e-05 -2.90304e-08
1.19644e-07 -2.90304e-08 -1.09005e-05
0.00161252 -0.000111957 8.46437e-07
-0.000111957 0.000106987 2.3539e-07
8.46437e-07 2.3539e-07 -1.3514e-05
0.00163558 -0.000141387 -2.6255e-06
-0.000141387 0.000105799 -4.30694e-08
-2.6255e-06 -4.30694e-08 -4.91156e-06
0.00157981 -0.000131163 1.03371e-07
-0.000131163 0.000109692 -9.73032e-08
1.03371e-07 -9.73032e-08 -1.37311e-05
0.00149227 -0.000126365 -1.72672e-06
-0.000126365 0.000103083 7.76933e-07
-1.72672e-06 7.76933e-07 -2.61469e-05
0.00156602 -0.000142684 -5.19496e-07
-0.000142684 0.000115199 5.2032e-07
-5.19496e-07 5.2032e-07 -1.03514e-05
0.00140324 -0.000137985 -2.69548e-07
-0.000137985 6.70546e-05 -2.6687e-07
-2.69548e-07 -2.6687e-07 -6.40558e-05
0.00134961 -0.000133394 -5.62222e-06
-0.000133394 9.11631e-05 1.55802e-06
-5.62222e-06 1.55802e-06 -3.65441e-05
0.00131716 -0.000155356 3.82922e-06
-0.000155356 3.82842e-05 -2.79401e-07
3.82922e-06 -2.79401e-07 -0.000101697
0.00113634 -0.000139958 1.16462e-07
-0.000139958 -9.96943e-07 -8.58453e-08
1.16462e-07 -8.58453e-08 -0.00013476
0.00105061 -0.000119804 -9.15735e-06
-0.000119804 3.12801e-05 4.17258e-06
-9.15735e-06 4.17258e-06 -7.97857e-05
0.000481185 -0.000109492 -1.44766e-05
-0.000109492 -0.000137247 9.72459e-06
-1.44766e-05 9.72459e-06 -0.000202022
0.000977889 -0.000124643 4.34334e-07
-0.000124643 3.81621e-05 2.79664e-07
4.34334e-07 2.79664e-07 -7.74028e-05
0.00113906 -0.000156287 3.24952e-06
-0.000156287 6.00356e-05 -6.54201e-07
3.24952e-06 -6.54201e-07 -8.39658e-05
0.00394737 0.000154136 -8.29413e-05
0.000154136 0.00186902 3.69036e-06
-8.29413e-05 3.69036e-06 0.00185325
0.000649672 -7.29523e-05 2.23617e-08
-7.29523e-05 -2.91341e-05 1.31638e-07
2.23617e-08 1.31638e-07 -9.02517e-05
0.000983267 -0.000122217 5.85713e-06
-0.000122217 9.63183e-05 -3.64416e-06
5.85713e-06 -3.64416e-06 -1.77558e-05
0.00370792 0.000128609 4.37629e-06
0.000128609 0.00172316 4.46635e-07
4.37629e-06 4.46635e-07 0.00171483
0.000755503 -4.41169e-05 9.59727e-06
-4.41169e-05 3.37307e-05 -7.94473e-06
9.59727e-06 -7.94473e-06 -1.84821e-05
0.00342433 0.000106427 8.28223e-05
0.000106427 0.00155645 -3.37042e-06
8.28223e-05 -3.37042e-06 0.00155439
0.000637824 0.000144694 -1.50481e-06
0.000144694 -0.000220713 -9.33229e-07
-1.50481e-06 -9.33229e-07 -0.000376262
0.00071365 0.000141074 -2.41416e-07
0.000141074 -7.33935e-05 1.36966e-07
-2.41416e-07 1.36966e-07 -0.000223102
0.0011277 0.000150902 -2.64179e-06
0.000150902 0.000169949 -1.90375e-06
-2.64179e-06 -1.90375e-06 3.46828e-05
0.000927582 0.000142754 -5.10604e-07
0.000142754 0.000106418 2.8436e-07
-5.10604e-07 2.8436e-07 -2.81628e-05
0.000985307 0.000130481 -3.39814e-07
0.000130481 0.000140368 -4.54473e-07
-3.39814e-07 -4.54473e-07 2.06532e-05
0.000920988 7.60099e-05 -3.69066e-06
7.60099e-05 0.000124417 -2.24788e-06
-3.69066e-06 -2.24788e-06 2.78363e-05
0.000882937 8.73848e-05 -4.73967e-08
8.73848e-05 0.000101706 -4.27467e-07
-4.73967e-08 -4.27467e-07 -3.13094e-06
0.00074589 2.46414e-05 -1.87843e-07
2.46414e-05 4.04718e-05 1.23555e-07
-1.87843e-07 1.23555e-07 -4.5142e-05
0.000627032 -3.74225e-05 -4.07075e-06
-3.74225e-05 -1.2903e-05 -5.80921e-06
-4.07075e-06 -5.80921e-06 -5.2151e-05
0.000687964 -4.87844e-05 3.40346e-07
-4.87844e-05 8.73536e-06 3.06752e-06
3.40346e-07 3.06752e-06 -6.2711e-05
0.000568312 -7.57401e-05 -2.67832e-07
-7.57401e-05 -3.83885e-05 -1.72179e-07
-2.67832e-07 -1.72179e-07 -7.34108e-05
0.00274422 -0.000103271 -5.42358e-05
-0.000103271 0.00117614 -2.21143e-06
-5.42358e-05 -2.21143e-06 0.00117818
0.000575164 -6.41108e-05 1.03266e-06
-6.41108e-05 -4.5727e-05 4.74176e-06
1.03266e-06 4.74176e-06 -7.21216e-05
0.00250787 -9.46928e-05 -9.41811e-07
-9.46928e-05 0.0010405 1.38761e-07
-9.41811e-07 1.38761e-07 0.00104511
0.00240794 -8.46172e-05 3.62438e-05
-8.46172e-05 0.000977445 2.97305e-06
3.62438e-05 2.97305e-06 0.000984632
0.00137023 4.32914e-05 8.40513e-06
4.32914e-05 -0.000147314 1.90325e-06
8.40513e-06 1.90325e-06 -0.000199825
0.00147512 -7.22127e-06 -2.94964e-06
-7.22127e-06 -6.73162e-05 3.31713e-06
-2.94964e-06 3.31713e-06 -0.000120271
0.00274921 -4.11806e-06 6.2685e-05
-4.11806e-06 -0.000104677 -4.40077e-07
6.2685e-05 -4.40077e-07 -0.000327996
0.00169242 0.0002181 -6.43665e-07
0.0002181 0.000195895 -5.48264e-06
-6.43665e-07 -5.48264e-06 5.25365e-05
0.000762099 0.000153458 -1.3037e-06
0.000153458 -9.20357e-05 1.27611e-06
-1.3037e-06 1.27611e-06 -0.00021294
0.00158496 0.000189746 -1.95822e-06
0.000189746 0.000101792 1.23534e-06
-1.95822e-06 1.23534e-06 -3.82618e-05
0.00167723 0.000210902 9.20368e-07
0.000210902 0.000254894 3.33872e-07
9.20368e-07 3.33872e-07 0.000101106
0.000450166 0.000135114 -4.58447e-06
0.000135114 -0.000217346 1.47414e-06
-4.58447e-06 1.47414e-06 -0.000358747
0.0017747 0.000229171 -3.96698e-06
0.000229171 0.000103262 1.77209e-06
-3.96698e-06 1.77209e-06 -3.49617e-05
0.0015839 0.000210408 -4.7486e-07
0.000210408 0.000391237 9.82747e-07
-4.7486e-07 9.82747e-07 0.000258049
0.00199766 0.000274995 -8.06492e-08
0.000274995 0.000346124 -2.71456e-06
-8.06492e-08 -2.71456e-06 0.000194634
0.00180541 0.000156847 -4.51616e-06
0.000156847 7.07054e-05 1.79967e-06
-4.51616e-06 1.79967e-06 -3.28909e-05
0.00201673 0.000299083 3.67429e-06
0.000299083 0.000335727 3.77021e-06
3.67429e-06 3.77021e-06 0.000183417
0.00204661 0.00027969 -1.17628e-06
0.00027969 0.000233454 8.90389e-08
-1.17628e-06 8.90389e-08 9.38976e-05
0.00126134 0.000129369 -7.08837e-07
0.000129369 -0.000181457 7.79165e-08
-7.08837e-07 7.79165e-08 -0.000253366
0.00117564 0.0002264 -3.97514e-06
0.0002264 -0.000161152 -4.06587e-06
-3.97514e-06 -4.06587e-06 -0.000281744
0.00130457 0.000142906 -2.06004e-05
0.000142906 5.80193e-05 -2.56099e-06
-2.06004e-05 -2.56099e-06 4.17314e-05
0.00168744 9.56501e-06 -1.32692e-07
9.56501e-06 -4.67347e-05 5.06791e-07
-1.32692e-07 5.06791e-07 -0.000113397
0.00193869 -7.72997e-06 -1.65664e-06
-7.72997e-06 0.000238156 -2.543e-07
-1.65664e-06 -2.543e-07 0.000189833
0.00172539 4.50954e-07 -3.94282e-05
4.50954e-07 6.10198e-06 -1.28232e-06
-3.94282e-05 -1.28232e-06 -7.60786e-05
0.00089743 -0.000104004 -1.01705e-05
-0.000104004 -0.000565055 1.15412e-06
-1.01705e-05 1.15412e-06 -0.000580607
0.00162986 -5.67646e-05 -7.45695e-06
-5.67646e-05 -8.3282e-05 -6.58873e-07
-7.45695e-06 -6.58873e-07 -0.000135272
0.00197861 -0.000111218 -8.52331e-07
-0.000111218 9.08097e-05 1.80014e-07
-8.52331e-07 1.80014e-07 5.2451e-05
0.00185325 -3.41114e-05 1.07747e-06
-3.41114e-05 3.44789e-05 -1.05534e-07
1.07747e-06 -1.05534e-07 -2.61045e-05
0.00180464 -5.6019e-05 7.0243e-07
-5.6019e-05 3.64661e-05 -2.75172e-07
7.0243e-07 -2.75172e-07 -3.27495e-05
0.00166531 -0.000106506 -3.04809e-06
-0.000106506 -4.02994e-05 -8.60559e-07
-3.04809e-06 -8.60559e-07 -8.0963e-05
0.00184626 -0.000106303 5.49548e-07
-0.000106303 9.73941e-05 -1.69953e-08
5.49548e-07 -1.69953e-08 2.97926e-05
0.00183997 -8.80241e-05 1.30145e-06
-8.80241e-05 0.000117372 -3.90667e-07
1.30145e-06 -3.90667e-07 2.87869e-05
0.00173099 -0.000119837 -4.06823e-06
-0.000119837 7.9008e-05 -2.49797e-07
-4.06823e-06 -2.49797e-07 -2.71714e-07
0.00169205 -0.000104479 -5.40947e-08
-0.000104479 8.12141e-05 7.69313e-08
-5.40947e-08 7.69313e-08 -1.63942e-05
0.00167776 -8.75408e-05 8.94844e-07
-8.75408e-05 0.000111807 4.60483e-08
8.94844e-07 4.60483e-08 -5.01921e-06
0.0016875 -0.000122741 -2.26872e-06
-0.000122741 0.000110205 -2.47006e-07
-2.26872e-06 -2.47006e-07 5.44616e-06
0.00161549 -0.000111041 -4.7899e-09
-0.000111041 0.000107314 4.81327e-08
-4.7899e-09 4.81327e-08 -1.30321e-05
0.00152999 -0.000105096 -1.63367e-06
-0.000105096 0.000109149 6.63787e-07
-1.63367e-06 6.63787e-07 -1.84961e-05
0.001594 -0.000131203 -7.4585e-07
-0.000131203 0.000115481 -2.48516e-07
-7.4585e-07 -2.48516e-07 -7.76292e-06
0.00150465 -0.000126271 2.1182e-08
-0.000126271 0.000109269 -2.99954e-09
2.1182e-08 -2.99954e-09 -1.98217e-05
0.00137107 -0.000117982 -5.06001e-06
-0.000117982 8.68725e-05 1.70149e-06
-5.06001e-06 1.70149e-06 -3.84451e-05
0.00135784 -0.000136396 1.99084e-06
-0.000136396 4.15618e-05 -6.4288e-07
1.99084e-06 -6.4288e-07 -8.95117e-05
0.00132683 -0.00013156 -1.1463e-07
-0.00013156 7.9349e-05 -6.18573e-08
-1.1463e-07 -6.18573e-08 -4.8155e-05
0.00108207 -0.000107739 -1.01087e-05
-0.000107739 2.45149e-05 4.04476e-06
-1.01087e-05 4.04476e-06 -8.24218e-05
0.000932185 -0.000129738 5.23728e-06
-0.000129738 -0.000112658 -1.15832e-06
5.23728e-06 -1.15832e-06 -0.000246308
0.00103375 -0.000118354 3.08513e-07
-0.000118354 2.24563e-05 1.07449e-07
3.08513e-07 1.07449e-07 -8.85241e-05
0.00213488 -3.5186e-05 -1.02513e-05
-3.5186e-05 0.000779823 6.86268e-06
-1.02513e-05 6.86268e-06 0.000715502
0.00120204 -5.39965e-06 -0.000105435
-5.39965e-06 0.000313936 1.06316e-05
-0.000105435 1.06316e-05 0.000294513
0.00143384 -6.78671e-05 1.49498e-06
-6.78671e-05 0.000396993 1.4203e-07
1.49498e-06 1.4203e-07 0.000330281
0.000974891 -0.00012545 7.53832e-06
-0.00012545 3.73924e-05 -3.58474e-06
7.53832e-06 -3.58474e-06 -7.84286e-05
0.00412429 0.00013396 8.06565e-06
0.00013396 0.00196469 6.67106e-07
8.06565e-06 6.67106e-07 0.00195102
0.000779836 -9.23045e-05 1.30319e-05
-9.23045e-05 3.67699e-05 -9.20391e-06
1.30319e-05 -9.20391e-06 -2.53558e-05
0.0037905 0.000104727 9.9287e-05
0.000104727 0.00176631 -4.46918e-06
9.9287e-05 -4.46918e-06 0.00176081
0.00187767 0.000167315 -1.74091e-07
0.000167315 0.000244443 4.64743e-07
-1.74091e-07 4.64743e-07 0.000114503
0.00115253 0.000166348 -1.27738e-06
0.000166348 -4.05946e-05 1.63167e-06
-1.27738e-06 1.63167e-06 -0.000185353
0.00094786 0.000164006 -1.57368e-07
0.000164006 -5.85349e-05 -1.07321e-07
-1.57368e-07 -1.07321e-07 -0.000216765
0.00111562 0.000155307 -3.83916e-06
0.000155307 9.89459e-05 -1.80271e-06
-3.83916e-06 -1.80271e-06 -4.50622e-05
0.000469382 0.00012655 2.88178e-07
0.00012655 -0.000209424 2.53145e-06
2.88178e-07 2.53145e-06 -0.000358909
0.00104104 0.000144202 -5.32723e-07
0.000144202 0.000125213 -9.80222e-08
-5.32723e-07 -9.80222e-08 -9.14354e-06
0.000986695 0.000106902 -4.89652e-06
0.000106902 0.00013052 -2.75273e-06
-4.89652e-06 -2.75273e-06 2.57221e-05
0.000868693 0.000121603 1.03584e-06
0.000121603 7.81222e-05 8.60745e-07
1.03584e-06 8.60745e-07 -4.02625e-05
0.000799952 6.71034e-05 -2.97368e-07
6.71034e-05 5.89011e-05 -3.73676e-09
-2.97368e-07 -3.73676e-09 -3.62644e-05
0.000712319 1.49764e-05 -7.41877e-06
1.49764e-05 2.30024e-05 -6.57641e-06
-7.41877e-06 -6.57641e-06 -2.33671e-05
0.000717252 9.42744e-06 1.11472e-06
9.42744e-06 2.41102e-05 2.14474e-06
1.11472e-06 2.14474e-06 -5.93427e-05
0.000563695 -4.82327e-05 -4.82842e-07
-4.82327e-05 -4.63537e-05 -2.43454e-07
-4.82842e-07 -2.43454e-07 -8.54801e-05
0.00301818 -0.000111159 -6.7476e-05
-0.000111159 0.00133299 -2.25849e-06
-6.7476e-05 -2.25849e-06 0.00133174
0.000523194 -7.85067e-05 -7.73927e-07
-7.85067e-05 -6.27537e-05 5.5522e-06
-7.73927e-07 5.5522e-06 -9.80504e-05
0.00267 -0.0001052 -1.31069e-06
-0.0001052 0.00113578 1.57326e-07
-1.31069e-06 1.57326e-07 0.00113745
0.0024744 -9.4289e-05 3.96752e-05
-9.4289e-05 0.00102169 2.54515e-06
3.96752e-05 2.54515e-06 0.00102641
0.00182057 8.50773e-05 -1.92908e-06
8.50773e-05 3.37008e-05 1.44613e-06
-1.92908e-06 1.44613e-06 -4.55166e-05
0.00183643 3.93069e-05 2.06836e-06
3.93069e-05 0.000106079 -6.16732e-07
2.06836e-06 -6.16732e-07 5.57332e-05
0.00314078 -3.39903e-05 -3.33333e-05
-3.39903e-05 0.000684651 -6.09828e-06
-3.33333e-05 -6.09828e-06 0.00059975
0.00172954 0.000191617 -3.04298e-06
0.000191617 0.000104961 7.15057e-07
-3.04298e-06 7.15057e-07 -2.9463e-05
0.00170159 0.00021716 -2.94958e-06
0.00021716 0.000225321 1.19635e-07
-2.94958e-06 1.19635e-07 8.48866e-05
0.00076405 0.000158257 -1.14974e-05
0.000158257 -7.01297e-05 3.66879e-06
-1.14974e-05 3.66879e-06 -0.00017969
0.0018045 0.000195571 1.7803e-06
0.000195571 0.000221059 1.95447e-07
1.7803e-06 1.95447e-07 8.10018e-05
0.00204018 0.000231783 -1.58578e-06
0.000231783 0.000451736 1.8935e-08
-1.58578e-06 1.8935e-08 0.0002951
0.00209287 0.000156253 -3.11757e-06
0.000156253 0.000222434 1.56379e-06
-3.11757e-06 1.56379e-06 0.00011987
0.00170873 0.000229134 -1.31966e-06
0.000229134 6.8462e-05 5.99924e-07
-1.31966e-06 5.99924e-07 -7.08728e-05
0.00192305 0.000270314 2.58556e-06
0.000270314 0.000295493 5.72663e-07
2.58556e-06 5.72663e-07 0.000140196
0.00182033 0.00015701 -4.50543e-07
0.00015701 7.39952e-05 1.22884e-07
-4.50543e-07 1.22884e-07 -2.96725e-05
0.00204175 0.000279749 5.90565e-06
0.000279749 0.000220533 -6.51426e-07
5.90565e-06 -6.51426e-07 8.14267e-05
0.00149777 0.000142361 -1.71791e-05
0.000142361 -5.18079e-05 -5.52331e-06
-1.71791e-05 -5.52331e-06 -0.000123432
0.00196212 1.49749e-05 6.90192e-07
1.49749e-05 0.000119153 1.48006e-07
6.90192e-07 1.48006e-07 4.86145e-05
0.00180144 1.37812e-05 2.2532e-07
1.37812e-05 1.70248e-05 -3.54405e-07
2.2532e-07 -3.54405e-07 -4.87313e-05
0.00252356 1.20627e-05 -1.99538e-05
1.20627e-05 0.000564482 -1.78554e-06
-1.99538e-05 -1.78554e-06 0.000515137
0.00215304 -0.000107086 -1.05255e-05
-0.000107086 0.000188533 -7.91402e-07
-1.05255e-05 -7.91402e-07 0.000149521
0.00193272 -3.45285e-05 -1.82829e-06
-3.45285e-05 7.38917e-05 -2.24891e-07
-1.82829e-06 -2.24891e-07 1.38871e-05
0.00182008 -5.5828e-05 6.39073e-07
-5.5828e-05 3.69655e-05 4.46343e-08
6.39073e-07 4.46343e-08 -2.87348e-05
0.00186501 -3.70129e-05 5.34222e-08
-3.70129e-05 0.000105672 -2.09454e-07
5.34222e-08 -2.09454e-07 1.72255e-05
0.00180707 -0.000103123 -9.07693e-07
-0.000103123 8.15434e-05 -1.87983e-07
-9.07693e-07 -1.87983e-07 1.16996e-05
0.0018232 -8.77915e-05 -3.68046e-07
-8.77915e-05 0.000114114 -1.92995e-07
-3.68046e-07 -1.92995e-07 2.48046e-05
0.00174848 -6.73525e-05 1.9601e-06
-6.73525e-05 0.000114087 -9.91902e-07
1.9601e-06 -9.91902e-07 1.54801e-06
0.00166657 -0.000104617 -2.3007e-06
-0.000104617 7.11186e-05 1.21296e-07
-2.3007e-06 1.21296e-07 -2.83295e-05
0.0016665 -8.73602e-05 -1.77835e-07
-8.73602e-05 0.000105848 1.00009e-07
-1.77835e-07 1.00009e-07 -1.08708e-05
0.00159405 -7.65962e-05 -1.4043e-06
-7.65962e-05 0.000125193 5.16203e-07
-1.4043e-06 5.16203e-07 -1.05574e-06
0.00161835 -0.000110022 -5.73131e-07
-0.000110022 0.000107634 -1.59437e-07
-5.73131e-07 -1.59437e-07 -1.25421e-05
0.00152507 -0.000104492 -9.73393e-08
-0.000104492 0.000105291 7.89544e-08
-9.73393e-08 7.89544e-08 -2.22318e-05
0.00139313 -9.87184e-05 -4.90217e-06
-9.87184e-05 8.50655e-05 1.5303e-06
-4.90217e-06 1.5303e-06 -3.96151e-05
0.00151721 -0.000126224 1.83746e-06
-0.000126224 0.000115583 -7.61091e-07
1.83746e-06 -7.61091e-07 -1.33785e-05
0.00136519 -0.000116917 -2.79774e-08
-0.000116917 8.36984e-05 5.14018e-08
-2.79774e-08 5.14018e-08 -4.14709e-05
0.00110294 -9.54369e-05 -1.02856e-05
-9.54369e-05 2.20067e-05 3.77253e-06
-1.02856e-05 3.77253e-06 -8.36359e-05
0.00130539 -0.000129791 5.22459e-06
-0.000129791 6.82069e-05 -1.65407e-06
5.22459e-06 -1.65407e-06 -5.90912e-05
0.00107099 -0.000105985 2.3503e-07
-0.000105985 1.77285e-05 -6.02057e-09
2.3503e-07 -6.02057e-09 -8.89505e-05
0.00221154 -5.19986e-05 -1.70692e-05
-5.19986e-05 0.00080188 5.5643e-06
-1.70692e-05 5.5643e-06 0.000745462
0.00100798 -0.000116776 9.07838e-06
-0.000116776 8.89001e-06 -3.84555e-06
9.07838e-06 -3.84555e-06 -0.000102037
0.00232431 -8.54912e-05 2.86922e-05
-8.54912e-05 0.000871604 -2.27069e-06
2.86922e-05 -2.27069e-06 0.00081472
0.00152293 -4.62257e-05 -0.0001245
-4.62257e-05 0.000492887 1.3767e-05
-0.0001245 1.3767e-05 0.00047247
0.00284643 2.97337e-05 -0.0001096
2.97337e-05 0.001245 3.46855e-06
-0.0001096 3.46855e-06 0.00122927
0.00241592 -0.000111765 6.96725e-05
-0.000111765 0.000933367 -8.89106e-06
6.96725e-05 -8.89106e-06 0.000879263
0.00428051 9.65656e-05 0.000115259
9.65656e-05 0.00204794 -7.18865e-06
0.000115259 -7.18865e-06 0.00203717
0.00175963 0.000150508 -2.40538e-06
0.000150508 0.000151588 -1.77387e-07
-2.40538e-06 -1.77387e-07 2.46222e-05
0.00181106 0.000174129 1.05992e-06
0.000174129 0.000276988 2.71675e-07
1.05992e-06 2.71675e-07 0.000144681
0.00171463 0.000162796 9.51401e-07
0.000162796 0.000158117 2.93824e-07
9.51401e-07 2.93824e-07 2.92787e-05
0.00113655 0.000155296 -5.44764e-06
0.000155296 3.01104e-05 -5.06303e-08
-5.44764e-06 -5.06303e-08 -0.000110579
0.00128808 0.000174087 -1.82187e-07
0.000174087 3.0357e-05 5.90318e-07
-1.82187e-07 5.90318e-07 -0.00011523
0.00124176 0.000182567 1.97224e-06
0.000182567 9.50135e-05 8.70243e-07
1.97224e-06 8.70243e-07 -6.58442e-05
0.00113456 0.000157023 -4.8101e-07
0.000157023 0.000110701 9.79947e-08
-4.8101e-07 9.79947e-08 -3.39337e-05
0.00098084 0.000121759 -6.29592e-06
0.000121759 8.11049e-05 -3.76078e-06
-6.29592e-06 -3.76078e-06 -3.23011e-05
0.000951355 0.000137287 1.63497e-06
0.000137287 7.87898e-05 1.75652e-06
1.63497e-06 1.75652e-06 -5.46294e-05
0.000860838 9.87128e-05 -3.47193e-07
9.87128e-05 6.17621e-05 -9.12139e-08
-3.47193e-07 -9.12139e-08 -4.15479e-05
0.000775838 5.89875e-05 -1.01866e-05
5.89875e-05 4.93185e-05 -7.743e-06
-1.01866e-05 -7.743e-06 -6.8609e-06
0.00067219 5.87403e-05 1.8799e-06
5.87403e-05 -1.07671e-05 1.70739e-06
1.8799e-06 1.70739e-06 -0.000104145
0.000603462 -7.28789e-06 2.50043e-07
-7.28789e-06 -3.18295e-05 -2.38074e-07
2.50043e-07 -2.38074e-07 -7.8315e-05
0.00336187 -0.000106831 -8.68686e-05
-0.000106831 0.00153223 -3.21132e-06
-8.68686e-05 -3.21132e-06 0.00152809
0.000498225 -7.46892e-05 -1.32769e-06
-7.46892e-05 -7.4121e-05 6.44259e-06
-1.32769e-06 6.44259e-06 -0.000117296
0.00295029 -0.000118299 -2.16632e-06
-0.000118299 0.00129648 2.56723e-07
-2.16632e-06 2.56723e-07 0.00129409
0.00262606 -0.000105685 4.44277e-05
-0.000105685 0.00111161 2.16196e-06
4.44277e-05 2.16196e-06 0.00111334
0.00189498 8.52127e-05 -9.85589e-07
8.52127e-05 8.48933e-05 1.24411e-06
-9.85589e-07 1.24411e-06 9.03126e-07
0.00178686 8.42907e-05 7.63308e-07
8.42907e-05 2.2168e-05 -1.65394e-07
7.63308e-07 -1.65394e-07 -5.6949e-05
0.00211677 3.30581e-05 -3.00168e-05
3.30581e-05 0.000280317 -4.69541e-06
-3.00168e-05 -4.69541e-06 0.000232587
0.00189 0.000139299 2.85938e-07
0.000139299 0.000141715 1.44477e-06
2.85938e-07 1.44477e-06 2.87634e-05
0.00174644 0.000188228 -8.40354e-07
0.000188228 0.000119172 -2.87401e-07
-8.40354e-07 -2.87401e-07 -1.42813e-05
0.00170275 0.00021549 -1.90861e-06
0.00021549 0.000250118 1.44565e-06
-1.90861e-06 1.44565e-06 0.000112755
0.00200873 0.000200629 1.18909e-06
0.000200629 0.000331755 -8.54346e-07
1.18909e-06 -8.54346e-07 0.000191751
0.00191655 0.000149724 2.38482e-07
0.000149724 0.000126931 -3.74994e-08
2.38482e-07 -3.74994e-08 2.30658e-05
0.00163137 0.000228577 6.70202e-08
0.000228577 2.88757e-05 -1.02164e-06
6.70202e-08 -1.02164e-06 -0.000111522
0.00178135 0.000155277 5.27734e-06
0.000155277 6.13104e-05 -1.49346e-06
5.27734e-06 -1.49346e-06 -4.24639e-05
0.00185051 1.94433e-05 1.83181e-06
1.94433e-05 8.90302e-05 4.5108e-07
1.83181e-06 4.5108e-07 3.75497e-06
0.00189391 1.52473e-05 -4.19435e-07
1.52473e-05 8.3964e-05 -2.10907e-08
-4.19435e-07 -2.10907e-08 1.15553e-05
0.00188382 1.7639e-05 -2.71925e-06
1.7639e-05 6.75267e-05 -1.29392e-06
-2.71925e-06 -1.29392e-06 2.80441e-06
0.00167236 -6.89359e-06 -3.30867e-07
-6.89359e-06 1.45994e-05 7.29405e-08
-3.30867e-07 7.29405e-08 -8.13683e-05
0.00183157 -5.51628e-05 -1.16731e-06
-5.51628e-05 3.67457e-05 2.08346e-07
-1.16731e-06 2.08346e-07 -2.53543e-05
0.00186136 -3.80587e-05 -2.72518e-07
-3.80587e-05 0.000103381 3.98798e-07
-2.72518e-07 3.98798e-07 1.47324e-05
0.00190056 -3.7565e-05 9.07866e-07
-3.7565e-05 0.000172963 -6.95277e-07
9.07866e-07 -6.95277e-07 6.71011e-05
0.00180614 -8.77041e-05 -2.2984e-06
-8.77041e-05 0.000110624 2.73451e-07
-2.2984e-06 2.73451e-07 2.06099e-05
0.00174618 -6.73111e-05 5.28947e-07
-6.73111e-05 0.000112539 -3.88006e-07
5.28947e-07 -3.88006e-07 1.30971e-07
0.00163389 -4.81923e-05 -1.36744e-06
-4.81923e-05 0.000119829 1.66088e-07
-1.36744e-06 1.66088e-07 -5.24708e-06
0.00166071 -8.66472e-05 -6.71052e-07
-8.66472e-05 0.000102982 1.20629e-07
-6.71052e-07 1.20629e-07 -1.35752e-05
0.00155092 -7.4769e-05 -9.19929e-08
-7.4769e-05 9.94994e-05 -4.05954e-08
-9.19929e-08 -4.05954e-08 -2.66748e-05
0.00142224 -7.54215e-05 -4.78805e-06
-7.54215e-05 8.69711e-05 1.50717e-06
-4.78805e-06 1.50717e-06 -3.83388e-05
0.00152145 -0.000103857 1.69744e-06
-0.000103857 0.000102118 -5.33649e-07
1.69744e-06 -5.33649e-07 -2.52721e-05
0.00138933 -9.77489e-05 -6.41882e-08
-9.77489e-05 8.28698e-05 1.27458e-08
-6.41882e-08 1.27458e-08 -4.16486e-05
0.00111655 -8.07515e-05 -1.03003e-05
-8.07515e-05 1.7793e-05 3.1488e-06
-1.03003e-05 3.1488e-06 -8.77506e-05
0.00135674 -0.000115702 5.12732e-06
-0.000115702 7.91214e-05 -1.62088e-06
5.12732e-06 -1.62088e-06 -4.58842e-05
0.00110171 -9.33824e-05 1.78719e-07
-9.33824e-05 2.00916e-05 1.35428e-07
1.78719e-07 1.35428e-07 -8.51373e-05
0.0022791 -7.15287e-05 -2.41321e-05
-7.15287e-05 0.000825294 4.69388e-06
-2.41321e-05 4.69388e-06 0.000773814
0.00105615 -0.000104205 9.92141e-06
-0.000104205 8.82376e-06 -4.04458e-06
9.92141e-06 -4.04458e-06 -9.75859e-05
0.00234582 -9.23464e-05 2.55442e-05
-9.23464e-05 0.000868862 -2.40332e-06
2.55442e-05 -2.40332e-06 0.000817121
0.00161006 -4.17047e-05 -0.000122592
-4.17047e-05 0.000539313 1.26527e-05
-0.000122592 1.26527e-05 0.000518939
0.00248496 -0.000116816 7.64589e-05
-0.000116816 0.00095286 -1.11016e-05
7.64589e-05 -1.11016e-05 0.000899918
0.00142448 2.70294e-05 -6.39277e-05
2.70294e-05 0.000455366 4.25572e-06
-6.39277e-05 4.25572e-06 0.000423559
0.00437056 0.000273789 -7.48024e-06
0.000273789 0.00214385 -4.58528e-06
-7.48024e-06 -4.58528e-06 0.00209818
0.00169549 0.000121807 4.59456e-08
0.000121807 9.7418e-05 6.00063e-07
4.59456e-08 6.00063e-07 -2.60022e-05
0.0016456 0.000137692 -1.47656e-06
0.000137692 0.000154975 -5.2039e-07
-1.47656e-06 -5.2039e-07 2.61405e-05
0.0017575 0.000152402 -2.08878e-06
0.000152402 0.000151253 1.82619e-08
-2.08878e-06 1.82619e-08 2.38453e-05
0.00168405 0.000164243 -3.48573e-06
0.000164243 0.000277279 -4.4099e-07
-3.48573e-06 -4.4099e-07 0.000148239
0.00150886 0.000162785 6.24924e-07
0.000162785 0.000109031 -2.66097e-07
6.24924e-07 -2.66097e-07 -2.27104e-05
0.00156186 0.000158922 3.89643e-06
0.000158922 7.74737e-05 -1.03857e-07
3.89643e-06 -1.03857e-07 -5.02544e-05
0.000983942 0.000125706 -8.77786e-06
0.000125706 2.07619e-05 -3.19572e-06
-8.77786e-06 -3.19572e-06 -9.50252e-05
0.00124255 0.000162382 -4.70577e-07
0.000162382 8.69242e-05 8.23194e-07
-4.70577e-07 8.23194e-07 -5.49152e-05
0.00144115 0.000182603 3.45633e-06
0.000182603 0.000110475 -1.86658e-07
3.45633e-06 -1.86658e-07 -3.59541e-05
0.00115223 0.000158824 3.49522e-06
0.000158824 0.000121841 2.30688e-06
3.49522e-06 2.30688e-06 -2.34543e-05
0.000927648 0.000117494 -4.57228e-07
0.000117494 5.18352e-05 -1.96458e-07
-4.57228e-07 -1.96458e-07 -6.08099e-05
0.000782406 0.000112294 -1.53521e-05
0.000112294 4.26243e-05 -8.9662e-06
-1.53521e-05 -8.9662e-06 -2.26492e-05
0.000744731 9.06536e-05 3.50586e-06
9.06536e-05 -1.53863e-06 2.41521e-06
3.50586e-06 2.41521e-06 -0.000103443
0.000647102 5.35266e-05 -7.06123e-08
5.35266e-05 -1.47787e-05 2.79877e-09
-7.06123e-08 2.79877e-09 -7.09313e-05
0.00381661 -9.33225e-05 -0.000103721
-9.33225e-05 0.00179747 -5.91612e-06
-0.000103721 -5.91612e-06 0.00178822
0.000522119 -1.78206e-05 3.61983e-06
-1.78206e-05 -7.46336e-05 6.63729e-06
3.61983e-06 6.63729e-06 -0.000119537
0.00329531 -0.000131949 -4.11557e-06
-0.000131949 0.00149714 4.10052e-07
-4.11557e-06 4.10052e-07 0.00148958
0.00287636 -0.000120109 5.09973e-05
-0.000120109 0.00125555 1.95052e-06
5.09973e-05 1.95052e-06 0.00125314
0.00178424 7.67436e-05 1.11944e-06
7.67436e-05 5.6605e-05 1.29402e-06
1.11944e-06 1.29402e-06 -4.02898e-05
0.00182156 8.70094e-05 -3.43501e-07
8.70094e-05 4.20847e-05 2.84351e-07
-3.43501e-07 2.84351e-07 -4.15752e-05
0.0018263 8.51511e-05 1.74514e-06
8.51511e-05 3.97489e-05 -1.70548e-06
1.74514e-06 -1.70548e-06 -3.92766e-05
0.00188359 0.000138054 5.45339e-07
0.000138054 0.000138092 -9.74634e-08
5.45339e-07 -9.74634e-08 2.58625e-05
0.00176813 0.000185012 -2.10653e-07
0.000185012 0.00013621 -1.464e-06
-2.10653e-07 -1.464e-06 3.69204e-06
0.00176285 0.000143428 1.80325e-06
0.000143428 4.16769e-05 -1.67543e-06
1.80325e-06 -1.67543e-06 -6.34354e-05
0.00183579 2.14862e-05 5.38462e-07
2.14862e-05 0.000106779 3.73267e-07
5.38462e-07 3.73267e-07 1.11516e-05
0.00186633 2.07427e-05 3.5442e-07
2.07427e-05 9.84668e-05 -2.21255e-07
3.5442e-07 -2.21255e-07 1.21017e-05
0.00179783 1.60515e-05 2.78908e-07
1.60515e-05 3.22549e-05 -1.70535e-07
2.78908e-07 -1.70535e-07 -4.2085e-05
0.00176619 -1.35094e-05 -1.28965e-06
-1.35094e-05 6.52873e-05 9.1786e-08
-1.28965e-06 9.1786e-08 -2.96684e-05
0.00173325 -1.73681e-05 1.09759e-06
-1.73681e-05 8.11019e-05 -4.3253e-07
1.09759e-06 -4.3253e-07 -2.58695e-05
0.00185576 -3.90085e-05 -9.7879e-07
-3.90085e-05 0.00010035 4.66784e-07
-9.7879e-07 4.66784e-07 1.14775e-05
0.00180324 -3.78003e-05 -3.7323e-07
-3.78003e-05 0.000119026 3.32612e-07
-3.7323e-07 3.32612e-07 1.08219e-05
0.00168031 -2.64651e-05 1.4425e-07
-2.64651e-05 0.000123123 -4.47143e-07
1.4425e-07 -4.47143e-07 2.42023e-06
0.00173709 -6.77929e-05 -1.13817e-07
-6.77929e-05 0.000107295 1.45298e-07
-1.13817e-07 1.45298e-07 -5.0365e-06
0.00158089 -4.93481e-05 -2.37356e-07
-4.93481e-05 8.99068e-05 2.46644e-08
-2.37356e-07 2.46644e-08 -3.52878e-05
0.00143187 -4.44512e-05 -5.57334e-06
-4.44512e-05 7.49064e-05 1.47753e-06
-5.57334e-06 1.47753e-06 -5.12228e-05
0.00150113 -7.44508e-05 9.2602e-07
-7.44508e-05 7.01977e-05 -5.90395e-07
9.2602e-07 -5.90395e-07 -5.60046e-05
0.00140735 -7.38558e-05 6.93421e-08
-7.38558e-05 7.86709e-05 -2.49328e-08
6.93421e-08 -2.49328e-08 -4.6472e-05
0.00112592 -6.22478e-05 -1.02597e-05
-6.22478e-05 1.03747e-05 2.79283e-06
-1.02597e-05 2.79283e-06 -9.59914e-05
0.00138288 -9.66434e-05 4.77265e-06
-9.66434e-05 7.92659e-05 -1.49172e-06
4.77265e-06 -1.49172e-06 -4.50863e-05
0.00112286 -7.85223e-05 -1.23672e-08
-7.85223e-05 2.00528e-05 8.78538e-08
-1.23672e-08 8.78538e-08 -8.50679e-05
0.00229227 -7.71673e-05 -2.7432e-05
-7.71673e-05 0.000825143 3.92234e-06
-2.7432e-05 3.92234e-06 0.000773852
0.00109765 -9.13727e-05 1.03579e-05
-9.13727e-05 1.65368e-05 -3.58588e-06
1.03579e-05 -3.58588e-06 -8.82668e-05
0.00235791 -8.90061e-05 2.43157e-05
-8.90061e-05 0.000865705 -1.9955e-06
2.43157e-05 -1.9955e-06 0.000816358
0.00166504 -3.73455e-05 -0.000122635
-3.73455e-05 0.000563872 1.09638e-05
-0.000122635 1.09638e-05 0.000544054
0.00246786 -0.000105236 7.6283e-05
-0.000105236 0.000932463 -9.88414e-06
7.6283e-05 -9.88414e-06 0.000883118
0.00144815 8.06135e-06 -5.77674e-05
8.06135e-06 0.000458672 4.49054e-06
-5.77674e-05 4.49054e-06 0.00043197
0.0013953 6.29673e-05 8.07648e-06
6.29673e-05 0.000445026 -4.32247e-06
8.07648e-06 -4.32247e-06 0.000409055
0.00186342 7.61076e-05 7.35136e-07
7.61076e-05 0.000156499 1.46753e-06
7.35136e-07 1.46753e-06 4.75558e-05
0.00155327 0.000105144 -1.98305e-06
0.000105144 8.17448e-05 -1.78403e-07
-1.98305e-06 -1.78403e-07 -4.6114e-05
0.00173442 0.000123998 -1.14685e-06
0.000123998 0.000115531 -1.37584e-07
-1.14685e-06 -1.37584e-07 -6.53211e-06
0.0016131 0.000134786 -4.24854e-06
0.000134786 0.000204757 -1.44142e-06
-4.24854e-06 -1.44142e-06 7.9926e-05
0.00170424 0.000139327 9.93653e-07
0.000139327 0.000190164 3.64932e-07
9.93653e-07 3.64932e-07 6.13275e-05
0.00175234 0.000154213 2.66001e-06
0.000154213 0.000149797 4.69912e-07
2.66001e-06 4.69912e-07 2.18868e-05
0.00102229 0.000119122 -9.94737e-06
0.000119122 -7.13842e-06 -3.20787e-06
-9.94737e-06 -3.20787e-06 -0.000118208
0.00141987 0.000155096 2.94219e-06
0.000155096 0.000128322 2.86446e-07
2.94219e-06 2.86446e-07 -1.78987e-06
0.00120395 0.00015115 3.21667e-06
0.00015115 -6.07071e-05 -6.14376e-07
3.21667e-06 -6.14376e-07 -0.000191888
0.000689296 0.000129426 -1.79648e-05
0.000129426 -2.6767e-05 -8.67526e-06
-1.79648e-05 -8.67526e-06 -9.56896e-05
0.00100714 0.000126326 -8.96087e-07
0.000126326 3.3054e-05 4.47681e-07
-8.96087e-07 4.47681e-07 -8.26872e-05
0.001354 0.000169745 5.50221e-06
0.000169745 0.000146789 1.93908e-06
5.50221e-06 1.93908e-06 3.75638e-06
0.000885616 0.000113828 5.73192e-06
0.000113828 2.92201e-05 3.58595e-06
5.73192e-06 3.58595e-06 -8.2801e-05
0.000650065 9.99821e-05 7.14707e-08
9.99821e-05 -2.43353e-05 7.05416e-08
7.14707e-08 7.05416e-08 -8.91904e-05
0.00443278 -8.32697e-05 -0.000115395
-8.32697e-05 0.00215179 -9.77531e-06
-0.000115395 -9.77531e-06 0.00213364
0.000535466 4.3666e-05 7.26401e-06
4.3666e-05 -7.23528e-05 7.56458e-06
7.26401e-06 7.56458e-06 -0.000126928
0.00369399 -0.000133528 -7.00066e-06
-0.000133528 0.00173188 4.97693e-07
-7.00066e-06 4.97693e-07 0.0017194
0.00320429 -0.000137982 6.02963e-05
-0.000137982 0.00144593 1.90012e-06
6.02963e-05 1.90012e-06 0.00143769
0.00178225 5.54945e-05 4.10817e-07
5.54945e-05 8.11032e-05 2.91959e-07
4.10817e-07 2.91959e-07 -1.88088e-05
0.00177239 7.59571e-05 1.88005e-07
7.59571e-05 5.16369e-05 4.05946e-07
1.88005e-07 4.05946e-07 -4.47767e-05
0.0017387 8.81287e-05 2.43612e-06
8.81287e-05 -3.86874e-06 -8.14644e-07
2.43612e-06 -8.14644e-07 -8.71937e-05
0.00187416 0.000136641 3.66795e-07
0.000136641 0.000132952 -1.46457e-06
3.66795e-07 -1.46457e-06 2.14576e-05
0.00174895 -3.46955e-06 1.20472e-06
-3.46955e-06 8.75018e-05 4.24528e-08
1.20472e-06 4.24528e-08 -2.03477e-05
0.00187652 1.80751e-05 -9.20413e-08
1.80751e-05 0.000126783 -1.21666e-07
-9.20413e-08 -1.21666e-07 3.13509e-05
0.00188764 2.15427e-05 -1.38326e-06
2.15427e-05 0.000110896 -9.547e-08
-1.38326e-06 -9.547e-08 2.34639e-05
0.00186121 -1.71398e-05 -2.63022e-06
-1.71398e-05 0.000116832 -2.90901e-07
-2.63022e-06 -2.90901e-07 2.288e-05
0.00172392 -1.0982e-05 -8.48353e-07
-1.0982e-05 7.57434e-05 -6.57864e-08
-8.48353e-07 -6.57864e-08 -3.03474e-05
0.00178141 -5.69427e-06 8.09214e-07
-5.69427e-06 0.00017231 -4.08227e-07
8.09214e-07 -4.08227e-07 5.49768e-05
0.00170519 -3.8116e-05 -1.25353e-06
-3.8116e-05 6.45315e-05 1.15648e-06
-1.25353e-06 1.15648e-06 -4.60113e-05
0.00166592 -2.58816e-05 5.59084e-07
-2.58816e-05 0.000116467 9.62472e-08
5.59084e-07 9.62472e-08 -5.62478e-06
0.00135479 -1.70803e-05 -4.48392e-06
-1.70803e-05 1.54524e-05 4.56999e-07
-4.48392e-06 4.56999e-07 -0.000109879
0.00153332 -4.89502e-05 5.44497e-07
-4.89502e-05 6.30002e-05 -9.87222e-08
5.44497e-07 -9.87222e-08 -6.22127e-05
0.00141942 -4.18091e-05 -4.70701e-07
-4.18091e-05 6.72992e-05 2.78268e-07
-4.70701e-07 2.78268e-07 -5.85894e-05
0.00115533 -3.93958e-05 -1.05907e-05
-3.93958e-05 1.03146e-05 2.50922e-06
-1.05907e-05 2.50922e-06 -9.77009e-05
0.00138648 -7.02653e-05 4.46677e-06
-7.02653e-05 6.71276e-05 -1.50025e-06
4.46677e-06 -1.50025e-06 -5.77154e-05
0.00113807 -6.17105e-05 -2.78107e-10
-6.17105e-05 1.61157e-05 5.23758e-08
-2.78107e-10 5.23758e-08 -9.00888e-05
0.000677295 -4.78081e-05 -1.56275e-05
-4.78081e-05 -8.52405e-05 3.93456e-06
-1.56275e-05 3.93456e-06 -0.000145619
0.00113389 -7.65325e-05 1.03599e-05
-7.65325e-05 2.47054e-05 -3.07089e-06
1.03599e-05 -3.07089e-06 -7.99776e-05
0.00152162 -6.16824e-05 3.10277e-05
-6.16824e-05 0.000391285 -1.66415e-06
3.10277e-05 -1.66415e-06 0.000338447
0.00490582 -8.30688e-05 -0.000149294
-8.30688e-05 0.00237053 7.60919e-06
-0.000149294 7.60919e-06 0.00236793
0.00244933 -8.71015e-05 7.63347e-05
-8.71015e-05 0.000912103 -8.198e-06
7.63347e-05 -8.198e-06 0.00086529
0.00146869 -1.32827e-05 -5.14787e-05
-1.32827e-05 0.000460301 3.87171e-06
-5.14787e-05 3.87171e-06 0.000436732
0.00132102 3.24084e-06 1.97962e-05
3.24084e-06 0.000390363 -3.50727e-06
1.97962e-05 -3.50727e-06 0.000361966
0.00188385 5.39538e-05 1.11317e-06
5.39538e-05 0.000172176 7.14773e-07
1.11317e-06 7.14773e-07 6.63141e-05
0.00165106 6.8781e-05 -5.91307e-07
6.8781e-05 0.000119762 9.10794e-07
-5.91307e-07 9.10794e-07 -1.22886e-06
0.00185998 7.31999e-05 1.32631e-07
7.31999e-05 0.000157655 -5.20601e-08
1.32631e-07 -5.20601e-08 4.80875e-05
0.00119659 9.49437e-05 -5.42515e-06
9.49437e-05 -5.15453e-05 -1.32902e-06
-5.42515e-06 -1.32902e-06 -0.000177578
0.0016715 0.000108035 -4.70598e-08
0.000108035 0.000148496 -1.92269e-08
-4.70598e-08 -1.92269e-08 2.17437e-05
0.00177744 0.000126662 -9.26394e-07
0.000126662 0.000135627 -9.47458e-07
-9.26394e-07 -9.47458e-07 1.48802e-05
0.000665732 8.77558e-05 -1.21668e-05
8.77558e-05 -0.000232354 -3.94674e-06
-1.21668e-05 -3.94674e-06 -0.000341269
0.0016422 0.000137845 1.36121e-06
0.000137845 0.000220985 3.08013e-07
1.36121e-06 3.08013e-07 9.56542e-05
0.00176096 0.00014124 3.31197e-06
0.00014124 0.000224309 1.12668e-06
3.31197e-06 1.12668e-06 9.54347e-05
0.000624554 0.00011386 -1.72259e-05
0.00011386 -8.44875e-05 -7.22166e-06
-1.72259e-05 -7.22166e-06 -0.000150204
0.000840122 0.000111748 3.48114e-07
0.000111748 -0.000109365 1.43862e-08
3.48114e-07 1.43862e-08 -0.000221305
0.00115044 0.000145579 7.89497e-06
0.000145579 -2.36484e-05 9.85543e-07
7.89497e-06 9.85543e-07 -0.000154762
0.00489069 -8.46504e-05 -0.000116359
-8.46504e-05 0.0024079 -1.1551e-05
-0.000116359 -1.1551e-05 0.00238391
0.000630254 0.000119232 1.22959e-06
0.000119232 -5.78173e-05 3.9469e-07
1.22959e-06 3.9469e-07 -0.000125978
0.00101637 0.000126303 8.26109e-06
0.000126303 3.79306e-05 4.43301e-06
8.26109e-06 4.43301e-06 -7.77517e-05
0.000510246 9.09552e-05 1.16108e-05
9.09552e-05 -9.73824e-05 8.59839e-06
1.16108e-05 8.59839e-06 -0.000161115
0.00417489 -0.000119062 -8.13183e-06
-0.000119062 0.00200939 4.56439e-07
-8.13183e-06 4.56439e-07 0.0019919
0.00353636 -0.000155723 7.08542e-05
-0.000155723 0.00164539 2.28929e-06
7.08542e-05 2.28929e-06 0.00163028
0.00180718 3.28162e-05 -4.4665e-07
3.28162e-05 0.000117676 -5.05755e-08
-4.4665e-07 -5.05755e-08 1.04661e-05
0.0017911 5.47994e-05 -1.05237e-07
5.47994e-05 8.23545e-05 2.60683e-07
-1.05237e-07 2.60683e-07 -1.73713e-05
0.00176209 7.56827e-05 -2.86261e-07
7.56827e-05 4.72787e-05 -6.47488e-07
-2.86261e-07 -6.47488e-07 -4.86685e-05
0.00170887 7.04942e-06 9.97956e-07
7.04942e-06 0.000126008 -2.61725e-07
9.97956e-07 -2.61725e-07 8.21043e-06
0.00174175 -3.46732e-07 -5.42377e-08
-3.46732e-07 8.68662e-05 6.35947e-08
-5.42377e-08 6.35947e-08 -2.00436e-05
0.00191688 1.23751e-05 -1.54256e-06
1.23751e-05 0.000146606 -4.22213e-08
-1.54256e-06 -4.22213e-08 5.13662e-05
0.00170974 -5.81599e-06 -1.87434e-06
-5.81599e-06 6.75005e-05 5.62487e-07
-1.87434e-06 5.62487e-07 -3.76942e-05
0.00176818 -3.0973e-06 1.08899e-06
-3.0973e-06 0.00016451 -1.7775e-07
1.08899e-06 -1.7775e-07 4.72347e-05
0.00174358 -2.29186e-06 -2.73467e-06
-2.29186e-06 0.000220326 -1.11709e-08
-2.73467e-06 -1.11709e-08 0.000100101
0.00165438 -2.52407e-05 1.28651e-06
-2.52407e-05 0.000111355 4.86262e-07
1.28651e-06 4.86262e-07 -1.21339e-05
0.00158418 -1.57201e-05 -2.32832e-08
-1.57201e-05 0.000142004 6.43318e-08
-2.32832e-08 6.43318e-08 1.80867e-05
0.000803271 -1.48207e-05 -1.25889e-05
-1.48207e-05 -0.000199236 1.86051e-06
-1.25889e-05 1.86051e-06 -0.00031161
0.00141771 -4.14392e-05 4.11431e-06
-4.14392e-05 6.53702e-05 -8.77891e-07
4.11431e-06 -8.77891e-07 -6.04115e-05
0.00114838 -3.65752e-05 5.11812e-08
-3.65752e-05 6.06584e-06 1.67656e-07
5.11812e-08 1.67656e-07 -0.000101727
0.000675707 -1.99965e-05 -1.54298e-05
-1.99965e-05 -9.60817e-05 2.93687e-06
-1.54298e-05 2.93687e-06 -0.000158326
0.00115211 -6.00289e-05 1.05459e-05
-6.00289e-05 2.27868e-05 -2.74755e-06
1.05459e-05 -2.74755e-06 -8.31447e-05
0.000682333 -3.39635e-05 -2.67295e-07
-3.39635e-05 -8.30683e-05 1.4639e-07
-2.67295e-07 1.4639e-07 -0.000143601
0.00495257 -2.80535e-05 -0.000141836
-2.80535e-05 0.00239177 5.1113e-06
-0.000141836 5.1113e-06 0.00239118
0.000718807 -5.23773e-05 1.57181e-05
-5.23773e-05 -5.85231e-05 -5.64724e-06
1.57181e-05 -5.64724e-06 -0.000118401
0.00315988 -5.0297e-05 6.32208e-05
-5.0297e-05 0.0013987 -4.29075e-07
6.32208e-05 -4.29075e-07 0.00138318
0.00125502 -2.75067e-05 2.58647e-05
-2.75067e-05 0.000349131 -3.40092e-06
2.58647e-05 -3.40092e-06 0.00032103
0.00182096 4.35389e-05 2.03538e-07
4.35389e-05 0.000155727 2.10919e-07
2.03538e-07 2.10919e-07 4.64331e-05
0.00157891 3.83641e-05 -5.56074e-08
3.83641e-05 7.82813e-05 9.10703e-07
-5.56074e-08 9.10703e-07 -3.99896e-05
0.00184661 5.15234e-05 -3.28789e-07
5.15234e-05 0.000151873 -2.0193e-07
-3.28789e-07 -2.0193e-07 4.61145e-05
0.00143023 6.74019e-05 -4.3842e-06
6.74019e-05 6.63432e-05 -3.89226e-07
-4.3842e-06 -3.89226e-07 -5.59168e-05
0.00160615 6.67776e-05 4.23649e-07
6.67776e-05 9.34182e-05 9.54628e-08
4.23649e-07 9.54628e-08 -2.83677e-05
0.0018567 6.99594e-05 -1.11798e-06
6.99594e-05 0.000158813 -1.32301e-06
-1.11798e-06 -1.32301e-06 4.86423e-05
0.000676895 7.02032e-05 -1.23227e-05
7.02032e-05 -0.000246489 -3.19354e-06
-1.23227e-05 -3.19354e-06 -0.000354931
0.00151384 0.000105219 -1.3495e-06
0.000105219 0.000125003 -2.73053e-07
-1.3495e-06 -2.73053e-07 3.14989e-07
0.00178795 0.000110683 2.24926e-06
0.000110683 0.000214394 -7.66348e-08
2.24926e-06 -7.66348e-08 8.87753e-05
0.000623488 8.2576e-05 -1.59203e-05
8.2576e-05 -0.00010138 -5.84849e-06
-1.59203e-05 -5.84849e-06 -0.000163745
0.00065333 8.81858e-05 -2.6295e-06
8.81858e-05 -0.000239467 -6.77335e-07
-2.6295e-06 -6.77335e-07 -0.000348983
0.00166812 0.0001408 7.14436e-06
0.0001408 0.000235463 1.77417e-06
7.14436e-06 1.77417e-06 0.000109642
0.00503752 -1.20971e-06 -0.000134004
-1.20971e-06 0.00245695 -9.34502e-06
-0.000134004 -9.34502e-06 0.00244904
0.000602395 0.000104457 8.78322e-07
0.000104457 -9.53569e-05 3.4986e-07
8.78322e-07 3.4986e-07 -0.000161856
0.000653977 0.000104371 1.027e-05
0.000104371 -0.000213852 3.24923e-06
1.027e-05 3.24923e-06 -0.000326674
0.00467051 -5.54712e-05 4.96615e-06
-5.54712e-05 0.00227399 -3.99333e-07
4.96615e-06 -3.99333e-07 0.0022594
0.000527192 0.00010812 1.47895e-05
0.00010812 -0.000111206 8.82245e-06
1.47895e-05 8.82245e-06 -0.000179429
0.00394129 -0.000159338 8.25156e-05
-0.000159338 0.00188528 4.61118e-06
8.25156e-05 4.61118e-06 0.00186439
0.00177529 2.45701e-05 -2.02425e-07
2.45701e-05 0.000160285 -8.46058e-08
-2.02425e-07 -8.46058e-08 4.48288e-05
0.00176284 3.13253e-05 -2.2127e-07
3.13253e-05 9.7011e-05 7.56807e-08
-2.2127e-07 7.56807e-08 -1.09189e-05
0.00179992 5.39614e-05 -6.80885e-07
5.39614e-05 8.32902e-05 -1.54292e-07
-6.80885e-07 -1.54292e-07 -1.62455e-05
0.00171953 -1.69913e-06 -2.80137e-06
-1.69913e-06 0.000209563 -1.57811e-07
-2.80137e-06 -1.57811e-07 9.12917e-05
0.00173516 6.18834e-06 6.74263e-07
6.18834e-06 0.000140447 5.93355e-10
6.74263e-07 5.93355e-10 2.36928e-05
0.00174595 4.81875e-06 2.05898e-07
4.81875e-06 9.22987e-05 -4.25162e-09
2.05898e-07 -4.25162e-09 -1.36967e-05
0.00175464 -1.44172e-06 9.55779e-07
-1.44172e-06 0.000156524 3.04412e-07
9.55779e-07 3.04412e-07 3.92999e-05
0.00174515 -2.08715e-06 1.69932e-06
-2.08715e-06 0.000221159 -2.17502e-07
1.69932e-06 -2.17502e-07 0.000100869
0.00081736 -4.63937e-06 -1.18642e-05
-4.63937e-06 -0.00019729 8.27608e-07
-1.18642e-05 8.27608e-07 -0.000309489
0.00181539 -1.45361e-05 5.50955e-06
-1.45361e-05 0.000269701 -5.77956e-07
5.50955e-06 -5.77956e-07 0.000147197
0.00098741 -1.34166e-05 -2.5439e-06
-1.34166e-05 -9.67169e-05 4.22119e-07
-2.5439e-06 4.22119e-07 -0.000207427
0.000698189 -7.0941e-06 -1.59927e-05
-7.0941e-06 -9.38458e-05 1.96883e-06
-1.59927e-05 1.96883e-06 -0.000157916
0.00114801 -3.51618e-05 1.05328e-05
-3.51618e-05 5.38465e-06 -2.20024e-06
1.05328e-05 -2.20024e-06 -0.000102275
0.000685043 -1.77056e-05 3.67457e-07
-1.77056e-05 -9.1974e-05 3.66282e-08
3.67457e-07 3.66282e-08 -0.000153924
0.005059 -5.03316e-05 -0.000144671
-5.03316e-05 0.00244936 3.8048e-06
-0.000144671 3.8048e-06 0.00244788
0.000678801 -2.2705e-05 1.45151e-05
-2.2705e-05 -8.66694e-05 -3.37771e-06
1.45151e-05 -3.37771e-06 -0.000146525
0.0049771 -1.23494e-05 9.60656e-06
-1.23494e-05 0.0024075 -9.34859e-09
9.60656e-06 -9.34859e-09 0.00240518
0.0014855 -1.61092e-05 0.000126513
-1.61092e-05 0.000463554 -5.83576e-06
0.000126513 -5.83576e-06 0.00044562
0.00172364 2.92406e-05 6.58719e-08
2.92406e-05 0.000157627 1.93557e-07
6.58719e-08 1.93557e-07 4.14322e-05
0.00176426 4.68028e-05 -8.67963e-07
4.68028e-05 0.000121207 -1.11563e-07
-8.67963e-07 -1.11563e-07 1.25517e-05
0.00145094 3.48708e-05 -3.99818e-06
3.48708e-05 7.50811e-05 -1.53103e-07
-3.99818e-06 -1.53103e-07 -4.41468e-05
0.00157517 3.78362e-05 3.46461e-07
3.78362e-05 7.62101e-05 6.12316e-10
3.46461e-07 6.12316e-10 -4.20837e-05
0.00180812 4.92242e-05 -7.2825e-07
4.92242e-05 0.000130921 -1.25537e-06
-7.2825e-07 -1.25537e-06 2.52703e-05
0.00115266 5.80565e-05 -1.05858e-05
5.80565e-05 5.36639e-06 -1.94438e-06
-1.05858e-05 -1.94438e-06 -9.91211e-05
0.00141605 6.72656e-05 1.39434e-09
6.72656e-05 5.85101e-05 1.98302e-07
1.39434e-09 1.98302e-07 -6.38349e-05
0.00155986 6.48246e-05 6.26066e-07
6.48246e-05 6.64026e-05 -4.57878e-07
6.26066e-07 -4.57878e-07 -5.61924e-05
0.000643357 5.75282e-05 -1.55641e-05
5.75282e-05 -0.000105442 -4.37263e-06
-1.55641e-05 -4.37263e-06 -0.000166083
0.000897113 7.8079e-05 -3.15688e-06
7.8079e-05 -0.000124266 -5.16771e-07
-3.15688e-06 -5.16771e-07 -0.000231995
0.00184146 0.00011578 5.01805e-06
0.00011578 0.000307223 1.09066e-06
5.01805e-06 1.09066e-06 0.000183868
0.00506246 6.47515e-05 -0.000152256
6.47515e-05 0.00245585 -8.54133e-06
-0.000152256 -8.54133e-06 0.00245384
0.000615631 7.86833e-05 1.57589e-07
7.86833e-05 -0.000105388 7.32792e-08
1.57589e-07 7.32792e-08 -0.00016797
0.000642502 8.88813e-05 7.31186e-06
8.88813e-05 -0.000245809 2.39708e-06
7.31186e-06 2.39708e-06 -0.000355942
0.00492088 1.68491e-05 9.5704e-06
1.68491e-05 0.00239567 6.09199e-07
9.5704e-06 6.09199e-07 0.00238708
0.000580264 9.44165e-05 1.53523e-05
9.44165e-05 -0.000106747 7.34202e-06
1.53523e-05 7.34202e-06 -0.000173653
0.00445367 -8.2669e-05 0.000107278
-8.2669e-05 0.00215244 6.66288e-06
0.000107278 6.66288e-06 0.00214057
0.00172342 1.84924e-05 -2.72287e-06
1.84924e-05 0.000217086 -2.95194e-07
-2.72287e-06 -2.95194e-07 0.000100639
0.00175475 2.03856e-05 1.24111e-08
2.03856e-05 0.000151352 1.08471e-07
1.24111e-08 1.08471e-07 3.54063e-05
0.00171866 2.95931e-05 -4.55492e-07
2.95931e-05 7.69845e-05 9.97789e-08
-4.55492e-07 9.97789e-08 -3.16444e-05
0.000808177 -1.04638e-05 -1.23451e-05
-1.04638e-05 -0.000199522 -1.415e-07
-1.23451e-05 -1.415e-07 -0.000310166
0.00174179 4.77922e-06 1.77785e-06
4.77922e-06 0.000222006 -5.57445e-08
1.77785e-06 -5.57445e-08 0.000103705
0.00175616 5.35429e-06 1.19629e-06
5.35429e-06 0.000152205 1.44658e-07
1.19629e-06 1.44658e-07 3.6506e-05
0.00174728 -2.1698e-06 6.00261e-06
-2.1698e-06 0.000222349 -1.35442e-07
6.00261e-06 -1.35442e-07 0.000101989
0.00081049 -4.76215e-06 -1.89583e-06
-4.76215e-06 -0.000201376 1.84363e-07
-1.89583e-06 1.84363e-07 -0.000313664
0.000720936 -1.03475e-05 -1.62291e-05
-1.03475e-05 -8.70393e-05 7.93096e-07
-1.62291e-05 7.93096e-07 -0.00015166
0.00115983 -1.11982e-05 8.44177e-06
-1.11982e-05 -6.41498e-07 -1.29639e-06
8.44177e-06 -1.29639e-06 -0.000109674
0.000691765 2.27194e-06 1.72563e-07
2.27194e-06 -9.81032e-05 1.11067e-07
1.72563e-07 1.11067e-07 -0.000161977
0.00521199 -5.89914e-05 -0.000150585
-5.89914e-05 0.00253252 2.30498e-06
-0.000150585 2.30498e-06 0.00252973
0.000697077 -7.65577e-06 1.52782e-05
-7.65577e-06 -8.59672e-05 -2.36394e-06
1.52782e-05 -2.36394e-06 -0.000147968
0.00511164 1.54621e-05 4.35517e-06
1.54621e-05 0.00247626 4.83013e-07
4.35517e-06 4.83013e-07 0.0024755
0.00500358 -5.89601e-05 0.000155584
-5.89601e-05 0.00242022 -4.4657e-06
0.000155584 -4.4657e-06 0.00241889
0.00147298 2.18417e-05 -4.06447e-06
2.18417e-05 8.75397e-05 -5.22821e-07
-4.06447e-06 -5.22821e-07 -3.07035e-05
0.00166291 3.13716e-05 3.40158e-07
3.13716e-05 0.000123019 -1.78068e-07
3.40158e-07 -1.78068e-07 7.67103e-06
0.0017077 5.01919e-05 -1.64738e-06
5.01919e-05 8.67733e-05 -2.34277e-07
-1.64738e-06 -2.34277e-07 -2.12499e-05
0.00115435 2.88767e-05 -1.03535e-05
2.88767e-05 2.28847e-06 -1.51492e-06
-1.03535e-05 -1.51492e-06 -0.000101208
0.00142841 3.48623e-05 2.3518e-07
3.48623e-05 6.24452e-05 5.91593e-08
2.3518e-07 5.91593e-08 -5.69704e-05
0.00156951 3.72848e-05 2.46909e-07
3.72848e-05 7.32293e-05 -9.33945e-07
2.46909e-07 -9.33945e-07 -4.50913e-05
0.000667531 3.46428e-05 -1.51173e-05
3.46428e-05 -0.000102158 -3.29247e-06
-1.51173e-05 -3.29247e-06 -0.000162763
0.00114806 5.96218e-05 6.21048e-08
5.96218e-05 3.17102e-06 2.04625e-07
6.21048e-08 2.04625e-07 -0.000101641
0.0014009 6.70559e-05 4.63646e-06
6.70559e-05 5.00843e-05 8.40965e-07
4.63646e-06 8.40965e-07 -7.2347e-05
0.00508159 8.56454e-05 -0.000164032
8.56454e-05 0.00246204 -7.46552e-06
-0.000164032 -7.46552e-06 0.00246037
0.000652817 5.79595e-05 1.04703e-07
5.79595e-05 -9.97951e-05 1.52864e-07
1.04703e-07 1.52864e-07 -0.000160587
0.00110684 8.57752e-05 7.63601e-06
8.57752e-05 -7.81999e-06 2.28478e-06
7.63601e-06 2.28478e-06 -0.000114807
0.00499722 7.57278e-05 5.10372e-06
7.57278e-05 0.00242515 1.1846e-06
5.10372e-06 1.1846e-06 0.00242117
0.000611844 7.52108e-05 1.49393e-05
7.52108e-05 -0.000107144 5.74573e-06
1.49393e-05 5.74573e-06 -0.000169722
0.00483386 3.21941e-05 0.000136865
3.21941e-05 0.00234233 8.67397e-06
0.000136865 8.67397e-06 0.00233804
0.00119502 8.62226e-06 -1.10752e-05
8.62226e-06 1.79574e-05 -6.8527e-07
-1.10752e-05 -6.8527e-07 -8.82812e-05
0.00154357 1.34214e-05 1.97241e-06
1.34214e-05 0.000117082 6.7064e-08
1.97241e-06 6.7064e-08 -8.90114e-07
0.00173273 1.51563e-05 6.88706e-07
1.51563e-05 0.000141297 3.22638e-07
6.88706e-07 3.22638e-07 2.48562e-05
0.000713537 2.09088e-05 -1.65823e-05
2.09088e-05 -9.57345e-05 -2.9474e-07
-1.65823e-05 -2.9474e-07 -0.000156217
0.000803403 -4.41904e-06 -2.05936e-06
-4.41904e-06 -0.000203084 3.03816e-08
-2.05936e-06 3.03816e-08 -0.000313896
0.0017643 1.11883e-05 6.38169e-06
1.11883e-05 0.000234538 7.10707e-08
6.38169e-06 7.10707e-08 0.000116203
0.000803319 -4.4457e-06 8.00305e-06
-4.4457e-06 -0.000205675 -3.79518e-07
8.00305e-06 -3.79518e-07 -0.000318041
0.000693848 1.336e-06 9.60307e-08
1.336e-06 -0.000102087 3.00192e-07
9.60307e-08 3.00192e-07 -0.000166511
0.005294 5.73623e-05 -0.000160643
5.73623e-05 0.00257414 -7.43216e-07
-0.000160643 -7.43216e-07 0.00257248
0.000672977 1.13101e-05 1.535e-05
1.13101e-05 -0.000108925 -1.28639e-06
1.535e-05 -1.28639e-06 -0.000172625
0.00523648 -4.56474e-05 -4.94135e-06
-4.56474e-05 0.00254361 1.0566e-06
-4.94135e-06 1.0566e-06 0.00254176
0.00514855 5.70328e-05 0.000146847
5.70328e-05 0.00249763 -1.68627e-06
0.000146847 -1.68627e-06 0.00249523
0.00117536 1.44148e-05 -1.0891e-05
1.44148e-05 1.07597e-05 -1.4298e-06
-1.0891e-05 -1.4298e-06 -9.36456e-05
0.00138367 2.05853e-05 8.30852e-08
2.05853e-05 3.72883e-05 -7.19746e-08
8.30852e-08 -7.19746e-08 -8.10502e-05
0.00160556 3.34266e-05 2.5991e-07
3.34266e-05 9.01637e-05 -6.46983e-07
2.5991e-07 -6.46983e-07 -2.43389e-05
0.00253008 2.18247e-05 -8.32856e-05
2.18247e-05 0.000928875 -2.37729e-06
-8.32856e-05 -2.37729e-06 0.000883571
0.0011636 3.09761e-05 1.51883e-07
3.09761e-05 6.9284e-06 1.30664e-07
1.51883e-07 1.30664e-07 -9.67578e-05
0.00140433 3.46984e-05 4.38137e-06
3.46984e-05 4.89773e-05 2.86207e-07
4.38137e-06 2.86207e-07 -7.06312e-05
0.00508351 8.63552e-05 -0.000167675
8.63552e-05 0.00246357 -5.7781e-06
-0.000167675 -5.7781e-06 0.00246077
0.000695468 3.94026e-05 2.86744e-07
3.94026e-05 -8.58406e-05 1.77776e-07
2.86744e-07 1.77776e-07 -0.000146874
0.0011541 6.14235e-05 1.06039e-05
6.14235e-05 6.57005e-06 2.32779e-06
1.06039e-05 2.32779e-06 -9.85412e-05
0.00505516 9.91536e-05 3.60115e-07
9.91536e-05 0.00245194 1.13856e-06
3.60115e-07 1.13856e-06 0.00244866
0.000665891 5.78623e-05 1.51563e-05
5.78623e-05 -9.18736e-05 4.79075e-06
1.51563e-05 4.79075e-06 -0.000152809
0.00493868 9.21325e-05 0.000150445
9.21325e-05 0.00239488 9.61308e-06
0.000150445 9.61308e-06 0.00239064
0.00074694 7.89677e-06 -1.59455e-05
7.89677e-06 -7.07751e-05 -1.62957e-06
-1.59455e-05 -1.62957e-06 -0.000134239
0.00100004 6.11225e-06 5.38813e-07
6.11225e-06 -8.99791e-05 3.1075e-07
5.38813e-07 3.1075e-07 -0.000197628
0.00135732 8.1869e-06 5.8276e-06
8.1869e-06 1.35271e-05 4.1564e-07
5.8276e-06 4.1564e-07 -0.000105939
0.0052729 -8.2874e-05 -0.000146567
-8.2874e-05 0.00257408 -1.81682e-06
-0.000146567 -1.81682e-06 0.00256508
0.000701834 8.96622e-06 -2.21571e-07
8.96622e-06 -9.87459e-05 2.43069e-07
-2.21571e-07 2.43069e-07 -0.000161145
0.000806747 1.28589e-06 8.16605e-06
1.28589e-06 -0.000202272 1.31676e-07
8.16605e-06 1.31676e-07 -0.000313242
0.000677765 1.62644e-05 1.57086e-05
1.62644e-05 -0.000110973 1.8826e-08
1.57086e-05 1.8826e-08 -0.000175365
0.00530363 2.90892e-05 3.34442e-06
2.90892e-05 0.00258239 3.71344e-07
3.34442e-06 3.71344e-07 0.00257819
0.00528865 5.41382e-05 0.000151299
5.41382e-05 0.00256949 -2.08781e-07
0.000151299 -2.08781e-07 0.00256804
0.00258723 -2.94285e-06 -8.40498e-05
-2.94285e-06 0.00095442 -1.8537e-06
-8.40498e-05 -1.8537e-06 0.000908384
0.00118855 1.68268e-05 -3.69076e-08
1.68268e-05 1.75635e-05 2.35843e-08
-3.69076e-08 2.35843e-08 -8.68757e-05
0.00129327 1.94949e-05 4.18789e-06
1.94949e-05 -1.35484e-05 2.25299e-07
4.18789e-06 2.25299e-07 -0.000131982
0.0048417 -4.07968e-05 -2.91679e-05
-4.07968e-05 0.00233812 -6.9341e-07
-2.91679e-05 -6.9341e-07 0.00232568
0.000718126 2.61494e-05 -5.11395e-08
2.61494e-05 -7.70762e-05 2.12745e-07
-5.11395e-08 2.12745e-07 -0.000138937
0.00118759 3.36944e-05 1.05582e-05
3.36944e-05 1.93596e-05 1.83258e-06
1.05582e-05 1.83258e-06 -8.44794e-05
0.00510631 5.85951e-05 -8.94718e-06
5.85951e-05 0.00247402 3.5753e-08
-8.94718e-06 3.5753e-08 0.00247288
0.000727694 5.10548e-05 1.62301e-05
5.10548e-05 -6.6587e-05 3.95532e-06
1.62301e-05 3.95532e-06 -0.000128361
0.00502673 0.000114778 0.000158392
0.000114778 0.00244023 9.45208e-06
0.000158392 9.45208e-06 0.00243536
0.00169212 -2.85084e-05 -0.000143305
-2.85084e-05 0.000563698 3.4771e-07
-0.000143305 3.4771e-07 0.000543926
0.00165353 1.57368e-05 -3.4299e-05
1.57368e-05 0.000431651 3.08836e-07
-3.4299e-05 3.08836e-07 0.000378737
0.000808483 6.35815e-06 1.07963e-05
6.35815e-06 -0.000195988 1.11646e-06
1.07963e-05 1.11646e-06 -0.000305071
0.00526427 -3.34652e-05 8.48023e-06
-3.34652e-05 0.00256595 -7.04694e-07
8.48023e-06 -7.04694e-07 0.00255976
0.000689067 -1.78995e-06 1.63257e-05
-1.78995e-06 -0.000103175 8.45291e-07
1.63257e-05 8.45291e-07 -0.000166831
0.00530655 -4.38643e-05 0.000167115
-4.38643e-05 0.00258232 1.17499e-07
0.000167115 1.17499e-07 0.00257965
0.00137426 -4.09948e-05 -1.065e-05
-4.09948e-05 0.000406784 -8.52062e-07
-1.065e-05 -8.52062e-07 0.000372889
0.00164794 9.80053e-06 -3.40859e-05
9.80053e-06 0.000434344 -1.04015e-07
-3.40859e-05 -1.04015e-07 0.000380452
0.00119011 1.75193e-05 1.06468e-05
1.75193e-05 1.82748e-05 1.5119e-06
1.06468e-05 1.5119e-06 -8.62254e-05
0.00323505 3.6775e-05 6.01441e-05
3.6775e-05 0.00143667 6.66364e-07
6.01441e-05 6.66364e-07 0.00141965
0.000729991 3.46968e-05 1.64191e-05
3.46968e-05 -7.04542e-05 3.27663e-06
1.64191e-05 3.27663e-06 -0.000132585
0.00510072 9.83696e-05 0.000156981
9.83696e-05 0.00247543 7.38995e-06
0.000156981 7.38995e-06 0.00247209
0.00520235 -2.82355e-05 -9.20535e-06
-2.82355e-05 0.00253361 8.50888e-08
-9.20535e-06 8.50888e-08 0.00252719
0.000706812 2.64156e-05 1.68758e-05
2.64156e-05 -9.41284e-05 1.65052e-06
1.68758e-05 1.65052e-06 -0.000154226
0.00522899 6.33538e-05 0.000150644
6.33538e-05 0.00254613 -1.25601e-06
0.000150644 -1.25601e-06 0.00254061
0.00326251 2.50399e-05 7.3855e-05
2.50399e-05 0.00145213 1.15521e-06
7.3855e-05 1.15521e-06 0.00143447
0.00072064 8.67719e-06 1.60718e-05
8.67719e-06 -7.93672e-05 2.41307e-06
1.60718e-05 2.41307e-06 -0.000141518
0.00512577 -2.35611e-05 0.000147956
-2.35611e-05 0.00248388 3.77023e-06
0.000147956 3.77023e-06 0.0024828
0.00517846 -0.000131286 0.00014453
-0.000131286 0.00252746 -3.43574e-07
0.00014453 -3.43574e-07 0.00251645
0.00514135 -4.69613e-05 0.000145299
-4.69613e-05 0.00249254 1.64939e-06
0.000145299 1.64939e-06 0.00249113
