# vtk DataFile Version 2.0
Wound Healing Simulation
ASCII
DATASET UNSTRUCTURED_GRID
POINTS 3012 float
69.9759 18.75 4
67.2507 60.3285 4
69.976 18.75 2
73.0099 25.446 4
71.1327 20.9142 4
68.6801 16.6661 4
67.8213 19.9263 3.97312
67.2507 60.3286 2
71.1327 54.0858 4
68.6801 58.3339 4
65.6939 62.2254 4
65.308 58.9987 3.97171
74.6784 42.3946 4
73.7221 47.2057 4
69.9759 18.75 0
73.0099 25.446 2
68.6801 16.6661 2
71.1327 20.9142 2
67.8218 19.9299 2
74.6792 32.6053 4
73.7222 27.7943 4
72.1454 23.1494 4
70.6112 26.2217 3.97315
68.8817 21.9579 3.97332
67.2507 14.6715 4
66.6326 17.9734 3.97188
65.749 21.0421 3.96209
67.2507 60.3285 0
71.1327 54.0858 2
68.6801 58.3339 2
65.694 62.2255 2
65.3094 58.9943 2
72.1454 51.8506 4
69.9759 56.25 4
68.8321 53.1143 3.97314
64.0165 64.0165 4
66.6062 57.1329 3.97295
63.8808 60.7618 3.96864
63.4796 57.7591 3.96152
60.3285 67.2507 4
74.6792 42.3947 2
73.7222 47.2057 2
74.9194 39.9526 4
74.2788 44.8158 4
72.1659 42.0859 3.97465
73.0099 49.554 4
71.2463 46.5985 3.97311
73.0099 25.446 0
71.1327 20.9142 0
68.6801 16.6661 0
67.8213 19.9263 0.0268832
74.6792 32.6053 2
73.7222 27.7943 2
67.2508 14.6715 2
72.1455 23.1494 2
70.6105 26.2226 2
66.6336 17.9775 2
68.8818 21.9605 2
65.7477 21.0434 2
74.9197 35.0474 4
74.2794 30.1841 4
72.1826 32.9451 3.97498
71.2756 28.4328 3.97323
69.8121 24.0597 3.97323
68.322 26.9607 3.96416
66.719 22.9477 3.96281
65.694 12.7746 4
65.3192 16.1065 3.97061
64.6663 19.2136 3.96105
63.73 22.0968 3.96435
71.1327 54.0858 0
65.6939 62.2254 0
68.6801 58.3339 0
65.308 58.9987 0.0282882
72.1455 51.8506 2
69.9759 56.25 2
68.8323 53.1112 2
64.0165 64.0165 2
66.6074 57.1282 2
63.8816 60.757 2
63.4708 57.7571 2
62.2254 65.694 4
58.8907 65.4119 3.98009
69.765 50.9902 3.97294
67.7792 55.1679 3.97327
66.5967 52.1959 3.96289
62.3316 62.4239 3.97417
64.6186 56.0178 3.96208
62.1908 59.3873 3.96167
61.704 56.6261 3.96046
58.3339 68.6801 4
60.3285 67.2508 2
73.7221 47.2057 0
74.6784 42.3946 0
74.9197 39.9526 2
74.2794 44.8159 2
72.1648 42.0855 2
73.0099 49.554 2
71.2455 46.5975 2
75 37.5 4
72.4031 39.8027 3.97571
71.7799 44.3531 3.97412
69.7948 41.7888 3.96606
70.5717 48.8145 3.97294
68.8884 46.0096 3.96558
74.6792 32.6053 0
73.7222 27.7943 0
67.2507 14.6715 0
72.1454 23.1494 0
70.6112 26.2217 0.0268514
68.8817 21.9579 0.0266773
66.6326 17.9734 0.028116
65.749 21.0421 0.0379101
74.9197 35.0474 2
74.2794 30.1841 2
72.1816 32.9447 2
71.2747 28.4332 2
65.694 12.7745 2
65.32 16.111 2
69.8117 24.0613 2
68.3258 26.9613 2
64.6605 19.2154 2
66.7203 22.9488 2
63.7289 22.0975 2
72.4111 35.2255 3.97583
71.8016 30.6781 3.97432
69.8333 33.2731 3.96584
68.9508 29.0454 3.96477
67.5751 24.924 3.96341
66.0259 27.6807 3.97096
64.0165 10.9835 4
64.5919 23.8878 3.96676
63.8842 14.3323 3.96697
63.4842 17.4653 3.95931
62.7548 20.3864 3.96212
61.8168 23.0516 3.9703
60.6803 11.103 3.97493
57.6045 11.4824 3.96545
72.1454 51.8506 0
69.9759 56.25 0
68.8321 53.1143 0.0268615
64.0165 64.0165 0
63.8808 60.7618 0.0313564
66.6062 57.1329 0.027046
63.4796 57.7591 0.0384774
62.2255 65.694 2
58.8931 65.407 2
69.7648 50.988 2
67.7799 55.1638 2
66.5974 52.1946 2
62.3334 62.4177 2
64.6127 56.0159 2
62.1867 59.3872 2
61.7008 56.6262 2
60.6651 63.9726 3.97723
57.0212 66.7322 3.98197
57.5502 63.6663 3.97248
67.4584 50.1652 3.96363
65.6523 54.1596 3.9623
64.348 51.3278 3.96694
60.7659 60.9136 3.96656
62.6739 55.0113 3.96331
60.5669 58.105 3.95752
60.124 55.6934 3.96547
56.25 69.9759 4
58.3339 68.6801 2
60.3285 67.2507 0
58.9177 9.65983 3.97719
62.2254 9.30607 4
73.0099 49.554 0
74.2788 44.8158 0
71.2463 46.5985 0.0268935
72.1659 42.0859 0.0253463
74.9194 39.9526 0
75 37.5 2
72.4028 39.8027 2
71.7793 44.3523 2
69.7958 41.7886 2
70.5712 48.813 2
68.8928 46.0091 2
72.4866 37.513 3.97543
70.0346 39.658 3.96635
69.4179 43.905 3.96589
67.4563 41.4839 3.97538
68.227 48.0985 3.96461
66.534 45.4056 3.97413
74.9197 35.0474 0
74.2794 30.1841 0
72.1826 32.9451 0.0250193
71.2756 28.4328 0.026772
65.694 12.7746 0
65.3192 16.1065 0.0293901
69.8121 24.0597 0.0267701
68.322 26.9607 0.0358403
66.719 22.9477 0.0371918
64.6663 19.2136 0.0389487
63.73 22.0968 0.0356534
72.4108 35.2251 2
71.8009 30.6782 2
69.8326 33.2733 2
68.9548 29.0458 2
64.0165 10.9835 2
63.8852 14.3377 2
63.479 17.4658 2
67.5778 24.9249 2
66.0236 27.6819 2
62.7556 20.3864 2
64.59 23.8888 2
61.8145 23.0519 2
60.6823 11.1081 2
57.6033 11.4745 2
70.0515 35.3955 3.96638
69.4571 31.1554 3.96503
67.5261 33.609 3.97467
66.6185 29.6592 3.97342
65.3532 25.7523 3.96879
63.8262 28.342 3.97592
62.3367 12.6599 3.97284
62.5632 24.7392 3.97315
62.1843 15.8061 3.96131
61.6739 18.7545 3.95948
60.955 21.4567 3.96646
60.042 23.8797 3.97364
59.2375 12.8168 3.96296
55.8673 10.2658 3.97374
56.3911 13.1839 3.96479
69.765 50.9902 0.0270595
62.2254 65.694 0
58.8907 65.4119 0.0199106
67.7792 55.1679 0.0267308
66.5967 52.1959 0.03711
62.3316 62.4239 0.0258295
62.1908 59.3873 0.0383274
64.6186 56.0178 0.0379195
61.704 56.6261 0.0395387
60.6676 63.9691 2
57.0243 66.7282 2
57.5511 63.6709 2
67.4602 50.1641 2
65.6503 54.1579 2
64.346 51.327 2
60.7624 60.9143 2
62.674 55.0117 2
60.5623 58.1054 2
60.1233 55.6937 2
55.0672 67.9301 3.98498
59.2118 62.3306 3.96634
55.7956 64.8813 3.97221
56.316 62.0375 3.97845
65.1325 49.355 3.96898
63.5314 53.2334 3.965
62.1024 50.5493 3.97154
59.2859 59.5084 3.95792
60.824 54.2113 3.96831
59.0879 56.9122 3.96033
58.9657 55.0644 3.96891
48.099 68.5711 3.98116
50.945 69.9306 3.98777
54.0858 71.1327 4
56.25 69.976 2
58.3339 68.6801 0
57.0544 8.33951 3.97795
60.3285 7.74928 4
58.9201 9.66537 2
62.2255 9.30602 2
70.5717 48.8145 0.0270645
71.7799 44.3531 0.025883
68.8884 46.0096 0.0344158
69.7948 41.7888 0.0339399
72.4031 39.8027 0.0242854
75 37.5 0
72.4858 37.5127 2
70.0343 39.6581 2
69.4193 43.9045 2
67.4533 41.4833 2
68.229 48.0976 2
66.5307 45.4044 2
70.1228 37.5237 3.96648
67.7035 39.5075 3.97518
67.0674 43.4464 3.97503
65.2432 41.1826 3.97669
65.8735 47.3729 3.97141
64.3057 44.7815 3.97577
72.4111 35.2255 0.0241709
71.8016 30.6781 0.0256795
69.8333 33.2731 0.0341637
68.9508 29.0454 0.0352274
64.0165 10.9835 0
63.8842 14.3323 0.0330343
63.4842 17.4653 0.0406894
67.5751 24.924 0.0365858
66.0259 27.6807 0.0290449
64.5919 23.8878 0.0332445
62.7548 20.3864 0.037878
61.8168 23.0516 0.0296977
60.6803 11.103 0.0250678
57.6045 11.4824 0.0345472
70.0512 35.3956 2
69.4589 31.1556 2
67.5234 33.6095 2
66.617 29.6602 2
62.3385 12.6656 2
62.1812 15.8061 2
61.6749 18.7542 2
65.351 25.7535 2
63.8238 28.3428 2
60.9536 21.4564 2
62.561 24.7397 2
60.0416 23.8799 2
59.236 12.8152 2
56.3899 13.1802 2
55.8676 10.2723 2
67.7457 35.5579 3.97484
67.1304 31.6491 3.97442
65.4042 33.9598 3.97662
64.3407 30.2639 3.97554
63.2319 26.5091 3.97505
61.8075 28.8963 3.97545
60.7656 14.2518 3.96365
60.6322 25.4863 3.97497
60.5238 17.1917 3.95712
59.9634 19.9404 3.96216
59.2866 22.4196 3.96933
58.5064 24.5122 3.97415
54.0307 9.16325 3.96971
57.886 14.3926 3.9594
54.7762 12.0745 3.97056
55.2802 14.7415 3.95779
67.4584 50.1652 0.0363709
57.0212 66.7322 0.0180257
60.6651 63.9726 0.0227651
57.5502 63.6663 0.0275171
65.6523 54.1596 0.0377042
64.348 51.3278 0.0330605
60.7659 60.9136 0.0334385
60.5669 58.105 0.0424814
62.6739 55.0113 0.0366945
60.124 55.6934 0.0345336
55.0707 67.9269 2
59.2105 62.3341 2
55.7973 64.8809 2
56.3141 62.0382 2
65.1299 49.3539 2
63.5302 53.2331 2
62.1011 50.5488 2
59.2962 59.5152 2
60.8245 54.2117 2
59.0967 56.915 2
58.9734 55.0661 2
53.039 68.998 3.98568
53.9611 66.0004 3.97321
57.8569 60.822 3.96333
54.6639 63.1485 3.9681
55.186 60.5558 3.97585
62.8412 48.5657 3.97396
61.4422 52.473 3.96995
59.7971 49.8719 3.97312
57.8801 58.1767 3.95779
58.9955 53.8176 3.97111
57.8056 55.6738 3.96284
50.1048 67.8478 3.9788
47.4583 66.5652 3.97583
46.0532 69.1515 3.98349
48.1008 68.5702 2
48.7991 70.7221 3.98897
50.9479 69.929 2
51.8506 72.1454 4
54.0858 71.1327 2
56.25 69.9759 0
55.0991 7.14374 3.98265
58.3339 6.31992 4
57.0579 8.34547 2
60.3286 7.74926 2
58.9177 9.65983 0.0228124
62.2254 9.30607 0
68.227 48.0985 0.0353929
69.4179 43.905 0.0341089
66.534 45.4056 0.0258719
67.4563 41.4839 0.0246242
70.0346 39.658 0.0336508
72.4866 37.513 0.0245695
70.122 37.5237 2
67.6998 39.5072 2
67.0653 43.4455 2
65.2411 41.1821 2
65.8709 47.3717 2
64.3033 44.7807 2
67.806 37.525 3.97499
65.4859 39.3586 3.97676
64.8498 42.9773 3.97638
63.3176 40.89 3.9767
63.6073 46.6322 3.97541
62.3211 44.1296 3.97576
70.0515 35.3955 0.033618
69.4571 31.1554 0.0349659
67.5261 33.609 0.0253278
66.6185 29.6592 0.0265789
62.3367 12.6599 0.0271575
62.1843 15.8061 0.0386945
61.6739 18.7545 0.0405198
65.3532 25.7523 0.0312076
63.8262 28.342 0.0240785
62.5632 24.7392 0.0268494
60.955 21.4567 0.0335393
60.042 23.8797 0.0263618
59.2375 12.8168 0.0370422
56.3911 13.1839 0.0352116
55.8673 10.2658 0.0262591
67.7426 35.5581 2
67.1294 31.6498 2
65.4011 33.9604 2
64.3385 30.2648 2
60.7629 14.2518 2
60.514 17.1936 2
59.9593 19.9401 2
63.2303 26.5097 2
61.8066 28.8963 2
59.2903 22.4187 2
60.6312 25.4867 2
58.5042 24.5144 2
57.8872 14.3918 2
55.2752 14.7331 2
54.0338 9.1601 2
54.7705 12.0806 2
65.5856 35.6851 3.97662
64.8701 32.2045 3.97605
63.8941 34.2893 3.97646
62.1262 30.7291 3.97564
61.2149 27.2086 3.97523
60.3042 29.2815 3.97576
59.2577 15.7303 3.9566
58.8134 25.9892 3.97549
58.9279 18.4727 3.95911
58.3836 21.0223 3.96376
57.8283 23.2913 3.97036
57.4522 24.8817 3.97564
52.1078 8.16521 3.97194
53.0416 11.0806 3.9665
56.6225 15.8352 3.95668
53.7942 13.7626 3.97827
54.3033 16.1175 3.95963
55.0672 67.9301 0.0150192
65.1325 49.355 0.031017
55.7956 64.8813 0.0277857
59.2118 62.3306 0.0336605
56.316 62.0375 0.0215474
63.5314 53.2334 0.0349989
62.1024 50.5493 0.0284618
59.2859 59.5084 0.0420806
59.0879 56.9122 0.0396721
60.824 54.2113 0.0316884
58.9657 55.0644 0.0310888
53.0423 68.9961 2
53.9628 65.9988 2
57.8583 60.8247 2
54.6629 63.1503 2
55.184 60.5562 2
62.8396 48.5649 2
61.4419 52.4729 2
59.7983 49.8716 2
57.8849 58.1799 2
59.0008 53.8184 2
57.8028 55.6726 2
52.065 66.9877 3.97621
52.9395 64.1814 3.97349
56.5846 59.4222 3.95774
53.6456 61.5401 3.97098
54.2046 59.2432 3.96345
60.475 47.7372 3.97447
59.2954 51.9628 3.97168
57.4411 49.4253 3.97469
56.5729 56.8704 3.96171
56.6941 53.9513 3.96666
50.1067 67.8466 2
49.3297 65.898 3.9754
47.4599 66.5624 2
46.8841 64.7014 3.97691
45.5556 67.0838 3.97885
43.9711 69.584 3.98463
46.0554 69.1517 2
46.6059 71.3665 3.9903
48.099 68.5711 0.0188358
48.8018 70.721 2
49.554 73.0099 4
50.945 69.9306 0.012232
51.8506 72.1455 2
54.0858 71.1327 0
53.0619 6.07423 3.98684
55.1033 7.14608 2
56.25 5.02411 4
58.3339 6.3199 2
57.0544 8.33951 0.0220502
60.3285 7.74928 0
65.8735 47.3729 0.0285937
67.0674 43.4464 0.0249683
64.3057 44.7815 0.0242301
65.2432 41.1826 0.0233074
67.7035 39.5075 0.0248203
70.1228 37.5237 0.0335193
67.8027 37.525 2
65.4832 39.3584 2
64.847 42.9763 2
63.3176 40.8895 2
63.6054 46.6313 2
62.3204 44.1294 2
65.5959 37.5055 3.97668
63.4694 39.2504 3.97662
62.8651 42.4926 3.97629
61.8938 40.6515 3.97657
61.4598 45.8007 3.97551
60.8528 43.5857 3.97608
67.7457 35.5579 0.0251626
67.1304 31.6491 0.0255818
65.4042 33.9598 0.0233841
64.3407 30.2639 0.0244554
60.7656 14.2518 0.0363491
60.5238 17.1917 0.0428819
59.9634 19.9404 0.0378419
63.2319 26.5091 0.0249489
61.8075 28.8963 0.0245499
60.6322 25.4863 0.0250345
59.2866 22.4196 0.0306706
58.5064 24.5122 0.0258524
57.886 14.3926 0.040599
55.2802 14.7415 0.042206
54.0307 9.16325 0.0302913
54.7762 12.0745 0.0294435
65.5828 35.6854 2
64.8677 32.2051 2
63.8939 34.2897 2
62.1257 30.7293 2
59.2663 15.7263 2
58.9285 18.4703 2
58.3832 21.0225 2
61.2137 27.2088 2
60.3049 29.2816 2
57.8236 23.2943 2
58.8113 25.9898 2
57.4523 24.8842 2
56.5963 15.8371 2
54.3001 16.104 2
53.782 13.7589 2
52.1103 8.16745 2
53.044 11.0771 2
63.6803 35.6572 3.97645
62.4526 33.1124 3.97617
60.0127 30.7424 3.97565
58.9872 28.087 3.97548
57.8111 17.0899 3.95695
57.1465 25.9608 3.97556
57.4148 19.6397 3.95866
56.9166 22.0519 3.96408
56.6479 24.1809 3.9724
50.1086 7.29448 3.98015
51.2206 10.1633 3.97044
52.1416 12.8923 3.96598
55.4195 17.0969 3.95631
52.9305 15.3609 3.96062
53.6476 17.1155 3.95786
53.039 68.998 0.0143217
53.9611 66.0004 0.0267934
62.8412 48.5657 0.0260401
54.6639 63.1485 0.0318967
57.8569 60.822 0.0366737
55.186 60.5558 0.0241513
61.4422 52.473 0.0300473
59.7971 49.8719 0.0268775
57.8801 58.1767 0.0422108
57.8056 55.6738 0.0371586
58.9955 53.8176 0.0288852
52.067 66.9868 2
52.9394 64.183 2
56.5831 59.4228 2
53.6443 61.5397 2
54.1998 59.2448 2
60.4749 47.7365 2
59.2978 51.9629 2
57.4426 49.4249 2
56.5695 56.874 2
56.6918 53.9502 2
51.1587 65.1063 3.97399
52.018 62.476 3.96944
55.3609 58.156 3.96065
52.7684 60.0328 3.96582
53.5514 58.3767 3.96148
57.5942 46.6492 3.97547
57.0504 51.603 3.97148
55.5748 49.3276 3.97351
55.204 55.6484 3.96169
54.8691 53.1892 3.96199
50.1048 67.8478 0.0211959
49.3307 65.9018 2
48.6057 64.0916 3.97812
47.4583 66.5652 0.0241703
45.5567 67.086 2
46.8843 64.7036 2
46.3678 63.0077 3.98183
45.1268 65.1743 3.97885
43.6299 67.4572 3.9806
41.8589 69.8709 3.98443
43.9726 69.584 2
44.3736 71.8612 3.99067
46.0532 69.1515 0.0165109
46.6082 71.3662 2
47.2057 73.7222 4
48.7991 70.7221 0.0110291
49.554 73.0099 2
51.8506 72.1454 0
50.9531 5.13419 3.98931
53.065 6.07601 2
54.0858 3.86728 4
55.0991 7.14374 0.0173452
56.25 5.02406 2
58.3339 6.31992 0
63.6073 46.6322 0.0245933
64.8498 42.9773 0.0236193
62.3211 44.1296 0.0242422
63.3176 40.89 0.023299
65.4859 39.3586 0.0232424
67.806 37.525 0.0250053
65.5931 37.5056 2
63.4694 39.2504 2
62.8655 42.4918 2
61.8949 40.6512 2
61.4592 45.8003 2
60.8533 43.5858 2
63.534 37.4609 3.97651
61.5984 39.3288 3.97686
60.5972 41.8797 3.97673
59.5886 44.6299 3.97559
65.5856 35.6851 0.0233835
64.8701 32.2045 0.0239495
63.8941 34.2893 0.0235368
62.1262 30.7291 0.0243644
59.2577 15.7303 0.0434016
58.9279 18.4727 0.0408902
58.3836 21.0223 0.0362387
61.2149 27.2086 0.0247742
60.3042 29.2815 0.0242418
58.8134 25.9892 0.0245063
57.8283 23.2913 0.0296427
57.4522 24.8817 0.0243566
56.6225 15.8352 0.0433217
54.3033 16.1175 0.0403708
53.7942 13.7626 0.021731
52.1078 8.16521 0.0280559
53.0416 11.0806 0.0335023
63.6805 35.6574 2
62.4539 33.1131 2
60.0137 30.7425 2
57.8177 17.0847 2
57.4252 19.6358 2
56.9156 22.0546 2
58.9877 28.0863 2
56.6555 24.1825 2
57.1474 25.9595 2
50.1117 7.29193 2
55.4157 17.0997 2
53.6516 17.1076 2
52.9197 15.3657 2
52.1487 12.8918 2
51.2222 10.1611 2
61.6414 35.3955 3.97659
59.6243 32.8434 3.97591
57.8996 30.2486 3.97541
56.6087 27.6145 3.97588
56.4444 18.2988 3.95832
55.6632 25.3696 3.97487
55.9897 20.7225 3.95832
55.5791 23.118 3.96489
48.055 6.53424 3.98385
49.3175 9.35528 3.97481
50.4103 12.0653 3.96868
51.3225 14.6106 3.96335
54.2533 18.077 3.96038
52.2695 17.1886 3.95419
52.065 66.9877 0.023791
52.9395 64.1814 0.0265082
60.475 47.7372 0.0255253
53.6456 61.5401 0.0290197
56.5846 59.4222 0.0422602
54.2046 59.2432 0.0365513
59.2954 51.9628 0.0283222
57.4411 49.4253 0.0253118
56.5729 56.8704 0.0382947
56.6941 53.9513 0.0333372
51.1586 65.1037 2
52.0176 62.4792 2
55.3579 58.1562 2
52.7669 60.0346 2
53.5485 58.3793 2
57.5945 46.6485 2
57.049 51.6021 2
55.5736 49.3267 2
55.2028 55.6486 2
54.8677 53.189 2
50.3277 63.349 3.97449
51.1896 60.8479 3.97349
54.061 57.1548 3.96566
52.1795 58.5178 3.96431
55.7889 43.9881 3.97586
54.6957 47.6426 3.97543
54.4226 51.1586 3.96516
53.657 54.3754 3.9644
49.3297 65.898 0.024602
48.6045 64.094 2
47.9392 62.4382 3.98591
45.5556 67.0838 0.0211505
46.8841 64.7014 0.0230853
43.6306 67.4572 2
46.368 63.0123 2
45.1284 65.1702 2
45.9636 61.5356 3.99256
44.7578 63.4109 3.97611
43.3553 65.488 3.97795
41.6628 67.6754 3.97989
39.7014 70.0173 3.98381
41.8602 69.8714 2
42.1085 72.2052 3.99104
43.9711 69.584 0.0153699
44.3754 71.8606 2
44.8159 74.2794 4
46.6059 71.3665 0.00969501
47.2057 73.7222 2
49.554 73.0099 0
48.7845 4.32446 3.99001
50.9554 5.13413 2
51.8506 2.85458 4
53.0619 6.07423 0.0131626
54.0858 3.86728 2
56.25 5.02411 0
61.4598 45.8007 0.0244936
62.8651 42.4926 0.023709
60.8528 43.5857 0.0239221
61.8938 40.6515 0.0234262
63.4694 39.2504 0.0233803
65.5959 37.5055 0.0233234
63.5341 37.461 2
61.5991 39.3286 2
60.599 41.8796 2
59.5896 44.6299 2
61.4232 37.4479 3.97678
59.5349 39.8004 3.97679
58.1945 42.7962 3.97582
63.6803 35.6572 0.0235466
62.4526 33.1124 0.0238281
60.0127 30.7424 0.0243495
57.8111 17.0899 0.043052
57.4148 19.6397 0.0413393
56.9166 22.0519 0.0359212
58.9872 28.087 0.0245193
57.1465 25.9608 0.0244379
56.6479 24.1809 0.0276022
55.4195 17.0969 0.0436881
53.6476 17.1155 0.042135
52.9305 15.3609 0.0393783
50.1086 7.29448 0.019849
52.1416 12.8923 0.0340219
51.2206 10.1633 0.0295598
61.6427 35.396 2
59.6247 32.843 2
57.9012 30.2481 2
56.4434 18.2972 2
56.0136 20.7169 2
55.5873 23.1207 2
56.6107 27.6152 2
55.6699 25.3723 2
48.0559 6.53518 2
49.3183 9.35511 2
54.2601 18.0814 2
52.2587 17.1885 2
51.3237 14.6107 2
50.4144 12.0686 2
59.1635 35.1699 3.97659
57.1563 32.4054 3.97532
55.7319 29.566 3.97557
54.6974 26.9022 3.97491
55.1057 19.3615 3.96163
54.3533 24.3366 3.97202
54.5709 21.8018 3.96109
45.9616 5.88788 3.98592
43.3736 7.48306 3.98152
47.3523 8.63757 3.97733
48.5837 11.3409 3.97116
49.6689 13.8227 3.96837
50.5479 16.268 3.96067
52.9491 18.8592 3.96456
51.1873 18.2691 3.95808
51.1587 65.1063 0.0260137
52.018 62.476 0.0305622
57.5942 46.6492 0.0245275
52.7684 60.0328 0.0341845
55.3609 58.156 0.0393548
53.5514 58.3767 0.0385224
57.0504 51.603 0.0285191
55.5748 49.3276 0.026489
55.204 55.6484 0.0383082
54.8691 53.1892 0.0380078
50.3262 63.348 2
51.1889 60.8495 2
54.0586 57.156 2
52.1725 58.5193 2
55.7913 43.9895 2
54.6953 47.642 2
54.4187 51.1573 2
53.6506 54.3759 2
49.5546 61.7062 3.97454
54.4869 41.5967 3.97369
50.4683 59.2299 3.96527
51.9478 56.3512 3.96359
53.1643 45.2773 3.97373
52.5257 49.0582 3.97032
52.1516 52.6441 3.959
48.6057 64.0916 0.0218807
47.9394 62.4371 2
47.2927 60.9655 3.9924
43.6299 67.4572 0.019396
45.1268 65.1743 0.0211477
46.3678 63.0077 0.0181655
41.6639 67.6749 2
43.358 65.4884 2
45.9639 61.5411 2
44.7581 63.4094 2
45.7283 60.5813 3.99443
44.4667 61.782 3.97866
43.1409 63.6905 3.97862
41.546 65.6265 3.97462
39.6326 67.7531 3.97879
37.526 70.0416 3.98346
39.7024 70.0174 2
39.8162 72.4022 3.9913
41.8589 69.8709 0.0155653
42.1099 72.2055 2
42.3947 74.6792 4
44.3736 71.8612 0.00932784
44.8159 74.2794 2
47.2057 73.7222 0
43.851 5.36397 3.9858
46.5707 3.64907 3.99085
48.7855 4.32523 2
49.554 1.99015 4
50.9531 5.13419 0.0106902
51.8506 2.85453 2
54.0858 3.86728 0
59.5886 44.6299 0.0244086
60.5972 41.8797 0.0232709
61.5984 39.3288 0.0231355
63.534 37.4609 0.0234912
61.4232 37.4482 2
59.5365 39.799 2
58.1962 42.7968 2
59.0201 37.567 3.97732
57.1084 40.5734 3.97743
53.8868 39.6239 3.97555
61.6414 35.3955 0.0234142
59.6243 32.8434 0.0240853
57.8996 30.2486 0.024592
56.4444 18.2988 0.0416754
55.9897 20.7225 0.041682
55.5791 23.118 0.0351075
56.6087 27.6145 0.0241248
55.6632 25.3696 0.0251346
54.2533 18.077 0.0396212
52.2695 17.1886 0.0458103
51.3225 14.6106 0.0366492
48.055 6.53424 0.0161495
49.3175 9.35528 0.0251926
50.4103 12.0653 0.0313162
59.1651 35.1707 2
45.9623 5.88773 2
43.3737 7.48158 2
57.1561 32.4066 2
55.7316 29.5645 2
55.0939 19.3666 2
54.6069 21.7981 2
54.3545 24.3416 2
54.6998 26.9019 2
47.3524 8.63712 2
48.5865 11.3371 2
52.9446 18.8218 2
51.1827 18.2641 2
50.5536 16.2699 2
49.6698 13.8297 2
56.4666 34.8361 3.97703
54.7654 31.7119 3.97486
53.6313 28.686 3.97657
53.0771 25.8197 3.97407
53.6929 20.3468 3.96357
53.0983 22.9935 3.96308
41.3996 7.08489 3.98272
45.3589 8.00295 3.98582
42.8654 9.43199 3.97097
46.6586 10.6822 3.97764
47.7079 13.1536 3.96932
48.8591 15.4891 3.96936
49.892 17.8482 3.96122
51.4651 19.5589 3.98528
50.3277 63.349 0.0255114
51.1896 60.8479 0.0265083
55.7889 43.9881 0.0241369
54.6957 47.6426 0.0245713
52.1795 58.5178 0.0356882
54.061 57.1548 0.0343372
54.4226 51.1586 0.0348381
53.657 54.3754 0.0355992
49.5546 61.7034 2
54.486 41.5944 2
50.4655 59.2359 2
51.9543 56.3558 2
53.1596 45.2737 2
52.523 49.056 2
52.1547 52.6443 2
48.7817 60.1555 3.98975
51.1872 42.4637 3.98363
49.6285 57.5212 3.96366
50.2344 54.2639 3.9607
50.8303 46.9613 3.97585
50.563 50.7083 3.95295
46.9078 43.4562 3.96581
47.9392 62.4382 0.0140904
47.2942 60.9666 2
46.5652 59.7509 3.99335
41.6628 67.6754 0.0201127
43.3553 65.488 0.022052
44.7578 63.4109 0.0238908
45.9636 61.5356 0.0074377
39.6339 67.7537 2
41.5479 65.6241 2
45.728 60.5868 2
43.14 63.6888 2
44.4654 61.7844 2
44.5855 60.2353 3.99286
42.937 62.0401 3.9762
41.5967 63.7934 3.9784
39.6467 65.5918 3.9744
37.5637 67.7344 3.97728
31.6988 65.1097 3.97343
33.3937 67.4731 3.97785
35.3343 69.9527 3.98391
37.5261 70.0435 2
37.5092 72.4562 3.99181
39.7014 70.0173 0.0161915
39.8171 72.4022 2
39.9526 74.9197 4
42.1085 72.2052 0.00896298
42.3947 74.6792 2
44.8159 74.2794 0
41.7361 4.97144 3.98764
43.8516 5.36275 2
44.3265 3.11188 3.99189
46.5717 3.6493 2
47.2057 1.27793 4
48.7845 4.32446 0.00998957
49.554 1.99013 2
51.8506 2.85458 0
58.1945 42.7962 0.0241779
59.5349 39.8004 0.0232141
61.4232 37.4479 0.0232232
59.0195 37.5676 2
57.1139 40.5739 2
53.889 39.6299 2
55.8229 37.875 3.97727
48.2105 41.1739 3.96821
51.7622 39.2415 3.97966
39.4429 6.80887 3.98197
59.1635 35.1699 0.023407
57.1563 32.4054 0.0246792
55.7319 29.566 0.0244287
55.1057 19.3615 0.0383654
54.5709 21.8018 0.0389089
54.3533 24.3366 0.0279759
54.6974 26.9022 0.0250937
52.9491 18.8592 0.0354406
51.1873 18.2691 0.0419197
50.5479 16.268 0.0393258
45.9616 5.88788 0.0140821
49.6689 13.8227 0.0316344
47.3523 8.63757 0.0226745
48.5837 11.3409 0.0288412
43.3736 7.48306 0.0184781
56.4706 34.8347 2
41.4 7.0861 2
45.3587 8.00304 2
42.8652 9.4322 2
54.768 31.7136 2
53.6294 28.6886 2
53.6935 20.353 2
53.0801 22.9971 2
53.0781 25.8181 2
46.6595 10.6786 2
47.7116 13.154 2
51.4708 19.5562 2
49.8893 17.8463 2
48.8611 15.5171 2
53.7032 34.0492 3.97509
52.4376 30.7812 3.97509
51.7497 27.5521 3.97479
51.5838 24.4427 3.9746
52.0771 21.3122 3.9821
41.0125 9.05798 3.97672
44.7269 10.0053 3.98498
42.453 10.919 4.00478
45.9702 12.7541 3.96558
47.6259 14.6796 3.96632
48.006 17.0846 3.967
49.6893 19.9572 3.98545
49.5546 61.7062 0.0254591
50.4683 59.2299 0.0347278
54.4869 41.5967 0.0263075
53.1643 45.2773 0.0262656
52.5257 49.0582 0.0296814
51.9478 56.3512 0.0364094
52.1516 52.6441 0.0409994
48.7801 60.1511 2
51.2005 42.4844 2
49.6276 57.5195 2
50.2373 54.2669 2
50.8324 46.9612 2
50.5681 50.7081 2
46.9172 43.4985 2
47.8882 58.6576 3.99048
48.9085 45.0001 3.98226
48.3613 55.7957 3.95463
48.6677 52.4073 3.97969
48.8961 48.7763 3.96899
44.6091 39.7244 3.83181
45.1382 42.384 3.87642
45.4486 45.4234 3.98313
42.4772 40.9614 3.61824
41.3729 41.628 3.41622
47.2927 60.9655 0.00760348
46.5619 59.7566 2
45.4018 58.7444 3.99563
39.6326 67.7531 0.0212091
41.546 65.6265 0.0253811
43.1409 63.6905 0.0213825
44.4667 61.782 0.0213395
45.7283 60.5813 0.00556728
41.5977 63.7888 2
37.5646 67.7371 2
39.6493 65.5924 2
44.587 60.2383 2
42.935 62.0428 2
41.7423 62.448 3.97723
42.45 59.9357 3.98763
39.8928 63.5275 3.97722
37.6415 65.4883 3.97387
35.4642 67.6446 3.97724
33.5765 65.3208 3.97426
31.9626 63.264 3.97834
29.8877 64.6973 3.9792
31.6981 65.1094 2
31.3794 67.1836 3.97834
33.393 67.4749 2
33.1582 69.7463 3.98389
35.3337 69.9543 2
35.1963 72.3712 3.99198
37.526 70.0416 0.016535
37.5097 72.4569 2
37.5 75 4
39.8162 72.4022 0.00869588
39.9526 74.9197 2
42.3947 74.6792 0
39.6243 4.719 3.98844
41.7363 4.97168 2
42.0631 2.71883 3.99241
43.851 5.36397 0.014199
44.327 3.11135 2
44.8158 0.721173 4
46.5707 3.64907 0.00914918
47.2057 1.27779 2
49.554 1.99015 0
57.1084 40.5734 0.0225744
59.0201 37.567 0.0226802
53.8868 39.6239 0.0244518
48.236 41.1888 2
55.8252 37.8731 2
51.7592 39.2208 2
52.6246 36.6169 3.9771
46.1408 40.2562 3.88754
49.133 38.4905 3.97768
37.5168 6.67752 3.98485
39.4438 6.80867 2
39.2102 8.70303 3.98007
35.9428 8.49965 3.98192
56.4666 34.8361 0.0229688
54.7654 31.7119 0.0251449
53.6313 28.686 0.0234333
53.6929 20.3468 0.0364309
53.0983 22.9935 0.0369166
53.0771 25.8197 0.0259317
51.4651 19.5589 0.0147205
49.892 17.8482 0.0387847
48.8591 15.4891 0.030642
45.3589 8.00295 0.014184
47.7079 13.1536 0.0306804
46.6586 10.6822 0.0223597
41.3996 7.08489 0.017279
42.8654 9.43199 0.0290317
53.6978 34.0398 2
41.0132 9.06161 2
44.7252 10.0057 2
42.4558 10.9242 2
52.4294 30.7791 2
51.7621 27.5514 2
52.0778 21.3167 2
51.5665 24.444 2
45.9746 12.7519 2
47.6204 14.6528 2
49.7054 19.9757 2
48.0023 17.088 2
51.1614 33.0042 3.97899
50.2667 29.5194 3.97622
50.0606 26.0424 3.97051
49.6374 22.5573 3.98221
40.5575 11.6178 3.98524
43.8257 11.918 3.96664
45.7479 15.5519 3.9905
47.3963 19.5766 3.98112
45.0363 37.4873 3.835
48.7817 60.1555 0.0102458
49.6285 57.5212 0.0363356
51.1872 42.4637 0.0163651
50.8303 46.9613 0.0241463
50.563 50.7083 0.0470533
50.2344 54.2639 0.0393015
46.9078 43.4562 0.0341938
47.8834 58.6626 2
48.924 45.0127 2
48.3587 55.7975 2
48.6701 52.4126 2
48.9011 48.7795 2
44.7283 39.7511 2
45.1698 42.4048 2
45.4587 45.4441 2
42.5437 41.0197 2
41.4164 41.6533 2
46.6983 57.2608 3.98522
43.1525 39.3495 3.61038
41.7584 40.599 3.40413
47.1351 47.0143 3.98377
46.8585 54.0878 3.96008
47.0195 50.5438 3.97707
44.0625 47.0544 3.98751
43.7963 41.7404 3.83323
43.9645 44.1678 3.8646
41.6287 42.2847 3.67168
40.4616 41.9116 3.36158
46.5652 59.7509 0.00664801
45.3994 58.7439 2
43.8091 57.6116 3.98315
37.5637 67.7344 0.0227184
39.6467 65.5918 0.0255965
41.5967 63.7934 0.0216012
42.937 62.0401 0.0237952
44.5855 60.2353 0.00713887
35.4641 67.6471 2
41.7399 62.4525 2
39.8921 63.5287 2
37.6431 65.4919 2
42.452 59.9374 2
40.6124 61.5886 3.98557
40.415 58.1073 3.9866
37.8366 63.1843 3.97239
35.5728 65.4119 3.97597
33.5763 65.3204 2
31.9651 63.265 2
33.6305 63.3125 3.9782
30.3838 62.8264 3.98162
32.1343 61.9668 3.98811
26.8916 61.4304 3.98561
28.0711 64.1249 3.98166
29.8877 64.6962 2
29.4098 66.7472 3.9779
31.6988 65.1097 0.0265741
31.3786 67.1842 2
31.0163 69.4116 3.98344
33.3937 67.4731 0.0221462
33.1571 69.7476 2
32.8946 72.1455 3.99128
35.3343 69.9527 0.016085
35.1959 72.372 2
35.0474 74.9194 4
37.5092 72.4562 0.00818963
37.5 75 2
39.9526 74.9197 0
35.6213 6.72952 3.98316
37.5243 4.61807 3.98914
39.6245 4.71843 2
39.7897 2.47535 3.99264
41.7361 4.97144 0.0123616
42.0632 2.71885 2
42.3946 0.32156 4
44.3265 3.11188 0.00810981
44.8159 0.72056 2
47.2057 1.27793 0
48.2105 41.1739 0.0317931
55.8229 37.875 0.0227343
51.7622 39.2415 0.0203364
46.1663 40.2614 2
49.136 38.4723 2
52.6576 36.6315 2
49.9472 35.5492 3.97669
46.7774 37.7296 3.88085
44.6364 35.2237 3.83378
42.5272 33.9749 3.61831
41.4123 33.3059 3.41541
37.4582 8.53776 3.98389
37.5179 6.67792 2
39.4429 6.80887 0.0180272
39.212 8.70321 2
38.9722 10.1391 3.9895
35.8983 9.78287 3.98071
34.1529 8.83214 3.97969
35.9444 8.49875 2
53.7032 34.0492 0.0249135
52.4376 30.7812 0.0249149
51.7497 27.5521 0.0252107
52.0771 21.3122 0.0179022
51.5838 24.4427 0.0254013
49.6893 19.9572 0.014552
48.006 17.0846 0.0330025
47.6259 14.6796 0.0336828
44.7269 10.0053 0.0150235
45.9702 12.7541 0.0344209
41.0125 9.05798 0.0232773
42.453 10.919 -0.0047758
51.1745 32.9933 2
40.5636 11.6268 2
43.8282 11.9142 2
50.2791 29.5211 2
50.0612 26.0548 2
49.62 22.5204 2
45.7322 15.481 2
47.4072 19.613 2
48.7551 31.5854 3.98308
48.4018 27.8152 3.97442
48.8578 24.6731 3.98078
46.9914 22.3659 3.99331
38.2971 12.7616 3.97822
42.072 14.3686 3.98406
44.7189 18.6724 3.97906
43.5381 37.4764 3.62653
45.139 37.4785 2
47.8882 58.6576 0.0095218
48.3613 55.7957 0.0453706
48.9085 45.0001 0.0177428
48.8961 48.7763 0.0310094
48.6677 52.4073 0.0203111
44.6091 39.7244 0.168187
45.1382 42.384 0.123575
45.4486 45.4234 0.0168666
42.4772 40.9614 0.381763
41.3729 41.628 0.583783
46.6959 57.2662 2
43.238 39.3729 2
41.7749 40.6111 2
47.1433 47.0156 2
46.8538 54.0918 2
47.0213 50.5555 2
44.1039 47.0603 2
43.8681 41.787 2
44.0216 44.2015 2
41.6785 42.3629 2
40.5046 41.9325 2
45.2204 55.8227 4.00111
42.0954 39.1332 3.41399
40.345 40.4989 3.4986
45.4114 48.6604 4.00215
45.1143 52.3353 3.98943
42.8564 48.0366 3.99025
42.7167 45.6803 3.86711
42.7898 43.4936 3.82295
40.6568 43.2255 3.63372
39.1436 42.1788 3.43509
45.4018 58.7444 0.00436959
43.8055 57.6244 2
42.0291 56.1758 3.99057
35.4642 67.6446 0.0227635
37.6415 65.4883 0.0261331
39.8928 63.5275 0.0227849
41.7423 62.448 0.0227669
42.45 59.9357 0.012369
35.5741 65.4159 2
40.6115 61.5878 2
37.8373 63.1825 2
40.4132 58.1152 2
38.8982 56.3127 3.99586
38.2416 60.2708 3.98471
35.6071 63.179 3.9722
33.5765 65.3208 0.0257403
31.9626 63.264 0.0216585
33.6334 63.315 2
30.3857 62.8275 2
32.137 61.9678 2
28.6924 62.1642 3.97977
33.3528 61.4751 3.98244
31.0876 61.1949 3.99159
27.6174 59.528 3.97999
23.8588 58.9913 3.98659
25.0673 60.7934 3.97793
26.8925 61.4331 2
26.2426 63.4535 3.97388
28.0706 64.1215 2
27.4678 66.1658 3.9757
29.8877 64.6973 0.0207961
29.4086 66.7452 2
28.9089 68.9371 3.98242
31.3794 67.1836 0.0216633
31.0148 69.4116 2
30.6177 71.7771 3.99052
33.1582 69.7463 0.0161113
32.8934 72.146 2
32.6054 74.6784 4
35.1963 72.3712 0.00802243
35.0474 74.9197 2
37.5 75 0
33.7244 6.98601 3.98174
35.4365 4.68805 3.98848
35.6224 6.72922 2
37.5156 2.38788 3.99281
37.5245 4.61776 2
39.6243 4.719 0.0115637
39.7896 2.47501 2
39.9526 0.0806499 4
42.0631 2.71883 0.00759046
42.3947 0.320817 2
44.8158 0.721173 0
43.1795 35.5981 3.61728
41.7888 34.3296 3.3876
46.1408 40.2562 0.112463
49.133 38.4905 0.0223232
52.6246 36.6169 0.0228986
46.7778 37.7152 2
49.9634 35.5613 2
44.7377 35.2081 2
42.583 33.9154 2
41.4399 33.2815 2
47.0184 34.4109 3.93358
43.852 33.2041 3.82687
41.6839 32.6535 3.66869
40.4876 33.033 3.36103
37.3092 10.6355 3.98119
37.4602 8.5393 2
37.5168 6.67752 0.0151461
39.2102 8.70303 0.0199308
38.9779 10.1406 2
34.7559 10.3943 3.97706
35.9035 9.7799 2
32.3808 9.38048 3.97501
34.1531 8.82933 2
35.9428 8.49965 0.0180838
51.1614 33.0042 0.0210132
50.2667 29.5194 0.0237777
50.0606 26.0424 0.0294893
49.6374 22.5573 0.0177916
47.3963 19.5766 0.0188782
45.7479 15.5519 0.00950056
43.8257 11.918 0.0333599
40.5575 11.6178 0.0147615
48.7727 31.5678 2
38.3005 12.7594 2
42.0799 14.3787 2
48.3987 27.8131 2
48.8562 24.6779 2
46.9799 22.3589 2
44.7319 18.7402 2
46.7123 29.825 3.98079
46.5444 25.3831 3.97828
44.1681 21.6819 3.98354
36.587 12.9772 3.97637
38.6706 14.887 3.97751
41.6972 17.9984 3.98089
42.2691 37.4515 3.44571
43.6118 37.4778 2
45.0363 37.4873 0.165
46.6983 57.2608 0.0147797
46.8585 54.0878 0.0399163
47.1351 47.0143 0.0162296
47.0195 50.5438 0.0229272
43.1525 39.3495 0.38962
43.7963 41.7404 0.166774
43.9645 44.1678 0.135396
44.0625 47.0544 0.0124939
41.6287 42.2847 0.328323
41.7584 40.599 0.595872
40.4616 41.9116 0.638417
45.218 55.8272 2
42.109 39.1413 2
40.4069 40.4895 2
45.4127 48.6825 2
45.1097 52.3387 2
42.8954 48.057 2
42.786 45.742 2
42.8331 43.5293 2
40.7154 43.307 2
39.1295 42.2055 2
43.54 54.2654 4.00166
40.4302 38.9794 3.52623
39.0403 40.5856 3.47377
43.1761 50.1354 4.00303
41.5246 47.1712 3.91794
41.4403 44.7712 3.82354
39.3648 43.8772 3.60693
37.5109 42.3176 3.492
43.8091 57.6116 0.0168544
42.0363 56.1626 2
40.3374 54.7343 3.99448
35.5728 65.4119 0.024026
37.8366 63.1843 0.0276088
40.6124 61.5886 0.0144285
40.415 58.1073 0.0134017
35.6093 63.1752 2
38.238 60.269 2
38.9003 56.2922 2
37.9728 54.9936 3.99549
36.9206 57.5183 3.99286
35.3653 60.8732 3.98436
33.6305 63.3125 0.0217999
30.3838 62.8264 0.0183849
32.1343 61.9668 0.0118869
33.3553 61.4747 2
28.6932 62.1701 2
31.0902 61.1974 2
29.4381 60.2531 3.982
32.3698 59.663 3.99604
28.0982 58.3187 4.01833
27.6185 59.5274 2
25.4492 58.5162 3.97812
22.8563 58.1452 3.97157
23.4413 60.2587 3.97581
23.86 58.9921 2
25.0687 60.794 2
24.4509 62.7259 3.97538
26.8916 61.4304 0.0143926
26.2427 63.452 2
25.5534 65.4751 3.97511
28.0711 64.1249 0.0183372
27.4672 66.1669 2
26.8393 68.3226 3.98064
29.4098 66.7472 0.0221012
28.9077 68.9358 2
28.3731 71.2626 3.98961
31.0163 69.4116 0.0165622
30.6161 71.7768 2
30.1842 74.2788 4
32.8946 72.1455 0.00872277
32.6053 74.6792 2
35.0474 74.9194 0
31.789 7.42659 3.97943
33.349 4.92799 3.98723
33.725 6.98444 2
35.2462 2.46365 3.99287
35.4364 4.68797 2
35.6213 6.72952 0.0168379
37.5 0 4
37.5151 2.38769 2
37.5243 4.61807 0.0108623
39.7897 2.47535 0.00736096
39.9526 0.0802889 2
42.3946 0.32156 0
42.0911 35.767 3.38321
43.2749 35.5729 2
40.3984 34.424 3.50317
41.7949 34.3123 2
46.7774 37.7296 0.119151
49.9472 35.5492 0.0233078
44.6364 35.2237 0.166218
42.5272 33.9749 0.381691
41.4123 33.3059 0.584594
47.0523 34.419 2
43.911 33.1526 2
41.7341 32.5767 2
40.5246 33.0129 2
45.1687 31.8588 3.88879
42.8471 31.446 3.81344
40.7031 31.7144 3.63468
39.1531 32.7819 3.43208
35.6971 11.7936 3.97439
37.3168 10.6373 2
37.4582 8.53776 0.0161143
38.9722 10.1391 0.0105011
33.1025 11.2355 3.97253
34.7586 10.3876 2
35.8983 9.78287 0.0192878
30.4874 10.0331 3.97588
32.3807 9.3798 2
34.1529 8.83214 0.0203119
48.7551 31.5854 0.0169225
48.4018 27.8152 0.0255772
48.8578 24.6731 0.0192158
46.9914 22.3659 0.00668834
44.7189 18.6724 0.0209374
42.072 14.3686 0.0159425
38.2971 12.7616 0.0217784
36.585 12.9598 2
46.7025 29.7653 2
38.6721 14.8698 2
41.6943 17.999 2
46.5472 25.3673 2
44.1486 21.6638 2
44.75 27.967 3.99415
43.4538 24.3222 4.02088
41.2521 21.0239 3.99486
35.7714 14.8169 3.98359
38.6429 17.7327 3.9869
40.4852 37.4213 3.54967
42.2883 37.4569 2
43.5381 37.4764 0.373469
45.2204 55.8227 -0.00111483
45.1143 52.3353 0.010572
45.4114 48.6604 -0.00215378
42.0954 39.1332 0.586006
42.7898 43.4936 0.177054
42.7167 45.6803 0.132892
42.8564 48.0366 0.00975239
40.6568 43.2255 0.366281
40.345 40.4989 0.501404
39.1436 42.1788 0.564915
43.5352 54.26 2
40.4598 38.9819 2
39.0306 40.5868 2
43.1679 50.1558 2
41.5173 47.2 2
41.467 44.8146 2
37.5054 42.3413 2
39.382 43.955 2
41.6929 52.7142 4.00043
39.0506 39.0353 3.46951
37.5085 40.6326 3.52614
35.8794 42.1908 3.43091
40.7048 49.2729 3.99146
39.645 45.4578 3.78659
37.5052 44.1577 3.65227
42.0291 56.1758 0.00943207
40.3397 54.7417 2
38.7036 53.4912 3.99663
35.6071 63.179 0.0278037
38.2416 60.2708 0.0152862
38.8982 56.3127 0.00414105
35.3644 60.8574 2
36.9224 57.5279 2
37.9642 54.9856 2
36.3131 55.0862 3.9981
34.4936 58.4442 3.99459
33.3528 61.4751 0.0175589
28.6924 62.1642 0.0202293
31.0876 61.1949 0.00841482
32.3691 59.6681 2
29.4396 60.2554 2
30.3597 57.7548 3.99199
28.1007 58.3173 2
27.0881 56.7554 3.96884
27.6174 59.528 0.0200129
25.4508 58.5171 2
24.0088 56.6969 3.96012
21.5059 57.2767 3.9574
22.0465 59.5354 3.97714
22.8569 58.147 2
22.7606 61.9524 3.97286
23.4425 60.2592 2
23.8588 58.9913 0.01341
25.0673 60.7934 0.0220691
24.4514 62.7261 2
23.6899 64.6871 3.97246
26.2426 63.4535 0.026116
25.5533 65.4767 2
24.8117 67.5841 3.97911
27.4678 66.1658 0.024304
26.8376 68.3249 2
26.1686 70.6027 3.98871
28.9089 68.9371 0.0175798
28.3713 71.2618 2
27.7943 73.7221 4
30.6177 71.7771 0.00948173
30.1841 74.2794 2
32.6054 74.6784 0
29.8121 8.00398 3.97729
31.2544 5.33534 3.98586
31.7892 7.42552 2
32.9823 2.70189 3.99228
33.3486 4.92721 2
33.7244 6.98601 0.018257
35.0474 0.080333 4
35.2454 2.46376 2
35.4365 4.68805 0.0115185
37.5 0 2
37.5156 2.38788 0.00719255
39.9526 0.0806499 0
40.5164 35.9035 3.54302
42.1129 35.7663 2
43.1795 35.5981 0.38272
28.5486 10.7077 3.97669
39.0499 34.3798 3.46555
40.4128 34.4236 2
41.7888 34.3296 0.612398
47.0184 34.4109 0.0664216
43.852 33.2041 0.173132
41.6839 32.6535 0.331306
40.4876 33.033 0.63897
45.1997 31.8434 2
42.8914 31.4062 2
40.7557 31.6343 2
39.148 32.751 2
43.6172 30.1205 3.87324
41.4659 30.1618 3.82401
39.3832 31.0719 3.6086
37.529 32.6566 3.48966
34.1023 12.9588 3.97557
35.6994 11.7829 2
37.3092 10.6355 0.0188105
31.1932 12.0069 3.97701
33.1057 11.2332 2
34.7559 10.3943 0.022942
30.485 10.0282 2
32.3808 9.38048 0.0249858
46.7123 29.825 0.0192077
46.5444 25.3831 0.0217208
36.587 12.9772 0.0236303
44.1681 21.6819 0.0164578
41.6972 17.9984 0.0191114
38.6706 14.887 0.0224914
35.7724 14.8232 2
44.7465 27.9706 2
38.6474 17.7237 2
41.2382 21.003 2
43.445 24.3001 2
33.6241 15.9171 3.99146
42.5913 26.7846 3.97625
40.7621 23.6551 3.99383
38.3689 20.5274 3.99288
35.84 17.6095 3.98589
39.0715 37.4821 3.47109
40.5031 37.4286 2
42.2691 37.4515 0.554286
43.54 54.2654 -0.00165854
43.1761 50.1354 -0.00303299
40.4302 38.9794 0.473767
41.4403 44.7712 0.176462
41.5246 47.1712 0.0820643
39.3648 43.8772 0.393075
39.0403 40.5856 0.526232
37.5109 42.3176 0.507996
41.679 52.7084 2
39.0362 39.0258 2
37.5016 40.6309 2
40.6863 49.2802 2
35.8897 42.2159 2
39.6742 45.5266 2
37.5023 44.2413 2
39.696 51.4805 3.99986
37.5134 39.033 3.5194
35.9914 40.6038 3.47415
34.5571 41.935 3.36279
35.649 43.8944 3.60561
38.6282 48.1193 3.92615
37.522 45.7537 3.82117
40.3374 54.7343 0.0055236
38.7014 53.5064 2
36.7734 52.8457 3.99711
35.3653 60.8732 0.0156374
36.9206 57.5183 0.00713862
37.9728 54.9936 0.00451382
34.4929 58.4557 2
36.3147 55.0779 2
33.2928 55.284 3.99401
32.3698 59.663 0.00395655
29.4381 60.2531 0.0180044
30.3611 57.7504 2
28.8957 55.2618 3.99466
28.0982 58.3187 -0.0183336
27.0905 56.7544 2
25.5688 55.0253 3.95416
22.1037 55.1934 3.96004
25.4492 58.5162 0.0218786
24.0103 56.6989 2
20.3902 56.9056 3.96227
20.7236 58.6835 3.96079
21.5077 57.2783 2
21.1978 61.0863 3.97156
22.0469 59.536 2
22.8563 58.1452 0.0284306
21.9076 63.7969 3.97219
22.7616 61.9538 2
23.4413 60.2587 0.0241931
24.4509 62.7259 0.0246193
23.6898 64.689 2
22.8402 66.726 3.97629
25.5534 65.4751 0.0248887
24.8101 67.5839 2
24.013 69.8045 3.98822
26.8393 68.3226 0.0193632
26.1659 70.6029 2
25.446 73.0099 4
28.3731 71.2626 0.0103932
27.7943 73.7222 2
30.1842 74.2788 0
27.8222 8.66428 3.97789
29.1567 5.88284 3.98342
29.8111 8.00025 2
30.7279 3.09891 3.99178
31.2538 5.33415 2
31.789 7.42659 0.020572
32.6053 0.320823 4
32.9811 2.70177 2
33.349 4.92799 0.0127743
35.0474 0.0802903 2
35.2462 2.46365 0.00713186
37.5 0 0
39.0042 35.9339 3.48196
40.4967 35.9 2
42.0911 35.767 0.616789
28.546 10.7046 2
26.63 11.4074 3.97587
29.2345 12.6575 3.98035
37.5326 34.3459 3.5265
39.0745 34.3931 2
40.3984 34.424 0.496831
45.1687 31.8588 0.111212
42.8471 31.446 0.186563
40.7031 31.7144 0.36532
39.1531 32.7819 0.567916
43.6443 30.0916 2
41.5045 30.1183 2
39.3963 30.9941 2
37.5342 32.6283 2
41.881 28.8365 3.85726
39.6505 29.4773 3.80703
37.5238 30.8077 3.65477
35.8931 32.7884 3.43787
31.9359 14.5039 3.98293
34.1038 12.9642 2
35.6971 11.7936 0.0256081
31.1943 11.9969 2
33.1025 11.2355 0.0274676
30.4874 10.0331 0.0241231
44.75 27.967 0.00585192
43.4538 24.3222 -0.0208785
35.7714 14.8169 0.0164142
41.2521 21.0239 0.00513943
38.6429 17.7327 0.0131007
33.6123 15.904 2
35.8374 17.5805 2
42.6635 26.7565 2
38.3561 20.5633 2
40.7495 23.6527 2
33.5603 17.4606 3.99027
40.2056 26.1444 3.96561
38.0186 23.4021 3.99685
35.5312 20.3139 3.99633
37.526 37.4765 3.53639
39.0466 37.4722 2
40.4852 37.4213 0.450334
41.6929 52.7142 -0.000431763
40.7048 49.2729 0.00853975
39.0506 39.0353 0.530488
39.645 45.4578 0.21341
37.5052 44.1577 0.347727
37.5085 40.6326 0.473858
35.8794 42.1908 0.569092
39.679 51.4753 2
37.5105 39.0332 2
35.9842 40.5879 2
38.6474 48.1825 2
34.5208 41.9553 2
35.6343 43.9667 2
37.5086 45.8126 2
37.6812 50.4442 3.9905
36.0204 39.048 3.48386
34.6649 40.5315 3.50577
33.6363 41.6568 3.41891
34.3717 43.2488 3.62618
35.3195 45.5045 3.81141
36.9221 47.736 3.88676
38.7036 53.4912 0.00337032
36.775 52.7947 2
34.4988 52.161 4.00159
34.4936 58.4442 0.00540914
36.3131 55.0862 0.00189601
33.2938 55.2923 2
30.7487 53.2228 3.99933
30.3597 57.7548 0.00801066
28.8958 55.2567 2
27.2271 53.2955 3.95586
27.0881 56.7554 0.0311613
25.5712 55.0275 2
23.981 53.2955 3.95354
20.9679 53.0179 3.95886
20.206 55.6833 3.96106
22.1028 55.1949 2
24.0088 56.6969 0.0398776
19.5555 57.783 3.96097
20.3862 56.9087 2
19.7378 60.1214 3.96992
20.7176 58.6873 2
21.5059 57.2767 0.0425995
20.2251 62.7931 3.97115
21.1996 61.0884 2
22.0465 59.5354 0.0228646
20.9426 65.7516 3.97351
21.9078 63.801 2
22.7606 61.9524 0.027137
23.6899 64.6871 0.0275391
22.839 66.7253 2
21.9157 68.8718 3.98707
24.8117 67.5841 0.0208919
24.0097 69.803 2
23.1494 72.1454 4
26.1686 70.6027 0.0112932
25.446 73.0099 2
27.7943 73.7221 0
25.8623 9.39506 3.97602
27.0715 6.54766 3.98175
27.82 8.66192 2
28.4904 3.64491 3.99066
29.1553 5.88094 2
29.8121 8.00398 0.0227063
30.1841 0.720592 4
30.7259 3.09879 2
31.2544 5.33534 0.0141361
32.6053 0.320817 2
32.9823 2.70189 0.00772192
35.0474 0.080333 0
37.5194 35.9262 3.51069
38.9847 35.9127 2
40.5164 35.9035 0.456983
24.7891 12.0872 3.97402
23.7781 14.4378 3.97995
28.5486 10.7077 0.0233068
26.6256 11.402 2
29.2355 12.655 2
27.3022 13.3995 3.97365
29.8045 14.2143 3.98841
35.9912 34.3798 3.47899
37.5444 34.3439 2
39.0499 34.3798 0.53445
37.529 32.6566 0.51034
43.6172 30.1205 0.126764
41.4659 30.1618 0.17599
39.3832 31.0719 0.391403
41.9146 28.7605 2
39.6748 29.4123 2
37.5266 30.7295 2
35.9054 32.7624 2
39.8233 28.1037 3.85896
37.4977 29.2031 3.81079
35.6737 31.0926 3.60975
34.5656 33.0509 3.36586
30.9628 16.8588 3.99771
31.9287 14.491 2
34.1023 12.9588 0.0244282
31.1932 12.0069 0.0229934
42.5913 26.7846 0.0237544
40.7621 23.6551 0.00617315
33.6241 15.9171 0.00854404
35.84 17.6095 0.0141089
38.3689 20.5274 0.00711985
33.547 17.4719 2
35.5324 20.3338 2
40.2536 26.1082 2
38.0211 23.3909 2
32.9355 19.9135 3.99703
37.7025 25.7798 3.96184
35.3146 23.0647 4.00768
35.9931 37.4721 3.47503
37.5107 37.4758 2
39.0715 37.4821 0.528909
39.696 51.4805 0.000135321
38.6282 48.1193 0.073845
37.5134 39.033 0.480603
37.522 45.7537 0.178832
35.649 43.8944 0.39439
35.9914 40.6038 0.525847
34.5571 41.935 0.637214
37.6573 50.4843 2
36.0543 39.0348 2
34.6122 40.5383 2
36.9241 47.7991 2
33.5934 41.684 2
34.3095 43.3249 2
35.2955 45.5629 2
35.5721 49.6501 3.98204
34.5583 39.0358 3.5384
33.2555 40.6361 3.39311
33.379 42.3106 3.6759
33.6169 44.7835 3.81244
34.5893 46.9025 3.86081
36.7734 52.8457 0.00289056
34.4803 52.1872 2
32.3216 50.9872 3.99837
33.2928 55.284 0.00599017
30.7513 53.2175 2
28.8496 51.3767 3.9838
28.8957 55.2618 0.00533908
27.2294 53.2958 2
25.5844 51.527 3.95343
25.5688 55.0253 0.0458433
23.9834 53.3003 2
22.5512 51.575 3.95498
19.8644 51.3993 3.96336
19.3393 54.1277 3.96171
20.9729 53.0161 2
18.6595 56.5948 3.96225
20.2043 55.6853 2
22.1037 55.1934 0.0399633
18.4198 59.0285 3.9601
19.5547 57.7853 2
20.3902 56.9056 0.0377334
18.6384 61.6945 3.97394
19.7385 60.125 2
20.7236 58.6835 0.0392076
19.1344 64.6519 3.97257
20.2258 62.7971 2
21.1978 61.0863 0.0284364
19.89 67.8074 3.98414
20.9414 65.7505 2
21.9076 63.7969 0.0278111
22.8402 66.726 0.0237129
21.9118 68.8695 2
20.9142 71.1327 4
24.013 69.8045 0.011781
23.1494 72.1455 2
25.446 73.0099 0
23.1114 12.8495 3.97752
23.9754 10.1816 3.97472
25.0251 7.31926 3.97943
25.8587 9.39256 2
26.2824 4.32921 3.98958
27.0692 6.54686 2
27.8222 8.66428 0.0221138
27.7943 1.27781 4
28.4875 3.64526 2
29.1567 5.88284 0.0165781
30.1841 0.720551 2
30.7279 3.09891 0.00821998
32.6053 0.320823 0
35.9855 35.917 3.47262
37.551 35.9365 2
39.0042 35.9339 0.518039
24.7825 12.11 2
23.7782 14.4424 2
22.519 15.1282 3.9782
25.3757 13.9826 3.97338
24.0767 15.6941 3.99174
26.63 11.4074 0.0241307
29.2345 12.6575 0.0196515
27.3091 13.3903 2
29.7973 14.2149 2
28.4024 15.9782 3.9909
34.6855 34.4575 3.49835
36.0001 34.3788 2
37.5326 34.3459 0.473504
35.8931 32.7884 0.562129
37.5238 30.8077 0.345229
41.881 28.8365 0.14274
39.6505 29.4773 0.192969
39.8699 28.0501 2
37.4988 29.1485 2
35.6572 31.012 2
34.5235 33.0325 2
37.623 27.8333 3.86192
35.3819 29.4993 3.80638
34.3658 31.7365 3.63194
33.6462 33.3305 3.41686
30.2771 19.5283 3.97844
30.9453 16.8543 2
31.9359 14.5039 0.0170721
40.2056 26.1444 0.0343931
38.0186 23.4021 0.00314663
33.5603 17.4606 0.00973435
35.5312 20.3139 0.003667
32.942 19.9359 2
35.2867 23.0469 2
37.7128 25.7645 2
32.5331 22.6587 4.00083
35.1868 25.6676 3.98462
34.5325 37.5045 3.55945
35.9897 37.4891 2
37.526 37.4765 0.463608
37.6812 50.4442 0.00950186
36.9221 47.736 0.11324
36.0204 39.048 0.516137
35.3195 45.5045 0.188589
34.3717 43.2488 0.373817
34.6649 40.5315 0.494231
33.6363 41.6568 0.581086
35.5547 49.6611 2
34.5418 39.0393 2
33.2411 40.6462 2
34.5325 46.971 2
33.3345 42.3884 2
33.5735 44.8315 2
33.5043 48.7741 3.97275
32.9338 39.1857 3.389
32.5142 40.9914 3.61877
32.2129 43.5206 3.82036
32.8308 45.9049 3.85858
34.4988 52.161 -0.00158642
32.3394 50.9836 2
30.4242 49.5117 4.00532
30.7487 53.2228 0.000667001
28.8563 51.3891 2
27.1331 49.7443 3.97481
27.2271 53.2955 0.0441369
25.5872 51.5286 2
24.0254 49.9281 3.9671
23.981 53.2955 0.0464648
22.5571 51.5717 2
21.2138 50.0536 3.96628
18.6178 50.1119 3.97239
18.3838 52.5885 3.96558
19.8563 51.3998 2
17.7835 55.1842 3.96274
19.3386 54.1278 2
20.9679 53.0179 0.0411409
17.272 57.7747 3.96046
18.6593 56.5959 2
20.206 55.6833 0.0389368
17.1523 60.491 3.96252
18.4201 59.03 2
19.5555 57.783 0.039027
17.4188 63.4248 3.96741
18.6397 61.6969 2
19.7378 60.1214 0.0300763
17.9456 66.6155 3.98202
19.1334 64.6516 2
20.2251 62.7931 0.0288488
18.75 69.9759 4
19.886 67.8035 2
20.9426 65.7516 0.0264895
21.9157 68.8718 0.0129301
20.9142 71.1327 2
23.1494 72.1454 0
21.6101 13.6855 3.9708
22.1975 11.0582 3.97021
23.1107 12.8485 2
23.042 8.1864 3.97609
23.9741 10.1887 2
24.1203 5.14402 3.98922
25.0215 7.31826 2
25.8623 9.39506 0.023977
25.446 1.99014 4
26.2786 4.33036 2
27.0715 6.54766 0.0182467
27.7943 1.27778 2
28.4904 3.64491 0.00933662
30.1841 0.720592 0
34.6075 35.9599 3.52713
36.0046 35.9304 2
37.5194 35.9262 0.489313
21.3591 15.9296 3.96436
24.7891 12.0872 0.0259831
23.7781 14.4378 0.0200538
25.3757 13.9574 2
22.5173 15.1176 2
24.0818 15.701 2
23.3346 16.3358 3.9641
25.4354 16.1678 3.98831
27.3022 13.3995 0.0263503
29.8045 14.2143 0.0115894
28.3939 16.0015 2
27.5141 18.9559 3.98031
33.2636 34.3583 3.40763
34.6238 34.4669 2
35.9912 34.3798 0.521012
34.5656 33.0509 0.634136
35.6737 31.0926 0.390253
37.4977 29.2031 0.189207
39.8233 28.1037 0.14104
37.5937 27.7959 2
33.6097 33.3052 2
35.3729 29.4325 2
34.3175 31.6589 2
35.2633 27.9236 3.87496
33.6005 30.188 3.8167
33.3847 32.671 3.67391
29.8525 22.1414 4.00875
30.2801 19.5309 2
30.9628 16.8588 0.00229337
37.7025 25.7798 0.0381634
35.3146 23.0647 -0.00768309
32.9355 19.9135 0.00296528
32.5238 22.6333 2
35.2061 25.6577 2
32.1482 25.9512 4.0095
32.7541 37.4984 3.44101
34.5344 37.4965 2
35.9931 37.4721 0.524975
35.5721 49.6501 0.017957
34.5893 46.9025 0.139194
34.5582 39.0358 0.461598
33.6169 44.7835 0.187563
33.379 42.3106 0.324095
33.2555 40.6361 0.606888
33.5019 48.7669 2
32.9363 39.1945 2
32.4566 41.0475 2
32.8174 45.9603 2
32.1667 43.557 2
31.7909 47.6056 3.98778
31.8595 39.3717 3.61797
31.1957 41.7712 3.82858
31.3196 44.5451 3.86579
32.3216 50.9872 0.00162778
30.4287 49.5444 2
28.6444 47.9199 3.97456
28.8496 51.3767 0.0161954
27.132 49.7474 2
25.4752 48.1809 3.97068
25.5844 51.527 0.0465743
24.0311 49.9251 2
22.5253 48.4926 3.9717
22.5512 51.575 0.0450183
21.2157 50.052 2
19.7596 48.8469 3.97489
17.4851 49.1321 3.97602
17.3089 51.2172 3.97117
18.6193 50.1104 2
16.8067 53.7058 3.96664
18.3787 52.589 2
19.8644 51.3993 0.0366365
16.2119 56.3585 3.96182
17.7828 55.1848 2
19.3393 54.1277 0.0382873
15.7937 59.1525 3.95864
17.2672 57.7768 2
18.6595 56.5948 0.0377529
15.7932 62.0965 3.97098
17.1553 60.4922 2
18.4198 59.0285 0.0399049
16.0925 65.2946 3.97729
17.4178 63.4288 2
18.6384 61.6945 0.0260631
16.6661 68.6801 4
17.9424 66.6112 2
19.1344 64.6519 0.027435
18.75 69.9759 2
19.89 67.8074 0.0158603
20.9142 71.1327 0
20.2483 14.6824 3.97172
21.6099 13.6883 2
20.5424 12.0585 3.97295
21.1454 9.16022 3.97458
22.1941 11.0657 2
23.1114 12.8495 0.0224802
22.0196 6.08249 3.9879
23.0393 8.18899 2
23.9754 10.1816 0.025281
23.1494 2.85457 4
24.1154 5.14568 2
25.0251 7.31926 0.0205659
25.446 1.99012 2
26.2824 4.32921 0.0104207
27.7943 1.27781 0
32.9204 35.8212 3.41494
34.571 35.9597 2
35.9855 35.917 0.527379
21.3635 15.9229 2
20.3913 17.0596 3.96277
22.1697 16.7316 3.95989
25.3757 13.9826 0.0266241
22.519 15.1282 0.0218021
24.0767 15.6941 0.00825552
25.4382 16.1669 2
23.3422 16.3314 2
24.2983 18.6206 3.97898
27.2935 21.7506 3.99266
28.4024 15.9782 0.00909971
27.5118 18.9809 2
32.5434 33.9923 3.61511
33.2503 34.3451 2
34.6855 34.4575 0.501653
33.6462 33.3305 0.583138
34.3658 31.7365 0.368056
35.3819 29.4993 0.193617
37.623 27.8333 0.138076
35.2578 27.8777 2
33.3181 32.5966 2
33.5599 30.1409 2
33.0661 28.5607 3.88272
32.2103 31.459 3.81131
29.2948 24.6153 4.01372
29.8283 22.1517 2
30.2771 19.5283 0.021562
35.1868 25.6676 0.0153775
32.5331 22.6587 -0.000825966
32.1379 25.9209 2
30.3614 27.6248 3.97763
31.4899 37.4849 3.62213
32.7513 37.4986 2
34.5325 37.5045 0.440548
33.5043 48.7741 0.0272491
32.8308 45.9049 0.14142
32.9338 39.1857 0.610998
32.2129 43.5206 0.179644
32.5142 40.9914 0.381228
31.7327 47.6367 2
31.7684 39.3884 2
31.1322 41.8224 2
31.2649 44.5893 2
30.092 46.2187 3.98589
30.3966 39.7541 3.83609
29.8799 42.8625 3.88316
30.4242 49.5117 -0.00532268
28.6422 47.9255 2
26.921 46.3445 3.97912
27.1331 49.7443 0.0251923
25.4757 48.1782 2
23.8042 46.755 3.97366
24.0254 49.9281 0.0329044
22.5257 48.4929 2
20.8002 47.3483 3.97568
21.2138 50.0536 0.033719
19.7584 48.8457 2
18.3507 47.9584 3.97661
16.7225 48.4955 3.97648
17.4839 49.1315 2
16.3624 49.9957 3.97475
15.8029 52.2603 3.97118
17.3102 51.2162 2
18.6178 50.1119 0.0276069
15.1702 54.8524 3.96448
16.8065 53.7057 2
18.3838 52.5885 0.034418
14.5638 57.6731 3.95841
16.2113 56.359 2
17.7835 55.1842 0.0372556
14.2759 60.6617 3.96435
15.7951 59.1534 2
17.272 57.7747 0.0395418
14.3375 63.8537 3.976
15.7949 62.0979 2
17.1523 60.491 0.0374809
14.6715 67.2507 4
16.0896 65.2903 2
17.4188 63.4248 0.0325855
16.6661 68.6801 2
17.9456 66.6155 0.0179791
18.75 69.9759 0
18.9793 15.8655 3.96504
20.2512 14.6767 2
18.9972 13.1809 3.97023
21.6101 13.6855 0.0292048
20.5398 12.0587 2
19.3475 10.2561 3.97253
19.9945 7.14818 3.98548
21.1423 9.16166 2
22.1975 11.0582 0.0297884
20.9142 3.86727 4
22.0142 6.08606 2
23.042 8.1864 0.0239127
23.1494 2.85451 2
24.1203 5.14402 0.0107837
25.446 1.99014 0
31.8841 35.612 3.60978
32.9177 35.8122 2
34.6075 35.9599 0.472865
21.3591 15.9296 0.0356356
22.1754 16.7248 2
20.397 17.0578 2
19.441 18.5455 3.95915
21.8765 17.9981 3.98087
25.4354 16.1678 0.0116859
23.3346 16.3358 0.0358968
24.2897 18.6423 2
22.5355 20.0792 3.97476
24.8794 21.5977 3.98858
26.9242 23.907 3.9832
27.2908 21.6589 2
27.5141 18.9559 0.0196904
31.2399 33.2145 3.82859
32.4897 33.935 2
33.2636 34.3583 0.592374
33.3847 32.671 0.326087
33.6005 30.188 0.183305
35.2633 27.9236 0.125042
33.0277 28.5239 2
32.1565 31.4074 2
31.0028 29.9314 3.90515
28.6384 26.7984 4.00243
29.2834 24.6201 2
29.8525 22.1414 -0.0087506
32.1482 25.9512 -0.00949564
30.3515 27.601 2
29.9837 37.4768 3.83511
31.4065 37.4827 2
32.7541 37.4984 0.558991
31.7909 47.6056 0.0122242
31.3196 44.5451 0.134212
31.8595 39.3717 0.382033
31.1957 41.7712 0.171419
30.094 46.2264 2
30.3019 39.7644 2
29.8482 42.8892 2
28.4188 44.5504 3.96591
28.1447 40.4525 3.92507
28.6444 47.9199 0.025445
26.9199 46.3456 2
25.1351 44.8673 3.97994
25.4752 48.1809 0.0293238
23.8018 46.7536 2
21.8549 45.6506 3.97731
22.5253 48.4926 0.0282962
20.8 47.3474 2
19.1107 46.5189 3.9759
19.7596 48.8469 0.0251098
18.3505 47.9575 2
16.9789 47.5244 3.9757
16.7233 48.4951 2
15.7188 48.8475 3.97555
17.4851 49.1321 0.0239796
16.3639 49.9949 2
14.9103 50.8418 3.97429
14.132 53.3193 3.96833
15.8043 52.2596 2
17.3089 51.2172 0.0288291
13.424 56.0931 3.96091
15.1697 54.8524 2
16.8067 53.7058 0.0333607
12.8674 59.1027 3.96039
14.5639 57.6738 2
16.2119 56.3585 0.0381843
12.6834 62.2951 3.97175
14.278 60.6626 2
15.7937 59.1525 0.0413571
12.7746 65.6939 4
14.3348 63.8486 2
15.7932 62.0965 0.0290157
14.6714 67.2507 2
16.0925 65.2946 0.0227076
16.6661 68.6801 0
17.7936 17.2611 3.96059
18.9813 15.8614 2
17.5347 14.4398 3.96942
20.2483 14.6824 0.0282842
18.997 13.1814 2
17.6483 11.4935 3.97289
20.5424 12.0585 0.0270547
19.3442 10.2602 2
18.0544 8.34134 3.98326
18.75 5.0241 4
19.9886 7.15275 2
21.1454 9.16022 0.0254174
20.9142 3.86727 2
22.0196 6.08249 0.0120985
23.1494 2.85457 0
30.4135 35.2414 3.83273
31.7942 35.5896 2
32.9204 35.8212 0.585061
22.1697 16.7316 0.0401121
20.3913 17.0596 0.0372321
21.8797 17.995 2
19.4345 18.5397 2
18.3186 20.1089 3.96288
21.1102 19.5514 3.96959
24.2983 18.6206 0.0210208
22.5292 20.0797 2
24.8914 21.5761 2
22.7579 21.9371 3.97919
25.2232 23.2949 3.97961
26.2539 26.1783 3.97989
26.9278 23.8981 2
27.2935 21.7506 0.00733957
29.6433 32.5738 3.88296
31.1589 33.1763 2
32.5434 33.9923 0.384893
32.2103 31.459 0.188685
33.0661 28.5607 0.117284
30.9812 29.9166 2
28.0484 29.3992 4.01134
28.6227 26.8061 2
29.2948 24.6153 -0.0137165
30.3614 27.6248 0.0223746
28.3299 37.3869 3.87665
29.9019 37.482 2
31.4899 37.4849 0.377865
30.092 46.2187 0.0141137
29.8799 42.8625 0.116837
30.3966 39.7541 0.163909
28.4167 44.6051 2
28.1074 40.4559 2
26.5389 42.9879 3.98023
25.443 39.433 3.97677
26.921 46.3445 0.020882
25.1247 44.8701 2
23.0678 43.6857 3.97509
23.8042 46.755 0.0263375
21.8514 45.6517 2
19.9162 44.7593 3.97535
20.8002 47.3483 0.0243191
19.11 46.5197 2
17.3518 46.0274 3.97559
18.3507 47.9584 0.0233869
16.9792 47.5242 2
15.4957 47.5096 3.97537
16.7225 48.4955 0.0235242
15.7204 48.8468 2
14.2256 49.4098 3.97498
16.3624 49.9957 0.0252481
14.9114 50.8412 2
13.2 51.769 3.97136
12.3212 54.4575 3.96328
14.1328 53.3188 2
15.8029 52.2603 0.0288188
11.5769 57.4359 3.96039
13.4234 56.0933 2
15.1702 54.8524 0.0355246
11.1396 60.621 3.96783
12.8703 59.1021 2
14.5638 57.6731 0.0415918
10.9835 64.0165 4
12.6816 62.2898 2
14.2759 60.6617 0.035654
12.7745 65.694 2
14.3375 63.8537 0.0239959
14.6715 67.2507 0
16.6198 18.773 3.96119
17.7885 17.2557 2
16.1448 15.8447 3.95892
18.9793 15.8655 0.0349567
17.5362 14.4359 2
16.0308 12.8548 3.96625
18.9972 13.1809 0.0297749
17.6447 11.4996 2
16.2056 9.66638 3.97914
19.3475 10.2561 0.0274684
18.0493 8.34808 2
16.6661 6.31991 4
18.75 5.02404 2
19.9945 7.14818 0.0145235
20.9142 3.86727 0
28.8126 34.8776 3.88979
30.309 35.2011 2
31.8841 35.612 0.390222
17.0665 21.544 3.9692
21.8765 17.9981 0.0191338
19.441 18.5455 0.0408475
21.1005 19.5462 2
18.3168 20.1059 2
20.1795 21.7846 3.97282
22.5355 20.0792 0.0252427
24.8794 21.5977 0.011416
22.7596 21.9365 2
25.2066 23.3396 2
23.5638 24.838 3.97177
25.6122 28.7674 3.98431
26.2441 26.1854 2
26.9242 23.907 0.0167982
27.5065 31.9312 3.98042
29.6008 32.5502 2
31.2399 33.2145 0.171414
31.0028 29.9314 0.0948464
28.0623 29.3677 2
28.6384 26.7984 -0.0024301
26.1489 36.8652 3.96937
28.3032 37.3888 2
29.9837 37.4768 0.164891
28.4188 44.5504 0.0340945
28.1447 40.4525 0.0749292
26.5157 43.0133 2
25.4099 39.4346 2
24.3011 41.6953 3.97873
23.1466 38.5167 3.97624
25.1351 44.8673 0.0200621
23.0652 43.6878 2
20.8111 42.7209 3.97494
21.8549 45.6506 0.0226878
19.9169 44.7597 2
17.7727 44.216 3.9752
19.1107 46.5189 0.0241042
17.3517 46.0279 2
15.4647 45.9428 3.97528
16.9789 47.5244 0.0242999
15.4963 47.5093 2
13.7593 47.8788 3.97532
15.7188 48.8475 0.0244464
14.227 49.4091 2
12.4352 50.1549 3.97363
14.9103 50.8418 0.0257108
13.201 51.7682 2
11.314 52.7745 3.96542
10.3853 55.6894 3.96169
12.3212 54.4571 2
14.132 53.3193 0.0316675
9.70534 58.8455 3.97097
11.5814 57.4343 2
13.424 56.0931 0.0390862
9.30605 62.2254 4
11.1383 60.6156 2
12.8674 59.1027 0.0396074
10.9835 64.0165 2
12.6834 62.2951 0.0282537
12.7746 65.6939 0
15.4286 20.3134 3.96463
16.6281 18.7719 2
14.8487 17.3762 3.95935
17.7936 17.2611 0.0394127
16.1453 15.8408 2
14.4911 14.3297 3.96784
17.5347 14.4398 0.0305799
16.0314 12.8498 2
14.4489 11.1199 3.97639
17.6483 11.4935 0.0271076
16.2013 9.67381 2
14.6715 7.74927 4
18.0544 8.34134 0.0167383
16.6661 6.31988 2
18.75 5.0241 0
26.769 34.398 3.97265
28.7917 34.8844 2
30.4135 35.2414 0.167265
18.3499 22.5232 3.97509
15.9705 23.0849 3.97248
17.0674 21.5425 2
21.1102 19.5514 0.0304092
18.3186 20.1089 0.0371236
20.1748 21.7814 2
20.3265 24.6324 3.97204
22.7579 21.9371 0.0208054
25.2232 23.2949 0.0203903
23.5573 24.8354 2
22.9751 28.1234 3.97116
25.0727 31.4545 3.9827
25.6189 28.7445 2
26.2539 26.1783 0.0201127
27.4741 31.8936 2
29.6433 32.5738 0.117041
28.0484 29.3992 -0.0113406
23.8913 36.3283 3.97782
26.1228 36.8568 2
28.3299 37.3869 0.123346
26.5389 42.9879 0.0197659
25.443 39.433 0.0232258
24.2766 41.6957 2
23.1418 38.5153 2
21.9516 40.554 3.97522
21.2678 37.7942 3.97776
23.0678 43.6857 0.0249076
20.8122 42.7195 2
18.2549 41.9824 3.97573
19.9162 44.7593 0.0246476
17.7728 44.2162 2
15.5147 44.0726 3.97536
17.3518 46.0274 0.0244105
15.4644 45.9429 2
13.4584 46.1804 3.97525
15.4957 47.5096 0.0246336
13.7603 47.8783 2
11.8258 48.4581 3.97529
14.2256 49.4098 0.0250154
12.4368 50.1539 2
10.4461 51.0236 3.96754
13.2 51.769 0.0286406
11.3146 52.7736 2
9.29314 53.8714 3.96257
8.38936 56.9805 3.97228
10.3872 55.6878 2
12.3212 54.4575 0.0367231
7.74927 60.3285 4
9.70414 58.8408 2
11.5769 57.4359 0.039612
9.306 62.2255 2
11.1396 60.621 0.0321742
10.9835 64.0165 0
14.2652 21.873 3.96848
15.4289 20.3113 2
13.5913 18.9755 3.96129
16.6198 18.773 0.0388087
14.8489 17.3735 2
13.0405 15.9142 3.96529
16.1448 15.8447 0.0410801
14.4963 14.3271 2
12.7866 12.6934 3.97403
16.0308 12.8548 0.0337501
14.4455 11.1274 2
12.7746 9.30605 4
16.2056 9.66638 0.0208551
14.6715 7.74924 2
16.6661 6.31991 0
24.4422 33.9072 3.98101
26.7464 34.3953 2
28.8126 34.8776 0.110206
18.2297 24.2599 3.97313
18.3572 22.5232 2
14.7918 24.6075 3.97436
15.9703 23.0834 2
17.0665 21.544 0.0307985
19.8892 27.4584 3.97343
20.1795 21.7846 0.0271848
20.325 24.63 2
22.3633 30.8999 3.974
23.5638 24.838 0.0282345
22.9743 28.1252 2
25.0296 31.4666 2
25.6122 28.7674 0.0156862
27.5065 31.9312 0.019584
21.3724 35.9718 3.9771
23.8838 36.3251 2
26.1489 36.8652 0.0306332
24.3011 41.6953 0.0212744
23.1466 38.5167 0.0237561
21.9558 40.5537 2
21.2721 37.7955 2
19.0254 38.9703 3.97715
20.8111 42.7209 0.0250644
18.2546 41.9824 2
15.497 41.8374 3.97593
17.7727 44.216 0.0247995
15.5138 44.0727 2
13.2201 44.2986 3.97544
15.4647 45.9428 0.0247178
13.4587 46.1804 2
11.3399 46.6498 3.97561
13.7593 47.8788 0.0246813
11.8279 48.457 2
9.71859 49.1883 3.96957
12.4352 50.1549 0.026368
10.4474 51.0225 2
8.3202 51.9879 3.9633
11.314 52.7745 0.0345788
9.29275 53.8699 2
7.19826 55.0328 3.97329
6.31991 58.3339 4
8.3881 56.976 2
10.3853 55.6894 0.0383081
7.74924 60.3285 2
9.70534 58.8455 0.029028
9.30605 62.2254 0
13.6458 25.4938 3.97625
13.1633 23.3946 3.97229
14.2653 21.8714 2
12.4153 20.6234 3.96373
15.4286 20.3134 0.0353712
13.5907 18.9732 2
11.6797 17.5864 3.96114
14.8487 17.3762 0.040655
13.0473 15.9118 2
11.2248 14.3813 3.96736
14.4911 14.3297 0.0321637
12.7851 12.7013 2
10.9835 10.9835 4
14.4489 11.1199 0.0236104
12.7745 9.306 2
14.6715 7.74927 0
21.7338 33.542 3.97634
24.4446 33.8882 2
26.769 34.398 0.0273532
16.549 26.594 3.97428
18.2338 24.2595 2
18.3499 22.5232 0.0249061
14.7901 24.6065 2
15.9705 23.0849 0.0275155
19.292 30.3754 3.97452
19.8908 27.4594 2
20.3265 24.6324 0.0279562
22.3865 30.8988 2
22.9751 28.1234 0.0288351
25.0727 31.4545 0.0172995
18.6097 36.0116 3.97788
21.3733 35.9736 2
23.8913 36.3283 0.0221779
21.9516 40.554 0.0247798
21.2678 37.7942 0.0222355
19.0261 38.969 2
14.9819 39.1501 3.97698
18.2549 41.9824 0.024267
15.4962 41.8368 2
12.9105 42.215 3.97609
15.5147 44.0726 0.0246401
13.2199 44.2984 2
10.924 44.7338 3.97565
13.4584 46.1804 0.0247538
11.3423 46.6488 2
9.09979 47.2749 3.97172
11.8258 48.4581 0.0247068
9.72051 49.1872 2
7.47966 50.0243 3.96382
10.4461 51.0236 0.0324633
8.31853 51.9866 2
6.13878 53.0086 3.97329
9.29314 53.8714 0.0374327
7.19751 55.0288 2
5.0241 56.25 4
6.31988 58.3339 2
8.38936 56.9805 0.0277206
7.74927 60.3285 0
13.9399 26.9487 3.9751
12.2701 24.8888 3.97513
13.6447 25.4929 2
11.3395 22.3031 3.96638
13.1649 23.394 2
14.2652 21.873 0.0315191
12.4138 20.6217 2
10.4473 19.3426 3.96203
13.5913 18.9755 0.0387135
11.6928 17.5876 2
9.76595 16.1631 3.9706
13.0405 15.9142 0.0347064
11.225 14.3866 2
9.30607 12.7746 4
12.7866 12.6934 0.0259695
10.9835 10.9835 2
12.7746 9.30605 0
18.7788 33.2148 3.97577
21.7298 33.5448 2
24.4422 33.9072 0.0189867
16.1788 29.7917 3.97513
16.5488 26.5936 2
18.2297 24.2599 0.0268733
14.7918 24.6075 0.0256418
19.2889 30.3756 2
19.8892 27.4584 0.0265668
22.3633 30.8999 0.0259951
15.6234 36.0465 3.97741
18.6094 36.0128 2
21.3724 35.9718 0.0229038
13.1399 37.8281 3.97714
19.0254 38.9703 0.0228507
14.9818 39.1499 2
12.4014 40.1084 3.97657
15.497 41.8374 0.0240679
12.9099 42.2145 2
10.5195 42.7307 3.97609
13.2201 44.2986 0.0245632
10.9261 44.7331 2
8.56294 45.2866 3.97408
11.3399 46.6498 0.0243878
9.10182 47.2738 2
6.75858 47.9926 3.96454
9.71859 49.1883 0.0304327
7.47718 50.0232 2
5.2151 50.912 3.97312
8.3202 51.9879 0.0366968
6.13851 53.0056 2
3.86727 54.0858 4
7.19826 55.0328 0.0267148
5.02404 56.25 2
6.31991 58.3339 0
13.4168 29.1409 3.97457
11.7171 26.581 3.97526
13.9394 26.9485 2
10.3896 24.0262 3.96906
12.2728 24.8886 2
13.6458 25.4938 0.023751
9.30965 21.1585 3.96311
11.3397 22.3025 2
13.1633 23.3946 0.0277143
12.4153 20.6234 0.036269
10.4572 19.3441 2
8.42171 18.0315 3.97223
11.6797 17.5864 0.038856
9.76496 16.1672 2
7.74928 14.6715 4
11.2248 14.3813 0.0326447
9.30602 12.7745 2
10.9835 10.9835 0
15.1561 32.9397 3.97622
18.7787 33.2146 2
21.7338 33.542 0.0236596
16.178 29.7911 2
16.549 26.594 0.0257176
19.292 30.3754 0.0254846
13.4481 36.226 3.97672
15.6234 36.0466 2
18.6097 36.0116 0.022119
13.1391 37.828 2
11.7166 38.3029 3.97673
14.9819 39.1501 0.0230164
12.4009 40.1083 2
10.0898 40.7282 3.97656
12.9105 42.215 0.0239134
10.5218 42.7301 2
8.09824 43.2457 3.9749
10.924 44.7338 0.0243493
8.56552 45.2855 2
6.15441 45.9002 3.96483
9.09979 47.2749 0.0282798
6.75582 47.9918 2
4.42604 48.7522 3.9729
7.47966 50.0243 0.0361769
5.21521 50.9098 2
2.85457 51.8506 4
6.13878 53.0086 0.0267085
3.86727 54.0858 2
5.0241 56.25 0
12.5414 31.3275 3.97574
11.1243 28.4935 3.97513
13.4162 29.1404 2
9.60182 25.8482 3.97102
11.7191 26.581 2
13.9399 26.9487 0.0248961
8.28566 23.038 3.96399
10.3919 24.0264 2
12.2701 24.8888 0.024874
7.20412 19.9791 3.97331
9.31498 21.16 2
11.3395 22.3031 0.0336215
10.4473 19.3426 0.0379728
8.42104 18.0357 2
6.31992 16.6661 4
9.76595 16.1631 0.0294001
7.74926 14.6714 2
9.30607 12.7746 0
12.5768 34.3361 3.97661
15.1557 32.9406 2
18.7788 33.2148 0.0242318
16.1788 29.7917 0.0248739
11.245 36.6234 3.97655
13.4476 36.2261 2
15.6234 36.0465 0.0225923
13.1399 37.8281 0.0228649
11.7163 38.3026 2
9.66338 38.8148 3.97664
12.4014 40.1084 0.0234255
10.0916 40.7276 2
7.69978 41.1971 3.97503
10.5195 42.7307 0.0239052
8.10018 43.2448 2
5.66003 43.7647 3.9649
8.56294 45.2866 0.0259229
6.15089 45.8996 2
3.77129 46.5372 3.97285
6.75858 47.9926 0.0354642
4.42658 48.7507 2
1.99014 49.554 4
5.2151 50.912 0.0268845
2.85451 51.8506 2
3.86727 54.0858 0
11.3302 32.9692 3.97637
10.4234 30.4393 3.97539
12.5407 31.3282 2
8.89713 27.7724 3.97241
11.1261 28.4938 2
13.4168 29.1409 0.0254275
7.39774 24.9926 3.96452
9.60441 25.8488 2
11.7171 26.581 0.0247404
6.12086 22.001 3.97383
8.28667 23.0391 2
10.3896 24.0262 0.0309445
5.02411 18.75 4
7.20366 19.9825 2
9.30965 21.1585 0.0368938
8.42171 18.0315 0.0277688
6.3199 16.6661 2
7.74928 14.6715 0
10.8227 35.0242 3.9763
12.5757 34.3361 2
15.1561 32.9397 0.0237792
9.31462 36.9902 3.97649
11.2449 36.6236 2
13.4481 36.226 0.0232827
11.7166 38.3029 0.0232709
9.66543 38.8144 2
7.36893 39.1768 3.97476
10.0898 40.7282 0.023439
7.70265 41.1965 2
5.27089 41.6117 3.96526
8.09824 43.2457 0.0251029
5.65797 43.7643 2
3.24867 44.2817 3.9737
6.15441 45.9002 0.0351674
3.77208 46.5362 2
1.27781 47.2057 4
4.42604 48.7522 0.027097
1.99012 49.554 2
2.85457 51.8506 0
10.4484 33.9139 3.97601
9.68854 32.1946 3.97604
11.3304 32.9696 2
8.2247 29.7258 3.97365
10.4254 30.4406 2
12.5414 31.3275 0.0242569
6.62803 27.0153 3.96476
8.90033 27.7732 2
11.1243 28.4935 0.0248718
5.17574 24.0936 3.9736
7.39582 24.9933 2
9.60182 25.8482 0.0289805
3.86728 20.9142 4
6.1208 22.0035 2
8.28566 23.038 0.0360094
5.02406 18.75 2
7.20412 19.9791 0.0266897
6.31992 16.6661 0
9.12465 35.2962 3.97644
10.8231 35.0243 2
12.5768 34.3361 0.023393
7.1436 37.2077 3.97424
9.31707 36.99 2
11.245 36.6234 0.0234453
9.66338 38.8148 0.0233637
7.37183 39.1766 2
4.99507 39.4664 3.96592
7.69978 41.1971 0.0249727
5.26963 41.6115 2
2.85887 42.0018 3.97424
5.66003 43.7647 0.0351035
3.24927 44.2811 2
0.720592 44.8159 4
3.77129 46.5372 0.0271522
1.27778 47.2057 2
1.99014 49.554 0
9.16171 33.7244 3.97645
10.4496 33.9141 2
7.65126 31.6308 3.97381
9.69088 32.1953 2
11.3302 32.9692 0.0236288
5.96391 29.0744 3.96487
8.22728 29.7264 2
10.4234 30.4393 0.024607
4.36281 26.2466 3.97326
6.62448 27.0157 2
8.89713 27.7724 0.0275939
2.85458 23.1494 4
5.17606 24.0951 2
7.39774 24.9926 0.0354819
3.86728 20.9142 2
6.12086 22.001 0.0261667
5.02411 18.75 0
7.09204 35.3139 3.97408
9.12793 35.2961 2
10.8227 35.0242 0.0237001
4.84456 37.3402 3.96655
7.14662 37.2077 2
9.31462 36.9902 0.0235097
7.36893 39.1768 0.0252383
4.99541 39.4664 2
2.6068 39.7134 3.97467
5.27089 41.6117 0.0347398
2.85979 42.0017 2
0.320823 42.3947 4
3.24867 44.2817 0.0263032
0.720551 44.8159 2
1.27781 47.2057 0
7.25561 33.4752 3.97398
9.16504 33.7247 2
10.4484 33.9139 0.0239943
5.42636 31.1369 3.96537
7.6522 31.6311 2
9.68854 32.1946 0.0239597
3.684 28.4433 3.97341
5.95976 29.0746 2
8.2247 29.7258 0.0263536
1.99015 25.446 4
4.36342 26.2476 2
6.62803 27.0153 0.0352362
2.85453 23.1494 2
5.17574 24.0936 0.0264001
3.86728 20.9142 0
4.85861 35.2531 3.9665
7.09441 35.314 2
9.12465 35.2962 0.0235634
2.49817 37.4283 3.97579
4.84484 37.3403 2
7.1436 37.2077 0.0257634
4.99507 39.4664 0.0340792
2.60769 39.714 2
0.080333 39.9526 4
2.85887 42.0018 0.0257593
0.320817 42.3947 2
0.720592 44.8159 0
5.05199 33.1925 3.96606
7.2577 33.4754 2
9.16171 33.7244 0.0235517
3.14796 30.6665 3.97415
5.42371 31.1372 2
7.65126 31.6308 0.0261942
1.27793 27.7943 4
3.68487 28.444 2
5.96391 29.0744 0.0351325
1.99013 25.446 2
4.36281 26.2466 0.0267353
2.85458 23.1494 0
2.55013 35.1591 3.97567
4.85948 35.2533 2
7.09204 35.3139 0.0259207
0 37.5 4
2.49844 37.4288 2
4.84456 37.3402 0.0334491
2.6068 39.7134 0.0253293
0.0802903 39.9526 2
0.320823 42.3947 0
2.7679 32.9061 3.97545
5.05266 33.1928 2
7.25561 33.4752 0.0260238
0.721173 30.1842 4
3.14892 30.667 2
5.42636 31.1369 0.0346264
1.27779 27.7943 2
3.684 28.4433 0.026587
1.99015 25.446 0
0.0806499 35.0474 4
2.55105 35.1595 2
4.85861 35.2531 0.0335034
0 37.5 2
2.49817 37.4283 0.0242066
0.080333 39.9526 0
0.32156 32.6054 4
2.76833 32.9065 2
5.05199 33.1925 0.0339364
0.72056 30.1841 2
3.14796 30.6665 0.0258477
1.27793 27.7943 0
0.0802889 35.0474 2
2.55013 35.1591 0.0243337
0 37.5 0
0.320817 32.6053 2
2.7679 32.9061 0.0245507
0.721173 30.1842 0
0.0806499 35.0474 0
0.32156 32.6054 0
CELLS 1910 17190
8 18 6 25 56 2 0 5 16
8 57 23 6 18 17 4 0 2
8 78 36 9 29 31 11 1 7
8 31 11 1 7 79 37 10 30
8 110 57 18 50 48 17 2 14
8 50 18 56 111 14 2 16 49
8 116 62 22 55 52 20 3 15
8 56 25 67 118 16 5 24 53
8 119 63 23 57 54 21 4 17
8 55 22 63 119 15 3 21 54
8 58 26 68 121 18 6 25 56
8 122 65 26 58 57 23 6 18
8 73 31 7 27 142 79 30 71
8 143 78 29 72 73 31 7 27
8 83 147 76 34 32 74 28 8
8 84 148 78 36 33 75 29 9
8 76 34 8 28 148 84 33 75
8 37 79 150 86 10 30 77 35
8 151 87 36 78 80 38 11 31
8 80 38 11 31 152 88 37 79
8 175 100 42 94 96 44 12 40
8 44 96 176 101 12 40 95 43
8 101 176 98 46 43 95 41 13
8 46 98 178 103 13 41 97 45
8 178 103 45 97 147 83 32 74
8 189 116 55 109 106 52 15 47
8 111 56 118 191 49 16 53 107
8 192 119 57 110 108 54 17 48
8 109 55 119 192 47 15 54 108
8 194 122 58 112 110 57 18 50
8 112 58 121 195 50 18 56 111
8 115 61 19 51 197 124 59 113
8 115 61 125 198 51 19 60 114
8 198 125 62 116 114 60 20 52
8 200 127 64 120 116 62 22 55
8 118 67 132 202 53 24 66 117
8 121 68 133 203 56 25 67 118
8 120 64 128 204 55 22 63 119
8 204 128 65 122 119 63 23 57
8 206 134 68 121 123 69 26 58
8 123 69 26 58 207 131 65 122
8 226 147 74 138 140 76 28 70
8 229 148 75 139 143 78 29 72
8 140 76 28 70 229 148 75 139
8 142 79 30 71 231 150 77 141
8 144 80 31 73 232 152 79 142
8 233 151 78 143 144 80 31 73
8 150 86 35 77 235 154 81 145
8 235 154 81 145 146 82 39 91
8 146 82 39 91 236 155 90 165
8 238 157 83 147 149 85 34 76
8 239 158 84 148 151 87 36 78
8 149 85 34 76 239 158 84 148
8 152 88 37 79 241 160 86 150
8 242 161 87 151 153 89 38 80
8 153 89 38 80 243 162 88 152
8 171 98 41 92 265 178 97 169
8 265 178 97 169 226 147 74 138
8 172 96 40 93 266 176 95 170
8 266 176 95 170 171 98 41 92
8 269 175 94 173 172 96 40 93
8 271 180 99 174 175 100 42 94
8 197 124 59 113 271 180 99 174
8 272 181 100 175 177 102 44 96
8 273 182 101 176 179 104 46 98
8 177 102 44 96 273 182 101 176
8 179 104 46 98 275 184 103 178
8 275 184 103 178 238 157 83 147
8 188 115 51 105 283 197 113 186
8 188 115 198 284 105 51 114 187
8 284 198 116 189 187 114 52 106
8 286 200 120 193 189 116 55 109
8 191 118 202 288 107 53 117 190
8 195 121 203 289 111 56 118 191
8 193 120 204 290 109 55 119 192
8 290 204 122 194 192 119 57 110
8 196 123 58 112 292 207 122 194
8 293 206 121 195 196 123 58 112
8 199 126 61 115 297 211 124 197
8 298 212 127 200 198 125 62 116
8 199 126 212 298 115 61 125 198
8 205 129 64 120 300 214 127 200
8 301 217 130 201 202 132 66 117
8 209 136 168 264 301 217 130 201
8 302 219 132 202 203 133 67 118
8 303 220 133 203 206 134 68 121
8 205 129 215 304 120 64 128 204
8 304 215 131 207 204 128 65 122
8 306 221 134 206 208 135 69 123
8 208 135 69 123 307 218 131 207
8 210 137 167 263 309 223 136 209
8 328 238 147 226 230 149 76 140
8 228 146 91 166 329 236 165 260
8 231 150 77 141 330 235 145 227
8 330 235 145 227 228 146 91 166
8 332 239 148 229 233 151 78 143
8 230 149 76 140 332 239 148 229
8 232 152 79 142 334 241 150 231
8 234 153 80 144 335 243 152 232
8 336 242 151 233 234 153 80 144
8 236 155 90 165 338 245 164 259
8 241 160 86 150 339 246 154 235
8 339 246 154 235 237 156 82 146
8 237 156 82 146 340 247 155 236
8 342 249 157 238 240 159 85 149
8 343 250 158 239 242 161 87 151
8 240 159 85 149 343 250 158 239
8 243 162 88 152 345 252 160 241
8 244 163 253 346 153 89 161 242
8 244 163 89 153 347 254 162 243
8 311 224 261 371 210 137 167 263
8 263 167 262 372 209 136 168 264
8 267 179 98 171 375 275 178 265
8 375 275 178 265 328 238 147 226
8 376 273 176 266 267 179 98 171
8 268 177 96 172 376 273 176 266
8 379 272 175 269 268 177 96 172
8 380 271 174 270 269 175 94 173
8 283 197 113 186 380 271 174 270
8 381 277 180 271 272 181 100 175
8 297 211 124 197 381 277 180 271
8 382 278 181 272 274 183 102 177
8 274 183 102 177 383 279 182 273
8 383 279 182 273 276 185 104 179
8 385 281 184 275 342 249 157 238
8 276 185 104 179 385 281 184 275
8 285 199 115 188 393 297 197 283
8 394 298 200 286 284 198 116 189
8 285 199 298 394 188 115 198 284
8 291 205 120 193 396 300 200 286
8 397 301 201 287 288 202 117 190
8 295 209 264 374 397 301 201 287
8 398 302 202 288 289 203 118 191
8 399 303 203 289 293 206 121 195
8 291 205 304 400 193 120 204 290
8 400 304 207 292 290 204 122 194
8 294 208 123 196 402 307 207 292
8 403 306 206 293 294 208 123 196
8 296 210 263 373 405 309 209 295
8 408 312 213 299 297 211 126 199
8 299 213 313 409 199 126 212 298
8 409 313 214 300 298 212 127 200
8 305 216 129 205 411 315 214 300
8 412 318 217 301 302 219 132 202
8 309 223 136 209 412 318 217 301
8 413 320 219 302 303 220 133 203
8 306 221 321 414 206 134 220 303
8 307 218 131 207 415 316 215 304
8 305 216 316 415 205 129 215 304
8 417 322 221 306 308 222 135 208
8 308 222 135 208 418 319 218 307
8 310 225 137 210 420 325 223 309
8 423 326 224 311 310 225 137 210
8 329 236 165 260 441 338 259 368
8 442 342 238 328 333 240 149 230
8 331 237 146 228 443 340 236 329
8 334 241 150 231 444 339 235 330
8 444 339 235 330 331 237 146 228
8 446 343 239 332 336 242 151 233
8 333 240 149 230 446 343 239 332
8 335 243 152 232 448 345 241 334
8 337 244 153 234 449 347 243 335
8 337 244 346 450 234 153 242 336
8 338 245 164 259 452 349 258 367
8 340 247 155 236 453 350 245 338
8 345 252 160 241 454 351 246 339
8 454 351 246 339 341 248 156 237
8 341 248 156 237 455 352 247 340
8 240 159 251 344 342 249 354 457
8 242 161 253 346 343 250 355 458
8 343 250 355 458 240 159 251 344
8 347 254 162 243 460 357 252 345
8 348 255 358 461 244 163 253 346
8 348 255 163 244 462 359 254 347
8 473 360 257 365 363 256 364 482
8 452 349 258 367 365 257 366 485
8 422 324 369 488 311 224 261 371
8 371 261 370 490 263 167 262 372
8 407 311 371 491 296 210 263 373
8 373 263 372 492 295 209 264 374
8 493 385 275 375 442 342 238 328
8 377 276 179 267 493 385 275 375
8 378 274 177 268 494 383 273 376
8 494 383 273 376 377 276 179 267
8 497 382 272 379 378 274 177 268
8 498 381 271 380 379 272 175 269
8 393 297 197 283 498 381 271 380
8 499 387 277 381 382 278 181 272
8 408 312 211 297 499 387 277 381
8 500 388 278 382 384 280 183 274
8 501 389 279 383 386 282 185 276
8 384 280 183 274 501 389 279 383
8 386 282 185 276 503 391 281 385
8 503 391 281 385 457 354 249 342
8 511 408 299 395 393 297 199 285
8 395 299 409 512 285 199 298 394
8 512 409 300 396 394 298 200 286
8 401 305 205 291 514 411 300 396
8 515 412 301 397 398 302 202 288
8 405 309 209 295 515 412 301 397
8 516 413 302 398 399 303 203 289
8 403 306 414 517 293 206 303 399
8 402 307 207 292 518 415 304 400
8 401 305 415 518 291 205 304 400
8 404 308 208 294 520 418 307 402
8 521 417 306 403 404 308 208 294
8 406 310 210 296 523 420 309 405
8 526 423 311 407 406 310 210 296
8 410 314 213 299 527 424 312 408
8 528 425 315 411 409 313 214 300
8 410 314 425 528 299 213 313 409
8 416 317 216 305 530 427 315 411
8 531 430 318 412 413 320 219 302
8 420 325 223 309 531 430 318 412
8 532 432 320 413 414 321 220 303
8 417 322 433 533 306 221 321 414
8 418 319 218 307 534 428 316 415
8 416 317 428 534 305 216 316 415
8 419 323 434 536 308 222 322 417
8 419 323 222 308 537 431 319 418
8 421 327 225 310 539 438 325 420
8 421 327 439 541 310 225 326 423
8 543 437 324 422 423 326 224 311
8 441 338 259 368 559 452 367 486
8 443 340 236 329 560 453 338 441
8 333 240 344 447 442 342 457 561
8 445 341 237 331 562 455 340 443
8 448 345 241 334 563 454 339 444
8 563 454 339 444 445 341 237 331
8 336 242 346 450 446 343 458 565
8 446 343 458 565 333 240 344 447
8 449 347 243 335 567 460 345 448
8 451 348 244 337 568 462 347 449
8 451 348 461 569 337 244 346 450
8 570 463 349 452 473 360 257 365
8 453 350 245 338 570 463 349 452
8 455 352 247 340 571 464 350 453
8 460 357 252 345 572 465 351 454
8 572 465 351 454 456 353 248 341
8 456 353 248 341 573 466 352 455
8 344 251 356 459 457 354 468 575
8 458 355 469 576 344 251 356 459
8 346 253 358 461 458 355 469 576
8 462 359 254 347 578 471 357 460
8 348 255 359 462 461 358 472 579
8 591 474 360 473 475 361 256 363
8 475 361 256 363 594 477 362 479
8 363 256 364 482 479 362 480 603
8 590 473 365 484 481 363 482 605
8 482 364 257 365 606 483 366 485
8 559 452 367 486 484 365 485 607
8 542 436 487 609 422 324 369 488
8 525 422 488 611 407 311 371 491
8 488 369 489 612 371 261 370 490
8 491 371 490 613 373 263 372 492
8 495 386 276 377 614 503 385 493
8 614 503 385 493 561 457 342 442
8 615 501 383 494 495 386 276 377
8 496 384 274 378 615 501 383 494
8 618 500 382 497 496 384 274 378
8 619 499 381 498 497 382 272 379
8 511 408 297 393 619 499 381 498
8 620 505 387 499 500 388 278 382
8 527 424 312 408 620 505 387 499
8 502 390 506 621 384 280 388 500
8 622 507 389 501 504 392 282 386
8 502 390 280 384 622 507 389 501
8 504 392 282 386 624 509 391 503
8 624 509 391 503 575 468 354 457
8 513 410 299 395 630 527 408 511
8 631 528 411 514 512 409 300 396
8 513 410 528 631 395 299 409 512
8 519 416 305 401 633 530 411 514
8 634 531 412 515 516 413 302 398
8 523 420 309 405 634 531 412 515
8 635 532 413 516 517 414 303 399
8 521 417 533 636 403 306 414 517
8 520 418 307 402 637 534 415 518
8 519 416 534 637 401 305 415 518
8 522 419 308 404 639 537 418 520
8 522 419 536 640 404 308 417 521
8 524 421 310 406 642 539 420 523
8 524 421 541 644 406 310 423 526
8 646 543 422 525 526 423 311 407
8 529 426 314 410 647 544 424 527
8 528 425 545 648 411 315 427 530
8 529 426 545 648 410 314 425 528
8 535 429 317 416 649 546 427 530
8 650 548 430 531 532 432 320 413
8 539 438 325 420 650 548 430 531
8 533 433 550 651 414 321 432 532
8 536 434 551 652 417 322 433 533
8 537 431 319 418 653 547 428 534
8 535 429 547 653 416 317 428 534
8 538 435 552 654 419 323 434 536
8 538 435 323 419 655 549 431 537
8 540 440 327 421 657 556 438 539
8 540 440 557 659 421 327 439 541
8 541 439 555 660 423 326 437 543
8 661 554 436 542 543 437 324 422
8 676 570 452 559 590 473 365 484
8 560 453 338 441 676 570 452 559
8 562 455 340 443 677 571 453 560
8 447 344 459 566 561 457 575 678
8 564 456 341 445 679 573 455 562
8 567 460 345 448 680 572 454 563
8 680 572 454 563 564 456 341 445
8 565 458 576 682 447 344 459 566
8 450 346 461 569 565 458 576 682
8 568 462 347 449 684 578 460 567
8 451 348 462 568 569 461 579 685
8 686 580 463 570 591 474 360 473
8 571 464 350 453 686 580 463 570
8 573 466 352 455 687 581 464 571
8 572 465 582 688 460 357 471 578
8 574 467 582 688 456 353 465 572
8 574 467 353 456 689 583 466 573
8 459 356 470 577 575 468 585 691
8 576 469 586 692 459 356 470 577
8 461 358 472 579 576 469 586 692
8 462 359 471 578 579 472 588 694
8 704 591 473 590 593 475 363 481
8 595 476 592 705 475 361 474 591
8 593 475 363 481 707 594 479 602
8 594 477 362 479 709 598 478 600
8 595 476 361 475 711 597 477 594
8 479 362 480 603 600 478 601 720
8 481 363 482 605 602 479 603 722
8 603 480 364 482 723 604 483 606
8 605 482 365 484 724 606 485 607
8 656 553 608 726 542 436 487 609
8 645 542 609 728 525 422 488 611
8 609 487 610 729 488 369 489 612
8 611 488 612 730 491 371 490 613
8 616 504 386 495 731 624 503 614
8 731 624 503 614 678 575 457 561
8 732 622 501 615 616 504 386 495
8 617 502 384 496 732 622 501 615
8 617 502 621 735 496 384 500 618
8 736 620 499 619 618 500 382 497
8 630 527 408 511 736 620 499 619
8 621 506 626 737 500 388 505 620
8 647 544 424 527 737 626 505 620
8 623 508 627 738 502 390 506 621
8 623 508 390 502 739 628 507 622
8 625 510 628 739 504 392 507 622
8 740 629 509 624 691 585 468 575
8 625 510 392 504 740 629 509 624
8 632 529 410 513 744 647 527 630
8 631 528 648 745 514 411 530 633
8 632 529 648 745 513 410 528 631
8 638 535 416 519 746 649 530 633
8 747 650 531 634 635 532 413 516
8 642 539 420 523 747 650 531 634
8 636 533 651 748 517 414 532 635
8 640 536 652 749 521 417 533 636
8 639 537 418 520 750 653 534 637
8 638 535 653 750 519 416 534 637
8 641 538 419 522 751 655 537 639
8 641 538 654 752 522 419 536 640
8 643 540 421 524 753 657 539 642
8 643 540 659 755 524 421 541 644
8 644 541 660 757 526 423 543 646
8 758 661 542 645 646 543 422 525
8 529 426 544 647 648 545 662 759
8 530 427 545 648 649 546 663 760
8 535 429 546 649 653 547 664 761
8 762 666 548 650 651 550 432 532
8 657 556 438 539 762 666 548 650
8 652 551 668 763 533 433 550 651
8 654 552 669 764 536 434 551 652
8 655 549 431 537 765 665 547 653
8 538 435 549 655 654 552 667 766
8 661 554 671 768 542 436 553 656
8 658 558 440 540 769 674 556 657
8 658 558 675 770 540 440 557 659
8 659 557 673 771 541 439 555 660
8 660 555 672 772 543 437 554 661
8 788 686 570 676 704 591 473 590
8 677 571 453 560 788 686 570 676
8 679 573 455 562 789 687 571 677
8 566 459 577 683 678 575 691 790
8 681 574 456 564 791 689 573 679
8 680 572 688 792 567 460 578 684
8 681 574 688 792 564 456 572 680
8 682 576 692 794 566 459 577 683
8 569 461 579 685 682 576 692 794
8 568 462 578 684 685 579 694 796
8 687 581 464 571 798 696 580 686
8 798 696 580 686 705 592 474 591
8 689 583 466 573 799 697 581 687
8 688 582 698 800 578 471 588 694
8 690 584 698 800 574 467 582 688
8 690 584 467 574 801 699 583 689
8 693 587 701 803 577 470 585 691
8 693 587 470 577 804 702 586 692
8 695 589 702 804 579 472 586 692
8 695 589 472 579 805 703 588 694
8 708 595 705 813 593 475 591 704
8 710 596 706 814 595 476 592 705
8 707 594 479 602 816 709 600 719
8 708 595 475 593 817 711 594 707
8 709 598 478 600 819 715 599 717
8 711 597 477 594 820 714 598 709
8 710 596 476 595 822 713 597 711
8 600 478 601 720 717 599 718 832
8 602 479 603 722 719 600 720 834
8 720 601 480 603 835 721 604 723
8 722 603 482 605 836 723 606 724
8 767 670 725 839 656 553 608 726
8 756 656 726 841 645 542 609 728
8 726 608 727 842 609 487 610 729
8 728 609 729 843 611 488 612 730
8 844 740 624 731 790 691 575 678
8 733 625 504 616 844 740 624 731
8 734 623 502 617 845 739 622 732
8 733 625 739 845 616 504 622 732
8 734 623 738 846 617 502 621 735
8 735 621 737 847 618 500 620 736
8 744 647 527 630 847 737 620 736
8 621 506 627 738 737 626 741 848
8 647 544 626 737 759 662 741 848
8 623 508 628 739 738 627 742 849
8 740 629 585 691 850 743 700 802
8 625 510 629 740 739 628 743 850
8 632 529 647 744 745 648 759 854
8 633 530 648 745 746 649 760 855
8 638 535 649 746 750 653 761 856
8 857 762 650 747 748 651 532 635
8 753 657 539 642 857 762 650 747
8 749 652 763 858 636 533 651 748
8 752 654 764 859 640 536 652 749
8 751 655 537 639 860 765 653 750
8 641 538 655 751 752 654 766 861
8 754 658 540 643 862 769 657 753
8 754 658 770 863 643 540 659 755
8 755 659 771 864 644 541 660 757
8 758 661 768 866 645 542 656 756
8 757 660 772 867 646 543 661 758
8 759 662 773 868 648 545 663 760
8 649 546 663 760 761 664 774 871
8 765 665 547 653 872 775 664 761
8 873 777 666 762 763 668 550 651
8 769 674 556 657 873 777 666 762
8 764 669 779 874 652 551 668 763
8 654 552 667 766 764 669 778 875
8 655 549 665 765 766 667 776 876
8 768 671 782 877 656 553 670 767
8 772 672 783 878 661 554 671 768
8 658 558 674 769 770 675 786 879
8 659 557 675 770 771 673 785 881
8 882 784 672 772 771 673 555 660
8 789 687 571 677 897 798 686 788
8 897 798 686 788 813 705 591 704
8 791 689 573 679 898 799 687 789
8 795 693 803 900 683 577 691 790
8 793 690 574 681 901 801 689 791
8 792 688 800 902 684 578 694 796
8 793 690 800 902 681 574 688 792
8 795 693 577 683 903 804 692 794
8 797 695 804 903 685 579 692 794
8 797 695 579 685 904 805 694 796
8 905 806 697 799 798 696 581 687
8 814 706 806 905 705 592 696 798
8 689 583 697 799 801 699 808 907
8 800 698 809 908 694 588 703 805
8 690 584 699 801 800 698 809 908
8 803 701 810 909 691 585 700 802
8 693 587 702 804 803 701 811 910
8 695 589 703 805 804 702 812 911
8 818 710 814 919 708 595 705 813
8 821 712 815 920 710 596 706 814
8 816 709 600 719 922 819 717 831
8 817 711 594 707 923 820 709 816
8 818 710 595 708 924 822 711 817
8 819 715 599 717 926 827 716 829
8 820 714 598 709 927 826 715 819
8 929 825 713 822 820 714 597 711
8 821 712 596 710 930 824 713 822
8 717 599 718 832 829 716 830 942
8 719 600 720 834 831 717 832 944
8 832 718 601 720 945 833 721 835
8 834 720 603 722 946 835 723 836
8 869 780 838 950 767 670 725 839
8 865 767 839 952 756 656 726 841
8 839 725 840 953 726 608 727 842
8 841 726 842 954 728 609 729 843
8 844 740 691 790 955 850 802 899
8 733 625 740 844 845 739 850 955
8 734 623 739 845 846 738 849 956
8 735 621 738 846 847 737 848 957
8 744 647 737 847 854 759 848 957
8 738 627 742 849 848 741 851 958
8 848 741 851 958 759 662 773 868
8 850 743 700 802 959 852 807 906
8 849 742 628 739 959 852 743 850
8 854 759 868 965 745 648 760 855
8 746 649 760 855 856 761 871 966
8 860 765 653 750 967 872 761 856
8 968 873 762 857 858 763 651 748
8 862 769 657 753 968 873 762 857
8 859 764 874 969 749 652 763 858
8 752 654 766 861 859 764 875 970
8 751 655 765 860 861 766 876 971
8 754 658 769 862 863 770 879 972
8 755 659 770 863 864 771 881 974
8 976 882 772 867 864 771 660 757
8 866 768 877 977 756 656 767 865
8 867 772 878 978 758 661 768 866
8 760 663 773 868 871 774 883 980
8 870 781 837 948 982 890 780 869
8 982 890 780 869 877 782 670 767
8 761 664 774 871 872 775 884 984
8 876 776 665 765 985 885 775 872
8 873 777 668 763 986 887 779 874
8 769 674 777 873 879 786 887 986
8 764 669 778 875 874 779 888 987
8 766 667 776 876 875 778 886 988
8 878 783 892 989 768 671 782 877
8 878 783 672 772 990 893 784 882
8 880 787 675 770 991 896 786 879
8 880 787 895 992 770 675 785 881
8 881 785 894 993 771 673 784 882
8 1006 905 799 898 897 798 687 789
8 919 814 905 1006 813 705 798 897
8 791 689 799 898 901 801 907 1007
8 900 803 909 1009 790 691 802 899
8 795 693 804 903 900 803 910 1010
8 902 800 908 1011 796 694 805 904
8 793 690 801 901 902 800 908 1011
8 797 695 805 904 903 804 911 1012
8 799 697 806 905 907 808 912 1013
8 920 815 912 1013 814 706 806 905
8 802 700 810 909 906 807 913 1014
8 801 699 808 907 908 809 914 1015
8 805 703 809 908 911 812 915 1016
8 803 701 811 910 909 810 916 1017
8 911 812 917 1018 804 702 811 910
8 925 821 920 1030 818 710 814 919
8 928 823 921 1031 821 712 815 920
8 922 819 717 831 1033 926 829 941
8 923 820 709 816 1034 927 819 922
8 1035 929 822 924 923 820 711 817
8 925 821 710 818 1036 930 822 924
8 1038 933 825 929 927 826 714 820
8 926 827 716 829 1039 935 828 939
8 927 826 715 819 1040 934 827 926
8 928 823 712 821 1041 931 824 930
8 1042 932 824 930 929 825 713 822
8 829 716 830 942 939 828 940 1058
8 831 717 832 944 941 829 942 1060
8 942 830 718 832 1061 943 833 945
8 944 832 720 834 1062 945 835 946
8 981 889 947 1064 870 781 837 948
8 948 837 949 1067 869 780 838 950
8 975 869 950 1069 865 767 839 952
8 950 838 951 1070 839 725 840 953
8 952 839 953 1071 841 726 842 954
8 955 850 802 899 1072 959 906 1008
8 956 849 739 845 1072 959 850 955
8 846 738 849 956 957 848 958 1073
8 957 848 958 1073 854 759 868 965
8 849 742 852 959 958 851 961 1076
8 960 853 961 1076 906 807 852 959
8 958 851 961 1076 868 773 883 980
8 960 853 807 906 1077 963 913 1014
8 855 760 868 965 966 871 980 1085
8 856 761 871 966 967 872 984 1086
8 971 876 765 860 1087 985 872 967
8 968 873 763 858 1088 986 874 969
8 862 769 873 968 972 879 986 1088
8 859 764 875 970 969 874 987 1089
8 861 766 876 971 970 875 988 1090
8 973 880 770 863 1091 991 879 972
8 973 880 992 1092 863 770 881 974
8 974 881 993 1093 864 771 882 976
8 979 870 948 1066 1094 982 869 975
8 1094 982 869 975 977 877 767 865
8 978 878 772 867 1095 990 882 976
8 978 878 989 1096 866 768 877 977
8 871 774 883 980 984 884 994 1099
8 983 891 999 1100 870 781 889 981
8 1101 1000 890 982 989 892 782 877
8 983 891 781 870 1101 1000 890 982
8 872 775 884 984 985 885 995 1103
8 876 776 885 985 988 886 996 1104
8 986 887 779 874 1105 998 888 987
8 879 786 887 986 991 896 998 1105
8 875 778 886 988 987 888 997 1106
8 990 893 1002 1107 878 783 892 989
8 1108 1003 893 990 993 894 784 882
8 880 787 896 991 992 895 1005 1109
8 993 894 785 881 1110 1004 895 992
8 898 799 905 1006 1007 907 1013 1120
8 1030 920 1013 1120 919 814 905 1006
8 901 801 907 1007 1011 908 1015 1121
8 899 802 909 1009 1008 906 1014 1122
8 900 803 910 1010 1009 909 1017 1123
8 1012 911 1018 1124 903 804 910 1010
8 904 805 908 1011 1012 911 1016 1125
8 1013 912 1020 1127 907 808 914 1015
8 1031 921 1020 1127 920 815 912 1013
8 1019 918 962 1075 1128 1021 913 1014
8 1128 1021 913 1014 1017 916 810 909
8 1015 914 1022 1129 908 809 915 1016
8 1016 915 1023 1130 911 812 917 1018
8 1018 917 1024 1131 910 811 916 1017
8 1037 928 1031 1148 925 821 920 1030
8 928 823 931 1041 1031 921 1032 1149
8 1033 926 829 941 1151 1039 939 1057
8 1034 927 819 922 1152 1040 926 1033
8 1153 1038 929 1035 1034 927 820 923
8 1154 1042 930 1036 1035 929 822 924
8 1037 928 821 925 1155 1041 930 1036
8 1039 935 828 939 1156 1047 938 1055
8 1157 1043 932 1042 1038 933 825 929
8 1038 933 826 927 1158 1045 934 1040
8 1040 934 827 926 1159 1046 935 1039
8 930 824 932 1042 1041 931 1044 1160
8 1051 936 1048 1165 1175 1052 937 1053
8 1156 1047 938 1055 1053 937 1054 1178
8 939 828 940 1058 1055 938 1056 1181
8 941 829 942 1060 1057 939 1058 1183
8 942 830 943 1061 1058 940 1059 1184
8 1060 942 832 944 1185 1061 945 1062
8 1082 964 1063 1188 981 889 947 1064
8 1097 981 1064 1190 979 870 948 1066
8 1064 947 1065 1191 948 837 949 1067
8 1066 948 1067 1193 975 869 950 1069
8 1067 949 1068 1194 950 838 951 1070
8 1069 950 1070 1195 952 839 953 1071
8 956 849 959 1072 1073 958 1076 1197
8 1074 960 1076 1197 1008 906 959 1072
8 1073 958 1076 1197 965 868 980 1085
8 1074 960 906 1008 1198 1077 1014 1122
8 1133 1026 1079 1199 1019 918 962 1075
8 1077 963 913 1014 1200 1080 962 1075
8 960 853 963 1077 1076 961 1078 1201
8 980 883 961 1076 1099 994 1078 1201
8 1210 1083 964 1082 1100 999 889 981
8 966 871 980 1085 1086 984 1099 1215
8 967 872 984 1086 1087 985 1103 1216
8 971 876 985 1087 1090 988 1104 1217
8 1088 986 874 969 1218 1105 987 1089
8 972 879 986 1088 1091 991 1105 1218
8 970 875 988 1090 1089 987 1106 1219
8 973 880 991 1091 1092 992 1109 1220
8 1093 993 881 974 1221 1110 992 1092
8 1222 1108 990 1095 1093 993 882 976
8 1223 1101 982 1094 1096 989 877 977
8 1098 983 870 979 1223 1101 982 1094
8 1095 990 1107 1224 978 878 989 1096
8 1098 983 1100 1225 979 870 981 1097
8 984 884 994 1099 1103 995 1111 1227
8 1102 1001 1115 1228 983 891 999 1100
8 1101 1000 892 989 1229 1116 1002 1107
8 1102 1001 891 983 1229 1116 1000 1101
8 985 885 995 1103 1104 996 1112 1230
8 988 886 996 1104 1106 997 1113 1231
8 1105 998 888 987 1232 1114 997 1106
8 991 896 998 1105 1109 1005 1114 1232
8 1108 1003 1117 1233 990 893 1002 1107
8 1108 1003 894 993 1233 1117 1004 1110
8 992 895 1005 1109 1110 1004 1118 1234
8 1120 1013 1127 1244 1007 907 1015 1121
8 1148 1031 1127 1244 1030 920 1013 1120
8 1121 1015 1129 1245 1011 908 1016 1125
8 1126 1019 1075 1196 1246 1128 1014 1122
8 1246 1128 1014 1122 1123 1017 909 1009
8 1124 1018 1131 1247 1010 910 1017 1123
8 1125 1016 1130 1248 1012 911 1018 1124
8 1127 1020 1137 1254 1015 914 1022 1129
8 1031 921 1032 1149 1127 1020 1137 1254
8 1134 1027 918 1019 1257 1140 1021 1128
8 1257 1140 1021 1128 1131 1024 916 1017
8 1129 1022 1141 1258 1016 915 1023 1130
8 1130 1023 1142 1259 1018 917 1024 1131
8 1261 1144 1025 1132 1133 1026 1079 1199
8 1255 1138 1025 1132 1135 1028 1144 1261
8 1133 1026 918 1019 1262 1145 1027 1134
8 1136 1029 1139 1256 1263 1146 1028 1135
8 1037 928 1041 1155 1148 1031 1149 1275
8 1041 931 1044 1160 1149 1032 1150 1276
8 1151 1039 939 1057 1278 1156 1055 1180
8 1152 1040 926 1033 1279 1159 1039 1151
8 1153 1038 927 1034 1280 1158 1040 1152
8 1281 1157 1042 1154 1153 1038 929 1035
8 1036 930 1042 1154 1155 1041 1160 1282
8 1283 1164 1046 1159 1156 1047 935 1039
8 1165 1048 1164 1283 1053 937 1047 1156
8 1157 1043 933 1038 1284 1161 1045 1158
8 1157 1043 1161 1284 1042 932 1044 1160
8 1040 934 1046 1159 1158 1045 1163 1285
8 1166 1049 1167 1292 1051 936 1048 1165
8 1166 1049 936 1051 1293 1168 1050 1172
8 1051 936 1052 1175 1172 1050 1173 1306
8 1174 1051 1165 1290 1308 1175 1053 1177
8 1053 937 1054 1178 1175 1052 1176 1309
8 1278 1156 1055 1180 1177 1053 1178 1311
8 1055 938 1056 1181 1178 1054 1179 1312
8 1057 939 1058 1183 1180 1055 1181 1314
8 1058 940 1059 1184 1181 1056 1182 1315
8 1060 942 1061 1185 1183 1058 1184 1316
8 1208 1081 1187 1321 1082 964 1063 1188
8 1209 1082 1188 1322 1097 981 1064 1190
8 1188 1063 1189 1323 1064 947 1065 1191
8 1190 1064 1191 1325 1066 948 1067 1193
8 1191 1065 1192 1326 1067 949 1068 1194
8 1067 1193 1069 950 1194 1327 1195 1070
8 1250 1133 1199 1330 1126 1019 1075 1196
8 1198 1077 1014 1122 1331 1200 1075 1196
8 1074 960 1077 1198 1197 1076 1201 1332
8 1085 980 1076 1197 1215 1099 1201 1332
8 1199 1079 1203 1333 1075 962 1080 1200
8 1132 1025 1119 1243 1199 1079 1203 1333
8 1201 1078 963 1077 1334 1202 1080 1200
8 1099 994 1078 1201 1227 1111 1202 1334
8 1343 1207 1081 1208 1210 1083 964 1082
8 1214 1084 1186 1319 1343 1207 1081 1208
8 1345 1210 1082 1209 1225 1100 981 1097
8 1346 1211 1083 1210 1228 1115 999 1100
8 1086 984 1099 1215 1216 1103 1227 1352
8 1087 985 1103 1216 1217 1104 1230 1353
8 1090 988 1104 1217 1219 1106 1231 1354
8 1218 1105 987 1089 1355 1232 1106 1219
8 1091 991 1105 1218 1220 1109 1232 1355
8 1092 992 1109 1220 1221 1110 1234 1356
8 1222 1108 1233 1357 1095 990 1107 1224
8 1222 1108 993 1093 1357 1233 1110 1221
8 1223 1101 989 1096 1358 1229 1107 1224
8 1226 1102 983 1098 1358 1229 1101 1223
8 1226 1102 1228 1359 1098 983 1100 1225
8 1103 995 1111 1227 1230 1112 1235 1360
8 1107 1002 1117 1233 1229 1116 1240 1362
8 1102 1001 1116 1229 1228 1115 1240 1362
8 1104 996 1112 1230 1231 1113 1236 1363
8 1364 1237 1114 1232 1231 1113 997 1106
8 1109 1005 1114 1232 1234 1118 1238 1365
8 1110 1004 1118 1234 1233 1117 1241 1366
8 1242 1374 1255 1138 1119 1243 1132 1025
8 1244 1127 1254 1376 1121 1015 1129 1245
8 1148 1031 1149 1275 1244 1127 1254 1376
8 1245 1129 1258 1377 1125 1016 1130 1248
8 1251 1134 1019 1126 1378 1257 1128 1246
8 1378 1257 1128 1246 1247 1131 1017 1123
8 1248 1130 1259 1379 1124 1018 1131 1247
8 1261 1381 1250 1133 1132 1249 1330 1199
8 1255 1380 1252 1135 1132 1249 1381 1261
8 1250 1133 1019 1126 1382 1262 1134 1251
8 1253 1136 1256 1385 1384 1263 1135 1252
8 1254 1137 1265 1387 1129 1022 1141 1258
8 1149 1032 1150 1276 1254 1137 1265 1387
8 1028 1135 1255 1138 1139 1256 1388 1266
8 1136 1029 1147 1264 1256 1139 1267 1389
8 1390 1268 1140 1257 1259 1142 1024 1131
8 1260 1143 1027 1134 1390 1268 1140 1257
8 1258 1141 1269 1391 1130 1023 1142 1259
8 1262 1145 1027 1134 1393 1271 1143 1260
8 1261 1144 1026 1133 1394 1272 1145 1262
8 1135 1028 1144 1261 1263 1146 1272 1394
8 1136 1029 1146 1263 1264 1147 1273 1395
8 1155 1041 1160 1282 1275 1149 1276 1405
8 1276 1150 1044 1160 1406 1277 1162 1286
8 1408 1283 1159 1279 1278 1156 1039 1151
8 1290 1165 1283 1408 1177 1053 1156 1278
8 1152 1040 1159 1279 1280 1158 1285 1409
8 1281 1157 1038 1153 1410 1284 1158 1280
8 1281 1157 1284 1410 1154 1042 1160 1282
8 1159 1046 1164 1283 1285 1163 1289 1412
8 1292 1167 1289 1412 1165 1048 1164 1283
8 1158 1045 1163 1285 1284 1161 1288 1413
8 1284 1161 1288 1413 1160 1044 1162 1286
8 1291 1166 1292 1418 1174 1051 1165 1290
8 1291 1166 1051 1174 1419 1293 1172 1305
8 1294 1169 1296 1421 1166 1049 1167 1292
8 1293 1168 1050 1172 1422 1295 1171 1303
8 1294 1169 1049 1166 1423 1297 1168 1293
8 1422 1295 1171 1303 1301 1170 1302 1435
8 1172 1050 1173 1306 1303 1171 1304 1438
8 1174 1051 1175 1308 1305 1172 1306 1440
8 1175 1052 1176 1309 1306 1173 1307 1441
8 1177 1053 1178 1311 1308 1175 1309 1443
8 1178 1054 1179 1312 1309 1176 1310 1444
8 1180 1055 1181 1314 1311 1178 1312 1446
8 1056 1181 1312 1179 1182 1315 1447 1313
8 1183 1058 1184 1316 1314 1181 1315 1448
8 1319 1186 1084 1214 1451 1317 1213 1350
8 1319 1186 1318 1453 1208 1081 1187 1321
8 1321 1187 1320 1456 1188 1063 1189 1323
8 1344 1208 1321 1457 1209 1082 1188 1322
8 1322 1188 1323 1458 1190 1064 1191 1325
8 1323 1189 1324 1459 1191 1065 1192 1326
8 1191 1325 1193 1067 1326 1460 1327 1194
8 1242 1374 1243 1119 1328 1462 1335 1204
8 1330 1199 1333 1465 1196 1075 1200 1331
8 1132 1249 1330 1199 1243 1375 1465 1333
8 1332 1201 1077 1198 1466 1334 1200 1331
8 1215 1099 1201 1332 1352 1227 1334 1466
8 1119 1243 1333 1203 1204 1335 1470 1338
8 1333 1203 1338 1470 1200 1080 1202 1334
8 1227 1111 1202 1334 1360 1235 1338 1470
8 1328 1462 1335 1204 1205 1336 1471 1339
8 1337 1206 1340 1472 1464 1329 1205 1336
8 1346 1211 1342 1479 1210 1083 1207 1343
8 1346 1211 1115 1228 1479 1342 1239 1361
8 1348 1212 1084 1214 1479 1342 1207 1343
8 1480 1343 1208 1344 1345 1210 1082 1209
8 1351 1214 1319 1454 1480 1343 1208 1344
8 1481 1346 1210 1345 1359 1228 1100 1225
8 1348 1212 1347 1483 1214 1084 1213 1350
8 1216 1103 1227 1352 1353 1230 1360 1488
8 1217 1104 1230 1353 1354 1231 1363 1489
8 1490 1364 1232 1355 1354 1231 1106 1219
8 1220 1109 1232 1355 1356 1234 1365 1491
8 1221 1110 1234 1356 1357 1233 1366 1492
8 1224 1107 1233 1357 1358 1229 1362 1493
8 1226 1102 1229 1358 1359 1228 1362 1493
8 1230 1112 1235 1360 1363 1236 1367 1496
8 1361 1239 1115 1228 1497 1371 1240 1362
8 1366 1241 1372 1498 1233 1117 1240 1362
8 1364 1237 1113 1231 1499 1368 1236 1363
8 1364 1237 1368 1499 1232 1114 1238 1365
8 1234 1118 1238 1365 1366 1241 1369 1500
8 1507 1373 1242 1374 1388 1266 1138 1255
8 1508 1374 1243 1375 1380 1255 1132 1249
8 1376 1254 1387 1509 1245 1129 1258 1377
8 1275 1149 1276 1405 1376 1254 1387 1509
8 1377 1258 1391 1510 1248 1130 1259 1379
8 1511 1390 1257 1378 1379 1259 1131 1247
8 1383 1260 1134 1251 1511 1390 1257 1378
8 1252 1135 1256 1385 1380 1255 1388 1512
8 1261 1381 1513 1394 1133 1250 1382 1262
8 1135 1252 1384 1263 1261 1381 1513 1394
8 1382 1262 1134 1251 1514 1393 1260 1383
8 1253 1136 1263 1384 1386 1264 1395 1516
8 1253 1136 1264 1386 1385 1256 1389 1517
8 1387 1265 1397 1519 1258 1141 1269 1391
8 1276 1150 1277 1406 1387 1265 1397 1519
8 1256 1139 1267 1389 1388 1266 1398 1520
8 1264 1147 1274 1396 1389 1267 1399 1521
8 1392 1270 1143 1260 1522 1400 1268 1390
8 1390 1268 1142 1259 1522 1400 1269 1391
8 1392 1270 1401 1523 1260 1143 1271 1393
8 1272 1394 1524 1402 1145 1262 1393 1271
8 1395 1273 1146 1263 1524 1402 1272 1394
8 1273 1395 1264 1147 1403 1526 1396 1274
8 1405 1276 1160 1282 1534 1406 1286 1411
8 1414 1287 1407 1535 1286 1162 1277 1406
8 1279 1159 1283 1408 1409 1285 1412 1537
8 1418 1292 1412 1537 1290 1165 1283 1408
8 1280 1158 1285 1409 1410 1284 1413 1538
8 1410 1284 1413 1538 1282 1160 1286 1411
8 1285 1163 1289 1412 1413 1288 1417 1540
8 1421 1296 1417 1540 1292 1167 1289 1412
8 1414 1287 1162 1286 1541 1416 1288 1413
8 1420 1294 1421 1545 1291 1166 1292 1418
8 1419 1293 1172 1305 1546 1422 1303 1437
8 1420 1294 1166 1291 1547 1423 1293 1419
8 1294 1169 1297 1423 1421 1296 1425 1548
8 1423 1297 1168 1293 1549 1424 1295 1422
8 1301 1170 1298 1427 1422 1295 1424 1549
8 1432 1300 1428 1554 1301 1170 1298 1427
8 1431 1299 1428 1554 1560 1430 1300 1432
8 1563 1433 1300 1432 1435 1302 1170 1301
8 1546 1422 1303 1437 1434 1301 1435 1565
8 1303 1171 1304 1438 1435 1302 1436 1566
8 1305 1172 1306 1440 1437 1303 1438 1568
8 1306 1173 1307 1441 1438 1304 1439 1569
8 1308 1175 1309 1443 1440 1306 1441 1571
8 1309 1176 1310 1444 1441 1307 1442 1572
8 1311 1178 1312 1446 1443 1309 1444 1574
8 1179 1312 1444 1310 1313 1447 1575 1445
8 1314 1181 1315 1448 1446 1312 1447 1576
8 1350 1213 1349 1486 1451 1317 1449 1579
8 1451 1317 1450 1581 1319 1186 1318 1453
8 1454 1319 1214 1351 1582 1451 1350 1487
8 1453 1318 1452 1584 1321 1187 1320 1456
8 1454 1319 1453 1585 1344 1208 1321 1457
8 1456 1320 1455 1586 1323 1189 1324 1459
8 1457 1321 1456 1587 1322 1188 1323 1458
8 1458 1323 1459 1588 1325 1191 1326 1460
8 1205 1336 1464 1329 1328 1462 1590 1461
8 1507 1373 1461 1590 1374 1242 1328 1462
8 1508 1374 1462 1591 1375 1243 1335 1467
8 1337 1206 1329 1464 1473 1341 1463 1594
8 1375 1243 1335 1467 1465 1333 1470 1596
8 1465 1333 1470 1596 1331 1200 1334 1466
8 1352 1227 1334 1466 1488 1360 1470 1596
8 1591 1462 1336 1468 1467 1335 1471 1597
8 1469 1337 1472 1598 1595 1464 1336 1468
8 1471 1339 1474 1600 1335 1204 1338 1470
8 1600 1474 1367 1496 1470 1338 1235 1360
8 1336 1205 1340 1472 1471 1339 1475 1601
8 1337 1206 1341 1473 1472 1340 1476 1602
8 1495 1370 1478 1609 1361 1239 1342 1479
8 1348 1212 1342 1479 1483 1347 1478 1609
8 1481 1346 1479 1610 1345 1210 1343 1480
8 1481 1346 1228 1359 1610 1479 1361 1494
8 1484 1348 1214 1351 1610 1479 1343 1480
8 1483 1347 1482 1612 1350 1213 1349 1486
8 1484 1348 1483 1613 1351 1214 1350 1487
8 1353 1230 1360 1488 1489 1363 1496 1616
8 1490 1364 1231 1354 1617 1499 1363 1489
8 1490 1364 1499 1617 1355 1232 1365 1491
8 1356 1234 1365 1491 1492 1366 1500 1619
8 1492 1366 1498 1620 1357 1233 1362 1493
8 1494 1361 1228 1359 1621 1497 1362 1493
8 1495 1370 1239 1361 1622 1504 1371 1497
8 1363 1236 1367 1496 1499 1368 1501 1623
8 1497 1371 1240 1362 1624 1505 1372 1498
8 1625 1503 1372 1498 1500 1369 1241 1366
8 1365 1238 1368 1499 1500 1369 1502 1626
8 1520 1398 1506 1633 1388 1266 1373 1507
8 1634 1507 1374 1508 1512 1388 1255 1380
8 1509 1387 1519 1635 1377 1258 1391 1510
8 1405 1276 1406 1534 1509 1387 1519 1635
8 1515 1392 1260 1383 1636 1522 1390 1511
8 1511 1390 1259 1379 1636 1522 1391 1510
8 1385 1256 1389 1517 1512 1388 1520 1637
8 1513 1394 1262 1382 1638 1524 1393 1514
8 1395 1516 1638 1524 1263 1384 1513 1394
8 1515 1392 1523 1639 1383 1260 1393 1514
8 1516 1395 1526 1640 1386 1264 1396 1518
8 1386 1264 1396 1518 1517 1389 1521 1641
8 1519 1397 1527 1643 1391 1269 1400 1522
8 1535 1407 1527 1643 1406 1277 1397 1519
8 1389 1267 1399 1521 1520 1398 1528 1644
8 1645 1529 1399 1521 1525 1404 1274 1396
8 1392 1270 1400 1522 1523 1401 1531 1646
8 1524 1402 1271 1393 1648 1532 1401 1523
8 1403 1526 1648 1532 1273 1395 1524 1402
8 1525 1404 1274 1396 1649 1533 1403 1526
8 1539 1414 1535 1657 1411 1286 1406 1534
8 1542 1415 1536 1658 1414 1287 1407 1535
8 1409 1285 1412 1537 1538 1413 1540 1660
8 1545 1421 1540 1660 1418 1292 1412 1537
8 1539 1414 1286 1411 1661 1541 1413 1538
8 1540 1417 1544 1663 1413 1288 1416 1541
8 1421 1296 1425 1548 1540 1417 1544 1663
8 1542 1415 1287 1414 1664 1543 1416 1541
8 1420 1294 1423 1547 1545 1421 1548 1666
8 1547 1423 1293 1419 1667 1549 1422 1546
8 1434 1301 1427 1553 1546 1422 1549 1667
8 1423 1297 1424 1549 1548 1425 1550 1668
8 1551 1426 1550 1668 1427 1298 1424 1549
8 1551 1426 1298 1427 1671 1552 1428 1554
8 1562 1432 1554 1674 1434 1301 1427 1553
8 1431 1299 1429 1558 1554 1428 1555 1675
8 1431 1299 1430 1560 1558 1429 1557 1680
8 1560 1430 1300 1432 1683 1559 1433 1563
8 1561 1431 1554 1674 1684 1560 1432 1562
8 1685 1563 1432 1562 1565 1435 1301 1434
8 1435 1302 1436 1566 1563 1433 1564 1686
8 1437 1303 1438 1568 1565 1435 1566 1688
8 1438 1304 1439 1569 1566 1436 1567 1689
8 1440 1306 1441 1571 1568 1438 1569 1691
8 1441 1307 1442 1572 1569 1439 1570 1692
8 1443 1309 1444 1574 1571 1441 1572 1694
8 1310 1444 1572 1442 1445 1575 1695 1573
8 1446 1312 1447 1576 1574 1444 1575 1696
8 1486 1349 1485 1614 1579 1449 1577 1699
8 1451 1317 1449 1579 1581 1450 1578 1701
8 1487 1350 1486 1615 1582 1451 1579 1702
8 1581 1450 1580 1704 1453 1318 1452 1584
8 1582 1451 1581 1705 1454 1319 1453 1585
8 1584 1452 1583 1706 1456 1320 1455 1586
8 1585 1453 1584 1707 1457 1321 1456 1587
8 1587 1456 1586 1708 1458 1323 1459 1588
8 1633 1506 1589 1710 1507 1373 1461 1590
8 1464 1329 1461 1590 1594 1463 1589 1710
8 1468 1336 1462 1591 1595 1464 1590 1711
8 1634 1507 1590 1711 1508 1374 1462 1591
8 1473 1341 1463 1594 1603 1477 1593 1716
8 1469 1337 1464 1595 1599 1473 1594 1717
8 1471 1597 1467 1335 1600 1718 1596 1470
8 1718 1600 1496 1616 1596 1470 1360 1488
8 1336 1468 1597 1471 1472 1598 1719 1601
8 1469 1337 1473 1599 1598 1472 1602 1720
8 1722 1604 1501 1623 1600 1474 1367 1496
8 1475 1601 1471 1339 1604 1722 1600 1474
8 1602 1476 1605 1723 1472 1340 1475 1601
8 1476 1602 1724 1606 1341 1473 1603 1477
8 1483 1347 1478 1609 1612 1482 1608 1731
8 1495 1370 1504 1622 1609 1478 1608 1731
8 1618 1495 1609 1732 1494 1361 1479 1610
8 1484 1348 1479 1610 1613 1483 1609 1732
8 1486 1349 1482 1612 1614 1485 1611 1733
8 1613 1483 1612 1734 1487 1350 1486 1615
8 1489 1363 1496 1616 1617 1499 1623 1736
8 1491 1365 1499 1617 1619 1500 1626 1737
8 1618 1495 1361 1494 1738 1622 1497 1621
8 1739 1625 1498 1620 1619 1500 1366 1492
8 1621 1497 1362 1493 1740 1624 1498 1620
8 1742 1631 1504 1622 1624 1505 1371 1497
8 1743 1628 1502 1626 1623 1501 1368 1499
8 1744 1630 1505 1624 1625 1503 1372 1498
8 1745 1629 1503 1625 1626 1502 1369 1500
8 1520 1398 1528 1644 1633 1506 1632 1751
8 1637 1520 1633 1752 1512 1388 1507 1634
8 1635 1519 1643 1753 1510 1391 1522 1636
8 1657 1535 1643 1753 1534 1406 1519 1635
8 1515 1392 1522 1636 1639 1523 1646 1754
8 1517 1389 1521 1641 1637 1520 1644 1755
8 1524 1638 1756 1648 1393 1514 1639 1523
8 1640 1526 1395 1516 1756 1648 1524 1638
8 1642 1525 1396 1518 1757 1649 1526 1640
8 1758 1645 1521 1641 1642 1525 1396 1518
8 1646 1531 1400 1522 1760 1650 1527 1643
8 1535 1407 1536 1658 1643 1527 1650 1760
8 1521 1399 1529 1645 1644 1528 1651 1761
8 1647 1530 1652 1762 1525 1404 1529 1645
8 1401 1523 1648 1532 1531 1646 1763 1655
8 1525 1404 1533 1649 1647 1530 1654 1765
8 1533 1649 1766 1656 1403 1526 1648 1532
8 1662 1542 1658 1774 1539 1414 1535 1657
8 1542 1415 1543 1664 1658 1536 1659 1775
8 1660 1540 1663 1777 1538 1413 1541 1661
8 1545 1421 1548 1666 1660 1540 1663 1777
8 1662 1542 1414 1539 1778 1664 1541 1661
8 1664 1543 1416 1541 1779 1665 1544 1663
8 1548 1425 1550 1668 1663 1544 1665 1779
8 1547 1423 1549 1667 1666 1548 1668 1781
8 1670 1551 1668 1781 1553 1427 1549 1667
8 1551 1426 1552 1671 1668 1550 1669 1782
8 1670 1551 1427 1553 1784 1671 1554 1674
8 1675 1555 1672 1785 1554 1428 1552 1671
8 1678 1556 1673 1789 1558 1429 1555 1675
8 1561 1431 1558 1681 1674 1554 1675 1790
8 1794 1677 1556 1678 1680 1557 1429 1558
8 1560 1430 1559 1683 1680 1557 1679 1797
8 1561 1431 1560 1684 1681 1558 1680 1798
8 1563 1433 1564 1686 1683 1559 1682 1800
8 1684 1560 1432 1562 1801 1683 1563 1685
8 1565 1435 1566 1688 1685 1563 1686 1802
8 1566 1436 1567 1689 1686 1564 1687 1803
8 1568 1438 1569 1691 1688 1566 1689 1805
8 1569 1439 1570 1692 1689 1567 1690 1806
8 1571 1441 1572 1694 1691 1569 1692 1808
8 1442 1572 1692 1570 1573 1695 1809 1693
8 1574 1444 1575 1696 1694 1572 1695 1810
8 1614 1485 1592 1712 1699 1577 1697 1813
8 1579 1449 1577 1699 1701 1578 1698 1815
8 1615 1486 1614 1735 1702 1579 1699 1816
8 1701 1578 1700 1818 1581 1450 1580 1704
8 1582 1451 1579 1702 1705 1581 1701 1819
8 1704 1580 1703 1820 1584 1452 1583 1706
8 1705 1581 1704 1821 1585 1453 1584 1707
8 1707 1584 1706 1822 1587 1456 1586 1708
8 1710 1589 1506 1633 1824 1709 1632 1751
8 1594 1463 1589 1710 1716 1593 1709 1824
8 1752 1633 1710 1825 1634 1507 1590 1711
8 1595 1464 1590 1711 1717 1594 1710 1825
8 1830 1714 1592 1712 1733 1611 1485 1614
8 1603 1477 1593 1716 1725 1607 1715 1834
8 1599 1473 1594 1717 1721 1603 1716 1835
8 1837 1722 1623 1736 1718 1600 1496 1616
8 1719 1601 1722 1837 1597 1471 1600 1718
8 1602 1720 1598 1472 1723 1838 1719 1601
8 1720 1602 1473 1599 1839 1724 1603 1721
8 1723 1605 1726 1840 1601 1475 1604 1722
8 1840 1726 1628 1743 1722 1604 1501 1623
8 1724 1606 1727 1841 1602 1476 1605 1723
8 1725 1607 1728 1842 1603 1477 1606 1724
8 1612 1482 1608 1731 1733 1611 1730 1849
8 1741 1627 1730 1849 1622 1504 1608 1731
8 1613 1483 1609 1732 1734 1612 1731 1850
8 1618 1495 1622 1738 1732 1609 1731 1850
8 1615 1486 1612 1734 1735 1614 1733 1851
8 1852 1743 1626 1737 1736 1623 1499 1617
8 1853 1745 1625 1739 1737 1626 1500 1619
8 1855 1742 1622 1738 1740 1624 1497 1621
8 1856 1744 1624 1740 1739 1625 1498 1620
8 1741 1627 1504 1622 1857 1746 1631 1742
8 1742 1631 1505 1624 1858 1749 1630 1744
8 1859 1747 1629 1745 1743 1628 1502 1626
8 1860 1748 1630 1744 1745 1629 1503 1625
8 1644 1528 1651 1761 1751 1632 1750 1865
8 1637 1520 1644 1755 1752 1633 1751 1866
8 1754 1646 1522 1636 1867 1760 1643 1753
8 1657 1535 1658 1774 1753 1643 1760 1867
8 1639 1523 1646 1754 1756 1648 1763 1868
8 1641 1521 1645 1758 1755 1644 1761 1869
8 1757 1649 1526 1640 1870 1766 1648 1756
8 1642 1525 1649 1757 1759 1647 1765 1871
8 1759 1647 1762 1872 1642 1525 1645 1758
8 1760 1650 1767 1874 1646 1531 1655 1763
8 1658 1536 1659 1775 1760 1650 1767 1874
8 1762 1652 1768 1875 1645 1529 1651 1761
8 1764 1653 1769 1876 1647 1530 1652 1762
8 1656 1766 1877 1773 1532 1648 1763 1655
8 1771 1879 1765 1654 1653 1764 1647 1530
8 1533 1649 1765 1654 1656 1766 1880 1772
8 1662 1542 1664 1778 1774 1658 1775 1887
8 1664 1543 1665 1779 1775 1659 1776 1888
8 1778 1664 1541 1661 1890 1779 1663 1777
8 1666 1548 1668 1781 1777 1663 1779 1890
8 1782 1669 1780 1891 1668 1550 1665 1779
8 1670 1551 1671 1784 1781 1668 1782 1893
8 1671 1552 1672 1785 1782 1669 1783 1894
8 1790 1675 1785 1896 1674 1554 1671 1784
8 1675 1555 1673 1789 1785 1672 1786 1897
8 1792 1676 1788 1903 1678 1556 1673 1789
8 1795 1678 1789 1904 1681 1558 1675 1790
8 1792 1676 1556 1678 1906 1791 1677 1794
8 1680 1557 1679 1797 1794 1677 1793 1909
8 1910 1794 1678 1795 1798 1680 1558 1681
8 1683 1559 1682 1800 1797 1679 1796 1912
8 1684 1560 1683 1801 1798 1680 1797 1913
8 1686 1564 1687 1803 1800 1682 1799 1915
8 1685 1563 1686 1802 1801 1683 1800 1916
8 1688 1566 1689 1805 1802 1686 1803 1917
8 1689 1567 1690 1806 1803 1687 1804 1918
8 1691 1569 1692 1808 1805 1689 1806 1920
8 1692 1570 1693 1809 1806 1690 1807 1921
8 1694 1572 1695 1810 1808 1692 1809 1922
8 1829 1713 1811 1926 1712 1592 1697 1813
8 1813 1697 1812 1928 1699 1577 1698 1815
8 1735 1614 1712 1828 1816 1699 1813 1929
8 1815 1698 1814 1931 1701 1578 1700 1818
8 1702 1579 1699 1816 1819 1701 1815 1932
8 1818 1700 1817 1933 1704 1580 1703 1820
8 1819 1701 1818 1934 1705 1581 1704 1821
8 1821 1704 1820 1935 1707 1584 1706 1822
8 1824 1709 1632 1751 1937 1823 1750 1865
8 1716 1593 1709 1824 1834 1715 1823 1937
8 1825 1710 1633 1752 1938 1824 1751 1866
8 1717 1594 1710 1825 1835 1716 1824 1938
8 1945 1830 1712 1828 1851 1733 1614 1735
8 1830 1714 1831 1946 1712 1592 1713 1829
8 1947 1832 1714 1830 1849 1730 1611 1733
8 1843 1729 1607 1725 1950 1833 1715 1834
8 1721 1603 1716 1835 1836 1725 1834 1951
8 1836 1725 1842 1953 1721 1603 1724 1839
8 1723 1838 1719 1601 1840 1954 1837 1722
8 1954 1840 1743 1852 1837 1722 1623 1736
8 1724 1839 1720 1602 1841 1955 1838 1723
8 1841 1727 1844 1956 1723 1605 1726 1840
8 1956 1844 1747 1859 1840 1726 1628 1743
8 1728 1842 1724 1606 1845 1957 1841 1727
8 1725 1607 1729 1843 1842 1728 1846 1958
8 1741 1627 1746 1857 1849 1730 1848 1965
8 1734 1612 1731 1850 1851 1733 1849 1966
8 1854 1741 1849 1966 1738 1622 1731 1850
8 1967 1859 1745 1853 1852 1743 1626 1737
8 1968 1860 1744 1856 1853 1745 1625 1739
8 1854 1741 1622 1738 1969 1857 1742 1855
8 1855 1742 1624 1740 1970 1858 1744 1856
8 1857 1746 1631 1742 1971 1861 1749 1858
8 1858 1749 1630 1744 1972 1863 1748 1860
8 1859 1747 1862 1973 1745 1629 1748 1860
8 1875 1768 1864 1977 1761 1651 1750 1865
8 1755 1644 1761 1869 1866 1751 1865 1978
8 1867 1760 1874 1979 1754 1646 1763 1868
8 1774 1658 1775 1887 1867 1760 1874 1979
8 1870 1766 1648 1756 1980 1877 1763 1868
8 1872 1762 1875 1981 1758 1645 1761 1869
8 1757 1649 1766 1870 1871 1765 1880 1982
8 1983 1879 1764 1873 1871 1765 1647 1759
8 1873 1764 1876 1984 1759 1647 1762 1872
8 1877 1773 1655 1763 1986 1881 1767 1874
8 1775 1659 1776 1888 1874 1767 1881 1986
8 1876 1769 1882 1987 1762 1652 1768 1875
8 1878 1770 1883 1988 1764 1653 1769 1876
8 1880 1772 1656 1766 1989 1886 1773 1877
8 1878 1770 1653 1764 1990 1884 1771 1879
8 1765 1654 1772 1880 1879 1771 1885 1991
8 1778 1664 1779 1890 1887 1775 1888 1997
8 1998 1889 1776 1888 1891 1780 1665 1779
8 1893 1782 1891 2000 1781 1668 1779 1890
8 1894 1783 1892 2001 1782 1669 1780 1891
8 1784 1671 1785 1896 1893 1782 1894 2003
8 1897 1786 1895 2004 1785 1672 1783 1894
8 1790 1675 1789 1904 1896 1785 1897 2006
8 1901 1787 1898 2007 1789 1673 1786 1897
8 1903 1788 1900 2013 1789 1673 1787 1901
8 1792 1676 1791 1906 1903 1788 1902 2016
8 1907 1792 1903 2017 1795 1678 1789 1904
8 1906 1791 1677 1794 2019 1905 1793 1909
8 1907 1792 1678 1795 2020 1906 1794 1910
8 1797 1679 1796 1912 1909 1793 1908 2022
8 1798 1680 1797 1913 1910 1794 1909 2023
8 1800 1682 1799 1915 1912 1796 1911 2025
8 1801 1683 1800 1916 1913 1797 1912 2026
8 1803 1687 1804 1918 1915 1799 1914 2028
8 1802 1686 1803 1917 1916 1800 1915 2029
8 1805 1689 1806 1920 1917 1803 1918 2030
8 1806 1690 1807 1921 1918 1804 1919 2031
8 1808 1692 1809 1922 1920 1806 1921 2032
8 1939 1826 1924 2037 1829 1713 1811 1926
8 1926 1811 1925 2039 1813 1697 1812 1928
8 1944 1829 1926 2040 1828 1712 1813 1929
8 1928 1812 1927 2042 1815 1698 1814 1931
8 1929 1813 1928 2043 1816 1699 1815 1932
8 1931 1814 1930 2044 1818 1700 1817 1933
8 1932 1815 1931 2045 1819 1701 1818 1934
8 1934 1818 1933 2046 1821 1704 1820 1935
8 2048 1936 1823 1937 1977 1864 1750 1865
8 1950 1833 1715 1834 2048 1936 1823 1937
8 1938 1824 1751 1866 2049 1937 1865 1978
8 1835 1716 1824 1938 1951 1834 1937 2049
8 1939 1826 1713 1829 2053 1942 1831 1946
8 1940 1827 1923 2035 2053 1942 1826 1939
8 1945 1830 1946 2058 1828 1712 1829 1944
8 2059 1947 1830 1945 1966 1849 1733 1851
8 1947 1832 1730 1849 2060 1948 1848 1965
8 1947 1832 1948 2060 1830 1714 1831 1946
8 1959 1847 1729 1843 2063 1949 1833 1950
8 1952 1843 1725 1836 2064 1950 1834 1951
8 1836 1725 1843 1952 1953 1842 1958 2066
8 1953 1842 1957 2067 1839 1724 1841 1955
8 1841 1955 1838 1723 1956 2068 1954 1840
8 2068 1956 1859 1967 1954 1840 1743 1852
8 1956 1844 1960 2069 1859 1747 1862 1973
8 1845 1957 1841 1727 1960 2069 1956 1844
8 1728 1842 1957 1845 1846 1958 2071 1961
8 1962 2072 1959 1847 1846 1958 1843 1729
8 1971 1861 1964 2077 1857 1746 1848 1965
8 1854 1741 1857 1969 1966 1849 1965 2078
8 1967 1859 1973 2079 1853 1745 1860 1968
8 1970 1858 1744 1856 2080 1972 1860 1968
8 1969 1857 1742 1855 2081 1971 1858 1970
8 1971 1861 1749 1858 2082 1974 1863 1972
8 1973 1862 1975 2083 1860 1748 1863 1972
8 1987 1882 1976 2086 1875 1768 1864 1977
8 1981 1875 1977 2087 1869 1761 1865 1978
8 1980 1877 1763 1868 2088 1986 1874 1979
8 1887 1775 1888 1997 1979 1874 1986 2088
8 1880 1982 2089 1989 1766 1870 1980 1877
8 1984 1876 1987 2090 1872 1762 1875 1981
8 1765 1871 1983 1879 1880 1982 2091 1991
8 1985 1878 1764 1873 2092 1990 1879 1983
8 1985 1878 1988 2093 1873 1764 1876 1984
8 2094 1992 1881 1986 1998 1889 1776 1888
8 1986 1881 1992 2094 1877 1773 1886 1989
8 1988 1883 1993 2095 1876 1769 1882 1987
8 1878 1770 1884 1990 1988 1883 1994 2096
8 1991 1885 1772 1880 2097 1996 1886 1989
8 1879 1771 1885 1991 1990 1884 1995 2098
8 2103 1998 1888 1997 2000 1891 1779 1890
8 2104 1999 1889 1998 2001 1892 1780 1891
8 2003 1894 2001 2106 1893 1782 1891 2000
8 2004 1895 2002 2107 1894 1783 1892 2001
8 2006 1897 2004 2109 1896 1785 1894 2003
8 2007 1898 2005 2110 1897 1786 1895 2004
8 2014 1901 2007 2112 1904 1789 1897 2006
8 2011 1899 2008 2113 1901 1787 1898 2007
8 2119 2010 1899 2011 2013 1900 1787 1901
8 2016 1902 2012 2122 1903 1788 1900 2013
8 2017 1903 2013 2123 1904 1789 1901 2014
8 1906 1791 1905 2019 2016 1902 2015 2125
8 1907 1792 1906 2020 2017 1903 2016 2126
8 1909 1793 1908 2022 2019 1905 2018 2128
8 2020 1906 1794 1910 2129 2019 1909 2023
8 1912 1796 1911 2025 2022 1908 2021 2131
8 1913 1797 1912 2026 2023 1909 2022 2132
8 1915 1799 1914 2028 2025 1911 2024 2134
8 1916 1800 1915 2029 2026 1912 2025 2135
8 1918 1804 1919 2031 2028 1914 2027 2136
8 1917 1803 1918 2030 2029 1915 2028 2137
8 1920 1806 1921 2032 2030 1918 2031 2138
8 1940 1827 1941 2054 2035 1923 2033 2140
8 2035 1923 2034 2143 1939 1826 1924 2037
8 2037 1924 2036 2146 1926 1811 1925 2039
8 2051 1939 2037 2147 1944 1829 1926 2040
8 2039 1925 2038 2149 1928 1812 1927 2042
8 2040 1926 2039 2150 1929 1813 1928 2043
8 2042 1927 2041 2151 1931 1814 1930 2044
8 2043 1928 2042 2152 1932 1815 1931 2045
8 2045 1931 2044 2153 1934 1818 1933 2046
8 2155 2047 1936 2048 2086 1976 1864 1977
8 2063 1949 1833 1950 2155 2047 1936 2048
8 2156 2048 1937 2049 2087 1977 1865 1978
8 2064 1950 1834 1951 2156 2048 1937 2049
8 2051 1939 1829 1944 2160 2053 1946 2058
8 2052 1940 2035 2144 2160 2053 1939 2051
8 2053 1942 1831 1946 2163 2057 1948 2060
8 2055 1943 1827 1940 2163 2057 1942 2053
8 2055 1943 2056 2164 1940 1827 1941 2054
8 2059 1947 1849 1966 2167 2060 1965 2078
8 2059 1947 2060 2167 1945 1830 1946 2058
8 2077 1964 2061 2168 1965 1848 1948 2060
8 2070 1963 1847 1959 2170 2062 1949 2063
8 2065 1959 1843 1952 2171 2063 1950 2064
8 2173 2072 1958 2066 2065 1959 1843 1952
8 1953 1842 1958 2066 2067 1957 2071 2174
8 2068 1956 2069 2175 1967 1859 1973 2079
8 2067 1957 2069 2175 1955 1841 1956 2068
8 1845 1957 2069 1960 1961 2071 2176 2073
8 2069 1960 2073 2176 1973 1862 1975 2083
8 2070 1963 2075 2177 1959 1847 1962 2072
8 1846 1958 2071 1961 1962 2072 2178 2074
8 2077 1964 1861 1971 2182 2076 1974 2082
8 2081 1971 2077 2183 1969 1857 1965 2078
8 2079 1973 2083 2184 1968 1860 1972 2080
8 2081 1971 1858 1970 2185 2082 1972 2080
8 2083 1975 2084 2186 1972 1863 1974 2082
8 2086 1976 1882 1987 2189 2085 1993 2095
8 2090 1987 2086 2190 1981 1875 1977 2087
8 2191 2094 1986 2088 2103 1998 1888 1997
8 2088 1986 2094 2191 1980 1877 1989 2089
8 1991 2091 2192 2097 1880 1982 2089 1989
8 2093 1988 2095 2193 1984 1876 1987 2090
8 1879 1983 2092 1990 1991 2091 2194 2098
8 1985 1878 1990 2092 2093 1988 2096 2195
8 2097 1996 1886 1989 2196 2099 1992 2094
8 2196 2099 1992 2094 2104 1999 1889 1998
8 1994 2096 1988 1883 2100 2197 2095 1993
8 2096 1994 1884 1990 2198 2101 1995 2098
8 1995 2098 2199 2102 1885 1991 2097 1996
8 2203 2104 1998 2103 2106 2001 1891 2000
8 2107 2002 2105 2204 2001 1892 1999 2104
8 2109 2004 2107 2206 2003 1894 2001 2106
8 2110 2005 2108 2207 2004 1895 2002 2107
8 2112 2007 2110 2209 2006 1897 2004 2109
8 2113 2008 2111 2210 2007 1898 2005 2110
8 2120 2011 2113 2212 2014 1901 2007 2112
8 2117 2009 2114 2213 2011 1899 2008 2113
8 2219 2116 2009 2117 2119 2010 1899 2011
8 2222 2118 2010 2119 2122 2012 1900 2013
8 2223 2119 2011 2120 2123 2013 1901 2014
8 2016 1902 2015 2125 2122 2012 2121 2225
8 2126 2016 2122 2226 2017 1903 2013 2123
8 2019 1905 2018 2128 2125 2015 2124 2228
8 2020 1906 2019 2129 2126 2016 2125 2229
8 2022 1908 2021 2131 2128 2018 2127 2231
8 2023 1909 2022 2132 2129 2019 2128 2232
8 2025 1911 2024 2134 2131 2021 2130 2234
8 2026 1912 2025 2135 2132 2022 2131 2235
8 1914 2028 2134 2024 2027 2136 2236 2133
8 2029 1915 2028 2137 2135 2025 2134 2237
8 2030 1918 2031 2138 2137 2028 2136 2238
8 2157 2050 2139 2240 2054 1941 2033 2140
8 2052 1940 2054 2161 2144 2035 2140 2242
8 2140 2033 2141 2243 2035 1923 2034 2143
8 2143 2034 2142 2246 2037 1924 2036 2146
8 2144 2035 2143 2247 2051 1939 2037 2147
8 2146 2036 2145 2249 2039 1925 2038 2149
8 2147 2037 2146 2250 2040 1926 2039 2150
8 2149 2038 2148 2251 2042 1927 2041 2151
8 2150 2039 2149 2252 2043 1928 2042 2152
8 2152 2042 2151 2253 2045 1931 2044 2153
8 2255 2154 2047 2155 2189 2085 1976 2086
8 2170 2062 1949 2063 2255 2154 2047 2155
8 2256 2155 2048 2156 2190 2086 1977 2087
8 2171 2063 1950 2064 2256 2155 2048 2156
8 2258 2159 2050 2157 2164 2056 1941 2054
8 2160 2053 1946 2058 2262 2163 2060 2167
8 2162 2055 1940 2052 2262 2163 2053 2160
8 2162 2055 2164 2263 2052 1940 2054 2161
8 2163 2057 1948 2060 2264 2165 2061 2168
8 2055 1943 2057 2163 2164 2056 2165 2264
8 2182 2076 2166 2268 2077 1964 2061 2168
8 2183 2077 2168 2269 2078 1965 2060 2167
8 2070 1963 2062 2170 2177 2075 2169 2271
8 2172 2070 1959 2065 2272 2170 2063 2171
8 2172 2070 2177 2273 2065 1959 2072 2173
8 2066 1958 2072 2173 2174 2071 2178 2274
8 2067 1957 2071 2174 2175 2069 2176 2275
8 2175 2069 2176 2275 2079 1973 2083 2184
8 2071 1961 2074 2178 2176 2073 2179 2276
8 2176 2073 2179 2276 2083 1975 2084 2186
8 2072 1962 2075 2177 2178 2074 2180 2277
8 2182 2076 1974 2082 2280 2181 2084 2186
8 2183 2077 1971 2081 2281 2182 2082 2185
8 2184 2083 2186 2282 2080 1972 2082 2185
8 2189 2085 1993 2095 2285 2188 2100 2197
8 2190 2086 1987 2090 2286 2189 2095 2193
8 2192 2097 1989 2089 2287 2196 2094 2191
8 2287 2196 2094 2191 2203 2104 1998 2103
8 2194 2098 1991 2091 2288 2199 2097 2192
8 2195 2096 2197 2289 2093 1988 2095 2193
8 2096 2195 2290 2198 1990 2092 2194 2098
8 2097 1996 2099 2196 2199 2102 2200 2291
8 2196 2099 1999 2104 2291 2200 2105 2204
8 2100 2197 2292 2201 1994 2096 2198 2101
8 1995 2098 2198 2101 2102 2199 2293 2202
8 2206 2107 2204 2296 2106 2001 2104 2203
8 2207 2108 2205 2297 2107 2002 2105 2204
8 2209 2110 2207 2299 2109 2004 2107 2206
8 2210 2111 2208 2300 2110 2005 2108 2207
8 2212 2113 2210 2302 2112 2007 2110 2209
8 2213 2114 2211 2303 2113 2008 2111 2210
8 2220 2117 2213 2305 2120 2011 2113 2212
8 2216 2115 2214 2306 2117 2009 2114 2213
8 2216 2115 2009 2117 2311 2217 2116 2219
8 2219 2116 2010 2119 2314 2218 2118 2222
8 2315 2219 2117 2220 2223 2119 2011 2120
8 2122 2012 2121 2225 2222 2118 2221 2317
8 2318 2222 2119 2223 2226 2122 2013 2123
8 2125 2015 2124 2228 2225 2121 2224 2320
8 2126 2016 2125 2229 2226 2122 2225 2321
8 2128 2018 2127 2231 2228 2124 2227 2323
8 2129 2019 2128 2232 2229 2125 2228 2324
8 2131 2021 2130 2234 2231 2127 2230 2326
8 2132 2022 2131 2235 2232 2128 2231 2327
8 2134 2024 2133 2236 2234 2130 2233 2328
8 2135 2025 2134 2237 2235 2131 2234 2329
8 2137 2028 2136 2238 2237 2134 2236 2330
8 2157 2050 2158 2259 2240 2139 2239 2332
8 2257 2157 2240 2334 2161 2054 2140 2242
8 2240 2139 2241 2335 2140 2033 2141 2243
8 2242 2140 2243 2337 2144 2035 2143 2247
8 2243 2141 2244 2338 2143 2034 2142 2246
8 2246 2142 2245 2341 2146 2036 2145 2249
8 2247 2143 2246 2342 2147 2037 2146 2250
8 2249 2145 2248 2343 2149 2038 2148 2251
8 2250 2146 2249 2344 2150 2039 2149 2252
8 2252 2149 2251 2345 2152 2042 2151 2253
8 2169 2271 2347 2254 2062 2170 2255 2154
8 2189 2085 2188 2285 2255 2154 2254 2347
8 2348 2255 2155 2256 2286 2189 2086 2190
8 2272 2170 2063 2171 2348 2255 2155 2256
8 2349 2258 2157 2257 2263 2164 2054 2161
8 2258 2159 2261 2351 2157 2050 2158 2259
8 2258 2159 2056 2164 2351 2261 2165 2264
8 2262 2163 2060 2167 2355 2264 2168 2269
8 2162 2055 2163 2262 2263 2164 2264 2355
8 2357 2266 2165 2264 2268 2166 2061 2168
8 2268 2166 2076 2182 2361 2267 2181 2280
8 2281 2182 2268 2362 2183 2077 2168 2269
8 2271 2169 2270 2364 2177 2075 2180 2277
8 2172 2070 2170 2272 2273 2177 2271 2365
8 2072 2173 2274 2178 2177 2273 2366 2277
8 2071 2174 2275 2176 2178 2274 2367 2276
8 2275 2176 2276 2367 2184 2083 2186 2282
8 2283 2187 2084 2186 2368 2278 2179 2276
8 2178 2074 2180 2277 2276 2179 2278 2368
8 2283 2187 2279 2370 2186 2084 2181 2280
8 2281 2182 2082 2185 2371 2280 2186 2282
8 2188 2285 2374 2284 2100 2197 2292 2201
8 2286 2189 2095 2193 2375 2285 2197 2289
8 2192 2097 2196 2287 2288 2199 2291 2376
8 2287 2196 2104 2203 2376 2291 2204 2296
8 2194 2098 2199 2288 2290 2198 2293 2377
8 2289 2197 2096 2195 2378 2292 2198 2290
8 2291 2200 2105 2204 2379 2294 2205 2297
8 2199 2102 2200 2291 2293 2202 2294 2379
8 2198 2101 2202 2293 2292 2201 2295 2380
8 2299 2207 2297 2383 2206 2107 2204 2296
8 2300 2208 2298 2384 2207 2108 2205 2297
8 2302 2210 2300 2386 2209 2110 2207 2299
8 2303 2211 2301 2387 2210 2111 2208 2300
8 2305 2213 2303 2389 2212 2113 2210 2302
8 2306 2214 2304 2390 2213 2114 2211 2303
8 2310 2216 2306 2392 2220 2117 2213 2305
8 2308 2215 2307 2393 2216 2115 2214 2306
8 2308 2215 2115 2216 2396 2309 2217 2311
8 2310 2216 2117 2220 2398 2311 2219 2315
8 2311 2217 2116 2219 2399 2312 2218 2314
8 2314 2218 2118 2222 2402 2313 2221 2317
8 2315 2219 2119 2223 2403 2314 2222 2318
8 2225 2121 2224 2320 2317 2221 2316 2405
8 2226 2122 2225 2321 2318 2222 2317 2406
8 2228 2124 2227 2323 2320 2224 2319 2408
8 2229 2125 2228 2324 2321 2225 2320 2409
8 2231 2127 2230 2326 2323 2227 2322 2411
8 2232 2128 2231 2327 2324 2228 2323 2412
8 2234 2130 2233 2328 2326 2230 2325 2413
8 2235 2131 2234 2329 2327 2231 2326 2414
8 2237 2134 2236 2330 2329 2234 2328 2415
8 2259 2158 2260 2352 2332 2239 2331 2417
8 2257 2157 2259 2350 2334 2240 2332 2419
8 2240 2139 2239 2332 2335 2241 2333 2420
8 2334 2240 2335 2422 2242 2140 2243 2337
8 2335 2241 2336 2423 2243 2141 2244 2338
8 2337 2243 2338 2425 2247 2143 2246 2342
8 2338 2244 2339 2426 2246 2142 2245 2341
8 2341 2245 2340 2428 2249 2145 2248 2343
8 2342 2246 2341 2429 2250 2146 2249 2344
8 2344 2249 2343 2430 2252 2149 2251 2345
8 2188 2285 2347 2254 2284 2374 2432 2346
8 2347 2254 2346 2432 2271 2169 2270 2364
8 2365 2271 2170 2272 2433 2347 2255 2348
8 2286 2189 2285 2375 2348 2255 2347 2433
8 2349 2258 2351 2435 2257 2157 2259 2350
8 2349 2258 2164 2263 2435 2351 2264 2355
8 2259 2158 2261 2351 2352 2260 2354 2437
8 2356 2265 2354 2437 2264 2165 2261 2351
8 2441 2357 2264 2355 2362 2268 2168 2269
8 2356 2265 2165 2264 2442 2358 2266 2357
8 2443 2359 2266 2357 2361 2267 2166 2268
8 2370 2279 2360 2446 2280 2181 2267 2361
8 2362 2268 2182 2281 2447 2361 2280 2371
8 2180 2277 2368 2278 2270 2364 2449 2363
8 2271 2365 2273 2177 2364 2450 2366 2277
8 2372 2283 2186 2282 2451 2368 2276 2367
8 2178 2274 2367 2276 2277 2366 2451 2368
8 2283 2187 2278 2368 2370 2279 2369 2452
8 2372 2283 2370 2453 2282 2186 2280 2371
8 2284 2374 2455 2373 2201 2292 2380 2295
8 2375 2285 2197 2289 2456 2374 2292 2378
8 2376 2291 2204 2296 2457 2379 2297 2383
8 2288 2199 2291 2376 2377 2293 2379 2457
8 2198 2290 2378 2292 2293 2377 2458 2380
8 2293 2202 2294 2379 2380 2295 2381 2459
8 2384 2298 2381 2459 2297 2205 2294 2379
8 2386 2300 2384 2463 2299 2207 2297 2383
8 2387 2301 2385 2464 2300 2208 2298 2384
8 2389 2303 2387 2466 2302 2210 2300 2386
8 2390 2304 2388 2467 2303 2211 2301 2387
8 2392 2306 2390 2469 2305 2213 2303 2389
8 2393 2307 2391 2470 2306 2214 2304 2390
8 2395 2308 2393 2472 2310 2216 2306 2392
8 2308 2215 2309 2396 2393 2307 2394 2473
8 2395 2308 2216 2310 2475 2396 2311 2398
8 2396 2309 2217 2311 2476 2397 2312 2399
8 2398 2311 2219 2315 2478 2399 2314 2403
8 2399 2312 2218 2314 2479 2400 2313 2402
8 2317 2221 2316 2405 2402 2313 2401 2482
8 2403 2314 2222 2318 2483 2402 2317 2406
8 2320 2224 2319 2408 2405 2316 2404 2485
8 2321 2225 2320 2409 2406 2317 2405 2486
8 2323 2227 2322 2411 2408 2319 2407 2488
8 2324 2228 2323 2412 2409 2320 2408 2489
8 2326 2230 2325 2413 2411 2322 2410 2490
8 2327 2231 2326 2414 2412 2323 2411 2491
8 2329 2234 2328 2415 2414 2326 2413 2492
8 2417 2331 2260 2352 2494 2416 2353 2438
8 2350 2259 2352 2436 2419 2332 2417 2496
8 2332 2239 2331 2417 2420 2333 2418 2497
8 2334 2240 2332 2419 2422 2335 2420 2499
8 2420 2333 2421 2500 2335 2241 2336 2423
8 2422 2335 2423 2502 2337 2243 2338 2425
8 2423 2336 2424 2503 2338 2244 2339 2426
8 2425 2338 2426 2505 2342 2246 2341 2429
8 2426 2339 2427 2506 2341 2245 2340 2428
8 2429 2341 2428 2507 2344 2249 2343 2430
8 2432 2346 2284 2374 2509 2431 2373 2455
8 2432 2346 2431 2509 2364 2270 2363 2449
8 2375 2285 2374 2456 2433 2347 2432 2510
8 2347 2433 2365 2271 2432 2510 2450 2364
8 2350 2259 2351 2435 2436 2352 2437 2514
8 2440 2356 2437 2514 2355 2264 2351 2435
8 2352 2260 2354 2437 2438 2353 2439 2516
8 2356 2265 2358 2442 2437 2354 2439 2516
8 2440 2356 2264 2355 2518 2442 2357 2441
8 2519 2443 2357 2441 2447 2361 2268 2362
8 2443 2359 2444 2520 2357 2266 2358 2442
8 2443 2359 2267 2361 2520 2444 2360 2446
8 2446 2360 2279 2370 2523 2445 2369 2452
8 2453 2370 2446 2524 2371 2280 2361 2447
8 2449 2363 2448 2525 2368 2278 2369 2452
8 2366 2277 2364 2450 2451 2368 2449 2526
8 2372 2283 2368 2451 2453 2370 2452 2527
8 2455 2373 2295 2380 2529 2454 2382 2460
8 2456 2374 2292 2378 2530 2455 2380 2458
8 2377 2293 2379 2457 2458 2380 2459 2531
8 2463 2384 2459 2531 2383 2297 2379 2457
8 2533 2461 2382 2460 2459 2381 2295 2380
8 2464 2385 2461 2533 2384 2298 2381 2459
8 2466 2387 2464 2537 2386 2300 2384 2463
8 2467 2388 2465 2538 2387 2301 2385 2464
8 2469 2390 2467 2540 2389 2303 2387 2466
8 2470 2391 2468 2541 2390 2304 2388 2467
8 2472 2393 2470 2543 2392 2306 2390 2469
8 2393 2307 2394 2473 2470 2391 2471 2544
8 2395 2308 2396 2475 2472 2393 2473 2546
8 2396 2309 2397 2476 2473 2394 2474 2547
8 2475 2396 2311 2398 2549 2476 2399 2478
8 2476 2397 2312 2399 2550 2477 2400 2479
8 2478 2399 2314 2403 2552 2479 2402 2483
8 2479 2400 2313 2402 2553 2480 2401 2482
8 2405 2316 2404 2485 2482 2401 2481 2556
8 2406 2317 2405 2486 2483 2402 2482 2557
8 2408 2319 2407 2488 2485 2404 2484 2559
8 2409 2320 2408 2489 2486 2405 2485 2560
8 2411 2322 2410 2490 2488 2407 2487 2561
8 2412 2323 2411 2491 2489 2408 2488 2562
8 2414 2326 2413 2492 2491 2411 2490 2563
8 2513 2434 2493 2565 2438 2353 2416 2494
8 2496 2417 2352 2436 2567 2494 2438 2515
8 2494 2416 2495 2568 2417 2331 2418 2497
8 2419 2332 2417 2496 2499 2420 2497 2570
8 2497 2418 2498 2571 2420 2333 2421 2500
8 2499 2420 2500 2573 2422 2335 2423 2502
8 2500 2421 2501 2574 2423 2336 2424 2503
8 2502 2423 2503 2576 2425 2338 2426 2505
8 2503 2424 2504 2577 2426 2339 2427 2506
8 2505 2426 2506 2578 2429 2341 2428 2507
8 2509 2431 2373 2455 2580 2508 2454 2529
8 2509 2431 2508 2580 2449 2363 2448 2525
8 2432 2510 2581 2509 2374 2456 2530 2455
8 2432 2510 2450 2364 2509 2581 2526 2449
8 2583 2511 2434 2513 2516 2439 2353 2438
8 2436 2352 2437 2514 2515 2438 2516 2588
8 2440 2356 2442 2518 2514 2437 2516 2588
8 2442 2358 2444 2520 2516 2439 2517 2589
8 2519 2443 2520 2591 2441 2357 2442 2518
8 2519 2443 2361 2447 2591 2520 2446 2524
8 2446 2360 2445 2523 2520 2444 2521 2592
8 2525 2448 2522 2593 2452 2369 2445 2523
8 2524 2446 2370 2453 2594 2523 2452 2527
8 2526 2449 2525 2595 2451 2368 2452 2527
8 2534 2462 2528 2597 2460 2382 2454 2529
8 2530 2455 2380 2458 2598 2529 2460 2532
8 2599 2533 2460 2532 2531 2459 2380 2458
8 2537 2464 2533 2599 2463 2384 2459 2531
8 2534 2462 2382 2460 2601 2535 2461 2533
8 2538 2465 2535 2601 2464 2385 2461 2533
8 2540 2467 2538 2604 2466 2387 2464 2537
8 2541 2468 2539 2605 2467 2388 2465 2538
8 2543 2470 2541 2607 2469 2390 2467 2540
8 2470 2391 2471 2544 2541 2468 2542 2608
8 2472 2393 2473 2546 2543 2470 2544 2610
8 2473 2394 2474 2547 2544 2471 2545 2611
8 2475 2396 2476 2549 2546 2473 2547 2613
8 2476 2397 2477 2550 2547 2474 2548 2614
8 2549 2476 2399 2478 2616 2550 2479 2552
8 2479 2400 2480 2553 2550 2477 2551 2617
8 2552 2479 2402 2483 2619 2553 2482 2557
8 2482 2401 2481 2556 2553 2480 2554 2620
8 2485 2404 2484 2559 2556 2481 2555 2623
8 2486 2405 2485 2560 2557 2482 2556 2624
8 2488 2407 2487 2561 2559 2484 2558 2625
8 2489 2408 2488 2562 2560 2485 2559 2626
8 2491 2411 2490 2563 2562 2488 2561 2627
8 2513 2434 2512 2585 2565 2493 2564 2630
8 2586 2513 2565 2632 2515 2438 2494 2567
8 2565 2493 2566 2633 2494 2416 2495 2568
8 2567 2494 2568 2635 2496 2417 2497 2570
8 2568 2495 2569 2636 2497 2418 2498 2571
8 2570 2497 2571 2638 2499 2420 2500 2573
8 2571 2498 2572 2639 2500 2421 2501 2574
8 2573 2500 2574 2641 2502 2423 2503 2576
8 2574 2501 2575 2642 2503 2424 2504 2577
8 2576 2503 2577 2643 2505 2426 2506 2578
8 2597 2528 2579 2645 2529 2454 2508 2580
8 2580 2508 2579 2645 2525 2448 2522 2593
8 2581 2509 2455 2530 2646 2580 2529 2598
8 2581 2509 2580 2646 2526 2449 2525 2595
8 2583 2511 2582 2648 2513 2434 2512 2585
8 2583 2511 2439 2516 2648 2582 2517 2589
8 2649 2583 2513 2586 2588 2516 2438 2515
8 2589 2517 2444 2520 2653 2587 2521 2592
8 2518 2442 2520 2591 2588 2516 2589 2654
8 2593 2522 2590 2655 2523 2445 2521 2592
8 2524 2446 2523 2594 2591 2520 2592 2656
8 2595 2525 2593 2657 2527 2452 2523 2594
8 2602 2536 2596 2659 2534 2462 2528 2597
8 2600 2534 2597 2660 2532 2460 2529 2598
8 2600 2534 2460 2532 2661 2601 2533 2599
8 2604 2538 2601 2661 2537 2464 2533 2599
8 2602 2536 2462 2534 2663 2603 2535 2601
8 2601 2535 2465 2538 2663 2603 2539 2605
8 2607 2541 2605 2665 2540 2467 2538 2604
8 2608 2542 2606 2666 2541 2468 2539 2605
8 2543 2470 2544 2610 2607 2541 2608 2668
8 2544 2471 2545 2611 2608 2542 2609 2669
8 2546 2473 2547 2613 2610 2544 2611 2671
8 2547 2474 2548 2614 2611 2545 2612 2672
8 2549 2476 2550 2616 2613 2547 2614 2674
8 2550 2477 2551 2617 2614 2548 2615 2675
8 2552 2479 2553 2619 2616 2550 2617 2677
8 2553 2480 2554 2620 2617 2551 2618 2678
8 2557 2482 2556 2624 2619 2553 2620 2680
8 2556 2481 2555 2623 2620 2554 2621 2681
8 2559 2484 2558 2625 2623 2555 2622 2683
8 2560 2485 2559 2626 2624 2556 2623 2684
8 2562 2488 2561 2627 2626 2559 2625 2685
8 2690 2629 2564 2630 2650 2584 2512 2585
8 2586 2513 2585 2651 2632 2565 2630 2691
8 2630 2564 2631 2692 2565 2493 2566 2633
8 2632 2565 2633 2694 2567 2494 2568 2635
8 2633 2566 2634 2695 2568 2495 2569 2636
8 2635 2568 2636 2697 2570 2497 2571 2638
8 2636 2569 2637 2698 2571 2498 2572 2639
8 2638 2571 2639 2700 2573 2500 2574 2641
8 2639 2572 2640 2701 2574 2501 2575 2642
8 2641 2574 2642 2702 2576 2503 2577 2643
8 2597 2528 2596 2659 2645 2579 2644 2704
8 2645 2579 2644 2704 2593 2522 2590 2655
8 2660 2597 2645 2705 2598 2529 2580 2646
8 2646 2580 2645 2705 2595 2525 2593 2657
8 2650 2584 2512 2585 2707 2647 2582 2648
8 2648 2582 2517 2589 2707 2647 2587 2653
8 2649 2583 2648 2708 2586 2513 2585 2651
8 2649 2583 2516 2588 2708 2648 2589 2654
8 2655 2590 2652 2710 2592 2521 2587 2653
8 2654 2589 2520 2591 2711 2653 2592 2656
8 2657 2593 2655 2712 2594 2523 2592 2656
8 2602 2536 2603 2663 2659 2596 2658 2714
8 2662 2602 2659 2715 2600 2534 2597 2660
8 2662 2602 2534 2600 2717 2663 2601 2661
8 2661 2601 2538 2604 2717 2663 2605 2665
8 2666 2606 2664 2718 2605 2539 2603 2663
8 2668 2608 2666 2720 2607 2541 2605 2665
8 2608 2542 2609 2669 2666 2606 2667 2721
8 2610 2544 2611 2671 2668 2608 2669 2723
8 2611 2545 2612 2672 2669 2609 2670 2724
8 2613 2547 2614 2674 2671 2611 2672 2726
8 2614 2548 2615 2675 2672 2612 2673 2727
8 2616 2550 2617 2677 2674 2614 2675 2729
8 2617 2551 2618 2678 2675 2615 2676 2730
8 2619 2553 2620 2680 2677 2617 2678 2732
8 2620 2554 2621 2681 2678 2618 2679 2733
8 2624 2556 2623 2684 2680 2620 2681 2735
8 2681 2621 2555 2623 2736 2682 2622 2683
8 2626 2559 2625 2685 2684 2623 2683 2737
8 2688 2628 2584 2650 2740 2686 2647 2707
8 2688 2628 2687 2742 2650 2584 2629 2690
8 2690 2629 2689 2745 2630 2564 2631 2692
8 2746 2690 2630 2691 2709 2650 2585 2651
8 2691 2630 2692 2747 2632 2565 2633 2694
8 2692 2631 2693 2748 2633 2566 2634 2695
8 2694 2633 2695 2750 2635 2568 2636 2697
8 2695 2634 2696 2751 2636 2569 2637 2698
8 2697 2636 2698 2753 2638 2571 2639 2700
8 2698 2637 2699 2754 2639 2572 2640 2701
8 2700 2639 2701 2755 2641 2574 2642 2702
8 2659 2596 2658 2714 2704 2644 2703 2757
8 2704 2644 2703 2757 2655 2590 2652 2710
8 2660 2597 2659 2715 2705 2645 2704 2758
8 2705 2645 2704 2758 2657 2593 2655 2712
8 2759 2706 2647 2707 2710 2652 2587 2653
8 2709 2650 2585 2651 2760 2707 2648 2708
8 2708 2648 2589 2654 2760 2707 2653 2711
8 2712 2655 2710 2761 2656 2592 2653 2711
8 2763 2713 2658 2714 2718 2664 2603 2663
8 2662 2602 2663 2717 2715 2659 2714 2764
8 2720 2666 2718 2767 2665 2605 2663 2717
8 2768 2719 2664 2718 2721 2667 2606 2666
8 2668 2608 2669 2723 2720 2666 2721 2770
8 2669 2609 2670 2724 2721 2667 2722 2771
8 2671 2611 2672 2726 2723 2669 2724 2773
8 2672 2612 2673 2727 2724 2670 2725 2774
8 2674 2614 2675 2729 2726 2672 2727 2776
8 2675 2615 2676 2730 2727 2673 2728 2777
8 2677 2617 2678 2732 2729 2675 2730 2779
8 2678 2618 2679 2733 2730 2676 2731 2780
8 2680 2620 2681 2735 2732 2678 2733 2782
8 2733 2679 2621 2681 2783 2734 2682 2736
8 2735 2681 2623 2684 2784 2736 2683 2737
8 2740 2686 2647 2707 2787 2738 2706 2759
8 2688 2628 2686 2740 2742 2687 2739 2789
8 2743 2688 2650 2709 2790 2740 2707 2760
8 2742 2687 2741 2792 2690 2629 2689 2745
8 2743 2688 2742 2793 2709 2650 2690 2746
8 2745 2689 2744 2795 2692 2631 2693 2748
8 2746 2690 2745 2796 2691 2630 2692 2747
8 2747 2692 2748 2797 2694 2633 2695 2750
8 2748 2693 2749 2798 2695 2634 2696 2751
8 2750 2695 2751 2800 2697 2636 2698 2753
8 2751 2696 2752 2801 2698 2637 2699 2754
8 2753 2698 2754 2802 2700 2639 2701 2755
8 2763 2713 2756 2804 2714 2658 2703 2757
8 2759 2706 2652 2710 2804 2756 2703 2757
8 2715 2659 2714 2764 2758 2704 2757 2805
8 2758 2704 2757 2805 2712 2655 2710 2761
8 2806 2759 2707 2760 2761 2710 2653 2711
8 2765 2716 2762 2808 2718 2664 2713 2763
8 2809 2763 2714 2764 2767 2718 2663 2717
8 2765 2716 2664 2718 2811 2766 2719 2768
8 2813 2768 2718 2767 2770 2721 2666 2720
8 2814 2769 2719 2768 2771 2722 2667 2721
8 2723 2669 2724 2773 2770 2721 2771 2816
8 2724 2670 2725 2774 2771 2722 2772 2817
8 2726 2672 2727 2776 2773 2724 2774 2819
8 2727 2673 2728 2777 2774 2725 2775 2820
8 2729 2675 2730 2779 2776 2727 2777 2822
8 2730 2676 2731 2780 2777 2728 2778 2823
8 2732 2678 2733 2782 2779 2730 2780 2825
8 2780 2731 2679 2733 2826 2781 2734 2783
8 2782 2733 2681 2735 2827 2783 2736 2784
8 2830 2785 2738 2787 2804 2756 2706 2759
8 2789 2739 2686 2740 2832 2786 2738 2787
8 2790 2740 2707 2760 2833 2787 2759 2806
8 2742 2687 2739 2789 2792 2741 2788 2835
8 2743 2688 2740 2790 2793 2742 2789 2836
8 2792 2741 2791 2838 2745 2689 2744 2795
8 2793 2742 2792 2839 2746 2690 2745 2796
8 2795 2744 2794 2841 2748 2693 2749 2798
8 2796 2745 2795 2842 2747 2692 2748 2797
8 2797 2748 2798 2843 2750 2695 2751 2800
8 2798 2749 2799 2844 2751 2696 2752 2801
8 2800 2751 2801 2845 2753 2698 2754 2802
8 2808 2762 2803 2847 2763 2713 2756 2804
8 2809 2763 2804 2848 2764 2714 2757 2805
8 2806 2759 2710 2761 2848 2804 2757 2805
8 2765 2716 2766 2811 2808 2762 2807 2850
8 2810 2765 2808 2851 2767 2718 2763 2809
8 2810 2765 2718 2767 2852 2811 2768 2813
8 2811 2766 2719 2768 2853 2812 2769 2814
8 2855 2814 2768 2813 2816 2771 2721 2770
8 2856 2815 2769 2814 2817 2772 2722 2771
8 2773 2724 2774 2819 2816 2771 2817 2858
8 2774 2725 2775 2820 2817 2772 2818 2859
8 2776 2727 2777 2822 2819 2774 2820 2861
8 2777 2728 2778 2823 2820 2775 2821 2862
8 2779 2730 2780 2825 2822 2777 2823 2864
8 2823 2778 2731 2780 2865 2824 2781 2826
8 2825 2780 2733 2782 2866 2826 2783 2827
8 2869 2828 2785 2830 2847 2803 2756 2804
8 2871 2829 2786 2832 2830 2785 2738 2787
8 2872 2830 2787 2833 2848 2804 2759 2806
8 2789 2739 2786 2832 2835 2788 2831 2874
8 2836 2789 2740 2790 2875 2832 2787 2833
8 2792 2741 2788 2835 2838 2791 2834 2877
8 2793 2742 2789 2836 2839 2792 2835 2878
8 2838 2791 2837 2880 2795 2744 2794 2841
8 2839 2792 2838 2881 2796 2745 2795 2842
8 2841 2794 2840 2882 2798 2749 2799 2844
8 2842 2795 2841 2883 2797 2748 2798 2843
8 2843 2798 2844 2884 2800 2751 2801 2845
8 2886 2846 2803 2847 2850 2807 2762 2808
8 2851 2808 2847 2887 2809 2763 2804 2848
8 2850 2807 2766 2811 2889 2849 2812 2853
8 2810 2765 2811 2852 2851 2808 2850 2890
8 2852 2811 2768 2813 2891 2853 2814 2855
8 2853 2812 2769 2814 2892 2854 2815 2856
8 2894 2856 2814 2855 2858 2817 2771 2816
8 2817 2772 2818 2859 2856 2815 2857 2895
8 2819 2774 2820 2861 2858 2817 2859 2897
8 2820 2775 2821 2862 2859 2818 2860 2898
8 2822 2777 2823 2864 2861 2820 2862 2900
8 2823 2778 2824 2865 2862 2821 2863 2901
8 2864 2823 2780 2825 2902 2865 2826 2866
8 2904 2867 2828 2869 2886 2846 2803 2847
8 2869 2828 2868 2906 2830 2785 2829 2871
8 2907 2869 2830 2872 2887 2847 2804 2848
8 2871 2829 2870 2909 2832 2786 2831 2874
8 2910 2871 2832 2875 2872 2830 2787 2833
8 2835 2788 2831 2874 2877 2834 2873 2912
8 2836 2789 2832 2875 2878 2835 2874 2913
8 2877 2834 2876 2915 2838 2791 2837 2880
8 2839 2792 2835 2878 2881 2838 2877 2916
8 2880 2837 2879 2917 2841 2794 2840 2882
8 2881 2838 2880 2918 2842 2795 2841 2883
8 2883 2841 2882 2919 2843 2798 2844 2884
8 2921 2885 2846 2886 2889 2849 2807 2850
8 2922 2886 2847 2887 2890 2850 2808 2851
8 2889 2849 2812 2853 2924 2888 2854 2892
8 2890 2850 2811 2852 2925 2889 2853 2891
8 2891 2853 2814 2855 2926 2892 2856 2894
8 2892 2854 2815 2856 2927 2893 2857 2895
8 2858 2817 2859 2897 2894 2856 2895 2929
8 2859 2818 2860 2898 2895 2857 2896 2930
8 2861 2820 2862 2900 2897 2859 2898 2932
8 2862 2821 2863 2901 2898 2860 2899 2933
8 2864 2823 2865 2902 2900 2862 2901 2934
8 2904 2867 2846 2886 2936 2903 2885 2921
8 2904 2867 2903 2936 2869 2828 2868 2906
8 2937 2904 2869 2907 2922 2886 2847 2887
8 2906 2868 2905 2939 2871 2829 2870 2909
8 2907 2869 2906 2940 2872 2830 2871 2910
8 2909 2870 2908 2942 2874 2831 2873 2912
8 2910 2871 2909 2943 2875 2832 2874 2913
8 2912 2873 2911 2945 2877 2834 2876 2915
8 2878 2835 2874 2913 2916 2877 2912 2946
8 2915 2876 2914 2947 2880 2837 2879 2917
8 2916 2877 2915 2948 2881 2838 2880 2918
8 2918 2880 2917 2949 2883 2841 2882 2919
8 2921 2885 2849 2889 2951 2920 2888 2924
8 2952 2921 2886 2922 2925 2889 2850 2890
8 2924 2888 2854 2892 2954 2923 2893 2927
8 2925 2889 2853 2891 2955 2924 2892 2926
8 2926 2892 2856 2894 2956 2927 2895 2929
8 2895 2857 2896 2930 2927 2893 2928 2957
8 2897 2859 2898 2932 2929 2895 2930 2959
8 2898 2860 2899 2933 2930 2896 2931 2960
8 2900 2862 2901 2934 2932 2898 2933 2961
8 2936 2903 2885 2921 2963 2935 2920 2951
8 2936 2903 2935 2963 2906 2868 2905 2939
8 2937 2904 2886 2922 2964 2936 2921 2952
8 2937 2904 2936 2964 2907 2869 2906 2940
8 2939 2905 2938 2966 2909 2870 2908 2942
8 2940 2906 2939 2967 2910 2871 2909 2943
8 2942 2908 2941 2969 2912 2873 2911 2945
8 2943 2909 2942 2970 2913 2874 2912 2946
8 2945 2911 2944 2971 2915 2876 2914 2947
8 2946 2912 2945 2972 2916 2877 2915 2948
8 2948 2915 2947 2973 2918 2880 2917 2949
8 2951 2920 2888 2924 2975 2950 2923 2954
8 2952 2921 2889 2925 2976 2951 2924 2955
8 2927 2893 2928 2957 2954 2923 2953 2978
8 2955 2924 2892 2926 2979 2954 2927 2956
8 2929 2895 2930 2959 2956 2927 2957 2980
8 2930 2896 2931 2960 2957 2928 2958 2981
8 2932 2898 2933 2961 2959 2930 2960 2982
8 2951 2920 2950 2975 2963 2935 2962 2984
8 2963 2935 2962 2984 2939 2905 2938 2966
8 2964 2936 2921 2952 2985 2963 2951 2976
8 2964 2936 2963 2985 2940 2906 2939 2967
8 2966 2938 2965 2987 2942 2908 2941 2969
8 2967 2939 2966 2988 2943 2909 2942 2970
8 2969 2941 2968 2989 2945 2911 2944 2971
8 2970 2942 2969 2990 2946 2912 2945 2972
8 2972 2945 2971 2991 2948 2915 2947 2973
8 2954 2923 2953 2978 2975 2950 2974 2993
8 2976 2951 2924 2955 2994 2975 2954 2979
8 2957 2928 2958 2981 2978 2953 2977 2995
8 2956 2927 2957 2980 2979 2954 2978 2996
8 2959 2930 2960 2982 2980 2957 2981 2997
8 2984 2962 2983 2999 2966 2938 2965 2987
8 2975 2950 2974 2993 2984 2962 2983 2999
8 2976 2951 2975 2994 2985 2963 2984 3000
8 2985 2963 2984 3000 2967 2939 2966 2988
8 2987 2965 2986 3001 2969 2941 2968 2989
8 2988 2966 2987 3002 2970 2942 2969 2990
8 2990 2969 2989 3003 2972 2945 2971 2991
8 2978 2953 2977 2995 2993 2974 2992 3004
8 2979 2954 2978 2996 2994 2975 2993 3005
8 2980 2957 2981 2997 2996 2978 2995 3006
8 2974 2993 2999 2983 2992 3004 3007 2998
8 2983 2999 2987 2965 2998 3007 3001 2986
8 3000 2984 2999 3008 2988 2966 2987 3002
8 2994 2975 2993 3005 3000 2984 2999 3008
8 3002 2987 3001 3009 2990 2969 2989 3003
8 2996 2978 2995 3006 3005 2993 3004 3010
8 3005 2993 3004 3010 3008 2999 3007 3011
8 3008 2999 3007 3011 3002 2987 3001 3009

CELL_TYPES 1910
12
12
12
12
12
12
12
12
12
12
12
12
12
12
12
12
12
12
12
12
12
12
12
12
12
12
12
12
12
12
12
12
12
12
12
12
12
12
12
12
12
12
12
12
12
12
12
12
12
12
12
12
12
12
12
12
12
12
12
12
12
12
12
12
12
12
12
12
12
12
12
12
12
12
12
12
12
12
12
12
12
12
12
12
12
12
12
12
12
12
12
12
12
12
12
12
12
12
12
12
12
12
12
12
12
12
12
12
12
12
12
12
12
12
12
12
12
12
12
12
12
12
12
12
12
12
12
12
12
12
12
12
12
12
12
12
12
12
12
12
12
12
12
12
12
12
12
12
12
12
12
12
12
12
12
12
12
12
12
12
12
12
12
12
12
12
12
12
12
12
12
12
12
12
12
12
12
12
12
12
12
12
12
12
12
12
12
12
12
12
12
12
12
12
12
12
12
12
12
12
12
12
12
12
12
12
12
12
12
12
12
12
12
12
12
12
12
12
12
12
12
12
12
12
12
12
12
12
12
12
12
12
12
12
12
12
12
12
12
12
12
12
12
12
12
12
12
12
12
12
12
12
12
12
12
12
12
12
12
12
12
12
12
12
12
12
12
12
12
12
12
12
12
12
12
12
12
12
12
12
12
12
12
12
12
12
12
12
12
12
12
12
12
12
12
12
12
12
12
12
12
12
12
12
12
12
12
12
12
12
12
12
12
12
12
12
12
12
12
12
12
12
12
12
12
12
12
12
12
12
12
12
12
12
12
12
12
12
12
12
12
12
12
12
12
12
12
12
12
12
12
12
12
12
12
12
12
12
12
12
12
12
12
12
12
12
12
12
12
12
12
12
12
12
12
12
12
12
12
12
12
12
12
12
12
12
12
12
12
12
12
12
12
12
12
12
12
12
12
12
12
12
12
12
12
12
12
12
12
12
12
12
12
12
12
12
12
12
12
12
12
12
12
12
12
12
12
12
12
12
12
12
12
12
12
12
12
12
12
12
12
12
12
12
12
12
12
12
12
12
12
12
12
12
12
12
12
12
12
12
12
12
12
12
12
12
12
12
12
12
12
12
12
12
12
12
12
12
12
12
12
12
12
12
12
12
12
12
12
12
12
12
12
12
12
12
12
12
12
12
12
12
12
12
12
12
12
12
12
12
12
12
12
12
12
12
12
12
12
12
12
12
12
12
12
12
12
12
12
12
12
12
12
12
12
12
12
12
12
12
12
12
12
12
12
12
12
12
12
12
12
12
12
12
12
12
12
12
12
12
12
12
12
12
12
12
12
12
12
12
12
12
12
12
12
12
12
12
12
12
12
12
12
12
12
12
12
12
12
12
12
12
12
12
12
12
12
12
12
12
12
12
12
12
12
12
12
12
12
12
12
12
12
12
12
12
12
12
12
12
12
12
12
12
12
12
12
12
12
12
12
12
12
12
12
12
12
12
12
12
12
12
12
12
12
12
12
12
12
12
12
12
12
12
12
12
12
12
12
12
12
12
12
12
12
12
12
12
12
12
12
12
12
12
12
12
12
12
12
12
12
12
12
12
12
12
12
12
12
12
12
12
12
12
12
12
12
12
12
12
12
12
12
12
12
12
12
12
12
12
12
12
12
12
12
12
12
12
12
12
12
12
12
12
12
12
12
12
12
12
12
12
12
12
12
12
12
12
12
12
12
12
12
12
12
12
12
12
12
12
12
12
12
12
12
12
12
12
12
12
12
12
12
12
12
12
12
12
12
12
12
12
12
12
12
12
12
12
12
12
12
12
12
12
12
12
12
12
12
12
12
12
12
12
12
12
12
12
12
12
12
12
12
12
12
12
12
12
12
12
12
12
12
12
12
12
12
12
12
12
12
12
12
12
12
12
12
12
12
12
12
12
12
12
12
12
12
12
12
12
12
12
12
12
12
12
12
12
12
12
12
12
12
12
12
12
12
12
12
12
12
12
12
12
12
12
12
12
12
12
12
12
12
12
12
12
12
12
12
12
12
12
12
12
12
12
12
12
12
12
12
12
12
12
12
12
12
12
12
12
12
12
12
12
12
12
12
12
12
12
12
12
12
12
12
12
12
12
12
12
12
12
12
12
12
12
12
12
12
12
12
12
12
12
12
12
12
12
12
12
12
12
12
12
12
12
12
12
12
12
12
12
12
12
12
12
12
12
12
12
12
12
12
12
12
12
12
12
12
12
12
12
12
12
12
12
12
12
12
12
12
12
12
12
12
12
12
12
12
12
12
12
12
12
12
12
12
12
12
12
12
12
12
12
12
12
12
12
12
12
12
12
12
12
12
12
12
12
12
12
12
12
12
12
12
12
12
12
12
12
12
12
12
12
12
12
12
12
12
12
12
12
12
12
12
12
12
12
12
12
12
12
12
12
12
12
12
12
12
12
12
12
12
12
12
12
12
12
12
12
12
12
12
12
12
12
12
12
12
12
12
12
12
12
12
12
12
12
12
12
12
12
12
12
12
12
12
12
12
12
12
12
12
12
12
12
12
12
12
12
12
12
12
12
12
12
12
12
12
12
12
12
12
12
12
12
12
12
12
12
12
12
12
12
12
12
12
12
12
12
12
12
12
12
12
12
12
12
12
12
12
12
12
12
12
12
12
12
12
12
12
12
12
12
12
12
12
12
12
12
12
12
12
12
12
12
12
12
12
12
12
12
12
12
12
12
12
12
12
12
12
12
12
12
12
12
12
12
12
12
12
12
12
12
12
12
12
12
12
12
12
12
12
12
12
12
12
12
12
12
12
12
12
12
12
12
12
12
12
12
12
12
12
12
12
12
12
12
12
12
12
12
12
12
12
12
12
12
12
12
12
12
12
12
12
12
12
12
12
12
12
12
12
12
12
12
12
12
12
12
12
12
12
12
12
12
12
12
12
12
12
12
12
12
12
12
12
12
12
12
12
12
12
12
12
12
12
12
12
12
12
12
12
12
12
12
12
12
12
12
12
12
12
12
12
12
12
12
12
12
12
12
12
12
12
12
12
12
12
12
12
12
12
12
12
12
12
12
12
12
12
12
12
12
12
12
12
12
12
12
12
12
12
12
12
12
12
12
12
12
12
12
12
12
12
12
12
12
12
12
12
12
12
12
12
12
12
12
12
12
12
12
12
12
12
12
12
12
12
12
12
12
12
12
12
12
12
12
12
12
12
12
12
12
12
12
12
12
12
12
12
12
12
12
12
12
12
12
12
12
12
12
12
12
12
12
12
12
12
12
12
12
12
12
12
12
12
12
12
12
12
12
12
12
12
12
12
12
12
12
12
12
12
12
12
12
12
12
12
12
12
12
12
12
12
12
12
12
12
12
12
12
12
12
12
12
12
12
12
12
12
12
12
12
12
12
12
12
12
12
12
12
12
12
12
12
12
12
12
12
12
12
12
12
12
12
12
12
12
12
12
12
12
12
12
12
12
12
12
12
12
12
12
12
12
12
12
12
12
12
12
12
12
12
12
12
12
12
12
12
12
12
12
12
12
12
12
12
12
12
12
12
12
12
12
12
12
12
12
12
12
12
12
12
12
12
12
12
12
12
12
12
12
12
12
12
12
12
12
12
12
12
12
12
12
12
12
12
12
12
12
12
12
12
12
12
12
12
12
12
12
12
12
12
12
12
12
12
12
12
12
12
12
12
12
12
12
12
12
12
12
12
12
12
12
12
12
12
12
12
12
12
12
12
12
12
12
12
12
12
12
12
12
12
12
12
12
12
12
12
12
12
12
12
12
12
12
12
12
12
12
12
12
12
12
12
12
12
12
12
12
12
12
12
12
12
12
12
12
12
12
12
12
12
12
12
12
12
12
12
12
12
12
12
12
12
12
12
12
12
12
12
12
12
12
12
12
12
12
12
12
12
12
12
12
12
12
12
12
12
12
12
12
12
12
12
12
12
12
12
12
12
12
12
12
12
12
12
12
12
12
12
12
12
12
12
12
12
12
12
12
12
12
12
12
12
12
12
12
12
12
12
12
12
12
12
12
12
12
12
12
12
12
12
12
12
12
12
12
12
12
12
12
12
12
12
12
12
12
12
12
12
12
12
12
12
12
12
12
12
12
12
12
12
12
12
12
12
12
12
12
12
12
12
12
12
12
12
12
12
12
12
12
12
12
12
12
12
12
12
12
12
12
12
12
12
12
12
12
12
12
12
12
12
12
12
12
12
12
12
12
12
12
12
12
12
12
12
12
12
12
12
12
12
12
12
12
12
12
12
12
12
12
12
12
12
12
12
12
12
12
12
12
12
12
12
12
12
12
12
12
12
12
12
12
12
12
12
12
12
12
12
12
12
12
12
12
12
12
12

POINT_DATA 3012
SCALARS Jp_lamdaP float 4
LOOKUP_TABLE default
0.99952 1 1 0.99952
1 1 1 1
0.999535 1 1 0.999535
0.999462 1 1 0.999462
0.999522 1 1 0.999522
0.999493 1 1 0.999493
1.00682 1.00834 1 0.9985
1 1 1 1
1 1 1 1
1 1 1 1
0.999583 1 1 0.999583
1.00281 1.00428 1 0.998541
0.999492 1 1 0.999492
0.999482 1 1 0.999482
0.99954 1 1 0.99954
0.999496 1 1 0.999496
0.999502 1 1 0.999502
0.999546 1 1 0.999546
1.00682 1.00834 1 0.998499
1 1 1 1
0.999449 1 1 0.999449
0.999496 1 1 0.999496
1.00208 1.00369 1 0.998393
1.0059 1.00743 1 0.998486
0.999484 1 1 0.999484
1.00607 1.00759 1 0.998495
1.03041 1.03353 1 0.996977
1 1 1 1
0.999757 1 1 0.999757
0.99977 1 1 0.99977
1 1 1 1
1.00171 1.00316 1 0.998551
0.999505 1 1 0.999505
0.999535 1 1 0.999535
1.0073 1.00862 1 0.998692
1 1 1 1
1.00606 1.00731 1 0.998762
0.999618 1.00099 1 0.998627
1.01916 1.02231 1 0.996918
1 1 1 1
1 1 1 1
0.999743 1 1 0.999743
1 1 1 1
0.999498 1 1 0.999498
0.998486 1.00016 1 0.998323
1 1 1 1
1.001 1.0024 1 0.998601
0.999526 1 1 0.999526
0.999564 1 1 0.999564
0.999504 1 1 0.999504
1.00685 1.00836 1 0.998502
0.999728 1 1 0.999728
0.99948 1 1 0.99948
0.999498 1 1 0.999498
0.999527 1 1 0.999527
1.00181 1.00343 1 0.998386
1.00613 1.00764 1 0.998496
1.00577 1.0073 1 0.998484
1.03063 1.03377 1 0.996966
1 1 1 1
0.999462 1 1 0.999462
0.998737 1.00006 1 0.998672
1.00009 1.00171 1 0.998375
1.00436 1.00593 1 0.998441
1.03223 1.03557 1 0.996773
1.03104 1.03428 1 0.996865
0.999534 1 1 0.999534
1.00076 1.0022 1 0.998569
1.02855 1.03161 1 0.997037
1.05076 1.05487 1 0.996103
1 1 1 1
1 1 1 1
1 1 1 1
1.00095 1.00239 1 0.99856
1 1 1 1
1 1 1 1
1.00712 1.0087 1 0.998439
0.999838 1 1 0.999838
1.00494 1.00642 1 0.998529
0.999726 1.00084 1.00009 0.998799
1.01974 1.02289 1 0.996914
1 1 1 1
1.00187 1 1.00233 0.999546
1.0058 1.00746 1 0.998353
1.0071 1.00865 1 0.998468
1.03641 1.04002 1 0.996534
0.999682 1 1.00055 0.999134
1.02627 1.02954 1 0.996826
1.01421 1.01714 1.00003 0.997084
1.03718 1.04119 1 0.99615
1 1 1 1
1 1 1 1
1 1 1 1
1 1 1 1
1 1 1 1
0.999749 1 1 0.999749
0.998863 1.00038 1 0.998486
0.999741 1 1 0.999741
1.00175 1.00329 1 0.998471
1 1 1 1
0.998359 1 1 0.998359
0.999445 1.00084 1 0.99861
1.02608 1.02972 1 0.99646
1.00379 1.00516 1 0.998632
1.03433 1.03801 1 0.996454
0.999517 1 1 0.999517
0.999507 1 1 0.999507
0.999508 1 1 0.999508
0.999554 1 1 0.999554
1.00154 1.00317 1 0.998382
1.00566 1.00718 1 0.998486
1.00609 1.0076 1 0.998501
1.03094 1.03409 1 0.996955
1 1 1 1
0.99949 1 1 0.99949
0.998437 1.00004 1 0.998396
0.999802 1.00144 1 0.998365
0.99977 1 1 0.99977
1.00171 1.00305 1 0.998661
1.00413 1.0057 1 0.998438
1.0322 1.03557 1 0.99675
1.02796 1.03103 1 0.997024
1.0317 1.03493 1 0.996884
1.05056 1.05466 1 0.996113
0.998388 1 1 0.998383
0.999015 1.00063 1 0.998389
1.02405 1.02738 1 0.996762
1.02902 1.03239 1 0.996732
1.03268 1.03601 1 0.99679
1.06429 1.06837 1 0.996179
1 1 1 1
1.05449 1.05859 1 0.99613
0.99948 1.00033 1.00043 0.998721
1.01914 1.02224 1 0.996965
1.04733 1.05146 1 0.996074
1.05504 1.05915 1 0.99612
1.00174 1 1.00258 0.99916
1.00667 1 1.00881 0.997876
1 1 1 1
1 1 1 1
1.00713 1.0087 1 0.998444
1 1 1 1
0.99951 1.00045 1.00034 0.998715
1.00411 1.00558 1 0.998536
1.01978 1.02294 1 0.99691
1 1 1 1
1.00186 1 1.00229 0.999571
1.00639 1.00789 1 0.998508
1.00697 1.00837 1 0.998609
1.03564 1.03924 1 0.996533
0.999996 1 1.00098 0.999016
1.02638 1.02965 1 0.996827
1.01202 1.01491 1.00008 0.997081
1.03816 1.04218 1 0.996151
1.00134 1 1.00206 0.999284
1.00175 1 1.00201 0.999738
1.0054 1.0004 1.00678 0.998235
1.03817 1.04187 1 0.996455
1.03302 1.03646 1 0.996677
1.05875 1.06298 1 0.996019
1.00749 1.00914 1.00096 0.997405
1.04535 1.04936 1 0.996185
1.02672 1.03003 1.00057 0.996211
1.04467 1.0488 1 0.99606
1 1 1 1
1 1 1 1
1 1 1 1
1.0019 1 1.00255 0.99935
1 1 1 1
1 1 1 1
1 1 1 1
1.00231 1.00397 1 0.998344
0.998865 1.0005 1 0.998361
1 1 1 1
1 1 1 1
0.998405 1.00005 1 0.99836
0.999691 1.00121 1 0.998482
1.02653 1.03017 1 0.996461
1.0042 1.00586 1 0.998348
1.03369 1.03738 1 0.996452
0.998363 1 1 0.998363
1.02404 1.0277 1 0.996441
1.02938 1.03303 1 0.996471
1.06741 1.07203 0.999433 0.996252
1.03755 1.04126 1 0.996436
1.07052 1.07471 0.999914 0.996196
1 1 1 1
0.999519 1 1 0.999519
0.998094 1.00001 1 0.998089
0.999539 1.00118 1 0.998357
1 1 1 1
1.00294 1.00419 1 0.998757
1.0039 1.00547 1 0.998437
1.03218 1.03557 1 0.996726
1.03249 1.0357 1 0.996902
1.02721 1.03029 1 0.997011
1.05024 1.05433 1 0.996122
0.998381 1 1 0.998381
0.998843 1.00046 1 0.99838
1.02405 1.02752 1 0.996619
1.0294 1.03277 1 0.99674
1 1 1 1
1.00009 1.00106 1.00022 0.998813
1.02023 1.02324 1 0.997062
1.03313 1.03647 1 0.996783
1.06449 1.06856 1 0.99619
1.04747 1.0516 1 0.996072
1.05457 1.05863 1 0.996162
1.05461 1.05871 1 0.99613
1.00148 1 1.00233 0.999147
1.00558 1.00015 1.00757 0.997877
1.02326 1.02689 1 0.996463
1.02489 1.02822 1 0.996757
1.06488 1.06915 0.999738 0.996268
1.06435 1.06948 0.998981 0.996219
1.05946 1.06347 1 0.996224
1.06397 1.07009 0.997856 0.996416
1.00044 1 1.0015 0.998941
1.05767 1.06164 0.999982 0.996278
1.01087 1.01363 1.00011 0.99717
1.04187 1.04597 1 0.996087
1.05324 1.0575 1 0.995968
1.0543 1.05816 0.999927 0.996424
1.00378 1.00126 1.00496 0.997577
1.00639 1 1.00818 0.998225
1.00519 1.00231 1.00575 0.997143
1.00667 1.0083 1 0.998388
1 1 1 1
1.00161 1 1.00201 0.999595
1.00654 1.00804 1 0.998504
1.035 1.0386 1 0.996532
1.00021 1 1.0012 0.999013
1.01078 1.0137 1.00004 0.997078
1.02622 1.02949 1 0.996829
1.03979 1.0438 1 0.996151
1.00144 1 1.00213 0.999307
1.00133 1 1.00157 0.999757
1.00585 1.00003 1.0076 0.998235
1.03721 1.0409 1 0.996451
1.03228 1.03571 1 0.996679
1.05891 1.06314 1 0.996013
1.0054 1.00732 1.00069 0.997409
1.04595 1.04995 1 0.996183
1.03013 1.03357 1.00047 0.996202
1.04601 1.05014 1 0.996069
1.0011 1 1.00125 0.99985
1.00446 1.00287 1.00381 0.997786
1.00607 1 1.00739 0.998683
1.00787 1.00355 1.00677 0.997556
1.06311 1.06733 1 0.996039
1.05268 1.05681 1 0.996089
1.06016 1.06433 1 0.996084
1.0174 1.02041 1.00049 0.996565
1.04726 1.05125 1 0.996204
1.042 1.0446 1.00158 0.995942
1.05555 1.05973 1 0.996055
0.999754 1 1.00028 0.999478
0.999945 1 1 0.999945
1 1 1 1
1 1 1 1
1 1 1 1
1.00188 1 1.00235 0.999537
1 1 1 1
1.00222 1 1.00289 0.999332
1 1 1 1
1.00499 1.00665 1 0.998349
1.00005 1.0017 1 0.998356
1.03351 1.03719 1 0.996451
1.02709 1.03074 1 0.996461
0.998532 1.00017 1 0.998361
1 1 1 1
0.998362 1 1 0.998362
1.02448 1.02814 1 0.996441
1.02985 1.0335 1 0.996471
1.06684 1.0714 0.999496 0.99625
1.03679 1.04051 1 0.996432
1.06989 1.07404 0.999944 0.996193
1.02321 1.02687 1 0.996443
1.06554 1.07 0.999593 0.996232
1.06982 1.0743 0.999578 0.996243
1.06695 1.07621 0.994772 0.996608
1.06799 1.07216 1 0.996117
1.06715 1.07535 0.995869 0.996492
0.998379 1 1 0.998379
0.998671 1.0003 1 0.99837
1.02407 1.02769 1 0.996477
1.02972 1.03308 1 0.996748
1 1 1 1
1.00047 1.00153 1.00004 0.998908
1.02098 1.02389 1 0.997159
1.03358 1.03692 1 0.996775
1.06465 1.06871 1 0.996201
1.0545 1.05853 1 0.996193
1.04795 1.05208 1 0.99607
1.05429 1.05838 1 0.99614
1.00136 1 1.00223 0.999134
1.00563 1.00058 1.00719 0.997877
1.02322 1.02685 1 0.996459
1.02529 1.02863 1 0.99675
1.06436 1.06899 0.999369 0.996297
1.06558 1.0702 0.999473 0.996204
1.00003 1 1.0011 0.998931
1.01221 1.01493 1.00016 0.997169
1.04163 1.0457 1 0.996111
1.05924 1.06328 1 0.996198
1.06319 1.06973 0.997413 0.996469
1.05278 1.05705 1 0.995963
1.05782 1.06183 0.999944 0.996282
1.05437 1.05824 0.999932 0.996415
1.00462 1.00232 1.00473 0.997577
1.00642 1.00299 1.0063 0.997139
1.00738 1 1.00917 0.998226
1.06418 1.06842 0.999782 0.99625
1.0655 1.07039 0.999132 0.996295
1.06726 1.075 0.996254 0.996534
1.06482 1.0733 0.995597 0.99649
1.05954 1.0647 0.998734 0.996415
1.05535 1.06714 0.992148 0.996777
1.00329 1.00525 1.00067 0.997382
1.05516 1.06124 0.997658 0.996598
1.02903 1.03281 1 0.996335
1.0451 1.04955 1 0.995755
1.04992 1.05411 1 0.996025
1.04722 1.05213 0.99863 0.996698
1.00776 1 1.00925 0.998528
1.00506 1.00725 1.00088 0.99694
1.00912 1.00066 1.01111 0.997369
1.00608 1.00632 1.00297 0.9968
1.0363 1.04 1 0.996447
1.00096 1 1.00118 0.999775
1.00168 1 1.00235 0.999331
1.0072 1 1.00898 0.998234
1.03165 1.03508 1 0.996681
1.05897 1.06321 1 0.996007
1.00235 1.00448 1.00047 0.997414
1.03145 1.03505 1.00033 0.996192
1.04678 1.05079 1 0.996181
1.04584 1.04995 1 0.996078
1.00057 1 1.0007 0.999863
1.00432 1.00188 1.00466 0.997791
1.00633 1 1.00765 0.99869
1.00714 1.00259 1.007 0.997552
1.0632 1.06744 1 0.996032
1.05289 1.05702 1 0.996086
1.05965 1.06382 1 0.996081
1.01514 1.01817 1.00045 0.99657
1.04677 1.05078 1 0.996189
1.03935 1.0418 1.00173 0.995929
1.05488 1.05896 1 0.996147
0.999912 1 1 0.999912
1.00372 1 1.0047 0.999026
1.00837 1.00937 1.00191 0.997101
1.0101 1.00153 1.01064 0.997937
1.00568 1.00516 1.00322 0.997307
1.06461 1.06906 0.999639 0.996194
1.05325 1.05737 1 0.996104
1.0544 1.05865 0.999716 0.996266
1.01892 1.02079 1.00199 0.996175
1.04747 1.05141 1 0.996252
1.03291 1.0364 1.00086 0.995783
0.999524 1 1.00013 0.999393
1.00066 1 1.00185 0.998806
0.999551 1 1 0.999551
0.999515 1 1.00003 0.99948
0.999965 1 1 0.999965
0.999951 1 1 0.999951
1 1 1 1
1 1 1 1
1 1 1 1
1.00096 1 1.00123 0.999733
1 1 1 1
1.002 1 1.00248 0.99952
1 1 1 1
1.00195 1 1.00264 0.999315
1 1 1 1
1.03587 1.03958 1 0.996427
1.03005 1.03369 1 0.99647
1.06891 1.07302 0.999977 0.99619
1.06618 1.07066 0.999559 0.996249
1.02486 1.02852 1 0.996442
0.998361 1 1 0.998361
1.02339 1.02704 1 0.996443
1.06519 1.06962 0.999626 0.996233
1.06882 1.07323 0.999647 0.996241
1.06663 1.07643 0.994244 0.996625
1.06732 1.07149 1 0.996112
1.06769 1.07577 0.995985 0.996491
1.06429 1.06865 0.9997 0.996222
1.06639 1.07574 0.994663 0.996632
1.06715 1.07654 0.994686 0.996573
1.06087 1.07278 0.992035 0.996839
1.06542 1.07155 0.997913 0.996358
1.06007 1.07543 0.988852 0.996833
1.02319 1.02683 1 0.996456
1.02572 1.02907 1 0.996744
1.06389 1.06886 0.999023 0.996326
1.06689 1.07099 0.999977 0.996189
0.999653 1 1.00073 0.998921
1.01452 1.01725 1.00015 0.99717
1.04244 1.04649 1 0.996134
1.05899 1.06306 1 0.996172
1.06244 1.0694 0.996958 0.996522
1.058 1.06204 0.999908 0.996286
1.05213 1.0564 1 0.995958
1.05447 1.05833 0.999948 0.996405
1.00527 1.00345 1.00425 0.997576
1.00606 1.00265 1.00629 0.997135
1.00751 1 1.0093 0.998227
1.06403 1.0683 0.999766 0.996242
1.06519 1.0703 0.998926 0.996293
1.06671 1.07508 0.995618 0.996582
1.06487 1.07283 0.996103 0.996464
1.00605 1.00778 1.0009 0.997381
1.02861 1.03239 1 0.996334
1.04408 1.04847 1.00003 0.995784
1.06008 1.06489 0.999103 0.996369
1.05486 1.06745 0.991346 0.996824
1.05104 1.05527 1 0.995986
1.05528 1.06132 0.997701 0.996599
1.04836 1.05306 0.998798 0.996736
1.00624 1.00787 1.00145 0.99694
1.00564 1.00542 1.00347 0.996754
1.00688 1 1.00836 0.998527
1.00844 1.00044 1.01061 0.997411
1.06655 1.07478 0.995744 0.996583
1.06845 1.07689 0.995635 0.996514
1.056 1.06847 0.991548 0.996755
1.05381 1.06953 0.988407 0.996853
1.05504 1.06475 0.99411 0.99675
1.0544 1.06981 0.988555 0.996997
1.01339 1.0168 1 0.996648
1.04693 1.05724 0.993265 0.996968
1.0312 1.03542 1 0.995927
1.04087 1.04528 1.00018 0.995605
1.04934 1.05351 1 0.996041
1.05109 1.0561 0.998488 0.996764
1.00343 1 1.00463 0.998807
1.01234 1.00108 1.01364 0.997643
1.00935 1.01283 1 0.996569
1.00826 1.00433 1.00688 0.997058
1.00871 1.00614 1.00597 0.996596
1.00012 1 1.00024 0.999877
1.06326 1.0675 1 0.996025
1.00633 1 1.00764 0.998696
1.00417 1.00099 1.00539 0.997796
1.00612 1.00156 1.00703 0.997548
1.05305 1.05719 1 0.996083
1.05918 1.06335 1 0.996079
1.01538 1.01835 1.00051 0.996576
1.03923 1.04148 1.00193 0.995915
1.04639 1.05041 1 0.996175
1.05507 1.05905 1 0.996239
0.999921 1 1 0.999921
1.00371 1 1.00468 0.999037
1.00609 1.00765 1.00134 0.997108
1.01103 1.00135 1.01176 0.997932
1.0055 1.00461 1.00363 0.997258
1.06437 1.06877 0.999686 0.996189
1.05301 1.05713 1 0.996103
1.05411 1.05842 0.999679 0.996254
1.02001 1.02176 1.00213 0.996173
1.05075 1.05473 1 0.996235
1.03315 1.03649 1.00096 0.995817
1.00062 1 1.00136 0.999259
1.00694 1 1.00863 0.998322
1.00333 1.00615 1.00048 0.996717
1.01285 1.00479 1.01047 0.997577
1.00848 1.00931 1.00203 0.997154
1.06055 1.06763 0.996926 0.996431
1.04841 1.05238 1 0.996226
1.05087 1.05634 0.99834 0.996484
1.00582 1.006 1.00379 0.996036
1.03011 1.03445 1 0.995806
0.999767 1 1.00037 0.999396
0.999213 1 1.0005 0.998711
1.00081 1 1.00204 0.998781
1.00063 1 1.00211 0.998531
1.00028 1 1.00141 0.998869
0.999596 1 1 0.999596
0.999554 1 1 0.999554
0.999982 1 1 0.999982
0.99949 1 1.00001 0.999482
0.99997 1 1 0.99997
1 1 1 1
0.999956 1 1 0.999956
1 1 1 1
1 1 1 1
1.00002 1 1.00013 0.999891
1.00163 1 1.00192 0.999713
1 1 1 1
1 1 1 1
1.00269 1 1.00319 0.999503
1 1 1 1
1.06676 1.07093 1 0.996107
1.06813 1.07247 0.999711 0.996239
1.06833 1.0763 0.996091 0.99649
1.0664 1.07677 0.993708 0.996643
1.0648 1.06919 0.99966 0.996233
1.02352 1.02718 1 0.996443
1.06413 1.06847 0.999713 0.996223
1.06626 1.07547 0.994797 0.996627
1.06767 1.07713 0.99463 0.996574
1.06024 1.07272 0.991473 0.996869
1.06638 1.07243 0.998007 0.996353
1.06032 1.07557 0.988933 0.996855
1.06648 1.07528 0.995204 0.996602
1.0584 1.07166 0.990778 0.996819
1.06135 1.07442 0.9909 0.996904
1.06106 1.07751 0.987711 0.996988
1.06062 1.07318 0.991599 0.996666
1.06211 1.08029 0.986072 0.997055
1.06385 1.06814 0.99975 0.996234
1.06483 1.07018 0.998705 0.996291
1.06607 1.07511 0.994938 0.996629
1.06482 1.07227 0.996598 0.996438
1.00783 1.0093 1.00116 0.99738
1.02591 1.02969 1 0.996332
1.04243 1.04663 1.00018 0.995813
1.06067 1.06514 0.999482 0.996323
1.05441 1.06775 0.990613 0.996872
1.05543 1.06144 0.997732 0.9966
1.05207 1.05635 1 0.995947
1.04924 1.05374 0.998952 0.996774
1.00857 1.00949 1.00215 0.99694
1.00614 1.00595 1.00349 0.996708
1.00662 1 1.0081 0.998525
1.00754 1.00012 1.00999 0.997453
1.06665 1.07486 0.99576 0.996582
1.06807 1.07646 0.995697 0.996496
1.05609 1.06873 0.991366 0.996786
1.05476 1.0696 0.989259 0.996836
1.01427 1.01747 1.00021 0.996642
1.02977 1.03391 1.00003 0.995962
1.04077 1.04497 1.00039 0.995594
1.05578 1.06478 0.994831 0.996699
1.05288 1.06881 0.988011 0.997053
1.04686 1.05104 1 0.996026
1.0481 1.05854 0.993155 0.996968
1.05124 1.0562 0.998466 0.996832
1.00831 1.01178 1 0.996572
1.00646 1.00636 1.00354 0.996582
1.00749 1.00301 1.00743 0.997054
1.00404 1 1.00527 0.998776
1.01164 1.00042 1.01356 0.997685
1.05728 1.07061 0.990716 0.996802
1.05751 1.07216 0.989485 0.99682
1.05322 1.07404 0.983528 0.997037
1.04818 1.06504 0.987075 0.997057
1.01617 1.01995 1 0.99629
1.05193 1.06284 0.992576 0.99714
1.01832 1.02242 1.00029 0.995699
1.03406 1.03827 1.00051 0.995439
1.04418 1.04841 0.999925 0.99604
1.0006 1 1.00151 0.999092
1.00987 1 1.01182 0.99807
1.00757 1.00012 1.01012 0.99736
1.00673 1.00987 1.00046 0.996432
1.0092 1.0051 1.00745 0.99666
1.00918 1.00683 1.00593 0.996423
0.999929 1 1 0.999929
1.00338 1 1.00434 0.999047
1.06408 1.06844 0.999735 0.996184
1.01237 1.00114 1.01332 0.997926
1.00284 1.00499 1.00074 0.997116
1.00538 1.00427 1.0039 0.997209
1.05266 1.05678 1 0.996101
1.05396 1.05831 0.999645 0.996243
1.01978 1.02136 1.00229 0.996172
1.03215 1.03565 1.00077 0.995851
1.05423 1.05823 1 0.996218
1.00011 1 1.00084 0.999265
1.00778 1 1.00947 0.998326
1.00595 1.00884 1.00045 0.996691
1.01295 1.00401 1.01136 0.997573
1.00875 1.00987 1.00176 0.997141
1.05946 1.06647 0.99699 0.996426
1.05016 1.05415 1 0.996212
1.05218 1.05751 0.998443 0.996508
1.0076 1.00837 1.00324 0.996005
1.0283 1.03261 1.00006 0.995774
1.00214 1 1.00353 0.998614
1.01191 1.00043 1.01361 0.997888
1.00484 1.00625 1.00207 0.99654
1.01465 1.01009 1.00726 0.997282
1.02032 1.02235 1.00107 0.996956
1.05119 1.06584 0.989292 0.996923
1.05143 1.05556 1 0.99609
1.05459 1.05965 0.998767 0.996462
1.0092 1.00894 1.00433 0.995947
1.01419 1.0187 1 0.995571
0.999548 1 1.00015 0.999398
0.99906 1 1.00033 0.998726
0.998721 1 1.00023 0.998495
0.999987 1 1.00123 0.998755
0.999787 1 1.00092 0.998867
1.00138 1 1.00287 0.998511
0.999686 1 1.00119 0.998503
1.002 1 1.00355 0.998454
0.99918 1 1.00026 0.998921
0.999592 1 1 0.999592
0.999596 1 1 0.999596
0.999993 1 1 0.999993
0.999557 1 1 0.999557
0.999986 1 1 0.999986
1 1 1 1
0.999976 1 1 0.999976
1 1 1 1
1 1 1 1
0.99997 1 1 0.99997
1.00025 1 1.00038 0.999868
1 1 1 1
1.00189 1 1.0022 0.999693
1 1 1 1
1 1 1 1
1.06737 1.07332 0.998099 0.996347
1.06797 1.07748 0.994581 0.996575
1.06054 1.07568 0.989011 0.996877
1.05959 1.0726 0.990943 0.996898
1.06618 1.07522 0.994947 0.996622
1.06403 1.06835 0.999725 0.996224
1.06658 1.07514 0.995437 0.996584
1.05897 1.07177 0.991218 0.996812
1.0607 1.07378 0.990899 0.996889
1.05963 1.07685 0.986972 0.996998
1.06031 1.07268 0.991776 0.996668
1.05962 1.07865 0.985222 0.997091
1.05939 1.07175 0.991645 0.996793
1.06058 1.07857 0.986285 0.996989
1.06183 1.08028 0.985796 0.997078
1.05423 1.07652 0.982132 0.997108
1.06679 1.07499 0.995777 0.996581
1.06778 1.07609 0.995784 0.996478
1.05627 1.06904 0.991207 0.996817
1.05576 1.06975 0.990071 0.996819
1.01603 1.01919 1.00027 0.996635
1.02873 1.03286 1 0.995997
1.04068 1.04469 1.00058 0.995582
1.05633 1.06467 0.995501 0.996648
1.05132 1.06781 0.987412 0.997108
1.04914 1.05967 0.993075 0.996968
1.04492 1.04911 1 0.996011
1.0523 1.05686 0.998777 0.996899
1.00391 1.00703 1.00032 0.996575
1.00604 1.00683 1.00266 0.996568
1.00816 1.00242 1.00871 0.997049
1.00416 1 1.00542 0.998747
1.01118 1.0001 1.01338 0.997727
1.05737 1.07065 0.990769 0.996804
1.0581 1.07277 0.989472 0.996816
1.05356 1.0733 0.984528 0.997029
1.01625 1.02004 1 0.996288
1.01829 1.02239 1.00026 0.995735
1.03266 1.03661 1.00076 0.995427
1.04847 1.06495 0.987445 0.997043
1.04728 1.0516 0.999733 0.996162
1.04815 1.0594 0.992245 0.997106
1.00092 1 1.00178 0.999142
1.00639 1.00795 1.00203 0.996427
1.00931 1.00536 1.00742 0.996532
1.0124 1.00678 1.00896 0.996655
1.01 1.00194 1.01069 0.997382
1.01024 1 1.01223 0.998037
1.05941 1.07673 0.987001 0.996876
1.05755 1.08084 0.981421 0.996975
1.04665 1.07184 0.979325 0.997113
1.04311 1.06649 0.980771 0.997252
1.01037 1.01403 1.00027 0.996114
1.04339 1.05035 0.99666 0.9967
1.00781 1.01087 1.00165 0.995336
1.02137 1.02513 1.00104 0.995292
0.999484 1 1 0.999484
1.00441 1 1.00593 0.998481
1.00885 1.00003 1.01114 0.99771
1.0107 1.00244 1.01143 0.996854
1.00656 1.00495 1.0053 0.996325
1.01378 1.00558 1.01196 0.996244
0.999994 1 1.00072 0.99927
1.00851 1 1.0102 0.998329
1.05847 1.06542 0.997051 0.996421
1.01256 1.00302 1.01197 0.997569
1.00855 1.01165 1.00027 0.996665
1.00803 1.00939 1.00152 0.997127
1.05199 1.05601 1 0.996199
1.05332 1.05854 0.998536 0.996531
1.0099 1.01122 1.00273 0.995973
1.02635 1.03046 1.00027 0.995742
1.00226 1 1.00364 0.998618
1.01209 1.00021 1.01404 0.997864
1.00525 1.00674 1.00198 0.996547
1.01435 1.0104 1.00664 0.997288
1.02239 1.02497 1.00048 0.997011
1.05355 1.06802 0.989447 0.99697
1.05092 1.055 1 0.996127
1.0555 1.06038 0.998855 0.996542
1.01003 1.00955 1.00458 0.995912
1.01376 1.01833 1.00003 0.995485
1.00318 1 1.00488 0.998312
1.01161 1.00193 1.01219 0.997506
1.01368 1.01341 1.00378 0.996495
1.01855 1.02014 1.00161 0.996838
1.05145 1.08704 0.969953 0.997216
1.05121 1.06155 0.993265 0.996978
1.03654 1.04101 1 0.99571
1.01667 1.0169 1.00426 0.995537
0.999531 1 1.00079 0.99874
0.998892 1 1.00039 0.998499
0.998687 1 1.00012 0.998567
1.00006 1 1.00119 0.998866
1.00267 1 1.00418 0.998492
0.999252 1 1.00034 0.998918
0.999568 1 1.00104 0.998525
1.00259 1 1.00414 0.998462
0.998668 1 1 0.998668
1.00228 1 1.00395 0.998336
1.00126 1 1.00285 0.998421
0.998897 1 1 0.998897
0.99955 1 1 0.99955
0.999589 1 1 0.999589
0.999998 1 1 0.999998
0.999597 1 1 0.999597
0.999995 1 1 0.999995
1 1 1 1
0.999989 1 1 0.999989
1 1 1 1
1 1 1 1
0.999995 1 1 0.999995
0.999955 1 1 0.999955
1 1 1 1
1.00073 1 1.00088 0.999844
1 1 1 1
1 1 1 1
1.05992 1.07209 0.991951 0.996671
1.06016 1.07325 0.990899 0.996874
1.05722 1.07706 0.9844 0.997128
1.05814 1.07619 0.986175 0.997009
1.05954 1.07191 0.991623 0.996805
1.06667 1.07501 0.995663 0.996565
1.05913 1.07162 0.991521 0.996794
1.06036 1.07821 0.98643 0.99698
1.06033 1.07942 0.985197 0.997075
1.05496 1.07709 0.982292 0.997118
1.06154 1.0785 0.987299 0.996935
1.06119 1.085 0.980866 0.997137
1.06192 1.08831 0.978511 0.997182
1.05744 1.07067 0.990817 0.996805
1.0586 1.0733 0.989465 0.996812
1.05399 1.07255 0.985626 0.997022
1.01881 1.02261 1 0.996286
1.01788 1.02203 1.00018 0.99577
1.03108 1.03495 1.00085 0.995415
1.04884 1.06498 0.98778 0.99703
1.04386 1.05606 0.991352 0.997072
1.0498 1.0544 0.999354 0.996284
1.00624 1.00672 1.00311 0.996422
1.00392 1.00213 1.00516 0.996642
1.01398 1.00801 1.0093 0.99665
1.0011 1 1.00191 0.999193
1.01055 1.00307 1.01008 0.997404
1.01088 1 1.0129 0.998002
1.06007 1.0771 0.987263 0.996884
1.05676 1.08059 0.980912 0.99698
1.04701 1.07175 0.979749 0.997105
1.00828 1.01213 1.00009 0.996107
1.00757 1.0108 1.0014 0.99541
1.02148 1.02529 1.0009 0.995391
1.04371 1.06632 0.981491 0.997254
1.03882 1.04671 0.995773 0.996676
0.999559 1 1 0.999559
1.00415 1 1.00568 0.998478
1.00344 1.0036 1.0035 0.996364
1.01645 1.00477 1.01526 0.996416
1.01134 1.00387 1.01057 0.996907
1.00881 1.00027 1.01091 0.997664
1.05935 1.08371 0.9804 0.997056
1.04724 1.08373 0.969174 0.997069
1.04335 1.07177 0.976128 0.997297
1.032 1.05163 0.984041 0.997248
1.00208 1.00488 1.00133 0.995882
1.02256 1.02583 1.00104 0.99577
1.0082 1.01044 1.00264 0.995154
0.999764 1 1 0.999764
0.999195 1 1 0.999195
0.999955 1 1.00109 0.99887
1.00393 1 1.00599 0.997956
1.00976 1 1.0125 0.997291
1.0164 1.00364 1.01616 0.996598
1.00401 1.00192 1.00555 0.996554
1.03968 1.00254 1.04039 0.996781
1.00174 1 1.00312 0.998622
1.01257 1 1.01476 0.997841
1.05609 1.0703 0.989681 0.997017
1.01603 1.01241 1.0063 0.997295
1.0057 1.00701 1.00215 0.996554
1.02403 1.027 1.00004 0.997067
1.05036 1.0544 1 0.996164
1.05636 1.06109 0.998915 0.996621
1.01053 1.00985 1.00482 0.995878
1.01314 1.01782 1 0.9954
1.00345 1 1.00519 0.998266
1.01015 1.00095 1.01173 0.997499
1.01733 1.01667 1.00415 0.996512
1.01831 1.02005 1.00142 0.99688
1.05289 1.08952 0.969065 0.997235
1.05412 1.06366 0.994092 0.996923
1.03472 1.03913 0.999993 0.995766
1.01869 1.01946 1.00377 0.995487
1.00375 1 1.00564 0.998119
1.06085 1.09607 0.970536 0.997243
1.00604 1.00199 1.00695 0.997118
1.01745 1.01853 1.00268 0.996275
1.03678 1.07245 0.969299 0.997359
1.03009 1.03522 0.999197 0.995853
1.01318 1.01472 1.00323 0.995263
0.999184 1 1.00068 0.998504
0.998383 0.999547 1.00028 0.998559
0.998998 0.999271 1.001 0.998726
0.999098 1 1.00018 0.998915
1.00253 1 1.00406 0.99847
0.999637 1 1.00109 0.998548
0.998893 1 1 0.998893
1.00143 1 1.003 0.998428
0.998824 1 1.00013 0.998699
1.00152 1 1.00318 0.998346
0.998815 1 1 0.998815
0.999195 1 1.00067 0.998526
1.00216 1 1.00398 0.998191
0.99904 1 1.00072 0.998325
0.998806 1 1 0.998806
0.999503 1 1 0.999503
0.999546 1 1 0.999546
0.999999 1 1 0.999999
0.999587 1 1 0.999587
0.999998 1 1 0.999998
1 1 1 1
0.999996 1 1 0.999996
1 1 1 1
1 1 1 1
0.999798 1 1 0.999798
1 1 1 1
0.99999 1 1 0.99999
1 1 1 1
0.999939 1 1 0.999939
1 1 1 1
1 1 1 1
1.0557 1.07764 0.982462 0.997129
1.05887 1.07857 0.984624 0.997072
1.06021 1.07786 0.986614 0.99697
1.05883 1.07144 0.991411 0.996794
1.06124 1.07859 0.986925 0.996954
1.06123 1.08468 0.981192 0.997128
1.05887 1.08531 0.978384 0.997188
1.06076 1.08523 0.980269 0.99712
1.07336 1.1009 0.977705 0.997221
1.07755 1.10684 0.975996 0.997485
1.06081 1.07754 0.987548 0.996893
1.05574 1.08033 0.980195 0.996984
1.04743 1.07167 0.980235 0.997097
1.00676 1.01065 1.00006 0.9961
1.00849 1.01179 1.00126 0.995487
1.02349 1.02733 1.00078 0.995489
1.04454 1.06589 0.982667 0.997256
1.03429 1.04268 0.995279 0.996654
1.00495 1.00369 1.00487 0.996404
1.0217 1.00501 1.02009 0.996584
1.01327 1.00532 1.01097 0.996961
0.999634 1 1 0.999634
1.00394 1 1.00547 0.998475
1.00886 1.00012 1.01115 0.997618
1.059 1.08403 0.979786 0.997066
0.999758 1 1 0.999758
0.999153 1 1 0.999153
1.04864 1.08274 0.971347 0.997071
1.04148 1.0701 0.975926 0.997267
1.00305 1.00518 1.00192 0.995964
1.00779 1.00934 1.00332 0.995163
1.02154 1.02594 0.999949 0.995756
1.03103 1.05153 0.983238 0.99722
1.00024 1 1.00128 0.99896
1.00425 1 1.00632 0.997945
1.00421 1.0019 1.00589 0.996442
1.03388 1.00237 1.03465 0.996895
1.0137 1.00247 1.01464 0.996616
1.00879 1 1.01152 0.997308
1.07028 1.10168 0.974261 0.997168
1.02936 1.08167 0.95431 0.997198
1.0282 1.06067 0.971873 0.997444
1.01436 1.0311 0.986794 0.996937
1.00542 1.0028 1.00649 0.996154
1.00832 1.00759 1.0055 0.99525
0.999097 1 1 0.999097
0.999172 1 1 0.999172
0.999044 1.00021 1 0.998838
0.999759 1 1.00155 0.998209
1.00917 1 1.01153 0.997664
1.0074 1.00036 1.01012 0.996943
1.05849 1.00014 1.06186 0.996684
0.995734 1.00049 0.997865 0.997373
1.00417 1 1.00596 0.998221
1.00813 1 1.01067 0.997491
1.05382 1.0911 0.968491 0.997254
1.05666 1.06541 0.994905 0.996868
1.0183 1.02027 1.00115 0.996921
1.0219 1.02095 1.00441 0.996528
1.03327 1.03757 1.00003 0.995821
1.02143 1.02269 1.00335 0.995436
1.00398 1 1.00589 0.998096
1.06368 1.09983 0.969737 0.99731
1.00619 1.00116 1.00787 0.997166
1.01511 1.01624 1.00269 0.996211
1.03705 1.07213 0.969864 0.997335
1.02846 1.03363 0.999053 0.995946
1.01437 1.01565 1.00348 0.995277
1.00782 0.99944 1.01056 0.997844
1.00977 1.05657 0.957881 0.997727
1.00459 1.00228 1.00546 0.996867
1.00542 1.00593 1.00379 0.995723
1.01712 1.03516 0.985654 0.99687
1.00282 1.00511 1.00221 0.995524
0.959771 1.00294 0.960113 0.996714
0.997741 0.998763 1.00043 0.99855
0.998911 0.998114 1.00207 0.99873
1.00078 0.999582 1.00254 0.998668
0.998889 1 1 0.998889
1.00233 1 1.0039 0.998435
1.00049 1 1.00213 0.998357
0.998941 1 1.00021 0.998732
0.998805 1 1 0.998805
0.999145 1 1.00082 0.998325
0.998781 1 1 0.998781
1.00199 1 1.00381 0.998192
0.99903 1 1.00053 0.998496
0.999887 1 1.00112 0.99877
0.9987 1 1.00068 0.998018
1.0025 1 1.00435 0.998155
0.998519 1 1.00033 0.998194
0.998639 1 1 0.998639
1.00047 1 1.00208 0.998387
0.999011 1 1.00041 0.998604
0.999482 1 1 0.999482
0.999499 1 1 0.999499
1 1 1 1
0.999542 1 1 0.999542
0.999999 1 1 0.999999
1 1 1 1
0.999998 1 1 0.999998
1 1 1 1
1 1 1 1
0.999838 1 1 0.999838
0.9998 1 1 0.9998
1 1 1 1
0.999999 1 1 0.999999
1 1 1 1
0.999985 1 1 0.999985
1 1 1 1
1 1 1 1
1.05593 1.08253 0.978174 0.997194
1.06108 1.08429 0.981422 0.997119
1.0609 1.07864 0.986539 0.996973
1.06055 1.08504 0.980253 0.997118
1.07014 1.09774 0.977582 0.997216
1.07624 1.10547 0.976096 0.997401
1.0779 1.11075 0.97307 0.997286
0.960492 1.01605 0.950403 0.994647
1.0265 1.06318 0.967247 0.9982
0.999277 1 1 0.999277
1.05871 1.08429 0.979271 0.997075
1.05013 1.08202 0.973379 0.997073
1.0393 1.06867 0.975211 0.997237
1.00003 1.00318 1.00082 0.996043
1.0062 1.00704 1.00402 0.995171
1.0195 1.02459 0.999289 0.995743
1.02973 1.0514 0.982145 0.997191
0.998798 1.00199 1.00048 0.996335
1.02797 1.00202 1.02897 0.997015
1.01027 1.00106 1.01261 0.996634
0.999753 1 1 0.999753
1.00916 1 1.01187 0.997325
1.00038 1 1.00133 0.999048
1.00449 1 1.00657 0.997933
0.999145 1 1.00003 0.999111
1.06708 1.10202 0.971038 0.997175
0.999151 1 1 0.999151
0.999352 1 1.00018 0.999173
0.998861 1.00057 0.999487 0.9988
1.03355 1.08218 0.957744 0.997196
1.02741 1.06012 0.971672 0.997395
1.00178 1.00217 1.00344 0.996188
1.01306 1.01233 1.00536 0.995391
1.01301 1.02881 0.987685 0.996918
0.999646 1 1.00137 0.998274
1.00855 1 1.01096 0.997611
1.00674 1.00031 1.00924 0.997212
1.04728 1.00058 1.05014 0.996697
1.00734 1.00061 1.00975 0.996999
1.0423 1.09123 0.957759 0.997284
1.00723 1.06788 0.945706 0.997359
1.01963 1.04101 0.982329 0.997078
0.994715 1.01361 0.984623 0.996688
1.00257 1 1.00561 0.996973
0.998671 1 1 0.998671
0.999257 1.00038 1.00031 0.998577
1.00059 1 1.00202 0.998576
1.01063 1 1.01265 0.997997
1.01081 1 1.01328 0.99756
1.04275 0.999932 1.04583 0.997123
1.03078 1.00179 1.03164 0.997381
1.00397 1 1.00591 0.99807
1.00565 1 1.00846 0.997215
1.06532 1.10391 0.967577 0.997376
1.03783 1.07258 0.970217 0.997309
1.02708 1.03239 0.998811 0.996038
1.0115 1.0127 1.00268 0.996147
1.01502 1.01616 1.0036 0.995292
1.008 0.999777 1.01034 0.997906
1.01102 1.05773 0.957971 0.997776
1.00159 1.00156 1.00317 0.996875
1.00421 1.00442 1.00408 0.995723
1.01513 1.03421 0.984501 0.997002
1.00358 1.00535 1.00273 0.995521
0.960831 1.00253 0.962682 0.995562
1.00793 0.999094 1.01108 0.997787
0.993314 1.02567 0.970661 0.997722
1.00095 1.00137 1.00295 0.996646
1.0043 1.0018 1.00644 0.99609
0.992179 1.00668 0.988797 0.996763
0.898898 0.973904 0.950832 0.970712
0.88764 0.961925 0.937067 0.984746
0.959114 0.980653 0.980995 0.996984
0.688468 0.818003 0.897409 0.937862
0.599487 0.763349 0.855643 0.917835
0.998953 0.997236 1.00299 0.998734
1.00155 0.998087 1.00475 0.998721
1.00269 1 1.00399 0.998703
0.998805 1 1 0.998805
0.999031 1 1.00071 0.998324
1.00123 1 1.00305 0.998193
0.998972 1 1.00051 0.998466
0.998747 1 1 0.998747
1.00329 1 1.00517 0.998136
0.998677 1 1 0.998677
0.998474 1 1.00026 0.998213
0.999453 1 1.00074 0.99871
0.999297 1 1.00122 0.998079
1.00407 1 1.00599 0.998101
1.00621 0.99999 1.00792 0.998313
1.00385 1 1.00577 0.998091
0.998979 1 1.00088 0.998095
0.998613 1 1.00001 0.998606
0.999307 1 1.0011 0.998212
1.00015 1 1.00187 0.998281
1.00013 1 1.00168 0.998453
1.00032 1 1.00197 0.998349
0.998935 1 1.0002 0.998731
0.999153 1 1.00055 0.998601
0.999476 1 1 0.999476
0.999482 1 1 0.999482
1 1 1 1
0.999496 1 1 0.999496
1 1 1 1
1 1 1 1
0.999999 1 1 0.999999
1 1 1 1
1 1 1 1
0.999887 1 1 0.999887
0.999835 1 1 0.999835
1 1 1 1
0.999802 1 1 0.999802
1 1 1 1
1 1 1 1
0.999998 1 1 0.999998
1 1 1 1
1 1 1 1
1.06687 1.09455 0.977437 0.99721
1.06046 1.08491 0.980288 0.997117
1.0751 1.10344 0.976929 0.997318
0.961907 1.0158 0.951954 0.994735
1.07537 1.10846 0.972791 0.997285
1.03615 1.06588 0.973986 0.998068
1.05579 1.08261 0.977756 0.997417
0.914592 0.976281 0.952141 0.983901
0.984601 1.01999 0.969545 0.995629
0.999315 1 1 0.999315
0.999271 1 1 0.999271
0.99878 1 1 0.99878
0.998903 1 1 0.998903
1.06428 1.1018 0.968672 0.997182
1.03771 1.08185 0.961903 0.997193
1.02735 1.05963 0.972114 0.997345
1.00053 1.00126 1.00306 0.996222
1.01781 1.01774 1.00455 0.995534
1.01184 1.02673 0.988564 0.996899
1.01848 1 1.0215 0.997047
1.03704 1.00105 1.03937 0.99671
1.00686 1.00037 1.00946 0.997055
0.999689 1 1.00051 0.999175
1.00647 1 1.00893 0.997559
0.999435 1 1.0011 0.998339
0.999205 1 1 0.999205
0.999057 1.00099 0.999304 0.998761
1.04124 1.09108 0.956902 0.997299
0.998696 1 1 0.998696
0.999082 1.0006 0.999825 0.998657
1.00003 0.999621 1.00162 0.998789
1.01416 1.07132 0.949166 0.997347
1.0203 1.04097 0.983015 0.997077
1.00115 1.00082 1.00338 0.996957
0.99758 1.01289 0.988085 0.996765
1.00884 1 1.01096 0.997904
1.01066 1 1.01328 0.99741
1.0362 1.00237 1.03649 0.997359
1.04237 1.00083 1.04462 0.997017
0.996179 1.05516 0.946484 0.997488
0.997404 1.04377 0.958117 0.997354
1.00854 1.01669 0.995232 0.996733
0.976653 1.00105 0.977778 0.9978
1.00369 1 1.00521 0.998493
1.00394 1 1.00575 0.998199
1.01798 0.999516 1.02034 0.998169
1.06322 1.00089 1.06506 0.997377
0.880441 0.968382 0.94078 0.966419
1.00891 1 1.01096 0.997968
0.999817 1.00091 1.00203 0.996881
1.01256 1.05875 0.958457 0.997829
1.01297 1.03283 0.983593 0.997132
1.00422 1.00543 1.0033 0.995514
1.00354 1.00336 1.00447 0.995721
0.96156 1.00338 0.963745 0.994374
1.00629 0.99874 1.00973 0.997844
0.992259 1.02644 0.968928 0.9977
1.00083 1.00148 1.00271 0.99666
1.00488 1.00271 1.00609 0.9961
0.995401 1.0078 0.990924 0.996748
0.892471 0.978469 0.94375 0.966474
0.882069 0.957559 0.938402 0.981631
0.963274 0.981312 0.984543 0.99703
0.682302 0.811579 0.894943 0.939399
0.586685 0.755237 0.851335 0.912474
1.00274 0.998715 1.00608 0.997958
0.713579 0.829597 0.912577 0.942552
0.633788 0.774063 0.891607 0.918321
0.986695 1.00567 0.983308 0.997791
1.009 1.00153 1.01018 0.997312
1.01431 1.00559 1.01149 0.997214
0.950803 0.969938 0.982813 0.997415
0.867239 0.95003 0.942315 0.968735
0.848222 0.927476 0.933606 0.979588
0.671032 0.802642 0.88551 0.944122
0.652578 0.822274 0.868154 0.914153
1.00211 0.996666 1.0067 0.998773
1.00192 0.998655 1.0046 0.998676
1.01114 1 1.01231 0.998837
0.998715 1 1 0.998715
0.998244 1 1.00001 0.998233
1.00395 1 1.00584 0.998117
1.00031 1 1.00218 0.998141
0.998651 1 1 0.998651
0.998634 1 1.00003 0.998607
1.00464 1 1.00657 0.998077
1.00414 1 1.00607 0.998087
0.998486 1 1.00035 0.998141
1.00686 0.999899 1.00862 0.998354
1.00689 1 1.00865 0.998252
1.02127 0.999972 1.02284 0.998498
1.00227 1 1.0043 0.997979
0.998996 1 1.00082 0.998174
0.998868 1 1.00066 0.998206
1.00061 1 1.0023 0.998308
1.00036 1 1.00228 0.998076
0.999596 1 1.00122 0.998375
1.00395 1 1.00554 0.998424
1.00809 1 1.00995 0.998158
1.0005 1 1.00208 0.998427
0.999754 1 1.0013 0.998456
0.999169 1 1.0004 0.998765
1.00009 1 1.00178 0.998311
0.99892 1 1.00022 0.998699
0.999455 1 1 0.999455
0.999274 1 1.00068 0.998598
0.999478 1 1 0.999478
0.999997 1 1 0.999997
0.999482 1 1 0.999482
1 1 1 1
1 1 1 1
1 1 1 1
1 1 1 1
1 1 1 1
0.999258 1 1 0.999258
0.9999 1 1 0.9999
0.999883 1 1 0.999883
1 1 1 1
0.999832 1 1 0.999832
1 1 1 1
1 1 1 1
1 1 1 1
1 1 1 1
1 1 1 1
0.964194 1.0154 0.954511 0.994827
1.07408 1.10702 0.972886 0.997284
1.04501 1.06967 0.978969 0.997933
0.904667 0.972115 0.944684 0.985109
0.984743 1.02024 0.969238 0.995841
1.0541 1.08587 0.9733 0.997372
0.992479 1.03149 0.965821 0.996233
0.920975 0.975191 0.957137 0.986698
0.896571 0.976519 0.948104 0.968386
0.689009 0.815657 0.894576 0.944279
0.557968 0.715822 0.850201 0.916817
0.998854 1 1 0.998854
0.999312 1 1 0.999312
0.999264 1 1 0.999264
0.998786 1 1 0.998786
0.998917 1 1.00032 0.998594
0.998558 1 1 0.998558
0.998733 1 1 0.998733
0.998857 1 1 0.998857
1.0403 1.09253 0.95476 0.997313
1.02112 1.07582 0.951691 0.997335
1.01975 1.04068 0.982761 0.997077
1.00119 1.00189 1.00237 0.996942
1.00034 1.0122 0.991416 0.996841
1.04485 1.00275 1.04477 0.997336
1.04298 1.00217 1.04394 0.996913
1.01082 1 1.01359 0.997262
0.998451 1.00077 0.99894 0.998738
1.00922 1 1.01144 0.997806
0.998722 1 1 0.998722
0.998576 0.999451 1.00012 0.999002
0.994278 1.05608 0.94382 0.997522
1.00285 0.999835 1.00454 0.998483
1.00559 1 1.0073 0.998295
0.994711 1.04161 0.957538 0.997328
1.00584 1.01752 0.991605 0.99689
0.980309 1.00133 0.981308 0.99766
1.02871 1.00035 1.03054 0.997869
1.05811 1.00224 1.05848 0.997421
0.971178 1.03011 0.945261 0.997387
0.991718 1.01394 0.980693 0.99734
0.973764 1.0017 0.974622 0.997427
0.978401 0.999685 0.980678 0.997993
1.00754 1 1.00959 0.997973
1.01706 1 1.01899 0.998104
1.05412 0.999937 1.05658 0.997736
0.7264 0.838974 0.916115 0.945099
0.896717 0.976507 0.944928 0.971809
1.00398 0.99876 1.00734 0.997902
1.00053 1.00132 1.00255 0.996675
0.992848 1.02743 0.968591 0.997679
0.998318 1.0092 0.992453 0.996734
1.00564 1.00383 1.00571 0.996115
0.893206 0.973747 0.946892 0.968735
0.885958 0.96663 0.933111 0.982245
0.964884 0.980459 0.987 0.997076
0.69301 0.813425 0.901562 0.944988
0.574979 0.748219 0.847327 0.906928
1.00271 0.999315 1.00545 0.997962
0.720237 0.838957 0.909908 0.943492
0.61418 0.756127 0.887731 0.914997
0.986701 1.00683 0.982184 0.997781
1.00875 1.00206 1.00938 0.997322
1.01227 1.00373 1.01117 0.997363
0.944641 0.963921 0.982315 0.997642
0.879125 0.963325 0.945242 0.965461
0.845124 0.923339 0.931887 0.982191
0.67938 0.802852 0.898301 0.94201
0.65392 0.830637 0.862253 0.913017
1.00457 0.999584 1.00645 0.998551
0.658941 0.786464 0.912401 0.918293
0.727382 0.863122 0.910016 0.926066
0.984501 0.991413 0.994379 0.998641
1.01564 1.00248 1.01459 0.998556
0.955483 0.956662 1.00176 0.997016
0.860922 0.914121 0.957428 0.98368
0.821773 0.907696 0.939669 0.963466
0.688163 0.796725 0.915821 0.943131
0.713427 0.885355 0.8777 0.918091
1.00222 0.998478 1.00511 0.99865
1.00897 1 1.0102 0.998788
1.00949 0.999024 1.01141 0.999074
0.998607 1 1 0.998607
0.998187 1 1 0.998187
1.00509 1 1.00702 0.998083
1.00572 1 1.00769 0.998052
1.00694 0.999716 1.00885 0.998395
0.998791 1 1.00062 0.998171
1.0055 1 1.0073 0.998207
1.00229 1 1.00432 0.997982
1.01983 0.999308 1.02201 0.998561
1.03808 0.997556 1.04157 0.999094
1.01245 1 1.01421 0.998258
1.0011 1 1.00316 0.997938
0.998594 1 1.00039 0.998201
1.00099 1 1.00266 0.998335
1.00089 1 1.00283 0.998066
1.00031 1 1.00196 0.998358
1.00189 1 1.00335 0.998537
1.00457 1 1.00627 0.998313
1.00682 1 1.00856 0.998281
1.00375 0.998829 1.00636 0.998576
0.999554 1 1.00131 0.998247
0.999831 1.00136 1.00093 0.997545
1.00628 1 1.00826 0.99803
1.00679 1 1.00865 0.99816
1.00729 1 1.00903 0.998271
1.00187 1 1.00345 0.998426
0.999188 1 1.00045 0.998736
0.999835 1 1.00138 0.998458
0.999239 1 1.00047 0.99877
0.999428 1 1 0.999428
0.998966 1 1.0003 0.998666
0.999458 1 1 0.999458
0.999987 1 1 0.999987
0.99948 1 1 0.99948
0.999995 1 1 0.999995
1 1 1 1
1 1 1 1
1 1 1 1
1 1 1 1
0.999255 1 1 0.999255
0.999868 1 1 0.999868
0.999261 1 1 0.999261
1 1 1 1
0.999901 1 1 0.999901
0.999878 1 1 0.999878
1 1 1 1
1 1 1 1
1 1 1 1
1 1 1 1
1 1 1 1
0.711663 0.830271 0.913062 0.938759
0.61986 0.766777 0.882368 0.916167
0.904 0.972265 0.943277 0.985699
0.986194 1.02026 0.970433 0.996065
1.05148 1.08707 0.96985 0.997328
0.9068 0.957984 0.958018 0.988051
0.993232 1.03116 0.966666 0.996433
0.908578 0.987697 0.949209 0.969118
0.680757 0.815876 0.888217 0.939397
0.565656 0.732705 0.847019 0.911446
0.931973 0.995102 0.944938 0.991134
0.888077 0.963888 0.950522 0.969308
0.675108 0.807253 0.886474 0.943404
0.646244 0.819327 0.862853 0.914118
1.00085 1 1.00246 0.998392
0.998895 1 1 0.998895
0.99931 1 1 0.99931
0.998792 1 1 0.998792
0.998944 1 1.00026 0.99868
0.999367 1 1.00109 0.998282
0.998534 1 1 0.998534
0.998548 1 1.00021 0.998342
0.998685 1 1 0.998685
0.99881 1 1 0.99881
0.991596 1.0557 0.941578 0.997555
0.99164 1.03894 0.957051 0.997304
1.00496 1.01894 0.989201 0.997047
0.982779 1.00177 0.983479 0.997519
1.04899 1.00353 1.04796 0.997463
1.0399 1.001 1.04138 0.997572
1.00587 1 1.00749 0.998393
1.0022 0.999545 1.00419 0.998471
0.971043 1.03057 0.94461 0.997491
1.00909 1 1.01119 0.997923
1.01694 1 1.01891 0.998059
0.98551 1.01171 0.976762 0.99728
0.971985 1.00167 0.972763 0.997533
0.978197 1.00054 0.979687 0.997938
1.0471 0.9998 1.04975 0.997673
0.965316 1.0031 0.964635 0.997617
0.963217 0.998106 0.966719 0.998268
1.01272 0.998758 1.01584 0.998168
1.01001 1 1.01219 0.997848
1.01418 1 1.01641 0.997807
1.029 1 1.03122 0.997855
0.687928 0.801601 0.923477 0.929306
0.728879 0.837396 0.920518 0.945567
0.885098 0.973747 0.940387 0.966582
1.00189 0.998731 1.00521 0.997963
1.00854 1.00229 1.00893 0.997328
0.988705 1.00811 0.982947 0.997771
1.01068 1.00238 1.01079 0.997507
0.721613 0.83428 0.914059 0.946277
0.874387 0.959466 0.942947 0.966467
0.843691 0.919816 0.936248 0.979696
0.943908 0.960376 0.984966 0.997855
0.676379 0.807817 0.893088 0.937526
0.610438 0.753284 0.88411 0.916593
0.654468 0.828901 0.860531 0.917528
1.00456 0.999303 1.00675 0.998523
0.66111 0.786982 0.910876 0.922252
0.741555 0.877064 0.913345 0.925715
0.983519 0.989214 0.995493 0.998744
1.01569 1.00173 1.01545 0.998506
0.952564 0.954675 1.00013 0.99766
0.85105 0.919219 0.943665 0.981112
0.852913 0.923074 0.954841 0.967692
0.699717 0.811306 0.918982 0.938492
0.70591 0.877407 0.873018 0.921563
1.00785 0.997936 1.01051 0.999431
0.764656 0.884375 0.926075 0.933649
0.738061 0.88056 0.901424 0.929831
0.978961 0.962727 1.01715 0.999715
0.893069 0.917245 0.984792 0.988678
0.851608 0.900466 0.979092 0.965937
0.770653 0.874485 0.942018 0.935509
0.753429 0.923686 0.884349 0.922347
1.00813 1 1.00941 0.998738
1.01143 0.998549 1.01385 0.99906
1.02601 0.991592 1.03538 0.999354
0.998982 1 1.00081 0.998168
1.00235 1 1.00438 0.997986
1.00343 1 1.00528 0.998162
1.01894 0.998912 1.02146 0.998624
1.00176 1 1.00383 0.997938
1.01174 0.999974 1.01354 0.998248
1.04344 0.998659 1.04571 0.999173
1.04397 0.992873 1.05205 0.999446
1.04178 0.998759 1.04405 0.999068
1.00628 1 1.00813 0.998162
1.00105 1 1.003 0.998055
1.00067 1 1.00234 0.998341
0.999696 1 1.00105 0.998648
1.00622 1 1.00793 0.998304
1.00325 1 1.00494 0.998312
1.00585 0.999385 1.00787 0.998604
1.00328 0.999509 1.00542 0.998367
1.01239 0.997728 1.01575 0.998962
0.996673 1.00093 0.997339 0.998406
0.999996 1.00058 1.00117 0.998256
0.99859 1.0001 1.00069 0.997793
1.00398 1.00592 1.00153 0.996548
1.00385 1.00095 1.00502 0.99788
0.999289 1.00064 1.00079 0.997861
1.00637 1 1.00835 0.998033
1.01249 1 1.01444 0.99808
1.00498 1 1.00684 0.998162
1.00655 1 1.00829 0.998271
0.999916 1 1.00131 0.998604
1.00248 1 1.00406 0.998425
0.998914 1 1.00018 0.998733
0.999452 1 1.00006 0.99939
0.999039 1 1.00026 0.998775
0.999428 1 1 0.999428
0.99997 1 1 0.99997
0.999461 1 1 0.999461
0.999982 1 1 0.999982
1 1 1 1
0.999993 1 1 0.999993
1 1 1 1
1 1 1 1
0.998964 1 1 0.998964
0.99981 1 1 0.99981
0.999171 1 1 0.999171
1 1 1 1
0.999874 1 1 0.999874
0.999262 1 1 0.999262
1 1 1 1
1 1 1 1
0.999901 1 1 0.999901
1 1 1 1
1 1 1 1
1 1 1 1
0.648322 0.781251 0.900642 0.921399
0.718823 0.836996 0.911633 0.942061
0.73454 0.875206 0.90725 0.925077
0.616784 0.765574 0.880786 0.914694
0.906054 0.965986 0.951881 0.985372
0.99372 1.03168 0.966448 0.996646
0.910186 0.98553 0.952577 0.969527
0.695768 0.818765 0.899885 0.944319
0.575708 0.752681 0.844251 0.905983
0.933929 0.989514 0.953219 0.990145
0.875861 0.960427 0.946601 0.963394
0.68819 0.814318 0.897776 0.94134
0.639095 0.815068 0.860762 0.910937
0.898407 0.967884 0.940556 0.986881
0.83093 0.905867 0.952899 0.962617
0.722514 0.843571 0.915472 0.935578
0.708704 0.881623 0.878284 0.915265
1.00305 1 1.00503 0.998032
0.99997 1 1.00153 0.998445
0.998935 1 1 0.998935
0.998767 1 1 0.998767
0.998515 1 1.00064 0.99788
0.998689 1 1.00035 0.998339
0.99851 1 1 0.99851
0.998316 1 1 0.998316
0.998472 1 1.00009 0.998383
0.998638 1 1 0.998638
0.971404 1.03164 0.943886 0.997593
0.981291 1.00975 0.974522 0.997225
0.96811 1.00129 0.969154 0.997637
0.979627 1.00174 0.979999 0.997886
1.03859 1 1.04108 0.997608
1.01673 1 1.01875 0.998015
1.01 1 1.01215 0.997873
1.00961 1 1.01185 0.997794
0.964345 1.00332 0.963399 0.997673
1.01289 1 1.01514 0.99778
1.02908 1 1.03132 0.99783
0.962594 0.998787 0.965432 0.998271
1.00719 1.00029 1.00879 0.998125
0.947073 0.976715 0.971631 0.997963
0.968685 0.97579 0.993479 0.999235
1.04315 0.998635 1.04628 0.998378
1.0054 1 1.00757 0.997846
1.02436 1 1.0264 0.998007
0.777667 0.894905 0.926262 0.938173
0.68546 0.80014 0.923021 0.928121
0.720286 0.8336 0.918125 0.941121
1.0038 0.999116 1.0062 0.998497
1.01614 1.00068 1.01702 0.998456
0.979193 0.986744 0.993491 0.998849
0.658847 0.785312 0.909141 0.922807
0.834556 0.910473 0.951782 0.963054
0.855914 0.916058 0.950836 0.982657
0.941992 0.948648 0.994655 0.99832
0.709687 0.823069 0.913813 0.943569
0.749643 0.883766 0.916462 0.925556
0.708132 0.877691 0.875152 0.921912
1.00611 0.998097 1.00865 0.999376
0.763705 0.884785 0.922698 0.935466
0.736886 0.878778 0.901637 0.930013
0.980595 0.966665 1.01489 0.999526
0.906661 0.929562 0.986675 0.988536
0.820636 0.893503 0.955427 0.961296
0.750291 0.921397 0.88276 0.922444
0.787916 0.880924 0.953762 0.937781
0.998631 0.970878 1.02888 0.999711
0.750467 0.873294 0.913464 0.940763
0.772289 0.911938 0.907796 0.932881
0.70645 0.879767 0.877103 0.915511
0.945463 0.935645 1.01351 0.99702
0.896108 0.924734 1.00168 0.967417
0.842531 0.931175 0.961688 0.940849
1.01374 0.997997 1.01674 0.999045
1.02676 0.993678 1.03405 0.99927
1.0311 0.982725 1.04968 0.999566
1.00198 1 1.00405 0.997939
1.00972 0.999877 1.01163 0.998237
1.04789 0.99895 1.04978 0.999251
1.00656 1 1.0084 0.998168
1.04193 0.99882 1.04412 0.999079
1.04746 0.992952 1.0555 0.999421
1.038 0.987557 1.05162 0.999489
1.0265 0.997483 1.03007 0.999058
1.00525 1 1.00694 0.998329
1.00258 1 1.00428 0.998311
1.00825 0.999863 1.00977 0.998634
1.01176 0.998403 1.01446 0.998933
1.00324 0.999736 1.00514 0.998374
1.00324 0.999578 1.00484 0.998828
0.997282 1.00001 0.998558 0.998718
1.00334 0.999994 1.00608 0.997291
1.00032 1.00114 1.00091 0.998272
0.999735 1.00147 1.00059 0.997684
1.0006 1.0026 1.00179 0.996218
1.01585 1.01854 1.00129 0.996075
1.00456 1.00433 1.00276 0.997472
1.00212 1.00413 1.00138 0.996614
1.0114 1 1.01359 0.997832
1.00512 1.00163 1.0056 0.997893
0.998801 1 1.00063 0.998174
1.00676 1 1.00874 0.998035
1.01139 1 1.0133 0.998114
1.00455 1 1.00613 0.998431
1.00616 1 1.00791 0.99827
1.00019 1 1.00159 0.998604
0.999318 1 1.00002 0.999299
0.998845 1 1.00012 0.998729
0.999397 1 1.00001 0.999387
0.999956 1 1 0.999956
0.999429 1 1 0.999429
0.999966 1 1 0.999966
1 1 1 1
0.999977 1 1 0.999977
1 1 1 1
1 1 1 1
0.998672 1 1 0.998672
0.999577 1 1 0.999577
0.998962 1 1 0.998962
1 1 1 1
0.999751 1 1 0.999751
0.999088 1 1 0.999088
1 1 1 1
1 1 1 1
0.999879 1 1 0.999879
1 1 1 1
1 1 1 1
1 1 1 1
0.767071 0.895 0.917725 0.933899
0.653045 0.781994 0.902579 0.925239
0.710561 0.83123 0.908135 0.941304
0.998202 1 1 0.998202
0.743406 0.878041 0.907433 0.933033
0.733713 0.874948 0.906663 0.924906
0.626815 0.777792 0.877393 0.918505
0.94343 0.993288 0.960424 0.988944
0.868875 0.948751 0.945534 0.968564
0.690927 0.828854 0.889999 0.936622
0.630561 0.79836 0.864533 0.913581
0.895941 0.963389 0.945459 0.983638
0.848193 0.916955 0.956348 0.967233
0.717779 0.829856 0.923782 0.936307
0.706782 0.878581 0.877836 0.916412
0.842149 0.912705 0.941616 0.979907
0.828929 0.889885 0.96626 0.964027
0.799276 0.888916 0.958003 0.938575
0.753809 0.921798 0.886639 0.922314
1.00145 1 1.00361 0.997847
1.00407 1 1.0061 0.997989
0.99938 1 1.00088 0.998498
0.998244 1 1.00022 0.99802
0.998732 1 1.00077 0.997959
0.998401 1 1.00001 0.998394
0.998331 1 1.00001 0.998318
0.998474 1 1.00005 0.998424
0.963655 1.00394 0.962071 0.997712
0.962857 1.00082 0.963721 0.998282
1.00939 1 1.01168 0.99774
1.00125 1.00161 1.00156 0.998081
1.0303 1 1.03256 0.997806
1.01268 1 1.01496 0.997753
1.00663 1 1.00879 0.997852
0.949086 0.975449 0.974822 0.998104
1.02181 1 1.02384 0.998018
1.03248 0.999618 1.03451 0.998423
0.968434 0.97925 0.989663 0.999283
1.00762 1 1.00957 0.998068
0.934644 0.951546 0.984603 0.997597
0.999383 0.976381 1.02409 0.999477
1.05986 0.996789 1.06483 0.998536
1.02909 0.998889 1.03208 0.998212
0.756921 0.873859 0.91716 0.944417
0.777413 0.895198 0.926084 0.93774
0.684379 0.798077 0.92516 0.926905
1.00339 0.998193 1.00589 0.999322
0.983743 0.970148 1.01468 0.99934
0.765856 0.888122 0.920096 0.937221
0.84351 0.889359 0.980882 0.966933
0.895757 0.928332 0.979781 0.984823
0.7808 0.874213 0.954175 0.936041
0.737879 0.879824 0.901647 0.93015
0.749018 0.920898 0.881647 0.922541
1.00421 0.979452 1.02562 0.999669
0.751984 0.875025 0.913516 0.940745
0.773919 0.910166 0.909291 0.935129
0.957962 0.943969 1.01569 0.999149
0.704523 0.876854 0.876616 0.916555
0.865618 0.904404 0.992535 0.964313
0.842442 0.930302 0.962948 0.940401
0.995815 0.965894 1.03128 0.999707
0.78263 0.902459 0.918516 0.944152
0.741168 0.874133 0.90832 0.933469
0.643301 0.817234 0.860949 0.914304
0.796781 0.88754 0.957131 0.937949
0.937652 0.938445 1.00615 0.993051
0.902227 0.922846 1.01865 0.959758
1.02559 0.996028 1.03051 0.999188
1.03048 0.980462 1.05151 0.999534
1.01836 0.966212 1.05441 0.999582
1.00806 1 1.00991 0.998173
1.04575 0.998645 1.04812 0.999091
1.05479 0.993796 1.06202 0.999396
1.02246 0.997866 1.02563 0.999045
1.03603 0.989508 1.04755 0.999488
1.00833 0.985862 1.02357 0.999235
1.0117 0.999129 1.0137 0.998903
1.00326 0.999855 1.00503 0.998382
1.00665 0.999746 1.00812 0.998804
1.01287 0.998611 1.01623 0.998078
0.998177 0.999148 1 0.999028
1.00018 1.00013 1.00254 0.997513
1.00502 1.00169 1.00764 0.995707
1.00546 1.00761 1.00247 0.995408
1.00085 1.00289 1.0004 0.997568
1.00096 1.00329 1.00168 0.996003
1.01803 1.02143 1.00053 0.996144
1.01217 1.01279 1.00261 0.996785
1.01452 1.01713 1.00125 0.996182
1.00817 1.00093 1.00962 0.997633
1.00724 1.00646 1.00335 0.997436
0.999658 1.0017 1.00128 0.996683
1.01129 1 1.0131 0.998212
1.01069 1 1.01285 0.99786
1.00644 1.00231 1.00623 0.997906
1.01017 1 1.01205 0.998148
1.00456 1 1.00614 0.998432
1.00005 1 1.00092 0.99913
1.00041 1 1.00181 0.998605
0.999515 1 1.00022 0.999294
0.999944 1 1 0.999944
0.999384 1 1 0.999384
0.999954 1 1 0.999954
1 1 1 1
0.999962 1 1 0.999962
1 1 1 1
1 1 1 1
0.998583 1 1 0.998583
0.99939 1 1 0.99939
0.998727 1 1 0.998727
0.999999 1 1 0.999999
0.999557 1 1 0.999557
0.998959 1 1 0.998959
1 1 1 1
1 1 1 1
0.999693 1 1 0.999693
1 1 1 1
1 1 1 1
1 1 1 1
0.757598 0.877059 0.916189 0.942811
0.768829 0.89391 0.920937 0.933912
0.654094 0.781072 0.904958 0.925382
0.998243 1 1 0.998243
0.999251 1 1.0011 0.998152
0.998168 1 1 0.998168
0.773992 0.914502 0.907611 0.932506
0.740467 0.877921 0.903803 0.933204
0.731804 0.874476 0.904934 0.924762
0.902832 0.970913 0.94334 0.985731
0.817479 0.903276 0.940251 0.962526
0.71776 0.817911 0.930519 0.943079
0.713562 0.885767 0.881092 0.914304
0.846061 0.918682 0.936982 0.982891
0.844651 0.898727 0.974909 0.964018
0.784683 0.874009 0.95579 0.939326
0.750797 0.921299 0.883577 0.922312
0.85828 0.912159 0.959823 0.980319
0.870657 0.908056 0.993174 0.965404
0.84228 0.92822 0.964051 0.941251
0.717994 0.888795 0.879777 0.918219
0.998663 1 1.00064 0.998021
1.00174 1 1.00394 0.997806
1.00374 1 1.00581 0.997946
0.998117 1 1.00011 0.998006
0.998503 1 1.00047 0.998038
0.998321 1 1 0.998321
0.946735 0.969713 0.978021 0.998245
0.966996 0.978887 0.988536 0.999309
1.00737 1 1.00954 0.997859
1.02438 1.0004 1.02554 0.998466
1.02127 1 1.02329 0.998029
1.00939 0.999979 1.01135 0.998084
1.02315 0.996063 1.029 0.99825
0.941367 0.95082 0.992344 0.997695
1.05501 0.995028 1.06169 0.998678
1.00294 0.970596 1.03403 0.999314
1.01449 0.994374 1.02185 0.998418
0.967175 0.950792 1.01998 0.997302
1.01321 0.971453 1.04377 0.999248
1.03479 0.976424 1.06106 0.998792
0.797465 0.910499 0.925433 0.946428
0.760398 0.875485 0.919234 0.944857
0.776575 0.895406 0.925294 0.937312
1.01022 0.987861 1.02302 0.999627
0.947145 0.941966 1.00796 0.997559
0.752616 0.875458 0.913847 0.940728
0.86281 0.891996 0.998721 0.968519
0.839097 0.931459 0.961571 0.936843
0.775104 0.909458 0.909212 0.937372
0.713468 0.884549 0.881911 0.914592
0.990958 0.961827 1.03053 0.999761
0.782238 0.900392 0.919324 0.945015
0.743552 0.879109 0.905905 0.933654
0.933149 0.934475 1.00989 0.988805
0.635993 0.811536 0.859975 0.911295
0.78246 0.87301 0.95517 0.938345
0.906818 0.926884 1.01272 0.966067
1.00588 0.953148 1.05702 0.998399
0.758405 0.875283 0.918788 0.943056
0.745205 0.882572 0.912191 0.925635
0.558337 0.713548 0.852764 0.917581
0.711258 0.833162 0.912669 0.935373
0.875979 0.907729 1.00039 0.964642
0.908506 0.926404 0.995096 0.985513
1.02711 0.979276 1.04937 0.999501
1.02511 0.976151 1.05059 0.999584
1.01 0.977997 1.03325 0.999483
1.01633 0.998328 1.01902 0.999032
1.03147 0.991222 1.04114 0.999487
1.01185 0.982091 1.031 0.999319
1.00643 0.996418 1.0113 0.998768
1.01022 1 1.01145 0.99878
1.01002 0.999304 1.01292 0.997826
1.02266 1.00095 1.02569 0.996094
0.996645 1.00005 0.998855 0.997738
1.00614 1.00164 1.00877 0.995756
1.006 1.0026 1.00859 0.994841
1.00881 1.01193 1.00191 0.995019
1.01073 1.01392 1.00108 0.995782
1.00548 1.00745 1.00271 0.99535
1.00116 1.00387 1.00152 0.99579
1.01414 1.01661 1.0011 0.996476
1.01918 1.02254 1.00048 0.996236
1.006 1.00423 1.00464 0.997141
1.01457 1.01498 1.00274 0.996868
1.01434 1.01693 1.00117 0.996291
1.01237 1 1.01451 0.997891
1.00887 1.00202 1.00923 0.997627
1.01015 1.00892 1.00383 0.997398
1.0032 1 1.00428 0.998927
1.00985 1 1.01166 0.998211
1.00998 1 1.01212 0.997888
1.00442 1 1.006 0.998433
1.00046 1 1.00134 0.999126
0.999906 1 1 0.999906
0.999611 1 1.00032 0.999288
0.999937 1 1 0.999937
1 1 1 1
0.999951 1 1 0.999951
1 1 1 1
1 1 1 1
0.998524 1 1 0.998524
0.999353 1 1 0.999353
0.998612 1 1 0.998612
0.99999 1 1 0.99999
0.999438 1 1 0.999438
0.998782 1 1 0.998782
1 1 1 1
1 1 1 1
0.999537 1 1 0.999537
1 1 1 1
1 1 1 1
1 1 1 1
0.780725 0.901407 0.917696 0.943796
0.761877 0.878128 0.920249 0.942805
0.771049 0.892668 0.924827 0.933966
1.00874 1 1.01074 0.99802
1.00328 1 1.00535 0.997937
0.998285 1 1 0.998285
0.999858 1 1.00173 0.998134
0.998176 1 1 0.998176
1.001 1 1.00287 0.99814
0.998227 1 1 0.998227
0.742064 0.886149 0.900709 0.929715
0.777285 0.913043 0.910699 0.93479
0.741991 0.875956 0.907522 0.933381
0.749182 0.921322 0.88164 0.922327
0.847266 0.921012 0.93845 0.980265
0.846069 0.895133 0.980686 0.963802
0.793937 0.888593 0.948373 0.942115
0.842794 0.912927 0.942699 0.979293
0.872674 0.902733 1.00644 0.96052
0.840477 0.927944 0.962401 0.941126
0.708195 0.880055 0.873105 0.921672
0.889011 0.924551 0.97884 0.982346
0.887174 0.912489 1.01244 0.960309
0.774826 0.877428 0.943442 0.936003
0.654781 0.826095 0.86718 0.914022
1.02795 0.999755 1.02987 0.99838
1.00036 1 1.00231 0.998049
1.00261 1 1.00486 0.997765
0.997993 1 1 0.997993
0.951825 0.953799 1.00011 0.997824
1.00469 0.968228 1.03855 0.999143
1.00902 0.999877 1.01106 0.998101
1.01738 0.995378 1.02385 0.998288
1.04371 0.989526 1.056 0.998821
1.01502 0.997856 1.01881 0.99842
1.03817 0.976295 1.06468 0.998779
0.966853 0.950338 1.02178 0.995688
1.01248 0.962896 1.05212 0.999406
1.01207 0.980545 1.03328 0.998906
0.952243 0.925614 1.03398 0.994963
1.00148 0.951588 1.05319 0.999279
0.759352 0.873559 0.920195 0.94465
0.79472 0.908181 0.922954 0.948116
0.764756 0.877232 0.922238 0.945291
0.98625 0.955861 1.03199 0.999805
0.938922 0.938296 1.00723 0.993481
0.780096 0.89773 0.918674 0.945891
0.91002 0.931941 1.01653 0.960603
0.785683 0.88218 0.946213 0.941242
0.747904 0.881571 0.908502 0.933819
0.629116 0.795295 0.865597 0.913875
1.00647 0.955111 1.05522 0.998625
0.761702 0.880038 0.917796 0.943056
0.738303 0.876269 0.9104 0.925476
0.910572 0.92671 0.994317 0.988202
0.567119 0.732503 0.848667 0.912277
0.70631 0.81977 0.920739 0.935764
0.872202 0.904407 1.00357 0.960962
0.992592 0.958415 1.03932 0.99648
0.770049 0.89867 0.917219 0.934212
0.619301 0.763725 0.884309 0.916981
0.678104 0.810035 0.886647 0.944152
0.82162 0.874894 0.972769 0.965397
0.865186 0.901834 0.977848 0.981096
1.03332 0.981201 1.05355 0.99959
1.013 0.97506 1.03944 0.99949
0.979594 0.973684 1.00682 0.999258
1.01632 0.978474 1.0393 0.999402
1.0033 0.987664 1.01697 0.998876
1.0039 1.0008 1.00546 0.997647
1.00704 1.00003 1.00946 0.997575
1.02127 1.00098 1.02442 0.995945
1.01056 1.00109 1.01449 0.995036
1.0077 1.00186 1.01007 0.995804
1.00668 1.00239 1.00958 0.994748
1.0018 1.00275 1.00448 0.994597
1.03405 1.03897 1 0.995269
1.0196 1.02358 1.00077 0.995351
1.00915 1.01205 1.00218 0.994961
1.01149 1.01534 1.00013 0.996087
1.00911 1.01257 1.00074 0.995846
1.00553 1.00722 1.00304 0.995291
1.01196 1.01433 1.00112 0.996549
1.01355 1.01607 1.00108 0.996446
1.0198 1.02312 1.00043 0.996327
1.00673 1.00117 1.00811 0.997466
1.007 1.00515 1.00463 0.997231
1.01608 1.01626 1.00288 0.996952
1.00875 1 1.01015 0.998614
1.01132 1.00014 1.0133 0.997899
1.00961 1.00326 1.00873 0.99762
0.999864 1 1.00003 0.999837
1.00387 1 1.00496 0.998921
1.0087 1 1.01051 0.998209
1.00102 1 1.0019 0.999122
0.999894 1 1 0.999894
1 1 1 1
0.99993 1 1 0.99993
1 1 1 1
1 1 1 1
1.00888 1 1.01088 0.998022
1.00243 1 1.0041 0.998331
0.99919 1 1 0.99919
0.998907 1 1.00039 0.998519
0.999967 1 1 0.999967
0.999355 1 1 0.999355
0.998642 1 1 0.998642
1 1 1 1
0.999993 1 1 0.999993
0.999484 1 1 0.999484
1 1 1 1
1 1 1 1
1 1 1 1
0.752318 0.874717 0.914259 0.940729
0.777379 0.897862 0.916511 0.944682
0.762388 0.881354 0.917508 0.942791
1.01039 1 1.01238 0.99803
1.00568 1.00023 1.00751 0.997952
1.00033 1.00003 1.00243 0.997872
1.01093 1 1.013 0.99796
1.00827 1.0006 1.00975 0.997932
1.00152 1 1.00341 0.998115
0.998185 1 1 0.998185
1.00059 1 1.00245 0.998143
0.998248 1 1 0.998248
1.01686 1 1.01859 0.998304
0.728734 0.866379 0.908522 0.925817
0.740952 0.882823 0.902527 0.929943
0.778036 0.912706 0.909706 0.93706
0.709034 0.880656 0.87321 0.922022
0.839519 0.929336 0.963787 0.937295
0.838151 0.908149 0.943921 0.977754
0.877532 0.905185 1.00473 0.96489
0.878509 0.924793 0.970548 0.978779
0.893218 0.923313 1.00239 0.965097
0.790863 0.880569 0.956636 0.938839
0.656536 0.834622 0.861775 0.912798
0.894656 0.914533 0.996808 0.981397
0.879108 0.901766 1.00939 0.965805
0.695887 0.801881 0.920432 0.942838
0.599681 0.763132 0.856758 0.917197
1.02567 0.999756 1.027 0.998946
1.02819 0.999438 1.03043 0.998392
1.00307 1 1.005 0.998078
0.966823 0.949751 1.02412 0.993995
1.0136 0.95675 1.05988 0.999566
1.01614 0.999795 1.01796 0.998422
1.04437 0.975736 1.07166 0.998767
1.01543 0.984908 1.03212 0.998912
1.0079 0.95989 1.05078 0.999275
0.954325 0.931608 1.02962 0.994911
1.01272 0.987742 1.02596 0.999345
0.965342 0.950527 1.01986 0.995805
0.778881 0.896136 0.926922 0.937679
0.765646 0.877974 0.922738 0.94508
0.791212 0.905458 0.919989 0.949821
1.00802 0.963351 1.04761 0.998811
0.905652 0.924309 0.996201 0.983552
0.76782 0.885076 0.919908 0.943048
0.875115 0.908026 1.00164 0.96218
0.704353 0.805882 0.927461 0.942373
0.729182 0.87064 0.905069 0.925371
0.575661 0.751189 0.845035 0.906866
0.990008 0.957322 1.03751 0.99676
0.769412 0.893787 0.921478 0.9342
0.617532 0.764417 0.882374 0.915537
0.877602 0.914333 0.976696 0.982728
0.689061 0.815453 0.897116 0.941912
0.821726 0.886732 0.96281 0.962484
0.944188 0.943476 1.00601 0.994778
0.650015 0.782346 0.901141 0.922002
0.690908 0.816366 0.8956 0.944977
0.829228 0.907355 0.949275 0.962731
0.84209 0.903179 0.947865 0.983645
1.01338 0.973279 1.04173 0.999498
0.982898 0.969549 1.01455 0.999232
0.99271 0.988813 1.00554 0.998413
1.00005 0.977315 1.02431 0.998979
1.00289 1.0001 1.00505 0.997742
0.99839 1.00268 0.999119 0.9966
1.01983 1.00076 1.02337 0.995793
1.00945 1.00147 1.01299 0.995036
0.999688 1.00293 1.00137 0.995404
1.00683 1.00206 1.01017 0.994655
1.00212 1.00381 1.0037 0.994635
1.03018 1.03482 1 0.995514
1.06015 1.06464 0.999792 0.995988
1.04534 1.05019 1.00002 0.995368
1.0343 1.03918 1 0.995301
1.0245 1.02899 1 0.995644
1.01842 1.02214 1.00107 0.995293
1.01023 1.01294 1.00244 0.994902
1.01781 1.02167 1 0.996226
1.00998 1.01385 1.00002 0.99616
1.00726 1.01107 1.00032 0.99591
1.00414 1.00509 1.00208 0.996978
1.00901 1.01114 1.0013 0.996598
1.01365 1.01619 1.0011 0.996417
1.01053 1.0002 1.01223 0.998131
1.00856 1.00224 1.00886 0.997467
1.00802 1.0059 1.0048 0.99732
1.00111 1 1.00137 0.999737
1.00816 1 1.00957 0.998608
1.01064 1.00033 1.01242 0.997907
0.999973 1 1 0.999973
1.00019 1 1.00037 0.999823
1.00437 1 1.00546 0.998916
0.999882 1 1 0.999882
1 1 1 1
1 1 1 1
1.00749 1.00102 1.00862 0.997865
1.00734 1 1.00922 0.998142
1.01017 1 1.0122 0.997998
1.00014 1 1.00114 0.99901
1.00188 1 1.00356 0.998327
0.999932 1 1 0.999932
0.999248 1 1.00005 0.999195
0.998787 1 1.00027 0.998514
1 1 1 1
0.999975 1 1 0.999975
0.999358 1 1 0.999358
1 1 1 1
0.999997 1 1 0.999997
1 1 1 1
0.762896 0.886477 0.917686 0.937785
0.756184 0.877972 0.915556 0.940723
0.778191 0.893731 0.920848 0.945565
0.999826 1.00162 1.00039 0.997815
1.00872 1 1.0107 0.99804
1.00384 1 1.00588 0.99797
1.00616 1 1.00824 0.997932
1.0005 1.00019 1.00241 0.997901
1.00443 1 1.00635 0.998093
1.01313 1.00041 1.01533 0.997416
1.01795 1 1.01989 0.998092
1.00074 1 1.00259 0.998147
0.998268 1 1 0.998268
1.01821 0.999967 1.01999 0.998287
1.03391 1.00094 1.03448 0.998501
0.633788 0.773491 0.892713 0.917859
0.741882 0.879559 0.911387 0.92548
0.741682 0.882052 0.904034 0.930119
0.656591 0.832706 0.859652 0.917235
0.786277 0.877992 0.955144 0.937596
0.88935 0.914906 1.01215 0.960397
0.87954 0.920103 0.975916 0.979506
0.894849 0.916149 0.99313 0.983508
0.588707 0.75743 0.852327 0.911907
0.869592 0.903052 1.00128 0.961721
0.706626 0.816407 0.922693 0.938049
0.894061 0.92403 0.982096 0.985206
0.85054 0.897518 0.979626 0.967367
0.677183 0.80752 0.889527 0.942744
0.992167 1.00051 0.99213 0.999527
1.02573 1.00013 1.02667 0.998952
1.02805 0.999904 1.02979 0.998402
0.956297 0.93539 1.02755 0.99494
1.01509 0.969 1.04832 0.999273
1.01872 0.990879 1.0292 0.998919
1.01118 0.986973 1.0252 0.999344
0.961384 0.949334 1.01691 0.995853
0.986515 0.98131 1.00805 0.99728
0.686952 0.800203 0.927605 0.925473
0.775334 0.894783 0.922094 0.939714
0.767631 0.880738 0.921831 0.945484
0.991148 0.957142 1.03871 0.996938
0.869567 0.911844 0.96952 0.983616
0.767128 0.888934 0.923697 0.934261
0.835438 0.883333 0.982099 0.963017
0.694478 0.832419 0.89004 0.93736
0.629512 0.777944 0.880277 0.919256
0.943029 0.937503 1.01111 0.994839
0.654947 0.782878 0.903672 0.925766
0.683231 0.816601 0.889976 0.940111
0.837618 0.905272 0.944275 0.97987
0.849558 0.921621 0.952946 0.967325
0.938447 0.95479 0.985285 0.997562
0.710128 0.827159 0.914144 0.939146
0.890018 0.966374 0.950186 0.96927
0.841504 0.916943 0.936861 0.979578
0.986105 0.966659 1.02092 0.999211
0.983385 0.988876 0.995943 0.998498
0.994768 1.00066 0.996674 0.997425
1.00241 0.999875 1.00471 0.997837
1.0003 1.00271 1.00103 0.996566
1.00155 1.00565 0.999428 0.996495
1.00855 1.00206 1.0115 0.995035
0.999476 1.00241 1.00167 0.995407
1.03107 1.03796 0.996905 0.996446
1.00235 1.00452 1.00319 0.994674
1.0287 1.03334 0.999984 0.995523
1.05952 1.06569 0.997569 0.996636
1.05899 1.06424 0.99833 0.996731
1.06135 1.06572 1 0.995902
1.06107 1.06561 0.999697 0.996037
1.0476 1.05223 1 0.995598
1.04337 1.04815 1 0.995438
1.03318 1.03803 1 0.995333
1.03456 1.03878 1 0.995942
1.02532 1.02964 1.00014 0.995667
1.01719 1.02055 1.00148 0.995235
1.01308 1.01658 1 0.996555
1.01592 1.01978 1 0.996223
1.0082 1.01201 1 0.996233
1.00422 1.00129 1.00528 0.997658
1.00659 1.00729 1.00234 0.99697
1.00561 1.00754 1.00145 0.996647
1.00267 1 1.00315 0.999522
1.00895 1.00072 1.01011 0.998128
1.00959 1.00332 1.00881 0.997467
1 1 1 1
1.00174 1 1.00205 0.999692
1.00726 1 1.00867 0.998602
1 1 1 1
1.00055 1 1.00075 0.999804
1 1 1 1
1.00197 1.00245 1.00185 0.997678
1.00616 1.00058 1.00775 0.99784
1.00911 1 1.01115 0.99798
1.00354 1 1.00472 0.998826
1.00858 1 1.01046 0.998139
1.01316 1 1.01522 0.997974
0.99988 1 1 0.99988
0.999789 1 1.00077 0.999015
1.00236 1 1.00404 0.998323
1 1 1 1
0.999942 1 1 0.999942
0.9992 1 1 0.9992
1 1 1 1
0.999982 1 1 0.999982
1 1 1 1
0.658996 0.786568 0.911531 0.919125
0.766462 0.890116 0.918156 0.937838
0.760257 0.881717 0.916576 0.940725
1.00298 1.00093 1.00427 0.997786
1.00822 1.00436 1.00647 0.99739
1.01233 1.00127 1.01347 0.997608
1.00649 1 1.00861 0.997903
1.0023 1.00179 1.00259 0.997929
1.00534 1 1.0071 0.998251
1.01715 1 1.01916 0.998026
1.01385 1.00116 1.01517 0.997535
1.01842 1.00204 1.01885 0.997546
0.981305 1.00159 0.980762 0.998965
1.01696 1 1.01872 0.99827
1.02904 1.0003 1.0303 0.998478
0.687282 0.814468 0.900626 0.93695
0.6139 0.755402 0.888592 0.914571
0.750264 0.886783 0.914319 0.925335
0.57825 0.751479 0.848901 0.906447
0.716224 0.825839 0.919611 0.943082
0.856196 0.895583 0.992378 0.963364
0.89833 0.919092 0.996704 0.980644
0.881339 0.915837 0.979347 0.982626
0.682391 0.803761 0.902243 0.940985
0.829798 0.888338 0.969793 0.963197
0.861602 0.919542 0.951892 0.984345
0.822741 0.915248 0.933125 0.96335
0.998186 1 0.999159 0.999026
0.992837 1.00029 0.993074 0.999475
1.02636 0.999863 1.02757 0.998957
0.95461 0.945474 1.01381 0.995911
1.00892 0.985006 1.02495 0.999344
0.98812 0.9836 1.00738 0.997233
0.972615 0.988399 0.987819 0.996165
0.728848 0.841107 0.917051 0.944914
0.683524 0.797458 0.925869 0.925756
0.777586 0.897046 0.92051 0.941684
0.946226 0.944067 1.00729 0.995035
0.840145 0.902215 0.949934 0.980281
0.656082 0.782739 0.905311 0.925855
0.816749 0.905364 0.936792 0.962992
0.700165 0.822054 0.901237 0.945063
0.94065 0.958376 0.985224 0.996225
0.720633 0.837082 0.913446 0.942461
0.879015 0.962905 0.947241 0.963724
0.841795 0.917996 0.933488 0.982328
0.950367 0.979601 0.972726 0.997358
0.90068 0.977349 0.951504 0.968523
0.895077 0.966479 0.939889 0.985352
0.974171 0.987784 0.987635 0.998565
0.989656 1.00067 0.991574 0.997395
0.983226 1.00877 0.977382 0.99723
1.00149 1.00294 1.00203 0.996535
1.00083 1.00572 0.998648 0.996487
1.02521 1.04482 0.984004 0.997181
0.999234 1.00197 1.00186 0.995412
1.02901 1.03713 0.995736 0.996423
1.04559 1.06549 0.98403 0.997251
1.02816 1.03283 0.999951 0.995532
1.05793 1.06505 0.996676 0.996627
1.05152 1.06529 0.989807 0.997241
1.05343 1.06234 0.994471 0.997123
1.05982 1.06553 0.997828 0.996807
1.05766 1.06156 0.999745 0.99658
1.06216 1.06646 1 0.995964
1.06149 1.06583 1 0.995927
1.06287 1.06747 0.999602 0.996087
1.05022 1.05463 1 0.995814
1.04935 1.05396 1 0.995626
1.04157 1.04627 1 0.995508
1.03162 1.03551 1 0.996244
1.0345 1.03872 1 0.99594
1.02609 1.03036 1.00017 0.995691
1.0019 1.00419 1.00041 0.997309
1.01453 1.01804 1 0.996554
1.01493 1.01878 1 0.99622
1.00229 1 1.00307 0.999225
1.00508 1.0021 1.00533 0.997657
1.00953 1.00957 1.003 0.996963
1 1 1 1
1.00303 1 1.00354 0.999497
1.00799 1.001 1.00887 0.998125
0.999977 1 1 0.999977
1.00248 1 1.0028 0.999679
1 1 1 1
1.0009 1.00339 1 0.997517
1.00184 1.00125 1.00289 0.997695
1.00553 1 1.00773 0.997819
1.00381 1 1.006 0.997814
1.00947 1 1.01151 0.997982
1.00698 1 1.00837 0.998625
1.00028 1 1.00048 0.999804
1.00262 1 1.0038 0.998827
1.00867 1 1.01056 0.998136
1 1 1 1
0.999895 1 1 0.999895
0.999482 1 1.00046 0.99902
1 1 1 1
0.999953 1 1 0.999953
1 1 1 1
0.71342 0.829811 0.912428 0.942253
0.661139 0.786702 0.913016 0.92046
0.767538 0.891801 0.917654 0.937892
1.00552 1.0002 1.00757 0.997758
1.01522 1.00062 1.01723 0.997405
1.00547 1.00337 1.00465 0.997458
1.00642 1.00816 1.00183 0.996455
1.01546 1.00244 1.0155 0.997528
1.01531 1 1.01738 0.997965
1.0116 1.00055 1.01342 0.997652
1.01945 1.0017 1.02011 0.997658
0.999772 1.00441 0.998071 0.997303
0.97317 1.00116 0.973524 0.998474
0.971566 1.00035 0.973486 0.997678
0.984102 1.00114 0.983972 0.998994
1.02449 1.00073 1.02533 0.998457
0.869667 0.952262 0.944484 0.966945
0.679675 0.808216 0.895835 0.938741
0.609541 0.752059 0.884716 0.916108
0.680623 0.81135 0.895766 0.936491
0.838274 0.89775 0.968398 0.964221
0.88692 0.912993 0.985986 0.98525
0.860912 0.917605 0.95129 0.986257
0.857488 0.926542 0.95562 0.968452
0.884074 0.959176 0.935398 0.985358
0.992853 1.00132 0.993316 0.998218
0.997821 1 0.998817 0.999003
0.992747 1 0.993319 0.999424
0.991185 0.987487 1.00652 0.997238
0.979034 0.990863 0.991446 0.996587
0.882353 0.966225 0.944925 0.966422
0.731532 0.839581 0.921485 0.945545
0.678813 0.792653 0.924728 0.92609
0.943538 0.964463 0.983414 0.994804
0.849662 0.928996 0.933453 0.979806
0.714209 0.832605 0.910885 0.941722
0.871495 0.950715 0.946406 0.968584
0.957941 0.980251 0.979735 0.997454
0.910428 0.987492 0.951465 0.968989
0.892574 0.962992 0.943326 0.982561
0.96058 1.00297 0.960812 0.996799
0.927805 0.991291 0.945541 0.989864
0.98845 1.00252 0.988545 0.997392
0.980025 1.00856 0.974452 0.997185
0.99181 1.04018 0.955846 0.99754
0.999762 1.00518 0.998123 0.996479
1.02763 1.04627 0.984985 0.997149
1.04069 1.07232 0.972885 0.997551
1.02664 1.03611 0.994435 0.996401
1.04562 1.06561 0.98397 0.997225
1.03822 1.06451 0.977764 0.99748
1.05551 1.06361 0.995753 0.996618
1.05119 1.06507 0.989727 0.997219
1.04844 1.06612 0.986063 0.997322
1.0523 1.06213 0.993546 0.99718
1.05271 1.06049 0.995715 0.996934
1.0602 1.0664 0.997294 0.996883
1.05762 1.06147 0.9998 0.996572
1.05847 1.06237 0.999979 0.996349
1.05936 1.06366 1 0.995953
1.0619 1.06622 1 0.995951
1.06151 1.06583 1 0.995952
1.04682 1.05096 1 0.996063
1.05074 1.05516 1 0.995814
1.05137 1.05596 1 0.995653
1.01037 1.01338 1 0.997037
1.03005 1.03393 1 0.996246
1.03399 1.03821 1 0.995938
1.00033 1 1.00145 0.99889
1.00457 1.00662 1.00065 0.997311
1.01552 1.01903 1 0.996553
1 1 1 1
1.00186 1 1.00267 0.999199
1.00577 1.00322 1.0049 0.997655
1 1 1 1
1.0032 1 1.00373 0.999472
1 1 1 1
1.0141 1.01701 1.00054 0.996596
1.0018 1.00421 1.0001 0.997502
1.00142 1.00161 1.00226 0.997552
1.00232 1 1.00461 0.997713
1.00489 1 1.00713 0.99778
1.00776 1.00001 1.00942 0.998349
1.0113 1 1.01334 0.997984
1.00751 1 1.0089 0.998623
1.00206 1 1.00237 0.999695
1 1 1 1
1.00005 1 1.00023 0.999818
1.00205 1 1.00323 0.998828
1 1 1 1
0.999908 1 1 0.999908
1 1 1 1
0.901563 0.976651 0.95109 0.970589
0.720369 0.838666 0.910581 0.943295
0.660873 0.786884 0.914529 0.918354
1.01795 1.00019 1.02062 0.997202
1.00323 1.00293 1.00278 0.997527
1.01289 1.0024 1.01305 0.997439
1.00731 1.009 1.00178 0.996555
1.02424 1.02802 1.00016 0.996156
1.0014 1.00436 1 0.997048
1.0219 1.00161 1.02254 0.997765
1.00094 1.00534 0.998503 0.997118
0.980228 1.00241 0.979387 0.998456
0.996155 1.0032 0.995596 0.99737
0.971764 1.00345 0.970691 0.997664
0.992579 1.00152 0.993848 0.997203
0.972659 1.00082 0.974023 0.997783
0.987856 1.00022 0.988605 0.999023
0.896756 0.970034 0.938274 0.985276
0.87971 0.962322 0.945751 0.966591
0.690857 0.808762 0.904794 0.9441
0.840061 0.919313 0.949135 0.962762
0.872531 0.919739 0.960875 0.9873
0.885656 0.950425 0.941861 0.989374
0.97089 1.00377 0.970219 0.996937
0.990449 1.00048 0.991824 0.998138
0.997023 0.999614 0.998428 0.998979
0.980737 0.991942 0.991689 0.99699
0.91963 0.973146 0.958594 0.985827
0.896426 0.973345 0.94777 0.971728
0.721495 0.835053 0.918148 0.941036
0.955855 0.975681 0.982081 0.997555
0.897228 0.968952 0.940747 0.984301
0.910728 0.985625 0.953279 0.969297
0.955089 1.00086 0.957244 0.996888
0.930102 0.987814 0.952073 0.988975
0.957924 1.02503 0.937311 0.997034
0.975424 1.02005 0.960471 0.995603
0.975347 1.00832 0.970078 0.997131
0.988696 1.03764 0.955185 0.997537
1.00728 1.07152 0.942391 0.997514
1.03069 1.04835 0.985999 0.997117
1.03993 1.07181 0.972666 0.997528
1.04227 1.07128 0.975426 0.99743
1.04621 1.06604 0.984157 0.997199
1.03921 1.06418 0.979025 0.99746
1.05239 1.07316 0.983321 0.997283
1.05124 1.06512 0.989742 0.997196
1.04696 1.06384 0.986777 0.997315
1.05219 1.06592 0.990045 0.997044
1.05145 1.06215 0.992666 0.997237
1.05268 1.06044 0.995684 0.99698
1.05757 1.06256 0.998697 0.996599
1.05774 1.06153 0.999873 0.996563
1.05879 1.0627 0.999981 0.996338
1.05986 1.06391 1 0.996193
1.05281 1.057 1 0.99604
1.05956 1.06388 1 0.995939
1.06159 1.06592 1 0.995939
1.02371 1.02696 1 0.996828
1.04535 1.04948 1 0.996069
1.0513 1.05571 1 0.995814
0.99968 1.00079 1.00027 0.998617
1.0126 1.0156 1.00001 0.997035
1.02869 1.03256 1 0.996247
1 1 1 1
1.00002 1.0001 1.00105 0.998871
1.00726 1.00906 1.00091 0.997312
1 1 1 1
1.00156 1 1.00239 0.999175
1 1 1 1
1.02855 1.03246 1 0.996215
1.0157 1.01887 1.00026 0.996629
1.01153 1.01395 1.00066 0.996952
1.00219 1.00452 1.00019 0.997488
1.00139 1.0017 1.0022 0.997494
1.0057 1.00248 1.00524 0.997987
1.00396 1 1.00623 0.997742
1.0082 1.00009 1.00977 0.998351
1.00366 1 1.00411 0.999547
1.00787 1 1.00926 0.998622
1.00145 1 1.00175 0.999706
1 1 1 1
1 1 1 1
0.999833 1 1 0.999833
1 1 1 1
0.910629 0.97045 0.951443 0.986247
0.890266 0.974445 0.94603 0.965734
0.719067 0.831717 0.913904 0.946004
1.04464 1.04868 1.00007 0.996076
1.00994 1.00191 1.01069 0.997351
1.00844 1.01016 1.00165 0.996655
1.00179 1.00475 1 0.997057
1.0228 1.02633 1.00042 0.996136
1.0092 1.01246 0.999733 0.997039
1.00154 1.00514 0.999481 0.996934
0.983737 1.0026 0.982721 0.998438
0.994032 1.0036 0.993067 0.997383
0.965472 1.00246 0.965506 0.997511
1.01237 1.01734 0.998438 0.996667
0.992134 1.00733 0.987607 0.997272
0.992244 1.00214 0.992922 0.997179
0.975061 1.00134 0.975822 0.997886
0.965083 1.00606 0.9617 0.997471
0.889374 0.964887 0.936931 0.983786
0.876248 0.963617 0.940761 0.966591
0.883064 0.943557 0.948231 0.986983
0.973731 1.00471 0.971223 0.997881
0.990478 1.0002 0.992216 0.998048
0.975053 1.00798 0.972345 0.994844
0.905858 0.95676 0.95902 0.987255
0.884021 0.971232 0.941689 0.966567
0.954357 0.998594 0.958601 0.996974
0.938319 0.989936 0.959506 0.987862
0.961575 1.02684 0.939085 0.997189
0.980252 1.02041 0.964561 0.995936
0.990888 1.04853 0.947567 0.997323
1.0545 1.08354 0.975932 0.997199
0.985034 1.0345 0.954536 0.997534
1.01325 1.07301 0.946681 0.997496
1.03392 1.08592 0.954717 0.997281
1.03861 1.07089 0.972279 0.997505
1.03879 1.06917 0.97409 0.997427
1.05287 1.08118 0.976591 0.997165
1.03982 1.06364 0.980121 0.99744
1.05006 1.07143 0.982705 0.997297
1.05539 1.07198 0.987496 0.996993
1.04535 1.06149 0.987453 0.997308
1.05255 1.06626 0.990071 0.997042
1.05781 1.06653 0.99508 0.996725
1.05252 1.06031 0.995619 0.997026
1.05803 1.06297 0.998704 0.996645
1.06218 1.06612 0.999979 0.99632
1.0591 1.06302 0.99999 0.996327
1.05962 1.06368 1 0.996182
1.05486 1.05898 1 0.99611
1.03177 1.03516 1 0.99672
1.05273 1.05691 1 0.996045
1.05972 1.06406 1 0.995926
1.00295 1.00448 1 0.998475
1.02358 1.02684 1 0.996827
1.04408 1.04819 1 0.996075
1 1 1 1
1.00051 1.00181 1.0001 0.998603
1.01487 1.01789 1 0.997035
1 1 1 1
0.999588 1.00019 1.00054 0.998853
1 1 1 1
1.0434 1.0476 1 0.995985
1.02973 1.03365 1 0.996209
1.02741 1.03099 1 0.996529
1.01758 1.02098 1.00001 0.996662
1.01301 1.01555 1.00056 0.996937
1.00857 1.00847 1.00248 0.997629
1.00102 1.00163 1.00196 0.997436
1.00531 1.0013 1.00602 0.99799
1.00233 1 1.00298 0.99935
1.00823 1 1.00989 0.998352
1.00288 1 1.00332 0.99956
1 1 1 1
1.00077 1 1.00105 0.999717
1 1 1 1
1 1 1 1
0.969411 1.01057 0.96211 0.997054
0.904914 0.96897 0.949752 0.983302
0.889924 0.968603 0.946266 0.970943
1.03603 1.03955 1.00001 0.996604
1.05465 1.05899 0.999634 0.996269
1.04277 1.04667 1.00011 0.996161
1.00264 1.00559 1 0.997064
1.02108 1.02431 1.00073 0.996114
1.01169 1.01584 0.998879 0.997026
1.03469 1.04322 0.995203 0.996603
0.993391 1.00482 0.991205 0.997397
0.962166 1.00189 0.962896 0.997358
1.01351 1.01981 0.997023 0.996785
1.02494 1.04443 0.984739 0.996545
0.994826 1.02784 0.970361 0.997446
0.998041 1.00976 0.991157 0.997214
0.993184 1.00269 0.993344 0.997153
0.96833 1.00754 0.963212 0.997786
0.895047 0.969016 0.940378 0.982229
0.973851 1.00444 0.970658 0.998858
1.03347 1.06406 0.973417 0.997776
0.972925 1.00655 0.971456 0.994991
0.908734 0.966212 0.954966 0.984864
0.964475 1.02906 0.939745 0.997334
0.984439 1.0207 0.96807 0.996288
0.985572 1.04891 0.941969 0.9975
1.05202 1.08324 0.973889 0.997222
1.0485 1.09549 0.959781 0.997214
1.09024 1.11989 0.976094 0.997363
1.01914 1.07531 0.95016 0.997478
1.04014 1.08832 0.958329 0.997281
1.05562 1.09084 0.970551 0.997078
1.03541 1.06718 0.972742 0.997423
1.05276 1.08038 0.977206 0.997166
1.05557 1.07745 0.982673 0.99696
1.0478 1.06974 0.982134 0.997311
1.05612 1.07268 0.987535 0.996989
1.05839 1.07079 0.991661 0.996737
1.05291 1.0666 0.990094 0.997039
1.05853 1.06724 0.995102 0.996723
1.06523 1.06963 0.999496 0.996387
1.05849 1.06338 0.998709 0.996691
1.06177 1.0657 0.999977 0.996334
1.05882 1.06293 1 0.996134
1.05938 1.06345 1 0.996171
1.05474 1.05886 1 0.996115
1.03293 1.03638 1 0.996674
1.00691 1.00848 1 0.998446
1.03107 1.03447 1 0.99672
1.05267 1.05685 1 0.996049
1 1 1 1
1.00401 1.00555 1 0.998463
1.02312 1.02638 1 0.996827
1 1 1 1
1.00116 1.00258 1 0.998587
1 1 1 1
1.05277 1.05696 1 0.996038
1.04294 1.04714 1 0.995989
1.04031 1.04422 1 0.996253
1.03005 1.03398 1 0.996202
1.02774 1.03132 1 0.996533
1.01458 1.01689 1.00041 0.997318
1.01398 1.01664 1.00046 0.996922
1.00649 1.00616 1.00271 0.997631
1.00049 1 1.00142 0.999071
1.00569 1.00045 1.00726 0.997993
1.00267 1 1.0033 0.999368
1 1 1 1
1.00243 1 1.00286 0.999572
1 1 1 1
1 1 1 1
1.00039 1.04826 0.956405 0.997839
0.966525 1.00948 0.961245 0.996047
0.906999 0.970892 0.949327 0.984057
1.04942 1.05511 0.998106 0.996501
1.03687 1.04023 0.999957 0.996818
1.06684 1.07281 0.99803 0.996406
1.05487 1.05955 0.999334 0.996251
1.04098 1.04479 1.00012 0.996247
1.05816 1.07455 0.988313 0.9964
1.01408 1.01922 0.997929 0.997014
1.03425 1.04224 0.995786 0.99654
1.04712 1.08182 0.971135 0.996701
1.01163 1.02204 0.992895 0.996903
1.02613 1.04514 0.985294 0.996468
0.995505 1.03151 0.967529 0.997487
1.00099 1.01021 0.993701 0.997152
0.972199 1.00903 0.965368 0.998066
1.07743 1.11071 0.972569 0.997396
1.03866 1.06529 0.977144 0.997801
0.971553 1.00534 0.971109 0.995139
0.981241 1.04879 0.937776 0.997676
1.04921 1.08265 0.971788 0.997247
1.04311 1.09319 0.956828 0.997237
1.09481 1.12395 0.976651 0.997355
1.07378 1.10577 0.973754 0.997242
1.04615 1.09034 0.962088 0.997281
1.05646 1.09001 0.972052 0.997088
1.0561 1.08175 0.97923 0.996999
1.05268 1.07956 0.977878 0.997166
1.05594 1.07748 0.983011 0.996941
1.0581 1.07312 0.989245 0.996726
1.05686 1.07338 0.987581 0.996986
1.0588 1.0712 0.99166 0.996732
1.06731 1.07376 0.997556 0.996433
1.05923 1.06793 0.995123 0.996721
1.06504 1.06946 0.999478 0.996388
1.06411 1.06823 1 0.996141
1.0614 1.06531 0.999977 0.996349
1.05848 1.06258 1 0.996141
1.03359 1.03709 1 0.99662
1.0546 1.0587 1 0.996121
1.03347 1.03692 1 0.996674
1.00853 1.0098 1 0.998738
0.99948 1 1 0.99948
1.00751 1.00896 1 0.998568
1.03038 1.03377 1 0.99672
1 1 1 1
1.00539 1.00695 1 0.998451
1 1 1 1
1.07035 1.07612 0.998118 0.996515
1.06018 1.06417 1 0.996245
1.05353 1.0577 1 0.996056
1.047 1.05104 1 0.996158
1.04319 1.04738 1 0.995993
1.0409 1.04483 1 0.996247
1.01837 1.02139 1 0.997044
1.02864 1.03221 1 0.996537
1.01201 1.01415 1.00058 0.997319
0.999581 1.00071 1.00012 0.998748
1.0042 1.00375 1.00282 0.997633
1.0009 1 1.00181 0.99909
1 1 1 1
1.00265 1 1.00326 0.999387
1 1 1 1
1 1 1 1
1.06505 1.10589 0.965828 0.997141
1.00785 1.05766 0.954944 0.997864
0.963628 1.00962 0.959186 0.995061
1.06179 1.07376 0.992386 0.996446
1.04516 1.05107 0.99783 0.996546
1.03759 1.04074 0.999938 0.997029
1.06528 1.07099 0.99824 0.99642
1.05509 1.0601 0.999036 0.996232
1.06455 1.09468 0.975717 0.99668
1.05423 1.07101 0.987924 0.996359
1.03406 1.04136 0.9965 0.996478
1.04395 1.07839 0.971267 0.9967
1.03113 1.04879 0.986719 0.99639
1.00033 1.04024 0.96401 0.997537
1.07134 1.09848 0.977882 0.997348
1.07941 1.11276 0.972528 0.997434
1.04332 1.0668 0.980122 0.997827
1.03857 1.0917 0.953947 0.997258
1.09998 1.12832 0.977475 0.997349
1.07445 1.10732 0.972992 0.997247
1.06266 1.08295 0.984106 0.997113
1.05721 1.08912 0.97352 0.997099
1.05665 1.08162 0.979863 0.996984
1.05948 1.07478 0.988953 0.99677
1.05634 1.07757 0.983329 0.996921
1.05866 1.07367 0.989261 0.996725
1.0681 1.07721 0.99506 0.996458
1.05924 1.07166 0.99166 0.996728
1.06691 1.07336 0.997548 0.996433
1.0676 1.07174 1 0.996138
1.06487 1.06931 0.999456 0.99639
1.06391 1.06802 1 0.996146
1.03483 1.03842 1 0.996543
1.05813 1.06222 1 0.996147
1.03481 1.03832 1 0.996621
1.00768 1.00894 1 0.998755
1.03409 1.03754 1 0.996673
1.00831 1.0096 1 0.998731
0.99951 1 1 0.99951
0.999752 1 1 0.999752
1.00813 1.00944 1 0.998702
1 1 1 1
1.06261 1.0733 0.993492 0.996531
1.06416 1.06848 0.999624 0.996338
1.0686 1.07478 0.997593 0.996645
1.05637 1.06044 1 0.996155
1.06225 1.06627 0.999996 0.996234
1.05419 1.05834 1 0.996073
1.0474 1.05145 1 0.996147
1.02671 1.02996 1 0.996841
1.04153 1.04546 1 0.996241
1.01908 1.0221 1 0.997045
1.00331 1.00478 1 0.998533
1.00973 1.01191 1.00052 0.997321
0.99992 1.00061 1.00054 0.998768
1 1 1 1
1.00142 1 1.00231 0.99911
1 1 1 1
1 1 1 1
1.06349 1.09352 0.975436 0.997028
1.05834 1.09849 0.966217 0.99714
1.01312 1.06357 0.95459 0.997882
1.06196 1.0825 0.984363 0.996609
1.05911 1.07116 0.992285 0.996443
1.04092 1.04702 0.997578 0.996594
1.06358 1.06906 0.998428 0.996434
1.06306 1.09262 0.976213 0.996656
1.04974 1.06689 0.987561 0.996318
1.03531 1.06889 0.97179 0.996699
1.06627 1.08537 0.985181 0.997177
1.06991 1.09669 0.978211 0.997306
1.0809 1.11434 0.972453 0.997472
1.06147 1.07685 0.988674 0.997017
1.07486 1.10873 0.972127 0.997252
1.06243 1.08282 0.984027 0.997098
1.06119 1.07521 0.990052 0.99688
1.05723 1.08146 0.980568 0.996969
1.05953 1.07487 0.988921 0.996773
1.06857 1.07844 0.994346 0.996483
1.05916 1.07416 0.989281 0.996724
1.06748 1.07658 0.99508 0.996458
1.06869 1.07296 0.999867 0.996147
1.06642 1.07288 0.997541 0.996432
1.06828 1.07241 1 0.996141
1.03466 1.03832 1 0.996471
1.06365 1.06776 1 0.99615
1.03608 1.03967 1 0.996545
1.00613 1.00741 1 0.998728
1.03606 1.03957 1 0.996622
1.00725 1.00852 1 0.998741
0.999512 1 1 0.999512
1.00806 1.00935 1 0.998728
0.999522 1 1 0.999522
1 1 1 1
1.06026 1.07374 0.990974 0.996439
1.06559 1.07172 0.997931 0.996338
1.06427 1.07465 0.993791 0.996528
1.06345 1.06748 1 0.996216
1.06513 1.06982 0.999225 0.996385
1.06698 1.07359 0.997065 0.996774
1.03646 1.03989 1 0.996706
1.05635 1.06044 1 0.996144
1.06442 1.06845 1 0.996223
1.04799 1.05205 1 0.996137
1.02747 1.03072 1 0.996841
1.00806 1.00962 1 0.998461
1.01907 1.02209 1 0.997047
1.00184 1.0033 1 0.998549
1 1 1 1
0.999983 1.00027 1.00093 0.998787
1 1 1 1
1 1 1 1
1.0619 1.08176 0.984686 0.99691
1.06393 1.0944 0.975082 0.997007
1.05496 1.09491 0.966277 0.99714
1.06173 1.08223 0.984383 0.996626
1.05617 1.0683 0.99217 0.99644
1.06313 1.09218 0.976687 0.996632
1.06347 1.07839 0.989116 0.997015
1.06622 1.08531 0.985192 0.997172
1.06841 1.0949 0.978483 0.997265
1.06187 1.07694 0.988939 0.997037
1.06007 1.07214 0.991882 0.996838
1.06216 1.08269 0.983911 0.997084
1.0616 1.07519 0.990484 0.996841
1.06826 1.07785 0.994506 0.996574
1.05963 1.07501 0.988889 0.996775
1.06819 1.07807 0.994336 0.996485
1.06857 1.07305 0.999662 0.996157
1.06696 1.07604 0.995092 0.996458
1.07 1.07431 0.999836 0.996148
1.03237 1.03606 1 0.996432
1.06903 1.07316 1 0.996145
1.03535 1.03901 1 0.996474
1.00398 1.00531 1 0.998672
1.03739 1.04098 1 0.996547
1.00552 1.00682 1 0.998708
0.999486 1 1 0.999486
1.00681 1.00809 1 0.998731
0.999536 1 1 0.999536
0.999529 1 1 0.999529
1.06182 1.07551 0.990533 0.996701
1.06656 1.07447 0.996344 0.996288
1.06004 1.07463 0.989915 0.996465
1.06812 1.07225 0.999932 0.996212
1.06528 1.07118 0.998163 0.996324
1.0659 1.07597 0.994095 0.996526
1.03876 1.04228 1 0.99662
1.06336 1.06743 0.999979 0.996209
1.06603 1.0711 0.998825 0.996434
1.00927 1.01082 1 0.998462
1.03574 1.03917 1 0.996707
1.0564 1.0605 1 0.996133
1.02804 1.0313 1 0.996842
1.00667 1.00822 1 0.998472
1 1 1 1
1.00071 1.00215 1 0.998566
1 1 1 1
1 1 1 1
1.06082 1.07563 0.989285 0.996906
1.0623 1.08197 0.984868 0.9969
1.06351 1.09431 0.97479 0.996987
1.06154 1.082 0.984393 0.996643
1.06098 1.0709 0.993915 0.996796
1.06347 1.07849 0.989014 0.997026
1.06627 1.08528 0.985276 0.997166
1.06229 1.07703 0.989223 0.997058
1.06028 1.07256 0.991671 0.996848
1.06886 1.0769 0.995966 0.996555
1.06202 1.07517 0.990933 0.996803
1.069 1.07794 0.995171 0.99652
1.06719 1.07234 0.998957 0.996232
1.06784 1.07771 0.994331 0.996487
1.06902 1.0736 0.999576 0.996159
1.02918 1.03289 1 0.996407
1.07111 1.07546 0.999807 0.996149
1.03218 1.03587 1 0.996433
1.00143 1.00307 1 0.998361
1.03599 1.03965 1 0.996476
1.00315 1.00462 1 0.99853
1 1 1 1
1.00489 1.00621 1 0.99869
0.999517 1 1 0.999517
0.999553 1 1 0.999553
1.06093 1.07216 0.992711 0.996799
1.06688 1.07552 0.995531 0.996424
1.06219 1.07504 0.991317 0.996693
1.06896 1.07355 0.999587 0.996133
1.066 1.07414 0.996118 0.99629
1.05984 1.07555 0.988862 0.996492
1.03752 1.04117 1 0.99649
1.06779 1.07206 0.999809 0.996213
1.06497 1.07065 0.99838 0.99631
1.00727 1.00881 1 0.998476
1.03753 1.04108 1 0.996591
1.06304 1.06713 0.999973 0.996202
1 1 1 1
1.00929 1.01083 1 0.998473
1.03501 1.03842 1 0.996707
1.00534 1.00686 1 0.998485
1 1 1 1
1 1 1 1
1.05941 1.06902 0.994191 0.996803
1.0613 1.07575 0.989617 0.996912
1.06261 1.08216 0.984999 0.99689
1.0688 1.07561 0.997166 0.996495
1.06036 1.07073 0.993485 0.996807
1.06348 1.07861 0.988898 0.997037
1.06044 1.07299 0.991423 0.996857
1.06865 1.07677 0.995886 0.996556
1.06595 1.07082 0.999187 0.996264
1.06967 1.07795 0.995838 0.996467
1.06744 1.07229 0.999267 0.996206
1.02677 1.03051 1 0.996373
1.06955 1.07422 0.999489 0.996161
1.029 1.03271 1 0.996408
0.999975 1.00164 1 0.998339
1.03219 1.03588 1 0.996435
1.00099 1.00263 1 0.99836
1 1 1 1
1.00231 1.00395 1 0.998365
0.999733 1 1 0.999733
0.999543 1 1 0.999543
1.05807 1.06773 0.994167 0.996762
1.0682 1.07528 0.996899 0.996504
1.06059 1.07163 0.99287 0.996807
1.06874 1.07293 0.99997 0.996125
1.0678 1.07628 0.995692 0.99641
1.06252 1.07454 0.992104 0.996685
1.03358 1.0373 1 0.996418
1.06845 1.0728 0.999808 0.996129
1.0655 1.07385 0.995917 0.996292
1.00439 1.00594 1 0.998453
1.03687 1.04053 1 0.996479
1.06745 1.07185 0.999683 0.996214
1 1 1 1
1.00802 1.00955 1 0.998485
1.03655 1.04013 1 0.996561
1 1 1 1
1.00931 1.01084 1 0.998484
1 1 1 1
1.06799 1.07458 0.997322 0.996535
1.05902 1.06868 0.994152 0.996789
1.06173 1.0758 0.989973 0.996919
1.0651 1.06977 0.999372 0.996259
1.06816 1.07533 0.996804 0.996515
1.05974 1.07055 0.993064 0.996818
1.06843 1.07663 0.995811 0.996556
1.06568 1.0706 0.999129 0.996264
1.02514 1.02886 1 0.996378
1.06773 1.07229 0.999565 0.996179
1.02697 1.03071 1 0.996378
0.999087 1.00078 1 0.99831
1.02871 1.03242 1 0.996409
0.999655 1.00132 1 0.998337
1 1 1 1
1.00045 1.0021 1 0.998358
1 1 1 1
0.999515 1 1 0.999515
1.06846 1.07499 0.997414 0.99651
1.05737 1.06771 0.993516 0.99678
1.0674 1.07153 0.999963 0.99618
1.06854 1.07564 0.996882 0.996503
1.06024 1.07111 0.993016 0.996815
1.03018 1.03387 1 0.99643
1.06816 1.07236 0.999968 0.996121
1.06874 1.07709 0.99584 0.996396
1.0018 1.00341 1 0.998399
1.0336 1.03731 1 0.996427
1.06784 1.072 1 0.996125
1 1 1 1
1.00521 1.00676 1 0.998459
1.03627 1.03994 1 0.996468
1 1 1 1
1.00872 1.01025 1 0.998494
1 1 1 1
1.06526 1.06978 0.999499 0.996279
1.06788 1.07436 0.997438 0.996524
1.05862 1.06833 0.994118 0.996775
1.02428 1.02798 1 0.996396
1.06485 1.06957 0.999325 0.99626
1.06747 1.07502 0.99643 0.996535
1.06541 1.07038 0.999086 0.996265
1.02535 1.02908 1 0.996375
0.998565 1.00026 1 0.998302
1.02721 1.03094 1 0.996383
0.998887 1.00058 1 0.998309
1 1 1 1
0.999374 1.00104 1 0.998335
1 1 1 1
1 1 1 1
1.06674 1.07081 0.999994 0.99621
1.06789 1.07482 0.996982 0.99656
1.05672 1.06775 0.992849 0.996799
1.02757 1.03124 1 0.996446
1.06721 1.07132 0.999988 0.996177
1.06882 1.07594 0.996867 0.996502
0.999821 1.00147 1 0.998357
1.02995 1.03365 1 0.996428
1.06747 1.07163 1 0.996118
1 1 1 1
1.00248 1.00409 1 0.998402
1.03367 1.03737 1 0.996437
1 1 1 1
1.00599 1.00754 1 0.998464
1 1 1 1
1.02487 1.02854 1 0.996432
1.06495 1.06956 0.999421 0.996267
1.06779 1.07418 0.997526 0.996513
0.998352 1.00002 1 0.998334
1.02447 1.02818 1 0.996393
1.06461 1.06937 0.999281 0.99626
1.02554 1.02927 1 0.996372
0.998427 1.00012 1 0.998303
1 1 1 1
0.998647 1.00034 1 0.998307
1 1 1 1
1 1 1 1
1.02563 1.02928 1 0.99645
1.06614 1.07044 0.999743 0.99624
1.06732 1.07462 0.99659 0.996609
0.998888 1.00025 1 0.998637
1.02747 1.03114 1 0.996445
1.06713 1.07123 1 0.996173
1 1 1 1
1.00037 1.00202 1 0.998358
1.02993 1.03362 1 0.996425
1 1 1 1
1.00314 1.00474 1 0.998405
1 1 1 1
0.998317 1 1 0.998317
1.02504 1.02872 1 0.996423
1.06465 1.06934 0.999361 0.996255
1 1 1 1
0.998332 1 1 0.998332
1.02464 1.02835 1 0.99639
0.998324 1.00002 1 0.998303
1 1 1 1
1 1 1 1
0.998611 1 1 0.998611
1.02607 1.02973 1 0.996451
1.06559 1.07015 0.999462 0.99627
1 1 1 1
0.999012 1.00066 1 0.998349
1.02743 1.0311 1 0.996444
1 1 1 1
1.00085 1.00249 1 0.998359
1 1 1 1
0.999496 1 1 0.999496
0.998481 1 1 0.998481
1.02521 1.0289 1 0.996414
1 1 1 1
0.998334 1 1 0.998334
1 1 1 1
0.999506 1 1 0.999506
0.99852 1.00003 1 0.998486
1.02628 1.02993 1 0.996451
0.999747 1 1 0.999747
0.999324 1.00097 1 0.998351
1 1 1 1
1 1 1 1
0.998356 1 1 0.998356
1 1 1 1
0.999753 1 1 0.999753
0.998582 1.00022 1 0.998361
1 1 1 1
1 1 1 1
1 1 1 1

VECTORS lamdaE float
1.00211 1.00001 0.9929
1.0017 1.00077 0.996407
1.00159 1.0002 0.993277
1.00203 1.00012 0.992845
1.00217 0.999925 0.992903
1.00209 1.00026 0.992707
1.00322 1.00062 0.989932
1.00178 1.0008 0.996326
1.00147 1.00005 0.997055
1.00099 1.00087 0.997071
1.00149 1.00123 0.992323
1.00327 1.0013 0.987969
1.00154 0.999961 0.993528
1.00127 1.00004 0.993719
1.00112 1.00041 0.993627
1.00166 1.00009 0.993254
1.00149 1.00061 0.993055
1.00173 0.999974 0.993296
1.00346 1.00051 0.989739
1.00155 1.00003 0.996646
1.00194 1.00017 0.992889
1.00214 0.999998 0.992865
1.00323 1.00024 0.990339
1.00331 1.00033 0.990107
1.00206 1.00056 0.992412
1.00315 1.00113 0.989522
1.00529 1.00128 0.9854
1.00182 1.00081 0.996236
1.00173 0.99993 0.995093
1.00137 1.00056 0.995061
1.00175 1.00104 0.996215
1.0032 1.00143 0.987966
1.00197 0.99975 0.993075
1.00184 0.999995 0.993143
1.00363 1.0002 0.990354
1.00039 1.00163 0.997227
1.00348 1.00081 0.990082
1.00318 1.0021 0.987393
1.00514 1.00197 0.984286
1.00052 1.00022 0.997481
1.00158 0.999978 0.996634
1.00153 1.00001 0.99512
1.00147 0.999958 0.99671
1.0011 1.00004 0.99392
1.00327 0.999894 0.989599
1.00144 0.999946 0.997006
1.00361 1.00015 0.990469
1.0013 1.00003 0.993664
1.0013 1.00002 0.993676
1.00095 1.00098 0.993382
1.00368 1.00039 0.98956
1.00134 1.00004 0.995277
1.00156 1.00019 0.993305
1.00152 1.00098 0.992701
1.00174 0.999966 0.993264
1.00342 1.00019 0.990124
1.00342 1.00096 0.989332
1.00351 1.00027 0.989907
1.00529 1.00125 0.985478
1.00144 1 0.996704
1.0018 1.0001 0.993136
1.00294 0.999989 0.991451
1.00316 1.0002 0.990474
1.00331 1.00023 0.990215
1.00525 1.00002 0.986764
1.0053 1.00036 0.98625
1.00205 1.00075 0.992003
1.00306 1.00205 0.988725
1.00531 1.00192 0.984674
1.00529 0.999781 0.986177
1.00208 0.999938 0.996502
1.0016 1.00095 0.996453
1.00178 1.0005 0.996451
1.00316 1.00154 0.987966
1.00205 0.999861 0.996455
1.00197 1.00009 0.996523
1.00349 1.00015 0.988833
1.00067 1.00127 0.995201
1.00326 1.00076 0.988556
1.00299 1.00231 0.988598
1.00523 1.00182 0.984281
1.00085 1.00057 0.997081
1.00086 1.00257 0.990936
1.00361 1.00011 0.988749
1.00356 1.0002 0.988726
1.00534 1.0004 0.985654
1.00223 1.00293 0.990265
1.00533 1.00128 0.984726
1.00427 1.0031 0.984486
1.00537 1.00159 0.984158
1.0003 0.999623 0.997844
1.00037 1.00001 0.997634
1.00188 0.999968 0.99646
1.00164 0.999977 0.9966
1.00152 0.99997 0.996701
1.0014 0.999989 0.995264
1.00329 0.99989 0.990328
1.00168 0.999949 0.995059
1.00349 1.00017 0.98976
1.00146 0.999983 0.99673
1.00309 0.999764 0.989942
1.00351 1.00006 0.990726
1.00528 0.998828 0.98746
1.00359 1.00013 0.990443
1.00523 0.999266 0.987084
1.00151 0.999966 0.993575
1.00116 1.00019 0.993724
1.00098 1.00137 0.992974
1.00136 0.999924 0.99366
1.0036 1.00018 0.989909
1.00371 1.00022 0.989715
1.00367 1.00081 0.989153
1.0053 1.00122 0.985552
1.00149 0.999982 0.996718
1.00142 1.0001 0.993542
1.00317 0.9999 0.990272
1.00335 1.00017 0.990258
1.00185 1.00127 0.994009
1.00337 1.00185 0.988924
1.0035 1.00019 0.990007
1.00524 0.999786 0.987036
1.00531 1.00191 0.98478
1.0053 1.00058 0.986092
1.00528 0.999778 0.986205
1.00304 0.999828 0.989961
1.00307 1.00003 0.990733
1.00516 0.998663 0.988397
1.0052 0.999307 0.987691
1.00531 0.999844 0.986821
1.00533 0.997408 0.988847
1.00107 1.00122 0.996735
1.00529 0.998815 0.987127
1.00274 1.00307 0.986917
1.00527 1.00254 0.983431
1.00529 1.0008 0.985222
1.00526 0.997054 0.988706
1.00147 1.0033 0.989051
1.00267 1.00446 0.986026
1.00209 0.999875 0.996467
1.00196 1.00016 0.99651
1.0035 1.00013 0.988811
1.00094 1.00091 0.996953
1.00247 1.00263 0.987789
1.0033 1.00068 0.988555
1.00533 1.00168 0.984268
1.00068 1.00061 0.997239
1.00081 1.00267 0.990951
1.00363 1.00015 0.989556
1.00359 1.00027 0.989481
1.00534 1.00042 0.985621
1.00171 1.00307 0.988848
1.00533 1.00128 0.9847
1.00452 1.00275 0.984453
1.00535 1.00144 0.984383
1.00125 1.00281 0.989949
1.00052 1.00229 0.99181
1.00244 1.00361 0.987723
1.00533 0.999982 0.986148
1.00535 1.00083 0.985181
1.00532 0.998517 0.987476
1.00345 1.00356 0.98532
1.00532 1.00012 0.985869
1.00531 1.00268 0.98337
1.00533 0.999824 0.985715
1.00018 0.999107 0.998183
1.0002 0.999542 0.997987
1.00029 0.999921 0.997779
1.00117 1.00307 0.989844
1.00061 1.00099 0.997092
1.00202 0.999907 0.996443
1.00174 0.999982 0.996513
1.0033 1.00022 0.989094
1.00314 0.999897 0.989687
1.0015 0.99997 0.996683
1.00144 0.99997 0.996725
1.00306 0.999796 0.989935
1.00339 1.00004 0.990018
1.00526 0.998839 0.98747
1.00343 1.0002 0.98892
1.00523 0.999278 0.987063
1.003 0.99979 0.990028
1.00523 0.998752 0.98759
1.00527 0.999003 0.987311
1.00529 0.995569 0.990927
1.00526 0.999599 0.986663
1.00529 0.996075 0.990282
1.00145 0.99998 0.99672
1.00101 1.00016 0.993946
1.00321 0.999862 0.989258
1.00354 1.00016 0.990039
1.001 1.00196 0.996583
1.00369 1.00141 0.989134
1.00368 1.00017 0.989802
1.00524 0.999537 0.987309
1.0053 1.00078 0.985929
1.0053 1.00186 0.984887
1.00527 0.999779 0.986233
1.00301 0.999826 0.989965
1.00325 1.00005 0.990522
1.00519 0.998595 0.988169
1.0052 0.999535 0.987389
1.00126 1.00127 0.996568
1.00289 1.00281 0.988047
1.00509 1.00282 0.983806
1.0053 0.999919 0.986778
1.00534 0.996963 0.989256
1.00529 1.00069 0.985301
1.00528 0.999003 0.987031
1.00526 0.99712 0.988704
1.00153 1.00319 0.989037
1.00284 1.00433 0.985959
1.00516 0.998893 0.987584
1.0052 0.998952 0.988055
1.00533 0.996259 0.990014
1.00531 0.9963 0.990066
1.00531 0.997872 0.988096
1.00529 0.995351 0.990812
1.00197 1.00331 0.987977
1.00524 0.995921 0.989927
1.0047 1.0035 0.983643
1.00528 1.00185 0.983971
1.0053 0.998825 0.987069
1.00525 0.995737 0.990186
1.00357 1.00421 0.984683
1.00255 1.00378 0.98736
1.00403 1.00406 0.984687
1.00348 1.00015 0.988837
1.00044 1.00044 0.997406
1.0007 1.00268 0.99097
1.00344 1.00025 0.988763
1.00533 1.00044 0.985588
1.00167 1.00315 0.988723
1.00474 1.00249 0.984427
1.00535 1.00129 0.98467
1.00535 1.00128 0.984607
1.00114 1.00292 0.989989
1.00039 1.00239 0.991796
1.00229 1.00355 0.987729
1.00532 1 0.986116
1.00534 1.00085 0.985151
1.00533 0.99851 0.987461
1.00367 1.00331 0.985294
1.00532 1.00023 0.985763
1.00537 1.00266 0.983289
1.00533 0.999483 0.985984
1.00034 1.0017 0.992581
1.0031 1.0039 0.9864
1.00176 1.00402 0.988134
1.00304 1.00093 0.988235
1.00533 0.997646 0.988433
1.00532 0.999413 0.986527
1.0053 0.996212 0.989559
1.00495 1.00327 0.983308
1.00529 0.997874 0.988038
1.00534 1.00145 0.984545
1.00539 0.998276 0.98722
1.00013 1.00353 0.991261
1.00027 1.00054 0.993917
1.00016 0.998491 0.998416
1.00012 0.998989 0.998276
1.0001 0.999459 0.998114
1.00083 1.00288 0.990646
1.00047 1.00064 0.997333
1.00126 1.00303 0.989768
1.00078 1.00108 0.996971
1.00341 1.00023 0.988912
1.00324 1.00004 0.989375
1.00522 0.999289 0.98705
1.00523 0.998855 0.987482
1.00305 0.999833 0.989936
1.0015 0.999956 0.996721
1.00302 0.99978 0.990031
1.00522 0.998776 0.9876
1.00524 0.999017 0.987317
1.00531 0.995532 0.990928
1.00527 0.999617 0.98663
1.0053 0.996053 0.990287
1.00517 0.998803 0.98764
1.00533 0.995543 0.990937
1.00525 0.995729 0.990772
1.00518 0.994973 0.991601
1.00535 0.996763 0.989414
1.00529 0.994902 0.991257
1.00303 0.999829 0.989976
1.00344 1.00002 0.99031
1.00522 0.998519 0.987944
1.0052 0.99975 0.987086
1.00149 1.00133 0.996352
1.00329 1.00268 0.988909
1.0049 1.00296 0.984174
1.0053 0.999985 0.986734
1.00535 0.996517 0.989663
1.00528 0.999192 0.986938
1.0053 1.00061 0.98538
1.00526 0.997182 0.988703
1.00159 1.00311 0.989023
1.00283 1.00404 0.985895
1.00517 0.998631 0.987878
1.00521 0.998927 0.988045
1.00533 0.996261 0.990067
1.00532 0.996564 0.989681
1.00206 1.00331 0.987976
1.00444 1.00355 0.983674
1.00531 1.00201 0.983789
1.00531 0.998102 0.987959
1.00529 0.995139 0.990919
1.00528 0.99861 0.987329
1.00525 0.995973 0.989902
1.00525 0.995717 0.990055
1.0035 1.00429 0.984652
1.00357 1.00379 0.98479
1.00207 1.00402 0.987387
1.00533 0.996178 0.990162
1.00533 0.996408 0.989898
1.00522 0.994959 0.991473
1.00532 0.994914 0.991193
1.00525 0.995249 0.990604
1.00529 0.99493 0.990979
1.00399 1.0039 0.984152
1.00528 0.995031 0.990676
1.00532 1.00327 0.982608
1.0053 1.0002 0.985394
1.00524 0.997279 0.98861
1.00528 0.995486 0.990313
1.00151 1.00494 0.987471
1.0049 1.00415 0.983063
1.00256 1.00203 0.987671
1.00503 1.00388 0.983463
1.00531 1.00003 0.986085
1.00033 1.00249 0.991779
1.00095 1.00318 0.990034
1.00181 1.00366 0.987729
1.00534 1.00086 0.985119
1.00533 0.998503 0.987447
1.00388 1.00288 0.985271
1.00538 1.00263 0.983204
1.00532 1.00036 0.985659
1.00532 0.999158 0.986254
1.00025 1.00182 0.992596
1.00278 1.00368 0.986515
1.00163 1.00408 0.988051
1.00333 1.00101 0.988298
1.00533 0.997631 0.988423
1.00532 0.999399 0.986511
1.0053 0.996191 0.98957
1.00514 1.00326 0.983249
1.00528 0.9981 0.987773
1.0053 1.00131 0.984527
1.00539 0.998113 0.987448
1.00036 1.00106 0.993273
1.00135 1.00485 0.988291
1.00353 1.0033 0.985585
1.00317 1.00202 0.988134
1.00368 1.00034 0.988536
1.00528 0.995442 0.990403
1.0053 0.997034 0.988655
1.0053 0.995275 0.990227
1.00515 1.00299 0.983257
1.00533 0.996705 0.988917
1.00522 0.999813 0.985979
1.00044 1.00395 0.990263
1.0002 1.00494 0.989767
1.00009 1.00267 0.992142
1.0001 1.00345 0.991267
1.00017 0.999964 0.995408
1.00025 1.00043 0.994417
1.00032 0.997893 0.996867
1.00015 0.998422 0.998473
1.00008 0.998875 0.998346
1.00013 1.00271 0.99184
1.0002 1.00031 0.997723
1.00085 1.00283 0.990626
1.00051 1.00076 0.997245
1.0013 1.00297 0.989694
1.00094 1.00113 0.996857
1.00527 0.999636 0.986596
1.00521 0.999027 0.987319
1.0053 0.996044 0.990292
1.00532 0.995494 0.99093
1.0052 0.998801 0.987608
1.00302 0.999764 0.990029
1.00517 0.998805 0.987643
1.00532 0.995522 0.99094
1.00529 0.995681 0.990771
1.00518 0.994967 0.991583
1.00532 0.996755 0.98942
1.00529 0.9949 0.99128
1.00533 0.995588 0.990881
1.00518 0.994964 0.991613
1.00524 0.994959 0.991471
1.00522 0.994952 0.991431
1.00529 0.994971 0.990964
1.00528 0.994933 0.991029
1.00516 0.998356 0.988174
1.00523 0.998913 0.988038
1.00532 0.996258 0.99012
1.00533 0.996826 0.989298
1.00217 1.00329 0.987984
1.0042 1.00388 0.983719
1.00534 1.00214 0.983611
1.00531 0.998329 0.987823
1.0053 0.994924 0.991027
1.00526 0.996024 0.989876
1.00526 0.998361 0.987588
1.00525 0.995687 0.989922
1.00349 1.00456 0.984619
1.00349 1.00382 0.984892
1.00185 1.0043 0.987411
1.00532 0.995911 0.990486
1.00531 0.996426 0.989902
1.00523 0.994956 0.99149
1.00531 0.994918 0.991147
1.00388 1.00412 0.984195
1.00529 1.00333 0.982683
1.00531 1.00041 0.985127
1.00525 0.995481 0.990418
1.00528 0.994924 0.990932
1.00524 0.997152 0.988588
1.00527 0.995024 0.990649
1.00527 0.995398 0.990345
1.00447 1.00414 0.983071
1.00475 1.00398 0.9833
1.00176 1.00458 0.987543
1.00278 1.0023 0.987772
1.00522 0.994961 0.991602
1.00526 0.99495 0.991239
1.00523 0.994942 0.991428
1.00528 0.994925 0.990981
1.00528 0.994891 0.990837
1.00534 0.9949 0.99075
1.0052 1.00403 0.982268
1.00531 0.994881 0.990596
1.00529 1.00203 0.983592
1.00528 0.999379 0.986125
1.00519 0.996648 0.989088
1.00532 0.995202 0.990318
1.00127 1.00489 0.987905
1.00331 1.00317 0.986549
1.00521 1.00405 0.982042
1.0032 1.00072 0.987888
1.00459 1.00445 0.982953
1.00015 1.00191 0.992613
1.00533 0.997615 0.988414
1.00178 1.00385 0.987967
1.0025 1.00365 0.986634
1.00347 1.00088 0.988361
1.00532 0.999385 0.986495
1.0053 0.99617 0.989582
1.00528 1.0029 0.98319
1.00529 1.00124 0.984508
1.00528 0.998307 0.98751
1.00538 0.997965 0.987675
1.00032 1.00104 0.993309
1.00108 1.00491 0.988296
1.00378 1.00291 0.985665
1.00281 1.00206 0.98808
1.00399 1.00016 0.987715
1.00529 0.995424 0.990423
1.0053 0.997008 0.988669
1.0053 0.995277 0.990239
1.00516 1.00315 0.983188
1.00535 0.996823 0.988712
1.00521 0.999847 0.986225
1.00093 1.00439 0.989219
1.00201 1.00512 0.987806
1.00377 1.00344 0.984638
1.00397 1.00056 0.987949
1.00487 1.00239 0.985703
1.00532 0.994872 0.990723
1.00529 0.995837 0.989575
1.00522 0.995089 0.990339
1.00488 1.00169 0.984554
1.00522 0.998396 0.987119
1.00038 1.00408 0.990251
1.00042 1.00484 0.989325
0.999766 1.00499 0.989817
1.00046 1.0045 0.990303
1.00016 1.00442 0.990638
0.999968 1.00232 0.992661
0.999954 1.00283 0.992162
1.00011 0.999465 0.995887
1.00004 1.00354 0.991273
1.00019 0.999808 0.995486
1.00029 0.99741 0.997262
1.00023 1.00035 0.994903
1.0002 0.997972 0.99777
1.00013 0.998288 0.99853
0.999818 1.00163 0.993412
1.00029 1.00245 0.991878
0.999915 0.999497 0.998256
1.00037 1.00025 0.997549
1.00098 1.00268 0.990608
1.0006 1.00087 0.997151
1.00531 0.996746 0.989425
1.00532 0.99562 0.990769
1.00529 0.994898 0.991302
1.00518 0.994962 0.991565
1.00531 0.995499 0.990942
1.00518 0.998807 0.987646
1.00532 0.995584 0.990881
1.00519 0.994966 0.991613
1.00523 0.994959 0.991472
1.00522 0.994949 0.991403
1.0053 0.994954 0.990999
1.00528 0.994931 0.991039
1.0052 0.99496 0.991602
1.00523 0.994949 0.991494
1.00525 0.994953 0.991242
1.00527 0.994934 0.991336
1.00529 0.994858 0.990961
1.00532 0.994945 0.990923
1.00532 0.995657 0.990809
1.0053 0.996453 0.989905
1.00523 0.994954 0.991508
1.00531 0.994929 0.991101
1.00372 1.00422 0.984238
1.00525 1.00335 0.98275
1.00532 1.00057 0.984861
1.00525 0.995714 0.990231
1.00527 0.994918 0.990885
1.00528 0.995019 0.990621
1.00524 0.997034 0.988567
1.00528 0.995309 0.99038
1.00421 1.00452 0.983083
1.00409 1.00423 0.983136
1.00183 1.00421 0.987612
1.00283 1.00189 0.98786
1.00522 0.99496 0.9916
1.00526 0.994949 0.991276
1.00523 0.994945 0.991403
1.00528 0.994927 0.990982
1.00507 1.00418 0.982304
1.00529 1.00221 0.983448
1.00528 0.999357 0.9861
1.00529 0.9949 0.990862
1.00534 0.994894 0.990724
1.00523 0.996535 0.989097
1.00531 0.994882 0.990585
1.00529 0.995158 0.990449
1.00521 1.00413 0.982094
1.00465 1.00462 0.982807
1.0036 1.00112 0.98792
1.00106 1.0048 0.988099
1.00277 1.00345 0.986415
1.00524 0.994946 0.99143
1.00526 0.994927 0.991231
1.00533 0.994887 0.990743
1.00532 0.994884 0.990664
1.00521 1.00372 0.982353
1.0053 0.994872 0.990534
1.00521 1.00141 0.983852
1.00523 0.998805 0.986679
1.00528 0.995925 0.989335
1.00008 1.00427 0.990129
1.00193 1.00507 0.986963
1.00419 1.00378 0.986035
1.00509 1.00426 0.982393
1.00451 1.00178 0.985066
1.00452 1.00485 0.982743
1.00028 1.00104 0.993343
1.00081 1.005 0.988302
1.00529 0.995406 0.990444
1.00223 1.00228 0.988023
1.00429 1.00296 0.985748
1.00444 1.00021 0.986901
1.00529 0.996985 0.988683
1.00529 0.995281 0.99025
1.00515 1.00323 0.983129
1.00519 0.99988 0.986473
1.00536 0.996927 0.988506
1.00079 1.0045 0.989207
1.00127 1.00512 0.987799
1.00419 1.00366 0.984001
1.00392 1.00024 0.988072
1.00461 1.00191 0.985426
1.00531 0.994869 0.99075
1.00531 0.995866 0.989551
1.00526 0.995103 0.990261
1.00496 1.00161 0.984698
1.00519 0.998536 0.987036
1.00121 1.00503 0.988549
1.00124 1.00416 0.987945
1.00442 1.00313 0.984315
1.00346 1.00168 0.986041
1.00517 1.00216 0.984898
1.00532 0.994815 0.990647
1.00532 0.996316 0.988844
1.00536 0.995307 0.989582
1.00505 1.00051 0.985739
1.00508 0.999173 0.986679
1.00029 1.00417 0.99024
1.00055 1.00498 0.989203
0.999601 1.00412 0.991044
0.999633 1.00494 0.989858
0.999856 1.00453 0.990617
0.999639 1.00479 0.990509
1.00002 1.00301 0.991881
0.999491 1.00501 0.990539
0.999845 1.00408 0.991194
0.999986 1.00223 0.992704
0.999988 1.00223 0.99266
1.00003 0.999297 0.996152
0.999916 1.00272 0.992177
1.00012 0.999415 0.995942
1.00021 0.997232 0.997564
1.00022 0.999679 0.99557
1.00024 0.99752 0.997238
1.00005 0.998026 0.998697
0.999858 1.00038 0.994615
0.999913 1.00159 0.993364
0.999793 0.998712 0.998669
1.00047 1.00229 0.991916
1.00009 0.999703 0.998053
1.00046 1.00046 0.997407
1.0053 0.994936 0.991033
1.00522 0.994958 0.991474
1.00528 0.994928 0.991049
1.00522 0.994944 0.991375
1.00519 0.994968 0.991613
1.00531 0.995581 0.990882
1.00521 0.994959 0.991621
1.00523 0.994953 0.991497
1.00524 0.994956 0.991266
1.00527 0.99493 0.99131
1.00531 0.994855 0.990968
1.00531 0.994942 0.990898
1.00524 0.994949 0.991459
1.00528 0.994928 0.99139
1.00529 0.994926 0.991186
1.00535 0.994891 0.990682
1.00522 0.994959 0.991599
1.00526 0.994943 0.991311
1.00522 0.994949 0.991378
1.00528 0.994928 0.990983
1.00491 1.0041 0.98234
1.00528 1.00243 0.983305
1.00527 0.999385 0.986076
1.00529 0.994908 0.990886
1.00534 0.994888 0.990699
1.00531 0.994884 0.990574
1.00526 0.996429 0.989105
1.00527 0.995139 0.99058
1.00506 1.00434 0.98214
1.00436 1.00441 0.982661
1.00418 1.00158 0.987941
1.00094 1.00459 0.988311
1.00241 1.00407 0.986293
1.00523 0.994946 0.991423
1.00527 0.99493 0.991232
1.00533 0.99489 0.990756
1.00519 1.00381 0.982391
1.00516 1.00168 0.983776
1.00525 0.998655 0.986687
1.00532 0.994883 0.990675
1.00528 0.995846 0.989542
1.0053 0.994876 0.990532
0.99999 1.00392 0.9904
1.00476 1.00442 0.982434
1.00432 1.00486 0.98253
1.00444 1.00243 0.985095
1.00405 1.00292 0.986034
1.00161 1.00507 0.98702
1.00527 0.994932 0.991339
1.00531 0.994909 0.990996
1.00534 0.994873 0.990614
1.0053 0.994843 0.990553
1.00489 1.00375 0.982917
1.00526 0.995 0.990378
1.00507 1.00116 0.984557
1.00524 0.998015 0.987113
0.999928 1.00256 0.99195
1.00062 1.00511 0.989086
1.00276 1.0048 0.986803
1.00346 1.00369 0.984958
1.00448 1.00416 0.984103
1.00487 1.00478 0.982096
1.00065 1.00463 0.989194
1.0007 1.0051 0.987794
1.00529 0.994865 0.990778
1.00396 0.999824 0.988188
1.0047 1.00387 0.983355
1.00399 1.00228 0.985148
1.00534 0.995896 0.989527
1.00529 0.995113 0.990184
1.00505 1.0016 0.98484
1.00517 0.998691 0.986953
1.0009 1.00499 0.988569
1.00177 1.00413 0.98772
1.00434 1.00331 0.984221
1.0041 1.0023 0.985988
1.00511 1.00246 0.984536
1.00533 0.994812 0.99064
1.00533 0.996175 0.989113
1.00536 0.995423 0.989683
1.00507 1.00042 0.985681
1.00504 0.999498 0.986411
0.999547 1.00482 0.98925
1.00051 1.00381 0.988217
1.00486 1.00144 0.985387
1.0048 1.00182 0.98521
1.00539 0.994807 0.990422
1.00538 0.994851 0.990312
1.00525 0.997996 0.987208
1.0051 0.999883 0.985799
1.00086 1.00491 0.989082
0.999717 1.00451 0.990803
0.998445 1.00418 0.99369
0.999563 1.0048 0.990602
0.998773 1.0051 0.990714
0.999862 1.00407 0.991156
0.9996 1.00333 0.992292
0.99956 1.00507 0.99055
0.999705 1.00042 0.994943
0.999526 1.0047 0.991024
0.999439 1.00487 0.990478
1.00005 1.00392 0.991018
0.999956 1.00239 0.992534
0.999952 1.00224 0.992687
0.999938 0.999286 0.996274
0.999959 1.00224 0.992662
1.00005 0.999254 0.996168
1.00012 0.99723 0.99767
1.00013 0.999335 0.995996
1.00019 0.997271 0.997546
1.00017 0.99763 0.997204
1.00002 0.999526 0.995247
0.999881 1.00051 0.99454
0.999791 0.998058 0.998872
0.999947 1.00163 0.993313
0.999861 0.998837 0.998544
1.00029 0.999677 0.997826
1.00532 0.994852 0.990975
1.00524 0.99496 0.991289
1.0053 0.994939 0.990872
1.00527 0.994927 0.991284
1.00522 0.994958 0.991501
1.00521 0.994958 0.99164
1.00524 0.994948 0.991474
1.00528 0.994929 0.99138
1.00529 0.994929 0.991145
1.00534 0.99489 0.9907
1.00528 0.99493 0.991398
1.00527 0.994902 0.99132
1.00534 0.994914 0.990871
1.00523 0.994944 0.991415
1.00527 0.994932 0.991232
1.00533 0.994895 0.990768
1.00524 1.00374 0.982436
1.00518 1.00193 0.983697
1.00527 0.998496 0.986694
1.00532 0.994881 0.990685
1.0053 0.994872 0.99053
1.00527 0.995758 0.989751
1.00454 1.00458 0.982474
1.00493 1.0046 0.982333
1.00456 1.00332 0.98514
1.00011 1.00379 0.990673
1.00401 1.00259 0.986029
1.0013 1.00511 0.987062
1.00528 0.994929 0.991353
1.00532 0.994905 0.990957
1.00534 0.994877 0.990619
1.00503 1.00358 0.982894
1.00502 1.00114 0.984583
1.00524 0.997801 0.987442
1.00531 0.994845 0.990523
1.00525 0.995026 0.990331
0.99991 1.00269 0.992155
1.00053 1.00511 0.989065
1.00418 1.00359 0.98393
1.00461 1.0046 0.982808
1.00398 1.00344 0.985088
1.00234 1.00501 0.98669
1.00529 0.994905 0.991274
1.00537 0.994866 0.990635
1.00534 0.994837 0.990524
1.00525 0.99486 0.990326
1.00414 1.00261 0.984561
1.00522 0.995752 0.989489
1.00492 1.00043 0.985608
1.00014 1.00165 0.993085
1.0002 1.00299 0.991823
0.999477 1.00452 0.990937
1.00133 1.00507 0.987921
1.00209 1.00487 0.986427
1.00401 1.0049 0.983791
1.00278 1.00392 0.986204
1.00351 1.00407 0.986163
1.0006 1.00503 0.988591
1.00245 1.0041 0.987494
1.00534 0.994812 0.990632
1.00471 1.00141 0.985938
1.00429 1.00346 0.984129
1.00521 1.00268 0.984181
1.00534 0.996019 0.989382
1.00535 0.995551 0.989785
1.00507 1.00029 0.985621
1.00497 0.999787 0.986144
1.00039 1.00466 0.988999
1.00173 1.00404 0.987781
1.00487 1.0015 0.985134
1.00491 1.00188 0.985225
1.0054 0.994804 0.990413
1.00541 0.994878 0.99027
1.00518 0.997856 0.987376
1.0051 1.00005 0.985852
0.998817 1.00487 0.99114
1.00545 0.994873 0.990482
1.00311 1.00334 0.987436
1.00497 1.00092 0.985406
1.00534 0.994672 0.990823
1.00502 0.997195 0.987323
1.00505 1.00078 0.985567
0.999642 1.00472 0.990564
0.998539 1.00351 0.993713
0.997402 1.00261 0.996458
0.999811 1.00393 0.991117
0.99952 1.00509 0.990559
0.998145 1.00452 0.992712
1.00006 1.00378 0.991001
0.999523 1.0049 0.990533
0.998417 1.00175 0.995361
0.999732 1.00456 0.99091
0.999102 0.999894 0.997437
0.998318 1.00339 0.993717
0.999428 1.00509 0.990679
1.00038 1.00472 0.989537
1.00027 1.00388 0.99057
0.999975 1.00247 0.99245
0.999907 1.0025 0.992512
0.999819 0.999404 0.996385
0.999893 1.00236 0.99267
0.999952 0.999313 0.99628
0.999995 0.997398 0.997762
1.00007 0.999209 0.996189
1.00012 0.997278 0.997666
1.00018 0.997324 0.997522
1.00008 1.0014 0.99342
1.00001 0.999125 0.995653
0.99998 0.999646 0.995208
0.999869 0.997767 0.998968
0.999908 1.00049 0.994467
0.999828 0.998256 0.998828
0.999986 0.99902 0.998398
1.00532 0.994889 0.990719
1.00528 0.994931 0.991105
1.00527 0.994932 0.99137
1.00524 0.994949 0.99149
1.00529 0.994929 0.991394
1.00528 0.994904 0.991321
1.00533 0.994909 0.990817
1.00528 0.994902 0.991355
1.00536 0.994864 0.991209
1.00558 0.994917 0.991038
1.00528 0.994928 0.991368
1.00532 0.994902 0.990918
1.00534 0.994882 0.990624
1.00493 1.00341 0.982876
1.00491 1.00122 0.984629
1.00526 0.99757 0.98776
1.00531 0.994848 0.990491
1.00524 0.995069 0.990285
1.00369 1.0044 0.983753
1.00412 1.00454 0.983478
1.00363 1.00282 0.985213
0.999948 1.00258 0.992362
1.00022 1.00511 0.989042
1.00217 1.00499 0.986576
1.00529 0.9949 0.99125
1.00016 1.00155 0.99307
1.00015 1.00287 0.991665
1.00537 0.994871 0.990644
1.00534 0.994845 0.990536
1.0044 1.00292 0.984544
1.00497 0.999998 0.985983
1.00521 0.995756 0.989425
1.00525 0.994865 0.990267
0.99973 1.00432 0.991063
1.00126 1.00507 0.987855
1.00279 1.00426 0.985982
1.00407 1.00336 0.984928
1.00379 1.00471 0.983869
1.00198 1.00447 0.986546
1.00538 0.994834 0.991041
1.00539 0.994904 0.990416
1.00532 0.994823 0.990454
1.00521 0.995133 0.990059
1.00311 1.00206 0.987202
1.00501 0.998216 0.988226
1.00023 1.00284 0.991499
0.999848 1.00302 0.99204
1.0019 1.00166 0.991041
1.00067 1.00425 0.989318
1.00185 1.00503 0.987166
1.00262 1.00306 0.98699
1.00196 1.00409 0.985503
1.00116 1.00056 0.992563
1.00073 1.00458 0.988753
1.00302 1.00447 0.987336
1.0054 0.9948 0.990404
1.00545 0.994894 0.990229
1.00495 1.00234 0.985234
1.00488 1.00159 0.984876
1.00513 0.99772 0.987545
1.00511 1.00023 0.985909
0.999456 1.00439 0.991029
1.00545 0.994861 0.990713
1.00222 1.00358 0.988093
1.0049 1.00101 0.985364
1.00535 0.994696 0.990858
1.00511 0.997313 0.98753
1.00496 1.00059 0.985535
0.998723 1.00506 0.992786
1.00498 0.99474 0.990605
1.00212 1.0031 0.988062
1.00442 1.00219 0.98453
1.00514 0.995678 0.990254
1.00353 1.001 0.986626
0.999204 0.994671 0.984057
0.998552 1.00334 0.993726
0.997572 1.00231 0.996469
0.997334 1.0017 0.997529
0.999993 1.00381 0.990982
0.999432 1.00499 0.990591
1.00029 1.00432 0.990797
0.99778 1.00197 0.995797
1.00019 1.00398 0.990571
1.0002 1.0047 0.989752
0.998705 0.999325 0.997779
0.9994 1.00505 0.990656
0.998828 1.00354 0.993248
0.997343 1.00253 0.996996
1.00004 1.00394 0.991039
0.999834 1.00498 0.990488
1.00079 1.00439 0.989449
1.00025 1.00415 0.990099
1.00041 1.00502 0.989773
1.00005 1.00432 0.990175
0.999917 1.00247 0.992486
0.999929 1.00252 0.992437
0.9997 0.999412 0.995873
0.999907 1.00246 0.992491
0.999799 0.999427 0.996067
0.999978 0.997452 0.999082
0.99996 0.999343 0.996288
1.00002 0.997373 0.997756
1.00014 0.997316 0.997655
0.99999 1.00103 0.993838
1.00012 1.00127 0.993454
1.00006 0.998726 0.996039
1.00001 0.999147 0.995961
0.999884 0.997498 0.999066
0.999927 0.999846 0.995168
0.999859 0.997798 0.998948
0.999867 0.998292 0.99877
1.00532 0.994905 0.990763
1.00528 0.994905 0.991323
1.00529 0.994926 0.99139
1.00528 0.994896 0.991358
1.00534 0.99487 0.991163
1.00561 0.995047 0.990887
1.00543 0.994844 0.991239
1.00102 0.994809 0.980586
1.00513 0.995165 0.990945
1.00018 1.00226 0.992345
1.00529 0.994894 0.991226
1.00538 0.994871 0.990653
1.00533 0.994853 0.990549
1.00451 1.00258 0.984507
1.00501 0.999605 0.986342
1.0052 0.99562 0.989345
1.00526 0.994872 0.990209
1.00327 1.00353 0.985822
1.00473 1.00334 0.983776
1.00412 1.00451 0.983935
1.00015 1.00157 0.993057
1.0025 1.00456 0.986656
0.999874 1.00426 0.991174
1.00118 1.00507 0.987794
1 1.00287 0.991516
1.00539 0.994854 0.991028
1.00022 1.00273 0.991733
0.999902 1.00303 0.992111
1.00107 1.00204 0.991444
1.00539 0.994877 0.990412
1.00529 0.994832 0.990413
1.0026 1.00266 0.98731
1.00487 0.997593 0.988532
1.00523 0.995023 0.990039
1.00065 1.00414 0.989421
1.00197 1.00489 0.987233
1.00208 1.00088 0.991271
1.00303 1.00483 0.985209
1.00325 1.00315 0.98703
1.00544 0.994779 0.990903
1.00533 0.994827 0.990547
1.00526 0.994883 0.990056
1.00501 0.996785 0.990352
1.00182 0.999651 0.991208
0.999854 1.00302 0.991729
1.00206 1.00162 0.990207
1.00054 1.00152 0.991729
1.00145 1.00428 0.989073
1.00141 1.00362 0.9891
1.00098 1.00302 0.989012
1.00141 0.999029 0.993655
1.00074 1.00376 0.990872
1.00117 1.00387 0.988767
1.00544 0.994873 0.990936
1.00536 0.994719 0.990881
1.00518 0.997401 0.987738
1.00484 1.00111 0.985321
1.00482 1.0004 0.985514
0.998795 1.00476 0.99347
1.00461 0.994766 0.990823
1.00214 1.00328 0.988021
1.00457 1.00216 0.984515
1.00497 0.995574 0.990569
1.00388 1.00089 0.986706
0.998984 0.994718 0.982351
0.997705 1.00483 0.993897
1.00377 0.994723 0.990841
1.00257 1.00324 0.986195
1.00305 1.00051 0.987755
1.00349 0.997594 0.990637
0.999966 0.994892 0.939324
0.99493 0.994784 0.96127
0.996177 0.997801 0.987232
0.997152 0.994788 0.849767
0.994703 0.994905 0.809521
0.99803 1.00197 0.996487
0.997285 1.00207 0.997636
0.996552 1.00342 0.997425
1.00018 1.00402 0.990574
1.00013 1.00463 0.989966
0.999493 1.00507 0.990634
0.999195 1.00381 0.992748
0.998466 0.999192 0.99811
0.999641 1.00501 0.990634
1.00033 1.0041 0.990167
1.00067 1.00451 0.989387
0.997825 1.00167 0.996716
0.999524 1.00429 0.991458
1.00023 1.00393 0.991769
0.997807 1.00408 0.994206
0.999477 1.0048 0.991191
1.0006 1.00465 0.988925
1.00017 1.00425 0.990197
1.00003 1.00485 0.989824
1.00025 1.00375 0.991233
0.999613 1.00505 0.990745
1.00013 1.00501 0.989843
1.00011 1.00435 0.99039
1.00008 1.00431 0.990179
0.999891 1.00257 0.992474
0.999921 1.00251 0.992495
0.999676 0.999424 0.995933
0.999878 1.00263 0.992423
0.999684 0.999454 0.995875
0.999936 0.99744 0.999116
0.99977 0.999468 0.995753
0.999935 0.997456 0.998461
1.00005 0.997355 0.997746
0.999876 1.00076 0.994262
0.999982 1.00108 0.993844
1.00008 0.998433 0.996332
1.00017 1.00113 0.993486
1.00006 0.998694 0.996345
0.999928 0.997123 0.999153
1.00004 0.99924 0.995566
0.999898 0.99761 0.999022
0.999866 0.997928 0.99893
1.00533 0.994878 0.991118
1.00528 0.994891 0.991361
1.00565 0.994889 0.990737
1.00017 0.994796 0.980729
1.00545 0.994853 0.991186
1.00512 0.994872 0.990934
1.00548 0.994734 0.991211
0.995742 0.994887 0.962405
1.00259 0.994854 0.980821
1.00024 1.00181 0.992752
1.00021 1.00231 0.992313
0.999575 1.00378 0.991631
0.999902 1.00278 0.992158
1.00539 0.994866 0.991015
1.00539 0.994858 0.990407
1.00526 0.994831 0.990373
1.00365 1.00289 0.987414
1.00491 0.996319 0.988877
1.00523 0.994934 0.990035
1.0021 1.00026 0.98991
1.00419 1.00492 0.984917
1.0028 1.00247 0.987078
0.999929 1.00295 0.992181
1.00187 1.00432 0.987324
1.00069 1.0043 0.989524
1.00015 1.00273 0.991961
1.00041 1.00226 0.991845
1.00545 0.994764 0.990894
1.00005 1.00333 0.991406
1.00185 1.00131 0.990703
0.99815 1.00217 0.994744
1.00535 0.994841 0.990491
1.00525 0.994882 0.990058
1.00304 0.998551 0.991275
1.00477 0.996353 0.99028
1.00166 1.00458 0.988381
1.00124 1.00337 0.988304
1.0012 0.999529 0.993653
1.0024 1.00307 0.98849
1.00415 0.996008 0.990732
1.00523 0.995035 0.990641
1.00494 0.99613 0.98983
1.00359 0.995839 0.993379
0.997277 1.00492 0.994141
1.00244 1.00244 0.98845
0.998525 1.00359 0.993847
0.998786 1.00373 0.993042
1.00001 0.994957 0.924645
0.99844 1.00453 0.994188
1.00185 1.00353 0.987963
1.00416 0.99474 0.991077
1.00475 0.995514 0.990878
1.00421 1.00079 0.986756
1.00461 1.00224 0.984484
0.998926 0.994847 0.980442
0.998003 1.00452 0.994016
1.0034 0.994786 0.990707
1.00258 1.00395 0.986127
1.00366 1.00032 0.987914
1.00375 0.997985 0.990411
0.999765 0.994876 0.925154
0.995462 0.994812 0.958048
0.996252 0.997276 0.987643
0.997155 0.994756 0.854217
0.994733 0.994973 0.803036
0.998269 1.00461 0.992704
0.999194 0.99481 0.859422
0.994751 0.994855 0.79984
1.00098 0.997791 0.992712
1.00139 1.00149 0.990385
1.00139 0.999894 0.992911
0.994843 0.99693 0.990978
0.997417 0.994765 0.939008
0.994875 0.994773 0.95431
0.99507 0.994762 0.875975
0.994741 0.994842 0.787381
0.996987 1.00221 0.997746
0.996575 1.00329 0.99732
0.996308 1.00516 0.996502
1.00045 1.00398 0.990231
1.00063 1.00458 0.989326
0.999083 1.00505 0.990779
0.999175 1.00458 0.991876
0.998262 1.0008 0.996455
1.00029 1.00409 0.990178
0.999901 1.00423 0.991432
0.999394 1.00491 0.990859
1.00081 1.00468 0.989061
0.997847 1.00369 0.994431
0.998796 1.00369 0.993858
0.996489 1.00505 0.995159
0.999673 1.00504 0.990064
1.0005 1.00469 0.989505
1.00027 1.00483 0.989791
0.999957 1.00333 0.991671
0.999596 1.0048 0.991049
1.00023 1.00258 0.992209
0.998839 1.00204 0.994068
0.998237 1.00473 0.992488
0.999063 1.00504 0.991037
0.999612 1.00495 0.990774
0.99997 1.00465 0.990169
0.999904 1.00499 0.989915
1.00019 1.00429 0.990297
0.99996 1.00267 0.992284
1.00015 1.00429 0.990182
0.999914 1.00251 0.992491
0.99989 0.999377 0.996367
0.999867 1.00256 0.992503
0.99974 0.999379 0.99619
0.999902 0.997388 0.997957
0.999672 0.999448 0.995874
0.999926 0.997456 0.999126
0.999921 0.9975 0.997836
1.00029 1.00195 0.992531
0.999887 1.00059 0.994447
0.999888 1.0008 0.994253
1.00003 0.998335 0.996491
0.999955 1.00116 0.99385
1.00008 0.998419 0.996326
0.999971 0.996955 0.999202
1.00006 0.99872 0.996584
0.999927 0.9973 0.998521
0.999909 0.99761 0.997721
0.999612 0.994809 0.980837
1.00547 0.994845 0.991131
1.00505 0.994902 0.990921
0.996194 0.994819 0.962786
1.0027 0.994857 0.981212
1.00548 0.995017 0.99121
1.00359 0.99517 0.985967
0.998084 0.994786 0.96423
0.999661 0.994844 0.938794
0.996874 0.994793 0.876513
0.994685 0.994841 0.807932
0.999592 1.00284 0.992377
1.00024 1.00181 0.992736
1.00031 1.00222 0.992275
0.999811 1.00324 0.991963
0.998517 1.00479 0.992883
1.0004 1.00288 0.991464
1.00016 1.00374 0.991125
1.00019 1.00254 0.992071
1.00547 0.994802 0.990877
1.00535 0.994864 0.990443
1.00528 0.99495 0.990059
1.00304 0.99912 0.991352
1.00452 0.996571 0.990188
1.00106 0.999569 0.993648
1.00377 1.0031 0.987977
1.00273 1.00367 0.987505
1.00156 1.00109 0.991191
1.00182 1.00461 0.987639
1.00032 1.00352 0.991097
0.996418 1.00318 0.997585
1.00424 0.9953 0.99105
0.997583 1.00473 0.993993
1.00164 1.00257 0.990233
1.005 0.994879 0.990608
1.0045 0.99658 0.990132
1.00308 0.995923 0.993288
0.999834 1.00372 0.992005
0.999857 1.00238 0.993221
1.00319 0.995723 0.989807
1.00334 0.998616 0.990777
1.004 0.996815 0.991718
1.00098 0.997347 0.995325
0.998842 1.00493 0.991997
0.998112 1.00498 0.992834
0.998422 1.00456 0.993497
0.99981 0.995032 0.860565
1.00019 0.994881 0.940029
0.998848 1.0041 0.994146
1.00277 1.00449 0.986081
1.00306 0.994759 0.990554
1.00406 0.998328 0.990203
1.0041 1.00025 0.988113
0.999995 0.994853 0.937288
0.995864 0.994784 0.957564
0.996327 0.997144 0.988168
0.996705 0.994811 0.873876
0.994762 0.994853 0.796133
0.9986 1.00464 0.992661
0.999834 0.994867 0.857231
0.994714 0.994829 0.793311
1.00102 0.997773 0.992567
1.00137 1.00181 0.990412
1.00128 0.999976 0.993328
0.994851 0.998226 0.991814
0.997203 0.994765 0.932175
0.994865 0.994795 0.954562
0.994774 0.99478 0.875546
0.994764 0.99486 0.785361
0.997339 1.00507 0.995132
0.994746 0.994786 0.787408
0.994741 0.99477 0.790033
0.996768 1.00163 0.997205
0.999475 1.00178 0.996162
0.994889 0.999151 0.988241
0.994892 0.99482 0.957755
0.994843 0.994737 0.927952
0.994766 0.994867 0.878712
0.994848 0.994873 0.796797
0.996773 1.00302 0.997221
0.99704 1.0049 0.996089
0.996204 1.0042 0.996829
1.00039 1.00398 0.990158
1.00087 1.00469 0.989198
0.99956 1.00506 0.990525
0.999399 1.00453 0.991097
0.997659 1.00334 0.994657
1.00052 1.00473 0.989473
0.998896 1.00345 0.993318
1.00001 1.00501 0.990079
0.996177 1.00492 0.995416
0.995825 1.00517 0.997393
0.998101 1.00472 0.993501
1.00033 1.00497 0.990212
1.00053 1.0045 0.98976
0.999751 1.0029 0.992099
0.999561 1.0046 0.991017
1.00038 1.00223 0.992114
0.998437 1.00252 0.994386
0.998496 1.00408 0.992546
0.997595 1.00511 0.993349
0.998426 1.0013 0.996083
0.999915 1.00202 0.993308
1.00357 0.999369 0.990679
0.998588 1.00472 0.991703
0.998604 1.00463 0.992505
0.999274 1.00508 0.990035
0.999253 1.00508 0.99109
1.00015 1.00486 0.989719
0.99943 1.00505 0.990802
1.00003 1.00463 0.990249
0.999997 1.00293 0.991828
1.00027 1.0043 0.990203
0.99997 1.00264 0.992293
1.00002 0.999401 0.996109
0.999922 1.00249 0.99251
0.999874 0.999364 0.996003
1.00003 0.997288 0.997795
0.999736 0.999372 0.995901
0.999956 0.997358 0.999139
0.999922 0.997439 0.999136
1.00036 1.00245 0.992252
0.999933 1.00078 0.994239
1.00022 1.00204 0.992545
1.00003 0.998258 0.996562
0.999891 1.00059 0.994439
0.999881 1.00084 0.994244
1.00004 0.998329 0.996479
0.999992 0.996867 0.999227
1.00006 0.998464 0.996847
0.999975 0.996973 0.998635
0.999943 0.997259 0.997981
0.999468 0.994877 0.844288
0.994739 0.994824 0.78634
0.996151 0.994829 0.963328
1.00233 0.994822 0.981744
1.00547 0.994792 0.991223
0.998199 0.994863 0.962751
1.0034 0.994705 0.98655
0.999865 0.994862 0.934346
0.996662 0.994744 0.85513
0.994728 0.994936 0.801798
0.997695 0.994748 0.971348
0.996912 0.994793 0.93998
0.995486 0.994776 0.875682
0.99479 0.994893 0.796963
0.999831 1.00379 0.991853
0.999818 1.00259 0.992464
1.00017 1.00194 0.992727
0.999934 1.00285 0.992302
0.998167 1.00429 0.993702
1.00031 1.00423 0.990169
0.999869 1.0036 0.991578
1.00073 1.00389 0.989741
1.00015 1.00371 0.990992
0.999783 1.00316 0.991973
1.00409 0.994782 0.99135
1.00487 0.994837 0.99057
1.00375 0.996947 0.990436
1.0024 0.995712 0.993195
1.00034 1.00232 0.993378
0.999754 1.00406 0.990215
1.00048 1.00246 0.992193
0.997755 1.00452 0.993797
1.00225 0.995382 0.990372
0.998849 1.00506 0.991746
0.997838 1.00495 0.993069
1.00306 0.998509 0.990678
1.00356 0.996649 0.991914
1.00068 0.997454 0.995726
0.998491 1.0045 0.993333
0.999692 0.995583 0.988865
1.00065 0.999478 0.994955
0.996973 1.0025 0.996773
0.998646 1.0046 0.991248
0.997456 1.00519 0.992725
0.997823 1.00486 0.993935
0.994721 0.994811 0.809442
0.999807 0.994878 0.866717
1.0001 0.994907 0.92492
0.998784 1.00489 0.992594
1.00163 1.00204 0.990394
1.00102 0.997446 0.992416
1.00107 0.999879 0.993747
0.999837 0.99496 0.872017
0.996975 0.994795 0.925602
0.99487 0.994796 0.954357
0.994868 0.998975 0.992488
0.995061 0.99478 0.859616
0.994691 0.99481 0.799825
0.994816 0.99502 0.801406
0.997416 1.0045 0.994806
0.994731 0.994802 0.797111
0.994764 0.994777 0.789362
0.996858 1.00005 0.997862
0.998969 1.00172 0.996073
0.994902 0.997761 0.990107
0.995084 0.994791 0.956136
0.995095 0.994765 0.939553
0.994701 0.99562 0.859083
0.99515 0.99488 0.806709
0.99652 1.00397 0.998451
0.994761 0.99481 0.797982
0.994809 0.99482 0.788774
0.994848 1.00242 0.999886
0.99497 0.996734 0.96583
0.994769 0.994823 0.936573
0.99491 0.994931 0.853658
0.995813 0.994895 0.821403
0.997681 1.00397 0.995648
0.996615 1.00434 0.997024
0.995537 1.00404 0.998462
1.00036 1.00479 0.989438
1.00017 1.00504 0.990097
0.998989 1.00315 0.992777
0.996058 1.00469 0.995676
0.99977 1.00499 0.990228
0.997863 1.00487 0.99349
0.995378 1.0049 0.997644
0.994838 1.00431 0.998706
0.995547 1.00504 0.997608
0.998597 1.00513 0.992993
0.999686 1.00468 0.990977
1.00046 1.00181 0.992024
0.997958 1.00308 0.994697
0.997731 1.00503 0.993417
0.999103 1.00381 0.992502
0.997779 1.00221 0.996097
0.997982 1.00352 0.994723
0.995506 1.00513 0.997655
1.00111 0.998748 0.995274
0.999447 1.00144 0.994212
1.00197 1.00014 0.991325
1.00472 0.999955 0.987898
1.00264 1.00126 0.990284
1.00268 0.998914 0.991768
0.999238 1.00451 0.991489
0.999476 1.00513 0.989522
0.999051 1.0045 0.992524
0.999898 1.00507 0.990044
1.0005 1.00487 0.989
0.999752 1.00488 0.991137
1.00027 1.00486 0.989709
1.00007 1.00358 0.991156
1.00015 1.00455 0.990331
1.00009 1.00297 0.991823
1.00017 0.999522 0.995798
1.00007 1.00248 0.992304
1.00002 0.999424 0.995708
1.00011 0.997375 0.997599
0.999879 0.999335 0.995704
1.00002 0.997294 0.998467
0.999971 0.997317 0.999121
1.00032 1.00329 0.991054
1.00007 1.00099 0.993851
1.00026 1.00248 0.992044
1.00004 0.998307 0.996492
0.999948 1.00071 0.994253
1.00024 1.0019 0.992561
1.00002 0.996805 0.999241
1.00002 0.998263 0.996561
0.999892 1.00063 0.994432
1.00005 0.998319 0.996467
0.999994 0.996893 0.999221
0.999968 0.996971 0.999194
0.994713 0.994767 0.786983
0.999516 0.994852 0.857603
0.994769 0.994778 0.788223
0.99475 0.994812 0.786958
0.998095 0.99487 0.961729
1.0031 0.994751 0.987127
0.999692 0.994813 0.929093
0.997702 0.994794 0.876271
0.994772 0.994847 0.7956
0.998218 0.994803 0.970264
0.997098 0.994773 0.925392
0.994906 0.994781 0.874512
0.994736 0.994866 0.78936
0.994903 0.994797 0.962405
0.995406 0.99471 0.926018
0.994823 0.996501 0.851518
0.994833 0.994882 0.799273
1.00066 1.00472 0.99021
0.99927 1.00383 0.992008
1.00001 1.00238 0.992546
0.997533 1.0038 0.994529
1.00096 1.00375 0.989463
1.00017 1.0042 0.990386
0.999336 1.0039 0.991698
1.0012 1.0033 0.98994
1.00077 1.00419 0.989737
1.00029 1.00341 0.990862
1.002 0.994806 0.990897
1.0027 0.998323 0.990599
1.00349 0.996356 0.992109
1.00015 0.997375 0.996128
0.999877 1.00446 0.993145
0.998099 1.00488 0.993308
0.998885 1.0051 0.9915
0.999647 1.00441 0.991051
0.999431 0.996516 0.989531
0.998438 1.00513 0.992409
0.998581 1.00467 0.99384
1.00036 0.999361 0.995216
0.998319 1.00125 0.996646
0.996033 1.00093 0.988645
0.996644 1.00063 1.00014
0.994991 1.00513 0.997216
0.997888 1.00471 0.99354
0.996614 1.00516 0.995069
0.994785 0.994799 0.804649
0.994718 0.994782 0.804749
0.999826 0.995009 0.847474
0.997642 1.00458 0.994542
0.998772 1.0012 0.995989
0.9971 0.999541 0.998518
0.994704 0.994785 0.794618
0.995121 0.994727 0.92742
0.995133 0.994793 0.955724
0.994896 0.996013 0.992397
0.994777 0.994911 0.879011
0.994777 0.994781 0.789652
0.995663 0.99487 0.808525
0.996557 1.0039 0.998615
0.994773 0.994816 0.800325
0.994796 0.99482 0.78997
0.994985 1.00229 0.998856
0.995029 0.995842 0.967632
0.994822 0.994993 0.924298
0.995529 0.994892 0.816417
0.995311 0.997951 0.862523
0.994844 1.00512 1.0003
0.994786 0.994833 0.787578
0.994861 0.994838 0.80265
0.994831 0.994869 0.799085
0.994804 0.999238 0.988642
0.994905 0.995725 0.939957
0.997732 0.994884 0.874236
0.996937 1.00504 0.99724
0.995682 1.00478 0.998191
0.995156 1.00526 0.998883
0.999603 1.00497 0.990249
0.997776 1.00508 0.993476
0.99496 1.0052 0.997893
0.998005 1.00513 0.993011
0.995626 1.00507 0.997596
0.994829 1.00512 0.998623
0.994838 1.00508 0.998886
0.995403 1.00505 0.997686
0.997537 1.00498 0.99351
0.999615 1.00362 0.992454
0.99733 1.00295 0.996109
0.995545 1.00483 0.997573
0.997623 1.00381 0.994716
0.998225 1.00105 0.997333
0.998224 0.998684 0.999107
1.00187 1.00028 0.990477
0.999057 1.00089 0.995051
1.00236 1.00003 0.990965
1.00441 1.00145 0.986285
1.00472 1.00267 0.98458
1.00437 0.999315 0.988958
1.00378 1.00011 0.987949
1.00165 1.00378 0.98867
1.0017 1.00165 0.990584
1.00169 0.998506 0.992827
0.999894 1.00431 0.991274
0.999957 1.00513 0.989428
1.00059 1.0051 0.988286
1.00047 1.00509 0.990058
1.00069 1.0049 0.988985
1.00028 1.00401 0.990365
1.00041 1.00474 0.989696
1.00016 1.00343 0.991144
1.00019 0.999865 0.995432
1.00006 1.00305 0.991817
1.00013 0.999593 0.995352
1.00023 0.997458 0.997373
1.00003 0.999433 0.995378
1.00011 0.997343 0.99833
1.00005 0.99729 0.999052
1.00071 1.00335 0.990182
1.00012 1.00147 0.992911
1.00044 1.00316 0.99106
1.00011 0.998425 0.996268
1.00007 1.00099 0.993667
1.00021 1.00251 0.991835
1.00004 0.996818 0.999221
1.00005 0.998276 0.996506
0.999986 1.00059 0.994266
1.00001 0.996838 0.999237
1.00001 0.99828 0.99656
0.999996 0.996882 0.999216
0.994816 0.99481 0.794859
0.994721 0.994812 0.801584
0.999448 0.994825 0.856286
1.00097 1.00313 0.99024
0.994792 0.994802 0.79446
0.99477 0.994781 0.788157
0.994785 0.994813 0.801558
0.998528 0.994822 0.969752
0.996888 0.994782 0.939697
0.99539 0.994907 0.857262
0.994703 0.994851 0.800254
0.995813 0.994802 0.960055
0.995271 0.994763 0.938206
0.994731 0.99504 0.855041
0.994851 0.994883 0.801865
0.994847 0.994789 0.954551
0.994767 0.994799 0.934559
0.996192 0.998012 0.866014
0.99546 0.9949 0.821633
0.99923 1.00439 0.991496
0.999906 1.00469 0.990353
0.999471 1.00355 0.992167
1.00118 1.0023 0.990673
1.00091 1.00408 0.98955
1.00007 1.00453 0.990602
1.00131 1.00334 0.989855
1.00081 1.00425 0.989735
0.99843 0.997344 0.990036
0.999662 0.999204 0.995393
0.999664 1.00451 0.990846
0.999755 0.999952 0.996526
0.998914 1.00446 0.993751
0.999129 1.00513 0.992082
0.998074 1.00443 0.993306
0.99563 1.00007 0.988974
0.997396 1.00507 0.994932
0.99628 1.00366 0.99746
0.995915 1.00082 1.00021
0.997126 1.00434 0.995266
0.994807 1.00104 0.986508
0.995258 1.00303 0.998646
0.995719 1.00494 0.997598
0.996787 1.00541 0.995925
0.994763 0.994812 0.792066
0.994783 0.994804 0.801425
0.994711 0.994758 0.799869
0.996591 1.00412 0.998754
0.995052 1.00139 0.99779
0.994788 0.994824 0.802467
0.994734 0.994813 0.938196
0.995208 0.995839 0.964664
0.995431 0.996602 0.860847
0.994791 0.99482 0.79091
0.99489 0.994896 0.811377
0.995047 1.00509 1.00012
0.994787 0.99483 0.787866
0.994866 0.994851 0.802095
0.994839 0.999886 0.992372
0.994853 0.994879 0.801789
0.994854 0.996698 0.932236
0.99646 0.997427 0.876039
0.995144 1.00379 0.997389
0.994839 0.994841 0.798251
0.994797 0.994812 0.796253
0.994793 0.99488 0.796595
0.99622 0.997974 0.865754
0.994877 1.0011 0.97184
0.995148 0.996967 0.925071
0.996161 1.00511 0.997935
0.9953 1.00522 0.998925
0.99481 1.00531 0.998183
0.997338 1.00514 0.993027
0.995035 1.00496 0.99759
0.994827 1.00515 0.99858
0.995229 1.00477 0.997665
0.994858 1.00493 0.998888
0.997466 1.00201 0.998873
0.995436 1.00462 0.997482
0.997027 1.00418 0.994747
0.997639 1.00145 0.997756
0.997856 1.0007 0.99516
0.99559 0.998748 1.00262
1.00144 0.999942 0.991801
1.00437 1.00444 0.982594
1.0043 1.00308 0.984357
1.00277 0.999857 0.990526
1.00423 1.00179 0.985803
1.00512 1.00232 0.984005
1.00513 1.00127 0.985596
1.00427 1.00249 0.984841
1.00357 1.00095 0.988305
1.00373 0.999902 0.988795
1.00305 1.0002 0.988026
1.00076 1.00514 0.987933
1.00115 1.00403 0.988838
1.00072 1.00203 0.990876
1.00047 1.00512 0.989334
1.00095 1.0051 0.988319
1.00047 1.00459 0.989372
1.00087 1.00505 0.988968
1.0004 1.00389 0.99036
1.00019 1.00023 0.994253
1.00038 1.00334 0.991137
1.00022 0.999916 0.99459
1.00014 0.997539 0.998811
1.0001 0.999742 0.994985
1.00018 0.997425 0.998171
1.00013 0.997317 0.99896
1.00061 1.00354 0.990162
1.00033 1.00207 0.992044
1.00063 1.00344 0.990378
1.00019 0.998674 0.995909
1.00023 1.00146 0.992805
1.00048 1.00314 0.991062
1.00008 0.996857 0.999167
1.00013 0.99838 0.996286
1.00008 1.00097 0.993483
1.00004 0.996806 0.999229
1.00006 0.998243 0.996521
1.00001 0.996861 0.999235
0.994789 0.994824 0.796733
0.99481 0.994808 0.795254
0.994712 0.994822 0.800934
1.00111 1.00307 0.990243
1.00031 1.00453 0.989655
1.00169 1.0014 0.99139
0.994866 0.994854 0.801587
0.9948 0.994803 0.795527
0.994773 0.99477 0.788244
0.996726 0.994789 0.960196
0.99482 0.994725 0.926073
0.994755 0.99611 0.877197
0.994839 0.994864 0.796087
0.994943 0.994785 0.955717
0.994783 0.995656 0.930384
0.996076 0.997274 0.86336
0.995278 0.994902 0.816481
0.994871 0.99489 0.954035
0.994867 0.995936 0.934408
0.997076 0.994905 0.874444
0.994849 0.994877 0.798403
0.9989 1.0027 0.993534
0.999867 1.00389 0.991282
0.99985 1.00451 0.990494
1.00116 1.00243 0.990594
1.00056 1.00454 0.989632
1.00137 1.00341 0.989771
0.995501 1.00011 0.989621
0.99574 1.0011 1.00039
0.998843 1.00348 0.993083
0.997985 1.00254 0.997603
0.998099 1.00467 0.994799
0.996703 1.00384 0.995859
0.996187 1.00516 0.995969
0.994776 1.00256 0.986426
0.995403 1.00516 0.997883
0.995014 1.00352 0.997957
0.995821 1.00477 0.997621
0.995267 0.999916 0.984743
0.995258 1.00515 0.994673
0.994827 1.00337 0.999178
0.994866 0.994845 0.791424
0.994771 0.994821 0.791088
0.994782 0.994803 0.798246
0.9951 1.00511 0.999908
0.994858 1.00008 0.987988
0.994783 0.994827 0.788165
0.994823 0.996899 0.931832
0.996297 0.994875 0.861128
0.994874 0.994848 0.801511
0.994838 0.994859 0.796132
0.995 1.00356 0.997904
0.994825 0.994841 0.797736
0.994813 0.994804 0.79743
0.99491 1.0009 0.969096
0.994725 0.99487 0.789351
0.995868 0.997613 0.862876
0.994836 0.996113 0.939053
0.99498 1.0052 0.988799
0.994785 0.994828 0.797875
0.994773 0.994791 0.789629
0.994681 0.99485 0.809206
0.994827 0.99608 0.850519
0.994879 0.996685 0.935285
0.994832 1.00133 0.963215
0.99517 1.0052 0.998908
0.994905 1.00528 0.998119
0.995433 1.00486 0.997558
0.995582 1.00449 0.997645
0.99489 1.005 0.99887
0.995987 1.00379 0.998757
0.99867 1.00028 0.998408
0.997034 1.00182 0.998154
1.00058 1.00031 0.994087
1.00203 1.00485 0.98658
1.00077 0.999687 0.99353
1.0042 1.00426 0.983532
1.00426 1.00382 0.98294
1.00501 1.00081 0.985127
1.0051 1.00159 0.984645
1.00426 1.00307 0.984288
1.00421 1.00211 0.985331
1.00519 1.00203 0.984212
1.00513 1.00214 0.984157
1.00491 1.0008 0.986288
1.00459 1.00137 0.985765
1.00367 1.00234 0.98511
1.00166 1.00395 0.98805
1.00316 1.00156 0.988183
1.00293 1.00054 0.988614
1.00068 1.0051 0.988459
1.00119 1.00514 0.987934
1.00067 1.00422 0.989005
1.00131 1.00509 0.988354
1.00073 1.00445 0.989386
1.00016 1.00093 0.993604
1.00064 1.00368 0.990353
1.00024 1.00025 0.99423
1.0002 0.997765 0.998739
1.00026 0.999885 0.994595
1.00023 0.997584 0.998003
1.00019 0.997476 0.998861
1.00123 1.00342 0.989702
1.00051 1.00244 0.991642
1.00086 1.00328 0.990166
1.00027 0.999013 0.995436
1.00033 1.00207 0.99213
1.00058 1.00347 0.990579
1.00011 0.996965 0.999086
1.0002 0.9986 0.995933
1.0003 1.00145 0.9927
1.00008 0.996848 0.999184
1.00013 0.998339 0.996305
1.00004 0.996829 0.999237
0.99483 0.994841 0.7966
0.99479 0.99484 0.797061
0.994811 0.994813 0.795612
0.999742 1.00521 0.989579
1.00158 1.0028 0.991251
1.00096 1.00303 0.990252
1.00039 1.00431 0.989546
1.00065 1.00173 0.991797
1.00039 1.00272 0.991176
0.999137 1.00143 0.994265
0.994827 0.994827 0.790382
0.994868 0.994856 0.801056
0.994801 0.994831 0.796591
0.994888 0.994905 0.811305
0.995485 0.994787 0.95458
0.994788 0.996443 0.924767
0.995967 0.994904 0.876902
0.994879 0.995248 0.953442
0.994874 0.998286 0.920787
0.996382 0.99737 0.875518
0.995042 0.994876 0.808135
0.995171 0.995834 0.957542
0.994862 0.998264 0.923081
0.994911 0.994911 0.854132
0.994758 0.994842 0.788813
0.996458 1.00442 0.996066
0.998626 1.0031 0.994106
0.999797 1.00426 0.991066
1.00103 1.00291 0.990524
0.994767 1.0019 0.986235
0.994754 1.00389 0.997222
0.996398 1.00442 0.996455
0.996548 1.00514 0.996023
0.995127 1.00518 0.998295
0.995282 1.00501 0.997561
0.995657 1.00369 0.999261
0.995328 1.00057 0.981621
0.995317 1.00518 0.994768
0.995731 1.00343 0.999076
0.995393 1.00221 0.977875
0.994729 1.00317 0.99932
0.994765 0.994827 0.793692
0.99485 0.994844 0.795628
0.994782 0.994838 0.790087
0.994877 1.00367 0.998407
0.994875 1.00095 0.972669
0.994813 0.994842 0.797253
0.994872 0.997624 0.926277
0.996031 0.994908 0.876606
0.994811 0.994833 0.798438
0.99469 0.994855 0.80001
0.99492 1.00506 0.989799
0.994796 0.994837 0.798244
0.994763 0.994795 0.789618
0.99482 1.00032 0.963329
0.994732 0.994854 0.803138
0.994723 0.99568 0.853594
0.994879 0.996967 0.922433
0.994853 1.00418 0.983985
0.994831 0.994813 0.795156
0.994724 0.994829 0.787756
0.994834 0.994771 0.87745
0.994767 0.994965 0.934842
0.994808 0.999909 0.957758
0.994938 1.00529 0.998524
0.995285 1.00465 0.997619
0.996446 1.003 0.997346
0.995014 1.00488 0.998645
0.996763 1.00287 0.99872
1.00112 1.00076 0.993573
1.00312 0.999885 0.993026
1.00282 1.00487 0.985693
1.00438 1.00221 0.984522
1.00381 1.00406 0.98447
1.00448 1.00377 0.982883
1.00473 1.00199 0.984474
1.00526 0.998352 0.986976
1.00512 1.00023 0.985885
1.005 1.00096 0.985129
1.00513 1.00154 0.984714
1.00505 1.00146 0.984631
1.00421 1.0031 0.984216
1.00517 1.00224 0.984056
1.0052 1.00214 0.984196
1.00514 1.00198 0.984313
1.0038 1.00164 0.987599
1.00417 1.00123 0.986676
1.00426 1.00133 0.985939
1.00109 1.00512 0.987614
1.00191 1.0038 0.988067
1.00265 1.00232 0.988064
1.0003 1.00157 0.992768
1.00092 1.00495 0.988494
1.00155 1.00512 0.987934
1.00085 1.0043 0.989399
1.00019 1.00093 0.993579
1.00017 0.998049 0.998619
1.00025 1.00029 0.994209
1.00021 0.997728 0.998712
1.00022 0.997524 0.998776
1.00051 1.00494 0.98991
1.0011 1.0051 0.988874
1.00081 1.00287 0.990734
1.00089 1.00389 0.989684
1.00026 0.999463 0.994987
1.00051 1.00246 0.991636
1.00096 1.00327 0.990171
1.00013 0.997209 0.998971
1.00025 0.999003 0.995459
1.00037 1.0021 0.992213
1.00011 0.996958 0.999111
1.00021 0.998565 0.995961
1.00008 0.996825 0.999202
0.994797 0.994846 0.789067
0.994824 0.994834 0.796115
0.994795 0.99483 0.797382
1.00017 1.00518 0.989459
1.00041 1.0022 0.991569
1.00185 1.00187 0.988272
0.998708 1.0038 0.991428
1.00182 1.00072 0.991931
1.00077 1.00431 0.989432
1.00006 1.00234 0.992208
1.0003 1.00369 0.991194
0.999671 1.00101 0.994712
0.99902 1.00362 0.99435
0.994757 0.994768 0.791102
0.994807 0.994831 0.791693
0.994869 0.994842 0.800495
0.995254 0.994868 0.809867
0.995915 0.994901 0.861146
0.99485 0.994884 0.952471
0.994835 0.996445 0.933467
0.99535 0.996112 0.953395
0.994877 0.996834 0.935537
0.995088 0.998106 0.863391
0.994775 0.994847 0.786809
0.994925 0.998278 0.956003
0.994822 0.997291 0.935285
0.994783 0.994887 0.878996
0.994718 0.994902 0.811238
0.998765 1.00023 0.99658
0.996156 1.00453 0.99651
0.998711 1.00284 0.994697
0.995271 1.00256 0.978133
0.995103 1.00516 0.994522
0.995029 1.00501 0.997465
0.994737 1.00437 0.999362
0.995524 1.00351 0.998958
0.994746 1.00229 0.999771
0.994851 1.00194 0.977997
0.99611 1.00123 1.00115
0.99489 1.00064 0.984684
0.994802 0.994817 0.804492
0.994788 0.994837 0.792663
0.994834 0.994836 0.799956
0.994961 1.00504 0.990121
0.994854 0.999925 0.961092
0.994814 0.994842 0.798618
0.99486 0.996828 0.934652
0.99475 0.995621 0.874678
0.994764 0.994773 0.789898
0.994777 0.994853 0.796934
0.995173 1.00478 0.984637
0.994817 0.994815 0.795364
0.994739 0.994823 0.788358
0.994926 0.998518 0.958856
0.994772 0.994779 0.875338
0.994803 0.995997 0.928196
0.995331 1.00249 0.98158
0.994713 0.994779 0.787784
0.996976 0.994799 0.877306
0.995085 0.994705 0.926447
0.994838 0.995013 0.959124
0.995436 1.00518 0.997718
0.99569 1.00392 0.997239
0.998035 1.00093 0.997479
0.994842 1.00519 0.999069
0.999785 1.00146 0.994637
1.00425 0.99679 0.991078
1.00377 1.00498 0.984783
1.00426 1.00231 0.984408
1.00472 0.999055 0.987075
1.00477 1.00384 0.982823
1.00476 1.00171 0.984543
1.00508 0.998191 0.987531
1.00533 0.995757 0.989314
1.00529 0.997947 0.987115
1.00526 0.998272 0.987025
1.00518 1.00021 0.985993
1.00512 1.00028 0.985818
1.00494 1.00105 0.985131
1.00516 1.00228 0.984032
1.00514 1.00144 0.984648
1.005 1.00135 0.984617
1.00504 1.00172 0.985351
1.00482 1.00257 0.984366
1.00521 1.00231 0.984179
1.00204 1.00396 0.987155
1.00329 1.00181 0.987523
1.00372 1.00152 0.98706
1.00043 1.00258 0.992667
1.00131 1.00512 0.987683
1.00209 1.00363 0.988085
1.00019 0.998702 0.996042
1.00035 1.00169 0.993197
1.00114 1.00485 0.988529
1.00025 1.00099 0.993551
1.00019 0.998177 0.998548
1.00022 0.997758 0.998682
1.00141 1.00346 0.988876
1.00157 1.00513 0.988136
0.999589 1.00496 0.9898
1.00078 1.00404 0.989682
1.00081 1.00479 0.988837
1.00019 0.999954 0.99458
1.00065 1.00314 0.990743
1.00066 1.0043 0.989659
1.00011 0.997517 0.998879
1.00027 0.999406 0.995012
1.00049 1.00247 0.991631
1.00012 0.997179 0.999007
1.00025 0.99895 0.99548
1.0001 0.996922 0.999136
0.994778 0.99482 0.804558
0.9948 0.994844 0.789413
0.994812 0.994851 0.79559
1.00339 1.00221 0.986321
1.00012 1.00497 0.989339
0.99988 1.00248 0.99195
1.00008 1.0047 0.990939
1.0031 1.00173 0.988358
1.00103 1.00107 0.993433
1.00392 1.00173 0.98713
0.996616 1.00455 0.994298
0.99958 1.00401 0.991212
0.999639 0.999625 0.995159
0.997741 1.00335 0.994315
0.998344 1.00284 0.994611
0.994761 0.994843 0.800803
0.994776 0.994775 0.790479
0.9948 0.994835 0.792734
0.994816 0.995497 0.802489
0.995192 0.99675 0.861842
0.994873 0.998319 0.923147
0.995731 0.99498 0.952747
0.995162 0.997775 0.956526
0.99474 0.995311 0.804528
0.994855 0.996733 0.926631
0.994732 0.996408 0.859458
0.994886 0.996504 0.961459
0.994779 0.995345 0.93731
0.994748 0.994839 0.877414
1.00004 0.995006 1.00095
0.998781 1.00087 0.996427
0.995628 1.00468 0.996923
0.994929 1.00166 0.978006
0.995605 1.00099 1.00016
0.995873 1.00321 0.99889
0.996681 1.0001 1.00151
0.994931 0.999633 0.9848
0.995765 0.998867 0.992428
0.994715 0.994803 0.80425
0.994795 0.994815 0.805062
0.994806 0.994837 0.791472
0.994924 1.00443 0.984809
0.994868 0.999847 0.958035
0.9948 0.994823 0.795825
0.994824 0.996034 0.92259
0.995072 0.994777 0.858663
0.994776 0.994828 0.802548
0.994979 1.00487 0.981301
0.994722 0.994823 0.802084
0.996674 0.994743 0.855818
0.994868 0.995352 0.954679
0.994986 0.994763 0.938628
0.99487 1.0007 0.990162
0.99958 0.9949 0.84418
0.996933 0.994792 0.940159
0.994877 0.994808 0.953272
0.994842 1.0051 0.997085
0.997314 1.00167 0.9973
1.00054 0.999423 0.993776
0.998652 1.00156 0.995692
1.00389 0.997175 0.990805
1.00482 0.996791 0.989694
1.0041 1.00231 0.984295
1.00471 0.998969 0.986963
1.00513 0.996069 0.989198
1.00474 1.0013 0.98462
1.00498 0.998124 0.987483
1.00536 0.995133 0.989949
1.00528 0.99495 0.990727
1.00532 0.995933 0.989232
1.00535 0.995741 0.989359
1.00533 0.997889 0.987198
1.00529 0.997913 0.987308
1.00525 0.998219 0.987071
1.00525 1.00096 0.98497
1.00519 1.00009 0.985916
1.00512 1.0003 0.98575
1.0052 1.00301 0.983417
1.00511 1.00235 0.98408
1.00515 1.00132 0.984581
1.00306 1.00306 0.986766
1.00437 1.00234 0.985303
1.00425 1.00295 0.984678
1.00089 1.0031 0.990275
1.00231 1.00393 0.987148
1.0029 1.00226 0.987439
0.999889 0.999814 0.998073
1.00058 1.00249 0.9914
1.00161 1.0051 0.987754
1.00021 0.998687 0.998303
1.00042 1.00167 0.992618
1.00022 0.998238 0.998466
1.00427 1.00167 0.987426
1.00202 1.00299 0.988587
1.00179 1.00456 0.987892
1.00102 1.00474 0.98886
1.00111 1.00515 0.988136
0.999925 1.00501 0.989692
1.00006 1.00086 0.993961
1.00071 1.0041 0.989692
1.00082 1.00435 0.988794
1.00009 0.99773 0.998783
1.00018 0.999956 0.994597
1.00045 1.00342 0.990748
1.0001 0.997459 0.998904
1.00027 0.99938 0.995031
1.00011 0.997129 0.999042
0.994741 0.994783 0.789557
0.994794 0.994821 0.804925
0.994807 0.994839 0.789815
1.0034 1.00273 0.986177
1.00468 1.00338 0.985512
1.00239 1.00376 0.98672
0.999835 1.00466 0.990446
1.004 1.00126 0.988458
0.998957 1.00028 0.994851
0.998235 1.00359 0.993817
1.00208 1.00232 0.988541
1.00151 1.00033 0.991897
0.998759 1.00005 0.996231
0.998433 1.00355 0.994252
0.99916 1.00328 0.994204
0.997328 0.9948 0.849954
0.994728 0.994831 0.794524
0.994786 0.994781 0.790747
0.994781 0.994856 0.797338
0.994772 0.995652 0.879218
0.994847 0.996148 0.922639
0.994853 0.996948 0.955167
0.994889 0.996886 0.958885
0.995157 0.994792 0.875417
0.994808 0.99553 0.924446
0.994854 0.997409 0.962785
0.995345 0.994717 0.926919
0.999195 0.995509 1.0039
0.999795 0.995175 1.00094
0.998449 1.00053 0.996418
0.994861 0.999314 0.985066
0.996825 0.999314 1.00187
0.996172 0.998973 0.991999
0.995735 0.996433 0.989968
0.99981 0.995378 0.859108
0.99471 0.994782 0.800999
0.994797 0.99482 0.805366
0.994841 1.00453 0.981791
0.994855 0.994877 0.952707
0.994715 0.994828 0.801239
0.994911 0.994723 0.927325
0.997057 0.994795 0.877159
0.994929 0.998523 0.986604
0.999547 0.994859 0.857722
0.996965 0.99478 0.925886
0.994856 0.994787 0.95423
0.995942 0.998484 0.986764
0.999651 0.994842 0.938902
0.994977 0.99482 0.960803
0.996337 1.00139 0.997148
0.999801 0.999547 0.993727
1.00325 0.998907 0.991355
1.00304 0.99825 0.990554
1.00456 0.996841 0.989604
1.00517 0.995624 0.989928
1.00475 0.998973 0.986853
1.00501 0.996484 0.98912
1.00535 0.994847 0.990136
1.00493 0.998113 0.987431
1.00536 0.995143 0.989896
1.00528 0.99484 0.990694
1.00532 0.994855 0.990774
1.00528 0.994941 0.990778
1.00527 0.995138 0.99072
1.00531 0.996397 0.989167
1.00533 0.995968 0.98938
1.00537 0.9957 0.989408
1.00535 0.998974 0.986559
1.00533 0.997951 0.987125
1.00529 0.99786 0.987502
1.00535 1.00241 0.983461
1.00526 1.001 0.984988
1.0052 1.00001 0.985839
1.00407 1.00308 0.985193
1.00504 1.00292 0.983514
1.00501 1.00242 0.98413
1.00125 1.00329 0.98939
1.00303 1.00306 0.98668
1.00385 1.00245 0.985263
1.00018 1.00026 0.997637
1.00103 1.0029 0.990289
1.00254 1.00383 0.987132
1.00008 0.999805 0.996712
1.00079 1.00233 0.991425
1.00024 0.998908 0.998156
1.00505 1.00225 0.985095
1.00337 1.00196 0.987279
1.00243 1.00301 0.987635
1.00214 1.00315 0.988299
1.00156 1.0047 0.987928
1.00107 1.00511 0.9884
1.00017 1.00153 0.993116
1.0008 1.00481 0.988837
1.00034 1.00512 0.988144
1.00008 0.998225 0.998581
1.00006 1.0007 0.993986
1.00073 1.00409 0.989703
1.00007 0.99777 0.998814
1.00015 0.999894 0.994635
1.00009 0.997423 0.99893
0.999149 0.994806 0.858776
0.99473 0.994788 0.795667
0.994802 0.99482 0.805396
1.00336 1.0029 0.986045
1.00305 1.0038 0.985681
1.00433 1.00367 0.985207
1.00463 1.00324 0.984369
1.00173 1.00248 0.98968
0.999591 1.00369 0.993379
1.0022 1.0027 0.989936
1.0013 1.00084 0.992226
1.00466 0.995563 0.990947
1.00191 0.998366 0.994302
1.00159 0.99771 0.995132
1.00033 0.99888 0.995866
1.00002 1.00177 0.99378
0.997429 0.994799 0.936721
0.997641 0.994776 0.854222
0.994693 0.994814 0.800773
0.995233 0.994808 0.860451
0.994785 0.995304 0.935506
0.994984 0.996338 0.960655
0.994842 0.996726 0.964478
0.995721 0.994766 0.939638
0.995733 0.99478 0.962684
0.99822 0.996616 1.00187
0.998164 0.996141 1.004
0.999755 0.996342 1.00081
0.996353 0.998345 0.991698
0.996908 0.996844 0.990366
1.00007 0.995048 0.924188
0.999812 0.994892 0.865634
0.994703 0.994763 0.797852
0.995065 0.998162 0.98266
0.994935 0.994767 0.953827
0.999565 0.994838 0.856612
0.996936 0.994792 0.939948
0.995781 0.99804 0.987034
0.999897 0.994863 0.934204
0.995581 0.994815 0.958623
1.00002 0.995309 0.985418
0.997621 0.994777 0.970044
0.999321 0.999273 0.993687
1.0024 0.997631 0.991377
1.0051 0.994924 0.991252
1.00466 0.996658 0.989503
1.00513 0.995516 0.989864
1.0053 0.994867 0.990408
1.00478 0.996822 0.989042
1.00535 0.994855 0.990097
1.00532 0.994862 0.990414
1.00535 0.995122 0.989841
1.00526 0.99485 0.990684
1.00534 0.994842 0.990604
1.0053 0.994846 0.990806
1.00534 0.99491 0.990739
1.00528 0.994941 0.990827
1.00527 0.995117 0.990727
1.00523 0.995542 0.990336
1.00531 0.997568 0.988213
1.00532 0.996438 0.989162
1.00533 0.996008 0.989527
1.00537 1.00123 0.984474
1.00537 0.999095 0.986357
1.00533 0.998013 0.987054
1.00495 1.00273 0.98388
1.00535 1.00238 0.983521
1.00526 1.00105 0.985005
1.00181 1.00336 0.988208
1.0037 1.00335 0.985221
1.0047 1.0031 0.98361
1.00053 1.00094 0.997185
1.00136 1.00317 0.989373
1.00296 1.00312 0.986602
1.00037 1.00047 0.997453
1.00112 1.00272 0.990308
1.00031 0.99983 0.997728
1.00507 1.00355 0.983772
1.00474 1.00187 0.985153
1.0033 1.00313 0.986303
1.00288 1.0019 0.987121
1.00216 1.0034 0.987602
1.00173 1.00453 0.987628
1.00117 1.00455 0.987958
1.00091 1.00513 0.988351
1.00043 1.00226 0.99209
1.00008 0.998811 0.998293
1.00003 1.00168 0.993124
1.00052 1.00499 0.988815
1.00004 0.99813 0.998658
1.00008 1.00067 0.993983
1.00004 0.997718 0.998842
0.99997 0.994873 0.9392
0.999838 0.994861 0.856778
0.99471 0.994771 0.789426
1.00295 1.0048 0.984631
1.00381 1.00359 0.984897
1.00297 1.00239 0.988557
1.00411 1.00324 0.984497
1.00519 0.999852 0.985952
1.00361 0.998628 0.988825
1.00085 1.0015 0.992526
1.00456 0.995454 0.990837
1.0019 0.997977 0.994353
1.00406 0.99642 0.990814
1.00255 0.99857 0.993015
1.00175 0.999036 0.994
1.00112 0.998319 0.995195
1.00047 0.99943 0.995517
0.995258 0.994787 0.961301
0.997626 0.994777 0.931878
0.996674 0.994821 0.873135
0.994808 0.994689 0.926579
0.994857 0.996691 0.964814
0.995643 0.99565 0.968345
0.999064 0.99481 0.991083
0.999434 0.996029 1.00092
0.997647 0.996594 1.00412
0.998525 0.998583 0.990839
0.997741 0.994789 0.963197
1.00014 0.994887 0.939509
0.999826 0.995354 0.846302
0.99546 0.998078 0.987468
0.996149 0.994805 0.958629
0.999515 0.994828 0.929001
0.999264 0.996665 0.985947
0.997789 0.9948 0.96904
1.00274 0.996745 0.987812
1.00329 0.994648 0.985306
1.00151 0.997098 0.991385
1.00456 0.994961 0.991303
1.00527 0.994836 0.990701
1.00503 0.995546 0.989802
1.0053 0.994862 0.99036
1.00537 0.994896 0.990407
1.00534 0.99486 0.990057
1.00533 0.994864 0.990411
1.00536 0.994889 0.990475
1.00525 0.994857 0.990675
1.00534 0.994843 0.990632
1.00537 0.994846 0.99065
1.00529 0.994837 0.990837
1.00533 0.994897 0.990741
1.00529 0.995171 0.99072
1.00527 0.995099 0.990733
1.00523 0.995518 0.990353
1.00527 0.99677 0.989175
1.00532 0.999812 0.986033
1.00531 0.997789 0.987902
1.00532 0.99648 0.989157
1.00534 1.00195 0.983971
1.00537 1.00128 0.984508
1.0054 0.999222 0.986155
1.00279 1.00272 0.987312
1.00467 1.00301 0.983899
1.00536 1.00237 0.983581
1.001 1.00124 0.996775
1.002 1.00325 0.98813
1.00336 1.00363 0.98525
1.00071 1.00099 0.997045
1.00145 1.00305 0.989358
1.00055 1.00062 0.997285
1.00525 1.00139 0.984704
1.00496 1.00314 0.983755
1.00451 1.00335 0.984113
1.00456 1.00199 0.985214
1.00358 1.00291 0.986
1.00299 1.00334 0.986455
1.00195 1.00414 0.987575
1.00171 1.00454 0.987624
1.00087 1.00274 0.990798
1.00068 1.00509 0.988313
1.00024 1.00238 0.992092
1.0001 0.999661 0.997906
1.00004 0.998751 0.998403
0.999925 1.00174 0.993142
1.00001 0.998092 0.998724
0.996022 0.994925 0.964471
0.999737 0.994898 0.923731
0.999842 0.995041 0.871452
1.00527 0.997726 0.987667
1.00451 1.00251 0.987456
1.00367 1.00321 0.984624
1.00421 0.998747 0.989133
1.00518 1 0.985959
1.00515 0.996534 0.989229
1.00479 0.996299 0.990723
1.00157 0.997767 0.994421
1.00459 0.996136 0.990836
1.00215 0.998582 0.992949
1.00392 0.997583 0.990149
1.0032 0.994833 0.99445
1.00163 0.997938 0.994154
1.00096 0.99854 0.995259
0.998482 0.994729 0.989823
0.995671 0.994779 0.959808
0.997487 0.994775 0.925535
0.9954 0.99599 0.969149
0.998815 0.994827 0.993753
0.999697 0.995652 0.999918
1.00242 0.995027 0.979786
0.998013 0.994878 0.962081
1.00016 0.994918 0.924269
0.998156 0.997369 0.986461
0.997874 0.994795 0.968505
1.0019 0.995749 0.988425
1.00294 0.994664 0.985784
1.00365 0.996702 0.990246
1.00551 0.994663 0.990799
1.00404 0.994893 0.991356
1.00526 0.994851 0.990674
1.00541 0.99487 0.990381
1.0053 0.994859 0.990314
1.00536 0.994893 0.990415
1.00538 0.994886 0.990463
1.00533 0.994869 0.990408
1.00535 0.994886 0.990481
1.00535 0.994896 0.990655
1.00534 0.994847 0.990661
1.00537 0.994845 0.990643
1.00531 0.994884 0.990867
1.00533 0.994888 0.990743
1.0053 0.995099 0.990741
1.00528 0.99573 0.990307
1.00524 0.995486 0.99037
1.00527 0.996599 0.989325
1.00531 0.999215 0.986841
1.00534 1.0013 0.984627
1.00532 1.00004 0.98579
1.00532 0.998007 0.987591
1.00328 1.00149 0.987703
1.00524 1.00208 0.983979
1.00538 1.00132 0.984542
1.00163 1.00128 0.996294
1.00293 1.0025 0.987285
1.00444 1.00319 0.983922
1.00121 1.00132 0.996561
1.00223 1.00315 0.988056
1.00087 1.0011 0.996883
1.00527 0.999511 0.986118
1.00523 1.00141 0.984657
1.00531 1.00224 0.983745
1.00478 1.0028 0.983743
1.00488 1.00316 0.983803
1.00344 1.00335 0.985772
1.00407 1.00234 0.985698
1.00288 1.00357 0.986492
1.00118 1.00312 0.989668
1.00162 1.00466 0.987587
1.0007 1.00292 0.990838
1.00024 1.00063 0.997461
1.00006 1.00252 0.992095
1.00003 0.999466 0.998059
0.999983 0.998613 0.9985
0.999644 0.995295 0.985878
0.996347 0.994879 0.960038
1.00004 0.994843 0.938904
1.00534 0.996021 0.989283
1.0053 0.99577 0.989583
1.00527 0.997405 0.987926
1.00481 0.998435 0.989436
1.00517 1.00015 0.985972
1.00517 0.996466 0.98938
1.00534 0.995069 0.989802
1.00487 0.995681 0.990865
1.00192 0.998406 0.992904
1.00385 0.997772 0.990698
1.00518 0.994821 0.990956
1.00365 0.994779 0.993113
1.00276 0.99489 0.994185
1.0019 0.99715 0.994315
0.999062 0.994688 0.989793
0.996114 0.994799 0.958684
0.998972 0.99482 0.996572
1.00494 0.994993 0.990204
1.00256 0.994985 0.979935
0.998057 0.99489 0.96138
1.00162 0.994808 0.988961
1.00263 0.994673 0.986278
1.00379 0.995767 0.990664
1.00548 0.994654 0.990859
1.00548 0.994729 0.990842
1.00555 0.994757 0.99112
1.00528 0.994869 0.990643
1.00543 0.994861 0.990385
1.00537 0.994845 0.990712
1.00534 0.994885 0.990423
1.00538 0.994883 0.990488
1.00532 0.99489 0.990748
1.00535 0.994882 0.990487
1.00536 0.994897 0.990654
1.00531 0.994904 0.990906
1.00537 0.994844 0.990636
1.00531 0.994883 0.990852
1.00529 0.995161 0.99082
1.0053 0.995019 0.990762
1.00528 0.9957 0.99026
1.00532 0.998401 0.987648
1.00528 0.996428 0.989475
1.00531 0.99908 0.986987
1.00531 1.00085 0.985212
1.00337 1.00075 0.988363
1.00534 1.00129 0.984647
1.00533 1.00028 0.985547
1.00197 1.00091 0.996197
1.0033 1.00151 0.987718
1.00504 1.00229 0.983981
1.00176 1.00124 0.996205
1.00308 1.00241 0.987247
1.00144 1.0014 0.996354
1.00533 0.997288 0.988148
1.00527 0.999322 0.986369
1.00538 1.00123 0.984704
1.0052 1.00141 0.984603
1.00533 1.00234 0.983658
1.00406 1.00289 0.985097
1.00525 1.00302 0.983493
1.00359 1.003 0.985782
1.00166 1.00353 0.988492
1.00291 1.00356 0.986546
1.00113 1.00325 0.98969
1.00048 1.00125 0.997078
1.0005 1.00306 0.990872
1.00011 1.00039 0.99763
0.999996 0.999338 0.998196
1.00402 0.99533 0.99191
0.999453 0.995193 0.983511
0.996388 0.99488 0.960385
1.00532 0.995206 0.99012
1.00532 0.995687 0.989533
1.0053 0.994979 0.990625
1.0053 0.995891 0.989537
1.00528 0.997093 0.988178
1.00541 0.994845 0.990276
1.0052 0.996601 0.989522
1.00531 0.995339 0.989796
1.00536 0.994776 0.990649
1.00385 0.997508 0.99124
1.00518 0.994859 0.990605
1.00316 0.994812 0.993368
1.00198 0.995131 0.993937
0.999356 0.994645 0.989489
1.00555 0.994782 0.991123
1.00506 0.995081 0.990189
1.00244 0.995029 0.980199
1.0038 0.994776 0.991069
1.00548 0.994663 0.990923
1.00547 0.994727 0.990824
1.00558 0.994789 0.991231
1.00538 0.994845 0.991251
1.00544 0.994855 0.990391
1.00537 0.994856 0.990715
1.00531 0.994892 0.99102
1.00539 0.994883 0.990512
1.00533 0.994893 0.990747
1.00528 0.994929 0.991026
1.00536 0.994897 0.990652
1.0053 0.994904 0.990907
1.00531 0.994932 0.991128
1.00532 0.994883 0.990836
1.00529 0.995171 0.990788
1.00532 0.997512 0.988592
1.00528 0.99567 0.990214
1.00531 0.998417 0.987662
1.00531 1.00042 0.985672
1.0053 0.998943 0.987134
1.00531 1.00082 0.985239
1.00331 1.00049 0.990522
1.00222 1.00004 0.992797
1.00336 1.0008 0.98927
1.00535 1.00128 0.984666
1.00189 1.00087 0.996283
1.00331 1.00137 0.987736
1.00176 1.0013 0.996185
1.00524 0.995024 0.990924
1.00529 0.995991 0.989732
1.00533 0.997243 0.988369
1.00533 1 0.985881
1.00528 0.999111 0.986621
1.00535 1.00125 0.984628
1.00489 1.00208 0.984416
1.00534 1.00239 0.983571
1.00434 1.00244 0.985049
1.0026 1.00301 0.987371
1.00377 1.00261 0.985793
1.00161 1.00358 0.988479
1.001 1.00182 0.996496
1.00106 1.0034 0.989726
1.00036 1.00111 0.997223
0.999991 1.00015 0.997801
1.00548 0.994825 0.990981
1.00384 0.995072 0.991482
0.999623 0.994912 0.981221
1.00532 0.994861 0.990664
1.00532 0.995242 0.990046
1.00531 0.995351 0.989796
1.00528 0.995111 0.990584
1.00531 0.996014 0.98949
1.00539 0.99485 0.990664
1.00539 0.99484 0.990249
1.00529 0.995496 0.989792
1.00532 0.994773 0.990701
1.00517 0.995006 0.990254
1.00291 0.994646 0.993608
1.0053 0.994862 0.991344
1.00553 0.994778 0.991147
1.00521 0.995054 0.990167
1.00543 0.994726 0.990795
1.00559 0.994811 0.991341
1.00539 0.994848 0.991214
1.00529 0.994909 0.991322
1.00537 0.994863 0.990719
1.00531 0.994896 0.990978
1.00525 0.99493 0.991223
1.00534 0.994896 0.990747
1.00528 0.994929 0.991028
1.00528 0.994919 0.991285
1.0053 0.994905 0.990908
1.00531 0.994933 0.991095
1.00532 0.996693 0.989527
1.00528 0.995184 0.990756
1.00533 0.997541 0.988593
1.00531 1.00006 0.986101
1.0053 0.998433 0.987676
1.00531 1.0004 0.985705
1.00338 1.00031 0.990616
1.00532 1.00079 0.985265
1.00355 1.00036 0.990372
1.00228 0.999709 0.992987
1.00188 1.00038 0.994708
1.00355 1.00081 0.989981
1.00184 1.0008 0.996355
1.00527 0.994883 0.990967
1.00526 0.995798 0.990183
1.00523 0.995002 0.990982
1.00529 0.998808 0.987148
1.00529 0.996006 0.989786
1.00533 0.997213 0.988591
1.00532 0.999982 0.985848
1.0053 1.00125 0.984737
1.00534 1.00129 0.984553
1.00509 1.00186 0.984426
1.00314 1.00177 0.987595
1.00455 1.00226 0.985012
1.00244 1.00314 0.987439
1.00147 1.00183 0.996178
1.00149 1.00355 0.988477
1.00078 1.00157 0.996749
1.00016 1.00099 0.997363
1.00534 0.994884 0.990974
1.00541 0.994832 0.991048
1.00344 0.995048 0.991064
1.00531 0.994889 0.990837
1.00532 0.994863 0.990614
1.00531 0.99526 0.989975
1.00527 0.995251 0.990542
1.0054 0.994855 0.99065
1.00536 0.994838 0.990222
1.00528 0.994773 0.990748
1.00529 0.994904 0.991357
1.00531 0.994865 0.991301
1.00551 0.994784 0.991168
1.00528 0.994923 0.991393
1.00542 0.994849 0.991177
1.00529 0.994907 0.991314
1.00524 0.994941 0.991366
1.00531 0.994899 0.990936
1.00526 0.994931 0.991226
1.00522 0.994951 0.99146
1.00528 0.99493 0.991031
1.00529 0.994919 0.991267
1.00532 0.996047 0.990302
1.0053 0.994931 0.991062
1.00534 0.996708 0.989518
1.00527 0.999765 0.986501
1.00534 0.99757 0.988594
1.00531 1.00004 0.986133
1.00336 1.00029 0.990626
1.00532 1.00038 0.985738
1.00359 1.00021 0.990437
1.00233 0.999684 0.992934
1.00378 1.00022 0.99023
1.00178 0.999881 0.993345
1.00118 1.00076 0.997003
1.00526 0.994909 0.991007
1.00529 0.995178 0.990724
1.00526 0.99489 0.990991
1.00533 0.998301 0.987719
1.00526 0.995512 0.990378
1.00522 0.99498 0.991042
1.00534 1.00049 0.985478
1.0053 0.998779 0.987124
1.00529 0.996009 0.989842
1.00531 0.999953 0.985814
1.0053 1.00125 0.984716
1.00316 1.00102 0.988419
1.00532 1.00159 0.984428
1.00305 1.00192 0.987612
1.00158 1.0013 0.996337
1.00234 1.00324 0.987481
1.00135 1.00174 0.996255
1.00063 1.00144 0.996955
1.0053 0.994918 0.991138
1.00536 0.994879 0.990909
1.00534 0.994836 0.991122
1.00531 0.994889 0.990843
1.00533 0.994864 0.990564
1.00541 0.994857 0.990636
1.00528 0.994927 0.991373
1.00529 0.994906 0.991372
1.00531 0.99487 0.991257
1.00528 0.994922 0.991408
1.00524 0.994947 0.991493
1.00529 0.994906 0.991305
1.00524 0.994943 0.991393
1.00518 0.994961 0.991544
1.00526 0.994932 0.991229
1.00522 0.994952 0.991459
1.00533 0.995656 0.990727
1.0053 0.994919 0.99125
1.0053 0.996065 0.990302
1.00524 0.999531 0.986803
1.00536 0.996724 0.98951
1.00527 0.999747 0.986534
1.00328 1.00035 0.990651
1.00532 1.00002 0.986166
1.00356 1.00022 0.990441
1.00226 0.999817 0.992874
1.00379 1.00012 0.990265
1.00187 0.999745 0.99332
1.00129 1.00008 0.99369
1.00527 0.994935 0.991159
1.0053 0.994928 0.991095
1.00526 0.994905 0.990979
1.00533 0.997076 0.988957
1.00529 0.99524 0.990716
1.00526 0.994896 0.991015
1.00533 1.00005 0.986016
1.00533 0.997833 0.988113
1.00527 0.995235 0.990572
1.00329 1.00039 0.988868
1.00533 1.00053 0.985447
1.00531 0.998758 0.9871
1.00533 1.00124 0.984691
1.00319 1.00099 0.988395
1.00165 1.00082 0.996492
1.00302 1.00215 0.98764
1.00163 1.00138 0.996258
1.00122 1.00162 0.996434
1.00528 0.994936 0.991316
1.0053 0.994917 0.991101
1.00537 0.994873 0.990844
1.00531 0.994893 0.990849
1.00525 0.99495 0.991454
1.00528 0.994925 0.991382
1.00528 0.994908 0.991387
1.00527 0.994921 0.991424
1.00524 0.994946 0.991489
1.00523 0.994958 0.991503
1.00524 0.994946 0.99142
1.00519 0.99496 0.991542
1.00531 0.99561 0.990899
1.00523 0.994953 0.991457
1.00529 0.99572 0.990728
1.00524 0.999313 0.987005
1.00528 0.996092 0.990302
1.00524 0.999509 0.986817
1.0033 1.00036 0.988955
1.00526 0.99973 0.986569
1.00347 1.00031 0.98961
1.00193 0.999926 0.996449
1.00375 1.00015 0.990257
1.00185 0.999812 0.993262
1.00144 0.999801 0.99369
1.00526 0.994948 0.991282
1.0053 0.994948 0.991198
1.00526 0.994936 0.991182
1.0053 0.996161 0.990064
1.0053 0.995024 0.990994
1.00527 0.994903 0.990952
1.00528 0.999261 0.98695
1.00533 0.997121 0.988954
1.00529 0.995299 0.990709
1.00339 1.00006 0.989053
1.00532 0.99981 0.986235
1.00533 0.99735 0.988507
1.0018 1.00033 0.99657
1.00332 1.00033 0.988848
1.00531 1.00055 0.985414
1.0032 1.00094 0.988375
1.00168 1.00084 0.996446
1.0016 1.00142 0.996168
1.00527 0.994952 0.991357
1.00528 0.994938 0.991307
1.0053 0.994917 0.991064
1.00527 0.994966 0.991452
1.00525 0.994948 0.991437
1.00528 0.994923 0.991391
1.00524 0.994944 0.991486
1.00523 0.99496 0.991497
1.00534 0.996239 0.99019
1.0052 0.994959 0.991539
1.00531 0.995915 0.990522
1.00525 0.998574 0.987917
1.00526 0.995774 0.990729
1.00527 0.99929 0.987
1.00326 1.00019 0.989198
1.00525 0.99949 0.986835
1.00333 1.00033 0.988958
1.00186 1 0.996446
1.00352 1.00029 0.988736
1.00176 0.999962 0.994914
1.00145 0.999796 0.993649
1.00525 0.994952 0.991364
1.00528 0.994963 0.991348
1.00526 0.994949 0.991289
1.00528 0.996124 0.990198
1.0053 0.994948 0.991219
1.00526 0.994938 0.991205
1.00521 0.999024 0.987322
1.0053 0.996524 0.989689
1.0053 0.995112 0.990894
1.00341 1.00005 0.989054
1.00527 0.999209 0.986995
1.00532 0.99717 0.98895
1.00191 0.999994 0.996563
1.00341 1.00004 0.989041
1.0053 0.999567 0.986455
1.00182 1.00036 0.996545
1.00337 1.00027 0.988828
1.00169 1.00092 0.996408
1.00529 0.994978 0.991347
1.00526 0.994952 0.991367
1.00529 0.994941 0.991298
1.00533 0.996274 0.99014
1.00527 0.994986 0.991428
1.00525 0.994945 0.99142
1.00523 0.994967 0.991491
1.00533 0.996208 0.990201
1.00517 0.998484 0.988129
1.0053 0.996218 0.990144
1.00527 0.998824 0.987538
1.00319 1.00002 0.989469
1.00529 0.999265 0.986994
1.00325 1.0002 0.989201
1.00175 1.00002 0.996477
1.00335 1.0003 0.988955
1.00182 1.00002 0.996448
1.00187 0.999951 0.993041
1.00528 0.995018 0.991311
1.00525 0.99495 0.991305
1.00529 0.996012 0.990361
1.00528 0.994962 0.99135
1.00526 0.994948 0.991295
1.00521 0.999418 0.986911
1.00529 0.996138 0.990199
1.00529 0.994949 0.991241
1.00338 1.00014 0.989028
1.00521 0.999278 0.987038
1.0053 0.996911 0.989315
1.00194 0.999902 0.996499
1.00341 1.00006 0.989047
1.00527 0.999155 0.987041
1.00193 1.00003 0.99657
1.00343 1.00002 0.989026
1.00185 1.00039 0.996515
1.00532 0.996333 0.990061
1.00529 0.995 0.991361
1.00526 0.994952 0.991378
1.00509 0.998475 0.988228
1.00532 0.996288 0.990147
1.00528 0.995012 0.991404
1.00532 0.996168 0.990212
1.00521 0.998417 0.988097
1.00308 0.999939 0.989751
1.00529 0.999078 0.987159
1.00319 1.00002 0.989477
1.00166 1.00001 0.996551
1.00327 1.0002 0.989206
1.00171 1.00005 0.996511
1.00179 1.00004 0.996464
1.00532 0.995987 0.990431
1.00528 0.994996 0.991342
1.00525 0.994949 0.991245
1.00521 0.999247 0.98711
1.00531 0.996005 0.990365
1.00528 0.994962 0.991351
1.00331 1.00017 0.989139
1.0052 0.999443 0.986909
1.00531 0.996128 0.9902
1.00188 0.999947 0.996449
1.00337 1.00017 0.989028
1.00521 0.999525 0.986755
1.00195 0.99992 0.996525
1.00341 1.00008 0.989039
1.00197 1.00004 0.996567
1.00506 0.99903 0.987592
1.00532 0.996117 0.990353
1.0053 0.995026 0.991375
1.003 0.999846 0.99001
1.00511 0.998456 0.988214
1.00532 0.996303 0.990153
1.00524 0.99835 0.988065
1.0031 0.999894 0.989762
1.00158 1.00001 0.996602
1.00318 1.00003 0.989484
1.00163 1.00002 0.996563
1.00165 1.00007 0.996536
1.00513 0.999135 0.987381
1.00531 0.995961 0.990498
1.00528 0.994961 0.991374
1.00336 1.00007 0.990865
1.00518 0.999273 0.987124
1.00531 0.996012 0.99037
1.00177 1 0.996472
1.0033 1.0002 0.989143
1.00518 0.999468 0.98691
1.00191 0.999943 0.996467
1.00336 1.0002 0.989026
1.00198 0.999925 0.996548
1.00308 0.999842 0.98994
1.00506 0.9988 0.98788
1.00531 0.995899 0.990646
1.00146 0.999983 0.996689
1.00298 0.999838 0.990007
1.00512 0.99843 0.988201
1.00312 0.999852 0.989768
1.00155 1 0.996631
1.00161 1.00004 0.996583
1.0033 0.999948 0.991116
1.00511 0.99914 0.987393
1.00531 0.995948 0.990564
1.00113 1.00003 0.997154
1.00319 1.00009 0.989421
1.00515 0.999297 0.987141
1.0018 0.999996 0.996467
1.00328 1.00023 0.989143
1.00194 0.999937 0.996487
1.00142 0.999938 0.993749
1.00311 0.999863 0.990645
1.00506 0.998567 0.988166
1.00148 0.999982 0.996708
1.003 0.999832 0.990013
1.00155 0.999984 0.996659
1.00089 0.999995 0.994227
1.00319 0.999933 0.990435
1.0051 0.99915 0.987401
1.00136 1.00001 0.995281
1.00316 1.00011 0.989451
1.00185 0.999985 0.996467
1.00144 0.999973 0.996715
1.00294 0.999867 0.99004
1.00143 0.999979 0.996714
1.0012 0.999971 0.995472
1.00305 0.999933 0.989824
1.0017 1.00001 0.996516
1.00147 0.999981 0.996712
1.00153 0.999989 0.996624

TENSORS stress float
0.00247872 -0.000176512 0.000290976
-0.000176512 0.00126168 -5.24922e-05
0.000290976 -5.24922e-05 0.00123395
0.00769953 0.000130687 0.000351714
0.000130687 0.00461317 4.32393e-05
0.000351714 4.32393e-05 0.00462628
0.00210628 -0.000107144 0.000117549
-0.000107144 0.00101754 -2.02797e-05
0.000117549 -2.02797e-05 0.00097625
0.00236042 -9.83965e-05 0.000275466
-9.83965e-05 0.00116438 -2.9868e-05
0.000275466 -2.9868e-05 0.0011477
0.00250105 -0.000154932 0.000284772
-0.000154932 0.00126498 -4.61191e-05
0.000284772 -4.61191e-05 0.00124121
0.00250699 -0.000183425 0.000303419
-0.000183425 0.00128106 -5.47553e-05
0.000303419 -5.47553e-05 0.00125311
0.00203465 -0.000192329 5.85951e-05
-0.000192329 0.000838929 -1.49651e-05
5.85951e-05 -1.49651e-05 0.000703119
0.0078084 0.000123315 -9.80737e-06
0.000123315 0.004673 -2.80178e-06
-9.80737e-06 -2.80178e-06 0.0046905
0.00702969 0.000259132 0.000174117
0.000259132 0.00419354 1.92088e-05
0.000174117 1.92088e-05 0.00416206
0.00716839 4.90904e-05 0.000111539
4.90904e-05 0.00424891 7.03406e-06
0.000111539 7.03406e-06 0.00422916
0.00196629 0.000247978 0.00032448
0.000247978 0.000946646 4.76277e-05
0.00032448 4.76277e-05 0.000928309
0.000250988 0.000274548 2.65254e-05
0.000274548 -0.000245088 2.16715e-05
2.65254e-05 2.16715e-05 -0.000413956
0.00193536 -3.18264e-05 0.000270624
-3.18264e-05 0.000887179 4.76614e-06
0.000270624 4.76614e-06 0.000891584
0.00168661 5.61688e-06 7.52601e-05
5.61688e-06 0.000752375 2.86413e-06
7.52601e-05 2.86413e-06 0.000701508
0.00181691 -0.000105999 -7.01501e-05
-0.000105999 0.000844408 1.26719e-05
-7.01501e-05 1.26719e-05 0.0007814
0.00201362 -9.67619e-05 8.85838e-05
-9.67619e-05 0.000960487 -5.81301e-06
8.85838e-05 -5.81301e-06 0.000922784
0.00214996 -9.7835e-05 0.000128678
-9.7835e-05 0.00104987 -2.26222e-05
0.000128678 -2.26222e-05 0.00100511
0.00210163 -0.000111182 0.000105435
-0.000111182 0.00101072 -1.535e-05
0.000105435 -1.535e-05 0.000971722
0.00215198 -0.000229415 -4.50789e-05
-0.000229415 0.000914807 7.41455e-06
-4.50789e-05 7.41455e-06 0.000788317
0.00657187 -0.000163655 0.000357109
-0.000163655 0.00390708 -1.73165e-05
0.000357109 -1.73165e-05 0.00393148
0.00226875 -7.42762e-05 0.000272434
-7.42762e-05 0.00110511 -2.22272e-05
0.000272434 -2.22272e-05 0.00109174
0.00246372 -0.000127124 0.000280518
-0.000127124 0.00123329 -3.81144e-05
0.000280518 -3.81144e-05 0.00121363
0.00196991 -0.000157873 7.47626e-05
-0.000157873 0.000820855 -1.18215e-05
7.47626e-05 -1.18215e-05 0.00071247
0.00204568 -0.000190039 6.64713e-05
-0.000190039 0.00084428 -1.4772e-05
6.64713e-05 -1.4772e-05 0.000719961
0.00246043 -0.000166681 0.000311766
-0.000166681 0.00124418 -5.20983e-05
0.000311766 -5.20983e-05 0.00121933
0.00206066 -0.000196336 5.41383e-05
-0.000196336 0.000871405 -1.54103e-05
5.41383e-05 -1.54103e-05 0.000719131
0.00210911 -0.000409979 1.88512e-05
-0.000409979 0.000597432 -6.7274e-06
1.88512e-05 -6.7274e-06 0.00033639
0.00777913 0.000116298 -0.000370802
0.000116298 0.00464282 -3.53075e-05
-0.000370802 -3.53075e-05 0.00466667
0.00463231 0.000189444 -0.000161151
0.000189444 0.00264207 -1.9546e-05
-0.000161151 -1.9546e-05 0.00261802
0.00467526 0.000119866 -0.000166507
0.000119866 0.0026721 -1.92046e-05
-0.000166507 -1.92046e-05 0.00265058
0.00792331 5.63725e-05 -2.17378e-06
5.63725e-05 0.00475053 -1.41065e-06
-2.17378e-06 -1.41065e-06 0.00476698
0.000273583 0.000260907 -1.07414e-06
0.000260907 -0.000225823 -1.36262e-06
-1.07414e-06 -1.36262e-06 -0.000393906
0.00201969 7.64442e-05 0.000279197
7.64442e-05 0.00094067 2.81075e-05
0.000279197 2.81075e-05 0.000930384
0.00218241 0.00016982 0.000291248
0.00016982 0.00107736 4.39822e-05
0.000291248 4.39822e-05 0.00105391
0.00295089 0.000246344 0.000171521
0.000246344 0.00141968 2.6605e-05
0.000171521 2.6605e-05 0.00132243
0.00706932 -0.000239159 4.24595e-05
-0.000239159 0.00426152 3.64203e-06
4.24595e-05 3.64203e-06 0.00421581
0.00306184 0.00033634 0.000182999
0.00033634 0.0015432 3.39424e-05
0.000182999 3.39424e-05 0.00142181
0.000372977 0.000263928 2.60841e-05
0.000263928 -0.000159388 3.06713e-05
2.60841e-05 3.06713e-05 -0.000332875
0.00108807 0.000383163 2.56392e-05
0.000383163 6.70933e-05 7.42868e-06
2.56392e-05 7.42868e-06 -0.000227847
0.00560144 -0.000120518 0.000208767
-0.000120518 0.0033677 2.6846e-05
0.000208767 2.6846e-05 0.00335665
0.00653902 8.90794e-05 3.51281e-06
8.90794e-05 0.00386932 -2.09537e-06
3.51281e-06 -2.09537e-06 0.00390269
0.00429381 0.000101122 -0.000135347
0.000101122 0.00242311 -6.51543e-06
-0.000135347 -6.51543e-06 0.00241265
0.00637956 5.70532e-05 0.000346669
5.70532e-05 0.00377007 4.89713e-06
0.000346669 4.89713e-06 0.00380459
0.00159195 9.2266e-05 7.73495e-05
9.2266e-05 0.000695576 5.62972e-06
7.73495e-05 5.62972e-06 0.000649054
0.000458701 1.36277e-05 1.38926e-05
1.36277e-05 -0.00016467 1.85611e-06
1.38926e-05 1.85611e-06 -0.000259221
0.00670829 0.00024628 0.000199673
0.00024628 0.00401038 2.01639e-05
0.000199673 2.01639e-05 0.00398444
0.00292671 8.85877e-05 0.000158818
8.85877e-05 0.00140226 1.14078e-05
0.000158818 1.14078e-05 0.00133896
0.00164838 -9.7565e-05 -8.98524e-05
-9.7565e-05 0.000745539 1.19207e-05
-8.98524e-05 1.19207e-05 0.00068622
0.00171226 -0.000128894 -8.32354e-05
-0.000128894 0.000787394 1.5176e-05
-8.32354e-05 1.5176e-05 0.000721775
0.00190534 -6.72405e-05 -5.82284e-05
-6.72405e-05 0.000893504 1.03612e-05
-5.82284e-05 1.03612e-05 0.000831162
0.00223012 -0.000232194 -0.000156413
-0.000232194 0.000955526 2.97669e-05
-0.000156413 2.97669e-05 0.000842448
0.00412519 -3.53694e-05 -0.000138417
-3.53694e-05 0.00232592 -9.85233e-07
-0.000138417 -9.85233e-07 0.00231588
0.00198187 -7.7212e-05 9.33394e-05
-7.7212e-05 0.000936361 -4.73853e-06
9.33394e-05 -4.73853e-06 0.000903076
0.00224973 -7.28138e-05 0.00013388
-7.28138e-05 0.00110987 -2.11504e-05
0.00013388 -2.11504e-05 0.00106269
0.00206425 -0.000104181 9.52095e-05
-0.000104181 0.000988111 -9.88727e-06
9.52095e-05 -9.88727e-06 0.000950093
0.00205174 -0.000135544 -3.65935e-05
-0.000135544 0.00086063 3.05458e-06
-3.65935e-05 3.05458e-06 0.000766113
0.00216503 -0.00024266 -5.21945e-05
-0.00024266 0.000937561 8.63792e-06
-5.21945e-05 8.63792e-06 0.000796911
0.00213513 -0.000205422 -3.99308e-05
-0.000205422 0.000900336 5.44884e-06
-3.99308e-05 5.44884e-06 0.000785849
0.00220633 -0.000417903 -1.03567e-05
-0.000417903 0.000658565 2.73969e-06
-1.03567e-05 2.73969e-06 0.000397886
0.00635563 -1.11443e-05 0.000342624
-1.11443e-05 0.00375285 -3.99966e-06
0.000342624 -3.99966e-06 0.00378844
0.002202 -4.85526e-05 0.000268069
-4.85526e-05 0.0010649 -1.52234e-05
0.000268069 -1.52234e-05 0.00105663
0.00248786 -2.13617e-05 5.84537e-05
-2.13617e-05 0.00115865 -4.63871e-07
5.84537e-05 -4.63871e-07 0.00108464
0.00194058 -0.000127196 6.78975e-05
-0.000127196 0.000807518 -7.80361e-06
6.78975e-05 -7.80361e-06 0.000709502
0.00201326 -0.000175248 7.22327e-05
-0.000175248 0.000831339 -1.38076e-05
7.22327e-05 -1.38076e-05 0.000715531
0.00201695 -0.000258581 3.91398e-06
-0.000258581 0.000456507 -1.79322e-06
3.91398e-06 -1.79322e-06 0.000274524
0.00202278 -0.000363122 1.47276e-05
-0.000363122 0.000498745 -4.42777e-06
1.47276e-05 -4.42777e-06 0.000271846
0.00210228 -0.000127544 0.000293102
-0.000127544 0.00100848 -4.47499e-05
0.000293102 -4.47499e-05 0.000981596
0.00208663 -0.000159835 4.68194e-05
-0.000159835 0.000919287 -1.33428e-05
4.68194e-05 -1.33428e-05 0.000760345
0.00208299 -0.000459795 2.3422e-05
-0.000459795 0.000620866 -7.18715e-06
2.3422e-05 -7.18715e-06 0.000322682
0.00198012 -0.000548206 6.10876e-06
-0.000548206 0.000265926 1.19996e-06
6.10876e-06 1.19996e-06 -3.8302e-05
0.00748413 0.000314151 -0.000395032
0.000314151 0.00448077 -4.86684e-05
-0.000395032 -4.86684e-05 0.00448941
0.00776771 1.87251e-05 -0.000327956
1.87251e-05 0.00465417 -2.82635e-05
-0.000327956 -2.82635e-05 0.00467147
0.00756558 0.00018458 -0.000369036
0.00018458 0.00450981 -3.94778e-05
-0.000369036 -3.94778e-05 0.00453167
0.000336748 0.000251933 -2.62139e-05
0.000251933 -0.000179481 -2.11098e-05
-2.62139e-05 -2.11098e-05 -0.000349234
0.00722477 0.000266478 -1.83958e-06
0.000266478 0.00430864 -2.61474e-06
-1.83958e-06 -2.61474e-06 0.00432417
0.00749962 0.000275836 -8.36904e-06
0.000275836 0.00448064 -3.62573e-06
-8.36904e-06 -3.62573e-06 0.00449222
0.000350695 0.000159378 3.46175e-07
0.000159378 -0.00025453 -2.72468e-07
3.46175e-07 -2.72468e-07 -0.000389453
0.00424018 -4.55545e-05 -0.000142249
-4.55545e-05 0.00243707 -8.57415e-06
-0.000142249 -8.57415e-06 0.00240652
0.000293594 0.000236273 1.23775e-06
0.000236273 -0.00023377 -4.09393e-07
1.23775e-06 -4.09393e-07 -0.00039351
0.00194463 0.00027901 7.30256e-05
0.00027901 0.00085555 4.40369e-06
7.30256e-05 4.40369e-06 0.000712291
0.00106839 0.000384441 1.49393e-06
0.000384441 4.68305e-05 2.42452e-07
1.49393e-06 2.42452e-07 -0.000248154
0.00632825 -9.1761e-05 0.00025381
-9.1761e-05 0.00381336 3.13326e-05
0.00025381 3.13326e-05 0.00380696
0.000575885 0.000129215 2.58565e-05
0.000129215 2.49897e-05 1.54137e-05
2.58565e-05 1.54137e-05 -6.61969e-05
0.000447286 0.000124527 1.41515e-05
0.000124527 -0.000205173 1.18713e-05
1.41515e-05 1.18713e-05 -0.000330137
0.000452327 0.000190836 1.86805e-05
0.000190836 -0.000176841 2.00377e-05
1.86805e-05 2.00377e-05 -0.000321892
0.00141231 0.000340463 1.4292e-05
0.000340463 5.35033e-05 5.65475e-06
1.4292e-05 5.65475e-06 -0.000183381
0.00346464 0.000298763 0.000175952
0.000298763 0.00184655 2.81475e-05
0.000175952 2.81475e-05 0.00174373
0.00128121 0.000399211 2.50511e-05
0.000399211 0.000104884 8.35075e-06
2.50511e-05 8.35075e-06 -0.000179613
0.000793111 0.000345995 1.96066e-05
0.000345995 -1.83205e-05 6.66199e-06
1.96066e-05 6.66199e-06 -0.000311258
0.00166918 0.000610259 9.86175e-06
0.000610259 0.00026065 -3.39707e-06
9.86175e-06 -3.39707e-06 -0.00013207
0.0047436 -0.000146275 0.000143815
-0.000146275 0.00279788 1.38696e-05
0.000143815 1.38696e-05 0.00278755
0.00517656 -0.000163418 1.69126e-05
-0.000163418 0.00308663 1.68381e-06
1.69126e-05 1.68381e-06 0.00307059
0.0070054 7.67044e-05 -0.000365545
7.67044e-05 0.00415092 -1.99397e-05
-0.000365545 -1.99397e-05 0.00418236
0.00665216 8.09014e-05 -0.000359012
8.09014e-05 0.00393696 -1.22256e-05
-0.000359012 -1.22256e-05 0.00397161
0.00648129 8.3633e-05 3.38618e-07
8.3633e-05 0.00383964 -4.32696e-06
3.38618e-07 -4.32696e-06 0.00387142
0.0041594 4.21415e-05 -0.000147079
4.21415e-05 0.00233639 -8.44125e-06
-0.000147079 -8.44125e-06 0.00233187
0.00156668 4.2129e-05 6.98396e-05
4.2129e-05 0.000547564 2.18062e-06
6.98396e-05 2.18062e-06 0.000473424
0.0044699 0.000163442 -0.000138304
0.000163442 0.00254214 -8.66545e-06
-0.000138304 -8.66545e-06 0.00252306
0.00164133 0.000103177 7.07297e-05
0.000103177 0.000579534 3.87177e-06
7.07297e-05 3.87177e-06 0.00049161
0.00640942 0.000112025 0.000349105
0.000112025 0.00380237 7.40479e-06
0.000349105 7.40479e-06 0.00382961
0.000337257 1.02984e-05 1.75286e-05
1.02984e-05 -0.000236519 9.06688e-07
1.75286e-05 9.06688e-07 -0.000326777
0.0029007 4.84556e-05 0.000157548
4.84556e-05 0.00139422 7.56956e-06
0.000157548 7.56956e-06 0.00133829
0.00118345 8.25074e-05 7.82462e-06
8.25074e-05 -6.80655e-05 5.94676e-07
7.82462e-06 5.94676e-07 -0.000203992
0.00284596 0.000140708 0.000163536
0.000140708 0.00134367 1.50383e-05
0.000163536 1.50383e-05 0.00127088
0.00130631 0.000170656 4.10026e-06
0.000170656 -4.48966e-05 1.58866e-06
4.10026e-06 1.58866e-06 -0.00020477
0.00193973 4.04346e-05 -0.00026971
4.04346e-05 0.000886692 3.6646e-06
-0.00026971 3.6646e-06 0.000894322
0.00164936 -2.79458e-05 -7.68296e-05
-2.79458e-05 0.000735624 3.86667e-06
-7.68296e-05 3.86667e-06 0.000683422
0.0019673 -3.15127e-05 -5.17526e-05
-3.15127e-05 0.000926116 9.02621e-06
-5.17526e-05 9.02621e-06 0.000862008
0.00164932 -0.000115554 -9.11653e-05
-0.000115554 0.000747371 1.46407e-05
-9.11653e-05 1.46407e-05 0.00068519
0.00216062 -0.000113002 -0.000143186
-0.000113002 0.000918076 1.42678e-05
-0.000143186 1.42678e-05 0.000837507
0.00223712 -0.000191086 -0.000150952
-0.000191086 0.000952336 2.50066e-05
-0.000150952 2.50066e-05 0.000853109
0.00225358 -0.000265264 -0.000164179
-0.000265264 0.000993075 3.22372e-05
-0.000164179 3.22372e-05 0.000863576
0.00230493 -0.000426685 -3.60612e-05
-0.000426685 0.000721053 1.12381e-05
-3.60612e-05 1.12381e-05 0.000460551
0.00646352 -0.000119075 2.40187e-06
-0.000119075 0.00383635 -2.09886e-06
2.40187e-06 -2.09886e-06 0.00386327
0.00188489 1.89692e-05 0.000100431
1.89692e-05 0.000864049 -5.5587e-06
0.000100431 -5.5587e-06 0.000841941
0.00119689 -1.69895e-05 -7.29875e-05
-1.69895e-05 0.000317304 2.76242e-06
-7.29875e-05 2.76242e-06 0.000243324
0.00201566 -9.09382e-05 -3.94837e-05
-9.09382e-05 0.000846265 3.64233e-06
-3.94837e-05 3.64233e-06 0.000760564
0.00530651 -0.000100887 0.000307235
-0.000100887 0.00306994 -2.79258e-05
0.000307235 -2.79258e-05 0.00306433
0.00274966 -0.000244856 -5.0297e-05
-0.000244856 0.00133744 5.73123e-06
-5.0297e-05 5.73123e-06 0.00119464
0.00210204 -0.000171311 -3.69709e-05
-0.000171311 0.000881223 3.95938e-06
-3.69709e-05 3.95938e-06 0.000777593
0.00205858 -0.000258733 -9.03461e-06
-0.000258733 0.000480013 1.81903e-06
-9.03461e-06 1.81903e-06 0.000303429
0.00222059 -0.000474451 -9.22308e-06
-0.000474451 0.000717837 2.70719e-06
-9.22308e-06 2.70719e-06 0.000418028
0.00211224 -0.000367773 -1.01631e-05
-0.000367773 0.000557247 2.8429e-06
-1.01631e-05 2.8429e-06 0.00032765
0.00200121 -0.000549728 9.05637e-07
-0.000549728 0.000281628 -2.47215e-07
9.05637e-07 -2.47215e-07 -2.23716e-05
0.000344062 6.61061e-06 1.81169e-05
6.61061e-06 -0.000234264 1.86686e-07
1.81169e-05 1.86686e-07 -0.000321108
0.00185367 -1.69516e-05 6.01117e-05
-1.69516e-05 0.000742956 -2.40157e-06
6.01117e-05 -2.40157e-06 0.000660817
0.00200538 -9.16329e-05 6.81254e-06
-9.16329e-05 0.000479922 5.25921e-07
6.81254e-06 5.25921e-07 0.000360906
0.00210295 -0.000206354 3.2142e-06
-0.000206354 0.000527925 -4.11275e-07
3.2142e-06 -4.11275e-07 0.000375851
0.00206697 -0.000315001 9.32184e-06
-0.000315001 0.000493444 -2.53562e-06
9.32184e-06 -2.53562e-06 0.000295496
0.00216014 -0.000371195 -5.78122e-07
-0.000371195 0.000217604 1.55855e-07
-5.78122e-07 1.55855e-07 4.11176e-05
0.00731957 3.55934e-05 0.000278917
3.55934e-05 0.00439424 -2.49971e-05
0.000278917 -2.49971e-05 0.00440007
0.00190462 -0.000499473 5.07862e-06
-0.000499473 0.00015671 1.06912e-06
5.07862e-06 1.06912e-06 -0.00010565
0.000114146 -0.000220066 2.00101e-05
-0.000220066 -0.000346388 -2.55028e-05
2.00101e-05 -2.55028e-05 -0.000505334
0.0010715 -0.00040411 2.38963e-05
-0.00040411 5.57039e-05 -8.39608e-06
2.38963e-05 -8.39608e-06 -0.000263284
0.00211703 -0.000616103 7.46373e-06
-0.000616103 0.00042127 1.5489e-06
7.46373e-06 1.5489e-06 6.4053e-05
0.00205953 -0.000613086 3.07333e-06
-0.000613086 0.000214565 5.19184e-06
3.07333e-06 5.19184e-06 -6.42066e-05
0.000427841 -0.000183563 2.41062e-05
-0.000183563 -9.29454e-05 -2.12635e-05
2.41062e-05 -2.12635e-05 -0.000223931
0.000776893 -0.000170652 -2.31157e-07
-0.000170652 0.000181344 -4.60684e-06
-2.31157e-07 -4.60684e-06 -9.24588e-05
0.00736014 0.000293859 -0.000398169
0.000293859 0.00440104 -4.44769e-05
-0.000398169 -4.44769e-05 0.00441331
0.00754929 0.000268934 -0.000384845
0.000268934 0.00451085 -4.62369e-05
-0.000384845 -4.62369e-05 0.00452607
0.000317589 0.000158161 -1.76254e-05
0.000158161 -0.000276861 -1.46407e-05
-1.76254e-05 -1.46407e-05 -0.00041262
0.00687042 -6.58624e-05 -0.000260981
-6.58624e-05 0.0041214 -2.1655e-05
-0.000260981 -2.1655e-05 0.00412733
3.01455e-05 0.000215146 -2.06966e-05
0.000215146 -0.000368929 -2.42533e-05
-2.06966e-05 -2.42533e-05 -0.000523202
0.000276434 0.000223341 -2.13572e-05
0.000223341 -0.000243633 -2.0461e-05
-2.13572e-05 -2.0461e-05 -0.000403214
0.00106459 0.000383503 -2.77157e-05
0.000383503 3.86383e-05 -8.98465e-06
-2.77157e-05 -8.98465e-06 -0.000255304
0.00620515 -9.19741e-05 -1.19906e-05
-9.19741e-05 0.00372816 1.83232e-06
-1.19906e-05 1.83232e-06 0.00372539
0.000626428 0.000106621 3.03257e-07
0.000106621 6.1459e-05 5.1353e-07
3.03257e-07 5.1353e-07 -2.78948e-05
0.00172201 0.000171995 7.39577e-05
0.000171995 0.000616634 6.96551e-06
7.39577e-05 6.96551e-06 0.00050905
0.00171466 0.000242925 7.73787e-05
0.000242925 0.00064299 8.59147e-06
7.73787e-05 8.59147e-06 0.000514029
0.00137098 0.000338159 -1.33718e-07
0.000338159 3.28536e-05 -3.45706e-07
-1.33718e-07 -3.45706e-07 -0.000205056
0.000389326 0.000210946 -1.30471e-06
0.000210946 -0.000121245 -9.44803e-08
-1.30471e-06 -9.44803e-08 -0.000257109
0.00122917 0.000395543 8.41891e-07
0.000395543 7.04873e-05 1.36988e-07
8.41891e-07 1.36988e-07 -0.000214207
0.000802418 0.000334324 1.78649e-06
0.000334324 -9.26347e-06 -1.14835e-06
1.78649e-06 -1.14835e-06 -0.000295966
0.00176107 0.000626306 -1.90489e-06
0.000626306 0.000310217 -4.40998e-07
-1.90489e-06 -4.40998e-07 -8.37366e-05
0.000467142 0.000173921 2.05571e-05
0.000173921 -5.63172e-05 1.95621e-05
2.05571e-05 1.95621e-05 -0.000173576
0.000592881 7.14833e-05 1.61525e-05
7.14833e-05 6.41178e-05 1.45293e-05
1.61525e-05 1.45293e-05 -1.5721e-05
0.00136418 0.00031149 2.07794e-06
0.00031149 0.000578174 3.19908e-06
2.07794e-06 3.19908e-06 0.000331676
0.00141833 0.000290865 1.01431e-05
0.000290865 2.17031e-05 3.86297e-06
1.01431e-05 3.86297e-06 -0.000187721
0.00137231 0.000378297 1.97759e-05
0.000378297 8.15117e-05 7.31545e-06
1.97759e-05 7.31545e-06 -0.000181376
0.00213733 0.000532543 5.10451e-06
0.000532543 0.000277044 -6.02148e-07
5.10451e-06 -6.02148e-07 1.03296e-05
0.000506066 0.000271886 1.09577e-05
0.000271886 -9.00107e-05 6.92757e-06
1.09577e-05 6.92757e-06 -0.000359916
0.00213764 0.000648315 5.12086e-06
0.000648315 0.000441983 -2.63888e-06
5.12086e-06 -2.63888e-06 8.42515e-05
0.00166957 0.000628782 5.21872e-06
0.000628782 0.000415546 -5.19361e-06
5.21872e-06 -5.19361e-06 -2.15709e-05
0.00174109 0.000672844 -7.99188e-06
0.000672844 0.000200059 -7.57557e-06
-7.99188e-06 -7.57557e-06 -0.000189221
0.00420862 -0.000144846 0.000103732
-0.000144846 0.00244027 7.91987e-06
0.000103732 7.91987e-06 0.00243116
0.00459682 -0.000184776 1.9872e-05
-0.000184776 0.00271016 -1.38728e-06
1.9872e-05 -1.38728e-06 0.00268957
0.0050501 -0.000216274 -0.000120841
-0.000216274 0.00301353 -1.1087e-05
-0.000120841 -1.1087e-05 0.00298459
0.000480146 -0.000177424 2.38909e-05
-0.000177424 -3.98215e-05 -1.89096e-05
2.38909e-05 -1.89096e-05 -0.000152754
0.00640082 8.95317e-05 0.000226643
8.95317e-05 0.00384439 -2.35781e-05
0.000226643 -2.35781e-05 0.0038391
0.00720407 0.000239556 -0.000392462
0.000239556 0.00429433 -3.6075e-05
-0.000392462 -3.6075e-05 0.00431464
0.00676305 0.00010875 -0.000361158
0.00010875 0.00400416 -1.72699e-05
-0.000361158 -1.72699e-05 0.00403641
0.000314089 0.000106716 -1.70446e-05
0.000106716 -0.000272287 -6.87944e-06
-1.70446e-05 -6.87944e-06 -0.000380884
0.000283882 4.54527e-05 -1.73158e-05
4.54527e-05 -0.000271613 -2.86332e-06
-1.73158e-05 -2.86332e-06 -0.000367127
0.00641788 -3.16934e-06 -0.000344591
-3.16934e-06 0.00379052 -3.3594e-06
-0.000344591 -3.3594e-06 0.00382616
0.00635331 -1.5513e-06 1.87348e-07
-1.5513e-06 0.00375087 -1.29081e-06
1.87348e-07 -1.29081e-06 0.00378686
0.000299568 1.26218e-06 -2.47959e-07
1.26218e-06 -0.000262634 2.04913e-07
-2.47959e-07 2.04913e-07 -0.000351351
0.00156722 4.67612e-05 7.04777e-05
4.67612e-05 0.000539366 3.44433e-06
7.04777e-05 3.44433e-06 0.000461498
0.00116165 8.60207e-05 2.97315e-08
8.60207e-05 -8.43024e-05 -8.77174e-08
2.97315e-08 -8.77174e-08 -0.000221188
0.000364019 0.000100903 -7.55183e-07
0.000100903 -0.000249061 -3.36416e-07
-7.55183e-07 -3.36416e-07 -0.000365919
0.00127647 0.000172409 -2.25822e-07
0.000172409 -5.66339e-05 5.2813e-08
-2.25822e-07 5.2813e-08 -0.000218008
0.000293192 -3.33075e-05 1.79312e-05
-3.33075e-05 -0.000267109 -5.76631e-07
1.79312e-05 -5.76631e-07 -0.000352972
0.00110642 3.72172e-05 9.28201e-06
3.72172e-05 -0.000101282 1.71635e-07
9.28201e-06 1.71635e-07 -0.000231374
0.00124757 0.000128914 5.51019e-06
0.000128914 -4.90285e-05 1.258e-06
5.51019e-06 1.258e-06 -0.000195088
0.00207703 0.000137119 1.88138e-06
0.000137119 8.43508e-05 6.04812e-07
1.88138e-06 6.04812e-07 4.71186e-06
0.00136232 0.000228381 6.21027e-06
0.000228381 -2.47014e-05 2.24344e-06
6.21027e-06 2.24344e-06 -0.000206636
0.00212864 0.000296557 2.35416e-06
0.000296557 0.000120177 1.54961e-07
2.35416e-06 1.54961e-07 -7.75613e-06
0.00637646 -8.07606e-05 -0.000348235
-8.07606e-05 0.00377469 4.85011e-06
-0.000348235 4.85011e-06 0.00380563
0.00155035 -0.000166878 -7.68715e-05
-0.000166878 0.000693844 9.52884e-06
-7.68715e-05 9.52884e-06 0.000634315
-0.000218675 -1.03642e-05 -1.06161e-05
-1.03642e-05 -0.000586719 6.02414e-07
-1.06161e-05 6.02414e-07 -0.000689536
0.00212708 -8.11198e-05 -0.000141453
-8.11198e-05 0.000910032 9.94834e-06
-0.000141453 9.94834e-06 0.000836074
0.00808327 0.000198611 -6.5593e-05
0.000198611 0.00485302 3.34121e-06
-6.5593e-05 3.34121e-06 0.0048107
0.00309502 -0.000310176 -0.000168435
-0.000310176 0.00156547 3.24077e-05
-0.000168435 3.24077e-05 0.00143182
0.00221153 -0.000151297 -0.000146589
-0.000151297 0.000937786 1.94333e-05
-0.000146589 1.94333e-05 0.000848951
0.00208224 -0.000258135 -2.44475e-05
-0.000258135 0.000491426 4.51892e-06
-2.44475e-05 4.51892e-06 0.000320362
0.00217572 -0.000370817 -3.13691e-05
-0.000370817 0.000597518 9.74586e-06
-3.13691e-05 9.74586e-06 0.000365593
0.00230718 -0.00048371 -3.983e-05
-0.00048371 0.000782286 1.21253e-05
-3.983e-05 1.21253e-05 0.00048218
0.00201163 -0.000549904 -4.66182e-06
-0.000549904 0.000291477 -1.57301e-06
-4.66182e-06 -1.57301e-06 -1.20233e-05
0.000287122 2.19783e-06 4.75607e-08
2.19783e-06 -0.000268655 4.01602e-07
4.75607e-08 4.01602e-07 -0.000356494
0.0019704 -9.88963e-05 -3.83135e-05
-9.88963e-05 0.000827272 6.46688e-07
-3.83135e-05 6.46688e-07 0.000746667
0.00165525 -8.80355e-05 -1.3037e-05
-8.80355e-05 0.000253624 8.11911e-07
-1.3037e-05 8.11911e-07 0.000130823
0.00200381 -0.00020131 -1.18812e-05
-0.00020131 0.000456314 2.05482e-06
-1.18812e-05 2.05482e-06 0.000300201
0.00758882 3.06239e-05 3.78302e-06
3.06239e-05 0.00456633 2.11502e-07
3.78302e-06 2.11502e-07 0.0045713
0.00171655 -0.000229151 9.54127e-06
-0.000229151 0.0006971 -1.93383e-07
9.54127e-06 -1.93383e-07 0.000531856
0.00159265 -0.000432757 -1.05218e-06
-0.000432757 0.000390414 -1.23746e-06
-1.05218e-06 -1.23746e-06 7.43558e-05
0.00212319 -0.000320918 -1.01209e-05
-0.000320918 0.000527271 2.76256e-06
-1.01209e-05 2.76256e-06 0.000327727
0.00216282 -0.000377097 1.48513e-06
-0.000377097 0.000210068 -9.43501e-07
1.48513e-06 -9.43501e-07 3.97411e-05
0.00208795 -0.000613737 1.70481e-06
-0.000613737 0.000400182 1.06909e-07
1.70481e-06 1.06909e-07 4.47918e-05
0.0020039 -0.000501458 1.58675e-07
-0.000501458 0.000226434 -6.80562e-08
1.58675e-07 -6.80562e-08 -3.69458e-05
0.0021391 -0.000618865 8.97844e-07
-0.000618865 0.000271308 2.37862e-07
8.97844e-07 2.37862e-07 -8.83186e-06
0.000416304 -0.000203394 1.81719e-06
-0.000203394 -0.000108526 1.6936e-07
1.81719e-06 1.6936e-07 -0.000237511
0.000900724 -0.000239728 -4.15999e-07
-0.000239728 0.000251474 4.01772e-07
-4.15999e-07 4.01772e-07 -2.25278e-05
0.00111697 -4.37544e-05 1.02389e-05
-4.37544e-05 -8.30739e-05 5.07673e-08
1.02389e-05 5.07673e-08 -0.000213977
0.00205473 -0.000144875 3.33645e-06
-0.000144875 0.000510178 1.84935e-07
3.33645e-06 1.84935e-07 0.000378178
0.00186958 -0.000149193 2.91886e-06
-0.000149193 -3.1473e-05 -2.58493e-07
2.91886e-06 -2.58493e-07 -0.000130817
0.00220481 -0.000305585 -8.67046e-07
-0.000305585 0.0002065 1.3388e-06
-8.67046e-07 1.3388e-06 8.21473e-05
0.00187848 -0.000441106 -7.43855e-07
-0.000441106 7.92353e-05 1.11348e-06
-7.43855e-07 1.11348e-06 -0.000138587
0.00232794 -0.00042382 5.16233e-06
-0.00042382 0.000235551 -1.16784e-06
5.16233e-06 -1.16784e-06 0.00010415
0.000138186 -0.000205726 2.11008e-05
-0.000205726 -0.000300421 -2.42619e-05
2.11008e-05 -2.42619e-05 -0.000448862
0.00207595 -0.000558036 2.02301e-06
-0.000558036 0.000174748 3.30445e-06
2.02301e-06 3.30445e-06 -5.12869e-05
0.00120708 -0.000358507 1.68341e-05
-0.000358507 0.000246969 -8.32825e-06
1.68341e-05 -8.32825e-06 -5.46251e-05
0.0017753 -0.00067248 1.66031e-05
-0.00067248 0.000290283 1.46773e-06
1.66031e-05 1.46773e-06 -0.000136302
0.00240518 -0.000694644 2.90814e-06
-0.000694644 0.00050398 4.39342e-06
2.90814e-06 4.39342e-06 0.000154759
0.00239743 -0.000657272 -1.34924e-06
-0.000657272 0.000402577 5.29749e-06
-1.34924e-06 5.29749e-06 0.000145694
0.000736816 -0.000239593 5.01564e-06
-0.000239593 0.000117321 -2.32878e-06
5.01564e-06 -2.32878e-06 -0.000173277
0.00134523 -0.000214963 5.4627e-06
-0.000214963 0.00053309 -5.53723e-06
5.4627e-06 -5.53723e-06 0.000298951
0.00168487 -0.000392071 1.06564e-07
-0.000392071 0.000780844 -1.18848e-06
1.06564e-07 -1.18848e-06 0.000416855
0.000336692 0.000132628 -1.64845e-05
0.000132628 -0.000272734 -1.14187e-05
-1.64845e-05 -1.14187e-05 -0.000400226
0.00563192 -0.000126819 -0.000193669
-0.000126819 0.00336198 -1.54725e-05
-0.000193669 -1.54725e-05 0.00335617
0.000380486 9.36197e-05 -1.91419e-05
9.36197e-05 -9.31453e-05 -1.46611e-05
-1.91419e-05 -1.46611e-05 -0.000176983
0.00028598 0.000190115 -1.93175e-05
0.000190115 -0.000274043 -1.8058e-05
-1.93175e-05 -1.8058e-05 -0.000420563
0.00132777 0.0003363 -1.57595e-05
0.0003363 9.88866e-06 -6.19847e-06
-1.57595e-05 -6.19847e-06 -0.00022917
0.000225354 0.000205402 -2.32301e-05
0.000205402 -0.000234264 -2.30769e-05
-2.32301e-05 -2.30769e-05 -0.000367267
0.000899767 0.000335524 -1.83717e-05
0.000335524 5.31364e-05 -1.00221e-05
-1.83717e-05 -1.00221e-05 -0.000230621
0.00120909 0.000393592 -2.60547e-05
0.000393592 5.88813e-05 -8.7289e-06
-2.60547e-05 -8.7289e-06 -0.000226136
0.00188778 0.000649314 -1.05728e-05
0.000649314 0.000376861 2.80313e-06
-1.05728e-05 2.80313e-06 -2.04083e-05
0.000428983 0.000176177 -4.22973e-06
0.000176177 -8.73405e-05 1.70608e-06
-4.22973e-06 1.70608e-06 -0.000196118
0.000399197 4.45517e-05 1.24552e-06
4.45517e-05 -5.12994e-05 3.44456e-07
1.24552e-06 3.44456e-07 -0.000130167
0.000897697 0.000233869 6.91899e-07
0.000233869 0.000241952 9.95538e-07
6.91899e-07 9.95538e-07 2.62354e-05
0.00138461 0.000289332 -2.57455e-07
0.000289332 7.84785e-06 -3.55297e-07
-2.57455e-07 -3.55297e-07 -0.000202696
0.0013351 0.000374454 1.79378e-07
0.000374454 6.31691e-05 -3.26223e-07
1.79378e-07 -3.26223e-07 -0.000199948
0.0021172 0.000530805 -4.17958e-07
0.000530805 0.000262486 -1.72108e-07
-4.17958e-07 -1.72108e-07 -4.04797e-06
0.000611631 0.000262154 -5.63256e-07
0.000262154 -2.81056e-05 4.00263e-07
-5.63256e-07 4.00263e-07 -0.000288024
0.00214085 0.000644062 -1.11666e-06
0.000644062 0.000444994 -4.82875e-07
-1.11666e-06 -4.82875e-07 8.70976e-05
0.00171055 0.000645141 -6.8525e-07
0.000645141 0.000415273 -1.93771e-06
-6.8525e-07 -1.93771e-06 -2.8577e-05
0.00171043 0.000681349 -1.39758e-06
0.000681349 0.000157362 2.8074e-06
-1.39758e-06 2.8074e-06 -0.000230158
0.000417642 2.4103e-05 6.30756e-06
2.4103e-05 -3.09637e-05 1.37881e-05
6.30756e-06 1.37881e-05 -0.000100983
0.00153312 0.000279839 5.78706e-06
0.000279839 0.000640069 2.50262e-06
5.78706e-06 2.50262e-06 0.000380913
0.00086891 0.000152708 5.14452e-06
0.000152708 0.000245055 1.22543e-06
5.14452e-06 1.22543e-06 4.83868e-05
-0.000318196 0.000124938 -3.75983e-06
0.000124938 -0.000500495 4.53588e-06
-3.75983e-06 4.53588e-06 -0.000772095
0.00218602 0.000467099 2.57083e-06
0.000467099 0.000245206 -1.9416e-06
2.57083e-06 -1.9416e-06 2.67337e-05
0.00209703 0.000591607 5.11402e-06
0.000591607 0.000331333 -1.08306e-06
5.11402e-06 -1.08306e-06 1.56062e-05
0.00222449 0.000595107 1.0448e-06
0.000595107 0.000251368 -1.44958e-06
1.0448e-06 -1.44958e-06 3.16973e-06
0.00127076 0.000507788 -2.35799e-06
0.000507788 0.000256851 -3.78659e-06
-2.35799e-06 -3.78659e-06 -0.000138796
0.00249778 0.000749319 -6.2303e-06
0.000749319 0.000578476 -4.07083e-06
-6.2303e-06 -4.07083e-06 0.000226953
0.0021887 0.000803019 -1.2481e-05
0.000803019 0.000605207 -1.33731e-05
-1.2481e-05 -1.33731e-05 0.00010763
0.00210548 0.000721084 -4.5731e-06
0.000721084 0.000298785 -4.06886e-06
-4.5731e-06 -4.06886e-06 -6.68901e-05
0.000659722 8.3658e-05 5.97914e-07
8.3658e-05 0.000165105 6.83724e-06
5.97914e-07 6.83724e-06 5.77318e-05
0.000491323 1.30959e-05 3.00087e-06
1.30959e-05 1.29292e-05 1.08655e-05
3.00087e-06 1.08655e-05 -3.29276e-05
0.00362187 -0.000129762 7.13699e-05
-0.000129762 0.00205063 6.09986e-06
7.13699e-05 6.09986e-06 0.00204498
0.00403467 -0.000169791 1.26798e-05
-0.000169791 0.00233447 -1.25962e-06
1.26798e-05 -1.25962e-06 0.00231799
0.00444031 -0.000216299 -7.77494e-05
-0.000216299 0.00261752 -8.28019e-06
-7.77494e-05 -8.28019e-06 0.00258724
0.000518233 -0.000192351 2.92032e-05
-0.000192351 -2.1048e-07 -1.82966e-05
2.92032e-05 -1.82966e-05 -9.76517e-05
0.00589116 0.000120427 0.000194389
0.000120427 0.00353426 -2.1987e-05
0.000194389 -2.1987e-05 0.00352332
0.000533656 -0.000189573 2.66932e-06
-0.000189573 -1.43794e-05 8.41182e-07
2.66932e-06 8.41182e-07 -0.000129688
0.00676517 6.50446e-05 6.29635e-06
6.50446e-05 0.00407122 2.17392e-07
6.29635e-06 2.17392e-07 0.00406919
0.00034482 0.000126077 -1.7215e-05
0.000126077 -0.00026157 -9.14283e-06
-1.7215e-05 -9.14283e-06 -0.00038152
0.000297776 3.82946e-05 -1.57909e-05
3.82946e-05 -0.000273868 -3.88227e-06
-1.57909e-05 -3.88227e-06 -0.000373233
0.00125762 0.000174071 -4.98187e-06
0.000174071 -6.59284e-05 -1.47381e-06
-4.98187e-06 -1.47381e-06 -0.000228734
0.00115606 8.9101e-05 -7.85187e-06
8.9101e-05 -9.07488e-05 -6.86904e-07
-7.85187e-06 -6.86904e-07 -0.000228388
0.000332202 -7.2275e-06 -1.77261e-05
-7.2275e-06 -0.000243959 -7.74179e-07
-1.77261e-05 -7.74179e-07 -0.000331281
0.00644699 -0.000104307 -0.000355471
-0.000104307 0.00382389 6.48287e-06
-0.000355471 6.48287e-06 0.0038534
0.000340057 -3.53556e-06 4.50982e-09
-3.53556e-06 -0.000238327 -7.29018e-07
4.50982e-09 -7.29018e-07 -0.000323926
0.00112243 4.24665e-05 2.87412e-08
4.24665e-05 -9.26528e-05 5.53608e-08
2.87412e-08 5.53608e-08 -0.000223175
0.00121932 0.000129581 -1.12914e-07
0.000129581 -6.95916e-05 5.87621e-09
-1.12914e-07 5.87621e-09 -0.00021661
0.00205936 0.00013548 -3.25206e-08
0.00013548 7.66124e-05 2.3332e-07
-3.25206e-08 2.3332e-07 -3.31441e-06
0.00135661 0.000229242 -3.5288e-07
0.000229242 -2.10521e-05 -2.57358e-07
-3.5288e-07 -2.57358e-07 -0.000204408
0.00210552 0.000293889 -5.55883e-07
0.000293889 0.000110731 3.6226e-07
-5.55883e-07 3.6226e-07 -1.70648e-05
0.00108743 -5.14431e-06 1.01044e-05
-5.14431e-06 -0.000103556 -1.09691e-07
1.01044e-05 -1.09691e-07 -0.000232499
0.00209121 6.57965e-05 3.35464e-06
6.57965e-05 0.000104509 3.78991e-07
3.35464e-06 3.78991e-07 3.08261e-05
0.00205966 0.000212389 1.12966e-06
0.000212389 6.75997e-05 5.5134e-07
1.12966e-06 5.5134e-07 -2.94409e-05
0.00221639 0.000159568 5.88751e-06
0.000159568 7.38519e-05 1.22163e-06
5.88751e-06 1.22163e-06 4.86831e-05
0.00220101 0.000387008 3.45177e-06
0.000387008 0.000199024 -9.06034e-07
3.45177e-06 -9.06034e-07 2.86402e-05
0.00218895 0.000322682 5.30365e-06
0.000322682 7.07251e-05 1.08123e-06
5.30365e-06 1.08123e-06 -4.00737e-06
0.000343438 -5.08697e-06 -1.72522e-05
-5.08697e-06 -0.000229568 1.04747e-07
-1.72522e-05 1.04747e-07 -0.000319639
0.00207414 -5.43356e-05 -0.000140194
-5.43356e-05 0.000882562 6.39432e-06
-0.000140194 6.39432e-06 0.000815154
0.00130612 -8.38726e-05 -1.9168e-05
-8.38726e-05 2.81885e-05 9.06661e-07
-1.9168e-05 9.06661e-07 -9.86789e-05
0.00189564 -0.00019669 -2.18448e-05
-0.00019669 0.000378448 3.36496e-06
-2.18448e-05 3.36496e-06 0.000218271
0.00793731 -5.68682e-07 -0.000332188
-5.68682e-07 0.00478028 3.5899e-05
-0.000332188 3.5899e-05 0.00478819
0.00371308 -0.000325005 -0.00019258
-0.000325005 0.0019718 3.08087e-05
-0.00019258 3.08087e-05 0.00184302
0.00185606 -0.000465995 -3.29156e-05
-0.000465995 0.000576755 9.94426e-06
-3.29156e-05 9.94426e-06 0.000257037
0.0021661 -0.000325876 -2.91314e-05
-0.000325876 0.000552047 7.5455e-06
-2.91314e-05 7.5455e-06 0.000351132
0.00217193 -0.00038313 -1.74187e-06
-0.00038313 0.000207137 -1.56159e-06
-1.74187e-06 -1.56159e-06 4.29958e-05
0.002106 -0.000503599 -2.93889e-06
-0.000503599 0.000299452 -4.98102e-07
-2.93889e-06 -4.98102e-07 3.50151e-05
0.00211382 -0.000616688 -5.97404e-06
-0.000616688 0.000412564 -2.38068e-06
-5.97404e-06 -2.38068e-06 5.79417e-05
0.00222327 -0.000625582 -1.75835e-06
-0.000625582 0.000329595 -4.40498e-06
-1.75835e-06 -4.40498e-06 4.78694e-05
0.000434658 -0.000217222 -2.39166e-05
-0.000217222 -9.69341e-05 2.16886e-05
-2.39166e-05 2.16886e-05 -0.000229534
0.000378577 -0.000225643 -2.06945e-06
-0.000225643 -6.69203e-05 3.46397e-06
-2.06945e-06 3.46397e-06 -0.000349255
0.00119179 -3.9402e-05 5.66664e-07
-3.9402e-05 -3.51813e-05 3.02331e-08
5.66664e-07 3.02331e-08 -0.000160512
0.00204032 -0.000144697 -1.15769e-05
-0.000144697 0.000497641 1.45126e-06
-1.15769e-05 1.45126e-06 0.000366061
0.0019467 -0.000146882 1.90717e-06
-0.000146882 1.82316e-05 -2.80043e-07
1.90717e-06 -2.80043e-07 -7.58993e-05
0.00203714 -0.000300723 -2.06963e-06
-0.000300723 9.40875e-05 8.68531e-07
-2.06963e-06 8.68531e-07 -4.13632e-05
0.000356904 -0.000230952 1.19805e-06
-0.000230952 -0.000160195 7.40961e-07
1.19805e-06 7.40961e-07 -0.00031122
0.00072903 -0.000344657 -2.70189e-06
-0.000344657 -4.96045e-05 2.32615e-09
-2.70189e-06 2.32615e-09 -0.000356045
0.00180533 -0.000672782 1.44213e-06
-0.000672782 0.000312558 8.78312e-08
1.44213e-06 8.78312e-08 -0.000116129
0.0019933 -0.000444707 -2.26897e-06
-0.000444707 0.000161825 5.89817e-07
-2.26897e-06 5.89817e-07 -5.89388e-05
0.00222758 -0.000421136 1.61385e-06
-0.000421136 0.000158685 -5.45444e-07
1.61385e-06 -5.45444e-07 3.46279e-05
0.00245306 -0.000701584 -1.68317e-07
-0.000701584 0.000532561 -1.03043e-06
-1.68317e-07 -1.03043e-06 0.000185714
0.00213529 -0.000563258 4.67573e-07
-0.000563258 0.000211502 3.18868e-07
4.67573e-07 3.18868e-07 -1.57445e-05
0.00221663 -0.000648856 4.2552e-07
-0.000648856 0.000279492 9.85873e-07
4.2552e-07 9.85873e-07 2.11049e-05
0.000618941 -0.000234914 8.78657e-08
-0.000234914 4.70007e-05 -9.37753e-07
8.78657e-08 -9.37753e-07 -0.000245529
0.000321944 -0.000221819 -1.26189e-06
-0.000221819 -0.000126419 -1.82537e-06
-1.26189e-06 -1.82537e-06 -0.000451047
0.000587011 -0.000194751 3.81902e-06
-0.000194751 9.03828e-05 1.62023e-06
3.81902e-06 1.62023e-06 -0.000161211
0.00187535 -7.15907e-05 3.64929e-06
-7.15907e-05 -2.30332e-05 -1.41344e-07
3.64929e-06 -1.41344e-07 -0.000112273
0.00202963 -0.000220475 -1.05709e-06
-0.000220475 6.65699e-05 1.10808e-07
-1.05709e-06 1.10808e-07 -4.06095e-05
0.00209418 -0.00015336 7.95853e-06
-0.00015336 7.62035e-06 -9.46511e-07
7.95853e-06 -9.46511e-07 -3.25351e-05
0.00224215 -0.00034447 3.50332e-06
-0.00034447 0.000112575 -1.15856e-06
3.50332e-06 -1.15856e-06 3.49466e-05
0.00202206 -0.000500559 7.21142e-07
-0.000500559 8.13007e-05 1.99453e-06
7.21142e-07 1.99453e-06 -9.33444e-05
0.0023142 -0.000442997 2.9471e-06
-0.000442997 0.00014669 -3.4973e-07
2.9471e-06 -3.4973e-07 7.13868e-05
0.000636395 -0.000267691 1.05344e-05
-0.000267691 -9.74805e-06 -5.65076e-06
1.05344e-05 -5.65076e-06 -0.000287577
0.00220452 -0.000607213 6.00059e-07
-0.000607213 0.000195711 1.41902e-06
6.00059e-07 1.41902e-06 -4.77827e-06
0.0016114 -0.000658582 1.28236e-05
-0.000658582 0.000353365 -1.0155e-06
1.28236e-05 -1.0155e-06 -0.000108277
0.0021216 -0.000806514 1.17473e-05
-0.000806514 0.00040275 6.47516e-06
1.17473e-05 6.47516e-06 -5.2325e-05
0.00249951 -0.000720415 3.01435e-06
-0.000720415 0.000533997 5.67265e-06
3.01435e-06 5.67265e-06 0.00020711
0.00247949 -0.000692541 -3.96087e-07
-0.000692541 0.000446965 1.70844e-06
-3.96087e-07 1.70844e-06 0.000197086
0.000599924 -0.000153525 -6.32832e-07
-0.000153525 0.000148714 -6.77467e-06
-6.32832e-07 -6.77467e-06 -0.000102617
0.00181373 -0.000429731 4.9464e-07
-0.000429731 0.000704383 -1.62663e-06
4.9464e-07 -1.62663e-06 0.000356129
-0.000738832 -0.000107874 6.01525e-06
-0.000107874 -0.000693192 -1.00248e-06
6.01525e-06 -1.00248e-06 -0.00100597
0.00229292 -0.000558013 8.53752e-06
-0.000558013 0.00110706 4.22777e-06
8.53752e-06 4.22777e-06 0.000684583
0.00134948 0.000288019 -1.16889e-05
0.000288019 -7.38955e-06 -4.48408e-06
-1.16889e-05 -4.48408e-06 -0.000219082
0.000365302 2.09286e-05 -5.43339e-06
2.09286e-05 -6.36903e-05 -1.60973e-05
-5.43339e-06 -1.60973e-05 -0.000144217
0.000399176 0.000135306 -2.28009e-05
0.000135306 -9.41014e-05 -1.67354e-05
-2.28009e-05 -1.67354e-05 -0.000202039
-0.000106177 0.000161054 -5.97395e-06
0.000161054 -0.000376879 1.71683e-06
-5.97395e-06 1.71683e-06 -0.000594591
0.0012803 0.000369965 -2.07077e-05
0.000369965 3.24631e-05 -7.90136e-06
-2.07077e-05 -7.90136e-06 -0.000230924
0.00209697 0.000528757 -4.99694e-06
0.000528757 0.000248467 6.716e-07
-4.99694e-06 6.716e-07 -1.77765e-05
0.000417869 0.000223613 -9.44328e-06
0.000223613 -0.000155813 -4.11028e-06
-9.44328e-06 -4.11028e-06 -0.000398336
0.00160732 0.000636206 -8.5322e-06
0.000636206 0.000334473 1.1564e-06
-8.5322e-06 1.1564e-06 -0.000107576
0.00214755 0.000640234 -4.72689e-06
0.000640234 0.000448917 2.32938e-06
-4.72689e-06 2.32938e-06 9.07568e-05
0.00166105 0.00068236 7.89519e-06
0.00068236 0.000113972 1.22235e-05
7.89519e-06 1.22235e-05 -0.000269123
0.000384392 6.71921e-06 -3.74698e-06
6.71921e-06 -4.55062e-05 7.96078e-07
-3.74698e-06 7.96078e-07 -0.000114899
0.000590344 0.000228599 1.34204e-07
0.000228599 6.67797e-05 -1.43082e-06
1.34204e-07 -1.43082e-06 -0.000194512
0.00050292 0.000129677 2.61371e-06
0.000129677 1.55652e-05 -1.54735e-06
2.61371e-06 -1.54735e-06 -0.000180804
0.000593711 0.000190523 -2.38845e-06
0.000190523 7.58105e-05 3.72945e-06
-2.38845e-06 3.72945e-06 -0.000205427
0.00214921 0.000464145 -1.79363e-06
0.000464145 0.000219729 -1.36214e-06
-1.79363e-06 -1.36214e-06 1.62771e-06
0.00206032 0.00058938 -6.6022e-07
0.00058938 0.000306487 -3.05454e-07
-6.6022e-07 -3.05454e-07 -9.35715e-06
0.00220956 0.000591729 9.71331e-08
0.000591729 0.000246374 2.05359e-07
9.71331e-08 2.05359e-07 -6.43637e-07
0.00156996 0.000528379 2.8524e-06
0.000528379 0.000463993 -9.2213e-09
2.8524e-06 -9.2213e-09 6.6389e-05
0.00238868 0.000732078 1.13101e-06
0.000732078 0.000520005 8.28556e-07
1.13101e-06 8.28556e-07 0.000168561
0.00191712 0.00076507 -1.08641e-06
0.00076507 0.000445024 -2.1106e-06
-1.08641e-06 -2.1106e-06 -4.3825e-05
0.00214892 0.000706477 -6.45044e-06
0.000706477 0.00033675 2.76462e-06
-6.45044e-06 2.76462e-06 -1.60655e-05
0.000531411 1.10178e-05 4.55423e-06
1.10178e-05 3.60188e-05 1.22488e-05
4.55423e-06 1.22488e-05 -1.76148e-05
0.0012212 0.000106303 5.80106e-07
0.000106303 0.000507218 8.3083e-06
5.80106e-07 8.3083e-06 0.000325365
0.000738774 0.000354869 -5.73806e-06
0.000354869 8.41782e-05 3.30107e-07
-5.73806e-06 3.30107e-07 -0.000232164
0.00138936 0.000170424 4.09946e-06
0.000170424 0.000604506 -4.28884e-06
4.09946e-06 -4.28884e-06 0.000319476
0.000960591 0.000140177 -1.7362e-06
0.000140177 0.000195058 1.16907e-05
-1.7362e-06 1.16907e-05 -4.85936e-05
0.00220537 0.000513728 7.81245e-07
0.000513728 0.000166826 -2.68014e-06
7.81245e-07 -2.68014e-06 -2.42339e-05
0.00222608 0.000673254 -1.44352e-06
0.000673254 0.000328339 -2.45353e-06
-1.44352e-06 -2.45353e-06 2.3472e-05
0.00217574 0.000641444 -3.65999e-06
0.000641444 0.000205339 -1.31759e-06
-3.65999e-06 -1.31759e-06 -4.24028e-05
0.00171174 0.000750527 -2.77289e-06
0.000750527 0.000537076 -7.47488e-06
-2.77289e-06 -7.47488e-06 6.85245e-06
0.0025689 0.000793755 -6.36572e-06
0.000793755 0.000559295 -3.73609e-06
-6.36572e-06 -3.73609e-06 0.000212021
0.00185937 0.000807759 4.40238e-06
0.000807759 0.000330702 -7.13456e-06
4.40238e-06 -7.13456e-06 -0.000140617
0.000570959 8.27421e-05 1.75301e-07
8.27421e-05 9.7329e-05 7.34205e-06
1.75301e-07 7.34205e-06 -2.10508e-05
0.000724621 0.000139531 -3.35531e-06
0.000139531 0.000278927 2.7326e-06
-3.35531e-06 2.7326e-06 9.2272e-05
0.000583273 7.10286e-05 -2.27533e-07
7.10286e-05 0.000110876 5.84376e-06
-2.27533e-07 5.84376e-06 1.88976e-05
0.000484353 2.66459e-05 -9.51446e-07
2.66459e-05 4.88074e-05 1.36551e-07
-9.51446e-07 1.36551e-07 -5.46332e-05
0.00154552 -1.56926e-05 2.08843e-06
-1.56926e-05 0.000695073 6.37697e-06
2.08843e-06 6.37697e-06 0.000660855
0.000978132 -2.21028e-06 -6.12963e-08
-2.21028e-06 0.000328434 -2.07781e-08
-6.12963e-08 -2.07781e-08 0.00028549
0.000933181 -3.64012e-05 5.42937e-05
-3.64012e-05 0.000296773 1.26038e-05
5.42937e-05 1.26038e-05 0.000290545
0.0035751 -0.000139909 1.1568e-05
-0.000139909 0.00202282 -1.0971e-06
1.1568e-05 -1.0971e-06 0.0020144
0.00388517 -0.000174626 -6.63349e-05
-0.000174626 0.00223998 -6.52099e-06
-6.63349e-05 -6.52099e-06 0.00222182
0.000328395 -0.00011469 1.65462e-05
-0.00011469 -7.99347e-05 -1.55029e-05
1.65462e-05 -1.55029e-05 -0.000162853
0.00533979 0.000178257 0.000134904
0.000178257 0.00320354 -1.74398e-05
0.000134904 -1.74398e-05 0.00317728
0.000477111 -0.000162874 1.65552e-06
-0.000162874 -1.60698e-05 1.10935e-06
1.65552e-06 1.10935e-06 -0.000121937
0.00604469 0.000116165 2.93586e-07
0.000116165 0.00363923 1.10612e-06
2.93586e-07 1.10612e-06 0.00362519
0.000462833 -0.000192414 -2.49111e-05
-0.000192414 -6.10134e-05 2.03485e-05
-2.49111e-05 2.03485e-05 -0.00017887
0.00703958 6.67629e-05 -0.000271504
6.67629e-05 0.004249 3.17463e-05
-0.000271504 3.17463e-05 0.00424553
0.00134002 0.000229136 -7.7363e-06
0.000229136 -2.3027e-05 -2.74706e-06
-7.7363e-06 -2.74706e-06 -0.000207629
0.00117429 0.000131292 -5.75338e-06
0.000131292 -9.78467e-05 -1.16542e-06
-5.75338e-06 -1.16542e-06 -0.00024611
0.00211266 0.00028866 -2.50754e-06
0.00028866 0.000122333 1.05345e-06
-2.50754e-06 1.05345e-06 -4.48261e-06
0.00202838 0.000133745 -2.20216e-06
0.000133745 6.0829e-05 -1.23962e-07
-2.20216e-06 -1.23962e-07 -1.9465e-05
0.00114009 4.75076e-05 -9.38293e-06
4.75076e-05 -8.25942e-05 -1.11262e-07
-9.38293e-06 -1.11262e-07 -0.000213541
0.000299465 2.86094e-05 -1.79495e-05
2.86094e-05 -0.000266938 -1.01463e-06
-1.79495e-05 -1.01463e-06 -0.00035075
0.00109531 -8.8916e-07 -1.95635e-08
-8.8916e-07 -9.87664e-05 1.206e-08
-1.95635e-08 1.206e-08 -0.000227681
0.00203803 6.47115e-05 4.31835e-08
6.47115e-05 7.17162e-05 1.25002e-07
4.31835e-08 1.25002e-07 -2.35826e-06
0.00208661 0.000210322 -1.52762e-07
0.000210322 9.09231e-05 1.93033e-07
-1.52762e-07 1.93033e-07 -5.83313e-06
0.00219196 0.000154352 -3.77624e-07
0.000154352 4.81382e-05 1.17348e-07
-3.77624e-07 1.17348e-07 2.88151e-05
0.00214499 0.000381507 -8.10192e-07
0.000381507 0.000166846 -2.26547e-07
-8.10192e-07 -2.26547e-07 -2.6616e-06
0.00222165 0.000325928 1.47002e-07
0.000325928 9.08235e-05 1.01625e-07
1.47002e-07 1.01625e-07 1.4783e-05
0.00206191 -4.22776e-06 3.62951e-06
-4.22776e-06 9.42374e-05 1.68622e-07
3.62951e-06 1.68622e-07 2.07252e-05
0.0021269 7.23469e-05 4.99129e-06
7.23469e-05 1.30101e-05 5.55364e-07
4.99129e-06 5.55364e-07 -8.0033e-07
0.00223704 0.000235228 6.12002e-06
0.000235228 8.86185e-05 1.36536e-06
6.12002e-06 1.36536e-06 4.94142e-05
0.00215014 0.000135479 4.14135e-06
0.000135479 8.43948e-06 1.29657e-06
4.14135e-06 1.29657e-06 1.35129e-05
0.0021908 0.000426813 2.99401e-06
0.000426813 0.000107018 4.34316e-07
2.99401e-06 4.34316e-07 -2.35225e-05
0.00223347 0.000339881 2.17838e-06
0.000339881 -6.85394e-06 2.47794e-07
2.17838e-06 2.47794e-07 -1.82616e-05
0.00121685 -3.5373e-05 -1.10759e-05
-3.5373e-05 -1.89881e-05 1.80516e-07
-1.10759e-05 1.80516e-07 -0.000138994
0.00203518 -0.000144555 -2.55584e-05
-0.000144555 0.000491432 2.4017e-06
-2.55584e-05 2.4017e-06 0.000360233
0.00202479 -0.000142914 -5.89676e-07
-0.000142914 6.67005e-05 -4.71973e-07
-5.89676e-07 -4.71973e-07 -2.20536e-05
0.00185517 -0.000294616 2.50688e-07
-0.000294616 -2.83501e-05 5.48414e-07
2.50688e-07 5.48414e-07 -0.000174843
0.000623221 -0.000276678 -2.87367e-05
-0.000276678 9.27665e-06 2.52544e-05
-2.87367e-05 2.52544e-05 -0.00014507
0.000743116 -0.000353315 -1.59462e-05
-0.000353315 -4.96754e-05 6.656e-06
-1.59462e-05 6.656e-06 -0.000360702
0.00181308 -0.000676523 -1.05729e-05
-0.000676523 0.000311991 -1.66498e-07
-1.05729e-05 -1.66498e-07 -0.000120717
0.00210099 -0.000447512 -3.40735e-06
-0.000447512 0.000239778 -3.59139e-10
-3.40735e-06 -3.59139e-10 1.62659e-05
0.00212018 -0.000417766 -9.15682e-07
-0.000417766 7.66221e-05 -1.3344e-07
-9.15682e-07 -1.3344e-07 -3.98574e-05
0.00219764 -0.000568927 -2.36789e-06
-0.000568927 0.000249927 -2.25933e-06
-2.36789e-06 -2.25933e-06 2.13327e-05
0.00242601 -0.00070075 -1.57899e-06
-0.00070075 0.000514324 -8.11535e-06
-1.57899e-06 -8.11535e-06 0.000171638
0.00199518 -0.000634803 2.08521e-06
-0.000634803 0.000131263 -2.76249e-06
2.08521e-06 -2.76249e-06 -0.00012713
0.000935093 -0.000283381 -9.28814e-06
-0.000283381 0.000248915 3.08723e-06
-9.28814e-06 3.08723e-06 -4.92407e-05
0.00031701 -0.000195456 -3.52114e-06
-0.000195456 -0.000139204 2.33948e-06
-3.52114e-06 2.33948e-06 -0.000446735
0.000509245 -0.00024263 4.26475e-08
-0.00024263 4.89723e-05 7.44054e-06
4.26475e-08 7.44054e-06 -0.000206529
0.00194909 -6.81621e-05 2.33094e-06
-6.81621e-05 2.46135e-05 -1.76506e-07
2.33094e-06 -1.76506e-07 -5.85699e-05
0.00202289 -0.000228033 2.85252e-07
-0.000228033 6.57905e-05 -1.96135e-07
2.85252e-07 -1.96135e-07 -4.14151e-05
0.00215577 -0.000151012 1.26317e-06
-0.000151012 3.95459e-05 -1.32342e-07
1.26317e-06 -1.32342e-07 6.95117e-06
0.00213657 -0.000331171 -1.54728e-06
-0.000331171 4.89884e-05 2.2666e-07
-1.54728e-06 2.2666e-07 -3.187e-05
0.000776149 -0.000297177 1.0696e-06
-0.000297177 7.75153e-05 -2.6601e-07
1.0696e-06 -2.6601e-07 -0.000213191
0.00173005 -0.000678858 -3.01005e-07
-0.000678858 0.000433896 -1.0137e-06
-3.01005e-07 -1.0137e-06 -3.31667e-05
0.00204165 -0.000794813 1.26606e-06
-0.000794813 0.000362623 1.18665e-06
1.26606e-06 1.18665e-06 -9.51019e-05
0.00205298 -0.000497985 -5.26079e-07
-0.000497985 0.000109796 6.20477e-07
-5.26079e-07 6.20477e-07 -7.16563e-05
0.00225695 -0.000443985 1.61914e-07
-0.000443985 9.5255e-05 -4.75293e-08
1.61914e-07 -4.75293e-08 2.71948e-05
0.00232156 -0.000711391 -9.26043e-07
-0.000711391 0.000405103 4.80011e-07
-9.26043e-07 4.80011e-07 7.82352e-05
0.00215455 -0.000602279 -6.0126e-07
-0.000602279 0.000161765 7.57803e-07
-6.0126e-07 7.57803e-07 -3.81353e-05
0.00236075 -0.000674904 1.18441e-06
-0.000674904 0.000365633 -6.22693e-07
1.18441e-06 -6.22693e-07 0.000121162
0.000773258 -0.000368845 -2.44086e-06
-0.000368845 7.89077e-05 5.47339e-07
-2.44086e-06 5.47339e-07 -0.000278901
0.00153621 -0.000462442 -4.57301e-07
-0.000462442 0.000628073 1.94391e-06
-4.57301e-07 1.94391e-06 0.000220967
0.000787548 -0.000185269 -1.92127e-06
-0.000185269 0.000245582 -2.11919e-06
-1.92127e-06 -2.11919e-06 5.61151e-06
0.000335977 -0.00015324 1.10363e-06
-0.00015324 -6.09208e-05 1.80044e-06
1.10363e-06 1.80044e-06 -0.000344895
0.0021902 -8.30511e-05 7.31336e-06
-8.30511e-05 7.36841e-05 -6.90499e-07
7.31336e-06 -6.90499e-07 4.81743e-05
0.00204914 -0.000237922 4.20687e-06
-0.000237922 -5.19146e-05 -1.15516e-06
4.20687e-06 -1.15516e-06 -0.000103921
0.00213147 -0.000140056 5.02171e-06
-0.000140056 2.69281e-05 -1.15886e-06
5.02171e-06 -1.15886e-06 3.52707e-05
0.00224561 -0.000358207 -1.65361e-07
-0.000358207 3.35544e-05 -1.74532e-07
-1.65361e-07 -1.74532e-07 2.01254e-05
0.00220377 -0.000537887 -1.95964e-07
-0.000537887 0.000118122 8.23335e-07
-1.95964e-07 8.23335e-07 -1.32966e-05
0.0023075 -0.000472516 1.92362e-06
-0.000472516 5.86924e-05 -8.92444e-08
1.92362e-06 -8.92444e-08 1.02479e-05
0.00148566 -0.00056601 3.90408e-06
-0.00056601 0.00044712 -1.45518e-06
3.90408e-06 -1.45518e-06 1.2156e-05
0.00222395 -0.000648651 -1.49961e-06
-0.000648651 0.000153434 1.00322e-06
-1.49961e-06 1.00322e-06 -1.51955e-05
0.00184518 -0.000843959 5.22062e-07
-0.000843959 0.000421192 9.35236e-06
5.22062e-07 9.35236e-06 -0.00011325
0.00234455 -0.000857545 6.66211e-06
-0.000857545 0.000503706 5.68539e-06
6.66211e-06 5.68539e-06 4.56443e-05
0.00232759 -0.000719683 1.80205e-07
-0.000719683 0.000389477 4.62557e-06
1.80205e-07 4.62557e-06 7.11388e-05
0.00225904 -0.000716628 -4.47804e-06
-0.000716628 0.000240878 -9.06479e-07
-4.47804e-06 -9.06479e-07 -1.22438e-05
0.0005237 -0.000185227 -3.1908e-07
-0.000185227 8.30756e-05 -9.16079e-06
-3.1908e-07 -9.16079e-06 -0.000119739
0.00106526 -0.000236751 1.30614e-06
-0.000236751 0.000452112 6.91096e-07
1.30614e-06 6.91096e-07 9.78644e-05
0.00131145 -0.000564588 2.09688e-05
-0.000564588 0.000374982 4.32429e-06
2.09688e-05 4.32429e-06 -7.74167e-05
-0.00060137 -0.000136093 2.01311e-05
-0.000136093 -0.000721417 -8.34748e-06
2.01311e-05 -8.34748e-06 -0.000995771
0.00151484 -0.000530702 2.38238e-06
-0.000530702 0.00063033 1.26486e-05
2.38238e-06 1.26486e-05 0.000150386
0.000312107 -4.68567e-06 -5.1921e-06
-4.68567e-06 -8.91062e-05 -1.34627e-05
-5.1921e-06 -1.34627e-05 -0.000155242
0.00210952 0.000460775 -5.32101e-06
0.000460775 0.000192846 -3.78253e-07
-5.32101e-06 -3.78253e-07 -2.4799e-05
0.000368777 6.03842e-05 5.56818e-07
6.03842e-05 -5.67106e-05 -4.21105e-06
5.56818e-07 -4.21105e-06 -0.00026308
5.7864e-05 0.000230599 -7.21713e-06
0.000230599 -0.000312899 7.89669e-07
-7.21713e-06 7.89669e-07 -0.000539162
0.0008121 0.000228814 -7.56854e-07
0.000228814 0.000225027 6.92659e-06
-7.56854e-07 6.92659e-06 -6.55321e-05
0.00202718 0.000587362 -4.87524e-06
0.000587362 0.000284423 1.03684e-06
-4.87524e-06 1.03684e-06 -3.15725e-05
0.00219219 0.000588227 1.03018e-07
0.000588227 0.000239659 2.05341e-06
1.03018e-07 2.05341e-06 -6.18065e-06
0.00125371 0.000533255 2.8869e-06
0.000533255 0.000283878 1.81727e-07
2.8869e-06 1.81727e-07 -0.000128029
0.00182036 0.000759611 6.37848e-06
0.000759611 0.000382356 9.03312e-06
6.37848e-06 9.03312e-06 -0.000108496
0.00226253 0.000712247 4.33881e-06
0.000712247 0.000449377 5.69914e-06
4.33881e-06 5.69914e-06 9.88444e-05
0.00223568 0.000702708 1.10074e-05
0.000702708 0.000398654 1.5446e-05
1.10074e-05 1.5446e-05 5.46133e-05
0.000439075 1.52409e-05 -3.34146e-07
1.52409e-05 -2.02956e-05 7.8875e-08
-3.34146e-07 7.8875e-08 -7.33912e-05
0.000664905 8.76336e-05 -1.43817e-06
8.76336e-05 0.000161641 -2.19966e-09
-1.43817e-06 -2.19966e-09 -2.00986e-05
0.000871835 0.000386532 4.5407e-06
0.000386532 0.000191171 2.6097e-09
4.5407e-06 2.6097e-09 -0.00013106
0.000458435 0.000106812 8.00556e-08
0.000106812 2.08665e-05 -3.35956e-06
8.00556e-08 -3.35956e-06 -0.000262669
0.000285462 0.00011828 3.09097e-07
0.00011828 -0.000234981 3.46444e-06
3.09097e-07 3.46444e-06 -0.000486389
0.00222567 0.000515296 -1.94545e-06
0.000515296 0.00018276 -1.76729e-06
-1.94545e-06 -1.76729e-06 -8.57021e-06
0.00219689 0.000669423 3.84068e-07
0.000669423 0.000313243 6.24377e-08
3.84068e-07 6.24377e-08 9.61146e-06
0.00217676 0.000643043 1.48645e-06
0.000643043 0.000210701 2.30972e-07
1.48645e-06 2.30972e-07 -3.76816e-05
0.00185942 0.000769621 1.28883e-06
0.000769621 0.000643167 -1.90087e-06
1.28883e-06 -1.90087e-06 0.000103013
0.00246614 0.000782902 3.19235e-06
0.000782902 0.000474533 3.87709e-07
3.19235e-06 3.87709e-07 0.000126982
0.00222959 0.000845139 -4.39807e-06
0.000845139 0.000579915 3.57905e-07
-4.39807e-06 3.57905e-07 0.000104731
0.000878891 0.000111904 1.44819e-06
0.000111904 0.000279859 7.38915e-06
1.44819e-06 7.38915e-06 0.000141541
0.00254434 0.000376834 2.39672e-07
0.000376834 0.0014283 1.97983e-06
2.39672e-07 1.97983e-06 0.00113652
0.000454179 0.000447422 -1.04087e-06
0.000447422 -8.52563e-05 2.37674e-06
-1.04087e-06 2.37674e-06 -0.000478004
0.00110791 0.000141271 5.63192e-06
0.000141271 0.00027244 9.15704e-07
5.63192e-06 9.15704e-07 2.40602e-05
0.00312623 0.000580761 -1.70045e-06
0.000580761 0.00148458 -1.41599e-06
-1.70045e-06 -1.41599e-06 0.00111832
0.00221087 0.000545377 -3.68067e-06
0.000545377 0.000111712 -1.53405e-06
-3.68067e-06 -1.53405e-06 -5.30641e-05
0.00219741 0.000727179 -4.85318e-06
0.000727179 0.000279923 -1.49615e-06
-4.85318e-06 -1.49615e-06 -2.67619e-05
0.00216783 0.000706532 3.71204e-07
0.000706532 0.000166484 -6.75834e-07
3.71204e-07 -6.75834e-07 -8.80425e-05
0.00134295 0.000789374 7.74033e-06
0.000789374 0.000362576 -7.40011e-06
7.74033e-06 -7.40011e-06 -0.000196764
0.00196118 0.000834134 1.27288e-05
0.000834134 0.000290765 -3.23561e-06
1.27288e-05 -3.23561e-06 -0.00013963
0.000597074 7.39497e-05 -3.77404e-07
7.39497e-05 0.000115305 1.59683e-07
-3.77404e-07 1.59683e-07 -3.39306e-06
0.000494323 0.000168568 9.83563e-07
0.000168568 7.40484e-05 5.95093e-08
9.83563e-07 5.95093e-08 -8.50081e-05
-0.000140882 9.13138e-05 2.81128e-07
9.13138e-05 -0.000293876 -1.78816e-06
2.81128e-07 -1.78816e-06 -0.000459879
0.00149151 0.000249257 -3.59669e-06
0.000249257 0.00078829 -3.7701e-06
-3.59669e-06 -3.7701e-06 0.000575653
0.00113859 0.000187852 -1.49599e-06
0.000187852 0.00054104 2.66097e-06
-1.49599e-06 2.66097e-06 0.000368374
0.000539758 8.16434e-05 1.11662e-06
8.16434e-05 9.04472e-05 4.52592e-06
1.11662e-06 4.52592e-06 2.52514e-06
0.000536852 2.86855e-05 -1.11167e-06
2.86855e-05 8.60491e-05 1.03277e-08
-1.11167e-06 1.03277e-08 -6.04693e-06
0.00138071 -8.53563e-07 1.69572e-06
-8.53563e-07 0.000587716 5.06202e-06
1.69572e-06 5.06202e-06 0.000560833
0.000500558 5.02045e-05 1.05104e-06
5.02045e-05 5.27023e-05 -6.94287e-06
1.05104e-06 -6.94287e-06 -4.56127e-05
0.00146628 -1.28499e-05 -1.17499e-05
-1.28499e-05 0.000642739 -1.91402e-06
-1.17499e-05 -1.91402e-06 0.000612007
0.00072234 -2.51252e-05 4.43959e-05
-2.51252e-05 0.00015611 1.12605e-05
4.43959e-05 1.12605e-05 0.000156276
0.00150515 -6.0095e-06 -2.33148e-05
-6.0095e-06 0.0006711 -8.31994e-06
-2.33148e-05 -8.31994e-06 0.000633719
0.00205504 -7.6104e-05 4.99124e-05
-7.6104e-05 0.00102839 1.30847e-06
4.99124e-05 1.30847e-06 0.00102345
0.00342142 -0.000138778 -5.33278e-05
-0.000138778 0.00192326 -6.19098e-06
-5.33278e-05 -6.19098e-06 0.00191471
0.000262963 4.48551e-05 -2.55431e-06
4.48551e-05 -9.84207e-05 -1.13541e-05
-2.55431e-06 -1.13541e-05 -0.000162866
0.000391577 -9.9099e-05 -2.23292e-06
-9.9099e-05 -3.99866e-05 3.66133e-07
-2.23292e-06 3.66133e-07 -0.0001291
0.00427665 0.000210163 2.85664e-05
0.000210163 0.00251085 -9.80634e-06
2.85664e-05 -9.80634e-06 0.00247675
0.00539971 0.000130631 -1.1679e-05
0.000130631 0.00323411 -8.00188e-07
-1.1679e-05 -8.00188e-07 0.00321806
0.000532497 -0.000165803 -2.28079e-05
-0.000165803 1.5049e-05 1.87311e-05
-2.28079e-05 1.87311e-05 -9.57265e-05
0.0062828 0.000112042 -0.000224438
0.000112042 0.00380155 3.19264e-05
-0.000224438 3.19264e-05 0.00378446
0.00209469 0.000376728 -3.17484e-06
0.000376728 0.000137782 1.12399e-06
-3.17484e-06 1.12399e-06 -3.09902e-05
0.00208237 0.000210353 -1.79227e-06
0.000210353 9.23796e-05 -4.71988e-08
-1.79227e-06 -4.71988e-08 -4.81638e-06
0.00224799 0.000329847 -5.12073e-06
0.000329847 0.000106358 -9.55787e-07
-5.12073e-06 -9.55787e-07 2.89008e-05
0.00216827 0.000149116 -5.30008e-06
0.000149116 2.19955e-05 -8.29401e-07
-5.30008e-06 -8.29401e-07 8.55541e-06
0.00198919 6.48159e-05 -3.51235e-06
6.48159e-05 4.22017e-05 -1.55671e-07
-3.51235e-06 -1.55671e-07 -3.2269e-05
0.00111614 3.71411e-06 -9.83913e-06
3.71411e-06 -8.60179e-05 -6.05471e-09
-9.83913e-06 -6.05471e-09 -0.000214781
0.00202851 -2.13019e-06 1.0571e-07
-2.13019e-06 7.37524e-05 1.22377e-07
1.0571e-07 1.22377e-07 -7.30715e-08
0.00214244 6.41669e-05 -5.56996e-07
6.41669e-05 2.6993e-05 -5.83166e-08
-5.56996e-07 -5.83166e-08 1.22761e-05
0.00222497 0.000233392 -1.1605e-07
0.000233392 7.41052e-05 1.04166e-07
-1.1605e-07 1.04166e-07 3.59297e-05
0.00211762 0.000136023 -1.06726e-07
0.000136023 -2.07439e-05 5.54458e-08
-1.06726e-07 5.54458e-08 -1.02675e-05
0.00223037 0.000432936 2.28023e-08
0.000432936 0.000128219 4.05191e-07
2.28023e-08 4.05191e-07 -3.98782e-06
0.00222683 0.00033033 -1.59217e-08
0.00033033 -1.26723e-05 5.47516e-09
-1.59217e-08 5.47516e-09 -2.20662e-05
0.00212792 -8.60833e-06 5.84503e-06
-8.60833e-06 2.21935e-05 -9.12609e-08
5.84503e-06 -9.12609e-08 5.30305e-06
0.00215109 5.78935e-05 4.0298e-06
5.78935e-05 1.21428e-05 2.19544e-07
4.0298e-06 2.19544e-07 3.64588e-05
0.0021654 0.000211276 7.15783e-07
0.000211276 -1.78559e-05 4.48977e-07
7.15783e-07 4.48977e-07 -1.62901e-05
0.00224578 0.000141547 -2.12908e-07
0.000141547 -1.78697e-05 8.62489e-07
-2.12908e-07 8.62489e-07 2.70805e-05
0.00223251 0.000438798 7.75715e-07
0.000438798 3.63675e-05 4.10153e-07
7.75715e-07 4.10153e-07 -3.19796e-05
0.00236489 0.00032955 3.32134e-07
0.00032955 -6.94625e-06 8.96617e-08
3.32134e-07 8.96617e-08 1.11936e-05
0.00204043 -6.49806e-05 -1.64156e-06
-6.49806e-05 8.46746e-05 -1.91466e-07
-1.64156e-06 -1.91466e-07 7.5827e-06
0.00204226 -0.000234833 1.23862e-06
-0.000234833 8.05473e-05 -5.25765e-07
1.23862e-06 -5.25765e-07 -2.6201e-05
0.00221655 -0.000149327 -3.97173e-06
-0.000149327 7.18668e-05 5.67473e-07
-3.97173e-06 5.67473e-07 4.69768e-05
0.00204334 -0.000318933 -4.77887e-06
-0.000318933 -4.92593e-06 1.23828e-06
-4.77887e-06 1.23828e-06 -8.91261e-05
0.00061003 -0.000300493 -1.16398e-05
-0.000300493 -2.35869e-05 7.33794e-06
-1.16398e-05 7.33794e-06 -0.000321398
0.00172703 -0.000676251 -1.40244e-05
-0.000676251 0.000451607 7.81415e-08
-1.40244e-05 7.81415e-08 -1.34872e-05
0.00189228 -0.000773116 -2.80325e-06
-0.000773116 0.000284955 -5.04241e-06
-2.80325e-06 -5.04241e-06 -0.000173224
0.00209094 -0.000496271 -3.01418e-06
-0.000496271 0.000142613 -5.62405e-07
-3.01418e-06 -5.62405e-07 -4.5881e-05
0.00219701 -0.000444708 -9.97993e-07
-0.000444708 4.28727e-05 -7.94043e-08
-9.97993e-07 -7.94043e-08 -1.8515e-05
0.00211456 -0.000597714 -6.61568e-07
-0.000597714 0.000134006 -6.47101e-07
-6.61568e-07 -6.47101e-07 -6.52028e-05
0.00219036 -0.000711924 2.37695e-07
-0.000711924 0.000305126 -6.34551e-06
2.37695e-07 -6.34551e-06 -2.48189e-05
0.00228143 -0.000666723 3.69462e-06
-0.000666723 0.000308605 -2.78599e-06
3.69462e-06 -2.78599e-06 6.67103e-05
0.00074525 -0.000372256 2.6889e-07
-0.000372256 6.15416e-05 -1.15648e-06
2.6889e-07 -1.15648e-06 -0.000306054
8.44227e-05 -0.00030695 -1.36874e-05
-0.00030695 -0.000312713 -1.87913e-06
-1.36874e-05 -1.87913e-06 -0.000691896
0.000542141 -0.000184193 -5.09269e-06
-0.000184193 7.77712e-05 5.73286e-06
-5.09269e-06 5.73286e-06 -0.000156144
1.40845e-05 -0.000187849 -3.49698e-06
-0.000187849 -0.000309423 2.23363e-06
-3.49698e-06 2.23363e-06 -0.000564724
0.00219705 -8.32787e-05 -1.36459e-07
-8.32787e-05 7.77001e-05 3.85397e-08
-1.36459e-07 3.85397e-08 5.1975e-05
0.00210093 -0.000242796 2.17747e-06
-0.000242796 -1.18664e-05 -4.50918e-07
2.17747e-06 -4.50918e-07 -6.51178e-05
0.0020949 -0.000138837 4.94573e-07
-0.000138837 -3.38773e-06 -1.93472e-07
4.94573e-07 -1.93472e-07 7.09259e-06
0.00221277 -0.000355619 -4.0055e-07
-0.000355619 2.15741e-05 1.83881e-07
-4.0055e-07 1.83881e-07 7.36637e-07
0.00148028 -0.000538989 -3.18383e-06
-0.000538989 0.000418919 9.8462e-08
-3.18383e-06 9.8462e-08 7.31385e-08
0.0018227 -0.000839974 3.02584e-06
-0.000839974 0.000419043 2.63121e-09
3.02584e-06 2.63121e-09 -0.000117092
0.00227654 -0.000867332 -5.06245e-07
-0.000867332 0.000456851 6.19708e-07
-5.06245e-07 6.19708e-07 -9.70131e-06
0.00222995 -0.000535714 -1.11098e-06
-0.000535714 0.000145304 3.24529e-07
-1.11098e-06 3.24529e-07 7.52144e-06
0.0022716 -0.000470842 9.26051e-07
-0.000470842 3.63756e-05 -4.26729e-07
9.26051e-07 -4.26729e-07 -6.32253e-06
0.00229956 -0.000722378 -1.00558e-06
-0.000722378 0.000381218 8.7667e-07
-1.00558e-06 8.7667e-07 6.1491e-05
0.00222149 -0.000653382 -1.05274e-06
-0.000653382 0.000141003 8.32267e-07
-1.05274e-06 8.32267e-07 -2.79968e-05
0.00227844 -0.000718278 5.37267e-06
-0.000718278 0.000250163 -4.48357e-06
5.37267e-06 -4.48357e-06 6.41385e-07
0.00145865 -0.000594853 -1.12648e-07
-0.000594853 0.000480877 -1.56823e-06
-1.12648e-07 -1.56823e-06 1.71284e-05
0.00175323 -0.000574242 2.51649e-06
-0.000574242 0.000761742 2.50031e-06
2.51649e-06 2.50031e-06 0.000290606
0.000973111 -0.000244821 -3.11622e-07
-0.000244821 0.000298317 -5.23438e-06
-3.11622e-07 -5.23438e-06 -8.12704e-07
0.000182155 -0.00011828 -2.6641e-06
-0.00011828 -0.000127756 1.1856e-06
-2.6641e-06 1.1856e-06 -0.00033209
2.94957e-06 -0.000179904 -1.85007e-06
-0.000179904 -0.000238817 2.00329e-07
-1.85007e-06 2.00329e-07 -0.000569517
0.00209059 -8.37996e-05 2.55127e-06
-8.37996e-05 -2.41007e-05 -7.00508e-07
2.55127e-06 -7.00508e-07 -1.35417e-06
0.00215804 -0.000212161 6.9823e-07
-0.000212161 -2.1792e-05 -9.73e-07
6.9823e-07 -9.73e-07 -7.03468e-06
0.00231601 -0.000428709 -9.93176e-07
-0.000428709 -2.94467e-05 -9.61036e-08
-9.93176e-07 -9.61036e-08 -1.49726e-05
0.00227557 -0.000561736 4.28965e-07
-0.000561736 6.08361e-05 6.65768e-07
4.28965e-07 6.65768e-07 -7.43647e-06
0.00161668 -0.000746336 6.98516e-06
-0.000746336 0.00048652 5.66484e-06
6.98516e-06 5.66484e-06 -4.34348e-05
0.00249405 -0.000784467 -5.94172e-06
-0.000784467 0.000210825 -4.06296e-07
-5.94172e-06 -4.06296e-07 7.83186e-06
0.00146381 -0.000887871 -1.33299e-05
-0.000887871 0.000199608 9.6005e-06
-1.33299e-05 9.6005e-06 -0.000365635
0.00251353 -0.000937847 -1.366e-06
-0.000937847 0.000573947 4.37981e-06
-1.366e-06 4.37981e-06 9.34985e-05
0.00199641 -0.00069352 -9.77694e-06
-0.00069352 0.000173586 3.54962e-07
-9.77694e-06 3.54962e-07 -0.000128233
1.29295e-05 -6.57461e-05 -1.14075e-06
-6.57461e-05 -0.000225784 -8.17698e-06
-1.14075e-06 -8.17698e-06 -0.000371098
0.00103375 -0.000293936 -4.37234e-06
-0.000293936 0.00052305 -2.72983e-06
-4.37234e-06 -2.72983e-06 0.00017541
0.00344466 -0.000232011 -4.72958e-06
-0.000232011 0.00189209 -2.53773e-06
-4.72958e-06 -2.53773e-06 0.00156193
0.0020823 -0.00073872 -1.01817e-06
-0.00073872 0.000862962 5.33727e-06
-1.01817e-06 5.33727e-06 0.000343257
0.00034552 -0.000321879 1.62029e-05
-0.000321879 -0.000162905 -3.84231e-06
1.62029e-05 -3.84231e-06 -0.000540927
0.0019088 -0.000653526 -1.69534e-06
-0.000653526 0.000846356 1.47161e-05
-1.69534e-06 1.47161e-05 0.000321675
0.000394413 1.63287e-05 -4.20897e-06
1.63287e-05 -4.6793e-05 -1.20275e-05
-4.20897e-06 -1.20275e-05 -9.97441e-05
0.000152071 7.22761e-05 -1.30489e-06
7.22761e-05 -0.0001591 -8.06958e-06
-1.30489e-06 -8.06958e-06 -0.000337684
0.00224584 0.000516845 -4.01365e-06
0.000516845 0.00019898 -7.41597e-07
-4.01365e-06 -7.41597e-07 7.35638e-06
-0.000724039 1.37988e-05 -2.11872e-06
1.37988e-05 -0.000707844 1.27209e-06
-2.11872e-06 1.27209e-06 -0.000996158
0.00225135 0.000474274 9.51467e-06
0.000474274 0.00106611 -4.53123e-06
9.51467e-06 -4.53123e-06 0.000743322
0.000304503 0.000147622 -7.04641e-06
0.000147622 -0.000231473 -2.7754e-06
-7.04641e-06 -2.7754e-06 -0.000504507
0.00216541 0.00066494 2.23247e-06
0.00066494 0.000297673 2.509e-06
2.23247e-06 2.509e-06 -4.51649e-06
0.00218588 0.000645454 3.61702e-06
0.000645454 0.000220103 1.0887e-06
3.61702e-06 1.0887e-06 -2.90488e-05
0.00184702 0.000764261 6.28822e-06
0.000764261 0.000650646 5.60015e-06
6.28822e-06 5.60015e-06 0.000107771
0.00253742 0.000867496 -3.22066e-06
0.000867496 0.000792983 7.01399e-06
-3.22066e-06 7.01399e-06 0.000320856
0.00235466 0.000773385 4.93884e-06
0.000773385 0.000381595 4.33123e-06
4.93884e-06 4.33123e-06 3.31121e-05
0.000665426 0.000103431 7.03563e-07
0.000103431 0.000144888 1.80057e-07
7.03563e-07 1.80057e-07 1.06319e-05
0.000753863 0.000190667 -1.59614e-06
0.000190667 0.000281677 2.24203e-07
-1.59614e-06 2.24203e-07 1.17671e-05
0.000880255 0.00050936 7.25386e-07
0.00050936 0.000168301 1.08311e-06
7.25386e-07 1.08311e-06 -0.000250979
0.0006891 7.92367e-05 -4.15744e-07
7.92367e-05 1.39358e-05 -5.81174e-07
-4.15744e-07 -5.81174e-07 -0.000233497
0.00144147 0.000375199 3.333e-06
0.000375199 0.000364836 -5.41219e-06
3.333e-06 -5.41219e-06 4.60746e-05
0.00220113 0.000546306 -2.27211e-06
0.000546306 0.000118481 -1.15261e-06
-2.27211e-06 -1.15261e-06 -4.7938e-05
0.00227029 0.000735063 2.50682e-06
0.000735063 0.000314017 6.91743e-07
2.50682e-06 6.91743e-07 5.65728e-06
0.00219545 0.000708862 1.25726e-06
0.000708862 0.000169972 1.59325e-07
1.25726e-06 1.59325e-07 -8.55258e-05
0.00167936 0.000848523 2.17073e-06
0.000848523 0.000541785 8.7686e-07
2.17073e-06 8.7686e-07 -2.66366e-05
0.00197499 0.000840505 -2.06013e-06
0.000840505 0.000327919 -2.41433e-06
-2.06013e-06 -2.41433e-06 -0.000110148
0.00154049 0.000269744 2.87506e-06
0.000269744 0.000764889 2.84295e-06
2.87506e-06 2.84295e-06 0.000550351
-0.000414142 8.65507e-05 7.28702e-07
8.65507e-05 -0.000449824 -6.97981e-07
7.28702e-07 -6.97981e-07 -0.000757384
0.00139909 0.000651847 1.1557e-06
0.000651847 0.000494181 -6.11493e-06
1.1557e-06 -6.11493e-06 8.64307e-06
-0.000915924 0.000200653 5.20947e-06
0.000200653 -0.00112467 2.14968e-06
5.20947e-06 2.14968e-06 -0.0013858
0.00270688 0.000705336 2.39763e-06
0.000705336 0.00109837 -5.21632e-06
2.39763e-06 -5.21632e-06 0.000679139
0.00238991 0.000633751 -2.96873e-06
0.000633751 0.0001148 -3.38793e-07
-2.96873e-06 -3.38793e-07 5.45822e-07
0.00228945 0.000791404 8.71844e-06
0.000791404 0.000279952 -3.20829e-06
8.71844e-06 -3.20829e-06 -6.59458e-05
0.00218793 0.000731336 6.71269e-06
0.000731336 9.73143e-05 8.51672e-07
6.71269e-06 8.51672e-07 -0.000177284
0.00198914 0.000909794 1.49094e-05
0.000909794 0.000661875 5.47905e-07
1.49094e-05 5.47905e-07 9.56134e-05
0.00228264 0.000983614 7.771e-06
0.000983614 0.000550441 -1.3237e-07
7.771e-06 -1.3237e-07 4.65557e-05
0.000519322 5.9731e-05 6.63914e-07
5.9731e-05 6.35302e-05 -7.7718e-06
6.63914e-07 -7.7718e-06 -5.16872e-05
0.000820039 0.000148784 8.25167e-07
0.000148784 0.000289358 -1.28114e-06
8.25167e-07 -1.28114e-06 0.000123768
1.84456e-05 0.000102776 -2.52206e-06
0.000102776 -0.000225382 -7.83361e-06
-2.52206e-06 -7.83361e-06 -0.000356375
-0.000460919 -1.9473e-05 4.0401e-06
-1.9473e-05 -0.00051611 -1.664e-06
4.0401e-06 -1.664e-06 -0.000664677
0.00055322 9.43547e-05 -1.34424e-06
9.43547e-05 0.000150689 3.89604e-07
-1.34424e-06 3.89604e-07 -3.71965e-06
0.000285862 0.00010737 1.79265e-06
0.00010737 -8.88982e-06 -3.49946e-07
1.79265e-06 -3.49946e-07 -0.00018255
0.000603408 0.000179259 -1.6809e-06
0.000179259 0.000183255 -1.12045e-05
-1.6809e-06 -1.12045e-05 2.11595e-05
0.000313111 3.47484e-05 -4.6812e-06
3.47484e-05 2.68179e-05 1.20327e-06
-4.6812e-06 1.20327e-06 -0.00015784
0.000722349 0.0001206 -6.77232e-07
0.0001206 0.000237907 2.35554e-06
-6.77232e-07 2.35554e-06 0.000105832
0.000513017 8.57857e-05 2.2402e-06
8.57857e-05 7.37113e-05 4.4654e-06
2.2402e-06 4.4654e-06 -1.46146e-05
0.000468019 3.24999e-05 -2.85561e-06
3.24999e-05 3.89412e-05 1.09451e-07
-2.85561e-06 1.09451e-07 -4.58643e-05
0.00133236 6.9508e-06 2.26455e-06
6.9508e-06 0.000558435 4.35452e-06
2.26455e-06 4.35452e-06 0.000535003
0.000301845 -7.69556e-05 5.63427e-06
-7.69556e-05 -5.59401e-05 -5.21784e-06
5.63427e-06 -5.21784e-06 -0.00015197
0.00140431 7.99588e-08 -1.00929e-05
7.99588e-08 0.000601994 -1.80188e-06
-1.00929e-05 -1.80188e-06 0.000577394
0.000734337 -1.87183e-05 3.6987e-05
-1.87183e-05 0.000163003 1.00907e-05
3.6987e-05 1.00907e-05 0.000166419
0.00146851 -4.05213e-06 -1.76883e-05
-4.05213e-06 0.000641782 -9.59645e-06
-1.76883e-05 -9.59645e-06 0.000613506
0.000746819 -3.56686e-05 1.68521e-05
-3.56686e-05 0.000172358 4.03464e-06
1.68521e-05 4.03464e-06 0.000168025
0.00310149 -0.000134733 1.99848e-06
-0.000134733 0.00170894 -4.14126e-06
1.99848e-06 -4.14126e-06 0.00170042
0.000273969 7.61325e-05 -5.30683e-06
7.61325e-05 -8.4069e-05 -8.28681e-06
-5.30683e-06 -8.28681e-06 -0.000139417
0.000368757 -2.30306e-05 -4.00286e-06
-2.30306e-05 -3.88424e-05 5.76754e-07
-4.00286e-06 5.76754e-07 -0.000104023
0.0034471 0.000196338 -2.23937e-05
0.000196338 0.0019713 -1.07897e-05
-2.23937e-05 -1.07897e-05 0.00194576
0.000627604 -0.000131374 -1.66509e-05
-0.000131374 0.000105367 1.46955e-05
-1.66509e-05 1.46955e-05 1.35091e-05
0.00469319 0.000157844 -4.37515e-05
0.000157844 0.00277342 -4.48159e-08
-4.37515e-05 -4.48159e-08 0.00275291
0.00569306 0.000132983 -0.000182602
0.000132983 0.003431 2.89373e-05
-0.000182602 2.89373e-05 0.00341075
0.0022683 0.000438906 -4.02407e-06
0.000438906 0.000148205 5.30568e-09
-4.02407e-06 5.30568e-09 1.43807e-05
0.00222046 0.000230784 -5.80103e-06
0.000230784 6.60973e-05 -9.82254e-07
-5.80103e-06 -9.82254e-07 2.91085e-05
0.00222335 0.000320837 -1.89155e-07
0.000320837 -1.61913e-05 -2.53627e-07
-1.89155e-07 -2.53627e-07 -2.36083e-05
0.00208262 0.000136803 -5.82993e-07
0.000136803 -5.09779e-05 -7.60229e-07
-5.82993e-07 -7.60229e-07 -3.54219e-05
0.00215536 5.71823e-05 -6.467e-06
5.71823e-05 3.92962e-05 -2.1578e-07
-6.467e-06 -2.1578e-07 2.34936e-05
0.0019997 -6.02702e-07 -3.51197e-06
-6.02702e-07 5.57191e-05 5.67757e-08
-3.51197e-06 5.67757e-08 -1.83369e-05
0.00216004 -1.03332e-05 1.3867e-07
-1.03332e-05 4.85072e-05 1.1871e-08
1.3867e-07 1.1871e-08 2.93954e-05
0.00213697 5.9924e-05 9.84588e-07
5.9924e-05 7.00143e-06 8.4745e-09
9.84588e-07 8.4745e-09 2.70801e-05
0.00218432 0.000211888 -3.28139e-07
0.000211888 3.7725e-07 -1.92802e-08
-3.28139e-07 -1.92802e-08 1.85816e-06
0.00220763 0.000141699 5.56098e-07
0.000141699 -4.81033e-05 9.16512e-08
5.56098e-07 9.16512e-08 4.19253e-06
0.00225629 0.000438735 -4.30911e-07
0.000438735 5.8534e-05 1.9332e-07
-4.30911e-07 1.9332e-07 -1.13376e-05
0.00232891 0.000332049 2.28739e-06
0.000332049 -2.97293e-05 6.32597e-07
2.28739e-06 6.32597e-07 -4.41894e-06
0.00208716 -1.50252e-05 2.85765e-06
-1.50252e-05 -2.23829e-05 -1.33525e-07
2.85765e-06 -1.33525e-07 -5.18569e-06
0.00222406 6.93971e-05 -4.69358e-07
6.93971e-05 -4.77679e-05 2.3735e-07
-4.69358e-07 2.3735e-07 1.82768e-05
0.00230639 0.00021647 -3.07706e-06
0.00021647 -3.32181e-05 7.96682e-09
-3.07706e-06 7.96682e-09 1.76782e-05
0.00243362 0.000471378 -2.4159e-06
0.000471378 1.41795e-05 -4.5494e-07
-2.4159e-06 -4.5494e-07 2.64263e-05
0.00220242 -8.35218e-05 -7.55039e-06
-8.35218e-05 8.03636e-05 7.72438e-07
-7.55039e-06 7.72438e-07 5.44187e-05
0.00213872 -0.000248085 -3.03783e-06
-0.000248085 1.93234e-05 4.32148e-07
-3.03783e-06 4.32148e-07 -3.55097e-05
0.00205679 -0.000138256 -2.83047e-06
-0.000138256 -3.46677e-05 7.73241e-07
-2.83047e-06 7.73241e-07 -2.23476e-05
0.0021824 -0.000353229 -3.54744e-06
-0.000353229 9.57618e-06 6.38695e-07
-3.54744e-06 6.38695e-07 -1.83394e-05
0.00107091 -0.000503346 -2.87397e-06
-0.000503346 0.000148249 -9.97978e-07
-2.87397e-06 -9.97978e-07 -0.000264158
0.00186553 -0.000841856 4.25952e-06
-0.000841856 0.000456314 -8.9998e-06
4.25952e-06 -8.9998e-06 -8.19501e-05
0.0022694 -0.000885695 -3.39028e-06
-0.000885695 0.000446869 -5.55616e-06
-3.39028e-06 -5.55616e-06 -3.08098e-05
0.00225304 -0.000533091 -3.61927e-06
-0.000533091 0.000170986 2.06974e-07
-3.61927e-06 2.06974e-07 2.74291e-05
0.00223295 -0.000469412 1.69421e-06
-0.000469412 1.19505e-05 -2.79403e-07
1.69421e-06 -2.79403e-07 -2.45395e-05
0.00220784 -0.000655999 -9.82673e-07
-0.000655999 0.000123237 5.16942e-07
-9.82673e-07 5.16942e-07 -4.59596e-05
0.00224618 -0.000713988 -1.64945e-06
-0.000713988 0.000356648 -3.35017e-06
-1.64945e-06 -3.35017e-06 3.95958e-05
0.00233728 -0.000719786 9.60183e-06
-0.000719786 0.000286925 -3.60676e-06
9.60183e-06 -3.60676e-06 3.86425e-05
0.00144265 -0.0005869 -2.28385e-05
-0.0005869 0.000512515 -4.05351e-06
-2.28385e-05 -4.05351e-06 4.73528e-05
0.000565151 -0.000441967 2.33587e-06
-0.000441967 -1.92052e-05 -1.21481e-05
2.33587e-06 -1.21481e-05 -0.000456823
0.00303888 -0.000350205 -8.90798e-06
-0.000350205 0.0015708 -2.46196e-06
-8.90798e-06 -2.46196e-06 0.00127687
-8.1629e-05 -7.87657e-05 2.70829e-06
-7.87657e-05 -0.000295565 6.49144e-06
2.70829e-06 6.49144e-06 -0.000497552
-0.000141592 -0.000136084 4.32261e-06
-0.000136084 -0.000313877 -2.57948e-06
4.32261e-06 -2.57948e-06 -0.000642273
0.00207398 -9.13052e-05 3.906e-08
-9.13052e-05 -3.54611e-05 -9.81432e-08
3.906e-08 -9.81432e-08 -1.38828e-05
0.00217493 -0.000213274 1.71562e-06
-0.000213274 -1.45696e-05 -9.05965e-09
1.71562e-06 -9.05965e-09 -5.41175e-07
0.00229828 -0.000421404 -8.00854e-07
-0.000421404 -2.30271e-05 2.33225e-07
-8.00854e-07 2.33225e-07 -1.63558e-05
0.00178758 -0.000750173 -1.81238e-06
-0.000750173 0.000589551 -3.12473e-07
-1.81238e-06 -3.12473e-07 6.42006e-05
0.00156533 -0.000879282 5.16477e-06
-0.000879282 0.000267246 -7.1996e-07
5.16477e-06 -7.1996e-07 -0.000292036
0.00235899 -0.000937879 -1.43586e-06
-0.000937879 0.000481333 8.10901e-08
-1.43586e-06 8.10901e-08 -4.80318e-06
0.00228153 -0.000557318 4.71661e-07
-0.000557318 6.92481e-05 -2.50952e-07
4.71661e-07 -2.50952e-07 -1.05345e-06
0.00221107 -0.000736306 3.15536e-06
-0.000736306 0.000274663 -4.43045e-06
3.15536e-06 -4.43045e-06 -3.20451e-05
0.00243898 -0.000764255 -1.01425e-06
-0.000764255 0.000209724 -5.02589e-07
-1.01425e-06 -5.02589e-07 1.42978e-05
-0.000315352 1.54573e-05 -1.86398e-06
1.54573e-05 -0.000453568 -5.28786e-07
-1.86398e-06 -5.28786e-07 -0.000582434
0.00147314 -0.000645518 -1.91259e-07
-0.000645518 0.000515291 -1.32665e-06
-1.91259e-07 -1.32665e-06 8.42e-06
0.0011573 -0.000568559 -4.90979e-06
-0.000568559 0.000382145 -7.85415e-07
-4.90979e-06 -7.85415e-07 -0.00014983
0.00110936 -0.000343825 -3.77983e-06
-0.000343825 0.000326716 3.18636e-06
-3.77983e-06 3.18636e-06 -6.59336e-05
0.00181801 -0.000429355 1.17736e-06
-0.000429355 0.000899513 -1.55129e-06
1.17736e-06 -1.55129e-06 0.000535271
0.00036764 -0.000156904 -4.79029e-07
-0.000156904 8.1617e-05 9.99616e-07
-4.79029e-07 9.99616e-07 -0.000248571
0.00218241 -0.000114369 -8.66135e-07
-0.000114369 -5.63698e-05 -7.77505e-07
-8.66135e-07 -7.77505e-07 -2.2848e-06
0.00234468 -0.000286533 -1.33388e-06
-0.000286533 -7.05452e-05 -2.45607e-07
-1.33388e-06 -2.45607e-07 4.49821e-06
0.00238627 -0.000521997 -6.5945e-07
-0.000521997 -2.07016e-05 3.5056e-07
-6.5945e-07 3.5056e-07 3.18934e-06
0.00242202 -0.00067415 -1.36683e-06
-0.00067415 4.83218e-05 -3.9614e-08
-1.36683e-06 -3.9614e-08 2.54885e-06
0.00195711 -0.000854329 -5.49796e-06
-0.000854329 0.000691925 6.07973e-06
-5.49796e-06 6.07973e-06 0.000123325
0.00245586 -0.0008836 -7.64113e-06
-0.0008836 0.000293577 -2.90015e-06
-7.64113e-06 -2.90015e-06 -2.25001e-06
0.00207095 -0.00103267 -5.26017e-05
-0.00103267 0.000563729 1.0558e-05
-5.26017e-05 1.0558e-05 -5.14719e-05
0.00221416 -0.000968132 -2.78215e-05
-0.000968132 0.000413895 5.41342e-06
-2.78215e-05 5.41342e-06 -8.21958e-05
-0.000229597 4.6212e-05 -5.49341e-06
4.6212e-05 -0.000402785 -5.72815e-06
-5.49341e-06 -5.72815e-06 -0.000497634
0.00102517 -4.07461e-05 -2.52826e-06
-4.07461e-05 0.000491617 -2.28457e-06
-2.52826e-06 -2.28457e-06 0.000248427
0.0024291 -0.000468211 -1.10693e-05
-0.000468211 0.00142131 -2.62471e-06
-1.10693e-05 -2.62471e-06 0.00103871
5.0019e-05 -0.000275173 -3.64563e-06
-0.000275173 -0.000244291 -8.80478e-06
-3.64563e-06 -8.80478e-06 -0.000615064
0.00311071 -0.00088227 -8.97188e-06
-0.00088227 0.00150503 1.63542e-05
-8.97188e-06 1.63542e-05 0.0009368
0.00174851 -0.000648095 6.6408e-06
-0.000648095 0.000757439 1.3893e-05
6.6408e-06 1.3893e-05 0.000160847
0.000525483 8.72759e-05 -1.30629e-07
8.72759e-05 5.80082e-05 -8.07695e-06
-1.30629e-07 -8.07695e-06 -7.45354e-05
-0.000650999 6.1735e-05 5.69967e-07
6.1735e-05 -0.000616341 -5.98754e-07
5.69967e-07 -5.98754e-07 -0.000871106
0.00219141 0.000547646 -1.2343e-06
0.000547646 0.000124262 -9.08186e-07
-1.2343e-06 -9.08186e-07 -4.39164e-05
0.000323926 5.38775e-05 -4.76757e-06
5.38775e-05 -0.000205698 3.13981e-06
-4.76757e-06 3.13981e-06 -0.000454738
0.00150048 0.000595026 5.76138e-06
0.000595026 0.000547135 -4.34932e-06
5.76138e-06 -4.34932e-06 9.61854e-05
5.02576e-05 0.000176487 -7.47277e-06
0.000176487 -0.000518086 -7.33542e-06
-7.47277e-06 -7.33542e-06 -0.000777332
0.00233987 0.000742812 5.19245e-06
0.000742812 0.000345349 1.86073e-06
5.19245e-06 1.86073e-06 3.53046e-05
0.00220455 0.000708837 -3.11401e-06
0.000708837 0.000163177 5.02694e-07
-3.11401e-06 5.02694e-07 -9.2711e-05
0.00209077 0.000916308 -4.19722e-06
0.000916308 0.00076738 5.56887e-06
-4.19722e-06 5.56887e-06 0.000187198
0.00203083 0.000850314 -7.68472e-06
0.000850314 0.000396251 2.36248e-06
-7.68472e-06 2.36248e-06 -5.13967e-05
0.000765174 0.000194849 -7.43515e-07
0.000194849 0.000261698 -4.05532e-07
-7.43515e-07 -4.05532e-07 5.93341e-05
0.00050737 0.000195071 2.05136e-06
0.000195071 0.000125184 -1.44351e-06
2.05136e-06 -1.44351e-06 -0.000194947
0.00128015 0.000625487 -3.15499e-06
0.000625487 0.000421723 -8.26368e-07
-3.15499e-06 -8.26368e-07 -5.54961e-05
0.00147151 0.000286315 -2.12001e-06
0.000286315 0.000370735 2.07241e-06
-2.12001e-06 2.07241e-06 0.00010902
0.00249806 0.000640686 -1.28141e-07
0.000640686 0.000951595 -1.03359e-06
-1.28141e-07 -1.03359e-06 0.000552256
0.0024266 0.000642752 -2.42592e-06
0.000642752 0.000119146 -6.42638e-07
-2.42592e-06 -6.42638e-07 1.90443e-06
0.00246246 0.000788534 2.96965e-06
0.000788534 0.000394565 -7.91045e-07
2.96965e-06 -7.91045e-07 5.87979e-05
0.00248467 0.000762009 7.82924e-07
0.000762009 0.000279982 2.64712e-06
7.82924e-07 2.64712e-06 -8.48021e-07
0.00187413 0.000906264 4.89022e-06
0.000906264 0.000588044 1.30743e-06
4.89022e-06 1.30743e-06 1.68933e-05
0.00224185 0.00101827 -4.81852e-06
0.00101827 0.000529676 9.24642e-07
-4.81852e-06 9.24642e-07 2.67776e-06
-0.00169168 2.59271e-05 -7.61082e-06
2.59271e-05 -0.00127647 2.64738e-06
-7.61082e-06 2.64738e-06 -0.00146709
-0.00231983 0.000131835 -2.14487e-06
0.000131835 -0.0015671 -2.25129e-06
-2.14487e-06 -2.25129e-06 -0.00192398
0.00183115 0.000741501 6.86226e-06
0.000741501 0.000670239 -4.18002e-06
6.86226e-06 -4.18002e-06 0.00016961
0.00176841 0.000473412 5.56612e-06
0.000473412 0.000474191 -1.67683e-06
5.56612e-06 -1.67683e-06 0.000149355
0.0026173 0.000622618 -6.43517e-08
0.000622618 -9.51621e-05 2.22958e-07
-6.43517e-08 2.22958e-07 -1.77649e-05
0.00261721 0.000773739 6.07805e-06
0.000773739 0.000250864 1.04665e-06
6.07805e-06 1.04665e-06 4.97788e-05
0.00252187 0.000947891 8.86264e-06
0.000947891 0.000437061 -4.28186e-06
8.86264e-06 -4.28186e-06 -7.5253e-06
0.00181319 0.00100371 6.02739e-06
0.00100371 0.000389313 -6.9083e-07
6.02739e-06 -6.9083e-07 -0.000210035
0.00123939 0.000194636 1.25299e-06
0.000194636 0.000584228 1.14176e-06
1.25299e-06 1.14176e-06 0.000392976
0.000497774 0.000192845 -3.45302e-06
0.000192845 0.000110558 -2.78439e-07
-3.45302e-06 -2.78439e-07 -4.48871e-05
0.00118172 0.000147693 -9.93084e-06
0.000147693 0.000554749 -6.91989e-06
-9.93084e-06 -6.91989e-06 0.000442317
0.000259407 5.08006e-05 1.25493e-06
5.08006e-05 -6.34381e-05 -3.1071e-06
1.25493e-06 -3.1071e-06 -0.00019638
-0.00101953 5.76848e-05 5.88526e-07
5.76848e-05 -0.000814746 2.1749e-06
5.88526e-07 2.1749e-06 -0.000987527
0.000685058 7.1949e-05 -8.91622e-07
7.1949e-05 0.000215809 1.11495e-08
-8.91622e-07 1.11495e-08 8.20144e-05
0.000644293 0.000199534 2.05086e-06
0.000199534 0.000245541 1.39224e-06
2.05086e-06 1.39224e-06 7.54625e-05
0.000556822 9.69273e-05 8.48401e-07
9.69273e-05 0.000205676 1.50326e-06
8.48401e-07 1.50326e-06 1.77417e-06
0.000558848 0.000147847 1.72262e-06
0.000147847 9.27737e-05 -1.12148e-05
1.72262e-06 -1.12148e-05 5.42565e-06
0.000643819 5.98584e-05 -3.95411e-07
5.98584e-05 0.000249102 -7.12637e-06
-3.95411e-07 -7.12637e-06 5.15442e-05
-0.000104316 7.21887e-05 -8.50979e-07
7.21887e-05 -0.000252325 2.85825e-06
-8.50979e-07 2.85825e-06 -0.000425093
0.000712971 0.000132104 1.94986e-06
0.000132104 0.000230043 4.26701e-06
1.94986e-06 4.26701e-06 9.3928e-05
0.000444338 9.04022e-05 2.44239e-06
9.04022e-05 3.59293e-05 4.23311e-06
2.44239e-06 4.23311e-06 -5.81546e-05
0.000430603 2.06685e-05 -1.66638e-06
2.06685e-05 1.72949e-05 -4.29846e-07
-1.66638e-06 -4.29846e-07 -6.82708e-05
0.00126654 1.28002e-05 4.13941e-07
1.28002e-05 0.000521457 3.56947e-06
4.13941e-07 3.56947e-06 0.000498216
0.000415506 -4.338e-05 1.83073e-06
-4.338e-05 1.34227e-06 -4.01426e-06
1.83073e-06 -4.01426e-06 -8.03033e-05
0.00133523 -1.56516e-07 -9.2895e-06
-1.56516e-07 0.000560338 -1.77288e-06
-9.2895e-06 -1.77288e-06 0.00053788
0.00066621 -8.79575e-06 3.38002e-05
-8.79575e-06 0.000121874 1.01374e-05
3.38002e-05 1.01374e-05 0.000126252
0.00136792 -2.6944e-05 -1.15242e-05
-2.6944e-05 0.000579457 -8.16497e-06
-1.15242e-05 -8.16497e-06 0.000555786
0.000730132 -2.52125e-05 1.43307e-05
-2.52125e-05 0.000158872 3.78901e-06
1.43307e-05 3.78901e-06 0.000159635
0.000723579 -3.96939e-05 2.07378e-06
-3.96939e-05 0.000158315 -4.41983e-06
2.07378e-06 -4.41983e-06 0.00015175
0.000329282 4.72989e-05 -2.54315e-06
4.72989e-05 -7.66328e-05 -6.58145e-06
-2.54315e-06 -6.58145e-06 -0.000112104
0.000415514 6.23562e-05 -1.45215e-06
6.23562e-05 -3.88361e-06 1.16883e-07
-1.45215e-06 1.16883e-07 -5.4972e-05
0.00278781 0.000143192 -7.69486e-06
0.000143192 0.0015278 -7.78052e-06
-7.69486e-06 -7.78052e-06 0.00151718
0.000449074 -2.89809e-05 -1.08546e-05
-2.89809e-05 1.21364e-05 1.26601e-05
-1.08546e-05 1.26601e-05 -5.67558e-05
0.00361302 0.000165721 -2.5076e-05
0.000165721 0.00206657 -2.14464e-06
-2.5076e-05 -2.14464e-06 0.00204707
0.00477015 8.08906e-05 -0.00016674
8.08906e-05 0.00281395 2.21665e-05
-0.00016674 2.21665e-05 0.00281145
0.00227558 0.000438169 -6.10843e-07
0.000438169 7.85607e-05 3.80967e-08
-6.10843e-07 3.80967e-08 7.31098e-06
0.00220435 0.000212767 -2.19018e-06
0.000212767 1.84588e-05 -1.11465e-06
-2.19018e-06 -1.11465e-06 1.98354e-05
0.00229028 0.000333929 2.41819e-06
0.000333929 -5.44514e-05 1.47357e-06
2.41819e-06 1.47357e-06 -2.19718e-05
0.00217562 0.00014218 1.92326e-06
0.00014218 -7.45268e-05 -4.72414e-07
1.92326e-06 -4.72414e-07 -1.43959e-05
0.00212377 6.19042e-05 -3.15794e-06
6.19042e-05 1.94296e-06 -4.20444e-07
-3.15794e-06 -4.20444e-07 1.81342e-05
0.00219403 -1.35539e-05 -8.0651e-06
-1.35539e-05 7.57591e-05 3.11341e-07
-8.0651e-06 3.11341e-07 5.45455e-05
0.00210039 -1.39087e-05 3.4416e-07
-1.39087e-05 -1.25651e-05 -1.67271e-08
3.4416e-07 -1.67271e-08 5.69441e-06
0.00220129 7.26843e-05 8.42768e-07
7.26843e-05 -5.85729e-05 4.39692e-08
8.42768e-07 4.39692e-08 5.80021e-06
0.00228639 0.000222517 1.02075e-06
0.000222517 -4.90838e-05 2.30296e-07
1.02075e-06 2.30296e-07 5.62179e-06
0.00240844 0.000457699 4.68371e-07
0.000457699 -7.48006e-06 1.36348e-07
4.68371e-07 1.36348e-07 8.38229e-06
0.00216624 -1.69403e-05 -1.16446e-06
-1.69403e-05 -7.22432e-05 -2.90269e-07
-1.16446e-06 -2.90269e-07 -1.35849e-05
0.00233041 0.000121523 -4.865e-06
0.000121523 -9.52012e-05 4.07377e-07
-4.865e-06 4.07377e-07 1.71786e-05
0.00255648 0.000336691 -3.22224e-06
0.000336691 -2.95595e-05 -9.43522e-07
-3.22224e-06 -9.43522e-07 5.53803e-05
0.0020559 -9.87589e-05 -1.98791e-06
-9.87589e-05 -4.78249e-05 6.775e-07
-1.98791e-06 6.775e-07 -2.73315e-05
0.00219029 -0.000213821 -1.61642e-06
-0.000213821 -7.58913e-06 4.10711e-07
-1.61642e-06 4.10711e-07 5.79248e-06
0.00228065 -0.000413888 -2.91011e-07
-0.000413888 -1.55627e-05 4.67515e-08
-2.91011e-07 4.67515e-08 -1.7545e-05
0.00193897 -0.000765831 -7.34432e-06
-0.000765831 0.000656296 -6.74203e-06
-7.34432e-06 -6.74203e-06 0.00013075
0.00180322 -0.000883505 1.59792e-05
-0.000883505 0.000417129 -1.00397e-05
1.59792e-05 -1.00397e-05 -0.00013763
0.00220913 -0.000936676 3.18975e-06
-0.000936676 0.000395362 -3.19566e-06
3.18975e-06 -3.19566e-06 -9.46243e-05
0.00228853 -0.000553903 -6.53372e-07
-0.000553903 7.69888e-05 -2.05438e-07
-6.53372e-07 -2.05438e-07 4.71484e-06
0.00236772 -0.000744232 5.53994e-06
-0.000744232 0.000191993 -4.99115e-07
5.53994e-06 -4.99115e-07 8.96026e-06
0.00238347 -0.000778204 9.04953e-06
-0.000778204 0.000349683 -7.68566e-06
9.04953e-06 -7.68566e-06 3.91141e-05
0.00119526 -0.000596439 -6.97354e-06
-0.000596439 0.000361023 -6.72076e-06
-6.97354e-06 -6.72076e-06 -0.00014154
0.0021165 -0.000714535 -9.64556e-07
-0.000714535 0.000956234 -1.69377e-05
-9.64556e-07 -1.69377e-05 0.000410735
0.00268582 -0.000473884 -1.58338e-05
-0.000473884 0.00138027 1.72016e-05
-1.58338e-05 1.72016e-05 0.000931795
0.000172591 2.92757e-05 5.6005e-06
2.92757e-05 -0.000139879 4.50978e-06
5.6005e-06 4.50978e-06 -0.00026897
0.00125261 -0.000450616 3.80785e-06
-0.000450616 0.000532512 -1.57249e-06
3.80785e-06 -1.57249e-06 0.000170745
-0.000236116 -2.50977e-05 8.14111e-06
-2.50977e-05 -0.000316807 1.38002e-06
8.14111e-06 1.38002e-06 -0.00063347
0.00219174 -0.000109927 -3.88327e-07
-0.000109927 -4.97421e-05 6.42032e-08
-3.88327e-07 6.42032e-08 2.54649e-06
0.00232519 -0.000297162 4.34916e-07
-0.000297162 -8.76672e-05 6.54389e-08
4.34916e-07 6.54389e-08 -1.04516e-05
0.00238685 -0.000513269 -6.54289e-07
-0.000513269 -1.62387e-05 2.25593e-07
-6.54289e-07 2.25593e-07 6.22337e-06
0.00207495 -0.000872242 -1.2609e-06
-0.000872242 0.000757289 1.31736e-06
-1.2609e-06 1.31736e-06 0.000186614
0.00190956 -0.0010001 8.97638e-06
-0.0010001 0.000477034 -1.86963e-06
8.97638e-06 -1.86963e-06 -0.000125604
0.00236359 -0.000962188 -1.78816e-06
-0.000962188 0.000506123 -2.10793e-06
-1.78816e-06 -2.10793e-06 2.54789e-05
0.00241708 -0.000684674 4.01036e-07
-0.000684674 4.80721e-05 -1.1041e-07
4.01036e-07 -1.1041e-07 -8.71018e-06
0.00236723 -0.000854569 2.22764e-06
-0.000854569 0.000262257 -1.5143e-06
2.22764e-06 -1.5143e-06 -1.79934e-05
0.000218673 6.74822e-05 -2.60225e-06
6.74822e-05 -0.000111769 -2.00817e-06
-2.60225e-06 -2.00817e-06 -0.000206045
0.000784585 -6.6645e-05 -1.54011e-06
-6.6645e-05 0.000320238 7.48939e-07
-1.54011e-06 7.48939e-07 9.16786e-05
0.00120903 -0.000645517 -3.23272e-06
-0.000645517 0.00035936 9.01627e-07
-3.23272e-06 9.01627e-07 -0.000145679
0.00170844 -0.000603063 -5.1674e-06
-0.000603063 0.000773127 2.9005e-06
-5.1674e-06 2.9005e-06 0.000184873
0.00119279 -0.000226094 1.4522e-06
-0.000226094 0.000441864 -3.67509e-06
1.4522e-06 -3.67509e-06 7.50281e-05
0.00156966 -0.000344911 -1.38281e-06
-0.000344911 0.000866979 2.21773e-06
-1.38281e-06 2.21773e-06 0.000497619
0.00231156 -0.000144828 -3.74553e-06
-0.000144828 -9.92089e-05 -3.6857e-07
-3.74553e-06 -3.6857e-07 1.38227e-05
0.00250176 -0.000436613 -2.05866e-06
-0.000436613 -0.000136698 2.69999e-07
-2.05866e-06 2.69999e-07 1.19807e-05
0.0024571 -0.000643803 2.05658e-06
-0.000643803 -3.74336e-05 -5.16257e-07
2.05658e-06 -5.16257e-07 -1.75772e-05
0.0025737 -0.000870147 1.23868e-06
-0.000870147 0.000175031 -9.2065e-07
1.23868e-06 -9.2065e-07 1.62841e-05
0.0010093 -0.000763015 -7.02324e-06
-0.000763015 0.000139083 -2.91473e-06
-7.02324e-06 -2.91473e-06 -0.000397256
0.00251199 -0.0010471 -2.15807e-06
-0.0010471 0.000501323 1.02364e-06
-2.15807e-06 1.02364e-06 4.71259e-05
0.00236604 -0.00116115 -6.06888e-05
-0.00116115 0.000665981 7.2476e-06
-6.06888e-05 7.2476e-06 1.46802e-05
0.000568313 4.71396e-05 -4.80989e-07
4.71396e-05 9.2017e-05 -2.95451e-06
-4.80989e-07 -2.95451e-06 2e-05
0.000821878 -0.000171287 3.91377e-06
-0.000171287 0.000333973 -5.49058e-06
3.91377e-06 -5.49058e-06 0.000189697
0.000127733 7.84186e-05 -7.63605e-06
7.84186e-05 -0.00011961 -3.3623e-06
-7.63605e-06 -3.3623e-06 -0.00026635
0.00102584 -9.80931e-05 -6.53389e-06
-9.80931e-05 0.00049664 9.79822e-08
-6.53389e-06 9.79822e-08 0.000208503
0.000489892 -0.000180374 -7.38616e-06
-0.000180374 9.41846e-05 -1.43757e-05
-7.38616e-06 -1.43757e-05 -0.000231641
0.0015329 -0.000367519 -2.50866e-06
-0.000367519 0.000797182 -7.657e-06
-2.50866e-06 -7.657e-06 0.000301056
0.00119823 -0.00069437 -1.8123e-05
-0.00069437 0.000354416 3.92646e-05
-1.8123e-05 3.92646e-05 -0.000157959
0.00316096 -0.000748566 -2.14286e-05
-0.000748566 0.00178253 2.00657e-05
-2.14286e-05 2.00657e-05 0.00101154
0.000147599 8.7153e-05 8.66316e-07
8.7153e-05 -0.000157538 -8.12921e-07
8.66316e-07 -8.12921e-07 -0.000333426
0.00178581 0.000344666 8.25393e-07
0.000344666 0.000912699 2.11545e-06
8.25393e-07 2.11545e-06 0.000581153
0.00246926 0.000653106 -2.38896e-07
0.000653106 0.000126859 -9.25397e-07
-2.38896e-07 -9.25397e-07 5.63938e-06
0.00158659 0.000215147 -2.47112e-06
0.000215147 0.000403892 -2.9543e-06
-2.47112e-06 -2.9543e-06 0.000143786
0.00122928 0.00060799 -3.45555e-08
0.00060799 0.000393314 1.64665e-07
-3.45555e-08 1.64665e-07 -7.98294e-05
0.00257663 0.000618345 -3.26193e-06
0.000618345 0.000982661 6.6534e-06
-3.26193e-06 6.6534e-06 0.000591282
0.00262434 0.000782907 -4.81274e-06
0.000782907 0.000503119 2.57856e-07
-4.81274e-06 2.57856e-07 0.000178613
0.00279759 0.000794533 -6.06e-06
0.000794533 0.000473315 6.83469e-06
-6.06e-06 6.83469e-06 0.000186086
0.0016835 0.000895136 -4.29494e-06
0.000895136 0.000465062 2.0122e-06
-4.29494e-06 2.0122e-06 -0.000108435
0.00208069 0.00104196 -1.36818e-05
0.00104196 0.000436913 -7.67314e-07
-1.36818e-05 -7.67314e-07 -0.000110366
-0.000289631 9.85881e-05 1.8886e-06
9.85881e-05 -0.000358136 1.53553e-06
1.8886e-06 1.53553e-06 -0.000592193
0.000359528 0.000359673 5.0944e-06
0.000359673 0.000129338 -1.99248e-06
5.0944e-06 -1.99248e-06 -0.000256663
0.00162984 0.000733618 7.15167e-07
0.000733618 0.000513314 -2.74511e-07
7.15167e-07 -2.74511e-07 5.1897e-06
0.00208252 0.000517861 -6.13381e-06
0.000517861 0.000713449 6.37526e-07
-6.13381e-06 6.37526e-07 0.000368804
0.00257508 0.000599203 1.91965e-07
0.000599203 -0.000154292 -9.40541e-07
1.91965e-07 -9.40541e-07 -5.54368e-05
0.0027233 0.000789786 3.25003e-06
0.000789786 0.000309489 -4.54485e-07
3.25003e-06 -4.54485e-07 9.39902e-05
0.00231122 0.00090526 -3.23544e-06
0.00090526 0.000347328 3.9329e-08
-3.23544e-06 3.9329e-08 -8.20552e-05
0.00216428 0.00103425 2.19825e-06
0.00103425 0.000579619 3.44494e-07
2.19825e-06 3.44494e-07 -1.62913e-05
-0.000656337 3.49097e-05 -5.18914e-06
3.49097e-05 -0.00056904 -9.26813e-07
-5.18914e-06 -9.26813e-07 -0.000759591
0.0024941 0.00042597 -1.75516e-07
0.00042597 -0.00022509 -1.64804e-06
-1.75516e-07 -1.64804e-06 -9.60498e-05
0.00243863 0.000627939 -5.05853e-06
0.000627939 0.00139156 9.06581e-06
-5.05853e-06 9.06581e-06 0.000939471
0.00172974 0.000723049 3.75854e-07
0.000723049 0.000490693 -4.42342e-06
3.75854e-07 -4.42342e-06 1.31332e-05
0.00266743 0.000769931 -1.5795e-05
0.000769931 4.98978e-05 -1.03854e-05
-1.5795e-05 -1.03854e-05 5.81687e-05
0.00127629 0.000826158 5.4853e-06
0.000826158 -0.000348965 -1.04134e-05
5.4853e-06 -1.04134e-05 -0.000741492
0.00307356 0.00117333 3.31457e-06
0.00117333 0.00104247 4.25602e-06
3.31457e-06 4.25602e-06 0.000416786
0.00025964 0.000142904 4.38083e-07
0.000142904 -1.99503e-05 2.61587e-06
4.38083e-07 2.61587e-06 -0.000185113
0.000428368 0.000137379 -2.41448e-06
0.000137379 9.42171e-05 -8.91406e-07
-2.41448e-06 -8.91406e-07 -2.36946e-05
0.000350947 0.000100225 -3.79854e-06
0.000100225 7.02314e-05 -4.05374e-06
-3.79854e-06 -4.05374e-06 -1.39397e-05
0.000298819 7.90338e-06 2.02363e-06
7.90338e-06 -3.74992e-05 -3.78503e-06
2.02363e-06 -3.78503e-06 -0.000165234
0.000513168 0.000105296 2.97738e-06
0.000105296 0.000173005 -3.47486e-06
2.97738e-06 -3.47486e-06 -2.64341e-05
-0.000494607 0.000155462 -4.86633e-06
0.000155462 -0.00042843 1.27482e-05
-4.86633e-06 1.27482e-05 -0.000587589
0.000505141 3.01154e-05 -1.74412e-06
3.01154e-05 9.85601e-05 -9.12002e-08
-1.74412e-06 -9.12002e-08 -3.81173e-05
0.000210613 5.19122e-06 -4.85994e-07
5.19122e-06 -3.12938e-05 -5.69205e-07
-4.85994e-07 -5.69205e-07 -0.000218871
6.00045e-06 8.98883e-05 -5.35798e-06
8.98883e-05 -0.000219668 3.05177e-06
-5.35798e-06 3.05177e-06 -0.0002938
0.000766134 0.000151824 1.73825e-06
0.000151824 0.000339472 -1.39712e-06
1.73825e-06 -1.39712e-06 0.000131717
0.00195453 0.000207026 -1.21787e-06
0.000207026 0.000973089 -9.96615e-06
-1.21787e-06 -9.96615e-06 0.000912881
-0.000233242 2.17347e-05 1.28055e-05
2.17347e-05 -0.000350838 -1.32885e-05
1.28055e-05 -1.32885e-05 -0.000450925
0.000473823 0.000130183 3.22152e-07
0.000130183 0.000159482 2.18196e-06
3.22152e-07 2.18196e-06 -4.86381e-05
0.000507066 6.98948e-05 -6.52738e-08
6.98948e-05 0.000133182 3.68041e-06
-6.52738e-08 3.68041e-06 -5.99443e-05
0.000531739 2.31807e-05 1.82662e-06
2.31807e-05 9.99801e-05 3.40742e-06
1.82662e-06 3.40742e-06 -3.75187e-05
0.000482326 -7.3607e-05 -1.8733e-06
-7.3607e-05 5.20274e-05 3.10265e-06
-1.8733e-06 3.10265e-06 -3.95796e-05
0.000458979 1.5914e-05 6.89682e-07
1.5914e-05 3.15925e-05 -4.83433e-07
6.89682e-07 -4.83433e-07 -5.38498e-05
0.0013202 2.83785e-05 3.54296e-06
2.83785e-05 0.000561343 3.78765e-06
3.54296e-06 3.78765e-06 0.000537757
0.000460227 1.52716e-05 1.26594e-06
1.52716e-05 2.19387e-05 -4.08803e-06
1.26594e-06 -4.08803e-06 -5.42842e-05
0.00134231 1.93761e-05 -9.5831e-06
1.93761e-05 0.000571661 -1.951e-06
-9.5831e-06 -1.951e-06 0.000547966
0.000749697 -2.65113e-06 2.94474e-05
-2.65113e-06 0.000181066 9.57182e-06
2.94474e-05 9.57182e-06 0.000184559
0.00132797 -1.29994e-05 -9.89615e-06
-1.29994e-05 0.000554859 -7.77143e-06
-9.89615e-06 -7.77143e-06 0.000533641
0.000746894 -1.55982e-05 1.188e-05
-1.55982e-05 0.000171012 3.76504e-06
1.188e-05 3.76504e-06 0.000173175
0.00074658 -2.94648e-05 1.64948e-06
-2.94648e-05 0.000167564 -3.41739e-06
1.64948e-06 -3.41739e-06 0.000166897
0.000556919 -1.82958e-05 1.97885e-07
-1.82958e-05 7.60837e-05 -3.4552e-06
1.97885e-07 -3.4552e-06 1.39075e-05
0.000312717 2.91549e-05 -7.88739e-07
2.91549e-05 -9.58992e-05 -5.76975e-06
-7.88739e-07 -5.76975e-06 -0.000122622
0.000359989 4.35789e-05 8.79103e-07
4.35789e-05 -5.54183e-05 4.39273e-07
8.79103e-07 4.39273e-07 -9.1722e-05
0.00269019 0.000114293 2.86586e-06
0.000114293 0.00145156 -6.27407e-06
2.86586e-06 -6.27407e-06 0.00144908
0.000357906 3.48467e-05 2.25954e-06
3.48467e-05 -5.44708e-05 9.66035e-06
2.25954e-06 9.66035e-06 -9.98788e-05
0.00309896 0.000160733 -4.98475e-06
0.000160733 0.0017329 -5.913e-07
-4.98475e-06 -5.913e-07 0.00171835
0.00396402 0.000117291 -7.29503e-05
0.000117291 0.00228046 9.25047e-06
-7.29503e-05 9.25047e-06 0.00227142
0.00238368 0.000444615 2.64264e-06
0.000444615 -2.88156e-05 8.27759e-07
2.64264e-06 8.27759e-07 -9.63762e-06
0.00226663 0.00022923 2.21313e-06
0.00022923 -6.45964e-05 6.83148e-08
2.21313e-06 6.83148e-08 -6.50161e-06
0.00217619 7.64963e-05 8.85535e-07
7.64963e-05 -7.05491e-05 -4.43446e-07
8.85535e-07 -4.43446e-07 -8.21019e-06
0.0021153 -1.25145e-05 -3.48538e-06
-1.25145e-05 -9.73432e-07 1.4969e-07
-3.48538e-06 1.4969e-07 1.82311e-05
0.00218332 -1.18764e-05 -5.67497e-07
-1.18764e-05 -6.45642e-05 7.94826e-08
-5.67497e-07 7.94826e-08 -2.39494e-06
0.00231358 0.000116045 6.53162e-07
0.000116045 -9.86946e-05 6.02318e-07
6.53162e-07 6.02318e-07 1.11414e-05
0.00245531 0.000347129 -7.8616e-07
0.000347129 -7.74407e-05 -3.61448e-07
-7.8616e-07 -3.61448e-07 7.63398e-06
0.00228845 -1.38279e-05 -2.93322e-06
-1.38279e-05 -0.000125281 -1.67239e-07
-2.93322e-06 -1.67239e-07 1.55631e-07
0.00263231 0.000166062 -5.61666e-06
0.000166062 -6.59106e-05 -1.19309e-06
-5.61666e-06 -1.19309e-06 7.15026e-05
0.00238027 0.000138849 -3.11821e-07
0.000138849 -0.000212187 5.81323e-06
-3.11821e-07 5.81323e-06 -7.55748e-05
0.00221128 -0.000105601 5.0031e-07
-0.000105601 -3.63019e-05 7.3497e-07
5.0031e-07 7.3497e-07 1.38596e-05
0.0023134 -0.000308164 2.96903e-07
-0.000308164 -0.000101732 -1.26617e-07
2.96903e-07 -1.26617e-07 -2.07111e-05
0.00238159 -0.000502711 1.12112e-06
-0.000502711 -1.39043e-05 -4.55161e-07
1.12112e-06 -4.55161e-07 6.99496e-06
0.00158037 -0.000813318 -4.10064e-07
-0.000813318 0.000448938 -2.97998e-06
-4.10064e-07 -2.97998e-06 -0.000106313
0.00174848 -0.000977737 3.55343e-05
-0.000977737 0.000377879 -6.65913e-06
3.55343e-05 -6.65913e-06 -0.000217663
0.0024812 -0.000958687 1.52548e-05
-0.000958687 0.000566706 -5.58018e-06
1.52548e-05 -5.58018e-06 9.95643e-05
0.00240054 -0.000690737 3.29014e-06
-0.000690737 4.67158e-05 -4.79279e-07
3.29014e-06 -4.79279e-07 -2.36474e-05
0.00231663 -0.000825855 1.05041e-05
-0.000825855 0.000260837 -8.23902e-07
1.05041e-05 -8.23902e-07 -6.53195e-06
0.000801203 -0.000583846 8.67967e-07
-0.000583846 0.000138777 -2.21775e-05
8.67967e-07 -2.21775e-05 -0.000376154
0.0012114 -0.000501782 4.67143e-06
-0.000501782 0.000530724 -1.99738e-05
4.67143e-06 -1.99738e-05 -5.24087e-05
-0.000386848 -0.000161364 -1.61945e-06
-0.000161364 -0.000593823 8.20709e-06
-1.61945e-06 8.20709e-06 -0.000937374
0.000447457 1.39092e-05 1.40145e-06
1.39092e-05 3.23337e-05 4.0385e-06
1.40145e-06 4.0385e-06 -5.77312e-05
3.29138e-05 -1.11801e-05 7.08567e-06
-1.11801e-05 -0.000175974 2.30928e-06
7.08567e-06 2.30928e-06 -0.000385627
0.00100382 -0.000277363 2.27477e-06
-0.000277363 0.000495197 8.50245e-06
2.27477e-06 8.50245e-06 0.000133245
0.00230578 -0.000148025 2.7499e-07
-0.000148025 -0.000114952 3.42717e-07
2.7499e-07 3.42717e-07 2.73607e-06
0.00044922 1.07038e-06 1.87613e-06
1.07038e-06 1.36371e-05 3.70842e-07
1.87613e-06 3.70842e-07 -5.78128e-05
0.00031033 -8.73379e-05 -4.12677e-06
-8.73379e-05 -3.93675e-05 -1.23677e-06
-4.12677e-06 -1.23677e-06 -0.000156573
0.00247346 -0.00042339 -3.81627e-07
-0.00042339 -0.000125767 -2.55545e-07
-3.81627e-07 -2.55545e-07 5.85236e-06
0.0024345 -0.000627062 -1.95721e-06
-0.000627062 -3.30024e-05 5.43451e-07
-1.95721e-06 5.43451e-07 -7.55125e-06
0.00209442 -0.000927708 1.47709e-06
-0.000927708 0.000779438 1.98605e-06
1.47709e-06 1.98605e-06 0.000193576
0.00238846 -0.00116638 1.04601e-05
-0.00116638 0.000683331 -1.30935e-06
1.04601e-05 -1.30935e-06 3.14841e-05
0.00239019 -0.00103226 1.99005e-06
-0.00103226 0.000419824 -3.31742e-06
1.99005e-06 -3.31742e-06 -2.16234e-05
0.00250042 -0.000867038 2.31871e-06
-0.000867038 0.000128624 -7.94037e-07
2.31871e-06 -7.94037e-07 -2.32924e-05
0.000607325 4.93754e-06 -1.56717e-06
4.93754e-06 0.000200635 -8.54171e-07
-1.56717e-06 -8.54171e-07 4.22081e-05
0.000749638 -0.000110062 7.96329e-07
-0.000110062 0.000318212 1.81156e-06
7.96329e-07 1.81156e-06 3.32934e-05
0.00139077 -0.00069098 1.11442e-05
-0.00069098 0.000511711 1.18678e-05
1.11442e-05 1.18678e-05 2.46791e-07
0.00182046 -0.000603248 2.43979e-05
-0.000603248 0.000949188 -1.34036e-05
2.43979e-05 -1.34036e-05 0.000256267
0.000759365 -0.00023718 -3.46999e-06
-0.00023718 0.000280064 -4.56928e-08
-3.46999e-06 -4.56928e-08 -0.000167011
-0.000213916 -0.000206735 2.18179e-06
-0.000206735 -0.000334148 -2.14805e-06
2.18179e-06 -2.14805e-06 -0.00066245
0.00232647 -0.000170207 -4.43926e-06
-0.000170207 -0.000308944 4.77067e-06
-4.43926e-06 4.77067e-06 -0.000136069
0.00251984 -0.000555822 1.74488e-07
-0.000555822 -0.000256219 1.65389e-06
1.74488e-07 1.65389e-06 -6.61107e-08
0.00283149 -0.000897234 -6.00578e-06
-0.000897234 0.000135863 -2.06246e-06
-6.00578e-06 -2.06246e-06 9.54035e-05
0.0027652 -0.00111892 9.02453e-06
-0.00111892 0.000386666 -6.61064e-07
9.02453e-06 -6.61064e-07 8.33112e-05
0.00109751 -0.000868578 4.631e-08
-0.000868578 0.000270043 -7.75708e-06
4.631e-08 -7.75708e-06 -0.000321357
0.0036408 -0.00143042 -9.06449e-06
-0.00143042 0.00124262 6.06041e-06
-9.06449e-06 6.06041e-06 0.000557461
0.000234657 6.6875e-05 -4.17601e-06
6.6875e-05 -9.2211e-05 -8.21679e-06
-4.17601e-06 -8.21679e-06 -0.000210933
0.000372309 -6.05122e-05 6.83197e-06
-6.05122e-05 1.28782e-06 -3.37255e-06
6.83197e-06 -3.37255e-06 -0.000106454
0.00187849 -0.000236227 -9.17777e-06
-0.000236227 0.000931497 1.45248e-05
-9.17777e-06 1.45248e-05 0.000770621
0.000236556 3.10086e-05 -5.06712e-06
3.10086e-05 -5.82504e-05 3.7875e-08
-5.06712e-06 3.7875e-08 -0.000257012
0.0011432 -0.000224985 -1.11043e-05
-0.000224985 0.000561681 6.66092e-06
-1.11043e-05 6.66092e-06 0.000231511
-0.000116773 -7.37837e-05 2.51013e-06
-7.37837e-05 -0.00035778 -2.44709e-05
2.51013e-06 -2.44709e-05 -0.000632992
-0.00204272 -0.000246644 -7.25793e-06
-0.000246644 -0.000979242 3.59141e-06
-7.25793e-06 3.59141e-06 -0.00193169
0.000996397 -0.000870243 -5.37481e-05
-0.000870243 0.000139724 3.10041e-05
-5.37481e-05 3.10041e-05 -0.000260534
6.62903e-06 0.000222532 -5.92643e-08
0.000222532 -0.000118742 -1.15097e-06
-5.92643e-08 -1.15097e-06 -0.000402423
0.00351575 0.000557718 -1.55011e-05
0.000557718 0.00207149 -6.90911e-06
-1.55011e-05 -6.90911e-06 0.00169495
0.00252328 0.000572461 -2.9308e-06
0.000572461 -0.000211422 -1.12245e-07
-2.9308e-06 -1.12245e-07 -9.33432e-05
0.00281858 0.000803824 -5.46501e-06
0.000803824 0.00036431 -1.29377e-06
-5.46501e-06 -1.29377e-06 0.00013487
0.00280981 0.000556654 -6.26271e-06
0.000556654 0.00118886 2.77248e-06
-6.26271e-06 2.77248e-06 0.000845135
0.00144885 0.000729573 -9.65372e-06
0.000729573 0.000368368 -2.80913e-07
-9.65372e-06 -2.80913e-07 -0.000148056
0.00215801 0.000868437 -5.81782e-06
0.000868437 0.000289809 2.53812e-06
-5.81782e-06 2.53812e-06 -0.000125963
0.00255578 0.00106474 -1.06244e-05
0.00106474 0.000794113 -1.16106e-06
-1.06244e-05 -1.16106e-06 0.00020179
-1.18114e-05 0.000180599 2.31338e-06
0.000180599 -0.000110368 -2.03597e-07
2.31338e-06 -2.03597e-07 -0.0003598
0.00254915 0.000411573 -1.31084e-06
0.000411573 -0.000190122 -2.63244e-06
-1.31084e-06 -2.63244e-06 -4.88214e-05
0.00151155 0.000464637 3.56947e-06
0.000464637 0.000820126 6.75145e-06
3.56947e-06 6.75145e-06 0.000429637
0.00157546 0.000689624 3.30953e-06
0.000689624 0.00042835 1.88043e-06
3.30953e-06 1.88043e-06 -4.04073e-05
0.00278748 0.000751122 8.45521e-07
0.000751122 0.000157442 -3.62861e-07
8.45521e-07 -3.62861e-07 0.000158322
0.00196123 0.000911404 -2.42043e-06
0.000911404 4.46006e-05 -6.04919e-06
-2.42043e-06 -6.04919e-06 -0.00036264
0.00250843 0.00107367 -1.32199e-06
0.00107367 0.000739391 -2.81957e-07
-1.32199e-06 -2.81957e-07 0.000139049
0.00176184 0.000411557 -5.51487e-06
0.000411557 0.00111103 -3.01233e-06
-5.51487e-06 -3.01233e-06 0.000775733
0.00400819 0.000713713 -9.75313e-05
0.000713713 0.000614272 -3.67303e-05
-9.75313e-05 -3.67303e-05 0.000874746
0.000851175 0.000549859 -1.16669e-05
0.000549859 0.000344549 8.60259e-06
-1.16669e-05 8.60259e-06 -9.56414e-05
0.00140289 0.000763107 -7.83606e-06
0.000763107 0.000285214 -1.08337e-05
-7.83606e-06 -1.08337e-05 -0.000244487
0.00333885 0.00106552 -4.18849e-05
0.00106552 0.000660024 -2.43582e-05
-4.18849e-05 -2.43582e-05 0.000386392
0.00106325 0.000893905 -3.11872e-05
0.000893905 -9.1511e-05 -3.42604e-06
-3.11872e-05 -3.42604e-06 -0.000621578
0.00149244 0.00136572 1.17667e-05
0.00136572 -0.00203248 -5.91231e-05
1.17667e-05 -5.91231e-05 -0.00112421
0.000200231 0.000172724 8.01737e-06
0.000172724 -9.42234e-06 6.20123e-06
8.01737e-06 6.20123e-06 -0.000143522
0.000305461 0.00013305 2.90009e-06
0.00013305 7.59684e-05 1.30487e-06
2.90009e-06 1.30487e-06 -2.63371e-05
0.000346954 0.000118766 2.07251e-06
0.000118766 7.97725e-05 -6.34795e-06
2.07251e-06 -6.34795e-06 -1.15726e-05
0.000356283 -6.54951e-05 1.98784e-06
-6.54951e-05 9.01616e-06 -4.89997e-06
1.98784e-06 -4.89997e-06 -0.00012991
0.000211499 -1.09604e-05 2.70397e-07
-1.09604e-05 -3.24104e-05 -3.00829e-06
2.70397e-07 -3.00829e-06 -0.000219057
0.00156297 0.00027296 -1.94301e-07
0.00027296 0.000850378 4.30459e-07
-1.94301e-07 4.30459e-07 0.000629917
-0.000576956 5.90491e-05 -7.66601e-06
5.90491e-05 -0.000558318 2.27073e-05
-7.66601e-06 2.27073e-05 -0.000627374
0.000484075 -1.61098e-05 -1.03747e-07
-1.61098e-05 8.80511e-05 -2.90348e-07
-1.03747e-07 -2.90348e-07 -5.9193e-05
0.000399845 8.79868e-05 1.07846e-07
8.79868e-05 3.78682e-05 -5.934e-07
1.07846e-07 -5.934e-07 -0.000131732
0.000647707 0.000144008 4.6342e-06
0.000144008 0.000159717 3.55084e-06
4.6342e-06 3.55084e-06 0.000112697
0.000330155 8.298e-05 1.13734e-06
8.298e-05 3.97772e-05 8.55953e-07
1.13734e-06 8.55953e-07 -0.000149339
0.000540434 8.75225e-05 1.99993e-07
8.75225e-05 0.00012767 -1.93563e-06
1.99993e-07 -1.93563e-06 1.40545e-05
0.000841767 0.000142983 -2.32645e-06
0.000142983 0.000353634 -1.63766e-05
-2.32645e-06 -1.63766e-05 0.000272738
0.000855357 0.000161125 -3.21342e-06
0.000161125 0.000298625 -7.76938e-06
-3.21342e-06 -7.76938e-06 0.00014759
0.00102296 0.00015342 1.45516e-06
0.00015342 0.000466886 3.25348e-06
1.45516e-06 3.25348e-06 0.000270536
0.000866307 0.000129459 -1.53473e-06
0.000129459 0.000350869 1.97508e-07
-1.53473e-06 1.97508e-07 0.000155692
0.000205598 -2.45861e-05 -2.35584e-06
-2.45861e-05 -0.000117415 1.12235e-06
-2.35584e-06 1.12235e-06 -0.000255577
0.00135986 -0.000125088 1.28992e-06
-0.000125088 0.000744807 -2.24401e-06
1.28992e-06 -2.24401e-06 0.000504132
7.92057e-05 -5.26823e-05 -5.65157e-07
-5.26823e-05 -0.000187751 3.26589e-06
-5.65157e-07 3.26589e-06 -0.000330019
0.000399573 2.87228e-06 -2.25611e-06
2.87228e-06 6.15705e-06 2.94948e-06
-2.25611e-06 2.94948e-06 -8.87255e-05
0.000425599 4.3709e-05 2.47202e-06
4.3709e-05 2.11362e-05 -9.16858e-08
2.47202e-06 -9.16858e-08 -7.305e-05
0.000333036 2.06782e-05 -1.85465e-06
2.06782e-05 -6.67684e-05 4.96213e-06
-1.85465e-06 4.96213e-06 -9.51607e-05
0.00036251 3.9178e-07 -1.11627e-06
3.9178e-07 -1.80763e-05 -4.3275e-06
-1.11627e-06 -4.3275e-06 -0.000111207
0.0008568 1.72537e-05 -4.33457e-06
1.72537e-05 0.000265511 -1.52094e-06
-4.33457e-06 -1.52094e-06 0.000239848
0.00266037 2.62271e-06 2.73361e-05
2.62271e-06 0.00141055 5.95882e-06
2.73361e-05 5.95882e-06 0.00142273
0.00141182 4.64932e-05 -1.57842e-05
4.64932e-05 0.00061888 -7.94002e-06
-1.57842e-05 -7.94002e-06 0.00059412
0.000766312 -6.41796e-06 1.1257e-05
-6.41796e-06 0.000188028 3.72771e-06
1.1257e-05 3.72771e-06 0.000190479
0.000836178 -1.96737e-05 1.47616e-06
-1.96737e-05 0.000224593 -3.21575e-06
1.47616e-06 -3.21575e-06 0.000225875
0.000425154 1.02915e-05 -2.72313e-06
1.02915e-05 9.80144e-07 -4.4178e-06
-2.72313e-06 -4.4178e-06 -6.04547e-05
0.000524259 -4.01741e-05 5.47666e-07
-4.01741e-05 6.16671e-05 -2.81039e-07
5.47666e-07 -2.81039e-07 -4.5161e-06
0.000430036 2.39445e-05 -4.90366e-07
2.39445e-05 -2.86952e-05 -4.71117e-06
-4.90366e-07 -4.71117e-06 -4.89501e-05
0.000790071 4.73915e-05 5.02039e-08
4.73915e-05 0.000213861 1.34516e-07
5.02039e-08 1.34516e-07 0.000187496
0.00247802 8.76005e-05 2.69751e-06
8.76005e-05 0.00130641 -5.61848e-06
2.69751e-06 -5.61848e-06 0.00131039
0.000465997 6.56029e-05 6.17409e-06
6.56029e-05 2.42456e-05 8.08647e-06
6.17409e-06 8.08647e-06 -1.87129e-05
0.00268136 0.00011932 -2.36107e-06
0.00011932 0.00144826 -2.2169e-07
-2.36107e-06 -2.2169e-07 0.00144447
0.00316054 0.000141012 2.12479e-07
0.000141012 0.00176429 8.12714e-06
2.12479e-07 8.12714e-06 0.00175342
0.00235452 0.000356798 2.62551e-06
0.000356798 -0.000127734 1.14395e-06
2.62551e-06 1.14395e-06 -4.16125e-05
0.00230782 0.000111806 4.98638e-06
0.000111806 -9.45008e-05 -9.12317e-07
4.98638e-06 -9.12317e-07 1.34595e-05
0.0021896 -7.46106e-06 3.56358e-07
-7.46106e-06 -6.44754e-05 7.65149e-08
3.56358e-07 7.65149e-08 1.45795e-06
0.00228258 -6.68003e-06 -1.13554e-08
-6.68003e-06 -0.000127351 -3.26385e-07
-1.13554e-08 -3.26385e-07 -1.51447e-06
0.0025392 0.000174601 1.45576e-06
0.000174601 -0.000108851 -2.03188e-09
1.45576e-06 -2.03188e-09 2.69965e-05
0.00261639 0.000123465 4.90987e-06
0.000123465 -6.05141e-05 -4.04589e-06
4.90987e-06 -4.04589e-06 6.38344e-05
0.00267511 1.95304e-05 -1.17552e-05
1.95304e-05 -0.000132553 -3.41107e-07
-1.17552e-05 -3.41107e-07 5.70935e-05
0.0053318 0.00137278 7.90969e-05
0.00137278 -0.000931345 1.02689e-05
7.90969e-05 1.02689e-05 0.000334448
0.00302459 0.000117191 -3.21738e-05
0.000117191 0.000317271 2.28265e-05
-3.21738e-05 2.28265e-05 0.000602009
0.000473653 0.00012217 -4.26219e-06
0.00012217 7.24089e-05 -4.10399e-06
-4.26219e-06 -4.10399e-06 -4.08362e-05
0.00229846 -0.000151027 3.58063e-06
-0.000151027 -0.000129877 -7.28698e-07
3.58063e-06 -7.28698e-07 -8.51772e-06
0.00244543 -0.00041249 2.32079e-06
-0.00041249 -0.000118461 5.86325e-07
2.32079e-06 5.86325e-07 -2.83078e-06
0.00242058 -0.000614514 7.28678e-07
-0.000614514 -3.02461e-05 9.79965e-08
7.28678e-07 9.79965e-08 4.35441e-06
0.00177176 -0.000910096 -5.56574e-06
-0.000910096 0.000593691 7.51733e-06
-5.56574e-06 7.51733e-06 1.15204e-05
0.00244527 -0.00114652 3.58455e-05
-0.00114652 0.000735726 2.15455e-06
3.58455e-05 2.15455e-06 9.80531e-05
0.00206051 -0.000987399 3.60158e-08
-0.000987399 0.000233774 -2.67598e-06
3.60158e-08 -2.67598e-06 -0.000190515
0.00247144 -0.000868813 2.58211e-06
-0.000868813 0.00010651 -1.94158e-06
2.58211e-06 -1.94158e-06 -3.84005e-05
0.0014566 -0.000668273 2.77695e-05
-0.000668273 0.000459676 -5.18606e-05
2.77695e-05 -5.18606e-05 1.98892e-05
0.00175326 -0.000616639 1.34159e-05
-0.000616639 0.000850334 -5.5393e-05
1.34159e-05 -5.5393e-05 0.000185141
0.00135649 -0.000250157 1.04017e-05
-0.000250157 0.000614538 8.41783e-06
1.04017e-05 8.41783e-06 0.000205549
0.000431407 5.88089e-06 3.3038e-06
5.88089e-06 4.92211e-06 3.97246e-06
3.3038e-06 3.97246e-06 -6.8356e-05
0.00137978 -0.000267133 4.46677e-06
-0.000267133 0.000685876 1.44573e-05
4.46677e-06 1.44573e-05 0.000334768
0.000999459 -4.24519e-05 7.0634e-06
-4.24519e-05 0.000476732 1.62561e-06
7.0634e-06 1.62561e-06 0.000303237
0.000480767 -0.000100915 4.51615e-06
-0.000100915 0.000126716 5.94946e-07
4.51615e-06 5.94946e-07 -0.000145402
-0.000236135 -2.30655e-05 -4.48669e-06
-2.30655e-05 -0.000408 2.74792e-06
-4.48669e-06 2.74792e-06 -0.000512557
0.0024509 -0.000196636 -2.21837e-07
-0.000196636 -0.000252356 4.35692e-07
-2.21837e-07 4.35692e-07 -5.73396e-05
0.000366088 4.92184e-05 7.32175e-07
4.92184e-05 7.19854e-06 -2.82656e-06
7.32175e-07 -2.82656e-06 -0.000117727
0.000609017 -8.52347e-05 3.19576e-06
-8.52347e-05 0.000184377 1.56049e-06
3.19576e-06 1.56049e-06 5.58894e-05
0.0010712 -0.00014403 6.62626e-06
-0.00014403 0.000406838 -1.0698e-06
6.62626e-06 -1.0698e-06 0.000272611
0.00252119 -0.000571447 2.20212e-06
-0.000571447 -0.000241917 -6.98765e-07
2.20212e-06 -6.98765e-07 -2.23589e-05
0.00270603 -0.000880684 -3.46425e-07
-0.000880684 7.03824e-05 2.6379e-07
-3.46425e-07 2.6379e-07 3.7878e-05
0.00072084 -0.000727578 6.84596e-06
-0.000727578 1.53367e-05 -1.41579e-07
6.84596e-06 -1.41579e-07 -0.000481944
0.00268867 -0.00129911 1.65486e-05
-0.00129911 0.00071257 1.40509e-06
1.65486e-05 1.40509e-06 6.59641e-05
0.00263209 -0.00111453 2.33635e-08
-0.00111453 0.00032256 1.38438e-06
2.33635e-08 1.38438e-06 1.0233e-05
0.000188968 -1.58664e-05 -4.17489e-07
-1.58664e-05 -9.53046e-05 3.19355e-08
-4.17489e-07 3.19355e-08 -0.000285326
0.00134981 -0.000223255 2.53628e-06
-0.000223255 0.000712612 3.9604e-06
2.53628e-06 3.9604e-06 0.000363047
0.00218083 -0.00104512 -1.39103e-06
-0.00104512 0.000826156 4.45887e-06
-1.39103e-06 4.45887e-06 0.000283228
0.00136558 -0.000390352 -6.13553e-07
-0.000390352 0.000803695 7.36809e-06
-6.13553e-07 7.36809e-06 9.78194e-05
0.00160265 -0.000208318 5.04799e-06
-0.000208318 0.000756049 1.02854e-05
5.04799e-06 1.02854e-05 0.000446263
0.00286793 -0.000397276 -1.29447e-05
-0.000397276 -5.68422e-05 1.28741e-05
-1.29447e-05 1.28741e-05 0.000182527
0.00226361 -0.000644815 -1.27008e-05
-0.000644815 -0.000375484 5.88487e-06
-1.27008e-05 5.88487e-06 -7.48936e-05
0.00258702 -0.00104231 -1.43905e-05
-0.00104231 0.00015547 -3.71031e-06
-1.43905e-05 -3.71031e-06 -6.37918e-05
0.00455209 -0.00150183 3.4204e-06
-0.00150183 0.00157549 7.90808e-06
3.4204e-06 7.90808e-06 0.00108933
-8.37333e-05 -0.000843642 -1.14168e-05
-0.000843642 -0.000549838 1.57503e-05
-1.14168e-05 1.57503e-05 -0.00105498
-3.80171e-05 -2.44816e-05 -1.50999e-06
-2.44816e-05 -0.000253444 3.23125e-08
-1.50999e-06 3.23125e-08 -0.000378242
0.000982132 6.69221e-06 -3.34856e-06
6.69221e-06 0.000305555 1.23255e-05
-3.34856e-06 1.23255e-05 0.000163905
-0.000516625 -0.000201393 -1.1566e-05
-0.000201393 -0.00057475 -3.76755e-06
-1.1566e-05 -3.76755e-06 -0.000713279
0.00189058 -0.000320667 -4.21524e-05
-0.000320667 0.000992636 3.13992e-05
-4.21524e-05 3.13992e-05 0.000703912
0.000816632 -0.000169159 -6.23801e-06
-0.000169159 0.000333853 2.64118e-05
-6.23801e-06 2.64118e-05 3.33491e-05
-0.00170112 -9.12291e-05 7.20714e-06
-9.12291e-05 -0.000678467 3.74288e-06
7.20714e-06 3.74288e-06 -0.00145693
0.00123847 -0.00110644 -9.78313e-06
-0.00110644 0.000614005 -8.56503e-06
-9.78313e-06 -8.56503e-06 -0.000158677
0.00196834 0.00047533 1.26293e-06
0.00047533 0.00114223 -2.66133e-06
1.26293e-06 -2.66133e-06 0.000843099
0.000262501 0.00027959 -2.65042e-06
0.00027959 7.74933e-05 -7.9132e-07
-2.65042e-06 -7.9132e-07 -0.000252483
0.00256384 0.000389461 1.2301e-05
0.000389461 -0.000191402 6.66325e-06
1.2301e-05 6.66325e-06 -2.85215e-05
0.00290088 0.00073348 1.55703e-05
0.00073348 0.000251253 1.03895e-05
1.55703e-05 1.03895e-05 0.000250859
0.00253868 0.000984306 6.77141e-06
0.000984306 0.000376915 4.02945e-06
6.77141e-06 4.02945e-06 -4.13782e-05
0.00143125 0.00065583 -1.91332e-06
0.00065583 0.000384251 3.02956e-06
-1.91332e-06 3.02956e-06 -7.5769e-05
0.00184211 0.00096434 1.86422e-06
0.00096434 0.000381031 4.21943e-06
1.86422e-06 4.21943e-06 -0.000192357
0.00249374 0.000464386 -1.21242e-07
0.000464386 0.00150619 7.1916e-07
-1.21242e-07 7.1916e-07 0.00121215
0.00303452 0.0005673 1.22635e-05
0.0005673 8.38326e-05 5.0022e-06
1.22635e-05 5.0022e-06 0.000407042
0.00107608 0.000503294 -6.18733e-06
0.000503294 0.000451333 5.464e-06
-6.18733e-06 5.464e-06 5.84079e-05
0.00172595 0.000816482 2.91915e-06
0.000816482 0.000519522 -2.35463e-06
2.91915e-06 -2.35463e-06 -3.7013e-05
0.00292724 0.0010061 -1.84678e-06
0.0010061 0.00046425 -4.13668e-06
-1.84678e-06 -4.13668e-06 0.000228356
0.00206094 0.00103178 -6.60158e-06
0.00103178 0.000457766 7.03701e-06
-6.60158e-06 7.03701e-06 -0.000106365
0.00304564 0.00169018 5.73122e-05
0.00169018 -0.00153749 1.21536e-05
5.73122e-05 1.21536e-05 -0.000798608
0.000500092 0.000346373 1.31883e-06
0.000346373 0.000391574 7.87163e-07
1.31883e-06 7.87163e-07 3.8646e-05
0.00434147 0.00117149 -0.000119321
0.00117149 0.000874102 -4.96084e-05
-0.000119321 -4.96084e-05 0.00087405
0.000114843 0.000470504 -1.90359e-05
0.000470504 -0.000343972 5.58136e-06
-1.90359e-05 5.58136e-06 -0.000749563
0.000143363 0.000685989 -7.10073e-06
0.000685989 -0.000438154 -2.09241e-05
-7.10073e-06 -2.09241e-05 -0.000944146
0.00175096 0.00113343 -4.77483e-05
0.00113343 2.31002e-05 -2.13979e-05
-4.77483e-05 -2.13979e-05 -0.000362646
0.0157705 0.000783376 -0.000731601
0.000783376 0.00137427 -0.000104401
-0.000731601 -0.000104401 0.00160463
0.00255077 0.00249994 -0.00010752
0.00249994 -0.00384464 -9.86868e-05
-0.00010752 -9.86868e-05 -0.00111408
0.00153906 0.00205475 1.67494e-05
0.00205475 -0.000693779 -4.01409e-06
1.67494e-05 -4.01409e-06 -0.000860053
0.00459986 -0.00407591 0.00258463
-0.00407591 0.00266386 0.000306563
0.00258463 0.000306563 -0.00277753
0.02953 -0.0134181 -4.77813e-05
-0.0134181 0.0152977 6.54754e-05
-4.77813e-05 6.54754e-05 0.00754626
0.00092618 0.00018771 6.65343e-06
0.00018771 0.000476397 9.8906e-06
6.65343e-06 9.8906e-06 0.00035751
0.000924008 0.000149011 -2.35027e-06
0.000149011 0.000479261 -1.1839e-06
-2.35027e-06 -1.1839e-06 0.000365541
0.000612257 0.000201157 9.03508e-06
0.000201157 0.000303299 -3.73902e-06
9.03508e-06 -3.73902e-06 0.000154409
0.000507079 -6.09757e-05 1.05685e-06
-6.09757e-05 0.00011425 -2.7754e-06
1.05685e-06 -2.7754e-06 -3.97469e-05
0.000411583 7.67387e-05 5.05874e-07
7.67387e-05 5.30401e-05 -3.78541e-06
5.05874e-07 -3.78541e-06 -0.000116402
0.000554429 -1.25684e-05 -4.35732e-08
-1.25684e-05 0.000179866 -8.71969e-07
-4.35732e-08 -8.71969e-07 -6.99762e-06
0.00111173 0.000120157 1.56103e-06
0.000120157 0.000472374 1.36988e-05
1.56103e-06 1.36988e-05 0.000352261
0.000359323 0.000120682 2.64037e-06
0.000120682 -1.94369e-05 1.44044e-05
2.64037e-06 1.44044e-05 -5.83579e-05
0.000794823 0.00017593 -1.12346e-06
0.00017593 0.000369271 7.34285e-08
-1.12346e-06 7.34285e-08 0.000145557
0.000394606 -2.21225e-05 2.6748e-07
-2.21225e-05 1.45744e-05 1.09957e-06
2.6748e-07 1.09957e-06 -0.000131206
0.000699486 7.19345e-05 -8.91342e-07
7.19345e-05 0.000239304 2.12301e-07
-8.91342e-07 2.12301e-07 5.03814e-05
0.000370855 0.000117637 -3.03132e-06
0.000117637 3.56277e-05 -3.86957e-06
-3.03132e-06 -3.86957e-06 -3.59261e-05
0.000729204 0.000139344 -1.38433e-06
0.000139344 0.000240927 -4.07835e-07
-1.38433e-06 -4.07835e-07 9.06862e-05
0.00232144 0.000296456 -1.4193e-06
0.000296456 0.00129693 -2.74737e-06
-1.4193e-06 -2.74737e-06 0.00107787
7.8037e-05 9.56731e-05 -8.39511e-07
9.56731e-05 -2.27806e-05 -1.0546e-05
-8.39511e-07 -1.0546e-05 -0.000222028
0.000912698 0.000106798 3.30617e-06
0.000106798 0.000425624 -1.35317e-06
3.30617e-06 -1.35317e-06 0.000224122
8.34102e-05 1.17329e-05 -1.08947e-06
1.17329e-05 -0.000186566 -1.38895e-06
-1.08947e-06 -1.38895e-06 -0.000362354
0.000283799 -7.39785e-05 -7.29288e-07
-7.39785e-05 -5.33635e-05 -2.8876e-07
-7.29288e-07 -2.8876e-07 -0.000198099
0.000314077 -2.3503e-05 -2.99649e-07
-2.3503e-05 -1.08191e-05 -3.37372e-06
-2.99649e-07 -3.37372e-06 -0.000182514
0.00129864 -6.40571e-05 2.57258e-06
-6.40571e-05 0.00061552 -9.27731e-06
2.57258e-06 -9.27731e-06 0.000441333
0.000947422 -7.89128e-05 -2.25879e-06
-7.89128e-05 0.000457779 -9.15984e-07
-2.25879e-06 -9.15984e-07 0.000260385
0.000795634 -9.79744e-05 2.23004e-06
-9.79744e-05 0.000335308 -6.37052e-07
2.23004e-06 -6.37052e-07 0.000133525
0.000558932 -0.000130943 -1.51508e-06
-0.000130943 0.000140752 4.5683e-06
-1.51508e-06 4.5683e-06 -1.22402e-05
0.000142799 -2.92475e-05 3.81284e-08
-2.92475e-05 -0.000139011 1.11343e-06
3.81284e-08 1.11343e-06 -0.000287454
0.000475274 -7.0284e-05 -1.41364e-06
-7.0284e-05 4.47775e-05 3.85807e-06
-1.41364e-06 3.85807e-06 -4.39473e-05
0.000475258 -4.72758e-05 2.12907e-06
-4.72758e-05 5.26135e-05 1.35919e-07
2.12907e-06 1.35919e-07 -4.11941e-05
0.000373813 2.75039e-07 3.9704e-06
2.75039e-07 -3.59866e-05 6.80033e-06
3.9704e-06 6.80033e-06 -6.63918e-05
0.000460257 6.3459e-05 -1.25803e-06
6.3459e-05 3.53869e-05 -3.45481e-06
-1.25803e-06 -3.45481e-06 -5.33029e-05
0.000360209 3.06862e-05 5.36749e-07
3.06862e-05 -4.84031e-05 1.17711e-07
5.36749e-07 1.17711e-07 -7.71448e-05
0.00259189 1.07032e-05 1.33188e-05
1.07032e-05 0.001368 5.62644e-06
1.33188e-05 5.62644e-06 0.0013795
0.000396714 5.967e-05 -4.74226e-06
5.967e-05 -2.41137e-05 -8.20475e-06
-4.74226e-06 -8.20475e-06 -5.63532e-05
0.00169008 -1.46944e-06 -8.34471e-06
-1.46944e-06 0.000785578 1.52014e-07
-8.34471e-06 1.52014e-07 0.00079222
0.000810082 -9.08795e-06 1.00973e-06
-9.08795e-06 0.000211189 -2.54759e-06
1.00973e-06 -2.54759e-06 0.000213364
0.000377648 1.99499e-05 -1.37861e-06
1.99499e-05 -3.93866e-05 -3.44671e-06
-1.37861e-06 -3.44671e-06 -8.79123e-05
0.000474675 -4.17691e-05 6.16573e-07
-4.17691e-05 3.55819e-05 1.18543e-07
6.16573e-07 1.18543e-07 -2.7676e-05
0.000478162 8.00397e-06 1.14035e-06
8.00397e-06 -2.96674e-06 -4.29039e-06
1.14035e-06 -4.29039e-06 -1.78915e-05
0.000468259 -5.26112e-05 -3.43062e-07
-5.26112e-05 2.71145e-05 1.87546e-06
-3.43062e-07 1.87546e-06 -4.0409e-05
0.000805538 2.78765e-05 2.45801e-08
2.78765e-05 0.000213658 -8.8547e-07
2.45801e-08 -8.8547e-07 0.000195691
0.00215795 6.22812e-05 1.49082e-06
6.22812e-05 0.00109198 -5.27403e-06
1.49082e-06 -5.27403e-06 0.00110208
0.000435152 3.33307e-05 1.34889e-06
3.33307e-05 -1.80754e-05 6.07996e-06
1.34889e-06 6.07996e-06 -4.62856e-05
0.00260423 9.60968e-05 -3.1246e-06
9.60968e-05 0.00139183 1.4949e-06
-3.1246e-06 1.4949e-06 0.00139377
0.00286017 0.000131802 1.7385e-05
0.000131802 0.00156807 8.8456e-06
1.7385e-05 8.8456e-06 0.00156163
0.00247465 0.000186038 4.96572e-06
0.000186038 -0.00012878 -6.27936e-07
4.96572e-06 -6.27936e-07 4.59795e-06
0.00226108 -1.80597e-06 3.19227e-06
-1.80597e-06 -0.000140947 -2.27456e-07
3.19227e-06 -2.27456e-07 -1.46596e-05
0.00250908 9.19836e-05 8.14764e-06
9.19836e-05 -0.000148704 5.80112e-06
8.14764e-06 5.80112e-06 -2.58728e-05
0.00272862 0.00105222 0.000126386
0.00105222 -0.00227494 3.40346e-05
0.000126386 3.40346e-05 -0.000921246
0.00261329 -1.67409e-05 -2.47285e-06
-1.67409e-05 -0.000150908 -1.6028e-06
-2.47285e-06 -1.6028e-06 3.59807e-05
0.00259721 9.77218e-05 -5.71189e-06
9.77218e-05 4.21732e-05 -5.62594e-06
-5.71189e-06 -5.62594e-06 0.000269387
0.00250111 -4.9382e-05 -4.36872e-05
-4.9382e-05 4.25489e-05 -3.17464e-06
-4.36872e-05 -3.17464e-06 0.000172586
0.00326254 0.000653476 -9.13021e-05
0.000653476 -0.00257003 -4.15056e-05
-9.13021e-05 -4.15056e-05 -0.000799739
0.00280785 0.000329575 0.000157395
0.000329575 -0.00123112 7.02536e-05
0.000157395 7.02536e-05 -0.000451549
0.000548214 9.4515e-05 -2.16806e-07
9.4515e-05 0.000122242 -3.34565e-06
-2.16806e-07 -3.34565e-06 1.19649e-05
0.000561902 -5.72215e-06 -4.25073e-07
-5.72215e-06 0.000141534 -1.78638e-07
-4.25073e-07 -1.78638e-07 1.93645e-05
0.000290714 -0.000101733 -7.63974e-06
-0.000101733 -3.16447e-05 6.33325e-07
-7.63974e-06 6.33325e-07 -0.000160236
0.000317124 -6.64798e-05 -4.4761e-06
-6.64798e-05 -2.34705e-07 2.80594e-07
-4.4761e-06 2.80594e-07 -0.000133355
0.00254584 -0.000216526 1.72544e-06
-0.000216526 -0.000206506 -6.22437e-06
1.72544e-06 -6.22437e-06 3.38553e-06
0.00250405 -0.000578732 -5.24063e-07
-0.000578732 -0.000224923 -2.55111e-07
-5.24063e-07 -2.55111e-07 -4.64549e-05
0.00253763 -0.000861595 8.97327e-07
-0.000861595 -1.92141e-05 4.9821e-07
8.97327e-07 4.9821e-07 -4.70287e-05
0.00416582 -0.00114593 2.44975e-05
-0.00114593 0.00197907 1.75088e-06
2.44975e-05 1.75088e-06 0.00139595
0.00140646 -0.00117552 -8.60782e-06
-0.00117552 -4.34167e-05 6.43231e-08
-8.60782e-06 6.43231e-08 -0.000654865
0.00249008 -0.00111257 -1.19374e-06
-0.00111257 0.000252739 -5.49635e-06
-1.19374e-06 -5.49635e-06 -6.84521e-05
-0.000574493 -0.000709354 2.26949e-06
-0.000709354 -0.000684666 -2.25295e-05
2.26949e-06 -2.25295e-05 -0.00130039
0.00420635 -0.000561877 1.55397e-05
-0.000561877 0.00221574 -1.07065e-05
1.55397e-05 -1.07065e-05 0.00174041
-0.000339757 -0.000101096 2.28987e-06
-0.000101096 -0.000465824 1.11442e-05
2.28987e-06 1.11442e-05 -0.000762596
0.000658058 -7.94266e-05 3.92919e-06
-7.94266e-05 0.00021457 2.15924e-06
3.92919e-06 2.15924e-06 8.4275e-05
0.000406161 -0.00012838 -6.98128e-06
-0.00012838 0.000133034 -9.28661e-06
-6.98128e-06 -9.28661e-06 -0.000218252
0.000657451 -6.30143e-05 5.16868e-06
-6.30143e-05 0.000207757 2.54384e-06
5.16868e-06 2.54384e-06 1.52545e-05
0.000535181 -1.72924e-06 1.14916e-06
-1.72924e-06 0.000137911 4.73247e-06
1.14916e-06 4.73247e-06 2.57874e-06
0.000428869 -7.27108e-05 -9.97918e-06
-7.27108e-05 -1.56373e-05 7.74453e-06
-9.97918e-06 7.74453e-06 -0.000127182
0.00274946 -0.000370853 2.51092e-06
-0.000370853 -0.000117446 1.0299e-06
2.51092e-06 1.0299e-06 0.000139084
0.000401407 -3.89354e-05 -4.6606e-07
-3.89354e-05 4.67675e-05 3.62416e-06
-4.6606e-07 3.62416e-06 -9.77862e-05
0.0007973 -7.79868e-05 8.77955e-06
-7.79868e-05 0.000196823 -1.93168e-06
8.77955e-06 -1.93168e-06 5.75508e-05
-0.000938523 -8.10357e-05 1.19559e-05
-8.10357e-05 -0.000770578 -2.97113e-07
1.19559e-05 -2.97113e-07 -0.000866117
0.00227585 -0.00066766 3.93019e-07
-0.00066766 -0.000382036 -9.40115e-07
3.93019e-07 -9.40115e-07 -0.000114811
0.0025552 -0.00104747 2.58767e-06
-0.00104747 0.000130339 -1.39064e-06
2.58767e-06 -1.39064e-06 -9.02532e-05
0.00189088 -0.00115854 -1.41975e-05
-0.00115854 0.000543553 1.02286e-06
-1.41975e-05 1.02286e-06 -3.45199e-05
0.00323073 -0.00137213 -4.28305e-06
-0.00137213 0.000838067 -9.08661e-08
-4.28305e-06 -9.08661e-08 0.000369965
0.00179708 -0.000218395 1.22626e-05
-0.000218395 0.000963294 -7.21383e-06
1.22626e-05 -7.21383e-06 0.000655235
-0.00108076 -3.36911e-05 8.93181e-06
-3.36911e-05 -0.000848821 8.07284e-06
8.93181e-06 8.07284e-06 -0.00117032
0.00127667 -0.00121685 -5.82948e-07
-0.00121685 0.000746813 -1.09852e-06
-5.82948e-07 -1.09852e-06 -0.000118632
0.00188836 -0.000550892 -1.18136e-05
-0.000550892 0.00102346 -2.09989e-06
-1.18136e-05 -2.09989e-06 0.000439083
0.00389112 -0.000556686 -5.4641e-05
-0.000556686 0.000559866 2.01256e-05
-5.4641e-05 2.01256e-05 0.000876653
0.00280121 -0.000877347 -3.59593e-05
-0.000877347 0.000142626 1.51652e-05
-3.59593e-05 1.51652e-05 0.000225597
0.00290435 -0.00121266 -4.82447e-06
-0.00121266 0.000590958 -1.68664e-05
-4.82447e-06 -1.68664e-05 0.000157746
0.00273031 -0.0013453 1.81888e-05
-0.0013453 0.000783882 3.90616e-05
1.81888e-05 3.90616e-05 0.000348131
6.98935e-05 -0.000157365 -8.07444e-06
-0.000157365 -4.4949e-06 -1.32303e-05
-8.07444e-06 -1.32303e-05 -0.000189472
0.00063644 -0.000230199 -1.82933e-05
-0.000230199 0.000184668 -8.41776e-06
-1.82933e-05 -8.41776e-06 -9.92372e-05
0.000458408 -0.000275024 -1.44707e-05
-0.000275024 0.00039412 7.68012e-05
-1.44707e-05 7.68012e-05 4.47923e-06
-0.000129004 -0.001019 -6.42634e-07
-0.001019 0.00062409 -4.25113e-05
-6.42634e-07 -4.25113e-05 -0.00055655
0.00506034 -0.000465691 7.9489e-05
-0.000465691 -0.00619503 5.31621e-06
7.9489e-05 5.31621e-06 -0.0064669
0.00231005 0.00036112 1.17861e-05
0.00036112 0.00138813 -4.50449e-06
1.17861e-05 -4.50449e-06 0.00110197
0.000581748 0.000397784 1.43227e-06
0.000397784 0.000141509 -2.70189e-06
1.43227e-06 -2.70189e-06 -0.000216396
0.0018382 0.000445392 5.79135e-05
0.000445392 -0.000620998 2.80493e-05
5.79135e-05 2.80493e-05 -0.000225652
0.00246436 0.000942915 2.72888e-05
0.000942915 0.000241887 1.31486e-05
2.72888e-05 1.31486e-05 4.49349e-05
0.00293807 0.00114992 1.45277e-05
0.00114992 0.000944062 1.4967e-05
1.45277e-05 1.4967e-05 0.000349842
0.00189053 0.00084917 1.62724e-05
0.00084917 0.000647032 1.18495e-05
1.62724e-05 1.18495e-05 6.98857e-05
0.00504141 0.00211096 9.77557e-05
0.00211096 -0.00088425 3.65734e-05
9.77557e-05 3.65734e-05 -0.000361873
0.000952064 0.000338504 3.67969e-06
0.000338504 0.000618415 -4.13183e-06
3.67969e-06 -4.13183e-06 0.000300194
0.00298148 0.00101155 -6.84567e-06
0.00101155 0.000106333 3.90392e-06
-6.84567e-06 3.90392e-06 0.000205616
0.00101433 0.000588716 -7.74857e-06
0.000588716 0.000249958 6.44392e-06
-7.74857e-06 6.44392e-06 -0.00019797
0.00176735 0.00093041 1.4064e-06
0.00093041 0.00048514 -8.95583e-06
1.4064e-06 -8.95583e-06 -7.63833e-05
0.00277577 0.00121747 -1.39067e-05
0.00121747 0.000595754 -2.42268e-07
-1.39067e-05 -2.42268e-07 0.000171806
0.00536041 -0.000383927 -0.000213022
-0.000383927 -0.00628667 -0.000146749
-0.000213022 -0.000146749 -0.00657805
0.00679553 0.0027723 -0.000189789
0.0027723 -0.00135566 -8.10911e-05
-0.000189789 -8.10911e-05 0.000818128
0.00140531 0.00195944 -4.73541e-06
0.00195944 -0.000707972 2.47196e-06
-4.73541e-06 2.47196e-06 -0.000967706
0.00584303 -0.00354028 0.00081113
-0.00354028 0.00452143 0.00027167
0.00081113 0.00027167 0.00041277
0.0234665 -0.0144383 -0.000616087
-0.0144383 0.0139803 -0.000548056
-0.000616087 -0.000548056 0.00595803
7.51273e-05 0.000268177 -1.02088e-05
0.000268177 -9.66425e-05 -2.76347e-06
-1.02088e-05 -2.76347e-06 -0.000369173
0.00242671 0.000186424 0.00132748
0.000186424 0.00483331 8.4883e-05
0.00132748 8.4883e-05 0.00254336
0.00766524 -0.0061989 -7.2487e-05
-0.0061989 0.00917196 -0.000201632
-7.2487e-05 -0.000201632 0.000746512
0.00384745 0.00167841 -8.72932e-05
0.00167841 0.000784329 -3.03808e-05
-8.72932e-05 -3.03808e-05 0.000459984
0.00056986 0.00052038 -3.44255e-05
0.00052038 -7.20924e-05 -7.80558e-06
-3.44255e-05 -7.80558e-06 -0.000467346
0.0014692 0.000949315 -4.96451e-05
0.000949315 0.00033888 -3.87581e-05
-4.96451e-05 -3.87581e-05 -0.000149621
8.87001e-06 0.00185667 0.000133883
0.00185667 -0.0010106 0.000123499
0.000133883 0.000123499 -0.00133877
0.0149868 0.00390498 0.000152026
0.00390498 0.000441041 -5.71357e-06
0.000152026 -5.71357e-06 0.0010832
0.00651958 0.00421463 -0.000101657
0.00421463 -0.000608626 -9.96519e-05
-0.000101657 -9.96519e-05 0.0011078
0.0221196 -0.00831816 0.00138817
-0.00831816 0.00897854 0.000446909
0.00138817 0.000446909 0.00184707
0.0172302 -0.00332593 -0.000278919
-0.00332593 0.00745419 0.000741092
-0.000278919 0.000741092 0.00366647
0.000557325 0.000121192 1.61234e-06
0.000121192 0.00029264 6.08483e-06
1.61234e-06 6.08483e-06 0.000164926
0.000334264 0.000189772 4.66307e-06
0.000189772 0.000168555 3.62211e-07
4.66307e-06 3.62211e-07 8.85751e-06
0.00088476 0.000260775 4.19807e-06
0.000260775 0.000550967 -5.25734e-06
4.19807e-06 -5.25734e-06 0.000295441
0.000602482 -2.21901e-06 2.40933e-06
-2.21901e-06 0.000177051 1.22107e-06
2.40933e-06 1.22107e-06 1.13438e-05
0.000616614 8.15866e-05 1.43025e-06
8.15866e-05 0.00017452 -1.32552e-06
1.43025e-06 -1.32552e-06 -5.69077e-06
-0.000230832 3.36238e-05 -9.64132e-07
3.36238e-05 -0.000316682 2.82621e-06
-9.64132e-07 2.82621e-06 -0.000505694
0.000913755 0.00014774 -3.94575e-06
0.00014774 0.000384868 6.35167e-06
-3.94575e-06 6.35167e-06 0.000225342
-0.00020187 8.47008e-05 -4.11425e-06
8.47008e-05 -0.000345114 7.92642e-06
-4.11425e-06 7.92642e-06 -0.000404882
0.000324178 -1.06351e-05 -5.09905e-07
-1.06351e-05 -2.26068e-05 6.70115e-07
-5.09905e-07 6.70115e-07 -0.000173245
0.00150305 0.000190243 3.25499e-06
0.000190243 0.000753824 1.26234e-06
3.25499e-06 1.26234e-06 0.000552173
0.000386104 6.56715e-05 -7.7157e-07
6.56715e-05 9.94495e-05 -9.58461e-07
-7.7157e-07 -9.58461e-07 -0.000111528
0.000777057 4.57639e-05 1.64742e-06
4.57639e-05 0.000301466 6.93099e-08
1.64742e-06 6.93099e-08 9.62674e-05
-5.35171e-05 8.27181e-05 -1.0222e-06
8.27181e-05 -0.000105361 -3.69086e-06
-1.0222e-06 -3.69086e-06 -0.000306445
0.00157259 0.00017087 -1.8148e-06
0.00017087 0.000833589 -7.65718e-06
-1.8148e-06 -7.65718e-06 0.000649098
-0.000475233 6.79689e-05 -5.51661e-06
6.79689e-05 -0.000155607 -5.99742e-06
-5.51661e-06 -5.99742e-06 -0.000500397
9.92212e-05 -3.64514e-05 -1.02558e-07
-3.64514e-05 -0.000117414 1.31699e-06
-1.02558e-07 1.31699e-06 -0.000314675
0.000699051 -7.94182e-05 -3.90933e-06
-7.94182e-05 0.000258777 -2.09764e-06
-3.90933e-06 -2.09764e-06 5.97692e-05
0.000787364 -6.37454e-05 -4.79761e-07
-6.37454e-05 0.000321586 -1.59634e-06
-4.79761e-07 -1.59634e-06 0.000126407
0.000643669 -6.93923e-05 -4.69696e-06
-6.93923e-05 0.000187152 1.75512e-06
-4.69696e-06 1.75512e-06 3.24972e-05
0.000959548 2.15216e-05 -8.43364e-06
2.15216e-05 0.000483402 -6.51918e-06
-8.43364e-06 -6.51918e-06 0.000272015
0.000988447 -0.000143608 5.31141e-06
-0.000143608 0.000375813 -1.18888e-05
5.31141e-06 -1.18888e-05 0.000242524
-0.000459727 -3.12509e-05 -4.39472e-06
-3.12509e-05 -0.000466543 -6.62414e-06
-4.39472e-06 -6.62414e-06 -0.000606236
-0.000282553 -2.6927e-05 2.02362e-06
-2.6927e-05 -0.000264897 -6.18544e-06
2.02362e-06 -6.18544e-06 -0.000499625
8.479e-05 -7.08025e-05 8.05782e-07
-7.08025e-05 -0.000137673 3.5649e-07
8.05782e-07 3.5649e-07 -0.000292129
0.000847494 -0.000147907 -1.24908e-06
-0.000147907 0.000371198 1.05706e-06
-1.24908e-06 1.05706e-06 0.000189054
0.000378946 -8.99662e-05 -4.3206e-08
-8.99662e-05 5.35739e-06 4.14419e-06
-4.3206e-08 4.14419e-06 -0.000135155
0.000368388 -0.000104845 3.89065e-06
-0.000104845 1.79885e-05 -6.14191e-07
3.89065e-06 -6.14191e-07 -0.00014902
0.000548807 -0.000133367 6.9173e-08
-0.000133367 0.000132111 2.08299e-07
6.9173e-08 2.08299e-07 -2.28529e-05
0.000501966 -6.94616e-05 -1.53519e-06
-6.94616e-05 6.08397e-05 5.4106e-06
-1.53519e-06 5.4106e-06 -3.06367e-05
0.00028725 1.34942e-06 2.64061e-07
1.34942e-06 -2.59962e-05 -3.8477e-07
2.64061e-07 -3.8477e-07 -0.000189387
0.000451512 6.22874e-07 2.61455e-06
6.22874e-07 3.90433e-05 1.26669e-07
2.61455e-06 1.26669e-07 -5.55956e-05
0.00141433 -4.12199e-05 -1.39041e-05
-4.12199e-05 0.000622204 7.30381e-06
-1.39041e-05 7.30381e-06 0.000598035
0.000434551 8.07615e-05 -2.41904e-06
8.07615e-05 2.72585e-05 -3.02079e-06
-2.41904e-06 -3.02079e-06 -6.57201e-05
0.000821591 -2.68596e-05 -5.45817e-06
-2.68596e-05 0.000250685 7.57973e-07
-5.45817e-06 7.57973e-07 0.000222552
0.000820637 9.95945e-07 -6.85531e-06
9.95945e-07 0.000229153 4.77908e-06
-6.85531e-06 4.77908e-06 0.000232881
0.000320834 -3.73927e-05 5.42242e-06
-3.73927e-05 -7.36212e-05 -5.39729e-06
5.42242e-06 -5.39729e-06 -0.000101895
0.00260822 4.2803e-06 1.16053e-05
4.2803e-06 0.00137894 2.61687e-08
1.16053e-05 2.61687e-08 0.00139029
0.000849525 6.17923e-06 -1.36704e-05
6.17923e-06 0.000248048 -5.64901e-06
-1.36704e-05 -5.64901e-06 0.000250237
0.000551808 8.11388e-05 1.88891e-06
8.11388e-05 0.00013369 -1.2098e-06
1.88891e-06 -1.2098e-06 1.38258e-05
0.000412787 6.28823e-05 -3.01453e-06
6.28823e-05 -1.74071e-06 -3.88646e-06
-3.01453e-06 -3.88646e-06 -5.7647e-05
0.000443906 2.38662e-06 1.36498e-06
2.38662e-06 1.76159e-05 2.5549e-07
1.36498e-06 2.5549e-07 -4.0197e-05
0.000433801 1.01977e-05 9.41581e-07
1.01977e-05 -3.0193e-05 -3.96612e-06
9.41581e-07 -3.96612e-06 -4.3205e-05
0.000536699 -7.70922e-05 -1.35032e-06
-7.70922e-05 8.78207e-05 3.99237e-06
-1.35032e-06 3.99237e-06 1.74122e-05
0.000456409 1.07043e-05 2.76357e-07
1.07043e-05 -1.71863e-05 -7.50228e-07
2.76357e-07 -7.50228e-07 -3.21559e-05
0.00208649 4.31558e-05 7.1404e-07
4.31558e-05 0.00104064 -5.16082e-06
7.1404e-07 -5.16082e-06 0.00105412
0.0011839 4.24157e-05 1.5084e-06
4.24157e-05 0.000459351 2.90824e-06
1.5084e-06 2.90824e-06 0.000441543
0.00152541 5.26139e-05 -8.90658e-07
5.26139e-05 0.000685378 1.64649e-06
-8.90658e-07 1.64649e-06 0.00069024
0.000796262 5.48052e-05 3.16911e-06
5.48052e-05 0.000222405 1.09398e-05
3.16911e-06 1.09398e-05 0.000217727
0.000889864 0.000774138 8.8194e-05
0.000774138 -0.00312977 2.92518e-05
8.8194e-05 2.92518e-05 -0.00175759
0.00252731 -4.73831e-05 1.31465e-05
-4.73831e-05 -0.000189646 2.62058e-06
1.31465e-05 2.62058e-06 -6.59143e-06
0.0024321 8.57267e-05 4.86149e-05
8.57267e-05 -2.25729e-05 -1.25612e-05
4.86149e-05 -1.25612e-05 0.000145215
0.00388927 0.000730159 -8.88847e-05
0.000730159 -0.00262155 -4.74764e-05
-8.88847e-05 -4.74764e-05 -0.000143927
0.00328582 0.000119597 8.17896e-05
0.000119597 -0.000853066 -4.35638e-06
8.17896e-05 -4.35638e-06 -6.1163e-05
0.00285609 -6.52716e-05 -8.65344e-06
-6.52716e-05 0.000223209 -5.29806e-06
-8.65344e-06 -5.29806e-06 0.00037848
0.0050837 -0.00061201 -7.41932e-05
-0.00061201 0.000580063 -2.37052e-05
-7.41932e-05 -2.37052e-05 0.00118274
0.00490531 -0.000743896 4.69008e-05
-0.000743896 -0.00104135 2.2366e-07
4.69008e-05 2.2366e-07 0.000672627
0.0205228 -0.00115835 0.000102631
-0.00115835 0.00274099 -7.83092e-05
0.000102631 -7.83092e-05 0.00250328
0.0195316 0.00880244 0.00215543
0.00880244 0.00797653 -0.00043337
0.00215543 -0.00043337 0.00228186
0.0297577 0.0102836 0.000158392
0.0102836 0.0192766 6.98969e-05
0.000158392 6.98969e-05 0.0123481
5.60231e-06 -0.000109981 6.02816e-07
-0.000109981 -0.000196009 -2.88113e-06
6.02816e-07 -2.88113e-06 -0.000323594
0.000516552 -8.50467e-06 2.19335e-06
-8.50467e-06 0.000102421 4.60252e-08
2.19335e-06 4.60252e-08 -8.06842e-06
0.000599279 -9.64466e-05 -7.17111e-07
-9.64466e-05 0.000173454 6.16074e-06
-7.17111e-07 6.16074e-06 4.41287e-05
0.000535543 -4.52376e-05 2.18516e-06
-4.52376e-05 0.000115306 -8.12665e-08
2.18516e-06 -8.12665e-08 -9.11053e-06
0.0010658 0.000157751 -7.84432e-06
0.000157751 0.000546657 -3.63376e-06
-7.84432e-06 -3.63376e-06 0.000389365
0.000637536 0.000157293 -2.09331e-06
0.000157293 0.000188915 4.30192e-06
-2.09331e-06 4.30192e-06 4.2689e-05
0.000862063 2.14855e-05 1.55657e-06
2.14855e-05 0.000357129 9.38696e-07
1.55657e-06 9.38696e-07 0.000196316
0.000532772 -2.30218e-05 -1.48681e-06
-2.30218e-05 0.000122909 1.22681e-06
-1.48681e-06 1.22681e-06 -1.00252e-05
0.00272166 -0.000363245 1.50731e-05
-0.000363245 -0.000141015 -1.36649e-05
1.50731e-05 -1.36649e-05 0.000139905
0.00234164 -0.00070161 1.16252e-05
-0.00070161 -0.000368896 -5.41079e-06
1.16252e-05 -5.41079e-06 -0.000132603
0.00270495 -0.00106226 6.72895e-06
-0.00106226 0.000209152 5.10282e-06
6.72895e-06 5.10282e-06 -8.52064e-06
0.00288499 -0.00127397 7.98909e-06
-0.00127397 0.00104236 -4.48994e-06
7.98909e-06 -4.48994e-06 0.000468468
0.0027131 -0.00130993 -3.15788e-05
-0.00130993 0.000578251 -3.75586e-06
-3.15788e-05 -3.75586e-06 9.24307e-05
0.000884633 -0.00122024 2.50261e-05
-0.00122024 0.000532093 1.10461e-05
2.50261e-05 1.10461e-05 -0.000382679
0.00505636 -0.00091664 9.16788e-06
-0.00091664 0.00267207 5.02088e-06
9.16788e-06 5.02088e-06 0.00215852
0.00182088 -0.000427818 2.25231e-05
-0.000427818 0.00105557 -5.52216e-05
2.25231e-05 -5.52216e-05 0.000611368
0.000505295 -0.000126506 -1.94192e-06
-0.000126506 -8.85004e-06 7.61851e-06
-1.94192e-06 7.61851e-06 -0.000121609
0.00112821 -9.97325e-05 1.70776e-05
-9.97325e-05 0.000505147 -2.03786e-05
1.70776e-05 -2.03786e-05 0.000214481
0.000896079 -6.87246e-05 5.63722e-06
-6.87246e-05 0.000363264 5.60387e-06
5.63722e-06 5.60387e-06 0.000206811
0.000533409 6.30956e-07 9.51765e-06
6.30956e-07 0.000179746 -2.21541e-06
9.51765e-06 -2.21541e-06 0.000135583
0.00264721 -0.000489909 2.16966e-07
-0.000489909 -0.000185611 3.67156e-06
2.16966e-07 3.67156e-06 0.000223206
0.000316743 -0.00010955 -5.8702e-06
-0.00010955 0.000117639 3.76006e-07
-5.8702e-06 3.76006e-07 -5.41955e-05
0.00148158 -0.000275705 -6.7334e-06
-0.000275705 0.000720798 6.33415e-06
-6.7334e-06 6.33415e-06 0.000473653
0.00179817 -0.000797915 8.65319e-06
-0.000797915 -0.000437705 -4.88338e-06
8.65319e-06 -4.88338e-06 -0.000292266
0.00246086 -0.00111717 1.90567e-06
-0.00111717 0.000359984 6.02956e-06
1.90567e-06 6.02956e-06 -4.74469e-06
0.00138435 -0.00116127 -2.78068e-06
-0.00116127 -2.15529e-05 -1.62451e-05
-2.78068e-06 -1.62451e-05 -0.000395168
0.00142415 -0.000422611 -3.22602e-06
-0.000422611 0.000895751 -3.40397e-05
-3.22602e-06 -3.40397e-05 0.000393975
0.00113043 -0.000800443 1.32217e-05
-0.000800443 0.0011475 2.14532e-06
1.32217e-05 2.14532e-06 0.000176262
0.00628678 -0.00116296 -5.37595e-05
-0.00116296 0.0016193 3.69227e-05
-5.37595e-05 3.69227e-05 0.00191635
0.00330948 -0.00117911 -4.18897e-05
-0.00117911 0.000803262 1.6124e-05
-4.18897e-05 1.6124e-05 0.000528751
0.00280956 -0.00135435 9.41713e-06
-0.00135435 0.000676257 1.98377e-05
9.41713e-06 1.98377e-05 0.000274464
0.000103828 -0.000748495 -8.89224e-06
-0.000748495 -0.000381521 2.93145e-05
-8.89224e-06 2.93145e-05 -0.000540406
0.000697321 -0.000200794 2.92722e-08
-0.000200794 0.000423599 2.04668e-06
2.92722e-08 2.04668e-06 0.00012901
0.000126498 -0.000200513 3.83434e-06
-0.000200513 0.000153514 4.5885e-06
3.83434e-06 4.5885e-06 -0.000214639
0.000917021 -0.000357228 -1.8092e-05
-0.000357228 0.00101392 -1.81661e-05
-1.8092e-05 -1.81661e-05 0.000202238
-0.00786746 -0.000625794 0.000910728
-0.000625794 -0.00319641 -4.43623e-05
0.000910728 -4.43623e-05 -0.00499028
0.0122933 -0.000508258 8.21811e-05
-0.000508258 -0.000600049 5.06712e-05
8.21811e-05 5.06712e-05 0.000427969
0.00265966 0.000438422 9.81112e-06
0.000438422 0.00157393 -9.9434e-06
9.81112e-06 -9.9434e-06 0.00129747
0.00210898 0.000731474 2.05495e-06
0.000731474 0.000963974 7.76882e-06
2.05495e-06 7.76882e-06 0.000466666
0.00154558 0.000808983 0.000107902
0.000808983 -0.000672891 5.55594e-05
0.000107902 5.55594e-05 -0.000495304
0.00388833 0.00132225 3.42107e-05
0.00132225 0.00120948 1.83742e-05
3.42107e-05 1.83742e-05 0.000744616
0.00312859 0.0011317 2.75803e-05
0.0011317 0.00125225 7.03122e-06
2.75803e-05 7.03122e-06 0.000648208
0.0183763 0.000884492 0.000104585
0.000884492 0.00199316 -0.000121032
0.000104585 -0.000121032 0.00210242
0.00867634 0.00340655 -0.000287947
0.00340655 -0.00193819 -3.58045e-05
-0.000287947 -3.58045e-05 0.000820425
0.00190351 0.00196019 1.43535e-06
0.00196019 -0.000331932 -3.70661e-05
1.43535e-06 -3.70661e-05 -0.000722965
0.0175312 -0.00688436 -0.000863329
-0.00688436 0.00786861 7.01575e-05
-0.000863329 7.01575e-05 0.00259114
0.0154753 -0.0158398 -0.00327339
-0.0158398 0.0127177 -0.00182773
-0.00327339 -0.00182773 0.00427043
0.000694266 0.000370774 6.3974e-06
0.000370774 0.000350448 -3.10153e-06
6.3974e-06 -3.10153e-06 3.13128e-05
0.000397081 -0.00410435 0.000829149
-0.00410435 -0.00166337 9.28853e-05
0.000829149 9.28853e-05 -0.00552021
0.00097972 -0.00489962 -0.000856189
-0.00489962 0.00967668 -0.000172505
-0.000856189 -0.000172505 0.00167182
0.00389351 0.00158198 -1.86545e-05
0.00158198 0.000754559 2.82118e-06
-1.86545e-05 2.82118e-06 0.000491426
0.000885259 0.000617725 -1.17604e-05
0.000617725 0.000176555 8.74643e-06
-1.17604e-05 8.74643e-06 -0.000271525
0.00190987 0.00109551 3.58738e-06
0.00109551 0.000578057 1.22099e-06
3.58738e-06 1.22099e-06 2.87746e-05
0.00200876 0.00187286 7.54131e-05
0.00187286 0.000383031 5.1793e-05
7.54131e-05 5.1793e-05 6.43312e-05
0.0141653 0.00423465 -0.00017643
0.00423465 -0.000928874 -0.00012889
-0.00017643 -0.00012889 -0.00149713
0.00301016 0.00390537 -1.27104e-05
0.00390537 -0.00150459 -4.56068e-05
-1.27104e-05 -4.56068e-05 0.000325145
0.023161 -0.00705747 0.000778217
-0.00705747 0.0104916 -4.66837e-05
0.000778217 -4.66837e-05 0.00347126
0.0233766 -0.00580413 -4.39184e-05
-0.00580413 0.00738666 0.000906023
-4.39184e-05 0.000906023 0.00213003
0.00128466 0.000444597 -1.5605e-05
0.000444597 0.000643643 -1.82894e-05
-1.5605e-05 -1.82894e-05 0.000350479
-0.00818858 0.00120731 -5.56631e-05
0.00120731 0.00552602 -0.000158262
-5.56631e-05 -0.000158262 -0.00296295
0.0070009 0.00173126 -0.000594303
0.00173126 0.0056838 -0.000611089
-0.000594303 -0.000611089 0.0002414
0.00285619 0.00119932 -4.8542e-05
0.00119932 0.000684798 -2.35018e-05
-4.8542e-05 -2.35018e-05 0.000551585
0.00291342 0.00115071 -8.95571e-05
0.00115071 0.00129748 -3.52516e-05
-8.95571e-05 -3.52516e-05 0.000767981
0.00240266 0.00146231 -0.000105134
0.00146231 0.00144877 -3.62442e-05
-0.000105134 -3.62442e-05 0.000610573
-0.00325826 0.00266023 5.23393e-05
0.00266023 -0.00112514 -2.69085e-05
5.23393e-05 -2.69085e-05 -0.00113717
0.00504628 0.0061616 0.000773157
0.0061616 -0.00183666 9.7273e-05
0.000773157 9.7273e-05 -0.00295463
0.0253282 -0.00888732 -0.000149121
-0.00888732 0.0142057 0.000944075
-0.000149121 0.000944075 0.0063176
0.00932795 0.00035858 -0.000207979
0.00035858 -0.00175957 -0.000212134
-0.000207979 -0.000212134 -0.0015729
0.000246809 0.000212644 -2.3675e-06
0.000212644 0.000150379 -4.65591e-07
-2.3675e-06 -4.65591e-07 -3.46687e-05
0.00177875 0.000381758 6.87784e-06
0.000381758 0.00107248 1.87949e-06
6.87784e-06 1.87949e-06 0.000800775
-0.00054053 0.000144909 -6.84555e-06
0.000144909 -0.000292407 3.46441e-06
-6.84555e-06 3.46441e-06 -0.000522024
0.000355396 5.86958e-05 2.73941e-06
5.86958e-05 -3.57297e-06 2.33299e-06
2.73941e-06 2.33299e-06 -0.000155666
0.00112227 8.78474e-05 7.43562e-07
8.78474e-05 0.000539834 -1.42987e-07
7.43562e-07 -1.42987e-07 0.000325358
0.000510218 3.61761e-05 -2.33913e-06
3.61761e-05 0.000182754 2.8839e-06
-2.33913e-06 2.8839e-06 -4.14128e-05
0.000229967 0.000113626 7.97095e-06
0.000113626 -1.95938e-05 1.04721e-05
7.97095e-06 1.04721e-05 -0.000235557
-0.000714929 3.03312e-05 -5.19972e-06
3.03312e-05 -0.000506721 5.07641e-06
-5.19972e-06 5.07641e-06 -0.000702428
0.000770387 3.72388e-05 3.05031e-07
3.72388e-05 0.000309705 -6.99786e-07
3.05031e-07 -6.99786e-07 0.00010647
0.000658575 0.000100073 1.83976e-07
0.000100073 0.000250938 8.51457e-08
1.83976e-07 8.51457e-08 7.38021e-05
0.000860203 -4.17534e-05 -1.21485e-06
-4.17534e-05 0.000394307 2.45376e-06
-1.21485e-06 2.45376e-06 0.000171903
-0.0010886 4.97817e-05 9.04546e-07
4.97817e-05 -0.000513221 1.611e-06
9.04546e-07 1.611e-06 -0.00085622
0.00117596 9.78074e-05 1.07278e-06
9.78074e-05 0.000947223 8.20182e-06
1.07278e-06 8.20182e-06 0.000545058
0.000798255 -1.47753e-05 5.40356e-07
-1.47753e-05 0.000485366 -6.89118e-06
5.40356e-07 -6.89118e-06 0.000221878
0.00171753 -2.59568e-05 -3.52108e-06
-2.59568e-05 0.000997233 3.34352e-06
-3.52108e-06 3.34352e-06 0.000736498
0.000878553 -9.92022e-05 -3.99429e-07
-9.92022e-05 0.000382258 -7.65312e-07
-3.99429e-07 -7.65312e-07 0.000180306
0.00014283 -0.000117138 2.9137e-06
-0.000117138 -0.000141927 1.18814e-05
2.9137e-06 1.18814e-05 -0.000282666
0.000558078 -9.67963e-05 6.56407e-07
-9.67963e-05 0.00020059 -3.03021e-07
6.56407e-07 -3.03021e-07 4.72032e-06
0.000709659 -0.000131252 -2.62539e-06
-0.000131252 0.000187495 -1.50245e-06
-2.62539e-06 -1.50245e-06 5.32726e-05
-0.000271092 -6.87938e-05 4.80222e-07
-6.87938e-05 -0.000338068 6.17845e-06
4.80222e-07 6.17845e-06 -0.000465452
-0.000526799 -4.58097e-05 8.78072e-07
-4.58097e-05 -0.000467268 -9.06669e-06
8.78072e-07 -9.06669e-06 -0.000650211
-5.04185e-05 -5.01954e-05 -8.23325e-06
-5.01954e-05 -7.32844e-05 -1.96986e-06
-8.23325e-06 -1.96986e-06 -0.000294045
0.00027391 -0.000132515 1.75226e-06
-0.000132515 1.36708e-05 -1.03879e-05
1.75226e-06 -1.03879e-05 -0.000117843
0.00114386 -0.000152506 2.52064e-05
-0.000152506 0.000435578 -1.83738e-05
2.52064e-05 -1.83738e-05 0.000318197
0.00274518 -0.000491464 -1.32698e-06
-0.000491464 0.00136007 2.33426e-06
-1.32698e-06 2.33426e-06 0.0010989
-0.000570637 -0.000105876 -3.41263e-06
-0.000105876 -0.0004949 -2.86434e-06
-3.41263e-06 -2.86434e-06 -0.000708168
0.000496502 -5.26388e-05 2.50031e-06
-5.26388e-05 0.000203328 -3.67746e-07
2.50031e-06 -3.67746e-07 -2.05823e-05
-0.000836741 -7.81109e-06 5.19074e-06
-7.81109e-06 -0.00066811 -1.21012e-06
5.19074e-06 -1.21012e-06 -0.000902284
0.000667286 -0.000188457 -1.66669e-06
-0.000188457 0.000255441 -8.90689e-07
-1.66669e-06 -8.90689e-07 7.10324e-05
0.000460622 -5.32927e-05 2.26189e-06
-5.32927e-05 5.64952e-05 8.76533e-07
2.26189e-06 8.76533e-07 -9.44053e-05
0.000612498 -0.000175291 1.37568e-06
-0.000175291 0.000201468 -6.94649e-07
1.37568e-06 -6.94649e-07 3.41936e-05
0.000587456 -0.000100912 -7.62468e-07
-0.000100912 0.000158572 7.04494e-08
-7.62468e-07 7.04494e-08 4.73513e-06
0.000304714 3.34007e-05 1.23649e-06
3.34007e-05 -6.65464e-05 5.17526e-06
1.23649e-06 5.17526e-06 -0.000162776
0.00061134 -0.000133419 1.53137e-07
-0.000133419 0.000164062 -2.68503e-06
1.53137e-07 -2.68503e-06 1.05752e-05
0.000497318 -5.49306e-05 -6.25933e-07
-5.49306e-05 5.16294e-05 2.01168e-07
-6.25933e-07 2.01168e-07 -3.59949e-05
0.0013918 2.74153e-05 -8.63476e-06
2.74153e-05 0.000599391 7.91199e-06
-8.63476e-06 7.91199e-06 0.000575383
0.000473744 -7.76554e-05 9.28609e-07
-7.76554e-05 4.67562e-05 -3.34983e-06
9.28609e-07 -3.34983e-06 -4.3848e-05
0.000843148 -2.82915e-05 -1.04348e-05
-2.82915e-05 0.000256348 9.1386e-07
-1.04348e-05 9.1386e-07 0.000228932
0.000739561 1.03868e-05 1.7269e-06
1.03868e-05 0.000166429 2.23519e-06
1.7269e-06 2.23519e-06 0.000169386
0.000403081 -3.57535e-05 3.9945e-06
-3.57535e-05 -2.54824e-05 -4.92583e-06
3.9945e-06 -4.92583e-06 -5.24611e-05
0.00255501 7.57748e-06 7.00914e-06
7.57748e-06 0.00134285 -6.3821e-09
7.00914e-06 -6.3821e-09 0.00135511
0.00258766 -2.53815e-06 7.93716e-06
-2.53815e-06 0.0013654 -5.09835e-06
7.93716e-06 -5.09835e-06 0.00137687
0.00103508 8.00737e-05 -1.24597e-06
8.00737e-05 0.000442649 -1.25915e-06
-1.24597e-06 -1.25915e-06 0.000317341
0.000495994 7.34417e-05 -2.18741e-06
7.34417e-05 5.66328e-05 -4.20412e-06
-2.18741e-06 -4.20412e-06 -6.19023e-06
0.00051512 -2.00194e-05 -8.08059e-07
-2.00194e-05 0.000110253 8.91463e-07
-8.08059e-07 8.91463e-07 -8.21573e-06
0.000421155 1.09584e-05 1.07794e-06
1.09584e-05 -3.87509e-05 -4.12402e-06
1.07794e-06 -4.12402e-06 -5.07091e-05
0.000408762 -9.0479e-06 1.78387e-06
-9.0479e-06 -7.19393e-06 -2.41139e-07
1.78387e-06 -2.41139e-07 -6.15227e-05
0.000467632 -6.77576e-05 -1.97429e-06
-6.77576e-05 3.80615e-05 4.0808e-06
-1.97429e-06 4.0808e-06 -2.30547e-05
0.000436435 5.717e-06 -6.6239e-07
5.717e-06 -2.90992e-05 1.39873e-08
-6.6239e-07 1.39873e-08 -4.20249e-05
0.00204387 2.79501e-05 -4.58496e-06
2.79501e-05 0.00101037 -5.1644e-06
-4.58496e-06 -5.1644e-06 0.00102576
0.00119022 2.20616e-05 -7.28103e-07
2.20616e-05 0.000458092 2.92235e-06
-7.28103e-07 2.92235e-06 0.000445966
0.00133135 3.32235e-05 -3.51576e-06
3.32235e-05 0.000551979 4.50276e-08
-3.51576e-06 4.50276e-08 0.000561835
0.000745912 3.90581e-05 -3.10171e-06
3.90581e-05 0.000181072 8.70384e-06
-3.10171e-06 8.70384e-06 0.000183233
-0.00666692 0.00249806 0.000934256
0.00249806 -0.00193107 -0.000113838
0.000934256 -0.000113838 -0.00652606
0.00227266 0.00196468 0.00207799
0.00196468 0.00963923 -0.000377054
0.00207799 -0.000377054 0.00354727
0.00218566 0.000779731 -0.000155532
0.000779731 -0.0032953 -4.30934e-05
-0.000155532 -4.30934e-05 -0.000559818
0.00260536 -5.61836e-05 2.18896e-05
-5.61836e-05 -0.00122357 -3.48161e-05
2.18896e-05 -3.48161e-05 -0.000337045
0.00253236 -8.40339e-05 5.35456e-05
-8.40339e-05 -4.23617e-05 1.42818e-05
5.35456e-05 1.42818e-05 0.000132043
-0.00112603 -0.000131687 -0.000135654
-0.000131687 -0.00268816 -3.81937e-05
-0.000135654 -3.81937e-05 -0.000720473
0.00420903 -0.000640826 2.51278e-06
-0.000640826 2.17319e-05 3.55614e-06
2.51278e-06 3.55614e-06 0.000531938
0.0124879 -0.000406532 0.000284288
-0.000406532 -0.00264553 -0.000119944
0.000284288 -0.000119944 -0.00270117
0.00547614 0.00588485 -8.81187e-06
0.00588485 0.00204745 -8.99239e-05
-8.81187e-06 -8.99239e-05 -0.00285955
0.0246444 0.0126039 -0.000807357
0.0126039 0.0163716 0.000312631
-0.000807357 0.000312631 0.0089224
0.00210611 -0.0013636 5.8203e-06
-0.0013636 -0.00348341 -3.3905e-05
5.8203e-06 -3.3905e-05 -0.0011844
0.0157467 -0.00397648 0.000289415
-0.00397648 0.000249577 -7.50383e-05
0.000289415 -7.50383e-05 -0.000439531
0.0248281 0.00799201 0.000526283
0.00799201 0.00936271 -0.00050727
0.000526283 -0.00050727 0.00210448
0.0280555 0.00587673 -0.000372004
0.00587673 0.0105679 0.000365687
-0.000372004 0.000365687 0.00583201
0.00121181 0.000183145 -6.9924e-06
0.000183145 0.000650315 -8.74694e-07
-6.9924e-06 -8.74694e-07 0.000434469
0.000318051 3.79086e-05 9.96617e-07
3.79086e-05 -2.10731e-05 -7.39271e-07
9.96617e-07 -7.39271e-07 -0.000137855
0.000524223 -0.000105284 3.58229e-06
-0.000105284 0.000120196 3.75269e-06
3.58229e-06 3.75269e-06 2.92381e-06
0.000729765 -9.39055e-06 7.44628e-06
-9.39055e-06 0.000249745 1.34706e-06
7.44628e-06 1.34706e-06 0.000119906
0.00070279 8.00711e-05 3.81187e-06
8.00711e-05 0.000303883 1.45657e-07
3.81187e-06 1.45657e-07 0.000172743
0.000579009 7.6433e-05 -1.72873e-06
7.6433e-05 0.000180912 5.94418e-06
-1.72873e-06 5.94418e-06 -8.9985e-06
0.000628995 8.32646e-05 -9.99461e-07
8.32646e-05 0.000207121 2.94576e-06
-9.99461e-07 2.94576e-06 5.66824e-05
0.000437256 0.000104951 3.39278e-06
0.000104951 3.60359e-05 3.34881e-06
3.39278e-06 3.34881e-06 -0.000124893
0.000590924 -2.0547e-06 1.68571e-06
-2.0547e-06 0.000180232 -1.18888e-06
1.68571e-06 -1.18888e-06 2.13145e-05
0.000357151 -3.14087e-05 3.48617e-06
-3.14087e-05 1.16416e-06 -1.12195e-07
3.48617e-06 -1.12195e-07 -0.000118572
0.00107186 -0.000392165 4.14342e-05
-0.000392165 -0.00114186 -1.99168e-05
4.14342e-05 -1.99168e-05 -0.000615191
0.00116345 -0.000737374 2.26145e-05
-0.000737374 -0.000775245 -1.02541e-05
2.26145e-05 -1.02541e-05 -0.000593825
0.00104699 -0.000914073 8.70911e-06
-0.000914073 -0.000418453 4.34264e-06
8.70911e-06 4.34264e-06 -0.000680473
-0.000956426 -0.000821521 -1.82544e-05
-0.000821521 -0.0013148 -1.48509e-05
-1.82544e-05 -1.48509e-05 -0.00161546
0.00271975 -0.000734714 6.80649e-06
-0.000734714 0.00188426 5.10321e-05
6.80649e-06 5.10321e-05 0.00108459
-0.00074338 -0.0007116 -7.01075e-06
-0.0007116 -0.000368297 -1.59638e-05
-7.01075e-06 -1.59638e-05 -0.00107234
0.00136563 -0.000325923 1.38419e-05
-0.000325923 0.000677485 -3.79653e-06
1.38419e-05 -3.79653e-06 0.000467154
0.000127633 -5.22819e-05 5.06193e-06
-5.22819e-05 -3.27857e-05 6.03684e-06
5.06193e-06 6.03684e-06 -0.000186221
0.00278319 -0.000837179 1.50191e-05
-0.000837179 -0.000389613 -1.04578e-05
1.50191e-05 -1.04578e-05 0.000107503
0.000557933 -0.000118321 5.2223e-07
-0.000118321 0.000322695 2.46234e-06
5.2223e-07 2.46234e-06 2.70368e-05
-0.000235039 -0.000247787 -6.45232e-06
-0.000247787 -6.74592e-05 -3.58928e-06
-6.45232e-06 -3.58928e-06 -0.000432158
0.00197314 -0.00100251 1.95701e-05
-0.00100251 5.13045e-05 -1.40775e-06
1.95701e-05 -1.40775e-06 -9.55125e-05
0.00183813 -0.00120767 -1.7883e-06
-0.00120767 8.7607e-05 -4.15985e-06
-1.7883e-06 -4.15985e-06 -0.000192571
-4.18692e-05 -0.000804669 1.40328e-05
-0.000804669 -0.000413148 -1.75882e-05
1.40328e-05 -1.75882e-05 -0.000672503
0.000880196 -0.000477108 1.86816e-05
-0.000477108 0.000966364 -2.49848e-05
1.86816e-05 -2.49848e-05 0.000193402
0.00179899 -0.00130575 -4.90562e-05
-0.00130575 -0.000449634 4.69933e-05
-4.90562e-05 4.69933e-05 -0.000544923
0.00214415 -0.00110167 -3.97324e-05
-0.00110167 0.000403554 2.71926e-05
-3.97324e-05 2.71926e-05 0.000300274
-0.00103424 -0.000545101 -3.89697e-05
-0.000545101 -0.000481085 3.41341e-05
-3.89697e-05 3.41341e-05 -0.000897202
-0.00132457 -0.000117769 -9.83361e-06
-0.000117769 -0.000903024 8.94115e-06
-9.83361e-06 8.94115e-06 -0.00117384
-0.00125302 3.94191e-06 -2.87337e-06
3.94191e-06 -0.000714948 1.37922e-05
-2.87337e-06 1.37922e-05 -0.00105225
0.000876936 -9.21076e-05 1.46352e-06
-9.21076e-05 0.000634021 -7.85311e-06
1.46352e-06 -7.85311e-06 0.000237401
-0.00287882 0.00153655 -0.000618771
0.00153655 0.0081757 2.53058e-05
-0.000618771 2.53058e-05 0.0015938
-0.000224242 -0.00222409 -2.46345e-05
-0.00222409 0.00372141 -3.03775e-05
-2.46345e-05 -3.03775e-05 0.00175519
0.00524819 0.000825711 -0.000177433
0.000825711 -0.00663337 -4.44516e-05
-0.000177433 -4.44516e-05 -0.00668703
0.00127169 0.000454639 1.865e-05
0.000454639 0.000768486 -6.57479e-06
1.865e-05 -6.57479e-06 0.0004138
0.00179667 0.00080426 2.06452e-05
0.00080426 0.000763924 2.8053e-05
2.06452e-05 2.8053e-05 0.000239125
0.00342652 0.00139639 8.93831e-05
0.00139639 0.000465774 3.94527e-05
8.93831e-05 3.94527e-05 0.000281776
0.00168709 0.00115023 2.49582e-05
0.00115023 0.000495776 2.9444e-05
2.49582e-05 2.9444e-05 -0.000102264
0.015433 -0.0048765 0.000342378
-0.0048765 0.00721076 0.000101001
0.000342378 0.000101001 0.00334848
0.00352016 0.0028689 -0.000530082
0.0028689 -0.00669946 -0.000135719
-0.000530082 -0.000135719 -0.00725927
0.00613348 0.00402026 5.1024e-05
0.00402026 0.000530259 3.09483e-05
5.1024e-05 3.09483e-05 0.00165074
0.00312242 0.00176084 8.82898e-05
0.00176084 0.00129516 8.37725e-06
8.82898e-05 8.37725e-06 0.000983638
0.0147173 -0.00401242 -0.000744747
-0.00401242 0.00634055 -0.00028364
-0.000744747 -0.00028364 0.00014172
0.00263676 -0.00629661 -0.00128433
-0.00629661 0.0106463 -0.000287219
-0.00128433 -0.000287219 0.00265555
0.0341188 -0.00839946 0.00119037
-0.00839946 0.0113334 0.000483926
0.00119037 0.000483926 0.00519594
0.000139746 0.00034508 1.41776e-05
0.00034508 -8.90637e-06 -5.65706e-06
1.41776e-05 -5.65706e-06 -0.000302704
-0.002757 0.000172978 -0.000189464
0.000172978 0.00785598 -2.49326e-05
-0.000189464 -2.49326e-05 0.000392674
0.00757759 0.00226645 -0.000241798
0.00226645 0.00432466 -0.000203659
-0.000241798 -0.000203659 -0.00189176
0.00193164 0.00121837 1.14355e-05
0.00121837 0.000323602 3.48389e-06
1.14355e-05 3.48389e-06 0.00010523
0.00100751 0.000907449 1.72983e-05
0.000907449 0.000382307 7.84159e-06
1.72983e-05 7.84159e-06 -0.000146744
0.00119778 0.00149029 -0.000107011
0.00149029 0.000731971 -8.50934e-05
-0.000107011 -8.50934e-05 5.5708e-05
0.00357468 0.00453737 6.97522e-05
0.00453737 0.00077834 5.2242e-05
6.97522e-05 5.2242e-05 0.000983565
0.0136845 0.00696975 -1.64753e-05
0.00696975 0.00110389 -4.58364e-07
-1.64753e-05 -4.58364e-07 -0.000933132
0.0110611 -0.00486171 0.000113453
-0.00486171 0.00811065 -0.000146098
0.000113453 -0.000146098 1.41376e-05
0.0181917 -0.00215792 -4.45329e-05
-0.00215792 0.00280468 -6.58937e-05
-4.45329e-05 -6.58937e-05 0.00312155
0.00130162 0.000774781 -1.92535e-05
0.000774781 0.000644607 -9.53912e-06
-1.92535e-05 -9.53912e-06 0.000215067
0.0014811 0.000419152 -0.000522984
0.000419152 0.0032362 -0.000144111
-0.000522984 -0.000144111 -0.00322706
0.00213914 0.00147596 -0.000181134
0.00147596 0.000308753 -0.000200899
-0.000181134 -0.000200899 -0.00189062
-0.000953582 0.000483053 -5.94398e-06
0.000483053 -0.000189606 -2.69716e-05
-5.94398e-06 -2.69716e-05 -0.000569484
-0.00192675 0.00105676 -0.00018227
0.00105676 0.000755502 1.30648e-06
-0.00018227 1.30648e-06 -1.71527e-05
0.00956135 0.00687541 0.000211493
0.00687541 0.00362627 -2.08981e-05
0.000211493 -2.08981e-05 -0.0014743
0.00438394 -0.00676175 -1.94137e-05
-0.00676175 0.00155612 0.000232166
-1.94137e-05 0.000232166 -0.00526354
0.0150651 -0.000377886 7.7643e-05
-0.000377886 -0.00107257 -0.000347889
7.7643e-05 -0.000347889 0.000648756
0.00146519 0.000322173 3.50772e-06
0.000322173 0.000825343 2.30418e-05
3.50772e-06 2.30418e-05 0.000594985
0.00103665 0.000312482 -8.76666e-06
0.000312482 0.00068609 -6.39745e-06
-8.76666e-06 -6.39745e-06 0.000404907
-0.000581928 0.000156778 1.54673e-06
0.000156778 -7.94024e-05 -4.41268e-07
1.54673e-06 -4.41268e-07 -0.000492548
0.000444161 8.34154e-05 5.55087e-07
8.34154e-05 7.37266e-05 -1.34109e-07
5.55087e-07 -1.34109e-07 -0.000109194
0.00130944 -2.67845e-05 -3.68395e-06
-2.67845e-05 0.000703448 5.04743e-06
-3.68395e-06 5.04743e-06 0.00046323
-0.000342581 8.21999e-05 2.83074e-06
8.21999e-05 -0.000388038 6.52461e-06
2.83074e-06 6.52461e-06 -0.000559743
-0.001376 8.11597e-05 1.72316e-06
8.11597e-05 -0.000671381 1.76479e-06
1.72316e-06 1.76479e-06 -0.00102406
0.000480791 -2.49201e-05 1.91999e-06
-2.49201e-05 0.000152546 6.21389e-07
1.91999e-06 6.21389e-07 -6.13628e-05
0.000428298 9.51631e-05 6.68846e-07
9.51631e-05 0.000251224 -2.46841e-06
6.68846e-07 -2.46841e-06 -7.54249e-06
-4.6708e-05 4.74321e-05 3.7959e-06
4.74321e-05 0.000330434 2.68334e-06
3.7959e-06 2.68334e-06 -0.000167256
-0.00157966 -1.75884e-05 1.55176e-07
-1.75884e-05 -0.00042128 1.04326e-05
1.55176e-07 1.04326e-05 -0.0010088
0.000848708 1.61353e-05 -3.99401e-07
1.61353e-05 0.000797318 -5.96026e-06
-3.99401e-07 -5.96026e-06 0.000365823
0.00185673 4.77797e-05 -3.0554e-06
4.77797e-05 0.00114873 2.14542e-06
-3.0554e-06 2.14542e-06 0.00089545
0.000904488 -0.000180304 4.50444e-06
-0.000180304 0.000427286 3.51171e-06
4.50444e-06 3.51171e-06 0.000223857
0.000171315 -9.54193e-05 7.89785e-08
-9.54193e-05 -0.000168147 6.65782e-06
7.89785e-08 6.65782e-06 -0.000296288
-0.000156478 -7.90958e-05 1.0035e-05
-7.90958e-05 -0.000269577 1.62019e-05
1.0035e-05 1.62019e-05 -0.000372792
0.000247856 -2.64072e-05 9.89239e-07
-2.64072e-05 0.000101154 1.32857e-06
9.89239e-07 1.32857e-06 -0.000108651
0.000488788 -4.61482e-05 1.29181e-07
-4.61482e-05 0.00013952 1.47411e-06
1.29181e-07 1.47411e-06 -3.24619e-05
8.81886e-05 -8.02886e-05 -3.67653e-06
-8.02886e-05 -6.62259e-05 -5.37125e-07
-3.67653e-06 -5.37125e-07 -0.000208459
0.000582798 -0.00010793 -2.88435e-06
-0.00010793 0.000222446 -7.518e-06
-2.88435e-06 -7.518e-06 7.97247e-05
0.00104039 -0.000118058 7.95343e-06
-0.000118058 0.000717162 -1.21422e-05
7.95343e-06 -1.21422e-05 0.000504667
0.00228108 -0.000391694 6.44681e-06
-0.000391694 0.00108852 3.37131e-06
6.44681e-06 3.37131e-06 0.000965044
0.00053666 -0.000145803 -2.02078e-05
-0.000145803 7.16578e-05 1.62658e-07
-2.02078e-05 1.62658e-07 -4.3108e-05
0.000861737 -0.00033633 9.29541e-06
-0.00033633 0.000204935 4.23752e-06
9.29541e-06 4.23752e-06 -8.62195e-06
0.00274888 -0.000777791 -4.96112e-06
-0.000777791 0.00131649 2.00914e-05
-4.96112e-06 2.00914e-05 0.000874307
0.00235255 -0.000319505 9.96832e-06
-0.000319505 0.00115104 -8.41822e-06
9.96832e-06 -8.41822e-06 0.000931869
0.00139713 -0.00036208 -2.15814e-06
-0.00036208 0.000540792 -6.50434e-06
-2.15814e-06 -6.50434e-06 0.000328339
0.000394598 -0.000131025 -7.29441e-07
-0.000131025 8.78621e-05 -6.67574e-07
-7.29441e-07 -6.67574e-07 -0.000129554
-0.00103046 -7.08203e-05 2.67106e-07
-7.08203e-05 -0.000754069 -3.33431e-06
2.67106e-07 -3.33431e-06 -0.00104679
0.00142819 -6.55448e-05 1.92205e-06
-6.55448e-05 0.000769318 3.93378e-06
1.92205e-06 3.93378e-06 0.000555064
0.000688439 -0.000186176 1.92007e-06
-0.000186176 0.000276573 -1.21377e-06
1.92007e-06 -1.21377e-06 3.91083e-05
0.000279665 -7.31383e-05 1.30324e-06
-7.31383e-05 -8.34177e-05 -1.01855e-06
1.30324e-06 -1.01855e-06 -0.000239916
0.00163341 -0.000304593 -5.40137e-06
-0.000304593 0.000885757 6.58817e-07
-5.40137e-06 6.58817e-07 0.000673448
0.000713543 -0.000148657 8.94308e-08
-0.000148657 0.00022842 1.51222e-07
8.94308e-08 1.51222e-07 6.8222e-05
0.000449635 -8.42213e-06 4.051e-07
-8.42213e-06 1.72671e-05 4.42308e-06
4.051e-07 4.42308e-06 -8.30536e-05
0.000859594 -0.00015987 -1.47988e-06
-0.00015987 0.000342479 -2.13964e-06
-1.47988e-06 -2.13964e-06 0.000181509
0.000578628 -7.26637e-05 -4.21425e-07
-7.26637e-05 0.000107471 -1.42982e-08
-4.21425e-07 -1.42982e-08 9.95337e-06
0.00144723 4.08539e-06 -1.41669e-05
4.08539e-06 0.000631506 8.74107e-06
-1.41669e-05 8.74107e-06 0.000603998
0.000520479 -7.99021e-05 1.08357e-06
-7.99021e-05 7.52071e-05 -5.19977e-06
1.08357e-06 -5.19977e-06 -1.95137e-05
0.000839203 -1.80434e-05 -1.22182e-05
-1.80434e-05 0.000245586 8.57802e-07
-1.22182e-05 8.57802e-07 0.000217624
0.000785689 1.90432e-05 1.8393e-06
1.90432e-05 0.000194014 3.1162e-06
1.8393e-06 3.1162e-06 0.000194458
0.000398189 -4.78709e-05 3.48413e-06
-4.78709e-05 -3.20835e-05 -5.52417e-06
3.48413e-06 -5.52417e-06 -6.17856e-05
0.00166518 1.65328e-05 1.47141e-05
1.65328e-05 0.000765991 -1.58275e-06
1.47141e-05 -1.58275e-06 0.000774022
0.00250054 4.84847e-06 1.84744e-05
4.84847e-06 0.00130693 -5.26733e-06
1.84744e-05 -5.26733e-06 0.00131963
0.000461241 7.72448e-05 8.27233e-07
7.72448e-05 4.40754e-05 -2.1583e-06
8.27233e-07 -2.1583e-06 -7.78524e-05
0.000560217 7.59003e-05 -1.42634e-06
7.59003e-05 9.32402e-05 -3.80885e-06
-1.42634e-06 -3.80885e-06 2.58683e-05
0.000539336 1.57943e-05 4.96665e-07
1.57943e-05 0.000113173 7.55522e-07
4.96665e-07 7.55522e-07 -5.38614e-06
0.000426158 1.10506e-05 1.85311e-06
1.10506e-05 -3.53796e-05 -4.54334e-06
1.85311e-06 -4.54334e-06 -4.81608e-05
0.000454097 6.37843e-05 -8.19398e-08
6.37843e-05 2.37051e-05 -2.38425e-07
-8.19398e-08 -2.38425e-07 -3.523e-05
0.000412276 -0.000116746 -2.451e-06
-0.000116746 2.67175e-05 3.2836e-06
-2.451e-06 3.2836e-06 -8.13629e-05
0.00203413 1.33548e-05 -9.51913e-06
1.33548e-05 0.00100182 -5.15456e-06
-9.51913e-06 -5.15456e-06 0.00101851
0.000413301 8.19035e-06 -2.8858e-07
8.19035e-06 -4.36294e-05 2.48735e-08
-2.8858e-07 2.48735e-08 -5.55302e-05
0.000476112 4.4373e-06 -2.62181e-07
4.4373e-06 2.66858e-05 3.65082e-06
-2.62181e-07 3.65082e-06 -2.21064e-05
0.000434082 2.19966e-06 -1.93589e-06
2.19966e-06 -3.14646e-05 4.23372e-06
-1.93589e-06 4.23372e-06 -4.43781e-05
0.00207667 2.9207e-05 -5.83604e-06
2.9207e-05 0.00103174 -1.5236e-07
-5.83604e-06 -1.5236e-07 0.00104684
0.0020914 4.46138e-05 -1.0578e-06
4.46138e-05 0.00104425 5.27142e-06
-1.0578e-06 5.27142e-06 0.00105746
-0.00372371 -0.00216599 -0.000319427
-0.00216599 0.00818853 7.18061e-05
-0.000319427 7.18061e-05 0.00314385
0.00474575 0.00270088 -0.000416896
0.00270088 0.00235179 0.000133569
-0.000416896 0.000133569 -0.00159066
0.00300858 -0.0012038 -0.000674131
-0.0012038 0.00142282 0.000305951
-0.000674131 0.000305951 -0.0036756
0.00446793 0.00273792 0.00152177
0.00273792 0.00938756 -0.000304871
0.00152177 -0.000304871 0.00272545
0.00486064 0.000952025 -4.37115e-05
0.000952025 -0.00064825 -2.04729e-06
-4.37115e-05 -2.04729e-06 0.000839593
0.00358319 -0.000702655 0.000108819
-0.000702655 -0.000299187 8.15411e-06
0.000108819 8.15411e-06 0.000114363
0.00219251 -0.000529637 0.000420164
-0.000529637 -0.00701585 -4.50982e-05
0.000420164 -4.50982e-05 -0.00738923
0.0269781 0.00526995 -0.00156146
0.00526995 0.0124031 2.88191e-05
-0.00156146 2.88191e-05 0.00696981
0.0171434 0.0151927 -0.00312082
0.0151927 0.0122291 0.00184164
-0.00312082 0.00184164 0.00411034
0.00546335 -0.00110777 5.84121e-05
-0.00110777 -0.00120382 3.45839e-06
5.84121e-05 3.45839e-06 0.000374006
0.00782275 -0.00386286 0.0002309
-0.00386286 -0.00435844 -0.00019737
0.0002309 -0.00019737 -0.00560201
0.0245958 0.00782009 -0.000447135
0.00782009 0.00956651 -0.000163455
-0.000447135 -0.000163455 0.00232139
0.0205287 0.00552685 0.000191453
0.00552685 0.00734443 0.000495849
0.000191453 0.000495849 0.00261974
0.00179855 -0.00257868 -0.000106618
-0.00257868 -0.00426021 5.05997e-05
-0.000106618 5.05997e-05 -0.00182381
0.00670905 -0.00622041 0.00070623
-0.00622041 -0.000929041 -0.000276287
0.00070623 -0.000276287 -0.00368518
0.0148121 0.0040214 -0.00011811
0.0040214 0.00535096 -0.00107775
-0.00011811 -0.00107775 -0.00195987
0.0100903 -0.000234722 -0.000409477
-0.000234722 -0.00074976 4.78722e-05
-0.000409477 4.78722e-05 -0.00108695
0.00222522 -4.42144e-05 -6.56623e-07
-4.42144e-05 0.00132522 1.51392e-05
-6.56623e-07 1.51392e-05 0.0010253
0.000172319 7.48197e-05 -1.57714e-06
7.48197e-05 -6.16529e-05 -2.15265e-06
-1.57714e-06 -2.15265e-06 -0.000221046
0.000578877 0.000119993 4.88041e-06
0.000119993 0.000136422 2.24653e-06
4.88041e-06 2.24653e-06 2.25793e-05
-0.000291064 -6.4546e-05 4.77914e-06
-6.4546e-05 -0.00038084 -8.43223e-07
4.77914e-06 -8.43223e-07 -0.000449682
0.000420298 0.000150805 3.47199e-08
0.000150805 4.81683e-05 8.79165e-06
3.47199e-08 8.79165e-06 -0.000150287
0.00052315 8.17457e-05 -3.62562e-08
8.17457e-05 0.000142533 1.18801e-06
-3.62562e-08 1.18801e-06 -3.68885e-05
2.22611e-06 1.15008e-05 3.51176e-06
1.15008e-05 -0.000199439 1.16894e-07
3.51176e-06 1.16894e-07 -0.000334362
0.000931616 0.000192975 5.45533e-06
0.000192975 0.00040075 1.01894e-05
5.45533e-06 1.01894e-05 0.000201347
0.000944046 0.000171741 1.56067e-07
0.000171741 0.000419312 -5.4443e-07
1.56067e-07 -5.4443e-07 0.000218168
0.000295941 1.70381e-05 -1.91994e-06
1.70381e-05 -2.4096e-05 -4.38189e-06
-1.91994e-06 -4.38189e-06 -0.000177562
0.000732055 -0.000683153 0.000102677
-0.000683153 -0.00155322 -6.41312e-05
0.000102677 -6.41312e-05 -0.00096473
0.000339759 -0.000824292 3.47931e-06
-0.000824292 -0.000893148 -1.21101e-05
3.47931e-06 -1.21101e-05 -0.000915025
0.00162782 -0.00117757 4.51224e-07
-0.00117757 -7.47741e-05 7.9792e-06
4.51224e-07 7.9792e-06 -0.000260827
-0.00106514 -0.000819968 2.12416e-06
-0.000819968 -0.000996596 -1.35626e-05
2.12416e-06 -1.35626e-05 -0.00130121
0.0042725 -0.000643876 -4.60852e-05
-0.000643876 0.00273868 7.65847e-05
-4.60852e-05 7.65847e-05 0.00218511
0.000649866 -0.000277518 -8.45398e-07
-0.000277518 0.000493586 2.6699e-06
-8.45398e-07 2.6699e-06 0.000111856
0.000366723 8.83784e-05 1.05491e-06
8.83784e-05 0.000174824 -1.21324e-05
1.05491e-06 -1.21324e-05 -0.000108683
0.000577862 -5.29235e-06 -5.45509e-06
-5.29235e-06 0.000287036 6.98899e-06
-5.45509e-06 6.98899e-06 -1.44521e-05
0.00272694 -0.00130411 -2.56967e-05
-0.00130411 -7.5849e-06 1.78341e-06
-2.56967e-05 1.78341e-06 7.4087e-05
0.000617497 -5.24676e-05 1.94561e-06
-5.24676e-05 0.000393545 2.85291e-06
1.94561e-06 2.85291e-06 7.24319e-05
0.00235764 -0.000427864 8.12298e-06
-0.000427864 0.00151654 -4.44186e-06
8.12298e-06 -4.44186e-06 0.00110089
0.00167876 -0.00105568 1.75828e-05
-0.00105568 0.000138635 -5.27059e-06
1.75828e-05 -5.27059e-06 2.81792e-05
0.000477237 -0.000724933 -3.68079e-05
-0.000724933 0.00031733 1.14207e-05
-3.68079e-05 1.14207e-05 -7.44192e-05
0.00267534 -0.00221273 6.10895e-05
-0.00221273 0.000348313 -3.29191e-05
6.10895e-05 -3.29191e-05 -7.2482e-05
0.00110332 -0.000788608 -1.65312e-05
-0.000788608 0.000501647 3.36882e-05
-1.65312e-05 3.36882e-05 0.000300734
-0.00186002 -0.000162917 7.24156e-06
-0.000162917 -0.000726687 4.86488e-06
7.24156e-06 4.86488e-06 -0.00127724
0.000331961 8.16284e-05 -2.27046e-06
8.16284e-05 0.000134752 6.66212e-06
-2.27046e-06 6.66212e-06 -7.55891e-05
-6.382e-06 -0.000129712 -1.19367e-06
-0.000129712 0.000119639 1.39502e-05
-1.19367e-06 1.39502e-05 -0.000248902
0.00173515 0.000293593 -0.000104401
0.000293593 0.00232625 -3.72762e-05
-0.000104401 -3.72762e-05 -0.00271715
-0.00782795 0.00041623 -0.00060661
0.00041623 0.00752999 -1.99692e-05
-0.00060661 -1.99692e-05 0.00143286
-0.0138229 -0.00381035 -0.00114615
-0.00381035 -0.00411119 -3.47899e-06
-0.00114615 -3.47899e-06 -0.00679771
0.000374113 0.000418265 1.89588e-05
0.000418265 0.000219307 -1.24037e-06
1.89588e-05 -1.24037e-06 -0.000131417
-0.000603502 0.000714237 4.2125e-07
0.000714237 -0.000420116 1.06498e-05
4.2125e-07 1.06498e-05 -0.00094237
0.00303653 0.00146049 5.65849e-05
0.00146049 0.000929434 4.62213e-05
5.65849e-05 4.62213e-05 0.000619655
-0.00400466 0.00240087 0.000157117
0.00240087 0.00885602 7.04609e-05
0.000157117 7.04609e-05 0.00319101
0.00629414 0.00618296 -0.000589224
0.00618296 -0.00141874 -0.000208882
-0.000589224 -0.000208882 -0.00380843
0.000249424 0.00294482 0.000514635
0.00294482 -0.000418501 0.000210856
0.000514635 0.000210856 -0.00016787
-8.09983e-05 0.00132151 -1.38424e-05
0.00132151 3.80696e-05 -4.47778e-05
-1.38424e-05 -4.47778e-05 -0.000270953
0.030915 -0.00460618 -2.37045e-05
-0.00460618 0.0119047 -0.000515447
-2.37045e-05 -0.000515447 0.00547432
0.00818485 0.00290968 0.000913605
0.00290968 0.00404237 0.000313817
0.000913605 0.000313817 -0.00279793
0.0141171 -0.00128293 0.000175127
-0.00128293 0.00281449 6.07532e-05
0.000175127 6.07532e-05 0.00390852
0.00144758 0.000772436 1.0042e-05
0.000772436 0.00080822 -1.16874e-06
1.0042e-05 -1.16874e-06 0.000385144
0.00393146 0.00120344 -5.73863e-05
0.00120344 0.0042674 5.49476e-07
-5.73863e-05 5.49476e-07 -0.000809774
0.00230462 0.00121733 0.000118285
0.00121733 0.000660587 -1.23072e-05
0.000118285 -1.23072e-05 -0.00145553
-5.73885e-05 0.000792995 -7.89993e-06
0.000792995 0.000184731 -6.21968e-06
-7.89993e-06 -6.21968e-06 -0.000297851
-0.000623885 0.00202333 -0.00014893
0.00202333 0.000472591 -8.51686e-05
-0.00014893 -8.51686e-05 -0.000885555
0.00259859 0.00700797 0.000366613
0.00700797 0.00150507 0.00013045
0.000366613 0.00013045 -0.00309532
0.01226 -0.000466922 1.52175e-05
-0.000466922 -0.00306354 -0.000230542
1.52175e-05 -0.000230542 -0.000949019
0.00920934 -0.00297604 -0.000120541
-0.00297604 0.00514078 -0.00022345
-0.000120541 -0.00022345 -0.00158031
0.00118044 0.000672103 -3.98401e-06
0.000672103 0.00101348 -1.18272e-05
-3.98401e-06 -1.18272e-05 0.000490511
-0.00409182 0.000688892 4.59722e-05
0.000688892 0.000897444 6.50807e-05
4.59722e-05 6.50807e-05 -0.000799368
0.00716411 -0.000817785 0.000241526
-0.000817785 0.000121867 -0.000125675
0.000241526 -0.000125675 -0.00162417
0.00983805 -7.3297e-05 0.000365702
-7.3297e-05 -0.000755564 -1.11926e-05
0.000365702 -1.11926e-05 -0.000894277
-0.00295849 0.000333823 6.18096e-05
0.000333823 0.000188758 -1.51252e-05
6.18096e-05 -1.51252e-05 -0.00086147
0.00930187 0.00419702 0.000410638
0.00419702 0.00581606 0.000172361
0.000410638 0.000172361 -0.000877322
0.00584123 -0.000695626 -4.29491e-05
-0.000695626 0.00323704 0.000381376
-4.29491e-05 0.000381376 -0.00133648
0.00321743 0.000550328 2.72291e-05
0.000550328 0.00204943 1.09121e-05
2.72291e-05 1.09121e-05 0.00170329
0.000344933 0.000294282 -8.82022e-06
0.000294282 0.000486235 -1.87638e-06
-8.82022e-06 -1.87638e-06 2.36538e-05
0.000264742 0.000278937 5.02161e-07
0.000278937 0.00060328 -1.44364e-05
5.02161e-07 -1.44364e-05 -1.86425e-05
8.27305e-05 0.000104132 2.49448e-06
0.000104132 -9.49838e-05 -3.7818e-06
2.49448e-06 -3.7818e-06 -0.00030853
0.000514628 0.000136159 -2.45108e-07
0.000136159 0.000289372 3.62806e-07
-2.45108e-07 3.62806e-07 4.91933e-05
-0.000213296 1.44742e-05 3.20479e-06
1.44742e-05 0.000272898 -5.853e-06
3.20479e-06 -5.853e-06 -0.00025048
0.000489532 3.38248e-05 4.52845e-07
3.38248e-05 0.000257131 -6.01127e-07
4.52845e-07 -6.01127e-07 3.33852e-05
0.00100326 -4.88916e-05 -6.54312e-07
-4.88916e-05 0.000927443 -2.97774e-06
-6.54312e-07 -2.97774e-06 0.000473048
-0.000152673 2.3057e-05 3.89295e-06
2.3057e-05 0.000401329 1.07115e-06
3.89295e-06 1.07115e-06 -0.000154137
-5.83601e-06 -6.826e-05 8.09857e-07
-6.826e-05 0.000450302 1.57808e-05
8.09857e-07 1.57808e-05 -3.87149e-05
0.00069961 -5.74572e-05 6.57256e-07
-5.74572e-05 0.000667169 -1.49985e-05
6.57256e-07 -1.49985e-05 0.000315167
-0.000127477 -3.86865e-05 5.65028e-06
-3.86865e-05 -0.000170872 7.90165e-06
5.65028e-06 7.90165e-06 -0.000350265
0.00139837 -6.02923e-05 1.08255e-06
-6.02923e-05 0.000683148 6.15915e-06
1.08255e-06 6.15915e-06 0.000519435
0.000137492 -6.38961e-05 -9.26567e-06
-6.38961e-05 -1.72032e-06 1.07691e-05
-9.26567e-06 1.07691e-05 -0.000159895
0.000608567 -9.0549e-05 1.167e-06
-9.0549e-05 0.000438542 5.91576e-07
1.167e-06 5.91576e-07 0.000235399
8.50718e-05 -5.09495e-05 -2.77174e-06
-5.09495e-05 -6.93085e-05 -1.865e-06
-2.77174e-06 -1.865e-06 -0.00021251
0.00123472 -0.000306455 2.88738e-06
-0.000306455 0.00061647 2.78723e-06
2.88738e-06 2.78723e-06 0.000465336
0.000505561 -0.000230087 -2.2547e-05
-0.000230087 0.00010399 1.22058e-07
-2.2547e-05 1.22058e-07 3.81535e-05
-0.000501675 -0.000337997 1.63857e-05
-0.000337997 -0.000458962 2.13056e-05
1.63857e-05 2.13056e-05 -0.000805466
2.33245e-05 -0.000129526 1.78971e-06
-0.000129526 -0.000223735 2.11611e-06
1.78971e-06 2.11611e-06 -0.000337213
0.00116245 -0.000369005 -6.21554e-06
-0.000369005 0.000376984 1.01993e-05
-6.21554e-06 1.01993e-05 0.000151276
0.0021317 -0.000728082 -6.50135e-06
-0.000728082 0.000915432 1.13308e-05
-6.50135e-06 1.13308e-05 0.00044887
0.00208339 -0.000774422 -3.99008e-06
-0.000774422 0.000798021 -2.23724e-06
-3.99008e-06 -2.23724e-06 0.00028477
0.00197646 -0.000500078 4.01076e-06
-0.000500078 0.000884148 1.45067e-06
4.01076e-06 1.45067e-06 0.000576106
0.000646101 -0.000486648 1.13228e-05
-0.000486648 1.18541e-05 -3.57413e-06
1.13228e-05 -3.57413e-06 -0.000348431
0.00112525 -0.000221998 3.5672e-06
-0.000221998 0.000525278 -4.7404e-06
3.5672e-06 -4.7404e-06 0.000208123
0.00105246 -0.000246569 -7.78979e-06
-0.000246569 0.000388959 1.89466e-06
-7.78979e-06 1.89466e-06 0.000157548
-0.000176798 -0.000208524 2.22811e-05
-0.000208524 -0.000432463 -1.51037e-05
2.22811e-05 -1.51037e-05 -0.000589348
0.001403 -0.000156548 -5.36754e-06
-0.000156548 0.000697885 4.1783e-06
-5.36754e-06 4.1783e-06 0.000474018
-1.62075e-06 -0.000126943 5.56493e-07
-0.000126943 -0.000125536 1.28494e-06
5.56493e-07 1.28494e-06 -0.000413834
-0.000190653 -4.35173e-05 1.49007e-06
-4.35173e-05 -0.000345232 -1.45555e-06
1.49007e-06 -1.45555e-06 -0.00055859
0.00213831 -0.000375474 -3.529e-06
-0.000375474 0.00118603 1.3815e-07
-3.529e-06 1.3815e-07 0.000934672
0.000750835 -0.000158814 -5.75634e-07
-0.000158814 0.000239994 -8.02744e-08
-5.75634e-07 -8.02744e-08 6.10186e-05
0.000436584 -8.80045e-06 3.61527e-06
-8.80045e-06 2.1907e-05 5.64581e-06
3.61527e-06 5.64581e-06 -0.000100936
0.00086513 -0.000193978 -4.6153e-07
-0.000193978 0.000340273 -1.7303e-06
-4.6153e-07 -1.7303e-06 0.000166755
0.000432937 -1.10281e-06 -2.14025e-06
-1.10281e-06 2.351e-05 -2.83654e-07
-2.14025e-06 -2.83654e-07 -8.89964e-05
0.0014836 -1.0695e-05 -2.18545e-05
-1.0695e-05 0.000654985 6.49422e-06
-2.18545e-05 6.49422e-06 0.000623795
0.000611054 -8.46328e-05 8.62893e-07
-8.46328e-05 0.000137195 -5.71042e-06
8.62893e-07 -5.71042e-06 3.47644e-05
0.000838712 -1.78864e-05 -1.16007e-05
-1.78864e-05 0.000240319 5.54164e-07
-1.16007e-05 5.54164e-07 0.00020981
0.000855383 2.99808e-05 1.19467e-06
2.99808e-05 0.000235592 3.59965e-06
1.19467e-06 3.59965e-06 0.000232913
0.000424658 -4.19091e-05 3.62987e-06
-4.19091e-05 -2.26179e-05 -6.84652e-06
3.62987e-06 -6.84652e-06 -5.42196e-05
0.00175487 2.85936e-05 1.79774e-05
2.85936e-05 0.000821093 -1.32325e-06
1.79774e-05 -1.32325e-06 0.000827518
0.00255437 1.78314e-05 2.37321e-05
1.78314e-05 0.00133838 -5.6537e-06
2.37321e-05 -5.6537e-06 0.00135096
0.000185992 3.22745e-05 1.04059e-06
3.22745e-05 -0.000117923 2.65132e-06
1.04059e-06 2.65132e-06 -0.000269889
1.93575e-05 2.65875e-05 -4.95717e-08
2.65875e-05 -0.000262272 -5.59523e-06
-4.95717e-08 -5.59523e-06 -0.000338157
0.000562062 7.66149e-05 -2.11258e-07
7.66149e-05 0.000121996 5.12874e-07
-2.11258e-07 5.12874e-07 -1.09119e-05
0.000436111 1.23454e-05 1.81586e-06
1.23454e-05 -3.04919e-05 -4.85139e-06
1.81586e-06 -4.85139e-06 -4.58382e-05
0.000293979 9.15172e-06 1.7405e-06
9.15172e-06 -8.79328e-05 3.88389e-08
1.7405e-06 3.88389e-08 -0.000151265
0.000178869 -0.000100083 1.95729e-07
-0.000100083 -0.000121644 1.78337e-06
1.95729e-07 1.78337e-06 -0.00023982
0.00208247 -9.97029e-07 -1.39212e-05
-9.97029e-07 0.00103191 -5.2562e-06
-1.39212e-05 -5.2562e-06 0.00104872
0.00042035 7.61483e-06 1.21032e-07
7.61483e-06 -3.9988e-05 -7.9578e-08
1.21032e-07 -7.9578e-08 -5.2365e-05
0.000390698 -1.01954e-05 -3.14123e-06
-1.01954e-05 -2.43201e-05 3.86614e-06
-3.14123e-06 3.86614e-06 -7.88972e-05
0.00206827 1.46321e-05 -4.97907e-06
1.46321e-05 0.00102436 -1.27223e-08
-4.97907e-06 -1.27223e-08 0.0010407
0.000418969 6.41999e-06 -1.67969e-06
6.41999e-06 -3.95981e-05 4.05272e-06
-1.67969e-06 4.05272e-06 -5.15576e-05
0.00205841 3.01681e-05 4.76846e-06
3.01681e-05 0.00101998 5.39269e-06
4.76846e-06 5.39269e-06 0.00103496
-0.000825547 -0.0014493 -0.000341636
-0.0014493 -0.00015108 0.000147067
-0.000341636 0.000147067 -0.00437613
0.00374196 0.00165042 -0.000220462
0.00165042 0.010355 5.69485e-05
-0.000220462 5.69485e-05 0.00416511
0.00465382 0.000701792 -0.00141294
0.000701792 0.00490607 0.000317977
-0.00141294 0.000317977 0.00250066
0.00058814 0.00012627 8.38807e-06
0.00012627 0.000153086 8.15023e-06
8.38807e-06 8.15023e-06 -2.00636e-05
0.00631871 -0.00140158 -0.000200045
-0.00140158 0.00400312 0.000324496
-0.000200045 0.000324496 0.00117963
0.00457664 -0.00162584 -0.00032802
-0.00162584 0.00221949 3.81008e-05
-0.00032802 3.81008e-05 -0.00295576
0.0183046 0.006902 0.000297433
0.006902 0.011247 -0.000498436
0.000297433 -0.000498436 0.00385015
0.00783652 -0.00170791 0.000155539
-0.00170791 -0.000124624 -2.87294e-05
0.000155539 -2.87294e-05 0.000975913
0.0153063 -0.00367028 0.000373877
-0.00367028 0.000442613 -0.000228474
0.000373877 -0.000228474 0.0006181
0.0174229 0.00606034 -0.00100041
0.00606034 0.00473037 0.000433024
-0.00100041 0.000433024 -0.00216189
0.0161106 0.00485073 0.000247966
0.00485073 0.00888669 0.000286806
0.000247966 0.000286806 0.004881
0.00780162 -0.0033599 -9.95151e-05
-0.0033599 -0.000685468 -6.08515e-06
-9.95151e-05 -6.08515e-06 0.000666732
0.0135484 -0.00656733 2.74004e-06
-0.00656733 0.00140366 -4.56868e-05
2.74004e-06 -4.56868e-05 -0.000909099
0.0110541 0.00289844 0.000131189
0.00289844 0.00659178 -0.00044769
0.000131189 -0.00044769 -0.000247881
0.0152004 0.00137658 -8.78722e-06
0.00137658 0.00138906 6.70133e-05
-8.78722e-06 6.70133e-05 5.87011e-06
0.0037714 -0.00358724 -5.09601e-05
-0.00358724 0.000474401 6.86672e-05
-5.09601e-05 6.86672e-05 0.0012261
0.0109532 -0.00647149 0.000281376
-0.00647149 0.00463674 -0.000166498
0.000281376 -0.000166498 0.000695346
0.00935541 -0.000168169 5.01687e-05
-0.000168169 0.00627678 -0.00050828
5.01687e-05 -0.00050828 0.00167893
0.014678 -0.00025548 -0.000210468
-0.00025548 -0.000621295 0.000321726
-0.000210468 0.000321726 0.000609237
0.000171643 0.000160554 9.32605e-06
0.000160554 -1.72381e-05 1.529e-05
9.32605e-06 1.529e-05 -0.000235516
0.000552628 -0.000107737 4.409e-07
-0.000107737 0.000249522 -2.52064e-07
4.409e-07 -2.52064e-07 -1.46645e-05
0.000470999 6.90427e-05 6.37917e-06
6.90427e-05 0.000129904 -2.70533e-07
6.37917e-06 -2.70533e-07 -2.81302e-05
0.000595888 0.000189292 2.79927e-06
0.000189292 0.00010522 1.89957e-05
2.79927e-06 1.89957e-05 -4.84226e-05
0.000894982 0.000252222 6.12913e-08
0.000252222 0.000384336 -8.57137e-07
6.12913e-08 -8.57137e-07 0.000164549
0.00105783 0.000138979 1.99349e-07
0.000138979 0.000507037 -3.1166e-06
1.99349e-07 -3.1166e-06 0.000318554
0.00113004 0.000211187 -1.95394e-06
0.000211187 0.000530368 -1.58871e-07
-1.95394e-06 -1.58871e-07 0.000325207
0.00111565 0.000235728 3.1081e-06
0.000235728 0.000549357 1.84326e-06
3.1081e-06 1.84326e-06 0.000334086
0.00111854 -0.00103767 0.000136831
-0.00103767 -0.000977608 -8.89182e-05
0.000136831 -8.89182e-05 -0.000608563
-0.000175419 -0.000853867 -3.2181e-05
-0.000853867 -0.000935347 -1.5154e-05
-3.2181e-05 -1.5154e-05 -0.000944248
0.000447818 -0.000165206 5.74788e-06
-0.000165206 0.000213769 -2.91406e-05
5.74788e-06 -2.91406e-05 -9.19408e-05
0.00209346 -0.000841985 2.96933e-05
-0.000841985 0.00120397 -2.6206e-05
2.96933e-05 -2.6206e-05 0.000817701
0.00284342 -0.000594759 -2.24004e-05
-0.000594759 0.00174121 1.89375e-05
-2.24004e-05 1.89375e-05 0.00133135
0.00183273 -0.000194726 1.23213e-05
-0.000194726 0.00114349 -2.13098e-05
1.23213e-05 -2.13098e-05 0.000795352
4.85216e-05 5.77739e-05 2.91412e-06
5.77739e-05 -4.80806e-05 8.43164e-06
2.91412e-06 8.43164e-06 -0.00027104
0.000548504 -0.00182763 -1.33839e-05
-0.00182763 -0.00062613 -6.50839e-06
-1.33839e-05 -6.50839e-06 -0.000926864
0.00152422 -8.64594e-05 -2.04239e-06
-8.64594e-05 0.00106503 -2.27564e-06
-2.04239e-06 -2.27564e-06 0.000684511
-0.000284836 -0.000262035 -1.16476e-05
-0.000262035 8.8415e-05 9.82132e-06
-1.16476e-05 9.82132e-06 -0.000405568
-0.000612971 -0.000579838 3.26165e-05
-0.000579838 -0.000565642 -3.94369e-06
3.26165e-05 -3.94369e-06 -0.000585508
0.000461239 0.000102087 5.68628e-06
0.000102087 0.000234882 5.82764e-06
5.68628e-06 5.82764e-06 4.47967e-05
-0.000435104 -0.00183062 -0.000117007
-0.00183062 -6.97567e-05 -2.16232e-05
-0.000117007 -2.16232e-05 -0.000719171
-0.000850446 -0.000530455 -2.40215e-05
-0.000530455 -0.000205135 2.06482e-05
-2.40215e-05 2.06482e-05 -0.000658082
0.000437866 0.000142354 1.24076e-06
0.000142354 0.000652592 -9.26932e-06
1.24076e-06 -9.26932e-06 0.000109995
0.00186173 0.000295315 -3.78245e-06
0.000295315 0.00141432 7.51574e-06
-3.78245e-06 7.51574e-06 0.00096209
-0.000857183 0.000101083 0.000233986
0.000101083 0.0031264 5.8237e-05
0.000233986 5.8237e-05 0.00114902
2.98293e-05 3.74863e-05 0.000210391
3.74863e-05 0.00132428 -3.68102e-05
0.000210391 -3.68102e-05 -0.00391846
-0.0140984 -0.000539027 -0.000477797
-0.000539027 0.0068336 2.83482e-05
-0.000477797 2.83482e-05 0.000899557
0.00190501 0.000796928 2.1484e-05
0.000796928 0.00117004 6.12442e-07
2.1484e-05 6.12442e-07 0.000748698
-0.000633792 0.0010056 1.47062e-05
0.0010056 -0.000137146 1.17667e-05
1.47062e-05 1.17667e-05 -0.000765807
0.00595968 0.0016422 0.000535314
0.0016422 0.00468102 0.000130138
0.000535314 0.000130138 0.000826043
0.00683378 0.00522533 0.000264252
0.00522533 0.00315214 0.000230665
0.000264252 0.000230665 -0.00084911
0.00329025 0.00350235 -0.000164739
0.00350235 0.00197419 -0.000154857
-0.000164739 -0.000154857 0.000282161
0.0050199 -0.00225986 -0.000182769
-0.00225986 0.00548883 -0.000529245
-0.000182769 -0.000529245 0.00041364
0.0034356 0.000747511 0.000142306
0.000747511 0.000976872 0.000161919
0.000142306 0.000161919 -0.00111303
0.00962874 -0.000400602 -4.8325e-05
-0.000400602 -0.00534581 -0.000271574
-4.8325e-05 -0.000271574 -0.00276245
0.000907908 0.000743304 3.95978e-06
0.000743304 0.000799031 -6.88445e-07
3.95978e-06 -6.88445e-07 0.000234969
-0.00311977 0.000370595 -5.64008e-07
0.000370595 0.00110613 8.10006e-06
-5.64008e-07 8.10006e-06 -0.000767038
0.00595008 -0.000402053 0.000182811
-0.000402053 6.53037e-05 1.39908e-05
0.000182811 1.39908e-05 -0.0013505
-0.00191394 0.000752776 -2.05426e-05
0.000752776 -7.33745e-07 -1.26882e-05
-2.05426e-05 -1.26882e-05 -0.000988649
0.0154576 0.00164118 9.46188e-06
0.00164118 0.00133833 -7.13684e-05
9.46188e-06 -7.13684e-05 -2.74489e-06
0.00411756 0.00270439 0.000324624
0.00270439 0.00518211 0.00019725
0.000324624 0.00019725 -0.00126213
0.011582 0.000649403 -0.000198615
0.000649403 0.0044138 1.3773e-05
-0.000198615 1.3773e-05 -0.000172301
0.000823504 0.000729786 -2.37144e-06
0.000729786 0.000930385 -2.32104e-05
-2.37144e-06 -2.32104e-05 0.000192243
0.00269812 -3.4764e-05 8.35704e-06
-3.4764e-05 0.0014179 1.43761e-05
8.35704e-06 1.43761e-05 -2.90193e-05
0.00407016 -0.0022412 0.000211684
-0.0022412 0.00382851 -0.000283513
0.000211684 -0.000283513 0.00145822
0.0285464 0.00672528 0.000394523
0.00672528 0.0105747 -0.000356674
0.000394523 -0.000356674 0.0055485
0.0100734 -0.000447672 -0.000147532
-0.000447672 0.00686468 0.000581362
-0.000147532 0.000581362 0.00212639
-0.0014288 0.000739401 -0.000121069
0.000739401 0.000721418 -0.000129963
-0.000121069 -0.000129963 -0.000309393
0.00312418 0.00118336 0.000256551
0.00118336 0.00642908 2.1881e-05
0.000256551 2.1881e-05 -0.00303203
0.00158498 0.000498505 1.35106e-05
0.000498505 0.00117828 1.10812e-05
1.35106e-05 1.10812e-05 0.000685311
0.000905066 0.000347208 6.66593e-06
0.000347208 0.000996342 7.68993e-06
6.66593e-06 7.68993e-06 0.00041112
0.000531889 -9.13006e-05 -6.99227e-06
-9.13006e-05 0.00106564 1.64707e-05
-6.99227e-06 1.64707e-05 0.000514725
-0.00107155 -4.52683e-06 3.33093e-06
-4.52683e-06 -0.000734272 -3.44325e-06
3.33093e-06 -3.44325e-06 -0.000948695
-0.00073023 -1.45993e-05 1.64469e-06
-1.45993e-05 -2.29824e-05 4.38655e-06
1.64469e-06 4.38655e-06 -0.000567052
2.94368e-05 2.97534e-05 -6.21935e-06
2.97534e-05 0.000545104 -1.00228e-05
-6.21935e-06 -1.00228e-05 -3.60748e-05
-0.000165639 -9.60037e-06 -2.28488e-07
-9.60037e-06 9.21067e-05 3.30591e-07
-2.28488e-07 3.30591e-07 -0.000220798
-0.000234522 -7.9643e-05 3.16954e-06
-7.9643e-05 0.000310985 2.25069e-06
3.16954e-06 2.25069e-06 -0.000184464
0.00218076 -0.000521387 1.25382e-05
-0.000521387 0.00143286 -1.28194e-05
1.25382e-05 -1.28194e-05 0.00106976
-8.41642e-05 -4.9833e-05 -2.41044e-06
-4.9833e-05 7.05324e-06 9.52185e-06
-2.41044e-06 9.52185e-06 -0.000191136
-0.000787348 1.87156e-05 1.47622e-06
1.87156e-05 -0.0005862 4.31987e-06
1.47622e-06 4.31987e-06 -0.000727545
0.00102201 -0.000341866 -2.01522e-06
-0.000341866 0.000501402 6.03432e-06
-2.01522e-06 6.03432e-06 0.000293241
-0.00430227 8.01667e-05 2.79507e-05
8.01667e-05 -0.00246083 2.44684e-05
2.79507e-05 2.44684e-05 -0.00282354
-0.000920479 -9.79146e-05 2.20438e-05
-9.79146e-05 -0.000686563 -1.76011e-06
2.20438e-05 -1.76011e-06 -0.000703912
-3.80923e-05 -0.000380734 -7.1088e-06
-0.000380734 -0.000238213 -5.04599e-06
-7.1088e-06 -5.04599e-06 -0.000541911
0.00166784 -0.000753891 1.20338e-06
-0.000753891 0.000604254 -1.63218e-06
1.20338e-06 -1.63218e-06 -3.87557e-06
0.00191881 -0.000887072 -1.0143e-05
-0.000887072 0.000630474 7.79206e-07
-1.0143e-05 7.79206e-07 5.40818e-05
0.00135108 -0.000396719 4.02203e-06
-0.000396719 0.00047349 -4.58368e-06
4.02203e-06 -4.58368e-06 0.000237415
0.00149362 -0.000648195 1.01366e-06
-0.000648195 0.000514361 1.10614e-06
1.01366e-06 1.10614e-06 6.02798e-05
0.00180657 -0.000787658 4.68492e-06
-0.000787658 0.00055695 -6.55101e-06
4.68492e-06 -6.55101e-06 4.19561e-05
0.00210391 -0.000628595 2.26414e-06
-0.000628595 0.000901427 4.06138e-06
2.26414e-06 4.06138e-06 0.000475715
0.00101961 -0.000631007 2.36571e-06
-0.000631007 0.000145362 -5.42521e-06
2.36571e-06 -5.42521e-06 -0.000324984
0.00114749 -0.000247822 1.78868e-06
-0.000247822 0.000405484 -5.64667e-06
1.78868e-06 -5.64667e-06 0.000126616
0.00105766 -0.000423217 -3.42827e-06
-0.000423217 0.000313694 1.67511e-06
-3.42827e-06 1.67511e-06 3.75222e-06
-0.000972365 -0.000255491 -2.05622e-07
-0.000255491 -0.0009812 -8.53518e-06
-2.05622e-07 -8.53518e-06 -0.00127433
-0.00025003 -8.71266e-05 8.02758e-07
-8.71266e-05 -0.000330933 -5.34191e-06
8.02758e-07 -5.34191e-06 -0.000619116
0.000464856 -0.000203546 2.53277e-07
-0.000203546 0.000145271 -1.96769e-08
2.53277e-07 -1.96769e-08 -0.000176225
-0.000370948 -0.00017199 7.98549e-06
-0.00017199 -0.000442864 1.42552e-06
7.98549e-06 1.42552e-06 -0.000689681
0.00110682 -0.000193255 -1.36092e-06
-0.000193255 0.000542814 2.35507e-06
-1.36092e-06 2.35507e-06 0.00026707
0.000716614 -0.000158382 4.9249e-07
-0.000158382 0.000234607 3.9233e-07
4.9249e-07 3.9233e-07 9.63656e-06
0.000311787 -3.76722e-05 1.5675e-06
-3.76722e-05 -7.85808e-05 7.26001e-06
1.5675e-06 7.26001e-06 -0.000209878
0.00136681 -0.000249511 -1.99414e-06
-0.000249511 0.000656965 5.96795e-07
-1.99414e-06 5.96795e-07 0.000454457
0.000555306 -3.96882e-05 -1.38135e-06
-3.96882e-05 7.78337e-05 -2.55714e-07
-1.38135e-06 -2.55714e-07 -3.65173e-05
0.000321051 4.70506e-05 3.44822e-06
4.70506e-05 -8.31857e-05 9.18805e-06
3.44822e-06 9.18805e-06 -0.000131744
0.000819534 -9.82266e-05 6.48306e-07
-9.82266e-05 0.00025902 -4.2539e-06
6.48306e-07 -4.2539e-06 0.000148706
0.0004351 -1.99084e-05 -1.63957e-06
-1.99084e-05 -2.21379e-05 -6.68526e-08
-1.63957e-06 -6.68526e-08 -6.09914e-05
0.00277695 9.51741e-05 -4.6741e-07
9.51741e-05 0.00148387 3.02264e-06
-4.6741e-07 3.02264e-06 0.00148538
0.000482321 -3.71444e-05 3.4357e-06
-3.71444e-05 1.15413e-05 -7.46587e-06
3.4357e-06 -7.46587e-06 -2.39038e-05
0.00180831 4.24417e-05 2.13033e-05
4.24417e-05 0.000855148 -1.03342e-06
2.13033e-05 -1.03342e-06 0.000859173
0.00264772 3.35725e-05 3.07662e-05
3.35725e-05 0.00139652 -6.03063e-06
3.07662e-05 -6.03063e-06 0.00140825
0.00022526 4.00857e-05 3.56964e-06
4.00857e-05 -0.000109715 2.57355e-06
3.56964e-06 2.57355e-06 -0.000250382
0.000118137 1.52559e-05 1.96744e-06
1.52559e-05 -0.000199039 -4.01105e-06
1.96744e-06 -4.01105e-06 -0.000290285
0.00043883 5.10421e-05 -3.81901e-07
5.10421e-05 4.48004e-05 -9.97148e-07
-3.81901e-07 -9.97148e-07 -0.000103116
0.000464748 1.4645e-05 1.67064e-06
1.4645e-05 -1.2228e-05 -5.56027e-06
1.67064e-06 -5.56027e-06 -3.21538e-05
0.000110432 2.5468e-05 -8.36661e-07
2.5468e-05 -0.000203425 -2.13002e-06
-8.36661e-07 -2.13002e-06 -0.000282715
0.000620116 7.9102e-05 8.20292e-07
7.9102e-05 0.000177395 2.96425e-06
8.20292e-07 2.96425e-06 3.24163e-05
0.00214719 -1.51638e-05 -1.93553e-05
-1.51638e-05 0.00107263 -5.27059e-06
-1.93553e-05 -5.27059e-06 0.00108893
0.000433179 9.33131e-06 -8.5543e-07
9.33131e-06 -3.34166e-05 -1.40358e-07
-8.5543e-07 -1.40358e-07 -4.81406e-05
2.06974e-05 1.76954e-05 2.01198e-06
1.76954e-05 -0.000260343 3.63545e-06
2.01198e-06 3.63545e-06 -0.000327962
0.0020728 -2.00672e-07 -4.08069e-06
-2.00672e-07 0.00102565 6.56238e-08
-4.08069e-06 6.56238e-08 0.00104253
0.000408535 6.9721e-06 -2.10144e-06
6.9721e-06 -4.80364e-05 4.25223e-06
-2.10144e-06 4.25223e-06 -6.0007e-05
0.00209084 1.58241e-05 1.00859e-05
1.58241e-05 0.00103933 5.36032e-06
1.00859e-05 5.36032e-06 0.00105532
0.000774285 -0.000110421 0.000229482
-0.000110421 0.00390009 0.00012645
0.000229482 0.00012645 0.00230062
-0.000554752 -0.000576405 -7.40846e-05
-0.000576405 0.000528491 3.48993e-07
-7.40846e-05 3.48993e-07 -0.00442764
0.000832369 0.00166762 -0.000226098
0.00166762 0.00980291 -8.93324e-05
-0.000226098 -8.93324e-05 0.00321494
0.000837279 0.000161313 1.04036e-06
0.000161313 0.000294415 1.96084e-07
1.04036e-06 1.96084e-07 0.000129418
0.000252437 0.000116562 7.92348e-06
0.000116562 -6.33373e-05 4.76432e-06
7.92348e-06 4.76432e-06 -0.000232197
0.00147467 0.000255212 1.28422e-05
0.000255212 0.000695239 1.41597e-05
1.28422e-05 1.41597e-05 0.00052586
0.00827452 -0.000921217 -0.000244692
-0.000921217 4.69133e-05 0.000181935
-0.000244692 0.000181935 -0.0019071
0.00664036 -0.00204059 0.000148617
-0.00204059 0.0035844 3.06049e-05
0.000148617 3.06049e-05 0.00164525
0.00469339 -0.00306183 0.00032068
-0.00306183 0.00199768 -0.000336776
0.00032068 -0.000336776 -0.00305983
0.00957757 -0.00400368 -2.29326e-05
-0.00400368 -0.000529794 -4.24324e-05
-2.29326e-05 -4.24324e-05 0.00100604
0.00321094 -0.00584205 -0.000756571
-0.00584205 -0.0022344 5.37585e-05
-0.000756571 5.37585e-05 -0.00360177
0.0296353 0.00582616 0.000519129
0.00582616 0.0140703 0.000273432
0.000519129 0.000273432 0.00590306
0.00834644 -0.000819772 0.00042267
-0.000819772 -0.00178931 -0.000317115
0.00042267 -0.000317115 -0.00308628
0.00257869 -0.00366998 -1.36959e-05
-0.00366998 -0.000942629 1.7574e-05
-1.36959e-05 1.7574e-05 0.000439441
0.00639157 -0.0064728 -0.000228704
-0.0064728 0.00257393 1.06591e-05
-0.000228704 1.06591e-05 -0.00248633
0.00444173 0.00446205 -0.000117222
0.00446205 0.00656387 -0.000383373
-0.000117222 -0.000383373 0.000213344
0.0123756 -0.00026271 -0.000130746
-0.00026271 -0.00291467 0.000173345
-0.000130746 0.000173345 -0.00100214
-0.00135292 -0.0024361 -0.000170104
-0.0024361 0.000233042 9.20433e-05
-0.000170104 9.20433e-05 -0.000297279
0.00880832 -0.00363985 -0.000442473
-0.00363985 0.00595036 0.000255053
-0.000442473 0.000255053 1.64069e-06
0.00369612 -0.000169139 5.00874e-05
-0.000169139 0.00305963 -0.000343844
5.00874e-05 -0.000343844 -0.0016505
0.00978558 0.000211535 0.00010165
0.000211535 -0.0015648 0.000148425
0.00010165 0.000148425 -0.00169365
-0.000142975 8.58429e-05 1.02452e-05
8.58429e-05 -0.000259945 2.21884e-05
1.02452e-05 2.21884e-05 -0.00039923
0.000665637 2.22964e-05 1.50635e-06
2.22964e-05 0.000280857 -2.06947e-06
1.50635e-06 -2.06947e-06 5.12021e-05
0.000408931 -0.000199956 8.73149e-06
-0.000199956 9.35654e-05 -9.96807e-06
8.73149e-06 -9.96807e-06 -0.000137451
0.000624273 0.000173327 -2.04367e-06
0.000173327 0.000137636 2.30968e-06
-2.04367e-06 2.30968e-06 -2.38632e-05
0.000864857 0.000195759 4.46368e-06
0.000195759 0.000374504 -8.69543e-06
4.46368e-06 -8.69543e-06 0.000160897
0.00125284 0.000242164 -5.11757e-06
0.000242164 0.000609189 -6.78141e-06
-5.11757e-06 -6.78141e-06 0.000400862
0.00103709 -0.00167324 7.17123e-05
-0.00167324 -0.000146643 -2.08051e-05
7.17123e-05 -2.08051e-05 -0.000423462
-0.00030048 -0.000490077 1.00429e-05
-0.000490077 -0.000437859 -2.80861e-05
1.00429e-05 -2.80861e-05 -0.000404079
0.000200282 0.0001591 -3.37247e-06
0.0001591 6.11538e-05 -2.1263e-05
-3.37247e-06 -2.1263e-05 -0.00019195
0.00280886 -0.000594471 8.56494e-05
-0.000594471 0.00179159 -4.11488e-05
8.56494e-05 -4.11488e-05 0.00133792
0.00247994 -0.000164245 9.16952e-06
-0.000164245 0.00158756 -1.04319e-05
9.16952e-06 -1.04319e-05 0.0012428
-0.000476602 9.47281e-05 9.01607e-06
9.47281e-05 -0.000291397 2.08838e-06
9.01607e-06 2.08838e-06 -0.000505118
0.00010453 5.58604e-05 3.30348e-06
5.58604e-05 0.000316091 3.16898e-06
3.30348e-06 3.16898e-06 -8.85476e-05
0.00204272 -0.00192221 -6.13513e-05
-0.00192221 0.00111845 2.17075e-06
-6.13513e-05 2.17075e-06 0.000369793
0.000189122 -4.64237e-05 -6.39521e-06
-4.64237e-05 0.000595398 4.41468e-07
-6.39521e-06 4.41468e-07 -1.27134e-05
0.000202115 -0.000442796 -1.36196e-05
-0.000442796 0.000561804 -1.1903e-06
-1.36196e-05 -1.1903e-06 -3.35005e-05
0.000975568 0.000228443 6.56389e-06
0.000228443 0.000805771 -1.34283e-05
6.56389e-06 -1.34283e-05 0.000478955
-0.00300012 -0.000375357 -6.17685e-05
-0.000375357 -0.000308759 -1.08765e-05
-6.17685e-05 -1.08765e-05 -0.00135782
0.000383437 -0.000227759 -1.58163e-05
-0.000227759 0.00107478 -8.75258e-06
-1.58163e-05 -8.75258e-06 0.000371006
-0.00228622 -5.87185e-05 -2.38012e-05
-5.87185e-05 -0.000589892 3.80077e-07
-2.38012e-05 3.80077e-07 -0.00123812
0.000490265 0.00045185 -9.12711e-06
0.00045185 -0.000345929 7.91009e-07
-9.12711e-06 7.91009e-07 -0.00310164
-0.00201647 0.000569378 0.000134314
0.000569378 0.00286067 -2.67305e-06
0.000134314 -2.67305e-06 0.000828354
-0.00123277 -7.63927e-05 0.000437493
-7.63927e-05 0.000515009 4.66171e-05
0.000437493 4.66171e-05 -0.00466826
0.000223526 0.000751162 1.12506e-05
0.000751162 0.000357044 2.04861e-05
1.12506e-05 2.04861e-05 -0.000242167
0.000249303 0.00119012 -1.95873e-05
0.00119012 0.000695787 -2.89655e-05
-1.95873e-05 -2.89655e-05 -0.000240975
-0.00267524 0.000340328 -0.000138236
0.000340328 0.00135559 -4.88339e-05
-0.000138236 -4.88339e-05 -0.000652574
-0.00443646 0.000911138 0.000154578
0.000911138 0.00360135 0.00022935
0.000154578 0.00022935 -0.00251544
0.00189834 0.000701383 -0.00016068
0.000701383 -0.00162721 -0.000499931
-0.00016068 -0.000499931 -0.00748967
0.0052558 -2.94136e-05 0.000113198
-2.94136e-05 -0.000171106 5.21832e-05
0.000113198 5.21832e-05 -0.000983993
0.00750252 -0.000551491 -0.000399561
-0.000551491 -0.00185587 0.00029691
-0.000399561 0.00029691 -0.00318954
0.000305966 0.000561436 -4.44554e-06
0.000561436 0.000712519 -2.6077e-07
-4.44554e-06 -2.6077e-07 6.36787e-05
0.00158119 0.000219896 5.07698e-05
0.000219896 0.00133947 2.0042e-05
5.07698e-05 2.0042e-05 -6.21792e-05
0.00552772 -0.00149915 -0.000138001
-0.00149915 0.00346369 -1.57043e-05
-0.000138001 -1.57043e-05 0.0015832
-0.000250211 0.000905994 -0.000150353
0.000905994 0.00207046 -1.64652e-05
-0.000150353 -1.64652e-05 0.00012106
0.0199446 0.00643228 -0.000176007
0.00643228 0.00756656 -0.000487691
-0.000176007 -0.000487691 0.00265912
0.0060888 0.00392427 9.98009e-05
0.00392427 0.00685206 0.000412707
9.98009e-05 0.000412707 -9.24093e-05
0.00584637 0.0014848 8.06235e-05
0.0014848 0.00685264 -8.42213e-06
8.06235e-05 -8.42213e-06 -0.000860145
0.000124867 4.77913e-05 2.61961e-05
4.77913e-05 0.00151858 -1.81834e-05
2.61961e-05 -1.81834e-05 0.000115262
0.000298619 -0.000101273 -0.000216745
-0.000101273 0.00444107 -9.08783e-07
-0.000216745 -9.08783e-07 0.00257311
0.00103445 -0.000942635 0.000863184
-0.000942635 0.000539978 -0.00027933
0.000863184 -0.00027933 -0.00505915
0.0282943 0.0111436 -0.000136112
0.0111436 0.0196149 -5.67399e-05
-0.000136112 -5.67399e-05 0.0121939
0.0137361 0.00482682 0.000185721
0.00482682 0.00560934 0.00105761
0.000185721 0.00105761 -0.00172053
0.012455 -0.00505828 0.000469168
-0.00505828 0.00715301 -0.000320985
0.000469168 -0.000320985 -5.45074e-05
0.00181672 -0.000800109 -7.61261e-05
-0.000800109 0.00341603 4.86788e-05
-7.61261e-05 4.86788e-05 0.00210406
0.000770984 0.000281359 -5.65764e-06
0.000281359 0.000940898 2.88093e-06
-5.65764e-06 2.88093e-06 0.000408043
-5.98634e-05 -0.000100639 8.85162e-07
-0.000100639 0.000595577 -5.7198e-06
8.85162e-07 -5.7198e-06 -2.17367e-05
0.00086246 -0.000608768 5.30425e-05
-0.000608768 0.000861876 -1.72068e-05
5.30425e-05 -1.72068e-05 0.000165886
0.000227824 -7.53319e-05 -3.04181e-06
-7.53319e-05 0.00027997 1.38284e-05
-3.04181e-06 1.38284e-05 1.95001e-05
-7.97129e-05 -0.000108979 -5.27458e-06
-0.000108979 0.00033658 -1.97134e-05
-5.27458e-06 -1.97134e-05 -0.000116113
0.000788175 -0.000348886 -5.09523e-06
-0.000348886 0.000756784 5.11232e-07
-5.09523e-06 5.11232e-07 0.000379935
0.00120902 -0.000800886 3.02018e-05
-0.000800886 0.000602665 -1.59065e-05
3.02018e-05 -1.59065e-05 0.000154408
0.000697742 -0.000383295 3.90857e-06
-0.000383295 0.000339977 7.32571e-07
3.90857e-06 7.32571e-07 4.92909e-05
0.00131852 -0.000695193 1.88069e-05
-0.000695193 0.000612268 -4.70221e-06
1.88069e-05 -4.70221e-06 0.000142894
0.0014619 -0.000802285 1.40633e-05
-0.000802285 0.000648423 -2.58122e-06
1.40633e-05 -2.58122e-06 -0.000131665
0.000491039 -0.000404962 -9.49055e-06
-0.000404962 3.9793e-05 -5.24043e-06
-9.49055e-06 -5.24043e-06 -0.000208748
0.00233795 -0.000842782 -3.61017e-06
-0.000842782 0.000959824 -1.38282e-06
-3.61017e-06 -1.38282e-06 0.000355563
0.00168713 -0.000965569 -1.48929e-05
-0.000965569 0.000432528 -1.56669e-06
-1.48929e-05 -1.56669e-06 -0.000272164
0.00245242 -0.00114874 -1.34942e-05
-0.00114874 0.000684019 3.30873e-07
-1.34942e-05 3.30873e-07 5.11001e-05
0.00215122 -0.000999911 -4.65561e-06
-0.000999911 0.000693977 -1.28749e-06
-4.65561e-06 -1.28749e-06 0.000101459
0.00174668 -0.000862288 -5.64737e-06
-0.000862288 0.000524927 6.5378e-07
-5.64737e-06 6.5378e-07 -4.83276e-05
0.00129348 -0.000630193 -1.94756e-07
-0.000630193 0.000366252 -6.55695e-06
-1.94756e-07 -6.55695e-06 -8.91084e-05
0.00169511 -0.00074508 7.24249e-06
-0.00074508 0.000541662 -6.39091e-06
7.24249e-06 -6.39091e-06 4.44009e-05
0.00179151 -0.000798175 8.35481e-06
-0.000798175 0.000549065 -1.34053e-06
8.35481e-06 -1.34053e-06 3.22467e-05
0.00153727 -0.000372409 2.64409e-06
-0.000372409 0.000560648 2.85002e-07
2.64409e-06 2.85002e-07 0.000248166
0.00117155 -0.00053716 6.49552e-06
-0.00053716 0.000300964 -4.2725e-06
6.49552e-06 -4.2725e-06 -0.000105467
-0.000361302 -0.000448563 -1.36887e-05
-0.000448563 -0.000709954 -2.94121e-06
-1.36887e-05 -2.94121e-06 -0.00112875
0.000397208 -0.000137278 1.23361e-07
-0.000137278 2.80167e-05 -6.26351e-06
1.23361e-07 -6.26351e-06 -0.000261838
0.000869779 -0.000296361 -5.32283e-07
-0.000296361 0.000257305 -1.10181e-06
-5.32283e-07 -1.10181e-06 -3.53613e-05
-0.000188802 -0.000314456 -8.17969e-06
-0.000314456 -0.000468073 -1.23412e-06
-8.17969e-06 -1.23412e-06 -0.000773235
0.000256205 -8.54366e-05 -4.2129e-07
-8.54366e-05 -9.45206e-05 7.05511e-06
-4.2129e-07 7.05511e-06 -0.000269949
0.000808356 -0.000155528 1.08207e-08
-0.000155528 0.000325854 3.50951e-07
1.08207e-08 3.50951e-07 4.17171e-05
-0.000205233 -0.000241472 -1.65844e-06
-0.000241472 -0.00025922 5.11473e-06
-1.65844e-06 5.11473e-06 -0.000574033
0.00161811 -0.000236858 -5.29912e-07
-0.000236858 0.000814418 2.08324e-06
-5.29912e-07 2.08324e-06 0.000578081
0.000745691 -9.64457e-05 -4.54729e-07
-9.64457e-05 0.000200628 -1.78967e-07
-4.54729e-07 -1.78967e-07 6.0802e-05
0.000350304 1.46546e-05 3.2369e-06
1.46546e-05 -6.16404e-05 1.24834e-05
3.2369e-06 1.24834e-05 -0.000119304
0.000785961 -9.41127e-05 3.87428e-07
-9.41127e-05 0.000225807 -5.45226e-06
3.87428e-07 -5.45226e-06 0.000105581
0.000440654 -2.74078e-06 -4.57136e-06
-2.74078e-06 -1.44774e-05 -3.77963e-07
-4.57136e-06 -3.77963e-07 -6.03278e-05
0.00312925 0.000100879 -4.77169e-05
0.000100879 0.00171858 5.6264e-06
-4.77169e-05 5.6264e-06 0.00172008
0.000485739 -2.98326e-05 2.93459e-06
-2.98326e-05 7.07329e-06 -7.86871e-06
2.93459e-06 -7.86871e-06 -3.13048e-05
0.00190946 6.22217e-05 2.67615e-05
6.22217e-05 0.000923198 -7.11882e-07
2.67615e-05 -7.11882e-07 0.000923028
0.00285852 5.43901e-05 3.89202e-05
5.43901e-05 0.00153345 -5.82147e-06
3.89202e-05 -5.82147e-06 0.00154267
0.000831919 0.000125307 5.71805e-06
0.000125307 0.000286274 -2.81313e-06
5.71805e-06 -2.81313e-06 0.000120184
0.000503897 6.45475e-05 3.75926e-06
6.45475e-05 5.14849e-05 -3.42471e-06
3.75926e-06 -3.42471e-06 -4.98777e-05
0.000411025 6.15432e-05 -3.36704e-07
6.15432e-05 2.61498e-05 -1.02886e-06
-3.36704e-07 -1.02886e-06 -0.000129371
0.000450516 1.73782e-05 1.18411e-06
1.73782e-05 -1.96686e-05 -6.97317e-06
1.18411e-06 -6.97317e-06 -4.61416e-05
0.00026352 4.75025e-05 -2.49719e-06
4.75025e-05 -0.00010289 -2.29641e-06
-2.49719e-06 -2.29641e-06 -0.000194468
0.000639602 0.000100738 -1.70175e-06
0.000100738 0.000180115 -3.0501e-06
-1.70175e-06 -3.0501e-06 3.18866e-05
0.00226089 -3.16722e-05 -2.26641e-05
-3.16722e-05 0.00114636 -5.50641e-06
-2.26641e-05 -5.50641e-06 0.00116092
0.000423359 3.08229e-07 7.439e-07
3.08229e-07 -3.98316e-05 -2.27109e-07
7.439e-07 -2.27109e-07 -5.88379e-05
9.87792e-05 2.1615e-05 -1.67715e-06
2.1615e-05 -0.000210528 1.32903e-06
-1.67715e-06 1.32903e-06 -0.000292425
0.00215373 -1.47709e-05 -5.96585e-06
-1.47709e-05 0.00107696 1.28493e-07
-5.96585e-06 1.28493e-07 0.00109332
0.000423971 2.88768e-06 -3.62193e-06
2.88768e-06 -4.01974e-05 4.59207e-06
-3.62193e-06 4.59207e-06 -5.4329e-05
0.00212096 1.24317e-06 1.49313e-05
1.24317e-06 0.00105698 5.29638e-06
1.49313e-05 5.29638e-06 0.00107361
0.00230454 -0.000368606 -0.000123064
-0.000368606 0.00117254 2.55219e-05
-0.000123064 2.55219e-05 -0.000309202
-0.00150029 -0.00012952 0.000120189
-0.00012952 0.0034041 -5.38204e-06
0.000120189 -5.38204e-06 0.00128559
-0.000859616 -0.000389105 0.000169859
-0.000389105 0.00121878 -0.000242206
0.000169859 -0.000242206 -0.004513
-0.000204321 1.1258e-05 3.45135e-06
1.1258e-05 -0.000284454 -7.54034e-07
3.45135e-06 -7.54034e-07 -0.000529559
0.00315218 0.000245294 6.07175e-06
0.000245294 0.0017712 8.56169e-06
6.07175e-06 8.56169e-06 0.00155508
0.000441381 0.000155896 -4.23963e-06
0.000155896 4.42006e-05 -8.37621e-06
-4.23963e-06 -8.37621e-06 -0.000118531
-2.84382e-05 6.76338e-05 1.07441e-06
6.76338e-05 -0.000259918 -1.47125e-06
1.07441e-06 -1.47125e-06 -0.000425416
0.000109621 9.11242e-05 1.30036e-07
9.11242e-05 -0.000203116 -1.95627e-06
1.30036e-07 -1.95627e-06 -0.000326258
3.98838e-05 8.69002e-05 5.64668e-06
8.69002e-05 -0.00021033 4.87178e-06
5.64668e-06 4.87178e-06 -0.000369493
-0.00035681 6.02122e-05 1.59832e-05
6.02122e-05 -0.00044321 4.31859e-06
1.59832e-05 4.31859e-06 -0.000541364
0.00350873 0.00174159 0.00028729
0.00174159 -9.79006e-05 0.00026096
0.00028729 0.00026096 -0.00201665
0.00679502 -0.000482805 -9.46114e-05
-0.000482805 0.000185132 4.84279e-05
-9.46114e-05 4.84279e-05 -0.00178293
0.00496822 -0.000991275 0.000393709
-0.000991275 0.00394755 -0.000132373
0.000393709 -0.000132373 0.00163462
0.0100318 -8.39396e-05 -1.37361e-05
-8.39396e-05 -0.00530749 0.000194555
-1.37361e-05 0.000194555 -0.00272967
0.00711316 -0.00475599 -0.000165728
-0.00475599 0.00104772 3.40611e-05
-0.000165728 3.40611e-05 0.00173563
0.00102389 -0.00563749 -0.000418388
-0.00563749 0.00193582 0.000149869
-0.000418388 0.000149869 -0.00451277
0.0214725 0.00487522 0.000222307
0.00487522 0.00873364 -0.000243886
0.000222307 -0.000243886 0.00259239
0.00244948 -0.00363883 -6.98184e-05
-0.00363883 0.000348132 3.98787e-05
-6.98184e-05 3.98787e-05 0.00084373
-0.000999297 -0.00135035 -9.07189e-05
-0.00135035 0.00513093 5.76959e-05
-9.07189e-05 5.76959e-05 -0.00311016
0.0128142 0.000347056 0.000298786
0.000347056 0.00487807 -4.30622e-05
0.000298786 -4.30622e-05 0.000251818
0.018228 -0.00196568 -8.47368e-05
-0.00196568 0.00257157 -7.19301e-06
-8.47368e-05 -7.19301e-06 0.00307815
-0.00465518 -0.000548144 -0.000229798
-0.000548144 -0.000670777 0.00021743
-0.000229798 0.00021743 -0.00121825
0.0019373 0.00181527 -0.000264219
0.00181527 0.00579898 -0.000161501
-0.000264219 -0.000161501 -0.002498
0.00419768 -0.00646651 -1.09997e-05
-0.00646651 0.00146219 -0.000255271
-1.09997e-05 -0.000255271 -0.00535262
0.0178107 -0.00304672 0.000295259
-0.00304672 0.0071597 -0.000743554
0.000295259 -0.000743554 0.00368814
2.67617e-05 3.76596e-06 2.54732e-05
3.76596e-06 0.000159895 -3.05722e-06
2.54732e-05 -3.05722e-06 -0.00019465
0.000620575 0.00019164 -1.80591e-06
0.00019164 0.000246702 -3.90891e-06
-1.80591e-06 -3.90891e-06 8.99103e-05
0.000746678 -6.96715e-06 2.31434e-07
-6.96715e-06 0.00035223 -6.0558e-06
2.31434e-07 -6.0558e-06 0.000100104
0.000896029 0.000181958 -2.15846e-06
0.000181958 0.00033832 -1.36394e-05
-2.15846e-06 -1.36394e-05 0.000159717
0.000990822 -0.0015501 0.000107357
-0.0015501 0.000539472 2.74975e-05
0.000107357 2.74975e-05 -0.000177313
0.000905451 -0.000424131 5.00984e-06
-0.000424131 0.00107096 -2.14415e-05
5.00984e-06 -2.14415e-05 0.000353983
0.000507093 0.000102866 -2.55503e-05
0.000102866 0.000312523 -2.12702e-05
-2.55503e-05 -2.12702e-05 0.000116198
0.00102651 -5.68279e-05 2.11379e-06
-5.68279e-05 0.000792479 -2.17767e-05
2.11379e-06 -2.17767e-05 0.000464301
0.000114802 -4.81372e-05 -3.49421e-06
-4.81372e-05 0.000565327 7.02576e-06
-3.49421e-06 7.02576e-06 3.82033e-05
3.58071e-05 9.86416e-05 2.26573e-06
9.86416e-05 0.000163115 4.05739e-06
2.26573e-06 4.05739e-06 -0.000121588
0.000570423 -5.62735e-05 1.36725e-06
-5.62735e-05 0.000928623 1.75268e-06
1.36725e-06 1.75268e-06 0.00036549
0.000218948 -0.000927237 8.89035e-06
-0.000927237 0.00122761 -6.42492e-06
8.89035e-06 -6.42492e-06 -0.000263259
0.000603862 -0.000149563 -3.29093e-06
-0.000149563 0.00131276 -1.34252e-05
-3.29093e-06 -1.34252e-05 0.000646575
0.000353975 0.000130065 1.61739e-06
0.000130065 0.00047216 -8.43875e-06
1.61739e-06 -8.43875e-06 0.000152128
-0.000522705 0.000309235 -0.000194991
0.000309235 0.00274576 -1.82987e-05
-0.000194991 -1.82987e-05 0.000509554
0.000530406 0.000388751 -8.67353e-06
0.000388751 0.00114471 5.59969e-06
-8.67353e-06 5.59969e-06 0.000504995
-0.00297065 -3.53106e-05 -9.73836e-05
-3.53106e-05 0.00301324 -7.32516e-05
-9.73836e-05 -7.32516e-05 0.00108406
0.00170253 0.000169417 2.93223e-05
0.000169417 0.000582861 1.49011e-05
2.93223e-05 1.49011e-05 -0.00104481
-0.0040008 0.000892201 -7.16914e-05
0.000892201 0.00225683 -9.13114e-05
-7.16914e-05 -9.13114e-05 -6.5626e-05
0.000303813 0.000439632 -1.9339e-05
0.000439632 0.000831246 2.82114e-06
-1.9339e-05 2.82114e-06 0.000276396
-0.00128835 0.00109125 0.000219828
0.00109125 0.000780005 0.000116237
0.000219828 0.000116237 -0.000311678
0.00103348 6.94175e-05 9.62421e-05
6.94175e-05 0.00141705 -1.05287e-05
9.62421e-05 -1.05287e-05 0.00028988
0.00678914 -0.00241411 0.000356419
-0.00241411 0.006704 -0.000207769
0.000356419 -0.000207769 -0.00254047
0.0230383 0.00441089 -0.000262952
0.00441089 0.00909032 0.000228732
-0.000262952 0.000228732 0.00271971
0.00317309 -0.000882479 -0.00035388
-0.000882479 0.00265931 9.74155e-05
-0.00035388 9.74155e-05 0.000576676
0.0150985 0.00541829 -0.00020304
0.00541829 0.00928113 -0.000287337
-0.00020304 -0.000287337 0.00482202
0.000483514 0.00024768 -4.95436e-05
0.00024768 0.00154203 7.61029e-06
-4.95436e-05 7.61029e-06 0.00020069
-0.00026583 -0.000436382 -0.000122487
-0.000436382 0.0033665 1.72063e-06
-0.000122487 1.72063e-06 0.00180599
0.00263838 -0.0019742 0.000309999
-0.0019742 0.00191752 -5.86032e-05
0.000309999 -5.86032e-05 -0.00353773
-0.00373602 -1.57688e-05 6.65396e-05
-1.57688e-05 3.80366e-05 3.84523e-05
6.65396e-05 3.84523e-05 -0.000708217
0.0234625 0.0132853 0.00088343
0.0132853 0.0165458 -0.000304188
0.00088343 -0.000304188 0.00867397
0.011303 0.00340029 -0.00017209
0.00340029 0.00709457 0.000447708
-0.00017209 0.000447708 0.0001657
-0.00218417 -0.00164417 0.000251909
-0.00164417 0.00371882 -0.00018664
0.000251909 -0.00018664 -0.00486037
-0.00202656 -0.000577588 -3.11386e-05
-0.000577588 0.00038532 -3.34056e-05
-3.11386e-05 -3.34056e-05 -0.00100902
0.0011038 -0.00118697 0.000399616
-0.00118697 1.32245e-05 -0.000102875
0.000399616 -0.000102875 -0.00423485
0.00188001 0.00231456 -0.0019616
0.00231456 0.0102301 0.000387984
-0.0019616 0.000387984 0.00395928
0.0236536 0.0088019 -0.000749921
0.0088019 0.00888998 0.000483745
-0.000749921 0.000483745 0.00151062
0.00641741 -0.00476365 -0.000242978
-0.00476365 0.00355754 0.000105929
-0.000242978 0.000105929 3.11314e-05
0.00360786 -0.00244697 6.02264e-05
-0.00244697 0.00402212 1.96769e-05
6.02264e-05 1.96769e-05 0.00257744
8.21492e-05 -9.02053e-05 2.7096e-06
-9.02053e-05 0.000624357 -1.78045e-05
2.7096e-06 -1.78045e-05 -5.04671e-05
7.23065e-05 -0.000479422 5.69909e-06
-0.000479422 0.00051527 -2.20606e-06
5.69909e-06 -2.20606e-06 -0.000218354
0.00102664 -0.00114691 -2.45508e-06
-0.00114691 0.00071556 3.76836e-06
-2.45508e-06 3.76836e-06 0.000116148
-0.00025387 -0.000196822 -4.74685e-06
-0.000196822 0.000275196 1.01024e-05
-4.74685e-06 1.01024e-05 -0.000114335
0.000359581 -0.000576642 -2.48208e-06
-0.000576642 0.000293059 6.14951e-06
-2.48208e-06 6.14951e-06 -0.000103637
0.00255207 -0.00106259 3.90506e-05
-0.00106259 0.00103368 -3.41345e-05
3.90506e-05 -3.41345e-05 0.000517964
0.00636136 -0.00139608 -1.51988e-05
-0.00139608 0.00336389 -2.36189e-08
-1.51988e-05 -2.36189e-08 0.00278949
0.00263583 -0.000974079 1.11042e-05
-0.000974079 0.0012167 -4.42176e-06
1.11042e-05 -4.42176e-06 0.00044159
0.00241954 -0.00118798 3.36831e-06
-0.00118798 0.000733068 -2.09743e-05
3.36831e-06 -2.09743e-05 -4.04147e-05
0.00242612 -0.00084836 -1.39783e-05
-0.00084836 0.000977381 -7.14931e-06
-1.39783e-05 -7.14931e-06 0.000393952
0.00221193 -0.00104629 4.20764e-07
-0.00104629 0.000709471 -1.74075e-06
4.20764e-07 -1.74075e-06 -1.59184e-05
0.00282616 -0.0012381 -8.53028e-06
-0.0012381 0.000898081 -9.88015e-06
-8.53028e-06 -9.88015e-06 0.000194786
0.00246008 -0.000928339 -1.13348e-06
-0.000928339 0.000464481 -6.61019e-06
-1.13348e-06 -6.61019e-06 7.31111e-06
0.00286622 -0.00117998 -1.08172e-05
-0.00117998 0.000883883 -3.66969e-07
-1.08172e-05 -3.66969e-07 0.000275105
0.00268926 -0.00117898 -4.14786e-06
-0.00117898 0.000810626 -1.81785e-07
-4.14786e-06 -1.81785e-07 0.000168141
0.00205508 -0.000974362 6.00551e-06
-0.000974362 0.00065242 -6.31306e-06
6.00551e-06 -6.31306e-06 8.04753e-05
0.00175634 -0.000929143 3.30899e-06
-0.000929143 0.000471594 -1.3232e-06
3.30899e-06 -1.3232e-06 -9.49168e-05
0.00159206 -0.000837624 6.92624e-06
-0.000837624 0.000424121 -1.42963e-06
6.92624e-06 -1.42963e-06 -0.000145267
0.00148393 -0.000626867 7.4886e-06
-0.000626867 0.000460001 2.64453e-06
7.4886e-06 2.64453e-06 9.07119e-06
0.00184112 -0.000763346 -9.72853e-07
-0.000763346 0.000643211 -2.06084e-06
-9.72853e-07 -2.06084e-06 0.000140041
0.00180628 -0.000812762 4.25345e-06
-0.000812762 0.000560839 6.57195e-06
4.25345e-06 6.57195e-06 4.12845e-05
0.00170586 -0.000242605 -1.84887e-07
-0.000242605 0.000704706 -5.28937e-06
-1.84887e-07 -5.28937e-06 0.000453975
0.000884662 -0.000319595 -3.17812e-06
-0.000319595 0.00017327 2.52648e-06
-3.17812e-06 2.52648e-06 -0.000126834
0.000559912 -0.000473324 -6.30904e-06
-0.000473324 -9.83243e-05 -7.882e-06
-6.30904e-06 -7.882e-06 -0.000488852
5.43078e-05 -9.74959e-05 -1.36746e-06
-9.74959e-05 -0.00019983 3.37579e-06
-1.36746e-06 3.37579e-06 -0.000441021
0.000829291 -0.000245659 1.96791e-07
-0.000245659 0.000310139 1.30185e-06
1.96791e-07 1.30185e-06 9.06809e-06
0.000553943 -0.000300425 2.47894e-07
-0.000300425 0.00010544 1.39933e-06
2.47894e-07 1.39933e-06 -0.000211901
0.000388248 -4.5396e-05 -9.72089e-06
-4.5396e-05 -5.82894e-05 1.79477e-05
-9.72089e-06 1.79477e-05 -0.000117787
0.000660631 -0.000110442 3.80138e-07
-0.000110442 0.000149452 3.86495e-07
3.80138e-07 3.86495e-07 -2.4885e-05
0.00167754 -0.000253754 -1.0468e-06
-0.000253754 0.0008612 4.63352e-06
-1.0468e-06 4.63352e-06 0.000581003
0.000846875 -0.000112245 7.06194e-07
-0.000112245 0.000260985 -6.5984e-06
7.06194e-07 -6.5984e-06 0.000118782
0.000383529 -6.11394e-06 -8.7232e-07
-6.11394e-06 -4.93866e-05 -6.02595e-07
-8.7232e-07 -6.02595e-07 -0.00010314
0.00328929 0.000131378 -4.77782e-05
0.000131378 0.00183254 5.90468e-06
-4.77782e-05 5.90468e-06 0.00182676
0.000511516 -2.29788e-05 3.3106e-06
-2.29788e-05 2.39318e-05 -9.73088e-06
3.3106e-06 -9.73088e-06 -1.8738e-05
0.00305203 0.000101295 6.22997e-06
0.000101295 0.00166822 7.86721e-07
6.22997e-06 7.86721e-07 0.00166987
0.00288808 7.57778e-05 4.29492e-05
7.57778e-05 0.0015549 -5.50795e-06
4.29492e-05 -5.50795e-06 0.00156156
0.00169899 0.000102087 6.64398e-06
0.000102087 0.001002 -7.84311e-06
6.64398e-06 -7.84311e-06 0.000688799
0.00177495 0.000210566 8.6007e-06
0.000210566 0.0010073 -1.03058e-05
8.6007e-06 -1.03058e-05 0.000741227
0.00053461 5.13555e-05 6.03204e-06
5.13555e-05 6.19987e-05 -6.31156e-06
6.03204e-06 -6.31156e-06 -5.17217e-05
0.000703361 0.00014282 -1.60748e-07
0.00014282 0.00022722 7.52922e-07
-1.60748e-07 7.52922e-07 5.25713e-05
0.000424988 -9.94908e-06 4.42815e-06
-9.94908e-06 -3.27716e-05 -8.35006e-06
4.42815e-06 -8.35006e-06 -6.48117e-05
0.000519488 6.68742e-05 1.26699e-07
6.68742e-05 6.19546e-05 -3.23159e-07
1.26699e-07 -3.23159e-07 -3.94336e-05
0.000651203 7.0402e-05 -6.33291e-06
7.0402e-05 0.000168408 -3.17938e-06
-6.33291e-06 -3.17938e-06 1.83821e-05
0.00248644 -4.97312e-05 -2.94826e-05
-4.97312e-05 0.00129459 -5.85747e-06
-2.94826e-05 -5.85747e-06 0.00130613
0.000438756 6.99599e-06 -1.17592e-06
6.99599e-06 -2.66082e-05 -1.80441e-07
-1.17592e-06 -1.80441e-07 -5.24106e-05
0.000503567 7.10509e-05 -4.81406e-06
7.10509e-05 5.46169e-05 1.10758e-06
-4.81406e-06 1.10758e-06 -3.80092e-05
0.00227414 -3.18175e-05 -5.27523e-06
-3.18175e-05 0.00115496 2.92796e-07
-5.27523e-06 2.92796e-07 0.00116954
0.000436434 4.72635e-06 -3.54244e-06
4.72635e-06 -3.23648e-05 5.09624e-06
-3.54244e-06 5.09624e-06 -5.07714e-05
0.00214731 -1.46316e-05 1.80762e-05
-1.46316e-05 0.00107258 5.19675e-06
1.80762e-05 5.19675e-06 0.00108898
-0.00265971 0.00068838 -2.20478e-05
0.00068838 0.00158373 -0.00010621
-2.20478e-05 -0.00010621 -0.000205678
0.00292904 -0.000310199 -2.14884e-05
-0.000310199 0.00179478 -3.97139e-05
-2.14884e-05 -3.97139e-05 0.000539696
9.509e-05 -0.00035642 2.93311e-05
-0.00035642 0.00323219 -5.78261e-05
2.93311e-05 -5.78261e-05 0.00150771
0.000567631 6.98367e-05 2.45043e-06
6.98367e-05 0.00028397 -6.13294e-06
2.45043e-06 -6.13294e-06 -2.95973e-05
-5.77492e-05 0.000157242 6.89099e-06
0.000157242 -0.000243018 -3.88698e-06
6.89099e-06 -3.88698e-06 -0.000451364
-0.00183484 2.11293e-05 1.45503e-05
2.11293e-05 -0.00147489 -1.13847e-05
1.45503e-05 -1.13847e-05 -0.00165542
-0.00210281 -1.44345e-05 -6.05554e-06
-1.44345e-05 -0.00140203 2.02793e-05
-6.05554e-06 2.02793e-05 -0.00168299
0.00189187 0.000331974 2.94445e-06
0.000331974 0.000964948 -2.76863e-08
2.94445e-06 -2.76863e-08 0.000684344
0.000711391 5.24397e-05 -5.8933e-06
5.24397e-05 0.00021118 -1.59493e-06
-5.8933e-06 -1.59493e-06 2.68987e-05
0.00021249 0.000122296 -9.26609e-06
0.000122296 -0.000106976 -1.23062e-05
-9.26609e-06 -1.23062e-05 -0.000233017
0.00126023 2.19596e-05 4.36032e-06
2.19596e-05 0.00055591 9.57286e-07
4.36032e-06 9.57286e-07 0.000404079
0.000958875 0.000192469 -2.0389e-06
0.000192469 0.000402845 -5.20567e-06
-2.0389e-06 -5.20567e-06 0.000284389
0.00260995 0.000201947 -1.29387e-06
0.000201947 0.00163156 -1.86096e-05
-1.29387e-06 -1.86096e-05 0.0013294
0.00785029 0.00193119 0.000634293
0.00193119 0.00540114 0.00059403
0.000634293 0.00059403 0.000216948
0.00344645 0.00136578 2.57351e-05
0.00136578 0.000742837 8.78264e-05
2.57351e-05 8.78264e-05 -0.00143991
0.0063658 -0.000319943 0.000121394
-0.000319943 -0.000119262 -1.25419e-05
0.000121394 -1.25419e-05 -0.00134088
0.0145947 -0.00103703 -0.000305289
-0.00103703 0.0021612 -0.000145505
-0.000305289 -0.000145505 0.00383586
-0.000261064 0.000951714 0.000124464
0.000951714 -0.00197532 0.000432484
0.000124464 0.000432484 -0.00780692
0.00286448 -0.00378592 -5.22162e-05
-0.00378592 0.0010525 -2.5466e-05
-5.22162e-05 -2.5466e-05 0.00122796
0.00492188 -0.00210301 -0.000289767
-0.00210301 0.00559373 7.64909e-05
-0.000289767 7.64909e-05 -0.000668524
0.000444842 -0.00155062 -0.000134909
-0.00155062 0.00129676 0.000141521
-0.000134909 0.000141521 0.000600415
0.0110299 -0.000210655 -0.000285772
-0.000210655 0.008147 -1.02057e-06
-0.000285772 -1.02057e-06 0.000679473
0.00863584 -0.00295992 0.0001291
-0.00295992 0.00520493 0.000240641
0.0001291 0.000240641 -0.00127548
0.0237339 -0.00549385 4.36251e-05
-0.00549385 0.00708398 -0.000897982
4.36251e-05 -0.000897982 0.0020853
0.000557598 0.000381485 -0.000157899
0.000381485 0.00315563 0.000104425
-0.000157899 0.000104425 0.00143821
0.00790118 0.0025806 -0.000290242
0.0025806 0.00674501 -7.06198e-05
-0.000290242 -7.06198e-05 0.000333747
0.0249194 -0.00915982 0.000227794
-0.00915982 0.0138702 -0.000952424
0.000227794 -0.000952424 0.00582372
0.0301165 -0.0128445 0.000105986
-0.0128445 0.0154571 -8.01984e-05
0.000105986 -8.01984e-05 0.00789856
0.000204968 0.000310458 2.71346e-05
0.000310458 0.000202065 5.68739e-06
2.71346e-05 5.68739e-06 -0.000228812
2.45362e-05 6.03064e-05 8.90164e-06
6.03064e-05 0.000235252 1.59347e-06
8.90164e-06 1.59347e-06 -0.000167801
0.0012939 0.000217414 -2.60773e-05
0.000217414 0.000691848 -1.72682e-05
-2.60773e-05 -1.72682e-05 0.000518086
0.00475152 -0.00158553 0.000137183
-0.00158553 0.0032502 -1.89647e-05
0.000137183 -1.89647e-05 0.00134928
-0.000688177 -0.000181357 9.10572e-05
-0.000181357 0.000806825 1.72048e-06
9.10572e-05 1.72048e-06 6.14519e-05
-0.00060925 6.81182e-05 -8.51221e-06
6.81182e-05 -0.000249866 4.21895e-07
-8.51221e-06 4.21895e-07 -0.000523861
-0.00049959 -0.000182594 2.13207e-05
-0.000182594 0.000386042 -1.02516e-05
2.13207e-05 -1.02516e-05 -0.000277631
-0.000254628 0.00013317 -4.04631e-06
0.00013317 9.98912e-05 3.13349e-08
-4.04631e-06 3.13349e-08 -0.000224634
-0.000222356 0.000319981 2.01795e-05
0.000319981 0.000542719 5.57578e-06
2.01795e-05 5.57578e-06 -0.000131353
-0.00234837 9.38234e-05 0.000183701
9.38234e-05 0.00138847 -5.20485e-05
0.000183701 -5.20485e-05 -0.000785481
0.00112374 0.000766214 3.22699e-05
0.000766214 0.00063778 3.77577e-05
3.22699e-05 3.77577e-05 0.000164617
0.00136995 0.00102805 -0.000130074
0.00102805 0.00182511 -0.000110684
-0.000130074 -0.000110684 5.03999e-05
0.000563757 -5.42288e-05 0.000269198
-5.42288e-05 0.00180081 9.95406e-05
0.000269198 9.95406e-05 -0.00343043
-0.0029983 0.000431403 -0.000146051
0.000431403 0.00277678 3.79367e-06
-0.000146051 3.79367e-06 0.000402
0.00382736 -0.000387594 -8.25664e-05
-0.000387594 0.00197685 -1.02545e-06
-8.25664e-05 -1.02545e-06 0.00140962
0.000321705 0.000607044 8.11941e-05
0.000607044 0.00116368 1.93477e-05
8.11941e-05 1.93477e-05 -0.000240222
0.000960091 0.00030922 -0.000114868
0.00030922 0.00312631 0.000109053
-0.000114868 0.000109053 0.0012735
-0.000911004 -0.000272401 -1.38996e-05
-0.000272401 0.00264092 -4.74643e-05
-1.38996e-05 -4.74643e-05 0.00075402
0.0154047 -0.00549274 0.000331858
-0.00549274 0.00923427 -0.000197699
0.000331858 -0.000197699 0.00148449
0.0266263 0.00684683 -0.000504701
0.00684683 0.0138697 -0.000269722
-0.000504701 -0.000269722 0.00561679
0.00598631 -0.00244382 -0.000464484
-0.00244382 0.00328738 0.00032989
-0.000464484 0.00032989 -0.00146126
0.0162025 0.0157939 0.00319561
0.0157939 0.0123747 -0.0018746
0.00319561 -0.0018746 0.00408626
0.000567903 -0.000711104 4.4766e-05
-0.000711104 0.00162371 -1.27079e-05
4.4766e-05 -1.27079e-05 0.000163151
-0.000219633 -0.000798849 7.49441e-05
-0.000798849 0.000865963 8.20613e-06
7.49441e-05 8.20613e-06 -0.00410595
0.00419516 0.00292349 -0.00156727
0.00292349 0.00966064 0.000295957
-0.00156727 0.000295957 0.00293259
0.000113931 -0.00131698 4.44855e-05
-0.00131698 0.00176463 2.63679e-05
4.44855e-05 2.63679e-05 0.000614406
0.024762 0.00851882 0.000463033
0.00851882 0.00957814 0.000145009
0.000463033 0.000145009 0.00227485
0.00735479 -0.0073099 0.000341982
-0.0073099 0.00292224 -9.18528e-05
0.000341982 -9.18528e-05 -0.00147239
0.000416259 -0.00191197 -3.05208e-06
-0.00191197 0.000726204 4.19459e-05
-3.05208e-06 4.19459e-05 -0.00055009
-0.00364452 -0.00200337 0.000206685
-0.00200337 0.00811906 -0.000109418
0.000206685 -0.000109418 0.00313997
0.0201326 0.00902229 -0.00215327
0.00902229 0.00836944 0.000502145
-0.00215327 0.000502145 0.00252298
0.00644817 -0.00589567 -0.000648606
-0.00589567 -0.00138086 0.000229964
-0.000648606 0.000229964 -0.00361643
-0.000934905 -0.00242606 0.000192726
-0.00242606 -0.000400714 -0.000146221
0.000192726 -0.000146221 0.000551089
0.001325 -0.000675554 -0.000118493
-0.000675554 0.00106562 4.16832e-05
-0.000118493 4.16832e-05 0.000373002
0.000397542 -0.000888581 -1.75736e-05
-0.000888581 0.000435958 1.20347e-05
-1.75736e-05 1.20347e-05 -0.000167364
0.00187214 -0.00109393 2.12114e-05
-0.00109393 0.000795733 -3.51358e-05
2.12114e-05 -3.51358e-05 0.000264697
-0.000857341 -0.000313352 7.43182e-06
-0.000313352 -0.000211612 1.78059e-06
7.43182e-06 1.78059e-06 -0.0005596
0.00115396 -0.000868937 1.9679e-06
-0.000868937 0.000331898 -1.43401e-06
1.9679e-06 -1.43401e-06 -0.000154138
0.0030821 -0.00131071 9.7123e-06
-0.00131071 0.000888779 -1.61336e-05
9.7123e-06 -1.61336e-05 0.000365131
0.00434967 -0.00123359 -3.46337e-05
-0.00123359 0.00207129 6.1484e-06
-3.46337e-05 6.1484e-06 0.00129542
0.00198778 -0.00109737 -3.64365e-06
-0.00109737 0.000492534 -7.84881e-07
-3.64365e-06 -7.84881e-07 -0.000254253
0.00269487 -0.00130831 -8.03672e-07
-0.00130831 0.000610547 -1.0151e-05
-8.03672e-07 -1.0151e-05 -3.29043e-06
0.00306161 -0.00117027 6.46064e-06
-0.00117027 0.00116747 5.3288e-06
6.46064e-06 5.3288e-06 0.000417566
0.00256767 -0.00119866 2.92838e-06
-0.00119866 0.000739688 -3.65997e-06
2.92838e-06 -3.65997e-06 5.85071e-05
0.00281259 -0.00100185 -4.19696e-06
-0.00100185 0.000615886 -7.5479e-06
-4.19696e-06 -7.5479e-06 0.000157011
0.00196092 -0.000609039 -4.8506e-07
-0.000609039 9.58019e-06 -2.45928e-06
-4.8506e-07 -2.45928e-06 -0.000249584
0.00206391 -0.00090316 2.754e-06
-0.00090316 0.000173271 -3.62069e-06
2.754e-06 -3.62069e-06 -0.000278983
0.00241519 -0.000934665 3.52017e-06
-0.000934665 0.000424155 -2.48171e-06
3.52017e-06 -2.48171e-06 -3.44344e-05
0.00271567 -0.00105091 -4.87175e-06
-0.00105091 0.000858696 -2.24549e-06
-4.87175e-06 -2.24549e-06 0.000308563
0.00285876 -0.00117651 -3.76119e-06
-0.00117651 0.000886669 -1.98696e-07
-3.76119e-06 -1.98696e-07 0.000273563
0.00267748 -0.0011791 1.03382e-05
-0.0011791 0.000794593 -3.89357e-06
1.03382e-05 -3.89357e-06 0.000148392
0.00182402 -0.000843951 6.85691e-06
-0.000843951 0.000565894 -5.13626e-06
6.85691e-06 -5.13626e-06 3.25237e-05
0.00180662 -0.000937192 1.87263e-06
-0.000937192 0.00051484 -7.9771e-07
1.87263e-06 -7.9771e-07 -4.61533e-05
0.00138995 -0.000865241 4.35066e-06
-0.000865241 0.000265571 3.27969e-06
4.35066e-06 3.27969e-06 -0.000276873
0.0018203 -0.000376455 2.00985e-06
-0.000376455 0.000713395 5.63167e-06
2.00985e-06 5.63167e-06 0.000404814
0.00150874 -0.000608935 1.14269e-06
-0.000608935 0.000507114 1.49382e-06
1.14269e-06 1.49382e-06 6.7606e-05
0.00210527 -0.000791287 -4.28538e-06
-0.000791287 0.000820602 5.93655e-06
-4.28538e-06 5.93655e-06 0.000309838
7.61029e-05 -0.00015371 -4.2535e-06
-0.00015371 -0.00025412 -7.41049e-07
-4.2535e-06 -7.41049e-07 -0.000502882
0.00061246 -0.000260172 -4.02194e-06
-0.000260172 5.11433e-05 -3.06671e-06
-4.02194e-06 -3.06671e-06 -0.000221546
0.000741139 -0.000311627 -3.46932e-06
-0.000311627 0.000101422 4.53234e-07
-3.46932e-06 4.53234e-07 -0.000196152
0.0020102 -2.21235e-05 -6.0674e-05
-2.21235e-05 0.000992915 1.1987e-05
-6.0674e-05 1.1987e-05 0.000923741
0.000739496 -0.000189785 1.45426e-06
-0.000189785 0.000200824 3.47431e-07
1.45426e-06 3.47431e-07 -2.50353e-05
0.00107508 -0.000331422 3.6909e-06
-0.000331422 0.000470389 6.27115e-06
3.6909e-06 6.27115e-06 0.000160795
0.000618829 7.28418e-06 -7.09705e-05
7.28418e-06 0.000103874 8.00122e-06
-7.09705e-05 8.00122e-06 9.15223e-05
0.00129522 -2.70942e-05 -2.24409e-05
-2.70942e-05 0.000528186 -6.5395e-07
-2.24409e-05 -6.5395e-07 0.000470483
0.00111671 -0.000134625 3.14663e-06
-0.000134625 0.000428724 -5.74768e-06
3.14663e-06 -5.74768e-06 0.000254815
0.000570877 -2.51385e-05 4.68784e-06
-2.51385e-05 6.25027e-05 -1.23604e-05
4.68784e-06 -1.23604e-05 1.09652e-05
0.00342413 0.000131208 1.16989e-05
0.000131208 0.00191978 9.67905e-07
1.16989e-05 9.67905e-07 0.00191436
0.00307821 0.000100326 4.79976e-05
0.000100326 0.00168464 -5.70962e-06
4.79976e-05 -5.70962e-06 0.00168677
0.000267882 0.000160579 6.95633e-06
0.000160579 -3.20716e-05 4.40287e-06
6.95633e-06 4.40287e-06 -0.000301784
0.00191856 0.000201762 5.71775e-06
0.000201762 0.00111181 -1.08963e-05
5.71775e-06 -1.08963e-05 0.000791218
-0.000620429 4.38962e-05 3.62698e-06
4.38962e-05 -0.0004938 -9.16828e-08
3.62698e-06 -9.16828e-08 -0.000778668
0.00066286 8.5577e-05 1.82506e-06
8.5577e-05 0.000153052 -1.03025e-05
1.82506e-06 -1.03025e-05 1.40557e-05
0.000627882 0.00013779 1.73642e-06
0.00013779 0.000216453 -2.64587e-07
1.73642e-06 -2.64587e-07 -8.45174e-06
0.000406346 1.28774e-05 -1.02611e-06
1.28774e-05 -3.58459e-05 -1.14711e-05
-1.02611e-06 -1.14711e-05 -7.65777e-05
0.000553503 6.85761e-05 -6.17416e-08
6.85761e-05 8.5157e-05 -4.01616e-07
-6.17416e-08 -4.01616e-07 -3.22904e-05
0.000703289 6.96591e-05 -6.22156e-06
6.96591e-05 0.000252486 2.1294e-06
-6.22156e-06 2.1294e-06 6.77663e-05
0.00277283 -7.02046e-05 -3.8917e-05
-7.02046e-05 0.00148475 -5.76865e-06
-3.8917e-05 -5.76865e-06 0.00149276
0.000400755 6.05509e-06 -2.88318e-07
6.05509e-06 -4.63742e-05 -2.28695e-08
-2.88318e-07 -2.28695e-08 -7.90508e-05
0.000481907 7.25369e-05 -2.59803e-06
7.25369e-05 3.9016e-05 3.92834e-06
-2.59803e-06 3.92834e-06 -6.28143e-05
0.00246915 -5.09988e-05 -7.17262e-06
-5.09988e-05 0.00128357 4.72433e-07
-7.17262e-06 4.72433e-07 0.00129495
0.000373681 -1.73587e-05 -7.41291e-06
-1.73587e-05 -6.81248e-05 6.47834e-06
-7.41291e-06 6.47834e-06 -9.32549e-05
0.00225688 -3.03196e-05 2.34108e-05
-3.03196e-05 0.00114372 5.31286e-06
2.34108e-05 5.31286e-06 0.00115869
0.006931 0.00121096 0.000523715
0.00121096 0.00493412 0.000129561
0.000523715 0.000129561 0.00167018
-0.00238158 0.000559804 -1.25342e-05
0.000559804 0.00138115 -1.30688e-05
-1.25342e-05 -1.30688e-05 -0.000737604
0.000475272 0.000669797 -8.53581e-06
0.000669797 0.00192122 -1.8513e-05
-8.53581e-06 -1.8513e-05 0.000218549
-0.000301153 0.000220374 -9.05248e-06
0.000220374 -0.000531113 9.97626e-06
-9.05248e-06 9.97626e-06 -0.000777146
-1.8319e-05 5.83991e-05 -8.67859e-06
5.83991e-05 -0.000166345 1.75325e-05
-8.67859e-06 1.75325e-05 -0.000423022
-0.000347401 7.88703e-05 -1.02763e-05
7.88703e-05 -0.00041936 -1.23303e-05
-1.02763e-05 -1.23303e-05 -0.000605483
0.001875 0.000134931 7.39318e-06
0.000134931 0.00100638 4.03081e-07
7.39318e-06 4.03081e-07 0.000786024
0.00116726 0.000230027 -1.95621e-06
0.000230027 0.000393946 -8.86431e-06
-1.95621e-06 -8.86431e-06 0.000191026
0.00257659 0.000413874 -1.75052e-05
0.000413874 0.00139922 -6.70997e-06
-1.75052e-05 -6.70997e-06 0.00117396
0.00156923 0.000343154 1.40765e-06
0.000343154 0.000670334 -1.37501e-05
1.40765e-06 -1.37501e-05 0.000320301
-0.00205721 0.000178979 -8.47695e-06
0.000178979 -0.00108752 1.73199e-06
-8.47695e-06 1.73199e-06 -0.00149627
2.83221e-05 6.6378e-05 -4.46525e-06
6.6378e-05 -0.000178764 -8.11952e-06
-4.46525e-06 -8.11952e-06 -0.000342968
-0.000463188 5.70826e-05 -1.25813e-05
5.70826e-05 -0.00057335 -9.33432e-06
-1.25813e-05 -9.33432e-06 -0.000636132
-0.000968378 1.98393e-05 -4.03371e-06
1.98393e-05 -0.000569973 2.23355e-06
-4.03371e-06 2.23355e-06 -0.000881329
0.000152849 0.000328115 5.86591e-06
0.000328115 0.000260651 7.23467e-06
5.86591e-06 7.23467e-06 -0.000296087
0.00759163 -0.00611716 -2.13631e-05
-0.00611716 0.00926547 0.000227178
-2.13631e-05 0.000227178 0.000727765
0.00844018 0.00249434 0.000239679
0.00249434 0.00408654 0.000199653
0.000239679 0.000199653 -0.00178686
0.00415343 0.000744222 7.13573e-06
0.000744222 0.00147533 -8.1518e-05
7.13573e-06 -8.1518e-05 -0.00101717
0.0345313 -0.00799636 -0.00116897
-0.00799636 0.0110798 -0.00047503
-0.00116897 -0.00047503 0.00523947
0.00569999 -0.00155523 0.000338075
-0.00155523 0.00492162 0.000595268
0.000338075 0.000595268 0.000183551
0.00215617 -0.00149431 -0.000264676
-0.00149431 0.00582775 0.000148109
-0.000264676 0.000148109 -0.00246157
-0.000500952 -0.00160034 8.8493e-05
-0.00160034 0.00163215 5.34449e-05
8.8493e-05 5.34449e-05 0.000230848
-0.0015676 -4.67255e-05 0.000192514
-4.67255e-05 0.0015638 5.05545e-05
0.000192514 5.05545e-05 0.000390143
0.0247635 -0.0141971 0.00055768
-0.0141971 0.0141443 0.000537643
0.00055768 0.000537643 0.00609583
0.00358561 0.00226211 -0.000171483
0.00226211 0.0054872 -0.000116988
-0.000171483 -0.000116988 -0.00190096
0.0119235 -0.00481555 -0.000165046
-0.00481555 0.00821341 0.000165127
-0.000165046 0.000165127 -9.48881e-05
-0.000273164 0.000984661 -8.29785e-06
0.000984661 0.00148111 2.93779e-05
-8.29785e-06 2.93779e-05 0.000613726
0.00755947 0.00554104 -0.000179017
0.00554104 0.00300958 -2.74264e-06
-0.000179017 -2.74264e-06 -0.00119503
0.0226778 -0.00839699 -0.00106033
-0.00839699 0.00876592 -0.000459819
-0.00106033 -0.000459819 0.00116184
0.00117218 0.00080263 1.54932e-05
0.00080263 0.000333164 8.7482e-06
1.54932e-05 8.7482e-06 0.000110464
0.000929417 0.000341841 8.78967e-06
0.000341841 0.000662223 6.2475e-06
8.78967e-06 6.2475e-06 0.000216627
-0.000490618 2.33308e-05 -2.56527e-05
2.33308e-05 -8.84549e-05 5.44909e-07
-2.56527e-05 5.44909e-07 -0.000488633
-0.00284992 -0.000253591 -0.000137553
-0.000253591 0.000893321 -4.53784e-05
-0.000137553 -4.53784e-05 -0.00117269
0.000648956 0.000327962 -1.40754e-05
0.000327962 0.000644376 -1.79357e-05
-1.40754e-05 -1.79357e-05 6.23451e-05
3.36132e-06 0.000217144 -6.48436e-06
0.000217144 0.000247549 4.60367e-06
-6.48436e-06 4.60367e-06 -0.000129796
0.00122264 0.000802336 1.26509e-05
0.000802336 0.000665937 2.49187e-06
1.26509e-05 2.49187e-06 0.000184038
-0.000211403 0.000834049 1.18168e-05
0.000834049 0.00107927 -4.42632e-05
1.18168e-05 -4.42632e-05 -0.000469313
0.00173115 0.00207266 9.72283e-05
0.00207266 0.000626943 1.45914e-05
9.72283e-05 1.45914e-05 -0.000604358
-0.00688026 0.00125355 0.000523514
0.00125355 0.00625741 -2.42927e-05
0.000523514 -2.42927e-05 -0.00256393
0.00216037 -0.000527132 -2.24412e-05
-0.000527132 0.0023965 9.11405e-05
-2.24412e-05 9.11405e-05 -0.00112982
-0.00319233 1.16448e-05 -3.0376e-05
1.16448e-05 0.00206904 9.32773e-05
-3.0376e-05 9.32773e-05 -8.6429e-05
-0.00107705 -0.000421758 -5.45141e-05
-0.000421758 0.00081635 1.05634e-05
-5.45141e-05 1.05634e-05 -0.000690145
-0.00171292 -0.00089438 -5.6437e-05
-0.00089438 0.000183875 4.77487e-05
-5.6437e-05 4.77487e-05 0.000128376
-0.00115385 -0.000885641 -0.000263863
-0.000885641 0.00138311 0.000176747
-0.000263863 0.000176747 -0.00405043
-0.00163848 -0.00546296 0.000269273
-0.00546296 0.00229593 -0.000146341
0.000269273 -0.000146341 -0.00461374
0.0179492 0.00672887 0.000950755
0.00672887 0.00459372 -0.000472225
0.000950755 -0.000472225 -0.00235398
0.0172162 0.00680015 -0.000449853
0.00680015 0.0112881 0.000472202
-0.000449853 0.000472202 0.00351065
0.000733383 -0.00131623 -3.93292e-05
-0.00131623 0.00154334 8.56166e-06
-3.93292e-05 8.56166e-06 0.00032802
0.00398703 0.0014385 0.000259126
0.0014385 0.010265 -5.49824e-05
0.000259126 -5.49824e-05 0.00397588
0.00551769 0.00624946 2.77524e-05
0.00624946 0.00234638 0.000100906
2.77524e-05 0.000100906 -0.00283694
0.0023545 -0.00400208 8.01901e-05
-0.00400208 0.000863342 -5.79785e-05
8.01901e-05 -5.79785e-05 0.00106583
0.0136776 -0.00642749 -3.65414e-06
-0.00642749 0.000714453 1.13436e-05
-3.65414e-06 1.13436e-05 -0.000979883
0.00350153 -0.00241536 1.68807e-05
-0.00241536 0.00155853 1.91031e-05
1.68807e-05 1.91031e-05 0.000907902
-0.0061322 0.0022657 -0.000983873
0.0022657 -0.000959268 0.000168524
-0.000983873 0.000168524 -0.0056772
0.0160724 -0.00410952 -0.000257999
-0.00410952 0.000413486 7.87849e-05
-0.000257999 7.87849e-05 -0.000247902
0.00442421 -0.00379235 0.000146108
-0.00379235 2.95787e-06 -9.04439e-05
0.000146108 -9.04439e-05 0.00121
-0.000305049 -0.000618286 8.0482e-06
-0.000618286 0.00019947 -2.60592e-06
8.0482e-06 -2.60592e-06 -0.00041667
0.00218106 -0.00129749 1.94753e-05
-0.00129749 0.000784768 -9.54285e-06
1.94753e-05 -9.54285e-06 0.000335533
0.00256854 -0.00117235 1.8336e-05
-0.00117235 0.000631814 -1.96608e-05
1.8336e-05 -1.96608e-05 0.000220484
-0.000461476 -0.000659516 -5.91681e-06
-0.000659516 -0.000516109 1.89931e-05
-5.91681e-06 1.89931e-05 -0.000960635
0.00209269 -0.00120193 -5.40695e-06
-0.00120193 0.000365193 9.38265e-07
-5.40695e-06 9.38265e-07 -0.00016255
0.00331161 -0.00135445 7.19699e-06
-0.00135445 0.000797047 -5.41059e-06
7.19699e-06 -5.41059e-06 0.000288661
0.00137409 -0.000979655 -8.68607e-06
-0.000979655 0.00014552 1.17392e-05
-8.68607e-06 1.17392e-05 -0.000571861
0.00240977 -0.00126572 -6.80192e-07
-0.00126572 0.000460496 3.2013e-06
-6.80192e-07 3.2013e-06 -0.000149685
0.00239143 -0.000982335 -2.82691e-06
-0.000982335 0.000205239 -3.59003e-06
-2.82691e-06 -3.59003e-06 -0.000156596
0.00197508 -0.00111546 9.73725e-06
-0.00111546 0.000402588 3.416e-06
9.73725e-06 3.416e-06 -0.000249317
0.00229402 -0.000926359 -1.93168e-06
-0.000926359 0.000332718 1.97494e-06
-1.93168e-06 1.97494e-06 -0.000106724
0.0023233 -0.000668265 -1.23954e-07
-0.000668265 0.00014302 -1.64167e-06
-1.23954e-07 -1.64167e-06 -8.42358e-05
0.00217665 -0.000589543 -2.06583e-06
-0.000589543 0.000148174 5.41941e-07
-2.06583e-06 5.41941e-07 -4.58598e-05
0.00188696 -0.00062098 -2.65318e-06
-0.00062098 -6.66656e-06 -2.01762e-06
-2.65318e-06 -2.01762e-06 -0.000281257
0.00199693 -0.000606777 1.56464e-06
-0.000606777 2.67204e-05 3.02293e-06
1.56464e-06 3.02293e-06 -0.000228406
0.00189584 -0.000783731 -3.25843e-06
-0.000783731 0.000144022 -4.52703e-06
-3.25843e-06 -4.52703e-06 -0.000258683
0.00224184 -0.000913798 2.76553e-06
-0.000913798 0.000305897 2.33372e-07
2.76553e-06 2.33372e-07 -0.000143703
0.00237236 -0.000934527 1.74683e-06
-0.000934527 0.000395038 3.59682e-06
1.74683e-06 3.59682e-06 -6.25754e-05
0.00209552 -0.000908503 1.08664e-06
-0.000908503 0.000520754 -3.97262e-06
1.08664e-06 -3.97262e-06 -1.31558e-06
0.0024854 -0.00103126 1.90423e-06
-0.00103126 0.000710845 -6.96507e-07
1.90423e-06 -6.96507e-07 0.000161366
0.00280707 -0.0011654 3.45175e-06
-0.0011654 0.000865615 -1.15116e-06
3.45175e-06 -1.15116e-06 0.000250014
0.00168692 -0.000592061 -6.28959e-06
-0.000592061 0.000547712 3.49695e-06
-6.28959e-06 3.49695e-06 0.000130929
0.00186519 -0.000833173 6.59946e-07
-0.000833173 0.000599599 5.84972e-07
6.59946e-07 5.84972e-07 7.38225e-05
0.00150915 -0.000892194 8.45294e-07
-0.000892194 0.000350421 3.82018e-06
8.45294e-07 3.82018e-06 -0.000197658
0.000779273 -0.000244015 -4.72364e-06
-0.000244015 0.000145171 -1.25733e-06
-4.72364e-06 -1.25733e-06 -0.000102827
0.00106108 -0.000338699 3.94106e-06
-0.000338699 0.000241391 -4.34712e-07
3.94106e-06 -4.34712e-07 -6.78475e-05
0.00105669 -0.000549139 -5.2162e-06
-0.000549139 0.000261196 4.18865e-06
-5.2162e-06 4.18865e-06 -0.000160326
0.000468103 -0.000117758 -1.89362e-05
-0.000117758 -4.4289e-05 1.58998e-05
-1.89362e-05 1.58998e-05 -0.000142629
0.000673324 -0.000195362 -2.50378e-07
-0.000195362 0.000144693 1.8051e-06
-2.50378e-07 1.8051e-06 -0.000120763
0.000199202 -0.000303091 -4.60603e-06
-0.000303091 -0.000171567 -2.5278e-07
-4.60603e-06 -2.5278e-07 -0.000468294
0.00440845 0.000291008 2.0553e-05
0.000291008 0.00261947 9.21316e-06
2.0553e-05 9.21316e-06 0.0025624
0.000446767 -7.77311e-05 8.41129e-08
-7.77311e-05 -2.79228e-05 -5.32585e-07
8.41129e-08 -5.32585e-07 -0.000114256
0.00154228 -0.000207584 1.44321e-06
-0.000207584 0.00070281 -3.50612e-06
1.44321e-06 -3.50612e-06 0.000479026
0.0038532 0.000146237 1.01428e-05
0.000146237 0.0022055 7.0275e-07
1.01428e-05 7.0275e-07 0.00219602
0.000620994 -4.66553e-05 9.01797e-06
-4.66553e-05 8.98579e-05 -1.42558e-05
9.01797e-06 -1.42558e-05 2.32869e-05
0.00346307 0.000114179 7.40285e-05
0.000114179 0.00194139 -6.67541e-06
7.40285e-05 -6.67541e-06 0.00194035
0.00257997 0.000452393 2.68422e-06
0.000452393 0.00131889 2.29281e-06
2.68422e-06 2.29281e-06 0.00103008
0.000606769 0.000219538 -2.44044e-08
0.000219538 0.00018644 -9.64541e-07
-2.44044e-08 -9.64541e-07 -0.0001005
0.00132722 0.000413982 -3.65921e-06
0.000413982 0.000687834 -4.29449e-06
-3.65921e-06 -4.29449e-06 0.00036288
0.00110301 0.00014586 1.08121e-07
0.00014586 0.000437272 -1.03593e-05
1.08121e-07 -1.03593e-05 0.000263051
0.000839245 0.000145611 -9.17892e-08
0.000145611 0.000422349 8.38998e-07
-9.17892e-08 8.38998e-07 0.000104781
7.28697e-05 0.000120951 -2.27431e-06
0.000120951 -1.81083e-05 5.86078e-06
-2.27431e-06 5.86078e-06 -0.000340567
0.000519168 2.39304e-06 -1.51442e-06
2.39304e-06 4.67296e-05 -1.41909e-05
-1.51442e-06 -1.41909e-05 -5.72013e-06
0.000602627 6.63758e-05 -1.24747e-07
6.63758e-05 0.000119664 1.8834e-07
-1.24747e-07 1.8834e-07 -1.9092e-05
-6.22967e-05 8.60308e-05 -5.07356e-06
8.60308e-05 -0.000252341 1.1382e-05
-5.07356e-06 1.1382e-05 -0.000461398
0.00288879 -8.66102e-05 -4.86983e-05
-8.66102e-05 0.00156581 -6.27892e-06
-4.86983e-05 -6.27892e-06 0.00157118
0.000392006 -2.747e-05 2.24808e-06
-2.747e-05 -4.16425e-05 -3.74189e-07
2.24808e-06 -3.74189e-07 -8.30504e-05
0.000502828 5.84968e-05 -4.52221e-06
5.84968e-05 6.24969e-05 6.31982e-06
-4.52221e-06 6.31982e-06 -5.65655e-05
0.00269443 -7.08559e-05 -8.15831e-06
-7.08559e-05 0.00143428 6.31695e-07
-8.15831e-06 6.31695e-07 0.00144191
0.000409495 1.2973e-05 -1.90758e-06
1.2973e-05 -4.18131e-05 8.05352e-06
-1.90758e-06 8.05352e-06 -7.33918e-05
0.00242429 -5.07089e-05 2.4474e-05
-5.07089e-05 0.00125459 5.5204e-06
2.4474e-05 5.5204e-06 0.00126617
-0.00760198 0.00089336 -0.000290399
0.00089336 0.0052749 7.54965e-05
-0.000290399 7.54965e-05 -0.00281788
0.00655661 0.00101225 4.38348e-05
0.00101225 0.00431851 3.06139e-07
4.38348e-05 3.06139e-07 0.00119726
-0.00161285 0.000546976 0.000139535
0.000546976 0.00139684 7.14991e-05
0.000139535 7.14991e-05 -0.000955018
0.000239642 0.000234265 -5.49779e-06
0.000234265 -0.000154237 9.06011e-06
-5.49779e-06 9.06011e-06 -0.000450414
0.00382316 0.000934217 2.01657e-05
0.000934217 0.00207161 2.23545e-05
2.01657e-05 2.23545e-05 0.00156496
-0.000110003 0.00021006 -1.32457e-05
0.00021006 -0.000126323 7.93861e-06
-1.32457e-05 7.93861e-06 -0.000578399
0.000488204 0.000111388 -7.47827e-06
0.000111388 0.000147898 -1.77804e-05
-7.47827e-06 -1.77804e-05 -8.00843e-05
0.00284231 0.000395652 -1.46307e-06
0.000395652 0.00142347 -5.76918e-06
-1.46307e-06 -5.76918e-06 0.0011979
-0.00167942 1.36183e-05 -1.14408e-05
1.36183e-05 -0.00124796 1.55025e-05
-1.14408e-05 1.55025e-05 -0.00138631
-0.000111614 0.000254189 -5.2799e-07
0.000254189 -4.94494e-05 7.04925e-06
-5.2799e-07 7.04925e-06 -0.000378639
-0.000218022 0.000121593 -5.21942e-06
0.000121593 -0.000332458 -5.51038e-06
-5.21942e-06 -5.51038e-06 -0.000674727
0.000874128 0.000740868 -2.53639e-06
0.000740868 0.00040025 -2.12561e-05
-2.53639e-06 -2.12561e-05 -0.000157154
-0.000834931 0.00062246 -2.79959e-05
0.00062246 -0.000824605 6.99918e-05
-2.79959e-05 6.99918e-05 -0.00102965
0.000938674 7.43746e-05 -1.42842e-05
7.43746e-05 0.000532162 1.68155e-05
-1.42842e-05 1.68155e-05 0.000273894
0.00214575 0.000507238 1.07153e-05
0.000507238 0.00138445 -5.93476e-06
1.07153e-05 -5.93476e-06 0.000902472
0.00451011 -0.00402556 -0.00258683
-0.00402556 0.00317829 -0.000246493
-0.00258683 -0.000246493 -0.00282719
0.00140762 -0.00478609 0.000850878
-0.00478609 0.00978086 0.000168651
0.000850878 0.000168651 0.0016683
0.00912117 0.00309694 -0.000930502
0.00309694 0.00368618 -0.00030288
-0.000930502 -0.00030288 -0.00276341
0.0165707 -0.0155707 0.00315052
-0.0155707 0.0127392 0.00178002
0.00315052 0.00178002 0.00410234
0.0307937 -0.00472811 -7.39438e-05
-0.00472811 0.0120451 0.000502184
-7.39438e-05 0.000502184 0.00554747
-0.00291336 0.00151479 -8.98315e-05
0.00151479 0.00347711 -0.000213723
-8.98315e-05 -0.000213723 -0.00306053
-0.00219443 0.000250211 -0.000222006
0.000250211 0.00202251 -3.52153e-05
-0.000222006 -3.52153e-05 -3.83255e-05
0.000233132 0.00104651 7.3707e-05
0.00104651 0.00193243 5.8884e-05
7.3707e-05 5.8884e-05 0.00118271
0.0242614 -0.00688438 -0.00088455
-0.00688438 0.0108689 5.91769e-05
-0.00088455 5.91769e-05 0.00351947
-0.00152739 0.0049263 -0.000235852
0.0049263 0.000854733 -4.44977e-05
-0.000235852 -4.44977e-05 -0.00402369
0.00342372 0.00324817 6.53107e-05
0.00324817 0.00127578 -8.32148e-05
6.53107e-05 -8.32148e-05 0.00200151
0.00720737 0.00833061 -0.00076774
0.00833061 -0.00158725 -0.000104516
-0.00076774 -0.000104516 -0.00356857
0.00399525 0.00162143 3.43185e-05
0.00162143 0.00163036 -8.15569e-06
3.43185e-05 -8.15569e-06 0.00113673
0.000890999 0.000732113 -5.22981e-06
0.000732113 0.00015116 -3.60231e-06
-5.22981e-06 -3.60231e-06 -3.4548e-05
-0.000428206 0.000220982 -2.58351e-05
0.000220982 -0.000167539 -1.98358e-06
-2.58351e-05 -1.98358e-06 -0.000593522
-0.00103408 0.000738507 -0.00013234
0.000738507 0.0007404 -7.81206e-05
-0.00013234 -7.81206e-05 -0.000607354
0.000779448 0.000816958 -5.90177e-05
0.000816958 0.000343602 -4.33581e-05
-5.90177e-05 -4.33581e-05 -0.000117966
0.00257305 0.0022043 4.52112e-06
0.0022043 0.000918063 -1.26569e-05
4.52112e-06 -1.26569e-05 -0.000282492
-0.00156253 0.00213995 0.000114664
0.00213995 -0.00214851 6.326e-05
0.000114664 6.326e-05 -0.00266087
-0.00704674 -0.000738544 -0.000911456
-0.000738544 -0.00292642 6.87567e-05
-0.000911456 6.87567e-05 -0.0050839
-0.0103737 0.000508177 0.000641648
0.000508177 0.00674753 1.48898e-05
0.000641648 1.48898e-05 -0.000765282
0.00264571 8.37071e-05 -0.000196019
8.37071e-05 0.0022737 3.63004e-05
-0.000196019 3.63004e-05 2.31981e-05
0.000852317 -0.00137714 -5.86969e-05
-0.00137714 0.00110827 -5.50626e-05
-5.86969e-05 -5.50626e-05 -6.86767e-05
-0.00120654 -0.00276623 0.000196314
-0.00276623 -0.000228442 9.32003e-06
0.000196314 9.32003e-06 -8.47186e-05
0.00167598 0.00161435 0.00027132
0.00161435 0.00980565 8.90374e-05
0.00027132 8.90374e-05 0.00323672
0.00587426 -0.00610745 0.000813525
-0.00610745 -0.0017531 -6.08415e-05
0.000813525 -6.08415e-05 -0.00269035
0.0251216 0.0056805 0.00150927
0.0056805 0.0117273 -7.05307e-05
0.00150927 -7.05307e-05 0.00618162
0.00202363 -0.00263582 -2.3862e-05
-0.00263582 0.000568517 2.77523e-06
-2.3862e-05 2.77523e-06 -0.000343364
0.0047602 0.00277766 0.000426123
0.00277766 0.00245098 -0.000125278
0.000426123 -0.000125278 -0.00173721
0.00762545 -0.00370222 -0.000223978
-0.00370222 -0.00444315 0.000203306
-0.000223978 0.000203306 -0.00565944
0.00248744 -0.0035095 -7.0715e-06
-0.0035095 -0.00132175 3.0248e-05
-7.0715e-06 3.0248e-05 0.000554368
0.0027994 -0.00211717 7.0312e-05
-0.00211717 0.000179461 -1.10851e-05
7.0312e-05 -1.10851e-05 -5.12244e-05
0.0196693 -0.00121381 -0.000120485
-0.00121381 0.00280679 9.76635e-05
-0.000120485 9.76635e-05 0.00233265
0.0027008 -0.00260245 0.000137359
-0.00260245 -0.00408516 -0.000105278
0.000137359 -0.000105278 -0.00151428
0.000298431 -0.00116281 -4.82047e-05
-0.00116281 -0.000307236 5.01641e-05
-4.82047e-05 5.01641e-05 -0.000582966
0.000431282 -0.00090155 -2.7767e-05
-0.00090155 -0.000525239 2.96891e-06
-2.7767e-05 2.96891e-06 -0.000765538
0.00591287 -0.00144303 5.7604e-05
-0.00144303 0.00207556 -2.50949e-05
5.7604e-05 -2.50949e-05 0.00177481
0.000617401 -0.00100918 -1.4385e-05
-0.00100918 -0.000376255 1.49079e-05
-1.4385e-05 1.49079e-05 -0.000887047
0.0024146 -0.00122995 -1.17944e-06
-0.00122995 0.000342465 -1.38301e-06
-1.17944e-06 -1.38301e-06 -0.000132578
0.00302866 -0.00104558 4.11762e-06
-0.00104558 0.000368104 -2.92244e-06
4.11762e-06 -2.92244e-06 0.000145733
0.00240415 -0.00126018 9.99081e-06
-0.00126018 0.000454966 1.00676e-05
9.99081e-06 1.00676e-05 -0.000159064
0.00255292 -0.000991892 -2.91966e-06
-0.000991892 0.000292349 1.07599e-06
-2.91966e-06 1.07599e-06 -6.56291e-05
0.00240039 -0.000701063 8.34199e-07
-0.000701063 2.14197e-05 -8.143e-07
8.34199e-07 -8.143e-07 -7.29482e-05
0.00202179 -0.000885459 9.09218e-06
-0.000885459 0.00017884 6.46125e-06
9.09218e-06 6.46125e-06 -0.000249401
0.00223321 -0.000654412 -5.76906e-08
-0.000654412 8.49108e-05 2.58001e-06
-5.76906e-08 2.58001e-06 -0.000131061
0.00235681 -0.000662463 -5.00769e-07
-0.000662463 0.000109641 2.44626e-06
-5.00769e-07 2.44626e-06 -1.6686e-05
0.00225738 -0.000633467 -2.8164e-06
-0.000633467 0.000144945 1.38408e-06
-2.8164e-06 1.38408e-06 -1.5776e-05
0.00223064 -0.000595135 -3.36972e-06
-0.000595135 0.000169544 2.6904e-06
-3.36972e-06 2.6904e-06 -1.87007e-05
0.00226501 -0.000588212 -8.64589e-07
-0.000588212 0.000271285 -2.27442e-06
-8.64589e-07 -2.27442e-06 5.82554e-05
0.0022564 -0.000664892 -6.52457e-06
-0.000664892 0.00026253 -2.88739e-06
-6.52457e-06 -2.88739e-06 -2.75647e-05
0.00212627 -0.000638755 1.10559e-06
-0.000638755 0.000151372 1.35023e-06
1.10559e-06 1.35023e-06 -0.000123765
0.00202907 -0.000607936 1.52098e-06
-0.000607936 3.26765e-05 8.13526e-06
1.52098e-06 8.13526e-06 -0.000219525
0.00217102 -0.0007901 -5.38759e-06
-0.0007901 0.000376323 -4.97691e-06
-5.38759e-06 -4.97691e-06 -3.92241e-05
0.00187404 -0.000793234 -7.01721e-07
-0.000793234 0.000113528 1.93697e-07
-7.01721e-07 1.93697e-07 -0.000294541
0.00241759 -0.0009272 6.25966e-06
-0.0009272 0.000432713 3.71712e-06
6.25966e-06 3.71712e-06 -1.52555e-05
0.0017076 -0.000720053 -7.57436e-06
-0.000720053 0.000359805 4.23307e-07
-7.57436e-06 4.23307e-07 -0.000105496
0.00220607 -0.000923291 -2.84091e-07
-0.000923291 0.000583472 7.863e-07
-2.84091e-07 7.863e-07 5.79201e-05
0.0023291 -0.00102139 5.21912e-06
-0.00102139 0.000605671 2.13593e-06
5.21912e-06 2.13593e-06 5.46609e-05
0.00115014 -0.00031772 -9.51478e-06
-0.00031772 0.000316866 9.30073e-06
-9.51478e-06 9.30073e-06 4.85359e-05
0.00134395 -0.000562981 1.79261e-06
-0.000562981 0.000318009 9.41377e-07
1.79261e-06 9.41377e-07 -9.2707e-05
0.00179475 -0.000813841 -3.2889e-06
-0.000813841 0.000557012 4.74439e-06
-3.2889e-06 4.74439e-06 3.97663e-05
0.000400478 -0.000185984 -3.05823e-05
-0.000185984 -0.000119009 1.6595e-05
-3.05823e-05 1.6595e-05 -0.00023511
0.000570248 -0.000232629 -2.03396e-06
-0.000232629 2.69113e-05 -1.11414e-06
-2.03396e-06 -1.11414e-06 -0.00023266
-9.26445e-05 -0.00030831 1.81319e-06
-0.00030831 -0.000484442 -2.40789e-06
1.81319e-06 -2.40789e-06 -0.000797936
0.00510357 0.00021987 -0.000112847
0.00021987 0.00305017 1.16066e-05
-0.000112847 1.16066e-05 0.00301691
0.000552635 -0.000144962 2.76235e-06
-0.000144962 1.84702e-06 1.89571e-07
2.76235e-06 1.89571e-07 -0.000100414
0.00109627 -0.00027157 5.0611e-06
-0.00027157 0.00040045 -1.31848e-06
5.0611e-06 -1.31848e-06 0.000135272
0.00290082 0.000148107 6.96393e-05
0.000148107 0.00161638 1.52482e-06
6.96393e-05 1.52482e-06 0.00158009
0.000739792 -8.49924e-05 1.50207e-05
-8.49924e-05 0.000153128 -1.61852e-05
1.50207e-05 -1.61852e-05 6.196e-05
0.0040291 0.000134738 9.83035e-05
0.000134738 0.00231777 -8.77689e-06
9.83035e-05 -8.77689e-06 0.00231082
0.00222412 0.000478032 -1.18529e-06
0.000478032 0.000972783 2.47168e-06
-1.18529e-06 2.47168e-06 0.000659293
0.000620225 0.000230727 -4.47192e-06
0.000230727 4.39259e-05 5.33985e-07
-4.47192e-06 5.33985e-07 -0.000187759
0.000295416 0.000228771 2.70037e-07
0.000228771 -5.82665e-05 -1.83354e-06
2.70037e-07 -1.83354e-06 -0.000336842
0.000716987 0.000220266 -7.84043e-07
0.000220266 0.000240322 1.30108e-08
-7.84043e-07 1.30108e-08 -3.12978e-05
0.00101768 0.000139418 -3.01198e-07
0.000139418 0.000485096 7.81496e-08
-3.01198e-07 7.81496e-08 0.000174937
0.00116782 0.00016318 -2.01362e-06
0.00016318 0.000492507 -1.11848e-05
-2.01362e-06 -1.11848e-05 0.000278685
0.000552528 6.7993e-05 -1.01786e-05
6.7993e-05 6.2491e-05 -1.69046e-05
-1.01786e-05 -1.69046e-05 -2.7843e-06
0.000643063 0.000118157 -3.16058e-07
0.000118157 0.000154451 2.47003e-07
-3.16058e-07 2.47003e-07 -1.88475e-05
-0.0010116 4.34068e-06 -8.09521e-06
4.34068e-06 -0.000803303 1.20213e-05
-8.09521e-06 1.20213e-05 -0.00107716
0.00327353 -9.95017e-05 -7.42141e-05
-9.95017e-05 0.00182394 -7.78817e-06
-7.42141e-05 -7.78817e-06 0.00182673
0.000313157 3.12881e-05 1.44052e-06
3.12881e-05 -8.42064e-05 -3.54098e-07
1.44052e-06 -3.54098e-07 -0.000136123
0.000641982 9.02321e-05 -3.57622e-06
9.02321e-05 0.000149211 1.02624e-05
-3.57622e-06 1.02624e-05 8.88957e-06
0.00293662 -9.19717e-05 -8.90851e-06
-9.19717e-05 0.00159837 8.16583e-07
-8.90851e-06 8.16583e-07 0.00160186
0.000281704 -1.04807e-05 -1.15327e-06
-1.04807e-05 -0.000108992 1.01697e-05
-1.15327e-06 1.01697e-05 -0.000150658
0.00266415 -7.14846e-05 3.05276e-05
-7.14846e-05 0.00141454 5.9451e-06
3.05276e-05 5.9451e-06 0.00142182
0.00250871 -0.000487519 -0.00146466
-0.000487519 0.00448062 -7.37625e-05
-0.00146466 -7.37625e-05 0.00193419
-0.00484416 -0.000275179 -4.22651e-06
-0.000275179 0.00667902 -3.29494e-05
-4.22651e-06 -3.29494e-05 -0.00180991
0.00659297 0.000542586 -0.000458722
0.000542586 0.00407166 -0.000123561
-0.000458722 -0.000123561 0.00112097
0.000206846 0.000139332 5.41203e-06
0.000139332 -0.000191293 1.72586e-06
5.41203e-06 1.72586e-06 -0.000474492
0.000156623 0.000159679 7.66404e-06
0.000159679 -0.000107737 3.29628e-06
7.66404e-06 3.29628e-06 -0.00050601
0.00287716 0.000787677 -4.31059e-06
0.000787677 0.0014955 1.47317e-06
-4.31059e-06 1.47317e-06 0.00101153
0.00241769 0.00095816 2.10494e-05
0.00095816 0.00105233 1.3501e-05
2.10494e-05 1.3501e-05 0.000449267
0.0010756 0.000680344 6.66099e-06
0.000680344 0.000595814 1.42368e-05
6.66099e-06 1.42368e-05 6.56641e-05
0.0027401 0.000368308 -4.77718e-06
0.000368308 0.00165644 5.47792e-06
-4.77718e-06 5.47792e-06 0.00135552
0.00255654 0.0003667 1.55816e-05
0.0003667 0.00144288 8.25362e-06
1.55816e-05 8.25362e-06 0.00110166
0.00146055 0.000728291 -3.90022e-06
0.000728291 0.000783189 2.15993e-06
-3.90022e-06 2.15993e-06 0.000237268
0.000972901 0.000988854 1.27693e-05
0.000988854 4.77765e-05 -4.63876e-06
1.27693e-05 -4.63876e-06 -0.000428097
0.00273932 0.00114479 -5.44022e-06
0.00114479 0.00106737 3.40526e-05
-5.44022e-06 3.40526e-05 0.000740866
0.00161135 0.00121438 3.40202e-05
0.00121438 0.000102782 1.15241e-05
3.40202e-05 1.15241e-05 -0.000130273
0.00123195 0.000846251 8.13693e-06
0.000846251 0.000396343 8.22964e-07
8.13693e-06 8.22964e-07 6.83661e-05
0.00173408 0.000633379 -1.30227e-08
0.000633379 0.00106611 1.97189e-05
-1.30227e-08 1.97189e-05 0.000519758
0.0160623 0.00423903 -0.000152504
0.00423903 0.00137545 5.17681e-05
-0.000152504 5.17681e-05 0.000792161
0.00727314 -0.00345055 -0.000819623
-0.00345055 0.00529545 -0.000255155
-0.000819623 -0.000255155 0.000919074
0.00308388 -0.00633321 0.00137488
-0.00633321 0.0108312 0.000263359
0.00137488 0.000263359 0.00266105
0.0164721 -0.00359887 0.000583787
-0.00359887 0.0066248 0.000257272
0.000583787 0.000257272 0.000142641
0.0121997 0.00720402 -0.000162202
0.00720402 0.00442264 -6.47091e-05
-0.000162202 -6.47091e-05 0.000129513
-0.00230745 0.000685168 -6.59203e-06
0.000685168 0.00107592 -8.3067e-06
-6.59203e-06 -8.3067e-06 0.00019379
0.00189705 0.00277489 -9.72693e-05
0.00277489 0.000558947 -4.20359e-05
-9.72693e-05 -4.20359e-05 0.00157886
0.014457 0.00741863 1.62539e-05
0.00741863 0.00127108 4.3241e-05
1.62539e-05 4.3241e-05 -0.00120547
0.00727018 0.00523094 -0.000169001
0.00523094 -0.000687476 -0.000141009
-0.000169001 -0.000141009 0.000421034
0.00163032 0.00156942 1.07203e-05
0.00156942 0.00010735 -5.4935e-06
1.07203e-05 -5.4935e-06 -0.000279763
0.00158394 0.00121634 1.41909e-05
0.00121634 0.000447538 -2.93198e-06
1.41909e-05 -2.93198e-06 6.338e-05
0.00224393 0.000808383 -3.98795e-05
0.000808383 0.00107719 -1.39305e-05
-3.98795e-05 -1.39305e-05 0.00087974
0.00203559 0.00222017 -8.48679e-05
0.00222017 0.000461187 -3.63464e-05
-8.48679e-05 -3.63464e-05 -0.000689292
0.00180408 0.00257327 0.00011184
0.00257327 -0.000638916 5.88758e-05
0.00011184 5.88758e-05 -0.00135285
0.00488564 -0.000337221 -0.000142451
-0.000337221 -0.00571426 3.89196e-05
-0.000142451 3.89196e-05 -0.00618181
5.52532e-05 -0.00243829 1.37995e-05
-0.00243829 0.00349765 5.52e-05
1.37995e-05 5.52e-05 0.0012351
-0.0141981 -0.000445215 0.000559148
-0.000445215 0.00771838 -1.30689e-05
0.000559148 -1.30689e-05 0.0016305
0.0023342 -0.00322021 -0.000105159
-0.00322021 0.00031215 4.7984e-05
-0.000105159 4.7984e-05 -0.0008881
0.00666852 -0.00480137 2.1285e-05
-0.00480137 -0.000157526 7.00659e-05
2.1285e-05 7.00659e-05 0.00114296
0.00499834 0.000737911 0.00151737
0.000737911 0.00519167 -0.000354689
0.00151737 -0.000354689 0.00252104
0.0156199 -0.00381492 -0.000419327
-0.00381492 0.000582758 0.000239069
-0.000419327 0.000239069 0.000721483
0.00199143 -0.0020718 -2.94769e-05
-0.0020718 -0.000208811 8.20779e-06
-2.94769e-05 8.20779e-06 -0.000563288
0.0125515 -0.000379375 -0.000292534
-0.000379375 -0.00240791 9.96876e-05
-0.000292534 9.96876e-05 -0.00265785
0.00733904 -0.00302854 0.000101398
-0.00302854 -0.00124571 1.06258e-05
0.000101398 1.06258e-05 0.000503915
0.00366378 -0.00171761 6.42432e-05
-0.00171761 -0.000119574 -4.57494e-05
6.42432e-05 -4.57494e-05 -7.05043e-05
0.00275471 -0.00119023 4.18175e-05
-0.00119023 -0.00320856 -3.2052e-06
4.18175e-05 -3.2052e-06 -0.000834303
-0.00151419 -0.000702459 -1.07891e-05
-0.000702459 -0.00160674 2.47975e-05
-1.07891e-05 2.47975e-05 -0.00171326
0.00140414 -0.00098245 -2.1475e-05
-0.00098245 -0.00044815 4.1926e-06
-2.1475e-05 4.1926e-06 -0.000465615
0.00386786 -0.00098989 4.37054e-05
-0.00098989 0.000660596 -1.58251e-05
4.37054e-05 -1.58251e-05 0.000737036
0.00225773 -0.00121146 -1.5555e-05
-0.00121146 0.000261913 8.17703e-06
-1.5555e-05 8.17703e-06 -0.000204598
0.00260287 -0.00101142 -4.5272e-06
-0.00101142 0.000129419 2.21811e-06
-4.5272e-06 2.21811e-06 -9.11178e-05
0.0027065 -0.000796133 7.41771e-06
-0.000796133 -1.76725e-06 -7.20084e-07
7.41771e-06 -7.20084e-07 1.14696e-06
0.00227955 -0.00094116 -4.26027e-06
-0.00094116 0.00015454 8.5034e-06
-4.26027e-06 8.5034e-06 -0.000184006
0.00232801 -0.000695587 4.62791e-08
-0.000695587 -2.48415e-05 1.25422e-06
4.62791e-08 1.25422e-06 -0.000117789
0.00249691 -0.000697153 5.67545e-07
-0.000697153 4.26706e-05 3.0356e-08
5.67545e-07 3.0356e-08 1.96856e-05
0.00206905 -0.000629614 2.51462e-06
-0.000629614 -1.279e-05 5.29158e-06
2.51462e-06 5.29158e-06 -0.000214354
0.00229809 -0.000654181 -1.14433e-09
-0.000654181 7.87548e-05 8.12309e-07
-1.14433e-09 8.12309e-07 -4.55776e-05
0.00245674 -0.000686023 -9.05391e-07
-0.000686023 0.000117147 1.59954e-06
-9.05391e-07 1.59954e-06 2.0844e-05
0.00225759 -0.000640649 -4.88588e-06
-0.000640649 0.000136257 1.06092e-06
-4.88588e-06 1.06092e-06 -1.76799e-05
0.00225917 -0.000611372 -6.47308e-07
-0.000611372 0.000194226 9.52773e-08
-6.47308e-07 9.52773e-08 2.22648e-05
0.00229346 -0.000601292 -1.79758e-07
-0.000601292 0.000200373 3.5053e-06
-1.79758e-07 3.5053e-06 1.78951e-05
0.00227158 -0.00058644 9.28372e-07
-0.00058644 0.000274077 -4.92989e-07
9.28372e-07 -4.92989e-07 6.13742e-05
0.00218499 -0.000600069 -2.85027e-06
-0.000600069 0.000234399 -1.31611e-06
-2.85027e-06 -1.31611e-06 1.19448e-06
0.00228903 -0.000657584 -3.01391e-06
-0.000657584 0.000356555 -5.56645e-06
-3.01391e-06 -5.56645e-06 4.79368e-05
0.00232026 -0.000674157 -6.27359e-07
-0.000674157 0.000306146 1.67519e-07
-6.27359e-07 1.67519e-07 1.2861e-05
0.0023696 -0.000655445 7.2066e-06
-0.000655445 0.000315541 4.79484e-06
7.2066e-06 4.79484e-06 4.02531e-05
0.00188347 -0.000705819 -8.21296e-06
-0.000705819 0.000293519 -1.19925e-06
-8.21296e-06 -1.19925e-06 -0.000129392
0.00210292 -0.000786767 -1.66961e-06
-0.000786767 0.000326762 -8.41994e-07
-1.66961e-06 -8.41994e-07 -9.25235e-05
0.00184577 -0.000801598 4.08157e-06
-0.000801598 7.74228e-05 3.92031e-06
4.08157e-06 3.92031e-06 -0.000335683
0.00107044 -0.000367231 -1.52998e-05
-0.000367231 0.000137982 9.02906e-06
-1.52998e-05 9.02906e-06 -0.000160523
0.00176257 -0.000720204 5.38596e-07
-0.000720204 0.000405645 1.11319e-06
5.38596e-07 1.11319e-06 -5.73572e-05
0.00231198 -0.000934987 -2.48358e-09
-0.000934987 0.000646782 4.85742e-06
-2.48358e-09 4.85742e-06 0.000119052
0.00013287 -0.000213619 -1.76693e-05
-0.000213619 -0.000283477 2.30216e-05
-1.76693e-05 2.30216e-05 -0.000436703
0.000689562 -0.000300253 1.60134e-06
-0.000300253 2.64417e-05 3.21484e-07
1.60134e-06 3.21484e-07 -0.000246761
0.000910777 -0.000519611 6.54298e-06
-0.000519611 3.96942e-05 -7.71085e-07
6.54298e-06 -7.71085e-07 -0.000360336
0.00626185 0.000120203 -0.000205846
0.000120203 0.00375455 1.41241e-05
-0.000205846 1.41241e-05 0.00374818
0.000464587 -0.000209402 -8.60863e-06
-0.000209402 -7.44316e-05 -1.33866e-06
-8.60863e-06 -1.33866e-06 -0.000196999
0.000394718 -0.0002557 4.31542e-06
-0.0002557 -6.31874e-05 -5.43683e-06
4.31542e-06 -5.43683e-06 -0.000338583
0.00559255 0.00016479 1.3066e-05
0.00016479 0.00335035 -1.60058e-06
1.3066e-05 -1.60058e-06 0.00333256
0.00053448 -0.000173521 3.09912e-05
-0.000173521 -1.04954e-05 -1.53121e-05
3.09912e-05 -1.53121e-05 -0.000118833
0.00492159 0.00013929 0.000156892
0.00013929 0.00290808 -1.31056e-05
0.000156892 -1.31056e-05 0.00289893
0.00284955 0.0008871 2.35565e-06
0.0008871 0.00131731 7.29538e-06
2.35565e-06 7.29538e-06 0.000770965
0.000994742 0.000410681 -2.88735e-06
0.000410681 0.000212723 -1.79412e-07
-2.88735e-06 -1.79412e-07 -0.00010848
0.000809607 0.000256516 6.85971e-06
0.000256516 0.000146115 -1.86323e-06
6.85971e-06 -1.86323e-06 -0.0001015
-0.000878034 9.3928e-05 -1.11351e-06
9.3928e-05 -0.000896692 -6.66002e-06
-1.11351e-06 -6.66002e-06 -0.00112198
0.000225609 0.000228043 3.49096e-06
0.000228043 -0.000145665 4.40826e-07
3.49096e-06 4.40826e-07 -0.000389306
0.000848888 0.000276011 -6.67821e-06
0.000276011 0.000234426 -8.02156e-06
-6.67821e-06 -8.02156e-06 1.05209e-05
-0.000104784 7.90401e-05 -3.60674e-06
7.90401e-05 -0.000232489 2.80542e-06
-3.60674e-06 2.80542e-06 -0.000540236
0.000718933 0.000148319 8.75757e-07
0.000148319 0.000220141 7.01575e-07
8.75757e-07 7.01575e-07 -5.20654e-07
0.000735678 9.8876e-05 -1.64623e-05
9.8876e-05 0.0001711 -1.92057e-05
-1.64623e-05 -1.92057e-05 8.56045e-05
0.00371481 -0.000111833 -0.000100425
-0.000111833 0.00212039 -1.11108e-05
-0.000100425 -1.11108e-05 0.00211953
0.000437154 3.92404e-05 2.29882e-06
3.92404e-05 -1.31355e-06 -4.36125e-07
2.29882e-06 -4.36125e-07 -6.72493e-05
0.000203041 6.98686e-05 -3.02192e-06
6.98686e-05 -0.000111793 1.1822e-05
-3.02192e-06 1.1822e-05 -0.000286022
0.00316545 -0.00011465 -1.13245e-05
-0.00011465 0.00175607 1.12194e-06
-1.13245e-05 1.12194e-06 0.00175428
0.00028939 -6.63732e-05 -1.03766e-05
-6.63732e-05 -8.71353e-05 1.40203e-05
-1.03766e-05 1.40203e-05 -0.000145391
0.00284095 -9.17146e-05 3.86812e-05
-9.17146e-05 0.00153711 6.18169e-06
3.86812e-05 6.18169e-06 0.00154011
0.0161202 0.000854653 0.000661782
0.000854653 0.00110575 0.000151426
0.000661782 0.000151426 0.00145129
0.0010717 -0.00451674 -0.000864276
-0.00451674 -0.00127859 -9.25551e-05
-0.000864276 -9.25551e-05 -0.00551859
-0.00860654 0.00170276 -0.000281437
0.00170276 0.00632553 -0.000125223
-0.000281437 -0.000125223 -0.00194615
-0.00015227 7.929e-05 1.19567e-05
7.929e-05 -0.000298236 -2.73916e-05
1.19567e-05 -2.73916e-05 -0.000727921
0.000915746 0.000546905 -6.57826e-06
0.000546905 0.000284469 -5.91074e-06
-6.57826e-06 -5.91074e-06 -0.000164918
0.00254851 0.000822954 -1.21743e-05
0.000822954 0.00140185 -5.05914e-06
-1.21743e-05 -5.05914e-06 0.000837585
0.00123513 0.000797587 6.22667e-07
0.000797587 0.000336547 -6.00692e-07
6.22667e-07 -6.00692e-07 -0.000226397
0.00180367 0.00090583 1.77048e-05
0.00090583 0.000410465 2.33445e-05
1.77048e-05 2.33445e-05 -0.000114765
-0.000456749 0.000707453 3.40724e-05
0.000707453 -0.000742373 1.21845e-05
3.40724e-05 1.21845e-05 -0.00120053
0.00153905 0.000648512 -1.17637e-05
0.000648512 0.000871133 3.66273e-06
-1.17637e-05 3.66273e-06 0.000342257
0.000403651 0.000889689 7.64991e-06
0.000889689 -0.000293124 2.74253e-06
7.64991e-06 2.74253e-06 -0.000739841
0.00219118 0.00105525 2.29162e-05
0.00105525 0.000809984 4.03824e-06
2.29162e-05 4.03824e-06 0.000431095
0.00100101 0.000909031 8.79202e-06
0.000909031 -6.11425e-05 -4.41009e-07
8.79202e-06 -4.41009e-07 -0.000456302
0.00297797 0.00124702 7.86141e-06
0.00124702 0.000861766 8.76756e-06
7.86141e-06 8.76756e-06 0.000608552
0.00263282 0.00133201 2.1786e-05
0.00133201 0.000682809 9.44349e-06
2.1786e-05 9.44349e-06 0.000227692
0.00115078 0.00114469 1.04883e-05
0.00114469 -0.000146665 -1.81824e-06
1.04883e-05 -1.81824e-06 -0.000332737
0.00195392 0.000846227 -2.28466e-05
0.000846227 0.000819948 -8.10034e-05
-2.28466e-05 -8.10034e-05 0.000489111
0.00399152 0.00253087 3.25222e-05
0.00253087 -0.00339671 4.94676e-05
3.25222e-05 4.94676e-05 -0.00065149
0.0133208 0.00499143 0.000375481
0.00499143 -0.00104471 0.000219964
0.000375481 0.000219964 -0.00203631
0.0156203 -0.00672571 0.000941199
-0.00672571 0.0077078 -0.000108212
0.000941199 -0.000108212 0.00199339
0.00565363 0.00794016 0.000867729
0.00794016 -0.00185939 0.000428451
0.000867729 0.000428451 -0.00548592
-0.000782876 0.00186906 -4.02752e-05
0.00186906 2.14816e-05 2.3566e-05
-4.02752e-05 2.3566e-05 0.000683065
0.00356476 0.00324168 -9.31766e-05
0.00324168 -0.00124094 -6.04296e-05
-9.31766e-05 -6.04296e-05 0.00040643
0.00688321 0.00293467 5.35787e-05
0.00293467 0.00105266 3.30208e-05
5.35787e-05 3.30208e-05 0.000859734
0.0056403 0.00224 2.43737e-05
0.00224 0.00191901 1.13195e-05
2.43737e-05 1.13195e-05 0.00136333
0.000740625 0.00106255 -3.8219e-05
0.00106255 -1.77519e-05 4.40536e-06
-3.8219e-05 4.40536e-06 -0.000331375
0.00891662 0.00357869 -0.000213472
0.00357869 0.00267284 -1.05762e-05
-0.000213472 -1.05762e-05 0.00162946
0.0045675 -0.000910944 -7.43159e-06
-0.000910944 -0.00150612 2.9137e-05
-7.43159e-06 2.9137e-05 0.000196173
0.0119895 -0.000623875 -6.57461e-05
-0.000623875 -0.000333578 -4.11118e-05
-6.57461e-05 -4.11118e-05 0.000415041
-0.0129786 -0.00408283 0.00118414
-0.00408283 -0.00377255 -1.40118e-05
0.00118414 -1.40118e-05 -0.0068377
0.00151028 -0.00184959 -0.000147977
-0.00184959 -0.000332083 4.56255e-05
-0.000147977 4.56255e-05 -0.000589959
0.00825976 -0.00361476 -6.48781e-05
-0.00361476 -0.00154945 0.000109862
-6.48781e-05 0.000109862 0.000446053
0.00203684 -0.000424683 -0.000423887
-0.000424683 -0.00697003 2.35317e-05
-0.000423887 2.35317e-05 -0.00747236
0.00351738 -0.00154076 4.24562e-05
-0.00154076 -0.000189803 6.63326e-07
4.24562e-05 6.63326e-07 0.000165994
0.00530236 -0.00119313 -7.55761e-05
-0.00119313 -0.00152065 -1.7027e-06
-7.55761e-05 -1.7027e-06 0.000230987
0.00725345 -0.00125814 6.7941e-05
-0.00125814 0.00179099 -4.18505e-05
6.7941e-05 -4.18505e-05 0.00228215
0.006155 -0.000751857 0.000132898
-0.000751857 0.000788439 1.74218e-06
0.000132898 1.74218e-06 0.00158044
-0.00203008 -0.00065204 1.00621e-05
-0.00065204 -0.00246825 1.30973e-05
1.00621e-05 1.30973e-05 -0.00218832
0.0022413 -0.00084343 -9.46954e-06
-0.00084343 -0.000292455 3.31754e-06
-9.46954e-06 3.31754e-06 -6.91899e-05
0.00253565 -0.000631506 2.78409e-05
-0.000631506 -0.000315659 -7.12259e-06
2.78409e-05 -7.12259e-06 2.87022e-05
0.00222587 -0.000987209 -4.99525e-06
-0.000987209 -8.49079e-05 3.69377e-06
-4.99525e-06 3.69377e-06 -0.000307997
0.00264004 -0.000788214 9.7245e-07
-0.000788214 -3.22901e-05 1.59324e-06
9.7245e-07 1.59324e-06 -2.79889e-05
0.00265232 -0.000682438 1.65632e-06
-0.000682438 -8.30578e-06 -4.87573e-07
1.65632e-06 -4.87573e-07 1.69739e-05
0.00226368 -0.000694077 1.13798e-06
-0.000694077 -6.87724e-05 4.29264e-06
1.13798e-06 4.29264e-06 -0.000163389
0.00246389 -0.000693474 1.84323e-07
-0.000693474 3.6839e-05 4.56869e-07
1.84323e-07 4.56869e-07 4.44071e-06
0.00243659 -0.000600539 -1.0884e-06
-0.000600539 1.55305e-05 -3.41082e-07
-1.0884e-06 -3.41082e-07 -2.23378e-05
0.00224787 -0.000648588 9.3688e-07
-0.000648588 5.01965e-05 1.40869e-07
9.3688e-07 1.40869e-07 -7.34714e-05
0.00245973 -0.000683737 -4.50137e-08
-0.000683737 0.000147951 -1.0303e-07
-4.50137e-08 -1.0303e-07 4.51008e-05
0.00233699 -0.000595261 1.25033e-06
-0.000595261 0.000123954 4.71447e-07
1.25033e-06 4.71447e-07 1.50816e-05
0.00225687 -0.000647886 -3.34204e-06
-0.000647886 0.000125583 -2.93118e-07
-3.34204e-06 -2.93118e-07 -2.19251e-05
0.00221654 -0.000606957 -1.64261e-06
-0.000606957 0.000164954 -1.08792e-08
-1.64261e-06 -1.08792e-08 -4.21693e-06
0.0023447 -0.000590131 -2.19901e-06
-0.000590131 0.000296661 5.67275e-07
-2.19901e-06 5.67275e-07 9.76553e-05
0.00227112 -0.000582389 3.11865e-06
-0.000582389 0.000272171 1.31327e-06
3.11865e-06 1.31327e-06 6.03282e-05
0.00220306 -0.000598556 -2.97056e-07
-0.000598556 0.000242338 1.06231e-07
-2.97056e-07 1.06231e-07 1.01519e-05
0.00223491 -0.000598719 -6.4873e-07
-0.000598719 0.000292715 -2.2303e-06
-6.4873e-07 -2.2303e-06 3.56139e-05
0.00198422 -0.000597027 -6.09743e-06
-0.000597027 0.000268511 -2.65101e-06
-6.09743e-06 -2.65101e-06 -6.36928e-05
0.00218438 -0.000655275 -3.60657e-07
-0.000655275 0.000286667 -1.6092e-06
-3.60657e-07 -1.6092e-06 -2.90701e-05
0.00238359 -0.000683906 4.52641e-06
-0.000683906 0.000349928 3.54364e-06
4.52641e-06 3.54364e-06 5.3216e-05
0.00121054 -0.000430369 -2.1619e-05
-0.000430369 8.77723e-05 8.25825e-06
-2.1619e-05 8.25825e-06 -0.000227127
0.00199482 -0.000709043 -1.18099e-06
-0.000709043 0.000376503 5.54177e-07
-1.18099e-06 5.54177e-07 -4.452e-05
0.00204842 -0.000784969 4.08643e-07
-0.000784969 0.000285679 3.60193e-06
4.08643e-07 3.60193e-06 -0.000137716
0.000260363 -0.000232657 -1.86697e-05
-0.000232657 -0.000241777 2.44072e-05
-1.86697e-05 2.44072e-05 -0.000406014
0.000840502 -0.000362672 3.49632e-06
-0.000362672 -1.07771e-05 3.1624e-07
3.49632e-06 3.1624e-07 -0.000314094
0.00185042 -0.000724487 8.64275e-06
-0.000724487 0.000471174 1.27119e-06
8.64275e-06 1.27119e-06 9.3549e-06
0.00722768 2.76813e-05 -0.000280739
2.76813e-05 0.0043371 2.1283e-05
-0.000280739 2.1283e-05 0.00434521
0.000334937 -0.000237567 -2.09531e-06
-0.000237567 -0.000159684 -2.51806e-07
-2.09531e-06 -2.51806e-07 -0.000315573
0.000356934 -0.000289983 8.13698e-06
-0.000289983 -0.000186242 -7.0881e-06
8.13698e-06 -7.0881e-06 -0.000464648
0.0065671 8.40155e-05 -1.17292e-05
8.40155e-05 0.00395334 -2.47241e-06
-1.17292e-05 -2.47241e-06 0.00394769
0.000492795 -0.00022272 2.4392e-05
-0.00022272 -5.52257e-05 -1.98829e-05
2.4392e-05 -1.98829e-05 -0.000181447
0.00598045 0.000139126 0.000205914
0.000139126 0.00361234 -2.61238e-05
0.000205914 -2.61238e-05 0.00359283
0.00206463 0.000847882 -9.15299e-06
0.000847882 0.000605745 9.87487e-06
-9.15299e-06 9.87487e-06 9.52509e-05
0.00193651 0.000767579 -1.3135e-06
0.000767579 0.000716518 -5.62844e-07
-1.3135e-06 -5.62844e-07 0.000208757
0.00129516 0.000512423 -4.89796e-06
0.000512423 0.000358372 2.87463e-06
-4.89796e-06 2.87463e-06 -2.87427e-05
0.000799434 0.000436725 1.9427e-07
0.000436725 0.000122979 -3.09432e-06
1.9427e-07 -3.09432e-06 -0.000223431
0.000731795 0.000254087 -1.51804e-06
0.000254087 9.65431e-05 -1.96967e-06
-1.51804e-06 -1.96967e-06 -0.000159039
0.000493137 0.000230221 -4.59924e-06
0.000230221 -1.55878e-05 -3.58884e-06
-4.59924e-06 -3.58884e-06 -0.000275232
0.000735069 0.000144954 7.67047e-07
0.000144954 0.000177193 -1.00112e-07
7.67047e-07 -1.00112e-07 -5.2581e-05
0.00077147 0.000181834 1.99795e-06
0.000181834 0.000233614 -1.2753e-06
1.99795e-06 -1.2753e-06 -2.0852e-05
0.000653821 0.000140912 -2.46253e-05
0.000140912 8.70922e-05 -2.03219e-05
-2.46253e-05 -2.03219e-05 -1.72119e-05
3.56687e-05 0.000113704 -7.90427e-07
0.000113704 -0.000190374 1.25146e-05
-7.90427e-07 1.25146e-05 -0.000423087
0.000480897 9.68827e-05 -3.94222e-07
9.68827e-05 1.43478e-05 -3.46193e-07
-3.94222e-07 -3.46193e-07 -6.84672e-05
0.00444366 -0.000137457 -0.000129307
-0.000137457 0.00260793 -1.58125e-05
-0.000129307 -1.58125e-05 0.0025976
0.00369322 -0.000138723 -1.35616e-05
-0.000138723 0.00211148 1.30883e-06
-1.35616e-05 1.30883e-06 0.00210339
0.000299578 7.64026e-05 1.05776e-05
7.64026e-05 -8.78688e-05 1.71315e-05
1.05776e-05 1.71315e-05 -0.000150721
0.00314592 -0.000118204 4.6618e-05
-0.000118204 0.00174417 6.75132e-06
4.6618e-05 6.75132e-06 0.0017411
0.00282261 0.000385146 0.000111918
0.000385146 -0.00218217 3.62651e-05
0.000111918 3.62651e-05 -7.9013e-05
0.00591213 -0.000710066 0.000253995
-0.000710066 -0.00564952 0.000135477
0.000253995 0.000135477 -0.00628482
0.0157644 -0.00502397 -0.000311527
-0.00502397 0.00781596 -0.000133192
-0.000311527 -0.000133192 0.0037763
0.00176055 0.000812463 8.96693e-06
0.000812463 0.000159124 1.16976e-05
8.96693e-06 1.16976e-05 -0.000260574
0.00517158 0.00109289 -1.44037e-05
0.00109289 0.00286314 -1.048e-05
-1.44037e-05 -1.048e-05 0.00227881
0.000192854 0.000653708 -9.52912e-06
0.000653708 -0.000293662 -1.3269e-05
-9.52912e-06 -1.3269e-05 -0.000818928
0.00176751 0.000994091 1.47535e-06
0.000994091 0.000595812 -1.2377e-06
1.47535e-06 -1.2377e-06 6.32422e-05
0.00200433 0.00093001 -8.56043e-07
0.00093001 0.000558229 4.34337e-06
-8.56043e-07 4.34337e-06 2.12747e-05
0.00208623 0.00102818 2.86867e-05
0.00102818 0.000530527 1.81155e-05
2.86867e-05 1.81155e-05 4.93341e-05
0.00212319 0.00107492 -4.04737e-05
0.00107492 0.000746131 -3.90813e-06
-4.04737e-05 -3.90813e-06 0.000232282
0.00102705 0.000877114 6.3726e-06
0.000877114 0.00019212 -3.5588e-05
6.3726e-06 -3.5588e-05 -0.000174884
0.00203799 0.00113063 -9.75045e-08
0.00113063 0.000487751 -1.14971e-06
-9.75045e-08 -1.14971e-06 5.3112e-05
0.00170322 0.00110399 1.4732e-05
0.00110399 0.000107327 -2.59534e-05
1.4732e-05 -2.59534e-05 -1.7466e-05
0.00220914 0.00112052 2.318e-05
0.00112052 0.000338906 -2.99737e-06
2.318e-05 -2.99737e-06 -0.000109239
0.00215638 0.000963604 3.4053e-05
0.000963604 0.000318459 3.13727e-05
3.4053e-05 3.13727e-05 0.000109303
0.000891703 0.00108898 -9.61217e-06
0.00108898 -0.000247866 -7.6799e-06
-9.61217e-06 -7.6799e-06 -0.000602394
0.00105885 0.00109854 -3.25495e-05
0.00109854 -0.000141705 -1.85985e-05
-3.25495e-05 -1.85985e-05 -0.000327674
0.00245678 0.00119174 5.19049e-05
0.00119174 -0.00117533 4.2398e-05
5.19049e-05 4.2398e-05 -0.000333789
0.00633131 0.00275373 -0.000112414
0.00275373 -0.00221741 -3.82287e-05
-0.000112414 -3.82287e-05 0.000341087
0.00463834 0.00359233 0.000760151
0.00359233 -0.00658322 0.000214133
0.000760151 0.000214133 -0.00734294
0.00346994 0.00286628 -0.000276216
0.00286628 -0.000207335 -0.000121116
-0.000276216 -0.000121116 0.000976049
0.00545067 0.002421 -3.24545e-05
0.002421 0.000800792 -9.42723e-06
-3.24545e-05 -9.42723e-06 0.000733427
0.00676485 0.00244917 -0.00019841
0.00244917 0.00235226 -5.45041e-05
-0.00019841 -5.45041e-05 0.00174829
0.00326873 -0.000239522 -5.07888e-05
-0.000239522 -0.000749807 -2.29291e-05
-5.07888e-05 -2.29291e-05 -0.000149967
-0.000390671 -0.000570951 0.000128085
-0.000570951 -0.00218395 3.16405e-05
0.000128085 3.16405e-05 -0.000397182
0.00618698 0.000426912 0.000309206
0.000426912 -0.00593307 -1.36358e-05
0.000309206 -1.36358e-05 -0.00613355
0.00142044 -0.00122821 -7.37529e-05
-0.00122821 -0.00119752 8.88949e-05
-7.37529e-05 8.88949e-05 -0.000630675
0.00681746 -0.00128668 -0.00021373
-0.00128668 -0.000799404 5.65976e-05
-0.00021373 5.65976e-05 0.000496552
0.00320673 -0.000956864 -3.07149e-05
-0.000956864 -0.000575604 1.17997e-05
-3.07149e-05 1.17997e-05 0.00012803
0.00460151 -0.000697709 -2.02083e-05
-0.000697709 5.77505e-05 -1.90848e-07
-2.02083e-05 -1.90848e-07 0.000683841
0.00453551 -0.000518591 9.34578e-05
-0.000518591 0.000839583 -1.53381e-05
9.34578e-05 -1.53381e-05 0.00118915
0.00276876 -0.000110725 4.54603e-05
-0.000110725 0.000143935 3.84197e-07
4.54603e-05 3.84197e-07 0.00027199
0.000512492 -0.000666606 -2.06159e-05
-0.000666606 -0.00125345 1.23443e-05
-2.06159e-05 1.23443e-05 -0.000892029
0.0024982 -0.000659588 -3.19977e-06
-0.000659588 -0.000332104 6.16903e-07
-3.19977e-06 6.16903e-07 -2.29873e-05
0.00261933 -0.0005121 3.97235e-06
-0.0005121 -0.000246573 -3.89097e-07
3.97235e-06 -3.89097e-07 1.63842e-05
0.00256995 -0.000775409 -4.01739e-06
-0.000775409 -5.87943e-05 2.71701e-06
-4.01739e-06 2.71701e-06 -5.08241e-05
0.00265221 -0.000660129 -1.49412e-07
-0.000660129 2.2086e-05 -5.21561e-07
-1.49412e-07 -5.21561e-07 5.81575e-05
0.00247562 -0.000500929 -9.13765e-07
-0.000500929 -8.16255e-05 -3.15474e-07
-9.13765e-07 -3.15474e-07 -2.33178e-05
0.00243079 -0.000687701 -1.31418e-06
-0.000687701 3.34583e-05 5.73422e-07
-1.31418e-06 5.73422e-07 -6.77802e-06
0.0024365 -0.000604055 -6.76307e-07
-0.000604055 2.85316e-05 4.03433e-08
-6.76307e-07 4.03433e-08 -6.66795e-06
0.00232753 -0.000502557 4.03707e-08
-0.000502557 4.41106e-05 1.09209e-07
4.03707e-08 1.09209e-07 -7.04218e-06
0.00246346 -0.00068044 -1.01974e-06
-0.00068044 0.000180163 -1.32504e-06
-1.01974e-06 -1.32504e-06 7.12388e-05
0.00232642 -0.00059554 1.06626e-06
-0.00059554 0.000115075 -1.69925e-07
1.06626e-06 -1.69925e-07 5.93301e-06
0.00223091 -0.000532832 -1.10366e-06
-0.000532832 0.000139191 3.70359e-07
-1.10366e-06 3.70359e-07 5.93915e-07
0.00217913 -0.000603425 -2.40482e-06
-0.000603425 0.000139478 2.22122e-07
-2.40482e-06 2.22122e-07 -2.68038e-05
0.00227668 -0.000584659 -1.21502e-06
-0.000584659 0.000245226 6.2695e-07
-1.21502e-06 6.2695e-07 4.906e-05
0.002347 -0.000572595 -1.30569e-06
-0.000572595 0.000319183 -1.677e-06
-1.30569e-06 -1.677e-06 0.000101909
0.00221761 -0.000597213 2.65477e-06
-0.000597213 0.000247589 2.2144e-06
2.65477e-06 2.2144e-06 1.62801e-05
0.00222888 -0.000599451 -1.3846e-07
-0.000599451 0.000287912 -3.17014e-08
-1.3846e-07 -3.17014e-08 3.29665e-05
0.00211432 -0.000540203 -4.54939e-06
-0.000540203 0.000315221 -9.13584e-07
-4.54939e-06 -9.13584e-07 3.19218e-05
0.00128029 -0.000406573 -1.97413e-05
-0.000406573 4.10037e-05 7.55651e-06
-1.97413e-05 7.55651e-06 -0.000246813
0.00196795 -0.000595754 -5.4497e-07
-0.000595754 0.000262189 -1.10985e-06
-5.4497e-07 -1.10985e-06 -7.44023e-05
0.00208059 -0.000653263 1.38298e-06
-0.000653263 0.000217157 2.38315e-06
1.38298e-06 2.38315e-06 -0.000105814
0.000206539 -0.000249486 -2.18969e-05
-0.000249486 -0.000284489 2.05143e-05
-2.18969e-05 2.05143e-05 -0.000457987
0.00118403 -0.000426693 1.61729e-06
-0.000426693 7.45202e-05 -1.05321e-07
1.61729e-06 -1.05321e-07 -0.000239724
0.00210232 -0.000712611 6.26969e-06
-0.000712611 0.000455824 1.94101e-06
6.26969e-06 1.94101e-06 3.64813e-05
0.00809373 -2.05122e-05 -0.000329488
-2.05122e-05 0.00485674 2.78639e-05
-0.000329488 2.78639e-05 0.00486965
0.000232244 -0.000276275 -6.88616e-07
-0.000276275 -0.000247451 2.39121e-06
-6.88616e-07 2.39121e-06 -0.000424033
0.000637617 -0.000361589 1.56495e-05
-0.000361589 -0.000145908 -6.27928e-06
1.56495e-05 -6.27928e-06 -0.00045412
0.00754475 1.07525e-05 -7.79376e-06
1.07525e-05 0.00453958 4.50116e-07
-7.79376e-06 4.50116e-07 0.00454623
0.0006467 -0.000288243 2.45691e-05
-0.000288243 3.73021e-05 -2.52808e-05
2.45691e-05 -2.52808e-05 -0.000124988
0.00686138 7.72567e-05 0.000265766
7.72567e-05 0.00414964 -3.26766e-05
0.000265766 -3.26766e-05 0.00414099
0.00179354 0.000753523 -4.43437e-06
0.000753523 0.000248582 1.0012e-05
-4.43437e-06 1.0012e-05 -0.000177976
0.00196412 0.000835783 -1.72077e-06
0.000835783 0.000539207 1.0279e-06
-1.72077e-06 1.0279e-06 3.08676e-05
0.00153978 0.000636905 -9.0104e-06
0.000636905 0.000326195 5.11673e-06
-9.0104e-06 5.11673e-06 -0.000103382
0.000976322 0.000643512 -3.58643e-06
0.000643512 8.02126e-05 -6.06489e-06
-3.58643e-06 -6.06489e-06 -0.000388172
0.00146414 0.000504449 -3.85607e-06
0.000504449 0.000425793 -2.06322e-06
-3.85607e-06 -2.06322e-06 4.69899e-05
0.000709253 0.000276123 -1.28987e-05
0.000276123 6.20407e-05 -1.86022e-06
-1.28987e-05 -1.86022e-06 -0.00020849
0.000692759 0.000227903 -1.17819e-07
0.000227903 4.00724e-05 -5.38142e-06
-1.17819e-07 -5.38142e-06 -0.000211371
0.000623657 0.000230844 2.4578e-06
0.000230844 3.74326e-05 -5.26069e-07
2.4578e-06 -5.26069e-07 -0.000196354
0.000371389 0.000191734 -3.13113e-05
0.000191734 -0.000130381 -1.98645e-05
-3.13113e-05 -1.98645e-05 -0.000240123
0.000681115 0.000164269 1.90886e-06
0.000164269 0.000162091 8.77735e-06
1.90886e-06 8.77735e-06 -8.19835e-05
0.000560391 0.000132639 -1.21647e-06
0.000132639 3.43767e-05 -4.3146e-07
-1.21647e-06 -4.3146e-07 -6.46529e-05
0.00552603 -0.000167986 -0.000174045
-0.000167986 0.00332519 -2.0946e-05
-0.000174045 -2.0946e-05 0.00330288
0.000233425 9.88201e-05 1.63204e-05
9.88201e-05 -0.0001377 1.93934e-05
1.63204e-05 1.93934e-05 -0.000216565
0.00421051 -0.000163702 -1.37069e-05
-0.000163702 0.00246484 1.58292e-06
-1.37069e-05 1.58292e-06 0.00244752
0.00350163 -0.000149373 5.80794e-05
-0.000149373 0.00198875 8.11229e-06
5.80794e-05 8.11229e-06 0.00197688
0.00103809 0.000335927 7.79846e-06
0.000335927 -0.00207514 1.25335e-05
7.79846e-06 1.25335e-05 -0.000964314
0.00494587 0.00026971 7.29289e-05
0.00026971 -0.00149272 3.13272e-05
7.29289e-05 3.13272e-05 0.000580915
0.0165709 0.000868342 2.87127e-05
0.000868342 0.00135019 7.46611e-05
2.87127e-05 7.46611e-05 0.00196945
0.00224064 0.000939383 3.07232e-06
0.000939383 0.000397861 7.3664e-06
3.07232e-06 7.3664e-06 -2.01641e-05
0.00230748 0.000857595 1.22676e-06
0.000857595 0.000287643 6.30886e-06
1.22676e-06 6.30886e-06 -6.84367e-05
0.00174767 0.000813307 -6.22688e-07
0.000813307 0.000159193 -4.56538e-06
-6.22688e-07 -4.56538e-06 -0.000256157
0.00335934 0.00120137 -1.7281e-05
0.00120137 0.00154091 -2.55242e-06
-1.7281e-05 -2.55242e-06 0.000959884
0.00221013 0.000951689 -9.88331e-06
0.000951689 0.00071162 -1.25707e-05
-9.88331e-06 -1.25707e-05 0.000163867
0.00225092 0.00108256 7.18287e-06
0.00108256 0.000578526 3.41628e-06
7.18287e-06 3.41628e-06 9.26128e-05
0.00240485 0.00105798 -3.57457e-06
0.00105798 0.0002446 -5.04609e-07
-3.57457e-06 -5.04609e-07 -0.000129627
0.00213917 0.00120167 -1.42193e-05
0.00120167 0.00047551 -2.39938e-06
-1.42193e-05 -2.39938e-06 3.35435e-05
0.000574653 0.000992177 -2.9164e-05
0.000992177 -0.000549751 7.19186e-05
-2.9164e-05 7.19186e-05 -0.000597538
0.0029211 0.00122018 4.62525e-07
0.00122018 0.000734248 -1.85391e-06
4.62525e-07 -1.85391e-06 0.00026248
0.0030031 0.00103264 -4.16551e-06
0.00103264 0.000450081 1.01231e-05
-4.16551e-06 1.01231e-05 0.000212426
0.00175885 0.000488287 5.60621e-05
0.000488287 -0.000130602 1.29933e-05
5.60621e-05 1.29933e-05 1.92434e-05
0.000390244 0.00078292 7.20904e-06
0.00078292 -0.000604749 -7.9699e-06
7.20904e-06 -7.9699e-06 -0.000791021
0.000701123 0.00104988 -4.15065e-05
0.00104988 -0.000344581 -6.87057e-06
-4.15065e-05 -6.87057e-06 -0.000685685
0.00380228 0.00133277 2.32637e-05
0.00133277 -0.000409289 1.22345e-05
2.32637e-05 1.22345e-05 0.000275587
0.00918599 0.00263744 -7.06476e-05
0.00263744 -0.000709698 -5.0995e-05
-7.06476e-05 -5.0995e-05 0.00129877
0.00537506 0.00205261 -7.06157e-05
0.00205261 0.00125681 -8.26656e-05
-7.06157e-05 -8.26656e-05 0.00127378
0.00303085 -7.45052e-05 6.26455e-05
-7.45052e-05 0.000224176 8.11889e-06
6.26455e-05 8.11889e-06 0.000502378
0.00337809 -0.000254696 -8.82608e-05
-0.000254696 -0.000744832 7.59852e-06
-8.82608e-05 7.59852e-06 3.09345e-05
0.00533083 0.000518169 5.85037e-06
0.000518169 -0.000130229 -1.94207e-05
5.85037e-06 -1.94207e-05 0.00114081
0.000600101 -0.000807583 -8.72615e-05
-0.000807583 -0.00211963 6.48378e-05
-8.72615e-05 6.48378e-05 -0.00129091
0.00305973 -0.000710028 -0.000107014
-0.000710028 -0.000662516 6.46847e-06
-0.000107014 6.46847e-06 -0.000194946
0.00314508 -0.000467928 1.29611e-06
-0.000467928 -3.66047e-05 -3.9923e-06
1.29611e-06 -3.9923e-06 0.000453863
0.00237188 -0.000105186 -1.38487e-05
-0.000105186 -0.00012384 -7.82399e-07
-1.38487e-05 -7.82399e-07 3.75795e-05
0.00257152 -0.000295181 1.00427e-05
-0.000295181 -0.000236038 1.60034e-07
1.00427e-05 1.60034e-07 1.55838e-05
0.00232675 6.32232e-05 5.01421e-06
6.32232e-05 -0.000369342 -8.24514e-09
5.01421e-06 -8.24514e-09 -0.000207833
0.00257283 -0.000696832 -2.13491e-05
-0.000696832 -0.000287454 5.21303e-06
-2.13491e-05 5.21303e-06 -1.75814e-05
0.00267271 -0.000537752 -2.79498e-06
-0.000537752 -0.000222646 7.0097e-07
-2.79498e-06 7.0097e-07 6.32274e-07
0.00254073 -0.000364921 -5.1675e-07
-0.000364921 -0.000157507 3.6368e-08
-5.1675e-07 3.6368e-08 3.44592e-07
0.002642 -0.000638015 -4.14701e-06
-0.000638015 4.15815e-05 7.2585e-07
-4.14701e-06 7.2585e-07 8.97028e-05
0.00249428 -0.000501808 2.57131e-07
-0.000501808 -5.79354e-05 -2.06613e-07
2.57131e-07 -2.06613e-07 -6.03856e-06
0.002366 -0.000409367 6.20097e-07
-0.000409367 -3.54249e-05 -3.54553e-08
6.20097e-07 -3.54553e-08 -8.82677e-06
0.00243595 -0.000607931 -1.41189e-06
-0.000607931 4.03405e-05 -2.0669e-08
-1.41189e-06 -2.0669e-08 7.51409e-06
0.00234123 -0.000501834 3.77478e-07
-0.000501834 4.76093e-05 -3.76457e-08
3.77478e-07 -3.76457e-08 -3.41123e-06
0.00225398 -0.000447976 -1.65558e-06
-0.000447976 7.98062e-05 5.96088e-07
-1.65558e-06 5.96088e-07 5.05212e-06
0.00232146 -0.000596455 1.4332e-06
-0.000596455 0.000109509 -8.3954e-07
1.4332e-06 -8.3954e-07 -2.68353e-08
0.00222873 -0.000533333 6.93993e-07
-0.000533333 0.000131987 -3.65836e-07
6.93993e-07 -3.65836e-07 -6.92205e-06
0.00223227 -0.000505273 -2.22444e-06
-0.000505273 0.000198078 -4.0112e-07
-2.22444e-06 -4.0112e-07 2.10265e-05
0.00220104 -0.000578823 -9.99678e-08
-0.000578823 0.000188536 4.43268e-07
-9.99678e-08 4.43268e-07 -4.72796e-06
0.00224751 -0.000567411 -8.27723e-08
-0.000567411 0.000254148 -1.40415e-07
-8.27723e-08 -1.40415e-07 3.69255e-05
0.00207754 -0.00050266 -3.70941e-06
-0.00050266 0.00023417 -7.8566e-07
-3.70941e-06 -7.8566e-07 -1.48481e-05
0.00222375 -0.000600178 1.12029e-06
-0.000600178 0.000283973 3.1018e-06
1.12029e-06 3.1018e-06 3.11949e-05
0.00212684 -0.000543905 -7.14695e-07
-0.000543905 0.000323074 -3.39122e-08
-7.14695e-07 -3.39122e-08 4.10305e-05
0.00131539 -0.000352446 -1.58432e-05
-0.000352446 3.33371e-05 6.89301e-06
-1.58432e-05 6.89301e-06 -0.000218988
0.000308624 -0.000235093 -1.93539e-05
-0.000235093 -0.000247572 1.99634e-05
-1.93539e-05 1.99634e-05 -0.000411329
0.00130008 -0.000405409 1.47807e-07
-0.000405409 5.85042e-05 7.4763e-08
1.47807e-07 7.4763e-08 -0.000227848
0.00194739 -0.000594084 4.50361e-06
-0.000594084 0.000253141 2.88305e-07
4.50361e-06 2.88305e-07 -8.77751e-05
0.00824241 -0.000117704 -0.000379783
-0.000117704 0.00492882 3.3861e-05
-0.000379783 3.3861e-05 0.00495172
0.000314515 -0.000259392 -1.34161e-06
-0.000259392 -0.000226459 1.16703e-06
-1.34161e-06 1.16703e-06 -0.00039747
0.00102861 -0.000413441 1.99334e-05
-0.000413441 -1.34729e-05 -6.95595e-06
1.99334e-05 -6.95595e-06 -0.000326004
0.00822113 -6.31379e-05 1.25354e-06
-6.31379e-05 0.00493572 1.36676e-06
1.25354e-06 1.36676e-06 0.00495172
0.000404555 -0.000292148 2.66653e-05
-0.000292148 -0.000144297 -2.34803e-05
2.66653e-05 -2.34803e-05 -0.000322262
0.00793151 -3.60129e-05 0.000342955
-3.60129e-05 0.00477553 -3.54243e-05
0.000342955 -3.54243e-05 0.00478672
0.00201732 0.000779335 1.18588e-06
0.000779335 0.000225504 9.96795e-06
1.18588e-06 9.96795e-06 -0.000148818
0.00188674 0.000769826 1.04301e-06
0.000769826 0.000313902 2.20079e-07
1.04301e-06 2.20079e-07 -0.000113696
0.0020004 0.000698655 -6.9361e-06
0.000698655 0.000460445 6.20127e-06
-6.9361e-06 6.20127e-06 4.31843e-05
0.00182257 0.000814803 6.09142e-06
0.000814803 0.000455778 -7.4663e-06
6.09142e-06 -7.4663e-06 -4.77229e-05
0.00158997 0.000640742 -5.37912e-07
0.000640742 0.000358985 8.62818e-07
-5.37912e-07 8.62818e-07 -7.27062e-05
0.000837093 0.000327554 -1.86863e-05
0.000327554 1.17804e-05 -3.06473e-06
-1.86863e-05 -3.06473e-06 -0.00026767
0.00171567 0.000496398 1.25228e-06
0.000496398 0.000549982 -3.00339e-06
1.25228e-06 -3.00339e-06 0.00018013
0.000568565 0.000238651 1.10071e-06
0.000238651 -3.72521e-05 2.82681e-07
1.10071e-06 2.82681e-07 -0.000293564
0.000464978 0.000245635 -3.14856e-05
0.000245635 -8.39061e-05 -2.31114e-05
-3.14856e-05 -2.31114e-05 -0.000217132
0.00074594 0.000165638 2.7969e-06
0.000165638 0.000129695 4.50146e-06
2.7969e-06 4.50146e-06 -0.000111673
0.000456792 0.000177456 1.76529e-06
0.000177456 -7.31422e-05 -9.87849e-07
1.76529e-06 -9.87849e-07 -0.000181712
0.00644911 -0.000186251 -0.000208556
-0.000186251 0.00392852 -2.75569e-05
-0.000208556 -2.75569e-05 0.0038948
0.000320103 0.000127609 2.14376e-05
0.000127609 -0.000109864 2.09915e-05
2.14376e-05 2.09915e-05 -0.00020698
0.00510256 -0.000198088 -1.34106e-05
-0.000198088 0.0030587 1.29601e-06
-1.34106e-05 1.29601e-06 0.00302867
0.00413597 -0.000185893 8.28559e-05
-0.000185893 0.0024202 1.11999e-05
8.28559e-05 1.11999e-05 0.00239735
0.00172775 0.00028289 4.52589e-05
0.00028289 -0.0003989 1.91507e-05
4.52589e-05 1.91507e-05 -3.67911e-05
0.00225484 0.000402192 -2.18261e-05
0.000402192 -0.00177387 -4.40869e-06
-2.18261e-05 -4.40869e-06 -0.000598837
0.00506133 0.000699764 0.000267061
0.000699764 -0.00172487 8.76268e-05
0.000267061 8.76268e-05 0.00071229
0.00267482 0.000915057 -9.00508e-06
0.000915057 0.000440866 7.53546e-07
-9.00508e-06 7.53546e-07 0.000104187
0.00214402 0.000951941 -8.36205e-06
0.000951941 0.000321301 -5.3275e-06
-8.36205e-06 -5.3275e-06 -9.50167e-05
0.00237317 0.000691566 2.66361e-06
0.000691566 0.000213964 5.65018e-06
2.66361e-06 5.65018e-06 -2.82756e-05
0.00239401 0.000855572 1.46722e-06
0.000855572 0.000345223 4.8173e-07
1.46722e-06 4.8173e-07 -7.05771e-06
0.00172427 0.000812419 -8.27043e-07
0.000812419 0.000153358 -1.48748e-05
-8.27043e-07 -1.48748e-05 -0.000257278
0.00265009 0.000818307 -5.85685e-06
0.000818307 0.000172063 1.14575e-06
-5.85685e-06 1.14575e-06 -1.8539e-05
0.00271468 0.00117323 -1.04396e-05
0.00117323 0.000804401 -8.48144e-06
-1.04396e-05 -8.48144e-06 0.000301996
0.00270899 0.00105719 -6.40954e-07
0.00105719 0.000445356 -4.94226e-07
-6.40954e-07 -4.94226e-07 6.79918e-05
0.00224911 0.000507484 -1.79504e-05
0.000507484 -0.000258592 8.4346e-07
-1.79504e-05 8.4346e-07 -0.000170958
0.00323537 0.00129366 -1.0025e-05
0.00129366 0.000859003 1.46044e-05
-1.0025e-05 1.46044e-05 0.000412997
0.00265604 0.000995036 3.72691e-07
0.000995036 0.000258409 -1.48072e-06
3.72691e-07 -1.48072e-06 2.18872e-05
0.000589229 0.000467947 -1.01238e-05
0.000467947 -0.000857871 1.34405e-06
-1.01238e-05 1.34405e-06 -0.000644722
-0.00204477 0.000538746 -2.80326e-05
0.000538746 -0.00188523 -1.3283e-05
-2.80326e-05 -1.3283e-05 -0.00201915
0.00401238 0.0014259 -0.000155412
0.0014259 -0.000293905 -5.74475e-05
-0.000155412 -5.74475e-05 0.000271299
0.00257512 0.000170956 8.22452e-07
0.000170956 -0.00017072 -2.28447e-06
8.22452e-07 -2.28447e-06 4.08056e-06
0.00301956 -5.33303e-05 -1.66506e-06
-5.33303e-05 0.000307277 3.79716e-07
-1.66506e-06 3.79716e-07 0.000499216
0.00315666 -0.000311494 -0.000119242
-0.000311494 -0.00093833 -3.45023e-06
-0.000119242 -3.45023e-06 8.53832e-06
0.00139295 -0.00039874 -8.33765e-05
-0.00039874 -0.0011282 1.46908e-05
-8.33765e-05 1.46908e-05 -0.000497572
0.00210155 -0.000111742 -1.74622e-05
-0.000111742 -0.000300754 1.75763e-07
-1.74622e-05 1.75763e-07 -0.000114257
0.0025185 -0.000300585 3.92381e-06
-0.000300585 -0.000284079 -7.32559e-07
3.92381e-06 -7.32559e-07 2.01043e-06
0.00263948 7.44587e-05 -3.37695e-06
7.44587e-05 -0.000169285 -3.99701e-07
-3.37695e-06 -3.99701e-07 -1.86229e-05
0.00257742 -6.7235e-05 -2.33657e-06
-6.7235e-05 -0.000161296 -5.73554e-07
-2.33657e-06 -5.73554e-07 2.12326e-05
0.0027172 -0.000559643 -4.13521e-06
-0.000559643 -0.000195952 -3.78269e-08
-4.13521e-06 -3.78269e-08 -1.29823e-05
0.00249084 -0.00035063 3.27203e-07
-0.00035063 -0.000168628 -3.37665e-07
3.27203e-07 -3.37665e-07 -2.1303e-05
0.00240573 -0.000264548 9.86796e-07
-0.000264548 -6.71928e-05 5.80707e-08
9.86796e-07 5.80707e-08 3.2038e-05
0.00251814 -0.000503348 -4.0068e-07
-0.000503348 -2.94019e-05 4.35151e-07
-4.0068e-07 4.35151e-07 1.50592e-05
0.00237147 -0.000407338 2.04179e-07
-0.000407338 -2.82869e-05 6.34668e-08
2.04179e-07 6.34668e-08 -4.36517e-06
0.00225459 -0.000344748 -1.24082e-06
-0.000344748 2.69925e-05 4.2597e-07
-1.24082e-06 4.2597e-07 8.85199e-06
0.00235417 -0.000500828 7.48149e-07
-0.000500828 5.0589e-05 -1.05094e-07
7.48149e-07 -1.05094e-07 -2.75287e-07
0.00224905 -0.000448907 3.87721e-07
-0.000448907 7.28169e-05 -7.54209e-09
3.87721e-07 -7.54209e-09 -1.98835e-06
0.00227116 -0.000424957 -3.59929e-06
-0.000424957 0.000162921 1.0085e-06
-3.59929e-06 1.0085e-06 3.9497e-05
0.00222485 -0.000533674 2.13076e-06
-0.000533674 0.000123887 -9.6248e-07
2.13076e-06 -9.6248e-07 -1.52917e-05
0.00218216 -0.000500875 6.08395e-08
-0.000500875 0.000164691 -5.35264e-07
6.08395e-08 -5.35264e-07 -1.18806e-05
0.00207459 -0.00044545 -2.41081e-06
-0.00044545 0.000174149 -7.46581e-07
-2.41081e-06 -7.46581e-07 -3.41346e-05
0.00214936 -0.00056229 1.11878e-06
-0.00056229 0.000189591 9.90316e-07
1.11878e-06 9.90316e-07 -2.75568e-05
0.00209094 -0.000503058 -7.07149e-07
-0.000503058 0.000246434 7.65325e-08
-7.07149e-07 7.65325e-08 -2.43142e-06
0.00128786 -0.000307821 -1.23667e-05
-0.000307821 -7.3491e-06 5.66965e-06
-1.23667e-05 5.66965e-06 -0.000233603
0.00213433 -0.000547029 3.60028e-06
-0.000547029 0.000327541 1.13351e-06
3.60028e-06 1.13351e-06 4.6909e-05
0.00133601 -0.000354054 9.99801e-08
-0.000354054 4.15489e-05 1.7394e-07
9.99801e-08 1.7394e-07 -0.000210018
0.0029024 -0.000236251 -5.67002e-05
-0.000236251 0.00139382 1.46325e-05
-5.67002e-05 1.46325e-05 0.00126575
0.00263895 -0.000133223 -0.000298694
-0.000133223 0.00133994 4.50266e-05
-0.000298694 4.50266e-05 0.00132198
0.00166283 -0.000255237 -1.67787e-05
-0.000255237 0.000615985 2.51094e-07
-1.67787e-05 2.51094e-07 0.000463427
0.0013281 -0.000404855 1.83996e-05
-0.000404855 8.16014e-05 -7.15686e-06
1.83996e-05 -7.15686e-06 -0.0002034
0.0081076 -0.000121079 -1.12274e-05
-0.000121079 0.00485387 2.59055e-06
-1.12274e-05 2.59055e-06 0.00487009
0.000158712 -0.0002805 2.36401e-05
-0.0002805 -0.00032416 -2.15711e-05
2.36401e-05 -2.15711e-05 -0.000499622
0.00829313 -7.37555e-05 0.000354763
-7.37555e-05 0.00498778 -3.81303e-05
0.000354763 -3.81303e-05 0.00499824
0.00224833 0.000537268 2.5564e-07
0.000537268 0.000146303 1.81301e-06
2.5564e-07 1.81301e-06 -2.75515e-05
0.00224555 0.000695535 3.57018e-06
0.000695535 0.000282122 7.9222e-06
3.57018e-06 7.9222e-06 -1.05168e-05
0.00230248 0.000800918 6.06592e-07
0.000800918 0.000404028 7.21365e-08
6.06592e-07 7.21365e-08 3.05504e-05
0.00209779 0.000683981 -4.40518e-06
0.000683981 0.000403704 6.1449e-06
-4.40518e-06 6.1449e-06 2.81143e-05
0.00197447 0.000789596 6.85203e-06
0.000789596 0.000368123 -8.58136e-06
6.85203e-06 -8.58136e-06 -6.19787e-05
0.00186007 0.000687089 2.30049e-07
0.000687089 0.000362321 8.0163e-07
2.30049e-07 8.0163e-07 -5.4221e-05
0.000859067 0.000386297 -2.97219e-05
0.000386297 -6.89521e-05 -4.65268e-06
-2.97219e-05 -4.65268e-06 -0.000368181
0.00157246 0.000640626 9.63713e-06
0.000640626 0.000341048 -3.90889e-06
9.63713e-06 -3.90889e-06 -9.21943e-05
0.000735778 0.000323738 -1.20198e-06
0.000323738 -3.7231e-05 -1.60579e-07
-1.20198e-06 -1.60579e-07 -0.000313832
0.000339452 0.000303319 -3.07152e-05
0.000303319 -0.00017218 -2.26694e-05
-3.07152e-05 -2.26694e-05 -0.000338573
0.000454121 0.000212407 9.77062e-06
0.000212407 -0.000111976 -1.80308e-06
9.77062e-06 -1.80308e-06 -0.000356901
0.000388689 0.000221395 4.84554e-06
0.000221395 -0.00013255 -1.6946e-06
4.84554e-06 -1.6946e-06 -0.000264387
0.00770323 -6.52948e-05 -0.000300476
-6.52948e-05 0.00466871 -3.28305e-05
-0.000300476 -3.28305e-05 0.00466105
0.0005511 0.000158866 2.82182e-05
0.000158866 -6.8313e-06 2.01576e-05
2.82182e-05 2.01576e-05 -0.000113124
0.00617405 -0.000170676 6.02445e-06
-0.000170676 0.0037291 -2.64665e-06
6.02445e-06 -2.64665e-06 0.00370671
0.00473206 -0.000221988 0.000106186
-0.000221988 0.00283087 1.57073e-05
0.000106186 1.57073e-05 0.00279335
0.00251594 0.000242201 -7.05146e-06
0.000242201 -0.000248513 4.49484e-08
-7.05146e-06 4.49484e-08 -2.52699e-05
0.00174843 0.000228143 1.27521e-05
0.000228143 -0.000633669 -3.1076e-06
1.27521e-05 -3.1076e-06 -0.000159648
0.00420629 0.000522208 -0.000142737
0.000522208 -0.00103216 -8.06437e-06
-0.000142737 -8.06437e-06 0.000193815
0.00245675 0.000645434 -2.97148e-06
0.000645434 0.000162469 1.47989e-06
-2.97148e-06 1.47989e-06 1.76091e-06
0.00251498 0.000886887 -4.15016e-06
0.000886887 0.000385959 -5.39705e-07
-4.15016e-06 -5.39705e-07 5.72674e-05
0.00207816 0.000964711 -4.69159e-06
0.000964711 0.000264008 -1.09272e-05
-4.69159e-06 -1.09272e-05 -0.000149533
0.00240821 0.000679819 2.01983e-06
0.000679819 0.000253077 1.44746e-06
2.01983e-06 1.44746e-06 1.3239e-05
0.00247778 0.000854019 -1.28237e-06
0.000854019 0.000401083 -7.41419e-06
-1.28237e-06 -7.41419e-06 5.22793e-05
0.0026602 0.000511235 6.12438e-07
0.000511235 -2.01473e-05 4.62807e-07
6.12438e-07 4.62807e-07 3.65318e-05
0.00258831 0.000815529 -1.07594e-06
0.000815529 0.000152418 -9.25648e-09
-1.07594e-06 -9.25648e-09 -3.5529e-05
0.00288523 0.00104598 -2.1885e-06
0.00104598 0.000568642 -4.19073e-06
-2.1885e-06 -4.19073e-06 0.000190329
0.00221044 0.000482029 1.11413e-07
0.000482029 -0.000236121 -3.50904e-08
1.11413e-07 -3.50904e-08 -0.00014381
0.00248654 0.000963713 1.5794e-05
0.000963713 0.000160175 -1.4171e-06
1.5794e-05 -1.4171e-06 -7.69973e-05
-0.000323874 0.000423078 -4.50932e-05
0.000423078 -0.00143624 -1.51669e-05
-4.50932e-05 -1.51669e-05 -0.00115495
0.00251093 0.000105062 -3.13166e-07
0.000105062 -0.000112829 -5.63838e-07
-3.13166e-07 -5.63838e-07 3.1494e-05
0.00246931 0.000169759 -7.8529e-07
0.000169759 -0.000247507 1.16406e-06
-7.8529e-07 1.16406e-06 -6.88225e-05
0.0029672 -3.6635e-05 -6.07731e-05
-3.6635e-05 0.000336709 -6.04887e-06
-6.07731e-05 -6.04887e-06 0.000459352
0.00239595 -0.000302929 -2.26772e-05
-0.000302929 -0.00038604 1.96128e-06
-2.26772e-05 1.96128e-06 -6.19339e-05
0.00288927 9.08006e-05 2.74342e-06
9.08006e-05 -1.6707e-05 2.54414e-06
2.74342e-06 2.54414e-06 0.000123422
0.00257335 -7.65598e-05 -7.81628e-07
-7.65598e-05 -0.000176941 -6.81684e-07
-7.81628e-07 -6.81684e-07 9.74198e-06
0.0022628 -7.63207e-05 2.68138e-07
-7.63207e-05 -8.85538e-05 1.57658e-07
2.68138e-07 1.57658e-07 -2.68142e-06
0.00243158 -0.000335265 7.51312e-07
-0.000335265 -0.000186032 -7.70674e-07
7.51312e-07 -7.70674e-07 -4.81761e-05
0.00236144 -0.000271851 -4.32703e-09
-0.000271851 -9.05895e-05 -1.81064e-08
-4.32703e-09 -1.81064e-08 8.93869e-07
0.0021833 -0.000227359 1.33801e-07
-0.000227359 -3.23809e-05 -9.38227e-08
1.33801e-07 -9.38227e-08 -1.66434e-05
0.00237498 -0.000405253 -6.96757e-07
-0.000405253 -2.28837e-05 4.47569e-07
-6.96757e-07 4.47569e-07 -1.38395e-06
0.00225192 -0.000344498 6.60637e-08
-0.000344498 2.16277e-05 1.45286e-07
6.60637e-08 1.45286e-07 3.4825e-06
0.00227604 -0.000333539 -4.99418e-06
-0.000333539 0.000104237 1.13466e-06
-4.99418e-06 1.13466e-06 3.51026e-05
0.00224501 -0.000450007 2.28203e-06
-0.000450007 6.6074e-05 -6.0633e-07
2.28203e-06 -6.0633e-07 -8.82012e-06
0.00221308 -0.000419926 4.61199e-07
-0.000419926 0.000125778 -2.27259e-07
4.61199e-07 -2.27259e-07 2.89672e-06
0.00208106 -0.000365357 -1.6851e-06
-0.000365357 0.000135265 -7.84255e-07
-1.6851e-06 -7.84255e-07 -2.86605e-05
0.00212961 -0.00049637 2.38978e-06
-0.00049637 0.000129692 -6.27635e-07
2.38978e-06 -6.27635e-07 -4.63982e-05
0.0021345 -0.000449287 -6.77578e-07
-0.000449287 0.000216496 8.2231e-08
-6.77578e-07 8.2231e-08 7.74063e-06
0.00130448 -0.000266163 -9.42641e-06
-0.000266163 -1.88306e-05 4.29498e-06
-9.42641e-06 4.29498e-06 -0.00022291
0.0021049 -0.000503434 2.77694e-06
-0.000503434 0.000259271 6.1995e-07
2.77694e-06 6.1995e-07 1.05745e-05
0.00133685 -0.000312041 -1.21688e-07
-0.000312041 1.44479e-05 2.13867e-07
-1.21688e-07 2.13867e-07 -0.000211416
0.00289666 -0.000221177 -6.4311e-05
-0.000221177 0.00138695 1.41803e-05
-6.4311e-05 1.41803e-05 0.00127043
0.00135168 -0.000355942 1.46696e-05
-0.000355942 4.60796e-05 -6.47071e-06
1.46696e-05 -6.47071e-06 -0.000204906
0.00303646 -0.000271245 5.487e-05
-0.000271245 0.00148255 -9.31907e-06
5.487e-05 -9.31907e-06 0.0013642
0.00256021 -0.000161566 -0.00029272
-0.000161566 0.00129836 4.92908e-05
-0.00029272 4.92908e-05 0.00127772
0.00509828 -0.000166257 -0.000287829
-0.000166257 0.00293622 3.44155e-05
-0.000287829 3.44155e-05 0.00293417
0.00312594 -0.00033491 0.000182537
-0.00033491 0.00156109 -3.21064e-05
0.000182537 -3.21064e-05 0.00143882
0.00799435 -0.000135034 0.000355946
-0.000135034 0.00479131 -4.19829e-05
0.000355946 -4.19829e-05 0.00480408
0.00231798 0.000515067 -1.47696e-06
0.000515067 0.00013534 -5.55042e-09
-1.47696e-06 -5.55042e-09 1.79799e-05
0.00219264 0.000555884 -5.01146e-07
0.000555884 0.000218048 2.61293e-06
-5.01146e-07 2.61293e-06 1.39117e-06
0.00223855 0.00052796 3.26824e-07
0.00052796 0.000146893 -6.45884e-07
3.26824e-07 -6.45884e-07 -1.69066e-05
0.00209953 0.000604458 -3.32164e-06
0.000604458 0.000299628 5.12723e-06
-3.32164e-06 5.12723e-06 -9.89458e-06
0.00235626 0.000707452 2.67105e-07
0.000707452 0.000338661 6.48185e-08
2.67105e-07 6.48185e-08 4.50949e-05
0.00260391 0.000824633 -1.04281e-06
0.000824633 0.000594207 -8.87728e-06
-1.04281e-06 -8.87728e-06 0.000220988
0.00201211 0.000678696 9.47284e-07
0.000678696 0.000344642 4.3474e-07
9.47284e-07 4.3474e-07 -3.12138e-05
0.00130643 0.000438804 -3.10567e-05
0.000438804 0.000109018 -6.15969e-06
-3.10567e-05 -6.15969e-06 -0.000190912
0.00179484 0.000682632 9.32894e-06
0.000682632 0.00031429 -4.57848e-06
9.32894e-06 -4.57848e-06 -0.000103086
0.00103803 0.000400988 -3.4691e-06
0.000400988 3.23556e-05 2.51752e-10
-3.4691e-06 2.51752e-10 -0.000267497
0.000156137 0.0002862 -2.81876e-05
0.0002862 -0.000309807 -2.05357e-05
-2.81876e-05 -2.05357e-05 -0.000483788
0.000874227 0.000323607 1.94952e-05
0.000323607 6.23765e-05 4.04956e-06
1.94952e-05 4.04956e-06 -0.000210228
0.000253515 0.000256569 1.14047e-06
0.000256569 -0.000230882 1.67249e-06
1.14047e-06 1.67249e-06 -0.000390504
0.00837952 2.99926e-05 -0.000340776
2.99926e-05 0.00506292 -3.8583e-05
-0.000340776 -3.8583e-05 0.00506302
4.95069e-05 0.000183738 2.72919e-05
0.000183738 -0.000351297 2.17826e-05
2.72919e-05 2.17826e-05 -0.000476292
0.00716961 -0.000109268 6.1209e-06
-0.000109268 0.00432912 -2.62309e-06
6.1209e-06 -2.62309e-06 0.0043187
0.0057251 -0.000200913 0.000156687
-0.000200913 0.00344757 1.52976e-05
0.000156687 1.52976e-05 0.00341877
0.00255111 0.0002921 1.03885e-06
0.0002921 -9.52433e-05 2.74143e-07
1.03885e-06 2.74143e-07 3.2613e-05
0.0023808 0.00024435 2.26142e-06
0.00024435 -0.000274017 -7.94772e-07
2.26142e-06 -7.94772e-07 -5.17672e-05
0.00152868 0.000174814 -6.9023e-05
0.000174814 -0.000989274 -8.89825e-06
-6.9023e-05 -8.89825e-06 -0.000400521
0.00239569 0.000453514 2.15144e-06
0.000453514 -3.31543e-06 8.16866e-07
2.15144e-06 8.16866e-07 -1.09105e-05
0.00239298 0.00063805 -8.77636e-07
0.00063805 0.000139575 6.51974e-08
-8.77636e-07 6.51974e-08 -1.89022e-05
0.00231887 0.000854557 6.74091e-06
0.000854557 0.000309314 -3.41886e-06
6.74091e-06 -3.41886e-06 -1.05296e-05
0.00245775 0.000669149 -1.00068e-06
0.000669149 0.000301281 -3.72791e-06
-1.00068e-06 -3.72791e-06 6.38867e-05
0.00260297 0.00049283 -1.56777e-06
0.00049283 -3.85953e-05 -1.03434e-07
-1.56777e-06 -1.03434e-07 1.87885e-05
0.00249085 0.000808851 5.45404e-07
0.000808851 0.000115642 -5.79414e-07
5.45404e-07 -5.79414e-07 -6.86843e-05
0.0020843 0.000460101 1.60189e-05
0.000460101 -0.000222401 -1.89471e-06
1.60189e-05 -1.89471e-06 -0.000128883
0.00231355 7.91855e-05 1.82847e-06
7.91855e-05 -6.41874e-05 1.27927e-07
1.82847e-06 1.27927e-07 1.20113e-05
0.00245024 0.000102282 2.78178e-07
0.000102282 -0.000137674 1.68486e-07
2.78178e-07 1.68486e-07 2.87849e-06
0.00237019 0.000173456 -8.54318e-06
0.000173456 -0.000315324 -6.32911e-07
-8.54318e-06 -6.32911e-07 -0.000133494
0.00216578 -1.37863e-05 -9.9608e-07
-1.37863e-05 -5.06671e-05 2.04751e-07
-9.9608e-07 2.04751e-07 -3.77085e-06
0.00258509 -9.14903e-05 3.26583e-06
-9.14903e-05 -0.000181305 -1.06148e-08
3.26583e-06 -1.06148e-08 9.76846e-06
0.00227114 -8.01569e-05 -4.02477e-07
-8.01569e-05 -8.49343e-05 3.49306e-07
-4.02477e-07 3.49306e-07 2.2528e-07
0.00212556 -0.000120053 -1.12817e-06
-0.000120053 -5.2603e-05 3.79363e-07
-1.12817e-06 3.79363e-07 -2.76674e-05
0.00231677 -0.000279116 -7.99819e-07
-0.000279116 -0.000113512 6.7291e-08
-7.99819e-07 6.7291e-08 -3.04364e-05
0.00219418 -0.000224208 8.331e-07
-0.000224208 -2.529e-05 -4.11662e-07
8.331e-07 -4.11662e-07 -8.83608e-06
0.00225993 -0.000233076 -3.8458e-06
-0.000233076 7.30589e-05 3.50689e-07
-3.8458e-06 3.50689e-07 3.69021e-05
0.00225189 -0.00034389 1.55252e-06
-0.00034389 1.80284e-05 -3.27016e-07
1.55252e-06 -3.27016e-07 -6.96751e-08
0.00227083 -0.000331045 3.68457e-07
-0.000331045 0.000105209 -2.36357e-08
3.68457e-07 -2.36357e-08 3.61775e-05
0.00210807 -0.000284489 -1.3352e-06
-0.000284489 0.000126479 -6.24649e-07
-1.3352e-06 -6.24649e-07 1.79486e-06
0.0021529 -0.000414482 3.83006e-06
-0.000414482 8.77766e-05 -1.27762e-06
3.83006e-06 -1.27762e-06 -3.4448e-05
0.00213055 -0.000369161 -6.52201e-07
-0.000369161 0.000163505 1.12574e-07
-6.52201e-07 1.12574e-07 -9.25595e-07
0.00130591 -0.000219194 -6.8136e-06
-0.000219194 -2.70643e-05 2.8714e-06
-6.8136e-06 2.8714e-06 -0.00021027
0.0021964 -0.000453054 2.20854e-06
-0.000453054 0.000260638 4.34451e-07
2.20854e-06 4.34451e-07 5.14601e-05
0.0013443 -0.000268418 -2.95033e-07
-0.000268418 -4.11574e-06 2.86563e-07
-2.95033e-07 2.86563e-07 -0.000207269
0.00281091 -0.000201238 -7.01517e-05
-0.000201238 0.00133796 1.33226e-05
-7.01517e-05 1.33226e-05 0.00122949
0.00137927 -0.000316116 1.13792e-05
-0.000316116 3.16435e-05 -5.33772e-06
1.13792e-05 -5.33772e-06 -0.000193803
0.00297776 -0.00023926 5.04294e-05
-0.00023926 0.00143928 -7.25583e-06
5.04294e-05 -7.25583e-06 0.00133298
0.00255959 -0.000136964 -0.000286052
-0.000136964 0.00128871 4.28415e-05
-0.000286052 4.28415e-05 0.00127091
0.0031517 -0.00027606 0.000172602
-0.00027606 0.0015512 -3.22154e-05
0.000172602 -3.22154e-05 0.00144606
0.00215527 -9.77236e-05 -0.000114749
-9.77236e-05 0.00103879 1.80841e-05
-0.000114749 1.80841e-05 0.00100259
0.00736623 -7.22223e-05 0.000122334
-7.22223e-05 0.00437266 -7.97562e-06
0.000122334 -7.97562e-06 0.00435299
0.00230764 0.000436532 -4.29319e-07
0.000436532 8.73783e-05 3.75938e-07
-4.29319e-07 3.75938e-07 2.13451e-05
0.00219373 0.000487913 -3.69156e-06
0.000487913 0.000132425 -4.36499e-07
-3.69156e-06 -4.36499e-07 -2.72216e-05
0.00234106 0.000516163 -3.03152e-06
0.000516163 0.000147939 -3.02786e-08
-3.03152e-06 -3.02786e-08 2.78678e-05
0.00208866 0.000514593 -2.70855e-06
0.000514593 0.000222946 1.97193e-06
-2.70855e-06 1.97193e-06 -3.15276e-05
0.00213371 0.000561948 -1.29708e-06
0.000561948 0.000157355 -2.46731e-06
-1.29708e-06 -2.46731e-06 -5.36656e-05
0.00222377 0.000517554 -3.28722e-06
0.000517554 0.000144421 -3.54353e-06
-3.28722e-06 -3.54353e-06 -8.95485e-06
0.00141011 0.000398101 -2.43437e-05
0.000398101 6.74293e-05 -5.76757e-06
-2.43437e-05 -5.76757e-06 -0.000196636
0.00205109 0.000600623 1.41934e-06
0.000600623 0.000267133 3.70517e-07
1.41934e-06 3.70517e-07 -4.20926e-05
0.00244821 0.000717315 2.23894e-06
0.000717315 0.000382883 -7.25225e-06
2.23894e-06 -7.25225e-06 8.88069e-05
0.00188991 0.000670684 5.76586e-06
0.000670684 0.000260581 -5.38395e-06
5.76586e-06 -5.38395e-06 -0.000115167
0.00125857 0.000436784 -1.04965e-06
0.000436784 7.32471e-05 -3.23903e-08
-1.04965e-06 -3.23903e-08 -0.000227344
0.000289175 0.000276877 -2.51669e-05
0.000276877 -0.000244582 -1.91273e-05
-2.51669e-05 -1.91273e-05 -0.000414878
0.00117902 0.000410079 3.09244e-05
0.000410079 0.000112133 7.74842e-06
3.09244e-05 7.74842e-06 -0.000186348
0.000177405 0.000276819 9.31342e-07
0.000276819 -0.00028908 1.44991e-06
9.31342e-07 1.44991e-06 -0.000462368
0.00810375 0.000119832 -0.000342519
0.000119832 0.00487525 -4.46333e-05
-0.000342519 -4.46333e-05 0.00487579
0.000219383 0.000221958 2.3685e-05
0.000221958 -0.000254445 2.32e-05
2.3685e-05 2.32e-05 -0.000409907
0.00807278 -1.34743e-05 7.17299e-06
-1.34743e-05 0.00486369 3.1024e-07
7.17299e-06 3.1024e-07 0.00486673
0.00692059 -0.000140995 0.000224963
-0.000140995 0.0041687 1.56791e-05
0.000224963 1.56791e-05 0.00415808
0.00231521 0.000236884 9.61992e-07
0.000236884 -4.87616e-05 -2.15461e-07
9.61992e-07 -2.15461e-07 3.96921e-06
0.00251128 0.000298157 -8.09753e-07
0.000298157 -0.000135951 7.28421e-07
-8.09753e-07 7.28421e-07 -4.21887e-06
0.00231035 0.00024241 2.15725e-06
0.00024241 -0.000292209 -1.10098e-07
2.15725e-06 -1.10098e-07 -6.84388e-05
0.00238886 0.000447953 3.55225e-07
0.000447953 -6.77672e-06 3.57715e-07
3.55225e-07 3.57715e-07 -1.18089e-05
0.00234175 0.000631483 4.2974e-07
0.000631483 0.000126306 -1.57422e-06
4.2974e-07 -1.57422e-06 -3.00572e-05
0.00256382 0.000476543 2.43249e-06
0.000476543 -5.6468e-05 -3.66708e-07
2.43249e-06 -3.66708e-07 1.52775e-06
0.0022117 7.39395e-05 8.26912e-07
7.39395e-05 -3.10671e-05 1.06072e-07
8.26912e-07 1.06072e-07 7.82955e-06
0.0023014 7.7602e-05 3.30667e-07
7.7602e-05 -6.84171e-05 -2.26816e-07
3.30667e-07 -2.26816e-07 8.40702e-06
0.0023894 9.9546e-05 -2.71978e-07
9.9546e-05 -0.000162896 2.05988e-07
-2.71978e-07 2.05988e-07 -2.54235e-05
0.00217221 -1.10286e-05 -6.94805e-07
-1.10286e-05 -4.50069e-05 2.88273e-08
-6.94805e-07 2.88273e-08 -1.98613e-07
0.00213816 -3.52474e-05 -3.45332e-06
-3.52474e-05 8.58451e-06 4.59873e-07
-3.45332e-06 4.59873e-07 2.37648e-05
0.0022797 -8.35769e-05 -5.9344e-07
-8.35769e-05 -8.16189e-05 7.8145e-08
-5.9344e-07 7.8145e-08 3.16227e-06
0.00214731 -0.000120664 -1.31043e-06
-0.000120664 -3.12552e-05 2.28126e-07
-1.31043e-06 2.28126e-07 -1.05109e-05
0.00215475 -0.000146453 -5.51705e-06
-0.000146453 8.78928e-06 9.32806e-07
-5.51705e-06 9.32806e-07 -1.22572e-05
0.00220226 -0.000221344 1.8401e-06
-0.000221344 -1.98817e-05 -7.83356e-07
1.8401e-06 -7.83356e-07 -2.76832e-06
0.0022608 -0.00023411 1.8358e-06
-0.00023411 7.81159e-05 -4.89217e-07
1.8358e-06 -4.89217e-07 4.15473e-05
0.0020887 -0.000213759 -7.7799e-08
-0.000213759 9.07455e-05 3.45954e-08
-7.7799e-08 3.45954e-08 -7.60565e-06
0.00225957 -0.000329546 5.01921e-06
-0.000329546 0.000102468 -1.12103e-06
5.01921e-06 -1.12103e-06 3.33197e-05
0.00209825 -0.000286022 -5.56992e-07
-0.000286022 0.000108913 -2.98888e-07
-5.56992e-07 -2.98888e-07 -1.59969e-05
0.00124646 -0.000173363 -5.21413e-06
-0.000173363 -5.87186e-05 2.01911e-06
-5.21413e-06 2.01911e-06 -0.000225043
0.00218509 -0.000373326 2.17507e-06
-0.000373326 0.000194665 4.40329e-07
2.17507e-06 4.40329e-07 2.96843e-05
0.00131842 -0.000218049 -3.8489e-07
-0.000218049 -2.63616e-05 1.28664e-07
-3.8489e-07 1.28664e-07 -0.000208164
0.00269585 -0.000189116 -7.14279e-05
-0.000189116 0.00127491 1.13387e-05
-7.14279e-05 1.13387e-05 0.00117315
0.00138679 -0.000270934 8.48867e-06
-0.000270934 1.19046e-05 -3.82639e-06
8.48867e-06 -3.82639e-06 -0.000190316
0.00288853 -0.000199011 4.78173e-05
-0.000199011 0.00138275 -5.59229e-06
4.78173e-05 -5.59229e-06 0.00128644
0.00250475 -0.000111614 -0.000280383
-0.000111614 0.00124924 3.55136e-05
-0.000280383 3.55136e-05 0.00123319
0.00306171 -0.00022915 0.000168151
-0.00022915 0.00148407 -2.72673e-05
0.000168151 -2.72673e-05 0.00139211
0.0021376 -9.52376e-05 -0.000104667
-9.52376e-05 0.00102394 1.4243e-05
-0.000104667 1.4243e-05 0.000989674
0.00180541 -9.28909e-05 7.39862e-05
-9.28909e-05 0.00082969 -1.26074e-05
7.39862e-05 -1.26074e-05 0.000771626
0.00222256 0.000273588 -3.1851e-08
0.000273588 1.43875e-06 -6.18055e-07
-3.1851e-08 -6.18055e-07 -1.01343e-05
0.00226294 0.000401534 -4.26998e-06
0.000401534 0.000127089 -3.57733e-07
-4.26998e-06 -3.57733e-07 2.11104e-05
0.00229521 0.000437305 -3.37127e-07
0.000437305 6.01452e-05 -1.47605e-07
-3.37127e-07 -1.47605e-07 3.95704e-06
0.00211303 0.000460559 -4.30023e-07
0.000460559 0.000157556 1.23448e-06
-4.30023e-07 1.23448e-06 -4.75035e-05
0.00225386 0.000489982 -1.61881e-06
0.000489982 0.000181467 -6.08467e-07
-1.61881e-06 -6.08467e-07 1.92036e-05
0.00235571 0.000517769 1.79644e-06
0.000517769 0.000154797 -2.42317e-07
1.79644e-06 -2.42317e-07 3.17049e-05
0.00141153 0.000336874 -1.78191e-05
0.000336874 3.11935e-05 -4.94538e-06
-1.78191e-05 -4.94538e-06 -0.000197739
0.00203253 0.000517549 1.10553e-06
0.000517549 0.000176298 -8.42319e-07
1.10553e-06 -8.42319e-07 -7.23395e-05
0.00210333 0.000571107 -2.09945e-06
0.000571107 0.00011496 -6.25359e-06
-2.09945e-06 -6.25359e-06 -9.11629e-05
0.000330787 0.000220188 -2.22768e-05
0.000220188 -0.000248477 -1.61734e-05
-2.22768e-05 -1.61734e-05 -0.000399838
0.00136906 0.000392523 -2.39516e-07
0.000392523 4.71871e-05 1.64051e-07
-2.39516e-07 1.64051e-07 -0.000216544
0.00201308 0.000597661 5.34259e-06
0.000597661 0.00024144 -4.59584e-06
5.34259e-06 -4.59584e-06 -6.76469e-05
0.00126698 0.000439477 3.24598e-05
0.000439477 7.49854e-05 6.81879e-06
3.24598e-05 6.81879e-06 -0.00022712
0.000290866 0.000261493 2.19816e-07
0.000261493 -0.000240051 8.83125e-07
2.19816e-07 8.83125e-07 -0.00040967
0.007807 0.000216593 -0.00034543
0.000216593 0.00467948 -4.91498e-05
-0.00034543 -4.91498e-05 0.00467945
0.000474759 0.000273028 2.67901e-05
0.000273028 -9.92638e-05 1.88212e-05
2.67901e-05 1.88212e-05 -0.000271859
0.00822474 9.76105e-05 9.06456e-06
9.76105e-05 0.00493925 1.35447e-06
9.06456e-06 1.35447e-06 0.00494859
0.00785012 -5.16179e-05 0.000289484
-5.16179e-05 0.00471674 2.12686e-05
0.000289484 2.12686e-05 0.00472015
0.00222864 0.000143304 -4.57923e-07
0.000143304 -1.75648e-06 -3.51507e-07
-4.57923e-07 -3.51507e-07 2.76582e-05
0.00229107 0.000241408 6.75985e-07
0.000241408 -6.91525e-05 4.61477e-07
6.75985e-07 4.61477e-07 -1.88331e-05
0.00247236 0.000304717 2.0791e-07
0.000304717 -0.000168798 -3.35954e-07
2.0791e-07 -3.35954e-07 -3.43654e-05
0.00238802 0.000441471 -4.31311e-07
0.000441471 -6.28103e-06 -1.20392e-06
-4.31311e-07 -1.20392e-06 -8.47646e-06
0.00210521 3.01957e-05 -3.58086e-06
3.01957e-05 1.46431e-05 3.49884e-07
-3.58086e-06 3.49884e-07 1.0169e-05
0.00220903 6.50607e-05 4.28888e-09
6.50607e-05 -3.36549e-05 -4.57469e-08
4.28888e-09 -4.57469e-08 7.14676e-06
0.0022883 7.57661e-05 -1.10152e-06
7.57661e-05 -7.28956e-05 1.2563e-07
-1.10152e-06 1.2563e-07 3.86663e-06
0.00217838 -7.71759e-06 -1.96902e-06
-7.71759e-06 -3.90271e-05 -2.9496e-07
-1.96902e-06 -2.9496e-07 3.49862e-06
0.00214358 -2.94811e-05 -7.51748e-07
-2.94811e-05 6.38087e-06 -2.22219e-07
-7.51748e-07 -2.22219e-07 2.37326e-05
0.00206252 -6.27014e-05 -5.11464e-06
-6.27014e-05 -3.08937e-05 7.50384e-07
-5.11464e-06 7.50384e-07 -5.84998e-05
0.00217133 -0.000121404 1.48923e-06
-0.000121404 -8.11566e-06 -2.03579e-07
1.48923e-06 -2.03579e-07 8.23803e-06
0.00214997 -0.000147969 -1.82428e-06
-0.000147969 1.26071e-05 3.42456e-07
-1.82428e-06 3.42456e-07 -1.58508e-05
0.00221136 -0.000146998 -1.44001e-06
-0.000146998 0.000161624 3.69571e-07
-1.44001e-06 3.69571e-07 8.53662e-05
0.00226987 -0.000234362 7.46185e-06
-0.000234362 8.73996e-05 -1.35513e-06
7.46185e-06 -1.35513e-06 5.06153e-05
0.00210468 -0.000212191 9.59536e-07
-0.000212191 9.75896e-05 -3.42125e-07
9.59536e-07 -3.42125e-07 2.46231e-07
0.00120393 -0.000129476 -5.64493e-06
-0.000129476 -7.25437e-05 1.3617e-06
-5.64493e-06 1.3617e-06 -0.000225545
0.00210552 -0.000286042 1.57274e-06
-0.000286042 0.000103259 -3.56544e-07
1.57274e-06 -3.56544e-07 -2.13844e-05
0.00124974 -0.000171309 -1.65005e-07
-0.000171309 -5.66638e-05 1.63219e-08
-1.65005e-07 1.63219e-08 -0.000221744
0.000300581 -9.75724e-05 -1.7713e-05
-9.75724e-05 -0.000273309 6.70931e-06
-1.7713e-05 6.70931e-06 -0.000383145
0.00132132 -0.000216382 5.60356e-06
-0.000216382 -3.16332e-05 -2.64869e-06
5.60356e-06 -2.64869e-06 -0.00021197
0.00157864 -0.000128142 7.04908e-05
-0.000128142 0.000543006 -5.84662e-06
7.04908e-05 -5.84662e-06 0.000446385
0.00703691 -0.000183011 -0.000371137
-0.000183011 0.00418056 2.98647e-05
-0.000371137 2.98647e-05 0.00420549
0.0029723 -0.000180192 0.000163069
-0.000180192 0.00142589 -2.12768e-05
0.000163069 -2.12768e-05 0.00134408
0.00209426 -8.75643e-05 -9.45525e-05
-8.75643e-05 0.000998063 9.16996e-06
-9.45525e-05 9.16996e-06 0.000963864
0.00172081 -0.000110251 8.58598e-05
-0.000110251 0.000781481 -1.43708e-05
8.58598e-05 -1.43708e-05 0.000722282
0.00216755 0.000180319 -1.53057e-06
0.000180319 1.70807e-05 -9.69329e-07
-1.53057e-06 -9.69329e-07 7.23432e-06
0.00226883 0.000311595 -2.84368e-06
0.000311595 0.000101311 -6.02196e-07
-2.84368e-06 -6.02196e-07 3.24856e-05
0.00222382 0.000265789 -2.9135e-07
0.000265789 1.44823e-05 -6.01086e-08
-2.9135e-07 -6.01086e-08 -2.75508e-06
0.00215237 0.00036816 -1.33646e-06
0.00036816 0.000146469 1.13805e-06
-1.33646e-06 1.13805e-06 -3.1983e-06
0.00225447 0.000400898 4.54058e-07
0.000400898 0.000122743 -2.70488e-08
4.54058e-07 -2.70488e-08 1.72733e-05
0.00228722 0.000438325 -4.17047e-07
0.000438325 3.59558e-05 -9.0858e-07
-4.17047e-07 -9.0858e-07 -1.05906e-05
0.00144287 0.000291017 -1.20121e-05
0.000291017 3.68006e-05 -2.49678e-06
-1.20121e-05 -2.49678e-06 -0.000159041
0.00215085 0.000458496 1.24624e-06
0.000458496 0.000185392 4.80644e-08
1.24624e-06 4.80644e-08 -1.75871e-05
0.00230185 0.000490449 1.81019e-06
0.000490449 0.000223158 -1.48492e-06
1.81019e-06 -1.48492e-06 5.87848e-05
0.000339128 0.000158043 -1.90261e-05
0.000158043 -0.000259866 -1.23779e-05
-1.90261e-05 -1.23779e-05 -0.000391337
0.0013473 0.000331944 4.30781e-07
0.000331944 -5.08055e-06 5.5523e-07
4.30781e-07 5.5523e-07 -0.000229977
0.00194935 0.000517048 5.24665e-06
0.000517048 0.000112875 -4.4178e-06
5.24665e-06 -4.4178e-06 -0.000129146
0.00753539 0.000279128 -0.000350172
0.000279128 0.00450078 -4.82774e-05
-0.000350172 -4.82774e-05 0.00450282
0.00030121 0.000214887 2.12347e-08
0.000214887 -0.000270002 7.35566e-07
2.12347e-08 7.35566e-07 -0.000422252
0.00129995 0.000385063 2.57954e-05
0.000385063 8.82299e-06 6.24264e-06
2.57954e-05 6.24264e-06 -0.000254331
0.000218602 0.000244696 2.25294e-05
0.000244696 -0.00028293 1.88196e-05
2.25294e-05 1.88196e-05 -0.000451508
0.00782863 0.000210281 1.14166e-05
0.000210281 0.00468845 2.48785e-06
1.14166e-05 2.48785e-06 0.0046944
0.00807902 6.48061e-05 0.000346372
6.48061e-05 0.00483335 2.91605e-05
0.000346372 2.91605e-05 0.00484863
0.00209752 8.8298e-05 -5.14105e-06
8.8298e-05 1.59791e-05 -1.52683e-07
-5.14105e-06 -1.52683e-07 4.78116e-06
0.00221654 0.000138314 -3.95357e-08
0.000138314 -8.24395e-06 -1.17807e-08
-3.95357e-08 -1.17807e-08 1.88087e-05
0.00226208 0.000245614 -5.80665e-07
0.000245614 -9.32409e-05 1.83267e-07
-5.80665e-07 1.83267e-07 -4.47202e-05
0.00204807 9.20987e-06 -6.85584e-06
9.20987e-06 -1.89862e-05 3.27279e-07
-6.85584e-06 3.27279e-07 -5.73001e-05
0.0020901 3.57745e-05 7.56038e-07
3.57745e-05 2.96677e-07 -8.25155e-09
7.56038e-07 -8.25155e-09 -4.27858e-07
0.00220747 5.51937e-05 -1.27983e-06
5.51937e-05 -3.59512e-05 -1.50719e-08
-1.27983e-06 -1.50719e-08 6.93329e-06
0.00214881 -2.3952e-05 1.75499e-06
-2.3952e-05 3.47067e-06 -4.05217e-07
1.75499e-06 -4.05217e-07 2.33672e-05
0.00206129 -6.16058e-05 -7.84997e-07
-6.16058e-05 -3.1502e-05 2.19855e-08
-7.84997e-07 2.19855e-08 -5.83983e-05
0.00205815 -7.17333e-05 -1.80744e-06
-7.17333e-05 7.74606e-05 2.12671e-07
-1.80744e-06 2.12671e-07 -5.28671e-06
0.00214242 -0.000149584 4.04005e-06
-0.000149584 1.51727e-05 -6.44544e-07
4.04005e-06 -6.44544e-07 -2.0683e-05
0.00208157 -0.000147539 8.5673e-07
-0.000147539 7.98689e-05 -6.54542e-08
8.5673e-07 -6.54542e-08 -6.38156e-06
0.0014335 -8.29138e-05 -7.21694e-06
-8.29138e-05 8.91973e-05 2.31412e-07
-7.21694e-06 2.31412e-07 -3.98985e-05
0.00209701 -0.000211917 2.07001e-06
-0.000211917 8.89154e-05 -8.43013e-07
2.07001e-06 -8.43013e-07 -7.90238e-06
0.00120991 -0.000125338 -2.76059e-08
-0.000125338 -6.94198e-05 1.27374e-07
-2.76059e-08 1.27374e-07 -0.000221222
0.000293474 -2.84507e-05 -1.65168e-05
-2.84507e-05 -0.000277243 3.38259e-06
-1.65168e-05 3.38259e-06 -0.000377962
0.00126399 -0.000168379 4.37642e-06
-0.000168379 -5.0003e-05 -1.94216e-06
4.37642e-06 -1.94216e-06 -0.000213603
0.000322685 -8.21163e-05 -4.83557e-07
-8.21163e-05 -0.000257044 5.63271e-07
-4.83557e-07 5.63271e-07 -0.000366711
0.00698756 -7.37034e-05 -0.000361566
-7.37034e-05 0.00414156 1.89904e-05
-0.000361566 1.89904e-05 0.00417268
0.000408343 -8.84212e-05 1.28032e-05
-8.84212e-05 -0.000210582 -9.0287e-06
1.28032e-05 -9.0287e-06 -0.000327045
0.00447435 -0.000119944 0.000155369
-0.000119944 0.00253699 -8.93915e-06
0.000155369 -8.93915e-06 0.00252144
0.00166913 -9.6915e-05 9.07538e-05
-9.6915e-05 0.00074899 -1.34916e-05
9.07538e-05 -1.34916e-05 0.000691671
0.00214211 0.000147455 -6.82814e-06
0.000147455 5.49487e-05 -7.04241e-07
-6.82814e-06 -7.04241e-07 3.66471e-05
0.00225458 0.000225821 -4.55795e-06
0.000225821 0.000107944 -7.43216e-07
-4.55795e-06 -7.43216e-07 4.91444e-05
0.00215645 0.00017402 -7.35861e-07
0.00017402 1.509e-05 -1.90414e-07
-7.35861e-07 -1.90414e-07 5.08937e-06
0.00208585 0.000291402 -4.68218e-07
0.000291402 9.47973e-05 3.74867e-07
-4.68218e-07 3.74867e-07 -3.35769e-05
0.00228724 0.000309929 -1.07625e-07
0.000309929 0.000109566 -2.59649e-07
-1.07625e-07 -2.59649e-07 4.01571e-05
0.00222189 0.000258153 1.61878e-06
0.000258153 2.56799e-05 8.07567e-07
1.61878e-06 8.07567e-07 2.78201e-06
0.00137166 0.000225776 -6.83873e-06
0.000225776 6.63011e-06 -1.34133e-06
-6.83873e-06 -1.34133e-06 -0.000163542
0.00209834 0.00036254 2.37433e-06
0.00036254 0.000123797 7.25823e-07
2.37433e-06 7.25823e-07 -3.3901e-05
0.00223792 0.000400039 3.51855e-06
0.000400039 0.000112378 -2.70669e-07
3.51855e-06 -2.70669e-07 7.32841e-06
0.000330857 0.00011194 -1.71159e-05
0.00011194 -0.000266613 -9.14514e-06
-1.71159e-05 -9.14514e-06 -0.000385371
0.00140596 0.000283685 6.51562e-07
0.000283685 1.8814e-05 9.29393e-07
6.51562e-07 9.29393e-07 -0.00017465
0.00219606 0.000457336 3.54853e-06
0.000457336 0.000218174 -1.03135e-06
3.54853e-06 -1.03135e-06 1.70586e-05
0.00728037 0.000315407 -0.00036318
0.000315407 0.00434665 -4.5794e-05
-0.00036318 -4.5794e-05 0.00434917
0.000334984 0.000160118 3.78468e-07
0.000160118 -0.000267131 4.16357e-07
3.78468e-07 4.16357e-07 -0.00040021
0.00128937 0.000329081 1.80593e-05
0.000329081 -3.89334e-05 4.553e-06
1.80593e-05 4.553e-06 -0.000260365
0.0075935 0.000300064 1.23885e-05
0.000300064 0.00454813 4.78274e-06
1.23885e-05 4.78274e-06 0.00454719
0.000302301 0.000210416 2.00182e-05
0.000210416 -0.0002725 1.64475e-05
2.00182e-05 1.64475e-05 -0.000425709
0.00789917 0.000184179 0.000363599
0.000184179 0.00471796 3.84925e-05
0.000363599 3.84925e-05 0.00473422
0.00202424 6.87617e-05 -7.20276e-06
6.87617e-05 -3.3047e-05 8.72005e-08
-7.20276e-06 8.72005e-08 -7.5571e-05
0.00209213 9.4903e-05 -1.06019e-06
9.4903e-05 1.71126e-05 -1.88502e-07
-1.06019e-06 -1.88502e-07 5.59029e-06
0.00220368 0.000133745 5.4696e-07
0.000133745 -1.42793e-05 3.79283e-07
5.4696e-07 3.79283e-07 1.01248e-05
0.00197298 -9.90893e-06 -1.58997e-06
-9.90893e-06 3.01361e-05 -1.58909e-08
-1.58997e-06 -1.58909e-08 -5.29241e-05
0.00205981 1.06156e-05 -9.35304e-07
1.06156e-05 -1.23487e-05 -1.27448e-08
-9.35304e-07 -1.27448e-08 -4.73426e-05
0.00207398 4.21947e-05 3.73837e-06
4.21947e-05 -1.45836e-05 1.5368e-08
3.73837e-06 1.5368e-08 -1.16642e-05
0.00206654 -6.07233e-05 3.34245e-06
-6.07233e-05 -2.72411e-05 -6.31478e-07
3.34245e-06 -6.31478e-07 -5.35028e-05
0.00201084 -7.11393e-05 -1.55063e-07
-7.11393e-05 4.59804e-05 2.35155e-07
-1.55063e-07 2.35155e-07 -3.60184e-05
0.00138188 -3.6726e-05 -8.83712e-06
-3.6726e-05 7.15414e-05 -4.9464e-07
-8.83712e-06 -4.9464e-07 -5.01935e-05
0.0019479 -0.000147773 1.7e-07
-0.000147773 -4.92983e-06 -2.34267e-07
1.7e-07 -2.34267e-07 -0.000101071
0.00129297 -8.20567e-05 2.79202e-06
-8.20567e-05 -6.04529e-06 -3.27901e-07
2.79202e-06 -3.27901e-07 -0.000141354
0.000284586 -1.03811e-05 -1.70703e-05
-1.03811e-05 -0.000278847 1.71591e-06
-1.70703e-05 1.71591e-06 -0.000374664
0.00121179 -0.000122767 5.11933e-06
-0.000122767 -6.7319e-05 -1.12099e-06
5.11933e-06 -1.12099e-06 -0.00021817
0.000294416 -4.07078e-05 5.39358e-07
-4.07078e-05 -0.000275364 -3.2379e-07
5.39358e-07 -3.2379e-07 -0.000375498
0.00678753 -0.000168979 -0.000363317
-0.000168979 0.00403317 2.06988e-05
-0.000363317 2.06988e-05 0.00405721
0.000319974 -6.58158e-05 1.63017e-05
-6.58158e-05 -0.000257486 -5.1043e-06
1.63017e-05 -5.1043e-06 -0.000366044
0.00691562 -0.00011058 7.3331e-06
-0.00011058 0.00410015 1.24195e-07
7.3331e-06 1.24195e-07 0.00413021
0.00199828 -4.56265e-05 0.00027743
-4.56265e-05 0.000927733 -2.05983e-05
0.00027743 -2.05983e-05 0.000919776
0.00209968 0.000153025 -7.52353e-06
0.000153025 1.65905e-05 -5.74594e-07
-7.52353e-06 -5.74594e-07 -3.65371e-05
0.002094 0.000148439 -1.56487e-06
0.000148439 1.20571e-05 -1.36886e-07
-1.56487e-06 -1.36886e-07 -5.00019e-07
0.00209744 0.000218486 1.32666e-06
0.000218486 9.80174e-05 5.84471e-07
1.32666e-06 5.84471e-07 -9.41973e-06
0.00225978 0.000225432 8.51462e-07
0.000225432 0.000107972 -1.49938e-08
8.51462e-07 -1.49938e-08 4.96453e-05
0.00214542 0.000167487 2.34427e-06
0.000167487 1.28647e-05 2.93321e-07
2.34427e-06 2.93321e-07 2.85715e-06
0.00123615 0.000166622 -3.85424e-06
0.000166622 -6.15185e-05 -1.06344e-06
-3.85424e-06 -1.06344e-06 -0.000223915
0.00213333 0.000291467 3.93601e-07
0.000291467 0.0001323 -1.57171e-07
3.93601e-07 -1.57171e-07 4.12411e-06
0.00230819 0.000308047 4.20132e-06
0.000308047 0.000119205 1.28512e-06
4.20132e-06 1.28512e-06 4.93654e-05
0.000331733 8.06962e-05 -1.63091e-05
8.06962e-05 -0.000259432 -6.6083e-06
-1.63091e-05 -6.6083e-06 -0.000370955
0.00131618 0.000222949 2.07853e-06
0.000222949 -2.49448e-05 8.30444e-07
2.07853e-06 8.30444e-07 -0.000199997
0.00207839 0.000358629 1.74732e-06
0.000358629 0.000125474 -1.27698e-07
1.74732e-06 -1.27698e-07 -4.0234e-05
0.0070907 0.000309607 -0.000377349
0.000309607 0.00423754 -4.16232e-05
-0.000377349 -4.16232e-05 0.00424161
0.000348326 0.000117918 5.51599e-07
0.000117918 -0.000259028 2.14132e-07
5.51599e-07 2.14132e-07 -0.000379657
0.00136578 0.000275961 1.02767e-05
0.000275961 -1.69006e-06 3.69523e-06
1.02767e-05 3.69523e-06 -0.000192586
0.00737201 0.000342207 9.1673e-06
0.000342207 0.00441736 5.42056e-06
9.1673e-06 5.42056e-06 0.00441418
0.000338686 0.000161411 1.76493e-05
0.000161411 -0.000269614 1.29548e-05
1.76493e-05 1.29548e-05 -0.000404114
0.00765766 0.00030829 0.000373704
0.00030829 0.00458318 4.88394e-05
0.000373704 4.88394e-05 0.00458677
0.00194355 6.5266e-05 -4.79091e-07
6.5266e-05 1.24682e-05 -5.47599e-08
-4.79091e-07 -5.47599e-08 -7.51653e-05
0.00206367 7.02059e-05 -2.89352e-06
7.02059e-05 3.75974e-07 -6.69659e-08
-2.89352e-06 -6.69659e-08 -4.32848e-05
0.00208649 0.000101201 5.29935e-06
0.000101201 1.81351e-05 1.41702e-07
5.29935e-06 1.41702e-07 6.27668e-06
0.00128975 -1.23178e-05 -9.95819e-06
-1.23178e-05 2.24677e-05 -6.02403e-07
-9.95819e-06 -6.02403e-07 -9.73185e-05
0.00199085 -6.65832e-06 4.2882e-07
-6.65832e-06 4.51131e-05 1.52104e-07
4.2882e-07 1.52104e-07 -3.74088e-05
0.00207984 1.15168e-05 3.67767e-06
1.15168e-05 4.60675e-07 -1.1689e-07
3.67767e-06 -1.1689e-07 -3.1103e-05
0.0019511 -7.10012e-05 1.27024e-06
-7.10012e-05 6.01886e-06 2.69851e-07
1.27024e-06 2.69851e-07 -7.54164e-05
0.00132031 -3.88968e-05 2.19745e-06
-3.88968e-05 2.49877e-05 -1.28156e-07
2.19745e-06 -1.28156e-07 -9.70039e-05
0.00029964 -3.28452e-05 -1.79075e-05
-3.28452e-05 -0.000264044 5.89272e-07
-1.79075e-05 5.89272e-07 -0.000355725
0.00116114 -8.08127e-05 8.84202e-06
-8.08127e-05 -9.60439e-05 -7.507e-07
8.84202e-06 -7.507e-07 -0.000237511
0.000300825 3.54861e-07 1.24531e-07
3.54861e-07 -0.000269607 6.3382e-08
1.24531e-07 6.3382e-08 -0.000363936
0.00667736 -0.000136899 -0.000362564
-0.000136899 0.00396193 1.56486e-05
-0.000362564 1.56486e-05 0.00398964
0.000334029 -4.8888e-05 1.7512e-05
-4.8888e-05 -0.000246867 -3.24842e-06
1.7512e-05 -3.24842e-06 -0.000347936
0.0067814 -6.40401e-05 -2.90428e-06
-6.40401e-05 0.0040152 3.40777e-06
-2.90428e-06 3.40777e-06 0.00404796
0.0068899 -0.000124764 0.000362092
-0.000124764 0.00408589 -1.86748e-05
0.000362092 -1.86748e-05 0.00411575
0.00207667 0.000141713 4.07782e-07
0.000141713 9.29494e-05 2.50358e-07
4.07782e-07 2.50358e-07 -7.69175e-07
0.00214767 0.000152019 -2.2179e-06
0.000152019 4.30454e-05 -2.38406e-07
-2.2179e-06 -2.38406e-07 -4.40344e-06
0.00204763 0.000149729 4.68757e-06
0.000149729 -3.02902e-05 5.32167e-07
4.68757e-06 5.32167e-07 -3.70114e-05
0.00120663 0.000115733 -5.88871e-06
0.000115733 -6.43191e-05 -3.65234e-07
-5.88871e-06 -3.65234e-07 -0.000212428
0.00212154 0.000218282 1.06336e-07
0.000218282 0.000116763 -1.16903e-07
1.06336e-07 -1.16903e-07 9.20141e-06
0.00226235 0.0002248 4.52493e-06
0.0002248 0.000106654 4.26978e-07
4.52493e-06 4.26978e-07 4.87928e-05
0.000325074 5.44088e-05 -1.58477e-05
5.44088e-05 -0.00025489 -4.44519e-06
-1.58477e-05 -4.44519e-06 -0.000360231
0.00124347 0.000168939 1.66331e-07
0.000168939 -5.06621e-05 2.38995e-07
1.66331e-07 2.38995e-07 -0.000214305
0.00215212 0.000290387 8.81418e-07
0.000290387 0.000150652 -9.60735e-07
8.81418e-07 -9.60735e-07 2.24833e-05
0.00693175 0.00025383 -0.00038505
0.00025383 0.00413386 -3.36547e-05
-0.00038505 -3.36547e-05 0.00414812
0.000341518 8.862e-05 8.50826e-07
8.862e-05 -0.000254867 2.20688e-07
8.50826e-07 2.20688e-07 -0.000368495
0.00124527 0.000218932 5.34683e-06
0.000218932 -6.77613e-05 2.76388e-06
5.34683e-06 2.76388e-06 -0.000247473
0.00718898 0.000328758 4.75314e-06
0.000328758 0.00430504 3.50615e-06
4.75314e-06 3.50615e-06 0.00430682
0.000368932 0.000125702 1.65377e-05
0.000125702 -0.00024816 1.00627e-05
1.65377e-05 1.00627e-05 -0.000371263
0.00748569 0.000382069 0.000386596
0.000382069 0.00450203 5.5105e-05
0.000386596 5.5105e-05 0.00449291
0.00110723 3.46688e-05 -1.10704e-05
3.46688e-05 -9.71541e-05 -4.0562e-07
-1.10704e-05 -4.0562e-07 -0.000229298
0.00205358 6.2563e-05 2.89324e-07
6.2563e-05 8.62813e-05 -8.25397e-09
2.89324e-07 -8.25397e-09 4.64162e-06
0.00211009 7.2059e-05 3.904e-06
7.2059e-05 3.80544e-05 -1.01636e-07
3.904e-06 -1.01636e-07 -6.52121e-06
0.000354916 3.21479e-05 -1.85369e-05
3.21479e-05 -0.00023444 -1.2674e-06
-1.85369e-05 -1.2674e-06 -0.000316638
0.00128219 -7.58329e-06 1.60104e-06
-7.58329e-06 1.40334e-05 -3.74541e-08
1.60104e-06 -3.74541e-08 -0.000105812
0.00201228 -2.03473e-06 2.24539e-06
-2.03473e-06 6.21775e-05 1.09243e-07
2.24539e-06 1.09243e-07 -1.98486e-05
0.0012591 -4.03617e-05 1.21726e-05
-4.03617e-05 -2.08822e-05 -3.57589e-08
1.21726e-05 -3.57589e-08 -0.000143084
0.000307823 -6.00444e-06 3.13208e-07
-6.00444e-06 -0.000259374 4.82011e-07
3.13208e-07 4.82011e-07 -0.000350608
0.00655525 2.94858e-06 -0.000363874
2.94858e-06 0.00387516 3.08786e-06
-0.000363874 3.08786e-06 0.00391151
0.000294417 1.18539e-05 1.71174e-05
1.18539e-05 -0.000274854 -7.00065e-07
1.71174e-05 -7.00065e-07 -0.000367546
0.00663075 -0.000134239 -7.47579e-06
-0.000134239 0.00393429 2.2494e-06
-7.47579e-06 2.2494e-06 0.00396147
0.00670671 -4.65297e-05 0.000348155
-4.65297e-05 0.00396775 -1.05302e-05
0.000348155 -1.05302e-05 0.00400075
0.00116233 7.37253e-05 -9.56949e-06
7.37253e-05 -7.09849e-05 -4.77771e-07
-9.56949e-06 -4.77771e-07 -0.000208839
0.00212562 0.000138047 -4.06653e-07
0.000138047 0.000126146 -2.84372e-07
-4.06653e-07 -2.84372e-07 3.65186e-05
0.00217954 0.000150597 1.97472e-06
0.000150597 5.85116e-05 -2.12501e-07
1.97472e-06 -2.12501e-07 1.63943e-05
0.00275259 7.2296e-05 -0.000162462
7.2296e-05 0.00130838 -6.08403e-06
-0.000162462 -6.08403e-06 0.00125223
0.00119902 0.000116855 8.79124e-08
0.000116855 -6.65581e-05 1.64708e-07
8.79124e-08 1.64708e-07 -0.00021551
0.00214532 0.000218354 3.04875e-09
0.000218354 0.000134962 -6.0461e-07
3.04875e-09 -6.0461e-07 2.72229e-05
0.00678771 0.000185131 -0.000383087
0.000185131 0.00403506 -2.41039e-05
-0.000383087 -2.41039e-05 0.00405995
0.000335331 7.42703e-05 1.12812e-06
7.42703e-05 -0.000247642 5.3549e-07
1.12812e-06 5.3549e-07 -0.000355527
0.00124451 0.000170902 4.31693e-06
0.000170902 -4.57563e-05 1.44696e-06
4.31693e-06 1.44696e-06 -0.00021067
0.00703816 0.000270962 1.23748e-06
0.000270962 0.0042029 1.68965e-06
1.23748e-06 1.68965e-06 0.00421549
0.000356203 9.87835e-05 1.62796e-05
9.87835e-05 -0.000245977 7.81146e-06
1.62796e-05 7.81146e-06 -0.000362316
0.00728305 0.000364919 0.000391334
0.000364919 0.00437883 5.22231e-05
0.000391334 5.22231e-05 0.00437381
0.000439413 1.43092e-05 -1.42489e-05
1.43092e-05 -0.000168111 -1.89294e-06
-1.42489e-05 -1.89294e-06 -0.000259279
0.00118394 3.43919e-05 -2.69109e-07
3.43919e-05 -4.96336e-05 2.61702e-08
-2.69109e-07 2.61702e-08 -0.000177073
0.00215838 5.85697e-05 2.73229e-06
5.85697e-05 0.000156529 -1.11612e-07
2.73229e-06 -1.11612e-07 8.07656e-05
0.00635413 -0.000105386 -0.000345763
-0.000105386 0.0037664 5.48393e-06
-0.000345763 5.48393e-06 0.00379165
0.000299686 1.09376e-05 -5.94938e-07
1.09376e-05 -0.000265139 -2.27787e-07
-5.94938e-07 -2.27787e-07 -0.000349973
0.00126312 -3.87215e-06 1.29929e-05
-3.87215e-06 -2.02234e-06 2.03498e-07
1.29929e-05 2.03498e-07 -0.000121946
0.000286969 2.0167e-05 1.733e-05
2.0167e-05 -0.000275129 9.29044e-07
1.733e-05 9.29044e-07 -0.000364761
0.00649593 -3.23691e-05 2.08576e-06
-3.23691e-05 0.00384436 -1.86569e-06
2.08576e-06 -1.86569e-06 0.00387563
0.0066314 -5.8685e-05 0.000353677
-5.8685e-05 0.00392124 -7.76554e-06
0.000353677 -7.76554e-06 0.00395526
0.00281374 2.28959e-05 -0.000155971
2.28959e-05 0.00134954 -3.05359e-06
-0.000155971 -3.05359e-06 0.00129861
0.00115355 7.63726e-05 -4.45375e-08
7.63726e-05 -8.02877e-05 -8.00834e-08
-4.45375e-08 -8.00834e-08 -0.000218872
0.00220522 0.000135185 1.34235e-06
0.000135185 0.000180109 -6.30256e-07
1.34235e-06 -6.30256e-07 9.48612e-05
0.006306 -1.99891e-05 -0.000161747
-1.99891e-05 0.00373976 -2.36718e-07
-0.000161747 -2.36718e-07 0.00373008
0.000308598 6.28271e-05 7.65378e-07
6.28271e-05 -0.000257999 2.91116e-07
7.65378e-07 2.91116e-07 -0.000357724
0.00117462 0.00011882 6.07049e-06
0.00011882 -7.86567e-05 5.6883e-07
6.07049e-06 5.6883e-07 -0.000228621
0.00686271 0.000162061 -9.66295e-06
0.000162061 0.00407645 -1.87007e-06
-9.66295e-06 -1.87007e-06 0.00410257
0.000342078 9.67723e-05 1.75249e-05
9.67723e-05 -0.000243695 6.27821e-06
1.75249e-05 6.27821e-06 -0.000353241
0.00712587 0.000294175 0.000394729
0.000294175 0.00426395 4.31062e-05
0.000394729 4.31062e-05 0.00427459
0.00194292 -5.31873e-05 -0.000267683
-5.31873e-05 0.000898888 1.86931e-06
-0.000267683 1.86931e-06 0.000902705
0.00154778 3.48674e-05 -6.78493e-05
3.48674e-05 0.00053619 -1.53045e-07
-6.78493e-05 -1.53045e-07 0.000470564
0.0012874 3.68685e-05 1.20019e-05
3.68685e-05 1.41381e-05 3.55244e-07
1.20019e-05 3.55244e-07 -0.000108489
0.00642237 -5.16667e-05 6.81607e-06
-5.16667e-05 0.00380347 3.24316e-06
6.81607e-06 3.24316e-06 0.00383453
0.000326301 -9.34893e-06 1.79916e-05
-9.34893e-06 -0.000241569 1.07502e-06
1.79916e-05 1.07502e-06 -0.000330315
0.00651983 -9.3523e-05 0.00036365
-9.3523e-05 0.00386512 -6.75398e-06
0.00036365 -6.75398e-06 0.00389552
0.001468 2.68796e-05 -7.45833e-05
2.68796e-05 0.000624275 -1.24743e-06
-7.45833e-05 -1.24743e-06 0.000581402
0.0015392 2.44281e-05 -6.91115e-05
2.44281e-05 0.000532477 -1.89638e-06
-6.91115e-05 -1.89638e-06 0.000461356
0.00114984 7.70916e-05 9.86123e-06
7.70916e-05 -8.48927e-05 2.47277e-07
9.86123e-06 2.47277e-07 -0.00022407
0.00413261 7.83581e-05 0.000135146
7.83581e-05 0.00232337 4.70866e-06
0.000135146 4.70866e-06 0.0023177
0.000317764 7.37563e-05 1.81264e-05
7.37563e-05 -0.000252877 4.35315e-06
1.81264e-05 4.35315e-06 -0.000352698
0.00695434 0.000149592 0.000377156
0.000149592 0.00412606 2.61791e-05
0.000377156 2.61791e-05 0.00415603
0.00633034 -1.77076e-05 -8.39229e-06
-1.77076e-05 0.00374966 -3.70787e-06
-8.39229e-06 -3.70787e-06 0.00377883
0.00029201 5.32468e-05 1.94562e-05
5.32468e-05 -0.000272135 2.43186e-06
1.94562e-05 2.43186e-06 -0.000353783
0.00630773 3.18037e-05 0.000348912
3.18037e-05 0.00372599 2.15894e-07
0.000348912 2.15894e-07 0.00376056
0.00397055 3.83463e-05 0.000146241
3.83463e-05 0.00222575 6.37561e-06
0.000146241 6.37561e-06 0.00222319
0.000316939 1.30444e-05 1.74951e-05
1.30444e-05 -0.00024903 2.15209e-06
1.74951e-05 2.15209e-06 -0.000340707
0.00671061 1.67746e-05 0.000362769
1.67746e-05 0.00397099 1.21065e-05
0.000362769 1.21065e-05 0.00400413
0.00639243 -0.000111011 0.000348616
-0.000111011 0.00379222 -4.54339e-06
0.000348616 -4.54339e-06 0.00381767
0.0064443 2.11245e-05 0.000352676
2.11245e-05 0.00380344 7.26468e-06
0.000352676 7.26468e-06 0.00383953
