# vtk DataFile Version 2.0
Wound Healing Simulation
ASCII
DATASET UNSTRUCTURED_GRID
POINTS 3012 float
69.9759 18.75 4
67.2507 60.3285 4
69.976 18.75 2
73.0099 25.446 4
71.1327 20.9142 4
68.6801 16.6661 4
67.8193 19.9239 3.97006
67.2507 60.3286 2
71.1327 54.0858 4
68.6801 58.3339 4
65.6939 62.2254 4
65.3063 58.9993 3.96918
74.6784 42.3946 4
73.7221 47.2057 4
69.9759 18.75 0
73.0099 25.446 2
68.6801 16.6661 2
71.1327 20.9142 2
67.8196 19.9277 2
74.6792 32.6053 4
73.7222 27.7943 4
72.1454 23.1494 4
70.6103 26.2211 3.97086
68.8802 21.9561 3.97051
67.2507 14.6715 4
66.6301 17.971 3.96917
65.6982 21.0573 3.96045
67.2507 60.3285 0
71.1327 54.0858 2
68.6801 58.3339 2
65.694 62.2255 2
65.3078 58.9935 2
72.1454 51.8506 4
69.9759 56.25 4
68.831 53.1149 3.97052
64.0165 64.0165 4
66.6042 57.1338 3.96996
63.8789 60.7612 3.96574
63.4247 57.7378 3.95732
60.3285 67.2507 4
74.6792 42.3947 2
73.7222 47.2057 2
74.9194 39.9526 4
74.2788 44.8158 4
72.1654 42.0859 3.97346
73.0099 49.554 4
71.2459 46.5985 3.97182
73.0099 25.446 0
71.1327 20.9142 0
68.6801 16.6661 0
67.8193 19.9239 0.0299449
74.6792 32.6053 2
73.7222 27.7943 2
67.2508 14.6715 2
72.1455 23.1494 2
70.6095 26.2223 2
66.6311 17.9753 2
68.8801 21.9588 2
65.6991 21.058 2
74.9197 35.0474 4
74.2794 30.1841 4
72.1821 32.9447 3.97345
71.275 28.4324 3.97157
69.8109 24.0586 3.97059
68.2831 26.9699 3.96392
66.6748 22.9605 3.96216
65.694 12.7746 4
65.3171 16.1044 3.96865
64.6097 19.2308 3.95846
63.6402 22.1299 3.96585
71.1327 54.0858 0
65.6939 62.2254 0
68.6801 58.3339 0
65.3063 58.9993 0.030821
72.1455 51.8506 2
69.9759 56.25 2
68.8311 53.1112 2
64.0165 64.0165 2
66.6056 57.1282 2
63.8803 60.7547 2
63.4166 57.7375 2
62.2254 65.694 4
58.8885 65.4079 3.97299
69.7642 50.9902 3.97065
67.7776 55.1688 3.97031
66.5535 52.1804 3.9629
62.3294 62.4221 3.96617
64.5656 55.9975 3.95952
62.1774 59.3756 3.95324
61.6167 56.5823 3.96112
58.3339 68.6801 4
60.3285 67.2508 2
73.7221 47.2057 0
74.6784 42.3946 0
74.9197 39.9526 2
74.2794 44.8159 2
72.1643 42.0848 2
73.0099 49.554 2
71.245 46.5967 2
75 37.5 4
72.4027 39.8028 3.97433
71.7794 44.3531 3.97283
69.774 41.7858 3.96746
70.5711 48.8143 3.97117
68.8529 46.0014 3.96614
74.6792 32.6053 0
73.7222 27.7943 0
67.2507 14.6715 0
72.1454 23.1494 0
70.6103 26.2211 0.0291425
68.8802 21.9561 0.0294931
66.6301 17.971 0.0308286
65.6982 21.0573 0.0395496
74.9197 35.0474 2
74.2794 30.1841 2
72.1807 32.9448 2
71.2739 28.4332 2
65.694 12.7745 2
65.3173 16.1099 2
69.8104 24.0604 2
68.2862 26.9705 2
64.6029 19.2325 2
66.6769 22.9612 2
63.6404 22.13 2
72.4106 35.2253 3.97426
71.801 30.6776 3.97288
69.8102 33.2762 3.96653
68.9149 29.0528 3.96472
67.5367 24.9345 3.96335
65.9524 27.7006 3.97434
64.0165 10.9835 4
64.5004 23.9177 3.96891
63.8819 14.3313 3.96516
63.4194 17.4843 3.95554
62.6667 20.4223 3.96279
61.6927 23.1023 3.97257
60.6784 11.1051 3.97232
57.6019 11.5008 3.96355
72.1454 51.8506 0
69.9759 56.25 0
68.831 53.1149 0.0294794
64.0165 64.0165 0
63.8789 60.7612 0.0342559
66.6042 57.1338 0.0300444
63.4247 57.7378 0.0426773
62.2255 65.694 2
58.8924 65.4017 2
69.7639 50.9876 2
67.7783 55.1641 2
66.5548 52.1795 2
62.3313 62.4131 2
64.5594 55.9963 2
62.1659 59.3749 2
61.6206 56.5834 2
60.6624 63.9719 3.97237
57.0201 66.7309 3.97741
57.5412 63.6398 3.96723
67.4192 50.1523 3.96413
65.6035 54.1413 3.96112
64.2593 51.2944 3.96989
60.7601 60.8998 3.96039
62.5864 54.9709 3.96497
60.4701 58.0543 3.9559
60.0102 55.632 3.96714
56.25 69.9759 4
58.3339 68.6801 2
60.3285 67.2507 0
58.9176 9.66388 3.97227
62.2254 9.30607 4
73.0099 49.554 0
74.2788 44.8158 0
71.2459 46.5985 0.0281808
72.1654 42.0859 0.0265432
74.9194 39.9526 0
75 37.5 2
72.402 39.802 2
71.7787 44.3516 2
69.7762 41.7854 2
70.5706 48.8123 2
68.8568 46.0009 2
72.4863 37.5129 3.97416
70.0186 39.6568 3.96745
69.3902 43.8996 3.96719
67.3626 41.4742 3.97663
68.189 48.0879 3.96493
66.4467 45.3864 3.97641
74.9197 35.0474 0
74.2794 30.1841 0
72.1821 32.9447 0.0265481
71.275 28.4324 0.0284265
65.694 12.7746 0
65.3171 16.1044 0.0313479
69.8109 24.0586 0.0294116
68.2831 26.9699 0.0360822
66.6748 22.9605 0.0378432
64.6097 19.2308 0.0415389
63.6402 22.1299 0.034155
72.4098 35.225 2
71.8002 30.6783 2
69.8134 33.2765 2
68.9194 29.0531 2
64.0165 10.9835 2
63.8834 14.3383 2
63.4271 17.4811 2
67.5395 24.9352 2
65.9499 27.7018 2
62.6721 20.4208 2
64.4992 23.9183 2
61.6925 23.1032 2
60.681 11.1105 2
57.5993 11.4903 2
70.0337 35.3969 3.96691
69.4284 31.1604 3.96554
67.431 33.6186 3.97661
66.5337 29.6769 3.97566
65.2729 25.7765 3.97216
63.7053 28.3708 3.97527
62.3338 12.6611 3.96652
62.439 24.7874 3.97448
62.1685 15.8136 3.95399
61.5755 18.796 3.95924
60.8342 21.5104 3.96889
59.8913 23.9493 3.97395
59.2347 12.827 3.9636
55.8688 10.2761 3.97193
56.3772 13.2052 3.96313
69.7642 50.9902 0.0293539
62.2254 65.694 0
58.8885 65.4079 0.0270109
67.7776 55.1688 0.0296919
66.5535 52.1804 0.0371005
62.3294 62.4221 0.0338259
62.1774 59.3756 0.0467557
64.5656 55.9975 0.0404772
61.6167 56.5823 0.0388757
60.6664 63.9647 2
57.0242 66.7255 2
57.5449 63.6482 2
67.4207 50.1514 2
65.6026 54.1404 2
64.2579 51.2937 2
60.7515 60.9013 2
62.5893 54.9718 2
60.4634 58.0528 2
60.0087 55.6319 2
55.0656 67.9292 3.98178
59.2106 62.3159 3.96851
55.7878 64.8593 3.96987
56.3075 62.0076 3.98118
65.051 49.3272 3.97294
63.4406 53.1956 3.9672
61.9773 50.4941 3.97377
59.2241 59.4667 3.95358
60.7052 54.1517 3.97144
58.9465 56.8389 3.96048
58.824 54.9883 3.97124
48.0972 68.567 3.97863
50.9439 69.9302 3.98575
54.0858 71.1327 4
56.25 69.976 2
58.3339 68.6801 0
57.0559 8.33686 3.97985
60.3285 7.74928 4
58.9197 9.66916 2
62.2255 9.30602 2
70.5711 48.8143 0.0288332
71.7794 44.3531 0.0271708
68.8529 46.0014 0.033858
69.774 41.7858 0.0325391
72.4027 39.8028 0.0256738
75 37.5 0
72.4849 37.5124 2
70.0215 39.6565 2
69.3919 43.8991 2
67.3598 41.4736 2
68.1897 48.0868 2
66.4429 45.3851 2
70.1066 37.5237 3.96727
67.6104 39.5032 3.97656
66.9739 43.4317 3.97661
65.1437 41.1747 3.97638
65.7955 47.3501 3.97503
64.1981 44.7672 3.97582
72.4106 35.2253 0.0257351
71.801 30.6776 0.027123
69.8102 33.2762 0.0334662
68.9149 29.0528 0.0352772
64.0165 10.9835 0
63.8819 14.3313 0.0348366
63.4194 17.4843 0.0444617
67.5367 24.9345 0.0366487
65.9524 27.7006 0.0256646
64.5004 23.9177 0.0310864
62.6667 20.4223 0.0372082
61.6927 23.1023 0.0274336
60.6784 11.1051 0.0276847
57.6019 11.5008 0.0364486
70.0366 35.397 2
69.4318 31.1607 2
67.4288 33.6191 2
66.5305 29.6781 2
62.3362 12.6683 2
62.1676 15.8139 2
61.5858 18.7932 2
65.271 25.7774 2
63.704 28.3711 2
60.8341 21.5114 2
62.4384 24.7883 2
59.8896 23.951 2
59.2334 12.8244 2
56.3721 13.1954 2
55.8684 10.2818 2
67.653 35.5632 3.97668
67.0336 31.6635 3.97651
65.3016 33.9682 3.97655
64.2248 30.2838 3.97566
63.1081 26.5517 3.97468
61.6563 28.9348 3.97509
60.7571 14.2614 3.95754
60.4801 25.5487 3.97436
60.4209 17.2371 3.95514
59.835 20.0002 3.96396
59.1396 22.4909 3.97148
58.3313 24.5977 3.97419
54.0371 9.15564 3.98765
57.8517 14.4208 3.95163
54.7751 12.1011 3.97449
55.2341 14.775 3.95071
67.4192 50.1523 0.0358732
57.0201 66.7309 0.0225894
60.6624 63.9719 0.0276292
57.5412 63.6398 0.0327665
65.6035 54.1413 0.038879
64.2593 51.2944 0.0301071
60.7601 60.8998 0.0396091
60.4701 58.0543 0.0441013
62.5864 54.9709 0.0350269
60.0102 55.632 0.032865
55.0704 67.9238 2
59.2077 62.3222 2
55.7919 64.8541 2
56.3044 62.0099 2
65.0488 49.3261 2
63.4404 53.1954 2
61.9765 50.4938 2
59.25 59.4758 2
60.7041 54.1516 2
58.9538 56.8413 2
58.833 54.9905 2
53.0375 68.9964 3.98246
53.955 65.9865 3.97045
57.8395 60.7966 3.95411
54.6566 63.1103 3.96496
55.1669 60.5196 3.97641
62.7177 48.5188 3.9741
61.317 52.4143 3.97297
59.6322 49.7939 3.97294
57.786 58.1144 3.95671
58.8484 53.7389 3.97244
57.6337 55.5835 3.96322
50.1027 67.8452 3.9746
47.4529 66.5597 3.9746
46.0519 69.1485 3.98115
48.1013 68.5682 2
48.7979 70.721 3.9875
50.9489 69.9267 2
51.8506 72.1454 4
54.0858 71.1327 2
56.25 69.9759 0
55.1011 7.14033 3.99235
58.3339 6.31992 4
57.0592 8.34289 2
60.3286 7.74926 2
58.9176 9.66388 0.0277321
62.2254 9.30607 0
68.189 48.0879 0.0350729
69.3902 43.8996 0.0328088
66.4467 45.3864 0.0235858
67.3626 41.4742 0.0233669
70.0186 39.6568 0.0325518
72.4863 37.5129 0.0258406
70.1103 37.5237 2
67.6075 39.5028 2
66.9718 43.4305 2
65.1433 41.1746 2
65.7929 47.3489 2
64.1973 44.767 2
67.7138 37.5257 3.97652
65.3857 39.3542 3.97651
64.748 42.9663 3.9762
63.1961 40.8804 3.97632
63.4889 46.6035 3.9749
62.189 44.109 3.97571
70.0337 35.3969 0.0330948
69.4284 31.1604 0.0344622
67.431 33.6186 0.0233856
66.5337 29.6769 0.0243433
62.3338 12.6611 0.0334786
62.1685 15.8136 0.0460139
61.5755 18.796 0.0407559
65.2729 25.7765 0.0278403
63.7053 28.3708 0.0247291
62.439 24.7874 0.0255233
60.8342 21.5104 0.031113
59.8913 23.9493 0.0260485
59.2347 12.827 0.0364034
56.3772 13.2052 0.0368745
55.8688 10.2761 0.0280736
67.6507 35.5637 2
67.0314 31.6645 2
65.3002 33.9684 2
64.2241 30.284 2
60.7544 14.2612 2
60.4134 17.238 2
59.8342 20.0013 2
63.1068 26.5525 2
61.6562 28.9347 2
59.1402 22.4921 2
60.4795 25.5491 2
58.3271 24.6001 2
57.8504 14.4115 2
55.2234 14.7587 2
54.0413 9.15078 2
54.7644 12.0948 2
65.4845 35.6906 3.97656
64.7614 32.2171 3.97591
63.7772 34.2993 3.9761
61.9816 30.7587 3.97541
61.0611 27.2533 3.97465
60.1271 29.3282 3.97553
59.1856 15.7682 3.95406
58.6278 26.0588 3.97472
58.7766 18.5414 3.96011
58.2257 21.1004 3.96601
57.6604 23.3777 3.97185
57.2553 24.9742 3.97533
52.1021 8.18315 3.96839
53.0584 11.0602 3.9757
56.5373 15.889 3.95593
53.7682 13.7882 3.96662
54.2218 16.1621 3.95669
55.0656 67.9292 0.0182182
65.051 49.3272 0.0270605
55.7878 64.8593 0.0301342
59.2106 62.3159 0.0314922
56.3075 62.0076 0.0188168
63.4406 53.1956 0.0328015
61.9773 50.4941 0.0262275
59.2241 59.4667 0.0464237
58.9465 56.8389 0.0395193
60.7052 54.1517 0.0285602
58.824 54.9883 0.0287624
53.0427 68.9931 2
53.9592 65.9862 2
57.8406 60.8036 2
54.6546 63.1102 2
55.1643 60.5179 2
62.717 48.5184 2
61.3165 52.4143 2
59.6326 49.7937 2
57.7934 58.1188 2
58.8528 53.7395 2
57.6307 55.5822 2
52.0612 66.9811 3.97336
52.9305 64.1485 3.96848
56.5233 59.3679 3.95167
53.6234 61.483 3.96551
54.1686 59.1861 3.96467
60.3145 47.6874 3.97378
59.1391 51.884 3.97287
57.2373 49.3334 3.97357
56.4577 56.7943 3.96056
56.4835 53.8432 3.96782
50.1066 67.842 2
49.3226 65.882 3.97395
47.4568 66.5514 2
46.877 64.6778 3.97809
45.553 67.0782 3.97806
43.9704 69.5818 3.983
46.0558 69.149 2
46.6052 71.3657 3.98914
48.0972 68.567 0.0213681
48.8028 70.7204 2
49.554 73.0099 4
50.9439 69.9302 0.0142542
51.8506 72.1455 2
54.0858 71.1327 0
53.0625 6.08105 3.98035
55.1054 7.14282 2
56.25 5.02411 4
58.3339 6.3199 2
57.0559 8.33686 0.0201507
60.3285 7.74928 0
65.7955 47.3501 0.0249729
66.9739 43.4317 0.0233855
64.1981 44.7672 0.0241783
65.1437 41.1747 0.0236234
67.6104 39.5032 0.0234428
70.1066 37.5237 0.0327329
67.7111 37.5258 2
65.3854 39.3543 2
64.7468 42.9659 2
63.1969 40.8806 2
63.4883 46.6028 2
62.1893 44.1092 2
65.4955 37.5064 3.97647
63.3446 39.2465 3.97625
62.7422 42.4766 3.97608
61.7496 40.6409 3.97648
61.3096 45.7674 3.97499
60.7 43.5603 3.97595
67.653 35.5632 0.0233244
67.0336 31.6635 0.0234904
65.3016 33.9682 0.0234451
64.2248 30.2838 0.0243446
60.7571 14.2614 0.0424573
60.4209 17.2371 0.0448613
59.835 20.0002 0.0360438
63.1081 26.5517 0.025316
61.6563 28.9348 0.024906
60.4801 25.5487 0.025638
59.1396 22.4909 0.0285236
58.3313 24.5977 0.0258085
57.8517 14.4208 0.04837
55.2341 14.775 0.0492901
54.0371 9.15564 0.0123476
54.7751 12.1011 0.0255087
65.4837 35.6906 2
64.7606 32.2175 2
63.778 34.2992 2
61.9817 30.7584 2
59.2034 15.7621 2
58.7749 18.5424 2
58.2234 21.1026 2
61.0606 27.2535 2
60.1279 29.328 2
57.6564 23.3807 2
58.625 26.0595 2
57.2516 24.9778 2
56.5205 15.8931 2
54.229 16.1619 2
53.7511 13.7726 2
52.1046 8.18991 2
53.0539 11.0573 2
63.5573 35.6643 3.97605
62.3154 33.1302 3.97587
59.8318 30.7829 3.9753
58.7908 28.1473 3.97492
57.6926 17.1509 3.95626
56.9343 26.0466 3.97467
57.2431 19.7243 3.95935
56.7379 22.1453 3.96748
56.4562 24.2791 3.974
50.1055 7.30439 3.9745
51.1998 10.2072 3.96456
52.1363 12.8685 3.97529
55.303 17.1681 3.95634
52.8806 15.4072 3.96078
53.5497 17.1811 3.95498
53.0375 68.9964 0.0175436
53.955 65.9865 0.0295513
62.7177 48.5188 0.025904
54.6566 63.1103 0.0350432
57.8395 60.7966 0.045889
55.1669 60.5196 0.0235899
61.317 52.4143 0.0270336
59.6322 49.7939 0.0270618
57.786 58.1144 0.0432903
57.6337 55.5835 0.0367835
58.8484 53.7389 0.0275585
52.0653 66.9757 2
52.9316 64.1481 2
56.5182 59.3686 2
53.6216 61.4821 2
54.1617 59.1861 2
60.3148 47.6872 2
59.1411 51.8838 2
57.2381 49.334 2
56.4541 56.7975 2
56.481 53.8422 2
51.15 65.0837 3.96758
52.0019 62.4341 3.96421
55.2804 58.087 3.96031
52.7092 59.9596 3.95737
53.5002 58.3094 3.96177
57.3689 46.5773 3.97466
56.8542 51.4973 3.97255
55.3615 49.2138 3.97472
55.0705 55.5599 3.96185
54.653 53.077 3.96244
50.1027 67.8452 0.0253973
49.3253 65.8818 2
48.5955 64.0606 3.97796
47.4529 66.5597 0.0254002
45.5548 67.0829 2
46.8795 64.6759 2
46.3579 62.9803 3.98279
45.1204 65.1656 3.98063
43.6284 67.4537 3.98002
41.8584 69.8686 3.98305
43.9728 69.5825 2
44.3732 71.8605 3.98995
46.0519 69.1485 0.0188464
46.6086 71.3652 2
47.2057 73.7222 4
48.7979 70.721 0.0124988
49.554 73.0099 2
51.8506 72.1454 0
50.9541 5.13711 3.98498
53.0652 6.08094 2
54.0858 3.86728 4
55.1011 7.14033 0.00765357
56.25 5.02406 2
58.3339 6.31992 0
63.4889 46.6035 0.0250951
64.748 42.9663 0.0238012
62.189 44.109 0.0242945
63.1961 40.8804 0.0236849
65.3857 39.3542 0.0234854
67.7138 37.5257 0.023478
65.495 37.5065 2
63.3459 39.2469 2
62.743 42.4763 2
61.7499 40.641 2
61.3098 45.767 2
60.7001 43.5602 2
63.4097 37.4624 3.97634
61.4438 39.3232 3.97663
60.4397 41.8599 3.97676
59.4068 44.5918 3.97532
65.4845 35.6906 0.0234435
64.7614 32.2171 0.0240876
63.7772 34.2993 0.0238954
61.9816 30.7587 0.0245931
59.1856 15.7682 0.0459367
58.7766 18.5414 0.0398947
58.2257 21.1004 0.0339903
61.0611 27.2533 0.0253549
60.1271 29.3282 0.0244674
58.6278 26.0588 0.0252799
57.6604 23.3777 0.0281469
57.2553 24.9742 0.0246719
56.5373 15.889 0.0440739
54.2218 16.1621 0.0433086
53.7682 13.7882 0.0333841
52.1021 8.18315 0.0316079
53.0584 11.0602 0.0242997
63.5584 35.664 2
62.3171 33.1305 2
59.8326 30.7828 2
57.7024 17.149 2
57.2413 19.7249 2
56.7364 22.1482 2
58.791 28.1461 2
56.4641 24.2832 2
56.9326 26.046 2
50.1108 7.29406 2
55.2991 17.1695 2
53.556 17.1749 2
52.8716 15.4031 2
52.1432 12.8718 2
51.2054 10.2072 2
61.4863 35.4075 3.97633
59.4387 32.8735 3.97581
57.6782 30.3076 3.97492
56.3777 27.6944 3.97507
56.2877 18.3796 3.95632
55.4378 25.4721 3.97413
55.7949 20.8233 3.96086
55.3757 23.224 3.96818
48.0557 6.53616 3.98081
49.3019 9.38354 3.97313
50.3815 12.1328 3.97111
51.2984 14.6053 3.97306
54.1296 18.1615 3.95953
52.1786 17.2423 3.95633
52.0612 66.9811 0.0266361
52.9305 64.1485 0.0315182
60.3145 47.6874 0.0262237
53.6234 61.483 0.0344944
56.5233 59.3679 0.0483255
54.1686 59.1861 0.0353311
59.1391 51.884 0.0271306
57.2373 49.3334 0.0264325
56.4577 56.7943 0.0394405
56.4835 53.8432 0.0321789
51.1516 65.08 2
52.0021 62.4415 2
55.2728 58.0864 2
52.7121 59.9627 2
53.4935 58.3116 2
57.3691 46.5767 2
56.8531 51.4965 2
55.3607 49.2132 2
55.0691 55.5604 2
54.6521 53.0771 2
50.3142 63.3139 3.97068
51.1513 60.7913 3.97078
53.9698 57.0765 3.9678
52.0879 58.4338 3.96886
55.5349 43.9337 3.97519
54.443 47.5309 3.97532
54.1558 51.0307 3.96576
53.4957 54.2764 3.96486
49.3226 65.882 0.0260457
48.5936 64.0736 2
47.9236 62.4085 3.98964
45.553 67.0782 0.0219426
46.877 64.6778 0.0219052
43.6293 67.4551 2
46.3577 62.9785 2
45.1239 65.1598 2
45.9506 61.5027 3.99214
44.7492 63.3947 3.97533
43.3513 65.4818 3.97883
41.662 67.6714 3.9787
39.701 70.0159 3.98275
41.8599 69.8709 2
42.1083 72.2043 3.99045
43.9704 69.5818 0.0169966
44.3758 71.86 2
44.8159 74.2794 4
46.6052 71.3657 0.01086
47.2057 73.7222 2
49.554 73.0099 0
48.7852 4.32481 3.98646
50.9551 5.13549 2
51.8506 2.85458 4
53.0625 6.08105 0.0196464
54.0858 3.86728 2
56.25 5.02411 0
61.3096 45.7674 0.0250143
62.7422 42.4766 0.0239213
60.7 43.5603 0.0240471
61.7496 40.6409 0.023521
63.3446 39.2465 0.0237462
65.4955 37.5064 0.0235292
63.4114 37.4624 2
61.4439 39.324 2
60.4399 41.8598 2
59.4078 44.5915 2
61.2612 37.4513 3.97662
59.3499 39.792 3.97666
57.9972 42.7679 3.97583
63.5573 35.6643 0.0239459
62.3154 33.1302 0.0241252
59.8318 30.7829 0.0246979
57.6926 17.1509 0.0437426
57.2431 19.7243 0.0406467
56.7379 22.1453 0.0325245
58.7908 28.1473 0.0250759
56.9343 26.0466 0.0253252
56.4562 24.2791 0.0259955
55.303 17.1681 0.043661
53.5497 17.1811 0.0450226
52.8806 15.4072 0.0392214
50.1055 7.30439 0.0255
52.1363 12.8685 0.0247101
51.1998 10.2072 0.0354357
61.4863 35.4072 2
59.438 32.8736 2
57.6794 30.3082 2
56.2901 18.3794 2
55.8097 20.8192 2
55.3961 23.2263 2
56.3782 27.6935 2
55.439 25.4738 2
48.0522 6.54402 2
49.3049 9.38525 2
54.1301 18.1656 2
52.172 17.2369 2
51.2924 14.6018 2
50.3856 12.1268 2
58.9673 35.1887 3.97639
56.9206 32.4523 3.97507
55.4723 29.6417 3.97504
54.4469 27.0006 3.97406
54.9417 19.4567 3.9609
54.1242 24.4557 3.97171
54.3624 21.9116 3.96377
45.9618 5.895 3.98123
43.3689 7.49138 3.97908
47.3402 8.65516 3.97296
48.5631 11.3927 3.96934
49.6276 13.8996 3.97881
50.4981 16.3065 3.95855
52.8213 18.948 3.96099
51.0899 18.3456 3.95284
51.15 65.0837 0.0324205
52.0019 62.4341 0.0357885
57.3689 46.5773 0.0253438
52.7092 59.9596 0.0426288
55.2804 58.087 0.039694
53.5002 58.3094 0.0382331
56.8542 51.4973 0.027447
55.3615 49.2138 0.0252823
55.0705 55.5599 0.0381471
54.653 53.077 0.0375582
50.3116 63.312 2
51.1514 60.7911 2
53.9604 57.0768 2
52.0794 58.437 2
55.5384 43.9329 2
54.4438 47.5316 2
54.1509 51.0294 2
53.4904 54.2776 2
49.5304 61.6734 3.97761
54.2107 41.5698 3.97423
50.4054 59.1611 3.96875
51.8089 56.257 3.96637
52.8532 45.1749 3.97244
52.2337 48.9175 3.96948
51.9438 52.5287 3.9585
48.5955 64.0606 0.0220416
47.9223 62.4105 2
47.2722 60.9308 3.99143
43.6284 67.4537 0.0199821
45.1204 65.1656 0.0193672
46.3579 62.9803 0.0172062
41.6634 67.6736 2
43.3574 65.4831 2
45.9523 61.5043 2
44.7508 63.3864 2
45.7095 60.5459 4.00487
44.456 61.7559 3.98212
43.1349 63.68 3.97935
41.5438 65.6217 3.97393
39.6319 67.7513 3.97827
37.5256 70.0404 3.98275
39.7019 70.0163 2
39.8161 72.4017 3.99078
41.8584 69.8686 0.0169519
42.1102 72.2052 2
42.3947 74.6792 4
44.3732 71.8605 0.0100475
44.8159 74.2794 2
47.2057 73.7222 0
43.8507 5.36854 3.98042
46.5699 3.65094 3.98776
48.7841 4.32844 2
49.554 1.99015 4
50.9541 5.13711 0.0150177
51.8506 2.85453 2
54.0858 3.86728 0
59.4068 44.5918 0.024679
60.4397 41.8599 0.023236
61.4438 39.3232 0.02337
63.4097 37.4624 0.0236584
61.2626 37.4512 2
59.3479 39.7918 2
57.9962 42.7669 2
58.8107 37.5714 3.97668
56.894 40.5492 3.97748
53.603 39.6138 3.97679
61.4863 35.4075 0.0236696
59.4387 32.8735 0.024187
57.6782 30.3076 0.0250818
56.2877 18.3796 0.0436808
55.7949 20.8233 0.0391355
55.3757 23.224 0.0318235
56.3777 27.6944 0.0249347
55.4378 25.4721 0.0258657
54.1296 18.1615 0.0404728
52.1786 17.2423 0.0436668
51.2984 14.6053 0.0269445
48.0557 6.53616 0.0191879
49.3019 9.38354 0.0268694
50.3815 12.1328 0.0288912
58.9651 35.1879 2
45.9611 5.89403 2
43.3699 7.49447 2
56.9191 32.4521 2
55.4751 29.6389 2
54.9322 19.46 2
54.391 21.9105 2
54.1185 24.4573 2
54.4483 27.0009 2
47.3426 8.64951 2
48.5663 11.3815 2
52.8125 18.9187 2
51.0898 18.3488 2
50.5051 16.3053 2
49.6236 13.9023 2
56.2253 34.8641 3.97721
54.4794 31.7855 3.97431
53.3407 28.7872 3.97583
52.8215 25.9317 3.97351
53.5243 20.4494 3.96738
52.8874 23.1157 3.97029
41.3962 7.09116 3.97987
45.3503 8.01048 3.98393
42.8596 9.44385 3.97415
46.6435 10.7222 3.97427
47.6774 13.2128 3.97305
48.7983 15.5574 3.97774
49.8046 17.9394 3.9617
51.3361 19.6569 3.97773
50.3142 63.3139 0.0293166
51.1513 60.7913 0.029224
55.5349 43.9337 0.0248094
54.443 47.5309 0.0246764
52.0879 58.4338 0.0311423
53.9698 57.0765 0.0321955
54.1558 51.0307 0.0342426
53.4957 54.2764 0.0351437
49.5308 61.6687 2
54.2056 41.5621 2
50.4038 59.1669 2
51.8134 56.2618 2
52.8475 45.173 2
52.2291 48.9156 2
51.949 52.53 2
48.7416 60.1199 3.99709
50.808 42.3846 3.98303
49.5372 57.4431 3.9653
50.0672 54.1595 3.95979
50.5167 46.8117 3.97714
50.3145 50.5783 3.95224
46.5681 43.3304 3.95766
47.9236 62.4085 0.0103642
47.2781 60.9278 2
46.5358 59.7136 3.99416
41.662 67.6714 0.0213006
43.3513 65.4818 0.0211711
44.7492 63.3947 0.0246688
45.9506 61.5027 0.0078599
39.6336 67.7521 2
41.5485 65.6181 2
45.7133 60.5478 2
43.1346 63.6753 2
44.4564 61.7523 2
44.5789 60.2016 3.99439
42.9289 62.0161 3.97962
41.5905 63.7892 3.98075
39.6451 65.5909 3.97636
37.5628 67.7332 3.97692
31.7015 65.0974 3.97124
33.3939 67.4713 3.9785
35.334 69.9514 3.98263
37.5256 70.0422 2
37.5092 72.4557 3.99126
39.701 70.0159 0.0172457
39.8173 72.4018 2
39.9526 74.9197 4
42.1083 72.2043 0.0095487
42.3947 74.6792 2
44.8159 74.2794 0
41.7357 4.97556 3.98479
43.8502 5.3697 2
44.3259 3.113 3.98959
46.5707 3.65056 2
47.2057 1.27793 4
48.7852 4.32481 0.0135428
49.554 1.99013 2
51.8506 2.85458 0
57.9972 42.7679 0.0241657
59.3499 39.792 0.023337
61.2612 37.4513 0.0233803
58.811 37.572 2
56.8949 40.5503 2
53.601 39.6136 2
55.5647 37.8846 3.97717
47.8225 41.1184 3.96674
51.3498 39.2477 3.97906
39.4401 6.81501 3.97854
58.9673 35.1887 0.0236094
56.9206 32.4523 0.0249276
55.4723 29.6417 0.0249576
54.9417 19.4567 0.0391014
54.3624 21.9116 0.0362318
54.1242 24.4557 0.0282877
54.4469 27.0006 0.0259448
52.8213 18.948 0.039014
51.0899 18.3456 0.0471604
50.4981 16.3065 0.0414525
45.9618 5.895 0.0187652
49.6276 13.8996 0.0211917
47.3402 8.65516 0.0270397
48.5631 11.3927 0.0306608
43.3689 7.49138 0.0209247
56.2247 34.8679 2
41.3978 7.09278 2
45.351 8.01279 2
42.8559 9.44548 2
54.4772 31.7857 2
53.3365 28.787 2
53.5274 20.4556 2
52.8603 23.1251 2
52.8297 25.9339 2
46.6428 10.7122 2
47.6799 13.2023 2
51.3364 19.6567 2
49.8055 17.937 2
48.8084 15.5849 2
53.386 34.1074 3.97544
52.1067 30.8602 3.97466
51.4742 27.6529 3.97486
51.3158 24.5473 3.97112
51.9016 21.4292 3.9749
41.0089 9.06624 3.97566
44.7151 10.0326 3.97877
42.4466 10.9303 4.0047
45.946 12.8027 3.97035
47.5809 14.7383 3.97352
47.9369 17.152 3.98214
49.5783 20.0579 3.98874
49.5304 61.6734 0.0223853
50.4054 59.1611 0.0312541
54.2107 41.5698 0.0257743
52.8532 45.1749 0.0275636
52.2337 48.9175 0.03052
51.8089 56.257 0.0336254
51.9438 52.5287 0.0414988
48.7406 60.1169 2
50.8329 42.4079 2
49.5349 57.4412 2
50.0674 54.1622 2
50.5173 46.8114 2
50.3174 50.5783 2
46.5786 43.3735 2
47.8383 58.5927 3.99042
48.5689 44.8975 3.98168
48.2438 55.7085 3.95283
48.4787 52.2946 3.97892
48.6244 48.6347 3.97174
44.2317 39.6807 3.81226
44.7948 42.2709 3.86067
45.1548 45.2589 3.97596
42.1408 40.9491 3.57474
41.1855 41.4728 3.37285
47.2722 60.9308 0.00856694
46.5363 59.7158 2
45.3786 58.6961 3.99396
39.6319 67.7513 0.0217349
41.5438 65.6217 0.0260665
43.1349 63.68 0.0206515
44.456 61.7559 0.0178822
45.7095 60.5459 -0.00487085
41.594 63.7819 2
37.5644 67.7352 2
39.6496 65.5923 2
44.5756 60.2036 2
42.9293 62.0062 2
41.7385 62.4357 3.98648
42.4476 59.8935 3.98851
39.8864 63.5273 3.98019
37.6403 65.488 3.97523
35.4634 67.6421 3.97588
33.5773 65.3132 3.97326
31.9674 63.2478 3.98489
29.8928 64.6876 3.97879
31.6964 65.1067 2
31.3811 67.1847 3.97862
33.3955 67.4758 2
33.1579 69.7455 3.98345
35.3335 69.953 2
35.1963 72.3708 3.99159
37.5256 70.0404 0.0172455
37.5098 72.4564 2
37.5 75 4
39.8161 72.4017 0.00922426
39.9526 74.9197 2
42.3947 74.6792 0
39.6241 4.722 3.98569
41.7353 4.97594 2
42.0625 2.72001 3.99051
43.8507 5.36854 0.0195773
44.326 3.1134 2
44.8158 0.721173 4
46.5699 3.65094 0.0122427
47.2057 1.27779 2
49.554 1.99015 0
56.894 40.5492 0.0225184
58.8107 37.5714 0.0233178
53.603 39.6138 0.0232091
47.864 41.1395 2
55.5598 37.8828 2
51.3644 39.2325 2
52.2833 36.6348 3.97666
45.7464 40.218 3.88048
48.694 38.4679 3.96621
37.5147 6.6828 3.98247
39.4415 6.81461 2
39.2078 8.7145 3.98032
35.9418 8.50703 3.97862
56.2253 34.8641 0.0227883
54.4794 31.7855 0.0256853
53.3407 28.7872 0.0241693
53.5243 20.4494 0.0326204
52.8874 23.1157 0.0297096
52.8215 25.9317 0.0264916
51.3361 19.6569 0.0222659
49.8046 17.9394 0.0382959
48.7983 15.5574 0.0222586
45.3503 8.01048 0.0160652
47.6774 13.2128 0.0269455
46.6435 10.7222 0.025725
41.3962 7.09116 0.0201327
42.8596 9.44385 0.0258504
53.3878 34.1122 2
41.0064 9.06981 2
44.7129 10.0294 2
42.4437 10.9375 2
52.1116 30.8557 2
51.4775 27.6537 2
51.9055 21.4318 2
51.3052 24.5577 2
45.9487 12.7923 2
47.5759 14.7226 2
49.5905 20.0791 2
47.938 17.1516 2
50.7786 33.1037 3.97514
49.9215 29.644 3.9764
49.7735 26.1666 3.97057
49.4445 22.6297 3.97347
40.5509 11.625 3.98913
43.8098 11.9564 3.96615
45.7042 15.6081 3.99805
47.2942 19.6466 3.97948
44.5489 37.5034 3.82262
48.7416 60.1199 0.0029134
49.5372 57.4431 0.0346996
50.808 42.3846 0.0169714
50.5167 46.8117 0.0228565
50.3145 50.5783 0.047765
50.0672 54.1595 0.0402083
46.5681 43.3304 0.0423419
47.8293 58.5964 2
48.5833 44.9113 2
48.2388 55.7112 2
48.4788 52.2996 2
48.6281 48.6354 2
44.3569 39.6991 2
44.8302 42.3101 2
45.1618 45.2829 2
42.2057 41.0137 2
41.2257 41.4982 2
46.6292 57.1864 3.99199
42.7531 39.3853 3.56649
41.5636 40.4686 3.35353
46.8425 46.8758 3.99113
46.7188 53.9923 3.95727
46.8027 50.4253 3.97264
43.8224 46.8802 3.98256
43.466 41.6605 3.81775
43.7038 44.0425 3.84701
41.4774 42.1546 3.60632
40.3376 41.7456 3.29599
46.5358 59.7136 0.00584111
45.3682 58.6954 2
43.7859 57.5601 3.99436
37.5628 67.7332 0.0230774
39.6451 65.5909 0.0236439
41.5905 63.7892 0.0192507
42.9289 62.0161 0.0203753
44.5789 60.2016 0.0056145
35.4648 67.6434 2
41.7381 62.4299 2
39.8887 63.5293 2
37.6438 65.4905 2
42.4453 59.8952 2
40.6098 61.5851 3.98706
40.4181 58.0689 3.99257
37.8341 63.1786 3.97372
35.5726 65.4059 3.97416
33.5745 65.3056 2
31.968 63.233 2
33.633 63.3036 3.9844
30.3975 62.7964 3.98542
32.1483 61.9505 4.00228
26.9209 61.3806 3.98849
28.0823 64.0965 3.98842
29.8914 64.6834 2
29.4126 66.7396 3.97929
31.7015 65.0974 0.0287635
31.3825 67.1863 2
31.0162 69.412 3.98396
33.3939 67.4713 0.0214975
33.1568 69.7481 2
32.8948 72.1453 3.99151
35.334 69.9514 0.0173685
35.196 72.3717 2
35.0474 74.9194 4
37.5092 72.4557 0.00873765
37.5 75 2
39.9526 74.9197 0
35.6194 6.73453 3.98004
37.5241 4.62081 3.98672
39.6234 4.7216 2
39.7892 2.47609 3.99145
41.7357 4.97556 0.0152121
42.0624 2.72017 2
42.3946 0.32156 4
44.3259 3.113 0.0104107
44.8159 0.72056 2
47.2057 1.27793 0
47.8225 41.1184 0.0332601
55.5647 37.8846 0.022832
51.3498 39.2477 0.0209436
45.8022 40.207 2
48.7297 38.4608 2
52.2832 36.6308 2
49.5338 35.6095 3.97833
46.3249 37.7058 3.84691
44.2577 35.2871 3.81552
42.1915 34.0021 3.5765
41.2283 33.4784 3.37584
37.457 8.54557 3.98066
37.5159 6.6834 2
39.4401 6.81501 0.0214588
39.2082 8.7137 2
38.9681 10.15 3.99323
35.8969 9.79074 3.98204
34.1518 8.8378 3.97686
35.9413 8.50779 2
53.386 34.1074 0.0245576
52.1067 30.8602 0.0253375
51.4742 27.6529 0.0251413
51.9016 21.4292 0.0251029
51.3158 24.5473 0.0288756
49.5783 20.0579 0.0112568
47.9369 17.152 0.0178566
47.5809 14.7383 0.0264823
44.7151 10.0326 0.0212268
45.946 12.8027 0.0296473
41.0089 9.06624 0.0243386
42.4466 10.9303 -0.00469741
50.8003 33.0859 2
40.5538 11.6389 2
43.8106 11.9385 2
49.9331 29.6408 2
49.7739 26.1791 2
49.4355 22.5997 2
45.6886 15.5532 2
47.3045 19.6848 2
48.3798 31.6651 3.98004
48.0946 27.9489 3.97473
48.6179 24.7767 3.97028
46.8348 22.448 3.99279
38.2942 12.7748 3.98113
42.046 14.422 3.99124
44.6411 18.7168 3.99832
43.0423 37.4855 3.56622
44.665 37.4901 2
47.8383 58.5927 0.00958199
48.2438 55.7085 0.0471667
48.5689 44.8975 0.0183201
48.6244 48.6347 0.0282627
48.4787 52.2946 0.0210784
44.2317 39.6807 0.18774
44.7948 42.2709 0.13933
45.1548 45.2589 0.0240399
42.1408 40.9491 0.425256
41.1855 41.4728 0.627146
46.6236 57.1917 2
42.8462 39.402 2
41.5884 40.4765 2
46.8479 46.8786 2
46.7117 53.9958 2
46.8022 50.438 2
43.8645 46.8948 2
43.5382 41.7205 2
43.7654 44.0798 2
41.5339 42.2512 2
40.413 41.7631 2
45.1325 55.7461 4.00251
41.8803 39.0541 3.36329
40.1893 40.4097 3.40226
45.1801 48.5149 4.00277
44.9463 52.2214 3.99518
42.6541 47.8568 3.98865
42.5002 45.5139 3.85664
42.5553 43.3472 3.79223
40.6204 43.0439 3.57307
39.1018 42.0387 3.38441
45.3786 58.6961 0.0060438
43.7772 57.574 2
42.01 56.0992 3.99586
35.4634 67.6421 0.024122
37.6403 65.488 0.0247739
39.8864 63.5273 0.019812
41.7385 62.4357 0.013524
42.4476 59.8935 0.0114944
35.5749 65.4107 2
40.6103 61.5726 2
37.8372 63.1801 2
40.4156 58.0793 2
38.9088 56.2442 3.99609
38.2429 60.267 3.98759
35.6073 63.1721 3.97403
33.5773 65.3132 0.0267381
31.9674 63.2478 0.0151083
33.6337 63.3055 2
30.3969 62.7842 2
32.155 61.9388 2
28.7141 62.1353 3.99117
33.3627 61.4662 3.99129
31.1246 61.1666 4.01203
27.6679 59.4794 3.96258
23.9152 58.9257 3.97817
25.1044 60.7281 3.98001
26.9208 61.3857 2
26.2609 63.4226 3.97566
28.0842 64.097 2
27.4748 66.1538 3.97834
29.8928 64.6876 0.0212084
29.4125 66.7502 2
28.9112 68.9326 3.9822
31.3811 67.1847 0.0213818
31.0145 69.4126 2
30.6181 71.7775 3.99122
33.1579 69.7455 0.0165544
32.8934 72.1464 2
32.6054 74.6784 4
35.1963 72.3708 0.00841139
35.0474 74.9197 2
37.5 75 0
33.7221 6.99026 3.97833
35.4364 4.69068 3.98637
35.6207 6.73528 2
37.5153 2.38857 3.99172
37.523 4.62062 2
39.6241 4.722 0.014306
39.7888 2.47598 2
39.9526 0.0806499 4
42.0625 2.72001 0.0094947
42.3947 0.320817 2
44.8158 0.721173 0
42.7888 35.5761 3.57369
41.6042 34.4696 3.3391
45.7464 40.218 0.119521
48.694 38.4679 0.0337915
52.2833 36.6348 0.0233408
46.3507 37.7148 2
49.5723 35.6315 2
44.3763 35.2719 2
42.2507 33.9348 2
41.2447 33.4501 2
46.6396 34.509 3.9237
43.5215 33.2931 3.80984
41.5176 32.8002 3.60949
40.3556 33.2133 3.29414
37.3059 10.6465 3.9806
37.4573 8.54675 2
37.5147 6.6828 0.0175314
39.2078 8.7145 0.0196783
38.9712 10.1545 2
34.7549 10.4026 3.97488
35.9006 9.79134 2
32.3801 9.38729 3.97168
34.1507 8.8402 2
35.9418 8.50703 0.021377
50.7786 33.1037 0.0248585
49.9215 29.644 0.0236042
49.7735 26.1666 0.0294341
49.4445 22.6297 0.026533
47.2942 19.6466 0.0205206
45.7042 15.6081 0.00195187
43.8098 11.9564 0.033852
40.5509 11.625 0.0108702
48.3999 31.6443 2
38.2938 12.7781 2
42.0594 14.4162 2
48.0897 27.9467 2
48.6181 24.7833 2
46.828 22.4371 2
44.6483 18.7814 2
46.3719 29.9815 3.97681
46.3127 25.48 3.97679
44.0551 21.7192 3.98313
36.5876 12.9886 3.98171
38.6521 14.9322 3.97933
41.6466 18.0468 3.99151
42.0308 37.454 3.37842
43.1266 37.4864 2
44.5489 37.5034 0.177379
46.6292 57.1864 0.00800649
46.7188 53.9923 0.0427309
46.8425 46.8758 0.00887113
46.8027 50.4253 0.0273551
42.7531 39.3853 0.433508
43.466 41.6605 0.182248
43.7038 44.0425 0.152989
43.8224 46.8802 0.0174382
41.4774 42.1546 0.393679
41.5636 40.4686 0.646469
40.3376 41.7456 0.70401
45.1278 55.7483 2
41.9072 39.0616 2
40.2807 40.4 2
45.178 48.5409 2
44.9382 52.2242 2
42.7053 47.8813 2
42.5718 45.5897 2
42.6062 43.3814 2
40.6934 43.1347 2
39.0621 42.0808 2
43.4492 54.1664 4.00553
40.2369 38.9339 3.43673
39.0067 40.5115 3.39733
42.9987 49.9685 4.00374
41.3605 46.9896 3.91101
41.2667 44.5783 3.79032
39.3657 43.7046 3.56935
37.5053 42.1965 3.45453
43.7859 57.5601 0.00563922
42.011 56.0901 2
40.3099 54.6565 3.99714
35.5726 65.4059 0.0258388
37.8341 63.1786 0.0262804
40.6098 61.5851 0.0129397
40.4181 58.0689 0.00743422
35.6099 63.1718 2
38.2424 60.2514 2
38.9074 56.237 2
37.9752 54.9231 3.99458
36.9363 57.4707 3.99637
35.3687 60.8585 3.98823
33.633 63.3036 0.0156021
30.3975 62.7964 0.0145778
32.1483 61.9505 -0.00228014
33.373 61.4603 2
28.7116 62.1428 2
31.1263 61.1595 2
29.4931 60.2774 3.97915
32.392 59.6021 3.99321
28.16 58.2593 4.00518
27.6699 59.4836 2
25.511 58.4522 3.97321
22.9267 58.0715 3.96839
23.4828 60.1956 3.9709
23.917 58.9261 2
25.1049 60.7257 2
24.4763 62.6849 3.97254
26.9209 61.3806 0.0115149
26.2615 63.4269 2
25.5657 65.4515 3.974
28.0823 64.0965 0.0115787
27.47 66.1413 2
26.8433 68.3232 3.98107
29.4126 66.7396 0.0207138
28.9072 68.9343 2
28.3742 71.2613 3.9883
31.0162 69.412 0.0160434
30.6161 71.7768 2
30.1842 74.2788 4
32.8948 72.1453 0.00849218
32.6053 74.6792 2
35.0474 74.9194 0
31.7863 7.43246 3.9759
33.3488 4.93007 3.98493
33.7236 6.99159 2
35.2459 2.4645 3.9915
35.4348 4.69134 2
35.6194 6.73453 0.0199551
37.5 0 4
37.5143 2.38861 2
37.5241 4.62081 0.0132798
39.7892 2.47609 0.00854873
39.9526 0.0802889 2
42.3946 0.32156 0
41.8799 35.8535 3.31226
42.8971 35.5595 2
40.2488 34.5191 3.42056
41.6249 34.4545 2
46.3249 37.7058 0.153094
49.5338 35.6095 0.0216732
44.2577 35.2871 0.184483
42.1915 34.0021 0.423499
41.2283 33.4784 0.624165
46.6866 34.5115 2
43.5832 33.2324 2
41.5635 32.7071 2
40.411 33.1965 2
44.8254 31.9921 3.87684
42.5904 31.6044 3.78105
40.6569 31.913 3.57819
39.0984 32.9275 3.38362
35.6953 11.8088 3.97465
37.3118 10.6478 2
37.457 8.54557 0.0193446
38.9681 10.15 0.00676579
33.1036 11.2502 3.97237
34.7583 10.4012 2
35.8969 9.79074 0.0179633
30.4881 10.0455 3.97282
32.3789 9.39171 2
34.1518 8.8378 0.0231412
48.3798 31.6651 0.0199604
48.0946 27.9489 0.0252668
48.6179 24.7767 0.0297233
46.8348 22.448 0.00720631
44.6411 18.7168 0.00168378
42.046 14.422 0.00876033
38.2942 12.7748 0.0188672
36.5829 12.9861 2
46.355 29.9242 2
38.6632 14.9055 2
41.6304 18.0348 2
46.3155 25.4665 2
44.0494 21.7122 2
44.4815 28.148 3.9917
43.2718 24.383 4.00585
41.1698 21.0792 3.99537
35.7733 14.8182 3.99402
38.6058 17.8078 3.99255
40.2947 37.4108 3.46762
42.0656 37.4614 2
43.0423 37.4855 0.433784
45.1325 55.7461 -0.00250687
44.9463 52.2214 0.00481839
45.1801 48.5149 -0.00277448
41.8803 39.0541 0.636714
42.5553 43.3472 0.207765
42.5002 45.5139 0.143359
42.6541 47.8568 0.011345
40.6204 43.0439 0.426931
40.1893 40.4097 0.597741
39.1018 42.0387 0.615595
43.4426 54.1635 2
40.2923 38.9383 2
38.9775 40.5159 2
42.983 49.9896 2
41.3537 47.0141 2
41.291 44.6265 2
37.4956 42.2212 2
39.3842 43.7987 2
41.6072 52.6158 4.00398
39.0205 38.9995 3.38197
37.4986 40.5491 3.47219
35.9006 42.0605 3.38208
40.6087 49.1281 3.98845
39.5667 45.2699 3.75972
37.5003 44.0186 3.6199
42.01 56.0992 0.00413567
40.3061 54.6649 2
38.6776 53.392 3.99853
35.6073 63.1721 0.0259719
38.2429 60.267 0.0124095
38.9088 56.2442 0.00391128
35.3767 60.8486 2
36.9386 57.4861 2
37.9695 54.9194 2
36.3325 55.0337 3.99741
34.5255 58.4015 3.99873
33.3627 61.4662 0.00870619
28.7141 62.1353 0.00883342
31.1246 61.1666 -0.0120315
32.394 59.5996 2
29.4947 60.2832 2
30.4088 57.6436 3.9793
28.1581 58.2558 2
27.1705 56.6842 3.96281
27.6679 59.4794 0.0374165
25.5139 58.4517 2
24.106 56.617 3.95933
21.6133 57.198 3.96065
22.0955 59.4734 3.97368
22.9293 58.0716 2
22.7914 61.8948 3.97134
23.4828 60.1962 2
23.9152 58.9257 0.021835
25.1044 60.7281 0.0199863
24.4771 62.6895 2
23.7045 64.6624 3.96595
26.2609 63.4226 0.0243433
25.5613 65.4539 2
24.817 67.5825 3.97326
27.4748 66.1538 0.021665
26.8398 68.325 2
26.1698 70.603 3.98858
28.9112 68.9326 0.017796
28.3713 71.2616 2
27.7943 73.7221 4
30.6181 71.7775 0.00878007
30.1841 74.2794 2
32.6054 74.6784 0
29.8096 8.01175 3.97132
31.2539 5.33841 3.98322
31.7882 7.43228 2
32.9819 2.70251 3.99101
33.347 4.93096 2
33.7221 6.99026 0.0216673
35.0474 0.080333 4
35.2446 2.46491 2
35.4364 4.69068 0.0136298
37.5 0 2
37.5153 2.38857 0.00828058
39.9526 0.0806499 0
40.3741 35.9472 3.47419
41.9248 35.853 2
42.7888 35.5761 0.426312
28.551 10.725 3.97263
39.0008 34.4723 3.37991
40.2562 34.5127 2
41.6042 34.4696 0.6609
46.6396 34.509 0.0762996
43.5215 33.2931 0.19016
41.5176 32.8002 0.390511
40.3556 33.2133 0.705858
44.853 31.9633 2
42.6472 31.5612 2
40.7253 31.8235 2
39.073 32.884 2
43.3399 30.2871 3.86007
41.2852 30.3606 3.79148
39.3679 31.2571 3.57573
37.5077 32.7934 3.452
34.1014 12.9739 3.98196
35.6989 11.8013 2
37.3059 10.6465 0.019396
31.196 12.0248 3.9746
33.1057 11.2454 2
34.7549 10.4026 0.0251211
30.4842 10.042 2
32.3801 9.38729 0.0283214
46.3719 29.9815 0.0231892
46.3127 25.48 0.0232136
36.5876 12.9886 0.0182866
44.0551 21.7192 0.0168725
41.6466 18.0468 0.00848838
38.6521 14.9322 0.0206689
35.7643 14.8403 2
44.4781 28.152 2
38.6208 17.7947 2
41.177 21.0619 2
43.2635 24.3586 2
33.6355 15.9424 3.99044
42.4138 26.9271 3.96523
40.7268 23.7983 4.00376
38.3543 20.6347 3.99521
35.8165 17.7126 3.98387
39.0299 37.4899 3.3669
40.3285 37.4203 2
42.0308 37.454 0.621581
43.4492 54.1664 -0.00552759
42.9987 49.9685 -0.00374031
40.2369 38.9339 0.563273
41.2667 44.5783 0.209675
41.3605 46.9896 0.0889934
39.3657 43.7046 0.430654
39.0067 40.5115 0.602666
37.5053 42.1965 0.545468
41.5948 52.6124 2
38.9906 38.9943 2
37.4863 40.554 2
40.5926 49.1325 2
35.934 42.0981 2
39.5991 45.3431 2
37.4911 44.0987 2
39.6733 51.3568 3.99986
37.4997 38.9956 3.44573
36.0277 40.5351 3.39095
34.6701 41.7765 3.29358
35.6374 43.7239 3.56907
38.5769 47.9437 3.91859
37.4876 45.5567 3.7928
40.3099 54.6565 0.00285633
38.6731 53.4028 2
36.769 52.7517 3.99827
35.3687 60.8585 0.0117715
36.9363 57.4707 0.00362537
37.9752 54.9231 0.0054158
34.5188 58.4069 2
36.3395 55.0336 2
33.3881 55.2374 4.0081
32.392 59.6021 0.00679371
29.4931 60.2774 0.0208489
30.4092 57.631 2
29.0063 55.202 3.98966
28.16 58.2593 -0.00518447
27.1735 56.6823 2
25.6921 54.943 3.95864
22.2546 55.0999 3.95943
25.511 58.4522 0.0267944
24.11 56.6171 2
20.5073 56.8289 3.96203
20.7883 58.6225 3.96209
21.6174 57.1989 2
21.233 61.0285 3.96899
22.0946 59.4727 2
22.9267 58.0715 0.0316092
21.9266 63.7548 3.96993
22.7929 61.9013 2
23.4828 60.1956 0.0291048
24.4763 62.6849 0.0274562
23.7009 64.6571 2
22.8461 66.7195 3.97047
25.5657 65.4515 0.0259979
24.8132 67.5781 2
24.0143 69.8044 3.98641
26.8433 68.3232 0.0189331
26.1654 70.6025 2
25.446 73.0099 4
28.3742 71.2613 0.0117048
27.7943 73.7222 2
30.1842 74.2788 0
27.8208 8.68015 3.97294
29.1558 5.88554 3.98037
29.81 8.00916 2
30.7275 3.09997 3.99032
31.2522 5.33804 2
31.7863 7.43246 0.0241014
32.6053 0.320823 4
32.9802 2.70307 2
33.3488 4.93007 0.015068
35.0474 0.0802903 2
35.2459 2.4645 0.00849743
37.5 0 0
38.9202 35.988 3.38361
40.3494 35.9446 2
41.8799 35.8535 0.687741
28.5481 10.7268 2
26.6352 11.4281 3.97308
29.2405 12.6755 3.9786
37.5175 34.4465 3.47258
39.0203 34.482 2
40.2488 34.5191 0.579439
44.8254 31.9921 0.123158
42.5904 31.6044 0.21895
40.6569 31.913 0.421812
39.0984 32.9275 0.616385
43.3851 30.2496 2
41.3278 30.3075 2
39.3849 31.1611 2
37.5179 32.7659 2
41.7001 29.0204 3.85046
39.5821 29.6894 3.78233
37.501 30.9582 3.62228
35.9095 32.9437 3.38885
31.9448 14.5269 3.98554
34.1045 12.9753 2
35.6953 11.8088 0.025346
31.1951 12.013 2
33.1036 11.2502 0.0276282
30.4881 10.0455 0.0271805
44.4815 28.148 0.00830323
43.2718 24.383 -0.00585489
35.7733 14.8182 0.00598074
41.1698 21.0792 0.00463364
38.6058 17.8078 0.0074549
33.6163 15.9255 2
35.8402 17.6001 2
42.4753 26.8859 2
38.306 20.6662 2
40.7027 23.8115 2
33.5741 17.4819 3.99081
40.1665 26.3015 3.96222
37.9972 23.5764 3.99563
35.5095 20.4555 3.99517
37.5272 37.4829 3.46548
38.9902 37.4837 2
40.2947 37.4108 0.532379
41.6072 52.6158 -0.00398247
40.6087 49.1281 0.011545
39.0205 38.9995 0.618025
39.5667 45.2699 0.240278
37.5003 44.0186 0.380097
37.4986 40.5491 0.527807
35.9006 42.0605 0.617921
39.6597 51.3482 2
37.4869 39 2
36.012 40.5119 2
38.6024 48.0123 2
34.6054 41.7948 2
35.6115 43.8204 2
37.4952 45.6273 2
37.6703 50.3172 3.98961
36.0882 39.0243 3.39024
34.7828 40.4479 3.42078
33.8013 41.5123 3.37618
34.3889 43.0761 3.56947
35.3834 45.3453 3.7904
36.9414 47.5709 3.8709
38.6776 53.392 0.00147467
36.7915 52.7004 2
34.5277 52.0966 4.0001
34.5255 58.4015 0.00127495
36.3325 55.0337 0.00259309
33.3925 55.2377 2
30.885 53.2095 3.99573
30.4088 57.6436 0.0207018
29.0106 55.211 2
27.3739 53.207 3.9535
27.1705 56.6842 0.0371918
25.6974 54.9423 2
24.1594 53.1914 3.95319
21.1713 52.9095 3.95855
20.358 55.5954 3.96028
22.2564 55.1002 2
24.106 56.617 0.040666
19.6589 57.7156 3.96153
20.4989 56.8337 2
19.7719 60.0836 3.97456
20.7761 58.6286 2
21.6133 57.198 0.039348
20.2516 62.738 3.97156
21.2406 61.0324 2
22.0955 59.4734 0.0263202
20.9511 65.7278 3.9669
21.9238 63.7496 2
22.7914 61.8948 0.0286605
23.7045 64.6624 0.0340462
22.8429 66.718 2
21.918 68.8687 3.98261
24.817 67.5825 0.0267439
24.0104 69.8011 2
23.1494 72.1454 4
26.1698 70.603 0.0114227
25.446 73.0099 2
27.7943 73.7221 0
25.8613 9.41368 3.97218
27.0703 6.55203 3.97742
27.8196 8.674 2
28.49 3.64569 3.98914
29.1539 5.88611 2
29.8096 8.01175 0.0286843
30.1841 0.720592 4
30.7248 3.10017 2
31.2539 5.33841 0.0167755
32.6053 0.320817 2
32.9819 2.70251 0.00899195
35.0474 0.080333 0
37.5174 35.976 3.43324
38.8962 35.9502 2
40.3741 35.9472 0.525814
24.7991 12.1054 3.96771
23.7995 14.5153 3.97956
28.551 10.725 0.0273703
26.6307 11.4279 2
29.238 12.6864 2
27.3059 13.4512 3.97537
29.8192 14.2301 3.99807
36.0024 34.4714 3.40464
37.5395 34.4344 2
39.0008 34.4723 0.620087
37.5077 32.7934 0.548004
43.3399 30.2871 0.139925
41.2852 30.3606 0.208523
39.3679 31.2571 0.424266
41.7305 28.9438 2
39.5986 29.6163 2
37.5053 30.8803 2
35.9436 32.9033 2
39.767 28.3091 3.84811
37.4651 29.3986 3.77845
35.6461 31.2803 3.5724
34.6589 33.2346 3.30094
30.9873 16.888 3.99676
31.9363 14.505 2
34.1014 12.9739 0.0180368
31.196 12.0248 0.0254024
42.4138 26.9271 0.0347718
40.7268 23.7983 -0.00376052
33.6355 15.9424 0.00956092
35.8165 17.7126 0.01613
38.3543 20.6347 0.00478644
33.5351 17.5353 2
35.4699 20.5323 2
40.1688 26.2869 2
38.0518 23.5668 2
33.0049 20.0236 3.99793
37.7631 25.9772 3.95535
35.3991 23.2128 4.00834
36.0463 37.4821 3.37438
37.501 37.4834 2
39.0299 37.4899 0.633097
39.6733 51.3568 0.000136236
38.5769 47.9437 0.081412
37.4997 38.9956 0.55427
37.4876 45.5567 0.207201
35.6374 43.7239 0.430926
36.0277 40.5351 0.60905
34.6701 41.7765 0.706425
37.6385 50.3536 2
36.1392 39.0079 2
34.7293 40.4638 2
36.9283 47.6405 2
33.764 41.542 2
34.3167 43.161 2
35.3553 45.4033 2
35.5863 49.5159 3.98106
34.6877 39.0009 3.46879
33.4228 40.5191 3.33872
33.5172 42.1912 3.60759
33.7699 44.6087 3.78086
34.6897 46.7451 3.84967
36.769 52.7517 0.00172773
34.5164 52.1249 2
32.4274 50.8819 4.00426
33.3881 55.2374 -0.00810334
30.885 53.2076 2
28.9968 51.2342 3.98442
29.0063 55.202 0.0103449
27.3796 53.2084 2
25.7788 51.4066 3.95431
25.6921 54.943 0.0413569
24.1647 53.1943 2
22.7639 51.4597 3.95538
20.0864 51.286 3.96547
19.5312 54.0286 3.96122
21.174 52.9079 2
18.8037 56.5163 3.96126
20.3577 55.5975 2
22.2546 55.0999 0.0405744
18.4997 58.9737 3.95443
19.6518 57.7202 2
20.5073 56.8289 0.0379739
18.6531 61.6857 3.97758
19.7746 60.0863 2
20.7883 58.6225 0.0379133
19.1458 64.613 3.96636
20.2501 62.7373 2
21.233 61.0285 0.0310134
19.8913 67.8084 3.98129
20.9469 65.7243 2
21.9266 63.7548 0.0300677
22.8461 66.7195 0.0295296
21.9132 68.8664 2
20.9142 71.1327 4
24.0143 69.8044 0.0135912
23.1494 72.1455 2
25.446 73.0099 0
23.1195 12.9164 3.97455
23.9787 10.1916 3.97185
25.0239 7.32433 3.97427
25.861 9.41407 2
26.282 4.33055 3.98789
27.0677 6.55236 2
27.8208 8.68015 0.027057
27.7943 1.27781 4
28.4864 3.6473 2
29.1558 5.88554 0.0196252
30.1841 0.720551 2
30.7275 3.09997 0.0096777
32.6053 0.320823 0
36.0089 35.9756 3.38722
37.561 35.9898 2
38.9202 35.988 0.616388
24.7855 12.146 2
23.7959 14.5248 2
22.5511 15.1848 3.98563
25.3875 14.0557 3.97709
24.1178 15.7693 4.01497
26.6352 11.4281 0.0269158
29.2405 12.6755 0.0214032
27.3172 13.4252 2
29.8072 14.2422 2
28.4334 15.99 3.98941
34.8078 34.5631 3.40728
36.0374 34.4699 2
37.5175 34.4465 0.52742
35.9095 32.9437 0.611149
37.501 30.9582 0.377718
41.7001 29.0204 0.149544
39.5821 29.6894 0.217669
39.8127 28.2499 2
37.4725 29.3505 2
35.6265 31.1866 2
34.5926 33.2173 2
37.6199 28.0188 3.84329
35.4387 29.7026 3.77752
34.3704 31.9339 3.57447
33.8014 33.5037 3.37606
30.3484 19.6726 3.98312
30.9507 16.8897 2
31.9448 14.5269 0.0144556
40.1665 26.3015 0.0377772
37.9972 23.5764 0.00437378
33.5741 17.4819 0.00919085
35.5095 20.4555 0.00483371
33.0028 20.0436 2
35.3504 23.197 2
37.7386 25.9483 2
32.648 22.7868 4.00456
35.2559 25.8342 3.98266
34.6853 37.5205 3.48868
36.0389 37.5049 2
37.5272 37.4829 0.534518
37.6703 50.3172 0.0103889
36.9414 47.5709 0.129096
36.0882 39.0243 0.609764
35.3834 45.3453 0.209597
34.3889 43.0761 0.430533
34.7828 40.4479 0.579221
33.8013 41.5123 0.623816
35.5717 49.5271 2
34.6606 39.0125 2
33.4012 40.5242 2
34.6311 46.8202 2
33.462 42.2881 2
33.7238 44.661 2
33.6349 48.6447 3.9703
33.1256 39.1196 3.31567
32.8282 40.9857 3.5748
32.436 43.386 3.78839
33.009 45.7437 3.84568
34.5277 52.0966 -9.97343e-05
32.4431 50.8799 2
30.6094 49.3837 4.00301
30.885 53.2095 0.00426623
29.0023 51.2238 2
27.3449 49.6007 3.97994
27.3739 53.207 0.0465043
25.7863 51.4058 2
24.2514 49.8034 3.96952
24.1594 53.1914 0.0468123
22.7657 51.4572 2
21.4632 49.9295 3.96762
18.7991 50.0129 3.97356
18.5815 52.4873 3.96681
20.0811 51.2858 2
17.9582 55.0971 3.9624
19.5258 54.0299 2
21.1713 52.9095 0.0414522
17.3892 57.7095 3.95842
18.8054 56.5174 2
20.358 55.5954 0.039721
17.2008 60.4587 3.95045
18.4947 58.979 2
19.6589 57.7156 0.0384652
17.4131 63.4159 3.97294
18.6522 61.6811 2
19.7719 60.0836 0.0254375
17.9485 66.6084 3.97271
19.1392 64.6097 2
20.2516 62.738 0.0284368
18.75 69.9759 4
19.8872 67.8033 2
20.9511 65.7278 0.0331003
21.918 68.8687 0.0173943
20.9142 71.1327 2
23.1494 72.1454 0
21.6233 13.7361 3.96825
22.203 11.0885 3.96529
23.1194 12.9058 2
23.042 8.19509 3.9719
23.9751 10.2182 2
24.1198 5.14523 3.98726
25.0201 7.32562 2
25.8613 9.41368 0.0278173
25.446 1.99014 4
26.2773 4.33209 2
27.0703 6.55203 0.0225815
27.7943 1.27778 2
28.49 3.64569 0.0108568
30.1841 0.720592 0
34.7663 36.0194 3.44331
36.044 35.9821 2
37.5174 35.976 0.566758
21.4145 15.9879 3.96223
24.7991 12.1054 0.032288
23.7995 14.5153 0.0204372
25.3862 14.0213 2
22.5522 15.1789 2
24.118 15.7809 2
23.4019 16.3895 3.96757
25.4658 16.2748 3.98947
27.3059 13.4512 0.0246322
29.8192 14.2301 0.00192754
28.4173 16.0392 2
27.5968 19.0838 3.98979
33.4252 34.503 3.35857
34.72 34.5727 2
36.0024 34.4714 0.595365
34.6589 33.2346 0.699059
35.6461 31.2803 0.427596
37.4651 29.3986 0.221547
39.767 28.3091 0.151891
37.5723 27.987 2
33.7663 33.481 2
35.4289 29.6367 2
34.3094 31.8471 2
35.3203 28.1111 3.8617
33.7445 30.3894 3.78769
33.505 32.8145 3.61269
29.9804 22.2872 4.00886
30.3328 19.6825 2
30.9873 16.888 0.00323561
37.7631 25.9772 0.0446539
35.3991 23.2128 -0.00834226
33.0049 20.0236 0.00206898
32.6401 22.7493 2
35.2671 25.8254 2
32.3049 26.1095 4.01573
32.9656 37.5109 3.36745
34.6751 37.5125 2
36.0463 37.4821 0.625615
35.5863 49.5159 0.0189434
34.6897 46.7451 0.150328
34.6877 39.0009 0.531207
33.7699 44.6087 0.219142
33.5172 42.1912 0.392413
33.4228 40.5191 0.661276
33.5976 48.6346 2
33.1167 39.1259 2
32.7689 41.0528 2
32.9955 45.8098 2
32.3892 43.4143 2
31.982 47.4399 3.98536
32.2317 39.4132 3.57636
31.5021 41.7006 3.81269
31.5562 44.4169 3.84808
32.4274 50.8819 -0.00425886
30.6218 49.4042 2
28.8858 47.8016 3.97212
28.9968 51.2342 0.0155766
27.3502 49.5998 2
25.7346 48.0417 3.97579
25.7788 51.4066 0.0456923
24.2533 49.8017 2
22.7881 48.3604 3.97261
22.7639 51.4597 0.0446203
21.4627 49.9272 2
19.9687 48.7422 3.97518
17.6715 49.0488 3.9762
17.473 51.1286 3.97253
18.8003 50.0115 2
16.9786 53.6203 3.9679
18.5802 52.4869 2
20.0864 51.286 0.0345317
16.3621 56.2845 3.96199
17.9538 55.0986 2
19.5312 54.0286 0.0387786
15.8533 59.1071 3.95443
17.3917 57.7106 2
18.8037 56.5163 0.038738
15.7968 62.0705 3.96959
17.1975 60.4605 2
18.4997 58.9737 0.0455651
16.0948 65.2988 3.97963
17.4118 63.425 2
18.6531 61.6857 0.0224199
16.6661 68.6801 4
17.9441 66.6044 2
19.1458 64.613 0.0336416
18.75 69.9759 2
19.8913 67.8084 0.018712
20.9142 71.1327 0
20.2759 14.7364 3.96538
21.6299 13.7382 2
20.5516 12.1038 3.97108
21.1466 9.17432 3.9726
22.1952 11.1021 2
23.1195 12.9164 0.0254537
22.0203 6.08542 3.98548
23.0383 8.19947 2
23.9787 10.1916 0.0281467
23.1494 2.85457 4
24.1146 5.14888 2
25.0239 7.32433 0.025725
25.446 1.99012 2
26.282 4.33055 0.0121068
27.7943 1.27781 0
33.1041 35.9134 3.36278
34.706 36.0197 2
36.0089 35.9756 0.61278
21.4241 15.9843 2
20.4931 17.1614 3.96141
22.2458 16.7951 3.96184
25.3875 14.0557 0.0229069
22.5511 15.1848 0.0143735
24.1178 15.7693 -0.0149659
25.463 16.2724 2
23.4058 16.3969 2
24.3897 18.7356 3.98263
27.431 21.8818 3.99199
28.4334 15.99 0.0105871
27.5832 19.0843 2
32.8337 34.0163 3.57188
33.4014 34.5001 2
34.8078 34.5631 0.592717
33.8014 33.5037 0.623943
34.3704 31.9339 0.425527
35.4387 29.7026 0.222478
37.6199 28.0188 0.156706
35.3019 28.0613 2
33.4617 32.7265 2
33.6992 30.3291 2
33.2128 28.743 3.87282
32.4389 31.6113 3.785
29.4716 24.762 4.01598
29.9666 22.2653 2
30.3484 19.6726 0.0168821
35.2559 25.8342 0.0173351
32.648 22.7868 -0.00456298
32.2902 26.0709 2
30.5769 27.7832 3.99043
31.9678 37.4938 3.56195
32.9488 37.5113 2
34.6853 37.5205 0.511325
33.6349 48.6447 0.0296985
33.009 45.7437 0.154321
33.1256 39.1196 0.684333
32.436 43.386 0.211613
32.8282 40.9857 0.425201
31.9383 47.4693 2
32.1346 39.4201 2
31.434 41.7633 2
31.4873 44.4753 2
30.3484 46.0579 3.97936
30.7579 39.7093 3.81886
30.1937 42.7583 3.87019
30.6094 49.3837 -0.00300563
28.8903 47.8066 2
27.2031 46.2185 3.98465
27.3449 49.6007 0.0200569
25.7399 48.0407 2
24.0979 46.6217 3.97612
24.2514 49.8034 0.0304752
22.7882 48.3593 2
21.0535 47.248 3.97549
21.4632 49.9295 0.032382
19.9678 48.7413 2
18.5679 47.874 3.97597
16.9163 48.4205 3.97585
17.6712 49.0489 2
16.52 49.9184 3.975
15.9464 52.1855 3.97271
17.4747 51.1275 2
18.7991 50.0129 0.0264422
15.2978 54.7865 3.96694
16.9793 53.62 2
18.5815 52.4873 0.0331921
14.6529 57.6236 3.96031
16.3603 56.2856 2
17.9582 55.0971 0.037599
14.2802 60.6497 3.9652
15.8546 59.1091 2
17.3892 57.7095 0.0415774
14.3384 63.852 3.96832
15.8009 62.0713 2
17.2008 60.4587 0.0495464
14.6715 67.2507 4
16.0899 65.2925 2
17.4131 63.4159 0.0270636
16.6661 68.6801 2
17.9485 66.6084 0.0272852
18.75 69.9759 0
19.0379 15.9376 3.95678
20.284 14.7261 2
19.0094 13.2286 3.96736
21.6233 13.7361 0.0317537
20.5447 12.1079 2
19.3518 10.2749 3.97025
19.995 7.14828 3.98347
21.1419 9.1681 2
22.203 11.0885 0.0347051
20.9142 3.86727 4
22.0132 6.08768 2
23.042 8.19509 0.0280973
23.1494 2.85451 2
24.1198 5.14523 0.0127444
25.446 1.99014 0
32.2495 35.5851 3.56264
33.0901 35.9071 2
34.7663 36.0194 0.55669
21.4145 15.9879 0.0377741
22.2559 16.7948 2
20.5036 17.1584 2
19.5608 18.6469 3.96651
21.9672 18.1385 3.98527
25.4658 16.2748 0.0105276
23.4019 16.3895 0.0324335
24.3942 18.7422 2
22.6805 20.1863 3.97061
25.0369 21.719 3.99119
27.1163 24.0342 3.97996
27.4398 21.7854 2
27.5968 19.0838 0.0102082
31.5153 33.3063 3.81113
32.7768 33.9634 2
33.4252 34.503 0.641429
33.505 32.8145 0.387306
33.7445 30.3894 0.212313
35.3203 28.1111 0.138297
33.1705 28.6985 2
32.3643 31.5504 2
31.2542 30.0993 3.89021
28.8733 26.9545 4.014
29.461 24.7632 2
29.9804 22.2872 -0.00885744
32.3049 26.1095 -0.0157329
30.5712 27.7683 2
30.4554 37.4822 3.82208
31.8652 37.4926 2
32.9656 37.5109 0.63255
31.982 47.4399 0.0146403
31.5562 44.4169 0.151924
32.2317 39.4132 0.423636
31.5021 41.7006 0.187314
30.3615 46.0728 2
30.6548 39.7176 2
30.1626 42.7917 2
28.7188 44.4243 3.96031
28.5057 40.3773 3.91566
28.8858 47.8016 0.0278781
27.2056 46.2173 2
25.4524 44.7589 3.97987
25.7346 48.0417 0.0242075
24.0986 46.6209 2
22.1488 45.569 3.9768
22.7881 48.3604 0.0273894
21.0547 47.2479 2
19.3539 46.4394 3.9754
19.9687 48.7422 0.0248161
18.5686 47.8746 2
17.1838 47.4533 3.97526
16.9178 48.4212 2
15.8921 48.7776 3.97509
17.6715 49.0488 0.0237972
16.5217 49.9178 2
15.0463 50.7737 3.97446
14.2471 53.2619 3.97144
15.9469 52.1852 2
17.473 51.1286 0.0274744
13.5098 56.0486 3.96221
15.2979 54.7867 2
16.9786 53.6203 0.0320982
12.8933 59.0879 3.95155
14.6535 57.625 2
16.3621 56.2845 0.0380108
12.6862 62.2922 3.96493
14.282 60.6518 2
15.8533 59.1071 0.045569
12.7746 65.6939 4
14.3351 63.8442 2
15.7968 62.0705 0.0304066
14.6714 67.2507 2
16.0948 65.2988 0.0203651
16.6661 68.6801 0
17.9045 17.3417 3.95873
19.0533 15.9305 2
17.5539 14.4772 3.96116
20.2759 14.7364 0.0346198
19.0042 13.2165 2
17.6562 11.5287 3.97007
20.5516 12.1038 0.0289246
19.3462 10.2927 2
18.0547 8.34245 3.98016
18.75 5.0241 4
19.9881 7.1565 2
21.1466 9.17432 0.0273999
20.9142 3.86727 2
22.0203 6.08542 0.0145183
23.1494 2.85457 0
30.7612 35.3049 3.81309
32.1479 35.571 2
33.1041 35.9134 0.63722
22.2458 16.7951 0.0381631
20.4931 17.1614 0.0385876
21.9789 18.1278 2
19.5607 18.6422 2
18.4822 20.2148 3.96803
21.2429 19.6623 3.97476
24.3897 18.7356 0.0173744
22.6884 20.1827 2
25.0556 21.6798 2
22.9526 22.0604 3.97617
25.4403 23.3579 3.9788
26.5088 26.3269 3.98358
27.1177 24.0376 2
27.431 21.8818 0.00800794
29.9444 32.6951 3.86886
31.4389 33.2549 2
32.8337 34.0163 0.428121
32.4389 31.6113 0.215
33.2128 28.743 0.127177
31.2332 30.0662 2
28.3384 29.5688 4.00616
28.8583 26.9671 2
29.4716 24.762 -0.0159817
30.5769 27.7832 0.00956527
28.7688 37.4213 3.84707
30.3483 37.4942 2
31.9678 37.4938 0.438049
30.3484 46.0579 0.0206351
30.1937 42.7583 0.129812
30.7579 39.7093 0.181139
28.7237 44.4831 2
28.4591 40.3971 2
26.8856 42.9226 3.98092
25.8377 39.3829 3.97766
27.2031 46.2185 0.0153536
25.444 44.7679 2
23.4071 43.6158 3.9751
24.0979 46.6217 0.0238845
22.1469 45.5701 2
20.1921 44.6882 3.97489
21.0535 47.248 0.0245085
19.3539 46.4405 2
17.5699 45.9628 3.97515
18.5679 47.874 0.0240272
17.1843 47.4539 2
15.6757 47.4521 3.97518
16.9163 48.4205 0.0241512
15.894 48.7778 2
14.3687 49.3495 3.97474
16.52 49.9184 0.0250011
15.0473 50.7732 2
13.3136 51.7166 3.97418
12.4021 54.4189 3.96535
14.2471 53.2619 2
15.9464 52.1855 0.0272861
11.6326 57.4139 3.95686
13.5113 56.0486 2
15.2978 54.7865 0.0330612
11.1409 60.6209 3.96541
12.8877 59.0892 2
14.6529 57.6236 0.0396908
10.9835 64.0165 4
12.684 62.2844 2
14.2802 60.6497 0.0347987
12.7745 65.694 2
14.3384 63.852 0.0316796
14.6715 67.2507 0
16.7583 18.8587 3.96169
17.9089 17.3369 2
16.2075 15.8966 3.95525
19.0379 15.9376 0.0432168
17.5592 14.475 2
16.0321 12.8748 3.96319
19.0094 13.2286 0.0326392
17.648 11.5299 2
16.2072 9.67066 3.9721
19.3518 10.2749 0.02975
18.0487 8.35012 2
16.6661 6.31991 4
18.75 5.02404 2
19.995 7.14828 0.0165297
20.9142 3.86727 0
29.1583 34.9381 3.88186
30.6377 35.2728 2
32.2495 35.5851 0.437358
17.2221 21.641 3.97126
21.9672 18.1385 0.014733
19.5608 18.6469 0.0334885
21.2471 19.6582 2
18.4735 20.2083 2
20.3775 21.9104 3.9738
22.6805 20.1863 0.0293928
25.0369 21.719 0.00880943
22.9554 22.0568 2
25.425 23.4069 2
23.8186 24.9811 3.97099
25.9116 28.9397 3.98417
26.4987 26.3441 2
27.1163 24.0342 0.0200407
27.8205 32.0505 3.97554
29.8946 32.6746 2
31.5153 33.3063 0.188869
31.2542 30.0993 0.10979
28.3506 29.5278 2
28.8733 26.9545 -0.0139963
26.5638 36.8913 3.9557
28.7213 37.3937 2
30.4554 37.4822 0.177915
28.7188 44.4243 0.0396883
28.5057 40.3773 0.0843432
26.8599 42.9553 2
25.7893 39.3701 2
24.6643 41.6134 3.97706
23.5297 38.518 3.97594
25.4524 44.7589 0.0201339
23.4042 43.6222 2
21.105 42.6616 3.97456
22.1488 45.569 0.0231952
20.1931 44.6894 2
17.9989 44.161 3.9751
19.3539 46.4394 0.0245994
17.5701 45.9638 2
15.6482 45.892 3.97518
17.1838 47.4533 0.0247364
15.6761 47.4525 2
13.9083 47.8323 3.97495
15.8921 48.7776 0.0249105
14.3698 49.3493 2
12.5536 50.1051 3.97471
15.0463 50.7737 0.0255377
13.3144 51.7163 2
11.3956 52.7403 3.96787
10.4341 55.6697 3.95972
12.4007 54.4192 2
14.2471 53.2619 0.0285572
9.70734 58.8459 3.9684
11.6378 57.4134 2
13.5098 56.0486 0.0377897
9.30605 62.2254 4
11.1396 60.6135 2
12.8933 59.0879 0.0484514
10.9835 64.0165 2
12.6862 62.2922 0.0350673
12.7746 65.6939 0
15.5536 20.3901 3.96684
16.7709 18.857 2
14.9504 17.4353 3.95772
17.9045 17.3417 0.0412689
16.2021 15.8891 2
14.4952 14.3473 3.96321
17.5539 14.4772 0.0388384
16.0358 12.8704 2
14.4513 11.1215 3.97149
17.6562 11.5287 0.0299341
16.2017 9.68012 2
14.6715 7.74927 4
18.0547 8.34245 0.0198374
16.6661 6.31988 2
18.75 5.0241 0
27.1139 34.4528 3.97481
29.1224 34.948 2
30.7612 35.3049 0.186908
18.5257 22.6367 3.97437
16.1193 23.1762 3.97284
17.2204 21.6368 2
21.2429 19.6623 0.0252441
18.4822 20.2148 0.0319685
20.3824 21.9086 2
20.5525 24.7665 3.97202
22.9526 22.0604 0.0238311
25.4403 23.3579 0.0212027
23.8149 24.9759 2
23.2865 28.2728 3.97108
25.3946 31.547 3.98316
25.9234 28.8777 2
26.5088 26.3269 0.016425
27.7861 32.0219 2
29.9444 32.6951 0.131139
28.3384 29.5688 -0.0061624
24.2646 36.3466 3.97866
26.5181 36.8899 2
28.7688 37.4213 0.152929
26.8856 42.9226 0.0190781
25.8377 39.3829 0.022343
24.6324 41.6218 2
23.5256 38.5183 2
22.2835 40.5054 3.97543
21.5728 37.7908 3.97816
23.4071 43.6158 0.0249008
21.1053 42.6603 2
18.4935 41.9459 3.97573
20.1921 44.6882 0.025109
17.9988 44.1613 2
15.6974 44.0341 3.97524
17.5699 45.9628 0.024847
15.6476 45.8924 2
13.6075 46.143 3.97518
15.6757 47.4521 0.0248228
13.9084 47.8323 2
11.9449 48.4168 3.97484
14.3687 49.3495 0.0252578
12.5547 50.1046 2
10.53 50.9934 3.97054
13.3136 51.7166 0.0258209
11.3963 52.7398 2
9.33597 53.8547 3.96168
8.39115 56.9815 3.96931
10.4365 55.6687 2
12.4021 54.4189 0.0346454
7.74927 60.3285 4
9.70641 58.8406 2
11.6326 57.4139 0.0431423
9.306 62.2255 2
11.1409 60.6209 0.0345871
10.9835 64.0165 0
14.3846 21.9413 3.97167
15.5559 20.3866 2
13.6876 19.0276 3.96205
16.7583 18.8587 0.0383149
14.9493 17.4299 2
13.0502 15.926 3.95674
16.2075 15.8966 0.0447451
14.5045 14.3401 2
12.7881 12.6957 3.96673
16.0321 12.8748 0.0368139
14.4467 11.1328 2
12.7746 9.30605 4
16.2072 9.67066 0.0278958
14.6715 7.74924 2
16.6661 6.31991 0
24.7878 33.9602 3.98116
27.0864 34.4192 2
29.1583 34.9381 0.118143
18.4132 24.3773 3.97267
18.5346 22.6359 2
14.9314 24.6721 3.97404
16.1188 23.1725 2
17.2221 21.641 0.0287428
20.1223 27.5574 3.97297
20.3775 21.9104 0.0262044
20.5568 24.7656 2
22.6668 30.9867 3.97384
23.8186 24.9811 0.0290139
23.2802 28.2813 2
25.3441 31.6009 2
25.9116 28.9397 0.0158261
27.8205 32.0505 0.0244629
21.6583 35.9983 3.97794
24.2644 36.3553 2
26.5638 36.8913 0.0442962
24.6643 41.6134 0.0229434
23.5297 38.518 0.0240644
22.2878 40.5065 2
21.5747 37.789 2
19.2858 38.9617 3.97714
21.105 42.6616 0.0254388
18.4934 41.9458 2
15.6842 41.814 3.97588
17.9989 44.161 0.0248974
15.6964 44.0343 2
13.3654 44.2705 3.97534
15.6482 45.892 0.0248168
13.6068 46.1432 2
11.4595 46.6207 3.97566
13.9083 47.8323 0.0250497
11.9463 48.4163 2
9.79593 49.1629 3.97376
12.5536 50.1051 0.0252857
10.5312 50.9926 2
8.36006 51.9737 3.96346
11.3956 52.7403 0.0321331
9.3342 53.854 2
7.19964 55.0336 3.97029
6.31991 58.3339 4
8.38999 56.9767 2
10.4341 55.6697 0.04028
7.74924 60.3285 2
9.70734 58.8459 0.0316013
9.30605 62.2254 0
13.7703 25.5529 3.9759
13.2742 23.4543 3.97428
14.3851 21.9381 2
12.5022 20.6682 3.96509
15.5536 20.3901 0.0331554
13.6786 19.0215 2
11.7318 17.6084 3.95587
14.9504 17.4353 0.0422839
13.0622 15.9233 2
11.2267 14.3825 3.96443
14.4952 14.3473 0.0367872
12.7875 12.7064 2
10.9835 10.9835 4
14.4513 11.1215 0.0285057
12.7745 9.306 2
14.6715 7.74927 0
22.0352 33.5981 3.97677
24.7834 33.9179 2
27.1139 34.4528 0.0251864
16.7245 26.6609 3.97396
18.4161 24.3761 2
18.5257 22.6367 0.0256295
14.9278 24.6707 2
16.1193 23.1762 0.0271599
19.5161 30.4399 3.97477
20.1224 27.5544 2
20.5525 24.7665 0.0279848
22.6816 30.977 2
23.2865 28.2728 0.0289234
25.3946 31.547 0.016836
18.8553 36.0324 3.97752
21.6648 35.9983 2
24.2646 36.3466 0.0213436
22.2835 40.5054 0.0245712
21.5728 37.7908 0.0218426
19.2848 38.9602 2
15.1648 39.1432 3.97689
18.4935 41.9459 0.0242661
15.6838 41.8139 2
13.052 42.1975 3.97589
15.6974 44.0341 0.024759
13.3644 44.2705 2
11.0405 44.7161 3.97593
13.6075 46.143 0.0248205
11.4605 46.6203 2
9.1802 47.2528 3.9754
11.9449 48.4168 0.0251625
9.79782 49.1619 2
7.51778 50.0123 3.96438
10.53 50.9934 0.0294599
8.35805 51.9728 2
6.13972 53.0089 3.9707
9.33597 53.8547 0.0383183
7.19916 55.0294 2
5.0241 56.25 4
6.31988 58.3339 2
8.39115 56.9815 0.0306881
7.74927 60.3285 0
14.0782 26.9974 3.9748
12.3753 24.9388 3.97487
13.7677 25.5514 2
11.4242 22.3422 3.9686
13.2733 23.4516 2
14.3846 21.9413 0.0283293
12.4974 20.664 2
10.5082 19.3666 3.95882
13.6876 19.0276 0.0379465
11.748 17.6079 2
9.76725 16.163 3.96798
13.0502 15.926 0.0432607
11.2266 14.389 2
9.30607 12.7746 4
12.7881 12.6957 0.0332671
10.9835 10.9835 2
12.7746 9.30605 0
19.0165 33.2579 3.97576
22.0292 33.6061 2
24.7878 33.9602 0.0188374
16.3534 29.844 3.97502
16.7224 26.6618 2
18.4132 24.3773 0.0273346
14.9314 24.6721 0.0259618
19.5107 30.441 2
20.1223 27.5574 0.0270283
22.6668 30.9867 0.026156
15.8171 36.062 3.97709
18.8564 36.0326 2
21.6583 35.9983 0.0220635
13.2894 37.8305 3.97704
19.2858 38.9617 0.0228561
15.1643 39.1432 2
12.5377 40.101 3.97642
15.6842 41.814 0.0241174
13.051 42.1973 2
10.6311 42.7194 3.97591
13.3654 44.2705 0.0246616
11.0412 44.7159 2
8.65733 45.2674 3.9765
11.4595 46.6207 0.0243439
9.1828 47.2518 2
6.79857 47.9823 3.96488
9.79593 49.1629 0.0262395
7.51562 50.0115 2
5.21588 50.9118 3.97083
8.36006 51.9737 0.0365411
6.1397 53.0057 2
3.86727 54.0858 4
7.19964 55.0336 0.0297079
5.02404 56.25 2
6.31991 58.3339 0
13.5512 29.1784 3.97428
11.8235 26.616 3.97484
14.0768 26.9976 2
10.4611 24.0571 3.97294
12.3762 24.9377 2
13.7703 25.5529 0.0241042
9.35688 21.1783 3.96196
11.423 22.34 2
13.2742 23.4543 0.0257165
12.5022 20.6682 0.0349105
10.5187 19.3669 2
8.42334 18.0311 3.96933
11.7318 17.6084 0.0441304
9.76702 16.1678 2
7.74928 14.6715 4
11.2267 14.3825 0.0355666
9.30602 12.7745 2
10.9835 10.9835 0
15.3246 32.9689 3.97629
19.017 33.259 2
22.0352 33.5981 0.0232319
16.354 29.844 2
16.7245 26.6609 0.0260388
19.5161 30.4399 0.02523
13.602 36.2359 3.97667
15.8176 36.0618 2
18.8553 36.0324 0.0224798
13.2886 37.8304 2
11.8433 38.3031 3.97648
15.1648 39.1432 0.0231117
12.5367 40.1013 2
10.1972 40.7207 3.97637
13.052 42.1975 0.0241108
10.6319 42.7189 2
8.20063 43.2308 3.97648
11.0405 44.7161 0.0240685
8.66075 45.2664 2
6.19303 45.8922 3.9659
9.1802 47.2528 0.0246015
6.79677 47.9815 2
4.42667 48.7519 3.97128
7.51778 50.0123 0.0356216
5.21617 50.9094 2
2.85457 51.8506 4
6.13972 53.0089 0.029301
3.86727 54.0858 2
5.0241 56.25 0
12.6676 31.3525 3.97561
11.23 28.5217 3.97511
13.5512 29.1782 2
9.66844 25.8739 3.97446
11.8237 26.6162 2
14.0782 26.9974 0.0252017
8.32144 23.0533 3.96387
10.463 24.0561 2
12.3753 24.9388 0.0251282
7.20528 19.9787 3.97043
9.36291 21.179 2
11.4242 22.3422 0.0313984
10.5082 19.3666 0.0411791
8.42293 18.0354 2
6.31992 16.6661 4
9.76725 16.163 0.0320237
7.74926 14.6714 2
9.30607 12.7746 0
12.711 34.3524 3.97663
15.3243 32.9693 2
19.0165 33.2579 0.0242409
16.3534 29.844 0.0249795
11.3631 36.6294 3.97647
13.6016 36.2359 2
15.8171 36.062 0.0229083
13.2894 37.8305 0.0229643
11.8423 38.303 2
9.76615 38.8132 3.97667
12.5377 40.101 0.0235814
10.1976 40.7205 2
7.79971 41.1889 3.9764
10.6311 42.7194 0.0240939
8.20286 43.2294 2
5.69066 43.76 3.96689
8.65733 45.2674 0.0234956
6.18993 45.8917 2
3.77176 46.5372 3.97179
6.79857 47.9823 0.0351168
4.42729 48.7502 2
1.99014 49.554 4
5.21588 50.9118 0.0291659
2.85451 51.8506 2
3.86727 54.0858 0
11.4414 32.9863 3.9764
10.5246 30.4594 3.97568
12.6664 31.3527 2
8.97096 27.7949 3.97511
11.2305 28.5217 2
13.5512 29.1784 0.025718
7.4328 25.0056 3.96444
9.67019 25.8737 2
11.8235 26.616 0.0251595
6.12174 22.0012 3.97091
8.32252 23.0538 2
10.4611 24.0571 0.0270642
5.02411 18.75 4
7.20519 19.9821 2
9.35688 21.1783 0.0380387
8.42334 18.0311 0.0306677
6.3199 16.6661 2
7.74928 14.6715 0
10.9349 35.0338 3.97623
12.71 34.3523 2
15.3246 32.9689 0.0237077
9.41301 36.9932 3.97685
11.362 36.6296 2
13.602 36.2359 0.0233318
11.8433 38.3031 0.0235163
9.76689 38.8131 2
7.46244 39.1742 3.97668
10.1972 40.7207 0.0236324
7.80299 41.1882 2
5.29645 41.6097 3.96736
8.20063 43.2308 0.0235242
5.68854 43.7596 2
3.24916 44.2819 3.97276
6.19303 45.8922 0.0341005
3.77263 46.5358 2
1.27781 47.2057 4
4.42667 48.7519 0.028724
1.99012 49.554 2
2.85457 51.8506 0
10.5514 33.9253 3.97611
9.78209 32.2088 3.97643
11.4407 32.9864 2
8.30469 29.7445 3.97564
10.5252 30.4598 2
12.6676 31.3525 0.0243894
6.66083 27.0261 3.96487
8.97341 27.7951 2
11.23 28.5217 0.0248892
5.17625 24.0943 3.97114
7.43113 25.006 2
9.66844 25.8739 0.0255392
3.86728 20.9142 4
6.12199 22.0037 2
8.32144 23.0533 0.0361337
5.02406 18.75 2
7.20528 19.9787 0.029567
6.31992 16.6661 0
9.21871 35.3036 3.97707
10.9342 35.0336 2
12.711 34.3524 0.0233684
7.22877 37.2098 3.97677
9.41411 36.9932 2
11.3631 36.6294 0.0235313
9.76615 38.8132 0.0233271
7.46558 39.1741 2
5.01847 39.4667 3.96733
7.79971 41.1889 0.0236022
5.29442 41.6094 2
2.85935 42.0023 3.97338
5.69066 43.76 0.0331054
3.24986 44.2808 2
0.720592 44.8159 4
3.77176 46.5372 0.0282122
1.27778 47.2057 2
1.99014 49.554 0
9.25267 33.7346 3.97707
10.5513 33.9253 2
7.7292 31.645 3.97626
9.78392 32.2089 2
11.4414 32.9863 0.0235977
5.99378 29.083 3.96511
8.30758 29.745 2
10.5246 30.4594 0.0243153
4.36314 26.2477 3.97139
6.65811 27.0264 2
8.97096 27.7949 0.024889
2.85458 23.1494 4
5.17683 24.0959 2
7.4328 25.0056 0.0355584
3.86728 20.9142 2
6.12174 22.0012 0.0290902
5.02411 18.75 0
7.16896 35.3202 3.97677
9.22049 35.3036 2
10.9349 35.0338 0.0237713
4.86246 37.3422 3.967
7.23166 37.2099 2
9.41301 36.9932 0.0231525
7.46244 39.1742 0.0233227
5.01606 39.4664 2
2.60717 39.7142 3.97376
5.29645 41.6097 0.0326443
2.86035 42.0017 2
0.320823 42.3947 4
3.24916 44.2819 0.0272448
0.720551 44.8159 2
1.27781 47.2057 0
7.33061 33.4852 3.97672
9.2547 33.735 2
10.5514 33.9253 0.0238906
5.45246 31.1435 3.96553
7.73201 31.6455 2
9.78209 32.2088 0.0235679
3.68427 28.4445 3.97197
5.99011 29.0832 2
8.30469 29.7445 0.024364
1.99015 25.446 4
4.36388 26.2489 2
6.66083 27.0261 0.0351337
2.85453 23.1494 2
5.17625 24.0943 0.0288565
3.86728 20.9142 0
4.87478 35.2564 3.96642
7.171 35.3206 2
9.21871 35.3036 0.0229346
2.49862 37.4292 3.97443
4.85884 37.3421 2
7.22877 37.2098 0.0232315
5.01847 39.4667 0.0326726
2.60832 39.7142 2
0.080333 39.9526 4
2.85935 42.0023 0.0266235
0.320817 42.3947 2
0.720592 44.8159 0
5.07246 33.1974 3.96598
7.33263 33.4856 2
9.25267 33.7346 0.0229292
3.14829 30.6676 3.97276
5.44784 31.1437 2
7.7292 31.645 0.0237413
1.27793 27.7943 4
3.68526 28.4455 2
5.99378 29.083 0.0348917
1.99013 25.446 2
4.36314 26.2477 0.0286067
2.85458 23.1494 0
2.5506 35.1601 3.97418
4.87165 35.2566 2
7.16896 35.3202 0.0232274
0 37.5 4
2.4994 37.4294 2
4.86246 37.3422 0.0329955
2.60717 39.7142 0.0262415
0.0802903 39.9526 2
0.320823 42.3947 0
2.76832 32.9072 3.97384
5.06912 33.1976 2
7.33061 33.4852 0.023275
0.721173 30.1842 4
3.14948 30.6686 2
5.45246 31.1435 0.0344679
1.27779 27.7943 2
3.68427 28.4445 0.0280317
1.99015 25.446 0
0.0806499 35.0474 4
2.55196 35.1605 2
4.87478 35.2564 0.0335804
0 37.5 2
2.49862 37.4292 0.0255739
0.080333 39.9526 0
0.32156 32.6054 4
2.76916 32.908 2
5.07246 33.1974 0.0340225
0.72056 30.1841 2
3.14829 30.6676 0.0272406
1.27793 27.7943 0
0.0802889 35.0474 2
2.5506 35.1601 0.0258185
0 37.5 0
0.320817 32.6053 2
2.76832 32.9072 0.0261624
0.721173 30.1842 0
0.0806499 35.0474 0
0.32156 32.6054 0
CELLS 1910 17190
8 18 6 25 56 2 0 5 16
8 57 23 6 18 17 4 0 2
8 78 36 9 29 31 11 1 7
8 31 11 1 7 79 37 10 30
8 110 57 18 50 48 17 2 14
8 50 18 56 111 14 2 16 49
8 116 62 22 55 52 20 3 15
8 56 25 67 118 16 5 24 53
8 119 63 23 57 54 21 4 17
8 55 22 63 119 15 3 21 54
8 58 26 68 121 18 6 25 56
8 122 65 26 58 57 23 6 18
8 73 31 7 27 142 79 30 71
8 143 78 29 72 73 31 7 27
8 83 147 76 34 32 74 28 8
8 84 148 78 36 33 75 29 9
8 76 34 8 28 148 84 33 75
8 37 79 150 86 10 30 77 35
8 151 87 36 78 80 38 11 31
8 80 38 11 31 152 88 37 79
8 175 100 42 94 96 44 12 40
8 44 96 176 101 12 40 95 43
8 101 176 98 46 43 95 41 13
8 46 98 178 103 13 41 97 45
8 178 103 45 97 147 83 32 74
8 189 116 55 109 106 52 15 47
8 111 56 118 191 49 16 53 107
8 192 119 57 110 108 54 17 48
8 109 55 119 192 47 15 54 108
8 194 122 58 112 110 57 18 50
8 112 58 121 195 50 18 56 111
8 115 61 19 51 197 124 59 113
8 115 61 125 198 51 19 60 114
8 198 125 62 116 114 60 20 52
8 200 127 64 120 116 62 22 55
8 118 67 132 202 53 24 66 117
8 121 68 133 203 56 25 67 118
8 120 64 128 204 55 22 63 119
8 204 128 65 122 119 63 23 57
8 206 134 68 121 123 69 26 58
8 123 69 26 58 207 131 65 122
8 226 147 74 138 140 76 28 70
8 229 148 75 139 143 78 29 72
8 140 76 28 70 229 148 75 139
8 142 79 30 71 231 150 77 141
8 144 80 31 73 232 152 79 142
8 233 151 78 143 144 80 31 73
8 150 86 35 77 235 154 81 145
8 235 154 81 145 146 82 39 91
8 146 82 39 91 236 155 90 165
8 238 157 83 147 149 85 34 76
8 239 158 84 148 151 87 36 78
8 149 85 34 76 239 158 84 148
8 152 88 37 79 241 160 86 150
8 242 161 87 151 153 89 38 80
8 153 89 38 80 243 162 88 152
8 171 98 41 92 265 178 97 169
8 265 178 97 169 226 147 74 138
8 172 96 40 93 266 176 95 170
8 266 176 95 170 171 98 41 92
8 269 175 94 173 172 96 40 93
8 271 180 99 174 175 100 42 94
8 197 124 59 113 271 180 99 174
8 272 181 100 175 177 102 44 96
8 273 182 101 176 179 104 46 98
8 177 102 44 96 273 182 101 176
8 179 104 46 98 275 184 103 178
8 275 184 103 178 238 157 83 147
8 188 115 51 105 283 197 113 186
8 188 115 198 284 105 51 114 187
8 284 198 116 189 187 114 52 106
8 286 200 120 193 189 116 55 109
8 191 118 202 288 107 53 117 190
8 195 121 203 289 111 56 118 191
8 193 120 204 290 109 55 119 192
8 290 204 122 194 192 119 57 110
8 196 123 58 112 292 207 122 194
8 293 206 121 195 196 123 58 112
8 199 126 61 115 297 211 124 197
8 298 212 127 200 198 125 62 116
8 199 126 212 298 115 61 125 198
8 205 129 64 120 300 214 127 200
8 301 217 130 201 202 132 66 117
8 209 136 168 264 301 217 130 201
8 302 219 132 202 203 133 67 118
8 303 220 133 203 206 134 68 121
8 205 129 215 304 120 64 128 204
8 304 215 131 207 204 128 65 122
8 306 221 134 206 208 135 69 123
8 208 135 69 123 307 218 131 207
8 210 137 167 263 309 223 136 209
8 328 238 147 226 230 149 76 140
8 228 146 91 166 329 236 165 260
8 231 150 77 141 330 235 145 227
8 330 235 145 227 228 146 91 166
8 332 239 148 229 233 151 78 143
8 230 149 76 140 332 239 148 229
8 232 152 79 142 334 241 150 231
8 234 153 80 144 335 243 152 232
8 336 242 151 233 234 153 80 144
8 236 155 90 165 338 245 164 259
8 241 160 86 150 339 246 154 235
8 339 246 154 235 237 156 82 146
8 237 156 82 146 340 247 155 236
8 342 249 157 238 240 159 85 149
8 343 250 158 239 242 161 87 151
8 240 159 85 149 343 250 158 239
8 243 162 88 152 345 252 160 241
8 244 163 253 346 153 89 161 242
8 244 163 89 153 347 254 162 243
8 311 224 261 371 210 137 167 263
8 263 167 262 372 209 136 168 264
8 267 179 98 171 375 275 178 265
8 375 275 178 265 328 238 147 226
8 376 273 176 266 267 179 98 171
8 268 177 96 172 376 273 176 266
8 379 272 175 269 268 177 96 172
8 380 271 174 270 269 175 94 173
8 283 197 113 186 380 271 174 270
8 381 277 180 271 272 181 100 175
8 297 211 124 197 381 277 180 271
8 382 278 181 272 274 183 102 177
8 274 183 102 177 383 279 182 273
8 383 279 182 273 276 185 104 179
8 385 281 184 275 342 249 157 238
8 276 185 104 179 385 281 184 275
8 285 199 115 188 393 297 197 283
8 394 298 200 286 284 198 116 189
8 285 199 298 394 188 115 198 284
8 291 205 120 193 396 300 200 286
8 397 301 201 287 288 202 117 190
8 295 209 264 374 397 301 201 287
8 398 302 202 288 289 203 118 191
8 399 303 203 289 293 206 121 195
8 291 205 304 400 193 120 204 290
8 400 304 207 292 290 204 122 194
8 294 208 123 196 402 307 207 292
8 403 306 206 293 294 208 123 196
8 296 210 263 373 405 309 209 295
8 408 312 213 299 297 211 126 199
8 299 213 313 409 199 126 212 298
8 409 313 214 300 298 212 127 200
8 305 216 129 205 411 315 214 300
8 412 318 217 301 302 219 132 202
8 309 223 136 209 412 318 217 301
8 413 320 219 302 303 220 133 203
8 306 221 321 414 206 134 220 303
8 307 218 131 207 415 316 215 304
8 305 216 316 415 205 129 215 304
8 417 322 221 306 308 222 135 208
8 308 222 135 208 418 319 218 307
8 310 225 137 210 420 325 223 309
8 423 326 224 311 310 225 137 210
8 329 236 165 260 441 338 259 368
8 442 342 238 328 333 240 149 230
8 331 237 146 228 443 340 236 329
8 334 241 150 231 444 339 235 330
8 444 339 235 330 331 237 146 228
8 446 343 239 332 336 242 151 233
8 333 240 149 230 446 343 239 332
8 335 243 152 232 448 345 241 334
8 337 244 153 234 449 347 243 335
8 337 244 346 450 234 153 242 336
8 338 245 164 259 452 349 258 367
8 340 247 155 236 453 350 245 338
8 345 252 160 241 454 351 246 339
8 454 351 246 339 341 248 156 237
8 341 248 156 237 455 352 247 340
8 240 159 251 344 342 249 354 457
8 242 161 253 346 343 250 355 458
8 343 250 355 458 240 159 251 344
8 347 254 162 243 460 357 252 345
8 348 255 358 461 244 163 253 346
8 348 255 163 244 462 359 254 347
8 473 360 257 365 363 256 364 482
8 452 349 258 367 365 257 366 485
8 422 324 369 488 311 224 261 371
8 371 261 370 490 263 167 262 372
8 407 311 371 491 296 210 263 373
8 373 263 372 492 295 209 264 374
8 493 385 275 375 442 342 238 328
8 377 276 179 267 493 385 275 375
8 378 274 177 268 494 383 273 376
8 494 383 273 376 377 276 179 267
8 497 382 272 379 378 274 177 268
8 498 381 271 380 379 272 175 269
8 393 297 197 283 498 381 271 380
8 499 387 277 381 382 278 181 272
8 408 312 211 297 499 387 277 381
8 500 388 278 382 384 280 183 274
8 501 389 279 383 386 282 185 276
8 384 280 183 274 501 389 279 383
8 386 282 185 276 503 391 281 385
8 503 391 281 385 457 354 249 342
8 511 408 299 395 393 297 199 285
8 395 299 409 512 285 199 298 394
8 512 409 300 396 394 298 200 286
8 401 305 205 291 514 411 300 396
8 515 412 301 397 398 302 202 288
8 405 309 209 295 515 412 301 397
8 516 413 302 398 399 303 203 289
8 403 306 414 517 293 206 303 399
8 402 307 207 292 518 415 304 400
8 401 305 415 518 291 205 304 400
8 404 308 208 294 520 418 307 402
8 521 417 306 403 404 308 208 294
8 406 310 210 296 523 420 309 405
8 526 423 311 407 406 310 210 296
8 410 314 213 299 527 424 312 408
8 528 425 315 411 409 313 214 300
8 410 314 425 528 299 213 313 409
8 416 317 216 305 530 427 315 411
8 531 430 318 412 413 320 219 302
8 420 325 223 309 531 430 318 412
8 532 432 320 413 414 321 220 303
8 417 322 433 533 306 221 321 414
8 418 319 218 307 534 428 316 415
8 416 317 428 534 305 216 316 415
8 419 323 434 536 308 222 322 417
8 419 323 222 308 537 431 319 418
8 421 327 225 310 539 438 325 420
8 421 327 439 541 310 225 326 423
8 543 437 324 422 423 326 224 311
8 441 338 259 368 559 452 367 486
8 443 340 236 329 560 453 338 441
8 333 240 344 447 442 342 457 561
8 445 341 237 331 562 455 340 443
8 448 345 241 334 563 454 339 444
8 563 454 339 444 445 341 237 331
8 336 242 346 450 446 343 458 565
8 446 343 458 565 333 240 344 447
8 449 347 243 335 567 460 345 448
8 451 348 244 337 568 462 347 449
8 451 348 461 569 337 244 346 450
8 570 463 349 452 473 360 257 365
8 453 350 245 338 570 463 349 452
8 455 352 247 340 571 464 350 453
8 460 357 252 345 572 465 351 454
8 572 465 351 454 456 353 248 341
8 456 353 248 341 573 466 352 455
8 344 251 356 459 457 354 468 575
8 458 355 469 576 344 251 356 459
8 346 253 358 461 458 355 469 576
8 462 359 254 347 578 471 357 460
8 348 255 359 462 461 358 472 579
8 591 474 360 473 475 361 256 363
8 475 361 256 363 594 477 362 479
8 363 256 364 482 479 362 480 603
8 590 473 365 484 481 363 482 605
8 482 364 257 365 606 483 366 485
8 559 452 367 486 484 365 485 607
8 542 436 487 609 422 324 369 488
8 525 422 488 611 407 311 371 491
8 488 369 489 612 371 261 370 490
8 491 371 490 613 373 263 372 492
8 495 386 276 377 614 503 385 493
8 614 503 385 493 561 457 342 442
8 615 501 383 494 495 386 276 377
8 496 384 274 378 615 501 383 494
8 618 500 382 497 496 384 274 378
8 619 499 381 498 497 382 272 379
8 511 408 297 393 619 499 381 498
8 620 505 387 499 500 388 278 382
8 527 424 312 408 620 505 387 499
8 502 390 506 621 384 280 388 500
8 622 507 389 501 504 392 282 386
8 502 390 280 384 622 507 389 501
8 504 392 282 386 624 509 391 503
8 624 509 391 503 575 468 354 457
8 513 410 299 395 630 527 408 511
8 631 528 411 514 512 409 300 396
8 513 410 528 631 395 299 409 512
8 519 416 305 401 633 530 411 514
8 634 531 412 515 516 413 302 398
8 523 420 309 405 634 531 412 515
8 635 532 413 516 517 414 303 399
8 521 417 533 636 403 306 414 517
8 520 418 307 402 637 534 415 518
8 519 416 534 637 401 305 415 518
8 522 419 308 404 639 537 418 520
8 522 419 536 640 404 308 417 521
8 524 421 310 406 642 539 420 523
8 524 421 541 644 406 310 423 526
8 646 543 422 525 526 423 311 407
8 529 426 314 410 647 544 424 527
8 528 425 545 648 411 315 427 530
8 529 426 545 648 410 314 425 528
8 535 429 317 416 649 546 427 530
8 650 548 430 531 532 432 320 413
8 539 438 325 420 650 548 430 531
8 533 433 550 651 414 321 432 532
8 536 434 551 652 417 322 433 533
8 537 431 319 418 653 547 428 534
8 535 429 547 653 416 317 428 534
8 538 435 552 654 419 323 434 536
8 538 435 323 419 655 549 431 537
8 540 440 327 421 657 556 438 539
8 540 440 557 659 421 327 439 541
8 541 439 555 660 423 326 437 543
8 661 554 436 542 543 437 324 422
8 676 570 452 559 590 473 365 484
8 560 453 338 441 676 570 452 559
8 562 455 340 443 677 571 453 560
8 447 344 459 566 561 457 575 678
8 564 456 341 445 679 573 455 562
8 567 460 345 448 680 572 454 563
8 680 572 454 563 564 456 341 445
8 565 458 576 682 447 344 459 566
8 450 346 461 569 565 458 576 682
8 568 462 347 449 684 578 460 567
8 451 348 462 568 569 461 579 685
8 686 580 463 570 591 474 360 473
8 571 464 350 453 686 580 463 570
8 573 466 352 455 687 581 464 571
8 572 465 582 688 460 357 471 578
8 574 467 582 688 456 353 465 572
8 574 467 353 456 689 583 466 573
8 459 356 470 577 575 468 585 691
8 576 469 586 692 459 356 470 577
8 461 358 472 579 576 469 586 692
8 462 359 471 578 579 472 588 694
8 704 591 473 590 593 475 363 481
8 595 476 592 705 475 361 474 591
8 593 475 363 481 707 594 479 602
8 594 477 362 479 709 598 478 600
8 595 476 361 475 711 597 477 594
8 479 362 480 603 600 478 601 720
8 481 363 482 605 602 479 603 722
8 603 480 364 482 723 604 483 606
8 605 482 365 484 724 606 485 607
8 656 553 608 726 542 436 487 609
8 645 542 609 728 525 422 488 611
8 609 487 610 729 488 369 489 612
8 611 488 612 730 491 371 490 613
8 616 504 386 495 731 624 503 614
8 731 624 503 614 678 575 457 561
8 732 622 501 615 616 504 386 495
8 617 502 384 496 732 622 501 615
8 617 502 621 735 496 384 500 618
8 736 620 499 619 618 500 382 497
8 630 527 408 511 736 620 499 619
8 621 506 626 737 500 388 505 620
8 647 544 424 527 737 626 505 620
8 623 508 627 738 502 390 506 621
8 623 508 390 502 739 628 507 622
8 625 510 628 739 504 392 507 622
8 740 629 509 624 691 585 468 575
8 625 510 392 504 740 629 509 624
8 632 529 410 513 744 647 527 630
8 631 528 648 745 514 411 530 633
8 632 529 648 745 513 410 528 631
8 638 535 416 519 746 649 530 633
8 747 650 531 634 635 532 413 516
8 642 539 420 523 747 650 531 634
8 636 533 651 748 517 414 532 635
8 640 536 652 749 521 417 533 636
8 639 537 418 520 750 653 534 637
8 638 535 653 750 519 416 534 637
8 641 538 419 522 751 655 537 639
8 641 538 654 752 522 419 536 640
8 643 540 421 524 753 657 539 642
8 643 540 659 755 524 421 541 644
8 644 541 660 757 526 423 543 646
8 758 661 542 645 646 543 422 525
8 529 426 544 647 648 545 662 759
8 530 427 545 648 649 546 663 760
8 535 429 546 649 653 547 664 761
8 762 666 548 650 651 550 432 532
8 657 556 438 539 762 666 548 650
8 652 551 668 763 533 433 550 651
8 654 552 669 764 536 434 551 652
8 655 549 431 537 765 665 547 653
8 538 435 549 655 654 552 667 766
8 661 554 671 768 542 436 553 656
8 658 558 440 540 769 674 556 657
8 658 558 675 770 540 440 557 659
8 659 557 673 771 541 439 555 660
8 660 555 672 772 543 437 554 661
8 788 686 570 676 704 591 473 590
8 677 571 453 560 788 686 570 676
8 679 573 455 562 789 687 571 677
8 566 459 577 683 678 575 691 790
8 681 574 456 564 791 689 573 679
8 680 572 688 792 567 460 578 684
8 681 574 688 792 564 456 572 680
8 682 576 692 794 566 459 577 683
8 569 461 579 685 682 576 692 794
8 568 462 578 684 685 579 694 796
8 687 581 464 571 798 696 580 686
8 798 696 580 686 705 592 474 591
8 689 583 466 573 799 697 581 687
8 688 582 698 800 578 471 588 694
8 690 584 698 800 574 467 582 688
8 690 584 467 574 801 699 583 689
8 693 587 701 803 577 470 585 691
8 693 587 470 577 804 702 586 692
8 695 589 702 804 579 472 586 692
8 695 589 472 579 805 703 588 694
8 708 595 705 813 593 475 591 704
8 710 596 706 814 595 476 592 705
8 707 594 479 602 816 709 600 719
8 708 595 475 593 817 711 594 707
8 709 598 478 600 819 715 599 717
8 711 597 477 594 820 714 598 709
8 710 596 476 595 822 713 597 711
8 600 478 601 720 717 599 718 832
8 602 479 603 722 719 600 720 834
8 720 601 480 603 835 721 604 723
8 722 603 482 605 836 723 606 724
8 767 670 725 839 656 553 608 726
8 756 656 726 841 645 542 609 728
8 726 608 727 842 609 487 610 729
8 728 609 729 843 611 488 612 730
8 844 740 624 731 790 691 575 678
8 733 625 504 616 844 740 624 731
8 734 623 502 617 845 739 622 732
8 733 625 739 845 616 504 622 732
8 734 623 738 846 617 502 621 735
8 735 621 737 847 618 500 620 736
8 744 647 527 630 847 737 620 736
8 621 506 627 738 737 626 741 848
8 647 544 626 737 759 662 741 848
8 623 508 628 739 738 627 742 849
8 740 629 585 691 850 743 700 802
8 625 510 629 740 739 628 743 850
8 632 529 647 744 745 648 759 854
8 633 530 648 745 746 649 760 855
8 638 535 649 746 750 653 761 856
8 857 762 650 747 748 651 532 635
8 753 657 539 642 857 762 650 747
8 749 652 763 858 636 533 651 748
8 752 654 764 859 640 536 652 749
8 751 655 537 639 860 765 653 750
8 641 538 655 751 752 654 766 861
8 754 658 540 643 862 769 657 753
8 754 658 770 863 643 540 659 755
8 755 659 771 864 644 541 660 757
8 758 661 768 866 645 542 656 756
8 757 660 772 867 646 543 661 758
8 759 662 773 868 648 545 663 760
8 649 546 663 760 761 664 774 871
8 765 665 547 653 872 775 664 761
8 873 777 666 762 763 668 550 651
8 769 674 556 657 873 777 666 762
8 764 669 779 874 652 551 668 763
8 654 552 667 766 764 669 778 875
8 655 549 665 765 766 667 776 876
8 768 671 782 877 656 553 670 767
8 772 672 783 878 661 554 671 768
8 658 558 674 769 770 675 786 879
8 659 557 675 770 771 673 785 881
8 882 784 672 772 771 673 555 660
8 789 687 571 677 897 798 686 788
8 897 798 686 788 813 705 591 704
8 791 689 573 679 898 799 687 789
8 795 693 803 900 683 577 691 790
8 793 690 574 681 901 801 689 791
8 792 688 800 902 684 578 694 796
8 793 690 800 902 681 574 688 792
8 795 693 577 683 903 804 692 794
8 797 695 804 903 685 579 692 794
8 797 695 579 685 904 805 694 796
8 905 806 697 799 798 696 581 687
8 814 706 806 905 705 592 696 798
8 689 583 697 799 801 699 808 907
8 800 698 809 908 694 588 703 805
8 690 584 699 801 800 698 809 908
8 803 701 810 909 691 585 700 802
8 693 587 702 804 803 701 811 910
8 695 589 703 805 804 702 812 911
8 818 710 814 919 708 595 705 813
8 821 712 815 920 710 596 706 814
8 816 709 600 719 922 819 717 831
8 817 711 594 707 923 820 709 816
8 818 710 595 708 924 822 711 817
8 819 715 599 717 926 827 716 829
8 820 714 598 709 927 826 715 819
8 929 825 713 822 820 714 597 711
8 821 712 596 710 930 824 713 822
8 717 599 718 832 829 716 830 942
8 719 600 720 834 831 717 832 944
8 832 718 601 720 945 833 721 835
8 834 720 603 722 946 835 723 836
8 869 780 838 950 767 670 725 839
8 865 767 839 952 756 656 726 841
8 839 725 840 953 726 608 727 842
8 841 726 842 954 728 609 729 843
8 844 740 691 790 955 850 802 899
8 733 625 740 844 845 739 850 955
8 734 623 739 845 846 738 849 956
8 735 621 738 846 847 737 848 957
8 744 647 737 847 854 759 848 957
8 738 627 742 849 848 741 851 958
8 848 741 851 958 759 662 773 868
8 850 743 700 802 959 852 807 906
8 849 742 628 739 959 852 743 850
8 854 759 868 965 745 648 760 855
8 746 649 760 855 856 761 871 966
8 860 765 653 750 967 872 761 856
8 968 873 762 857 858 763 651 748
8 862 769 657 753 968 873 762 857
8 859 764 874 969 749 652 763 858
8 752 654 766 861 859 764 875 970
8 751 655 765 860 861 766 876 971
8 754 658 769 862 863 770 879 972
8 755 659 770 863 864 771 881 974
8 976 882 772 867 864 771 660 757
8 866 768 877 977 756 656 767 865
8 867 772 878 978 758 661 768 866
8 760 663 773 868 871 774 883 980
8 870 781 837 948 982 890 780 869
8 982 890 780 869 877 782 670 767
8 761 664 774 871 872 775 884 984
8 876 776 665 765 985 885 775 872
8 873 777 668 763 986 887 779 874
8 769 674 777 873 879 786 887 986
8 764 669 778 875 874 779 888 987
8 766 667 776 876 875 778 886 988
8 878 783 892 989 768 671 782 877
8 878 783 672 772 990 893 784 882
8 880 787 675 770 991 896 786 879
8 880 787 895 992 770 675 785 881
8 881 785 894 993 771 673 784 882
8 1006 905 799 898 897 798 687 789
8 919 814 905 1006 813 705 798 897
8 791 689 799 898 901 801 907 1007
8 900 803 909 1009 790 691 802 899
8 795 693 804 903 900 803 910 1010
8 902 800 908 1011 796 694 805 904
8 793 690 801 901 902 800 908 1011
8 797 695 805 904 903 804 911 1012
8 799 697 806 905 907 808 912 1013
8 920 815 912 1013 814 706 806 905
8 802 700 810 909 906 807 913 1014
8 801 699 808 907 908 809 914 1015
8 805 703 809 908 911 812 915 1016
8 803 701 811 910 909 810 916 1017
8 911 812 917 1018 804 702 811 910
8 925 821 920 1030 818 710 814 919
8 928 823 921 1031 821 712 815 920
8 922 819 717 831 1033 926 829 941
8 923 820 709 816 1034 927 819 922
8 1035 929 822 924 923 820 711 817
8 925 821 710 818 1036 930 822 924
8 1038 933 825 929 927 826 714 820
8 926 827 716 829 1039 935 828 939
8 927 826 715 819 1040 934 827 926
8 928 823 712 821 1041 931 824 930
8 1042 932 824 930 929 825 713 822
8 829 716 830 942 939 828 940 1058
8 831 717 832 944 941 829 942 1060
8 942 830 718 832 1061 943 833 945
8 944 832 720 834 1062 945 835 946
8 981 889 947 1064 870 781 837 948
8 948 837 949 1067 869 780 838 950
8 975 869 950 1069 865 767 839 952
8 950 838 951 1070 839 725 840 953
8 952 839 953 1071 841 726 842 954
8 955 850 802 899 1072 959 906 1008
8 956 849 739 845 1072 959 850 955
8 846 738 849 956 957 848 958 1073
8 957 848 958 1073 854 759 868 965
8 849 742 852 959 958 851 961 1076
8 960 853 961 1076 906 807 852 959
8 958 851 961 1076 868 773 883 980
8 960 853 807 906 1077 963 913 1014
8 855 760 868 965 966 871 980 1085
8 856 761 871 966 967 872 984 1086
8 971 876 765 860 1087 985 872 967
8 968 873 763 858 1088 986 874 969
8 862 769 873 968 972 879 986 1088
8 859 764 875 970 969 874 987 1089
8 861 766 876 971 970 875 988 1090
8 973 880 770 863 1091 991 879 972
8 973 880 992 1092 863 770 881 974
8 974 881 993 1093 864 771 882 976
8 979 870 948 1066 1094 982 869 975
8 1094 982 869 975 977 877 767 865
8 978 878 772 867 1095 990 882 976
8 978 878 989 1096 866 768 877 977
8 871 774 883 980 984 884 994 1099
8 983 891 999 1100 870 781 889 981
8 1101 1000 890 982 989 892 782 877
8 983 891 781 870 1101 1000 890 982
8 872 775 884 984 985 885 995 1103
8 876 776 885 985 988 886 996 1104
8 986 887 779 874 1105 998 888 987
8 879 786 887 986 991 896 998 1105
8 875 778 886 988 987 888 997 1106
8 990 893 1002 1107 878 783 892 989
8 1108 1003 893 990 993 894 784 882
8 880 787 896 991 992 895 1005 1109
8 993 894 785 881 1110 1004 895 992
8 898 799 905 1006 1007 907 1013 1120
8 1030 920 1013 1120 919 814 905 1006
8 901 801 907 1007 1011 908 1015 1121
8 899 802 909 1009 1008 906 1014 1122
8 900 803 910 1010 1009 909 1017 1123
8 1012 911 1018 1124 903 804 910 1010
8 904 805 908 1011 1012 911 1016 1125
8 1013 912 1020 1127 907 808 914 1015
8 1031 921 1020 1127 920 815 912 1013
8 1019 918 962 1075 1128 1021 913 1014
8 1128 1021 913 1014 1017 916 810 909
8 1015 914 1022 1129 908 809 915 1016
8 1016 915 1023 1130 911 812 917 1018
8 1018 917 1024 1131 910 811 916 1017
8 1037 928 1031 1148 925 821 920 1030
8 928 823 931 1041 1031 921 1032 1149
8 1033 926 829 941 1151 1039 939 1057
8 1034 927 819 922 1152 1040 926 1033
8 1153 1038 929 1035 1034 927 820 923
8 1154 1042 930 1036 1035 929 822 924
8 1037 928 821 925 1155 1041 930 1036
8 1039 935 828 939 1156 1047 938 1055
8 1157 1043 932 1042 1038 933 825 929
8 1038 933 826 927 1158 1045 934 1040
8 1040 934 827 926 1159 1046 935 1039
8 930 824 932 1042 1041 931 1044 1160
8 1051 936 1048 1165 1175 1052 937 1053
8 1156 1047 938 1055 1053 937 1054 1178
8 939 828 940 1058 1055 938 1056 1181
8 941 829 942 1060 1057 939 1058 1183
8 942 830 943 1061 1058 940 1059 1184
8 1060 942 832 944 1185 1061 945 1062
8 1082 964 1063 1188 981 889 947 1064
8 1097 981 1064 1190 979 870 948 1066
8 1064 947 1065 1191 948 837 949 1067
8 1066 948 1067 1193 975 869 950 1069
8 1067 949 1068 1194 950 838 951 1070
8 1069 950 1070 1195 952 839 953 1071
8 956 849 959 1072 1073 958 1076 1197
8 1074 960 1076 1197 1008 906 959 1072
8 1073 958 1076 1197 965 868 980 1085
8 1074 960 906 1008 1198 1077 1014 1122
8 1133 1026 1079 1199 1019 918 962 1075
8 1077 963 913 1014 1200 1080 962 1075
8 960 853 963 1077 1076 961 1078 1201
8 980 883 961 1076 1099 994 1078 1201
8 1210 1083 964 1082 1100 999 889 981
8 966 871 980 1085 1086 984 1099 1215
8 967 872 984 1086 1087 985 1103 1216
8 971 876 985 1087 1090 988 1104 1217
8 1088 986 874 969 1218 1105 987 1089
8 972 879 986 1088 1091 991 1105 1218
8 970 875 988 1090 1089 987 1106 1219
8 973 880 991 1091 1092 992 1109 1220
8 1093 993 881 974 1221 1110 992 1092
8 1222 1108 990 1095 1093 993 882 976
8 1223 1101 982 1094 1096 989 877 977
8 1098 983 870 979 1223 1101 982 1094
8 1095 990 1107 1224 978 878 989 1096
8 1098 983 1100 1225 979 870 981 1097
8 984 884 994 1099 1103 995 1111 1227
8 1102 1001 1115 1228 983 891 999 1100
8 1101 1000 892 989 1229 1116 1002 1107
8 1102 1001 891 983 1229 1116 1000 1101
8 985 885 995 1103 1104 996 1112 1230
8 988 886 996 1104 1106 997 1113 1231
8 1105 998 888 987 1232 1114 997 1106
8 991 896 998 1105 1109 1005 1114 1232
8 1108 1003 1117 1233 990 893 1002 1107
8 1108 1003 894 993 1233 1117 1004 1110
8 992 895 1005 1109 1110 1004 1118 1234
8 1120 1013 1127 1244 1007 907 1015 1121
8 1148 1031 1127 1244 1030 920 1013 1120
8 1121 1015 1129 1245 1011 908 1016 1125
8 1126 1019 1075 1196 1246 1128 1014 1122
8 1246 1128 1014 1122 1123 1017 909 1009
8 1124 1018 1131 1247 1010 910 1017 1123
8 1125 1016 1130 1248 1012 911 1018 1124
8 1127 1020 1137 1254 1015 914 1022 1129
8 1031 921 1032 1149 1127 1020 1137 1254
8 1134 1027 918 1019 1257 1140 1021 1128
8 1257 1140 1021 1128 1131 1024 916 1017
8 1129 1022 1141 1258 1016 915 1023 1130
8 1130 1023 1142 1259 1018 917 1024 1131
8 1261 1144 1025 1132 1133 1026 1079 1199
8 1255 1138 1025 1132 1135 1028 1144 1261
8 1133 1026 918 1019 1262 1145 1027 1134
8 1136 1029 1139 1256 1263 1146 1028 1135
8 1037 928 1041 1155 1148 1031 1149 1275
8 1041 931 1044 1160 1149 1032 1150 1276
8 1151 1039 939 1057 1278 1156 1055 1180
8 1152 1040 926 1033 1279 1159 1039 1151
8 1153 1038 927 1034 1280 1158 1040 1152
8 1281 1157 1042 1154 1153 1038 929 1035
8 1036 930 1042 1154 1155 1041 1160 1282
8 1283 1164 1046 1159 1156 1047 935 1039
8 1165 1048 1164 1283 1053 937 1047 1156
8 1157 1043 933 1038 1284 1161 1045 1158
8 1157 1043 1161 1284 1042 932 1044 1160
8 1040 934 1046 1159 1158 1045 1163 1285
8 1166 1049 1167 1292 1051 936 1048 1165
8 1166 1049 936 1051 1293 1168 1050 1172
8 1051 936 1052 1175 1172 1050 1173 1306
8 1174 1051 1165 1290 1308 1175 1053 1177
8 1053 937 1054 1178 1175 1052 1176 1309
8 1278 1156 1055 1180 1177 1053 1178 1311
8 1055 938 1056 1181 1178 1054 1179 1312
8 1057 939 1058 1183 1180 1055 1181 1314
8 1058 940 1059 1184 1181 1056 1182 1315
8 1060 942 1061 1185 1183 1058 1184 1316
8 1208 1081 1187 1321 1082 964 1063 1188
8 1209 1082 1188 1322 1097 981 1064 1190
8 1188 1063 1189 1323 1064 947 1065 1191
8 1190 1064 1191 1325 1066 948 1067 1193
8 1191 1065 1192 1326 1067 949 1068 1194
8 1067 1193 1069 950 1194 1327 1195 1070
8 1250 1133 1199 1330 1126 1019 1075 1196
8 1198 1077 1014 1122 1331 1200 1075 1196
8 1074 960 1077 1198 1197 1076 1201 1332
8 1085 980 1076 1197 1215 1099 1201 1332
8 1199 1079 1203 1333 1075 962 1080 1200
8 1132 1025 1119 1243 1199 1079 1203 1333
8 1201 1078 963 1077 1334 1202 1080 1200
8 1099 994 1078 1201 1227 1111 1202 1334
8 1343 1207 1081 1208 1210 1083 964 1082
8 1214 1084 1186 1319 1343 1207 1081 1208
8 1345 1210 1082 1209 1225 1100 981 1097
8 1346 1211 1083 1210 1228 1115 999 1100
8 1086 984 1099 1215 1216 1103 1227 1352
8 1087 985 1103 1216 1217 1104 1230 1353
8 1090 988 1104 1217 1219 1106 1231 1354
8 1218 1105 987 1089 1355 1232 1106 1219
8 1091 991 1105 1218 1220 1109 1232 1355
8 1092 992 1109 1220 1221 1110 1234 1356
8 1222 1108 1233 1357 1095 990 1107 1224
8 1222 1108 993 1093 1357 1233 1110 1221
8 1223 1101 989 1096 1358 1229 1107 1224
8 1226 1102 983 1098 1358 1229 1101 1223
8 1226 1102 1228 1359 1098 983 1100 1225
8 1103 995 1111 1227 1230 1112 1235 1360
8 1107 1002 1117 1233 1229 1116 1240 1362
8 1102 1001 1116 1229 1228 1115 1240 1362
8 1104 996 1112 1230 1231 1113 1236 1363
8 1364 1237 1114 1232 1231 1113 997 1106
8 1109 1005 1114 1232 1234 1118 1238 1365
8 1110 1004 1118 1234 1233 1117 1241 1366
8 1242 1374 1255 1138 1119 1243 1132 1025
8 1244 1127 1254 1376 1121 1015 1129 1245
8 1148 1031 1149 1275 1244 1127 1254 1376
8 1245 1129 1258 1377 1125 1016 1130 1248
8 1251 1134 1019 1126 1378 1257 1128 1246
8 1378 1257 1128 1246 1247 1131 1017 1123
8 1248 1130 1259 1379 1124 1018 1131 1247
8 1261 1381 1250 1133 1132 1249 1330 1199
8 1255 1380 1252 1135 1132 1249 1381 1261
8 1250 1133 1019 1126 1382 1262 1134 1251
8 1253 1136 1256 1385 1384 1263 1135 1252
8 1254 1137 1265 1387 1129 1022 1141 1258
8 1149 1032 1150 1276 1254 1137 1265 1387
8 1028 1135 1255 1138 1139 1256 1388 1266
8 1136 1029 1147 1264 1256 1139 1267 1389
8 1390 1268 1140 1257 1259 1142 1024 1131
8 1260 1143 1027 1134 1390 1268 1140 1257
8 1258 1141 1269 1391 1130 1023 1142 1259
8 1262 1145 1027 1134 1393 1271 1143 1260
8 1261 1144 1026 1133 1394 1272 1145 1262
8 1135 1028 1144 1261 1263 1146 1272 1394
8 1136 1029 1146 1263 1264 1147 1273 1395
8 1155 1041 1160 1282 1275 1149 1276 1405
8 1276 1150 1044 1160 1406 1277 1162 1286
8 1408 1283 1159 1279 1278 1156 1039 1151
8 1290 1165 1283 1408 1177 1053 1156 1278
8 1152 1040 1159 1279 1280 1158 1285 1409
8 1281 1157 1038 1153 1410 1284 1158 1280
8 1281 1157 1284 1410 1154 1042 1160 1282
8 1159 1046 1164 1283 1285 1163 1289 1412
8 1292 1167 1289 1412 1165 1048 1164 1283
8 1158 1045 1163 1285 1284 1161 1288 1413
8 1284 1161 1288 1413 1160 1044 1162 1286
8 1291 1166 1292 1418 1174 1051 1165 1290
8 1291 1166 1051 1174 1419 1293 1172 1305
8 1294 1169 1296 1421 1166 1049 1167 1292
8 1293 1168 1050 1172 1422 1295 1171 1303
8 1294 1169 1049 1166 1423 1297 1168 1293
8 1422 1295 1171 1303 1301 1170 1302 1435
8 1172 1050 1173 1306 1303 1171 1304 1438
8 1174 1051 1175 1308 1305 1172 1306 1440
8 1175 1052 1176 1309 1306 1173 1307 1441
8 1177 1053 1178 1311 1308 1175 1309 1443
8 1178 1054 1179 1312 1309 1176 1310 1444
8 1180 1055 1181 1314 1311 1178 1312 1446
8 1056 1181 1312 1179 1182 1315 1447 1313
8 1183 1058 1184 1316 1314 1181 1315 1448
8 1319 1186 1084 1214 1451 1317 1213 1350
8 1319 1186 1318 1453 1208 1081 1187 1321
8 1321 1187 1320 1456 1188 1063 1189 1323
8 1344 1208 1321 1457 1209 1082 1188 1322
8 1322 1188 1323 1458 1190 1064 1191 1325
8 1323 1189 1324 1459 1191 1065 1192 1326
8 1191 1325 1193 1067 1326 1460 1327 1194
8 1242 1374 1243 1119 1328 1462 1335 1204
8 1330 1199 1333 1465 1196 1075 1200 1331
8 1132 1249 1330 1199 1243 1375 1465 1333
8 1332 1201 1077 1198 1466 1334 1200 1331
8 1215 1099 1201 1332 1352 1227 1334 1466
8 1119 1243 1333 1203 1204 1335 1470 1338
8 1333 1203 1338 1470 1200 1080 1202 1334
8 1227 1111 1202 1334 1360 1235 1338 1470
8 1328 1462 1335 1204 1205 1336 1471 1339
8 1337 1206 1340 1472 1464 1329 1205 1336
8 1346 1211 1342 1479 1210 1083 1207 1343
8 1346 1211 1115 1228 1479 1342 1239 1361
8 1348 1212 1084 1214 1479 1342 1207 1343
8 1480 1343 1208 1344 1345 1210 1082 1209
8 1351 1214 1319 1454 1480 1343 1208 1344
8 1481 1346 1210 1345 1359 1228 1100 1225
8 1348 1212 1347 1483 1214 1084 1213 1350
8 1216 1103 1227 1352 1353 1230 1360 1488
8 1217 1104 1230 1353 1354 1231 1363 1489
8 1490 1364 1232 1355 1354 1231 1106 1219
8 1220 1109 1232 1355 1356 1234 1365 1491
8 1221 1110 1234 1356 1357 1233 1366 1492
8 1224 1107 1233 1357 1358 1229 1362 1493
8 1226 1102 1229 1358 1359 1228 1362 1493
8 1230 1112 1235 1360 1363 1236 1367 1496
8 1361 1239 1115 1228 1497 1371 1240 1362
8 1366 1241 1372 1498 1233 1117 1240 1362
8 1364 1237 1113 1231 1499 1368 1236 1363
8 1364 1237 1368 1499 1232 1114 1238 1365
8 1234 1118 1238 1365 1366 1241 1369 1500
8 1507 1373 1242 1374 1388 1266 1138 1255
8 1508 1374 1243 1375 1380 1255 1132 1249
8 1376 1254 1387 1509 1245 1129 1258 1377
8 1275 1149 1276 1405 1376 1254 1387 1509
8 1377 1258 1391 1510 1248 1130 1259 1379
8 1511 1390 1257 1378 1379 1259 1131 1247
8 1383 1260 1134 1251 1511 1390 1257 1378
8 1252 1135 1256 1385 1380 1255 1388 1512
8 1261 1381 1513 1394 1133 1250 1382 1262
8 1135 1252 1384 1263 1261 1381 1513 1394
8 1382 1262 1134 1251 1514 1393 1260 1383
8 1253 1136 1263 1384 1386 1264 1395 1516
8 1253 1136 1264 1386 1385 1256 1389 1517
8 1387 1265 1397 1519 1258 1141 1269 1391
8 1276 1150 1277 1406 1387 1265 1397 1519
8 1256 1139 1267 1389 1388 1266 1398 1520
8 1264 1147 1274 1396 1389 1267 1399 1521
8 1392 1270 1143 1260 1522 1400 1268 1390
8 1390 1268 1142 1259 1522 1400 1269 1391
8 1392 1270 1401 1523 1260 1143 1271 1393
8 1272 1394 1524 1402 1145 1262 1393 1271
8 1395 1273 1146 1263 1524 1402 1272 1394
8 1273 1395 1264 1147 1403 1526 1396 1274
8 1405 1276 1160 1282 1534 1406 1286 1411
8 1414 1287 1407 1535 1286 1162 1277 1406
8 1279 1159 1283 1408 1409 1285 1412 1537
8 1418 1292 1412 1537 1290 1165 1283 1408
8 1280 1158 1285 1409 1410 1284 1413 1538
8 1410 1284 1413 1538 1282 1160 1286 1411
8 1285 1163 1289 1412 1413 1288 1417 1540
8 1421 1296 1417 1540 1292 1167 1289 1412
8 1414 1287 1162 1286 1541 1416 1288 1413
8 1420 1294 1421 1545 1291 1166 1292 1418
8 1419 1293 1172 1305 1546 1422 1303 1437
8 1420 1294 1166 1291 1547 1423 1293 1419
8 1294 1169 1297 1423 1421 1296 1425 1548
8 1423 1297 1168 1293 1549 1424 1295 1422
8 1301 1170 1298 1427 1422 1295 1424 1549
8 1432 1300 1428 1554 1301 1170 1298 1427
8 1431 1299 1428 1554 1560 1430 1300 1432
8 1563 1433 1300 1432 1435 1302 1170 1301
8 1546 1422 1303 1437 1434 1301 1435 1565
8 1303 1171 1304 1438 1435 1302 1436 1566
8 1305 1172 1306 1440 1437 1303 1438 1568
8 1306 1173 1307 1441 1438 1304 1439 1569
8 1308 1175 1309 1443 1440 1306 1441 1571
8 1309 1176 1310 1444 1441 1307 1442 1572
8 1311 1178 1312 1446 1443 1309 1444 1574
8 1179 1312 1444 1310 1313 1447 1575 1445
8 1314 1181 1315 1448 1446 1312 1447 1576
8 1350 1213 1349 1486 1451 1317 1449 1579
8 1451 1317 1450 1581 1319 1186 1318 1453
8 1454 1319 1214 1351 1582 1451 1350 1487
8 1453 1318 1452 1584 1321 1187 1320 1456
8 1454 1319 1453 1585 1344 1208 1321 1457
8 1456 1320 1455 1586 1323 1189 1324 1459
8 1457 1321 1456 1587 1322 1188 1323 1458
8 1458 1323 1459 1588 1325 1191 1326 1460
8 1205 1336 1464 1329 1328 1462 1590 1461
8 1507 1373 1461 1590 1374 1242 1328 1462
8 1508 1374 1462 1591 1375 1243 1335 1467
8 1337 1206 1329 1464 1473 1341 1463 1594
8 1375 1243 1335 1467 1465 1333 1470 1596
8 1465 1333 1470 1596 1331 1200 1334 1466
8 1352 1227 1334 1466 1488 1360 1470 1596
8 1591 1462 1336 1468 1467 1335 1471 1597
8 1469 1337 1472 1598 1595 1464 1336 1468
8 1471 1339 1474 1600 1335 1204 1338 1470
8 1600 1474 1367 1496 1470 1338 1235 1360
8 1336 1205 1340 1472 1471 1339 1475 1601
8 1337 1206 1341 1473 1472 1340 1476 1602
8 1495 1370 1478 1609 1361 1239 1342 1479
8 1348 1212 1342 1479 1483 1347 1478 1609
8 1481 1346 1479 1610 1345 1210 1343 1480
8 1481 1346 1228 1359 1610 1479 1361 1494
8 1484 1348 1214 1351 1610 1479 1343 1480
8 1483 1347 1482 1612 1350 1213 1349 1486
8 1484 1348 1483 1613 1351 1214 1350 1487
8 1353 1230 1360 1488 1489 1363 1496 1616
8 1490 1364 1231 1354 1617 1499 1363 1489
8 1490 1364 1499 1617 1355 1232 1365 1491
8 1356 1234 1365 1491 1492 1366 1500 1619
8 1492 1366 1498 1620 1357 1233 1362 1493
8 1494 1361 1228 1359 1621 1497 1362 1493
8 1495 1370 1239 1361 1622 1504 1371 1497
8 1363 1236 1367 1496 1499 1368 1501 1623
8 1497 1371 1240 1362 1624 1505 1372 1498
8 1625 1503 1372 1498 1500 1369 1241 1366
8 1365 1238 1368 1499 1500 1369 1502 1626
8 1520 1398 1506 1633 1388 1266 1373 1507
8 1634 1507 1374 1508 1512 1388 1255 1380
8 1509 1387 1519 1635 1377 1258 1391 1510
8 1405 1276 1406 1534 1509 1387 1519 1635
8 1515 1392 1260 1383 1636 1522 1390 1511
8 1511 1390 1259 1379 1636 1522 1391 1510
8 1385 1256 1389 1517 1512 1388 1520 1637
8 1513 1394 1262 1382 1638 1524 1393 1514
8 1395 1516 1638 1524 1263 1384 1513 1394
8 1515 1392 1523 1639 1383 1260 1393 1514
8 1516 1395 1526 1640 1386 1264 1396 1518
8 1386 1264 1396 1518 1517 1389 1521 1641
8 1519 1397 1527 1643 1391 1269 1400 1522
8 1535 1407 1527 1643 1406 1277 1397 1519
8 1389 1267 1399 1521 1520 1398 1528 1644
8 1645 1529 1399 1521 1525 1404 1274 1396
8 1392 1270 1400 1522 1523 1401 1531 1646
8 1524 1402 1271 1393 1648 1532 1401 1523
8 1403 1526 1648 1532 1273 1395 1524 1402
8 1525 1404 1274 1396 1649 1533 1403 1526
8 1539 1414 1535 1657 1411 1286 1406 1534
8 1542 1415 1536 1658 1414 1287 1407 1535
8 1409 1285 1412 1537 1538 1413 1540 1660
8 1545 1421 1540 1660 1418 1292 1412 1537
8 1539 1414 1286 1411 1661 1541 1413 1538
8 1540 1417 1544 1663 1413 1288 1416 1541
8 1421 1296 1425 1548 1540 1417 1544 1663
8 1542 1415 1287 1414 1664 1543 1416 1541
8 1420 1294 1423 1547 1545 1421 1548 1666
8 1547 1423 1293 1419 1667 1549 1422 1546
8 1434 1301 1427 1553 1546 1422 1549 1667
8 1423 1297 1424 1549 1548 1425 1550 1668
8 1551 1426 1550 1668 1427 1298 1424 1549
8 1551 1426 1298 1427 1671 1552 1428 1554
8 1562 1432 1554 1674 1434 1301 1427 1553
8 1431 1299 1429 1558 1554 1428 1555 1675
8 1431 1299 1430 1560 1558 1429 1557 1680
8 1560 1430 1300 1432 1683 1559 1433 1563
8 1561 1431 1554 1674 1684 1560 1432 1562
8 1685 1563 1432 1562 1565 1435 1301 1434
8 1435 1302 1436 1566 1563 1433 1564 1686
8 1437 1303 1438 1568 1565 1435 1566 1688
8 1438 1304 1439 1569 1566 1436 1567 1689
8 1440 1306 1441 1571 1568 1438 1569 1691
8 1441 1307 1442 1572 1569 1439 1570 1692
8 1443 1309 1444 1574 1571 1441 1572 1694
8 1310 1444 1572 1442 1445 1575 1695 1573
8 1446 1312 1447 1576 1574 1444 1575 1696
8 1486 1349 1485 1614 1579 1449 1577 1699
8 1451 1317 1449 1579 1581 1450 1578 1701
8 1487 1350 1486 1615 1582 1451 1579 1702
8 1581 1450 1580 1704 1453 1318 1452 1584
8 1582 1451 1581 1705 1454 1319 1453 1585
8 1584 1452 1583 1706 1456 1320 1455 1586
8 1585 1453 1584 1707 1457 1321 1456 1587
8 1587 1456 1586 1708 1458 1323 1459 1588
8 1633 1506 1589 1710 1507 1373 1461 1590
8 1464 1329 1461 1590 1594 1463 1589 1710
8 1468 1336 1462 1591 1595 1464 1590 1711
8 1634 1507 1590 1711 1508 1374 1462 1591
8 1473 1341 1463 1594 1603 1477 1593 1716
8 1469 1337 1464 1595 1599 1473 1594 1717
8 1471 1597 1467 1335 1600 1718 1596 1470
8 1718 1600 1496 1616 1596 1470 1360 1488
8 1336 1468 1597 1471 1472 1598 1719 1601
8 1469 1337 1473 1599 1598 1472 1602 1720
8 1722 1604 1501 1623 1600 1474 1367 1496
8 1475 1601 1471 1339 1604 1722 1600 1474
8 1602 1476 1605 1723 1472 1340 1475 1601
8 1476 1602 1724 1606 1341 1473 1603 1477
8 1483 1347 1478 1609 1612 1482 1608 1731
8 1495 1370 1504 1622 1609 1478 1608 1731
8 1618 1495 1609 1732 1494 1361 1479 1610
8 1484 1348 1479 1610 1613 1483 1609 1732
8 1486 1349 1482 1612 1614 1485 1611 1733
8 1613 1483 1612 1734 1487 1350 1486 1615
8 1489 1363 1496 1616 1617 1499 1623 1736
8 1491 1365 1499 1617 1619 1500 1626 1737
8 1618 1495 1361 1494 1738 1622 1497 1621
8 1739 1625 1498 1620 1619 1500 1366 1492
8 1621 1497 1362 1493 1740 1624 1498 1620
8 1742 1631 1504 1622 1624 1505 1371 1497
8 1743 1628 1502 1626 1623 1501 1368 1499
8 1744 1630 1505 1624 1625 1503 1372 1498
8 1745 1629 1503 1625 1626 1502 1369 1500
8 1520 1398 1528 1644 1633 1506 1632 1751
8 1637 1520 1633 1752 1512 1388 1507 1634
8 1635 1519 1643 1753 1510 1391 1522 1636
8 1657 1535 1643 1753 1534 1406 1519 1635
8 1515 1392 1522 1636 1639 1523 1646 1754
8 1517 1389 1521 1641 1637 1520 1644 1755
8 1524 1638 1756 1648 1393 1514 1639 1523
8 1640 1526 1395 1516 1756 1648 1524 1638
8 1642 1525 1396 1518 1757 1649 1526 1640
8 1758 1645 1521 1641 1642 1525 1396 1518
8 1646 1531 1400 1522 1760 1650 1527 1643
8 1535 1407 1536 1658 1643 1527 1650 1760
8 1521 1399 1529 1645 1644 1528 1651 1761
8 1647 1530 1652 1762 1525 1404 1529 1645
8 1401 1523 1648 1532 1531 1646 1763 1655
8 1525 1404 1533 1649 1647 1530 1654 1765
8 1533 1649 1766 1656 1403 1526 1648 1532
8 1662 1542 1658 1774 1539 1414 1535 1657
8 1542 1415 1543 1664 1658 1536 1659 1775
8 1660 1540 1663 1777 1538 1413 1541 1661
8 1545 1421 1548 1666 1660 1540 1663 1777
8 1662 1542 1414 1539 1778 1664 1541 1661
8 1664 1543 1416 1541 1779 1665 1544 1663
8 1548 1425 1550 1668 1663 1544 1665 1779
8 1547 1423 1549 1667 1666 1548 1668 1781
8 1670 1551 1668 1781 1553 1427 1549 1667
8 1551 1426 1552 1671 1668 1550 1669 1782
8 1670 1551 1427 1553 1784 1671 1554 1674
8 1675 1555 1672 1785 1554 1428 1552 1671
8 1678 1556 1673 1789 1558 1429 1555 1675
8 1561 1431 1558 1681 1674 1554 1675 1790
8 1794 1677 1556 1678 1680 1557 1429 1558
8 1560 1430 1559 1683 1680 1557 1679 1797
8 1561 1431 1560 1684 1681 1558 1680 1798
8 1563 1433 1564 1686 1683 1559 1682 1800
8 1684 1560 1432 1562 1801 1683 1563 1685
8 1565 1435 1566 1688 1685 1563 1686 1802
8 1566 1436 1567 1689 1686 1564 1687 1803
8 1568 1438 1569 1691 1688 1566 1689 1805
8 1569 1439 1570 1692 1689 1567 1690 1806
8 1571 1441 1572 1694 1691 1569 1692 1808
8 1442 1572 1692 1570 1573 1695 1809 1693
8 1574 1444 1575 1696 1694 1572 1695 1810
8 1614 1485 1592 1712 1699 1577 1697 1813
8 1579 1449 1577 1699 1701 1578 1698 1815
8 1615 1486 1614 1735 1702 1579 1699 1816
8 1701 1578 1700 1818 1581 1450 1580 1704
8 1582 1451 1579 1702 1705 1581 1701 1819
8 1704 1580 1703 1820 1584 1452 1583 1706
8 1705 1581 1704 1821 1585 1453 1584 1707
8 1707 1584 1706 1822 1587 1456 1586 1708
8 1710 1589 1506 1633 1824 1709 1632 1751
8 1594 1463 1589 1710 1716 1593 1709 1824
8 1752 1633 1710 1825 1634 1507 1590 1711
8 1595 1464 1590 1711 1717 1594 1710 1825
8 1830 1714 1592 1712 1733 1611 1485 1614
8 1603 1477 1593 1716 1725 1607 1715 1834
8 1599 1473 1594 1717 1721 1603 1716 1835
8 1837 1722 1623 1736 1718 1600 1496 1616
8 1719 1601 1722 1837 1597 1471 1600 1718
8 1602 1720 1598 1472 1723 1838 1719 1601
8 1720 1602 1473 1599 1839 1724 1603 1721
8 1723 1605 1726 1840 1601 1475 1604 1722
8 1840 1726 1628 1743 1722 1604 1501 1623
8 1724 1606 1727 1841 1602 1476 1605 1723
8 1725 1607 1728 1842 1603 1477 1606 1724
8 1612 1482 1608 1731 1733 1611 1730 1849
8 1741 1627 1730 1849 1622 1504 1608 1731
8 1613 1483 1609 1732 1734 1612 1731 1850
8 1618 1495 1622 1738 1732 1609 1731 1850
8 1615 1486 1612 1734 1735 1614 1733 1851
8 1852 1743 1626 1737 1736 1623 1499 1617
8 1853 1745 1625 1739 1737 1626 1500 1619
8 1855 1742 1622 1738 1740 1624 1497 1621
8 1856 1744 1624 1740 1739 1625 1498 1620
8 1741 1627 1504 1622 1857 1746 1631 1742
8 1742 1631 1505 1624 1858 1749 1630 1744
8 1859 1747 1629 1745 1743 1628 1502 1626
8 1860 1748 1630 1744 1745 1629 1503 1625
8 1644 1528 1651 1761 1751 1632 1750 1865
8 1637 1520 1644 1755 1752 1633 1751 1866
8 1754 1646 1522 1636 1867 1760 1643 1753
8 1657 1535 1658 1774 1753 1643 1760 1867
8 1639 1523 1646 1754 1756 1648 1763 1868
8 1641 1521 1645 1758 1755 1644 1761 1869
8 1757 1649 1526 1640 1870 1766 1648 1756
8 1642 1525 1649 1757 1759 1647 1765 1871
8 1759 1647 1762 1872 1642 1525 1645 1758
8 1760 1650 1767 1874 1646 1531 1655 1763
8 1658 1536 1659 1775 1760 1650 1767 1874
8 1762 1652 1768 1875 1645 1529 1651 1761
8 1764 1653 1769 1876 1647 1530 1652 1762
8 1656 1766 1877 1773 1532 1648 1763 1655
8 1771 1879 1765 1654 1653 1764 1647 1530
8 1533 1649 1765 1654 1656 1766 1880 1772
8 1662 1542 1664 1778 1774 1658 1775 1887
8 1664 1543 1665 1779 1775 1659 1776 1888
8 1778 1664 1541 1661 1890 1779 1663 1777
8 1666 1548 1668 1781 1777 1663 1779 1890
8 1782 1669 1780 1891 1668 1550 1665 1779
8 1670 1551 1671 1784 1781 1668 1782 1893
8 1671 1552 1672 1785 1782 1669 1783 1894
8 1790 1675 1785 1896 1674 1554 1671 1784
8 1675 1555 1673 1789 1785 1672 1786 1897
8 1792 1676 1788 1903 1678 1556 1673 1789
8 1795 1678 1789 1904 1681 1558 1675 1790
8 1792 1676 1556 1678 1906 1791 1677 1794
8 1680 1557 1679 1797 1794 1677 1793 1909
8 1910 1794 1678 1795 1798 1680 1558 1681
8 1683 1559 1682 1800 1797 1679 1796 1912
8 1684 1560 1683 1801 1798 1680 1797 1913
8 1686 1564 1687 1803 1800 1682 1799 1915
8 1685 1563 1686 1802 1801 1683 1800 1916
8 1688 1566 1689 1805 1802 1686 1803 1917
8 1689 1567 1690 1806 1803 1687 1804 1918
8 1691 1569 1692 1808 1805 1689 1806 1920
8 1692 1570 1693 1809 1806 1690 1807 1921
8 1694 1572 1695 1810 1808 1692 1809 1922
8 1829 1713 1811 1926 1712 1592 1697 1813
8 1813 1697 1812 1928 1699 1577 1698 1815
8 1735 1614 1712 1828 1816 1699 1813 1929
8 1815 1698 1814 1931 1701 1578 1700 1818
8 1702 1579 1699 1816 1819 1701 1815 1932
8 1818 1700 1817 1933 1704 1580 1703 1820
8 1819 1701 1818 1934 1705 1581 1704 1821
8 1821 1704 1820 1935 1707 1584 1706 1822
8 1824 1709 1632 1751 1937 1823 1750 1865
8 1716 1593 1709 1824 1834 1715 1823 1937
8 1825 1710 1633 1752 1938 1824 1751 1866
8 1717 1594 1710 1825 1835 1716 1824 1938
8 1945 1830 1712 1828 1851 1733 1614 1735
8 1830 1714 1831 1946 1712 1592 1713 1829
8 1947 1832 1714 1830 1849 1730 1611 1733
8 1843 1729 1607 1725 1950 1833 1715 1834
8 1721 1603 1716 1835 1836 1725 1834 1951
8 1836 1725 1842 1953 1721 1603 1724 1839
8 1723 1838 1719 1601 1840 1954 1837 1722
8 1954 1840 1743 1852 1837 1722 1623 1736
8 1724 1839 1720 1602 1841 1955 1838 1723
8 1841 1727 1844 1956 1723 1605 1726 1840
8 1956 1844 1747 1859 1840 1726 1628 1743
8 1728 1842 1724 1606 1845 1957 1841 1727
8 1725 1607 1729 1843 1842 1728 1846 1958
8 1741 1627 1746 1857 1849 1730 1848 1965
8 1734 1612 1731 1850 1851 1733 1849 1966
8 1854 1741 1849 1966 1738 1622 1731 1850
8 1967 1859 1745 1853 1852 1743 1626 1737
8 1968 1860 1744 1856 1853 1745 1625 1739
8 1854 1741 1622 1738 1969 1857 1742 1855
8 1855 1742 1624 1740 1970 1858 1744 1856
8 1857 1746 1631 1742 1971 1861 1749 1858
8 1858 1749 1630 1744 1972 1863 1748 1860
8 1859 1747 1862 1973 1745 1629 1748 1860
8 1875 1768 1864 1977 1761 1651 1750 1865
8 1755 1644 1761 1869 1866 1751 1865 1978
8 1867 1760 1874 1979 1754 1646 1763 1868
8 1774 1658 1775 1887 1867 1760 1874 1979
8 1870 1766 1648 1756 1980 1877 1763 1868
8 1872 1762 1875 1981 1758 1645 1761 1869
8 1757 1649 1766 1870 1871 1765 1880 1982
8 1983 1879 1764 1873 1871 1765 1647 1759
8 1873 1764 1876 1984 1759 1647 1762 1872
8 1877 1773 1655 1763 1986 1881 1767 1874
8 1775 1659 1776 1888 1874 1767 1881 1986
8 1876 1769 1882 1987 1762 1652 1768 1875
8 1878 1770 1883 1988 1764 1653 1769 1876
8 1880 1772 1656 1766 1989 1886 1773 1877
8 1878 1770 1653 1764 1990 1884 1771 1879
8 1765 1654 1772 1880 1879 1771 1885 1991
8 1778 1664 1779 1890 1887 1775 1888 1997
8 1998 1889 1776 1888 1891 1780 1665 1779
8 1893 1782 1891 2000 1781 1668 1779 1890
8 1894 1783 1892 2001 1782 1669 1780 1891
8 1784 1671 1785 1896 1893 1782 1894 2003
8 1897 1786 1895 2004 1785 1672 1783 1894
8 1790 1675 1789 1904 1896 1785 1897 2006
8 1901 1787 1898 2007 1789 1673 1786 1897
8 1903 1788 1900 2013 1789 1673 1787 1901
8 1792 1676 1791 1906 1903 1788 1902 2016
8 1907 1792 1903 2017 1795 1678 1789 1904
8 1906 1791 1677 1794 2019 1905 1793 1909
8 1907 1792 1678 1795 2020 1906 1794 1910
8 1797 1679 1796 1912 1909 1793 1908 2022
8 1798 1680 1797 1913 1910 1794 1909 2023
8 1800 1682 1799 1915 1912 1796 1911 2025
8 1801 1683 1800 1916 1913 1797 1912 2026
8 1803 1687 1804 1918 1915 1799 1914 2028
8 1802 1686 1803 1917 1916 1800 1915 2029
8 1805 1689 1806 1920 1917 1803 1918 2030
8 1806 1690 1807 1921 1918 1804 1919 2031
8 1808 1692 1809 1922 1920 1806 1921 2032
8 1939 1826 1924 2037 1829 1713 1811 1926
8 1926 1811 1925 2039 1813 1697 1812 1928
8 1944 1829 1926 2040 1828 1712 1813 1929
8 1928 1812 1927 2042 1815 1698 1814 1931
8 1929 1813 1928 2043 1816 1699 1815 1932
8 1931 1814 1930 2044 1818 1700 1817 1933
8 1932 1815 1931 2045 1819 1701 1818 1934
8 1934 1818 1933 2046 1821 1704 1820 1935
8 2048 1936 1823 1937 1977 1864 1750 1865
8 1950 1833 1715 1834 2048 1936 1823 1937
8 1938 1824 1751 1866 2049 1937 1865 1978
8 1835 1716 1824 1938 1951 1834 1937 2049
8 1939 1826 1713 1829 2053 1942 1831 1946
8 1940 1827 1923 2035 2053 1942 1826 1939
8 1945 1830 1946 2058 1828 1712 1829 1944
8 2059 1947 1830 1945 1966 1849 1733 1851
8 1947 1832 1730 1849 2060 1948 1848 1965
8 1947 1832 1948 2060 1830 1714 1831 1946
8 1959 1847 1729 1843 2063 1949 1833 1950
8 1952 1843 1725 1836 2064 1950 1834 1951
8 1836 1725 1843 1952 1953 1842 1958 2066
8 1953 1842 1957 2067 1839 1724 1841 1955
8 1841 1955 1838 1723 1956 2068 1954 1840
8 2068 1956 1859 1967 1954 1840 1743 1852
8 1956 1844 1960 2069 1859 1747 1862 1973
8 1845 1957 1841 1727 1960 2069 1956 1844
8 1728 1842 1957 1845 1846 1958 2071 1961
8 1962 2072 1959 1847 1846 1958 1843 1729
8 1971 1861 1964 2077 1857 1746 1848 1965
8 1854 1741 1857 1969 1966 1849 1965 2078
8 1967 1859 1973 2079 1853 1745 1860 1968
8 1970 1858 1744 1856 2080 1972 1860 1968
8 1969 1857 1742 1855 2081 1971 1858 1970
8 1971 1861 1749 1858 2082 1974 1863 1972
8 1973 1862 1975 2083 1860 1748 1863 1972
8 1987 1882 1976 2086 1875 1768 1864 1977
8 1981 1875 1977 2087 1869 1761 1865 1978
8 1980 1877 1763 1868 2088 1986 1874 1979
8 1887 1775 1888 1997 1979 1874 1986 2088
8 1880 1982 2089 1989 1766 1870 1980 1877
8 1984 1876 1987 2090 1872 1762 1875 1981
8 1765 1871 1983 1879 1880 1982 2091 1991
8 1985 1878 1764 1873 2092 1990 1879 1983
8 1985 1878 1988 2093 1873 1764 1876 1984
8 2094 1992 1881 1986 1998 1889 1776 1888
8 1986 1881 1992 2094 1877 1773 1886 1989
8 1988 1883 1993 2095 1876 1769 1882 1987
8 1878 1770 1884 1990 1988 1883 1994 2096
8 1991 1885 1772 1880 2097 1996 1886 1989
8 1879 1771 1885 1991 1990 1884 1995 2098
8 2103 1998 1888 1997 2000 1891 1779 1890
8 2104 1999 1889 1998 2001 1892 1780 1891
8 2003 1894 2001 2106 1893 1782 1891 2000
8 2004 1895 2002 2107 1894 1783 1892 2001
8 2006 1897 2004 2109 1896 1785 1894 2003
8 2007 1898 2005 2110 1897 1786 1895 2004
8 2014 1901 2007 2112 1904 1789 1897 2006
8 2011 1899 2008 2113 1901 1787 1898 2007
8 2119 2010 1899 2011 2013 1900 1787 1901
8 2016 1902 2012 2122 1903 1788 1900 2013
8 2017 1903 2013 2123 1904 1789 1901 2014
8 1906 1791 1905 2019 2016 1902 2015 2125
8 1907 1792 1906 2020 2017 1903 2016 2126
8 1909 1793 1908 2022 2019 1905 2018 2128
8 2020 1906 1794 1910 2129 2019 1909 2023
8 1912 1796 1911 2025 2022 1908 2021 2131
8 1913 1797 1912 2026 2023 1909 2022 2132
8 1915 1799 1914 2028 2025 1911 2024 2134
8 1916 1800 1915 2029 2026 1912 2025 2135
8 1918 1804 1919 2031 2028 1914 2027 2136
8 1917 1803 1918 2030 2029 1915 2028 2137
8 1920 1806 1921 2032 2030 1918 2031 2138
8 1940 1827 1941 2054 2035 1923 2033 2140
8 2035 1923 2034 2143 1939 1826 1924 2037
8 2037 1924 2036 2146 1926 1811 1925 2039
8 2051 1939 2037 2147 1944 1829 1926 2040
8 2039 1925 2038 2149 1928 1812 1927 2042
8 2040 1926 2039 2150 1929 1813 1928 2043
8 2042 1927 2041 2151 1931 1814 1930 2044
8 2043 1928 2042 2152 1932 1815 1931 2045
8 2045 1931 2044 2153 1934 1818 1933 2046
8 2155 2047 1936 2048 2086 1976 1864 1977
8 2063 1949 1833 1950 2155 2047 1936 2048
8 2156 2048 1937 2049 2087 1977 1865 1978
8 2064 1950 1834 1951 2156 2048 1937 2049
8 2051 1939 1829 1944 2160 2053 1946 2058
8 2052 1940 2035 2144 2160 2053 1939 2051
8 2053 1942 1831 1946 2163 2057 1948 2060
8 2055 1943 1827 1940 2163 2057 1942 2053
8 2055 1943 2056 2164 1940 1827 1941 2054
8 2059 1947 1849 1966 2167 2060 1965 2078
8 2059 1947 2060 2167 1945 1830 1946 2058
8 2077 1964 2061 2168 1965 1848 1948 2060
8 2070 1963 1847 1959 2170 2062 1949 2063
8 2065 1959 1843 1952 2171 2063 1950 2064
8 2173 2072 1958 2066 2065 1959 1843 1952
8 1953 1842 1958 2066 2067 1957 2071 2174
8 2068 1956 2069 2175 1967 1859 1973 2079
8 2067 1957 2069 2175 1955 1841 1956 2068
8 1845 1957 2069 1960 1961 2071 2176 2073
8 2069 1960 2073 2176 1973 1862 1975 2083
8 2070 1963 2075 2177 1959 1847 1962 2072
8 1846 1958 2071 1961 1962 2072 2178 2074
8 2077 1964 1861 1971 2182 2076 1974 2082
8 2081 1971 2077 2183 1969 1857 1965 2078
8 2079 1973 2083 2184 1968 1860 1972 2080
8 2081 1971 1858 1970 2185 2082 1972 2080
8 2083 1975 2084 2186 1972 1863 1974 2082
8 2086 1976 1882 1987 2189 2085 1993 2095
8 2090 1987 2086 2190 1981 1875 1977 2087
8 2191 2094 1986 2088 2103 1998 1888 1997
8 2088 1986 2094 2191 1980 1877 1989 2089
8 1991 2091 2192 2097 1880 1982 2089 1989
8 2093 1988 2095 2193 1984 1876 1987 2090
8 1879 1983 2092 1990 1991 2091 2194 2098
8 1985 1878 1990 2092 2093 1988 2096 2195
8 2097 1996 1886 1989 2196 2099 1992 2094
8 2196 2099 1992 2094 2104 1999 1889 1998
8 1994 2096 1988 1883 2100 2197 2095 1993
8 2096 1994 1884 1990 2198 2101 1995 2098
8 1995 2098 2199 2102 1885 1991 2097 1996
8 2203 2104 1998 2103 2106 2001 1891 2000
8 2107 2002 2105 2204 2001 1892 1999 2104
8 2109 2004 2107 2206 2003 1894 2001 2106
8 2110 2005 2108 2207 2004 1895 2002 2107
8 2112 2007 2110 2209 2006 1897 2004 2109
8 2113 2008 2111 2210 2007 1898 2005 2110
8 2120 2011 2113 2212 2014 1901 2007 2112
8 2117 2009 2114 2213 2011 1899 2008 2113
8 2219 2116 2009 2117 2119 2010 1899 2011
8 2222 2118 2010 2119 2122 2012 1900 2013
8 2223 2119 2011 2120 2123 2013 1901 2014
8 2016 1902 2015 2125 2122 2012 2121 2225
8 2126 2016 2122 2226 2017 1903 2013 2123
8 2019 1905 2018 2128 2125 2015 2124 2228
8 2020 1906 2019 2129 2126 2016 2125 2229
8 2022 1908 2021 2131 2128 2018 2127 2231
8 2023 1909 2022 2132 2129 2019 2128 2232
8 2025 1911 2024 2134 2131 2021 2130 2234
8 2026 1912 2025 2135 2132 2022 2131 2235
8 1914 2028 2134 2024 2027 2136 2236 2133
8 2029 1915 2028 2137 2135 2025 2134 2237
8 2030 1918 2031 2138 2137 2028 2136 2238
8 2157 2050 2139 2240 2054 1941 2033 2140
8 2052 1940 2054 2161 2144 2035 2140 2242
8 2140 2033 2141 2243 2035 1923 2034 2143
8 2143 2034 2142 2246 2037 1924 2036 2146
8 2144 2035 2143 2247 2051 1939 2037 2147
8 2146 2036 2145 2249 2039 1925 2038 2149
8 2147 2037 2146 2250 2040 1926 2039 2150
8 2149 2038 2148 2251 2042 1927 2041 2151
8 2150 2039 2149 2252 2043 1928 2042 2152
8 2152 2042 2151 2253 2045 1931 2044 2153
8 2255 2154 2047 2155 2189 2085 1976 2086
8 2170 2062 1949 2063 2255 2154 2047 2155
8 2256 2155 2048 2156 2190 2086 1977 2087
8 2171 2063 1950 2064 2256 2155 2048 2156
8 2258 2159 2050 2157 2164 2056 1941 2054
8 2160 2053 1946 2058 2262 2163 2060 2167
8 2162 2055 1940 2052 2262 2163 2053 2160
8 2162 2055 2164 2263 2052 1940 2054 2161
8 2163 2057 1948 2060 2264 2165 2061 2168
8 2055 1943 2057 2163 2164 2056 2165 2264
8 2182 2076 2166 2268 2077 1964 2061 2168
8 2183 2077 2168 2269 2078 1965 2060 2167
8 2070 1963 2062 2170 2177 2075 2169 2271
8 2172 2070 1959 2065 2272 2170 2063 2171
8 2172 2070 2177 2273 2065 1959 2072 2173
8 2066 1958 2072 2173 2174 2071 2178 2274
8 2067 1957 2071 2174 2175 2069 2176 2275
8 2175 2069 2176 2275 2079 1973 2083 2184
8 2071 1961 2074 2178 2176 2073 2179 2276
8 2176 2073 2179 2276 2083 1975 2084 2186
8 2072 1962 2075 2177 2178 2074 2180 2277
8 2182 2076 1974 2082 2280 2181 2084 2186
8 2183 2077 1971 2081 2281 2182 2082 2185
8 2184 2083 2186 2282 2080 1972 2082 2185
8 2189 2085 1993 2095 2285 2188 2100 2197
8 2190 2086 1987 2090 2286 2189 2095 2193
8 2192 2097 1989 2089 2287 2196 2094 2191
8 2287 2196 2094 2191 2203 2104 1998 2103
8 2194 2098 1991 2091 2288 2199 2097 2192
8 2195 2096 2197 2289 2093 1988 2095 2193
8 2096 2195 2290 2198 1990 2092 2194 2098
8 2097 1996 2099 2196 2199 2102 2200 2291
8 2196 2099 1999 2104 2291 2200 2105 2204
8 2100 2197 2292 2201 1994 2096 2198 2101
8 1995 2098 2198 2101 2102 2199 2293 2202
8 2206 2107 2204 2296 2106 2001 2104 2203
8 2207 2108 2205 2297 2107 2002 2105 2204
8 2209 2110 2207 2299 2109 2004 2107 2206
8 2210 2111 2208 2300 2110 2005 2108 2207
8 2212 2113 2210 2302 2112 2007 2110 2209
8 2213 2114 2211 2303 2113 2008 2111 2210
8 2220 2117 2213 2305 2120 2011 2113 2212
8 2216 2115 2214 2306 2117 2009 2114 2213
8 2216 2115 2009 2117 2311 2217 2116 2219
8 2219 2116 2010 2119 2314 2218 2118 2222
8 2315 2219 2117 2220 2223 2119 2011 2120
8 2122 2012 2121 2225 2222 2118 2221 2317
8 2318 2222 2119 2223 2226 2122 2013 2123
8 2125 2015 2124 2228 2225 2121 2224 2320
8 2126 2016 2125 2229 2226 2122 2225 2321
8 2128 2018 2127 2231 2228 2124 2227 2323
8 2129 2019 2128 2232 2229 2125 2228 2324
8 2131 2021 2130 2234 2231 2127 2230 2326
8 2132 2022 2131 2235 2232 2128 2231 2327
8 2134 2024 2133 2236 2234 2130 2233 2328
8 2135 2025 2134 2237 2235 2131 2234 2329
8 2137 2028 2136 2238 2237 2134 2236 2330
8 2157 2050 2158 2259 2240 2139 2239 2332
8 2257 2157 2240 2334 2161 2054 2140 2242
8 2240 2139 2241 2335 2140 2033 2141 2243
8 2242 2140 2243 2337 2144 2035 2143 2247
8 2243 2141 2244 2338 2143 2034 2142 2246
8 2246 2142 2245 2341 2146 2036 2145 2249
8 2247 2143 2246 2342 2147 2037 2146 2250
8 2249 2145 2248 2343 2149 2038 2148 2251
8 2250 2146 2249 2344 2150 2039 2149 2252
8 2252 2149 2251 2345 2152 2042 2151 2253
8 2169 2271 2347 2254 2062 2170 2255 2154
8 2189 2085 2188 2285 2255 2154 2254 2347
8 2348 2255 2155 2256 2286 2189 2086 2190
8 2272 2170 2063 2171 2348 2255 2155 2256
8 2349 2258 2157 2257 2263 2164 2054 2161
8 2258 2159 2261 2351 2157 2050 2158 2259
8 2258 2159 2056 2164 2351 2261 2165 2264
8 2262 2163 2060 2167 2355 2264 2168 2269
8 2162 2055 2163 2262 2263 2164 2264 2355
8 2357 2266 2165 2264 2268 2166 2061 2168
8 2268 2166 2076 2182 2361 2267 2181 2280
8 2281 2182 2268 2362 2183 2077 2168 2269
8 2271 2169 2270 2364 2177 2075 2180 2277
8 2172 2070 2170 2272 2273 2177 2271 2365
8 2072 2173 2274 2178 2177 2273 2366 2277
8 2071 2174 2275 2176 2178 2274 2367 2276
8 2275 2176 2276 2367 2184 2083 2186 2282
8 2283 2187 2084 2186 2368 2278 2179 2276
8 2178 2074 2180 2277 2276 2179 2278 2368
8 2283 2187 2279 2370 2186 2084 2181 2280
8 2281 2182 2082 2185 2371 2280 2186 2282
8 2188 2285 2374 2284 2100 2197 2292 2201
8 2286 2189 2095 2193 2375 2285 2197 2289
8 2192 2097 2196 2287 2288 2199 2291 2376
8 2287 2196 2104 2203 2376 2291 2204 2296
8 2194 2098 2199 2288 2290 2198 2293 2377
8 2289 2197 2096 2195 2378 2292 2198 2290
8 2291 2200 2105 2204 2379 2294 2205 2297
8 2199 2102 2200 2291 2293 2202 2294 2379
8 2198 2101 2202 2293 2292 2201 2295 2380
8 2299 2207 2297 2383 2206 2107 2204 2296
8 2300 2208 2298 2384 2207 2108 2205 2297
8 2302 2210 2300 2386 2209 2110 2207 2299
8 2303 2211 2301 2387 2210 2111 2208 2300
8 2305 2213 2303 2389 2212 2113 2210 2302
8 2306 2214 2304 2390 2213 2114 2211 2303
8 2310 2216 2306 2392 2220 2117 2213 2305
8 2308 2215 2307 2393 2216 2115 2214 2306
8 2308 2215 2115 2216 2396 2309 2217 2311
8 2310 2216 2117 2220 2398 2311 2219 2315
8 2311 2217 2116 2219 2399 2312 2218 2314
8 2314 2218 2118 2222 2402 2313 2221 2317
8 2315 2219 2119 2223 2403 2314 2222 2318
8 2225 2121 2224 2320 2317 2221 2316 2405
8 2226 2122 2225 2321 2318 2222 2317 2406
8 2228 2124 2227 2323 2320 2224 2319 2408
8 2229 2125 2228 2324 2321 2225 2320 2409
8 2231 2127 2230 2326 2323 2227 2322 2411
8 2232 2128 2231 2327 2324 2228 2323 2412
8 2234 2130 2233 2328 2326 2230 2325 2413
8 2235 2131 2234 2329 2327 2231 2326 2414
8 2237 2134 2236 2330 2329 2234 2328 2415
8 2259 2158 2260 2352 2332 2239 2331 2417
8 2257 2157 2259 2350 2334 2240 2332 2419
8 2240 2139 2239 2332 2335 2241 2333 2420
8 2334 2240 2335 2422 2242 2140 2243 2337
8 2335 2241 2336 2423 2243 2141 2244 2338
8 2337 2243 2338 2425 2247 2143 2246 2342
8 2338 2244 2339 2426 2246 2142 2245 2341
8 2341 2245 2340 2428 2249 2145 2248 2343
8 2342 2246 2341 2429 2250 2146 2249 2344
8 2344 2249 2343 2430 2252 2149 2251 2345
8 2188 2285 2347 2254 2284 2374 2432 2346
8 2347 2254 2346 2432 2271 2169 2270 2364
8 2365 2271 2170 2272 2433 2347 2255 2348
8 2286 2189 2285 2375 2348 2255 2347 2433
8 2349 2258 2351 2435 2257 2157 2259 2350
8 2349 2258 2164 2263 2435 2351 2264 2355
8 2259 2158 2261 2351 2352 2260 2354 2437
8 2356 2265 2354 2437 2264 2165 2261 2351
8 2441 2357 2264 2355 2362 2268 2168 2269
8 2356 2265 2165 2264 2442 2358 2266 2357
8 2443 2359 2266 2357 2361 2267 2166 2268
8 2370 2279 2360 2446 2280 2181 2267 2361
8 2362 2268 2182 2281 2447 2361 2280 2371
8 2180 2277 2368 2278 2270 2364 2449 2363
8 2271 2365 2273 2177 2364 2450 2366 2277
8 2372 2283 2186 2282 2451 2368 2276 2367
8 2178 2274 2367 2276 2277 2366 2451 2368
8 2283 2187 2278 2368 2370 2279 2369 2452
8 2372 2283 2370 2453 2282 2186 2280 2371
8 2284 2374 2455 2373 2201 2292 2380 2295
8 2375 2285 2197 2289 2456 2374 2292 2378
8 2376 2291 2204 2296 2457 2379 2297 2383
8 2288 2199 2291 2376 2377 2293 2379 2457
8 2198 2290 2378 2292 2293 2377 2458 2380
8 2293 2202 2294 2379 2380 2295 2381 2459
8 2384 2298 2381 2459 2297 2205 2294 2379
8 2386 2300 2384 2463 2299 2207 2297 2383
8 2387 2301 2385 2464 2300 2208 2298 2384
8 2389 2303 2387 2466 2302 2210 2300 2386
8 2390 2304 2388 2467 2303 2211 2301 2387
8 2392 2306 2390 2469 2305 2213 2303 2389
8 2393 2307 2391 2470 2306 2214 2304 2390
8 2395 2308 2393 2472 2310 2216 2306 2392
8 2308 2215 2309 2396 2393 2307 2394 2473
8 2395 2308 2216 2310 2475 2396 2311 2398
8 2396 2309 2217 2311 2476 2397 2312 2399
8 2398 2311 2219 2315 2478 2399 2314 2403
8 2399 2312 2218 2314 2479 2400 2313 2402
8 2317 2221 2316 2405 2402 2313 2401 2482
8 2403 2314 2222 2318 2483 2402 2317 2406
8 2320 2224 2319 2408 2405 2316 2404 2485
8 2321 2225 2320 2409 2406 2317 2405 2486
8 2323 2227 2322 2411 2408 2319 2407 2488
8 2324 2228 2323 2412 2409 2320 2408 2489
8 2326 2230 2325 2413 2411 2322 2410 2490
8 2327 2231 2326 2414 2412 2323 2411 2491
8 2329 2234 2328 2415 2414 2326 2413 2492
8 2417 2331 2260 2352 2494 2416 2353 2438
8 2350 2259 2352 2436 2419 2332 2417 2496
8 2332 2239 2331 2417 2420 2333 2418 2497
8 2334 2240 2332 2419 2422 2335 2420 2499
8 2420 2333 2421 2500 2335 2241 2336 2423
8 2422 2335 2423 2502 2337 2243 2338 2425
8 2423 2336 2424 2503 2338 2244 2339 2426
8 2425 2338 2426 2505 2342 2246 2341 2429
8 2426 2339 2427 2506 2341 2245 2340 2428
8 2429 2341 2428 2507 2344 2249 2343 2430
8 2432 2346 2284 2374 2509 2431 2373 2455
8 2432 2346 2431 2509 2364 2270 2363 2449
8 2375 2285 2374 2456 2433 2347 2432 2510
8 2347 2433 2365 2271 2432 2510 2450 2364
8 2350 2259 2351 2435 2436 2352 2437 2514
8 2440 2356 2437 2514 2355 2264 2351 2435
8 2352 2260 2354 2437 2438 2353 2439 2516
8 2356 2265 2358 2442 2437 2354 2439 2516
8 2440 2356 2264 2355 2518 2442 2357 2441
8 2519 2443 2357 2441 2447 2361 2268 2362
8 2443 2359 2444 2520 2357 2266 2358 2442
8 2443 2359 2267 2361 2520 2444 2360 2446
8 2446 2360 2279 2370 2523 2445 2369 2452
8 2453 2370 2446 2524 2371 2280 2361 2447
8 2449 2363 2448 2525 2368 2278 2369 2452
8 2366 2277 2364 2450 2451 2368 2449 2526
8 2372 2283 2368 2451 2453 2370 2452 2527
8 2455 2373 2295 2380 2529 2454 2382 2460
8 2456 2374 2292 2378 2530 2455 2380 2458
8 2377 2293 2379 2457 2458 2380 2459 2531
8 2463 2384 2459 2531 2383 2297 2379 2457
8 2533 2461 2382 2460 2459 2381 2295 2380
8 2464 2385 2461 2533 2384 2298 2381 2459
8 2466 2387 2464 2537 2386 2300 2384 2463
8 2467 2388 2465 2538 2387 2301 2385 2464
8 2469 2390 2467 2540 2389 2303 2387 2466
8 2470 2391 2468 2541 2390 2304 2388 2467
8 2472 2393 2470 2543 2392 2306 2390 2469
8 2393 2307 2394 2473 2470 2391 2471 2544
8 2395 2308 2396 2475 2472 2393 2473 2546
8 2396 2309 2397 2476 2473 2394 2474 2547
8 2475 2396 2311 2398 2549 2476 2399 2478
8 2476 2397 2312 2399 2550 2477 2400 2479
8 2478 2399 2314 2403 2552 2479 2402 2483
8 2479 2400 2313 2402 2553 2480 2401 2482
8 2405 2316 2404 2485 2482 2401 2481 2556
8 2406 2317 2405 2486 2483 2402 2482 2557
8 2408 2319 2407 2488 2485 2404 2484 2559
8 2409 2320 2408 2489 2486 2405 2485 2560
8 2411 2322 2410 2490 2488 2407 2487 2561
8 2412 2323 2411 2491 2489 2408 2488 2562
8 2414 2326 2413 2492 2491 2411 2490 2563
8 2513 2434 2493 2565 2438 2353 2416 2494
8 2496 2417 2352 2436 2567 2494 2438 2515
8 2494 2416 2495 2568 2417 2331 2418 2497
8 2419 2332 2417 2496 2499 2420 2497 2570
8 2497 2418 2498 2571 2420 2333 2421 2500
8 2499 2420 2500 2573 2422 2335 2423 2502
8 2500 2421 2501 2574 2423 2336 2424 2503
8 2502 2423 2503 2576 2425 2338 2426 2505
8 2503 2424 2504 2577 2426 2339 2427 2506
8 2505 2426 2506 2578 2429 2341 2428 2507
8 2509 2431 2373 2455 2580 2508 2454 2529
8 2509 2431 2508 2580 2449 2363 2448 2525
8 2432 2510 2581 2509 2374 2456 2530 2455
8 2432 2510 2450 2364 2509 2581 2526 2449
8 2583 2511 2434 2513 2516 2439 2353 2438
8 2436 2352 2437 2514 2515 2438 2516 2588
8 2440 2356 2442 2518 2514 2437 2516 2588
8 2442 2358 2444 2520 2516 2439 2517 2589
8 2519 2443 2520 2591 2441 2357 2442 2518
8 2519 2443 2361 2447 2591 2520 2446 2524
8 2446 2360 2445 2523 2520 2444 2521 2592
8 2525 2448 2522 2593 2452 2369 2445 2523
8 2524 2446 2370 2453 2594 2523 2452 2527
8 2526 2449 2525 2595 2451 2368 2452 2527
8 2534 2462 2528 2597 2460 2382 2454 2529
8 2530 2455 2380 2458 2598 2529 2460 2532
8 2599 2533 2460 2532 2531 2459 2380 2458
8 2537 2464 2533 2599 2463 2384 2459 2531
8 2534 2462 2382 2460 2601 2535 2461 2533
8 2538 2465 2535 2601 2464 2385 2461 2533
8 2540 2467 2538 2604 2466 2387 2464 2537
8 2541 2468 2539 2605 2467 2388 2465 2538
8 2543 2470 2541 2607 2469 2390 2467 2540
8 2470 2391 2471 2544 2541 2468 2542 2608
8 2472 2393 2473 2546 2543 2470 2544 2610
8 2473 2394 2474 2547 2544 2471 2545 2611
8 2475 2396 2476 2549 2546 2473 2547 2613
8 2476 2397 2477 2550 2547 2474 2548 2614
8 2549 2476 2399 2478 2616 2550 2479 2552
8 2479 2400 2480 2553 2550 2477 2551 2617
8 2552 2479 2402 2483 2619 2553 2482 2557
8 2482 2401 2481 2556 2553 2480 2554 2620
8 2485 2404 2484 2559 2556 2481 2555 2623
8 2486 2405 2485 2560 2557 2482 2556 2624
8 2488 2407 2487 2561 2559 2484 2558 2625
8 2489 2408 2488 2562 2560 2485 2559 2626
8 2491 2411 2490 2563 2562 2488 2561 2627
8 2513 2434 2512 2585 2565 2493 2564 2630
8 2586 2513 2565 2632 2515 2438 2494 2567
8 2565 2493 2566 2633 2494 2416 2495 2568
8 2567 2494 2568 2635 2496 2417 2497 2570
8 2568 2495 2569 2636 2497 2418 2498 2571
8 2570 2497 2571 2638 2499 2420 2500 2573
8 2571 2498 2572 2639 2500 2421 2501 2574
8 2573 2500 2574 2641 2502 2423 2503 2576
8 2574 2501 2575 2642 2503 2424 2504 2577
8 2576 2503 2577 2643 2505 2426 2506 2578
8 2597 2528 2579 2645 2529 2454 2508 2580
8 2580 2508 2579 2645 2525 2448 2522 2593
8 2581 2509 2455 2530 2646 2580 2529 2598
8 2581 2509 2580 2646 2526 2449 2525 2595
8 2583 2511 2582 2648 2513 2434 2512 2585
8 2583 2511 2439 2516 2648 2582 2517 2589
8 2649 2583 2513 2586 2588 2516 2438 2515
8 2589 2517 2444 2520 2653 2587 2521 2592
8 2518 2442 2520 2591 2588 2516 2589 2654
8 2593 2522 2590 2655 2523 2445 2521 2592
8 2524 2446 2523 2594 2591 2520 2592 2656
8 2595 2525 2593 2657 2527 2452 2523 2594
8 2602 2536 2596 2659 2534 2462 2528 2597
8 2600 2534 2597 2660 2532 2460 2529 2598
8 2600 2534 2460 2532 2661 2601 2533 2599
8 2604 2538 2601 2661 2537 2464 2533 2599
8 2602 2536 2462 2534 2663 2603 2535 2601
8 2601 2535 2465 2538 2663 2603 2539 2605
8 2607 2541 2605 2665 2540 2467 2538 2604
8 2608 2542 2606 2666 2541 2468 2539 2605
8 2543 2470 2544 2610 2607 2541 2608 2668
8 2544 2471 2545 2611 2608 2542 2609 2669
8 2546 2473 2547 2613 2610 2544 2611 2671
8 2547 2474 2548 2614 2611 2545 2612 2672
8 2549 2476 2550 2616 2613 2547 2614 2674
8 2550 2477 2551 2617 2614 2548 2615 2675
8 2552 2479 2553 2619 2616 2550 2617 2677
8 2553 2480 2554 2620 2617 2551 2618 2678
8 2557 2482 2556 2624 2619 2553 2620 2680
8 2556 2481 2555 2623 2620 2554 2621 2681
8 2559 2484 2558 2625 2623 2555 2622 2683
8 2560 2485 2559 2626 2624 2556 2623 2684
8 2562 2488 2561 2627 2626 2559 2625 2685
8 2690 2629 2564 2630 2650 2584 2512 2585
8 2586 2513 2585 2651 2632 2565 2630 2691
8 2630 2564 2631 2692 2565 2493 2566 2633
8 2632 2565 2633 2694 2567 2494 2568 2635
8 2633 2566 2634 2695 2568 2495 2569 2636
8 2635 2568 2636 2697 2570 2497 2571 2638
8 2636 2569 2637 2698 2571 2498 2572 2639
8 2638 2571 2639 2700 2573 2500 2574 2641
8 2639 2572 2640 2701 2574 2501 2575 2642
8 2641 2574 2642 2702 2576 2503 2577 2643
8 2597 2528 2596 2659 2645 2579 2644 2704
8 2645 2579 2644 2704 2593 2522 2590 2655
8 2660 2597 2645 2705 2598 2529 2580 2646
8 2646 2580 2645 2705 2595 2525 2593 2657
8 2650 2584 2512 2585 2707 2647 2582 2648
8 2648 2582 2517 2589 2707 2647 2587 2653
8 2649 2583 2648 2708 2586 2513 2585 2651
8 2649 2583 2516 2588 2708 2648 2589 2654
8 2655 2590 2652 2710 2592 2521 2587 2653
8 2654 2589 2520 2591 2711 2653 2592 2656
8 2657 2593 2655 2712 2594 2523 2592 2656
8 2602 2536 2603 2663 2659 2596 2658 2714
8 2662 2602 2659 2715 2600 2534 2597 2660
8 2662 2602 2534 2600 2717 2663 2601 2661
8 2661 2601 2538 2604 2717 2663 2605 2665
8 2666 2606 2664 2718 2605 2539 2603 2663
8 2668 2608 2666 2720 2607 2541 2605 2665
8 2608 2542 2609 2669 2666 2606 2667 2721
8 2610 2544 2611 2671 2668 2608 2669 2723
8 2611 2545 2612 2672 2669 2609 2670 2724
8 2613 2547 2614 2674 2671 2611 2672 2726
8 2614 2548 2615 2675 2672 2612 2673 2727
8 2616 2550 2617 2677 2674 2614 2675 2729
8 2617 2551 2618 2678 2675 2615 2676 2730
8 2619 2553 2620 2680 2677 2617 2678 2732
8 2620 2554 2621 2681 2678 2618 2679 2733
8 2624 2556 2623 2684 2680 2620 2681 2735
8 2681 2621 2555 2623 2736 2682 2622 2683
8 2626 2559 2625 2685 2684 2623 2683 2737
8 2688 2628 2584 2650 2740 2686 2647 2707
8 2688 2628 2687 2742 2650 2584 2629 2690
8 2690 2629 2689 2745 2630 2564 2631 2692
8 2746 2690 2630 2691 2709 2650 2585 2651
8 2691 2630 2692 2747 2632 2565 2633 2694
8 2692 2631 2693 2748 2633 2566 2634 2695
8 2694 2633 2695 2750 2635 2568 2636 2697
8 2695 2634 2696 2751 2636 2569 2637 2698
8 2697 2636 2698 2753 2638 2571 2639 2700
8 2698 2637 2699 2754 2639 2572 2640 2701
8 2700 2639 2701 2755 2641 2574 2642 2702
8 2659 2596 2658 2714 2704 2644 2703 2757
8 2704 2644 2703 2757 2655 2590 2652 2710
8 2660 2597 2659 2715 2705 2645 2704 2758
8 2705 2645 2704 2758 2657 2593 2655 2712
8 2759 2706 2647 2707 2710 2652 2587 2653
8 2709 2650 2585 2651 2760 2707 2648 2708
8 2708 2648 2589 2654 2760 2707 2653 2711
8 2712 2655 2710 2761 2656 2592 2653 2711
8 2763 2713 2658 2714 2718 2664 2603 2663
8 2662 2602 2663 2717 2715 2659 2714 2764
8 2720 2666 2718 2767 2665 2605 2663 2717
8 2768 2719 2664 2718 2721 2667 2606 2666
8 2668 2608 2669 2723 2720 2666 2721 2770
8 2669 2609 2670 2724 2721 2667 2722 2771
8 2671 2611 2672 2726 2723 2669 2724 2773
8 2672 2612 2673 2727 2724 2670 2725 2774
8 2674 2614 2675 2729 2726 2672 2727 2776
8 2675 2615 2676 2730 2727 2673 2728 2777
8 2677 2617 2678 2732 2729 2675 2730 2779
8 2678 2618 2679 2733 2730 2676 2731 2780
8 2680 2620 2681 2735 2732 2678 2733 2782
8 2733 2679 2621 2681 2783 2734 2682 2736
8 2735 2681 2623 2684 2784 2736 2683 2737
8 2740 2686 2647 2707 2787 2738 2706 2759
8 2688 2628 2686 2740 2742 2687 2739 2789
8 2743 2688 2650 2709 2790 2740 2707 2760
8 2742 2687 2741 2792 2690 2629 2689 2745
8 2743 2688 2742 2793 2709 2650 2690 2746
8 2745 2689 2744 2795 2692 2631 2693 2748
8 2746 2690 2745 2796 2691 2630 2692 2747
8 2747 2692 2748 2797 2694 2633 2695 2750
8 2748 2693 2749 2798 2695 2634 2696 2751
8 2750 2695 2751 2800 2697 2636 2698 2753
8 2751 2696 2752 2801 2698 2637 2699 2754
8 2753 2698 2754 2802 2700 2639 2701 2755
8 2763 2713 2756 2804 2714 2658 2703 2757
8 2759 2706 2652 2710 2804 2756 2703 2757
8 2715 2659 2714 2764 2758 2704 2757 2805
8 2758 2704 2757 2805 2712 2655 2710 2761
8 2806 2759 2707 2760 2761 2710 2653 2711
8 2765 2716 2762 2808 2718 2664 2713 2763
8 2809 2763 2714 2764 2767 2718 2663 2717
8 2765 2716 2664 2718 2811 2766 2719 2768
8 2813 2768 2718 2767 2770 2721 2666 2720
8 2814 2769 2719 2768 2771 2722 2667 2721
8 2723 2669 2724 2773 2770 2721 2771 2816
8 2724 2670 2725 2774 2771 2722 2772 2817
8 2726 2672 2727 2776 2773 2724 2774 2819
8 2727 2673 2728 2777 2774 2725 2775 2820
8 2729 2675 2730 2779 2776 2727 2777 2822
8 2730 2676 2731 2780 2777 2728 2778 2823
8 2732 2678 2733 2782 2779 2730 2780 2825
8 2780 2731 2679 2733 2826 2781 2734 2783
8 2782 2733 2681 2735 2827 2783 2736 2784
8 2830 2785 2738 2787 2804 2756 2706 2759
8 2789 2739 2686 2740 2832 2786 2738 2787
8 2790 2740 2707 2760 2833 2787 2759 2806
8 2742 2687 2739 2789 2792 2741 2788 2835
8 2743 2688 2740 2790 2793 2742 2789 2836
8 2792 2741 2791 2838 2745 2689 2744 2795
8 2793 2742 2792 2839 2746 2690 2745 2796
8 2795 2744 2794 2841 2748 2693 2749 2798
8 2796 2745 2795 2842 2747 2692 2748 2797
8 2797 2748 2798 2843 2750 2695 2751 2800
8 2798 2749 2799 2844 2751 2696 2752 2801
8 2800 2751 2801 2845 2753 2698 2754 2802
8 2808 2762 2803 2847 2763 2713 2756 2804
8 2809 2763 2804 2848 2764 2714 2757 2805
8 2806 2759 2710 2761 2848 2804 2757 2805
8 2765 2716 2766 2811 2808 2762 2807 2850
8 2810 2765 2808 2851 2767 2718 2763 2809
8 2810 2765 2718 2767 2852 2811 2768 2813
8 2811 2766 2719 2768 2853 2812 2769 2814
8 2855 2814 2768 2813 2816 2771 2721 2770
8 2856 2815 2769 2814 2817 2772 2722 2771
8 2773 2724 2774 2819 2816 2771 2817 2858
8 2774 2725 2775 2820 2817 2772 2818 2859
8 2776 2727 2777 2822 2819 2774 2820 2861
8 2777 2728 2778 2823 2820 2775 2821 2862
8 2779 2730 2780 2825 2822 2777 2823 2864
8 2823 2778 2731 2780 2865 2824 2781 2826
8 2825 2780 2733 2782 2866 2826 2783 2827
8 2869 2828 2785 2830 2847 2803 2756 2804
8 2871 2829 2786 2832 2830 2785 2738 2787
8 2872 2830 2787 2833 2848 2804 2759 2806
8 2789 2739 2786 2832 2835 2788 2831 2874
8 2836 2789 2740 2790 2875 2832 2787 2833
8 2792 2741 2788 2835 2838 2791 2834 2877
8 2793 2742 2789 2836 2839 2792 2835 2878
8 2838 2791 2837 2880 2795 2744 2794 2841
8 2839 2792 2838 2881 2796 2745 2795 2842
8 2841 2794 2840 2882 2798 2749 2799 2844
8 2842 2795 2841 2883 2797 2748 2798 2843
8 2843 2798 2844 2884 2800 2751 2801 2845
8 2886 2846 2803 2847 2850 2807 2762 2808
8 2851 2808 2847 2887 2809 2763 2804 2848
8 2850 2807 2766 2811 2889 2849 2812 2853
8 2810 2765 2811 2852 2851 2808 2850 2890
8 2852 2811 2768 2813 2891 2853 2814 2855
8 2853 2812 2769 2814 2892 2854 2815 2856
8 2894 2856 2814 2855 2858 2817 2771 2816
8 2817 2772 2818 2859 2856 2815 2857 2895
8 2819 2774 2820 2861 2858 2817 2859 2897
8 2820 2775 2821 2862 2859 2818 2860 2898
8 2822 2777 2823 2864 2861 2820 2862 2900
8 2823 2778 2824 2865 2862 2821 2863 2901
8 2864 2823 2780 2825 2902 2865 2826 2866
8 2904 2867 2828 2869 2886 2846 2803 2847
8 2869 2828 2868 2906 2830 2785 2829 2871
8 2907 2869 2830 2872 2887 2847 2804 2848
8 2871 2829 2870 2909 2832 2786 2831 2874
8 2910 2871 2832 2875 2872 2830 2787 2833
8 2835 2788 2831 2874 2877 2834 2873 2912
8 2836 2789 2832 2875 2878 2835 2874 2913
8 2877 2834 2876 2915 2838 2791 2837 2880
8 2839 2792 2835 2878 2881 2838 2877 2916
8 2880 2837 2879 2917 2841 2794 2840 2882
8 2881 2838 2880 2918 2842 2795 2841 2883
8 2883 2841 2882 2919 2843 2798 2844 2884
8 2921 2885 2846 2886 2889 2849 2807 2850
8 2922 2886 2847 2887 2890 2850 2808 2851
8 2889 2849 2812 2853 2924 2888 2854 2892
8 2890 2850 2811 2852 2925 2889 2853 2891
8 2891 2853 2814 2855 2926 2892 2856 2894
8 2892 2854 2815 2856 2927 2893 2857 2895
8 2858 2817 2859 2897 2894 2856 2895 2929
8 2859 2818 2860 2898 2895 2857 2896 2930
8 2861 2820 2862 2900 2897 2859 2898 2932
8 2862 2821 2863 2901 2898 2860 2899 2933
8 2864 2823 2865 2902 2900 2862 2901 2934
8 2904 2867 2846 2886 2936 2903 2885 2921
8 2904 2867 2903 2936 2869 2828 2868 2906
8 2937 2904 2869 2907 2922 2886 2847 2887
8 2906 2868 2905 2939 2871 2829 2870 2909
8 2907 2869 2906 2940 2872 2830 2871 2910
8 2909 2870 2908 2942 2874 2831 2873 2912
8 2910 2871 2909 2943 2875 2832 2874 2913
8 2912 2873 2911 2945 2877 2834 2876 2915
8 2878 2835 2874 2913 2916 2877 2912 2946
8 2915 2876 2914 2947 2880 2837 2879 2917
8 2916 2877 2915 2948 2881 2838 2880 2918
8 2918 2880 2917 2949 2883 2841 2882 2919
8 2921 2885 2849 2889 2951 2920 2888 2924
8 2952 2921 2886 2922 2925 2889 2850 2890
8 2924 2888 2854 2892 2954 2923 2893 2927
8 2925 2889 2853 2891 2955 2924 2892 2926
8 2926 2892 2856 2894 2956 2927 2895 2929
8 2895 2857 2896 2930 2927 2893 2928 2957
8 2897 2859 2898 2932 2929 2895 2930 2959
8 2898 2860 2899 2933 2930 2896 2931 2960
8 2900 2862 2901 2934 2932 2898 2933 2961
8 2936 2903 2885 2921 2963 2935 2920 2951
8 2936 2903 2935 2963 2906 2868 2905 2939
8 2937 2904 2886 2922 2964 2936 2921 2952
8 2937 2904 2936 2964 2907 2869 2906 2940
8 2939 2905 2938 2966 2909 2870 2908 2942
8 2940 2906 2939 2967 2910 2871 2909 2943
8 2942 2908 2941 2969 2912 2873 2911 2945
8 2943 2909 2942 2970 2913 2874 2912 2946
8 2945 2911 2944 2971 2915 2876 2914 2947
8 2946 2912 2945 2972 2916 2877 2915 2948
8 2948 2915 2947 2973 2918 2880 2917 2949
8 2951 2920 2888 2924 2975 2950 2923 2954
8 2952 2921 2889 2925 2976 2951 2924 2955
8 2927 2893 2928 2957 2954 2923 2953 2978
8 2955 2924 2892 2926 2979 2954 2927 2956
8 2929 2895 2930 2959 2956 2927 2957 2980
8 2930 2896 2931 2960 2957 2928 2958 2981
8 2932 2898 2933 2961 2959 2930 2960 2982
8 2951 2920 2950 2975 2963 2935 2962 2984
8 2963 2935 2962 2984 2939 2905 2938 2966
8 2964 2936 2921 2952 2985 2963 2951 2976
8 2964 2936 2963 2985 2940 2906 2939 2967
8 2966 2938 2965 2987 2942 2908 2941 2969
8 2967 2939 2966 2988 2943 2909 2942 2970
8 2969 2941 2968 2989 2945 2911 2944 2971
8 2970 2942 2969 2990 2946 2912 2945 2972
8 2972 2945 2971 2991 2948 2915 2947 2973
8 2954 2923 2953 2978 2975 2950 2974 2993
8 2976 2951 2924 2955 2994 2975 2954 2979
8 2957 2928 2958 2981 2978 2953 2977 2995
8 2956 2927 2957 2980 2979 2954 2978 2996
8 2959 2930 2960 2982 2980 2957 2981 2997
8 2984 2962 2983 2999 2966 2938 2965 2987
8 2975 2950 2974 2993 2984 2962 2983 2999
8 2976 2951 2975 2994 2985 2963 2984 3000
8 2985 2963 2984 3000 2967 2939 2966 2988
8 2987 2965 2986 3001 2969 2941 2968 2989
8 2988 2966 2987 3002 2970 2942 2969 2990
8 2990 2969 2989 3003 2972 2945 2971 2991
8 2978 2953 2977 2995 2993 2974 2992 3004
8 2979 2954 2978 2996 2994 2975 2993 3005
8 2980 2957 2981 2997 2996 2978 2995 3006
8 2974 2993 2999 2983 2992 3004 3007 2998
8 2983 2999 2987 2965 2998 3007 3001 2986
8 3000 2984 2999 3008 2988 2966 2987 3002
8 2994 2975 2993 3005 3000 2984 2999 3008
8 3002 2987 3001 3009 2990 2969 2989 3003
8 2996 2978 2995 3006 3005 2993 3004 3010
8 3005 2993 3004 3010 3008 2999 3007 3011
8 3008 2999 3007 3011 3002 2987 3001 3009

CELL_TYPES 1910
12
12
12
12
12
12
12
12
12
12
12
12
12
12
12
12
12
12
12
12
12
12
12
12
12
12
12
12
12
12
12
12
12
12
12
12
12
12
12
12
12
12
12
12
12
12
12
12
12
12
12
12
12
12
12
12
12
12
12
12
12
12
12
12
12
12
12
12
12
12
12
12
12
12
12
12
12
12
12
12
12
12
12
12
12
12
12
12
12
12
12
12
12
12
12
12
12
12
12
12
12
12
12
12
12
12
12
12
12
12
12
12
12
12
12
12
12
12
12
12
12
12
12
12
12
12
12
12
12
12
12
12
12
12
12
12
12
12
12
12
12
12
12
12
12
12
12
12
12
12
12
12
12
12
12
12
12
12
12
12
12
12
12
12
12
12
12
12
12
12
12
12
12
12
12
12
12
12
12
12
12
12
12
12
12
12
12
12
12
12
12
12
12
12
12
12
12
12
12
12
12
12
12
12
12
12
12
12
12
12
12
12
12
12
12
12
12
12
12
12
12
12
12
12
12
12
12
12
12
12
12
12
12
12
12
12
12
12
12
12
12
12
12
12
12
12
12
12
12
12
12
12
12
12
12
12
12
12
12
12
12
12
12
12
12
12
12
12
12
12
12
12
12
12
12
12
12
12
12
12
12
12
12
12
12
12
12
12
12
12
12
12
12
12
12
12
12
12
12
12
12
12
12
12
12
12
12
12
12
12
12
12
12
12
12
12
12
12
12
12
12
12
12
12
12
12
12
12
12
12
12
12
12
12
12
12
12
12
12
12
12
12
12
12
12
12
12
12
12
12
12
12
12
12
12
12
12
12
12
12
12
12
12
12
12
12
12
12
12
12
12
12
12
12
12
12
12
12
12
12
12
12
12
12
12
12
12
12
12
12
12
12
12
12
12
12
12
12
12
12
12
12
12
12
12
12
12
12
12
12
12
12
12
12
12
12
12
12
12
12
12
12
12
12
12
12
12
12
12
12
12
12
12
12
12
12
12
12
12
12
12
12
12
12
12
12
12
12
12
12
12
12
12
12
12
12
12
12
12
12
12
12
12
12
12
12
12
12
12
12
12
12
12
12
12
12
12
12
12
12
12
12
12
12
12
12
12
12
12
12
12
12
12
12
12
12
12
12
12
12
12
12
12
12
12
12
12
12
12
12
12
12
12
12
12
12
12
12
12
12
12
12
12
12
12
12
12
12
12
12
12
12
12
12
12
12
12
12
12
12
12
12
12
12
12
12
12
12
12
12
12
12
12
12
12
12
12
12
12
12
12
12
12
12
12
12
12
12
12
12
12
12
12
12
12
12
12
12
12
12
12
12
12
12
12
12
12
12
12
12
12
12
12
12
12
12
12
12
12
12
12
12
12
12
12
12
12
12
12
12
12
12
12
12
12
12
12
12
12
12
12
12
12
12
12
12
12
12
12
12
12
12
12
12
12
12
12
12
12
12
12
12
12
12
12
12
12
12
12
12
12
12
12
12
12
12
12
12
12
12
12
12
12
12
12
12
12
12
12
12
12
12
12
12
12
12
12
12
12
12
12
12
12
12
12
12
12
12
12
12
12
12
12
12
12
12
12
12
12
12
12
12
12
12
12
12
12
12
12
12
12
12
12
12
12
12
12
12
12
12
12
12
12
12
12
12
12
12
12
12
12
12
12
12
12
12
12
12
12
12
12
12
12
12
12
12
12
12
12
12
12
12
12
12
12
12
12
12
12
12
12
12
12
12
12
12
12
12
12
12
12
12
12
12
12
12
12
12
12
12
12
12
12
12
12
12
12
12
12
12
12
12
12
12
12
12
12
12
12
12
12
12
12
12
12
12
12
12
12
12
12
12
12
12
12
12
12
12
12
12
12
12
12
12
12
12
12
12
12
12
12
12
12
12
12
12
12
12
12
12
12
12
12
12
12
12
12
12
12
12
12
12
12
12
12
12
12
12
12
12
12
12
12
12
12
12
12
12
12
12
12
12
12
12
12
12
12
12
12
12
12
12
12
12
12
12
12
12
12
12
12
12
12
12
12
12
12
12
12
12
12
12
12
12
12
12
12
12
12
12
12
12
12
12
12
12
12
12
12
12
12
12
12
12
12
12
12
12
12
12
12
12
12
12
12
12
12
12
12
12
12
12
12
12
12
12
12
12
12
12
12
12
12
12
12
12
12
12
12
12
12
12
12
12
12
12
12
12
12
12
12
12
12
12
12
12
12
12
12
12
12
12
12
12
12
12
12
12
12
12
12
12
12
12
12
12
12
12
12
12
12
12
12
12
12
12
12
12
12
12
12
12
12
12
12
12
12
12
12
12
12
12
12
12
12
12
12
12
12
12
12
12
12
12
12
12
12
12
12
12
12
12
12
12
12
12
12
12
12
12
12
12
12
12
12
12
12
12
12
12
12
12
12
12
12
12
12
12
12
12
12
12
12
12
12
12
12
12
12
12
12
12
12
12
12
12
12
12
12
12
12
12
12
12
12
12
12
12
12
12
12
12
12
12
12
12
12
12
12
12
12
12
12
12
12
12
12
12
12
12
12
12
12
12
12
12
12
12
12
12
12
12
12
12
12
12
12
12
12
12
12
12
12
12
12
12
12
12
12
12
12
12
12
12
12
12
12
12
12
12
12
12
12
12
12
12
12
12
12
12
12
12
12
12
12
12
12
12
12
12
12
12
12
12
12
12
12
12
12
12
12
12
12
12
12
12
12
12
12
12
12
12
12
12
12
12
12
12
12
12
12
12
12
12
12
12
12
12
12
12
12
12
12
12
12
12
12
12
12
12
12
12
12
12
12
12
12
12
12
12
12
12
12
12
12
12
12
12
12
12
12
12
12
12
12
12
12
12
12
12
12
12
12
12
12
12
12
12
12
12
12
12
12
12
12
12
12
12
12
12
12
12
12
12
12
12
12
12
12
12
12
12
12
12
12
12
12
12
12
12
12
12
12
12
12
12
12
12
12
12
12
12
12
12
12
12
12
12
12
12
12
12
12
12
12
12
12
12
12
12
12
12
12
12
12
12
12
12
12
12
12
12
12
12
12
12
12
12
12
12
12
12
12
12
12
12
12
12
12
12
12
12
12
12
12
12
12
12
12
12
12
12
12
12
12
12
12
12
12
12
12
12
12
12
12
12
12
12
12
12
12
12
12
12
12
12
12
12
12
12
12
12
12
12
12
12
12
12
12
12
12
12
12
12
12
12
12
12
12
12
12
12
12
12
12
12
12
12
12
12
12
12
12
12
12
12
12
12
12
12
12
12
12
12
12
12
12
12
12
12
12
12
12
12
12
12
12
12
12
12
12
12
12
12
12
12
12
12
12
12
12
12
12
12
12
12
12
12
12
12
12
12
12
12
12
12
12
12
12
12
12
12
12
12
12
12
12
12
12
12
12
12
12
12
12
12
12
12
12
12
12
12
12
12
12
12
12
12
12
12
12
12
12
12
12
12
12
12
12
12
12
12
12
12
12
12
12
12
12
12
12
12
12
12
12
12
12
12
12
12
12
12
12
12
12
12
12
12
12
12
12
12
12
12
12
12
12
12
12
12
12
12
12
12
12
12
12
12
12
12
12
12
12
12
12
12
12
12
12
12
12
12
12
12
12
12
12
12
12
12
12
12
12
12
12
12
12
12
12
12
12
12
12
12
12
12
12
12
12
12
12
12
12
12
12
12
12
12
12
12
12
12
12
12
12
12
12
12
12
12
12
12
12
12
12
12
12
12
12
12
12
12
12
12
12
12
12
12
12
12
12
12
12
12
12
12
12
12
12
12
12
12
12
12
12
12
12
12
12
12
12
12
12
12
12
12
12
12
12
12
12
12
12
12
12
12
12
12
12
12
12
12
12
12
12
12
12
12
12
12
12
12
12
12
12
12
12
12
12
12
12
12
12
12
12
12
12
12
12
12
12
12
12
12
12
12
12
12
12
12
12
12
12
12
12
12
12
12
12
12
12
12
12
12
12
12
12
12
12
12
12
12
12
12
12
12
12
12
12
12
12
12
12
12
12
12
12
12
12
12
12
12
12
12
12
12
12
12
12
12
12
12
12
12
12
12
12
12
12
12
12
12
12
12
12
12
12
12
12
12
12
12
12
12
12
12
12
12
12
12
12
12
12
12
12
12
12
12
12
12
12
12
12
12
12
12
12
12
12
12
12
12
12
12
12
12
12
12
12
12
12
12
12
12
12
12
12
12
12
12
12
12
12
12
12
12
12
12
12
12
12
12
12
12
12
12
12
12
12
12
12
12
12
12
12
12
12
12
12
12
12
12
12
12
12
12
12
12
12
12
12
12
12
12
12
12
12
12
12
12

POINT_DATA 3012
SCALARS Jp_lamdaP float 4
LOOKUP_TABLE default
0.999361 1 1 0.999361
1 1 1 1
0.999381 1 1 0.999381
0.999305 1 1 0.999305
0.999364 1 1 0.999364
0.999328 1 1 0.999328
1.01726 1.01913 1 0.998167
1 1 1 1
1 1 1 1
1 1 1 1
0.999394 1 1 0.999394
1.01288 1.01479 1 0.998117
0.999372 1 1 0.999372
0.999345 1 1 0.999345
0.999391 1 1 0.999391
0.999347 1 1 0.999347
0.999341 1 1 0.999341
0.999395 1 1 0.999395
1.01712 1.019 1 0.998162
1 1 1 1
0.999299 1 1 0.999299
0.999338 1 1 0.999338
1.00971 1.01164 1 0.998093
1.01498 1.01685 1 0.998168
0.999311 1 1 0.999311
1.01783 1.01972 1 0.998139
1.04986 1.05363 1 0.99642
1 1 1 1
0.999686 1 1 0.999686
0.999696 1 1 0.999696
1 1 1 1
1.0107 1.0126 1 0.998126
0.999362 1 1 0.999362
0.99939 1 1 0.99939
1.01588 1.0175 1 0.998402
1 1 1 1
1.0169 1.01848 1 0.998452
1.00539 1.00725 1 0.998161
1.03471 1.03859 1 0.996266
1 1 1 1
1 1 1 1
0.999676 1 1 0.999676
1 1 1 1
0.999372 1 1 0.999372
1.002 1.004 1 0.99801
1 1 1 1
1.00743 1.00912 1 0.998327
0.999383 1 1 0.999383
0.999418 1 1 0.999418
0.999346 1 1 0.999346
1.01707 1.01894 1 0.998163
0.999661 1 1 0.999661
0.999335 1 1 0.999335
0.999325 1 1 0.999325
0.999377 1 1 0.999377
1.00944 1.01138 1 0.998081
1.01779 1.01969 1 0.998136
1.01477 1.01664 1 0.998162
1.05055 1.05433 1 0.996415
1 1 1 1
0.999323 1 1 0.999323
1.00276 1.00433 1 0.998431
1.00711 1.00904 1 0.998085
1.01214 1.01404 1 0.998133
1.04821 1.05209 1 0.996313
1.05068 1.05451 1 0.99637
0.999328 1 1 0.999328
1.00897 1.01082 1 0.998168
1.04876 1.05252 1 0.99643
1.0697 1.0744 1 0.995628
1 1 1 1
1 1 1 1
1 1 1 1
1.00855 1.01044 1 0.998132
1 1 1 1
1 1 1 1
1.01597 1.01794 1 0.998069
0.999751 1 1 0.999751
1.01592 1.01781 1 0.998138
1.00381 1.00513 1.00029 0.998393
1.03788 1.04177 1 0.99626
1 1 1 1
1.00408 1 1.00483 0.999256
1.01356 1.01561 1 0.997983
1.01674 1.01869 1 0.998088
1.05596 1.06019 1 0.996014
1.00128 1.00124 1.00124 0.998803
1.04693 1.0509 1 0.996225
1.02753 1.03084 1.00038 0.996419
1.06137 1.06612 1 0.995539
1 1 1 1
1 1 1 1
1 1 1 1
1 1 1 1
1 1 1 1
0.999687 1 1 0.999687
1.00275 1.00455 1 0.998209
0.999672 1 1 0.999672
1.00849 1.01035 1 0.99816
1 1 1 1
1.00104 1.00298 1 0.998064
1.0044 1.00606 1 0.99835
1.04702 1.05117 1 0.996053
1.01121 1.01288 1 0.998353
1.05373 1.05794 1 0.996021
0.999397 1 1 0.999397
0.999369 1 1 0.999369
0.999333 1 1 0.999333
0.99941 1 1 0.99941
1.00916 1.01111 1 0.998072
1.01456 1.01643 1 0.998159
1.01743 1.01932 1 0.998138
1.05155 1.05534 1 0.99641
1 1 1 1
0.999357 1 1 0.999357
1.0023 1.0042 1 0.998113
1.00677 1.00871 1 0.99807
0.999671 1 1 0.999671
1.01063 1.01234 1.00003 0.998281
1.01193 1.01383 1 0.998126
1.04864 1.05252 1 0.996308
1.04833 1.0521 1 0.996424
1.05158 1.05541 1 0.996378
1.06904 1.07372 1 0.995638
1.00164 1.00356 1 0.998086
1.00461 1.00651 1 0.998114
1.04371 1.04754 0.999941 0.9964
1.04588 1.04973 1 0.996329
1.05031 1.05417 1 0.996339
1.08312 1.08835 0.999323 0.995868
1 1 1 1
1.07473 1.07935 1 0.995715
1.00124 1.00244 1.00058 0.998229
1.03986 1.04376 1 0.996263
1.06575 1.07053 1 0.995537
1.07242 1.07713 0.999829 0.995796
1.00249 1 1.00371 0.998779
1.01044 1.00143 1.01168 0.997346
1 1 1 1
1 1 1 1
1.01634 1.0183 1 0.998073
1 1 1 1
1.00209 1.00312 1.00071 0.998264
1.0154 1.01729 1 0.998145
1.04067 1.04458 1 0.996254
1 1 1 1
1.00449 1 1.00521 0.99928
1.01441 1.01626 1 0.998179
1.01706 1.01883 1 0.998268
1.05496 1.05919 1 0.996011
1.00133 1.00092 1.00181 0.998604
1.0467 1.05067 1 0.996224
1.0276 1.03104 1.00025 0.996415
1.06081 1.06555 1 0.995555
1.00223 1 1.0033 0.998937
1.0056 1 1.00609 0.999507
1.01124 1.00263 1.01083 0.997781
1.05573 1.06 1 0.995971
1.05403 1.05814 1 0.996117
1.07875 1.08348 1 0.995637
1.02047 1.02174 1.00195 0.996811
1.06352 1.06812 1 0.995696
1.04915 1.05316 1.00067 0.995529
1.06954 1.07431 1 0.995563
1 1 1 1
1 1 1 1
1 1 1 1
1.0036 1 1.00458 0.999026
1 1 1 1
1 1 1 1
1 1 1 1
1.00934 1.01136 1 0.998001
1.00311 1.00507 1 0.998053
1 1 1 1
1 1 1 1
1.00124 1.00318 1 0.998064
1.00508 1.0069 1 0.998188
1.04668 1.05082 1 0.996055
1.01164 1.01368 1 0.997991
1.05191 1.05612 1 0.996019
1.00094 1.00288 1 0.998071
1.04442 1.04857 1 0.996039
1.05028 1.05444 1 0.996054
1.08254 1.08934 0.997697 0.99605
1.05486 1.05912 1 0.995981
1.08278 1.08901 0.998303 0.995968
1 1 1 1
0.999392 1 1 0.999392
1.00179 1.00404 1 0.997755
1.00644 1.0084 1 0.998058
1 1 1 1
1.01247 1.01409 1 0.998398
1.01172 1.01363 1 0.99812
1.04899 1.05288 1 0.996304
1.05259 1.05641 1 0.996386
1.04743 1.05119 1 0.996419
1.06781 1.07248 1 0.995649
1.00138 1.0033 1 0.998084
1.00434 1.00625 1 0.998101
1.0443 1.04832 0.999914 0.996247
1.04685 1.05072 1 0.996317
1 1 1 1
1.0037 1.00505 1.00027 0.998375
1.03768 1.04133 1.0001 0.996385
1.05081 1.05468 1 0.996329
1.08158 1.08747 0.998676 0.995901
1.06551 1.07029 1 0.99554
1.07476 1.07936 1 0.995738
1.07203 1.07675 0.999812 0.995805
1.00208 1.00002 1.0033 0.998765
1.00971 1.00258 1.00979 0.997342
1.04309 1.04722 1 0.996055
1.04498 1.04884 0.999943 0.996375
1.08215 1.08804 0.998562 0.996014
1.08187 1.08871 0.997742 0.995972
1.07808 1.08403 0.998649 0.99586
1.07712 1.08781 0.993959 0.99619
1.00099 1.00044 1.00206 0.998494
1.07382 1.07988 0.998365 0.996014
1.02873 1.03223 1.00015 0.996462
1.06301 1.06785 1 0.995466
1.07216 1.07695 1 0.99555
1.06888 1.07576 0.997426 0.996164
1.00928 1.00645 1.00586 0.996966
1.00956 1.00013 1.01165 0.997802
1.0114 1.00878 1.00609 0.99652
1.01486 1.01688 1 0.998022
1 1 1 1
1.00447 1 1.00517 0.999304
1.01693 1.01884 1 0.998126
1.05414 1.05836 1 0.996007
1.00139 1.00053 1.00227 0.998601
1.02867 1.03234 1.00004 0.99641
1.04613 1.0501 1 0.996223
1.06153 1.06625 1 0.995571
1.00267 1.00001 1.0037 0.998962
1.00472 1 1.0052 0.999526
1.00984 1.00119 1.01088 0.997781
1.05484 1.05912 1 0.995965
1.05257 1.05667 1 0.996117
1.07873 1.08347 1 0.995631
1.01663 1.01826 1.00159 0.996812
1.06472 1.06933 1 0.995688
1.05402 1.05813 1.0006 0.995515
1.0702 1.07494 1 0.995589
1.00352 1 1.00385 0.999675
1.01265 1.0093 1.00606 0.997271
1.01206 1 1.01383 0.99825
1.01314 1.00943 1.00655 0.997143
1.08218 1.08739 0.99949 0.995717
1.07166 1.07635 1 0.995644
1.07656 1.08322 0.998028 0.995814
1.03276 1.03442 1.00255 0.995851
1.06688 1.07132 1 0.995855
1.06057 1.06383 1.00158 0.995364
1.08323 1.08796 1 0.99565
1.00125 1 1.00202 0.999236
1.00009 1 1.00023 0.999855
1 1 1 1
1 1 1 1
1 1 1 1
1.00417 1 1.00489 0.999286
1 1 1 1
1.00387 1 1.00487 0.999004
1 1 1 1
1.01261 1.01465 1 0.997992
1.00588 1.00786 1 0.99803
1.05058 1.05478 1 0.996017
1.04638 1.05052 1 0.996056
1.00147 1.00342 1 0.998066
1 1 1 1
1.00094 1.00288 1 0.99807
1.04447 1.04862 1 0.99604
1.04956 1.05372 1 0.996054
1.0824 1.08918 0.997718 0.996049
1.05381 1.05807 1 0.995975
1.08416 1.09032 0.998385 0.995965
1.04304 1.04718 1 0.99604
1.08213 1.08881 0.997825 0.996031
1.08319 1.08961 0.998067 0.996034
1.07212 1.08383 0.992743 0.996423
1.08299 1.089 0.998622 0.995849
1.07559 1.0884 0.99191 0.99629
1.0012 1.00312 1 0.998083
1.00406 1.00599 1 0.998086
1.04488 1.04913 0.999857 0.996095
1.04786 1.05175 1 0.996305
1 1 1 1
1.00614 1.00754 1.00008 0.998526
1.03609 1.03958 1.00014 0.996505
1.0513 1.05518 1 0.996319
1.08016 1.08673 0.998005 0.995935
1.07463 1.0792 1 0.995762
1.06639 1.07116 1 0.995543
1.07201 1.07673 0.999802 0.995813
1.00195 1.0001 1.0031 0.998751
1.01051 1.00396 1.00921 0.997338
1.04335 1.04751 0.999957 0.99607
1.04565 1.0495 0.999963 0.996368
1.08139 1.08769 0.998153 0.996044
1.08192 1.08822 0.998273 0.995936
1.00093 1.00085 1.0016 0.998481
1.02793 1.03129 1.00028 0.996463
1.06503 1.06987 1 0.995476
1.0788 1.08413 0.999246 0.99583
1.07657 1.08807 0.993161 0.996245
1.07166 1.07644 1 0.995561
1.07356 1.07973 0.998261 0.996016
1.06928 1.07614 0.997474 0.996148
1.0117 1.00907 1.00566 0.996963
1.01237 1.0082 1.00765 0.996515
1.01149 1.00024 1.01347 0.997804
1.08199 1.08796 0.998506 0.996004
1.08212 1.08886 0.997771 0.996029
1.07232 1.08251 0.994221 0.99635
1.07517 1.08794 0.991952 0.996282
1.07385 1.08369 0.994724 0.996177
1.06739 1.08488 0.987289 0.996548
1.01422 1.0165 1.00105 0.996716
1.06531 1.07919 0.990744 0.996357
1.05543 1.06008 1 0.995614
1.0669 1.072 1 0.995238
1.06689 1.07157 0.999941 0.995691
1.06025 1.07233 0.99227 0.99644
1.01472 1.00247 1.01411 0.998134
1.0195 1.01943 1.00387 0.996205
1.01262 1.00111 1.01463 0.99691
1.02014 1.01522 1.00879 0.99609
1.05404 1.05832 1 0.995959
1.00437 1 1.00483 0.999543
1.00314 1 1.00416 0.998988
1.01042 1.00035 1.01232 0.99778
1.05142 1.05552 1 0.996117
1.07861 1.08335 1 0.995625
1.01076 1.01277 1.0012 0.996815
1.05509 1.05941 1.00042 0.9955
1.06596 1.07059 1 0.995679
1.06882 1.07352 1 0.995615
1.00285 1 1.00316 0.999689
1.00959 1.0059 1.0064 0.997284
1.01329 1.00017 1.01489 0.99825
1.01139 1.00715 1.00708 0.997144
1.08199 1.08712 0.999573 0.995711
1.07235 1.07705 1 0.995641
1.0763 1.08293 0.998061 0.995813
1.0309 1.03257 1.00254 0.99585
1.06596 1.07044 0.999996 0.995825
1.05701 1.06012 1.00173 0.99535
1.08284 1.08745 1 0.995759
1.00095 1 1.00117 0.999779
1.00996 1 1.01138 0.998603
1.01668 1.01663 1.00355 0.996514
1.01672 1.0044 1.0148 0.997501
1.01091 1.01044 1.00355 0.996931
1.07649 1.08719 0.994177 0.995954
1.07207 1.07677 0.999851 0.995792
1.06744 1.07919 0.993075 0.996009
1.02911 1.03124 1.00246 0.995491
1.07057 1.07569 0.999288 0.995947
1.04858 1.05263 1.00086 0.995295
1.00228 1 1.0032 0.999083
1.00551 1 1.00702 0.998502
0.999474 1 1.00011 0.999365
1.00037 1 1.00113 0.999239
0.999912 1 1 0.999912
1.00003 1 1.00017 0.999865
0.999997 1 1 0.999997
1 1 1 1
1 1 1 1
1.00253 1 1.00297 0.999557
1 1 1 1
1.0043 1 1.00504 0.999264
1 1 1 1
1.00347 1 1.00449 0.998982
1 1 1 1
1.05245 1.05671 1 0.99597
1.04855 1.0527 1 0.996054
1.08513 1.09118 0.99849 0.995962
1.08218 1.08893 0.997741 0.996048
1.04448 1.04863 1 0.996041
1.00084 1.00278 1 0.998069
1.04321 1.04736 1 0.99604
1.08183 1.08852 0.997812 0.996032
1.08329 1.08973 0.998047 0.996032
1.07163 1.08399 0.992131 0.996439
1.08343 1.08929 0.99877 0.995845
1.07529 1.08802 0.99198 0.99629
1.08169 1.08812 0.998067 0.996019
1.07111 1.08362 0.991975 0.996447
1.07383 1.08551 0.992829 0.996383
1.07168 1.08747 0.988801 0.99664
1.07489 1.08855 0.991277 0.996139
1.07163 1.09144 0.985185 0.996612
1.04349 1.04768 0.999909 0.996085
1.04635 1.05017 1 0.996362
1.08068 1.08736 0.99778 0.996074
1.08185 1.08762 0.998799 0.995899
1.00091 1.00131 1.00113 0.998469
1.02755 1.03076 1.00042 0.996466
1.06766 1.0725 1 0.995486
1.07953 1.08423 0.999868 0.9958
1.07598 1.08825 0.992397 0.9963
1.0733 1.07959 0.998148 0.996018
1.07079 1.07556 1 0.995571
1.06952 1.07638 0.997485 0.996132
1.01449 1.01211 1.0054 0.996961
1.01149 1.00773 1.00724 0.996509
1.01164 1.00039 1.01348 0.997807
1.08158 1.08756 0.998473 0.996016
1.0814 1.08839 0.997535 0.996028
1.07193 1.08289 0.993451 0.996396
1.07558 1.08777 0.992507 0.996255
1.01902 1.021 1.00134 0.996718
1.05472 1.05936 1.00001 0.995617
1.06705 1.07211 1.00003 0.995249
1.07437 1.08351 0.99543 0.996124
1.06715 1.08529 0.986643 0.996594
1.06752 1.07223 0.999954 0.995652
1.06583 1.07971 0.990749 0.996357
1.06057 1.07276 0.992136 0.996479
1.01919 1.01992 1.00308 0.996207
1.01664 1.01295 1.00764 0.996034
1.01222 1.00196 1.01213 0.998136
1.01049 1.00099 1.01256 0.996966
1.07184 1.08257 0.993658 0.996401
1.07481 1.08652 0.992881 0.996315
1.06662 1.08239 0.988837 0.996557
1.06493 1.08626 0.98368 0.996627
1.06533 1.08289 0.987234 0.996512
1.06848 1.08976 0.98366 0.996757
1.03563 1.03945 1.00045 0.995881
1.0572 1.07833 0.983634 0.996717
1.05144 1.05642 1 0.995293
1.06118 1.06618 1.00018 0.995135
1.06433 1.06979 0.999153 0.995732
1.06263 1.07701 0.990112 0.996508
1.01177 1.00267 1.0107 0.998383
1.0197 1.00784 1.0146 0.99721
1.02413 1.02556 1.00282 0.995801
1.01216 1.00508 1.0105 0.996582
1.01722 1.01031 1.01102 0.995861
1.00176 1 1.00206 0.999703
1.08181 1.08685 0.999655 0.995704
1.01259 1.00025 1.01412 0.998249
1.00744 1.00312 1.00702 0.997297
1.00907 1.00469 1.00723 0.997144
1.07298 1.07768 1 0.995637
1.07601 1.0826 0.998094 0.995812
1.03314 1.03583 1.00156 0.995848
1.05679 1.05969 1.00193 0.995336
1.06537 1.06988 0.99999 0.995795
1.08325 1.08774 1 0.995868
1.00042 1 1.00063 0.999789
1.01036 1 1.01176 0.998614
1.01526 1.01588 1.00287 0.996527
1.01661 1.00371 1.0154 0.99749
1.0118 1.01102 1.00396 0.996828
1.07655 1.08725 0.994185 0.995951
1.07169 1.0764 0.999831 0.995792
1.06669 1.07859 0.99294 0.995998
1.03002 1.03215 1.00246 0.995487
1.07487 1.08001 0.999323 0.995919
1.0488 1.0527 1.00096 0.995346
1.00477 1 1.0059 0.998884
1.01507 1.00141 1.01583 0.99784
1.00921 1.01189 1.00125 0.996113
1.02233 1.0121 1.01302 0.997119
1.01934 1.01981 1.00293 0.996627
1.07015 1.08773 0.987604 0.996191
1.06663 1.07297 0.998144 0.995948
1.05852 1.07365 0.989639 0.996226
1.00806 1.00884 1.00379 0.995452
1.0449 1.04979 0.99995 0.995392
1.00238 1 1.0033 0.999086
1.00479 1 1.00643 0.998368
1.00585 1 1.00738 0.998481
1.00552 1 1.00726 0.998276
1.00235 1 1.00374 0.998617
0.999443 1 1 0.999443
0.999691 1 1.00032 0.999369
0.99995 1 1 0.99995
1.00034 1 1.0011 0.999241
0.999924 1 1 0.999924
1 1 1 1
0.999876 1 1 0.999876
0.999998 1 1 0.999998
1 1 1 1
1.00137 1 1.00159 0.999776
1.00365 1 1.00411 0.999541
1 1 1 1
1 1 1 1
1.00503 1 1.00579 0.999243
1 1 1 1
1.08409 1.08979 0.998921 0.99584
1.08371 1.09021 0.998 0.996031
1.07513 1.08779 0.992044 0.99629
1.07124 1.08425 0.991515 0.996455
1.0815 1.08821 0.997797 0.996032
1.04355 1.0477 1 0.99604
1.08147 1.08789 0.998071 0.99602
1.07131 1.08353 0.992247 0.996442
1.07401 1.08571 0.992811 0.996384
1.07074 1.08728 0.988078 0.996667
1.07505 1.08886 0.991151 0.996135
1.07162 1.09149 0.985106 0.996635
1.07135 1.08326 0.99256 0.996418
1.07022 1.08735 0.987587 0.996623
1.0722 1.08897 0.987871 0.996695
1.07323 1.09502 0.983263 0.996783
1.07102 1.09099 0.985207 0.996438
1.07588 1.09892 0.982155 0.996829
1.0812 1.0872 0.998442 0.996028
1.08065 1.08791 0.997291 0.996027
1.07145 1.08323 0.992666 0.996441
1.07601 1.08763 0.993068 0.996229
1.02221 1.02386 1.00167 0.99672
1.05142 1.05605 1 0.99562
1.06666 1.07154 1.00018 0.995261
1.07482 1.08329 0.996103 0.996071
1.06697 1.08571 0.986052 0.996639
1.06647 1.08036 0.990761 0.996356
1.06817 1.07288 1 0.995613
1.06061 1.07306 0.991847 0.996519
1.02036 1.01972 1.00444 0.996209
1.01536 1.01041 1.00896 0.995978
1.01148 1.00166 1.01168 0.998138
1.00936 1.00113 1.01123 0.997022
1.0721 1.08283 0.99367 0.9964
1.07451 1.0862 0.992919 0.996299
1.06626 1.08224 0.988608 0.996586
1.06624 1.0866 0.984599 0.99661
1.03503 1.03727 1.00197 0.995878
1.05037 1.05528 1.00003 0.995318
1.06052 1.0653 1.00039 0.995122
1.06621 1.0831 0.987895 0.996464
1.06629 1.08842 0.982794 0.996812
1.06248 1.06779 0.999312 0.995718
1.05817 1.07935 0.983606 0.996717
1.06112 1.07581 0.989726 0.996582
1.02331 1.02354 1.00399 0.995808
1.01629 1.00959 1.01084 0.995845
1.01362 1.00423 1.01281 0.996581
1.0117 1.00206 1.01127 0.998366
1.01657 1.00357 1.01576 0.997244
1.06886 1.0858 0.987758 0.996602
1.06925 1.08863 0.985542 0.996609
1.06556 1.09416 0.976995 0.996796
1.06141 1.08546 0.980974 0.996809
1.03238 1.03696 1.00001 0.995566
1.05934 1.08256 0.981609 0.996885
1.03357 1.03838 1.00029 0.995083
1.05163 1.05644 1.00045 0.995002
1.05923 1.06806 0.995977 0.995744
1.00654 1 1.00778 0.998766
1.01618 1 1.01862 0.997601
1.01759 1.01156 1.00908 0.996912
1.01665 1.01596 1.005 0.995702
1.01944 1.00566 1.0177 0.996075
1.01904 1.00854 1.01475 0.995713
1.00024 1 1.00044 0.999799
1.01134 1 1.01273 0.998624
1.07656 1.08725 0.994197 0.995947
1.01731 1.0027 1.01713 0.997479
1.01271 1.01288 1.00331 0.996541
1.01338 1.01227 1.00439 0.996726
1.07106 1.07579 0.999811 0.995792
1.06614 1.07819 0.99281 0.995987
1.029 1.031 1.00259 0.995484
1.04799 1.05203 1.00077 0.995397
1.07949 1.08464 0.999355 0.995892
1.00456 1 1.00568 0.99889
1.01568 1.00054 1.01732 0.997844
1.01335 1.01573 1.00163 0.996038
1.02293 1.01085 1.01487 0.997123
1.02033 1.02093 1.00282 0.996603
1.06887 1.08632 0.987705 0.996186
1.06957 1.07585 0.998221 0.995934
1.06153 1.07679 0.989544 0.996246
1.01058 1.01194 1.00324 0.995434
1.04255 1.04741 1 0.995353
1.00822 1 1.01005 0.99819
1.02088 1.00254 1.02092 0.997423
1.00749 1.00914 1.00242 0.995951
1.03039 1.02152 1.01196 0.996769
1.03871 1.04127 1.00111 0.996434
1.05902 1.08644 0.978015 0.996674
1.07071 1.0788 0.996722 0.995764
1.06956 1.08242 0.991926 0.996166
1.01337 1.01361 1.00433 0.995452
1.01956 1.02456 1 0.995126
1.00202 1 1.00293 0.999088
1.00408 1 1.00572 0.998374
1.00054 1 1.00225 0.998289
1.00387 1 1.00542 0.99846
1.00159 1 1.00298 0.998614
1.00673 1 1.00848 0.99827
1.0017 1 1.00337 0.998337
1.00577 1 1.00757 0.998211
0.999607 1 1.00091 0.998698
0.999445 1 1 0.999445
0.999443 1 1 0.999443
0.999975 1 1 0.999975
0.999436 1 1.00006 0.999373
0.999958 1 1 0.999958
1 1 1 1
0.999935 1 1 0.999935
1 1 1 1
1 1 1 1
1.00001 1 1.0001 0.999905
1.00152 1 1.00177 0.999752
1 1 1 1
1.00391 1 1.00439 0.999524
1 1 1 1
1 1 1 1
1.07519 1.08915 0.99102 0.996131
1.074 1.08571 0.992805 0.996385
1.0716 1.09156 0.985012 0.996657
1.06974 1.08706 0.987329 0.996695
1.07155 1.08346 0.992538 0.996437
1.08118 1.08759 0.998078 0.99602
1.07162 1.08326 0.99283 0.996402
1.07076 1.08733 0.988113 0.996616
1.07169 1.08835 0.987977 0.996682
1.07116 1.09397 0.982293 0.996793
1.07122 1.09094 0.985435 0.99644
1.07297 1.09717 0.98102 0.996864
1.0714 1.08744 0.988608 0.996595
1.07401 1.09721 0.982015 0.996786
1.07345 1.09802 0.980698 0.996867
1.06691 1.09771 0.975001 0.996865
1.07242 1.08314 0.993682 0.9964
1.07426 1.08592 0.992954 0.996284
1.066 1.08219 0.988383 0.996615
1.06757 1.087 0.985487 0.996593
1.03592 1.03796 1.00218 0.995876
1.05013 1.05504 1 0.995344
1.05974 1.06433 1.00058 0.995109
1.06694 1.08322 0.988514 0.996415
1.06406 1.08709 0.981892 0.996867
1.05899 1.08018 0.983609 0.996716
1.06102 1.06596 0.999662 0.995704
1.06094 1.07561 0.989677 0.996656
1.01951 1.0196 1.00412 0.995815
1.01424 1.00931 1.00909 0.995827
1.01595 1.00394 1.01544 0.996579
1.0095 1.00137 1.00978 0.998352
1.01356 1.00024 1.01609 0.997279
1.06863 1.08553 0.987783 0.996603
1.06989 1.08925 0.985574 0.996606
1.06653 1.09358 0.978407 0.99679
1.0325 1.03693 1.00016 0.995565
1.03394 1.03875 1.00026 0.995114
1.04959 1.05407 1.00076 0.994991
1.06166 1.08523 0.981423 0.996796
1.06155 1.07062 0.995639 0.995875
1.0562 1.07976 0.981266 0.996852
1.00692 1 1.0081 0.998833
1.01408 1.01302 1.00537 0.9957
1.01784 1.00656 1.01547 0.995803
1.02195 1.0078 1.01804 0.996062
1.01931 1.01193 1.01038 0.996944
1.01867 1.00304 1.01807 0.997559
1.07274 1.0951 0.982856 0.996669
1.0705 1.10088 0.97558 0.996751
1.05952 1.09297 0.972438 0.996864
1.05242 1.08568 0.972291 0.996996
1.01767 1.02201 1.00031 0.995434
1.05021 1.06857 0.986334 0.996439
1.01864 1.02232 1.00165 0.994763
1.03693 1.0418 1.00044 0.994881
1.00119 1 1.00192 0.999264
1.01482 1 1.01675 0.998099
1.0159 1.00666 1.01197 0.997238
1.02575 1.00956 1.01975 0.996361
1.01166 1.00576 1.0102 0.995708
1.02432 1.00697 1.02181 0.995513
1.00412 1 1.00523 0.998895
1.01557 1 1.01776 0.997849
1.06761 1.08493 0.987804 0.996182
1.02222 1.00908 1.01594 0.997127
1.0175 1.01987 1.00173 0.995962
1.01969 1.02075 1.00239 0.996579
1.07264 1.07887 0.9983 0.99592
1.0642 1.07967 0.989363 0.996266
1.01357 1.01546 1.00273 0.995415
1.04 1.04467 1.00021 0.995315
1.00821 1.00006 1.00996 0.998197
1.02091 1.00232 1.02122 0.99738
1.00789 1.00941 1.00255 0.995946
1.0293 1.02184 1.01057 0.996761
1.04325 1.04637 1.00055 0.996465
1.06177 1.08894 0.978262 0.996721
1.07058 1.07861 0.996729 0.995815
1.07032 1.08244 0.992517 0.996255
1.01549 1.01551 1.00458 0.995416
1.0187 1.02377 1.00003 0.995025
1.00642 1 1.00847 0.997963
1.02002 1.0024 1.02053 0.997111
1.02395 1.02419 1.00378 0.995994
1.03639 1.03706 1.00301 0.99636
1.0613 1.11252 0.956874 0.996956
1.05911 1.08349 0.980727 0.996713
1.05218 1.05788 0.999322 0.995291
1.02632 1.02706 1.00426 0.995044
1.00369 1 1.00532 0.99838
1.00164 1 1.00337 0.998275
1.00014 0.999925 1.00172 0.998497
1.00232 1 1.00372 0.998611
1.00883 1 1.01058 0.998264
0.999713 1 1.00102 0.998692
1.00169 0.99989 1.00344 0.998371
1.0076 1 1.0094 0.998222
0.999825 1 1.00121 0.998618
1.00741 1 1.00931 0.998117
1.0029 1 1.00473 0.998171
0.999031 1 1.00037 0.998661
0.9994 1 1 0.9994
0.999442 1 1 0.999442
0.999986 1 1 0.999986
0.999443 1 1 0.999443
0.999978 1 1 0.999978
1 1 1 1
0.999966 1 1 0.999966
1 1 1 1
1 1 1 1
0.999959 1 1 0.999959
1.00077 1 1.00089 0.999882
1 1 1 1
1.00299 1 1.00326 0.999727
1 1 1 1
1 1 1 1
1.07133 1.0908 0.985659 0.996443
1.07126 1.0878 0.988092 0.996668
1.07014 1.09548 0.979912 0.996898
1.06919 1.09301 0.981342 0.996802
1.07128 1.08727 0.988646 0.996609
1.07187 1.08325 0.993082 0.996385
1.07092 1.08718 0.988404 0.996596
1.0734 1.09654 0.982065 0.996776
1.07246 1.09735 0.980391 0.996861
1.06667 1.09734 0.975094 0.996877
1.07553 1.09764 0.983071 0.996732
1.07189 1.1028 0.974965 0.996931
1.07452 1.10909 0.971796 0.996953
1.06831 1.08518 0.987805 0.996604
1.07048 1.08979 0.985632 0.996602
1.06743 1.09298 0.979776 0.996784
1.03386 1.03799 1.00046 0.995565
1.03343 1.03829 1.00018 0.995145
1.04779 1.05219 1.00085 0.994979
1.06203 1.08519 0.981809 0.996784
1.05263 1.07674 0.980728 0.996819
1.06356 1.07319 0.995 0.996007
1.01216 1.01008 1.00639 0.995697
1.01447 1.0041 1.0145 0.995896
1.02329 1.00974 1.01744 0.99605
1.00748 1 1.00859 0.998901
1.01768 1.01035 1.01031 0.996976
1.02154 1.00557 1.01842 0.997515
1.07389 1.09577 0.983302 0.996679
1.06937 1.10084 0.974578 0.996753
1.05997 1.09288 0.972952 0.996856
1.01694 1.02131 1.0003 0.995425
1.01783 1.02168 1.0014 0.994841
1.03891 1.0444 0.999745 0.994997
1.05344 1.0861 0.972844 0.996997
1.04663 1.06548 0.985839 0.996414
1.00142 1 1.00207 0.999351
1.0139 1 1.01584 0.998094
1.00864 1.00447 1.00845 0.995733
1.02722 1.00668 1.02481 0.995711
1.02397 1.00984 1.01766 0.996394
1.01769 1.00927 1.01117 0.997201
1.07143 1.10319 0.974283 0.996847
1.06073 1.10676 0.961468 0.996823
1.05416 1.093 0.967332 0.99704
1.03705 1.06835 0.973645 0.996981
1.00318 1.00657 1.00133 0.995314
1.03082 1.04372 0.992129 0.995476
1.01488 1.01765 1.00264 0.994654
0.999615 1 1 0.999615
0.999183 1 1.00018 0.999004
1.00687 1 1.0083 0.998582
1.01037 1 1.01287 0.997527
1.01223 1 1.01543 0.996849
1.03527 1.01385 1.02524 0.995981
1.00909 1.002 1.01108 0.996045
1.04866 1.00546 1.04683 0.996299
1.00866 1 1.01047 0.998204
1.02218 1.00246 1.02239 0.997336
1.06485 1.09168 0.978583 0.996768
1.03028 1.02409 1.00932 0.996753
1.00824 1.00931 1.00301 0.995942
1.04711 1.05076 1.00004 0.996497
1.07046 1.07843 0.996736 0.995867
1.07129 1.08263 0.993153 0.996344
1.01695 1.01677 1.00482 0.995381
1.01754 1.02273 1 0.994924
1.00762 1 1.00974 0.997896
1.01838 1.00209 1.01925 0.997071
1.03016 1.03003 1.00415 0.995995
1.03421 1.03569 1.00219 0.996387
1.06258 1.11453 0.956282 0.996975
1.06489 1.0876 0.982401 0.996658
1.04805 1.0539 0.999093 0.995354
1.02783 1.02911 1.00377 0.994995
1.00646 0.999693 1.00889 0.997895
1.07359 1.1242 0.95786 0.996996
1.01097 1.00235 1.01193 0.996719
1.03004 1.03163 1.00268 0.995797
1.04101 1.09432 0.954041 0.997115
1.03992 1.0485 0.996379 0.995426
1.01817 1.02025 1.00323 0.994744
1.00314 1 1.00489 0.99826
0.99879 0.998805 1.0015 0.99849
1.00027 0.998075 1.00348 0.998723
0.999384 1 1.0007 0.998686
1.00852 1 1.01031 0.998234
1.00202 0.999421 1.0042 0.998406
0.998805 1 1.00015 0.998657
1.00314 1 1.00497 0.998182
0.999877 0.99971 1.0015 0.998669
1.00637 1 1.00827 0.99812
0.998815 1 1 0.998815
1.00246 1 1.00403 0.998436
1.00775 1 1.00981 0.997963
0.998946 1 1.00093 0.998019
0.99855 1 1 0.99855
0.999352 1 1 0.999352
0.999395 1 1 0.999395
0.999991 1 1 0.999991
0.999439 1 1 0.999439
0.999987 1 1 0.999987
1 1 1 1
0.999982 1 1 0.999982
1 1 1 1
1 1 1 1
0.999678 1 1 0.999678
0.999983 1 1 0.999983
0.99995 1 1 0.99995
1 1 1 1
1.00091 1 1.00105 0.999859
1 1 1 1
1 1 1 1
1.06632 1.09687 0.975181 0.99689
1.07147 1.09665 0.980123 0.996856
1.07273 1.09581 0.982112 0.996767
1.07051 1.08696 0.988226 0.996598
1.0753 1.09779 0.98271 0.996751
1.07158 1.1025 0.974951 0.996922
1.07099 1.10551 0.971735 0.996956
1.07252 1.10426 0.974265 0.996914
1.08353 1.12104 0.969441 0.997012
1.09674 1.14241 0.962648 0.997269
1.07502 1.09643 0.983737 0.996688
1.0684 1.10078 0.973742 0.996756
1.06068 1.09274 0.973732 0.996848
1.01706 1.02147 1.00026 0.995417
1.01809 1.02199 1.00126 0.994923
1.04129 1.04715 0.999295 0.995112
1.05424 1.0861 0.973584 0.996998
1.04257 1.06157 0.985666 0.996389
1.00898 1.00389 1.00936 0.995759
1.03236 1.00739 1.029 0.995901
1.02362 1.00892 1.0182 0.996428
1.00064 1 1.0012 0.999439
1.01312 1 1.01506 0.998088
1.02041 1.01242 1.01076 0.997162
1.07077 1.10309 0.973765 0.996855
0.999608 1 1 0.999608
0.999412 1 1.00046 0.998955
1.06236 1.10603 0.963582 0.996825
1.0527 1.09147 0.967373 0.997011
1.00446 1.00717 1.00192 0.995394
1.01562 1.01767 1.00332 0.994686
1.02886 1.04129 0.992561 0.99546
1.03624 1.06794 0.973283 0.99695
1.00615 1 1.00748 0.998681
1.01093 1 1.01345 0.997512
1.01018 1.00217 1.01212 0.995916
1.04343 1.00656 1.04045 0.996328
1.03335 1.01079 1.02645 0.995984
1.01301 1.00241 1.01374 0.996883
1.08088 1.12534 0.963427 0.99695
1.04463 1.10516 0.948134 0.996936
1.03777 1.08061 0.96306 0.997185
1.02054 1.04482 0.980046 0.99665
1.00624 1.00356 1.00696 0.995735
1.01446 1.01754 1.00208 0.994902
0.999155 1 1.00026 0.998894
1.00124 1 1.00228 0.998968
0.999847 1.00021 1.00104 0.998602
1.00568 1 1.00785 0.997846
1.01399 1 1.01681 0.99723
1.0101 1.0004 1.01315 0.996589
1.07467 1.00608 1.07224 0.996211
0.993306 1.00049 0.995583 0.99722
1.00789 1 1.01008 0.99783
1.01608 1.00168 1.01739 0.997031
1.06291 1.11503 0.956125 0.996995
1.07018 1.0912 0.984082 0.996602
1.03301 1.03464 1.00202 0.996413
1.03768 1.03728 1.00441 0.995995
1.04436 1.05028 0.998939 0.995417
1.03033 1.03211 1.00335 0.994947
1.00614 0.999277 1.00901 0.997879
1.07491 1.12763 0.956047 0.997075
1.01213 1.00123 1.01413 0.996802
1.02568 1.02732 1.00269 0.995722
1.04191 1.09483 0.954438 0.997095
1.03611 1.04558 0.99539 0.99553
1.01998 1.0218 1.00348 0.994756
1.0143 0.997984 1.01869 0.9977
1.00377 1.07197 0.938774 0.997448
1.00579 1.00016 1.00915 0.996511
1.0088 1.00989 1.00379 0.995144
1.01115 1.04306 0.972696 0.996616
1.00387 1.00663 1.00221 0.995059
0.93722 1.00129 0.939989 0.995772
0.996578 0.996857 1.00124 0.998481
0.99894 0.995697 1.00454 0.998728
1.00186 0.997451 1.00576 0.998668
0.998936 1 1.00028 0.998652
1.00508 1 1.0069 0.998193
1.00502 1 1.00692 0.998123
0.999938 0.999724 1.0015 0.998721
0.998681 1 1.00013 0.99855
0.999507 1 1.00148 0.998034
0.997683 0.998852 1.00005 0.998781
1.00844 1 1.0105 0.997961
1.0023 1 1.00391 0.998395
1.00013 0.99818 1.00319 0.99877
1.00575 1 1.00794 0.997826
1.00698 1 1.00908 0.997925
0.99824 1 1.00034 0.997897
0.99839 1 1.00003 0.99836
1.00561 1 1.00753 0.998097
1.00018 1 1.00185 0.998328
0.999331 1 1 0.999331
0.999347 1 1 0.999347
0.999995 1 1 0.999995
0.999389 1 1 0.999389
0.999992 1 1 0.999992
1 1 1 1
0.999989 1 1 0.999989
1 1 1 1
1 1 1 1
0.999752 1 1 0.999752
0.999682 1 1 0.999682
0.999995 1 1 0.999995
0.999978 1 1 0.999978
1 1 1 1
0.999941 1 1 0.999941
1 1 1 1
1 1 1 1
1.06769 1.10234 0.971528 0.996958
1.07139 1.10247 0.974825 0.996913
1.07509 1.09796 0.982339 0.99677
1.07231 1.10415 0.974173 0.996912
1.08044 1.11849 0.968885 0.997004
1.09791 1.14241 0.96376 0.99718
1.09099 1.13612 0.963089 0.99708
0.935395 1.01613 0.926682 0.993381
1.0418 1.09157 0.956391 0.997923
0.999299 1 1.00019 0.999108
1.07022 1.10323 0.973127 0.996864
1.06362 1.10524 0.965408 0.996828
1.0508 1.0899 0.967043 0.996982
1.00201 1.00574 1.00082 0.99547
1.01624 1.01764 1.00393 0.994715
1.02652 1.03884 0.992669 0.995443
1.03584 1.06827 0.97264 0.996918
1.00577 1.00221 1.00778 0.995796
1.03678 1.00717 1.03315 0.996368
1.0314 1.00769 1.02766 0.995986
1.00049 1 1.00089 0.999601
1.01312 1.00386 1.01235 0.996914
1.0062 1 1.00743 0.998777
1.01161 1 1.01415 0.997497
0.999871 1 1.00097 0.998906
1.07952 1.12583 0.961792 0.996956
0.999055 1 1.0001 0.998959
1.00209 1 1.00313 0.998972
0.999707 1.00057 1.00057 0.998562
1.04852 1.10568 0.951221 0.996934
1.03505 1.07818 0.962752 0.997134
1.0023 1.00248 1.00407 0.995773
1.01773 1.02124 1.00152 0.995055
1.01958 1.0438 0.980103 0.996631
1.00548 1 1.00759 0.997912
1.01265 1 1.0155 0.997187
1.00455 1.00031 1.00727 0.99699
1.06253 1.00461 1.0617 0.996195
1.01027 1.0034 1.01024 0.996642
1.05516 1.11851 0.946155 0.997047
1.01615 1.08886 0.935936 0.997103
1.02672 1.05652 0.974906 0.996805
1.00268 1.02424 0.982481 0.996405
1.00017 1 1.00343 0.996744
0.998498 1 1 0.998498
1.00297 1.00038 1.00435 0.998251
1.00298 1 1.00461 0.998377
1.01503 1 1.01742 0.997652
1.01389 1 1.01666 0.997274
1.04582 0.999932 1.04915 0.996899
1.02728 1.00221 1.02777 0.997314
1.00642 0.999561 1.00902 0.997861
1.01266 0.999959 1.01586 0.996887
1.07558 1.13184 0.953004 0.997152
1.04346 1.09639 0.954522 0.997073
1.03253 1.04299 0.994313 0.995634
1.01982 1.02155 1.00268 0.995648
1.02092 1.02261 1.0036 0.994769
1.01514 0.998759 1.01862 0.997814
1.0063 1.07378 0.939496 0.997509
1.00276 1.00067 1.00559 0.996516
1.00656 1.00734 1.00411 0.995137
1.0089 1.04088 0.97242 0.996764
1.00482 1.00706 1.00273 0.99506
0.935414 0.999409 0.941235 0.994403
1.01502 0.996113 1.02135 0.99768
0.978093 1.028 0.953894 0.997435
1.00066 1.00137 1.00312 0.996173
1.00424 1.00243 1.00614 0.995693
0.988987 1.0075 0.985033 0.996542
0.873863 0.970515 0.933982 0.964058
0.845765 0.949585 0.907844 0.98108
0.939129 0.974218 0.967571 0.996291
0.617192 0.776301 0.866602 0.917424
0.52929 0.704813 0.844221 0.889537
0.99841 0.993737 1.00598 0.998733
1.00333 0.995075 1.00958 0.998721
1.0042 0.997285 1.00824 0.998703
0.99855 1 1 0.99855
0.999291 1 1.00125 0.998049
1.00782 1 1.00988 0.997959
1.00209 1 1.00374 0.998353
0.996196 0.997446 1 0.998747
1.00732 1 1.00942 0.997919
0.998401 1 1 0.998401
0.998283 1 1.00037 0.997914
0.99975 0.998672 1.00239 0.998694
1.00589 1 1.008 0.997912
1.01085 1 1.01293 0.997951
1.01006 0.998756 1.01307 0.998271
1.00667 1 1.00879 0.9979
0.998981 1 1.00121 0.99777
0.998888 1 1.00057 0.998322
1.00202 1 1.00409 0.997937
1.00561 1 1.00751 0.99811
1.0049 1 1.00668 0.998232
1.00522 1 1.00717 0.998068
1.00046 1 1.00199 0.998473
1.0009 1 1.00258 0.998324
0.999325 1 1 0.999325
0.999332 1 1 0.999332
0.999998 1 1 0.999998
0.999343 1 1 0.999343
0.999997 1 1 0.999997
1 1 1 1
0.999994 1 1 0.999994
1 1 1 1
1 1 1 1
0.999826 1 1 0.999826
0.99975 1 1 0.99975
0.999999 1 1 0.999999
0.999686 1 1 0.999686
0.999992 1 1 0.999992
1 1 1 1
0.999973 1 1 0.999973
1 1 1 1
1 1 1 1
1.07723 1.11574 0.968401 0.996996
1.07161 1.10352 0.974093 0.996911
1.10122 1.14349 0.965844 0.997093
0.939839 1.01578 0.931319 0.993468
1.08974 1.13565 0.962388 0.997076
1.04879 1.09388 0.960902 0.997795
1.0659 1.11208 0.961167 0.9972
0.889954 0.969739 0.936059 0.980415
0.973056 1.02542 0.954428 0.994245
0.999165 1 1 0.999165
0.999271 1 1.00017 0.999101
0.999046 1 1.00045 0.998594
0.998723 1 1 0.998723
1.07798 1.12612 0.960162 0.996963
1.05222 1.10633 0.954018 0.996932
1.03268 1.07583 0.962703 0.997083
1.00173 1.00223 1.00371 0.995811
1.0199 1.02469 1.00011 0.995212
1.01832 1.04199 0.980608 0.996613
1.01672 1 1.02004 0.996751
1.05238 1.00439 1.0518 0.99618
1.01256 1.00661 1.00924 0.996697
1.00213 1 1.00316 0.998976
1.01178 1.00061 1.01406 0.997146
1.00504 1 1.00707 0.997978
0.999024 1 1 0.999024
0.999594 1.00069 1.00039 0.998522
1.05445 1.12 0.944248 0.997061
0.99876 1 1.00026 0.998504
1.002 1.0006 1.00305 0.99835
1.00282 0.999043 1.0051 0.998688
1.02418 1.09281 0.939928 0.99709
1.02647 1.05615 0.975015 0.996803
0.997804 1.00177 0.999306 0.996735
1.00404 1.02306 0.984881 0.996475
1.01421 1 1.01673 0.997528
1.01408 1.00003 1.01702 0.997083
1.03337 1.00313 1.03294 0.997296
1.04731 1.00295 1.04762 0.99677
1.00513 1.07245 0.939856 0.997201
0.997717 1.05741 0.946286 0.99711
1.01112 1.0241 0.990854 0.996435
0.970946 1.00169 0.971591 0.99765
1.00786 0.999889 1.00953 0.998454
1.00826 1 1.0105 0.997782
1.02173 0.99924 1.02443 0.998121
1.06556 1.00122 1.06712 0.997319
0.863691 0.96787 0.931585 0.957897
1.01583 0.998446 1.01953 0.997929
1.00076 1.00091 1.00335 0.996519
1.00879 1.07518 0.940526 0.997577
1.00653 1.03838 0.972331 0.996911
1.00597 1.00765 1.0033 0.995055
1.00511 1.00543 1.00457 0.995128
0.934921 0.999348 0.942146 0.992978
1.01185 0.995967 1.01825 0.99774
0.977067 1.02833 0.952616 0.997407
1.00063 1.0015 1.00296 0.996184
1.00578 1.00423 1.00585 0.995713
0.992197 1.00859 0.987178 0.996521
0.863307 0.97242 0.926695 0.958021
0.845465 0.947235 0.913092 0.977514
0.941515 0.974321 0.969857 0.996364
0.613199 0.773006 0.862523 0.919704
0.523071 0.707233 0.83713 0.883498
1.0039 0.996051 1.01011 0.997796
0.655073 0.79761 0.889158 0.923677
0.567393 0.729699 0.874519 0.889142
0.981114 1.00558 0.977939 0.997679
1.00997 1.00186 1.01108 0.997049
1.01554 1.00619 1.01223 0.997094
0.930149 0.960455 0.971439 0.99692
0.818074 0.939142 0.905615 0.961873
0.811064 0.914634 0.909573 0.974922
0.590902 0.754043 0.845554 0.926782
0.576413 0.778825 0.839173 0.881948
1.00429 0.99259 1.01303 0.998773
1.00337 0.995375 1.00937 0.998676
1.01391 0.996881 1.01827 0.998837
0.998442 1 1 0.998442
0.998555 1 1.00063 0.997931
1.00754 1 1.00965 0.997913
1.00688 1 1.0089 0.997999
0.99916 0.999116 1.00143 0.998619
0.998817 1 1.0005 0.998322
1.01151 1 1.0136 0.997932
1.00674 1 1.00888 0.997878
0.9987 1 1.00088 0.997823
1.01023 0.998618 1.01332 0.998328
1.0104 1 1.01223 0.998195
1.02809 0.99806 1.03164 0.998495
1.00427 1 1.00655 0.997728
0.999379 1 1.00152 0.997863
1.00106 1 1.00314 0.997929
1.00492 0.999856 1.00692 0.998162
1.00131 0.999963 1.00344 0.997909
1.00033 0.99989 1.0022 0.998243
1.00963 0.998625 1.01265 0.99839
1.01307 0.999713 1.01535 0.99805
1.00605 1 1.00782 0.998241
1.00592 1 1.0077 0.998235
1.005 1 1.0065 0.998506
1.00656 1 1.00854 0.998038
1.00075 1 1.00232 0.998434
0.999296 1 1 0.999296
1.00156 1 1.00324 0.99832
0.999328 1 1 0.999328
0.999993 1 1 0.999993
0.999332 1 1 0.999332
0.999997 1 1 0.999997
1 1 1 1
0.999998 1 1 0.999998
1 1 1 1
1 1 1 1
0.999093 1 1 0.999093
0.99985 1 1 0.99985
0.999822 1 1 0.999822
1 1 1 1
0.999747 1 1 0.999747
0.999998 1 1 0.999998
1 1 1 1
0.999989 1 1 0.999989
1 1 1 1
1 1 1 1
0.942434 1.01512 0.934416 0.993555
1.08879 1.13499 0.962112 0.997072
1.05435 1.09561 0.964596 0.997664
0.876447 0.967715 0.922572 0.981697
0.969014 1.02508 0.950538 0.994497
1.06776 1.1148 0.960534 0.997158
0.980612 1.04364 0.943853 0.995505
0.895517 0.975464 0.933565 0.983374
0.872531 0.975223 0.930438 0.961589
0.626453 0.781501 0.864093 0.92768
0.491672 0.668723 0.827551 0.888454
0.999019 1 1.00032 0.998696
0.999197 1 1.00003 0.999162
0.999161 1 1.00007 0.999092
0.999103 1 1.00048 0.99862
1.00006 1 1.00158 0.998487
0.998596 1 1.00025 0.998351
0.998991 1 1.0005 0.998489
0.998673 1 1 0.998673
1.05577 1.1216 0.944073 0.997074
1.03261 1.09688 0.94417 0.997077
1.02644 1.05651 0.974651 0.996802
0.996705 1.00289 0.997092 0.996727
1.00587 1.02221 0.987425 0.996544
1.04149 1.00386 1.04032 0.997276
1.04828 1.0055 1.04606 0.996641
1.01153 1.00036 1.01432 0.996891
1.00113 1.00077 1.00191 0.998447
1.01482 1 1.01746 0.997397
0.998762 1 1.00025 0.998512
1.00221 0.99885 1.00437 0.999002
1.00168 1.0724 0.936624 0.997259
1.00707 0.999655 1.00901 0.998421
1.01022 1 1.01226 0.997988
0.996304 1.05543 0.946745 0.997082
1.0104 1.02628 0.987891 0.9966
0.97478 1.00189 0.975376 0.997503
1.03173 1.00062 1.03343 0.997744
1.05821 1.00264 1.05821 0.997367
0.961234 1.03399 0.932438 0.99699
0.99712 1.01971 0.980694 0.9971
0.974324 1.00266 0.974464 0.9972
0.971628 0.996998 0.976569 0.997936
1.01074 1 1.01294 0.997832
1.02223 0.999204 1.02508 0.998009
1.05412 0.999216 1.05738 0.997702
0.676936 0.805848 0.906462 0.926712
0.87487 0.973939 0.93059 0.96528
1.00889 0.997213 1.01394 0.997802
1.00031 1.00132 1.0028 0.996198
0.977323 1.0287 0.952554 0.997378
0.995433 1.01 0.989031 0.996503
1.00752 1.00609 1.00571 0.99574
0.865837 0.972501 0.925721 0.961759
0.851309 0.958965 0.90758 0.978136
0.941624 0.972673 0.971525 0.996452
0.628451 0.773924 0.87503 0.928004
0.517411 0.710771 0.829837 0.87723
1.00432 0.997882 1.00867 0.997805
0.668723 0.808128 0.894913 0.924667
0.539296 0.70235 0.867763 0.884855
0.980361 1.00671 0.976119 0.997653
1.0099 1.00255 1.01031 0.997049
1.0133 1.00397 1.01209 0.997237
0.92593 0.954897 0.972365 0.997222
0.822676 0.948463 0.905737 0.957649
0.809514 0.911073 0.908827 0.977665
0.608378 0.762283 0.863149 0.924637
0.583603 0.792655 0.836139 0.880552
1.00536 0.997371 1.00954 0.998479
0.578321 0.740222 0.88042 0.887395
0.632092 0.815765 0.866992 0.893717
0.983708 0.989201 0.995834 0.998607
1.0175 1.00253 1.01642 0.998532
0.937007 0.944839 0.995431 0.996262
0.830026 0.903538 0.937708 0.979665
0.760295 0.887932 0.896821 0.954767
0.634559 0.762571 0.898644 0.925985
0.657321 0.863578 0.857844 0.887295
1.00432 0.996454 1.00926 0.99865
1.01196 0.998327 1.01489 0.998787
1.0105 0.996163 1.01533 0.999074
0.998566 1 1.00024 0.998322
0.998392 1 1.00052 0.997876
1.00749 1 1.00966 0.997855
1.0119 1 1.01402 0.997914
1.0099 0.998465 1.01309 0.998385
0.998878 1 1.00102 0.997858
1.01084 1 1.01273 0.998131
1.00363 1 1.00591 0.99773
1.02505 0.995968 1.03068 0.998559
1.04258 0.993491 1.05036 0.999094
1.01894 1 1.02079 0.998187
1.00189 1 1.0042 0.997699
0.9999 1 1.00198 0.997921
1.00322 0.999855 1.00516 0.998214
1.00137 1 1.00348 0.997899
1.0011 1.00007 1.00282 0.998219
1.00597 0.99806 1.00942 0.998518
1.00612 0.99941 1.00853 0.998201
1.01468 0.998102 1.01841 0.998233
1.00324 0.995589 1.00913 0.998564
1.00816 1 1.01008 0.9981
1.00326 1.00508 1.00093 0.997262
1.01337 1 1.01555 0.997857
1.01215 0.999761 1.01437 0.998053
1.01278 1 1.0148 0.99801
1.00656 1 1.00833 0.998245
1.00297 1 1.00452 0.998454
1.00502 1 1.0068 0.998238
1.00224 1 1.00373 0.998516
0.999282 1 1.00004 0.999247
1.00007 1 1.00168 0.998396
0.9993 1 1 0.9993
0.999975 1 1 0.999975
0.999331 1 1 0.999331
0.999989 1 1 0.999989
1 1 1 1
0.999997 1 1 0.999997
1 1 1 1
1 1 1 1
0.99907 1 1 0.99907
0.999806 1 1 0.999806
0.999097 1 1 0.999097
1 1 1 1
0.99985 1 1 0.99985
0.999817 1 1 0.999817
1 1 1 1
1 1 1 1
0.999997 1 1 0.999997
1 1 1 1
1 1 1 1
0.654319 0.79775 0.893641 0.917824
0.549997 0.722195 0.860771 0.884746
0.875704 0.966271 0.922516 0.982392
0.967352 1.02465 0.949041 0.994773
1.06826 1.11821 0.958092 0.997117
0.887898 0.959171 0.940221 0.984548
0.981745 1.0413 0.946802 0.995778
0.880816 0.982426 0.932149 0.961834
0.609727 0.776904 0.853154 0.9199
0.504215 0.690321 0.827703 0.88245
0.906367 0.992545 0.923519 0.988799
0.843557 0.955065 0.917517 0.962648
0.599206 0.761597 0.849405 0.926266
0.583343 0.783768 0.842337 0.88359
1.00093 1 1.00271 0.998225
0.998933 1 1.00019 0.998739
0.999299 1 1.00014 0.99916
0.999343 1 1.0007 0.998646
0.999561 1 1.00094 0.998623
0.999838 1 1.00184 0.998005
0.998889 1 1.00055 0.998342
0.999242 1 1.00123 0.998017
0.99872 1 1.00029 0.998434
0.998624 1 1 0.998624
0.995785 1.07212 0.931301 0.997315
0.994259 1.05306 0.946946 0.997057
1.01052 1.02836 0.985845 0.996767
0.977069 1.00197 0.977736 0.997355
1.04832 1.00424 1.04659 0.997415
1.04282 1.00158 1.04392 0.997373
1.0111 1 1.01293 0.998193
1.00636 0.999207 1.00878 0.998386
0.960936 1.03473 0.931343 0.997141
1.01363 1 1.01589 0.997772
1.02161 0.998396 1.02532 0.997983
0.987084 1.01559 0.974817 0.997037
0.971993 1.00206 0.972638 0.997286
0.973165 0.998393 0.976774 0.997909
1.04714 0.99891 1.05076 0.997644
0.945237 1.00215 0.945932 0.997127
0.968847 0.99711 0.973448 0.998157
1.01093 0.990787 1.0222 0.998168
1.01084 1 1.01318 0.99769
1.02457 0.999023 1.02791 0.997721
1.02983 0.99891 1.03319 0.997838
0.603548 0.751593 0.890948 0.901314
0.674506 0.803535 0.904753 0.927793
0.867551 0.974171 0.929498 0.958101
1.00338 0.996949 1.00865 0.997811
1.00951 1.00274 1.00974 0.997042
0.981514 1.00796 0.976085 0.997624
1.01124 1.0023 1.01158 0.997374
0.6752 0.802334 0.905609 0.929259
0.827508 0.949757 0.909537 0.957942
0.804576 0.908731 0.908044 0.975044
0.927074 0.952255 0.976001 0.997496
0.60524 0.769572 0.856816 0.917891
0.528543 0.691896 0.860805 0.887432
0.591073 0.796204 0.836441 0.887526
1.0048 0.996988 1.00942 0.998428
0.581446 0.739321 0.881119 0.89257
0.650014 0.83455 0.871943 0.89327
0.980766 0.986464 0.995494 0.998724
1.01654 1.00106 1.01702 0.998476
0.934492 0.942955 0.993883 0.997125
0.817669 0.908816 0.921195 0.976675
0.790276 0.899293 0.914832 0.960586
0.636802 0.771198 0.898939 0.918562
0.651013 0.855284 0.853039 0.8923
1.00622 0.994729 1.01213 0.999431
0.674782 0.83885 0.891031 0.902789
0.662073 0.846937 0.87117 0.897329
0.97062 0.949857 1.02215 0.999715
0.868619 0.903796 0.975028 0.985693
0.793557 0.868549 0.953515 0.958201
0.729926 0.858357 0.929455 0.914918
0.70544 0.908965 0.866575 0.895585
1.00992 0.998936 1.01227 0.998736
1.01298 0.995988 1.01802 0.999059
1.02433 0.984385 1.04125 0.999354
0.998956 1 1.00111 0.997852
1.0027 1 1.00498 0.997733
1.0109 1 1.01286 0.998068
1.023 0.994371 1.03021 0.998624
1.00226 1 1.00457 0.997699
1.01771 0.999427 1.02016 0.998176
1.04762 0.993273 1.05559 0.999173
1.04126 0.982062 1.06086 0.999446
1.04548 0.994542 1.0522 0.999068
1.01187 0.999532 1.01429 0.998078
1.00112 1 1.00324 0.997887
1.00172 1.00015 1.00338 0.998196
1.00132 0.996338 1.00637 0.998643
1.01348 0.998187 1.01709 0.998259
1.00318 0.999875 1.00512 0.998195
1.00729 0.995505 1.01326 0.998598
1.01425 0.999021 1.01697 0.998304
1.02154 0.991954 1.03089 0.998962
1.00157 1.00172 1.00156 0.998291
1.00644 1.00084 1.0075 0.99811
0.999497 1.00126 1.00069 0.997547
1.00917 1.01154 1.00153 0.996142
1.00697 1.00246 1.00695 0.997565
1.00163 1.00327 1.00075 0.997622
1.01257 1 1.01475 0.99785
1.021 1 1.02328 0.99777
1.01007 1 1.01203 0.998056
1.0128 1 1.01482 0.998012
1.00568 1 1.00744 0.998249
1.0075 1 1.00927 0.998247
1.00498 1 1.00654 0.998451
1.00177 1 1.00261 0.999161
1.00214 1 1.00362 0.998527
1.00012 1 1.00087 0.999248
0.999945 1 1 0.999945
0.999304 1 1 0.999304
0.999966 1 1 0.999966
1 1 1 1
0.999985 1 1 0.999985
1 1 1 1
1 1 1 1
0.99877 1 1.00007 0.998705
0.999724 1 1 0.999724
0.998974 1 1 0.998974
1 1 1 1
0.999813 1 1 0.999813
0.999099 1 1 0.999099
1 1 1 1
1 1 1 1
0.99985 1 1 0.99985
1 1 1 1
1 1 1 1
1 1 1 1
0.563042 0.729462 0.867296 0.88996
0.664344 0.804752 0.894385 0.923009
0.647912 0.836185 0.867825 0.892856
0.547481 0.724136 0.85584 0.883399
0.887235 0.963787 0.93767 0.981765
0.983921 1.03885 0.950868 0.996067
0.877832 0.984337 0.927381 0.961633
0.624221 0.773209 0.870389 0.927531
0.517944 0.716515 0.824832 0.876378
0.912088 0.987177 0.935491 0.987648
0.819404 0.944572 0.908608 0.954743
0.613102 0.768359 0.863507 0.924065
0.571434 0.77539 0.838089 0.879338
0.865573 0.957765 0.918925 0.983478
0.757704 0.871917 0.911263 0.953632
0.665681 0.810422 0.898022 0.914677
0.648851 0.854061 0.858407 0.88504
1.0045 1 1.00673 0.997786
1.00073 1 1.00245 0.998285
0.998781 1 1 0.998781
0.998853 1 1.00009 0.998759
0.999041 1 1.00147 0.99757
0.999309 1 1.00124 0.998073
0.999057 1 1.00072 0.998334
0.998877 1 1.00089 0.997989
0.998937 1 1.00088 0.998056
0.998554 1 1.00017 0.99838
0.961712 1.03585 0.930952 0.997287
0.979027 1.01191 0.97043 0.99698
0.967852 1.00129 0.969154 0.997371
0.97525 1.00015 0.977175 0.997884
1.03807 0.999145 1.04148 0.997584
1.0211 0.99848 1.02474 0.997958
1.01546 1 1.01778 0.997713
1.01024 1 1.01264 0.997632
0.946715 1.00202 0.947422 0.997235
1.01987 0.999044 1.02322 0.997679
1.02897 0.998737 1.03253 0.997816
0.967935 0.998526 0.971151 0.998159
1.00426 0.993862 1.01236 0.998124
0.940184 0.970166 0.971623 0.997398
0.957023 0.958307 0.999429 0.999231
1.04245 0.986711 1.05821 0.998377
1.00901 0.999437 1.01178 0.997827
1.03311 0.997279 1.03801 0.998004
0.689597 0.853194 0.889664 0.908492
0.597176 0.750738 0.884425 0.8994
0.664951 0.798807 0.904077 0.920751
1.00481 0.997489 1.00897 0.998381
1.0158 0.999155 1.01827 0.998417
0.975644 0.983946 0.992706 0.998847
0.574368 0.733945 0.876758 0.89258
0.762867 0.879334 0.909242 0.954148
0.822514 0.906045 0.927873 0.978375
0.923779 0.936629 0.988221 0.998036
0.648082 0.784184 0.89222 0.926275
0.663158 0.84671 0.876901 0.893166
0.649024 0.851657 0.85346 0.89292
1.00373 0.994451 1.00996 0.999376
0.67739 0.841761 0.889422 0.904778
0.658587 0.842066 0.871251 0.897683
0.972811 0.954875 1.0193 0.999494
0.880589 0.916074 0.975274 0.985635
0.766457 0.867027 0.928767 0.951806
0.698595 0.903306 0.864245 0.894857
0.74658 0.860285 0.944835 0.918498
0.990538 0.956227 1.03618 0.999711
0.668956 0.833114 0.884422 0.90789
0.705179 0.887534 0.880155 0.902724
0.646772 0.85262 0.856914 0.885235
0.926613 0.917702 1.01356 0.996201
0.858359 0.90152 0.991731 0.960063
0.807493 0.926457 0.943782 0.92351
1.01607 0.996003 1.02113 0.999043
1.02738 0.988848 1.03972 0.99927
1.03805 0.978619 1.06119 0.999566
1.00274 1 1.00505 0.9977
1.0165 0.999089 1.0193 0.998164
1.05205 0.991691 1.06166 0.999251
1.01426 0.999449 1.01676 0.998087
1.04534 0.994437 1.05216 0.999079
1.04843 0.98257 1.06764 0.999421
1.0339 0.974683 1.0613 0.999489
1.03011 0.993773 1.03754 0.999058
1.01239 0.998302 1.01585 0.998287
1.00217 1.00024 1.00374 0.998189
1.01236 0.996589 1.01722 0.998633
1.02099 0.994224 1.02802 0.998933
1.01881 0.999886 1.02064 0.998315
1.00768 0.999277 1.00961 0.998818
1.00178 0.999843 1.00328 0.998659
1.00407 1.00136 1.00572 0.996994
1.00495 1.00238 1.00444 0.99813
1.00115 1.00313 1.0006 0.997422
1.00259 1.00462 1.00227 0.995722
1.02464 1.02793 1.00129 0.995512
1.00975 1.00999 1.00269 0.99708
1.00567 1.00811 1.00138 0.996206
1.01518 1.00026 1.01751 0.997454
1.00824 1.00342 1.00723 0.997592
1.00018 1.00162 1.00059 0.997977
1.01227 1 1.01446 0.997843
1.01998 1 1.02224 0.997793
1.01176 1 1.01378 0.998011
1.0129 1 1.01492 0.998014
1.00485 1 1.00662 0.998248
1.00269 1 1.0037 0.998992
1.0035 1 1.00506 0.998448
1.00148 1 1.00233 0.999156
0.999916 1 1 0.999916
1.00027 1 1.00102 0.999249
0.999937 1 1 0.999937
1 1 1 1
0.999958 1 1 0.999958
1 1 1 1
1 1 1 1
0.998956 1 1.0006 0.998353
0.999431 1 1 0.999431
0.998894 1 1.00019 0.998703
0.999999 1 1 0.999999
0.999654 1 1 0.999654
0.998879 1 1 0.998879
1 1 1 1
1 1 1 1
0.999819 1 1 0.999819
1 1 1 1
1 1 1 1
1 1 1 1
0.688453 0.861322 0.885402 0.902752
0.574469 0.732093 0.875727 0.896048
0.651727 0.797103 0.886886 0.921899
0.999359 1 1.00148 0.997887
0.659421 0.838578 0.872549 0.901217
0.648797 0.835399 0.870016 0.892664
0.564452 0.744044 0.853027 0.889334
0.919723 0.992117 0.939846 0.986365
0.820755 0.936052 0.911643 0.96181
0.606095 0.775689 0.852099 0.916987
0.559745 0.753658 0.84042 0.883729
0.861671 0.953707 0.922082 0.979845
0.784432 0.890059 0.918029 0.96002
0.652744 0.788527 0.903856 0.915857
0.650218 0.854231 0.858564 0.886567
0.803479 0.8991 0.916251 0.97533
0.77138 0.857007 0.94149 0.956023
0.756859 0.866874 0.949332 0.919688
0.704154 0.90443 0.869336 0.895581
1.00207 1 1.00437 0.997707
1.00507 1 1.00733 0.997759
1.0006 1 1.00226 0.998345
0.998798 1 1.00104 0.997761
0.999619 1 1.00198 0.997648
0.999488 1 1.00135 0.998139
0.99884 1 1.00085 0.997989
0.998967 1 1.00087 0.998094
0.948662 1.00295 0.948415 0.997315
0.968295 1.00115 0.968958 0.998171
1.00922 1 1.01168 0.997571
0.997266 0.996597 1.0026 0.998079
1.02869 0.997231 1.03383 0.997793
1.02023 1 1.02265 0.997635
1.01351 0.999981 1.01576 0.997805
0.941513 0.968573 0.974434 0.997566
1.03041 0.99841 1.03411 0.998003
1.03355 0.991194 1.04438 0.998422
0.960774 0.963027 0.998384 0.999276
1.01654 0.999856 1.01865 0.998065
0.92401 0.933985 0.992496 0.996801
0.988197 0.959889 1.03003 0.999476
1.06983 0.994321 1.07752 0.998536
1.05841 0.996661 1.06386 0.998211
0.669093 0.828723 0.885002 0.91229
0.688567 0.852468 0.89004 0.907526
0.591658 0.748717 0.880554 0.897422
1.0003 0.99429 1.00673 0.999322
0.975873 0.958678 1.01868 0.999274
0.683192 0.847766 0.888826 0.906672
0.785728 0.852561 0.960505 0.959506
0.869141 0.913869 0.969132 0.981347
0.7366 0.851749 0.943783 0.916322
0.657759 0.840759 0.871243 0.897959
0.696436 0.901432 0.864085 0.894111
0.999363 0.968 1.03274 0.999669
0.670272 0.835003 0.884122 0.907927
0.709589 0.887387 0.883728 0.904847
0.943185 0.929501 1.01595 0.998792
0.648401 0.85278 0.857522 0.88667
0.825953 0.879816 0.982003 0.955984
0.80514 0.918002 0.950186 0.923037
0.992603 0.95823 1.03625 0.999632
0.711169 0.873695 0.891313 0.913235
0.66093 0.836903 0.875577 0.901957
0.580466 0.780968 0.841121 0.88366
0.751892 0.862374 0.948734 0.919
0.925545 0.926947 1.00777 0.990789
0.872843 0.908775 1.01073 0.950264
1.0289 0.994227 1.03572 0.999188
1.0336 0.973336 1.06241 0.999534
1.01737 0.952934 1.06807 0.999582
1.01579 0.998832 1.01892 0.998096
1.0464 0.99315 1.05458 0.999091
1.05701 0.984354 1.07446 0.999396
1.0244 0.993536 1.03205 0.999045
1.0303 0.975917 1.05626 0.999488
0.992561 0.97359 1.02027 0.999235
1.02017 0.995859 1.02554 0.998903
1.02323 0.999241 1.02572 0.998329
1.01361 0.99921 1.01564 0.99879
1.0066 0.998017 1.01062 0.998005
1.00142 0.998487 1.00392 0.999026
0.998071 1.00113 0.999696 0.997245
1.00738 1.00293 1.00945 0.995033
1.00792 1.01032 1.00283 0.994804
1.00253 1.005 1.00026 0.997286
1.003 1.0055 1.00205 0.995481
1.02329 1.02733 1.00053 0.995541
1.0206 1.02178 1.00261 0.996248
1.02117 1.02437 1.00125 0.995628
1.01294 1.00587 1.00982 0.997238
1.013 1.01266 1.00331 0.997036
1.00121 1.00367 1.00128 0.996273
1.01925 1 1.02151 0.997786
1.01454 1.00043 1.01666 0.997487
1.0094 1.00426 1.00752 0.997618
1.01871 1 1.02094 0.997816
1.01198 1 1.014 0.998013
1.00747 1 1.00873 0.998748
1.0061 1 1.00787 0.998246
1.00346 1 1.00448 0.998986
0.999875 1 1 0.999875
1.0025 1 1.00335 0.999153
0.999909 1 1 0.999909
1 1 1 1
0.999929 1 1 0.999929
1 1 1 1
1 1 1 1
0.999414 1 1.00116 0.998257
0.99978 1 1.0006 0.999184
0.999176 1 1.00076 0.99842
0.999989 1 1 0.999989
0.999404 1 1 0.999404
0.998906 1 1.00021 0.998701
1 1 1 1
0.999999 1 1 0.999999
0.999584 1 1 0.999584
1 1 1 1
1 1 1 1
1 1 1 1
0.674339 0.836026 0.884998 0.911415
0.688269 0.858959 0.887547 0.902806
0.575959 0.730469 0.879932 0.896068
0.999515 1 1.00159 0.99793
1.00529 1 1.00749 0.997812
0.998601 1 1.00066 0.99794
0.709728 0.891443 0.882514 0.902146
0.658356 0.840442 0.868881 0.901557
0.646763 0.836766 0.866006 0.892524
0.866543 0.960289 0.91886 0.982061
0.753427 0.880024 0.897753 0.953652
0.662202 0.778322 0.919065 0.925731
0.653187 0.86158 0.858034 0.883563
0.809947 0.904369 0.915193 0.978585
0.787438 0.867829 0.949593 0.95553
0.748 0.859677 0.945144 0.920595
0.699041 0.901895 0.866272 0.894731
0.827492 0.897728 0.944669 0.975752
0.827474 0.884253 0.977387 0.957439
0.808752 0.922809 0.948576 0.923914
0.661421 0.865521 0.860882 0.887681
0.999681 0.999862 1.00186 0.997961
1.00176 1 1.00411 0.997661
1.00423 1 1.00651 0.997732
0.998552 1 1.00081 0.997743
0.999526 1 1.0018 0.997728
0.998566 1 1.00058 0.997988
0.938145 0.961631 0.977769 0.997757
0.96274 0.963175 1.00025 0.999295
1.01262 1 1.01487 0.997786
1.02904 0.997485 1.03322 0.998466
1.02642 0.999777 1.02871 0.998002
1.01496 0.99886 1.01807 0.998083
1.04036 0.991195 1.05145 0.998248
0.927453 0.932144 0.998048 0.996913
1.06388 0.989996 1.07605 0.998678
0.988697 0.948416 1.04326 0.999246
1.02558 0.988184 1.03949 0.998418
0.946942 0.930924 1.02091 0.996375
1.0096 0.957863 1.05499 0.999068
1.0277 0.960533 1.07122 0.998792
0.729818 0.887133 0.899711 0.914371
0.674945 0.832442 0.888443 0.91261
0.686781 0.851967 0.889192 0.906567
1.00863 0.979392 1.03024 0.999627
0.931766 0.928544 1.00672 0.996767
0.670504 0.835219 0.884161 0.907966
0.822084 0.865202 0.989343 0.960399
0.797069 0.921515 0.94274 0.91749
0.71193 0.888778 0.883197 0.906957
0.65317 0.860629 0.858694 0.883836
0.985591 0.95204 1.03553 0.999725
0.70857 0.868806 0.892273 0.914034
0.664246 0.844933 0.871243 0.902334
0.920517 0.922479 1.01214 0.985907
0.568442 0.770823 0.838376 0.879616
0.747545 0.858482 0.947041 0.91947
0.864018 0.905311 0.995646 0.958562
1.0057 0.945647 1.06587 0.997788
0.676168 0.834784 0.888207 0.911941
0.659727 0.843145 0.875689 0.893537
0.49406 0.667238 0.83273 0.889192
0.652673 0.798815 0.893716 0.914218
0.835186 0.880795 0.991005 0.956825
0.888065 0.907596 0.996503 0.981914
1.02805 0.969874 1.06051 0.999501
1.02711 0.96686 1.06277 0.999575
1.00204 0.962693 1.04146 0.999437
1.0189 0.994555 1.02547 0.999032
1.02646 0.9775 1.05063 0.999487
0.99793 0.970382 1.02909 0.999319
1.01143 0.993172 1.01965 0.998752
1.02099 0.999748 1.02251 0.998761
1.0038 0.999526 1.00661 0.997682
1.02994 1.00111 1.03334 0.995609
0.992078 1.00049 0.994078 0.997502
1.00861 1.00259 1.01095 0.995117
1.00804 1.00406 1.00985 0.994177
1.01415 1.01785 1.00191 0.994472
1.01473 1.01853 1.00108 0.995197
1.00775 1.00993 1.00312 0.994746
1.00314 1.00623 1.00169 0.995243
1.0162 1.0193 1.0011 0.99587
1.02529 1.02929 1.00048 0.995637
1.01221 1.01056 1.00501 0.996635
1.02243 1.02339 1.00274 0.996338
1.01972 1.02288 1.00117 0.995744
1.01783 1.00316 1.01715 0.99751
1.0139 1.00663 1.01002 0.997224
1.01646 1.01563 1.00383 0.99699
1.0145 1 1.01603 0.998493
1.01783 1 1.02009 0.997785
1.01492 1.00069 1.01675 0.99752
1.01163 1 1.01364 0.998016
1.00653 1 1.0078 0.998745
1.00028 1 1.00049 0.99979
1.00286 1 1.00388 0.998979
0.999863 1 1 0.999863
1 1 1 1
0.999902 1 1 0.999902
1 1 1 1
1 1 1 1
0.999409 1 1.00124 0.998176
1.00031 1 1.0012 0.999116
0.999785 1 1.0015 0.998284
0.999962 1 1 0.999962
0.99957 1 1.00033 0.999237
0.999293 1 1.00081 0.998487
1 1 1 1
0.999993 1 1 0.999993
0.999377 1 1 0.999377
1 1 1 1
1 1 1 1
1 1 1 1
0.708109 0.871244 0.890661 0.912532
0.680844 0.837643 0.89176 0.911467
0.690524 0.858424 0.890919 0.902898
1.02235 1 1.02473 0.99768
1.00656 1.00072 1.00809 0.997759
0.999093 1 1.00112 0.997973
1.00494 1 1.00717 0.997788
0.999123 1 1.00115 0.997972
1.00574 1 1.00784 0.997909
0.997131 0.998978 1 0.998152
0.6686 0.855157 0.871136 0.897501
0.71279 0.889914 0.885733 0.904296
0.664151 0.83911 0.877589 0.901896
0.697195 0.901405 0.865278 0.893878
0.814065 0.910772 0.916078 0.975702
0.79429 0.866718 0.959951 0.954667
0.753901 0.873923 0.932714 0.924895
0.814115 0.900113 0.928042 0.974588
0.831174 0.877634 0.996209 0.950667
0.804164 0.915987 0.950434 0.923706
0.654388 0.858902 0.853528 0.892635
0.864617 0.905772 0.975919 0.978117
0.851743 0.891209 1.00547 0.950515
0.73353 0.861152 0.930387 0.915534
0.581229 0.785158 0.839235 0.882076
1.04548 0.997738 1.04955 0.998375
1.00169 0.999602 1.0041 0.997996
1.00281 1 1.00521 0.997614
0.998599 1 1.00088 0.997725
0.937068 0.935526 1.00462 0.997044
0.987878 0.940761 1.05112 0.99901
1.01279 0.997945 1.01681 0.998101
1.02984 0.990819 1.04117 0.998285
1.04799 0.976092 1.07492 0.998821
1.02746 0.993831 1.03547 0.99842
1.03851 0.960755 1.08226 0.998779
0.946723 0.929937 1.02376 0.994422
1.01027 0.950577 1.06361 0.999237
1.01208 0.969174 1.04541 0.998906
0.936875 0.914652 1.0313 0.993215
0.985865 0.933343 1.05707 0.999242
0.674888 0.829572 0.89114 0.912918
0.725045 0.881431 0.897163 0.916864
0.682775 0.83626 0.894342 0.912921
0.97662 0.941939 1.03702 0.999805
0.927742 0.926473 1.01013 0.991332
0.704368 0.863155 0.891994 0.914847
0.879609 0.916027 1.00937 0.95133
0.74946 0.86873 0.933734 0.923934
0.671077 0.846021 0.878757 0.902657
0.557917 0.748771 0.842991 0.883889
1.00632 0.947689 1.06391 0.998082
0.681829 0.840974 0.888982 0.91201
0.653138 0.834772 0.875805 0.893366
0.890235 0.907388 0.996204 0.984835
0.507515 0.691113 0.83139 0.883272
0.643308 0.778524 0.903029 0.91505
0.833096 0.881906 0.992891 0.951417
0.98877 0.947256 1.04868 0.995369
0.694491 0.868168 0.885765 0.903117
0.546608 0.714787 0.863489 0.885611
0.598963 0.760882 0.849255 0.926926
0.774998 0.845228 0.957542 0.957565
0.837744 0.880461 0.974036 0.976847
1.03483 0.972699 1.06432 0.99959
1.00669 0.96072 1.04843 0.99945
0.982147 0.967172 1.0163 0.999197
1.00329 0.967029 1.03811 0.999402
1.01212 0.981422 1.03245 0.998869
1.01833 1.0008 1.01999 0.997572
1.00044 1.00103 1.00206 0.997362
1.02968 1.0014 1.03297 0.995416
1.01707 1.00329 1.01938 0.994465
1.01008 1.0025 1.01242 0.995201
1.0093 1.00427 1.01099 0.994081
1.00477 1.0063 1.00448 0.99403
1.04924 1.05482 0.999875 0.99484
1.02836 1.0329 1.00077 0.994844
1.01411 1.01759 1.00218 0.994415
1.01656 1.02101 1.00013 0.995512
1.01267 1.01674 1.00074 0.995262
1.00758 1.00936 1.00357 0.994687
1.01875 1.02112 1.00179 0.995894
1.01652 1.01966 1.00108 0.995843
1.02608 1.03004 1.00043 0.995734
1.01027 1.00505 1.00817 0.997056
1.01317 1.01041 1.006 0.996757
1.02296 1.02366 1.00289 0.99643
1.017 1.00237 1.01645 0.998171
1.01709 1.00392 1.01563 0.997517
1.01421 1.00763 1.00935 0.997209
1.00304 1 1.00337 0.999671
1.01413 1.00019 1.01547 0.998491
1.01601 1 1.01827 0.997783
1.00635 1 1.00762 0.998742
1.00089 1 1.00112 0.999776
1 1 1 1
0.999867 1 1.00001 0.999852
1 1 1 1
1 1 1 1
1.01633 1.00025 1.01842 0.997702
1.00962 1 1.01169 0.997948
1.00017 1 1.00127 0.998899
1.00099 1 1.00283 0.998171
0.999923 1 1 0.999923
1.00025 1 1.00113 0.999118
1.00083 1 1.00252 0.998312
1 1 1 1
0.999971 1 1 0.999971
0.999355 1 1.00007 0.999288
1 1 1 1
0.999997 1 1 0.999997
1 1 1 1
0.674398 0.836398 0.887846 0.908167
0.702694 0.866356 0.888026 0.913364
0.680703 0.841295 0.887664 0.911509
1.02446 1 1.02685 0.997673
1.0098 1.00071 1.01132 0.997789
0.99805 1.00131 0.999192 0.997548
1.02641 0.999954 1.02875 0.997773
1.00719 1.00183 1.00754 0.997821
1.00711 1 1.00937 0.997763
0.999733 1 1.00173 0.998002
1.00679 0.999598 1.0093 0.997915
0.998464 0.999947 1.00031 0.99821
1.02604 0.999614 1.02825 0.998241
0.637253 0.823139 0.866223 0.893735
0.665445 0.848008 0.873918 0.897927
0.711161 0.889312 0.882215 0.906441
0.651917 0.857317 0.851295 0.893246
0.799013 0.918834 0.947321 0.917951
0.80905 0.893552 0.930715 0.972835
0.833862 0.878211 0.992457 0.956718
0.854968 0.909833 0.964911 0.97387
0.854844 0.904731 0.987317 0.956998
0.750176 0.859782 0.948644 0.919754
0.58766 0.797558 0.836725 0.880605
0.880038 0.906356 0.994104 0.976721
0.835254 0.869844 1.00252 0.957821
0.643467 0.767352 0.905676 0.925888
0.532785 0.708538 0.845631 0.889218
1.03628 0.998778 1.03867 0.998928
1.04708 0.997183 1.05174 0.998382
1.00645 1 1.00844 0.998033
0.944368 0.928213 1.02525 0.99235
1.01227 0.946768 1.06985 0.999375
1.02863 0.997065 1.03329 0.998422
1.05304 0.959756 1.09855 0.998767
1.01711 0.974573 1.04479 0.998912
0.991876 0.942987 1.05263 0.999256
0.935411 0.915215 1.02903 0.993235
1.00773 0.982182 1.02669 0.999345
0.955186 0.94115 1.02041 0.994615
0.697207 0.858918 0.893886 0.908088
0.68556 0.83834 0.895479 0.913208
0.718881 0.875843 0.892735 0.919408
1.01008 0.95861 1.05548 0.998305
0.885596 0.908106 0.995486 0.979635
0.691116 0.849219 0.892285 0.912069
0.837578 0.882768 0.994514 0.954043
0.648477 0.766266 0.91525 0.924645
0.643084 0.831006 0.866293 0.893302
0.519644 0.716462 0.826761 0.877268
0.985919 0.946185 1.04647 0.995727
0.691662 0.861197 0.889306 0.903109
0.546744 0.719563 0.859272 0.88427
0.851988 0.895801 0.971789 0.978701
0.612124 0.76779 0.862308 0.924559
0.770164 0.857799 0.941516 0.953608
0.931471 0.929192 1.00906 0.993453
0.564758 0.729573 0.869184 0.890599
0.629038 0.783304 0.865013 0.928375
0.759622 0.875907 0.909361 0.95368
0.810614 0.88732 0.932566 0.979611
1.01003 0.960961 1.05162 0.999467
0.985064 0.95832 1.02876 0.999166
0.995901 0.986814 1.01084 0.99839
1.01249 0.968006 1.04702 0.998979
1.01107 0.998937 1.01451 0.997669
0.991954 1.00434 0.991212 0.996427
1.02882 1.00134 1.03238 0.995219
1.01562 1.00454 1.01666 0.994458
1.00361 1.00755 1.0011 0.994988
1.01008 1.00438 1.01176 0.993985
1.0043 1.00657 1.0037 0.994071
1.04113 1.04882 0.997534 0.99512
1.0737 1.0836 0.995156 0.995689
1.06278 1.06816 1.00002 0.994944
1.05014 1.05586 0.999702 0.994874
1.03779 1.04286 1 0.995143
1.02707 1.03135 1.00107 0.994783
1.01492 1.01819 1.00244 0.994358
1.03235 1.03693 1 0.995584
1.01449 1.01897 1.00002 0.995581
1.01047 1.01489 1.00032 0.995326
1.01614 1.01469 1.00506 0.996383
1.01553 1.01701 1.00259 0.995971
1.01776 1.02092 1.0011 0.995815
1.01753 1.00315 1.01667 0.997706
1.0143 1.00719 1.01004 0.997051
1.01415 1.01038 1.00688 0.996878
1.00526 1 1.00573 0.999535
1.01773 1.00296 1.01659 0.99817
1.01723 1.00478 1.01491 0.997524
0.999916 1 1 0.999916
1.00425 1 1.0046 0.999655
1.01368 1.00015 1.01506 0.99849
1.00154 1 1.00178 0.999763
1 1 1 1
1 1 1 1
1.01055 1.00295 1.0101 0.997508
1.0158 1.00014 1.01798 0.99772
1.01923 1.00004 1.02156 0.997674
1.00353 1 1.00487 0.998668
1.00799 1.00007 1.01 0.997942
0.999966 1 1.0001 0.999871
1.0009 1 1.002 0.998903
1.0019 1 1.00374 0.998165
1 1 1 1
0.999935 1 1 0.999935
0.999946 1 1.00083 0.99912
1 1 1 1
0.99998 1 1 0.99998
1 1 1 1
0.680422 0.845247 0.886774 0.907782
0.67837 0.840578 0.888576 0.908227
0.703505 0.859259 0.8956 0.914174
1.00844 1.00439 1.00674 0.997308
1.0218 1 1.02419 0.997666
1.00639 1 1.00859 0.997822
1.01954 1 1.02188 0.997709
1.00037 1.0032 0.999605 0.997572
1.00253 1.00087 1.00363 0.998037
1.01688 1.00267 1.01718 0.997039
1.01977 0.992931 1.02901 0.998072
1.00704 0.99925 1.0099 0.997922
0.998267 1 1 0.998267
1.02767 0.998001 1.03155 0.998226
1.04525 1.00125 1.04554 0.998474
0.567603 0.731032 0.873539 0.888844
0.65365 0.840167 0.870926 0.893301
0.66525 0.845058 0.876391 0.898256
0.594517 0.800885 0.836447 0.887474
0.740701 0.853579 0.945167 0.918102
0.856478 0.89726 1.00411 0.950637
0.859324 0.908546 0.970419 0.974655
0.875663 0.902871 0.9906 0.979069
0.526581 0.710746 0.838838 0.883229
0.827356 0.876051 0.991498 0.952514
0.645674 0.775919 0.906181 0.918295
0.875096 0.910251 0.979589 0.98141
0.796289 0.86547 0.958528 0.959873
0.598559 0.758181 0.852811 0.925723
0.986666 1.00125 0.985882 0.999541
1.0385 0.99945 1.04018 0.998934
1.04653 0.996892 1.05149 0.998386
0.93912 0.918802 1.02903 0.993282
0.99916 0.954858 1.04716 0.999273
1.02447 0.983827 1.04244 0.998919
1.00403 0.97909 1.02614 0.999349
0.950766 0.940328 1.01651 0.994676
0.976615 0.9748 1.00527 0.996615
0.59919 0.748127 0.893022 0.896865
0.693007 0.855978 0.889596 0.910086
0.690259 0.845141 0.894137 0.913438
0.985325 0.944657 1.04731 0.995934
0.84684 0.893833 0.967165 0.979591
0.687257 0.853066 0.891941 0.903234
0.786776 0.856708 0.96309 0.953567
0.607044 0.776912 0.851455 0.917671
0.56699 0.742177 0.858315 0.890064
0.930284 0.922598 1.01494 0.993486
0.576593 0.732319 0.878173 0.896581
0.612681 0.777597 0.85589 0.920581
0.80884 0.893621 0.928177 0.975166
0.787218 0.896245 0.914884 0.960069
0.924254 0.94439 0.981624 0.996999
0.654473 0.795762 0.895764 0.918153
0.847258 0.95805 0.918697 0.962621
0.804424 0.906669 0.910197 0.974767
0.989312 0.951777 1.04033 0.999141
0.982374 0.985937 0.997913 0.99847
0.989376 1.00033 0.991729 0.997302
1.00389 0.997559 1.0086 0.997767
0.994468 1.00426 0.993847 0.996385
0.997766 1.00969 0.991902 0.996261
1.01511 1.00634 1.01433 0.994451
1.00352 1.00723 1.00134 0.994985
1.03513 1.05044 0.989246 0.996141
1.00389 1.00663 1.00319 0.994113
1.0396 1.04772 0.997109 0.995126
1.06968 1.08627 0.988326 0.996365
1.06572 1.08115 0.989195 0.9965
1.07623 1.08397 0.997246 0.995601
1.07576 1.08569 0.995097 0.99574
1.06935 1.07453 1 0.995177
1.0604 1.0657 1 0.995024
1.04977 1.05565 0.999517 0.994908
1.05508 1.05997 1 0.995381
1.03815 1.04306 1.00014 0.995162
1.02539 1.02931 1.00148 0.994721
1.03631 1.03946 1.00113 0.995849
1.02937 1.03392 1.00002 0.995581
1.01241 1.01684 1 0.99565
1.0123 1.00665 1.00843 0.997195
1.01905 1.01749 1.00519 0.996372
1.01217 1.0126 1.00354 0.99605
1.00528 1 1.00606 0.99923
1.01628 1.00495 1.0136 0.9977
1.01729 1.0094 1.01081 0.997046
1 1 1 1
1.00542 1 1.00599 0.99944
1.01801 1.00365 1.01616 0.998168
1 1 1 1
1.00536 1 1.00574 0.999621
1 1 1 1
1.00765 1.00794 1.00252 0.997201
1.00874 1.00256 1.00873 0.997456
1.01633 1.00129 1.01751 0.997551
1.00988 1 1.01145 0.99845
1.01828 1.00012 1.02049 0.997717
1.02531 1 1.02773 0.997646
1.00068 1 1.00089 0.999792
1.00267 1 1.004 0.998674
1.00671 1 1.00879 0.997936
1 1 1 1
0.99999 1 1.00011 0.999884
1.00122 1 1.00232 0.998907
1 1 1 1
0.999947 1 1 0.999947
1 1 1 1
0.576358 0.737976 0.879061 0.888446
0.685089 0.851258 0.886461 0.907875
0.682588 0.845669 0.888639 0.908307
1.01516 1.00299 1.01489 0.997278
1.02863 1.01095 1.02071 0.996835
1.03334 1.00228 1.03391 0.997171
1.02 1 1.02241 0.997644
1.0025 1.00596 0.998959 0.997597
1.0002 0.999015 1.00294 0.998246
1.02141 0.99694 1.02663 0.997974
1.01884 1.00268 1.01894 0.997225
1.01898 0.999041 1.02259 0.997426
0.971757 1.00082 0.971971 0.998965
1.02882 0.999165 1.03153 0.998209
1.04023 0.999972 1.04188 0.998437
0.621399 0.778636 0.870707 0.916566
0.541163 0.705038 0.86766 0.88464
0.665645 0.850963 0.875755 0.893201
0.521521 0.71419 0.832628 0.877014
0.656867 0.786678 0.901744 0.92597
0.815381 0.870249 0.982244 0.953889
0.871437 0.897646 0.994764 0.975912
0.860576 0.900933 0.976324 0.978369
0.615518 0.765736 0.870195 0.92373
0.77714 0.861144 0.945997 0.953967
0.838917 0.907629 0.942539 0.980644
0.760073 0.896726 0.887862 0.954663
0.99486 1 0.995788 0.999068
0.986501 1.00074 0.986283 0.999482
1.03913 0.998609 1.04168 0.998939
0.939106 0.932505 1.01238 0.99476
0.99761 0.973104 1.02585 0.999352
0.978766 0.977824 1.0044 0.996575
0.958512 0.984602 0.978118 0.995281
0.679783 0.806974 0.909415 0.926294
0.59357 0.746329 0.887087 0.896552
0.696109 0.857977 0.889655 0.911968
0.932251 0.930076 1.00866 0.993731
0.813052 0.892797 0.933527 0.975526
0.577943 0.731669 0.881078 0.896512
0.756034 0.885661 0.894648 0.954161
0.625804 0.77265 0.872553 0.928247
0.922386 0.948077 0.977476 0.995319
0.667077 0.80575 0.896557 0.923417
0.822321 0.947105 0.90906 0.955104
0.807216 0.906055 0.911188 0.977748
0.929645 0.971945 0.95971 0.996633
0.874726 0.975221 0.932614 0.961761
0.862841 0.957042 0.918351 0.981727
0.96796 0.983454 0.985695 0.998529
0.983973 1.00034 0.986339 0.997264
0.976188 1.00912 0.970241 0.997036
0.996453 1.00382 0.996299 0.996344
0.997225 1.00904 0.992009 0.996248
1.01758 1.05402 0.968391 0.99694
1.00291 1.00648 1.00148 0.994982
1.03171 1.04839 0.987931 0.996113
1.04874 1.08511 0.969404 0.996985
1.03867 1.0472 0.996706 0.995132
1.06813 1.0857 0.987418 0.996353
1.05504 1.08192 0.978094 0.997
1.06169 1.08131 0.984926 0.996886
1.0657 1.08179 0.988515 0.996577
1.06745 1.07843 0.993447 0.99635
1.07973 1.08551 0.999007 0.995665
1.07692 1.08414 0.997699 0.995635
1.07844 1.08843 0.995004 0.995792
1.0747 1.0797 1 0.995363
1.07067 1.07583 1 0.995201
1.05862 1.06383 1 0.995105
1.05654 1.06123 1 0.995587
1.05659 1.06149 1 0.995379
1.03865 1.0435 1.00017 0.99518
1.01321 1.01601 1.00052 0.996726
1.03618 1.03981 1.00065 0.995855
1.02632 1.03082 1.00005 0.995578
1.00463 1 1.00577 0.998865
1.01479 1.00912 1.00845 0.997188
1.02292 1.02061 1.00592 0.996363
1 1 1 1
1.00566 1 1.00646 0.999206
1.01662 1.00674 1.01215 0.997693
0.999934 1 1 0.999934
1.00616 1 1.00672 0.999435
1 1 1 1
1.01803 1.0146 1.00654 0.996863
1.0071 1.00393 1.00596 0.997211
1.00926 1.00344 1.00845 0.997376
1.00554 1.00175 1.0064 0.997404
1.01573 1.00104 1.01716 0.997556
1.01566 1 1.01746 0.998225
1.00202 1 1.00234 0.999674
1.00883 1 1.0104 0.99845
1.01871 1 1.02104 0.997715
1 1 1 1
1.00008 1 1.00027 0.999809
1.00183 1 1.00315 0.998679
1 1 1 1
0.9999 1 1 0.9999
1 1 1 1
0.654301 0.797287 0.888888 0.923243
0.578731 0.738039 0.880422 0.890649
0.686479 0.854048 0.885243 0.907992
1.02042 1.00167 1.02152 0.997248
1.04124 1.00195 1.04247 0.996885
1.02316 1.01012 1.01609 0.996872
1.01449 1.01624 1.00242 0.99587
1.03127 1.00395 1.02997 0.997323
1.01964 0.999948 1.02186 0.997883
1.02021 1.00327 1.01953 0.99741
1.02004 1.00073 1.02179 0.997549
0.995796 1.00803 0.990709 0.997123
0.961023 1.00121 0.961355 0.998449
0.968795 1.00061 0.970483 0.997655
0.977576 1.00111 0.977488 0.998984
1.03437 0.998864 1.03721 0.998402
0.822273 0.941754 0.909731 0.959766
0.615374 0.774572 0.864461 0.919034
0.530308 0.694138 0.861205 0.887106
0.612488 0.77458 0.862227 0.917085
0.782066 0.865085 0.945248 0.956398
0.869863 0.901659 0.982992 0.981429
0.836519 0.904753 0.940702 0.982865
0.794225 0.900517 0.917268 0.961514
0.852897 0.95153 0.912922 0.98184
0.988998 1.00081 0.989947 0.998233
0.996009 0.999698 0.997268 0.999039
0.986857 1.00037 0.987056 0.999424
0.983336 0.982983 1.00377 0.996607
0.967849 0.987555 0.983964 0.996017
0.863741 0.964988 0.934465 0.957852
0.677496 0.805162 0.907146 0.927569
0.58653 0.74213 0.881764 0.896309
0.926019 0.956513 0.974435 0.99352
0.812642 0.917121 0.908738 0.975067
0.656168 0.799695 0.889603 0.922347
0.825625 0.941358 0.911855 0.961839
0.93837 0.973666 0.966896 0.996745
0.882509 0.982828 0.933683 0.961706
0.859685 0.953737 0.921127 0.978568
0.934859 0.999988 0.938603 0.996023
0.904721 0.988432 0.927006 0.987382
0.981699 1.00215 0.982291 0.997257
0.970366 1.00902 0.964597 0.996992
0.975891 1.04366 0.937562 0.99734
0.99634 1.00847 0.991703 0.996234
1.02089 1.05601 0.969748 0.996904
1.03842 1.08961 0.955598 0.997304
1.02822 1.04628 0.986602 0.996085
1.04886 1.0848 0.969819 0.996957
1.04463 1.08416 0.966217 0.997222
1.06602 1.08456 0.986519 0.996341
1.05482 1.08121 0.978552 0.996978
1.05757 1.08579 0.976871 0.997073
1.05964 1.08022 0.983957 0.996943
1.0632 1.08104 0.986763 0.996694
1.06541 1.08208 0.987903 0.996655
1.06703 1.07827 0.993209 0.996342
1.06935 1.07718 0.996611 0.996104
1.07888 1.0838 0.999846 0.995607
1.08012 1.08564 0.999258 0.995653
1.0775 1.08418 0.998161 0.995669
1.0694 1.07425 1 0.995486
1.07653 1.08156 1 0.995352
1.07196 1.0771 1 0.995225
1.02608 1.0298 1.00003 0.99636
1.05582 1.06049 1 0.995593
1.058 1.06292 1 0.995377
1.0012 1.00026 1.00249 0.998452
1.01668 1.01902 1.00097 0.99673
1.03605 1.04003 1.00031 0.995861
1 1 1 1
1.00397 1 1.00513 0.998837
1.01602 1.01152 1.00729 0.997182
1 1 1 1
1.00532 1 1.00615 0.999182
1 1 1 1
1.02751 1.03083 1.00084 0.995939
1.01729 1.01697 1.00348 0.996854
1.01002 1.00675 1.00628 0.996988
1.00724 1.00036 1.00969 0.997221
1.00838 1.00198 1.00908 0.997329
1.01463 1.00196 1.01477 0.997901
1.0179 1.00077 1.0196 0.99756
1.01693 1 1.01874 0.998219
1.00656 1 1.00707 0.999494
1 1 1 1
1.00213 1 1.00244 0.999689
1.01014 1 1.01171 0.99845
1 1 1 1
1.00017 1 1.00035 0.999823
1 1 1 1
0.873169 0.972645 0.931354 0.963893
0.668089 0.807401 0.895195 0.924329
0.573505 0.736088 0.877774 0.887616
1.05096 1.00153 1.05294 0.996597
1.01834 1.01078 1.0106 0.996909
1.02645 1.0043 1.02498 0.997148
1.0134 1.01522 1.00224 0.995973
1.03643 1.04077 1.00016 0.995673
0.999922 1.01062 0.992601 0.996792
1.02401 1.00275 1.02359 0.997667
0.997403 1.00977 0.990821 0.996898
0.970199 1.00222 0.969569 0.998431
0.997578 1.00557 0.994902 0.997135
0.972154 1.00345 0.971168 0.997574
0.992644 1.00163 0.993886 0.997121
0.96763 1.00093 0.968907 0.997755
0.983993 0.999886 0.985086 0.999004
0.865516 0.964208 0.914379 0.981699
0.827832 0.951125 0.907781 0.95879
0.631605 0.775084 0.87905 0.927008
0.765858 0.888336 0.903758 0.953935
0.848737 0.907108 0.950861 0.984005
0.858547 0.940492 0.925299 0.986568
0.955435 1.00363 0.955522 0.996296
0.985982 1.00014 0.987696 0.998126
0.996486 0.999042 0.998428 0.999012
0.97342 0.989404 0.987064 0.996738
0.894389 0.97345 0.935244 0.982399
0.874661 0.971137 0.933182 0.965145
0.667 0.800116 0.905683 0.920442
0.936317 0.969032 0.969266 0.996877
0.860265 0.955948 0.91791 0.980389
0.879051 0.983434 0.929741 0.961406
0.932993 0.998061 0.938402 0.996167
0.908559 0.985708 0.934492 0.986346
0.944341 1.02547 0.924108 0.996511
0.956448 1.02474 0.938231 0.994805
0.96386 1.00887 0.95832 0.996941
0.973384 1.04051 0.937979 0.997342
1.00694 1.08531 0.930324 0.997275
1.02506 1.05857 0.971385 0.996869
1.03823 1.08908 0.955909 0.997278
1.05354 1.09386 0.965877 0.997171
1.04936 1.08488 0.970241 0.996928
1.04601 1.08398 0.967671 0.997203
1.06388 1.09452 0.974907 0.997029
1.05483 1.08081 0.97894 0.996955
1.05613 1.08359 0.977527 0.997068
1.06366 1.08694 0.981721 0.9968
1.0578 1.07938 0.982955 0.997
1.0626 1.08082 0.986356 0.99674
1.06807 1.08051 0.992096 0.996366
1.06667 1.07818 0.992957 0.996334
1.07006 1.07774 0.996761 0.996095
1.07476 1.08028 0.998985 0.995895
1.07193 1.07671 1 0.995562
1.07957 1.08445 0.999924 0.995574
1.08047 1.0857 0.999538 0.99564
1.04305 1.04706 1 0.996166
1.06823 1.07307 1 0.995493
1.07858 1.08363 1 0.99534
1.00181 1.00331 1.00035 0.998153
1.02613 1.02968 1.00019 0.996361
1.05437 1.05903 1 0.9956
1 1 1 1
1.00123 1.001 1.00181 0.998428
1.02012 1.02193 1.0015 0.996735
1 1 1 1
1.00369 1 1.00489 0.998811
1 1 1 1
1.04673 1.05132 1 0.995635
1.02797 1.03163 1.00049 0.995966
1.02605 1.02768 1.00213 0.996288
1.01692 1.01842 1.00169 0.996844
1.01159 1.00951 1.00517 0.996912
1.01427 1.00931 1.00746 0.997471
1.00691 1 1.00965 0.997282
1.01393 1.00139 1.01464 0.997903
1.00667 1 1.00742 0.999256
1.0154 1 1.01722 0.998214
1.00478 1 1.00527 0.999506
1 1 1 1
1 1 1 1
1.00095 1 1.00125 0.999705
1 1 1 1
0.88887 0.964769 0.937199 0.983068
0.863944 0.968858 0.931747 0.957034
0.673226 0.800259 0.905684 0.928866
1.06197 1.06657 0.999994 0.995691
1.02044 1.00404 1.01942 0.996977
1.01305 1.01492 1.00208 0.996075
1.0004 1.01123 0.992464 0.996803
1.0358 1.03988 1.00042 0.995657
1.02151 1.02571 0.999159 0.996742
1.00061 1.01164 0.992396 0.996674
0.977036 1.00229 0.976356 0.998411
0.996335 1.00738 0.991867 0.997149
0.964079 1.00263 0.96403 0.997428
1.02267 1.02349 1.00281 0.996397
0.977992 1.00773 0.973199 0.997222
0.99155 1.00224 0.992201 0.997113
0.967927 1.00134 0.968715 0.997853
0.941638 1.00534 0.93953 0.996921
0.853689 0.956165 0.911066 0.979979
0.829154 0.955564 0.905693 0.958063
0.857293 0.934166 0.93254 0.984097
0.958256 1.00361 0.957202 0.997501
0.98485 0.999948 0.98687 0.998006
0.963625 1.01285 0.957754 0.993365
0.889674 0.958498 0.943593 0.983682
0.86562 0.971016 0.930523 0.958019
0.93615 0.996891 0.942554 0.996303
0.916005 0.988249 0.940871 0.985148
0.947104 1.02742 0.924865 0.996721
0.963292 1.02524 0.944102 0.995204
0.990648 1.0574 0.939667 0.997023
1.05673 1.11016 0.954787 0.996951
0.969736 1.03671 0.93789 0.997344
1.0133 1.08697 0.934796 0.997257
1.04809 1.10936 0.947597 0.997023
1.03775 1.08811 0.956339 0.997253
1.04973 1.09155 0.964426 0.997168
1.06606 1.10431 0.968347 0.99691
1.04719 1.08358 0.969146 0.997183
1.06125 1.09244 0.974329 0.997043
1.06772 1.09197 0.980986 0.996751
1.05467 1.08131 0.978237 0.997062
1.06421 1.08745 0.981772 0.996797
1.06778 1.08502 0.987581 0.996493
1.0619 1.08051 0.985948 0.996786
1.06771 1.0806 0.991629 0.996411
1.07631 1.08349 0.997284 0.996079
1.07076 1.07832 0.99689 0.996085
1.07486 1.08014 0.999207 0.995894
1.07321 1.07786 1 0.995684
1.05027 1.05436 1 0.99612
1.0713 1.07608 1 0.995551
1.08017 1.08501 1 0.995542
1.01113 1.01312 1 0.99804
1.0407 1.04471 1 0.996166
1.06731 1.07214 1 0.9955
1 1 1 1
1.0048 1.00657 1.0001 0.998136
1.02713 1.03079 1.00009 0.996361
1 1 1 1
1.00134 1.00208 1.00086 0.998403
1 1 1 1
1.06304 1.06784 1 0.995505
1.04577 1.05036 1 0.995626
1.05062 1.05498 1 0.995866
1.02802 1.03191 1.00024 0.995994
1.03098 1.03253 1.00226 0.996254
1.02259 1.02211 1.00342 0.997055
1.0127 1.01225 1.00362 0.996835
1.01136 1.00588 1.008 0.997476
1.00375 1 1.00477 0.998989
1.01449 1.00041 1.01621 0.997902
1.00635 1 1.00709 0.999271
1 1 1 1
1.0042 1 1.00468 0.999517
1 1 1 1
1 1 1 1
0.946859 1.01047 0.940482 0.99635
0.879616 0.964307 0.931271 0.979495
0.862926 0.967468 0.92502 0.964242
1.05865 1.06287 0.999736 0.996298
1.06932 1.07805 0.995905 0.995981
1.06095 1.06554 0.999903 0.995789
1.00081 1.01201 0.992099 0.996813
1.03476 1.03853 1.00073 0.995639
1.02467 1.02973 0.998345 0.996733
1.04824 1.0655 0.98744 0.996314
0.995783 1.00914 0.989573 0.997165
0.958822 1.00219 0.959338 0.997283
1.02609 1.02711 1.00246 0.996552
1.02566 1.05861 0.972441 0.996323
0.981541 1.03083 0.954718 0.997343
0.988532 1.01106 0.980516 0.997148
0.993763 1.00275 0.993917 0.997103
0.940798 1.00647 0.937287 0.997289
0.862219 0.960616 0.917522 0.978253
0.95885 1.00249 0.957663 0.998751
1.03861 1.08026 0.963905 0.997449
0.959153 1.0116 0.954323 0.993532
0.891524 0.965221 0.941341 0.981204
0.950051 1.02974 0.925464 0.996915
0.968454 1.02565 0.948385 0.995626
0.984731 1.05753 0.933746 0.997229
1.05328 1.1088 0.952803 0.996985
1.0573 1.12284 0.944475 0.996982
1.10429 1.15012 0.962893 0.997152
1.01974 1.08966 0.938426 0.997239
1.05415 1.1126 0.950289 0.997023
1.06786 1.11412 0.961514 0.996839
1.0457 1.08931 0.962697 0.997165
1.06608 1.10381 0.968817 0.996912
1.06656 1.09733 0.975153 0.996723
1.0586 1.09038 0.973716 0.997057
1.06878 1.09297 0.981062 0.996747
1.06951 1.08825 0.986217 0.996508
1.06478 1.08799 0.981816 0.996794
1.06838 1.08557 0.987626 0.99649
1.07718 1.08765 0.99419 0.996162
1.06731 1.08067 0.991152 0.996457
1.07541 1.08293 0.996951 0.996089
1.07791 1.0825 1 0.995759
1.07496 1.07998 0.99945 0.995893
1.07288 1.07752 1 0.995697
1.05083 1.05493 1 0.996118
1.0174 1.01939 1 0.998045
1.05035 1.05444 1 0.996121
1.07099 1.07578 1 0.99554
1 1 1 1
1.0126 1.0146 1 0.99803
1.03756 1.0414 1.00015 0.996167
1 1 1 1
1.00688 1.00878 1 0.998118
1 1 1 1
1.07167 1.07704 0.999324 0.995685
1.06225 1.06702 1 0.995525
1.06468 1.0693 1 0.995672
1.0445 1.0491 1 0.995617
1.05173 1.0561 1 0.995864
1.02789 1.03053 1.00076 0.996687
1.03589 1.0374 1.00233 0.99622
1.01786 1.01743 1.00337 0.997057
1.00143 1.0007 1.00209 0.998641
1.00885 1.00336 1.00801 0.997483
1.0043 1 1.0053 0.999009
1 1 1 1
1.00569 1 1.00641 0.999285
1 1 1 1
1 1 1 1
0.987973 1.05637 0.937433 0.997671
0.946214 1.00891 0.942496 0.995074
0.882208 0.967553 0.930002 0.98042
1.06207 1.0761 0.990694 0.996229
1.05748 1.06191 0.999306 0.99652
1.07662 1.09139 0.990267 0.996163
1.06873 1.07878 0.994709 0.99596
1.05964 1.06425 0.999778 0.995887
1.06973 1.09966 0.976551 0.996137
1.02808 1.03394 0.997596 0.996724
1.0464 1.06262 0.98844 0.996252
1.0488 1.10238 0.954768 0.996463
1.02445 1.03042 0.997487 0.996707
1.02635 1.05989 0.972024 0.996225
0.977641 1.03631 0.945857 0.997389
0.995165 1.01282 0.985451 0.99707
0.940113 1.0071 0.935732 0.997599
1.08986 1.13946 0.959168 0.997192
1.04513 1.08483 0.965838 0.997476
0.959312 1.00974 0.956078 0.993706
0.97917 1.0571 0.928665 0.99743
1.05015 1.10736 0.95117 0.997019
1.05011 1.11886 0.941383 0.997003
1.11147 1.15603 0.964201 0.997151
1.08491 1.12941 0.963452 0.997034
1.06 1.11533 0.953227 0.997024
1.0686 1.11303 0.963116 0.996849
1.06728 1.10159 0.971987 0.996777
1.0662 1.10328 0.969385 0.996914
1.06726 1.09749 0.97567 0.996704
1.0687 1.08962 0.984243 0.996505
1.06986 1.09398 0.981149 0.996743
1.06997 1.08871 0.986237 0.996503
1.07641 1.08935 0.991868 0.996222
1.06897 1.08613 0.987672 0.996488
1.07716 1.0876 0.994214 0.996162
1.0829 1.0878 0.999672 0.995825
1.07452 1.08241 0.9966 0.996099
1.0779 1.08249 1 0.995766
1.05154 1.05566 1 0.9961
1.07237 1.07699 1 0.99571
1.05192 1.05602 1 0.996119
1.01773 1.01933 1 0.998435
0.999319 1 1 0.999319
1.01759 1.01941 1 0.998208
1.05011 1.0542 1 0.996123
1 1 1 1
1.01485 1.01686 1 0.998021
1 1 1 1
1.08047 1.09346 0.991801 0.996287
1.07432 1.08251 0.996449 0.995972
1.07117 1.07724 0.998649 0.995715
1.06432 1.06896 1 0.995663
1.06197 1.06673 1 0.995545
1.06275 1.06738 1 0.995662
1.03136 1.03498 1.00011 0.996392
1.05265 1.05703 1 0.995862
1.0269 1.0295 1.0008 0.996685
1.00425 1.00576 1.00023 0.99827
1.01291 1.01243 1.00343 0.997059
1.00208 1.00055 1.00286 0.998661
1 1 1 1
1.00471 1 1.00568 0.999029
1 1 1 1
1 1 1 1
1.07577 1.13005 0.9549 0.996925
0.99925 1.0673 0.938441 0.997659
0.943415 1.00896 0.940846 0.993825
1.0702 1.09284 0.983019 0.996202
1.05779 1.07224 0.990215 0.996271
1.05635 1.06096 0.998918 0.99674
1.07586 1.08938 0.991382 0.996177
1.06808 1.07935 0.993589 0.995938
1.07533 1.11691 0.96621 0.996441
1.06375 1.09448 0.975734 0.996093
1.04497 1.06022 0.989387 0.996189
1.04336 1.09619 0.955182 0.996465
1.03221 1.06364 0.974221 0.996127
0.975955 1.04582 0.935584 0.997445
1.08054 1.1185 0.968822 0.997143
1.09101 1.14003 0.959661 0.99723
1.05051 1.09008 0.966112 0.997505
1.04317 1.11551 0.937947 0.997021
1.11894 1.16249 0.965291 0.997151
1.08697 1.13172 0.963308 0.997037
1.07501 1.10267 0.977938 0.996906
1.06931 1.11188 0.964741 0.996859
1.06799 1.10145 0.972777 0.996759
1.07016 1.09087 0.984397 0.996559
1.06799 1.09767 0.976193 0.996684
1.06938 1.09026 0.984289 0.996504
1.07483 1.08871 0.990964 0.996257
1.07046 1.08919 0.986257 0.996499
1.07672 1.08962 0.991911 0.996219
1.08536 1.09096 0.998989 0.995874
1.07707 1.08749 0.994237 0.996162
1.08289 1.08782 0.99964 0.99583
1.05212 1.05629 1 0.996054
1.07792 1.0825 1 0.995772
1.05286 1.05698 1 0.996103
1.01603 1.0176 1 0.998461
1.05336 1.05746 1 0.996121
1.01726 1.01886 1 0.998428
0.999353 1 1 0.999353
0.999677 1 1 0.999677
1.01787 1.01951 1 0.998387
1 1 1 1
1.07155 1.09039 0.986365 0.996302
1.0773 1.0857 0.996166 0.996088
1.0785 1.09195 0.991238 0.996418
1.07364 1.07822 1 0.995744
1.07671 1.08443 0.996905 0.995967
1.07064 1.07749 0.997884 0.995746
1.06498 1.06964 1 0.995652
1.04612 1.05008 1 0.996235
1.0617 1.06634 1 0.995652
1.03583 1.03954 1.00003 0.996393
1.01296 1.0149 1 0.998085
1.02616 1.02903 1.00052 0.996684
1.00291 1.00384 1.00078 0.998294
1 1 1 1
1.00244 1.00018 1.00359 0.998683
1 1 1 1
1 1 1 1
1.07476 1.11388 0.967972 0.996805
1.0668 1.12009 0.955357 0.996928
1.01007 1.07564 0.941266 0.997641
1.07221 1.10037 0.977954 0.996377
1.06751 1.09045 0.982702 0.996196
1.05324 1.06813 0.989712 0.996315
1.07482 1.08728 0.992324 0.996191
1.07542 1.11578 0.967297 0.996415
1.05719 1.08848 0.97511 0.99605
1.03421 1.0851 0.956481 0.996466
1.07862 1.10529 0.978832 0.996972
1.07926 1.11661 0.969362 0.9971
1.09183 1.13993 0.960432 0.997268
1.07395 1.0953 0.98364 0.996814
1.08874 1.13374 0.963163 0.99704
1.07461 1.1024 0.977836 0.996891
1.07255 1.09157 0.985857 0.996676
1.06871 1.10129 0.973594 0.996742
1.07044 1.09119 0.984374 0.996562
1.07456 1.08754 0.991747 0.996291
1.07001 1.09085 0.984336 0.996503
1.07512 1.08901 0.990959 0.996256
1.08573 1.09185 0.99847 0.995917
1.07699 1.08985 0.991954 0.996217
1.08475 1.09041 0.998922 0.995877
1.05149 1.0557 1 0.996006
1.08287 1.08783 0.999609 0.995834
1.05318 1.05735 1 0.996058
1.01402 1.01561 1 0.998438
1.05418 1.0583 1 0.996106
1.01538 1.01696 1 0.998445
0.999355 1 1 0.999355
1.01665 1.01825 1 0.998425
0.999371 1 1 0.999371
1 1 1 1
1.0706 1.08949 0.986394 0.996215
1.0766 1.08918 0.992311 0.99611
1.07349 1.09155 0.987099 0.996301
1.08165 1.08648 0.999715 0.99584
1.07749 1.08752 0.994614 0.996143
1.07672 1.09057 0.990717 0.996549
1.05681 1.06088 1 0.996162
1.074 1.0786 1 0.995733
1.07949 1.08661 0.997475 0.995962
1.06557 1.07023 1 0.99564
1.04683 1.05079 1 0.996234
1.01918 1.02116 1 0.998063
1.03911 1.04287 1 0.996393
1.01006 1.01198 1 0.998101
1 1 1 1
1.00168 1.00205 1.00131 0.998316
1 1 1 1
1 1 1 1
1.0739 1.10018 0.979349 0.996696
1.07589 1.11592 0.96725 0.99678
1.05993 1.1133 0.95499 0.996932
1.07181 1.09982 0.978056 0.996395
1.06473 1.08804 0.982321 0.996191
1.07638 1.1158 0.968169 0.996389
1.07627 1.09673 0.984488 0.996812
1.07865 1.1051 0.979036 0.996967
1.07846 1.11519 0.969921 0.997056
1.07427 1.09531 0.983901 0.996836
1.0711 1.08743 0.988304 0.996643
1.0742 1.10215 0.977702 0.996876
1.07301 1.09142 0.98645 0.996639
1.07343 1.08625 0.991787 0.996385
1.07075 1.09152 0.984353 0.996564
1.07453 1.08754 0.991718 0.996293
1.08453 1.09142 0.997733 0.995945
1.07552 1.08942 0.990952 0.996256
1.08501 1.09122 0.998389 0.995918
1.05041 1.05465 1 0.995986
1.0842 1.08994 0.998854 0.99588
1.05262 1.05684 1 0.99601
1.01178 1.01341 1 0.998389
1.05428 1.05845 1 0.996062
1.01333 1.01494 1 0.998416
0.999329 1 1 0.999329
1.01474 1.01633 1 0.998434
0.999386 1 1 0.999386
0.999382 1 1 0.999382
1.07196 1.09043 0.986523 0.996489
1.07706 1.08921 0.992738 0.996074
1.07005 1.09034 0.985096 0.99624
1.0829 1.08977 0.997789 0.995903
1.0772 1.08889 0.993147 0.996095
1.07542 1.09272 0.987827 0.9963
1.05613 1.06024 1 0.996121
1.08073 1.08628 0.999038 0.995856
1.07755 1.08927 0.993019 0.996198
1.0185 1.02045 1 0.998091
1.0551 1.05917 1 0.996161
1.07422 1.07884 1 0.995722
1.04764 1.0516 1 0.996233
1.01795 1.01992 1 0.998072
1 1 1 1
1.00745 1.00931 1.00004 0.998118
1 1 1 1
1 1 1 1
1.07255 1.09213 0.985328 0.996702
1.07402 1.10027 0.979394 0.996684
1.0762 1.11709 0.966535 0.996756
1.07178 1.09947 0.978322 0.996412
1.07178 1.08533 0.990891 0.996601
1.07636 1.097 0.984304 0.996824
1.07868 1.10489 0.979254 0.996963
1.07464 1.09535 0.984189 0.996857
1.07116 1.08786 0.987957 0.996652
1.07402 1.08544 0.993079 0.996371
1.07352 1.09129 0.987069 0.996602
1.0744 1.08647 0.992534 0.996333
1.08256 1.09024 0.996915 0.996024
1.07452 1.08755 0.991689 0.996295
1.08391 1.09076 0.997766 0.995947
1.04894 1.05318 1 0.995976
1.08406 1.09033 0.998326 0.99592
1.05143 1.05566 1 0.995987
1.0089 1.01091 1 0.998011
1.05363 1.05785 1 0.996014
1.01085 1.01266 1 0.998208
1 1 1 1
1.01264 1.01427 1 0.998396
0.999366 1 1 0.999366
0.999408 1 1 0.999408
1.07145 1.08637 0.989636 0.996595
1.07547 1.08804 0.992198 0.99622
1.07242 1.08985 0.98748 0.996482
1.08276 1.08933 0.998069 0.995886
1.0764 1.08867 0.992624 0.996074
1.06952 1.0912 0.983807 0.996264
1.05245 1.05662 1 0.996055
1.08305 1.08953 0.998143 0.995904
1.07788 1.08863 0.994021 0.996079
1.01482 1.01673 1 0.998118
1.05459 1.05871 1 0.996107
1.07955 1.08577 0.998397 0.995871
1 1 1 1
1.01928 1.02122 1 0.9981
1.05336 1.05742 1 0.996159
1.0167 1.01865 1 0.998083
1 1 1 1
1 1 1 1
1.07035 1.08317 0.99154 0.996603
1.07349 1.09262 0.985737 0.996708
1.07401 1.10022 0.979436 0.996672
1.07484 1.08471 0.994569 0.996314
1.07091 1.085 0.990365 0.996611
1.07643 1.09729 0.984095 0.996835
1.07116 1.08828 0.987565 0.996662
1.07394 1.08545 0.992994 0.996372
1.08264 1.08933 0.99783 0.996018
1.07529 1.08661 0.993276 0.996282
1.08284 1.09005 0.997398 0.995978
1.04684 1.05124 0.999821 0.995996
1.08337 1.0902 0.99778 0.995948
1.04976 1.054 1 0.995977
1.00634 1.00835 1 0.998006
1.05268 1.05692 1 0.995989
1.00815 1.01016 1 0.99801
1 1 1 1
1.00996 1.01198 1 0.997997
0.999655 1 1 0.999655
0.999399 1 1 0.999399
1.06734 1.08022 0.991482 0.996565
1.07542 1.08546 0.994418 0.996311
1.07089 1.08563 0.989777 0.996603
1.08224 1.08816 0.998667 0.995886
1.07592 1.08821 0.992472 0.996208
1.0728 1.08918 0.98844 0.996476
1.05002 1.05424 1 0.996
1.08307 1.08918 0.99853 0.995861
1.07566 1.08808 0.992486 0.996074
1.01129 1.01322 1 0.998097
1.05152 1.0557 1 0.996046
1.08314 1.08929 0.998441 0.995904
1 1 1 1
1.01599 1.0179 1 0.998126
1.05338 1.05752 1 0.996092
1 1 1 1
1.0201 1.02203 1 0.998109
1 1 1 1
1.07562 1.08492 0.995059 0.996347
1.06953 1.08247 0.991422 0.99659
1.07441 1.09307 0.98617 0.996714
1.08289 1.08927 0.998121 0.996011
1.07436 1.08462 0.994187 0.996332
1.07003 1.08468 0.989843 0.996621
1.07388 1.08547 0.992934 0.996372
1.08197 1.08883 0.99767 0.996018
1.04424 1.04848 0.999945 0.996008
1.08309 1.08987 0.997832 0.995932
1.04758 1.05192 0.999894 0.99598
1.00416 1.00618 1 0.997993
1.05043 1.05467 1 0.995978
1.00562 1.00763 1 0.998004
1 1 1 1
1.00731 1.00932 1 0.998008
1 1 1 1
0.999372 1 1 0.999372
1.0754 1.08446 0.995312 0.996321
1.06621 1.07997 0.990647 0.996579
1.08221 1.08792 0.998797 0.995949
1.07588 1.0859 0.994447 0.99631
1.0703 1.08492 0.989882 0.996612
1.04771 1.05194 1 0.995982
1.08279 1.08861 0.998768 0.995883
1.07648 1.0885 0.99274 0.996196
1.00823 1.0102 1 0.998046
1.04957 1.0538 1 0.99599
1.08346 1.08907 0.999012 0.995837
1 1 1 1
1.01226 1.01418 1 0.998102
1.05066 1.05484 1 0.996038
1 1 1 1
1.0171 1.019 1 0.998133
1 1 1 1
1.08295 1.08897 0.998441 0.996024
1.07562 1.08479 0.995187 0.996337
1.0687 1.08176 0.99132 0.996578
1.04233 1.0465 0.999985 0.996026
1.0823 1.08873 0.998074 0.996011
1.07384 1.0845 0.993802 0.99635
1.08132 1.08832 0.99754 0.996019
1.04489 1.04925 0.999842 0.996005
1.00272 1.00473 1 0.997998
1.04837 1.05262 1 0.995963
1.00372 1.00574 1 0.997991
1 1 1 1
1.00494 1.00695 1 0.998003
1 1 1 1
1 1 1 1
1.08313 1.08858 0.999 0.995985
1.07504 1.08456 0.994832 0.996369
1.06517 1.0798 0.98982 0.996594
1.04558 1.04977 1 0.996008
1.08267 1.08829 0.998879 0.995946
1.07634 1.08631 0.994494 0.996309
1.00552 1.00752 1 0.998014
1.04692 1.05114 1 0.995979
1.08328 1.08899 0.998872 0.995879
1 1 1 1
1.00908 1.01105 1 0.998049
1.04908 1.05331 1 0.99598
1 1 1 1
1.01316 1.01509 1 0.998107
1 1 1 1
1.0422 1.04637 1 0.996016
1.08243 1.08858 0.99831 0.996032
1.07561 1.0847 0.995277 0.996328
1.0016 1.00357 1 0.998039
1.04296 1.0472 0.99993 0.996023
1.08172 1.08821 0.998024 0.996012
1.04551 1.05001 0.999721 0.996001
1.00237 1.00438 1 0.997999
1 1 1 1
1.00329 1.00531 1 0.99799
1 1 1 1
1 1 1 1
1.04338 1.04754 1 0.996025
1.08274 1.08843 0.998749 0.996017
1.07463 1.0846 0.994369 0.996418
1.0035 1.00513 1 0.998381
1.04472 1.04891 1 0.996007
1.08302 1.08857 0.998958 0.995943
1 1 1 1
1.00625 1.00826 1 0.998015
1.04613 1.05036 1 0.995977
1 1 1 1
1.00993 1.0119 1 0.998052
1 1 1 1
1.001 1.00299 1 0.998015
1.04209 1.04627 0.999976 0.996027
1.08196 1.0882 0.998216 0.996039
1 1 1 1
1.00138 1.00335 1 0.998037
1.04361 1.04791 0.999873 0.99602
1.00204 1.00405 1 0.997998
1 1 1 1
1 1 1 1
1.00189 1.00353 1 0.998364
1.04306 1.04722 1 0.996026
1.08244 1.08838 0.998487 0.996049
1 1 1 1
1.00385 1.00584 1 0.998021
1.04408 1.04827 1 0.996007
1 1 1 1
1.00699 1.00899 1 0.998016
1 1 1 1
0.999385 1 1 0.999385
1.00129 1.00308 1 0.998213
1.04197 1.04618 0.999937 0.996038
1 1 1 1
1.00114 1.00311 1 0.998038
1 1 1 1
0.999389 1 1 0.999389
1.00215 1.00395 1 0.998207
1.0426 1.04676 1 0.996027
0.999685 1 1 0.999685
1.00448 1.00646 1 0.998025
1 1 1 1
1 1 1 1
1.00122 1.00317 1 0.99806
1 1 1 1
0.999696 1 1 0.999696
1.00246 1.00442 1 0.998053
1 1 1 1
1 1 1 1
1 1 1 1

VECTORS lamdaE float
1.00301 0.999685 0.992144
1.00245 1.00068 0.996013
1.00246 0.999829 0.992591
1.00256 1.00011 0.992294
1.00288 0.999807 0.992194
1.0031 0.999715 0.992052
1.00369 1.00068 0.989338
1.00252 1.00075 0.995937
1.00195 1.00004 0.996757
1.00169 1.00073 0.996741
1.00221 1.00125 0.991493
1.00362 1.00167 0.987076
1.00184 0.999965 0.993253
1.0015 1.00009 0.993498
1.00194 1 0.99301
1.00212 1.00012 0.992752
1.00244 1.00003 0.992471
1.0024 0.999845 0.992648
1.00395 1.00062 0.989086
1.00192 1.00001 0.996393
1.00235 1.00015 0.992488
1.00274 0.999976 0.992209
1.00352 1.00029 0.990054
1.00364 1.00048 0.989657
1.00298 0.999947 0.991942
1.00369 1.00109 0.988899
1.00537 1.0015 0.985083
1.00261 1.00079 0.995846
1.00225 0.999943 0.994639
1.00211 1.00041 0.994555
1.00254 1.00122 0.995741
1.00361 1.00177 0.987021
1.0024 0.999857 0.992561
1.0025 0.999873 0.992454
1.00394 1.00048 0.989757
1.00097 1.00275 0.996456
1.00389 1.00114 0.989317
1.00375 1.00243 0.986125
1.00535 1.00314 0.982909
1.00101 1.00133 0.996741
1.00188 0.999987 0.996419
1.0018 1.00004 0.994903
1.0018 0.999966 0.996482
1.00133 1.00008 0.993711
1.00344 0.999855 0.989449
1.00174 1 0.9968
1.00381 1.00019 0.990299
1.0017 1.00009 0.993208
1.00194 0.99987 0.993089
1.00187 1.0003 0.992875
1.00419 1.00053 0.988849
1.00169 1.00004 0.994995
1.00192 1.00019 0.992946
1.00243 1.00036 0.992297
1.00229 0.999975 0.992666
1.00374 1.00025 0.9898
1.00399 1.00094 0.988663
1.00387 1.00043 0.989402
1.00539 1.00143 0.985217
1.00181 0.999991 0.99645
1.00216 1.00009 0.992779
1.00321 0.999928 0.991235
1.00339 1.00016 0.990351
1.00359 1.00037 0.989862
1.00537 0.99969 0.987034
1.00536 1.00015 0.986443
1.0031 1.00047 0.991375
1.0036 1.00201 0.988115
1.00538 1.00239 0.984095
1.00535 0.998621 0.987275
1.00268 0.999891 0.996099
1.00249 1.00128 0.99574
1.00257 1.00033 0.996053
1.0036 1.00178 0.986963
1.00249 0.999906 0.99612
1.00264 0.999974 0.996105
1.00376 1.0005 0.988129
1.00134 1.00203 0.994079
1.00367 1.00108 0.987652
1.00376 1.00257 0.987091
1.00539 1.00306 0.982872
1.00152 1.00156 0.99626
1.0017 1.00322 0.988794
1.00387 1.00034 0.988224
1.00393 1.00053 0.987879
1.00534 1.00006 0.986146
1.00335 1.00347 0.988305
1.00541 1.00173 0.984235
1.00504 1.00428 0.982113
1.00553 1.00087 0.984633
1.0006 1.00077 0.997187
1.00077 1.00126 0.996904
1.00221 0.999997 0.996214
1.00194 0.999984 0.996385
1.00184 0.999969 0.996475
1.00167 1 0.995052
1.00347 0.999854 0.990185
1.00202 0.999997 0.994765
1.00368 1.0002 0.989564
1.00182 0.999969 0.996489
1.00328 0.99972 0.989754
1.0037 1.00004 0.990596
1.00537 0.998021 0.988393
1.00383 1.00025 0.990126
1.0054 0.998506 0.98782
1.00186 0.999968 0.993223
1.00148 1.00021 0.993408
1.00178 1.00078 0.992642
1.00185 0.999955 0.99312
1.00395 1.00025 0.989547
1.0041 1.0004 0.989153
1.00423 1.00091 0.988432
1.0054 1.00138 0.985345
1.00185 0.999976 0.996468
1.00175 1.00009 0.993233
1.00344 0.999803 0.990094
1.00361 1.00014 0.990094
1.00266 1.00109 0.993575
1.00388 1.00181 0.98834
1.00381 1.00033 0.989609
1.00538 0.999371 0.98743
1.00539 1.00238 0.984237
1.00536 1.00044 0.986221
1.00534 0.998667 0.987279
1.00331 0.999762 0.989686
1.00328 0.999933 0.990717
1.0054 0.997869 0.988964
1.00539 0.998605 0.988155
1.00532 0.999526 0.987317
1.00533 0.996203 0.990084
1.00184 1.00165 0.996199
1.00537 0.997401 0.988425
1.00352 1.00303 0.985866
1.00544 1.00342 0.982223
1.00533 0.999936 0.986075
1.00532 0.995729 0.989986
1.00212 1.00349 0.987732
1.00321 1.00387 0.985883
1.00257 0.999894 0.996109
1.00271 1.00002 0.996088
1.00375 1.00053 0.988105
1.00178 1.00161 0.996186
1.00342 1.00286 0.986206
1.00372 1.00099 0.987625
1.00544 1.00302 0.982832
1.00132 1.00157 0.996474
1.0018 1.00336 0.988772
1.00388 1.00039 0.98906
1.00397 1.00063 0.988682
1.00534 1.00007 0.986107
1.00276 1.00357 0.986502
1.00539 1.00178 0.984196
1.00514 1.00407 0.982094
1.00551 1.00056 0.984942
1.00228 1.00342 0.987748
1.00144 1.00285 0.989944
1.00273 1.00314 0.98667
1.00534 0.999454 0.986838
1.0054 1.0008 0.985237
1.00539 0.996837 0.989108
1.00383 1.00462 0.98353
1.00534 0.998913 0.987064
1.00554 1.003 0.983019
1.00556 0.998269 0.986799
1.00034 0.999914 0.997743
1.00039 1.00061 0.997419
1.00048 1.00121 0.997094
1.00141 1.00379 0.989042
1.001 1.00185 0.996556
1.00241 0.999939 0.996139
1.00204 0.999994 0.996295
1.00348 1.00025 0.988891
1.00331 0.999864 0.989549
1.00182 0.999967 0.996462
1.00178 0.999963 0.996491
1.00327 0.999728 0.989753
1.00357 1.00002 0.989884
1.00536 0.998032 0.988404
1.00364 1.00033 0.988562
1.00539 0.998517 0.98782
1.00327 0.999686 0.989794
1.00537 0.997982 0.988446
1.00538 0.998177 0.988195
1.00532 0.994954 0.991723
1.0054 0.998947 0.987346
1.00528 0.995072 0.991498
1.00181 0.999972 0.996477
1.00129 1.00016 0.993686
1.00347 0.999737 0.989134
1.00383 1.00013 0.989836
1.0017 1.00188 0.996326
1.00422 1.00124 0.988574
1.00403 1.00032 0.989357
1.00538 0.999042 0.987825
1.00537 1.00072 0.985998
1.0054 1.00228 0.98439
1.00532 0.998712 0.987282
1.00329 0.999752 0.989689
1.00348 0.999953 0.990465
1.0054 0.997781 0.988848
1.0054 0.998941 0.987802
1.00212 1.00154 0.995988
1.00356 1.00274 0.98702
1.00536 1.00368 0.982675
1.00532 0.999544 0.987282
1.00531 0.995926 0.99046
1.00531 0.999814 0.986172
1.00538 0.997703 0.988237
1.00533 0.99578 0.989954
1.00222 1.00338 0.987697
1.00312 1.00402 0.985763
1.00538 0.998148 0.988267
1.00542 0.998181 0.988621
1.00531 0.995631 0.990972
1.00533 0.995277 0.991134
1.00534 0.996938 0.989164
1.00524 0.994933 0.991289
1.00294 1.00319 0.986548
1.00536 0.995031 0.990763
1.00545 1.00426 0.9817
1.0054 1.00108 0.984461
1.00533 0.997419 0.988423
1.00538 0.99499 0.990664
1.00419 1.00338 0.984139
1.0009 1.00471 0.989263
1.0045 1.00374 0.983873
1.00369 1.00044 0.988312
1.00105 1.00157 0.996634
1.00166 1.00352 0.988756
1.00378 1.00064 0.987895
1.00535 1.00007 0.98607
1.00275 1.00345 0.986624
1.00541 1.00389 0.982068
1.00538 1.00182 0.984155
1.00549 1.00025 0.985257
1.00212 1.00353 0.987795
1.00118 1.00302 0.989944
1.00288 1.00365 0.986716
1.00533 0.999467 0.98681
1.00539 1.00083 0.985202
1.00538 0.996815 0.989128
1.00433 1.0042 0.983466
1.00535 0.998999 0.986969
1.00551 1.00288 0.982946
1.00554 0.997938 0.987096
1.00089 1.00245 0.991221
1.00306 1.00383 0.985579
1.0023 1.00445 0.987011
1.00271 1.00143 0.987642
1.0053 0.995949 0.990208
1.00538 0.997982 0.987922
1.00536 0.994942 0.990715
1.00511 1.00462 0.981876
1.00539 0.996052 0.989615
1.00538 1.00097 0.985124
1.00553 0.996746 0.988316
1.00063 1.00397 0.990226
1.00036 1.00146 0.992935
1.00025 0.999273 0.998062
1.00025 0.999757 0.997873
1.00026 1.00034 0.997631
1.00033 1.00207 0.992058
1.00025 1.00118 0.997126
1.00152 1.00344 0.988981
1.00127 1.00181 0.996455
1.0036 1.00036 0.98857
1.00341 1.00002 0.989237
1.00538 0.998528 0.987826
1.00535 0.998046 0.988415
1.00327 0.99974 0.989758
1.00184 0.999953 0.99649
1.00328 0.999687 0.989801
1.00536 0.997993 0.988452
1.00537 0.998193 0.988208
1.00532 0.994956 0.991723
1.00537 0.998962 0.987338
1.00529 0.99504 0.991508
1.00537 0.99804 0.98839
1.00534 0.994952 0.991733
1.0053 0.994959 0.991683
1.00519 0.994937 0.991732
1.00525 0.995409 0.991023
1.00517 0.994978 0.991537
1.00331 0.999749 0.9897
1.0037 0.999917 0.990213
1.0054 0.997673 0.98874
1.00541 0.999263 0.987449
1.00231 1.00157 0.99581
1.00385 1.00267 0.98791
1.0052 1.00365 0.983112
1.00532 0.99955 0.987246
1.00529 0.995646 0.990836
1.00539 0.998005 0.988051
1.00532 0.99971 0.986265
1.00534 0.995832 0.98992
1.00228 1.00325 0.987663
1.00307 1.00381 0.985645
1.00538 0.997831 0.988593
1.00542 0.998144 0.988628
1.00532 0.99563 0.990947
1.0053 0.995667 0.990775
1.00292 1.00332 0.986474
1.00522 1.00418 0.981722
1.00545 1.00141 0.984159
1.00535 0.996916 0.989184
1.00525 0.994934 0.991268
1.00534 0.997144 0.988709
1.00535 0.995046 0.990719
1.00538 0.994947 0.99058
1.00417 1.00383 0.984115
1.00418 1.00403 0.983896
1.00087 1.00419 0.989331
1.00532 0.995595 0.99105
1.00531 0.995749 0.990724
1.00515 0.99495 0.991861
1.00518 0.994966 0.991467
1.00536 0.994889 0.990985
1.00531 0.994927 0.991024
1.00484 1.0042 0.982486
1.00537 0.994807 0.990788
1.0055 1.00335 0.982386
1.0054 0.998674 0.986729
1.00534 0.99596 0.989787
1.00545 0.994798 0.990594
1.00125 1.00064 0.991293
1.00531 1.00495 0.981549
1.00057 1.00439 0.987936
1.0052 1.00407 0.982043
1.00532 0.999477 0.986784
1.00099 1.00321 0.989942
1.00197 1.00367 0.987841
1.00281 1.00393 0.986749
1.00538 1.00085 0.985168
1.00537 0.996796 0.989149
1.00457 1.00378 0.983403
1.00549 1.00284 0.982863
1.00537 0.999094 0.986873
1.00551 0.997625 0.987395
1.00068 1.00256 0.99123
1.0034 1.00366 0.985724
1.00204 1.00447 0.98685
1.00346 1.00143 0.98774
1.00533 0.995913 0.990221
1.00538 0.997923 0.987934
1.00537 0.994942 0.990753
1.00527 1.00472 0.981689
1.00539 0.996332 0.989368
1.00534 1.0008 0.98512
1.00554 0.996648 0.988652
1.00052 1.0021 0.992104
1.00188 1.0051 0.987238
1.00378 1.00395 0.983924
1.00327 1.00236 0.987402
1.00291 1.00211 0.988216
1.00533 0.994878 0.990996
1.00535 0.995297 0.990237
1.00538 0.99487 0.990578
1.00521 1.00365 0.982792
1.00548 0.995367 0.989985
1.00518 0.999341 0.986654
1.001 1.00465 0.988932
1.00037 1.00507 0.989534
1.00025 1.00328 0.991356
1.00036 1.00409 0.990229
1.00027 1.00051 0.994793
1.00028 1.00136 0.993517
1.00044 0.998425 0.996323
1.0002 0.999228 0.998147
1.00021 0.999708 0.997967
1.0003 1.00045 0.993858
0.999739 0.999637 0.998282
1.00051 1.00224 0.99188
1.00062 1.00143 0.996879
1.00156 1.00313 0.988921
1.00156 1.0017 0.996293
1.00535 0.99898 0.987325
1.00536 0.998207 0.988218
1.0053 0.995008 0.991518
1.00533 0.994958 0.991724
1.00536 0.998005 0.988457
1.00326 0.99968 0.989805
1.00537 0.998045 0.988387
1.00534 0.994952 0.99173
1.0053 0.994957 0.991691
1.00519 0.994936 0.991713
1.00529 0.995336 0.991031
1.00516 0.994984 0.991541
1.00534 0.994952 0.99174
1.00519 0.994934 0.99174
1.00516 0.994968 0.99168
1.00532 0.994924 0.991483
1.00525 0.994927 0.991274
1.00529 0.994948 0.991159
1.00539 0.997522 0.988915
1.00542 0.998129 0.988636
1.00532 0.995632 0.990922
1.00528 0.996064 0.990415
1.00298 1.00342 0.986398
1.0052 1.00451 0.981746
1.00548 1.00168 0.983866
1.00536 0.996894 0.989204
1.00527 0.994934 0.991246
1.00534 0.995062 0.990673
1.00534 0.996848 0.988994
1.00537 0.994916 0.990496
1.00402 1.00412 0.984099
1.00364 1.00495 0.983918
1.00089 1.00398 0.989398
1.00533 0.995278 0.991392
1.00531 0.99575 0.990732
1.00515 0.994949 0.991796
1.00519 0.994964 0.991501
1.00473 1.00437 0.982569
1.00554 1.00331 0.982458
1.0054 0.998931 0.986369
1.00535 0.99489 0.990938
1.00531 0.99493 0.990983
1.00534 0.995786 0.989826
1.00537 0.994804 0.990777
1.00545 0.994752 0.990607
1.00506 1.00497 0.981643
1.00516 1.00455 0.981891
1.00159 1.00083 0.991354
1.00137 1.00401 0.988522
1.00517 0.994939 0.991818
1.00514 0.994968 0.991653
1.00531 0.99495 0.991499
1.00531 0.994929 0.991073
1.00534 0.994896 0.99081
1.00536 0.99492 0.990793
1.00548 1.00477 0.98123
1.00542 0.994776 0.990582
1.00536 1.00111 0.984428
1.00536 0.997646 0.987706
1.00543 0.995204 0.990214
1.00542 0.994722 0.990632
1.00312 1.00083 0.988759
1.00177 1.00029 0.990005
1.00521 1.00452 0.98153
1.00247 1.00469 0.986724
1.00506 1.00433 0.982121
1.00047 1.00262 0.991246
1.00536 0.995877 0.990235
1.00245 1.00465 0.986688
1.00337 1.00352 0.985887
1.00393 1.0012 0.98784
1.00538 0.997864 0.987945
1.00537 0.994941 0.990791
1.00537 1.00471 0.981513
1.00536 1.00064 0.985112
1.00538 0.996598 0.989121
1.00556 0.996537 0.988986
1.00042 1.00213 0.992127
1.00166 1.00513 0.987208
1.00431 1.00373 0.984004
1.00311 1.00252 0.987295
1.00341 1.00171 0.987194
1.00532 0.994875 0.991023
1.00537 0.995295 0.990271
1.00538 0.994869 0.990581
1.00521 1.00369 0.982775
1.0055 0.995453 0.989859
1.00518 0.999435 0.986986
1.00135 1.00511 0.987919
1.00324 1.00496 0.985929
1.00374 1.00443 0.984083
1.0039 1.00229 0.986464
1.00449 1.00323 0.985481
1.00536 0.994874 0.990768
1.0054 0.99491 0.990368
1.00536 0.994828 0.990451
1.00504 1.00151 0.984693
1.00517 0.997848 0.987997
1.00083 1.00472 0.988953
1.00074 1.00513 0.988479
0.999635 1.00507 0.989653
1.00011 1.00482 0.990868
1.00028 1.00468 0.990527
1.00005 1.00284 0.992054
1.00005 1.0035 0.991374
1.0001 1.00009 0.99542
1.00018 1.0043 0.990231
1.00024 1.00048 0.994896
1.00032 0.997817 0.996898
1.00024 1.00136 0.994085
1.00023 0.998611 0.997387
1.00014 0.999037 0.998234
1.00031 1.00197 0.992673
1.00034 1.00029 0.993914
0.999829 0.999461 0.998448
1.00004 0.99996 0.997803
1.00081 1.00232 0.991722
1.00086 1.00174 0.996713
1.00534 0.99526 0.991037
1.0053 0.994955 0.991699
1.00515 0.994992 0.991545
1.00519 0.994935 0.991696
1.00535 0.994952 0.991727
1.00538 0.998048 0.988386
1.00534 0.994951 0.991735
1.00519 0.994933 0.991747
1.00516 0.994974 0.991677
1.00532 0.994924 0.991463
1.00523 0.994926 0.991289
1.00529 0.994944 0.991164
1.00518 0.994937 0.99178
1.00533 0.994925 0.99156
1.00529 0.99494 0.99137
1.00534 0.994911 0.991447
1.00532 0.994926 0.990986
1.00533 0.99493 0.991086
1.00533 0.994953 0.991735
1.00531 0.995749 0.990739
1.00515 0.994947 0.991731
1.00521 0.994962 0.991536
1.00444 1.00466 0.982646
1.00556 1.00331 0.982522
1.0054 0.999152 0.986015
1.00533 0.994893 0.990892
1.00531 0.994936 0.990942
1.00537 0.994801 0.990766
1.00534 0.995594 0.989864
1.00545 0.994695 0.99062
1.00493 1.00478 0.981729
1.00493 1.00511 0.981733
1.00201 1.00093 0.991404
1.00144 1.00288 0.989096
1.00516 0.994941 0.991821
1.00515 0.994967 0.991685
1.00531 0.994946 0.99146
1.00531 0.99493 0.991074
1.00542 1.00468 0.981336
1.00536 1.00124 0.984285
1.00536 0.997566 0.987703
1.00534 0.994896 0.990849
1.00535 0.994918 0.99079
1.00541 0.995205 0.990236
1.00542 0.994781 0.990574
1.00542 0.994692 0.990703
1.00524 1.00468 0.981592
1.00482 1.00482 0.982169
1.00234 1.00428 0.986756
1.00255 1.00144 0.988859
1.00188 1.00198 0.989761
1.00533 0.994935 0.991486
1.00533 0.994936 0.991308
1.00537 0.994891 0.99081
1.00537 0.994908 0.990617
1.00529 1.00338 0.982751
1.00538 0.994806 0.990418
1.0053 1.00023 0.984765
1.00534 0.996704 0.988519
1.00547 0.994854 0.990401
1.00097 1.00505 0.988326
1.00394 1.0032 0.987715
1.00249 1.0002 0.989524
1.00501 1.00487 0.98246
1.00325 1.00468 0.985477
1.00464 1.00476 0.982915
1.00032 1.00222 0.992148
1.00145 1.00514 0.98718
1.00531 0.994871 0.99105
1.00257 1.00293 0.987183
1.00519 1.00366 0.984084
1.00402 1.00117 0.986185
1.00537 0.995295 0.990305
1.00537 0.994867 0.990584
1.00517 1.0037 0.982776
1.00517 0.999565 0.98732
1.00551 0.995536 0.989733
1.00129 1.00513 0.987924
1.00264 1.00499 0.985941
1.0043 1.00467 0.983093
1.00392 1.00179 0.986614
1.00432 1.00228 0.98535
1.00536 0.994877 0.990768
1.00542 0.994912 0.990356
1.00538 0.99481 0.990438
1.00502 1.00153 0.984973
1.00516 0.997976 0.987861
1.00251 1.00512 0.986677
1.00183 1.00504 0.986189
1.00454 1.00284 0.98469
1.00257 1.00206 0.985464
1.00525 1.00137 0.986159
1.00537 0.994824 0.990593
1.00545 0.995498 0.989447
1.0054 0.994847 0.98989
1.005 1.00014 0.986501
1.00507 0.998788 0.987424
1.0007 1.00471 0.988977
1.00111 1.00513 0.988329
0.999118 1.00435 0.991378
0.999397 1.00509 0.989752
0.999787 1.00478 0.990497
0.999152 1.00474 0.991149
0.999201 1.0042 0.992393
0.999091 1.00503 0.991151
0.999738 1.00444 0.991079
1.0001 1.00257 0.992239
1.00006 1.00275 0.992044
1.00004 0.999739 0.99581
0.9999 1.00351 0.991386
1.00014 0.999963 0.995488
1.00021 0.997594 0.997288
1.00025 1.00034 0.995001
1.00028 0.997893 0.996861
0.999961 0.998761 0.998475
1.00011 1.00211 0.992613
1.0006 1.00111 0.992801
0.999671 0.999936 0.998258
1.00071 1 0.993948
0.999802 0.999189 0.998489
1.00039 1.00046 0.997356
1.0052 0.994924 0.991305
1.00516 0.994977 0.991673
1.0053 0.994939 0.99117
1.00532 0.994923 0.991442
1.00519 0.994932 0.991753
1.00534 0.99495 0.99173
1.00518 0.994939 0.991805
1.00533 0.994924 0.991552
1.0053 0.994942 0.99138
1.00533 0.994905 0.991435
1.00533 0.994927 0.990987
1.00534 0.994925 0.991062
1.00532 0.994927 0.991553
1.00536 0.994916 0.991478
1.00532 0.994903 0.991384
1.00538 0.994884 0.990755
1.00516 0.994942 0.991824
1.00515 0.994969 0.991717
1.0053 0.994941 0.991422
1.00531 0.994931 0.991074
1.00542 1.00456 0.981449
1.00538 1.00141 0.984136
1.00537 0.997525 0.987698
1.00534 0.994894 0.990889
1.00534 0.994915 0.990788
1.00542 0.994784 0.990565
1.00539 0.99516 0.990257
1.0054 0.994656 0.990775
1.00528 1.00481 0.981655
1.00446 1.00483 0.98222
1.00283 1.00408 0.986786
1.00228 1.00219 0.98899
1.00242 1.00387 0.98953
1.00533 0.994936 0.991475
1.00532 0.994936 0.991319
1.00537 0.994898 0.990825
1.00529 1.00357 0.982746
1.00533 1.00042 0.984652
1.0053 0.996628 0.988546
1.00537 0.994912 0.990638
1.0054 0.99477 0.99049
1.00539 0.994816 0.99045
1.00051 1.00457 0.988631
1.00474 1.0046 0.982466
1.00472 1.00457 0.982471
1.00334 1.00458 0.985193
1.00239 1.00109 0.989787
1.0037 1.00273 0.987153
1.00536 0.994919 0.991403
1.00537 0.994893 0.99112
1.00538 0.994883 0.990627
1.00536 0.994885 0.990438
1.00508 1.00352 0.983239
1.00534 0.994778 0.990387
1.00529 0.999154 0.986186
1.00526 0.995907 0.988995
1.00003 1.00372 0.990178
1.00137 1.00512 0.988078
1.00361 1.0026 0.988174
1.00161 1.00272 0.989232
1.00427 1.00401 0.984045
1.00478 1.00424 0.983021
1.00112 1.00514 0.987929
1.00212 1.00487 0.98595
1.00536 0.99488 0.990767
1.00394 1.00146 0.986752
1.00499 1.0049 0.982088
1.00372 1.00262 0.985209
1.00544 0.994914 0.990344
1.00541 0.994793 0.990425
1.00501 1.00159 0.985254
1.00516 0.998112 0.987725
1.00198 1.00512 0.986742
1.00268 1.00487 0.985886
1.00449 1.00307 0.984425
1.00383 1.0031 0.984913
1.00516 1.0017 0.985693
1.00538 0.994826 0.990591
1.00545 0.995352 0.989702
1.00538 0.994925 0.990143
1.00503 1.00004 0.986471
1.00499 0.999149 0.987154
1.00009 1.00437 0.988757
0.999701 1.00481 0.987892
1.00486 1.00047 0.986557
1.00448 1.00057 0.986911
1.00546 0.99479 0.99044
1.00536 0.994731 0.990403
1.00528 0.997431 0.987853
1.00516 0.999386 0.986618
1.00149 1.00511 0.988185
0.999418 1.00472 0.991015
0.997193 1.00482 0.994448
0.999391 1.00502 0.990475
0.997943 1.00508 0.991424
0.99981 1.0044 0.991017
0.998679 1.00441 0.992757
0.99924 1.00504 0.991242
0.998633 1.00139 0.995803
0.998971 1.00509 0.991644
0.999028 1.00499 0.990993
1.00002 1.00425 0.990853
0.999978 1.00274 0.992202
1.00002 1.00263 0.99222
0.999961 0.999568 0.996013
0.999976 1.00286 0.992038
1.00005 0.999673 0.995841
1.00011 0.997495 0.997492
1.00013 0.999872 0.995555
1.00018 0.997637 0.997256
1.00017 0.998016 0.99681
1.00039 1.00063 0.993645
1.00019 1.00202 0.99254
0.999811 0.998816 0.998434
1.00047 1.00045 0.992933
0.999814 0.999741 0.998302
0.999932 0.998755 0.998403
1.00533 0.994929 0.990988
1.0053 0.994945 0.991389
1.00535 0.994922 0.99104
1.00533 0.994901 0.991422
1.00533 0.994924 0.991544
1.00517 0.99494 0.991829
1.00532 0.994927 0.991558
1.00535 0.994914 0.991473
1.00533 0.994907 0.991328
1.00537 0.994881 0.990796
1.00537 0.994917 0.991481
1.00534 0.994895 0.991441
1.00537 0.994872 0.991064
1.00532 0.994937 0.991463
1.00532 0.994938 0.991329
1.00537 0.994902 0.99084
1.00528 1.00371 0.982747
1.00537 1.00061 0.984542
1.00527 0.996612 0.988571
1.00537 0.994917 0.990657
1.00541 0.994819 0.990481
1.00538 0.994769 0.990583
1.00469 1.00452 0.982473
1.00494 1.00473 0.982043
1.0036 1.00491 0.984918
1.00065 1.00463 0.988935
1.0025 1.0017 0.990047
1.00302 1.00228 0.98657
1.00537 0.994923 0.991417
1.00537 0.99489 0.991086
1.00538 0.994886 0.990638
1.00503 1.00338 0.983226
1.00528 0.999123 0.986075
1.00536 0.995759 0.989221
1.00536 0.994882 0.990405
1.00539 0.994773 0.99037
0.999906 1.00427 0.990437
1.00121 1.0051 0.988009
1.00429 1.00394 0.983815
1.00449 1.00437 0.983226
1.00234 1.00332 0.988653
1.00299 1.00137 0.988518
1.00537 0.994889 0.991358
1.00541 0.994871 0.990755
1.00537 0.994862 0.990467
1.0053 0.994897 0.990238
1.00443 1.00172 0.985527
1.00538 0.99467 0.990413
1.00491 0.998493 0.987502
0.999995 1.00373 0.991188
1.00027 1.00379 0.990922
0.999512 1.00512 0.989495
1.00096 1.00508 0.988285
1.00176 1.00463 0.989987
1.00455 1.00114 0.985554
1.00363 1.00404 0.985446
1.004 1.00396 0.985589
1.00172 1.00514 0.986815
1.00326 1.005 0.985583
1.00539 0.994827 0.990588
1.00528 1.00275 0.984374
1.00449 1.00315 0.984164
1.00532 1.00202 0.985241
1.00544 0.995191 0.989958
1.00537 0.994992 0.990395
1.00505 0.999913 0.986441
1.00489 0.999474 0.986884
1.00079 1.00423 0.988336
1.00136 1.00489 0.987278
1.00486 1.00058 0.986228
1.00486 1.0011 0.986501
1.00544 0.994795 0.990444
1.00539 0.994762 0.990405
1.00522 0.997342 0.987968
1.00515 0.999503 0.986626
0.998415 1.00389 0.992231
1.00549 0.994747 0.990809
1.00256 1.00409 0.988818
1.00469 0.999715 0.987077
1.0054 0.994763 0.990638
1.00511 0.996899 0.987635
1.00513 1.00053 0.986023
0.999567 1.00472 0.990655
0.997583 1.00423 0.994573
0.995949 1.0035 0.997175
0.999612 1.00428 0.990954
0.999112 1.00504 0.991329
0.9975 1.00513 0.993142
0.999977 1.0041 0.990842
0.999199 1.005 0.991072
0.997001 1.00308 0.996398
0.999034 1.0051 0.991493
0.996608 1.00202 0.998546
0.996795 1.00457 0.994886
0.998938 1.00504 0.991765
1.00019 1.00468 0.989974
1.00022 1.004 0.990566
0.99998 1.00271 0.992176
0.999961 1.00276 0.992185
0.999824 0.999684 0.996157
0.999949 1.00276 0.992202
0.999968 0.999632 0.996025
0.999978 0.997669 0.997617
1.00005 0.999614 0.995878
1.00011 0.997548 0.997477
1.0002 0.99768 0.997219
1.00022 1.00311 0.991465
0.999979 1.00056 0.994232
1.00024 1.00079 0.993604
1.00001 0.998554 0.998605
1.00029 1.00163 0.992469
0.999817 0.999514 0.998342
0.999896 0.999491 0.998389
1.00535 0.994878 0.990838
1.00534 0.994912 0.991272
1.00534 0.994911 0.991467
1.00532 0.994927 0.991562
1.00536 0.994916 0.991484
1.00534 0.994887 0.991434
1.00536 0.994875 0.991003
1.00537 0.994891 0.991394
1.00534 0.994861 0.991447
1.0056 0.994716 0.991317
1.00537 0.994925 0.991432
1.00537 0.994888 0.991052
1.00538 0.994889 0.990648
1.00501 1.00323 0.983214
1.00527 0.999147 0.985974
1.0054 0.995585 0.989437
1.00536 0.994887 0.990372
1.00541 0.994767 0.990351
1.00437 1.00428 0.983579
1.00402 1.00443 0.983401
1.00226 1.0046 0.988074
1.0001 1.0041 0.990702
1.00076 1.00504 0.987936
1.00254 1.00036 0.988852
1.00536 0.994891 0.991345
1.00033 1.00329 0.991171
0.999857 1.00423 0.990878
1.00541 0.994863 0.990757
1.00538 0.994864 0.990487
1.00463 1.00184 0.985386
1.00523 0.997824 0.987904
1.00528 0.994678 0.990383
1.0053 0.994886 0.990174
1.00005 1.00505 0.989603
1.00119 1.00502 0.988169
1.00318 1.00438 0.985276
1.00407 1.00377 0.984004
1.00422 1.00258 0.985359
1.00092 1.00301 0.990713
1.00543 0.9948 0.991259
1.0054 0.995099 0.990406
1.00533 0.994865 0.990454
1.00524 0.994895 0.989824
1.00335 1.001 0.987671
1.0053 0.995765 0.989962
1.00004 1.00423 0.990546
0.999531 1.0041 0.990867
1.00089 1.00326 0.990993
1.00069 1.00482 0.988864
1.00097 1.00458 0.989263
1.00074 1.00099 0.991784
1.00244 1.00208 0.987097
1.00182 1.00166 0.990468
1.00105 1.0047 0.987931
1.00333 1.00491 0.986651
1.00541 0.994807 0.990449
1.00542 0.994794 0.990408
1.00518 1.00169 0.98608
1.00482 1.00079 0.985889
1.00515 0.997265 0.988084
1.00515 0.999617 0.986638
0.999153 1.00404 0.992184
1.00548 0.994737 0.990987
1.00145 1.00399 0.98953
1.00467 0.999958 0.986878
1.00541 0.994752 0.990727
1.00515 0.997084 0.987851
1.00513 1.00019 0.985981
0.997992 1.00452 0.994536
1.00502 0.994702 0.990296
1.00164 1.00338 0.989389
1.00428 1.00197 0.984981
1.00505 0.995275 0.99088
1.00369 1.00082 0.986831
0.998873 0.994765 0.981736
0.997855 1.00404 0.994672
0.996775 1.00294 0.997096
0.995772 1.00283 0.998281
0.999999 1.00398 0.990825
0.998853 1.00497 0.99116
0.999647 1.00513 0.991346
0.995644 1.0037 0.997005
1.00022 1.00397 0.990573
0.999911 1.00464 0.990311
0.995543 1.00156 1.00003
0.998684 1.00505 0.991687
0.997509 1.00469 0.994307
0.994954 1.00485 0.998133
0.998305 1.0052 0.992701
0.999134 1.00464 0.991918
1.00051 1.0039 0.990364
1.00008 1.00429 0.990226
1.00046 1.00507 0.989955
1.00004 1.00415 0.990373
0.999846 1.00282 0.992221
0.99994 1.00281 0.992157
0.999707 0.999664 0.99563
0.999994 1.00264 0.992171
0.999817 0.999676 0.995823
0.999976 0.997632 0.999025
0.999971 0.999638 0.996043
1.00001 0.997594 0.997607
1.00012 0.997586 0.997456
0.999929 1.00262 0.992296
1.00039 1.00289 0.991515
1.00008 0.999847 0.994871
1.00009 1.00045 0.994668
0.999941 0.998138 0.998769
1.00007 1.00134 0.993561
0.999923 0.99838 0.998576
0.999852 0.999787 0.998214
1.00536 0.994874 0.990943
1.00534 0.994879 0.991428
1.00536 0.994916 0.991486
1.00537 0.994894 0.991395
1.00537 0.994849 0.99138
1.00561 0.994739 0.991311
1.00544 0.994844 0.991443
1.00069 0.994623 0.979892
1.00549 0.994743 0.989856
1.00011 1.00358 0.991102
1.00536 0.994894 0.991332
1.00541 0.994863 0.99076
1.00538 0.994873 0.990507
1.00462 1.00171 0.985234
1.00531 0.996995 0.988282
1.00514 0.994716 0.990329
1.0053 0.994879 0.990108
1.00351 1.00435 0.985158
1.00464 1.00508 0.982468
1.00386 1.00327 0.985139
1.00043 1.00311 0.991156
1.00104 1.0022 0.991402
1.00059 1.00494 0.989693
1.00091 1.00512 0.988061
0.999779 1.00423 0.990837
1.00542 0.99483 0.991268
1.00014 1.00396 0.990666
1.00003 1.0042 0.990861
0.999887 1.00375 0.991459
1.00539 0.994926 0.99043
1.00531 0.994866 0.990412
1.00321 1.00191 0.987687
1.00503 0.995532 0.989994
1.00528 0.994966 0.989856
1.00062 1.00483 0.988879
1.00077 1.00464 0.989629
1.00284 1.00202 0.989574
1.00307 1.00415 0.9863
1.00261 0.99971 0.991858
1.00547 0.994798 0.990829
1.00535 0.994912 0.990479
1.00525 0.994903 0.99023
1.00463 0.997545 0.989591
1.00298 0.999914 0.989391
0.999786 1.00308 0.992043
1.00046 1.00395 0.989586
0.999417 1.00292 0.992653
1.00066 1.00417 0.990564
1.00045 1.00188 0.992983
0.999637 1.00068 0.994207
1.00175 0.999658 0.993162
1.00058 1.00359 0.992073
0.999803 1.00405 0.990255
1.00548 0.994712 0.991154
1.00543 0.99474 0.990802
1.00518 0.997282 0.988068
1.0046 1.00014 0.986684
1.00514 0.999858 0.985949
0.997774 1.00463 0.995535
1.00462 0.994683 0.990439
1.00154 1.00332 0.989274
1.00461 1.00192 0.984841
1.00482 0.995203 0.991163
1.00405 1.00074 0.986877
0.998739 0.994754 0.980094
0.997351 1.00478 0.994639
1.00353 0.994729 0.990366
1.00245 1.00283 0.986868
1.00341 1.00068 0.987563
1.00347 0.997472 0.991777
0.999961 0.994852 0.935458
0.994867 0.994697 0.957949
0.996847 0.994949 0.985427
0.995376 0.994989 0.843079
0.994698 0.996965 0.802383
0.997878 1.00259 0.997033
0.996164 1.0029 0.998502
0.994917 1.00486 0.998507
1.00031 1.00387 0.990587
0.999727 1.00473 0.990648
0.99885 1.00507 0.991597
0.997915 1.00476 0.993692
0.995067 1.00129 1.00147
0.998901 1.00452 0.992269
1.0003 1.00407 0.990271
1.00034 1.00425 0.990295
0.995355 1.00432 0.997983
0.997793 1.00519 0.993165
0.998059 1.00497 0.993633
0.996276 1.00518 0.995644
0.998966 1.00419 0.992703
1.00022 1.0046 0.98979
1.00009 1.00439 0.99001
0.999311 1.00484 0.990589
0.999028 1.00335 0.993802
0.999083 1.00507 0.991728
1.00004 1.00508 0.990211
1.00019 1.00375 0.990789
0.999904 1.00415 0.990339
0.999982 1.00249 0.992467
1 1.00269 0.99223
0.999681 0.999622 0.99574
0.999904 1.00293 0.992136
0.999697 0.999693 0.995631
0.999939 0.99762 0.999061
0.999806 0.999688 0.995497
0.999928 0.997638 0.998365
1.00005 0.997532 0.997593
0.999898 1.00199 0.993028
1.00009 1.00247 0.992315
1.00004 0.99938 0.995451
1.00051 1.00264 0.991561
1.00006 0.999889 0.995267
0.999974 0.997739 0.998918
1.00024 1.00033 0.994143
0.999969 0.998355 0.998697
0.999886 0.998854 0.998541
1.0054 0.994839 0.991313
1.00536 0.994897 0.991397
1.00563 0.994777 0.99133
0.999546 0.994691 0.979728
1.00548 0.994822 0.991414
1.0055 0.994776 0.989938
1.00549 0.994739 0.991193
0.995153 0.994787 0.960583
1.00445 0.994731 0.976446
1.0003 1.00295 0.991496
1.00027 1.00349 0.991095
0.999455 1.00412 0.99165
1.00024 1.00359 0.990957
1.00543 0.994843 0.991276
1.0054 0.994872 0.990456
1.00529 0.994854 0.990371
1.00384 1.00187 0.987704
1.00509 0.995387 0.990077
1.0053 0.994848 0.989913
1.00276 1.00111 0.988626
1.0037 1.00476 0.985522
1.00283 0.997405 0.991998
1.00005 1.00466 0.990863
1.00008 1.00393 0.990023
1.00068 1.00486 0.988891
1.00033 1.0037 0.990784
0.999102 1.00445 0.992021
1.0055 0.994805 0.990808
0.99977 1.00358 0.991536
1.00074 1.00388 0.989793
0.997024 1.00375 0.995379
1.00536 0.994946 0.990461
1.00525 0.994892 0.990208
1.00382 0.998709 0.989555
1.0046 0.997207 0.989491
1.00109 1.00407 0.989978
0.999562 1.00213 0.992184
1.00145 0.999265 0.993266
1.00136 0.999769 0.99339
1.00393 0.996859 0.989755
1.00523 0.99479 0.990713
1.00405 0.99856 0.989559
1.0044 0.998073 0.990075
0.996387 1.00475 0.995826
1.00142 1.00378 0.989012
0.997959 1.00066 0.998036
0.997627 1.00304 0.995309
0.999796 0.996657 0.918936
0.997789 1.00443 0.996586
1.00112 1.00344 0.989151
1.00408 0.994678 0.990624
1.00454 0.995121 0.991435
1.00429 1.00056 0.986893
1.00485 1.00197 0.984688
0.998476 0.994722 0.978153
0.997545 1.00446 0.99495
1.00313 0.994698 0.990288
1.00261 1.00327 0.98684
1.00384 1.00051 0.987741
1.0035 0.99777 0.991666
0.998935 0.99486 0.920874
0.995213 0.994741 0.954703
0.996702 0.995469 0.985888
0.996499 0.995091 0.849361
0.994763 0.996754 0.798978
0.997893 1.00391 0.993931
0.997548 0.994843 0.853427
0.994809 0.995977 0.796638
1.00136 0.994911 0.993733
1.00173 1.00155 0.990319
1.00131 1.00105 0.992566
0.995167 0.9959 0.989218
0.99743 0.994683 0.933787
0.994909 0.994757 0.949774
0.994723 0.996884 0.861792
0.994779 0.995283 0.778882
0.996259 1.00265 0.998724
0.995081 1.00498 0.998298
0.995303 1.00496 0.998964
1.00046 1.00388 0.99031
1.00012 1.0044 0.99022
0.998369 1.0045 0.992625
0.997624 1.00519 0.993632
0.995762 1.00389 0.997855
1.00022 1.00444 0.989987
0.997689 1.00478 0.994097
0.998755 1.00446 0.99231
1.00041 1.00451 0.989868
0.996148 1.00519 0.996025
0.996839 1.00491 0.995145
0.995181 1.00504 0.997165
0.998948 1.00507 0.991242
1.0003 1.0047 0.989643
0.999918 1.00464 0.990533
0.998184 1.00318 0.994791
0.997832 1.0041 0.993707
0.999004 1.0012 0.995798
0.996754 1.00131 0.999485
0.998768 1.00184 0.99396
0.998029 1.00422 0.993143
0.998991 1.00514 0.991777
0.999083 1.00506 0.990979
0.999585 1.00516 0.990472
1.00018 1.00421 0.990644
1.00005 1.00257 0.992499
1.00012 1.00428 0.990299
0.999932 1.00253 0.992491
0.999861 0.999453 0.996377
0.99979 1.00299 0.992241
0.999742 0.999567 0.996043
0.999911 0.997516 0.997878
0.999675 0.999709 0.995625
0.999928 0.997626 0.999072
0.999935 0.997676 0.9977
1.00036 1.00324 0.991225
0.999889 1.00169 0.993337
0.999953 1.00197 0.993023
1.00001 0.999044 0.995823
1.00019 1.00239 0.992339
1.00006 0.99938 0.995437
0.999987 0.997435 0.999026
1.00004 1.00008 0.995549
0.999954 0.997872 0.998086
0.999946 0.998169 0.996973
0.998875 0.994717 0.979537
1.0055 0.994808 0.991387
1.00548 0.994853 0.990009
0.996183 0.994752 0.960574
1.00433 0.994682 0.97665
1.00548 0.994843 0.991263
1.00396 0.994629 0.984799
0.999193 0.994745 0.959143
0.998507 0.994954 0.93486
0.996563 0.994761 0.870554
0.994832 0.997053 0.802479
0.999366 1.00384 0.99168
1.00025 1.00309 0.991511
1.00036 1.00347 0.99108
0.99962 1.00357 0.991981
0.997819 1.00503 0.99365
0.999751 1.00453 0.99094
1.00017 1.00468 0.989996
1.00007 1.0038 0.990989
1.00551 0.994823 0.990782
1.00537 0.994856 0.990442
1.00524 0.994891 0.990185
1.00398 0.998584 0.989717
1.0047 0.997137 0.989371
1.00124 0.999535 0.993366
1.00363 0.998483 0.992564
1.00079 1.00332 0.991375
1.00093 1.00341 0.98996
1.00118 1.00409 0.989342
0.999778 1.0043 0.991028
0.995363 1.00439 0.997784
1.00423 0.995755 0.990141
0.9967 1.0047 0.99549
1.00061 1.0033 0.990929
1.00501 0.994809 0.990683
1.00385 0.998965 0.989566
1.00365 0.997873 0.990426
0.998704 1.00074 0.996474
0.99875 1.00189 0.995477
1.0028 0.996543 0.9883
1.00283 0.999376 0.990578
1.00358 1.0003 0.989812
1.00138 0.998699 0.99396
0.998084 1.0048 0.993682
0.996723 1.00336 0.995942
0.996652 1.00235 0.997917
0.999823 0.999035 0.848602
1.00072 0.994882 0.93521
0.998009 1.00404 0.995263
1.003 1.00358 0.986831
1.00272 0.994709 0.990194
1.0036 0.997924 0.991574
1.00415 1.00033 0.987963
0.999987 0.99483 0.933043
0.995709 0.994757 0.954199
0.996549 0.996241 0.98658
0.994985 0.995237 0.868689
0.994825 0.995315 0.79521
0.998363 1.00386 0.993998
0.999757 0.994951 0.850545
0.994756 0.995136 0.790506
1.00111 0.995776 0.993522
1.00163 1.00176 0.99037
1.00132 1.00066 0.993396
0.995482 0.996725 0.990256
0.996161 0.994661 0.926855
0.995016 0.994762 0.950527
0.994781 0.995646 0.865047
0.994813 0.995645 0.776193
0.996876 1.00467 0.99669
0.994786 0.994815 0.783482
0.994735 0.994739 0.772999
0.996999 1.00107 0.996855
0.998995 1.00198 0.997276
0.994861 0.998417 0.987241
0.994915 0.994797 0.955419
0.994883 0.994612 0.91829
0.994818 0.995273 0.868432
0.994898 0.994898 0.793306
0.995282 1.00516 0.998113
0.995228 1.00478 0.999033
0.994915 1.00456 0.999299
1.00033 1.00436 0.989956
1.00063 1.00451 0.989949
0.998725 1.0048 0.991917
0.997237 1.00458 0.994558
0.99584 1.00522 0.996404
1.00051 1.00474 0.989584
0.996998 1.00501 0.994799
0.999255 1.00506 0.991217
0.995236 1.0051 0.997351
0.994976 1.00482 0.998488
0.996526 1.00514 0.995109
0.999551 1.0049 0.991433
1.00052 1.00423 0.990483
0.997945 1.00282 0.995754
0.998166 1.00432 0.993597
0.999479 1.00048 0.995515
0.995533 1.00115 1.00034
0.999172 0.999016 0.996024
0.995355 1.00487 0.996885
0.997634 0.999531 1.00037
1.00184 1.00519 0.987881
1.00513 0.999713 0.988743
0.998355 1.00465 0.991374
0.998756 1.00261 0.994043
0.998736 1.00422 0.991203
0.998489 1.00432 0.993203
1.00006 1.00474 0.990623
0.999076 1.00501 0.991824
0.99953 1.00453 0.991124
0.999517 1.00335 0.992084
1.00023 1.00431 0.990493
0.999901 1.00246 0.992526
0.999945 0.9994 0.996227
1.00008 1.00228 0.992511
0.999846 0.999386 0.996069
1.00002 0.99723 0.997864
0.99972 0.999582 0.995748
0.999959 0.997486 0.9991
0.999924 0.997603 0.999084
1.00062 1.00346 0.990915
0.999949 1.00182 0.993187
1.00046 1.00302 0.991235
1.00002 0.998874 0.995973
0.99996 1.00164 0.993321
1.00004 1.00185 0.993015
1.00002 0.999056 0.995808
0.999997 0.997234 0.999098
1.00007 0.999422 0.996071
1 0.997507 0.998299
0.999979 0.997821 0.997417
0.999083 0.996774 0.83653
0.994816 0.994897 0.781086
0.995673 0.99477 0.961442
1.00416 0.994657 0.977056
1.00551 0.99489 0.991325
1.00157 0.994776 0.956202
1.00333 0.994723 0.98553
0.999705 0.994877 0.93015
0.995006 0.994751 0.8493
0.994833 0.996098 0.799461
0.998495 0.994777 0.968522
0.995566 0.994704 0.935889
0.994734 0.99486 0.863673
0.994846 0.996559 0.791221
0.999439 1.00462 0.99209
0.999797 1.00361 0.991552
1.00019 1.00316 0.991536
0.999626 1.0031 0.992329
0.997242 1.00448 0.994769
1.00035 1.00466 0.989827
0.999284 1.00461 0.991423
1.00085 1.00491 0.98866
1.0003 1.00463 0.989891
0.999563 1.00436 0.99103
1.00434 0.994855 0.990498
1.00488 0.994828 0.99065
1.00341 0.999372 0.989573
1.00294 0.997816 0.99078
0.999239 1.002 0.995647
0.999016 1.00066 0.994965
0.999522 1.00305 0.993077
0.996879 1.00462 0.99513
1.00219 0.995772 0.988956
0.997873 1.00504 0.993492
0.996769 1.00349 0.996346
1.00266 0.999261 0.990602
1.0032 1.00094 0.989153
1.00062 0.998931 0.994869
0.997063 1.00222 0.998339
0.999509 0.995452 0.98734
1.00076 1.00149 0.992837
0.996653 1.00385 0.996845
0.998741 1.0036 0.993588
0.996252 1.00515 0.995183
0.995363 1.00403 0.998179
0.994762 0.994785 0.798224
0.999794 0.994949 0.858398
0.99989 0.996814 0.919181
0.998644 1.00387 0.994043
1.00182 1.00203 0.990366
1.00081 0.996404 0.993296
1.0012 1.00008 0.99423
0.999667 0.997049 0.865643
0.995503 0.994702 0.920449
0.994933 0.99471 0.949891
0.995689 0.997667 0.991058
0.994777 0.995202 0.848231
0.994708 0.99489 0.796872
0.994847 0.997041 0.791928
0.99692 1.00454 0.996395
0.994784 0.994828 0.790704
0.994768 0.994755 0.772604
0.997328 0.999363 0.997494
0.99872 1.0019 0.997191
0.994843 0.997168 0.989082
0.995142 0.99478 0.952298
0.995049 0.994628 0.931031
0.994792 0.996136 0.847726
0.995296 0.994892 0.802188
0.995807 1.00405 1.00065
0.994733 0.994781 0.780696
0.99482 0.994832 0.777041
0.994802 1.00214 1.00037
0.994849 0.996612 0.963745
0.994801 0.994779 0.92867
0.99491 0.994906 0.849199
0.995873 0.994906 0.82255
0.995241 1.00458 0.999093
0.995053 1.00479 0.999547
0.994883 1.00463 0.999926
1.0003 1.005 0.989528
0.999624 1.00494 0.99119
0.997064 1.00504 0.994452
0.995284 1.00513 0.997535
0.999162 1.00489 0.991381
0.996656 1.00514 0.995117
0.995091 1.00465 0.998549
0.995092 1.00474 0.998981
0.99512 1.00426 0.998957
0.997048 1.00511 0.994861
0.99838 1.0048 0.993473
0.999416 0.999975 0.995241
0.99482 1.00143 1.0012
0.995711 1.0042 0.997319
0.999335 1.00032 0.995687
0.996357 0.99948 1.00088
1.00107 1.00267 0.992444
0.994797 1.00411 1.00005
1.003 1.00049 0.989908
1.00149 1.00335 0.989429
1.00297 1.00158 0.988298
1.00501 0.999581 0.987279
1.00373 1.00106 0.988694
1.00438 0.999333 0.989204
0.999513 1.00414 0.991409
0.999069 1.0051 0.98938
0.998801 1.00383 0.994123
0.999653 1.00428 0.991207
1.00072 1.00519 0.988658
0.998886 1.00442 0.993251
0.999437 1.00496 0.990673
0.999748 1.00408 0.990924
0.999849 1.00443 0.991269
0.999807 1.00324 0.992108
1.00014 0.99982 0.995625
0.999861 1.00256 0.992557
0.999927 0.999544 0.995764
1.00009 0.997378 0.997682
0.999858 0.999332 0.995781
1.00002 0.997282 0.998487
0.999973 0.997417 0.999103
1.00043 1.00447 0.98962
1.00004 1.00213 0.992786
1.0003 1.00377 0.990694
1.00006 0.998918 0.995872
0.999933 1.0018 0.993208
1.00033 1.00309 0.991245
1.00001 0.997174 0.999114
1.00001 0.998912 0.995966
0.999934 1.00175 0.993312
1.00004 0.999059 0.995793
0.999999 0.997287 0.99908
0.999995 0.997483 0.998998
0.994757 0.994821 0.777583
0.998816 0.995026 0.850905
0.9948 0.994772 0.775996
0.994841 0.994895 0.783079
0.999212 0.994883 0.957082
1.00252 0.994782 0.986292
0.999192 0.994768 0.924831
0.99579 0.994776 0.869756
0.994847 0.995063 0.796684
0.998334 0.994802 0.967219
0.996083 0.994668 0.920209
0.994746 0.995578 0.866155
0.994814 0.995845 0.783815
0.994917 0.994793 0.959879
0.994758 0.994652 0.915988
0.994792 0.995338 0.841798
0.994861 0.994899 0.798982
1.00026 1.00426 0.990988
0.998658 1.00455 0.992267
0.999929 1.00373 0.99142
0.996486 1.00399 0.995865
1.00079 1.00393 0.989446
0.999969 1.00495 0.990009
0.998832 1.00442 0.991896
1.00126 1.00475 0.988365
1.00103 1.00498 0.988592
1.00032 1.00456 0.989779
1.00228 0.994803 0.989543
1.00237 0.999206 0.990653
1.00299 1.0015 0.988501
0.999744 0.998841 0.995781
0.997346 1.00285 0.998743
0.997148 1.00341 0.996745
0.998101 1.00507 0.993315
0.999069 1.00308 0.993559
0.999446 0.996381 0.988018
0.997327 1.00506 0.994602
0.996698 1.0028 0.998384
1.00054 1.00112 0.993015
0.997466 1.00254 0.996834
0.99655 1.00037 0.986523
0.996649 1.00283 0.997641
0.994651 1.00538 0.99833
0.996176 1.00404 0.997227
0.995292 1.00468 0.997509
0.994746 0.99477 0.786712
0.994772 0.99474 0.793225
0.999796 0.999088 0.837227
0.996916 1.00445 0.996148
0.998835 1.00166 0.997131
0.997852 0.998236 0.998113
0.994768 0.994811 0.786348
0.994788 0.994627 0.916544
0.994923 0.994767 0.952878
0.994851 0.995674 0.991435
0.994779 0.996055 0.866452
0.99481 0.994773 0.77318
0.99587 0.994882 0.804347
0.996091 1.00382 1.0007
0.994751 0.994798 0.781575
0.994799 0.994831 0.778281
0.994838 1.00256 0.999113
0.99485 0.995706 0.965525
0.9952 0.994782 0.914568
0.995641 0.9949 0.817023
0.995367 0.99644 0.858613
0.994721 1.00484 1.00156
0.994767 0.994829 0.768112
0.994866 0.994849 0.795951
0.994864 0.994893 0.798488
0.994715 0.999818 0.98773
0.994836 0.995462 0.933861
0.997384 0.994883 0.872617
0.995282 1.00499 0.999798
0.995173 1.00457 0.999729
0.994942 1.00514 0.999464
0.999186 1.00466 0.991346
0.996632 1.00516 0.995124
0.995194 1.00435 0.998608
0.996548 1.0051 0.994995
0.995035 1.00405 0.999078
0.995192 1.00449 0.998684
0.995083 1.00394 1.00012
0.994871 1.00414 0.999135
0.995855 1.00328 0.997815
0.999361 1.00111 0.995347
0.995096 0.999416 1.00134
0.994865 1.00405 0.999737
0.999862 1.00149 0.993287
1.00085 1.00138 0.993773
0.9999 1.00204 0.993272
1.00331 1.00012 0.98855
1.00134 1.00157 0.990858
1.00314 1.00146 0.988246
1.00477 1.00113 0.986107
1.00512 1.00075 0.985643
1.00492 0.998557 0.988084
1.0048 0.999511 0.987249
1.00221 1.00412 0.987987
1.00281 1.00151 0.988822
1.00351 0.99888 0.989667
1.00069 1.00362 0.99144
0.999958 1.0051 0.989148
1.00159 1.00509 0.986718
1.00031 1.00444 0.99122
1.0011 1.00496 0.98861
1.00063 1.00479 0.988813
0.999568 1.00511 0.990707
1.00013 1.00381 0.990884
1.0002 1.00024 0.995142
1.00008 1.00277 0.992125
1.00013 0.999865 0.995171
1.00031 0.997597 0.997114
0.999888 0.999646 0.995444
1.0001 0.997328 0.998415
1.00006 0.997221 0.999089
1.00099 1.00498 0.988116
1.00021 1.00256 0.99169
1.00065 1.00432 0.989634
1.00011 0.999105 0.995611
1.00012 1.00205 0.992566
1.00042 1.00364 0.990474
1.00004 0.997198 0.999083
1.00006 0.998912 0.995885
1.00001 1.00164 0.993224
1.00001 0.997201 0.999113
0.999996 0.998939 0.99596
1 0.997309 0.999062
0.994798 0.994816 0.779256
0.994772 0.99485 0.792794
0.999178 0.994869 0.85
1.00074 1.00508 0.988703
0.99478 0.994801 0.780474
0.99479 0.994796 0.7759
0.994875 0.994916 0.797073
0.998021 0.994751 0.967044
0.995551 0.994707 0.935076
0.994673 0.996313 0.848903
0.994791 0.995246 0.795651
0.995385 0.99478 0.95721
0.994871 0.994656 0.930443
0.994784 0.995858 0.847006
0.99488 0.994898 0.799967
0.994938 0.994759 0.951329
0.994801 0.994832 0.926463
0.996448 0.99492 0.861889
0.995346 0.994913 0.822889
0.998506 1.00355 0.993692
0.9994 1.00439 0.991442
0.998706 1.00394 0.992446
1.00118 1.00275 0.990369
1.001 1.00432 0.989363
0.99984 1.00506 0.990189
1.00139 1.00502 0.988321
1.00128 1.00477 0.988523
0.998686 0.997294 0.988538
0.999921 1.00089 0.993127
0.998143 1.00349 0.993512
0.998281 1.00118 0.996786
0.99753 1.00202 0.998561
0.998022 1.00473 0.993916
0.996504 1.00384 0.996081
0.996216 1.00034 0.986631
0.996103 1.00481 0.997236
0.995671 1.00394 0.998317
0.996119 1.00316 0.997757
0.995168 1.00511 0.996821
0.995297 1.00446 0.983437
0.9946 1.00378 0.99948
0.994918 1.00499 0.998852
0.995455 1.00544 0.997139
0.994734 0.99481 0.769808
0.994738 0.994771 0.783121
0.994778 0.994692 0.787987
0.99601 1.00406 1.00073
0.994853 1.00193 0.997797
0.994768 0.994817 0.782301
0.994758 0.994833 0.929938
0.994847 0.995492 0.962023
0.995665 0.99491 0.857583
0.99478 0.99483 0.779274
0.994893 0.9949 0.811329
0.994773 1.00487 1.00145
0.994769 0.994827 0.768591
0.994875 0.994859 0.794039
0.994748 1.00052 0.991389
0.994881 0.994937 0.799433
0.994833 0.996748 0.92708
0.99673 0.997089 0.87421
0.994814 1.00409 0.997299
0.994834 0.994845 0.783627
0.994792 0.994816 0.782415
0.994814 0.996638 0.789994
0.996549 0.994921 0.861669
0.994881 1.00141 0.969768
0.994867 0.995086 0.919917
0.995397 1.00483 0.999557
0.995006 1.00514 0.999468
0.994741 1.00513 0.998143
0.996269 1.00507 0.995116
0.994938 1.004 0.999205
0.995341 1.00463 0.998421
0.994875 1.00429 0.998986
0.994918 1.00439 0.999879
0.997258 1.00247 1.00018
0.994916 1.00393 0.999423
0.997886 1.00038 0.994229
0.999417 1.00153 0.994745
1.00049 0.999508 0.992445
0.996469 1.004 0.996281
1.00284 1.00009 0.989218
1.00446 1.00275 0.984213
1.00472 1.00209 0.984752
1.0035 1.0013 0.988118
1.00467 1.00119 0.98574
1.0051 1.0015 0.984909
1.00481 1.00063 0.986409
1.00498 1.00082 0.985711
1.00416 1.00017 0.98839
1.00424 0.999547 0.98797
1.00483 0.999381 0.987232
1.00145 1.0051 0.986854
1.00151 1.00427 0.988009
1.0017 1.00204 0.988931
1.00092 1.00513 0.98892
1.00205 1.00512 0.986719
1.00129 1.00525 0.986973
1.00114 1.00478 0.988561
1.00089 1.00474 0.988791
1.00024 1.00111 0.993333
1.00055 1.00381 0.990872
1.00029 1.00019 0.994269
1.00012 0.997709 0.998765
1.00014 0.999903 0.994826
1.00021 0.997582 0.998031
1.00014 0.997466 0.998949
1.00091 1.005 0.988239
1.00047 1.00345 0.990415
1.00083 1.00506 0.988417
1.0002 0.999385 0.995206
1.00027 1.00261 0.991552
1.00064 1.00442 0.98964
1.00005 0.997305 0.999024
1.00014 0.999043 0.995633
1.00008 1.00205 0.992347
1.00003 0.9972 0.999095
1.00005 0.998916 0.995899
1 0.997216 0.999113
0.994752 0.994814 0.777008
0.994791 0.994803 0.779626
0.994767 0.995011 0.791441
1.00087 1.00491 0.988822
1.00019 1.0051 0.988783
1.00129 1.00315 0.990998
0.994878 0.994863 0.79467
0.994795 0.994799 0.781662
0.994797 0.994783 0.77598
0.996125 0.994763 0.957729
0.994863 0.994637 0.916961
0.994785 0.996337 0.867011
0.994883 0.994882 0.794334
0.994921 0.994788 0.953236
0.994912 0.994793 0.922071
0.996089 0.995126 0.86184
0.995352 0.994907 0.817202
0.994903 0.994848 0.95258
0.994812 0.995069 0.929317
0.996991 0.994907 0.87271
0.994888 0.994904 0.795503
0.997633 1.00317 0.995
0.998621 1.0036 0.993598
0.999101 1.00499 0.991899
1.00088 1.00311 0.990279
1.00066 1.00483 0.989287
1.0013 1.00502 0.988274
0.995905 0.999992 0.987101
0.996168 1.00338 0.997899
0.997933 1.0029 0.995005
0.996829 1.00293 0.998168
0.997376 1.0042 0.997005
0.995488 1.005 0.996804
0.995596 1.00533 0.996779
0.995142 1.00364 0.983546
0.99486 1.0052 0.999014
0.994553 1.0046 0.997906
0.995265 1.00534 0.998019
0.994671 1.00228 0.982796
0.994756 1.00501 0.994929
0.994884 1.00272 0.999096
0.994865 0.994854 0.7719
0.994745 0.994817 0.769223
0.994732 0.994771 0.779513
0.994828 1.00474 1.00131
0.994783 1.00122 0.986797
0.994768 0.994825 0.769086
0.994822 0.996607 0.927549
0.996188 0.994883 0.860166
0.994889 0.994855 0.792107
0.994884 0.994876 0.793986
0.994775 1.00413 0.997826
0.994816 0.994846 0.782448
0.994812 0.9948 0.7838
0.994893 1.00197 0.966377
0.994801 0.996177 0.782695
0.995991 0.996807 0.860593
0.994861 0.997219 0.933767
0.994861 1.0051 0.988077
0.994762 0.994817 0.779596
0.994785 0.994787 0.776194
0.994823 0.997723 0.801286
0.994787 0.99571 0.839668
0.994797 0.994907 0.931357
0.994808 1.00161 0.959841
0.995214 1.00483 0.999422
0.994789 1.00511 0.99833
0.994879 1.00472 0.998708
0.994876 1.00441 0.998839
0.994739 1.00452 0.999515
0.996215 1.00182 1.00069
0.998018 1.00235 0.998533
0.998033 1.00138 0.995661
1.00255 0.999287 0.991686
1.0018 1.00433 0.986611
1.00218 1.00034 0.990375
1.00445 1.0028 0.984329
1.00442 1.0027 0.983879
1.00519 0.99986 0.985764
1.00512 1.00141 0.984911
1.00483 1.00201 0.984709
1.00475 1.00124 0.985384
1.00501 1.0026 0.984441
1.00512 1.00143 0.984948
1.00477 1.00048 0.986616
1.00468 1.00101 0.986564
1.00461 1.00094 0.985777
1.0022 1.00267 0.988482
1.00363 1.00052 0.988276
1.00372 1.0005 0.987841
1.00214 1.00523 0.985904
1.00198 1.00507 0.98686
1.00069 1.00419 0.988035
1.00249 1.00508 0.986738
1.00189 1.00513 0.986987
1.00046 1.00195 0.992058
1.00154 1.00446 0.988747
1.00032 1.00112 0.993266
1.00027 0.998162 0.998593
1.00047 1.00005 0.994207
1.00029 0.997784 0.997887
1.00023 0.997556 0.998793
1.00166 1.00483 0.988052
1.00082 1.00384 0.989877
1.00104 1.00503 0.988207
1.00022 0.999894 0.994668
1.00044 1.00347 0.990565
1.00075 1.00508 0.988724
1.00007 0.997426 0.99893
1.0002 0.999336 0.995233
1.00042 1.00263 0.991417
1.00005 0.997256 0.999042
1.00016 0.999001 0.995654
1.00003 0.997218 0.999106
0.994831 0.994845 0.780926
0.994756 0.994832 0.777519
0.994802 0.994792 0.779768
1.00034 1.00489 0.98868
1.00251 1.00229 0.992447
1.00048 1.00509 0.988949
1.00041 1.00509 0.988702
1.00024 1.00222 0.991708
1.0007 1.00256 0.991427
0.998364 1.00228 0.995067
0.994832 0.994835 0.779514
0.994874 0.994861 0.792648
0.994806 0.994827 0.782792
0.994892 0.994902 0.811323
0.995157 0.99478 0.951174
0.994824 0.994818 0.917091
0.995965 0.99489 0.87298
0.995074 0.994864 0.951227
0.994805 0.99741 0.915439
0.996457 0.996133 0.873448
0.995109 0.994899 0.804189
0.994847 0.995373 0.955558
0.994837 0.998065 0.916569
0.994906 0.994918 0.849915
0.994799 0.995734 0.781314
0.995428 1.00527 0.996915
0.997315 1.00369 0.995538
0.998364 1.00395 0.993504
1.00066 1.00395 0.990187
0.995171 1.00244 0.983471
0.994524 1.00533 0.996479
0.995572 1.00514 0.996803
0.996588 1.00526 0.99642
0.994576 1.00536 0.999463
0.9951 1.00532 0.997948
0.99604 1.00361 0.999357
0.994976 1.00212 0.979876
0.994852 1.00519 0.994813
0.995824 1.00288 0.999903
0.996209 1.00057 0.975086
0.994756 1.0034 0.999246
0.994741 0.994832 0.773294
0.994842 0.994855 0.777853
0.994756 0.994835 0.768629
0.99467 1.00446 0.998349
0.994887 1.00143 0.970704
0.994795 0.994847 0.781264
0.994895 0.995086 0.9211
0.995865 0.994917 0.872553
0.994801 0.994827 0.784909
0.994773 0.995609 0.794176
0.994836 1.00503 0.989126
0.994763 0.99483 0.780207
0.994776 0.994809 0.776158
0.994814 1.00198 0.959886
0.994827 0.995998 0.798379
0.994777 0.996084 0.84492
0.994843 0.99562 0.917567
0.995226 1.00403 0.982548
0.994821 0.99482 0.779858
0.994794 0.994911 0.780278
0.99472 0.994911 0.86231
0.994824 0.99488 0.927973
0.994832 0.999304 0.955538
0.994763 1.00497 0.99904
0.994811 1.00467 0.998753
0.994817 1.0049 0.998112
0.995264 1.00114 1.00121
0.996665 1.00257 0.999111
1.00063 1.00118 0.994026
1.00459 0.99888 0.990942
1.00294 1.00459 0.985762
1.00429 1.00182 0.985474
1.00439 1.00281 0.98444
1.0046 1.0028 0.983766
1.00484 1.00122 0.985328
1.00533 0.99715 0.988007
1.00525 0.999674 0.986365
1.00519 1.00004 0.985777
1.00514 1.00166 0.985007
1.00508 1.00122 0.984945
1.0049 1.00189 0.984662
1.00502 1.00407 0.982901
1.00499 1.00245 0.984534
1.00509 1.00141 0.985
1.00425 1.00197 0.987692
1.00379 1.00109 0.987444
1.00464 1.00148 0.986724
1.00332 1.00284 0.986476
1.0024 1.00243 0.988457
1.00303 1.00132 0.988161
1.001 1.00214 0.99105
1.00238 1.00521 0.98602
1.00235 1.00513 0.986865
1.00208 1.00506 0.986998
1.00057 1.0019 0.992041
1.00033 0.998744 0.99827
1.00027 1.00126 0.993206
1.00028 0.998241 0.998491
1.0003 0.99767 0.998677
1.00285 1.00415 0.988586
1.00255 1.00513 0.987364
1.00109 1.00441 0.988876
1.00148 1.00468 0.988049
1.0002 1.00051 0.994108
1.00076 1.00398 0.989852
1.0011 1.00516 0.98817
1.00006 0.9978 0.998801
1.00023 0.99985 0.994694
1.00046 1.00356 0.990711
1.00006 0.997457 0.99896
1.0002 0.999326 0.995263
1.00006 0.997244 0.999062
0.994782 0.994847 0.770693
0.994822 0.994835 0.779803
0.994754 0.994824 0.778025
1.00107 1.00498 0.988179
0.999649 1.00168 0.99331
1.00188 1.00006 0.990506
0.997741 1.00398 0.992587
1.00149 0.998621 0.99487
1.00061 1.00508 0.988601
0.999549 1.00287 0.992474
1.0004 1.0033 0.991424
0.998632 1.00091 0.996592
0.998915 1.00293 0.995568
0.994765 0.994748 0.775954
0.994812 0.994843 0.780914
0.994871 0.994844 0.79071
0.995322 0.994882 0.806378
0.996222 0.994905 0.860329
0.994974 0.994863 0.949937
0.99477 0.995724 0.928451
0.994875 0.996365 0.950515
0.994858 0.997993 0.929031
0.995076 0.996371 0.859559
0.994824 0.995754 0.778713
0.994945 0.998349 0.95157
0.994791 0.996487 0.928582
0.994814 0.995465 0.869961
0.994725 0.997207 0.804962
0.998335 1.00024 0.997714
0.995412 1.00506 0.997225
0.997542 1.00322 0.996102
0.994749 1.0024 0.976488
0.994841 1.00514 0.993855
0.995144 1.00527 0.997802
0.994778 1.00447 0.9996
0.995402 1.00358 0.999722
0.994795 1.00186 0.999801
0.994814 1.00187 0.975943
0.995475 1.00192 1.00265
0.994836 1.00005 0.983745
0.994774 0.994791 0.788732
0.994762 0.994843 0.772467
0.994824 0.994845 0.784104
0.994875 1.00507 0.989499
0.994849 0.999862 0.957729
0.99478 0.994837 0.780815
0.994818 0.994919 0.929773
0.994778 0.996541 0.86431
0.994804 0.994783 0.776496
0.994844 0.995073 0.795762
0.995117 1.00441 0.983447
0.994814 0.994808 0.779895
0.994815 0.99511 0.782057
0.994851 0.998383 0.956782
0.994734 0.995694 0.865174
0.995022 0.994815 0.919009
0.994722 1.00253 0.981374
0.994745 0.99482 0.777193
0.99617 0.994799 0.870306
0.994788 0.994663 0.915467
0.994939 0.994846 0.956252
0.99502 1.00472 0.998831
0.994742 1.00516 0.997869
0.997876 1.00015 0.996893
0.995364 1.00287 0.999666
0.99948 1.0017 0.9949
1.00428 0.995437 0.992814
1.00403 1.00501 0.984889
1.00418 1.00171 0.985431
1.00492 0.997805 0.988436
1.00478 1.00291 0.983654
1.0048 1.00099 0.985378
1.00502 0.997558 0.988406
1.00534 0.994997 0.990221
1.00535 0.996969 0.987972
1.00535 0.997091 0.988037
1.00531 0.999625 0.986514
1.00524 0.99971 0.986313
1.00516 1.00018 0.985793
1.00538 1.00254 0.983562
1.00509 1.0016 0.984872
1.00507 1.00105 0.984977
1.00508 1.00502 0.983443
1.0043 1.00383 0.983664
1.00503 1.00219 0.984625
1.00248 1.00353 0.987825
1.00292 1.00245 0.987559
1.00309 1.00144 0.988264
1.00156 1.00282 0.991267
1.00313 1.00311 0.986569
1.00262 1.00239 0.988429
1.00059 0.999741 0.995007
1.00111 1.0025 0.991261
1.00275 1.00521 0.986146
1.00077 1.0019 0.992006
1.00041 0.998867 0.998165
1.00033 0.998552 0.998385
1.00184 1.00157 0.988395
1.00274 1.00503 0.986805
1.00054 1.00437 0.988693
1.00124 1.00496 0.988177
1.00159 1.00497 0.987367
0.999947 1.00131 0.993599
1.00097 1.00456 0.988859
1.00129 1.00498 0.988039
1.00004 0.998128 0.998682
1.00019 1.00042 0.994149
1.0006 1.00406 0.989827
1.00005 0.997685 0.998841
1.00024 0.999739 0.994719
1.00006 0.997371 0.998988
0.994764 0.994826 0.787191
0.994786 0.994843 0.771275
0.994799 0.994856 0.778509
1.00233 1.00408 0.986472
1.00068 1.00502 0.987712
0.998203 1.00213 0.994444
0.999571 1.00507 0.991805
1.00315 0.999467 0.990193
0.999454 0.997415 0.998697
1.00331 0.999742 0.990135
0.995066 1.0052 0.996316
0.999303 1.00394 0.991383
0.998534 0.998115 0.998055
0.997135 1.00336 0.995662
0.997668 1.00209 0.996415
0.994816 0.996062 0.798049
0.994791 0.994765 0.775525
0.994797 0.99485 0.781984
0.994868 0.997394 0.79424
0.99526 0.994908 0.858185
0.994855 0.998064 0.916951
0.995379 0.995052 0.950972
0.995527 0.998773 0.952325
0.994782 0.997292 0.801485
0.99482 0.996451 0.920065
0.994798 0.99649 0.849325
0.994867 0.996585 0.958768
0.994794 0.994819 0.930333
0.994717 0.997138 0.864517
0.99942 0.99597 1.00204
0.998356 1.00029 0.997614
0.994904 1.00538 0.997512
0.994938 1.00253 0.976216
0.996096 1.00035 1.00032
0.995837 1.00284 0.999642
0.996011 1.0001 1.00302
0.994947 0.999297 0.983885
0.995503 0.997821 0.994164
0.994741 0.994762 0.793813
0.994768 0.994804 0.788301
0.994788 0.994837 0.771369
0.994733 1.00483 0.983526
0.994829 0.999864 0.956106
0.994795 0.994809 0.780234
0.994835 0.99483 0.915184
0.994666 0.996109 0.847815
0.994855 0.99528 0.79601
0.994762 1.00462 0.981065
0.994762 0.994856 0.792403
0.995125 0.99476 0.848542
0.995054 0.994841 0.950859
0.994961 0.994662 0.929994
0.995593 0.998671 0.988572
0.999027 0.996941 0.835851
0.995513 0.994723 0.936102
0.994946 0.994751 0.948912
0.994695 1.00528 0.99768
0.997542 1.00176 0.996592
1.00093 0.997934 0.993763
0.998411 1.00258 0.995775
1.0035 0.996637 0.99258
1.00491 0.994804 0.991875
1.0041 1.00155 0.985391
1.00489 0.997595 0.988297
1.00508 0.995765 0.990115
1.00474 1.00062 0.985427
1.00499 0.99743 0.988328
1.00534 0.99479 0.990404
1.00529 0.994789 0.991101
1.00532 0.995108 0.990155
1.00535 0.995001 0.990227
1.00541 0.996809 0.988113
1.00535 0.996882 0.98816
1.00538 0.997027 0.988067
1.00546 1.00003 0.985631
1.00531 0.999472 0.986398
1.00522 0.999734 0.986256
1.0054 1.00396 0.981929
1.00537 1.00278 0.983499
1.00503 1.00154 0.984735
1.00319 1.00252 0.98696
1.00407 1.00496 0.983372
1.00345 1.00378 0.984444
1.00148 1.00308 0.989368
1.00287 1.00264 0.987686
1.00171 1.00257 0.987411
1.00004 1.00176 0.997296
1.00158 1.003 0.989411
1.00335 1.00263 0.98664
1.00048 0.999238 0.997858
1.00125 1.00244 0.99055
1.00046 0.998756 0.998056
1.00457 1.00293 0.98568
1.00317 1.0014 0.987927
1.00249 1.00454 0.986836
1.00159 1.00513 0.987896
1.00224 1.00506 0.986797
1.00021 1.00473 0.98879
1.00005 1.00195 0.992994
1.00107 1.00506 0.988193
1.00157 1.00426 0.987361
1.00002 0.998687 0.998548
0.999996 1.0013 0.993603
1.00088 1.00477 0.988842
1.00002 0.998135 0.998717
1.00017 1.00045 0.994182
1.00004 0.997673 0.998881
0.994765 0.994818 0.783804
0.994774 0.994815 0.787414
0.994791 0.994836 0.771958
1.00273 1.00374 0.986648
1.00442 1.00343 0.986074
1.00138 1.00475 0.988234
0.999249 1.0051 0.990991
1.00472 0.999204 0.989907
0.995959 0.997537 1.00215
0.99745 1.00207 0.996314
1.00161 1.00082 0.991844
1.00076 1.00012 0.993779
0.998491 1.00012 0.996686
0.997176 1.00316 0.995721
0.998595 1.00203 0.996372
0.995817 0.994926 0.843722
0.994769 0.995135 0.792314
0.994813 0.994781 0.776008
0.994835 0.995349 0.797573
0.994779 0.996225 0.868112
0.994828 0.995618 0.91697
0.994818 0.998996 0.951561
0.994889 0.99753 0.955467
0.994785 0.99583 0.866291
0.994919 0.994802 0.916578
0.994931 0.996224 0.960608
0.994889 0.994595 0.918681
0.998605 0.995414 1.00581
0.999423 0.9958 1.00187
0.99816 1.00035 0.997602
0.994829 0.999462 0.984204
0.996102 0.999613 1.00335
0.99561 0.997943 0.993828
0.994942 0.995439 0.991855
0.999497 0.999671 0.847266
0.994758 0.994733 0.790169
0.994764 0.994821 0.787574
0.994806 1.00434 0.981583
0.995025 0.994827 0.95012
0.994758 0.994881 0.790802
0.994883 0.994635 0.917314
0.995773 0.99495 0.869131
0.995462 0.998429 0.984931
0.998891 0.994904 0.850905
0.995944 0.994669 0.920501
0.994993 0.994792 0.950297
0.996689 0.996793 0.984577
0.998502 0.994869 0.935227
0.99492 0.994786 0.958104
0.997079 1.00256 0.996314
1.00043 0.997736 0.993685
1.00334 0.996916 0.992389
1.00272 0.99746 0.992358
1.00469 0.994806 0.991808
1.00509 0.994648 0.991255
1.00488 0.997478 0.988162
1.00501 0.99584 0.989998
1.00531 0.994755 0.990441
1.00494 0.997325 0.98825
1.00535 0.994786 0.990356
1.00529 0.994823 0.990771
1.00531 0.994868 0.990861
1.00527 0.994793 0.991093
1.00531 0.994834 0.991081
1.00533 0.995293 0.990327
1.00532 0.995172 0.990295
1.00536 0.994998 0.990235
1.00545 0.997387 0.987849
1.00541 0.996789 0.98809
1.00535 0.996785 0.988349
1.0054 1.00174 0.983876
1.00547 1.00003 0.985625
1.00529 0.999367 0.986286
1.00483 1.0024 0.984299
1.00541 1.00375 0.982123
1.00531 1.00289 0.983433
1.00165 1.00408 0.987881
1.00311 1.00313 0.986895
1.00304 1.00453 0.983318
1.00078 1.00073 0.997152
1.00164 1.00288 0.989415
1.00279 1.00231 0.987553
1.00049 1.00088 0.995607
1.00153 1.00252 0.989704
1.00059 1.00013 0.997511
1.0048 1.00435 0.982863
1.00354 1.00337 0.985679
1.00314 1.00274 0.986358
1.00401 1.00208 0.987465
1.00255 1.00428 0.986904
1.00172 1.00514 0.987561
1.0005 1.00219 0.992185
1.00129 1.00514 0.987859
1.0007 1.00511 0.986806
1.00007 0.998774 0.998327
0.999948 1.00186 0.992994
1.00108 1.00514 0.988208
0.999965 0.998459 0.998591
1.00004 1.00104 0.993638
0.999996 0.997999 0.998752
0.997757 0.994849 0.852448
0.994775 0.994809 0.789529
0.994783 0.994808 0.787796
1.00278 1.00311 0.986832
1.00187 1.00487 0.987253
1.00428 1.00312 0.985384
1.005 0.999331 0.987336
1.0021 1.00003 0.991615
0.998876 1.00214 0.996345
1.00133 1.00018 0.99354
1.00113 1.0001 0.993899
1.00481 0.995457 0.991642
1.00179 0.99804 0.995157
1.00179 0.998506 0.994925
1.00024 0.998744 0.996636
0.999311 1.00152 0.99639
0.997439 0.99468 0.931865
0.996609 0.995132 0.849331
0.994732 0.994887 0.798198
0.994761 0.995652 0.850419
0.994794 0.99483 0.927812
0.995029 0.997114 0.958102
0.994974 0.995703 0.962613
0.994886 0.994641 0.932804
0.995653 0.99479 0.959296
0.997053 0.995749 1.00531
0.997506 0.996172 1.00589
0.999646 0.995502 1.00164
0.995253 0.997416 0.993672
0.996121 0.99493 0.993484
0.99976 0.99744 0.918692
0.999749 0.995052 0.856846
0.994775 0.994705 0.786513
0.995371 0.997512 0.980806
0.994911 0.994763 0.949441
0.9991 0.994855 0.849951
0.995515 0.994691 0.935277
0.996778 0.995951 0.984768
0.999601 0.994851 0.930297
0.995342 0.994793 0.955491
0.999707 0.994668 0.983846
0.997863 0.994799 0.967589
1.00002 0.99794 0.993579
1.00239 0.996118 0.992447
1.00489 0.994649 0.991964
1.00442 0.994817 0.991734
1.00504 0.994661 0.991173
1.00529 0.99468 0.990735
1.00491 0.995896 0.989879
1.0053 0.994763 0.990397
1.00535 0.994827 0.990461
1.00536 0.994784 0.990309
1.00529 0.994824 0.990774
1.00533 0.994862 0.99062
1.0053 0.994869 0.990847
1.00534 0.994852 0.990822
1.00525 0.994798 0.991084
1.0053 0.994814 0.991087
1.00527 0.994886 0.991019
1.00534 0.996015 0.989797
1.00534 0.995332 0.990332
1.00533 0.995248 0.990436
1.00538 1.00002 0.9856
1.00548 0.997462 0.987697
1.0054 0.996754 0.988065
1.00525 1.0043 0.982371
1.00541 1.00183 0.983993
1.00552 1.00004 0.985618
1.00293 1.00373 0.986234
1.00432 1.00301 0.984402
1.00542 1.00389 0.98231
1.00077 1.00135 0.996838
1.00193 1.0038 0.987818
1.00289 1.00382 0.986839
1.00072 1.00074 0.997122
1.00189 1.00269 0.989469
1.00074 1.00046 0.997248
1.00509 1.00297 0.984371
1.00481 1.00443 0.982999
1.00308 1.00497 0.983723
1.00295 1.00352 0.985664
1.00266 1.00396 0.986098
1.00191 1.00435 0.986435
1.00228 1.00361 0.986954
1.00144 1.00514 0.987461
1.00109 1.00279 0.990664
1.0001 0.999539 0.997995
1.00025 1.00238 0.992173
1.00085 1.00515 0.98783
0.999999 0.999042 0.99841
0.999834 1.0021 0.99295
0.999947 0.998455 0.998633
0.999964 0.994827 0.935379
0.999851 0.995263 0.849223
0.994765 0.994775 0.783446
1.00203 1.0053 0.986254
1.00414 1.00333 0.98469
1.00299 1.00004 0.990423
1.005 0.999829 0.986944
1.00511 0.997571 0.988406
1.00477 0.995319 0.990915
1.00184 0.998328 0.993983
1.00503 0.995727 0.990851
1.00178 0.998078 0.995035
1.00437 0.998165 0.990412
1.00212 0.99891 0.992887
1.00203 0.998787 0.994445
1.00166 0.999024 0.99509
1.0011 0.998183 0.996576
0.994947 0.994774 0.958487
0.996631 0.994658 0.926675
0.995218 0.995248 0.867985
0.994792 0.994612 0.917793
0.994867 0.995868 0.963314
0.995729 0.994941 0.965654
0.998598 0.994768 0.990229
0.998464 0.995328 1.00384
0.996877 0.997034 1.00598
0.997565 0.995191 0.995194
0.999056 0.994756 0.958546
1.00068 0.994871 0.934993
0.999484 1.00012 0.835501
0.996716 0.995866 0.985204
0.995897 0.994783 0.955654
0.998787 0.994785 0.925066
0.999459 0.995257 0.984459
0.997644 0.994809 0.96634
1.00197 0.996658 0.987245
1.0036 0.994708 0.984246
1.00136 0.995766 0.992516
1.00421 0.994661 0.992079
1.00522 0.994817 0.990856
1.00497 0.994672 0.991091
1.00529 0.99469 0.990699
1.00539 0.994789 0.99048
1.00528 0.994763 0.990352
1.00535 0.994821 0.990467
1.00537 0.994847 0.990547
1.00529 0.994822 0.990776
1.00533 0.994861 0.990645
1.00533 0.994879 0.99076
1.00528 0.994868 0.990834
1.00534 0.994854 0.990815
1.00531 0.994875 0.990993
1.0053 0.994794 0.991093
1.00527 0.994878 0.991034
1.00528 0.995581 0.990373
1.00533 0.998452 0.987415
1.00535 0.996241 0.98946
1.00534 0.995372 0.990337
1.00529 1.00314 0.982808
1.00536 1.00022 0.985605
1.00551 0.997553 0.987546
1.0035 1.00295 0.986111
1.00475 1.00439 0.982404
1.00538 1.00198 0.984125
1.00174 1.00207 0.9959
1.00289 1.00371 0.986103
1.00376 1.00366 0.984521
1.00121 1.00163 0.996408
1.00223 1.00347 0.987762
1.00091 1.00064 0.996927
1.00536 1.00034 0.985521
1.00502 1.00299 0.984025
1.00489 1.00406 0.982855
1.00479 1.00358 0.983129
1.00437 1.00433 0.983438
1.00336 1.0037 0.984996
1.00326 1.00509 0.985855
1.00275 1.00439 0.986482
1.00156 1.00346 0.988766
1.00146 1.00513 0.987384
1.00074 1.003 0.990672
1.00026 1.00073 0.997354
1.00005 0.999297 0.998129
1.00001 1.00235 0.992177
0.999907 0.998839 0.998478
0.995109 0.994823 0.962699
0.998886 0.994881 0.918854
0.999653 0.997936 0.864706
1.00535 0.996101 0.98921
1.00398 1.00004 0.989262
1.00503 1.00009 0.986552
1.00503 0.995579 0.990908
1.00527 0.99743 0.988487
1.00536 0.995598 0.990015
1.00505 0.995844 0.990075
1.0012 0.997872 0.994947
1.00449 0.996896 0.990449
1.00187 0.998995 0.992759
1.00344 0.998966 0.990162
1.00335 0.994605 0.994572
1.00135 0.998432 0.994845
1.00128 0.999305 0.995263
0.998024 0.994745 0.988442
0.9954 0.994756 0.956781
0.995946 0.994689 0.920638
0.995195 0.994803 0.967056
0.998637 0.994756 0.992433
0.999205 0.994836 1.00234
1.00421 0.994713 0.975633
1.00039 0.994837 0.956015
0.999903 0.996614 0.918974
0.998857 0.995763 0.985022
0.996869 0.994806 0.966023
1.00139 0.995739 0.98798
1.0026 0.99472 0.984814
1.00321 0.996729 0.990179
1.00541 0.994611 0.990745
1.0036 0.99467 0.992198
1.0052 0.9948 0.990847
1.00539 0.994923 0.990517
1.0053 0.994707 0.990664
1.00539 0.994803 0.99049
1.00539 0.994839 0.990611
1.00536 0.99482 0.990474
1.00536 0.994848 0.990544
1.00533 0.994882 0.990819
1.00534 0.994862 0.990671
1.00534 0.994879 0.990754
1.0053 0.994892 0.990974
1.00534 0.994856 0.990808
1.0053 0.994867 0.990964
1.00532 0.994913 0.991066
1.00527 0.994869 0.991049
1.00527 0.995398 0.990575
1.00532 0.9977 0.988383
1.00529 1.00173 0.984341
1.00531 0.99876 0.987128
1.00536 0.996451 0.989122
1.00366 1.00179 0.986773
1.0053 1.00315 0.982817
1.00535 1.00038 0.985605
1.00255 1.00158 0.995692
1.00348 1.00278 0.98604
1.00441 1.00449 0.982417
1.00199 1.00206 0.995773
1.00285 1.00368 0.985957
1.00149 1.00208 0.996062
1.00539 0.997882 0.987453
1.00529 1.00042 0.985548
1.00546 1.00255 0.983496
1.00489 1.00339 0.983686
1.00495 1.0043 0.982584
1.0039 1.00396 0.98379
1.0052 1.00395 0.98316
1.00337 1.00401 0.985028
1.00209 1.00389 0.987448
1.00265 1.00443 0.986465
1.00153 1.00373 0.988811
1.00058 1.00196 0.996754
1.00053 1.00328 0.990681
1.00005 1.00051 0.997618
0.999979 0.999457 0.998241
0.998816 0.994565 0.985607
0.996373 0.994781 0.957298
0.999992 0.994838 0.935093
1.00542 0.995011 0.989971
1.00533 0.995011 0.990294
1.00537 0.99583 0.989372
1.00528 0.995943 0.990896
1.00538 0.997203 0.988573
1.00535 0.995665 0.990017
1.00537 0.995057 0.989954
1.00477 0.995905 0.990483
1.00249 0.999274 0.992647
1.00358 0.99826 0.990761
1.00521 0.994798 0.991175
1.00352 0.994855 0.993196
1.00254 0.994715 0.99449
1.00138 0.998158 0.995248
0.998776 0.994659 0.988285
0.996154 0.994792 0.955911
0.999258 0.994781 0.994769
1.00504 0.995395 0.989388
1.0041 0.994999 0.975664
0.999126 0.994818 0.956858
1.00148 0.994806 0.9886
1.0017 0.994704 0.985414
1.00356 0.995796 0.990539
1.00537 0.994597 0.990942
1.00545 0.99474 0.991014
1.0055 0.99469 0.991443
1.00521 0.994774 0.990835
1.0054 0.994872 0.99053
1.00541 0.994843 0.990904
1.00539 0.994809 0.9905
1.0054 0.994837 0.990626
1.00535 0.994858 0.990928
1.00536 0.994846 0.990541
1.00534 0.994883 0.990818
1.00527 0.994909 0.991071
1.00534 0.994879 0.990747
1.0053 0.994892 0.990969
1.00526 0.994879 0.991254
1.00529 0.994859 0.990935
1.00531 0.99492 0.991
1.00533 0.996706 0.989369
1.00526 0.995226 0.990776
1.00532 0.997603 0.988501
1.0053 1.00078 0.985397
1.00374 1.00111 0.987472
1.00531 1.00169 0.984371
1.00529 0.999086 0.986843
1.00274 1.0008 0.995833
1.00364 1.00189 0.986846
1.0053 1.00322 0.982822
1.00254 1.00145 0.995722
1.00347 1.00287 0.985981
1.00215 1.00213 0.995687
1.00532 0.995864 0.98954
1.00539 0.997713 0.987736
1.00537 1.00081 0.985207
1.00527 1.00052 0.985572
1.00545 1.00257 0.983379
1.00451 1.00425 0.982745
1.00538 1.00432 0.982307
1.00426 1.00401 0.983758
1.0025 1.00407 0.986356
1.00395 1.00423 0.985092
1.00195 1.00398 0.98749
1.00097 1.00246 0.996303
1.00118 1.00401 0.988856
1.00035 1.00173 0.996952
1 1.00006 0.997848
1.00374 0.99469 0.992217
0.998346 0.994718 0.982975
0.99597 0.994778 0.958746
1.00538 0.994836 0.990277
1.00539 0.995052 0.990009
1.00528 0.994841 0.990836
1.00533 0.995113 0.990255
1.0054 0.995607 0.989523
1.00541 0.994825 0.990443
1.00534 0.995644 0.990011
1.00535 0.995036 0.989975
1.00532 0.994722 0.99091
1.00361 0.997347 0.991356
1.00522 0.994739 0.99082
1.00298 0.994685 0.993408
1.00144 0.994767 0.994442
0.999511 0.994575 0.9879
1.00542 0.994748 0.991625
1.0053 0.994722 0.989412
1.00398 0.994776 0.975779
1.00374 0.994879 0.990873
1.00534 0.994621 0.99113
1.00541 0.994737 0.990962
1.00554 0.994717 0.991568
1.00543 0.994793 0.991437
1.00542 0.994833 0.990546
1.0054 0.994839 0.990903
1.00535 0.994866 0.991209
1.0054 0.994838 0.990642
1.00534 0.994863 0.990929
1.00529 0.994907 0.991198
1.00534 0.994884 0.990817
1.00528 0.994909 0.991068
1.00515 0.994909 0.991492
1.0053 0.994892 0.990965
1.00528 0.994881 0.99122
1.00533 0.99584 0.990431
1.00531 0.994926 0.990934
1.00535 0.996731 0.989347
1.0053 1.00006 0.98622
1.00533 0.997497 0.988619
1.00531 1.00075 0.985425
1.00361 1.00093 0.989812
1.00309 0.999852 0.992089
1.00374 1.00114 0.988468
1.00532 1.00163 0.984401
1.00264 1.00075 0.99591
1.0036 1.00169 0.986919
1.00249 1.00141 0.99578
1.00529 0.99489 0.991058
1.00535 0.995017 0.990606
1.00532 0.995853 0.989737
1.00533 0.999036 0.986878
1.00538 0.997512 0.98802
1.00535 1.00074 0.985154
1.00513 1.00348 0.982735
1.00541 1.00265 0.983262
1.00491 1.00393 0.982706
1.00309 1.00341 0.985888
1.00456 1.00413 0.983734
1.00256 1.00405 0.986399
1.00168 1.00265 0.995808
1.00208 1.004 0.987545
1.00085 1.0023 0.996489
0.999977 1.00156 0.997205
1.00536 0.994811 0.991387
1.00335 0.994798 0.991697
0.998309 0.994848 0.980366
1.00531 0.994874 0.990751
1.00539 0.994897 0.990227
1.00537 0.995067 0.990058
1.00528 0.994857 0.990871
1.00533 0.995247 0.990216
1.00536 0.994828 0.990945
1.00538 0.994813 0.990394
1.00532 0.995087 0.989997
1.00528 0.994721 0.990958
1.00519 0.994741 0.990464
1.00253 0.994453 0.993563
1.00538 0.994821 0.991474
1.00541 0.994749 0.991629
1.00535 0.994613 0.989439
1.00538 0.994722 0.9909
1.00559 0.994704 0.991692
1.00544 0.994798 0.991416
1.00535 0.994878 0.991473
1.0054 0.994834 0.990901
1.00535 0.994868 0.991168
1.0053 0.994915 0.991357
1.00534 0.994867 0.990929
1.00528 0.994909 0.991203
1.00512 0.994947 0.99164
1.00528 0.994909 0.991064
1.00517 0.994911 0.991476
1.00531 0.995262 0.9912
1.0053 0.994883 0.991187
1.00529 0.995857 0.990423
1.00529 0.999508 0.986839
1.00536 0.996754 0.989325
1.00529 1.00004 0.986257
1.00359 1.0007 0.990043
1.00532 1.00071 0.985454
1.00386 1.00077 0.989654
1.00299 0.999645 0.992249
1.0027 1.00018 0.994162
1.00395 1.00114 0.989241
1.00261 1.00062 0.995968
1.00527 0.994911 0.991042
1.00533 0.994888 0.990991
1.00529 0.994902 0.991085
1.00536 0.997392 0.988484
1.00533 0.994966 0.990729
1.00532 0.995858 0.989934
1.00532 0.998936 0.986881
1.00534 1.00193 0.984003
1.00532 1.00063 0.985105
1.00513 1.00354 0.982723
1.00344 1.00227 0.986661
1.00525 1.00376 0.982671
1.00311 1.00347 0.985955
1.00217 1.00204 0.995731
1.00256 1.00391 0.986446
1.00147 1.00238 0.996001
1.00061 1.00231 0.996612
1.00535 0.994845 0.991214
1.00533 0.994807 0.991436
1.00254 0.994937 0.991207
1.0053 0.994902 0.991016
1.00531 0.994864 0.990711
1.00539 0.994906 0.99018
1.00528 0.994871 0.990905
1.00538 0.994842 0.990901
1.00535 0.994805 0.990344
1.00526 0.994736 0.991001
1.00537 0.994874 0.991474
1.00537 0.994829 0.991447
1.00538 0.994775 0.991628
1.00533 0.994898 0.991527
1.00544 0.994812 0.991394
1.00535 0.99488 0.99146
1.00531 0.994915 0.991492
1.00535 0.994872 0.991127
1.0053 0.994915 0.991363
1.00515 0.994955 0.991698
1.00528 0.99491 0.991208
1.00512 0.994945 0.991637
1.00527 0.995012 0.991609
1.0052 0.994913 0.99146
1.00526 0.995312 0.991193
1.00534 0.99904 0.987315
1.00526 0.995874 0.990415
1.0053 0.999501 0.986866
1.00356 1.00053 0.990203
1.00527 1.00003 0.986296
1.00383 1.00057 0.989858
1.00288 0.999737 0.992292
1.00411 1.00059 0.989502
1.00245 0.999798 0.992669
1.0019 1.00053 0.996675
1.00525 0.994943 0.991129
1.00522 0.994915 0.991263
1.00527 0.994916 0.991063
1.00533 0.996889 0.989134
1.00532 0.994873 0.991041
1.00529 0.994915 0.991114
1.00535 1.00059 0.985461
1.00537 0.997328 0.98851
1.00533 0.99492 0.990852
1.00532 0.998843 0.986884
1.00534 1.00201 0.98397
1.00352 1.00142 0.987536
1.00533 1.00352 0.982696
1.00342 1.00233 0.98663
1.0023 1.00123 0.995941
1.00314 1.00353 0.986003
1.00212 1.00207 0.995724
1.00137 1.00229 0.996233
1.00531 0.994899 0.991345
1.00537 0.994837 0.991155
1.0053 0.994781 0.991491
1.00529 0.994904 0.991022
1.00532 0.994851 0.990673
1.00539 0.994851 0.990856
1.00533 0.994905 0.991527
1.00537 0.994875 0.99148
1.00537 0.994835 0.991419
1.00533 0.9949 0.991547
1.0053 0.994923 0.991614
1.00535 0.994881 0.991447
1.00531 0.994917 0.991515
1.00516 0.994932 0.991732
1.0053 0.994915 0.99137
1.00514 0.994956 0.991705
1.00529 0.994946 0.991726
1.00512 0.994943 0.991635
1.00527 0.995027 0.991593
1.00537 0.998594 0.987784
1.00521 0.995361 0.991186
1.00536 0.999027 0.987324
1.00346 1.00042 0.99044
1.00531 0.999494 0.986895
1.00379 1.00045 0.990009
1.00274 0.99987 0.992334
1.00406 1.00046 0.989679
1.00239 0.999801 0.992732
1.00191 0.999982 0.993076
1.00525 0.994935 0.99135
1.00516 0.994963 0.991426
1.00526 0.994937 0.9911
1.00528 0.996209 0.990067
1.00521 0.994922 0.991254
1.00527 0.99492 0.991082
1.0053 0.999832 0.986416
1.00534 0.996511 0.989525
1.00532 0.994856 0.991093
1.00361 1.00082 0.98802
1.00534 1.00065 0.985412
1.00537 0.997255 0.988536
1.00532 1.00207 0.983936
1.00354 1.00138 0.987478
1.00236 1.00068 0.996079
1.00339 1.00246 0.986611
1.00234 1.00135 0.995863
1.00201 1.002 0.995771
1.00529 0.994921 0.991525
1.00531 0.994896 0.991304
1.00538 0.994831 0.991095
1.00529 0.99491 0.991028
1.00526 0.994938 0.991649
1.00533 0.994905 0.991531
1.00537 0.994879 0.991487
1.00533 0.994902 0.991566
1.00529 0.994921 0.991623
1.00514 0.994931 0.991903
1.0053 0.994917 0.991539
1.00516 0.994933 0.991789
1.00531 0.99494 0.991669
1.00513 0.994956 0.991712
1.00529 0.994948 0.991716
1.00536 0.998242 0.988196
1.00527 0.995042 0.991579
1.00539 0.998582 0.987776
1.00347 1.0003 0.988872
1.00539 0.999015 0.987332
1.00367 1.00037 0.989367
1.00229 0.999956 0.996185
1.00401 1.00037 0.989814
1.00228 0.999901 0.992768
1.00192 0.99985 0.993154
1.00524 0.994941 0.991508
1.00513 0.994949 0.991586
1.00525 0.99494 0.991389
1.00526 0.995341 0.991133
1.00516 0.99496 0.991415
1.00526 0.994932 0.991072
1.00535 0.998661 0.987667
1.00529 0.996178 0.990063
1.00521 0.994931 0.991245
1.00367 1.0005 0.988269
1.0053 0.999499 0.986752
1.00534 0.996134 0.989915
1.00242 1.00027 0.996146
1.00363 1.00079 0.987977
1.00533 1.00072 0.985363
1.00356 1.00135 0.987422
1.00242 1.00072 0.99604
1.0024 1.00142 0.995775
1.00524 0.994955 0.991566
1.0053 0.994921 0.991512
1.00531 0.994891 0.991264
1.00508 0.99494 0.992051
1.00526 0.994937 0.991622
1.00534 0.994903 0.991534
1.00529 0.994921 0.991633
1.00514 0.994929 0.991905
1.0053 0.995486 0.991112
1.00516 0.994933 0.991846
1.00531 0.995236 0.991386
1.00535 0.997461 0.98905
1.00529 0.99495 0.991706
1.00537 0.998222 0.988182
1.00339 1.00006 0.989228
1.0054 0.998571 0.987772
1.00349 1.00027 0.988887
1.00217 1.00001 0.996226
1.00374 1.00033 0.988483
1.0021 0.999996 0.994628
1.00184 0.999913 0.9932
1.0052 0.994958 0.991664
1.00506 0.994961 0.991832
1.00524 0.994944 0.99152
1.00525 0.995286 0.991363
1.00512 0.994948 0.991625
1.00525 0.994946 0.991428
1.00538 0.998291 0.987999
1.00527 0.995636 0.990782
1.00515 0.994957 0.991405
1.00365 1.0004 0.988424
1.00534 0.998596 0.987713
1.0053 0.99615 0.990059
1.00241 1.00006 0.996159
1.00366 1.00052 0.988252
1.00531 0.999167 0.987092
1.00247 1.00029 0.996124
1.00365 1.00077 0.987932
1.00242 1.00078 0.996008
1.00505 0.994959 0.991998
1.00524 0.994951 0.991602
1.00531 0.994922 0.991498
1.00527 0.995529 0.991133
1.00509 0.994941 0.992024
1.00526 0.994937 0.991595
1.00515 0.994927 0.991908
1.0053 0.995529 0.991104
1.00536 0.997358 0.989106
1.00531 0.995545 0.991102
1.00535 0.997753 0.988728
1.00332 0.999862 0.989525
1.00538 0.998204 0.988168
1.00338 1.00007 0.989239
1.00203 1 0.9963
1.0035 1.00024 0.988899
1.00211 1.00002 0.996248
1.0022 0.999993 0.992698
1.00501 0.994979 0.99202
1.00519 0.994953 0.991593
1.00524 0.995163 0.991577
1.00506 0.994964 0.991838
1.00523 0.994944 0.991533
1.00539 0.99881 0.987465
1.00526 0.995203 0.991361
1.00512 0.994946 0.991665
1.00358 1.00037 0.988609
1.00537 0.998633 0.987654
1.00528 0.995945 0.990433
1.00232 1.00003 0.996153
1.00363 1.00044 0.988417
1.00534 0.998527 0.987762
1.00246 1.00007 0.996155
1.00365 1.00054 0.988229
1.00254 1.0003 0.996098
1.00525 0.995623 0.991069
1.00505 0.994961 0.992042
1.00524 0.994948 0.991639
1.00537 0.997452 0.989
1.00527 0.995569 0.991121
1.00509 0.994943 0.991996
1.0053 0.995569 0.991096
1.00535 0.997407 0.989106
1.00328 0.999746 0.989725
1.00536 0.998032 0.988408
1.00333 0.999859 0.989528
1.00194 0.999986 0.996384
1.00339 1.00007 0.989252
1.00198 1.00003 0.996339
1.00207 1.00003 0.996279
1.00522 0.995087 0.991741
1.00502 0.994978 0.991957
1.00518 0.994947 0.991521
1.00539 0.998655 0.987658
1.00524 0.995099 0.991576
1.00507 0.994968 0.991843
1.00349 1.00029 0.988863
1.00538 0.998841 0.98747
1.00528 0.99512 0.991359
1.00218 1.00007 0.996168
1.00355 1.00041 0.988606
1.00536 0.998963 0.987307
1.00237 1.00003 0.996155
1.00361 1.00049 0.988408
1.00253 1.00006 0.996147
1.00538 0.998302 0.988075
1.00525 0.995307 0.991433
1.00505 0.99496 0.992086
1.00326 0.999717 0.98982
1.00537 0.997475 0.989017
1.00527 0.995607 0.99111
1.00535 0.997455 0.989106
1.0033 0.999724 0.98972
1.00187 0.999973 0.996431
1.00333 0.999857 0.98953
1.00191 0.999991 0.996398
1.00192 1.00004 0.996368
1.00539 0.998493 0.987875
1.00522 0.995052 0.991725
1.00503 0.994979 0.991894
1.00356 1.00014 0.990615
1.00538 0.998677 0.987664
1.00524 0.995035 0.991575
1.00205 1.0001 0.996225
1.00346 1.00033 0.988865
1.00537 0.998872 0.987475
1.00224 1.00006 0.996163
1.00353 1.00046 0.988603
1.00244 1.00001 0.996154
1.00342 0.999729 0.989621
1.00537 0.997976 0.988457
1.00524 0.994982 0.991799
1.00179 0.999976 0.996483
1.00327 0.999689 0.989805
1.00537 0.997502 0.989036
1.00331 0.9997 0.989713
1.00184 0.999966 0.996448
1.00187 1 0.996415
1.00363 0.999936 0.990797
1.00538 0.998501 0.987882
1.00522 0.995015 0.991708
1.00136 1.00014 0.996983
1.00338 1.00016 0.989163
1.00538 0.998697 0.987673
1.00208 1.0001 0.996211
1.00343 1.00038 0.988865
1.00229 1.00005 0.996158
1.00181 0.999866 0.9934
1.00343 0.999763 0.99034
1.00537 0.997657 0.988837
1.00182 0.999971 0.996484
1.00329 0.999669 0.989797
1.00185 0.999962 0.996459
1.00117 1.00006 0.993933
1.0035 0.999883 0.990121
1.00537 0.998513 0.987887
1.00162 1.00011 0.995029
1.00335 1.00016 0.989187
1.00212 1.00009 0.996198
1.00182 0.999976 0.996465
1.00327 0.999765 0.989725
1.0018 0.999958 0.996476
1.00157 0.999958 0.995192
1.00335 0.999865 0.989507
1.00197 1.0001 0.996271
1.00182 1 0.996452
1.00187 1.00003 0.99637

TENSORS stress float
0.00281434 -0.000198439 0.000325866
-0.000198439 0.00150371 -6.17723e-05
0.000325866 -6.17723e-05 0.00147575
0.00853772 0.000203939 0.00040777
0.000203939 0.00525465 5.47204e-05
0.00040777 5.47204e-05 0.00527441
0.0024107 -0.00012795 0.000127126
-0.00012795 0.00123227 -2.34343e-05
0.000127126 -2.34343e-05 0.00118829
0.00256224 -0.000109888 0.000302043
-0.000109888 0.00133005 -3.45663e-05
0.000302043 -3.45663e-05 0.00131454
0.0027544 -0.000171753 0.000315069
-0.000171753 0.00146071 -5.3529e-05
0.000315069 -5.3529e-05 0.00143636
0.00293658 -0.000209595 0.000341075
-0.000209595 0.00157991 -6.54391e-05
0.000341075 -6.54391e-05 0.00155315
0.00228283 -0.000253877 6.51827e-05
-0.000253877 0.000958812 -1.61167e-05
6.51827e-05 -1.61167e-05 0.000794229
0.00869639 0.00019921 -9.82053e-06
0.00019921 0.00534855 -3.76566e-06
-9.82053e-06 -3.76566e-06 0.00537263
0.00749547 0.000296813 0.000197716
0.000296813 0.0046041 2.37655e-05
0.000197716 2.37655e-05 0.00456712
0.00796686 0.000122568 0.00014226
0.000122568 0.00485759 1.11885e-05
0.00014226 1.11885e-05 0.0048352
0.00230704 0.000271308 0.000365833
0.000271308 0.00120301 6.05775e-05
0.000365833 6.05775e-05 0.00117626
0.000229925 0.000326453 2.58628e-05
0.000326453 -0.000294553 2.53638e-05
2.58628e-05 2.53638e-05 -0.000507961
0.00206448 -2.60305e-05 0.00028745
-2.60305e-05 0.00100583 6.14596e-06
0.00028745 6.14596e-06 0.0010133
0.00181672 1.09211e-05 8.33024e-05
1.09211e-05 0.000871047 3.90112e-06
8.33024e-05 3.90112e-06 0.000817093
0.00207725 -0.000124395 -8.32183e-05
-0.000124395 0.00102956 1.56149e-05
-8.32183e-05 1.56149e-05 0.000959071
0.00221573 -0.000106367 9.66328e-05
-0.000106367 0.00112438 -6.72362e-06
9.66328e-05 -6.72362e-06 0.001084
0.00250217 -0.000122189 0.000140345
-0.000122189 0.00129092 -2.69427e-05
0.000140345 -2.69427e-05 0.00124565
0.00235494 -0.000127538 0.000114219
-0.000127538 0.00120147 -1.72933e-05
0.000114219 -1.72933e-05 0.00115868
0.00241311 -0.000290932 -5.02152e-05
-0.000290932 0.00104706 9.01679e-06
-5.02152e-05 9.01679e-06 0.000892808
0.00683644 -0.000177822 0.000384731
-0.000177822 0.00417786 -2.1043e-05
0.000384731 -2.1043e-05 0.004208
0.00241579 -8.32432e-05 0.000293601
-8.32432e-05 0.00123714 -2.60365e-05
0.000293601 -2.60365e-05 0.00122586
0.00268053 -0.000140532 0.000308856
-0.000140532 0.00140813 -4.40393e-05
0.000308856 -4.40393e-05 0.00138842
0.00214254 -0.000189448 7.89926e-05
-0.000189448 0.000915424 -1.28643e-05
7.89926e-05 -1.28643e-05 0.00079399
0.00224975 -0.000239478 7.18686e-05
-0.000239478 0.000951786 -1.57609e-05
7.18686e-05 -1.57609e-05 0.000804652
0.00282603 -0.000191576 0.000346688
-0.000191576 0.00150289 -6.32426e-05
0.000346688 -6.32426e-05 0.00148068
0.00233336 -0.000269128 6.28883e-05
-0.000269128 0.000993518 -1.73218e-05
6.28883e-05 -1.73218e-05 0.000806927
0.00225242 -0.000512411 1.6086e-05
-0.000512411 0.000590861 -5.16172e-06
1.6086e-05 -5.16172e-06 0.000277862
0.00883774 0.000200078 -0.000443024
0.000200078 0.00542733 -4.83758e-05
-0.000443024 -4.83758e-05 0.00545928
0.00501797 0.000217762 -0.00017412
0.000217762 0.00296223 -2.23717e-05
-0.00017412 -2.23717e-05 0.00293538
0.00526685 0.000167376 -0.000186186
0.000167376 0.00311514 -2.42121e-05
-0.000186186 -2.42121e-05 0.00309201
0.00914711 0.00014398 -6.03456e-06
0.00014398 0.00563989 -2.79128e-06
-6.03456e-06 -2.79128e-06 0.00566613
0.000251076 0.000310266 -1.18091e-06
0.000310266 -0.000272468 -1.10176e-06
-1.18091e-06 -1.10176e-06 -0.000483259
0.0022295 8.61311e-05 0.000302675
8.61311e-05 0.00110955 3.22332e-05
0.000302675 3.22332e-05 0.00109973
0.00235306 0.000179143 0.000319133
0.000179143 0.00121538 5.12496e-05
0.000319133 5.12496e-05 0.00119136
0.00308032 0.00028936 0.000184224
0.00028936 0.00150287 2.97789e-05
0.000184224 2.97789e-05 0.00138548
0.00883345 -0.000177771 7.81793e-05
-0.000177771 0.0054767 4.65858e-06
7.81793e-05 4.65858e-06 0.0054334
0.00330692 0.000401968 0.000203806
0.000401968 0.00169694 4.04417e-05
0.000203806 4.04417e-05 0.00154266
0.000245702 0.000296504 2.66935e-05
0.000296504 -0.000259984 3.47298e-05
2.66935e-05 3.47298e-05 -0.000476201
0.00149326 0.000555997 3.10479e-05
0.000555997 0.000229691 4.71339e-06
3.10479e-05 4.71339e-06 -0.000166211
0.00716129 -7.28058e-05 0.00028162
-7.28058e-05 0.00446816 3.7261e-05
0.00028162 3.7261e-05 0.00446456
0.00675097 9.4823e-05 2.78961e-06
9.4823e-05 0.00410572 -2.27389e-06
2.78961e-06 -2.27389e-06 0.00414578
0.00446852 0.000110298 -0.000145012
0.000110298 0.00260634 -7.39952e-06
-0.000145012 -7.39952e-06 0.00259703
0.00662281 5.79403e-05 0.000372554
5.79403e-05 0.00402386 5.54626e-06
0.000372554 5.54626e-06 0.00406533
0.00170822 9.31223e-05 8.51001e-05
9.31223e-05 0.000805705 7.10374e-06
8.51001e-05 7.10374e-06 0.00075532
0.000390322 1.88674e-05 1.20584e-05
1.88674e-05 -0.000214723 3.10746e-06
1.20584e-05 3.10746e-06 -0.000314407
0.00700098 0.000259028 0.000217073
0.000259028 0.00430567 2.29069e-05
0.000217073 2.29069e-05 0.0042785
0.00299815 0.000111711 0.000166425
0.000111711 0.001461 1.30182e-05
0.000166425 1.30182e-05 0.00139343
0.00185272 -0.000107237 -9.97178e-05
-0.000107237 0.000909076 1.39036e-05
-9.97178e-05 1.39036e-05 0.000843198
0.00194808 -0.00014153 -9.48873e-05
-0.00014153 0.000963746 1.78093e-05
-9.48873e-05 1.78093e-05 0.000890501
0.00217379 -9.03046e-05 -7.13725e-05
-9.03046e-05 0.00107728 1.31006e-05
-7.13725e-05 1.31006e-05 0.00101007
0.00249679 -0.000292572 -0.000172938
-0.000292572 0.00109085 3.41688e-05
-0.000172938 3.41688e-05 0.000952718
0.00434811 -4.79593e-05 -0.000147692
-4.79593e-05 0.00253483 -5.53959e-07
-0.000147692 -5.53959e-07 0.00252659
0.00212665 -8.43448e-05 9.92214e-05
-8.43448e-05 0.00106543 -5.24373e-06
9.92214e-05 -5.24373e-06 0.00103053
0.00270789 -9.76613e-05 0.00014398
-9.76613e-05 0.00141962 -2.56402e-05
0.00014398 -2.56402e-05 0.00137413
0.00229797 -0.00011724 0.000104145
-0.00011724 0.00117089 -1.12869e-05
0.000104145 -1.12869e-05 0.00112917
0.00223701 -0.000168532 -4.11169e-05
-0.000168532 0.000962596 3.8061e-06
-4.11169e-05 3.8061e-06 0.000857027
0.00244781 -0.000317486 -5.79494e-05
-0.000317486 0.00106926 1.0538e-05
-5.79494e-05 1.0538e-05 0.000894636
0.00234546 -0.000253293 -4.48849e-05
-0.000253293 0.00101119 6.82111e-06
-4.48849e-05 6.82111e-06 0.000875981
0.00239386 -0.000524133 -1.02565e-05
-0.000524133 0.000682298 2.70709e-06
-1.02565e-05 2.70709e-06 0.000369875
0.00665664 -2.39784e-05 0.00037153
-2.39784e-05 0.00404176 -5.97009e-06
0.00037153 -5.97009e-06 0.00408467
0.00232464 -5.63598e-05 0.000286697
-5.63598e-05 0.00118125 -1.85082e-05
0.000286697 -1.85082e-05 0.00117541
0.00252905 -3.63873e-05 6.15161e-05
-3.63873e-05 0.00119955 -1.32802e-06
6.15161e-05 -1.32802e-06 0.00112143
0.0020629 -0.000148412 7.08225e-05
-0.000148412 0.000872353 -8.63288e-06
7.08225e-05 -8.63288e-06 0.000766178
0.00221098 -0.000216241 7.68675e-05
-0.000216241 0.000945434 -1.49212e-05
7.68675e-05 -1.49212e-05 0.000811878
0.00209447 -0.000316742 1.51779e-06
-0.000316742 0.000420136 -1.25318e-06
1.51779e-06 -1.25318e-06 0.000221425
0.00218644 -0.000451986 1.0916e-05
-0.000451986 0.000496189 -2.1744e-06
1.0916e-05 -2.1744e-06 0.000235954
0.00305801 -0.000168309 0.000362176
-0.000168309 0.001646 -5.92145e-05
0.000362176 -5.92145e-05 0.00162448
0.00236853 -0.000225832 5.28315e-05
-0.000225832 0.0010578 -1.53879e-05
5.28315e-05 -1.53879e-05 0.000865609
0.0022433 -0.00057938 1.79799e-05
-0.00057938 0.000619731 -4.78889e-06
1.79799e-05 -4.78889e-06 0.000253113
0.00222474 -0.000684431 -1.89398e-07
-0.000684431 0.000314781 4.20954e-06
-1.89398e-07 4.20954e-06 -3.18077e-05
0.00801069 0.000352272 -0.000440351
0.000352272 0.0049317 -5.82406e-05
-0.000440351 -5.82406e-05 0.00494341
0.00911052 0.000109386 -0.000415457
0.000109386 0.0056173 -4.23907e-05
-0.000415457 -4.23907e-05 0.00564484
0.00838228 0.000255471 -0.00042711
0.000255471 0.00514024 -5.16523e-05
-0.00042711 -5.16523e-05 0.00516654
0.000171098 0.000291197 -2.59836e-05
0.000291197 -0.000315689 -2.52358e-05
-2.59836e-05 -2.52358e-05 -0.000525014
0.00761224 0.000288761 -2.03817e-06
0.000288761 0.00466761 -2.92041e-06
-2.03817e-06 -2.92041e-06 0.00468754
0.00807803 0.000325698 -7.73744e-06
0.000325698 0.00496237 -4.1958e-06
-7.73744e-06 -4.1958e-06 0.00497635
0.00036834 0.000196811 1.40329e-08
0.000196811 -0.000280072 -2.97349e-07
1.40329e-08 -2.97349e-07 -0.000442122
0.00518198 1.06451e-05 -0.000182066
1.06451e-05 0.00309928 -1.46663e-05
-0.000182066 -1.46663e-05 0.0030652
0.00033126 0.00028658 1.79216e-06
0.00028658 -0.000256608 -4.151e-07
1.79216e-06 -4.151e-07 -0.000455507
0.00186708 0.000330249 9.18715e-05
0.000330249 0.000804347 6.94217e-06
9.18715e-05 6.94217e-06 0.000622439
0.00143619 0.000570958 7.26455e-07
0.000570958 0.000171528 4.48335e-07
7.26455e-07 4.48335e-07 -0.000233487
0.00798349 -2.72894e-05 0.000339206
-2.72894e-05 0.00497321 4.51166e-05
0.000339206 4.51166e-05 0.0049769
0.000365147 0.000228963 3.48112e-05
0.000228963 -0.000145379 1.81797e-05
3.48112e-05 1.81797e-05 -0.000269541
0.000473299 0.000157229 1.41267e-05
0.000157229 -0.000217222 1.26607e-05
1.41267e-05 1.26607e-05 -0.000362773
0.000466672 0.000233579 1.81234e-05
0.000233579 -0.000209199 2.16008e-05
1.81234e-05 2.16008e-05 -0.000386333
0.00164029 0.000434993 1.20058e-05
0.000434993 8.0535e-05 3.80724e-06
1.20058e-05 3.80724e-06 -0.000187596
0.00395502 0.000367753 0.000213555
0.000367753 0.00218486 3.9908e-05
0.000213555 3.9908e-05 0.00204628
0.00159573 0.000539168 2.54387e-05
0.000539168 0.00017655 5.63803e-06
2.54387e-05 5.63803e-06 -0.000179427
0.00110853 0.000518618 3.24965e-05
0.000518618 8.24229e-05 4.4166e-06
3.24965e-05 4.4166e-06 -0.000334571
0.00207311 0.00080223 1.41393e-06
0.00080223 0.00037381 -7.11897e-06
1.41393e-06 -7.11897e-06 -0.00010355
0.00602966 -0.0001557 0.000199089
-0.0001557 0.00374578 2.5113e-05
0.000199089 2.5113e-05 0.00372588
0.00672504 -0.000146885 7.16754e-06
-0.000146885 0.00419325 4.91297e-06
7.16754e-06 4.91297e-06 0.0041759
0.00724623 9.26184e-05 -0.000394908
9.26184e-05 0.0044107 -2.33343e-05
-0.000394908 -2.33343e-05 0.00444896
0.00685166 8.73146e-05 -0.000384752
8.73146e-05 0.00416639 -1.4353e-05
-0.000384752 -1.4353e-05 0.00420794
0.00670889 8.4128e-05 -4.12141e-07
8.4128e-05 0.00408388 -4.6739e-06
-4.12141e-07 -4.6739e-06 0.00412322
0.00433084 5.31372e-05 -0.000155584
5.31372e-05 0.0025152 -9.35031e-06
-0.000155584 -9.35031e-06 0.00251219
0.0015209 4.83259e-05 7.39439e-05
4.83259e-05 0.000524578 2.47567e-06
7.39439e-05 2.47567e-06 0.000447404
0.00469953 0.000175528 -0.000149733
0.000175528 0.00276247 -1.00286e-05
-0.000149733 -1.00286e-05 0.0027436
0.00165383 0.000123841 7.53135e-05
0.000123841 0.000580653 4.46197e-06
7.53135e-05 4.46197e-06 0.000484905
0.00668 0.000104331 0.000377166
0.000104331 0.00407173 7.25771e-06
0.000377166 7.25771e-06 0.00410725
0.000252146 1.07814e-05 1.51998e-05
1.07814e-05 -0.000295711 1.89797e-06
1.51998e-05 1.89797e-06 -0.000390919
0.00292021 6.30941e-05 0.000164613
6.30941e-05 0.00142626 9.12994e-06
0.000164613 9.12994e-06 0.00136905
0.00144699 0.000103859 4.02138e-06
0.000103859 -6.06442e-05 1.16631e-06
4.02138e-06 1.16631e-06 -0.000189219
0.00292175 0.0001711 0.000172796
0.0001711 0.00139811 1.69163e-05
0.000172796 1.69163e-05 0.00131568
0.00154113 0.000221429 2.47726e-06
0.000221429 -2.67312e-05 1.02083e-06
2.47726e-06 1.02083e-06 -0.000189243
0.00208558 3.23213e-05 -0.000288331
3.23213e-05 0.00101377 5.4649e-06
-0.000288331 5.4649e-06 0.00102443
0.00180978 -3.61965e-05 -8.5541e-05
-3.61965e-05 0.000870897 5.23697e-06
-8.5541e-05 5.23697e-06 0.000814519
0.00235419 -5.97976e-05 -6.65091e-05
-5.97976e-05 0.00118871 1.19217e-05
-6.65091e-05 1.19217e-05 0.00112191
0.00188989 -0.000126702 -0.000102215
-0.000126702 0.000931694 1.69299e-05
-0.000102215 1.69299e-05 0.000862105
0.00235789 -0.00014671 -0.000156165
-0.00014671 0.00102779 1.63925e-05
-0.000156165 1.63925e-05 0.000938145
0.00247019 -0.000239425 -0.000165646
-0.000239425 0.00107745 2.81504e-05
-0.000165646 2.81504e-05 0.000959848
0.00262163 -0.000349231 -0.000183555
-0.000349231 0.00118862 3.78558e-05
-0.000183555 3.78558e-05 0.00102472
0.0025531 -0.000539551 -3.36334e-05
-0.000539551 0.000785628 9.68696e-06
-3.36334e-05 9.68696e-06 0.000472648
0.00673664 -0.000127974 2.51547e-06
-0.000127974 0.00411046 -2.20233e-06
2.51547e-06 -2.20233e-06 0.00414406
0.00201576 7.36573e-06 0.000105402
7.36573e-06 0.000982078 -6.23483e-06
0.000105402 -6.23483e-06 0.000959838
0.00123144 -2.63414e-05 -7.75006e-05
-2.63414e-05 0.000333649 3.39836e-06
-7.75006e-05 3.39836e-06 0.000256958
0.00215616 -0.000114055 -4.28407e-05
-0.000114055 0.000921416 4.30872e-06
-4.28407e-05 4.30872e-06 0.000829746
0.00615089 -0.000157026 0.000349961
-0.000157026 0.00367529 -3.7618e-05
0.000349961 -3.7618e-05 0.00367593
0.00298009 -0.000320045 -5.37224e-05
-0.000320045 0.00146699 6.73889e-06
-5.37224e-05 6.73889e-06 0.00129086
0.00230512 -0.000210994 -4.18133e-05
-0.000210994 0.000996821 5.04859e-06
-4.18133e-05 5.04859e-06 0.000877893
0.00222558 -0.000322051 -8.74063e-06
-0.000322051 0.000504711 1.76631e-06
-8.74063e-06 1.76631e-06 0.000313384
0.00250423 -0.000609183 -7.94878e-06
-0.000609183 0.000804696 2.58414e-06
-7.94878e-06 2.58414e-06 0.000432848
0.00228434 -0.000458976 -1.07457e-05
-0.000458976 0.000564572 3.2448e-06
-1.07457e-05 3.2448e-06 0.000299366
0.00225967 -0.000686702 1.07875e-06
-0.000686702 0.0003446 -1.29224e-07
1.07875e-06 -1.29224e-07 -2.60056e-06
0.000280078 5.13003e-07 1.61872e-05
5.13003e-07 -0.000286617 1.10185e-07
1.61872e-05 1.10185e-07 -0.000379464
0.0019805 -3.70811e-05 6.26112e-05
-3.70811e-05 0.000817847 -3.17115e-06
6.26112e-05 -3.17115e-06 0.00073203
0.00209942 -0.000117317 1.66966e-08
-0.000117317 0.000401121 3.94228e-07
1.66966e-08 3.94228e-07 0.000286087
0.00210735 -0.000256837 -5.69354e-07
-0.000256837 0.000424215 1.00886e-07
-5.69354e-07 1.00886e-07 0.000264597
0.00228537 -0.000390303 5.71286e-06
-0.000390303 0.000550584 -1.11149e-06
5.71286e-06 -1.11149e-06 0.000332584
0.00218361 -0.000443445 1.14809e-06
-0.000443445 0.000109426 -2.5467e-07
1.14809e-06 -2.5467e-07 -6.5704e-05
0.00881046 -5.18972e-05 0.000360369
-5.18972e-05 0.00544779 -3.69534e-05
0.000360369 -3.69534e-05 0.00546483
0.00210111 -0.000609955 1.45201e-06
-0.000609955 0.000152947 3.04915e-06
1.45201e-06 3.04915e-06 -0.000133098
0.000284254 -0.000259786 2.17861e-05
-0.000259786 -0.000263001 -2.87605e-05
2.17861e-05 -2.87605e-05 -0.000454735
0.00126945 -0.000606033 1.0955e-05
-0.000606033 4.57682e-05 -2.32361e-06
1.0955e-05 -2.32361e-06 -0.000394146
0.00241388 -0.000758994 -3.37846e-06
-0.000758994 0.000517795 6.08699e-06
-3.37846e-06 6.08699e-06 0.000105707
0.0022754 -0.000749568 -5.48397e-07
-0.000749568 0.000258457 3.31354e-06
-5.48397e-07 3.31354e-06 -5.7353e-05
0.000296876 -0.000236444 2.46637e-05
-0.000236444 -0.000191485 -2.36377e-05
2.46637e-05 -2.36377e-05 -0.000356254
0.00093048 -0.000224515 2.09116e-06
-0.000224515 0.000294491 1.41191e-06
2.09116e-06 1.41191e-06 -2.95e-05
0.00776892 0.000317313 -0.000436032
0.000317313 0.00477454 -5.15622e-05
-0.000436032 -5.15622e-05 0.00479135
0.00827712 0.000328045 -0.000441689
0.000328045 0.00508958 -5.82844e-05
-0.000441689 -5.82844e-05 0.00510794
0.000340968 0.000198177 -1.72527e-05
0.000198177 -0.00029865 -1.55904e-05
-1.72527e-05 -1.55904e-05 -0.000462765
0.00857536 1.2971e-05 -0.000351381
1.2971e-05 0.00531045 -3.43057e-05
-0.000351381 -3.43057e-05 0.00532805
0.000224379 0.000269446 -2.64064e-05
0.000269446 -0.000274888 -2.83134e-05
-2.64064e-05 -2.83134e-05 -0.000472324
0.000277876 0.000277286 -2.09028e-05
0.000277286 -0.000290614 -2.36195e-05
-2.09028e-05 -2.36195e-05 -0.000490461
0.00142415 0.00058649 -3.53878e-05
0.00058649 0.000143738 -4.90615e-06
-3.53878e-05 -4.90615e-06 -0.000269959
0.0078598 -2.6595e-05 -1.16419e-05
-2.6595e-05 0.0048876 1.2907e-06
-1.16419e-05 1.2907e-06 0.00489447
0.000757424 0.000201093 1.88182e-06
0.000201093 0.000103844 3.79952e-07
1.88182e-06 3.79952e-07 -1.58212e-05
0.00177448 0.000208038 8.0479e-05
0.000208038 0.000638129 8.05082e-06
8.0479e-05 8.05082e-06 0.00051201
0.00184519 0.000294972 8.58995e-05
0.000294972 0.000703365 1.04641e-05
8.58995e-05 1.04641e-05 0.000543917
0.00161223 0.00043294 -2.88271e-07
0.00043294 6.89206e-05 -2.4894e-07
-2.88271e-07 -2.4894e-07 -0.000200315
0.00012942 0.000266146 -6.78987e-07
0.000266146 -0.000311542 -9.12642e-07
-6.78987e-07 -9.12642e-07 -0.000498194
0.00156493 0.00053456 4.21406e-07
0.00053456 0.000158557 -1.72004e-08
4.21406e-07 -1.72004e-08 -0.000197528
0.000981056 0.000506908 4.24785e-06
0.000506908 -1.07072e-05 -1.82095e-06
4.24785e-06 -1.82095e-06 -0.000421356
0.00205902 0.000807331 -8.94621e-07
0.000807331 0.000359601 3.1134e-07
-8.94621e-07 3.1134e-07 -0.000114463
0.00058439 0.000262799 2.51068e-05
0.000262799 -1.84304e-05 2.67145e-05
2.51068e-05 2.67145e-05 -0.000172852
0.000804604 0.0001355 1.96039e-05
0.0001355 0.000182664 1.93811e-05
1.96039e-05 1.93811e-05 6.6248e-05
-0.000234288 0.000332176 8.80348e-07
0.000332176 -0.000454907 -1.9068e-06
8.80348e-07 -1.9068e-06 -0.000751781
0.00163072 0.000369219 8.45217e-06
0.000369219 5.21446e-05 2.95086e-06
8.45217e-06 2.95086e-06 -0.000175979
0.00165972 0.00049581 1.86616e-05
0.00049581 0.000136664 4.99071e-06
1.86616e-05 4.99071e-06 -0.000175956
0.00235812 0.000644032 2.7839e-06
0.000644032 0.000302156 -1.87339e-06
2.7839e-06 -1.87339e-06 1.70908e-05
0.000467284 0.000418297 1.35153e-05
0.000418297 -0.000153618 5.46755e-06
1.35153e-05 5.46755e-06 -0.000541073
0.00237524 0.000805712 -1.52611e-06
0.000805712 0.000497493 -5.96867e-06
-1.52611e-06 -5.96867e-06 8.24129e-05
0.00244935 0.000961754 -2.92717e-06
0.000961754 0.000801856 -9.95587e-06
-2.92717e-06 -9.95587e-06 0.000192903
0.00197175 0.000823831 -1.09151e-05
0.000823831 0.000184078 -9.33174e-06
-1.09151e-05 -9.33174e-06 -0.000258699
0.00500048 -0.000158419 0.000124768
-0.000158419 0.00304683 1.44041e-05
0.000124768 1.44041e-05 0.00302964
0.0056516 -0.000182626 1.33536e-05
-0.000182626 0.00348396 1.17349e-06
1.33536e-05 1.17349e-06 0.00345985
0.00628509 -0.000185324 -0.000169665
-0.000185324 0.00389428 -1.5131e-05
-0.000169665 -1.5131e-05 0.00387068
0.000866486 -0.00022869 2.45844e-05
-0.00022869 0.000221043 -2.28231e-05
2.45844e-05 -2.28231e-05 7.63641e-05
0.00765318 1.96969e-05 0.000290022
1.96969e-05 0.00474672 -3.26397e-05
0.000290022 -3.26397e-05 0.0047501
0.0075227 0.000254877 -0.000425587
0.000254877 0.00460757 -4.12718e-05
-0.000425587 -4.12718e-05 0.00463366
0.00696228 0.000119521 -0.000386726
0.000119521 0.00423531 -2.01486e-05
-0.000386726 -2.01486e-05 0.00427379
0.000295399 0.000124741 -1.55097e-05
0.000124741 -0.000310782 -7.69549e-06
-1.55097e-05 -7.69549e-06 -0.000430557
0.000230338 5.05277e-05 -1.51877e-05
5.05277e-05 -0.000319152 -3.97474e-06
-1.51877e-05 -3.97474e-06 -0.000420221
0.00665449 8.41661e-07 -0.000370629
8.41661e-07 0.00404002 -4.30873e-06
-0.000370629 -4.30873e-06 0.00408278
0.00660729 -6.05606e-06 2.67138e-08
-6.05606e-06 0.00401021 -1.39924e-06
2.67138e-08 -1.39924e-06 0.00405334
0.000226676 3.59761e-06 -1.56349e-07
3.59761e-06 -0.000315804 2.11466e-07
-1.56349e-07 2.11466e-07 -0.000409506
0.0015644 6.15704e-05 7.48801e-05
6.15704e-05 0.000536459 3.83562e-06
7.48801e-05 3.83562e-06 0.000454041
0.00144638 0.00010695 4.87836e-08
0.00010695 -5.29655e-05 -4.70729e-09
4.87836e-08 -4.70729e-09 -0.000182387
0.000361522 0.000127932 -8.75716e-07
0.000127932 -0.000278901 -3.95815e-07
-8.75716e-07 -3.95815e-07 -0.000411261
0.00152239 0.000221547 -1.87926e-07
0.000221547 -2.17619e-05 -8.59352e-08
-1.87926e-07 -8.59352e-08 -0.000185361
0.000222166 -3.29048e-05 1.60129e-05
-3.29048e-05 -0.000320234 2.34184e-08
1.60129e-05 2.34184e-08 -0.000411329
0.00140209 4.74258e-05 3.02201e-06
4.74258e-05 -7.30146e-05 8.81118e-07
3.02201e-06 8.81118e-07 -0.000194972
0.00147993 0.000163647 3.18723e-06
0.000163647 -5.35764e-05 1.27204e-06
3.18723e-06 1.27204e-06 -0.000195734
0.00226243 0.000162358 1.60125e-06
0.000162358 9.30235e-05 9.63005e-07
1.60125e-06 9.63005e-07 3.61206e-05
0.00161155 0.000296901 5.23159e-06
0.000296901 2.69754e-05 1.73306e-06
5.23159e-06 1.73306e-06 -0.000165718
0.0022883 0.000353842 2.75819e-06
0.000353842 0.000143208 1.02081e-06
2.75819e-06 1.02081e-06 3.29085e-05
0.00664455 -9.09064e-05 -0.000374829
-9.09064e-05 0.00404481 6.52885e-06
-0.000374829 6.52885e-06 0.004082
0.00169925 -0.000168738 -8.50177e-05
-0.000168738 0.000825256 1.16233e-05
-8.50177e-05 1.16233e-05 0.000759753
-0.000170965 -1.44038e-05 -7.99821e-06
-1.44038e-05 -0.000582293 1.11053e-06
-7.99821e-06 1.11053e-06 -0.000689221
0.0022692 -0.000104121 -0.000151065
-0.000104121 0.000986172 1.15831e-05
-0.000151065 1.15831e-05 0.000907933
0.00910287 0.000117285 -9.69407e-05
0.000117285 0.00558605 4.47546e-06
-9.69407e-05 4.47546e-06 0.00555282
0.0031651 -0.000375583 -0.000184945
-0.000375583 0.00159914 3.87867e-05
-0.000184945 3.87867e-05 0.00143548
0.00242707 -0.000190507 -0.000160853
-0.000190507 0.0010601 2.2019e-05
-0.000160853 2.2019e-05 0.000958413
0.00234526 -0.000326372 -2.15993e-05
-0.000326372 0.000581814 3.97581e-06
-2.15993e-05 3.97581e-06 0.000398098
0.00234853 -0.000463848 -2.89616e-05
-0.000463848 0.000608705 8.58553e-06
-2.89616e-05 8.58553e-06 0.000339004
0.00260667 -0.000620838 -3.83785e-05
-0.000620838 0.000881588 1.0931e-05
-3.83785e-05 1.0931e-05 0.000509526
0.00227324 -0.000685138 1.17493e-06
-0.000685138 0.00036438 -4.17016e-06
1.17493e-06 -4.17016e-06 1.76502e-05
0.000232089 -2.30322e-06 3.50293e-08
-2.30322e-06 -0.000314946 3.89878e-07
3.50293e-08 3.89878e-07 -0.000408477
0.00209978 -0.00011275 -4.1232e-05
-0.00011275 0.000905488 1.03629e-06
-4.1232e-05 1.03629e-06 0.000821919
0.00182418 -0.000113669 -1.42524e-05
-0.000113669 0.000211916 9.11521e-07
-1.42524e-05 9.11521e-07 9.4577e-05
0.0021023 -0.000253965 -1.32336e-05
-0.000253965 0.000413983 2.23524e-06
-1.32336e-05 2.23524e-06 0.000249194
0.0090016 -5.79451e-05 3.59642e-06
-5.79451e-05 0.00556618 -8.85194e-07
3.59642e-06 -8.85194e-07 0.00558391
0.00160349 -0.000258185 1.12886e-05
-0.000258185 0.000613618 4.0162e-07
1.12886e-05 4.0162e-07 0.000417273
0.00205907 -0.000623767 3.87383e-06
-0.000623767 0.00057695 -2.32144e-06
3.87383e-06 -2.32144e-06 0.000155612
0.00228608 -0.00039406 -1.10486e-05
-0.00039406 0.000545881 3.26997e-06
-1.10486e-05 3.26997e-06 0.000326396
0.00229863 -0.000452885 2.93868e-06
-0.000452885 0.000187486 -1.0578e-06
2.93868e-06 -1.0578e-06 2.31121e-05
0.00234226 -0.000753228 1.39156e-06
-0.000753228 0.000471602 -6.03137e-08
1.39156e-06 -6.03137e-08 6.19494e-05
0.00223971 -0.000615516 1.53741e-07
-0.000615516 0.000255008 -1.72302e-07
1.53741e-07 -1.72302e-07 -3.47267e-05
0.00230604 -0.000751374 4.19967e-07
-0.000751374 0.000282367 6.78589e-07
4.19967e-07 6.78589e-07 -3.44239e-05
0.00034094 -0.000261571 2.67215e-06
-0.000261571 -0.0001745 8.93424e-07
2.67215e-06 8.93424e-07 -0.000337722
0.000797789 -0.000301396 3.17925e-07
-0.000301396 0.000201096 -1.25334e-06
3.17925e-07 -1.25334e-06 -0.000126819
0.00140169 -5.50917e-05 2.66401e-06
-5.50917e-05 -5.63592e-05 7.90419e-08
2.66401e-06 7.90419e-08 -0.000181348
0.00218529 -0.000186869 -1.38336e-06
-0.000186869 0.000459591 3.29049e-07
-1.38336e-06 3.29049e-07 0.000327612
0.00216484 -0.000176738 1.1724e-06
-0.000176738 4.43262e-05 -6.07099e-07
1.1724e-06 -6.07099e-07 -3.67227e-05
0.00223953 -0.000373032 -2.05571e-07
-0.000373032 0.000103455 6.36393e-07
-2.05571e-07 6.36393e-07 -1.13964e-05
0.00222097 -0.000538453 -9.74788e-07
-0.000538453 0.000178114 1.31448e-06
-9.74788e-07 1.31448e-06 -4.51576e-05
0.00228007 -0.000477649 5.01924e-06
-0.000477649 7.49049e-05 -8.03806e-07
5.01924e-06 -8.03806e-07 -3.42092e-05
0.000127764 -0.000242541 1.57084e-05
-0.000242541 -0.000338456 -3.02013e-05
1.57084e-05 -3.02013e-05 -0.000522537
0.00236433 -0.000681079 2.31128e-07
-0.000681079 0.000253245 9.53143e-07
2.31128e-07 9.53143e-07 7.27434e-06
0.00155962 -0.000539453 1.26262e-05
-0.000539453 0.000303011 -7.27696e-06
1.26262e-05 -7.27696e-06 -0.000110146
0.00202206 -0.000842645 3.6745e-06
-0.000842645 0.000317516 7.28898e-06
3.6745e-06 7.28898e-06 -0.000190835
0.00257082 -0.00083317 -2.21138e-06
-0.00083317 0.000519438 3.60448e-06
-2.21138e-06 3.60448e-06 0.000124556
0.00248003 -0.000785392 7.48138e-07
-0.000785392 0.000347252 8.06861e-07
7.48138e-07 8.06861e-07 6.31859e-05
0.000214873 -0.000271475 5.3376e-06
-0.000271475 -0.000221074 1.43726e-06
5.3376e-06 1.43726e-06 -0.000568468
0.00144539 -0.000208678 -4.9156e-06
-0.000208678 0.000718854 -8.78579e-06
-4.9156e-06 -8.78579e-06 0.000444851
0.00121746 -0.000426341 4.20237e-06
-0.000426341 0.000434404 8.03389e-06
4.20237e-06 8.03389e-06 1.26296e-05
0.000335997 0.000165826 -1.57614e-05
0.000165826 -0.000304707 -1.20982e-05
-1.57614e-05 -1.20982e-05 -0.000454355
0.00745823 -7.19503e-05 -0.000279742
-7.19503e-05 0.00462827 -2.46571e-05
-0.000279742 -2.46571e-05 0.00463295
0.000588428 0.000160642 -2.01589e-05
0.000160642 1.12677e-05 -2.02886e-05
-2.01589e-05 -2.02886e-05 -0.000109356
0.000292493 0.000235257 -1.87105e-05
0.000235257 -0.000315221 -1.97903e-05
-1.87105e-05 -1.97903e-05 -0.000495924
0.00157815 0.000431182 -1.40526e-05
0.000431182 5.18732e-05 -4.09559e-06
-1.40526e-05 -4.09559e-06 -0.000218578
0.000107939 0.000240668 -1.80811e-05
0.000240668 -0.000336516 -3.05749e-05
-1.80811e-05 -3.05749e-05 -0.000516756
0.00133306 0.000526818 -3.14023e-05
0.000526818 0.000185429 -1.06765e-05
-3.14023e-05 -1.06765e-05 -0.000221039
0.00149764 0.000525956 -2.68841e-05
0.000525956 0.00011811 -5.65934e-06
-2.68841e-05 -5.65934e-06 -0.000237162
0.00205472 0.000818737 -5.97274e-06
0.000818737 0.000342548 7.08955e-06
-5.97274e-06 7.08955e-06 -0.000130814
0.000407048 0.000253202 -1.01292e-05
0.000253202 -0.000134675 2.17803e-06
-1.01292e-05 2.17803e-06 -0.000282498
0.000412962 0.000103209 -1.27095e-06
0.000103209 -5.77719e-05 1.55315e-06
-1.27095e-06 1.55315e-06 -0.00017106
0.000929478 0.000307799 -9.13348e-07
0.000307799 0.000256853 8.76646e-08
-9.13348e-07 8.76646e-08 -8.30968e-06
0.00158769 0.000367241 -3.40751e-07
0.000367241 3.02153e-05 -1.57487e-07
-3.40751e-07 -1.57487e-07 -0.000199127
0.00160938 0.000488639 -2.08449e-08
0.000488639 0.000113941 -4.10531e-07
-2.08449e-08 -4.10531e-07 -0.00019822
0.00232778 0.000640536 -1.05545e-06
0.000640536 0.000282123 -3.90546e-07
-1.05545e-06 -3.90546e-07 -1.76554e-06
0.00091631 0.000405907 2.58225e-06
0.000405907 0.000114397 2.91421e-07
2.58225e-06 2.91421e-07 -0.000251
0.00239175 0.000802326 -1.39107e-06
0.000802326 0.000504786 -5.2329e-07
-1.39107e-06 -5.2329e-07 9.00003e-05
0.00216675 0.000937188 -2.50236e-06
0.000937188 0.000579776 -2.87233e-06
-2.50236e-06 -2.87233e-06 -2.51497e-05
0.00194042 0.000828033 -5.86777e-07
0.000828033 0.000143801 4.39771e-06
-5.86777e-07 4.39771e-06 -0.000294753
0.000726683 7.73854e-05 1.21606e-05
7.73854e-05 0.000170134 1.72539e-05
1.21606e-05 1.72539e-05 7.50954e-05
0.000112551 0.000357373 3.84997e-06
0.000357373 -0.000263821 4.03535e-07
3.84997e-06 4.03535e-07 -0.000586884
0.00103425 0.000227972 -7.63776e-07
0.000227972 0.000413667 1.41482e-06
-7.63776e-07 1.41482e-06 0.000124191
-0.00122279 0.000220478 -9.03666e-06
0.000220478 -0.001093 5.71244e-06
-9.03666e-06 5.71244e-06 -0.00140667
0.00227529 0.000549817 2.41632e-06
0.000549817 0.000181277 -1.64235e-06
2.41632e-06 -1.64235e-06 -3.55245e-05
0.00236014 0.00072914 6.63108e-07
0.00072914 0.000396861 -3.10564e-06
6.63108e-07 -3.10564e-06 4.23299e-05
0.00229938 0.000696499 4.94582e-07
0.000696499 0.000184253 -8.0117e-07
4.94582e-07 -8.0117e-07 -7.09169e-05
0.00167576 0.000797005 -1.40085e-05
0.000797005 0.000498277 -1.05487e-05
-1.40085e-05 -1.05487e-05 -9.85169e-05
0.00260866 0.000901167 -5.92318e-06
0.000901167 0.000543853 -3.95903e-06
-5.92318e-06 -3.95903e-06 0.000144611
0.00256814 0.00108145 -1.73174e-05
0.00108145 0.000746896 -1.8003e-05
-1.73174e-05 -1.8003e-05 0.000106695
0.00212246 0.000848103 -4.65121e-06
0.000848103 0.000131275 -4.66836e-06
-4.65121e-06 -4.66836e-06 -0.000278385
0.000894645 0.000132362 -2.73862e-06
0.000132362 0.000348332 7.18032e-06
-2.73862e-06 7.18032e-06 0.000204298
0.000518283 4.52092e-05 4.50452e-06
4.52092e-05 5.32635e-05 1.48235e-05
4.50452e-06 1.48235e-05 -8.25652e-06
0.00434059 -0.000134995 9.25423e-05
-0.000134995 0.00259598 9.78207e-06
9.25423e-05 9.78207e-06 0.00258551
0.00476868 -0.000187374 1.80358e-05
-0.000187374 0.00290281 -1.98865e-06
1.80358e-05 -1.98865e-06 0.00287709
0.00526492 -0.000248828 -9.6544e-05
-0.000248828 0.00326121 -1.49618e-05
-9.6544e-05 -1.49618e-05 0.00321496
0.00013708 -0.00017937 1.79146e-05
-0.00017937 -0.00020283 -1.83547e-05
1.79146e-05 -1.83547e-05 -0.000310898
0.00577306 7.97363e-05 0.000180254
7.97363e-05 0.0035426 -2.43525e-05
0.000180254 -2.43525e-05 0.00353339
0.000545405 -0.000234483 1.25632e-06
-0.000234483 2.66729e-06 7.79391e-07
1.25632e-06 7.79391e-07 -0.000144829
0.00808809 -1.69126e-05 4.59622e-06
-1.69126e-05 0.00502035 -1.93393e-07
4.59622e-06 -1.93393e-07 0.00502896
0.000326565 0.000150943 -1.6017e-05
0.000150943 -0.000302472 -9.77424e-06
-1.6017e-05 -9.77424e-06 -0.000438508
0.000259373 5.19221e-05 -1.3974e-05
5.19221e-05 -0.00031989 -4.85395e-06
-1.3974e-05 -4.85395e-06 -0.000426786
0.00151327 0.000221628 -3.00229e-06
0.000221628 -1.52953e-05 -9.01413e-07
-3.00229e-06 -9.01413e-07 -0.000179927
0.00145138 0.000109542 -3.79462e-06
0.000109542 -4.21714e-05 -1.01645e-06
-3.79462e-06 -1.01645e-06 -0.000172282
0.000270526 -2.61478e-06 -1.56251e-05
-2.61478e-06 -0.000290685 -1.83783e-06
-1.56251e-05 -1.83783e-06 -0.000383079
0.00669882 -0.000105517 -0.000382035
-0.000105517 0.00408397 7.11813e-06
-0.000382035 7.11813e-06 0.00412059
0.000265615 -3.90359e-06 -4.10204e-08
-3.90359e-06 -0.00029246 -6.69553e-07
-4.10204e-08 -6.69553e-07 -0.000383275
0.0014142 5.27964e-05 -4.49948e-09
5.27964e-05 -6.11892e-05 5.86452e-08
-4.49948e-09 5.86452e-08 -0.00018358
0.00148809 0.000163701 8.87177e-09
0.000163701 -3.86179e-05 1.37379e-07
8.87177e-09 1.37379e-07 -0.000181373
0.0022751 0.000160235 -6.62043e-08
0.000160235 0.00010292 1.31193e-07
-6.62043e-08 1.31193e-07 4.62088e-05
0.00156363 0.000294123 -3.76154e-07
0.000294123 4.04583e-06 -2.87162e-07
-3.76154e-07 -2.87162e-07 -0.000189614
0.00227544 0.000355175 -3.15913e-07
0.000355175 0.000125235 3.52196e-07
-3.15913e-07 3.52196e-07 1.42136e-05
0.00138878 -6.02082e-06 2.26248e-06
-6.02082e-06 -6.86626e-05 3.99535e-07
2.26248e-06 3.99535e-07 -0.000190296
0.00226238 7.67112e-05 1.87951e-06
7.67112e-05 9.17085e-05 4.89034e-07
1.87951e-06 4.89034e-07 4.29283e-05
0.00225832 0.000252628 1.58288e-06
0.000252628 0.00010316 1.29298e-06
1.58288e-06 1.29298e-06 2.50844e-05
0.0021701 0.000167762 4.52117e-06
0.000167762 -2.12927e-06 5.54325e-07
4.52117e-06 5.54325e-07 -9.29331e-06
0.00227181 0.000453324 3.21884e-06
0.000453324 0.000147288 4.16283e-08
3.21884e-06 4.16283e-08 -8.20338e-06
0.00227443 0.0003503 4.72473e-06
0.0003503 4.0471e-05 8.45009e-07
4.72473e-06 8.45009e-07 -4.76716e-06
0.00027129 -8.03687e-06 -1.51931e-05
-8.03687e-06 -0.000285005 3.86591e-08
-1.51931e-05 3.86591e-08 -0.000380554
0.00219345 -6.88007e-05 -0.000148492
-6.88007e-05 0.000952496 7.94421e-06
-0.000148492 7.94421e-06 0.000884419
0.00153198 -0.000109988 -1.38288e-05
-0.000109988 1.05571e-05 1.14283e-06
-1.38288e-05 1.14283e-06 -0.000109217
0.00208531 -0.000251733 -1.91643e-05
-0.000251733 0.000394127 3.14666e-06
-1.91643e-05 3.14666e-06 0.000224013
0.00922948 -8.40692e-05 -0.000401847
-8.40692e-05 0.00570421 4.76705e-05
-0.000401847 4.76705e-05 0.0057227
0.00345154 -0.000376901 -0.000213646
-0.000376901 0.00182382 3.86953e-05
-0.000213646 3.86953e-05 0.00166291
0.00220993 -0.000626834 -2.54116e-05
-0.000626834 0.000731574 7.75409e-06
-2.54116e-05 7.75409e-06 0.000317649
0.00227007 -0.000396814 -2.69319e-05
-0.000396814 0.0005289 6.67556e-06
-2.69319e-05 6.67556e-06 0.000308179
0.00240955 -0.00046224 8.78458e-08
-0.00046224 0.000261195 -1.58073e-06
8.78458e-08 -1.58073e-06 0.000107816
0.00238432 -0.000621506 -4.23627e-07
-0.000621506 0.000362414 -1.99544e-06
-4.23627e-07 -1.99544e-06 6.88987e-05
0.00234854 -0.000757349 5.3943e-06
-0.000757349 0.000470343 -6.08764e-06
5.3943e-06 -6.08764e-06 6.06939e-05
0.00234636 -0.000755486 1.74003e-06
-0.000755486 0.000310011 -2.12452e-06
1.74003e-06 -2.12452e-06 -8.5385e-06
0.000254845 -0.000286566 -2.51105e-05
-0.000286566 -0.000232009 2.58808e-05
-2.51105e-05 2.58808e-05 -0.000397523
0.00024119 -0.000304013 -6.12783e-06
-0.000304013 -0.000143836 -3.72747e-07
-6.12783e-06 -3.72747e-07 -0.000484573
0.00144476 -5.18035e-05 8.58993e-07
-5.18035e-05 -3.23343e-05 -1.08964e-07
8.58993e-07 -1.08964e-07 -0.000150523
0.00213487 -0.000187283 -1.23628e-05
-0.000187283 0.000420738 1.56445e-06
-1.23628e-05 1.56445e-06 0.000288712
0.00215438 -0.00017204 2.71602e-06
-0.00017204 3.23576e-05 -3.73244e-07
2.71602e-06 -3.73244e-07 -4.37132e-05
0.00218557 -0.000368933 -1.5956e-06
-0.000368933 8.2969e-05 4.93501e-07
-1.5956e-06 4.93501e-07 -4.39008e-05
0.0001724 -0.00026449 -8.67568e-07
-0.00026449 -0.000297742 -6.29599e-07
-8.67568e-07 -6.29599e-07 -0.000486856
0.000921543 -0.00051464 -3.28596e-06
-0.00051464 -6.89684e-05 -5.18117e-07
-3.28596e-06 -5.18117e-07 -0.000490434
0.00218266 -0.000862253 -2.65847e-07
-0.000862253 0.000415231 1.80093e-06
-2.65847e-07 1.80093e-06 -0.000103392
0.00221771 -0.000535756 -2.49381e-07
-0.000535756 0.000178996 1.93994e-08
-2.49381e-07 1.93994e-08 -4.86539e-05
0.00233131 -0.000485281 6.22204e-07
-0.000485281 9.7237e-05 -4.28984e-07
6.22204e-07 -4.28984e-07 -5.81821e-06
0.00261746 -0.000838242 1.65246e-06
-0.000838242 0.000548242 -1.92919e-06
1.65246e-06 -1.92919e-06 0.00015747
0.00230524 -0.00067441 -1.7708e-07
-0.00067441 0.000212606 7.39628e-07
-1.7708e-07 7.39628e-07 -3.14857e-05
0.00231963 -0.000779788 2.26295e-07
-0.000779788 0.000232281 9.66295e-07
2.26295e-07 9.66295e-07 -5.34454e-05
0.000760164 -0.000315685 8.56339e-07
-0.000315685 0.000118454 5.35061e-07
8.56339e-07 5.35061e-07 -0.000235758
0.000933731 -0.000372571 -1.76802e-06
-0.000372571 0.000233633 9.19783e-07
-1.76802e-06 9.19783e-07 -0.000173886
0.000699099 -0.00019288 -2.62831e-06
-0.00019288 0.000288472 2.68245e-07
-2.62831e-06 2.68245e-07 -1.64767e-05
0.00216114 -8.63288e-05 1.55821e-06
-8.63288e-05 3.9069e-05 -4.84547e-07
1.55821e-06 -4.84547e-07 -2.95001e-05
0.00214128 -0.000264097 -3.62915e-07
-0.000264097 1.74541e-05 -4.03444e-07
-3.62915e-07 -4.03444e-07 -7.58055e-05
0.00226901 -0.000165888 6.71256e-06
-0.000165888 9.4297e-05 -5.21881e-07
6.71256e-06 -5.21881e-07 7.37246e-05
0.00228828 -0.000384901 3.43895e-06
-0.000384901 4.69673e-05 -2.7635e-07
3.43895e-06 -2.7635e-07 -7.98736e-06
0.00238648 -0.000606605 1.04625e-06
-0.000606605 0.000189855 -2.01715e-07
1.04625e-06 -2.01715e-07 2.02512e-05
0.00241778 -0.000507505 1.54077e-06
-0.000507505 8.70173e-05 3.64877e-07
1.54077e-06 3.64877e-07 3.40047e-05
0.000816091 -0.000396224 8.32649e-06
-0.000396224 3.59667e-05 -9.33919e-06
8.32649e-06 -9.33919e-06 -0.00033467
0.00241879 -0.000723742 1.3823e-06
-0.000723742 0.000193035 -6.66511e-07
1.3823e-06 -6.66511e-07 8.96101e-06
0.00219909 -0.000954769 6.15656e-07
-0.000954769 0.0005886 3.72643e-06
6.15656e-07 3.72643e-06 -3.09926e-05
0.002472 -0.000959393 6.91745e-06
-0.000959393 0.000504321 4.96701e-06
6.91745e-06 4.96701e-06 -6.01764e-06
0.00267212 -0.000856557 4.25773e-06
-0.000856557 0.000566903 1.53204e-06
4.25773e-06 1.53204e-06 0.000195067
0.00251694 -0.000834879 3.67059e-06
-0.000834879 0.000311095 -1.28528e-06
3.67059e-06 -1.28528e-06 5.92655e-05
-0.00090188 -1.30617e-06 4.39222e-06
-1.30617e-06 -0.000787412 -1.25031e-06
4.39222e-06 -1.25031e-06 -0.00105685
0.00194945 -0.000627841 -4.90167e-07
-0.000627841 0.000757489 6.0808e-06
-4.90167e-07 6.0808e-06 0.000250183
-0.00177393 -9.72022e-05 1.35161e-05
-9.72022e-05 -0.00115878 5.49609e-06
1.35161e-05 5.49609e-06 -0.00157629
0.00104936 -0.000590961 1.29623e-05
-0.000590961 0.000318127 1.72393e-05
1.29623e-05 1.72393e-05 -0.000268663
0.00154554 0.000365691 -1.03992e-05
0.000365691 8.23648e-06 -3.26843e-06
-1.03992e-05 -3.26843e-06 -0.000222355
0.000232419 9.46201e-05 -1.29926e-05
9.46201e-05 -0.00016961 -1.90161e-05
-1.29926e-05 -1.90161e-05 -0.000280206
0.000307294 0.000210272 -2.86062e-05
0.000210272 -0.000191801 -2.25613e-05
-2.86062e-05 -2.25613e-05 -0.000334956
0.00123135 0.000266436 -6.23102e-06
0.000266436 0.000443078 6.3154e-06
-6.23102e-06 6.3154e-06 0.000186296
0.00155194 0.000482433 -1.98713e-05
0.000482433 8.39306e-05 -5.34057e-06
-1.98713e-05 -5.34057e-06 -0.000228198
0.00230061 0.000636993 -2.71617e-06
0.000636993 0.000264937 1.90075e-06
-2.71617e-06 1.90075e-06 -1.77206e-05
0.000717915 0.000354275 -1.53095e-05
0.000354275 4.88137e-06 -8.29423e-06
-1.53095e-05 -8.29423e-06 -0.000334788
0.001989 0.000904015 -1.54532e-06
0.000904015 0.000452633 5.48023e-06
-1.54532e-06 5.48023e-06 -0.000140424
0.0024167 0.000800069 2.35067e-06
0.000800069 0.000518099 5.52024e-06
2.35067e-06 5.52024e-06 0.000103267
0.00190253 0.00082606 1.03674e-05
0.00082606 0.000112821 1.57004e-05
1.03674e-05 1.57004e-05 -0.00031907
0.000397995 6.17766e-05 -2.25977e-06
6.17766e-05 -3.29427e-05 3.73107e-07
-2.25977e-06 3.73107e-07 -0.000127567
0.000846326 0.000285727 -1.54279e-06
0.000285727 0.000223099 1.50853e-06
-1.54279e-06 1.50853e-06 -9.06022e-05
0.000199366 0.000219779 5.57086e-06
0.000219779 -0.000118742 -1.90025e-06
5.57086e-06 -1.90025e-06 -0.00041488
0.000701016 0.000300686 -6.22257e-06
0.000300686 0.000110976 7.71745e-06
-6.22257e-06 7.71745e-06 -0.000203917
0.00230891 0.000551681 -1.73765e-06
0.000551681 0.000206799 -1.08173e-06
-1.73765e-06 -1.08173e-06 -1.04576e-05
0.00230295 0.000726033 -9.12823e-07
0.000726033 0.000353217 -3.47669e-07
-9.12823e-07 -3.47669e-07 -7.21955e-07
0.0023657 0.000702066 3.0257e-07
0.000702066 0.000232585 1.96243e-09
3.0257e-07 1.96243e-09 -2.35688e-05
0.00186555 0.000827356 2.24098e-06
0.000827356 0.000630296 -1.19674e-06
2.24098e-06 -1.19674e-06 2.15045e-05
0.00258692 0.000892948 1.29673e-06
0.000892948 0.000544228 9.58727e-07
1.29673e-06 9.58727e-07 0.000142712
0.00228063 0.00102841 -1.00752e-06
0.00102841 0.000582546 -2.12542e-06
-1.00752e-06 -2.12542e-06 -4.09014e-05
0.00239764 0.000848281 -8.41434e-06
0.000848281 0.00033465 3.23821e-06
-8.41434e-06 3.23821e-06 -6.21127e-05
0.000616036 5.44227e-05 7.37485e-06
5.44227e-05 0.000113266 1.62399e-05
7.37485e-06 1.62399e-05 3.79384e-05
0.00123318 0.000161669 -3.23251e-06
0.000161669 0.000575006 1.19335e-05
-3.23251e-06 1.19335e-05 0.000313879
-5.1921e-06 0.000455225 -1.07678e-05
0.000455225 -0.000403467 -5.66361e-06
-1.07678e-05 -5.66361e-06 -0.000843089
0.000948131 0.000329832 1.16765e-05
0.000329832 0.000361005 -4.63202e-06
1.16765e-05 -4.63202e-06 8.20224e-06
0.0011656 0.000247677 -1.97882e-06
0.000247677 0.000316572 1.77096e-05
-1.97882e-06 1.77096e-05 5.64355e-06
0.00240886 0.000604057 5.25187e-07
0.000604057 0.000169621 -7.47103e-07
5.25187e-07 -7.47103e-07 3.87811e-06
0.00228341 0.000800196 -1.4602e-06
0.000800196 0.000258514 -2.37603e-06
-1.4602e-06 -2.37603e-06 -7.88018e-05
0.00243005 0.000771337 -2.45326e-06
0.000771337 0.000219013 -2.48794e-07
-2.45326e-06 -2.48794e-07 -1.80151e-05
0.0022355 0.00112509 -4.73674e-06
0.00112509 0.00083709 -1.46028e-05
-4.73674e-06 -1.46028e-05 8.14081e-05
0.00279326 0.000952163 -6.32218e-06
0.000952163 0.000572815 -3.35812e-06
-6.32218e-06 -3.35812e-06 0.000175731
0.0020469 0.00109148 5.06669e-06
0.00109148 0.000320343 -9.48905e-06
5.06669e-06 -9.48905e-06 -0.000295278
0.000866205 0.000132579 -1.74328e-06
0.000132579 0.000327211 1.19148e-05
-1.74328e-06 1.19148e-05 0.000156933
0.000880793 0.00016181 -8.21725e-06
0.00016181 0.000473053 6.56812e-06
-8.21725e-06 6.56812e-06 0.000210759
0.000648932 9.37926e-05 -2.46041e-06
9.37926e-05 0.0001838 5.07349e-06
-2.46041e-06 5.07349e-06 7.12171e-05
0.000459523 4.69641e-05 -2.41509e-06
4.69641e-05 6.31326e-05 1.36264e-07
-2.41509e-06 1.36264e-07 -7.17636e-05
0.00157634 6.43285e-06 1.18588e-06
6.43285e-06 0.00075306 7.88375e-06
1.18588e-06 7.88375e-06 0.000708662
0.00101632 2.76436e-05 -5.74328e-07
2.76436e-05 0.000385247 -4.04622e-07
-5.74328e-07 -4.04622e-07 0.000327618
0.0010731 -1.47423e-05 7.92666e-05
-1.47423e-05 0.00041691 1.66129e-05
7.92666e-05 1.66129e-05 0.000408711
0.0042889 -0.000150339 1.5525e-05
-0.000150339 0.0025682 -1.63129e-06
1.5525e-05 -1.63129e-06 0.00255313
0.00474298 -0.000204702 -8.23521e-05
-0.000204702 0.00289157 -1.14025e-05
-8.23521e-05 -1.14025e-05 0.00286117
0.000254286 -0.000118798 2.6906e-05
-0.000118798 -0.000121083 -8.6037e-06
2.6906e-05 -8.6037e-06 -0.0001912
0.00402525 0.000128652 9.65432e-05
0.000128652 0.00241838 -1.42949e-05
9.65432e-05 -1.42949e-05 0.00240365
0.000550638 -0.00014612 -2.1794e-06
-0.00014612 7.74433e-05 1.57734e-06
-2.1794e-06 1.57734e-06 -4.3628e-05
0.00661347 3.87437e-05 -2.45828e-06
3.87437e-05 0.00409865 1.20038e-06
-2.45828e-06 1.20038e-06 0.00409562
0.000132429 -0.000225849 -2.25403e-05
-0.000225849 -0.000263514 2.17263e-05
-2.25403e-05 2.17263e-05 -0.000415316
0.00836784 -1.84677e-05 -0.000351123
-1.84677e-05 0.00519694 4.42501e-05
-0.000351123 4.42501e-05 0.0052062
0.00151338 0.000290393 -6.48649e-06
0.000290393 -1.76452e-05 -2.22522e-06
-6.48649e-06 -2.22522e-06 -0.000211999
0.00148605 0.000164665 -3.03177e-06
0.000164665 -2.70855e-05 -6.99683e-07
-3.03177e-06 -6.99683e-07 -0.000170686
0.0022779 0.00035386 -2.94693e-06
0.00035386 0.000118693 -2.30264e-07
-2.94693e-06 -2.30264e-07 7.71055e-06
0.00228859 0.000158259 -1.84934e-06
0.000158259 0.000114244 -7.06333e-07
-1.84934e-06 -7.06333e-07 5.76756e-05
0.00142575 5.82731e-05 -3.0138e-06
5.82731e-05 -4.9484e-05 -7.22633e-07
-3.0138e-06 -7.22633e-07 -0.000172312
0.000230386 2.72981e-05 -1.58383e-05
2.72981e-05 -0.000317608 -1.61712e-06
-1.58383e-05 -1.61712e-06 -0.000406422
0.00139699 -7.58358e-07 -4.00285e-08
-7.58358e-07 -6.21597e-05 7.87726e-09
-4.00285e-08 7.87726e-09 -0.000183789
0.00226744 7.54397e-05 -9.54021e-08
7.54397e-05 9.73653e-05 9.63174e-08
-9.54021e-08 9.63174e-08 4.88381e-05
0.00227996 0.000251695 5.49709e-08
0.000251695 0.000114655 1.87159e-07
5.49709e-08 1.87159e-07 3.74435e-05
0.00215467 0.000163702 -4.09805e-07
0.000163702 -2.19721e-05 -2.99089e-08
-4.09805e-07 -2.99089e-08 -2.25811e-05
0.00229137 0.000456516 -8.69374e-07
0.000456516 0.000157397 1.13461e-08
-8.69374e-07 1.13461e-08 6.84309e-07
0.00226868 0.000349966 -9.60728e-09
0.000349966 4.03799e-05 2.33507e-07
-9.60728e-09 2.33507e-07 -5.22195e-06
0.00225672 -6.60658e-06 1.36634e-06
-6.60658e-06 9.33894e-05 -1.0279e-07
1.36634e-06 -1.0279e-07 4.50981e-05
0.00211403 7.65194e-05 2.94506e-06
7.65194e-05 -5.07779e-05 -3.8593e-08
2.94506e-06 -3.8593e-08 -3.96237e-05
0.00219078 0.000242391 5.14316e-06
0.000242391 8.60712e-06 8.69206e-07
5.14316e-06 8.69206e-07 -1.43885e-05
0.00225194 0.000159051 1.94713e-06
0.000159051 -3.21974e-05 9.87066e-08
1.94713e-06 9.87066e-08 3.9637e-07
0.00242885 0.00049469 2.98108e-06
0.00049469 0.000135226 4.09964e-07
2.98108e-06 4.09964e-07 4.59527e-05
0.00233532 0.000366604 6.02954e-07
0.000366604 -5.06291e-05 -2.78576e-07
6.02954e-07 -2.78576e-07 -3.43039e-05
0.00149094 -4.88352e-05 -4.73709e-06
-4.88352e-05 -4.06116e-06 1.85807e-07
-4.73709e-06 1.85807e-07 -0.000115462
0.00210546 -0.000187501 -2.24128e-05
-0.000187501 0.000396669 2.53222e-06
-2.24128e-05 2.53222e-06 0.0002645
0.0021546 -0.00016596 4.05133e-06
-0.00016596 2.61395e-05 -4.10298e-07
4.05133e-06 -4.10298e-07 -4.49164e-05
0.00213517 -0.000363904 4.06119e-07
-0.000363904 6.62371e-05 3.58519e-07
4.06119e-07 3.58519e-07 -7.23675e-05
0.000338667 -0.000288834 -2.4573e-05
-0.000288834 -0.000188552 2.96254e-05
-2.4573e-05 2.96254e-05 -0.000379767
0.00144136 -0.000547285 -1.44698e-05
-0.000547285 0.000261932 4.28614e-06
-1.44698e-05 4.28614e-06 -0.000164402
0.00224843 -0.000876375 5.82103e-06
-0.000876375 0.000444737 -5.72815e-06
5.82103e-06 -5.72815e-06 -8.3792e-05
0.00221269 -0.000532635 -4.172e-07
-0.000532635 0.000179084 -1.50885e-06
-4.172e-07 -1.50885e-06 -5.30331e-05
0.00237887 -0.00049252 -2.26688e-06
-0.00049252 0.000117713 -2.94e-07
-2.26688e-06 -2.94e-07 2.04897e-05
0.00223709 -0.000666852 -5.64088e-08
-0.000666852 0.000165871 8.30927e-08
-5.64088e-08 8.30927e-08 -7.60965e-05
0.00263532 -0.000839533 2.17771e-06
-0.000839533 0.000560339 -6.56626e-06
2.17771e-06 -6.56626e-06 0.000174775
0.00217641 -0.000773809 -6.90402e-07
-0.000773809 0.00013051 9.62385e-07
-6.90402e-07 9.62385e-07 -0.000156136
0.000790722 -0.000326638 -5.90252e-06
-0.000326638 0.00012285 2.0546e-06
-5.90252e-06 2.0546e-06 -0.000234469
0.000978516 -0.00033559 -7.17155e-06
-0.00033559 0.000269594 -1.13743e-05
-7.17155e-06 -1.13743e-05 -0.000117688
0.000542345 -0.000277365 4.70136e-07
-0.000277365 0.000194325 5.57283e-06
4.70136e-07 5.57283e-06 -0.000125148
0.00221375 -8.28588e-05 3.86629e-06
-8.28588e-05 7.50068e-05 -2.421e-07
3.86629e-06 -2.421e-07 1.35868e-05
0.00213027 -0.000269015 1.96544e-06
-0.000269015 1.57885e-05 -6.16526e-07
1.96544e-06 -6.16526e-07 -7.63683e-05
0.00221335 -0.000159405 1.97088e-07
-0.000159405 3.81876e-05 3.8969e-08
1.97088e-07 3.8969e-08 2.60633e-05
0.00233335 -0.000380218 -6.63865e-07
-0.000380218 8.75127e-05 1.62391e-07
-6.63865e-07 1.62391e-07 2.85886e-05
0.000971499 -0.000426192 -1.3994e-06
-0.000426192 0.00010638 -5.80424e-07
-1.3994e-06 -5.80424e-07 -0.000277736
0.00234171 -0.000987857 7.07258e-07
-0.000987857 0.000681757 -1.63509e-06
7.07258e-07 -1.63509e-06 5.15818e-05
0.0023174 -0.000942925 1.37944e-06
-0.000942925 0.000406182 2.10172e-06
1.37944e-06 2.10172e-06 -0.000108083
0.00225529 -0.000590653 -9.08379e-07
-0.000590653 0.00010982 3.96122e-07
-9.08379e-07 3.96122e-07 -6.40393e-05
0.00240422 -0.000510809 8.92301e-08
-0.000510809 6.4254e-05 7.40492e-08
8.92301e-08 7.40492e-08 1.66065e-05
0.0025302 -0.000845369 -6.44595e-07
-0.000845369 0.000462009 -7.72242e-08
-6.44595e-07 -7.72242e-08 9.28258e-05
0.00239512 -0.000722346 -7.38718e-07
-0.000722346 0.000173022 4.40436e-07
-7.38718e-07 4.40436e-07 -1.04591e-05
0.00242475 -0.000828229 1.44855e-06
-0.000828229 0.000246543 -5.78394e-07
1.44855e-06 -5.78394e-07 6.60545e-08
0.00152229 -0.000610891 -4.50579e-06
-0.000610891 0.000506531 -1.5355e-06
-4.50579e-06 -1.5355e-06 -5.39211e-06
0.00141465 -0.000617213 -3.37539e-06
-0.000617213 0.000559924 -7.11275e-07
-3.37539e-06 -7.11275e-07 -1.65522e-05
0.000301775 -4.65235e-05 4.80997e-06
-4.65235e-05 -2.55493e-05 2.41516e-06
4.80997e-06 2.41516e-06 -0.000270491
0.000424919 -0.00017392 -1.74562e-07
-0.00017392 0.000149496 -6.02582e-06
-1.74562e-07 -6.02582e-06 -0.000208536
0.00216697 -8.94288e-05 5.50346e-06
-8.94288e-05 1.26021e-05 -2.8486e-07
5.50346e-06 -2.8486e-07 6.39513e-06
0.00219838 -0.000263407 3.91477e-06
-0.000263407 -1.856e-06 -9.37015e-07
3.91477e-06 -9.37015e-07 -3.08884e-05
0.00227481 -0.000162031 2.67133e-06
-0.000162031 2.64443e-05 -1.35221e-07
2.67133e-06 -1.35221e-07 5.69063e-05
0.00235622 -0.000401462 -1.05023e-06
-0.000401462 -1.72954e-05 6.14616e-07
-1.05023e-06 6.14616e-07 1.62957e-06
0.00238174 -0.000628113 -3.72827e-07
-0.000628113 9.16208e-05 9.09417e-07
-3.72827e-07 9.09417e-07 -1.27541e-05
0.00247537 -0.000548611 1.18917e-06
-0.000548611 2.68544e-05 5.16793e-07
1.18917e-06 5.16793e-07 -2.70472e-06
0.00195265 -0.000902545 -5.40816e-06
-0.000902545 0.000651077 8.81393e-06
-5.40816e-06 8.81393e-06 8.89413e-06
0.00251427 -0.000792175 1.12671e-06
-0.000792175 0.000156142 -8.68657e-08
1.12671e-06 -8.68657e-08 1.62189e-05
0.00224482 -0.00109798 2.98074e-06
-0.00109798 0.000564729 6.27676e-06
2.98074e-06 6.27676e-06 -9.75413e-05
0.00264443 -0.000995454 8.4429e-06
-0.000995454 0.000586413 2.47978e-06
8.4429e-06 2.47978e-06 8.31736e-05
0.00260034 -0.000870753 -1.0598e-06
-0.000870753 0.000480116 1.40219e-07
-1.0598e-06 1.40219e-07 0.000121679
0.00247517 -0.000901338 -6.23052e-07
-0.000901338 0.000202517 -4.11022e-06
-6.23052e-07 -4.11022e-06 -4.77721e-05
0.000129514 -0.000212229 8.8811e-06
-0.000212229 -0.000225836 -1.04208e-05
8.8811e-06 -1.04208e-05 -0.000472984
-0.0018525 -6.5604e-06 1.10072e-05
-6.5604e-06 -0.00142532 3.25674e-06
1.10072e-05 3.25674e-06 -0.00175774
0.00138052 -0.000824691 1.57332e-05
-0.000824691 0.000418756 1.08355e-05
1.57332e-05 1.08355e-05 -0.000239246
0.00160076 -0.000450486 1.49638e-05
-0.000450486 0.00087918 9.34521e-06
1.49638e-05 9.34521e-06 0.000439947
0.00140271 -0.000754261 -8.55432e-06
-0.000754261 0.000605962 8.28195e-06
-8.55432e-06 8.28195e-06 -8.90601e-05
4.5838e-06 4.91511e-05 -8.44279e-06
4.91511e-05 -0.000283049 -1.72928e-05
-8.44279e-06 -1.72928e-05 -0.000371773
0.00234357 0.000553425 -3.97936e-06
0.000553425 0.000233245 2.743e-07
-3.97936e-06 2.743e-07 1.55907e-05
0.00118243 0.000110279 4.46199e-06
0.000110279 0.000498281 -6.25251e-06
4.46199e-06 -6.25251e-06 0.00020942
0.000796619 0.000335397 -4.91739e-06
0.000335397 0.000176215 8.30376e-06
-4.91739e-06 8.30376e-06 -0.000118327
0.00163446 0.000334352 -4.44253e-06
0.000334352 0.000705268 1.07269e-05
-4.44253e-06 1.07269e-05 0.00039035
0.00224474 0.000722773 -5.0177e-07
0.000722773 0.000309476 2.97027e-06
-5.0177e-07 2.97027e-06 -4.38778e-05
0.00242891 0.000707346 -4.27371e-07
0.000707346 0.000279069 4.03997e-07
-4.27371e-07 4.03997e-07 2.19744e-05
0.00180445 0.000882146 1.30694e-05
0.000882146 0.000598396 7.60975e-06
1.30694e-05 7.60975e-06 -4.46021e-05
0.00217507 0.00101667 7.82899e-06
0.00101667 0.000513824 1.21936e-05
7.82899e-06 1.21936e-05 -0.000107696
0.00256201 0.000882167 5.75169e-06
0.000882167 0.000540159 6.7551e-06
5.75169e-06 6.7551e-06 0.000137656
0.00270554 0.000858486 1.49217e-05
0.000858486 0.00055604 1.84107e-05
1.49217e-05 1.84107e-05 0.000168132
0.000452578 6.01529e-05 -1.16311e-06
6.01529e-05 9.27645e-06 2.85664e-07
-1.16311e-06 2.85664e-07 -6.27559e-05
0.000666776 0.000132194 -1.72624e-06
0.000132194 0.000226775 -3.57312e-07
-1.72624e-06 -3.57312e-07 -4.26617e-05
0.00101243 0.000535775 9.82242e-06
0.000535775 0.000262911 -1.5837e-06
9.82242e-06 -1.5837e-06 -0.000188233
0.000624257 0.000206895 1.02365e-06
0.000206895 0.000144096 -5.33472e-06
1.02365e-06 -5.33472e-06 -0.000195253
0.000343354 0.000239929 -2.42456e-06
0.000239929 -0.000215373 4.85952e-06
-2.42456e-06 4.85952e-06 -0.000550544
0.00242032 0.000605745 -9.52079e-07
0.000605745 0.000177192 -7.18839e-07
-9.52079e-07 -7.18839e-07 1.12182e-05
0.00235273 0.000804646 4.15387e-07
0.000804646 0.000309301 -1.16949e-07
4.15387e-07 -1.16949e-07 -2.79537e-05
0.00242407 0.000771538 1.37293e-06
0.000771538 0.000219187 4.79627e-07
1.37293e-06 4.79627e-07 -1.73924e-05
0.00225978 0.00112923 1.26428e-06
0.00112923 0.000870488 -2.61239e-06
1.26428e-06 -2.61239e-06 0.000110915
0.00275571 0.000948474 3.43185e-06
0.000948474 0.000524129 1.7941e-07
3.43185e-06 1.7941e-07 0.000126322
0.00262732 0.00115312 -5.39209e-06
0.00115312 0.000723191 6.01669e-07
-5.39209e-06 6.01669e-07 9.87729e-05
0.000947754 0.00016742 -6.30509e-07
0.00016742 0.000370794 1.28178e-05
-6.30509e-07 1.28178e-05 0.00017097
0.00242256 0.000469578 6.02897e-08
0.000469578 0.00140115 5.44941e-06
6.02897e-08 5.44941e-06 0.0010021
0.00105426 0.000744876 -5.88539e-07
0.000744876 0.000319695 -1.08069e-06
-5.88539e-07 -1.08069e-06 -0.000261439
0.00136131 0.00025525 1.01341e-05
0.00025525 0.000379668 -1.36873e-06
1.01341e-05 -1.36873e-06 7.27752e-05
0.00315877 0.000778976 1.54594e-06
0.000778976 0.00141723 -7.84083e-07
1.54594e-06 -7.84083e-07 0.000934147
0.00246051 0.00064493 -3.27493e-06
0.00064493 0.000105582 -1.48122e-06
-3.27493e-06 -1.48122e-06 -1.18381e-05
0.00247164 0.000880561 -3.5325e-06
0.000880561 0.000336576 -9.08243e-07
-3.5325e-06 -9.08243e-07 -9.54424e-06
0.00248553 0.000861469 -1.91949e-07
0.000861469 0.000221179 -1.08951e-06
-1.91949e-07 -1.08951e-06 -1.92155e-05
0.00168321 0.0011627 9.72958e-06
0.0011627 0.000559662 -9.99894e-06
9.72958e-06 -9.99894e-06 -0.000210981
0.00233301 0.00110443 1.49442e-05
0.00110443 0.000400318 -4.51466e-06
1.49442e-05 -4.51466e-06 -0.000151082
0.000605337 0.000113342 -3.52428e-07
0.000113342 0.000157402 -1.17784e-07
-3.52428e-07 -1.17784e-07 -1.03704e-05
0.000340289 0.000249077 -4.83405e-06
0.000249077 6.02123e-05 1.10609e-06
-4.83405e-06 1.10609e-06 -0.000193161
-0.000637988 0.000103694 2.78351e-07
0.000103694 -0.000522671 -2.74112e-06
2.78351e-07 -2.74112e-06 -0.000769674
0.00186008 0.00031598 -9.51831e-06
0.00031598 0.00115795 2.10662e-07
-9.51831e-06 2.10662e-07 0.000862289
0.00155987 0.000265967 -3.98764e-06
0.000265967 0.0008898 1.41296e-06
-3.98764e-06 1.41296e-06 0.000668571
0.000548202 9.92882e-05 -5.43566e-07
9.92882e-05 0.000126502 3.06557e-06
-5.43566e-07 3.06557e-06 2.17502e-05
0.000542605 4.58152e-05 -1.36074e-06
4.58152e-05 0.000120928 -3.00875e-07
-1.36074e-06 -3.00875e-07 7.31424e-06
0.00149631 1.86448e-05 1.57808e-06
1.86448e-05 0.000704454 5.77555e-06
1.57808e-06 5.77555e-06 0.000667734
0.000358708 6.63557e-05 5.28381e-06
6.63557e-05 -8.62902e-06 -6.82621e-06
5.28381e-06 -6.82621e-06 -0.000136422
0.00161314 3.265e-06 -1.66406e-05
3.265e-06 0.000777847 -2.34004e-06
-1.66406e-05 -2.34004e-06 0.000737433
0.000750768 -1.24298e-05 5.86912e-05
-1.24298e-05 0.000203859 1.26921e-05
5.86912e-05 1.26921e-05 0.000201345
0.00172558 3.14812e-05 -3.31585e-05
3.14812e-05 0.000855525 -1.11352e-05
-3.31585e-05 -1.11352e-05 0.000806521
0.00238613 -7.41997e-05 7.06281e-05
-7.41997e-05 0.00129685 1.42729e-06
7.06281e-05 1.42729e-06 0.00128669
0.0039969 -0.000152936 -6.55332e-05
-0.000152936 0.00237815 -9.38881e-06
-6.55332e-05 -9.38881e-06 0.00236174
0.000764443 3.30361e-05 1.04749e-06
3.30361e-05 0.000222495 -9.27117e-06
1.04749e-06 -9.27117e-06 0.000145085
0.000221498 -9.1744e-05 5.1517e-06
-9.1744e-05 -0.000137574 1.65005e-06
5.1517e-06 1.65005e-06 -0.000217414
0.00421339 0.0001735 5.80159e-05
0.0001735 0.00254755 -1.0021e-05
5.80159e-05 -1.0021e-05 0.00251979
0.00448827 0.00010237 -1.76639e-05
0.00010237 0.00272303 1.74888e-06
-1.76639e-05 1.74888e-06 0.00271021
0.00114924 -0.000152988 -1.44769e-05
-0.000152988 0.000457948 2.13195e-05
-1.44769e-05 2.13195e-05 0.000327413
0.007385 3.77304e-05 -0.000292306
3.77304e-05 0.00460903 4.11135e-05
-0.000292306 4.11135e-05 0.00460357
0.00230479 0.000460181 -3.04572e-06
0.000460181 0.000161494 4.87824e-07
-3.04572e-06 4.87824e-07 3.32546e-06
0.00228858 0.000252766 -2.14562e-06
0.000252766 0.00011685 -9.81513e-07
-2.14562e-06 -9.81513e-07 3.99721e-05
0.0022622 0.000350436 -4.41249e-06
0.000350436 3.93235e-05 -3.79498e-07
-4.41249e-06 -3.79498e-07 -6.81484e-06
0.00213954 0.000159485 -3.84393e-06
0.000159485 -4.24139e-05 -2.78049e-07
-3.84393e-06 -2.78049e-07 -3.64261e-05
0.00227333 7.48479e-05 -1.96733e-06
7.48479e-05 0.000103822 -2.56359e-07
-1.96733e-06 -2.56359e-07 5.5547e-05
0.00141326 4.52861e-06 -2.21281e-06
4.52861e-06 -5.19009e-05 -4.35551e-07
-2.21281e-06 -4.35551e-07 -0.000173468
0.00225692 -5.55766e-06 -1.65566e-08
-5.55766e-06 9.53754e-05 5.44859e-08
-1.65566e-08 5.44859e-08 4.69872e-05
0.0021152 6.86371e-05 -4.79127e-07
6.86371e-05 -4.69676e-05 -4.96014e-08
-4.79127e-07 -4.96014e-08 -3.79151e-05
0.00219562 0.000241828 -1.48837e-07
0.000241828 9.78327e-06 4.00876e-08
-1.48837e-07 4.00876e-08 -1.28769e-05
0.00223735 0.000160884 6.89293e-08
0.000160884 -4.95194e-05 4.56852e-08
6.89293e-08 4.56852e-08 -1.02189e-05
0.00239929 0.000493051 1.46848e-07
0.000493051 0.000111574 1.07317e-07
1.46848e-07 1.07317e-07 2.41651e-05
0.00232829 0.00035674 2.2956e-07
0.00035674 -5.83562e-05 2.16835e-07
2.2956e-07 2.16835e-07 -3.8199e-05
0.00211439 -1.04122e-05 3.40526e-06
-1.04122e-05 -4.16493e-05 -1.74835e-07
3.40526e-06 -1.74835e-07 -3.34552e-05
0.00229142 6.78583e-05 1.12073e-06
6.78583e-05 -1.12653e-05 -6.11681e-07
1.12073e-06 -6.11681e-07 4.17297e-05
0.00224864 0.000230555 -2.90521e-07
0.000230555 -6.31151e-05 -3.8679e-07
-2.90521e-07 -3.8679e-07 -3.51925e-05
0.00236509 0.000171057 4.35098e-07
0.000171057 -7.31578e-05 -4.35219e-07
4.35098e-07 -4.35219e-07 1.10511e-05
0.00242997 0.000495804 -3.75643e-07
0.000495804 2.63362e-05 -3.71902e-07
-3.75643e-07 -3.71902e-07 -2.71663e-06
0.0024548 0.000350941 2.75493e-07
0.000350941 -7.80653e-05 7.0372e-08
2.75493e-07 7.0372e-08 -2.63684e-05
0.00225961 -7.94114e-05 1.95334e-06
-7.94114e-05 0.000105568 3.21777e-07
1.95334e-06 3.21777e-07 5.12723e-05
0.00213594 -0.000273409 4.35697e-06
-0.000273409 2.32074e-05 -6.89302e-07
4.35697e-06 -6.89302e-07 -6.75293e-05
0.0021567 -0.000153167 -3.58291e-06
-0.000153167 -1.73394e-05 1.4763e-07
-3.58291e-06 1.4763e-07 -2.10209e-05
0.00237691 -0.000376178 -5.35513e-06
-0.000376178 0.000127439 9.46796e-07
-5.35513e-06 9.46796e-07 6.43636e-05
0.000835029 -0.000443971 -9.37861e-06
-0.000443971 2.74049e-05 6.84457e-06
-9.37861e-06 6.84457e-06 -0.000372386
0.00245519 -0.00100483 -2.46655e-06
-0.00100483 0.000773767 -5.54958e-06
-2.46655e-06 -5.54958e-06 0.000139689
0.00209656 -0.000915332 1.6106e-06
-0.000915332 0.000268025 -3.83023e-06
1.6106e-06 -3.83023e-06 -0.000247118
0.00213025 -0.000575163 -3.30995e-06
-0.000575163 3.39717e-05 6.8914e-07
-3.30995e-06 6.8914e-07 -0.000143953
0.00239177 -0.000513813 9.41426e-08
-0.000513813 4.28879e-05 -9.78697e-07
9.41426e-08 -9.78697e-07 1.48304e-07
0.00236706 -0.000721135 -1.49878e-06
-0.000721135 0.000149374 8.54869e-07
-1.49878e-06 8.54869e-07 -3.35499e-05
0.00237875 -0.000837617 -2.1655e-06
-0.000837617 0.000348942 -2.14033e-06
-2.1655e-06 -2.14033e-06 -1.96369e-05
0.00235002 -0.000830912 -7.14252e-07
-0.000830912 0.00018953 8.82055e-07
-7.14252e-07 8.82055e-07 -5.36837e-05
0.0010913 -0.000569956 -2.42834e-07
-0.000569956 0.0002134 -1.35108e-05
-2.42834e-07 -1.35108e-05 -0.00029723
0.00143317 -0.000575598 -2.06006e-05
-0.000575598 0.000566215 -7.84222e-06
-2.06006e-05 -7.84222e-06 7.71311e-06
0.00152206 -8.85826e-05 7.11455e-06
-8.85826e-05 0.000762322 7.77907e-06
7.11455e-06 7.77907e-06 0.000521096
-0.000232909 -8.55689e-05 -1.14093e-05
-8.55689e-05 -0.000326927 -8.81056e-06
-1.14093e-05 -8.81056e-06 -0.000632242
0.00216467 -8.88369e-05 -1.18099e-07
-8.88369e-05 9.15765e-06 2.97405e-08
-1.18099e-07 2.97405e-08 2.91528e-06
0.00225943 -0.000266791 1.44173e-06
-0.000266791 4.41357e-05 -3.19386e-07
1.44173e-06 -3.19386e-07 1.4222e-05
0.00221322 -0.000159438 -6.34983e-08
-0.000159438 -2.05531e-05 -2.01624e-07
-6.34983e-08 -2.01624e-07 1.28949e-05
0.0023384 -0.000400062 -3.26683e-07
-0.000400062 -2.17384e-05 2.66917e-07
-3.26683e-07 2.66917e-07 -1.12385e-05
0.00187863 -0.000843147 -1.3117e-06
-0.000843147 0.00058211 -3.59666e-07
-1.3117e-06 -3.59666e-07 -3.17193e-05
0.00217654 -0.00109427 3.69026e-06
-0.00109427 0.000520151 9.58545e-08
3.69026e-06 9.58545e-08 -0.000144601
0.00257497 -0.00100384 -5.89295e-07
-0.00100384 0.000539078 8.86403e-07
-5.89295e-07 8.86403e-07 2.80324e-05
0.00240534 -0.000629347 -9.44159e-07
-0.000629347 0.00011646 1.09461e-07
-9.44159e-07 1.09461e-07 5.24279e-06
0.00245289 -0.000545346 7.59945e-07
-0.000545346 1.31465e-05 -4.05257e-07
7.59945e-07 -4.05257e-07 -6.97427e-06
0.00262998 -0.000879548 -2.05892e-06
-0.000879548 0.000509337 8.25963e-07
-2.05892e-06 8.25963e-07 0.000145302
0.00252137 -0.000797353 -1.21182e-06
-0.000797353 0.000153563 5.10496e-07
-1.21182e-06 5.10496e-07 1.22014e-05
0.00250991 -0.000900986 7.27163e-06
-0.000900986 0.000224768 -3.32039e-06
7.27163e-06 -3.32039e-06 -1.96604e-05
0.00174511 -0.000879481 2.38553e-06
-0.000879481 0.000673143 -9.11677e-07
2.38553e-06 -9.11677e-07 -1.2056e-05
0.00163126 -0.000777065 -7.92477e-07
-0.000777065 0.000741091 -9.98926e-07
-7.92477e-07 -9.98926e-07 4.97347e-05
0.000722367 -0.000400351 -1.60406e-06
-0.000400351 0.000331732 -1.34327e-07
-1.60406e-06 -1.34327e-07 -0.00011726
-0.000184766 -0.000122727 -5.51302e-06
-0.000122727 -0.000381851 -8.86088e-07
-5.51302e-06 -8.86088e-07 -0.000642923
0.000416159 9.91114e-05 -3.58681e-06
9.91114e-05 9.02656e-05 -1.85794e-06
-3.58681e-06 -1.85794e-06 -0.00024536
0.0022178 -0.000100645 4.70945e-07
-0.000100645 -5.2131e-05 4.37871e-07
4.70945e-07 4.37871e-07 -3.4771e-06
0.00228354 -0.000240204 -8.11911e-07
-0.000240204 -6.16512e-05 -1.89744e-07
-8.11911e-07 -1.89744e-07 -1.46113e-05
0.00249135 -0.000487981 -9.43148e-07
-0.000487981 -7.1849e-05 4.2493e-08
-9.43148e-07 4.2493e-08 -1.39944e-05
0.0024829 -0.000667502 1.05379e-06
-0.000667502 4.24757e-05 1.63609e-06
1.05379e-06 1.63609e-06 -1.12638e-05
0.00204836 -0.00111579 -1.40774e-06
-0.00111579 0.000685566 2.40268e-06
-1.40774e-06 2.40268e-06 -4.91234e-05
0.00270861 -0.000933604 9.56126e-08
-0.000933604 0.000167799 -6.76271e-07
9.56126e-08 -6.76271e-07 -4.83329e-06
0.00175205 -0.00110562 1.18229e-06
-0.00110562 0.000266921 7.33425e-06
1.18229e-06 7.33425e-06 -0.000408694
0.00278688 -0.001072 -4.75942e-06
-0.001072 0.000651548 2.199e-06
-4.75942e-06 2.199e-06 0.000131282
0.00259556 -0.000910302 -1.51406e-05
-0.000910302 0.000421262 -4.06495e-06
-1.51406e-05 -4.06495e-06 8.56352e-05
0.00052478 -0.00019006 3.87005e-08
-0.00019006 0.000166041 -5.82476e-06
3.87005e-08 -5.82476e-06 -7.81555e-05
0.00405227 -0.000292723 -3.60737e-06
-0.000292723 0.00245363 2.67667e-06
-3.60737e-06 2.67667e-06 0.00205931
-0.000857787 -7.16068e-05 -3.1308e-06
-7.16068e-05 -0.0009425 4.2671e-06
-3.1308e-06 4.2671e-06 -0.00119837
0.00286321 -0.00110959 -8.61953e-06
-0.00110959 0.00139358 3.27366e-06
-8.61953e-06 3.27366e-06 0.000631382
0.00202718 -0.000579083 7.97222e-06
-0.000579083 0.00110088 7.5844e-06
7.97222e-06 7.5844e-06 0.000541244
0.00238874 -0.000934801 -9.22735e-06
-0.000934801 0.00119604 1.14458e-05
-9.22735e-06 1.14458e-05 0.000438942
0.000395909 6.00647e-05 -8.06725e-06
6.00647e-05 -2.4987e-05 -1.66042e-05
-8.06725e-06 -1.66042e-05 -9.61024e-05
0.00011547 0.000116146 8.85492e-07
0.000116146 -0.000109839 -1.22308e-05
8.85492e-07 -1.22308e-05 -0.000391668
0.00242892 0.000607274 -3.5446e-06
0.000607274 0.000183223 -1.11762e-06
-3.5446e-06 -1.11762e-06 1.7006e-05
-0.000254162 2.60798e-05 -2.59982e-06
2.60798e-05 -0.00038817 -3.01539e-08
-2.59982e-06 -3.01539e-08 -0.000737399
0.00311536 0.000642996 1.85863e-05
0.000642996 0.00157897 -5.25809e-06
1.85863e-05 -5.25809e-06 0.00113357
-0.000357168 0.000284367 -1.58584e-05
0.000284367 -0.000687708 -2.87749e-06
-1.58584e-05 -2.87749e-06 -0.00106104
0.00241346 0.000807275 1.67563e-06
0.000807275 0.000356479 1.78149e-06
1.67563e-06 1.78149e-06 1.98523e-05
0.00241657 0.000772024 2.6906e-06
0.000772024 0.000217033 6.00196e-07
2.6906e-06 6.00196e-07 -1.91806e-05
0.00211837 0.00110261 8.66905e-06
0.00110261 0.000805595 1.17689e-05
8.66905e-06 1.17689e-05 5.13454e-05
0.00317582 0.0012034 -4.39284e-06
0.0012034 0.00110572 9.57468e-06
-4.39284e-06 9.57468e-06 0.000478011
0.00271199 0.00094732 3.89561e-06
0.00094732 0.00046719 4.51046e-06
3.89561e-06 4.51046e-06 6.74849e-05
0.000824886 0.000168439 5.96197e-07
0.000168439 0.000295628 -9.02479e-08
5.96197e-07 -9.02479e-08 9.49579e-05
0.00100394 0.00027384 -3.59906e-06
0.00027384 0.000486938 -4.42902e-08
-3.59906e-06 -4.42902e-08 0.000104612
0.00139666 0.000807513 -2.28042e-07
0.000807513 0.000514942 -2.34404e-07
-2.28042e-07 -2.34404e-07 -0.000104807
0.000869085 0.000230245 8.89775e-07
0.000230245 6.3716e-05 -1.56717e-06
8.89775e-07 -1.56717e-06 -0.000242705
0.00125247 0.00053722 2.1275e-06
0.00053722 0.000110769 -5.66157e-06
2.1275e-06 -5.66157e-06 -0.000311148
0.00245386 0.000643898 -2.0873e-06
0.000643898 0.00011462 -1.06062e-06
-2.0873e-06 -1.06062e-06 -4.51133e-06
0.00250881 0.000888264 2.58729e-06
0.000888264 0.000341074 3.60683e-07
2.58729e-06 3.60683e-07 -7.44317e-06
0.00252488 0.000868707 1.0542e-06
0.000868707 0.000217544 9.10255e-07
1.0542e-06 9.10255e-07 -2.19029e-05
0.00205136 0.00123069 2.65227e-06
0.00123069 0.000756216 1.1556e-06
2.65227e-06 1.1556e-06 -2.56947e-05
0.00231029 0.001119 -2.8656e-06
0.001119 0.000424386 -3.20717e-06
-2.8656e-06 -3.20717e-06 -0.000141681
0.00191035 0.000456193 2.6997e-06
0.000456193 0.00105617 7.22984e-06
2.6997e-06 7.22984e-06 0.000739016
-0.000336651 0.000252338 -3.84723e-07
0.000252338 -0.000380174 -1.19703e-06
-3.84723e-07 -1.19703e-06 -0.000790527
0.00186959 0.000970113 7.25064e-06
0.000970113 0.000802849 -7.23563e-06
7.25064e-06 -7.23563e-06 0.000137533
-0.00323075 0.000400687 1.12452e-05
0.000400687 -0.00263054 -4.80961e-06
1.12452e-05 -4.80961e-06 -0.00305602
0.00370483 0.00104448 8.04714e-06
0.00104448 0.00161391 -7.88927e-06
8.04714e-06 -7.88927e-06 0.00105745
0.00262252 0.000758473 -3.36824e-06
0.000758473 7.18617e-05 -7.1839e-07
-3.36824e-06 -7.1839e-07 9.74426e-06
0.00254778 0.000946638 9.39677e-06
0.000946638 0.000297439 -3.13526e-06
9.39677e-06 -3.13526e-06 -8.17501e-05
0.00227846 0.000837732 7.24007e-06
0.000837732 -1.98353e-05 -2.43233e-07
7.24007e-06 -2.43233e-07 -0.000276314
0.00235763 0.00129808 2.04831e-05
0.00129808 0.000851105 1.14953e-06
2.04831e-05 1.14953e-06 8.47848e-05
0.00273899 0.00133981 8.57469e-06
0.00133981 0.000758498 -1.01911e-06
8.57469e-06 -1.01911e-06 8.63594e-05
0.000334437 8.65952e-05 6.42449e-06
8.65952e-05 -1.95314e-05 -1.18777e-05
6.42449e-06 -1.18777e-05 -0.000183189
0.00097061 0.000220292 -5.28567e-07
0.000220292 0.000457492 4.77177e-07
-5.28567e-07 4.77177e-07 0.000210925
-0.000351763 0.000117026 -5.70563e-06
0.000117026 -0.00039655 -1.97684e-05
-5.70563e-06 -1.97684e-05 -0.000568067
-0.0010167 -2.77072e-05 8.67576e-06
-2.77072e-05 -0.000809367 -3.67818e-06
8.67576e-06 -3.67818e-06 -0.00101464
0.00052491 0.000120311 -1.99063e-06
0.000120311 0.000186804 9.42985e-08
-1.99063e-06 9.42985e-08 -2.00689e-06
-6.17605e-05 0.000107169 4.45138e-06
0.000107169 -0.000127673 4.17007e-07
4.45138e-06 4.17007e-07 -0.000369719
0.00105376 0.000259772 -4.33942e-06
0.000259772 0.000604104 -3.04159e-06
-4.33942e-06 -3.04159e-06 0.000371459
0.000243275 -7.20456e-06 -9.2936e-06
-7.20456e-06 5.53764e-05 6.02126e-06
-9.2936e-06 6.02126e-06 -0.000172448
0.000769952 0.00014037 -2.34615e-06
0.00014037 0.000313914 -1.89835e-06
-2.34615e-06 -1.89835e-06 0.000160963
0.000529401 0.000100982 1.6664e-06
0.000100982 0.00011246 2.67907e-06
1.6664e-06 2.67907e-06 9.97956e-06
0.000427474 4.05277e-05 -3.20322e-06
4.05277e-05 3.9366e-05 1.6152e-07
-3.20322e-06 1.6152e-07 -6.0247e-05
0.00141317 7.44717e-06 1.65128e-06
7.44717e-06 0.000648113 5.02402e-06
1.65128e-06 5.02402e-06 0.000618199
0.000212172 -8.85452e-05 9.35844e-06
-8.85452e-05 -8.42659e-05 -3.90701e-06
9.35844e-06 -3.90701e-06 -0.000199951
0.00149117 6.1781e-06 -1.48504e-05
6.1781e-06 0.000697327 -2.17044e-06
-1.48504e-05 -2.17044e-06 0.000665028
0.000753489 -1.0351e-05 4.69394e-05
-1.0351e-05 0.000205449 1.15817e-05
4.69394e-05 1.15817e-05 0.000205952
0.00159409 4.80328e-06 -2.11432e-05
4.80328e-06 0.000761929 -1.07395e-05
-2.11432e-05 -1.07395e-05 0.000725551
0.00072995 -2.95066e-05 2.42475e-05
-2.95066e-05 0.000189932 4.69676e-06
2.42475e-05 4.69676e-06 0.000181056
0.00355305 -0.000157694 1.07114e-05
-0.000157694 0.00207669 -6.03931e-06
1.07114e-05 -6.03931e-06 0.00205818
0.00039458 0.000105446 -3.78251e-06
0.000105446 3.07203e-05 -9.7026e-06
-3.78251e-06 -9.7026e-06 -6.32658e-05
0.000378507 -4.40435e-05 -6.73967e-06
-4.40435e-05 -3.20867e-05 -1.82093e-06
-6.73967e-06 -1.82093e-06 -0.00011389
0.00427029 0.000239383 -2.67506e-05
0.000239383 0.00260082 -1.37271e-05
-2.67506e-05 -1.37271e-05 0.00255653
0.000691329 -0.000130078 -9.70288e-06
-0.000130078 0.00016438 1.42359e-05
-9.70288e-06 1.42359e-05 7.86425e-05
0.00380868 0.00014637 -1.79695e-05
0.00014637 0.0022833 2.95665e-07
-1.79695e-05 2.95665e-07 0.00226313
0.00532619 6.71665e-05 -0.000221752
6.71665e-05 0.00329507 3.90932e-05
-0.000221752 3.90932e-05 0.00328079
0.0023722 0.000491376 -3.84321e-06
0.000491376 8.97324e-05 -5.44772e-07
-3.84321e-06 -5.44772e-07 4.26051e-06
0.00220054 0.00024059 -4.8005e-06
0.00024059 1.21514e-05 -6.30052e-07
-4.8005e-06 -6.30052e-07 -1.00985e-05
0.00232352 0.000347183 7.80182e-07
0.000347183 -6.48001e-05 6.36604e-07
7.80182e-07 6.36604e-07 -4.07915e-05
0.00222166 0.000163186 4.68191e-07
0.000163186 -6.75703e-05 3.39269e-07
4.68191e-07 3.39269e-07 -2.13485e-05
0.00211642 6.16229e-05 -3.7592e-06
6.16229e-05 -4.29302e-05 2.13996e-07
-3.7592e-06 2.13996e-07 -3.61879e-05
0.00225338 -4.90684e-06 -1.27363e-06
-4.90684e-06 9.50357e-05 2.92138e-07
-1.27363e-06 2.92138e-07 4.65609e-05
0.00213387 -1.1833e-05 2.6486e-07
-1.1833e-05 -2.39724e-05 -2.66691e-08
2.6486e-07 -2.66691e-08 -1.83535e-05
0.00227242 7.03483e-05 5.25871e-07
7.03483e-05 -1.92021e-05 -5.23476e-10
5.25871e-07 -5.23476e-10 2.8827e-05
0.00227399 0.000231565 -5.96272e-07
0.000231565 -3.98371e-05 -5.69949e-08
-5.96272e-07 -5.69949e-08 -1.32927e-05
0.00234087 0.000172536 6.46518e-07
0.000172536 -9.30606e-05 1.41511e-07
6.46518e-07 1.41511e-07 7.96027e-07
0.00243223 0.000497646 -3.35645e-07
0.000497646 3.15486e-05 4.98417e-08
-3.35645e-07 4.98417e-08 -1.62911e-07
0.00245654 0.000354886 1.95222e-06
0.000354886 -7.67181e-05 7.13405e-07
1.95222e-06 7.13405e-07 -1.56973e-05
0.00221834 -1.68202e-05 -1.11022e-06
-1.68202e-05 -5.30907e-05 6.00217e-08
-1.11022e-06 6.00217e-08 -7.50669e-06
0.00238388 8.71025e-05 -2.39355e-07
8.71025e-05 -8.56857e-05 -1.05627e-06
-2.39355e-07 -1.05627e-06 1.96252e-05
0.00244978 0.000241891 -4.7033e-07
0.000241891 -7.2147e-05 -2.15546e-07
-4.7033e-07 -2.15546e-07 2.50302e-05
0.00256526 0.000514928 -1.68405e-06
0.000514928 -6.85082e-05 2.25106e-07
-1.68405e-06 2.25106e-07 -2.94996e-06
0.00215699 -8.81434e-05 -5.46882e-06
-8.81434e-05 1.33698e-06 3.8862e-07
-5.46882e-06 3.8862e-07 -4.93037e-06
0.00231528 -0.000270744 -3.81945e-06
-0.000270744 8.73417e-05 7.7336e-07
-3.81945e-06 7.7336e-07 5.64704e-05
0.00215154 -0.000157754 -7.97979e-07
-0.000157754 -6.80956e-05 -1.85686e-08
-7.97979e-07 -1.85686e-08 -3.18182e-05
0.00232774 -0.00039946 -2.05906e-06
-0.00039946 -2.26195e-05 -2.39247e-07
-2.05906e-06 -2.39247e-07 -2.05554e-05
0.00189438 -0.000825181 6.43333e-06
-0.000825181 0.000583318 -8.70644e-06
6.43333e-06 -8.70644e-06 -1.93404e-05
0.00221192 -0.00110597 4.84041e-06
-0.00110597 0.000538937 -4.89282e-06
4.84041e-06 -4.89282e-06 -0.000132277
0.00253283 -0.00101845 -6.46078e-06
-0.00101845 0.000510728 -3.03211e-06
-6.46078e-06 -3.03211e-06 -1.08842e-05
0.00243037 -0.000630493 -3.10796e-06
-0.000630493 0.000142413 5.21724e-07
-3.10796e-06 5.21724e-07 2.47622e-05
0.00243053 -0.000542717 2.11333e-06
-0.000542717 -5.03935e-07 -1.32393e-06
2.11333e-06 -1.32393e-06 -1.10389e-05
0.00252014 -0.000800198 -3.98225e-06
-0.000800198 0.00014745 8.10198e-07
-3.98225e-06 8.10198e-07 5.30337e-06
0.00251892 -0.000867766 -2.90507e-07
-0.000867766 0.00045145 1.0861e-06
-2.90507e-07 1.0861e-06 8.64663e-05
0.00247923 -0.000891849 4.13396e-06
-0.000891849 0.000202439 2.69019e-06
4.13396e-06 2.69019e-06 -3.53098e-05
0.00211078 -0.000919515 -1.82702e-05
-0.000919515 0.00092628 -7.5018e-06
-1.82702e-05 -7.5018e-06 0.000234016
0.000821452 -0.000660817 1.44025e-05
-0.000660817 0.000232993 -9.99042e-06
1.44025e-05 -9.99042e-06 -0.000418808
0.00164388 -0.000465528 -1.18845e-05
-0.000465528 0.000916417 -8.76281e-06
-1.18845e-05 -8.76281e-06 0.000444187
0.000455532 -5.75e-05 -2.14829e-06
-5.75e-05 5.71414e-05 3.30195e-06
-2.14829e-06 3.30195e-06 -0.000196784
0.00409716 0.000193987 1.52132e-06
0.000193987 0.00247164 6.00868e-08
1.52132e-06 6.00868e-08 0.00214044
0.00220717 -0.00010853 2.52809e-07
-0.00010853 -5.72005e-05 -7.88109e-08
2.52809e-07 -7.88109e-08 -9.70108e-06
0.00229934 -0.000242131 1.91983e-06
-0.000242131 -5.39983e-05 4.68674e-08
1.91983e-06 4.68674e-08 -8.1148e-06
0.00247822 -0.000481505 -9.83357e-07
-0.000481505 -6.0534e-05 2.06979e-07
-9.83357e-07 2.06979e-07 -1.47121e-05
0.00234373 -0.0011304 -2.1934e-06
-0.0011304 0.000871405 -1.87645e-07
-2.1934e-06 -1.87645e-07 0.000137786
0.00186987 -0.00111161 5.22417e-06
-0.00111161 0.000337266 -2.78276e-07
5.22417e-06 -2.78276e-07 -0.000338521
0.00259009 -0.00106835 -1.4597e-06
-0.00106835 0.000536354 -1.51144e-07
-1.4597e-06 -1.51144e-07 9.21427e-06
0.00249365 -0.000659763 2.49007e-07
-0.000659763 5.67643e-05 -4.74004e-07
2.49007e-07 -4.74004e-07 1.43019e-06
0.00249045 -0.000913805 5.76371e-06
-0.000913805 0.000325634 -3.95327e-06
5.76371e-06 -3.95327e-06 -5.93234e-06
0.00270751 -0.000923917 -8.62648e-07
-0.000923917 0.000195169 -7.98502e-07
-8.62648e-07 -7.98502e-07 2.74056e-05
-0.000793411 -2.76421e-05 -8.77716e-07
-2.76421e-05 -0.000716269 -1.60283e-07
-8.77716e-07 -1.60283e-07 -0.000931895
0.00174362 -0.00094511 1.35074e-06
-0.00094511 0.000715112 1.0986e-06
1.35074e-06 1.0986e-06 -1.09218e-05
0.00175754 -0.000867265 -6.93482e-06
-0.000867265 0.000810201 1.27204e-06
-6.93482e-06 1.27204e-06 4.40798e-05
0.00165603 -0.000587744 3.65237e-07
-0.000587744 0.000887689 5.18467e-06
3.65237e-07 5.18467e-06 0.000296671
0.000569403 -0.000182991 -3.2273e-06
-0.000182991 6.73017e-06 -2.84259e-06
-3.2273e-06 -2.84259e-06 -0.000276296
0.002045 -9.17052e-05 -4.2596e-06
-9.17052e-05 0.00110682 4.67415e-06
-4.2596e-06 4.67415e-06 0.00071383
0.00232022 -0.000140511 -9.11389e-07
-0.000140511 -0.000108422 6.69149e-07
-9.11389e-07 6.69149e-07 -1.72608e-05
0.00249928 -0.000320337 1.5935e-06
-0.000320337 -0.000123983 4.70818e-07
1.5935e-06 4.70818e-07 1.35118e-06
0.00259524 -0.000607548 -1.10764e-06
-0.000607548 -4.64363e-05 1.29622e-06
-1.10764e-06 1.29622e-06 1.09348e-05
0.00262838 -0.00079594 -7.91883e-07
-0.00079594 2.50738e-05 2.63848e-06
-7.91883e-07 2.63848e-06 4.01999e-06
0.00271957 -0.00125716 -4.66484e-06
-0.00125716 0.00112577 2.25002e-06
-4.66484e-06 2.25002e-06 0.000344745
0.0026665 -0.00106031 1.38409e-06
-0.00106031 0.000255797 -2.55116e-06
1.38409e-06 -2.55116e-06 -3.1731e-05
0.00248291 -0.0013153 -4.24943e-05
-0.0013153 0.000710291 1.17048e-05
-4.24943e-05 1.17048e-05 -2.85633e-05
0.00231167 -0.00109534 -3.58099e-05
-0.00109534 0.00038324 2.55747e-06
-3.58099e-05 2.55747e-06 -0.000150832
-0.000932526 -9.07375e-06 -1.29626e-06
-9.07375e-06 -0.000842446 -4.33524e-06
-1.29626e-06 -4.33524e-06 -0.000976009
0.00123812 -0.00018375 -2.75691e-06
-0.00018375 0.000745807 3.76199e-06
-2.75691e-06 3.76199e-06 0.000369122
0.00323514 -0.000328602 -1.18899e-05
-0.000328602 0.00181519 1.01726e-05
-1.18899e-05 1.01726e-05 0.00146674
0.00025801 -0.000111984 -1.45779e-06
-0.000111984 -9.08168e-05 -1.1061e-05
-1.45779e-06 -1.1061e-05 -0.000479539
0.00222638 -0.00101702 -2.58139e-06
-0.00101702 0.00102368 1.71507e-05
-2.58139e-06 1.71507e-05 0.000268522
0.00206346 -0.00091694 -7.83655e-07
-0.00091694 0.00102375 1.82156e-05
-7.83655e-07 1.82156e-05 0.000194513
0.000449811 0.000151066 2.40915e-06
0.000151066 5.29158e-05 -1.23705e-05
2.40915e-06 -1.23705e-05 -0.000143314
-0.000415337 0.000101978 7.73246e-07
0.000101978 -0.000441621 -2.97891e-06
7.73246e-07 -2.97891e-06 -0.000800532
0.00244776 0.000642967 -7.54002e-07
0.000642967 0.000123704 -4.40165e-07
-7.54002e-07 -4.40165e-07 2.83016e-06
0.000603303 0.000202834 -5.17548e-06
0.000202834 -9.472e-05 3.62785e-06
-5.17548e-06 3.62785e-06 -0.000399656
0.00200316 0.000903571 7.69368e-06
0.000903571 0.0008858 -1.73781e-06
7.69368e-06 -1.73781e-06 0.000220359
2.15356e-05 0.000303429 -1.48943e-05
0.000303429 -0.000641357 2.15699e-06
-1.48943e-05 2.15699e-06 -0.000989912
0.00254806 0.000896248 3.97352e-06
0.000896248 0.000346223 4.23672e-07
3.97352e-06 4.23672e-07 -4.75976e-06
0.00256498 0.000874702 -3.45729e-06
0.000874702 0.000216108 3.94129e-07
-3.45729e-06 3.94129e-07 -2.13261e-05
0.00250016 0.00130833 -7.52173e-06
0.00130833 0.00100361 6.87438e-06
-7.52173e-06 6.87438e-06 0.000208007
0.00230699 0.00113436 -8.9975e-06
0.00113436 0.000468275 3.26289e-06
-8.9975e-06 3.26289e-06 -0.000113777
0.00073698 0.000292854 -2.03288e-07
0.000292854 0.000300831 -7.62843e-07
-2.03288e-07 -7.62843e-07 -6.88775e-06
0.00105106 0.000367104 2.31342e-07
0.000367104 0.00049224 -2.77801e-06
2.31342e-07 -2.77801e-06 7.10583e-05
0.00163989 0.000921463 -3.0218e-06
0.000921463 0.000666104 1.6318e-09
-3.0218e-06 1.6318e-09 1.21018e-05
0.000579188 0.000478939 -3.46228e-06
0.000478939 -0.000261304 -4.92369e-07
-3.46228e-06 -4.92369e-07 -0.000645938
0.00328419 0.000948535 1.64016e-06
0.000948535 0.00134901 2.48618e-06
1.64016e-06 2.48618e-06 0.00081951
0.00266049 0.000767558 -2.56795e-06
0.000767558 7.80597e-05 -3.42649e-07
-2.56795e-06 -3.42649e-07 1.13766e-05
0.00265325 0.000921422 2.86458e-06
0.000921422 0.000373147 -8.13683e-07
2.86458e-06 -8.13683e-07 1.3218e-05
0.00267943 0.000873791 5.60364e-07
0.000873791 0.000249053 2.87608e-06
5.60364e-07 2.87608e-06 -1.72624e-05
0.00230486 0.00130611 5.30549e-06
0.00130611 0.000807445 1.61507e-06
5.30549e-06 1.61507e-06 3.3247e-05
0.00262339 0.00139209 -5.77711e-06
0.00139209 0.000694877 9.42446e-07
-5.77711e-06 9.42446e-07 -1.21115e-05
-0.00183271 7.46407e-05 -9.82127e-06
7.46407e-05 -0.00135492 -4.34616e-06
-9.82127e-06 -4.34616e-06 -0.00159773
-0.00343779 0.000472181 -1.62196e-06
0.000472181 -0.00198367 -2.75625e-06
-1.62196e-06 -2.75625e-06 -0.00261675
0.00217471 0.00104821 1.67525e-05
0.00104821 0.000850151 -4.4039e-06
1.67525e-05 -4.4039e-06 0.000195623
0.00172488 0.000614428 3.60992e-06
0.000614428 0.000350235 -1.39508e-05
3.60992e-06 -1.39508e-05 -3.47616e-05
0.00281145 0.000702409 5.0164e-07
0.000702409 -0.00018266 2.99272e-06
5.0164e-07 2.99272e-06 -1.66612e-05
0.00270749 0.000930145 6.41046e-06
0.000930145 0.000108557 -1.40421e-07
6.41046e-06 -1.40421e-07 -4.51986e-05
0.00286229 0.0011779 1.2057e-05
0.0011779 0.000512302 -4.75078e-06
1.2057e-05 -4.75078e-06 -2.83116e-05
0.00244289 0.00144546 6.41949e-06
0.00144546 0.000674419 -1.26088e-06
6.41949e-06 -1.26088e-06 -0.000133713
0.00159306 0.000266265 6.85967e-06
0.000266265 0.000901202 -2.13953e-06
6.85967e-06 -2.13953e-06 0.00062315
0.000333773 0.000222877 -5.01338e-06
0.000222877 9.02657e-05 1.39432e-06
-5.01338e-06 1.39432e-06 -0.000120204
0.000179484 0.000118724 -4.60684e-06
0.000118724 1.44095e-05 -7.91308e-06
-4.60684e-06 -7.91308e-06 -0.000119588
-5.76668e-05 4.36595e-05 4.05904e-06
4.36595e-05 -0.000216998 -1.53694e-06
4.05904e-06 -1.53694e-06 -0.000386201
-0.00203712 3.59142e-05 2.08031e-06
3.59142e-05 -0.00134959 -2.68796e-06
2.08031e-06 -2.68796e-06 -0.00160483
0.000790606 9.53471e-05 -1.19411e-06
9.53471e-05 0.000330438 -1.17319e-07
-1.19411e-06 -1.17319e-07 0.000173758
0.000639285 0.000245521 6.54075e-06
0.000245521 0.000371094 2.66947e-06
6.54075e-06 2.66947e-06 0.000141042
0.000711855 9.70428e-05 1.67672e-06
9.70428e-05 0.000397539 2.19834e-06
1.67672e-06 2.19834e-06 0.000134746
0.000616099 0.000146364 -6.85979e-06
0.000146364 0.000200606 -9.27269e-06
-6.85979e-06 -9.27269e-06 9.52229e-05
0.00073624 3.96349e-05 -7.09446e-06
3.96349e-05 0.00042922 1.78893e-06
-7.09446e-06 1.78893e-06 0.000157454
-0.000186246 7.93714e-05 -4.55248e-06
7.93714e-05 -0.000261091 3.16038e-06
-4.55248e-06 3.16038e-06 -0.000453762
0.000820843 0.000157145 1.75132e-06
0.000157145 0.000345983 1.23029e-06
1.75132e-06 1.23029e-06 0.000188458
0.000442692 0.000101596 2.48668e-06
0.000101596 6.44558e-05 3.54403e-06
2.48668e-06 3.54403e-06 -4.22317e-05
0.00040723 2.26602e-05 -1.96922e-06
2.26602e-05 2.83278e-05 -4.22646e-07
-1.96922e-06 -4.22646e-07 -7.01311e-05
0.00126922 2.57002e-05 5.48784e-07
2.57002e-05 0.000558882 3.47126e-06
5.48784e-07 3.47126e-06 0.000529959
0.000379798 -5.25154e-05 3.91856e-06
-5.25154e-05 4.64941e-06 -2.6659e-06
3.91856e-06 -2.6659e-06 -9.10637e-05
0.0013684 9.11962e-06 -1.29972e-05
9.11962e-06 0.00062146 -1.99366e-06
-1.29972e-05 -1.99366e-06 0.000592096
0.00066119 -1.94588e-06 4.20362e-05
-1.94588e-06 0.000146974 1.1143e-05
4.20362e-05 1.1143e-05 0.000149343
0.0014335 -3.99204e-05 -1.28811e-05
-3.99204e-05 0.000662881 -9.41936e-06
-1.28811e-05 -9.41936e-06 0.000631014
0.000706715 -2.02041e-05 2.00157e-05
-2.02041e-05 0.000173605 4.2626e-06
2.00157e-05 4.2626e-06 0.00017024
0.000594504 -3.60109e-05 5.11318e-06
-3.60109e-05 0.000103524 -4.94604e-06
5.11318e-06 -4.94604e-06 9.13455e-05
0.000401635 2.66051e-05 2.56167e-06
2.66051e-05 -2.11883e-05 -9.75265e-06
2.56167e-06 -9.75265e-06 -7.22136e-05
0.000368802 3.50311e-05 -2.00593e-06
3.50311e-05 -2.02953e-05 3.68616e-07
-2.00593e-06 3.68616e-07 -9.86345e-05
0.0032141 0.00017583 -2.17932e-05
0.00017583 0.00187616 -1.23149e-05
-2.17932e-05 -1.23149e-05 0.00185142
-0.000677639 -7.4111e-05 -2.18329e-05
-7.4111e-05 -0.000721308 5.21283e-06
-2.18329e-05 5.21283e-06 -0.000803857
0.00438763 0.000164914 -2.76959e-05
0.000164914 0.00265046 -1.79601e-06
-2.76959e-05 -1.79601e-06 0.00262525
0.00334207 7.1747e-05 -0.00011233
7.1747e-05 0.00196353 2.24176e-05
-0.00011233 2.24176e-05 0.00196233
0.00243053 0.000498945 8.35032e-07
0.000498945 3.47861e-05 6.79142e-07
8.35032e-07 6.79142e-07 6.38088e-07
0.00230121 0.0002326 -6.99395e-07
0.0002326 -1.57638e-05 -1.83259e-07
-6.99395e-07 -1.83259e-07 9.3229e-06
0.00245849 0.000358011 1.75042e-06
0.000358011 -7.53206e-05 1.70559e-06
1.75042e-06 1.70559e-06 -4.95221e-06
0.00231657 0.000174026 1.23415e-06
0.000174026 -0.000113363 4.76472e-07
1.23415e-06 4.76472e-07 -9.99714e-06
0.00225151 7.29008e-05 -2.71614e-07
7.29008e-05 -2.81613e-05 6.98104e-07
-2.71614e-07 6.98104e-07 1.48716e-05
0.00215269 -1.42684e-05 -5.14363e-06
-1.42684e-05 -7.11897e-06 1.91193e-07
-5.14363e-06 1.91193e-07 -3.86059e-06
0.00222631 -1.63927e-05 8.14696e-07
-1.63927e-05 -4.65108e-05 -2.44773e-08
8.14696e-07 -2.44773e-08 7.32263e-07
0.00234894 9.2209e-05 4.33044e-07
9.2209e-05 -0.000104332 2.09145e-07
4.33044e-07 2.09145e-07 4.11025e-07
0.00244407 0.000247355 7.55042e-07
0.000247355 -7.80365e-05 5.2185e-08
7.55042e-07 5.2185e-08 1.98391e-05
0.00255599 0.000497469 5.80644e-07
0.000497469 -7.45838e-05 2.60351e-07
5.80644e-07 2.60351e-07 -3.52016e-06
0.00235631 -1.61017e-05 -1.82394e-06
-1.61017e-05 -9.56286e-05 -2.31026e-08
-1.82394e-06 -2.31026e-08 2.1647e-06
0.00248931 0.000149136 1.29465e-07
0.000149136 -0.000134548 -4.96454e-07
1.29465e-07 -4.96454e-07 3.22757e-05
0.00269063 0.000349738 2.23513e-07
0.000349738 -0.000106604 1.10454e-07
2.23513e-07 1.10454e-07 4.09267e-05
0.00219596 -0.000116138 -9.20049e-08
-0.000116138 -6.20696e-05 -7.01146e-07
-9.20049e-08 -7.01146e-07 -1.56642e-05
0.0023162 -0.00024302 -1.17601e-06
-0.00024302 -4.46282e-05 -4.23047e-07
-1.17601e-06 -4.23047e-07 -2.65279e-08
0.00245732 -0.000474072 1.08074e-07
-0.000474072 -5.50359e-05 -2.21056e-07
1.08074e-07 -2.21056e-07 -2.02998e-05
0.00254549 -0.00114076 -1.52061e-06
-0.00114076 0.000990338 -4.19009e-06
-1.52061e-06 -4.19009e-06 0.000255835
0.00201315 -0.00111121 5.63018e-06
-0.00111121 0.000427397 -5.10536e-06
5.63018e-06 -5.10536e-06 -0.000244207
0.00255788 -0.00107604 6.96969e-06
-0.00107604 0.000520906 -2.23943e-06
6.96969e-06 -2.23943e-06 -1.23019e-05
0.00251289 -0.000653265 -7.37615e-07
-0.000653265 7.45242e-05 -7.41692e-07
-7.37615e-07 -7.41692e-07 1.76766e-05
0.00273576 -0.000915695 -9.71935e-07
-0.000915695 0.000240715 1.17007e-06
-9.71935e-07 1.17007e-06 7.84153e-05
0.00263187 -0.000945246 1.18044e-05
-0.000945246 0.000385613 -2.1846e-06
1.18044e-05 -2.1846e-06 5.27906e-05
0.0014838 -0.000908591 1.49879e-06
-0.000908591 0.000575787 -2.5987e-06
1.49879e-06 -2.5987e-06 -0.000145385
0.00202371 -0.000921898 1.455e-05
-0.000921898 0.000977638 -1.71269e-05
1.455e-05 -1.71269e-05 0.000194881
0.00234608 -0.000782512 -7.51666e-06
-0.000782512 0.00138506 3.07394e-07
-7.51666e-06 3.07394e-07 0.000732641
2.4554e-05 3.21025e-05 6.40446e-06
3.21025e-05 -0.0001607 1.35453e-06
6.40446e-06 1.35453e-06 -0.000388725
0.00207877 -0.000280039 4.56262e-06
-0.000280039 0.00097198 -1.02336e-06
4.56262e-06 -1.02336e-06 0.000699574
-0.00100928 0.00014851 7.43711e-06
0.00014851 -0.000911078 -5.79738e-07
7.43711e-06 -5.79738e-07 -0.00129455
0.00235237 -0.000132105 -4.20895e-07
-0.000132105 -8.5505e-05 1.10896e-07
-4.20895e-07 1.10896e-07 1.95406e-06
0.0024867 -0.000334589 2.32645e-07
-0.000334589 -0.000141903 -2.50368e-07
2.32645e-07 -2.50368e-07 -1.06664e-05
0.00258683 -0.000594021 -4.6087e-07
-0.000594021 -4.69204e-05 -2.87437e-07
-4.6087e-07 -2.87437e-07 1.00394e-05
0.00239999 -0.00120654 -3.51984e-06
-0.00120654 0.000917813 2.94107e-07
-3.51984e-06 2.94107e-07 0.000153596
0.00221552 -0.00126326 8.54634e-06
-0.00126326 0.000563245 -2.4294e-06
8.54634e-06 -2.4294e-06 -0.00015816
0.00265934 -0.00113199 -1.53533e-06
-0.00113199 0.000570631 -2.65793e-06
-1.53533e-06 -2.65793e-06 4.29398e-05
0.00262902 -0.000809289 7.2414e-07
-0.000809289 2.26781e-05 -5.77037e-07
7.2414e-07 -5.77037e-07 -8.98737e-06
0.00272351 -0.00105057 2.04525e-06
-0.00105057 0.000307704 -1.46788e-06
2.04525e-06 -1.46788e-06 2.82018e-05
-3.38249e-05 3.75813e-05 -3.81429e-08
3.75813e-05 -0.000241767 -4.34354e-06
-3.81429e-08 -4.34354e-06 -0.000378003
0.000708605 -0.000168917 -3.37089e-06
-0.000168917 0.000382554 1.19181e-06
-3.37089e-06 1.19181e-06 2.36073e-05
0.00180857 -0.000969868 -5.38467e-06
-0.000969868 0.000774565 -5.44215e-07
-5.38467e-06 -5.44215e-07 4.10307e-05
0.00169261 -0.000813515 -2.90235e-07
-0.000813515 0.000848689 -1.34293e-06
-2.90235e-07 -1.34293e-06 3.30669e-05
0.00213661 -0.000238507 -4.56156e-06
-0.000238507 0.00109466 -4.85202e-06
-4.56156e-06 -4.85202e-06 0.000694968
0.000493139 -0.000200794 2.22175e-06
-0.000200794 1.74935e-05 -3.4997e-06
2.22175e-06 -3.4997e-06 -0.000316456
0.00245179 -0.00017468 1.61856e-06
-0.00017468 -0.000169276 3.59834e-07
1.61856e-06 3.59834e-07 4.88314e-07
0.00271023 -0.000495501 2.10864e-06
-0.000495501 -0.000172782 3.28379e-07
2.10864e-06 3.28379e-07 3.06766e-05
0.00265196 -0.000752627 -7.89583e-08
-0.000752627 -8.40549e-05 3.15814e-06
-7.89583e-08 3.15814e-06 -2.77066e-05
0.00284675 -0.00104147 8.49673e-07
-0.00104147 0.000192844 -1.34041e-06
8.49673e-07 -1.34041e-06 4.45877e-05
0.00187855 -0.00118306 -5.33694e-06
-0.00118306 0.000641215 -1.87905e-06
-5.33694e-06 -1.87905e-06 -9.23242e-05
0.00307548 -0.0013138 8.96869e-06
-0.0013138 0.000667874 -3.27284e-06
8.96869e-06 -3.27284e-06 0.000180077
0.00250877 -0.00142241 -5.62737e-05
-0.00142241 0.000695737 6.26175e-06
-5.62737e-05 6.26175e-06 -7.64351e-05
0.000461523 3.86467e-05 2.30351e-06
3.86467e-05 5.8094e-05 -5.75186e-06
2.30351e-06 -5.75186e-06 -4.28267e-05
0.000755668 -0.000176961 3.73879e-06
-0.000176961 0.000332848 -8.12142e-06
3.73879e-06 -8.12142e-06 0.000161826
-0.00106868 3.35981e-05 -7.44619e-06
3.35981e-05 -0.000801357 5.67965e-07
-7.44619e-06 5.67965e-07 -0.00105139
0.000551618 -0.000283329 -9.39098e-06
-0.000283329 0.000315645 1.49504e-05
-9.39098e-06 1.49504e-05 -5.82738e-05
0.00434518 -1.52839e-05 -1.46135e-05
-1.52839e-05 0.00260046 -5.85672e-06
-1.46135e-05 -5.85672e-06 0.00228781
-6.64056e-05 -0.000287011 -7.92282e-06
-0.000287011 -0.000340168 -4.95801e-06
-7.92282e-06 -4.95801e-06 -0.000892151
0.00251595 -0.00114142 -2.08711e-05
-0.00114142 0.00111491 4.09199e-05
-2.08711e-05 4.09199e-05 0.000348885
0.00346447 -0.0011423 -2.70079e-05
-0.0011423 0.00192914 1.99393e-05
-2.70079e-05 1.99393e-05 0.000936702
0.000244499 0.000163071 7.00707e-06
0.000163071 -4.97004e-05 -4.95279e-06
7.00707e-06 -4.95279e-06 -0.000328262
0.00222218 0.000528434 2.93117e-06
0.000528434 0.00121138 5.77295e-06
2.93117e-06 5.77295e-06 0.000785014
0.00270138 0.000778213 2.17043e-07
0.000778213 8.41169e-05 -7.68266e-07
2.17043e-07 -7.68266e-07 1.18712e-05
0.00292687 0.000426534 4.73027e-06
0.000426534 0.00110305 3.2081e-06
4.73027e-06 3.2081e-06 0.000755545
0.00136561 0.00086814 -1.37902e-06
0.00086814 0.000501804 -3.90075e-07
-1.37902e-06 -3.90075e-07 -0.000142101
0.00353404 0.000948099 -7.56079e-06
0.000948099 0.001505 1.08995e-05
-7.56079e-06 1.08995e-05 0.00097529
0.00273957 0.000892263 -5.56197e-06
0.000892263 0.000436807 -2.83564e-07
-5.56197e-06 -2.83564e-07 9.77718e-05
0.00306537 0.000909148 -4.02678e-06
0.000909148 0.00050751 7.11754e-06
-4.02678e-06 7.11754e-06 0.000231083
0.00220686 0.0013083 -8.49943e-06
0.0013083 0.000735078 2.32139e-06
-8.49943e-06 2.32139e-06 -4.41033e-05
0.00241194 0.0014357 -1.6296e-05
0.0014357 0.000573284 -4.56976e-07
-1.6296e-05 -4.56976e-07 -0.000165776
-0.000999775 0.000172531 1.00798e-06
0.000172531 -0.000764202 7.14715e-07
1.00798e-06 7.14715e-07 -0.00106957
-0.000186529 0.000546503 4.65002e-06
0.000546503 -7.75826e-06 -1.66418e-06
4.65002e-06 -1.66418e-06 -0.00058476
0.00192692 0.00104773 -8.35513e-08
0.00104773 0.000641614 -7.42065e-07
-8.35513e-08 -7.42065e-07 -2.56365e-05
0.0028008 0.000739521 -7.55394e-06
0.000739521 0.00110362 -4.45606e-07
-7.55394e-06 -4.45606e-07 0.000676297
0.00274403 0.000666578 1.30568e-07
0.000666578 -0.000263151 1.92919e-07
1.30568e-07 1.92919e-07 -7.02501e-05
0.00288345 0.000940278 3.51354e-06
0.000940278 0.000214388 -8.87314e-07
3.51354e-06 -8.87314e-07 3.90414e-05
0.00263566 0.00112704 -4.49972e-06
0.00112704 0.000434467 -5.58772e-07
-4.49972e-06 -5.58772e-07 -8.67895e-05
0.00265396 0.00144337 1.58648e-06
0.00144337 0.000789437 5.3972e-07
1.58648e-06 5.3972e-07 -3.93422e-06
-0.00156134 -1.74673e-05 -5.83242e-06
-1.74673e-05 -0.00108066 -3.28115e-06
-5.83242e-06 -3.28115e-06 -0.00130246
0.00272022 0.000458387 5.39659e-07
0.000458387 -0.000304648 4.98812e-06
5.39659e-07 4.98812e-06 -6.87464e-05
0.00405787 0.000992799 -8.1243e-06
0.000992799 0.00263638 9.02886e-06
-8.1243e-06 9.02886e-06 0.00197761
0.00182879 0.0009373 3.20247e-06
0.0009373 0.00047425 -3.87352e-06
3.20247e-06 -3.87352e-06 -0.000102147
0.00286159 0.000921865 -2.20368e-05
0.000921865 -3.55028e-05 -1.39492e-05
-2.20368e-05 -1.39492e-05 3.80159e-05
0.0017321 0.00104965 8.83864e-06
0.00104965 -0.000213482 -1.24795e-05
8.83864e-06 -1.24795e-05 -0.000679113
0.0036283 0.00159642 4.32202e-06
0.00159642 0.00130007 4.05566e-06
4.32202e-06 4.05566e-06 0.00046503
0.000138905 0.000174072 3.0667e-06
0.000174072 -9.87454e-06 7.81268e-06
3.0667e-06 7.81268e-06 -0.000242578
0.000404916 0.000162401 -2.6499e-06
0.000162401 0.000171229 -2.44757e-07
-2.6499e-06 -2.44757e-07 2.51794e-05
-0.000857619 4.78579e-05 -1.02249e-05
4.78579e-05 -0.000586829 -3.5138e-07
-1.02249e-05 -3.5138e-07 -0.000698994
5.64605e-05 8.33498e-07 3.08184e-06
8.33498e-07 -0.000163895 -6.2117e-08
3.08184e-06 -6.2117e-08 -0.000304161
0.000539123 0.000135951 5.33623e-06
0.000135951 0.000283824 -6.98955e-06
5.33623e-06 -6.98955e-06 2.24359e-05
-0.000531318 0.000147603 -5.97093e-06
0.000147603 -0.000365624 5.23201e-06
-5.97093e-06 5.23201e-06 -0.000567487
0.000471504 3.73588e-05 -1.60781e-06
3.73588e-05 0.000112792 -2.73495e-07
-1.60781e-06 -2.73495e-07 -3.85235e-05
0.000320794 8.68335e-07 -6.51332e-08
8.68335e-07 9.72135e-05 -6.28136e-07
-6.51332e-08 -6.28136e-07 -0.000118788
5.93299e-05 0.000108538 -7.73237e-06
0.000108538 -9.05393e-05 4.23788e-06
-7.73237e-06 4.23788e-06 -0.000189489
0.000674461 0.000172402 2.75146e-06
0.000172402 0.000400978 -3.58482e-06
2.75146e-06 -3.58482e-06 0.00012217
0.00062592 0.000150262 -2.69303e-07
0.000150262 0.000268157 -4.52486e-06
-2.69303e-07 -4.52486e-06 0.000200429
-0.00043685 6.65291e-05 8.05505e-06
6.65291e-05 -0.000375933 -1.01113e-05
8.05505e-06 -1.01113e-05 -0.000517253
0.000755149 0.000107224 -6.64918e-06
0.000107224 0.000456634 7.97368e-06
-6.64918e-06 7.97368e-06 0.000178587
0.000562937 5.49407e-05 -4.79433e-06
5.49407e-05 0.00021782 2.73856e-06
-4.79433e-06 2.73856e-06 9.48645e-06
0.000488444 4.92945e-05 6.56838e-07
4.92945e-05 0.000104105 2.14277e-06
6.56838e-07 2.14277e-06 -4.29095e-05
0.000377627 -8.02153e-05 -1.97891e-06
-8.02153e-05 1.13689e-05 3.23194e-06
-1.97891e-06 3.23194e-06 -9.04562e-05
0.000415587 1.93068e-05 4.29712e-07
1.93068e-05 2.79717e-05 -4.08709e-07
4.29712e-07 -4.08709e-07 -6.76486e-05
0.00133449 3.07349e-05 3.97048e-06
3.07349e-05 0.000606702 4.05115e-06
3.97048e-06 4.05115e-06 0.000578013
0.000417564 1.72381e-05 2.56794e-06
1.72381e-05 1.68914e-05 -2.38408e-06
2.56794e-06 -2.38408e-06 -6.99305e-05
0.00138855 2.17072e-05 -1.27496e-05
2.17072e-05 0.000640669 -2.18575e-06
-1.27496e-05 -2.18575e-06 0.000610689
0.000805225 3.91e-06 3.84171e-05
3.91e-06 0.00024665 1.01313e-05
3.84171e-05 1.01313e-05 0.000248109
0.00133957 -2.12685e-05 -1.16438e-05
-2.12685e-05 0.000601124 -8.49676e-06
-1.16438e-05 -8.49676e-06 0.000574191
0.000745766 -1.15928e-05 1.66222e-05
-1.15928e-05 0.000199034 4.23103e-06
1.66222e-05 4.23103e-06 0.000198305
0.000790698 -2.91328e-05 3.83877e-06
-2.91328e-05 0.000224117 -3.8668e-06
3.83877e-06 -3.8668e-06 0.000218651
0.000469724 -2.79224e-05 2.68319e-07
-2.79224e-05 4.55807e-05 -6.15167e-06
2.68319e-07 -6.15167e-06 -4.4706e-05
0.000191517 3.24448e-05 1.22383e-07
3.24448e-05 -0.00014325 -9.10296e-06
1.22383e-07 -9.10296e-06 -0.000191145
0.000224185 3.14033e-05 1.56131e-06
3.14033e-05 -0.000127568 9.44525e-07
1.56131e-06 9.44525e-07 -0.000183986
0.0035422 0.000146576 -2.44081e-06
0.000146576 0.00207138 -9.18672e-06
-2.44081e-06 -9.18672e-06 0.00205711
-7.00691e-05 -2.4761e-06 -2.85772e-06
-2.4761e-06 -0.000321943 9.86989e-06
-2.85772e-06 9.86989e-06 -0.000396577
0.00411304 0.000210274 -1.53453e-05
0.000210274 0.00247822 -1.97561e-06
-1.53453e-05 -1.97561e-06 0.00244479
0.00433418 0.000145521 -6.33054e-05
0.000145521 0.00261111 9.1429e-06
-6.33054e-05 9.1429e-06 0.00259298
0.00254402 0.000481089 1.6568e-06
0.000481089 -8.17373e-05 4.74873e-07
1.6568e-06 4.74873e-07 -5.45926e-06
0.00243614 0.000253766 -8.36333e-08
0.000253766 -8.46517e-05 3.94359e-07
-8.36333e-08 3.94359e-07 1.33109e-05
0.00230607 9.73732e-05 1.21688e-06
9.73732e-05 -0.000128085 6.37438e-07
1.21688e-06 6.37438e-07 -2.37061e-05
0.00223657 -1.60903e-05 -3.98455e-07
-1.60903e-05 -3.84462e-05 -7.02041e-08
-3.98455e-07 -7.02041e-08 1.01834e-05
0.00234127 -1.29309e-05 -6.14339e-07
-1.29309e-05 -0.000110845 -3.54894e-08
-6.14339e-07 -3.54894e-08 -8.9934e-06
0.00245091 0.000147619 9.02793e-07
0.000147619 -0.000158399 2.59111e-07
9.02793e-07 2.59111e-07 9.63305e-06
0.00259952 0.000364895 -6.79983e-07
0.000364895 -0.000144565 -1.51178e-07
-6.79983e-07 -1.51178e-07 1.37806e-06
0.00241354 -1.3571e-05 1.62267e-06
-1.3571e-05 -0.000207519 -2.3215e-07
1.62267e-06 -2.3215e-07 -2.41534e-05
0.00273125 0.000182151 2.68971e-06
0.000182151 -0.000176112 -7.09525e-07
2.68971e-06 -7.09525e-07 4.32992e-05
0.00247955 0.000183196 -9.75726e-07
0.000183196 -0.000457563 1.03231e-05
-9.75726e-07 1.03231e-05 -0.000195577
0.00236833 -0.00012426 7.00506e-07
-0.00012426 -7.45697e-05 -7.0707e-07
7.00506e-07 -7.0707e-07 9.62019e-06
0.00247627 -0.000349506 -2.45335e-06
-0.000349506 -0.000156909 -4.64577e-07
-2.45335e-06 -4.64577e-07 -2.16815e-05
0.00257611 -0.00058032 1.45494e-06
-0.00058032 -4.54752e-05 -1.58563e-07
1.45494e-06 -1.58563e-07 8.56107e-06
0.00219523 -0.00117603 -3.69285e-06
-0.00117603 0.000770296 -1.85979e-06
-3.69285e-06 -1.85979e-06 1.75347e-05
0.00201976 -0.00123815 2.68978e-05
-0.00123815 0.000450353 -5.5682e-06
2.68978e-05 -5.5682e-06 -0.000265612
0.00275772 -0.00114614 2.64303e-05
-0.00114614 0.000607084 -3.21127e-06
2.64303e-05 -3.21127e-06 8.70572e-05
0.00261217 -0.000819645 1.98115e-06
-0.000819645 1.38791e-05 -2.52389e-06
1.98115e-06 -2.52389e-06 -2.88592e-05
0.00269528 -0.00102639 2.30148e-06
-0.00102639 0.000316623 -1.14664e-06
2.30148e-06 -1.14664e-06 4.74289e-05
0.00215751 -0.00102078 -4.67512e-07
-0.00102078 0.00099773 -1.90897e-05
-4.67512e-07 -1.90897e-05 0.000240318
0.000654615 -0.000615587 6.5608e-06
-0.000615587 0.000298677 -1.51352e-05
6.5608e-06 -1.51352e-05 -0.000510854
0.0030098 -0.000420833 2.24233e-06
-0.000420833 0.0016355 4.39838e-06
2.24233e-06 4.39838e-06 0.00124831
0.000538729 -6.77669e-05 -3.7079e-06
-6.77669e-05 0.000131969 8.44668e-06
-3.7079e-06 8.44668e-06 1.90963e-06
-0.000510533 -2.96694e-05 8.36491e-06
-2.96694e-05 -0.000427748 -5.17983e-06
8.36491e-06 -5.17983e-06 -0.000766938
-0.00152083 -7.20189e-05 8.73731e-07
-7.20189e-05 -0.00131527 -1.19931e-05
8.73731e-07 -1.19931e-05 -0.00164113
0.00245273 -0.000176646 7.15024e-08
-0.000176646 -0.000175258 -6.40162e-07
7.15024e-08 -6.40162e-07 -1.84589e-06
0.000547284 -4.32137e-05 1.60641e-06
-4.32137e-05 0.000111572 3.16557e-07
1.60641e-06 3.16557e-07 6.51905e-06
0.0004125 -0.000110484 -3.28908e-06
-0.000110484 8.13291e-05 -3.76323e-07
-3.28908e-06 -3.76323e-07 -6.73961e-05
0.00265375 -0.000484402 -5.45883e-08
-0.000484402 -0.000188005 2.17141e-07
-5.45883e-08 2.17141e-07 1.1319e-06
0.00265598 -0.000739434 -1.66095e-06
-0.000739434 -6.35756e-05 2.9054e-07
-1.66095e-06 2.9054e-07 -4.27308e-06
0.00241238 -0.00128705 1.18528e-06
-0.00128705 0.000939985 1.31806e-06
1.18528e-06 1.31806e-06 0.000165862
0.00304096 -0.00152247 1.07563e-05
-0.00152247 0.000979307 -2.34469e-06
1.07563e-05 -2.34469e-06 0.00018526
0.00270865 -0.00125446 3.94571e-06
-0.00125446 0.000476935 -7.90787e-07
3.94571e-06 -7.90787e-07 3.2875e-06
0.00275056 -0.00103464 2.37879e-06
-0.00103464 0.000136569 -1.35761e-06
2.37879e-06 -1.35761e-06 -6.21647e-06
0.000232302 -3.11622e-05 -3.15878e-06
-3.11622e-05 4.01075e-05 -1.95492e-06
-3.15878e-06 -1.95492e-06 -0.000210956
0.000836855 -0.000221265 -1.03522e-06
-0.000221265 0.000501246 7.01536e-07
-1.03522e-06 7.01536e-07 0.000118198
0.00150729 -0.000953953 1.50811e-05
-0.000953953 0.000591837 7.4293e-06
1.50811e-05 7.4293e-06 -0.00014234
0.000940325 -0.000746988 1.38694e-05
-0.000746988 0.000500328 -1.66337e-05
1.38694e-05 -1.66337e-05 -0.0004696
0.000756561 -0.000355044 -7.6795e-08
-0.000355044 0.000296187 1.0379e-06
-7.6795e-08 1.0379e-06 -0.000296884
0.00102822 -0.00016901 6.71977e-06
-0.00016901 0.000454662 -1.31468e-06
6.71977e-06 -1.31468e-06 0.000173481
0.00251044 -0.000206699 2.20028e-06
-0.000206699 -0.000404222 -2.71117e-06
2.20028e-06 -2.71117e-06 -0.000124324
0.00285335 -0.000651995 -2.25611e-06
-0.000651995 -0.000176309 4.09542e-06
-2.25611e-06 4.09542e-06 8.72365e-05
0.00308089 -0.00108812 -1.58196e-06
-0.00108812 0.000127705 1.91579e-06
-1.58196e-06 1.91579e-06 8.16992e-05
0.00258882 -0.00123139 1.22488e-06
-0.00123139 0.000178476 -9.201e-06
1.22488e-06 -9.201e-06 -0.000138557
0.000842796 -0.00114584 1.19489e-06
-0.00114584 8.06829e-05 -6.32667e-06
1.19489e-06 -6.32667e-06 -0.0006774
0.00368088 -0.00174566 2.81005e-06
-0.00174566 0.00117603 -7.29342e-06
2.81005e-06 -7.29342e-06 0.00036848
0.000364147 5.47099e-05 -2.83563e-06
5.47099e-05 3.13708e-05 -7.62167e-06
-2.83563e-06 -7.62167e-06 -0.000111453
-0.000552232 -7.23989e-05 4.58999e-06
-7.23989e-05 -0.00053385 -3.53023e-06
4.58999e-06 -3.53023e-06 -0.000693017
0.00165951 -0.000247539 -7.62151e-06
-0.000247539 0.000888956 1.27253e-05
-7.62151e-06 1.27253e-05 0.000698877
0.000355963 -6.29746e-05 -5.48303e-06
-6.29746e-05 0.000132277 1.64828e-05
-5.48303e-06 1.64828e-05 -0.000164777
0.00130085 -0.000321876 -1.17838e-05
-0.000321876 0.000776532 2.59169e-05
-1.17838e-05 2.59169e-05 0.000402844
-0.000789086 -0.000102282 -1.01155e-05
-0.000102282 -0.000703378 -2.22172e-05
-1.01155e-05 -2.22172e-05 -0.0009443
-0.00165959 -0.000268615 -2.76803e-05
-0.000268615 -0.000666241 4.66896e-06
-2.76803e-05 4.66896e-06 -0.00176292
0.00114748 -0.00126143 -4.78787e-05
-0.00126143 0.000127728 2.33752e-05
-4.78787e-05 2.33752e-05 -0.000465102
-0.000374722 0.000347112 1.83315e-06
0.000347112 -0.000265106 1.02971e-06
1.83315e-06 1.02971e-06 -0.000649985
0.00375476 0.000714153 -6.32692e-06
0.000714153 0.00237672 -2.52038e-06
-6.32692e-06 -2.52038e-06 0.0018824
0.00264948 0.000628005 -2.5719e-06
0.000628005 -0.000351094 -4.0965e-06
-2.5719e-06 -4.0965e-06 -0.000134069
0.00305576 0.000949124 -5.18112e-06
0.000949124 0.0003219 -1.46243e-07
-5.18112e-06 -1.46243e-07 0.000125218
0.00379088 0.000805979 -7.6292e-06
0.000805979 0.00175389 3.88259e-06
-7.6292e-06 3.88259e-06 0.00131825
0.0017017 0.00105149 -1.68309e-05
0.00105149 0.000445943 -2.13832e-06
-1.68309e-05 -2.13832e-06 -0.000235553
0.00243073 0.0010776 -6.53936e-06
0.0010776 0.000370322 3.4803e-06
-6.53936e-06 3.4803e-06 -0.000132635
0.00288326 0.00143734 -1.13927e-05
0.00143734 0.000913164 -1.0488e-06
-1.13927e-05 -1.0488e-06 0.000135767
0.000350484 0.000296135 3.37205e-06
0.000296135 0.000220398 6.73658e-07
3.37205e-06 6.73658e-07 -9.2283e-05
0.00267372 0.000448278 -3.52331e-06
0.000448278 -0.000337987 -4.18618e-06
-3.52331e-06 -4.18618e-06 -8.29074e-05
0.00212338 0.000693442 3.0353e-06
0.000693442 0.00143863 6.33726e-06
3.0353e-06 6.33726e-06 0.000879843
0.00176546 0.00090851 4.08844e-06
0.00090851 0.00050011 2.20155e-06
4.08844e-06 2.20155e-06 -7.35765e-05
0.00298054 0.000888602 3.29179e-07
0.000888602 8.62973e-05 7.15132e-07
3.29179e-07 7.15132e-07 0.000156297
0.00233662 0.00114283 -2.96031e-06
0.00114283 0.000147874 -6.49003e-06
-2.96031e-06 -6.49003e-06 -0.000333251
0.00313853 0.00148652 -2.23939e-06
0.00148652 0.0010382 -3.18461e-07
-2.23939e-06 -3.18461e-07 0.000238792
0.00167075 0.000524628 -8.71865e-06
0.000524628 0.00118635 -2.0672e-06
-8.71865e-06 -2.0672e-06 0.000748025
0.00451301 0.000923939 -0.000132495
0.000923939 0.000576287 -4.99537e-05
-0.000132495 -4.99537e-05 0.00102949
0.00177103 0.000776399 -5.66147e-06
0.000776399 0.00105454 1.30347e-05
-5.66147e-06 1.30347e-05 0.00046574
0.00142369 0.000975441 -2.25456e-06
0.000975441 0.000309825 -1.05401e-05
-2.25456e-06 -1.05401e-05 -0.000354199
0.00367694 0.00127818 -4.92195e-05
0.00127818 0.000752769 -2.60557e-05
-4.92195e-05 -2.60557e-05 0.000478624
0.00149764 0.00122851 -3.17664e-05
0.00122851 0.000115396 -5.63034e-06
-3.17664e-05 -5.63034e-06 -0.00058502
0.00130132 0.0019533 -1.24756e-06
0.0019533 -0.00319856 -7.53274e-05
-1.24756e-06 -7.53274e-05 -0.00142936
0.000872096 0.000259278 1.11098e-05
0.000259278 0.00052207 1.23255e-05
1.11098e-05 1.23255e-05 0.00034985
0.000166086 0.000160626 -1.3475e-06
0.000160626 9.94648e-05 -8.56471e-07
-1.3475e-06 -8.56471e-07 -4.46547e-05
-0.000787056 7.02675e-05 -2.75028e-06
7.02675e-05 -0.000498313 2.10273e-06
-2.75028e-06 2.10273e-06 -0.000635108
0.000320077 -6.17311e-05 3.18598e-06
-6.17311e-05 1.59787e-05 -1.53655e-06
3.18598e-06 -1.53655e-06 -0.000137343
-0.00039904 8.39931e-07 3.86782e-06
8.39931e-07 -0.000366177 -3.772e-06
3.86782e-06 -3.772e-06 -0.000582042
0.00192987 0.000347496 4.70622e-07
0.000347496 0.00123523 -9.0768e-06
4.70622e-07 -9.0768e-06 0.000930699
-0.00139167 3.11279e-05 -6.17905e-06
3.11279e-05 -0.000959681 1.42458e-05
-6.17905e-06 1.42458e-05 -0.00104627
0.000462791 -1.27749e-06 -3.67882e-07
-1.27749e-06 0.000103701 -3.60722e-07
-3.67882e-07 -3.60722e-07 -5.37603e-05
0.000367067 9.83743e-05 4.35351e-07
9.83743e-05 5.43435e-05 -4.66623e-07
4.35351e-07 -4.66623e-07 -0.000123002
-0.000446416 9.24421e-05 1.26423e-06
9.24421e-05 -0.000370711 3.46588e-06
1.26423e-06 3.46588e-06 -0.000418711
8.23807e-05 8.99241e-05 7.77922e-07
8.99241e-05 -9.61124e-06 -2.19286e-07
7.77922e-07 -2.19286e-07 -0.000263854
0.000607263 0.000106833 -1.38335e-10
0.000106833 0.000276121 -3.82575e-07
-1.38335e-10 -3.82575e-07 0.000124022
8.63146e-05 0.000104651 1.33228e-05
0.000104651 4.23923e-05 -1.14145e-05
1.33228e-05 -1.14145e-05 -7.09505e-05
0.000879425 0.000170887 -6.90182e-06
0.000170887 0.000495009 9.04326e-06
-6.90182e-06 9.04326e-06 0.000268582
0.000889138 0.000139492 -4.3429e-06
0.000139492 0.000472238 3.32876e-06
-4.3429e-06 3.32876e-06 0.000241647
0.000732614 0.000148309 -7.18173e-06
0.000148309 0.000306845 -1.97687e-06
-7.18173e-06 -1.97687e-06 0.000112217
0.000106775 6.55108e-06 -2.44599e-06
6.55108e-06 -0.000154573 8.02532e-07
-2.44599e-06 8.02532e-07 -0.000298051
0.00170865 -0.000200827 5.65618e-06
-0.000200827 0.00109024 -1.00764e-05
5.65618e-06 -1.00764e-05 0.000767076
2.14794e-05 -8.19496e-05 -3.35248e-06
-8.19496e-05 -0.000191174 3.59831e-06
-3.35248e-06 3.59831e-06 -0.000353555
0.000287971 3.8701e-06 -2.43452e-06
3.8701e-06 -3.86667e-05 2.83702e-06
-2.43452e-06 2.83702e-06 -0.000143338
0.000397558 5.17829e-05 2.27411e-06
5.17829e-05 3.09802e-05 -1.13725e-07
2.27411e-06 -1.13725e-07 -7.44756e-05
0.000293323 2.04042e-05 -3.16944e-06
2.04042e-05 -6.84584e-05 5.42711e-06
-3.16944e-06 5.42711e-06 -0.000103511
0.000293002 -1.18781e-06 -8.14547e-07
-1.18781e-06 -3.99893e-05 -3.66181e-06
-8.14547e-07 -3.66181e-06 -0.000143777
0.000828473 1.82221e-05 -5.1447e-06
1.82221e-05 0.000278408 -1.57445e-06
-5.1447e-06 -1.57445e-06 0.00024667
0.00274 9.04356e-06 3.46823e-05
9.04356e-06 0.00151758 6.65005e-06
3.46823e-05 6.65005e-06 0.00152886
0.00142108 6.56958e-05 -2.13884e-05
6.56958e-05 0.000667042 -8.48963e-06
-2.13884e-05 -8.48963e-06 0.000635227
0.000767019 -2.51088e-06 1.60463e-05
-2.51088e-06 0.000216938 4.14354e-06
1.60463e-05 4.14354e-06 0.000217055
0.000807542 -1.8273e-05 3.02883e-06
-1.8273e-05 0.000235877 -3.49915e-06
3.02883e-06 -3.49915e-06 0.000233788
0.000281354 1.05038e-05 -2.66719e-06
1.05038e-05 -5.56093e-05 -6.71558e-06
-2.66719e-06 -6.71558e-06 -0.000144573
0.000579789 -5.90294e-05 3.54465e-07
-5.90294e-05 0.000131133 -5.20947e-07
3.54465e-07 -5.20947e-07 3.09126e-05
0.000319705 2.84992e-05 -5.96381e-07
2.84992e-05 -6.89259e-05 -7.04586e-06
-5.96381e-07 -7.04586e-06 -0.000106112
0.000905384 4.7074e-05 -9.28904e-10
4.7074e-05 0.000321531 1.49243e-07
-9.28904e-10 1.49243e-07 0.000276953
0.00301985 0.000110451 -6.72419e-06
0.000110451 0.00171904 -8.13589e-06
-6.72419e-06 -8.13589e-06 0.00171395
0.000577288 4.72739e-05 1.83069e-06
4.72739e-05 0.000114502 1.07684e-05
1.83069e-06 1.07684e-05 5.41203e-05
0.00304301 0.000143612 -5.25895e-06
0.000143612 0.00174712 -5.15844e-07
-5.25895e-06 -5.15844e-07 0.00173306
0.00442122 0.000155817 -2.45976e-05
0.000155817 0.00266186 9.28665e-06
-2.45976e-05 9.28665e-06 0.00263847
0.00251946 0.000378893 -6.57602e-07
0.000378893 -0.000179466 -5.71094e-07
-6.57602e-07 -5.71094e-07 -3.34519e-05
0.00240986 0.000146475 -5.12171e-07
0.000146475 -0.000187204 2.64186e-07
-5.12171e-07 2.64186e-07 -1.65158e-05
0.00234539 -9.51897e-06 1.31034e-06
-9.51897e-06 -0.000112523 9.33513e-08
1.31034e-06 9.33513e-08 -6.91598e-06
0.0024026 -4.95554e-06 -8.9534e-09
-4.95554e-06 -0.000215201 8.32206e-08
-8.9534e-09 8.32206e-08 -3.03462e-05
0.00271958 0.000196419 1.3262e-06
0.000196419 -0.000166545 4.66927e-08
1.3262e-06 4.66927e-08 5.18001e-05
0.00265803 0.000155064 4.54316e-06
0.000155064 -0.000344334 -2.07182e-06
4.54316e-06 -2.07182e-06 -9.18828e-05
0.0028362 4.66431e-05 4.13083e-06
4.66431e-05 -0.000239987 2.31e-06
4.13083e-06 2.31e-06 4.59246e-05
0.00658356 0.00213751 3.38735e-05
0.00213751 -0.00135657 2.5754e-05
3.38735e-05 2.5754e-05 0.000737896
0.00279573 0.000185094 -6.60644e-05
0.000185094 -0.000307698 1.62443e-05
-6.60644e-05 1.62443e-05 0.000167308
0.000358752 0.000119918 -5.08044e-06
0.000119918 3.65178e-05 -4.04627e-06
-5.08044e-06 -4.04627e-06 -0.000103781
0.00245966 -0.000177136 -1.31702e-06
-0.000177136 -0.000179824 1.03913e-07
-1.31702e-06 1.03913e-07 -1.56251e-06
0.00259447 -0.000472352 -2.44626e-06
-0.000472352 -0.000207805 -6.58104e-07
-2.44626e-06 -6.58104e-07 -3.03122e-05
0.00266905 -0.000723559 2.31225e-06
-0.000723559 -3.88678e-05 -2.70244e-06
2.31225e-06 -2.70244e-06 2.68203e-05
0.00196816 -0.00123871 -9.94367e-06
-0.00123871 0.000684632 9.01981e-07
-9.94367e-06 9.01981e-07 -7.88814e-05
0.00265367 -0.00144183 2.71886e-05
-0.00144183 0.000757695 1.40824e-06
2.71886e-05 1.40824e-06 -3.13764e-06
0.00226097 -0.00117612 -7.90094e-06
-0.00117612 0.000248438 1.93309e-06
-7.90094e-06 1.93309e-06 -0.000204329
0.00267473 -0.0010336 3.85122e-06
-0.0010336 8.47468e-05 -7.57323e-07
3.85122e-06 -7.57323e-07 -5.23792e-05
0.00225593 -0.00101545 3.4729e-05
-0.00101545 0.000982773 -5.28586e-05
3.4729e-05 -5.28586e-05 0.000281782
0.00211665 -0.000944135 3.51824e-05
-0.000944135 0.00111324 -4.21951e-05
3.51824e-05 -4.21951e-05 0.000182641
0.000492432 -0.000392409 2.06545e-05
-0.000392409 0.00022095 1.02727e-05
2.06545e-05 1.02727e-05 -0.000422789
0.000491839 -2.1295e-05 -1.5519e-07
-2.1295e-05 7.57261e-05 6.88193e-06
-1.5519e-07 6.88193e-06 -3.48816e-05
0.00120513 -0.0002047 -8.4611e-07
-0.0002047 0.000575897 4.18717e-06
-8.4611e-07 4.18717e-06 0.000277226
0.0014139 -0.000182166 8.91149e-06
-0.000182166 0.000864605 -2.27296e-06
8.91149e-06 -2.27296e-06 0.000573095
0.000187002 -0.000133322 6.35504e-06
-0.000133322 4.63248e-05 -1.45114e-05
6.35504e-06 -1.45114e-05 -0.000313201
0.000176301 -8.60216e-05 -6.59442e-06
-8.60216e-05 -6.90287e-05 6.29215e-06
-6.59442e-06 6.29215e-06 -0.000219953
0.00262841 -0.000230162 -1.36818e-06
-0.000230162 -0.000331472 -1.58848e-06
-1.36818e-06 -1.58848e-06 -4.7877e-05
0.000365876 4.39742e-05 1.06302e-06
4.39742e-05 4.72242e-05 -2.41265e-06
1.06302e-06 -2.41265e-06 -0.000104093
0.000706986 -0.00017446 2.21114e-06
-0.00017446 0.000361952 2.70352e-06
2.21114e-06 2.70352e-06 0.000144659
0.000729192 -0.000139671 9.87363e-06
-0.000139671 0.000279904 7.77156e-07
9.87363e-06 7.77156e-07 0.000117626
0.00270476 -0.000654046 2.49336e-06
-0.000654046 -0.000282485 -6.50164e-07
2.49336e-06 -6.50164e-07 -3.29622e-05
0.00296701 -0.00105674 -9.49829e-07
-0.00105674 8.32227e-05 -5.00804e-07
-9.49829e-07 -5.00804e-07 5.03601e-05
0.00176541 -0.00117294 -6.76309e-07
-0.00117294 0.000569198 1.07321e-06
-6.76309e-07 1.07321e-06 -0.000124772
0.00252827 -0.00156712 1.15965e-05
-0.00156712 0.000535578 2.99391e-08
1.15965e-05 2.99391e-08 -0.00021521
0.00286056 -0.00127803 -1.33454e-07
-0.00127803 0.000341276 3.54993e-07
-1.33454e-07 3.54993e-07 1.08284e-06
0.000206777 -7.4729e-05 -1.30932e-06
-7.4729e-05 2.71503e-05 -1.22672e-06
-1.30932e-06 -1.22672e-06 -0.000260276
0.00143253 -0.000310017 7.04632e-06
-0.000310017 0.000881921 -4.4616e-07
7.04632e-06 -4.4616e-07 0.000504641
0.00329524 -0.00157297 -3.82307e-06
-0.00157297 0.00138486 8.87494e-06
-3.82307e-06 8.87494e-06 0.000594904
0.00200899 -0.000614918 -2.06742e-06
-0.000614918 0.00120121 9.09877e-06
-2.06742e-06 9.09877e-06 0.000364575
0.00195568 -0.000214674 1.31631e-05
-0.000214674 0.00100938 1.06942e-05
1.31631e-05 1.06942e-05 0.000729551
0.00294385 -0.000453186 -2.18212e-05
-0.000453186 -0.000263127 3.71368e-06
-2.18212e-05 3.71368e-06 8.85124e-05
0.0025679 -0.000766358 -2.46324e-05
-0.000766358 -0.000368477 1.18407e-05
-2.46324e-05 1.18407e-05 -1.97505e-05
0.00300089 -0.00128703 -7.17158e-06
-0.00128703 0.000271539 -3.85917e-06
-7.17158e-06 -3.85917e-06 5.42526e-06
0.00376408 -0.0016076 1.08426e-05
-0.0016076 0.00111303 -1.94287e-06
1.08426e-05 -1.94287e-06 0.000520698
0.00117634 -0.00131982 -1.82493e-06
-0.00131982 5.64679e-05 1.49215e-05
-1.82493e-06 1.49215e-05 -0.00065788
0.00028122 -2.76121e-05 -3.58009e-07
-2.76121e-05 -9.22527e-06 1.4211e-06
-3.58009e-07 1.4211e-06 -0.000148847
-0.000391978 -5.59689e-05 -5.42994e-06
-5.59689e-05 -0.000476802 1.73466e-05
-5.42994e-06 1.73466e-05 -0.000666049
0.0001192 -0.000241336 -6.33574e-06
-0.000241336 -5.29365e-05 2.88954e-06
-6.33574e-06 2.88954e-06 -0.000242454
0.00186249 -0.000415694 -4.86199e-05
-0.000415694 0.00110965 4.66459e-05
-4.86199e-05 4.66459e-05 0.000750513
0.00150256 -0.000286039 1.96049e-06
-0.000286039 0.000867951 2.30089e-05
1.96049e-06 2.30089e-05 0.000575338
-0.000776941 -0.000109351 -1.14623e-05
-0.000109351 -0.000157371 -1.85303e-07
-1.14623e-05 -1.85303e-07 -0.000823882
0.00234465 -0.00167722 -1.48549e-05
-0.00167722 0.00118894 -1.90701e-05
-1.48549e-05 -1.90701e-05 0.000220802
0.00298032 0.000698055 6.97873e-06
0.000698055 0.00190599 1.82364e-06
6.97873e-06 1.82364e-06 0.00151826
-0.000922326 0.000261658 -2.08093e-06
0.000261658 -0.000432964 -1.22657e-06
-2.08093e-06 -1.22657e-06 -0.000874083
0.00262988 0.000432401 1.4327e-05
0.000432401 -0.000377011 1.96035e-06
1.4327e-05 1.96035e-06 -9.22856e-05
0.00310794 0.000856739 2.10445e-05
0.000856739 0.000203221 1.2838e-05
2.10445e-05 1.2838e-05 0.000275857
0.00292339 0.00123237 4.0695e-06
0.00123237 0.00049804 5.06256e-06
4.0695e-06 5.06256e-06 3.41208e-06
0.00147856 0.000849397 -5.47482e-06
0.000849397 0.000394095 2.42317e-06
-5.47482e-06 2.42317e-06 -0.000168037
0.00267566 0.00138546 3.60268e-06
0.00138546 0.000794272 6.52644e-06
3.60268e-06 6.52644e-06 2.8224e-05
0.00266703 0.000572661 -7.0075e-07
0.000572661 0.00179096 2.64351e-07
-7.0075e-07 2.64351e-07 0.00138288
0.00324315 0.000729535 1.86926e-05
0.000729535 -0.000138461 6.11344e-06
1.86926e-05 6.11344e-06 0.000407325
0.00125843 0.000650344 -6.48621e-06
0.000650344 0.000675259 5.31325e-06
-6.48621e-06 5.31325e-06 0.000165928
0.002083 0.00109398 3.35618e-06
0.00109398 0.000725482 -2.12973e-06
3.35618e-06 -2.12973e-06 1.33096e-05
0.0030751 0.00118221 -3.0762e-06
0.00118221 0.000465762 -4.08311e-06
-3.0762e-06 -4.08311e-06 0.000243426
0.00252919 0.00139027 -5.30429e-06
0.00139027 0.000681186 8.52053e-06
-5.30429e-06 8.52053e-06 -6.49637e-05
0.0030977 0.002386 6.01674e-05
0.002386 -0.0025323 8.22313e-06
6.01674e-05 8.22313e-06 -0.000935517
0.00043991 0.000401087 4.60072e-06
0.000401087 0.000512442 1.60486e-06
4.60072e-06 1.60486e-06 6.63554e-06
0.00467525 0.00153689 -0.000139095
0.00153689 0.000747552 -5.85903e-05
-0.000139095 -5.85903e-05 0.000852142
7.64081e-05 0.000641017 -1.93146e-05
0.000641017 -0.000299831 8.2451e-06
-1.93146e-05 8.2451e-06 -0.0008266
0.000969807 0.00106017 -5.16646e-06
0.00106017 2.96237e-05 -2.33106e-05
-5.16646e-06 -2.33106e-05 -0.0006642
0.00323731 0.00161812 -5.59722e-05
0.00161812 0.000773062 -2.99885e-05
-5.59722e-05 -2.99885e-05 0.000220624
0.0158286 0.0011201 -0.000926848
0.0011201 -0.000450067 -8.09751e-05
-0.000926848 -8.09751e-05 0.00119839
0.00269136 0.00363624 -0.000182827
0.00363624 -0.00533875 -0.0001723
-0.000182827 -0.0001723 -0.000690829
0.000543931 0.00272918 3.16364e-05
0.00272918 -0.00174063 -1.03036e-05
3.16364e-05 -1.03036e-05 -0.00155246
0.00571441 -0.00684006 0.00377642
-0.00684006 0.00445161 -0.000131127
0.00377642 -0.000131127 -0.0037113
0.0355487 -0.0182128 -0.000171091
-0.0182128 0.0240622 -7.56598e-06
-0.000171091 -7.56598e-06 0.00959599
0.00219436 0.000307868 1.2539e-05
0.000307868 0.00139604 6.53795e-06
1.2539e-05 6.53795e-06 0.00121802
0.000602189 0.000149749 1.16311e-06
0.000149749 0.000418455 2.61681e-06
1.16311e-06 2.61681e-06 0.000246339
4.64697e-05 0.000195165 1.35857e-05
0.000195165 0.000126892 -1.23182e-06
1.35857e-05 -1.23182e-06 -9.72012e-05
0.000524116 -5.39538e-05 1.72679e-06
-5.39538e-05 0.000154306 -1.01896e-06
1.72679e-06 -1.01896e-06 -1.07462e-05
0.000551966 8.42744e-05 5.52473e-06
8.42744e-05 0.000197918 -3.36331e-06
5.52473e-06 -3.36331e-06 1.55007e-05
0.000370483 -3.51031e-05 3.60594e-06
-3.51031e-05 0.000170396 -8.1637e-06
3.60594e-06 -8.1637e-06 -8.09312e-05
0.000776675 0.000127546 6.42034e-06
0.000127546 0.000364857 5.10115e-06
6.42034e-06 5.10115e-06 0.000209613
0.000113992 0.000111618 7.1418e-06
0.000111618 4.76302e-06 1.08287e-05
7.1418e-06 1.08287e-05 -3.07775e-05
0.000644934 0.000152465 -3.11608e-06
0.000152465 0.000355952 1.88338e-06
-3.11608e-06 1.88338e-06 0.000106143
0.000357609 -1.33364e-06 5.79498e-07
-1.33364e-06 1.97083e-05 7.12392e-07
5.79498e-07 7.12392e-07 -0.000134167
0.000752969 9.25971e-05 -1.18276e-06
9.25971e-05 0.000327562 9.62767e-08
-1.18276e-06 9.62767e-08 0.000131965
9.15965e-05 0.000106565 -2.37351e-06
0.000106565 1.84883e-05 -5.79544e-06
-2.37351e-06 -5.79544e-06 -8.38942e-05
0.000322195 0.000101052 1.60753e-06
0.000101052 0.000134584 4.94984e-07
1.60753e-06 4.94984e-07 -7.32722e-05
0.00128681 0.000180937 -2.63429e-06
0.000180937 0.000800682 1.09227e-05
-2.63429e-06 1.09227e-05 0.000541984
2.40907e-05 7.42453e-05 2.48943e-06
7.42453e-05 6.81836e-05 -2.34436e-06
2.48943e-06 -2.34436e-06 -0.000168459
0.000949568 0.000119868 -5.22417e-07
0.000119868 0.00052918 5.31675e-07
-5.22417e-07 5.31675e-07 0.000301695
0.000281615 2.02073e-05 -3.78914e-06
2.02073e-05 -1.36631e-05 -2.6435e-06
-3.78914e-06 -2.6435e-06 -0.000195677
-2.52449e-05 -4.10756e-05 -1.80542e-06
-4.10756e-05 -0.000232519 2.51303e-08
-1.80542e-06 2.51303e-08 -0.000386968
-0.000336564 -1.40629e-05 1.06233e-06
-1.40629e-05 -0.000378591 -3.37022e-06
1.06233e-06 -3.37022e-06 -0.000568239
0.0014886 -0.000151536 1.18363e-05
-0.000151536 0.000861218 -1.91704e-07
1.18363e-05 -1.91704e-07 0.000647454
0.00107539 -0.000113692 -9.26734e-07
-0.000113692 0.000654959 -5.04093e-06
-9.26734e-07 -5.04093e-06 0.000394168
0.00113234 -0.000214201 3.38962e-06
-0.000214201 0.000646561 8.73889e-07
3.38962e-06 8.73889e-07 0.000380602
0.000360656 -0.000142019 -4.05501e-06
-0.000142019 6.17776e-05 -1.6919e-06
-4.05501e-06 -1.6919e-06 -0.000118109
-0.000335468 -5.21494e-05 -8.67676e-07
-5.21494e-05 -0.000412604 1.92921e-06
-8.67676e-07 1.92921e-06 -0.000582388
0.000480188 -8.62047e-05 -2.6634e-06
-8.62047e-05 7.18432e-05 2.74537e-06
-2.6634e-06 2.74537e-06 -2.4101e-05
0.000470743 -5.54801e-05 2.82711e-06
-5.54801e-05 7.78555e-05 5.30146e-08
2.82711e-06 5.30146e-08 -2.81896e-05
0.000326647 4.73414e-06 4.86355e-06
4.73414e-06 -4.33346e-05 7.34204e-06
4.86355e-06 7.34204e-06 -7.91e-05
0.000460554 7.56156e-05 -1.73049e-06
7.56156e-05 6.26131e-05 -3.86323e-06
-1.73049e-06 -3.86323e-06 -3.69144e-05
0.000314443 3.04244e-05 5.78533e-07
3.04244e-05 -5.50987e-05 1.74898e-07
5.78533e-07 1.74898e-07 -8.98271e-05
0.0026896 1.62132e-05 2.10193e-05
1.62132e-05 0.0014857 6.25257e-06
2.10193e-05 6.25257e-06 0.00149592
0.00035159 7.6282e-05 -6.1344e-06
7.6282e-05 -2.70143e-05 -8.85308e-06
-6.1344e-06 -8.85308e-06 -6.73146e-05
0.00171008 1.72202e-06 -1.27424e-05
1.72202e-06 0.000839376 -3.40396e-08
-1.27424e-05 -3.40396e-08 0.000844214
0.000777492 -7.8994e-06 2.02151e-06
-7.8994e-06 0.000217363 -2.35576e-06
2.02151e-06 -2.35576e-06 0.000217165
0.000364261 2.26072e-05 -3.04679e-07
2.26072e-05 -2.17825e-05 -4.36825e-06
-3.04679e-07 -4.36825e-06 -8.91912e-05
0.000447087 -5.33692e-05 1.56126e-06
-5.33692e-05 5.04948e-05 9.60968e-08
1.56126e-06 9.60968e-08 -3.96221e-05
0.000392989 6.86513e-07 2.35005e-06
6.86513e-07 -2.72903e-05 -6.22639e-06
2.35005e-06 -6.22639e-06 -5.51346e-05
0.000548585 -8.2314e-05 -1.62283e-06
-8.2314e-05 0.000112799 3.94799e-06
-1.62283e-06 3.94799e-06 9.92321e-06
0.000897212 3.74949e-05 5.03884e-07
3.74949e-05 0.000311086 -1.02647e-06
5.03884e-07 -1.02647e-06 0.000275893
0.0027325 7.81699e-05 -2.62868e-06
7.81699e-05 0.00151971 -7.01851e-06
-2.62868e-06 -7.01851e-06 0.00152253
0.000333472 2.7325e-05 -1.63644e-06
2.7325e-05 -6.25366e-05 8.46821e-06
-1.63644e-06 8.46821e-06 -0.000108921
0.00328729 0.000125878 -2.13138e-06
0.000125878 0.00190226 1.93934e-06
-2.13138e-06 1.93934e-06 0.00189372
0.0035978 0.000166177 2.94789e-05
0.000166177 0.00212193 1.33642e-05
2.94789e-05 1.33642e-05 0.00210207
0.00268853 0.00021255 -3.11672e-06
0.00021255 -0.000170018 -1.33354e-06
-3.11672e-06 -1.33354e-06 4.71748e-05
0.00239042 5.3718e-07 -1.34178e-06
5.3718e-07 -0.000219486 -1.12126e-07
-1.34178e-06 -1.12126e-07 -3.36037e-05
0.00290137 0.000123119 5.5483e-06
0.000123119 -0.000168316 -3.90297e-06
5.5483e-06 -3.90297e-06 5.82113e-05
0.00278672 0.00160849 0.000157251
0.00160849 -0.00336145 5.80361e-05
0.000157251 5.80361e-05 -0.00116694
0.002808 8.56632e-06 -2.95496e-06
8.56632e-06 -0.000250704 2.87968e-08
-2.95496e-06 2.87968e-08 3.63488e-05
0.00287722 0.00015017 3.18149e-07
0.00015017 -0.000216326 -3.66948e-06
3.18149e-07 -3.66948e-06 0.000191137
0.0030457 -9.28708e-05 -4.72039e-05
-9.28708e-05 1.85874e-05 -1.3942e-06
-4.72039e-05 -1.3942e-06 0.000316996
0.00329525 0.00133594 -0.000218371
0.00133594 -0.00352831 5.54656e-06
-0.000218371 5.54656e-06 -0.000635164
0.00393488 0.000492508 0.000144072
0.000492508 -0.00154296 6.47242e-05
0.000144072 6.47242e-05 -0.000205896
0.000436238 9.03931e-05 2.01857e-07
9.03931e-05 8.58881e-05 -4.44191e-06
2.01857e-07 -4.44191e-06 -5.03969e-05
0.00057157 -3.55556e-05 4.71793e-08
-3.55556e-05 0.000192821 -3.62762e-07
4.71793e-08 -3.62762e-07 3.85463e-05
0.000484972 -0.000135692 -3.796e-06
-0.000135692 0.000143051 4.69695e-06
-3.796e-06 4.69695e-06 -1.10553e-05
0.000467843 -0.000102629 -9.69699e-07
-0.000102629 0.000134855 -1.69955e-07
-9.69699e-07 -1.69955e-07 -3.21625e-05
0.0027569 -0.000253413 -2.77247e-06
-0.000253413 -0.000249647 5.06474e-06
-2.77247e-06 5.06474e-06 3.72102e-05
0.00270837 -0.000659997 9.0359e-07
-0.000659997 -0.00026679 -2.03267e-06
9.0359e-07 -2.03267e-06 -4.66917e-05
0.00283828 -0.00102758 -8.87801e-07
-0.00102758 2.68716e-05 -1.49301e-06
-8.87801e-07 -1.49301e-06 6.00103e-06
0.00355418 -0.00142471 1.96776e-05
-0.00142471 0.00159235 2.40101e-06
1.96776e-05 2.40101e-06 0.000833543
0.00252218 -0.00162865 -2.31834e-05
-0.00162865 0.000494986 1.09729e-05
-2.31834e-05 1.09729e-05 -0.000258281
0.00286015 -0.0012917 3.44724e-06
-0.0012917 0.000347423 5.10504e-06
3.44724e-06 5.10504e-06 -3.47966e-06
0.000398976 -0.0011522 1.75868e-05
-0.0011522 -0.000147478 -1.72889e-05
1.75868e-05 -1.72889e-05 -0.00100552
0.00347575 -0.000661855 3.07124e-05
-0.000661855 0.00188474 -1.06538e-05
3.07124e-05 -1.06538e-05 0.00122123
-0.000657112 -0.00022021 1.72921e-05
-0.00022021 -0.000701641 1.11916e-05
1.72921e-05 1.11916e-05 -0.000986763
0.00145496 -0.000112251 8.15345e-06
-0.000112251 0.000830686 3.29596e-06
8.15345e-06 3.29596e-06 0.000622503
-0.000725823 -2.24472e-05 -1.33965e-05
-2.24472e-05 -0.000455075 -1.89377e-05
-1.33965e-05 -1.89377e-05 -0.000837412
0.000428126 -5.57193e-05 2.09239e-06
-5.57193e-05 0.000152337 -1.24016e-05
2.09239e-06 -1.24016e-05 -0.00012158
0.000565547 -3.39822e-05 1.55288e-06
-3.39822e-05 0.000202602 5.55818e-06
1.55288e-06 5.55818e-06 3.35881e-05
0.000748883 -0.000114886 -9.95789e-06
-0.000114886 0.000302915 6.17702e-06
-9.95789e-06 6.17702e-06 0.0001463
0.00285586 -0.000442564 3.88819e-06
-0.000442564 -0.000324505 4.13178e-07
3.88819e-06 4.13178e-07 5.26102e-05
0.000234554 -6.7808e-05 -1.37494e-06
-6.7808e-05 -2.14327e-05 4.84793e-06
-1.37494e-06 4.84793e-06 -0.000176897
0.000488901 -0.000136743 4.81769e-06
-0.000136743 0.000119599 -4.62027e-06
4.81769e-06 -4.62027e-06 -9.24384e-05
-0.00038953 -9.59567e-05 1.60551e-05
-9.59567e-05 -0.000317212 -5.36637e-06
1.60551e-05 -5.36637e-06 -0.000460386
0.00261624 -0.000811109 1.31228e-06
-0.000811109 -0.000340502 -1.01944e-06
1.31228e-06 -1.01944e-06 -4.55338e-05
0.00293826 -0.00127625 1.62363e-06
-0.00127625 0.000230719 -1.95763e-06
1.62363e-06 -1.95763e-06 -2.86153e-05
0.0021206 -0.00154592 -1.1807e-05
-0.00154592 0.0005504 -2.77165e-08
-1.1807e-05 -2.77165e-08 -0.000208656
0.00312455 -0.00158569 -4.77355e-06
-0.00158569 0.000720321 -2.57984e-06
-4.77355e-06 -2.57984e-06 0.000130789
0.00188019 -0.000304579 2.14263e-05
-0.000304579 0.00113326 -8.59481e-06
2.14263e-05 -8.59481e-06 0.000765343
-0.00146641 -5.55694e-05 1.17985e-05
-5.55694e-05 -0.000956132 8.87311e-07
1.17985e-05 8.87311e-07 -0.00130704
0.000949691 -0.00146728 -6.55139e-07
-0.00146728 0.000525304 1.11461e-06
-6.55139e-07 1.11461e-06 -0.000470512
0.00144376 -0.000534567 -1.85222e-05
-0.000534567 0.000813084 1.62806e-07
-1.85222e-05 1.62806e-07 0.000231696
0.00404905 -0.000675398 -8.11264e-05
-0.000675398 0.000455744 2.66287e-05
-8.11264e-05 2.66287e-05 0.000822889
0.00293683 -0.00111642 -4.42948e-05
-0.00111642 2.57263e-05 2.20625e-05
-4.42948e-05 2.20625e-05 0.0001383
0.00316346 -0.00144939 4.52783e-06
-0.00144939 0.000766139 -1.60469e-05
4.52783e-06 -1.60469e-05 0.000202937
0.00368971 -0.00186358 -2.03153e-06
-0.00186358 0.00120941 3.20334e-05
-2.03153e-06 3.20334e-05 0.000558785
0.000146249 -0.0002294 4.68431e-07
-0.0002294 0.000159447 -1.57714e-05
4.68431e-07 -1.57714e-05 -7.93951e-05
0.000934805 -0.000375626 -1.72141e-05
-0.000375626 0.000464499 2.12838e-05
-1.72141e-05 2.12838e-05 0.000116766
0.000821615 -0.000336882 -2.3719e-05
-0.000336882 0.000683832 6.89517e-05
-2.3719e-05 6.89517e-05 0.000294157
-0.000774605 -0.000919868 1.08853e-05
-0.000919868 0.000189862 -4.29327e-05
1.08853e-05 -4.29327e-05 -0.000878587
0.00707347 -0.000615526 3.07972e-05
-0.000615526 -0.00695128 3.17428e-05
3.07972e-05 3.17428e-05 -0.00750733
0.00389876 0.00055989 1.44121e-05
0.00055989 0.00254803 -4.90607e-06
1.44121e-05 -4.90607e-06 0.00214784
0.000116886 0.000479901 -3.99276e-06
0.000479901 -3.54536e-05 -4.44238e-06
-3.99276e-06 -4.44238e-06 -0.000494233
0.00175305 0.000565242 8.37174e-05
0.000565242 -0.00103162 3.48123e-05
8.37174e-05 3.48123e-05 -0.00038304
0.00230991 0.00106921 2.90824e-05
0.00106921 8.80539e-05 1.449e-05
2.90824e-05 1.449e-05 -7.37369e-05
0.00303083 0.00146794 1.27815e-05
0.00146794 0.000958798 1.73644e-05
1.27815e-05 1.73644e-05 0.000188101
0.00262361 0.00119544 1.58334e-05
0.00119544 0.0010596 1.40932e-05
1.58334e-05 1.40932e-05 0.000304184
0.00424403 0.0027754 0.000124155
0.0027754 -0.00227801 6.20787e-05
0.000124155 6.20787e-05 -0.000897044
0.000865169 0.000396432 2.49252e-06
0.000396432 0.000714326 -6.04731e-06
2.49252e-06 -6.04731e-06 0.000274673
0.00315563 0.00132983 -6.22192e-06
0.00132983 -0.000126735 4.33062e-06
-6.22192e-06 4.33062e-06 0.000135829
0.00104722 0.000787603 -1.05784e-05
0.000787603 0.000307769 8.67401e-06
-1.05784e-05 8.67401e-06 -0.000267982
0.0021799 0.00126891 1.6197e-06
0.00126891 0.000715715 -1.02947e-05
1.6197e-06 -1.02947e-05 -3.21256e-05
0.00358946 0.00159609 -1.31873e-05
0.00159609 0.00101207 -9.91497e-07
-1.31873e-05 -9.91497e-07 0.000445013
0.00455615 0.000323199 -0.000260648
0.000323199 -0.00894027 -0.000184174
-0.000260648 -0.000184174 -0.00810344
0.00673547 0.00399854 -0.000216915
0.00399854 -0.00270954 -0.000110661
-0.000216915 -0.000110661 0.000898741
0.0012017 0.00266349 -2.1338e-05
0.00266349 -0.00132303 -6.58503e-06
-2.1338e-05 -6.58503e-06 -0.00121488
0.01251 -0.00489907 0.00103321
-0.00489907 0.00766986 0.000230482
0.00103321 0.000230482 0.00163438
0.0344621 -0.0212709 -0.00048187
-0.0212709 0.0235166 -0.000554978
-0.00048187 -0.000554978 0.00803816
-0.000346691 0.000335817 9.59458e-07
0.000335817 -0.000253665 -3.2621e-06
9.59458e-07 -3.2621e-06 -0.000622815
0.00189804 -0.00175342 0.00225192
-0.00175342 0.00428928 -2.65537e-05
0.00225192 -2.65537e-05 0.00102067
0.0130493 -0.0109618 0.00021597
-0.0109618 0.0152237 -0.000240322
0.00021597 -0.000240322 0.00102215
0.00380329 0.00228349 -8.65122e-05
0.00228349 0.000538688 -3.26335e-05
-8.65122e-05 -3.26335e-05 6.77399e-05
0.00125751 0.00085846 -3.68963e-05
0.00085846 0.000337453 -6.25853e-06
-3.68963e-05 -6.25853e-06 -0.000226899
0.00211764 0.00134953 -5.83649e-05
0.00134953 0.000661721 -4.96652e-05
-5.83649e-05 -4.96652e-05 -3.29501e-05
-0.000214331 0.00250261 0.000173237
0.00250261 -0.00132962 0.000139578
0.000173237 0.000139578 -0.00146148
0.0161721 0.00608953 0.000297469
0.00608953 -0.00230113 -9.5151e-06
0.000297469 -9.5151e-06 0.000972539
0.00694358 0.00605908 -0.00016234
0.00605908 -0.00127507 -0.000180961
-0.00016234 -0.000180961 0.000978294
0.0275159 -0.0104196 0.00134882
-0.0104196 0.0134606 0.000109602
0.00134882 0.000109602 0.00282759
0.0223141 -0.00278451 -0.000775285
-0.00278451 0.0115515 0.000826651
-0.000775285 0.000826651 0.00554732
0.000816445 0.000146837 6.77136e-06
0.000146837 0.000589263 7.88903e-07
6.77136e-06 7.88903e-07 0.000401828
0.000370347 0.000223205 2.22142e-06
0.000223205 0.000348433 1.05084e-06
2.22142e-06 1.05084e-06 0.000115642
0.00115908 0.000400982 9.17406e-06
0.000400982 0.000871105 -8.94527e-06
9.17406e-06 -8.94527e-06 0.000499438
0.000493829 7.40939e-06 3.31542e-06
7.40939e-06 0.000135493 8.80821e-07
3.31542e-06 8.80821e-07 -3.70843e-05
0.000370114 0.000122944 4.70759e-06
0.000122944 5.10598e-05 4.04598e-07
4.70759e-06 4.04598e-07 -0.00012438
-9.04025e-05 3.05508e-05 4.50063e-06
3.05508e-05 -0.000153603 -1.31135e-06
4.50063e-06 -1.31135e-06 -0.000366758
0.000583515 0.000118763 -3.11673e-06
0.000118763 0.000320203 -5.25194e-06
-3.11673e-06 -5.25194e-06 0.000106106
0.000308512 0.000116457 -7.34492e-06
0.000116457 0.000128324 2.16733e-06
-7.34492e-06 2.16733e-06 3.65382e-05
0.000292767 1.98673e-05 1.78239e-08
1.98673e-05 -7.46404e-06 9.98729e-07
1.78239e-08 9.98729e-07 -0.000175409
0.000802033 0.000104864 2.38983e-06
0.000104864 0.000478011 2.44441e-06
2.38983e-06 2.44441e-06 0.000235382
0.000297299 7.2621e-05 -4.22996e-07
7.2621e-05 9.73391e-05 -2.5516e-06
-4.22996e-07 -2.5516e-06 -0.000124826
0.000682265 9.05121e-05 1.27372e-06
9.05121e-05 0.000295137 -4.26185e-09
1.27372e-06 -4.26185e-09 8.09028e-05
0.000308637 9.54671e-05 -1.72849e-06
9.54671e-05 0.000247237 -3.0944e-06
-1.72849e-06 -3.0944e-06 1.19918e-05
0.00045528 5.18134e-05 1.73123e-06
5.18134e-05 0.00026669 6.62991e-06
1.73123e-06 6.62991e-06 5.51208e-05
-0.000888978 -5.15688e-06 4.62929e-06
-5.15688e-06 -0.000275296 -4.60505e-06
4.62929e-06 -4.60505e-06 -0.000689743
7.86923e-05 -8.37982e-05 -4.04488e-06
-8.37982e-05 -4.90999e-05 2.83701e-06
-4.04488e-06 2.83701e-06 -0.000276779
0.000374952 -5.20961e-05 -6.49179e-06
-5.20961e-05 7.96901e-05 -4.5016e-06
-6.49179e-06 -4.5016e-06 -0.000126388
0.000678271 -2.42969e-05 8.03154e-07
-2.42969e-05 0.000316722 -4.68081e-06
8.03154e-07 -4.68081e-06 9.64026e-05
0.000699054 -0.000168194 -5.2476e-06
-0.000168194 0.000358883 5.18133e-06
-5.2476e-06 5.18133e-06 0.00016896
-0.000380605 0.000173792 -1.47303e-05
0.000173792 -0.000355831 -2.23861e-06
-1.47303e-05 -2.23861e-06 -0.000512362
0.00123198 -0.000292148 1.30277e-05
-0.000292148 0.000597001 -3.32906e-06
1.30277e-05 -3.32906e-06 0.000478292
0.00133905 -0.000115745 -3.70556e-06
-0.000115745 0.00084299 8.36426e-06
-3.70556e-06 8.36426e-06 0.000674625
-0.00117851 -1.01514e-05 2.57693e-06
-1.01514e-05 -0.000778897 -3.40256e-06
2.57693e-06 -3.40256e-06 -0.00107733
-0.000552324 -3.1029e-05 -1.84958e-06
-3.1029e-05 -0.000445905 -5.52482e-06
-1.84958e-06 -5.52482e-06 -0.00064135
0.00104092 -0.000263978 -1.01492e-06
-0.000263978 0.000621693 1.21204e-06
-1.01492e-06 1.21204e-06 0.000364472
8.83045e-06 -3.74576e-05 -1.88509e-06
-3.74576e-05 -0.000132756 -8.12313e-07
-1.88509e-06 -8.12313e-07 -0.000327974
0.000611314 -0.000228168 -2.03579e-07
-0.000228168 0.000260931 1.2274e-06
-2.03579e-07 1.2274e-06 3.10949e-05
0.000801366 -0.000168018 2.02287e-06
-0.000168018 0.000356019 -2.34805e-07
2.02287e-06 -2.34805e-07 0.000168695
0.000800117 -8.41849e-05 -1.44491e-06
-8.41849e-05 0.00028215 2.92234e-06
-1.44491e-06 2.92234e-06 0.000184222
0.000271329 1.54913e-05 1.93789e-06
1.54913e-05 1.99511e-05 -7.19309e-07
1.93789e-06 -7.19309e-07 -0.000179604
0.000452822 -8.80525e-06 3.04544e-06
-8.80525e-06 6.82333e-05 1.09519e-07
3.04544e-06 1.09519e-07 -3.50633e-05
0.00138966 -4.23039e-05 -1.83104e-05
-4.23039e-05 0.000643906 7.36461e-06
-1.83104e-05 7.36461e-06 0.000617933
0.000444562 9.65423e-05 -1.86692e-06
9.65423e-05 6.64305e-05 -2.58934e-06
-1.86692e-06 -2.58934e-06 -3.90828e-05
0.000811966 -3.18456e-05 -6.72993e-06
-3.18456e-05 0.000275892 8.76027e-07
-6.72993e-06 8.76027e-07 0.000242206
0.000827766 -4.71819e-06 -1.58784e-05
-4.71819e-06 0.000261973 5.0447e-06
-1.58784e-05 5.0447e-06 0.000264564
0.000280404 -5.31656e-05 6.8683e-06
-5.31656e-05 -7.59812e-05 -6.13427e-06
6.8683e-06 -6.13427e-06 -0.000110894
0.00269031 3.26047e-06 1.88426e-05
3.26047e-06 0.00148623 5.6006e-08
1.88426e-05 5.6006e-08 0.00149631
0.00085399 9.85679e-06 -1.88026e-05
9.85679e-06 0.000280032 -5.9894e-06
-1.88026e-05 -5.9894e-06 0.000280172
0.000595134 8.3639e-05 2.36789e-06
8.3639e-05 0.000206124 -4.19636e-06
2.36789e-06 -4.19636e-06 5.51879e-05
0.000339016 7.29145e-05 -2.00716e-06
7.29145e-05 -1.70007e-05 -5.45448e-06
-2.00716e-06 -5.45448e-06 -9.34691e-05
0.000436748 7.76331e-07 2.46602e-06
7.76331e-07 4.62603e-05 2.23486e-07
2.46602e-06 2.23486e-07 -3.46915e-05
0.000366412 1.00634e-05 1.41772e-06
1.00634e-05 -4.61578e-05 -5.33368e-06
1.41772e-06 -5.33368e-06 -6.88396e-05
0.000590741 -0.000102908 -2.26604e-06
-0.000102908 0.000159404 5.93647e-06
-2.26604e-06 5.93647e-06 5.85802e-05
0.000424612 5.77829e-06 1.20551e-06
5.77829e-06 -7.41143e-06 -1.0293e-06
1.20551e-06 -1.0293e-06 -3.53874e-05
0.00247648 5.14234e-05 -1.45929e-06
5.14234e-05 0.00134498 -6.30774e-06
-1.45929e-06 -6.30774e-06 0.00135331
0.00152948 5.24051e-05 2.4505e-06
5.24051e-05 0.000730828 4.87395e-06
2.4505e-06 4.87395e-06 0.000694397
0.00169723 5.99393e-05 -2.15812e-06
5.99393e-05 0.000840895 2.40733e-06
-2.15812e-06 2.40733e-06 0.000837841
0.000513665 5.61037e-05 1.64681e-05
5.61037e-05 7.20481e-05 1.64551e-05
1.64681e-05 1.64551e-05 5.66659e-05
0.000257926 0.00123742 0.000163226
0.00123742 -0.00476121 3.15579e-05
0.000163226 3.15579e-05 -0.00237435
0.00272783 -2.61846e-05 -1.49438e-06
-2.61846e-05 -0.000296368 -2.2129e-06
-1.49438e-06 -2.2129e-06 -8.57349e-06
0.00288801 0.000118587 6.03338e-05
0.000118587 -0.000137159 -1.1752e-05
6.03338e-05 -1.1752e-05 0.000193461
0.00552728 0.00145356 -0.000120215
0.00145356 -0.00332809 -4.66971e-05
-0.000120215 -4.66971e-05 0.000657697
0.0035967 0.000247227 0.00012358
0.000247227 -0.00194858 -1.15643e-05
0.00012358 -1.15643e-05 -0.000382627
0.0031086 -0.000114415 -1.6351e-06
-0.000114415 6.60394e-05 2.33196e-06
-1.6351e-06 2.33196e-06 0.000341984
0.00597111 -0.000950785 -9.12982e-05
-0.000950785 0.000165004 -3.82988e-05
-9.12982e-05 -3.82988e-05 0.00138975
0.00490289 -0.000853518 -0.000107492
-0.000853518 -0.00313286 -4.76248e-05
-0.000107492 -4.76248e-05 0.000247117
0.0194614 -0.00151708 7.73993e-05
-0.00151708 4.0038e-05 -0.000136962
7.73993e-05 -0.000136962 0.00109759
0.0246392 0.0113761 0.00264421
0.0113761 0.0116408 -7.68185e-05
0.00264421 -7.68185e-05 0.00240721
0.0439552 0.0160325 0.00020452
0.0160325 0.0281487 0.000234577
0.00020452 0.000234577 0.0143896
-0.000115032 -9.8843e-05 4.88923e-06
-9.8843e-05 -0.000245705 -6.85413e-08
4.88923e-06 -6.85413e-08 -0.000390359
0.00053124 -2.74682e-05 2.2842e-06
-2.74682e-05 0.000159417 5.92015e-08
2.2842e-06 5.92015e-08 1.72768e-05
0.000725 -0.000141315 -1.23611e-06
-0.000141315 0.000312857 5.51944e-06
-1.23611e-06 5.51944e-06 0.000145178
0.000534291 -7.86754e-05 4.77275e-06
-7.86754e-05 0.000152577 -1.17237e-06
4.77275e-06 -1.17237e-06 1.36361e-05
0.000884926 0.000152861 -3.78476e-06
0.000152861 0.000486104 -5.38075e-06
-3.78476e-06 -5.38075e-06 0.000318231
0.000707546 0.000169043 4.27027e-07
0.000169043 0.000310392 9.87662e-07
4.27027e-07 9.87662e-07 0.0001339
0.000544567 2.26213e-05 4.29101e-06
2.26213e-05 0.000182928 -5.07164e-06
4.29101e-06 -5.07164e-06 -3.17661e-07
0.000456432 -1.21803e-05 -3.37295e-07
-1.21803e-05 0.000112818 5.55911e-07
-3.37295e-07 5.55911e-07 -4.43051e-05
0.0027535 -0.000438378 1.95089e-05
-0.000438378 -0.000387427 -4.97659e-06
1.95089e-05 -4.97659e-06 -5.30137e-07
0.00252617 -0.000856282 2.29626e-05
-0.000856282 -0.000427097 -9.85692e-06
2.29626e-05 -9.85692e-06 -0.000172749
0.00288356 -0.00126741 8.90093e-07
-0.00126741 0.00018998 4.70314e-06
8.90093e-07 4.70314e-06 -5.97804e-05
0.00268237 -0.00158227 1.02829e-05
-0.00158227 0.000836454 -7.77876e-07
1.02829e-05 -7.77876e-07 0.000125375
0.00322228 -0.00162119 -2.47658e-05
-0.00162119 0.000778955 1.43944e-05
-2.47658e-05 1.43944e-05 0.000146482
0.000773101 -0.00145581 1.86522e-05
-0.00145581 0.000468058 2.15008e-05
1.86522e-05 2.15008e-05 -0.000572738
0.00433711 -0.000953579 2.05014e-05
-0.000953579 0.00226188 7.04457e-06
2.05014e-05 7.04457e-06 0.00173034
0.00212657 -0.000490251 2.6518e-05
-0.000490251 0.00136306 -4.71323e-05
2.6518e-05 -4.71323e-05 0.000914348
0.000505222 -4.47203e-05 -1.72268e-06
-4.47203e-05 0.000113016 1.13335e-06
-1.72268e-06 1.13335e-06 -8.38838e-05
0.00120075 -0.000133472 1.74998e-05
-0.000133472 0.000661214 -3.7788e-05
1.74998e-05 -3.7788e-05 0.000314988
0.000594536 -0.000137343 1.49346e-06
-0.000137343 0.000214649 5.08321e-06
1.49346e-06 5.08321e-06 4.77352e-05
0.000130224 7.28385e-06 -1.57098e-05
7.28385e-06 3.52111e-05 -2.77865e-06
-1.57098e-05 -2.77865e-06 -5.44185e-05
0.00286011 -0.000600035 2.13556e-06
-0.000600035 -0.000303278 5.35891e-06
2.13556e-06 5.35891e-06 0.00018568
0.000346521 -0.000123244 -7.70664e-06
-0.000123244 0.000227819 3.89441e-06
-7.70664e-06 3.89441e-06 1.8899e-05
0.00102695 -0.000288218 -2.38709e-06
-0.000288218 0.000531994 1.50305e-06
-2.38709e-06 1.50305e-06 0.00023353
0.00219074 -0.00105239 9.45454e-06
-0.00105239 -0.000408237 -5.50623e-06
9.45454e-06 -5.50623e-06 -0.000241559
0.00300044 -0.00141107 6.59374e-07
-0.00141107 0.000654048 5.83472e-06
6.59374e-07 5.83472e-06 0.000139356
0.00177107 -0.00154325 2.49143e-06
-0.00154325 0.000132262 -1.71162e-05
2.49143e-06 -1.71162e-05 -0.000416733
0.000682787 -0.000398633 -3.31649e-06
-0.000398633 0.000523328 -2.46221e-05
-3.31649e-06 -2.46221e-05 1.81447e-05
0.00069597 -0.000989588 1.67244e-05
-0.000989588 0.000970597 -1.95574e-08
1.67244e-05 -1.95574e-08 -2.03298e-05
0.00645655 -0.00150515 -6.18663e-05
-0.00150515 0.00133964 4.596e-05
-6.18663e-05 4.596e-05 0.00185333
0.00273347 -0.0014523 -4.09239e-05
-0.0014523 0.000420308 2.3325e-05
-4.09239e-05 2.3325e-05 4.13818e-06
0.00359446 -0.00183852 1.38962e-06
-0.00183852 0.0010633 1.79251e-05
1.38962e-06 1.79251e-05 0.000438135
0.0011155 -0.00112441 -3.48588e-05
-0.00112441 0.000205448 2.116e-05
-3.48588e-05 2.116e-05 -8.95418e-05
0.00105074 -0.000263252 7.29598e-06
-0.000263252 0.000773598 -1.80143e-06
7.29598e-06 -1.80143e-06 0.00041835
-0.00122246 -5.15014e-05 8.42821e-06
-5.15014e-05 -0.000589382 1.80524e-05
8.42821e-06 1.80524e-05 -0.000976119
-0.000606297 -0.000329025 -9.09164e-06
-0.000329025 0.000186054 -2.03549e-05
-9.09164e-06 -2.03549e-05 -0.000581279
-0.0073824 -0.000848065 0.00150157
-0.000848065 -4.87138e-05 -3.16733e-05
0.00150157 -3.16733e-05 -0.00560667
0.0140314 -0.000534608 -1.32606e-06
-0.000534608 -0.00205385 5.02381e-05
-1.32606e-06 5.02381e-05 9.09912e-05
0.00186301 0.000455365 4.66885e-06
0.000455365 0.0012156 -1.2503e-05
4.66885e-06 -1.2503e-05 0.000846618
0.00244383 0.000996874 -3.22645e-06
0.000996874 0.00118646 6.99834e-06
-3.22645e-06 6.99834e-06 0.000541381
0.00162907 0.00107589 0.000133211
0.00107589 -0.000970161 6.64176e-05
0.000133211 6.64176e-05 -0.000575064
0.00396184 0.00158379 3.68929e-05
0.00158379 0.00125847 2.12142e-05
3.68929e-05 2.12142e-05 0.000666946
0.00310428 0.00143135 2.49349e-05
0.00143135 0.00122593 7.86725e-06
2.49349e-05 7.86725e-06 0.000437327
0.0202008 0.00106157 7.56826e-05
0.00106157 0.000420283 -0.000250104
7.56826e-05 -0.000250104 0.00211922
0.00864426 0.00481052 -0.000347265
0.00481052 -0.00364293 9.37068e-06
-0.000347265 9.37068e-06 0.000660812
0.00236587 0.00273802 -2.2122e-05
0.00273802 -0.000553806 -4.03277e-05
-2.2122e-05 -4.03277e-05 -0.000612995
0.0184288 -0.00902507 -0.00149335
-0.00902507 0.00996422 0.000366665
-0.00149335 0.000366665 0.00141236
0.0303617 -0.0245477 -0.00281611
-0.0245477 0.0228882 -0.00173199
-0.00281611 -0.00173199 0.00675912
0.000662845 0.000494701 8.07519e-06
0.000494701 0.000413587 -6.90646e-06
8.07519e-06 -6.90646e-06 -7.5649e-06
0.00323751 -0.00688753 0.00130797
-0.00688753 0.000986655 3.6223e-05
0.00130797 3.6223e-05 -0.0064469
0.00543846 -0.00831831 -0.00124581
-0.00831831 0.0157444 1.59011e-05
-0.00124581 1.59011e-05 0.00350733
0.00412059 0.00215222 -2.05885e-05
0.00215222 0.000641007 6.87755e-06
-2.05885e-05 6.87755e-06 0.000262011
0.00119367 0.000899366 -1.46076e-05
0.000899366 0.000370711 9.8318e-06
-1.46076e-05 9.8318e-06 -0.00023931
0.00290616 0.00154106 -2.59911e-06
0.00154106 0.00105729 -7.94879e-07
-2.59911e-06 -7.94879e-07 0.000301732
0.00224835 0.00264721 0.00010004
0.00264721 0.000290952 6.70189e-05
0.00010004 6.70189e-05 6.58862e-05
0.0141103 0.00666872 -0.000308548
0.00666872 -0.0042998 -0.000134003
-0.000308548 -0.000134003 -0.00199326
0.00324801 0.00569775 -6.36855e-05
0.00569775 -0.0017474 -8.83125e-05
-6.36855e-05 -8.83125e-05 0.000368678
0.0315152 -0.00937492 0.00105421
-0.00937492 0.015276 -0.000274249
0.00105421 -0.000274249 0.00466773
0.0310165 -0.00689794 -0.000365527
-0.00689794 0.0122708 0.00104075
-0.000365527 0.00104075 0.00301568
0.0011539 0.000635265 -1.27962e-05
0.000635265 0.000634753 -1.59591e-05
-1.27962e-05 -1.59591e-05 0.000221746
-0.00213727 -6.20284e-05 0.000257702
-6.20284e-05 0.00806522 -0.000217488
0.000257702 -0.000217488 -0.00243854
0.00995749 0.00379549 -0.00106265
0.00379549 0.00749804 -0.000639577
-0.00106265 -0.000639577 0.00174882
0.00300256 0.0017073 -6.02614e-05
0.0017073 0.000556054 -3.55643e-05
-6.02614e-05 -3.55643e-05 0.00029094
0.0025653 0.00150972 -9.31908e-05
0.00150972 0.00112969 -4.12462e-05
-9.31908e-05 -4.12462e-05 0.000388702
0.00173813 0.00202935 -0.00012509
0.00202935 0.00123485 -5.3654e-05
-0.00012509 -5.3654e-05 0.00027133
-0.00227455 0.00434727 9.57553e-05
0.00434727 -0.000641149 -4.84053e-05
9.57553e-05 -4.84053e-05 -0.000761005
0.00592768 0.00973086 0.00123539
0.00973086 -0.00410789 0.000160596
0.00123539 0.000160596 -0.00324364
0.0323776 -0.0116796 -0.00106213
-0.0116796 0.0194092 0.00123131
-0.00106213 0.00123131 0.00714426
0.0100635 0.00118466 -0.000137871
0.00118466 -0.00141276 -0.000280216
-0.000137871 -0.000280216 -0.00309375
0.00083954 0.000287512 -1.09151e-05
0.000287512 0.000646363 3.65355e-06
-1.09151e-05 3.65355e-06 0.000391799
0.000810091 0.000379523 6.29438e-06
0.000379523 0.000633411 2.80449e-07
6.29438e-06 2.80449e-07 0.000289164
-0.000276781 0.000300747 2.58403e-06
0.000300747 2.84143e-05 -2.07796e-06
2.58403e-06 -2.07796e-06 -0.000327191
0.000383171 9.31859e-05 5.62027e-06
9.31859e-05 5.68752e-05 2.16318e-06
5.62027e-06 2.16318e-06 -0.000115768
0.00127935 0.000183568 1.34505e-06
0.000183568 0.000713376 1.39357e-06
1.34505e-06 1.39357e-06 0.000478476
0.000147723 3.66952e-05 1.51361e-06
3.66952e-05 1.90268e-06 6.10831e-07
1.51361e-06 6.10831e-07 -0.000226464
9.06431e-05 6.65522e-05 9.21474e-06
6.65522e-05 4.37386e-05 -5.48894e-06
9.21474e-06 -5.48894e-06 -0.000200919
0.000144434 8.03577e-05 -5.5555e-06
8.03577e-05 0.000146513 3.43325e-06
-5.5555e-06 3.43325e-06 -7.8501e-05
0.000821904 8.00388e-05 -9.41954e-07
8.00388e-05 0.000391745 -1.32312e-06
-9.41954e-07 -1.32312e-06 0.000168259
0.000487917 5.11256e-05 1.44278e-06
5.11256e-05 0.000290481 -2.76887e-06
1.44278e-06 -2.76887e-06 6.65882e-05
0.000735505 -2.36535e-07 3.49905e-07
-2.36535e-07 0.00038773 3.02103e-06
3.49905e-07 3.02103e-06 0.000148452
-0.000391606 6.715e-05 -2.05991e-06
6.715e-05 3.8316e-05 -8.94083e-07
-2.05991e-06 -8.94083e-07 -0.000361502
-0.000137965 4.02433e-05 3.00023e-06
4.02433e-05 0.000357369 -2.48612e-06
3.00023e-06 -2.48612e-06 -0.00018616
-3.77955e-05 -5.56985e-05 4.48096e-07
-5.56985e-05 9.54443e-05 1.26848e-06
4.48096e-07 1.26848e-06 -0.000232655
0.00147404 -6.50384e-05 -9.47696e-06
-6.50384e-05 0.000915576 -2.10692e-06
-9.47696e-06 -2.10692e-06 0.000645888
0.00138224 -0.000195121 -2.26653e-06
-0.000195121 0.000798754 -3.5524e-06
-2.26653e-06 -3.5524e-06 0.000553237
0.00101296 -0.000244778 -7.68345e-06
-0.000244778 0.000526408 5.34297e-06
-7.68345e-06 5.34297e-06 0.000377364
0.000544808 -0.000111561 1.25722e-06
-0.000111561 0.000265009 -3.83332e-07
1.25722e-06 -3.83332e-07 8.40639e-05
0.000927518 -0.000391017 1.13358e-07
-0.000391017 0.000357697 -1.91034e-06
1.13358e-07 -1.91034e-06 0.000244786
-0.000603068 -4.05938e-05 -6.84575e-06
-4.05938e-05 -0.000346688 9.97075e-06
-6.84575e-06 9.97075e-06 -0.00048496
-0.00130528 -0.000108695 9.61373e-06
-0.000108695 -0.000969054 -6.74884e-06
9.61373e-06 -6.74884e-06 -0.00114379
-0.000583866 -2.67545e-05 -1.7637e-05
-2.67545e-05 -0.000266953 7.78282e-06
-1.7637e-05 7.78282e-06 -0.000521672
0.00187151 -0.000297781 4.22471e-06
-0.000297781 0.00109129 -1.10171e-06
4.22471e-06 -1.10171e-06 0.000964808
0.00248534 -9.09347e-05 1.12018e-05
-9.09347e-05 0.00129316 -1.73753e-05
1.12018e-05 -1.73753e-05 0.00103768
0.00430756 -0.000777537 -3.27019e-06
-0.000777537 0.00233524 4.67412e-06
-3.27019e-06 4.67412e-06 0.00194283
-0.00177595 -0.000291859 2.16537e-07
-0.000291859 -0.00116786 1.50764e-06
2.16537e-07 1.50764e-06 -0.00149489
5.61239e-05 3.06091e-05 2.08078e-06
3.06091e-05 2.13494e-05 -2.36617e-06
2.08078e-06 -2.36617e-06 -0.000282395
-0.00175443 3.9791e-05 1.15708e-05
3.9791e-05 -0.00116396 -9.34519e-06
1.15708e-05 -9.34519e-06 -0.00146455
0.000792848 -0.000227992 -5.06957e-06
-0.000227992 0.000439059 -1.84098e-06
-5.06957e-06 -1.84098e-06 0.000208361
0.00129051 -7.2528e-05 7.68271e-06
-7.2528e-05 0.00069282 4.3999e-06
7.68271e-06 4.3999e-06 0.000477507
0.00113199 -0.000222648 3.79775e-06
-0.000222648 0.000645979 3.97907e-06
3.79775e-06 3.97907e-06 0.000412007
0.000483621 -5.74309e-05 -1.38437e-06
-5.74309e-05 0.000163164 5.99491e-07
-1.38437e-06 5.99491e-07 -2.1171e-05
0.000111803 5.78147e-05 4.79839e-06
5.78147e-05 -0.000147827 1.62423e-06
4.79839e-06 1.62423e-06 -0.000252882
0.00085242 -0.000171983 1.34745e-06
-0.000171983 0.000377699 4.83456e-06
1.34745e-06 4.83456e-06 0.000196219
0.000350327 -5.09882e-05 -9.83183e-07
-5.09882e-05 -2.06746e-05 1.22027e-07
-9.83183e-07 1.22027e-07 -0.000109411
0.00128804 3.9627e-05 -8.76866e-06
3.9627e-05 0.000571541 8.01342e-06
-8.76866e-06 8.01342e-06 0.000546419
0.000473145 -9.73024e-05 2.06105e-06
-9.73024e-05 6.98504e-05 -2.06048e-06
2.06105e-06 -2.06048e-06 -2.89053e-05
0.000829875 -2.90955e-05 -1.30155e-05
-2.90955e-05 0.000276951 1.03914e-06
-1.30155e-05 1.03914e-06 0.000248343
0.000651682 8.54734e-06 2.16575e-06
8.54734e-06 0.00013368 1.78386e-06
2.16575e-06 1.78386e-06 0.000137631
0.000379868 -5.24944e-05 5.77422e-06
-5.24944e-05 -1.49921e-05 -5.28271e-06
5.77422e-06 -5.28271e-06 -4.74711e-05
0.00259536 2.07609e-06 6.49626e-06
2.07609e-06 0.00142141 1.29007e-09
6.49626e-06 1.29007e-09 0.0014329
0.00266559 -7.77741e-06 1.63629e-05
-7.77741e-06 0.00146933 -5.49055e-06
1.63629e-05 -5.49055e-06 0.00147956
0.0010921 8.13784e-05 -1.25148e-06
8.13784e-05 0.000523969 -5.44863e-06
-1.25148e-06 -5.44863e-06 0.000367081
0.000447322 8.40822e-05 -8.05924e-07
8.40822e-05 6.00656e-05 -6.83168e-06
-8.05924e-07 -6.83168e-06 -2.38063e-05
0.000513703 -2.35247e-05 -8.33263e-07
-2.35247e-05 0.000146563 9.60598e-07
-8.33263e-07 9.60598e-07 -2.4518e-06
0.000363327 1.72808e-05 1.25412e-06
1.72808e-05 -4.93412e-05 -5.41483e-06
1.25412e-06 -5.41483e-06 -7.02359e-05
0.000400241 -1.53465e-05 2.38204e-06
-1.53465e-05 1.92999e-05 -2.28017e-07
2.38204e-06 -2.28017e-07 -5.62089e-05
0.000455529 -8.6007e-05 -4.10366e-06
-8.6007e-05 6.26242e-05 5.35977e-06
-4.10366e-06 5.35977e-06 -2.24542e-05
0.000393805 -2.97583e-06 -5.56056e-07
-2.97583e-06 -2.89256e-05 1.1641e-07
-5.56056e-07 1.1641e-07 -5.17241e-05
0.00231028 3.25351e-05 -6.73834e-06
3.25351e-05 0.00123204 -6.09559e-06
-6.73834e-06 -6.09559e-06 0.00124377
0.00138751 2.17924e-05 -6.31705e-07
2.17924e-05 0.000626238 4.69012e-06
-6.31705e-07 4.69012e-06 0.000601831
0.00158808 3.80655e-05 -5.91442e-06
3.80655e-05 0.000758352 8.72408e-08
-5.91442e-06 8.72408e-08 0.000761647
0.000737979 4.43879e-05 4.42867e-06
4.43879e-05 0.000208134 1.2618e-05
4.42867e-06 1.2618e-05 0.000201161
-0.00202236 0.00477735 0.00153457
0.00477735 0.00133329 -8.68441e-05
0.00153457 -8.68441e-05 -0.00651357
0.00654853 0.00543039 0.00302566
0.00543039 0.0138404 -0.000127745
0.00302566 -0.000127745 0.00338772
0.00186579 0.00158288 -8.12273e-05
0.00158288 -0.00486401 -8.63233e-05
-8.12273e-05 -8.63233e-05 -0.000439363
0.00327922 2.31852e-06 8.57908e-05
2.31852e-06 -0.00229633 2.52065e-07
8.57908e-05 2.52065e-07 -0.000560533
0.00323512 -0.00013175 4.4827e-05
-0.00013175 0.000117081 -1.35736e-06
4.4827e-05 -1.35736e-06 0.000388808
0.00224925 -2.12556e-05 -8.93966e-05
-2.12556e-05 -0.00257546 -3.90153e-05
-8.93966e-05 -3.90153e-05 0.000397725
0.00482038 -0.000900408 2.01522e-05
-0.000900408 -0.000318788 1.51441e-06
2.01522e-05 1.51441e-06 0.000703696
0.0130342 -0.00120352 0.000423159
-0.00120352 -0.00421215 -0.000162392
0.000423159 -0.000162392 -0.00333778
0.00977998 0.00748461 -4.76218e-05
0.00748461 0.00398871 -0.000109978
-4.76218e-05 -0.000109978 -0.00282208
0.0387524 0.020063 -0.000821376
0.020063 0.025912 0.000300207
-0.000821376 0.000300207 0.0111679
0.00378253 -0.00218946 -7.77759e-05
-0.00218946 -0.00384863 -2.92938e-05
-7.77759e-05 -2.92938e-05 -0.000254113
0.0150538 -0.00590332 0.00052255
-0.00590332 -0.00296835 -8.82077e-05
0.00052255 -8.82077e-05 -0.00177225
0.0283318 0.0100019 0.000426318
0.0100019 0.0133261 -0.000480191
0.000426318 -0.000480191 0.00252514
0.0346639 0.00674221 -0.000495556
0.00674221 0.0156332 0.000456619
-0.000495556 0.000456619 0.00763965
0.00177847 0.000203991 -4.47479e-06
0.000203991 0.00111857 -6.13374e-07
-4.47479e-06 -6.13374e-07 0.000855143
0.000366017 3.55461e-05 1.22453e-06
3.55461e-05 5.05898e-05 -6.68327e-07
1.22453e-06 -6.68327e-07 -9.41935e-05
0.000540056 -0.000133797 2.58443e-06
-0.000133797 0.000179879 3.66094e-06
2.58443e-06 3.66094e-06 2.95495e-05
0.000353769 -1.08462e-05 4.82479e-06
-1.08462e-05 4.24397e-05 -1.22065e-06
4.82479e-06 -1.22065e-06 -9.64172e-05
0.00037926 6.25965e-05 4.90667e-06
6.25965e-05 0.000138189 -1.39303e-06
4.90667e-06 -1.39303e-06 1.39029e-05
0.000728185 0.00011972 1.29282e-06
0.00011972 0.000330002 9.31255e-07
1.29282e-06 9.31255e-07 0.000107688
0.000455374 7.67617e-05 -1.85012e-06
7.67617e-05 0.000157438 9.30363e-07
-1.85012e-06 9.30363e-07 -1.54216e-05
0.000547449 0.000123782 5.83988e-06
0.000123782 0.000160676 1.31308e-06
5.83988e-06 1.31308e-06 -4.42522e-05
0.000596087 1.86713e-05 1.1965e-06
1.86713e-05 0.000226699 -1.13666e-06
1.1965e-06 -1.13666e-06 3.41314e-05
0.000184789 -2.64147e-05 4.47024e-07
-2.64147e-05 -7.78535e-05 2.33429e-06
4.47024e-07 2.33429e-06 -0.000216379
0.00145461 -0.000510624 6.18768e-05
-0.000510624 -0.00124995 -2.57544e-05
6.18768e-05 -2.57544e-05 -0.000582464
0.00163508 -0.00098481 2.96182e-05
-0.00098481 -0.000694389 -1.71838e-05
2.96182e-05 -1.71838e-05 -0.000492372
0.00213835 -0.00127723 6.45728e-06
-0.00127723 0.000163075 4.86216e-06
6.45728e-06 4.86216e-06 -0.000274582
0.000149067 -0.00127162 -6.83154e-06
-0.00127162 -0.000768053 -8.96829e-06
-6.83154e-06 -8.96829e-06 -0.00125139
0.00248805 -0.00100133 -6.05943e-06
-0.00100133 0.00189872 5.53726e-05
-6.05943e-06 5.53726e-05 0.00101731
-0.000704133 -0.000658909 -8.1218e-06
-0.000658909 -0.000265373 -2.09894e-05
-8.1218e-06 -2.09894e-05 -0.00096337
0.00114752 -0.000331454 1.49984e-05
-0.000331454 0.0006466 -1.72968e-05
1.49984e-05 -1.72968e-05 0.00038577
0.000132651 -6.59808e-05 -2.18652e-06
-6.59808e-05 3.93272e-05 3.09343e-06
-2.18652e-06 3.09343e-06 -0.000139961
0.00335416 -0.00118518 1.13304e-05
-0.00118518 -0.000514447 -1.10269e-05
1.13304e-05 -1.10269e-05 0.000242232
0.000609192 -0.000123079 1.14929e-07
-0.000123079 0.000481771 2.46937e-06
1.14929e-07 2.46937e-06 0.000129833
-0.000289812 -0.000240968 -1.34332e-05
-0.000240968 1.72849e-05 1.25171e-06
-1.34332e-05 1.25171e-06 -0.000377901
0.00197037 -0.00129122 2.12109e-05
-0.00129122 -2.04524e-05 -1.85795e-06
2.12109e-05 -1.85795e-06 -0.000282762
0.0026322 -0.00163922 -1.06883e-06
-0.00163922 0.000565455 -6.32733e-06
-1.06883e-06 -6.32733e-06 1.70466e-06
0.000562831 -0.00106234 2.07301e-05
-0.00106234 -6.45101e-05 -1.68905e-05
2.07301e-05 -1.68905e-05 -0.000411422
0.00111227 -0.000548789 2.66815e-05
-0.000548789 0.00115287 -3.10339e-05
2.66815e-05 -3.10339e-05 0.000458578
0.00201586 -0.00192934 -4.03779e-05
-0.00192934 -0.000943809 5.19096e-05
-4.03779e-05 5.19096e-05 -0.000658161
0.00222108 -0.00142464 -4.63499e-05
-0.00142464 0.000554373 3.36571e-05
-4.63499e-05 3.36571e-05 0.000121407
-2.66479e-05 -0.000588468 -5.83673e-05
-0.000588468 0.00026673 2.43833e-05
-5.83673e-05 2.43833e-05 -0.0002155
0.000780205 0.000101281 -2.80434e-06
0.000101281 0.00052755 -1.92393e-07
-2.80434e-06 -1.92393e-07 0.000207852
-0.00077944 -7.7513e-06 -7.53466e-06
-7.7513e-06 -0.000255347 1.75125e-05
-7.53466e-06 1.75125e-05 -0.000693228
-0.000399247 -7.6299e-05 8.33564e-06
-7.6299e-05 1.08711e-05 8.17248e-06
8.33564e-06 8.17248e-06 -0.000392343
-0.00261448 0.00159403 -0.000797029
0.00159403 0.00882593 -9.77553e-06
-0.000797029 -9.77553e-06 0.000948395
0.000186128 -0.00260584 -1.70354e-05
-0.00260584 0.00560551 -8.00855e-05
-1.70354e-05 -8.00855e-05 0.00152564
0.00741403 0.000300298 -0.000119409
0.000300298 -0.00757635 -3.28568e-05
-0.000119409 -3.28568e-05 -0.00762945
0.00129575 0.000578589 1.60477e-05
0.000578589 0.000859694 -1.07103e-05
1.60477e-05 -1.07103e-05 0.000410702
0.00200082 0.00107879 2.30106e-05
0.00107879 0.000897179 3.20557e-05
2.30106e-05 3.20557e-05 0.000204992
0.00399442 0.00189657 0.000106073
0.00189657 0.000525354 5.3109e-05
0.000106073 5.3109e-05 0.000274417
0.00294241 0.00161977 4.10613e-05
0.00161977 0.00108904 3.76419e-05
4.10613e-05 3.76419e-05 0.000295318
0.0181003 -0.00813729 0.000352848
-0.00813729 0.0115988 0.000132443
0.000352848 0.000132443 0.00298779
0.00273101 0.00498859 -0.000867456
0.00498859 -0.0108808 -0.000161639
-0.000867456 -0.000161639 -0.00904463
0.00654895 0.00614204 -1.57521e-05
0.00614204 -0.000368766 2.52635e-05
-1.57521e-05 2.52635e-05 0.00142279
0.00430787 0.00264147 0.000117085
0.00264147 0.00165753 2.73653e-05
0.000117085 2.73653e-05 0.00136119
0.0222953 -0.00624713 -0.000766662
-0.00624713 0.0100698 -0.000183397
-0.000766662 -0.000183397 0.000780378
0.00600844 -0.00951302 -0.00195841
-0.00951302 0.0170971 -0.000105575
-0.00195841 -0.000105575 0.00538578
0.0435428 -0.0114266 0.00178502
-0.0114266 0.0166776 0.000504266
0.00178502 0.000504266 0.00558663
0.000639985 0.000591662 1.52629e-05
0.000591662 0.000380263 -4.75684e-06
1.52629e-05 -4.75684e-06 -5.12527e-05
0.000893925 -0.00162264 -8.34646e-05
-0.00162264 0.0106872 2.39057e-06
-8.34646e-05 2.39057e-06 0.000628268
0.00988794 0.00428917 -0.000338193
0.00428917 0.00520756 -0.000212908
-0.000338193 -0.000212908 -0.00159729
0.00279859 0.00184214 1.3281e-05
0.00184214 0.00059637 4.82745e-06
1.3281e-05 4.82745e-06 0.000185155
0.00130994 0.00126472 7.51999e-06
0.00126472 0.000558177 7.79559e-06
7.51999e-06 7.79559e-06 -0.000151831
0.00068616 0.00201568 -0.000158671
0.00201568 0.000616187 -0.000108814
-0.000158671 -0.000108814 -0.000142216
0.00388669 0.00655438 0.000104695
0.00655438 0.000784235 5.78645e-05
0.000104695 5.78645e-05 0.000760409
0.0121028 0.0102959 -3.99224e-05
0.0102959 -0.000770617 -1.50358e-05
-3.99224e-05 -1.50358e-05 -0.00168985
0.0156272 -0.00682802 9.82767e-05
-0.00682802 0.012821 -0.000186505
9.82767e-05 -0.000186505 0.00112694
0.0203949 -0.00233763 -0.000132067
-0.00233763 0.00401313 -3.98609e-05
-0.000132067 -3.98609e-05 0.0025192
0.00146603 0.00111946 -1.69619e-05
0.00111946 0.00085965 -1.50479e-05
-1.69619e-05 -1.50479e-05 0.000238576
0.00167536 0.00107319 -0.000721293
0.00107319 0.00434736 -0.000196958
-0.000721293 -0.000196958 -0.00309872
0.00395439 0.00168262 -0.000129438
0.00168262 0.0012865 -0.000217942
-0.000129438 -0.000217942 -0.00233351
-0.00102528 0.000746958 -5.43282e-06
0.000746958 -5.68468e-05 -3.31412e-05
-5.43282e-06 -3.31412e-05 -0.000605893
-0.00268339 0.00186758 -0.000116824
0.00186758 0.000721998 3.88194e-05
-0.000116824 3.88194e-05 -0.000264996
0.00782905 0.00907535 0.000432993
0.00907535 0.00411659 4.63329e-05
0.000432993 4.63329e-05 -0.00148231
0.0120463 -0.00670587 1.39253e-05
-0.00670587 0.00431773 0.000227836
1.39253e-05 0.000227836 -0.00495021
0.0189706 -0.00101383 0.000112727
-0.00101383 0.000354092 -0.000347984
0.000112727 -0.000347984 0.000561567
0.000704242 0.000354859 -2.99533e-06
0.000354859 0.000544227 2.22494e-05
-2.99533e-06 2.22494e-05 0.000237233
0.000871831 0.000417333 -3.22125e-06
0.000417333 0.000737583 -4.85373e-06
-3.22125e-06 -4.85373e-06 0.00034978
0.000149834 0.00035285 6.42939e-06
0.00035285 0.000465145 -5.06073e-06
6.42939e-06 -5.06073e-06 -5.55881e-05
0.000666314 0.000131415 1.97588e-06
0.000131415 0.000267746 1.96952e-06
1.97588e-06 1.96952e-06 6.26181e-05
0.00137942 -1.67714e-05 -1.36527e-07
-1.67714e-05 0.000818855 3.16344e-06
-1.36527e-07 3.16344e-06 0.000567223
0.000187244 6.65038e-05 3.82916e-06
6.65038e-05 0.000105777 -4.28709e-06
3.82916e-06 -4.28709e-06 -0.000132003
6.67748e-06 0.000127901 -2.48261e-08
0.000127901 0.000289266 3.5574e-06
-2.48261e-08 3.5574e-06 -0.000105399
0.000505508 -2.13472e-05 2.58397e-06
-2.13472e-05 0.000226718 1.16514e-06
2.58397e-06 1.16514e-06 2.84851e-06
0.000285825 -3.86324e-06 -2.33747e-07
-3.86324e-06 0.000285264 -3.85272e-06
-2.33747e-07 -3.85272e-06 -2.70662e-05
1.77587e-05 5.49736e-05 -7.68548e-07
5.49736e-05 0.000485097 5.30286e-07
-7.68548e-07 5.30286e-07 -8.90751e-05
-0.000245714 0.000110036 -8.87945e-07
0.000110036 0.000441972 2.04574e-06
-8.87945e-07 2.04574e-06 -0.000185126
0.000555741 -6.62442e-05 4.03481e-06
-6.62442e-05 0.000789951 -1.10212e-05
4.03481e-06 -1.10212e-05 0.00026624
0.000837589 1.75201e-06 -1.37919e-05
1.75201e-06 0.000627578 2.87155e-06
-1.37919e-05 2.87155e-06 0.000330676
0.0015685 -0.000234815 4.49342e-06
-0.000234815 0.000948391 4.20033e-06
4.49342e-06 4.20033e-06 0.000745652
-0.000339997 -0.000450235 -5.07295e-06
-0.000450235 -0.000473734 -5.90541e-06
-5.07295e-06 -5.90541e-06 -0.000589004
-0.000657722 -4.91763e-05 2.60166e-05
-4.91763e-05 -0.000352623 3.3983e-06
2.60166e-05 3.3983e-06 -0.000466194
-0.000100703 1.41394e-06 3.23399e-06
1.41394e-06 4.4463e-05 3.69838e-06
3.23399e-06 3.69838e-06 -0.000208937
0.000538882 -0.000156792 -2.88124e-06
-0.000156792 0.000168709 4.40589e-06
-2.88124e-06 4.40589e-06 1.67867e-05
-0.000473424 -0.000225707 -1.12313e-05
-0.000225707 -0.000349898 -4.66882e-06
-1.12313e-05 -4.66882e-06 -0.00046906
0.00326309 -0.000291177 9.857e-06
-0.000291177 0.00186552 9.5887e-06
9.857e-06 9.5887e-06 0.00159931
0.0012115 -0.000150257 4.5144e-06
-0.000150257 0.000998717 8.50953e-06
4.5144e-06 8.50953e-06 0.000681301
0.00168643 -0.000596256 -1.21207e-05
-0.000596256 0.000816869 7.58263e-06
-1.21207e-05 7.58263e-06 0.000399845
0.00125018 -0.000172586 -1.94006e-05
-0.000172586 0.000522037 1.86941e-06
-1.94006e-05 1.86941e-06 0.000272985
0.00109048 -0.000454334 1.61387e-05
-0.000454334 0.000331636 5.53849e-07
1.61387e-05 5.53849e-07 2.31788e-05
0.00210873 -0.000918466 -1.43572e-05
-0.000918466 0.00092037 1.84882e-05
-1.43572e-05 1.84882e-05 0.000352082
0.0024106 -0.000350419 1.72348e-05
-0.000350419 0.00114396 -7.55914e-06
1.72348e-05 -7.55914e-06 0.00089324
0.00247611 -0.000596847 2.50579e-07
-0.000596847 0.00121473 -8.18607e-06
2.50579e-07 -8.18607e-06 0.000877624
0.000352217 -0.000279356 9.96388e-07
-0.000279356 0.000139164 -1.94488e-06
9.96388e-07 -1.94488e-06 -0.000177717
-0.00233992 -0.000212871 5.20666e-06
-0.000212871 -0.00149323 -8.59421e-06
5.20666e-06 -8.59421e-06 -0.00189507
0.00206994 -3.86889e-06 1.81824e-06
-3.86889e-06 0.00131842 -5.52426e-07
1.81824e-06 -5.52426e-07 0.00101231
0.000625683 -0.000309384 5.37156e-06
-0.000309384 0.00029746 -1.81408e-06
5.37156e-06 -1.81408e-06 6.34475e-06
0.000675534 -0.000120421 1.27214e-05
-0.000120421 0.000255037 3.81912e-06
1.27214e-05 3.81912e-06 1.57654e-05
0.00197164 -0.000483498 -9.15659e-06
-0.000483498 0.0012065 6.08779e-06
-9.15659e-06 6.08779e-06 0.000946797
0.000241479 -0.000177816 -1.80048e-07
-0.000177816 4.75813e-05 -5.35816e-07
-1.80048e-07 -5.35816e-07 -0.000186029
3.49752e-05 -3.8021e-05 5.15592e-06
-3.8021e-05 -0.000195339 5.41628e-06
5.15592e-06 5.41628e-06 -0.000329966
0.00125686 -0.000225708 -2.83336e-06
-0.000225708 0.000698802 4.89381e-06
-2.83336e-06 4.89381e-06 0.000490883
0.000661788 -0.000100615 4.61761e-08
-0.000100615 0.000210371 4.22356e-07
4.61761e-08 4.22356e-07 9.76873e-05
0.00146439 -3.41726e-06 -1.66919e-05
-3.41726e-06 0.000685555 8.64002e-06
-1.66919e-05 8.64002e-06 0.000652221
0.000431878 -9.7772e-05 -6.36451e-08
-9.7772e-05 5.60231e-05 -2.08196e-06
-6.36451e-08 -2.08196e-06 -4.61466e-05
0.000804796 -1.89036e-05 -1.55462e-05
-1.89036e-05 0.000255775 7.81768e-07
-1.55462e-05 7.81768e-07 0.000225464
0.000762751 1.75313e-05 3.13223e-06
1.75313e-05 0.00020544 3.13241e-06
3.13223e-06 3.13241e-06 0.000206536
0.000379877 -5.52352e-05 4.74219e-06
-5.52352e-05 -2.13322e-05 -5.36205e-06
4.74219e-06 -5.36205e-06 -5.22069e-05
0.00159511 1.17588e-05 1.78325e-05
1.17588e-05 0.000758166 -1.83654e-06
1.78325e-05 -1.83654e-06 0.000766852
0.00253176 -1.70758e-06 2.52242e-05
-1.70758e-06 0.00137857 -5.37138e-06
2.52242e-05 -5.37138e-06 0.00139094
0.000276457 9.99327e-05 1.03764e-06
9.99327e-05 -5.20825e-05 -6.09832e-06
1.03764e-06 -6.09832e-06 -0.000198271
0.000529196 8.64804e-05 1.53325e-07
8.64804e-05 0.00011187 -7.37999e-06
1.53325e-07 -7.37999e-06 2.20706e-05
0.000491634 2.34409e-05 9.05801e-07
2.34409e-05 0.000119841 6.10416e-07
9.05801e-07 6.10416e-07 -2.72322e-05
0.000376188 1.26403e-05 3.11773e-06
1.26403e-05 -4.24364e-05 -6.12217e-06
3.11773e-06 -6.12217e-06 -6.4049e-05
0.000415502 7.05396e-05 4.20094e-07
7.05396e-05 3.03762e-05 1.85222e-08
4.20094e-07 1.85222e-08 -4.73305e-05
0.000341424 -0.000119995 -3.44555e-06
-0.000119995 1.37919e-05 6.46805e-06
-3.44555e-06 6.46805e-06 -0.000120494
0.00228404 1.6283e-05 -1.1979e-05
1.6283e-05 0.00121274 -6.176e-06
-1.1979e-05 -6.176e-06 0.001226
0.000381758 1.04815e-05 -4.9536e-07
1.04815e-05 -3.71821e-05 -4.11438e-10
-4.9536e-07 -4.11438e-10 -5.79848e-05
0.00050207 -6.9449e-07 -2.65699e-06
-6.9449e-07 7.37544e-05 5.01275e-06
-2.65699e-06 5.01275e-06 5.83134e-06
0.000410775 -6.55649e-06 -3.16729e-06
-6.55649e-06 -1.87805e-05 5.59461e-06
-3.16729e-06 5.59461e-06 -4.16756e-05
0.00236436 3.39249e-05 -6.71722e-06
3.39249e-05 0.00126816 -1.902e-07
-6.71722e-06 -1.902e-07 0.0012793
0.00252094 5.405e-05 2.54934e-06
5.405e-05 0.00137498 6.8125e-06
2.54934e-06 6.8125e-06 0.00138253
0.0016686 -0.0014976 -0.000473697
-0.0014976 0.0114811 7.22142e-05
-0.000473697 7.22142e-05 0.0046947
0.00717876 0.00531195 -0.00053859
0.00531195 0.00497499 0.000179634
-0.00053859 0.000179634 -0.00238432
0.00552451 -0.00210484 -0.000561998
-0.00210484 0.00219159 0.00034752
-0.000561998 0.00034752 -0.00329702
0.011416 0.00621417 0.00170627
0.00621417 0.0138179 -0.000114425
0.00170627 -0.000114425 0.00294225
0.00509162 0.000994835 4.14115e-05
0.000994835 -0.00169649 4.87008e-06
4.14115e-05 4.87008e-06 0.000801473
0.00315644 -0.000914781 0.000122627
-0.000914781 -0.00116515 9.69096e-06
0.000122627 9.69096e-06 -0.000276267
0.00306929 -0.000905789 0.000626443
-0.000905789 -0.0104975 -2.48071e-05
0.000626443 -2.48071e-05 -0.00863139
0.0240916 0.00772993 -0.00245907
0.00772993 0.0144307 -0.000229006
-0.00245907 -0.000229006 0.0059783
0.0311208 0.0239847 -0.00289865
0.0239847 0.021742 0.00177278
-0.00289865 0.00177278 0.00624315
0.00566879 -0.00161719 8.63539e-05
-0.00161719 -0.00237584 -2.18785e-06
8.63539e-05 -2.18785e-06 0.000262743
0.00811427 -0.00604278 0.000355047
-0.00604278 -0.00738251 -0.000232779
0.000355047 -0.000232779 -0.00602855
0.0310874 0.00991693 -0.000608027
0.00991693 0.0147911 -0.000325427
-0.000608027 -0.000325427 0.00368585
0.0258154 0.00625542 0.000446421
0.00625542 0.0119617 0.000586248
0.000446421 0.000586248 0.00417228
0.00275316 -0.00375626 -0.000110403
-0.00375626 -0.00471979 0.000113797
-0.000110403 0.000113797 -0.00123468
0.00206898 -0.00904832 0.00110226
-0.00904832 -0.00370055 -0.000298831
0.00110226 -0.000298831 -0.00437078
0.0176876 0.00453122 -0.000626744
0.00453122 0.00888431 -0.00133399
-0.000626744 -0.00133399 -0.00147334
0.01184 -0.0012341 -0.000420563
-0.0012341 0.00145755 5.83619e-05
-0.000420563 5.83619e-05 -0.000723918
0.00164902 -3.77069e-05 3.80984e-07
-3.77069e-05 0.00101285 1.30519e-05
3.80984e-07 1.30519e-05 0.000705791
0.000146638 2.54395e-05 -5.03839e-07
2.54395e-05 -2.40515e-05 -8.43412e-07
-5.03839e-07 -8.43412e-07 -0.000201836
0.00065694 0.000139771 1.49452e-06
0.000139771 0.000234708 2.07412e-06
1.49452e-06 2.07412e-06 9.04932e-05
-0.000451594 -0.000117115 -9.29212e-06
-0.000117115 -0.000487068 -1.60983e-06
-9.29212e-06 -1.60983e-06 -0.000520505
0.000162969 0.000159903 4.56903e-06
0.000159903 -8.68456e-05 1.51073e-05
4.56903e-06 1.51073e-05 -0.000297082
0.000512425 9.91993e-05 -7.325e-07
9.91993e-05 0.000199509 -8.91007e-07
-7.325e-07 -8.91007e-07 -1.48432e-05
-0.000163793 -3.57232e-05 -5.08335e-08
-3.57232e-05 -0.000258067 2.72519e-06
-5.08335e-08 2.72519e-06 -0.000410408
0.000784608 0.0001829 8.5986e-06
0.0001829 0.000358425 7.86794e-06
8.5986e-06 7.86794e-06 0.000116821
0.00094262 0.000214194 -3.73413e-07
0.000214194 0.000470296 -1.56682e-06
-3.73413e-07 -1.56682e-06 0.000227718
0.000408602 5.13396e-05 -3.85774e-06
5.13396e-05 9.66739e-05 2.62934e-06
-3.85774e-06 2.62934e-06 -9.22033e-05
0.00167517 -0.00105235 0.000141333
-0.00105235 -0.00148826 -8.44422e-05
0.000141333 -8.44422e-05 -0.000660472
0.00095474 -0.00114376 2.80984e-06
-0.00114376 -0.000637018 -1.54091e-05
2.80984e-06 -1.54091e-05 -0.000749046
0.00200739 -0.00150657 9.36535e-06
-0.00150657 0.000253652 5.74401e-06
9.36535e-06 5.74401e-06 -0.000253539
-0.000759225 -0.000941263 8.87117e-06
-0.000941263 -0.000846882 -8.44633e-06
8.87117e-06 -8.44633e-06 -0.00116545
0.00347478 -0.000762417 -7.56e-05
-0.000762417 0.00242936 7.28556e-05
-7.56e-05 7.28556e-05 0.00190253
0.00109722 -0.000337536 -3.38195e-07
-0.000337536 0.00090124 -1.59724e-05
-3.38195e-07 -1.59724e-05 0.000477902
0.000966597 3.88735e-05 1.92913e-06
3.88735e-05 0.00068733 -8.94113e-06
1.92913e-06 -8.94113e-06 0.000332073
0.000803826 3.79253e-05 -6.67157e-06
3.79253e-05 0.000505485 4.99815e-07
-6.67157e-06 4.99815e-07 0.000196785
0.0033374 -0.00196996 -3.28198e-05
-0.00196996 -0.000221062 3.93966e-06
-3.28198e-05 3.93966e-06 0.000176802
0.000900739 -9.06597e-05 -1.32423e-06
-9.06597e-05 0.000729885 5.43148e-06
-1.32423e-06 5.43148e-06 0.000324037
0.00134037 -0.000359119 1.17554e-05
-0.000359119 0.0010325 -7.22995e-06
1.17554e-05 -7.22995e-06 0.000613819
0.00141912 -0.00133575 1.66748e-05
-0.00133575 8.12933e-05 -2.32265e-06
1.66748e-05 -2.32265e-06 -0.000306591
0.00015194 -0.000634261 -9.27037e-06
-0.000634261 0.000209835 4.14975e-06
-9.27037e-06 4.14975e-06 -0.000170625
0.00270839 -0.00306096 3.74429e-05
-0.00306096 0.000449426 -4.31977e-06
3.74429e-05 -4.31977e-06 -0.000318862
0.000154828 -0.000903026 -7.55454e-06
-0.000903026 0.00030537 1.90387e-05
-7.55454e-06 1.90387e-05 -0.000147031
-0.00109668 -0.000191639 3.04527e-06
-0.000191639 -9.20712e-05 -1.23202e-06
3.04527e-06 -1.23202e-06 -0.000721458
0.000550943 0.000139114 8.10918e-06
0.000139114 0.000410388 -1.86362e-06
8.10918e-06 -1.86362e-06 0.000177276
-0.000602159 -0.00018427 -1.09483e-05
-0.00018427 -8.51686e-05 3.18726e-05
-1.09483e-05 3.18726e-05 -0.000535772
0.00291669 0.000399015 -0.000197981
0.000399015 0.00270718 -7.20412e-05
-0.000197981 -7.20412e-05 -0.00272034
-0.00716455 0.000343555 -0.000969583
0.000343555 0.00772694 1.59809e-05
-0.000969583 1.59809e-05 0.00131233
-0.0100671 -0.00456765 -0.00181311
-0.00456765 -0.000497353 4.98249e-05
-0.00181311 4.98249e-05 -0.00649318
6.61776e-05 0.000553396 1.70941e-05
0.000553396 0.000105607 -5.93215e-06
1.70941e-05 -5.93215e-06 -0.000359074
0.00107554 0.00118452 6.64291e-06
0.00118452 0.000509042 1.28198e-05
6.64291e-06 1.28198e-05 -0.000198676
0.00410324 0.00224596 7.48108e-05
0.00224596 0.00130815 7.23761e-05
7.48108e-05 7.23761e-05 0.000711234
-0.000279395 0.000816727 0.000223882
0.000816727 0.01178 8.80858e-05
0.000223882 8.80858e-05 0.00410195
0.00259642 0.00934965 -0.00103847
0.00934965 -0.00438472 -0.000226569
-0.00103847 -0.000226569 -0.00455448
0.000623813 0.00465227 0.000589072
0.00465227 -0.000709413 0.000288971
0.000589072 0.000288971 -0.000291186
1.82294e-05 0.00188598 -9.2624e-06
0.00188598 0.000248073 -5.47319e-05
-9.2624e-06 -5.47319e-05 -0.000104512
0.0341957 -0.00664087 0.000260353
-0.00664087 0.0155659 -0.00071072
0.000260353 -0.00071072 0.00574376
0.0104607 0.00510968 0.00141824
0.00510968 0.00442232 0.000411256
0.00141824 0.000411256 -0.00334303
0.0145905 -0.00093519 8.68973e-05
-0.00093519 0.00360551 9.04711e-05
8.68973e-05 9.04711e-05 0.00374822
0.00198198 0.00116098 9.28675e-06
0.00116098 0.0011833 -6.50631e-07
9.28675e-06 -6.50631e-07 0.000565806
0.00416277 0.00222209 -0.000146766
0.00222209 0.0053988 -3.27383e-05
-0.000146766 -3.27383e-05 -0.00100291
0.00374578 0.00126641 0.000187279
0.00126641 0.00197786 -2.48084e-05
0.000187279 -2.48084e-05 -0.00132544
0.000182337 0.00123882 -2.45552e-05
0.00123882 0.000459595 -9.93575e-06
-2.45552e-05 -9.93575e-06 -0.000277194
-0.00129841 0.00302006 -0.000176337
0.00302006 0.000413001 -0.000125317
-0.000176337 -0.000125317 -0.00116081
0.00309492 0.00984964 0.000584768
0.00984964 0.00220909 0.000206064
0.000584768 0.000206064 -0.00309302
0.0145781 -0.000822084 2.44142e-05
-0.000822084 -0.00189274 -0.000218456
2.44142e-05 -0.000218456 -0.00129098
0.0107837 -0.00375094 -0.000159475
-0.00375094 0.0067792 -0.000272713
-0.000159475 -0.000272713 -0.00199568
0.00143627 0.000974781 -2.1468e-06
0.000974781 0.00131798 -1.67983e-05
-2.1468e-06 -1.67983e-05 0.000581772
-0.00376384 0.00126692 0.000111343
0.00126692 0.00258554 0.00010134
0.000111343 0.00010134 -0.00126833
0.00910256 -0.00164633 0.000467587
-0.00164633 0.00090333 -4.99049e-05
0.000467587 -4.99049e-05 -0.00181346
0.0119293 -0.00127709 0.000404496
-0.00127709 0.00137812 -3.20292e-05
0.000404496 -3.20292e-05 -0.000559397
-0.00322964 0.000735134 7.63502e-05
0.000735134 0.000613319 -6.29675e-06
7.63502e-05 -6.29675e-06 -0.000807268
0.00713086 0.00485432 0.000514676
0.00485432 0.00636558 0.00027944
0.000514676 0.00027944 -0.00147028
0.0115027 -0.000753877 -4.28984e-05
-0.000753877 0.00378719 0.000455035
-4.28984e-05 0.000455035 -0.00109859
0.00217794 0.000555862 1.81197e-05
0.000555862 0.00154227 1.47277e-05
1.81197e-05 1.47277e-05 0.00111644
0.000344513 0.000431801 -8.46013e-06
0.000431801 0.000568643 -3.29033e-06
-8.46013e-06 -3.29033e-06 -6.79584e-06
4.31508e-05 0.000330952 5.0842e-06
0.000330952 0.000614826 -1.05354e-05
5.0842e-06 -1.05354e-05 -0.000165017
0.000184412 0.000114012 7.79456e-06
0.000114012 1.90181e-05 2.07176e-06
7.79456e-06 2.07176e-06 -0.00020473
0.000286218 5.34531e-05 4.15926e-06
5.34531e-05 0.000256882 -4.02453e-06
4.15926e-06 -4.02453e-06 -3.10593e-05
3.42036e-05 4.44797e-05 1.6698e-06
4.44797e-05 0.000563004 3.66638e-06
1.6698e-06 3.66638e-06 -5.0448e-05
-0.000148316 -2.99357e-05 -1.2107e-06
-2.99357e-05 -7.21376e-06 1.46926e-07
-1.2107e-06 1.46926e-07 -0.000298389
0.000139135 -5.50418e-05 -1.2437e-06
-5.50418e-05 0.00056561 -1.57633e-06
-1.2437e-06 -1.57633e-06 2.25377e-05
-0.000321732 3.71176e-05 2.61244e-06
3.71176e-05 0.00046786 1.11658e-06
2.61244e-06 1.11658e-06 -0.000193688
0.000558595 -0.000140357 -1.33358e-05
-0.000140357 0.000882781 1.25958e-05
-1.33358e-05 1.25958e-05 0.000367502
0.000157295 -3.21281e-05 2.73585e-06
-3.21281e-05 0.000459089 -9.9894e-06
2.73585e-06 -9.9894e-06 4.42041e-05
-0.000389503 -8.17559e-06 1.48972e-05
-8.17559e-06 -0.000155115 -2.95599e-06
1.48972e-05 -2.95599e-06 -0.0003909
0.00130678 -0.000151632 -5.88188e-06
-0.000151632 0.000619337 2.38073e-06
-5.88188e-06 2.38073e-06 0.00048605
-0.00290605 -8.97637e-05 1.07111e-06
-8.97637e-05 -0.00181345 -1.65009e-05
1.07111e-06 -1.65009e-05 -0.0019581
0.000885998 -0.000127696 -5.37621e-07
-0.000127696 0.000774495 6.12012e-06
-5.37621e-07 6.12012e-06 0.000468796
-0.000253733 -7.57787e-05 -1.24548e-05
-7.57787e-05 -0.000190085 2.12149e-06
-1.24548e-05 2.12149e-06 -0.000548816
0.00314817 -0.000747527 2.86213e-06
-0.000747527 0.00180943 1.37887e-05
2.86213e-06 1.37887e-05 0.00142286
0.00101077 -0.000409723 7.77634e-06
-0.000409723 0.000463954 -2.49219e-06
7.77634e-06 -2.49219e-06 0.000196589
0.000281654 -0.000482277 7.68512e-06
-0.000482277 -9.14474e-05 1.30554e-05
7.68512e-06 1.30554e-05 -0.000491508
0.00035772 -0.000182947 -1.29976e-06
-0.000182947 -4.5567e-05 -1.26843e-06
-1.29976e-06 -1.26843e-06 -0.000263187
0.00123786 -0.000483673 -6.71278e-06
-0.000483673 0.000435261 6.09247e-06
-6.71278e-06 6.09247e-06 0.000114066
0.00246377 -0.000980141 -1.35539e-05
-0.000980141 0.00109937 1.30096e-05
-1.35539e-05 1.30096e-05 0.000487653
0.00192591 -0.00104561 -4.91296e-06
-0.00104561 0.000673697 -1.01359e-07
-4.91296e-06 -1.01359e-07 7.59922e-06
0.00107705 -0.000490544 4.16999e-06
-0.000490544 0.000234521 1.36233e-06
4.16999e-06 1.36233e-06 -0.000101145
0.00135202 -0.000789342 5.73915e-06
-0.000789342 0.000464944 -1.78316e-06
5.73915e-06 -1.78316e-06 -6.02477e-05
0.00189116 -0.000335331 2.45003e-06
-0.000335331 0.00106186 -9.38071e-06
2.45003e-06 -9.38071e-06 0.000672603
0.00102097 -0.000284189 -5.44889e-06
-0.000284189 0.00032322 2.52191e-06
-5.44889e-06 2.52191e-06 4.83988e-05
0.000231411 -0.000383277 1.57011e-05
-0.000383277 -0.000171669 -1.24505e-05
1.57011e-05 -1.24505e-05 -0.000447164
0.00246966 -0.000284319 -4.42212e-06
-0.000284319 0.00143958 3.14815e-06
-4.42212e-06 3.14815e-06 0.00112672
-0.000507198 -0.000314717 1.26873e-06
-0.000314717 -0.000376695 -5.60372e-07
1.26873e-06 -5.60372e-07 -0.000760591
-0.00024349 -5.78728e-05 1.04479e-05
-5.78728e-05 -0.000313743 5.95165e-06
1.04479e-05 5.95165e-06 -0.000641887
0.00255183 -0.000720009 -8.28381e-06
-0.000720009 0.00147335 7.89524e-06
-8.28381e-06 7.89524e-06 0.0011899
0.00117505 -0.000299066 -4.91479e-07
-0.000299066 0.000584285 -7.01467e-07
-4.91479e-07 -7.01467e-07 0.000328114
5.21069e-05 -9.64404e-05 9.16274e-06
-9.64404e-05 -0.000197582 1.1357e-05
9.16274e-06 1.1357e-05 -0.000370661
0.000824652 -0.000247413 -7.12592e-06
-0.000247413 0.000416369 -4.03597e-06
-7.12592e-06 -4.03597e-06 0.000193811
0.000452074 -3.62166e-05 -3.39552e-06
-3.62166e-05 8.56873e-05 -8.51731e-07
-3.39552e-06 -8.51731e-07 -6.0607e-05
0.00151981 -4.19854e-05 -2.75142e-05
-4.19854e-05 0.000719891 7.2762e-06
-2.75142e-05 7.2762e-06 0.000682839
0.000604737 -0.000101269 -1.3045e-06
-0.000101269 0.000167872 -2.54072e-06
-1.3045e-06 -2.54072e-06 5.33524e-05
0.000873948 -3.36279e-05 -1.43359e-05
-3.36279e-05 0.000295936 9.1656e-07
-1.43359e-05 9.1656e-07 0.000260099
0.00076583 2.63909e-05 2.67962e-06
2.63909e-05 0.00020232 3.16613e-06
2.67962e-06 3.16613e-06 0.000196933
0.000422884 -4.79538e-05 3.32572e-06
-4.79538e-05 3.99931e-06 -6.38913e-06
3.32572e-06 -6.38913e-06 -2.9686e-05
0.0017347 2.41941e-05 2.08438e-05
2.41941e-05 0.000847015 -1.33693e-06
2.08438e-05 -1.33693e-06 0.000854674
0.00242332 9.68907e-06 2.87974e-05
9.68907e-06 0.00130259 -5.51341e-06
2.87974e-05 -5.51341e-06 0.00131662
0.000119218 3.97472e-05 6.72045e-07
3.97472e-05 -0.000125907 1.40288e-06
6.72045e-07 1.40288e-06 -0.00032463
-3.94011e-05 2.84516e-05 4.96095e-07
2.84516e-05 -0.000277102 -9.33836e-06
4.96095e-07 -9.33836e-06 -0.000375539
0.00058421 7.96552e-05 -1.5689e-07
7.96552e-05 0.000175608 1.04406e-06
-1.5689e-07 1.04406e-06 8.12429e-06
0.000383937 1.57337e-05 3.2213e-06
1.57337e-05 -3.74229e-05 -6.67338e-06
3.2213e-06 -6.67338e-06 -6.23514e-05
0.000274833 4.89982e-06 1.58821e-06
4.89982e-06 -7.27246e-05 4.79724e-08
1.58821e-06 4.79724e-08 -0.000155806
0.000245927 -0.000122698 1.03017e-07
-0.000122698 -4.05662e-05 7.46619e-06
1.03017e-07 7.46619e-06 -0.000193308
0.00232376 5.73041e-07 -1.61352e-05
5.73041e-07 0.00123799 -6.3358e-06
-1.61352e-05 -6.3358e-06 0.00125135
0.000376847 1.19681e-05 9.03034e-07
1.19681e-05 -4.16258e-05 -6.00469e-08
9.03034e-07 -6.00469e-08 -6.32666e-05
0.00037658 -1.62046e-05 -5.83256e-06
-1.62046e-05 -3.16477e-06 6.06116e-06
-5.83256e-06 6.06116e-06 -7.65717e-05
0.00231004 1.72575e-05 -5.81561e-06
1.72575e-05 0.00123047 -2.73743e-08
-5.81561e-06 -2.73743e-08 0.00124338
0.000383401 1.35834e-06 -3.49284e-06
1.35834e-06 -3.56001e-05 5.47421e-06
-3.49284e-06 5.47421e-06 -5.65067e-05
0.00237768 3.55988e-05 8.16245e-06
3.55988e-05 0.0012774 6.72778e-06
8.16245e-06 6.72778e-06 0.00128803
-0.0013546 -0.00238604 -0.000384265
-0.00238604 -5.83069e-05 0.000155721
-0.000384265 0.000155721 -0.00525283
0.00672124 0.00384686 -0.000405902
0.00384686 0.0141029 8.55924e-05
-0.000405902 8.55924e-05 0.00493551
0.00860714 0.00222558 -0.00208474
0.00222558 0.0070065 0.000358287
-0.00208474 0.000358287 0.00319314
0.000557419 0.000122246 9.86186e-06
0.000122246 0.000215203 2.90009e-06
9.86186e-06 2.90009e-06 -1.74614e-05
0.00810912 -0.00196265 -0.000256654
-0.00196265 0.00573273 0.00037996
-0.000256654 0.00037996 0.00188647
0.00499703 -0.00192829 -0.000314094
-0.00192829 0.00288696 3.65105e-05
-0.000314094 3.65105e-05 -0.0028464
0.0260081 0.0126368 6.38595e-05
0.0126368 0.0164643 -0.000708049
6.38595e-05 -0.000708049 0.00328169
0.00711916 -0.00248603 0.00020485
-0.00248603 -0.00202226 -3.36902e-05
0.00020485 -3.36902e-05 0.00028666
0.0132652 -0.00535137 0.000429952
-0.00535137 -0.00326254 -0.00034111
0.000429952 -0.00034111 -0.000888067
0.0221719 0.00780395 -0.00125389
0.00780395 0.00945654 0.000210999
-0.00125389 0.000210999 -0.000765398
0.0190777 0.00563662 0.000533508
0.00563662 0.013242 0.000365735
0.000533508 0.000365735 0.00742218
0.00757086 -0.00460407 -9.63384e-05
-0.00460407 -0.00177312 -1.22252e-06
-9.63384e-05 -1.22252e-06 0.000625283
0.0111637 -0.00940523 2.40558e-05
-0.00940523 -0.000394606 -8.00967e-05
2.40558e-05 -8.00967e-05 -0.00157033
0.0151696 0.0023462 8.44407e-05
0.0023462 0.0108815 -0.000561826
8.44407e-05 -0.000561826 0.00143219
0.0179114 0.00140781 -3.41434e-05
0.00140781 0.00397101 9.40883e-05
-3.41434e-05 9.40883e-05 0.000137061
0.00476319 -0.005838 9.05322e-06
-0.005838 0.000572513 4.71542e-05
9.05322e-06 4.71542e-05 0.00155123
0.00893348 -0.00868258 0.000419269
-0.00868258 0.00461877 -0.000249581
0.000419269 -0.000249581 0.000434105
0.00797022 0.000686344 -0.000116565
0.000686344 0.007333 -0.000521414
-0.000116565 -0.000521414 0.00102025
0.0177344 -0.000849554 -0.00029571
-0.000849554 0.00106574 0.000344978
-0.00029571 0.000344978 0.000662039
0.000358173 0.000256739 2.01551e-05
0.000256739 0.000161804 1.94111e-05
2.01551e-05 1.94111e-05 -6.30622e-05
0.000447521 -9.8387e-05 -5.94628e-07
-9.8387e-05 0.000223669 -2.44079e-06
-5.94628e-07 -2.44079e-06 -4.24059e-05
-0.000370207 -2.04067e-05 3.31864e-06
-2.04067e-05 -0.000399144 1.74347e-06
3.31864e-06 1.74347e-06 -0.000542965
0.000720834 0.00024352 1.44699e-05
0.00024352 0.000249806 2.38464e-05
1.44699e-05 2.38464e-05 5.72099e-05
0.00107689 0.000282308 -3.11849e-06
0.000282308 0.000566954 -3.84369e-06
-3.11849e-06 -3.84369e-06 0.00030711
0.000631198 0.000125131 7.61901e-07
0.000125131 0.000284251 1.03884e-06
7.61901e-07 1.03884e-06 6.86839e-05
0.00140358 0.000247434 -1.71961e-06
0.000247434 0.000794807 4.61814e-08
-1.71961e-06 4.61814e-08 0.000528657
0.00109313 0.000236152 1.16738e-06
0.000236152 0.000583676 6.31614e-06
1.16738e-06 6.31614e-06 0.000325376
0.0024849 -0.00175505 0.000176626
-0.00175505 -0.000756132 -0.000112925
0.000176626 -0.000112925 -9.38616e-05
-0.000410452 -0.00110124 -6.09331e-06
-0.00110124 -0.000968296 -2.11006e-05
-6.09331e-06 -2.11006e-05 -0.00125052
-0.000891004 4.26392e-05 -7.11925e-06
4.26392e-05 -0.000639783 -1.2307e-05
-7.11925e-06 -1.2307e-05 -0.000863922
0.000163355 -0.000664271 1.91103e-05
-0.000664271 8.93836e-05 -1.42717e-05
1.91103e-05 -1.42717e-05 -0.000217911
0.00259772 -0.000527785 -3.20492e-05
-0.000527785 0.00173944 1.02884e-05
-3.20492e-05 1.02884e-05 0.0013254
0.00112012 -0.000135117 1.69129e-05
-0.000135117 0.000853042 -2.98401e-05
1.69129e-05 -2.98401e-05 0.000415192
-0.000663292 0.000179945 2.37618e-06
0.000179945 -0.000366673 1.69021e-05
2.37618e-06 1.69021e-05 -0.000630167
0.00182224 -0.0027987 -1.72659e-05
-0.0027987 2.18461e-05 -3.65745e-06
-1.72659e-05 -3.65745e-06 -0.000623534
0.00110245 -0.000241309 -6.03721e-06
-0.000241309 0.000954585 3.40598e-06
-6.03721e-06 3.40598e-06 0.000492153
-0.000494259 -0.000209138 -2.24935e-06
-0.000209138 8.98519e-05 8.27262e-06
-2.24935e-06 8.27262e-06 -0.000441376
-0.000656626 -0.000800949 6.08908e-06
-0.000800949 -0.000325977 1.58816e-06
6.08908e-06 1.58816e-06 -0.000631377
-0.00090101 -2.68823e-05 1.5746e-05
-2.68823e-05 -0.000448159 -5.33929e-06
1.5746e-05 -5.33929e-06 -0.000716533
0.00271318 -0.00291693 -0.000107254
-0.00291693 0.00216395 -9.41814e-06
-0.000107254 -9.41814e-06 0.000761581
-0.00067359 -0.000731052 1.14861e-05
-0.000731052 5.49166e-05 -4.67115e-06
1.14861e-05 -4.67115e-06 -0.000541566
6.41918e-05 8.48041e-06 1.58671e-05
8.48041e-06 0.000597922 -6.19044e-06
1.58671e-05 -6.19044e-06 -8.28667e-05
1.87966e-05 -8.80152e-06 7.38759e-06
-8.80152e-06 0.000606275 2.32909e-05
7.38759e-06 2.32909e-05 -0.000131755
0.000730586 -0.000135212 0.000376297
-0.000135212 0.00584847 9.36833e-05
0.000376297 9.36833e-05 0.00170429
-0.000296276 0.000103257 0.000221558
0.000103257 0.00138377 -1.88116e-05
0.000221558 -1.88116e-05 -0.00434357
-0.013874 -0.000700214 -0.000980829
-0.000700214 0.00615735 2.38825e-05
-0.000980829 2.38825e-05 0.000871631
0.00211205 0.0011168 2.39075e-05
0.0011168 0.00130726 6.77936e-06
2.39075e-05 6.77936e-06 0.000728063
-0.00045318 0.00150049 2.73627e-05
0.00150049 0.000144337 1.67142e-05
2.73627e-05 1.67142e-05 -0.000775929
0.00576248 0.00281787 0.000824484
0.00281787 0.00545863 0.000209161
0.000824484 0.000209161 -0.000160368
0.0040345 0.00626674 0.00023919
0.00626674 0.00349258 0.000259316
0.00023919 0.000259316 -0.000535714
0.00126638 0.00453446 -0.000252508
0.00453446 0.00164885 -0.000228801
-0.000252508 -0.000228801 -0.000621833
0.00724834 -0.00188947 -0.000135205
-0.00188947 0.00693086 -0.00054378
-0.000135205 -0.00054378 0.000376369
0.00447937 0.000534298 8.12458e-05
0.000534298 0.0025485 0.000116843
8.12458e-05 0.000116843 -0.000629175
0.0111835 -0.000142466 -3.88839e-05
-0.000142466 -0.00382546 -0.000291847
-3.88839e-05 -0.000291847 -0.00348136
0.000695042 0.00104392 5.13106e-06
0.00104392 0.000820514 -8.54899e-07
5.13106e-06 -8.54899e-07 1.73906e-05
-0.0024224 0.000807705 1.35966e-05
0.000807705 0.00295514 5.85035e-06
1.35966e-05 5.85035e-06 -0.0011045
0.00777053 -0.000632699 0.000291048
-0.000632699 0.000795811 8.17832e-06
0.000291048 8.17832e-06 -0.0020833
-0.00210959 0.00125895 -3.5443e-05
0.00125895 0.000295646 -1.83755e-05
-3.5443e-05 -1.83755e-05 -0.00107922
0.0188499 0.00177927 3.92985e-05
0.00177927 0.00392408 -0.000103983
3.92985e-05 -0.000103983 1.8296e-05
0.00411827 0.00340108 0.000422408
0.00340108 0.00643845 0.000275779
0.000422408 0.000275779 -0.00103106
0.0160866 0.000663313 -0.000225799
0.000663313 0.00601629 -2.77181e-05
-0.000225799 -2.77181e-05 0.00021012
0.000295022 0.000956447 -2.06166e-06
0.000956447 0.000833395 -1.77043e-05
-2.06166e-06 -1.77043e-05 -0.00016277
0.00462982 2.07464e-05 0.000109075
2.07464e-05 0.00321053 6.49999e-05
0.000109075 6.49999e-05 8.58436e-05
0.00386547 -0.00379708 0.000390506
-0.00379708 0.00481615 -0.000273756
0.000390506 -0.000273756 0.00156698
0.0366304 0.00812177 0.000626407
0.00812177 0.0162598 -0.00043301
0.000626407 -0.00043301 0.0072774
0.00957417 -4.3708e-05 -6.24439e-06
-4.3708e-05 0.00836258 0.000646927
-6.24439e-06 0.000646927 0.00183184
-0.00195298 0.00117915 -0.000213452
0.00117915 0.00127519 -0.000131825
-0.000213452 -0.000131825 -0.000258804
0.000923839 5.56425e-05 0.000173409
5.56425e-05 0.00573946 -2.33135e-05
0.000173409 -2.33135e-05 -0.00472881
0.000838605 0.000567678 4.48618e-06
0.000567678 0.000825792 1.60639e-05
4.48618e-06 1.60639e-05 0.000205914
0.0004812 0.00036874 5.54528e-06
0.00036874 0.000906874 5.27391e-06
5.54528e-06 5.27391e-06 0.000177425
0.000409884 -0.000165179 -7.49949e-06
-0.000165179 0.00131155 2.0827e-05
-7.49949e-06 2.0827e-05 0.000586401
-0.000689435 -2.53282e-05 1.47829e-05
-2.53282e-05 -0.000341005 -2.92836e-06
1.47829e-05 -2.92836e-06 -0.000637414
-1.66431e-05 -1.82147e-05 3.56625e-06
-1.82147e-05 0.000486734 9.8707e-06
3.56625e-06 9.8707e-06 -6.0783e-05
0.000187038 5.74865e-05 -4.06142e-06
5.74865e-05 0.000778215 -1.97152e-06
-4.06142e-06 -1.97152e-06 0.000107215
0.00017167 -2.98379e-05 3.68535e-07
-2.98379e-05 0.000414732 4.76298e-07
3.68535e-07 4.76298e-07 5.49573e-05
0.000297525 -9.78142e-05 1.31439e-06
-9.78142e-05 0.000748483 2.45104e-06
1.31439e-06 2.45104e-06 0.000216407
0.00414797 -0.000792972 2.1082e-05
-0.000792972 0.00267472 -1.05565e-05
2.1082e-05 -1.05565e-05 0.00227388
0.000424828 -9.59813e-05 -5.42948e-06
-9.59813e-05 0.000461974 -4.51515e-06
-5.42948e-06 -4.51515e-06 0.000174736
-0.0053499 6.60936e-05 4.98386e-06
6.60936e-05 -0.00323095 -8.26408e-06
4.98386e-06 -8.26408e-06 -0.00366362
0.00113356 -0.000560637 -1.64137e-06
-0.000560637 0.000690677 3.65301e-06
-1.64137e-06 3.65301e-06 0.000203718
-0.00298967 -0.000101369 2.41968e-05
-0.000101369 -0.00180846 1.39593e-05
2.41968e-05 1.39593e-05 -0.00221188
-0.000418274 -0.000198363 -6.84272e-06
-0.000198363 -0.000342094 5.57543e-08
-6.84272e-06 5.57543e-08 -0.000490844
0.000157966 -0.000520269 -1.32414e-05
-0.000520269 -0.000194322 -4.94222e-06
-1.32414e-05 -4.94222e-06 -0.000573765
0.00190867 -0.000996336 -4.91117e-06
-0.000996336 0.000756794 3.89788e-06
-4.91117e-06 3.89788e-06 1.08919e-05
0.00228921 -0.0012276 -1.56292e-05
-0.0012276 0.000819167 3.91101e-06
-1.56292e-05 3.91101e-06 5.84582e-05
0.00172604 -0.000555307 8.43844e-06
-0.000555307 0.000736803 -9.70627e-06
8.43844e-06 -9.70627e-06 0.000396294
0.00180442 -0.000891778 -2.44782e-06
-0.000891778 0.000694506 1.3258e-06
-2.44782e-06 1.3258e-06 9.98251e-05
0.00188601 -0.00109712 1.03983e-05
-0.00109712 0.000581585 -8.10654e-06
1.03983e-05 -8.10654e-06 -0.000103871
0.00158692 -0.000778864 7.13978e-06
-0.000778864 0.000573244 2.9401e-06
7.13978e-06 2.9401e-06 4.02457e-05
0.00170303 -0.00100981 4.80873e-06
-0.00100981 0.000554828 -4.89236e-06
4.80873e-06 -4.89236e-06 -9.92534e-05
0.00155536 -0.000320272 -4.60229e-06
-0.000320272 0.000606122 -6.36562e-06
-4.60229e-06 -6.36562e-06 0.000314684
0.000700019 -0.000466026 -5.70721e-07
-0.000466026 8.55228e-06 1.99651e-07
-5.70721e-07 1.99651e-07 -0.000344073
0.00118941 -0.000742 6.61178e-06
-0.000742 0.000388935 -9.10907e-06
6.61178e-06 -9.10907e-06 -0.000116261
-0.000353629 -0.000139703 5.59692e-06
-0.000139703 -0.000329005 1.97114e-06
5.59692e-06 1.97114e-06 -0.000731697
0.00040447 -0.000270198 1.65731e-07
-0.000270198 0.000160837 2.45476e-07
1.65731e-07 2.45476e-07 -0.000237108
-0.000780126 -0.000185639 3.83365e-06
-0.000185639 -0.000740934 -6.24402e-07
3.83365e-06 -6.24402e-07 -0.0010403
0.00158212 -0.000402109 -6.16007e-06
-0.000402109 0.000901831 1.10445e-05
-6.16007e-06 1.10445e-05 0.000538407
0.000915096 -0.000282616 1.90488e-06
-0.000282616 0.000424588 6.10033e-07
1.90488e-06 6.10033e-07 8.45161e-05
-0.000382087 -7.07477e-05 5.49011e-06
-7.07477e-05 -0.000467093 1.10458e-05
5.49011e-06 1.10458e-05 -0.000709298
0.000959167 -0.000500798 -1.28735e-05
-0.000500798 0.000481358 -3.85545e-06
-1.28735e-05 -3.85545e-06 0.000181372
0.000576833 -0.000102544 -9.05381e-07
-0.000102544 0.000134868 -2.50449e-08
-9.05381e-07 -2.50449e-08 -4.11927e-05
0.000302743 3.11839e-05 3.23105e-06
3.11839e-05 -7.61638e-05 1.24131e-05
3.23105e-06 1.24131e-05 -0.000136186
0.00140745 -0.000167297 -6.32986e-06
-0.000167297 0.000703517 -5.9926e-06
-6.32986e-06 -5.9926e-06 0.000548914
0.000438512 -4.67227e-05 -2.64076e-06
-4.67227e-05 1.89911e-06 7.9115e-08
-2.64076e-06 7.9115e-08 -4.28558e-05
0.00281221 9.63843e-05 3.71828e-06
9.63843e-05 0.00156244 3.62563e-06
3.71828e-06 3.62563e-06 0.00156203
0.000487702 -5.80171e-05 3.72827e-06
-5.80171e-05 4.01287e-05 -7.08168e-06
3.72827e-06 -7.08168e-06 -9.79514e-07
0.00179494 3.5843e-05 2.72822e-05
3.5843e-05 0.0008884 -1.50462e-06
2.72822e-05 -1.50462e-06 0.000891336
0.00276111 2.48771e-05 3.97869e-05
2.48771e-05 0.00152449 -6.52111e-06
3.97869e-05 -6.52111e-06 0.00153642
0.000154986 8.54233e-05 1.62134e-06
8.54233e-05 -0.000110637 1.74898e-06
1.62134e-06 1.74898e-06 -0.000305801
2.45668e-05 2.49308e-05 2.50548e-06
2.49308e-05 -0.000229506 -8.5782e-06
2.50548e-06 -8.5782e-06 -0.000355572
0.000312042 7.12639e-05 -1.34295e-07
7.12639e-05 8.79907e-06 1.22182e-07
-1.34295e-07 1.22182e-07 -0.000188363
0.000416211 1.41903e-05 4.00113e-06
1.41903e-05 -1.77661e-05 -7.65997e-06
4.00113e-06 -7.65997e-06 -4.74932e-05
-2.67893e-05 3.45195e-05 -1.00575e-06
3.45195e-05 -0.000267518 -2.66831e-06
-1.00575e-06 -2.66831e-06 -0.000369224
0.000686452 0.000107189 7.95467e-07
0.000107189 0.000272256 7.54831e-06
7.95467e-07 7.54831e-06 8.62412e-05
0.00243797 -1.51689e-05 -2.2117e-05
-1.51689e-05 0.00131335 -6.39215e-06
-2.2117e-05 -6.39215e-06 0.0013258
0.000389513 1.22048e-05 -8.63885e-07
1.22048e-05 -3.54115e-05 -1.54368e-07
-8.63885e-07 -1.54368e-07 -5.95764e-05
-0.000126849 1.73565e-05 2.98248e-07
1.73565e-05 -0.000337824 6.92462e-06
2.98248e-07 6.92462e-06 -0.000422086
0.00233293 1.05804e-06 -4.59361e-06
1.05804e-06 0.00124426 1.04869e-07
-4.59361e-06 1.04869e-07 0.00125754
0.000385021 1.48396e-05 -2.53973e-06
1.48396e-05 -3.60947e-05 5.84337e-06
-2.53973e-06 5.84337e-06 -5.75336e-05
0.00231921 1.82524e-05 1.24687e-05
1.82524e-05 0.00123703 6.36639e-06
1.24687e-05 6.36639e-06 0.00124965
0.00108091 -0.00025914 0.000357797
-0.00025914 0.00607753 0.000208198
0.000357797 0.000208198 0.00316248
-0.00136539 -0.00082948 -7.1701e-05
-0.00082948 0.000448655 9.58789e-06
-7.1701e-05 9.58789e-06 -0.00531341
0.00281534 0.00378904 -0.000679165
0.00378904 0.0130313 -0.000173034
-0.000679165 -0.000173034 0.0036342
0.00080393 0.000193979 -9.72476e-08
0.000193979 0.000356006 1.39469e-06
-9.72476e-08 1.39469e-06 0.000133735
-0.000570465 0.000154214 9.04406e-06
0.000154214 -0.000478137 3.44049e-06
9.04406e-06 3.44049e-06 -0.000745882
0.00235918 0.000361016 2.71765e-05
0.000361016 0.00139761 1.03038e-05
2.71765e-05 1.03038e-05 0.00116619
0.010123 -0.0013399 -0.000460035
-0.0013399 0.000768917 9.39092e-05
-0.000460035 9.39092e-05 -0.00271002
0.00898766 -0.00350575 0.000217994
-0.00350575 0.00512267 5.30151e-05
0.000217994 5.30151e-05 0.00235361
0.00482161 -0.00494783 0.00037641
-0.00494783 0.00211091 -0.000365744
0.00037641 -0.000365744 -0.00313051
0.00891798 -0.0053 2.18151e-05
-0.0053 -0.00185166 -9.82806e-05
2.18151e-05 -9.82806e-05 0.00078307
0.00386814 -0.00905178 -0.00118741
-0.00905178 -0.00401951 7.73882e-05
-0.00118741 7.73882e-05 -0.00340961
0.032334 0.00822472 0.000961477
0.00822472 0.018349 0.00037376
0.000961477 0.00037376 0.00621242
0.00979646 -0.0017389 0.000516154
-0.0017389 -0.000668991 -0.000340104
0.000516154 -0.000340104 -0.00380056
0.00335144 -0.00550519 7.67487e-06
-0.00550519 -0.000616404 1.3445e-05
7.67487e-06 1.3445e-05 0.000905504
0.00435502 -0.00907757 -0.000332442
-0.00907757 0.00281151 1.20374e-05
-0.000332442 1.20374e-05 -0.00276684
0.00949236 0.00504308 -0.000194544
0.00504308 0.00835842 -0.000436155
-0.000194544 -0.000436155 0.000586364
0.0145395 -0.000540624 -0.000195658
-0.000540624 -0.00116484 0.000190801
-0.000195658 0.000190801 -0.00116477
0.000349666 -0.00459747 -0.000207402
-0.00459747 0.00162722 0.000119605
-0.000207402 0.000119605 0.000359335
0.00829994 -0.00465733 -0.000446715
-0.00465733 0.00652052 0.000325899
-0.000446715 0.000325899 3.60677e-05
0.0109539 -0.000238235 5.26166e-05
-0.000238235 0.0044825 -0.000407688
5.26166e-05 -0.000407688 -0.000856352
0.010317 0.00115251 -2.68278e-05
0.00115251 -0.000651057 0.000241634
-2.68278e-05 0.000241634 -0.00295995
-0.000399993 0.000108336 1.42597e-05
0.000108336 -0.000325109 3.09003e-05
1.42597e-05 3.09003e-05 -0.000487513
0.000567089 3.03983e-06 -3.93355e-06
3.03983e-06 0.000294832 1.41395e-06
-3.93355e-06 1.41395e-06 7.52749e-05
0.00127583 -0.000361387 1.21446e-05
-0.000361387 0.000766604 -1.00819e-05
1.21446e-05 -1.00819e-05 0.000493055
0.000386479 0.000193621 -2.25434e-07
0.000193621 3.10897e-05 4.12763e-06
-2.25434e-07 4.12763e-06 -0.000151691
0.000900208 0.000289456 -2.73842e-06
0.000289456 0.000467867 -1.07664e-05
-2.73842e-06 -1.07664e-05 0.000208258
0.00114471 0.000292344 -7.70094e-06
0.000292344 0.000620973 -5.19985e-06
-7.70094e-06 -5.19985e-06 0.000358911
0.000987351 -0.00232049 8.15771e-05
-0.00232049 -0.000154847 -4.21369e-05
8.15771e-05 -4.21369e-05 -0.00060159
0.000269884 -0.000828514 1.44329e-05
-0.000828514 4.62265e-05 -3.45438e-05
1.44329e-05 -3.45438e-05 -0.000175422
-0.000153016 0.000276296 -8.62647e-06
0.000276296 -8.26448e-05 -3.30288e-05
-8.62647e-06 -3.30288e-05 -0.000373032
0.000854956 -0.00036387 2.81235e-05
-0.00036387 0.000707548 -2.26653e-05
2.81235e-05 -2.26653e-05 0.000236833
0.00299023 -0.000153845 7.6898e-06
-0.000153845 0.00206748 -3.90646e-05
7.6898e-06 -3.90646e-05 0.00162311
-0.000365687 6.9472e-05 1.12291e-05
6.9472e-05 -9.84835e-05 6.93468e-06
1.12291e-05 6.93468e-06 -0.000376693
-0.000389612 3.04518e-05 3.5686e-06
3.04518e-05 0.000321785 1.8013e-05
3.5686e-06 1.8013e-05 -0.000342323
0.00178316 -0.00257879 -3.7243e-05
-0.00257879 0.00168215 -8.18032e-06
-3.7243e-05 -8.18032e-06 0.000375441
0.000228382 -2.83395e-05 -1.55394e-06
-2.83395e-05 0.000752823 -1.75524e-06
-1.55394e-06 -1.75524e-06 3.05131e-05
0.000225166 -0.000681468 -1.51133e-06
-0.000681468 0.000876517 5.21812e-06
-1.51133e-06 5.21812e-06 7.10479e-05
0.0004164 0.000267325 3.89588e-05
0.000267325 0.000677839 -4.87251e-05
3.89588e-05 -4.87251e-05 0.000140539
-0.00312908 -0.00041846 -0.000222685
-0.00041846 0.000208425 2.27701e-05
-0.000222685 2.27701e-05 -0.00103109
-0.000527157 -0.000313987 -6.1269e-05
-0.000313987 0.00115717 -1.84615e-05
-6.1269e-05 -1.84615e-05 0.000213363
-0.00382706 -0.000121049 -1.3208e-05
-0.000121049 -0.00127802 -1.20441e-05
-1.3208e-05 -1.20441e-05 -0.00207978
0.00177736 0.000805292 6.14643e-06
0.000805292 0.000121489 -1.22781e-05
6.14643e-06 -1.22781e-05 -0.00547693
-0.00126468 0.0013128 0.000244481
0.0013128 0.00542832 2.25343e-05
0.000244481 2.25343e-05 0.00152569
-0.0023761 0.000308052 0.00051969
0.000308052 0.000554563 4.98931e-05
0.00051969 4.98931e-05 -0.00488231
-0.000309829 0.00106747 1.262e-05
0.00106747 0.000177298 2.88013e-05
1.262e-05 2.88013e-05 -0.000689334
0.00136983 0.00193331 1.21618e-06
0.00193331 0.00156442 -4.42607e-05
1.21618e-06 -4.42607e-05 0.000190513
-0.00174166 0.00086033 -0.000316905
0.00086033 0.00344447 -9.49324e-05
-0.000316905 -9.49324e-05 -0.000752003
-0.00318915 0.00159758 0.000280552
0.00159758 0.00509945 0.000291085
0.000280552 0.000291085 -0.00167578
0.00772154 0.000402637 -0.000221901
0.000402637 -0.000441317 -0.00053965
-0.000221901 -0.00053965 -0.00688828
0.0077393 0.00018958 0.00011735
0.00018958 0.00024247 -8.91682e-06
0.00011735 -8.91682e-06 -0.00194519
0.00880989 -0.00159682 -0.000522923
-0.00159682 -0.00112488 0.00032173
-0.000522923 0.00032173 -0.00400284
0.000618304 0.000849617 -1.80668e-05
0.000849617 0.00104935 -3.87041e-06
-1.80668e-05 -3.87041e-06 0.00017266
0.00247781 0.000715835 9.56924e-05
0.000715835 0.00316659 5.75018e-05
9.56924e-05 5.75018e-05 0.000130957
0.00809957 -0.00247156 -0.000209286
-0.00247156 0.00469119 -4.03249e-05
-0.000209286 -4.03249e-05 0.00216491
-8.16179e-05 0.00127441 -0.000175661
0.00127441 0.00312967 -2.95348e-05
-0.000175661 -2.95348e-05 0.000389261
0.0262661 0.00779858 -0.000486024
0.00779858 0.0128259 -0.000584732
-0.000486024 -0.000584732 0.00435985
0.0136721 0.00392826 0.000122258
0.00392826 0.009712 0.000490892
0.000122258 0.000490892 0.00083092
0.00779221 0.00273468 0.000118185
0.00273468 0.00832094 1.20495e-06
0.000118185 1.20495e-06 0.000468081
-5.81173e-07 6.30866e-05 3.78887e-05
6.30866e-05 0.00187012 -1.66371e-05
3.78887e-05 -1.66371e-05 4.99665e-05
0.00187912 0.000285592 -0.000367852
0.000285592 0.0076169 -9.9306e-06
-0.000367852 -9.9306e-06 0.00439289
0.000882676 -0.00122357 0.000821706
-0.00122357 0.00091801 -0.000282232
0.000821706 -0.000282232 -0.0054107
0.0420792 0.0170829 -7.64889e-05
0.0170829 0.0287064 -0.000208134
-7.64889e-05 -0.000208134 0.0141008
0.0184375 0.00629851 0.000826239
0.00629851 0.00959635 0.00136739
0.000826239 0.00136739 -0.00109422
0.0119975 -0.00657832 0.000655749
-0.00657832 0.008568 -0.000427516
0.000655749 -0.000427516 -0.000211682
0.000168136 -0.000861705 -9.66315e-05
-0.000861705 0.00386484 6.14679e-05
-9.66315e-05 6.14679e-05 0.00196824
0.00089591 0.000368809 -5.89985e-06
0.000368809 0.00115642 3.23992e-06
-5.89985e-06 3.23992e-06 0.000490626
-0.000128209 -0.000122958 -7.2887e-06
-0.000122958 0.00077342 -7.99777e-06
-7.2887e-06 -7.99777e-06 -2.73842e-05
0.000810664 -0.000835523 6.43315e-05
-0.000835523 0.00104733 -1.77526e-05
6.43315e-05 -1.77526e-05 0.000116116
0.000100464 -3.03666e-05 -1.8748e-06
-3.03666e-05 0.000327273 7.63817e-06
-1.8748e-06 7.63817e-06 9.56371e-06
-0.000650874 -7.72613e-05 1.58647e-05
-7.72613e-05 0.000228535 -1.46921e-05
1.58647e-05 -1.46921e-05 -0.000331074
0.00115271 -0.00046851 -8.10116e-06
-0.00046851 0.00103736 2.99709e-07
-8.10116e-06 2.99709e-07 0.000658097
0.00208637 -0.00111112 4.44306e-05
-0.00111112 0.0012726 -1.39889e-05
4.44306e-05 -1.39889e-05 0.000544824
-0.00129873 -0.000326211 2.82913e-06
-0.000326211 -0.000692229 -3.63047e-06
2.82913e-06 -3.63047e-06 -0.00128628
0.0016367 -0.000880535 2.04557e-05
-0.000880535 0.000691229 -7.42467e-06
2.04557e-05 -7.42467e-06 0.000145606
-0.000175662 -0.000739096 -4.74066e-07
-0.000739096 -0.000190801 -5.42256e-06
-4.74066e-07 -5.42256e-06 -0.00116619
0.000686246 -0.000574419 -8.51433e-06
-0.000574419 0.000107676 3.88729e-06
-8.51433e-06 3.88729e-06 -0.000231972
0.00212582 -0.0010341 -9.37348e-07
-0.0010341 0.00085085 -1.27668e-06
-9.37348e-07 -1.27668e-06 0.000105927
0.00197527 -0.00127454 -1.99178e-05
-0.00127454 0.000570994 1.36709e-06
-1.99178e-05 1.36709e-06 -0.000310255
0.00276907 -0.00146391 -1.55342e-05
-0.00146391 0.000811948 -1.14426e-06
-1.55342e-05 -1.14426e-06 1.64619e-05
0.00243948 -0.00136311 -6.07692e-06
-0.00136311 0.000833153 -8.92111e-07
-6.07692e-06 -8.92111e-07 3.88056e-05
0.00248475 -0.00125231 -4.92682e-06
-0.00125231 0.000921433 1.0914e-06
-4.92682e-06 1.0914e-06 0.000154487
0.00165307 -0.000883809 6.06718e-06
-0.000883809 0.000580437 -7.11008e-06
6.06718e-06 -7.11008e-06 -1.70661e-05
0.00232465 -0.00112001 2.01767e-05
-0.00112001 0.000958948 -1.07032e-05
2.01767e-05 -1.07032e-05 0.00025569
0.0019109 -0.00111135 1.0715e-05
-0.00111135 0.000597029 -4.26657e-06
1.0715e-05 -4.26657e-06 -9.31335e-05
0.00116061 -0.00045946 1.94773e-06
-0.00045946 0.000293664 -2.38498e-06
1.94773e-06 -2.38498e-06 -8.56688e-05
0.00201994 -0.000831219 4.71539e-06
-0.000831219 0.000834976 -4.6318e-06
4.71539e-06 -4.6318e-06 0.000292133
0.000953902 -0.000904175 -2.53736e-06
-0.000904175 9.981e-05 -4.34428e-06
-2.53736e-06 -4.34428e-06 -0.000524096
0.00038875 1.58124e-05 5.02778e-07
1.58124e-05 2.76006e-05 -3.48867e-07
5.02778e-07 -3.48867e-07 -0.000303733
0.000649351 -0.000338891 3.2476e-07
-0.000338891 3.8559e-05 -8.30214e-08
3.2476e-07 -8.30214e-08 -0.000265837
0.000677909 -0.000480666 -9.81778e-06
-0.000480666 -8.00844e-06 6.01706e-07
-9.81778e-06 6.01706e-07 -0.000381299
6.19668e-05 -0.000220101 3.62905e-06
-0.000220101 -0.000174463 1.18675e-05
3.62905e-06 1.18675e-05 -0.000489814
0.000910855 -0.000309547 -2.1602e-07
-0.000309547 0.000463115 9.6851e-07
-2.1602e-07 9.6851e-07 6.35825e-05
-0.00166482 -0.000389791 -4.12727e-07
-0.000389791 -0.00114781 7.90939e-06
-4.12727e-07 7.90939e-06 -0.00154627
0.00197274 -0.000438172 -6.2737e-06
-0.000438172 0.00109529 -3.75664e-06
-6.2737e-06 -3.75664e-06 0.000753851
0.00087527 -0.000167345 -7.02348e-07
-0.000167345 0.000321742 6.02822e-07
-7.02348e-07 6.02822e-07 9.13322e-05
0.000179777 -1.58875e-05 1.56212e-06
-1.58875e-05 -0.000154649 1.70238e-05
1.56212e-06 1.70238e-05 -0.000236328
0.00159126 -0.00016838 -1.82664e-06
-0.00016838 0.000780038 -1.13223e-05
-1.82664e-06 -1.13223e-05 0.000603595
0.000399878 -2.17672e-05 -6.64955e-06
-2.17672e-05 -1.37049e-05 -9.09387e-07
-6.64955e-06 -9.09387e-07 -7.63381e-05
0.00354343 0.000107112 -5.24811e-05
0.000107112 0.00205268 7.17792e-06
-5.24811e-05 7.17792e-06 0.00205058
0.000553507 -5.60211e-05 3.24474e-06
-5.60211e-05 6.99638e-05 -1.05195e-05
3.24474e-06 -1.05195e-05 2.45439e-05
0.00207813 6.19461e-05 3.22798e-05
6.19461e-05 0.00107494 -6.04376e-07
3.22798e-05 -6.04376e-07 0.0010731
0.00287929 4.41885e-05 4.634e-05
4.41885e-05 0.00160101 -6.24577e-06
4.634e-05 -6.24577e-06 0.00161093
0.0013557 0.000212675 1.27681e-06
0.000212675 0.00070642 -1.35534e-05
1.27681e-06 -1.35534e-05 0.000467065
0.000595102 0.000107449 2.96901e-06
0.000107449 0.000154699 -7.06297e-06
2.96901e-06 -7.06297e-06 7.0989e-06
0.000443042 9.60515e-05 -8.33293e-07
9.60515e-05 0.000114805 1.16193e-06
-8.33293e-07 1.16193e-06 -0.000106449
0.000424062 3.44451e-05 -5.22269e-07
3.44451e-05 -4.58848e-06 -1.00877e-05
-5.22269e-07 -1.00877e-05 -4.43198e-05
0.00018815 5.8961e-05 -2.61616e-06
5.8961e-05 -0.000119502 -3.6678e-06
-2.61616e-06 -3.6678e-06 -0.000243249
0.000603814 0.00010111 -1.4741e-06
0.00010111 0.00021673 -1.36254e-06
-1.4741e-06 -1.36254e-06 1.40839e-05
0.00251654 -3.25188e-05 -2.54169e-05
-3.25188e-05 0.00136639 -6.77274e-06
-2.54169e-05 -6.77274e-06 0.00137701
0.000377646 2.18457e-06 9.19612e-07
2.18457e-06 -4.13154e-05 -3.29857e-07
9.19612e-07 -3.29857e-07 -7.09662e-05
0.000147434 2.28379e-05 -2.3818e-06
2.28379e-05 -0.000148887 4.32295e-06
-2.3818e-06 4.32295e-06 -0.00025753
0.00238912 -1.50563e-05 -6.6874e-06
-1.50563e-05 0.00128102 1.52196e-07
-6.6874e-06 1.52196e-07 0.00129373
0.000401244 5.71633e-06 -5.29589e-06
5.71633e-06 -2.83698e-05 6.34449e-06
-5.29589e-06 6.34449e-06 -5.20163e-05
0.00236699 2.39064e-06 1.72884e-05
2.39064e-06 0.00126716 6.34228e-06
1.72884e-05 6.34228e-06 0.00128023
0.00352296 -0.00019619 -0.00026707
-0.00019619 0.00269399 -5.25577e-06
-0.00026707 -5.25577e-06 -0.000475016
-0.00215286 0.000169458 0.000228502
0.000169458 0.00568238 -2.91225e-06
0.000228502 -2.91225e-06 0.00183702
-0.000185763 -0.00053315 7.76994e-05
-0.00053315 0.00162532 -0.000303322
7.76994e-05 -0.000303322 -0.00490229
-0.000689978 -4.40441e-05 5.92475e-06
-4.40441e-05 -0.000468221 -5.18191e-06
5.92475e-06 -5.18191e-06 -0.000880136
0.00628741 0.000600563 1.93737e-05
0.000600563 0.00386052 2.17876e-05
1.93737e-05 2.17876e-05 0.00354534
0.000315496 0.000182147 -5.70216e-06
0.000182147 6.44191e-05 -4.65477e-06
-5.70216e-06 -4.65477e-06 -0.000162327
-0.00017651 9.07514e-05 9.69516e-07
9.07514e-05 -0.00025935 -3.38119e-06
9.69516e-07 -3.38119e-06 -0.00051776
-0.000337608 6.64199e-05 1.11281e-06
6.64199e-05 -0.000444711 -5.19979e-06
1.11281e-06 -5.19979e-06 -0.000588103
0.00080394 0.000176456 1.10646e-05
0.000176456 0.000359393 3.00868e-06
1.10646e-05 3.00868e-06 0.000132285
0.000164413 0.000123124 2.24851e-05
0.000123124 -1.82353e-05 -8.04864e-06
2.24851e-05 -8.04864e-06 -0.000144999
0.00593701 0.00219921 0.00024393
0.00219921 0.000741076 0.000234067
0.00024393 0.000234067 -0.0024698
0.00870763 -0.000432411 -0.000172189
-0.000432411 0.000958288 3.42423e-05
-0.000172189 3.42423e-05 -0.00270176
0.00672146 -0.00111205 0.000575708
-0.00111205 0.00593445 -0.000127401
0.000575708 -0.000127401 0.00216552
0.0116527 0.000249084 -5.51839e-05
0.000249084 -0.00339039 0.000226403
-5.51839e-05 0.000226403 -0.00335956
0.00672458 -0.00678823 -0.000147796
-0.00678823 0.000478878 2.72013e-05
-0.000147796 2.72013e-05 0.00125204
-5.72806e-05 -0.00757986 -0.000499957
-0.00757986 0.0025382 0.000214847
-0.000499957 0.000214847 -0.00487654
0.0269998 0.00448317 0.000359659
0.00448317 0.0107755 -0.000357928
0.000359659 -0.000357928 0.00306908
0.00343511 -0.0060857 -0.000123828
-0.0060857 0.00138339 7.85799e-05
-0.000123828 7.85799e-05 0.000883758
-0.000124998 -0.00210627 -0.000141211
-0.00210627 0.00631984 7.87934e-05
-0.000141211 7.87934e-05 -0.00286207
0.0155536 0.000300275 0.000461201
0.000300275 0.00607154 -4.51688e-05
0.000461201 -4.51688e-05 -0.000180553
0.0204781 -0.00197884 -6.2026e-05
-0.00197884 0.00371683 1.63076e-06
-6.2026e-05 1.63076e-06 0.00241874
-0.00615236 -0.000745948 -0.000221276
-0.000745948 -0.000278149 0.000254294
-0.000221276 0.000254294 -0.00132043
0.000845752 0.000354726 -0.000227914
0.000354726 0.00633718 -0.000219116
-0.000227914 -0.000219116 -0.00277492
0.0125353 -0.00616346 -7.93447e-05
-0.00616346 0.00449579 -0.000259242
-7.93447e-05 -0.000259242 -0.00470395
0.0232282 -0.0023679 0.000729043
-0.0023679 0.0112489 -0.000820813
0.000729043 -0.000820813 0.00548604
-0.000150405 0.000107677 4.52887e-05
0.000107677 0.000334215 -1.76341e-05
4.52887e-05 -1.76341e-05 -0.000245454
0.000393866 0.00020985 -2.78436e-06
0.00020985 0.000216887 -5.81558e-06
-2.78436e-06 -5.81558e-06 2.93376e-05
0.00032941 -5.82716e-06 6.13754e-07
-5.82716e-06 0.00016179 -1.27192e-05
6.13754e-07 -1.27192e-05 -7.46811e-05
0.000950273 0.000172961 -7.35988e-06
0.000172961 0.000432166 -1.28058e-05
-7.35988e-06 -1.28058e-05 0.000228281
0.000331208 -0.00237953 5.4612e-05
-0.00237953 0.000881325 1.69574e-05
5.4612e-05 1.69574e-05 -0.000454745
0.00137399 -0.000667932 -8.95165e-06
-0.000667932 0.00169316 -6.01719e-06
-8.95165e-06 -6.01719e-06 0.000749655
6.00098e-05 6.24446e-05 -4.03565e-05
6.24446e-05 0.000148167 -1.34143e-05
-4.03565e-05 -1.34143e-05 -0.000104905
0.00141592 -0.000357858 1.95279e-05
-0.000357858 0.00114828 -6.73101e-05
1.95279e-05 -6.73101e-05 0.000683342
0.000582649 -9.63811e-06 -1.67666e-05
-9.63811e-06 0.00104337 9.88676e-06
-1.67666e-05 9.88676e-06 0.000415587
0.000238117 0.000166305 -2.87647e-06
0.000166305 0.000463295 1.38081e-05
-2.87647e-06 1.38081e-05 3.71248e-06
0.00113946 -0.000201301 1.91068e-06
-0.000201301 0.00135634 -1.48178e-06
1.91068e-06 -1.48178e-06 0.000682264
0.000241847 -0.00142982 5.84892e-05
-0.00142982 0.00194596 -1.76154e-05
5.84892e-05 -1.76154e-05 -1.43592e-05
0.000216152 -0.000143107 -1.66742e-05
-0.000143107 0.00151727 -1.76626e-05
-1.66742e-05 -1.76626e-05 0.000649707
0.000372481 0.000145356 2.78051e-05
0.000145356 0.000525904 -2.47823e-05
2.78051e-05 -2.47823e-05 9.35862e-05
-0.00163472 -5.3324e-05 -0.000290235
-5.3324e-05 0.0024312 1.74143e-05
-0.000290235 1.74143e-05 -0.000239465
0.00120232 0.000581004 2.53439e-05
0.000581004 0.00163609 -8.73843e-06
2.53439e-05 -8.73843e-06 0.000886883
-0.00446428 -0.000320032 -4.82772e-05
-0.000320032 0.00533382 -0.00013558
-4.82772e-05 -0.00013558 0.00182296
0.00298969 0.000185968 4.83566e-05
0.000185968 0.00193038 2.63923e-05
4.83566e-05 2.63923e-05 -0.00191512
-0.00465954 0.00221834 -0.000158713
0.00221834 0.00478435 -0.000115456
-0.000158713 -0.000115456 0.000289841
0.0010738 0.00071982 -5.1335e-06
0.00071982 0.00143038 -4.3611e-07
-5.1335e-06 -4.3611e-07 0.000689153
-0.00127182 0.00161147 0.000337741
0.00161147 0.00162671 0.000122307
0.000337741 0.000122307 -2.31581e-05
0.00107557 9.42914e-06 0.000101644
9.42914e-06 0.00363004 -9.55014e-06
0.000101644 -9.55014e-06 0.000771923
0.00513688 -0.00171452 0.000424061
-0.00171452 0.00628345 -0.000239318
0.000424061 -0.000239318 -0.00422008
0.0288837 0.00419226 -0.000464782
0.00419226 0.0113444 0.000337731
-0.000464782 0.000337731 0.00262306
0.00357263 -0.00105294 -0.000570122
-0.00105294 0.00411431 3.43675e-05
-0.000570122 3.43675e-05 0.000700592
0.0187676 0.00658186 -0.000603265
0.00658186 0.0143926 -0.000367808
-0.000603265 -0.000367808 0.00758448
0.000625861 0.000269904 -7.17007e-05
0.000269904 0.00198651 3.28163e-06
-7.17007e-05 3.28163e-06 0.000207301
-0.00112553 -0.00092644 -0.000200211
-0.00092644 0.00548608 6.49686e-06
-0.000200211 6.49686e-06 0.00250494
0.00159079 -0.00251921 0.000285727
-0.00251921 0.00267979 -6.9364e-05
0.000285727 -6.9364e-05 -0.00356627
-0.00388006 7.32314e-05 0.000102254
7.32314e-05 0.00137973 4.99085e-05
0.000102254 4.99085e-05 8.41569e-05
0.0373713 0.0205519 0.000902954
0.0205519 0.0262729 -0.000269699
0.000902954 -0.000269699 0.0106607
0.0159455 0.00375045 -9.38708e-05
0.00375045 0.0116742 0.000554706
-9.38708e-05 0.000554706 0.00159594
-0.000368922 -0.00222564 0.000389605
-0.00222564 0.00518211 -0.000249064
0.000389605 -0.000249064 -0.00451413
-0.00201763 -0.00105351 -3.79169e-05
-0.00105351 0.00104549 -5.39424e-05
-3.79169e-05 -5.39424e-05 -0.000869903
0.00207588 -0.00157796 0.0004824
-0.00157796 0.000341189 -0.000119879
0.0004824 -0.000119879 -0.00522581
0.00556376 0.00592602 -0.00299878
0.00592602 0.0152232 0.000151313
-0.00299878 0.000151313 0.00440872
0.0276736 0.0106413 -0.000471688
0.0106413 0.0133873 0.000454274
-0.000471688 0.000454274 0.00250562
0.00595851 -0.00673672 -0.0003837
-0.00673672 0.00435088 0.000195662
-0.0003837 0.000195662 5.91374e-06
0.0031171 -0.00350092 8.24065e-05
-0.00350092 0.00498268 6.64889e-05
8.24065e-05 6.64889e-05 0.00257118
-0.000160754 -0.000127404 2.17608e-05
-0.000127404 0.000683799 -1.91011e-05
2.17608e-05 -1.91011e-05 -0.000196281
0.000527872 -0.000674 -1.42563e-05
-0.000674 0.00101297 1.96784e-06
-1.42563e-05 1.96784e-06 1.77819e-05
-9.62511e-05 -0.00145601 1.26989e-05
-0.00145601 0.000305575 1.49024e-05
1.26989e-05 1.49024e-05 -0.00066631
-0.00162983 -0.000200334 4.59248e-06
-0.000200334 -0.000430733 3.87296e-06
4.59248e-06 3.87296e-06 -0.000797182
-0.000287025 -0.000677211 -1.02823e-05
-0.000677211 0.000117466 3.90729e-06
-1.02823e-05 3.90729e-06 -0.000500075
0.00205664 -0.0011727 3.95385e-05
-0.0011727 0.000885583 -1.07187e-05
3.95385e-05 -1.07187e-05 0.000133844
0.00596173 -0.00164823 -1.22583e-05
-0.00164823 0.00300704 1.17024e-05
-1.22583e-05 1.17024e-05 0.00232794
0.0024987 -0.00120896 1.16408e-05
-0.00120896 0.00116261 -3.9564e-06
1.16408e-05 -3.9564e-06 0.000166779
0.00277071 -0.00158477 1.3827e-06
-0.00158477 0.000920654 -2.19247e-05
1.3827e-06 -2.19247e-05 -0.000106864
0.00210937 -0.00103737 -1.34795e-06
-0.00103737 0.000803227 -7.90971e-06
-1.34795e-06 -7.90971e-06 6.38193e-05
0.00251153 -0.00136494 1.51747e-06
-0.00136494 0.000859712 -2.91331e-06
1.51747e-06 -2.91331e-06 -4.8614e-05
0.0034376 -0.00161892 -4.5181e-06
-0.00161892 0.00118513 -1.14242e-05
-4.5181e-06 -1.14242e-05 0.000299279
0.00257042 -0.00108213 -1.57583e-06
-0.00108213 0.0004246 -5.87464e-06
-1.57583e-06 -5.87464e-06 -9.83853e-05
0.0033881 -0.00150449 -8.7496e-06
-0.00150449 0.00113095 -3.14051e-06
-8.7496e-06 -3.14051e-06 0.000358042
0.00309203 -0.00151317 -4.75822e-06
-0.00151317 0.000985056 -6.92528e-07
-4.75822e-06 -6.92528e-07 0.000173828
0.00275333 -0.00137321 1.2603e-05
-0.00137321 0.00104682 -9.10237e-06
1.2603e-05 -9.10237e-06 0.000265931
0.00203335 -0.00127255 4.59726e-06
-0.00127255 0.000606615 -1.91683e-06
4.59726e-06 -1.91683e-06 -0.000150384
0.00249828 -0.00124481 1.15703e-05
-0.00124481 0.00091122 -4.67544e-06
1.15703e-05 -4.67544e-06 0.000147994
0.00211102 -0.000967935 2.43346e-05
-0.000967935 0.000903884 -2.28156e-07
2.43346e-05 -2.28156e-07 0.000230814
0.00221914 -0.00110362 -2.67409e-06
-0.00110362 0.000894213 -2.44322e-06
-2.67409e-06 -2.44322e-06 0.000197094
0.00187143 -0.00111381 -7.97152e-06
-0.00111381 0.00057947 6.09202e-06
-7.97152e-06 6.09202e-06 -0.000111503
0.00327625 -0.000331986 8.02798e-06
-0.000331986 0.00177821 3.14599e-06
8.02798e-06 3.14599e-06 0.00142572
0.000759166 -0.000354503 -9.18558e-06
-0.000354503 0.000112883 4.2078e-06
-9.18558e-06 4.2078e-06 -0.000266294
0.00282043 -0.000916255 -1.16629e-05
-0.000916255 0.00133976 -7.41412e-06
-1.16629e-05 -7.41412e-06 0.000779687
0.000302562 -0.000212688 -8.87556e-08
-0.000212688 -0.000122316 1.25004e-06
-8.87556e-08 1.25004e-06 -0.000425184
0.000515775 -0.000165353 -2.74376e-06
-0.000165353 8.48622e-05 4.76052e-07
-2.74376e-06 4.76052e-07 -0.000244426
0.000166303 -0.000165009 8.33375e-06
-0.000165009 -0.000214002 4.61213e-06
8.33375e-06 4.61213e-06 -0.000545216
0.000249281 -9.89585e-05 -1.6999e-05
-9.89585e-05 -0.000140431 2.30752e-05
-1.6999e-05 2.30752e-05 -0.000238722
0.00081532 -0.000212626 2.74631e-06
-0.000212626 0.000283108 1.50283e-06
2.74631e-06 1.50283e-06 -1.269e-05
0.00192154 -0.000469461 -3.58199e-06
-0.000469461 0.00109245 -3.55408e-06
-3.58199e-06 -3.55408e-06 0.000700107
0.00125503 -0.000174366 -3.83096e-06
-0.000174366 0.000554943 -1.13321e-05
-3.83096e-06 -1.13321e-05 0.000329902
0.000363336 -5.52838e-05 -9.2857e-08
-5.52838e-05 -5.23207e-05 -4.85345e-07
-9.2857e-08 -4.85345e-07 -0.000128974
0.00405316 0.000145512 -6.22695e-05
0.000145512 0.00240068 8.21759e-06
-6.22695e-05 8.21759e-06 0.00238817
0.000414214 -5.84533e-05 5.5172e-06
-5.84533e-05 -1.18677e-05 -1.38541e-05
5.5172e-06 -1.38541e-05 -7.0101e-05
0.00353536 0.000104801 1.08283e-05
0.000104801 0.00204733 1.04959e-06
1.08283e-05 1.04959e-06 0.00204537
0.00301936 6.68607e-05 5.30355e-05
6.68607e-05 0.00169516 -6.82322e-06
5.30355e-05 -6.82322e-06 0.00170244
0.00413002 0.000201368 1.38506e-05
0.000201368 0.00264472 -6.99318e-06
1.38506e-05 -6.99318e-06 0.00217215
0.00289804 0.00026423 1.29946e-05
0.00026423 0.00184952 -3.18126e-05
1.29946e-05 -3.18126e-05 0.00145225
0.000621054 9.66051e-05 4.96485e-06
9.66051e-05 0.000164867 -1.13666e-05
4.96485e-06 -1.13666e-05 2.02351e-06
0.00072982 0.000187108 6.72637e-07
0.000187108 0.000305681 1.42018e-06
6.72637e-07 1.42018e-06 6.09521e-05
0.000450874 -2.54313e-05 6.80982e-06
-2.54313e-05 1.59888e-05 -1.18513e-05
6.80982e-06 -1.18513e-05 -3.09243e-05
0.000620873 0.000107508 -5.40716e-07
0.000107508 0.000173558 -3.85842e-07
-5.40716e-07 -3.85842e-07 2.60731e-05
0.000718769 0.0001063 -4.87713e-06
0.0001063 0.000289297 -4.75016e-06
-4.87713e-06 -4.75016e-06 6.69275e-05
0.00285102 -4.99061e-05 -3.75185e-05
-4.99061e-05 0.0015918 -7.40672e-06
-3.75185e-05 -7.40672e-06 0.00159931
0.000404274 1.44762e-06 -3.00871e-06
1.44762e-06 -1.90179e-05 -3.15091e-07
-3.00871e-06 -3.15091e-07 -5.71656e-05
0.000574497 0.000101486 -5.47953e-06
0.000101486 0.00014211 5.21797e-06
-5.47953e-06 5.21797e-06 1.63429e-05
0.00258499 -3.48804e-05 -6.47703e-06
-3.48804e-05 0.0014119 4.17655e-07
-6.47703e-06 4.17655e-07 0.00142203
0.00039569 -2.50345e-06 -5.52464e-06
-2.50345e-06 -3.04971e-05 7.25095e-06
-5.52464e-06 7.25095e-06 -5.92534e-05
0.00240811 -1.51211e-05 2.04076e-05
-1.51211e-05 0.00129332 6.37396e-06
2.04076e-05 6.37396e-06 0.0013059
-0.00180162 0.00145762 -7.41349e-05
0.00145762 0.0039734 -0.000173173
-7.41349e-05 -0.000173173 -0.000249746
0.00575281 -0.000514135 -5.27715e-05
-0.000514135 0.00410655 -9.21152e-05
-5.27715e-05 -9.21152e-05 0.00112441
0.000270819 -0.000608928 0.000109409
-0.000608928 0.0057309 -8.88987e-05
0.000109409 -8.88987e-05 0.00237528
0.000419619 2.92763e-05 2.53981e-06
2.92763e-05 0.000359994 -9.68458e-06
2.53981e-06 -9.68458e-06 -0.000163259
-0.00027059 0.000350394 6.94235e-06
0.000350394 -0.000253072 -1.07683e-05
6.94235e-06 -1.07683e-05 -0.000551466
-0.00130242 0.00018369 3.06767e-05
0.00018369 -0.00117987 -2.78554e-05
3.06767e-05 -2.78554e-05 -0.0013423
-0.00262472 -1.5975e-05 3.05846e-06
-1.5975e-05 -0.00147354 3.54517e-05
3.05846e-06 3.54517e-05 -0.00200514
0.0022239 0.0006341 7.00827e-06
0.0006341 0.00123338 -7.58208e-06
7.00827e-06 -7.58208e-06 0.000850864
0.000127168 9.26841e-05 -8.39763e-06
9.26841e-05 -5.32e-05 1.48196e-06
-8.39763e-06 1.48196e-06 -0.000335091
0.000119649 0.000111617 -1.58161e-05
0.000111617 -0.000111655 -4.74364e-06
-1.58161e-05 -4.74364e-06 -0.000262848
0.00115574 1.02576e-05 9.08204e-06
1.02576e-05 0.000591892 1.93673e-06
9.08204e-06 1.93673e-06 0.000359233
0.00104073 0.000200921 -6.07547e-06
0.000200921 0.00052771 -8.67212e-06
-6.07547e-06 -8.67212e-06 0.000414106
0.00297822 0.000265161 -3.41458e-06
0.000265161 0.0019874 -3.16859e-05
-3.41458e-06 -3.16859e-05 0.00159296
0.0113994 0.00417529 0.00105846
0.00417529 0.00704047 0.000640859
0.00105846 0.000640859 0.00161377
0.0051199 0.00180376 2.67508e-05
0.00180376 0.00228017 7.04127e-05
2.67508e-05 7.04127e-05 -0.00134228
0.00911986 -0.000416706 0.000230952
-0.000416706 0.000676579 5.20134e-06
0.000230952 5.20134e-06 -0.00191801
0.0156833 -0.000495019 -0.000267716
-0.000495019 0.00265048 -0.00013243
-0.000267716 -0.00013243 0.00355944
0.00727804 0.000745925 0.000179224
0.000745925 0.000175056 0.000478954
0.000179224 0.000478954 -0.00652008
0.00372524 -0.00612208 -0.000147607
-0.00612208 0.00212616 5.33477e-05
-0.000147607 5.33477e-05 0.00128549
0.00382969 -0.0025228 -0.000525868
-0.0025228 0.00626166 0.000155221
-0.000525868 0.000155221 -0.000536085
-0.00125974 -0.00222565 -0.000128164
-0.00222565 0.0013867 0.000162
-0.000128164 0.000162 -9.56225e-05
0.0123259 -0.000356476 -0.000433666
-0.000356476 0.00941809 -4.3531e-06
-0.000433666 -4.3531e-06 0.000918142
0.00999099 -0.00371452 0.000178681
-0.00371452 0.00681116 0.000289598
0.000178681 0.000289598 -0.00157061
0.0314304 -0.00650409 0.000351151
-0.00650409 0.0120531 -0.0010527
0.000351151 -0.0010527 0.00305596
-0.00152266 0.000518 -0.000263289
0.000518 0.00266035 0.000142724
-0.000263289 0.000142724 0.00010095
0.00434667 0.00214764 -0.000395352
0.00214764 0.00745359 -0.000152546
-0.000395352 -0.000152546 0.000214588
0.0322105 -0.0116247 0.00109856
-0.0116247 0.0192672 -0.00124621
0.00109856 -0.00124621 0.00684973
0.0362196 -0.0180747 0.000132162
-0.0180747 0.0240323 -5.83611e-05
0.000132162 -5.83611e-05 0.00969808
0.000548474 0.000509024 4.97396e-05
0.000509024 0.000566686 1.46587e-05
4.97396e-05 1.46587e-05 -3.38652e-05
-0.000142214 8.67323e-05 1.48762e-05
8.67323e-05 0.000392131 4.24177e-06
1.48762e-05 4.24177e-06 -0.000228432
0.00107372 0.000196236 -3.95653e-05
0.000196236 0.000651889 -1.50845e-05
-3.95653e-05 -1.50845e-05 0.000454158
0.00194691 -0.00189366 8.79521e-05
-0.00189366 0.00260043 3.05182e-06
8.79521e-05 3.05182e-06 0.000190289
-0.00168752 -0.000184305 0.000151644
-0.000184305 0.00063858 1.66401e-05
0.000151644 1.66401e-05 -0.000336299
0.000260199 0.000173274 -3.22496e-05
0.000173274 0.000436814 1.67655e-05
-3.22496e-05 1.67655e-05 -8.14962e-07
-0.000329163 -0.000247458 -1.2e-05
-0.000247458 0.000695773 1.4161e-06
-1.2e-05 1.4161e-06 -0.000181331
-4.93264e-06 0.000252049 -1.29615e-05
0.000252049 0.000345259 3.45739e-06
-1.29615e-05 3.45739e-06 -0.000104669
-0.000344555 0.000437455 3.17804e-05
0.000437455 0.000566641 7.72127e-06
3.17804e-05 7.72127e-06 -0.000189615
-0.00323717 5.99524e-05 0.000201048
5.99524e-05 0.00154248 -0.000108871
0.000201048 -0.000108871 -0.000842064
0.00237909 0.00114976 7.47808e-05
0.00114976 0.0013227 6.8268e-05
7.47808e-05 6.8268e-05 0.000713388
0.00103054 0.00127304 -0.000111286
0.00127304 0.00196422 -0.000142305
-0.000111286 -0.000142305 -0.000176389
-0.000171108 -0.00096226 0.000363219
-0.00096226 0.00152794 0.000140693
0.000363219 0.000140693 -0.00417232
-0.00367931 0.000919734 -0.000254662
0.000919734 0.0052137 -1.57856e-05
-0.000254662 -1.57856e-05 0.000731507
0.00613123 -0.000669414 -0.000186538
-0.000669414 0.00431893 1.52333e-05
-0.000186538 1.52333e-05 0.00232836
0.000540852 0.000828669 9.28028e-05
0.000828669 0.0015754 2.43296e-05
9.28028e-05 2.43296e-05 -0.000299918
-0.000322532 0.000461915 -7.77182e-05
0.000461915 0.00330901 0.000118147
-7.77182e-05 0.000118147 0.00082123
-0.0016843 -0.000139087 -8.14013e-05
-0.000139087 0.00428208 -9.62596e-05
-8.14013e-05 -9.62596e-05 0.000735253
0.0140839 -0.00703274 0.000554459
-0.00703274 0.0102118 -0.000329305
0.000554459 -0.000329305 0.000538219
0.0317457 0.0100249 -0.00098832
0.0100249 0.0187896 -0.000412861
-0.00098832 -0.000412861 0.00630543
0.00780026 -0.00346119 -0.000602997
-0.00346119 0.0043182 0.000365522
-0.000602997 0.000365522 -0.000741389
0.0303738 0.024544 0.0027177
0.024544 0.0220865 -0.00178493
0.0027177 -0.00178493 0.00600904
-0.000707497 -0.000926035 3.07127e-05
-0.000926035 0.0015367 -5.4299e-06
3.07127e-05 -5.4299e-06 -0.000446526
0.000540603 -0.00107776 0.000120488
-0.00107776 0.00140929 4.78771e-06
0.000120488 4.78771e-06 -0.00465517
0.0102949 0.00652808 -0.00170891
0.00652808 0.0146009 9.17674e-05
-0.00170891 9.17674e-05 0.00331644
-1.04437e-05 -0.00212507 4.95561e-05
-0.00212507 0.00252755 3.71009e-05
4.95561e-05 3.71009e-05 0.00077265
0.0314459 0.0106598 0.000625728
0.0106598 0.0149696 0.000326069
0.000625728 0.000326069 0.00386266
0.00490116 -0.00973046 0.000513168
-0.00973046 0.00329109 -0.000161685
0.000513168 -0.000161685 -0.00216669
-0.000741209 -0.00255126 3.79842e-05
-0.00255126 0.000783941 5.74713e-05
3.79842e-05 5.74713e-05 -0.00107758
0.00135266 -0.000973609 0.000207107
-0.000973609 0.0117941 -0.000151744
0.000207107 -0.000151744 0.00486886
0.024144 0.0115472 -0.00260965
0.0115472 0.0115167 0.00013408
-0.00260965 0.00013408 0.00211699
0.00277471 -0.00881937 -0.0010839
-0.00881937 -0.00406371 0.000278266
-0.0010839 0.000278266 -0.00431785
-0.000359583 -0.00378104 0.000245942
-0.00378104 0.000141726 -0.00020416
0.000245942 -0.00020416 0.000796231
0.00115094 -0.000652438 -0.000107187
-0.000652438 0.00123829 3.92833e-05
-0.000107187 3.92833e-05 0.000263458
3.62075e-05 -0.00118384 -1.94009e-05
-0.00118384 0.000506602 1.51017e-05
-1.94009e-05 1.51017e-05 -0.000437555
-0.000319683 -0.00116891 -2.32541e-06
-0.00116891 -0.000312887 -1.38018e-05
-2.32541e-06 -1.38018e-05 -0.00103725
-0.00239335 -0.000271829 1.26655e-05
-0.000271829 -0.000869027 1.81499e-06
1.26655e-05 1.81499e-06 -0.00139177
0.000592289 -0.000986167 4.20152e-06
-0.000986167 0.000109716 -6.30585e-06
4.20152e-06 -6.30585e-06 -0.000560871
0.00352493 -0.00174606 5.15983e-07
-0.00174606 0.00103333 -2.40923e-06
5.15983e-07 -2.40923e-06 0.000376495
0.00523168 -0.00166696 -3.21144e-05
-0.00166696 0.00257903 8.82526e-06
-3.21144e-05 8.82526e-06 0.00156046
0.00229592 -0.00145631 -3.2488e-06
-0.00145631 0.000650977 -2.03519e-06
-3.2488e-06 -2.03519e-06 -0.000314248
0.00355103 -0.00175869 4.34141e-06
-0.00175869 0.000983694 -1.13309e-05
4.34141e-06 -1.13309e-05 0.000188937
0.00303588 -0.0014465 7.82037e-06
-0.0014465 0.00115086 2.04504e-06
7.82037e-06 2.04504e-06 0.000217564
0.00300884 -0.00154323 3.50823e-06
-0.00154323 0.000946372 -4.119e-06
3.50823e-06 -4.119e-06 9.28496e-05
0.00308852 -0.00121781 1.05055e-07
-0.00121781 0.000678607 -6.56e-06
1.05055e-07 -6.56e-06 0.000144756
0.00219777 -0.000712103 -9.56083e-07
-0.000712103 3.41248e-05 -1.32839e-06
-9.56083e-07 -1.32839e-06 -0.000207422
0.00230129 -0.00105728 1.11315e-06
-0.00105728 0.000202673 -3.9234e-06
1.11315e-06 -3.9234e-06 -0.000317307
0.0026096 -0.00109946 4.48517e-06
-0.00109946 0.000427136 -1.55463e-06
4.48517e-06 -1.55463e-06 -9.89696e-05
0.00327355 -0.00134941 -1.53271e-06
-0.00134941 0.00111896 -4.95558e-06
-1.53271e-06 -4.95558e-06 0.000421806
0.00332835 -0.00150215 -4.67902e-06
-0.00150215 0.00110129 -5.948e-07
-4.67902e-06 -5.948e-07 0.000321833
0.00323745 -0.00154138 1.03004e-05
-0.00154138 0.00105436 -4.14198e-06
1.03004e-05 -4.14198e-06 0.000231556
0.00230826 -0.00120035 4.20294e-06
-0.00120035 0.000800233 -1.37217e-05
4.20294e-06 -1.37217e-05 6.14449e-05
0.00230245 -0.00131218 2.17553e-06
-0.00131218 0.000787948 -9.68054e-07
2.17553e-06 -9.68054e-07 2.23573e-05
0.00175766 -0.00120897 3.57737e-06
-0.00120897 0.000458781 2.42731e-06
3.57737e-06 2.42731e-06 -0.000270141
0.00404121 -0.000753433 1.02167e-05
-0.000753433 0.00220609 1.45611e-05
1.02167e-05 1.45611e-05 0.00170123
0.0010612 -0.000831393 3.3776e-06
-0.000831393 0.000287413 5.24789e-06
3.3776e-06 5.24789e-06 -0.000350421
0.00214094 -0.00108266 -1.9745e-05
-0.00108266 0.000837274 1.15105e-05
-1.9745e-05 1.15105e-05 0.00015102
0.00144154 -0.000324274 5.36682e-06
-0.000324274 0.000556606 -5.92202e-06
5.36682e-06 -5.92202e-06 0.000290687
0.000607366 -0.000338336 -1.03284e-06
-0.000338336 0.000111268 -7.27109e-06
-1.03284e-06 -7.27109e-06 -0.000252259
0.000651145 -0.000246332 -5.6e-06
-0.000246332 9.60739e-05 -2.52525e-06
-5.6e-06 -2.52525e-06 -0.000274746
0.00288589 -0.000116053 -0.000107603
-0.000116053 0.00155878 1.56982e-05
-0.000107603 1.56982e-05 0.00146939
0.000440505 -0.000203369 -3.44684e-06
-0.000203369 -2.89126e-05 1.27691e-06
-3.44684e-06 1.27691e-06 -0.000331188
0.000981587 -0.000353174 -4.85936e-06
-0.000353174 0.000370051 -1.16123e-06
-4.85936e-06 -1.16123e-06 2.92422e-05
0.00144658 9.49822e-06 -0.000104885
9.49822e-06 0.000666162 1.11189e-05
-0.000104885 1.11189e-05 0.000642741
0.00132975 -7.74148e-05 -3.07282e-05
-7.74148e-05 0.000580727 -9.70591e-07
-3.07282e-05 -9.70591e-07 0.000473686
0.00190797 -0.000257988 9.59024e-07
-0.000257988 0.000944706 -8.77435e-06
9.59024e-07 -8.77435e-06 0.000676061
0.000771992 -7.53653e-05 1.29526e-05
-7.53653e-05 0.000203913 -1.61506e-05
1.29526e-05 -1.61506e-05 0.000125632
0.00427522 0.000134479 1.36838e-05
0.000134479 0.00254407 1.0676e-06
1.36838e-05 1.0676e-06 0.00253512
0.00394393 0.000100789 7.67806e-05
0.000100789 0.00231576 -7.76669e-06
7.67806e-05 -7.76669e-06 0.00231461
-0.00217725 7.12313e-05 3.1582e-06
7.12313e-05 -0.00160922 1.10381e-05
3.1582e-06 1.10381e-05 -0.00192715
0.00248625 0.000369666 6.32177e-06
0.000369666 0.00159603 -2.43751e-05
6.32177e-06 -2.43751e-05 0.00113701
-0.000937527 9.31036e-05 4.39493e-06
9.31036e-05 -0.000588496 -2.32154e-07
4.39493e-06 -2.32154e-07 -0.00104151
0.00080465 0.000135243 -7.21393e-07
0.000135243 0.000290651 -1.28967e-05
-7.21393e-07 -1.28967e-05 9.27376e-05
0.000443813 0.000203023 6.12167e-06
0.000203023 0.000202488 -9.10777e-07
6.12167e-06 -9.10777e-07 -0.000147911
0.00029999 2.5126e-05 -4.82654e-06
2.5126e-05 -6.29417e-05 -1.49177e-05
-4.82654e-06 -1.49177e-05 -0.000123581
0.000524241 9.55883e-05 5.57138e-07
9.55883e-05 0.000113595 6.23321e-07
5.57138e-07 6.23321e-07 -5.78375e-05
0.000688398 0.000142953 -4.02885e-06
0.000142953 0.000308808 1.08519e-05
-4.02885e-06 1.08519e-05 4.75169e-05
0.00310038 -6.9234e-05 -4.9912e-05
-6.9234e-05 0.0017629 -7.82202e-06
-4.9912e-05 -7.82202e-06 0.00176732
0.00034252 1.38236e-05 -7.35132e-07
1.38236e-05 -5.03377e-05 -4.70969e-10
-7.35132e-07 -4.70969e-10 -9.82351e-05
0.000335893 9.21204e-05 -2.8416e-06
9.21204e-05 -1.49599e-05 8.42497e-06
-2.8416e-06 8.42497e-06 -0.000157467
0.0027161 -5.4513e-05 -9.07533e-06
-5.4513e-05 0.00150262 5.92257e-07
-9.07533e-06 5.92257e-07 0.00150948
0.000302982 -2.33143e-05 -8.93315e-06
-2.33143e-05 -8.51412e-05 9.16402e-06
-8.93315e-06 9.16402e-06 -0.000122122
0.00248464 -3.29686e-05 2.48633e-05
-3.29686e-05 0.00134562 6.56587e-06
2.48633e-05 6.56587e-06 0.00135649
0.00651385 0.00191496 0.00072192
0.00191496 0.00591318 0.000178755
0.00072192 0.000178755 0.00143985
-0.00176112 0.00138329 -3.54299e-05
0.00138329 0.00339284 -1.20842e-05
-3.54299e-05 -1.20842e-05 -0.00106763
0.000591912 0.00177919 -1.06554e-06
0.00177919 0.00419352 -2.7927e-05
-1.06554e-06 -2.7927e-05 0.000311891
-2.23686e-07 0.000423389 -1.92003e-05
0.000423389 -0.000198594 6.19268e-06
-1.92003e-05 6.19268e-06 -0.000606445
-0.00107807 9.6812e-06 -1.91352e-05
9.6812e-06 -0.000704668 3.09845e-05
-1.91352e-05 3.09845e-05 -0.00115771
-0.00145262 7.91107e-05 -2.58992e-05
7.91107e-05 -0.00102985 -1.70343e-05
-2.58992e-05 -1.70343e-05 -0.00122221
0.00235398 0.000167035 1.15044e-05
0.000167035 0.00147745 -1.74761e-07
1.15044e-05 -1.74761e-07 0.00112462
0.000557089 0.000335591 3.15634e-06
0.000335591 -3.26257e-05 -9.05067e-06
3.15634e-06 -9.05067e-06 -0.000226191
0.000843215 0.000494403 -2.34267e-05
0.000494403 0.000363531 -9.08242e-06
-2.34267e-05 -9.08242e-06 0.000144544
0.00138821 0.00051009 2.04141e-05
0.00051009 0.000582957 -4.23367e-05
2.04141e-05 -4.23367e-05 0.000181553
-0.0019981 0.000144603 -2.27958e-05
0.000144603 -0.000910982 9.25402e-06
-2.27958e-05 9.25402e-06 -0.00133699
-0.000585067 2.8052e-05 -6.29833e-06
2.8052e-05 -0.000441143 -1.01459e-05
-6.29833e-06 -1.01459e-05 -0.000707057
-0.00113175 3.68753e-05 -1.72219e-05
3.68753e-05 -0.000964032 6.90965e-06
-1.72219e-05 6.90965e-06 -0.000996398
-0.000600749 5.74026e-05 -7.80002e-06
5.74026e-05 -0.000161281 3.61659e-06
-7.80002e-06 3.61659e-06 -0.000590059
-0.000313802 0.000412461 -4.3111e-06
0.000412461 0.000167771 2.23754e-05
-4.3111e-06 2.23754e-05 -0.000575222
0.0142949 -0.0110611 -0.000291092
-0.0110611 0.0151852 0.000226073
-0.000291092 0.000226073 0.00114032
0.0111539 0.00462064 0.000330702
0.00462064 0.00488721 0.000211435
0.000330702 0.000211435 -0.00149015
0.00527204 0.00106989 0.000164489
0.00106989 0.00338033 -6.19381e-05
0.000164489 -6.19381e-05 -0.000674591
0.0438811 -0.0110998 -0.00169178
-0.0110998 0.0164603 -0.000503777
-0.00169178 -0.000503777 0.00570064
0.00710193 -0.00114213 0.000342812
-0.00114213 0.006166 0.0006385
0.000342812 0.0006385 2.51357e-05
0.0018237 -0.000543954 -0.000269369
-0.000543954 0.00631436 0.000195333
-0.000269369 0.000195333 -0.0028464
-0.000347336 -0.00272099 -4.70567e-05
-0.00272099 0.00251295 0.000116167
-4.70567e-05 0.000116167 0.000156159
-0.0011526 -0.000321206 0.000226039
-0.000321206 0.00260157 3.85267e-05
0.000226039 3.85267e-05 0.00072545
0.0358697 -0.0211686 0.00041723
-0.0211686 0.0237285 0.000558527
0.00041723 0.000558527 0.00822701
0.00332597 0.0027975 -0.000255315
0.0027975 0.00652871 -0.000155513
-0.000255315 -0.000155513 -0.00195838
0.0153267 -0.00649266 -0.000140329
-0.00649266 0.0128437 0.000213141
-0.000140329 0.000213141 0.000779697
-0.000530286 0.00147355 1.21557e-05
0.00147355 0.00207801 -1.31084e-05
1.21557e-05 -1.31084e-05 0.000478151
0.0054273 0.00734641 -0.000297894
0.00734641 0.0033168 5.80929e-06
-0.000297894 5.80929e-06 -0.00123578
0.0291784 -0.0102978 -0.00119665
-0.0102978 0.0139871 -0.000198132
-0.00119665 -0.000198132 0.00256467
0.00194067 0.0010904 1.78491e-05
0.0010904 0.000853981 3.82854e-05
1.78491e-05 3.82854e-05 0.000521165
0.000389833 0.000483033 7.55922e-06
0.000483033 0.000548863 3.06491e-06
7.55922e-06 3.06491e-06 -0.000132956
-0.000658979 4.26232e-05 -6.09374e-05
4.26232e-05 0.000112013 1.13686e-05
-6.09374e-05 1.13686e-05 -0.000543643
-0.00173799 -0.000339663 -0.000160629
-0.000339663 0.00230157 -3.50276e-05
-0.000160629 -3.50276e-05 6.92146e-05
0.00179313 0.000564029 -6.54825e-05
0.000564029 0.00121978 6.08431e-07
-6.54825e-05 6.08431e-07 0.000642823
-0.000129599 0.000278035 -1.75643e-05
0.000278035 0.000266584 1.0927e-05
-1.75643e-05 1.0927e-05 -0.000221509
0.00126262 0.000964411 -3.93844e-06
0.000964411 0.000691458 -2.69329e-06
-3.93844e-06 -2.69329e-06 0.000124059
0.000123679 0.00126115 -4.53502e-05
0.00126115 0.0015199 -7.01325e-05
-4.53502e-05 -7.01325e-05 -0.000389044
0.00314011 0.0030812 0.000128997
0.0030812 0.00152763 4.48566e-05
0.000128997 4.48566e-05 -0.000147719
-0.00682897 0.00121209 0.00069829
0.00121209 0.00671401 -6.03029e-05
0.00069829 -6.03029e-05 -0.00300365
0.00142092 -0.00111794 -5.40867e-05
-0.00111794 0.00273177 0.000103324
-5.40867e-05 0.000103324 -0.0013726
-0.00268759 0.000304092 -6.79514e-05
0.000304092 0.00423943 0.000132057
-6.79514e-05 0.000132057 -8.04749e-05
-0.00176554 -0.000568961 -6.78511e-05
-0.000568961 0.000956349 5.88183e-06
-6.78511e-05 5.88183e-06 -0.0010288
-0.00152729 -0.001408 -2.96212e-05
-0.001408 0.00118318 1.33068e-05
-2.96212e-05 1.33068e-05 0.000543957
-0.00278934 -0.00184905 -0.000305102
-0.00184905 0.00142799 0.000210299
-0.000305102 0.000210299 -0.00485466
-0.00127538 -0.00752845 0.000419489
-0.00752845 0.00340788 -0.000261979
0.000419489 -0.000261979 -0.00477506
0.0225376 0.00867298 0.00112115
0.00867298 0.00948098 -0.000274353
0.00112115 -0.000274353 -0.000849079
0.0254717 0.0124734 -0.000323736
0.0124734 0.0172937 0.000680656
-0.000323736 0.000680656 0.00316445
0.000373014 -0.00188583 -4.83775e-05
-0.00188583 0.00188975 1.51751e-05
-4.83775e-05 1.51751e-05 0.000160491
0.00729476 0.00356092 0.000496556
0.00356092 0.014418 -7.7697e-05
0.000496556 -7.7697e-05 0.00484049
0.00957121 0.00779316 5.87852e-05
0.00779316 0.00446797 0.000122384
5.87852e-05 0.000122384 -0.00276537
0.00238841 -0.00590643 7.8294e-05
-0.00590643 0.001071 -5.85374e-05
7.8294e-05 -5.85374e-05 0.000608716
0.0120934 -0.00943738 2.34616e-07
-0.00943738 -0.000988439 2.17426e-05
2.34616e-07 2.17426e-05 -0.00157106
0.00251324 -0.00308418 4.13328e-05
-0.00308418 0.00120233 5.63045e-06
4.13328e-05 5.63045e-06 0.000376979
-0.00202601 0.00460085 -0.00171901
0.00460085 0.00201573 0.000148266
-0.00171901 0.000148266 -0.0061188
0.0153662 -0.00610792 -0.000492325
-0.00610792 -0.00264473 7.99125e-05
-0.000492325 7.99125e-05 -0.00158803
0.00496272 -0.00593041 0.000120719
-0.00593041 -0.000736623 -0.000102232
0.000120719 -0.000102232 0.000993095
0.000226142 -0.000904983 -1.44109e-05
-0.000904983 0.000753303 -7.16247e-06
-1.44109e-05 -7.16247e-06 -0.00019995
0.0023757 -0.00180344 3.57649e-05
-0.00180344 0.000914196 -1.69587e-05
3.57649e-05 -1.69587e-05 0.000157875
0.00248046 -0.00153188 2.45943e-06
-0.00153188 0.000458584 -1.41808e-05
2.45943e-06 -1.41808e-05 -9.6698e-05
-9.8421e-05 -0.000946762 -4.18414e-06
-0.000946762 -0.000275214 3.1454e-06
-4.18414e-06 3.1454e-06 -0.000891216
0.00245031 -0.00163685 -5.91718e-06
-0.00163685 0.000483005 1.49585e-06
-5.91718e-06 1.49585e-06 -0.000160338
0.00394977 -0.00175856 -1.72053e-06
-0.00175856 0.00101865 -3.99223e-06
-1.72053e-06 -3.99223e-06 0.000419933
0.00184059 -0.00134746 -7.73339e-07
-0.00134746 0.000379064 1.12255e-05
-7.73339e-07 1.12255e-05 -0.000530314
0.00297141 -0.00167529 -8.98225e-07
-0.00167529 0.000672843 4.27121e-06
-8.98225e-07 4.27121e-06 -0.000105926
0.00313215 -0.00131668 -6.04736e-07
-0.00131668 0.000481038 -3.09898e-06
-6.04736e-07 -3.09898e-06 6.12766e-05
0.00234574 -0.0014342 6.12029e-06
-0.0014342 0.000576541 4.26262e-06
6.12029e-06 4.26262e-06 -0.000238417
0.00265076 -0.00114825 -2.75397e-06
-0.00114825 0.000427449 3.32106e-06
-2.75397e-06 3.32106e-06 -8.24082e-05
0.00250369 -0.000811002 5.0785e-07
-0.000811002 9.24725e-05 -9.36918e-07
5.0785e-07 -9.36918e-07 -9.97088e-05
0.00252316 -0.000774706 -2.93257e-06
-0.000774706 0.000229367 5.00319e-07
-2.93257e-06 5.00319e-07 5.30866e-05
0.00205664 -0.000705629 -3.81036e-06
-0.000705629 -9.11867e-06 -1.1869e-06
-3.81036e-06 -1.1869e-06 -0.000279456
0.00220423 -0.000708351 9.37664e-07
-0.000708351 2.39691e-05 2.70033e-06
9.37664e-07 2.70033e-06 -0.000214304
0.00213127 -0.000914145 -3.81499e-06
-0.000914145 0.000165385 -5.61104e-06
-3.81499e-06 -5.61104e-06 -0.000289043
0.00240245 -0.00105387 4.18695e-06
-0.00105387 0.000294968 6.18614e-07
4.18695e-06 6.18614e-07 -0.000217757
0.00266968 -0.00111289 3.55e-06
-0.00111289 0.000450096 4.98204e-06
3.55e-06 4.98204e-06 -7.6863e-05
0.00260722 -0.00118371 -3.67978e-06
-0.00118371 0.000724942 -7.14348e-06
-3.67978e-06 -7.14348e-06 7.09488e-05
0.00290257 -0.00131191 1.28004e-06
-0.00131191 0.000883822 -9.42052e-07
1.28004e-06 -9.42052e-07 0.000191159
0.0032365 -0.00149015 5.90072e-07
-0.00149015 0.00105634 1.37332e-08
5.90072e-07 1.37332e-08 0.000273767
0.00175639 -0.00084396 -1.00176e-05
-0.00084396 0.000467197 -3.81239e-06
-1.00176e-05 -3.81239e-06 -0.000128112
0.00252547 -0.00122256 1.39248e-06
-0.00122256 0.000939736 -4.09655e-07
1.39248e-06 -4.09655e-07 0.000195779
0.00182189 -0.00124724 -1.19613e-06
-0.00124724 0.000514675 7.23102e-06
-1.19613e-06 7.23102e-06 -0.000235258
0.000679584 -0.000422744 -1.35565e-05
-0.000422744 -4.26869e-05 -2.72309e-06
-1.35565e-05 -2.72309e-06 -0.000281347
0.00147862 -0.00074392 4.09671e-06
-0.00074392 0.000567931 2.63902e-06
4.09671e-06 2.63902e-06 6.48628e-05
-4.22324e-05 -0.00070767 -9.98721e-06
-0.00070767 -0.000351055 1.14639e-05
-9.98721e-06 1.14639e-05 -0.000961826
0.000425779 -0.000174861 -3.02662e-05
-0.000174861 -8.95515e-05 1.49267e-05
-3.02662e-05 1.49267e-05 -0.000208328
0.000850921 -0.000427696 3.99967e-06
-0.000427696 0.000245384 1.76689e-07
3.99967e-06 1.76689e-07 -7.06327e-05
-0.00229877 -0.000358695 -6.96006e-06
-0.000358695 -0.00174687 -1.11079e-05
-6.96006e-06 -1.11079e-05 -0.0021012
0.00636597 0.000413398 4.04792e-05
0.000413398 0.00402454 1.43213e-05
4.04792e-05 1.43213e-05 0.00392771
0.000552079 -0.000164879 6.94598e-06
-0.000164879 1.07461e-05 2.02135e-06
6.94598e-06 2.02135e-06 -0.000110457
0.000423531 -0.000156178 -5.20698e-06
-0.000156178 -6.17504e-05 3.00484e-07
-5.20698e-06 3.00484e-07 -0.000353923
0.00451558 0.000159848 2.13136e-05
0.000159848 0.00271506 1.08969e-06
2.13136e-05 1.08969e-06 0.00269866
0.000577032 -0.000100883 1.02542e-05
-0.000100883 8.35695e-05 -1.845e-05
1.02542e-05 -1.845e-05 -4.12514e-05
0.00406794 0.000119896 8.38363e-05
0.000119896 0.00240128 -1.04857e-05
8.38363e-05 -1.04857e-05 0.00239565
0.00262787 0.00052503 -1.78183e-06
0.00052503 0.00129733 1.02669e-05
-1.78183e-06 1.02669e-05 0.000944576
7.11712e-05 0.000217934 4.3444e-06
0.000217934 -0.000231958 1.15274e-06
4.3444e-06 1.15274e-06 -0.000537577
0.00136159 0.000775941 -4.92455e-06
0.000775941 0.000768599 -3.94619e-06
-4.92455e-06 -3.94619e-06 0.000329163
0.00159576 0.000314257 -3.51636e-06
0.000314257 0.000774252 -1.1534e-05
-3.51636e-06 -1.1534e-05 0.0005467
0.0013119 0.000206324 -3.47324e-07
0.000206324 0.00085946 1.04135e-06
-3.47324e-07 1.04135e-06 0.000377497
-0.00111453 0.000126767 -2.87886e-06
0.000126767 -0.000628505 5.86463e-06
-2.87886e-06 5.86463e-06 -0.00111516
0.000606279 1.63642e-05 -5.31935e-06
1.63642e-05 0.000140305 -1.63339e-05
-5.31935e-06 -1.63339e-05 6.3393e-05
0.00058378 0.000126576 4.52976e-07
0.000126576 0.000144645 9.04489e-07
4.52976e-07 9.04489e-07 -4.57527e-05
-0.000639409 5.9359e-05 -9.40788e-06
5.9359e-05 -0.000575375 3.15434e-05
-9.40788e-06 3.15434e-05 -0.00087158
0.00367068 -9.39937e-05 -6.75277e-05
-9.39937e-05 0.00214918 -8.79174e-06
-6.75277e-05 -8.79174e-06 0.00214899
0.000404216 -3.16914e-05 9.46521e-07
-3.16914e-05 4.45162e-06 -4.53421e-07
9.46521e-07 -4.53421e-07 -5.63528e-05
0.000605582 9.2644e-05 -3.46107e-06
9.2644e-05 0.000177546 1.08119e-05
-3.46107e-06 1.08119e-05 -2.01876e-07
0.00311775 -7.69833e-05 -1.06863e-05
-7.69833e-05 0.00177567 8.8382e-07
-1.06863e-05 8.8382e-07 0.00177792
0.000405715 3.32716e-05 5.02747e-07
3.32716e-05 -1.07236e-05 1.1309e-05
5.02747e-07 1.1309e-05 -5.71916e-05
0.00273875 -5.6976e-05 2.52298e-05
-5.6976e-05 0.00151758 6.98034e-06
2.52298e-05 6.98034e-06 0.00152398
-0.00290297 -0.000716008 -0.00063106
-0.000716008 0.00723362 0.000107474
-0.00063106 0.000107474 -0.00262997
0.00674378 0.00169796 0.000109956
0.00169796 0.00489601 6.59551e-06
0.000109956 6.59551e-06 0.000766016
-0.000636579 0.0015491 0.000306309
0.0015491 0.00335783 0.000128447
0.000306309 0.000128447 -0.00114525
0.000642805 0.000388104 -1.08648e-05
0.000388104 0.000270144 7.98022e-06
-1.08648e-05 7.98022e-06 -0.000225461
0.00417157 0.00124136 1.14076e-05
0.00124136 0.0023061 3.436e-05
1.14076e-05 3.436e-05 0.00160166
0.000875455 0.000373061 -2.28391e-05
0.000373061 0.000796969 3.45551e-06
-2.28391e-05 3.45551e-06 4.54203e-05
0.000367867 0.000235298 -1.28778e-05
0.000235298 0.000278706 -1.80715e-05
-1.28778e-05 -1.80715e-05 -0.000114965
0.00362348 0.000609724 -4.8779e-06
0.000609724 0.00186972 -4.10208e-06
-4.8779e-06 -4.10208e-06 0.0016072
-0.00263074 0.000112178 -8.27223e-06
0.000112178 -0.00184519 2.27176e-05
-8.27223e-06 2.27176e-05 -0.00187352
-0.000675868 0.000289543 -6.72462e-07
0.000289543 -0.000275578 9.97667e-06
-6.72462e-07 9.97667e-06 -0.000681194
0.00103304 0.000389221 -1.40542e-05
0.000389221 0.000559233 -8.28755e-07
-1.40542e-05 -8.28755e-07 0.000100436
0.00128046 0.00100031 -2.86422e-05
0.00100031 0.000775745 -7.52938e-06
-2.86422e-05 -7.52938e-06 7.88814e-05
-0.00146856 0.000773671 -5.41078e-05
0.000773671 -0.00116612 8.39919e-05
-5.41078e-05 8.39919e-05 -0.00145223
-0.000770778 9.62077e-05 -1.44414e-05
9.62077e-05 -0.000354733 1.88515e-05
-1.44414e-05 1.88515e-05 -0.000746587
0.00173107 0.000763535 2.77656e-05
0.000763535 0.00125777 -1.95004e-06
2.77656e-05 -1.95004e-06 0.000619756
0.00793532 -0.00662814 -0.00369689
-0.00662814 0.00541806 0.000145076
-0.00369689 0.000145076 -0.00359373
0.00707071 -0.00856791 0.00118165
-0.00856791 0.0155594 -1.28185e-05
0.00118165 -1.28185e-05 0.00329423
0.011322 0.00525091 -0.00137861
0.00525091 0.00405015 -0.000393362
-0.00137861 -0.000393362 -0.00317742
0.0317121 -0.0242213 0.00274238
-0.0242213 0.0230015 0.00173554
0.00274238 0.00173554 0.00671738
0.033147 -0.00627751 -0.000284172
-0.00627751 0.0155975 0.00064149
-0.000284172 0.00064149 0.00568462
-0.00072822 0.00218976 -0.00019981
0.00218976 0.00503364 -0.000258822
-0.00019981 -0.000258822 -0.00231732
-0.000255493 -0.000164102 -0.000193591
-0.000164102 0.00418793 4.20011e-05
-0.000193591 4.20011e-05 0.00161354
0.000343682 0.00159218 6.81997e-05
0.00159218 0.00287056 5.72287e-05
6.81997e-05 5.72287e-05 0.00130617
0.0317736 -0.00920882 -0.00107352
-0.00920882 0.0153939 0.00027832
-0.00107352 0.00027832 0.00423184
-0.00111596 0.00732568 -0.000399673
0.00732568 0.00142927 -5.01556e-05
-0.000399673 -5.01556e-05 -0.00384392
0.00267384 0.00467692 3.1304e-05
0.00467692 0.0013201 -0.000123596
3.1304e-05 -0.000123596 0.00135763
0.00740006 0.012249 -0.00119305
0.012249 -0.00332808 -0.000126951
-0.00119305 -0.000126951 -0.00386644
0.00416968 0.00201576 4.00864e-05
0.00201576 0.00181283 1.51079e-05
4.00864e-05 1.51079e-05 0.00114613
0.00161825 0.00100882 -8.67814e-06
0.00100882 0.000622817 -5.27334e-06
-8.67814e-06 -5.27334e-06 0.00036003
-3.20038e-05 0.000391525 -5.53334e-05
0.000391525 0.000290824 -1.29283e-05
-5.53334e-05 -1.29283e-05 -0.000370088
-0.000212918 0.00130053 -0.000164404
0.00130053 0.0015065 -8.85697e-05
-0.000164404 -8.85697e-05 -0.000193352
0.00106688 0.00103724 -8.18492e-05
0.00103724 0.000576843 -6.79439e-05
-8.18492e-05 -6.79439e-05 3.88357e-05
0.00321845 0.0031215 1.91356e-06
0.0031215 0.00138337 -1.55756e-05
1.91356e-06 -1.55756e-05 -0.000193452
-0.000823555 0.00318909 0.000169283
0.00318909 -0.00193588 0.000114225
0.000169283 0.000114225 -0.00251621
-0.0071969 -0.000783152 -0.00146714
-0.000783152 0.000305857 6.93892e-05
-0.00146714 6.93892e-05 -0.00586441
-0.0103133 0.000625389 0.00101513
0.000625389 0.00715678 -2.34904e-05
0.00101513 -2.34904e-05 -0.00057001
0.00150781 0.000549695 -0.000280159
0.000549695 0.00272324 4.25039e-05
-0.000280159 4.25039e-05 -0.000225908
0.00109917 -0.00215965 -0.000118926
-0.00215965 0.00165041 -7.65778e-05
-0.000118926 -7.65778e-05 -6.62707e-05
0.000708074 -0.00497344 0.000210268
-0.00497344 0.000710896 4.38686e-05
0.000210268 4.38686e-05 8.70622e-05
0.00389505 0.0036677 0.000806199
0.0036677 0.0135144 0.000203611
0.000806199 0.000203611 0.00389098
0.00594886 -0.00942693 0.00123895
-0.00942693 -0.00414989 -0.000159985
0.00123895 -0.000159985 -0.00317981
0.0236461 0.0079433 0.00239734
0.0079433 0.0146635 0.000183185
0.00239734 0.000183185 0.00607622
0.00356211 -0.0039737 -2.25302e-05
-0.0039737 0.00138266 -5.90213e-06
-2.25302e-05 -5.90213e-06 0.000116813
0.0076155 0.00551624 0.000569571
0.00551624 0.00530765 -0.000173379
0.000569571 -0.000173379 -0.00244812
0.00825258 -0.00608005 -0.000364169
-0.00608005 -0.00733294 0.000225827
-0.000364169 0.000225827 -0.00597547
0.00283364 -0.00519401 -5.6923e-05
-0.00519401 -0.00162068 6.42316e-05
-5.6923e-05 6.42316e-05 0.000598287
0.0030643 -0.00296434 4.82197e-05
-0.00296434 -9.30395e-05 -2.70978e-05
4.82197e-05 -2.70978e-05 -7.74328e-05
0.0188153 -0.00156905 -0.000129516
-0.00156905 0.000187888 0.00015213
-0.000129516 0.00015213 0.00113965
0.0033492 -0.00375371 0.000145849
-0.00375371 -0.0049221 -0.000176985
0.000145849 -0.000176985 -0.00117417
0.00342361 -0.00217112 -8.29708e-05
-0.00217112 0.00137412 4.8284e-05
-8.29708e-05 4.8284e-05 0.00064305
0.000573902 -0.00127052 -1.63255e-05
-0.00127052 -0.000562531 2.3273e-06
-1.63255e-05 2.3273e-06 -0.000926685
0.00592392 -0.00176533 5.52459e-05
-0.00176533 0.00195583 -2.79709e-05
5.52459e-05 -2.79709e-05 0.00158313
0.000800989 -0.00141279 -7.70487e-06
-0.00141279 -0.000356554 2.31513e-06
-7.70487e-06 2.31513e-06 -0.000966325
0.00308803 -0.00163357 1.20949e-06
-0.00163357 0.000587012 -1.7119e-06
1.20949e-06 -1.7119e-06 2.91751e-05
0.00330583 -0.00129398 -3.48917e-07
-0.00129398 0.000396318 -2.99518e-06
-3.48917e-07 -2.99518e-06 0.000210564
0.00260406 -0.00161983 9.18655e-06
-0.00161983 0.000477655 1.25322e-05
9.18655e-06 1.25322e-05 -0.000290984
0.00290727 -0.00127216 -4.14334e-06
-0.00127216 0.000359239 1.98401e-06
-4.14334e-06 1.98401e-06 -3.72738e-05
0.00267067 -0.000874794 -6.222e-07
-0.000874794 6.44908e-06 -1.01507e-06
-6.222e-07 -1.01507e-06 -2.2648e-05
0.00222556 -0.00108401 5.98182e-06
-0.00108401 0.000179568 7.12954e-06
5.98182e-06 7.12954e-06 -0.00030859
0.00241576 -0.000795099 -4.58049e-08
-0.000795099 3.40824e-05 2.50494e-06
-4.58049e-08 2.50494e-06 -0.000146222
0.00258442 -0.000844037 -2.14373e-06
-0.000844037 8.6322e-05 6.17878e-07
-2.14373e-06 6.17878e-07 -3.00955e-06
0.00251042 -0.000810595 -4.17159e-06
-0.000810595 0.000132274 -1.05348e-07
-4.17159e-06 -1.05348e-07 -8.69661e-06
0.00246183 -0.000772015 -3.6853e-06
-0.000772015 0.000177906 2.00043e-06
-3.6853e-06 2.00043e-06 1.03681e-05
0.00248703 -0.000739488 -8.01426e-07
-0.000739488 0.000290498 -1.78393e-06
-8.01426e-07 -1.78393e-06 7.99007e-05
0.00245919 -0.000761951 -5.75756e-06
-0.000761951 0.000301456 -2.66219e-06
-5.75756e-06 -2.66219e-06 -4.13687e-06
0.00231288 -0.000719585 1.25855e-06
-0.000719585 0.000171558 1.45373e-06
1.25855e-06 1.45373e-06 -0.000102498
0.00220186 -0.000707008 2.22533e-06
-0.000707008 1.62586e-06 6.96207e-06
2.22533e-06 6.96207e-06 -0.00023399
0.00234807 -0.000913787 -5.70784e-06
-0.000913787 0.000347221 -7.58658e-06
-5.70784e-06 -7.58658e-06 -0.000110468
0.00207922 -0.000925217 -4.43493e-07
-0.000925217 0.000112204 7.5419e-09
-4.43493e-07 7.5419e-09 -0.000348164
0.00250464 -0.00105569 7.47859e-06
-0.00105569 0.000380198 5.62581e-06
7.47859e-06 5.62581e-06 -0.000127375
0.00183878 -0.00097826 -9.93893e-06
-0.00097826 0.000273759 -6.49884e-06
-9.93893e-06 -6.49884e-06 -0.000325147
0.00265347 -0.0011946 -9.05176e-07
-0.0011946 0.000728551 6.01158e-07
-9.05176e-07 6.01158e-07 7.16663e-05
0.0025714 -0.00128058 4.41363e-06
-0.00128058 0.00067036 4.17771e-06
4.41363e-06 4.17771e-06 -1.94233e-05
0.000813219 -0.000359793 -7.41543e-06
-0.000359793 -3.61175e-05 8.77171e-06
-7.41543e-06 8.77171e-06 -0.000343904
0.00174178 -0.000850285 -1.48155e-06
-0.000850285 0.000450139 2.78989e-06
-1.48155e-06 2.78989e-06 -0.00014041
0.00241403 -0.00120267 2.97965e-07
-0.00120267 0.000868538 1.07767e-05
2.97965e-07 1.07767e-05 0.000131196
0.000236642 -0.000213243 -1.87806e-05
-0.000213243 -0.000204126 2.54926e-05
-1.87806e-05 2.54926e-05 -0.000377221
0.00126087 -0.000448458 -1.12102e-05
-0.000448458 0.000376866 7.85003e-07
-1.12102e-05 7.85003e-07 9.47207e-05
-0.00162427 -0.000699801 1.43702e-06
-0.000699801 -0.001395 -3.19108e-06
1.43702e-06 -3.19108e-06 -0.00190405
0.00635675 0.000189523 -0.00018341
0.000189523 0.00393687 1.58629e-05
-0.00018341 1.58629e-05 0.00391394
0.000600676 -0.000190113 -5.51161e-06
-0.000190113 2.40003e-05 -1.84742e-06
-5.51161e-06 -1.84742e-06 -0.000105536
-1.42623e-05 -0.000405948 1.77774e-05
-0.000405948 -0.000252459 -2.33299e-06
1.77774e-05 -2.33299e-06 -0.000602977
0.00370565 0.000146963 9.65819e-05
0.000146963 0.00219526 -1.70233e-06
9.65819e-05 -1.70233e-06 0.00214782
0.000192758 -0.000176334 2.91687e-05
-0.000176334 -0.000218164 -1.5344e-05
2.91687e-05 -1.5344e-05 -0.00034671
0.00555861 0.000121859 0.000175756
0.000121859 0.00339751 -1.47546e-05
0.000175756 -1.47546e-05 0.00339115
0.0015002 0.000632669 -1.62116e-05
0.000632669 0.000503019 1.37916e-05
-1.62116e-05 1.37916e-05 -6.60905e-06
0.000730704 0.000347608 -6.5336e-06
0.000347608 0.000165859 1.25738e-06
-6.5336e-06 1.25738e-06 -0.000186736
-0.000232868 0.000200671 8.6789e-06
0.000200671 -0.000464892 6.15963e-06
8.6789e-06 6.15963e-06 -0.00076706
0.00239069 0.000441722 4.69941e-06
0.000441722 0.00127806 -4.99139e-06
4.69941e-06 -4.99139e-06 0.000933965
0.00121921 0.00019199 2.61249e-07
0.00019199 0.000646146 -3.38931e-07
2.61249e-07 -3.38931e-07 0.000250166
0.00143684 0.000178213 1.14985e-06
0.000178213 0.0007473 -1.66354e-05
1.14985e-06 -1.66354e-05 0.000427756
0.00084009 0.000124452 -1.93777e-05
0.000124452 0.000270209 -2.12026e-05
-1.93777e-05 -2.12026e-05 0.000179683
0.000764654 0.000172941 -1.97495e-06
0.000172941 0.000298307 5.65322e-07
-1.97495e-06 5.65322e-07 4.32673e-05
-0.00224747 -4.08576e-05 -1.70556e-05
-4.08576e-05 -0.00146434 2.85906e-05
-1.70556e-05 2.85906e-05 -0.00191734
0.0035951 -9.74156e-05 -8.61151e-05
-9.74156e-05 0.00210569 -1.18704e-05
-8.61151e-05 -1.18704e-05 0.00210557
0.000231132 6.63872e-05 1.09449e-06
6.63872e-05 -0.000102976 -4.73134e-07
1.09449e-06 -4.73134e-07 -0.00017543
0.00073058 0.000154679 -3.31489e-06
0.000154679 0.00025142 1.19851e-05
-3.31489e-06 1.19851e-05 5.86533e-05
0.00327994 -9.47814e-05 -1.11027e-05
-9.47814e-05 0.00189249 9.391e-07
-1.11027e-05 9.391e-07 0.00189101
0.000149285 -1.82365e-06 1.92122e-06
-1.82365e-06 -0.00015975 1.35018e-05
1.92122e-06 1.35018e-05 -0.000219691
0.00291973 -7.8435e-05 3.21323e-05
-7.8435e-05 0.00164473 7.72459e-06
3.21323e-05 7.72459e-06 0.00164641
0.00269432 -0.00234952 -0.00237812
-0.00234952 0.00458856 2.25639e-05
-0.00237812 2.25639e-05 0.000978256
-0.00128585 -0.00204313 -0.000139423
-0.00204313 0.00903343 -7.76042e-05
-0.000139423 -7.76042e-05 -0.00141214
0.00720689 0.0012225 -0.000705767
0.0012225 0.00448001 -0.000185475
-0.000705767 -0.000185475 0.000575258
9.73182e-05 0.000209359 -2.00763e-06
0.000209359 -7.76115e-05 9.8836e-06
-2.00763e-06 9.8836e-06 -0.000559739
0.000958242 0.000292651 1.44819e-05
0.000292651 0.000712072 2.99955e-06
1.44819e-05 2.99955e-06 9.08278e-06
0.00235209 0.000995967 -4.36894e-06
0.000995967 0.0011639 -1.19031e-06
-4.36894e-06 -1.19031e-06 0.000475555
0.00219746 0.00123334 1.2977e-05
0.00123334 0.000841754 2.08475e-05
1.2977e-05 2.08475e-05 0.00011611
0.00127128 0.000981075 -2.1042e-05
0.000981075 0.000801 2.18266e-05
-2.1042e-05 2.18266e-05 4.62575e-05
0.00287596 0.000507292 3.67244e-06
0.000507292 0.00182551 1.73379e-06
3.67244e-06 1.73379e-06 0.00148928
0.00172443 0.000469819 2.29013e-05
0.000469819 0.00111006 1.61943e-05
2.29013e-05 1.61943e-05 0.000607186
0.00226003 0.00100388 -5.84823e-06
0.00100388 0.00134297 -7.50786e-08
-5.84823e-06 -7.50786e-08 0.00066089
0.00226403 0.00143659 -1.70236e-05
0.00143659 0.000799703 7.09517e-06
-1.70236e-05 7.09517e-06 0.000153016
0.00280538 0.00142825 -9.17998e-06
0.00142825 0.00105851 6.08953e-05
-9.17998e-06 6.08953e-05 0.000680441
0.00217491 0.00184834 4.50803e-05
0.00184834 0.000278109 -5.59065e-06
4.50803e-05 -5.59065e-06 -0.000189935
0.00141946 0.0011471 1.75106e-05
0.0011471 0.000526978 9.15435e-06
1.75106e-05 9.15435e-06 7.57892e-05
0.00306408 0.000975294 -1.00573e-05
0.000975294 0.00205544 -1.60261e-06
-1.00573e-05 -1.60261e-06 0.00128781
0.0182935 0.00667784 -0.000189182
0.00667784 -0.000249172 8.05287e-05
-0.000189182 8.05287e-05 0.00109601
0.0137601 -0.00519956 -0.000985576
-0.00519956 0.00794506 -0.000233712
-0.000985576 -0.000233712 0.00134953
0.0073555 -0.0097361 0.00197586
-0.0097361 0.017073 0.000134858
0.00197586 0.000134858 0.00516912
0.023677 -0.0056319 0.000780534
-0.0056319 0.010414 0.00016094
0.000780534 0.00016094 0.000604912
0.0099306 0.00929672 -0.000274014
0.00929672 0.00469126 -0.000109931
-0.000274014 -0.000109931 -6.75369e-05
-0.000953045 0.00151194 1.67661e-05
0.00151194 0.00239203 3.21514e-05
1.67661e-05 3.21514e-05 0.00070533
0.00174536 0.00425956 -0.000159967
0.00425956 0.00081244 -8.60207e-05
-0.000159967 -8.60207e-05 0.00129232
0.0110706 0.0102158 7.0593e-05
0.0102158 -0.00070065 8.76338e-05
7.0593e-05 8.76338e-05 -0.00210007
0.00808185 0.00725239 -0.000216937
0.00725239 -0.000894015 -0.000160765
-0.000216937 -0.000160765 0.000395452
0.00165134 0.00198848 1.54863e-05
0.00198848 0.000122504 -2.02281e-05
1.54863e-05 -2.02281e-05 -0.000371105
0.00190405 0.00159253 1.87543e-05
0.00159253 0.000638321 3.1019e-06
1.87543e-05 3.1019e-06 0.000107369
0.00141627 0.000910851 -2.76553e-05
0.000910851 0.000569839 -3.99744e-05
-2.76553e-05 -3.99744e-05 0.000343026
0.00144155 0.00292796 -9.32649e-05
0.00292796 0.000259022 -5.63758e-05
-9.32649e-05 -5.63758e-05 -0.00119834
0.00315342 0.00367475 0.000128359
0.00367475 -4.58194e-05 6.08333e-05
0.000128359 6.08333e-05 -0.000997333
0.00769227 -0.000451612 -7.04772e-05
-0.000451612 -0.00601063 2.41017e-05
-7.04772e-05 2.41017e-05 -0.00664787
-0.00010409 -0.00284267 -2.31931e-05
-0.00284267 0.00548846 0.00010999
-2.31931e-05 0.00010999 0.0009015
-0.013957 -0.000189951 0.00120154
-0.000189951 0.00835638 1.76227e-05
0.00120154 1.76227e-05 0.00266167
0.00269727 -0.00459646 -0.000147294
-0.00459646 0.000452558 9.12704e-05
-0.000147294 9.12704e-05 -0.00106196
0.00682838 -0.00679158 -9.95457e-07
-0.00679158 -0.000727367 0.000121493
-9.95457e-07 0.000121493 0.000944081
0.00867605 0.00242972 0.00237095
0.00242972 0.00709557 -0.000392573
0.00237095 -0.000392573 0.00290214
0.0137988 -0.00570172 -0.000475741
-0.00570172 -0.00350855 0.000350396
-0.000475741 0.000350396 -0.00108452
0.00244711 -0.00293045 -3.8419e-05
-0.00293045 -0.000476294 1.44099e-05
-3.8419e-05 1.44099e-05 -0.000574096
0.0133219 -0.00113646 -0.000423875
-0.00113646 -0.0039077 0.000141872
-0.000423875 0.000141872 -0.00317774
0.00771017 -0.00440941 0.000115689
-0.00440941 -0.00218624 -1.76744e-06
0.000115689 -1.76744e-06 0.000574739
0.00346562 -0.0022984 5.73932e-05
-0.0022984 -0.000980994 -7.27363e-05
5.73932e-05 -7.27363e-05 -0.000300645
0.0037121 -0.00178831 0.000125941
-0.00178831 -0.00403651 -3.17385e-05
0.000125941 -3.17385e-05 -0.000390252
-0.000486688 -0.00116367 1.0441e-06
-0.00116367 -0.00122034 1.88739e-05
1.0441e-06 1.88739e-05 -0.00143461
0.00192399 -0.00130363 -3.08695e-05
-0.00130363 -0.000380904 9.1819e-06
-3.08695e-05 9.1819e-06 -0.00036399
0.00452476 -0.00126772 5.02965e-05
-0.00126772 0.000890336 -2.56554e-05
5.02965e-05 -2.56554e-05 0.00101504
0.00207787 -0.00148519 -6.94687e-06
-0.00148519 7.72359e-05 1.03648e-05
-6.94687e-06 1.03648e-05 -0.000428743
0.00298637 -0.001278 -4.81325e-06
-0.001278 0.000208096 1.97164e-06
-4.81325e-06 1.97164e-06 2.33322e-05
0.00300536 -0.00096392 5.1089e-06
-0.00096392 3.65607e-06 -2.55762e-06
5.1089e-06 -2.55762e-06 8.89283e-05
0.00257389 -0.00120891 -1.09538e-05
-0.00120891 0.000185385 9.64109e-06
-1.09538e-05 9.64109e-06 -0.000182966
0.00257503 -0.00086541 -7.29851e-08
-0.00086541 -5.43061e-05 1.40818e-06
-7.29851e-08 1.40818e-06 -8.15871e-05
0.00274207 -0.000844106 -1.08083e-06
-0.000844106 1.90447e-05 -1.35585e-06
-1.08083e-06 -1.35585e-06 4.11687e-05
0.0023418 -0.000777163 2.02363e-06
-0.000777163 -1.03016e-05 4.73931e-06
2.02363e-06 4.73931e-06 -0.00017811
0.00256362 -0.000834805 -1.51912e-07
-0.000834805 8.80901e-05 6.5733e-07
-1.51912e-07 6.5733e-07 -3.23599e-06
0.00266495 -0.000820946 -2.17806e-06
-0.000820946 8.4605e-05 -5.55669e-07
-2.17806e-06 -5.55669e-07 1.58975e-05
0.00247457 -0.000812848 -5.06594e-06
-0.000812848 0.000104848 4.97371e-07
-5.06594e-06 4.97371e-07 -2.78488e-05
0.00243005 -0.000760166 -1.14161e-06
-0.000760166 0.000128687 -9.37837e-07
-1.14161e-06 -9.37837e-07 -1.98537e-05
0.00240671 -0.000769632 2.698e-07
-0.000769632 0.000134135 3.44524e-06
2.698e-07 3.44524e-06 -2.56278e-05
0.00246942 -0.00073567 9.60231e-07
-0.00073567 0.000277928 -5.50815e-07
9.60231e-07 -5.50815e-07 7.0453e-05
0.00238696 -0.000730542 -2.70831e-06
-0.000730542 0.000274581 -6.44467e-07
-2.70831e-06 -6.44467e-07 2.83816e-05
0.00251473 -0.000779614 -1.17126e-06
-0.000779614 0.00040701 -6.47022e-06
-1.17126e-06 -6.47022e-06 7.06548e-05
0.00254659 -0.000770323 -3.87528e-07
-0.000770323 0.000361694 6.06614e-08
-3.87528e-07 6.06614e-08 5.13981e-05
0.00258446 -0.000733001 7.60253e-06
-0.000733001 0.000366383 3.94208e-06
7.60253e-06 3.94208e-06 8.89202e-05
0.00212573 -0.000881095 -8.197e-06
-0.000881095 0.000306957 -3.83273e-06
-8.197e-06 -3.83273e-06 -0.000186978
0.00230907 -0.000925115 -3.14105e-06
-0.000925115 0.000303827 -9.68828e-07
-3.14105e-06 -9.68828e-07 -0.000162684
0.00197902 -0.000928913 4.62271e-06
-0.000928913 2.98112e-05 5.2969e-06
4.62271e-06 5.2969e-06 -0.000434349
0.00205978 -0.000626574 -1.41513e-05
-0.000626574 0.00067726 1.23157e-05
-1.41513e-05 1.23157e-05 0.000246035
0.00213481 -0.00100681 -1.66978e-06
-0.00100681 0.000480094 1.09068e-06
-1.66978e-06 1.09068e-06 -0.000123694
0.00281957 -0.00122018 3.59372e-06
-0.00122018 0.000807919 7.61561e-06
3.59372e-06 7.61561e-06 0.000144601
0.000441058 -0.000280407 -1.79142e-05
-0.000280407 -0.000123228 2.84517e-05
-1.79142e-05 2.84517e-05 -0.000324029
0.000667934 -0.00036167 3.52896e-06
-0.00036167 -0.000131851 -3.4983e-06
3.52896e-06 -3.4983e-06 -0.000453454
0.00225266 -0.000901512 1.08801e-05
-0.000901512 0.000772481 3.93262e-06
1.08801e-05 3.93262e-06 0.000180788
0.00681009 5.53882e-05 -0.000238355
5.53882e-05 0.00419169 2.05991e-05
-0.000238355 2.05991e-05 0.00419412
0.00041819 -0.000229482 -4.47807e-06
-0.000229482 -8.76167e-05 -5.53798e-07
-4.47807e-06 -5.53798e-07 -0.000267533
0.00164229 -0.000591012 1.02563e-05
-0.000591012 0.000729662 -3.72435e-06
1.02563e-05 -3.72435e-06 0.000373262
0.00619295 0.000140894 1.24506e-05
0.000140894 0.00381992 -3.69089e-06
1.24506e-05 -3.69089e-06 0.00380536
0.00101912 -0.000217677 2.26912e-05
-0.000217677 0.000287971 -2.00855e-05
2.26912e-05 -2.00855e-05 0.000154335
0.00600221 0.000203789 0.000146715
0.000203789 0.00372014 -2.06619e-05
0.000146715 -2.06619e-05 0.00368931
0.0030698 0.00121442 -1.06282e-05
0.00121442 0.00139033 1.71171e-05
-1.06282e-05 1.71171e-05 0.000659261
0.0018368 0.000745751 -1.50463e-06
0.000745751 0.000760962 2.66967e-06
-1.50463e-06 2.66967e-06 0.000204418
-0.00078425 0.000373077 -3.03645e-06
0.000373077 -0.00078027 4.07982e-06
-3.03645e-06 4.07982e-06 -0.00119421
-0.000573067 0.000189679 5.04178e-06
0.000189679 -0.000597879 -1.03315e-05
5.04178e-06 -1.03315e-05 -0.000944924
3.29499e-05 0.000403337 3.60958e-06
0.000403337 -0.000278748 -3.84575e-06
3.60958e-06 -3.84575e-06 -0.000585866
-0.000749632 0.000490746 -1.22151e-05
0.000490746 -0.000781532 -7.47346e-06
-1.22151e-05 -7.47346e-06 -0.00108569
-0.000341064 9.90435e-05 -9.81838e-06
9.90435e-05 -0.00035031 2.35918e-06
-9.81838e-06 2.35918e-06 -0.000760101
0.00065527 0.00030565 4.01702e-06
0.00030565 0.000224731 4.94684e-07
4.01702e-06 4.94684e-07 -9.3677e-05
0.000925869 0.000171615 -2.3757e-05
0.000171615 0.000300213 -2.43969e-05
-2.3757e-05 -2.43969e-05 0.000173967
0.00429046 -0.000127602 -0.000108255
-0.000127602 0.00258311 -1.80823e-05
-0.000108255 -1.80823e-05 0.00257416
0.000497759 7.62374e-05 4.89826e-06
7.62374e-05 6.48186e-05 -2.08847e-07
4.89826e-06 -2.08847e-07 -3.0548e-05
-0.000340409 3.39293e-05 -5.73474e-06
3.39293e-05 -0.000368724 1.40171e-05
-5.73474e-06 1.40171e-05 -0.000653633
0.00394055 -0.000129963 -1.43755e-05
-0.000129963 0.00234179 1.68219e-06
-1.43755e-05 1.68219e-06 0.00233261
0.000244443 -7.6953e-05 -1.24889e-05
-7.6953e-05 -7.34067e-05 1.74174e-05
-1.24889e-05 1.74174e-05 -0.000157019
0.00329757 -0.000103142 4.40964e-05
-0.000103142 0.00190518 8.67567e-06
4.40964e-05 8.67567e-06 0.00190132
0.0162655 0.00106776 0.000839378
0.00106776 -0.000732671 0.000168717
0.000839378 0.000168717 0.00120051
0.0039953 -0.0071567 -0.00135131
-0.0071567 0.00155449 -2.60854e-05
-0.00135131 -2.60854e-05 -0.00635154
-0.00437775 0.000410589 -0.000300892
0.000410589 0.0084948 -8.26091e-05
-0.000300892 -8.26091e-05 -0.000847665
0.000549215 0.000146453 9.98793e-06
0.000146453 0.000417304 -2.07078e-05
9.98793e-06 -2.07078e-05 -0.000309134
0.00121523 0.000859206 1.0571e-05
0.000859206 0.000485522 -2.15681e-05
1.0571e-05 -2.15681e-05 -0.000225973
0.00191553 0.000975023 -1.33132e-05
0.000975023 0.00104809 -1.09543e-05
-1.33132e-05 -1.09543e-05 0.000335309
0.00228236 0.00126459 -2.27966e-06
0.00126459 0.000910132 -4.28717e-07
-2.27966e-06 -4.28717e-07 0.000161381
0.00198316 0.00116163 2.69608e-05
0.00116163 0.000456302 2.75358e-05
2.69608e-05 2.75358e-05 -0.000172732
0.000894762 0.00125673 4.79666e-06
0.00125673 -6.44262e-05 1.60882e-05
4.79666e-06 1.60882e-05 -0.000651993
0.00141979 0.000849097 -8.81636e-06
0.000849097 0.000761003 -1.4947e-05
-8.81636e-06 -1.4947e-05 9.61332e-05
0.00215252 0.00143836 2.53297e-07
0.00143836 0.000692217 3.5683e-06
2.53297e-07 3.5683e-06 4.95235e-05
0.00263306 0.00135244 3.06796e-05
0.00135244 0.00107364 6.43246e-06
3.06796e-05 6.43246e-06 0.000585511
0.00381618 0.00151163 1.08065e-05
0.00151163 0.00159414 1.14959e-05
1.08065e-05 1.14959e-05 0.00092849
0.00147323 0.00142253 4.84032e-06
0.00142253 4.92354e-05 1.10596e-05
4.84032e-06 1.10596e-05 -0.000356157
0.00330649 0.00189744 2.5032e-05
0.00189744 0.000941647 1.62216e-05
2.5032e-05 1.62216e-05 0.000247117
0.00267386 0.00185239 1.45069e-05
0.00185239 0.000628931 3.36313e-06
1.45069e-05 3.36313e-06 0.000139147
0.00296913 0.00123175 -3.88291e-05
0.00123175 0.00137024 -0.000114137
-3.88291e-05 -0.000114137 0.000894416
0.00466523 0.00359323 3.235e-05
0.00359323 -0.00471582 7.2215e-05
3.235e-05 7.2215e-05 -0.000400848
0.0135962 0.00764382 0.000561079
0.00764382 -0.00391323 0.000282361
0.000561079 0.000282361 -0.00256845
0.018995 -0.00910968 0.00148783
-0.00910968 0.0104048 -0.000368698
0.00148783 -0.000368698 0.0012069
0.00523358 0.0119593 0.00137834
0.0119593 -0.00294896 0.000501794
0.00137834 0.000501794 -0.00488507
-0.000911167 0.00313646 -2.41599e-05
0.00313646 0.000250354 4.00378e-05
-2.41599e-05 4.00378e-05 0.00046932
0.00356248 0.00434915 -0.00011976
0.00434915 -0.00156518 -9.57389e-05
-0.00011976 -9.57389e-05 0.000423644
0.00739531 0.00377827 5.61993e-05
0.00377827 0.000895621 2.78193e-05
5.61993e-05 2.78193e-05 0.000737052
0.00611612 0.00286934 2.57021e-05
0.00286934 0.00212754 9.19409e-06
2.57021e-05 9.19409e-06 0.00139374
0.0012975 0.00143638 -3.78285e-05
0.00143638 0.000305108 -1.34116e-05
-3.78285e-05 -1.34116e-05 -0.000166983
0.0093128 0.0045841 -0.00018855
0.0045841 0.00281895 2.80159e-05
-0.00018855 2.80159e-05 0.00146246
0.0061787 -0.00116955 0.000125574
-0.00116955 -0.00275294 7.16047e-05
0.000125574 7.16047e-05 0.00052293
0.014026 -0.000446005 -2.53362e-05
-0.000446005 -0.00167491 -4.99187e-05
-2.53362e-05 -4.99187e-05 0.000210393
-0.00976652 -0.00488807 0.00183313
-0.00488807 -7.46729e-05 -8.24011e-05
0.00183313 -8.24011e-05 -0.00680568
0.00264606 -0.00284671 -0.000143469
-0.00284671 -0.000314213 7.62528e-05
-0.000143469 7.62528e-05 -0.000330268
0.00806303 -0.00484502 -0.000129078
-0.00484502 -0.00253051 0.000184841
-0.000129078 0.000184841 0.000566071
0.00298848 -0.00073127 -0.000552401
-0.00073127 -0.0100378 1.58715e-05
-0.000552401 1.58715e-05 -0.0085187
0.00370325 -0.00217447 5.24008e-05
-0.00217447 -0.000821856 -2.01692e-07
5.24008e-05 -2.01692e-07 7.54023e-05
0.00523634 -0.00183272 -0.000109003
-0.00183272 -0.00286397 8.96172e-06
-0.000109003 8.96172e-06 1.81086e-05
0.0068515 -0.00163806 7.38797e-05
-0.00163806 0.00103718 -6.26214e-05
7.38797e-05 -6.26214e-05 0.00188849
0.00835401 -0.00118526 0.000186299
-0.00118526 0.00124582 1.4223e-05
0.000186299 1.4223e-05 0.00263157
-0.00149843 -0.000963632 3.53696e-05
-0.000963632 -0.00252813 1.21251e-05
3.53696e-05 1.21251e-05 -0.00207608
0.00259482 -0.00108861 -1.55591e-05
-0.00108861 -0.000307693 3.05733e-06
-1.55591e-05 3.05733e-06 4.80361e-05
0.00284705 -0.000767859 3.29411e-05
-0.000767859 -0.000294116 -1.65046e-05
3.29411e-05 -1.65046e-05 0.00012317
0.00265693 -0.00126768 -3.07799e-06
-0.00126768 1.00559e-05 5.30722e-06
-3.07799e-06 5.30722e-06 -0.00017849
0.00297417 -0.000962142 5.39708e-07
-0.000962142 -3.72904e-06 1.1881e-06
5.39708e-07 1.1881e-06 7.88677e-05
0.00286215 -0.000788433 5.14306e-07
-0.000788433 -6.6705e-05 -2.25339e-06
5.14306e-07 -2.25339e-06 4.24291e-06
0.00246236 -0.000858067 1.5497e-06
-0.000858067 -0.000131724 3.95579e-06
1.5497e-06 3.95579e-06 -0.000157169
0.00270973 -0.000841884 1.18602e-08
-0.000841884 1.05187e-05 3.07351e-07
1.18602e-08 3.07351e-07 2.23287e-05
0.00262964 -0.000702672 -1.46653e-06
-0.000702672 -3.14565e-05 -1.49372e-06
-1.46653e-06 -1.49372e-06 -3.02457e-05
0.00254052 -0.000827643 1.71645e-06
-0.000827643 8.35408e-05 1.19494e-06
1.71645e-06 1.19494e-06 -9.29253e-06
0.00266443 -0.00082011 -1.24967e-07
-0.00082011 0.000111549 -1.66456e-07
-1.24967e-07 -1.66456e-07 3.59585e-05
0.00255193 -0.000706694 1.16596e-06
-0.000706694 0.00010032 -1.24103e-06
1.16596e-06 -1.24103e-06 2.36706e-05
0.00243295 -0.000814912 -2.31852e-06
-0.000814912 7.16987e-05 9.69964e-07
-2.31852e-06 9.69964e-07 -5.22159e-05
0.00241384 -0.00076483 -1.51164e-06
-0.00076483 0.000111492 2.29641e-07
-1.51164e-06 2.29641e-07 -3.28903e-05
0.00244934 -0.000711002 -2.0633e-06
-0.000711002 0.00022721 9.75318e-08
-2.0633e-06 9.75318e-08 4.20663e-05
0.0024433 -0.000729979 3.26538e-06
-0.000729979 0.000259922 1.04869e-06
3.26538e-06 1.04869e-06 5.63572e-05
0.00240747 -0.000724076 3.55015e-07
-0.000724076 0.000286118 -6.12943e-08
3.55015e-07 -6.12943e-08 4.12171e-05
0.00235124 -0.000723676 -1.36941e-06
-0.000723676 0.000281217 -1.5124e-06
-1.36941e-06 -1.5124e-06 -1.88055e-06
0.00221454 -0.000732694 -3.18437e-06
-0.000732694 0.000312344 -5.89718e-06
-3.18437e-06 -5.89718e-06 -6.06996e-05
0.00241504 -0.000777677 -8.36872e-07
-0.000777677 0.000334803 -1.5538e-06
-8.36872e-07 -1.5538e-06 -1.00233e-05
0.00263569 -0.00077959 4.55664e-06
-0.00077959 0.0004236 3.1762e-06
4.55664e-06 3.1762e-06 0.000107978
0.00141988 -0.000601195 -2.16771e-05
-0.000601195 9.80269e-05 2.10275e-06
-2.16771e-05 2.10275e-06 -0.000322782
0.00232605 -0.000896188 -4.4088e-07
-0.000896188 0.000455326 2.03733e-07
-4.4088e-07 2.03733e-07 -4.16076e-05
0.00227644 -0.000937676 5.53117e-07
-0.000937676 0.00026401 5.38515e-06
5.53117e-07 5.38515e-06 -0.000211866
0.000461565 -0.000292412 -1.95004e-05
-0.000292412 -0.000135061 2.72883e-05
-1.95004e-05 2.72883e-05 -0.000338137
0.00105547 -0.00054692 9.94255e-06
-0.00054692 5.75345e-05 1.53508e-06
9.94255e-06 1.53508e-06 -0.000366215
0.00244105 -0.00103285 7.73795e-06
-0.00103285 0.00069912 5.92596e-06
7.73795e-06 5.92596e-06 9.13865e-05
0.00874972 -4.88359e-05 -0.000344751
-4.88359e-05 0.00541024 3.3213e-05
-0.000344751 3.3213e-05 0.00542169
0.000105545 -0.000290264 3.66049e-06
-0.000290264 -0.000332108 6.74822e-07
3.66049e-06 6.74822e-07 -0.000535503
0.000452671 -0.000336387 -5.2622e-06
-0.000336387 -0.000267909 -6.01841e-06
-5.2622e-06 -6.01841e-06 -0.000600376
0.00759771 2.35519e-05 -2.00308e-05
2.35519e-05 0.00471201 -2.05043e-06
-2.00308e-05 -2.05043e-06 0.00471074
0.000565388 -0.000215797 9.15442e-06
-0.000215797 4.06544e-06 -2.68958e-05
9.15442e-06 -2.68958e-05 -0.000182146
0.00617166 6.69101e-05 0.000254047
6.69101e-05 0.00381476 -3.5894e-05
0.000254047 -3.5894e-05 0.00380835
0.002307 0.00109713 -1.52618e-05
0.00109713 0.00065066 1.72993e-05
-1.52618e-05 1.72993e-05 1.26575e-05
0.00239504 0.0011112 -2.87018e-07
0.0011112 0.00096098 1.89295e-07
-2.87018e-07 1.89295e-07 0.000260734
0.00154946 0.000801334 -1.11218e-05
0.000801334 0.000454734 1.14447e-05
-1.11218e-05 1.14447e-05 -0.000119896
0.000770998 0.000680855 2.02145e-05
0.000680855 7.0395e-05 -9.66383e-06
2.02145e-05 -9.66383e-06 -0.000481216
0.00110984 0.000432052 -3.62573e-06
0.000432052 0.000270724 -2.14509e-06
-3.62573e-06 -2.14509e-06 -0.000123291
-0.000240477 0.00029094 -6.91601e-06
0.00029094 -0.000472544 -8.32627e-07
-6.91601e-06 -8.32627e-07 -0.000825369
0.0027781 0.000310154 1.27286e-06
0.000310154 0.00145752 -4.90927e-06
1.27286e-06 -4.90927e-06 0.00115559
0.00134516 0.000249971 3.91486e-06
0.000249971 0.000587953 -1.70963e-06
3.91486e-06 -1.70963e-06 0.000274086
0.000357197 0.000230674 -3.33277e-05
0.000230674 -0.000126302 -2.49697e-05
-3.33277e-05 -2.49697e-05 -0.000271228
0.000544154 0.000238541 3.75933e-08
0.000238541 0.000168217 1.84559e-05
3.75933e-08 1.84559e-05 -0.000152078
0.000414172 0.000157606 -1.10783e-06
0.000157606 -1.83441e-05 -4.52644e-07
-1.10783e-06 -4.52644e-07 -0.000139595
0.00542833 -0.00013017 -0.000180332
-0.00013017 0.00335109 -2.67828e-05
-0.000180332 -2.67828e-05 0.00333463
0.00400607 -0.000144411 -1.48124e-05
-0.000144411 0.00239896 1.77134e-06
-1.48124e-05 1.77134e-06 0.00238468
-9.08143e-05 0.000132511 2.09526e-05
0.000132511 -0.00032022 2.03071e-05
2.09526e-05 2.03071e-05 -0.000404273
0.00353458 -0.000127737 5.5282e-05
-0.000127737 0.00207487 9.84174e-06
5.5282e-05 9.84174e-06 0.00206467
0.00133169 0.000921343 0.000167772
0.000921343 -0.00402709 4.23358e-05
0.000167772 4.23358e-05 -0.000680177
0.00442817 0.000144076 0.000307302
0.000144076 -0.00837574 0.000189891
0.000307302 0.000189891 -0.00830693
0.0194584 -0.00818127 -0.000387442
-0.00818127 0.0127509 -0.000156771
-0.000387442 -0.000156771 0.00384203
0.00213082 0.000990623 1.43647e-05
0.000990623 0.000300763 1.64629e-05
1.43647e-05 1.64629e-05 -0.000182202
0.00288394 0.00105122 1.27744e-06
0.00105122 0.00148682 -1.77439e-05
1.27744e-06 -1.77439e-05 0.000796102
0.00212733 0.00126861 -4.82347e-06
0.00126861 0.00081721 -2.34946e-05
-4.82347e-06 -2.34946e-05 5.33866e-05
0.00202461 0.0013814 2.61209e-06
0.0013814 0.000630487 2.08905e-06
2.61209e-06 2.08905e-06 -6.56982e-06
0.00234283 0.00121418 1.17093e-06
0.00121418 0.000685009 3.41344e-06
1.17093e-06 3.41344e-06 3.84136e-05
0.00266088 0.00134665 1.19577e-05
0.00134665 0.000776083 1.71434e-05
1.19577e-05 1.71434e-05 0.00015288
0.00132229 0.00131272 -3.49884e-06
0.00131272 0.000170046 -6.89729e-06
-3.49884e-06 -6.89729e-06 -0.000439392
0.000661831 0.00105939 1.98103e-05
0.00105939 -8.53169e-06 -6.07286e-05
1.98103e-05 -6.07286e-05 -0.000439887
0.00231345 0.00142968 1.66041e-06
0.00142968 0.000618994 -1.17635e-06
1.66041e-06 -1.17635e-06 2.26116e-05
0.00052413 0.00134128 1.35276e-05
0.00134128 -0.000541104 -3.29596e-05
1.35276e-05 -3.29596e-05 -0.00083216
0.00279191 0.00136897 2.28575e-05
0.00136897 0.000752944 1.17154e-06
2.28575e-05 1.17154e-06 7.85686e-05
0.00298514 0.00126833 5.35154e-05
0.00126833 0.000641099 6.00866e-05
5.35154e-05 6.00866e-05 0.00042865
0.0012799 0.00150621 -1.36568e-05
0.00150621 -9.2858e-05 -1.58505e-05
-1.36568e-05 -1.58505e-05 -0.000611035
0.0022942 0.00171377 -4.07141e-05
0.00171377 0.000466831 -1.43167e-05
-4.07141e-05 -1.43167e-05 6.49046e-05
0.0029348 0.00169916 1.89075e-05
0.00169916 -0.00187797 5.64561e-05
1.89075e-05 5.64561e-05 -0.000252238
0.00649129 0.00393987 -0.000160156
0.00393987 -0.00365085 -7.0565e-05
-0.000160156 -7.0565e-05 0.000564098
0.00376349 0.00550649 0.00107702
0.00550649 -0.0103865 0.00030816
0.00107702 0.00030816 -0.0088166
0.00275245 0.00399366 -0.000295867
0.00399366 -0.000888095 -0.000148514
-0.000295867 -0.000148514 0.000555003
0.00597151 0.00311434 -3.172e-05
0.00311434 0.000671375 -1.47515e-05
-3.172e-05 -1.47515e-05 0.000711889
0.00840106 0.00335028 -0.000246337
0.00335028 0.00305799 -7.74466e-05
-0.000246337 -7.74466e-05 0.00221252
0.00457154 -0.000131659 -4.57953e-05
-0.000131659 -0.00103379 -2.25747e-05
-4.57953e-05 -2.25747e-05 0.000109512
0.0015739 -0.000607453 0.000127598
-0.000607453 -0.00285519 3.31146e-05
0.000127598 3.31146e-05 -0.000125047
0.00853169 -0.000149875 0.000242936
-0.000149875 -0.00670288 -4.06628e-05
0.000242936 -4.06628e-05 -0.0069776
0.00281133 -0.00194339 -8.57171e-05
-0.00194339 -0.00120485 0.000126439
-8.57171e-05 0.000126439 -0.000193137
0.00556432 -0.00183734 -0.00025589
-0.00183734 -0.00313051 8.34094e-05
-0.00025589 8.34094e-05 -0.000580892
0.00370037 -0.00134349 -2.03028e-05
-0.00134349 -0.000795335 1.29987e-05
-2.03028e-05 1.29987e-05 0.000259372
0.00495693 -0.000976324 -5.99398e-05
-0.000976324 -0.000467469 -6.25748e-08
-5.99398e-05 -6.25748e-08 0.000723104
0.00462056 -0.000671111 0.000124211
-0.000671111 0.000673944 -2.6182e-05
0.000124211 -2.6182e-05 0.00112626
0.00309688 -0.000135485 6.09181e-05
-0.000135485 -8.00087e-05 1.1295e-06
6.09181e-05 1.1295e-06 0.000286027
0.000768101 -0.000879757 -1.83318e-05
-0.000879757 -0.00135722 1.83702e-05
-1.83318e-05 1.83702e-05 -0.000804916
0.00278315 -0.000795945 -5.09554e-06
-0.000795945 -0.000313685 9.03146e-07
-5.09554e-06 9.03146e-07 5.87456e-05
0.0028224 -0.000576634 5.52642e-06
-0.000576634 -0.000272027 -3.56561e-06
5.52642e-06 -3.56561e-06 3.69964e-05
0.00294226 -0.000956451 -3.832e-06
-0.000956451 -3.71737e-06 3.55277e-06
-3.832e-06 3.55277e-06 7.56513e-05
0.00287271 -0.000763326 -3.45659e-07
-0.000763326 -2.2632e-05 -3.44423e-07
-3.45659e-07 -3.44423e-07 5.97763e-05
0.00264306 -0.000564922 -7.71937e-07
-0.000564922 -0.000153563 -1.23196e-06
-7.71937e-07 -1.23196e-06 -3.60746e-05
0.00267951 -0.000837723 -9.83765e-08
-0.000837723 7.74207e-06 1.67364e-06
-9.83765e-08 1.67364e-06 8.95965e-06
0.00262047 -0.000704791 -7.03796e-07
-0.000704791 -2.06842e-05 -9.13454e-09
-7.03796e-07 -9.13454e-09 -1.7312e-05
0.00251076 -0.000577748 7.20831e-07
-0.000577748 1.69088e-05 -7.81023e-07
7.20831e-07 -7.81023e-07 2.35056e-07
0.00266287 -0.000817945 5.87091e-07
-0.000817945 0.000139633 5.28462e-07
5.87091e-07 5.28462e-07 5.69127e-05
0.0025625 -0.00070835 1.02385e-06
-0.00070835 0.000104116 -2.44753e-07
1.02385e-06 -2.44753e-07 2.65017e-05
0.00241851 -0.00063023 -5.91376e-08
-0.00063023 0.000118071 -4.20433e-07
-5.91376e-08 -4.20433e-07 1.13464e-05
0.00240045 -0.000770135 -1.25623e-06
-0.000770135 9.64005e-05 1.65765e-06
-1.25623e-06 1.65765e-06 -4.40439e-05
0.00238017 -0.000711009 -1.12805e-06
-0.000711009 0.000171457 2.89198e-07
-1.12805e-06 2.89198e-07 -8.44659e-06
0.00243819 -0.000683421 -1.38242e-06
-0.000683421 0.000269531 -5.17655e-07
-1.38242e-06 -5.17655e-07 4.28541e-05
0.00243026 -0.000717819 3.46171e-06
-0.000717819 0.000298651 5.14193e-07
3.46171e-06 5.14193e-07 5.51582e-05
0.00236485 -0.000722273 -5.90981e-07
-0.000722273 0.000291912 6.39655e-07
-5.90981e-07 6.39655e-07 1.07273e-05
0.00230175 -0.000667474 -2.0557e-06
-0.000667474 0.000333424 -3.05896e-06
-2.0557e-06 -3.05896e-06 2.02235e-05
0.00156209 -0.000525513 -2.09812e-05
-0.000525513 0.000109908 4.5946e-06
-2.09812e-05 4.5946e-06 -0.000238864
0.00218727 -0.000728602 1.60715e-07
-0.000728602 0.000303642 -1.78603e-06
1.60715e-07 -1.78603e-06 -7.43119e-05
0.00229307 -0.000773564 -3.7999e-08
-0.000773564 0.000247047 3.65706e-06
-3.7999e-08 3.65706e-06 -0.000105643
0.000128792 -0.000299494 -2.19686e-05
-0.000299494 -0.000371875 2.4244e-05
-2.19686e-05 2.4244e-05 -0.000587108
0.0014616 -0.000596859 -3.22995e-07
-0.000596859 0.00013717 -5.28736e-08
-3.22995e-07 -5.28736e-08 -0.000278689
0.00250261 -0.000910373 4.5303e-06
-0.000910373 0.000584461 5.53382e-06
4.5303e-06 5.53382e-06 8.47449e-05
0.00963734 -0.000126764 -0.000433274
-0.000126764 0.00595026 4.32432e-05
-0.000433274 4.32432e-05 0.00597594
5.65029e-05 -0.000308464 6.69837e-07
-0.000308464 -0.000383936 2.22839e-06
6.69837e-07 2.22839e-06 -0.00060244
0.000443522 -0.000505921 1.12575e-05
-0.000505921 -0.000334281 -2.16608e-06
1.12575e-05 -2.16608e-06 -0.000754016
0.00914404 -9.31192e-05 -6.86327e-06
-9.31192e-05 0.00566847 1.37021e-06
-6.86327e-06 1.37021e-06 0.00568565
-0.000244218 -0.000332327 2.36251e-05
-0.000332327 -0.000546987 -3.05856e-05
2.36251e-05 -3.05856e-05 -0.000754326
0.00840512 -1.18343e-05 0.000359121
-1.18343e-05 0.00524119 -4.75458e-05
0.000359121 -4.75458e-05 0.0052435
0.00197392 0.00090882 -6.30736e-06
0.00090882 0.000244234 1.55369e-05
-6.30736e-06 1.55369e-05 -0.000242446
0.00226482 0.00107635 -4.96814e-07
0.00107635 0.000641276 2.40186e-06
-4.96814e-07 2.40186e-06 1.14559e-05
0.00226643 0.00096318 -2.67986e-06
0.00096318 0.000673768 1.64113e-05
-2.67986e-06 1.64113e-05 7.57368e-05
0.00210791 0.00104673 6.31777e-06
0.00104673 0.0007927 -1.49586e-05
6.31777e-06 -1.49586e-05 0.000112264
0.00165333 0.000820263 -8.44574e-07
0.000820263 0.000503958 4.01527e-07
-8.44574e-07 4.01527e-07 -7.99646e-05
-6.43138e-05 0.000375054 -1.50367e-05
0.000375054 -0.000513411 2.29839e-06
-1.50367e-05 2.29839e-06 -0.000887631
0.00222092 0.000526333 6.40102e-06
0.000526333 0.000924346 -8.36121e-06
6.40102e-06 -8.36121e-06 0.00051331
0.000302648 0.000339607 3.85023e-06
0.000339607 -0.000172028 -1.3762e-06
3.85023e-06 -1.3762e-06 -0.000484496
0.000412339 0.000281272 -3.79898e-05
0.000281272 -0.000148927 -2.66448e-05
-3.79898e-05 -2.66448e-05 -0.000293138
0.00116653 0.000303903 3.55625e-06
0.000303903 0.000457453 7.69513e-06
3.55625e-06 7.69513e-06 0.000146729
0.000730777 0.000233504 -1.55023e-08
0.000233504 0.000110044 -1.63625e-06
-1.55023e-08 -1.63625e-06 -2.35847e-05
0.00710252 -0.000211472 -0.000216121
-0.000211472 0.00448471 -3.56176e-05
-0.000216121 -3.56176e-05 0.00443844
0.000320957 0.000152829 2.29541e-05
0.000152829 -6.67459e-05 2.44638e-05
2.29541e-05 2.44638e-05 -0.000187034
0.00501565 -0.000201973 -2.1327e-05
-0.000201973 0.00310019 2.2548e-06
-2.1327e-05 2.2548e-06 0.00306417
0.0042426 -0.00017214 7.36576e-05
-0.00017214 0.00256095 1.26804e-05
7.36576e-05 1.26804e-05 0.00253917
0.000707656 0.000731478 3.69461e-05
0.000731478 -0.00345234 4.51851e-05
3.69461e-05 4.51851e-05 -0.00133703
0.00572744 0.000833382 8.06621e-05
0.000833382 -0.00275749 2.95928e-05
8.06621e-05 2.95928e-05 0.000815467
0.0180625 0.00104178 3.56693e-05
0.00104178 -0.00038247 0.000177579
3.56693e-05 0.000177579 0.00191125
0.00235024 0.00110312 -1.23158e-07
0.00110312 0.000341302 8.88048e-06
-1.23158e-07 8.88048e-06 -0.000151587
0.00254748 0.00102148 1.8191e-06
0.00102148 0.000324542 9.03262e-06
1.8191e-06 9.03262e-06 -6.74788e-05
0.00209816 0.000993782 -1.51001e-06
0.000993782 0.000277458 -4.2144e-06
-1.51001e-06 -4.2144e-06 -0.000202814
0.00325491 0.00151548 9.7805e-06
0.00151548 0.00138336 -6.44725e-06
9.7805e-06 -6.44725e-06 0.000697802
0.0024993 0.00123479 -1.45635e-05
0.00123479 0.000787188 -1.73921e-05
-1.45635e-05 -1.73921e-05 0.000133362
0.00275692 0.00140337 7.78416e-06
0.00140337 0.00078398 2.21323e-06
7.78416e-06 2.21323e-06 0.000149316
0.00303167 0.00130916 -1.20107e-05
0.00130916 0.000464707 1.02263e-06
-1.20107e-05 1.02263e-06 3.75486e-05
0.00168353 0.0014537 4.7291e-06
0.0014537 0.000175374 -1.06141e-05
4.7291e-06 -1.06141e-05 -0.000405429
0.0021467 0.00160715 -1.06008e-05
0.00160715 0.000417837 9.48806e-05
-1.06008e-05 9.48806e-05 -4.25666e-05
0.00282679 0.00146025 4.90858e-06
0.00146025 0.00070397 -5.48624e-06
4.90858e-06 -5.48624e-06 2.40831e-05
0.00351695 0.00127871 3.68129e-06
0.00127871 0.000595265 2.20458e-05
3.68129e-06 2.20458e-05 0.000353612
0.00245818 0.000629143 8.18052e-05
0.000629143 0.000139293 8.21997e-06
8.18052e-05 8.21997e-06 0.00039707
0.000368204 0.000956898 8.20727e-07
0.000956898 -0.00073465 -2.24655e-05
8.20727e-07 -2.24655e-05 -0.000873933
0.00144165 0.00146484 -5.3352e-05
0.00146484 4.95153e-05 2.17756e-06
-5.3352e-05 2.17756e-06 -0.00046563
0.00454751 0.00186483 4.18331e-05
0.00186483 -0.00096693 1.69403e-05
4.18331e-05 1.69403e-05 0.000551497
0.0106744 0.00402596 -0.000103911
0.00402596 -0.00107004 -7.01923e-05
-0.000103911 -7.01923e-05 0.0021338
0.00648957 0.0027015 -0.000111398
0.0027015 0.00151925 -0.000112985
-0.000111398 -0.000112985 0.00161475
0.00390086 -1.25263e-05 9.26558e-05
-1.25263e-05 0.000465342 7.69093e-06
9.26558e-05 7.69093e-06 0.000849772
0.00431258 -0.000248973 -0.000144265
-0.000248973 -0.00152944 1.21756e-05
-0.000144265 1.21756e-05 3.70318e-05
0.0053085 0.000487611 -6.54654e-05
0.000487611 -0.00146293 -4.26512e-05
-6.54654e-05 -4.26512e-05 0.000895516
0.0021406 -0.00124432 -0.000131815
-0.00124432 -0.00168564 9.49508e-05
-0.000131815 9.49508e-05 -0.000588337
0.00182923 -0.000892832 -0.000114281
-0.000892832 -0.00214092 1.28432e-05
-0.000114281 1.28432e-05 -0.00104657
0.00361039 -0.00061938 4.82587e-06
-0.00061938 1.42393e-05 -8.47279e-06
4.82587e-06 -8.47279e-06 0.000600607
0.00265106 -0.000138339 -1.99087e-05
-0.000138339 -0.000344301 -2.6824e-06
-1.99087e-05 -2.6824e-06 4.10607e-05
0.00278558 -0.000354736 1.11601e-05
-0.000354736 -0.000368868 -3.17505e-06
1.11601e-05 -3.17505e-06 1.44627e-05
0.00253983 0.000125107 1.84137e-06
0.000125107 -0.000520272 -4.80628e-07
1.84137e-06 -4.80628e-07 -0.000232472
0.00279917 -0.000833493 -2.36276e-05
-0.000833493 -0.000295243 1.31493e-05
-2.36276e-05 1.31493e-05 3.15578e-05
0.00285391 -0.00060705 -3.26336e-06
-0.00060705 -0.000276137 8.2204e-07
-3.26336e-06 8.2204e-07 -4.47689e-07
0.00272618 -0.000417918 -5.06756e-07
-0.000417918 -0.000217458 -5.30516e-07
-5.06756e-07 -5.30516e-07 1.5503e-05
0.0028751 -0.000737698 -3.34612e-06
-0.000737698 1.01738e-05 1.94026e-06
-3.34612e-06 1.94026e-06 0.000107883
0.00265333 -0.000569366 2.19122e-07
-0.000569366 -0.000138473 -2.51079e-07
2.19122e-07 -2.51079e-07 -2.761e-05
0.00254003 -0.000463515 1.17142e-06
-0.000463515 -7.84883e-05 -6.26913e-07
1.17142e-06 -6.26913e-07 4.98849e-06
0.00261396 -0.000707552 -6.63971e-07
-0.000707552 -9.53821e-06 1.61885e-06
-6.63971e-07 1.61885e-06 -3.74937e-06
0.00251484 -0.000576232 4.22947e-07
-0.000576232 1.226e-05 -6.81422e-08
4.22947e-07 -6.81422e-08 -4.08609e-06
0.00237136 -0.000511191 1.65544e-07
-0.000511191 3.20402e-05 -3.74812e-07
1.65544e-07 -3.74812e-07 -1.26987e-05
0.00257449 -0.000710405 1.56824e-06
-0.000710405 0.000108439 6.65843e-07
1.56824e-06 6.65843e-07 2.98005e-05
0.00241888 -0.000630915 6.28715e-07
-0.000630915 0.00011428 -1.16081e-07
6.28715e-07 -1.16081e-07 7.1494e-06
0.00239725 -0.000595141 -2.90681e-06
-0.000595141 0.000179166 3.15638e-07
-2.90681e-06 3.15638e-07 2.24283e-05
0.00231206 -0.000711311 6.43117e-07
-0.000711311 0.000116236 5.36913e-07
6.43117e-07 5.36913e-07 -5.84161e-05
0.00235339 -0.000679481 5.40339e-07
-0.000679481 0.000211678 -4.3707e-07
5.40339e-07 -4.3707e-07 -1.24071e-05
0.00226965 -0.000613658 -1.97913e-06
-0.000613658 0.000242815 -2.43066e-06
-1.97913e-06 -2.43066e-06 -2.22623e-05
0.0023891 -0.000721789 -4.23127e-07
-0.000721789 0.0003107 3.11442e-06
-4.23127e-07 3.11442e-06 3.09754e-05
0.00234779 -0.000673596 -4.51217e-07
-0.000673596 0.000366847 -1.50654e-07
-4.51217e-07 -1.50654e-07 5.39214e-05
0.00155873 -0.000455897 -1.41997e-05
-0.000455897 8.10208e-05 4.1823e-06
-1.41997e-05 4.1823e-06 -0.000213525
0.000325108 -0.000285129 -1.87437e-05
-0.000285129 -0.000283665 2.18508e-05
-1.87437e-05 2.18508e-05 -0.000486386
0.00158683 -0.000527872 4.21492e-08
-0.000527872 0.000125088 1.34338e-07
4.21492e-08 1.34338e-07 -0.00022286
0.00219635 -0.000728907 2.06277e-06
-0.000728907 0.00031817 2.95199e-06
2.06277e-06 2.95199e-06 -6.58754e-05
0.00913955 -0.000196046 -0.000435679
-0.000196046 0.0056113 4.54987e-05
-0.000435679 4.54987e-05 0.00563969
0.000345881 -0.000316184 -1.23732e-06
-0.000316184 -0.000243018 1.1131e-06
-1.23732e-06 1.1131e-06 -0.000456009
0.00156405 -0.000587781 2.01071e-05
-0.000587781 0.000220986 -3.44222e-06
2.01071e-05 -3.44222e-06 -0.000187678
0.00946826 -0.000146585 -3.4321e-06
-0.000146585 0.00584 2.64835e-06
-3.4321e-06 2.64835e-06 0.00586276
8.71024e-05 -0.000321212 2.39278e-05
-0.000321212 -0.000365459 -2.8087e-05
2.39278e-05 -2.8087e-05 -0.000588907
0.00952434 -0.000123577 0.000416338
-0.000123577 0.00590411 -4.84316e-05
0.000416338 -4.84316e-05 0.0059208
0.00218052 0.000929001 3.68368e-06
0.000929001 0.000220372 1.40581e-05
3.68368e-06 1.40581e-05 -0.00020098
0.00215235 0.000932645 2.61645e-06
0.000932645 0.000372718 -1.06781e-07
2.61645e-06 -1.06781e-07 -0.000116417
0.00242642 0.000906437 4.59023e-06
0.000906437 0.000605773 1.6156e-05
4.59023e-06 1.6156e-05 9.15784e-05
0.00237406 0.00107313 1.38828e-05
0.00107313 0.000736781 -1.28379e-05
1.38828e-05 -1.28379e-05 0.000110172
0.00211607 0.000943122 2.98113e-07
0.000943122 0.00056988 1.66089e-06
2.98113e-07 1.66089e-06 -2.39809e-05
0.000652505 0.000469049 -2.80366e-05
0.000469049 -0.000195608 2.35295e-06
-2.80366e-05 2.35295e-06 -0.000593394
0.00236627 0.00085153 -1.36105e-06
0.00085153 0.000884672 -1.16563e-05
-1.36105e-06 -1.16563e-05 0.000309099
0.000804544 0.000373893 -4.34167e-07
0.000373893 4.01095e-05 -7.78187e-07
-4.34167e-07 -7.78187e-07 -0.00031133
9.84686e-05 0.000297978 -3.32004e-05
0.000297978 -0.000336838 -3.05506e-05
-3.32004e-05 -3.05506e-05 -0.000516547
0.00209993 0.000252034 3.77429e-06
0.000252034 0.000938119 1.24599e-06
3.77429e-06 1.24599e-06 0.000660728
0.00025768 0.000255452 5.51367e-06
0.000255452 -0.000234768 -1.44847e-06
5.51367e-06 -1.44847e-06 -0.000383302
0.00810341 -0.000135492 -0.000282212
-0.000135492 0.00508369 -3.80364e-05
-0.000282212 -3.80364e-05 0.00506011
0.000356427 0.000213389 3.04712e-05
0.000213389 -0.000105317 2.68429e-05
3.04712e-05 2.68429e-05 -0.000243132
0.00653376 -0.000183435 -4.77716e-06
-0.000183435 0.00408408 -1.23645e-06
-4.77716e-06 -1.23645e-06 0.00405275
0.00458457 -0.000210441 9.0433e-05
-0.000210441 0.00281449 1.84614e-05
9.0433e-05 1.84614e-05 0.00277736
0.00145042 0.000436425 6.09838e-05
0.000436425 -0.000861722 3.50052e-05
6.09838e-05 3.50052e-05 -0.000305923
0.00150011 0.00084792 3.59097e-05
0.00084792 -0.00336308 -1.02604e-05
3.59097e-05 -1.02604e-05 -0.00128677
0.00579562 0.00160293 0.000302189
0.00160293 -0.00293268 0.000132174
0.000302189 0.000132174 0.00106457
0.0027895 0.00107 -7.87105e-06
0.00107 0.000368734 2.18787e-06
-7.87105e-06 2.18787e-06 1.94271e-05
0.00245999 0.00113439 -1.00977e-05
0.00113439 0.000402287 -4.225e-06
-1.00977e-05 -4.225e-06 -9.55801e-05
0.00250635 0.000799246 6.61757e-06
0.000799246 0.000168551 4.80868e-06
6.61757e-06 4.80868e-06 -5.26512e-05
0.00259606 0.00101746 1.25223e-06
0.00101746 0.000352758 2.28886e-07
1.25223e-06 2.28886e-07 -2.63637e-05
0.00213379 0.000997832 -7.37201e-06
0.000997832 0.000305101 -1.77229e-05
-7.37201e-06 -1.77229e-05 -0.000171878
0.0030025 0.000973986 -4.60427e-06
0.000973986 0.000206406 2.58672e-06
-4.60427e-06 2.58672e-06 5.17839e-05
0.00269687 0.00144184 2.36469e-06
0.00144184 0.000698678 -8.92128e-06
2.36469e-06 -8.92128e-06 5.75105e-05
0.00297977 0.00125253 -1.10794e-06
0.00125253 0.000468259 -1.28798e-06
-1.10794e-06 -1.28798e-06 5.47724e-05
0.00240057 0.000600517 -6.46269e-06
0.000600517 -0.000381036 1.61132e-06
-6.46269e-06 1.61132e-06 -0.00017474
0.00225464 0.00147882 -1.41054e-05
0.00147882 0.000297019 1.89599e-05
-1.41054e-05 1.89599e-05 -0.000334373
0.00301824 0.00121942 2.98138e-06
0.00121942 0.000315628 -5.65546e-06
2.98138e-06 -5.65546e-06 8.86024e-05
0.000817024 0.00061991 -3.51799e-05
0.00061991 -0.00101023 -2.53712e-06
-3.51799e-05 -2.53712e-06 -0.000573819
-0.00317136 0.000573058 -2.34622e-05
0.000573058 -0.00262417 -1.38549e-05
-2.34622e-05 -1.38549e-05 -0.00265592
0.00586565 0.00202717 -0.0002275
0.00202717 -0.000202542 -8.95732e-05
-0.0002275 -8.95732e-05 0.00117149
0.00277031 0.000230632 -4.6409e-06
0.000230632 -0.000282392 -3.89695e-06
-4.6409e-06 -3.89695e-06 1.29316e-05
0.00332439 2.14733e-05 -4.46286e-06
2.14733e-05 5.23693e-05 -3.20551e-06
-4.46286e-06 -3.20551e-06 0.000428394
0.0033552 -0.000403938 -0.00018363
-0.000403938 -0.00215146 -2.18729e-05
-0.00018363 -2.18729e-05 -0.000465089
0.00220673 -0.00053876 -0.000119041
-0.00053876 -0.000892793 3.05012e-05
-0.000119041 3.05012e-05 -0.000151032
0.00231866 -0.000150423 -1.97951e-05
-0.000150423 -0.000519516 -4.51277e-07
-1.97951e-05 -4.51277e-07 -0.000126624
0.00268024 -0.000375653 6.35604e-06
-0.000375653 -0.000467588 -1.19861e-06
6.35604e-06 -1.19861e-06 -3.45302e-05
0.0028569 0.000144831 -1.95141e-06
0.000144831 -0.000296199 2.22654e-06
-1.95141e-06 2.22654e-06 -3.24507e-05
0.00272595 -6.94848e-05 -1.31188e-06
-6.94848e-05 -0.000275568 2.41823e-07
-1.31188e-06 2.41823e-07 8.42099e-06
0.00288128 -0.000632998 -4.57443e-06
-0.000632998 -0.000273288 2.87361e-06
-4.57443e-06 2.87361e-06 -3.26313e-05
0.00265344 -0.000400061 3.33789e-07
-0.000400061 -0.000248551 -3.15301e-07
3.33789e-07 -3.15301e-07 -2.41062e-05
0.00255765 -0.000299248 1.38838e-06
-0.000299248 -0.000126958 -5.75518e-07
1.38838e-06 -5.75518e-07 3.65782e-05
0.0026686 -0.000574234 -1.54422e-07
-0.000574234 -0.000118155 1.49162e-06
-1.54422e-07 1.49162e-06 -1.53624e-05
0.00252778 -0.000462198 3.06506e-07
-0.000462198 -8.28246e-05 1.48159e-07
3.06506e-07 1.48159e-07 -3.60487e-06
0.00236233 -0.000388544 5.51665e-07
-0.000388544 -2.27529e-05 -7.61261e-08
5.51665e-07 -7.61261e-08 -4.58105e-06
0.00251844 -0.000574386 -3.99792e-08
-0.000574386 7.18611e-06 6.56638e-07
-3.99792e-08 6.56638e-07 -8.78898e-06
0.00238729 -0.00051241 4.06611e-07
-0.00051241 3.85558e-05 -1.09702e-07
4.06611e-07 -1.09702e-07 -6.66358e-06
0.00232372 -0.000480467 -3.86166e-06
-0.000480467 8.59106e-05 1.49966e-07
-3.86166e-06 1.49966e-07 -1.76654e-06
0.00242141 -0.000631773 1.17518e-06
-0.000631773 0.000111959 1.58689e-07
1.17518e-06 1.58689e-07 4.35621e-06
0.00240527 -0.000595478 6.47511e-07
-0.000595478 0.000184581 -1.02579e-07
6.47511e-07 -1.02579e-07 2.71772e-05
0.00236161 -0.000543296 -2.07955e-06
-0.000543296 0.000251983 -1.88965e-06
-2.07955e-06 -1.88965e-06 4.28738e-05
0.0022684 -0.00067554 1.0109e-06
-0.00067554 0.000153084 3.20861e-07
1.0109e-06 3.20861e-07 -6.82026e-05
0.00230988 -0.000617226 -7.44466e-07
-0.000617226 0.000269929 2.24136e-07
-7.44466e-07 2.24136e-07 3.93721e-06
0.00154669 -0.000400743 -1.06877e-05
-0.000400743 4.88826e-05 3.39211e-06
-1.06877e-05 3.39211e-06 -0.000205817
0.00237727 -0.000677564 1.34882e-06
-0.000677564 0.000389859 3.02496e-06
1.34882e-06 3.02496e-06 7.78313e-05
0.00157788 -0.000459044 2.38911e-08
-0.000459044 8.49328e-05 2.59468e-07
2.38911e-08 2.59468e-07 -0.000209228
0.0030952 -0.000295906 -6.35267e-05
-0.000295906 0.00151728 1.61819e-05
-6.35267e-05 1.61819e-05 0.00135764
0.00315893 -0.000167275 -0.000346588
-0.000167275 0.001706 5.59633e-05
-0.000346588 5.59633e-05 0.00168894
0.00178707 -0.0003121 -2.04807e-05
-0.0003121 0.000669857 6.24609e-07
-2.04807e-05 6.24609e-07 0.000480493
0.00158226 -0.00052711 1.86857e-05
-0.00052711 0.000122123 -4.468e-06
1.86857e-05 -4.468e-06 -0.000224265
0.00895286 -0.000199082 -8.59042e-06
-0.000199082 0.0055023 3.20888e-06
-8.59042e-06 3.20888e-06 0.00552534
7.02398e-05 -0.000331617 2.36145e-05
-0.000331617 -0.000423755 -2.4341e-05
2.36145e-05 -2.4341e-05 -0.000642202
0.00938639 -0.000156731 0.000414538
-0.000156731 0.00579374 -4.95513e-05
0.000414538 -4.95513e-05 0.00581167
0.00237491 0.000625566 4.02871e-06
0.000625566 0.000101474 2.20803e-06
4.02871e-06 2.20803e-06 -4.75998e-05
0.00238531 0.000813518 8.06319e-06
0.000813518 0.000261019 9.4058e-06
8.06319e-06 9.4058e-06 -4.16891e-05
0.00244066 0.00094821 7.96505e-07
0.00094821 0.000389512 1.68793e-09
7.96505e-07 1.68793e-09 -2.49548e-05
0.0023754 0.000839771 5.72112e-06
0.000839771 0.000492614 1.39706e-05
5.72112e-06 1.39706e-05 5.52848e-05
0.00226039 0.000953656 5.45449e-06
0.000953656 0.000446855 -1.57465e-05
5.45449e-06 -1.57465e-05 -4.48713e-05
0.00221448 0.000881007 8.30439e-07
0.000881007 0.000469021 2.59541e-07
8.30439e-07 2.59541e-07 -3.89263e-05
0.00128282 0.000565509 -3.81459e-05
0.000565509 0.00011299 -4.02827e-07
-3.81459e-05 -4.02827e-07 -0.000296978
0.00198271 0.000924284 4.79826e-06
0.000924284 0.000477174 -1.41044e-05
4.79826e-06 -1.41044e-05 -0.000112901
0.00104565 0.000498616 -5.10067e-06
0.000498616 4.80896e-05 2.41585e-07
-5.10067e-06 2.41585e-07 -0.000349978
-0.000140195 0.000329045 -3.12552e-05
0.000329045 -0.000494578 -2.70896e-05
-3.12552e-05 -2.70896e-05 -0.000706091
0.00163547 0.000377709 1.83039e-05
0.000377709 0.000589061 -3.77751e-06
1.83039e-05 -3.77751e-06 0.000254995
0.000270654 0.00026706 2.43441e-06
0.00026706 -0.000232432 -5.08978e-07
2.43441e-06 -5.08978e-07 -0.000409932
0.00935324 9.14581e-06 -0.000374944
9.14581e-06 0.00582518 -4.46868e-05
-0.000374944 -4.46868e-05 0.00582647
0.00065555 0.000248709 3.58502e-05
0.000248709 9.62509e-06 2.70866e-05
3.58502e-05 2.70866e-05 -0.000129512
0.00786646 -0.000132559 9.80792e-06
-0.000132559 0.00491538 -3.66435e-06
9.80792e-06 -3.66435e-06 0.00489779
0.00579109 -0.000226234 0.00013332
-0.000226234 0.00361425 2.20434e-05
0.00013332 2.20434e-05 0.00357024
0.00255611 0.000268862 -3.90358e-06
0.000268862 -0.000421499 9.10094e-07
-3.90358e-06 9.10094e-07 -9.40953e-05
0.00157234 0.000356831 -1.89694e-06
0.000356831 -0.00112451 -8.16223e-06
-1.89694e-06 -8.16223e-06 -0.000368337
0.0032892 0.00102209 -0.000184846
0.00102209 -0.00281538 -4.98841e-05
-0.000184846 -4.98841e-05 -0.000606248
0.00262039 0.000754271 8.50094e-07
0.000754271 0.000123661 7.75194e-07
8.50094e-07 7.75194e-07 -7.26792e-09
0.00273772 0.00105588 -4.96093e-06
0.00105588 0.00037165 -6.92998e-07
-4.96093e-06 -6.92998e-07 3.0358e-05
0.00256174 0.00116699 -1.94323e-07
0.00116699 0.000456387 -1.00433e-05
-1.94323e-07 -1.00433e-05 -4.64706e-05
0.00252867 0.000784365 1.55722e-06
0.000784365 0.00020518 1.13234e-06
1.55722e-06 1.13234e-06 -1.85585e-05
0.00268008 0.00101958 -1.93079e-06
0.00101958 0.000405348 -1.0663e-05
-1.93079e-06 -1.0663e-05 3.59789e-05
0.00285528 0.000591638 5.42748e-06
0.000591638 -4.97214e-05 2.47449e-07
5.42748e-06 2.47449e-07 7.22765e-05
0.00288253 0.000962148 -1.71161e-06
0.000962148 0.000151661 1.06176e-06
-1.71161e-06 1.06176e-06 7.69782e-06
0.00302204 0.00121214 6.26828e-06
0.00121214 0.000523741 -4.51254e-06
6.26828e-06 -4.51254e-06 0.000119465
0.00231178 0.000550653 -2.12115e-07
0.000550653 -0.000357554 4.90471e-07
-2.12115e-07 4.90471e-07 -0.000141336
0.00254318 0.0011314 5.44625e-06
0.0011314 4.43805e-05 -4.30075e-06
5.44625e-06 -4.30075e-06 -0.000165047
-0.000724619 0.000535894 -4.10743e-05
0.000535894 -0.002154 -6.62558e-06
-4.10743e-05 -6.62558e-06 -0.00142292
0.00264863 0.00012724 -1.56822e-06
0.00012724 -0.00020215 7.80739e-07
-1.56822e-06 7.80739e-07 2.90158e-05
0.00271237 0.000213164 1.0354e-06
0.000213164 -0.000323837 5.76414e-07
1.0354e-06 5.76414e-07 -2.71644e-05
0.0030475 3.47039e-05 -5.86584e-05
3.47039e-05 -0.000147922 3.45181e-06
-5.86584e-05 3.45181e-06 0.000198138
0.00256304 -0.000402983 -2.84692e-05
-0.000402983 -0.000589822 6.44861e-06
-2.84692e-05 6.44861e-06 -0.000101977
0.00315985 0.000170071 3.48464e-06
0.000170071 -9.23249e-05 -7.61312e-07
3.48464e-06 -7.61312e-07 0.000151198
0.00273666 -7.28258e-05 -1.1799e-06
-7.28258e-05 -0.000276321 -7.09459e-07
-1.1799e-06 -7.09459e-07 3.72648e-06
0.00242063 -8.39111e-05 1.28828e-06
-8.39111e-05 -0.000150754 3.28011e-08
1.28828e-06 3.28011e-08 -5.28097e-06
0.00257238 -0.00038121 7.31274e-07
-0.00038121 -0.000284933 -3.79168e-07
7.31274e-07 -3.79168e-07 -6.8518e-05
0.00251797 -0.000308877 -4.22439e-08
-0.000308877 -0.000147013 -1.32321e-08
-4.22439e-08 -1.32321e-08 6.60839e-06
0.00231224 -0.000255668 1.6832e-06
-0.000255668 -6.88663e-05 -7.38281e-07
1.6832e-06 -7.38281e-07 -1.46659e-05
0.00251433 -0.000460784 -1.56994e-06
-0.000460784 -8.79418e-05 9.08404e-07
-1.56994e-06 9.08404e-07 -1.29673e-05
0.00235857 -0.000387279 2.44608e-08
-0.000387279 -2.95326e-05 8.30067e-08
2.44608e-08 8.30067e-08 -1.12434e-05
0.00230568 -0.000363988 -4.38471e-06
-0.000363988 5.12354e-05 7.64404e-07
-4.38471e-06 7.64404e-07 1.27939e-05
0.00240149 -0.000513575 5.25768e-07
-0.000513575 4.35974e-05 7.14684e-08
5.25768e-07 7.14684e-08 -2.06079e-06
0.00235509 -0.000483604 2.85387e-07
-0.000483604 0.000105866 -2.5273e-07
2.85387e-07 -2.5273e-07 1.67556e-05
0.00232878 -0.000455176 -2.23865e-06
-0.000455176 0.000189864 -4.81231e-07
-2.23865e-06 -4.81231e-07 3.48092e-05
0.00241157 -0.00059564 3.19884e-06
-0.00059564 0.000189355 -1.92109e-07
3.19884e-06 -1.92109e-07 3.1335e-05
0.00228934 -0.000538719 -9.84192e-07
-0.000538719 0.000200798 -2.317e-07
-9.84192e-07 -2.317e-07 -7.69694e-06
0.00148531 -0.000342172 -8.11129e-06
-0.000342172 -1.18716e-05 2.84542e-06
-8.11129e-06 2.84542e-06 -0.00023327
0.00235083 -0.000620857 2.55867e-06
-0.000620857 0.00029752 1.95807e-06
2.55867e-06 1.95807e-06 3.06029e-05
0.00156011 -0.00040365 -1.00779e-07
-0.00040365 4.75637e-05 8.16394e-08
-1.00779e-07 8.16394e-08 -0.000206745
0.00298267 -0.000266767 -6.90192e-05
-0.000266767 0.00144735 1.51367e-05
-6.90192e-05 1.51367e-05 0.00130564
0.00159981 -0.000463868 1.2911e-05
-0.000463868 8.82197e-05 -3.93785e-06
1.2911e-05 -3.93785e-06 -0.000206107
0.00319414 -0.000326073 6.00011e-05
-0.000326073 0.00158617 -1.07304e-05
6.00011e-05 -1.07304e-05 0.00143907
0.00285367 -0.000181268 -0.000325525
-0.000181268 0.001522 5.74562e-05
-0.000325525 5.74562e-05 0.00149999
0.00571847 -0.000210548 -0.00031609
-0.000210548 0.00340017 4.21225e-05
-0.00031609 4.21225e-05 0.00340066
0.00338269 -0.000393003 0.000200441
-0.000393003 0.00172249 -3.70439e-05
0.000200441 -3.70439e-05 0.00156906
0.00878199 -0.000206484 0.000407604
-0.000206484 0.00539964 -5.25541e-05
0.000407604 -5.25541e-05 0.00541867
0.00245548 0.000598538 5.42728e-07
0.000598538 9.95626e-05 -7.86612e-07
5.42728e-07 -7.86612e-07 1.6448e-05
0.00226945 0.000652529 2.50582e-06
0.000652529 0.000154415 4.35543e-06
2.50582e-06 4.35543e-06 -5.82482e-05
0.00238569 0.000615146 7.18218e-07
0.000615146 0.000116293 1.1278e-07
7.18218e-07 1.1278e-07 -2.2516e-05
0.00228554 0.000721158 1.07741e-06
0.000721158 0.00032344 1.04049e-05
1.07741e-06 1.04049e-05 -1.81566e-05
0.00246018 0.00081891 -4.42168e-08
0.00081891 0.000300594 -5.06562e-07
-4.42168e-08 -5.06562e-07 -3.64876e-06
0.00272952 0.000970581 -3.27002e-06
0.000970581 0.000576495 -1.33189e-05
-3.27002e-06 -1.33189e-05 0.000169
0.00223576 0.000828537 8.28609e-07
0.000828537 0.000391842 2.24036e-07
8.28609e-07 2.24036e-07 -4.32661e-05
0.00158768 0.000580581 -3.47408e-05
0.000580581 0.000161623 -1.91265e-06
-3.47408e-05 -1.91265e-06 -0.000217494
0.00194813 0.000852759 -9.04233e-07
0.000852759 0.000291747 -1.53751e-05
-9.04233e-07 -1.53751e-05 -0.000209853
0.00134283 0.000591422 -3.98825e-06
0.000591422 0.000125901 -2.3156e-08
-3.98825e-06 -2.3156e-08 -0.000293998
0.00016622 0.00034109 -2.86091e-05
0.00034109 -0.000339383 -2.34024e-05
-2.86091e-05 -2.34024e-05 -0.00056101
0.00153181 0.000513917 3.15029e-05
0.000513917 0.000338966 2.11234e-06
3.15029e-05 2.11234e-06 -4.9677e-05
8.46127e-05 0.000296619 1.27524e-06
0.000296619 -0.000362522 2.30906e-06
1.27524e-06 2.30906e-06 -0.000563748
0.00949795 0.000111609 -0.000397694
0.000111609 0.00588068 -4.96431e-05
-0.000397694 -4.96431e-05 0.00588879
0.000117546 0.000224051 2.69779e-05
0.000224051 -0.000342697 2.95872e-05
2.69779e-05 2.95872e-05 -0.000511765
0.00873742 -3.80897e-05 1.27692e-05
-3.80897e-05 0.00542665 -1.72261e-06
1.27692e-05 -1.72261e-06 0.00542644
0.00750273 -0.000158045 0.000230247
-0.000158045 0.00467657 2.22876e-05
0.000230247 2.22876e-05 0.00465745
0.00267069 0.000349538 1.82169e-06
0.000349538 -0.000170779 -7.56801e-07
1.82169e-06 -7.56801e-07 1.87855e-05
0.00244895 0.000279153 2.67205e-06
0.000279153 -0.000408641 -1.82431e-06
2.67205e-06 -1.82431e-06 -8.49053e-05
0.000721502 0.000305374 -6.09852e-05
0.000305374 -0.00197076 -8.11448e-06
-6.09852e-05 -8.11448e-06 -0.00102499
0.00254619 0.000518629 3.91383e-06
0.000518629 -3.11775e-05 4.45535e-07
3.91383e-06 4.45535e-07 1.73301e-06
0.00256181 0.000746521 -1.50387e-06
0.000746521 9.76875e-05 6.85416e-07
-1.50387e-06 6.85416e-07 -2.00671e-05
0.0025976 0.00102972 7.73136e-06
0.00102972 0.000318381 -4.62729e-06
7.73136e-06 -4.62729e-06 -1.06337e-05
0.00254606 0.000769194 -5.37154e-06
0.000769194 0.00023649 -4.48441e-06
-5.37154e-06 -4.48441e-06 1.21349e-05
0.00278504 0.000578797 -2.2482e-06
0.000578797 -8.31727e-05 2.91898e-07
-2.2482e-06 2.91898e-07 3.3789e-05
0.00277559 0.000948302 2.62279e-07
0.000948302 0.000114386 -4.06347e-06
2.62279e-07 -4.06347e-06 -2.05944e-05
0.00220599 0.000542063 4.71167e-06
0.000542063 -0.000302214 -3.68802e-06
4.71167e-06 -3.68802e-06 -9.54596e-05
0.00248067 0.000100746 9.76898e-07
0.000100746 -0.000120868 5.57053e-07
9.76898e-07 5.57053e-07 1.46733e-05
0.00257772 0.000128984 5.56474e-07
0.000128984 -0.000235039 -5.01584e-07
5.56474e-07 -5.01584e-07 -9.13742e-06
0.00263447 0.000206118 -5.14101e-06
0.000206118 -0.000369064 2.05415e-06
-5.14101e-06 2.05415e-06 -7.53458e-05
0.0022858 -1.30538e-05 4.85817e-07
-1.30538e-05 -0.00012588 8.12748e-08
4.85817e-07 8.12748e-08 -2.99584e-05
0.00274514 -8.08764e-05 2.61221e-06
-8.08764e-05 -0.000278027 -1.06554e-06
2.61221e-06 -1.06554e-06 -1.58671e-06
0.00242894 -8.86594e-05 -4.55196e-07
-8.86594e-05 -0.000145201 4.27445e-07
-4.55196e-07 4.27445e-07 -7.55018e-07
0.00227734 -0.000132869 7.67636e-07
-0.000132869 -7.9504e-05 -3.65336e-07
7.67636e-07 -3.65336e-07 -1.59719e-05
0.00247854 -0.000318422 -1.15518e-06
-0.000318422 -0.000166607 7.14314e-07
-1.15518e-06 7.14314e-07 -2.31672e-05
0.00231198 -0.000251976 6.22226e-07
-0.000251976 -7.08164e-05 -3.81521e-07
6.22226e-07 -3.81521e-07 -1.56241e-05
0.00225202 -0.000248083 -3.48098e-06
-0.000248083 1.58207e-05 6.87429e-07
-3.48098e-06 6.87429e-07 1.28343e-06
0.00235617 -0.000385664 -2.30107e-07
-0.000385664 -3.55356e-05 1.66715e-07
-2.30107e-07 1.66715e-07 -1.70487e-05
0.00230357 -0.000363778 1.89152e-07
-0.000363778 4.68351e-05 -1.66062e-07
1.89152e-07 -1.66062e-07 8.41884e-06
0.0022706 -0.000353193 -2.19566e-06
-0.000353193 0.000120656 3.45826e-07
-2.19566e-06 3.45826e-07 1.0479e-05
0.00239421 -0.00048698 4.15993e-06
-0.00048698 0.000131464 -6.45478e-07
4.15993e-06 -6.45478e-07 4.08712e-05
0.00228005 -0.000449757 -6.09532e-07
-0.000449757 0.000160715 -1.01293e-07
-6.09532e-07 -1.01293e-07 6.73753e-06
0.00148062 -0.000282677 -5.40462e-06
-0.000282677 -2.59691e-05 2.03624e-06
-5.40462e-06 2.03624e-06 -0.000217943
0.00221787 -0.000534052 2.03965e-06
-0.000534052 0.000150195 6.91881e-07
2.03965e-06 6.91881e-07 -5.76447e-05
0.00153629 -0.000344951 -2.47349e-07
-0.000344951 1.41392e-05 4.98525e-08
-2.47349e-07 4.98525e-08 -0.000206304
0.00284584 -0.000236894 -7.35801e-05
-0.000236894 0.00136569 1.40371e-05
-7.35801e-05 1.40371e-05 0.00123819
0.00156505 -0.000406192 8.77851e-06
-0.000406192 4.04576e-05 -3.25869e-06
8.77851e-06 -3.25869e-06 -0.000213371
0.00307505 -0.000282355 5.44701e-05
-0.000282355 0.00150794 -8.32409e-06
5.44701e-05 -8.32409e-06 0.00137935
0.00277964 -0.000151653 -0.000314147
-0.000151653 0.00146979 4.89911e-05
-0.000314147 4.89911e-05 0.00145114
0.00327874 -0.000327037 0.000186887
-0.000327037 0.00163674 -3.58964e-05
0.000186887 -3.58964e-05 0.00150636
0.00243193 -0.000116066 -0.000123158
-0.000116066 0.00124516 2.06108e-05
-0.000123158 2.06108e-05 0.00120478
0.00805594 -0.000139006 0.00015089
-0.000139006 0.0049138 -1.19715e-05
0.00015089 -1.19715e-05 0.00489154
0.00243491 0.000499172 6.65827e-08
0.000499172 6.89873e-05 6.72484e-08
6.65827e-08 6.72484e-08 2.46283e-05
0.0023858 0.000578721 -2.16109e-06
0.000578721 0.000143706 -5.15548e-07
-2.16109e-06 -5.15548e-07 8.92848e-06
0.00246078 0.000594166 -2.53506e-06
0.000594166 0.000104985 2.00475e-07
-2.53506e-06 2.00475e-07 1.68427e-05
0.00214878 0.000603099 -2.00482e-06
0.000603099 0.000154673 4.05075e-06
-2.00482e-06 4.05075e-06 -0.000112616
0.00236186 0.000671564 -1.05111e-06
0.000671564 0.000190693 -1.81216e-06
-1.05111e-06 -1.81216e-06 -1.20207e-05
0.00239187 0.000603343 -7.33296e-06
0.000603343 0.000129167 -4.13104e-06
-7.33296e-06 -4.13104e-06 8.41869e-07
0.00163893 0.000501196 -2.48173e-05
0.000501196 8.86786e-05 -2.2696e-06
-2.48173e-05 -2.2696e-06 -0.000222242
0.00226978 0.000720431 1.52465e-06
0.000720431 0.000310752 4.90568e-07
1.52465e-06 4.90568e-07 -3.03462e-05
0.00255223 0.00082641 -2.51894e-06
0.00082641 0.000351564 -9.29102e-06
-2.51894e-06 -9.29102e-06 4.40178e-05
0.00212739 0.000819581 -4.21266e-06
0.000819581 0.000313713 -1.33285e-05
-4.21266e-06 -1.33285e-05 -0.000119539
0.00163342 0.000586258 -6.4811e-07
0.000586258 0.000191382 2.96732e-07
-6.4811e-07 2.96732e-07 -0.000190856
0.000409792 0.000328094 -2.61108e-05
0.000328094 -0.000215417 -2.02594e-05
-2.61108e-05 -2.02594e-05 -0.000428416
0.00173691 0.00063878 4.17538e-05
0.00063878 0.000356864 2.90273e-06
4.17538e-05 2.90273e-06 -7.45624e-05
0.000151871 0.000322141 7.59566e-07
0.000322141 -0.000337236 1.27514e-06
7.59566e-07 1.27514e-06 -0.000555061
0.00893015 0.000198289 -0.000394061
0.000198289 0.00550925 -5.58533e-05
-0.000394061 -5.58533e-05 0.00551532
0.00031955 0.000272133 2.80743e-05
0.000272133 -0.000216122 2.65413e-05
2.80743e-05 2.65413e-05 -0.000411571
0.00940816 7.23653e-05 9.02351e-06
7.23653e-05 0.00581776 1.49416e-06
9.02351e-06 1.49416e-06 0.00583089
0.00870419 -7.12967e-05 0.000309483
-7.12967e-05 0.00540121 2.51658e-05
0.000309483 2.51658e-05 0.00540346
0.00245289 0.000283765 1.16969e-06
0.000283765 -9.50176e-05 4.88903e-07
1.16969e-06 4.88903e-07 8.05328e-07
0.00264749 0.000357697 -5.4074e-07
0.000357697 -0.000212377 4.11151e-07
-5.4074e-07 4.11151e-07 -1.45984e-05
0.00236525 0.000264422 -2.67201e-06
0.000264422 -0.000420473 1.03591e-06
-2.67201e-06 1.03591e-06 -8.84673e-05
0.00253074 0.000513402 -6.33349e-07
0.000513402 -3.87813e-05 1.31283e-07
-6.33349e-07 1.31283e-07 -3.85625e-06
0.00251489 0.000741617 -1.89474e-06
0.000741617 7.86619e-05 -2.43395e-06
-1.89474e-06 -2.43395e-06 -3.37653e-05
0.00270541 0.000562545 -8.29511e-07
0.000562545 -0.00013525 -9.45935e-07
-8.29511e-07 -9.45935e-07 -1.91266e-05
0.00236562 9.46102e-05 1.2308e-06
9.46102e-05 -7.23137e-05 3.65713e-07
1.2308e-06 3.65713e-07 9.16692e-06
0.0024673 0.000100355 1.15594e-07
0.000100355 -0.00012439 -1.44701e-07
1.15594e-07 -1.44701e-07 9.91571e-06
0.0025439 0.000130444 4.56027e-07
0.000130444 -0.000242354 -1.04665e-08
4.56027e-07 -1.04665e-08 -2.31836e-05
0.0023208 -9.01209e-06 -6.25901e-07
-9.01209e-06 -9.82649e-05 7.77546e-08
-6.25901e-07 7.77546e-08 -5.04438e-06
0.00226713 -3.12512e-05 -8.47665e-07
-3.12512e-05 -2.31574e-05 -4.38913e-08
-8.47665e-07 -4.38913e-08 2.5725e-05
0.00243813 -9.31222e-05 -1.42777e-06
-9.31222e-05 -0.000139502 1.47051e-07
-1.42777e-06 1.47051e-07 4.11736e-06
0.00228685 -0.000135018 -9.81412e-07
-0.000135018 -6.37171e-05 2.16172e-07
-9.81412e-07 2.16172e-07 -6.04537e-06
0.00213932 -0.000151293 -3.71364e-06
-0.000151293 -5.77273e-05 4.72441e-07
-3.71364e-06 4.72441e-07 -5.32596e-05
0.00230791 -0.000248622 -1.08468e-07
-0.000248622 -7.49433e-05 -5.3001e-08
-1.08468e-07 -5.3001e-08 -1.88251e-05
0.0022337 -0.000246502 1.06825e-06
-0.000246502 3.97348e-06 -2.36706e-07
1.06825e-06 -2.36706e-07 -1.01346e-05
0.00230355 -0.000257445 -1.62e-06
-0.000257445 0.000116151 1.26033e-06
-1.62e-06 1.26033e-06 4.04967e-05
0.00229789 -0.000364425 4.44042e-06
-0.000364425 4.03102e-05 -1.01691e-06
4.44042e-06 -1.01691e-06 1.71794e-06
0.00226858 -0.000351585 -2.14662e-07
-0.000351585 0.000122728 -3.12182e-07
-2.14662e-07 -3.12182e-07 1.32779e-05
0.00150945 -0.000224109 -3.56128e-06
-0.000224109 -1.40647e-05 9.78096e-07
-3.56128e-06 9.78096e-07 -0.000179702
0.00221872 -0.000443961 2.24978e-06
-0.000443961 0.00012191 -2.44671e-08
2.24978e-06 -2.44671e-08 -3.10065e-05
0.00153378 -0.000285259 -3.10894e-07
-0.000285259 7.21873e-07 2.57095e-07
-3.10894e-07 2.57095e-07 -0.000190385
0.00272995 -0.000215659 -7.38858e-05
-0.000215659 0.00130026 1.19526e-05
-7.38858e-05 1.19526e-05 0.00118576
0.00158949 -0.000348104 6.62267e-06
-0.000348104 4.13274e-05 -2.70361e-06
6.62267e-06 -2.70361e-06 -0.000178171
0.00296713 -0.000235041 5.15528e-05
-0.000235041 0.00143937 -6.30884e-06
5.15528e-05 -6.30884e-06 0.00132662
0.00270588 -0.000123564 -0.000306888
-0.000123564 0.0014188 4.0145e-05
-0.000306888 4.0145e-05 0.00140329
0.0031771 -0.000271453 0.000180456
-0.000271453 0.00156499 -2.97575e-05
0.000180456 -2.97575e-05 0.00145367
0.0023734 -0.000108541 -0.000112334
-0.000108541 0.00120987 1.58107e-05
-0.000112334 1.58107e-05 0.0011716
0.00205704 -0.000107902 8.6404e-05
-0.000107902 0.00101745 -1.51473e-05
8.6404e-05 -1.51473e-05 0.000951069
0.0023218 0.000313095 8.76395e-07
0.000313095 -3.57418e-05 3.99551e-07
8.76395e-07 3.99551e-07 -1.85979e-05
0.00234925 0.000457269 -3.70397e-06
0.000457269 9.87662e-05 -2.16877e-07
-3.70397e-06 -2.16877e-07 9.48476e-06
0.00241913 0.000500196 -6.29673e-07
0.000500196 3.76212e-05 -2.75089e-07
-6.29673e-07 -2.75089e-07 5.58486e-06
0.00231526 0.000547728 -4.57278e-07
0.000547728 0.000195076 1.35883e-06
-4.57278e-07 1.35883e-06 -5.90773e-06
0.00236519 0.00057332 -5.70078e-07
0.00057332 0.000138231 -2.32841e-07
-5.70078e-07 -2.32841e-07 -2.86965e-06
0.00247164 0.000591414 -6.81666e-07
0.000591414 0.000113974 9.56138e-08
-6.81666e-07 9.56138e-08 2.015e-05
0.00156518 0.000416331 -1.64193e-05
0.000416331 3.20108e-05 -2.56732e-06
-1.64193e-05 -2.56732e-06 -0.000225227
0.00222429 0.000614711 1.85458e-07
0.000614711 0.000196202 -1.60689e-06
1.85458e-07 -1.60689e-06 -6.09158e-05
0.00245769 0.000691872 -4.27949e-06
0.000691872 0.000228101 -5.48189e-06
-4.27949e-06 -5.48189e-06 3.51063e-05
0.00040315 0.000260263 -2.20599e-05
0.000260263 -0.000240297 -1.6411e-05
-2.20599e-05 -1.6411e-05 -0.000425352
0.00160891 0.000491811 8.15273e-08
0.000491811 8.42988e-05 1.41969e-07
8.15273e-08 1.41969e-07 -0.000225198
0.00222135 0.00071632 -4.75806e-07
0.00071632 0.000276103 -1.05467e-05
-4.75806e-07 -1.05467e-05 -6.35967e-05
0.00159643 0.000586697 3.70226e-05
0.000586697 0.0001636 2.32145e-06
3.70226e-05 2.32145e-06 -0.000221279
0.000298676 0.000313864 1.61548e-07
0.000313864 -0.000284435 1.03054e-06
1.61548e-07 1.03054e-06 -0.000496873
0.00845917 0.000284737 -0.000391087
0.000284737 0.00520447 -5.96107e-05
-0.000391087 -5.96107e-05 0.00520664
0.000237377 0.00030638 2.67523e-05
0.00030638 -0.000277015 2.19245e-05
2.67523e-05 2.19245e-05 -0.000490013
0.00908409 0.000178519 1.01007e-05
0.000178519 0.00559516 2.37554e-06
1.01007e-05 2.37554e-06 0.00561021
0.00912052 3.65536e-05 0.000364597
3.65536e-05 0.00562553 3.27224e-05
0.000364597 3.27224e-05 0.00563938
0.00235424 0.000175772 1.03488e-06
0.000175772 -3.69106e-05 2.10954e-07
1.03488e-06 2.10954e-07 2.69738e-05
0.00242 0.000288242 4.74733e-07
0.000288242 -0.000123705 2.85709e-07
4.74733e-07 2.85709e-07 -2.84186e-05
0.00261603 0.000368881 -6.68662e-07
0.000368881 -0.000252967 1.1075e-06
-6.68662e-07 1.1075e-06 -4.79483e-05
0.00251644 0.000506812 -3.38358e-07
0.000506812 -4.57566e-05 -4.47207e-07
-3.38358e-07 -4.47207e-07 -9.7877e-06
0.00222566 4.31584e-05 -1.32585e-06
4.31584e-05 -9.29036e-06 2.14514e-07
-1.32585e-06 2.14514e-07 1.44943e-05
0.00236565 8.37558e-05 1.01057e-07
8.37558e-05 -7.5759e-05 -7.86784e-08
1.01057e-07 -7.86784e-08 8.71733e-06
0.0024572 9.96791e-05 -2.19281e-07
9.96791e-05 -0.000124945 -4.83431e-07
-2.19281e-07 -4.83431e-07 7.85684e-06
0.00234894 -4.54143e-06 -3.11045e-06
-4.54143e-06 -7.54383e-05 -2.01833e-07
-3.11045e-06 -2.01833e-07 1.49302e-05
0.00227759 -2.50732e-05 -6.21476e-07
-2.50732e-05 -2.23178e-05 -1.22884e-07
-6.21476e-07 -1.22884e-07 3.01503e-05
0.00219433 -5.78065e-05 -4.56692e-06
-5.78065e-05 7.11623e-06 1.12017e-07
-4.56692e-06 1.12017e-07 9.53296e-06
0.00229804 -0.000137061 -4.70534e-07
-0.000137061 -4.6736e-05 6.28125e-07
-4.70534e-07 6.28125e-07 4.80479e-06
0.00219846 -0.000152385 -1.61713e-06
-0.000152385 -7.13705e-06 3.26104e-07
-1.61713e-06 3.26104e-07 -1.0152e-05
0.00222947 -0.000167847 -1.74918e-06
-0.000167847 4.40191e-05 6.15552e-07
-1.74918e-06 6.15552e-07 -6.34836e-06
0.00221553 -0.00024401 5.55011e-06
-0.00024401 -9.21187e-06 -1.1331e-06
5.55011e-06 -1.1331e-06 -2.26637e-05
0.00229385 -0.000254769 7.45199e-07
-0.000254769 0.000113276 -1.36144e-07
7.45199e-07 -1.36144e-07 3.786e-05
0.00150508 -0.000166744 -3.506e-06
-0.000166744 -2.17372e-05 6.76561e-07
-3.506e-06 6.76561e-07 -0.000166329
0.00227716 -0.000348743 2.38549e-06
-0.000348743 0.000132626 -1.14377e-06
2.38549e-06 -1.14377e-06 2.4272e-05
0.00151588 -0.00022418 -1.20033e-07
-0.00022418 -1.78748e-05 9.39708e-08
-1.20033e-07 9.39708e-08 -0.000182808
0.000299092 -0.000115483 -1.62897e-05
-0.000115483 -0.000303997 6.98984e-06
-1.62897e-05 6.98984e-06 -0.000423266
0.00159172 -0.000287739 4.53727e-06
-0.000287739 3.18981e-05 -1.65571e-06
4.53727e-06 -1.65571e-06 -0.000158227
0.00161966 -0.000156967 7.62153e-05
-0.000156967 0.000556716 -6.58167e-06
7.62153e-05 -6.58167e-06 0.000448779
0.00732764 -0.00019747 -0.000402239
-0.00019747 0.00447414 3.41937e-05
-0.000402239 3.41937e-05 0.004505
0.00309547 -0.000217317 0.000175036
-0.000217317 0.00151203 -2.32226e-05
0.000175036 -2.32226e-05 0.00141625
0.00231667 -9.82769e-05 -0.000102335
-9.82769e-05 0.00117775 1.02823e-05
-0.000102335 1.02823e-05 0.00114051
0.0019592 -0.000119072 9.67025e-05
-0.000119072 0.000964895 -1.63363e-05
9.67025e-05 -1.63363e-05 0.000898392
0.00225304 0.000209213 1.15601e-07
0.000209213 -2.02158e-05 -2.79999e-07
1.15601e-07 -2.79999e-07 -4.77649e-06
0.00228262 0.000345389 -2.85789e-06
0.000345389 3.4696e-05 1.49036e-07
-2.85789e-06 1.49036e-07 -1.07083e-05
0.00234639 0.000305265 -4.75271e-07
0.000305265 -3.51024e-06 -1.01379e-07
-4.75271e-07 -1.01379e-07 6.5247e-06
0.00230974 0.000438549 -1.77221e-07
0.000438549 0.000168274 1.38117e-06
-1.77221e-07 1.38117e-06 2.62928e-05
0.0023152 0.000456421 3.82235e-07
0.000456421 7.79822e-05 -4.53583e-09
3.82235e-07 -4.53583e-09 -1.01565e-05
0.00239861 0.000500787 -6.82395e-07
0.000500787 2.99264e-06 -3.36438e-07
-6.82395e-07 -3.36438e-07 -1.66912e-05
0.00167897 0.000365854 -8.12475e-06
0.000365854 0.000107016 -2.54941e-07
-8.12475e-06 -2.54941e-07 -0.000104483
0.0022685 0.000539881 -1.02834e-06
0.000539881 0.000165965 -6.80119e-07
-1.02834e-06 -6.80119e-07 -3.58218e-05
0.00233804 0.000566352 1.50252e-06
0.000566352 0.000129368 -8.64369e-07
1.50252e-06 -8.64369e-07 -1.78618e-05
0.000373443 0.000191856 -1.85184e-05
0.000191856 -0.000265661 -1.2245e-05
-1.85184e-05 -1.2245e-05 -0.000424129
0.00157317 0.000413864 5.65928e-07
0.000413864 4.56799e-05 2.78129e-07
5.65928e-07 2.78129e-07 -0.000205037
0.00229435 0.00062432 1.64042e-07
0.00062432 0.000236635 -8.86842e-06
1.64042e-07 -8.86842e-06 -9.92007e-06
0.00806935 0.000333517 -0.000392817
0.000333517 0.00495504 -5.77468e-05
-0.000392817 -5.77468e-05 0.0049573
0.000352755 0.000258825 4.40688e-07
0.000258825 -0.000278499 7.22477e-07
4.40688e-07 7.22477e-07 -0.000465988
0.0015819 0.000483134 2.73402e-05
0.000483134 8.24243e-05 2.38704e-06
2.73402e-05 2.38704e-06 -0.000225848
0.00023881 0.000302253 2.3599e-05
0.000302253 -0.000319643 2.07838e-05
2.3599e-05 2.07838e-05 -0.00053208
0.00857919 0.000283443 9.23434e-06
0.000283443 0.00527891 3.24106e-06
9.23434e-06 3.24106e-06 0.005287
0.00919092 0.000154514 0.000417057
0.000154514 0.00564732 4.13366e-05
0.000417057 4.13366e-05 0.00567123
0.00216825 0.000110938 -2.2464e-06
0.000110938 -3.39105e-05 1.44671e-07
-2.2464e-06 1.44671e-07 -2.18375e-05
0.0023508 0.000170077 -1.24769e-07
0.000170077 -4.04739e-05 4.02349e-08
-1.24769e-07 4.02349e-08 2.04657e-05
0.00238638 0.000292402 -5.7867e-07
0.000292402 -0.000152175 7.21102e-08
-5.7867e-07 7.21102e-08 -5.74153e-05
0.00223195 2.31009e-05 -6.45831e-06
2.31009e-05 5.95193e-05 -2.05565e-07
-6.45831e-06 -2.05565e-07 4.9732e-05
0.00220028 5.05206e-05 8.28499e-07
5.05206e-05 -3.10957e-05 4.27902e-08
8.28499e-07 4.27902e-08 -2.7412e-06
0.00236533 7.20911e-05 -1.53332e-06
7.20911e-05 -8.00062e-05 -2.55088e-07
-1.53332e-06 -2.55088e-07 7.79292e-06
0.00229388 -1.91434e-05 -4.55672e-08
-1.91434e-05 -1.76703e-05 8.94443e-08
-4.55672e-08 8.94443e-08 3.87258e-05
0.00219853 -5.66794e-05 -3.55497e-07
-5.66794e-05 9.36234e-06 2.71662e-08
-3.55497e-07 2.71662e-08 1.28185e-05
0.0020643 -7.68377e-05 -1.62882e-06
-7.68377e-05 -5.36146e-05 -7.33022e-08
-1.62882e-06 -7.33022e-08 -0.000113643
0.00225639 -0.000153714 4.18146e-06
-0.000153714 4.33868e-05 -3.45752e-07
4.18146e-06 -3.45752e-07 3.29423e-05
0.00222259 -0.000170495 7.52681e-07
-0.000170495 5.1273e-05 -2.28155e-08
7.52681e-07 -2.28155e-08 -9.96403e-06
0.00157642 -0.000105961 -4.06266e-06
-0.000105961 2.46179e-05 2.63556e-07
-4.06266e-06 2.63556e-07 -9.17961e-05
0.00228308 -0.000253571 2.67672e-06
-0.000253571 0.000110607 -1.5132e-06
2.67672e-06 -1.5132e-06 3.50926e-05
0.00149109 -0.000163077 9.52214e-08
-0.000163077 -4.08955e-05 -2.50572e-08
9.52214e-08 -2.50572e-08 -0.000184501
0.000273706 -4.40237e-05 -1.48951e-05
-4.40237e-05 -0.00031468 3.92723e-06
-1.48951e-05 3.92723e-06 -0.000420707
0.00152543 -0.000223011 3.00708e-06
-0.000223011 -2.26754e-05 -1.05752e-06
3.00708e-06 -1.05752e-06 -0.000186628
0.000319287 -0.000100474 -3.97265e-07
-0.000100474 -0.000286799 5.09007e-07
-3.97265e-07 5.09007e-07 -0.000405003
0.0071973 -8.93325e-05 -0.000389382
-8.93325e-05 0.00438115 2.21156e-05
-0.000389382 2.21156e-05 0.00441912
0.000441748 -0.000115701 1.26107e-05
-0.000115701 -0.000217308 -9.13705e-06
1.26107e-05 -9.13705e-06 -0.000347063
0.00469499 -0.000130498 0.000164924
-0.000130498 0.00275103 -1.032e-05
0.000164924 -1.032e-05 0.00273609
0.00190557 -0.000104643 0.000100851
-0.000104643 0.000933924 -1.50397e-05
0.000100851 -1.50397e-05 0.000870271
0.0022799 0.000176267 -4.64354e-06
0.000176267 7.15184e-05 -3.62408e-07
-4.64354e-06 -3.62408e-07 7.55723e-05
0.00223921 0.000245819 -5.61636e-06
0.000245819 4.4357e-05 -1.57513e-07
-5.61636e-06 -1.57513e-07 6.66275e-06
0.00224446 0.000200667 -7.24573e-07
0.000200667 -1.93484e-05 -3.08964e-07
-7.24573e-07 -3.08964e-07 -3.36913e-06
0.00236317 0.000352311 -7.53566e-07
0.000352311 0.000200684 9.66863e-07
-7.53566e-07 9.66863e-07 8.56938e-05
0.00230817 0.000342321 -1.54448e-07
0.000342321 5.45397e-05 -1.33646e-07
-1.54448e-07 -1.33646e-07 8.02712e-06
0.00237077 0.000297827 2.90643e-07
0.000297827 2.91394e-05 -3.29979e-07
2.90643e-07 -3.29979e-07 3.19555e-05
0.00157046 0.000291877 -3.48623e-06
0.000291877 2.87946e-05 -8.20482e-08
-3.48623e-06 -8.20482e-08 -0.000150963
0.00223011 0.000433757 1.49682e-06
0.000433757 0.00012205 2.8927e-07
1.49682e-06 2.8927e-07 -3.02667e-05
0.00228063 0.000455724 3.36469e-06
0.000455724 5.69721e-05 -1.17055e-07
3.36469e-06 -1.17055e-07 -2.98083e-05
0.000339025 0.000141753 -1.61089e-05
0.000141753 -0.000284646 -8.92365e-06
-1.61089e-05 -8.92365e-06 -0.000424865
0.00162441 0.000357291 2.12871e-06
0.000357291 7.79819e-05 1.21397e-06
2.12871e-06 1.21397e-06 -0.000130772
0.00223166 0.000533209 -1.06769e-06
0.000533209 0.000143393 -2.71507e-06
-1.06769e-06 -2.71507e-06 -5.90017e-05
0.00773221 0.00035351 -0.00040145
0.00035351 0.00475098 -5.37562e-05
-0.00040145 -5.37562e-05 0.00475354
0.000352345 0.000196286 5.13712e-07
0.000196286 -0.000284466 5.18405e-07
5.13712e-07 5.18405e-07 -0.000445942
0.00159781 0.000414399 1.71439e-05
0.000414399 6.84228e-05 1.54255e-06
1.71439e-05 1.54255e-06 -0.000176581
0.00818302 0.000356315 1.14327e-05
0.000356315 0.00503929 5.62838e-06
1.14327e-05 5.62838e-06 0.00503823
0.000304216 0.000256678 1.98732e-05
0.000256678 -0.00031619 1.69797e-05
1.98732e-05 1.69797e-05 -0.000506117
0.00863742 0.000260305 0.000415431
0.000260305 0.00530009 5.03326e-05
0.000415431 5.03326e-05 0.00531837
0.00216459 8.96053e-05 -6.35446e-06
8.96053e-05 1.02928e-05 -8.984e-08
-6.35446e-06 -8.984e-08 -7.44113e-06
0.00219852 0.000119271 -7.55361e-07
0.000119271 -5.21602e-06 -2.7308e-07
-7.55361e-07 -2.7308e-07 7.18016e-06
0.00235139 0.000164787 -7.42995e-07
0.000164787 -4.03095e-05 -1.21976e-07
-7.42995e-07 -1.21976e-07 1.73037e-05
0.00206325 1.30021e-06 -3.83072e-07
1.30021e-06 -4.91163e-05 -2.9637e-07
-3.83072e-07 -2.9637e-07 -0.000109
0.00220824 2.55412e-05 -4.1069e-07
2.55412e-05 3.84455e-05 6.12008e-08
-4.1069e-07 6.12008e-08 3.23046e-05
0.00217246 5.85486e-05 1.12321e-06
5.85486e-05 -5.45365e-05 4.59853e-08
1.12321e-06 4.59853e-08 -2.16422e-05
0.00220337 -5.56861e-05 3.61141e-06
-5.56861e-05 1.23742e-05 7.25666e-08
3.61141e-06 7.25666e-08 1.66555e-05
0.00210635 -7.57869e-05 -1.65641e-06
-7.57869e-05 -1.89975e-05 2.16785e-07
-1.65641e-06 2.16785e-07 -7.72512e-05
0.00145781 -4.2848e-05 -2.64196e-06
-4.2848e-05 -3.63119e-05 -3.89053e-08
-2.64196e-06 -3.89053e-08 -0.00014618
0.00222941 -0.000173367 6.0874e-07
-0.000173367 6.81714e-05 -8.83221e-07
6.0874e-07 -8.83221e-07 -3.50626e-06
0.00153191 -0.00010766 3.33126e-06
-0.00010766 -1.0247e-05 -3.51015e-07
3.33126e-06 -3.51015e-07 -0.000133254
0.000238596 -1.9668e-05 -1.49739e-05
-1.9668e-05 -0.00032613 2.45494e-06
-1.49739e-05 2.45494e-06 -0.000425383
0.00147226 -0.000161137 3.50405e-06
-0.000161137 -6.10134e-05 -9.38909e-07
3.50405e-06 -9.38909e-07 -0.00020395
0.000270422 -5.33534e-05 4.48398e-07
-5.33534e-05 -0.000312274 -3.68526e-07
4.48398e-07 -3.68526e-07 -0.000417412
0.00695437 -0.000177756 -0.000386804
-0.000177756 0.00424438 2.37815e-05
-0.000386804 2.37815e-05 0.00427449
0.000323364 -8.5e-05 1.46727e-05
-8.5e-05 -0.000280697 -5.46531e-06
1.46727e-05 -5.46531e-06 -0.000397025
0.00710787 -0.000123982 6.70748e-06
-0.000123982 0.00432875 2.78745e-07
6.70748e-06 2.78745e-07 0.00436494
0.00214684 -5.47092e-05 0.000294665
-5.47092e-05 0.00105912 -2.33081e-05
0.000294665 -2.33081e-05 0.00105254
0.00221556 0.000171657 -7.92272e-06
0.000171657 5.46434e-05 -6.09774e-07
-7.92272e-06 -6.09774e-07 2.37887e-05
0.00218378 0.000176971 -7.1349e-07
0.000176971 -6.07077e-06 5.3979e-09
-7.1349e-07 5.3979e-09 5.8723e-06
0.0023711 0.000261184 6.80686e-07
0.000261184 0.00018862 7.04252e-07
6.80686e-07 7.04252e-07 0.000100221
0.00226404 0.000246123 6.52304e-07
0.000246123 5.83365e-05 -5.10833e-10
6.52304e-07 -5.10833e-10 2.06742e-05
0.00223672 0.000191941 5.25321e-07
0.000191941 -1.85299e-05 -2.77724e-07
5.25321e-07 -2.77724e-07 -1.63156e-06
0.00144728 0.000217911 -9.30537e-07
0.000217911 -4.74556e-05 -4.64067e-07
-9.30537e-07 -4.64067e-07 -0.000215965
0.00229256 0.000350263 4.20592e-07
0.000350263 0.000144299 6.34364e-08
4.20592e-07 6.34364e-08 2.88151e-05
0.00233644 0.000339203 4.16805e-06
0.000339203 7.53408e-05 2.44522e-07
4.16805e-06 2.44522e-07 2.78003e-05
0.000328029 0.000105473 -1.50025e-05
0.000105473 -0.000281544 -6.62233e-06
-1.50025e-05 -6.62233e-06 -0.000408783
0.00152291 0.000286501 3.16282e-06
0.000286501 6.71143e-06 1.07943e-06
3.16282e-06 1.07943e-06 -0.000178807
0.00217353 0.000430411 2.49436e-07
0.000430411 9.21424e-05 -9.70596e-07
2.49436e-07 -9.70596e-07 -7.09575e-05
0.00744879 0.000333697 -0.000410067
0.000333697 0.00458052 -4.7818e-05
-0.000410067 -4.7818e-05 0.00458649
0.000350309 0.000149007 5.55604e-07
0.000149007 -0.00028032 2.80234e-07
5.55604e-07 2.80234e-07 -0.000423365
0.00156167 0.000347987 9.44398e-06
0.000347987 4.25353e-05 2.37009e-06
9.44398e-06 2.37009e-06 -0.000163166
0.00786014 0.000382419 8.34517e-06
0.000382419 0.00484558 5.87747e-06
8.34517e-06 5.87747e-06 0.00484266
0.000341376 0.000199842 1.69951e-05
0.000199842 -0.000296695 1.30439e-05
1.69951e-05 1.30439e-05 -0.000461087
0.00832585 0.000372805 0.000426212
0.000372805 0.00512863 6.12351e-05
0.000426212 6.12351e-05 0.0051314
0.0020543 8.67495e-05 1.12145e-06
8.67495e-05 -4.59991e-05 -3.38482e-07
1.12145e-06 -3.38482e-07 -0.000113794
0.00221405 9.04367e-05 -2.24999e-06
9.04367e-05 5.0346e-05 -6.8823e-08
-2.24999e-06 -6.8823e-08 3.15801e-05
0.00222844 0.000127408 3.23704e-06
0.000127408 2.33985e-05 -9.03429e-08
3.23704e-06 -9.03429e-08 3.60105e-05
0.00143934 -3.61076e-06 -1.63978e-06
-3.61076e-06 -2.92498e-05 -5.55015e-09
-1.63978e-06 -5.55015e-09 -0.000139118
0.00209182 3.5406e-06 -1.60257e-06
3.5406e-06 -2.23186e-05 4.61558e-08
-1.60257e-06 4.61558e-08 -8.18512e-05
0.00218861 2.7496e-05 4.08006e-06
2.7496e-05 2.04628e-05 2.51458e-07
4.08006e-06 2.51458e-07 1.8003e-05
0.00214432 -7.49402e-05 -2.17177e-06
-7.49402e-05 1.28514e-05 4.43147e-07
-2.17177e-06 4.43147e-07 -4.39033e-05
0.00152587 -4.61454e-05 2.64457e-06
-4.61454e-05 3.18219e-06 -1.38011e-07
2.64457e-06 -1.38011e-07 -0.000105736
0.000251467 -3.39977e-05 -1.56177e-05
-3.39977e-05 -0.000310387 1.58782e-06
-1.56177e-05 1.58782e-06 -0.000405098
0.00147572 -0.000108327 6.91243e-06
-0.000108327 -5.44312e-05 -1.19914e-06
6.91243e-06 -1.19914e-06 -0.000184217
0.000254629 -8.75571e-06 -4.63662e-08
-8.75571e-06 -0.000315384 3.31995e-08
-4.63662e-08 3.31995e-08 -0.000412939
0.00684187 -0.000143316 -0.000385761
-0.000143316 0.00416964 1.8191e-05
-0.000385761 1.8191e-05 0.00420408
0.00030423 -5.9523e-05 1.54804e-05
-5.9523e-05 -0.000284231 -3.8745e-06
1.54804e-05 -3.8745e-06 -0.000389636
0.00694212 -7.71215e-05 -2.72767e-06
-7.71215e-05 0.00422161 3.77156e-06
-2.72767e-06 3.77156e-06 0.00426098
0.00706602 -0.000137244 0.000385815
-0.000137244 0.00430467 -2.17389e-05
0.000385815 -2.17389e-05 0.00434038
0.00228308 0.000170342 1.49206e-06
0.000170342 0.000124342 -1.17975e-07
1.49206e-06 -1.17975e-07 5.33373e-05
0.00218536 0.000172602 -9.96053e-07
0.000172602 2.23777e-05 -6.03311e-08
-9.96053e-07 -6.03311e-08 -3.83112e-06
0.00208785 0.000177884 3.15596e-06
0.000177884 -8.40633e-05 3.04667e-07
3.15596e-06 3.04667e-07 -6.43354e-05
0.00141555 0.000149161 -7.94081e-08
0.000149161 -6.28368e-05 -1.18774e-07
-7.94081e-08 -1.18774e-07 -0.000212065
0.00229341 0.000257977 3.3929e-07
0.000257977 0.000128455 -1.08546e-07
3.3929e-07 -1.08546e-07 3.97677e-05
0.00229076 0.000246585 5.2037e-06
0.000246585 7.41092e-05 -8.96595e-08
5.2037e-06 -8.96595e-08 3.62895e-05
0.000312631 7.32418e-05 -1.42159e-05
7.32418e-05 -0.000279757 -4.88161e-06
-1.42159e-05 -4.88161e-06 -0.000396054
0.00147621 0.000219301 9.26507e-08
0.000219301 -1.61404e-05 2.21295e-07
9.26507e-08 2.21295e-07 -0.000185664
0.0022213 0.00034801 8.33344e-07
0.00034801 8.79015e-05 -9.94159e-07
8.33344e-07 -9.94159e-07 -2.80672e-05
0.00720108 0.000269988 -0.000413081
0.000269988 0.00441711 -3.83425e-05
-0.000413081 -3.83425e-05 0.00443526
0.000336969 0.000114258 6.18424e-07
0.000114258 -0.000277672 2.06602e-07
6.18424e-07 2.06602e-07 -0.000407718
0.00145448 0.000279434 4.7964e-06
0.000279434 -3.00223e-05 1.94689e-06
4.7964e-06 1.94689e-06 -0.000220938
0.00756643 0.000354144 4.82338e-06
0.000354144 0.00466096 3.72167e-06
4.82338e-06 3.72167e-06 0.00466469
0.000358268 0.000157485 1.55564e-05
0.000157485 -0.000276789 9.86025e-06
1.55564e-05 9.86025e-06 -0.000423263
0.00799 0.000424002 0.000429646
0.000424002 0.00494384 6.54886e-05
0.000429646 6.54886e-05 0.00493417
0.00134401 4.84044e-05 -2.6122e-06
4.84044e-05 -8.43372e-05 5.66338e-09
-2.6122e-06 5.66338e-09 -0.000212644
0.00213416 8.39956e-05 -2.61661e-06
8.39956e-05 9.46815e-06 -2.46462e-07
-2.61661e-06 -2.46462e-07 -4.98788e-05
0.00225909 9.16219e-05 4.8771e-06
9.16219e-05 8.6422e-05 3.05024e-07
4.8771e-06 3.05024e-07 6.69726e-05
0.000293798 3.29255e-05 -1.63658e-05
3.29255e-05 -0.000284691 -5.75273e-07
-1.63658e-05 -5.75273e-07 -0.000371573
0.00149648 -2.15842e-07 2.78267e-06
-2.15842e-07 3.1108e-06 1.249e-08
2.78267e-06 1.249e-08 -0.000105997
0.00211701 7.43488e-06 -3.09891e-06
7.43488e-06 1.58133e-06 3.38175e-07
-3.09891e-06 3.38175e-07 -5.76009e-05
0.00158899 -4.89982e-05 8.77224e-06
-4.89982e-05 3.96777e-05 -7.22496e-07
8.77224e-06 -7.22496e-07 -6.81285e-05
0.000259915 -8.28435e-06 1.26813e-07
-8.28435e-06 -0.000303597 4.07512e-07
1.26813e-07 4.07512e-07 -0.000398038
0.00673898 -3.42333e-06 -0.000387162
-3.42333e-06 0.00409243 4.43384e-06
-0.000387162 4.43384e-06 0.00413618
0.000256312 2.76952e-06 1.53041e-05
2.76952e-06 -0.000314312 -1.56712e-06
1.53041e-05 -1.56712e-06 -0.000410038
0.00679179 -0.000140293 -7.10516e-06
-0.000140293 0.00413935 2.37564e-06
-7.10516e-06 2.37564e-06 0.00417317
0.00686901 -6.05133e-05 0.000371454
-6.05133e-05 0.00417417 -1.28978e-05
0.000371454 -1.28978e-05 0.00421382
0.00139951 9.40887e-05 -1.61394e-06
9.40887e-05 -5.49382e-05 -3.16929e-07
-1.61394e-06 -3.16929e-07 -0.000190952
0.00223088 0.000165036 -2.14921e-07
0.000165036 8.1507e-05 -3.00485e-07
-2.14921e-07 -3.00485e-07 1.37833e-05
0.00215237 0.000173151 3.23437e-06
0.000173151 -1.11002e-05 -2.54266e-07
3.23437e-06 -2.54266e-07 -3.28294e-05
0.00277363 8.63496e-05 -0.000169803
8.63496e-05 0.00134205 -7.52919e-06
-0.000169803 -7.52919e-06 0.00128271
0.00143993 0.000150655 -7.41836e-09
0.000150655 -3.51768e-05 1.08774e-07
-7.41836e-09 1.08774e-07 -0.000185209
0.00220891 0.000254222 2.6275e-07
0.000254222 6.43008e-05 -9.35325e-07
2.6275e-07 -9.35325e-07 -2.45892e-05
0.00702567 0.000199795 -0.000409935
0.000199795 0.00429545 -2.79518e-05
-0.000409935 -2.79518e-05 0.0043254
0.000322562 9.30467e-05 8.34885e-07
9.30467e-05 -0.000273336 4.86901e-07
8.34885e-07 4.86901e-07 -0.000392699
0.00150587 0.000220286 1.40746e-06
0.000220286 1.57092e-05 7.10933e-07
1.40746e-06 7.10933e-07 -0.000154814
0.00731634 0.00028761 2.05879e-06
0.00028761 0.00449264 1.9485e-06
2.05879e-06 1.9485e-06 0.004509
0.000355609 0.000125256 1.53431e-05
0.000125256 -0.000266502 7.76217e-06
1.53431e-05 7.76217e-06 -0.000399952
0.0076865 0.000390031 0.000429585
0.000390031 0.00475179 6.02092e-05
0.000429585 6.02092e-05 0.00474938
0.000388593 1.89046e-05 -1.23393e-05
1.89046e-05 -0.000209579 -1.72045e-06
-1.23393e-05 -1.72045e-06 -0.000306432
0.00142007 4.85305e-05 -8.5894e-07
4.85305e-05 -3.54175e-05 -1.57823e-08
-8.5894e-07 -1.57823e-08 -0.000156817
0.00219858 7.98747e-05 -2.43872e-06
7.98747e-05 5.36871e-05 2.24915e-07
-2.43872e-06 2.24915e-07 2.43932e-06
0.006616 -0.000103891 -0.000371533
-0.000103891 0.00403037 6.68363e-06
-0.000371533 6.68363e-06 0.00406352
0.000253375 1.31964e-05 -7.34985e-07
1.31964e-05 -0.000306191 -2.48054e-07
-7.34985e-07 -2.48054e-07 -0.000395688
0.00156252 1.77226e-06 7.99909e-06
1.77226e-06 4.13976e-05 -2.63619e-07
7.99909e-06 -2.63619e-07 -6.68995e-05
0.000247443 1.67861e-05 1.55786e-05
1.67861e-05 -0.000312313 -1.77337e-07
1.55786e-05 -1.77337e-07 -0.000405356
0.00668579 -3.63426e-05 1.67416e-06
-3.63426e-05 0.0040651 -2.08481e-06
1.67416e-06 -2.08481e-06 0.00410337
0.00676554 -6.8474e-05 0.000375201
-6.8474e-05 0.0041087 -9.70989e-06
0.000375201 -9.70989e-06 0.00414916
0.00287361 3.3373e-05 -0.000164556
3.3373e-05 0.00141081 -3.99859e-06
-0.000164556 -3.99859e-06 0.00135843
0.00140259 9.68585e-05 -1.54915e-07
9.68585e-05 -4.91421e-05 -5.58641e-08
-1.54915e-07 -5.58641e-08 -0.000185896
0.00218072 0.00016006 -3.38964e-07
0.00016006 3.94084e-05 -5.84724e-07
-3.38964e-07 -5.84724e-07 -2.49443e-05
0.00658029 2.09438e-06 -0.000180708
2.09438e-06 0.00401654 -1.65977e-06
-0.000180708 -1.65977e-06 0.00400796
0.000293562 7.44853e-05 6.27674e-07
7.44853e-05 -0.000282639 2.33256e-07
6.27674e-07 2.33256e-07 -0.000390989
0.0014691 0.000153247 7.27972e-07
0.000153247 -6.42859e-06 1.6993e-07
7.27972e-07 1.6993e-07 -0.000157367
0.00709197 0.000177624 -7.86335e-06
0.000177624 0.00433126 -1.72766e-06
-7.86335e-06 -1.72766e-06 0.00436251
0.00032966 0.000114507 1.62345e-05
0.000114507 -0.000269926 6.62405e-06
1.62345e-05 6.62405e-06 -0.000391604
0.00740019 0.000309185 0.000425548
0.000309185 0.00455107 4.86808e-05
0.000425548 4.86808e-05 0.00456596
0.00205957 -4.89327e-05 -0.000286278
-4.89327e-05 0.00100502 1.85114e-06
-0.000286278 1.85114e-06 0.00101246
0.00151841 4.06629e-05 -7.33068e-05
4.06629e-05 0.000523437 -3.31854e-07
-7.33068e-05 -3.31854e-07 0.000454469
0.00150795 5.13294e-05 4.71449e-06
5.13294e-05 2.27849e-05 1.40682e-07
4.71449e-06 1.40682e-07 -9.16069e-05
0.00667545 -5.00189e-05 6.55677e-06
-5.00189e-05 0.00406234 3.67409e-06
6.55677e-06 3.67409e-06 0.00410163
0.000261037 -4.71084e-06 1.61317e-05
-4.71084e-06 -0.000293861 4.4017e-07
1.61317e-05 4.4017e-07 -0.000387104
0.00670509 -9.51499e-05 0.000388074
-9.51499e-05 0.00408321 -7.98356e-06
0.000388074 -7.98356e-06 0.00412097
0.00163229 3.20777e-05 -8.43434e-05
3.20777e-05 0.000761043 -2.18016e-06
-8.43434e-05 -2.18016e-06 0.000714522
0.00151963 3.45161e-05 -7.41101e-05
3.45161e-05 0.000522948 -2.27598e-06
-7.41101e-05 -2.27598e-06 0.000447443
0.00140772 9.78568e-05 1.8826e-06
9.78568e-05 -4.09816e-05 1.67454e-08
1.8826e-06 1.67454e-08 -0.000178366
0.00431927 9.00299e-05 0.000146105
9.00299e-05 0.00251316 5.58348e-06
0.000146105 5.58348e-06 0.00250835
0.000270382 8.56025e-05 1.63514e-05
8.56025e-05 -0.000300388 5.09599e-06
1.63514e-05 5.09599e-06 -0.000409284
0.0071612 0.00016564 0.000404256
0.00016564 0.00436718 3.01262e-05
0.000404256 3.01262e-05 0.00440221
0.00665995 -9.89063e-06 -8.00355e-06
-9.89063e-06 0.00405726 -4.14311e-06
-8.00355e-06 -4.14311e-06 0.00409445
0.000254101 5.73195e-05 1.78892e-05
5.73195e-05 -0.000307961 2.52433e-06
1.78892e-05 2.52433e-06 -0.000395983
0.00660311 3.29847e-05 0.000378092
3.29847e-05 0.00401069 5.23759e-07
0.000378092 5.23759e-07 0.00405336
0.00422637 4.99827e-05 0.00015669
4.99827e-05 0.00245396 7.34626e-06
0.00015669 7.34626e-06 0.00245341
0.000280106 2.32847e-05 1.59036e-05
2.32847e-05 -0.000288845 2.73634e-06
1.59036e-05 2.73634e-06 -0.000387529
0.00692918 3.5093e-05 0.000389124
3.5093e-05 0.00421386 1.48644e-05
0.000389124 1.48644e-05 0.00425379
0.00669159 -0.000100497 0.000378339
-0.000100497 0.00407956 -4.04964e-06
0.000378339 -4.04964e-06 0.00411367
0.00672704 3.58135e-05 0.000381269
3.58135e-05 0.00408315 9.51579e-06
0.000381269 9.51579e-06 0.00412628
