# vtk DataFile Version 2.0
Wound Healing Simulation
ASCII
DATASET UNSTRUCTURED_GRID
POINTS 3012 float
69.9759 18.75 4
67.2507 60.3285 4
69.976 18.75 2
73.0099 25.446 4
71.1327 20.9142 4
68.6801 16.6661 4
67.8277 19.9242 3.98812
67.2507 60.3286 2
71.1327 54.0858 4
68.6801 58.3339 4
65.6939 62.2254 4
65.3141 59.0045 3.98927
74.6784 42.3946 4
73.7221 47.2057 4
69.9759 18.75 0
73.0099 25.446 2
68.6801 16.6661 2
71.1327 20.9142 2
67.8282 19.925 2
74.6792 32.6053 4
73.7222 27.7943 4
72.1454 23.1494 4
70.6161 26.2226 3.98685
68.8881 21.9577 3.98784
67.2507 14.6715 4
66.6391 17.9686 3.98872
65.8038 21.0204 3.98345
67.2507 60.3285 0
71.1327 54.0858 2
68.6801 58.3339 2
65.694 62.2255 2
65.3144 59.0044 2
72.1454 51.8506 4
69.9759 56.25 4
68.8389 53.1132 3.98759
64.0165 64.0165 4
66.6129 57.1364 3.98887
63.8874 60.7693 3.99048
63.5057 57.7797 3.98475
60.3285 67.2507 4
74.6792 42.3947 2
73.7222 47.2057 2
74.9194 39.9526 4
74.2788 44.8158 4
72.1693 42.0852 3.98537
73.0099 49.554 4
71.2511 46.5968 3.98678
73.0099 25.446 0
71.1327 20.9142 0
68.6801 16.6661 0
67.8277 19.9242 0.0118824
74.6792 32.6053 2
73.7222 27.7943 2
67.2508 14.6715 2
72.1455 23.1494 2
70.6162 26.2234 2
66.6396 17.969 2
68.8885 21.9589 2
65.8041 21.0198 2
74.9197 35.0474 4
74.2794 30.1841 4
72.1858 32.9434 3.98551
71.2798 28.4327 3.9865
69.8178 24.0606 3.98744
68.3519 26.9516 3.97961
66.7692 22.9305 3.98247
65.694 12.7746 4
65.3255 16.0995 3.9897
64.72 19.1875 3.98446
63.8977 22.0268 3.98074
71.1327 54.0858 0
65.6939 62.2254 0
68.6801 58.3339 0
65.3141 59.0045 0.0107258
72.1455 51.8506 2
69.9759 56.25 2
68.8392 53.1121 2
64.0165 64.0165 2
66.6132 57.136 2
63.8876 60.7692 2
63.5058 57.7803 2
62.2254 65.694 4
58.8945 65.4163 3.99263
69.7714 50.9878 3.98722
67.7862 55.1689 3.98831
66.6565 52.2117 3.98219
62.3373 62.4303 3.99159
64.6674 56.0381 3.9848
62.2067 59.4131 3.98507
61.8318 56.6931 3.98248
58.3339 68.6801 4
60.3285 67.2508 2
73.7221 47.2057 0
74.6784 42.3946 0
74.9197 39.9526 2
74.2794 44.8159 2
72.1693 42.0857 2
73.0099 49.554 2
71.2511 46.5967 2
75 37.5 4
72.4062 39.8019 3.9844
71.784 44.3521 3.98627
69.8078 41.7889 3.97825
70.5773 48.812 3.98706
68.9175 46.0143 3.97916
74.6792 32.6053 0
73.7222 27.7943 0
67.2507 14.6715 0
72.1454 23.1494 0
70.6161 26.2226 0.0131532
68.8881 21.9577 0.0121602
66.6391 17.9686 0.0112848
65.8038 21.0204 0.0165548
74.9197 35.0474 2
74.2794 30.1841 2
72.1859 32.9434 2
71.2798 28.4331 2
65.694 12.7745 2
65.3258 16.0995 2
69.8181 24.0618 2
68.3518 26.9515 2
64.7204 19.1867 2
66.7693 22.9301 2
63.898 22.0261 2
72.414 35.224 3.98438
71.8052 30.6769 3.98626
69.8434 33.2687 3.97828
68.9706 29.0387 3.97895
67.6173 24.911 3.98106
66.2021 27.6327 3.97677
64.0165 10.9835 4
64.7669 23.8241 3.97979
63.8914 14.3235 3.99069
63.5183 17.4377 3.9855
62.9171 20.3092 3.98161
62.1067 22.9315 3.97937
60.6847 11.0949 3.992
57.6131 11.4395 3.98712
72.1454 51.8506 0
69.9759 56.25 0
68.8389 53.1132 0.0124065
64.0165 64.0165 0
63.8874 60.7693 0.0095185
66.6129 57.1364 0.0111279
63.5057 57.7797 0.015245
62.2255 65.694 2
58.8947 65.4164 2
69.7715 50.9868 2
67.7866 55.1681 2
66.6565 52.2122 2
62.3375 62.4301 2
64.6675 56.0388 2
62.2067 59.4135 2
61.8318 56.6938 2
60.6694 63.9794 3.99216
57.025 66.737 3.99313
57.5586 63.6976 3.98748
67.514 50.1777 3.98081
65.7092 54.1778 3.98374
64.5487 51.391 3.97905
60.7756 60.946 3.98586
62.8307 55.0785 3.98271
60.6648 58.1718 3.9825
60.3392 55.8006 3.98153
56.25 69.9759 4
58.3339 68.6801 2
60.3285 67.2507 0
58.9216 9.65329 3.99248
62.2254 9.30607 4
73.0099 49.554 0
74.2788 44.8158 0
71.2511 46.5968 0.0132217
72.1693 42.0852 0.0146279
74.9194 39.9526 0
75 37.5 2
72.4062 39.8024 2
71.784 44.3524 2
69.8079 41.789 2
70.5774 48.8114 2
68.9174 46.0143 2
72.4894 37.5118 3.98392
70.0437 39.6567 3.977
69.4349 43.9067 3.97891
67.6033 41.4977 3.97529
68.2718 48.1072 3.97984
66.7178 45.441 3.97646
74.9197 35.0474 0
74.2794 30.1841 0
72.1858 32.9434 0.0144861
71.2798 28.4327 0.0135044
65.694 12.7746 0
65.3255 16.0995 0.0103027
69.8178 24.0606 0.0125556
68.3519 26.9516 0.0203943
66.7692 22.9305 0.0175269
64.72 19.1875 0.0155391
63.8977 22.0268 0.0192577
72.414 35.2241 2
71.8053 30.677 2
69.8436 33.2688 2
68.9706 29.0387 2
64.0165 10.9835 2
63.8916 14.3234 2
63.5186 17.4369 2
67.6173 24.9108 2
66.2021 27.6324 2
62.9175 20.3084 2
64.7671 23.8235 2
62.107 22.9309 2
60.6849 11.0949 2
57.613 11.4388 2
70.0603 35.392 3.9772
69.4712 31.15 3.97884
67.6609 33.5901 3.97526
66.7789 29.6215 3.97599
65.5332 25.6956 3.9782
64.1558 28.2511 3.97586
62.3426 12.6519 3.99143
62.8702 24.6282 3.97861
62.2023 15.7754 3.98575
61.822 18.6717 3.98286
61.2307 21.3274 3.97977
60.442 23.713 3.97901
59.2475 12.7706 3.98605
55.8748 10.2262 3.98847
56.4065 13.1018 3.98406
69.7714 50.9878 0.0127841
62.2254 65.694 0
58.8945 65.4163 0.00736587
67.7862 55.1689 0.011686
66.6565 52.2117 0.0178132
62.3373 62.4303 0.0084105
62.2067 59.4131 0.0149305
64.6674 56.0381 0.0151951
61.8318 56.6931 0.0175248
60.6696 63.9794 2
57.0252 66.737 2
57.5585 63.6981 2
67.5138 50.178 2
65.7093 54.1785 2
64.5487 51.3918 2
60.7755 60.9466 2
62.8309 55.0793 2
60.6648 58.1724 2
60.3392 55.8012 2
55.0705 67.9338 3.99342
59.2207 62.3732 3.9864
55.8047 64.9148 3.98872
56.3285 62.0986 3.98447
65.3418 49.4119 3.97768
63.7175 53.3007 3.98098
62.4561 50.6607 3.97749
59.3375 59.5685 3.98374
61.0906 54.3227 3.98181
59.2976 57.0276 3.98069
59.2549 55.1994 3.98187
48.1028 68.5819 3.99027
50.9482 69.9332 3.99387
54.0858 71.1327 4
56.25 69.976 2
58.3339 68.6801 0
57.0587 8.33321 3.99299
60.3285 7.74928 4
58.9219 9.65319 2
62.2255 9.30602 2
70.5773 48.812 0.0129432
71.784 44.3521 0.0137333
68.9175 46.0143 0.0208394
69.8078 41.7889 0.0217459
72.4062 39.8019 0.0155957
75 37.5 0
72.4894 37.5122 2
70.0439 39.6569 2
69.4349 43.9068 2
67.6035 41.4979 2
68.2716 48.1073 2
66.7178 45.4414 2
70.1313 37.5212 3.9765
67.8387 39.512 3.97406
67.2308 43.4705 3.97608
65.5639 41.2112 3.97442
66.0777 47.4201 3.97708
64.6626 44.8514 3.97558
72.414 35.224 0.0156189
71.8052 30.6769 0.0137375
69.8434 33.2687 0.0217218
68.9706 29.0387 0.0210492
64.0165 10.9835 0
63.8914 14.3235 0.0093057
63.5183 17.4377 0.0145043
67.6173 24.911 0.0189352
66.2021 27.6327 0.0232318
64.7669 23.8241 0.0202061
62.9171 20.3092 0.0183916
62.1067 22.9315 0.0206343
60.6847 11.0949 0.00799851
57.6131 11.4395 0.0128776
70.0605 35.3922 2
69.4713 31.15 2
67.6611 33.59 2
66.779 29.6213 2
62.3428 12.6519 2
62.2024 15.7748 2
61.8224 18.6709 2
65.5332 25.6952 2
64.1559 28.2507 2
61.2312 21.3267 2
62.8705 24.6276 2
60.4424 23.7126 2
59.2474 12.77 2
56.4065 13.1011 2
55.8748 10.2255 2
67.8746 35.547 3.97436
67.2717 31.6213 3.976
65.7048 33.9253 3.97412
64.6714 30.1887 3.97478
63.5496 26.4078 3.97694
62.2685 28.771 3.97632
60.7772 14.2149 3.98566
61.0608 25.3259 3.9783
60.6182 17.1149 3.9838
60.2332 19.8005 3.98123
59.6764 22.2418 3.97849
58.9964 24.3039 3.97915
54.0378 9.1298 3.98914
57.9123 14.3203 3.98392
54.7875 12.0011 3.98511
55.3143 14.6323 3.98281
67.514 50.1777 0.0191939
57.025 66.737 0.00687115
60.6694 63.9794 0.00784335
57.5586 63.6976 0.0125223
65.7092 54.1778 0.0162631
64.5487 51.391 0.0209548
60.7756 60.946 0.0141373
60.6648 58.1718 0.0175044
62.8307 55.0785 0.0172925
60.3392 55.8006 0.0184676
55.0707 67.9339 2
59.2207 62.3739 2
55.8046 64.9153 2
56.3284 62.0991 2
65.3417 49.4125 2
63.7176 53.3015 2
62.4561 50.6614 2
59.3375 59.5693 2
61.0907 54.3234 2
59.2976 57.0282 2
59.2549 55.2 2
53.0423 69.0015 3.99366
53.9668 66.0167 3.98937
57.8833 60.8801 3.98409
54.6844 63.2145 3.98549
55.2137 60.6267 3.98297
63.2072 48.6673 3.97628
61.7564 52.5865 3.97958
60.2908 50.0308 3.97662
58.0238 58.2749 3.9819
59.3423 53.963 3.98102
58.137 55.8296 3.97896
50.1094 67.8599 3.99004
47.4634 66.5863 3.98802
46.0566 69.1615 3.99052
48.1029 68.5823 2
48.8024 70.7244 3.99406
50.9485 69.9333 2
51.8506 72.1454 4
54.0858 71.1327 2
56.25 69.9759 0
55.103 7.13782 3.99326
58.3339 6.31992 4
57.0589 8.33303 2
60.3286 7.74926 2
58.9216 9.65329 0.00751898
62.2254 9.30607 0
68.2718 48.1072 0.0201554
69.4349 43.9067 0.0210878
66.7178 45.441 0.0235355
67.6033 41.4977 0.0247112
70.0437 39.6567 0.0229972
72.4894 37.5118 0.0160796
70.1315 37.5213 2
67.8389 39.5122 2
67.2309 43.4708 2
65.5642 41.2115 2
66.0777 47.4206 2
64.6626 44.8519 2
67.9342 37.5216 3.97333
65.7934 39.3706 3.97322
65.1854 43.0276 3.97517
63.7655 40.9321 3.97416
63.9772 46.7211 3.97601
62.8196 44.2214 3.97626
70.0603 35.392 0.0228001
69.4712 31.15 0.0211596
67.6609 33.5901 0.0247438
66.7789 29.6215 0.0240138
62.3426 12.6519 0.00857178
62.2023 15.7754 0.014253
61.822 18.6717 0.0171373
65.5332 25.6956 0.0218029
64.1558 28.2511 0.0241357
62.8702 24.6282 0.0213889
61.2307 21.3274 0.0202297
60.442 23.713 0.0209865
59.2475 12.7706 0.0139492
56.4065 13.1018 0.0159382
55.8748 10.2262 0.0115275
67.8749 35.547 2
67.2719 31.6211 2
65.7052 33.925 2
64.6716 30.1883 2
60.7772 14.2143 2
60.6184 17.1141 2
60.2337 19.7998 2
63.5497 26.4074 2
62.2687 28.7706 2
59.6769 22.2412 2
61.0611 25.3255 2
58.9968 24.3035 2
57.9122 14.3196 2
55.3142 14.6315 2
54.0377 9.1292 2
54.7875 12.0003 2
65.882 35.6657 3.97333
65.1945 32.1513 3.97475
64.2925 34.2474 3.97411
62.6052 30.6301 3.97463
61.6647 27.0633 3.9764
60.8631 29.1316 3.97845
59.3137 15.657 3.98402
59.3489 25.7824 3.97952
59.1306 18.3401 3.98283
58.7525 20.8361 3.97949
58.3015 23.0739 3.97725
57.9871 24.6473 3.97971
52.1124 8.14858 3.98953
53.0583 11.0077 3.98609
56.679 15.7284 3.98313
53.8107 13.6673 3.98338
54.3785 15.9831 3.9826
55.0705 67.9338 0.0065785
65.3418 49.4119 0.0223216
55.8047 64.9148 0.0112768
59.2207 62.3732 0.0135988
56.3285 62.0986 0.0155256
63.7175 53.3007 0.0190243
62.4561 50.6607 0.0225117
59.3375 59.5685 0.016257
59.2976 57.0276 0.0193078
61.0906 54.3227 0.0181895
59.2549 55.1994 0.0181334
53.0426 69.0016 2
53.9668 66.0171 2
57.8833 60.8807 2
54.6843 63.215 2
55.2136 60.6273 2
63.2071 48.6679 2
61.7565 52.5873 2
60.2908 50.0314 2
58.0239 58.2755 2
59.3424 53.9636 2
58.137 55.8301 2
52.0703 67.003 3.98977
52.9534 64.2245 3.98647
56.652 59.5009 3.98292
53.6823 61.6314 3.98377
54.2632 59.3333 3.98184
61.0093 47.8894 3.97552
59.7271 52.1193 3.97928
58.0451 49.6318 3.97799
56.784 57.0037 3.97937
57.1352 54.14 3.97871
50.1094 67.8602 2
49.337 65.9265 3.98771
47.4633 66.5868 2
46.8922 64.7437 3.98634
45.5585 67.104 3.98798
43.9737 69.594 3.99063
46.0567 69.1619 2
46.6092 71.3689 3.99428
48.1028 68.5819 0.00973261
48.8027 70.7246 2
49.554 73.0099 4
50.9482 69.9332 0.00613285
51.8506 72.1455 2
54.0858 71.1327 0
53.064 6.06943 3.99348
55.1032 7.13766 2
56.25 5.02411 4
58.3339 6.3199 2
57.0587 8.33321 0.00700543
60.3285 7.74928 0
66.0777 47.4201 0.022921
67.2308 43.4705 0.0239185
64.6626 44.8514 0.0244228
65.5639 41.2112 0.0255793
67.8387 39.512 0.0259391
70.1313 37.5212 0.0235021
67.9344 37.5217 2
65.7938 39.3708 2
65.1856 43.028 2
63.7659 40.9325 2
63.9772 46.7216 2
62.8197 44.2219 2
65.8951 37.5014 3.972
63.9076 39.2677 3.97311
63.3405 42.5541 3.975
62.4432 40.7006 3.97447
61.9817 45.9258 3.97617
61.4662 43.6898 3.97681
67.8746 35.547 0.0256359
67.2717 31.6213 0.0240041
65.7048 33.9253 0.0258828
64.6714 30.1887 0.0252152
60.7772 14.2149 0.0143357
60.6182 17.1149 0.0161982
60.2332 19.8005 0.0187743
63.5496 26.4078 0.0230551
62.2685 28.771 0.0236787
61.0608 25.3259 0.0216978
59.6764 22.2418 0.0215081
58.9964 24.3039 0.020846
57.9123 14.3203 0.0160772
55.3143 14.6323 0.0171857
54.0378 9.1298 0.0108592
54.7875 12.0011 0.0148945
65.8825 35.6656 2
65.1947 32.1509 2
64.2929 34.2471 2
62.6053 30.6297 2
59.3137 15.6561 2
59.131 18.3392 2
58.7532 20.8353 2
61.6648 27.063 2
60.8632 29.1312 2
58.3021 23.0735 2
59.3493 25.7821 2
57.9875 24.647 2
56.679 15.7277 2
54.3784 15.9823 2
53.8107 13.6664 2
52.1124 8.14801 2
53.0582 11.007 2
64.098 35.6307 3.97292
62.9412 33.0421 3.97382
60.6273 30.6036 3.97487
59.5878 27.8992 3.97746
57.9433 16.969 3.98328
57.7596 25.7095 3.98097
57.7232 19.4586 3.98163
57.3845 21.8209 3.97727
57.204 23.9283 3.97695
50.1124 7.28082 3.98976
51.2325 10.1164 3.9868
52.1726 12.7848 3.98455
55.5404 16.9566 3.98306
52.9791 15.2483 3.98179
53.7608 16.9644 3.98292
53.0423 69.0015 0.00633779
53.9668 66.0167 0.0106345
63.2072 48.6673 0.0237154
54.6844 63.2145 0.0145149
57.8833 60.8801 0.0159111
55.2137 60.6267 0.0170252
61.7564 52.5865 0.0204154
60.2908 50.0308 0.0233796
58.0238 58.2749 0.0181024
58.137 55.8296 0.0210431
59.3423 53.963 0.0189788
52.0703 67.0034 2
52.9532 64.225 2
56.6519 59.5015 2
53.6821 61.632 2
54.263 59.334 2
61.0093 47.89 2
59.7272 52.12 2
58.0451 49.6324 2
56.784 57.0045 2
57.1353 54.1404 2
51.1678 65.1333 3.9872
52.0465 62.5463 3.98466
55.4851 58.2635 3.98239
52.8364 60.1458 3.98247
53.6438 58.4837 3.98136
58.3257 46.8611 3.97837
57.579 51.8032 3.9784
56.2686 49.5695 3.98128
55.4807 55.8107 3.97777
55.3722 53.4004 3.97489
50.1094 67.8599 0.0099615
49.3368 65.9269 2
48.6179 64.1298 3.98589
47.4634 66.5863 0.011978
45.5585 67.1044 2
46.892 64.7441 2
46.3816 63.0623 3.98501
45.1324 65.2053 3.98649
43.6317 67.475 3.98815
41.8609 69.8815 3.99064
43.9737 69.5944 2
44.3766 71.8637 3.99431
46.0566 69.1615 0.00948362
46.6094 71.3691 2
47.2057 73.7222 4
48.8024 70.7244 0.00594452
49.554 73.0099 2
51.8506 72.1454 0
50.9537 5.12993 3.99366
53.0642 6.06924 2
54.0858 3.86728 4
55.103 7.13782 0.00674121
56.25 5.02406 2
58.3339 6.31992 0
63.9772 46.7211 0.0239886
65.1854 43.0276 0.0248311
62.8196 44.2214 0.0237368
63.7655 40.9321 0.025839
65.7934 39.3706 0.0267788
67.9342 37.5216 0.026673
65.8954 37.5014 2
63.908 39.268 2
63.3407 42.5545 2
62.4436 40.701 2
61.9818 45.9264 2
61.4664 43.6903 2
63.9661 37.4565 3.9717
62.1695 39.3566 3.97379
61.2336 41.9633 3.97497
60.267 44.7789 3.9773
65.882 35.6657 0.0266716
65.1945 32.1513 0.0252463
64.2925 34.2474 0.025885
62.6052 30.6301 0.0253696
59.3137 15.657 0.0159803
59.1306 18.3401 0.0171671
58.7525 20.8361 0.0205123
61.6647 27.0633 0.0236045
60.8631 29.1316 0.0215452
59.3489 25.7824 0.0204778
58.3015 23.0739 0.0227466
57.9871 24.6473 0.0202881
56.679 15.7284 0.0168732
54.3785 15.9831 0.0173997
53.8107 13.6673 0.0166226
52.1124 8.14858 0.0104689
53.0583 11.0077 0.0139061
64.0986 35.6306 2
62.9415 33.0418 2
60.6275 30.6031 2
57.9435 16.9681 2
57.7238 19.4577 2
57.3853 21.8203 2
59.5879 27.8988 2
57.2045 23.928 2
57.7601 25.7093 2
50.1124 7.2803 2
55.5404 16.9558 2
53.7607 16.9634 2
52.9791 15.2474 2
52.1726 12.7841 2
51.2325 10.1158 2
62.2007 35.3567 3.97246
60.3061 32.7396 3.97323
58.6385 30.0648 3.97509
57.3124 27.3652 3.97958
56.6407 18.14 3.98314
56.3128 25.0841 3.97719
56.3666 20.503 3.97944
56.1241 22.8493 3.97411
48.0562 6.52405 3.99001
49.3243 9.32476 3.98729
50.4332 11.9834 3.98488
51.3788 14.4839 3.98296
54.4183 17.9047 3.98291
52.3633 17.0201 3.98175
52.0703 67.003 0.0102267
52.9534 64.2245 0.0135311
61.0093 47.8894 0.0244827
53.6823 61.6314 0.0162292
56.652 59.5009 0.0170786
54.2632 59.3333 0.0181604
59.7271 52.1193 0.0207176
58.0451 49.6318 0.0220085
56.784 57.0037 0.0206307
57.1352 54.14 0.0212893
51.1677 65.1338 2
52.0463 62.5469 2
55.4851 58.2642 2
52.8362 60.1464 2
53.6437 58.4844 2
58.3257 46.8618 2
57.579 51.8037 2
56.2685 49.5701 2
55.4808 55.8114 2
55.3722 53.4009 2
50.3462 63.3878 3.98542
51.245 60.9444 3.98304
54.225 57.2785 3.98114
52.3156 58.6459 3.98106
56.7436 44.1968 3.97552
55.5173 47.9121 3.98132
55.0888 51.4047 3.97541
54.0154 54.5627 3.97578
49.337 65.9265 0.0122902
48.6177 64.1302 2
47.9619 62.4831 3.98467
45.5585 67.104 0.0120221
46.8922 64.7437 0.0136646
43.6317 67.4755 2
46.3814 63.0627 2
45.1323 65.2058 2
45.9869 61.5958 3.98392
44.7668 63.4637 3.98551
43.3564 65.5154 3.98669
41.6638 67.6943 3.98814
39.7026 70.0287 3.99052
41.8609 69.882 2
42.1111 72.2085 3.99426
43.9737 69.594 0.00937015
44.3768 71.864 2
44.8159 74.2794 4
46.6092 71.3689 0.00571789
47.2057 73.7222 2
49.554 73.0099 0
48.7842 4.32101 3.99388
50.9538 5.12971 2
51.8506 2.85458 4
53.064 6.06943 0.00651965
54.0858 3.86728 2
56.25 5.02411 0
61.9817 45.9258 0.0238283
63.3405 42.5541 0.0249958
61.4662 43.6898 0.0231901
62.4432 40.7006 0.0255339
63.9076 39.2677 0.0268889
65.8951 37.5014 0.0279951
63.9665 37.4566 2
62.1701 39.3568 2
61.234 41.9638 2
60.2672 44.7795 2
62.0058 37.4442 3.97205
60.2667 39.8507 3.97483
59.0165 42.9261 3.97487
64.098 35.6307 0.0270751
62.9412 33.0421 0.0261797
60.6273 30.6036 0.0251312
57.9433 16.969 0.0167239
57.7232 19.4586 0.0183701
57.3845 21.8209 0.022728
59.5878 27.8992 0.0225434
57.7596 25.7095 0.0190325
57.204 23.9283 0.0230541
55.5404 16.9566 0.0169356
53.7608 16.9644 0.0170786
52.9791 15.2483 0.0182085
50.1124 7.28082 0.0102385
52.1726 12.7848 0.015452
51.2325 10.1164 0.0131986
62.2014 35.3567 2
60.3066 32.7392 2
58.6386 30.0644 2
56.641 18.139 2
56.3675 20.502 2
56.1249 22.8489 2
57.3126 27.3648 2
56.3134 25.0843 2
48.0562 6.5236 2
49.3243 9.3242 2
54.4185 17.9036 2
52.3633 17.0191 2
51.3787 14.4831 2
50.4331 11.9827 2
59.9113 35.1166 3.97244
58.0157 32.2619 3.97354
56.567 29.3243 3.97429
55.4716 26.5828 3.9804
55.3474 19.173 3.98282
54.9478 24.037 3.9728
55.0124 21.5433 3.97754
45.9621 5.87915 3.99035
43.3733 7.46821 3.98843
47.3547 8.61876 3.98753
48.5998 11.2852 3.98559
49.7143 13.7315 3.98374
50.635 16.1176 3.98115
53.1283 18.6438 3.98149
51.3053 18.0331 3.98439
51.1678 65.1333 0.0128007
52.0465 62.5463 0.0153418
58.3257 46.8611 0.0216265
52.8364 60.1458 0.0175273
55.4851 58.2635 0.0176146
53.6438 58.4837 0.0186385
57.579 51.8032 0.0215994
56.2686 49.5695 0.0187172
55.4807 55.8107 0.0222268
55.3722 53.4004 0.0251064
50.346 63.3882 2
51.2448 60.945 2
54.225 57.2792 2
52.3154 58.6465 2
56.744 44.1974 2
55.5173 47.9129 2
55.0888 51.4051 2
54.0155 54.5634 2
49.592 61.7528 3.98412
55.6779 41.716 3.97612
50.5687 59.3386 3.98116
52.1912 56.5024 3.97848
54.2171 45.5841 3.97754
53.3672 49.3428 3.97641
52.6836 52.8678 3.97419
48.6179 64.1298 0.0141093
47.9616 62.4834 2
47.3292 61.0186 3.98342
43.6317 67.475 0.0118463
45.1324 65.2053 0.0135146
46.3816 63.0623 0.0149894
41.6637 67.6947 2
43.3563 65.5158 2
45.9867 61.5961 2
44.7666 63.4641 2
45.7661 60.6403 3.98317
44.4827 61.8457 3.98422
43.1461 63.7365 3.98533
41.546 65.6536 3.98677
39.6328 67.7742 3.98807
37.526 70.054 3.99047
39.7026 70.0292 2
39.8179 72.4056 3.99416
41.8609 69.8815 0.00936005
42.1112 72.2088 2
42.3947 74.6792 4
44.3766 71.8637 0.00568897
44.8159 74.2794 2
47.2057 73.7222 0
43.8514 5.35627 3.99058
46.5702 3.64562 3.99412
48.7843 4.3208 2
49.554 1.99015 4
50.9537 5.12993 0.0063404
51.8506 2.85453 2
54.0858 3.86728 0
60.267 44.7789 0.0226994
61.2336 41.9633 0.0250254
62.1695 39.3566 0.0262076
63.9661 37.4565 0.028296
62.0062 37.4443 2
60.2674 39.8508 2
59.0168 42.9265 2
59.7824 37.5676 3.973
58.0301 40.662 3.97418
55.1564 39.7275 3.9755
62.2007 35.3567 0.0275415
60.3061 32.7396 0.0267697
58.6385 30.0648 0.0249148
56.6407 18.14 0.0168553
56.3666 20.503 0.0205585
56.1241 22.8493 0.0258929
57.3124 27.3652 0.0204209
56.3128 25.0841 0.0228135
54.4183 17.9047 0.0170899
52.3633 17.0201 0.0182541
51.3788 14.4839 0.0170369
48.0562 6.52405 0.0099863
49.3243 9.32476 0.0127106
50.4332 11.9834 0.0151167
59.9122 35.1166 2
45.9621 5.87868 2
43.3734 7.46774 2
58.0162 32.2615 2
56.5671 29.3238 2
55.348 19.1719 2
55.0136 21.5423 2
54.9487 24.0377 2
55.4719 26.5829 2
47.3547 8.61832 2
48.5997 11.2846 2
53.1286 18.6427 2
51.3054 18.0321 2
50.6349 16.1166 2
49.7142 13.7308 2
57.4253 34.7556 3.97563
55.7556 31.5076 3.97112
54.5397 28.3869 3.97815
53.7948 25.4803 3.97511
53.9751 20.1199 3.98297
53.5943 22.6882 3.97326
41.3984 7.07338 3.9886
45.3594 7.99015 3.98789
42.8649 9.40866 3.9869
46.666 10.6463 3.98576
47.7452 13.092 3.98401
48.9322 15.3885 3.98284
50.0081 17.6867 3.9793
51.6557 19.3102 3.9858
50.3462 63.3878 0.0145815
51.245 60.9444 0.0169639
56.7436 44.1968 0.0244799
55.5173 47.9121 0.0186799
52.3156 58.6459 0.0189409
54.225 57.2785 0.0188559
55.0888 51.4047 0.0245866
54.0154 54.5627 0.0242161
49.5917 61.7533 2
55.6789 41.716 2
50.5684 59.3392 2
52.1912 56.5032 2
54.2174 45.5852 2
53.367 49.3429 2
52.6838 52.8678 2
48.8496 60.2113 3.98271
52.588 42.6603 3.97453
49.7926 57.6387 3.98051
50.6044 54.4387 3.97622
51.8557 47.2869 3.98013
51.2375 50.9616 3.97204
48.2525 43.7945 3.98607
47.9619 62.4831 0.0153317
47.3289 61.0188 2
46.619 59.8054 3.98264
41.6638 67.6943 0.0118573
43.3564 65.5154 0.0133122
44.7668 63.4637 0.0144927
45.9869 61.5958 0.016075
39.6328 67.7746 2
41.5459 65.6539 2
45.7658 60.6406 2
43.1459 63.7369 2
44.4825 61.8461 2
44.6234 60.3029 3.98342
42.9499 62.0947 3.98479
41.5994 63.8304 3.98533
39.6476 65.6222 3.98673
37.5633 67.7568 3.98802
31.6972 65.141 3.98687
33.392 67.4943 3.98796
35.3333 69.9641 3.99044
37.526 70.0544 2
37.5096 72.4602 3.99409
39.7026 70.0287 0.00947864
39.8179 72.4059 2
39.9526 74.9197 4
42.1111 72.2085 0.00574318
42.3947 74.6792 2
44.8159 74.2794 0
41.736 4.96536 3.99084
43.8515 5.35582 2
44.3256 3.10896 3.99423
46.5704 3.64538 2
47.2057 1.27793 4
48.7842 4.32101 0.00612182
49.554 1.99013 2
51.8506 2.85458 0
59.0165 42.9261 0.0251272
60.2667 39.8507 0.025167
62.0058 37.4442 0.0279477
59.7828 37.5677 2
58.0308 40.662 2
55.157 39.7274 2
56.8622 37.8963 3.97508
49.701 41.3337 3.97978
53.1978 39.3118 3.9744
39.4417 6.79684 3.9888
59.9113 35.1166 0.0275583
58.0157 32.2619 0.0264571
56.567 29.3243 0.0257093
55.3474 19.173 0.0171821
55.0124 21.5433 0.0224564
54.9478 24.037 0.0272045
55.4716 26.5828 0.0196009
53.1283 18.6438 0.0185084
51.3053 18.0331 0.0156122
50.635 16.1176 0.0188501
45.9621 5.87915 0.00964515
49.7143 13.7315 0.0162607
47.3547 8.61876 0.0124708
48.5998 11.2852 0.0144082
43.3733 7.46821 0.0115747
57.4264 34.7557 2
41.3984 7.07286 2
45.3595 7.98971 2
42.865 9.40815 2
55.7559 31.5072 2
54.5396 28.3872 2
53.9759 20.1183 2
53.5951 22.685 2
53.7953 25.4809 2
46.6659 10.6459 2
47.745 13.0914 2
51.6561 19.3091 2
50.0081 17.6857 2
48.932 15.3876 2
54.9304 33.9655 3.97637
53.5301 30.4693 3.9752
52.6186 27.1835 3.97683
52.1624 24.0728 3.97345
52.3993 21.0487 3.98024
41.0129 9.04184 3.987
44.7231 9.98904 3.98624
42.4675 10.8943 3.9852
46.0046 12.7201 3.98451
47.6819 14.5734 3.98355
48.115 16.9756 3.98109
49.8202 19.5859 3.97772
49.592 61.7528 0.0158841
50.5687 59.3386 0.0188409
55.6779 41.716 0.0238791
54.2171 45.5841 0.0224589
53.3672 49.3428 0.0235863
52.1912 56.5024 0.0215152
52.6836 52.8678 0.0258139
48.8493 60.2117 2
52.5895 42.6601 2
49.7925 57.6392 2
50.6044 54.4396 2
51.8555 47.2868 2
51.2375 50.961 2
48.2477 43.7959 2
47.9883 58.7537 3.98173
50.1656 45.3018 3.97612
48.6039 55.9309 3.98161
49.1444 52.615 3.97654
49.7031 49.0628 3.97261
46.1194 39.8908 3.91334
46.5058 42.7113 3.95932
46.5605 45.8405 3.98838
43.9599 41.1968 3.93235
42.1061 42.0036 3.91442
47.3292 61.0186 0.0165774
46.6187 59.8055 2
45.4689 58.802 3.98243
39.6328 67.7742 0.0119335
41.546 65.6536 0.0132319
43.1461 63.7365 0.014673
44.4827 61.8457 0.0157849
45.7661 60.6403 0.016826
41.5993 63.8307 2
37.5633 67.7572 2
39.6475 65.6225 2
44.6232 60.3032 2
42.9497 62.095 2
41.753 62.5058 3.98535
42.4813 59.9955 3.9841
39.8929 63.5661 3.98543
37.6422 65.5214 3.98634
35.4634 67.6662 3.98799
33.5754 65.3545 3.98668
31.9598 63.3149 3.98588
29.8833 64.7318 3.98681
31.6973 65.1414 2
31.3765 67.204 3.98806
33.3921 67.4948 2
33.1561 69.7574 3.99044
35.3333 69.9645 2
35.195 72.3746 3.99408
37.526 70.054 0.00953443
37.5095 72.4605 2
37.5 75 4
39.8179 72.4056 0.00583703
39.9526 74.9197 2
42.3947 74.6792 0
39.6235 4.7125 3.99098
41.736 4.9649 2
42.062 2.71659 3.9944
43.8514 5.35627 0.0094158
44.3257 3.1087 2
44.8158 0.721173 4
46.5702 3.64562 0.00588203
47.2057 1.27779 2
49.554 1.99015 0
58.0301 40.662 0.0258218
59.7824 37.5676 0.0269957
55.1564 39.7275 0.024502
49.7025 41.3351 2
56.8627 37.8963 2
53.1983 39.3115 2
54.0493 36.6239 3.97667
47.6341 40.4397 3.97472
50.6727 38.5065 3.97913
37.5154 6.66788 3.98881
39.4417 6.79629 2
39.2105 8.68432 3.9872
35.9409 8.48421 3.98742
57.4253 34.7556 0.024368
55.7556 31.5076 0.0288806
54.5397 28.3869 0.0218507
53.9751 20.1199 0.0170259
53.5943 22.6882 0.0267365
53.7948 25.4803 0.0248872
51.6557 19.3102 0.0141981
50.0081 17.6867 0.0206954
48.9322 15.3885 0.0171591
45.3594 7.99015 0.012114
47.7452 13.092 0.0159909
46.666 10.6463 0.0142397
41.3984 7.07338 0.0113958
42.8649 9.40866 0.0131022
54.9318 33.9658 2
41.013 9.04125 2
44.7231 9.98866 2
42.4675 10.8937 2
53.5299 30.4679 2
52.6191 27.1855 2
52.4001 21.0473 2
52.1635 24.0734 2
46.0044 12.7198 2
47.6816 14.5727 2
49.8205 19.5846 2
48.1149 16.9747 2
52.4783 32.8628 3.97605
51.3784 29.142 3.97474
50.8172 25.7089 3.97146
49.9478 22.1646 3.9785
40.5682 11.5974 3.98485
43.8573 11.9093 3.9851
45.8031 15.4082 3.98362
47.5062 19.208 3.97955
46.4613 37.505 3.91652
48.8496 60.2113 0.017285
49.7926 57.6387 0.019489
52.588 42.6603 0.0254695
51.8557 47.2869 0.0198741
51.2375 50.9616 0.0279583
50.6044 54.4387 0.0237843
48.2525 43.7945 0.0139293
47.988 58.754 2
50.1662 45.305 2
48.6036 55.9315 2
49.1442 52.6174 2
49.7025 49.0623 2
46.1285 39.8947 2
46.5139 42.7199 2
46.5569 45.8369 2
43.97 41.2023 2
42.1117 42.0053 2
46.8408 57.357 3.98269
44.7275 39.4773 3.9255
42.4901 40.8768 3.9261
48.1381 47.259 3.97824
47.1772 54.2663 3.98139
47.6107 50.7716 3.97659
44.8531 47.3841 3.99424
45.184 41.987 3.91601
44.9785 44.6163 3.96063
42.7648 42.7127 3.93442
40.9594 42.3394 3.93785
46.619 59.8054 0.0173644
45.4685 58.8021 2
43.877 57.7267 3.98303
37.5633 67.7568 0.0119771
39.6476 65.6222 0.0132733
41.5994 63.8304 0.0146684
42.9499 62.0947 0.0152107
44.6234 60.3029 0.0165765
35.4634 67.6666 2
41.7528 62.506 2
39.8928 63.5663 2
37.6422 65.5218 2
42.4811 59.9959 2
40.6229 61.6649 3.98459
40.4453 58.2293 3.98329
37.8365 63.228 3.98591
35.5729 65.4437 3.9864
33.5755 65.3549 2
31.9599 63.3152 2
33.6292 63.3549 3.98579
30.3788 62.8733 3.98576
32.1233 62.0221 3.98494
26.868 61.5164 3.9845
28.0622 64.1596 3.98662
29.8835 64.7322 2
29.406 66.7675 3.98808
31.6972 65.141 0.0131273
31.3766 67.2044 2
31.0133 69.4223 3.9904
33.392 67.4943 0.0120399
33.156 69.7578 2
32.892 72.1489 3.99408
35.3333 69.9641 0.00956142
35.1949 72.3749 2
35.0474 74.9194 4
37.5096 72.4602 0.00590594
37.5 75 2
39.9526 74.9197 0
35.6198 6.719 3.98881
37.5226 4.61197 3.99109
39.6236 4.71204 2
39.7884 2.47304 3.99451
41.736 4.96536 0.00916359
42.0621 2.7163 2
42.3946 0.32156 4
44.3256 3.10896 0.00577041
44.8159 0.72056 2
47.2057 1.27793 0
49.701 41.3337 0.0202202
56.8622 37.8963 0.0249246
53.1978 39.3118 0.0256025
47.6362 40.4403 2
50.6714 38.5072 2
54.0497 36.624 2
51.4588 35.5792 3.96612
48.3082 37.7712 3.9804
46.1234 35.1215 3.9156
43.9622 33.8036 3.93017
42.1012 33.0043 3.91412
37.4572 8.52598 3.98737
37.5154 6.66738 2
39.4417 6.79684 0.0111992
39.2105 8.68367 2
38.9754 10.1162 3.98674
35.8973 9.76327 3.98634
34.1493 8.81371 3.98718
35.9408 8.48358 2
54.9304 33.9655 0.0236341
53.5301 30.4693 0.0247991
52.6186 27.1835 0.0231718
52.3993 21.0487 0.0197561
52.1624 24.0728 0.0265534
49.8202 19.5859 0.0222757
48.115 16.9756 0.0189074
47.6819 14.5734 0.0164542
44.7231 9.98904 0.0137587
46.0046 12.7201 0.0154861
41.0129 9.04184 0.0129965
42.4675 10.8943 0.014796
52.48 32.8622 2
40.5681 11.5967 2
43.8571 11.9089 2
51.3787 29.1441 2
50.8185 25.7107 2
49.9488 22.163 2
45.8028 15.4077 2
47.5064 19.2069 2
50.0789 31.401 3.96958
49.3237 27.4617 3.96997
49.4248 24.3771 3.98211
47.1908 21.9089 3.97873
38.3007 12.7217 3.98431
42.1006 14.2921 3.98309
44.8021 18.4412 3.98282
45.0135 37.5063 3.92572
46.4764 37.5071 2
47.9883 58.7537 0.0182704
48.6039 55.9309 0.0183918
50.1656 45.3018 0.0238771
49.7031 49.0628 0.0273908
49.1444 52.615 0.0234622
46.1194 39.8908 0.0866647
46.5058 42.7113 0.040677
46.5605 45.8405 0.0116218
43.9599 41.1968 0.0676463
42.1061 42.0036 0.0855803
46.8405 57.3573 2
44.7397 39.4802 2
42.4912 40.8765 2
48.1367 47.258 2
47.1769 54.2663 2
47.6106 50.7725 2
44.8528 47.3798 2
45.1905 41.9933 2
44.9884 44.6272 2
42.7807 42.718 2
40.9652 42.3399 2
45.4008 55.9439 3.98191
42.8275 39.2646 3.93961
40.9338 40.7985 3.96641
46.1308 48.935 3.98275
45.5591 52.5643 3.98285
43.4944 48.4768 3.98414
43.3845 46.187 3.96637
43.7406 43.8018 3.91196
41.243 43.8753 3.93678
39.3232 42.6674 3.93824
45.4689 58.802 0.017573
43.8767 57.7268 2
42.1078 56.353 3.98338
35.4634 67.6662 0.012012
37.6422 65.5214 0.0136582
39.8929 63.5661 0.014572
41.753 62.5058 0.0146546
42.4813 59.9955 0.0158975
35.573 65.4441 2
40.6226 61.665 2
37.8364 63.2282 2
40.445 58.2295 2
38.9263 56.5238 3.98534
38.2505 60.3505 3.98488
35.607 63.2216 3.98563
33.5754 65.3545 0.0133195
31.9598 63.3149 0.014117
33.6293 63.3552 2
30.3789 62.8736 2
32.1234 62.0224 2
28.6811 62.2186 3.9855
33.346 61.5353 3.98512
31.0661 61.2394 3.9847
27.5659 59.6148 3.98299
23.7876 59.1017 3.98338
25.0329 60.8888 3.98355
26.8682 61.5167 2
26.2286 63.4917 3.98611
28.0623 64.1599 2
27.4626 66.1911 3.98807
29.8833 64.7318 0.0131868
29.4061 66.7679 2
28.9056 68.9478 3.99037
31.3765 67.204 0.0119425
31.0133 69.4227 2
30.6145 71.7799 3.99411
33.1561 69.7574 0.00955934
32.8919 72.1491 2
32.6054 74.6784 4
35.195 72.3746 0.00592199
35.0474 74.9197 2
37.5 75 0
33.7224 6.9737 3.98857
35.434 4.68241 3.99101
35.6198 6.71841 2
37.514 2.38567 3.99457
37.5227 4.61154 2
39.6235 4.7125 0.00902061
39.7885 2.47275 2
39.9526 0.0806499 4
42.062 2.71659 0.00560431
42.3947 0.320817 2
44.8158 0.721173 0
44.7385 35.5221 3.92513
42.4913 34.1234 3.92547
47.6341 40.4397 0.0252841
50.6727 38.5065 0.0208713
54.0493 36.6239 0.0233278
48.3082 37.7693 2
51.4593 35.5783 2
46.1296 35.1198 2
43.9769 33.7939 2
42.1047 33.0048 2
48.4715 34.2723 4.00088
45.1809 33.0154 3.90744
42.763 32.295 3.93335
40.9514 32.6651 3.93618
37.3094 10.6191 3.98582
37.4571 8.52534 2
37.5154 6.66788 0.0111894
39.2105 8.68432 0.0127955
38.9754 10.1154 2
34.7525 10.3688 3.98574
35.8973 9.76257 2
32.376 9.36035 3.9864
34.1492 8.81293 2
35.9409 8.48421 0.0125829
52.4783 32.8628 0.0239509
51.3784 29.142 0.0252621
50.8172 25.7089 0.0285361
49.9478 22.1646 0.0215043
47.5062 19.208 0.0204455
45.8031 15.4082 0.0163807
43.8573 11.9093 0.0149011
40.5682 11.5974 0.0151478
50.0783 31.401 2
38.3005 12.7209 2
42.1002 14.2916 2
49.3242 27.4627 2
49.4262 24.3757 2
47.1916 21.9095 2
44.8021 18.4403 2
47.8593 29.5948 3.97069
47.128 25.0973 3.98389
44.2913 21.2906 3.98159
36.5804 12.9184 3.98391
38.6801 14.791 3.98274
41.7501 17.8205 3.98058
42.966 37.4899 3.93624
45.0311 37.5062 2
46.4613 37.505 0.0834788
46.8408 57.357 0.0173147
47.1772 54.2663 0.0186124
48.1381 47.259 0.0217603
47.6107 50.7716 0.0234104
44.7275 39.4773 0.0744956
45.184 41.987 0.0839892
44.9785 44.6163 0.0393698
44.8531 47.3841 0.00575861
42.7648 42.7127 0.0655762
42.4901 40.8768 0.0738959
40.9594 42.3394 0.0621478
45.4007 55.9441 2
42.83 39.2634 2
40.9334 40.797 2
46.1304 48.9329 2
45.559 52.5633 2
43.4926 48.4827 2
43.412 46.1981 2
43.7522 43.8086 2
41.2543 43.8746 2
39.3266 42.668 2
43.7404 54.4547 3.9874
41.014 39.17 3.97182
39.2548 40.875 3.97127
43.7333 50.5341 3.98679
41.996 47.7203 3.9931
41.9092 45.1982 3.90579
39.4709 44.6302 3.9413
37.4985 42.8003 3.93644
43.877 57.7267 0.0169749
42.1074 56.3531 2
40.4211 54.9598 3.98257
35.5729 65.4437 0.0136026
37.8365 63.228 0.0140866
40.6229 61.6649 0.0154095
40.4453 58.2293 0.0167131
35.607 63.2218 2
38.2502 60.3503 2
38.9258 56.5248 2
38.0001 55.2815 3.9846
36.9352 57.6556 3.98402
35.3636 60.9347 3.98519
33.6292 63.3549 0.0142092
30.3788 62.8733 0.0142356
32.1233 62.0221 0.0150639
33.346 61.5355 2
28.6813 62.2188 2
31.0662 61.2395 2
29.4016 60.3091 3.98418
32.3554 59.7681 3.98411
28.0173 58.3944 3.98334
27.5661 59.615 2
25.3744 58.6141 3.98202
22.7497 58.2605 3.98022
23.3978 60.3681 3.98264
23.7878 59.1021 2
25.0331 60.8891 2
24.4309 62.784 3.98535
26.868 61.5164 0.0155041
26.2288 63.4921 2
25.5466 65.5011 3.98791
28.0622 64.1596 0.0133818
27.4627 66.1915 2
26.8352 68.336 3.9903
29.406 66.7675 0.0119211
28.9055 68.9481 2
28.3696 71.2651 3.99411
31.0133 69.4223 0.00960053
30.6143 71.7801 2
30.1842 74.2788 4
32.892 72.1489 0.00591612
32.6053 74.6792 2
35.0474 74.9194 0
31.7867 7.41345 3.98827
33.3459 4.92161 3.99083
33.7223 6.97298 2
35.2442 2.46184 3.99452
35.434 4.6819 2
35.6198 6.719 0.0111906
37.5 0 4
37.514 2.38538 2
37.5226 4.61197 0.00890986
39.7884 2.47304 0.00549084
39.9526 0.0802889 2
42.3946 0.32156 0
42.8371 35.7237 3.93752
44.7472 35.5214 2
40.9354 34.2029 3.96486
42.4925 34.1239 2
48.3082 37.7712 0.0195966
51.4588 35.5792 0.0338789
46.1234 35.1215 0.0843992
43.9622 33.8036 0.0698253
42.1012 33.0043 0.0858827
48.4752 34.2697 2
45.1902 33.0097 2
42.7768 32.2904 2
40.954 32.6633 2
46.4044 31.5348 3.97801
43.7328 31.2086 3.9138
41.2436 31.1259 3.93097
39.3128 32.3382 3.93855
35.6907 11.7634 3.98424
37.3093 10.6183 2
37.4572 8.52598 0.0126307
38.9754 10.1162 0.0132596
33.0963 11.2055 3.98453
34.7524 10.368 2
35.8973 9.76327 0.013661
30.4806 10.0086 3.98581
32.3759 9.35956 2
34.1493 8.81371 0.0128186
50.0789 31.401 0.0304219
49.3237 27.4617 0.0300293
49.4248 24.3771 0.0178918
47.1908 21.9089 0.0212707
44.8021 18.4412 0.0171756
42.1006 14.2921 0.0169067
38.3007 12.7217 0.0156851
36.5802 12.9177 2
47.857 29.5921 2
38.6796 14.7901 2
41.7498 17.8197 2
47.1297 25.0972 2
44.2919 21.2889 2
45.613 27.7698 3.97938
43.8173 24.0209 3.98229
41.3425 20.6979 3.98012
35.7702 14.7431 3.98305
38.6806 17.5774 3.98088
41.0615 37.4831 3.96926
42.9694 37.4908 2
45.0135 37.5063 0.0742819
45.4008 55.9439 0.0180905
45.5591 52.5643 0.017151
46.1308 48.935 0.0172542
42.8275 39.2646 0.0603876
43.7406 43.8018 0.0880387
43.3845 46.187 0.0336349
43.4944 48.4768 0.0158579
41.243 43.8753 0.0632218
40.9338 40.7985 0.0335851
39.3232 42.6674 0.0617562
43.7404 54.4553 2
41.0146 39.1693 2
39.2538 40.8761 2
43.7323 50.5375 2
41.9979 47.728 2
41.9266 45.2034 2
37.5002 42.8025 2
39.4849 44.6254 2
41.8886 53.0267 3.99041
39.2409 39.165 3.95041
37.4994 40.9143 3.95352
35.6798 42.6721 3.93823
40.9704 49.7667 3.99999
39.813 46.0807 3.90457
37.5023 44.8854 3.94344
42.1078 56.353 0.0166164
40.4204 54.9596 2
38.7295 53.8928 3.98556
35.607 63.2216 0.0143721
38.2505 60.3505 0.0151181
38.9263 56.5238 0.0146568
35.3635 60.9347 2
36.9347 57.6548 2
37.9994 55.2808 2
36.319 55.418 3.98665
34.4871 58.5473 3.98456
33.346 61.5353 0.0148792
28.6811 62.2186 0.0145041
31.0661 61.2394 0.0153024
32.3555 59.768 2
29.4018 60.3091 2
30.2932 57.841 3.98411
28.0175 58.3944 2
26.9349 56.8441 3.98124
27.5659 59.6148 0.0170106
25.3747 58.6143 2
23.8283 56.8262 3.9778
21.3244 57.4197 3.98039
21.989 59.6404 3.98263
22.7498 58.2609 2
22.7342 62.0349 3.98443
23.398 60.3685 2
23.7876 59.1017 0.0166172
25.0329 60.8888 0.016449
24.4311 62.7844 2
23.6804 64.7193 3.98737
26.2286 63.4917 0.0138909
25.5468 65.5014 2
24.8076 67.5972 3.99023
27.4626 66.1911 0.0119279
26.8352 68.3364 2
26.1649 70.6059 3.99406
28.9056 68.9478 0.00962897
28.3694 71.2653 2
27.7943 73.7221 4
30.6145 71.7799 0.00589475
30.1841 74.2794 2
32.6054 74.6784 0
29.8093 7.98677 3.98773
31.251 5.32873 3.99053
31.7867 7.41268 2
32.98 2.69995 3.9944
33.3459 4.92101 2
33.7224 6.9737 0.0114343
35.0474 0.080333 4
35.2442 2.46153 2
35.434 4.68241 0.00899108
37.5 0 2
37.514 2.38567 0.00542613
39.9526 0.0806499 0
41.0231 35.8075 3.96994
42.8382 35.7252 2
44.7385 35.5221 0.0748719
28.5415 10.6839 3.98563
39.2531 34.1293 3.97052
40.9342 34.2044 2
42.4913 34.1234 0.074534
48.4715 34.2723 -0.00087719
45.1809 33.0154 0.0925623
42.763 32.295 0.0666546
40.9514 32.6651 0.0638223
46.4166 31.5321 2
43.738 31.202 2
41.2558 31.1217 2
39.3156 32.3377 2
44.4316 29.7074 3.96956
41.9067 29.8094 3.90751
39.4674 30.3779 3.94118
37.486 32.2018 3.93812
34.0905 12.9215 3.98355
35.6906 11.7626 2
37.3094 10.6191 0.0141755
31.1843 11.9738 3.98468
33.0962 11.2046 2
34.7525 10.3688 0.0142573
30.4805 10.0078 2
32.376 9.36035 0.0136033
47.8593 29.5948 0.0293136
47.128 25.0973 0.0161084
36.5804 12.9184 0.0160905
44.2913 21.2906 0.0184126
41.7501 17.8205 0.0194167
38.6801 14.791 0.0172575
35.7697 14.7426 2
45.6115 27.7671 2
38.6801 17.5762 2
41.3423 20.6963 2
43.8186 24.0231 2
33.6053 15.8601 3.98295
43.0944 26.5089 3.99143
40.923 23.2716 3.98058
38.4213 20.3058 3.98199
35.8464 17.4907 3.98228
39.2508 37.4833 3.93873
41.0614 37.483 2
42.966 37.4899 0.0637648
43.7404 54.4547 0.0126015
43.7333 50.5341 0.0132128
41.014 39.17 0.028179
41.9092 45.1982 0.0942074
41.996 47.7203 0.00690093
39.4709 44.6302 0.0586996
39.2548 40.875 0.0287254
37.4985 42.8003 0.0635597
41.8882 53.0281 2
39.2414 39.1656 2
37.4991 40.9163 2
40.9689 49.7668 2
35.6768 42.6727 2
39.8327 46.0953 2
37.5004 44.881 2
39.8301 51.9512 3.99699
37.4979 39.1739 3.91976
35.7462 40.8841 3.97139
34.0417 42.3397 3.93868
35.5177 44.6327 3.93942
38.7607 48.7598 4.01633
37.5076 46.3952 3.90315
40.4211 54.9598 0.0174336
38.7288 53.8912 2
36.7163 53.2522 3.99533
35.3636 60.9347 0.014811
36.9352 57.6556 0.0159843
38.0001 55.2815 0.0153954
34.487 58.5471 2
36.3185 55.416 2
33.2216 55.5336 3.98528
32.3554 59.7681 0.0158853
29.4016 60.3091 0.0158242
30.2933 57.8407 2
28.6739 55.334 3.98124
28.0173 58.3944 0.016661
26.9352 56.8443 2
25.293 55.1643 3.97845
21.7915 55.3682 3.97765
25.3744 58.6141 0.0179757
23.8284 56.8266 2
20.2075 57.0501 3.98236
20.6387 58.7984 3.98197
21.3244 57.4203 2
21.1635 61.1848 3.98405
21.9892 59.6408 2
22.7497 58.2605 0.0197794
21.8937 63.847 3.98656
22.7344 62.0353 2
23.3978 60.3681 0.0173567
24.4309 62.784 0.0146535
23.6806 64.7198 2
22.8359 66.7409 3.99008
25.5466 65.5011 0.0120864
24.8075 67.5975 2
24.0091 69.8071 3.99399
26.8352 68.336 0.00970498
26.1646 70.6061 2
25.446 73.0099 4
28.3696 71.2651 0.00589244
27.7943 73.7222 2
30.1842 74.2788 0
27.8192 8.64643 3.98742
29.1529 5.87452 3.99012
29.8092 7.98606 2
30.7252 3.09708 3.99421
31.2509 5.32811 2
31.7867 7.41345 0.0117283
32.6053 0.320823 4
32.9799 2.69963 2
33.3459 4.92161 0.00916922
35.0474 0.0802903 2
35.2442 2.46184 0.00548014
37.5 0 0
39.248 35.8143 3.94919
41.0231 35.8082 2
42.8371 35.7237 0.0624849
28.5414 10.6833 2
26.6204 11.3793 3.9853
29.2232 12.6304 3.98465
37.495 34.088 3.95151
39.2517 34.1285 2
40.9354 34.2029 0.0351353
46.4044 31.5348 0.021991
43.7328 31.2086 0.0861963
41.2436 31.1259 0.0690307
39.3128 32.3382 0.0614496
44.4439 29.6994 2
41.9244 29.7997 2
39.4792 30.3803 2
37.4866 32.1979 2
42.3522 28.3518 3.96142
39.8212 28.9253 3.91056
37.4896 30.1118 3.9434
35.6659 32.3271 3.9388
31.9119 14.4667 3.98355
34.0904 12.9207 2
35.6907 11.7634 0.0157624
31.1843 11.973 2
33.0963 11.2055 0.0154718
30.4806 10.0086 0.0141858
45.613 27.7698 0.0206183
43.8173 24.0209 0.0177072
35.7702 14.7431 0.0169471
41.3425 20.6979 0.0198803
38.6806 17.5774 0.0191211
33.605 15.8599 2
35.8459 17.4904 2
43.0936 26.5104 2
38.421 20.3048 2
40.9236 23.2683 2
33.5472 17.3679 3.98398
40.4698 25.6183 4.01063
38.0801 22.8342 3.98893
35.5818 20.0574 3.98364
37.4998 37.4918 3.91347
39.2508 37.4835 2
41.0615 37.4831 0.0307434
41.8886 53.0267 0.0095851
40.9704 49.7667 1.45137e-05
39.2409 39.165 0.0495949
39.813 46.0807 0.0954308
37.5023 44.8854 0.0565602
37.4994 40.9143 0.0464757
35.6798 42.6721 0.0617662
39.8302 51.9507 2
37.4983 39.1748 2
35.7463 40.886 2
38.7564 48.785 2
34.0373 42.3418 2
35.5104 44.6296 2
37.504 46.4137 2
37.6693 51.0512 4.00295
35.7595 39.179 3.94995
34.0719 40.8069 3.9649
32.8916 42.0018 3.91474
33.7439 43.8733 3.93515
35.1891 46.0824 3.91009
36.8901 48.4073 4.00096
38.7295 53.8928 0.0144381
36.7161 53.249 2
34.3508 52.5108 3.98749
34.4871 58.5473 0.0154442
36.319 55.418 0.0133454
33.2217 55.5328 2
30.4998 53.4361 3.98444
30.2932 57.841 0.0158857
28.6742 55.3335 2
26.8572 53.4684 3.97809
26.9349 56.8441 0.0187617
25.2932 55.1646 2
23.5468 53.5067 3.97532
20.4417 53.2502 3.97466
19.917 55.8541 3.98136
21.7913 55.3689 2
23.8283 56.8262 0.0222013
19.4295 57.9108 3.98178
20.2075 57.0506 2
19.702 60.2188 3.98312
20.6388 58.799 2
21.3244 57.4197 0.0196066
20.2056 62.8683 3.98575
21.1637 61.1853 2
21.989 59.6404 0.0173729
20.9373 65.7699 3.98959
21.8938 63.8475 2
22.7342 62.0349 0.0155712
23.6804 64.7193 0.0126312
22.8359 66.7413 2
21.9117 68.8743 3.99389
24.8076 67.5972 0.00977089
24.0089 69.8072 2
23.1494 72.1454 4
26.1649 70.6059 0.00593623
25.446 73.0099 2
27.7943 73.7221 0
25.8585 9.37444 3.98696
27.0677 6.53861 3.98974
27.8192 8.6458 2
28.4874 3.64298 3.99395
29.1528 5.87395 2
29.8093 7.98677 0.0122654
30.1841 0.720592 4
30.7251 3.09677 2
31.251 5.32873 0.00947095
32.6053 0.320817 2
32.98 2.69995 0.00559523
35.0474 0.080333 0
37.5005 35.8157 3.91759
39.2478 35.8141 2
41.0231 35.8075 0.0300614
24.7751 12.0622 3.98529
23.7489 14.3461 3.98425
28.5415 10.6839 0.0143741
26.6204 11.3788 2
29.2232 12.6298 2
27.2893 13.3635 3.98456
29.7778 14.189 3.98375
35.7424 34.1144 3.97046
37.4942 34.0855 2
39.2531 34.1293 0.0294843
37.486 32.2018 0.0618839
44.4316 29.7074 0.0304384
41.9067 29.8094 0.0924935
39.4674 30.3779 0.0588226
42.3615 28.3392 2
39.8386 28.9136 2
37.4888 30.1183 2
35.6638 32.3261 2
40.0338 27.5253 3.97713
37.496 28.5964 3.90585
35.5024 30.3672 3.93991
34.0342 32.6499 3.93486
30.9228 16.8229 3.98323
31.9118 14.466 2
34.0905 12.9215 0.0164456
31.1843 11.9738 0.0153159
43.0944 26.5089 0.00857258
40.923 23.2716 0.0194204
33.6053 15.8601 0.0170499
35.8464 17.4907 0.0177167
38.4213 20.3058 0.0180101
33.5468 17.3681 2
35.5815 20.0567 2
40.4677 25.6188 2
38.0801 22.8343 2
32.8596 19.7731 3.98372
37.7896 25.1313 4.0276
35.2015 22.6149 3.98085
35.7519 37.496 3.93853
37.5001 37.4918 2
39.2508 37.4833 0.0612721
39.8301 51.9512 0.00300599
38.7607 48.7598 -0.016331
37.4979 39.1739 0.0802415
37.5076 46.3952 0.0968527
35.5177 44.6327 0.0605793
35.7462 40.8841 0.0286114
34.0417 42.3397 0.0613246
37.6696 51.0578 2
35.76 39.1802 2
34.072 40.8049 2
36.8872 48.4158 2
32.8867 42.0018 2
33.7351 43.8787 2
35.1662 46.0942 2
35.427 50.1862 4.00312
33.9925 39.1846 3.96839
32.5062 40.8784 3.92597
32.2265 42.7078 3.93323
33.1028 45.1856 3.91423
34.2832 47.4774 3.97729
36.7163 53.2522 0.00466892
34.3506 52.5105 2
31.9698 51.2409 3.98794
33.2216 55.5336 0.0147221
30.5002 53.4367 2
28.3945 51.6543 3.98033
28.6739 55.334 0.0187641
26.8575 53.4697 2
25.0432 51.7927 3.97408
25.293 55.1643 0.0215497
23.5468 53.5077 2
21.9302 51.8357 3.97339
19.1706 51.6592 3.97403
18.9011 54.3309 3.97774
20.4417 53.2507 2
18.4353 56.7432 3.98249
19.9168 55.8546 2
21.7915 55.3682 0.0223469
18.3627 59.1265 3.98194
19.4296 57.9113 2
20.2075 57.0501 0.0176352
18.6158 61.7762 3.98478
19.7022 60.2194 2
20.6387 58.7984 0.0180305
19.126 64.6807 3.98886
20.2058 62.8688 2
21.1635 61.1848 0.0159453
19.8857 67.8109 3.99358
20.9373 65.7703 2
21.8937 63.847 0.0134378
22.8359 66.7409 0.0099213
21.9114 68.8743 2
20.9142 71.1327 4
24.0091 69.8071 0.00600796
23.1494 72.1455 2
25.446 73.0099 0
23.0943 12.7769 3.98493
23.9711 10.161 3.98672
25.0216 7.30861 3.98954
25.8585 9.37388 2
26.2792 4.32717 3.99369
27.0676 6.53809 2
27.8192 8.64643 0.0125768
27.7943 1.27781 4
28.4872 3.64272 2
29.1529 5.87452 0.00988163
30.1841 0.720551 2
30.7252 3.09708 0.00579089
32.6053 0.320823 0
35.7557 35.8149 3.9488
37.5005 35.8147 2
39.248 35.8143 0.0508145
24.7752 12.0617 2
23.7491 14.346 2
22.4771 15.0224 3.98385
25.3553 13.8954 3.98422
24.0215 15.6077 3.98359
26.6204 11.3793 0.0147023
29.2232 12.6304 0.0153494
27.2893 13.3631 2
29.7778 14.1884 2
28.3534 15.9629 3.98391
34.0747 34.1921 3.96451
35.7427 34.1139 2
37.495 34.088 0.0484929
35.6659 32.3271 0.0611999
37.4896 30.1118 0.0565979
42.3522 28.3518 0.0385774
39.8212 28.9253 0.0894438
40.0385 27.517 2
37.496 28.5807 2
35.4918 30.3687 2
34.0343 32.6455 2
37.6271 27.2134 3.98263
35.1523 28.9099 3.90975
33.7256 31.1176 3.93369
32.8891 32.9919 3.91523
30.2031 19.3255 3.9845
30.9228 16.8224 2
31.9119 14.4667 0.0164504
40.4698 25.6183 -0.0106346
38.0801 22.8342 0.011066
33.5472 17.3679 0.0160158
35.5818 20.0574 0.0163593
32.8589 19.7737 2
35.2012 22.6127 2
37.7897 25.1343 2
32.304 22.3859 3.98314
34.9461 25.1436 4.00325
33.9473 37.4972 3.9672
35.7526 37.4966 2
37.4998 37.4918 0.0865288
37.6693 51.0512 -0.00295053
36.8901 48.4073 -0.000961279
35.7595 39.179 0.0500489
35.1891 46.0824 0.0899096
33.7439 43.8733 0.0648511
34.0719 40.8069 0.0350953
32.8916 42.0018 0.0852568
35.4263 50.1924 2
33.9932 39.1832 2
32.5042 40.8767 2
34.2768 47.5038 2
32.2133 42.7081 2
33.0859 45.1992 2
33.1901 49.1793 4.00417
32.1673 39.2717 3.93928
31.0314 41.1904 3.93184
31.2596 43.7902 3.91297
32.2322 46.4061 3.97164
34.3508 52.5108 0.012508
31.9697 51.2419 2
29.8024 49.7608 3.98332
30.4998 53.4361 0.0155623
28.3948 51.6524 2
26.4559 50.0349 3.97452
26.8572 53.4684 0.0219082
25.0432 51.7926 2
23.2955 50.2294 3.97275
23.5468 53.5067 0.0246764
21.9302 51.8354 2
20.4276 50.3411 3.97369
17.9582 50.35 3.97594
17.8096 52.8131 3.97621
19.1708 51.6594 2
17.4213 55.3595 3.9801
18.901 54.3314 2
20.4417 53.2502 0.0253445
17.1266 57.8891 3.98287
18.4351 56.7438 2
19.917 55.8541 0.0186392
17.1324 60.56 3.9836
18.3628 59.1271 2
19.4295 57.9108 0.0182201
17.4061 63.4736 3.9878
18.616 61.7768 2
19.702 60.2188 0.0168811
17.9418 66.6193 3.99321
19.1261 64.6812 2
20.2056 62.8683 0.0142536
18.75 69.9759 4
19.8855 67.8109 2
20.9373 65.7699 0.0104101
21.9117 68.8743 0.00611481
20.9142 71.1327 2
23.1494 72.1454 0
21.5849 13.5966 3.98462
22.1891 11.0201 3.9862
23.0945 12.7767 2
23.0397 8.17395 3.98937
23.9712 10.1605 2
24.1168 5.14181 3.99353
25.0215 7.30817 2
25.8585 9.37444 0.0130404
25.446 1.99014 4
26.2789 4.32698 2
27.0677 6.53861 0.010262
27.7943 1.27778 2
28.4874 3.64298 0.00604519
30.1841 0.720592 0
33.9855 35.8112 3.96851
35.7557 35.815 2
37.5005 35.8157 0.0824121
21.3018 15.8179 3.98329
24.7751 12.0622 0.014713
23.7489 14.3461 0.0157536
25.3554 13.8951 2
22.4774 15.0223 2
24.0218 15.6076 2
23.2602 16.2389 3.98325
25.3767 16.0754 3.984
27.2893 13.3635 0.0154376
29.7778 14.189 0.0162527
28.3536 15.9627 2
27.4347 18.784 3.98436
32.5183 34.1154 3.92712
34.0761 34.1912 2
35.7424 34.1144 0.0295352
34.0342 32.6499 0.065137
35.5024 30.3672 0.0600886
37.496 28.5964 0.0941491
40.0338 27.5253 0.0228701
37.6222 27.1835 2
32.8891 32.9926 2
35.1313 28.8957 2
33.7131 31.1074 2
35.0584 27.3289 3.98368
33.0668 29.804 3.91189
32.2129 32.2762 3.93101
29.5651 21.9198 3.99078
30.203 19.3255 2
30.9228 16.8229 0.0167741
37.7896 25.1313 -0.0276045
35.2015 22.6149 0.0191494
32.8596 19.7731 0.01628
32.3036 22.3872 2
34.9488 25.1495 2
31.6456 25.6023 3.99256
32.038 37.4981 3.93697
33.9486 37.4962 2
35.7519 37.496 0.0614692
35.427 50.1862 -0.00312484
34.2832 47.4774 0.0227072
33.9925 39.1846 0.031614
33.1028 45.1856 0.0857714
32.2265 42.7078 0.0667677
32.5062 40.8784 0.0740308
33.1897 49.1637 2
32.1658 39.2696 2
31.0168 41.1958 2
32.2177 46.4208 2
31.251 43.7964 2
31.0705 47.9806 4.00057
30.2586 39.4672 3.92536
29.8128 41.9812 3.90952
30.3558 44.9842 3.97212
31.9698 51.2409 0.0120551
29.8024 49.7563 2
27.7987 48.2331 3.97917
28.3945 51.6543 0.0196694
26.4561 50.0336 2
24.5891 48.5063 3.97462
25.0432 51.7927 0.0259199
23.2959 50.229 2
21.6033 48.8182 3.97502
21.9302 51.8357 0.0266127
20.4281 50.3409 2
18.997 49.1132 3.97735
16.8668 49.3471 3.97866
16.7496 51.425 3.97656
17.9587 50.3502 2
16.3713 53.8881 3.97838
17.8097 52.8133 2
19.1706 51.6592 0.0259732
15.9659 56.4908 3.98184
17.4211 55.36 2
18.9011 54.3309 0.0222598
15.7447 59.2211 3.98354
17.1266 57.8897 2
18.4353 56.7432 0.0175055
15.7862 62.1443 3.98648
17.1325 60.5606 2
18.3627 59.1265 0.0180636
16.0883 65.3019 3.99287
17.4062 63.4741 2
18.6158 61.7762 0.0152168
16.6661 68.6801 4
17.9416 66.6194 2
19.126 64.6807 0.0111441
18.75 69.9759 2
19.8857 67.8109 0.00642235
20.9142 71.1327 0
20.2165 14.5853 3.98398
21.5851 13.5966 2
20.5282 11.9896 3.98575
21.1428 9.1435 3.9892
22.1893 11.0198 2
23.0943 12.7769 0.0150691
22.0159 6.08078 3.99337
23.0396 8.17357 2
23.9711 10.161 0.013277
23.1494 2.85457 4
24.1165 5.14169 2
25.0216 7.30861 0.0104618
25.446 1.99012 2
26.2792 4.32717 0.00631317
27.7943 1.27781 0
32.1706 35.7216 3.93844
33.9862 35.8106 2
35.7557 35.8149 0.0512028
21.302 15.8176 2
20.2983 16.9515 3.98376
22.0931 16.6232 3.9826
25.3553 13.8954 0.0157808
22.4771 15.0224 0.0161546
24.0215 15.6077 0.0164145
25.3771 16.0752 2
23.2606 16.2389 2
24.1989 18.4374 3.98205
27.0019 21.4421 3.98399
28.3534 15.9629 0.0160935
27.4348 18.7841 2
31.0371 33.7958 3.92894
32.5168 34.118 2
34.0747 34.1921 0.035487
32.8891 32.9919 0.084767
33.7256 31.1176 0.0663085
35.1523 28.9099 0.0902537
37.6271 27.2134 0.0173675
35.0483 27.313 2
32.2109 32.2804 2
33.0537 29.7905 2
32.4842 28.0524 3.9907
31.2309 31.2011 3.91375
28.7622 24.3847 3.9873
29.5646 21.9206 2
30.2031 19.3255 0.015495
34.9461 25.1436 -0.00325021
32.304 22.3859 0.0168592
31.6468 25.591 2
29.5796 27.2906 3.97918
29.9804 37.4875 3.92508
32.0376 37.4978 2
33.9473 37.4972 0.0328034
33.1901 49.1793 -0.00416734
32.2322 46.4061 0.0283634
32.1673 39.2717 0.0607239
31.2596 43.7902 0.0870259
31.0314 41.1904 0.0681601
31.0717 47.9784 2
30.248 39.4738 2
29.8034 41.9881 2
30.342 44.9948 2
29.0866 46.5281 3.98786
28.871 39.8734 3.91059
28.5548 43.1997 3.96873
29.8024 49.7608 0.0166821
27.7992 48.2295 2
25.8625 46.6957 3.98111
26.4559 50.0349 0.0254848
24.59 48.5055 2
22.7415 47.1126 3.97921
23.2955 50.2294 0.0272525
21.6041 48.8177 2
19.9423 47.6406 3.97957
20.4276 50.3411 0.0263104
18.9976 49.1133 2
17.6413 48.1944 3.98024
16.1191 48.6965 3.98064
16.8673 49.3475 2
15.8281 50.1843 3.9779
15.3601 52.4303 3.9778
16.7499 51.4252 2
17.9582 50.35 0.0240572
14.856 54.9909 3.98015
16.3712 53.8885 2
17.8096 52.8131 0.0237939
14.4526 57.7501 3.98315
15.9658 56.4914 2
17.4213 55.3595 0.0198988
14.2637 60.6988 3.98558
15.7448 59.2218 2
17.1266 57.8891 0.0171326
14.3324 63.8612 3.99228
15.7862 62.1449 2
17.1324 60.56 0.0163978
14.6715 67.2507 4
16.0881 65.302 2
17.4061 63.4736 0.0121974
16.6661 68.6801 2
17.9418 66.6193 0.00678849
18.75 69.9759 0
18.9297 15.772 3.98356
20.2167 14.5851 2
18.9777 13.1004 3.98506
21.5849 13.5966 0.0153759
20.5285 11.9894 2
19.3421 10.231 3.98888
19.9905 7.14537 3.99331
21.1428 9.14317 2
22.1891 11.0201 0.0137977
20.9142 3.86727 4
22.0155 6.08074 2
23.0397 8.17395 0.0106341
23.1494 2.85451 2
24.1168 5.14181 0.00646517
25.446 1.99014 0
30.2673 35.5262 3.92878
32.1686 35.7228 2
33.9855 35.8112 0.0314857
21.3018 15.8179 0.0167075
22.0934 16.6229 2
20.2984 16.9509 2
19.2362 18.3977 3.98319
21.7767 17.8387 3.98293
25.3767 16.0754 0.0160001
23.2602 16.2389 0.0167519
24.1991 18.4375 2
22.2686 19.8791 3.9814
24.5784 21.3076 3.98298
26.3873 23.7077 3.98137
27.0023 21.4428 2
27.4347 18.784 0.0156422
29.8103 33.0008 3.91167
31.0236 33.7831 2
32.5183 34.1154 0.0728825
32.2129 32.2762 0.0689944
33.0668 29.804 0.0881094
35.0584 27.3289 0.0163214
32.4706 28.0473 2
31.2367 31.2009 2
30.0305 29.5035 3.98276
27.8213 26.5281 3.97199
28.7626 24.3893 2
29.5651 21.9198 0.009217
31.6456 25.6023 0.00743905
29.5717 27.255 2
28.531 37.4911 3.91804
29.9705 37.49 2
32.038 37.4981 0.0630344
31.0705 47.9806 -0.000565865
30.3558 44.9842 0.0278783
30.2586 39.4672 0.0746391
29.8128 41.9812 0.090479
29.0906 46.5447 2
28.8619 39.8762 2
28.5424 43.2108 2
27.1629 44.8329 3.9753
26.6509 40.6316 3.99983
27.7987 48.2331 0.0208325
25.8644 46.6937 2
23.9011 45.2423 3.97295
24.5891 48.5063 0.0253824
22.7428 47.1118 2
20.8743 45.9221 3.97892
21.6033 48.8182 0.0249796
19.9432 47.6407 2
18.2875 46.7547 3.98122
18.997 49.1132 0.0226542
17.6419 48.1949 2
16.3095 47.7261 3.98032
16.1195 48.697 2
15.1755 49.0269 3.97919
16.8668 49.3471 0.0213405
15.8285 50.1847 2
14.4745 50.9961 3.97799
13.8174 53.4452 3.97917
15.3602 52.4306 2
16.7496 51.425 0.0234424
13.2465 56.1771 3.98204
14.8558 54.9914 2
16.3713 53.8881 0.0216152
12.8454 59.1325 3.98545
14.4526 57.7506 2
15.9659 56.4908 0.0181558
12.6777 62.3039 3.99138
14.2638 60.6992 2
15.7447 59.2211 0.0164604
12.7746 65.6939 4
14.3322 63.8612 2
15.7862 62.1443 0.013522
14.6714 67.2507 2
16.0883 65.3019 0.00712794
16.6661 68.6801 0
17.663 17.1472 3.98313
18.9298 15.7716 2
17.5088 14.3646 3.98443
20.2165 14.5853 0.016019
18.9779 13.1 2
17.6377 11.4499 3.98806
20.5282 11.9896 0.0142541
19.3423 10.2308 2
18.0506 8.33817 3.99321
18.75 5.0241 4
19.9902 7.14541 2
21.1428 9.1435 0.0108003
20.9142 3.86727 2
22.0159 6.08078 0.00662687
23.1494 2.85457 0
28.8713 35.1025 3.91278
30.2556 35.5237 2
32.1706 35.7216 0.0615586
22.0931 16.6232 0.0174048
20.2983 16.9515 0.0162445
21.7768 17.8381 2
19.2362 18.3971 2
17.9702 19.9293 3.98247
20.8677 19.3657 3.98306
24.1989 18.4374 0.0179525
22.2689 19.8784 2
24.579 21.3081 2
22.3422 21.7036 3.98279
24.6705 23.1527 3.98145
25.4095 25.936 3.97273
26.3882 23.7072 2
27.0019 21.4421 0.0160056
28.1959 32.2736 3.9632
29.8031 32.9994 2
31.0371 33.7958 0.0710562
31.2309 31.2011 0.0862478
32.4842 28.0524 0.00929982
30.0062 29.4944 2
26.9306 29.1206 3.98172
27.8172 26.5253 2
28.7622 24.3847 0.0127001
29.5796 27.2906 0.0208179
26.7585 37.3506 3.97531
28.523 37.4898 2
29.9804 37.4875 0.0749194
29.0866 46.5281 0.0121386
28.5548 43.1997 0.0312693
28.871 39.8734 0.0894068
27.1672 44.8339 2
26.6471 40.6366 2
25.1378 43.1935 3.9673
23.8933 39.4258 3.96677
25.8625 46.6957 0.0188903
23.902 45.2433 2
21.8469 43.9718 3.97607
22.7415 47.1126 0.0207891
20.8757 45.9228 2
18.9476 44.987 3.97497
19.9423 47.6406 0.0204273
18.2882 46.7555 2
16.6009 46.2247 3.97777
17.6413 48.1944 0.0197638
16.31 47.7267 2
14.906 47.6799 3.97863
16.1191 48.6965 0.0193619
15.1759 49.0274 2
13.7733 49.5548 3.97837
15.8281 50.1843 0.0221034
14.4747 50.9965 2
12.8846 51.8819 3.97868
12.1337 54.5341 3.98102
13.8174 53.4457 2
15.3601 52.4303 0.0221976
11.5294 57.464 3.98482
13.2464 56.1777 2
14.856 54.9909 0.0198462
11.1321 60.63 3.99056
12.8454 59.1328 2
14.4526 57.7501 0.016851
10.9835 64.0165 4
12.6776 62.3037 2
14.2637 60.6988 0.014423
12.7745 65.694 2
14.3324 63.8612 0.00771688
14.6715 67.2507 0
16.3942 18.6408 3.98301
17.663 17.1467 2
16.0992 15.7733 3.98426
18.9297 15.772 0.0164447
17.5089 14.3639 2
16.0192 12.8033 3.98675
18.9777 13.1004 0.0149362
17.6379 11.4494 2
16.2017 9.66127 3.99291
19.3421 10.231 0.0111242
18.0504 8.33825 2
16.6661 6.31991 4
18.75 5.02404 2
19.9905 7.14537 0.00668635
20.9142 3.86727 0
27.2663 34.7342 3.96219
28.8608 35.1003 2
30.2673 35.5262 0.0712195
16.6687 21.3649 3.97999
21.7767 17.8387 0.0170737
19.2362 18.3977 0.0168053
20.8679 19.365 2
17.9703 19.9287 2
19.7099 21.5579 3.98475
22.2686 19.8791 0.0186026
24.5784 21.3076 0.0170189
22.3427 21.7022 2
24.6705 23.1526 2
22.814 24.5871 3.97659
24.4755 28.5127 3.96953
25.407 25.9339 2
26.3873 23.7077 0.0186336
26.0368 31.6913 3.9879
28.1871 32.2662 2
29.8103 33.0008 0.0883278
30.0305 29.5035 0.0172352
26.9359 29.1209 2
27.8213 26.5281 0.0280122
24.5747 36.8516 3.98188
26.756 37.3552 2
28.531 37.4911 0.0819643
27.1629 44.8329 0.0247049
26.6509 40.6316 0.000170382
25.1366 43.1953 2
23.8921 39.4278 2
22.8911 41.8095 3.97798
21.6423 38.4947 3.97256
23.9011 45.2423 0.0270508
21.8477 43.9741 2
19.6942 42.8974 3.97141
20.8743 45.9221 0.021084
18.9482 44.988 2
16.929 44.3898 3.97342
18.2875 46.7547 0.0187799
16.6014 46.2255 2
14.828 46.0985 3.97587
16.3095 47.7261 0.0196827
14.9064 47.6805 2
13.2813 48.0154 3.97753
15.1755 49.0269 0.0208058
13.7736 49.5553 2
12.1044 50.2583 3.97841
14.4745 50.9961 0.0220126
12.8848 51.8824 2
11.1295 52.8411 3.98019
10.3196 55.7147 3.98386
12.1335 54.5347 2
13.8174 53.4452 0.0208336
9.69858 58.8522 3.98947
11.5292 57.4646 2
13.2465 56.1771 0.0179616
9.30605 62.2254 4
11.132 60.63 2
12.8454 59.1325 0.0145504
10.9835 64.0165 2
12.6777 62.3039 0.00861905
12.7746 65.6939 0
15.1379 20.175 3.98129
16.3943 18.6402 2
14.7442 17.2959 3.98353
17.663 17.1472 0.0168713
16.0993 15.7726 2
14.4813 14.2851 3.98591
17.5088 14.3646 0.0155665
16.0193 12.8027 2
14.4444 11.1124 3.99243
17.6377 11.4499 0.0119373
16.2015 9.66128 2
14.6715 7.74927 4
18.0506 8.33817 0.00678904
16.6661 6.31988 2
18.75 5.0241 0
25.2148 34.2537 3.98645
27.2619 34.7342 2
28.8713 35.1025 0.0872169
17.8398 22.3093 3.98542
15.5126 22.9088 3.97788
16.6686 21.364 2
20.8677 19.3657 0.0169351
17.9702 19.9293 0.0175347
19.7101 21.557 2
19.6382 24.3634 3.97907
22.3422 21.7036 0.0172134
24.6705 23.1527 0.0185515
22.8121 24.5851 2
21.8578 27.8066 3.97117
23.6393 31.1706 3.97158
24.478 28.5121 2
25.4095 25.936 0.02727
26.0417 31.6871 2
28.1959 32.2736 0.0367973
26.9306 29.1206 0.0182812
22.3525 36.2631 3.98168
24.5739 36.8521 2
26.7585 37.3506 0.0246884
25.1378 43.1935 0.0326961
23.8933 39.4258 0.033233
22.8894 41.811 2
21.6418 38.4954 2
20.6173 40.63 3.97496
20.0024 37.7753 3.97476
21.8469 43.9718 0.0239276
19.6942 42.8986 2
17.3211 42.1052 3.97394
18.9476 44.987 0.0250314
16.9293 44.3908 2
14.8286 44.2066 3.97372
16.6009 46.2247 0.02223
14.8284 46.0993 2
12.9549 46.3006 3.97525
14.906 47.6799 0.0213741
13.2816 48.016 2
11.4769 48.5536 3.9774
13.7733 49.5548 0.021635
12.1047 50.2589 2
10.2558 51.083 3.97948
12.8846 51.8819 0.021322
11.1295 52.8418 2
9.22853 53.8914 3.98306
8.38205 56.9842 3.98846
10.3194 55.7154 2
12.1337 54.5341 0.0189794
7.74927 60.3285 4
9.69832 58.8522 2
11.5294 57.464 0.015177
9.306 62.2255 2
11.1321 60.63 0.00943778
10.9835 64.0165 0
13.9493 21.7418 3.97971
15.1379 20.1741 2
13.444 18.8928 3.9825
16.3942 18.6408 0.0169864
14.7443 17.2951 2
13.0264 15.8778 3.98535
16.0992 15.7733 0.0157437
14.4814 14.2843 2
12.7817 12.6857 3.99171
16.0192 12.8033 0.0132536
14.4442 11.1124 2
12.7746 9.30605 4
16.2017 9.66127 0.00709258
14.6715 7.74924 2
16.6661 6.31991 0
22.9462 33.7869 3.97498
25.2116 34.2531 2
27.2663 34.7342 0.037808
17.6063 24.0282 3.97967
17.8396 22.3082 2
14.2952 24.4417 3.97613
15.512 22.9075 2
16.6687 21.3649 0.0200066
18.995 27.1861 3.96959
19.7099 21.5579 0.0152546
19.6367 24.3627 2
21.089 30.6453 3.97289
22.814 24.5871 0.023406
21.8588 27.8058 2
23.6365 31.1706 2
24.4755 28.5127 0.0304657
26.0368 31.6913 0.0121006
20.119 35.9112 3.97965
22.3514 36.2645 2
24.5747 36.8516 0.0181197
22.8911 41.8095 0.0220205
21.6423 38.4947 0.0274371
20.6159 40.6304 2
20.0011 37.7758 2
17.9968 38.9991 3.97477
19.6942 42.8974 0.028589
17.3209 42.1061 2
14.7743 41.9216 3.97414
16.929 44.3898 0.0265752
14.8288 44.2075 2
12.6945 44.3957 3.97418
14.828 46.0985 0.0241276
12.9552 46.3013 2
10.98 46.7359 3.97551
13.2813 48.0154 0.0224653
11.4772 48.5542 2
9.51996 49.2413 3.97838
12.1044 50.2583 0.0215919
10.256 51.0836 2
8.26179 52.0029 3.98226
11.1295 52.8411 0.0198074
9.22846 53.8919 2
7.19102 55.0334 3.98786
6.31991 58.3339 4
8.38168 56.9838 2
10.3196 55.7147 0.0161404
7.74924 60.3285 2
9.69858 58.8522 0.0105319
9.30605 62.2254 0
13.2167 25.3556 3.98117
12.8165 23.2721 3.9783
13.9489 21.7406 2
12.2288 20.5422 3.98165
15.1379 20.175 0.0187123
13.4441 18.8919 2
11.6556 17.5587 3.98512
14.7442 17.2959 0.0164701
13.0264 15.8771 2
11.2189 14.3703 3.99073
14.4813 14.2851 0.0140875
12.7815 12.6856 2
10.9835 10.9835 4
14.4444 11.1124 0.00757398
12.7745 9.306 2
14.6715 7.74927 0
20.5054 33.3796 3.97367
22.9438 33.7877 2
25.2148 34.2537 0.0135485
15.8797 26.3908 3.97338
17.6054 24.027 2
17.8398 22.3093 0.0145818
14.2949 24.4411 2
15.5126 22.9088 0.0221245
18.3327 30.1579 3.97201
18.9952 27.1855 2
19.6382 24.3634 0.020931
21.0876 30.6442 2
21.8578 27.8066 0.0288274
23.6393 31.1706 0.0284204
17.6225 35.9564 3.97606
20.1181 35.9119 2
22.3525 36.2631 0.0183238
20.6173 40.63 0.0250425
20.0024 37.7753 0.0252435
17.9954 38.9995 2
14.2825 39.1757 3.97373
17.3211 42.1052 0.0260577
14.7741 41.9224 2
12.3808 42.2792 3.97397
14.8286 44.2066 0.0262823
12.6947 44.3965 2
10.5571 44.804 3.97492
12.9549 46.3006 0.0247549
10.9802 46.7365 2
8.90357 47.3192 3.97677
11.4769 48.5536 0.022601
9.52021 49.2419 2
7.42932 50.0351 3.98112
10.2558 51.083 0.0205233
8.2619 52.0033 2
6.13165 53.007 3.98759
9.22853 53.8914 0.0169418
7.19063 55.0325 2
5.0241 56.25 4
6.31988 58.3339 2
8.38205 56.9842 0.011541
7.74927 60.3285 0
13.4538 26.8069 3.97494
11.931 24.7825 3.97744
13.2165 25.355 2
11.1319 22.2282 3.98026
12.8162 23.2713 2
13.9493 21.7418 0.0202873
12.2286 20.541 2
10.3855 19.314 3.9846
13.444 18.8928 0.0175019
11.6556 17.5579 2
9.75968 16.1538 3.9897
13.0264 15.8778 0.0146474
11.2188 14.3703 2
9.30607 12.7746 4
12.7817 12.6857 0.00828741
10.9835 10.9835 2
12.7746 9.30605 0
17.8011 33.0996 3.97251
20.5034 33.3799 2
22.9462 33.7869 0.0250183
15.468 29.6275 3.97324
15.8797 26.3905 2
17.6063 24.0282 0.0203342
14.2952 24.4417 0.0238663
18.3317 30.1572 2
18.995 27.1861 0.0304065
21.089 30.6453 0.0271086
14.8782 36.013 3.9736
17.6216 35.9566 2
20.119 35.9112 0.0203501
12.5809 37.8273 3.97378
17.9968 38.9991 0.0252349
14.2816 39.1763 2
11.8957 40.1411 3.97346
14.7743 41.9216 0.0258577
12.3807 42.2799 2
10.1559 42.779 3.97466
12.6945 44.3957 0.0258157
10.5573 44.8047 2
8.38184 45.3208 3.97621
10.98 46.7359 0.0244937
8.9038 47.3198 2
6.72142 47.9994 3.97971
9.51996 49.2413 0.0216189
7.42953 50.0353 2
5.20857 50.9092 3.98735
8.26179 52.0029 0.0177409
6.13139 53.0058 2
3.86727 54.0858 4
7.19102 55.0334 0.012136
5.02404 56.25 2
6.31991 58.3339 0
12.9099 29.0272 3.97161
11.3616 26.4834 3.97621
13.4536 26.8062 2
10.1921 23.964 3.97848
11.9308 24.7818 2
13.2167 25.3556 0.0188272
9.23767 21.1342 3.98332
11.1317 22.2272 2
12.8165 23.2721 0.0217049
12.2288 20.5422 0.018352
10.3853 19.3129 2
8.4154 18.0253 3.98886
11.6556 17.5587 0.0148781
9.75947 16.1536 2
7.74928 14.6715 4
11.2189 14.3703 0.00927133
9.30602 12.7745 2
10.9835 10.9835 0
14.4613 32.8551 3.97302
17.8006 33.0995 2
20.5054 33.3796 0.0263318
15.4672 29.6269 2
15.8797 26.3908 0.0266227
18.3327 30.1579 0.0279932
12.8705 36.2053 3.9723
14.8774 36.0131 2
17.6225 35.9564 0.0239415
12.5802 37.8275 2
11.2553 38.3085 3.97314
14.2825 39.1757 0.0262686
11.8951 40.1418 2
9.74265 40.7547 3.97405
12.3808 42.2792 0.0260295
10.1558 42.7797 2
7.93096 43.2696 3.97593
10.5571 44.804 0.0250825
8.38199 45.3213 2
6.12802 45.9042 3.97909
8.90357 47.3192 0.0232341
6.72162 47.9996 2
4.42048 48.7495 3.98698
7.42932 50.0351 0.018877
5.20849 50.9081 2
2.85457 51.8506 4
6.13165 53.007 0.012414
3.86727 54.0858 2
5.0241 56.25 0
12.0513 31.2519 3.97336
10.7751 28.4118 3.97414
12.9092 29.0267 2
9.40773 25.7958 3.97739
11.3615 26.4828 2
13.4538 26.8069 0.0250581
8.22542 23.0211 3.98144
10.192 23.9632 2
11.931 24.7825 0.0225641
7.19747 19.9762 3.98808
9.23756 21.1333 2
11.1319 22.2282 0.0197413
10.3855 19.314 0.0154015
8.41503 18.0254 2
6.31992 16.6661 4
9.75968 16.1538 0.0102971
7.74926 14.6714 2
9.30607 12.7746 0
12.0718 34.2908 3.97306
14.4612 32.8549 2
17.8011 33.0996 0.0274863
15.468 29.6275 0.026757
10.8205 36.6084 3.97168
12.8699 36.2052 2
14.8782 36.013 0.0263991
12.5809 37.8273 0.026225
11.2547 38.3087 2
9.33972 38.8228 3.97324
11.8957 40.1411 0.0265422
9.7423 40.7552 2
7.54332 41.2107 3.97523
10.1559 42.779 0.025336
7.93097 43.2702 2
5.6401 43.7673 3.97917
8.38184 45.3208 0.0237863
6.12817 45.9044 2
3.76642 46.5356 3.98674
6.72142 47.9994 0.0202931
4.42046 48.7489 2
1.99014 49.554 4
5.20857 50.9092 0.0126497
2.85451 51.8506 2
3.86727 54.0858 0
10.9153 32.916 3.97427
10.0888 30.3794 3.97416
12.0511 31.2518 2
8.71665 27.7305 3.97613
10.7746 28.4113 2
12.9099 29.0272 0.0283859
7.35145 24.9815 3.98032
9.40773 25.7952 2
11.3616 26.4834 0.023788
6.11454 22.0013 3.98718
8.22546 23.0205 2
10.1921 23.964 0.021525
5.02411 18.75 4
7.19706 19.9769 2
9.23767 21.1342 0.0166824
8.4154 18.0253 0.0111441
6.3199 16.6661 2
7.74928 14.6715 0
10.4311 34.9974 3.9737
12.0715 34.2905 2
14.4613 32.8551 0.0269755
9.01415 36.9834 3.9717
10.8201 36.6082 2
12.8705 36.2053 0.0277044
11.2553 38.3085 0.0268616
9.33934 38.8231 2
7.22579 39.181 3.97437
9.74265 40.7547 0.0259463
7.54313 41.2111 2
5.25616 41.6131 3.97838
7.93096 43.2696 0.0240657
5.64013 43.7675 2
3.24432 44.2811 3.98655
6.12802 45.9042 0.0209077
3.76647 46.5354 2
1.27781 47.2057 4
4.42048 48.7495 0.013022
1.99012 49.554 2
2.85457 51.8506 0
10.083 33.879 3.97442
9.38325 32.1523 3.97441
10.915 32.9158 2
8.06667 29.6945 3.97561
10.0886 30.3792 2
12.0513 31.2519 0.0266397
6.5957 27.0083 3.97934
8.7164 27.73 2
10.7751 28.4118 0.025865
5.16993 24.0954 3.98686
7.35155 24.9812 2
9.40773 25.7958 0.0226068
3.86728 20.9142 4
6.11428 22.0023 2
8.22542 23.0211 0.0185625
5.02406 18.75 2
7.19747 19.9762 0.0119191
6.31992 16.6661 0
8.84015 35.2777 3.97328
10.4308 34.9971 2
12.0718 34.2908 0.0269425
7.01146 37.2048 3.97308
9.01383 36.9834 2
10.8205 36.6084 0.0283224
9.33972 38.8228 0.0267606
7.22555 39.1813 2
4.98523 39.4665 3.9771
7.54332 41.2107 0.0247684
5.25608 41.6133 2
2.85514 42.0019 3.98578
5.6401 43.7673 0.0208349
3.24434 44.2814 2
0.720592 44.8159 4
3.76642 46.5356 0.0132641
1.27778 47.2057 2
1.99014 49.554 0
8.88078 33.6959 3.97432
10.0827 33.8788 2
7.50532 31.6084 3.97534
9.38301 32.1521 2
10.9153 32.916 0.02573
5.94145 29.0697 3.97867
8.06652 29.6942 2
10.0888 30.3794 0.0258411
4.35779 26.2485 3.98668
6.59561 27.0081 2
8.71665 27.7305 0.023872
2.85458 23.1494 4
5.16981 24.0963 2
7.35145 24.9815 0.019683
3.86728 20.9142 2
6.11454 22.0013 0.0128218
5.02411 18.75 0
6.96173 35.3052 3.97359
8.8399 35.2775 2
10.4311 34.9974 0.0263015
4.83645 37.3392 3.97625
7.01127 37.2049 2
9.01415 36.9834 0.0282951
7.22579 39.181 0.0256326
4.9851 39.4666 2
2.60369 39.7138 3.98443
5.25616 41.6131 0.0216204
2.85514 42.0024 2
0.320823 42.3947 4
3.24432 44.2811 0.0134468
0.720551 44.8159 2
1.27781 47.2057 0
7.12046 33.4602 3.97477
8.88052 33.6957 2
10.083 33.879 0.0255793
5.41311 31.1338 3.97814
7.5051 31.6082 2
9.38325 32.1523 0.0255925
3.67982 28.4443 3.98632
5.94138 29.0697 2
8.06667 29.6945 0.0243902
1.99015 25.446 4
4.35766 26.2491 2
6.5957 27.0083 0.0206578
2.85453 23.1494 2
5.16993 24.0954 0.0131376
3.86728 20.9142 0
4.85087 35.2514 3.97643
6.96155 35.3052 2
8.84015 35.2777 0.0267247
2.49543 37.4284 3.98384
4.83635 37.3393 2
7.01146 37.2048 0.0269245
4.98523 39.4665 0.0229031
2.60367 39.7144 2
0.080333 39.9526 4
2.85514 42.0019 0.014217
0.320817 42.3947 2
0.720592 44.8159 0
5.04347 33.1904 3.97746
7.12023 33.46 2
8.88078 33.6959 0.025677
3.14453 30.6666 3.98554
5.41295 31.1339 2
7.50532 31.6084 0.0246639
1.27793 27.7943 4
3.67976 28.4447 2
5.94145 29.0697 0.0213324
1.99013 25.446 2
4.35779 26.2485 0.0133175
2.85458 23.1494 0
2.54763 35.159 3.98382
4.85074 35.2515 2
6.96173 35.3052 0.0264057
0 37.5 4
2.49546 37.429 2
4.83645 37.3392 0.0237483
2.60369 39.7138 0.0155729
0.0802903 39.9526 2
0.320823 42.3947 0
2.76495 32.9059 3.98458
5.04328 33.1905 2
7.12046 33.4602 0.0252298
0.721173 30.1842 4
3.14445 30.6668 2
5.41311 31.1338 0.0218597
1.27779 27.7943 2
3.67982 28.4443 0.0136779
1.99015 25.446 0
0.0806499 35.0474 4
2.54761 35.1595 2
4.85087 35.2514 0.0235731
0 37.5 2
2.49543 37.4284 0.0161631
0.080333 39.9526 0
0.32156 32.6054 4
2.76488 32.9062 2
5.04347 33.1904 0.0225399
0.72056 30.1841 2
3.14453 30.6666 0.0144588
1.27793 27.7943 0
0.0802889 35.0474 2
2.54763 35.159 0.0161827
0 37.5 0
0.320817 32.6053 2
2.76495 32.9059 0.015417
0.721173 30.1842 0
0.0806499 35.0474 0
0.32156 32.6054 0
CELLS 1910 17190
8 18 6 25 56 2 0 5 16
8 57 23 6 18 17 4 0 2
8 78 36 9 29 31 11 1 7
8 31 11 1 7 79 37 10 30
8 110 57 18 50 48 17 2 14
8 50 18 56 111 14 2 16 49
8 116 62 22 55 52 20 3 15
8 56 25 67 118 16 5 24 53
8 119 63 23 57 54 21 4 17
8 55 22 63 119 15 3 21 54
8 58 26 68 121 18 6 25 56
8 122 65 26 58 57 23 6 18
8 73 31 7 27 142 79 30 71
8 143 78 29 72 73 31 7 27
8 83 147 76 34 32 74 28 8
8 84 148 78 36 33 75 29 9
8 76 34 8 28 148 84 33 75
8 37 79 150 86 10 30 77 35
8 151 87 36 78 80 38 11 31
8 80 38 11 31 152 88 37 79
8 175 100 42 94 96 44 12 40
8 44 96 176 101 12 40 95 43
8 101 176 98 46 43 95 41 13
8 46 98 178 103 13 41 97 45
8 178 103 45 97 147 83 32 74
8 189 116 55 109 106 52 15 47
8 111 56 118 191 49 16 53 107
8 192 119 57 110 108 54 17 48
8 109 55 119 192 47 15 54 108
8 194 122 58 112 110 57 18 50
8 112 58 121 195 50 18 56 111
8 115 61 19 51 197 124 59 113
8 115 61 125 198 51 19 60 114
8 198 125 62 116 114 60 20 52
8 200 127 64 120 116 62 22 55
8 118 67 132 202 53 24 66 117
8 121 68 133 203 56 25 67 118
8 120 64 128 204 55 22 63 119
8 204 128 65 122 119 63 23 57
8 206 134 68 121 123 69 26 58
8 123 69 26 58 207 131 65 122
8 226 147 74 138 140 76 28 70
8 229 148 75 139 143 78 29 72
8 140 76 28 70 229 148 75 139
8 142 79 30 71 231 150 77 141
8 144 80 31 73 232 152 79 142
8 233 151 78 143 144 80 31 73
8 150 86 35 77 235 154 81 145
8 235 154 81 145 146 82 39 91
8 146 82 39 91 236 155 90 165
8 238 157 83 147 149 85 34 76
8 239 158 84 148 151 87 36 78
8 149 85 34 76 239 158 84 148
8 152 88 37 79 241 160 86 150
8 242 161 87 151 153 89 38 80
8 153 89 38 80 243 162 88 152
8 171 98 41 92 265 178 97 169
8 265 178 97 169 226 147 74 138
8 172 96 40 93 266 176 95 170
8 266 176 95 170 171 98 41 92
8 269 175 94 173 172 96 40 93
8 271 180 99 174 175 100 42 94
8 197 124 59 113 271 180 99 174
8 272 181 100 175 177 102 44 96
8 273 182 101 176 179 104 46 98
8 177 102 44 96 273 182 101 176
8 179 104 46 98 275 184 103 178
8 275 184 103 178 238 157 83 147
8 188 115 51 105 283 197 113 186
8 188 115 198 284 105 51 114 187
8 284 198 116 189 187 114 52 106
8 286 200 120 193 189 116 55 109
8 191 118 202 288 107 53 117 190
8 195 121 203 289 111 56 118 191
8 193 120 204 290 109 55 119 192
8 290 204 122 194 192 119 57 110
8 196 123 58 112 292 207 122 194
8 293 206 121 195 196 123 58 112
8 199 126 61 115 297 211 124 197
8 298 212 127 200 198 125 62 116
8 199 126 212 298 115 61 125 198
8 205 129 64 120 300 214 127 200
8 301 217 130 201 202 132 66 117
8 209 136 168 264 301 217 130 201
8 302 219 132 202 203 133 67 118
8 303 220 133 203 206 134 68 121
8 205 129 215 304 120 64 128 204
8 304 215 131 207 204 128 65 122
8 306 221 134 206 208 135 69 123
8 208 135 69 123 307 218 131 207
8 210 137 167 263 309 223 136 209
8 328 238 147 226 230 149 76 140
8 228 146 91 166 329 236 165 260
8 231 150 77 141 330 235 145 227
8 330 235 145 227 228 146 91 166
8 332 239 148 229 233 151 78 143
8 230 149 76 140 332 239 148 229
8 232 152 79 142 334 241 150 231
8 234 153 80 144 335 243 152 232
8 336 242 151 233 234 153 80 144
8 236 155 90 165 338 245 164 259
8 241 160 86 150 339 246 154 235
8 339 246 154 235 237 156 82 146
8 237 156 82 146 340 247 155 236
8 342 249 157 238 240 159 85 149
8 343 250 158 239 242 161 87 151
8 240 159 85 149 343 250 158 239
8 243 162 88 152 345 252 160 241
8 244 163 253 346 153 89 161 242
8 244 163 89 153 347 254 162 243
8 311 224 261 371 210 137 167 263
8 263 167 262 372 209 136 168 264
8 267 179 98 171 375 275 178 265
8 375 275 178 265 328 238 147 226
8 376 273 176 266 267 179 98 171
8 268 177 96 172 376 273 176 266
8 379 272 175 269 268 177 96 172
8 380 271 174 270 269 175 94 173
8 283 197 113 186 380 271 174 270
8 381 277 180 271 272 181 100 175
8 297 211 124 197 381 277 180 271
8 382 278 181 272 274 183 102 177
8 274 183 102 177 383 279 182 273
8 383 279 182 273 276 185 104 179
8 385 281 184 275 342 249 157 238
8 276 185 104 179 385 281 184 275
8 285 199 115 188 393 297 197 283
8 394 298 200 286 284 198 116 189
8 285 199 298 394 188 115 198 284
8 291 205 120 193 396 300 200 286
8 397 301 201 287 288 202 117 190
8 295 209 264 374 397 301 201 287
8 398 302 202 288 289 203 118 191
8 399 303 203 289 293 206 121 195
8 291 205 304 400 193 120 204 290
8 400 304 207 292 290 204 122 194
8 294 208 123 196 402 307 207 292
8 403 306 206 293 294 208 123 196
8 296 210 263 373 405 309 209 295
8 408 312 213 299 297 211 126 199
8 299 213 313 409 199 126 212 298
8 409 313 214 300 298 212 127 200
8 305 216 129 205 411 315 214 300
8 412 318 217 301 302 219 132 202
8 309 223 136 209 412 318 217 301
8 413 320 219 302 303 220 133 203
8 306 221 321 414 206 134 220 303
8 307 218 131 207 415 316 215 304
8 305 216 316 415 205 129 215 304
8 417 322 221 306 308 222 135 208
8 308 222 135 208 418 319 218 307
8 310 225 137 210 420 325 223 309
8 423 326 224 311 310 225 137 210
8 329 236 165 260 441 338 259 368
8 442 342 238 328 333 240 149 230
8 331 237 146 228 443 340 236 329
8 334 241 150 231 444 339 235 330
8 444 339 235 330 331 237 146 228
8 446 343 239 332 336 242 151 233
8 333 240 149 230 446 343 239 332
8 335 243 152 232 448 345 241 334
8 337 244 153 234 449 347 243 335
8 337 244 346 450 234 153 242 336
8 338 245 164 259 452 349 258 367
8 340 247 155 236 453 350 245 338
8 345 252 160 241 454 351 246 339
8 454 351 246 339 341 248 156 237
8 341 248 156 237 455 352 247 340
8 240 159 251 344 342 249 354 457
8 242 161 253 346 343 250 355 458
8 343 250 355 458 240 159 251 344
8 347 254 162 243 460 357 252 345
8 348 255 358 461 244 163 253 346
8 348 255 163 244 462 359 254 347
8 473 360 257 365 363 256 364 482
8 452 349 258 367 365 257 366 485
8 422 324 369 488 311 224 261 371
8 371 261 370 490 263 167 262 372
8 407 311 371 491 296 210 263 373
8 373 263 372 492 295 209 264 374
8 493 385 275 375 442 342 238 328
8 377 276 179 267 493 385 275 375
8 378 274 177 268 494 383 273 376
8 494 383 273 376 377 276 179 267
8 497 382 272 379 378 274 177 268
8 498 381 271 380 379 272 175 269
8 393 297 197 283 498 381 271 380
8 499 387 277 381 382 278 181 272
8 408 312 211 297 499 387 277 381
8 500 388 278 382 384 280 183 274
8 501 389 279 383 386 282 185 276
8 384 280 183 274 501 389 279 383
8 386 282 185 276 503 391 281 385
8 503 391 281 385 457 354 249 342
8 511 408 299 395 393 297 199 285
8 395 299 409 512 285 199 298 394
8 512 409 300 396 394 298 200 286
8 401 305 205 291 514 411 300 396
8 515 412 301 397 398 302 202 288
8 405 309 209 295 515 412 301 397
8 516 413 302 398 399 303 203 289
8 403 306 414 517 293 206 303 399
8 402 307 207 292 518 415 304 400
8 401 305 415 518 291 205 304 400
8 404 308 208 294 520 418 307 402
8 521 417 306 403 404 308 208 294
8 406 310 210 296 523 420 309 405
8 526 423 311 407 406 310 210 296
8 410 314 213 299 527 424 312 408
8 528 425 315 411 409 313 214 300
8 410 314 425 528 299 213 313 409
8 416 317 216 305 530 427 315 411
8 531 430 318 412 413 320 219 302
8 420 325 223 309 531 430 318 412
8 532 432 320 413 414 321 220 303
8 417 322 433 533 306 221 321 414
8 418 319 218 307 534 428 316 415
8 416 317 428 534 305 216 316 415
8 419 323 434 536 308 222 322 417
8 419 323 222 308 537 431 319 418
8 421 327 225 310 539 438 325 420
8 421 327 439 541 310 225 326 423
8 543 437 324 422 423 326 224 311
8 441 338 259 368 559 452 367 486
8 443 340 236 329 560 453 338 441
8 333 240 344 447 442 342 457 561
8 445 341 237 331 562 455 340 443
8 448 345 241 334 563 454 339 444
8 563 454 339 444 445 341 237 331
8 336 242 346 450 446 343 458 565
8 446 343 458 565 333 240 344 447
8 449 347 243 335 567 460 345 448
8 451 348 244 337 568 462 347 449
8 451 348 461 569 337 244 346 450
8 570 463 349 452 473 360 257 365
8 453 350 245 338 570 463 349 452
8 455 352 247 340 571 464 350 453
8 460 357 252 345 572 465 351 454
8 572 465 351 454 456 353 248 341
8 456 353 248 341 573 466 352 455
8 344 251 356 459 457 354 468 575
8 458 355 469 576 344 251 356 459
8 346 253 358 461 458 355 469 576
8 462 359 254 347 578 471 357 460
8 348 255 359 462 461 358 472 579
8 591 474 360 473 475 361 256 363
8 475 361 256 363 594 477 362 479
8 363 256 364 482 479 362 480 603
8 590 473 365 484 481 363 482 605
8 482 364 257 365 606 483 366 485
8 559 452 367 486 484 365 485 607
8 542 436 487 609 422 324 369 488
8 525 422 488 611 407 311 371 491
8 488 369 489 612 371 261 370 490
8 491 371 490 613 373 263 372 492
8 495 386 276 377 614 503 385 493
8 614 503 385 493 561 457 342 442
8 615 501 383 494 495 386 276 377
8 496 384 274 378 615 501 383 494
8 618 500 382 497 496 384 274 378
8 619 499 381 498 497 382 272 379
8 511 408 297 393 619 499 381 498
8 620 505 387 499 500 388 278 382
8 527 424 312 408 620 505 387 499
8 502 390 506 621 384 280 388 500
8 622 507 389 501 504 392 282 386
8 502 390 280 384 622 507 389 501
8 504 392 282 386 624 509 391 503
8 624 509 391 503 575 468 354 457
8 513 410 299 395 630 527 408 511
8 631 528 411 514 512 409 300 396
8 513 410 528 631 395 299 409 512
8 519 416 305 401 633 530 411 514
8 634 531 412 515 516 413 302 398
8 523 420 309 405 634 531 412 515
8 635 532 413 516 517 414 303 399
8 521 417 533 636 403 306 414 517
8 520 418 307 402 637 534 415 518
8 519 416 534 637 401 305 415 518
8 522 419 308 404 639 537 418 520
8 522 419 536 640 404 308 417 521
8 524 421 310 406 642 539 420 523
8 524 421 541 644 406 310 423 526
8 646 543 422 525 526 423 311 407
8 529 426 314 410 647 544 424 527
8 528 425 545 648 411 315 427 530
8 529 426 545 648 410 314 425 528
8 535 429 317 416 649 546 427 530
8 650 548 430 531 532 432 320 413
8 539 438 325 420 650 548 430 531
8 533 433 550 651 414 321 432 532
8 536 434 551 652 417 322 433 533
8 537 431 319 418 653 547 428 534
8 535 429 547 653 416 317 428 534
8 538 435 552 654 419 323 434 536
8 538 435 323 419 655 549 431 537
8 540 440 327 421 657 556 438 539
8 540 440 557 659 421 327 439 541
8 541 439 555 660 423 326 437 543
8 661 554 436 542 543 437 324 422
8 676 570 452 559 590 473 365 484
8 560 453 338 441 676 570 452 559
8 562 455 340 443 677 571 453 560
8 447 344 459 566 561 457 575 678
8 564 456 341 445 679 573 455 562
8 567 460 345 448 680 572 454 563
8 680 572 454 563 564 456 341 445
8 565 458 576 682 447 344 459 566
8 450 346 461 569 565 458 576 682
8 568 462 347 449 684 578 460 567
8 451 348 462 568 569 461 579 685
8 686 580 463 570 591 474 360 473
8 571 464 350 453 686 580 463 570
8 573 466 352 455 687 581 464 571
8 572 465 582 688 460 357 471 578
8 574 467 582 688 456 353 465 572
8 574 467 353 456 689 583 466 573
8 459 356 470 577 575 468 585 691
8 576 469 586 692 459 356 470 577
8 461 358 472 579 576 469 586 692
8 462 359 471 578 579 472 588 694
8 704 591 473 590 593 475 363 481
8 595 476 592 705 475 361 474 591
8 593 475 363 481 707 594 479 602
8 594 477 362 479 709 598 478 600
8 595 476 361 475 711 597 477 594
8 479 362 480 603 600 478 601 720
8 481 363 482 605 602 479 603 722
8 603 480 364 482 723 604 483 606
8 605 482 365 484 724 606 485 607
8 656 553 608 726 542 436 487 609
8 645 542 609 728 525 422 488 611
8 609 487 610 729 488 369 489 612
8 611 488 612 730 491 371 490 613
8 616 504 386 495 731 624 503 614
8 731 624 503 614 678 575 457 561
8 732 622 501 615 616 504 386 495
8 617 502 384 496 732 622 501 615
8 617 502 621 735 496 384 500 618
8 736 620 499 619 618 500 382 497
8 630 527 408 511 736 620 499 619
8 621 506 626 737 500 388 505 620
8 647 544 424 527 737 626 505 620
8 623 508 627 738 502 390 506 621
8 623 508 390 502 739 628 507 622
8 625 510 628 739 504 392 507 622
8 740 629 509 624 691 585 468 575
8 625 510 392 504 740 629 509 624
8 632 529 410 513 744 647 527 630
8 631 528 648 745 514 411 530 633
8 632 529 648 745 513 410 528 631
8 638 535 416 519 746 649 530 633
8 747 650 531 634 635 532 413 516
8 642 539 420 523 747 650 531 634
8 636 533 651 748 517 414 532 635
8 640 536 652 749 521 417 533 636
8 639 537 418 520 750 653 534 637
8 638 535 653 750 519 416 534 637
8 641 538 419 522 751 655 537 639
8 641 538 654 752 522 419 536 640
8 643 540 421 524 753 657 539 642
8 643 540 659 755 524 421 541 644
8 644 541 660 757 526 423 543 646
8 758 661 542 645 646 543 422 525
8 529 426 544 647 648 545 662 759
8 530 427 545 648 649 546 663 760
8 535 429 546 649 653 547 664 761
8 762 666 548 650 651 550 432 532
8 657 556 438 539 762 666 548 650
8 652 551 668 763 533 433 550 651
8 654 552 669 764 536 434 551 652
8 655 549 431 537 765 665 547 653
8 538 435 549 655 654 552 667 766
8 661 554 671 768 542 436 553 656
8 658 558 440 540 769 674 556 657
8 658 558 675 770 540 440 557 659
8 659 557 673 771 541 439 555 660
8 660 555 672 772 543 437 554 661
8 788 686 570 676 704 591 473 590
8 677 571 453 560 788 686 570 676
8 679 573 455 562 789 687 571 677
8 566 459 577 683 678 575 691 790
8 681 574 456 564 791 689 573 679
8 680 572 688 792 567 460 578 684
8 681 574 688 792 564 456 572 680
8 682 576 692 794 566 459 577 683
8 569 461 579 685 682 576 692 794
8 568 462 578 684 685 579 694 796
8 687 581 464 571 798 696 580 686
8 798 696 580 686 705 592 474 591
8 689 583 466 573 799 697 581 687
8 688 582 698 800 578 471 588 694
8 690 584 698 800 574 467 582 688
8 690 584 467 574 801 699 583 689
8 693 587 701 803 577 470 585 691
8 693 587 470 577 804 702 586 692
8 695 589 702 804 579 472 586 692
8 695 589 472 579 805 703 588 694
8 708 595 705 813 593 475 591 704
8 710 596 706 814 595 476 592 705
8 707 594 479 602 816 709 600 719
8 708 595 475 593 817 711 594 707
8 709 598 478 600 819 715 599 717
8 711 597 477 594 820 714 598 709
8 710 596 476 595 822 713 597 711
8 600 478 601 720 717 599 718 832
8 602 479 603 722 719 600 720 834
8 720 601 480 603 835 721 604 723
8 722 603 482 605 836 723 606 724
8 767 670 725 839 656 553 608 726
8 756 656 726 841 645 542 609 728
8 726 608 727 842 609 487 610 729
8 728 609 729 843 611 488 612 730
8 844 740 624 731 790 691 575 678
8 733 625 504 616 844 740 624 731
8 734 623 502 617 845 739 622 732
8 733 625 739 845 616 504 622 732
8 734 623 738 846 617 502 621 735
8 735 621 737 847 618 500 620 736
8 744 647 527 630 847 737 620 736
8 621 506 627 738 737 626 741 848
8 647 544 626 737 759 662 741 848
8 623 508 628 739 738 627 742 849
8 740 629 585 691 850 743 700 802
8 625 510 629 740 739 628 743 850
8 632 529 647 744 745 648 759 854
8 633 530 648 745 746 649 760 855
8 638 535 649 746 750 653 761 856
8 857 762 650 747 748 651 532 635
8 753 657 539 642 857 762 650 747
8 749 652 763 858 636 533 651 748
8 752 654 764 859 640 536 652 749
8 751 655 537 639 860 765 653 750
8 641 538 655 751 752 654 766 861
8 754 658 540 643 862 769 657 753
8 754 658 770 863 643 540 659 755
8 755 659 771 864 644 541 660 757
8 758 661 768 866 645 542 656 756
8 757 660 772 867 646 543 661 758
8 759 662 773 868 648 545 663 760
8 649 546 663 760 761 664 774 871
8 765 665 547 653 872 775 664 761
8 873 777 666 762 763 668 550 651
8 769 674 556 657 873 777 666 762
8 764 669 779 874 652 551 668 763
8 654 552 667 766 764 669 778 875
8 655 549 665 765 766 667 776 876
8 768 671 782 877 656 553 670 767
8 772 672 783 878 661 554 671 768
8 658 558 674 769 770 675 786 879
8 659 557 675 770 771 673 785 881
8 882 784 672 772 771 673 555 660
8 789 687 571 677 897 798 686 788
8 897 798 686 788 813 705 591 704
8 791 689 573 679 898 799 687 789
8 795 693 803 900 683 577 691 790
8 793 690 574 681 901 801 689 791
8 792 688 800 902 684 578 694 796
8 793 690 800 902 681 574 688 792
8 795 693 577 683 903 804 692 794
8 797 695 804 903 685 579 692 794
8 797 695 579 685 904 805 694 796
8 905 806 697 799 798 696 581 687
8 814 706 806 905 705 592 696 798
8 689 583 697 799 801 699 808 907
8 800 698 809 908 694 588 703 805
8 690 584 699 801 800 698 809 908
8 803 701 810 909 691 585 700 802
8 693 587 702 804 803 701 811 910
8 695 589 703 805 804 702 812 911
8 818 710 814 919 708 595 705 813
8 821 712 815 920 710 596 706 814
8 816 709 600 719 922 819 717 831
8 817 711 594 707 923 820 709 816
8 818 710 595 708 924 822 711 817
8 819 715 599 717 926 827 716 829
8 820 714 598 709 927 826 715 819
8 929 825 713 822 820 714 597 711
8 821 712 596 710 930 824 713 822
8 717 599 718 832 829 716 830 942
8 719 600 720 834 831 717 832 944
8 832 718 601 720 945 833 721 835
8 834 720 603 722 946 835 723 836
8 869 780 838 950 767 670 725 839
8 865 767 839 952 756 656 726 841
8 839 725 840 953 726 608 727 842
8 841 726 842 954 728 609 729 843
8 844 740 691 790 955 850 802 899
8 733 625 740 844 845 739 850 955
8 734 623 739 845 846 738 849 956
8 735 621 738 846 847 737 848 957
8 744 647 737 847 854 759 848 957
8 738 627 742 849 848 741 851 958
8 848 741 851 958 759 662 773 868
8 850 743 700 802 959 852 807 906
8 849 742 628 739 959 852 743 850
8 854 759 868 965 745 648 760 855
8 746 649 760 855 856 761 871 966
8 860 765 653 750 967 872 761 856
8 968 873 762 857 858 763 651 748
8 862 769 657 753 968 873 762 857
8 859 764 874 969 749 652 763 858
8 752 654 766 861 859 764 875 970
8 751 655 765 860 861 766 876 971
8 754 658 769 862 863 770 879 972
8 755 659 770 863 864 771 881 974
8 976 882 772 867 864 771 660 757
8 866 768 877 977 756 656 767 865
8 867 772 878 978 758 661 768 866
8 760 663 773 868 871 774 883 980
8 870 781 837 948 982 890 780 869
8 982 890 780 869 877 782 670 767
8 761 664 774 871 872 775 884 984
8 876 776 665 765 985 885 775 872
8 873 777 668 763 986 887 779 874
8 769 674 777 873 879 786 887 986
8 764 669 778 875 874 779 888 987
8 766 667 776 876 875 778 886 988
8 878 783 892 989 768 671 782 877
8 878 783 672 772 990 893 784 882
8 880 787 675 770 991 896 786 879
8 880 787 895 992 770 675 785 881
8 881 785 894 993 771 673 784 882
8 1006 905 799 898 897 798 687 789
8 919 814 905 1006 813 705 798 897
8 791 689 799 898 901 801 907 1007
8 900 803 909 1009 790 691 802 899
8 795 693 804 903 900 803 910 1010
8 902 800 908 1011 796 694 805 904
8 793 690 801 901 902 800 908 1011
8 797 695 805 904 903 804 911 1012
8 799 697 806 905 907 808 912 1013
8 920 815 912 1013 814 706 806 905
8 802 700 810 909 906 807 913 1014
8 801 699 808 907 908 809 914 1015
8 805 703 809 908 911 812 915 1016
8 803 701 811 910 909 810 916 1017
8 911 812 917 1018 804 702 811 910
8 925 821 920 1030 818 710 814 919
8 928 823 921 1031 821 712 815 920
8 922 819 717 831 1033 926 829 941
8 923 820 709 816 1034 927 819 922
8 1035 929 822 924 923 820 711 817
8 925 821 710 818 1036 930 822 924
8 1038 933 825 929 927 826 714 820
8 926 827 716 829 1039 935 828 939
8 927 826 715 819 1040 934 827 926
8 928 823 712 821 1041 931 824 930
8 1042 932 824 930 929 825 713 822
8 829 716 830 942 939 828 940 1058
8 831 717 832 944 941 829 942 1060
8 942 830 718 832 1061 943 833 945
8 944 832 720 834 1062 945 835 946
8 981 889 947 1064 870 781 837 948
8 948 837 949 1067 869 780 838 950
8 975 869 950 1069 865 767 839 952
8 950 838 951 1070 839 725 840 953
8 952 839 953 1071 841 726 842 954
8 955 850 802 899 1072 959 906 1008
8 956 849 739 845 1072 959 850 955
8 846 738 849 956 957 848 958 1073
8 957 848 958 1073 854 759 868 965
8 849 742 852 959 958 851 961 1076
8 960 853 961 1076 906 807 852 959
8 958 851 961 1076 868 773 883 980
8 960 853 807 906 1077 963 913 1014
8 855 760 868 965 966 871 980 1085
8 856 761 871 966 967 872 984 1086
8 971 876 765 860 1087 985 872 967
8 968 873 763 858 1088 986 874 969
8 862 769 873 968 972 879 986 1088
8 859 764 875 970 969 874 987 1089
8 861 766 876 971 970 875 988 1090
8 973 880 770 863 1091 991 879 972
8 973 880 992 1092 863 770 881 974
8 974 881 993 1093 864 771 882 976
8 979 870 948 1066 1094 982 869 975
8 1094 982 869 975 977 877 767 865
8 978 878 772 867 1095 990 882 976
8 978 878 989 1096 866 768 877 977
8 871 774 883 980 984 884 994 1099
8 983 891 999 1100 870 781 889 981
8 1101 1000 890 982 989 892 782 877
8 983 891 781 870 1101 1000 890 982
8 872 775 884 984 985 885 995 1103
8 876 776 885 985 988 886 996 1104
8 986 887 779 874 1105 998 888 987
8 879 786 887 986 991 896 998 1105
8 875 778 886 988 987 888 997 1106
8 990 893 1002 1107 878 783 892 989
8 1108 1003 893 990 993 894 784 882
8 880 787 896 991 992 895 1005 1109
8 993 894 785 881 1110 1004 895 992
8 898 799 905 1006 1007 907 1013 1120
8 1030 920 1013 1120 919 814 905 1006
8 901 801 907 1007 1011 908 1015 1121
8 899 802 909 1009 1008 906 1014 1122
8 900 803 910 1010 1009 909 1017 1123
8 1012 911 1018 1124 903 804 910 1010
8 904 805 908 1011 1012 911 1016 1125
8 1013 912 1020 1127 907 808 914 1015
8 1031 921 1020 1127 920 815 912 1013
8 1019 918 962 1075 1128 1021 913 1014
8 1128 1021 913 1014 1017 916 810 909
8 1015 914 1022 1129 908 809 915 1016
8 1016 915 1023 1130 911 812 917 1018
8 1018 917 1024 1131 910 811 916 1017
8 1037 928 1031 1148 925 821 920 1030
8 928 823 931 1041 1031 921 1032 1149
8 1033 926 829 941 1151 1039 939 1057
8 1034 927 819 922 1152 1040 926 1033
8 1153 1038 929 1035 1034 927 820 923
8 1154 1042 930 1036 1035 929 822 924
8 1037 928 821 925 1155 1041 930 1036
8 1039 935 828 939 1156 1047 938 1055
8 1157 1043 932 1042 1038 933 825 929
8 1038 933 826 927 1158 1045 934 1040
8 1040 934 827 926 1159 1046 935 1039
8 930 824 932 1042 1041 931 1044 1160
8 1051 936 1048 1165 1175 1052 937 1053
8 1156 1047 938 1055 1053 937 1054 1178
8 939 828 940 1058 1055 938 1056 1181
8 941 829 942 1060 1057 939 1058 1183
8 942 830 943 1061 1058 940 1059 1184
8 1060 942 832 944 1185 1061 945 1062
8 1082 964 1063 1188 981 889 947 1064
8 1097 981 1064 1190 979 870 948 1066
8 1064 947 1065 1191 948 837 949 1067
8 1066 948 1067 1193 975 869 950 1069
8 1067 949 1068 1194 950 838 951 1070
8 1069 950 1070 1195 952 839 953 1071
8 956 849 959 1072 1073 958 1076 1197
8 1074 960 1076 1197 1008 906 959 1072
8 1073 958 1076 1197 965 868 980 1085
8 1074 960 906 1008 1198 1077 1014 1122
8 1133 1026 1079 1199 1019 918 962 1075
8 1077 963 913 1014 1200 1080 962 1075
8 960 853 963 1077 1076 961 1078 1201
8 980 883 961 1076 1099 994 1078 1201
8 1210 1083 964 1082 1100 999 889 981
8 966 871 980 1085 1086 984 1099 1215
8 967 872 984 1086 1087 985 1103 1216
8 971 876 985 1087 1090 988 1104 1217
8 1088 986 874 969 1218 1105 987 1089
8 972 879 986 1088 1091 991 1105 1218
8 970 875 988 1090 1089 987 1106 1219
8 973 880 991 1091 1092 992 1109 1220
8 1093 993 881 974 1221 1110 992 1092
8 1222 1108 990 1095 1093 993 882 976
8 1223 1101 982 1094 1096 989 877 977
8 1098 983 870 979 1223 1101 982 1094
8 1095 990 1107 1224 978 878 989 1096
8 1098 983 1100 1225 979 870 981 1097
8 984 884 994 1099 1103 995 1111 1227
8 1102 1001 1115 1228 983 891 999 1100
8 1101 1000 892 989 1229 1116 1002 1107
8 1102 1001 891 983 1229 1116 1000 1101
8 985 885 995 1103 1104 996 1112 1230
8 988 886 996 1104 1106 997 1113 1231
8 1105 998 888 987 1232 1114 997 1106
8 991 896 998 1105 1109 1005 1114 1232
8 1108 1003 1117 1233 990 893 1002 1107
8 1108 1003 894 993 1233 1117 1004 1110
8 992 895 1005 1109 1110 1004 1118 1234
8 1120 1013 1127 1244 1007 907 1015 1121
8 1148 1031 1127 1244 1030 920 1013 1120
8 1121 1015 1129 1245 1011 908 1016 1125
8 1126 1019 1075 1196 1246 1128 1014 1122
8 1246 1128 1014 1122 1123 1017 909 1009
8 1124 1018 1131 1247 1010 910 1017 1123
8 1125 1016 1130 1248 1012 911 1018 1124
8 1127 1020 1137 1254 1015 914 1022 1129
8 1031 921 1032 1149 1127 1020 1137 1254
8 1134 1027 918 1019 1257 1140 1021 1128
8 1257 1140 1021 1128 1131 1024 916 1017
8 1129 1022 1141 1258 1016 915 1023 1130
8 1130 1023 1142 1259 1018 917 1024 1131
8 1261 1144 1025 1132 1133 1026 1079 1199
8 1255 1138 1025 1132 1135 1028 1144 1261
8 1133 1026 918 1019 1262 1145 1027 1134
8 1136 1029 1139 1256 1263 1146 1028 1135
8 1037 928 1041 1155 1148 1031 1149 1275
8 1041 931 1044 1160 1149 1032 1150 1276
8 1151 1039 939 1057 1278 1156 1055 1180
8 1152 1040 926 1033 1279 1159 1039 1151
8 1153 1038 927 1034 1280 1158 1040 1152
8 1281 1157 1042 1154 1153 1038 929 1035
8 1036 930 1042 1154 1155 1041 1160 1282
8 1283 1164 1046 1159 1156 1047 935 1039
8 1165 1048 1164 1283 1053 937 1047 1156
8 1157 1043 933 1038 1284 1161 1045 1158
8 1157 1043 1161 1284 1042 932 1044 1160
8 1040 934 1046 1159 1158 1045 1163 1285
8 1166 1049 1167 1292 1051 936 1048 1165
8 1166 1049 936 1051 1293 1168 1050 1172
8 1051 936 1052 1175 1172 1050 1173 1306
8 1174 1051 1165 1290 1308 1175 1053 1177
8 1053 937 1054 1178 1175 1052 1176 1309
8 1278 1156 1055 1180 1177 1053 1178 1311
8 1055 938 1056 1181 1178 1054 1179 1312
8 1057 939 1058 1183 1180 1055 1181 1314
8 1058 940 1059 1184 1181 1056 1182 1315
8 1060 942 1061 1185 1183 1058 1184 1316
8 1208 1081 1187 1321 1082 964 1063 1188
8 1209 1082 1188 1322 1097 981 1064 1190
8 1188 1063 1189 1323 1064 947 1065 1191
8 1190 1064 1191 1325 1066 948 1067 1193
8 1191 1065 1192 1326 1067 949 1068 1194
8 1067 1193 1069 950 1194 1327 1195 1070
8 1250 1133 1199 1330 1126 1019 1075 1196
8 1198 1077 1014 1122 1331 1200 1075 1196
8 1074 960 1077 1198 1197 1076 1201 1332
8 1085 980 1076 1197 1215 1099 1201 1332
8 1199 1079 1203 1333 1075 962 1080 1200
8 1132 1025 1119 1243 1199 1079 1203 1333
8 1201 1078 963 1077 1334 1202 1080 1200
8 1099 994 1078 1201 1227 1111 1202 1334
8 1343 1207 1081 1208 1210 1083 964 1082
8 1214 1084 1186 1319 1343 1207 1081 1208
8 1345 1210 1082 1209 1225 1100 981 1097
8 1346 1211 1083 1210 1228 1115 999 1100
8 1086 984 1099 1215 1216 1103 1227 1352
8 1087 985 1103 1216 1217 1104 1230 1353
8 1090 988 1104 1217 1219 1106 1231 1354
8 1218 1105 987 1089 1355 1232 1106 1219
8 1091 991 1105 1218 1220 1109 1232 1355
8 1092 992 1109 1220 1221 1110 1234 1356
8 1222 1108 1233 1357 1095 990 1107 1224
8 1222 1108 993 1093 1357 1233 1110 1221
8 1223 1101 989 1096 1358 1229 1107 1224
8 1226 1102 983 1098 1358 1229 1101 1223
8 1226 1102 1228 1359 1098 983 1100 1225
8 1103 995 1111 1227 1230 1112 1235 1360
8 1107 1002 1117 1233 1229 1116 1240 1362
8 1102 1001 1116 1229 1228 1115 1240 1362
8 1104 996 1112 1230 1231 1113 1236 1363
8 1364 1237 1114 1232 1231 1113 997 1106
8 1109 1005 1114 1232 1234 1118 1238 1365
8 1110 1004 1118 1234 1233 1117 1241 1366
8 1242 1374 1255 1138 1119 1243 1132 1025
8 1244 1127 1254 1376 1121 1015 1129 1245
8 1148 1031 1149 1275 1244 1127 1254 1376
8 1245 1129 1258 1377 1125 1016 1130 1248
8 1251 1134 1019 1126 1378 1257 1128 1246
8 1378 1257 1128 1246 1247 1131 1017 1123
8 1248 1130 1259 1379 1124 1018 1131 1247
8 1261 1381 1250 1133 1132 1249 1330 1199
8 1255 1380 1252 1135 1132 1249 1381 1261
8 1250 1133 1019 1126 1382 1262 1134 1251
8 1253 1136 1256 1385 1384 1263 1135 1252
8 1254 1137 1265 1387 1129 1022 1141 1258
8 1149 1032 1150 1276 1254 1137 1265 1387
8 1028 1135 1255 1138 1139 1256 1388 1266
8 1136 1029 1147 1264 1256 1139 1267 1389
8 1390 1268 1140 1257 1259 1142 1024 1131
8 1260 1143 1027 1134 1390 1268 1140 1257
8 1258 1141 1269 1391 1130 1023 1142 1259
8 1262 1145 1027 1134 1393 1271 1143 1260
8 1261 1144 1026 1133 1394 1272 1145 1262
8 1135 1028 1144 1261 1263 1146 1272 1394
8 1136 1029 1146 1263 1264 1147 1273 1395
8 1155 1041 1160 1282 1275 1149 1276 1405
8 1276 1150 1044 1160 1406 1277 1162 1286
8 1408 1283 1159 1279 1278 1156 1039 1151
8 1290 1165 1283 1408 1177 1053 1156 1278
8 1152 1040 1159 1279 1280 1158 1285 1409
8 1281 1157 1038 1153 1410 1284 1158 1280
8 1281 1157 1284 1410 1154 1042 1160 1282
8 1159 1046 1164 1283 1285 1163 1289 1412
8 1292 1167 1289 1412 1165 1048 1164 1283
8 1158 1045 1163 1285 1284 1161 1288 1413
8 1284 1161 1288 1413 1160 1044 1162 1286
8 1291 1166 1292 1418 1174 1051 1165 1290
8 1291 1166 1051 1174 1419 1293 1172 1305
8 1294 1169 1296 1421 1166 1049 1167 1292
8 1293 1168 1050 1172 1422 1295 1171 1303
8 1294 1169 1049 1166 1423 1297 1168 1293
8 1422 1295 1171 1303 1301 1170 1302 1435
8 1172 1050 1173 1306 1303 1171 1304 1438
8 1174 1051 1175 1308 1305 1172 1306 1440
8 1175 1052 1176 1309 1306 1173 1307 1441
8 1177 1053 1178 1311 1308 1175 1309 1443
8 1178 1054 1179 1312 1309 1176 1310 1444
8 1180 1055 1181 1314 1311 1178 1312 1446
8 1056 1181 1312 1179 1182 1315 1447 1313
8 1183 1058 1184 1316 1314 1181 1315 1448
8 1319 1186 1084 1214 1451 1317 1213 1350
8 1319 1186 1318 1453 1208 1081 1187 1321
8 1321 1187 1320 1456 1188 1063 1189 1323
8 1344 1208 1321 1457 1209 1082 1188 1322
8 1322 1188 1323 1458 1190 1064 1191 1325
8 1323 1189 1324 1459 1191 1065 1192 1326
8 1191 1325 1193 1067 1326 1460 1327 1194
8 1242 1374 1243 1119 1328 1462 1335 1204
8 1330 1199 1333 1465 1196 1075 1200 1331
8 1132 1249 1330 1199 1243 1375 1465 1333
8 1332 1201 1077 1198 1466 1334 1200 1331
8 1215 1099 1201 1332 1352 1227 1334 1466
8 1119 1243 1333 1203 1204 1335 1470 1338
8 1333 1203 1338 1470 1200 1080 1202 1334
8 1227 1111 1202 1334 1360 1235 1338 1470
8 1328 1462 1335 1204 1205 1336 1471 1339
8 1337 1206 1340 1472 1464 1329 1205 1336
8 1346 1211 1342 1479 1210 1083 1207 1343
8 1346 1211 1115 1228 1479 1342 1239 1361
8 1348 1212 1084 1214 1479 1342 1207 1343
8 1480 1343 1208 1344 1345 1210 1082 1209
8 1351 1214 1319 1454 1480 1343 1208 1344
8 1481 1346 1210 1345 1359 1228 1100 1225
8 1348 1212 1347 1483 1214 1084 1213 1350
8 1216 1103 1227 1352 1353 1230 1360 1488
8 1217 1104 1230 1353 1354 1231 1363 1489
8 1490 1364 1232 1355 1354 1231 1106 1219
8 1220 1109 1232 1355 1356 1234 1365 1491
8 1221 1110 1234 1356 1357 1233 1366 1492
8 1224 1107 1233 1357 1358 1229 1362 1493
8 1226 1102 1229 1358 1359 1228 1362 1493
8 1230 1112 1235 1360 1363 1236 1367 1496
8 1361 1239 1115 1228 1497 1371 1240 1362
8 1366 1241 1372 1498 1233 1117 1240 1362
8 1364 1237 1113 1231 1499 1368 1236 1363
8 1364 1237 1368 1499 1232 1114 1238 1365
8 1234 1118 1238 1365 1366 1241 1369 1500
8 1507 1373 1242 1374 1388 1266 1138 1255
8 1508 1374 1243 1375 1380 1255 1132 1249
8 1376 1254 1387 1509 1245 1129 1258 1377
8 1275 1149 1276 1405 1376 1254 1387 1509
8 1377 1258 1391 1510 1248 1130 1259 1379
8 1511 1390 1257 1378 1379 1259 1131 1247
8 1383 1260 1134 1251 1511 1390 1257 1378
8 1252 1135 1256 1385 1380 1255 1388 1512
8 1261 1381 1513 1394 1133 1250 1382 1262
8 1135 1252 1384 1263 1261 1381 1513 1394
8 1382 1262 1134 1251 1514 1393 1260 1383
8 1253 1136 1263 1384 1386 1264 1395 1516
8 1253 1136 1264 1386 1385 1256 1389 1517
8 1387 1265 1397 1519 1258 1141 1269 1391
8 1276 1150 1277 1406 1387 1265 1397 1519
8 1256 1139 1267 1389 1388 1266 1398 1520
8 1264 1147 1274 1396 1389 1267 1399 1521
8 1392 1270 1143 1260 1522 1400 1268 1390
8 1390 1268 1142 1259 1522 1400 1269 1391
8 1392 1270 1401 1523 1260 1143 1271 1393
8 1272 1394 1524 1402 1145 1262 1393 1271
8 1395 1273 1146 1263 1524 1402 1272 1394
8 1273 1395 1264 1147 1403 1526 1396 1274
8 1405 1276 1160 1282 1534 1406 1286 1411
8 1414 1287 1407 1535 1286 1162 1277 1406
8 1279 1159 1283 1408 1409 1285 1412 1537
8 1418 1292 1412 1537 1290 1165 1283 1408
8 1280 1158 1285 1409 1410 1284 1413 1538
8 1410 1284 1413 1538 1282 1160 1286 1411
8 1285 1163 1289 1412 1413 1288 1417 1540
8 1421 1296 1417 1540 1292 1167 1289 1412
8 1414 1287 1162 1286 1541 1416 1288 1413
8 1420 1294 1421 1545 1291 1166 1292 1418
8 1419 1293 1172 1305 1546 1422 1303 1437
8 1420 1294 1166 1291 1547 1423 1293 1419
8 1294 1169 1297 1423 1421 1296 1425 1548
8 1423 1297 1168 1293 1549 1424 1295 1422
8 1301 1170 1298 1427 1422 1295 1424 1549
8 1432 1300 1428 1554 1301 1170 1298 1427
8 1431 1299 1428 1554 1560 1430 1300 1432
8 1563 1433 1300 1432 1435 1302 1170 1301
8 1546 1422 1303 1437 1434 1301 1435 1565
8 1303 1171 1304 1438 1435 1302 1436 1566
8 1305 1172 1306 1440 1437 1303 1438 1568
8 1306 1173 1307 1441 1438 1304 1439 1569
8 1308 1175 1309 1443 1440 1306 1441 1571
8 1309 1176 1310 1444 1441 1307 1442 1572
8 1311 1178 1312 1446 1443 1309 1444 1574
8 1179 1312 1444 1310 1313 1447 1575 1445
8 1314 1181 1315 1448 1446 1312 1447 1576
8 1350 1213 1349 1486 1451 1317 1449 1579
8 1451 1317 1450 1581 1319 1186 1318 1453
8 1454 1319 1214 1351 1582 1451 1350 1487
8 1453 1318 1452 1584 1321 1187 1320 1456
8 1454 1319 1453 1585 1344 1208 1321 1457
8 1456 1320 1455 1586 1323 1189 1324 1459
8 1457 1321 1456 1587 1322 1188 1323 1458
8 1458 1323 1459 1588 1325 1191 1326 1460
8 1205 1336 1464 1329 1328 1462 1590 1461
8 1507 1373 1461 1590 1374 1242 1328 1462
8 1508 1374 1462 1591 1375 1243 1335 1467
8 1337 1206 1329 1464 1473 1341 1463 1594
8 1375 1243 1335 1467 1465 1333 1470 1596
8 1465 1333 1470 1596 1331 1200 1334 1466
8 1352 1227 1334 1466 1488 1360 1470 1596
8 1591 1462 1336 1468 1467 1335 1471 1597
8 1469 1337 1472 1598 1595 1464 1336 1468
8 1471 1339 1474 1600 1335 1204 1338 1470
8 1600 1474 1367 1496 1470 1338 1235 1360
8 1336 1205 1340 1472 1471 1339 1475 1601
8 1337 1206 1341 1473 1472 1340 1476 1602
8 1495 1370 1478 1609 1361 1239 1342 1479
8 1348 1212 1342 1479 1483 1347 1478 1609
8 1481 1346 1479 1610 1345 1210 1343 1480
8 1481 1346 1228 1359 1610 1479 1361 1494
8 1484 1348 1214 1351 1610 1479 1343 1480
8 1483 1347 1482 1612 1350 1213 1349 1486
8 1484 1348 1483 1613 1351 1214 1350 1487
8 1353 1230 1360 1488 1489 1363 1496 1616
8 1490 1364 1231 1354 1617 1499 1363 1489
8 1490 1364 1499 1617 1355 1232 1365 1491
8 1356 1234 1365 1491 1492 1366 1500 1619
8 1492 1366 1498 1620 1357 1233 1362 1493
8 1494 1361 1228 1359 1621 1497 1362 1493
8 1495 1370 1239 1361 1622 1504 1371 1497
8 1363 1236 1367 1496 1499 1368 1501 1623
8 1497 1371 1240 1362 1624 1505 1372 1498
8 1625 1503 1372 1498 1500 1369 1241 1366
8 1365 1238 1368 1499 1500 1369 1502 1626
8 1520 1398 1506 1633 1388 1266 1373 1507
8 1634 1507 1374 1508 1512 1388 1255 1380
8 1509 1387 1519 1635 1377 1258 1391 1510
8 1405 1276 1406 1534 1509 1387 1519 1635
8 1515 1392 1260 1383 1636 1522 1390 1511
8 1511 1390 1259 1379 1636 1522 1391 1510
8 1385 1256 1389 1517 1512 1388 1520 1637
8 1513 1394 1262 1382 1638 1524 1393 1514
8 1395 1516 1638 1524 1263 1384 1513 1394
8 1515 1392 1523 1639 1383 1260 1393 1514
8 1516 1395 1526 1640 1386 1264 1396 1518
8 1386 1264 1396 1518 1517 1389 1521 1641
8 1519 1397 1527 1643 1391 1269 1400 1522
8 1535 1407 1527 1643 1406 1277 1397 1519
8 1389 1267 1399 1521 1520 1398 1528 1644
8 1645 1529 1399 1521 1525 1404 1274 1396
8 1392 1270 1400 1522 1523 1401 1531 1646
8 1524 1402 1271 1393 1648 1532 1401 1523
8 1403 1526 1648 1532 1273 1395 1524 1402
8 1525 1404 1274 1396 1649 1533 1403 1526
8 1539 1414 1535 1657 1411 1286 1406 1534
8 1542 1415 1536 1658 1414 1287 1407 1535
8 1409 1285 1412 1537 1538 1413 1540 1660
8 1545 1421 1540 1660 1418 1292 1412 1537
8 1539 1414 1286 1411 1661 1541 1413 1538
8 1540 1417 1544 1663 1413 1288 1416 1541
8 1421 1296 1425 1548 1540 1417 1544 1663
8 1542 1415 1287 1414 1664 1543 1416 1541
8 1420 1294 1423 1547 1545 1421 1548 1666
8 1547 1423 1293 1419 1667 1549 1422 1546
8 1434 1301 1427 1553 1546 1422 1549 1667
8 1423 1297 1424 1549 1548 1425 1550 1668
8 1551 1426 1550 1668 1427 1298 1424 1549
8 1551 1426 1298 1427 1671 1552 1428 1554
8 1562 1432 1554 1674 1434 1301 1427 1553
8 1431 1299 1429 1558 1554 1428 1555 1675
8 1431 1299 1430 1560 1558 1429 1557 1680
8 1560 1430 1300 1432 1683 1559 1433 1563
8 1561 1431 1554 1674 1684 1560 1432 1562
8 1685 1563 1432 1562 1565 1435 1301 1434
8 1435 1302 1436 1566 1563 1433 1564 1686
8 1437 1303 1438 1568 1565 1435 1566 1688
8 1438 1304 1439 1569 1566 1436 1567 1689
8 1440 1306 1441 1571 1568 1438 1569 1691
8 1441 1307 1442 1572 1569 1439 1570 1692
8 1443 1309 1444 1574 1571 1441 1572 1694
8 1310 1444 1572 1442 1445 1575 1695 1573
8 1446 1312 1447 1576 1574 1444 1575 1696
8 1486 1349 1485 1614 1579 1449 1577 1699
8 1451 1317 1449 1579 1581 1450 1578 1701
8 1487 1350 1486 1615 1582 1451 1579 1702
8 1581 1450 1580 1704 1453 1318 1452 1584
8 1582 1451 1581 1705 1454 1319 1453 1585
8 1584 1452 1583 1706 1456 1320 1455 1586
8 1585 1453 1584 1707 1457 1321 1456 1587
8 1587 1456 1586 1708 1458 1323 1459 1588
8 1633 1506 1589 1710 1507 1373 1461 1590
8 1464 1329 1461 1590 1594 1463 1589 1710
8 1468 1336 1462 1591 1595 1464 1590 1711
8 1634 1507 1590 1711 1508 1374 1462 1591
8 1473 1341 1463 1594 1603 1477 1593 1716
8 1469 1337 1464 1595 1599 1473 1594 1717
8 1471 1597 1467 1335 1600 1718 1596 1470
8 1718 1600 1496 1616 1596 1470 1360 1488
8 1336 1468 1597 1471 1472 1598 1719 1601
8 1469 1337 1473 1599 1598 1472 1602 1720
8 1722 1604 1501 1623 1600 1474 1367 1496
8 1475 1601 1471 1339 1604 1722 1600 1474
8 1602 1476 1605 1723 1472 1340 1475 1601
8 1476 1602 1724 1606 1341 1473 1603 1477
8 1483 1347 1478 1609 1612 1482 1608 1731
8 1495 1370 1504 1622 1609 1478 1608 1731
8 1618 1495 1609 1732 1494 1361 1479 1610
8 1484 1348 1479 1610 1613 1483 1609 1732
8 1486 1349 1482 1612 1614 1485 1611 1733
8 1613 1483 1612 1734 1487 1350 1486 1615
8 1489 1363 1496 1616 1617 1499 1623 1736
8 1491 1365 1499 1617 1619 1500 1626 1737
8 1618 1495 1361 1494 1738 1622 1497 1621
8 1739 1625 1498 1620 1619 1500 1366 1492
8 1621 1497 1362 1493 1740 1624 1498 1620
8 1742 1631 1504 1622 1624 1505 1371 1497
8 1743 1628 1502 1626 1623 1501 1368 1499
8 1744 1630 1505 1624 1625 1503 1372 1498
8 1745 1629 1503 1625 1626 1502 1369 1500
8 1520 1398 1528 1644 1633 1506 1632 1751
8 1637 1520 1633 1752 1512 1388 1507 1634
8 1635 1519 1643 1753 1510 1391 1522 1636
8 1657 1535 1643 1753 1534 1406 1519 1635
8 1515 1392 1522 1636 1639 1523 1646 1754
8 1517 1389 1521 1641 1637 1520 1644 1755
8 1524 1638 1756 1648 1393 1514 1639 1523
8 1640 1526 1395 1516 1756 1648 1524 1638
8 1642 1525 1396 1518 1757 1649 1526 1640
8 1758 1645 1521 1641 1642 1525 1396 1518
8 1646 1531 1400 1522 1760 1650 1527 1643
8 1535 1407 1536 1658 1643 1527 1650 1760
8 1521 1399 1529 1645 1644 1528 1651 1761
8 1647 1530 1652 1762 1525 1404 1529 1645
8 1401 1523 1648 1532 1531 1646 1763 1655
8 1525 1404 1533 1649 1647 1530 1654 1765
8 1533 1649 1766 1656 1403 1526 1648 1532
8 1662 1542 1658 1774 1539 1414 1535 1657
8 1542 1415 1543 1664 1658 1536 1659 1775
8 1660 1540 1663 1777 1538 1413 1541 1661
8 1545 1421 1548 1666 1660 1540 1663 1777
8 1662 1542 1414 1539 1778 1664 1541 1661
8 1664 1543 1416 1541 1779 1665 1544 1663
8 1548 1425 1550 1668 1663 1544 1665 1779
8 1547 1423 1549 1667 1666 1548 1668 1781
8 1670 1551 1668 1781 1553 1427 1549 1667
8 1551 1426 1552 1671 1668 1550 1669 1782
8 1670 1551 1427 1553 1784 1671 1554 1674
8 1675 1555 1672 1785 1554 1428 1552 1671
8 1678 1556 1673 1789 1558 1429 1555 1675
8 1561 1431 1558 1681 1674 1554 1675 1790
8 1794 1677 1556 1678 1680 1557 1429 1558
8 1560 1430 1559 1683 1680 1557 1679 1797
8 1561 1431 1560 1684 1681 1558 1680 1798
8 1563 1433 1564 1686 1683 1559 1682 1800
8 1684 1560 1432 1562 1801 1683 1563 1685
8 1565 1435 1566 1688 1685 1563 1686 1802
8 1566 1436 1567 1689 1686 1564 1687 1803
8 1568 1438 1569 1691 1688 1566 1689 1805
8 1569 1439 1570 1692 1689 1567 1690 1806
8 1571 1441 1572 1694 1691 1569 1692 1808
8 1442 1572 1692 1570 1573 1695 1809 1693
8 1574 1444 1575 1696 1694 1572 1695 1810
8 1614 1485 1592 1712 1699 1577 1697 1813
8 1579 1449 1577 1699 1701 1578 1698 1815
8 1615 1486 1614 1735 1702 1579 1699 1816
8 1701 1578 1700 1818 1581 1450 1580 1704
8 1582 1451 1579 1702 1705 1581 1701 1819
8 1704 1580 1703 1820 1584 1452 1583 1706
8 1705 1581 1704 1821 1585 1453 1584 1707
8 1707 1584 1706 1822 1587 1456 1586 1708
8 1710 1589 1506 1633 1824 1709 1632 1751
8 1594 1463 1589 1710 1716 1593 1709 1824
8 1752 1633 1710 1825 1634 1507 1590 1711
8 1595 1464 1590 1711 1717 1594 1710 1825
8 1830 1714 1592 1712 1733 1611 1485 1614
8 1603 1477 1593 1716 1725 1607 1715 1834
8 1599 1473 1594 1717 1721 1603 1716 1835
8 1837 1722 1623 1736 1718 1600 1496 1616
8 1719 1601 1722 1837 1597 1471 1600 1718
8 1602 1720 1598 1472 1723 1838 1719 1601
8 1720 1602 1473 1599 1839 1724 1603 1721
8 1723 1605 1726 1840 1601 1475 1604 1722
8 1840 1726 1628 1743 1722 1604 1501 1623
8 1724 1606 1727 1841 1602 1476 1605 1723
8 1725 1607 1728 1842 1603 1477 1606 1724
8 1612 1482 1608 1731 1733 1611 1730 1849
8 1741 1627 1730 1849 1622 1504 1608 1731
8 1613 1483 1609 1732 1734 1612 1731 1850
8 1618 1495 1622 1738 1732 1609 1731 1850
8 1615 1486 1612 1734 1735 1614 1733 1851
8 1852 1743 1626 1737 1736 1623 1499 1617
8 1853 1745 1625 1739 1737 1626 1500 1619
8 1855 1742 1622 1738 1740 1624 1497 1621
8 1856 1744 1624 1740 1739 1625 1498 1620
8 1741 1627 1504 1622 1857 1746 1631 1742
8 1742 1631 1505 1624 1858 1749 1630 1744
8 1859 1747 1629 1745 1743 1628 1502 1626
8 1860 1748 1630 1744 1745 1629 1503 1625
8 1644 1528 1651 1761 1751 1632 1750 1865
8 1637 1520 1644 1755 1752 1633 1751 1866
8 1754 1646 1522 1636 1867 1760 1643 1753
8 1657 1535 1658 1774 1753 1643 1760 1867
8 1639 1523 1646 1754 1756 1648 1763 1868
8 1641 1521 1645 1758 1755 1644 1761 1869
8 1757 1649 1526 1640 1870 1766 1648 1756
8 1642 1525 1649 1757 1759 1647 1765 1871
8 1759 1647 1762 1872 1642 1525 1645 1758
8 1760 1650 1767 1874 1646 1531 1655 1763
8 1658 1536 1659 1775 1760 1650 1767 1874
8 1762 1652 1768 1875 1645 1529 1651 1761
8 1764 1653 1769 1876 1647 1530 1652 1762
8 1656 1766 1877 1773 1532 1648 1763 1655
8 1771 1879 1765 1654 1653 1764 1647 1530
8 1533 1649 1765 1654 1656 1766 1880 1772
8 1662 1542 1664 1778 1774 1658 1775 1887
8 1664 1543 1665 1779 1775 1659 1776 1888
8 1778 1664 1541 1661 1890 1779 1663 1777
8 1666 1548 1668 1781 1777 1663 1779 1890
8 1782 1669 1780 1891 1668 1550 1665 1779
8 1670 1551 1671 1784 1781 1668 1782 1893
8 1671 1552 1672 1785 1782 1669 1783 1894
8 1790 1675 1785 1896 1674 1554 1671 1784
8 1675 1555 1673 1789 1785 1672 1786 1897
8 1792 1676 1788 1903 1678 1556 1673 1789
8 1795 1678 1789 1904 1681 1558 1675 1790
8 1792 1676 1556 1678 1906 1791 1677 1794
8 1680 1557 1679 1797 1794 1677 1793 1909
8 1910 1794 1678 1795 1798 1680 1558 1681
8 1683 1559 1682 1800 1797 1679 1796 1912
8 1684 1560 1683 1801 1798 1680 1797 1913
8 1686 1564 1687 1803 1800 1682 1799 1915
8 1685 1563 1686 1802 1801 1683 1800 1916
8 1688 1566 1689 1805 1802 1686 1803 1917
8 1689 1567 1690 1806 1803 1687 1804 1918
8 1691 1569 1692 1808 1805 1689 1806 1920
8 1692 1570 1693 1809 1806 1690 1807 1921
8 1694 1572 1695 1810 1808 1692 1809 1922
8 1829 1713 1811 1926 1712 1592 1697 1813
8 1813 1697 1812 1928 1699 1577 1698 1815
8 1735 1614 1712 1828 1816 1699 1813 1929
8 1815 1698 1814 1931 1701 1578 1700 1818
8 1702 1579 1699 1816 1819 1701 1815 1932
8 1818 1700 1817 1933 1704 1580 1703 1820
8 1819 1701 1818 1934 1705 1581 1704 1821
8 1821 1704 1820 1935 1707 1584 1706 1822
8 1824 1709 1632 1751 1937 1823 1750 1865
8 1716 1593 1709 1824 1834 1715 1823 1937
8 1825 1710 1633 1752 1938 1824 1751 1866
8 1717 1594 1710 1825 1835 1716 1824 1938
8 1945 1830 1712 1828 1851 1733 1614 1735
8 1830 1714 1831 1946 1712 1592 1713 1829
8 1947 1832 1714 1830 1849 1730 1611 1733
8 1843 1729 1607 1725 1950 1833 1715 1834
8 1721 1603 1716 1835 1836 1725 1834 1951
8 1836 1725 1842 1953 1721 1603 1724 1839
8 1723 1838 1719 1601 1840 1954 1837 1722
8 1954 1840 1743 1852 1837 1722 1623 1736
8 1724 1839 1720 1602 1841 1955 1838 1723
8 1841 1727 1844 1956 1723 1605 1726 1840
8 1956 1844 1747 1859 1840 1726 1628 1743
8 1728 1842 1724 1606 1845 1957 1841 1727
8 1725 1607 1729 1843 1842 1728 1846 1958
8 1741 1627 1746 1857 1849 1730 1848 1965
8 1734 1612 1731 1850 1851 1733 1849 1966
8 1854 1741 1849 1966 1738 1622 1731 1850
8 1967 1859 1745 1853 1852 1743 1626 1737
8 1968 1860 1744 1856 1853 1745 1625 1739
8 1854 1741 1622 1738 1969 1857 1742 1855
8 1855 1742 1624 1740 1970 1858 1744 1856
8 1857 1746 1631 1742 1971 1861 1749 1858
8 1858 1749 1630 1744 1972 1863 1748 1860
8 1859 1747 1862 1973 1745 1629 1748 1860
8 1875 1768 1864 1977 1761 1651 1750 1865
8 1755 1644 1761 1869 1866 1751 1865 1978
8 1867 1760 1874 1979 1754 1646 1763 1868
8 1774 1658 1775 1887 1867 1760 1874 1979
8 1870 1766 1648 1756 1980 1877 1763 1868
8 1872 1762 1875 1981 1758 1645 1761 1869
8 1757 1649 1766 1870 1871 1765 1880 1982
8 1983 1879 1764 1873 1871 1765 1647 1759
8 1873 1764 1876 1984 1759 1647 1762 1872
8 1877 1773 1655 1763 1986 1881 1767 1874
8 1775 1659 1776 1888 1874 1767 1881 1986
8 1876 1769 1882 1987 1762 1652 1768 1875
8 1878 1770 1883 1988 1764 1653 1769 1876
8 1880 1772 1656 1766 1989 1886 1773 1877
8 1878 1770 1653 1764 1990 1884 1771 1879
8 1765 1654 1772 1880 1879 1771 1885 1991
8 1778 1664 1779 1890 1887 1775 1888 1997
8 1998 1889 1776 1888 1891 1780 1665 1779
8 1893 1782 1891 2000 1781 1668 1779 1890
8 1894 1783 1892 2001 1782 1669 1780 1891
8 1784 1671 1785 1896 1893 1782 1894 2003
8 1897 1786 1895 2004 1785 1672 1783 1894
8 1790 1675 1789 1904 1896 1785 1897 2006
8 1901 1787 1898 2007 1789 1673 1786 1897
8 1903 1788 1900 2013 1789 1673 1787 1901
8 1792 1676 1791 1906 1903 1788 1902 2016
8 1907 1792 1903 2017 1795 1678 1789 1904
8 1906 1791 1677 1794 2019 1905 1793 1909
8 1907 1792 1678 1795 2020 1906 1794 1910
8 1797 1679 1796 1912 1909 1793 1908 2022
8 1798 1680 1797 1913 1910 1794 1909 2023
8 1800 1682 1799 1915 1912 1796 1911 2025
8 1801 1683 1800 1916 1913 1797 1912 2026
8 1803 1687 1804 1918 1915 1799 1914 2028
8 1802 1686 1803 1917 1916 1800 1915 2029
8 1805 1689 1806 1920 1917 1803 1918 2030
8 1806 1690 1807 1921 1918 1804 1919 2031
8 1808 1692 1809 1922 1920 1806 1921 2032
8 1939 1826 1924 2037 1829 1713 1811 1926
8 1926 1811 1925 2039 1813 1697 1812 1928
8 1944 1829 1926 2040 1828 1712 1813 1929
8 1928 1812 1927 2042 1815 1698 1814 1931
8 1929 1813 1928 2043 1816 1699 1815 1932
8 1931 1814 1930 2044 1818 1700 1817 1933
8 1932 1815 1931 2045 1819 1701 1818 1934
8 1934 1818 1933 2046 1821 1704 1820 1935
8 2048 1936 1823 1937 1977 1864 1750 1865
8 1950 1833 1715 1834 2048 1936 1823 1937
8 1938 1824 1751 1866 2049 1937 1865 1978
8 1835 1716 1824 1938 1951 1834 1937 2049
8 1939 1826 1713 1829 2053 1942 1831 1946
8 1940 1827 1923 2035 2053 1942 1826 1939
8 1945 1830 1946 2058 1828 1712 1829 1944
8 2059 1947 1830 1945 1966 1849 1733 1851
8 1947 1832 1730 1849 2060 1948 1848 1965
8 1947 1832 1948 2060 1830 1714 1831 1946
8 1959 1847 1729 1843 2063 1949 1833 1950
8 1952 1843 1725 1836 2064 1950 1834 1951
8 1836 1725 1843 1952 1953 1842 1958 2066
8 1953 1842 1957 2067 1839 1724 1841 1955
8 1841 1955 1838 1723 1956 2068 1954 1840
8 2068 1956 1859 1967 1954 1840 1743 1852
8 1956 1844 1960 2069 1859 1747 1862 1973
8 1845 1957 1841 1727 1960 2069 1956 1844
8 1728 1842 1957 1845 1846 1958 2071 1961
8 1962 2072 1959 1847 1846 1958 1843 1729
8 1971 1861 1964 2077 1857 1746 1848 1965
8 1854 1741 1857 1969 1966 1849 1965 2078
8 1967 1859 1973 2079 1853 1745 1860 1968
8 1970 1858 1744 1856 2080 1972 1860 1968
8 1969 1857 1742 1855 2081 1971 1858 1970
8 1971 1861 1749 1858 2082 1974 1863 1972
8 1973 1862 1975 2083 1860 1748 1863 1972
8 1987 1882 1976 2086 1875 1768 1864 1977
8 1981 1875 1977 2087 1869 1761 1865 1978
8 1980 1877 1763 1868 2088 1986 1874 1979
8 1887 1775 1888 1997 1979 1874 1986 2088
8 1880 1982 2089 1989 1766 1870 1980 1877
8 1984 1876 1987 2090 1872 1762 1875 1981
8 1765 1871 1983 1879 1880 1982 2091 1991
8 1985 1878 1764 1873 2092 1990 1879 1983
8 1985 1878 1988 2093 1873 1764 1876 1984
8 2094 1992 1881 1986 1998 1889 1776 1888
8 1986 1881 1992 2094 1877 1773 1886 1989
8 1988 1883 1993 2095 1876 1769 1882 1987
8 1878 1770 1884 1990 1988 1883 1994 2096
8 1991 1885 1772 1880 2097 1996 1886 1989
8 1879 1771 1885 1991 1990 1884 1995 2098
8 2103 1998 1888 1997 2000 1891 1779 1890
8 2104 1999 1889 1998 2001 1892 1780 1891
8 2003 1894 2001 2106 1893 1782 1891 2000
8 2004 1895 2002 2107 1894 1783 1892 2001
8 2006 1897 2004 2109 1896 1785 1894 2003
8 2007 1898 2005 2110 1897 1786 1895 2004
8 2014 1901 2007 2112 1904 1789 1897 2006
8 2011 1899 2008 2113 1901 1787 1898 2007
8 2119 2010 1899 2011 2013 1900 1787 1901
8 2016 1902 2012 2122 1903 1788 1900 2013
8 2017 1903 2013 2123 1904 1789 1901 2014
8 1906 1791 1905 2019 2016 1902 2015 2125
8 1907 1792 1906 2020 2017 1903 2016 2126
8 1909 1793 1908 2022 2019 1905 2018 2128
8 2020 1906 1794 1910 2129 2019 1909 2023
8 1912 1796 1911 2025 2022 1908 2021 2131
8 1913 1797 1912 2026 2023 1909 2022 2132
8 1915 1799 1914 2028 2025 1911 2024 2134
8 1916 1800 1915 2029 2026 1912 2025 2135
8 1918 1804 1919 2031 2028 1914 2027 2136
8 1917 1803 1918 2030 2029 1915 2028 2137
8 1920 1806 1921 2032 2030 1918 2031 2138
8 1940 1827 1941 2054 2035 1923 2033 2140
8 2035 1923 2034 2143 1939 1826 1924 2037
8 2037 1924 2036 2146 1926 1811 1925 2039
8 2051 1939 2037 2147 1944 1829 1926 2040
8 2039 1925 2038 2149 1928 1812 1927 2042
8 2040 1926 2039 2150 1929 1813 1928 2043
8 2042 1927 2041 2151 1931 1814 1930 2044
8 2043 1928 2042 2152 1932 1815 1931 2045
8 2045 1931 2044 2153 1934 1818 1933 2046
8 2155 2047 1936 2048 2086 1976 1864 1977
8 2063 1949 1833 1950 2155 2047 1936 2048
8 2156 2048 1937 2049 2087 1977 1865 1978
8 2064 1950 1834 1951 2156 2048 1937 2049
8 2051 1939 1829 1944 2160 2053 1946 2058
8 2052 1940 2035 2144 2160 2053 1939 2051
8 2053 1942 1831 1946 2163 2057 1948 2060
8 2055 1943 1827 1940 2163 2057 1942 2053
8 2055 1943 2056 2164 1940 1827 1941 2054
8 2059 1947 1849 1966 2167 2060 1965 2078
8 2059 1947 2060 2167 1945 1830 1946 2058
8 2077 1964 2061 2168 1965 1848 1948 2060
8 2070 1963 1847 1959 2170 2062 1949 2063
8 2065 1959 1843 1952 2171 2063 1950 2064
8 2173 2072 1958 2066 2065 1959 1843 1952
8 1953 1842 1958 2066 2067 1957 2071 2174
8 2068 1956 2069 2175 1967 1859 1973 2079
8 2067 1957 2069 2175 1955 1841 1956 2068
8 1845 1957 2069 1960 1961 2071 2176 2073
8 2069 1960 2073 2176 1973 1862 1975 2083
8 2070 1963 2075 2177 1959 1847 1962 2072
8 1846 1958 2071 1961 1962 2072 2178 2074
8 2077 1964 1861 1971 2182 2076 1974 2082
8 2081 1971 2077 2183 1969 1857 1965 2078
8 2079 1973 2083 2184 1968 1860 1972 2080
8 2081 1971 1858 1970 2185 2082 1972 2080
8 2083 1975 2084 2186 1972 1863 1974 2082
8 2086 1976 1882 1987 2189 2085 1993 2095
8 2090 1987 2086 2190 1981 1875 1977 2087
8 2191 2094 1986 2088 2103 1998 1888 1997
8 2088 1986 2094 2191 1980 1877 1989 2089
8 1991 2091 2192 2097 1880 1982 2089 1989
8 2093 1988 2095 2193 1984 1876 1987 2090
8 1879 1983 2092 1990 1991 2091 2194 2098
8 1985 1878 1990 2092 2093 1988 2096 2195
8 2097 1996 1886 1989 2196 2099 1992 2094
8 2196 2099 1992 2094 2104 1999 1889 1998
8 1994 2096 1988 1883 2100 2197 2095 1993
8 2096 1994 1884 1990 2198 2101 1995 2098
8 1995 2098 2199 2102 1885 1991 2097 1996
8 2203 2104 1998 2103 2106 2001 1891 2000
8 2107 2002 2105 2204 2001 1892 1999 2104
8 2109 2004 2107 2206 2003 1894 2001 2106
8 2110 2005 2108 2207 2004 1895 2002 2107
8 2112 2007 2110 2209 2006 1897 2004 2109
8 2113 2008 2111 2210 2007 1898 2005 2110
8 2120 2011 2113 2212 2014 1901 2007 2112
8 2117 2009 2114 2213 2011 1899 2008 2113
8 2219 2116 2009 2117 2119 2010 1899 2011
8 2222 2118 2010 2119 2122 2012 1900 2013
8 2223 2119 2011 2120 2123 2013 1901 2014
8 2016 1902 2015 2125 2122 2012 2121 2225
8 2126 2016 2122 2226 2017 1903 2013 2123
8 2019 1905 2018 2128 2125 2015 2124 2228
8 2020 1906 2019 2129 2126 2016 2125 2229
8 2022 1908 2021 2131 2128 2018 2127 2231
8 2023 1909 2022 2132 2129 2019 2128 2232
8 2025 1911 2024 2134 2131 2021 2130 2234
8 2026 1912 2025 2135 2132 2022 2131 2235
8 1914 2028 2134 2024 2027 2136 2236 2133
8 2029 1915 2028 2137 2135 2025 2134 2237
8 2030 1918 2031 2138 2137 2028 2136 2238
8 2157 2050 2139 2240 2054 1941 2033 2140
8 2052 1940 2054 2161 2144 2035 2140 2242
8 2140 2033 2141 2243 2035 1923 2034 2143
8 2143 2034 2142 2246 2037 1924 2036 2146
8 2144 2035 2143 2247 2051 1939 2037 2147
8 2146 2036 2145 2249 2039 1925 2038 2149
8 2147 2037 2146 2250 2040 1926 2039 2150
8 2149 2038 2148 2251 2042 1927 2041 2151
8 2150 2039 2149 2252 2043 1928 2042 2152
8 2152 2042 2151 2253 2045 1931 2044 2153
8 2255 2154 2047 2155 2189 2085 1976 2086
8 2170 2062 1949 2063 2255 2154 2047 2155
8 2256 2155 2048 2156 2190 2086 1977 2087
8 2171 2063 1950 2064 2256 2155 2048 2156
8 2258 2159 2050 2157 2164 2056 1941 2054
8 2160 2053 1946 2058 2262 2163 2060 2167
8 2162 2055 1940 2052 2262 2163 2053 2160
8 2162 2055 2164 2263 2052 1940 2054 2161
8 2163 2057 1948 2060 2264 2165 2061 2168
8 2055 1943 2057 2163 2164 2056 2165 2264
8 2182 2076 2166 2268 2077 1964 2061 2168
8 2183 2077 2168 2269 2078 1965 2060 2167
8 2070 1963 2062 2170 2177 2075 2169 2271
8 2172 2070 1959 2065 2272 2170 2063 2171
8 2172 2070 2177 2273 2065 1959 2072 2173
8 2066 1958 2072 2173 2174 2071 2178 2274
8 2067 1957 2071 2174 2175 2069 2176 2275
8 2175 2069 2176 2275 2079 1973 2083 2184
8 2071 1961 2074 2178 2176 2073 2179 2276
8 2176 2073 2179 2276 2083 1975 2084 2186
8 2072 1962 2075 2177 2178 2074 2180 2277
8 2182 2076 1974 2082 2280 2181 2084 2186
8 2183 2077 1971 2081 2281 2182 2082 2185
8 2184 2083 2186 2282 2080 1972 2082 2185
8 2189 2085 1993 2095 2285 2188 2100 2197
8 2190 2086 1987 2090 2286 2189 2095 2193
8 2192 2097 1989 2089 2287 2196 2094 2191
8 2287 2196 2094 2191 2203 2104 1998 2103
8 2194 2098 1991 2091 2288 2199 2097 2192
8 2195 2096 2197 2289 2093 1988 2095 2193
8 2096 2195 2290 2198 1990 2092 2194 2098
8 2097 1996 2099 2196 2199 2102 2200 2291
8 2196 2099 1999 2104 2291 2200 2105 2204
8 2100 2197 2292 2201 1994 2096 2198 2101
8 1995 2098 2198 2101 2102 2199 2293 2202
8 2206 2107 2204 2296 2106 2001 2104 2203
8 2207 2108 2205 2297 2107 2002 2105 2204
8 2209 2110 2207 2299 2109 2004 2107 2206
8 2210 2111 2208 2300 2110 2005 2108 2207
8 2212 2113 2210 2302 2112 2007 2110 2209
8 2213 2114 2211 2303 2113 2008 2111 2210
8 2220 2117 2213 2305 2120 2011 2113 2212
8 2216 2115 2214 2306 2117 2009 2114 2213
8 2216 2115 2009 2117 2311 2217 2116 2219
8 2219 2116 2010 2119 2314 2218 2118 2222
8 2315 2219 2117 2220 2223 2119 2011 2120
8 2122 2012 2121 2225 2222 2118 2221 2317
8 2318 2222 2119 2223 2226 2122 2013 2123
8 2125 2015 2124 2228 2225 2121 2224 2320
8 2126 2016 2125 2229 2226 2122 2225 2321
8 2128 2018 2127 2231 2228 2124 2227 2323
8 2129 2019 2128 2232 2229 2125 2228 2324
8 2131 2021 2130 2234 2231 2127 2230 2326
8 2132 2022 2131 2235 2232 2128 2231 2327
8 2134 2024 2133 2236 2234 2130 2233 2328
8 2135 2025 2134 2237 2235 2131 2234 2329
8 2137 2028 2136 2238 2237 2134 2236 2330
8 2157 2050 2158 2259 2240 2139 2239 2332
8 2257 2157 2240 2334 2161 2054 2140 2242
8 2240 2139 2241 2335 2140 2033 2141 2243
8 2242 2140 2243 2337 2144 2035 2143 2247
8 2243 2141 2244 2338 2143 2034 2142 2246
8 2246 2142 2245 2341 2146 2036 2145 2249
8 2247 2143 2246 2342 2147 2037 2146 2250
8 2249 2145 2248 2343 2149 2038 2148 2251
8 2250 2146 2249 2344 2150 2039 2149 2252
8 2252 2149 2251 2345 2152 2042 2151 2253
8 2169 2271 2347 2254 2062 2170 2255 2154
8 2189 2085 2188 2285 2255 2154 2254 2347
8 2348 2255 2155 2256 2286 2189 2086 2190
8 2272 2170 2063 2171 2348 2255 2155 2256
8 2349 2258 2157 2257 2263 2164 2054 2161
8 2258 2159 2261 2351 2157 2050 2158 2259
8 2258 2159 2056 2164 2351 2261 2165 2264
8 2262 2163 2060 2167 2355 2264 2168 2269
8 2162 2055 2163 2262 2263 2164 2264 2355
8 2357 2266 2165 2264 2268 2166 2061 2168
8 2268 2166 2076 2182 2361 2267 2181 2280
8 2281 2182 2268 2362 2183 2077 2168 2269
8 2271 2169 2270 2364 2177 2075 2180 2277
8 2172 2070 2170 2272 2273 2177 2271 2365
8 2072 2173 2274 2178 2177 2273 2366 2277
8 2071 2174 2275 2176 2178 2274 2367 2276
8 2275 2176 2276 2367 2184 2083 2186 2282
8 2283 2187 2084 2186 2368 2278 2179 2276
8 2178 2074 2180 2277 2276 2179 2278 2368
8 2283 2187 2279 2370 2186 2084 2181 2280
8 2281 2182 2082 2185 2371 2280 2186 2282
8 2188 2285 2374 2284 2100 2197 2292 2201
8 2286 2189 2095 2193 2375 2285 2197 2289
8 2192 2097 2196 2287 2288 2199 2291 2376
8 2287 2196 2104 2203 2376 2291 2204 2296
8 2194 2098 2199 2288 2290 2198 2293 2377
8 2289 2197 2096 2195 2378 2292 2198 2290
8 2291 2200 2105 2204 2379 2294 2205 2297
8 2199 2102 2200 2291 2293 2202 2294 2379
8 2198 2101 2202 2293 2292 2201 2295 2380
8 2299 2207 2297 2383 2206 2107 2204 2296
8 2300 2208 2298 2384 2207 2108 2205 2297
8 2302 2210 2300 2386 2209 2110 2207 2299
8 2303 2211 2301 2387 2210 2111 2208 2300
8 2305 2213 2303 2389 2212 2113 2210 2302
8 2306 2214 2304 2390 2213 2114 2211 2303
8 2310 2216 2306 2392 2220 2117 2213 2305
8 2308 2215 2307 2393 2216 2115 2214 2306
8 2308 2215 2115 2216 2396 2309 2217 2311
8 2310 2216 2117 2220 2398 2311 2219 2315
8 2311 2217 2116 2219 2399 2312 2218 2314
8 2314 2218 2118 2222 2402 2313 2221 2317
8 2315 2219 2119 2223 2403 2314 2222 2318
8 2225 2121 2224 2320 2317 2221 2316 2405
8 2226 2122 2225 2321 2318 2222 2317 2406
8 2228 2124 2227 2323 2320 2224 2319 2408
8 2229 2125 2228 2324 2321 2225 2320 2409
8 2231 2127 2230 2326 2323 2227 2322 2411
8 2232 2128 2231 2327 2324 2228 2323 2412
8 2234 2130 2233 2328 2326 2230 2325 2413
8 2235 2131 2234 2329 2327 2231 2326 2414
8 2237 2134 2236 2330 2329 2234 2328 2415
8 2259 2158 2260 2352 2332 2239 2331 2417
8 2257 2157 2259 2350 2334 2240 2332 2419
8 2240 2139 2239 2332 2335 2241 2333 2420
8 2334 2240 2335 2422 2242 2140 2243 2337
8 2335 2241 2336 2423 2243 2141 2244 2338
8 2337 2243 2338 2425 2247 2143 2246 2342
8 2338 2244 2339 2426 2246 2142 2245 2341
8 2341 2245 2340 2428 2249 2145 2248 2343
8 2342 2246 2341 2429 2250 2146 2249 2344
8 2344 2249 2343 2430 2252 2149 2251 2345
8 2188 2285 2347 2254 2284 2374 2432 2346
8 2347 2254 2346 2432 2271 2169 2270 2364
8 2365 2271 2170 2272 2433 2347 2255 2348
8 2286 2189 2285 2375 2348 2255 2347 2433
8 2349 2258 2351 2435 2257 2157 2259 2350
8 2349 2258 2164 2263 2435 2351 2264 2355
8 2259 2158 2261 2351 2352 2260 2354 2437
8 2356 2265 2354 2437 2264 2165 2261 2351
8 2441 2357 2264 2355 2362 2268 2168 2269
8 2356 2265 2165 2264 2442 2358 2266 2357
8 2443 2359 2266 2357 2361 2267 2166 2268
8 2370 2279 2360 2446 2280 2181 2267 2361
8 2362 2268 2182 2281 2447 2361 2280 2371
8 2180 2277 2368 2278 2270 2364 2449 2363
8 2271 2365 2273 2177 2364 2450 2366 2277
8 2372 2283 2186 2282 2451 2368 2276 2367
8 2178 2274 2367 2276 2277 2366 2451 2368
8 2283 2187 2278 2368 2370 2279 2369 2452
8 2372 2283 2370 2453 2282 2186 2280 2371
8 2284 2374 2455 2373 2201 2292 2380 2295
8 2375 2285 2197 2289 2456 2374 2292 2378
8 2376 2291 2204 2296 2457 2379 2297 2383
8 2288 2199 2291 2376 2377 2293 2379 2457
8 2198 2290 2378 2292 2293 2377 2458 2380
8 2293 2202 2294 2379 2380 2295 2381 2459
8 2384 2298 2381 2459 2297 2205 2294 2379
8 2386 2300 2384 2463 2299 2207 2297 2383
8 2387 2301 2385 2464 2300 2208 2298 2384
8 2389 2303 2387 2466 2302 2210 2300 2386
8 2390 2304 2388 2467 2303 2211 2301 2387
8 2392 2306 2390 2469 2305 2213 2303 2389
8 2393 2307 2391 2470 2306 2214 2304 2390
8 2395 2308 2393 2472 2310 2216 2306 2392
8 2308 2215 2309 2396 2393 2307 2394 2473
8 2395 2308 2216 2310 2475 2396 2311 2398
8 2396 2309 2217 2311 2476 2397 2312 2399
8 2398 2311 2219 2315 2478 2399 2314 2403
8 2399 2312 2218 2314 2479 2400 2313 2402
8 2317 2221 2316 2405 2402 2313 2401 2482
8 2403 2314 2222 2318 2483 2402 2317 2406
8 2320 2224 2319 2408 2405 2316 2404 2485
8 2321 2225 2320 2409 2406 2317 2405 2486
8 2323 2227 2322 2411 2408 2319 2407 2488
8 2324 2228 2323 2412 2409 2320 2408 2489
8 2326 2230 2325 2413 2411 2322 2410 2490
8 2327 2231 2326 2414 2412 2323 2411 2491
8 2329 2234 2328 2415 2414 2326 2413 2492
8 2417 2331 2260 2352 2494 2416 2353 2438
8 2350 2259 2352 2436 2419 2332 2417 2496
8 2332 2239 2331 2417 2420 2333 2418 2497
8 2334 2240 2332 2419 2422 2335 2420 2499
8 2420 2333 2421 2500 2335 2241 2336 2423
8 2422 2335 2423 2502 2337 2243 2338 2425
8 2423 2336 2424 2503 2338 2244 2339 2426
8 2425 2338 2426 2505 2342 2246 2341 2429
8 2426 2339 2427 2506 2341 2245 2340 2428
8 2429 2341 2428 2507 2344 2249 2343 2430
8 2432 2346 2284 2374 2509 2431 2373 2455
8 2432 2346 2431 2509 2364 2270 2363 2449
8 2375 2285 2374 2456 2433 2347 2432 2510
8 2347 2433 2365 2271 2432 2510 2450 2364
8 2350 2259 2351 2435 2436 2352 2437 2514
8 2440 2356 2437 2514 2355 2264 2351 2435
8 2352 2260 2354 2437 2438 2353 2439 2516
8 2356 2265 2358 2442 2437 2354 2439 2516
8 2440 2356 2264 2355 2518 2442 2357 2441
8 2519 2443 2357 2441 2447 2361 2268 2362
8 2443 2359 2444 2520 2357 2266 2358 2442
8 2443 2359 2267 2361 2520 2444 2360 2446
8 2446 2360 2279 2370 2523 2445 2369 2452
8 2453 2370 2446 2524 2371 2280 2361 2447
8 2449 2363 2448 2525 2368 2278 2369 2452
8 2366 2277 2364 2450 2451 2368 2449 2526
8 2372 2283 2368 2451 2453 2370 2452 2527
8 2455 2373 2295 2380 2529 2454 2382 2460
8 2456 2374 2292 2378 2530 2455 2380 2458
8 2377 2293 2379 2457 2458 2380 2459 2531
8 2463 2384 2459 2531 2383 2297 2379 2457
8 2533 2461 2382 2460 2459 2381 2295 2380
8 2464 2385 2461 2533 2384 2298 2381 2459
8 2466 2387 2464 2537 2386 2300 2384 2463
8 2467 2388 2465 2538 2387 2301 2385 2464
8 2469 2390 2467 2540 2389 2303 2387 2466
8 2470 2391 2468 2541 2390 2304 2388 2467
8 2472 2393 2470 2543 2392 2306 2390 2469
8 2393 2307 2394 2473 2470 2391 2471 2544
8 2395 2308 2396 2475 2472 2393 2473 2546
8 2396 2309 2397 2476 2473 2394 2474 2547
8 2475 2396 2311 2398 2549 2476 2399 2478
8 2476 2397 2312 2399 2550 2477 2400 2479
8 2478 2399 2314 2403 2552 2479 2402 2483
8 2479 2400 2313 2402 2553 2480 2401 2482
8 2405 2316 2404 2485 2482 2401 2481 2556
8 2406 2317 2405 2486 2483 2402 2482 2557
8 2408 2319 2407 2488 2485 2404 2484 2559
8 2409 2320 2408 2489 2486 2405 2485 2560
8 2411 2322 2410 2490 2488 2407 2487 2561
8 2412 2323 2411 2491 2489 2408 2488 2562
8 2414 2326 2413 2492 2491 2411 2490 2563
8 2513 2434 2493 2565 2438 2353 2416 2494
8 2496 2417 2352 2436 2567 2494 2438 2515
8 2494 2416 2495 2568 2417 2331 2418 2497
8 2419 2332 2417 2496 2499 2420 2497 2570
8 2497 2418 2498 2571 2420 2333 2421 2500
8 2499 2420 2500 2573 2422 2335 2423 2502
8 2500 2421 2501 2574 2423 2336 2424 2503
8 2502 2423 2503 2576 2425 2338 2426 2505
8 2503 2424 2504 2577 2426 2339 2427 2506
8 2505 2426 2506 2578 2429 2341 2428 2507
8 2509 2431 2373 2455 2580 2508 2454 2529
8 2509 2431 2508 2580 2449 2363 2448 2525
8 2432 2510 2581 2509 2374 2456 2530 2455
8 2432 2510 2450 2364 2509 2581 2526 2449
8 2583 2511 2434 2513 2516 2439 2353 2438
8 2436 2352 2437 2514 2515 2438 2516 2588
8 2440 2356 2442 2518 2514 2437 2516 2588
8 2442 2358 2444 2520 2516 2439 2517 2589
8 2519 2443 2520 2591 2441 2357 2442 2518
8 2519 2443 2361 2447 2591 2520 2446 2524
8 2446 2360 2445 2523 2520 2444 2521 2592
8 2525 2448 2522 2593 2452 2369 2445 2523
8 2524 2446 2370 2453 2594 2523 2452 2527
8 2526 2449 2525 2595 2451 2368 2452 2527
8 2534 2462 2528 2597 2460 2382 2454 2529
8 2530 2455 2380 2458 2598 2529 2460 2532
8 2599 2533 2460 2532 2531 2459 2380 2458
8 2537 2464 2533 2599 2463 2384 2459 2531
8 2534 2462 2382 2460 2601 2535 2461 2533
8 2538 2465 2535 2601 2464 2385 2461 2533
8 2540 2467 2538 2604 2466 2387 2464 2537
8 2541 2468 2539 2605 2467 2388 2465 2538
8 2543 2470 2541 2607 2469 2390 2467 2540
8 2470 2391 2471 2544 2541 2468 2542 2608
8 2472 2393 2473 2546 2543 2470 2544 2610
8 2473 2394 2474 2547 2544 2471 2545 2611
8 2475 2396 2476 2549 2546 2473 2547 2613
8 2476 2397 2477 2550 2547 2474 2548 2614
8 2549 2476 2399 2478 2616 2550 2479 2552
8 2479 2400 2480 2553 2550 2477 2551 2617
8 2552 2479 2402 2483 2619 2553 2482 2557
8 2482 2401 2481 2556 2553 2480 2554 2620
8 2485 2404 2484 2559 2556 2481 2555 2623
8 2486 2405 2485 2560 2557 2482 2556 2624
8 2488 2407 2487 2561 2559 2484 2558 2625
8 2489 2408 2488 2562 2560 2485 2559 2626
8 2491 2411 2490 2563 2562 2488 2561 2627
8 2513 2434 2512 2585 2565 2493 2564 2630
8 2586 2513 2565 2632 2515 2438 2494 2567
8 2565 2493 2566 2633 2494 2416 2495 2568
8 2567 2494 2568 2635 2496 2417 2497 2570
8 2568 2495 2569 2636 2497 2418 2498 2571
8 2570 2497 2571 2638 2499 2420 2500 2573
8 2571 2498 2572 2639 2500 2421 2501 2574
8 2573 2500 2574 2641 2502 2423 2503 2576
8 2574 2501 2575 2642 2503 2424 2504 2577
8 2576 2503 2577 2643 2505 2426 2506 2578
8 2597 2528 2579 2645 2529 2454 2508 2580
8 2580 2508 2579 2645 2525 2448 2522 2593
8 2581 2509 2455 2530 2646 2580 2529 2598
8 2581 2509 2580 2646 2526 2449 2525 2595
8 2583 2511 2582 2648 2513 2434 2512 2585
8 2583 2511 2439 2516 2648 2582 2517 2589
8 2649 2583 2513 2586 2588 2516 2438 2515
8 2589 2517 2444 2520 2653 2587 2521 2592
8 2518 2442 2520 2591 2588 2516 2589 2654
8 2593 2522 2590 2655 2523 2445 2521 2592
8 2524 2446 2523 2594 2591 2520 2592 2656
8 2595 2525 2593 2657 2527 2452 2523 2594
8 2602 2536 2596 2659 2534 2462 2528 2597
8 2600 2534 2597 2660 2532 2460 2529 2598
8 2600 2534 2460 2532 2661 2601 2533 2599
8 2604 2538 2601 2661 2537 2464 2533 2599
8 2602 2536 2462 2534 2663 2603 2535 2601
8 2601 2535 2465 2538 2663 2603 2539 2605
8 2607 2541 2605 2665 2540 2467 2538 2604
8 2608 2542 2606 2666 2541 2468 2539 2605
8 2543 2470 2544 2610 2607 2541 2608 2668
8 2544 2471 2545 2611 2608 2542 2609 2669
8 2546 2473 2547 2613 2610 2544 2611 2671
8 2547 2474 2548 2614 2611 2545 2612 2672
8 2549 2476 2550 2616 2613 2547 2614 2674
8 2550 2477 2551 2617 2614 2548 2615 2675
8 2552 2479 2553 2619 2616 2550 2617 2677
8 2553 2480 2554 2620 2617 2551 2618 2678
8 2557 2482 2556 2624 2619 2553 2620 2680
8 2556 2481 2555 2623 2620 2554 2621 2681
8 2559 2484 2558 2625 2623 2555 2622 2683
8 2560 2485 2559 2626 2624 2556 2623 2684
8 2562 2488 2561 2627 2626 2559 2625 2685
8 2690 2629 2564 2630 2650 2584 2512 2585
8 2586 2513 2585 2651 2632 2565 2630 2691
8 2630 2564 2631 2692 2565 2493 2566 2633
8 2632 2565 2633 2694 2567 2494 2568 2635
8 2633 2566 2634 2695 2568 2495 2569 2636
8 2635 2568 2636 2697 2570 2497 2571 2638
8 2636 2569 2637 2698 2571 2498 2572 2639
8 2638 2571 2639 2700 2573 2500 2574 2641
8 2639 2572 2640 2701 2574 2501 2575 2642
8 2641 2574 2642 2702 2576 2503 2577 2643
8 2597 2528 2596 2659 2645 2579 2644 2704
8 2645 2579 2644 2704 2593 2522 2590 2655
8 2660 2597 2645 2705 2598 2529 2580 2646
8 2646 2580 2645 2705 2595 2525 2593 2657
8 2650 2584 2512 2585 2707 2647 2582 2648
8 2648 2582 2517 2589 2707 2647 2587 2653
8 2649 2583 2648 2708 2586 2513 2585 2651
8 2649 2583 2516 2588 2708 2648 2589 2654
8 2655 2590 2652 2710 2592 2521 2587 2653
8 2654 2589 2520 2591 2711 2653 2592 2656
8 2657 2593 2655 2712 2594 2523 2592 2656
8 2602 2536 2603 2663 2659 2596 2658 2714
8 2662 2602 2659 2715 2600 2534 2597 2660
8 2662 2602 2534 2600 2717 2663 2601 2661
8 2661 2601 2538 2604 2717 2663 2605 2665
8 2666 2606 2664 2718 2605 2539 2603 2663
8 2668 2608 2666 2720 2607 2541 2605 2665
8 2608 2542 2609 2669 2666 2606 2667 2721
8 2610 2544 2611 2671 2668 2608 2669 2723
8 2611 2545 2612 2672 2669 2609 2670 2724
8 2613 2547 2614 2674 2671 2611 2672 2726
8 2614 2548 2615 2675 2672 2612 2673 2727
8 2616 2550 2617 2677 2674 2614 2675 2729
8 2617 2551 2618 2678 2675 2615 2676 2730
8 2619 2553 2620 2680 2677 2617 2678 2732
8 2620 2554 2621 2681 2678 2618 2679 2733
8 2624 2556 2623 2684 2680 2620 2681 2735
8 2681 2621 2555 2623 2736 2682 2622 2683
8 2626 2559 2625 2685 2684 2623 2683 2737
8 2688 2628 2584 2650 2740 2686 2647 2707
8 2688 2628 2687 2742 2650 2584 2629 2690
8 2690 2629 2689 2745 2630 2564 2631 2692
8 2746 2690 2630 2691 2709 2650 2585 2651
8 2691 2630 2692 2747 2632 2565 2633 2694
8 2692 2631 2693 2748 2633 2566 2634 2695
8 2694 2633 2695 2750 2635 2568 2636 2697
8 2695 2634 2696 2751 2636 2569 2637 2698
8 2697 2636 2698 2753 2638 2571 2639 2700
8 2698 2637 2699 2754 2639 2572 2640 2701
8 2700 2639 2701 2755 2641 2574 2642 2702
8 2659 2596 2658 2714 2704 2644 2703 2757
8 2704 2644 2703 2757 2655 2590 2652 2710
8 2660 2597 2659 2715 2705 2645 2704 2758
8 2705 2645 2704 2758 2657 2593 2655 2712
8 2759 2706 2647 2707 2710 2652 2587 2653
8 2709 2650 2585 2651 2760 2707 2648 2708
8 2708 2648 2589 2654 2760 2707 2653 2711
8 2712 2655 2710 2761 2656 2592 2653 2711
8 2763 2713 2658 2714 2718 2664 2603 2663
8 2662 2602 2663 2717 2715 2659 2714 2764
8 2720 2666 2718 2767 2665 2605 2663 2717
8 2768 2719 2664 2718 2721 2667 2606 2666
8 2668 2608 2669 2723 2720 2666 2721 2770
8 2669 2609 2670 2724 2721 2667 2722 2771
8 2671 2611 2672 2726 2723 2669 2724 2773
8 2672 2612 2673 2727 2724 2670 2725 2774
8 2674 2614 2675 2729 2726 2672 2727 2776
8 2675 2615 2676 2730 2727 2673 2728 2777
8 2677 2617 2678 2732 2729 2675 2730 2779
8 2678 2618 2679 2733 2730 2676 2731 2780
8 2680 2620 2681 2735 2732 2678 2733 2782
8 2733 2679 2621 2681 2783 2734 2682 2736
8 2735 2681 2623 2684 2784 2736 2683 2737
8 2740 2686 2647 2707 2787 2738 2706 2759
8 2688 2628 2686 2740 2742 2687 2739 2789
8 2743 2688 2650 2709 2790 2740 2707 2760
8 2742 2687 2741 2792 2690 2629 2689 2745
8 2743 2688 2742 2793 2709 2650 2690 2746
8 2745 2689 2744 2795 2692 2631 2693 2748
8 2746 2690 2745 2796 2691 2630 2692 2747
8 2747 2692 2748 2797 2694 2633 2695 2750
8 2748 2693 2749 2798 2695 2634 2696 2751
8 2750 2695 2751 2800 2697 2636 2698 2753
8 2751 2696 2752 2801 2698 2637 2699 2754
8 2753 2698 2754 2802 2700 2639 2701 2755
8 2763 2713 2756 2804 2714 2658 2703 2757
8 2759 2706 2652 2710 2804 2756 2703 2757
8 2715 2659 2714 2764 2758 2704 2757 2805
8 2758 2704 2757 2805 2712 2655 2710 2761
8 2806 2759 2707 2760 2761 2710 2653 2711
8 2765 2716 2762 2808 2718 2664 2713 2763
8 2809 2763 2714 2764 2767 2718 2663 2717
8 2765 2716 2664 2718 2811 2766 2719 2768
8 2813 2768 2718 2767 2770 2721 2666 2720
8 2814 2769 2719 2768 2771 2722 2667 2721
8 2723 2669 2724 2773 2770 2721 2771 2816
8 2724 2670 2725 2774 2771 2722 2772 2817
8 2726 2672 2727 2776 2773 2724 2774 2819
8 2727 2673 2728 2777 2774 2725 2775 2820
8 2729 2675 2730 2779 2776 2727 2777 2822
8 2730 2676 2731 2780 2777 2728 2778 2823
8 2732 2678 2733 2782 2779 2730 2780 2825
8 2780 2731 2679 2733 2826 2781 2734 2783
8 2782 2733 2681 2735 2827 2783 2736 2784
8 2830 2785 2738 2787 2804 2756 2706 2759
8 2789 2739 2686 2740 2832 2786 2738 2787
8 2790 2740 2707 2760 2833 2787 2759 2806
8 2742 2687 2739 2789 2792 2741 2788 2835
8 2743 2688 2740 2790 2793 2742 2789 2836
8 2792 2741 2791 2838 2745 2689 2744 2795
8 2793 2742 2792 2839 2746 2690 2745 2796
8 2795 2744 2794 2841 2748 2693 2749 2798
8 2796 2745 2795 2842 2747 2692 2748 2797
8 2797 2748 2798 2843 2750 2695 2751 2800
8 2798 2749 2799 2844 2751 2696 2752 2801
8 2800 2751 2801 2845 2753 2698 2754 2802
8 2808 2762 2803 2847 2763 2713 2756 2804
8 2809 2763 2804 2848 2764 2714 2757 2805
8 2806 2759 2710 2761 2848 2804 2757 2805
8 2765 2716 2766 2811 2808 2762 2807 2850
8 2810 2765 2808 2851 2767 2718 2763 2809
8 2810 2765 2718 2767 2852 2811 2768 2813
8 2811 2766 2719 2768 2853 2812 2769 2814
8 2855 2814 2768 2813 2816 2771 2721 2770
8 2856 2815 2769 2814 2817 2772 2722 2771
8 2773 2724 2774 2819 2816 2771 2817 2858
8 2774 2725 2775 2820 2817 2772 2818 2859
8 2776 2727 2777 2822 2819 2774 2820 2861
8 2777 2728 2778 2823 2820 2775 2821 2862
8 2779 2730 2780 2825 2822 2777 2823 2864
8 2823 2778 2731 2780 2865 2824 2781 2826
8 2825 2780 2733 2782 2866 2826 2783 2827
8 2869 2828 2785 2830 2847 2803 2756 2804
8 2871 2829 2786 2832 2830 2785 2738 2787
8 2872 2830 2787 2833 2848 2804 2759 2806
8 2789 2739 2786 2832 2835 2788 2831 2874
8 2836 2789 2740 2790 2875 2832 2787 2833
8 2792 2741 2788 2835 2838 2791 2834 2877
8 2793 2742 2789 2836 2839 2792 2835 2878
8 2838 2791 2837 2880 2795 2744 2794 2841
8 2839 2792 2838 2881 2796 2745 2795 2842
8 2841 2794 2840 2882 2798 2749 2799 2844
8 2842 2795 2841 2883 2797 2748 2798 2843
8 2843 2798 2844 2884 2800 2751 2801 2845
8 2886 2846 2803 2847 2850 2807 2762 2808
8 2851 2808 2847 2887 2809 2763 2804 2848
8 2850 2807 2766 2811 2889 2849 2812 2853
8 2810 2765 2811 2852 2851 2808 2850 2890
8 2852 2811 2768 2813 2891 2853 2814 2855
8 2853 2812 2769 2814 2892 2854 2815 2856
8 2894 2856 2814 2855 2858 2817 2771 2816
8 2817 2772 2818 2859 2856 2815 2857 2895
8 2819 2774 2820 2861 2858 2817 2859 2897
8 2820 2775 2821 2862 2859 2818 2860 2898
8 2822 2777 2823 2864 2861 2820 2862 2900
8 2823 2778 2824 2865 2862 2821 2863 2901
8 2864 2823 2780 2825 2902 2865 2826 2866
8 2904 2867 2828 2869 2886 2846 2803 2847
8 2869 2828 2868 2906 2830 2785 2829 2871
8 2907 2869 2830 2872 2887 2847 2804 2848
8 2871 2829 2870 2909 2832 2786 2831 2874
8 2910 2871 2832 2875 2872 2830 2787 2833
8 2835 2788 2831 2874 2877 2834 2873 2912
8 2836 2789 2832 2875 2878 2835 2874 2913
8 2877 2834 2876 2915 2838 2791 2837 2880
8 2839 2792 2835 2878 2881 2838 2877 2916
8 2880 2837 2879 2917 2841 2794 2840 2882
8 2881 2838 2880 2918 2842 2795 2841 2883
8 2883 2841 2882 2919 2843 2798 2844 2884
8 2921 2885 2846 2886 2889 2849 2807 2850
8 2922 2886 2847 2887 2890 2850 2808 2851
8 2889 2849 2812 2853 2924 2888 2854 2892
8 2890 2850 2811 2852 2925 2889 2853 2891
8 2891 2853 2814 2855 2926 2892 2856 2894
8 2892 2854 2815 2856 2927 2893 2857 2895
8 2858 2817 2859 2897 2894 2856 2895 2929
8 2859 2818 2860 2898 2895 2857 2896 2930
8 2861 2820 2862 2900 2897 2859 2898 2932
8 2862 2821 2863 2901 2898 2860 2899 2933
8 2864 2823 2865 2902 2900 2862 2901 2934
8 2904 2867 2846 2886 2936 2903 2885 2921
8 2904 2867 2903 2936 2869 2828 2868 2906
8 2937 2904 2869 2907 2922 2886 2847 2887
8 2906 2868 2905 2939 2871 2829 2870 2909
8 2907 2869 2906 2940 2872 2830 2871 2910
8 2909 2870 2908 2942 2874 2831 2873 2912
8 2910 2871 2909 2943 2875 2832 2874 2913
8 2912 2873 2911 2945 2877 2834 2876 2915
8 2878 2835 2874 2913 2916 2877 2912 2946
8 2915 2876 2914 2947 2880 2837 2879 2917
8 2916 2877 2915 2948 2881 2838 2880 2918
8 2918 2880 2917 2949 2883 2841 2882 2919
8 2921 2885 2849 2889 2951 2920 2888 2924
8 2952 2921 2886 2922 2925 2889 2850 2890
8 2924 2888 2854 2892 2954 2923 2893 2927
8 2925 2889 2853 2891 2955 2924 2892 2926
8 2926 2892 2856 2894 2956 2927 2895 2929
8 2895 2857 2896 2930 2927 2893 2928 2957
8 2897 2859 2898 2932 2929 2895 2930 2959
8 2898 2860 2899 2933 2930 2896 2931 2960
8 2900 2862 2901 2934 2932 2898 2933 2961
8 2936 2903 2885 2921 2963 2935 2920 2951
8 2936 2903 2935 2963 2906 2868 2905 2939
8 2937 2904 2886 2922 2964 2936 2921 2952
8 2937 2904 2936 2964 2907 2869 2906 2940
8 2939 2905 2938 2966 2909 2870 2908 2942
8 2940 2906 2939 2967 2910 2871 2909 2943
8 2942 2908 2941 2969 2912 2873 2911 2945
8 2943 2909 2942 2970 2913 2874 2912 2946
8 2945 2911 2944 2971 2915 2876 2914 2947
8 2946 2912 2945 2972 2916 2877 2915 2948
8 2948 2915 2947 2973 2918 2880 2917 2949
8 2951 2920 2888 2924 2975 2950 2923 2954
8 2952 2921 2889 2925 2976 2951 2924 2955
8 2927 2893 2928 2957 2954 2923 2953 2978
8 2955 2924 2892 2926 2979 2954 2927 2956
8 2929 2895 2930 2959 2956 2927 2957 2980
8 2930 2896 2931 2960 2957 2928 2958 2981
8 2932 2898 2933 2961 2959 2930 2960 2982
8 2951 2920 2950 2975 2963 2935 2962 2984
8 2963 2935 2962 2984 2939 2905 2938 2966
8 2964 2936 2921 2952 2985 2963 2951 2976
8 2964 2936 2963 2985 2940 2906 2939 2967
8 2966 2938 2965 2987 2942 2908 2941 2969
8 2967 2939 2966 2988 2943 2909 2942 2970
8 2969 2941 2968 2989 2945 2911 2944 2971
8 2970 2942 2969 2990 2946 2912 2945 2972
8 2972 2945 2971 2991 2948 2915 2947 2973
8 2954 2923 2953 2978 2975 2950 2974 2993
8 2976 2951 2924 2955 2994 2975 2954 2979
8 2957 2928 2958 2981 2978 2953 2977 2995
8 2956 2927 2957 2980 2979 2954 2978 2996
8 2959 2930 2960 2982 2980 2957 2981 2997
8 2984 2962 2983 2999 2966 2938 2965 2987
8 2975 2950 2974 2993 2984 2962 2983 2999
8 2976 2951 2975 2994 2985 2963 2984 3000
8 2985 2963 2984 3000 2967 2939 2966 2988
8 2987 2965 2986 3001 2969 2941 2968 2989
8 2988 2966 2987 3002 2970 2942 2969 2990
8 2990 2969 2989 3003 2972 2945 2971 2991
8 2978 2953 2977 2995 2993 2974 2992 3004
8 2979 2954 2978 2996 2994 2975 2993 3005
8 2980 2957 2981 2997 2996 2978 2995 3006
8 2974 2993 2999 2983 2992 3004 3007 2998
8 2983 2999 2987 2965 2998 3007 3001 2986
8 3000 2984 2999 3008 2988 2966 2987 3002
8 2994 2975 2993 3005 3000 2984 2999 3008
8 3002 2987 3001 3009 2990 2969 2989 3003
8 2996 2978 2995 3006 3005 2993 3004 3010
8 3005 2993 3004 3010 3008 2999 3007 3011
8 3008 2999 3007 3011 3002 2987 3001 3009

CELL_TYPES 1910
12
12
12
12
12
12
12
12
12
12
12
12
12
12
12
12
12
12
12
12
12
12
12
12
12
12
12
12
12
12
12
12
12
12
12
12
12
12
12
12
12
12
12
12
12
12
12
12
12
12
12
12
12
12
12
12
12
12
12
12
12
12
12
12
12
12
12
12
12
12
12
12
12
12
12
12
12
12
12
12
12
12
12
12
12
12
12
12
12
12
12
12
12
12
12
12
12
12
12
12
12
12
12
12
12
12
12
12
12
12
12
12
12
12
12
12
12
12
12
12
12
12
12
12
12
12
12
12
12
12
12
12
12
12
12
12
12
12
12
12
12
12
12
12
12
12
12
12
12
12
12
12
12
12
12
12
12
12
12
12
12
12
12
12
12
12
12
12
12
12
12
12
12
12
12
12
12
12
12
12
12
12
12
12
12
12
12
12
12
12
12
12
12
12
12
12
12
12
12
12
12
12
12
12
12
12
12
12
12
12
12
12
12
12
12
12
12
12
12
12
12
12
12
12
12
12
12
12
12
12
12
12
12
12
12
12
12
12
12
12
12
12
12
12
12
12
12
12
12
12
12
12
12
12
12
12
12
12
12
12
12
12
12
12
12
12
12
12
12
12
12
12
12
12
12
12
12
12
12
12
12
12
12
12
12
12
12
12
12
12
12
12
12
12
12
12
12
12
12
12
12
12
12
12
12
12
12
12
12
12
12
12
12
12
12
12
12
12
12
12
12
12
12
12
12
12
12
12
12
12
12
12
12
12
12
12
12
12
12
12
12
12
12
12
12
12
12
12
12
12
12
12
12
12
12
12
12
12
12
12
12
12
12
12
12
12
12
12
12
12
12
12
12
12
12
12
12
12
12
12
12
12
12
12
12
12
12
12
12
12
12
12
12
12
12
12
12
12
12
12
12
12
12
12
12
12
12
12
12
12
12
12
12
12
12
12
12
12
12
12
12
12
12
12
12
12
12
12
12
12
12
12
12
12
12
12
12
12
12
12
12
12
12
12
12
12
12
12
12
12
12
12
12
12
12
12
12
12
12
12
12
12
12
12
12
12
12
12
12
12
12
12
12
12
12
12
12
12
12
12
12
12
12
12
12
12
12
12
12
12
12
12
12
12
12
12
12
12
12
12
12
12
12
12
12
12
12
12
12
12
12
12
12
12
12
12
12
12
12
12
12
12
12
12
12
12
12
12
12
12
12
12
12
12
12
12
12
12
12
12
12
12
12
12
12
12
12
12
12
12
12
12
12
12
12
12
12
12
12
12
12
12
12
12
12
12
12
12
12
12
12
12
12
12
12
12
12
12
12
12
12
12
12
12
12
12
12
12
12
12
12
12
12
12
12
12
12
12
12
12
12
12
12
12
12
12
12
12
12
12
12
12
12
12
12
12
12
12
12
12
12
12
12
12
12
12
12
12
12
12
12
12
12
12
12
12
12
12
12
12
12
12
12
12
12
12
12
12
12
12
12
12
12
12
12
12
12
12
12
12
12
12
12
12
12
12
12
12
12
12
12
12
12
12
12
12
12
12
12
12
12
12
12
12
12
12
12
12
12
12
12
12
12
12
12
12
12
12
12
12
12
12
12
12
12
12
12
12
12
12
12
12
12
12
12
12
12
12
12
12
12
12
12
12
12
12
12
12
12
12
12
12
12
12
12
12
12
12
12
12
12
12
12
12
12
12
12
12
12
12
12
12
12
12
12
12
12
12
12
12
12
12
12
12
12
12
12
12
12
12
12
12
12
12
12
12
12
12
12
12
12
12
12
12
12
12
12
12
12
12
12
12
12
12
12
12
12
12
12
12
12
12
12
12
12
12
12
12
12
12
12
12
12
12
12
12
12
12
12
12
12
12
12
12
12
12
12
12
12
12
12
12
12
12
12
12
12
12
12
12
12
12
12
12
12
12
12
12
12
12
12
12
12
12
12
12
12
12
12
12
12
12
12
12
12
12
12
12
12
12
12
12
12
12
12
12
12
12
12
12
12
12
12
12
12
12
12
12
12
12
12
12
12
12
12
12
12
12
12
12
12
12
12
12
12
12
12
12
12
12
12
12
12
12
12
12
12
12
12
12
12
12
12
12
12
12
12
12
12
12
12
12
12
12
12
12
12
12
12
12
12
12
12
12
12
12
12
12
12
12
12
12
12
12
12
12
12
12
12
12
12
12
12
12
12
12
12
12
12
12
12
12
12
12
12
12
12
12
12
12
12
12
12
12
12
12
12
12
12
12
12
12
12
12
12
12
12
12
12
12
12
12
12
12
12
12
12
12
12
12
12
12
12
12
12
12
12
12
12
12
12
12
12
12
12
12
12
12
12
12
12
12
12
12
12
12
12
12
12
12
12
12
12
12
12
12
12
12
12
12
12
12
12
12
12
12
12
12
12
12
12
12
12
12
12
12
12
12
12
12
12
12
12
12
12
12
12
12
12
12
12
12
12
12
12
12
12
12
12
12
12
12
12
12
12
12
12
12
12
12
12
12
12
12
12
12
12
12
12
12
12
12
12
12
12
12
12
12
12
12
12
12
12
12
12
12
12
12
12
12
12
12
12
12
12
12
12
12
12
12
12
12
12
12
12
12
12
12
12
12
12
12
12
12
12
12
12
12
12
12
12
12
12
12
12
12
12
12
12
12
12
12
12
12
12
12
12
12
12
12
12
12
12
12
12
12
12
12
12
12
12
12
12
12
12
12
12
12
12
12
12
12
12
12
12
12
12
12
12
12
12
12
12
12
12
12
12
12
12
12
12
12
12
12
12
12
12
12
12
12
12
12
12
12
12
12
12
12
12
12
12
12
12
12
12
12
12
12
12
12
12
12
12
12
12
12
12
12
12
12
12
12
12
12
12
12
12
12
12
12
12
12
12
12
12
12
12
12
12
12
12
12
12
12
12
12
12
12
12
12
12
12
12
12
12
12
12
12
12
12
12
12
12
12
12
12
12
12
12
12
12
12
12
12
12
12
12
12
12
12
12
12
12
12
12
12
12
12
12
12
12
12
12
12
12
12
12
12
12
12
12
12
12
12
12
12
12
12
12
12
12
12
12
12
12
12
12
12
12
12
12
12
12
12
12
12
12
12
12
12
12
12
12
12
12
12
12
12
12
12
12
12
12
12
12
12
12
12
12
12
12
12
12
12
12
12
12
12
12
12
12
12
12
12
12
12
12
12
12
12
12
12
12
12
12
12
12
12
12
12
12
12
12
12
12
12
12
12
12
12
12
12
12
12
12
12
12
12
12
12
12
12
12
12
12
12
12
12
12
12
12
12
12
12
12
12
12
12
12
12
12
12
12
12
12
12
12
12
12
12
12
12
12
12
12
12
12
12
12
12
12
12
12
12
12
12
12
12
12
12
12
12
12
12
12
12
12
12
12
12
12
12
12
12
12
12
12
12
12
12
12
12
12
12
12
12
12
12
12
12
12
12
12
12
12
12
12
12
12
12
12
12
12
12
12
12
12
12
12
12
12
12
12
12
12
12
12
12
12
12
12
12
12
12
12
12
12
12
12
12
12
12
12
12
12
12
12
12
12
12
12
12
12
12
12
12
12
12
12
12
12
12
12
12
12
12
12
12
12
12
12
12
12
12
12
12
12
12
12
12
12
12
12
12
12
12
12
12
12
12
12
12
12
12
12
12
12
12
12
12
12
12
12
12
12
12
12
12
12
12
12
12
12
12
12
12
12
12
12
12
12
12
12
12
12
12
12
12
12
12
12
12
12
12
12
12
12
12
12
12
12
12
12
12
12
12
12
12
12
12
12
12
12
12
12
12
12
12
12
12
12
12
12
12
12
12
12
12
12
12
12
12
12
12
12
12
12
12
12
12
12
12
12
12
12
12
12
12
12
12
12
12
12
12
12
12
12
12
12
12
12
12
12
12
12
12
12
12
12
12
12
12
12
12
12
12
12
12
12
12
12
12
12
12
12
12
12
12
12
12
12
12
12
12
12
12
12
12
12
12
12
12
12
12
12
12
12
12
12
12
12
12
12
12
12
12
12
12
12
12
12
12
12
12
12
12
12
12
12
12
12
12
12
12
12
12
12
12
12
12
12
12
12
12
12
12
12
12
12
12
12
12
12
12
12
12
12
12
12
12
12
12
12
12
12
12
12
12
12
12
12
12
12
12
12
12
12
12
12
12
12
12
12
12
12
12
12
12
12
12
12
12
12
12
12
12
12
12
12
12
12
12
12
12
12
12
12
12
12
12
12
12
12
12
12
12
12
12
12
12
12
12
12
12
12
12
12
12
12
12
12
12
12
12
12
12
12
12
12
12
12
12
12
12
12
12
12
12
12
12

POINT_DATA 3012
SCALARS Jp_lamdaP float 4
LOOKUP_TABLE default
1 1 1 1
1 1 1 1
1 1 1 1
0.999999 1 1 0.999999
1 1 1 1
1 1 1 1
0.999933 1 1 0.999933
1 1 1 1
1 1 1 1
1 1 1 1
1 1 1 1
0.999987 1 1 0.999987
0.999992 1 1 0.999992
0.999999 1 1 0.999999
1 1 1 1
0.999999 1 1 0.999999
1 1 1 1
1 1 1 1
0.999934 1 1 0.999934
1 1 1 1
0.999997 1 1 0.999997
1 1 1 1
0.999881 1 1 0.999881
0.999919 1 1 0.999919
1 1 1 1
0.99995 1 1 0.99995
0.999798 1 1 0.999798
1 1 1 1
1 1 1 1
1 1 1 1
1 1 1 1
0.99999 1 1 0.99999
1 1 1 1
1 1 1 1
0.999952 1 1 0.999952
1 1 1 1
0.999979 1 1 0.999979
0.999995 1 1 0.999995
0.99983 1 1 0.99983
1 1 1 1
1 1 1 1
0.999999 1 1 0.999999
1 1 1 1
0.999998 1 1 0.999998
0.99989 1 1 0.99989
1 1 1 1
0.999925 1 1 0.999925
1 1 1 1
1 1 1 1
1 1 1 1
0.999935 1 1 0.999935
0.999996 1 1 0.999996
0.999998 1 1 0.999998
1 1 1 1
1 1 1 1
0.999883 1 1 0.999883
0.99995 1 1 0.99995
0.99992 1 1 0.99992
0.999793 1 1 0.999793
1 1 1 1
0.999996 1 1 0.999996
0.999901 1 1 0.999901
0.999869 1 1 0.999869
0.999902 1 1 0.999902
0.99967 1 1 0.99967
0.999746 1 1 0.999746
1 1 1 1
0.999968 1 1 0.999968
0.999835 1 1 0.999835
0.999615 1 1 0.999615
1 1 1 1
1 1 1 1
1 1 1 1
0.999992 1 1 0.999992
1 1 1 1
1 1 1 1
0.999956 1 1 0.999956
1 1 1 1
0.999982 1 1 0.999982
0.999996 1 1 0.999996
0.999829 1 1 0.999829
1 1 1 1
1 1 1 1
0.999941 1 1 0.999941
0.999967 1 1 0.999967
0.999726 1 1 0.999726
0.999999 1 1 0.999999
0.999813 1 1 0.999813
0.999848 1 1 0.999848
0.999694 1 1 0.999694
1 1 1 1
1 1 1 1
1 1 1 1
1 1 1 1
1 1 1 1
0.999998 1 1 0.999998
0.999896 1 1 0.999896
1 1 1 1
0.999927 1 1 0.999927
1 1 1 1
0.999873 1 1 0.999873
0.999913 1 1 0.999913
0.999561 1 1 0.999561
0.999933 1 1 0.999933
0.999611 1 1 0.999611
0.999994 1 1 0.999994
0.999998 1 1 0.999998
1 1 1 1
1 1 1 1
0.999884 1 1 0.999884
0.999921 1 1 0.999921
0.999951 1 1 0.999951
0.999789 1 1 0.999789
1 1 1 1
0.999997 1 1 0.999997
0.999873 1 1 0.999873
0.999869 1 1 0.999869
1 1 1 1
0.99998 1 1 0.99998
0.999903 1 1 0.999903
0.999658 1 1 0.999658
0.999829 1 1 0.999829
0.999754 1 1 0.999754
0.999616 1 1 0.999616
0.99988 1 1 0.99988
0.999865 1 1 0.999865
0.99959 1 1 0.99959
0.999624 1 1 0.999624
0.999699 1 1 0.999699
0.999491 1 1 0.999491
1 1 1 1
0.999589 1 1 0.999589
0.999999 1 1 0.999999
0.999843 1 1 0.999843
0.999642 1 1 0.999642
0.999543 1 1 0.999543
1 1 1 1
0.999895 1 1 0.999895
1 1 1 1
1 1 1 1
0.999961 1 1 0.999961
1 1 1 1
0.999998 1 1 0.999998
0.999984 1 1 0.999984
0.999829 1 1 0.999829
1 1 1 1
1 1 1 1
0.999944 1 1 0.999944
0.999971 1 1 0.999971
0.999727 1 1 0.999727
1 1 1 1
0.999814 1 1 0.999814
0.999848 1 1 0.999848
0.99969 1 1 0.99969
1 1 1 1
1 1 1 1
0.999906 1 1 0.999906
0.999678 1 1 0.999678
0.999778 1 1 0.999778
0.999572 1 1 0.999572
0.999871 1 1 0.999871
0.999675 1 1 0.999675
0.999703 1 1 0.999703
0.999635 1 1 0.999635
1 1 1 1
1 1 1 1
1 1 1 1
1 1 1 1
1 1 1 1
1 1 1 1
1 1 1 1
0.999928 1 1 0.999928
0.999897 1 1 0.999897
1 1 1 1
1 1 1 1
0.999874 1 1 0.999874
0.999915 1 1 0.999915
0.999561 1 1 0.999561
0.999935 1 1 0.999935
0.999612 1 1 0.999612
0.999867 1 1 0.999867
0.999533 1 1 0.999533
0.999588 1 1 0.999588
0.99941 1 1 0.99941
0.99964 1 1 0.99964
0.999466 1 1 0.999466
1 1 1 1
0.999997 1 1 0.999997
0.999845 1 1 0.999845
0.99987 1 1 0.99987
1 1 1 1
0.999993 1 1 0.999993
0.999904 1 1 0.999904
0.999647 1 1 0.999647
0.999762 1 1 0.999762
0.999824 1 1 0.999824
0.999617 1 1 0.999617
0.999878 1 1 0.999878
0.999865 1 1 0.999865
0.999567 1 1 0.999567
0.999632 1 1 0.999632
1 1 1 1
0.999998 1 1 0.999998
0.999853 1 1 0.999853
0.9997 1 1 0.9997
0.999477 1 1 0.999477
0.99964 1 1 0.99964
0.999595 1 1 0.999595
0.999544 1 1 0.999544
1 1 1 1
0.999895 1 1 0.999895
0.999538 1 1 0.999538
0.999609 1 1 0.999609
0.999429 1 1 0.999429
0.999432 1 1 0.999432
0.999555 1 1 0.999555
0.999424 1 1 0.999424
1 1 1 1
0.999521 1 1 0.999521
0.999858 1 1 0.999858
0.999678 1 1 0.999678
0.999567 1 1 0.999567
0.999524 1 1 0.999524
0.999876 1 1 0.999876
0.999925 1 1 0.999925
0.999722 1 1 0.999722
0.999947 1 1 0.999947
1 1 1 1
1 1 1 1
0.999975 1 1 0.999975
0.999728 1 1 0.999728
1 1 1 1
0.999848 1 1 0.999848
0.999814 1 1 0.999814
0.999685 1 1 0.999685
1 1 1 1
1 1 1 1
0.999905 1 1 0.999905
0.999678 1 1 0.999678
0.999779 1 1 0.999779
0.999572 1 1 0.999572
0.999871 1 1 0.999871
0.99968 1 1 0.99968
0.999702 1 1 0.999702
0.999628 1 1 0.999628
1 1 1 1
0.999888 1 1 0.999888
0.999928 1 1 0.999928
0.999744 1 1 0.999744
0.999525 1 1 0.999525
0.999635 1 1 0.999635
0.999496 1 1 0.999496
0.999723 1 1 0.999723
0.999616 1 1 0.999616
0.999615 1 1 0.999615
0.999584 1 1 0.999584
0.99998 1 1 0.99998
1 1 1 1
1 1 1 1
1 1 1 1
1 1 1 1
1 1 1 1
1 1 1 1
1 1 1 1
1 1 1 1
0.999937 1 1 0.999937
0.999916 1 1 0.999916
0.999612 1 1 0.999612
0.999561 1 1 0.999561
0.999876 1 1 0.999876
1 1 1 1
0.999867 1 1 0.999867
0.999533 1 1 0.999533
0.999588 1 1 0.999588
0.99941 1 1 0.99941
0.999641 1 1 0.999641
0.999466 1 1 0.999466
0.999525 1 1 0.999525
0.999382 1 1 0.999382
0.999438 1 1 0.999438
0.999365 1 1 0.999365
0.999494 1 1 0.999494
0.999415 1 1 0.999415
0.999876 1 1 0.999876
0.999865 1 1 0.999865
0.999544 1 1 0.999544
0.999639 1 1 0.999639
1 1 1 1
0.999997 1 1 0.999997
0.999862 1 1 0.999862
0.999701 1 1 0.999701
0.999464 1 1 0.999464
0.999601 1 1 0.999601
0.999637 1 1 0.999637
0.999545 1 1 0.999545
1 1 1 1
0.999896 1 1 0.999896
0.99953 1 1 0.99953
0.999609 1 1 0.999609
0.999424 1 1 0.999424
0.999446 1 1 0.999446
1 1 1 1
0.999858 1 1 0.999858
0.999688 1 1 0.999688
0.999555 1 1 0.999555
0.99942 1 1 0.99942
0.999557 1 1 0.999557
0.999522 1 1 0.999522
0.999523 1 1 0.999523
0.999877 1 1 0.999877
0.999718 1 1 0.999718
0.999925 1 1 0.999925
0.999409 1 1 0.999409
0.999434 1 1 0.999434
0.999352 1 1 0.999352
0.999377 1 1 0.999377
0.999485 1 1 0.999485
0.999426 1 1 0.999426
0.999867 1 1 0.999867
0.99951 1 1 0.99951
0.999722 1 1 0.999722
0.99959 1 1 0.99959
0.999505 1 1 0.999505
0.999545 1 1 0.999545
0.999954 1 1 0.999954
0.999726 1 1 0.999726
0.99972 1 1 0.99972
0.999653 1 1 0.999653
0.999679 1 1 0.999679
1 1 1 1
1 1 1 1
0.999905 1 1 0.999905
0.99978 1 1 0.99978
0.999572 1 1 0.999572
0.999871 1 1 0.999871
0.999702 1 1 0.999702
0.999685 1 1 0.999685
0.999622 1 1 0.999622
1 1 1 1
0.999888 1 1 0.999888
0.999928 1 1 0.999928
0.999743 1 1 0.999743
0.999525 1 1 0.999525
0.999636 1 1 0.999636
0.999496 1 1 0.999496
0.999723 1 1 0.999723
0.999623 1 1 0.999623
0.999612 1 1 0.999612
0.999598 1 1 0.999598
1 1 1 1
0.999948 1 1 0.999948
0.999737 1 1 0.999737
0.99976 1 1 0.99976
0.99965 1 1 0.99965
0.999458 1 1 0.999458
0.999563 1 1 0.999563
0.999468 1 1 0.999468
0.999627 1 1 0.999627
0.999578 1 1 0.999578
0.999522 1 1 0.999522
0.999972 1 1 0.999972
0.999847 1 1 0.999847
0.999986 1 1 0.999986
0.999982 1 1 0.999982
1 1 1 1
1 1 1 1
1 1 1 1
1 1 1 1
1 1 1 1
1 1 1 1
1 1 1 1
1 1 1 1
1 1 1 1
1 1 1 1
1 1 1 1
0.999641 1 1 0.999641
0.999588 1 1 0.999588
0.999466 1 1 0.999466
0.99941 1 1 0.99941
0.999533 1 1 0.999533
0.999866 1 1 0.999866
0.999525 1 1 0.999525
0.999382 1 1 0.999382
0.999439 1 1 0.999439
0.999363 1 1 0.999363
0.999493 1 1 0.999493
0.999415 1 1 0.999415
0.999373 1 1 0.999373
0.999341 1 1 0.999341
0.999386 1 1 0.999386
0.999355 1 1 0.999355
0.999439 1 1 0.999439
0.999435 1 1 0.999435
0.999522 1 1 0.999522
0.999609 1 1 0.999609
0.999419 1 1 0.999419
0.999461 1 1 0.999461
1 1 1 1
0.999858 1 1 0.999858
0.999697 1 1 0.999697
0.999555 1 1 0.999555
0.999417 1 1 0.999417
0.999522 1 1 0.999522
0.999547 1 1 0.999547
0.999521 1 1 0.999521
0.999877 1 1 0.999877
0.999715 1 1 0.999715
0.999924 1 1 0.999924
0.999398 1 1 0.999398
0.999433 1 1 0.999433
0.999345 1 1 0.999345
0.99938 1 1 0.99938
0.999868 1 1 0.999868
0.999722 1 1 0.999722
0.9996 1 1 0.9996
0.999489 1 1 0.999489
0.999432 1 1 0.999432
0.999496 1 1 0.999496
0.999511 1 1 0.999511
0.999549 1 1 0.999549
0.999727 1 1 0.999727
0.999645 1 1 0.999645
0.999952 1 1 0.999952
0.999724 1 1 0.999724
0.99933 1 1 0.99933
0.999356 1 1 0.999356
0.999312 1 1 0.999312
0.999371 1 1 0.999371
0.999488 1 1 0.999488
0.999454 1 1 0.999454
0.999731 1 1 0.999731
0.999555 1 1 0.999555
0.99964 1 1 0.99964
0.999519 1 1 0.999519
0.999462 1 1 0.999462
0.99955 1 1 0.99955
0.99997 1 1 0.99997
0.99975 1 1 0.99975
0.999659 1 1 0.999659
0.999633 1 1 0.999633
0.999617 1 1 0.999617
1 1 1 1
0.999524 1 1 0.999524
0.999929 1 1 0.999929
0.999888 1 1 0.999888
0.999743 1 1 0.999743
0.999637 1 1 0.999637
0.999496 1 1 0.999496
0.999724 1 1 0.999724
0.99961 1 1 0.99961
0.999629 1 1 0.999629
0.999612 1 1 0.999612
1 1 1 1
0.999949 1 1 0.999949
0.999736 1 1 0.999736
0.999759 1 1 0.999759
0.999647 1 1 0.999647
0.999457 1 1 0.999457
0.999564 1 1 0.999564
0.999465 1 1 0.999465
0.999628 1 1 0.999628
0.999582 1 1 0.999582
0.999529 1 1 0.999529
0.999962 1 1 0.999962
0.999781 1 1 0.999781
0.999642 1 1 0.999642
0.999657 1 1 0.999657
0.999606 1 1 0.999606
0.999443 1 1 0.999443
0.999527 1 1 0.999527
0.999496 1 1 0.999496
0.999543 1 1 0.999543
0.999477 1 1 0.999477
0.999974 1 1 0.999974
0.999808 1 1 0.999808
0.999837 1 1 0.999837
0.999745 1 1 0.999745
0.999857 1 1 0.999857
0.99999 1 1 0.99999
0.999987 1 1 0.999987
1 1 1 1
0.999984 1 1 0.999984
1 1 1 1
1 1 1 1
1 1 1 1
1 1 1 1
1 1 1 1
1 1 1 1
1 1 1 1
1 1 1 1
1 1 1 1
1 1 1 1
1 1 1 1
0.999493 1 1 0.999493
0.999439 1 1 0.999439
0.999415 1 1 0.999415
0.999361 1 1 0.999361
0.999383 1 1 0.999383
0.999525 1 1 0.999525
0.999373 1 1 0.999373
0.999337 1 1 0.999337
0.999386 1 1 0.999386
0.999354 1 1 0.999354
0.999438 1 1 0.999438
0.999435 1 1 0.999435
0.999323 1 1 0.999323
0.999329 1 1 0.999329
0.999384 1 1 0.999384
0.999346 1 1 0.999346
0.999444 1 1 0.999444
0.999457 1 1 0.999457
0.999387 1 1 0.999387
0.999433 1 1 0.999433
0.999338 1 1 0.999338
0.999383 1 1 0.999383
0.999868 1 1 0.999868
0.999721 1 1 0.999721
0.999611 1 1 0.999611
0.999493 1 1 0.999493
0.999437 1 1 0.999437
0.999511 1 1 0.999511
0.999487 1 1 0.999487
0.999553 1 1 0.999553
0.999728 1 1 0.999728
0.999637 1 1 0.999637
0.99995 1 1 0.99995
0.999728 1 1 0.999728
0.999331 1 1 0.999331
0.999357 1 1 0.999357
0.999311 1 1 0.999311
0.999372 1 1 0.999372
0.999731 1 1 0.999731
0.999648 1 1 0.999648
0.999518 1 1 0.999518
0.999484 1 1 0.999484
0.999474 1 1 0.999474
0.999458 1 1 0.999458
0.999556 1 1 0.999556
0.999564 1 1 0.999564
0.999659 1 1 0.999659
0.999615 1 1 0.999615
0.999631 1 1 0.999631
0.999955 1 1 0.999955
0.999755 1 1 0.999755
0.999301 1 1 0.999301
0.999302 1 1 0.999302
0.999395 1 1 0.999395
0.999521 1 1 0.999521
0.999669 1 1 0.999669
0.999602 1 1 0.999602
0.999584 1 1 0.999584
0.999428 1 1 0.999428
0.999428 1 1 0.999428
0.999956 1 1 0.999956
0.999806 1 1 0.999806
0.999655 1 1 0.999655
0.999633 1 1 0.999633
0.999566 1 1 0.999566
0.999588 1 1 0.999588
1 1 1 1
0.99995 1 1 0.99995
0.999456 1 1 0.999456
0.999759 1 1 0.999759
0.999736 1 1 0.999736
0.999644 1 1 0.999644
0.999564 1 1 0.999564
0.999462 1 1 0.999462
0.999629 1 1 0.999629
0.999537 1 1 0.999537
0.999586 1 1 0.999586
0.999964 1 1 0.999964
0.999781 1 1 0.999781
0.999647 1 1 0.999647
0.999656 1 1 0.999656
0.9996 1 1 0.9996
0.999441 1 1 0.999441
0.999525 1 1 0.999525
0.9995 1 1 0.9995
0.999537 1 1 0.999537
0.999465 1 1 0.999465
0.999803 1 1 0.999803
0.999656 1 1 0.999656
0.99958 1 1 0.99958
0.999586 1 1 0.999586
0.999564 1 1 0.999564
0.999536 1 1 0.999536
0.999459 1 1 0.999459
0.999484 1 1 0.999484
0.999478 1 1 0.999478
0.999363 1 1 0.999363
0.999977 1 1 0.999977
0.999815 1 1 0.999815
0.999695 1 1 0.999695
0.999827 1 1 0.999827
0.999857 1 1 0.999857
0.99973 1 1 0.99973
0.999654 1 1 0.999654
0.999726 1 1 0.999726
0.999866 1 1 0.999866
0.999992 1 1 0.999992
0.999991 1 1 0.999991
1 1 1 1
0.999988 1 1 0.999988
1 1 1 1
1 1 1 1
1 1 1 1
1 1 1 1
1 1 1 1
1 1 1 1
1 1 1 1
1 1 1 1
1 1 1 1
1 1 1 1
1 1 1 1
0.999437 1 1 0.999437
0.999387 1 1 0.999387
0.999435 1 1 0.999435
0.999352 1 1 0.999352
0.999333 1 1 0.999333
0.999374 1 1 0.999374
0.999321 1 1 0.999321
0.999331 1 1 0.999331
0.999379 1 1 0.999379
0.99934 1 1 0.99934
0.999444 1 1 0.999444
0.99947 1 1 0.99947
0.999316 1 1 0.999316
0.999335 1 1 0.999335
0.999383 1 1 0.999383
0.999517 1 1 0.999517
0.999332 1 1 0.999332
0.999359 1 1 0.999359
0.99931 1 1 0.99931
0.999373 1 1 0.999373
0.999732 1 1 0.999732
0.999656 1 1 0.999656
0.999518 1 1 0.999518
0.99948 1 1 0.99948
0.999494 1 1 0.999494
0.999557 1 1 0.999557
0.999453 1 1 0.999453
0.999578 1 1 0.999578
0.99966 1 1 0.99966
0.999612 1 1 0.999612
0.999629 1 1 0.999629
0.999941 1 1 0.999941
0.999759 1 1 0.999759
0.9993 1 1 0.9993
0.999307 1 1 0.999307
0.999402 1 1 0.999402
0.999668 1 1 0.999668
0.999594 1 1 0.999594
0.999425 1 1 0.999425
0.999513 1 1 0.999513
0.999448 1 1 0.999448
0.999598 1 1 0.999598
0.999956 1 1 0.999956
0.999632 1 1 0.999632
0.999595 1 1 0.999595
0.999566 1 1 0.999566
0.999659 1 1 0.999659
0.999795 1 1 0.999795
0.999293 1 1 0.999293
0.999295 1 1 0.999295
0.999445 1 1 0.999445
0.999587 1 1 0.999587
0.99963 1 1 0.99963
0.999493 1 1 0.999493
0.999486 1 1 0.999486
0.999356 1 1 0.999356
0.999967 1 1 0.999967
0.999835 1 1 0.999835
0.999692 1 1 0.999692
0.999551 1 1 0.999551
0.999597 1 1 0.999597
0.999541 1 1 0.999541
0.999966 1 1 0.999966
0.999781 1 1 0.999781
0.99944 1 1 0.99944
0.999656 1 1 0.999656
0.999653 1 1 0.999653
0.999594 1 1 0.999594
0.999522 1 1 0.999522
0.999504 1 1 0.999504
0.999532 1 1 0.999532
0.999453 1 1 0.999453
0.999803 1 1 0.999803
0.99966 1 1 0.99966
0.999588 1 1 0.999588
0.999591 1 1 0.999591
0.999569 1 1 0.999569
0.999538 1 1 0.999538
0.999463 1 1 0.999463
0.999513 1 1 0.999513
0.999471 1 1 0.999471
0.99935 1 1 0.99935
0.999675 1 1 0.999675
0.99957 1 1 0.99957
0.99952 1 1 0.99952
0.999529 1 1 0.999529
0.999524 1 1 0.999524
0.999462 1 0.999908 0.999554
0.999354 1 1 0.999354
0.999981 1 1.00065 0.99933
0.999822 1 1 0.999822
0.999701 1 1 0.999701
0.999626 1 1 0.999626
0.999857 1 1 0.999857
0.999716 1 1 0.999716
0.999866 1 1 0.999866
0.999643 1 1 0.999643
0.999732 1 1 0.999732
0.999584 1 1 0.999584
0.999641 1 1 0.999641
0.999735 1 1 0.999735
0.999871 1 1 0.999871
0.999993 1 1 0.999993
0.999992 1 1 0.999992
1 1 1 1
0.999991 1 1 0.999991
1 1 1 1
1 1 1 1
1 1 1 1
1 1 1 1
1 1 1 1
1 1 1 1
1 1 1 1
1 1 1 1
1 1 1 1
1 1 1 1
1 1 1 1
0.999444 1 1 0.999444
0.999374 1 1 0.999374
0.999484 1 1 0.999484
0.999334 1 1 0.999334
0.999333 1 1 0.999333
0.999319 1 1 0.999319
0.999317 1 1 0.999317
0.999335 1 1 0.999335
0.999389 1 1 0.999389
0.999512 1 1 0.999512
0.999324 1 1 0.999324
0.999362 1 1 0.999362
0.999447 1 1 0.999447
0.9993 1 1 0.9993
0.999312 1 1 0.999312
0.999409 1 1 0.999409
0.999667 1 1 0.999667
0.999605 1 1 0.999605
0.999423 1 1 0.999423
0.999505 1 1 0.999505
0.999595 1 1 0.999595
0.999469 1 1 0.999469
0.999631 1 1 0.999631
0.999601 1 1 0.999601
0.999567 1 1 0.999567
0.999956 1 1 0.999956
0.999664 1 1 0.999664
0.999784 1 1 0.999784
0.999298 1 1 0.999298
0.999293 1 1 0.999293
0.999434 1 1 0.999434
0.999628 1 1 0.999628
0.999501 1 1 0.999501
0.9994 1 1.00004 0.999361
0.999594 1 1 0.999594
0.999491 1 1 0.999491
0.999978 1 1 0.999978
0.999836 1 1 0.999836
0.999596 1 1 0.999596
0.999545 1 1 0.999545
0.999557 1 1 0.999557
0.999684 1 1 0.999684
0.999315 1 1 0.999315
0.999312 1 1 0.999312
0.999536 1.00007 0.999905 0.999559
0.999646 1.00005 1 0.9996
0.999572 1 1 0.999572
1.00059 1 1.00127 0.99932
0.999412 1 1 0.999412
0.999996 1 1 0.999996
0.999894 1 1 0.999894
0.99984 1 1 0.99984
0.999701 1 1 0.999701
0.999583 1 1 0.999583
0.999489 1 1 0.999489
0.999575 1 1 0.999575
0.999515 1 1 0.999515
0.999803 1 1 0.999803
0.999664 1 1 0.999664
0.99954 1 1 0.99954
0.999596 1 1 0.999596
0.999597 1 1 0.999597
0.999573 1 1 0.999573
0.999466 1 1 0.999466
0.999543 1 1 0.999543
0.999463 1 1 0.999463
0.999337 1 1 0.999337
0.999672 1 1 0.999672
0.999577 1 1 0.999577
0.999528 1 1 0.999528
0.999535 1 1 0.999535
0.999521 1 1 0.999521
0.999522 1 0.999972 0.99955
0.999369 1 1 0.999369
0.999764 1 1.00044 0.999325
0.999604 1 1 0.999604
0.999441 1 1 0.999441
0.999518 1 1 0.999518
0.999454 1 1 0.999451
0.999853 1.00053 0.999767 0.999553
0.999336 1 1 0.999336
1.00039 1 1.00113 0.999265
0.999708 1 1 0.999708
0.999626 1 1 0.999626
0.999564 1 1 0.999564
0.999866 1 1 0.999866
0.999737 1 1 0.999737
0.999632 1 1 0.999632
0.999871 1 1 0.999871
0.999734 1 1 0.999734
0.999576 1 1 0.999576
0.999652 1 1 0.999652
0.999533 1 1 0.999533
0.999571 1 1 0.999571
0.999661 1 1 0.999661
0.999751 1 1 0.999751
0.999872 1 1 0.999872
0.999992 1 1 0.999992
0.999993 1 1 0.999993
1 1 1 1
0.999993 1 1 0.999993
1 1 1 1
1 1 1 1
1 1 1 1
1 1 1 1
1 1 1 1
0.999999 1 1 0.999999
1 1 1 1
1 1 1 1
1 1 1 1
1 1 1 1
1 1 1 1
1 1 1 1
0.999508 1 1 0.999508
0.999395 1 1 0.999395
0.999334 1 1 0.999334
0.999318 1 1 0.999318
0.999329 1 1 0.999329
0.999355 1 1 0.999355
0.999461 1 1 0.999461
0.999354 1 1 0.999354
0.999382 1 1 0.999382
0.999459 1 1 0.999459
0.999302 1 1 0.999302
0.999291 1 1 0.999291
0.999423 1 1 0.999423
0.999627 1 1 0.999627
0.999516 1 1 0.999516
0.999367 1 1 0.999367
0.999601 1 1 0.999601
0.99949 1 1 0.99949
0.999596 1 1 0.999596
0.999549 1 1 0.999549
0.999562 1 1 0.999562
0.999988 1 1 0.999988
0.999836 1 1 0.999836
0.999675 1 1 0.999675
0.999316 1 1 0.999316
0.999995 1 1 0.999995
0.999886 1 1 0.999886
0.999325 1.00001 1 0.999314
0.999567 1.00003 1 0.999539
0.99958 1 1 0.99958
0.999485 1 1.00009 0.999395
0.999901 1 1.00058 0.999326
0.999613 1.00002 1 0.999598
0.99986 1 1 0.99986
0.999701 1 1 0.999701
0.999573 1 1 0.999573
0.999533 1 1 0.999533
0.999477 1 1 0.999477
0.999585 1 1 0.999585
0.999331 1 1 0.999331
0.999631 1.00023 1 0.999397
0.99961 1.00034 0.999601 0.999673
0.999423 1 1 0.999423
0.999532 1 1 0.999532
1.00154 1 1.00225 0.999286
0.999893 1 1 0.999893
0.999878 1 1 0.999878
0.999791 1 1 0.999791
0.999707 1 1 0.999707
0.999613 1 1 0.999613
0.999496 1 1 0.999496
0.999424 1 1 0.999424
0.999534 1 1 0.999534
0.999669 1 1 0.999669
0.999585 1 1 0.999585
0.999518 1 1 0.999518
0.999546 1 1 0.999546
0.999541 1 1 0.999541
0.999536 1 1 0.999536
0.999383 1 1 0.999383
0.999602 1 1.00028 0.999319
0.999603 1 1 0.999603
0.999456 1 1 0.999456
0.999518 1 1 0.999518
0.999548 1 1.00011 0.999438
0.999637 1.00026 0.99983 0.999546
0.9994 1.00006 1 0.99934
1.00028 1 1.00102 0.999264
0.999534 1 1 0.999534
1.00385 1.00492 0.999451 0.999482
0.999472 1 1 0.999472
0.999977 1 1.00064 0.999338
0.997331 1.00056 0.997418 0.999351
1.00068 1 1.00146 0.99922
1.00511 1.00727 0.998525 0.999325
0.999627 1 1 0.999627
0.999564 1 1 0.999564
0.999521 1 1 0.999521
0.999871 1 1 0.999871
0.999733 1 1 0.999733
0.999663 1 1 0.999663
0.999567 1 1 0.999567
0.999872 1 1 0.999872
0.999744 1 1 0.999744
0.999531 1 1 0.999531
0.999661 1 1 0.999661
0.99958 1 1 0.99958
0.999511 1 1 0.999511
0.9996 1 1 0.9996
0.999669 1 1 0.999669
0.999735 1 1 0.999735
0.999852 1 1 0.999852
0.999768 1 1 0.999768
0.999852 1 1 0.999852
0.999992 1 1 0.999992
0.999992 1 1 0.999992
1 1 1 1
0.999992 1 1 0.999992
1 1 1 1
1 1 1 1
1 1 1 1
1 1 1 1
1 1 1 1
1 1 1 1
0.999998 1 1 0.999998
1 1 1 1
1 1 1 1
1 1 1 1
1 1 1 1
1 1 1 1
1 1 1 1
0.999476 1 1 0.999476
0.999348 1 1 0.999348
0.999334 1 1 0.999334
0.999354 1 1 0.999354
0.999389 1 1 0.999389
0.999465 1 1 0.999465
0.999448 1.00004 1 0.999403
1.00094 1.0061 0.995308 0.99957
1.00208 1.00282 0.999705 0.999555
0.99992 1 1 0.99992
0.999317 1 1 0.999317
0.999337 1.00002 1 0.999315
0.999518 1 1 0.999518
0.999587 1 1 0.999587
0.999782 1 1.0004 0.999378
0.999449 1 1.00012 0.999332
0.999596 1 1 0.999596
0.999572 1 1 0.999572
0.999551 1 1 0.999551
0.999464 1 1 0.999464
0.999993 1 1 0.999993
0.999587 1 1 0.999587
0.999881 1 1 0.999881
0.9997 1 1 0.9997
0.999879 1 1 0.999879
0.999326 1 1 0.999326
0.999902 1 1 0.999902
0.999877 1 1 0.999877
0.999775 1 1 0.999775
0.999712 1.00031 1 0.999401
0.999303 1.00019 0.999469 0.999646
0.999554 1 1.00002 0.999537
1.00165 1 1.00237 0.999279
0.99959 1 1.00016 0.999428
0.999719 1 1 0.999719
0.999609 1 1 0.999609
0.999527 1 1 0.999527
0.999475 1 1.00004 0.999436
0.999504 1 1 0.999504
0.999757 1.0004 1.00004 0.999316
0.997939 1.00102 0.997374 0.999543
0.999549 1.00033 0.999716 0.999501
1.00075 1 1.00145 0.999303
1.00102 1 1.00157 0.999454
0.999777 1 1 0.999777
0.999737 1 1 0.999737
0.999688 1 1 0.999688
0.999619 1 1 0.999619
0.999541 1 1 0.999541
0.999445 1 1 0.999445
1.00101 1 1.00161 0.999402
0.999603 1 1 0.999603
0.999519 1 1 0.999519
0.999472 1 1 0.999472
0.99939 1 0.999852 0.999539
0.999446 1.0001 1 0.999343
0.999623 1 1.0002 0.999425
1.00007 1 1.00081 0.999262
0.99954 1 1 0.99954
1.00389 1.00502 0.99938 0.999489
0.999473 1 1 0.999473
0.999992 1 1.00065 0.999337
0.998276 1.00089 0.998012 0.999374
1.00128 1 1.00207 0.999217
1.00677 1.0096 0.997854 0.99934
0.999493 1 1 0.999493
0.998983 1.00446 0.995189 0.999356
0.999436 1 1 0.999436
1.00312 1 1.00385 0.999277
1.00041 1.00011 1.00109 0.999222
0.960112 0.963823 0.999024 0.997122
1.00195 1.00115 1.00182 0.99898
0.986511 1.00951 0.977835 0.999371
0.934791 0.948396 0.986529 0.999114
0.945522 0.975147 0.970146 0.999457
0.999564 1 1 0.999564
0.999522 1 1 0.999522
0.999491 1 1 0.999491
0.999871 1 1 0.999871
0.999737 1 1 0.999737
0.999661 1 1 0.999661
0.99959 1 1 0.99959
0.999528 1 1 0.999528
0.999658 1 1 0.999658
0.99986 1 1 0.99986
0.999743 1 1 0.999743
0.999517 1 1 0.999517
0.999596 1 1 0.999596
0.999607 1 1 0.999607
0.999533 1 1 0.999533
0.99964 1 1 0.99964
0.999734 1 1 0.999734
0.999851 1 1 0.999851
0.999757 1 1 0.999757
0.999674 1 1 0.999674
0.999741 1 1 0.999741
0.999753 1 1 0.999753
0.999866 1 1 0.999866
0.999852 1 1 0.999852
0.999991 1 1 0.999991
0.999991 1 1 0.999991
1 1 1 1
0.999992 1 1 0.999992
1 1 1 1
1 1 1 1
1 1 1 1
1 1 1 1
1 1 1 1
1 1 1 1
1 1 1 1
1 1 1 1
0.999998 1 1 0.999998
1 1 1 1
1 1 1 1
1 1 1 1
1 1 1 1
1 1 1 1
0.999396 1 1 0.999396
0.999354 1 1 0.999354
0.999471 1 1 0.999471
1.00207 1.00599 0.996528 0.999575
0.999459 1.00006 1 0.999398
1.00192 1.00254 0.999863 0.999522
1.0009 1.00155 1.00004 0.999312
0.97941 0.984914 0.995707 0.998699
1.00171 1.00272 0.999342 0.999652
0.999925 1 1 0.999925
0.999919 1 1 0.999919
0.999808 1 1 0.999808
0.999821 1 1 0.999821
0.99932 1 1 0.99932
0.999792 1.00039 1 0.999404
0.9991 1 0.999481 0.999619
0.999541 1 1 0.999541
1.00125 1 1.00198 0.999271
0.999564 1 1.00013 0.999433
0.999519 1 1 0.999519
0.999547 1 1.0001 0.999448
0.999513 1 1 0.999513
0.999877 1 1 0.999877
0.999604 1 1 0.999604
0.99973 1 1 0.99973
0.999911 1 1 0.999911
0.999759 1 1 0.999759
0.999628 1.00026 1.00003 0.999331
0.999793 1 1 0.999793
0.999747 1 1 0.999747
0.999688 1 1 0.999688
0.998904 1.00105 0.998305 0.999546
0.999203 1.00016 0.999541 0.999502
1.00091 1 1.00146 0.999453
1.00088 1 1.00158 0.9993
0.999623 1 1 0.999623
0.999545 1 1 0.999545
1.00041 1 1.00101 0.999403
0.999487 1 1.00005 0.999437
1.00138 1.00204 0.999954 0.999386
0.998633 1.00143 0.997704 0.9995
1.00005 1.00007 1.00073 0.999252
1.00089 1 1.00151 0.999376
0.999657 1 1 0.999657
0.999641 1 1 0.999641
0.999506 1 1 0.999506
1.00147 1 1.00212 0.999344
0.957311 0.963719 0.996324 0.997016
0.999546 1 1 0.999546
0.999475 1 1 0.999475
1.00403 1.00507 0.999464 0.999496
0.999347 1.00119 0.998759 0.999398
1.00198 1 1.00276 0.999213
1.0001 1 1.00077 0.999337
1.00868 1.01177 0.997596 0.999356
0.999497 1 1 0.999497
0.999021 1.00487 0.994825 0.99935
0.999448 1 1.00001 0.999437
1.00287 1 1.00359 0.99928
0.999799 1.00018 1.00039 0.999234
0.959587 0.964303 0.99777 0.997333
0.996258 0.997698 1.00013 0.998428
0.990414 1.01134 0.979906 0.999392
0.940476 0.951112 0.989982 0.998824
0.939965 0.971012 0.968569 0.999439
0.999492 1 1 0.999492
0.945837 0.952947 0.994029 0.9985
0.957966 0.97436 0.983628 0.99954
0.98139 1.00142 0.980656 0.99933
1.00162 1 1.0022 0.99942
1.00853 1 1.00923 0.999303
0.998659 1.01017 0.989222 0.999378
0.971488 0.971276 1.00332 0.996912
1.00258 1.00454 0.999739 0.998312
0.937179 0.956136 0.981124 0.999031
0.984296 1.00502 0.979721 0.999652
0.999524 1 1 0.999524
0.999492 1 1 0.999492
0.99947 1 1 0.99947
0.999869 1 1 0.999869
0.999751 1 1 0.999751
0.999647 1 1 0.999647
0.999593 1 1 0.999593
0.999523 1 1 0.999523
0.999851 1 1 0.999851
0.999607 1 1 0.999607
0.999652 1 1 0.999652
0.999743 1 1 0.999743
0.999523 1 1 0.999523
0.99957 1 1 0.99957
0.99968 1 1.0002 0.999483
0.999653 1 1 0.999653
0.999752 1 1 0.999752
0.999757 1 1 0.999757
0.999662 1 1 0.999662
0.999664 1 1 0.999664
0.999648 1 1 0.999648
0.999602 1 1 0.999602
0.9996 1 1 0.9996
0.999722 1 1 0.999722
0.999741 1 1 0.999741
0.999859 1 1 0.999859
0.999738 1 1 0.999738
0.999858 1 1 0.999858
0.99999 1 1 0.99999
0.999852 1 1 0.999852
0.999991 1 1 0.999991
1 1 1 1
0.999991 1 1 0.999991
1 1 1 1
1 1 1 1
1 1 1 1
1 1 1 1
1 1 1 1
0.999922 1 1 0.999922
1 1 1 1
1 1 1 1
1 1 1 1
1 1 1 1
1 1 1 1
1 1 1 1
1 1 1 1
1 1 1 1
1 1 1 1
1.0032 1.00623 0.997405 0.999579
0.999468 1.00008 1 0.999393
1.00171 1.00222 1 0.999489
0.980752 0.98446 0.997186 0.999045
1.00193 1.00252 0.999752 0.999658
1.00098 1.00165 1.00003 0.999296
1.0031 1.00212 1.00159 0.999379
0.986764 0.986526 1.00136 0.998879
0.963557 0.967083 0.999912 0.996442
0.929779 0.948766 0.981584 0.998373
0.940708 0.966916 0.973419 0.999462
0.999804 1 1 0.999804
0.999925 1 1 0.999925
0.999919 1 1 0.999919
0.999803 1 1 0.999803
0.999729 1 1 0.999729
0.999747 1 1 0.999747
0.999807 1 1 0.999807
0.999814 1 1 0.999814
0.999502 1.00013 1.00003 0.999346
0.999796 1.00112 0.999126 0.999549
0.998819 1 0.999317 0.999502
1.00096 1 1.00151 0.999452
1.00142 1 1.00213 0.999297
0.999849 1 1.00045 0.999403
0.999506 1 1.00008 0.999429
0.999548 1 1 0.999548
0.999757 1 1 0.999757
0.999627 1 1 0.999627
0.999809 1 1 0.999809
0.999688 1 1 0.999688
1.00108 1.00225 0.999465 0.99937
0.999663 1 1 0.999663
0.999643 1 1 0.999643
0.997931 1.00115 0.997283 0.999497
0.999716 1.00004 1.0004 0.999276
1.00138 1 1.00202 0.999357
0.999502 1 1 0.999502
1.00144 1 1.00209 0.999348
0.993046 1.0068 0.98698 0.999352
1.00227 1.00055 1.00244 0.99929
1.00031 1 1.00103 0.999277
1.00441 1 1.0051 0.999312
0.999592 1 1 0.999592
0.999537 1 1 0.999537
0.999941 1 1.00054 0.999397
0.943788 0.956148 0.988163 0.998897
0.962202 0.965575 0.999358 0.997147
0.999502 1 1 0.999502
0.999439 1 1 0.999439
0.999085 1.00549 0.99428 0.999343
0.999059 1.00029 0.999523 0.999246
1.00239 1 1.00311 0.999284
0.960211 0.964993 0.998618 0.996422
0.996672 0.998094 0.999533 0.999041
0.99463 1.0136 0.981858 0.999413
0.935243 0.950531 0.985421 0.998473
0.933639 0.966479 0.966581 0.999421
0.999491 1 1 0.999491
0.940839 0.954864 0.986327 0.99897
0.959589 0.972523 0.987137 0.999557
0.98412 1.00159 0.983223 0.999322
1.00083 1 1.00141 0.999423
1.00778 1 1.00847 0.999315
0.993778 1.0076 0.986914 0.999358
0.972676 0.972998 1.00303 0.996647
0.99789 1.00001 0.998973 0.998907
0.938705 0.956533 0.982911 0.998423
0.978148 1.00286 0.975717 0.999627
0.999465 1 1 0.999465
0.97698 0.979507 0.997732 0.999687
1.01533 1.01765 0.997914 0.999812
1.00012 1 1.00072 0.999404
1.00662 1 1.0071 0.99952
1.0071 1.00361 1.00384 0.999636
0.993357 0.997373 0.9966 0.999372
0.976872 0.974258 1.00592 0.996782
0.955899 0.976481 0.9805 0.998392
1.00103 1.0186 0.983024 0.999722
0.999493 1 1 0.999493
0.999465 1 1 0.999465
0.999878 1 1.00042 0.999457
0.999851 1 1 0.999851
0.999752 1 1 0.999752
0.999664 1 1 0.999664
0.999606 1 1 0.999606
0.999513 1 1 0.999513
0.999752 1 1 0.999752
0.999578 1 1 0.999578
0.999653 1 1 0.999653
0.999722 1 1.00024 0.999478
1 1 1.00055 0.99945
0.999636 1 1.00009 0.999549
0.999658 1 1 0.999658
0.999757 1 1 0.999757
0.99965 1 1 0.99965
0.999664 1 1 0.999664
0.999648 1 1 0.999648
0.9996 1 1 0.9996
0.999624 1 1 0.999624
0.999595 1 1 0.999595
0.999562 1 1 0.999562
0.999546 1 1 0.999546
0.999564 1 1 0.999564
0.999592 1 1 0.999592
0.999601 1 1 0.999601
0.999699 1 1 0.999699
0.999721 1 1 0.999721
0.999846 1 1 0.999846
0.999741 1 1 0.999741
0.999859 1 1 0.999859
0.999987 1 1 0.999987
0.99985 1 1 0.99985
0.999989 1 1 0.999989
1 1 1 1
0.99999 1 1 0.99999
1 1 1 1
1 1 1 1
1 1 1 1
1 1 1 1
1 1 1 1
0.999928 1 1 0.999928
1 1 1 1
0.999922 1 1 0.999922
1 1 1 1
1 1 1 1
1 1 1 1
1 1 1 1
1 1 1 1
1 1 1 1
1 1 1 1
1 1 1 1
0.939678 0.951836 0.988152 0.999064
0.962584 0.97486 0.987761 0.999642
0.983449 0.98512 0.998979 0.999324
1.00201 1.00236 0.999984 0.999662
1.00108 1.00178 1.00003 0.999279
0.986292 0.985026 1.00176 0.999523
1.00239 1.0022 1.0008 0.999389
0.966904 0.96931 1.0004 0.997115
0.936455 0.949962 0.986702 0.999067
0.937722 0.96748 0.969776 0.999448
0.999735 0.996133 1.00401 0.999606
0.972842 0.972805 1.00301 0.997039
0.935901 0.955365 0.98058 0.999028
0.977343 0.999741 0.978023 0.999563
0.9997 1 1 0.9997
0.999811 1 1 0.999811
0.999925 1 1 0.999925
0.999799 1 1 0.999799
0.999737 1 1 0.999737
0.999715 1 1 0.999715
0.99975 1 1 0.99975
0.999765 1 1 0.999765
0.999798 1 1 0.999798
0.999807 1 1 0.999807
1.00071 1.00233 0.999025 0.999354
0.997464 1.00091 0.997063 0.999494
0.999433 1 1.00013 0.999301
1.00164 1 1.0023 0.999337
1.00133 1 1.00198 0.999351
0.999498 1 1 0.999498
0.999645 1 1 0.999645
0.999669 1 1 0.999669
0.995389 1.00594 0.990181 0.999324
0.999587 1 1 0.999587
0.999526 1 1 0.999526
1.00049 1.00042 1.0008 0.999272
1.00063 1 1.00133 0.999301
1.00346 1 1.00416 0.9993
1.00051 1 1.00112 0.999389
0.993068 1.01264 0.981472 0.999183
1.00818 1 1.00887 0.99932
1.00406 1 1.00476 0.999306
0.999582 1 1 0.999582
0.999512 1 1 0.999512
0.999428 1 1 0.999428
0.977466 0.981347 0.996434 0.99961
0.945393 0.955202 0.991311 0.998406
0.959902 0.965399 0.997294 0.997004
0.99949 1 1 0.99949
1.00018 1 1.00075 0.999427
0.98687 1.00166 0.985913 0.999314
1.00724 1 1.00792 0.999327
0.937845 0.953228 0.985441 0.998398
0.970533 0.97207 1.00084 0.997577
0.999337 1.00097 1.00001 0.998359
0.989421 1.00518 0.984967 0.999345
0.941869 0.956544 0.985543 0.999102
0.961481 0.974418 0.987198 0.999519
0.970476 0.996845 0.973961 0.999575
0.999463 1 1 0.999463
0.97353 0.978824 0.994948 0.999641
1.0148 1.01721 0.997815 0.999813
0.999891 1 1.00048 0.999411
1.00684 1 1.00733 0.999522
1.00881 1.00315 1.00639 0.999249
0.99365 0.997308 0.99778 0.998549
0.975678 0.975623 1.00337 0.996698
0.962961 0.979454 0.983979 0.999168
0.995512 1.01402 0.982073 0.999674
0.999796 1 1.00021 0.999587
1.01967 1.02002 0.999791 0.999869
1.02171 1.02449 0.997399 0.999888
1.00797 1 1.00824 0.999726
0.997388 0.992761 1.00493 0.999736
0.983089 0.980843 1.00553 0.996782
0.979663 0.994726 0.985645 0.999201
0.996721 1.01571 0.981648 0.999655
0.999459 1 1 0.999459
0.999824 1 1.00036 0.999469
1.0008 1 1.0013 0.999502
0.999752 1 1 0.999752
0.999652 1 1 0.999652
0.999586 1 1 0.999586
0.999753 1 1.00028 0.999472
0.999658 1 1 0.999658
0.999581 1 1.00003 0.99955
1.00038 1 1.00093 0.999449
1.00035 1 1.00086 0.999489
0.99968 1 1.00021 0.999467
0.999583 1 1 0.999583
0.999664 1 1 0.999664
0.999647 1 1 0.999647
0.999598 1 1 0.999598
0.999596 1 1 0.999596
0.999624 1 1 0.999624
0.999566 1 1 0.999566
0.999543 1 1 0.999543
0.999537 1 1 0.999537
0.999516 1 1 0.999516
0.999547 1 1 0.999547
0.999541 1 1 0.999541
0.999524 1 1 0.999524
0.999628 1 1 0.999628
0.999589 1 1 0.999589
0.9996 1 1 0.9996
0.99967 1 1 0.99967
0.999602 1 1 0.999602
0.999699 1 1 0.999699
0.999827 1 1 0.999827
0.999721 1 1 0.999721
0.999846 1 1 0.999846
0.999984 1 1 0.999984
0.999858 1 1 0.999858
0.999986 1 1 0.999986
1 1 1 1
0.999988 1 1 0.999988
1 1 1 1
1 1 1 1
1 1 1 1
1 1 1 1
1 1 1 1
0.999891 1 1 0.999891
1 1 1 1
0.999912 1 1 0.999912
1 1 1 1
1 1 1 1
0.999922 1 1 0.999922
1 1 1 1
1 1 1 1
1 1 1 1
1 1 1 1
1 1 1 1
1 1 1 1
0.977204 0.979817 0.997619 0.999713
0.941895 0.952837 0.98979 0.998714
1.01313 1.01784 0.995556 0.999813
0.959361 0.97203 0.987344 0.999618
0.982926 0.983685 1.00041 0.998816
1.00179 1.00235 1.00004 0.9994
0.967265 0.969125 1.00027 0.997813
0.933827 0.950336 0.984197 0.998406
0.935113 0.968244 0.966328 0.999435
0.996791 0.997568 0.999877 0.999344
0.971988 0.970836 1.00429 0.996909
0.938125 0.958692 0.980117 0.998398
0.977021 1.00039 0.97706 0.99957
0.997969 1.00424 0.994259 0.999498
0.973459 0.971597 1.00517 0.996766
0.965282 0.982326 0.983503 0.999133
0.998515 1.0171 0.982032 0.999693
0.99964 1 1 0.99964
0.99971 1 1 0.99971
0.999818 1 1 0.999818
0.999745 1 1 0.999745
0.999659 1 1 0.999659
0.999722 1 1 0.999722
0.999752 1 1 0.999752
0.999753 1 1 0.999753
0.999774 1 1 0.999774
0.999788 1 1 0.999788
0.997869 1.00542 0.993186 0.999296
0.998618 1.00022 0.999148 0.999255
1.00092 1 1.00159 0.999325
1.00278 1 1.00349 0.999289
1.00114 1 1.00176 0.99938
0.999514 1 1 0.999514
0.999583 1 1 0.999583
0.999584 1 1 0.999584
0.993564 1.01028 0.984245 0.999192
0.999518 1 1 0.999518
0.999515 1 1.00009 0.999425
1.00778 1 1.00849 0.999299
1.00392 1 1.00462 0.999307
0.995339 1.01062 0.985608 0.999262
1.01733 1 1.01794 0.999404
1.00015 1 1.00078 0.99937
0.999528 1 1 0.999528
0.999432 1 1 0.999432
1.02004 1.0204 0.999768 0.999886
0.978255 0.981047 0.997484 0.999669
0.944797 0.955838 0.989413 0.999026
0.999461 1 1 0.999461
1.00687 1 1.00735 0.999523
0.999292 1 0.999874 0.999418
0.978094 0.98057 0.997771 0.999703
0.975429 0.97344 1.0054 0.996664
0.994779 0.996921 0.998595 0.999255
1.00913 1.002 1.00829 0.998838
0.9576 0.975887 0.982839 0.998395
1.0145 1.01702 0.997703 0.999814
0.995054 1.01274 0.982858 0.999675
0.999734 1 1.00014 0.999599
1.02003 1.02023 0.999921 0.999884
1.02314 1.02624 0.997088 0.999889
1.00859 0.999985 1.00898 0.999624
0.998285 0.994655 1.00418 0.999476
0.986017 0.982874 1.00653 0.996688
0.999528 1.01866 0.981511 0.999699
0.974359 0.989852 0.985476 0.998855
0.999975 1 1.00026 0.999712
1.01914 1.02087 0.998346 0.99996
1.02445 1.02717 0.997446 0.999905
0.999567 1.016 0.984131 0.999695
1.00639 0.994736 1.01185 0.999871
0.982768 0.980928 1.00487 0.997023
0.969879 0.98744 0.983112 0.999088
0.999749 1 1.00027 0.999481
1.00056 1 1.00109 0.99947
1.00313 1 1.00355 0.999583
0.999658 1 1 0.999658
0.999551 1 1 0.999551
1.00082 1 1.00138 0.999449
0.999586 1 1 0.999586
0.999791 1 1.00033 0.999466
1.00073 1 1.00126 0.999469
0.999881 1 1.00035 0.999527
0.999501 1 1 0.999501
0.999598 1 1 0.999598
0.999624 1 1 0.999624
0.99957 1 1 0.99957
0.999538 1 1 0.999538
0.999545 1 1 0.999545
0.999514 1 1 0.999514
0.999537 1 1 0.999537
0.999732 1 1.0003 0.999432
0.999549 1 1 0.999549
0.999539 1 1 0.999539
0.999447 1 1 0.999447
0.999539 1 1 0.999539
0.999623 1 1 0.999623
0.999526 1 1 0.999526
0.999678 1 1 0.999678
0.999622 1 1 0.999622
0.999615 1 1 0.999615
0.999609 1 1 0.999609
0.999678 1 1 0.999678
0.999806 1 1 0.999806
0.999699 1 1 0.999699
0.999827 1 1 0.999827
0.999979 1 1 0.999979
0.999845 1 1 0.999845
0.999983 1 1 0.999983
1 1 1 1
0.999986 1 1 0.999986
1 1 1 1
1 1 1 1
1 1 1 1
1 1 1 1
1 1 1 1
0.999845 1 1 0.999845
0.999978 1 1 0.999978
0.99989 1 1 0.99989
1 1 1 1
0.999991 1 1 0.999991
0.999897 1 1 0.999897
1 1 1 1
1 1 1 1
1 1 1 1
1 1 1 1
1 1 1 1
1 1 1 1
1.01891 1.01938 0.999662 0.999878
0.972206 0.978547 0.993915 0.999603
0.944617 0.952881 0.992854 0.998463
0.999715 1 1 0.999715
1.0248 1.02754 0.997425 0.99991
1.01442 1.01822 0.996449 0.999814
0.956129 0.972645 0.983479 0.999533
0.994131 0.998539 0.996529 0.999053
0.97382 0.971501 1.00542 0.996988
0.941861 0.961311 0.980675 0.999075
0.975563 0.997793 0.978181 0.999529
0.997635 1.00777 0.99117 0.998758
0.974658 0.972602 1.0053 0.996833
0.964327 0.982209 0.982967 0.998806
0.995623 1.01586 0.980413 0.999655
0.985269 0.999345 0.98734 0.998556
0.978119 0.976236 1.00583 0.996121
0.97492 0.991871 0.984404 0.998483
0.997612 1.01779 0.980532 0.999638
0.999579 1 1 0.999579
0.999633 1 1 0.999633
0.99972 1 1 0.99972
0.999644 1 1 0.999644
0.99967 1 1 0.99967
0.99973 1 1 0.99973
0.999756 1 1 0.999756
0.999784 1 1 0.999784
0.993999 1.00777 0.987123 0.999201
1.00718 1 1.00791 0.999279
0.999585 1 1 0.999585
1.00368 1 1.00438 0.999307
0.999588 1 1.00017 0.999421
0.999524 1 1 0.999524
0.999529 1 1 0.999529
0.99646 1.00979 0.987527 0.999268
0.999438 1 1 0.999438
1.00097 1 1.0016 0.999365
1.01742 1 1.01804 0.999391
0.999527 1 1 0.999527
1.00406 1.00289 1.0016 0.999569
1.01312 1 1.01363 0.999491
0.999431 1 1 0.999431
0.999471 1 1 0.999471
1.01792 1.01866 0.999312 0.999966
1.01908 1.01947 0.999723 0.999888
0.978936 0.980618 0.998555 0.999729
0.999611 1 1 0.999611
1.00961 0.999979 1.01011 0.999524
1.02034 1.02045 0.999995 0.999899
0.982066 0.977619 1.00784 0.996738
1.001 0.997332 1.00493 0.998754
0.972325 0.990052 0.983538 0.998532
1.0243 1.02769 0.996807 0.999891
1.00268 1.02206 0.981282 0.999743
1.00016 1 1.00047 0.999685
1.01999 1.02179 0.998278 0.99996
1.02394 1.02645 0.997638 0.99992
1.00696 0.995448 1.01164 0.999931
0.996425 1.01464 0.982387 0.999657
0.980879 0.982644 1.001 0.997203
0.969205 0.988106 0.982413 0.998431
1.00649 0.998143 1.0086 0.999773
1.0124 1.01424 0.998208 0.999977
1.02574 1.02785 0.998035 0.999907
0.978064 0.999264 0.979206 0.999568
0.973714 0.990017 0.985015 0.998494
1.00429 0.992638 1.01158 1.00016
0.976685 0.97729 1.00242 0.996966
1.00033 1 1.00089 0.999439
1.00225 1 1.00268 0.999571
1.0122 1 1.01262 0.999582
0.999588 1 1 0.999588
0.999831 1 1.00037 0.999465
1.00099 1 1.00154 0.999449
0.999501 1 1 0.999501
0.999957 1 1.00043 0.999524
1.00286 1 1.00337 0.999485
0.999538 1 1 0.999538
0.999546 1 1 0.999546
0.999685 1 1.00018 0.999507
1.00127 1 1.00185 0.999416
0.999558 1 1 0.999558
0.999617 1 1.00017 0.999447
0.999862 1 1.00051 0.999355
0.999426 1 1 0.999426
0.999537 1 1 0.999537
0.999434 1 1 0.999434
0.999584 1 1 0.999584
0.999613 1 1 0.999613
0.99955 1 1 0.99955
0.999682 1 1 0.999682
0.999621 1 1 0.999621
0.999528 1 1 0.999528
0.99979 1 1 0.99979
0.999674 1 1 0.999674
0.999617 1 1 0.999617
0.999685 1 1 0.999685
0.999806 1 1 0.999806
0.99997 1 1 0.99997
0.999826 1 1 0.999826
0.999977 1 1 0.999977
1 1 1 1
0.999981 1 1 0.999981
1 1 1 1
1 1 1 1
1 1 1 1
1 1 1 1
1 1 1 1
0.999822 1 1 0.999822
0.999965 1 1 0.999965
0.999854 1 1 0.999854
1 1 1 1
0.999978 1 1 0.999978
0.999889 1 1 0.999889
1 1 1 1
1 1 1 1
0.999983 1 1 0.999983
1 1 1 1
1 1 1 1
1 1 1 1
1.01946 1.02037 0.999144 0.999959
1.01899 1.01965 0.999473 0.999879
0.974097 0.979139 0.995246 0.999603
0.999719 1 1 0.999719
0.999691 1 1 0.999691
0.999645 1 1 0.999645
1.02346 1.02631 0.997318 0.999905
1.02584 1.02822 0.997777 0.99991
1.01637 1.01862 0.997973 0.999816
1.00225 1.01157 0.991367 0.999417
0.974861 0.97159 1.00658 0.996805
0.961117 0.978802 0.983501 0.998405
0.9972 1.01756 0.980301 0.99968
0.983067 0.99769 0.986102 0.999232
0.980329 0.97697 1.00662 0.996841
0.976638 0.993073 0.984319 0.999117
0.999574 1.02013 0.980151 0.999689
0.978127 0.991532 0.987109 0.999364
0.980297 0.978433 1.00496 0.996959
0.974977 0.991381 0.98442 0.999018
0.999172 1.01738 0.982374 0.99972
0.999562 1 1 0.999562
0.999579 1 1 0.999579
0.999627 1 1 0.999627
0.999643 1 1 0.999643
0.999682 1 1 0.999682
0.99976 1 1 0.99976
0.998075 1.00883 0.990061 0.999274
1.01731 1 1.01794 0.999378
0.999531 1 1 0.999531
1.00167 1 1.00231 0.999359
0.999443 1 1 0.999443
0.999525 1 1 0.999525
0.999467 1 1 0.999467
1.00303 1.0039 0.999575 0.99956
0.999442 1 1 0.999442
1.01347 0.999849 1.01412 0.999514
0.99949 1 1 0.99949
1.01897 0.997973 1.02129 0.999754
0.999632 0.999563 1.00044 0.999633
0.999438 1 1 0.999438
1.00775 1.00867 0.999103 0.999987
1.01619 1.01701 0.999225 0.99997
1.01808 1.01855 0.99965 0.999891
1.00037 1 1.00071 0.999659
1.00327 0.995137 1.00819 0.999986
1.02081 1.02266 0.998226 0.99996
0.987239 0.986058 1.0029 0.998302
0.976906 0.993143 0.984486 0.999152
1.0237 1.0258 0.998015 0.999935
0.99793 1.01633 0.982211 0.999683
1.00561 0.998959 1.00687 0.999789
1.01108 1.01257 0.998542 0.99998
1.02694 1.02853 0.998548 0.999907
1.00607 0.991796 1.01499 0.999419
0.978468 1.00014 0.978752 0.999573
0.975472 0.991442 0.984751 0.999128
0.978486 0.978672 1.00272 0.997094
1.02562 1 1.02574 0.999889
1.01946 1.02016 0.999352 0.999958
1.01476 1.01821 0.996799 0.999809
0.940062 0.965848 0.973824 0.999464
0.964203 0.98047 0.984245 0.99915
0.988625 0.983245 1.0085 0.997002
0.985496 0.990456 0.995809 0.999179
1.00123 1 1.00167 0.999558
1.01335 1 1.01377 0.999587
1.01951 1 1.01998 0.99954
0.999502 1 1 0.999502
1.00007 1 1.00055 0.999521
1.00229 1 1.00281 0.999491
1.01005 1 1.01067 0.999386
0.999819 1 1.00032 0.9995
1.00153 1 1.00213 0.999399
1.00435 1 1.00508 0.999282
0.999463 1 1 0.999463
1.00025 1 1.0009 0.999352
1.00057 1 1.00128 0.999291
0.99936 1 1 0.99936
0.999532 1 1 0.999532
0.999429 1 1.00002 0.999414
0.999421 1 1 0.999421
0.99963 1 1 0.99963
0.999596 1 1 0.999596
0.999665 1 1 0.999665
0.999621 1 1 0.999621
0.999562 1 1 0.999562
0.99978 1 1 0.99978
0.999683 1 1 0.999683
0.999619 1 1 0.999619
0.999959 1 1 0.999959
0.999791 1 1 0.999791
0.999671 1 1 0.999671
0.999806 1 1 0.999806
0.999968 1 1 0.999968
1 1 1 1
0.999975 1 1 0.999975
1 1 1 1
1 1 1 1
1 1 1 1
1 1 1 1
1 1 1 1
0.999819 1 1 0.999819
0.999978 1 1 0.999978
0.99983 1 1 0.99983
1 1 1 1
0.999977 1 1 0.999977
0.999863 1 1 0.999863
1 1 1 1
1 1 1 1
0.999977 1 1 0.999977
1 1 1 1
1 1 1 1
1 1 1 1
1.01263 1.01415 0.998521 0.999977
1.01979 1.02079 0.999053 0.999959
1.01896 1.01993 0.999175 0.99988
0.999682 1 1 0.999682
0.999636 1 1 0.999636
0.999723 1 1 0.999723
0.99969 1 1 0.99969
0.999635 1 1 0.999635
0.999628 1 1 0.999628
0.999585 1 1 0.999585
1.02047 1.02286 0.997775 0.999889
1.02317 1.0259 0.997419 0.999921
1.02652 1.0289 0.997777 0.999911
1.00247 1.02298 0.980208 0.999739
0.986476 1.00251 0.985429 0.99856
0.982073 0.977576 1.00711 0.99751
0.974398 0.989725 0.986089 0.998403
0.981693 0.991918 0.990717 0.998965
0.983416 0.981505 1.00507 0.996892
0.974283 0.992038 0.983675 0.998402
0.995047 1.01444 0.98122 0.999654
0.981809 0.985701 0.996466 0.999584
0.974561 0.982338 0.995236 0.996831
0.984408 0.998927 0.986326 0.999127
0.984736 1.00412 0.981042 0.999647
0.999541 1 1 0.999541
0.99956 1 1 0.99956
0.999578 1 1 0.999578
0.999642 1 1 0.999642
1.00094 1.00489 0.996511 0.999551
1.01412 0.999617 1.01497 0.999536
0.999523 1 1 0.999523
0.999463 1 1 0.999463
0.999453 1 1 0.999453
0.999493 1 1 0.999493
0.999431 1 1 0.999431
1.00992 0.995968 1.01424 0.999769
0.999853 0.999747 1.00044 0.999669
0.999442 1 1 0.999442
1.02185 0.99174 1.03044 0.999925
1.0034 1 1.00395 0.999453
1.01821 1.01861 0.999645 0.999964
1.0057 1.00643 0.999284 0.99999
1.01453 1.01534 0.999234 0.999974
1.00464 0.999722 1.00511 0.999805
1.00682 0.991421 1.01541 1.00011
1.00974 1.01093 0.998833 0.999983
0.976613 0.977109 1.00255 0.996955
0.972878 0.987985 0.986268 0.99842
1.02769 1.02921 0.998619 0.999907
0.976971 0.997356 0.980015 0.999536
1.02778 0.99918 1.02875 0.999873
1.0197 1.02055 0.999206 0.999958
1.01593 1.01859 0.997571 0.99981
0.990274 0.993115 0.99711 1.00003
0.937035 0.9663 0.970248 0.999449
0.962414 0.979561 0.983657 0.998818
0.989971 0.982745 1.01015 0.99723
1.01482 0.999501 1.0155 0.999835
1.01932 1.01941 1.00004 0.999873
0.963464 0.974442 0.989087 0.999643
0.934404 0.953674 0.980745 0.999031
0.981392 0.977177 1.00749 0.996844
0.986544 0.994581 0.993047 0.998864
1.01471 1 1.01513 0.999591
1.02019 1 1.02066 0.999537
1.01738 1 1.01794 0.99945
1.00179 1 1.0023 0.999496
1.01052 1 1.01112 0.9994
1.00769 1 1.00843 0.999265
1.00198 1 1.0026 0.999383
1.00433 1 1.00507 0.999267
1.00274 1 1.00354 0.999204
1.00071 1 1.00136 0.999349
1.00067 1 1.00139 0.999276
1.00048 1 1.00122 0.999265
0.999352 1 1 0.999352
0.999456 1 1 0.999456
0.999384 1 1.00004 0.999347
0.999602 1 1 0.999602
0.999541 1 1 0.999541
0.999461 1 1.00006 0.999402
0.999655 1 1 0.999655
0.999626 1 1 0.999626
0.999609 1 1 0.999609
0.999762 1 1 0.999762
0.999671 1 1 0.999671
0.999629 1 1 0.999629
0.999944 1 1 0.999944
0.999781 1 1 0.999781
0.999684 1 1 0.999684
1 1 1 1
0.999958 1 1 0.999958
0.999792 1 1 0.999792
0.999966 1 1 0.999966
1 1 1 1
1 1 1 1
1 1 1 1
1 1 1 1
1 1 1 1
0.999684 1 1 0.999684
0.999799 1 1 0.999799
0.99997 1 1 0.99997
0.999819 1 1 0.999819
1 1 1 1
0.99998 1 1 0.99998
0.999837 1 1 0.999837
1 1 1 1
1 1 1 1
0.999989 1 1 0.999989
1 1 1 1
1 1 1 1
1 1 1 1
1.01952 1.02023 0.999336 0.99996
1.0114 1.01254 0.998891 0.99998
1.02013 1.02122 0.998978 0.999959
0.999686 1 1 0.999686
0.99963 1 1 0.99963
0.999621 1 1 0.999621
0.999624 1 1 0.999624
0.999602 1 1 0.999602
0.999688 1 1 0.999688
0.999626 1 1 0.999626
0.999628 1 1 0.999628
0.999585 1 1 0.999585
0.999583 1 1 0.999583
1.01472 1.01575 0.999178 0.999808
1.02178 1.02446 0.997493 0.99989
1.02256 1.02522 0.997465 0.999936
0.9946 1.01312 0.982056 0.999657
0.979725 0.995113 0.985418 0.999105
0.983634 0.991052 0.993883 0.998624
0.977934 0.981573 0.999312 0.99698
0.985527 0.985511 1.00118 0.998841
0.9779 0.980466 1.00046 0.99693
0.978494 0.994158 0.985435 0.99879
0.979325 1.00208 0.977663 0.999624
1.00403 0.983986 1.02142 0.998978
0.979349 0.982879 0.999377 0.99703
0.956202 0.977491 0.97977 0.998419
0.947268 0.975839 0.971239 0.999467
0.999601 1 1 0.999601
0.999543 1 1 0.999543
0.999558 1 1 0.999558
1.00199 0.994413 1.00784 0.999784
1.00011 1 1.00041 0.999705
0.999497 1 1 0.999497
0.999424 1 1 0.999424
0.999483 1 1.00003 0.999449
1.00389 1 1.00444 0.99945
1.02221 0.99372 1.02875 0.999926
1.00382 1 1.00435 0.99947
1.01251 0.998772 1.01406 0.9997
1.01932 1.01945 1 0.999879
1.01645 1.01688 0.99961 0.999969
1.00361 1.00422 0.999396 0.999994
1.02987 0.998588 1.03148 0.999855
0.989711 0.992239 0.998373 0.999079
1.01998 1.02094 0.999098 0.999958
0.981979 0.981229 1.00455 0.996228
0.960448 0.977044 0.984562 0.998428
1.01772 1.01898 0.998948 0.999812
0.93485 0.967177 0.967123 0.999435
1.01496 0.999758 1.01537 0.999838
1.01949 1.01972 0.999899 0.999875
0.95963 0.971309 0.988352 0.999619
0.982919 0.992828 0.990728 0.999285
0.937147 0.957465 0.980337 0.998412
0.983527 0.978687 1.00854 0.996434
0.99779 0.999556 0.998551 0.999682
0.977485 0.979914 0.997809 0.999712
0.930354 0.948327 0.982643 0.998376
0.975715 0.973538 1.00548 0.996776
0.997857 0.999409 0.999178 0.999269
1.02043 1 1.02091 0.999534
1.0195 1 1.02007 0.999448
1.00366 1 1.00432 0.999338
1.01077 1 1.01137 0.999415
1.00727 1 1.008 0.999274
1.00164 1 1.00242 0.999223
1.00408 1 1.00483 0.999252
1.00221 1 1.003 0.999207
0.9993 1 1.00001 0.99929
1.00067 1 1.00141 0.999261
1.00009 1 1.00082 0.999272
0.999368 1 1 0.999368
0.999426 1 1 0.999426
0.999415 1 1 0.999415
0.999357 1 1 0.999357
0.999541 1 1 0.999541
0.99944 1 1 0.99944
0.999373 1 1.00004 0.999335
0.999659 1 1 0.999659
0.999612 1 1 0.999612
0.99955 1 1 0.99955
0.999739 1 1 0.999739
0.999656 1 1 0.999656
0.999622 1 1 0.999622
0.999923 1 1 0.999923
0.999762 1 1 0.999762
0.999676 1 1 0.999676
1 1 1 1
0.999944 1 1 0.999944
0.999781 1 1 0.999781
1 1 1 1
1 1 1 1
0.999957 1 1 0.999957
1 1 1 1
1 1 1 1
1 1 1 1
0.999666 1 1 0.999666
0.999781 1 1 0.999781
0.999679 1 1 0.999679
0.999962 1 1 0.999962
0.999799 1 1 0.999799
1 1 1 1
0.999972 1 1 0.999972
0.999819 1 1 0.999819
1 1 1 1
1 1 1 1
0.999983 1 1 0.999983
1 1 1 1
1 1 1 1
1 1 1 1
1.01865 1.01876 1 0.999891
1.02055 1.02129 0.999312 0.999959
1.01017 1.01098 0.999213 0.999983
0.99963 1 1 0.99963
0.99969 1 1 0.99969
0.999625 1 1 0.999625
0.99963 1 1 0.99963
0.999626 1 1 0.999626
0.999602 1 1 0.999602
0.999589 1 1 0.999589
0.999586 1 1 0.999586
0.999629 1 1 0.999629
0.999584 1 1 0.999584
0.999583 1 1 0.999583
0.999572 1 1 0.999572
0.960692 0.975142 0.985641 0.999534
1.01379 1.01493 0.99907 0.999809
1.02342 1.02631 0.997295 0.999891
0.973685 0.997448 0.976607 0.999558
0.97814 0.99527 0.98429 0.998474
0.973654 0.981657 0.994991 0.99684
0.988249 0.982023 1.00668 0.999662
1.00339 0.983143 1.02083 0.999766
0.942321 0.971595 0.970399 0.999455
0.98252 0.98285 1.00311 0.996564
0.958887 0.977643 0.981672 0.999127
0.998578 0.992167 1.00673 0.999729
0.979929 0.977523 1.00537 0.997103
0.934683 0.953749 0.980923 0.999068
1.0001 1 1.00041 0.999698
0.999602 1 1 0.999602
0.999545 1 1 0.999545
1.02244 0.995626 1.027 0.999925
1.00451 1 1.00506 0.999448
0.999506 1 1.00005 0.999456
1.00412 1 1.00465 0.999472
1.01158 0.999372 1.01251 0.999707
1.00908 1 1.00939 0.999699
0.976994 0.980692 0.996645 0.999582
1.01862 1.01874 0.999986 0.999896
1.01478 1.01515 0.999655 0.999974
1.01501 0.999925 1.01525 0.999843
0.984074 0.994672 0.989759 0.999583
1.01957 1.02004 0.999666 0.999876
0.986939 0.980016 1.00956 0.997532
0.940606 0.960016 0.980685 0.999078
0.955543 0.971835 0.983694 0.999534
0.997182 1.00039 0.997098 0.999692
0.972002 0.978502 0.993753 0.999601
0.937329 0.949171 0.988441 0.999071
0.998067 0.998785 1.0007 0.998584
0.977458 0.975777 1.00491 0.996826
0.996204 1.00815 0.988679 0.999467
0.93981 0.952167 0.987942 0.99907
0.973748 0.973214 1.00358 0.996981
0.998293 1.0046 0.995204 0.998511
1.02236 1 1.02293 0.999447
1.00211 1 1.00277 0.999347
0.997245 1 0.997894 0.999348
1.00708 1 1.0078 0.999283
1.0016 1 1.00238 0.999226
0.999399 1 1 0.999399
1.00181 1 1.00261 0.99921
0.999525 1 1.00023 0.9993
0.999492 1 1 0.999492
0.999748 1 1.00047 0.999278
0.999373 1 1 0.999373
0.999522 1 1 0.999522
0.999538 1 1 0.999538
0.999447 1 1 0.999447
0.999437 1 1 0.999437
0.999491 1 1 0.999491
0.999425 1 1 0.999425
0.999361 1 1 0.999361
0.999631 1 1 0.999631
0.99954 1 1 0.99954
0.999424 1 1 0.999424
0.999728 1 1 0.999728
0.999658 1 1 0.999658
0.999622 1 1 0.999622
0.999897 1 1 0.999897
0.99974 1 1 0.99974
0.999657 1 1 0.999657
1 1 1 1
0.999922 1 1 0.999922
0.999762 1 1 0.999762
1 1 1 1
1 1 1 1
0.999943 1 1 0.999943
1 1 1 1
1 1 1 1
1 1 1 1
0.999675 1 1 0.999675
0.999669 1 1 0.999669
0.999763 1 1 0.999763
0.999951 1 1 0.999951
0.999781 1 1 0.999781
0.999675 1 1 0.999675
1 1 1 1
0.999964 1 1 0.999964
0.999799 1 1 0.999799
1 1 1 1
1 1 1 1
0.999974 1 1 0.999974
1 1 1 1
1 1 1 1
1 1 1 1
0.97627 0.978991 0.99753 0.999689
1.01886 1.01897 1 0.999891
1.02156 1.02231 0.999304 0.999959
0.999625 1 1 0.999625
0.999641 1 1 0.999641
0.999603 1 1 0.999603
0.999637 1 1 0.999637
0.999632 1 1 0.999632
0.999602 1 1 0.999602
0.999588 1 1 0.999588
0.99959 1 1 0.99959
0.999561 1 1 0.999561
0.99958 1 1 0.99958
0.999582 1 1 0.999582
0.999573 1 1 0.999573
0.937195 0.950318 0.987079 0.9991
0.960519 0.973403 0.987199 0.999559
1.01312 1.01426 0.99907 0.999809
0.937468 0.967848 0.969151 0.999443
0.955566 0.974876 0.981735 0.998429
0.989315 0.987559 1.00408 0.997708
1.00986 0.983525 1.02786 0.998946
0.998561 0.991998 1.00768 0.998945
0.937327 0.955821 0.982158 0.998466
0.98409 0.981253 1.00552 0.997382
0.996971 0.992309 1.00575 0.998954
0.977545 0.976094 1.00445 0.997046
1.00775 1 1.00819 0.999564
0.999962 1 1.00027 0.999696
0.999603 1 1 0.999603
1.01039 0.999783 1.0109 0.999714
1.00441 1 1.00494 0.999474
1.00886 1 1.00918 0.999685
1.00163 1.00062 1.00146 0.999546
0.942426 0.956888 0.985947 0.998925
0.977835 0.980482 0.997647 0.999652
1.01781 1.01798 0.999918 0.999913
0.995825 1.00093 0.9952 0.999702
0.998959 0.997408 1.00226 0.999291
0.973974 0.979281 0.994977 0.999601
0.977677 0.974347 1.00662 0.996815
0.933707 0.949381 0.985061 0.998405
0.996876 1.00738 0.990087 0.999476
0.942028 0.953304 0.989454 0.998704
0.97422 0.972148 1.00527 0.996883
0.998632 1.00276 0.996687 0.999194
1.00748 1.01241 0.995842 0.999287
0.963975 0.967187 1.00026 0.996422
0.996803 1.00177 0.995638 0.999399
1.00064 1 1.00128 0.999356
0.998162 1 0.998825 0.999337
0.997679 1.00038 0.997874 0.999429
1.00149 1 1.00226 0.999228
0.999307 1 0.999906 0.999397
0.999576 1.00052 0.999403 0.999651
0.999701 1 1.00039 0.999309
0.999494 1 1 0.999494
0.999658 1 1 0.999658
0.999378 1 1 0.999378
0.999523 1 1 0.999523
0.999621 1 1 0.999621
0.999596 1 1 0.999596
0.999551 1 1 0.999551
0.999527 1 1 0.999527
0.999492 1 1 0.999492
0.999449 1 1 0.999449
0.999448 1 1 0.999448
0.99957 1 1 0.99957
0.999503 1 1 0.999503
0.999435 1 1 0.999435
0.999711 1 1 0.999711
0.99963 1 1 0.99963
0.999539 1 1 0.999539
0.999873 1 1 0.999873
0.999729 1 1 0.999729
0.999657 1 1 0.999657
1 1 1 1
0.999896 1 1 0.999896
0.999741 1 1 0.999741
1 1 1 1
1 1 1 1
0.999922 1 1 0.999922
1 1 1 1
1 1 1 1
1 1 1 1
0.999673 1 1 0.999673
0.999667 1 1 0.999667
0.999748 1 1 0.999748
0.999671 1 1 0.999671
0.999763 1 1 0.999763
0.999934 1 1 0.999934
1 1 1 1
0.999952 1 1 0.999952
0.99978 1 1 0.99978
1 1 1 1
1 1 1 1
0.999965 1 1 0.999965
1 1 1 1
1 1 1 1
1 1 1 1
0.947016 0.954652 0.993461 0.99853
0.974183 0.97877 0.99568 0.999632
1.0191 1.01921 1 0.999892
0.999621 1 1 0.999621
0.999601 1 1 0.999601
0.999645 1 1 0.999645
0.999644 1 1 0.999644
0.999608 1 1 0.999608
0.99959 1 1 0.99959
0.999592 1 1 0.999592
0.999564 1 1 0.999564
0.999591 1 1 0.999591
0.999554 1 1 0.999554
0.999738 1 1.00026 0.999481
0.999575 1 1 0.999575
0.999574 1 1 0.999574
0.973889 0.97684 1.00054 0.996442
0.941839 0.952782 0.989694 0.998808
0.961036 0.974013 0.987155 0.999516
0.939228 0.956705 0.982595 0.999121
0.980201 0.97736 1.00664 0.996292
1.00176 0.992847 1.00924 0.999744
0.99829 0.994029 1.00493 0.99936
0.978312 0.977411 1.00379 0.997139
0.992296 0.999069 0.994196 0.999019
1.0062 1.0013 1.0057 0.999202
1.00621 1 1.00666 0.999554
0.999693 1 1 0.999693
1.00771 1 1.00804 0.999672
1.00065 1.00088 1.00017 0.999602
0.958157 0.965271 0.995563 0.997053
0.945036 0.956078 0.98998 0.998455
0.978986 0.980326 0.998909 0.999723
0.997269 1.00691 0.99094 0.999485
1.0037 1.00727 0.997935 0.998518
0.945283 0.953299 0.993132 0.998449
0.97499 0.971796 1.00634 0.996964
1.00234 1.01109 0.992061 0.999282
0.966836 0.968883 1.0008 0.997091
0.996668 1.0042 0.993788 0.998705
0.996473 1.01003 0.987383 0.999189
0.997903 0.99391 1.00443 0.999586
0.998038 1 0.998712 0.999325
0.99707 1.00034 0.997307 0.999419
0.998641 1.00283 0.996287 0.999534
0.999133 1 0.999738 0.999395
0.99904 1.00025 0.999144 0.999647
0.999442 1.00065 0.99908 0.99971
0.999495 1 1 0.999495
0.999649 1.00001 0.999994 0.99965
0.999667 1.00001 0.999987 0.999668
0.999523 1 1 0.999523
0.999615 1 1 0.999615
0.999611 1 1 0.999611
0.999609 1 1 0.999609
0.999562 1 1 0.999562
0.999563 1 1 0.999563
0.999524 1 1 0.999524
0.999519 1 1 0.999519
0.999539 1 1 0.999539
0.999489 1 1 0.999489
0.999451 1 1 0.999451
0.999674 1 1 0.999674
0.999578 1 1 0.999578
0.999515 1 1 0.999515
0.999853 1 1 0.999853
0.99971 1 1 0.99971
0.999628 1 1 0.999628
1 1 1 1
0.999873 1 1 0.999873
0.999729 1 1 0.999729
1 1 1 1
1 1 1 1
0.999896 1 1 0.999896
1 1 1 1
1 1 1 1
1 1 1 1
0.999661 1 1 0.999661
0.999674 1 1 0.999674
0.999727 1 1 0.999727
0.99966 1 1 0.99966
0.999742 1 1 0.999742
0.99991 1 1 0.99991
0.999762 1 1 0.999762
0.999934 1 1 0.999934
1 1 1 1
1 1 1 1
1 1 1 1
0.999953 1 1 0.999953
1 1 1 1
1 1 1 1
1 1 1 1
0.967988 0.970669 1.00012 0.997117
0.943694 0.95694 0.987132 0.999014
0.977086 0.979947 0.997403 0.999676
0.999599 1 1 0.999599
0.999649 1 1 0.999649
0.999611 1 1 0.999611
0.999645 1 1 0.999645
0.999627 1 1 0.999627
0.999624 1 1 0.999624
0.999566 1 1 0.999566
0.999584 1 1 0.999584
0.999553 1 1 0.999553
0.999573 1 1 0.999573
0.999504 1 1 0.999504
0.999342 1 1.00011 0.999228
0.999543 1 1.00006 0.999486
0.99957 1 1 0.99957
0.990664 0.994079 0.99725 0.999313
0.971715 0.973864 1.00077 0.997022
0.936757 0.952052 0.985482 0.99843
0.976041 0.975228 1.00387 0.996978
0.995468 0.993067 1.00266 0.999761
0.992986 0.997044 0.996317 0.999612
0.99712 1.00453 0.993324 0.999292
1.00323 1.0006 1.00337 0.999258
1.00517 1 1.00563 0.999544
0.998564 1.00098 0.997932 0.999654
0.987651 0.986386 1.00245 0.998839
0.964071 0.966874 0.999911 0.997189
0.94349 0.956328 0.987506 0.999057
0.999074 1.00953 0.990363 0.999277
1.00227 1.00773 0.995271 0.999307
0.967568 0.96849 1.00127 0.997784
0.99492 1.0078 0.988006 0.999203
0.994316 0.994655 1.00034 0.999317
0.992409 1.00677 0.986391 0.999336
1.00383 1.00205 1.00249 0.999295
0.99709 1.00022 0.997457 0.99941
0.998258 1.00254 0.996196 0.999535
0.999236 1.00239 0.997308 0.999544
0.998682 1 0.999038 0.999644
0.999422 1.0005 0.999214 0.999704
0.999599 1.00022 0.999799 0.999578
0.999642 1 1 0.999642
0.999661 1 1 0.999661
0.999552 1 1 0.999552
0.999609 1 1 0.999609
0.999614 1 1 0.999614
0.999538 1 1 0.999538
0.999623 1 1 0.999623
0.99957 1 1 0.99957
0.999527 1 1 0.999527
0.999522 1 1 0.999522
0.999516 1 1 0.999516
0.999544 1 1 0.999544
0.999625 1 1 0.999625
0.999546 1 1 0.999546
0.999487 1 1 0.999487
0.999823 1 1 0.999823
0.999674 1 1 0.999674
0.999585 1 1 0.999585
0.999998 1 1 0.999998
0.999852 1 1 0.999852
0.999709 1 1 0.999709
1 1 1 1
1 1 1 1
0.999874 1 1 0.999874
1 1 1 1
1 1 1 1
1 1 1 1
0.999647 1 1 0.999647
0.999666 1 1 0.999666
0.999717 1 1 0.999717
0.999675 1 1 0.999675
0.999726 1 1 0.999726
0.999886 1 1 0.999886
0.999735 1 1 0.999735
0.99991 1 1 0.99991
1 1 1 1
0.999935 1 1 0.999935
1 1 1 1
1 1 1 1
1 1 1 1
1 1 1 1
1 1 1 1
0.984124 0.986272 0.998582 0.99924
0.962514 0.967849 0.997403 0.997078
0.940807 0.955749 0.985907 0.998438
0.99959 1 1 0.99959
0.999614 1 1 0.999614
0.999645 1 1 0.999645
0.999623 1 1 0.999623
0.999625 1 1 0.999625
0.999653 1 1 0.999653
0.999576 1 1 0.999576
0.999553 1 1 0.999553
0.999583 1 1 0.999583
0.999529 1 1 0.999529
0.999353 1 1 0.999353
1.00074 1.0017 1 0.999035
0.999361 1 1.00013 0.999232
0.99949 1 1 0.99949
0.99801 1.00262 0.996052 0.999343
0.991354 0.995444 0.996885 0.999003
0.973358 0.974818 1.00086 0.997648
0.995936 0.998557 0.998425 0.998949
1.00117 1.00529 0.996689 0.999215
1.00164 1.00002 1.00231 0.999314
0.999597 1 1.00002 0.999577
0.988688 0.985341 1.00397 0.999425
0.96124 0.966694 0.997263 0.997088
0.992384 1.00557 0.987659 0.999216
0.991341 0.994943 0.997363 0.999014
0.994458 1.00649 0.988722 0.999316
1.00239 1.00166 1.00136 0.999371
1.00333 1.00455 0.999492 0.999302
0.999972 1.00072 1 0.999253
0.997803 1.00232 0.995951 0.999536
1.00017 1.00249 0.998138 0.999548
0.999608 1.00018 1 0.999427
0.999405 1.00032 0.999384 0.999698
0.999771 1.00024 0.999957 0.999576
0.999439 1 1 0.999439
0.999654 1 1 0.999654
0.999566 1 1 0.999566
0.999455 1 1 0.999455
0.999618 1 1 0.999618
0.999538 1 1 0.999538
0.999491 1 1 0.999491
0.999577 1 1 0.999577
0.999529 1 1 0.999529
0.999526 1 1 0.999526
0.999514 1 1 0.999514
0.999539 1 1 0.999539
0.999605 1 1 0.999605
0.999788 1 1 0.999788
0.999633 1 1 0.999633
0.999554 1 1 0.999554
0.999992 1 1 0.999992
0.999823 1 1 0.999823
0.999674 1 1 0.999674
1 1 1 1
0.999997 1 1 0.999997
0.999852 1 1 0.999852
1 1 1 1
1 1 1 1
1 1 1 1
0.999614 1 1 0.999614
0.999648 1 1 0.999648
0.999707 1 1 0.999707
0.999671 1 1 0.999671
0.99972 1 1 0.99972
0.999864 1 1 0.999864
0.999724 1 1 0.999724
0.999886 1 1 0.999886
1 1 1 1
0.999911 1 1 0.999911
1 1 1 1
1 1 1 1
1 1 1 1
1 1 1 1
1 1 1 1
0.998924 1.00224 0.997105 0.999584
0.983997 0.987573 0.99772 0.998657
0.965007 0.968098 0.999659 0.997147
0.99961 1 1 0.99961
0.999507 1 1 0.999507
0.999596 1 1 0.999596
0.999622 1 1 0.999622
0.999622 1 1 0.999622
0.999644 1 1 0.999644
0.999417 1 1 0.999417
0.999593 1 1 0.999593
0.999553 1 1 0.999553
0.99936 1 1 0.99936
0.999236 1.00011 1 0.999128
1.00133 1.00257 0.999519 0.999241
1.00043 1.00139 1 0.999047
0.999237 1 1 0.999237
0.999866 1.00425 0.996263 0.999367
0.9897 0.994916 0.996111 0.998642
1.00358 1.00576 0.998694 0.999138
0.999582 1 1 0.999582
1.00076 1 1.00116 0.999598
0.98681 0.98512 1.00298 0.998739
0.996989 1.00653 0.991216 0.999295
1.00103 1.00131 1.00027 0.99945
1.00346 1.00497 0.999187 0.999316
1.00027 1.00098 1 0.999287
0.999894 1.00057 1 0.999325
0.999578 1.00011 1 0.999468
1.00107 1.00257 0.998947 0.999552
0.999676 1.00024 1 0.999433
0.999337 1 1 0.999337
0.999845 1.00027 1 0.999574
0.999447 1 1 0.999447
0.999372 1 1 0.999372
0.99958 1 1 0.99958
0.999454 1 1 0.999454
0.999419 1 1 0.999419
0.999539 1 1 0.999539
0.999491 1 1 0.999491
0.99949 1 1 0.99949
0.999532 1 1 0.999532
0.999527 1 1 0.999527
0.999582 1 1 0.999582
0.999533 1 1 0.999533
0.999603 1 1 0.999603
0.999756 1 1 0.999756
0.99998 1 1 0.99998
0.999788 1 1 0.999788
0.999641 1 1 0.999641
1 1 1 1
0.999989 1 1 0.999989
0.999823 1 1 0.999823
1 1 1 1
0.999995 1 1 0.999995
1 1 1 1
0.999546 1 1 0.999546
0.999606 1 1 0.999606
0.999679 1 1 0.999679
0.999649 1 1 0.999649
0.999707 1 1 0.999707
0.999844 1 1 0.999844
0.999724 1 1 0.999724
0.999864 1 1 0.999864
1 1 1 1
0.999886 1 1 0.999886
1 1 1 1
1 1 1 1
1 1 1 1
1 1 1 1
1 1 1 1
0.999395 1.00047 0.999403 0.999518
0.998015 1.00132 0.997118 0.999583
0.983689 0.986214 0.998227 0.999211
0.999466 1 1 0.999466
0.999646 1 1 0.999646
0.999391 1 1 0.999391
0.999501 1 1 0.999501
0.999602 1 1 0.999602
0.99922 1 1 0.99922
0.999635 1 1 0.999635
0.999413 1 1 0.999413
0.999347 1.00014 1 0.999211
0.999368 1 1 0.999368
0.999269 1.00016 1 0.99911
1.00118 1.00228 0.999671 0.999235
0.99989 1.00083 1 0.999059
1.00148 1.00547 0.99664 0.99939
0.999603 1.00001 1 0.99959
0.99959 1.00001 1 0.999578
1.00186 1 1.00224 0.999619
1.00358 1.00535 0.998911 0.999329
1.00062 1.0013 1 0.99932
1.00006 1.00074 1 0.999319
0.999794 1.00033 1 0.999467
0.999425 1 1 0.999425
0.999773 1.00033 1 0.999439
0.999343 1 1 0.999343
0.999336 1 1 0.999336
0.999455 1 1 0.999455
0.999369 1 1 0.999369
0.999354 1 1 0.999354
0.999453 1 1 0.999453
0.999418 1 1 0.999418
0.99943 1 1 0.99943
0.999491 1 1 0.999491
0.99949 1 1 0.99949
0.999542 1 1 0.999542
0.999527 1 1 0.999527
0.999582 1 1 0.999582
0.999725 1 1 0.999725
0.9996 1 1 0.9996
0.999756 1 1 0.999756
0.999967 1 1 0.999967
1 1 1 1
0.999976 1 1 0.999976
0.999788 1 1 0.999788
1 1 1 1
0.999985 1 1 0.999985
1 1 1 1
0.999414 1 1 0.999414
0.999488 1 1 0.999488
0.999538 1 1 0.999538
0.999645 1 1 0.999645
0.999599 1 1 0.999599
0.99968 1 1 0.99968
0.999826 1 1 0.999826
0.999707 1 1 0.999707
0.999844 1 1 0.999844
0.999997 1 1 0.999997
0.999864 1 1 0.999864
1 1 1 1
1 1 1 1
1 1 1 1
1 1 1 1
1 1 1 1
0.999511 1.00007 1 0.999445
1.00025 1.00115 0.999571 0.999525
0.997676 1.001 0.997094 0.999583
0.999289 1 1 0.999289
0.999499 1 1 0.999499
0.999682 1 1 0.999682
0.999406 1 1 0.999406
0.999495 1 1 0.999495
0.999234 1.00005 1 0.999182
0.999237 1.00003 1 0.999203
0.999409 1 1 0.999409
0.99941 1.00021 1 0.999205
0.99935 1.00026 1 0.999091
1.00152 1.0025 0.99979 0.999229
0.999522 1 1 0.999522
0.999612 1.00003 1 0.999579
0.999574 1 1 0.999574
1.00019 1.00088 1 0.999313
0.999953 1.00049 1 0.999466
0.999511 1.00009 1 0.999425
0.999401 1 1 0.999401
0.999348 1 1 0.999348
0.999332 1 1 0.999332
0.99935 1 1 0.99935
0.999365 1 1 0.999365
0.999353 1 1 0.999353
0.999378 1 1 0.999378
0.999416 1 1 0.999416
0.999429 1 1 0.999429
0.999489 1 1 0.999489
0.999489 1 1 0.999489
0.999542 1 1 0.999542
0.999685 1 1 0.999685
0.999583 1 1 0.999583
0.999724 1 1 0.999724
0.999956 1 1 0.999956
0.999756 1 1 0.999756
0.999964 1 1 0.999964
1 1 1 1
1 1 1 1
0.999972 1 1 0.999972
1 1 1 1
0.999313 1 1 0.999313
0.999477 1 1 0.999477
0.999462 1 1 0.999462
0.999592 1 1 0.999592
0.999487 1 1 0.999487
0.999529 1 1 0.999529
0.999646 1 1 0.999646
0.999801 1 1 0.999801
0.999682 1 1 0.999682
0.999826 1 1 0.999826
0.999989 1 1 0.999989
0.999845 1 1 0.999845
0.999998 1 1 0.999998
1 1 1 1
1 1 1 1
1 1 1 1
1 1 1 1
0.999364 1.00001 1 0.999358
0.999451 1.00001 1 0.999444
1.00095 1.00162 0.999796 0.999532
0.999223 1 1 0.999222
0.99929 1 1 0.99929
0.999532 1 1 0.999532
0.99942 1 1 0.99942
0.999238 1.00006 1 0.999182
0.999291 1.0001 1 0.999187
0.999382 1.00018 1 0.999198
0.999448 1 1 0.999448
0.999502 1 1 0.9995
0.999569 1 1 0.999569
0.999386 1 1 0.999386
0.999621 1.0002 1 0.999425
0.9994 1 1 0.9994
0.999382 1 1 0.999382
0.999328 1 1 0.999328
0.999351 1 1 0.999351
0.999367 1 1 0.999367
0.999352 1 1 0.999352
0.999378 1 1 0.999378
0.999447 1 1 0.999447
0.999428 1 1 0.999428
0.999489 1 1 0.999489
0.999639 1 1 0.999639
0.999541 1 1 0.999541
0.999684 1 1 0.999684
0.999947 1 1 0.999947
0.999724 1 1 0.999724
0.999954 1 1 0.999954
1 1 1 1
0.999961 1 1 0.999961
1 1 1 1
1 1 1 1
0.999251 1 1 0.999251
0.999376 1 1 0.999376
0.999331 1 1 0.999331
0.999555 1 1 0.999555
0.999475 1 1 0.999475
0.999509 1 1 0.999509
0.999751 1 1 0.999751
0.999592 1 1 0.999592
0.999486 1 1 0.999486
0.999647 1 1 0.999647
0.999801 1 1 0.999801
0.999977 1 1 0.999977
0.999826 1 1 0.999826
0.999991 1 1 0.999991
1 1 1 1
0.999999 1 1 0.999999
1 1 1 1
1 1 1 1
0.999339 1.00001 1 0.99933
0.999398 1.00006 1 0.99934
0.999487 1.00004 1 0.999443
0.999221 1.00001 1 0.999216
0.999291 1 1 0.999291
0.999258 1.00008 1 0.999183
0.999383 1 1 0.999383
0.999449 1 1 0.999449
0.999528 1.00005 1 0.999478
0.999385 1 1 0.999385
0.999367 1 1 0.999367
0.999398 1 1 0.999398
0.999383 1 1 0.999383
0.999385 1 1 0.999385
0.999351 1 1 0.999351
0.999368 1 1 0.999368
0.999428 1 1 0.999428
0.999378 1 1 0.999378
0.999446 1 1 0.999446
0.999604 1 1 0.999604
0.999488 1 1 0.999488
0.999638 1 1 0.999638
0.999936 1 1 0.999936
0.999683 1 1 0.999683
0.999944 1 1 0.999944
1 1 1 1
0.999951 1 1 0.999951
1 1 1 1
1 1 1 1
0.999328 1 1 0.999328
0.9993 1 1 0.9993
0.999245 1 1 0.999245
0.999475 1 1 0.999475
0.999385 1 1 0.999385
0.999348 1 1 0.999348
0.999693 1 1 0.999693
0.999539 1 1 0.999539
0.999473 1 1 0.999473
0.999959 1 1 0.999959
0.999752 1 1 0.999752
0.999592 1 1 0.999592
0.999801 1 1 0.999801
0.999981 1 1 0.999981
1 1 1 1
0.999994 1 1 0.999994
1 1 1 1
1 1 1 1
0.999328 1 1 0.999328
0.999327 1 1 0.999325
0.999332 1.00001 1 0.999323
0.999209 1 1 0.999209
0.999358 1.00001 1 0.999344
0.999402 1.00001 1 0.999388
0.999451 1 1 0.999451
0.999384 1 1 0.999384
0.999367 1 1 0.999367
0.999384 1 1 0.999384
0.999383 1 1 0.999383
0.999388 1 1 0.999388
0.999425 1 1 0.999425
0.999369 1 1 0.999369
0.999429 1 1 0.999429
0.999586 1 1 0.999586
0.999446 1 1 0.999446
0.999603 1 1 0.999603
0.999927 1 1 0.999927
0.999637 1 1 0.999637
0.999933 1 1 0.999933
1 1 1 1
0.999941 1 1 0.999941
1 1 1 1
1 1 1 1
0.999345 1 1 0.999345
0.999338 1 1 0.999338
0.99933 1 1 0.99933
0.99939 1 1 0.99939
0.999312 1 1 0.999312
0.99924 1 1 0.99924
0.999611 1 1 0.999611
0.999474 1 1 0.999474
0.999394 1 1 0.999394
0.999938 1 1 0.999938
0.999679 1 1 0.999679
0.999522 1 1 0.999522
1 1 1 1
0.999964 1 1 0.999964
0.999753 1 1 0.999753
0.999985 1 1 0.999985
1 1 1 1
1 1 1 1
0.999344 1.00001 1 0.999339
0.999345 1.00001 1 0.999336
0.999325 1.00001 1 0.99932
0.999347 1 1 0.999347
0.999343 1 1 0.999341
0.999411 1.00002 1 0.999393
0.999367 1 1 0.999367
0.999385 1 1 0.999385
0.99944 1 1 0.99944
0.999391 1 1 0.999391
0.999437 1 1 0.999437
0.999556 1 1 0.999556
0.999429 1 1 0.999429
0.999586 1 1 0.999586
0.999919 1 1 0.999919
0.999603 1 1 0.999603
0.999925 1 1 0.999925
1 1 1 1
0.999931 1 1 0.999931
1 1 1 1
1 1 1 1
0.999353 1 1 0.999353
0.99937 1 1 0.99937
0.999346 1 1 0.999346
0.999405 1 1 0.999405
0.999343 1 1 0.999343
0.999331 1 1 0.999331
0.999558 1 1 0.999558
0.999407 1 1 0.999407
0.999324 1 1 0.999324
0.999923 1 1 0.999923
0.999604 1 1 0.999604
0.999473 1 1 0.999473
1 1 1 1
0.999944 1 1 0.999944
0.999665 1 1 0.999665
1 1 1 1
0.99997 1 1 0.99997
1 1 1 1
0.999352 1 1 0.999352
0.999346 1.00001 1 0.999339
0.999374 1.00003 1 0.999345
0.999405 1 1 0.999405
0.999348 1 1 0.999348
0.999338 1 1 0.999338
0.999385 1 1 0.999385
0.99944 1 1 0.99944
0.999542 1 1 0.999542
0.999449 1 1 0.999449
0.999567 1 1 0.999567
0.999905 1 1 0.999905
0.999587 1 1 0.999587
0.999917 1 1 0.999917
1 1 1 1
0.999924 1 1 0.999924
1 1 1 1
1 1 1 1
0.999377 1 1 0.999377
0.99935 1 1 0.99935
0.999416 1 1 0.999416
0.99937 1 1 0.99937
0.999346 1 1 0.999346
0.999563 1 1 0.999563
0.999403 1 1 0.999403
0.999347 1 1 0.999347
0.999913 1 1 0.999913
0.999567 1 1 0.999567
0.999425 1 1 0.999425
1 1 1 1
0.999927 1 1 0.999927
0.999597 1 1 0.999597
1 1 1 1
0.99995 1 1 0.99995
1 1 1 1
0.999412 1 1 0.999412
0.999354 1 1 0.999354
0.99934 1 1 0.99934
0.999519 1 1 0.999519
0.999405 1 1 0.999405
0.99935 1 1 0.99935
0.999441 1 1 0.999441
0.999545 1 1 0.999545
0.999887 1 1 0.999887
0.999578 1 1 0.999578
0.999903 1 1 0.999903
1 1 1 1
0.999916 1 1 0.999916
1 1 1 1
1 1 1 1
0.999416 1 1 0.999416
0.999373 1 1 0.999373
0.999347 1 1 0.999347
0.999561 1 1 0.999561
0.999416 1 1 0.999416
0.99937 1 1 0.99937
0.999907 1 1 0.999907
0.999562 1 1 0.999562
0.999402 1 1 0.999402
1 1 1 1
0.999915 1 1 0.999915
0.999575 1 1 0.999575
1 1 1 1
0.99993 1 1 0.99993
1 1 1 1
0.999541 1 1 0.999541
0.999401 1 1 0.999401
0.999357 1 1 0.999357
0.999874 1 1 0.999874
0.999521 1 1 0.999521
0.999405 1 1 0.999405
0.999548 1 1 0.999548
0.999885 1 1 0.999885
1 1 1 1
0.999902 1 1 0.999902
1 1 1 1
1 1 1 1
0.999554 1 1 0.999554
0.999411 1 1 0.999411
0.999369 1 1 0.999369
0.999904 1 1 0.999904
0.999561 1 1 0.999561
0.999415 1 1 0.999415
1 1 1 1
0.999907 1 1 0.999907
0.999562 1 1 0.999562
1 1 1 1
0.999917 1 1 0.999917
1 1 1 1
0.999871 1 1 0.999871
0.999531 1 1 0.999531
0.999389 1 1 0.999389
1 1 1 1
0.999873 1 1 0.999873
0.999524 1 1 0.999524
0.999884 1 1 0.999884
1 1 1 1
1 1 1 1
0.99989 1 1 0.99989
0.999554 1 1 0.999554
0.999407 1 1 0.999407
1 1 1 1
0.9999 1 1 0.9999
0.99956 1 1 0.99956
1 1 1 1
0.999907 1 1 0.999907
1 1 1 1
0.999982 1 1 0.999982
0.999878 1 1 0.999878
0.999522 1 1 0.999522
1 1 1 1
0.999873 1 1 0.999873
1 1 1 1
0.999988 1 1 0.999988
0.99989 1 1 0.99989
0.999554 1 1 0.999554
0.999996 1 1 0.999996
0.999899 1 1 0.999899
1 1 1 1
1 1 1 1
0.999875 1 1 0.999875
1 1 1 1
0.999993 1 1 0.999993
0.999887 1 1 0.999887
1 1 1 1
1 1 1 1
1 1 1 1

VECTORS lamdaE float
0.99894 0.99999 0.996951
0.999154 0.999004 0.998805
0.998877 1.00007 0.996998
0.999166 1.0001 0.996592
0.998899 1.0002 0.996867
0.999068 0.999552 0.997105
0.999556 1.00061 0.995016
0.999186 0.99889 0.998837
0.998801 1.00022 0.998692
0.99893 0.999434 0.998818
0.999332 0.998524 0.99757
0.999587 1.00027 0.995052
0.999489 0.999965 0.99622
0.999127 0.999961 0.996696
0.99881 1.00016 0.99705
0.999085 1.00015 0.996661
0.999019 0.999588 0.997154
0.998832 1.00029 0.996916
0.999601 1.00058 0.995014
0.999446 0.999983 0.998349
0.999307 0.999983 0.996495
0.998987 1.00022 0.996744
1.00025 1.00014 0.994271
0.999718 1.00054 0.994818
0.999253 0.998948 0.997346
0.99944 1.00054 0.995278
1.00068 1.00114 0.992431
0.999219 0.998766 0.99887
0.998847 1.00021 0.997759
0.998986 0.999531 0.997978
0.999319 0.998399 0.998935
0.999537 1.00033 0.995053
0.999019 1.00034 0.996727
0.998926 1.00018 0.996996
0.999893 1.00051 0.995086
0.999402 0.99794 0.999102
0.99962 1.0004 0.995571
0.99956 0.999966 0.995378
1.00015 1.00156 0.992727
0.999535 0.99749 0.999182
0.999465 1 0.99832
0.999197 0.999998 0.99758
0.999606 0.999998 0.998207
0.99922 0.999912 0.996575
1.00071 0.999992 0.993076
0.999027 1.00016 0.998625
1.00044 1.00001 0.994617
0.999004 1.00019 0.996729
0.998756 1.00041 0.996967
0.998971 0.999613 0.997211
0.999648 1.00053 0.99501
0.999426 0.999959 0.997339
0.99923 0.999989 0.996564
0.999222 0.998918 0.997397
0.998911 1.00029 0.996809
1.00029 1.00013 0.994262
0.999478 1.00051 0.995279
0.999768 1.0005 0.994817
1.00074 1.00115 0.992373
0.999534 0.999996 0.998271
0.999379 0.999948 0.996407
1.00067 0.999954 0.994183
1.00045 0.999952 0.994116
0.999962 1.00037 0.994558
1.00207 1.00012 0.990909
1.00108 1.00074 0.991857
0.999467 0.998294 0.997622
0.999385 1.00023 0.995682
1.00026 1.00147 0.992857
1.00134 1.00119 0.990804
0.998873 1.00008 0.998643
0.999354 0.998272 0.998993
0.999039 0.999301 0.998781
0.999484 1.00041 0.995054
0.999021 1.00023 0.998565
0.998891 0.999938 0.998682
0.999795 1.00058 0.994252
0.999421 0.997989 0.998457
0.99955 1.00054 0.994806
0.999537 0.999917 0.995779
1.00014 1.00156 0.992714
0.999484 0.997722 0.999122
0.999698 0.998681 0.996417
1.0001 1.00034 0.993974
0.999699 1.00063 0.994484
1.00118 1.00078 0.991494
0.999567 0.999442 0.996478
1.00037 1.00133 0.992548
1 1.00166 0.992906
1.00057 1.0018 0.991626
0.999591 0.997228 0.999236
0.999535 0.997448 0.9992
0.9992 1.00006 0.998514
0.999402 1.00001 0.998371
0.999571 1 0.998234
0.99929 0.999977 0.997473
1.0007 0.999996 0.993643
0.999064 1.00011 0.997644
1.0004 0.999985 0.994189
0.999628 0.999995 0.998196
1.00087 0.999965 0.992783
1.00057 0.999989 0.994411
1.00262 0.99977 0.98971
1.00028 1.00012 0.994765
1.00222 1 0.990262
0.999493 0.99993 0.996243
0.999152 0.999989 0.996632
0.999186 0.998862 0.997452
0.998833 1.00039 0.99687
1.00032 1.00011 0.994254
0.999821 1.00043 0.994816
0.999518 1.00048 0.995277
1.0008 1.00118 0.992314
0.999576 0.999993 0.998238
0.999304 0.999931 0.996484
1.00072 0.999924 0.993387
1.00047 0.999947 0.994095
0.999414 0.998244 0.998302
0.999444 1.00019 0.995795
1.00001 1.00034 0.994557
1.00207 1.00012 0.990799
1.00033 1.0015 0.992791
1.00111 1.00076 0.991924
1.00134 1.00119 0.990809
1.00084 0.999967 0.992817
1.00053 0.999896 0.994019
1.00266 0.999699 0.989972
1.00232 0.999813 0.990492
1.00161 1.0004 0.991251
1.00298 0.999936 0.989172
0.999502 0.99784 0.999081
1.00176 1.00075 0.990414
0.999556 0.999749 0.995602
0.999953 1.00157 0.992981
1.00092 1.00174 0.991169
1.00176 1.00108 0.990126
0.999704 0.998917 0.996117
1.00008 1.00057 0.993828
0.998962 1.00019 0.998582
0.998892 0.999769 0.998718
0.999755 1.00062 0.994262
0.999439 0.997921 0.999093
0.999506 0.999943 0.995461
0.999477 1.00066 0.994796
1.00014 1.00155 0.992701
0.999487 0.997695 0.999142
0.999705 0.998635 0.996435
1.00007 1.00031 0.994456
0.999628 1.00062 0.994936
1.00117 1.00077 0.99151
0.999581 0.999405 0.995909
1.00035 1.00132 0.992552
0.99999 1.00167 0.992898
1.00057 1.00179 0.991595
0.999632 0.999043 0.996172
0.999771 0.99832 0.99665
1.00003 1.0005 0.993968
1.00165 1.00043 0.990935
1.0007 1.00112 0.992113
1.00188 1.00086 0.990096
1.00002 1.00131 0.993207
1.00086 1.00144 0.991425
1.00033 1.00225 0.991742
1.0007 1.00207 0.991173
0.999662 0.996969 0.99928
0.999598 0.997183 0.999251
0.999538 0.997404 0.999218
0.999753 0.998583 0.996378
0.999547 0.997606 0.999144
0.999083 1.00014 0.998547
0.999297 1.00001 0.998459
1.00038 0.999951 0.993729
1.00065 0.999994 0.993165
0.999529 1.00001 0.998266
0.999629 0.999997 0.998191
1.00085 0.999973 0.992796
1.00052 0.999982 0.993984
1.00262 0.999775 0.989712
1.00022 1.0001 0.993881
1.00222 1.00001 0.990263
1.00094 0.999952 0.992638
1.00289 0.99968 0.989278
1.0024 0.999863 0.990049
1.00353 0.999485 0.98828
1.00199 1.00017 0.990529
1.0031 0.999728 0.988885
0.999611 0.999989 0.998207
0.999226 0.999899 0.996564
1.00073 0.999899 0.992631
1.0005 0.999951 0.994074
0.99934 0.998178 0.99901
0.9995 1.00018 0.995907
1.00005 1.00029 0.994558
1.00207 1.00012 0.990688
1.00115 1.00081 0.991991
1.00039 1.00154 0.992724
1.00134 1.00119 0.990815
1.00086 0.999955 0.992806
1.00056 0.999888 0.993996
1.00264 0.99969 0.989769
1.00233 0.99986 0.990564
0.999483 0.997875 0.999058
0.999552 0.999737 0.995916
1.00002 1.00159 0.993085
1.00159 1.00043 0.991263
1.00297 0.999884 0.989044
1.00086 1.00174 0.991155
1.00182 1.00075 0.990449
1.00175 1.00107 0.990137
0.999686 0.998977 0.996106
1.00008 1.00055 0.993826
1.00292 0.999641 0.989254
1.00244 0.999721 0.99035
1.00357 0.999463 0.988497
1.00328 0.999458 0.988663
1.00231 1.00033 0.98987
1.00348 0.999492 0.988566
0.999628 0.999299 0.995852
1.00227 1.0005 0.989712
0.999962 1.00144 0.993123
1.0004 1.00197 0.991656
1.00132 1.00187 0.990492
1.00206 1.00085 0.98989
1.00008 1.001 0.993412
1.00008 1.00007 0.99431
1.00025 1.00166 0.992422
1.00001 1.00034 0.994035
0.999488 0.997663 0.99916
0.999709 0.998596 0.996453
0.999544 1.00075 0.994551
1.00116 1.00076 0.991526
0.999578 0.999361 0.995887
0.999971 1.00167 0.992891
1.00034 1.00131 0.992556
1.00058 1.00179 0.991564
0.999642 0.998991 0.996184
0.999767 0.998298 0.996665
1.00003 1.00051 0.993972
1.00164 1.00043 0.990946
1.00068 1.0011 0.99213
1.00188 1.00086 0.990099
0.999992 1.00136 0.993206
1.00087 1.00144 0.991469
1.00033 1.00225 0.991738
1.00069 1.00208 0.991126
0.999836 0.998021 0.996826
1.00005 1.00088 0.993548
1.00003 1.00005 0.994423
1.0002 1.00154 0.992656
1.00244 1.00038 0.9895
1.00128 1.00125 0.990884
1.00228 1.00078 0.989392
1.00025 1.00211 0.992059
1.0011 1.00152 0.990978
1.00036 1.00291 0.991022
1.00082 1.00206 0.990769
1.00013 0.999064 0.995234
0.999937 0.99761 0.997038
0.999737 0.996746 0.99931
0.999672 0.996933 0.99929
0.999605 0.997139 0.999265
0.999802 0.998271 0.996608
0.999587 0.997364 0.999202
0.999748 0.998625 0.996359
0.999544 0.997634 0.999125
1.00023 1.00008 0.993885
1.0005 0.999953 0.993498
1.0022 1.00003 0.990264
1.00261 0.99978 0.989713
1.00084 0.999982 0.992808
0.999625 1 0.998193
1.00094 0.999955 0.992636
1.00289 0.99968 0.989281
1.00239 0.999877 0.990048
1.00354 0.999491 0.988281
1.00198 1.00019 0.990534
1.0031 0.999726 0.988884
1.00301 0.999621 0.989096
1.00383 0.999384 0.987804
1.00332 0.999554 0.988644
1.00393 0.999127 0.987902
1.00282 1 0.989136
1.00358 0.999261 0.988437
1.00087 0.999945 0.992793
1.00059 0.999894 0.993971
1.00262 0.999672 0.989567
1.00235 0.999901 0.990636
0.999466 0.997915 0.999035
0.999561 0.999737 0.996216
1.00009 1.00159 0.993187
1.00158 1.00046 0.991275
1.00296 0.999831 0.988915
1.00187 1.00076 0.990485
1.0008 1.00174 0.991141
1.00175 1.00107 0.990148
0.99967 0.999037 0.996095
1.00008 1.00054 0.993824
1.0029 0.999629 0.989193
1.00245 0.999725 0.990345
1.00358 0.999433 0.988428
1.00328 0.999524 0.988795
0.99962 0.999353 0.99585
0.999987 1.00144 0.993127
1.0004 1.00194 0.99174
1.00236 1.00036 0.989855
1.00347 0.999417 0.988535
1.00127 1.00189 0.990398
1.00228 1.00049 0.989711
1.00201 1.00084 0.989883
1.00009 1.00095 0.993419
1.00026 1.00162 0.992428
1.00008 1.00008 0.994301
1.00382 0.999409 0.988055
1.00341 0.999413 0.988724
1.00403 0.999193 0.987768
1.00382 0.99904 0.988203
1.00278 0.999926 0.989154
1.00374 0.998864 0.988593
1.00002 1.00129 0.993213
1.0025 1.00018 0.989549
1.00031 1.00184 0.992151
1.0006 1.00236 0.990906
1.00153 1.00194 0.989873
1.00221 1.00062 0.989992
1.00012 0.99967 0.99465
1.00031 1.00167 0.992319
1.00023 1.00133 0.992717
1.00025 1.00221 0.991959
1.00164 1.00043 0.990956
0.999763 0.998276 0.996679
0.999654 0.998938 0.996196
1.00003 1.00051 0.993975
1.00067 1.00109 0.992147
1.00187 1.00086 0.990102
0.999962 1.00141 0.993205
1.00032 1.00225 0.991733
1.00088 1.00145 0.991512
1.00067 1.00209 0.99108
0.999829 0.998012 0.996834
1.00004 1.00091 0.993546
1.00003 1.00004 0.994432
1.0002 1.00156 0.992645
1.00243 1.00039 0.989494
1.00126 1.00125 0.990896
1.00228 1.00078 0.989395
1.00023 1.00212 0.992066
1.00111 1.00154 0.991024
1.00037 1.00292 0.990995
1.00079 1.00205 0.990913
0.99989 0.997796 0.996949
1.00006 0.999661 0.994759
1.00026 1.00176 0.992368
1.00019 1.00116 0.993054
1.00018 1.00231 0.991956
1.00288 1.00017 0.988848
1.00158 1.00127 0.990275
1.00247 1.00068 0.989156
1.00022 1.00297 0.991273
1.00122 1.00155 0.990693
1.00048 1.00318 0.990191
1.00011 0.999224 0.995117
1.00016 1.00008 0.994178
1.00015 0.99894 0.995325
1.00013 0.999083 0.995231
0.999968 0.997409 0.997561
0.999928 0.997589 0.997267
0.999845 0.99657 0.998456
0.999747 0.996714 0.999319
0.999682 0.996897 0.999299
0.999858 0.99801 0.996767
0.999643 0.997115 0.99925
0.999806 0.998292 0.996593
0.999586 0.997401 0.999184
0.999742 0.998669 0.996341
0.99954 0.997663 0.999106
1.00198 1.0002 0.99054
1.00239 0.999886 0.990046
1.0031 0.999731 0.988884
1.00354 0.999498 0.988281
1.00288 0.999679 0.989285
1.00094 0.999958 0.992635
1.00301 0.999618 0.989094
1.00383 0.999386 0.987809
1.00331 0.999565 0.988646
1.00395 0.999114 0.987853
1.00283 1.00001 0.98913
1.00358 0.999271 0.988438
1.00397 0.999315 0.987603
1.0042 0.999089 0.987377
1.00379 0.999084 0.98819
1.00416 0.998851 0.987811
1.00328 0.999648 0.988617
1.00382 0.998605 0.988621
1.00288 0.999618 0.989132
1.00247 0.99972 0.99034
1.0036 0.999409 0.988359
1.00328 0.999591 0.988927
0.999612 0.999398 0.995846
1.00001 1.00143 0.993132
1.00041 1.00191 0.991825
1.00241 1.0004 0.98984
1.00346 0.99934 0.988505
1.00228 1.00049 0.98971
1.00121 1.0019 0.990304
1.00196 1.00083 0.989875
1.0001 1.0009 0.993426
1.00026 1.00159 0.992433
1.00008 1.00009 0.994292
1.00384 0.999384 0.987925
1.00342 0.999383 0.988724
1.00403 0.99915 0.987724
1.00382 0.999074 0.98823
1.00005 1.00123 0.993221
1.00034 1.00183 0.992138
1.00057 1.00236 0.99101
1.00279 1 0.989202
1.00374 0.998738 0.988646
1.00145 1.002 0.989802
1.00251 1.00017 0.989554
1.00217 1.00054 0.99001
1.00031 1.00167 0.992333
1.00026 1.00222 0.991904
1.00011 0.999689 0.994643
1.00024 1.00126 0.992784
1.00424 0.999134 0.987308
1.00393 0.999062 0.988057
1.00425 0.99892 0.987522
1.00409 0.998584 0.98812
1.0031 0.999411 0.989119
1.00401 0.998168 0.988764
1.0003 1.00172 0.992291
1.0026 0.999627 0.989904
1.00032 1.00227 0.991553
1.00082 1.00278 0.990228
1.00166 1.00203 0.989391
1.00232 1.00051 0.989928
1.00013 0.999476 0.994826
1.00025 1.00083 0.993176
1.00033 1.00206 0.991918
1.0002 1.0021 0.992125
1.00027 1.00235 0.99176
0.999823 0.998003 0.996842
1.00244 1.0004 0.989488
1.00004 1.00003 0.994441
1.00003 1.00097 0.993544
1.00019 1.00158 0.992635
1.00124 1.00126 0.990908
1.00228 1.00078 0.989399
1.0002 1.00213 0.992072
1.00039 1.00293 0.990969
1.00113 1.00156 0.991071
1.00077 1.00203 0.991057
0.999885 0.997786 0.996954
1.00006 0.999652 0.994767
1.00025 1.00177 0.992365
1.00018 1.00117 0.993053
1.00018 1.00233 0.991915
1.00289 1.00017 0.988838
1.00157 1.00127 0.99028
1.00246 1.00069 0.989133
1.0002 1.00297 0.991286
1.00124 1.00157 0.99072
1.00055 1.00317 0.990258
1.00009 0.999412 0.99497
1.00019 1.00072 0.993475
1.00026 1.0025 0.991646
1.00014 1.00206 0.992261
1.00013 1.00287 0.991517
1.00314 0.999832 0.988673
1.00175 1.00118 0.990015
1.00234 1.00024 0.989669
1.00015 1.00379 0.990506
1.0011 1.0027 0.989802
1.00011 0.999229 0.995118
1.00016 1.00023 0.99392
1.00016 1.0001 0.994114
1.00014 1.00089 0.993559
1.00017 1.00004 0.994207
1.00018 0.99885 0.995373
1.00015 0.998948 0.995323
1.00001 0.997232 0.997634
1.00012 0.999101 0.995228
0.999973 0.997397 0.997572
0.999914 0.996374 0.998515
0.999921 0.997574 0.997493
0.999826 0.99654 0.998901
0.999757 0.996683 0.999327
0.999904 0.997814 0.996874
0.999862 0.998022 0.996759
0.999713 0.996894 0.999282
0.999639 0.997155 0.999236
0.99981 0.998311 0.996578
0.999585 0.997438 0.999166
1.00283 1.00001 0.989123
1.00331 0.999569 0.988648
1.00358 0.999278 0.988439
1.00398 0.999102 0.987804
1.00383 0.999387 0.987814
1.00302 0.999616 0.989092
1.00398 0.999314 0.987603
1.00422 0.999111 0.987296
1.00379 0.999091 0.988197
1.00416 0.9988 0.987817
1.00328 0.999655 0.988603
1.00385 0.998573 0.988597
1.00439 0.99908 0.987011
1.00442 0.998918 0.987186
1.00405 0.998565 0.98817
1.00425 0.998641 0.987815
1.00356 0.99901 0.98863
1.00408 0.99824 0.98861
1.00386 0.999358 0.987795
1.00343 0.999358 0.988724
1.00403 0.999107 0.987679
1.00382 0.999106 0.988257
1.00007 1.00118 0.99323
1.00037 1.00182 0.992124
1.00055 1.00237 0.991114
1.00281 1.00008 0.989251
1.00375 0.998611 0.9887
1.00252 1.00016 0.989559
1.00138 1.00206 0.989731
1.00213 1.00046 0.990029
1.00031 1.00166 0.992346
1.00027 1.00222 0.99185
1.0001 0.999706 0.994635
1.00025 1.00119 0.992852
1.00424 0.999135 0.987303
1.00393 0.999054 0.988074
1.00422 0.998888 0.987583
1.00409 0.998578 0.988121
1.00032 1.00171 0.992291
1.00032 1.00223 0.991636
1.0008 1.00283 0.990222
1.00311 0.999513 0.989086
1.00389 0.998047 0.989025
1.00165 1.00209 0.989349
1.00259 0.999642 0.989922
1.00228 1.00029 0.990024
1.00034 1.00205 0.991922
1.00028 1.00234 0.99175
1.0002 1.00212 0.992114
1.00013 0.999473 0.994748
1.00025 1.00078 0.993226
1.00448 0.998905 0.98704
1.00431 0.998683 0.987603
1.00432 0.998085 0.988139
1.00341 0.998525 0.98936
1.00032 1.00205 0.991926
1.00286 0.999119 0.990181
1.00023 1.00268 0.99113
1.00105 1.0033 0.989258
1.00198 1.002 0.98891
1.00014 0.99933 0.994802
1.00024 1.00053 0.993642
1.0002 1.00163 0.99261
1.00034 1.00211 0.991855
1.00019 1.00263 0.991671
1.00033 1.00229 0.991634
0.99988 0.997777 0.996959
1.00007 0.999645 0.994775
1.00289 1.00018 0.988827
1.00018 1.00118 0.993052
1.00024 1.00176 0.992361
1.00017 1.00235 0.991874
1.00157 1.00127 0.990285
1.00246 1.00069 0.989111
1.00018 1.00296 0.991299
1.00062 1.00315 0.990325
1.00125 1.00159 0.990747
1.00008 0.999412 0.994974
1.00019 1.00072 0.99348
1.00023 1.0025 0.991681
1.00015 1.00206 0.992256
1.00012 1.0029 0.991455
1.00312 0.999873 0.988669
1.00177 1.00117 0.98999
1.0024 1.00012 0.989719
1.00013 1.00378 0.990461
1.0011 1.00284 0.98968
1.00017 1.00043 0.993806
1.00017 1.00164 0.99256
1.00017 1.00327 0.991099
1.00011 1.00278 0.991546
1.0002 1.00314 0.991088
1.00339 0.99838 0.989652
1.00185 1.00166 0.989526
1.00248 0.999305 0.989843
1.0004 1.00418 0.989959
1.00093 1.00329 0.988815
1.0001 0.999235 0.995119
1.00017 1.00023 0.993968
1.00016 1.00102 0.993187
1.00017 1.00013 0.994051
1.00017 1.00005 0.994207
1.00014 1.00087 0.993469
1.00011 1.00148 0.99299
1.00013 1.00082 0.993463
1.00018 0.999993 0.994241
1.00019 0.998826 0.995372
1.00018 0.998848 0.995374
1.00006 0.997115 0.997665
1.00015 0.998956 0.99532
1.00002 0.997227 0.997642
0.999965 0.996212 0.998565
0.999979 0.997382 0.997583
0.999906 0.996352 0.998512
0.999804 0.996503 0.999351
0.99995 0.997636 0.996966
0.999909 0.997821 0.996869
0.999778 0.996702 0.999307
0.999866 0.998034 0.99675
0.999704 0.996924 0.999273
0.999635 0.997191 0.999221
1.00329 0.999663 0.988589
1.00379 0.999102 0.988204
1.00387 0.998545 0.988574
1.00417 0.99875 0.987822
1.00425 0.99913 0.987216
1.00398 0.999315 0.987604
1.00441 0.999098 0.98698
1.0044 0.998942 0.987216
1.00407 0.998577 0.98813
1.00426 0.998557 0.987838
1.00357 0.999031 0.988637
1.00403 0.998156 0.988694
1.00464 0.998953 0.986697
1.00445 0.998647 0.987389
1.00426 0.99822 0.988138
1.00394 0.998256 0.988835
1.00424 0.999135 0.987299
1.00394 0.999043 0.988091
1.00419 0.998855 0.987644
1.0041 0.998577 0.988121
1.00034 1.0017 0.992291
1.00033 1.00219 0.991718
1.00078 1.00288 0.990216
1.00312 0.999614 0.989052
1.00378 0.997929 0.989284
1.00257 0.999658 0.98994
1.00163 1.00214 0.989307
1.00223 1.00008 0.99012
1.00036 1.00204 0.991926
1.00029 1.00233 0.991741
1.00019 1.00214 0.992103
1.00012 0.999472 0.99467
1.00027 1.00073 0.993277
1.00445 0.998882 0.98712
1.00431 0.998716 0.987599
1.00429 0.998112 0.988235
1.00035 1.00204 0.991916
1.00032 1.00264 0.991223
1.00101 1.00339 0.989241
1.00346 0.998577 0.989269
1.00195 1.00183 0.989082
1.00276 0.999086 0.990174
1.00014 0.999306 0.99482
1.00035 1.00212 0.991851
1.00032 1.00227 0.991694
1.00019 1.00267 0.99163
1.0002 1.00161 0.992646
1.00024 1.00052 0.993579
1.00456 0.998767 0.987118
1.00458 0.998288 0.987443
1.0042 0.998057 0.988231
1.0038 0.997615 0.989598
1.00032 1.00224 0.991745
1.00258 1.00053 0.989119
1.00039 1.0035 0.990148
1.00127 1.00378 0.988501
1.00015 0.999175 0.994945
1.00022 1.00033 0.993889
1.00021 1.00135 0.992935
1.00016 1.00239 0.991906
1.00038 1.00219 0.99171
1.00029 1.00259 0.99145
1.00008 0.999411 0.994978
1.00019 1.00071 0.993485
1.00311 0.999915 0.988664
1.00015 1.00206 0.992251
1.00021 1.00249 0.991715
1.00011 1.00294 0.991392
1.0018 1.00116 0.989965
1.00247 0.999986 0.989768
1.0001 1.00378 0.990415
1.00109 1.00298 0.989558
1.00018 1.00042 0.99381
1.00017 1.00164 0.992581
1.00013 1.00325 0.991172
1.00011 1.0028 0.991564
1.00015 1.00319 0.991092
1.0035 0.998381 0.989544
1.00191 1.00151 0.98955
1.00246 0.999312 0.990175
1.00033 1.00418 0.989896
1.00106 1.00357 0.988624
1.00018 1.00121 0.992983
1.00014 1.00242 0.991832
1.00013 1.00382 0.990587
1.00011 1.00337 0.990822
1.00441 0.997637 0.988809
1.00364 0.997151 0.990167
1.00193 1.00216 0.988655
1.00042 1.00465 0.988771
1.00017 1.00022 0.994017
1.00016 1.00103 0.993228
1.00014 1.00165 0.992696
1.00017 1.00006 0.994207
1.00014 1.00085 0.993378
1.00018 0.999988 0.994242
1.00012 1.00148 0.992914
1.00012 1.00082 0.993493
1.0001 1.00196 0.992488
1.0001 1.00137 0.992953
1.00012 1.00078 0.993513
1.0002 0.999958 0.994248
1.00019 0.998853 0.995337
1.00019 0.998821 0.995373
1.00008 0.997072 0.997655
1.00018 0.998842 0.995375
1.00006 0.997125 0.997665
1.00001 0.99612 0.998573
1.00002 0.997223 0.997649
0.999959 0.99619 0.998564
0.999897 0.996333 0.998508
0.999994 0.997453 0.997066
0.999954 0.997643 0.996962
0.999838 0.996521 0.999331
0.999914 0.997829 0.996864
0.99977 0.996729 0.9993
0.999696 0.996957 0.999264
1.00358 0.99905 0.988643
1.00408 0.998586 0.988091
1.00397 0.998067 0.988777
1.00427 0.998471 0.987862
1.00437 0.998964 0.987246
1.00442 0.999119 0.98695
1.00459 0.998955 0.98681
1.00444 0.998659 0.987392
1.00425 0.99823 0.988155
1.00393 0.998165 0.988808
1.00461 0.998799 0.986959
1.00453 0.998105 0.987779
1.00428 0.998059 0.988275
1.00442 0.998858 0.9872
1.00431 0.998748 0.987596
1.00426 0.998134 0.98833
1.00038 1.00202 0.991907
1.00041 1.0026 0.991317
1.00096 1.00349 0.989224
1.00351 0.998629 0.989179
1.00267 0.999048 0.990167
1.00193 1.00167 0.989256
1.00035 1.00212 0.991848
1.00029 1.00225 0.991754
1.00018 1.00272 0.991589
1.00014 0.99928 0.994838
1.00021 1.00159 0.992682
1.00024 1.00051 0.993515
1.00456 0.998775 0.987057
1.00458 0.998315 0.98744
1.00428 0.998044 0.988165
1.00035 1.00224 0.991723
1.00035 1.00344 0.990345
1.0013 1.00379 0.988496
1.00375 0.99771 0.989641
1.00259 1.00043 0.989112
1.00015 0.999159 0.995032
1.00022 1.00032 0.993892
1.00034 1.00219 0.991699
1.00029 1.00253 0.991526
1.00017 1.00238 0.991896
1.0002 1.00138 0.992882
1.00463 0.998537 0.98714
1.00475 0.998004 0.987361
1.00453 0.997249 0.988533
1.00379 0.997977 0.989501
1.00015 1.00275 0.991439
1.00173 1.00347 0.987814
1.00064 1.00415 0.989461
1.00016 0.998999 0.995243
1.00017 0.999952 0.994299
1.00019 1.00024 0.99387
1.00018 1.00118 0.993092
1.00013 1.00208 0.992259
1.00009 1.00309 0.99128
1.00045 1.0018 0.991798
1.00024 1.00297 0.991618
1.00018 1.00041 0.993814
1.00017 1.00165 0.992603
1.00359 0.998379 0.989436
1.0001 1.00282 0.991583
1.0001 1.00324 0.991245
1.0001 1.00324 0.991096
1.00196 1.00137 0.989574
1.00244 0.99932 0.990506
1.00026 1.00418 0.989834
1.00118 1.00384 0.988433
1.00018 1.00125 0.992938
1.00013 1.00243 0.991858
1.00011 1.00381 0.990642
1.00015 1.00339 0.990877
1.00438 0.997675 0.98865
1.00352 0.997324 0.990232
1.00203 1.00202 0.988829
1.00054 1.00463 0.988678
1.00014 1.00191 0.992418
1.00437 0.997706 0.988377
1.0001 1.0032 0.99131
1.00026 1.00413 0.989999
1.00477 0.996465 0.989019
1.00321 0.999598 0.988672
1.00118 1.00445 0.988205
1.00016 1.00105 0.993268
1.00014 1.00165 0.992694
1.00012 1.0022 0.992193
1.00018 0.999986 0.994243
1.00012 1.00082 0.993523
1.00013 1.00148 0.992839
1.0002 0.999949 0.994249
1.00011 1.00079 0.993508
1.00011 1.00198 0.992427
1.0001 1.00138 0.993022
1.00011 1.0023 0.992116
1.0001 1.00186 0.992495
1.0001 1.00133 0.993112
1.00013 1.00072 0.99362
1.00021 0.999965 0.994221
1.00018 0.998891 0.995307
1.00019 0.998853 0.995338
1.0001 0.997077 0.997622
1.00019 0.998819 0.995373
1.00008 0.997092 0.997651
1.00003 0.996078 0.99856
1.00006 0.997134 0.997665
1 0.996092 0.998575
0.999954 0.996168 0.998561
1.00018 0.998839 0.995373
1.00004 0.997279 0.997161
0.999997 0.997464 0.997061
0.999892 0.99635 0.999357
0.999957 0.997651 0.996958
0.999831 0.99655 0.999324
0.999762 0.996755 0.999292
1.00393 0.998079 0.988782
1.00424 0.998239 0.988173
1.00443 0.998669 0.987394
1.00454 0.998958 0.986923
1.0046 0.9988 0.986956
1.00454 0.998084 0.987776
1.00426 0.998059 0.988276
1.0046 0.99836 0.98737
1.00452 0.998027 0.987929
1.00436 0.997659 0.988153
1.00457 0.998784 0.986996
1.00458 0.998354 0.987437
1.00436 0.998038 0.9881
1.00038 1.00224 0.9917
1.0003 1.00336 0.990543
1.00133 1.00375 0.988492
1.00368 0.997806 0.989685
1.00261 1.0003 0.989104
1.0003 1.00219 0.991688
1.00031 1.00246 0.991601
1.00016 1.00237 0.991885
1.00015 0.999141 0.995119
1.00022 1.00032 0.993894
1.00019 1.00141 0.992829
1.00462 0.998476 0.987263
1.00017 0.998993 0.995241
1.00016 0.999953 0.994255
1.00479 0.998035 0.987325
1.00445 0.997353 0.988454
1.00013 1.0027 0.991546
1.00063 1.0043 0.989259
1.00171 1.00335 0.987865
1.00366 0.997987 0.989578
1.00019 1.00024 0.994001
1.00018 1.00117 0.993093
1.00052 1.00186 0.991691
1.00016 1.00257 0.991904
1.00008 1.00317 0.991192
1.00015 1.00205 0.992264
1.0047 0.997357 0.988074
1.00485 0.998014 0.987268
1.00486 0.996083 0.989003
1.00281 1.0006 0.988442
1.00025 1.00292 0.991278
1.00103 1.00485 0.9881
1.00015 0.999848 0.994328
1.00017 1.00011 0.994131
1.00011 1.00082 0.993686
1.00015 1.00111 0.993118
1.00012 1.0019 0.99256
1 1.00274 0.991708
0.999951 1.00397 0.990852
1.00018 1.00224 0.991953
1.00018 1.00129 0.992894
1.00013 1.00244 0.991884
1.00436 0.99772 0.988491
1.0034 0.997537 0.990297
1.00018 1.00341 0.990933
1.00009 1.00379 0.990697
1.00211 1.0019 0.989003
1.00067 1.0046 0.988584
1.00013 1.00193 0.992411
1.00437 0.997786 0.988315
1.00008 1.00314 0.991325
1.00026 1.00408 0.989949
1.00462 0.996369 0.98906
1.00331 0.999597 0.988727
1.0011 1.00448 0.988252
1.00009 1.00272 0.991735
1.00487 0.997019 0.988838
1.00035 1.00341 0.990793
1.00056 1.00465 0.989346
1.00458 0.996455 0.989092
1.0017 1.00295 0.988037
1.00177 1.00004 0.991045
1.00014 1.00166 0.992691
1.00011 1.00221 0.992188
1.00017 1.00248 0.991827
1.0002 0.999939 0.99425
1.00011 1.0008 0.993503
1.0001 1.00139 0.993091
1.00012 1.00199 0.992366
1.00021 0.999956 0.994219
1.00013 1.00071 0.993575
1.00011 1.00229 0.992101
1.0001 1.00132 0.993106
1.00009 1.00187 0.992552
1.00013 1.00221 0.992137
1.00005 1.0017 0.992834
1.00013 1.00122 0.993174
1.00017 1.00067 0.993515
1.00022 0.999977 0.994088
1.00017 1.00061 0.993749
1.00021 0.999975 0.994109
1.00018 0.998911 0.995294
1.00018 0.998891 0.995307
1.00012 0.997117 0.997174
1.00019 0.998853 0.995338
1.0001 0.9971 0.997408
1.00002 0.996033 0.999383
1.00008 0.997112 0.997647
1.00004 0.996046 0.998563
1 0.996064 0.998576
1.00018 0.998728 0.995478
1.00018 0.998838 0.99537
1.00007 0.997138 0.997236
1.00003 0.997287 0.997368
0.999939 0.996204 0.999378
0.999999 0.997475 0.997057
0.999885 0.996377 0.999349
0.999823 0.996576 0.999316
1.00423 0.998056 0.988277
1.00455 0.998066 0.987773
1.00458 0.998804 0.986953
1.00462 0.998354 0.987349
1.0045 0.998002 0.987947
1.00444 0.997733 0.988183
1.0046 0.99759 0.988091
1.00282 0.999836 0.988894
1.00493 0.99668 0.988328
1.00016 0.99978 0.994493
1.00461 0.99841 0.987387
1.00482 0.998055 0.98729
1.00438 0.99748 0.988376
1.00011 1.00267 0.991652
1.00063 1.00443 0.989057
1.00168 1.00324 0.987917
1.00352 0.998039 0.989656
1.00058 1.00195 0.991584
1.00007 1.00216 0.992192
1.00005 1.00324 0.991104
1.00017 0.998991 0.995238
1.00016 1.00202 0.992268
1.00019 1.00024 0.994133
1.00018 1.00117 0.993094
1.00016 0.999951 0.994211
1.00467 0.997418 0.988154
1.00016 0.999837 0.994383
1.00017 1.00012 0.994127
1.00011 1.0008 0.993585
1.00493 0.9978 0.987285
1.00473 0.996437 0.988957
1.0003 1.00264 0.991342
1.00084 1.00489 0.987995
1.00279 1.00062 0.988457
1.00015 1.0011 0.993189
1.00011 1.0019 0.992531
1.00015 1.0024 0.991794
0.999946 1.00383 0.990948
1.00002 1.00274 0.991776
1.00471 0.997137 0.988339
1.00498 0.997476 0.987583
1.00433 0.997743 0.988311
1.00157 1.00345 0.988257
1.00024 1.0036 0.990578
1.0001 1.00067 0.993603
1.00012 1.00098 0.993337
1.00012 1.0014 0.993069
1.00007 1.00176 0.992711
1.00006 1.00239 0.992174
0.999898 1.00331 0.991433
0.999829 1.00416 0.990683
1.00012 1.00196 0.992403
1.00006 1.0031 0.99134
1.00437 0.997863 0.988253
1.00447 0.996253 0.989101
1.00344 0.999577 0.988781
1.00025 1.00403 0.989901
1.00102 1.00452 0.988298
1.00008 1.00268 0.991812
1.00485 0.996629 0.988784
1.00025 1.00339 0.990849
1.00039 1.00461 0.989383
1.0046 0.996118 0.989327
1.00171 1.0032 0.988007
1.00179 1.00011 0.990272
1.00018 1.00294 0.991359
1.00509 0.994869 0.990378
1.00015 1.0037 0.990784
1.00027 1.00495 0.989059
1.00248 1.00017 0.988592
0.999998 0.995181 0.967998
0.997307 1.00146 0.981898
1.0014 1.00014 0.992114
0.997243 0.997451 0.964938
0.995564 0.996789 0.96643
1.00011 1.00222 0.992184
1.00014 1.00248 0.99187
1.00023 1.00233 0.991874
1.00021 0.99995 0.994217
1.00014 1.0007 0.99353
1.00011 1.00132 0.9931
1.00008 1.00188 0.992609
1.00011 1.00227 0.992085
1.00014 1.00122 0.993125
1.00021 0.999982 0.994138
1.00018 1.00066 0.99356
1.00011 1.00222 0.992154
1.00006 1.00167 0.992821
1.00007 1.00156 0.992883
1.00009 1.00192 0.992537
1.00018 1.00112 0.993058
1.00021 1.00064 0.993479
1.00021 0.999985 0.994078
1.00021 1.00059 0.99363
1.00016 1.00103 0.99332
1.00013 1.00066 0.993663
1.00017 1.00061 0.993684
1.00021 0.999964 0.99422
1.00021 0.999982 0.994105
1.00018 0.998919 0.995288
1.00018 0.998909 0.995294
1.00011 0.997154 0.997162
1.00018 0.998891 0.995307
1.00012 0.997119 0.997173
1.00002 0.996035 0.999379
1.00011 0.997123 0.997194
1.00004 0.996034 0.998963
1.00004 0.996014 0.998565
1.00019 0.998643 0.995555
1.00018 0.998722 0.995477
1.00009 0.99703 0.997302
1.00018 0.998836 0.995368
1.00007 0.997133 0.997443
0.999977 0.996089 0.999395
1.00004 0.997305 0.997146
0.999932 0.996248 0.999369
0.999879 0.996406 0.999341
1.00447 0.997976 0.987965
1.00463 0.998348 0.987328
1.00452 0.997806 0.988214
1.00263 0.99879 0.989065
1.00464 0.997559 0.988134
1.00489 0.996927 0.988347
1.00505 0.997249 0.987647
0.998806 0.998847 0.980923
1.00395 0.996883 0.989187
1.00016 0.999756 0.99452
1.00017 0.999775 0.994492
1.00009 1.00059 0.99382
1.00007 1.00057 0.993881
1.00465 0.997477 0.988234
1.005 0.997658 0.987301
1.00463 0.996731 0.98891
1.00036 1.00227 0.991407
1.00066 1.00501 0.987891
1.00278 1.00066 0.988473
1.00013 1.00258 0.991634
0.99995 1.0037 0.991045
1.00004 1.00275 0.991844
1.00017 1.00012 0.994123
1.0001 1.0019 0.992502
1.00015 1.0011 0.993261
1.00017 0.999826 0.994438
1.00011 1.00079 0.993484
1.00464 0.997157 0.988405
1.00011 1.00068 0.993705
1.00011 1.00096 0.993388
1.00012 1.00137 0.993027
1.00501 0.997181 0.987651
1.00428 0.997793 0.988297
1.0003 1.00338 0.990582
1.00157 1.0037 0.988072
1.00007 1.00177 0.992727
1.00003 1.00237 0.992188
0.999849 1.00416 0.99067
0.999931 1.00349 0.991294
1.00497 0.996851 0.98815
1.00506 0.997387 0.987331
1.00263 1.00212 0.987638
1.00018 1.00426 0.990044
1.0001 1.00151 0.992852
1.00006 1.00162 0.992854
1.00003 1.00239 0.992173
0.999969 1.00401 0.990642
0.999174 0.99519 0.965396
1.00006 1.00263 0.991889
1.00014 1.00337 0.990904
1.00484 0.996178 0.988731
1.00459 0.995778 0.989562
1.0017 1.00346 0.987977
1.00021 1.0046 0.98942
1.00171 1.00019 0.989499
1.00013 1.00297 0.991409
1.00507 0.994942 0.990279
1.00009 1.00369 0.990799
1.00025 1.00497 0.989076
1.00268 1.00002 0.988602
0.999837 0.995599 0.966386
0.997056 1.00125 0.97884
1.00131 1.00012 0.992375
0.996894 0.997812 0.964597
0.995457 0.996832 0.963976
1.00012 1.00284 0.991631
0.9981 0.994922 0.964708
0.996325 0.997911 0.966874
1.00399 0.996372 0.990703
0.999951 1.00384 0.990819
1.00024 1.00443 0.989829
1.00112 0.999782 0.993897
0.998073 0.998803 0.966804
0.996046 1.00207 0.977679
0.995908 0.999526 0.966109
0.997748 0.995585 0.971789
1.00011 1.00249 0.991913
1.0002 1.00236 0.991878
1.00022 1.00217 0.992135
1.00021 0.999985 0.994188
1.00018 1.00065 0.993605
1.00014 1.00122 0.993075
1.00008 1.00165 0.992808
1.0001 1.00222 0.992171
1.00022 0.999992 0.994077
1.00006 1.00153 0.992932
1.00019 1.00114 0.993113
1.00022 1.00062 0.993538
1.0001 1.00193 0.992486
1.00017 1.0015 0.992733
1.00013 1.00193 0.992491
1.00021 1.00098 0.993219
1.00023 1.00063 0.993559
1.00021 1.00059 0.993629
1.00017 1.00102 0.993263
1.00021 1.00095 0.993246
1.00013 1.00113 0.993214
1.00021 1.00127 0.992986
1.00003 1.00184 0.992662
1.00012 1.00077 0.993569
1.00013 1.00067 0.99366
1.00018 0.999993 0.99423
1.00017 1.00061 0.993619
1.0002 0.999968 0.994181
1.00018 0.998934 0.995281
1.00021 0.99999 0.9941
1.00018 0.998916 0.995289
1.00008 0.997181 0.997589
1.00018 0.998908 0.995294
1.0001 0.997148 0.997376
1.00006 0.996053 0.99852
1.00012 0.997122 0.997172
1.00002 0.996038 0.999377
1.00006 0.996036 0.998542
1.00016 0.999781 0.994497
1.00018 0.998617 0.995588
1.00019 0.998641 0.995555
1.00011 0.996953 0.997355
1.00019 0.998717 0.995477
1.0001 0.997023 0.997304
1 0.995997 0.99941
1.00006 0.997146 0.997638
0.999986 0.99613 0.99897
0.999962 0.996278 0.99852
1.00234 0.997824 0.989232
1.00468 0.997538 0.988178
1.00486 0.997153 0.988366
0.998364 0.998448 0.982986
1.00387 0.997453 0.989371
1.00503 0.99691 0.987734
1.00482 0.997368 0.989266
0.999361 0.997077 0.983915
0.998835 0.996004 0.964953
0.99739 0.997369 0.963467
0.996042 0.995451 0.965756
1.00007 1.00057 0.993784
1.00016 0.99976 0.994519
1.00017 0.999773 0.994492
1.00009 1.00059 0.993792
1.00004 1.00118 0.993337
1.00007 1.00106 0.993411
1.00008 1.00068 0.993779
1.00007 1.00058 0.993834
1.00457 0.997175 0.988471
1.00506 0.996795 0.98772
1.00423 0.997864 0.988282
1.00037 1.0032 0.990585
1.00157 1.00385 0.987887
0.999869 1.00416 0.990657
0.999964 1.00368 0.991154
1.00001 1.00234 0.992202
1.00011 1.00093 0.99344
1.00008 1.00177 0.992743
1.00011 1.00068 0.993808
1.00012 1.00133 0.992986
1.00492 0.99703 0.988006
1.00008 1.00151 0.992903
1.00006 1.00162 0.99283
1.00497 0.997348 0.987324
1.00222 1.0019 0.987949
1.00024 1.00427 0.989963
1.00006 1.00241 0.992089
0.999985 1.00401 0.990647
1.00463 0.999485 0.987404
1.00363 1.00005 0.988048
1.00001 1.00425 0.989713
0.999977 1.00384 0.990907
1.00004 1.00193 0.992493
1.00011 1.00226 0.992151
1.00011 1.00304 0.991425
0.998161 0.994781 0.963838
0.99969 0.995484 0.969129
1.00008 1.00301 0.991459
1.00002 1.00363 0.990814
1.00505 0.995011 0.990179
1.00291 0.99997 0.988613
1.00023 1.00505 0.989094
0.999889 0.995408 0.964331
0.997289 1.00135 0.980305
1.00119 1.00009 0.992641
0.996825 0.997428 0.964955
0.995337 0.996973 0.961518
1.00012 1.00278 0.991628
0.998269 0.994937 0.964013
0.996104 0.998241 0.966068
1.00414 0.996653 0.990619
0.999854 1.00407 0.990848
1.00008 1.00436 0.989884
1.00116 0.998915 0.994131
0.997933 0.998879 0.964668
0.996108 1.00336 0.980528
0.995853 0.999724 0.964684
0.997438 0.995661 0.970876
1.00024 1.00248 0.991745
0.996274 0.998273 0.970352
1.00121 0.996799 0.978445
1.00152 0.999113 0.992654
0.999609 1.00415 0.991779
1.00016 1.00308 0.994737
0.997115 1.00248 0.984244
0.995679 1.00154 0.964713
0.995475 0.999664 0.966012
1.00161 0.996099 0.973209
1.00017 1.00238 0.991883
1.00022 1.00218 0.992069
0.999956 1.00209 0.992376
1.00022 0.999997 0.994076
1.00022 1.00061 0.993596
1.00019 1.00116 0.993167
1.00004 1.0015 0.992981
1.00011 1.00195 0.992435
1.00023 1.00062 0.99356
1.00014 1.00153 0.992786
1.00021 1.00097 0.993212
1.00009 1.00194 0.992515
1.00016 1.00172 0.99277
1.00023 1.00131 0.992845
1.00022 1.00097 0.993204
1.00021 1.00059 0.993628
1.00017 1.00102 0.993207
1.00021 1.00095 0.993252
1.00012 1.00113 0.993211
1.00023 1.00123 0.992955
1.00008 1.00137 0.993034
1.00023 1.00119 0.993001
1.00022 1.00142 0.992734
1.00006 1.00248 0.991976
0.999865 1.00339 0.991367
0.999986 1.00232 0.992201
1.00002 1.00188 0.992655
1.00011 1.00102 0.993344
1.00012 1.00079 0.993561
1.00017 1.00004 0.994215
1.00013 1.00068 0.993657
1.00019 0.999993 0.994229
1.00016 0.998983 0.995268
1.0002 0.99997 0.994143
1.00018 0.998932 0.995283
1.00006 0.997221 0.997592
1.00018 0.998913 0.995289
1.00009 0.997176 0.997376
1.00004 0.996063 0.998522
1.00011 0.997139 0.997162
1.00002 0.996053 0.999375
1.00002 0.996039 0.999376
1.00016 0.999861 0.994575
1.00018 0.998662 0.99556
1.00015 0.999792 0.994496
1.00011 0.996931 0.997376
1.00018 0.998616 0.995588
1.00019 0.998637 0.995555
1.00011 0.996957 0.997353
1.00002 0.995937 0.999421
1.00008 0.997024 0.997703
1.00002 0.996012 0.998999
1.00001 0.99614 0.998561
0.998211 0.995344 0.964694
0.996545 0.996938 0.968641
0.998562 0.997639 0.984318
1.0038 0.998151 0.98955
1.005 0.996613 0.987819
0.999373 0.996906 0.986902
1.00481 0.99765 0.989181
0.999582 0.995413 0.967867
0.996899 0.997412 0.964418
0.99586 0.996045 0.963453
1.0007 0.996641 0.990371
0.998066 0.998343 0.967783
0.995934 0.999744 0.965471
0.997884 0.996633 0.96878
1.00005 1.00133 0.99313
1.00007 1.00056 0.993825
1.00016 0.999757 0.994518
1.00008 1.0006 0.993763
1.00003 1.00114 0.99341
1.00005 1.00136 0.993158
1.00007 1.00104 0.993411
1.0001 1.00096 0.993424
1.00008 1.00069 0.99372
1.00007 1.00059 0.993787
1.00487 0.997198 0.987865
1.00484 0.997219 0.987313
1.0018 1.00166 0.988262
1.00029 1.00433 0.989882
1 1.00399 0.990653
1.00009 1.00242 0.992005
1.00006 1.00163 0.992805
1.00006 1.0015 0.992953
1.00474 0.998736 0.987304
1.00005 1.00196 0.992458
1.00013 1.00227 0.99205
1.00324 1.00055 0.987525
0.999844 1.0042 0.990284
1.00008 1.0037 0.990802
1.00017 1.00289 0.991464
1.00251 1.00376 0.987374
1.00074 1.0022 0.991682
1.00005 1.00346 0.991049
1.00003 1.00213 0.992366
1.00016 1.00236 0.991872
1.00031 1.00276 0.991309
0.997495 0.99734 0.971666
0.998107 0.995154 0.963987
0.999456 0.995203 0.965118
1.00013 1.00273 0.991626
0.999777 1.00421 0.990878
1.00434 0.996799 0.990535
0.999922 1.00426 0.989936
0.998594 0.994826 0.96392
0.997687 0.998823 0.967625
0.996333 1.00316 0.977618
1.0012 0.998493 0.994363
0.995881 0.999858 0.965304
0.995849 0.998485 0.966121
0.997774 0.995593 0.970068
1.00017 1.00257 0.991746
0.996423 0.998153 0.970359
1.00114 0.997065 0.978544
1.0016 0.999088 0.9928
0.999376 1.00398 0.991796
1.00083 1.00172 0.99454
0.99719 1.00266 0.980262
0.995786 1.00284 0.966327
0.996015 0.999198 0.967519
1.00001 0.996374 0.97352
0.99959 1.00256 0.993196
1.00295 0.998121 0.979652
1.00709 0.997894 0.977875
0.998451 1.00354 0.994157
0.997849 1.0027 0.989826
0.995504 1.00236 0.965706
0.996347 0.999899 0.9688
1.00106 0.998671 0.970629
1.0002 1.00217 0.992004
1.00006 1.00203 0.992473
0.999961 1.00117 0.993283
1.00023 1.00062 0.99356
1.00022 1.00096 0.993205
1.00012 1.00155 0.992838
1.00006 1.00195 0.992539
1.00022 1.00098 0.993205
1.00022 1.00133 0.992841
1.00012 1.00159 0.992828
1.00003 1.0013 0.993451
1.00032 1.00115 0.992853
1.00023 1.00114 0.992995
1.0002 1.00095 0.993257
1.00012 1.00114 0.993207
1.00025 1.00118 0.992923
1.00023 1.00119 0.992997
1.00007 1.00141 0.993026
1.00023 1.00137 0.992756
1.00014 1.00181 0.99249
1.00031 1.00131 0.992692
1.00001 1.00266 0.991892
1.00007 1.00247 0.992017
0.999824 1.00334 0.991494
1.00013 1.00365 0.990739
1.00004 1.00264 0.991962
0.999836 1.00328 0.991552
0.999994 1.00231 0.992294
1.00011 1.00142 0.992869
1.00002 1.00192 0.992647
1.00011 1.00104 0.993334
1.00016 1.00014 0.994122
1.00011 1.00081 0.993553
1.00016 1.00005 0.994211
1.00013 0.999063 0.995244
1.00019 0.999993 0.994228
1.00016 0.998978 0.99527
1.00002 0.997289 0.99759
1.00018 0.998929 0.995284
1.00006 0.997221 0.997379
1 0.996123 0.998526
1.0001 0.997165 0.997163
1.00002 0.996074 0.998947
1.00002 0.996058 0.999375
1.00015 1.00004 0.994292
1.00016 0.998751 0.995491
1.00015 0.999869 0.994456
1.00011 0.99697 0.997355
1.00018 0.998658 0.99556
1.00015 0.999805 0.994496
1.00002 0.995923 0.999424
1.00011 0.996929 0.997375
1.00018 0.998613 0.995588
1.00011 0.996961 0.997351
1.00002 0.995946 0.999418
1 0.996008 0.999406
0.99694 0.997602 0.971886
0.997949 0.995101 0.96406
1.00131 0.997953 0.97698
0.996598 0.99694 0.967679
0.999651 0.996942 0.982735
1.00481 0.997921 0.989048
0.999043 0.995355 0.970786
0.997281 0.998167 0.963973
0.995657 0.996615 0.96115
1.00021 0.997538 0.988439
0.998745 0.99753 0.964201
0.996003 0.999564 0.963842
0.997732 0.997233 0.96799
0.998621 0.99803 0.987384
0.99678 1.00054 0.964486
0.995419 0.999721 0.966096
1.00108 0.99757 0.970789
1.00007 1.00183 0.99267
1.00005 1.00132 0.993192
1.00008 1.00056 0.993866
1.00001 1.0011 0.993482
1.00009 1.00166 0.992721
1.00006 1.00132 0.993214
1.00007 1.00103 0.993412
1.00014 1.00105 0.993336
1.00011 1.00095 0.99349
1.00009 1.00069 0.993661
1.00485 0.998138 0.987207
1.00288 1.00104 0.987005
0.999711 1.00414 0.990853
1.0002 1.00354 0.990697
1.0002 1.00274 0.991503
1.00014 1.00228 0.99195
1.00006 1.00201 0.992424
1.00005 1.00214 0.992364
1.00276 1.00278 0.987671
1.00014 1.00241 0.991925
1.00031 1.00273 0.991357
1.00076 1.00205 0.991105
1.00019 1.00323 0.991083
1.00083 1.00251 0.990056
1.00032 1.00213 0.992441
1.00028 1.00257 0.991295
1.00018 1.00222 0.992008
1.00033 1.00274 0.991209
1.00459 0.998006 0.979292
0.997453 0.997819 0.971898
0.998057 0.995478 0.964542
1.0001 1.00269 0.991746
0.999138 1.00391 0.991815
1.00159 0.999118 0.992945
0.996365 0.998068 0.971637
0.996064 1.00162 0.964135
0.997144 1.00258 0.982532
1.00152 0.999808 0.994355
0.99551 0.999627 0.966032
1.0009 0.997342 0.978643
0.999585 0.996464 0.973712
0.99955 1.00238 0.993231
1.00266 0.997779 0.981233
1.00659 0.998209 0.978259
0.998499 1.00315 0.994443
0.997763 1.00187 0.989239
0.995711 1.00252 0.963659
1.00214 0.998008 0.971268
0.995631 0.99952 0.968064
0.998729 1.00215 0.994948
1.0132 0.997116 0.97559
1.00909 0.998886 0.97558
1.00144 0.997403 0.970661
0.995646 1.00346 0.996067
0.995376 0.999691 0.969483
0.994569 1.00001 0.969925
1.00018 1.00196 0.992569
1.00012 1.00134 0.992932
0.999972 0.999914 0.994812
1.00022 1.00098 0.993206
1.00021 1.00136 0.992836
1.0001 1.00141 0.992886
1.00024 1.00115 0.992997
1.00031 1.00109 0.992845
1.00012 1.00115 0.993285
0.999733 1.00064 0.994344
1.0004 1.00104 0.992767
1.00023 1.00119 0.992993
1.00006 1.00145 0.993018
1.00025 1.00133 0.992779
1.0003 1.00131 0.992685
1.00016 1.00175 0.99254
0.999986 1.00213 0.992457
0.999972 1.00266 0.991944
0.999842 1.00396 0.990947
1.00009 1.00246 0.992057
0.99993 1.00333 0.991451
1.00006 1.004 0.990234
1.00013 1.00364 0.990683
1.00005 1.00291 0.991622
1.00008 1.00365 0.990752
1.00011 1.00183 0.992547
1.00005 1.00266 0.991891
0.999807 1.00316 0.991736
1 1.00231 0.992387
1.0001 1.0014 0.992955
1.00015 1.00041 0.99389
1.00011 1.00106 0.993325
1.00015 1.00016 0.994114
1.0001 0.999165 0.995202
1.00016 1.00005 0.994208
1.00013 0.999053 0.995245
0.999968 0.997396 0.997571
1.00016 0.998972 0.995271
1.00003 0.997296 0.997374
0.999958 0.996209 0.998525
1.00007 0.997213 0.997166
0.99999 0.996131 0.99895
0.999996 0.996096 0.999375
1.00017 1.00023 0.99392
1.00014 0.998922 0.995212
1.00016 1.00004 0.994288
1.00009 0.997063 0.997296
1.00016 0.998761 0.995408
1.00014 0.99988 0.994336
1.00001 0.995956 0.999416
1.00011 0.996962 0.997357
1.00018 0.998655 0.995561
1.00002 0.995922 0.999423
1.00011 0.996928 0.997375
1.00002 0.995954 0.999416
1.00474 0.99794 0.977933
0.997084 0.997206 0.970987
0.998036 0.994925 0.964166
1.0002 1.00107 0.993133
1.00662 0.997362 0.979506
1.00114 0.997828 0.977076
0.996592 0.996963 0.967464
1.00013 0.998443 0.986265
0.998518 0.99818 0.967786
0.995924 0.999688 0.964387
0.998139 0.99657 0.967281
0.99798 0.999048 0.982655
0.996125 1.00113 0.967083
0.9963 1.00019 0.966023
1.00065 0.997393 0.970767
0.997099 1.00205 0.979111
0.995544 1.00131 0.963056
0.995479 0.999616 0.967068
1.00085 0.998488 0.970933
1.00015 1.002 0.992282
1.00007 1.00185 0.992633
1.00005 1.00131 0.993255
1.00014 1.00162 0.992692
1.00009 1.00164 0.992809
1.00006 1.00128 0.993269
1.00015 1.00105 0.993354
1.00011 1.00094 0.993556
1.003 1.00181 0.987966
1.00077 1.00202 0.990527
1.00006 1.00213 0.992362
1.00034 1.00306 0.991116
1.00033 1.00266 0.991404
1.00012 1.00245 0.991978
1.00017 1.00227 0.99202
1.00139 1.00277 0.990266
1.0003 1.0027 0.991337
1.00034 1.00275 0.991234
1.00038 1.00144 0.992222
1.00025 1.00206 0.992143
0.999742 0.999408 0.99517
0.999356 1.00314 0.992912
1.00033 1.00218 0.991578
1.00028 1.00231 0.991818
1.01566 0.99648 0.97343
1.00528 0.998106 0.978426
0.997407 0.998274 0.972138
0.999491 1.00219 0.99327
0.998584 1.00265 0.994714
1.0024 0.997424 0.98281
0.995612 1.00106 0.966329
0.997766 1.00258 0.984289
0.995419 0.999752 0.967085
1.00618 0.998495 0.978644
1.00325 0.99746 0.971907
0.998804 1.00244 0.994526
1.01309 0.997174 0.975917
1.00994 0.999184 0.9754
0.995864 1.00425 0.99842
1.00094 0.996873 0.970815
0.995005 0.999758 0.967701
0.99547 0.999828 0.967357
0.997892 1.00129 0.997908
1.02003 0.995585 0.968598
1.00653 0.996977 0.979975
0.997876 0.995926 0.969664
0.99544 0.999222 0.967301
0.995364 1.00013 0.999715
0.99505 1.00025 0.964891
1.00026 1.00157 0.992581
1 1.00006 0.994652
0.998754 0.9994 0.997408
1.00025 1.00117 0.992999
1.00031 1.00107 0.992837
1.00019 1.0011 0.993119
1.00037 1.00114 0.992746
0.999866 1.00038 0.994325
0.999695 1.00176 0.993219
1.00029 1.00132 0.992678
1.00018 1.00169 0.99259
1.00008 1.00211 0.992399
0.999574 1.00384 0.991499
0.999937 1.00267 0.991996
0.999751 1.00383 0.991119
1 1.00478 0.989815
1.00057 1.00386 0.989646
1.00004 1.00332 0.991409
1.00015 1.00414 0.990028
1.00027 1.00322 0.991061
0.99994 1.00325 0.991328
1.00013 1.00353 0.9908
1.00011 1.00212 0.992282
1.00008 1.00289 0.991611
1.00003 1.00366 0.990765
1.00015 1.00077 0.99354
1.00012 1.00181 0.992524
1.00005 1.00269 0.99182
1.0001 1.00137 0.993042
1.00014 1.00042 0.993882
1.00005 0.999358 0.995094
1.00015 1.00018 0.994106
1.0001 0.99916 0.9952
0.999928 0.997539 0.997111
1.00014 0.999045 0.995246
0.999985 0.997403 0.997142
0.999867 0.996321 0.999372
1.00004 0.997291 0.997161
0.999948 0.996212 0.99895
0.999965 0.996156 0.999375
1.00021 1.00032 0.993771
1.00013 0.999139 0.995004
1.00018 1.00024 0.993985
1.00006 0.99721 0.997203
1.00014 0.998938 0.995188
1.00016 1.00005 0.994284
0.999992 0.996033 0.999401
1.00009 0.997053 0.9973
1.00015 0.998771 0.995326
1.00002 0.995947 0.999419
1.00011 0.996954 0.997359
1.00002 0.995923 0.999423
1.01507 0.99614 0.973557
1.00445 0.998099 0.978254
0.997044 0.996901 0.971217
1.00019 1.00108 0.993154
1.00023 1.00112 0.992986
1.00015 1.00161 0.992749
1.00912 0.999139 0.975128
1.00612 0.997764 0.979918
1.00096 0.997598 0.977173
0.997506 0.999724 0.985656
0.996594 1.00051 0.964438
0.995549 0.999967 0.964914
1.00096 0.996664 0.970903
0.996475 1.00141 0.982929
0.995706 1.0017 0.96481
0.995072 0.99992 0.969386
1.00189 0.998224 0.971509
0.996645 1.00167 0.982301
0.995103 1.00084 0.96748
0.994624 1.00002 0.970214
1.00131 0.996406 0.973065
1.00022 1.00195 0.992233
1.00015 1.00202 0.992273
1.00007 1.00188 0.992596
1.00014 1.00163 0.992685
1.00008 1.00162 0.992897
1.00015 1.00105 0.993373
1.00197 1.00271 0.990475
1.00035 1.00089 0.992008
1.00016 1.00233 0.992032
1.00041 1.00283 0.991174
1.00027 1.00272 0.991465
1.00027 1.002 0.992095
1.00026 1.0023 0.991839
0.999922 1.0004 0.995105
1.00033 1.00223 0.991724
0.998944 1.00284 0.994131
1.00023 1.00182 0.992341
0.997596 0.999635 0.99874
0.998463 1.0007 0.997394
1.00018 1.00212 0.992027
1.02374 0.994627 0.964817
1.01738 0.996127 0.971469
1.00597 0.998239 0.977562
0.998896 1.00267 0.994104
0.996181 1.00182 0.998295
1.01298 0.997216 0.976244
0.995124 1.00091 0.975448
0.996194 0.999918 0.969215
1.01081 0.999383 0.975219
1.00137 0.996409 0.970932
0.997992 1.00125 0.997756
1.02111 0.995479 0.967263
1.006 0.997546 0.980327
0.995141 1.00112 0.99305
0.997743 0.996245 0.96887
0.995142 0.999908 0.969032
0.995015 1.00018 0.969075
0.996787 1.00183 1.00142
1.01492 0.996189 0.973789
1.00134 0.997715 0.977192
0.995967 0.995073 0.966289
0.99532 0.998912 0.967226
0.994985 1.00006 0.968438
0.99524 1.00003 0.990027
1.00001 1.00023 0.994494
0.998888 0.999107 0.99736
0.998636 1.0012 0.996142
1.00034 1.00119 0.992724
1.00001 1.00009 0.994305
0.999572 1.00194 0.993339
0.999547 1.00279 0.992642
1.00018 1.0021 0.992341
0.999813 1.00378 0.991314
0.999973 1.00479 0.989833
0.999656 1.0037 0.991291
1.00005 1.00474 0.989799
1.00073 1.00482 0.988675
1.001 1.00426 0.988552
1.00034 1.00313 0.990622
1.00056 1.00396 0.989538
1.00024 1.00428 0.989822
1.00024 1.00286 0.99141
1.0002 1.00309 0.991198
1.00002 1.00265 0.99182
0.999979 1.00321 0.991403
1.00013 1.00342 0.990917
1.00016 1.00115 0.993137
1.00012 1.00211 0.99229
1.00011 1.00287 0.9916
1.00002 0.99965 0.994869
1.00014 1.00076 0.993539
1.00012 1.00179 0.992501
1.00014 1.00043 0.993874
1.00005 0.999358 0.995089
0.99986 0.997732 0.997044
1.0001 0.999155 0.995198
0.999932 0.997543 0.997109
0.999821 0.996464 0.999361
0.99999 0.997403 0.997142
0.999889 0.996335 0.998941
0.999921 0.996242 0.999372
1.00022 1.00041 0.993735
1.00013 0.999289 0.994992
1.0002 1.00033 0.993818
1.00002 0.997401 0.997087
1.00013 0.999152 0.995064
1.00018 1.00024 0.99405
0.99996 0.996153 0.999377
1.00006 0.9972 0.997209
1.00014 0.998957 0.995164
0.999995 0.996018 0.999406
1.00009 0.997043 0.997303
1.00002 0.995938 0.999422
1.02027 0.995756 0.967849
1.01468 0.996506 0.973881
1.00415 0.998267 0.978579
1.00024 1.00121 0.992877
1.00019 1.00175 0.992523
1.00019 1.0011 0.993175
1.00023 1.00113 0.992972
1.00016 1.0016 0.992692
1.00018 1.00162 0.992653
1.00015 1.00189 0.992415
1.00712 0.998217 0.97739
1.01003 0.999493 0.974843
1.00562 0.9982 0.980332
1.00294 0.997714 0.972085
0.995688 1.00089 0.979742
0.995635 1.00231 0.966644
0.994895 1.00023 0.967342
0.996031 1.00048 0.980525
0.995196 1.00015 0.964971
0.995471 0.999797 0.967898
0.999909 0.996917 0.97319
0.995788 0.998176 0.988169
0.994934 1.00021 0.965106
0.996597 1.00019 0.96862
0.997952 0.995891 0.97096
1.00025 1.00187 0.992324
1.00022 1.00192 0.992225
1.00013 1.00204 0.992263
1.00014 1.00164 0.992679
1.00015 1.002 0.99503
0.998597 1.00252 0.995347
1.00029 1.00193 0.992046
1.00025 1.00227 0.991861
1.00031 1.00232 0.99187
1.00024 1.00183 0.992296
1.00016 1.00215 0.991965
0.997041 1.00091 0.998447
0.998547 1.00052 0.997712
1.00006 1.00204 0.992362
0.995846 0.997774 1.00197
0.999071 1.0027 0.994833
1.01586 0.996742 0.972982
1.02578 0.993973 0.962448
1.01912 0.995711 0.969507
0.998135 1.00117 0.997621
0.995351 1.0001 0.999846
1.0222 0.995395 0.965927
0.994986 1.00027 0.965245
0.994702 0.999992 0.96751
1.00548 0.998121 0.980681
0.998297 0.996252 0.96797
0.996916 1.00147 1.00149
1.01453 0.996552 0.974112
1.00116 0.99761 0.977287
0.995228 1.00003 0.99518
0.995758 0.995772 0.96392
0.995954 0.999458 0.967195
0.995092 1.00014 0.967335
0.996723 1.00279 0.999235
1.00468 0.998225 0.977844
0.99656 0.996923 0.968946
0.996068 0.999322 0.965725
0.995617 1.00005 0.968272
0.99517 1.00009 0.985154
0.999112 0.998728 0.99731
0.998566 1.00147 0.996118
1.00036 0.999158 0.995892
0.999431 1.00212 0.993459
0.999274 1.00283 0.992808
1.00025 1.00369 0.990468
1.00006 1.00369 0.99113
1.00009 1.00482 0.989696
1.00081 1.00468 0.988279
1.00011 1.00472 0.989782
1.00078 1.00481 0.988521
1.0012 1.00453 0.987717
1.0016 1.00352 0.988032
1.001 1.00347 0.989512
1.00104 1.00434 0.988362
1.00031 1.00262 0.991169
1.00036 1.00312 0.990694
1.00055 1.00405 0.989431
1.00021 1.00269 0.991542
1.00021 1.0029 0.991391
1.00012 1.00295 0.991334
1.00015 1.0016 0.99267
1.00004 1.00258 0.991893
1.00002 1.00316 0.991477
1.00001 0.999993 0.994525
1.00016 1.00113 0.99314
1.00012 1.00209 0.992298
0.999806 0.997962 0.996936
1.00001 0.999655 0.994863
1.00014 1.00076 0.993538
1.00006 0.999358 0.995084
0.999866 0.997741 0.997039
0.999748 0.996638 0.999347
0.999936 0.997547 0.997108
0.999811 0.996486 0.999357
0.999867 0.996358 0.999365
1.00023 1.00131 0.992839
1.00024 1.00051 0.993592
1.00012 0.999426 0.994877
1.00022 1.00041 0.993735
0.999979 0.997588 0.996977
1.00013 0.999301 0.994993
1.00019 1.00033 0.993865
0.999917 0.996309 0.999349
1.00002 0.997388 0.997093
1.00014 0.999163 0.995124
0.999964 0.996133 0.999385
1.00006 0.997188 0.997214
0.999999 0.996002 0.999411
1.01345 0.997328 0.974967
1.02133 0.995755 0.966569
1.0143 0.996858 0.974205
1.00023 1.00122 0.992903
1.00019 1.00176 0.992481
1.00016 1.00204 0.992213
1.00017 1.0017 0.992512
1.00015 1.0021 0.992252
1.00022 1.00115 0.992958
1.00017 1.00159 0.992635
1.00016 1.00163 0.992657
1.00019 1.00187 0.99238
1.00012 1.00197 0.992445
1.00165 0.997139 0.977442
1.00666 0.998525 0.977803
1.01098 0.999956 0.974558
0.999298 0.996794 0.97352
0.996171 0.999951 0.969693
0.995466 1.00005 0.978834
0.995084 1.0001 0.967436
0.995654 0.997022 0.983017
0.994957 1.00017 0.96785
0.995486 0.999733 0.968135
0.9976 0.996337 0.969934
0.994956 0.995222 0.987875
0.995062 1.00003 0.968498
0.995714 0.999959 0.965729
0.995767 0.996462 0.965649
0.999925 1.00163 0.99307
1.0002 1.00194 0.992303
1.00022 1.0019 0.992217
0.996447 1.00176 0.998157
0.998601 1.00023 0.998053
1.00025 1.00184 0.992252
1.00015 1.00222 0.991905
1.00004 1.00199 0.992424
0.998909 1.00268 0.994553
0.995966 0.99733 1.00203
0.998792 1.00307 0.993694
0.997311 1.00169 0.997119
1.00431 0.998761 0.978782
1.01752 0.996277 0.9711
1.02776 0.993437 0.960078
0.996834 1.00117 1.00154
0.995228 0.999978 0.987956
1.01415 0.996919 0.974435
0.995228 1.00009 0.963801
0.995511 0.998928 0.966625
1.00098 0.997395 0.977384
0.995541 0.996466 0.961552
0.996778 1.00281 0.999447
1.00439 0.998341 0.978175
0.996628 0.996766 0.967966
0.995088 1.00005 0.987582
0.995957 0.999252 0.964383
0.995747 0.999506 0.965261
0.998333 1.00084 0.996888
0.996823 0.997728 0.972196
0.99707 0.997474 0.963797
0.996859 0.999837 0.965266
0.99506 1.00026 0.987046
0.998531 1.00171 0.996093
1.00014 0.998922 0.995874
1.00199 0.998428 0.99248
0.999013 1.00287 0.992975
1 1.00366 0.99071
1.00127 1.00311 0.988924
1.0002 1.00483 0.989558
1.00083 1.00467 0.988271
1.00186 1.00352 0.987603
1.00084 1.00479 0.988368
1.00121 1.00449 0.987746
1.00212 1.00262 0.987909
1.00224 1.00175 0.988516
1.00131 1.00311 0.988878
1.00161 1.0034 0.988066
1.00076 1.00289 0.990385
1.00093 1.00355 0.989344
1.00107 1.00443 0.988172
1.00035 1.00236 0.991559
1.00031 1.00259 0.991271
1.00038 1.00311 0.990767
1.00019 1.00196 0.992253
1.00019 1.00268 0.991576
1.00018 1.00294 0.991371
1.00001 1.00046 0.994062
1.00016 1.0016 0.992672
1.00007 1.00252 0.991967
0.999735 0.998243 0.997224
1.00001 1.00001 0.994517
1.00016 1.00112 0.993143
0.999687 0.996885 0.998382
0.999801 0.997994 0.997138
1.00001 0.999659 0.994857
0.999872 0.997749 0.997034
0.999738 0.996673 0.99934
0.999801 0.996509 0.999354
1.0002 1.0016 0.99257
1.00025 1.00067 0.993414
1.00023 1.00134 0.992801
1.0001 0.999563 0.994787
1.00024 1.00053 0.993592
0.999932 0.997759 0.996894
1.00012 0.999437 0.994878
1.00023 1.00041 0.993735
0.999867 0.996474 0.999323
0.999976 0.99758 0.996982
1.00013 0.999316 0.994993
0.999922 0.996283 0.999358
1.00002 0.997376 0.997099
0.999968 0.99611 0.999392
1.00347 0.998085 0.980869
1.01335 0.997358 0.975278
1.02239 0.995807 0.965288
1.0001 1.00227 0.99214
1.00023 1.00125 0.992929
1.0002 1.00176 0.992438
1.00017 1.00171 0.992552
1.00017 1.00202 0.992257
1.00016 1.00207 0.992238
1.00014 1.00234 0.992002
1.00009 1.00213 0.992215
1.00015 1.00164 0.992661
1.00021 1.00184 0.992344
1.00011 1.00198 0.992428
1.0001 1.00232 0.992431
0.996598 0.997472 0.966596
1.00143 0.997492 0.977541
1.00622 0.998757 0.978214
0.997721 0.996041 0.969221
0.995684 0.999862 0.967388
0.994933 1.00021 0.965144
0.995461 0.995874 0.986598
0.994906 0.995073 0.992418
0.995698 0.996487 0.963521
0.99491 1.00014 0.964791
0.995789 0.999773 0.966696
0.995678 0.997623 0.990608
0.995647 0.9994 0.96961
0.996058 0.999817 0.964831
0.999383 1.00148 0.994158
1.00003 1.00158 0.993075
1.00015 1.00201 0.992281
0.996122 0.996782 1.00205
0.998894 1.00256 0.994276
0.99999 1.00196 0.992484
0.999118 1.00301 0.993567
0.996946 1.00184 0.997225
0.998498 1.00127 0.994973
0.997235 0.998124 0.969308
1.00527 0.998514 0.978961
1.0192 0.995759 0.969217
0.996874 1.00287 0.999713
0.994912 1.00009 0.989309
1.00409 0.99855 0.97851
0.995812 0.998652 0.969073
0.995917 0.999456 0.96476
0.996629 0.996643 0.967823
0.998011 1.00073 0.997048
0.996973 0.997321 0.971203
0.996636 0.997588 0.964918
0.995121 1.00069 0.982718
0.996371 1.00007 0.967691
0.999215 1.00014 0.996025
0.998154 0.995326 0.964904
0.997588 0.999908 0.967017
0.995939 1.0006 0.980267
0.9999 0.998767 0.995859
1.00172 0.998331 0.993149
1.00288 0.997367 0.991275
0.999758 1.00362 0.990953
1.0013 1.00296 0.988946
1.00294 1.00027 0.988559
1.00085 1.00462 0.988264
1.00186 1.00328 0.987642
1.00313 1.00027 0.988366
1.00122 1.00447 0.987774
1.00212 1.0025 0.987947
1.00291 0.99992 0.989074
1.00265 0.999994 0.98955
1.00192 1.00195 0.98894
1.00223 1.00164 0.98864
1.00101 1.00266 0.989714
1.00134 1.00308 0.988972
1.00162 1.00328 0.9881
1.0005 1.00241 0.991218
1.00066 1.0029 0.990387
1.00085 1.00363 0.989176
1.00029 1.00198 0.992056
1.00038 1.00235 0.991551
1.00031 1.00256 0.991372
0.999993 1.00104 0.993547
1.0002 1.00195 0.992267
1.00018 1.00266 0.991611
0.999689 0.99856 0.996532
1.00001 1.00047 0.994054
1.00016 1.0016 0.992674
0.999572 0.997141 0.999281
0.999744 0.998285 0.99672
1 1.00002 0.994509
0.999666 0.996881 0.999313
0.999808 0.99801 0.996898
0.999728 0.996707 0.999332
1.00014 1.0019 0.992471
1.0002 1.00159 0.992582
1.00022 1.00096 0.993183
1.00007 0.999711 0.994686
1.00025 1.00067 0.993415
1.00023 1.00136 0.992764
0.999885 0.997911 0.996831
1.0001 0.999561 0.994789
1.00024 1.00052 0.993593
0.99981 0.996637 0.999303
0.999928 0.997753 0.996897
1.00012 0.999444 0.994878
0.999873 0.996451 0.999331
0.999972 0.997571 0.996986
0.999927 0.996257 0.999366
0.996873 0.99816 0.969912
1.00327 0.998091 0.981189
1.01325 0.997371 0.975588
1.0001 1.00231 0.9921
1.00009 1.00249 0.992036
1.0001 1.00249 0.99193
1.00018 1.00172 0.992593
1.00017 1.002 0.992301
1.00015 1.00203 0.992224
1.0001 1.00214 0.992207
1.00013 1.00234 0.991992
0.999983 1.00289 0.991791
1.00006 1.00207 0.992298
1.00011 1.00198 0.992411
1.00004 1.0022 0.992442
0.997179 0.997795 0.96416
0.996439 0.997835 0.965865
1.00117 0.997726 0.977642
0.995703 0.996524 0.961387
0.995156 0.999974 0.965559
0.99537 1.00016 0.970276
0.994977 0.995085 0.987544
0.995428 0.9977 0.986534
0.996015 0.999002 0.963897
0.995435 0.99983 0.968053
0.99725 0.996352 0.98587
0.996699 1.00065 0.965053
1.00047 1.00181 0.992555
0.999573 1.00129 0.994071
1.00012 1.00152 0.993082
0.996388 1.00209 0.997333
0.999407 1.00296 0.993438
0.99918 1.00153 0.994558
1.00168 0.999401 0.991684
0.99819 0.99479 0.963859
0.997143 0.998344 0.970738
1.00625 0.998213 0.979137
0.997736 1.00052 0.997206
0.995091 1.00037 0.985243
0.996934 0.996923 0.971458
0.99637 1.00013 0.964871
0.997172 0.998701 0.964371
0.999329 1.00006 0.995639
0.997986 0.995255 0.964063
0.998432 0.998504 0.964039
0.995675 1.00091 0.984213
1.00041 1.00119 0.993412
0.998838 0.997155 0.964172
0.998036 0.998901 0.985325
1.00141 0.998252 0.993816
1.00265 0.997896 0.991138
1.00422 0.996036 0.989788
1.00133 1.00283 0.988966
1.00299 1.00012 0.988504
1.00438 0.996731 0.989184
1.00186 1.00308 0.987681
1.00311 1.00007 0.988366
1.00408 0.997004 0.98971
1.00211 1.00237 0.987984
1.00291 0.999811 0.989086
1.00327 0.998071 0.990157
1.00292 0.998996 0.99016
1.00263 0.999867 0.989679
1.00235 1.00053 0.989547
1.00171 1.00186 0.989483
1.00193 1.00198 0.988959
1.00222 1.00152 0.988765
1.00082 1.00236 0.990474
1.00105 1.00266 0.989836
1.00137 1.00305 0.989066
1.00039 1.00198 0.991842
1.00052 1.00242 0.9912
1.00057 1.00291 0.99039
1.00001 1.00135 0.993177
1.00032 1.00195 0.992063
1.00041 1.00235 0.991542
0.999633 0.998939 0.996232
1.00001 1.00098 0.993549
1.00022 1.00193 0.992281
0.999533 0.997363 0.999237
0.999686 0.998597 0.996514
1.00001 1.00046 0.994045
0.999591 0.997158 0.99879
0.999751 0.998296 0.996717
0.999654 0.996947 0.999296
1.00013 1.00214 0.992224
1.00014 1.00192 0.992422
1.00016 1.00134 0.992935
1.00021 1.00159 0.992594
1.00022 1.00096 0.993182
1.00002 0.999984 0.994508
0.999837 0.998055 0.996781
1.00007 0.999704 0.994691
1.00024 1.00069 0.993417
0.999746 0.996795 0.999288
0.99988 0.997907 0.996834
1.0001 0.999561 0.994792
0.999817 0.996617 0.999309
0.999924 0.997748 0.9969
0.999878 0.996426 0.999338
0.997755 0.996007 0.964453
0.996691 0.998464 0.969016
1.00307 0.998103 0.981507
1.0001 1.00236 0.99206
1.00008 1.00256 0.991867
1.00004 1.00247 0.992081
1.00013 1.00252 0.991927
1.00001 1.00279 0.991836
1.00012 1.00215 0.992199
1.00013 1.00234 0.991983
0.999953 1.00281 0.991826
0.999825 1.00285 0.991695
1.00002 1.00259 0.991837
1.00116 1.00235 0.990456
0.999919 1.00241 0.992347
1.00002 1.00209 0.992453
0.9988 0.998684 0.96349
0.996851 0.998271 0.963994
0.996186 0.998208 0.965802
0.996327 0.999149 0.964322
0.99542 1.00046 0.964711
0.995193 0.997723 0.991381
0.997417 0.996565 0.988337
0.996791 0.998688 0.968515
1.00042 0.997103 0.983535
1.00276 1.00013 0.989364
1.00006 1.00166 0.992512
0.999723 1.00109 0.993982
0.999707 1.00173 0.994147
1.00235 0.999381 0.991126
0.999018 0.996008 0.964836
0.998155 0.995157 0.964232
0.997051 0.998648 0.972174
0.999572 1.00001 0.995239
0.995323 1.00134 0.98059
0.998123 0.99497 0.963959
0.99791 0.999189 0.967339
1.00088 1.0006 0.99341
0.99974 0.996058 0.966842
0.99757 0.999831 0.981808
1.00258 1.00256 0.988936
1.00057 0.996876 0.989216
1.00246 0.998454 0.990996
1.00394 0.996832 0.989603
1.00508 0.996222 0.988271
1.003 0.99997 0.988452
1.00429 0.997005 0.989098
1.00495 0.995653 0.989186
1.00311 0.999868 0.988367
1.00398 0.997103 0.989635
1.00417 0.996446 0.990112
1.0029 0.999706 0.989097
1.00325 0.99813 0.990114
1.00338 0.997882 0.990203
1.00285 0.998843 0.990303
1.00278 0.999541 0.989875
1.00262 0.999751 0.989807
1.00236 1.00055 0.989517
1.00219 1.00083 0.989578
1.00136 1.00182 0.990003
1.0017 1.00189 0.989461
1.00194 1.00202 0.988977
1.0006 1.00201 0.991412
1.00081 1.00236 0.990558
1.00108 1.00266 0.989958
1.00002 1.00149 0.992954
1.00043 1.00197 0.991828
1.00055 1.00243 0.991181
0.999602 0.99934 0.995863
1.00003 1.0013 0.993186
1.00034 1.00193 0.992069
0.999487 0.997623 0.999178
0.999624 0.998996 0.996215
1.00002 1.00094 0.993551
0.999531 0.997404 0.999221
0.999683 0.998638 0.996496
0.999586 0.997194 0.999255
1.00018 1.00232 0.991962
1.00012 1.00213 0.992228
1.00014 1.00169 0.992574
1.00014 1.00193 0.992373
1.00015 1.00139 0.992875
0.999981 1.0004 0.994163
1.00022 1.00096 0.993181
1.00003 0.999965 0.994513
0.999769 0.998271 0.996698
0.999673 0.996958 0.999276
0.999831 0.998054 0.996785
1.00008 0.999694 0.994696
0.999755 0.996779 0.999292
0.999876 0.997902 0.996837
0.999823 0.996597 0.999315
0.999853 0.99698 0.966467
0.997643 0.995893 0.964654
0.996336 0.99876 0.969186
1.00007 1.00265 0.991803
0.999996 1.00245 0.992127
1.00001 1.00279 0.991863
1.00011 1.00252 0.991925
1.00016 1.00281 0.991575
0.999921 1.00271 0.991899
0.999928 1.0027 0.99186
0.999934 1.00301 0.991534
0.999927 1.00285 0.991766
1.00024 1.00235 0.991334
1.00144 1.00215 0.990703
1.00276 1.00096 0.988434
1.00095 1.00222 0.990627
0.99977 1.00275 0.992397
1.00039 0.99713 0.982339
0.998317 0.998925 0.965021
0.996938 0.997993 0.963826
0.997261 1.00024 0.965017
0.997572 0.996593 0.990739
1.00047 0.997058 0.987595
1.00398 0.996902 0.990406
1.00281 0.999694 0.989813
0.999901 1.00154 0.992465
1.00343 0.999538 0.990554
0.998981 0.99904 0.983078
0.999611 0.996219 0.968399
0.998083 0.995453 0.964853
1.0012 1.00041 0.993408
0.997337 1.00074 0.983898
0.999281 0.995818 0.969671
1.0027 1.00171 0.989175
1.00009 0.99806 0.987305
1.00437 1.00024 0.987437
1.00468 0.997814 0.988707
1.00368 0.997531 0.989419
1.00492 0.99639 0.98826
1.00497 0.997303 0.987649
1.00422 0.997236 0.989008
1.00486 0.995961 0.989133
1.00479 0.997026 0.98831
1.00388 0.997225 0.989561
1.00404 0.99668 0.990055
1.00407 0.997564 0.989237
1.00324 0.998194 0.99007
1.00327 0.997966 0.990265
1.00317 0.998922 0.989535
1.00277 0.998694 0.990445
1.00275 0.999433 0.989941
1.00265 1.0001 0.989582
1.00236 1.00057 0.989488
1.00219 1.00086 0.989555
1.00196 1.00105 0.989893
1.00097 1.00169 0.99083
1.00133 1.00184 0.990088
1.00169 1.00192 0.989439
1.00011 1.00165 0.992654
1.00062 1.00201 0.991403
1.0008 1.00236 0.990643
0.999544 0.999855 0.995479
1.00005 1.0015 0.992957
1.00046 1.00197 0.991814
0.99946 0.997891 0.999092
0.999596 0.9994 0.995855
1.00005 1.00125 0.993196
0.999491 0.997663 0.999153
0.999618 0.999048 0.996198
0.999531 0.997442 0.999204
1.00024 1.00255 0.991658
1.00019 1.00231 0.991992
1.00016 1.00197 0.99232
1.00012 1.00212 0.992233
1.00014 1.00173 0.992536
0.999974 1.00085 0.993718
1.00015 1.00144 0.992815
0.999983 1.0004 0.994167
0.999693 0.998582 0.99653
1.00004 0.999946 0.994518
0.999767 0.998253 0.996707
0.999597 0.997166 0.999254
0.999686 0.996942 0.99928
0.999826 0.998051 0.996789
0.999763 0.996763 0.999297
0.999764 0.998065 0.982426
0.999603 0.996584 0.964041
0.998024 0.995944 0.963885
1.00059 1.00254 0.991003
1.00002 1.00279 0.99189
1.00009 1.00252 0.991922
0.999963 1.00278 0.991881
1.00012 1.00287 0.991548
1.00011 1.00211 0.992073
1.00004 1.00322 0.991373
0.999893 1.00312 0.991694
1.00038 1.00235 0.991458
1.00115 1.00212 0.990823
1.00236 1.00095 0.989103
1.00462 0.998455 0.9869
1.00269 1.00078 0.988405
1.0008 1.00201 0.990798
1.00385 0.996165 0.991747
1.00022 0.997678 0.980735
0.998331 0.998868 0.96702
1.00037 0.996871 0.984305
1.00403 0.996553 0.99084
1.00252 0.99913 0.990275
1.00314 0.998915 0.989877
0.99885 0.998324 0.985754
0.999281 0.99596 0.964815
1.0029 1.00037 0.989403
1.00011 0.99911 0.98518
1.00437 0.999407 0.987478
1.00466 0.997957 0.989121
1.0049 0.997295 0.987564
1.00509 0.997599 0.987465
1.00472 0.996614 0.98825
1.00501 0.997051 0.987735
1.00465 0.9982 0.987408
1.00482 0.996235 0.98908
1.0048 0.997002 0.98831
1.00448 0.99834 0.987644
1.00391 0.996898 0.989998
1.00391 0.997617 0.989445
1.00375 0.998659 0.988621
1.00316 0.998043 0.990327
1.00316 0.998932 0.989537
1.00303 0.999614 0.98914
1.00271 0.999326 0.990007
1.00262 1.00003 0.9896
1.00237 1.00047 0.989613
1.00219 1.00089 0.989531
1.00191 1.00106 0.989844
1.00153 1.0012 0.990511
1.00041 1.00149 0.992258
1.00096 1.0017 0.990916
1.00131 1.00186 0.990173
0.999487 1.00039 0.995064
1.00013 1.00164 0.992654
1.00065 1.002 0.991395
0.99938 0.998222 0.998992
0.99957 0.999836 0.995474
1.00007 1.00149 0.992961
0.999446 0.997934 0.999062
0.999591 0.999445 0.995846
0.999492 0.997699 0.999126
1.00045 1.00249 0.991145
1.00023 1.00251 0.991668
1.00026 1.0021 0.99207
1.0002 1.00229 0.992022
1.00015 1.00196 0.99234
0.999972 1.00126 0.993333
1.00013 1.00178 0.992498
0.999963 1.00089 0.993715
0.999612 0.998978 0.996278
0.999985 1.0004 0.994171
0.999696 0.998546 0.996546
0.999528 0.997407 0.999213
0.999767 0.998236 0.996716
0.999609 0.997133 0.999262
0.999696 0.996927 0.999283
1.0036 0.996804 0.991103
0.999768 0.998262 0.979142
0.999369 0.997149 0.966859
1.00066 1.00184 0.991311
1.00157 1.00172 0.989952
1.00041 1.00258 0.991096
1.00001 1.00282 0.991862
1.00008 1.00293 0.991518
1.00029 1.00207 0.991946
1.00233 1.00076 0.989473
1.00048 1.00236 0.991583
1.00074 1.00208 0.990942
1.00233 1.0009 0.989198
1.00421 0.999004 0.987099
1.00505 0.996839 0.987514
1.00462 0.99854 0.986947
1.0027 1.00069 0.988376
1.00403 0.996143 0.991928
1.00014 0.998214 0.97842
1.00432 0.996354 0.99126
1.00438 0.996796 0.990011
1.00291 0.998531 0.990161
0.999215 0.997834 0.981613
1.00438 0.998707 0.987528
1.00464 0.998127 0.989486
1.00481 0.997239 0.987734
1.00511 0.99726 0.987556
1.0046 0.997735 0.98786
1.00481 0.996665 0.988439
1.00509 0.996726 0.987821
1.00476 0.997983 0.987419
1.00449 0.998431 0.987425
1.00478 0.997072 0.98831
1.00444 0.998241 0.987833
1.00417 0.998655 0.987818
1.00376 0.997676 0.989652
1.00379 0.998662 0.988595
1.00361 0.999194 0.988409
1.00315 0.998942 0.989539
1.00303 0.99961 0.989137
1.00277 1.0001 0.989153
1.0026 0.999953 0.989617
1.00233 1.00045 0.989621
1.00189 1.00076 0.990186
1.00187 1.00108 0.989795
1.00148 1.00119 0.99049
1.0008 1.00112 0.991883
0.999528 1.00064 0.994701
1.00041 1.0015 0.992256
1.00095 1.00171 0.991002
0.999228 0.998704 0.998884
0.999549 1.00031 0.995055
1.00016 1.00164 0.992654
0.99935 0.99831 0.99896
0.999594 0.999836 0.995469
0.999436 0.997992 0.999031
1.00091 1.00224 0.990295
1.00045 1.00247 0.991062
1.00051 1.00204 0.991638
1.00022 1.00248 0.991678
1.00023 1.00209 0.992077
0.999979 1.00157 0.993049
1.00014 1.00196 0.992361
0.999945 1.00132 0.993327
0.999552 0.999413 0.995952
0.999951 1.00093 0.993712
0.999622 0.998925 0.996294
0.999471 0.99767 0.99915
0.999699 0.998509 0.996562
0.999536 0.997367 0.999227
0.999621 0.997107 0.999269
1.0049 0.996067 0.988447
1.00359 0.99681 0.990718
0.999972 0.997773 0.980908
1.00236 1.00077 0.989631
1.00048 1.00175 0.991774
1.00239 1.00069 0.988837
1.00159 1.00174 0.989889
1.00022 1.00264 0.991191
1.00407 0.999374 0.987454
1.00047 1.00202 0.991821
1.00238 1.00069 0.989351
1.00496 0.997887 0.987028
1.00232 1.00081 0.989293
1.00437 0.998996 0.98697
1.005 0.996998 0.987498
1.00446 0.998675 0.986993
1.00409 0.996008 0.992102
1.00438 0.996869 0.989186
1.00418 0.996723 0.990162
1.00266 0.998121 0.99044
1.0047 0.997134 0.987906
1.00512 0.997003 0.987646
1.00455 0.997648 0.987888
1.00489 0.996823 0.988281
1.00463 0.997801 0.98794
1.00482 0.997813 0.987429
1.00449 0.99848 0.98742
1.0043 0.998568 0.987646
1.00439 0.998127 0.988021
1.00422 0.998635 0.987796
1.00404 0.998911 0.987873
1.00382 0.998665 0.988569
1.00363 0.999196 0.988391
1.00332 0.999662 0.988537
1.00304 0.999607 0.989134
1.00278 1.0001 0.98915
1.00233 1.00043 0.989673
1.00229 1.00042 0.98963
1.00189 1.00076 0.99019
1.00118 1.00076 0.991507
1.00143 1.00118 0.990469
1.0008 1.00113 0.991878
0.999593 1.00065 0.995275
0.999126 0.999414 0.997079
0.99959 1.00054 0.995094
1.00042 1.00152 0.992254
0.9992 0.998832 0.998845
0.999607 1.00025 0.995046
0.999326 0.99839 0.998925
1.00292 0.9997 0.989064
1.00154 1.00165 0.989681
1.00102 1.00222 0.990194
1.00083 1.00188 0.991159
1.00045 1.00246 0.990978
1.00048 1.00204 0.991656
1.00006 1.00168 0.992812
1.00021 1.00208 0.992085
0.999953 1.00159 0.993047
0.999531 0.999856 0.995563
0.999919 1.00139 0.993321
0.999557 0.999365 0.995962
0.999408 0.997968 0.99906
0.999631 0.998874 0.99631
0.999475 0.997629 0.999171
0.999546 0.997327 0.999241
1.00468 0.997381 0.988033
1.00489 0.996322 0.989025
1.00366 0.997009 0.990338
1.00379 0.999351 0.98788
1.00207 1.00081 0.989993
1.0003 1.00165 0.992233
1.00258 1.00062 0.988973
1.00161 1.00177 0.989826
1.00493 0.99822 0.986879
1.00407 0.999429 0.987264
1.00244 1.00066 0.989227
1.00495 0.997932 0.987015
1.00457 0.998977 0.986841
1.00499 0.99711 0.987488
1.00457 0.997667 0.98815
1.00446 0.996806 0.989064
1.00398 0.996577 0.990313
1.00453 0.997548 0.987917
1.00499 0.996956 0.988121
1.00458 0.997833 0.987967
1.0044 0.998625 0.987497
1.00451 0.998518 0.987414
1.00429 0.998616 0.987645
1.00414 0.998985 0.987621
1.00426 0.998617 0.987774
1.00405 0.998909 0.987867
1.00371 0.999284 0.988154
1.00365 0.999199 0.988374
1.00332 0.999662 0.988529
1.00282 1.00005 0.989112
1.00278 1.00009 0.989147
1.00233 1.00042 0.98967
1.00156 1.00051 0.991034
1.00189 1.00075 0.990195
1.00118 1.00077 0.991497
0.999741 1.00056 0.995128
1.0008 1.00115 0.991872
0.999684 1.00062 0.99523
0.998979 0.99998 0.996888
0.99907 0.999434 0.997901
0.999668 1.00046 0.995463
0.999176 0.998946 0.998803
1.00385 0.999041 0.988072
1.00233 1.00063 0.989566
1.00278 0.999485 0.989591
1.00124 1.00165 0.990558
1.00166 1.00167 0.989655
1.00114 1.0022 0.990094
1.00079 1.00192 0.991167
1.00025 1.00164 0.992479
1.00044 1.00203 0.991675
1.00004 1.00166 0.992813
0.999537 1.00026 0.995167
0.999927 1.0016 0.993045
0.999514 0.999841 0.995569
0.999303 0.99837 0.99895
0.999561 0.999314 0.995972
0.999417 0.99792 0.99909
0.999481 0.997585 0.999191
1.00489 0.99775 0.987399
1.00474 0.997365 0.987988
1.00479 0.996533 0.989597
1.0047 0.998335 0.98709
1.00379 0.999382 0.987915
1.0018 1.00084 0.990357
1.00276 1.00053 0.989111
1.00494 0.998219 0.986853
1.00406 0.99948 0.987074
1.00492 0.997993 0.987001
1.00467 0.998171 0.987419
1.0046 0.99769 0.987997
1.00456 0.996758 0.988943
1.00443 0.998879 0.987182
1.00451 0.997884 0.987995
1.00439 0.998633 0.987521
1.00416 0.999133 0.987455
1.00429 0.998671 0.987644
1.00414 0.998985 0.987627
1.00383 0.999281 0.987941
1.00406 0.998907 0.987862
1.00371 0.999287 0.988151
1.00317 0.999703 0.988779
1.00333 0.999663 0.988521
1.00282 1.00005 0.989109
1.00194 1.00027 0.990543
1.00234 1.00042 0.989668
1.00157 1.0005 0.991019
0.999938 1.00037 0.994997
1.00119 1.00078 0.991487
0.999828 1.00055 0.995085
0.998925 1.00021 0.99681
0.999779 1.00059 0.995182
0.998923 1.00005 0.996935
0.998975 0.999416 0.998781
1.00436 0.998957 0.987365
1.00336 0.999544 0.988611
1.00375 0.999136 0.988244
1.00188 1.00101 0.990154
1.00232 1.00054 0.989574
1.00266 0.999291 0.990112
1.00062 1.00147 0.991916
1.00124 1.00166 0.990551
1.00177 1.0017 0.989628
1.00075 1.00195 0.991176
1.00023 1.00164 0.992484
0.999569 1.00059 0.994793
1.00002 1.00164 0.992813
0.999489 1.00031 0.995171
0.999146 0.998901 0.998839
0.999499 0.999822 0.995575
0.999325 0.998287 0.998986
0.999426 0.99787 0.999119
1.00491 0.997887 0.987217
1.00494 0.997739 0.987265
1.00482 0.997341 0.987944
1.00472 0.998237 0.987178
1.00379 0.999423 0.987949
1.00493 0.998207 0.986827
1.00473 0.998438 0.987052
1.00468 0.998215 0.987358
1.00464 0.997713 0.987844
1.00444 0.998787 0.987269
1.0043 0.999194 0.987188
1.00438 0.998637 0.987546
1.00416 0.999158 0.987461
1.00387 0.999426 0.987664
1.00414 0.998985 0.987633
1.00382 0.999286 0.987942
1.00331 0.999642 0.988579
1.00372 0.999287 0.988147
1.00317 0.999703 0.988778
1.00221 1.00002 0.990261
1.00282 1.00005 0.989106
1.00195 1.00025 0.990532
1.00019 1.00013 0.994824
1.00158 1.0005 0.991004
1.00002 1.00038 0.994944
0.998979 1.00024 0.99673
0.999922 1.00052 0.995041
0.99887 1.00028 0.996856
0.998865 1.00014 0.996986
1.00458 0.998304 0.987341
1.0039 0.999216 0.98785
1.00435 0.998912 0.987322
1.00267 1.00013 0.989429
1.00333 0.9996 0.988687
1.00364 0.999221 0.98842
1.00114 1.00098 0.991326
1.00187 1.00096 0.990017
1.00231 1.00043 0.989582
0.999671 1.00077 0.994411
1.00061 1.00145 0.991927
1.00124 1.00167 0.990545
1.00021 1.00163 0.992488
0.999489 1.00068 0.994803
0.998984 0.999507 0.998732
0.999435 1.00038 0.995175
0.999176 0.998792 0.998876
0.999354 0.99821 0.999021
1.0048 0.99804 0.987321
1.00491 0.997902 0.987217
1.00501 0.997732 0.987132
1.00476 0.998138 0.987265
1.00468 0.998701 0.986943
1.00474 0.998441 0.987063
1.00468 0.998259 0.987297
1.00444 0.998696 0.987356
1.00433 0.999135 0.987151
1.00411 0.999428 0.987319
1.00417 0.999187 0.987468
1.00387 0.999451 0.987722
1.0034 0.999678 0.988242
1.00381 0.999293 0.987943
1.00331 0.999642 0.988577
1.00234 0.999911 0.99011
1.00317 0.999706 0.988776
1.00222 1 0.990259
1.00036 0.999964 0.993741
1.00197 1.00024 0.990521
1.00024 1.00014 0.994307
0.999109 1.00018 0.998538
1.0001 1.00037 0.994892
0.998918 1.0003 0.996788
0.998807 1.00038 0.996905
1.00457 0.998197 0.987565
1.00404 0.998957 0.987724
1.00458 0.998362 0.987388
1.00322 0.999551 0.988615
1.00388 0.999228 0.987908
1.00434 0.99888 0.987279
1.00172 1.00032 0.990593
1.00267 1.00013 0.98942
1.0033 0.999665 0.988763
0.999883 1.00066 0.994062
1.00116 1.00094 0.991206
1.00185 1.0009 0.98988
0.998926 1.00001 0.998631
0.999586 1.00085 0.99443
1.0006 1.00144 0.991938
0.999409 1.00078 0.994813
0.999006 0.999372 0.998772
0.999211 0.998668 0.99891
1.00472 0.998241 0.987265
1.00483 0.998009 0.987282
1.00491 0.99792 0.987216
1.00456 0.999088 0.986822
1.00468 0.998714 0.986886
1.00475 0.998439 0.987074
1.00436 0.999077 0.987113
1.00411 0.999426 0.987316
1.00374 0.99958 0.98792
1.00388 0.999476 0.98778
1.0034 0.999706 0.988384
1.00251 0.999888 0.989565
1.0033 0.999638 0.988575
1.00235 0.999904 0.990109
1.00045 0.999947 0.993596
1.00223 0.999988 0.990256
1.00036 0.999976 0.993737
0.999186 1.00008 0.998514
1.00026 1.00016 0.993824
0.999084 1.00019 0.997632
0.998856 1.00038 0.996842
1.0045 0.998335 0.987672
1.00414 0.998754 0.987836
1.00455 0.99818 0.987593
1.00345 0.999384 0.988518
1.00406 0.998932 0.987749
1.00457 0.99841 0.987435
1.00221 0.999883 0.990121
1.00324 0.999621 0.988772
1.00386 0.999235 0.987965
1.00014 1.00034 0.99384
1.00177 1.00031 0.990535
1.00268 1.00012 0.989411
0.998985 1.00026 0.998554
0.999828 1.00071 0.99408
1.00116 1.00091 0.991086
0.998906 0.999892 0.998667
0.99951 1.00092 0.994448
0.999022 0.999233 0.998806
1.00452 0.998742 0.987236
1.00471 0.998261 0.987275
1.00486 0.997981 0.987243
1.00412 0.999304 0.987459
1.00451 0.999102 0.986873
1.00467 0.998724 0.986828
1.00411 0.999422 0.987312
1.00374 0.999587 0.987921
1.00287 0.999758 0.989
1.00341 0.999734 0.988526
1.00249 0.999904 0.989713
1.00058 1.00001 0.993279
1.00236 0.999892 0.990109
1.00045 0.999947 0.993592
0.999263 1.00002 0.998481
1.00036 0.999991 0.993734
0.99921 1.00007 0.998504
0.999118 1.00018 0.996659
1.00424 0.998745 0.987801
1.00448 0.998252 0.987727
1.00363 0.999238 0.988319
1.00416 0.998755 0.987821
1.00454 0.998161 0.987621
1.00247 0.999755 0.990019
1.00347 0.999367 0.988508
1.00409 0.998911 0.987775
1.00036 1.00003 0.993696
1.00222 0.999929 0.990199
1.00326 0.999693 0.988929
0.999105 1.00026 0.998514
1.00011 1.00035 0.993856
1.00182 1.0003 0.990478
0.998941 1.00019 0.998578
0.999772 1.00074 0.994103
0.998886 0.99977 0.998706
1.00402 0.999164 0.987807
1.00449 0.998764 0.987274
1.00471 0.998277 0.987285
1.00313 0.999579 0.98867
1.00411 0.999342 0.987453
1.00446 0.999119 0.986924
1.00373 0.999597 0.987922
1.00282 0.999774 0.989073
1.0008 1.00001 0.992839
1.00246 0.999915 0.98986
1.0006 1 0.993264
0.999349 1.00001 0.998411
1.00046 0.999951 0.993588
0.999291 1.00001 0.998462
0.999242 1.00006 0.998494
1.0038 0.999183 0.98809
1.00425 0.998665 0.98779
1.00445 0.998176 0.987783
1.00266 0.999665 0.989728
1.00365 0.99924 0.988309
1.00417 0.998755 0.987806
1.00054 0.999878 0.993499
1.00247 0.999765 0.990017
1.0035 0.999351 0.988498
0.999241 1.00013 0.998476
1.00035 1.00003 0.993709
1.00223 0.999974 0.990277
0.999057 1.00023 0.998524
1.00009 1.00036 0.99387
0.998888 1.00012 0.998607
1.00308 0.999582 0.989018
1.00404 0.999152 0.987665
1.00446 0.998785 0.987312
1.00097 0.99996 0.992553
1.00311 0.999592 0.988694
1.0041 0.99938 0.987447
1.00277 0.999789 0.989146
1.00082 1.00001 0.992825
0.999501 1.00001 0.99829
1.00061 0.999999 0.99325
0.999401 1 0.99837
0.999323 1 0.99844
1.00288 0.999613 0.989361
1.00382 0.999146 0.988033
1.00425 0.998583 0.98778
1.00075 0.999883 0.994205
1.00266 0.999678 0.989722
1.00366 0.999242 0.988299
0.999374 1.00001 0.998411
1.00054 0.999871 0.993509
1.00246 0.999775 0.990015
0.999198 1.00014 0.998489
1.00034 1.00003 0.993721
0.999011 1.00022 0.998535
1.00103 0.999939 0.992497
1.00308 0.999554 0.988921
1.00406 0.999138 0.987522
0.99964 1 0.998191
1.00099 0.999956 0.992546
1.00309 0.999606 0.988717
1.00084 1 0.992808
0.999556 1.00001 0.99825
0.999457 0.999998 0.998327
1.00096 0.999924 0.993823
1.00288 0.999611 0.989361
1.00384 0.999109 0.987976
0.999332 0.999979 0.99846
1.00069 0.999879 0.993227
1.00267 0.999686 0.989715
0.999327 1.00003 0.998436
1.00053 0.999867 0.993519
0.999151 1.00015 0.9985
0.999666 1 0.995869
1.00102 0.999943 0.993106
1.00308 0.999531 0.988824
0.999657 0.999996 0.998174
1.00099 0.999952 0.992543
0.999603 1 0.998212
0.999431 0.999963 0.996185
1.00089 0.99994 0.99337
1.00289 0.99961 0.989362
0.999386 0.999972 0.997353
1.00069 0.99989 0.993209
0.99929 1.00004 0.998458
0.999672 0.999992 0.998164
1.00098 0.999941 0.992572
0.999677 0.999993 0.998162
0.999516 0.999992 0.997179
1.00085 0.999947 0.992845
0.99941 0.999993 0.998384
0.999636 0.999989 0.998196
0.999531 0.999989 0.998285

TENSORS stress float
0.00118345 1.54072e-05 5.47018e-05
1.54072e-05 0.000271148 -6.72074e-06
5.47018e-05 -6.72074e-06 0.000251603
0.00307954 -7.74574e-05 4.94239e-05
-7.74574e-05 0.00124349 3.24221e-06
4.94239e-05 3.24221e-06 0.00124067
0.00118178 3.65992e-05 2.49183e-05
3.65992e-05 0.000277131 -2.18037e-06
2.49183e-05 -2.18037e-06 0.000254531
0.00149067 -3.53847e-06 7.07901e-05
-3.53847e-06 0.000414519 -5.43017e-06
7.07901e-05 -5.43017e-06 0.000392957
0.00125279 1.64051e-06 6.08023e-05
1.64051e-06 0.000311025 -6.68166e-06
6.08023e-05 -6.68166e-06 0.00029044
0.00114331 3.47597e-05 4.49688e-05
3.47597e-05 0.000238808 -6.55982e-06
4.49688e-05 -6.55982e-06 0.000221388
0.00110266 1.75792e-06 8.41806e-06
1.75792e-06 0.000187065 -3.26268e-06
8.41806e-06 -3.26268e-06 0.000143035
0.00305305 -8.27105e-05 1.33397e-06
-8.27105e-05 0.00122675 -2.26636e-07
1.33397e-06 -2.26636e-07 0.00122413
0.00365642 -0.000145524 4.63125e-06
-0.000145524 0.00158671 1.7384e-06
4.63125e-06 1.7384e-06 0.00156686
0.00306868 -0.000107934 1.28688e-05
-0.000107934 0.00125989 1.37506e-06
1.28688e-05 1.37506e-06 0.00124959
0.00110259 -3.71797e-05 3.78712e-05
-3.71797e-05 0.000190151 4.06106e-06
3.78712e-05 4.06106e-06 0.000182979
0.000754671 6.54188e-06 6.84142e-06
6.54188e-06 -3.85236e-06 3.90916e-06
6.84142e-06 3.90916e-06 -4.17491e-05
0.00170242 -7.79098e-06 8.63084e-05
-7.79098e-06 0.000501936 4.36429e-07
8.63084e-05 4.36429e-07 0.000479668
0.00132921 -7.48261e-06 1.29134e-05
-7.48261e-06 0.00033103 1.04149e-06
1.29134e-05 1.04149e-06 0.000307599
0.00120098 6.38547e-05 -5.52348e-06
6.38547e-05 0.00029501 2.32677e-06
-5.52348e-06 2.32677e-06 0.000268593
0.00142095 1.77276e-05 3.18948e-05
1.77276e-05 0.000384636 -1.83448e-06
3.18948e-05 -1.83448e-06 0.00036093
0.00112704 4.36011e-05 2.04081e-05
4.36011e-05 0.00023463 -2.25081e-06
2.04081e-05 -2.25081e-06 0.000215804
0.00125042 3.22529e-05 2.85742e-05
3.22529e-05 0.000317734 -2.0018e-06
2.85742e-05 -2.0018e-06 0.000293326
0.00119037 -3.84822e-06 -1.03169e-05
-3.84822e-06 0.000228587 3.7797e-07
-1.03169e-05 3.7797e-07 0.000186041
0.00472607 1.08958e-05 8.77919e-05
1.08958e-05 0.00208498 -8.29034e-07
8.77919e-05 -8.29034e-07 0.00207892
0.00159287 -6.12508e-07 7.54132e-05
-6.12508e-07 0.000456564 -4.16756e-06
7.54132e-05 -4.16756e-06 0.000435329
0.00135418 -2.18529e-06 6.53886e-05
-2.18529e-06 0.000357588 -6.33908e-06
6.53886e-05 -6.33908e-06 0.00033615
0.00138641 -9.72335e-06 1.34995e-05
-9.72335e-06 0.00027721 -3.28877e-06
1.34995e-05 -3.28877e-06 0.000230653
0.00118116 7.03887e-08 8.62211e-06
7.03887e-08 0.000216244 -3.7376e-06
8.62211e-06 -3.7376e-06 0.000170447
0.00115767 4.12585e-05 3.83399e-05
4.12585e-05 0.000228017 -6.59166e-06
3.83399e-05 -6.59166e-06 0.000215624
0.00103336 8.71904e-06 7.84732e-06
8.71904e-06 0.000157672 -2.84285e-06
7.84732e-06 -2.84285e-06 0.000117199
0.00144871 -6.80921e-05 3.09754e-06
-6.80921e-05 0.000284838 -1.00944e-06
3.09754e-06 -1.00944e-06 0.0002151
0.00301759 -8.50138e-05 -4.16913e-05
-8.50138e-05 0.00120487 -3.25576e-06
-4.16913e-05 -3.25576e-06 0.00120281
0.00241516 -6.78032e-05 -2.52211e-05
-6.78032e-05 0.000927932 -6.71869e-07
-2.52211e-05 -6.71869e-07 0.000908105
0.00214977 -7.11332e-05 -1.93774e-05
-7.11332e-05 0.000773558 -6.15321e-07
-1.93774e-05 -6.15321e-07 0.000759674
0.00286803 -7.64595e-05 7.8075e-07
-7.64595e-05 0.00111609 -1.22381e-07
7.8075e-07 -1.22381e-07 0.00111756
0.000703831 -1.28999e-06 -8.63501e-08
-1.28999e-06 -2.55194e-05 -1.10076e-07
-8.63501e-08 -1.10076e-07 -6.41532e-05
0.00160291 1.01869e-05 6.617e-05
1.01869e-05 0.000485273 3.93909e-06
6.617e-05 3.93909e-06 0.000463707
0.00149381 -8.85797e-06 5.61809e-05
-8.85797e-06 0.000435414 4.39246e-06
5.61809e-05 4.39246e-06 0.000415463
0.00205811 4.60119e-05 3.5094e-05
4.60119e-05 0.000660421 4.07e-06
3.5094e-05 4.07e-06 0.000620617
0.00268298 -7.84141e-05 1.32695e-05
-7.84141e-05 0.00100968 1.42784e-06
1.32695e-05 1.42784e-06 0.00101398
0.0018089 9.65985e-06 2.68405e-05
9.65985e-06 0.000547998 3.17508e-06
2.68405e-05 3.17508e-06 0.000513109
0.000706118 -2.51034e-05 7.04115e-06
-2.51034e-05 -2.69417e-05 5.9872e-06
7.04115e-06 5.9872e-06 -6.16416e-05
0.000907597 4.27178e-05 3.42571e-06
4.27178e-05 4.69202e-05 8.18937e-07
3.42571e-06 8.18937e-07 -2.29643e-05
0.00253077 -5.60456e-05 3.3509e-05
-5.60456e-05 0.000915998 3.57141e-06
3.3509e-05 3.57141e-06 0.000926545
0.00476631 -1.65722e-05 2.39931e-06
-1.65722e-05 0.00210513 -3.22174e-07
2.39931e-06 -3.22174e-07 0.00209892
0.002884 -1.35555e-05 -3.35785e-05
-1.35555e-05 0.00113926 -6.45266e-07
-3.35785e-05 -6.45266e-07 0.0011242
0.00501396 -1.05641e-05 9.49999e-05
-1.05641e-05 0.00222497 1.72621e-07
9.49999e-05 1.72621e-07 0.00221874
0.00135365 -1.37765e-06 1.25318e-05
-1.37765e-06 0.000336778 5.90225e-07
1.25318e-05 5.90225e-07 0.000312723
0.000793514 -6.19551e-06 1.35089e-05
-6.19551e-06 -7.31027e-05 1.57061e-06
1.35089e-05 1.57061e-06 -0.000125528
0.00415871 -6.38774e-05 1.76608e-05
-6.38774e-05 0.00181917 8.96085e-07
1.76608e-05 8.96085e-07 0.00180775
0.00226913 1.07596e-06 4.42998e-05
1.07596e-06 0.000721161 2.63818e-06
4.42998e-05 2.63818e-06 0.000683253
0.00135456 1.97397e-05 -1.17454e-05
1.97397e-05 0.000355177 1.87596e-06
-1.17454e-05 1.87596e-06 0.000330233
0.00127593 6.85532e-05 -3.39254e-06
6.85532e-05 0.000340771 2.58468e-06
-3.39254e-06 2.58468e-06 0.000311602
0.00110493 5.87184e-05 -7.09634e-06
5.87184e-05 0.000227916 1.96699e-06
-7.09634e-06 1.96699e-06 0.000206937
0.00125209 -1.25833e-05 -2.93192e-05
-1.25833e-05 0.000256128 4.00784e-06
-2.93192e-05 4.00784e-06 0.000215462
0.00314964 4.22538e-05 -3.54854e-05
4.22538e-05 0.0012635 -1.00487e-06
-3.54854e-05 -1.00487e-06 0.00124614
0.00147749 1.19098e-05 3.22259e-05
1.19098e-05 0.000401701 -1.40847e-06
3.22259e-05 -1.40847e-06 0.000378864
0.0010991 4.72056e-05 1.58859e-05
4.72056e-05 0.000199769 -2.3473e-06
1.58859e-05 -2.3473e-06 0.000186835
0.00133111 3.19159e-05 3.2079e-05
3.19159e-05 0.000354234 -1.86987e-06
3.2079e-05 -1.86987e-06 0.000328949
0.00145157 -1.96815e-05 -1.1538e-05
-1.96815e-05 0.000308022 1.28967e-07
-1.1538e-05 1.28967e-07 0.000263174
0.00110982 7.54466e-06 -7.76752e-06
7.54466e-06 0.000194282 3.94e-07
-7.76752e-06 3.94e-07 0.000154793
0.00127233 -9.19513e-06 -1.20426e-05
-9.19513e-06 0.000258887 3.00248e-07
-1.20426e-05 3.00248e-07 0.000214973
0.00156069 -7.26288e-05 -1.88768e-06
-7.26288e-05 0.00033934 6.44295e-07
-1.88768e-06 6.44295e-07 0.000268784
0.00489261 3.49203e-05 8.72739e-05
3.49203e-05 0.0021667 1.15507e-07
8.72739e-05 1.15507e-07 0.00215986
0.0016242 6.23658e-06 7.88121e-05
6.23658e-06 0.000467686 -3.03054e-06
7.88121e-05 -3.03054e-06 0.000446202
0.00223934 3.38912e-05 1.16322e-05
3.38912e-05 0.000688101 -1.07449e-06
1.16322e-05 -1.07449e-06 0.000643577
0.00145865 -1.17809e-05 1.59529e-05
-1.17809e-05 0.000297392 -2.38982e-06
1.59529e-05 -2.38982e-06 0.000251573
0.00127622 2.6171e-06 9.22956e-06
2.6171e-06 0.000246614 -3.94471e-06
9.22956e-06 -3.94471e-06 0.00019927
0.00186831 -6.45601e-05 5.18622e-06
-6.45601e-05 0.000387241 -1.82692e-06
5.18622e-06 -1.82692e-06 0.000310768
0.00119584 -6.25061e-05 4.48405e-06
-6.25061e-05 0.000119349 -2.05763e-06
4.48405e-06 -2.05763e-06 4.6611e-05
0.00123821 4.2061e-05 3.62539e-05
4.2061e-05 0.000248772 -6.44382e-06
3.62539e-05 -6.44382e-06 0.000242862
0.0010131 3.39129e-05 5.9891e-06
3.39129e-05 0.000148462 -2.66971e-06
5.9891e-06 -2.66971e-06 0.000113801
0.00129654 -5.6276e-05 2.40192e-06
-5.6276e-05 0.000238975 -6.99008e-07
2.40192e-06 -6.99008e-07 0.000171739
0.00111568 -7.88286e-05 2.12087e-06
-7.88286e-05 5.98493e-05 -4.46319e-07
2.12087e-06 -4.46319e-07 -2.81674e-05
0.00359877 -9.15901e-05 -5.21349e-05
-9.15901e-05 0.00154576 -3.23302e-06
-5.21349e-05 -3.23302e-06 0.00153342
0.00287101 -7.74655e-05 -3.85521e-05
-7.74655e-05 0.00111407 -3.30682e-06
-3.85521e-05 -3.30682e-06 0.00111657
0.00314022 -9.05543e-05 -4.5355e-05
-9.05543e-05 0.00128704 -3.04869e-06
-4.5355e-05 -3.04869e-06 0.00128062
0.000659286 -9.29332e-07 -5.72715e-06
-9.29332e-07 -4.51758e-05 -4.51069e-06
-5.72715e-06 -4.51069e-06 -8.36281e-05
0.00414912 -6.06844e-05 -2.77597e-06
-6.06844e-05 0.00181931 -6.79627e-08
-2.77597e-06 -6.79627e-08 0.00180853
0.00349804 -8.46125e-05 1.79902e-06
-8.46125e-05 0.00148978 -1.67169e-07
1.79902e-06 -1.67169e-07 0.00147943
0.000649903 4.98712e-05 -2.03932e-07
4.98712e-05 -6.91858e-05 -1.47822e-07
-2.03932e-07 -1.47822e-07 -0.000116765
0.00187439 -5.72471e-05 -1.47612e-05
-5.72471e-05 0.000584157 -8.42774e-07
-1.47612e-05 -8.42774e-07 0.00058509
0.000685217 2.05066e-05 -1.9246e-07
2.05066e-05 -3.46189e-05 -7.94102e-08
-1.9246e-07 -7.94102e-08 -7.65902e-05
0.00115303 -3.14046e-05 8.09017e-06
-3.14046e-05 0.000207492 5.057e-07
8.09017e-06 5.057e-07 0.000177017
0.000869628 4.27928e-05 1.39465e-07
4.27928e-05 2.62586e-05 -2.27756e-07
1.39465e-07 -2.27756e-07 -4.29778e-05
0.00263345 -6.21632e-05 3.61035e-05
-6.21632e-05 0.000975438 3.51635e-06
3.61035e-05 3.51635e-06 0.000983688
0.000752327 -4.30556e-05 2.73062e-06
-4.30556e-05 -2.17821e-05 4.08794e-06
2.73062e-06 4.08794e-06 -3.98975e-05
0.000787174 4.98921e-05 1.28262e-05
4.98921e-05 -2.15304e-05 5.42782e-06
1.28262e-05 5.42782e-06 -7.01652e-05
0.000783435 4.03379e-05 1.05897e-05
4.03379e-05 7.72382e-06 6.16238e-06
1.05897e-05 6.16238e-06 -3.82943e-05
0.00103239 6.38213e-05 5.13902e-06
6.38213e-05 2.6069e-05 1.94333e-06
5.13902e-06 1.94333e-06 -5.04942e-05
0.00156322 -5.24334e-05 1.74988e-05
-5.24334e-05 0.000418454 3.58759e-06
1.74988e-05 3.58759e-06 0.000395684
0.000952292 5.83075e-05 3.5537e-06
5.83075e-05 5.1962e-05 1.10417e-06
3.5537e-06 1.10417e-06 -1.80976e-05
0.000890122 2.93789e-05 3.29243e-06
2.93789e-05 4.8487e-05 1.66563e-06
3.29243e-06 1.66563e-06 -1.98973e-05
0.000905599 7.2748e-05 1.94338e-06
7.2748e-05 1.62011e-05 -4.03716e-07
1.94338e-06 -4.03716e-07 -6.77062e-05
0.00239239 -5.00616e-05 2.99814e-05
-5.00616e-05 0.00083727 3.63892e-06
2.99814e-05 3.63892e-06 0.000850233
0.00249777 -5.61514e-05 5.72841e-07
-5.61514e-05 0.000898392 -9.25342e-08
5.72841e-07 -9.25342e-08 0.000909219
0.00435366 -1.51713e-05 -7.66124e-05
-1.51713e-05 0.00190745 -2.10295e-06
-7.66124e-05 -2.10295e-06 0.00190099
0.00466615 -1.30814e-05 -8.35268e-05
-1.30814e-05 0.00205701 -7.82407e-07
-8.35268e-05 -7.82407e-07 0.00205072
0.00495479 2.66581e-06 3.71827e-06
2.66581e-06 0.00219712 -4.25812e-07
3.71827e-06 -4.25812e-07 0.00219048
0.00297233 -9.7636e-06 -3.47484e-05
-9.7636e-06 0.00117874 -5.14207e-07
-3.47484e-05 -5.14207e-07 0.00116328
0.00158471 5.01344e-06 1.94428e-05
5.01344e-06 0.000342541 1.43275e-07
1.94428e-05 1.43275e-07 0.000295729
0.00274485 -3.15926e-05 -3.38441e-05
-3.15926e-05 0.00107837 -6.31326e-07
-3.38441e-05 -6.31326e-07 0.00106185
0.00146783 1.90896e-05 1.67929e-05
1.90896e-05 0.00030655 2.50086e-07
1.67929e-05 2.50086e-07 0.000263827
0.00505899 5.90731e-05 8.9008e-05
5.90731e-05 0.00224858 1.14862e-06
8.9008e-05 1.14862e-06 0.00224084
0.00078753 -4.84043e-07 1.1879e-05
-4.84043e-07 -8.91465e-05 1.27802e-07
1.1879e-05 1.27802e-07 -0.000143883
0.00230629 -2.01563e-05 4.66298e-05
-2.01563e-05 0.000730817 1.71439e-06
4.66298e-05 1.71439e-06 0.000691261
0.00124469 1.21948e-05 6.97765e-06
1.21948e-05 9.53473e-06 1.24299e-06
6.97765e-06 1.24299e-06 -7.46418e-05
0.00216974 4.02961e-05 4.09975e-05
4.02961e-05 0.000684655 2.98801e-06
4.09975e-05 2.98801e-06 0.000646129
0.00118731 3.93113e-05 6.93853e-06
3.93113e-05 1.62112e-05 1.31699e-06
6.93853e-06 1.31699e-06 -6.49091e-05
0.0016964 1.68706e-05 -8.49266e-05
1.68706e-05 0.000498298 4.25446e-07
-8.49266e-05 4.25446e-07 0.000476117
0.00134918 6.80068e-06 -1.38328e-05
6.80068e-06 0.000339732 1.40022e-06
-1.38328e-05 1.40022e-06 0.00031566
0.000993814 5.34562e-05 -7.70254e-06
5.34562e-05 0.000147524 1.69969e-06
-7.70254e-06 1.69969e-06 0.000134003
0.00133492 4.34829e-05 -7.17538e-06
4.34829e-05 0.000361108 2.28517e-06
-7.17538e-06 2.28517e-06 0.000334444
0.00151539 -1.97715e-05 -3.87646e-05
-1.97715e-05 0.000338796 3.60934e-06
-3.87646e-05 3.60934e-06 0.000295189
0.00132559 -2.05505e-05 -3.24981e-05
-2.05505e-05 0.000280761 4.18233e-06
-3.24981e-05 4.18233e-06 0.000239309
0.00118927 2.68081e-06 -2.5025e-05
2.68081e-06 0.000232073 3.6328e-06
-2.5025e-05 3.6328e-06 0.000193947
0.00169553 -7.73404e-05 -7.24714e-06
-7.73404e-05 0.000405528 2.49323e-06
-7.24714e-06 2.49323e-06 0.000334126
0.00496475 2.72863e-05 -3.26392e-06
2.72863e-05 0.00220134 -4.22418e-07
-3.26392e-06 -4.22418e-07 0.0021947
0.0014912 1.06357e-05 3.34518e-05
1.06357e-05 0.000403224 -8.80359e-07
3.34518e-05 -8.80359e-07 0.000380356
0.00116244 9.86384e-06 -2.14124e-05
9.86384e-06 0.000120258 2.71469e-07
-2.14124e-05 2.71469e-07 7.10323e-05
0.00150335 -1.59242e-05 -1.1868e-05
-1.59242e-05 0.000318497 1.22312e-07
-1.1868e-05 1.22312e-07 0.00027385
0.00199984 5.83736e-05 2.76431e-05
5.83736e-05 0.000652104 -1.72023e-06
2.76431e-05 -1.72023e-06 0.00065073
0.00129551 3.05123e-05 -5.43387e-06
3.05123e-05 0.00029216 3.93223e-07
-5.43387e-06 3.93223e-07 0.000258785
0.00136024 -1.61835e-05 -1.18061e-05
-1.61835e-05 0.000284405 2.12947e-07
-1.18061e-05 2.12947e-07 0.000240098
0.00170846 -6.02825e-05 -3.60579e-06
-6.02825e-05 0.000303163 6.70114e-07
-3.60579e-06 6.70114e-07 0.000225555
0.00145288 -6.38371e-05 -1.53257e-06
-6.38371e-05 0.00031623 6.80884e-07
-1.53257e-06 6.80884e-07 0.000247846
0.00143474 -6.84445e-05 -8.5349e-07
-6.84445e-05 0.000241968 1.14773e-07
-8.5349e-07 1.14773e-07 0.000169772
0.00112121 -7.84945e-05 -2.72848e-08
-7.84945e-05 6.25426e-05 -4.05642e-09
-2.72848e-08 -4.05642e-09 -2.53213e-05
0.000765504 3.07825e-06 1.18365e-05
3.07825e-06 -9.7988e-05 -1.67416e-06
1.18365e-05 -1.67416e-06 -0.000152431
0.00147379 -5.8563e-06 1.60636e-05
-5.8563e-06 0.000297754 -1.83919e-06
1.60636e-05 -1.83919e-06 0.000252035
0.00162841 6.9321e-07 6.41104e-06
6.9321e-07 0.000207486 -1.28405e-06
6.41104e-06 -1.28405e-06 0.000126497
0.00153091 -4.44052e-05 6.46227e-06
-4.44052e-05 0.000187469 -1.31693e-06
6.46227e-06 -1.31693e-06 0.000109472
0.00138613 -6.39791e-05 5.55057e-06
-6.39791e-05 0.000175014 -2.51334e-06
5.55057e-06 -2.51334e-06 9.89302e-05
0.00179361 -7.44303e-05 1.83061e-06
-7.44303e-05 0.000271612 -5.85178e-07
1.83061e-06 -5.85178e-07 0.000177897
0.00280304 6.99867e-05 3.72273e-05
6.99867e-05 0.00106367 -3.2554e-06
3.72273e-05 -3.2554e-06 0.00107025
0.00112817 -7.5021e-05 2.06788e-06
-7.5021e-05 2.96557e-05 -6.01119e-07
2.06788e-06 -6.01119e-07 -5.87012e-05
0.000703872 5.81713e-05 2.42854e-06
5.81713e-05 -2.62689e-05 -4.07519e-06
2.42854e-06 -4.07519e-06 -5.9698e-05
0.000727438 -3.67104e-05 2.41761e-06
-3.67104e-05 -3.48495e-05 -8.79274e-07
2.41761e-06 -8.79274e-07 -0.000101142
0.00119706 -8.50665e-05 2.05575e-06
-8.50665e-05 0.000140241 -7.33272e-07
2.05575e-06 -7.33272e-07 5.16792e-05
0.00122435 -8.81877e-05 9.15984e-07
-8.81877e-05 8.05304e-05 1.38596e-07
9.15984e-07 1.38596e-07 -1.4417e-05
0.0006734 4.52702e-05 3.43784e-06
4.52702e-05 -6.07452e-05 -4.09891e-06
3.43784e-06 -4.09891e-06 -8.30957e-05
0.000852809 2.16825e-05 1.39632e-06
2.16825e-05 1.39813e-05 -2.34445e-06
1.39632e-06 -2.34445e-06 -3.6808e-05
0.00393066 -5.91065e-05 -6.1987e-05
-5.91065e-05 0.00170802 -2.98173e-06
-6.1987e-05 -2.98173e-06 0.00169828
0.00330083 -9.36304e-05 -4.83093e-05
-9.36304e-05 0.00138609 -2.94874e-06
-4.83093e-05 -2.94874e-06 0.00137615
0.000607041 4.36081e-05 -8.52544e-06
4.36081e-05 -8.90524e-05 -4.83953e-06
-8.52544e-06 -4.83953e-06 -0.000136536
0.00275393 -6.97357e-05 -3.66952e-05
-6.97357e-05 0.00104355 -3.31525e-06
-3.66952e-05 -3.31525e-06 0.00104962
0.000633363 -4.68232e-05 -2.35654e-06
-4.68232e-05 -5.96337e-05 -4.74867e-06
-2.35654e-06 -4.74867e-06 -9.42267e-05
0.000623237 1.79837e-05 -6.9139e-06
1.79837e-05 -6.10238e-05 -4.20769e-06
-6.9139e-06 -4.20769e-06 -0.000103633
0.000840867 4.24997e-05 -3.30553e-06
4.24997e-05 1.05383e-05 -1.1964e-06
-3.30553e-06 -1.1964e-06 -5.83566e-05
0.00263287 -6.2464e-05 4.99425e-07
-6.2464e-05 0.000974731 -1.12851e-07
4.99425e-07 -1.12851e-07 0.000983174
0.000729203 -4.07004e-05 1.50488e-07
-4.07004e-05 -3.4947e-05 4.84354e-08
1.50488e-07 4.84354e-08 -5.24337e-05
0.00135496 4.84288e-05 1.43676e-05
4.84288e-05 0.0002774 1.15576e-07
1.43676e-05 1.15576e-07 0.000233673
0.00122402 3.08637e-05 1.18643e-05
3.08637e-05 0.000243224 2.16736e-07
1.18643e-05 2.16736e-07 0.000201613
0.00101263 6.38349e-05 2.91349e-07
6.38349e-05 1.6606e-05 -8.29551e-09
2.91349e-07 -8.29551e-09 -5.98221e-05
0.000720195 -5.39292e-05 3.96686e-08
-5.39292e-05 -2.27048e-05 6.17482e-08
3.96686e-08 6.17482e-08 -5.08727e-05
0.000905109 5.58338e-05 3.01221e-08
5.58338e-05 2.77831e-05 2.20901e-07
3.01221e-08 2.20901e-07 -4.19741e-05
0.000852644 2.41716e-05 1.82378e-07
2.41716e-05 2.98682e-05 -2.66157e-07
1.82378e-07 -2.66157e-07 -3.85278e-05
0.000864481 7.11597e-05 -6.53764e-08
7.11597e-05 -5.72449e-06 -1.68966e-07
-6.53764e-08 -1.68966e-07 -8.98497e-05
0.000725486 -4.90978e-05 2.57043e-06
-4.90978e-05 -2.713e-05 4.20881e-06
2.57043e-06 4.20881e-06 -5.02404e-05
0.000778711 -3.63273e-05 2.96998e-06
-3.63273e-05 -1.73961e-05 3.85193e-06
2.96998e-06 3.85193e-06 -3.06231e-05
0.000803561 -4.27986e-06 2.59018e-06
-4.27986e-06 -7.30331e-06 2.2857e-06
2.59018e-06 2.2857e-06 -5.73659e-05
0.00108079 5.80512e-05 5.93258e-06
5.80512e-05 1.16103e-05 1.89883e-06
5.93258e-06 1.89883e-06 -6.73025e-05
0.000995844 6.43288e-05 4.22419e-06
6.43288e-05 4.74781e-05 1.6738e-06
4.22419e-06 1.6738e-06 -2.56511e-05
0.00121002 8.1841e-05 2.87024e-06
8.1841e-05 6.34242e-05 8.92682e-07
2.87024e-06 8.92682e-07 -2.93686e-05
0.000871881 1.75012e-05 2.86364e-06
1.75012e-05 3.56517e-05 2.03984e-06
2.86364e-06 2.03984e-06 -2.76915e-05
0.000937823 7.56997e-05 1.53755e-06
7.56997e-05 7.9025e-06 -6.00012e-08
1.53755e-06 -6.00012e-08 -7.59121e-05
0.00105182 7.39106e-05 2.0907e-06
7.39106e-05 0.000112972 2.09338e-07
2.0907e-06 2.09338e-07 2.76726e-05
0.0010598 8.68933e-05 -6.72733e-08
8.68933e-05 8.77231e-05 -1.19245e-06
-6.72733e-08 -1.19245e-06 -3.91881e-06
0.0022847 -4.45512e-05 2.66036e-05
-4.45512e-05 0.000773525 3.6733e-06
2.66036e-05 3.6733e-06 0.000788796
0.00236659 -5.02548e-05 5.56943e-07
-5.02548e-05 0.000822957 -7.57035e-08
5.56943e-07 -7.57035e-08 0.000836215
0.00246653 -5.62599e-05 -3.03789e-05
-5.62599e-05 0.000881546 -3.45248e-06
-3.03789e-05 -3.45248e-06 0.000892674
0.000712031 3.77467e-05 3.31471e-06
3.77467e-05 -4.82671e-05 -3.81916e-06
3.31471e-06 -3.81916e-06 -6.55663e-05
0.00268537 6.32229e-05 3.44512e-05
6.32229e-05 0.000996839 -3.36705e-06
3.44512e-05 -3.36705e-06 0.0010058
0.00417632 -2.82169e-05 -7.10158e-05
-2.82169e-05 0.00182418 -2.60598e-06
-7.10158e-05 -2.60598e-06 0.00181671
0.00449393 -9.49805e-06 -8.03315e-05
-9.49805e-06 0.00197383 -1.48117e-06
-8.03315e-05 -1.48117e-06 0.00196772
0.000691965 2.74763e-05 -1.0811e-05
2.74763e-05 -9.80656e-05 -2.58332e-06
-1.0811e-05 -2.58332e-06 -0.000145068
0.000740591 1.70227e-05 -1.14937e-05
1.70227e-05 -9.53168e-05 -1.25089e-06
-1.14937e-05 -1.25089e-06 -0.000147144
0.00488462 -2.10368e-05 -8.63735e-05
-2.10368e-05 0.00216291 -5.14568e-08
-8.63735e-05 -5.14568e-08 0.00215635
0.00505799 1.38088e-05 -1.08756e-06
1.38088e-05 0.00224678 4.40702e-07
-1.08756e-06 4.40702e-07 0.00224014
0.000770821 1.35081e-06 -1.13999e-08
1.35081e-06 -9.64227e-05 -2.76785e-07
-1.13999e-08 -2.76785e-07 -0.000151134
0.00153082 3.54358e-06 1.81397e-05
3.54358e-06 0.000328736 2.82799e-07
1.81397e-05 2.82799e-07 0.000284798
0.00123564 1.57482e-05 1.17386e-07
1.57482e-05 5.49007e-06 5.3822e-08
1.17386e-07 5.3822e-08 -7.87455e-05
0.000661655 3.69881e-05 -8.05663e-09
3.69881e-05 -9.97487e-05 -5.91437e-08
-8.05663e-09 -5.91437e-08 -0.000146749
0.00118559 4.07788e-05 6.69061e-08
4.07788e-05 1.62239e-05 -1.82633e-07
6.69061e-08 -1.82633e-07 -6.50922e-05
0.000767687 -4.35476e-06 1.20995e-05
-4.35476e-06 -0.000105092 -8.86745e-07
1.20995e-05 -8.86745e-07 -0.000161078
0.00128831 5.87978e-06 7.13147e-06
5.87978e-06 9.465e-06 5.52555e-07
7.13147e-06 5.52555e-07 -7.84191e-05
0.00121758 2.57049e-05 6.97203e-06
2.57049e-05 1.50314e-05 1.16137e-06
6.97203e-06 1.16137e-06 -6.67103e-05
0.00148192 1.39819e-05 2.95013e-06
1.39819e-05 5.58915e-05 9.06089e-07
2.95013e-06 9.06089e-07 -4.13892e-05
0.00113881 4.93059e-05 6.52317e-06
4.93059e-05 1.1804e-05 1.75696e-06
6.52317e-06 1.75696e-06 -6.85344e-05
0.00141232 4.50712e-05 2.98308e-06
4.50712e-05 5.93327e-05 1.32786e-07
2.98308e-06 1.32786e-07 -3.45178e-05
0.00501606 3.36411e-05 -9.62918e-05
3.36411e-05 0.00222605 -7.30326e-07
-9.62918e-05 -7.30326e-07 0.00221943
0.00133564 6.62498e-07 -1.30693e-05
6.62498e-07 0.000326744 9.72693e-07
-1.30693e-05 9.72693e-07 0.000302723
4.34627e-05 1.1098e-06 -1.24388e-05
1.1098e-06 -0.000466435 2.45768e-06
-1.24388e-05 2.45768e-06 -0.000523212
0.0015635 -1.18478e-05 -4.09974e-05
-1.18478e-05 0.000347912 2.64204e-06
-4.09974e-05 2.64204e-06 0.000304172
0.0027156 8.48499e-05 -1.37664e-05
8.48499e-05 0.00103334 1.31429e-06
-1.37664e-05 1.31429e-06 0.00103481
0.00160927 2.32535e-05 -2.06527e-05
2.32535e-05 0.000449862 3.60177e-06
-2.06527e-05 3.60177e-06 0.00041945
0.0014195 -2.31964e-05 -3.56854e-05
-2.31964e-05 0.000311093 4.13433e-06
-3.56854e-05 4.13433e-06 0.00026864
0.00154695 -5.63566e-05 -1.15714e-05
-5.63566e-05 0.000218226 3.05804e-06
-1.15714e-05 3.05804e-06 0.000139494
0.00169655 -7.50398e-05 -7.04768e-06
-7.50398e-05 0.000376695 2.36552e-06
-7.04768e-06 2.36552e-06 0.000304936
0.00161198 -7.08984e-05 -6.15298e-06
-7.08984e-05 0.000395091 2.21946e-06
-6.15298e-06 2.21946e-06 0.000325538
0.00112857 -7.82751e-05 -1.72006e-06
-7.82751e-05 6.61824e-05 3.24003e-07
-1.72006e-06 3.24003e-07 -2.15416e-05
0.00076961 4.70843e-06 -9.76928e-08
4.70843e-06 -9.7076e-05 -2.74429e-07
-9.76928e-08 -2.74429e-07 -0.000151536
0.00152319 -5.42131e-06 -1.28929e-05
-5.42131e-06 0.00032127 6.38966e-08
-1.28929e-05 6.38966e-08 0.000276576
0.00125876 -7.75081e-08 -2.36741e-06
-7.75081e-08 1.5645e-05 8.1396e-08
-2.36741e-06 8.1396e-08 -6.75274e-05
0.00175384 -4.64626e-05 -1.89198e-06
-4.64626e-05 0.000302812 2.02484e-07
-1.89198e-06 2.02484e-07 0.000225588
0.00276465 6.92586e-05 -5.07193e-07
6.92586e-05 0.00104528 -1.24549e-07
-5.07193e-07 -1.24549e-07 0.00105156
0.00113339 4.41511e-05 1.39948e-06
4.41511e-05 0.00019559 1.29649e-07
1.39948e-06 1.29649e-07 0.000166453
0.00109719 -3.61084e-05 8.20169e-08
-3.61084e-05 0.000154611 -7.16104e-08
8.20169e-08 -7.16104e-08 8.83765e-05
0.00139445 -6.3429e-05 -1.55679e-06
-6.3429e-05 0.000180506 1.63696e-07
-1.55679e-06 1.63696e-07 0.000104493
0.00149272 -6.84464e-05 -1.49466e-06
-6.84464e-05 0.000114698 5.3646e-07
-1.49466e-06 5.3646e-07 1.97765e-05
0.00100903 -7.80014e-05 -2.83602e-07
-7.80014e-05 4.56538e-05 -1.46209e-07
-2.83602e-07 -1.46209e-07 -4.27692e-05
0.00136378 -8.01992e-05 1.17042e-07
-8.01992e-05 0.000148296 1.0052e-07
1.17042e-07 1.0052e-07 6.03801e-05
0.00121825 -8.75366e-05 1.09267e-07
-8.75366e-05 7.76707e-05 5.86483e-08
1.09267e-07 5.86483e-08 -1.70787e-05
0.000691879 4.77034e-05 -1.66349e-07
4.77034e-05 -4.91291e-05 2.90748e-08
-1.66349e-07 2.90748e-08 -7.21985e-05
0.000827909 1.97233e-05 -3.14863e-07
1.97233e-05 6.47303e-07 7.04879e-08
-3.14863e-07 7.04879e-08 -5.00507e-05
0.0012713 2.63492e-07 6.87748e-06
2.63492e-07 -1.35609e-06 -1.53861e-06
6.87748e-06 -1.53861e-06 -8.90801e-05
0.00156223 -1.67893e-05 6.28949e-06
-1.67893e-05 0.000191104 -1.11179e-06
6.28949e-06 -1.11179e-06 0.000113513
0.00186295 -3.68398e-06 1.9689e-06
-3.68398e-06 0.00025239 -5.22877e-07
1.9689e-06 -5.22877e-07 0.00015813
0.00124384 -4.66192e-05 3.67984e-06
-4.66192e-05 -4.53807e-05 -6.49289e-07
3.67984e-06 -6.49289e-07 -0.00014046
0.00137379 -7.73882e-05 1.93676e-06
-7.73882e-05 0.000110834 -9.99818e-07
1.93676e-06 -9.99818e-07 2.0215e-05
0.00175266 -7.37974e-05 1.09599e-07
-7.37974e-05 0.000203538 2.65285e-08
1.09599e-07 2.65285e-08 0.000106275
0.000620481 5.18675e-05 2.72402e-06
5.18675e-05 -7.87429e-05 -4.22569e-06
2.72402e-06 -4.22569e-06 -0.000106566
0.00128975 -8.44693e-05 4.6378e-07
-8.44693e-05 6.88512e-05 -2.37441e-07
4.6378e-07 -2.37441e-07 -2.56248e-05
0.000754684 -1.14156e-05 2.08999e-06
-1.14156e-05 -1.99116e-05 -9.14878e-07
2.08999e-06 -9.14878e-07 -8.51177e-05
0.000693563 -6.42271e-05 1.6626e-06
-6.42271e-05 -8.14263e-05 -1.01046e-06
1.6626e-06 -1.01046e-06 -0.000165939
0.0016052 -0.000107905 5.14074e-07
-0.000107905 0.000322041 2.69829e-08
5.14074e-07 2.69829e-08 0.000224272
0.00144937 -9.78725e-05 -4.03234e-07
-9.78725e-05 0.00016914 1.12677e-06
-4.03234e-07 1.12677e-06 7.29635e-05
0.000875755 3.39319e-07 2.24589e-06
3.39319e-07 3.0326e-05 -2.11421e-06
2.24589e-06 -2.11421e-06 -2.80969e-05
0.000842381 2.86914e-05 1.0446e-06
2.86914e-05 5.40167e-06 -1.94057e-06
1.0446e-06 -1.94057e-06 -3.81102e-05
0.000910358 -2.76599e-05 7.80368e-07
-2.76599e-05 4.1237e-05 -7.43988e-07
7.80368e-07 -7.43988e-07 -3.26825e-05
0.000627093 4.65735e-05 -9.63633e-06
4.65735e-05 -9.91341e-05 -4.40951e-06
-9.63633e-06 -4.40951e-06 -0.000147066
0.00261652 -6.26729e-05 -3.38782e-05
-6.26729e-05 0.000965883 -3.38138e-06
-3.38782e-05 -3.38138e-06 0.000974549
0.000711125 -3.82895e-05 -3.43727e-06
-3.82895e-05 -4.53311e-05 -3.90173e-06
-3.43727e-06 -3.90173e-06 -6.22327e-05
0.000600698 3.0075e-05 -7.20241e-06
3.0075e-05 -7.64714e-05 -4.57658e-06
-7.20241e-06 -4.57658e-06 -0.000122051
0.000992124 6.39088e-05 -4.97099e-06
6.39088e-05 6.98633e-06 -2.10088e-06
-4.97099e-06 -2.10088e-06 -6.93445e-05
0.000612866 -5.10644e-05 -2.7377e-06
-5.10644e-05 -7.86275e-05 -4.46898e-06
-2.7377e-06 -4.46898e-06 -0.000106562
0.000780858 1.98145e-05 -2.37032e-06
1.98145e-05 -6.9008e-06 -1.92498e-06
-2.37032e-06 -1.92498e-06 -7.48883e-05
0.000867888 5.3226e-05 -3.36053e-06
5.3226e-05 8.73267e-06 -7.00406e-07
-3.36053e-06 -7.00406e-07 -6.07275e-05
0.000819735 6.9461e-05 -2.3177e-06
6.9461e-05 -2.96123e-05 9.08146e-08
-2.3177e-06 9.08146e-08 -0.000113933
0.000695155 -4.74259e-05 1.50344e-07
-4.74259e-05 -4.41037e-05 4.33282e-08
1.50344e-07 4.33282e-08 -6.66675e-05
0.000757146 -3.46429e-05 5.48606e-08
-3.46429e-05 -2.87482e-05 6.95924e-08
5.48606e-08 6.95924e-08 -4.16228e-05
0.000827685 -2.02741e-05 1.30717e-07
-2.02741e-05 3.99813e-06 8.8685e-08
1.30717e-07 8.8685e-08 -4.51424e-05
0.00108502 5.89721e-05 3.26209e-07
5.89721e-05 1.44521e-05 -9.33204e-08
3.26209e-07 -9.33204e-08 -6.44774e-05
0.000947011 6.24134e-05 2.08268e-07
6.24134e-05 2.32024e-05 1.39657e-07
2.08268e-07 1.39657e-07 -4.96172e-05
0.00119831 8.20121e-05 1.88373e-07
8.20121e-05 5.80808e-05 5.2989e-08
1.88373e-07 5.2989e-08 -3.47866e-05
0.000846156 1.47539e-05 -2.75804e-07
1.47539e-05 2.48034e-05 2.19416e-10
-2.75804e-07 2.19416e-10 -3.87553e-05
0.00104484 7.98716e-05 -8.15505e-08
7.98716e-05 6.35853e-05 -9.61352e-08
-8.15505e-08 -9.61352e-08 -2.00567e-05
0.00101806 7.2688e-05 2.03966e-07
7.2688e-05 9.57021e-05 -2.789e-07
2.03966e-07 -2.789e-07 1.04637e-05
0.000953678 8.33248e-05 -6.1089e-07
8.33248e-05 3.33607e-05 2.67756e-07
-6.1089e-07 2.67756e-07 -5.86977e-05
0.000793426 -3.10374e-05 2.91409e-06
-3.10374e-05 -1.78227e-05 3.5822e-06
2.91409e-06 3.5822e-06 -2.7243e-05
0.000823485 -2.93291e-08 2.87032e-06
-2.93291e-08 3.60199e-06 1.88056e-06
2.87032e-06 1.88056e-06 -5.26454e-05
0.000810075 -2.26547e-05 1.49809e-06
-2.26547e-05 -8.18954e-06 2.39459e-06
1.49809e-06 2.39459e-06 -5.03938e-05
0.000930323 1.93475e-05 1.19815e-06
1.93475e-05 5.42298e-05 8.94404e-07
1.19815e-06 8.94404e-07 -1.62598e-05
0.00128575 7.18107e-05 3.62315e-06
7.18107e-05 5.43223e-05 7.21362e-07
3.62315e-06 7.21362e-07 -3.99313e-05
0.00114035 8.44361e-05 2.22137e-06
8.44361e-05 7.87097e-05 9.22905e-07
2.22137e-06 9.22905e-07 -9.52631e-06
0.0012939 8.95308e-05 1.40759e-06
8.95308e-05 7.16778e-05 7.52491e-07
1.40759e-06 7.52491e-07 -2.85928e-05
0.00105702 5.15256e-05 1.91345e-06
5.15256e-05 0.000120781 9.31585e-07
1.91345e-06 9.31585e-07 4.02082e-05
0.00115181 9.01737e-05 3.61216e-07
9.01737e-05 9.9885e-05 -3.77872e-07
3.61216e-07 -3.77872e-07 9.75365e-06
0.00104893 8.61581e-05 1.12018e-06
8.61581e-05 0.000113252 -8.77689e-07
1.12018e-06 -8.77689e-07 1.51197e-05
0.000817566 7.96151e-05 6.2846e-07
7.96151e-05 -5.108e-05 -1.11595e-06
6.2846e-07 -1.11595e-06 -0.000146611
0.000862741 -1.35596e-05 9.15864e-07
-1.35596e-05 3.89832e-06 1.78227e-06
9.15864e-07 1.78227e-06 -2.42982e-05
0.000802786 -2.3641e-05 2.04252e-06
-2.3641e-05 -2.49129e-05 3.4405e-06
2.04252e-06 3.4405e-06 -2.94017e-05
0.00222289 -3.94369e-05 2.35914e-05
-3.94369e-05 0.000733745 3.74635e-06
2.35914e-05 3.74635e-06 0.000750981
0.0022768 -4.47774e-05 6.96002e-07
-4.47774e-05 0.000768368 -7.24301e-08
6.96002e-07 -7.24301e-08 0.000783866
0.00234487 -5.02766e-05 -2.73998e-05
-5.02766e-05 0.000810732 -3.52741e-06
-2.73998e-05 -3.52741e-06 0.000824303
0.000738312 3.30248e-05 3.08398e-06
3.30248e-05 -4.16209e-05 -3.47823e-06
3.08398e-06 -3.47823e-06 -5.46258e-05
0.00253064 5.70962e-05 3.05266e-05
5.70962e-05 0.000911097 -3.43005e-06
3.05266e-05 -3.43005e-06 0.000922363
0.000730557 4.06215e-05 -2.57316e-07
4.06215e-05 -3.74705e-05 2.7493e-08
-2.57316e-07 2.7493e-08 -5.5425e-05
0.00268809 6.2818e-05 -4.62578e-07
6.2818e-05 0.000998683 -1.06656e-07
-4.62578e-07 -1.06656e-07 0.00100746
0.00065481 4.01095e-05 -1.03101e-05
4.01095e-05 -0.000103351 -3.53228e-06
-1.03101e-05 -3.53228e-06 -0.000150554
0.000727998 2.54659e-05 -1.12001e-05
2.54659e-05 -8.96952e-05 -1.77276e-06
-1.12001e-05 -1.77276e-06 -0.00013857
0.00116856 4.0975e-05 -6.82183e-06
4.0975e-05 8.49797e-06 -1.56156e-06
-6.82183e-06 -1.56156e-06 -7.29695e-05
0.00122705 1.7265e-05 -6.79483e-06
1.7265e-05 1.69207e-06 -1.09565e-06
-6.79483e-06 -1.09565e-06 -8.25817e-05
0.000750868 5.47833e-06 -1.19628e-05
5.47833e-06 -0.000105382 -7.30542e-07
-1.19628e-05 -7.30542e-07 -0.000160052
0.00505308 -3.40003e-06 -9.23164e-05
-3.40003e-06 0.00224452 6.87727e-07
-9.23164e-05 6.87727e-07 0.00223794
0.000774754 -4.57476e-08 6.16549e-08
-4.57476e-08 -0.000101599 -3.9101e-07
6.16549e-08 -3.9101e-07 -0.000157555
0.001282 9.65367e-06 5.86199e-08
9.65367e-06 6.54417e-06 -2.61318e-07
5.86199e-08 -2.61318e-07 -8.12887e-05
0.00120319 2.56082e-05 -2.90842e-08
2.56082e-05 8.52828e-06 -1.0028e-08
-2.90842e-08 -1.0028e-08 -7.33507e-05
0.00149957 1.34854e-05 9.24099e-08
1.34854e-05 6.49415e-05 9.72299e-08
9.24099e-08 9.72299e-08 -3.23349e-05
0.00114142 5.09138e-05 2.20318e-07
5.09138e-05 1.43468e-05 -9.14963e-08
2.20318e-07 -9.14963e-08 -6.61964e-05
0.00142274 4.73948e-05 3.65391e-08
4.73948e-05 6.4585e-05 -8.84892e-08
3.65391e-08 -8.84892e-08 -2.93946e-05
0.00130228 1.21223e-06 7.12505e-06
1.21223e-06 6.48483e-06 -7.87948e-07
7.12505e-06 -7.87948e-07 -8.27102e-05
0.00153877 1.24731e-05 3.09167e-06
1.24731e-05 6.01282e-05 6.79905e-07
3.09167e-06 6.79905e-07 -4.14621e-05
0.00145841 2.91979e-05 3.01634e-06
2.91979e-05 6.31042e-05 4.47221e-07
3.01634e-06 4.47221e-07 -3.13195e-05
0.00160979 9.15625e-06 8.39389e-07
9.15625e-06 8.52477e-05 5.78285e-07
8.39389e-07 5.78285e-07 -1.36069e-05
0.00134959 6.03318e-05 2.90689e-06
6.03318e-05 5.2676e-05 2.11412e-07
2.90689e-06 2.11412e-07 -4.15361e-05
0.00152462 4.91649e-05 7.67225e-07
4.91649e-05 7.2674e-05 -3.64178e-07
7.67225e-07 -3.64178e-07 -2.29759e-05
0.000780035 8.6903e-06 -1.17099e-05
8.6903e-06 -9.27894e-05 1.08035e-06
-1.17099e-05 1.08035e-06 -0.000147441
0.00159332 3.07322e-06 -4.25126e-05
3.07322e-06 0.000355891 1.74361e-06
-4.25126e-05 1.74361e-06 0.000312021
0.000877492 6.34391e-07 -7.47989e-06
6.34391e-07 -0.000182226 1.57131e-06
-7.47989e-06 1.57131e-06 -0.000267624
0.00196655 -4.76596e-05 -1.09373e-05
-4.76596e-05 0.000412755 1.97945e-06
-1.09373e-05 1.97945e-06 0.0003364
0.00273844 6.87315e-05 -3.78369e-05
6.87315e-05 0.00103315 3.38866e-06
-3.78369e-05 3.38866e-06 0.0010391
0.00159815 4.18267e-05 -1.89243e-05
4.18267e-05 0.000438898 2.93852e-06
-1.89243e-05 2.93852e-06 0.000412078
0.00145901 -4.67241e-05 -4.41771e-06
-4.67241e-05 0.000338709 1.40652e-06
-4.41771e-06 1.40652e-06 0.000273237
0.00141179 -6.33629e-05 -8.53596e-06
-6.33629e-05 0.000190765 2.8296e-06
-8.53596e-06 2.8296e-06 0.000114778
0.00118886 -6.23769e-05 -4.05556e-06
-6.23769e-05 -4.37317e-05 1.40294e-06
-4.05556e-06 1.40294e-06 -0.000139852
0.00159641 -8.53627e-05 -2.54185e-06
-8.53627e-05 0.000265412 9.30127e-07
-2.54185e-06 9.30127e-07 0.000177936
0.000812475 -7.04957e-05 -1.6717e-06
-7.04957e-05 -5.31384e-05 4.33942e-07
-1.6717e-06 4.33942e-07 -0.000141398
0.00121073 -8.68268e-05 -2.94663e-07
-8.68268e-05 7.40865e-05 -9.9543e-08
-2.94663e-07 -9.9543e-08 -2.04607e-05
0.000717504 4.95476e-05 -2.43933e-06
4.95476e-05 -3.40448e-05 4.1129e-06
-2.43933e-06 4.1129e-06 -5.77335e-05
0.00080319 1.70217e-05 -2.09136e-06
1.70217e-05 -1.25634e-05 1.96605e-06
-2.09136e-06 1.96605e-06 -6.32213e-05
0.00110318 3.78978e-06 -2.95478e-07
3.78978e-06 -8.75728e-05 -1.27062e-07
-2.95478e-07 -1.27062e-07 -0.000176142
0.00159596 -1.93623e-05 -2.08448e-06
-1.93623e-05 0.000207874 2.53449e-07
-2.08448e-06 2.53449e-07 0.000130185
0.00176731 -1.19757e-06 -1.56618e-06
-1.19757e-06 0.000200837 3.22499e-07
-1.56618e-06 3.22499e-07 0.000105922
0.00153321 -5.00629e-05 7.77472e-07
-5.00629e-05 0.000106181 -3.85311e-07
7.77472e-07 -3.85311e-07 1.24381e-05
0.000673328 5.33176e-05 -6.52587e-08
5.33176e-05 -5.038e-05 4.42622e-08
-6.52587e-08 4.42622e-08 -7.86387e-05
0.000842319 -2.13081e-05 1.46558e-08
-2.13081e-05 2.36583e-05 -1.16979e-07
1.46558e-08 -1.16979e-07 -4.1306e-05
0.000794162 -6.80044e-05 6.61099e-07
-6.80044e-05 -2.90131e-05 -4.64014e-07
6.61099e-07 -4.64014e-07 -0.000112683
0.00154714 -8.06323e-05 -6.34664e-07
-8.06323e-05 0.000197644 8.729e-08
-6.34664e-07 8.729e-08 0.000106862
0.00157334 -6.91757e-05 -4.69431e-07
-6.91757e-05 0.000109715 5.98647e-07
-4.69431e-07 5.98647e-07 1.25616e-05
0.00133953 -9.81091e-05 -8.67272e-07
-9.81091e-05 0.000186705 3.1514e-07
-8.67272e-07 3.1514e-07 8.82179e-05
0.00129869 -8.42698e-05 5.33618e-08
-8.42698e-05 7.28539e-05 2.45102e-07
5.33618e-08 2.45102e-07 -2.15334e-05
0.00128954 -9.23828e-05 3.41917e-07
-9.23828e-05 8.90575e-05 4.76805e-07
3.41917e-07 4.76805e-07 -7.02941e-06
0.000844609 -2.02662e-07 -2.43937e-07
-2.02662e-07 1.27965e-05 -5.85492e-08
-2.43937e-07 -5.85492e-08 -4.52531e-05
0.000883363 -1.47325e-05 -3.26674e-07
-1.47325e-05 2.43794e-05 -2.25706e-07
-3.26674e-07 -2.25706e-07 -4.7891e-05
0.000827298 2.70204e-05 -5.71561e-08
2.70204e-05 -2.50489e-06 1.85757e-07
-5.71561e-08 1.85757e-07 -4.6049e-05
0.00188611 8.39712e-06 2.0402e-06
8.39712e-06 0.000243338 -7.56972e-07
2.0402e-06 -7.56972e-07 0.000144935
0.00164342 -2.22119e-05 2.80882e-06
-2.22119e-05 0.000151025 -3.4859e-07
2.80882e-06 -3.4859e-07 5.8661e-05
0.00179697 1.03831e-06 6.4183e-07
1.03831e-06 0.000176263 -1.09147e-07
6.4183e-07 -1.09147e-07 7.58066e-05
0.00159097 -4.41927e-05 9.6108e-07
-4.41927e-05 8.56605e-05 -3.60933e-07
9.6108e-07 -3.60933e-07 -1.09759e-05
0.00116712 -7.69577e-05 7.8736e-07
-7.69577e-05 -4.14594e-05 -9.70306e-07
7.8736e-07 -9.70306e-07 -0.000137271
0.00169772 -6.78208e-05 -1.9468e-06
-6.78208e-05 0.000144214 8.46451e-07
-1.9468e-06 8.46451e-07 5.1825e-05
0.000843238 -1.12852e-05 2.61332e-06
-1.12852e-05 2.12645e-05 -1.46472e-06
2.61332e-06 -1.46472e-06 -4.21169e-05
0.00131888 -8.80185e-05 -9.54815e-07
-8.80185e-05 5.88031e-05 -2.75295e-08
-9.54815e-07 -2.75295e-08 -3.55047e-05
0.000947904 -6.89383e-05 1.05085e-06
-6.89383e-05 5.89281e-05 3.22514e-07
1.05085e-06 3.22514e-07 -1.98091e-05
0.000787094 -7.84607e-05 1.23739e-06
-7.84607e-05 -4.56941e-05 -1.42569e-06
1.23739e-06 -1.42569e-06 -0.000141839
0.00146314 -0.000107148 1.13668e-06
-0.000107148 0.000226982 6.54545e-07
1.13668e-06 6.54545e-07 0.000122275
0.00174298 -0.000108066 -1.95701e-06
-0.000108066 0.000303863 2.30992e-06
-1.95701e-06 2.30992e-06 0.000210146
0.000843826 2.70942e-05 1.2766e-06
2.70942e-05 1.07649e-06 -1.6654e-06
1.2766e-06 -1.6654e-06 -3.66887e-05
0.000943063 -3.79501e-05 1.35072e-06
-3.79501e-05 5.36374e-05 5.95815e-08
1.35072e-06 5.95815e-08 -2.07933e-05
0.000806131 -8.59042e-06 9.58264e-07
-8.59042e-06 -1.56607e-05 -1.43809e-06
9.58264e-07 -1.43809e-06 -8.39585e-05
0.00103538 -6.99801e-05 5.75001e-08
-6.99801e-05 0.00011085 9.63587e-07
5.75001e-08 9.63587e-07 2.75665e-05
0.00108309 5.99861e-05 -6.1101e-06
5.99861e-05 1.42829e-05 -2.19629e-06
-6.1101e-06 -2.19629e-06 -6.46908e-05
0.000734136 -3.32382e-05 -3.20074e-06
-3.32382e-05 -4.08034e-05 -3.65239e-06
-3.20074e-06 -3.65239e-06 -5.33501e-05
0.000671181 -4.51519e-05 -3.43152e-06
-4.51519e-05 -5.81174e-05 -4.16375e-06
-3.43152e-06 -4.16375e-06 -8.0033e-05
0.000840615 -2.64937e-05 -1.44842e-06
-2.64937e-05 1.10082e-05 -2.52111e-06
-1.44842e-06 -2.52111e-06 -3.82354e-05
0.000905912 6.07413e-05 -3.65167e-06
6.07413e-05 3.01091e-06 -1.48003e-06
-3.65167e-06 -1.48003e-06 -6.9537e-05
0.0011846 8.21055e-05 -2.82451e-06
8.21055e-05 5.17682e-05 -8.81118e-07
-2.82451e-06 -8.81118e-07 -4.1174e-05
0.000828976 1.0995e-05 -2.65857e-06
1.0995e-05 1.83275e-05 -1.94348e-06
-2.65857e-06 -1.94348e-06 -4.547e-05
0.000987438 7.14003e-05 -2.05904e-06
7.14003e-05 8.01525e-05 -9.56626e-07
-2.05904e-06 -9.56626e-07 -5.04048e-06
0.00115049 8.39801e-05 -1.68796e-06
8.39801e-05 0.000118515 -4.47665e-08
-1.68796e-06 -4.47665e-08 3.50601e-05
0.000843544 7.95843e-05 -2.15174e-06
7.95843e-05 -2.2982e-05 8.19677e-07
-2.15174e-06 8.19677e-07 -0.000115452
0.000772584 -3.0211e-05 1.08435e-07
-3.0211e-05 -2.8375e-05 3.18322e-08
1.08435e-07 3.18322e-08 -3.76492e-05
0.000839346 4.35303e-06 1.4541e-08
4.35303e-06 1.40582e-05 -3.34351e-08
1.4541e-08 -3.34351e-08 -4.30159e-05
0.00082621 -2.65932e-05 -4.10302e-08
-2.65932e-05 5.80519e-08 1.6556e-07
-4.10302e-08 1.6556e-07 -4.2114e-05
0.000938504 1.39667e-05 2.12535e-07
1.39667e-05 5.81072e-05 -2.07573e-07
2.12535e-07 -2.07573e-07 -1.20616e-05
0.00128743 7.24017e-05 7.00415e-07
7.24017e-05 5.54017e-05 2.82807e-07
7.00415e-07 2.82807e-07 -3.90313e-05
0.00110755 8.38167e-05 8.30845e-08
8.38167e-05 6.32973e-05 4.67952e-08
8.30845e-08 4.67952e-08 -2.49121e-05
0.0012914 8.9561e-05 4.04417e-08
8.9561e-05 7.04764e-05 2.49896e-07
4.04417e-08 2.49896e-07 -2.97536e-05
0.00100057 5.23615e-05 1.6666e-07
5.23615e-05 9.254e-05 1.77331e-07
1.6666e-07 1.77331e-07 1.2438e-05
0.0012879 9.51738e-05 -4.39632e-07
9.51738e-05 0.000170561 -7.30492e-07
-4.39632e-07 -7.30492e-07 8.05852e-05
0.00106648 8.72287e-05 2.21847e-07
8.72287e-05 0.000121629 -5.81164e-07
2.21847e-07 -5.81164e-07 2.30718e-05
0.000916721 8.34002e-05 -1.56653e-06
8.34002e-05 3.48575e-06 3.07606e-08
-1.56653e-06 3.07606e-08 -9.06731e-05
0.000803722 -2.71877e-05 2.49678e-06
-2.71877e-05 -1.89117e-05 3.48297e-06
2.49678e-06 3.48297e-06 -2.55735e-05
0.000827262 -2.55226e-05 1.22883e-06
-2.55226e-05 -3.97498e-06 2.17942e-06
1.22883e-06 2.17942e-06 -4.07463e-05
0.00100582 2.93673e-05 1.58345e-06
2.93673e-05 9.10441e-05 5.96351e-07
1.58345e-06 5.96351e-07 1.63715e-05
0.000907692 1.82323e-06 8.65712e-07
1.82323e-06 3.94395e-05 1.41288e-06
8.65712e-07 1.41288e-06 -2.39093e-05
0.000983727 5.76131e-05 1.15201e-06
5.76131e-05 8.80782e-05 4.481e-08
1.15201e-06 4.481e-08 5.06038e-06
0.0013847 7.56989e-05 1.97734e-06
7.56989e-05 6.47839e-05 2.32761e-07
1.97734e-06 2.32761e-07 -3.50344e-05
0.0011813 9.19916e-05 8.47673e-07
9.19916e-05 7.39135e-05 9.41791e-07
8.47673e-07 9.41791e-07 -2.15153e-05
0.00137954 9.54494e-05 -2.53964e-07
9.54494e-05 9.56768e-05 4.60402e-07
-2.53964e-07 4.60402e-07 -6.81298e-06
0.00109429 8.40956e-05 2.372e-06
8.40956e-05 0.000148026 1.91504e-06
2.372e-06 1.91504e-06 5.24214e-05
0.00117135 9.50269e-05 1.73241e-06
9.50269e-05 9.66267e-05 -2.85041e-07
1.73241e-06 -2.85041e-07 2.89709e-06
0.000600292 7.20504e-05 1.81575e-06
7.20504e-05 -0.000131567 -1.39501e-06
1.81575e-06 -1.39501e-06 -0.000239517
0.000855267 -1.72474e-05 1.0625e-06
-1.72474e-05 3.28043e-06 1.91308e-06
1.0625e-06 1.91308e-06 -2.71168e-05
0.000888151 7.09175e-06 3.39732e-07
7.09175e-06 2.50779e-05 9.20389e-07
3.39732e-07 9.20389e-07 -2.09043e-05
0.00087446 -9.03706e-06 7.23951e-07
-9.03706e-06 7.27482e-06 1.74531e-06
7.23951e-07 1.74531e-06 -1.92067e-05
0.000863933 -1.17966e-05 1.25663e-07
-1.17966e-05 5.19897e-06 3.97577e-09
1.25663e-07 3.97577e-09 -2.31167e-05
0.00135607 -2.53794e-05 2.11787e-06
-2.53794e-05 0.000261546 2.06605e-06
2.11787e-06 2.06605e-06 0.000262088
0.00107617 -2.59144e-05 7.76241e-07
-2.59144e-05 0.000119286 -2.29569e-08
7.76241e-07 -2.29569e-08 0.000116422
0.0010513 -2.36902e-05 1.94828e-05
-2.36902e-05 0.000108594 6.42861e-06
1.94828e-05 6.42861e-06 0.000121788
0.00221868 -3.96038e-05 8.41791e-07
-3.96038e-05 0.000730538 -6.58468e-08
8.41791e-07 -6.58468e-08 0.000747977
0.00226725 -4.48814e-05 -2.4606e-05
-4.48814e-05 0.000762353 -3.61293e-06
-2.4606e-05 -3.61293e-06 0.000778097
0.000756129 2.97159e-05 2.66658e-06
2.97159e-05 -3.92898e-05 -3.33985e-06
2.66658e-06 -3.33985e-06 -4.9029e-05
0.00240047 5.12712e-05 2.72789e-05
5.12712e-05 0.000836776 -3.49798e-06
2.72789e-05 -3.49798e-06 0.000850354
0.000758818 3.43355e-05 -6.42492e-08
3.43355e-05 -3.08676e-05 7.12456e-08
-6.42492e-08 7.12456e-08 -4.41928e-05
0.0025572 5.67193e-05 -6.35526e-07
5.67193e-05 0.000925236 -9.64535e-08
-6.35526e-07 -9.64535e-08 0.000936276
0.000750116 4.32535e-05 -2.54033e-06
4.32535e-05 -2.61649e-05 4.02562e-06
-2.54033e-06 4.02562e-06 -4.47735e-05
0.00269204 6.26416e-05 -3.63868e-05
6.26416e-05 0.00100119 3.47748e-06
-3.63868e-05 3.47748e-06 0.00100973
0.00114884 5.26161e-05 -6.71977e-06
5.26161e-05 1.91996e-05 -1.94334e-06
-6.71977e-06 -1.94334e-06 -6.15315e-05
0.00119593 2.85194e-05 -6.76841e-06
2.85194e-05 5.44324e-06 -1.05222e-06
-6.76841e-06 -1.05222e-06 -7.65943e-05
0.00142534 4.56573e-05 -2.98741e-06
4.56573e-05 6.60265e-05 -3.13038e-07
-2.98741e-06 -3.13038e-07 -2.79533e-05
0.00151807 1.32578e-05 -2.98376e-06
1.32578e-05 7.43759e-05 -6.82364e-07
-2.98376e-06 -6.82364e-07 -2.28923e-05
0.00127476 1.21688e-05 -7.08222e-06
1.21688e-05 3.20845e-06 -1.10649e-06
-7.08222e-06 -1.10649e-06 -8.46105e-05
0.000777414 3.44973e-06 -1.20705e-05
3.44973e-06 -0.000100168 1.13785e-07
-1.20705e-05 1.13785e-07 -0.000156166
0.00129869 3.04212e-06 1.63e-08
3.04212e-06 4.53505e-06 -4.1741e-07
1.63e-08 -4.1741e-07 -8.47202e-05
0.00154685 1.41349e-05 2.36682e-08
1.41349e-05 6.44738e-05 -1.69723e-07
2.36682e-08 -1.69723e-07 -3.70842e-05
0.00146033 2.59955e-05 9.04012e-08
2.59955e-05 6.44457e-05 8.34005e-08
9.04012e-08 8.34005e-08 -2.99091e-05
0.00159436 8.40086e-06 -3.68622e-08
8.40086e-06 7.49244e-05 1.35277e-07
-3.68622e-08 1.35277e-07 -2.43845e-05
0.00136411 6.08975e-05 -5.99846e-08
6.08975e-05 5.97712e-05 -3.01403e-08
-5.99846e-08 -3.01403e-08 -3.45401e-05
0.00153929 4.88631e-05 -1.35959e-08
4.88631e-05 8.03685e-05 3.40932e-08
-1.35959e-08 3.40932e-08 -1.52981e-05
0.0015638 8.19627e-06 3.41731e-06
8.19627e-06 6.13128e-05 -8.49966e-07
3.41731e-06 -8.49966e-07 -4.18361e-05
0.00159349 1.0375e-05 6.30428e-07
1.0375e-05 5.49132e-05 1.26679e-06
6.30428e-07 1.26679e-06 -4.93649e-05
0.00155728 2.86154e-05 9.30031e-07
2.86154e-05 6.9498e-05 4.17228e-08
9.30031e-07 4.17228e-08 -2.67244e-05
0.00177433 2.7199e-06 3.53262e-08
2.7199e-06 0.000147828 6.95951e-08
3.53262e-08 6.95951e-08 5.00972e-05
0.00146405 6.06511e-05 5.79751e-07
6.06511e-05 6.89922e-05 -6.56329e-07
5.79751e-07 -6.56329e-07 -2.81837e-05
0.00160028 3.91196e-05 -1.82234e-06
3.91196e-05 8.21584e-05 -7.63543e-08
-1.82234e-06 -7.63543e-08 -6.47865e-06
0.000935973 5.26316e-06 -6.92e-06
5.26316e-06 -0.000173189 1.08949e-06
-6.92e-06 1.08949e-06 -0.000262637
0.00162135 -2.38751e-05 -1.06119e-05
-2.38751e-05 0.000220007 1.44092e-06
-1.06119e-05 1.44092e-06 0.000142317
0.00167062 5.13046e-06 -4.79592e-06
5.13046e-06 0.000148985 1.25782e-06
-4.79592e-06 1.25782e-06 5.34178e-05
0.00182493 -5.3645e-05 -3.17387e-06
-5.3645e-05 0.000258982 1.42816e-07
-3.17387e-06 1.42816e-07 0.000166564
0.000713561 4.51466e-05 -3.52799e-06
4.51466e-05 -3.0262e-05 3.87338e-06
-3.52799e-06 3.87338e-06 -5.7808e-05
0.000896992 -2.26175e-05 -2.66624e-06
-2.26175e-05 5.14431e-05 1.1474e-06
-2.66624e-06 1.1474e-06 -1.39303e-05
0.000906687 -7.24005e-05 -6.49568e-07
-7.24005e-05 2.91492e-05 1.60847e-08
-6.49568e-07 1.60847e-08 -5.36947e-05
0.00172658 -8.40232e-05 -3.5597e-06
-8.40232e-05 0.000287633 1.41437e-06
-3.5597e-06 1.41437e-06 0.000196668
0.00139504 -6.45188e-05 -1.1185e-06
-6.45188e-05 1.63392e-05 8.03461e-07
-1.1185e-06 8.03461e-07 -8.06916e-05
0.00130507 -8.40134e-05 -3.77966e-07
-8.40134e-05 7.55996e-05 7.39526e-07
-3.77966e-07 7.39526e-07 -1.87008e-05
0.00107277 -8.83017e-05 -1.20764e-06
-8.83017e-05 5.07995e-05 5.69498e-07
-1.20764e-06 5.69498e-07 -4.84026e-05
0.00111969 -8.65285e-05 1.31763e-06
-8.65285e-05 3.95244e-06 -7.01433e-07
1.31763e-06 -7.01433e-07 -9.20246e-05
0.000817849 -7.76045e-08 -2.75176e-06
-7.76045e-08 -2.44111e-06 1.61125e-06
-2.75176e-06 1.61125e-06 -6.00909e-05
0.000863096 -1.16978e-05 -1.3055e-06
-1.16978e-05 1.29859e-05 2.47656e-07
-1.3055e-06 2.47656e-07 -5.89433e-05
0.000811543 2.60164e-05 -1.22709e-06
2.60164e-05 -1.06298e-05 2.05556e-06
-1.22709e-06 2.05556e-06 -5.42677e-05
0.00173315 8.89023e-06 -1.6055e-06
8.89023e-06 0.000161382 3.62134e-07
-1.6055e-06 3.62134e-07 6.15208e-05
0.00164069 -2.73282e-05 -7.20823e-07
-2.73282e-05 0.000148337 9.41826e-08
-7.20823e-07 9.41826e-08 5.60996e-05
0.00167161 3.65743e-06 -6.46821e-07
3.65743e-06 0.000110416 4.82632e-07
-6.46821e-07 4.82632e-07 9.56362e-06
0.00168337 -4.27484e-05 1.20411e-07
-4.27484e-05 0.000133849 -3.80168e-07
1.20411e-07 -3.80168e-07 3.75005e-05
0.000845903 -1.37664e-05 1.58118e-07
-1.37664e-05 2.03662e-05 -1.80993e-07
1.58118e-07 -1.80993e-07 -4.25619e-05
0.00101624 -7.20172e-05 -8.56475e-08
-7.20172e-05 9.22051e-05 2.11616e-07
-8.56475e-08 2.11616e-07 1.32226e-05
0.000868171 -8.08016e-05 4.93209e-07
-8.08016e-05 -1.53266e-06 -6.79174e-07
4.93209e-07 -6.79174e-07 -9.66448e-05
0.00139226 -8.16476e-05 9.15682e-08
-8.16476e-05 7.56501e-05 -5.1877e-07
9.15682e-08 -5.1877e-07 -2.0017e-05
0.00159941 -6.58623e-05 3.89235e-07
-6.58623e-05 9.1454e-05 1.15157e-06
3.89235e-07 1.15157e-06 4.18216e-07
0.00122409 -9.8837e-05 2.94186e-08
-9.8837e-05 0.000108007 1.31802e-07
2.94186e-08 1.31802e-07 2.38486e-06
0.00132875 -8.72341e-05 -3.89216e-08
-8.72341e-05 6.33279e-05 4.02088e-07
-3.89216e-08 4.02088e-07 -3.07441e-05
0.00154186 -0.000101551 6.12946e-07
-0.000101551 0.00020147 4.81031e-07
6.12946e-07 4.81031e-07 0.000108571
0.000973655 -4.14523e-05 -1.09274e-07
-4.14523e-05 7.02359e-05 -1.83529e-07
-1.09274e-07 -1.83529e-07 -4.55007e-06
0.00100359 -7.26191e-05 -3.11903e-07
-7.26191e-05 9.42674e-05 3.43517e-07
-3.11903e-07 3.43517e-07 9.8493e-06
0.000834864 2.75908e-05 4.65883e-09
2.75908e-05 -2.97682e-06 8.52476e-08
4.65883e-09 8.52476e-08 -4.09432e-05
0.000821572 4.4877e-06 -2.91345e-09
4.4877e-06 -1.03225e-05 -5.33389e-07
-2.91345e-09 -5.33389e-07 -7.63004e-05
0.00167504 7.67338e-06 1.21788e-06
7.67338e-06 9.49088e-05 -9.23772e-07
1.21788e-06 -9.23772e-07 -1.02615e-05
0.00172913 -1.96353e-05 1.01944e-06
-1.96353e-05 0.000147826 3.53933e-07
1.01944e-06 3.53933e-07 5.07759e-05
0.00170792 5.81735e-06 1.04973e-07
5.81735e-06 0.00010832 9.78586e-08
1.04973e-07 9.78586e-08 6.7006e-06
0.00162249 -3.61977e-05 -1.2043e-06
-3.61977e-05 7.35006e-05 -1.00737e-06
-1.2043e-06 -1.00737e-06 -2.05411e-05
0.00133904 -8.09667e-05 -1.59592e-06
-8.09667e-05 1.44296e-05 1.22107e-08
-1.59592e-06 1.22107e-08 -7.81272e-05
0.00176589 -6.52231e-05 3.65622e-07
-6.52231e-05 0.000147109 1.67178e-07
3.65622e-07 1.67178e-07 6.178e-05
0.000951283 -6.5721e-05 1.25797e-06
-6.5721e-05 6.08867e-05 5.36506e-07
1.25797e-06 5.36506e-07 -1.54194e-05
0.00133928 -8.84582e-05 -2.73822e-06
-8.84582e-05 5.28217e-05 9.46764e-07
-2.73822e-06 9.46764e-07 -3.39355e-05
0.000759489 -7.34881e-05 2.23306e-08
-7.34881e-05 -3.76261e-05 -3.04528e-07
2.23306e-08 -3.04528e-07 -0.000126473
0.00109071 -9.45405e-05 1.37654e-06
-9.45405e-05 9.59592e-05 -1.13092e-06
1.37654e-06 -1.13092e-06 -1.05821e-05
0.00129743 -0.000106068 1.03426e-06
-0.000106068 0.000126333 2.20156e-06
1.03426e-06 2.20156e-06 1.58978e-05
0.00184607 -0.000111147 -7.56996e-07
-0.000111147 0.000343135 1.74058e-06
-7.56996e-07 1.74058e-06 0.000249531
0.000848213 1.93626e-05 1.46402e-06
1.93626e-05 6.18166e-07 -1.59064e-06
1.46402e-06 -1.59064e-06 -3.39395e-05
0.000766441 1.40011e-07 6.55968e-07
1.40011e-07 -3.94623e-05 -1.43963e-06
6.55968e-07 -1.43963e-06 -0.000100628
0.000993219 -7.87529e-05 4.11495e-07
-7.87529e-05 8.40413e-05 1.22604e-06
4.11495e-07 1.22604e-06 1.11742e-07
0.000995623 -5.848e-05 9.37962e-07
-5.848e-05 9.05951e-05 8.2165e-08
9.37962e-07 8.2165e-08 1.03246e-05
0.00102471 -8.06249e-05 -1.87312e-07
-8.06249e-05 0.000105816 1.96186e-06
-1.87312e-07 1.96186e-06 1.82123e-05
0.000751717 -2.94623e-05 -2.76422e-06
-2.94623e-05 -3.89548e-05 -3.53734e-06
-2.76422e-06 -3.53734e-06 -4.80857e-05
0.00130063 7.32981e-05 -2.42607e-06
7.32981e-05 6.22776e-05 -2.02192e-07
-2.42607e-06 -2.02192e-07 -3.23474e-05
0.000838971 -2.97394e-05 -1.21099e-06
-2.97394e-05 6.62363e-06 -2.26874e-06
-1.21099e-06 -2.26874e-06 -3.55618e-05
0.000875258 -2.34247e-06 -2.11487e-06
-2.34247e-06 3.35818e-05 -2.23606e-06
-2.11487e-06 -2.23606e-06 -2.33275e-05
0.00094289 9.85785e-06 -7.17487e-07
9.85785e-06 6.00686e-05 -1.20446e-06
-7.17487e-07 -1.20446e-06 -9.82659e-06
0.00106979 8.30855e-05 -2.26478e-06
8.30855e-05 4.54225e-05 -9.17884e-07
-2.26478e-06 -9.17884e-07 -4.2763e-05
0.00128832 8.95626e-05 -1.27178e-06
8.95626e-05 6.90123e-05 -2.54369e-07
-1.27178e-06 -2.54369e-07 -3.11808e-05
0.000953139 6.40268e-05 -1.66619e-06
6.40268e-05 7.03253e-05 -5.12249e-07
-1.66619e-06 -5.12249e-07 -1.01211e-05
0.00109455 8.87346e-05 -1.95787e-06
8.87346e-05 0.000135368 -8.9059e-07
-1.95787e-06 -8.9059e-07 3.63486e-05
0.0014238 0.000100169 -1.6404e-06
0.000100169 0.000241106 -7.718e-07
-1.6404e-06 -7.718e-07 0.000151289
0.00101902 8.72555e-05 -3.38762e-06
8.72555e-05 5.94972e-05 1.80143e-06
-3.38762e-06 1.80143e-06 -3.32705e-05
0.000782543 -2.66155e-05 1.11742e-07
-2.66155e-05 -2.97225e-05 2.69151e-08
1.11742e-07 2.69151e-08 -3.62745e-05
0.000834795 -2.60338e-05 -2.53362e-08
-2.60338e-05 -1.50819e-07 7.13849e-08
-2.53362e-08 7.13849e-08 -3.68216e-05
0.000971867 3.44615e-05 2.16025e-07
3.44615e-05 7.43256e-05 -8.52231e-08
2.16025e-07 -8.52231e-08 -5.04786e-07
0.000912912 -2.81789e-06 1.44215e-07
-2.81789e-06 4.17648e-05 2.53072e-08
1.44215e-07 2.53072e-08 -2.11611e-05
0.000941053 5.09281e-05 2.96561e-07
5.09281e-05 6.50976e-05 -2.70778e-07
2.96561e-07 -2.70778e-07 -1.7668e-05
0.00138874 7.62366e-05 8.5156e-07
7.62366e-05 6.67717e-05 5.77519e-07
8.5156e-07 5.77519e-07 -3.32504e-05
0.00118455 9.26614e-05 1.06486e-07
9.26614e-05 7.59409e-05 6.46341e-08
1.06486e-07 6.46341e-08 -1.95307e-05
0.00134321 9.5534e-05 8.88879e-07
9.5534e-05 7.73916e-05 5.16008e-07
8.88879e-07 5.16008e-07 -2.5534e-05
0.00103664 8.21149e-05 6.66533e-07
8.21149e-05 0.000119934 7.38972e-07
6.66533e-07 7.38972e-07 2.44822e-05
0.00127271 9.81722e-05 3.09472e-07
9.81722e-05 0.000149234 -6.36403e-07
3.09472e-07 -6.36403e-07 5.56155e-05
0.000900962 8.43346e-05 -1.19686e-06
8.43346e-05 2.01473e-05 -6.60009e-07
-1.19686e-06 -6.60009e-07 -8.75207e-05
0.000843212 -2.17277e-05 1.10928e-06
-2.17277e-05 5.6654e-07 2.03136e-06
1.10928e-06 2.03136e-06 -3.25286e-05
0.000896816 -1.16439e-05 4.70471e-07
-1.16439e-05 2.89278e-05 1.35792e-06
4.70471e-07 1.35792e-06 -2.65606e-05
0.00105044 7.82835e-05 8.39749e-07
7.82835e-05 0.000120472 -5.97457e-08
8.39749e-07 -5.97457e-08 3.16958e-05
0.000969489 2.54569e-05 6.9752e-07
2.54569e-05 7.7714e-05 6.51574e-07
6.9752e-07 6.51574e-07 1.74263e-06
0.00104014 5.36737e-05 5.52893e-07
5.36737e-05 0.000122158 -6.77028e-07
5.52893e-07 -6.77028e-07 3.22567e-05
0.0014259 7.56324e-05 -1.64923e-06
7.56324e-05 5.91183e-05 -1.20076e-06
-1.64923e-06 -1.20076e-06 -4.02035e-05
0.00122154 9.96497e-05 1.18849e-06
9.96497e-05 7.51506e-05 6.63257e-07
1.18849e-06 6.63257e-07 -2.32193e-05
0.00113506 9.8268e-05 -1.91355e-06
9.8268e-05 -3.00442e-05 -1.18643e-06
-1.91355e-06 -1.18643e-06 -0.000125595
0.000984205 8.44733e-05 1.10721e-06
8.44733e-05 9.87568e-05 2.20453e-06
1.10721e-06 2.20453e-06 -9.78832e-06
0.0012098 0.000102648 3.49026e-06
0.000102648 0.000132649 -7.7109e-07
3.49026e-06 -7.7109e-07 2.20072e-05
0.000854558 -1.59599e-05 7.87095e-08
-1.59599e-05 3.18397e-06 6.62881e-09
7.87095e-08 6.62881e-09 -2.72085e-05
0.000738592 -1.51635e-05 4.16277e-07
-1.51635e-05 -5.4434e-05 1.633e-06
4.16277e-07 1.633e-06 -0.000102746
0.000829396 -5.66457e-06 -5.78299e-07
-5.66457e-06 -6.40537e-06 1.03605e-08
-5.78299e-07 1.03605e-08 -5.26891e-05
0.00111003 1.27283e-05 7.75265e-07
1.27283e-05 0.000146648 2.45249e-07
7.75265e-07 2.45249e-07 8.94045e-05
0.000887716 6.27879e-06 1.31601e-06
6.27879e-06 2.44873e-05 9.62801e-07
1.31601e-06 9.62801e-07 -2.11329e-05
0.000884604 -2.99082e-06 6.59651e-07
-2.99082e-06 9.9057e-06 1.74118e-06
6.59651e-07 1.74118e-06 -1.54909e-05
0.000873984 -9.60886e-06 7.69389e-08
-9.60886e-06 7.32525e-06 1.99836e-08
7.69389e-08 1.99836e-08 -1.9235e-05
0.00134472 -2.07736e-05 1.5665e-06
-2.07736e-05 0.000250291 1.99699e-06
1.5665e-06 1.99699e-06 0.000252817
0.000866193 -1.05763e-05 -9.82746e-07
-1.05763e-05 7.00045e-06 -1.84793e-06
-9.82746e-07 -1.84793e-06 -2.14403e-05
0.00137008 -2.38985e-05 -3.41525e-06
-2.38985e-05 0.000268485 -1.19338e-06
-3.41525e-06 -1.19338e-06 0.000269311
0.001052 -2.04042e-05 1.65233e-05
-2.04042e-05 0.000102073 6.28498e-06
1.65233e-05 6.28498e-06 0.000117171
0.00135975 -2.64606e-05 -8.5859e-06
-2.64606e-05 0.00026885 -3.23628e-06
-8.5859e-06 -3.23628e-06 0.000267771
0.00159369 -2.92786e-05 1.47517e-05
-2.92786e-05 0.000394777 2.14454e-06
1.47517e-05 2.14454e-06 0.000410949
0.00221507 -3.96996e-05 -2.17741e-05
-3.96996e-05 0.000727648 -3.6909e-06
-2.17741e-05 -3.6909e-06 0.000745298
0.000762934 2.69492e-05 2.25626e-06
2.69492e-05 -4.12746e-05 -3.27819e-06
2.25626e-06 -3.27819e-06 -4.86511e-05
0.000772566 3.02224e-05 -1.38147e-07
3.02224e-05 -3.08189e-05 2.93922e-08
-1.38147e-07 2.93922e-08 -4.07068e-05
0.00232894 4.60649e-05 2.43043e-05
4.60649e-05 0.000792355 -3.58443e-06
2.43043e-05 -3.58443e-06 0.000807914
0.00242705 5.1155e-05 -6.37507e-07
5.1155e-05 0.000851268 -7.67685e-08
-6.37507e-07 -7.67685e-08 0.000864569
0.000776662 3.60299e-05 -2.7991e-06
3.60299e-05 -2.1464e-05 3.7158e-06
-2.7991e-06 3.7158e-06 -3.51421e-05
0.0025823 5.64317e-05 -3.3759e-05
5.64317e-05 0.000938659 3.56053e-06
-3.3759e-05 3.56053e-06 0.000949459
0.00137921 6.1608e-05 -3.11865e-06
6.1608e-05 6.71698e-05 -2.88674e-07
-3.11865e-06 -2.88674e-07 -2.72535e-05
0.00146648 2.64991e-05 -2.97957e-06
2.64991e-05 6.78253e-05 -2.57687e-07
-2.97957e-06 -2.57687e-07 -2.65857e-05
0.0015537 4.97309e-05 -6.07731e-07
4.97309e-05 8.79119e-05 4.50815e-07
-6.07731e-07 4.50815e-07 -7.80726e-06
0.00157498 7.58247e-06 -7.4466e-07
7.58247e-06 6.27282e-05 -3.48175e-07
-7.4466e-07 -3.48175e-07 -3.70492e-05
0.00155961 1.75171e-05 -2.98615e-06
1.75171e-05 7.11522e-05 -9.91054e-07
-2.98615e-06 -9.91054e-07 -3.04067e-05
0.00130558 7.84499e-06 -7.10756e-06
7.84499e-06 7.70964e-06 -1.11493e-07
-7.10756e-06 -1.11493e-07 -8.15386e-05
0.00157562 1.26005e-05 7.00839e-08
1.26005e-05 6.72764e-05 -5.98055e-07
7.00839e-08 -5.98055e-07 -3.5945e-05
0.00158699 2.32586e-06 1.99769e-07
2.32586e-06 4.94192e-05 4.54794e-07
1.99769e-07 4.54794e-07 -5.58033e-05
0.00158013 2.79137e-05 2.76023e-08
2.79137e-05 8.13043e-05 7.84761e-08
2.76023e-08 7.84761e-08 -1.4802e-05
0.00172658 2.05907e-06 -4.66592e-08
2.05907e-06 0.000121927 -2.91857e-07
-4.66592e-08 -2.91857e-07 2.45009e-05
0.00147422 6.19056e-05 -9.78767e-08
6.19056e-05 7.39057e-05 3.29312e-08
-9.78767e-08 3.29312e-08 -2.35344e-05
0.00159527 3.90474e-05 -8.43488e-08
3.90474e-05 7.69769e-05 5.89358e-07
-8.43488e-08 5.89358e-07 -1.16565e-05
0.001629 2.5063e-06 1.64154e-06
2.5063e-06 5.76418e-05 -4.97784e-07
1.64154e-06 -4.97784e-07 -5.04253e-05
0.00174311 1.02508e-05 -4.08397e-07
1.02508e-05 0.000112507 5.37613e-07
-4.08397e-07 5.37613e-07 7.40918e-06
0.00157062 1.92721e-05 -5.81449e-07
1.92721e-05 4.72238e-05 7.95987e-07
-5.81449e-07 7.95987e-07 -4.5408e-05
0.00177329 -2.83674e-06 -3.4301e-07
-2.83674e-06 0.000136352 -2.86729e-07
-3.4301e-07 -2.86729e-07 4.00005e-05
0.00143758 5.52706e-05 -1.37557e-06
5.52706e-05 2.24407e-05 -1.44869e-06
-1.37557e-06 -1.44869e-06 -7.00138e-05
0.00186351 3.20972e-05 -5.92566e-07
3.20972e-05 0.000189888 -5.86011e-07
-5.92566e-07 -5.86011e-07 0.000104596
0.00157091 8.68377e-06 -4.58298e-06
8.68377e-06 7.46968e-05 1.45163e-06
-4.58298e-06 1.45163e-06 -2.66129e-05
0.00163081 -2.91491e-05 -4.28092e-06
-2.91491e-05 0.000142246 4.38377e-07
-4.28092e-06 4.38377e-07 5.01341e-05
0.00155645 4.12973e-06 -1.74811e-06
4.12973e-06 4.96466e-05 7.65192e-07
-1.74811e-06 7.65192e-07 -5.16109e-05
0.00176946 -4.18949e-05 -1.34441e-06
-4.18949e-05 0.000178844 -2.9558e-07
-1.34441e-06 -2.9558e-07 8.27791e-05
0.000860556 -1.61732e-05 -2.7302e-06
-1.61732e-05 2.56411e-05 1.20512e-06
-2.7302e-06 1.20512e-06 -3.68809e-05
0.00108109 -7.49351e-05 -1.37903e-06
-7.49351e-05 0.000123921 1.40073e-07
-1.37903e-06 1.40073e-07 4.46736e-05
0.000941386 -8.26861e-05 -2.12043e-07
-8.26861e-05 3.88235e-05 3.35406e-08
-2.12043e-07 3.35406e-08 -5.52382e-05
0.00162221 -8.63897e-05 -7.55042e-07
-8.63897e-05 0.000195196 2.6278e-07
-7.55042e-07 2.6278e-07 9.96697e-05
0.00150208 -6.39479e-05 1.06886e-06
-6.39479e-05 3.91963e-05 5.01285e-07
1.06886e-06 5.01285e-07 -5.04797e-05
0.00133978 -8.65459e-05 1.52993e-06
-8.65459e-05 6.84966e-05 6.81251e-07
1.52993e-06 6.81251e-07 -2.53538e-05
0.000990922 -9.07395e-05 -7.46571e-07
-9.07395e-05 -8.06852e-06 -1.15779e-07
-7.46571e-07 -1.15779e-07 -0.000114612
0.00134317 -9.5075e-05 2.56476e-06
-9.5075e-05 0.000100097 -2.56937e-06
2.56476e-06 -2.56937e-06 8.04061e-06
0.000993361 -3.5859e-05 -1.3806e-06
-3.5859e-05 7.99009e-05 -3.16028e-07
-1.3806e-06 -3.16028e-07 5.55866e-06
0.000980135 -6.60257e-05 -9.17539e-07
-6.60257e-05 7.97629e-05 -6.13817e-07
-9.17539e-07 -6.13817e-07 -4.50787e-06
0.000823616 2.76835e-05 -1.07604e-06
2.76835e-05 -8.19764e-06 1.83891e-06
-1.07604e-06 1.83891e-06 -4.63525e-05
0.000844445 1.1652e-05 -3.13039e-07
1.1652e-05 2.28858e-07 3.92231e-07
-3.13039e-07 3.92231e-07 -6.44277e-05
0.00168054 8.24304e-06 -1.42088e-07
8.24304e-06 9.74817e-05 1.05685e-07
-1.42088e-07 1.05685e-07 -7.72679e-06
0.00175947 -1.71822e-05 -4.91521e-07
-1.71822e-05 0.000163069 8.59514e-08
-4.91521e-07 8.59514e-08 6.63692e-05
0.00167775 5.46052e-06 -8.37032e-07
5.46052e-06 9.43409e-05 6.30713e-07
-8.37032e-07 6.30713e-07 -6.49234e-06
0.00163722 -3.68467e-05 -1.35292e-07
-3.68467e-05 8.06183e-05 -4.33205e-07
-1.35292e-07 -4.33205e-07 -1.33647e-05
0.00100013 -5.65712e-05 -1.14084e-07
-5.65712e-05 8.38881e-05 3.09982e-08
-1.14084e-07 3.09982e-08 8.16175e-06
0.000823232 -7.51722e-05 4.37309e-07
-7.51722e-05 -4.69025e-06 -3.17132e-07
4.37309e-07 -3.17132e-07 -9.24459e-05
0.0010908 -9.41348e-05 8.73369e-08
-9.41348e-05 9.74503e-05 -2.0195e-07
8.73369e-08 -2.0195e-07 -9.32386e-06
0.00146892 -8.32065e-05 -7.9026e-07
-8.32065e-05 8.23317e-05 -4.28178e-07
-7.9026e-07 -4.28178e-07 -1.1135e-05
0.00161204 -6.39445e-05 5.16646e-08
-6.39445e-05 7.62723e-05 9.3076e-07
5.16646e-08 9.3076e-07 -5.70279e-06
0.00128946 -0.000104892 -1.93514e-07
-0.000104892 0.000123352 6.095e-07
-1.93514e-07 6.095e-07 1.2177e-05
0.00135426 -8.78506e-05 -5.80272e-09
-8.78506e-05 6.15041e-05 7.21191e-07
-5.80272e-09 7.21191e-07 -2.50962e-05
0.00153354 -0.000101592 9.79901e-07
-0.000101592 0.000182546 -1.49766e-06
9.79901e-07 -1.49766e-06 9.16152e-05
0.00103368 -8.03524e-05 6.64799e-08
-8.03524e-05 0.000103985 -3.55355e-08
6.64799e-08 -3.55355e-08 2.0084e-05
0.00102876 -8.05925e-05 5.55782e-08
-8.05925e-05 0.000106925 1.964e-07
5.55782e-08 1.964e-07 1.93122e-05
0.000990175 -4.56108e-05 -3.19309e-07
-4.56108e-05 8.64871e-05 1.84931e-08
-3.19309e-07 1.84931e-08 7.11528e-06
0.000723877 2.45984e-05 -2.3512e-07
2.45984e-05 -6.39744e-05 1.26872e-08
-2.3512e-07 1.26872e-08 -9.96346e-05
0.000800741 1.38658e-05 9.10661e-08
1.38658e-05 -2.4317e-05 -3.81962e-07
9.10661e-08 -3.81962e-07 -8.35079e-05
0.00170132 1.25815e-05 2.49862e-07
1.25815e-05 8.51139e-05 -7.81565e-07
2.49862e-07 -7.81565e-07 -2.15896e-05
0.00167452 -1.11994e-06 9.54811e-07
-1.11994e-06 8.25743e-05 -1.96887e-08
9.54811e-07 -1.96887e-08 -1.67846e-05
0.00165884 -4.15988e-05 5.75135e-07
-4.15988e-05 6.48587e-05 -1.88308e-06
5.75135e-07 -1.88308e-06 -2.53818e-05
0.00137335 -7.38876e-05 -1.48446e-07
-7.38876e-05 -6.2891e-06 -1.0515e-06
-1.48446e-07 -1.0515e-06 -8.93096e-05
0.000971286 -7.91464e-05 8.52343e-09
-7.91464e-05 7.29297e-05 1.24274e-06
8.52343e-09 1.24274e-06 -1.09637e-05
0.00182334 -0.000101672 -1.3604e-06
-0.000101672 0.000271021 1.60234e-06
-1.3604e-06 1.60234e-06 0.000190678
0.000489456 -6.46727e-05 -2.07661e-07
-6.46727e-05 -0.000172259 -1.40762e-06
-2.07661e-07 -1.40762e-06 -0.000267654
0.00117169 -0.000103454 2.63525e-06
-0.000103454 0.000118772 -1.07218e-06
2.63525e-06 -1.07218e-06 -1.54125e-06
0.00155166 -0.000116535 1.41006e-06
-0.000116535 0.000227652 2.42834e-06
1.41006e-06 2.42834e-06 0.000112257
0.00063702 1.80827e-05 1.14614e-06
1.80827e-05 -0.000112068 -2.17753e-06
1.14614e-06 -2.17753e-06 -0.000146202
0.000996567 -2.075e-07 1.229e-06
-2.075e-07 7.99248e-05 -7.58821e-07
1.229e-06 -7.58821e-07 2.52584e-05
0.0010117 -2.76898e-05 2.69588e-07
-2.76898e-05 9.27344e-05 -2.67174e-07
2.69588e-07 -2.67174e-07 2.23204e-05
0.00100889 -8.0163e-05 -3.03751e-07
-8.0163e-05 9.10549e-05 1.98281e-06
-3.03751e-07 1.98281e-06 5.87965e-06
0.00109649 -6.43545e-05 5.31688e-07
-6.43545e-05 0.000145151 1.45634e-06
5.31688e-07 1.45634e-06 5.71606e-05
0.000941877 -7.73986e-05 -9.01663e-08
-7.73986e-05 5.65624e-05 1.80303e-06
-9.01663e-08 1.80303e-06 -3.18923e-05
0.00076204 -2.60943e-05 -2.29232e-06
-2.60943e-05 -4.01796e-05 -3.49587e-06
-2.29232e-06 -3.49587e-06 -4.66256e-05
0.000843784 -2.61358e-05 -1.35936e-06
-2.61358e-05 4.47895e-06 -2.00439e-06
-1.35936e-06 -2.00439e-06 -3.21278e-05
0.00139569 7.69054e-05 -6.26329e-07
7.69054e-05 7.01663e-05 8.41012e-07
-6.26329e-07 8.41012e-07 -3.00587e-05
0.000925981 -9.47951e-06 -4.54668e-07
-9.47951e-06 4.8007e-05 -1.44158e-06
-4.54668e-07 -1.44158e-06 -1.44329e-05
0.000924153 2.92274e-05 -1.29391e-06
2.92274e-05 4.91111e-05 -5.38177e-07
-1.29391e-06 -5.38177e-07 -2.50415e-05
0.000901579 4.63259e-05 -4.62272e-07
4.63259e-05 4.394e-05 -3.19386e-07
-4.62272e-07 -3.19386e-07 -3.86891e-05
0.00118593 9.32299e-05 -1.11287e-06
9.32299e-05 7.70464e-05 -9.37702e-07
-1.11287e-06 -9.37702e-07 -1.84618e-05
0.00130029 9.53629e-05 3.8215e-07
9.53629e-05 5.58269e-05 2.57695e-07
3.8215e-07 2.57695e-07 -4.75196e-05
0.00097428 7.98941e-05 -6.9091e-07
7.98941e-05 8.91329e-05 -2.88129e-07
-6.9091e-07 -2.88129e-07 -6.10312e-06
0.00119355 9.62125e-05 -2.07077e-06
9.62125e-05 0.000167723 5.25061e-07
-2.07077e-06 5.25061e-07 6.03723e-05
0.00137285 0.000101305 -2.52864e-06
0.000101305 0.000201359 -5.51643e-07
-2.52864e-06 -5.51643e-07 0.000107836
0.000845904 -2.10811e-05 5.6887e-08
-2.10811e-05 2.11988e-06 2.89943e-08
5.6887e-08 2.89943e-08 -3.09391e-05
0.00090012 -1.31492e-05 -3.26007e-08
-1.31492e-05 3.06261e-05 1.13881e-07
-3.26007e-08 1.13881e-07 -2.48308e-05
0.00102505 7.74007e-05 -3.31504e-07
7.74007e-05 0.000108987 -2.3295e-07
-3.31504e-07 -2.3295e-07 2.0607e-05
0.000959128 2.34707e-05 1.23326e-07
2.34707e-05 7.13153e-05 -2.7501e-08
1.23326e-07 -2.7501e-08 -4.17297e-06
0.00096304 5.72422e-05 -8.34154e-09
5.72422e-05 8.37261e-05 -4.3105e-07
-8.34154e-09 -4.3105e-07 -7.5676e-06
0.0014334 7.77825e-05 -6.80765e-07
7.77825e-05 6.45697e-05 -4.64522e-08
-6.80765e-07 -4.64522e-08 -3.52871e-05
0.00124062 0.000100108 8.38621e-07
0.000100108 8.36103e-05 -1.19534e-08
8.38621e-07 -1.19534e-08 -1.49544e-05
0.00122128 9.96032e-05 3.59152e-07
9.96032e-05 8.58842e-06 5.44828e-07
3.59152e-07 5.44828e-07 -8.54803e-05
0.000833421 7.84926e-05 4.95228e-07
7.84926e-05 2.18132e-05 1.19167e-06
4.95228e-07 1.19167e-06 -8.69928e-05
0.00122 0.000103005 -2.6094e-07
0.000103005 0.00013912 -5.45407e-07
-2.6094e-07 -5.45407e-07 2.63354e-05
0.000889414 -1.16567e-05 5.57632e-07
-1.16567e-05 2.46985e-05 1.25031e-06
5.57632e-07 1.25031e-06 -2.57169e-05
0.000853973 7.38351e-06 4.00897e-07
7.38351e-06 1.11169e-05 1.37772e-06
4.00897e-07 1.37772e-06 -5.83915e-05
0.0011211 8.75686e-05 4.163e-07
8.75686e-05 0.000168207 -3.28351e-07
4.163e-07 -3.28351e-07 6.84506e-05
0.000888884 4.02084e-05 4.1929e-07
4.02084e-05 4.19722e-05 3.19554e-07
4.1929e-07 3.19554e-07 -4.60189e-05
0.00101041 6.51341e-05 3.05343e-07
6.51341e-05 0.000104521 -8.23455e-07
3.05343e-07 -8.23455e-07 7.53159e-06
0.00156458 7.74779e-05 -2.54219e-06
7.74779e-05 8.97136e-05 -5.27218e-07
-2.54219e-06 -5.27218e-07 1.05605e-05
0.00155834 0.000120162 1.26054e-06
0.000120162 0.000240215 -1.26746e-06
1.26054e-06 -1.26746e-06 0.000132401
0.000501467 8.34078e-05 7.24162e-07
8.34078e-05 -0.000382228 -2.04515e-06
7.24162e-07 -2.04515e-06 -0.000470182
0.00153254 0.000109482 3.66601e-06
0.000109482 0.000365995 3.04298e-06
3.66601e-06 3.04298e-06 0.000248523
0.000151014 6.70736e-05 8.53742e-07
6.70736e-05 -0.000405998 -5.89759e-07
8.53742e-07 -5.89759e-07 -0.000530259
0.000854003 -1.38055e-05 -1.23983e-06
-1.38055e-05 3.14862e-06 -1.85423e-06
-1.23983e-06 -1.85423e-06 -2.7219e-05
0.000820775 -1.07344e-05 1.34923e-07
-1.07344e-05 -1.15633e-05 5.64257e-07
1.34923e-07 5.64257e-07 -5.94876e-05
0.000824953 -8.9381e-06 3.67814e-07
-8.9381e-06 -6.18049e-06 1.21573e-06
3.67814e-07 1.21573e-06 -6.63181e-05
0.00078158 -1.89536e-05 -5.97213e-07
-1.89536e-05 -3.22941e-05 -8.8715e-07
-5.97213e-07 -8.8715e-07 -7.88246e-05
0.000903547 1.69676e-06 2.25722e-07
1.69676e-06 3.16975e-05 -4.06206e-08
2.25722e-07 -4.06206e-08 -1.31832e-05
0.000960556 -1.16024e-05 1.44941e-07
-1.16024e-05 6.61629e-05 -4.2113e-07
1.44941e-07 -4.2113e-07 9.39688e-06
0.00106833 5.73265e-06 3.39931e-07
5.73265e-06 0.000126501 2.42291e-07
3.39931e-07 2.42291e-07 6.14919e-05
0.000832543 -2.73133e-05 4.84649e-08
-2.73133e-05 1.05426e-06 8.26059e-07
4.84649e-08 8.26059e-07 -5.60995e-05
0.000911832 -2.00273e-05 2.28852e-09
-2.00273e-05 3.33779e-05 8.83375e-07
2.28852e-09 8.83375e-07 -1.00757e-05
0.000879525 2.78674e-06 7.16594e-07
2.78674e-06 6.19438e-06 1.64503e-06
7.16594e-07 1.64503e-06 -1.903e-05
0.000878145 -7.4451e-06 -1.38337e-07
-7.4451e-06 6.70978e-06 2.62229e-08
-1.38337e-07 2.62229e-08 -1.87204e-05
0.00133815 -1.56134e-05 1.25184e-06
-1.56134e-05 0.000242542 1.9269e-06
1.25184e-06 1.9269e-06 0.00024629
0.00087381 -9.93421e-06 -5.62204e-07
-9.93421e-06 7.53745e-06 -1.80128e-06
-5.62204e-07 -1.80128e-06 -1.90907e-05
0.00135866 -1.95019e-05 -2.80487e-06
-1.95019e-05 0.000257388 -1.16104e-06
-2.80487e-06 -1.16104e-06 0.000260076
0.0010409 -1.69712e-05 1.32653e-05
-1.69712e-05 9.09721e-05 6.14971e-06
1.32653e-05 6.14971e-06 0.000107656
0.00138147 -2.28039e-05 -7.43358e-06
-2.28039e-05 0.000274016 -4.41518e-06
-7.43358e-06 -4.41518e-06 0.000275077
0.000996882 -2.16128e-05 5.43018e-06
-2.16128e-05 7.33558e-05 2.38502e-06
5.43018e-06 2.38502e-06 8.83111e-05
0.00212636 -3.83052e-05 -6.07324e-06
-3.83052e-05 0.000675815 -1.58839e-06
-6.07324e-06 -1.58839e-06 0.000694613
0.000773991 2.42094e-05 1.77748e-06
2.42094e-05 -4.08598e-05 -3.25725e-06
1.77748e-06 -3.25725e-06 -4.61137e-05
0.000780346 2.722e-05 -1.12553e-07
2.722e-05 -3.24318e-05 2.44926e-08
-1.12553e-07 2.44926e-08 -3.98856e-05
0.00227638 4.07781e-05 2.14585e-05
4.07781e-05 0.000758318 -3.66811e-06
2.14585e-05 -3.66811e-06 0.000775617
0.000790463 3.08355e-05 -2.90492e-06
3.08355e-05 -2.15848e-05 3.3955e-06
-2.90492e-06 3.3955e-06 -3.16282e-05
0.00233379 4.58014e-05 -8.35941e-07
4.58014e-05 0.00079575 -7.29102e-08
-8.35941e-07 -7.29102e-08 0.000811129
0.00244507 5.06797e-05 -3.01109e-05
5.06797e-05 0.000861261 3.61564e-06
-3.01109e-05 3.61564e-06 0.000874358
0.00148404 6.30798e-05 -1.3193e-06
6.30798e-05 7.86435e-05 5.95749e-07
-1.3193e-06 5.95749e-07 -1.90579e-05
0.00160694 2.62747e-05 -4.42993e-07
2.62747e-05 9.51163e-05 2.02573e-07
-4.42993e-07 2.02573e-07 -8.41345e-07
0.00159463 3.90124e-05 1.96865e-06
3.90124e-05 7.40842e-05 9.62076e-07
1.96865e-06 9.62076e-07 -1.4562e-05
0.00167878 1.30305e-06 -2.8597e-08
1.30305e-06 9.60015e-05 -6.72105e-07
-2.8597e-08 -6.72105e-07 -1.121e-06
0.00158938 -2.33979e-06 -6.14701e-07
-2.33979e-06 4.82657e-05 -6.10918e-07
-6.14701e-07 -6.10918e-07 -5.79094e-05
0.00158519 1.61531e-05 -3.11057e-06
1.61531e-05 7.2124e-05 -3.07469e-07
-3.11057e-06 -3.07469e-07 -3.11412e-05
0.00166602 6.248e-06 2.99778e-07
6.248e-06 7.56217e-05 -3.86509e-07
2.99778e-07 -3.86509e-07 -3.28496e-05
0.00174271 6.19689e-06 4.93261e-08
6.19689e-06 0.000114612 -4.75508e-07
4.93261e-08 -4.75508e-07 9.75553e-06
0.0015767 1.75551e-05 2.44667e-08
1.75551e-05 4.91966e-05 3.60432e-07
2.44667e-08 3.60432e-07 -4.38821e-05
0.00171693 -2.97333e-06 1.03712e-07
-2.97333e-06 0.000105507 -6.07789e-07
1.03712e-07 -6.07789e-07 9.8212e-06
0.00149913 5.69771e-05 -4.49361e-07
5.69771e-05 5.40537e-05 1.03298e-08
-4.49361e-07 1.03298e-08 -3.84549e-05
0.00169948 3.14834e-05 1.26218e-06
3.14834e-05 0.00010834 -5.50809e-07
1.26218e-06 -5.50809e-07 2.43731e-05
0.00175063 1.4048e-05 -8.14781e-08
1.4048e-05 9.85796e-05 5.2887e-08
-8.14781e-08 5.2887e-08 -1.19848e-05
0.00173756 -2.52682e-07 -7.43445e-07
-2.52682e-07 0.000104177 4.68104e-07
-7.43445e-07 4.68104e-07 3.13949e-06
0.00167548 1.05825e-05 -1.24933e-07
1.05825e-05 7.81249e-05 2.51291e-07
-1.24933e-07 2.51291e-07 -1.20475e-05
0.00180544 5.10408e-05 -1.43777e-06
5.10408e-05 0.00016919 -1.00269e-06
-1.43777e-06 -1.00269e-06 8.53974e-05
0.00168219 8.77741e-06 -1.25885e-06
8.77741e-06 9.81588e-05 1.1609e-06
-1.25885e-06 1.1609e-06 -7.09395e-06
0.00179569 -1.64814e-05 -2.38058e-06
-1.64814e-05 0.000181118 8.80062e-08
-2.38058e-06 8.80062e-08 8.47612e-05
0.00162374 5.00401e-06 -1.60457e-06
5.00401e-06 6.85488e-05 9.8613e-07
-1.60457e-06 9.8613e-07 -3.15286e-05
0.00166039 -3.69414e-05 -3.71745e-08
-3.69414e-05 9.20615e-05 -4.15118e-08
-3.71745e-08 -4.15118e-08 -1.86979e-06
0.00104669 -5.60499e-05 -1.33246e-06
-5.60499e-05 0.000106937 -4.51121e-07
-1.33246e-06 -4.51121e-07 3.1075e-05
0.000905905 -7.77843e-05 4.41246e-07
-7.77843e-05 3.76929e-05 -4.55811e-07
4.41246e-07 -4.55811e-07 -4.90309e-05
0.00109047 -9.36968e-05 -7.15788e-07
-9.36968e-05 9.88121e-05 1.21011e-06
-7.15788e-07 1.21011e-06 -8.20116e-06
0.00159705 -8.5372e-05 3.54783e-07
-8.5372e-05 0.000149288 -1.0471e-07
3.54783e-07 -1.0471e-07 5.49233e-05
0.00146687 -6.28863e-05 6.57715e-07
-6.28863e-05 9.78229e-06 1.83658e-06
6.57715e-07 1.83658e-06 -6.88708e-05
0.00135479 -8.6951e-05 2.57825e-06
-8.6951e-05 6.31074e-05 5.18365e-07
2.57825e-06 5.18365e-07 -2.33408e-05
0.00126191 -0.000103068 -1.04792e-06
-0.000103068 0.000110393 -8.79233e-07
-1.04792e-06 -8.79233e-07 -1.47635e-06
0.00123734 -9.24976e-05 5.25019e-08
-9.24976e-05 3.07099e-05 -5.85626e-06
5.25019e-08 -5.85626e-06 -5.76578e-05
0.00107377 -8.20169e-05 -3.72529e-07
-8.20169e-05 0.000123902 -1.21691e-06
-3.72529e-07 -1.21691e-06 3.99973e-05
0.00103936 -8.09326e-05 -5.23799e-07
-8.09326e-05 0.000111214 -1.87021e-06
-5.23799e-07 -1.87021e-06 2.35794e-05
0.000978761 -3.32582e-05 -2.59759e-07
-3.32582e-05 7.97997e-05 1.8614e-07
-2.59759e-07 1.8614e-07 1.16141e-06
0.000603604 2.60407e-05 -9.59315e-07
2.60407e-05 -0.000126738 1.69047e-06
-9.59315e-07 1.69047e-06 -0.000163341
0.000837747 2.42207e-05 -1.4235e-07
2.42207e-05 -6.94622e-06 4.59229e-07
-1.4235e-07 4.59229e-07 -6.47504e-05
0.00167865 1.16887e-05 -4.2372e-07
1.16887e-05 7.60199e-05 3.08599e-07
-4.2372e-07 3.08599e-07 -2.97218e-05
0.0017278 -2.23659e-06 -1.31265e-07
-2.23659e-06 0.000110441 -1.53259e-07
-1.31265e-07 -1.53259e-07 1.09243e-05
0.001749 -4.28897e-05 -1.4025e-06
-4.28897e-05 0.000114443 1.08387e-07
-1.4025e-06 1.08387e-07 2.50593e-05
0.00104228 -8.16462e-05 9.24082e-09
-8.16462e-05 0.000107486 1.56053e-07
9.24082e-09 1.56053e-07 2.34995e-05
0.000822771 -7.77054e-05 8.96372e-07
-7.77054e-05 -4.43341e-06 -7.68236e-07
8.96372e-07 -7.68236e-07 -9.91389e-05
0.0011327 -0.000101331 -1.28839e-07
-0.000101331 0.000102156 -3.15403e-07
-1.28839e-07 -3.15403e-07 -1.86626e-05
0.00146942 -7.50682e-05 5.98382e-07
-7.50682e-05 4.0009e-05 -7.04824e-07
5.98382e-07 -7.04824e-07 -4.42171e-05
0.00145467 -0.000110815 -2.33325e-07
-0.000110815 0.000179306 -2.50233e-07
-2.33325e-07 -2.50233e-07 6.71185e-05
0.00146379 -9.54169e-05 -6.96194e-07
-9.54169e-05 9.26677e-05 -6.43886e-07
-6.96194e-07 -6.43886e-07 1.22129e-05
0.000627045 2.15061e-05 4.4966e-08
2.15061e-05 -0.000117404 -5.87361e-07
4.4966e-08 -5.87361e-07 -0.000151268
0.00104245 -8.154e-05 1.52319e-08
-8.154e-05 0.000107909 6.62188e-08
1.52319e-08 6.62188e-08 2.25915e-05
0.000960195 -7.79024e-05 -6.18224e-07
-7.79024e-05 6.67708e-05 7.06287e-08
-6.18224e-07 7.06287e-08 -2.09364e-05
0.00108412 -6.55877e-05 -3.67627e-07
-6.55877e-05 0.000140437 7.59474e-07
-3.67627e-07 7.59474e-07 5.12708e-05
0.00104879 -2.85182e-05 -3.64837e-09
-2.85182e-05 0.000112581 -6.14897e-09
-3.64837e-09 -6.14897e-09 4.20277e-05
0.000891734 8.71704e-06 -1.46879e-07
8.71704e-06 2.3313e-05 1.76026e-07
-1.46879e-07 1.76026e-07 -3.0918e-05
0.00183929 1.39681e-05 5.22541e-07
1.39681e-05 0.000148849 -6.68747e-07
5.22541e-07 -6.68747e-07 4.40413e-05
0.00170163 -3.61814e-06 1.73673e-07
-3.61814e-06 6.84847e-05 -3.84404e-08
1.73673e-07 -3.84404e-08 -2.99282e-05
0.00143474 -5.00953e-05 1.95575e-06
-5.00953e-05 -4.65512e-05 -2.72597e-06
1.95575e-06 -2.72597e-06 -0.000136068
0.00166533 -8.87794e-05 7.08322e-08
-8.87794e-05 9.40107e-05 -1.13093e-06
7.08322e-08 -1.13093e-06 1.97676e-05
0.000993682 -8.11886e-05 -4.86326e-07
-8.11886e-05 8.4313e-05 1.31836e-06
-4.86326e-07 1.31836e-06 -2.84951e-06
0.00153089 -0.000111198 2.19076e-06
-0.000111198 0.000150207 3.35652e-06
2.19076e-06 3.35652e-06 4.75191e-05
0.000767938 -8.05397e-05 -7.4095e-07
-8.05397e-05 -3.70701e-05 -2.22522e-06
-7.4095e-07 -2.22522e-06 -0.000148192
0.00144483 -0.000117301 1.22983e-06
-0.000117301 0.000242119 8.834e-07
1.22983e-06 8.834e-07 0.000110655
0.000639725 1.76594e-05 7.94526e-07
1.76594e-05 -0.000112833 -2.26803e-06
7.94526e-07 -2.26803e-06 -0.00014453
0.0010128 -7.07374e-07 1.00919e-06
-7.07374e-07 8.76794e-05 -7.05571e-07
1.00919e-06 -7.05571e-07 3.72233e-05
0.00108868 -2.57058e-05 2.18713e-07
-2.57058e-05 0.00013268 6.04137e-07
2.18713e-07 6.04137e-07 6.62417e-05
0.00101146 -3.72245e-05 5.4304e-07
-3.72245e-05 9.87124e-05 -7.34089e-07
5.4304e-07 -7.34089e-07 1.57512e-05
0.00104596 -8.21919e-05 -2.48083e-07
-8.21919e-05 0.00010632 1.92671e-06
-2.48083e-07 1.92671e-06 1.89559e-05
0.000992727 -8.06228e-05 -2.37232e-07
-8.06228e-05 8.7023e-05 2.67652e-06
-2.37232e-07 2.67652e-06 -5.49586e-06
0.000845988 -2.00807e-05 -1.35094e-06
-2.00807e-05 2.2399e-06 -1.90504e-06
-1.35094e-06 -1.90504e-06 -3.07309e-05
0.000900824 -1.42896e-05 -4.63714e-07
-1.42896e-05 3.10272e-05 -1.31197e-06
-4.63714e-07 -1.31197e-06 -2.44056e-05
0.00144881 8.01576e-05 3.13038e-07
8.01576e-05 7.39673e-05 1.27221e-06
3.13038e-07 1.27221e-06 -2.6434e-05
0.000953094 1.8693e-05 -4.9849e-07
1.8693e-05 6.69757e-05 -7.50278e-07
-4.9849e-07 -7.50278e-07 -7.89341e-06
0.000992894 7.6314e-05 -6.36705e-07
7.6314e-05 9.42611e-05 -2.11752e-07
-6.36705e-07 -2.11752e-07 6.26217e-06
0.000897248 5.12701e-05 -8.81936e-07
5.12701e-05 4.90956e-05 -2.78876e-07
-8.81936e-07 -2.78876e-07 -4.22553e-05
0.00126126 0.000100624 -1.11958e-06
0.000100624 9.28198e-05 -9.7458e-07
-1.11958e-06 -9.7458e-07 -5.93866e-06
0.00130005 0.000100716 9.87978e-07
0.000100716 4.31572e-05 1.38249e-06
9.87978e-07 1.38249e-06 -4.93701e-05
0.00068587 7.27104e-05 -6.54826e-07
7.27104e-05 -5.33478e-05 2.26481e-08
-6.54826e-07 2.26481e-08 -0.000162453
0.0012432 0.000103967 -2.09295e-06
0.000103967 0.000152356 3.60125e-07
-2.09295e-06 3.60125e-07 3.73588e-05
0.0008912 -1.33304e-05 -6.72413e-08
-1.33304e-05 2.53916e-05 9.21971e-08
-6.72413e-08 9.21971e-08 -2.50098e-05
0.000894754 1.14787e-05 1.44096e-07
1.14787e-05 3.25383e-05 5.19462e-07
1.44096e-07 5.19462e-07 -3.69175e-05
0.00109888 8.64937e-05 -1.0842e-07
8.64937e-05 0.000159331 -7.8104e-07
-1.0842e-07 -7.8104e-07 6.04142e-05
0.000936033 2.96751e-05 -1.03205e-07
2.96751e-05 6.48193e-05 -2.43806e-08
-1.03205e-07 -2.43806e-08 -2.15598e-05
0.000955846 6.18626e-05 -1.06143e-06
6.18626e-05 7.92933e-05 -6.94837e-07
-1.06143e-06 -6.94837e-07 -1.76048e-05
0.00172219 7.92569e-05 -1.52835e-06
7.92569e-05 0.000162494 4.5699e-08
-1.52835e-06 4.5699e-08 8.25214e-05
0.00154842 0.000119284 1.17006e-06
0.000119284 0.000229873 6.38414e-08
1.17006e-06 6.38414e-08 0.000123237
0.000907506 9.50923e-05 -7.0302e-07
9.50923e-05 -0.000168394 1.13154e-06
-7.0302e-07 1.13154e-06 -0.000253102
0.00123336 9.77774e-05 1.24552e-06
9.77774e-05 0.000215109 1.35542e-06
1.24552e-06 1.35542e-06 9.73126e-05
0.000668721 8.77523e-05 -1.32184e-06
8.77523e-05 -0.0001439 -5.01208e-07
-1.32184e-06 -5.01208e-07 -0.000272412
0.00085225 2.29275e-06 5.09217e-07
2.29275e-06 7.57989e-06 1.29205e-06
5.09217e-07 1.29205e-06 -5.55213e-05
0.000855651 3.82827e-05 4.85936e-07
3.82827e-05 2.02253e-05 2.90289e-07
4.85936e-07 2.90289e-07 -6.31972e-05
0.00109258 8.72654e-05 1.04167e-06
8.72654e-05 0.000157342 1.14519e-07
1.04167e-06 1.14519e-07 4.92804e-05
0.000691088 4.98698e-05 6.90096e-07
4.98698e-05 -5.67773e-05 4.36839e-07
6.90096e-07 4.36839e-07 -0.000156634
0.00231962 5.95179e-05 -3.14888e-07
5.95179e-05 0.000382625 8.09653e-07
-3.14888e-07 8.09653e-07 0.000303187
0.00131854 9.50271e-05 2.29789e-06
9.50271e-05 -7.65541e-05 -1.7775e-06
2.29789e-06 -1.7775e-06 -0.000142985
0.00131014 0.00011856 1.93881e-06
0.00011856 0.000103143 -2.64441e-06
1.93881e-06 -2.64441e-06 -1.76631e-05
0.000542563 7.56049e-05 1.27812e-06
7.56049e-05 -0.000148412 1.55812e-06
1.27812e-06 1.55812e-06 -0.000286588
0.000894169 5.3867e-06 -4.15757e-07
5.3867e-06 2.85959e-05 -6.56293e-07
-4.15757e-07 -6.56293e-07 -2.01153e-05
0.000911509 3.4739e-06 -8.45299e-09
3.4739e-06 3.98894e-05 3.84351e-07
-8.45299e-09 3.84351e-07 -2.04759e-05
0.000984808 3.85101e-06 3.96129e-07
3.85101e-06 8.01656e-05 8.4662e-07
3.96129e-07 8.4662e-07 1.17948e-05
0.000906203 -5.45307e-06 -5.78977e-07
-5.45307e-06 3.20067e-05 -8.7492e-07
-5.78977e-07 -8.7492e-07 -1.21174e-05
0.00080544 -1.87123e-05 6.143e-09
-1.87123e-05 -1.53882e-05 -1.08614e-06
6.143e-09 -1.08614e-06 -7.29049e-05
0.000908163 -1.09302e-05 1.78436e-07
-1.09302e-05 3.1207e-05 2.58496e-08
1.78436e-07 2.58496e-08 -1.20746e-05
0.00098925 1.52139e-05 -7.25952e-08
1.52139e-05 8.66985e-05 -3.57464e-07
-7.25952e-08 -3.57464e-07 1.93724e-05
0.000860259 -9.66034e-06 1.70146e-07
-9.66034e-06 1.70912e-05 3.45208e-07
1.70146e-07 3.45208e-07 -4.06711e-05
0.00103105 8.12325e-06 4.06057e-07
8.12325e-06 0.000108482 3.72286e-07
4.06057e-07 3.72286e-07 3.60197e-05
0.000830963 -2.81746e-05 -2.10893e-07
-2.81746e-05 3.99995e-06 8.81734e-07
-2.10893e-07 8.81734e-07 -6.18206e-05
0.000811849 2.15119e-05 3.9876e-07
2.15119e-05 -7.20018e-06 1.0034e-06
3.9876e-07 1.0034e-06 -6.48849e-05
0.000924918 -7.38933e-06 -6.56758e-09
-7.38933e-06 3.81587e-05 8.36127e-07
-6.56758e-09 8.36127e-07 -4.61354e-06
0.000868536 6.08548e-06 6.16083e-07
6.08548e-06 6.57247e-07 1.59586e-06
6.16083e-07 1.59586e-06 -2.50442e-05
0.000874091 -4.37821e-06 -2.68395e-07
-4.37821e-06 3.38186e-06 1.66211e-08
-2.68395e-07 1.66211e-08 -2.18613e-05
0.00133968 -1.02573e-05 1.02356e-06
-1.02573e-05 0.000240721 1.85601e-06
1.02356e-06 1.85601e-06 0.000244826
0.000868323 -1.26824e-05 -1.95811e-07
-1.26824e-05 1.69655e-06 -1.72546e-06
-1.95811e-07 -1.72546e-06 -2.37498e-05
0.00135697 -1.45309e-05 -2.20332e-06
-1.45309e-05 0.000252458 -1.17094e-06
-2.20332e-06 -1.17094e-06 0.000256179
0.00103819 -1.31825e-05 1.03019e-05
-1.31825e-05 8.55929e-05 6.14198e-06
1.03019e-05 6.14198e-06 0.00010305
0.00137385 -1.86269e-05 -5.58647e-06
-1.86269e-05 0.000265152 -4.29461e-06
-5.58647e-06 -4.29461e-06 0.000267943
0.000992022 -1.78698e-05 4.00375e-06
-1.78698e-05 6.53316e-05 2.3524e-06
4.00375e-06 2.3524e-06 8.19809e-05
0.000938145 -2.1992e-05 -2.35145e-06
-2.1992e-05 4.28435e-05 -1.61594e-06
-2.35145e-06 -1.61594e-06 5.77842e-05
0.000783926 2.10634e-05 1.33433e-06
2.10634e-05 -4.09008e-05 -3.22109e-06
1.33433e-06 -3.22109e-06 -4.3953e-05
0.000789476 2.43542e-05 -1.49706e-07
2.43542e-05 -3.29511e-05 2.04936e-08
-1.49706e-07 2.04936e-08 -3.82686e-05
0.00222362 3.52963e-05 1.83751e-05
3.52963e-05 0.000724611 -3.73274e-06
1.83751e-05 -3.73274e-06 0.000743552
0.000799188 2.75217e-05 -2.50548e-06
2.75217e-05 -2.28776e-05 3.27648e-06
-2.50548e-06 3.27648e-06 -3.04095e-05
0.00228041 4.06857e-05 -9.29899e-07
4.06857e-05 0.000761225 -6.7802e-08
-9.29899e-07 -6.7802e-08 0.000778354
0.00234523 4.55002e-05 -2.65885e-05
4.55002e-05 0.000802549 3.63381e-06
-2.65885e-05 3.63381e-06 0.000817741
0.0015566 5.87091e-05 1.4525e-06
5.87091e-05 8.36138e-05 1.8532e-06
1.4525e-06 1.8532e-06 -8.95368e-06
0.0015798 1.57807e-05 2.67213e-07
1.57807e-05 4.9597e-05 1.81373e-08
2.67213e-07 1.81373e-08 -4.39146e-05
0.00152898 3.08578e-05 2.36234e-06
3.08578e-05 2.33141e-05 -1.04528e-06
2.36234e-06 -1.04528e-06 -5.92945e-05
0.00165149 -3.01739e-06 4.97942e-07
-3.01739e-06 7.00622e-05 -6.33292e-07
4.97942e-07 -6.33292e-07 -2.49512e-05
0.00174813 3.32798e-06 5.32227e-07
3.32798e-06 0.000119608 -1.49885e-06
5.32227e-07 -1.49885e-06 1.49443e-05
0.00169295 4.94325e-06 -9.56618e-07
4.94325e-06 8.86255e-05 -2.78582e-07
-9.56618e-07 -2.78582e-07 -2.02293e-05
0.00176377 1.57216e-05 -5.24988e-08
1.57216e-05 0.000109742 -6.82799e-09
-5.24988e-08 -6.82799e-09 3.84528e-07
0.00171834 -4.36799e-06 2.19339e-07
-4.36799e-06 9.53076e-05 -6.26744e-07
2.19339e-07 -6.26744e-07 -5.78748e-06
0.00167539 1.0842e-05 5.2703e-07
1.0842e-05 7.93083e-05 4.41281e-09
5.2703e-07 4.41281e-09 -1.07431e-05
0.001621 4.64953e-05 -6.63835e-08
4.64953e-05 7.31868e-05 -4.6914e-07
-6.63835e-08 -4.6914e-07 -1.03041e-05
0.00181637 9.4789e-06 -9.33987e-07
9.4789e-06 0.000133718 8.47793e-07
-9.33987e-07 8.47793e-07 2.71136e-05
0.00180116 -8.41852e-06 -5.06275e-07
-8.41852e-06 0.000120966 1.40238e-07
-5.06275e-07 1.40238e-07 2.79781e-05
0.00175045 2.77731e-05 2.80265e-07
2.77731e-05 0.000108899 9.83238e-07
2.80265e-07 9.83238e-07 2.1374e-05
0.00167654 1.09663e-05 -1.07533e-06
1.09663e-05 7.7027e-05 1.28534e-06
-1.07533e-06 1.28534e-06 -2.77144e-05
0.00177007 -3.42482e-06 -8.83112e-07
-3.42482e-06 0.000132798 3.97995e-07
-8.83112e-07 3.97995e-07 3.31198e-05
0.00182885 -4.42377e-05 -8.25359e-07
-4.42377e-05 0.000158706 1.18933e-06
-8.25359e-07 1.18933e-06 7.02093e-05
0.00110172 -8.35427e-05 -3.16847e-07
-8.35427e-05 0.000136095 -7.15804e-07
-3.16847e-07 -7.15804e-07 5.20805e-05
0.00116766 -9.12593e-05 3.22972e-07
-9.12593e-05 0.000169129 -4.3938e-08
3.22972e-07 -4.3938e-08 7.50866e-05
0.00110843 -9.96611e-05 -1.33465e-06
-9.96611e-05 9.34958e-05 1.72672e-06
-1.33465e-06 1.72672e-06 -2.79089e-05
0.00156514 -7.62353e-05 -4.99209e-08
-7.62353e-05 8.61469e-05 3.62975e-07
-4.99209e-08 3.62975e-07 7.25713e-07
0.00112768 -8.95157e-05 -1.67303e-06
-8.95157e-05 -7.4514e-05 -1.32474e-06
-1.67303e-06 -1.32474e-06 -0.000155049
0.00141157 -0.000107272 -2.03219e-06
-0.000107272 0.000158182 -3.41619e-06
-2.03219e-06 -3.41619e-06 4.90832e-05
0.0010698 -8.26506e-05 2.20427e-08
-8.26506e-05 0.00012151 -1.6458e-06
2.20427e-08 -1.6458e-06 3.60839e-05
0.000944161 -7.68599e-05 -1.56686e-06
-7.68599e-05 6.00501e-05 -1.9609e-06
-1.56686e-06 -1.9609e-06 -2.68605e-05
0.00106548 -6.83115e-05 -3.33693e-08
-6.83115e-05 0.000132569 -2.11985e-07
-3.33693e-08 -2.11985e-07 4.21678e-05
0.00061083 2.2964e-05 -9.11007e-07
2.2964e-05 -0.000125845 9.89672e-07
-9.11007e-07 9.89672e-07 -0.00015946
0.00107952 -2.30922e-05 -2.03426e-07
-2.30922e-05 0.000127735 3.10858e-07
-2.03426e-07 3.10858e-07 5.79873e-05
0.000777158 1.9617e-05 -2.8591e-08
1.9617e-05 -3.78479e-05 1.08207e-06
-2.8591e-08 1.08207e-06 -9.19056e-05
0.00176706 1.37591e-05 6.32451e-08
1.37591e-05 0.000111218 -3.0674e-07
6.32451e-08 -3.0674e-07 5.63439e-06
0.0017279 -5.53202e-06 7.11746e-07
-5.53202e-06 8.23339e-05 -2.54347e-07
7.11746e-07 -2.54347e-07 -1.62866e-05
0.00154773 -5.10029e-05 5.43433e-08
-5.10029e-05 6.05603e-06 -4.6502e-07
5.43433e-08 -4.6502e-07 -8.39602e-05
0.00105211 -8.35126e-05 1.58984e-08
-8.35126e-05 0.000112429 5.16133e-07
1.58984e-08 5.16133e-07 2.49719e-05
0.000839776 -8.27782e-05 -1.08094e-07
-8.27782e-05 3.4374e-06 2.0115e-07
-1.08094e-07 2.0115e-07 -0.000105394
0.00153752 -0.000120523 -1.69376e-06
-0.000120523 0.000288313 1.51117e-06
-1.69376e-06 1.51117e-06 0.000156536
0.00170934 -9.19282e-05 -1.06139e-06
-9.19282e-05 0.000120995 1.08012e-06
-1.06139e-06 1.08012e-06 4.629e-05
0.00141789 -0.000107788 8.50834e-07
-0.000107788 8.97077e-05 -7.93905e-07
8.50834e-07 -7.93905e-07 -1.2271e-05
0.000746976 1.77457e-05 1.293e-07
1.77457e-05 -5.69175e-05 -5.72228e-07
1.293e-07 -5.72228e-07 -8.7623e-05
0.000997414 1.13522e-05 -3.25743e-07
1.13522e-05 7.94888e-05 1.31404e-07
-3.25743e-07 1.31404e-07 2.93675e-05
0.000917192 -7.70236e-05 -8.02517e-07
-7.70236e-05 4.1657e-05 1.33088e-07
-8.02517e-07 1.33088e-07 -4.5589e-05
0.00102654 -8.1685e-05 7.91283e-07
-8.1685e-05 0.000103871 3.97485e-07
7.91283e-07 3.97485e-07 1.24229e-05
0.000975571 -3.55966e-05 -8.34687e-08
-3.55966e-05 8.02549e-05 -2.64562e-07
-8.34687e-08 -2.64562e-07 -2.90419e-06
0.00102677 -2.45393e-05 -5.42884e-07
-2.45393e-05 0.000100726 8.96998e-07
-5.42884e-07 8.96998e-07 3.3783e-05
0.00175841 1.81848e-05 -2.0392e-06
1.81848e-05 9.75789e-05 8.37243e-08
-2.0392e-06 8.37243e-08 -5.54892e-06
0.00171143 -1.73206e-05 -2.97391e-08
-1.73206e-05 5.35496e-05 8.38703e-07
-2.97391e-08 8.38703e-07 -4.37719e-05
0.00178018 -7.17607e-05 2.63952e-06
-7.17607e-05 8.5004e-05 -4.19751e-06
2.63952e-06 -4.19751e-06 5.35273e-06
0.00211374 -0.00012135 1.20642e-06
-0.00012135 0.000314909 -1.77548e-07
1.20642e-06 -1.77548e-07 0.00023515
0.000804247 -7.48549e-05 -1.34382e-06
-7.48549e-05 -7.8784e-07 1.18975e-06
-1.34382e-06 1.18975e-06 -9.40685e-05
0.0013989 -0.000119974 4.6825e-07
-0.000119974 0.00018016 3.57764e-06
4.6825e-07 3.57764e-06 3.33676e-05
0.00147329 -0.000112456 5.26146e-07
-0.000112456 0.000312422 -2.70725e-06
5.26146e-07 -2.70725e-06 0.000189134
0.000869068 1.43289e-05 6.21465e-07
1.43289e-05 4.02885e-06 -1.62066e-06
6.21465e-07 -1.62066e-06 -2.35445e-05
0.000889129 -3.63349e-05 8.48961e-07
-3.63349e-05 2.69585e-05 -8.58485e-07
8.48961e-07 -8.58485e-07 -1.83354e-05
0.000761487 1.18193e-05 3.10241e-07
1.18193e-05 -4.13244e-05 -1.48125e-06
3.10241e-07 -1.48125e-06 -9.18087e-05
0.000982484 -2.63949e-05 6.97739e-07
-2.63949e-05 7.8862e-05 7.71424e-09
6.97739e-07 7.71424e-09 1.46599e-05
0.000966135 -1.94898e-06 -1.20284e-07
-1.94898e-06 7.25445e-05 -2.14953e-07
-1.20284e-07 -2.14953e-07 -2.66347e-06
0.000912554 -7.89938e-05 2.04311e-06
-7.89938e-05 6.17499e-05 1.6834e-06
2.04311e-06 1.6834e-06 -3.58625e-05
0.000821514 -7.37187e-05 -1.24084e-06
-7.37187e-05 -2.09535e-05 2.23294e-06
-1.24084e-06 2.23294e-06 -0.000104879
0.00167367 -0.000111081 -7.23639e-07
-0.000111081 0.000447399 2.66437e-06
-7.23639e-07 2.66437e-06 0.00035237
0.000901728 -1.55213e-05 -4.26228e-07
-1.55213e-05 3.06618e-05 -1.21303e-06
-4.26228e-07 -1.21303e-06 -1.97561e-05
0.000935377 1.55188e-05 -3.9787e-07
1.55188e-05 5.38176e-05 -3.40796e-07
-3.9787e-07 -3.40796e-07 -1.55545e-05
0.00185946 8.06484e-05 7.00894e-07
8.06484e-05 0.000225095 6.20448e-07
7.00894e-07 6.20448e-07 0.000144326
0.000977597 3.05757e-05 -6.0444e-07
3.05757e-05 8.67773e-05 -5.11331e-07
-6.0444e-07 -5.11331e-07 5.63267e-07
0.00108194 8.56501e-05 -9.33512e-07
8.56501e-05 0.000153102 -1.77263e-06
-9.33512e-07 -1.77263e-06 5.50122e-05
0.000889927 5.89016e-05 -1.76476e-06
5.89016e-05 4.84047e-05 -2.74789e-07
-1.76476e-06 -2.74789e-07 -4.84373e-05
0.00153678 0.000118283 -3.51342e-07
0.000118283 0.000218483 6.98032e-07
-3.51342e-07 6.98032e-07 0.000113063
0.0013473 0.000107858 1.54533e-06
0.000107858 6.1997e-05 5.17359e-06
1.54533e-06 5.17359e-06 -1.94765e-05
0.000932489 8.58978e-05 -2.91361e-07
8.58978e-05 6.34338e-05 2.40086e-07
-2.91361e-07 2.40086e-07 -5.4675e-05
0.00114293 0.000106674 -4.16264e-06
0.000106674 9.57023e-05 -5.72802e-07
-4.16264e-06 -5.72802e-07 -3.68833e-05
0.000846923 1.07165e-05 2.32195e-07
1.07165e-05 6.30343e-06 4.64521e-07
2.32195e-07 4.64521e-07 -5.83487e-05
0.000896858 4.36818e-05 -1.76906e-07
4.36818e-05 4.27799e-05 -6.69867e-07
-1.76906e-07 -6.69867e-07 -4.07982e-05
0.00109024 8.7172e-05 -4.14764e-07
8.7172e-05 0.000157877 -9.70525e-07
-4.14764e-07 -9.70525e-07 5.04227e-05
0.000914728 5.65636e-05 -2.1485e-07
5.65636e-05 5.73947e-05 -2.33345e-07
-2.1485e-07 -2.33345e-07 -4.21372e-05
0.00207357 5.33382e-05 -4.7042e-07
5.33382e-05 0.000258081 7.20134e-07
-4.7042e-07 7.20134e-07 0.000176783
0.00130196 9.383e-05 1.41293e-06
9.383e-05 -7.17004e-05 -1.28322e-06
1.41293e-06 -1.28322e-06 -0.000139241
0.0016371 0.00012918 -1.61007e-06
0.00012918 0.000263836 -8.85022e-08
-1.61007e-06 -8.85022e-08 0.000145621
0.000769263 8.67163e-05 7.31955e-07
8.67163e-05 -4.18323e-05 5.37189e-07
7.31955e-07 5.37189e-07 -0.000179278
0.000980628 1.66652e-05 3.98957e-07
1.66652e-05 7.92146e-05 3.60069e-07
3.98957e-07 3.60069e-07 6.41513e-06
0.00161986 1.97684e-05 -8.14734e-07
1.97684e-05 3.04406e-05 1.94979e-08
-8.14734e-07 1.94979e-08 -5.36473e-05
0.00111935 7.53767e-05 4.28792e-07
7.53767e-05 0.000168826 1.21287e-06
4.28792e-07 1.21287e-06 7.2409e-05
0.00109147 8.87458e-05 7.96685e-07
8.87458e-05 0.000145982 1.18276e-06
7.96685e-07 1.18276e-06 2.99526e-05
0.00229406 8.57435e-05 2.16664e-06
8.57435e-05 0.000299052 6.26242e-07
2.16664e-06 6.26242e-07 0.000230329
0.00146754 0.000124712 4.73223e-06
0.000124712 5.16742e-05 -3.72096e-06
4.73223e-06 -3.72096e-06 -5.23988e-05
0.00174976 0.000131485 1.26784e-06
0.000131485 0.000417098 1.43728e-06
1.26784e-06 1.43728e-06 0.00026874
0.000998267 4.25348e-06 -8.33316e-07
4.25348e-06 8.41767e-05 -4.19997e-07
-8.33316e-07 -4.19997e-07 2.47857e-05
0.000988943 3.41242e-06 -4.68344e-09
3.41242e-06 8.22764e-05 4.76455e-08
-4.68344e-09 4.76455e-08 1.39081e-05
0.000993082 9.93989e-06 4.82151e-07
9.93989e-06 8.8021e-05 8.19254e-07
4.82151e-07 8.19254e-07 1.15425e-05
0.000906315 -6.68484e-06 -7.05506e-08
-6.68484e-06 3.07688e-05 -8.41006e-07
-7.05506e-08 -8.41006e-07 -1.28258e-05
0.000901443 -9.50853e-07 8.8353e-08
-9.50853e-07 3.94156e-05 -1.15661e-07
8.8353e-08 -1.15661e-07 -1.85185e-05
0.000906992 1.13593e-05 -4.10891e-07
1.13593e-05 4.35862e-05 -1.1757e-06
-4.10891e-07 -1.1757e-06 -2.49406e-05
0.000912778 -1.87513e-05 -4.6289e-08
-1.87513e-05 3.29708e-05 2.24276e-08
-4.6289e-08 2.24276e-08 -1.05399e-05
0.000814156 -1.03253e-05 -3.83546e-07
-1.03253e-05 -7.18611e-06 4.13734e-07
-3.83546e-07 4.13734e-07 -6.41101e-05
0.00099491 -4.07681e-07 1.67904e-07
-4.07681e-07 8.88316e-05 -4.01869e-07
1.67904e-07 -4.01869e-07 1.56041e-05
0.000942572 3.30099e-06 5.81418e-08
3.30099e-06 6.42515e-05 4.51258e-07
5.81418e-08 4.51258e-07 -2.16244e-06
0.00100945 1.56449e-05 4.13016e-07
1.56449e-05 9.77611e-05 3.14012e-09
4.13016e-07 3.14012e-09 1.96466e-05
0.000873003 -1.84381e-05 9.97869e-08
-1.84381e-05 2.65116e-05 6.70143e-07
9.97869e-08 6.70143e-07 -4.59618e-05
0.000988283 1.0727e-05 1.68711e-07
1.0727e-05 8.6268e-05 7.9101e-08
1.68711e-07 7.9101e-08 2.23721e-05
0.000915336 8.21226e-06 8.47757e-07
8.21226e-06 4.633e-05 6.81719e-07
8.47757e-07 6.81719e-07 -1.04257e-05
0.000925251 -6.22062e-07 4.956e-08
-6.22062e-07 3.7633e-05 7.73139e-07
4.956e-08 7.73139e-07 -5.35225e-06
0.000862875 9.45928e-06 3.6278e-07
9.45928e-06 -1.44809e-06 1.56166e-06
3.6278e-07 1.56166e-06 -2.77091e-05
0.000868767 -1.14016e-06 -1.73304e-07
-1.14016e-06 7.91676e-07 6.07097e-09
-1.73304e-07 6.07097e-09 -2.49073e-05
0.00134451 -5.0229e-06 7.50295e-07
-5.0229e-06 0.000242002 1.81559e-06
7.50295e-07 1.81559e-06 0.000245902
0.000871903 -1.1348e-05 -1.57789e-07
-1.1348e-05 2.26953e-06 -1.62153e-06
-1.57789e-07 -1.62153e-06 -2.29938e-05
0.00136218 -9.34008e-06 -1.61417e-06
-9.34008e-06 0.000252808 -1.18605e-06
-1.61417e-06 -1.18605e-06 0.000256758
0.0010418 -9.14016e-06 7.53392e-06
-9.14016e-06 8.48941e-05 6.19997e-06
7.53392e-06 6.19997e-06 0.000102595
0.00137731 -1.38065e-05 -4.0939e-06
-1.38065e-05 0.00026316 -4.21267e-06
-4.0939e-06 -4.21267e-06 0.00026681
0.000998104 -1.37491e-05 2.78019e-06
-1.37491e-05 6.41647e-05 2.35183e-06
2.78019e-06 2.35183e-06 8.17311e-05
0.000942316 -1.79996e-05 -1.73289e-06
-1.79996e-05 3.92419e-05 -1.55225e-06
-1.73289e-06 -1.55225e-06 5.59674e-05
0.000867298 1.08333e-05 3.54049e-07
1.08333e-05 4.10425e-07 -1.58544e-06
3.54049e-07 -1.58544e-06 -2.49386e-05
0.000795003 1.72963e-05 1.05867e-06
1.72963e-05 -4.01182e-05 -3.1323e-06
1.05867e-06 -3.1323e-06 -4.10641e-05
0.000800601 2.12857e-05 -1.28075e-07
2.12857e-05 -3.22589e-05 2.74151e-08
-1.28075e-07 2.74151e-08 -3.54125e-05
0.00216945 2.9529e-05 1.53217e-05
2.9529e-05 0.000690709 -3.76291e-06
1.53217e-05 -3.76291e-06 0.000711238
0.000805771 2.45262e-05 -2.09391e-06
2.45262e-05 -2.45821e-05 3.2174e-06
-2.09391e-06 3.2174e-06 -2.99725e-05
0.00223196 3.53288e-05 -1.12835e-06
3.53288e-05 0.000729764 -6.05649e-08
-1.12835e-06 -6.05649e-08 0.000748509
0.00228263 4.04613e-05 -2.33595e-05
4.04613e-05 0.000763204 3.71383e-06
-2.33595e-05 3.71383e-06 0.000780182
0.00144507 4.20037e-05 7.4817e-07
4.20037e-05 -1.8415e-05 -2.5053e-07
7.4817e-07 -2.5053e-07 -0.000101627
0.00167789 1.10267e-05 6.13933e-07
1.10267e-05 8.17469e-05 -2.42988e-07
6.13933e-07 -2.42988e-07 -8.1755e-06
0.0017118 -4.66518e-06 7.96326e-07
-4.66518e-06 9.25146e-05 -1.60358e-06
7.96326e-07 -1.60358e-06 -8.55181e-06
0.0017636 1.77794e-05 9.49666e-08
1.77794e-05 0.000114285 -2.29328e-07
9.49666e-08 -2.29328e-07 6.16929e-06
0.00177258 9.97726e-06 -2.24874e-08
9.97726e-06 0.000111925 4.84108e-07
-2.24874e-08 4.84108e-07 5.34129e-06
0.00178627 -7.8222e-06 -1.46689e-07
-7.8222e-06 0.000112806 -4.04877e-07
-1.46689e-07 -4.04877e-07 1.98753e-05
0.00168227 2.80775e-05 3.36998e-07
2.80775e-05 7.54668e-05 4.40236e-07
3.36998e-07 4.40236e-07 -1.20301e-05
0.00177261 3.07265e-06 -8.52192e-07
3.07265e-06 0.00010544 1.07954e-06
-8.52192e-07 1.07954e-06 6.20228e-06
0.00186631 7.00744e-07 -1.15339e-06
7.00744e-07 0.00015355 2.14404e-07
-1.15339e-06 2.14404e-07 6.29335e-05
0.00145674 -2.41156e-06 -4.8369e-07
-2.41156e-06 -6.52324e-05 2.15339e-07
-4.8369e-07 2.15339e-07 -0.000151344
0.00171699 1.37826e-05 3.31951e-07
1.37826e-05 8.45581e-05 5.19252e-07
3.31951e-07 5.19252e-07 -2.17719e-05
0.00178463 -7.63047e-06 7.43154e-08
-7.63047e-06 0.000111761 1.34725e-07
7.43154e-08 1.34725e-07 1.28939e-05
0.00168467 -5.22804e-05 -1.81747e-06
-5.22804e-05 7.06297e-05 2.82663e-07
-1.81747e-06 2.82663e-07 -1.99081e-05
0.00110435 -8.55855e-05 -3.53442e-08
-8.55855e-05 0.000137551 -7.57508e-08
-3.53442e-08 -7.57508e-08 4.97985e-05
0.000878549 -8.38144e-05 6.87402e-07
-8.38144e-05 2.64821e-05 2.2383e-06
6.87402e-07 2.2383e-06 -7.98994e-05
0.00155271 -0.000120626 -2.06405e-06
-0.000120626 0.000293625 2.93903e-06
-2.06405e-06 2.93903e-06 0.000162452
0.00170523 -9.41646e-05 2.36222e-06
-9.41646e-05 0.000124786 2.7986e-06
2.36222e-06 2.7986e-06 4.96058e-05
0.00125158 -0.000102492 -2.53481e-06
-0.000102492 2.08175e-06 -3.24324e-06
-2.53481e-06 -3.24324e-06 -9.9048e-05
0.000779915 -7.16008e-05 -1.05149e-06
-7.16008e-05 -2.77126e-05 -1.26513e-06
-1.05149e-06 -1.26513e-06 -0.000114772
0.00108575 -8.37902e-05 1.25202e-06
-8.37902e-05 0.000133386 -2.65929e-06
1.25202e-06 -2.65929e-06 4.29608e-05
0.000942429 -8.75445e-06 -5.635e-08
-8.75445e-06 5.95474e-05 -3.85356e-07
-5.635e-08 -3.85356e-07 -2.12047e-05
0.000856584 1.74559e-05 -7.89277e-07
1.74559e-05 6.83548e-08 1.09483e-06
-7.89277e-07 1.09483e-06 -2.96238e-05
0.000985703 2.62295e-05 -5.08253e-07
2.62295e-05 7.35363e-05 9.13245e-07
-5.08253e-07 9.13245e-07 2.35212e-05
0.000970756 -1.604e-05 -7.35447e-07
-1.604e-05 7.19155e-05 1.25464e-06
-7.35447e-07 1.25464e-06 4.38452e-06
0.00182488 1.91007e-05 3.47468e-07
1.91007e-05 0.000132452 3.68798e-07
3.47468e-07 3.68798e-07 3.10903e-05
0.00086941 1.36614e-05 1.14299e-08
1.36614e-05 3.85766e-06 1.72751e-08
1.14299e-08 1.72751e-08 -2.36876e-05
0.000813397 -1.57523e-06 -4.00598e-07
-1.57523e-06 -1.47102e-05 5.40515e-08
-4.00598e-07 5.40515e-08 -5.89713e-05
0.00182395 -1.80313e-05 -3.02093e-07
-1.80313e-05 0.000108302 -8.69584e-07
-3.02093e-07 -8.69584e-07 1.0552e-05
0.00158322 -7.06351e-05 1.91754e-09
-7.06351e-05 -7.27728e-06 -1.06606e-06
1.91754e-09 -1.06606e-06 -8.97863e-05
0.000821786 -7.52563e-05 1.28477e-07
-7.52563e-05 9.38378e-06 1.3069e-06
1.28477e-07 1.3069e-06 -8.25367e-05
0.00139942 -0.000109878 -7.9046e-07
-0.000109878 0.000274796 4.84414e-07
-7.9046e-07 4.84414e-07 0.000147934
0.00124558 -0.000112268 9.31205e-07
-0.000112268 9.68459e-05 1.40724e-06
9.31205e-07 1.40724e-06 -4.27515e-05
0.00184329 -0.000115851 -8.79573e-08
-0.000115851 0.000188231 -2.9653e-07
-8.79573e-08 -2.9653e-07 0.00010909
0.000946656 -6.50366e-06 8.74721e-07
-6.50366e-06 5.5858e-05 -4.85559e-07
8.74721e-07 -4.85559e-07 6.6527e-06
0.000965578 -1.37371e-05 -4.84185e-07
-1.37371e-05 7.12275e-05 4.49615e-07
-4.84185e-07 4.49615e-07 6.43174e-06
0.000960291 -7.92422e-05 3.21695e-07
-7.92422e-05 4.73982e-05 6.02606e-07
3.21695e-07 6.02606e-07 -3.81942e-05
0.00125946 -9.41748e-05 1.08839e-07
-9.41748e-05 0.000234686 -7.96548e-07
1.08839e-07 -7.96548e-07 0.000145399
0.000851938 -5.86072e-05 7.84359e-08
-5.86072e-05 2.92627e-05 3.01148e-07
7.84359e-08 3.01148e-07 -6.80737e-05
0.00096943 -3.42434e-06 9.99898e-08
-3.42434e-06 7.46072e-05 -2.59246e-07
9.99898e-08 -2.59246e-07 -1.27929e-06
0.0016165 1.61283e-05 -2.41977e-06
1.61283e-05 6.1707e-06 -3.20616e-07
-2.41977e-06 -3.20616e-07 -7.9241e-05
0.00194449 -2.92198e-05 9.95198e-07
-2.92198e-05 0.000158042 1.96306e-06
9.95198e-07 1.96306e-06 6.03554e-05
0.00190118 -0.000107751 -1.85348e-06
-0.000107751 8.56744e-05 -4.56044e-06
-1.85348e-06 -4.56044e-06 2.01521e-05
0.00143437 -0.000126523 1.95008e-06
-0.000126523 6.92424e-05 2.53158e-06
1.95008e-06 2.53158e-06 -4.32307e-05
0.00113346 -8.37494e-05 -1.91924e-06
-8.37494e-05 0.000161877 1.08558e-07
-1.91924e-06 1.08558e-07 6.61678e-05
0.00175475 -0.000138427 -4.43274e-07
-0.000138427 0.000436458 -1.38802e-06
-4.43274e-07 -1.38802e-06 0.00027602
0.000735622 2.9665e-05 -8.60557e-07
2.9665e-05 -5.50533e-05 -1.21135e-06
-8.60557e-07 -1.21135e-06 -9.81601e-05
0.000883523 -1.51601e-05 6.27554e-07
-1.51601e-05 2.16702e-05 -9.89336e-07
6.27554e-07 -9.89336e-07 -2.40089e-05
0.00110297 -2.8652e-05 3.77549e-07
-2.8652e-05 0.000148341 -3.59302e-07
3.77549e-07 -3.59302e-07 9.10761e-05
0.000817431 2.03543e-05 -6.7971e-07
2.03543e-05 -9.9358e-07 -7.71191e-07
-6.7971e-07 -7.71191e-07 -6.71743e-05
0.00109389 -9.70314e-06 -1.64716e-09
-9.70314e-06 0.000141269 8.1751e-08
-1.64716e-09 8.1751e-08 6.91178e-05
0.000738962 -1.59476e-05 9.28003e-08
-1.59476e-05 -3.04077e-05 5.92826e-07
9.28003e-08 5.92826e-07 -0.000117258
0.00117104 -6.44309e-05 3.85859e-06
-6.44309e-05 0.000206795 4.89966e-07
3.85859e-06 4.89966e-07 0.000101176
0.00090279 -8.42039e-05 -3.68708e-06
-8.42039e-05 4.20521e-05 2.23144e-06
-3.68708e-06 2.23144e-06 -4.47985e-05
0.00083905 2.00428e-05 -3.49788e-07
2.00428e-05 3.67016e-06 -3.73208e-07
-3.49788e-07 -3.73208e-07 -6.25491e-05
0.000935457 4.62612e-05 -1.21444e-06
4.62612e-05 6.36406e-05 -1.45087e-06
-1.21444e-06 -1.45087e-06 -1.98264e-05
0.00183665 4.73715e-05 1.58795e-07
4.73715e-05 0.000138447 2.88026e-07
1.58795e-07 2.88026e-07 5.52314e-05
0.00135661 9.39583e-05 -7.25487e-07
9.39583e-05 -3.0546e-05 4.53008e-07
-7.25487e-07 4.53008e-07 -9.9219e-05
0.00114015 6.23689e-05 -1.61754e-06
6.23689e-05 0.000172418 -6.5951e-07
-1.61754e-06 -6.5951e-07 7.32785e-05
0.00108509 8.68632e-05 -1.86839e-06
8.68632e-05 0.000156763 -2.16406e-06
-1.86839e-06 -2.16406e-06 4.99594e-05
0.00199203 0.000140877 -2.34922e-06
0.000140877 0.000439357 1.9227e-06
-2.34922e-06 1.9227e-06 0.00032357
0.000967112 9.67087e-05 -1.3701e-06
9.67087e-05 5.00034e-05 -7.93343e-07
-1.3701e-06 -7.93343e-07 -8.7069e-05
0.000967058 2.63418e-05 -2.71675e-08
2.63418e-05 7.45224e-05 -4.78381e-07
-2.71675e-08 -4.78381e-07 5.71616e-07
0.00170827 1.81151e-05 -5.57516e-08
1.81151e-05 7.34487e-05 1.71512e-07
-5.57516e-08 1.71512e-07 -1.16759e-05
0.00100823 6.63098e-05 2.24286e-07
6.63098e-05 0.000110862 6.99439e-07
2.24286e-07 6.99439e-07 1.57041e-05
0.000917848 8.10982e-05 2.53768e-08
8.10982e-05 5.69289e-05 -1.7243e-07
2.53768e-08 -1.7243e-07 -6.01526e-05
0.00176912 7.66239e-05 8.87594e-07
7.66239e-05 4.42815e-05 -2.4097e-07
8.87594e-07 -2.4097e-07 -2.40263e-05
0.00187252 0.000138854 9.92318e-07
0.000138854 0.00024862 -5.47615e-07
9.92318e-07 -5.47615e-07 0.000144988
0.00163077 0.000127682 1.96701e-07
0.000127682 0.000360853 6.35346e-07
1.96701e-07 6.35346e-07 0.000213698
0.00101649 3.73642e-05 1.44756e-07
3.73642e-05 0.000107697 7.81532e-07
1.44756e-07 7.81532e-07 2.16723e-05
0.0023597 4.68119e-05 -4.9146e-07
4.68119e-05 0.000346687 9.6874e-08
-4.9146e-07 9.6874e-08 0.000274373
0.00145462 8.9335e-05 -6.61035e-07
8.9335e-05 0.000324511 1.01893e-07
-6.61035e-07 1.01893e-07 0.000221129
0.00183874 0.000125676 -1.49809e-06
0.000125676 0.000513839 1.53445e-06
-1.49809e-06 1.53445e-06 0.000381937
0.00204038 0.000144108 6.16211e-06
0.000144108 0.000145447 -2.01377e-06
6.16211e-06 -2.01377e-06 9.06185e-05
0.000903204 0.000107698 4.90385e-08
0.000107698 -8.14253e-05 4.41843e-07
4.90385e-08 4.41843e-07 -0.000225872
0.000694501 4.7438e-05 1.25035e-05
4.7438e-05 -0.000284255 1.28358e-06
1.25035e-05 1.28358e-06 -0.000354279
0.000998049 3.84928e-06 -3.80665e-07
3.84928e-06 8.68909e-05 -7.50277e-07
-3.80665e-07 -7.50277e-07 1.85101e-05
0.000988563 1.0805e-05 2.4388e-10
1.0805e-05 8.60636e-05 -6.54581e-08
2.4388e-10 -6.54581e-08 9.45713e-06
0.00104357 2.7718e-05 2.51645e-07
2.7718e-05 0.000112637 1.61083e-07
2.51645e-07 1.61083e-07 2.99118e-05
0.000900881 -2.24508e-05 1.37456e-07
-2.24508e-05 2.7365e-05 -8.25252e-07
1.37456e-07 -8.25252e-07 -1.65371e-05
0.000815582 -3.53462e-05 -2.62253e-07
-3.53462e-05 -6.08028e-06 -1.51044e-07
-2.62253e-07 -1.51044e-07 -6.32303e-05
0.00104991 3.6315e-05 -7.31157e-07
3.6315e-05 0.000122722 -9.75522e-08
-7.31157e-07 -9.75522e-08 5.55205e-05
0.000959783 -3.00088e-06 -1.10368e-07
-3.00088e-06 7.00005e-05 -1.08176e-06
-1.10368e-07 -1.08176e-06 -4.16347e-06
0.000905376 -1.58514e-05 -2.28561e-07
-1.58514e-05 2.96226e-05 3.44348e-08
-2.28561e-07 3.44348e-08 -1.48832e-05
0.000854006 -5.73378e-06 1.85143e-07
-5.73378e-06 1.14103e-05 1.65389e-08
1.85143e-07 1.65389e-08 -4.41236e-05
0.000971306 1.17232e-05 1.08081e-07
1.17232e-05 7.77453e-05 -5.91104e-07
1.08081e-07 -5.91104e-07 -4.10207e-07
0.000988133 -8.20221e-06 -2.3032e-07
-8.20221e-06 8.59467e-05 -2.15038e-07
-2.3032e-07 -2.15038e-07 2.1892e-05
0.000961886 -1.34782e-05 1.80477e-07
-1.34782e-05 7.3188e-05 -8.03023e-09
1.80477e-07 -8.03023e-09 1.31806e-06
0.000970049 6.42628e-06 -8.57885e-08
6.42628e-06 7.56645e-05 4.10237e-07
-8.57885e-08 4.10237e-07 -2.11457e-06
0.000983282 6.26707e-06 2.97205e-07
6.26707e-06 8.67821e-05 -1.16922e-07
2.97205e-07 -1.16922e-07 1.8691e-05
0.00103467 9.28068e-06 4.00825e-07
9.28068e-06 0.000105912 -1.79578e-07
4.00825e-07 -1.79578e-07 4.39879e-05
0.00081827 3.52567e-06 -3.28253e-07
3.52567e-06 -8.28923e-06 6.47646e-07
-3.28253e-07 6.47646e-07 -6.56182e-05
0.000779145 8.37527e-06 3.74974e-07
8.37527e-06 -3.90792e-05 1.18906e-06
3.74974e-07 1.18906e-06 -8.37734e-05
0.00105894 -4.57134e-06 2.58266e-07
-4.57134e-06 0.00012156 -1.9625e-08
2.58266e-07 -1.9625e-08 6.42867e-05
0.00076971 2.36747e-06 -4.79472e-07
2.36747e-06 -4.23731e-05 1.09287e-06
-4.79472e-07 1.09287e-06 -8.73541e-05
0.000865331 1.1819e-05 2.20397e-07
1.1819e-05 2.82561e-07 1.57053e-06
2.20397e-07 1.57053e-06 -2.62583e-05
0.000862931 1.49998e-06 -2.4387e-07
1.49998e-06 -1.43981e-06 4.74959e-09
-2.4387e-07 4.74959e-09 -2.76738e-05
0.000812774 4.47949e-07 2.17089e-07
4.47949e-07 -3.86844e-05 3.00223e-06
2.17089e-07 3.00223e-06 -3.80109e-05
0.000869526 -8.59528e-06 1.24554e-07
-8.59528e-06 1.21517e-06 -1.56436e-06
1.24554e-07 -1.56436e-06 -2.44863e-05
0.0010927 -4.02143e-06 -9.92491e-07
-4.02143e-06 0.000109286 -1.22895e-06
-9.92491e-07 -1.22895e-06 0.000111623
0.002117 -6.29634e-06 4.55599e-06
-6.29634e-06 0.000650739 3.90093e-06
4.55599e-06 3.90093e-06 0.00067418
0.00138527 -8.76967e-06 -2.57297e-06
-8.76967e-06 0.000265188 -4.1916e-06
-2.57297e-06 -4.1916e-06 0.000268956
0.00100666 -9.41473e-06 1.50477e-06
-9.41473e-06 6.57623e-05 2.37647e-06
1.50477e-06 2.37647e-06 8.3667e-05
0.000956156 -1.36136e-05 -1.2467e-06
-1.36136e-05 4.17983e-05 -1.51248e-06
-1.2467e-06 -1.51248e-06 5.95545e-05
0.000875668 7.29195e-06 2.67299e-07
7.29195e-06 3.14583e-06 -1.56831e-06
2.67299e-07 -1.56831e-06 -2.05397e-05
0.000872514 1.03173e-05 -3.89714e-08
1.03173e-05 2.84143e-06 8.84501e-09
-3.89714e-08 8.84501e-09 -2.25092e-05
0.000804375 1.32374e-05 6.30589e-07
1.32374e-05 -3.93531e-05 -3.0848e-06
6.30589e-07 -3.0848e-06 -3.85954e-05
0.00108765 1.91648e-05 -4.6453e-07
1.91648e-05 0.000114216 3.70075e-08
-4.6453e-07 3.70075e-08 0.000114556
0.00212533 2.35516e-05 1.25091e-05
2.35516e-05 0.000662812 -3.8092e-06
1.25091e-05 -3.8092e-06 0.000684709
0.000817441 2.15176e-05 -1.58777e-06
2.15176e-05 -2.35166e-05 3.1994e-06
-1.58777e-06 3.1994e-06 -2.67725e-05
0.00217653 2.96978e-05 -1.20179e-06
2.96978e-05 0.000695155 -5.28266e-08
-1.20179e-06 -5.28266e-08 0.000715474
0.00223781 3.52742e-05 -2.0292e-05
3.52742e-05 0.000733592 3.77666e-06
-2.0292e-05 3.77666e-06 0.000752164
0.00159228 2.83919e-05 -2.43382e-07
2.83919e-05 3.1212e-05 2.51062e-07
-2.43382e-07 2.51062e-07 -5.62751e-05
0.00177838 -6.49402e-06 3.9884e-07
-6.49402e-06 0.000108216 -8.50511e-07
3.9884e-07 -8.50511e-07 1.53434e-05
0.00171594 6.48372e-06 5.70856e-07
6.48372e-06 8.40394e-05 9.80637e-09
5.70856e-07 9.80637e-09 -2.26212e-05
0.00177418 6.39798e-06 4.4835e-07
6.39798e-06 0.00010521 3.74062e-07
4.4835e-07 3.74062e-07 5.77191e-06
0.00177218 6.76985e-07 -2.4722e-07
6.76985e-07 0.000107227 5.57067e-08
-2.4722e-07 5.57067e-08 1.68265e-05
0.00167265 -5.66782e-06 1.17111e-06
-5.66782e-06 5.12838e-05 -4.74225e-08
1.17111e-06 -4.74225e-08 -3.44298e-05
0.00164269 9.45313e-06 -9.42065e-07
9.45313e-06 3.23473e-05 -4.95164e-07
-9.42065e-07 -4.95164e-07 -5.40108e-05
0.00351354 -7.21488e-05 1.50418e-06
-7.21488e-05 0.000902062 -3.7227e-06
1.50418e-06 -3.7227e-06 0.000852967
0.00146897 -5.67794e-06 2.04336e-07
-5.67794e-06 -0.000110815 1.58856e-08
2.04336e-07 1.58856e-08 -0.000185164
0.000908804 1.21056e-05 1.50268e-07
1.21056e-05 3.25356e-05 -7.08819e-07
1.50268e-07 -7.08819e-07 -7.21154e-06
0.00187193 1.98584e-05 1.37932e-06
1.98584e-05 0.000157482 -2.12924e-07
1.37932e-06 -2.12924e-07 5.78952e-05
0.00190588 -1.86988e-05 -1.52828e-06
-1.86988e-05 0.000147503 -8.58068e-07
-1.52828e-06 -8.58068e-07 4.93633e-05
0.00141373 -6.9749e-05 5.0654e-07
-6.9749e-05 -8.63721e-05 2.03407e-06
5.0654e-07 2.03407e-06 -0.000171111
0.000895657 -7.7833e-05 1.33898e-06
-7.7833e-05 4.87327e-05 1.41693e-07
1.33898e-06 1.41693e-07 -4.20603e-05
0.00127155 -0.000105089 -1.04172e-07
-0.000105089 0.000210955 3.06375e-06
-1.04172e-07 3.06375e-06 7.88622e-05
0.00107351 -0.000104325 6.00083e-07
-0.000104325 6.40615e-06 -5.77733e-07
6.00083e-07 -5.77733e-07 -0.000128073
0.00160301 -0.000111264 -2.14804e-06
-0.000111264 7.74961e-05 -9.8045e-07
-2.14804e-06 -9.8045e-07 -1.30616e-06
0.00110734 -8.50635e-05 2.51635e-06
-8.50635e-05 0.000120619 -2.77159e-06
2.51635e-06 -2.77159e-06 3.32613e-05
0.000801049 -7.55871e-05 -2.85725e-06
-7.55871e-05 -4.36681e-07 -6.08938e-06
-2.85725e-06 -6.08938e-06 -8.38908e-05
0.000766391 -5.51476e-05 1.69228e-07
-5.51476e-05 -1.37525e-05 2.45474e-07
1.69228e-07 2.45474e-07 -0.000112173
0.000872349 1.31695e-05 -7.25743e-07
1.31695e-05 5.12904e-06 1.67826e-06
-7.25743e-07 1.67826e-06 -2.24124e-05
0.000972307 -1.13963e-05 -4.01082e-08
-1.13963e-05 7.6344e-05 -5.16554e-07
-4.01082e-08 -5.16554e-07 -2.50521e-07
0.00113439 -3.03183e-05 -4.25777e-07
-3.03183e-05 0.000155332 5.04108e-07
-4.25777e-07 5.04108e-07 0.000106742
0.000953887 -9.1309e-08 -3.28502e-07
-9.1309e-08 6.60971e-05 1.00509e-06
-3.28502e-07 1.00509e-06 7.71165e-07
0.000733247 9.71663e-06 1.99967e-07
9.71663e-06 -5.88269e-05 8.24733e-07
1.99967e-07 8.24733e-07 -0.000101971
0.00174273 1.52885e-05 -6.40125e-07
1.52885e-05 7.41819e-05 -1.76138e-07
-6.40125e-07 -1.76138e-07 -1.07036e-05
0.000821622 9.99148e-06 2.38653e-07
9.99148e-06 -1.05791e-05 -4.71442e-07
2.38653e-07 -4.71442e-07 -5.31097e-05
0.000890356 -1.88688e-05 -3.84631e-07
-1.88688e-05 2.67036e-05 2.81873e-08
-3.84631e-07 2.81873e-08 -2.01279e-05
0.00093575 -9.64936e-06 -7.26258e-07
-9.64936e-06 6.11008e-05 4.70727e-07
-7.26258e-07 4.70727e-07 2.54702e-06
0.001904 -2.94946e-05 1.90731e-06
-2.94946e-05 0.000127386 5.7189e-07
1.90731e-06 5.7189e-07 3.14007e-05
0.00193852 -0.000110158 -1.31282e-06
-0.000110158 0.00011992 -5.18685e-07
-1.31282e-06 -5.18685e-07 5.19651e-05
0.000966621 -7.95569e-05 -8.73354e-07
-7.95569e-05 6.87334e-05 6.14119e-07
-8.73354e-07 6.14119e-07 -2.47885e-05
0.00106825 -0.000108819 5.12033e-07
-0.000108819 9.99781e-05 -8.51929e-07
5.12033e-07 -8.51929e-07 -6.39581e-05
0.00141973 -0.000128546 6.53811e-07
-0.000128546 6.3928e-05 5.99806e-07
6.53811e-07 5.99806e-07 -4.94642e-05
0.000918293 1.10062e-05 -1.7614e-07
1.10062e-05 5.10014e-05 4.00676e-08
-1.7614e-07 4.00676e-08 -1.39884e-05
0.00102385 -2.05967e-05 -1.41223e-07
-2.05967e-05 0.000107968 -2.46531e-09
-1.41223e-07 -2.46531e-09 3.37479e-05
0.000829379 -8.12039e-05 -2.98155e-06
-8.12039e-05 6.48618e-06 6.95602e-07
-2.98155e-06 6.95602e-07 -8.26506e-05
0.00110007 -5.09623e-05 3.7722e-07
-5.09623e-05 0.000168639 -4.29258e-07
3.7722e-07 -4.29258e-07 6.549e-05
0.000905705 -2.83179e-05 9.4815e-08
-2.83179e-05 5.58711e-05 7.34824e-07
9.4815e-08 7.34824e-07 -3.08896e-05
0.00184601 6.21735e-06 -1.65052e-06
6.21735e-06 0.000108663 7.80962e-07
-1.65052e-06 7.80962e-07 2.75833e-05
0.00230651 -6.65754e-05 -2.5027e-07
-6.65754e-05 0.00027737 -1.38446e-06
-2.5027e-07 -1.38446e-06 0.000207
0.00175403 -0.000143081 3.81079e-06
-0.000143081 6.08984e-05 -3.1772e-06
3.81079e-06 -3.1772e-06 -2.96564e-05
0.00157221 -0.000138639 -3.31383e-06
-0.000138639 0.00027638 1.99037e-07
-3.31383e-06 1.99037e-07 0.000131213
0.00110828 -9.58113e-05 4.14928e-07
-9.58113e-05 0.000163885 -1.25015e-06
4.14928e-07 -1.25015e-06 3.94876e-05
0.000747581 1.11005e-05 7.543e-08
1.11005e-05 -3.7706e-05 -7.22052e-07
7.543e-08 -7.22052e-07 -9.50288e-05
0.000857143 2.88546e-05 1.00327e-07
2.88546e-05 2.15661e-05 -9.09651e-07
1.00327e-07 -9.09651e-07 -4.15001e-05
0.00109745 1.13751e-05 4.37763e-07
1.13751e-05 0.000145873 3.67922e-07
4.37763e-07 3.67922e-07 7.88918e-05
0.000959872 -3.52266e-05 8.01893e-07
-3.52266e-05 7.97287e-05 -2.5382e-07
8.01893e-07 -2.5382e-07 6.20606e-06
0.00108542 -2.37784e-06 3.12766e-07
-2.37784e-06 0.00014121 7.6797e-07
3.12766e-07 7.6797e-07 6.31873e-05
0.000890429 -2.12918e-05 -5.08863e-07
-2.12918e-05 5.7205e-05 -8.6841e-07
-5.08863e-07 -8.6841e-07 -3.56652e-05
0.000858269 -6.11684e-05 5.29619e-06
-6.11684e-05 6.31328e-05 1.26028e-06
5.29619e-06 1.26028e-06 -5.90994e-05
0.000950223 3.49516e-05 -6.46444e-07
3.49516e-05 6.81792e-05 -1.3961e-06
-6.46444e-07 -1.3961e-06 -6.87774e-06
0.0009016 5.87117e-05 -8.80296e-08
5.87117e-05 5.55146e-05 -1.22084e-07
-8.80296e-08 -1.22084e-07 -3.85782e-05
0.00181163 1.60066e-05 9.50357e-07
1.60066e-05 0.000123581 -1.20826e-08
9.50357e-07 -1.20826e-08 3.74644e-05
0.00118062 6.65118e-05 -1.13183e-07
6.65118e-05 -0.000242414 -6.34751e-07
-1.13183e-07 -6.34751e-07 -0.000309844
0.00232994 0.000154344 -2.10406e-06
0.000154344 0.000470001 1.16701e-06
-2.10406e-06 1.16701e-06 0.0003669
0.000760495 7.42925e-05 -3.74105e-07
7.42925e-05 -2.38847e-05 -8.17596e-07
-3.74105e-07 -8.17596e-07 -0.000141924
0.00151418 0.000123926 -8.66371e-07
0.000123926 0.000305585 3.26543e-07
-8.66371e-07 3.26543e-07 0.000160374
0.00103002 3.1269e-05 2.83757e-09
3.1269e-05 0.00011422 9.06389e-08
2.83757e-09 9.06389e-08 3.00552e-05
0.00173331 4.05816e-05 -1.55493e-06
4.05816e-05 1.36161e-05 -2.98005e-07
-1.55493e-06 -2.98005e-07 -5.49763e-05
0.00119851 8.2137e-05 -5.51987e-07
8.2137e-05 0.000198915 -3.96725e-08
-5.51987e-07 -3.96725e-08 9.62808e-05
0.00129836 0.000101853 -6.44298e-07
0.000101853 0.000247185 7.2933e-07
-6.44298e-07 7.2933e-07 0.000115849
0.00190979 0.000132686 1.36784e-06
0.000132686 7.83136e-05 -8.25228e-07
1.36784e-06 -8.25228e-07 2.39719e-05
0.00126612 0.000122247 -1.00117e-06
0.000122247 0.000108647 1.43611e-06
-1.00117e-06 1.43611e-06 -4.24925e-05
0.00179021 3.46174e-05 1.78367e-06
3.46174e-05 0.000114556 -1.90286e-06
1.78367e-06 -1.90286e-06 4.66597e-05
0.00106223 5.00952e-05 -3.94477e-07
5.00952e-05 0.000126637 -4.73888e-07
-3.94477e-07 -4.73888e-07 3.47452e-05
0.00201558 0.000104375 7.49429e-07
0.000104375 8.97868e-05 -5.41062e-06
7.49429e-07 -5.41062e-06 7.71607e-05
0.00128209 9.69468e-05 -1.36885e-06
9.69468e-05 0.000250336 -5.17838e-07
-1.36885e-06 -5.17838e-07 0.000143474
0.00101454 9.77076e-05 -1.60565e-06
9.77076e-05 0.000118701 5.10715e-07
-1.60565e-06 5.10715e-07 -4.11381e-05
0.000343524 0.000129658 -8.60209e-07
0.000129658 -0.000484771 -1.79331e-06
-8.60209e-07 -1.79331e-06 -0.000609917
0.00617831 -9.83856e-05 -2.95218e-05
-9.83856e-05 0.00198854 -6.37686e-06
-2.95218e-05 -6.37686e-06 0.00143239
0.00228134 -3.7739e-05 6.48199e-05
-3.7739e-05 -9.3699e-05 3.72515e-06
6.48199e-05 3.72515e-06 -0.000455001
0.0011393 0.000144611 1.21079e-05
0.000144611 -0.000199187 9.31481e-06
1.21079e-05 9.31481e-06 -0.00014918
-0.00246039 -0.00024297 -2.39744e-05
-0.00024297 -0.00122026 -1.78374e-05
-2.39744e-05 -1.78374e-05 -0.00112866
0.00227985 -0.000349595 -2.03327e-05
-0.000349595 0.000177869 -3.81978e-06
-2.03327e-05 -3.81978e-06 0.0010013
0.000988024 1.11774e-05 -4.52353e-07
1.11774e-05 8.6039e-05 -9.70594e-07
-4.52353e-07 -9.70594e-07 9.32222e-06
0.00103148 2.21885e-05 1.56457e-07
2.21885e-05 0.000107688 -1.98801e-07
1.56457e-07 -1.98801e-07 2.58153e-05
0.00107365 4.04584e-05 2.56895e-08
4.04584e-05 0.000125187 2.18379e-07
2.56895e-08 2.18379e-07 4.21912e-05
0.000888361 -3.37085e-05 2.79881e-07
-3.37085e-05 2.29994e-05 -8.70838e-07
2.79881e-07 -8.70838e-07 -2.29629e-05
0.000788444 1.11592e-05 -2.21124e-07
1.11592e-05 -2.25353e-05 -6.05251e-07
-2.21124e-07 -6.05251e-07 -7.89954e-05
0.000985091 -2.94617e-05 -6.96618e-08
-2.94617e-05 8.33482e-05 -4.96633e-07
-6.96618e-08 -4.96633e-07 1.96716e-05
0.00104518 -7.22536e-06 -2.52261e-07
-7.22536e-06 0.000116951 -3.8298e-07
-2.52261e-07 -3.8298e-07 4.58232e-05
0.000938252 6.64302e-06 8.47471e-08
6.64302e-06 6.01492e-05 -1.34995e-06
8.47471e-08 -1.34995e-06 -1.80447e-05
0.00096647 1.5678e-05 -4.45938e-07
1.5678e-05 7.13978e-05 -3.66526e-07
-4.45938e-07 -3.66526e-07 8.11616e-06
0.000837907 3.53962e-06 9.16169e-08
3.53962e-06 -5.87437e-06 4.25211e-07
9.16169e-08 4.25211e-07 -5.13259e-05
0.000885331 1.6312e-06 -2.16504e-07
1.6312e-06 2.72995e-05 -5.0454e-09
-2.16504e-07 -5.0454e-09 -3.00916e-05
0.000957364 7.31543e-06 -2.05305e-08
7.31543e-06 7.0075e-05 1.34733e-07
-2.05305e-08 1.34733e-07 -7.44033e-06
0.000972883 2.49554e-06 1.06084e-07
2.49554e-06 8.02254e-05 -5.98583e-08
1.06084e-07 -5.98583e-08 1.21517e-05
0.00091317 1.80931e-05 4.20639e-07
1.80931e-05 4.80685e-05 -2.46774e-07
4.20639e-07 -2.46774e-07 -1.86955e-05
0.00101784 2.44268e-05 4.46899e-07
2.44268e-05 0.00010226 3.39553e-07
4.46899e-07 3.39553e-07 2.92708e-05
0.000854096 5.98475e-06 3.34062e-07
5.98475e-06 7.06665e-06 5.84764e-07
3.34062e-07 5.84764e-07 -5.54661e-05
0.00084562 3.54079e-07 6.54467e-07
3.54079e-07 2.99951e-06 1.7799e-07
6.54467e-07 1.7799e-07 -5.46084e-05
0.000747823 -2.9463e-05 -1.19483e-06
-2.9463e-05 -5.28362e-05 1.24889e-06
-1.19483e-06 1.24889e-06 -9.89309e-05
0.000968863 6.8607e-06 -2.45697e-07
6.8607e-06 6.96536e-05 2.44964e-07
-2.45697e-07 2.44964e-07 1.27723e-05
0.00104373 6.00867e-05 1.02365e-07
6.00867e-05 0.000113087 2.09507e-07
1.02365e-07 2.09507e-07 4.98492e-05
0.000909809 3.95348e-06 -4.78387e-07
3.95348e-06 4.31875e-05 4.2971e-07
-4.78387e-07 4.2971e-07 -1.33681e-05
0.000959562 1.11986e-05 4.04944e-07
1.11986e-05 6.66355e-05 -3.31586e-07
4.04944e-07 -3.31586e-07 1.0698e-05
0.000903986 -1.76979e-05 -1.11443e-06
-1.76979e-05 2.85353e-05 7.04969e-07
-1.11443e-06 7.04969e-07 -1.5557e-05
0.000775862 4.08727e-06 1.05506e-07
4.08727e-06 -3.72332e-05 3.59564e-07
1.05506e-07 3.59564e-07 -8.35875e-05
0.000867875 1.21451e-05 -8.85988e-08
1.21451e-05 1.63514e-06 1.61719e-06
-8.85988e-08 1.61719e-06 -2.49939e-05
0.00086159 3.68296e-06 -1.81789e-07
3.68296e-06 -1.78351e-06 7.67061e-10
-1.81789e-07 7.67061e-10 -2.82433e-05
0.000828106 4.39596e-06 -3.11371e-07
4.39596e-06 -2.97125e-05 4.24134e-06
-3.11371e-07 4.24134e-06 -2.94166e-05
0.000862087 -6.71121e-06 3.232e-07
-6.71121e-06 -1.91003e-06 -1.54762e-06
3.232e-07 -1.54762e-06 -2.8105e-05
0.000815362 4.52154e-07 1.3101e-07
4.52154e-07 -3.7344e-05 -9.96795e-10
1.3101e-07 -9.96795e-10 -3.66861e-05
0.00212789 -9.62251e-07 9.64954e-08
-9.62251e-07 0.00065605 3.93667e-06
9.64954e-08 3.93667e-06 0.000679436
0.000833144 -3.41854e-06 -5.30689e-07
-3.41854e-06 -2.7427e-05 -4.22141e-06
-5.30689e-07 -4.22141e-06 -2.66681e-05
0.00156309 -5.39315e-06 -2.18208e-07
-5.39315e-06 0.000358128 1.869e-08
-2.18208e-07 1.869e-08 0.000378779
0.000969706 -8.99324e-06 -7.7082e-07
-8.99324e-06 4.57192e-05 -1.49597e-06
-7.7082e-07 -1.49597e-06 6.38851e-05
0.000879288 3.44779e-06 4.76959e-08
3.44779e-06 3.81517e-06 -1.61429e-06
4.76959e-08 -1.61429e-06 -1.86356e-05
0.000874414 6.72095e-06 2.7598e-08
6.72095e-06 2.22744e-06 1.97785e-09
2.7598e-08 1.97785e-09 -2.14129e-05
0.000811456 8.9563e-06 3.94682e-07
8.9563e-06 -3.85096e-05 -3.04425e-06
3.94682e-07 -3.04425e-06 -3.63864e-05
0.0008756 9.82324e-06 -5.54729e-07
9.82324e-06 4.145e-06 1.61831e-06
-5.54729e-07 1.61831e-06 -2.11971e-05
0.00107865 1.45295e-05 -2.1856e-07
1.45295e-05 0.000105191 -6.01681e-07
-2.1856e-07 -6.01681e-07 0.000107337
0.00209316 1.76423e-05 9.27795e-06
1.76423e-05 0.000642126 -3.84251e-06
9.27795e-06 -3.84251e-06 0.000665093
0.000816325 1.77493e-05 -1.17458e-06
1.77493e-05 -2.88208e-05 3.15596e-06
-1.17458e-06 3.15596e-06 -3.00561e-05
0.00215479 2.31637e-05 -5.06932e-06
2.31637e-05 0.000679351 1.09551e-06
-5.06932e-06 1.09551e-06 0.00070096
0.00218789 2.98173e-05 -1.70203e-05
2.98173e-05 0.000701848 3.83441e-06
-1.70203e-05 3.83441e-06 0.000721946
0.00167321 1.07424e-06 8.32968e-07
1.07424e-06 5.84613e-05 2.19783e-07
8.32968e-07 2.19783e-07 -3.17131e-05
0.00176656 8.94854e-06 7.50008e-07
8.94854e-06 0.000100465 -2.96657e-07
7.50008e-07 -2.96657e-07 8.00798e-07
0.00185047 -7.87112e-06 2.76141e-06
-7.87112e-06 0.000148881 -6.78907e-07
2.76141e-06 -6.78907e-07 6.35229e-05
0.00160755 -3.73431e-05 5.20996e-07
-3.73431e-05 -5.12442e-05 5.68967e-07
5.20996e-07 5.68967e-07 -0.000101891
0.00181312 8.6653e-06 -5.48444e-07
8.6653e-06 0.000114905 2.52105e-07
-5.48444e-07 2.52105e-07 2.93504e-05
0.00167195 1.57869e-06 1.01584e-06
1.57869e-06 5.79795e-06 4.96926e-07
1.01584e-06 4.96926e-07 -7.08954e-05
0.00212818 2.35299e-05 8.37857e-07
2.35299e-05 0.000214007 7.40354e-07
8.37857e-07 7.40354e-07 0.000124859
0.00293905 -0.000143127 0.000136533
-0.000143127 0.000514031 2.48048e-05
0.000136533 2.48048e-05 0.00029874
0.00114271 -4.84112e-05 -5.90656e-06
-4.84112e-05 -0.000262865 1.28721e-07
-5.90656e-06 1.28721e-07 -0.00032693
0.000907851 1.50424e-05 -5.8488e-07
1.50424e-05 3.28502e-05 -7.68685e-07
-5.8488e-07 -7.68685e-07 -7.01406e-06
0.000906194 -1.39178e-05 5.2806e-07
-1.39178e-05 3.27806e-05 -3.12916e-08
5.2806e-07 -3.12916e-08 -8.14801e-06
0.000908853 -2.53684e-05 -1.94442e-07
-2.53684e-05 4.33584e-05 -1.0357e-08
-1.94442e-07 -1.0357e-08 -8.68905e-06
0.000910462 -2.51133e-05 -6.89133e-07
-2.51133e-05 5.19989e-05 8.39458e-08
-6.89133e-07 8.39458e-08 -3.4141e-06
0.00187927 1.42941e-05 2.50612e-06
1.42941e-05 0.000147162 -1.07285e-06
2.50612e-06 -1.07285e-06 6.28271e-05
0.00193537 -3.0485e-05 3.36878e-06
-3.0485e-05 0.000135336 -4.94927e-07
3.36878e-06 -4.94927e-07 4.05857e-05
0.00199779 -0.0001135 -3.04866e-06
-0.0001135 0.000163664 1.59186e-06
-3.04866e-06 1.59186e-06 9.24509e-05
0.000682102 -7.00387e-05 1.13685e-06
-7.00387e-05 -8.65614e-05 2.13478e-06
1.13685e-06 2.13478e-06 -0.000176989
0.00055713 -8.5986e-05 2.27937e-06
-8.5986e-05 -0.000150816 -1.18937e-07
2.27937e-06 -1.18937e-07 -0.000314098
0.0014917 -0.00013351 -6.70651e-07
-0.00013351 0.000101381 -1.05632e-06
-6.70651e-07 -1.05632e-06 -1.15221e-05
0.000793854 -7.96128e-05 -4.84658e-06
-7.96128e-05 -9.86905e-06 -8.36677e-08
-4.84658e-06 -8.36677e-08 -0.000101423
0.00105274 -3.88994e-05 -8.2437e-07
-3.88994e-05 0.000142517 -8.07398e-07
-8.2437e-07 -8.07398e-07 4.15929e-05
0.00107596 -4.18705e-05 -6.7155e-07
-4.18705e-05 0.000144139 9.61285e-07
-6.7155e-07 9.61285e-07 5.74148e-05
0.000899637 -1.79185e-07 -8.8262e-07
-1.79185e-07 3.17143e-05 1.03325e-06
-8.8262e-07 1.03325e-06 -1.54437e-05
0.000955161 -3.34057e-05 -1.47392e-07
-3.34057e-05 7.51642e-05 3.56541e-08
-1.47392e-07 3.56541e-08 -9.67337e-07
0.00100892 9.27783e-06 -6.69407e-07
9.27783e-06 9.67346e-05 6.79753e-07
-6.69407e-07 6.79753e-07 3.3673e-05
0.000908121 -4.16975e-06 -2.59435e-09
-4.16975e-06 3.48208e-05 2.97492e-07
-2.59435e-09 2.97492e-07 -7.55537e-06
0.000762247 1.75574e-05 1.82703e-07
1.75574e-05 -2.87331e-05 1.05909e-06
1.82703e-07 1.05909e-06 -8.88708e-05
0.00174477 6.43864e-06 -7.8834e-07
6.43864e-06 6.41857e-05 8.39346e-07
-7.8834e-07 8.39346e-07 -1.63938e-05
0.000913402 9.51467e-06 4.03094e-07
9.51467e-06 4.76471e-05 -4.92885e-07
4.03094e-07 -4.92885e-07 -7.8907e-06
0.000878979 1.49419e-05 5.10146e-07
1.49419e-05 3.25503e-05 9.0506e-09
5.10146e-07 9.0506e-09 -2.93607e-05
0.000980935 3.59415e-05 -2.59988e-07
3.59415e-05 8.52111e-05 8.26601e-07
-2.59988e-07 8.26601e-07 1.78952e-05
0.00206645 -6.51286e-05 -3.96111e-06
-6.51286e-05 0.000154457 4.97243e-07
-3.96111e-06 4.97243e-07 7.97511e-05
0.00163197 -0.000135266 -4.10738e-07
-0.000135266 6.02204e-06 -6.18992e-07
-4.10738e-07 -6.18992e-07 -8.34525e-05
0.000977212 -9.19603e-05 -6.37123e-08
-9.19603e-05 8.42726e-05 -3.85025e-07
-6.37123e-08 -3.85025e-07 -3.60848e-05
0.00169726 -0.000143768 -1.4298e-07
-0.000143768 0.000343087 -1.08524e-06
-1.4298e-07 -1.08524e-06 0.000192219
0.000999124 -1.41825e-05 -3.71809e-07
-1.41825e-05 9.72832e-05 1.10433e-07
-3.71809e-07 1.10433e-07 2.56925e-05
0.000990695 -1.20532e-05 1.46288e-07
-1.20532e-05 9.57307e-05 6.98244e-07
1.46288e-07 6.98244e-07 1.68169e-05
0.000906254 -6.3103e-05 2.74166e-06
-6.3103e-05 8.1658e-05 -7.86052e-07
2.74166e-06 -7.86052e-07 -3.58178e-05
0.00105569 -4.11854e-05 1.91301e-07
-4.11854e-05 0.000144247 -7.397e-07
1.91301e-07 -7.397e-07 4.70994e-05
0.00157823 2.72555e-06 -4.14803e-07
2.72555e-06 -5.57795e-05 1.78101e-06
-4.14803e-07 1.78101e-06 -0.000135444
0.0025386 -0.000145032 9.14365e-06
-0.000145032 0.000333601 -3.20237e-06
9.14365e-06 -3.20237e-06 0.000252334
0.00194033 -0.000154547 1.75556e-07
-0.000154547 0.000345546 -3.81658e-06
1.75556e-07 -3.81658e-06 0.00020822
0.00114912 -0.000111847 -1.84151e-06
-0.000111847 0.000180895 4.81882e-07
-1.84151e-06 4.81882e-07 4.62531e-05
0.000884534 1.97868e-05 -7.39828e-07
1.97868e-05 3.89983e-05 -1.1672e-07
-7.39828e-07 -1.1672e-07 -3.27167e-05
0.000920486 -3.83882e-05 9.42574e-07
-3.83882e-05 6.10176e-05 -7.75418e-07
9.42574e-07 -7.75418e-07 -1.10949e-05
0.000981059 -3.36583e-05 3.9752e-07
-3.36583e-05 9.09494e-05 -1.22827e-07
3.9752e-07 -1.22827e-07 1.08086e-05
0.000987005 -1.40686e-05 -1.56801e-06
-1.40686e-05 0.000118739 7.4393e-07
-1.56801e-06 7.4393e-07 -3.4863e-06
0.000277126 -2.81319e-05 -3.85995e-06
-2.81319e-05 -0.000783165 -4.80037e-06
-3.85995e-06 -4.80037e-06 -0.00127211
0.00103553 2.70346e-05 -1.98672e-07
2.70346e-05 0.000116995 -8.01022e-07
-1.98672e-07 -8.01022e-07 3.45306e-05
0.000931023 7.10501e-05 7.87893e-07
7.10501e-05 6.69173e-05 3.53989e-07
7.87893e-07 3.53989e-07 -3.44383e-05
0.00107706 3.42644e-05 1.77844e-06
3.42644e-05 -0.000338554 3.28981e-07
1.77844e-06 3.28981e-07 -0.000404252
0.00170913 0.000118428 -2.82809e-06
0.000118428 -2.13948e-05 1.72778e-06
-2.82809e-06 1.72778e-06 -7.63887e-05
0.00159834 0.00013594 -2.39983e-06
0.00013594 0.000285889 1.95008e-06
-2.39983e-06 1.95008e-06 0.000127085
0.000802222 8.00048e-05 1.05333e-06
8.00048e-05 4.30336e-06 1.29891e-07
1.05333e-06 1.29891e-07 -0.000127358
0.00271308 2.45063e-05 -7.2398e-06
2.45063e-05 0.000439399 4.8328e-07
-7.2398e-06 4.8328e-07 0.000366882
0.00103458 4.92325e-05 2.59109e-07
4.92325e-05 0.00011632 -2.5697e-07
2.59109e-07 -2.5697e-07 2.47846e-05
0.00193564 0.00010344 -2.37437e-06
0.00010344 4.86165e-05 -1.73932e-06
-2.37437e-06 -1.73932e-06 3.73089e-05
0.0010961 8.90674e-05 8.10125e-07
8.90674e-05 0.000158685 -3.1204e-07
8.10125e-07 -3.1204e-07 5.22017e-05
0.00101326 9.9301e-05 -2.21102e-07
9.9301e-05 0.000120636 8.54403e-08
-2.21102e-07 8.54403e-08 -3.86548e-05
0.000760498 0.000143393 -3.13215e-06
0.000143393 -0.000301784 2.1769e-07
-3.13215e-06 2.1769e-07 -0.000418736
0.00180855 -0.000154229 -2.3262e-05
-0.000154229 -4.69622e-05 -7.74402e-06
-2.3262e-05 -7.74402e-06 -0.000562598
0.00303495 -0.000105252 8.25287e-06
-0.000105252 0.000158793 -1.06351e-05
8.25287e-06 -1.06351e-05 -0.000267414
0.00107 0.000137366 3.27004e-06
0.000137366 -0.000230757 1.04158e-06
3.27004e-06 1.04158e-06 -0.000180097
-0.00125156 -0.000239533 8.49258e-06
-0.000239533 -0.000581271 9.19315e-07
8.49258e-06 9.19315e-07 -0.000673839
0.000515239 -0.000379095 9.01483e-06
-0.000379095 -0.000818526 1.20323e-06
9.01483e-06 1.20323e-06 0.000100571
0.00113279 6.6659e-05 3.34422e-07
6.6659e-05 0.00016916 -3.62368e-07
3.34422e-07 -3.62368e-07 7.86328e-05
0.000184985 4.67515e-05 -8.88657e-05
4.67515e-05 5.34355e-05 -1.90532e-05
-8.88657e-05 -1.90532e-05 -0.000157502
0.00167013 -0.000219915 -2.5243e-05
-0.000219915 0.000514962 -1.59989e-05
-2.5243e-05 -1.59989e-05 0.000866133
0.00123561 0.00012819 -6.54182e-07
0.00012819 -0.000231005 -1.7628e-06
-6.54182e-07 -1.7628e-06 -0.000202859
0.000940136 4.10812e-05 -6.03977e-07
4.10812e-05 9.26081e-05 -4.46457e-07
-6.03977e-07 -4.46457e-07 -2.54886e-05
0.00137013 0.000101242 -5.1509e-06
0.000101242 0.000323288 -2.65734e-07
-5.1509e-06 -2.65734e-07 0.000130029
0.00155041 0.000176693 5.03695e-06
0.000176693 0.000112157 1.4449e-05
5.03695e-06 1.4449e-05 0.000137912
0.0063417 -0.000272521 -5.91724e-05
-0.000272521 0.00199454 -1.75164e-05
-5.91724e-05 -1.75164e-05 0.00111525
0.00159965 1.79451e-05 1.53417e-05
1.79451e-05 -0.000625891 2.23519e-05
1.53417e-05 2.23519e-05 -0.00118365
-0.000162449 -0.000356796 -4.87788e-05
-0.000356796 -0.000293733 -1.86493e-05
-4.87788e-05 -1.86493e-05 -5.09e-05
2.59958e-05 -0.000172078 -2.26795e-05
-0.000172078 -0.00148932 -3.29697e-07
-2.26795e-05 -3.29697e-07 -0.000976784
0.00101104 1.67634e-05 -3.01487e-07
1.67634e-05 9.89523e-05 -8.88314e-07
-3.01487e-07 -8.88314e-07 1.77954e-05
0.00103214 3.67441e-05 -3.71232e-07
3.67441e-05 0.000105058 1.22127e-07
-3.71232e-07 1.22127e-07 2.24343e-05
0.00119517 6.18384e-05 -3.43141e-07
6.18384e-05 0.000190424 -3.51952e-07
-3.43141e-07 -3.51952e-07 0.000109187
0.000894156 1.95219e-06 -1.99868e-08
1.95219e-06 2.67889e-05 -4.27962e-07
-1.99868e-08 -4.27962e-07 -1.99415e-05
0.000949669 -1.04265e-05 -2.09441e-07
-1.04265e-05 6.08289e-05 -5.47431e-07
-2.09441e-07 -5.47431e-07 3.79997e-06
0.000908529 -7.706e-06 -1.30138e-07
-7.706e-06 3.91366e-05 -8.70415e-07
-1.30138e-07 -8.70415e-07 -2.35672e-05
0.000970859 2.50788e-07 1.60905e-08
2.50788e-07 7.77642e-05 -3.53429e-07
1.60905e-08 -3.53429e-07 9.69432e-06
0.00094848 4.7919e-06 -8.20798e-08
4.7919e-06 6.65206e-05 -3.76696e-07
-8.20798e-08 -3.76696e-07 -1.08438e-05
0.000768154 -6.29352e-06 3.28897e-07
-6.29352e-06 -4.17179e-05 3.91202e-07
3.28897e-07 3.91202e-07 -8.83491e-05
0.000912253 1.00641e-05 -1.23007e-07
1.00641e-05 4.81999e-05 -3.15293e-07
-1.23007e-07 -3.15293e-07 -1.80075e-05
0.000974236 -1.41066e-05 -2.35762e-07
-1.41066e-05 7.14784e-05 3.68515e-07
-2.35762e-07 3.68515e-07 8.24782e-06
0.000919039 1.71844e-05 3.05709e-07
1.71844e-05 4.26692e-05 -1.7394e-07
3.05709e-07 -1.7394e-07 -1.53391e-05
0.000980256 2.51651e-05 -1.64118e-08
2.51651e-05 8.22789e-05 9.00394e-08
-1.64118e-08 9.00394e-08 8.62778e-06
0.000904722 6.53582e-06 4.13258e-07
6.53582e-06 3.49941e-05 3.52514e-07
4.13258e-07 3.52514e-07 -3.30521e-05
0.00107403 4.03092e-05 -2.21264e-07
4.03092e-05 0.00013021 -4.38182e-08
-2.21264e-07 -4.38182e-08 5.34844e-05
0.000978438 -4.85711e-05 -5.66123e-08
-4.85711e-05 7.26445e-05 2.2686e-07
-5.66123e-08 2.2686e-07 1.0115e-05
0.000989618 -3.35098e-05 -4.35508e-07
-3.35098e-05 7.90348e-05 -3.89652e-08
-4.35508e-07 -3.89652e-08 2.11354e-05
0.000981598 -2.94695e-06 -2.99983e-07
-2.94695e-06 7.52147e-05 -7.17788e-08
-2.99983e-07 -7.17788e-08 1.8804e-05
0.000962295 4.27906e-05 -2.29883e-07
4.27906e-05 6.75203e-05 -2.93225e-07
-2.29883e-07 -2.93225e-07 5.48823e-06
0.000962854 2.31711e-05 5.79031e-08
2.31711e-05 6.74516e-05 2.33414e-07
5.79031e-08 2.33414e-07 3.5542e-06
0.000937694 3.34104e-05 1.17686e-07
3.34104e-05 5.62002e-05 6.41914e-07
1.17686e-07 6.41914e-07 -6.00885e-06
0.00106573 4.29227e-05 -1.01049e-07
4.29227e-05 0.000117843 4.60493e-08
-1.01049e-07 4.60493e-08 5.1836e-05
0.000898253 3.72266e-06 4.77304e-07
3.72266e-06 4.35349e-05 1.5234e-06
4.77304e-07 1.5234e-06 -2.65998e-05
0.000900711 1.50906e-05 -1.41057e-07
1.50906e-05 3.53244e-05 5.68686e-07
-1.41057e-07 5.68686e-07 -2.01286e-05
0.000907563 2.39535e-06 -1.73139e-08
2.39535e-06 4.06498e-05 -2.63221e-08
-1.73139e-08 -2.63221e-08 -1.49758e-05
0.000896156 4.93412e-06 -8.4204e-07
4.93412e-06 2.55421e-05 6.83345e-07
-8.4204e-07 6.83345e-07 -1.82545e-05
0.000861825 1.67851e-05 2.33159e-07
1.67851e-05 1.22526e-05 -6.06741e-07
2.33159e-07 -6.06741e-07 -4.21693e-05
0.00084886 -9.28912e-06 8.34152e-08
-9.28912e-06 -2.82123e-07 1.93597e-08
8.34152e-08 1.93597e-08 -4.47593e-05
0.0008687 1.1894e-05 -3.8832e-07
1.1894e-05 2.47912e-06 1.66842e-06
-3.8832e-07 1.66842e-06 -2.43135e-05
0.000788675 5.01728e-06 3.51482e-07
5.01728e-06 -2.99993e-05 -4.21762e-07
3.51482e-07 -4.21762e-07 -7.6891e-05
0.000865274 5.23218e-06 -1.57513e-07
5.23218e-06 1.31838e-07 -5.89557e-09
-1.57513e-07 -5.89557e-09 -2.64131e-05
0.00139247 9.44793e-06 -2.67772e-06
9.44793e-06 0.00026974 4.20935e-06
-2.67772e-06 4.20935e-06 0.00027259
0.000858826 -4.41021e-06 5.40631e-07
-4.41021e-06 -3.27769e-06 -1.57557e-06
5.40631e-07 -1.57557e-06 -2.96922e-05
0.00110447 4.90738e-06 -1.1234e-06
4.90738e-06 0.000116157 6.07509e-07
-1.1234e-06 6.07509e-07 0.000117909
0.00101972 2.67864e-06 -2.39186e-06
2.67864e-06 7.10138e-05 3.84562e-06
-2.39186e-06 3.84562e-06 8.86295e-05
0.000818802 4.50715e-07 3.60074e-10
4.50715e-07 -3.55365e-05 -2.99143e-06
3.60074e-10 -2.99143e-06 -3.49016e-05
0.00212973 -6.05777e-07 1.72597e-06
-6.05777e-07 0.000657031 4.50532e-10
1.72597e-06 4.50532e-10 0.000680394
0.00102396 -3.52772e-06 -1.46539e-06
-3.52772e-06 7.31584e-05 -3.83032e-06
-1.46539e-06 -3.83032e-06 9.10525e-05
0.000895618 3.33361e-05 2.42606e-07
3.33361e-05 2.89208e-05 -1.92574e-07
2.42606e-07 -1.92574e-07 -1.26332e-05
0.00088101 -3.36696e-07 1.13663e-08
-3.36696e-07 4.65294e-06 -1.60437e-06
1.13663e-08 -1.60437e-06 -1.73409e-05
0.000879215 2.85158e-06 -5.06505e-08
2.85158e-06 3.67987e-06 -5.05507e-10
-5.06505e-08 -5.05507e-10 -1.8754e-05
0.000819768 4.43262e-06 1.11135e-07
4.43262e-06 -3.60213e-05 -3.01736e-06
1.11135e-07 -3.01736e-06 -3.28924e-05
0.000873737 6.18696e-06 -2.91919e-07
6.18696e-06 1.61197e-06 1.54851e-06
-2.91919e-07 1.54851e-06 -2.19864e-05
0.000812818 9.08492e-06 5.75351e-08
9.08492e-06 -3.80918e-05 -6.1466e-07
5.75351e-08 -6.1466e-07 -3.58966e-05
0.00205929 1.16303e-05 6.1361e-06
1.16303e-05 0.000621632 -3.86043e-06
6.1361e-06 -3.86043e-06 0.00064547
0.00134498 1.67754e-05 -1.28874e-06
1.67754e-05 0.000246189 1.8883e-06
-1.28874e-06 1.8883e-06 0.000249486
0.00156794 1.53768e-05 3.12467e-07
1.53768e-05 0.000365653 1.19911e-06
3.12467e-07 1.19911e-06 0.000385526
0.00106251 1.74666e-05 -1.30734e-05
1.74666e-05 0.000103004 6.2889e-06
-1.30734e-05 6.2889e-06 0.000118849
-0.000548787 5.20841e-06 3.21244e-06
5.20841e-06 -0.00112741 2.20531e-06
3.21244e-06 2.20531e-06 -0.001174
0.00202872 7.44896e-06 1.71169e-06
7.44896e-06 0.000220224 2.70979e-07
1.71169e-06 2.70979e-07 0.000135455
0.00184977 8.88088e-06 -2.61852e-06
8.88088e-06 0.000109651 -1.57285e-06
-2.61852e-06 -1.57285e-06 3.07593e-05
0.00107354 -7.41533e-05 2.953e-05
-7.41533e-05 -0.000207575 2.75873e-06
2.953e-05 2.75873e-06 -0.000411255
0.00167261 -4.34299e-05 -2.44417e-06
-4.34299e-05 4.92172e-05 -4.37412e-07
-2.44417e-06 -4.37412e-07 -2.60383e-05
0.00178722 2.25845e-05 -3.32534e-06
2.25845e-05 2.96792e-05 -2.11759e-06
-3.32534e-06 -2.11759e-06 -5.72216e-05
0.00170061 3.86571e-05 -7.89537e-06
3.86571e-05 0.0001186 1.07208e-06
-7.89537e-06 1.07208e-06 4.20308e-05
0.00162044 -6.96782e-05 0.000121174
-6.96782e-05 6.74041e-05 1.47302e-06
0.000121174 1.47302e-06 -0.000214555
0.00546834 0.000113621 -1.61851e-05
0.000113621 0.00157475 -1.11622e-06
-1.61851e-05 -1.11622e-06 0.000831815
0.00399635 0.000448859 -2.6774e-05
0.000448859 0.00167892 9.86484e-06
-2.6774e-05 9.86484e-06 0.00186264
0.00144411 0.000376768 -1.49535e-05
0.000376768 3.99312e-05 5.99445e-06
-1.49535e-05 5.99445e-06 0.000788247
0.000750394 -3.00962e-05 1.11773e-06
-3.00962e-05 -3.52851e-05 -6.32295e-07
1.11773e-06 -6.32295e-07 -8.91438e-05
0.000911372 -9.64894e-06 1.55785e-07
-9.64894e-06 3.5221e-05 -2.04446e-08
1.55785e-07 -2.04446e-08 -5.0267e-06
0.000907598 -3.90853e-05 -7.71553e-07
-3.90853e-05 3.52237e-05 7.92729e-07
-7.71553e-07 7.92729e-07 -6.96872e-06
0.000863685 -6.10444e-06 -2.90094e-07
-6.10444e-06 2.13491e-05 2.27406e-08
-2.90094e-07 2.27406e-08 -3.19403e-05
0.000927434 3.89522e-05 8.33893e-08
3.89522e-05 6.36406e-05 7.27832e-07
8.33893e-08 7.27832e-07 -2.13245e-07
0.000947412 4.35028e-05 1.56543e-07
4.35028e-05 6.95155e-05 6.64042e-07
1.56543e-07 6.64042e-07 8.84671e-06
0.000952056 -1.9582e-05 7.02881e-07
-1.9582e-05 7.09116e-05 -8.55629e-07
7.02881e-07 -8.55629e-07 1.5626e-05
0.00085882 -4.03553e-05 -5.07627e-07
-4.03553e-05 2.24767e-05 4.73195e-07
-5.07627e-07 4.73195e-07 -3.18122e-05
0.00164406 6.9091e-06 9.04822e-07
6.9091e-06 1.99532e-05 -6.65664e-07
9.04822e-07 -6.65664e-07 -6.0101e-05
0.00174753 -6.27522e-05 -1.41834e-06
-6.27522e-05 -1.26088e-05 3.42995e-07
-1.41834e-06 3.42995e-07 -9.02051e-05
0.00151391 -0.000127627 -6.21462e-06
-0.000127627 -4.66249e-05 1.83523e-06
-6.21462e-06 1.83523e-06 -0.00013472
0.000913855 -9.13041e-05 8.36016e-07
-9.13041e-05 4.21707e-05 7.90103e-07
8.36016e-07 7.90103e-07 -7.60374e-05
0.0016449 -0.000142828 9.23906e-07
-0.000142828 0.000321069 7.06174e-07
9.23906e-07 7.06174e-07 0.000161544
0.000943721 -6.38238e-05 1.87052e-07
-6.38238e-05 9.50702e-05 -1.0175e-06
1.87052e-07 -1.0175e-06 -1.78772e-05
0.00122145 -6.05985e-05 3.14629e-07
-6.05985e-05 0.000231311 -4.67281e-07
3.14629e-07 -4.67281e-07 0.000130085
0.000889633 -2.13221e-05 -3.23755e-07
-2.13221e-05 4.67e-05 1.83569e-07
-3.23755e-07 1.83569e-07 -3.30064e-05
0.000903212 4.51337e-06 3.62958e-07
4.51337e-06 4.50254e-05 6.32291e-07
3.62958e-07 6.32291e-07 -1.59451e-05
0.00105382 -9.35979e-07 -6.87135e-07
-9.35979e-07 0.000123344 2.74971e-07
-6.87135e-07 2.74971e-07 5.32263e-05
0.00109198 2.27825e-06 2.35526e-07
2.27825e-06 0.000138755 -2.10336e-08
2.35526e-07 -2.10336e-08 8.54284e-05
0.00087051 5.93577e-05 1.04129e-06
5.93577e-05 2.76384e-05 1.43452e-06
1.04129e-06 1.43452e-06 -4.007e-05
0.00168176 8.47965e-06 1.84864e-06
8.47965e-06 -1.15605e-05 -2.84774e-06
1.84864e-06 -2.84774e-06 -8.97319e-05
0.000896281 2.04867e-05 -3.66567e-07
2.04867e-05 4.58581e-05 3.8825e-07
-3.66567e-07 3.8825e-07 -2.47821e-05
0.000909102 -2.71748e-05 -2.56988e-07
-2.71748e-05 5.28219e-05 -3.32961e-07
-2.56988e-07 -3.32961e-07 -1.83148e-05
0.00223979 -0.000138556 -3.0493e-06
-0.000138556 0.000187895 -4.51624e-07
-3.0493e-06 -4.51624e-07 0.000111601
0.000952708 -0.000120615 4.62821e-07
-0.000120615 -0.000133274 1.88015e-06
4.62821e-07 1.88015e-06 -0.000264004
0.00125103 -0.000117182 1.2336e-06
-0.000117182 0.000231267 -8.92693e-07
1.2336e-06 -8.92693e-07 9.20636e-05
0.000978386 -3.37894e-05 1.25123e-07
-3.37894e-05 8.87502e-05 -1.48082e-07
1.25123e-07 -1.48082e-07 6.68049e-06
0.00105078 -2.52899e-05 8.64595e-08
-2.52899e-05 0.000151946 2.47054e-07
8.64595e-08 2.47054e-07 2.9156e-05
0.00286453 -7.95349e-05 -8.57426e-06
-7.95349e-05 0.000608612 9.96758e-06
-8.57426e-06 9.96758e-06 0.000545064
0.00307987 -0.00022389 6.0615e-06
-0.00022389 0.000767772 -4.72648e-06
6.0615e-06 -4.72648e-06 0.000634399
0.00038092 -9.95239e-05 -3.65667e-06
-9.95239e-05 -0.000227251 -1.22135e-06
-3.65667e-06 -1.22135e-06 -0.00036281
0.00129869 -7.66044e-05 -2.5327e-06
-7.66044e-05 0.000288046 2.16942e-06
-2.5327e-06 2.16942e-06 0.000138526
0.000797469 -5.44263e-05 7.65082e-07
-5.44263e-05 -2.6328e-06 -8.61196e-08
7.65082e-07 -8.61196e-08 -7.91526e-05
0.00100359 -4.09984e-05 1.69372e-06
-4.09984e-05 9.93045e-05 -2.97659e-07
1.69372e-06 -2.97659e-07 1.80197e-05
0.00112554 -1.84967e-05 -8.95349e-07
-1.84967e-05 0.000164535 4.77319e-07
-8.95349e-07 4.77319e-07 6.85644e-05
-0.00198849 -1.57746e-05 -3.91712e-05
-1.57746e-05 -0.00103811 -9.83758e-07
-3.91712e-05 -9.83758e-07 -0.000934428
0.00640712 -1.84557e-05 -2.32626e-05
-1.84557e-05 0.00216494 -1.90838e-06
-2.32626e-05 -1.90838e-06 0.00161987
0.00101349 5.07966e-05 5.24436e-07
5.07966e-05 0.000109464 -2.80629e-07
5.24436e-07 -2.80629e-07 1.79855e-05
0.000829679 7.75027e-05 1.43897e-06
7.75027e-05 2.49418e-05 -1.27942e-06
1.43897e-06 -1.27942e-06 -8.0593e-05
0.00184076 0.000102284 -6.80619e-06
0.000102284 -3.35501e-06 3.1007e-06
-6.80619e-06 3.1007e-06 -1.11077e-05
0.00142982 0.000165631 -2.49497e-06
0.000165631 4.8973e-06 1.7082e-06
-2.49497e-06 1.7082e-06 -0.000102938
0.00109477 0.00010387 1.38606e-06
0.00010387 0.000164681 -6.39139e-07
1.38606e-06 -6.39139e-07 7.33815e-06
0.00553519 -1.70645e-05 2.84131e-05
-1.70645e-05 0.00158596 -7.75943e-06
2.84131e-05 -7.75943e-06 0.000932311
0.00318511 -0.000115677 -6.22515e-05
-0.000115677 0.000241127 -1.63204e-05
-6.22515e-05 -1.63204e-05 -8.92702e-05
0.000901118 0.000118218 -5.43119e-06
0.000118218 -0.000320701 -9.3062e-06
-5.43119e-06 -9.3062e-06 -0.000261999
0.00301776 -0.000361926 2.88313e-05
-0.000361926 0.00142558 1.66284e-05
2.88313e-05 1.66284e-05 0.0014557
-0.0012266 -0.00041452 1.9314e-05
-0.00041452 -0.00179559 -7.04657e-06
1.9314e-05 -7.04657e-06 -0.000765275
0.00103715 7.35554e-05 -1.08053e-07
7.35554e-05 0.000121268 -2.46509e-07
-1.08053e-07 -2.46509e-07 2.98136e-05
-0.0018171 -9.02083e-05 -3.66265e-06
-9.02083e-05 -0.000982187 -1.44717e-06
-3.66265e-06 -1.44717e-06 -0.000837891
0.000453659 -0.00020529 -8.83264e-06
-0.00020529 -3.36312e-05 -9.70909e-07
-8.83264e-06 -9.70909e-07 0.000181455
0.00203675 0.000145212 -7.66241e-07
0.000145212 0.000161349 -5.09118e-07
-7.66241e-07 -5.09118e-07 0.000184349
0.0010256 5.94645e-05 -1.95711e-07
5.94645e-05 0.000145191 -1.00112e-06
-1.95711e-07 -1.00112e-06 2.96476e-05
0.000913374 9.3781e-05 7.87328e-08
9.3781e-05 9.51385e-05 4.18921e-07
7.87328e-08 4.18921e-07 -9.69436e-05
0.000159185 0.000120689 1.08266e-05
0.000120689 -0.000560006 4.22863e-06
1.08266e-05 4.22863e-06 -0.000517787
0.00465989 -0.000183663 2.89808e-06
-0.000183663 0.00108741 2.31593e-06
2.89808e-06 2.31593e-06 0.000151107
0.0033786 7.97512e-05 -2.34241e-05
7.97512e-05 0.000378316 -1.41397e-05
-2.34241e-05 -1.41397e-05 5.66428e-05
0.00349705 -0.000493479 9.72927e-06
-0.000493479 0.00120239 -1.17837e-06
9.72927e-06 -1.17837e-06 0.00128893
0.000321186 -0.000219714 6.03543e-06
-0.000219714 -0.00148268 1.59264e-05
6.03543e-06 1.59264e-05 -0.000789002
0.00111627 3.49308e-05 -2.05329e-06
3.49308e-05 0.000149575 -9.92413e-07
-2.05329e-06 -9.92413e-07 6.35832e-05
-0.000497289 -5.61566e-05 -2.90911e-05
-5.61566e-05 -0.000347237 -5.77531e-06
-2.90911e-05 -5.77531e-06 -0.000457474
0.00130975 -1.82526e-05 -2.25618e-05
-1.82526e-05 -4.81427e-05 -2.05958e-05
-2.25618e-05 -2.05958e-05 -0.000103277
0.000506867 0.000130001 -3.3935e-06
0.000130001 -0.000262769 -5.35034e-06
-3.3935e-06 -5.35034e-06 -0.000352897
0.00178009 8.65077e-05 -7.81159e-06
8.65077e-05 0.000590968 -5.26632e-07
-7.81159e-06 -5.26632e-07 0.000442877
0.00272141 -2.42037e-05 -4.37238e-06
-2.42037e-05 0.00109527 -2.67213e-06
-4.37238e-06 -2.67213e-06 0.00104917
0.002119 0.000273176 -8.12912e-05
0.000273176 8.19814e-05 1.12418e-05
-8.12912e-05 1.12418e-05 -0.000221306
0.000721736 -0.00027437 1.52919e-05
-0.00027437 -0.000469897 1.78151e-05
1.52919e-05 1.78151e-05 -0.00163843
0.00553688 -0.00049214 -5.04062e-05
-0.00049214 0.00146944 -8.64615e-06
-5.04062e-05 -8.64615e-06 0.00162281
0.000758437 -9.1149e-05 -2.98056e-06
-9.1149e-05 -0.00101253 -9.40551e-06
-2.98056e-06 -9.40551e-06 -0.000673319
0.000990818 4.1519e-05 2.25565e-07
4.1519e-05 8.67283e-05 5.20855e-07
2.25565e-07 5.20855e-07 3.33587e-06
0.00108037 5.81264e-05 1.01314e-06
5.81264e-05 0.000130784 5.27929e-07
1.01314e-06 5.27929e-07 4.89621e-05
0.000624229 5.41296e-05 1.29519e-06
5.41296e-05 -8.45508e-05 -9.61042e-07
1.29519e-06 -9.61042e-07 -0.000168137
0.000785781 1.81255e-05 2.1137e-07
1.81255e-05 -3.24898e-05 -4.49851e-07
2.1137e-07 -4.49851e-07 -7.9315e-05
0.000988481 2.46808e-05 -2.76195e-07
2.46808e-05 8.01327e-05 -4.31281e-07
-2.76195e-07 -4.31281e-07 2.19315e-05
0.00109884 -3.46657e-05 8.49417e-08
-3.46657e-05 0.000137257 -7.88017e-08
8.49417e-08 -7.88017e-08 7.39723e-05
0.000896027 4.81267e-06 -5.18039e-07
4.81267e-06 4.08886e-05 -4.56923e-07
-5.18039e-07 -4.56923e-07 -2.48408e-05
0.0009493 2.19817e-05 -4.10113e-07
2.19817e-05 6.51502e-05 3.50109e-08
-4.10113e-07 3.50109e-08 -8.73061e-06
0.000971196 1.22512e-05 3.26372e-07
1.22512e-05 7.02006e-05 -3.79233e-07
3.26372e-07 -3.79233e-07 1.19903e-05
0.000956212 3.25868e-06 -7.44168e-08
3.25868e-06 6.42892e-05 -1.76581e-07
-7.44168e-08 -1.76581e-07 -3.63173e-06
0.000955012 -3.29336e-05 1.65507e-07
-3.29336e-05 6.05232e-05 -4.18694e-08
1.65507e-07 -4.18694e-08 -2.15966e-06
0.00102487 2.66807e-05 -5.43068e-08
2.66807e-05 0.000106663 3.88277e-07
-5.43068e-08 3.88277e-07 3.04178e-05
0.00128774 -1.98064e-05 3.11596e-07
-1.98064e-05 0.000238367 9.38591e-08
3.11596e-07 9.38591e-08 0.000162249
0.000983024 -7.40459e-06 -3.53808e-07
-7.40459e-06 7.23352e-05 5.41277e-07
-3.53808e-07 5.41277e-07 3.75715e-06
0.000975888 3.58561e-06 1.58895e-07
3.58561e-06 7.39858e-05 1.2637e-07
1.58895e-07 1.2637e-07 9.11141e-06
0.000983177 -2.18858e-05 1.81337e-07
-2.18858e-05 7.75908e-05 -4.37245e-07
1.81337e-07 -4.37245e-07 2.00172e-05
0.000874371 2.1071e-05 -2.4643e-07
2.1071e-05 1.86657e-05 -7.91365e-07
-2.4643e-07 -7.91365e-07 -4.20791e-05
0.000954326 1.94326e-06 2.9408e-07
1.94326e-06 6.32186e-05 -4.3606e-08
2.9408e-07 -4.3606e-08 -4.85136e-07
0.000924839 3.13297e-05 -7.41264e-09
3.13297e-05 4.97558e-05 -1.19923e-08
-7.41264e-09 -1.19923e-08 -1.23774e-05
0.00100543 3.12923e-05 -4.97612e-07
3.12923e-05 8.36139e-05 -6.16859e-07
-4.97612e-07 -6.16859e-07 1.83776e-05
0.000897183 1.98786e-05 3.53634e-07
1.98786e-05 3.7417e-05 1.16636e-06
3.53634e-07 1.16636e-06 -2.68751e-05
0.00100805 3.03311e-05 3.4549e-07
3.03311e-05 8.85438e-05 1.95732e-07
3.4549e-07 1.95732e-07 2.14127e-05
0.000936072 1.60541e-05 -1.13538e-07
1.60541e-05 4.71313e-05 5.58465e-07
-1.13538e-07 5.58465e-07 -2.05074e-05
0.000917123 -8.55692e-06 6.31745e-07
-8.55692e-06 5.47596e-05 3.97357e-07
6.31745e-07 3.97357e-07 -2.59582e-05
0.00080944 -4.92066e-05 -2.26891e-07
-4.92066e-05 2.26961e-05 3.64179e-07
-2.26891e-07 3.64179e-07 -7.19777e-05
0.0007981 -8.57089e-06 -5.5927e-07
-8.57089e-06 -2.56771e-06 2.64097e-07
-5.5927e-07 2.64097e-07 -7.97143e-05
0.000926159 3.51426e-06 1.34857e-07
3.51426e-06 5.87022e-05 3.77266e-07
1.34857e-07 3.77266e-07 -1.16996e-05
0.00090985 8.26046e-06 6.56778e-08
8.26046e-06 4.09936e-05 1.24989e-06
6.56778e-08 1.24989e-06 -1.75812e-05
0.000915391 1.00675e-05 -1.26558e-07
1.00675e-05 4.36287e-05 -8.73141e-08
-1.26558e-07 -8.73141e-08 -1.21939e-05
0.000895258 2.03695e-05 -4.09636e-07
2.03695e-05 2.65221e-05 7.39879e-07
-4.09636e-07 7.39879e-07 -1.78364e-05
0.000912669 1.44285e-05 3.52953e-07
1.44285e-05 4.19568e-05 -3.89058e-07
3.52953e-07 -3.89058e-07 -1.27372e-05
0.000902609 7.11004e-06 -1.38403e-08
7.11004e-06 2.85944e-05 1.87872e-08
-1.38403e-08 1.87872e-08 -1.51579e-05
0.000865632 1.46792e-05 -7.1132e-07
1.46792e-05 2.83453e-06 1.65224e-06
-7.1132e-07 1.65224e-06 -2.45103e-05
0.000787952 8.5745e-06 3.29403e-07
8.5745e-06 -3.3127e-05 -6.94156e-07
3.29403e-07 -6.94156e-07 -7.72619e-05
0.000869352 7.37304e-06 -7.68009e-08
7.37304e-06 2.68461e-06 -6.07825e-09
-7.68009e-08 -6.07825e-09 -2.40555e-05
0.0013889 1.42352e-05 -4.26728e-06
1.42352e-05 0.00027009 4.20726e-06
-4.26728e-06 4.20726e-06 0.000272589
0.000862923 -6.54175e-07 6.47285e-07
-6.54175e-07 -1.24998e-06 -1.59439e-06
6.47285e-07 -1.59439e-06 -2.77233e-05
0.00110182 9.4205e-06 -1.75201e-06
9.4205e-06 0.000116249 5.98246e-07
-1.75201e-06 5.98246e-07 0.000117747
0.000975329 8.50041e-06 -7.09175e-07
8.50041e-06 4.90065e-05 1.51834e-06
-7.09175e-07 1.51834e-06 6.65041e-05
0.000815284 4.52356e-06 3.08348e-07
4.52356e-06 -3.68435e-05 -3.00326e-06
3.08348e-07 -3.00326e-06 -3.64309e-05
0.00213531 5.30764e-06 1.60883e-06
5.30764e-06 0.000660404 1.11954e-08
1.60883e-06 1.11954e-08 0.000683629
0.0021311 -2.46558e-07 1.07843e-06
-2.46558e-07 0.000657747 -3.94085e-06
1.07843e-06 -3.94085e-06 0.000681087
0.00113692 2.04718e-05 -7.85263e-07
2.04718e-05 0.00015414 -3.72395e-07
-7.85263e-07 -3.72395e-07 0.000113673
0.000881333 -3.45928e-06 -1.61905e-07
-3.45928e-06 5.85466e-06 -1.51707e-06
-1.61905e-07 -1.51707e-06 -1.66729e-05
0.000903898 3.16299e-06 6.15012e-07
3.16299e-06 3.30103e-05 4.54687e-07
6.15012e-07 4.54687e-07 -8.26046e-06
0.000826671 -2.09507e-07 -5.0569e-08
-2.09507e-07 -3.28694e-05 -3.00192e-06
-5.0569e-08 -3.00192e-06 -2.94031e-05
0.000880439 -7.80954e-07 3.27014e-08
-7.80954e-07 4.31516e-06 -1.78644e-09
3.27014e-08 -1.78644e-09 -1.76739e-05
0.000876196 2.28517e-06 -2.26692e-07
2.28517e-06 1.97631e-06 1.57945e-06
-2.26692e-07 1.57945e-06 -2.04271e-05
0.000823148 4.59224e-06 -1.22231e-07
4.59224e-06 -3.42462e-05 8.46488e-09
-1.22231e-07 8.46488e-09 -3.11538e-05
0.00203232 5.68735e-06 2.66199e-06
5.68735e-06 0.000605871 -3.87128e-06
2.66199e-06 -3.87128e-06 0.00063028
0.00133752 1.14272e-05 -8.06229e-07
1.14272e-05 0.000239123 1.85199e-06
-8.06229e-07 1.85199e-06 0.000243904
0.00152669 1.04998e-05 1.78698e-06
1.04998e-05 0.000340575 2.46325e-08
1.78698e-06 2.46325e-08 0.000361606
0.00105477 1.29823e-05 -1.07895e-05
1.29823e-05 9.42926e-05 6.2483e-06
-1.07895e-05 6.2483e-06 0.000111533
-0.00354867 0.000105596 -3.08741e-05
0.000105596 -0.00190288 9.23398e-06
-3.08741e-05 9.23398e-06 -0.00181652
-0.0012479 0.000180981 -8.03753e-06
0.000180981 -0.00103212 1.11182e-05
-8.03753e-06 1.11182e-05 -0.000805848
0.000415849 -3.34672e-05 -7.8809e-05
-3.34672e-05 -0.000546133 -8.40676e-06
-7.8809e-05 -8.40676e-06 -0.000743241
0.00243901 -4.36768e-05 -1.00919e-07
-4.36768e-05 0.000480431 -2.68871e-07
-1.00919e-07 -2.68871e-07 0.000395548
0.00148775 2.21645e-05 -1.07377e-05
2.21645e-05 -0.00013223 7.15302e-08
-1.07377e-05 7.15302e-08 -0.000216988
0.00108247 -2.82616e-05 2.43205e-05
-2.82616e-05 -2.80283e-05 -2.23379e-06
2.43205e-05 -2.23379e-06 -0.000230992
0.00196715 4.38271e-05 1.14956e-06
4.38271e-05 0.000258904 1.33851e-06
1.14956e-06 1.33851e-06 0.000179945
0.00514352 0.000245173 -2.50231e-05
0.000245173 0.00136239 -3.06991e-06
-2.50231e-05 -3.06991e-06 0.000718365
-0.00302216 0.000219258 -5.94372e-06
0.000219258 -0.00134425 -3.31049e-06
-5.94372e-06 -3.31049e-06 -0.00127953
0.000211462 0.000401388 4.2237e-06
0.000401388 -0.00086151 -5.54e-06
4.2237e-06 -5.54e-06 3.04867e-05
0.00118954 1.51679e-05 4.18144e-05
1.51679e-05 6.12891e-05 -1.0564e-05
4.18144e-05 -1.0564e-05 -0.000163963
0.00633822 0.000393393 -6.25932e-06
0.000393393 0.00189105 -4.83759e-06
-6.25932e-06 -4.83759e-06 0.00106387
-0.000123346 0.000370834 -4.72814e-05
0.000370834 -0.000264198 2.15492e-05
-4.72814e-05 2.15492e-05 6.38078e-06
0.00268035 0.000219156 -2.9598e-05
0.000219156 3.83403e-05 1.66816e-05
-2.9598e-05 1.66816e-05 0.00059065
0.000871884 2.98928e-05 -5.20514e-07
2.98928e-05 3.54433e-05 -2.8425e-07
-5.20514e-07 -2.8425e-07 -3.20963e-05
0.000821501 -8.28592e-06 1.10048e-07
-8.28592e-06 9.3501e-07 -3.92343e-07
1.10048e-07 -3.92343e-07 -5.21787e-05
0.00090461 -3.62679e-05 -7.39753e-07
-3.62679e-05 3.31251e-05 8.0035e-07
-7.39753e-07 8.0035e-07 -8.08044e-06
0.000806865 8.54047e-06 9.61497e-08
8.54047e-06 -7.25516e-06 2.59925e-07
9.61497e-08 2.59925e-07 -6.13169e-05
0.00093077 4.35227e-05 6.76305e-07
4.35227e-05 6.68194e-05 8.37813e-07
6.76305e-07 8.37813e-07 3.67347e-06
0.00096917 3.0085e-05 -4.66503e-07
3.0085e-05 8.64182e-05 1.22233e-07
-4.66503e-07 1.22233e-07 1.93146e-05
0.000918232 3.10246e-05 1.03232e-06
3.10246e-05 5.79816e-05 1.01809e-06
1.03232e-06 1.01809e-06 -5.08482e-06
0.000893097 -6.2669e-06 7.41055e-07
-6.2669e-06 4.04338e-05 1.32839e-07
7.41055e-07 1.32839e-07 -2.04532e-05
0.000884069 -2.20694e-05 3.09742e-07
-2.20694e-05 3.60618e-05 -5.33404e-07
3.09742e-07 -5.33404e-07 -2.05176e-05
0.000799429 -3.3266e-05 -3.69234e-07
-3.3266e-05 -8.11795e-06 6.21857e-07
-3.69234e-07 6.21857e-07 -6.31465e-05
0.00178011 1.5668e-05 -5.32567e-07
1.5668e-05 3.00186e-05 2.9387e-07
-5.32567e-07 2.9387e-07 -4.71509e-05
0.00168336 -0.000126219 -9.85425e-06
-0.000126219 -8.5867e-05 2.1374e-06
-9.85425e-06 2.1374e-06 -0.000157209
-0.000127179 -8.32111e-05 3.15705e-06
-8.32111e-05 -0.000657657 4.66881e-06
3.15705e-06 4.66881e-06 -0.00078152
0.0013644 -0.000123002 1.68205e-06
-0.000123002 0.000287779 -1.21034e-07
1.68205e-06 -1.21034e-07 0.000145707
0.00108103 -3.75536e-05 2.03984e-06
-3.75536e-05 0.000166788 -8.53561e-07
2.03984e-06 -8.53561e-07 4.41942e-05
0.000989619 -3.9017e-05 -2.46107e-07
-3.9017e-05 9.23871e-05 -4.29677e-07
-2.46107e-07 -4.29677e-07 9.11762e-06
0.000881589 -2.16416e-05 -8.47795e-07
-2.16416e-05 3.64047e-05 9.06364e-08
-8.47795e-07 9.06364e-08 -3.36758e-05
0.000910796 2.15097e-05 -4.4302e-07
2.15097e-05 5.42345e-05 3.41535e-07
-4.4302e-07 3.41535e-07 -1.53726e-05
0.00191868 -6.23333e-05 -4.72866e-06
-6.23333e-05 0.000106243 1.71769e-06
-4.72866e-06 1.71769e-06 4.73249e-05
0.000830704 -2.58248e-05 -1.62588e-07
-2.58248e-05 1.40245e-05 5.44136e-08
-1.62588e-07 5.44136e-08 -6.3073e-05
0.000923946 -4.47921e-05 6.03831e-07
-4.47921e-05 5.63849e-05 -4.27698e-07
6.03831e-07 -4.27698e-07 -2.60514e-05
0.00203323 -0.000185749 1.77658e-06
-0.000185749 0.000259091 -3.67723e-07
1.77658e-06 -3.67723e-07 0.000130132
0.000524064 -0.000100385 1.57428e-06
-0.000100385 -0.000134419 2.77707e-06
1.57428e-06 2.77707e-06 -0.000264367
0.00115765 -7.09324e-05 9.00104e-07
-7.09324e-05 0.000205284 1.3178e-07
9.00104e-07 1.3178e-07 6.31479e-05
0.00111252 -2.88271e-05 -5.2678e-07
-2.88271e-05 0.000157667 -2.74339e-07
-5.2678e-07 -2.74339e-07 5.77795e-05
0.00245384 -0.000154534 3.07181e-06
-0.000154534 0.000472195 7.21727e-07
3.07181e-06 7.21727e-07 0.000440462
0.00276864 -0.000212419 -3.64213e-06
-0.000212419 0.000893273 -3.00837e-06
-3.64213e-06 -3.00837e-06 0.000754484
0.000955974 -6.12346e-06 -1.8821e-06
-6.12346e-06 0.000115221 1.79365e-06
-1.8821e-06 1.79365e-06 -2.19106e-05
0.000895144 3.11211e-05 4.74559e-07
3.11211e-05 4.91835e-05 9.22251e-07
4.74559e-07 9.22251e-07 -2.92725e-05
0.000904877 -6.98594e-05 1.17152e-06
-6.98594e-05 4.65397e-05 5.33155e-08
1.17152e-06 5.33155e-08 -3.99649e-05
0.0011215 -2.9484e-05 4.79969e-07
-2.9484e-05 0.000142273 1.18026e-06
4.79969e-07 1.18026e-06 5.23767e-05
0.00114411 -3.14834e-06 -2.92842e-05
-3.14834e-06 0.000604376 6.86378e-07
-2.92842e-05 6.86378e-07 0.000554666
0.00133491 -7.77125e-06 1.15676e-05
-7.77125e-06 0.000538145 1.01637e-06
1.15676e-05 1.01637e-06 0.000455039
0.000352545 0.000126042 -4.36746e-05
0.000126042 -0.00082408 1.07586e-05
-4.36746e-05 1.07586e-05 -0.00136767
0.000984515 7.43251e-05 8.40309e-08
7.43251e-05 9.37579e-05 3.20034e-07
8.40309e-08 3.20034e-07 2.31734e-06
0.00104537 7.41596e-05 2.08027e-06
7.41596e-05 0.000161822 -3.82756e-07
2.08027e-06 -3.82756e-07 4.85417e-05
0.00275625 0.000159209 -6.36855e-07
0.000159209 0.000515745 2.97636e-07
-6.36855e-07 2.97636e-07 0.000528404
0.000398865 8.7095e-05 2.73978e-06
8.7095e-05 -0.000160134 -1.1403e-06
2.73978e-06 -1.1403e-06 -0.000354506
0.00333213 -0.000242907 4.58337e-05
-0.000242907 0.00137072 8.72957e-06
4.58337e-05 8.72957e-06 0.0014874
0.000998916 -0.000257959 1.63093e-05
-0.000257959 -0.000565396 2.33996e-05
1.63093e-05 2.33996e-05 -0.00123549
0.00448561 9.15692e-05 -7.42723e-05
9.15692e-05 0.000689395 -5.37798e-05
-7.42723e-05 -5.37798e-05 0.000219604
-0.000568048 0.000104548 1.63392e-06
0.000104548 -0.000877018 1.84988e-06
1.63392e-06 1.84988e-06 -0.000834434
-0.00210468 -0.000299109 5.66918e-05
-0.000299109 -0.00124304 2.81976e-05
5.66918e-05 2.81976e-05 -0.00116206
0.00179443 -0.000202399 2.60429e-05
-0.000202399 0.000624575 1.44415e-05
2.60429e-05 1.44415e-05 0.000830844
0.00279964 -0.000268328 2.92136e-05
-0.000268328 1.37078e-05 1.56072e-05
2.92136e-05 1.56072e-05 0.000789503
0.0010561 4.81869e-05 3.42425e-08
4.81869e-05 0.000123589 -2.48766e-08
3.42425e-08 -2.48766e-08 3.63437e-05
0.000271697 -7.51241e-05 -1.16667e-05
-7.51241e-05 3.86007e-05 -2.41187e-06
-1.16667e-05 -2.41187e-06 2.83413e-05
0.00157298 -1.66341e-05 -2.47805e-06
-1.66341e-05 0.00010565 -6.23091e-06
-2.47805e-06 -6.23091e-06 5.16065e-05
0.000949184 0.000121418 -1.1827e-06
0.000121418 -2.47677e-05 -1.08143e-07
-1.1827e-06 -1.08143e-07 -0.000137263
0.000828097 5.08196e-05 -6.81441e-07
5.08196e-05 0.000125122 -9.35149e-08
-6.81441e-07 -9.35149e-08 -3.02431e-05
0.0015961 2.81308e-05 1.24956e-05
2.81308e-05 0.000522977 -5.3363e-06
1.24956e-05 -5.3363e-06 0.000460784
0.00495692 0.000388151 -3.36325e-05
0.000388151 0.00127637 -1.59881e-05
-3.36325e-05 -1.59881e-05 0.000764124
0.00731712 -0.0003238 4.65214e-06
-0.0003238 0.00229708 4.32323e-06
4.65214e-06 4.32323e-06 0.00130433
5.88654e-05 -0.000296004 5.73285e-06
-0.000296004 -0.000978975 1.1881e-05
5.73285e-06 1.1881e-05 -0.000860723
0.00261099 -0.000123542 6.19391e-07
-0.000123542 9.45145e-05 6.21004e-08
6.19391e-07 6.21004e-08 0.000505518
0.00146271 9.37562e-05 -2.09401e-06
9.37562e-05 0.000378549 -3.73253e-06
-2.09401e-06 -3.73253e-06 0.000300532
0.00180592 5.4457e-06 -9.74367e-06
5.4457e-06 0.000413406 -1.65583e-06
-9.74367e-06 -1.65583e-06 0.000326052
0.00130921 2.18969e-06 -1.87016e-07
2.18969e-06 0.000113317 -9.88251e-06
-1.87016e-07 -9.88251e-06 5.2087e-05
0.000483456 -4.62026e-05 -1.08764e-05
-4.62026e-05 4.8662e-05 -3.89477e-06
-1.08764e-05 -3.89477e-06 -8.5316e-05
0.00239264 0.000208411 -1.13509e-05
0.000208411 0.000852104 4.6206e-05
-1.13509e-05 4.6206e-05 0.000512609
0.007906 -0.000190742 3.37837e-06
-0.000190742 0.00223348 -1.51352e-05
3.37837e-06 -1.51352e-05 0.00104341
-0.000996505 -0.000160945 -4.22172e-05
-0.000160945 -0.00177757 -3.69629e-05
-4.22172e-05 -3.69629e-05 -0.00175268
0.00319874 2.9018e-05 -4.53538e-08
2.9018e-05 0.000468427 -9.74978e-06
-4.53538e-08 -9.74978e-06 0.000838843
0.000926904 5.64257e-05 1.28236e-08
5.64257e-05 5.17645e-05 3.64721e-08
1.28236e-08 3.64721e-08 -3.07975e-05
0.00100773 6.80824e-05 3.60566e-08
6.80824e-05 0.000107276 -3.64782e-07
3.60566e-08 -3.64782e-07 2.51624e-05
0.000638871 4.07501e-05 -2.65106e-08
4.07501e-05 -7.96184e-05 -1.47683e-06
-2.65106e-08 -1.47683e-06 -0.000155507
0.000969275 4.60019e-05 -6.93206e-07
4.60019e-05 6.81589e-05 -7.48146e-07
-6.93206e-07 -7.48146e-07 1.05913e-05
0.00093332 -1.86669e-05 2.38686e-07
-1.86669e-05 5.0294e-05 -2.76102e-07
2.38686e-07 -2.76102e-07 -1.32974e-05
0.00100113 4.30949e-07 -5.4999e-07
4.30949e-07 8.98818e-05 -1.24545e-07
-5.4999e-07 -1.24545e-07 2.2214e-05
0.000971654 1.39427e-05 -1.21189e-08
1.39427e-05 8.0924e-05 2.96763e-09
-1.21189e-08 2.96763e-09 4.99836e-06
0.000983927 1.06103e-05 3.12163e-07
1.06103e-05 7.56895e-05 -2.22383e-10
3.12163e-07 -2.22383e-10 1.24759e-05
0.000980039 -3.42738e-06 -2.07677e-07
-3.42738e-06 7.09822e-05 2.22339e-07
-2.07677e-07 2.22339e-07 2.88508e-06
0.00104558 -8.90215e-06 2.90214e-07
-8.90215e-06 0.00011783 1.10263e-07
2.90214e-07 1.10263e-07 3.9759e-05
0.00129013 -2.89071e-05 -5.37923e-07
-2.89071e-05 0.000245697 9.05945e-07
-5.37923e-07 9.05945e-07 0.000176383
0.00103208 -4.17355e-05 5.72266e-07
-4.17355e-05 8.82272e-05 5.60899e-07
5.72266e-07 5.60899e-07 1.91949e-05
0.000938908 3.02994e-05 8.48961e-07
3.02994e-05 5.23333e-05 4.74209e-07
8.48961e-07 4.74209e-07 -1.50489e-05
0.000955124 -1.13694e-05 7.47753e-07
-1.13694e-05 6.25312e-05 -3.09443e-07
7.47753e-07 -3.09443e-07 -1.96352e-07
0.000910584 3.09694e-05 -3.53686e-08
3.09694e-05 4.28321e-05 -6.16627e-07
-3.53686e-08 -6.16627e-07 -1.93804e-05
0.000960385 2.56317e-05 -8.03668e-07
2.56317e-05 5.71851e-05 -1.11763e-06
-8.03668e-07 -1.11763e-06 -7.38223e-06
0.00100816 2.92873e-05 -2.50514e-07
2.92873e-05 8.72387e-05 -2.57205e-07
-2.50514e-07 -2.57205e-07 2.10113e-05
0.000916078 2.31818e-05 2.17061e-07
2.31818e-05 4.88369e-05 3.22889e-07
2.17061e-07 3.22889e-07 -1.61366e-05
0.000945329 2.56343e-05 3.29466e-08
2.56343e-05 5.12363e-05 -1.50333e-07
3.29466e-08 -1.50333e-07 -1.61939e-05
0.00092572 6.76925e-06 7.18258e-07
6.76925e-06 4.88554e-05 1.17746e-06
7.18258e-07 1.17746e-06 -2.32275e-05
0.000983342 1.26966e-05 1.28269e-07
1.26966e-05 6.32274e-05 6.08872e-07
1.28269e-07 6.08872e-07 -4.02536e-06
0.000944566 -4.1723e-05 3.62981e-09
-4.1723e-05 7.57721e-05 4.07548e-07
3.62981e-09 4.07548e-07 -9.39704e-06
0.00100892 -1.28559e-05 -1.73204e-07
-1.28559e-05 0.000101511 -1.52928e-09
-1.73204e-07 -1.52928e-09 2.10385e-05
0.00078985 -4.17435e-05 -2.45371e-07
-4.17435e-05 1.3455e-05 1.97485e-06
-2.45371e-07 1.97485e-06 -7.89605e-05
0.00104618 -8.30433e-05 -1.7823e-06
-8.30433e-05 0.000130552 2.4827e-06
-1.7823e-06 2.4827e-06 2.53731e-05
0.0010832 -3.85162e-05 2.34735e-07
-3.85162e-05 0.000147402 -5.12137e-07
2.34735e-07 -5.12137e-07 6.47003e-05
0.000825737 -5.21469e-05 3.59899e-07
-5.21469e-05 3.31642e-05 -1.63085e-06
3.59899e-07 -1.63085e-06 -5.91753e-05
0.00094836 -1.01755e-05 -1.44693e-07
-1.01755e-05 7.50159e-05 -6.26136e-07
-1.44693e-07 -6.26136e-07 -1.00907e-06
0.000799365 1.98866e-06 -2.34602e-08
1.98866e-06 -1.4267e-05 1.12599e-06
-2.34602e-08 1.12599e-06 -7.95981e-05
0.000953809 3.07059e-06 -1.76421e-07
3.07059e-06 7.37878e-05 -5.53216e-07
-1.76421e-07 -5.53216e-07 3.12458e-06
0.00092256 6.57386e-06 1.08601e-07
6.57386e-06 4.79579e-05 3.81048e-07
1.08601e-07 3.81048e-07 -1.08643e-05
0.000886012 2.15616e-05 -3.82043e-07
2.15616e-05 2.26383e-05 9.04838e-07
-3.82043e-07 9.04838e-07 -2.33393e-05
0.000918729 -3.75422e-06 1.29299e-07
-3.75422e-06 4.69299e-05 -7.14556e-07
1.29299e-07 -7.14556e-07 -9.84331e-06
0.000891717 8.32508e-06 -2.75455e-07
8.32508e-06 2.48161e-05 -3.17899e-09
-2.75455e-07 -3.17899e-09 -1.96552e-05
0.000860733 1.73403e-05 -8.99015e-07
1.73403e-05 3.34065e-06 1.65131e-06
-8.99015e-07 1.65131e-06 -2.48726e-05
0.000909598 7.18503e-07 8.3839e-07
7.18503e-07 3.21849e-05 -7.44023e-07
8.3839e-07 -7.44023e-07 -1.17029e-05
0.00086882 1.01575e-05 -1.51562e-07
1.01575e-05 4.12759e-06 -8.32015e-10
-1.51562e-07 -8.32015e-10 -2.31112e-05
0.00138389 1.90165e-05 -5.84609e-06
1.90165e-05 0.000270835 4.20417e-06
-5.84609e-06 4.20417e-06 0.000272716
0.000868085 2.03241e-06 9.55466e-07
2.03241e-06 1.8563e-06 -1.61752e-06
9.55466e-07 -1.61752e-06 -2.48063e-05
0.0010974 1.39079e-05 -2.34149e-06
1.39079e-05 0.000116401 5.78217e-07
-2.34149e-06 5.78217e-07 0.000117506
0.000971084 1.31388e-05 -1.23467e-06
1.31388e-05 4.99304e-05 1.5282e-06
-1.23467e-06 1.5282e-06 6.68995e-05
0.000811986 8.70115e-06 5.7639e-07
8.70115e-06 -3.71323e-05 -3.03804e-06
5.7639e-07 -3.03804e-06 -3.69694e-05
0.00155668 1.04852e-05 3.59636e-06
1.04852e-05 0.000356082 -1.17487e-06
3.59636e-06 -1.17487e-06 0.000376316
0.00213439 5.91858e-06 4.39046e-06
5.91858e-06 0.000660191 -3.91399e-06
4.39046e-06 -3.91399e-06 0.00068338
0.000960391 -1.88202e-05 5.96454e-07
-1.88202e-05 6.28495e-05 -4.83404e-07
5.96454e-07 -4.83404e-07 1.88149e-05
0.000877933 -6.45669e-06 -2.48687e-07
-6.45669e-06 5.80375e-06 -1.40424e-06
-2.48687e-07 -1.40424e-06 -1.79129e-05
0.000942311 -4.98033e-06 4.31946e-07
-4.98033e-06 5.30195e-05 1.36072e-07
4.31946e-07 1.36072e-07 1.14289e-05
0.000830596 -4.69423e-06 -3.30997e-07
-4.69423e-06 -2.98675e-05 -2.98335e-06
-3.30997e-07 -2.98335e-06 -2.68518e-05
0.0008796 -3.96476e-06 -4.65567e-08
-3.96476e-06 4.85249e-06 -1.03866e-08
-4.65567e-08 -1.03866e-08 -1.76568e-05
0.000915727 -2.04233e-05 -7.76957e-07
-2.04233e-05 3.74637e-05 1.04216e-06
-7.76957e-07 1.04216e-06 -2.57455e-06
0.00202443 -2.3183e-07 -7.71171e-07
-2.3183e-07 0.000601388 -3.88803e-06
-7.71171e-07 -3.88803e-06 0.000625942
0.000824578 -1.05979e-08 -7.13268e-08
-1.05979e-08 -3.40148e-05 -2.7203e-09
-7.13268e-08 -2.7203e-09 -3.05349e-05
0.00087888 -1.256e-06 -2.34158e-08
-1.256e-06 3.44218e-06 1.58706e-06
-2.34158e-08 1.58706e-06 -1.85325e-05
0.000826693 4.75113e-06 -2.88053e-07
4.75113e-06 -3.23749e-05 3.00996e-06
-2.88053e-07 3.00996e-06 -2.93226e-05
0.00203607 5.9821e-06 -1.72172e-06
5.9821e-06 0.000608027 -1.1899e-08
-1.72172e-06 -1.1899e-08 0.000632363
0.00206389 1.16359e-05 -8.05627e-06
1.16359e-05 0.000624235 3.85408e-06
-8.05627e-06 3.85408e-06 0.00064802
-0.00107999 5.06614e-05 -1.49778e-05
5.06614e-05 -0.00065925 1.55541e-06
-1.49778e-05 1.55541e-06 -0.00074845
-0.000937346 0.00019445 1.54168e-05
0.00019445 -0.000460876 1.49119e-06
1.54168e-05 1.49119e-06 -0.000480099
0.0013122 3.67635e-05 -2.76473e-05
3.67635e-05 -0.000118355 1.56615e-05
-2.76473e-05 1.56615e-05 -0.000133193
-0.00127623 0.000203074 1.74495e-05
0.000203074 -0.000963364 -5.57064e-06
1.74495e-05 -5.57064e-06 -0.000719338
0.001859 2.17896e-05 -7.42365e-05
2.17896e-05 0.000242686 -2.58226e-06
-7.42365e-05 -2.58226e-06 -4.08168e-05
0.00188048 4.08623e-05 2.01128e-05
4.08623e-05 0.000229439 -2.94187e-06
2.01128e-05 -2.94187e-06 0.000149438
0.00123999 -3.21976e-05 -4.1583e-05
-3.21976e-05 -0.000361951 8.26274e-07
-4.1583e-05 8.26274e-07 -0.000875887
0.00480711 0.000342076 8.60426e-05
0.000342076 0.00228364 -2.91994e-05
8.60426e-05 -2.91994e-05 0.00237531
-0.00105406 0.000427261 1.56377e-05
0.000427261 -0.00178616 6.58941e-06
1.56377e-05 6.58941e-06 -0.000749762
0.0013449 7.39323e-05 -1.54303e-06
7.39323e-05 -1.09345e-05 3.81185e-06
-1.54303e-06 3.81185e-06 -0.000203508
0.00276636 0.000271821 6.64307e-06
0.000271821 0.000278605 -1.29184e-05
6.64307e-06 -1.29184e-05 -0.000736289
0.00355045 0.000523822 -2.54831e-06
0.000523822 0.000997022 -3.23963e-06
-2.54831e-06 -3.23963e-06 0.00121951
0.00205031 0.000219066 -2.60495e-06
0.000219066 -0.000369317 2.67788e-06
-2.60495e-06 2.67788e-06 0.000192258
0.00183247 4.39784e-05 -1.20389e-05
4.39784e-05 -5.82167e-05 -8.38212e-07
-1.20389e-05 -8.38212e-07 -0.000259284
0.00346027 0.000360746 4.03379e-05
0.000360746 0.000764095 -2.51657e-05
4.03379e-05 -2.51657e-05 -0.00037166
-0.00325077 0.000251167 -7.18529e-05
0.000251167 -0.00267603 3.39488e-05
-7.18529e-05 3.39488e-05 -0.00254519
0.00103333 0.000106305 -6.8089e-06
0.000106305 -0.000918133 1.07665e-05
-6.8089e-06 1.07665e-05 -0.000575142
0.00100786 -9.00935e-06 1.05785e-06
-9.00935e-06 0.000107773 4.35864e-08
1.05785e-06 4.35864e-08 3.19333e-05
0.00094613 2.96137e-05 -1.11449e-06
2.96137e-05 7.37486e-05 -3.44866e-07
-1.11449e-06 -3.44866e-07 7.44732e-06
0.000902805 5.09537e-06 6.27793e-07
5.09537e-06 4.28826e-05 -1.47378e-07
6.27793e-07 -1.47378e-07 -9.83181e-06
0.000936692 4.76935e-05 1.51904e-06
4.76935e-05 7.12353e-05 8.80225e-07
1.51904e-06 8.80225e-07 8.80608e-06
0.000873312 1.00843e-05 -1.26435e-07
1.00843e-05 3.60046e-05 4.381e-07
-1.26435e-07 4.381e-07 -3.81578e-05
0.000996515 3.02401e-05 1.60396e-07
3.02401e-05 0.000101155 5.10492e-07
1.60396e-07 5.10492e-07 3.4383e-05
0.000900162 -1.71329e-06 -4.03102e-07
-1.71329e-06 4.64754e-05 1.25821e-06
-4.03102e-07 1.25821e-06 -1.51553e-05
0.00101894 4.84004e-05 -8.033e-07
4.84004e-05 0.00010779 4.18219e-08
-8.033e-07 4.18219e-08 4.26999e-05
0.000996356 2.01251e-05 -2.95395e-07
2.01251e-05 9.65708e-05 4.01319e-07
-2.95395e-07 4.01319e-07 3.46511e-05
0.000817919 -2.27817e-05 -8.2274e-07
-2.27817e-05 2.88217e-06 -2.51335e-07
-8.2274e-07 -2.51335e-07 -5.55456e-05
0.00114411 -5.40418e-05 4.07547e-07
-5.40418e-05 -0.000300527 -2.7658e-06
4.07547e-07 -2.7658e-06 -0.000359568
0.0010579 -0.000146827 -1.01771e-06
-0.000146827 -0.000210479 4.75816e-06
-1.01771e-06 4.75816e-06 -0.000337051
0.000735578 -0.000104735 9.38435e-06
-0.000104735 -8.93702e-06 2.00905e-06
9.38435e-06 2.00905e-06 -0.000133503
0.00104108 -6.47354e-05 2.96905e-06
-6.47354e-05 0.000135965 -1.23073e-06
2.96905e-06 -1.23073e-06 -1.21576e-06
0.00106789 -2.04426e-05 2.07199e-08
-2.04426e-05 0.000136492 -1.19241e-06
2.07199e-08 -1.19241e-06 3.20425e-05
0.000830961 -4.88741e-05 -5.81241e-07
-4.88741e-05 9.34542e-06 -3.20506e-07
-5.81241e-07 -3.20506e-07 -7.58344e-05
0.000865742 3.2108e-05 -1.38768e-07
3.2108e-05 3.17763e-05 -1.77479e-07
-1.38768e-07 -1.77479e-07 -4.58936e-05
0.000945241 -1.57911e-05 1.0657e-07
-1.57911e-05 7.53826e-05 6.34364e-07
1.0657e-07 6.34364e-07 -3.87218e-06
0.00177945 -0.000154496 3.31729e-06
-0.000154496 0.000123296 9.568e-08
3.31729e-06 9.568e-08 0.000105629
0.00100551 -4.19116e-06 -1.95311e-07
-4.19116e-06 9.97739e-05 -3.57306e-07
-1.95311e-07 -3.57306e-07 1.42714e-05
0.00115384 -3.11698e-05 -5.06025e-07
-3.11698e-05 0.000161499 -1.02681e-07
-5.06025e-07 -1.02681e-07 6.98064e-05
0.00162127 -0.000167069 -1.19228e-06
-0.000167069 0.000342128 -2.47738e-06
-1.19228e-06 -2.47738e-06 0.000181199
0.0011148 -1.99913e-05 -4.86276e-07
-1.99913e-05 0.000183183 2.46512e-07
-4.86276e-07 2.46512e-07 4.91962e-05
-0.000715492 -0.000131321 -5.71832e-06
-0.000131321 -0.00104605 -7.88114e-06
-5.71832e-06 -7.88114e-06 -0.00102216
0.00225176 -8.36351e-05 -8.20484e-07
-8.36351e-05 0.000753842 7.87577e-06
-8.20484e-07 7.87577e-06 0.000565006
0.000722693 2.58312e-05 -1.28575e-06
2.58312e-05 -5.87546e-05 3.99937e-06
-1.28575e-06 3.99937e-06 -0.000154928
0.000957332 1.5123e-05 3.61415e-07
1.5123e-05 6.7288e-05 4.11738e-07
3.61415e-07 4.11738e-07 -1.35355e-05
0.00098023 2.05579e-05 -4.05643e-07
2.05579e-05 7.13681e-05 1.09806e-06
-4.05643e-07 1.09806e-06 -2.13918e-05
0.00152357 -5.33639e-06 2.12071e-06
-5.33639e-06 0.000286678 9.04084e-07
2.12071e-06 9.04084e-07 0.000201496
6.93921e-05 -6.7343e-06 6.58296e-07
-6.7343e-06 1.39347e-05 -5.46591e-07
6.58296e-07 -5.46591e-07 -7.14779e-05
-0.00410658 -3.70381e-05 3.19728e-05
-3.70381e-05 -0.00226959 2.92589e-06
3.19728e-05 2.92589e-06 -0.00220651
0.0010264 6.27786e-05 1.38649e-06
6.27786e-05 0.000114184 8.1651e-07
1.38649e-06 8.1651e-07 2.54571e-05
1.01521e-05 2.01218e-05 2.08125e-06
2.01218e-05 -0.000272832 -7.34525e-07
2.08125e-06 -7.34525e-07 -0.000433153
0.00122481 0.000103941 3.57647e-06
0.000103941 0.000123527 -7.83868e-07
3.57647e-06 -7.83868e-07 1.47631e-06
-0.00122452 -3.83146e-05 1.19632e-05
-3.83146e-05 -0.000785329 2.58575e-06
1.19632e-05 2.58575e-06 -0.000886769
0.00257051 -0.000353233 1.98976e-05
-0.000353233 0.00027093 1.22291e-05
1.98976e-05 1.22291e-05 -0.000894437
0.00432129 0.000340141 7.32734e-05
0.000340141 0.00106127 -3.26781e-05
7.32734e-05 -3.26781e-05 0.000699184
4.89644e-05 2.37115e-05 1.86479e-07
2.37115e-05 -0.000295522 8.23009e-06
1.86479e-07 8.23009e-06 -0.000361469
0.00485511 -0.000466129 4.54251e-05
-0.000466129 0.00137074 4.67275e-05
4.54251e-05 4.67275e-05 0.00140812
0.00168353 -1.44555e-05 1.47895e-05
-1.44555e-05 0.0001609 7.28955e-06
1.47895e-05 7.28955e-06 0.000107449
0.00211127 -0.000105534 1.02739e-05
-0.000105534 -0.000119964 7.77643e-06
1.02739e-05 7.77643e-06 0.000261096
0.00109611 8.18991e-05 9.32819e-07
8.18991e-05 0.000192272 -8.70824e-07
9.32819e-07 -8.70824e-07 0.000116389
0.00140664 6.61618e-06 -1.67838e-06
6.61618e-06 0.000199229 -1.51158e-06
-1.67838e-06 -1.51158e-06 0.0001218
0.00124275 1.74408e-06 -4.10018e-06
1.74408e-06 5.85868e-05 -3.76419e-06
-4.10018e-06 -3.76419e-06 -3.58224e-09
4.29277e-05 -2.94954e-06 4.4294e-06
-2.94954e-06 -0.000165688 2.02752e-08
4.4294e-06 2.02752e-08 -0.000304414
0.00264671 0.00026478 -2.63271e-05
0.00026478 0.000685925 -2.14596e-05
-2.63271e-05 -2.14596e-05 0.000401514
0.00486312 5.40737e-05 2.95488e-05
5.40737e-05 0.000864022 6.42515e-06
2.95488e-05 6.42515e-06 -0.000419182
0.00201228 1.44322e-05 1.74622e-06
1.44322e-05 -0.000240458 -6.62765e-06
1.74622e-06 -6.62765e-06 0.000113768
0.00131522 -0.000224173 -7.00429e-06
-0.000224173 -0.000571535 2.26736e-05
-7.00429e-06 2.26736e-05 -0.000559411
0.000896213 3.4044e-05 -2.79288e-06
3.4044e-05 0.000144814 -7.41162e-06
-2.79288e-06 -7.41162e-06 8.81298e-05
0.000839947 1.05172e-05 9.37376e-06
1.05172e-05 2.2639e-05 9.71279e-06
9.37376e-06 9.71279e-06 -5.75753e-05
0.00130867 1.44124e-06 -6.48904e-06
1.44124e-06 0.000140007 -1.50236e-06
-6.48904e-06 -1.50236e-06 5.49765e-05
0.0011425 9.61446e-05 5.06092e-06
9.61446e-05 -0.000770624 -1.13586e-05
5.06092e-06 -1.13586e-05 -0.000487908
-0.00137361 6.10126e-05 4.26132e-06
6.10126e-05 -0.00072172 -4.1796e-06
4.26132e-06 -4.1796e-06 -0.000933492
0.00728395 -2.30868e-05 3.47122e-05
-2.30868e-05 0.00194953 7.23726e-06
3.47122e-05 7.23726e-06 0.000946875
-0.00021651 -5.15911e-06 6.90337e-06
-5.15911e-06 -0.00104895 -6.34268e-05
6.90337e-06 -6.34268e-05 -0.000866682
0.0013836 8.73251e-05 1.84072e-06
8.73251e-05 0.000295002 2.39026e-06
1.84072e-06 2.39026e-06 0.000214002
0.000840372 5.57993e-05 -8.20232e-07
5.57993e-05 1.45521e-05 1.36132e-06
-8.20232e-07 1.36132e-06 -6.47279e-05
0.00106546 3.66104e-05 -1.75811e-06
3.66104e-05 0.000140422 -2.8109e-06
-1.75811e-06 -2.8109e-06 6.90306e-05
0.000982425 5.13403e-05 -1.09473e-07
5.13403e-05 7.55143e-05 -1.72492e-07
-1.09473e-07 -1.72492e-07 1.19994e-05
0.000972064 7.58117e-06 -3.06857e-07
7.58117e-06 6.66008e-05 -5.11296e-07
-3.06857e-07 -5.11296e-07 -5.67771e-07
0.000819094 -1.91466e-05 -3.60033e-07
-1.91466e-05 3.92843e-06 9.38782e-07
-3.60033e-07 9.38782e-07 -7.65676e-05
0.00099361 3.2226e-05 9.01184e-08
3.2226e-05 7.80885e-05 -3.34979e-08
9.01184e-08 -3.34979e-08 1.19809e-05
0.000925017 -4.70273e-05 -1.23185e-07
-4.70273e-05 3.48489e-05 -1.76783e-07
-1.23185e-07 -1.76783e-07 -3.57828e-05
0.00109786 -4.93167e-05 2.37189e-06
-4.93167e-05 0.000142522 1.11498e-06
2.37189e-06 1.11498e-06 6.81681e-05
0.000829051 -1.22441e-05 -7.47681e-09
-1.22441e-05 1.95782e-05 1.2583e-06
-7.47681e-09 1.2583e-06 -3.55673e-05
0.000975182 -1.51964e-05 1.30701e-07
-1.51964e-05 5.13142e-05 2.65486e-07
1.30701e-07 2.65486e-07 -1.50061e-05
0.00100477 2.89889e-05 -6.96179e-07
2.89889e-05 8.40057e-05 -5.61019e-07
-6.96179e-07 -5.61019e-07 1.87766e-05
0.000933852 2.65753e-05 -5.24582e-08
2.65753e-05 5.94854e-05 -4.62064e-07
-5.24582e-08 -4.62064e-07 -6.12444e-06
0.000951123 2.92407e-05 -3.3535e-07
2.92407e-05 5.3463e-05 -9.79968e-07
-3.3535e-07 -9.79968e-07 -1.36878e-05
0.000966131 7.62287e-06 3.48302e-08
7.62287e-06 5.47626e-05 1.82944e-07
3.48302e-08 1.82944e-07 -1.2587e-05
0.000967281 7.88925e-06 4.26832e-07
7.88925e-06 6.90952e-05 4.04791e-07
4.26832e-07 4.04791e-07 -2.33057e-06
0.000906168 -4.36723e-05 5.34588e-08
-4.36723e-05 5.43739e-05 1.17412e-06
5.34588e-08 1.17412e-06 -2.29835e-05
0.000901426 -3.34101e-05 -1.43529e-07
-3.34101e-05 5.52843e-05 -6.58155e-07
-1.43529e-07 -6.58155e-07 -2.82875e-05
0.00097703 -5.31301e-05 6.19211e-07
-5.31301e-05 0.000113156 1.27458e-06
6.19211e-07 1.27458e-06 8.71561e-06
0.00110018 -1.66332e-05 -3.9186e-07
-1.66332e-05 0.000148107 -8.95154e-07
-3.9186e-07 -8.95154e-07 6.79365e-05
0.00103712 -5.08964e-05 -1.87771e-07
-5.08964e-05 0.000134591 7.72842e-07
-1.87771e-07 7.72842e-07 4.14307e-05
0.000629424 -6.88664e-05 -1.34551e-06
-6.88664e-05 -8.14161e-05 2.26716e-06
-1.34551e-06 2.26716e-06 -0.000193824
0.000966137 -8.06671e-05 -2.71808e-06
-8.06671e-05 8.91549e-05 1.52253e-07
-2.71808e-06 1.52253e-07 -1.6422e-05
0.00100106 -6.49459e-05 -1.11861e-06
-6.49459e-05 0.000109146 9.40569e-07
-1.11861e-06 9.40569e-07 1.91923e-05
0.00093429 -7.80381e-05 -4.99117e-08
-7.80381e-05 7.55128e-05 3.77098e-08
-4.99117e-08 3.77098e-08 -2.93243e-05
0.000943888 -1.443e-05 -1.87057e-07
-1.443e-05 6.36284e-05 1.07446e-06
-1.87057e-07 1.07446e-06 -7.07982e-06
0.00103036 -4.00971e-05 -4.7194e-07
-4.00971e-05 0.000119616 -4.84819e-07
-4.7194e-07 -4.84819e-07 3.58775e-05
0.000830245 -5.40797e-05 7.32105e-07
-5.40797e-05 3.74457e-05 -2.45043e-06
7.32105e-07 -2.45043e-06 -5.24743e-05
0.00110002 -1.20046e-05 -2.60996e-07
-1.20046e-05 0.000153403 -1.3643e-06
-2.60996e-07 -1.3643e-06 7.84817e-05
0.00088275 1.61249e-06 3.92504e-08
1.61249e-06 2.92708e-05 -3.25091e-08
3.92504e-08 -3.25091e-08 -3.49918e-05
0.00090009 1.96951e-05 -2.60742e-07
1.96951e-05 3.22937e-05 1.16671e-06
-2.60742e-07 1.16671e-06 -1.74681e-05
0.00094235 2.64947e-06 2.0081e-07
2.64947e-06 5.89485e-05 -5.01361e-07
2.0081e-07 -5.01361e-07 -3.77201e-07
0.000894158 1.67782e-05 -2.20326e-07
1.67782e-05 2.7141e-05 -8.93769e-08
-2.20326e-07 -8.93769e-08 -1.89446e-05
0.000854616 2.12754e-05 -1.08951e-06
2.12754e-05 3.6961e-06 1.65128e-06
-1.08951e-06 1.65128e-06 -2.57644e-05
0.000896566 2.51326e-06 6.43546e-07
2.51326e-06 2.72112e-05 -8.68502e-07
6.43546e-07 -8.68502e-07 -1.72341e-05
0.000862594 1.63177e-05 -7.40468e-08
1.63177e-05 3.82916e-06 3.92326e-09
-7.40468e-08 3.92326e-09 -2.43025e-05
0.00135355 2.36766e-05 -6.57295e-06
2.36766e-05 0.000260191 3.02636e-06
-6.57295e-06 3.02636e-06 0.000261011
0.000870745 6.36413e-06 1.01939e-06
6.36413e-06 4.75769e-06 -1.60972e-06
1.01939e-06 -1.60972e-06 -2.23776e-05
0.0010937 1.83818e-05 -2.90228e-06
1.83818e-05 0.000118081 5.49646e-07
-2.90228e-06 5.49646e-07 0.000118481
0.000961949 1.75937e-05 -1.77085e-06
1.75937e-05 4.94133e-05 1.53473e-06
-1.77085e-06 1.53473e-06 6.5585e-05
0.000810554 1.29267e-05 8.88013e-07
1.29267e-05 -3.53452e-05 -3.07029e-06
8.88013e-07 -3.07029e-06 -3.56078e-05
0.00155273 1.58088e-05 4.79522e-06
1.58088e-05 0.000356909 -1.13062e-06
4.79522e-06 -1.13062e-06 0.000376652
0.00213161 1.20174e-05 7.52826e-06
1.20174e-05 0.000660598 -3.85874e-06
7.52826e-06 -3.85874e-06 0.000683479
0.000747213 -9.53247e-07 -3.45542e-07
-9.53247e-07 -4.53835e-05 -1.1143e-06
-3.45542e-07 -1.1143e-06 -9.62467e-05
0.000643272 -1.02332e-05 -2.08922e-07
-1.02332e-05 -0.00011326 -1.86777e-06
-2.08922e-07 -1.86777e-06 -0.000140707
0.000975585 -7.73091e-06 -4.47896e-08
-7.73091e-06 7.18165e-05 1.65819e-08
-4.47896e-08 1.65819e-08 2.69154e-05
0.000830857 -9.04443e-06 -5.03512e-07
-9.04443e-06 -2.75425e-05 -2.97964e-06
-5.03512e-07 -2.97964e-06 -2.56872e-05
0.000756649 -6.98884e-06 3.25941e-08
-6.98884e-06 -5.71277e-05 5.87209e-09
3.25941e-08 5.87209e-09 -8.17103e-05
0.000754643 -2.94647e-05 -3.43057e-09
-2.94647e-05 -4.39377e-05 6.11246e-07
-3.43057e-09 6.11246e-07 -8.70494e-05
0.00203567 -6.05734e-06 -4.39641e-06
-6.05734e-06 0.000608215 -3.89335e-06
-4.39641e-06 -3.89335e-06 0.00063247
0.000823844 -4.52871e-06 -1.47548e-07
-4.52871e-06 -3.35383e-05 -1.42513e-08
-1.47548e-07 -1.42513e-08 -3.04513e-05
0.000877926 -4.53642e-06 -2.06016e-08
-4.53642e-06 3.88912e-06 1.53592e-06
-2.06016e-08 1.53592e-06 -1.8602e-05
0.00202303 6.58755e-08 -1.69333e-06
6.58755e-08 0.000600636 -3.5893e-10
-1.69333e-06 -3.5893e-10 0.0006252
0.000824514 1.83834e-07 -1.64657e-08
1.83834e-07 -3.40856e-05 3.00274e-06
-1.64657e-08 3.00274e-06 -3.06032e-05
0.00203895 6.27026e-06 -4.11792e-06
6.27026e-06 0.000609711 3.89011e-06
-4.11792e-06 3.89011e-06 0.000633975
0.00118951 -6.21272e-06 -1.04799e-05
-6.21272e-06 5.9192e-05 4.18018e-06
-1.04799e-05 4.18018e-06 -3.58511e-05
0.00114828 8.64296e-05 1.59957e-06
8.64296e-05 0.00057232 -1.8884e-06
1.59957e-06 -1.8884e-06 0.000608356
0.0004587 1.90378e-05 7.54937e-05
1.90378e-05 0.000137566 -1.48942e-05
7.54937e-05 -1.48942e-05 -2.02533e-05
0.000935481 1.83465e-05 -1.54018e-07
1.83465e-05 5.71728e-05 -1.4906e-07
-1.54018e-07 -1.4906e-07 -8.82553e-06
0.00117355 1.59601e-05 1.20612e-06
1.59601e-05 2.05638e-05 5.88394e-06
1.20612e-06 5.88394e-06 -3.13142e-05
0.00123975 2.88518e-05 -9.41771e-06
2.88518e-05 -0.000147587 4.71126e-06
-9.41771e-06 4.71126e-06 -0.000188127
0.00126673 0.000235855 3.2759e-05
0.000235855 0.000340705 -1.89219e-05
3.2759e-05 -1.89219e-05 0.000725224
0.00300038 8.69277e-05 -3.94882e-05
8.69277e-05 0.000584348 1.09259e-05
-3.94882e-05 1.09259e-05 0.000373822
0.00769531 0.000452926 1.86981e-05
0.000452926 0.00264204 -1.10751e-05
1.86981e-05 -1.10751e-05 0.00168769
-0.00216702 0.000349752 5.07779e-05
0.000349752 -0.00168188 -2.04103e-05
5.07779e-05 -2.04103e-05 -0.00137707
0.00287998 0.000227583 1.99907e-05
0.000227583 0.00020518 -1.56217e-05
1.99907e-05 -1.56217e-05 0.000716456
0.00202073 5.7367e-05 -3.57487e-05
5.7367e-05 -0.000323606 4.65078e-06
-3.57487e-05 4.65078e-06 -0.000609651
0.00625383 0.000333306 3.27627e-05
0.000333306 0.00204446 -1.4235e-05
3.27627e-05 -1.4235e-05 0.000982031
0.00288448 0.000374052 -4.67708e-06
0.000374052 -4.10683e-05 6.64127e-06
-4.67708e-06 6.64127e-06 8.609e-05
0.00263261 0.000119763 -2.46219e-06
0.000119763 -3.21422e-05 1.40254e-06
-2.46219e-06 1.40254e-06 0.0003665
0.00471719 -0.000150627 3.40365e-05
-0.000150627 0.000933955 -2.97056e-05
3.40365e-05 -2.97056e-05 0.00059831
0.00748326 0.000366476 2.60811e-05
0.000366476 0.0023216 -4.47491e-06
2.60811e-05 -4.47491e-06 0.000981672
0.00189282 0.000290601 8.78111e-06
0.000290601 -0.000600297 5.27642e-05
8.78111e-06 5.27642e-05 -0.000603063
0.00317529 4.27446e-05 1.47447e-07
4.27446e-05 0.000359969 5.49025e-06
1.47447e-07 5.49025e-06 0.000763277
0.000929805 -1.43536e-05 4.12497e-07
-1.43536e-05 5.97048e-05 1.02716e-07
4.12497e-07 1.02716e-07 -1.98074e-05
0.000975674 -2.4043e-05 3.9811e-07
-2.4043e-05 9.18016e-05 3.94378e-09
3.9811e-07 3.94378e-09 1.5034e-05
0.0010167 3.58628e-05 -8.16864e-07
3.58628e-05 0.000111768 1.44947e-07
-8.16864e-07 1.44947e-07 4.55174e-05
0.000938368 -3.90641e-06 -1.93769e-07
-3.90641e-06 6.08178e-05 -2.94281e-07
-1.93769e-07 -2.94281e-07 -1.0313e-05
0.00096832 3.52328e-05 -4.61218e-07
3.52328e-05 8.55034e-05 3.35862e-07
-4.61218e-07 3.35862e-07 1.25879e-05
0.00101956 1.53331e-05 3.77922e-07
1.53331e-05 0.000113232 1.02275e-06
3.77922e-07 1.02275e-06 4.69988e-05
0.00106848 4.77541e-05 -4.63139e-07
4.77541e-05 0.000133195 1.22416e-07
-4.63139e-07 1.22416e-07 6.83176e-05
0.00109991 4.97148e-05 7.14435e-07
4.97148e-05 0.000152066 8.99467e-07
7.14435e-07 8.99467e-07 8.96929e-05
0.00105346 -0.000153845 6.30806e-06
-0.000153845 -0.000264341 -7.38472e-06
6.30806e-06 -7.38472e-06 -0.0002606
0.000631718 -0.00012667 2.00887e-06
-0.00012667 -0.00013112 2.56374e-07
2.00887e-06 2.56374e-07 -0.000312392
0.000955168 -8.15876e-05 -1.90882e-06
-8.15876e-05 8.38006e-05 2.14285e-07
-1.90882e-06 2.14285e-07 1.91634e-06
0.00135587 -3.56687e-05 1.14122e-06
-3.56687e-05 0.000293024 -1.76847e-06
1.14122e-06 -1.76847e-06 0.000163343
0.00118821 -4.28568e-05 -1.46696e-06
-4.28568e-05 0.000178624 -8.2969e-07
-1.46696e-06 -8.2969e-07 8.65556e-05
0.00109466 -7.41132e-06 -8.51127e-07
-7.41132e-06 0.000144093 -6.77661e-07
-8.51127e-07 -6.77661e-07 6.13004e-05
0.00101149 1.61909e-05 3.74373e-08
1.61909e-05 9.84604e-05 4.86206e-08
3.74373e-08 4.86206e-08 1.61204e-05
0.0014613 -0.000210728 -2.98863e-06
-0.000210728 1.74615e-06 -6.35168e-07
-2.98863e-06 -6.35168e-07 2.45511e-05
0.00102245 8.58074e-06 7.28519e-08
8.58074e-06 9.87209e-05 -6.61512e-07
7.28519e-08 -6.61512e-07 5.54041e-06
0.00109675 -1.38281e-05 -9.47032e-07
-1.38281e-05 0.000136414 6.19918e-08
-9.47032e-07 6.19918e-08 3.35745e-05
0.00104295 -5.53516e-05 -1.07337e-06
-5.53516e-05 0.000164943 3.81935e-07
-1.07337e-06 3.81935e-07 -4.72206e-05
0.00112783 9.12923e-06 1.66657e-07
9.12923e-06 0.00014815 6.74099e-07
1.66657e-07 6.74099e-07 7.06508e-05
-0.00108744 -0.000185523 -9.20824e-06
-0.000185523 -0.000928948 -9.50831e-06
-9.20824e-06 -9.50831e-06 -0.000996592
0.00129308 4.69677e-05 -4.0246e-06
4.69677e-05 0.000388526 1.26217e-05
-4.0246e-06 1.26217e-05 0.000209202
0.000723181 8.6031e-06 -8.7639e-07
8.6031e-06 -6.82456e-05 2.97621e-06
-8.7639e-07 2.97621e-06 -0.000153349
0.00104277 6.91263e-05 5.49603e-08
6.91263e-05 0.000110623 9.87666e-07
5.49603e-08 9.87666e-07 2.44373e-05
0.00118504 -1.60559e-06 1.86421e-05
-1.60559e-06 0.000239431 3.4147e-06
1.86421e-05 3.4147e-06 0.000144268
0.00142453 -6.41864e-06 5.59331e-06
-6.41864e-06 0.000237454 2.96898e-07
5.59331e-06 2.96898e-07 0.000147297
-0.00103461 -6.33081e-06 1.46111e-05
-6.33081e-06 -0.000595182 -4.4136e-08
1.46111e-05 -4.4136e-08 -0.00071761
0.000674878 6.48417e-05 3.72368e-06
6.48417e-05 -2.18614e-05 8.52769e-07
3.72368e-06 8.52769e-07 -9.46286e-05
-0.000518362 2.51362e-05 -2.83494e-06
2.51362e-05 -0.000430347 3.02774e-06
-2.83494e-06 3.02774e-06 -0.000577622
0.00102032 7.04673e-06 5.63934e-06
7.04673e-06 -9.83232e-06 -1.61507e-06
5.63934e-06 -1.61507e-06 -7.5994e-05
0.00518279 -0.000412699 5.84088e-05
-0.000412699 0.00131238 1.82481e-05
5.84088e-05 1.82481e-05 4.80195e-05
0.00538147 0.000374356 -2.67066e-05
0.000374356 0.00169453 -6.79019e-05
-2.67066e-05 -6.79019e-05 0.0011532
0.00294745 -0.00031732 9.72247e-06
-0.00031732 -0.000131505 8.25397e-05
9.72247e-06 8.25397e-05 -6.5787e-05
0.0012405 6.95615e-07 -7.57663e-06
6.95615e-07 5.11535e-05 2.62262e-06
-7.57663e-06 2.62262e-06 -5.94942e-06
0.000933778 1.0959e-05 -4.31656e-07
1.0959e-05 -0.000903894 1.04901e-06
-4.31656e-07 1.04901e-06 -0.000562287
0.000928416 5.22837e-05 -9.03502e-07
5.22837e-05 0.00015896 -3.15517e-07
-9.03502e-07 -3.15517e-07 9.40259e-05
0.000914755 1.02228e-05 -8.40781e-07
1.02228e-05 7.69892e-05 1.2212e-06
-8.40781e-07 1.2212e-06 -1.92816e-06
0.00120446 -3.52228e-07 -4.11026e-06
-3.52228e-07 0.000131945 -1.07378e-07
-4.11026e-06 -1.07378e-07 4.49115e-05
-0.000422778 6.63091e-05 4.07197e-06
6.63091e-05 -0.000158169 -1.81692e-06
4.07197e-06 -1.81692e-06 -0.000301929
0.00257294 0.000113431 1.32138e-06
0.000113431 -9.95823e-08 -4.2176e-07
1.32138e-06 -4.2176e-07 0.000352958
0.00522345 0.000162739 3.1784e-05
0.000162739 0.000691104 -2.19976e-06
3.1784e-05 -2.19976e-06 -9.26489e-05
0.00336859 0.000100587 -3.88342e-05
0.000100587 0.000423154 -3.7552e-06
-3.88342e-05 -3.7552e-06 0.000499934
0.000286925 6.06178e-05 -5.30626e-07
6.06178e-05 -5.51492e-06 -1.08164e-05
-5.30626e-07 -1.08164e-05 -8.88293e-05
0.00116027 -1.8534e-06 -6.95456e-06
-1.8534e-06 0.000203361 1.38286e-05
-6.95456e-06 1.38286e-05 8.97694e-05
0.00112297 7.49843e-06 2.74386e-07
7.49843e-06 -6.38976e-06 -5.74772e-06
2.74386e-07 -5.74772e-06 -6.26489e-05
0.00269778 0.000219241 2.94472e-05
0.000219241 9.81823e-05 -1.61135e-05
2.94472e-05 -1.61135e-05 0.000625351
0.00170977 0.000331616 -7.49912e-06
0.000331616 -0.000612721 -5.48423e-05
-7.49912e-06 -5.48423e-05 -0.000614811
0.00151868 0.000186812 1.53514e-05
0.000186812 0.000480771 -1.20137e-05
1.53514e-05 -1.20137e-05 0.000516415
0.00310908 -0.000181911 7.64881e-05
-0.000181911 0.000219047 7.32584e-06
7.64881e-05 7.32584e-06 -0.000725286
0.00106184 7.21706e-05 -6.22295e-07
7.21706e-05 0.000121247 4.5203e-06
-6.22295e-07 4.5203e-06 3.82776e-05
0.00114541 2.30909e-05 7.27807e-07
2.30909e-05 0.00017606 2.16261e-06
7.27807e-07 2.16261e-06 0.000109638
0.000280333 -2.68502e-05 2.17526e-06
-2.68502e-05 -9.26874e-05 -5.41708e-06
2.17526e-06 -5.41708e-06 -0.000214078
0.00106001 1.48043e-05 -4.09693e-07
1.48043e-05 0.000109448 -4.01611e-07
-4.09693e-07 -4.01611e-07 4.49775e-05
0.000863598 -4.97821e-05 -4.64282e-07
-4.97821e-05 4.24017e-06 -1.37188e-07
-4.64282e-07 -1.37188e-07 -6.71027e-05
0.000969597 -4.65636e-05 1.55539e-07
-4.65636e-05 7.35393e-05 6.33747e-07
1.55539e-07 6.33747e-07 -4.57574e-06
0.000995463 -2.78788e-05 9.26178e-08
-2.78788e-05 6.53328e-05 -1.61668e-07
9.26178e-08 -1.61668e-07 -2.21198e-06
0.000810316 -2.30183e-05 -7.89062e-07
-2.30183e-05 -2.29887e-06 1.92818e-06
-7.89062e-07 1.92818e-06 -5.62627e-05
0.000699193 -4.21012e-05 1.08939e-06
-4.21012e-05 -6.58229e-06 -4.41816e-07
1.08939e-06 -4.41816e-07 -0.000109325
0.000944165 1.91066e-06 -1.91076e-07
1.91066e-06 4.43498e-05 -3.09172e-07
-1.91076e-07 -3.09172e-07 -2.33108e-05
0.00102048 1.9797e-05 1.49953e-08
1.9797e-05 9.48878e-05 -3.38074e-07
1.49953e-08 -3.38074e-07 2.42279e-05
0.00107178 -4.17424e-05 1.10556e-07
-4.17424e-05 0.000134114 1.9833e-07
1.10556e-07 1.9833e-07 5.52109e-05
0.00080154 -5.36134e-05 1.40147e-06
-5.36134e-05 5.49451e-05 1.57189e-06
1.40147e-06 1.57189e-06 -5.87056e-05
0.000881746 -2.60569e-05 -1.24098e-06
-2.60569e-05 4.66884e-05 -1.18618e-06
-1.24098e-06 -1.18618e-06 -3.54026e-05
0.000765159 -5.19567e-05 3.13656e-07
-5.19567e-05 9.1585e-06 -2.91604e-08
3.13656e-07 -2.91604e-08 -9.24852e-05
0.00103325 -8.91307e-05 7.81463e-07
-8.91307e-05 0.000137393 8.16887e-07
7.81463e-07 8.16887e-07 1.10967e-05
0.00111934 -9.40535e-05 -3.15642e-06
-9.40535e-05 0.000132204 2.08759e-06
-3.15642e-06 2.08759e-06 1.35795e-05
0.00128114 -6.08011e-05 -4.85558e-08
-6.08011e-05 0.000254119 -9.00755e-07
-4.85558e-08 -9.00755e-07 0.000160139
0.000815303 -7.67972e-05 -6.68717e-07
-7.67972e-05 9.03794e-06 2.87995e-07
-6.68717e-07 2.87995e-07 -0.000106438
0.00130724 -9.59796e-05 -3.53726e-07
-9.59796e-05 0.000256764 -6.7783e-07
-3.53726e-07 -6.7783e-07 0.000156502
0.000759265 -6.3952e-05 -1.47197e-06
-6.3952e-05 -6.38249e-06 9.60905e-08
-1.47197e-06 9.60905e-08 -0.000101722
0.000958515 -7.99416e-05 3.13397e-07
-7.99416e-05 8.51409e-05 -1.70321e-07
3.13397e-07 -1.70321e-07 -1.8572e-05
0.000977001 -2.1862e-05 -8.07949e-07
-2.1862e-05 8.30346e-05 7.62538e-07
-8.07949e-07 7.62538e-07 8.15165e-06
0.00105403 -6.52839e-05 -1.01862e-06
-6.52839e-05 0.000134252 7.62982e-07
-1.01862e-06 7.62982e-07 4.42816e-05
0.000820898 -7.29912e-05 4.07383e-07
-7.29912e-05 1.99388e-05 -1.30496e-06
4.07383e-07 -1.30496e-06 -8.45841e-05
0.000924949 1.5163e-05 -4.33761e-07
1.5163e-05 4.77179e-05 1.34119e-06
-4.33761e-07 1.34119e-06 -7.63556e-06
0.000887047 -1.2864e-05 3.17189e-07
-1.2864e-05 3.36401e-05 1.06536e-07
3.17189e-07 1.06536e-07 -3.72064e-05
0.000981414 -4.16177e-05 1.36084e-06
-4.16177e-05 9.37493e-05 -1.49849e-06
1.36084e-06 -1.49849e-06 8.97539e-06
0.000962347 1.24701e-06 9.58177e-08
1.24701e-06 7.08222e-05 -1.08708e-06
9.58177e-08 -1.08708e-06 7.63874e-06
0.000895704 1.92227e-05 1.04791e-08
1.92227e-05 3.01887e-05 -1.13332e-07
1.04791e-08 -1.13332e-07 -1.96442e-05
0.000850906 2.59354e-05 -1.08679e-06
2.59354e-05 6.92153e-06 1.73561e-06
-1.08679e-06 1.73561e-06 -2.50155e-05
0.000893849 1.23065e-05 3.01278e-07
1.23065e-05 2.7278e-05 -1.08582e-06
3.01278e-07 -1.08582e-06 -1.89169e-05
0.000855887 2.23293e-05 -4.83588e-09
2.23293e-05 4.124e-06 -8.98242e-09
-4.83588e-09 -8.98242e-09 -2.53888e-05
0.00077915 2.44394e-05 -1.69333e-06
2.44394e-05 -3.72032e-05 3.1948e-06
-1.69333e-06 3.1948e-06 -4.07287e-05
0.000866752 1.47406e-05 9.526e-07
1.47406e-05 5.50054e-06 -1.6344e-06
9.526e-07 -1.6344e-06 -2.25381e-05
0.000796467 2.09688e-05 1.39564e-07
2.09688e-05 -3.39676e-05 1.46212e-08
1.39564e-07 1.46212e-08 -3.60939e-05
0.00207575 3.18624e-05 -4.73269e-06
3.18624e-05 0.000642903 1.51902e-06
-4.73269e-06 1.51902e-06 0.000663478
0.000810431 1.71271e-05 1.17568e-06
1.71271e-05 -3.17482e-05 -3.09939e-06
1.17568e-06 -3.09939e-06 -3.2747e-05
0.00154676 2.09675e-05 5.8797e-06
2.09675e-05 0.000357782 -1.08261e-06
5.8797e-06 -1.08261e-06 0.000376799
0.00212526 1.79341e-05 1.0576e-05
1.79341e-05 0.000660251 -3.78487e-06
1.0576e-05 -3.78487e-06 0.000682634
0.000764772 -2.0693e-05 8.8058e-08
-2.0693e-05 -4.13089e-05 -1.08597e-06
8.8058e-08 -1.08597e-06 -9.24249e-05
0.000616538 -1.2981e-05 -3.50647e-07
-1.2981e-05 -0.000124078 -1.97708e-06
-3.50647e-07 -1.97708e-06 -0.000154863
0.000875057 -2.58162e-06 -2.00665e-07
-2.58162e-06 2.07339e-05 -5.45569e-07
-2.00665e-07 -5.45569e-07 -2.9417e-05
0.00082889 -1.34776e-05 -6.12027e-07
-1.34776e-05 -2.50353e-05 -3.04978e-06
-6.12027e-07 -3.04978e-06 -2.50116e-05
0.0006304 -1.03571e-05 -3.28572e-09
-1.03571e-05 -0.000119789 -5.85185e-07
-3.28572e-09 -5.85185e-07 -0.000147574
0.000990144 -3.62955e-07 -8.23861e-08
-3.62955e-07 8.07714e-05 5.5256e-07
-8.23861e-08 5.5256e-07 3.47584e-05
0.00206359 -1.19611e-05 -7.66195e-06
-1.19611e-05 0.000625016 -3.89811e-06
-7.66195e-06 -3.89811e-06 0.000648563
0.000820642 -8.90027e-06 -1.14628e-07
-8.90027e-06 -3.29532e-05 -1.93142e-08
-1.14628e-07 -1.93142e-08 -3.1005e-05
0.000630329 -7.36419e-06 9.92646e-08
-7.36419e-06 -0.000122574 1.37137e-06
9.92646e-08 1.37137e-06 -0.000148022
0.00203157 -5.80299e-06 -1.80873e-06
-5.80299e-06 0.000605859 1.11621e-08
-1.80873e-06 1.11621e-08 0.000630196
0.000818137 -4.36924e-06 1.30853e-07
-4.36924e-06 -3.6643e-05 2.98725e-06
1.30853e-07 2.98725e-06 -3.34923e-05
0.00202429 3.69479e-07 -6.08207e-07
3.69479e-07 0.000601285 3.88431e-06
-6.08207e-07 3.88431e-06 0.000625841
0.00116936 -8.32094e-06 1.24432e-05
-8.32094e-06 0.000181573 -3.99494e-06
1.24432e-05 -3.99494e-06 8.64303e-05
0.00118302 -7.51434e-06 -3.48292e-06
-7.51434e-06 5.86846e-05 1.15032e-06
-3.48292e-06 1.15032e-06 -3.31311e-05
0.00100115 6.2358e-05 2.44039e-05
6.2358e-05 0.000534386 -3.87762e-06
2.44039e-05 -3.87762e-06 0.000523917
0.000964405 2.15238e-05 1.05911e-07
2.15238e-05 7.1259e-05 6.50864e-08
1.05911e-07 6.50864e-08 6.60436e-06
0.000889843 1.25868e-06 -4.69121e-09
1.25868e-06 2.66786e-05 -1.51494e-07
-4.69121e-09 -1.51494e-07 -3.80812e-05
0.00103507 3.13146e-05 -2.73752e-07
3.13146e-05 0.000112233 5.16768e-07
-2.73752e-07 5.16768e-07 4.06254e-05
0.00123957 1.26584e-05 6.34463e-06
1.26584e-05 9.54291e-05 4.3198e-06
6.34463e-06 4.3198e-06 1.30378e-05
0.00115774 1.08326e-05 -3.69592e-06
1.08326e-05 2.30745e-05 3.4805e-06
-3.69592e-06 3.4805e-06 -3.39904e-05
0.00108542 2.03627e-05 8.99254e-06
2.03627e-05 -0.000220134 -1.18616e-05
8.99254e-06 -1.18616e-05 -0.0002964
0.00204587 4.49996e-05 -4.32815e-05
4.49996e-05 -0.000301478 1.25157e-05
-4.32815e-05 1.25157e-05 -0.000448948
0.00165571 0.000286647 7.42717e-06
0.000286647 0.000113571 -1.05642e-06
7.42717e-06 -1.05642e-06 -0.00108998
0.00442092 0.000460487 5.16098e-05
0.000460487 0.00102195 -2.72289e-05
5.16098e-05 -2.72289e-05 0.00105504
0.00137456 9.25588e-05 4.11758e-06
9.25588e-05 -0.000805309 -1.13382e-05
4.11758e-06 -1.13382e-05 -0.000415564
0.00195348 -9.03409e-05 -2.6255e-06
-9.03409e-05 -0.000249878 7.1863e-06
-2.6255e-06 7.1863e-06 -0.000283343
0.00530535 0.000165821 3.38716e-05
0.000165821 0.00134497 -3.60414e-05
3.38716e-05 -3.60414e-05 9.80544e-05
0.000912192 0.000114727 -7.03615e-06
0.000114727 -0.000790498 1.00241e-05
-7.03615e-06 1.00241e-05 -0.000652295
0.00212434 2.99374e-05 -2.10444e-07
2.99374e-05 -0.000239725 3.20627e-06
-2.10444e-07 3.20627e-06 0.000145421
0.00551151 -0.000389518 6.62222e-06
-0.000389518 0.00140612 -5.86864e-05
6.62222e-06 -5.86864e-05 0.00124968
0.00821697 0.000204339 3.74478e-05
0.000204339 0.0026209 -2.45266e-05
3.74478e-05 -2.45266e-05 0.00150336
0.000135382 3.18272e-05 9.31902e-06
3.18272e-05 -0.00095672 5.55807e-05
9.31902e-06 5.55807e-05 -0.000845478
0.000653485 -6.66805e-05 3.62665e-06
-6.66805e-05 -0.00107459 5.8105e-06
3.62665e-06 5.8105e-06 -0.000716747
0.00100342 -1.15217e-08 -1.71699e-08
-1.15217e-08 8.96676e-05 6.43032e-07
-1.71699e-08 6.43032e-07 1.14795e-05
0.000931713 -9.59666e-06 -5.80531e-08
-9.59666e-06 6.24599e-05 -1.82273e-07
-5.80531e-08 -1.82273e-07 -1.80898e-05
0.000969211 -3.27622e-05 -3.94154e-07
-3.27622e-05 8.82732e-05 3.00653e-08
-3.94154e-07 3.00653e-08 1.11321e-05
0.000941163 1.27345e-05 -3.74967e-07
1.27345e-05 6.25899e-05 -4.97738e-07
-3.74967e-07 -4.97738e-07 -8.88286e-06
0.00106213 6.58914e-05 1.12187e-06
6.58914e-05 0.000134438 2.85573e-07
1.12187e-06 2.85573e-07 6.27557e-05
0.00111469 4.82491e-05 6.35075e-08
4.82491e-05 0.000157208 3.31016e-07
6.35075e-08 3.31016e-07 9.23265e-05
0.00322582 -0.000272623 1.4711e-06
-0.000272623 0.000861817 -1.92849e-06
1.4711e-06 -1.92849e-06 0.000867371
-0.000186423 -1.82949e-05 2.72407e-06
-1.82949e-05 -0.000428978 -4.62441e-07
2.72407e-06 -4.62441e-07 -0.000665127
0.00109658 3.47264e-05 2.84926e-07
3.47264e-05 0.000145811 -2.79638e-07
2.84926e-07 -2.79638e-07 6.19193e-05
0.00131527 -5.34767e-05 5.18312e-07
-5.34767e-05 0.000250948 -2.81435e-06
5.18312e-07 -2.81435e-06 0.000141379
0.0011317 -1.08586e-06 7.46111e-08
-1.08586e-06 0.000157532 -1.57328e-06
7.46111e-08 -1.57328e-06 6.63175e-05
0.001022 3.87485e-07 4.8701e-07
3.87485e-07 9.15777e-05 -6.50815e-08
4.8701e-07 -6.50815e-08 1.39351e-05
0.00102232 3.58706e-05 2.86844e-07
3.58706e-05 9.83148e-05 -1.91746e-07
2.86844e-07 -1.91746e-07 1.40438e-05
0.000694757 -0.000190802 -4.98281e-06
-0.000190802 -7.80569e-05 2.70149e-06
-4.98281e-06 2.70149e-06 -0.000126052
0.00107828 -1.59095e-05 8.02192e-07
-1.59095e-05 0.000113965 -1.01721e-06
8.02192e-07 -1.01721e-06 2.95597e-05
0.000857248 3.3789e-05 -2.34995e-06
3.3789e-05 0.00022214 -1.31828e-06
-2.34995e-06 -1.31828e-06 5.34809e-05
0.000955894 -8.37887e-07 7.7174e-07
-8.37887e-07 6.11005e-05 1.8181e-07
7.7174e-07 1.8181e-07 -1.40024e-05
-0.00111872 -7.48801e-05 -1.03713e-07
-7.48801e-05 -0.000572305 -1.07185e-05
-1.03713e-07 -1.07185e-05 -0.000793961
0.00026009 -6.82551e-07 -3.73085e-06
-6.82551e-07 -0.000119318 2.02734e-05
-3.73085e-06 2.02734e-05 -0.000157643
0.00102193 -1.60679e-05 2.38173e-07
-1.60679e-05 8.96822e-05 1.79282e-06
2.38173e-07 1.79282e-06 8.68597e-06
0.00118844 1.00905e-06 -3.30132e-07
1.00905e-06 0.0002153 6.03992e-07
-3.30132e-07 6.03992e-07 8.15346e-05
0.00102739 -9.70357e-07 5.01819e-06
-9.70357e-07 0.000139312 1.79476e-06
5.01819e-06 1.79476e-06 3.54418e-05
0.00135381 -6.88777e-06 1.0262e-05
-6.88777e-06 0.00020699 1.52049e-06
1.0262e-05 1.52049e-06 0.000111253
0.000937897 7.01199e-05 4.15988e-06
7.01199e-05 0.000159724 4.46081e-06
4.15988e-06 4.46081e-06 8.63695e-05
0.000544305 0.000121667 1.20937e-05
0.000121667 0.000162982 -1.39921e-05
1.20937e-05 -1.39921e-05 3.46049e-05
0.000984709 9.98741e-06 -1.48282e-05
9.98741e-06 0.00012804 -6.66946e-06
-1.48282e-05 -6.66946e-06 5.041e-05
0.00346545 5.22662e-05 -2.40493e-05
5.22662e-05 0.000418008 -3.93529e-06
-2.40493e-05 -3.93529e-06 -0.000330805
-0.00190362 3.36188e-05 -1.07971e-05
3.36188e-05 -0.00211018 6.63544e-05
-1.07971e-05 6.63544e-05 -0.00203181
0.00105005 -1.57133e-06 -7.74231e-06
-1.57133e-06 8.94949e-05 -1.49401e-06
-7.74231e-06 -1.49401e-06 -1.23041e-06
0.00157247 8.50354e-05 -3.05284e-06
8.50354e-05 -0.000609215 1.15835e-05
-3.05284e-06 1.15835e-05 -0.000270981
0.000524835 4.20744e-05 -4.24695e-06
4.20744e-05 9.41471e-05 -2.5233e-06
-4.24695e-06 -2.5233e-06 1.78497e-05
0.00109869 -1.88637e-06 -4.84046e-06
-1.88637e-06 0.000167534 6.37596e-06
-4.84046e-06 6.37596e-06 4.58543e-05
0.00114339 2.20907e-06 3.54838e-06
2.20907e-06 2.16462e-05 -3.22654e-06
3.54838e-06 -3.22654e-06 -4.16851e-05
0.00128979 0.000230732 4.40813e-05
0.000230732 6.68829e-05 1.63333e-06
4.40813e-05 1.63333e-06 -3.6393e-05
0.00192361 0.000216627 2.7452e-06
0.000216627 -0.00040392 -2.72639e-06
2.7452e-06 -2.72639e-06 0.000126981
0.000935398 0.000151927 6.18705e-06
0.000151927 -0.000743575 -1.00893e-05
6.18705e-06 -1.00893e-05 -0.000606846
0.00734579 0.000103033 7.90545e-06
0.000103033 0.00231321 -1.88747e-05
7.90545e-06 -1.88747e-05 0.00138778
-0.000548413 5.45626e-06 -3.04565e-05
5.45626e-06 -0.000101762 -1.47753e-05
-3.04565e-05 -1.47753e-05 -0.00023576
0.0011509 -1.1836e-05 -1.16245e-05
-1.1836e-05 0.000176918 4.28589e-06
-1.16245e-05 4.28589e-06 8.21358e-05
0.00128224 2.92661e-05 2.83495e-05
2.92661e-05 -0.000119148 -1.42451e-05
2.83495e-05 -1.42451e-05 -0.00015786
0.00131993 0.000385 1.63932e-05
0.000385 7.44394e-06 -2.63503e-06
1.63932e-05 -2.63503e-06 0.000751403
-0.00349311 0.000289666 6.30731e-05
0.000289666 -0.00264684 -3.21347e-05
6.30731e-05 -3.21347e-05 -0.00253484
0.00799454 0.000255149 1.74781e-05
0.000255149 0.00242149 -3.74186e-05
1.74781e-05 -3.74186e-05 0.00112896
0.00185663 -4.77393e-05 -6.1543e-06
-4.77393e-05 0.000235656 9.57157e-05
-6.1543e-06 9.57157e-05 7.38863e-05
0.00121599 1.02901e-05 1.28546e-06
1.02901e-05 0.00020931 7.55793e-06
1.28546e-06 7.55793e-06 0.000148104
0.000239006 -2.7744e-05 -3.38963e-07
-2.7744e-05 -0.000111241 2.97154e-07
-3.38963e-07 2.97154e-07 -0.000248509
0.000253882 -5.27961e-05 2.94576e-06
-5.27961e-05 -8.08104e-06 -5.58102e-06
2.94576e-06 -5.58102e-06 -0.000207406
0.000963497 -3.69234e-05 1.98364e-07
-3.69234e-05 5.21552e-05 -9.07965e-07
1.98364e-07 -9.07965e-07 -1.66801e-05
0.000764987 -2.79209e-05 3.85331e-07
-2.79209e-05 -3.83209e-05 2.6857e-06
3.85331e-07 2.6857e-06 -9.12553e-05
0.000762839 -1.62933e-05 -1.28754e-08
-1.62933e-05 2.80622e-05 1.55031e-07
-1.28754e-08 1.55031e-07 -6.58739e-05
0.00100375 -9.2276e-05 4.18582e-06
-9.2276e-05 0.000215644 -5.06707e-07
4.18582e-06 -5.06707e-07 4.01545e-05
0.00125385 -4.39278e-05 -4.88863e-07
-4.39278e-05 0.000221812 -4.73475e-07
-4.88863e-07 -4.73475e-07 0.000141861
0.00116612 -7.85656e-05 5.37301e-07
-7.85656e-05 0.000225373 2.56947e-07
5.37301e-07 2.56947e-07 0.000108179
0.000985243 -9.09158e-05 1.85265e-06
-9.09158e-05 0.000147104 1.58599e-06
1.85265e-06 1.58599e-06 -1.94256e-05
0.000544264 -4.59778e-05 -1.33896e-07
-4.59778e-05 -0.000100714 -1.49155e-06
-1.33896e-07 -1.49155e-06 -0.000198455
0.00110401 -9.14227e-05 -3.78755e-07
-9.14227e-05 0.000171396 -1.47494e-07
-3.78755e-07 -1.47494e-07 4.24167e-05
0.00162203 -0.00012333 -1.02648e-06
-0.00012333 0.000389236 1.46273e-06
-1.02648e-06 1.46273e-06 0.000242787
0.00141625 -0.000115133 -3.23825e-06
-0.000115133 0.000252274 2.64571e-06
-3.23825e-06 2.64571e-06 0.000118736
0.000767332 -7.77571e-05 -1.15365e-06
-7.77571e-05 -3.39303e-05 1.64078e-06
-1.15365e-06 1.64078e-06 -0.000137784
0.00107995 -9.32663e-05 -8.89971e-07
-9.32663e-05 0.000112685 7.77148e-07
-8.89971e-07 7.77148e-07 -7.80784e-06
0.000989859 -8.43631e-05 -2.08695e-07
-8.43631e-05 9.32949e-05 -7.69044e-07
-2.08695e-07 -7.69044e-07 -2.51781e-05
0.00117366 -8.85141e-05 3.54322e-07
-8.85141e-05 0.000188396 -1.16752e-06
3.54322e-07 -1.16752e-06 9.43063e-05
0.00108857 -8.64008e-05 1.56195e-06
-8.64008e-05 0.000147056 -6.23162e-07
1.56195e-06 -6.23162e-07 4.93996e-05
0.000821247 -4.03274e-05 -5.62549e-07
-4.03274e-05 1.40011e-05 1.03762e-06
-5.62549e-07 1.03762e-06 -7.02751e-05
0.000918641 -6.74821e-05 3.6447e-07
-6.74821e-05 7.3712e-05 -1.1238e-07
3.6447e-07 -1.1238e-07 -2.06445e-05
0.000967488 -7.98888e-05 3.49137e-06
-7.98888e-05 8.94351e-05 -1.46839e-06
3.49137e-06 -1.46839e-06 -1.24448e-05
0.000924403 1.76665e-05 -7.32174e-07
1.76665e-05 4.99635e-05 1.32211e-06
-7.32174e-07 1.32211e-06 -1.19893e-05
0.000988936 -2.81576e-05 -1.41963e-07
-2.81576e-05 8.99777e-05 -3.09616e-08
-1.41963e-07 -3.09616e-08 1.44362e-05
0.00109426 -6.51608e-05 4.91748e-07
-6.51608e-05 0.000152774 -3.70825e-07
4.91748e-07 -3.70825e-07 6.29073e-05
0.000842775 2.80956e-05 -1.0882e-06
2.80956e-05 7.65044e-06 1.95295e-06
-1.0882e-06 1.95295e-06 -2.82558e-05
0.00090567 1.42432e-05 1.10998e-07
1.42432e-05 3.75336e-05 -5.11879e-08
1.10998e-07 -5.11879e-08 -1.75801e-05
0.00083349 -1.21171e-05 8.46777e-07
-1.21171e-05 5.397e-06 -9.08279e-07
8.46777e-07 -9.08279e-07 -6.562e-05
0.00089483 1.83265e-05 4.24543e-07
1.83265e-05 2.99106e-05 -1.30515e-06
4.24543e-07 -1.30515e-06 -1.99792e-05
0.000847531 2.82261e-05 4.95617e-08
2.82261e-05 5.24891e-06 -4.73247e-08
4.95617e-08 -4.73247e-08 -2.68869e-05
0.000763384 2.80678e-05 -2.00834e-06
2.80678e-05 -3.82792e-05 3.23645e-06
-2.00834e-06 3.23645e-06 -4.39079e-05
0.000857432 2.35363e-05 8.53903e-07
2.35363e-05 4.66587e-06 -1.7578e-06
8.53903e-07 -1.7578e-06 -2.48909e-05
0.00079362 2.47877e-05 8.81576e-08
2.47877e-05 -2.98597e-05 -2.78743e-09
8.81576e-08 -2.78743e-09 -3.34256e-05
0.00213212 3.43923e-05 -1.75031e-05
3.43923e-05 0.000677558 3.55349e-06
-1.75031e-05 3.55349e-06 0.000697146
0.000810838 2.11971e-05 1.52438e-06
2.11971e-05 -2.68328e-05 -3.12865e-06
1.52438e-06 -3.12865e-06 -2.89478e-05
0.00154016 2.61045e-05 6.94653e-06
2.61045e-05 0.00035993 -1.02316e-06
6.94653e-06 -1.02316e-06 0.000377821
0.00211898 2.36719e-05 1.34012e-05
2.36719e-05 0.00066104 -3.70794e-06
1.34012e-05 -3.70794e-06 0.000682681
0.000895023 1.53001e-05 -6.26336e-07
1.53001e-05 2.74262e-05 -7.09382e-07
-6.26336e-07 -7.09382e-07 -2.52561e-05
0.000842955 -1.50518e-05 -7.12274e-07
-1.50518e-05 -4.71294e-06 -1.55895e-06
-7.12274e-07 -1.55895e-06 -3.64115e-05
0.000819406 8.42178e-06 -6.10834e-07
8.42178e-06 -9.77769e-06 -5.18982e-07
-6.10834e-07 -5.18982e-07 -6.18635e-05
0.000822222 -1.77504e-05 -7.50198e-07
-1.77504e-05 -2.37004e-05 -3.17504e-06
-7.50198e-07 -3.17504e-06 -2.60256e-05
0.0007389 -1.32095e-05 -1.54286e-07
-1.32095e-05 -6.03489e-05 -6.03513e-07
-1.54286e-07 -6.03513e-07 -9.05823e-05
0.0010037 -3.83468e-06 5.90009e-08
-3.83468e-06 8.73341e-05 1.00592e-07
5.90009e-08 1.00592e-07 3.79015e-05
0.00210999 -1.79404e-05 -1.07215e-05
-1.79404e-05 0.000652711 -3.9163e-06
-1.07215e-05 -3.9163e-06 0.000675141
0.000814028 -1.3274e-05 -1.07314e-07
-1.3274e-05 -3.27443e-05 -2.41421e-08
-1.07314e-07 -2.41421e-08 -3.26115e-05
0.000621142 -1.04272e-05 5.06863e-08
-1.04272e-05 -0.000124432 7.67979e-07
5.06863e-08 7.67979e-07 -0.000152566
0.00205886 -1.16982e-05 -1.63944e-06
-1.16982e-05 0.000622193 2.49217e-08
-1.63944e-06 2.49217e-08 0.000645868
0.000809602 -8.75703e-06 3.84672e-07
-8.75703e-06 -3.87833e-05 2.98428e-06
3.84672e-07 2.98428e-06 -3.67426e-05
0.0020279 -5.53875e-06 2.81846e-06
-5.53875e-06 0.000603704 3.86987e-06
2.81846e-06 3.86987e-06 0.000628117
0.00107899 5.85047e-07 7.27737e-06
5.85047e-07 0.000146957 -1.36722e-05
7.27737e-06 -1.36722e-05 2.70333e-05
0.00115568 -8.50593e-06 -2.12528e-06
-8.50593e-06 0.000183876 3.01979e-07
-2.12528e-06 3.01979e-07 9.03541e-05
0.00118518 -9.97132e-06 3.75471e-06
-9.97132e-06 6.22545e-05 4.37034e-06
3.75471e-06 4.37034e-06 -2.44396e-05
0.000876526 -1.99287e-05 4.53828e-08
-1.99287e-05 1.6909e-05 -4.09611e-07
4.53828e-08 -4.09611e-07 -4.73072e-05
0.00102611 -2.25753e-06 -8.84341e-08
-2.25753e-06 9.97366e-05 -2.62524e-07
-8.84341e-08 -2.62524e-07 2.94058e-05
0.000996722 1.92729e-05 1.02823e-06
1.92729e-05 8.67609e-05 1.86443e-07
1.02823e-06 1.86443e-07 2.36904e-05
0.00087988 -7.4931e-06 2.49379e-08
-7.4931e-06 2.01675e-05 2.52797e-08
2.49379e-08 2.52797e-08 -4.36529e-05
0.000974503 1.33888e-05 9.473e-08
1.33888e-05 7.789e-05 3.33266e-07
9.473e-08 3.33266e-07 6.87534e-06
0.000984519 1.15623e-05 -5.20642e-07
1.15623e-05 8.06153e-05 1.27157e-07
-5.20642e-07 1.27157e-07 1.02364e-05
0.000955935 7.39104e-05 5.9464e-08
7.39104e-05 7.4595e-05 7.44035e-07
5.9464e-08 7.44035e-07 -4.12449e-06
0.00126706 1.01863e-05 -1.84353e-06
1.01863e-05 0.000100468 1.44141e-05
-1.84353e-06 1.44141e-05 3.56212e-05
0.00115643 1.02199e-05 2.75638e-06
1.02199e-05 9.84543e-05 3.11054e-06
2.75638e-06 3.11054e-06 1.15178e-05
0.00116007 5.63686e-06 -8.07787e-06
5.63686e-06 3.40073e-05 -1.64641e-06
-8.07787e-06 -1.64641e-06 -2.40289e-05
0.00094674 2.02998e-05 3.84594e-06
2.02998e-05 -0.000934496 -5.29421e-06
3.84594e-06 -5.29421e-06 -0.000571881
-1.5902e-05 -4.95494e-05 -5.6589e-05
-4.95494e-05 -0.00156816 5.76749e-05
-5.6589e-05 5.76749e-05 -0.00167279
0.0023003 0.00010541 4.6455e-05
0.00010541 0.000163966 -4.72354e-05
4.6455e-05 -4.72354e-05 -0.000993542
0.00545887 0.000338193 2.66736e-05
0.000338193 0.0013753 -2.41033e-05
2.66736e-05 -2.41033e-05 0.0013084
0.00209131 -0.000276988 -1.88541e-05
-0.000276988 -0.000278132 1.18789e-05
-1.88541e-05 1.18789e-05 -0.000577025
0.00269747 -7.49862e-05 3.02102e-05
-7.49862e-05 -6.85854e-05 -4.37689e-05
3.02102e-05 -4.37689e-05 -0.0012206
0.00357758 6.37772e-06 -1.54849e-05
6.37772e-06 0.000414574 2.33791e-06
-1.54849e-05 2.33791e-06 0.000417078
0.00280173 -9.47631e-05 6.82728e-08
-9.47631e-05 0.000172026 -5.38812e-06
6.82728e-08 -5.38812e-06 0.000596596
0.00370815 -0.000248875 1.22639e-05
-0.000248875 0.000973768 -1.60911e-05
1.22639e-05 -1.60911e-05 0.000858065
0.00323984 -0.000362596 -3.97096e-06
-0.000362596 -0.000613519 -9.68712e-05
-3.97096e-06 -9.68712e-05 -0.00100329
-2.65693e-05 -0.000144158 3.52457e-05
-0.000144158 -0.00143733 3.66889e-05
3.52457e-05 3.66889e-05 -0.00145147
1.46724e-05 -0.000151261 1.64086e-05
-0.000151261 -0.00145979 5.85973e-06
1.64086e-05 5.85973e-06 -0.000979407
0.00110227 -2.57114e-05 -1.99594e-07
-2.57114e-05 0.000133774 1.17025e-06
-1.99594e-07 1.17025e-06 5.96203e-05
0.000924004 2.77327e-06 7.58278e-08
2.77327e-06 4.92892e-05 -9.70583e-08
7.58278e-08 -9.70583e-08 -2.93359e-05
0.000901222 -2.1001e-06 -3.42806e-07
-2.1001e-06 4.86785e-05 -8.74377e-07
-3.42806e-07 -8.74377e-07 -3.28207e-05
0.000948054 2.19359e-05 -8.27208e-08
2.19359e-05 6.66724e-05 -9.74846e-07
-8.27208e-08 -9.74846e-07 -5.25964e-06
0.00349265 -0.000229776 1.2317e-05
-0.000229776 0.00127995 3.71923e-06
1.2317e-05 3.71923e-06 0.00125812
0.000558685 1.11425e-05 4.7657e-06
1.11425e-05 0.000124278 -6.35488e-06
4.7657e-06 -6.35488e-06 -3.33085e-05
0.000898088 -1.20291e-05 1.48211e-08
-1.20291e-05 2.43209e-05 -9.42481e-07
1.48211e-08 -9.42481e-07 -5.28681e-05
0.000970851 3.15657e-05 5.03261e-07
3.15657e-05 7.37757e-05 -1.09407e-06
5.03261e-07 -1.09407e-06 -1.11585e-05
0.00147165 -7.48747e-06 9.00573e-07
-7.48747e-06 0.000319526 -4.17035e-06
9.00573e-07 -4.17035e-06 0.00023439
0.000936309 7.3552e-06 -2.6877e-07
7.3552e-06 4.97059e-05 3.60785e-08
-2.6877e-07 3.60785e-08 -2.5544e-05
0.000930042 -6.46489e-06 -1.36234e-06
-6.46489e-06 4.54177e-05 4.58335e-07
-1.36234e-06 4.58335e-07 -3.77012e-05
0.000315969 -9.65633e-05 -1.08955e-07
-9.65633e-05 0.000151778 -4.34563e-06
-1.08955e-07 -4.34563e-06 -4.01732e-05
0.000843645 -3.29168e-06 3.89693e-06
-3.29168e-06 0.000173885 6.92232e-06
3.89693e-06 6.92232e-06 0.000140847
0.00100802 -1.07904e-05 7.63138e-07
-1.07904e-05 9.36281e-05 -8.35182e-07
7.63138e-07 -8.35182e-07 1.52402e-05
-0.000240725 3.02376e-05 5.00631e-07
3.02376e-05 0.000323046 -1.45126e-05
5.00631e-07 -1.45126e-05 -0.000219186
0.00153161 -3.76263e-05 5.70849e-06
-3.76263e-05 0.000516789 1.01016e-05
5.70849e-06 1.01016e-05 0.000427487
0.00124597 -5.86377e-07 -1.85742e-05
-5.86377e-07 0.000279029 -2.76536e-06
-1.85742e-05 -2.76536e-06 0.00017972
0.00119158 -8.77408e-08 2.81351e-08
-8.77408e-08 0.000187826 4.82522e-07
2.81351e-08 4.82522e-07 4.1874e-05
0.000847932 -3.06975e-07 -1.16856e-05
-3.06975e-07 2.51205e-05 9.46283e-07
-1.16856e-05 9.46283e-07 -8.75473e-05
0.000929884 2.83432e-05 1.2195e-06
2.83432e-05 0.000271036 4.9123e-06
1.2195e-06 4.9123e-06 0.000202717
0.00154743 0.000139749 -5.88973e-05
0.000139749 0.000497452 1.26985e-05
-5.88973e-05 1.26985e-05 0.000538784
0.00106074 -2.03228e-06 -4.65827e-06
-2.03228e-06 0.000147303 -5.82323e-06
-4.65827e-06 -5.82323e-06 1.79503e-05
0.00321158 0.000224757 3.55279e-05
0.000224757 0.000240826 -7.69996e-05
3.55279e-05 -7.69996e-05 -0.000706223
0.00517096 0.000361057 -3.07358e-05
0.000361057 0.00126473 2.69513e-05
-3.07358e-05 2.69513e-05 0.00120743
0.00117157 -3.18616e-06 6.70868e-06
-3.18616e-06 4.98766e-05 2.5933e-06
6.70868e-06 2.5933e-06 -1.48276e-05
0.00316581 0.000220227 -1.95466e-05
0.000220227 0.000457415 1.43454e-05
-1.95466e-05 1.43454e-05 0.000913116
-0.000199373 -1.79917e-05 2.22481e-05
-1.79917e-05 3.42389e-05 -2.1e-06
2.22481e-05 -2.1e-06 -9.69832e-05
0.00113229 -1.12612e-05 2.21373e-06
-1.12612e-05 0.000176538 -4.26813e-07
2.21373e-06 -4.26813e-07 8.33494e-05
0.00120644 2.10924e-05 9.08367e-06
2.10924e-05 -0.000151532 -4.69424e-06
9.08367e-06 -4.69424e-06 -0.000213139
0.0018366 -4.09232e-05 -8.58807e-06
-4.09232e-05 0.000337287 2.03674e-05
-8.58807e-06 2.03674e-05 0.00032649
8.96798e-05 0.00040452 -4.39573e-06
0.00040452 -0.000881093 3.47592e-06
-4.39573e-06 3.47592e-06 5.90455e-06
0.00235955 0.000412928 3.28233e-06
0.000412928 -0.000153213 -4.87504e-06
3.28233e-06 -4.87504e-06 -2.93214e-05
0.00290551 8.17557e-06 3.1488e-05
8.17557e-06 0.000270658 -1.45937e-05
3.1488e-05 -1.45937e-05 -0.00111569
0.000319699 -6.20655e-05 1.85123e-05
-6.20655e-05 0.000167953 -1.01833e-05
1.85123e-05 -1.01833e-05 5.35025e-05
0.00116545 -9.64201e-06 9.12825e-06
-9.64201e-06 5.26293e-05 -3.58783e-06
9.12825e-06 -3.58783e-06 -4.89452e-05
-0.00119518 0.000181021 9.1071e-06
0.000181021 -0.000938121 -9.9246e-06
9.1071e-06 -9.9246e-06 -0.00075156
-0.000179069 0.000389026 4.97712e-05
0.000389026 -0.000241293 -1.12711e-05
4.97712e-05 -1.12711e-05 2.91805e-05
0.00816576 0.000540917 2.6318e-05
0.000540917 0.00259589 -5.02477e-05
2.6318e-05 -5.02477e-05 0.00142788
0.00317088 -0.000258218 -6.00295e-05
-0.000258218 0.000509866 9.32669e-05
-6.00295e-05 9.32669e-05 -7.46912e-06
0.000335048 -3.44179e-05 -1.79861e-06
-3.44179e-05 -6.99189e-05 5.60177e-06
-1.79861e-06 5.60177e-06 -0.000220227
0.000458204 -2.98479e-05 8.18677e-07
-2.98479e-05 9.61057e-05 -8.23286e-07
8.18677e-07 -8.23286e-07 -0.00010006
0.00175224 -0.000156005 9.25685e-06
-0.000156005 0.000571448 -2.99388e-06
9.25685e-06 -2.99388e-06 0.000423689
0.000770473 2.28039e-06 -1.88247e-06
2.28039e-06 3.71324e-05 -9.183e-07
-1.88247e-06 -9.183e-07 -4.94416e-05
0.000467743 -5.83399e-05 6.0688e-07
-5.83399e-05 -3.10256e-05 -3.05001e-07
6.0688e-07 -3.05001e-07 -0.000213794
0.00119911 -0.000113879 4.19043e-06
-0.000113879 0.000236692 3.73933e-06
4.19043e-06 3.73933e-06 5.63095e-05
0.00150865 -0.000106738 -1.20692e-06
-0.000106738 0.000385554 -3.5302e-07
-1.20692e-06 -3.5302e-07 0.000262875
0.00117751 -9.79744e-05 1.28474e-07
-9.79744e-05 0.000233322 6.22999e-07
1.28474e-07 6.22999e-07 6.77428e-05
0.00113331 -0.000114543 5.09437e-07
-0.000114543 0.000133447 8.63136e-07
5.09437e-07 8.63136e-07 -3.68123e-05
0.00121122 -9.50912e-05 -7.09392e-07
-9.50912e-05 0.000224724 -6.78428e-07
-7.09392e-07 -6.78428e-07 9.2341e-05
0.00154502 -0.000120948 -1.71829e-08
-0.000120948 0.000343925 5.65838e-07
-1.71829e-08 5.65838e-07 0.000195693
0.00123938 -0.00011588 -6.58166e-07
-0.00011588 0.000147118 3.78272e-07
-6.58166e-07 3.78272e-07 -7.48169e-06
0.00136665 -0.000114891 -2.58516e-06
-0.000114891 0.000172673 -9.65732e-07
-2.58516e-06 -9.65732e-07 3.83023e-05
0.00161436 -0.000117536 -3.59635e-06
-0.000117536 0.00035603 3.40911e-06
-3.59635e-06 3.40911e-06 0.000237393
0.00137171 -0.000114583 -6.57376e-07
-0.000114583 0.000226368 6.74883e-07
-6.57376e-07 6.74883e-07 9.00837e-05
0.000697914 -7.23293e-05 -3.47959e-08
-7.23293e-05 -6.90856e-05 -6.90263e-07
-3.47959e-08 -6.90263e-07 -0.000163803
0.00089821 -8.25889e-05 1.22494e-06
-8.25889e-05 3.31113e-05 -4.31151e-07
1.22494e-06 -4.31151e-07 -7.00446e-05
0.00103002 -9.21514e-05 1.35545e-06
-9.21514e-05 8.78173e-05 -1.16587e-06
1.35545e-06 -1.16587e-06 -3.47235e-05
0.00104909 -7.79874e-05 -3.50615e-07
-7.79874e-05 0.000123711 1.07253e-07
-3.50615e-07 1.07253e-07 3.30463e-05
0.00112928 -8.63053e-05 -1.06223e-07
-8.63053e-05 0.00016699 -3.03065e-07
-1.06223e-07 -3.03065e-07 7.26044e-05
0.000850908 -7.60555e-05 2.91559e-06
-7.60555e-05 2.78052e-05 3.16614e-07
2.91559e-06 3.16614e-07 -6.72049e-05
0.000880132 8.57438e-06 -2.34468e-07
8.57438e-06 3.2573e-05 1.24247e-06
-2.34468e-07 1.24247e-06 -3.82591e-05
0.000900396 -4.19419e-05 2.56339e-08
-4.19419e-05 5.37351e-05 4.06488e-07
2.56339e-08 4.06488e-07 -2.98043e-05
0.00108434 -7.1273e-05 1.19419e-06
-7.1273e-05 0.000157198 -7.04082e-07
1.19419e-06 -7.04082e-07 6.3713e-05
0.000825203 3.52577e-05 -1.33e-06
3.52577e-05 2.21444e-06 2.16205e-06
-1.33e-06 2.16205e-06 -3.95203e-05
0.000905307 9.99548e-06 -1.56877e-07
9.99548e-06 4.09091e-05 -4.78527e-08
-1.56877e-07 -4.78527e-08 -2.15509e-05
0.000998845 -3.20453e-05 5.75132e-07
-3.20453e-05 9.55135e-05 -7.71669e-07
5.75132e-07 -7.71669e-07 1.95187e-05
0.000778102 3.15801e-05 -3.34692e-06
3.15801e-05 -2.40533e-05 4.56696e-06
-3.34692e-06 4.56696e-06 -3.23167e-05
0.00083376 3.25567e-05 2.32723e-07
3.25567e-05 3.64271e-06 -6.39513e-08
2.32723e-07 -6.39513e-08 -3.27232e-05
0.000884725 1.37677e-05 7.45998e-07
1.37677e-05 2.65435e-05 -1.2759e-06
7.45998e-07 -1.2759e-06 -2.8378e-05
0.000842823 3.04657e-05 7.2717e-07
3.04657e-05 2.83334e-06 -1.94306e-06
7.2717e-07 -1.94306e-06 -2.94707e-05
0.000785148 2.86369e-05 5.23411e-08
2.86369e-05 -2.72182e-05 -3.93848e-08
5.23411e-08 -3.93848e-08 -3.29462e-05
0.00215051 3.97763e-05 -1.98122e-05
3.97763e-05 0.000694217 3.45676e-06
-1.98122e-05 3.45676e-06 0.000712247
0.000809405 2.51676e-05 1.84192e-06
2.51676e-05 -2.18404e-05 -3.1652e-06
1.84192e-06 -3.1652e-06 -2.54496e-05
0.00212954 3.45188e-05 9.08774e-07
3.45188e-05 0.000677108 5.57354e-08
9.08774e-07 5.57354e-08 0.000696553
0.00211814 2.92111e-05 1.61034e-05
2.92111e-05 0.000665781 -3.62753e-06
1.61034e-05 -3.62753e-06 0.000686402
0.000951058 1.17384e-05 -2.37249e-07
1.17384e-05 5.90295e-05 -5.34708e-07
-2.37249e-07 -5.34708e-07 -7.67846e-06
0.00090038 1.93482e-05 -8.1139e-07
1.93482e-05 3.11206e-05 -1.00741e-06
-8.1139e-07 -1.00741e-06 -2.48734e-05
0.00083639 -2.1785e-05 -7.39265e-07
-2.1785e-05 -5.59214e-06 -1.70504e-06
-7.39265e-07 -1.70504e-06 -3.94593e-05
0.000902101 9.3938e-06 -1.28649e-07
9.3938e-06 3.01515e-05 -4.45722e-08
-1.28649e-07 -4.45722e-08 -2.20484e-05
0.000807876 -2.12683e-05 -1.22318e-06
-2.12683e-05 -2.6011e-05 -3.27756e-06
-1.22318e-06 -3.27756e-06 -3.06277e-05
0.000851024 -1.65341e-05 -8.91064e-08
-1.65341e-05 -9.28586e-08 7.18659e-09
-8.91064e-08 7.18659e-09 -3.19023e-05
0.000871574 1.15405e-05 1.60884e-07
1.15405e-05 1.57755e-05 1.9328e-07
1.60884e-07 1.9328e-07 -3.41475e-05
0.00217248 -2.38882e-05 -1.37514e-05
-2.38882e-05 0.000689899 -3.9359e-06
-1.37514e-05 -3.9359e-06 0.000710883
0.000803601 -1.74741e-05 -1.15734e-07
-1.74741e-05 -3.33381e-05 -2.56144e-08
-1.15734e-07 -2.56144e-08 -3.55406e-05
0.000860825 -1.36363e-05 9.5089e-08
-1.36363e-05 3.0443e-06 9.24833e-07
9.5089e-08 9.24833e-07 -2.66265e-05
0.00210303 -1.77031e-05 -1.49535e-06
-1.77031e-05 0.000648609 3.94733e-08
-1.49535e-06 3.94733e-08 0.000671216
0.000797949 -1.30651e-05 5.0344e-07
-1.30651e-05 -4.10746e-05 3.0392e-06
5.0344e-07 3.0392e-06 -4.08315e-05
0.00205177 -1.1406e-05 6.38523e-06
-1.1406e-05 0.000618094 3.85918e-06
6.38523e-06 3.85918e-06 0.00064191
0.000839095 1.07051e-05 -9.50897e-06
1.07051e-05 2.71028e-05 -1.03499e-05
-9.50897e-06 -1.03499e-05 -6.23922e-05
0.00108764 6.43065e-07 4.99663e-06
6.43065e-07 0.00015725 -6.61512e-06
4.99663e-06 -6.61512e-06 2.93618e-05
0.00113425 -8.67844e-06 -1.61226e-05
-8.67844e-06 0.000181114 1.092e-05
-1.61226e-05 1.092e-05 8.88641e-05
0.000913056 4.23547e-06 -1.8609e-07
4.23547e-06 3.93283e-05 3.78619e-09
-1.8609e-07 3.78619e-09 -2.66021e-05
0.000981774 -3.79681e-06 -2.47339e-08
-3.79681e-06 7.62315e-05 2.26262e-07
-2.47339e-08 2.26262e-07 5.40993e-06
0.000906947 1.43542e-06 -1.19572e-07
1.43542e-06 4.11165e-05 -1.24099e-06
-1.19572e-07 -1.24099e-06 -3.38167e-05
0.000876776 -7.75134e-06 -4.36534e-08
-7.75134e-06 2.29544e-05 -5.72659e-07
-4.36534e-08 -5.72659e-07 -4.75425e-05
0.00104217 3.05501e-05 -3.97583e-07
3.05501e-05 0.000115535 -1.34459e-07
-3.97583e-07 -1.34459e-07 3.80418e-05
0.000863984 -1.08079e-05 -9.72427e-08
-1.08079e-05 1.12526e-05 2.6778e-07
-9.72427e-08 2.6778e-07 -5.21597e-05
0.000909975 -3.39954e-06 1.36162e-07
-3.39954e-06 4.13992e-05 -3.70866e-08
1.36162e-07 -3.70866e-08 -2.89657e-05
0.000957542 2.38988e-05 -1.76816e-07
2.38988e-05 6.89808e-05 -3.56958e-08
-1.76816e-07 -3.56958e-08 -2.24578e-06
0.000977303 2.54756e-05 3.77359e-07
2.54756e-05 7.83687e-05 4.071e-07
3.77359e-07 4.071e-07 2.54465e-06
0.00103145 2.17882e-05 -2.13709e-07
2.17882e-05 0.00011174 2.96097e-07
-2.13709e-07 2.96097e-07 3.61493e-05
0.00130925 -2.00124e-05 1.80367e-05
-2.00124e-05 1.08321e-05 2.31947e-05
1.80367e-05 2.31947e-05 -8.00171e-05
0.00124489 9.68561e-06 2.80996e-06
9.68561e-06 7.85985e-05 9.13987e-06
2.80996e-06 9.13987e-06 1.69137e-05
0.00116661 8.2939e-06 5.12383e-06
8.2939e-06 0.000163985 5.27159e-06
5.12383e-06 5.27159e-06 7.36792e-05
0.00207427 -8.23296e-05 -7.33003e-06
-8.23296e-05 -0.000200224 -1.55246e-05
-7.33003e-06 -1.55246e-05 0.000206511
-0.00156604 6.37007e-05 -4.97775e-06
6.37007e-05 -0.00197218 -5.88212e-05
-4.97775e-06 -5.88212e-05 -0.00195444
0.000976897 -0.000274636 -9.71711e-05
-0.000274636 -0.000923013 8.71222e-05
-9.71711e-05 8.71222e-05 -0.00131647
0.00782078 0.000206468 -2.78079e-05
0.000206468 0.00191439 -4.4031e-05
-2.78079e-05 -4.4031e-05 0.00123457
0.00219339 -0.000264798 -3.48092e-05
-0.000264798 2.67225e-05 3.79062e-05
-3.48092e-05 3.79062e-05 -0.000388386
0.00807171 -0.000128504 4.23884e-05
-0.000128504 0.00230936 -5.48757e-07
4.23884e-05 -5.48757e-07 0.00146408
0.0011419 -0.00019898 1.2905e-05
-0.00019898 -0.00076951 -1.75835e-05
1.2905e-05 -1.75835e-05 -0.000760704
0.000421271 -0.000182822 -5.28294e-06
-0.000182822 -0.0013437 -1.56609e-05
-5.28294e-06 -1.56609e-05 -0.000723007
0.00211587 -5.47853e-05 -5.9285e-05
-5.47853e-05 0.00026961 -5.24374e-05
-5.9285e-05 -5.24374e-05 -0.000176979
0.00804536 -0.000406175 -2.675e-05
-0.000406175 0.0019795 4.98246e-05
-2.675e-05 4.98246e-05 0.00132061
0.00711522 -0.000529069 2.68814e-05
-0.000529069 0.00208705 1.81564e-05
2.68814e-05 1.81564e-05 0.00231285
0.00201898 -0.000312999 9.64255e-06
-0.000312999 4.1337e-05 2.44043e-06
9.64255e-06 2.44043e-06 0.000839251
0.000869623 1.86321e-05 7.15397e-08
1.86321e-05 3.90547e-05 1.48875e-06
7.15397e-08 1.48875e-06 -2.95187e-05
0.00104143 -1.8246e-05 -1.51295e-07
-1.8246e-05 0.000106754 2.19943e-07
-1.51295e-07 2.19943e-07 3.13317e-05
0.000891141 3.23661e-06 2.12083e-07
3.23661e-06 3.18334e-05 -7.5405e-07
2.12083e-07 -7.5405e-07 -4.68271e-05
0.00120068 -9.48582e-05 2.18953e-05
-9.48582e-05 0.000575387 -2.1533e-06
2.18953e-05 -2.1533e-06 0.000428602
0.00118259 -1.72405e-05 -3.25072e-06
-1.72405e-05 0.000344942 -6.0528e-06
-3.25072e-06 -6.0528e-06 0.000315974
0.000919352 -1.73815e-06 -3.56851e-07
-1.73815e-06 3.96126e-05 -4.25243e-08
-3.56851e-07 -4.25243e-08 -3.58191e-05
0.000909573 -3.57094e-05 -1.05843e-06
-3.57094e-05 3.41135e-05 -6.312e-07
-1.05843e-06 -6.312e-07 -4.86188e-05
0.000937468 -1.46911e-05 -3.42955e-07
-1.46911e-05 5.9861e-05 -8.18469e-08
-3.42955e-07 -8.18469e-08 -1.78631e-05
0.000636289 -3.8652e-05 8.6625e-07
-3.8652e-05 7.06124e-05 4.21777e-06
8.6625e-07 4.21777e-06 -2.34833e-05
-0.00035687 1.48244e-05 9.86779e-06
1.48244e-05 0.000157514 -1.79125e-05
9.86779e-06 -1.79125e-05 -0.000366689
3.95693e-05 -8.80344e-06 -1.02521e-06
-8.80344e-06 -0.000238011 4.87614e-06
-1.02521e-06 4.87614e-06 -0.000349507
0.00161861 0.000112989 2.02629e-05
0.000112989 0.000692402 -3.77214e-06
2.02629e-05 -3.77214e-06 0.000437882
0.00148098 -2.15546e-06 1.75519e-06
-2.15546e-06 0.000282083 3.63071e-09
1.75519e-06 3.63071e-09 0.000186744
0.00101982 3.13756e-07 -4.84088e-06
3.13756e-07 0.000135308 -1.59185e-06
-4.84088e-06 -1.59185e-06 2.76363e-05
0.00120598 -9.99965e-07 2.98737e-07
-9.99965e-07 0.000168904 -1.70892e-07
2.98737e-07 -1.70892e-07 1.05386e-05
-0.00103168 -1.91764e-05 -1.43915e-05
-1.91764e-05 -0.000348225 1.33916e-05
-1.43915e-05 1.33916e-05 -0.000493857
0.0010498 1.87827e-05 3.55077e-05
1.87827e-05 -0.000222203 -4.48678e-05
3.55077e-05 -4.48678e-05 -0.000530307
0.00111709 -1.06713e-05 1.55233e-05
-1.06713e-05 0.000178478 -1.08549e-05
1.55233e-05 -1.08549e-05 8.6427e-05
0.00909498 0.000244599 5.04353e-05
0.000244599 0.00265053 5.00487e-06
5.04353e-05 5.00487e-06 0.0013945
0.00488403 0.000547493 -4.49184e-05
0.000547493 0.00131444 2.98016e-05
-4.49184e-05 2.98016e-05 0.00132575
0.00106037 1.24951e-05 -1.04078e-05
1.24951e-05 -0.000222169 1.10093e-05
-1.04078e-05 1.10093e-05 -0.000314736
-0.00114684 0.000425012 -2.00421e-05
0.000425012 -0.00177511 -8.41903e-06
-2.00421e-05 -8.41903e-06 -0.000757539
-3.13904e-05 -3.64789e-05 -4.64088e-06
-3.64789e-05 4.08221e-05 -5.21709e-07
-4.64088e-06 -5.21709e-07 -8.50322e-05
0.00114094 -1.14807e-05 3.12881e-06
-1.14807e-05 4.11292e-05 -1.24309e-06
3.12881e-06 -1.24309e-06 -5.76767e-05
-0.00131629 0.000205026 -1.71145e-05
0.000205026 -0.000926548 4.82386e-06
-1.71145e-05 4.82386e-06 -0.000710731
0.00205568 -0.000215929 -3.71258e-06
-0.000215929 0.000187563 2.92431e-05
-3.71258e-06 2.92431e-05 -0.000161515
0.00348584 0.000550407 4.85054e-06
0.000550407 0.000994512 3.14736e-06
4.85054e-06 3.14736e-06 0.00121427
0.00561198 0.000158241 3.22631e-05
0.000158241 0.00138736 -1.63483e-05
3.22631e-05 -1.63483e-05 -3.49638e-05
0.00274008 -0.000166021 2.40993e-05
-0.000166021 0.000886219 7.12965e-06
2.40993e-05 7.12965e-06 0.000947711
-0.00105326 4.82168e-05 1.43991e-05
4.82168e-05 -0.000636191 -1.39612e-06
1.43991e-05 -1.39612e-06 -0.000727172
0.00322358 0.000411247 3.03883e-05
0.000411247 0.00140989 -1.02431e-05
3.03883e-05 -1.02431e-05 0.00154344
0.0042254 0.000429343 -3.56129e-05
0.000429343 0.000871727 3.6413e-05
-3.56129e-05 3.6413e-05 -0.000255659
0.00141576 -0.000242352 -1.19008e-05
-0.000242352 -0.000142372 3.18759e-05
-1.19008e-05 3.18759e-05 -0.000598288
0.000794557 -8.17724e-06 -3.66303e-06
-8.17724e-06 0.000259092 5.8769e-06
-3.66303e-06 5.8769e-06 7.035e-05
0.000767938 -0.000120675 1.47962e-06
-0.000120675 0.000108547 -2.91073e-06
1.47962e-06 -2.91073e-06 -7.19125e-05
0.00188515 -0.000164158 7.23153e-06
-0.000164158 0.000345405 2.89075e-07
7.23153e-06 2.89075e-07 0.000248903
-1.78103e-05 -2.36804e-05 -1.24555e-06
-2.36804e-05 -0.000255202 3.70511e-07
-1.24555e-06 3.70511e-07 -0.000442343
0.000828468 -9.78055e-05 2.0808e-06
-9.78055e-05 6.26213e-05 2.22924e-08
2.0808e-06 2.22924e-08 -0.000116315
0.00127418 -0.000136642 1.51582e-06
-0.000136642 0.000128296 1.18456e-06
1.51582e-06 1.18456e-06 -1.92319e-05
0.00134977 -0.000103803 -1.60966e-06
-0.000103803 0.000308299 2.76828e-07
-1.60966e-06 2.76828e-07 0.000145536
0.00116716 -0.000113908 -3.94105e-07
-0.000113908 0.000144904 -4.42484e-07
-3.94105e-07 -4.42484e-07 -2.03741e-05
0.00162066 -0.000137759 -1.38456e-06
-0.000137759 0.000263048 -9.7563e-07
-1.38456e-06 -9.7563e-07 0.000122132
0.00147429 -0.000118669 2.74591e-07
-0.000118669 0.000300648 -5.97931e-07
2.74591e-07 -5.97931e-07 0.000151476
0.00126557 -0.000115072 3.37719e-07
-0.000115072 0.000156754 -6.59694e-07
3.37719e-07 -6.59694e-07 6.35037e-06
0.00145193 -0.000119162 -2.33139e-06
-0.000119162 0.000162408 -2.3531e-06
-2.33139e-06 -2.3531e-06 3.24076e-05
0.00137798 -0.000107383 -2.1243e-06
-0.000107383 0.000114324 -2.3416e-06
-2.1243e-06 -2.3416e-06 -2.73674e-06
0.00112122 -0.000100554 -2.24102e-06
-0.000100554 6.94834e-05 4.01899e-07
-2.24102e-06 4.01899e-07 -5.30079e-05
0.00126541 -0.000110153 3.00941e-07
-0.000110153 0.0001188 -8.58839e-07
3.00941e-07 -8.58839e-07 -1.43055e-05
0.00129348 -9.98418e-05 -1.64691e-06
-9.98418e-05 0.0002077 2.00175e-06
-1.64691e-06 2.00175e-06 0.000102335
0.00127638 -0.000105012 -2.34487e-07
-0.000105012 0.00018528 6.82852e-07
-2.34487e-07 6.82852e-07 6.47703e-05
0.00132906 -0.000113882 1.33845e-06
-0.000113882 0.000201704 -1.03038e-06
1.33845e-06 -1.03038e-06 6.29136e-05
0.000972247 -7.96652e-05 -6.17665e-07
-7.96652e-05 7.21302e-05 -9.22347e-07
-6.17665e-07 -9.22347e-07 -1.69638e-05
0.00079926 -7.58942e-05 -2.34263e-07
-7.58942e-05 -1.61377e-05 -1.0156e-06
-2.34263e-07 -1.0156e-06 -0.000109768
0.00104161 -8.79514e-05 3.63139e-06
-8.79514e-05 0.000106509 -2.24049e-06
3.63139e-06 -2.24049e-06 4.01129e-06
0.000927743 -3.38239e-05 -5.3296e-07
-3.38239e-05 5.7144e-05 1.02418e-06
-5.3296e-07 1.02418e-06 -2.058e-05
0.00102359 -7.35993e-05 1.82105e-07
-7.35993e-05 0.00011087 4.43164e-07
1.82105e-07 4.43164e-07 2.10783e-05
0.00108411 -8.40857e-05 8.73834e-07
-8.40857e-05 0.000145102 1.03032e-06
8.73834e-07 1.03032e-06 5.04328e-05
0.00083278 5.16299e-05 -1.00962e-06
5.16299e-05 1.17238e-05 2.39441e-06
-1.00962e-06 2.39441e-06 -3.86904e-05
0.000914766 1.47595e-06 -1.0513e-08
1.47595e-06 5.12061e-05 -8.31322e-09
-1.0513e-08 -8.31322e-09 -2.04344e-05
0.000976949 -4.68547e-05 2.97663e-07
-4.68547e-05 9.27006e-05 -2.73135e-07
2.97663e-07 -2.73135e-07 9.62102e-06
0.00139111 4.06911e-05 -1.20927e-05
4.06911e-05 0.000306075 3.14198e-06
-1.20927e-05 3.14198e-06 0.000297585
0.000817268 3.42189e-05 5.36861e-08
3.42189e-05 -1.94124e-06 -1.28507e-07
5.36861e-08 -1.28507e-07 -4.36036e-05
0.000891377 3.17895e-06 7.53691e-07
3.17895e-06 3.4449e-05 -1.33256e-06
7.53691e-07 -1.33256e-06 -2.84652e-05
0.000938259 2.78936e-05 -1.85349e-05
2.78936e-05 6.40288e-05 3.54821e-06
-1.85349e-05 3.54821e-06 7.40277e-05
0.00110245 3.53e-05 -4.84088e-06
3.53e-05 0.000146959 3.98941e-07
-4.84088e-06 3.98941e-07 0.000139871
0.000824252 3.70419e-05 7.70067e-07
3.70419e-05 -7.65575e-07 -2.08612e-06
7.70067e-07 -2.08612e-06 -3.74978e-05
0.000807051 2.926e-05 2.05665e-06
2.926e-05 -1.60949e-05 -3.26719e-06
2.05665e-06 -3.26719e-06 -2.19235e-05
0.00216017 3.99108e-05 7.29134e-07
3.99108e-05 0.00070029 5.69196e-08
7.29134e-07 5.69196e-08 0.000718068
0.00212886 3.45836e-05 1.86628e-05
3.45836e-05 0.000677689 -3.54141e-06
1.86628e-05 -3.54141e-06 0.000696987
0.000897041 -1.90547e-06 -1.69617e-07
-1.90547e-06 3.18266e-05 -1.15684e-06
-1.69617e-07 -1.15684e-06 -3.73438e-05
0.000909887 -1.27494e-06 -4.24583e-07
-1.27494e-06 3.47275e-05 -1.25901e-06
-4.24583e-07 -1.25901e-06 -2.32474e-05
0.000944622 -1.98203e-06 -6.01057e-08
-1.98203e-06 5.42782e-05 -1.24484e-08
-6.01057e-08 -1.24484e-08 -1.20002e-05
0.000830657 -3.11966e-05 -6.40764e-07
-3.11966e-05 -4.7021e-06 -1.92561e-06
-6.40764e-07 -1.92561e-06 -4.08528e-05
0.000912085 1.03703e-06 4.2508e-07
1.03703e-06 3.60448e-05 -8.64576e-08
4.2508e-07 -8.64576e-08 -1.90591e-05
0.000794957 -2.44141e-05 -1.61919e-06
-2.44141e-05 -2.73625e-05 -3.37253e-06
-1.61919e-06 -3.37253e-06 -3.39806e-05
0.000846157 -1.80064e-05 -2.08055e-07
-1.80064e-05 -2.79697e-07 8.61071e-09
-2.08055e-07 8.61071e-09 -3.4119e-05
0.000915932 2.58543e-05 9.35042e-07
2.58543e-05 4.04395e-05 8.8454e-07
9.35042e-07 8.8454e-07 -1.39191e-05
0.00222972 -2.95239e-05 -1.70996e-05
-2.95239e-05 0.000724992 -3.89301e-06
-1.70996e-05 -3.89301e-06 0.000744492
0.00079219 -2.10003e-05 -2.22802e-07
-2.10003e-05 -3.40539e-05 -4.37033e-09
-2.22802e-07 -4.37033e-09 -3.85893e-05
0.000862582 -1.61805e-05 4.41463e-07
-1.61805e-05 6.2939e-06 1.56255e-06
4.41463e-07 1.56255e-06 -2.55811e-05
0.0021612 -2.37202e-05 -1.33783e-06
-2.37202e-05 0.000683425 5.1519e-08
-1.33783e-06 5.1519e-08 0.000704626
0.000785808 -1.72145e-05 6.26377e-07
-1.72145e-05 -4.2529e-05 3.16603e-06
6.26377e-07 3.16603e-06 -4.46153e-05
0.00209263 -1.74071e-05 9.48503e-06
-1.74071e-05 0.000642673 3.84672e-06
9.48503e-06 3.84672e-06 0.000665477
0.00107071 5.80775e-06 7.22553e-06
5.80775e-06 5.92354e-05 2.3055e-06
7.22553e-06 2.3055e-06 -1.94566e-05
0.000901986 1.08761e-05 7.42314e-07
1.08761e-05 7.22815e-05 -1.66892e-06
7.42314e-07 -1.66892e-06 -1.58731e-05
0.00112647 6.0762e-07 4.79806e-06
6.0762e-07 0.000187398 5.49932e-06
4.79806e-06 5.49932e-06 5.20946e-05
0.000978688 3.60724e-05 -7.28246e-07
3.60724e-05 8.76439e-05 3.97784e-08
-7.28246e-07 3.97784e-08 8.46208e-06
0.000971438 1.17316e-06 1.3934e-07
1.17316e-06 6.99087e-05 3.82815e-07
1.3934e-07 3.82815e-07 4.36173e-06
0.000961944 -3.81431e-06 8.9366e-08
-3.81431e-06 6.51049e-05 5.30226e-07
8.9366e-08 5.30226e-07 -6.25169e-06
0.000969625 -8.99567e-06 9.75465e-08
-8.99567e-06 7.11548e-05 -1.86271e-07
9.75465e-08 -1.86271e-07 1.06158e-06
0.000971257 1.61684e-05 2.83617e-08
1.61684e-05 7.52827e-05 -2.98397e-07
2.83617e-08 -2.98397e-07 -4.26544e-08
0.000985073 2.41036e-05 -1.09174e-08
2.41036e-05 8.41418e-05 4.38428e-07
-1.09174e-08 4.38428e-07 7.46014e-06
0.000993046 3.43101e-05 -5.18636e-07
3.43101e-05 9.14768e-05 -1.06355e-06
-5.18636e-07 -1.06355e-06 1.05738e-05
0.000852838 1.22267e-05 -1.6648e-08
1.22267e-05 1.8341e-05 -1.87764e-07
-1.6648e-08 -1.87764e-07 -5.79406e-05
0.000933108 3.97237e-05 3.69865e-07
3.97237e-05 5.87624e-05 -8.55769e-08
3.69865e-07 -8.55769e-08 -1.33705e-05
0.000962759 -2.19312e-05 3.10604e-07
-2.19312e-05 6.4958e-05 -1.79671e-07
3.10604e-07 -1.79671e-07 -8.47964e-06
0.000992138 1.65283e-05 -1.06043e-07
1.65283e-05 9.08515e-05 5.33483e-08
-1.06043e-07 5.33483e-08 1.56513e-05
0.00145543 2.05536e-05 2.25227e-06
2.05536e-05 0.000335143 4.22242e-07
2.25227e-06 4.22242e-07 0.000258244
0.00156388 -0.000200247 2.44468e-05
-0.000200247 0.000486564 1.7539e-05
2.44468e-05 1.7539e-05 0.000764961
0.00148024 -1.67212e-05 3.04893e-06
-1.67212e-05 0.000112551 6.74237e-06
3.04893e-06 6.74237e-06 2.28834e-05
0.00120667 8.358e-06 6.98221e-06
8.358e-06 4.3062e-05 3.85489e-06
6.98221e-06 3.85489e-06 -1.68648e-05
0.00267151 -0.000229051 -2.20175e-05
-0.000229051 -3.16698e-06 -2.14841e-05
-2.20175e-05 -2.14841e-05 0.000679386
0.00387416 -0.000317234 2.73011e-06
-0.000317234 0.000128085 -7.45616e-05
2.73011e-06 -7.45616e-05 0.000148895
0.00313314 3.29431e-05 -6.9621e-05
3.29431e-05 -0.000632383 9.85585e-05
-6.9621e-05 9.85585e-05 -0.00100212
0.0017444 -0.000258025 -5.86821e-05
-0.000258025 8.89826e-05 8.56088e-05
-5.86821e-05 8.56088e-05 -0.000296356
0.00290817 -0.000114234 -1.7083e-05
-0.000114234 0.000822826 1.23617e-05
-1.7083e-05 1.23617e-05 0.000548772
0.000454872 -0.000336094 -9.78804e-06
-0.000336094 -0.000798821 -3.21331e-06
-9.78804e-06 -3.21331e-06 5.36193e-05
0.0051094 -0.000119678 1.55927e-05
-0.000119678 0.000834588 4.98912e-05
1.55927e-05 4.98912e-05 -0.000191416
-0.000427867 -0.000283922 -4.18381e-06
-0.000283922 -0.00119402 -6.29124e-06
-4.18381e-06 -6.29124e-06 -0.000976426
0.00314005 0.000170681 -6.73796e-05
0.000170681 0.000716905 -4.52997e-05
-6.73796e-05 -4.52997e-05 0.000481239
0.00811018 -0.000364352 1.78782e-06
-0.000364352 0.00256863 3.64847e-05
1.78782e-06 3.64847e-05 0.00155587
-7.02395e-05 -0.000323947 1.87258e-05
-0.000323947 -0.000166979 2.67844e-06
1.87258e-05 2.67844e-06 9.81031e-05
0.00068304 8.9991e-05 -2.12804e-06
8.9991e-05 -3.30712e-05 -4.89147e-07
-2.12804e-06 -4.89147e-07 -9.86221e-05
0.00110093 1.83727e-05 2.06419e-06
1.83727e-05 0.000151891 1.57203e-07
2.06419e-06 1.57203e-07 8.46845e-05
0.000973389 -1.01484e-06 -4.58952e-07
-1.01484e-06 7.65877e-05 -7.45437e-07
-4.58952e-07 -7.45437e-07 -3.70393e-07
-0.000561347 7.65216e-06 -1.57547e-05
7.65216e-06 -4.88176e-05 -2.28577e-05
-1.57547e-05 -2.28577e-05 -0.000557935
5.6506e-05 -2.45834e-05 -1.14968e-06
-2.45834e-05 -0.00022445 -3.45765e-06
-1.14968e-06 -3.45765e-06 -0.000324124
0.0007991 3.04881e-06 1.41922e-06
3.04881e-06 -6.56441e-06 1.43416e-06
1.41922e-06 1.43416e-06 -8.40646e-05
0.000845422 3.71526e-05 9.88526e-07
3.71526e-05 0.000139963 4.92444e-07
9.88526e-07 4.92444e-07 2.84582e-05
0.000781005 6.65438e-05 1.03532e-06
6.65438e-05 0.000245474 -9.61227e-06
1.03532e-06 -9.61227e-06 3.83602e-05
-0.000840739 7.00212e-05 8.21189e-06
7.00212e-05 -0.000683564 1.27559e-05
8.21189e-06 1.27559e-05 -0.000826173
0.00174513 -9.35276e-06 2.41617e-05
-9.35276e-06 0.00093581 -1.00754e-06
2.41617e-05 -1.00754e-06 0.000861919
0.00103542 -1.2665e-06 -3.13405e-07
-1.2665e-06 5.36661e-05 -5.99098e-07
-3.13405e-07 -5.99098e-07 -3.58266e-05
0.000774765 1.27121e-06 1.20801e-05
1.27121e-06 -2.06813e-05 -1.26759e-06
1.20801e-05 -1.26759e-06 -0.000136797
0.000473601 -4.60656e-05 -1.59277e-07
-4.60656e-05 0.000309041 8.84008e-06
-1.59277e-07 8.84008e-06 0.000174803
0.00111157 -0.000188246 2.40093e-05
-0.000188246 -0.00024432 -3.86124e-05
2.40093e-05 -3.86124e-05 -0.000488881
0.0011673 -1.31928e-05 -2.92437e-06
-1.31928e-05 6.22494e-05 -5.29489e-06
-2.92437e-06 -5.29489e-06 -3.25981e-05
0.00186603 0.000191474 -1.18889e-05
0.000191474 -0.00020005 2.27533e-05
-1.18889e-05 2.27533e-05 -0.00145282
-0.00228495 0.000365755 -5.04302e-05
0.000365755 -0.00168519 1.40705e-05
-5.04302e-05 1.40705e-05 -0.00137779
0.00118843 0.000242324 -3.347e-05
0.000242324 0.000322533 1.62215e-05
-3.347e-05 1.62215e-05 0.000707973
0.001628 -0.000141804 -7.1832e-06
-0.000141804 0.000308063 4.37322e-06
-7.1832e-06 4.37322e-06 0.000410153
0.00111126 8.46186e-05 -2.40667e-06
8.46186e-05 0.000550237 2.06961e-06
-2.40667e-06 2.06961e-06 0.000598029
-0.00322556 0.000203461 4.774e-06
0.000203461 -0.00131062 1.90524e-06
4.774e-06 1.90524e-06 -0.00132106
0.0033472 -0.000298252 -5.91662e-06
-0.000298252 0.000614594 1.82041e-05
-5.91662e-06 1.82041e-05 -5.93693e-05
0.00700128 0.000365643 -1.60298e-05
0.000365643 0.00212515 3.63303e-06
-1.60298e-05 3.63303e-06 0.00109594
0.000150565 -0.000146063 -1.93222e-06
-0.000146063 -0.00048523 5.36856e-06
-1.93222e-06 5.36856e-06 -0.000426939
-0.00371563 0.000100661 3.0904e-05
0.000100661 -0.00200112 -1.3825e-05
3.0904e-05 -1.3825e-05 -0.00191229
0.00635062 0.000341698 6.0921e-06
0.000341698 0.00197485 9.78073e-07
6.0921e-06 9.78073e-07 0.00107591
0.00283903 -7.46713e-05 -1.73779e-05
-7.46713e-05 -0.000156465 2.94041e-05
-1.73779e-05 2.94041e-05 -0.000569437
-0.000201797 -8.4918e-05 -5.97656e-06
-8.4918e-05 -0.000333289 -1.60344e-06
-5.97656e-06 -1.60344e-06 -0.000556294
0.00141025 -0.00014838 -1.29301e-06
-0.00014838 0.000144295 -1.02963e-07
-1.29301e-06 -1.02963e-07 5.98147e-05
0.00162128 -0.000160619 2.69314e-06
-0.000160619 5.62149e-05 -1.76556e-06
2.69314e-06 -1.76556e-06 1.35858e-06
0.000459595 -8.19187e-05 -1.90997e-06
-8.19187e-05 -0.000109126 -3.00384e-06
-1.90997e-06 -3.00384e-06 -0.000288946
0.00118542 -0.000131807 -5.3686e-07
-0.000131807 7.92169e-05 -1.26368e-06
-5.3686e-07 -1.26368e-06 -6.71473e-05
0.00166517 -0.000148764 -3.42389e-06
-0.000148764 0.000145936 -1.84403e-06
-3.42389e-06 -1.84403e-06 3.56106e-05
0.00112954 -0.000110915 -7.82464e-07
-0.000110915 0.000120874 -1.51147e-06
-7.82464e-07 -1.51147e-06 -4.05073e-05
0.00131809 -0.000125913 2.90127e-07
-0.000125913 0.0001084 -1.05272e-06
2.90127e-07 -1.05272e-06 -3.24704e-05
0.00177741 -0.000128943 -3.02035e-06
-0.000128943 0.000216911 -3.38224e-06
-3.02035e-06 -3.38224e-06 0.000108103
0.0012707 -0.000113488 6.49602e-07
-0.000113488 0.000156924 -1.40758e-06
6.49602e-07 -1.40758e-06 1.01838e-05
0.00132971 -0.00011322 -3.43141e-07
-0.00011322 9.83536e-05 -9.72732e-07
-3.43141e-07 -9.72732e-07 -3.0213e-05
0.00158749 -0.000108012 -2.37478e-06
-0.000108012 0.000146141 -3.84904e-06
-2.37478e-06 -3.84904e-06 4.8087e-05
0.00153252 -0.00010003 -1.91202e-06
-0.00010003 0.000148305 -2.89345e-06
-1.91202e-06 -2.89345e-06 5.50571e-05
0.00130659 -0.000103872 -2.49065e-06
-0.000103872 0.00010937 -1.22895e-06
-2.49065e-06 -1.22895e-06 -4.60711e-06
0.00137088 -0.000104716 8.09363e-07
-0.000104716 0.00011114 9.18388e-08
8.09363e-07 9.18388e-08 -3.66753e-06
0.000730718 -8.1232e-05 -1.95827e-06
-8.1232e-05 -0.000109383 1.20279e-06
-1.95827e-06 1.20279e-06 -0.000219638
0.00129422 -0.000105967 9.95705e-07
-0.000105967 0.000157454 -1.00107e-06
9.95705e-07 -1.00107e-06 3.61223e-05
0.00116993 -0.000105653 2.3584e-06
-0.000105653 6.78434e-05 -5.51918e-07
2.3584e-06 -5.51918e-07 -6.39985e-05
0.00102258 -8.5283e-05 -6.40363e-07
-8.5283e-05 8.63589e-05 6.73069e-07
-6.40363e-07 6.73069e-07 -6.98e-06
0.0010189 -8.88996e-05 3.88357e-07
-8.88996e-05 7.13019e-05 -1.97647e-07
3.88357e-07 -1.97647e-07 -3.36821e-05
0.000931896 -9.21977e-05 1.69421e-06
-9.21977e-05 1.11083e-05 -1.78179e-06
1.69421e-06 -1.78179e-06 -0.000111243
0.000982736 -6.45903e-05 -1.66012e-06
-6.45903e-05 7.79824e-05 1.73369e-07
-1.66012e-06 1.73369e-07 -1.68056e-06
0.00104602 -8.21747e-05 -2.20613e-07
-8.21747e-05 0.000108259 -3.78764e-07
-2.20613e-07 -3.78764e-07 1.90621e-05
0.000905861 -7.969e-05 3.57188e-07
-7.969e-05 3.9545e-05 -1.12585e-06
3.57188e-07 -1.12585e-06 -5.30231e-05
0.000886271 1.44696e-05 -1.23382e-06
1.44696e-05 4.24833e-05 2.49765e-06
-1.23382e-06 2.49765e-06 -1.50299e-05
0.000965498 -3.18418e-05 6.10021e-07
-3.18418e-05 7.59836e-05 3.29106e-07
6.10021e-07 3.29106e-07 -1.55903e-06
0.000998879 -6.81193e-05 1.04452e-06
-6.81193e-05 9.82258e-05 7.40794e-07
1.04452e-06 7.40794e-07 9.39386e-06
0.00071442 3.88449e-05 -3.37065e-06
3.88449e-05 -4.2471e-05 3.68453e-06
-3.37065e-06 3.68453e-06 -5.85741e-05
0.000817955 2.39453e-05 -2.13351e-07
2.39453e-05 1.61154e-06 -1.62058e-07
-2.13351e-07 -1.62058e-07 -4.73318e-05
0.000941584 -6.54423e-06 5.25876e-07
-6.54423e-06 6.5781e-05 -1.34324e-06
5.25876e-07 -1.34324e-06 -6.63285e-06
0.00227525 5.60308e-05 -9.14509e-06
5.60308e-05 0.000776739 1.42465e-06
-9.14509e-06 1.42465e-06 0.000789399
0.000752391 3.54901e-05 1.70485e-07
3.54901e-05 -2.96366e-05 2.18521e-09
1.70485e-07 2.18521e-09 -4.20797e-05
0.000808581 3.30845e-05 1.37529e-06
3.30845e-05 -6.07518e-06 -2.20604e-06
1.37529e-06 -2.20604e-06 -4.79469e-05
0.00221711 4.5014e-05 7.57775e-07
4.5014e-05 0.000737212 5.29709e-08
7.57775e-07 5.29709e-08 0.000753128
0.000799179 3.31321e-05 2.50571e-06
3.31321e-05 -1.2715e-05 -3.42361e-06
2.50571e-06 -3.42361e-06 -2.16659e-05
0.00216996 3.99014e-05 2.13781e-05
3.99014e-05 0.000706431 -3.51104e-06
2.13781e-05 -3.51104e-06 0.000723975
0.00101552 3.47503e-05 -4.74175e-07
3.47503e-05 0.000102823 -1.64816e-07
-4.74175e-07 -1.64816e-07 2.91093e-05
0.000912493 5.97395e-06 4.13815e-08
5.97395e-06 4.0501e-05 -3.11322e-07
4.13815e-08 -3.11322e-07 -2.91808e-05
0.00090566 -7.36734e-06 -4.90194e-07
-7.36734e-06 3.69257e-05 -1.49054e-06
-4.90194e-07 -1.49054e-06 -2.54743e-05
0.000822722 -3.43033e-05 -9.75826e-07
-3.43033e-05 -5.70041e-06 -2.15278e-06
-9.75826e-07 -2.15278e-06 -4.3972e-05
0.000896028 -8.17746e-06 3.66541e-07
-8.17746e-06 2.83085e-05 -2.86681e-08
3.66541e-07 -2.86681e-08 -2.98098e-05
0.000907521 9.89412e-06 4.85543e-07
9.89412e-06 3.70566e-05 7.08968e-07
4.85543e-07 7.08968e-07 -3.08879e-05
0.000787813 -2.73003e-05 -2.26239e-06
-2.73003e-05 -2.5953e-05 -3.45009e-06
-2.26239e-06 -3.45009e-06 -3.42854e-05
0.000836028 -2.44911e-05 -2.16359e-07
-2.44911e-05 -2.5348e-06 1.79421e-09
-2.16359e-07 1.79421e-09 -3.82859e-05
0.000905083 -6.16836e-06 8.53041e-07
-6.16836e-06 3.23293e-05 1.01021e-06
8.53041e-07 1.01021e-06 -2.26171e-05
0.00227027 -3.49309e-05 -2.00757e-05
-3.49309e-05 0.000751868 -3.82806e-06
-2.00757e-05 -3.82806e-06 0.000769922
0.000779486 -2.40436e-05 -1.40381e-07
-2.40436e-05 -3.52687e-05 -3.80766e-09
-1.40381e-07 -3.80766e-09 -4.18237e-05
0.000854403 -1.68307e-05 8.72938e-07
-1.68307e-05 4.02951e-06 1.65045e-06
8.72938e-07 1.65045e-06 -2.97325e-05
0.0022219 -2.94731e-05 -1.3806e-06
-2.94731e-05 0.000720304 6.31418e-08
-1.3806e-06 6.31418e-08 0.000739974
0.000775153 -2.07211e-05 8.76314e-07
-2.07211e-05 -4.27882e-05 3.3095e-06
8.76314e-07 3.3095e-06 -4.72392e-05
0.00214989 -2.34707e-05 1.23647e-05
-2.34707e-05 0.000676941 3.8492e-06
1.23647e-05 3.8492e-06 0.000698365
-0.000479705 -6.61394e-05 1.83737e-05
-6.61394e-05 -0.000328944 5.54786e-06
1.83737e-05 5.54786e-06 -0.000433787
0.00107407 4.54238e-06 2.55452e-06
4.54238e-06 5.33973e-05 1.12067e-06
2.55452e-06 1.12067e-06 -2.33473e-05
0.000957047 1.10172e-05 1.49304e-05
1.10172e-05 0.000111733 6.46279e-06
1.49304e-05 6.46279e-06 2.49411e-05
0.000972928 2.68604e-05 -3.56936e-07
2.68604e-05 8.36445e-05 4.93176e-07
-3.56936e-07 4.93176e-07 4.78767e-06
0.00109966 7.32793e-05 -3.51233e-07
7.32793e-05 0.000158242 9.77011e-07
-3.51233e-07 9.77011e-07 7.35622e-05
0.000988334 4.29563e-05 -5.15047e-07
4.29563e-05 9.43013e-05 2.78271e-07
-5.15047e-07 2.78271e-07 1.13812e-05
0.0010521 -1.31719e-05 5.87727e-09
-1.31719e-05 0.000113916 -2.31552e-07
5.87727e-09 -2.31552e-07 4.43278e-05
0.00101487 1.58995e-05 3.48497e-07
1.58995e-05 9.64386e-05 4.71347e-07
3.48497e-07 4.71347e-07 2.25045e-05
0.000897543 1.23425e-06 -3.68465e-07
1.23425e-06 3.6154e-05 1.10862e-06
-3.68465e-07 1.10862e-06 -3.87862e-05
0.000889744 1.80258e-05 -3.69689e-07
1.80258e-05 3.85778e-05 3.0966e-08
-3.69689e-07 3.0966e-08 -3.9083e-05
0.000954167 2.19364e-05 1.57457e-07
2.19364e-05 7.04342e-05 -8.45117e-09
1.57457e-07 -8.45117e-09 -9.58104e-06
0.00103527 4.62083e-05 6.41018e-08
4.62083e-05 0.000129515 -8.94109e-07
6.41018e-08 -8.94109e-07 4.16e-05
0.000816509 4.24475e-05 1.14038e-06
4.24475e-05 3.39975e-06 -1.51635e-06
1.14038e-06 -1.51635e-06 -7.63558e-05
0.000959175 3.80193e-05 -3.43172e-08
3.80193e-05 7.65636e-05 -4.27714e-07
-3.43172e-08 -4.27714e-07 -5.07158e-07
0.00113458 2.97942e-05 4.10254e-07
2.97942e-05 0.000172528 1.84243e-07
4.10254e-07 1.84243e-07 9.53747e-05
-0.0026895 -0.000222433 2.07382e-05
-0.000222433 -0.00137026 2.51641e-05
2.07382e-05 2.51641e-05 -0.00131661
0.000498166 -0.000195665 6.45375e-06
-0.000195665 -4.02726e-05 1.31937e-06
6.45375e-06 1.31937e-06 0.000173277
0.00154121 -1.25607e-05 -1.1774e-05
-1.25607e-05 0.000143702 -9.11299e-06
-1.1774e-05 -9.11299e-06 5.39875e-05
-0.00101702 -0.000355278 -9.5173e-06
-0.000355278 -0.00161199 4.18503e-06
-9.5173e-06 4.18503e-06 -0.000688909
0.00433977 -0.00044001 -1.99525e-05
-0.00044001 0.0011662 -4.72378e-05
-1.99525e-05 -4.72378e-05 0.0012834
0.00458628 -6.32504e-05 5.36914e-05
-6.32504e-05 0.000694232 2.56673e-05
5.36914e-05 2.56673e-05 -0.000213323
0.00152992 -0.000105465 -5.83232e-05
-0.000105465 0.000107305 7.80065e-05
-5.83232e-05 7.80065e-05 -0.000503858
0.00257945 0.00012873 -4.64445e-05
0.00012873 0.000292061 -2.04851e-05
-4.64445e-05 -2.04851e-05 -7.95064e-05
0.00296693 -0.000442716 -6.07557e-06
-0.000442716 0.000941316 5.15027e-06
-6.07557e-06 5.15027e-06 0.00108244
0.00278289 -9.09083e-05 2.81905e-05
-9.09083e-05 5.1075e-05 3.84889e-05
2.81905e-05 3.84889e-05 -0.00100283
0.00164295 0.000203533 -8.32012e-05
0.000203533 -3.99196e-05 -8.86684e-05
-8.32012e-05 -8.86684e-05 -0.00060035
0.00339223 4.42677e-05 -7.53813e-05
4.42677e-05 0.000624727 -2.14202e-05
-7.53813e-05 -2.14202e-05 -0.00043615
0.00237482 0.000210166 1.0427e-05
0.000210166 0.000719601 -6.0501e-06
1.0427e-05 -6.0501e-06 0.000591823
0.000875144 8.82397e-05 -8.58155e-07
8.82397e-05 5.30758e-05 -2.55307e-07
-8.58155e-07 -2.55307e-07 -1.02379e-05
0.00128247 2.22088e-05 6.01658e-07
2.22088e-05 0.000240994 -1.88207e-06
6.01658e-07 -1.88207e-06 0.000173956
-0.000469522 1.26316e-05 -1.76788e-05
1.26316e-05 -0.000393444 -1.34611e-05
-1.76788e-05 -1.34611e-05 -0.000556287
0.00160344 7.44848e-05 -6.7654e-07
7.44848e-05 0.000491014 -4.26431e-06
-6.7654e-07 -4.26431e-06 0.000380299
0.000987968 0.000142805 8.73984e-06
0.000142805 0.000148607 3.43778e-07
8.73984e-06 3.43778e-07 3.01826e-05
0.000416258 0.000159772 2.97689e-05
0.000159772 -0.000384741 2.26045e-05
2.97689e-05 2.26045e-05 -0.000463198
-0.00193887 -1.58166e-05 2.25075e-05
-1.58166e-05 -0.00115178 -8.14509e-06
2.25075e-05 -8.14509e-06 -0.000948326
0.000313227 -1.46283e-06 1.17952e-07
-1.46283e-06 0.000145676 8.56316e-07
1.17952e-07 8.56316e-07 4.70549e-05
0.000568229 -5.38216e-07 -9.2711e-07
-5.38216e-07 -0.000188966 -2.68808e-06
-9.2711e-07 -2.68808e-06 -0.000272223
0.000217224 -0.00012153 -2.66678e-05
-0.00012153 -0.000376735 -3.14587e-06
-2.66678e-05 -3.14587e-06 -0.000284794
0.00274549 -0.000298191 -4.75391e-05
-0.000298191 0.000399502 -4.72406e-06
-4.75391e-05 -4.72406e-06 -9.47449e-05
0.000942126 6.4572e-05 -2.36593e-05
6.4572e-05 0.000481305 4.9101e-06
-2.36593e-05 4.9101e-06 0.000486893
0.00130082 0.000284521 1.75333e-05
0.000284521 -0.00026847 -4.28451e-05
1.75333e-05 -4.28451e-05 -0.00146668
0.00540602 0.000361042 -9.42529e-05
0.000361042 0.00263389 1.94801e-05
-9.42529e-05 1.94801e-05 0.00269008
0.00127392 -0.0001969 1.10174e-05
-0.0001969 1.35762e-06 -5.94555e-07
1.10174e-05 -5.94555e-07 5.13432e-05
-0.00081809 0.000167755 -2.25687e-05
0.000167755 -0.000454114 -5.53173e-07
-2.25687e-05 -5.53173e-07 -0.000468942
0.00275644 0.000229225 -5.24494e-06
0.000229225 0.000307359 1.08647e-05
-5.24494e-06 1.08647e-05 -0.000777649
0.00332894 -7.18397e-05 -1.45315e-06
-7.18397e-05 0.000373968 4.75048e-06
-1.45315e-06 4.75048e-06 0.000126472
0.000422203 -0.000120779 -2.8802e-06
-0.000120779 -0.000363949 -3.35853e-06
-2.8802e-06 -3.35853e-06 -0.000384768
0.00576422 9.56605e-05 2.32086e-05
9.56605e-05 0.00174801 1.2917e-06
2.32086e-05 1.2917e-06 0.000955547
0.00119095 6.40447e-05 2.86094e-06
6.40447e-05 -0.000492992 -8.73866e-06
2.86094e-06 -8.73866e-06 -0.000733426
0.000828495 -0.000133202 -3.54142e-06
-0.000133202 -0.00010723 -2.37518e-06
-3.54142e-06 -2.37518e-06 -0.000180213
0.00147939 -0.000160991 -2.66274e-07
-0.000160991 1.29749e-05 -2.29157e-07
-2.66274e-07 -2.29157e-07 -5.23014e-05
0.00173301 -0.000166731 -9.26083e-06
-0.000166731 -2.60214e-05 5.36366e-06
-9.26083e-06 5.36366e-06 -7.95435e-05
0.00111432 -0.000127098 -3.0004e-06
-0.000127098 3.87856e-05 -2.46811e-06
-3.0004e-06 -2.46811e-06 -0.000105738
0.00150603 -0.000141073 -2.89844e-06
-0.000141073 6.06499e-05 6.18479e-07
-2.89844e-06 6.18479e-07 -4.79912e-05
0.00172908 -0.000129527 -7.81741e-06
-0.000129527 2.76173e-05 1.41344e-06
-7.81741e-06 1.41344e-06 -4.17217e-05
0.00107808 -0.000116435 1.0404e-06
-0.000116435 -1.43667e-05 -5.76014e-07
1.0404e-06 -5.76014e-07 -0.000154916
0.00145304 -0.000117969 -9.24844e-07
-0.000117969 4.9142e-05 -6.78288e-08
-9.24844e-07 -6.78288e-08 -5.80573e-05
0.00186474 -0.000110159 -3.35368e-06
-0.000110159 0.000153409 -1.6244e-06
-3.35368e-06 -1.6244e-06 8.4025e-05
0.00117869 -0.000106458 1.73389e-06
-0.000106458 1.97192e-05 5.38421e-07
1.73389e-06 5.38421e-07 -0.000107348
0.00142116 -0.000102817 -8.9356e-08
-0.000102817 5.99706e-05 8.78627e-08
-8.9356e-08 8.78627e-08 -3.71348e-05
0.00151792 -9.4113e-05 -1.23208e-06
-9.4113e-05 6.62567e-05 -1.76259e-06
-1.23208e-06 -1.76259e-06 -6.493e-06
0.00178474 -9.44806e-05 -6.41908e-07
-9.44806e-05 0.0002495 -1.72086e-06
-6.41908e-07 -1.72086e-06 0.00017047
0.00149309 -9.69744e-05 -9.25572e-07
-9.69744e-05 0.000128158 1.34517e-06
-9.25572e-07 1.34517e-06 3.72742e-05
0.00139285 -9.6259e-05 -1.05266e-06
-9.6259e-05 0.000109103 -3.26948e-06
-1.05266e-06 -3.26948e-06 1.20897e-05
0.00129963 -9.91523e-05 -2.35691e-06
-9.91523e-05 0.000126715 -1.12906e-07
-2.35691e-06 -1.12906e-07 1.92902e-05
0.00141651 -0.000106461 9.55741e-07
-0.000106461 0.000166289 -4.03007e-07
9.55741e-07 -4.03007e-07 5.23277e-05
0.00135361 -0.000101906 2.95484e-06
-0.000101906 0.000102671 2.39442e-06
2.95484e-06 2.39442e-06 -9.85047e-06
0.00080648 -7.98858e-05 -2.14746e-06
-7.98858e-05 -5.33032e-05 1.82767e-06
-2.14746e-06 1.82767e-06 -0.000153588
0.00103586 -9.1496e-05 1.23175e-07
-9.1496e-05 4.68238e-05 -5.2709e-08
1.23175e-07 -5.2709e-08 -6.23504e-05
0.00146026 -0.000111108 3.55722e-06
-0.000111108 0.000242009 -2.17019e-06
3.55722e-06 -2.17019e-06 0.000121847
0.000959746 -7.04308e-05 -1.40488e-06
-7.04308e-05 5.9086e-05 3.82007e-07
-1.40488e-06 3.82007e-07 -2.34472e-05
0.00107399 -8.66826e-05 9.91406e-08
-8.66826e-05 0.000111134 -2.09354e-07
9.91406e-08 -2.09354e-07 1.76377e-05
0.000780442 -7.94364e-05 9.79014e-07
-7.94364e-05 -4.70753e-05 -2.28361e-06
9.79014e-07 -2.28361e-06 -0.000151751
0.000850204 -1.0518e-05 -2.55298e-06
-1.0518e-05 2.49449e-05 2.17721e-06
-2.55298e-06 2.17721e-06 -3.85753e-05
0.00101971 -6.65648e-05 -3.42018e-08
-6.65648e-05 9.56155e-05 -1.48014e-08
-3.42018e-08 -1.48014e-08 1.60125e-05
0.00111146 -8.42898e-05 9.47345e-07
-8.42898e-05 0.00014015 -2.24198e-07
9.47345e-07 -2.24198e-07 5.08844e-05
0.000664789 4.56421e-05 -2.9724e-06
4.56421e-05 -5.99908e-05 4.1098e-06
-2.9724e-06 4.1098e-06 -8.17148e-05
0.000843369 7.2592e-06 -2.33044e-08
7.2592e-06 1.98335e-05 2.70095e-08
-2.33044e-08 2.70095e-08 -3.82105e-05
0.00100386 -3.49769e-05 1.57155e-06
-3.49769e-05 9.55261e-05 -3.28429e-07
1.57155e-06 -3.28429e-07 1.78359e-05
0.00241941 5.67216e-05 -2.83489e-05
5.67216e-05 0.00085708 3.2685e-06
-2.83489e-05 3.2685e-06 0.000868483
0.00073425 4.09197e-05 -6.13688e-08
4.09197e-05 -3.13542e-05 -7.5239e-08
-6.13688e-08 -7.5239e-08 -4.79989e-05
0.000801721 8.50031e-06 2.39714e-06
8.50031e-06 -7.26608e-06 -2.40562e-06
2.39714e-06 -2.40562e-06 -5.61471e-05
0.00164603 4.42152e-05 1.08409e-05
4.42152e-05 0.000444979 -8.41556e-07
1.08409e-05 -8.41556e-07 0.00045496
0.000782605 3.69774e-05 3.02118e-06
3.69774e-05 -1.41448e-05 -3.62798e-06
3.02118e-06 -3.62798e-06 -2.67481e-05
0.00225154 4.52912e-05 2.4533e-05
4.52912e-05 0.000756663 -3.49027e-06
2.4533e-05 -3.49027e-06 0.000772055
0.000992272 4.80892e-05 -5.16094e-08
4.80892e-05 9.34053e-05 7.44506e-07
-5.16094e-08 7.44506e-07 1.53971e-05
0.000980871 1.5456e-05 -7.27897e-08
1.5456e-05 8.19676e-05 4.91138e-07
-7.27897e-08 4.91138e-07 9.45571e-06
0.000922483 -1.95103e-05 -6.36494e-07
-1.95103e-05 5.13478e-05 -1.20313e-06
-6.36494e-07 -1.20313e-06 -1.48959e-05
0.000953698 1.79927e-05 3.59701e-07
1.79927e-05 6.27644e-05 5.7823e-07
3.59701e-07 5.7823e-07 -7.72332e-06
0.000907941 -2.39132e-05 8.00346e-08
-2.39132e-05 3.63275e-05 -2.60657e-08
8.00346e-08 -2.60657e-08 -2.48078e-05
0.000808569 -3.13041e-05 -1.39781e-06
-3.13041e-05 -8.00744e-06 -2.31505e-06
-1.39781e-06 -2.31505e-06 -4.94581e-05
0.000779858 -3.07574e-05 -2.72442e-06
-3.07574e-05 -2.47927e-05 -3.53916e-06
-2.72442e-06 -3.53916e-06 -3.47616e-05
0.000827697 -3.05991e-05 -1.80983e-07
-3.05991e-05 -3.60044e-06 -1.80959e-08
-1.80983e-07 -1.80959e-08 -4.1519e-05
0.000904107 -3.12078e-05 3.78699e-08
-3.12078e-05 3.13689e-05 1.32555e-06
3.78699e-08 1.32555e-06 -2.55967e-05
0.00229045 -4.00616e-05 -2.27534e-05
-4.00616e-05 0.000768582 -3.70349e-06
-2.27534e-05 -3.70349e-06 0.000785246
0.000770835 -2.68959e-05 -2.02801e-07
-2.68959e-05 -3.45123e-05 1.68724e-08
-2.02801e-07 1.68724e-08 -4.2793e-05
0.000844383 -1.69196e-05 1.49555e-06
-1.69196e-05 1.27212e-06 1.82091e-06
1.49555e-06 1.82091e-06 -3.41149e-05
0.00226979 -3.49694e-05 -1.07695e-06
-3.49694e-05 0.000750978 6.85264e-08
-1.07695e-06 6.85264e-08 0.000769152
0.000765153 -2.37243e-05 1.40589e-06
-2.37243e-05 -4.2531e-05 3.4044e-06
1.40589e-06 3.4044e-06 -4.90364e-05
0.00221292 -2.94023e-05 1.52508e-05
-2.94023e-05 0.000715007 3.84995e-06
1.52508e-05 3.84995e-06 0.000734854
0.000481322 7.3288e-05 9.58391e-05
7.3288e-05 0.000114563 2.06888e-05
9.58391e-05 2.06888e-05 -9.60011e-05
0.000723297 -7.94179e-05 5.51283e-06
-7.94179e-05 0.000302881 2.2915e-06
5.51283e-06 2.2915e-06 0.000252525
0.00108469 3.5083e-06 -3.72831e-06
3.5083e-06 5.17969e-05 -1.94931e-07
-3.72831e-06 -1.94931e-07 -2.30954e-05
0.000966867 2.02019e-05 6.06594e-07
2.02019e-05 7.98922e-05 4.75087e-07
6.06594e-07 4.75087e-07 1.12689e-06
0.00095576 2.88685e-05 2.64515e-07
2.88685e-05 7.71804e-05 3.02718e-07
2.64515e-07 3.02718e-07 -5.56376e-06
0.00100289 7.33073e-05 -8.64403e-08
7.33073e-05 0.000111588 3.15569e-09
-8.64403e-08 3.15569e-09 2.71029e-05
0.00110245 8.65273e-05 3.73107e-07
8.65273e-05 0.000158392 1.01151e-06
3.73107e-07 1.01151e-06 7.08521e-05
0.00102299 6.53909e-05 -1.19969e-06
6.53909e-05 0.000124583 5.5894e-07
-1.19969e-06 5.5894e-07 3.64484e-05
0.000935174 2.23264e-05 1.64464e-07
2.23264e-05 6.15791e-05 7.40811e-07
1.64464e-07 7.40811e-07 -1.63575e-05
0.000925904 2.15361e-05 4.84414e-07
2.15361e-05 5.54984e-05 7.03491e-07
4.84414e-07 7.03491e-07 -2.42297e-05
0.000869797 4.92602e-05 -4.74451e-07
4.92602e-05 4.52641e-05 -5.35878e-07
-4.74451e-07 -5.35878e-07 -4.18773e-05
0.000362362 5.6399e-05 -6.88324e-07
5.6399e-05 -0.000206558 1.24981e-06
-6.88324e-07 1.24981e-06 -0.000297142
0.000814289 7.18393e-05 -3.11419e-07
7.18393e-05 3.84662e-06 -1.19654e-06
-3.11419e-07 -1.19654e-06 -8.52211e-05
0.00189136 0.000148169 2.4203e-06
0.000148169 0.000462999 -3.81419e-06
2.4203e-06 -3.81419e-06 0.000355548
0.000955112 4.97593e-05 -1.69384e-06
4.97593e-05 8.84018e-05 -2.28352e-07
-1.69384e-06 -2.28352e-07 6.68326e-06
0.00091848 1.93125e-05 9.29427e-08
1.93125e-05 5.94651e-05 -1.16826e-07
9.29427e-08 -1.16826e-07 -1.60712e-05
0.00868821 -0.000146874 -2.22459e-05
-0.000146874 0.00256985 -1.1078e-05
-2.22459e-05 -1.1078e-05 0.00171909
-0.00106028 -0.000240311 -8.79982e-06
-0.000240311 -0.000587113 3.2518e-06
-8.79982e-06 3.2518e-06 -0.000675145
0.00180766 -0.000198874 -2.38844e-05
-0.000198874 0.000657686 -1.51928e-05
-2.38844e-05 -1.51928e-05 0.000864426
-0.00220837 -0.000272162 -2.85703e-05
-0.000272162 -0.00145006 -1.54998e-05
-2.85703e-05 -1.54998e-05 -0.00123723
0.00870202 -0.000340771 5.98295e-05
-0.000340771 0.00273244 3.35896e-05
5.98295e-05 3.35896e-05 0.0014001
0.00202197 0.000101345 2.30941e-05
0.000101345 0.000250378 1.49062e-05
2.30941e-05 1.49062e-05 3.08691e-05
0.00190823 0.000208349 -3.50196e-05
0.000208349 7.32767e-05 -2.393e-05
-3.50196e-05 -2.393e-05 -0.000358558
0.00596356 -0.000243832 3.91464e-05
-0.000243832 0.00154403 1.80129e-05
3.91464e-05 1.80129e-05 0.00064473
0.00205434 0.000126211 -2.30464e-05
0.000126211 -4.91145e-05 -4.44296e-05
-2.30464e-05 -4.44296e-05 -0.000420095
0.00222363 0.000240816 1.69897e-05
0.000240816 0.000426045 1.04024e-05
1.69897e-05 1.04024e-05 0.000279401
0.000863884 0.000136912 3.22635e-07
0.000136912 2.90119e-05 -4.67547e-06
3.22635e-07 -4.67547e-06 -0.000113139
0.000924008 6.82251e-05 -1.02095e-06
6.82251e-05 6.88955e-05 1.42216e-06
-1.02095e-06 1.42216e-06 9.89315e-06
0.00195445 0.000186795 -3.23478e-05
0.000186795 0.000598579 -1.89225e-05
-3.23478e-05 -1.89225e-05 0.000489173
0.0003052 0.000168978 -8.78955e-06
0.000168978 -0.000447866 1.28636e-05
-8.78955e-06 1.28636e-05 -0.000531569
0.00023086 -2.70163e-07 -1.7209e-06
-2.70163e-07 -0.000928227 -8.54678e-06
-1.7209e-06 -8.54678e-06 -0.00139503
0.00160566 1.36058e-05 -3.08688e-06
1.36058e-05 0.000561483 1.52751e-06
-3.08688e-06 1.52751e-06 0.000540327
-0.00108404 3.90994e-06 -1.18465e-05
3.90994e-06 -0.000616488 9.68886e-08
-1.18465e-05 9.68886e-08 -0.000749769
0.0029253 -0.000250129 -4.08418e-05
-0.000250129 0.000748055 7.90599e-06
-4.08418e-05 7.90599e-06 0.000805909
0.00269989 -9.99912e-05 6.5898e-06
-9.99912e-05 -0.000143797 -2.3865e-05
6.5898e-06 -2.3865e-05 -0.000626034
0.000219181 4.26304e-06 -8.88278e-05
4.26304e-06 -2.4823e-06 2.60702e-05
-8.88278e-05 2.60702e-05 -0.000182495
0.00689437 0.000388285 -2.75415e-05
0.000388285 0.00235423 1.59892e-05
-2.75415e-05 1.59892e-05 0.00132531
0.000840069 -0.000129973 3.09432e-06
-0.000129973 -0.000186525 -1.94396e-06
3.09432e-06 -1.94396e-06 -0.00018161
0.00501812 0.000193352 2.51617e-05
0.000193352 0.00134177 5.65942e-06
2.51617e-05 5.65942e-06 0.000649607
0.00298434 7.94535e-05 3.68298e-05
7.94535e-05 0.000125653 -3.34993e-06
3.68298e-05 -3.34993e-06 -0.000227268
0.00287278 -0.00012748 -6.34956e-06
-0.00012748 0.000738583 1.6436e-06
-6.34956e-06 1.6436e-06 0.000690611
0.00106757 4.37143e-05 -4.48055e-05
4.37143e-05 3.57223e-06 -2.67756e-07
-4.48055e-05 -2.67756e-07 -0.000261618
0.00152797 -0.000163154 6.0644e-06
-0.000163154 5.58985e-05 -4.22624e-06
6.0644e-06 -4.22624e-06 -1.41766e-05
0.00180422 -0.000166076 -1.75672e-06
-0.000166076 3.49653e-05 2.88391e-06
-1.75672e-06 2.88391e-06 -2.13519e-05
0.00221584 -0.000117217 -1.23865e-05
-0.000117217 0.000141919 1.64847e-06
-1.23865e-05 1.64847e-06 9.37115e-05
0.00122632 -0.000130423 3.08854e-06
-0.000130423 -8.18244e-05 3.10133e-07
3.08854e-06 3.10133e-07 -0.000188099
0.00171295 -0.000125585 2.7148e-07
-0.000125585 3.34298e-05 1.23307e-06
2.7148e-07 1.23307e-06 -3.63267e-05
0.00181214 -9.16664e-05 -3.06855e-06
-9.16664e-05 2.25308e-05 3.49191e-06
-3.06855e-06 3.49191e-06 -3.22869e-05
0.00114516 -0.000107843 2.89897e-06
-0.000107843 -0.000110833 2.07834e-06
2.89897e-06 2.07834e-06 -0.000216344
0.00159173 -0.000105298 -5.41035e-07
-0.000105298 2.33027e-05 1.80733e-06
-5.41035e-07 1.80733e-06 -4.75305e-05
0.00185418 -9.04999e-05 -1.32541e-07
-9.04999e-05 0.000142444 2.62082e-06
-1.32541e-07 2.62082e-06 8.29192e-05
0.00127346 -9.82205e-05 3.31346e-06
-9.82205e-05 -1.69255e-05 3.50374e-06
3.31346e-06 3.50374e-06 -0.000113105
0.00149404 -9.43806e-05 1.49277e-07
-9.43806e-05 5.60446e-05 1.22415e-06
1.49277e-07 1.22415e-06 -1.76498e-05
0.00162271 -8.58122e-05 2.56585e-07
-8.58122e-05 0.00011434 -4.99891e-07
2.56585e-07 -4.99891e-07 4.425e-05
0.00153862 -8.96536e-05 -1.77871e-06
-8.96536e-05 0.00012661 1.12594e-06
-1.77871e-06 1.12594e-06 4.99533e-05
0.001714 -9.25595e-05 1.34679e-06
-9.25595e-05 0.000233545 -2.39237e-06
1.34679e-06 -2.39237e-06 0.000147821
0.00147039 -9.4445e-05 1.96502e-06
-9.4445e-05 0.000116742 4.59272e-06
1.96502e-06 4.59272e-06 2.81535e-05
0.00139716 -9.5434e-05 2.04251e-07
-9.5434e-05 0.000110889 -5.57578e-07
2.04251e-07 -5.57578e-07 1.35062e-05
0.00137604 -9.30496e-05 -1.1718e-06
-9.30496e-05 0.000119725 -1.40607e-06
-1.1718e-06 -1.40607e-06 2.11971e-05
0.000927951 -8.29933e-05 -2.55099e-06
-8.29933e-05 -3.66902e-05 9.3309e-07
-2.55099e-06 9.3309e-07 -0.000137954
0.00128859 -9.79927e-05 5.55443e-08
-9.79927e-05 0.000121774 -1.58808e-07
5.55443e-08 -1.58808e-07 1.39948e-05
0.00153153 -0.00010928 3.1351e-06
-0.00010928 0.000225859 1.96581e-07
3.1351e-06 1.96581e-07 0.000111886
0.000996756 -7.73891e-05 -1.89425e-06
-7.73891e-05 6.2757e-05 9.76588e-07
-1.89425e-06 9.76588e-07 -2.48625e-05
0.000894543 -8.25882e-05 -5.52884e-07
-8.25882e-05 -6.42891e-06 6.46016e-07
-5.52884e-07 6.46016e-07 -0.000105875
0.00130563 -0.000100316 2.35758e-06
-0.000100316 0.000185387 -1.48231e-06
2.35758e-06 -1.48231e-06 7.7359e-05
0.000770635 -2.00512e-05 -2.4104e-06
-2.00512e-05 -1.73528e-05 1.57158e-06
-2.4104e-06 1.57158e-06 -8.35363e-05
0.00103389 -7.3769e-05 3.6619e-08
-7.3769e-05 9.54509e-05 -1.75831e-07
3.6619e-08 -1.75831e-07 1.26232e-05
0.00113328 -8.8443e-05 1.16882e-06
-8.8443e-05 0.000139981 -1.15845e-06
1.16882e-06 -1.15845e-06 4.6289e-05
0.000618643 5.14502e-05 -2.30486e-06
5.14502e-05 -7.75908e-05 4.45361e-06
-2.30486e-06 4.45361e-06 -0.000105583
0.000855386 -1.32111e-05 -2.73443e-08
-1.32111e-05 2.58968e-05 2.05379e-07
-2.73443e-08 2.05379e-07 -3.72912e-05
0.00106065 -6.37132e-05 1.64671e-06
-6.37132e-05 0.000115003 -1.96902e-07
1.64671e-06 -1.96902e-07 3.57473e-05
0.00258017 6.39486e-05 -3.08439e-05
6.39486e-05 0.000946761 3.20428e-06
-3.08439e-05 3.20428e-06 0.000955572
0.000696313 4.78629e-05 9.14345e-09
4.78629e-05 -4.22492e-05 -1.06065e-07
9.14345e-09 -1.06065e-07 -6.46553e-05
0.00081214 -1.20667e-05 2.45716e-06
-1.20667e-05 1.24808e-06 -2.13326e-06
2.45716e-06 -2.13326e-06 -5.58241e-05
0.00245184 5.70565e-05 3.75412e-07
5.70565e-05 0.000874426 7.97906e-08
3.75412e-07 7.97906e-08 0.000885498
0.000758601 4.30479e-05 2.53604e-06
4.30479e-05 -1.78323e-05 -3.9487e-06
2.53604e-06 -3.9487e-06 -3.50512e-05
0.00235373 5.09375e-05 2.76553e-05
5.09375e-05 0.000817255 -3.41092e-06
2.76553e-05 -3.41092e-06 0.000830402
0.00103038 7.57902e-05 -1.04522e-07
7.57902e-05 0.000114235 5.6242e-07
-1.04522e-07 5.6242e-07 2.97105e-05
0.000950717 5.37002e-05 3.26138e-07
5.37002e-05 7.31862e-05 1.43473e-07
3.26138e-07 1.43473e-07 -5.29987e-06
0.000854389 -1.0143e-05 -1.04302e-06
-1.0143e-05 1.9524e-05 -5.57172e-07
-1.04302e-06 -5.57172e-07 -5.27065e-05
0.000932723 7.85877e-06 4.281e-07
7.85877e-06 5.62441e-05 9.30851e-07
4.281e-07 9.30851e-07 -1.65963e-05
0.000892781 -2.30136e-05 -6.07162e-08
-2.30136e-05 3.58194e-05 1.45222e-07
-6.07162e-08 1.45222e-07 -3.09305e-05
0.000803644 -2.71511e-05 -1.65833e-06
-2.71511e-05 -5.69204e-06 -2.18599e-06
-1.65833e-06 -2.18599e-06 -5.26561e-05
0.000889853 -2.80638e-05 3.69756e-07
-2.80638e-05 2.69483e-05 1.45919e-06
3.69756e-07 1.45919e-06 -3.40986e-05
0.000821717 -3.1118e-05 -3.38005e-08
-3.1118e-05 -1.99728e-06 -9.72544e-08
-3.38005e-08 -9.72544e-08 -4.32451e-05
0.000771492 -3.59068e-05 -2.92232e-06
-3.59068e-05 -2.15261e-05 -3.66195e-06
-2.92232e-06 -3.66195e-06 -3.40322e-05
0.00229759 -4.51033e-05 -2.48526e-05
-4.51033e-05 0.00077922 -3.54521e-06
-2.48526e-05 -3.54521e-06 0.000794431
0.000766357 -3.00882e-05 -6.23953e-08
-3.00882e-05 -3.14625e-05 1.60484e-08
-6.23953e-08 1.60484e-08 -4.13681e-05
0.000829168 -2.69105e-05 1.47218e-06
-2.69105e-05 -3.3362e-06 2.01696e-06
1.47218e-06 2.01696e-06 -4.09223e-05
0.00229975 -4.01577e-05 -9.65917e-07
-4.01577e-05 0.000772681 7.78106e-08
-9.65917e-07 7.78106e-08 0.000789425
0.00075508 -2.64869e-05 1.86429e-06
-2.64869e-05 -4.2482e-05 3.49848e-06
1.86429e-06 3.49848e-06 -5.07074e-05
0.00226738 -3.49333e-05 1.8549e-05
-3.49333e-05 0.000749096 3.81058e-06
1.8549e-05 3.81058e-06 0.000767402
0.00669406 -6.05389e-06 3.82168e-05
-6.05389e-06 0.00196358 4.14699e-06
3.82168e-05 4.14699e-06 0.00129476
-0.00170939 -5.91282e-05 5.08274e-06
-5.91282e-05 -0.000927641 1.1816e-06
5.08274e-06 1.1816e-06 -0.000821321
-0.000483531 -5.12433e-05 -1.65279e-05
-5.12433e-05 -0.000396699 -1.78588e-06
-1.65279e-05 -1.78588e-06 -0.000509974
0.000940857 1.50464e-05 7.24468e-07
1.50464e-05 6.94519e-05 3.36691e-07
7.24468e-07 3.36691e-07 -1.32333e-05
0.000903101 6.7526e-05 1.53376e-07
6.7526e-05 6.19417e-05 -4.39098e-07
1.53376e-07 -4.39098e-07 -2.14209e-05
0.00106971 6.87413e-05 3.02335e-07
6.87413e-05 0.000148871 -5.4405e-08
3.02335e-07 -5.4405e-08 6.07762e-05
0.00103761 8.40042e-05 -5.98703e-07
8.40042e-05 0.000126007 -1.90843e-07
-5.98703e-07 -1.90843e-07 3.85489e-05
0.0011388 9.02053e-05 4.35926e-06
9.02053e-05 0.000174765 1.7228e-06
4.35926e-06 1.7228e-06 8.18975e-05
0.000728592 7.17609e-05 -1.18646e-06
7.17609e-05 -2.18904e-05 1.41216e-06
-1.18646e-06 1.41216e-06 -0.000110306
0.00068802 5.003e-05 2.12005e-07
5.003e-05 -4.69097e-05 6.73888e-09
2.12005e-07 6.73888e-09 -0.000133793
0.000690043 7.03631e-05 5.36763e-07
7.03631e-05 -4.20385e-05 2.1309e-09
5.36763e-07 2.1309e-09 -0.000135768
0.000799263 6.44248e-05 5.18055e-07
6.44248e-05 4.66079e-06 6.20629e-08
5.18055e-07 6.20629e-08 -8.60599e-05
0.000367076 7.13146e-05 1.0475e-06
7.13146e-05 -0.00024359 7.85944e-07
1.0475e-06 7.85944e-07 -0.000336577
0.00276206 0.000173599 9.4284e-07
0.000173599 0.000890861 -2.13164e-07
9.4284e-07 -2.13164e-07 0.000788415
0.00189821 0.000164826 1.85635e-06
0.000164826 0.000301654 -1.08205e-06
1.85635e-06 -1.08205e-06 0.000180801
0.00129597 0.000126258 1.17296e-06
0.000126258 0.00017393 -4.65631e-07
1.17296e-06 -4.65631e-07 7.01853e-05
0.00109102 4.78488e-05 -2.58945e-06
4.78488e-05 0.000169859 8.35381e-07
-2.58945e-06 8.35381e-07 8.70241e-05
0.00188054 -7.99729e-05 -1.63921e-05
-7.99729e-05 -0.000240225 -1.45975e-05
-1.63921e-05 -1.45975e-05 -0.000431719
0.00427716 -0.000147636 9.0005e-07
-0.000147636 0.000809081 -5.18384e-07
9.0005e-07 -5.18384e-07 3.67329e-05
0.00356042 -0.000343008 -3.62224e-05
-0.000343008 0.00161825 -2.32333e-05
-3.62224e-05 -2.32333e-05 0.00165456
0.0059687 -0.000127639 0.000150364
-0.000127639 0.00159326 4.46193e-05
0.000150364 4.46193e-05 0.000564285
0.00316025 0.000234343 4.25044e-05
0.000234343 0.000731816 4.85382e-05
4.25044e-05 4.85382e-05 0.000509129
0.00158831 7.80538e-05 -3.3681e-05
7.80538e-05 -5.3839e-05 -1.13215e-05
-3.3681e-05 -1.13215e-05 -0.000257803
0.00148093 0.000141872 2.27329e-05
0.000141872 -7.66422e-05 1.50137e-05
2.27329e-05 1.50137e-05 -0.000106262
0.00191572 0.00023196 -1.31547e-06
0.00023196 0.000277115 5.43972e-06
-1.31547e-06 5.43972e-06 0.000149397
0.000196253 0.000101006 -2.34938e-06
0.000101006 -0.000291333 3.16485e-06
-2.34938e-06 3.16485e-06 -0.00043032
0.00180661 0.000241842 -6.35303e-05
0.000241842 0.000219174 -5.00339e-05
-6.35303e-05 -5.00339e-05 0.000162383
0.00290895 -4.28598e-05 -0.000127511
-4.28598e-05 0.000765961 -3.20345e-06
-0.000127511 -3.20345e-06 0.000425018
0.00641439 4.13759e-05 9.22404e-06
4.13759e-05 0.00213676 -3.5155e-06
9.22404e-06 -3.5155e-06 0.0015508
-0.00391086 -4.10653e-05 -1.85278e-05
-4.10653e-05 -0.0022831 5.95497e-06
-1.85278e-05 5.95497e-06 -0.00213136
0.00137277 -0.000149723 9.49666e-08
-0.000149723 5.9425e-05 7.17245e-06
9.49666e-08 7.17245e-06 7.33163e-05
0.00353791 6.8103e-05 5.19648e-05
6.8103e-05 0.00043949 3.35998e-06
5.19648e-05 3.35998e-06 0.000161419
0.00108002 -5.11961e-05 4.03457e-05
-5.11961e-05 -0.000372693 6.93762e-06
4.03457e-05 6.93762e-06 -0.000957933
0.00176025 -0.000112328 2.4928e-06
-0.000112328 0.000189537 2.07199e-06
2.4928e-06 2.07199e-06 0.000160168
0.00146992 9.71091e-05 -6.26012e-07
9.71091e-05 8.16155e-05 -4.19191e-06
-6.26012e-07 -4.19191e-06 -0.000152379
0.00306432 -3.28618e-05 1.1225e-06
-3.28618e-05 0.000710069 -1.13459e-05
1.1225e-06 -1.13459e-05 0.00066011
0.00127951 6.71784e-05 1.39331e-05
6.71784e-05 -8.97631e-05 -3.47988e-06
1.39331e-05 -3.47988e-06 -0.000184605
0.0018268 -0.000166537 6.45315e-06
-0.000166537 7.48256e-05 -1.95721e-06
6.45315e-06 -1.95721e-06 1.02263e-05
0.00200842 -0.000110466 -8.13662e-08
-0.000110466 5.27547e-05 -2.27597e-06
-8.13662e-08 -2.27597e-06 3.39372e-06
0.00208968 -3.1268e-05 1.03504e-07
-3.1268e-05 0.000155858 -1.32665e-06
1.03504e-07 -1.32665e-06 9.03549e-05
0.00166569 -0.00012235 9.57841e-06
-0.00012235 2.0951e-05 1.57822e-07
9.57841e-06 1.57822e-07 -5.00808e-05
0.00188779 -9.28163e-05 2.71263e-06
-9.28163e-05 7.52313e-05 1.87268e-07
2.71263e-06 1.87268e-07 1.6576e-05
0.00192823 -5.56832e-05 -1.53081e-06
-5.56832e-05 0.00013307 2.31477e-06
-1.53081e-06 2.31477e-06 5.50774e-05
0.00134322 -0.000100759 5.36846e-06
-0.000100759 -9.36009e-05 2.64407e-06
5.36846e-06 2.64407e-06 -0.000166181
0.00171706 -8.88708e-05 1.49502e-06
-8.88708e-05 8.63019e-05 1.03385e-06
1.49502e-06 1.03385e-06 2.41935e-05
0.0018205 -7.21122e-05 -3.645e-07
-7.21122e-05 0.000155089 1.34542e-06
-3.645e-07 1.34542e-06 7.90879e-05
0.00148028 -9.46604e-05 2.37168e-06
-9.46604e-05 5.09344e-05 3.41081e-06
2.37168e-06 3.41081e-06 -2.37467e-05
0.00149958 -8.58578e-05 1.71971e-09
-8.58578e-05 6.05511e-05 -2.53747e-07
1.71971e-09 -2.53747e-07 -9.8343e-06
0.0014772 -8.13794e-05 1.99299e-06
-8.13794e-05 7.26237e-05 -1.51449e-07
1.99299e-06 -1.51449e-07 -1.17907e-05
0.00130017 -8.4929e-05 -2.97298e-07
-8.4929e-05 7.55414e-06 3.7303e-06
-2.97298e-07 3.7303e-06 -6.67535e-05
0.00154184 -8.79943e-05 -1.05205e-06
-8.79943e-05 0.0001457 -8.49994e-07
-1.05205e-06 -8.49994e-07 6.14034e-05
0.00166909 -9.04811e-05 9.55399e-08
-9.04811e-05 0.00023038 -1.30086e-06
9.55399e-08 -1.30086e-06 0.000137939
0.00140004 -9.45795e-05 1.39393e-06
-9.45795e-05 0.000111847 1.96758e-06
1.39393e-06 1.96758e-06 1.41117e-05
0.00137575 -9.22379e-05 2.3695e-07
-9.22379e-05 0.000119996 -3.51309e-07
2.3695e-07 -3.51309e-07 2.10842e-05
0.00143149 -9.18017e-05 -1.52924e-06
-9.18017e-05 0.000173207 -4.43334e-07
-1.52924e-06 -4.43334e-07 7.66278e-05
0.000772116 -7.08297e-05 -3.13224e-06
-7.08297e-05 -8.61827e-05 1.32208e-06
-3.13224e-06 1.32208e-06 -0.000177332
0.00101719 -8.51873e-05 -4.39123e-07
-8.51873e-05 1.17878e-05 4.28561e-07
-4.39123e-07 4.28561e-07 -8.87435e-05
0.00127676 -9.68193e-05 2.15306e-06
-9.68193e-05 0.000116432 -4.06648e-07
2.15306e-06 -4.06648e-07 8.29951e-06
0.000827194 -4.22186e-05 -2.87271e-06
-4.22186e-05 5.75328e-06 1.52471e-06
-2.87271e-06 1.52471e-06 -6.40706e-05
0.00104602 -7.88113e-05 9.69578e-08
-7.88113e-05 8.66211e-05 1.16095e-08
9.69578e-08 1.16095e-08 -1.02591e-06
0.00100118 -8.5991e-05 8.47615e-07
-8.5991e-05 4.96314e-05 -4.81541e-07
8.47615e-07 -4.81541e-07 -4.89969e-05
0.000643565 5.32346e-05 -2.69148e-06
5.32346e-05 -5.65681e-05 4.2682e-06
-2.69148e-06 4.2682e-06 -9.11791e-05
0.000865302 -2.36046e-05 5.41426e-08
-2.36046e-05 3.10315e-05 6.28598e-08
5.41426e-08 6.28598e-08 -3.56778e-05
0.00110154 -7.66603e-05 1.87375e-06
-7.66603e-05 0.000128623 -8.83743e-07
1.87375e-06 -8.83743e-07 4.55197e-05
0.00276853 7.15877e-05 -3.41731e-05
7.15877e-05 0.00104947 3.19065e-06
-3.41731e-05 3.19065e-06 0.00105547
0.000680455 5.09468e-05 3.66111e-07
5.09468e-05 -4.51348e-05 -1.75099e-08
3.66111e-07 -1.75099e-08 -7.33594e-05
0.000865292 -1.55253e-05 2.82863e-06
-1.55253e-05 2.92061e-05 -1.7806e-06
2.82863e-06 -1.7806e-06 -3.3664e-05
0.00261279 6.39614e-05 3.88731e-07
6.39614e-05 0.000963809 9.59277e-08
3.88731e-07 9.59277e-08 0.000972283
0.0007311 4.94488e-05 1.99264e-06
4.94488e-05 -2.31975e-05 -4.25201e-06
1.99264e-06 -4.25201e-06 -4.61716e-05
0.00248326 5.70981e-05 3.07089e-05
5.70981e-05 0.000891159 -3.36786e-06
3.07089e-05 -3.36786e-06 0.00090195
0.00108649 8.34206e-05 -4.61799e-07
8.34206e-05 0.000140217 -4.12389e-07
-4.61799e-07 -4.12389e-07 5.06933e-05
0.00107455 7.78677e-05 2.06403e-07
7.78677e-05 0.000137014 1.22716e-07
2.06403e-07 1.22716e-07 5.27451e-05
0.000957619 3.47372e-05 -1.29272e-06
3.47372e-05 7.38193e-05 -1.37915e-07
-1.29272e-06 -1.37915e-07 -3.0135e-06
0.000920281 6.71795e-05 4.75139e-07
6.71795e-05 6.02066e-05 -1.13627e-07
4.75139e-07 -1.13627e-07 -1.9765e-05
0.000857506 -4.31732e-07 -3.86677e-07
-4.31732e-07 2.19709e-05 -4.55926e-08
-3.86677e-07 -4.55926e-08 -5.11441e-05
0.000800107 -6.65947e-06 -2.40379e-06
-6.65947e-06 -3.06857e-06 -1.63415e-06
-2.40379e-06 -1.63415e-06 -5.77278e-05
0.000869696 -2.87148e-05 4.26053e-07
-2.87148e-05 2.42122e-05 1.23355e-06
4.26053e-07 1.23355e-06 -4.35104e-05
0.000815454 -2.87014e-05 5.0108e-08
-2.87014e-05 6.14851e-07 -1.63572e-07
5.0108e-08 -1.63572e-07 -4.64176e-05
0.000756935 -4.28438e-05 -2.7087e-06
-4.28438e-05 -1.98567e-05 -3.80327e-06
-2.7087e-06 -3.80327e-06 -3.64446e-05
0.000835095 -3.14869e-05 1.36517e-06
-3.14869e-05 4.23505e-06 2.24518e-06
1.36517e-06 2.24518e-06 -3.68526e-05
0.000753928 -3.44909e-05 1.13188e-08
-3.44909e-05 -3.09099e-05 -2.38241e-08
1.13188e-08 -2.38241e-08 -4.31416e-05
0.00234398 -5.04726e-05 -2.71601e-05
-5.04726e-05 0.00081099 -3.39527e-06
-2.71601e-05 -3.39527e-06 0.000824338
0.00231549 -4.52662e-05 -5.64764e-07
-4.52662e-05 0.000787549 7.75243e-08
-5.64764e-07 7.75243e-08 0.00080284
0.000751955 -2.94313e-05 2.56524e-06
-2.94313e-05 -3.86862e-05 3.53053e-06
2.56524e-06 3.53053e-06 -4.85165e-05
0.00230648 -4.02991e-05 2.13576e-05
-4.02991e-05 0.000775527 3.72103e-06
2.13576e-05 3.72103e-06 0.000792343
0.000834281 -5.33573e-05 -5.87757e-05
-5.33573e-05 -0.000434206 -3.39906e-06
-5.87757e-05 -3.39906e-06 -0.000644555
0.0016664 -0.000103867 -2.43779e-06
-0.000103867 -0.00035655 -2.52291e-06
-2.43779e-06 -2.52291e-06 -0.000936839
0.00320831 -0.000264025 -4.10722e-05
-0.000264025 0.00127865 -7.22514e-06
-4.10722e-05 -7.22514e-06 0.00137598
0.00117892 9.53474e-05 4.83526e-06
9.53474e-05 0.000159324 1.71326e-06
4.83526e-06 1.71326e-06 6.21975e-05
0.00111938 7.02716e-05 6.38261e-07
7.02716e-05 0.000174719 -7.65577e-07
6.38261e-07 -7.65577e-07 8.67938e-05
0.000966837 8.11545e-05 -2.83263e-07
8.11545e-05 9.07009e-05 -7.11908e-07
-2.83263e-07 -7.11908e-07 3.34775e-06
0.000933454 8.0475e-05 1.15768e-07
8.0475e-05 8.29389e-05 2.76539e-07
1.15768e-07 2.76539e-07 -6.55513e-06
0.0010378 8.65052e-05 -1.09225e-07
8.65052e-05 0.00012592 -5.62635e-07
-1.09225e-07 -5.62635e-07 3.25577e-05
0.000697147 7.78139e-05 -6.0416e-07
7.78139e-05 -6.10294e-05 1.67878e-06
-6.0416e-07 1.67878e-06 -0.000144846
0.00108143 8.74982e-05 1.08789e-06
8.74982e-05 0.000155995 -1.55038e-06
1.08789e-06 -1.55038e-06 5.86914e-05
0.00100603 6.4084e-05 -7.05477e-07
6.4084e-05 0.000115553 9.30568e-07
-7.05477e-07 9.30568e-07 2.27681e-05
0.000979676 9.57066e-05 7.97637e-08
9.57066e-05 6.35081e-05 -1.22187e-07
7.97637e-08 -1.22187e-07 -2.92386e-05
0.00204733 0.000147524 4.70427e-07
0.000147524 0.000544417 1.74601e-06
4.70427e-07 1.74601e-06 0.000444197
0.00155355 0.000138754 1.24797e-06
0.000138754 0.00017309 -9.66189e-07
1.24797e-06 -9.66189e-07 6.2326e-05
0.00190894 0.000131569 2.40601e-06
0.000131569 0.00011196 5.10425e-06
2.40601e-06 5.10425e-06 -5.29013e-06
0.00136443 0.000145368 1.61509e-06
0.000145368 3.61813e-05 4.69252e-07
1.61509e-06 4.69252e-07 -8.3848e-05
0.000777698 0.000104884 -1.22171e-06
0.000104884 -8.31698e-05 3.19589e-06
-1.22171e-06 3.19589e-06 -0.000182963
0.000782438 9.15682e-06 -1.02171e-05
9.15682e-06 -0.000321887 2.64891e-06
-1.02171e-05 2.64891e-06 -0.000334163
0.00336054 -7.03746e-05 -7.81262e-06
-7.03746e-05 0.000284463 6.74651e-07
-7.81262e-06 6.74651e-07 4.04805e-05
0.00132175 -0.000173045 3.52677e-06
-0.000173045 -0.000519273 -5.8479e-07
3.52677e-06 -5.8479e-07 -0.00119848
0.00276994 0.000165054 3.89721e-05
0.000165054 0.00021511 2.26393e-05
3.89721e-05 2.26393e-05 -0.00011348
0.0012551 0.000126845 -3.04055e-06
0.000126845 -0.000153016 9.87204e-07
-3.04055e-06 9.87204e-07 -0.00019073
0.000331893 0.000167053 -1.49047e-05
0.000167053 -0.000440457 -9.83284e-06
-1.49047e-05 -9.83284e-06 -0.000576378
0.00273103 -5.5265e-05 9.62823e-06
-5.5265e-05 0.000670363 -7.13768e-06
9.62823e-06 -7.13768e-06 0.000590711
0.000996019 -1.14826e-05 -2.20547e-05
-1.14826e-05 -6.72223e-06 2.74788e-06
-2.20547e-05 2.74788e-06 -0.000299023
0.000709187 0.000169553 5.06056e-05
0.000169553 -0.000746833 -4.19111e-06
5.06056e-05 -4.19111e-06 -0.00129795
0.000162422 -7.11146e-05 -6.12619e-06
-7.11146e-05 -0.000611566 1.17444e-05
-6.12619e-06 1.17444e-05 -0.000612381
0.00351772 0.000152593 4.10776e-05
0.000152593 0.000912876 -6.83092e-06
4.10776e-05 -6.83092e-06 0.000639823
0.00176207 -2.02578e-05 5.59367e-06
-2.02578e-05 4.2317e-05 -1.98201e-06
5.59367e-06 -1.98201e-06 -2.37013e-06
0.00210519 8.38653e-05 1.8391e-06
8.38653e-05 0.000338071 -4.49843e-06
1.8391e-06 -4.49843e-06 0.000249558
0.00104818 3.91885e-05 7.82375e-07
3.91885e-05 -0.000337178 -3.63086e-06
7.82375e-07 -3.63086e-06 -0.000425846
0.00236272 6.03251e-05 -2.32418e-06
6.03251e-05 0.000346265 -5.90107e-06
-2.32418e-06 -5.90107e-06 0.000252233
0.00179021 -0.000102757 6.46629e-06
-0.000102757 -4.15179e-05 -2.28301e-06
6.46629e-06 -2.28301e-06 -8.92457e-05
0.00197142 -3.04147e-05 4.44046e-06
-3.04147e-05 9.35937e-05 3.00596e-08
4.44046e-06 3.00596e-08 2.40299e-05
0.00182359 -3.20119e-06 -6.23048e-07
-3.20119e-06 0.000112836 -2.60394e-06
-6.23048e-07 -2.60394e-06 1.57394e-05
0.00206571 -9.59826e-05 3.35147e-06
-9.59826e-05 0.000176755 3.98955e-07
3.35147e-06 3.98955e-07 0.000114134
0.00191698 -5.74578e-05 -2.70411e-07
-5.74578e-05 0.000127665 -6.01461e-07
-2.70411e-07 -6.01461e-07 4.8462e-05
0.00184286 -3.79631e-05 -1.32556e-06
-3.79631e-05 0.000142376 3.9204e-07
-1.32556e-06 3.9204e-07 4.62366e-05
0.00154588 -8.6667e-05 2.02478e-06
-8.6667e-05 1.25315e-05 4.83812e-09
2.02478e-06 4.83812e-09 -5.19521e-05
0.00172898 -7.33535e-05 -4.33064e-07
-7.33535e-05 0.000121696 -1.69363e-06
-4.33064e-07 -1.69363e-06 4.71383e-05
0.00149321 -6.51495e-05 3.60597e-07
-6.51495e-05 3.09733e-05 1.69543e-06
3.60597e-07 1.69543e-06 -5.98381e-05
0.00137075 -8.57533e-05 -7.28254e-07
-8.57533e-05 3.6862e-06 -6.36755e-07
-7.28254e-07 -6.36755e-07 -6.694e-05
0.00145814 -8.05916e-05 3.35008e-07
-8.05916e-05 6.37937e-05 -8.45877e-07
3.35008e-07 -8.45877e-07 -2.06437e-05
0.00144134 -8.06397e-05 3.26673e-07
-8.06397e-05 7.66717e-05 -8.1084e-08
3.26673e-07 -8.1084e-08 -1.67056e-05
0.00136998 -8.34887e-05 -2.05493e-06
-8.34887e-05 5.80133e-05 1.90057e-06
-2.05493e-06 1.90057e-06 -2.48622e-05
0.00150823 -8.56036e-05 -2.60714e-07
-8.56036e-05 0.000147674 -5.79524e-07
-2.60714e-07 -5.79524e-07 5.59664e-05
0.00140734 -8.21256e-05 -1.35216e-06
-8.21256e-05 0.0001224 -4.38519e-07
-1.35216e-06 -4.38519e-07 2.78988e-05
0.00137622 -9.14455e-05 1.58616e-06
-9.14455e-05 0.000120599 6.55295e-07
1.58616e-06 6.55295e-07 2.13088e-05
0.00124798 -8.61305e-05 3.48891e-07
-8.61305e-05 8.04928e-05 -2.02295e-07
3.48891e-07 -2.02295e-07 -1.65933e-05
0.0012557 -8.13755e-05 -2.91389e-06
-8.13755e-05 0.000118913 5.75549e-07
-2.91389e-06 5.75549e-07 2.82758e-05
0.000898773 -5.45069e-05 -3.47513e-06
-5.45069e-05 2.0571e-05 1.56261e-06
-3.47513e-06 1.56261e-06 -5.28046e-05
0.000883894 -7.42337e-05 -7.18774e-07
-7.42337e-05 -2.71388e-05 5.15859e-07
-7.18774e-07 5.15859e-07 -0.000117487
0.00108825 -8.66519e-05 1.46845e-06
-8.66519e-05 5.11899e-05 -1.62399e-07
1.46845e-06 -1.62399e-07 -4.85737e-05
0.00065453 2.96452e-06 -5.30329e-06
2.96452e-06 -4.80577e-05 4.20476e-06
-5.30329e-06 4.20476e-06 -8.62463e-05
0.000881719 -4.37273e-05 1.31746e-07
-4.37273e-05 3.36056e-05 1.13613e-08
1.31746e-07 1.13613e-08 -3.67238e-05
0.0010942 -8.03342e-05 2.20699e-06
-8.03342e-05 0.000109747 -1.01603e-06
2.20699e-06 -1.01603e-06 2.20836e-05
0.00287225 7.80431e-05 -3.73478e-05
7.80431e-05 0.00111234 3.14245e-06
-3.73478e-05 3.14245e-06 0.00111507
0.000688724 2.41571e-05 -6.29015e-08
2.41571e-05 -3.89499e-05 -1.18245e-07
-6.29015e-08 -1.18245e-07 -7.11331e-05
0.000918192 -2.83761e-05 3.11848e-06
-2.83761e-05 5.73757e-05 -1.80506e-06
3.11848e-06 -1.80506e-06 -9.40414e-06
0.00274612 7.03401e-05 6.7439e-07
7.03401e-05 0.00103904 1.23321e-07
6.7439e-07 1.23321e-07 0.00104474
0.000719848 3.78313e-05 4.23037e-06
3.78313e-05 -2.58296e-05 -4.07313e-06
4.23037e-06 -4.07313e-06 -5.32324e-05
0.00263061 6.34428e-05 3.39478e-05
6.34428e-05 0.000973269 -3.43773e-06
3.39478e-05 -3.43773e-06 0.000981476
0.000891363 8.1484e-05 -4.12467e-07
8.1484e-05 2.02381e-05 -3.87581e-07
-4.12467e-07 -3.87581e-07 -7.4293e-05
0.00101639 8.02472e-05 -1.41081e-08
8.02472e-05 0.000104224 -4.28629e-07
-1.41081e-08 -4.28629e-07 1.51649e-05
0.00107641 6.89755e-05 -9.95736e-07
6.89755e-05 0.000129616 -2.67407e-08
-9.95736e-07 -2.67407e-08 4.89511e-05
0.00111316 7.98399e-05 1.31367e-07
7.98399e-05 0.000156869 -6.69155e-07
1.31367e-07 -6.69155e-07 7.28665e-05
0.000950181 3.74454e-05 -5.80677e-07
3.74454e-05 7.02568e-05 -2.25557e-07
-5.80677e-07 -2.25557e-07 -6.05477e-06
0.000828493 3.5954e-06 -2.39539e-06
3.5954e-06 1.49431e-05 -1.25331e-06
-2.39539e-06 -1.25331e-06 -4.61991e-05
0.000857481 1.07478e-05 4.15924e-07
1.07478e-05 2.21073e-05 8.54908e-08
4.15924e-07 8.54908e-08 -5.13339e-05
0.000819539 -2.38411e-05 -9.0928e-08
-2.38411e-05 7.4424e-06 1.40438e-08
-9.0928e-08 1.40438e-08 -4.69005e-05
0.000729237 -4.9876e-05 -2.30289e-06
-4.9876e-05 -2.40841e-05 -3.8388e-06
-2.30289e-06 -3.8388e-06 -4.60756e-05
0.000826611 -3.09358e-05 1.56483e-06
-3.09358e-05 6.74435e-06 2.30036e-06
1.56483e-06 2.30036e-06 -4.03855e-05
0.000735149 -4.06405e-05 -3.98035e-10
-4.06405e-05 -3.20049e-05 -5.39875e-08
-3.98035e-10 -5.39875e-08 -4.80424e-05
0.00243539 -5.6351e-05 -2.98165e-05
-5.6351e-05 0.000865955 -3.25466e-06
-2.98165e-05 -3.25466e-06 0.000877052
0.000743402 -3.33786e-05 3.06098e-06
-3.33786e-05 -3.6687e-05 3.56512e-06
3.06098e-06 3.56512e-06 -4.86706e-05
0.0023422 -5.0546e-05 -3.85452e-07
-5.0546e-05 0.000808918 7.1044e-08
-3.85452e-07 7.1044e-08 0.000822483
0.00232926 -4.53188e-05 2.41108e-05
-4.53188e-05 0.000793893 3.59504e-06
2.41108e-05 3.59504e-06 0.000809263
0.000617149 -4.49963e-05 -4.18304e-06
-4.49963e-05 -0.000398166 1.508e-06
-4.18304e-06 1.508e-06 -0.000429214
0.00294502 -3.90244e-05 -1.07923e-06
-3.90244e-05 0.00035046 9.5275e-06
-1.07923e-06 9.5275e-06 6.06853e-05
0.00538053 6.38552e-05 -7.12232e-05
6.38552e-05 0.00157639 -8.55381e-06
-7.12232e-05 -8.55381e-06 0.000940341
0.000817026 7.96606e-05 2.50601e-06
7.96606e-05 -4.28561e-05 1.55561e-06
2.50601e-06 1.55561e-06 -0.000131884
0.00137652 0.000106861 3.44689e-06
0.000106861 0.000176275 -8.56054e-07
3.44689e-06 -8.56054e-07 7.32047e-05
0.000835219 8.30506e-05 1.88228e-07
8.30506e-05 -6.5617e-06 -5.56142e-07
1.88228e-07 -5.56142e-07 -0.000102662
0.00111116 8.80485e-05 -2.20915e-07
8.80485e-05 0.000172906 -1.85179e-06
-2.20915e-07 -1.85179e-06 8.25663e-05
0.000967013 8.40343e-05 -6.01982e-07
8.40343e-05 9.21317e-05 -1.10646e-06
-6.01982e-07 -1.10646e-06 -1.8073e-06
0.000991963 9.08873e-05 1.74134e-06
9.08873e-05 7.8884e-05 1.07471e-06
1.74134e-06 1.07471e-06 -6.68277e-06
0.00165329 0.000130955 -2.03494e-06
0.000130955 0.000235217 -2.64883e-06
-2.03494e-06 -2.64883e-06 0.000130568
0.00147262 0.000115205 1.3161e-06
0.000115205 0.000312269 -4.36359e-07
1.3161e-06 -4.36359e-07 0.000219859
0.00092811 0.000106422 -1.67712e-06
0.000106422 -4.46188e-07 4.45949e-06
-1.67712e-06 4.45949e-06 -9.80324e-05
0.00152383 0.000137528 -1.20256e-06
0.000137528 0.000161121 -6.63906e-08
-1.20256e-06 -6.63906e-08 5.13852e-05
0.001469 0.000114662 -2.38339e-06
0.000114662 -4.29556e-05 2.00515e-07
-2.38339e-06 2.00515e-07 -0.000160156
0.00166981 3.01333e-05 4.1579e-06
3.01333e-05 -6.49501e-05 4.32696e-06
4.1579e-06 4.32696e-06 -0.000151824
0.00208562 0.000134612 2.8419e-06
0.000134612 0.00020546 1.48631e-06
2.8419e-06 1.48631e-06 8.86319e-05
0.00122874 0.000138135 -2.6665e-06
0.000138135 -3.28316e-05 1.80248e-06
-2.6665e-06 1.80248e-06 -0.000151659
0.00129712 6.42603e-06 1.25264e-06
6.42603e-06 -6.75492e-05 -4.45846e-07
1.25264e-06 -4.45846e-07 -8.24067e-05
0.00427863 -0.000134258 4.70024e-05
-0.000134258 0.000617503 2.27249e-05
4.70024e-05 2.27249e-05 0.000326388
0.00192319 0.000129637 -2.1957e-07
0.000129637 0.000207371 -6.789e-06
-2.1957e-07 -6.789e-06 0.000161405
0.00189615 -1.34721e-06 2.46254e-06
-1.34721e-06 0.000205371 -4.5006e-06
2.46254e-06 -4.5006e-06 0.000145381
0.00161556 -3.89004e-05 -6.62309e-07
-3.89004e-05 0.000139533 7.59691e-07
-6.62309e-07 7.59691e-07 4.85046e-05
0.000810863 6.45311e-05 5.90834e-05
6.45311e-05 -0.000304399 1.44464e-06
5.90834e-05 1.44464e-06 -0.000658898
0.000613015 -1.86014e-05 -2.22942e-06
-1.86014e-05 -0.000535448 1.49935e-06
-2.22942e-06 1.49935e-06 -0.000580679
0.00260872 8.96823e-05 -2.1794e-05
8.96823e-05 0.000612561 4.28638e-06
-2.1794e-05 4.28638e-06 0.00053296
0.00113663 4.00985e-05 -6.00167e-07
4.00985e-05 -0.000302286 4.91032e-06
-6.00167e-07 4.91032e-06 -0.000384721
0.00217101 5.52831e-05 2.03213e-06
5.52831e-05 0.000234615 4.05776e-07
2.03213e-06 4.05776e-07 0.000143443
0.00178983 2.51957e-05 -1.21911e-06
2.51957e-05 8.61168e-05 1.04321e-07
-1.21911e-06 1.04321e-07 -4.2934e-06
0.00168996 3.36839e-05 7.79996e-07
3.36839e-05 1.59595e-05 -2.9731e-06
7.79996e-07 -2.9731e-06 -6.0472e-05
0.00188383 -2.81948e-05 7.14958e-06
-2.81948e-05 4.31503e-05 2.17921e-06
7.14958e-06 2.17921e-06 -2.98704e-05
0.00185499 -2.816e-06 -2.21209e-06
-2.816e-06 0.000117342 2.5561e-07
-2.21209e-06 2.5561e-07 2.2112e-05
0.00164166 1.88413e-06 -3.30196e-07
1.88413e-06 4.13664e-05 -3.34221e-06
-3.30196e-07 -3.34221e-06 -5.7905e-05
0.00195977 -5.92367e-05 -1.24257e-06
-5.92367e-05 0.000152148 -1.79534e-06
-1.24257e-06 -1.79534e-06 7.19541e-05
0.00183687 -3.83237e-05 8.24944e-08
-3.83237e-05 0.000142139 -5.7178e-07
8.24944e-08 -5.7178e-07 4.85737e-05
0.00157426 -2.87557e-05 -5.35359e-07
-2.87557e-05 3.84276e-05 1.47142e-07
-5.35359e-07 1.47142e-07 -5.8993e-05
0.00163862 -7.44658e-05 -3.07697e-06
-7.44658e-05 8.89612e-05 -3.22223e-06
-3.07697e-06 -3.22223e-06 1.58156e-05
0.00156983 -6.54161e-05 4.40877e-07
-6.54161e-05 6.77318e-05 2.24837e-07
4.40877e-07 2.24837e-07 -2.32156e-05
0.00151215 -6.68571e-05 -2.82102e-07
-6.68571e-05 6.18275e-05 8.48011e-07
-2.82102e-07 8.48011e-07 -3.51116e-05
0.00143902 -7.97991e-05 -1.19653e-06
-7.97991e-05 5.49311e-05 -1.53694e-06
-1.19653e-06 -1.53694e-06 -2.95277e-05
0.00144607 -7.9847e-05 1.18967e-07
-7.9847e-05 7.86646e-05 -5.19971e-07
1.18967e-07 -5.19971e-07 -1.46247e-05
0.00139185 -7.82732e-05 -1.15061e-06
-7.82732e-05 7.88668e-05 1.7701e-07
-1.15061e-06 1.7701e-07 -1.75486e-05
0.00134539 -8.07345e-05 -1.79054e-07
-8.07345e-05 6.39755e-05 6.95378e-07
-1.79054e-07 6.95378e-07 -2.70047e-05
0.00126836 -7.83766e-05 -1.83591e-07
-7.83766e-05 5.24659e-05 -2.37301e-07
-1.83591e-07 -2.37301e-07 -4.17975e-05
0.00121987 -7.42481e-05 -3.01819e-06
-7.42481e-05 6.71393e-05 4.26365e-07
-3.01819e-06 4.26365e-07 -2.30672e-05
0.00106236 -8.04271e-05 2.09383e-06
-8.04271e-05 -1.32278e-05 -4.04735e-08
2.09383e-06 -4.04735e-08 -0.000110833
0.0010626 -7.50396e-05 1.75236e-07
-7.50396e-05 2.13726e-05 3.65287e-08
1.75236e-07 3.65287e-08 -6.92783e-05
0.000960621 -5.83198e-05 -4.24314e-06
-5.83198e-05 2.06471e-05 1.56493e-06
-4.24314e-06 1.56493e-06 -5.40387e-05
0.000610227 -1.75046e-05 -6.46103e-06
-1.75046e-05 -7.18965e-05 4.37056e-06
-6.46103e-06 4.37056e-06 -0.00011505
0.000926396 -5.6757e-05 1.35074e-07
-5.6757e-05 3.49465e-05 3.94513e-08
1.35074e-07 3.94513e-08 -3.86966e-05
0.00100718 -7.81154e-05 1.5182e-06
-7.81154e-05 3.76479e-05 -2.60475e-07
1.5182e-06 -2.60475e-07 -5.19228e-05
0.00297158 8.55758e-05 -3.87809e-05
8.55758e-05 0.00117965 3.05302e-06
-3.87809e-05 3.05302e-06 0.00117786
0.000713698 7.88886e-06 -2.41343e-07
7.88886e-06 -2.07592e-05 -7.00914e-08
-2.41343e-07 -7.00914e-08 -5.97037e-05
0.000952016 -4.39418e-05 3.37994e-06
-4.39418e-05 6.98497e-05 -1.64434e-06
3.37994e-06 -1.64434e-06 -1.3121e-06
0.00286433 7.74827e-05 6.4857e-07
7.74827e-05 0.00111112 1.31222e-07
6.4857e-07 1.31222e-07 0.00111315
0.00075166 2.63711e-05 5.39459e-06
2.63711e-05 -7.12182e-06 -3.96128e-06
5.39459e-06 -3.96128e-06 -3.99917e-05
0.0027563 6.9921e-05 3.68224e-05
6.9921e-05 0.0010455 -3.39302e-06
3.68224e-05 -3.39302e-06 0.00105075
0.000656112 7.83083e-05 -1.0902e-07
7.83083e-05 -0.000142396 -3.01214e-07
-1.0902e-07 -3.01214e-07 -0.000244159
0.000747976 7.61071e-05 -1.06555e-08
7.61071e-05 -5.48531e-05 -9.36554e-08
-1.06555e-08 -9.36554e-08 -0.000149953
0.00111924 7.8722e-05 -1.43714e-06
7.8722e-05 0.000132694 -8.41633e-08
-1.43714e-06 -8.41633e-08 4.7251e-05
0.00094851 7.71522e-05 -5.10615e-08
7.71522e-05 6.92981e-05 -6.72243e-07
-5.10615e-08 -6.72243e-07 -1.92888e-05
0.000996292 6.50712e-05 -1.34081e-07
6.50712e-05 8.93418e-05 -1.5772e-07
-1.34081e-07 -1.5772e-07 9.07541e-06
0.000894098 1.83303e-05 -2.57704e-06
1.83303e-05 5.19666e-05 -1.03053e-06
-2.57704e-06 -1.03053e-06 -1.47631e-05
0.000945216 3.96103e-05 4.89081e-07
3.96103e-05 6.80139e-05 -5.0363e-07
4.89081e-07 -5.0363e-07 -7.82442e-06
0.000832629 -2.29295e-07 7.09536e-08
-2.29295e-07 2.00204e-05 7.85861e-08
7.09536e-08 7.85861e-08 -4.18593e-05
0.000711233 -5.35185e-05 -2.35269e-06
-5.35185e-05 -2.54746e-05 -3.82483e-06
-2.35269e-06 -3.82483e-06 -5.33197e-05
0.000833616 -3.1219e-05 1.7363e-06
-3.1219e-05 1.61618e-05 2.07785e-06
1.7363e-06 2.07785e-06 -3.85055e-05
0.000702983 -4.81429e-05 -2.42359e-08
-4.81429e-05 -3.90091e-05 -6.79232e-08
-2.42359e-08 -6.79232e-08 -6.03922e-05
0.00256237 -6.2922e-05 -3.26799e-05
-6.2922e-05 0.000938822 -3.16284e-06
-3.26799e-05 -3.16284e-06 0.000947336
0.00071375 -3.85236e-05 3.35194e-06
-3.85236e-05 -4.39605e-05 3.60715e-06
3.35194e-06 3.60715e-06 -5.94622e-05
0.00242082 -5.63801e-05 -3.71614e-07
-5.63801e-05 0.000857451 7.33214e-08
-3.71614e-07 7.33214e-08 0.000868837
0.0023523 -5.06096e-05 2.60398e-05
-5.06096e-05 0.00081309 3.41826e-06
2.60398e-05 3.41826e-06 0.000826833
0.00144078 -3.19649e-05 8.02482e-06
-3.19649e-05 -0.000161681 2.80265e-06
8.02482e-06 2.80265e-06 -0.000228483
0.000990541 -5.93909e-05 1.21406e-06
-5.93909e-05 -0.000248917 1.58796e-06
1.21406e-06 1.58796e-06 -0.000287781
0.00185921 -9.00768e-05 5.75374e-05
-9.00768e-05 -7.5909e-05 1.70667e-05
5.75374e-05 1.70667e-05 -0.000304111
0.00190361 0.000121828 1.6273e-06
0.000121828 0.00037666 -2.10323e-06
1.6273e-06 -2.10323e-06 0.000276278
0.000834368 8.24134e-05 -1.1211e-06
8.24134e-05 -2.04601e-05 5.52962e-07
-1.1211e-06 5.52962e-07 -0.000104886
0.000730902 8.82382e-05 -2.63852e-06
8.82382e-05 -0.000238799 1.17185e-06
-2.63852e-06 1.17185e-06 -0.000346697
0.00137693 0.000107041 3.5565e-07
0.000107041 0.000175483 1.35543e-07
3.5565e-07 1.35543e-07 7.16251e-05
0.00049464 7.06963e-05 -2.37315e-06
7.06963e-05 -0.000170194 3.2075e-07
-2.37315e-06 3.2075e-07 -0.000265334
0.00192119 0.000115627 -2.36684e-06
0.000115627 0.000221168 -2.9575e-06
-2.36684e-06 -2.9575e-06 0.000107674
0.00127141 0.000103186 -7.34396e-07
0.000103186 0.000211183 -8.82428e-07
-7.34396e-07 -8.82428e-07 0.00012398
0.00153197 0.000125457 -1.09037e-07
0.000125457 0.00016974 3.7594e-07
-1.09037e-07 3.7594e-07 6.4613e-05
0.00177348 5.06584e-05 2.11247e-06
5.06584e-05 5.58054e-05 2.26302e-06
2.11247e-06 2.26302e-06 -4.69808e-05
0.00150095 0.000136919 1.10484e-06
0.000136919 0.000151668 2.27847e-06
1.10484e-06 2.27847e-06 4.30321e-05
0.0016658 0.000121122 -1.09195e-06
0.000121122 4.75565e-05 -8.47337e-07
-1.09195e-06 -8.47337e-07 -7.0941e-05
0.00177603 3.65492e-05 -1.48012e-07
3.65492e-05 -2.73689e-06 -3.95424e-09
-1.48012e-07 -3.95424e-09 -9.21075e-05
0.00183094 0.00012304 8.93441e-07
0.00012304 9.59928e-05 -1.2589e-06
8.93441e-07 -1.2589e-06 -2.08183e-05
0.00128221 1.05401e-05 -3.82755e-06
1.05401e-05 -7.47677e-05 -7.26213e-06
-3.82755e-06 -7.26213e-06 -8.98368e-05
0.0015699 9.0511e-07 2.75103e-06
9.0511e-07 1.55578e-06 -2.45822e-06
2.75103e-06 -2.45822e-06 -6.76384e-05
0.00165235 -9.50347e-07 1.09857e-08
-9.50347e-07 8.25079e-05 -5.79906e-07
1.09857e-08 -5.79906e-07 2.42187e-05
0.000422267 -1.51756e-05 -3.45137e-06
-1.51756e-05 -0.00043101 3.43826e-06
-3.45137e-06 3.43826e-06 -0.000532812
0.00120278 4.20756e-05 3.75297e-07
4.20756e-05 -0.000283022 2.54184e-06
3.75297e-07 2.54184e-06 -0.000359172
0.00209255 5.15306e-05 9.76804e-06
5.15306e-05 0.000182668 5.10784e-06
9.76804e-06 5.10784e-06 9.40846e-05
0.00158899 2.40172e-05 -3.27571e-06
2.40172e-05 -1.78374e-05 5.04606e-07
-3.27571e-06 5.04606e-07 -0.000107802
0.00180648 3.20294e-05 5.08134e-07
3.20294e-05 7.62921e-05 2.35818e-06
5.08134e-07 2.35818e-06 -2.45866e-06
0.00187107 2.26795e-05 7.5682e-07
2.26795e-05 0.000145904 -1.47244e-06
7.5682e-07 -1.47244e-06 5.71493e-05
0.00179673 -3.11366e-06 -3.73517e-06
-3.11366e-06 7.99482e-05 1.6262e-06
-3.73517e-06 1.6262e-06 -1.39509e-05
0.00173027 2.81389e-06 -1.52676e-07
2.81389e-06 8.66888e-05 -4.65536e-08
-1.52676e-07 -4.65536e-08 -1.28375e-05
0.00158593 7.77958e-06 -3.34762e-07
7.77958e-06 3.22982e-05 -1.75302e-06
-3.34762e-07 -1.75302e-06 -6.57651e-05
0.00181462 -3.88337e-05 2.49602e-07
-3.88337e-05 0.000133367 -1.43134e-06
2.49602e-07 -1.43134e-06 4.24288e-05
0.00164169 -2.96871e-05 2.99518e-08
-2.96871e-05 6.98254e-05 8.3987e-07
2.99518e-08 8.3987e-07 -2.75942e-05
0.00159531 -3.0683e-05 -1.16361e-06
-3.0683e-05 6.64169e-05 -5.51043e-07
-1.16361e-06 -5.51043e-07 -3.23401e-05
0.001646 -6.56054e-05 5.25191e-07
-6.56054e-05 0.000104303 -1.14834e-06
5.25191e-07 -1.14834e-06 1.32207e-05
0.00154434 -6.62196e-05 2.66685e-07
-6.62196e-05 7.70216e-05 3.78475e-07
2.66685e-07 3.78475e-07 -1.99902e-05
0.00147865 -6.78056e-05 -1.51024e-06
-6.78056e-05 7.55348e-05 5.46144e-07
-1.51024e-06 5.46144e-07 -2.32795e-05
0.0014522 -7.91601e-05 -4.68326e-08
-7.91601e-05 8.13717e-05 -9.44838e-07
-4.68326e-08 -9.44838e-07 -1.18366e-05
0.00139562 -7.77357e-05 5.37138e-08
-7.77357e-05 8.02476e-05 -2.75674e-07
5.37138e-08 -2.75674e-07 -1.60893e-05
0.00128077 -7.14298e-05 -2.9451e-06
-7.14298e-05 6.12686e-05 6.68652e-07
-2.9451e-06 6.68652e-07 -3.1426e-05
0.00113123 -7.46431e-05 1.12721e-06
-7.46431e-05 -1.65837e-05 7.54076e-08
1.12721e-06 7.54076e-08 -0.000110598
0.00121224 -7.34689e-05 1.893e-08
-7.34689e-05 6.32007e-05 -8.22859e-08
1.893e-08 -8.22859e-08 -2.68552e-05
0.00101853 -5.72328e-05 -5.06765e-06
-5.72328e-05 1.86575e-05 1.7444e-06
-5.06765e-06 1.7444e-06 -5.70029e-05
0.000865537 -6.85131e-05 2.54913e-06
-6.85131e-05 -7.81224e-05 -3.75595e-07
2.54913e-06 -3.75595e-07 -0.000168777
0.000971738 -5.91245e-05 1.7799e-07
-5.91245e-05 2.66165e-05 -7.54805e-09
1.7799e-07 -7.54805e-09 -4.82403e-05
0.00165667 -2.08977e-06 -7.5979e-06
-2.08977e-06 0.00047365 2.79014e-06
-7.5979e-06 2.79014e-06 0.000432437
0.00107614 3.77035e-05 -4.06398e-05
3.77035e-05 0.000198271 6.49905e-06
-4.06398e-05 6.49905e-06 0.000180936
0.00122362 -6.4802e-06 -1.41021e-06
-6.4802e-06 0.000244653 -4.14588e-08
-1.41021e-06 -4.14588e-08 0.000204081
0.000966596 -5.91051e-05 3.77935e-06
-5.91051e-05 5.57956e-05 -1.38618e-06
3.77935e-06 -1.38618e-06 -1.81418e-05
0.00302233 8.46699e-05 1.21365e-06
8.46699e-05 0.00120919 1.89779e-07
1.21365e-06 1.89779e-07 0.00120661
0.00077635 -4.70173e-06 6.54176e-06
-4.70173e-06 5.70205e-06 -4.00481e-06
6.54176e-06 -4.00481e-06 -3.20935e-05
0.00285907 7.56124e-05 4.02614e-05
7.56124e-05 0.00111074 -3.28925e-06
4.02614e-05 -3.28925e-06 0.00111232
0.00120195 9.28739e-05 -4.14863e-07
9.28739e-05 -4.36932e-05 6.94227e-07
-4.14863e-07 6.94227e-07 -0.000141466
0.000799067 8.61018e-05 1.75961e-06
8.61018e-05 -0.000122957 1.31386e-06
1.75961e-06 1.31386e-06 -0.000227784
0.000820836 8.49522e-05 -1.77901e-07
8.49522e-05 -6.45935e-05 -9.52776e-08
-1.77901e-07 -9.52776e-08 -0.000167576
0.00113629 8.4467e-05 -1.61642e-06
8.4467e-05 0.000115237 -3.00963e-07
-1.61642e-06 -3.00963e-07 2.55973e-05
0.0006001 7.0553e-05 -8.28972e-08
7.0553e-05 -0.000132237 2.14399e-07
-8.28972e-08 2.14399e-07 -0.000227893
0.00102959 7.40916e-05 -2.61706e-07
7.40916e-05 8.83693e-05 -6.41212e-08
-2.61706e-07 -6.41212e-08 3.43156e-06
0.000942423 3.64668e-05 -2.9767e-06
3.64668e-05 7.11217e-05 -7.61202e-07
-2.9767e-06 -7.61202e-07 1.81669e-06
0.000925469 6.14667e-05 9.96953e-07
6.14667e-05 5.38659e-05 -1.16632e-07
9.96953e-07 -1.16632e-07 -2.60334e-05
0.000839464 1.50356e-05 3.35679e-08
1.50356e-05 2.50344e-05 1.69144e-07
3.35679e-08 1.69144e-07 -4.1514e-05
0.000732146 -3.40428e-05 -4.62284e-06
-3.40428e-05 -1.21294e-05 -3.60854e-06
-4.62284e-06 -3.60854e-06 -4.47264e-05
0.000848524 -1.28538e-05 1.80569e-06
-1.28538e-05 3.02867e-05 1.43685e-06
1.80569e-06 1.43685e-06 -3.17089e-05
0.000668941 -5.39433e-05 -4.82575e-08
-5.39433e-05 -4.76996e-05 -9.82819e-08
-4.82575e-08 -9.82819e-08 -7.53493e-05
0.00268003 -6.971e-05 -3.53188e-05
-6.971e-05 0.00100764 -3.15748e-06
-3.53188e-05 -3.15748e-06 0.00101313
0.000675827 -4.57169e-05 3.25527e-06
-4.57169e-05 -5.44434e-05 3.71742e-06
3.25527e-06 3.71742e-06 -7.51368e-05
0.00254344 -6.30181e-05 -3.73608e-07
-6.30181e-05 0.000928346 8.66225e-08
-3.73608e-07 8.66225e-08 0.000937176
0.00240987 -5.63387e-05 2.79992e-05
-5.63387e-05 0.00085072 3.23318e-06
2.79992e-05 3.23318e-06 0.000862413
0.00160797 -1.08409e-05 4.789e-06
-1.08409e-05 -8.58698e-06 3.92754e-06
4.789e-06 3.92754e-06 -9.38486e-05
0.00208679 -3.36375e-05 -1.409e-06
-3.36375e-05 0.000198229 -1.07131e-06
-1.409e-06 -1.07131e-06 0.000134471
0.00201268 -8.83823e-05 2.05637e-06
-8.83823e-05 0.000220022 -4.38499e-07
2.05637e-06 -4.38499e-07 0.00017066
0.00160251 0.000102616 -4.88819e-06
0.000102616 8.66834e-05 -2.12508e-06
-4.88819e-06 -2.12508e-06 -2.11578e-05
0.00162081 0.000112836 -3.25642e-07
0.000112836 0.000254468 4.89306e-07
-3.25642e-07 4.89306e-07 0.00015754
0.000790563 8.34574e-05 -6.52106e-06
8.34574e-05 -2.93733e-05 8.62402e-08
-6.52106e-06 8.62402e-08 -0.000109098
0.00140637 0.000108038 1.67825e-06
0.000108038 9.71998e-05 1.33932e-06
1.67825e-06 1.33932e-06 -8.78013e-06
0.00140087 0.000107985 -2.58829e-06
0.000107985 0.000186723 2.66844e-07
-2.58829e-06 2.66844e-07 8.2015e-05
0.00193169 5.09096e-05 8.02412e-07
5.09096e-05 0.000149612 1.91287e-06
8.02412e-07 1.91287e-06 4.28021e-05
0.00173858 0.000112702 -2.06404e-06
0.000112702 0.000125836 -1.52551e-06
-2.06404e-06 -1.52551e-06 9.48188e-06
0.00146811 0.000122209 1.32403e-06
0.000122209 0.000132932 4.46125e-06
1.32403e-06 4.46125e-06 2.71015e-05
0.00179268 4.99597e-05 -4.46166e-07
4.99597e-05 6.61709e-05 -1.33064e-07
-4.46166e-07 -1.33064e-07 -3.71215e-05
0.00199706 0.000131468 2.01545e-06
0.000131468 0.000202399 -1.42585e-06
2.01545e-06 -1.42585e-06 8.27413e-05
0.00191613 4.01456e-05 -5.40238e-06
4.01456e-05 6.91071e-05 -4.10276e-06
-5.40238e-06 -4.10276e-06 -2.19097e-05
0.00179772 -2.72894e-07 1.79934e-06
-2.72894e-07 0.000113214 4.39869e-08
1.79934e-06 4.39869e-08 2.79871e-05
0.0016771 1.1491e-06 -1.1081e-06
1.1491e-06 4.36154e-05 -1.3286e-06
-1.1081e-06 -1.3286e-06 -2.65396e-05
0.00129514 -3.03647e-06 -1.36048e-06
-3.03647e-06 -9.97593e-05 3.18546e-06
-1.36048e-06 3.18546e-06 -0.000155929
0.00142048 2.2869e-05 -1.65433e-06
2.2869e-05 -0.000105909 2.50483e-06
-1.65433e-06 2.50483e-06 -0.000195283
0.00194179 3.09859e-05 4.03933e-06
3.09859e-05 0.000144805 7.38285e-06
4.03933e-06 7.38285e-06 6.39506e-05
0.00180345 2.2403e-05 -5.52528e-07
2.2403e-05 0.000114735 -4.96933e-07
-5.52528e-07 -4.96933e-07 2.59082e-05
0.00171111 2.02112e-05 1.67982e-06
2.02112e-05 9.33458e-05 -1.04657e-06
1.67982e-06 -1.04657e-06 -6.02349e-06
0.00182213 3.53225e-06 1.38335e-06
3.53225e-06 0.000132989 1.3275e-06
1.38335e-06 1.3275e-06 3.33002e-05
0.00162403 6.19302e-06 -5.30681e-07
6.19302e-06 5.30767e-05 9.96831e-08
-5.30681e-07 9.96831e-08 -4.52867e-05
0.00164825 1.23999e-06 -1.63956e-06
1.23999e-06 8.42735e-05 -1.00153e-06
-1.63956e-06 -1.00153e-06 -1.65546e-05
0.0017015 -3.07835e-05 1.07148e-06
-3.07835e-05 9.75506e-05 1.4868e-06
1.07148e-06 1.4868e-06 1.00495e-07
0.0016176 -3.11026e-05 5.81751e-08
-3.11026e-05 7.70061e-05 2.98095e-07
5.81751e-08 2.98095e-07 -2.17504e-05
0.0015561 -3.91509e-05 -2.07925e-06
-3.91509e-05 7.84442e-05 -6.2446e-07
-2.07925e-06 -6.2446e-07 -2.00487e-05
0.0015786 -6.54994e-05 1.21851e-06
-6.54994e-05 9.32291e-05 -9.10575e-08
1.21851e-06 -9.10575e-08 -3.84368e-06
0.00148644 -6.73218e-05 1.49452e-07
-6.73218e-05 7.8945e-05 3.78423e-07
1.49452e-07 3.78423e-07 -1.98919e-05
0.00136722 -6.38807e-05 -3.23627e-06
-6.38807e-05 6.35586e-05 8.00584e-07
-3.23627e-06 8.00584e-07 -3.15607e-05
0.0013994 -7.72536e-05 1.28833e-06
-7.72536e-05 8.16553e-05 -7.07707e-07
1.28833e-06 -7.07707e-07 -1.461e-05
0.00128576 -7.09795e-05 5.16033e-08
-7.09795e-05 6.33123e-05 -1.31344e-07
5.16033e-08 -1.31344e-07 -2.93113e-05
0.00107207 -5.54656e-05 -5.7803e-06
-5.54656e-05 1.49948e-05 2.03757e-06
-5.7803e-06 2.03757e-06 -6.32545e-05
0.00120363 -7.2673e-05 2.66698e-06
-7.2673e-05 5.87884e-05 -4.83971e-07
2.66698e-06 -4.83971e-07 -3.11211e-05
0.00102266 -5.73073e-05 2.36596e-07
-5.73073e-05 2.04322e-05 -8.69037e-08
2.36596e-07 -8.69037e-08 -5.53204e-05
0.00174219 -5.60117e-06 -7.53561e-06
-5.60117e-06 0.000507885 3.00758e-06
-7.53561e-06 3.00758e-06 0.000465394
0.00098914 -6.02573e-05 4.32814e-06
-6.02573e-05 3.59241e-05 -1.41016e-06
4.32814e-06 -1.41016e-06 -3.91463e-05
0.00182236 -1.29888e-05 1.17787e-05
-1.29888e-05 0.000552991 -9.52564e-07
1.17787e-05 -9.52564e-07 0.000512555
0.00119271 1.67745e-05 -5.42734e-05
1.67745e-05 0.000272857 6.72339e-06
-5.42734e-05 6.72339e-06 0.000252757
0.00214321 5.66581e-05 -3.80838e-05
5.66581e-05 0.000761877 1.34027e-06
-3.80838e-05 1.34027e-06 0.000750296
0.00186987 -9.28426e-06 2.68358e-05
-9.28426e-06 0.000576507 -3.26854e-06
2.68358e-05 -3.26854e-06 0.000540352
0.00305604 7.83153e-05 4.73675e-05
7.83153e-05 0.0012291 -3.18254e-06
4.73675e-05 -3.18254e-06 0.00122643
0.00157778 9.28006e-05 -3.18212e-06
9.28006e-05 7.03348e-05 -2.45218e-06
-3.18212e-06 -2.45218e-06 -3.21612e-05
0.00148368 0.000101976 3.24494e-06
0.000101976 0.000164319 7.36605e-07
3.24494e-06 7.36605e-07 6.54798e-05
0.00122715 9.45468e-05 1.43312e-06
9.45468e-05 -2.01089e-05 8.46487e-07
1.43312e-06 8.46487e-07 -0.00011109
0.00115139 8.93007e-05 -1.73316e-06
8.93007e-05 8.82372e-05 -6.13569e-07
-1.73316e-06 -6.13569e-07 -6.43933e-06
0.00114559 9.92014e-05 -5.32922e-07
9.92014e-05 4.87374e-05 2.83378e-07
-5.32922e-07 2.83378e-07 -5.68461e-05
0.000991648 9.21232e-05 1.13076e-07
9.21232e-05 1.60094e-05 2.77738e-07
1.13076e-07 2.77738e-07 -8.82007e-05
0.00108481 8.24252e-05 -1.36683e-07
8.24252e-05 9.17256e-05 -1.39761e-07
-1.36683e-07 -1.39761e-07 1.97941e-06
0.000977682 5.45703e-05 -3.02235e-06
5.45703e-05 7.39003e-05 -9.00936e-07
-3.02235e-06 -9.00936e-07 1.70726e-06
0.000937768 6.94131e-05 8.57969e-07
6.94131e-05 4.28752e-05 -8.38324e-08
8.57969e-07 -8.38324e-08 -4.15471e-05
0.000864173 3.11336e-05 -2.23037e-07
3.11336e-05 3.13363e-05 6.36674e-08
-2.23037e-07 6.36674e-08 -3.76886e-05
0.000759553 -1.39495e-05 -5.60314e-06
-1.39495e-05 2.8899e-06 -3.47635e-06
-5.60314e-06 -3.47635e-06 -3.46076e-05
0.000778109 8.82598e-06 1.95989e-06
8.82598e-06 -4.87641e-06 1.02866e-06
1.95989e-06 1.02866e-06 -7.16179e-05
0.000668838 -4.75939e-05 -2.54768e-07
-4.75939e-05 -4.2788e-05 -5.96337e-08
-2.54768e-07 -5.96337e-08 -7.58824e-05
0.00280008 -7.66792e-05 -3.84681e-05
-7.66792e-05 0.00108173 -3.0783e-06
-3.84681e-05 -3.0783e-06 0.00108338
0.000620529 -5.22476e-05 2.61019e-06
-5.22476e-05 -7.35337e-05 3.93784e-06
2.61019e-06 3.93784e-06 -0.000100673
0.00268203 -7.02722e-05 -4.57134e-07
-7.02722e-05 0.0010076 1.08484e-07
-4.57134e-07 1.08484e-07 0.00101348
0.00252482 -6.29256e-05 3.03847e-05
-6.29256e-05 0.000917844 3.07144e-06
3.03847e-05 3.07144e-06 0.000927042
0.00181633 -7.24998e-06 1.49895e-06
-7.24998e-06 9.24058e-05 2.07864e-06
1.49895e-06 2.07864e-06 -2.19001e-06
0.0017148 -1.07375e-05 6.4226e-07
-1.07375e-05 4.19369e-05 1.18932e-06
6.4226e-07 1.18932e-06 -4.35588e-05
0.00245817 -3.35091e-05 -1.24021e-05
-3.35091e-05 0.000423414 -3.42966e-06
-1.24021e-05 -3.42966e-06 0.000362249
0.00167388 5.29125e-05 -1.47601e-07
5.29125e-05 4.00475e-05 1.33212e-06
-1.47601e-07 1.33212e-06 -6.54116e-05
0.00169405 0.000105019 2.39346e-07
0.000105019 0.000135155 -9.81031e-07
2.39346e-07 -9.81031e-07 2.74028e-05
0.00140036 0.000105656 -2.57622e-06
0.000105656 0.00016261 1.60248e-06
-2.57622e-06 1.60248e-06 6.9208e-05
0.00201998 0.000125924 1.68272e-06
0.000125924 0.000401772 1.01384e-07
1.68272e-06 1.01384e-07 0.000297844
0.00191998 5.20243e-05 -5.12595e-07
5.20243e-05 0.00014251 -2.35985e-07
-5.12595e-07 -2.35985e-07 3.53621e-05
0.00151563 0.000108154 9.27316e-07
0.000108154 1.08214e-05 -2.49726e-07
9.27316e-07 -2.49726e-07 -0.000108326
0.00175028 4.95003e-05 -1.15185e-06
4.95003e-05 4.80864e-05 -2.47795e-06
-1.15185e-06 -2.47795e-06 -5.59342e-05
0.00177116 -1.30818e-06 3.06302e-06
-1.30818e-06 9.70167e-05 5.18266e-07
3.06302e-06 5.18266e-07 3.68189e-07
0.00169772 5.0142e-08 -6.74149e-09
5.0142e-08 5.89425e-05 -5.7725e-07
-6.74149e-09 -5.7725e-07 -2.82564e-05
0.00183059 1.59612e-06 -3.86551e-06
1.59612e-06 0.000109745 8.3796e-07
-3.86551e-06 8.3796e-07 3.85511e-05
0.00170187 2.33049e-05 1.60016e-06
2.33049e-05 9.10694e-05 -1.87245e-07
1.60016e-06 -1.87245e-07 -1.34882e-05
0.00170875 2.19337e-05 -1.59272e-06
2.19337e-05 7.10313e-05 1.86692e-06
-1.59272e-06 1.86692e-06 -1.80503e-05
0.00173339 2.06709e-05 5.33275e-09
2.06709e-05 0.000105601 2.73615e-07
5.33275e-09 2.73615e-07 6.43533e-06
0.00166013 1.55624e-05 8.9498e-07
1.55624e-05 9.14656e-05 -1.24012e-06
8.9498e-07 -1.24012e-06 -1.18492e-05
0.00169876 4.90831e-06 4.22198e-07
4.90831e-06 9.2214e-05 1.89738e-06
4.22198e-07 1.89738e-06 -6.44422e-06
0.00165244 1.66804e-06 -6.01782e-07
1.66804e-06 8.66908e-05 1.99746e-07
-6.01782e-07 1.99746e-07 -1.40794e-05
0.00159327 -5.25879e-06 -2.77322e-06
-5.25879e-06 8.63358e-05 -4.17915e-07
-2.77322e-06 -4.17915e-07 -1.31592e-05
0.0016428 -3.08943e-05 1.68521e-06
-3.08943e-05 8.90498e-05 1.15298e-06
1.68521e-06 1.15298e-06 -9.69618e-06
0.00155493 -3.75727e-05 3.99142e-09
-3.75727e-05 7.78242e-05 1.25262e-07
3.99142e-09 1.25262e-07 -2.07092e-05
0.00143738 -4.51138e-05 -3.66734e-06
-4.51138e-05 6.68799e-05 -9.97109e-08
-3.66734e-06 -9.97109e-08 -2.79942e-05
0.00149821 -6.6837e-05 2.13878e-06
-6.6837e-05 8.43119e-05 1.93786e-07
2.13878e-06 1.93786e-07 -1.45374e-05
0.00136779 -6.33341e-05 1.04383e-07
-6.33341e-05 6.35502e-05 3.09956e-07
1.04383e-07 3.09956e-07 -3.15386e-05
0.00114046 -5.08446e-05 -6.52416e-06
-5.08446e-05 1.80288e-05 2.03216e-06
-6.52416e-06 2.03216e-06 -6.29777e-05
0.00129085 -7.04861e-05 3.01467e-06
-7.04861e-05 6.54347e-05 -9.0206e-07
3.01467e-06 -9.0206e-07 -2.7118e-05
0.00108319 -5.503e-05 3.17957e-07
-5.503e-05 1.94372e-05 -7.82875e-08
3.17957e-07 -7.82875e-08 -5.88324e-05
0.00185291 -2.63318e-06 -7.36973e-06
-2.63318e-06 0.000550417 2.95335e-06
-7.36973e-06 2.95335e-06 0.00050759
0.0010267 -5.73455e-05 4.98795e-06
-5.73455e-05 2.23544e-05 -1.7446e-06
4.98795e-06 -1.7446e-06 -5.35137e-05
0.00192139 -1.94847e-05 1.35913e-05
-1.94847e-05 0.000594351 -9.28514e-07
1.35913e-05 -9.28514e-07 0.000552935
0.00125449 4.37914e-06 -5.97545e-05
4.37914e-06 0.000309751 6.44289e-06
-5.97545e-05 6.44289e-06 0.000288547
0.00197558 -2.64624e-05 3.29428e-05
-2.64624e-05 0.000625165 -5.17921e-06
3.29428e-05 -5.17921e-06 0.000585918
0.00120023 3.75737e-05 -2.42985e-05
3.75737e-05 0.000282965 2.19389e-06
-2.42985e-05 2.19389e-06 0.000259951
0.00312186 0.000108195 1.3e-05
0.000108195 0.00128378 -1.37888e-06
1.3e-05 -1.37888e-06 0.00127343
0.00192775 6.67399e-05 -1.26447e-06
6.67399e-05 0.000209169 -9.15069e-07
-1.26447e-06 -9.15069e-07 0.000102547
0.00157913 9.05187e-05 -5.51207e-07
9.05187e-05 0.000120564 -2.25479e-06
-5.51207e-07 -2.25479e-06 2.07293e-05
0.00166867 9.66359e-05 -2.4823e-06
9.66359e-05 0.000127059 1.42363e-06
-2.4823e-06 1.42363e-06 2.55548e-05
0.00153829 9.83313e-05 -1.17054e-06
9.83313e-05 0.000234722 1.73819e-07
-1.17054e-06 1.73819e-07 0.000140272
0.00133097 9.93483e-05 5.27794e-07
9.93483e-05 8.42208e-05 -1.3206e-06
5.27794e-07 -1.3206e-06 -1.41088e-05
0.00132479 9.80648e-05 2.84367e-06
9.80648e-05 3.98179e-05 1.03081e-06
2.84367e-06 1.03081e-06 -4.45177e-05
0.00101003 6.65806e-05 -3.69364e-06
6.65806e-05 6.12323e-05 -1.56796e-06
-3.69364e-06 -1.56796e-06 -1.61961e-05
0.00114681 8.94247e-05 -1.23921e-07
8.94247e-05 8.64216e-05 -7.89042e-08
-1.23921e-07 -7.89042e-08 -8.46083e-06
0.00148314 0.000111755 1.63138e-06
0.000111755 0.000216355 5.43042e-07
1.63138e-06 5.43042e-07 0.000109986
0.00101976 7.98345e-05 1.1958e-06
7.98345e-05 6.13135e-05 -5.92245e-08
1.1958e-06 -5.92245e-08 -2.84941e-05
0.000912228 5.17408e-05 -1.60537e-07
5.17408e-05 4.0973e-05 -1.49422e-07
-1.60537e-07 -1.49422e-07 -3.0922e-05
0.000788917 1.84678e-05 -6.74044e-06
1.84678e-05 1.77948e-05 -3.82195e-06
-6.74044e-06 -3.82195e-06 -2.46123e-05
0.000775551 2.88121e-05 2.12679e-06
2.88121e-05 -1.46385e-05 6.07583e-07
2.12679e-06 6.07583e-07 -8.29079e-05
0.000697768 -1.50406e-05 3.40394e-08
-1.50406e-05 -2.49639e-05 -5.31078e-08
3.40394e-08 -5.31078e-08 -6.28759e-05
0.00295421 -8.24036e-05 -4.37716e-05
-8.24036e-05 0.00117862 -2.84599e-06
-4.37716e-05 -2.84599e-06 0.00117587
0.000601741 -5.62964e-05 2.19439e-06
-5.62964e-05 -7.45078e-05 4.03968e-06
2.19439e-06 4.03968e-06 -0.000108725
0.00279621 -7.76614e-05 -6.7068e-07
-7.76614e-05 0.00107736 1.3732e-07
-6.7068e-07 1.3732e-07 0.00107958
0.00267756 -7.05629e-05 3.29164e-05
-7.05629e-05 0.00100419 2.96146e-06
3.29164e-05 2.96146e-06 0.00101049
0.00181132 4.90263e-06 -1.5217e-07
4.90263e-06 9.17066e-05 4.63695e-07
-1.5217e-07 4.63695e-07 -5.81675e-06
0.00177448 -5.572e-06 -2.64955e-07
-5.572e-06 6.50583e-05 8.49257e-07
-2.64955e-07 8.49257e-07 -3.10154e-05
0.0018396 -1.05646e-05 -3.71614e-06
-1.05646e-05 9.99352e-05 -1.55608e-06
-3.71614e-06 -1.55608e-06 1.43124e-05
0.00173827 5.41886e-05 1.03824e-06
5.41886e-05 6.98485e-05 -1.08327e-07
1.03824e-06 -1.08327e-07 -3.39651e-05
0.00179546 0.000108014 9.76357e-07
0.000108014 0.000188987 -5.27937e-07
9.76357e-07 -5.27937e-07 8.12133e-05
0.00183911 5.28234e-05 -3.05947e-07
5.28234e-05 0.000100879 -1.94729e-06
-3.05947e-07 -1.94729e-06 -6.64746e-06
0.00178498 2.63673e-06 1.05767e-06
2.63673e-06 0.000103519 7.46812e-07
1.05767e-06 7.46812e-07 8.21118e-07
0.00175294 2.43998e-06 3.39072e-07
2.43998e-06 8.82072e-05 -4.37353e-07
3.39072e-07 -4.37353e-07 -9.37662e-06
0.00162411 8.4827e-07 -2.38519e-06
8.4827e-07 1.72898e-05 -4.80862e-07
-2.38519e-06 -4.80862e-07 -7.18359e-05
0.00170387 1.44672e-05 -7.43241e-07
1.44672e-05 9.10091e-05 -3.74633e-07
-7.43241e-07 -3.74633e-07 -1.18886e-05
0.0017728 1.13071e-05 1.71847e-06
1.13071e-05 0.000141662 -1.03595e-07
1.71847e-06 -1.03595e-07 3.52249e-05
0.00173995 2.10702e-05 -1.23535e-06
2.10702e-05 0.000109949 8.2701e-07
-1.23535e-06 8.2701e-07 1.09901e-05
0.00172248 1.59915e-05 4.14003e-07
1.59915e-05 0.000123896 -1.73648e-07
4.14003e-07 -1.73648e-07 2.05693e-05
0.00151682 9.65457e-06 -3.92874e-08
9.65457e-06 4.4395e-05 -6.94879e-07
-3.92874e-08 -6.94879e-07 -5.88063e-05
0.00165389 1.41615e-06 4.95832e-07
1.41615e-06 8.77887e-05 1.40623e-06
4.95832e-07 1.40623e-06 -1.29375e-05
0.00158281 -6.02086e-06 -9.02501e-07
-6.02086e-06 8.15114e-05 3.3847e-07
-9.02501e-07 3.3847e-07 -1.8082e-05
0.00147081 -1.42852e-05 -4.32379e-06
-1.42852e-05 7.08154e-05 -3.70789e-08
-4.32379e-06 -3.70789e-08 -2.45944e-05
0.00155557 -3.75215e-05 2.15273e-06
-3.75215e-05 7.8016e-05 8.60601e-07
2.15273e-06 8.60601e-07 -2.05664e-05
0.00143222 -4.41082e-05 7.72554e-08
-4.41082e-05 6.41287e-05 1.06835e-07
7.72554e-08 1.06835e-07 -3.07197e-05
0.00117525 -3.74442e-05 -7.05347e-06
-3.74442e-05 1.10904e-05 1.18307e-06
-7.05347e-06 1.18307e-06 -7.01711e-05
0.00136839 -6.27279e-05 3.56646e-06
-6.27279e-05 6.355e-05 -1.80349e-07
3.56646e-06 -1.80349e-07 -3.15056e-05
0.00114248 -4.96084e-05 2.9411e-07
-4.96084e-05 1.76711e-05 2.30276e-07
2.9411e-07 2.30276e-07 -6.32202e-05
0.00201374 -1.2196e-05 -1.08861e-05
-1.2196e-05 0.000610263 2.29053e-06
-1.08861e-05 2.29053e-06 0.000569381
0.00108809 -5.45601e-05 5.85843e-06
-5.45601e-05 2.08101e-05 -2.10363e-06
5.85843e-06 -2.10363e-06 -5.74911e-05
0.00202816 -2.60542e-05 1.38159e-05
-2.60542e-05 0.000633572 -9.53008e-07
1.38159e-05 -9.53008e-07 0.00059283
0.00134226 1.55426e-06 -6.34724e-05
1.55426e-06 0.000351902 5.82075e-06
-6.34724e-05 5.82075e-06 0.000330039
0.00209014 -3.6174e-05 3.62462e-05
-3.6174e-05 0.000674304 -5.14855e-06
3.62462e-05 -5.14855e-06 0.000634382
0.001265 3.41656e-05 -2.75081e-05
3.41656e-05 0.000322241 1.98727e-06
-2.75081e-05 1.98727e-06 0.000297344
0.0012298 6.38721e-05 6.25304e-06
6.38721e-05 0.000305515 -2.31787e-06
6.25304e-06 -2.31787e-06 0.000278872
0.00161125 1.99265e-05 -8.89584e-07
1.99265e-05 1.89032e-05 9.03226e-07
-8.89584e-07 9.03226e-07 -8.06952e-05
0.00162697 6.76378e-05 -2.30072e-06
6.76378e-05 9.5736e-05 -6.43471e-07
-2.30072e-06 -6.43471e-07 -7.81911e-06
0.00178406 6.485e-05 -1.69405e-06
6.485e-05 0.000134078 -1.03423e-06
-1.69405e-06 -1.03423e-06 2.69919e-05
0.00152996 8.84112e-05 -2.436e-06
8.84112e-05 0.000159694 -7.11272e-07
-2.436e-06 -7.11272e-07 6.46995e-05
0.00169178 9.37408e-05 1.05325e-06
9.37408e-05 0.000182406 7.58202e-07
1.05325e-06 7.58202e-07 8.30146e-05
0.00171514 9.92613e-05 3.91798e-06
9.92613e-05 0.000161794 2.63342e-06
3.91798e-06 2.63342e-06 6.1353e-05
0.000969627 6.82365e-05 -4.70529e-06
6.82365e-05 -3.7682e-06 -1.59473e-06
-4.70529e-06 -1.59473e-06 -8.40418e-05
0.00120722 8.97775e-05 1.42397e-06
8.97775e-05 6.24701e-05 8.03352e-07
1.42397e-06 8.03352e-07 -3.31083e-05
0.00116853 9.65012e-05 9.30645e-07
9.65012e-05 -1.23767e-06 7.41375e-07
9.30645e-07 7.41375e-07 -9.89736e-05
0.000795606 4.25747e-05 -8.5792e-06
4.25747e-05 1.6288e-05 -4.60936e-06
-8.5792e-06 -4.60936e-06 -3.11609e-05
0.000964234 6.37552e-05 -3.09869e-07
6.37552e-05 3.80155e-05 -1.96161e-07
-3.09869e-07 -1.96161e-07 -3.90276e-05
0.00114824 8.97899e-05 1.86609e-06
8.97899e-05 8.77124e-05 5.73939e-07
1.86609e-06 5.73939e-07 -7.40075e-06
0.000855959 4.85993e-05 2.66264e-06
4.85993e-05 1.2768e-05 6.48586e-07
2.66264e-06 6.48586e-07 -5.8831e-05
0.000712626 1.422e-05 -1.21459e-08
1.422e-05 -1.55861e-05 -1.80375e-08
-1.21459e-08 -1.80375e-08 -5.83278e-05
0.00321094 -7.06509e-05 -5.48241e-05
-7.06509e-05 0.00132869 -3.23868e-06
-5.48241e-05 -3.23868e-06 0.00132265
0.000652765 -2.49623e-05 3.52893e-06
-2.49623e-05 -4.39642e-05 3.84116e-06
3.52893e-06 3.84116e-06 -8.21786e-05
0.00293322 -8.578e-05 -1.09651e-06
-8.578e-05 0.00116468 1.85053e-07
-1.09651e-06 1.85053e-07 0.00116227
0.00281843 -7.85262e-05 3.55742e-05
-7.85262e-05 0.00108622 2.902e-06
3.55742e-05 2.902e-06 0.00108904
0.00181768 -4.12325e-06 -4.24012e-07
-4.12325e-06 0.000108789 -2.34679e-07
-4.24012e-07 -2.34679e-07 1.13203e-05
0.00184108 4.32544e-06 -2.51647e-07
4.32544e-06 0.000106869 1.03195e-07
-2.51647e-07 1.03195e-07 9.2249e-06
0.00179535 -3.9961e-06 -1.90761e-06
-3.9961e-06 6.94579e-05 -1.28029e-06
-1.90761e-06 -1.28029e-06 -2.80177e-05
0.00182882 5.5335e-05 4.18858e-07
5.5335e-05 0.000112516 -1.10134e-06
4.18858e-07 -1.10134e-06 1.0417e-05
0.00184019 -3.62863e-06 7.86014e-07
-3.62863e-06 0.000139961 -9.51843e-07
7.86014e-07 -9.51843e-07 3.42608e-05
0.00182405 2.13322e-06 -1.13823e-07
2.13322e-06 0.000123259 -2.98951e-07
-1.13823e-07 -2.98951e-07 2.0735e-05
0.00172562 5.98513e-06 -2.6137e-06
5.98513e-06 7.49045e-05 -1.09501e-07
-2.6137e-06 -1.09501e-07 -2.36296e-05
0.00171255 9.14489e-06 -2.89688e-06
9.14489e-06 9.44115e-05 -9.93204e-07
-2.89688e-06 -9.93204e-07 -6.92649e-06
0.00172434 1.64442e-05 -1.21402e-07
1.64442e-05 0.000113491 -6.43664e-07
-1.21402e-07 -6.43664e-07 6.90026e-06
0.0017443 1.21294e-05 -1.00705e-07
1.21294e-05 0.000144254 7.21593e-07
-1.00705e-07 7.21593e-07 3.77973e-05
0.00179507 1.65495e-05 2.41302e-07
1.65495e-05 0.000161515 5.88335e-07
2.41302e-07 5.88335e-07 5.81703e-05
0.00164495 1.09683e-05 5.77316e-07
1.09683e-05 0.000111264 -2.10633e-07
5.77316e-07 -2.10633e-07 8.7066e-06
0.00130798 7.19158e-06 -2.89591e-06
7.19158e-06 -2.2162e-05 1.55092e-07
-2.89591e-06 1.55092e-07 -0.000121092
0.00156181 -5.25078e-06 7.96987e-07
-5.25078e-06 7.15628e-05 1.09636e-06
7.96987e-07 1.09636e-06 -2.81317e-05
0.00146196 -1.18359e-05 -5.34645e-07
-1.18359e-05 6.62332e-05 1.37874e-07
-5.34645e-07 1.37874e-07 -2.91195e-05
0.0011816 -1.58026e-05 -6.98978e-06
-1.58026e-05 1.93881e-06 6.02662e-07
-6.98978e-06 6.02662e-07 -7.93941e-05
0.00142457 -4.08877e-05 3.6289e-06
-4.08877e-05 6.01741e-05 3.43069e-07
3.6289e-06 3.43069e-07 -3.45805e-05
0.00118309 -3.78901e-05 8.87701e-08
-3.78901e-05 1.41744e-05 2.35619e-07
8.87701e-08 2.35619e-07 -6.7003e-05
0.000682048 -2.20182e-05 -1.06693e-05
-2.20182e-05 -0.000102192 2.55516e-06
-1.06693e-05 2.55516e-06 -0.000148905
0.00114562 -4.85878e-05 6.70812e-06
-4.85878e-05 1.78242e-05 -1.58162e-06
6.70812e-06 -1.58162e-06 -6.29571e-05
0.00140987 -3.48797e-05 1.62189e-05
-3.48797e-05 0.000290371 -5.8404e-07
1.62189e-05 -5.8404e-07 0.00024732
0.0042882 3.99938e-05 -7.25802e-05
3.99938e-05 0.00188155 2.44328e-06
-7.25802e-05 2.44328e-06 0.00187336
0.00219223 -3.81255e-05 3.94274e-05
-3.81255e-05 0.000712712 -4.74672e-06
3.94274e-05 -4.74672e-06 0.000672834
0.00133636 3.53399e-05 -3.06204e-05
3.53399e-05 0.000356506 1.75078e-06
-3.06204e-05 1.75078e-06 0.000330757
0.00130242 6.85865e-05 4.45797e-06
6.85865e-05 0.000350435 -2.46847e-06
4.45797e-06 -2.46847e-06 0.000321007
0.00172954 6.36631e-06 3.38807e-07
6.36631e-06 8.24933e-05 3.55512e-07
3.38807e-07 3.55512e-07 -1.35534e-05
0.00144799 3.0531e-05 -1.17282e-06
3.0531e-05 -1.1994e-05 5.53761e-07
-1.17282e-06 5.53761e-07 -0.00011272
0.00173593 2.00198e-05 -8.62566e-08
2.00198e-05 8.52821e-05 2.46888e-08
-8.62566e-08 2.46888e-08 -1.40222e-05
0.00114605 6.29384e-05 -3.52825e-06
6.29384e-05 -9.22017e-05 -1.24444e-06
-3.52825e-06 -1.24444e-06 -0.000190348
0.00164213 6.794e-05 7.87217e-08
6.794e-05 0.000106424 -5.41336e-08
7.87217e-08 -5.41336e-08 3.43209e-06
0.00164916 6.31806e-05 -2.6423e-07
6.31806e-05 6.38526e-05 -7.73127e-07
-2.6423e-07 -7.73127e-07 -4.37829e-05
0.000667573 5.53781e-05 -7.03674e-06
5.53781e-05 -0.000212821 -2.32686e-06
-7.03674e-06 -2.32686e-06 -0.000295677
0.00152966 8.96581e-05 8.13734e-07
8.96581e-05 0.000159198 1.52851e-08
8.13734e-07 1.52851e-08 6.40037e-05
0.00180195 9.70505e-05 2.61826e-06
9.70505e-05 0.000243452 1.64097e-06
2.61826e-06 1.64097e-06 0.000144427
0.000759032 5.82029e-05 -1.03938e-05
5.82029e-05 -1.83031e-05 -4.75263e-06
-1.03938e-05 -4.75263e-06 -6.84617e-05
0.000783418 6.25708e-05 -1.47873e-07
6.25708e-05 -0.000102361 1.25081e-07
-1.47873e-07 1.25081e-07 -0.000183601
0.000876184 8.12593e-05 3.51488e-06
8.12593e-05 -0.000109797 1.5142e-06
3.51488e-06 1.5142e-06 -0.000206502
0.00363177 -6.43168e-05 -6.25007e-05
-6.43168e-05 0.0015568 -3.87786e-06
-6.25007e-05 -3.87786e-06 0.00154695
0.000693284 3.65088e-05 -8.30532e-08
3.65088e-05 -3.07184e-05 1.89795e-10
-8.30532e-08 1.89795e-10 -7.82236e-05
0.000927997 6.12395e-05 3.34018e-06
6.12395e-05 1.9911e-05 1.38262e-06
3.34018e-06 1.38262e-06 -5.68011e-05
0.000633479 1.05989e-05 5.67063e-06
1.05989e-05 -5.06463e-05 3.8845e-06
5.67063e-06 3.8845e-06 -9.36444e-05
0.00313359 -9.12977e-05 -3.01275e-06
-9.12977e-05 0.00128715 2.1033e-07
-3.01275e-06 2.1033e-07 0.00128015
0.00290667 -8.61056e-05 3.77233e-05
-8.61056e-05 0.00114708 2.83094e-06
3.77233e-05 2.83094e-06 0.00114551
0.0017904 -7.56536e-06 -5.21416e-07
-7.56536e-06 0.000104283 -5.60611e-07
-5.21416e-07 -5.60611e-07 4.88203e-06
0.00182012 -4.19007e-06 -3.25166e-07
-4.19007e-06 0.000106777 2.44344e-08
-3.25166e-07 2.44344e-08 9.17797e-06
0.00185205 3.85518e-06 -4.5426e-07
3.85518e-06 0.000112873 -1.25318e-06
-4.5426e-07 -1.25318e-06 1.50588e-05
0.00187323 9.14793e-06 -4.11074e-07
9.14793e-06 0.000171218 -1.66147e-07
-4.11074e-07 -1.66147e-07 6.17751e-05
0.00178226 4.26796e-07 -5.75449e-07
4.26796e-07 0.000109766 -5.32591e-07
-5.75449e-07 -5.32591e-07 3.2519e-06
0.00187733 -1.16484e-06 -2.62671e-06
-1.16484e-06 0.000149722 4.37426e-08
-2.62671e-06 4.37426e-08 4.75159e-05
0.00167122 2.01921e-05 -1.50314e-06
2.01921e-05 8.29791e-05 -1.05782e-06
-1.50314e-06 -1.05782e-06 -2.37037e-05
0.00172827 1.43579e-05 5.79687e-07
1.43579e-05 0.000136081 -1.31123e-07
5.79687e-07 -1.31123e-07 2.95547e-05
0.00171533 9.30812e-06 -2.15889e-06
9.30812e-06 0.000162164 9.00126e-07
-2.15889e-06 9.00126e-07 6.11731e-05
0.00177811 1.23104e-05 1.76764e-06
1.23104e-05 0.00018058 7.0489e-08
1.76764e-06 7.0489e-08 7.8679e-05
0.00155611 1.00749e-05 -4.98708e-08
1.00749e-05 0.000107583 5.78431e-08
-4.98708e-08 5.78431e-08 1.03186e-05
0.000861123 2.58409e-06 -7.879e-06
2.58409e-06 -0.000180178 1.24902e-06
-7.879e-06 1.24902e-06 -0.000266912
0.00143876 -1.19073e-05 2.82381e-06
-1.19073e-05 5.45456e-05 3.29161e-07
2.82381e-06 3.29161e-07 -4.0856e-05
0.00119284 -1.34938e-05 -6.65024e-08
-1.34938e-05 6.99878e-06 -9.23365e-08
-6.65024e-08 -9.23365e-08 -7.41986e-05
0.000709241 -1.15922e-05 -1.07818e-05
-1.15922e-05 -9.61628e-05 1.52033e-06
-1.07818e-05 1.52033e-06 -0.000143505
0.00118444 -3.66707e-05 7.24439e-06
-3.66707e-05 1.39664e-05 -8.2401e-07
7.24439e-06 -8.2401e-07 -6.70591e-05
0.000689505 -1.91162e-05 -2.35474e-08
-1.91162e-05 -9.8216e-05 1.73009e-07
-2.35474e-08 1.73009e-07 -0.000144953
0.00434172 3.33645e-05 -7.49507e-05
3.33645e-05 0.0019026 1.71309e-06
-7.49507e-05 1.71309e-06 0.00189545
0.000787279 -3.75876e-05 1.28236e-05
-3.75876e-05 -3.68045e-05 -4.35805e-06
1.28236e-05 -4.35805e-06 -8.46135e-05
0.00290312 4.18506e-05 2.761e-05
4.18506e-05 0.00115966 7.88693e-07
2.761e-05 7.88693e-07 0.00114251
0.00135377 4.66704e-05 7.61739e-06
4.66704e-05 0.000369482 -2.08925e-06
7.61739e-06 -2.08925e-06 0.000342343
0.00185335 -3.50668e-06 1.87706e-07
-3.50668e-06 0.000156042 1.73277e-07
1.87706e-07 1.73277e-07 6.04592e-05
0.00161931 1.28873e-05 -4.32136e-07
1.28873e-05 6.7625e-05 2.49142e-07
-4.32136e-07 2.49142e-07 -2.94584e-05
0.00168906 5.63632e-06 3.95062e-07
5.63632e-06 6.28731e-05 2.64287e-07
3.95062e-07 2.64287e-07 -3.28286e-05
0.00143337 3.95537e-05 -2.84431e-06
3.95537e-05 3.62764e-05 -3.30724e-07
-2.84431e-06 -3.30724e-07 -5.92632e-05
0.00153305 3.0772e-05 4.02727e-07
3.0772e-05 2.98745e-05 -1.05814e-07
4.02727e-07 -1.05814e-07 -7.02122e-05
0.00184403 1.9994e-05 5.75505e-07
1.9994e-05 0.000143041 -8.18684e-07
5.75505e-07 -8.18684e-07 4.40717e-05
0.000767817 4.75392e-05 -7.75404e-06
4.75392e-05 -0.000202961 -2.34154e-06
-7.75404e-06 -2.34154e-06 -0.000286741
0.00153598 7.16689e-05 -1.18535e-06
7.16689e-05 0.000110507 -3.49347e-07
-1.18535e-06 -3.49347e-07 1.37968e-05
0.00168276 6.86101e-05 2.66501e-06
6.86101e-05 0.000129449 -2.20384e-08
2.66501e-06 -2.20384e-08 2.70876e-05
0.000722635 5.82002e-05 -1.13793e-05
5.82002e-05 -5.94736e-05 -4.34768e-06
-1.13793e-05 -4.34768e-06 -0.00010905
0.000713226 5.70196e-05 -1.87928e-06
5.70196e-05 -0.000192554 -6.80175e-07
-1.87928e-06 -6.80175e-07 -0.000276018
0.0015302 9.09353e-05 3.902e-06
9.09353e-05 0.000159107 9.65695e-07
3.902e-06 9.65695e-07 6.37147e-05
0.00407214 -7.02379e-05 -6.63504e-05
-7.02379e-05 0.00178536 -3.99953e-06
-6.63504e-05 -3.99953e-06 0.0017726
0.000686392 5.21427e-05 2.01888e-07
5.21427e-05 -5.25433e-05 1.92236e-07
2.01888e-07 1.92236e-07 -0.000102494
0.000590612 5.66472e-05 4.55822e-06
5.66472e-05 -0.000204129 2.04373e-06
4.55822e-06 2.04373e-06 -0.000286346
0.00344975 -8.1686e-05 -3.25142e-06
-8.1686e-05 0.00146346 1.96795e-07
-3.25142e-06 1.96795e-07 0.00145341
0.000601063 3.06498e-05 6.71512e-06
3.06498e-05 -7.32309e-05 4.42521e-06
6.71512e-06 4.42521e-06 -0.000120762
0.00302445 -9.44459e-05 3.96071e-05
-9.44459e-05 0.00122803 2.71622e-06
3.96071e-05 2.71622e-06 0.00122141
0.00184673 4.13605e-06 -1.58857e-07
4.13605e-06 0.000157415 -7.42121e-07
-1.58857e-07 -7.42121e-07 5.44815e-05
0.00180444 -6.52834e-06 5.59909e-08
-6.52834e-06 0.000112751 7.66941e-07
5.59909e-08 7.66941e-07 1.33472e-05
0.0018089 -4.12479e-06 -5.00674e-07
-4.12479e-06 9.81576e-05 1.09177e-07
-5.00674e-07 1.09177e-07 3.75489e-07
0.0017774 -2.28274e-06 -2.84371e-06
-2.28274e-06 0.000160818 -6.99315e-08
-2.84371e-06 -6.99315e-08 5.67244e-05
0.00181747 8.70682e-06 6.4976e-07
8.70682e-06 0.000146563 3.22089e-08
6.4976e-07 3.22089e-08 3.74556e-05
0.00169982 6.80212e-06 -2.86892e-07
6.80212e-06 6.74943e-05 -6.29984e-07
-2.86892e-07 -6.29984e-07 -3.99735e-05
0.00171619 1.52439e-05 8.51648e-07
1.52439e-05 0.000129764 -6.71034e-07
8.51648e-07 -6.71034e-07 2.32085e-05
0.00171329 9.51204e-06 8.38188e-07
9.51204e-06 0.00016139 -9.5398e-08
8.38188e-07 -9.5398e-08 6.04225e-05
0.000937554 3.14799e-06 -7.73641e-06
3.14799e-06 -0.000170749 1.5024e-06
-7.73641e-06 1.5024e-06 -0.000262298
0.00182352 1.29755e-05 3.57635e-06
1.29755e-05 0.000246906 -2.68144e-07
3.57635e-06 -2.68144e-07 0.000151341
0.00103419 4.99215e-06 -1.55148e-06
4.99215e-06 -8.79529e-05 3.86125e-07
-1.55148e-06 3.86125e-07 -0.000173042
0.000720075 -3.17145e-06 -1.10648e-05
-3.17145e-06 -0.000100279 1.1886e-06
-1.10648e-05 1.1886e-06 -0.000151047
0.00120988 -1.30293e-05 6.87488e-06
-1.30293e-05 1.47967e-05 -9.03791e-07
6.87488e-06 -9.03791e-07 -6.62977e-05
0.000711766 -2.80158e-06 2.43848e-07
-2.80158e-06 -9.48304e-05 -6.51821e-08
2.43848e-07 -6.51821e-08 -0.000142415
0.00443539 3.34357e-05 -7.79179e-05
3.34357e-05 0.00194594 9.69786e-07
-7.79179e-05 9.69786e-07 0.00193929
0.000688673 -1.42022e-05 1.03901e-05
-1.42022e-05 -9.85023e-05 -2.1601e-06
1.03901e-05 -2.1601e-06 -0.00014504
0.00439001 3.99894e-05 7.34158e-08
3.99894e-05 0.00192666 2.63752e-07
7.34158e-08 2.63752e-07 0.00191941
0.0015693 -8.85262e-07 6.81858e-05
-8.85262e-07 0.000459773 -2.78227e-06
6.81858e-05 -2.78227e-06 0.000438504
0.00184622 1.99282e-06 -6.36757e-08
1.99282e-06 0.00017914 -3.14384e-07
-6.36757e-08 -3.14384e-07 8.23223e-05
0.0017423 -3.93353e-06 5.33801e-07
-3.93353e-06 9.94525e-05 4.40367e-07
5.33801e-07 4.40367e-07 4.80744e-06
0.00148065 1.29194e-05 -2.42632e-06
1.29194e-05 4.41783e-05 -5.19999e-07
-2.42632e-06 -5.19999e-07 -5.10467e-05
0.00165094 1.24487e-05 3.44339e-07
1.24487e-05 8.26064e-05 -6.86815e-08
3.44339e-07 -6.86815e-08 -1.45647e-05
0.00164999 4.93287e-06 1.32973e-06
4.93287e-06 4.38409e-05 -3.07643e-07
1.32973e-06 -3.07643e-07 -5.1498e-05
0.00121523 3.51149e-05 -6.87212e-06
3.51149e-05 7.51911e-06 -1.64238e-06
-6.87212e-06 -1.64238e-06 -7.4545e-05
0.00147334 4.02236e-05 -3.97447e-08
4.02236e-05 5.47922e-05 9.77169e-08
-3.97447e-08 9.77169e-08 -4.06969e-05
0.00160603 3.08482e-05 1.35529e-06
3.08482e-05 6.59336e-05 -2.33989e-07
1.35529e-06 -2.33989e-07 -3.35548e-05
0.000715838 4.48376e-05 -1.169e-05
4.48376e-05 -8.31118e-05 -3.70419e-06
-1.169e-05 -3.70419e-06 -0.000131455
0.000986906 5.27485e-05 -2.23858e-06
5.27485e-05 -8.88931e-05 -5.24764e-07
-2.23858e-06 -5.24764e-07 -0.000172086
0.00192335 8.02733e-05 2.96509e-06
8.02733e-05 0.000312014 4.81891e-07
2.96509e-06 4.81891e-07 0.000216735
0.00436576 -5.92824e-05 -7.20361e-05
-5.92824e-05 0.00192699 -3.48944e-06
-7.20361e-05 -3.48944e-06 0.0019159
0.000680448 5.37675e-05 2.10052e-07
5.37675e-05 -7.94052e-05 1.63869e-07
2.10052e-07 1.63869e-07 -0.000129068
0.000752783 5.8675e-05 4.20963e-06
5.8675e-05 -0.000175272 1.33686e-06
4.20963e-06 1.33686e-06 -0.000259368
0.00386064 -6.8036e-05 -1.26083e-06
-6.8036e-05 0.00167618 2.21153e-07
-1.26083e-06 2.21153e-07 0.00166488
0.000598709 4.68148e-05 8.62386e-06
4.68148e-05 -9.45501e-05 4.85305e-06
8.62386e-06 4.85305e-06 -0.00014426
0.00326713 -9.94555e-05 4.48984e-05
-9.94555e-05 0.00136994 2.73297e-06
4.48984e-05 2.73297e-06 0.00135918
0.00178743 9.10092e-06 -1.84048e-06
9.10092e-06 0.000172856 -9.56121e-07
-1.84048e-06 -9.56121e-07 7.33681e-05
0.00184534 1.89059e-06 3.96448e-07
1.89059e-06 0.000159411 3.92634e-07
3.96448e-07 3.92634e-07 5.67996e-05
0.00182492 -5.92406e-06 1.24736e-06
-5.92406e-06 0.000124208 1.91694e-06
1.24736e-06 1.91694e-06 2.4852e-05
0.000978444 -1.3157e-05 -8.53419e-06
-1.3157e-05 -0.000171786 3.74858e-07
-8.53419e-06 3.74858e-07 -0.000265787
0.00179916 4.60464e-06 8.85414e-07
4.60464e-06 0.000173251 1.15492e-07
8.85414e-07 1.15492e-07 6.88549e-05
0.00177326 8.60728e-06 1.47569e-06
8.60728e-06 0.000127755 -4.23611e-07
1.47569e-06 -4.23611e-07 1.89847e-05
0.00171475 9.41948e-06 3.67831e-06
9.41948e-06 0.000162457 -6.5862e-07
3.67831e-06 -6.5862e-07 6.15009e-05
0.000917002 2.5665e-06 -1.13234e-06
2.5665e-06 -0.000177408 3.99819e-07
-1.13234e-06 3.99819e-07 -0.000268318
0.000741462 4.81992e-06 -1.16246e-05
4.81992e-06 -0.000107246 7.75082e-07
-1.16246e-05 7.75082e-07 -0.000161748
0.00119539 8.16721e-06 5.20845e-06
8.16721e-06 -1.8276e-06 -6.82724e-07
5.20845e-06 -6.82724e-07 -8.5262e-05
0.000744458 6.23691e-06 3.13423e-07
6.23691e-06 -8.9142e-05 -4.58285e-08
3.13423e-07 -4.58285e-08 -0.00013995
0.00456961 3.34516e-05 -8.07892e-05
3.34516e-05 0.00201044 2.55652e-07
-8.07892e-05 2.55652e-07 0.00200374
0.000719096 6.29235e-06 1.04899e-05
6.29235e-06 -9.13198e-05 -1.43138e-06
1.04899e-05 -1.43138e-06 -0.000138883
0.00447868 4.53994e-05 1.88672e-06
4.53994e-05 0.00196757 2.25383e-07
1.88672e-06 2.25383e-07 0.00196059
0.00445398 4.37288e-05 7.98353e-05
4.37288e-05 0.00195803 -1.15256e-06
7.98353e-05 -1.15256e-06 0.00195095
0.00156263 3.90768e-06 -2.46549e-06
3.90768e-06 7.35749e-05 -1.0277e-06
-2.46549e-06 -1.0277e-06 -2.33258e-05
0.00172757 8.47349e-07 3.89386e-07
8.47349e-07 0.000116088 6.78052e-08
3.89386e-07 6.78052e-08 1.94801e-05
0.00164557 -4.29229e-06 3.53126e-07
-4.29229e-06 5.02786e-05 6.19917e-07
3.53126e-07 6.19917e-07 -4.34592e-05
0.0012376 1.0447e-05 -6.72052e-06
1.0447e-05 1.94006e-06 -1.57475e-06
-6.72052e-06 -1.57475e-06 -8.13127e-05
0.0015101 1.29967e-05 1.30801e-07
1.29967e-05 5.83551e-05 -4.59714e-08
1.30801e-07 -4.59714e-08 -3.69447e-05
0.00168033 1.19925e-05 7.55592e-07
1.19925e-05 9.64461e-05 -3.33296e-07
7.55592e-07 -3.33296e-07 -8.10351e-07
0.000729095 2.67957e-05 -1.15361e-05
2.67957e-05 -9.22236e-05 -3.10797e-06
-1.15361e-05 -3.10797e-06 -0.000140585
0.00121818 3.57572e-05 -7.24983e-08
3.57572e-05 9.41968e-06 1.25704e-07
-7.24983e-08 1.25704e-07 -7.28045e-05
0.00151659 4.09049e-05 3.19896e-06
4.09049e-05 7.49087e-05 5.92855e-07
3.19896e-06 5.92855e-07 -2.05281e-05
0.00451587 -2.64362e-05 -8.22238e-05
-2.64362e-05 0.0019899 -2.68622e-06
-8.22238e-05 -2.68622e-06 0.00198282
0.000692682 4.32224e-05 1.22782e-08
4.32224e-05 -9.39352e-05 1.13277e-07
1.22782e-08 1.13277e-07 -0.000142402
0.00120531 5.81555e-05 4.91562e-06
5.81555e-05 2.48267e-05 1.45606e-06
4.91562e-06 1.45606e-06 -5.77913e-05
0.00419683 -4.93776e-05 3.75578e-06
-4.93776e-05 0.0018415 9.49935e-08
3.75578e-06 9.49935e-08 0.00183096
0.000632201 4.86102e-05 9.95724e-06
4.86102e-05 -0.000102485 4.42385e-06
9.95724e-06 4.42385e-06 -0.000152208
0.00365222 -9.12463e-05 5.24271e-05
-9.12463e-05 0.00157361 3.4274e-06
5.24271e-05 3.4274e-06 0.00156065
0.00132305 1.7991e-06 -7.20106e-06
1.7991e-06 1.23584e-05 -7.67056e-07
-7.20106e-06 -7.67056e-07 -7.7408e-05
0.00162057 3.78151e-06 1.07108e-06
3.78151e-06 8.41654e-05 -1.97698e-07
1.07108e-06 -1.97698e-07 -1.70143e-05
0.001834 -1.55939e-06 1.07752e-06
-1.55939e-06 0.000156431 1.81703e-06
1.07752e-06 1.81703e-06 5.41183e-05
0.000756942 1.26931e-05 -1.23541e-05
1.26931e-05 -0.000114922 -2.05381e-07
-1.23541e-05 -2.05381e-07 -0.000170619
0.000955822 -5.81198e-06 -1.42765e-06
-5.81198e-06 -0.00018163 3.67124e-07
-1.42765e-06 3.67124e-07 -0.000275431
0.00182007 1.12493e-05 4.50129e-06
1.12493e-05 0.000185231 -4.06139e-07
4.50129e-06 -4.06139e-07 8.05346e-05
0.000895041 2.47042e-06 5.02069e-06
2.47042e-06 -0.000184847 -3.83866e-07
5.02069e-06 -3.83866e-07 -0.000275106
0.000760053 7.88561e-06 2.00187e-07
7.88561e-06 -9.88085e-05 2.57609e-07
2.00187e-07 2.57609e-07 -0.000153461
0.0048385 3.41283e-05 -8.44116e-05
3.41283e-05 0.00214086 -4.58481e-07
-8.44116e-05 -4.58481e-07 0.00213377
0.000763627 1.48887e-05 1.09789e-05
1.48887e-05 -8.02173e-05 -1.0611e-06
1.09789e-05 -1.0611e-06 -0.000131282
0.00465761 3.69e-05 1.44903e-06
3.69e-05 0.00205308 2.97483e-07
1.44903e-06 2.97483e-07 0.00204638
0.00452295 4.23712e-05 8.42794e-05
4.23712e-05 0.00198832 -4.26797e-07
8.42794e-05 -4.26797e-07 0.0019818
0.00128371 1.57532e-06 -7.02859e-06
1.57532e-06 7.65848e-06 -1.6379e-06
-7.02859e-06 -1.6379e-06 -7.86864e-05
0.00148671 2.40806e-06 -3.53767e-08
2.40806e-06 3.19613e-05 -1.60558e-07
-3.53767e-08 -1.60558e-07 -6.54368e-05
0.00160582 -3.47428e-07 5.05166e-07
-3.47428e-07 5.1457e-05 4.38079e-07
5.05166e-07 4.38079e-07 -4.49371e-05
0.00239417 3.52378e-06 -4.77471e-05
3.52378e-06 0.000761609 -1.84638e-06
-4.77471e-05 -1.84638e-06 0.000721212
0.00124633 1.12084e-05 1.12832e-07
1.12084e-05 6.62727e-06 6.42317e-08
1.12832e-07 6.42317e-08 -7.68254e-05
0.00154297 1.29214e-05 2.8829e-06
1.29214e-05 7.42462e-05 4.96889e-07
2.8829e-06 4.96889e-07 -2.11287e-05
0.00464659 -1.80657e-05 -8.93469e-05
-1.80657e-05 0.00204732 -1.92857e-06
-8.93469e-05 -1.92857e-06 0.00204141
0.000720445 2.78815e-05 -5.8565e-08
2.78815e-05 -9.63097e-05 5.06794e-08
-5.8565e-08 5.06794e-08 -0.000144685
0.00122185 3.62727e-05 7.05964e-06
3.62727e-05 1.16721e-05 1.84391e-06
7.05964e-06 1.84391e-06 -7.07267e-05
0.00442392 -2.18776e-05 2.01014e-06
-2.18776e-05 0.00194534 2.90674e-07
2.01014e-06 2.90674e-07 0.00193794
0.000670172 4.18975e-05 1.07877e-05
4.18975e-05 -0.000104394 3.80702e-06
1.07877e-05 3.80702e-06 -0.00015293
0.00405419 -4.19664e-05 6.73898e-05
-4.19664e-05 0.00176781 3.26774e-06
6.73898e-05 3.26774e-06 0.00175892
0.000807483 6.2146e-06 -1.45932e-05
6.2146e-06 -9.16416e-05 -1.81227e-06
-1.45932e-05 -1.81227e-06 -0.000148561
0.0011377 -1.18012e-06 2.45515e-07
-1.18012e-06 -8.45584e-05 3.35686e-07
2.45515e-07 3.35686e-07 -0.000175395
0.00145193 -1.53029e-06 3.7475e-06
-1.53029e-06 -5.59185e-06 9.3015e-07
3.7475e-06 9.3015e-07 -0.000108405
0.00508787 -5.45426e-05 -8.50329e-05
-5.45426e-05 0.00226962 -1.48642e-06
-8.50329e-05 -1.48642e-06 0.00225718
0.000779343 8.7346e-06 2.97335e-08
8.7346e-06 -0.000103154 3.4642e-07
2.97335e-08 3.4642e-07 -0.000159583
0.000940255 1.0773e-06 5.44984e-06
1.0773e-06 -0.000187904 2.06447e-07
5.44984e-06 2.06447e-07 -0.000281516
0.000787368 1.52991e-05 1.17019e-05
1.52991e-05 -8.57231e-05 -1.68029e-07
1.17019e-05 -1.68029e-07 -0.000140732
0.00493783 6.8357e-05 3.86711e-06
6.8357e-05 0.0021917 4.04044e-07
3.86711e-06 4.04044e-07 0.00218291
0.00474757 5.77403e-05 8.97895e-05
5.77403e-05 0.00209744 2.8791e-07
8.97895e-05 2.8791e-07 0.00209008
0.00250875 -1.60746e-05 -5.24241e-05
-1.60746e-05 0.000805386 -1.97464e-06
-5.24241e-05 -1.97464e-06 0.000761601
0.00128544 3.18719e-06 -7.84816e-08
3.18719e-06 8.47605e-06 -4.84478e-09
-7.84816e-08 -4.84478e-09 -7.786e-05
0.00140707 1.07465e-06 2.49979e-06
1.07465e-06 -1.15623e-05 7.53825e-07
2.49979e-06 7.53825e-07 -0.000109452
0.00455079 -8.44602e-06 -2.54519e-05
-8.44602e-06 0.00199927 -8.10719e-07
-2.54519e-05 -8.10719e-07 0.00198987
0.00076598 9.44065e-06 -1.62145e-07
9.44065e-06 -8.51559e-05 9.48784e-08
-1.62145e-07 9.48784e-08 -0.000135567
0.00126037 1.29133e-05 6.89435e-06
1.29133e-05 1.37184e-05 1.67335e-06
6.89435e-06 1.67335e-06 -6.98754e-05
0.00457091 -1.27139e-05 -2.14555e-07
-1.27139e-05 0.00201124 3.31337e-07
-2.14555e-07 3.31337e-07 0.00200512
0.000709086 2.97067e-05 1.15788e-05
2.97067e-05 -0.000101516 3.27243e-06
1.15788e-05 3.27243e-06 -0.000149919
0.00431376 -1.38709e-05 7.7106e-05
-1.38709e-05 0.00189056 3.00894e-06
7.7106e-05 3.00894e-06 0.00188345
0.00177007 -1.10609e-05 -8.98671e-05
-1.10609e-05 0.000524624 -2.229e-07
-8.98671e-05 -2.229e-07 0.000499192
0.00168101 4.17865e-06 -2.10887e-05
4.17865e-06 0.000365922 5.32876e-07
-2.10887e-05 5.32876e-07 0.000315654
0.000959928 -6.15209e-07 7.03271e-06
-6.15209e-07 -0.000177471 1.45324e-06
7.03271e-06 1.45324e-06 -0.000269384
0.00511152 -3.70453e-05 4.00324e-06
-3.70453e-05 0.0022777 -8.02075e-07
4.00324e-06 -8.02075e-07 0.00226748
0.000783995 6.79163e-06 1.25035e-05
6.79163e-06 -0.000100773 8.89973e-07
1.25035e-05 8.89973e-07 -0.000157489
0.00501911 3.82553e-05 9.4993e-05
3.82553e-05 0.00222835 1.00692e-06
9.4993e-05 1.00692e-06 0.00222135
0.00147719 -3.88329e-05 -9.76635e-06
-3.88329e-05 0.000388133 -8.26738e-07
-9.76635e-06 -8.26738e-07 0.000359244
0.00166527 2.28335e-06 -2.00185e-05
2.28335e-06 0.000369203 1.97763e-07
-2.00185e-05 1.97763e-07 0.000320681
0.0012882 2.47799e-06 6.71699e-06
2.47799e-06 9.90654e-06 1.65275e-06
6.71699e-06 1.65275e-06 -7.64611e-05
0.0030726 -7.31603e-06 3.63584e-05
-7.31603e-06 0.00122352 3.52316e-07
3.63584e-05 3.52316e-07 0.00120738
0.0007588 1.61757e-05 1.19929e-05
1.61757e-05 -8.89096e-05 2.88337e-06
1.19929e-05 2.88337e-06 -0.000139528
0.00451666 -5.01067e-06 8.34074e-05
-5.01067e-06 0.00198545 2.52641e-06
8.34074e-05 2.52641e-06 0.00197924
0.00513574 -6.68935e-05 -4.19594e-06
-6.68935e-05 0.00228759 4.61607e-07
-4.19594e-06 4.61607e-07 0.00227818
0.00078019 1.0389e-05 1.25565e-05
1.0389e-05 -0.000102696 1.94309e-06
1.25565e-05 1.94309e-06 -0.000158466
0.00514611 4.42631e-05 9.22188e-05
4.42631e-05 0.0022946 -9.17672e-07
9.22188e-05 -9.17672e-07 0.00228408
0.00323419 -1.09371e-05 3.84017e-05
-1.09371e-05 0.0012992 1.53993e-08
3.84017e-05 1.53993e-08 0.00128169
0.000785622 8.43375e-06 1.21253e-05
8.43375e-06 -8.77548e-05 2.51455e-06
1.21253e-05 2.51455e-06 -0.000141737
0.00468754 -7.68421e-06 8.63113e-05
-7.68421e-06 0.00206607 1.81423e-06
8.63113e-05 1.81423e-06 0.00205998
0.0050666 -0.000116234 8.59817e-05
-0.000116234 0.00225963 -6.5153e-08
8.59817e-05 -6.5153e-08 0.00224606
0.0048918 -5.39007e-05 8.62286e-05
-5.39007e-05 0.0021666 7.55811e-07
8.62286e-05 7.55811e-07 0.00215885
